    1C
    1UUSER                                                              
    1UDATE              11.october.2022                                 
    1UTIME              18:52:24                                        
    1UHOST                                                              
    1UPGM               CalculiX                                        
    1UVERSION           Version 2.20                             
    1UCOMPILETIME       Sun Jul 31 18:08:37 CEST 2022                    
    1UDIR                                                               
    1UDBN                                                               
    1UMAT    1MESH_MATERIAL                                             
    2C                           409                                     1
 -1         1 0.00000E+00 0.00000E+00 0.00000E+00
 -1         2 1.66667E-02 0.00000E+00 0.00000E+00
 -1         3 3.33333E-02 0.00000E+00 0.00000E+00
 -1         5 6.66667E-02 0.00000E+00 0.00000E+00
 -1         8 0.00000E+00 6.25000E-03 0.00000E+00
 -1         9 1.66667E-02 6.25000E-03 0.00000E+00
 -1        10 3.33333E-02 6.25000E-03 0.00000E+00
 -1        12 6.66667E-02 6.25000E-03 0.00000E+00
 -1        15 0.00000E+00 1.25000E-02 0.00000E+00
 -1        16 1.66667E-02 1.25000E-02 0.00000E+00
 -1        17 3.33333E-02 1.25000E-02 0.00000E+00
 -1        18 5.00000E-02 1.25000E-02 0.00000E+00
 -1        19 6.66667E-02 1.25000E-02 0.00000E+00
 -1        20 8.33333E-02 1.25000E-02 0.00000E+00
 -1        21 1.00000E-01 1.25000E-02 0.00000E+00
 -1        24 3.33333E-02 1.87500E-02 0.00000E+00
 -1        25 5.00000E-02 1.87500E-02 0.00000E+00
 -1        26 6.66667E-02 1.87500E-02 0.00000E+00
 -1        27 8.33333E-02 1.87500E-02 0.00000E+00
 -1        28 1.00000E-01 1.87500E-02 0.00000E+00
 -1        32 5.00000E-02 2.50000E-02 0.00000E+00
 -1        33 6.66667E-02 2.50000E-02 0.00000E+00
 -1        34 8.33333E-02 2.50000E-02 0.00000E+00
 -1        35 1.00000E-01 2.50000E-02 0.00000E+00
 -1        51 0.00000E+00 1.04167E-03 0.00000E+00
 -1        52 0.00000E+00 2.08333E-03 0.00000E+00
 -1        53 0.00000E+00 3.12500E-03 0.00000E+00
 -1        54 0.00000E+00 4.16667E-03 0.00000E+00
 -1        55 0.00000E+00 5.20833E-03 0.00000E+00
 -1        56 1.04167E-03 3.90630E-04 0.00000E+00
 -1        57 2.08333E-03 7.81250E-04 0.00000E+00
 -1        58 3.12500E-03 1.17188E-03 0.00000E+00
 -1        59 4.16667E-03 1.56250E-03 0.00000E+00
 -1        60 5.20833E-03 1.95312E-03 0.00000E+00
 -1        61 6.25000E-03 2.34375E-03 0.00000E+00
 -1        62 7.29167E-03 2.73438E-03 0.00000E+00
 -1        63 8.33333E-03 3.12500E-03 0.00000E+00
 -1        64 9.37500E-03 3.51563E-03 0.00000E+00
 -1        65 1.04167E-02 3.90625E-03 0.00000E+00
 -1        66 1.14583E-02 4.29688E-03 0.00000E+00
 -1        67 1.25000E-02 4.68750E-03 0.00000E+00
 -1        68 1.35417E-02 5.07813E-03 0.00000E+00
 -1        69 1.45833E-02 5.46875E-03 0.00000E+00
 -1        70 1.56250E-02 5.85938E-03 0.00000E+00
 -1        86 1.66667E-02 1.04167E-03 0.00000E+00
 -1        87 1.66667E-02 2.08333E-03 0.00000E+00
 -1        88 1.66667E-02 3.12500E-03 0.00000E+00
 -1        89 1.66667E-02 4.16667E-03 0.00000E+00
 -1        90 1.66667E-02 5.20833E-03 0.00000E+00
 -1       121 3.33333E-02 1.04167E-03 0.00000E+00
 -1       122 3.33333E-02 2.08333E-03 0.00000E+00
 -1       123 3.33333E-02 3.12500E-03 0.00000E+00
 -1       124 3.33333E-02 4.16667E-03 0.00000E+00
 -1       125 3.33333E-02 5.20833E-03 0.00000E+00
 -1       191 6.66667E-02 1.04167E-03 0.00000E+00
 -1       192 6.66667E-02 2.08333E-03 0.00000E+00
 -1       193 6.66667E-02 3.12500E-03 0.00000E+00
 -1       194 6.66667E-02 4.16667E-03 0.00000E+00
 -1       195 6.66667E-02 5.20833E-03 0.00000E+00
 -1       251 1.04167E-03 6.25000E-03 0.00000E+00
 -1       252 2.08333E-03 6.25000E-03 0.00000E+00
 -1       253 3.12500E-03 6.25000E-03 0.00000E+00
 -1       254 4.16667E-03 6.25000E-03 0.00000E+00
 -1       255 5.20833E-03 6.25000E-03 0.00000E+00
 -1       256 6.25000E-03 6.25000E-03 0.00000E+00
 -1       257 7.29167E-03 6.25000E-03 0.00000E+00
 -1       258 8.33333E-03 6.25000E-03 0.00000E+00
 -1       259 9.37500E-03 6.25000E-03 0.00000E+00
 -1       260 1.04167E-02 6.25000E-03 0.00000E+00
 -1       261 1.14583E-02 6.25000E-03 0.00000E+00
 -1       262 1.25000E-02 6.25000E-03 0.00000E+00
 -1       263 1.35417E-02 6.25000E-03 0.00000E+00
 -1       264 1.45833E-02 6.25000E-03 0.00000E+00
 -1       265 1.56250E-02 6.25000E-03 0.00000E+00
 -1       266 0.00000E+00 7.29167E-03 0.00000E+00
 -1       267 0.00000E+00 8.33333E-03 0.00000E+00
 -1       268 0.00000E+00 9.37500E-03 0.00000E+00
 -1       269 0.00000E+00 1.04167E-02 0.00000E+00
 -1       270 0.00000E+00 1.14583E-02 0.00000E+00
 -1       271 1.04167E-03 6.64063E-03 0.00000E+00
 -1       272 2.08333E-03 7.03125E-03 0.00000E+00
 -1       273 3.12500E-03 7.42188E-03 0.00000E+00
 -1       274 4.16667E-03 7.81250E-03 0.00000E+00
 -1       275 5.20833E-03 8.20313E-03 0.00000E+00
 -1       276 6.25000E-03 8.59375E-03 0.00000E+00
 -1       277 7.29167E-03 8.98438E-03 0.00000E+00
 -1       278 8.33333E-03 9.37500E-03 0.00000E+00
 -1       279 9.37500E-03 9.76562E-03 0.00000E+00
 -1       280 1.04167E-02 1.01562E-02 0.00000E+00
 -1       281 1.14583E-02 1.05469E-02 0.00000E+00
 -1       282 1.25000E-02 1.09375E-02 0.00000E+00
 -1       283 1.35417E-02 1.13281E-02 0.00000E+00
 -1       284 1.45833E-02 1.17188E-02 0.00000E+00
 -1       285 1.56250E-02 1.21094E-02 0.00000E+00
 -1       301 1.66667E-02 7.29167E-03 0.00000E+00
 -1       302 1.66667E-02 8.33333E-03 0.00000E+00
 -1       303 1.66667E-02 9.37500E-03 0.00000E+00
 -1       304 1.66667E-02 1.04167E-02 0.00000E+00
 -1       305 1.66667E-02 1.14583E-02 0.00000E+00
 -1       306 1.77083E-02 6.64063E-03 0.00000E+00
 -1       307 1.87500E-02 7.03125E-03 0.00000E+00
 -1       308 1.97917E-02 7.42188E-03 0.00000E+00
 -1       309 2.08333E-02 7.81250E-03 0.00000E+00
 -1       310 2.18750E-02 8.20313E-03 0.00000E+00
 -1       311 2.29167E-02 8.59375E-03 0.00000E+00
 -1       312 2.39583E-02 8.98438E-03 0.00000E+00
 -1       313 2.50000E-02 9.37500E-03 0.00000E+00
 -1       314 2.60417E-02 9.76562E-03 0.00000E+00
 -1       315 2.70833E-02 1.01562E-02 0.00000E+00
 -1       316 2.81250E-02 1.05469E-02 0.00000E+00
 -1       317 2.91667E-02 1.09375E-02 0.00000E+00
 -1       318 3.02083E-02 1.13281E-02 0.00000E+00
 -1       319 3.12500E-02 1.17188E-02 0.00000E+00
 -1       320 3.22917E-02 1.21094E-02 0.00000E+00
 -1       336 3.33333E-02 7.29167E-03 0.00000E+00
 -1       337 3.33333E-02 8.33333E-03 0.00000E+00
 -1       338 3.33333E-02 9.37500E-03 0.00000E+00
 -1       339 3.33333E-02 1.04167E-02 0.00000E+00
 -1       340 3.33333E-02 1.14583E-02 0.00000E+00
 -1       406 6.66667E-02 7.29167E-03 0.00000E+00
 -1       407 6.66667E-02 8.33333E-03 0.00000E+00
 -1       408 6.66667E-02 9.37500E-03 0.00000E+00
 -1       409 6.66667E-02 1.04167E-02 0.00000E+00
 -1       410 6.66667E-02 1.14583E-02 0.00000E+00
 -1       521 1.77083E-02 1.28906E-02 0.00000E+00
 -1       522 1.87500E-02 1.32813E-02 0.00000E+00
 -1       523 1.97917E-02 1.36719E-02 0.00000E+00
 -1       524 2.08333E-02 1.40625E-02 0.00000E+00
 -1       525 2.18750E-02 1.44531E-02 0.00000E+00
 -1       526 2.29167E-02 1.48437E-02 0.00000E+00
 -1       527 2.39583E-02 1.52344E-02 0.00000E+00
 -1       528 2.50000E-02 1.56250E-02 0.00000E+00
 -1       529 2.60417E-02 1.60156E-02 0.00000E+00
 -1       530 2.70833E-02 1.64062E-02 0.00000E+00
 -1       531 2.81250E-02 1.67969E-02 0.00000E+00
 -1       532 2.91667E-02 1.71875E-02 0.00000E+00
 -1       533 3.02083E-02 1.75781E-02 0.00000E+00
 -1       534 3.12500E-02 1.79687E-02 0.00000E+00
 -1       535 3.22917E-02 1.83594E-02 0.00000E+00
 -1       536 3.43750E-02 1.25000E-02 0.00000E+00
 -1       537 3.54167E-02 1.25000E-02 0.00000E+00
 -1       538 3.64583E-02 1.25000E-02 0.00000E+00
 -1       539 3.75000E-02 1.25000E-02 0.00000E+00
 -1       540 3.85417E-02 1.25000E-02 0.00000E+00
 -1       541 3.95833E-02 1.25000E-02 0.00000E+00
 -1       542 4.06250E-02 1.25000E-02 0.00000E+00
 -1       543 4.16667E-02 1.25000E-02 0.00000E+00
 -1       544 4.27083E-02 1.25000E-02 0.00000E+00
 -1       545 4.37500E-02 1.25000E-02 0.00000E+00
 -1       546 4.47917E-02 1.25000E-02 0.00000E+00
 -1       547 4.58333E-02 1.25000E-02 0.00000E+00
 -1       548 4.68750E-02 1.25000E-02 0.00000E+00
 -1       549 4.79167E-02 1.25000E-02 0.00000E+00
 -1       550 4.89583E-02 1.25000E-02 0.00000E+00
 -1       551 3.33333E-02 1.35417E-02 0.00000E+00
 -1       552 3.33333E-02 1.45833E-02 0.00000E+00
 -1       553 3.33333E-02 1.56250E-02 0.00000E+00
 -1       554 3.33333E-02 1.66667E-02 0.00000E+00
 -1       555 3.33333E-02 1.77083E-02 0.00000E+00
 -1       556 3.43750E-02 1.28906E-02 0.00000E+00
 -1       557 3.54167E-02 1.32813E-02 0.00000E+00
 -1       558 3.64583E-02 1.36719E-02 0.00000E+00
 -1       559 3.75000E-02 1.40625E-02 0.00000E+00
 -1       560 3.85417E-02 1.44531E-02 0.00000E+00
 -1       561 3.95833E-02 1.48437E-02 0.00000E+00
 -1       562 4.06250E-02 1.52344E-02 0.00000E+00
 -1       563 4.16667E-02 1.56250E-02 0.00000E+00
 -1       564 4.27083E-02 1.60156E-02 0.00000E+00
 -1       565 4.37500E-02 1.64062E-02 0.00000E+00
 -1       566 4.47917E-02 1.67969E-02 0.00000E+00
 -1       567 4.58333E-02 1.71875E-02 0.00000E+00
 -1       568 4.68750E-02 1.75781E-02 0.00000E+00
 -1       569 4.79167E-02 1.79687E-02 0.00000E+00
 -1       570 4.89583E-02 1.83594E-02 0.00000E+00
 -1       571 5.10417E-02 1.25000E-02 0.00000E+00
 -1       572 5.20833E-02 1.25000E-02 0.00000E+00
 -1       573 5.31250E-02 1.25000E-02 0.00000E+00
 -1       574 5.41667E-02 1.25000E-02 0.00000E+00
 -1       575 5.52083E-02 1.25000E-02 0.00000E+00
 -1       576 5.62500E-02 1.25000E-02 0.00000E+00
 -1       577 5.72917E-02 1.25000E-02 0.00000E+00
 -1       578 5.83333E-02 1.25000E-02 0.00000E+00
 -1       579 5.93750E-02 1.25000E-02 0.00000E+00
 -1       580 6.04167E-02 1.25000E-02 0.00000E+00
 -1       581 6.14583E-02 1.25000E-02 0.00000E+00
 -1       582 6.25000E-02 1.25000E-02 0.00000E+00
 -1       583 6.35417E-02 1.25000E-02 0.00000E+00
 -1       584 6.45833E-02 1.25000E-02 0.00000E+00
 -1       585 6.56250E-02 1.25000E-02 0.00000E+00
 -1       586 5.00000E-02 1.35417E-02 0.00000E+00
 -1       587 5.00000E-02 1.45833E-02 0.00000E+00
 -1       588 5.00000E-02 1.56250E-02 0.00000E+00
 -1       589 5.00000E-02 1.66667E-02 0.00000E+00
 -1       590 5.00000E-02 1.77083E-02 0.00000E+00
 -1       591 5.10417E-02 1.28906E-02 0.00000E+00
 -1       592 5.20833E-02 1.32813E-02 0.00000E+00
 -1       593 5.31250E-02 1.36719E-02 0.00000E+00
 -1       594 5.41667E-02 1.40625E-02 0.00000E+00
 -1       595 5.52083E-02 1.44531E-02 0.00000E+00
 -1       596 5.62500E-02 1.48437E-02 0.00000E+00
 -1       597 5.72917E-02 1.52344E-02 0.00000E+00
 -1       598 5.83333E-02 1.56250E-02 0.00000E+00
 -1       599 5.93750E-02 1.60156E-02 0.00000E+00
 -1       600 6.04167E-02 1.64062E-02 0.00000E+00
 -1       601 6.14583E-02 1.67969E-02 0.00000E+00
 -1       602 6.25000E-02 1.71875E-02 0.00000E+00
 -1       603 6.35417E-02 1.75781E-02 0.00000E+00
 -1       604 6.45833E-02 1.79687E-02 0.00000E+00
 -1       605 6.56250E-02 1.83594E-02 0.00000E+00
 -1       606 6.77083E-02 1.25000E-02 0.00000E+00
 -1       607 6.87500E-02 1.25000E-02 0.00000E+00
 -1       608 6.97917E-02 1.25000E-02 0.00000E+00
 -1       609 7.08333E-02 1.25000E-02 0.00000E+00
 -1       610 7.18750E-02 1.25000E-02 0.00000E+00
 -1       611 7.29167E-02 1.25000E-02 0.00000E+00
 -1       612 7.39583E-02 1.25000E-02 0.00000E+00
 -1       613 7.50000E-02 1.25000E-02 0.00000E+00
 -1       614 7.60417E-02 1.25000E-02 0.00000E+00
 -1       615 7.70833E-02 1.25000E-02 0.00000E+00
 -1       616 7.81250E-02 1.25000E-02 0.00000E+00
 -1       617 7.91667E-02 1.25000E-02 0.00000E+00
 -1       618 8.02083E-02 1.25000E-02 0.00000E+00
 -1       619 8.12500E-02 1.25000E-02 0.00000E+00
 -1       620 8.22917E-02 1.25000E-02 0.00000E+00
 -1       621 6.66667E-02 1.35417E-02 0.00000E+00
 -1       622 6.66667E-02 1.45833E-02 0.00000E+00
 -1       623 6.66667E-02 1.56250E-02 0.00000E+00
 -1       624 6.66667E-02 1.66667E-02 0.00000E+00
 -1       625 6.66667E-02 1.77083E-02 0.00000E+00
 -1       626 6.77083E-02 1.28906E-02 0.00000E+00
 -1       627 6.87500E-02 1.32813E-02 0.00000E+00
 -1       628 6.97917E-02 1.36719E-02 0.00000E+00
 -1       629 7.08333E-02 1.40625E-02 0.00000E+00
 -1       630 7.18750E-02 1.44531E-02 0.00000E+00
 -1       631 7.29167E-02 1.48437E-02 0.00000E+00
 -1       632 7.39583E-02 1.52344E-02 0.00000E+00
 -1       633 7.50000E-02 1.56250E-02 0.00000E+00
 -1       634 7.60417E-02 1.60156E-02 0.00000E+00
 -1       635 7.70833E-02 1.64062E-02 0.00000E+00
 -1       636 7.81250E-02 1.67969E-02 0.00000E+00
 -1       637 7.91667E-02 1.71875E-02 0.00000E+00
 -1       638 8.02083E-02 1.75781E-02 0.00000E+00
 -1       639 8.12500E-02 1.79687E-02 0.00000E+00
 -1       640 8.22917E-02 1.83594E-02 0.00000E+00
 -1       656 8.33333E-02 1.35417E-02 0.00000E+00
 -1       657 8.33333E-02 1.45833E-02 0.00000E+00
 -1       658 8.33333E-02 1.56250E-02 0.00000E+00
 -1       659 8.33333E-02 1.66667E-02 0.00000E+00
 -1       660 8.33333E-02 1.77083E-02 0.00000E+00
 -1       661 8.43750E-02 1.28906E-02 0.00000E+00
 -1       662 8.54167E-02 1.32813E-02 0.00000E+00
 -1       663 8.64583E-02 1.36719E-02 0.00000E+00
 -1       664 8.75000E-02 1.40625E-02 0.00000E+00
 -1       665 8.85417E-02 1.44531E-02 0.00000E+00
 -1       666 8.95833E-02 1.48437E-02 0.00000E+00
 -1       667 9.06250E-02 1.52344E-02 0.00000E+00
 -1       668 9.16667E-02 1.56250E-02 0.00000E+00
 -1       669 9.27083E-02 1.60156E-02 0.00000E+00
 -1       670 9.37500E-02 1.64062E-02 0.00000E+00
 -1       671 9.47917E-02 1.67969E-02 0.00000E+00
 -1       672 9.58333E-02 1.71875E-02 0.00000E+00
 -1       673 9.68750E-02 1.75781E-02 0.00000E+00
 -1       674 9.79167E-02 1.79687E-02 0.00000E+00
 -1       675 9.89583E-02 1.83594E-02 0.00000E+00
 -1       676 1.00000E-01 1.35417E-02 0.00000E+00
 -1       677 1.00000E-01 1.45833E-02 0.00000E+00
 -1       678 1.00000E-01 1.56250E-02 0.00000E+00
 -1       679 1.00000E-01 1.66667E-02 0.00000E+00
 -1       680 1.00000E-01 1.77083E-02 0.00000E+00
 -1       771 3.43750E-02 1.91406E-02 0.00000E+00
 -1       772 3.54167E-02 1.95312E-02 0.00000E+00
 -1       773 3.64583E-02 1.99219E-02 0.00000E+00
 -1       774 3.75000E-02 2.03125E-02 0.00000E+00
 -1       775 3.85417E-02 2.07031E-02 0.00000E+00
 -1       776 3.95833E-02 2.10938E-02 0.00000E+00
 -1       777 4.06250E-02 2.14844E-02 0.00000E+00
 -1       778 4.16667E-02 2.18750E-02 0.00000E+00
 -1       779 4.27083E-02 2.22656E-02 0.00000E+00
 -1       780 4.37500E-02 2.26563E-02 0.00000E+00
 -1       781 4.47917E-02 2.30469E-02 0.00000E+00
 -1       782 4.58333E-02 2.34375E-02 0.00000E+00
 -1       783 4.68750E-02 2.38281E-02 0.00000E+00
 -1       784 4.79167E-02 2.42187E-02 0.00000E+00
 -1       785 4.89583E-02 2.46094E-02 0.00000E+00
 -1       786 5.10417E-02 1.87500E-02 0.00000E+00
 -1       787 5.20833E-02 1.87500E-02 0.00000E+00
 -1       788 5.31250E-02 1.87500E-02 0.00000E+00
 -1       789 5.41667E-02 1.87500E-02 0.00000E+00
 -1       790 5.52083E-02 1.87500E-02 0.00000E+00
 -1       791 5.62500E-02 1.87500E-02 0.00000E+00
 -1       792 5.72917E-02 1.87500E-02 0.00000E+00
 -1       793 5.83333E-02 1.87500E-02 0.00000E+00
 -1       794 5.93750E-02 1.87500E-02 0.00000E+00
 -1       795 6.04167E-02 1.87500E-02 0.00000E+00
 -1       796 6.14583E-02 1.87500E-02 0.00000E+00
 -1       797 6.25000E-02 1.87500E-02 0.00000E+00
 -1       798 6.35417E-02 1.87500E-02 0.00000E+00
 -1       799 6.45833E-02 1.87500E-02 0.00000E+00
 -1       800 6.56250E-02 1.87500E-02 0.00000E+00
 -1       801 5.00000E-02 1.97917E-02 0.00000E+00
 -1       802 5.00000E-02 2.08333E-02 0.00000E+00
 -1       803 5.00000E-02 2.18750E-02 0.00000E+00
 -1       804 5.00000E-02 2.29167E-02 0.00000E+00
 -1       805 5.00000E-02 2.39583E-02 0.00000E+00
 -1       806 5.10417E-02 1.91406E-02 0.00000E+00
 -1       807 5.20833E-02 1.95312E-02 0.00000E+00
 -1       808 5.31250E-02 1.99219E-02 0.00000E+00
 -1       809 5.41667E-02 2.03125E-02 0.00000E+00
 -1       810 5.52083E-02 2.07031E-02 0.00000E+00
 -1       811 5.62500E-02 2.10938E-02 0.00000E+00
 -1       812 5.72917E-02 2.14844E-02 0.00000E+00
 -1       813 5.83333E-02 2.18750E-02 0.00000E+00
 -1       814 5.93750E-02 2.22656E-02 0.00000E+00
 -1       815 6.04167E-02 2.26563E-02 0.00000E+00
 -1       816 6.14583E-02 2.30469E-02 0.00000E+00
 -1       817 6.25000E-02 2.34375E-02 0.00000E+00
 -1       818 6.35417E-02 2.38281E-02 0.00000E+00
 -1       819 6.45833E-02 2.42187E-02 0.00000E+00
 -1       820 6.56250E-02 2.46094E-02 0.00000E+00
 -1       821 6.77083E-02 1.87500E-02 0.00000E+00
 -1       822 6.87500E-02 1.87500E-02 0.00000E+00
 -1       823 6.97917E-02 1.87500E-02 0.00000E+00
 -1       824 7.08333E-02 1.87500E-02 0.00000E+00
 -1       825 7.18750E-02 1.87500E-02 0.00000E+00
 -1       826 7.29167E-02 1.87500E-02 0.00000E+00
 -1       827 7.39583E-02 1.87500E-02 0.00000E+00
 -1       828 7.50000E-02 1.87500E-02 0.00000E+00
 -1       829 7.60417E-02 1.87500E-02 0.00000E+00
 -1       830 7.70833E-02 1.87500E-02 0.00000E+00
 -1       831 7.81250E-02 1.87500E-02 0.00000E+00
 -1       832 7.91667E-02 1.87500E-02 0.00000E+00
 -1       833 8.02083E-02 1.87500E-02 0.00000E+00
 -1       834 8.12500E-02 1.87500E-02 0.00000E+00
 -1       835 8.22917E-02 1.87500E-02 0.00000E+00
 -1       836 6.66667E-02 1.97917E-02 0.00000E+00
 -1       837 6.66667E-02 2.08333E-02 0.00000E+00
 -1       838 6.66667E-02 2.18750E-02 0.00000E+00
 -1       839 6.66667E-02 2.29167E-02 0.00000E+00
 -1       840 6.66667E-02 2.39583E-02 0.00000E+00
 -1       856 8.43750E-02 1.87500E-02 0.00000E+00
 -1       857 8.54167E-02 1.87500E-02 0.00000E+00
 -1       858 8.64583E-02 1.87500E-02 0.00000E+00
 -1       859 8.75000E-02 1.87500E-02 0.00000E+00
 -1       860 8.85417E-02 1.87500E-02 0.00000E+00
 -1       861 8.95833E-02 1.87500E-02 0.00000E+00
 -1       862 9.06250E-02 1.87500E-02 0.00000E+00
 -1       863 9.16667E-02 1.87500E-02 0.00000E+00
 -1       864 9.27083E-02 1.87500E-02 0.00000E+00
 -1       865 9.37500E-02 1.87500E-02 0.00000E+00
 -1       866 9.47917E-02 1.87500E-02 0.00000E+00
 -1       867 9.58333E-02 1.87500E-02 0.00000E+00
 -1       868 9.68750E-02 1.87500E-02 0.00000E+00
 -1       869 9.79167E-02 1.87500E-02 0.00000E+00
 -1       870 9.89583E-02 1.87500E-02 0.00000E+00
 -1       871 8.33333E-02 1.97917E-02 0.00000E+00
 -1       872 8.33333E-02 2.08333E-02 0.00000E+00
 -1       873 8.33333E-02 2.18750E-02 0.00000E+00
 -1       874 8.33333E-02 2.29167E-02 0.00000E+00
 -1       875 8.33333E-02 2.39583E-02 0.00000E+00
 -1       876 8.43750E-02 1.91406E-02 0.00000E+00
 -1       877 8.54167E-02 1.95312E-02 0.00000E+00
 -1       878 8.64583E-02 1.99219E-02 0.00000E+00
 -1       879 8.75000E-02 2.03125E-02 0.00000E+00
 -1       880 8.85417E-02 2.07031E-02 0.00000E+00
 -1       881 8.95833E-02 2.10938E-02 0.00000E+00
 -1       882 9.06250E-02 2.14844E-02 0.00000E+00
 -1       883 9.16667E-02 2.18750E-02 0.00000E+00
 -1       884 9.27083E-02 2.22656E-02 0.00000E+00
 -1       885 9.37500E-02 2.26563E-02 0.00000E+00
 -1       886 9.47917E-02 2.30469E-02 0.00000E+00
 -1       887 9.58333E-02 2.34375E-02 0.00000E+00
 -1       888 9.68750E-02 2.38281E-02 0.00000E+00
 -1       889 9.79167E-02 2.42187E-02 0.00000E+00
 -1       890 9.89583E-02 2.46094E-02 0.00000E+00
 -1       891 1.00000E-01 1.97917E-02 0.00000E+00
 -1       892 1.00000E-01 2.08333E-02 0.00000E+00
 -1       893 1.00000E-01 2.18750E-02 0.00000E+00
 -1       894 1.00000E-01 2.29167E-02 0.00000E+00
 -1       895 1.00000E-01 2.39583E-02 0.00000E+00
 -1       956 6.77083E-02 2.50000E-02 0.00000E+00
 -1       957 6.87500E-02 2.50000E-02 0.00000E+00
 -1       958 6.97917E-02 2.50000E-02 0.00000E+00
 -1       959 7.08333E-02 2.50000E-02 0.00000E+00
 -1       960 7.18750E-02 2.50000E-02 0.00000E+00
 -1       961 7.29167E-02 2.50000E-02 0.00000E+00
 -1       962 7.39583E-02 2.50000E-02 0.00000E+00
 -1       963 7.50000E-02 2.50000E-02 0.00000E+00
 -1       964 7.60417E-02 2.50000E-02 0.00000E+00
 -1       965 7.70833E-02 2.50000E-02 0.00000E+00
 -1       966 7.81250E-02 2.50000E-02 0.00000E+00
 -1       967 7.91667E-02 2.50000E-02 0.00000E+00
 -1       968 8.02083E-02 2.50000E-02 0.00000E+00
 -1       969 8.12500E-02 2.50000E-02 0.00000E+00
 -1       970 8.22917E-02 2.50000E-02 0.00000E+00
 -1       971 8.43750E-02 2.50000E-02 0.00000E+00
 -1       972 8.54167E-02 2.50000E-02 0.00000E+00
 -1       973 8.64583E-02 2.50000E-02 0.00000E+00
 -1       974 8.75000E-02 2.50000E-02 0.00000E+00
 -1       975 8.85417E-02 2.50000E-02 0.00000E+00
 -1       976 8.95833E-02 2.50000E-02 0.00000E+00
 -1       977 9.06250E-02 2.50000E-02 0.00000E+00
 -1       978 9.16667E-02 2.50000E-02 0.00000E+00
 -1       979 9.27083E-02 2.50000E-02 0.00000E+00
 -1       980 9.37500E-02 2.50000E-02 0.00000E+00
 -1       981 9.47917E-02 2.50000E-02 0.00000E+00
 -1       982 9.58333E-02 2.50000E-02 0.00000E+00
 -1       983 9.68750E-02 2.50000E-02 0.00000E+00
 -1       984 9.79167E-02 2.50000E-02 0.00000E+00
 -1       985 9.89583E-02 2.50000E-02 0.00000E+00
 -3
    3C                           211                                     1
 -1         1   12    0    1
 -2         1        52        51
 -1         2   12    0    1
 -2        52        54        53
 -1         3   12    0    1
 -2        54         8        55
 -1         4   12    0    1
 -2         1        57        56
 -1         5   12    0    1
 -2        57        59        58
 -1         6   12    0    1
 -2        59        61        60
 -1         7   12    0    1
 -2        61        63        62
 -1         8   12    0    1
 -2        63        65        64
 -1         9   12    0    1
 -2        65        67        66
 -1        10   12    0    1
 -2        67        69        68
 -1        11   12    0    1
 -2        69         9        70
 -1        12   12    0    1
 -2         2        87        86
 -1        13   12    0    1
 -2        87        89        88
 -1        14   12    0    1
 -2        89         9        90
 -1        15   12    0    1
 -2         3       122       121
 -1        16   12    0    1
 -2       122       124       123
 -1        17   12    0    1
 -2       124        10       125
 -1        18   12    0    1
 -2         5       192       191
 -1        19   12    0    1
 -2       192       194       193
 -1        20   12    0    1
 -2       194        12       195
 -1        21   12    0    1
 -2         8       252       251
 -1        22   12    0    1
 -2       252       254       253
 -1        23   12    0    1
 -2       254       256       255
 -1        24   12    0    1
 -2       256       258       257
 -1        25   12    0    1
 -2       258       260       259
 -1        26   12    0    1
 -2       260       262       261
 -1        27   12    0    1
 -2       262       264       263
 -1        28   12    0    1
 -2       264         9       265
 -1        29   12    0    1
 -2         8       267       266
 -1        30   12    0    1
 -2       267       269       268
 -1        31   12    0    1
 -2       269        15       270
 -1        32   12    0    1
 -2         8       272       271
 -1        33   12    0    1
 -2       272       274       273
 -1        34   12    0    1
 -2       274       276       275
 -1        35   12    0    1
 -2       276       278       277
 -1        36   12    0    1
 -2       278       280       279
 -1        37   12    0    1
 -2       280       282       281
 -1        38   12    0    1
 -2       282       284       283
 -1        39   12    0    1
 -2       284        16       285
 -1        40   12    0    1
 -2         9       302       301
 -1        41   12    0    1
 -2       302       304       303
 -1        42   12    0    1
 -2       304        16       305
 -1        43   12    0    1
 -2         9       307       306
 -1        44   12    0    1
 -2       307       309       308
 -1        45   12    0    1
 -2       309       311       310
 -1        46   12    0    1
 -2       311       313       312
 -1        47   12    0    1
 -2       313       315       314
 -1        48   12    0    1
 -2       315       317       316
 -1        49   12    0    1
 -2       317       319       318
 -1        50   12    0    1
 -2       319        17       320
 -1        51   12    0    1
 -2        10       337       336
 -1        52   12    0    1
 -2       337       339       338
 -1        53   12    0    1
 -2       339        17       340
 -1        54   12    0    1
 -2        12       407       406
 -1        55   12    0    1
 -2       407       409       408
 -1        56   12    0    1
 -2       409        19       410
 -1        57   12    0    1
 -2        16       522       521
 -1        58   12    0    1
 -2       522       524       523
 -1        59   12    0    1
 -2       524       526       525
 -1        60   12    0    1
 -2       526       528       527
 -1        61   12    0    1
 -2       528       530       529
 -1        62   12    0    1
 -2       530       532       531
 -1        63   12    0    1
 -2       532       534       533
 -1        64   12    0    1
 -2       534        24       535
 -1        65   12    0    1
 -2        17       537       536
 -1        66   12    0    1
 -2       537       539       538
 -1        67   12    0    1
 -2       539       541       540
 -1        68   12    0    1
 -2       541       543       542
 -1        69   12    0    1
 -2       543       545       544
 -1        70   12    0    1
 -2       545       547       546
 -1        71   12    0    1
 -2       547       549       548
 -1        72   12    0    1
 -2       549        18       550
 -1        73   12    0    1
 -2        17       552       551
 -1        74   12    0    1
 -2       552       554       553
 -1        75   12    0    1
 -2       554        24       555
 -1        76   12    0    1
 -2        17       557       556
 -1        77   12    0    1
 -2       557       559       558
 -1        78   12    0    1
 -2       559       561       560
 -1        79   12    0    1
 -2       561       563       562
 -1        80   12    0    1
 -2       563       565       564
 -1        81   12    0    1
 -2       565       567       566
 -1        82   12    0    1
 -2       567       569       568
 -1        83   12    0    1
 -2       569        25       570
 -1        84   12    0    1
 -2        18       572       571
 -1        85   12    0    1
 -2       572       574       573
 -1        86   12    0    1
 -2       574       576       575
 -1        87   12    0    1
 -2       576       578       577
 -1        88   12    0    1
 -2       578       580       579
 -1        89   12    0    1
 -2       580       582       581
 -1        90   12    0    1
 -2       582       584       583
 -1        91   12    0    1
 -2       584        19       585
 -1        92   12    0    1
 -2        18       587       586
 -1        93   12    0    1
 -2       587       589       588
 -1        94   12    0    1
 -2       589        25       590
 -1        95   12    0    1
 -2        18       592       591
 -1        96   12    0    1
 -2       592       594       593
 -1        97   12    0    1
 -2       594       596       595
 -1        98   12    0    1
 -2       596       598       597
 -1        99   12    0    1
 -2       598       600       599
 -1       100   12    0    1
 -2       600       602       601
 -1       101   12    0    1
 -2       602       604       603
 -1       102   12    0    1
 -2       604        26       605
 -1       103   12    0    1
 -2        19       607       606
 -1       104   12    0    1
 -2       607       609       608
 -1       105   12    0    1
 -2       609       611       610
 -1       106   12    0    1
 -2       611       613       612
 -1       107   12    0    1
 -2       613       615       614
 -1       108   12    0    1
 -2       615       617       616
 -1       109   12    0    1
 -2       617       619       618
 -1       110   12    0    1
 -2       619        20       620
 -1       111   12    0    1
 -2        19       622       621
 -1       112   12    0    1
 -2       622       624       623
 -1       113   12    0    1
 -2       624        26       625
 -1       114   12    0    1
 -2        19       627       626
 -1       115   12    0    1
 -2       627       629       628
 -1       116   12    0    1
 -2       629       631       630
 -1       117   12    0    1
 -2       631       633       632
 -1       118   12    0    1
 -2       633       635       634
 -1       119   12    0    1
 -2       635       637       636
 -1       120   12    0    1
 -2       637       639       638
 -1       121   12    0    1
 -2       639        27       640
 -1       122   12    0    1
 -2        20       657       656
 -1       123   12    0    1
 -2       657       659       658
 -1       124   12    0    1
 -2       659        27       660
 -1       125   12    0    1
 -2        20       662       661
 -1       126   12    0    1
 -2       662       664       663
 -1       127   12    0    1
 -2       664       666       665
 -1       128   12    0    1
 -2       666       668       667
 -1       129   12    0    1
 -2       668       670       669
 -1       130   12    0    1
 -2       670       672       671
 -1       131   12    0    1
 -2       672       674       673
 -1       132   12    0    1
 -2       674        28       675
 -1       133   12    0    1
 -2        21       677       676
 -1       134   12    0    1
 -2       677       679       678
 -1       135   12    0    1
 -2       679        28       680
 -1       136   12    0    1
 -2        24       772       771
 -1       137   12    0    1
 -2       772       774       773
 -1       138   12    0    1
 -2       774       776       775
 -1       139   12    0    1
 -2       776       778       777
 -1       140   12    0    1
 -2       778       780       779
 -1       141   12    0    1
 -2       780       782       781
 -1       142   12    0    1
 -2       782       784       783
 -1       143   12    0    1
 -2       784        32       785
 -1       144   12    0    1
 -2        25       787       786
 -1       145   12    0    1
 -2       787       789       788
 -1       146   12    0    1
 -2       789       791       790
 -1       147   12    0    1
 -2       791       793       792
 -1       148   12    0    1
 -2       793       795       794
 -1       149   12    0    1
 -2       795       797       796
 -1       150   12    0    1
 -2       797       799       798
 -1       151   12    0    1
 -2       799        26       800
 -1       152   12    0    1
 -2        25       802       801
 -1       153   12    0    1
 -2       802       804       803
 -1       154   12    0    1
 -2       804        32       805
 -1       155   12    0    1
 -2        25       807       806
 -1       156   12    0    1
 -2       807       809       808
 -1       157   12    0    1
 -2       809       811       810
 -1       158   12    0    1
 -2       811       813       812
 -1       159   12    0    1
 -2       813       815       814
 -1       160   12    0    1
 -2       815       817       816
 -1       161   12    0    1
 -2       817       819       818
 -1       162   12    0    1
 -2       819        33       820
 -1       163   12    0    1
 -2        26       822       821
 -1       164   12    0    1
 -2       822       824       823
 -1       165   12    0    1
 -2       824       826       825
 -1       166   12    0    1
 -2       826       828       827
 -1       167   12    0    1
 -2       828       830       829
 -1       168   12    0    1
 -2       830       832       831
 -1       169   12    0    1
 -2       832       834       833
 -1       170   12    0    1
 -2       834        27       835
 -1       171   12    0    1
 -2        26       837       836
 -1       172   12    0    1
 -2       837       839       838
 -1       173   12    0    1
 -2       839        33       840
 -1       174   12    0    1
 -2        27       857       856
 -1       175   12    0    1
 -2       857       859       858
 -1       176   12    0    1
 -2       859       861       860
 -1       177   12    0    1
 -2       861       863       862
 -1       178   12    0    1
 -2       863       865       864
 -1       179   12    0    1
 -2       865       867       866
 -1       180   12    0    1
 -2       867       869       868
 -1       181   12    0    1
 -2       869        28       870
 -1       182   12    0    1
 -2        27       872       871
 -1       183   12    0    1
 -2       872       874       873
 -1       184   12    0    1
 -2       874        34       875
 -1       185   12    0    1
 -2        27       877       876
 -1       186   12    0    1
 -2       877       879       878
 -1       187   12    0    1
 -2       879       881       880
 -1       188   12    0    1
 -2       881       883       882
 -1       189   12    0    1
 -2       883       885       884
 -1       190   12    0    1
 -2       885       887       886
 -1       191   12    0    1
 -2       887       889       888
 -1       192   12    0    1
 -2       889        35       890
 -1       193   12    0    1
 -2        28       892       891
 -1       194   12    0    1
 -2       892       894       893
 -1       195   12    0    1
 -2       894        35       895
 -1       196   12    0    1
 -2        33       957       956
 -1       197   12    0    1
 -2       957       959       958
 -1       198   12    0    1
 -2       959       961       960
 -1       199   12    0    1
 -2       961       963       962
 -1       200   12    0    1
 -2       963       965       964
 -1       201   12    0    1
 -2       965       967       966
 -1       202   12    0    1
 -2       967       969       968
 -1       203   12    0    1
 -2       969        34       970
 -1       204   12    0    1
 -2        34       972       971
 -1       205   12    0    1
 -2       972       974       973
 -1       206   12    0    1
 -2       974       976       975
 -1       207   12    0    1
 -2       976       978       977
 -1       208   12    0    1
 -2       978       980       979
 -1       209   12    0    1
 -2       980       982       981
 -1       210   12    0    1
 -2       982       984       983
 -1       211   12    0    1
 -2       984        35       985
 -3
    1PSTEP                         1           1           1          
  100CL  101 1.25000E-01         409                     0    1           1
 -4  DISP        4    1
 -5  D1          1    2    1    0
 -5  D2          1    2    2    0
 -5  D3          1    2    3    0
 -5  ALL         1    2    0    0    1ALL
 -1         1 3.26804E-05 0.00000E+00 0.00000E+00
 -1         2 3.02136E-05-6.58269E-30 0.00000E+00
 -1         3 2.76143E-05 9.00132E-28 1.65436E-24
 -1         5 1.99964E-05-1.66368E-26 0.00000E+00
 -1         8 2.59288E-05-2.32915E-07 0.00000E+00
 -1         9 2.64294E-05 1.68601E-07 0.00000E+00
 -1        10 2.56203E-05-3.79286E-07 8.27181E-25
 -1        12 1.98512E-05 1.35936E-07-4.13590E-25
 -1        15 1.78621E-05-2.44668E-07 1.03398E-25
 -1        16 1.87541E-05 1.42610E-07 0.00000E+00
 -1        17 1.91383E-05-7.91530E-07 0.00000E+00
 -1        18 1.91524E-05 1.24818E-08 0.00000E+00
 -1        19 1.94158E-05 2.71150E-07 0.00000E+00
 -1        20 1.94522E-05 4.07183E-06 0.00000E+00
 -1        21 1.93154E-05 7.70488E-06 0.00000E+00
 -1        24 4.89326E-06-1.03877E-06 0.00000E+00
 -1        25 1.86878E-05 4.34839E-08 0.00000E+00
 -1        26 1.89337E-05 3.77832E-07 0.00000E+00
 -1        27 1.85583E-05 3.46676E-06 0.00000E+00
 -1        28 1.84370E-05 7.58855E-06 0.00000E+00
 -1        32 0.00000E+00 0.00000E+00 0.00000E+00
 -1        33 1.81278E-05 5.06885E-07 0.00000E+00
 -1        34 1.77641E-05 3.46149E-06 0.00000E+00
 -1        35 1.74188E-05 7.52726E-06 0.00000E+00
 -1        51 3.22442E-05-3.91948E-08 0.00000E+00
 -1        52 3.14314E-05-7.70693E-08 0.00000E+00
 -1        53 3.03162E-05-1.14902E-07 0.00000E+00
 -1        54 2.89758E-05-1.53035E-07 0.00000E+00
 -1        55 2.74875E-05-1.91769E-07 1.60266E-24
 -1        56 3.23726E-05-1.77467E-07 0.00000E+00
 -1        57 3.20902E-05-4.56446E-07-3.30872E-24
 -1        58 3.18350E-05-8.06284E-07 0.00000E+00
 -1        59 3.15945E-05-1.20110E-06 6.61744E-24
 -1        60 3.13602E-05-1.61263E-06-1.32349E-23
 -1        61 3.11214E-05-2.01327E-06 0.00000E+00
 -1        62 3.08681E-05-2.37543E-06 0.00000E+00
 -1        63 3.05902E-05-2.67195E-06 0.00000E+00
 -1        64 3.02779E-05-2.87671E-06 0.00000E+00
 -1        65 2.99217E-05-2.96431E-06 0.00000E+00
 -1        66 2.95128E-05-2.91128E-06-1.32349E-23
 -1        67 2.90430E-05-2.69517E-06 0.00000E+00
 -1        68 2.85048E-05-2.29639E-06-1.32349E-23
 -1        69 2.78928E-05-1.69609E-06 3.30872E-24
 -1        70 2.71991E-05-8.80173E-07 6.61744E-24
 -1        86 3.01109E-05 2.96879E-08 0.00000E+00
 -1        87 2.98025E-05 5.91855E-08 0.00000E+00
 -1        88 2.92851E-05 8.85786E-08 4.13590E-25
 -1        89 2.85551E-05 1.16905E-07 0.00000E+00
 -1        90 2.76056E-05 1.45372E-07-8.27181E-25
 -1       121 2.75588E-05-6.31192E-08-1.65436E-24
 -1       122 2.73925E-05-1.26252E-07 8.27181E-25
 -1       123 2.71153E-05-1.89410E-07 0.00000E+00
 -1       124 2.67274E-05-2.52619E-07 8.27181E-25
 -1       125 2.62290E-05-3.15872E-07 1.65436E-24
 -1       191 1.99924E-05 2.26572E-08 0.00000E+00
 -1       192 1.99803E-05 4.53140E-08 0.00000E+00
 -1       193 1.99601E-05 6.79708E-08 0.00000E+00
 -1       194 1.99319E-05 9.06271E-08 0.00000E+00
 -1       195 1.98956E-05 1.13282E-07 1.65436E-24
 -1       251 2.59549E-05 8.87748E-07 0.00000E+00
 -1       252 2.59863E-05 1.56717E-06-2.58494E-26
 -1       253 2.60176E-05 1.87380E-06-4.13590E-25
 -1       254 2.60498E-05 1.87551E-06 4.13590E-25
 -1       255 2.60821E-05 1.63505E-06-8.27181E-25
 -1       256 2.61145E-05 1.21482E-06-4.13590E-25
 -1       257 2.61469E-05 6.74173E-07-8.27181E-25
 -1       258 2.61792E-05 7.22846E-08 0.00000E+00
 -1       259 2.62116E-05-5.32726E-07 0.00000E+00
 -1       260 2.62439E-05-1.08273E-06 0.00000E+00
 -1       261 2.62763E-05-1.51865E-06 8.27181E-25
 -1       262 2.63086E-05-1.78127E-06-4.13590E-25
 -1       263 2.63408E-05-1.80843E-06 0.00000E+00
 -1       264 2.63721E-05-1.53762E-06 0.00000E+00
 -1       265 2.64035E-05-9.01293E-07 0.00000E+00
 -1       266 2.45844E-05-2.38144E-07 0.00000E+00
 -1       267 2.32399E-05-2.39704E-07 0.00000E+00
 -1       268 2.18954E-05-2.41497E-07 0.00000E+00
 -1       269 2.05510E-05-2.42601E-07 1.03398E-25
 -1       270 1.92065E-05-2.43689E-07-1.03398E-25
 -1       271 2.51275E-05 7.67922E-07 6.61744E-24
 -1       272 2.44519E-05 1.39663E-06-6.61744E-24
 -1       273 2.38969E-05 1.70567E-06-1.32349E-23
 -1       274 2.34415E-05 1.74351E-06-6.61744E-24
 -1       275 2.30684E-05 1.56154E-06 0.00000E+00
 -1       276 2.27578E-05 1.21150E-06 6.61744E-24
 -1       277 2.24904E-05 7.46188E-07 0.00000E+00
 -1       278 2.22462E-05 2.18856E-07 6.61744E-24
 -1       279 2.20051E-05-3.16907E-07 0.00000E+00
 -1       280 2.17472E-05-8.07456E-07 0.00000E+00
 -1       281 2.14523E-05-1.19942E-06-1.32349E-23
 -1       282 2.11009E-05-1.43987E-06 6.61744E-24
 -1       283 2.06733E-05-1.47673E-06 0.00000E+00
 -1       284 2.01514E-05-1.25845E-06 0.00000E+00
 -1       285 1.95148E-05-7.35805E-07 0.00000E+00
 -1       301 2.51301E-05 1.62705E-07 0.00000E+00
 -1       302 2.38305E-05 1.60735E-07 0.00000E+00
 -1       303 2.25368E-05 1.58874E-07 8.27181E-25
 -1       304 2.12553E-05 1.56569E-07 8.27181E-25
 -1       305 1.99924E-05 1.53634E-07 0.00000E+00
 -1       306 2.56152E-05 1.10218E-06 6.61744E-24
 -1       307 2.49367E-05 1.63367E-06-6.61744E-24
 -1       308 2.43930E-05 1.80871E-06 0.00000E+00
 -1       309 2.39640E-05 1.67092E-06 0.00000E+00
 -1       310 2.36304E-05 1.27857E-06 0.00000E+00
 -1       311 2.33690E-05 6.92166E-07 0.00000E+00
 -1       312 2.31545E-05-1.96483E-08-1.32349E-23
 -1       313 2.29606E-05-7.86822E-07 6.61744E-24
 -1       314 2.27604E-05-1.53690E-06-1.32349E-23
 -1       315 2.25268E-05-2.19765E-06 6.61744E-24
 -1       316 2.22342E-05-2.70070E-06 1.32349E-23
 -1       317 2.18581E-05-2.97944E-06 0.00000E+00
 -1       318 2.13764E-05-2.97663E-06-1.32349E-23
 -1       319 2.07716E-05-2.63746E-06 0.00000E+00
 -1       320 2.00246E-05-1.92295E-06-6.61744E-24
 -1       336 2.48868E-05-4.47765E-07-1.65436E-24
 -1       337 2.40140E-05-5.16447E-07-8.27181E-25
 -1       338 2.30021E-05-5.85237E-07-1.65436E-24
 -1       339 2.18518E-05-6.54075E-07 0.00000E+00
 -1       340 2.05636E-05-7.23086E-07 1.65436E-24
 -1       406 1.97988E-05 1.58587E-07 0.00000E+00
 -1       407 1.97383E-05 1.81229E-07-4.13590E-25
 -1       408 1.96697E-05 2.03858E-07 0.00000E+00
 -1       409 1.95931E-05 2.26444E-07 0.00000E+00
 -1       410 1.95084E-05 2.48944E-07 0.00000E+00
 -1       521 1.76187E-05 8.58008E-07-1.32349E-23
 -1       522 1.66164E-05 1.14373E-06 1.32349E-23
 -1       523 1.57569E-05 1.05369E-06 0.00000E+00
 -1       524 1.50147E-05 6.38033E-07 1.32349E-23
 -1       525 1.43670E-05-3.05024E-08 0.00000E+00
 -1       526 1.37846E-05-8.75488E-07 0.00000E+00
 -1       527 1.32354E-05-1.80967E-06 0.00000E+00
 -1       528 1.26863E-05-2.74420E-06 1.32349E-23
 -1       529 1.21039E-05-3.59005E-06 2.64698E-23
 -1       530 1.14559E-05-4.26015E-06-1.32349E-23
 -1       531 1.07133E-05-4.67780E-06 0.00000E+00
 -1       532 9.85014E-06-4.77148E-06 1.32349E-23
 -1       533 8.84591E-06-4.48910E-06 0.00000E+00
 -1       534 7.68805E-06-3.78494E-06-1.32349E-23
 -1       535 6.36314E-06-2.64145E-06 1.32349E-23
 -1       536 1.91362E-05 5.35384E-07 0.00000E+00
 -1       537 1.91365E-05 1.53016E-06-2.06795E-25
 -1       538 1.91370E-05 2.22824E-06 0.00000E+00
 -1       539 1.91380E-05 2.66505E-06 2.58494E-26
 -1       540 1.91391E-05 2.87534E-06 0.00000E+00
 -1       541 1.91402E-05 2.89386E-06 0.00000E+00
 -1       542 1.91414E-05 2.75481E-06 0.00000E+00
 -1       543 1.91426E-05 2.49243E-06 0.00000E+00
 -1       544 1.91438E-05 2.14060E-06 0.00000E+00
 -1       545 1.91449E-05 1.73319E-06 2.58494E-26
 -1       546 1.91460E-05 1.30396E-06 5.16988E-26
 -1       547 1.91472E-05 8.86625E-07-2.58494E-26
 -1       548 1.91484E-05 5.14957E-07-5.16988E-26
 -1       549 1.91496E-05 2.22722E-07 0.00000E+00
 -1       550 1.91509E-05 4.39039E-08 0.00000E+00
 -1       551 1.72468E-05-8.30370E-07-8.27181E-25
 -1       552 1.49835E-05-8.69404E-07-6.20385E-25
 -1       553 1.24817E-05-9.09108E-07 0.00000E+00
 -1       554 9.87627E-06-9.49735E-07 0.00000E+00
 -1       555 7.30215E-06-9.91004E-07 0.00000E+00
 -1       556 1.86452E-05 4.91349E-07 0.00000E+00
 -1       557 1.82687E-05 1.47018E-06 0.00000E+00
 -1       558 1.79962E-05 2.17315E-06 0.00000E+00
 -1       559 1.78162E-05 2.63065E-06 0.00000E+00
 -1       560 1.77170E-05 2.87295E-06 0.00000E+00
 -1       561 1.76872E-05 2.93048E-06 0.00000E+00
 -1       562 1.77153E-05 2.83369E-06 0.00000E+00
 -1       563 1.77899E-05 2.61302E-06 0.00000E+00
 -1       564 1.78994E-05 2.29895E-06 0.00000E+00
 -1       565 1.80326E-05 1.92194E-06-8.27181E-25
 -1       566 1.81779E-05 1.51246E-06 0.00000E+00
 -1       567 1.83239E-05 1.10098E-06 5.16988E-26
 -1       568 1.84593E-05 7.17970E-07 0.00000E+00
 -1       569 1.85727E-05 3.93862E-07 0.00000E+00
 -1       570 1.86525E-05 1.59109E-07 0.00000E+00
 -1       571 1.91684E-05 3.89829E-08 1.03398E-25
 -1       572 1.91848E-05 5.46850E-08 1.55096E-25
 -1       573 1.92012E-05 6.15114E-08 2.06795E-25
 -1       574 1.92177E-05 6.14872E-08 0.00000E+00
 -1       575 1.92342E-05 5.66465E-08 0.00000E+00
 -1       576 1.92507E-05 4.90368E-08 2.06795E-25
 -1       577 1.92672E-05 4.07071E-08 4.13590E-25
 -1       578 1.92837E-05 3.37081E-08 4.13590E-25
 -1       579 1.93002E-05 3.00904E-08 0.00000E+00
 -1       580 1.93168E-05 3.19050E-08 4.13590E-25
 -1       581 1.93333E-05 4.12022E-08 0.00000E+00
 -1       582 1.93498E-05 6.00300E-08 0.00000E+00
 -1       583 1.93663E-05 9.04344E-08-8.27181E-25
 -1       584 1.93828E-05 1.34440E-07 0.00000E+00
 -1       585 1.93993E-05 1.94060E-07 0.00000E+00
 -1       586 1.90692E-05 1.79764E-08-4.13590E-25
 -1       587 1.89790E-05 2.33300E-08 0.00000E+00
 -1       588 1.88889E-05 2.86231E-08 0.00000E+00
 -1       589 1.88057E-05 3.38308E-08 0.00000E+00
 -1       590 1.87364E-05 3.88950E-08 0.00000E+00
 -1       591 1.91349E-05 4.72969E-08 2.58494E-26
 -1       592 1.91201E-05 7.31637E-08 0.00000E+00
 -1       593 1.91080E-05 9.17878E-08-1.03398E-25
 -1       594 1.90979E-05 1.04706E-07 0.00000E+00
 -1       595 1.90894E-05 1.13474E-07 0.00000E+00
 -1       596 1.90818E-05 1.19638E-07 0.00000E+00
 -1       597 1.90747E-05 1.24741E-07 0.00000E+00
 -1       598 1.90673E-05 1.30328E-07-5.16988E-26
 -1       599 1.90592E-05 1.37940E-07 0.00000E+00
 -1       600 1.90498E-05 1.49120E-07 5.16988E-26
 -1       601 1.90384E-05 1.65412E-07-1.03398E-25
 -1       602 1.90246E-05 1.88360E-07-2.58494E-26
 -1       603 1.90077E-05 2.19508E-07 1.03398E-25
 -1       604 1.89872E-05 2.60416E-07 0.00000E+00
 -1       605 1.89625E-05 3.12618E-07 0.00000E+00
 -1       606 1.94188E-05 3.85709E-07 0.00000E+00
 -1       607 1.94213E-05 5.23887E-07 0.00000E+00
 -1       608 1.94237E-05 6.84295E-07 0.00000E+00
 -1       609 1.94259E-05 8.65372E-07 0.00000E+00
 -1       610 1.94282E-05 1.06555E-06 0.00000E+00
 -1       611 1.94304E-05 1.28323E-06-4.13590E-25
 -1       612 1.94326E-05 1.51682E-06 0.00000E+00
 -1       613 1.94348E-05 1.76473E-06 0.00000E+00
 -1       614 1.94370E-05 2.02535E-06 0.00000E+00
 -1       615 1.94392E-05 2.29710E-06 0.00000E+00
 -1       616 1.94414E-05 2.57838E-06 0.00000E+00
 -1       617 1.94436E-05 2.86759E-06 0.00000E+00
 -1       618 1.94458E-05 3.16314E-06 0.00000E+00
 -1       619 1.94480E-05 3.46342E-06 0.00000E+00
 -1       620 1.94501E-05 3.76685E-06 0.00000E+00
 -1       621 1.93243E-05 2.88944E-07 0.00000E+00
 -1       622 1.92390E-05 3.06824E-07 0.00000E+00
 -1       623 1.91586E-05 3.24700E-07 4.13590E-25
 -1       624 1.90818E-05 3.42548E-07 0.00000E+00
 -1       625 1.90073E-05 3.60365E-07 4.13590E-25
 -1       626 1.93919E-05 3.91315E-07 0.00000E+00
 -1       627 1.93608E-05 5.31049E-07 8.27181E-25
 -1       628 1.93231E-05 6.88542E-07 0.00000E+00
 -1       629 1.92795E-05 8.61859E-07 0.00000E+00
 -1       630 1.92307E-05 1.04906E-06 0.00000E+00
 -1       631 1.91774E-05 1.24821E-06 0.00000E+00
 -1       632 1.91203E-05 1.45733E-06 0.00000E+00
 -1       633 1.90602E-05 1.67450E-06 0.00000E+00
 -1       634 1.89979E-05 1.89774E-06 0.00000E+00
 -1       635 1.89340E-05 2.12512E-06 0.00000E+00
 -1       636 1.88693E-05 2.35467E-06 0.00000E+00
 -1       637 1.88045E-05 2.58445E-06 0.00000E+00
 -1       638 1.87403E-05 2.81251E-06 0.00000E+00
 -1       639 1.86775E-05 3.03689E-06 2.06795E-25
 -1       640 1.86166E-05 3.25563E-06 0.00000E+00
 -1       656 1.91989E-05 3.97342E-06 0.00000E+00
 -1       657 1.90348E-05 3.87104E-06-8.27181E-25
 -1       658 1.89247E-05 3.76897E-06 0.00000E+00
 -1       659 1.88330E-05 3.66697E-06 8.27181E-25
 -1       660 1.87230E-05 3.56466E-06 0.00000E+00
 -1       661 1.93583E-05 4.37085E-06 0.00000E+00
 -1       662 1.92699E-05 4.65740E-06 0.00000E+00
 -1       663 1.91860E-05 4.93168E-06 4.13590E-25
 -1       664 1.91067E-05 5.19424E-06 2.06795E-25
 -1       665 1.90316E-05 5.44548E-06 4.13590E-25
 -1       666 1.89607E-05 5.68588E-06 0.00000E+00
 -1       667 1.88936E-05 5.91588E-06-4.13590E-25
 -1       668 1.88302E-05 6.13591E-06 2.06795E-25
 -1       669 1.87705E-05 6.34643E-06 0.00000E+00
 -1       670 1.87141E-05 6.54786E-06 0.00000E+00
 -1       671 1.86610E-05 6.74063E-06 4.13590E-25
 -1       672 1.86109E-05 6.92515E-06 0.00000E+00
 -1       673 1.85638E-05 7.10184E-06 0.00000E+00
 -1       674 1.85193E-05 7.27106E-06 0.00000E+00
 -1       675 1.84774E-05 7.43331E-06 0.00000E+00
 -1       676 1.91689E-05 7.68537E-06 0.00000E+00
 -1       677 1.90224E-05 7.66588E-06 2.06795E-25
 -1       678 1.88759E-05 7.64639E-06 4.13590E-25
 -1       679 1.87295E-05 7.62697E-06 0.00000E+00
 -1       680 1.85832E-05 7.60754E-06-4.13590E-25
 -1       771 3.92899E-06 7.85746E-07 0.00000E+00
 -1       772 3.08930E-06 2.27253E-06 0.00000E+00
 -1       773 2.36856E-06 3.44284E-06 0.00000E+00
 -1       774 1.75837E-06 4.31860E-06 6.61744E-24
 -1       775 1.25056E-06 4.92179E-06 0.00000E+00
 -1       776 8.36765E-07 5.27461E-06 0.00000E+00
 -1       777 5.08547E-07 5.39941E-06 0.00000E+00
 -1       778 2.57442E-07 5.31863E-06 0.00000E+00
 -1       779 7.49532E-08 5.05485E-06 6.61744E-24
 -1       780-4.74612E-08 4.63075E-06 0.00000E+00
 -1       781-1.18346E-07 4.06911E-06 0.00000E+00
 -1       782-1.46282E-07 3.39280E-06-3.30872E-24
 -1       783-1.39849E-07 2.62471E-06 6.61744E-24
 -1       784-1.07637E-07 1.78785E-06 0.00000E+00
 -1       785-5.82577E-08 9.05225E-07 0.00000E+00
 -1       786 1.87022E-05 4.45393E-08 0.00000E+00
 -1       787 1.87176E-05 4.53087E-08 0.00000E+00
 -1       788 1.87329E-05 4.63253E-08 4.13590E-25
 -1       789 1.87483E-05 4.81227E-08-2.06795E-25
 -1       790 1.87637E-05 5.12615E-08 0.00000E+00
 -1       791 1.87792E-05 5.63030E-08 0.00000E+00
 -1       792 1.87947E-05 6.38745E-08-4.13590E-25
 -1       793 1.88102E-05 7.46049E-08-2.06795E-25
 -1       794 1.88257E-05 8.92327E-08 0.00000E+00
 -1       795 1.88412E-05 1.08499E-07 0.00000E+00
 -1       796 1.88567E-05 1.33304E-07 0.00000E+00
 -1       797 1.88721E-05 1.64555E-07-2.06795E-25
 -1       798 1.88876E-05 2.03379E-07-4.13590E-25
 -1       799 1.89030E-05 2.50909E-07-2.06795E-25
 -1       800 1.89185E-05 3.08580E-07 4.13590E-25
 -1       801 1.74262E-05 4.38324E-08 0.00000E+00
 -1       802 1.36756E-05 3.80817E-08 2.06795E-25
 -1       803 8.74690E-06 2.76021E-08 0.00000E+00
 -1       804 3.95143E-06 1.59451E-08-8.27181E-25
 -1       805 5.99038E-07 1.02157E-08 0.00000E+00
 -1       806 1.86679E-05 3.44585E-08 0.00000E+00
 -1       807 1.86473E-05 2.56506E-08 0.00000E+00
 -1       808 1.86259E-05 1.82594E-08-8.27181E-25
 -1       809 1.86035E-05 1.32994E-08 4.13590E-25
 -1       810 1.85798E-05 1.17828E-08 8.27181E-25
 -1       811 1.85545E-05 1.47070E-08 4.13590E-25
 -1       812 1.85271E-05 2.30682E-08 8.27181E-25
 -1       813 1.84972E-05 3.78605E-08 0.00000E+00
 -1       814 1.84646E-05 6.00780E-08-4.13590E-25
 -1       815 1.84289E-05 9.07139E-08 0.00000E+00
 -1       816 1.83896E-05 1.30761E-07-8.27181E-25
 -1       817 1.83464E-05 1.81214E-07 4.13590E-25
 -1       818 1.82989E-05 2.43064E-07 4.13590E-25
 -1       819 1.82469E-05 3.17302E-07 0.00000E+00
 -1       820 1.81898E-05 4.04919E-07 0.00000E+00
 -1       821 1.89116E-05 4.64194E-07-2.06795E-25
 -1       822 1.88881E-05 5.73169E-07 0.00000E+00
 -1       823 1.88646E-05 7.04260E-07 8.27181E-25
 -1       824 1.88410E-05 8.56951E-07 4.13590E-25
 -1       825 1.88173E-05 1.02962E-06 8.27181E-25
 -1       826 1.87935E-05 1.22060E-06 0.00000E+00
 -1       827 1.87698E-05 1.42732E-06-8.27181E-25
 -1       828 1.87460E-05 1.64716E-06 0.00000E+00
 -1       829 1.87222E-05 1.87684E-06 0.00000E+00
 -1       830 1.86985E-05 2.11306E-06-4.13590E-25
 -1       831 1.86747E-05 2.35219E-06 0.00000E+00
 -1       832 1.86510E-05 2.59060E-06 0.00000E+00
 -1       833 1.86273E-05 2.82469E-06 0.00000E+00
 -1       834 1.86039E-05 3.05087E-06 2.06795E-25
 -1       835 1.85804E-05 3.26595E-06-2.06795E-25
 -1       836 1.88353E-05 3.99309E-07 0.00000E+00
 -1       837 1.87087E-05 4.21266E-07 0.00000E+00
 -1       838 1.85642E-05 4.43185E-07 4.13590E-25
 -1       839 1.84123E-05 4.64967E-07 0.00000E+00
 -1       840 1.82634E-05 4.86714E-07 0.00000E+00
 -1       856 1.85515E-05 3.67429E-06-5.16988E-26
 -1       857 1.85440E-05 3.90778E-06 5.16988E-26
 -1       858 1.85365E-05 4.16310E-06-2.06795E-25
 -1       859 1.85289E-05 4.43614E-06 0.00000E+00
 -1       860 1.85213E-05 4.72275E-06 2.06795E-25
 -1       861 1.85137E-05 5.01880E-06-1.03398E-25
 -1       862 1.85060E-05 5.32016E-06 0.00000E+00
 -1       863 1.84983E-05 5.62269E-06 0.00000E+00
 -1       864 1.84907E-05 5.92224E-06-2.06795E-25
 -1       865 1.84830E-05 6.21468E-06 0.00000E+00
 -1       866 1.84753E-05 6.49586E-06 0.00000E+00
 -1       867 1.84677E-05 6.76167E-06 0.00000E+00
 -1       868 1.84600E-05 7.00796E-06 0.00000E+00
 -1       869 1.84523E-05 7.23061E-06 0.00000E+00
 -1       870 1.84447E-05 7.42551E-06 2.06795E-25
 -1       871 1.83995E-05 3.46659E-06 1.03398E-25
 -1       872 1.82656E-05 3.46590E-06 0.00000E+00
 -1       873 1.81460E-05 3.46511E-06 0.00000E+00
 -1       874 1.80297E-05 3.46420E-06-2.58494E-26
 -1       875 1.79060E-05 3.46317E-06-2.06795E-25
 -1       876 1.85032E-05 3.67641E-06 0.00000E+00
 -1       877 1.84438E-05 3.89867E-06 4.13590E-25
 -1       878 1.83804E-05 4.13202E-06 0.00000E+00
 -1       879 1.83134E-05 4.37504E-06 4.13590E-25
 -1       880 1.82433E-05 4.62630E-06-8.27181E-25
 -1       881 1.81707E-05 4.88438E-06 4.13590E-25
 -1       882 1.80960E-05 5.14786E-06 8.27181E-25
 -1       883 1.80198E-05 5.41531E-06 4.13590E-25
 -1       884 1.79427E-05 5.68532E-06 0.00000E+00
 -1       885 1.78652E-05 5.95647E-06 0.00000E+00
 -1       886 1.77877E-05 6.22735E-06-8.27181E-25
 -1       887 1.77109E-05 6.49651E-06 0.00000E+00
 -1       888 1.76352E-05 6.76256E-06-4.13590E-25
 -1       889 1.75611E-05 7.02403E-06 0.00000E+00
 -1       890 1.74891E-05 7.27952E-06 0.00000E+00
 -1       891 1.82956E-05 7.57829E-06 2.06795E-25
 -1       892 1.81498E-05 7.56799E-06 0.00000E+00
 -1       893 1.79943E-05 7.55770E-06 0.00000E+00
 -1       894 1.78240E-05 7.54744E-06-5.16988E-26
 -1       895 1.76339E-05 7.53720E-06 1.55096E-25
 -1       956 1.81054E-05 6.38181E-07 4.13590E-25
 -1       957 1.80828E-05 7.84022E-07 2.06795E-25
 -1       958 1.80600E-05 9.42895E-07-4.13590E-25
 -1       959 1.80372E-05 1.11320E-06-4.13590E-25
 -1       960 1.80144E-05 1.29332E-06 8.27181E-25
 -1       961 1.79916E-05 1.48166E-06-4.13590E-25
 -1       962 1.79688E-05 1.67659E-06-8.27181E-25
 -1       963 1.79460E-05 1.87650E-06 4.13590E-25
 -1       964 1.79231E-05 2.07978E-06 0.00000E+00
 -1       965 1.79003E-05 2.28482E-06 0.00000E+00
 -1       966 1.78775E-05 2.48999E-06 0.00000E+00
 -1       967 1.78547E-05 2.69368E-06 0.00000E+00
 -1       968 1.78319E-05 2.89428E-06-8.27181E-25
 -1       969 1.78091E-05 3.09018E-06 0.00000E+00
 -1       970 1.77864E-05 3.27977E-06 0.00000E+00
 -1       971 1.77427E-05 3.64815E-06 4.13590E-25
 -1       972 1.77211E-05 3.85408E-06-2.06795E-25
 -1       973 1.76995E-05 4.07715E-06 0.00000E+00
 -1       974 1.76778E-05 4.31514E-06 2.06795E-25
 -1       975 1.76561E-05 4.56584E-06-4.13590E-25
 -1       976 1.76344E-05 4.82703E-06 4.13590E-25
 -1       977 1.76127E-05 5.09648E-06 0.00000E+00
 -1       978 1.75910E-05 5.37198E-06 0.00000E+00
 -1       979 1.75693E-05 5.65131E-06 0.00000E+00
 -1       980 1.75476E-05 5.93224E-06 4.13590E-25
 -1       981 1.75259E-05 6.21256E-06-8.27181E-25
 -1       982 1.75042E-05 6.49004E-06 0.00000E+00
 -1       983 1.74825E-05 6.76246E-06 8.27181E-25
 -1       984 1.74610E-05 7.02761E-06-4.13590E-25
 -1       985 1.74395E-05 7.28326E-06 0.00000E+00
 -3
    1PSTEP                         2           1           1          
  100CL  101 1.25000E-01         409                     0    1           1
 -4  STRESS      6    1
 -5  SXX         1    4    1    1
 -5  SYY         1    4    2    2
 -5  SZZ         1    4    3    3
 -5  SXY         1    4    1    2
 -5  SYZ         1    4    2    3
 -5  SZX         1    4    3    1
 -1         1-4.37257E+05-2.02340E+05-8.79414E+04-2.82093E+05 1.11868E-10-2.11367E-09
 -1         2 7.38768E+02 8.58329E+04 2.39763E+03 7.50381E+01-3.60103E-11 2.22907E-09
 -1         3-2.99111E+00-1.80493E+05 4.10861E+01-1.68741E+01-2.76179E-11-6.62112E-10
 -1         5-6.35809E-01 6.48198E+04 1.69535E+00-5.95063E-02 2.72886E-11 2.08797E-09
 -1         8-1.98230E+05-8.75307E+04-5.21966E+03-1.55080E+05 1.28694E-10-4.07454E-10
 -1         9-3.48308E+05-9.14050E+04-3.41629E+04-1.23718E+05 1.01863E-09 1.46247E-09
 -1        10-1.27157E+02-1.88040E+05-2.36801E+02-1.06922E+02-7.74207E-10-2.36772E-09
 -1        12 6.13346E-02 6.48233E+04 5.49287E+01-2.53573E-01 5.92495E-11 9.22341E-10
 -1        15 5.41961E+02 2.97844E+02 1.75181E+03 4.15370E-01 1.72378E-11 6.54324E-10
 -1        16-9.76610E+05-3.17295E+05-1.51949E+05-3.23707E+05 2.96010E-09-2.59994E-09
 -1        17-2.16361E+05-1.35155E+05-4.15028E+04-1.28257E+05-1.55160E-09 9.32050E-10
 -1        18 9.07612E+03 1.04392E+03-2.71907E+03-1.52398E+04 2.10434E-10 2.24986E-10
 -1        19 2.03368E+04 2.42321E+04-1.11436E+02 3.99259E+03-1.56297E-10-1.80989E-10
 -1        20-8.42799E+03-9.61703E+04-2.12000E+04 7.20000E+03 9.74827E-10 1.41669E-09
 -1        21-9.11595E+00-5.58143E+04-1.80249E+02-5.60876E+00-2.86668E-09-3.26730E-10
 -1        24-8.56179E+05-3.04066E+05-1.22312E+05-3.71974E+05-3.66344E-09-2.37317E-09
 -1        25 6.63888E+03-4.39217E+03 3.72555E+03-2.75096E+04 9.42919E-11 1.85692E-09
 -1        26-4.75648E+03 1.65495E+04-3.30468E+03-2.33669E+03 4.10091E-10 8.91816E-10
 -1        27-1.53799E+04-5.27714E+04-1.97933E+04 1.18956E+04 1.42067E-09-4.97418E-10
 -1        28 4.30282E+03-1.54258E+04 3.14853E+03 4.94470E+03 8.29267E-10-1.34522E-10
 -1        32-2.08273E+05-3.95864E+04 8.66322E+04-1.38165E+05-3.92538E-09 3.56101E-09
 -1        33-3.02159E+04 1.55171E+04 5.50317E+03-8.97461E+03 2.68656E-10 1.79633E-09
 -1        34-3.91962E+04-3.90317E+03 9.41164E+01 1.20604E+04 8.47158E-10-1.16741E-09
 -1        35-4.38110E+03-6.14056E+03-2.38293E+02 9.71898E+03 9.59074E-10 9.41933E-10
 -1        51 4.44221E+03-1.04682E+05 1.04983E+04-2.52936E+05-3.63798E-12-3.81988E-10
 -1        52 1.82158E+03-1.03120E+05 6.76418E+03-2.96163E+05-6.18456E-11-7.27596E-10
 -1        53 8.41958E+02-1.05030E+05 5.81310E+03-2.52081E+05-1.09139E-11-3.98722E-09
 -1        54 3.22234E+03-1.03571E+05 9.21267E+03-2.97083E+05-1.32786E-10-1.71349E-09
 -1        55 8.26574E+03-1.06794E+05 1.65067E+04-2.51995E+05-7.63976E-11-1.09139E-09
 -1        56-8.40684E+05-9.53184E+04-6.54622E+04-3.24423E+05 1.96451E-10-2.49202E-09
 -1        57-8.67810E+05-1.53642E+05-4.41130E+04-3.20967E+05 2.99224E-10 9.79981E-10
 -1        58-8.53561E+05-1.16305E+05-1.54179E+04-3.20652E+05-2.19870E-10 5.17502E-10
 -1        59-8.52932E+05-1.29030E+05-9.20392E+03-3.25498E+05 3.34012E-10-1.19508E-09
 -1        60-8.55447E+05-1.19233E+05-3.60601E+03-3.20147E+05-6.60236E-10-6.41194E-11
 -1        61-8.50817E+05-1.25548E+05-2.05167E+03-3.26023E+05 1.28892E-10-1.78119E-10
 -1        62-8.55660E+05-1.19701E+05-9.88739E+02-3.20158E+05-6.72742E-10-3.86785E-09
 -1        63-8.50736E+05-1.24927E+05-8.19410E+02-3.25850E+05 3.33017E-10-1.85005E-09
 -1        64-8.55525E+05-1.19850E+05-9.35486E+02-3.20320E+05-1.72577E-10-1.56842E-09
 -1        65-8.51332E+05-1.24939E+05-1.88772E+03-3.25372E+05 1.00727E-10 2.00657E-11
 -1        66-8.55059E+05-1.19702E+05-3.30374E+03-3.20627E+05 2.81574E-10-1.19371E-10
 -1        67-8.53785E+05-1.27576E+05-8.40459E+03-3.24266E+05 1.05672E-09 1.06502E-09
 -1        68-8.53074E+05-1.17293E+05-1.40871E+04-3.21392E+05 3.57886E-10 8.80391E-10
 -1        69-8.67869E+05-1.49541E+05-4.02815E+04-3.19540E+05 4.80100E-10-1.96451E-09
 -1        70-8.41070E+05-9.83731E+04-5.97937E+04-3.25116E+05-2.42835E-10 2.27737E-09
 -1        86-3.69230E+02 8.51709E+04 2.58458E+03-3.75120E+01 3.43050E-10-1.26930E-09
 -1        87 2.45662E+03 8.66650E+04 5.37056E+03 1.52487E+02 5.77359E-10-3.36229E-10
 -1        88-2.08083E+03 8.43397E+04 8.24559E+03-1.14947E+02 8.36735E-10-1.87890E-09
 -1        89 1.55169E+04 9.27281E+04 2.22041E+04 3.19620E+02 1.28057E-09-3.98046E-10
 -1        90-1.33862E+04 7.91087E+04 3.13931E+04-2.04628E+02 1.40244E-09 8.66379E-10
 -1       121-9.10127E+00-1.80532E+05 4.51853E+01 8.43512E+00 9.27844E-11 1.39471E-09
 -1       122 1.05806E+01-1.80483E+05 9.05926E+01-3.38562E+01-3.27927E-10 2.00043E-09
 -1       123-1.91639E+01-1.80542E+05 1.53348E+02 2.54116E+01 2.58183E-10 1.52568E-09
 -1       124 1.78185E+02-1.80379E+05 3.82243E+02-9.92896E+01-6.69843E-10 5.40922E-10
 -1       125-1.28589E+02-1.80637E+05 5.92849E+02 7.38974E+01 4.16208E-10 8.35144E-10
 -1       191-7.23990E-01 6.48254E+04 2.05637E+00 2.97314E-02 4.42397E-11-3.09001E-10
 -1       192-7.91081E-01 6.48199E+04 3.58849E+00 1.29112E-02 6.18952E-11-1.21429E-09
 -1       193-1.13717E+00 6.48253E+04 6.70303E+00-4.28166E-02 6.82507E-11-1.53022E-09
 -1       194-1.29098E+00 6.48204E+04 1.35712E+01 1.17472E-01 4.36078E-11-2.09980E-10
 -1       195-1.93156E+00 6.48249E+04 2.65762E+01-7.52317E-02 1.11370E-10 6.11635E-10
 -1       251 8.68767E+04-1.33385E+04 3.12267E+04 9.53398E+02-2.55795E-13 2.18279E-11
 -1       252 1.00602E+05 1.54483E+04 2.20719E+04-3.60881E+03-1.40645E-10-1.90630E-09
 -1       253 9.21378E+04-2.06616E+03 8.08734E+03 7.93029E+02-3.72324E-11 1.82808E-09
 -1       254 9.44529E+04 2.39117E+03 5.08484E+03-3.35089E+03 1.14404E-10 1.03535E-09
 -1       255 9.30166E+04-3.19699E+02 2.08987E+03 6.95537E+02-6.94342E-11 1.89107E-09
 -1       256 9.34186E+04 3.77967E+02 1.26428E+03-3.20543E+03 3.33575E-10 8.99547E-12
 -1       257 9.31680E+04-5.59425E+01 6.52801E+02 6.47624E+02-2.56470E-11-4.68432E-10
 -1       258 9.32668E+04 1.16202E+02 5.78520E+02-3.15622E+03 4.27566E-11-1.09208E-09
 -1       259 9.31677E+04-5.69697E+01 6.63090E+02 6.46340E+02-1.98991E-10 7.21030E-10
 -1       260 9.34223E+04 3.87571E+02 1.29343E+03-3.20057E+03 2.38188E-10-2.56068E-09
 -1       261 9.30132E+04-3.27978E+02 2.14321E+03 6.91965E+02 3.37351E-10-1.07434E-10
 -1       262 9.44808E+04 2.45387E+03 5.21628E+03-3.34062E+03 1.56092E-10 8.39464E-10
 -1       263 9.21128E+04-2.12036E+03 8.29946E+03 7.86348E+02-3.56238E-10 9.85438E-10
 -1       264 1.00786E+05 1.58529E+04 2.26481E+04-3.59239E+03-8.12449E-10 1.94655E-09
 -1       265 8.67166E+04-1.36874E+04 3.20464E+04 9.43670E+02-2.44142E-10 2.19006E-09
 -1       266-9.81117E+03-4.58865E+03 2.30155E+04-6.77382E+00 9.09495E-12-1.25922E-09
 -1       267 1.13736E+04 5.34679E+03 1.62693E+04 7.87744E+00 2.09184E-11-2.74911E-09
 -1       268-1.52516E+03-7.57306E+02 6.04709E+03-1.02613E+00 4.09273E-12-1.91411E-09
 -1       269 1.80080E+03 9.06296E+02 3.93063E+03 1.25495E+00-1.90425E-11 4.70097E-10
 -1       270-2.70277E+02-1.48889E+02 1.89737E+03-1.91635E-01 1.40972E-11-9.06790E-10
 -1       271-9.53392E+05-1.18114E+05-7.29711E+04-3.70200E+05 5.12046E-10 1.92813E-10
 -1       272-9.71719E+05-1.79409E+05-4.69404E+04-3.78899E+05-6.41819E-10-1.71758E-09
 -1       273-9.66833E+05-1.36593E+05-1.72352E+04-3.67299E+05-4.32692E-10 1.74714E-09
 -1       274-9.56191E+05-1.56585E+05-9.66972E+03-3.83216E+05 2.04636E-10-7.72616E-10
 -1       275-9.68663E+05-1.38558E+05-4.01024E+03-3.66814E+05 5.20686E-10 2.10775E-10
 -1       276-9.54065E+05-1.54213E+05-2.14029E+03-3.83971E+05-2.00089E-10 9.76797E-10
 -1       277-9.68980E+05-1.38694E+05-1.04659E+03-3.66671E+05-1.48816E-10-1.12226E-09
 -1       278-9.53747E+05-1.54043E+05-7.63310E+02-3.84146E+05 1.49439E-09-3.33046E-10
 -1       279-9.68999E+05-1.38695E+05-8.18701E+02-3.66662E+05-3.44244E-10 8.10928E-10
 -1       280-9.53949E+05-1.54134E+05-1.50132E+03-3.84021E+05-7.67386E-12-7.65397E-10
 -1       281-9.68763E+05-1.38626E+05-2.73401E+03-3.66780E+05 2.45564E-11-4.64070E-10
 -1       282-9.55448E+05-1.55662E+05-6.54461E+03-3.83419E+05-6.14818E-10-4.80941E-09
 -1       283-9.67474E+05-1.37359E+05-1.16512E+04-3.67168E+05 3.46745E-10-1.29512E-09
 -1       284-9.66061E+05-1.70935E+05-3.17103E+04-3.80319E+05 3.19659E-10-1.60617E-09
 -1       285-9.58299E+05-1.24977E+05-4.93059E+04-3.69233E+05 1.84627E-10 2.41926E-10
 -1       301 3.67278E+03-2.45506E+03 2.88274E+04-7.55741E+03-1.57343E-10 1.73183E-09
 -1       302 3.93432E+03 4.87443E+03 2.07808E+04-1.10983E+04 3.61069E-10-1.00954E-09
 -1       303 1.48875E+02 1.39964E+02 1.90703E+04-7.55989E+03-3.21052E-10-2.29920E-09
 -1       304 7.39187E+03 8.05956E+03 3.20157E+04-1.10712E+04 2.71939E-10 1.94223E-09
 -1       305 7.33175E+03-5.63246E+03 5.36802E+04-7.57697E+03-2.25555E-10 2.23145E-09
 -1       306-1.03920E+06-1.17488E+05-7.90130E+04-4.02448E+05 9.29504E-10-1.09139E-09
 -1       307-1.07365E+06-1.90763E+05-5.39067E+04-3.96295E+05 4.41787E-10-2.46473E-10
 -1       308-1.05579E+06-1.43367E+05-1.85837E+04-3.96585E+05-7.25322E-11-7.04858E-10
 -1       309-1.05398E+06-1.61109E+05-1.12987E+04-4.03736E+05-1.81643E-10 2.14936E-09
 -1       310-1.05879E+06-1.46674E+05-4.35947E+03-3.95183E+05-2.12175E-10-7.60110E-10
 -1       311-1.05032E+06-1.57467E+05-2.54129E+03-4.05614E+05 1.01875E-09 6.28347E-10
 -1       312-1.05944E+06-1.46925E+05-1.23861E+03-3.94739E+05-2.62098E-10 6.49152E-11
 -1       313-1.04971E+06-1.57165E+05-1.11768E+03-4.06014E+05-1.12827E-09 1.24894E-09
 -1       314-1.05940E+06-1.46959E+05-1.34092E+03-3.94789E+05-1.48660E-10-2.37605E-09
 -1       315-1.05054E+06-1.57409E+05-2.84628E+03-4.05408E+05-1.53719E-10-1.62345E-09
 -1       316-1.05862E+06-1.46708E+05-4.92362E+03-3.95337E+05 7.64786E-10 3.12639E-09
 -1       317-1.05472E+06-1.61511E+05-1.27893E+04-4.03257E+05 5.11591E-11-4.23142E-10
 -1       318-1.05522E+06-1.42941E+05-2.10414E+04-3.96904E+05-2.96268E-10 2.18824E-09
 -1       319-1.07692E+06-1.95179E+05-6.10512E+04-3.94932E+05-1.77579E-10 3.19233E-10
 -1       320-1.03649E+06-1.13562E+05-8.94772E+04-4.03463E+05 1.83172E-09-1.97542E-09
 -1       336 1.57677E+02-1.95439E+05-1.02400E+03 3.30610E+01-1.70581E-09 1.56069E-09
 -1       337-3.62134E+02-1.95764E+05-1.12357E+03-1.26957E+02-3.16822E-09 2.08183E-09
 -1       338 1.06251E+02-1.95471E+05-1.39563E+03 9.38393E+01-2.25816E-09-9.29958E-10
 -1       339-1.44065E+03-1.96419E+05-3.06554E+03-2.48054E+02-4.08068E-09 1.31968E-09
 -1       340 9.98472E+02-1.94786E+05-4.71057E+03 1.53786E+02-2.82000E-09 1.19962E-09
 -1       406 4.28461E+00 6.48224E+04 1.08477E+02 3.27962E-01 1.68427E-10 2.86536E-09
 -1       407 3.78687E+01 6.48423E+04 2.30500E+02-3.12989E+00 1.25056E-11-1.66699E-09
 -1       408 1.18725E+02 6.48058E+04 4.60410E+02 2.81470E+00 1.86560E-10-1.74009E-09
 -1       409 4.97853E+02 6.49895E+04 1.03652E+03-2.43829E+01-1.76215E-12-4.96868E-10
 -1       410 1.43032E+03 6.46751E+04 2.11608E+03 2.17990E+01 2.04409E-10 1.13027E-09
 -1       521-1.94092E+06-2.21702E+05-1.45019E+05-7.51407E+05 1.64982E-09-7.93079E-10
 -1       522-2.00686E+06-3.51056E+05-9.85914E+04-7.37087E+05-2.95586E-11-3.71983E-10
 -1       523-1.97119E+06-2.68531E+05-3.41063E+04-7.40903E+05 4.70664E-10 1.19144E-09
 -1       524-1.97101E+06-2.97203E+05-2.06165E+04-7.50395E+05 6.41705E-10 3.28600E-09
 -1       525-1.97653E+06-2.74452E+05-7.97276E+03-7.38480E+05-1.48816E-10 1.84627E-10
 -1       526-1.96460E+06-2.90461E+05-4.59667E+03-7.53463E+05-3.90173E-10-1.52727E-09
 -1       527-1.97753E+06-2.75063E+05-2.20365E+03-7.37894E+05 9.21403E-10 3.31397E-10
 -1       528-1.96396E+06-2.89458E+05-1.89787E+03-7.53621E+05-4.72625E-10 6.14733E-10
 -1       529-1.97719E+06-2.75466E+05-2.20463E+03-7.38326E+05-4.25700E-10 4.33602E-10
 -1       530-1.96602E+06-2.89048E+05-4.56751E+03-7.51789E+05-7.66846E-10 1.06945E-09
 -1       531-1.97551E+06-2.75552E+05-7.92026E+03-7.39706E+05 3.83928E-10 1.13778E-09
 -1       532-1.97353E+06-2.94451E+05-2.04215E+04-7.47334E+05-8.85734E-10-1.79352E-09
 -1       533-1.96962E+06-2.70158E+05-3.38022E+04-7.42717E+05 7.69433E-10-2.00089E-10
 -1       534-2.00988E+06-3.46956E+05-9.77073E+04-7.33206E+05-1.41426E-10 2.11276E-09
 -1       535-1.93931E+06-2.24051E+05-1.43756E+05-7.53463E+05-2.74667E-09 2.38651E-09
 -1       536 8.11151E+02-5.67135E+03 1.30970E+04 1.34585E+02-5.24864E-10 4.21096E-10
 -1       537 6.64334E+03 6.56423E+03 9.29140E+03-5.10225E+02-1.92187E-09 5.48425E-10
 -1       538 3.02411E+03-8.88872E+02 3.38478E+03 1.24448E+02-2.47766E-11 4.04270E-10
 -1       539 4.05225E+03 1.02743E+03 2.13846E+03-4.95962E+02 6.20052E-10-6.39602E-10
 -1       540 3.40106E+03-1.38506E+02 8.58372E+02 1.20353E+02-7.89306E-11 9.19727E-11
 -1       541 3.60312E+03 1.59245E+02 5.02070E+02-4.89251E+02 2.59787E-10 1.68080E-09
 -1       542 3.47259E+03-2.08597E+01 2.08983E+02 1.17734E+02-1.42430E-10-1.00160E-09
 -1       543 3.51342E+03 2.11408E+01 1.05284E+02-4.85185E+02-1.46017E-10-4.14510E-09
 -1       544 3.49039E+03-1.60328E-01 2.46704E+01 1.16279E+02 2.13847E-11 3.90916E-10
 -1       545 3.48384E+03-1.81750E+01-3.90944E+01-4.83390E+02-3.94975E-10 2.00219E-09
 -1       546 3.50200E+03 1.85857E+01-1.04101E+02 1.15933E+02 8.11338E-11-7.83551E-10
 -1       547 3.42556E+03-1.39522E+02-2.82820E+02-4.83773E+02-5.23537E-10-1.79102E-09
 -1       548 3.54868E+03 1.21044E+02-4.59732E+02 1.16667E+02-5.33001E-10-5.60277E-10
 -1       549 3.08795E+03-8.93354E+02-1.26010E+03-4.86222E+02-3.24128E-10 1.17188E-09
 -1       550 3.83985E+03 7.71595E+02-1.78905E+03 1.18396E+02-2.04849E-11 1.52227E-10
 -1       551 1.07178E+03-1.03886E+05 5.94283E+03-1.78197E+05-7.77345E-09-1.04228E-09
 -1       552 1.83613E+03-1.02971E+05 7.41252E+03-2.53435E+05-5.58248E-09 1.35697E-09
 -1       553 9.53777E+02-1.04343E+05 1.15450E+04-1.77655E+05-9.19317E-09 1.47702E-09
 -1       554 7.15670E+03-9.86006E+04 2.44802E+04-2.53673E+05-5.89353E-09 2.32490E-09
 -1       555 8.13292E+03-1.09132E+05 4.41122E+04-1.77932E+05-9.02946E-09-1.79170E-10
 -1       556 1.35125E+04-3.25183E+04 1.16521E+04-4.44843E+04-1.50249E-09-1.64982E-09
 -1       557 2.68036E+04-4.38651E+04 6.06444E+03-5.54480E+04 1.87356E-10-8.49468E-10
 -1       558 1.38991E+04-3.43170E+04 2.53092E+03-4.29098E+04-8.98581E-10-8.02174E-10
 -1       559 2.55025E+04-4.56214E+04 1.25793E+03-5.59024E+04 1.32059E-09-5.18867E-10
 -1       560 1.38390E+04-3.42629E+04 5.61010E+02-4.29194E+04 4.07454E-10 6.42785E-10
 -1       561 2.52858E+04-4.56382E+04 2.79243E+02-5.60323E+04-3.92902E-10-2.91266E-10
 -1       562 1.37640E+04-3.42008E+04 1.23109E+02-4.29776E+04-1.38243E-10-8.47308E-10
 -1       563 2.51831E+04-4.55965E+04 6.33260E+01-5.60971E+04 4.43833E-10-1.46974E-09
 -1       564 1.37156E+04-3.41662E+04 2.47342E+01-4.30138E+04 4.94765E-10-7.89441E-10
 -1       565 2.51305E+04-4.55755E+04 7.84082E+00-5.61287E+04-2.79488E-09-4.23620E-09
 -1       566 1.37002E+04-3.41538E+04-1.04466E+01-4.30264E+04-7.85121E-10-4.04725E-10
 -1       567 2.51163E+04-4.55682E+04-3.58543E+01-5.61209E+04 2.43597E-09-1.19871E-09
 -1       568 1.37266E+04-3.41727E+04-8.31219E+01-4.30233E+04 5.63887E-11 1.42427E-09
 -1       569 2.49696E+04-4.54941E+04-1.99019E+02-5.59289E+04-5.60021E-10 1.71258E-09
 -1       570 1.39380E+04-3.44043E+04-3.92885E+02-4.31018E+04 5.09317E-10 1.89539E-09
 -1       571 4.70809E+04 1.70860E+03 2.52871E+03-1.17541E+04 2.36469E-11 1.55239E-09
 -1       572 4.74585E+04 5.94714E+02 1.23871E+03-1.28847E+04-1.86901E-10 1.01522E-09
 -1       573 4.72356E+04 1.42014E+02 5.50273E+02-1.17235E+04 2.33968E-10 1.14835E-09
 -1       574 4.72813E+04 4.57067E+01 2.75579E+02-1.29192E+04 3.80282E-11 6.02313E-10
 -1       575 4.72546E+04 5.73792E+00 1.29858E+02-1.17195E+04-5.96856E-12 1.98645E-09
 -1       576 4.72581E+04 7.97091E-01 6.60288E+01-1.29238E+04-3.90799E-10 8.20592E-10
 -1       577 4.72574E+04-1.66109E+00 3.25005E+01-1.17189E+04-1.56888E-11 2.42039E-10
 -1       578 4.72549E+04-1.01244E+00 1.76561E+01-1.29243E+04-5.54905E-10-1.37447E-09
 -1       579 4.72584E+04-1.14378E+00 1.08071E+01-1.17189E+04-6.62453E-10-1.17745E-09
 -1       580 4.72556E+04-8.29818E-01 1.00166E+01-1.29235E+04-9.55765E-10-5.78098E-10
 -1       581 4.72596E+04-7.17343E-01 1.37206E+01-1.17197E+04-1.20031E-09 2.27374E-12
 -1       582 4.72594E+04 2.52322E+00 2.59945E+01-1.29164E+04-1.16779E-09-2.38742E-10
 -1       583 4.72598E+04 1.06636E+01 5.02435E+01-1.17260E+04-1.00590E-09 5.78325E-10
 -1       584 4.72779E+04 5.11145E+01 1.12353E+02-1.28639E+04 2.92175E-11 1.72420E-09
 -1       585 4.72481E+04 1.51490E+02 2.28748E+02-1.17722E+04 1.44246E-09 1.63482E-09
 -1       586-6.02814E+02 1.52474E+04-7.83672E+02-4.02341E+04 1.34946E-10 4.02679E-10
 -1       587-1.44929E+02 1.51453E+04-9.83380E+01-4.42749E+04 2.13277E-10 2.79499E-10
 -1       588 1.46742E+02 1.51637E+04 5.32605E+02-4.02098E+04 1.25738E-10 3.26668E-09
 -1       589 7.89280E+02 1.54511E+04 1.56563E+03-4.42380E+04 2.00998E-10 9.09381E-10
 -1       590 2.29703E+03 1.49541E+04 3.35990E+03-4.02712E+04 1.05501E-10 1.33923E-10
 -1       591-1.01473E+04-2.92126E+03-3.40843E+03-5.27883E+03-2.41116E-10-2.99679E-10
 -1       592-1.04661E+04-3.75888E+03-1.84615E+03-6.16824E+03-1.03154E-09 3.24690E-09
 -1       593-1.04916E+04-2.67024E+03-7.68552E+02-5.52472E+03-2.49997E-10-8.52594E-10
 -1       594-9.99076E+03-3.26358E+03-3.83334E+02-6.19158E+03 7.60821E-10-1.22846E-09
 -1       595-1.05178E+04-2.66924E+03-1.76166E+02-5.53592E+03 6.31815E-11-9.16891E-10
 -1       596-9.95846E+03-3.24094E+03-8.98131E+01-6.18808E+03 4.81776E-10-1.45567E-09
 -1       597-1.05211E+04-2.67146E+03-4.94447E+01-5.53634E+03-1.81988E-10-7.64004E-10
 -1       598-9.95543E+03-3.24006E+03-4.07369E+01-6.18717E+03-9.10916E-12 2.48925E-09
 -1       599-1.05210E+04-2.67139E+03-5.32444E+01-5.53631E+03 9.16600E-11 1.76129E-09
 -1       600-9.95907E+03-3.24116E+03-9.99163E+01-6.18823E+03-1.64903E-10-1.08344E-09
 -1       601-1.05170E+04-2.66884E+03-1.97573E+02-5.53576E+03-3.24917E-10-1.70343E-09
 -1       602-9.99558E+03-3.26652E+03-4.30957E+02-6.19196E+03 5.11477E-10-2.23778E-09
 -1       603-1.04874E+04-2.67024E+03-8.64307E+02-5.52332E+03-1.12038E-10-1.35964E-09
 -1       604-1.05321E+04-3.82158E+03-2.07641E+03-6.16334E+03-4.22318E-10 1.28307E-09
 -1       605-1.00979E+04-2.95419E+03-3.83344E+03-5.24879E+03 1.86759E-10 1.62595E-09
 -1       606 6.72538E+03-2.26245E+03-4.07786E+03 6.59900E+03 1.37788E-10-8.59245E-10
 -1       607 6.02731E+03-7.29733E+02-2.03075E+03 7.40781E+03-4.24052E-10-3.14500E-09
 -1       608 6.42792E+03-1.22368E+02-9.08906E+02 6.54633E+03-5.93445E-10-9.83277E-10
 -1       609 6.35074E+03-3.37994E+01-4.59258E+02 7.46621E+03-1.72076E-09-6.78085E-10
 -1       610 6.39603E+03 3.92605E+00-2.19021E+02 6.54046E+03-1.65892E-09-4.05066E-10
 -1       611 6.38312E+03 4.41155E+00-1.10591E+02 7.47264E+03-2.60854E-09-9.96408E-10
 -1       612 6.39025E+03 5.06372E+00-5.26981E+01 6.53987E+03-1.09912E-09 1.44087E-09
 -1       613 6.38668E+03 4.11296E+00-2.41107E+01 7.47344E+03-1.72258E-09-1.33127E-09
 -1       614 6.38811E+03 3.25044E+00-6.62261E+00 6.53965E+03-2.99679E-10-1.02432E-09
 -1       615 6.38708E+03 3.61757E+00 7.46882E+00 7.47360E+03 1.18609E-09 3.55493E-09
 -1       616 6.38646E+03 3.10963E+00 2.48845E+01 6.53971E+03-1.46406E-09 3.58682E-10
 -1       617 6.39086E+03 8.58487E+00 5.75840E+01 7.47350E+03-1.77806E-10-2.63657E-09
 -1       618 6.38192E+03 1.94508E+01 1.16459E+02 6.53975E+03 7.63976E-11-9.08813E-10
 -1       619 6.43244E+03 9.84786E+01 2.61715E+02 7.47337E+03 3.45551E-10-2.77623E-10
 -1       620 6.34344E+03 2.95724E+02 5.26143E+02 6.53972E+03 5.07555E-10 2.13174E-09
 -1       621 8.21326E+01 5.12007E+04 7.05072E+02 1.59815E+03-8.36948E-11 7.87225E-10
 -1       622 9.39226E+01 5.13752E+04 5.98626E+02 2.32996E+03-5.54508E-11-7.96632E-10
 -1       623 4.45092E+00 5.12513E+04 6.88768E+02 1.59052E+03-3.13563E-11 1.32204E-09
 -1       624 3.12438E+02 5.15761E+04 1.30825E+03 2.33756E+03-5.58202E-11-1.98880E-09
 -1       625 3.13361E+02 5.09995E+04 2.27447E+03 1.59059E+03-2.71712E-11-6.17923E-10
 -1       626 4.23140E+04 1.17405E+04 8.50223E+02 2.28933E+04-4.81350E-10-5.82986E-10
 -1       627 4.17336E+04 1.21665E+04 4.09401E+02 2.38235E+04-6.22094E-10-9.44340E-10
 -1       628 4.23496E+04 1.13370E+04 1.73180E+02 2.30232E+04 5.59112E-10-2.92289E-10
 -1       629 4.16147E+04 1.20687E+04 8.47275E+01 2.38821E+04 1.72088E-09 6.65537E-10
 -1       630 4.23547E+04 1.13163E+04 3.93132E+01 2.30284E+04 3.19005E-10-1.33457E-09
 -1       631 4.16026E+04 1.20654E+04 2.10386E+01 2.38848E+04-7.44876E-10-8.17089E-11
 -1       632 4.23548E+04 1.13166E+04 1.39273E+01 2.30278E+04-5.24324E-10-6.72088E-10
 -1       633 4.16014E+04 1.20659E+04 1.54431E+01 2.38846E+04-1.07366E-09-4.73354E-09
 -1       634 4.23538E+04 1.13160E+04 2.50221E+01 2.30276E+04-4.39320E-09-8.72814E-09
 -1       635 4.16033E+04 1.20660E+04 5.07086E+01 2.38852E+04-7.56927E-10 2.85308E-09
 -1       636 4.23515E+04 1.13156E+04 1.02482E+02 2.30271E+04-1.38925E-10-4.12797E-10
 -1       637 4.16242E+04 1.20823E+04 2.25271E+02 2.38841E+04 9.12961E-10 2.95586E-11
 -1       638 4.23422E+04 1.13661E+04 4.63090E+02 2.30037E+04 2.04636E-10 1.61208E-10
 -1       639 4.18654E+04 1.24215E+04 1.09559E+03 2.38115E+04-3.90628E-10-1.37686E-09
 -1       640 4.23082E+04 1.23756E+04 2.27383E+03 2.25751E+04-3.10877E-10 6.63022E-10
 -1       656 1.14678E+04-2.90354E+05-2.76962E+04-3.40172E+02 9.45874E-11 1.14034E-09
 -1       657-1.51519E+04-3.02874E+05-2.29049E+04 1.91113E+03 4.41787E-10 2.48827E-10
 -1       658 3.63524E+03-2.93930E+05-1.40583E+04-4.10486E+02 1.17780E-10-5.13099E-10
 -1       659-1.62438E+04-3.03384E+05-2.43387E+04 1.95694E+03-9.07221E-11 1.71232E-10
 -1       660 1.25563E+04-2.89844E+05-3.01678E+04-3.85983E+02 2.11003E-10-8.26493E-10
 -1       661 4.13182E+04 4.47191E+03 3.95875E+03 1.61089E+04 6.90079E-10 1.42518E-09
 -1       662 4.33557E+04 7.60104E+03 2.66751E+03 1.54475E+04 3.56295E-10-6.18371E-10
 -1       663 4.20910E+04 5.74648E+03 9.33124E+02 1.58884E+04-1.40119E-10 1.13960E-09
 -1       664 4.24635E+04 6.10698E+03 5.57804E+02 1.57132E+04 5.88905E-10 5.04912E-10
 -1       665 4.22046E+04 5.92412E+03 2.20083E+02 1.58588E+04-5.10909E-10-2.64087E-10
 -1       666 4.23322E+04 5.90072E+03 1.28267E+02 1.57494E+04-1.66668E-09 2.37851E-09
 -1       667 4.22216E+04 5.94744E+03 6.76718E+01 1.58543E+04-1.09011E-10 1.62312E-09
 -1       668 4.23159E+04 5.87969E+03 6.77028E+01 1.57546E+04 9.23976E-10-3.07804E-09
 -1       669 4.22207E+04 5.94463E+03 9.07736E+01 1.58537E+04 7.46478E-10 2.94037E-10
 -1       670 4.23428E+04 5.92364E+03 1.96676E+02 1.57499E+04 2.35546E-09 1.07020E-09
 -1       671 4.21948E+04 5.90443E+03 3.48993E+02 1.58587E+04-8.78277E-10 2.21704E-10
 -1       672 4.25501E+04 6.25934E+03 8.92632E+02 1.56964E+04-1.87791E-09-1.67881E-09
 -1       673 4.20146E+04 5.61746E+03 1.49586E+03 1.59040E+04 5.27791E-11 7.07530E-10
 -1       674 4.39778E+04 8.65929E+03 4.27813E+03 1.52740E+04-9.52852E-10-1.61532E-09
 -1       675 4.07765E+04 3.57163E+03 6.34972E+03 1.62559E+04 8.59472E-10 4.58613E-10
 -1       676 4.67817E+00-5.57992E+04-2.17244E+02 2.80436E+00-7.94458E-10-5.53932E-10
 -1       677-5.76637E+01-5.58518E+04-3.97552E+02-5.60989E+00-1.18062E-09 2.64589E-10
 -1       678 3.84955E+01-5.57618E+04-7.02753E+02 2.80342E+00 4.57590E-12-3.16110E-10
 -1       679-7.02770E+02-5.62759E+04-1.66925E+03-5.60291E+00-7.84610E-10-2.35705E-09
 -1       680 4.19346E+02-5.53752E+04-2.69033E+03 2.76505E+00-1.13278E-09 9.30579E-10
 -1       771-6.00951E+05-1.03858E+05-1.44548E+04-2.48556E+05-3.57977E-09-5.55156E-09
 -1       772-5.96943E+05-1.12483E+05-7.80269E+03-2.58155E+05-1.29512E-09 7.49424E-10
 -1       773-6.02719E+05-1.02501E+05-3.28548E+03-2.49361E+05-8.36735E-10 1.18143E-09
 -1       774-5.94761E+05-1.10658E+05-1.62263E+03-2.58672E+05 1.93177E-09-3.62434E-10
 -1       775-6.02941E+05-1.02399E+05-7.64719E+02-2.49401E+05-2.67391E-10 1.78261E-10
 -1       776-5.94648E+05-1.10601E+05-3.67707E+02-2.58812E+05-1.23600E-09 5.56383E-10
 -1       777-6.03046E+05-1.02340E+05-1.92438E+02-2.49410E+05 2.00089E-11 3.63798E-10
 -1       778-5.94658E+05-1.10615E+05-9.61769E+01-2.58923E+05 9.23137E-10 9.60881E-10
 -1       779-6.03120E+05-1.02286E+05-7.63094E+01-2.49417E+05-6.49379E-10-6.22322E-10
 -1       780-5.94683E+05-1.10632E+05-7.57320E+01-2.59014E+05-7.49878E-10-3.18323E-12
 -1       781-6.03171E+05-1.02240E+05-1.29414E+02-2.49420E+05-2.12549E-09-3.28328E-10
 -1       782-5.94722E+05-1.10660E+05-2.57752E+02-2.59083E+05-2.56659E-09-7.58973E-10
 -1       783-6.03190E+05-1.02212E+05-5.13135E+02-2.49416E+05-5.55701E-10-1.04396E-09
 -1       784-5.95042E+05-1.10998E+05-1.22480E+03-2.59112E+05-1.60753E-09-2.12026E-11
 -1       785-6.02984E+05-1.02360E+05-2.26231E+03-2.49250E+05-2.64686E-09 2.96950E-10
 -1       786 4.32482E+04-2.32239E+03 5.37225E+03 1.89343E+00 1.26785E-09 2.86263E-10
 -1       787 4.55763E+04 2.68857E+03 3.80093E+03-7.61701E+00 2.33610E-09-3.16959E-10
 -1       788 4.41464E+04-3.64057E+02 1.39045E+03 1.94196E+00 1.82889E-08 1.17427E-09
 -1       789 4.45299E+04 4.21233E+02 8.73626E+02-7.94274E+00 3.44393E-08 1.36082E-09
 -1       790 4.42946E+04-5.68703E+01 3.55440E+02 2.21933E+00 5.92276E-08-2.10889E-11
 -1       791 4.43569E+04 6.60704E+01 2.08654E+02-8.74225E+00 8.41704E-08 1.50554E-09
 -1       792 4.43194E+04-9.15842E+00 9.51597E+01 2.74127E+00 1.27254E-07-2.84064E-09
 -1       793 4.43290E+04 1.28380E+01 6.22227E+01-1.00705E+01 1.70607E-07-3.96519E-10
 -1       794 4.43226E+04-3.65663E+00 4.58921E+01 3.54714E+00 2.51227E-07-1.95437E-09
 -1       795 4.43316E+04 1.88656E+01 6.60862E+01-1.20226E+01 3.32499E-07 3.75645E-09
 -1       796 4.43168E+04-1.51399E+01 9.88258E+01 4.69284E+00 4.72895E-07-3.48943E-09
 -1       797 4.43763E+04 1.11204E+02 2.32846E+02-1.47324E+01 6.14201E-07 3.73329E-09
 -1       798 4.42779E+04-9.58820E+01 3.67525E+02 6.25659E+00 7.78473E-07-2.33037E-09
 -1       799 4.46518E+04 7.08241E+02 1.00182E+03-1.84155E+01 9.40785E-07 2.36660E-09
 -1       800 4.40413E+04-6.11704E+02 1.41526E+03 8.37610E+00 4.71535E-07-1.40085E-09
 -1       801-1.71541E+03 1.49964E+03 4.25755E+03 4.57029E+03 2.55466E-09-1.19331E-09
 -1       802 5.86014E+03 1.07981E+04 1.12603E+04-1.87643E+04 6.83360E-09-7.84219E-10
 -1       803-4.07686E+03 3.22927E+03 1.59790E+04 4.52443E+03 5.38603E-09 5.09316E-09
 -1       804 3.08170E+04 2.30033E+04 4.38490E+04-1.88383E+04 6.35373E-09 5.95557E-09
 -1       805-2.66641E+04-1.06841E+04 5.99440E+04 4.64376E+03 2.27010E-09 6.58889E-09
 -1       806-5.13898E+04-1.09731E+04-4.34933E+03-2.13626E+04 1.28807E-10 1.11072E-09
 -1       807-5.16491E+04-1.03468E+04-2.13670E+03-2.25120E+04 1.81075E-10 3.27154E-09
 -1       808-5.15131E+04-9.40186E+03-9.06442E+02-2.21007E+04-9.34506E-11 2.13950E-09
 -1       809-5.11936E+04-9.75328E+03-4.43153E+02-2.25736E+04-1.89459E-10 1.07335E-09
 -1       810-5.15327E+04-9.34624E+03-2.02904E+02-2.21335E+04 7.79323E-11 5.06077E-10
 -1       811-5.11590E+04-9.72971E+03-1.00640E+02-2.25688E+04-3.59080E-10 8.78799E-10
 -1       812-5.15366E+04-9.35005E+03-5.01846E+01-2.21336E+04 2.83308E-10 6.99742E-10
 -1       813-5.11549E+04-9.73017E+03-3.16879E+01-2.25666E+04 5.25176E-10-1.44743E-09
 -1       814-5.15368E+04-9.35116E+03-2.96652E+01-2.21332E+04 2.51703E-10-9.67759E-10
 -1       815-5.11561E+04-9.73052E+03-4.65670E+01-2.25666E+04 1.94234E-10-5.36829E-10
 -1       816-5.15346E+04-9.35027E+03-8.71870E+01-2.21330E+04 1.58138E-10 7.63748E-10
 -1       817-5.11718E+04-9.73867E+03-1.87185E+02-2.25659E+04 1.19684E-09-9.48148E-11
 -1       818-5.15245E+04-9.37590E+03-3.81369E+02-2.21211E+04-2.93312E-10-6.01517E-10
 -1       819-5.13834E+04-9.96757E+03-8.97947E+02-2.25160E+04-1.52681E-09 2.63816E-09
 -1       820-5.14528E+04-1.00545E+04-1.82727E+03-2.18321E+04-8.33325E-10 5.86169E-10
 -1       821-6.62467E+04 3.67906E+03-8.51005E+03-6.12581E+00-2.56930E-10 3.45608E-11
 -1       822-6.99340E+04-4.25887E+03-6.02155E+03-5.82888E-01-9.43973E-10 1.08912E-09
 -1       823-6.76692E+04 5.76949E+02-2.20404E+03-1.30786E+01 7.27391E-10-1.63482E-10
 -1       824-6.82767E+04-6.67363E+02-1.38717E+03 1.26661E+01-3.03344E-10 3.04098E-09
 -1       825-6.79038E+04 9.04350E+01-5.69708E+02-1.93746E+01-9.14756E-10-6.62396E-10
 -1       826-6.80040E+04-1.06481E+02-3.44839E+02 2.39289E+01 8.59882E-09 4.57625E-11
 -1       827-6.79422E+04 1.61414E+01-1.77748E+02-2.43427E+01 3.01374E-06-3.78609E-09
 -1       828-6.79661E+04-3.25848E+01-1.57993E+02 3.20085E+01 6.01482E-06-4.70392E-10
 -1       829-6.79419E+04 1.64547E+01-1.80476E+02-2.74563E+01 4.00561E-06-2.70485E-09
 -1       830-6.80057E+04-1.09110E+02-3.52821E+02 3.60476E+01 1.98205E-06-9.49136E-10
 -1       831-6.79025E+04 9.26984E+01-5.83987E+02-2.83835E+01-1.14248E-06 5.93730E-10
 -1       832-6.82857E+04-6.84762E+02-1.42298E+03 3.56610E+01-4.26672E-06 4.57703E-09
 -1       833-6.76619E+04 5.91707E+02-2.26102E+03-2.70698E+01-7.27644E-06 4.82225E-09
 -1       834-6.99860E+04-4.36933E+03-6.17755E+03 3.11100E+01-1.02549E-05 2.36753E-09
 -1       835-6.62024E+04 3.77425E+03-8.73035E+03-2.38307E+01-5.14648E-06 4.86853E-09
 -1       836-2.21463E+02 6.28646E+04 3.78385E+03-5.47079E+03 4.79645E-10-3.09910E-10
 -1       837 8.27317E+02 6.40393E+04 3.22920E+03-1.10054E+04 7.22366E-10-5.86056E-10
 -1       838-8.44009E+01 6.31936E+04 3.32957E+03-5.45088E+03 6.07884E-10 3.22359E-10
 -1       839 2.13067E+03 6.50155E+04 6.33767E+03-1.10133E+04 8.26617E-10 2.59664E-10
 -1       840-6.45810E+02 6.18861E+04 1.01221E+04-5.46275E+03 5.53428E-10 2.96438E-10
 -1       856-2.09121E+04 1.78237E+03-4.69604E+03-9.39675E+01-9.23848E-10-1.68029E-10
 -1       857-2.28527E+04-2.09124E+03-3.23343E+03 1.08726E+03-1.10081E-09 1.14369E-09
 -1       858-2.16788E+04 2.49926E+02-1.21872E+03-9.58155E+01-1.36710E-09 1.38340E-09
 -1       859-2.19714E+04-2.91716E+02-7.36235E+02 1.09000E+03 7.46383E-10 3.18653E-09
 -1       860-2.17937E+04 3.48959E+01-3.09542E+02-9.67146E+01 5.71283E-10-1.07111E-09
 -1       861-2.18388E+04-3.99084E+01-1.72514E+02 1.09117E+03-1.85270E-09-2.60468E-09
 -1       862-2.18116E+04 4.75328E+00-7.61207E+01-9.69893E+01 1.61717E-09-2.05184E-09
 -1       863-2.18176E+04-4.41622E+00-3.77377E+01 1.09130E+03 2.41235E-09-4.90168E-10
 -1       864-2.18148E+04 1.54322E-01-1.20189E+01-9.68448E+01 1.63712E-09-1.58637E-09
 -1       865-2.18120E+04 3.73566E+00 6.50718E+00 1.09047E+03 1.29686E-09 7.64446E-10
 -1       866-2.18171E+04-3.33305E+00 2.48822E+01-9.61547E+01-2.35850E-10-6.31124E-10
 -1       867-2.17983E+04 2.84799E+01 6.82935E+01 1.08863E+03 1.44588E-10 1.86567E-10
 -1       868-2.18283E+04-2.40982E+01 1.15765E+02-9.50061E+01 3.93413E-10-3.50454E-10
 -1       869-2.17129E+04 2.01268E+02 3.10046E+02 1.08503E+03-1.07485E-09 1.21215E-09
 -1       870-2.19022E+04-1.71347E+02 4.50537E+02-9.25600E+01 2.68500E-10-1.66952E-09
 -1       871-9.53601E+02-2.00613E+03-3.14840E+03 2.06608E+04 9.47921E-10 1.02818E-09
 -1       872-4.08060E+02-2.70810E+03-1.28233E+03 2.67843E+04 1.23441E-09-1.59218E-10
 -1       873-2.18293E-01-2.37070E+03 1.88724E+02 2.06145E+04 6.22435E-10 1.14815E-09
 -1       874 4.98597E+02-1.91398E+03 1.79942E+03 2.67942E+04 1.43928E-09 1.16813E-10
 -1       875 1.16719E+03-2.80347E+03 3.98881E+03 2.06515E+04 4.44743E-10-1.64857E-09
 -1       876 5.17831E+04 8.90384E+03 2.77648E+03 2.09840E+04-8.99178E-10 3.01270E-10
 -1       877 5.19421E+04 9.51257E+03 1.48262E+03 2.18056E+04-9.70658E-10-9.82340E-10
 -1       878 5.20436E+04 8.59580E+03 6.21214E+02 2.12117E+04 2.82512E-10 1.31757E-09
 -1       879 5.15646E+04 9.13666E+03 3.09399E+02 2.18264E+04-3.48564E-10 1.40693E-09
 -1       880 5.20632E+04 8.59182E+03 1.44078E+02 2.12210E+04 1.49873E-09 7.39590E-10
 -1       881 5.15397E+04 9.12087E+03 7.66907E+01 2.18233E+04 4.70612E-09 6.52850E-09
 -1       882 5.20655E+04 8.59373E+03 4.87033E+01 2.12213E+04 2.00106E-09 1.68370E-09
 -1       883 5.15380E+04 9.12022E+03 5.17352E+01 2.18227E+04 3.92760E-10-2.91209E-10
 -1       884 5.20647E+04 8.59299E+03 8.17676E+01 2.12213E+04-3.83551E-10-1.01370E-09
 -1       885 5.15445E+04 9.12141E+03 1.64070E+02 2.18249E+04 5.58806E-11 2.17806E-09
 -1       886 5.20583E+04 8.58821E+03 3.30551E+02 2.12207E+04 5.69450E-10-2.25668E-10
 -1       887 5.16026E+04 9.15945E+03 7.22036E+02 2.18330E+04 2.44391E-10-1.39880E-09
 -1       888 5.20125E+04 8.59649E+03 1.45498E+03 2.11976E+04 4.78067E-10-1.11368E-09
 -1       889 5.24697E+04 1.00597E+04 3.47610E+03 2.18050E+04 8.02011E-10 9.87711E-10
 -1       890 5.14186E+04 9.30134E+03 6.51019E+03 2.06434E+04 7.07303E-10 2.75350E-10
 -1       891-2.87550E+01-2.94552E+04-3.45904E+02 5.59414E+03 4.69896E-10 6.68422E-10
 -1       892-5.04248E+01-2.95409E+04-3.77205E+02 8.47022E+03 2.61480E-10-5.29838E-10
 -1       893-4.24997E+00-2.94679E+04-5.39524E+02 5.59503E+03 5.29553E-10 3.54134E-10
 -1       894-2.87331E+02-2.97533E+04-1.12129E+03 8.44061E+03 3.53566E-11-6.01972E-11
 -1       895-2.22745E+02-2.92387E+04-1.97521E+03 5.62363E+03 3.86450E-10-4.45425E-10
 -1       956-6.50125E+04-9.37721E+02-2.35905E+03 4.30033E+03-1.45121E-09 3.96767E-10
 -1       957-6.54777E+04-3.17864E+02-1.21120E+03 5.17374E+03-1.33844E-09-6.49152E-10
 -1       958-6.52197E+04-2.67399E+01-5.45533E+02 4.27282E+03 4.11319E-10 6.13397E-10
 -1       959-6.52557E+04-7.33542E+00-2.78732E+02 5.20353E+03-4.59295E-11 1.13153E-09
 -1       960-6.52366E+04 5.15283E+00-1.35787E+02 4.27042E+03-1.25397E-09-4.50257E-10
 -1       961-6.52378E+04 3.38572E+00-7.20469E+01 5.20615E+03-2.21513E-09-6.96673E-10
 -1       962-6.52392E+04 3.41000E+00-4.11153E+01 4.27019E+03-1.04529E-09 2.33456E-10
 -1       963-6.52361E+04 3.06897E+00-3.28538E+01 5.20646E+03-2.03127E-09 1.82246E-09
 -1       964-6.52394E+04 3.48284E+00-3.96264E+01 4.27011E+03-2.05489E-11 1.10316E-09
 -1       965-6.52382E+04 3.59366E+00-6.82656E+01 5.20640E+03 2.77591E-09-8.05642E-10
 -1       966-6.52374E+04 5.34755E+00-1.27970E+02 4.27024E+03-8.10587E-10 6.88061E-10
 -1       967-6.52554E+04-6.24346E+00-2.62377E+02 5.20489E+03-9.04663E-11 1.22665E-09
 -1       968-6.52219E+04-2.44231E+01-5.13325E+02 4.27164E+03 2.07405E-09-7.01036E-10
 -1       969-6.54648E+04-2.98213E+02-1.13970E+03 5.18745E+03 4.54918E-10 1.03166E-09
 -1       970-6.50272E+04-8.81462E+02-2.21971E+03 4.28786E+03-5.13694E-10 9.71113E-10
 -1       971-6.18025E+04-3.27664E+02-1.81952E+03 3.06788E+03-1.14744E-09-1.02673E-11
 -1       972-6.22446E+04-2.37032E+02-9.91168E+02 4.27360E+03-1.25874E-09 3.29578E-10
 -1       973-6.20029E+04-3.73695E+00-4.43541E+02 3.04346E+03-8.66294E-10 1.67262E-09
 -1       974-6.20322E+04-5.89422E+00-2.29896E+02 4.29963E+03 2.13447E-10 1.37226E-09
 -1       975-6.20170E+04 3.56385E+00-1.14502E+02 3.04176E+03-1.28239E-10 1.32511E-09
 -1       976-6.20178E+04 2.54322E+00-6.56313E+01 4.30147E+03-1.58349E-09-8.54186E-10
 -1       977-6.20189E+04 2.70997E+00-4.66695E+01 3.04161E+03 6.59327E-10 3.10990E-10
 -1       978-6.20173E+04 2.96712E+00-5.34111E+01 4.30166E+03 2.68092E-09-2.45848E-10
 -1       979-6.20183E+04 3.77462E+00-8.46865E+01 3.04157E+03 1.53497E-09 2.44171E-10
 -1       980-6.20233E+04 3.32007E+00-1.62814E+02 4.30163E+03 1.60388E-09-1.46997E-09
 -1       981-6.20132E+04 7.88266E+00-3.14889E+02 3.04164E+03 5.51779E-10-8.75744E-10
 -1       982-6.20670E+04-1.96169E+01-6.50616E+02 4.30062E+03-1.81643E-10 9.17579E-10
 -1       983-6.19742E+04-1.17641E+01-1.26389E+03 3.04259E+03 9.92145E-10 7.29443E-10
 -1       984-6.26761E+04-6.78792E+02-2.83018E+03 4.28402E+03-1.20053E-10 1.74759E-09
 -1       985-6.14031E+04-9.36029E+02-5.19705E+03 3.05859E+03 8.76639E-10 1.51613E-09
 -3
    1PSTEP                         3           2           1          
  100CL  102 2.50000E-01         409                     0    2           1
 -4  DISP        4    1
 -5  D1          1    2    1    0
 -5  D2          1    2    2    0
 -5  D3          1    2    3    0
 -5  ALL         1    2    0    0    1ALL
 -1         1 6.55294E-05 0.00000E+00 0.00000E+00
 -1         2 6.04799E-05-3.42113E-30 0.00000E+00
 -1         3 5.56446E-05-5.09320E-27 0.00000E+00
 -1         5 4.01237E-05-1.53118E-26-1.65436E-24
 -1         8 5.19991E-05-4.75095E-07 0.00000E+00
 -1         9 5.30382E-05 3.46118E-07 0.00000E+00
 -1        10 5.15886E-05-7.61848E-07 1.65436E-24
 -1        12 3.98383E-05 2.72242E-07 8.27181E-25
 -1        15 3.58268E-05-5.09119E-07 0.00000E+00
 -1        16 3.76076E-05 2.85291E-07 0.00000E+00
 -1        17 3.84810E-05-1.59622E-06 0.00000E+00
 -1        18 3.84555E-05 8.99913E-08 0.00000E+00
 -1        19 3.89824E-05 5.43012E-07 0.00000E+00
 -1        20 3.90544E-05 8.08754E-06 0.00000E+00
 -1        21 3.87835E-05 1.52944E-05 0.00000E+00
 -1        24 9.82246E-06-2.12300E-06 0.00000E+00
 -1        25 3.75462E-05 1.52270E-07 0.00000E+00
 -1        26 3.80410E-05 7.56610E-07 0.00000E+00
 -1        27 3.72885E-05 6.87660E-06 0.00000E+00
 -1        28 3.70454E-05 1.50616E-05 0.00000E+00
 -1        32 0.00000E+00 0.00000E+00 0.00000E+00
 -1        33 3.64503E-05 1.01480E-06 0.00000E+00
 -1        34 3.57222E-05 6.86591E-06 0.00000E+00
 -1        35 3.50307E-05 1.49388E-05 0.00000E+00
 -1        51 6.46558E-05-7.91569E-08 0.00000E+00
 -1        52 6.30272E-05-1.55911E-07 0.00000E+00
 -1        53 6.07925E-05-2.32951E-07 0.00000E+00
 -1        54 5.81062E-05-3.10993E-07 1.65436E-24
 -1        55 5.51234E-05-3.90544E-07 3.30872E-24
 -1        56 6.49203E-05-3.68899E-07 0.00000E+00
 -1        57 6.43720E-05-9.68023E-07-6.61744E-24
 -1        58 6.38861E-05-1.73009E-06 0.00000E+00
 -1        59 6.34347E-05-2.59586E-06 1.32349E-23
 -1        60 6.29973E-05-3.49946E-06 2.64698E-23
 -1        61 6.25490E-05-4.37600E-06-1.32349E-23
 -1        62 6.20664E-05-5.16116E-06 0.00000E+00
 -1        63 6.15260E-05-5.79233E-06 0.00000E+00
 -1        64 6.09063E-05-6.21179E-06 0.00000E+00
 -1        65 6.01869E-05-6.36522E-06-1.32349E-23
 -1        66 5.93506E-05-6.20697E-06 0.00000E+00
 -1        67 5.83826E-05-5.69616E-06-1.32349E-23
 -1        68 5.72713E-05-4.80374E-06 2.64698E-23
 -1        69 5.60110E-05-3.50529E-06 6.61744E-24
 -1        70 5.45933E-05-1.79249E-06 1.32349E-23
 -1        86 6.02826E-05 6.13557E-08 0.00000E+00
 -1        87 5.96903E-05 1.22261E-07 8.27181E-25
 -1        88 5.86897E-05 1.82809E-07 8.27181E-25
 -1        89 5.72663E-05 2.40977E-07 0.00000E+00
 -1        90 5.53922E-05 2.99067E-07-1.65436E-24
 -1       121 5.55317E-05-1.26638E-07 0.00000E+00
 -1       122 5.51929E-05-2.53328E-07-1.65436E-24
 -1       123 5.46287E-05-3.80120E-07 3.30872E-24
 -1       124 5.38393E-05-5.07088E-07 0.00000E+00
 -1       125 5.28256E-05-6.34245E-07 0.00000E+00
 -1       191 4.01158E-05 4.53768E-08-1.65436E-24
 -1       192 4.00920E-05 9.07527E-08 0.00000E+00
 -1       193 4.00524E-05 1.36128E-07 0.00000E+00
 -1       194 3.99969E-05 1.81503E-07-8.27181E-25
 -1       195 3.99255E-05 2.26874E-07-1.65436E-24
 -1       251 5.20525E-05 1.76199E-06 1.65436E-24
 -1       252 5.21176E-05 3.09734E-06-1.03398E-25
 -1       253 5.21827E-05 3.68295E-06 0.00000E+00
 -1       254 5.22500E-05 3.66858E-06 8.27181E-25
 -1       255 5.23171E-05 3.18272E-06 1.65436E-24
 -1       256 5.23845E-05 2.35252E-06 0.00000E+00
 -1       257 5.24516E-05 1.29284E-06 0.00000E+00
 -1       258 5.25187E-05 1.17899E-07 0.00000E+00
 -1       259 5.25858E-05-1.06223E-06-1.65436E-24
 -1       260 5.26530E-05-2.13746E-06 0.00000E+00
 -1       261 5.27203E-05-2.99397E-06 0.00000E+00
 -1       262 5.27874E-05-3.51732E-06 8.27181E-25
 -1       263 5.28546E-05-3.58117E-06-8.27181E-25
 -1       264 5.29197E-05-3.05789E-06 0.00000E+00
 -1       265 5.29849E-05-1.79900E-06 0.00000E+00
 -1       266 4.93037E-05-4.87309E-07 0.00000E+00
 -1       267 4.66084E-05-4.92182E-07 8.27181E-25
 -1       268 4.39130E-05-4.97520E-07-8.27181E-25
 -1       269 4.12176E-05-5.01481E-07 0.00000E+00
 -1       270 3.85222E-05-5.05410E-07 0.00000E+00
 -1       271 5.03885E-05 1.53857E-06 0.00000E+00
 -1       272 4.90278E-05 2.81388E-06 0.00000E+00
 -1       273 4.79096E-05 3.44758E-06-2.64698E-23
 -1       274 4.69935E-05 3.53159E-06-1.32349E-23
 -1       275 4.62455E-05 3.16654E-06 0.00000E+00
 -1       276 4.56262E-05 2.45602E-06 0.00000E+00
 -1       277 4.50959E-05 1.50755E-06 0.00000E+00
 -1       278 4.46134E-05 4.30823E-07 0.00000E+00
 -1       279 4.41374E-05-6.63150E-07 0.00000E+00
 -1       280 4.36263E-05-1.66314E-06 0.00000E+00
 -1       281 4.30389E-05-2.45899E-06 2.64698E-23
 -1       282 4.23349E-05-2.94244E-06 0.00000E+00
 -1       283 4.14747E-05-3.00862E-06 0.00000E+00
 -1       284 4.04226E-05-2.55584E-06 0.00000E+00
 -1       285 3.91390E-05-1.48976E-06-1.32349E-23
 -1       301 5.04249E-05 3.32831E-07 3.30872E-24
 -1       302 4.78121E-05 3.27374E-07-8.27181E-25
 -1       303 4.52119E-05 3.22147E-07 1.65436E-24
 -1       304 4.26363E-05 3.16059E-07 0.00000E+00
 -1       305 4.00976E-05 3.08751E-07 0.00000E+00
 -1       306 5.13939E-05 2.25553E-06 0.00000E+00
 -1       307 5.00091E-05 3.39545E-06 0.00000E+00
 -1       308 4.88986E-05 3.81095E-06-2.64698E-23
 -1       309 4.80358E-05 3.55230E-06-1.32349E-23
 -1       310 4.73851E-05 2.72754E-06 0.00000E+00
 -1       311 4.69002E-05 1.45700E-06 1.32349E-23
 -1       312 4.65233E-05-1.02759E-07-2.64698E-23
 -1       313 4.61933E-05-1.78825E-06-1.32349E-23
 -1       314 4.58453E-05-3.42559E-06 2.64698E-23
 -1       315 4.54149E-05-4.84211E-06 0.00000E+00
 -1       316 4.48443E-05-5.88331E-06-2.64698E-23
 -1       317 4.40797E-05-6.40374E-06 0.00000E+00
 -1       318 4.30812E-05-6.30011E-06 0.00000E+00
 -1       319 4.18205E-05-5.48258E-06 0.00000E+00
 -1       320 4.02780E-05-3.92277E-06 0.00000E+00
 -1       336 5.00994E-05-8.99785E-07 3.30872E-24
 -1       337 4.83294E-05-1.03835E-06 0.00000E+00
 -1       338 4.62801E-05-1.17739E-06 3.30872E-24
 -1       339 4.39539E-05-1.31682E-06 1.65436E-24
 -1       340 4.13532E-05-1.45692E-06 3.30872E-24
 -1       406 3.97353E-05 3.17603E-07 0.00000E+00
 -1       407 3.96163E-05 3.62948E-07 8.27181E-25
 -1       408 3.94816E-05 4.08263E-07 1.65436E-24
 -1       409 3.93309E-05 4.53492E-07 0.00000E+00
 -1       410 3.91645E-05 4.98548E-07 1.65436E-24
 -1       521 3.53332E-05 1.71249E-06 0.00000E+00
 -1       522 3.33481E-05 2.22093E-06 0.00000E+00
 -1       523 3.16881E-05 1.87339E-06 0.00000E+00
 -1       524 3.03106E-05 7.45968E-07 0.00000E+00
 -1       525 2.91598E-05-9.88351E-07-5.29396E-23
 -1       526 2.81609E-05-3.13381E-06-2.64698E-23
 -1       527 2.72240E-05-5.44615E-06-5.29396E-23
 -1       528 2.62555E-05-7.67452E-06 0.00000E+00
 -1       529 2.51656E-05-9.57754E-06 0.00000E+00
 -1       530 2.38693E-05-1.09279E-05 2.64698E-23
 -1       531 2.23050E-05-1.15626E-05 5.29396E-23
 -1       532 2.04240E-05-1.13488E-05 2.64698E-23
 -1       533 1.82112E-05-1.02528E-05 5.29396E-23
 -1       534 1.56757E-05-8.27538E-06 0.00000E+00
 -1       535 1.28447E-05-5.52584E-06-2.64698E-23
 -1       536 3.84720E-05 1.07982E-06 0.00000E+00
 -1       537 3.84687E-05 3.09659E-06 4.13590E-25
 -1       538 3.84660E-05 4.52098E-06-4.13590E-25
 -1       539 3.84647E-05 5.41992E-06-1.03398E-25
 -1       540 3.84637E-05 5.86120E-06 1.03398E-25
 -1       541 3.84630E-05 5.91264E-06 0.00000E+00
 -1       542 3.84622E-05 5.64265E-06 0.00000E+00
 -1       543 3.84614E-05 5.11964E-06-1.29247E-26
 -1       544 3.84605E-05 4.41241E-06 0.00000E+00
 -1       545 3.84595E-05 3.58973E-06 0.00000E+00
 -1       546 3.84585E-05 2.72058E-06 0.00000E+00
 -1       547 3.84575E-05 1.87394E-06 6.46235E-27
 -1       548 3.84566E-05 1.11871E-06-5.16988E-26
 -1       549 3.84560E-05 5.23842E-07 5.16988E-26
 -1       550 3.84554E-05 1.58039E-07 0.00000E+00
 -1       551 3.46776E-05-1.67743E-06 0.00000E+00
 -1       552 3.01280E-05-1.76036E-06-1.24077E-24
 -1       553 2.50982E-05-1.84562E-06-1.65436E-24
 -1       554 1.98579E-05-1.93320E-06-3.30872E-24
 -1       555 1.46768E-05-2.02195E-06 0.00000E+00
 -1       556 3.74862E-05 9.87148E-07 0.00000E+00
 -1       557 3.67262E-05 2.96032E-06 0.00000E+00
 -1       558 3.61756E-05 4.37969E-06 0.00000E+00
 -1       559 3.58109E-05 5.30608E-06 0.00000E+00
 -1       560 3.56090E-05 5.80012E-06 0.00000E+00
 -1       561 3.55466E-05 5.92278E-06 0.00000E+00
 -1       562 3.56006E-05 5.73505E-06 0.00000E+00
 -1       563 3.57481E-05 5.29796E-06 0.00000E+00
 -1       564 3.59662E-05 4.67259E-06 0.00000E+00
 -1       565 3.62319E-05 3.92000E-06-8.27181E-25
 -1       566 3.65224E-05 3.10129E-06 0.00000E+00
 -1       567 3.68147E-05 2.27756E-06 0.00000E+00
 -1       568 3.70860E-05 1.50989E-06 0.00000E+00
 -1       569 3.73136E-05 8.59319E-07 0.00000E+00
 -1       570 3.74744E-05 3.86881E-07 0.00000E+00
 -1       571 3.84875E-05 1.39116E-07 6.20385E-25
 -1       572 3.85202E-05 1.66535E-07 1.03398E-25
 -1       573 3.85531E-05 1.76114E-07 8.27181E-25
 -1       574 3.85861E-05 1.71922E-07 2.06795E-25
 -1       575 3.86191E-05 1.58045E-07 0.00000E+00
 -1       576 3.86521E-05 1.38599E-07 0.00000E+00
 -1       577 3.86852E-05 1.17700E-07 0.00000E+00
 -1       578 3.87182E-05 9.94684E-08-8.27181E-25
 -1       579 3.87513E-05 8.80249E-08 0.00000E+00
 -1       580 3.87843E-05 8.74903E-08 8.27181E-25
 -1       581 3.88174E-05 1.01985E-07 0.00000E+00
 -1       582 3.88504E-05 1.35623E-07 0.00000E+00
 -1       583 3.88835E-05 1.92517E-07 0.00000E+00
 -1       584 3.89165E-05 2.76735E-07 0.00000E+00
 -1       585 3.89495E-05 3.92323E-07-1.65436E-24
 -1       586 3.82926E-05 1.01024E-07 0.00000E+00
 -1       587 3.81157E-05 1.11776E-07 1.03398E-25
 -1       588 3.79387E-05 1.22407E-07 0.00000E+00
 -1       589 3.77755E-05 1.32869E-07 0.00000E+00
 -1       590 3.76402E-05 1.43044E-07 0.00000E+00
 -1       591 3.84219E-05 1.55834E-07-2.58494E-26
 -1       592 3.83936E-05 2.03710E-07 0.00000E+00
 -1       593 3.83708E-05 2.37040E-07 2.06795E-25
 -1       594 3.83521E-05 2.58905E-07 0.00000E+00
 -1       595 3.83365E-05 2.72427E-07 0.00000E+00
 -1       596 3.83228E-05 2.80706E-07 1.03398E-25
 -1       597 3.83099E-05 2.86838E-07-2.06795E-25
 -1       598 3.82967E-05 2.93918E-07 1.03398E-25
 -1       599 3.82819E-05 3.05041E-07-2.06795E-25
 -1       600 3.82645E-05 3.23302E-07-1.03398E-25
 -1       601 3.82432E-05 3.51794E-07 0.00000E+00
 -1       602 3.82170E-05 3.93616E-07 0.00000E+00
 -1       603 3.81847E-05 4.51866E-07 7.75482E-26
 -1       604 3.81451E-05 5.29668E-07-5.16988E-26
 -1       605 3.80972E-05 6.30103E-07 0.00000E+00
 -1       606 3.89886E-05 7.68796E-07 0.00000E+00
 -1       607 3.89935E-05 1.04177E-06 0.00000E+00
 -1       608 3.89982E-05 1.35918E-06 0.00000E+00
 -1       609 3.90027E-05 1.71788E-06 0.00000E+00
 -1       610 3.90071E-05 2.11475E-06 0.00000E+00
 -1       611 3.90115E-05 2.54659E-06-8.27181E-25
 -1       612 3.90159E-05 3.01023E-06 0.00000E+00
 -1       613 3.90203E-05 3.50248E-06 0.00000E+00
 -1       614 3.90246E-05 4.02014E-06 0.00000E+00
 -1       615 3.90289E-05 4.56003E-06 0.00000E+00
 -1       616 3.90332E-05 5.11896E-06 8.27181E-25
 -1       617 3.90375E-05 5.69373E-06 0.00000E+00
 -1       618 3.90418E-05 6.28117E-06 0.00000E+00
 -1       619 3.90461E-05 6.87808E-06 0.00000E+00
 -1       620 3.90503E-05 7.48126E-06-2.06795E-25
 -1       621 3.88029E-05 5.78637E-07 0.00000E+00
 -1       622 3.86359E-05 6.14435E-07 0.00000E+00
 -1       623 3.84790E-05 6.50228E-07-8.27181E-25
 -1       624 3.83293E-05 6.85963E-07 0.00000E+00
 -1       625 3.81842E-05 7.21637E-07 0.00000E+00
 -1       626 3.89359E-05 7.80008E-07 0.00000E+00
 -1       627 3.88750E-05 1.05609E-06 0.00000E+00
 -1       628 3.88009E-05 1.36765E-06 0.00000E+00
 -1       629 3.87149E-05 1.71080E-06-1.65436E-24
 -1       630 3.86186E-05 2.08169E-06 0.00000E+00
 -1       631 3.85133E-05 2.47642E-06 0.00000E+00
 -1       632 3.84005E-05 2.89107E-06-1.65436E-24
 -1       633 3.82817E-05 3.32176E-06 8.27181E-25
 -1       634 3.81583E-05 3.76460E-06 0.00000E+00
 -1       635 3.80319E-05 4.21566E-06 0.00000E+00
 -1       636 3.79038E-05 4.67107E-06 0.00000E+00
 -1       637 3.77755E-05 5.12692E-06-4.13590E-25
 -1       638 3.76485E-05 5.57930E-06-8.27181E-25
 -1       639 3.75242E-05 6.02432E-06 4.13590E-25
 -1       640 3.74039E-05 6.45807E-06 0.00000E+00
 -1       656 3.85508E-05 7.89056E-06-3.30872E-24
 -1       657 3.82252E-05 7.68566E-06 1.65436E-24
 -1       658 3.80080E-05 7.48139E-06 0.00000E+00
 -1       659 3.78290E-05 7.27728E-06 1.65436E-24
 -1       660 3.76139E-05 7.07253E-06 0.00000E+00
 -1       661 3.88680E-05 8.68177E-06 4.13590E-25
 -1       662 3.86926E-05 9.25087E-06 0.00000E+00
 -1       663 3.85263E-05 9.79534E-06 0.00000E+00
 -1       664 3.83691E-05 1.03163E-05 0.00000E+00
 -1       665 3.82205E-05 1.08147E-05 0.00000E+00
 -1       666 3.80800E-05 1.12914E-05 0.00000E+00
 -1       667 3.79472E-05 1.17475E-05 0.00000E+00
 -1       668 3.78219E-05 1.21838E-05 4.13590E-25
 -1       669 3.77037E-05 1.26011E-05 0.00000E+00
 -1       670 3.75923E-05 1.30004E-05 0.00000E+00
 -1       671 3.74873E-05 1.33825E-05-8.27181E-25
 -1       672 3.73884E-05 1.37482E-05 4.13590E-25
 -1       673 3.72954E-05 1.40983E-05 8.27181E-25
 -1       674 3.72075E-05 1.44334E-05-4.13590E-25
 -1       675 3.71250E-05 1.47545E-05 0.00000E+00
 -1       676 3.84934E-05 1.52553E-05 0.00000E+00
 -1       677 3.82034E-05 1.52163E-05 4.13590E-25
 -1       678 3.79135E-05 1.51773E-05 8.27181E-25
 -1       679 3.76239E-05 1.51385E-05 0.00000E+00
 -1       680 3.73345E-05 1.50996E-05 0.00000E+00
 -1       771 7.87486E-06 1.56456E-06 0.00000E+00
 -1       772 6.17828E-06 4.57531E-06-1.32349E-23
 -1       773 4.72182E-06 6.95000E-06 0.00000E+00
 -1       774 3.48890E-06 8.73110E-06 0.00000E+00
 -1       775 2.46336E-06 9.96156E-06 0.00000E+00
 -1       776 1.62850E-06 1.06851E-05 0.00000E+00
 -1       777 9.67485E-07 1.09460E-05 1.32349E-23
 -1       778 4.63282E-07 1.07890E-05-6.61744E-24
 -1       779 9.87790E-08 1.02594E-05 1.32349E-23
 -1       780-1.43311E-07 9.40292E-06 0.00000E+00
 -1       781-2.80304E-07 8.26559E-06 0.00000E+00
 -1       782-3.29649E-07 6.89389E-06 6.61744E-24
 -1       783-3.08810E-07 5.33445E-06 0.00000E+00
 -1       784-2.35308E-07 3.63423E-06 6.61744E-24
 -1       785-1.26722E-07 1.84027E-06 0.00000E+00
 -1       786 3.75753E-05 1.51650E-07 0.00000E+00
 -1       787 3.76062E-05 1.51671E-07 0.00000E+00
 -1       788 3.76369E-05 1.52936E-07-8.27181E-25
 -1       789 3.76680E-05 1.56049E-07 0.00000E+00
 -1       790 3.76991E-05 1.61742E-07 0.00000E+00
 -1       791 3.77302E-05 1.70753E-07-4.13590E-25
 -1       792 3.77614E-05 1.84052E-07 0.00000E+00
 -1       793 3.77925E-05 2.02615E-07 0.00000E+00
 -1       794 3.78237E-05 2.27790E-07-8.27181E-25
 -1       795 3.78548E-05 2.60932E-07 0.00000E+00
 -1       796 3.78860E-05 3.03956E-07 0.00000E+00
 -1       797 3.79172E-05 3.58794E-07-4.13590E-25
 -1       798 3.79483E-05 4.28207E-07-8.27181E-25
 -1       799 3.79793E-05 5.14973E-07-4.13590E-25
 -1       800 3.80104E-05 6.23098E-07 0.00000E+00
 -1       801 3.50112E-05 1.52469E-07 0.00000E+00
 -1       802 2.74685E-05 1.28350E-07 4.13590E-25
 -1       803 1.75581E-05 8.52966E-08 0.00000E+00
 -1       804 7.91981E-06 4.12062E-08 0.00000E+00
 -1       805 1.18823E-06 1.98466E-08 0.00000E+00
 -1       806 3.75079E-05 1.30753E-07 0.00000E+00
 -1       807 3.74678E-05 1.09519E-07-4.13590E-25
 -1       808 3.74265E-05 9.09839E-08-8.27181E-25
 -1       809 3.73832E-05 7.71940E-08 8.27181E-25
 -1       810 3.73373E-05 7.01910E-08-8.27181E-25
 -1       811 3.72881E-05 7.19863E-08 0.00000E+00
 -1       812 3.72349E-05 8.45894E-08 8.27181E-25
 -1       813 3.71768E-05 1.10005E-07 0.00000E+00
 -1       814 3.71131E-05 1.50238E-07 1.65436E-24
 -1       815 3.70432E-05 2.07290E-07-8.27181E-25
 -1       816 3.69662E-05 2.83163E-07 0.00000E+00
 -1       817 3.68814E-05 3.79860E-07-4.13590E-25
 -1       818 3.67880E-05 4.99382E-07 8.27181E-25
 -1       819 3.66855E-05 6.43722E-07 4.13590E-25
 -1       820 3.65729E-05 8.14876E-07-8.27181E-25
 -1       821 3.79967E-05 9.19462E-07 0.00000E+00
 -1       822 3.79496E-05 1.11568E-06 0.00000E+00
 -1       823 3.79027E-05 1.35002E-06-1.65436E-24
 -1       824 3.78553E-05 1.62718E-06 0.00000E+00
 -1       825 3.78078E-05 1.94749E-06 0.00000E+00
 -1       826 3.77602E-05 2.31121E-06 0.00000E+00
 -1       827 3.77126E-05 2.71419E-06 0.00000E+00
 -1       828 3.76650E-05 3.15221E-06 8.27181E-25
 -1       829 3.76173E-05 3.61748E-06 0.00000E+00
 -1       830 3.75697E-05 4.10215E-06 0.00000E+00
 -1       831 3.75220E-05 4.59643E-06 0.00000E+00
 -1       832 3.74745E-05 5.09049E-06 8.27181E-25
 -1       833 3.74270E-05 5.57451E-06 0.00000E+00
 -1       834 3.73800E-05 6.03871E-06 4.13590E-25
 -1       835 3.73329E-05 6.47532E-06-4.13590E-25
 -1       836 3.78479E-05 7.99584E-07 0.00000E+00
 -1       837 3.75982E-05 8.43514E-07 0.00000E+00
 -1       838 3.73126E-05 8.87366E-07 0.00000E+00
 -1       839 3.70122E-05 9.30939E-07 0.00000E+00
 -1       840 3.67178E-05 9.74443E-07 0.00000E+00
 -1       856 3.72750E-05 7.28794E-06 0.00000E+00
 -1       857 3.72600E-05 7.75118E-06-1.03398E-25
 -1       858 3.72450E-05 8.25809E-06 4.13590E-25
 -1       859 3.72297E-05 8.80046E-06-2.06795E-25
 -1       860 3.72144E-05 9.37002E-06 4.13590E-25
 -1       861 3.71991E-05 9.95848E-06 0.00000E+00
 -1       862 3.71837E-05 1.05576E-05 0.00000E+00
 -1       863 3.71683E-05 1.11590E-05 0.00000E+00
 -1       864 3.71529E-05 1.17545E-05 4.13590E-25
 -1       865 3.71376E-05 1.23358E-05 0.00000E+00
 -1       866 3.71222E-05 1.28945E-05 0.00000E+00
 -1       867 3.71068E-05 1.34224E-05 0.00000E+00
 -1       868 3.70915E-05 1.39113E-05-4.13590E-25
 -1       869 3.70761E-05 1.43529E-05 2.06795E-25
 -1       870 3.70608E-05 1.47391E-05 4.13590E-25
 -1       871 3.69747E-05 6.87623E-06 0.00000E+00
 -1       872 3.67107E-05 6.87482E-06 0.00000E+00
 -1       873 3.64751E-05 6.87323E-06 0.00000E+00
 -1       874 3.62462E-05 6.87138E-06 7.75482E-26
 -1       875 3.60024E-05 6.86930E-06-3.10193E-25
 -1       876 3.71797E-05 7.29220E-06-1.65436E-24
 -1       877 3.70623E-05 7.73304E-06-8.27181E-25
 -1       878 3.69368E-05 8.19605E-06 1.65436E-24
 -1       879 3.68041E-05 8.67841E-06 0.00000E+00
 -1       880 3.66652E-05 9.17726E-06 1.65436E-24
 -1       881 3.65213E-05 9.68973E-06 0.00000E+00
 -1       882 3.63733E-05 1.02130E-05 0.00000E+00
 -1       883 3.62223E-05 1.07442E-05 0.00000E+00
 -1       884 3.60694E-05 1.12806E-05 0.00000E+00
 -1       885 3.59156E-05 1.18192E-05 0.00000E+00
 -1       886 3.57620E-05 1.23573E-05 0.00000E+00
 -1       887 3.56096E-05 1.28920E-05-4.13590E-25
 -1       888 3.54595E-05 1.34204E-05 8.27181E-25
 -1       889 3.53126E-05 1.39397E-05-4.13590E-25
 -1       890 3.51700E-05 1.44470E-05 0.00000E+00
 -1       891 3.67662E-05 1.50411E-05 0.00000E+00
 -1       892 3.64780E-05 1.50204E-05 0.00000E+00
 -1       893 3.61707E-05 1.49998E-05 0.00000E+00
 -1       894 3.58338E-05 1.49793E-05-2.06795E-25
 -1       895 3.54572E-05 1.49588E-05 1.03398E-25
 -1       956 3.64056E-05 1.27349E-06 0.00000E+00
 -1       957 3.63602E-05 1.56134E-06 4.13590E-25
 -1       958 3.63147E-05 1.87531E-06-1.65436E-24
 -1       959 3.62691E-05 2.21219E-06 0.00000E+00
 -1       960 3.62234E-05 2.56876E-06 0.00000E+00
 -1       961 3.61777E-05 2.94180E-06 0.00000E+00
 -1       962 3.61321E-05 3.32806E-06-8.27181E-25
 -1       963 3.60864E-05 3.72431E-06 0.00000E+00
 -1       964 3.60407E-05 4.12733E-06 0.00000E+00
 -1       965 3.59950E-05 4.53385E-06-8.27181E-25
 -1       966 3.59493E-05 4.94066E-06 0.00000E+00
 -1       967 3.59036E-05 5.34452E-06-8.27181E-25
 -1       968 3.58580E-05 5.74219E-06-1.65436E-24
 -1       969 3.58124E-05 6.13044E-06 0.00000E+00
 -1       970 3.57670E-05 6.50606E-06 0.00000E+00
 -1       971 3.56796E-05 7.23559E-06-8.27181E-25
 -1       972 3.56363E-05 7.64380E-06 4.13590E-25
 -1       973 3.55929E-05 8.08628E-06 8.27181E-25
 -1       974 3.55495E-05 8.55860E-06-4.13590E-25
 -1       975 3.55060E-05 9.05633E-06 1.65436E-24
 -1       976 3.54626E-05 9.57502E-06 8.27181E-25
 -1       977 3.54191E-05 1.01103E-05 0.00000E+00
 -1       978 3.53756E-05 1.06576E-05 0.00000E+00
 -1       979 3.53321E-05 1.12126E-05 1.65436E-24
 -1       980 3.52886E-05 1.17708E-05 0.00000E+00
 -1       981 3.52451E-05 1.23278E-05-1.65436E-24
 -1       982 3.52016E-05 1.28790E-05 0.00000E+00
 -1       983 3.51583E-05 1.34202E-05-1.65436E-24
 -1       984 3.51151E-05 1.39469E-05 8.27181E-25
 -1       985 3.50721E-05 1.44545E-05 0.00000E+00
 -3
    1PSTEP                         4           2           1          
  100CL  102 2.50000E-01         409                     0    2           1
 -4  STRESS      6    1
 -5  SXX         1    4    1    1
 -5  SYY         1    4    2    2
 -5  SZZ         1    4    3    3
 -5  SXY         1    4    1    2
 -5  SYZ         1    4    2    3
 -5  SZX         1    4    3    1
 -1         1-8.73036E+05-4.02587E+05-1.76440E+05-5.64225E+05 9.09495E-11-5.07862E-09
 -1         2 1.48363E+03 1.77453E+05 4.83365E+03 2.98017E+02-9.11911E-11-7.42210E-09
 -1         3-1.84224E+01-3.62003E+05 8.32499E+01-6.63056E+01-1.04933E-10-8.49741E-09
 -1         5-2.12772E+00 1.29827E+05 3.39824E+00-5.12860E-02 6.34904E-11 9.61336E-10
 -1         8-3.95214E+05-1.74680E+05-1.01510E+04-3.10101E+05 6.73026E-11 2.19370E-09
 -1         9-6.94989E+05-1.78878E+05-6.76875E+04-2.44409E+05 1.87865E-09 5.23869E-10
 -1        10-2.68659E+02-3.77135E+05-4.79190E+02-4.39310E+02-1.69621E-09-2.32387E-09
 -1        12-7.32748E-01 1.29834E+05 1.10149E+02-1.06641E-01 8.40572E-11 1.92017E-09
 -1        15 1.08428E+03 5.95865E+02 3.50490E+03 1.26381E+00-4.03656E-09-1.51383E-06
 -1        16-1.95882E+06-6.32120E+05-3.04632E+05-6.43384E+05 5.91778E-09-1.98876E-09
 -1        17-4.34463E+05-2.69037E+05-8.35443E+04-2.54249E+05-2.85145E-09 2.40689E-09
 -1        18 1.58547E+04 1.53772E+03-6.01148E+03-3.05633E+04 3.96312E-10-2.48633E-09
 -1        19 4.07017E+04 4.85213E+04-2.24770E+02 7.97956E+03-2.67664E-10-7.17409E-10
 -1        20-1.68858E+04-1.92412E+05-4.24239E+04 1.43327E+04 1.79383E-09-3.86566E-09
 -1        21-1.82282E+01-1.11628E+05-3.60536E+02-2.22104E+01-2.61208E-09-7.36816E-09
 -1        24-1.71934E+06-6.02521E+05-2.45429E+05-7.35779E+05-8.14180E-09-5.44484E-09
 -1        25 1.43786E+04-5.24561E+03 8.31244E+03-5.51852E+04 2.04727E-10 4.20096E-09
 -1        26-9.45903E+03 3.31487E+04-6.59201E+03-4.71647E+03 8.21092E-10 1.92082E-10
 -1        27-3.07949E+04-1.05579E+05-3.96054E+04 2.37952E+04 3.14791E-09-3.31056E-10
 -1        28 8.61985E+03-3.08420E+04 6.30006E+03 9.89051E+03 2.11865E-09-1.06424E-09
 -1        32-4.13841E+05-6.90239E+04 1.75811E+05-2.77113E+05-8.09086E-09 6.41144E-09
 -1        33-6.04140E+04 3.10502E+04 1.10094E+04-1.80032E+04 6.47579E-10 2.72848E-09
 -1        34-7.84089E+04-7.80505E+03 1.86408E+02 2.41143E+04 1.61370E-09 1.32938E-10
 -1        35-8.77219E+03-1.22700E+04-4.77849E+02 1.94405E+04 2.18406E-09-8.11572E-10
 -1        51 8.20856E+03-2.06982E+05 2.02995E+04-5.06428E+05-7.27596E-11 1.57161E-09
 -1        52 4.03020E+03-2.04870E+05 1.33099E+04-5.92988E+05-1.60071E-10 5.96629E-10
 -1        53 2.39638E+03-2.09795E+05 1.15056E+04-5.04690E+05-1.45519E-10 3.63798E-11
 -1        54 7.92571E+03-2.07725E+05 1.84510E+04-5.94839E+05-3.52884E-10 1.57161E-09
 -1        55 1.79764E+04-2.14420E+05 3.30685E+04-5.04480E+05-2.76486E-10 2.36105E-09
 -1        56-1.67797E+06-1.89927E+05-1.30789E+05-6.47233E+05-8.00355E-11-9.09495E-10
 -1        57-1.73107E+06-3.07615E+05-8.81463E+04-6.41565E+05 1.14233E-09 6.48561E-09
 -1        58-1.70398E+06-2.31598E+05-3.07935E+04-6.39354E+05-2.09184E-10 4.01997E-09
 -1        59-1.70099E+06-2.58763E+05-1.83834E+04-6.51034E+05 1.11504E-09 9.09495E-13
 -1        60-1.70781E+06-2.37386E+05-7.19917E+03-6.38267E+05 2.58638E-10-3.21961E-09
 -1        61-1.69685E+06-2.51701E+05-4.09534E+03-6.51967E+05 3.61484E-09-1.16188E-09
 -1        62-1.70807E+06-2.38485E+05-1.97473E+03-6.38477E+05 1.63971E-09-2.03262E-09
 -1        63-1.69720E+06-2.49924E+05-1.63024E+03-6.50993E+05-6.90818E-10-6.55783E-09
 -1        64-1.70743E+06-2.39158E+05-1.87156E+03-6.39231E+05 3.62547E-10 4.35682E-09
 -1        65-1.69926E+06-2.49046E+05-3.75864E+03-6.48987E+05-1.14278E-09 5.59896E-09
 -1        66-1.70598E+06-2.39400E+05-6.60412E+03-6.40455E+05 3.38900E-10 2.09639E-09
 -1        67-1.70530E+06-2.53173E+05-1.67729E+04-6.45448E+05-4.42924E-10-5.91740E-09
 -1        68-1.70141E+06-2.35213E+05-2.81432E+04-6.42696E+05 7.83530E-10-1.41154E-09
 -1        69-1.73472E+06-2.95819E+05-8.04688E+04-6.34572E+05 2.56478E-10-2.92130E-09
 -1        70-1.67679E+06-1.98026E+05-1.19453E+05-6.50868E+05-3.31056E-10 3.95812E-09
 -1        86-7.43241E+02 1.76020E+05 5.19007E+03-1.49016E+02 6.49038E-10-1.66133E-09
 -1        87 4.93609E+03 1.79134E+05 1.08123E+04 6.10528E+02 1.08014E-09-1.91861E-09
 -1        88-4.18559E+03 1.74340E+05 1.65704E+04-4.61527E+02 1.62891E-09-4.44862E-09
 -1        89 3.11959E+04 1.91355E+05 4.46637E+04 1.30277E+03 2.51384E-09-6.30126E-09
 -1        90-2.69172E+04 1.63804E+05 6.31118E+04-8.41073E+02 2.82307E-09 2.02283E-09
 -1       121-3.49062E+01-3.62121E+05 8.31455E+01 3.31332E+01 1.83803E-10-5.92354E-09
 -1       122 8.93663E+00-3.61984E+05 1.82402E+02-1.32759E+02-6.73918E-10-2.22190E-09
 -1       123-5.50082E+01-3.62140E+05 2.99840E+02 9.95111E+01 5.46777E-10-4.73938E-09
 -1       124 3.45502E+02-3.61777E+05 7.66674E+02-3.28944E+02-1.31092E-09-2.44017E-09
 -1       125-2.74324E+02-3.62331E+05 1.18031E+03 2.29340E+02 8.80391E-10-2.34741E-09
 -1       191-2.34661E+00 1.29838E+05 4.07864E+00 2.54845E-02 8.16293E-11 3.59660E-09
 -1       192-2.43959E+00 1.29827E+05 7.19477E+00 1.56453E-01 1.24116E-10 1.03546E-09
 -1       193-3.17613E+00 1.29838E+05 1.33970E+01-1.83051E-01 1.43613E-10-4.27417E-09
 -1       194-3.44343E+00 1.29828E+05 2.72140E+01 4.92807E-01 6.62603E-11-4.41923E-09
 -1       195-4.77071E+00 1.29837E+05 5.32498E+01-3.12868E-01 2.25270E-10-1.04637E-09
 -1       251 1.81141E+05-2.69957E+04 6.31162E+04 2.37643E+03-9.49285E-11 4.47471E-10
 -1       252 2.09403E+05 3.12482E+04 4.46982E+04-7.95518E+03 1.28324E-10-4.86216E-09
 -1       253 1.91904E+05-4.18082E+03 1.63405E+04 1.70543E+03-9.39622E-11-8.23093E-10
 -1       254 1.96771E+05 4.83370E+03 1.03039E+04-6.88908E+03-2.11742E-11 4.22904E-09
 -1       255 1.93737E+05-6.46242E+02 4.22219E+03 1.31047E+03 3.95346E-10 2.92562E-09
 -1       256 1.94594E+05 7.65444E+02 2.56096E+03-6.30374E+03-6.36646E-12 8.63736E-09
 -1       257 1.94065E+05-1.13245E+02 1.31922E+03 1.12007E+03 1.54202E-10 3.62394E-09
 -1       258 1.94262E+05 2.36586E+02 1.16795E+03-6.10897E+03-5.62873E-10-2.46000E-09
 -1       259 1.94065E+05-1.15162E+02 1.33746E+03 1.11570E+03-2.73900E-10-2.66738E-10
 -1       260 1.94598E+05 7.82431E+02 2.61199E+03-6.28654E+03 3.12141E-11-6.86794E-09
 -1       261 1.93733E+05-6.60936E+02 4.31673E+03 1.29764E+03 8.86871E-10 2.95449E-09
 -1       262 1.96815E+05 4.94491E+03 1.05351E+04-6.85260E+03 6.28688E-10-6.07656E-10
 -1       263 1.91863E+05-4.27624E+03 1.67161E+04 1.68178E+03-2.03841E-10-1.79807E-09
 -1       264 2.09716E+05 3.19633E+04 4.57137E+04-7.89561E+03-1.72631E-09 2.19552E-09
 -1       265 1.80866E+05-2.76112E+04 6.45662E+04 2.34051E+03-6.16524E-10 5.03496E-09
 -1       266-1.96292E+04-9.17923E+03 4.60528E+04-2.70404E+01-6.16456E-09-2.40116E-06
 -1       267 2.27555E+04 1.06976E+04 3.25509E+04 3.12009E+01-1.23309E-08-4.76138E-06
 -1       268-3.05147E+03-1.51513E+03 1.20989E+04-3.97544E+00-9.87029E-09-3.81345E-06
 -1       269 3.60288E+03 1.81323E+03 7.86419E+03 4.63090E+00-7.37191E-09-2.87060E-06
 -1       270-5.40797E+02-2.97931E+02 3.79615E+03-6.28436E-01-5.49403E-09-2.10913E-06
 -1       271-1.90901E+06-2.37551E+05-1.46356E+05-7.42652E+05-1.47338E-10-1.55705E-09
 -1       272-1.94779E+06-3.58146E+05-9.41057E+04-7.57300E+05 1.87038E-09-3.17323E-09
 -1       273-1.93657E+06-2.73972E+05-3.45708E+04-7.36131E+05-2.56250E-10-1.78261E-09
 -1       274-1.91574E+06-3.13376E+05-1.93662E+04-7.67255E+05 4.19959E-10-1.19326E-09
 -1       275-1.94067E+06-2.77448E+05-8.04278E+03-7.34674E+05 1.07411E-09-8.87667E-10
 -1       276-1.91092E+06-3.09257E+05-4.28104E+03-7.69598E+05 2.55568E-10-6.18456E-11
 -1       277-1.94154E+06-2.77471E+05-2.09447E+03-7.34128E+05 1.20576E-09 2.81358E-09
 -1       278-1.91009E+06-3.09152E+05-1.52555E+03-7.70261E+05 4.48620E-09 5.29565E-09
 -1       279-1.94160E+06-2.77455E+05-1.63766E+03-7.34090E+05-8.01492E-11-2.47383E-10
 -1       280-1.91064E+06-3.09161E+05-3.00276E+03-7.69782E+05 2.05637E-09 4.06169E-09
 -1       281-1.94092E+06-2.77531E+05-5.48561E+03-7.34549E+05-7.56700E-10 2.11412E-09
 -1       282-1.91414E+06-3.11649E+05-1.31080E+04-7.67821E+05-9.64064E-11 4.76120E-09
 -1       283-1.93793E+06-2.75424E+05-2.33833E+04-7.35781E+05 1.71894E-10 2.57387E-09
 -1       284-1.93628E+06-3.41332E+05-6.35829E+04-7.60376E+05 6.71776E-10 9.88621E-10
 -1       285-1.91895E+06-2.51206E+05-9.89424E+04-7.40588E+05-3.45608E-11-3.92902E-09
 -1       301 7.36023E+03-4.54600E+03 5.75114E+04-1.45434E+04-3.14685E-10 4.37581E-10
 -1       302 7.89943E+03 1.00573E+04 4.14969E+04-2.13860E+04 6.60407E-10 1.58002E-09
 -1       303 3.32009E+02 6.24546E+02 3.81464E+04-1.45653E+04-6.43922E-10 1.91358E-09
 -1       304 1.48565E+04 1.64722E+04 6.41106E+04-2.13296E+04 5.52063E-10-1.24476E-09
 -1       305 1.47260E+04-1.09304E+04 1.07548E+05-1.45694E+04-2.69210E-10 2.69529E-09
 -1       306-2.07087E+06-2.36903E+05-1.57788E+05-8.05909E+05 9.24047E-10-4.62023E-09
 -1       307-2.14606E+06-3.76543E+05-1.07608E+05-7.85816E+05 2.02454E-09-1.30603E-09
 -1       308-2.10583E+06-2.86776E+05-3.71185E+04-7.92097E+05 1.65528E-10 3.54703E-10
 -1       309-2.10347E+06-3.20638E+05-2.25160E+04-8.04543E+05 2.76543E-11-1.54796E-09
 -1       310-2.11330E+06-2.91847E+05-8.70930E+03-7.87535E+05-2.84523E-10 5.02541E-09
 -1       311-2.09398E+06-3.15686E+05-5.06094E+03-8.11016E+05 1.91847E-09 7.54454E-09
 -1       312-2.11536E+06-2.91549E+05-2.47266E+03-7.85716E+05 3.02265E-10 2.23463E-09
 -1       313-2.09218E+06-3.15736E+05-2.23084E+03-8.12580E+05-1.28517E-09-4.80668E-10
 -1       314-2.11512E+06-2.91766E+05-2.67742E+03-7.85994E+05-9.03327E-10-4.31282E-09
 -1       315-2.09495E+06-3.15000E+05-5.65850E+03-8.09938E+05-7.71848E-10-2.26100E-09
 -1       316-2.11254E+06-2.92332E+05-9.83487E+03-7.88322E+05 1.96192E-09-7.70342E-10
 -1       317-2.10589E+06-3.20458E+05-2.54743E+04-8.02447E+05 5.37312E-10-1.23691E-10
 -1       318-2.10415E+06-2.86505E+05-4.20093E+04-7.93385E+05-1.63709E-09 6.79574E-09
 -1       319-2.15373E+06-3.84198E+05-1.21824E+05-7.81804E+05-1.70257E-09-1.77533E-09
 -1       320-2.06491E+06-2.29661E+05-1.78589E+05-8.08580E+05 4.82396E-09-5.38421E-10
 -1       336 2.94446E+02-3.92020E+05-2.07446E+03 2.09794E+02-3.49291E-09-5.70253E-10
 -1       337-7.43648E+02-3.92622E+05-2.27273E+03-5.91480E+02-6.46924E-09 3.02543E-09
 -1       338 1.94933E+02-3.92082E+05-2.84728E+03 3.80871E+02-4.54406E-09 1.30240E-09
 -1       339-2.94283E+03-3.93964E+05-6.23980E+03-9.31198E+02-8.26708E-09 2.98496E-09
 -1       340 2.01333E+03-3.90688E+05-9.60524E+03 5.47773E+02-5.51654E-09 2.86946E-09
 -1       406 7.69484E+00 1.29832E+05 2.17485E+02 4.14932E-01 2.93966E-10 9.09495E-10
 -1       407 7.50879E+01 1.29872E+05 4.62214E+02-5.63236E+00 6.41194E-11-1.24123E-09
 -1       408 2.37196E+02 1.29799E+05 9.23178E+02 5.26607E+00 3.99041E-10-9.03037E-09
 -1       409 9.97516E+02 1.30167E+05 2.07840E+03-4.72551E+01-1.10276E-11-2.43066E-08
 -1       410 2.86736E+03 1.29536E+05 4.24303E+03 4.28960E+01 3.66981E-10-1.09928E-08
 -1       521-3.88119E+06-4.47060E+05-2.90447E+05-1.50800E+06 3.13594E-09-1.87720E-09
 -1       522-4.02048E+06-6.98651E+05-1.97427E+05-1.47025E+06-2.49202E-10-3.19415E-09
 -1       523-3.94588E+06-5.36872E+05-6.82877E+04-1.48221E+06 5.17502E-10-2.58296E-10
 -1       524-3.94172E+06-5.97736E+05-4.12173E+04-1.50511E+06 6.53472E-10 2.66300E-09
 -1       525-3.95947E+06-5.45776E+05-1.59599E+04-1.47390E+06 9.60654E-10 4.03816E-10
 -1       526-3.92552E+06-5.87870E+05-9.20525E+03-1.51552E+06 8.14921E-10-3.02259E-09
 -1       527-3.96208E+06-5.46357E+05-4.41821E+03-1.47196E+06 1.44610E-09 1.65210E-09
 -1       528-3.92548E+06-5.84499E+05-3.78813E+03-1.51426E+06-5.61840E-10 2.74667E-10
 -1       529-3.95945E+06-5.49136E+05-4.43551E+03-1.47514E+06 8.79481E-10-2.50566E-09
 -1       530-3.93513E+06-5.77760E+05-9.06568E+03-1.50370E+06-3.15708E-10 6.48015E-10
 -1       531-3.95230E+06-5.53236E+05-1.59045E+04-1.48240E+06 9.35870E-10 1.93268E-09
 -1       532-3.95833E+06-5.80491E+05-4.08220E+04-1.48539E+06 9.29759E-10-4.73528E-09
 -1       533-3.93628E+06-5.46762E+05-6.77465E+04-1.49331E+06 6.22094E-10-1.75351E-09
 -1       534-4.03885E+06-6.78724E+05-1.95829E+05-1.44907E+06 2.57023E-09 2.03545E-09
 -1       535-3.87248E+06-4.57040E+05-2.87997E+05-1.51813E+06-4.80213E-09 2.69210E-09
 -1       536-7.18789E+03-1.09872E+04 2.53291E+04 2.49492E+02-7.51143E-10 2.38106E-09
 -1       537 4.39080E+03 1.27141E+04 1.80211E+04-9.84598E+02-3.87196E-09-1.28057E-09
 -1       538-2.86480E+03-1.72192E+03 6.53774E+03 2.34601E+02 2.08686E-10 8.03084E-10
 -1       539-6.96825E+02 1.98855E+03 4.15961E+03-9.72052E+02 1.76929E-09-2.28829E-09
 -1       540-2.10466E+03-2.68055E+02 1.65303E+03 2.36954E+02 4.33758E-10-4.39968E-11
 -1       541-1.62019E+03 3.07107E+02 9.80136E+02-9.77048E+02 1.11307E-10 4.28220E-09
 -1       542-1.94409E+03-3.98676E+01 3.97620E+02 2.39593E+02 2.27821E-10 5.95102E-09
 -1       543-1.83055E+03 3.86012E+01 1.99010E+02-9.81279E+02-1.56071E-10 1.46720E-09
 -1       544-1.89601E+03 1.49942E+00 3.22007E+01 2.41184E+02-8.65779E-11-4.85770E-09
 -1       545-1.90944E+03-4.65496E+01-1.09803E+02-9.83303E+02 1.33981E-10-2.65075E-09
 -1       546-1.86598E+03 4.57947E+01-2.60760E+02 2.41618E+02 2.92824E-11 1.17956E-09
 -1       547-2.04810E+03-3.40627E+02-6.92715E+02-9.82961E+02-7.08566E-10-1.24692E-09
 -1       548-1.75719E+03 2.95253E+02-1.12410E+03 2.40842E+02-1.28176E-09-2.83649E-10
 -1       549-2.85325E+03-2.17744E+03-3.07004E+03-9.79660E+02-5.43864E-10 2.10031E-09
 -1       550-1.05971E+03 1.88038E+03-4.36822E+03 2.38316E+02 3.06741E-11-3.40378E-10
 -1       551 2.99488E+03-2.07179E+05 1.16153E+04-3.55556E+05-1.59343E-08-3.50701E-09
 -1       552 5.87244E+03-2.06526E+05 1.48385E+04-5.05850E+05-1.20162E-08 6.82121E-10
 -1       553 3.60158E+03-2.09244E+05 2.31155E+04-3.54443E+05-1.89211E-08-8.13088E-10
 -1       554 1.69272E+04-1.98559E+05 4.90608E+04-5.06331E+05-1.20290E-08 3.00724E-09
 -1       555 1.78899E+04-2.18705E+05 8.82727E+04-3.54953E+05-1.88738E-08-4.21460E-09
 -1       556 2.82001E+04-6.56293E+04 2.30740E+04-8.85138E+04-3.02680E-09-1.60435E-09
 -1       557 5.49227E+04-8.82144E+04 1.20492E+04-1.10477E+05 2.65572E-10-3.99723E-10
 -1       558 2.86749E+04-6.90270E+04 4.97219E+03-8.55543E+04-2.31375E-09-7.27596E-10
 -1       559 5.19516E+04-9.15784E+04 2.49010E+03-1.11631E+05 6.78483E-10 6.65750E-10
 -1       560 2.83183E+04-6.87713E+04 1.08155E+03-8.57403E+04 4.32919E-10 2.17642E-09
 -1       561 5.12372E+04-9.14899E+04 5.50947E+02-1.12073E+05 2.11003E-10-3.08273E-09
 -1       562 2.79974E+04-6.85407E+04 2.31150E+02-8.59765E+04 5.52973E-10-4.37694E-11
 -1       563 5.08422E+04-9.13233E+04 1.27610E+02-1.12324E+05-1.36424E-11-1.56075E-09
 -1       564 2.77965E+04-6.84066E+04 4.82284E+01-8.61216E+04 8.11087E-09 3.39332E-09
 -1       565 5.06398E+04-9.12388E+04 2.03095E+01-1.12450E+05 5.99903E-09-6.89306E-09
 -1       566 2.77288E+04-6.83587E+04-1.76176E+01-8.61726E+04 3.00861E-09-2.81034E-09
 -1       567 5.06068E+04-9.12221E+04-6.73985E+01-1.12437E+05 3.95517E-09 6.58474E-10
 -1       568 2.78117E+04-6.84151E+04-1.68300E+02-8.61455E+04 6.36646E-10 3.01952E-10
 -1       569 5.04045E+04-9.11094E+04-3.99111E+02-1.11997E+05-5.99812E-10 3.56522E-10
 -1       570 2.83265E+04-6.89350E+04-8.10418E+02-8.62380E+04 1.36970E-09 2.18279E-10
 -1       571 9.42139E+04 3.41741E+03 5.06059E+03-2.36200E+04-2.83080E-10 5.42741E-10
 -1       572 9.49686E+04 1.18895E+03 2.47911E+03-2.58917E+04-3.27418E-11 5.13410E-10
 -1       573 9.45207E+04 2.83540E+02 1.10130E+03-2.35584E+04 6.18229E-10 1.38471E-09
 -1       574 9.46113E+04 9.14972E+01 5.51619E+02-2.59609E+04 5.18412E-11 3.24872E-09
 -1       575 9.45570E+04 1.17748E+01 2.59942E+02-2.35502E+04 3.19119E-10 4.00837E-09
 -1       576 9.45636E+04 2.19763E+00 1.32217E+02-2.59702E+04 1.05473E-10-9.40190E-10
 -1       577 9.45624E+04-2.88422E+00 6.50824E+01-2.35491E+04 4.01883E-11-7.49196E-10
 -1       578 9.45579E+04-1.71518E+00 3.53789E+01-2.59713E+04-3.93754E-10 1.60617E-09
 -1       579 9.45657E+04-2.57286E+00 2.16010E+01-2.35491E+04-1.03933E-09 5.86169E-10
 -1       580 9.45615E+04-2.53452E+00 2.00031E+01-2.59698E+04-1.87674E-09 4.68003E-09
 -1       581 9.45708E+04-3.32869E+00 2.72096E+01-2.35506E+04-1.83400E-09 2.10048E-09
 -1       582 9.45727E+04 2.06027E+00 5.16087E+01-2.59556E+04-6.40512E-10-2.33695E-09
 -1       583 9.45754E+04 1.68265E+01 9.94115E+01-2.35633E+04-5.62522E-10-1.35799E-09
 -1       584 9.46147E+04 9.57629E+01 2.22525E+02-2.58502E+04-4.00178E-10-1.18143E-09
 -1       585 9.45571E+04 2.93536E+02 4.52577E+02-2.36561E+04 1.13914E-09-2.04636E-09
 -1       586-1.18329E+03 3.06405E+04-1.55277E+03-8.06142E+04 2.50338E-10-1.03762E-09
 -1       587-2.71062E+02 3.04353E+04-1.89296E+02-8.87096E+04 4.56566E-10-1.97588E-09
 -1       588 3.05903E+02 3.04740E+04 1.06743E+03-8.05652E+04 2.43290E-10 5.29189E-09
 -1       589 1.58824E+03 3.10545E+04 3.13026E+03-8.86359E+04 3.81988E-10-7.01016E-09
 -1       590 4.59384E+03 3.00709E+04 6.71303E+03-8.06881E+04 1.97815E-10 5.30690E-10
 -1       591-2.04347E+04-5.87093E+03-6.83357E+03-1.06187E+04 1.36664E-08-4.95220E-09
 -1       592-2.10735E+04-7.55056E+03-3.70134E+03-1.24022E+04 2.57903E-08-2.73332E-09
 -1       593-2.11254E+04-5.36754E+03-1.54089E+03-1.11118E+04 1.26806E-08-4.26564E-09
 -1       594-2.01207E+04-6.55748E+03-7.68539E+02-1.24493E+04 1.57297E-09 3.20796E-10
 -1       595-2.11780E+04-5.36541E+03-3.53194E+02-1.11344E+04 1.72423E-09 2.60926E-10
 -1       596-2.00561E+04-6.51204E+03-1.80056E+02-1.24424E+04 2.17219E-09 6.40213E-09
 -1       597-2.11847E+04-5.36983E+03-9.91234E+01-1.11352E+04-1.09785E-09-6.05158E-09
 -1       598-2.00500E+04-6.51029E+03-8.16575E+01-1.24406E+04-7.97968E-10-7.54085E-10
 -1       599-2.11843E+04-5.36976E+03-1.06736E+02-1.11351E+04 2.83990E-10 1.35043E-09
 -1       600-2.00571E+04-6.51255E+03-2.00275E+02-1.24425E+04-1.19371E-11-6.65946E-09
 -1       601-2.11762E+04-5.36478E+03-3.96054E+02-1.11339E+04-6.84508E-10-5.05736E-09
 -1       602-2.01300E+04-6.56346E+03-8.63821E+02-1.24497E+04 3.09228E-11-1.43626E-09
 -1       603-2.11166E+04-5.36784E+03-1.73250E+03-1.11088E+04-4.86239E-10-9.83164E-10
 -1       604-2.12050E+04-7.67617E+03-4.16198E+03-1.23919E+04-9.28196E-10 2.07444E-09
 -1       605-2.03355E+04-5.93714E+03-7.68383E+03-1.05582E+04-7.79835E-10-1.70621E-09
 -1       606 1.34662E+04-4.53164E+03-8.16525E+03 1.31898E+04-3.09092E-09 1.73259E-10
 -1       607 1.20682E+04-1.46159E+03-4.06608E+03 1.48063E+04-7.60338E-10-3.83284E-09
 -1       608 1.28671E+04-2.45458E+02-1.82025E+03 1.30845E+04 2.20916E-09-2.73315E-09
 -1       609 1.27111E+04-6.60503E+01-9.19602E+02 1.49228E+04 1.29148E-10 3.26293E-09
 -1       610 1.27996E+04 9.61379E+00-4.38836E+02 1.30728E+04-1.33969E-09-2.17483E-10
 -1       611 1.27721E+04 1.25787E+01-2.21493E+02 1.49356E+04-3.40924E-09-1.40676E-09
 -1       612 1.27850E+04 1.37973E+01-1.05725E+02 1.30716E+04-1.89993E-09-9.39622E-10
 -1       613 1.27761E+04 1.37397E+01-4.83166E+01 1.49371E+04-2.95586E-09-4.31589E-09
 -1       614 1.27782E+04 1.16943E+01-1.33867E+01 1.30712E+04-3.06045E-10 2.29761E-10
 -1       615 1.27745E+04 1.41158E+01 1.49345E+01 1.49374E+04 2.57523E-09 4.79849E-09
 -1       616 1.27731E+04 1.25567E+01 4.97539E+01 1.30713E+04-2.09070E-09-4.24961E-10
 -1       617 1.27803E+04 2.50340E+01 1.15271E+02 1.49372E+04-5.95946E-10-5.57316E-09
 -1       618 1.27627E+04 4.60276E+01 2.33099E+02 1.30714E+04-4.66116E-11-1.05797E-09
 -1       619 1.28624E+04 2.05554E+02 5.23877E+02 1.49369E+04 5.06645E-10 1.26204E-09
 -1       620 1.26851E+04 5.99412E+02 1.05315E+03 1.30711E+04 9.11939E-10 5.29781E-10
 -1       621 1.64291E+02 1.02536E+05 1.41583E+03 3.24873E+03-1.68900E-10 7.90692E-10
 -1       622 1.87793E+02 1.02886E+05 1.20151E+03 4.74001E+03-7.46354E-11-4.59738E-09
 -1       623 8.39099E+00 1.02637E+05 1.38163E+03 3.23333E+03-6.80132E-11 7.67898E-10
 -1       624 6.25790E+02 1.03289E+05 2.62355E+03 4.75522E+03-1.04251E-10 1.04450E-10
 -1       625 6.27951E+02 1.02132E+05 4.56087E+03 3.23363E+03-1.54614E-11 8.02984E-10
 -1       626 8.46500E+04 2.34866E+04 1.69379E+03 4.58028E+04-9.60199E-10-2.40834E-09
 -1       627 8.34884E+04 2.43412E+04 8.15797E+02 4.76608E+04-1.39426E-09-1.54841E-10
 -1       628 8.47184E+04 2.26835E+04 3.44889E+02 4.60601E+04 3.39196E-09 5.67331E-09
 -1       629 8.32483E+04 2.41473E+04 1.68855E+02 4.77756E+04 2.28783E-09 2.68790E-09
 -1       630 8.47261E+04 2.26435E+04 7.82431E+01 4.60691E+04 5.62522E-10 2.34098E-09
 -1       631 8.32221E+04 2.41417E+04 4.19589E+01 4.77793E+04-7.34872E-10-3.06031E-10
 -1       632 8.47247E+04 2.26450E+04 2.77581E+01 4.60669E+04-1.14187E-09-3.85799E-09
 -1       633 8.32181E+04 2.41434E+04 3.08921E+01 4.77778E+04 1.41972E-09 4.34366E-09
 -1       634 8.47215E+04 2.26445E+04 5.00567E+01 4.60657E+04-3.07068E-09-7.25794E-09
 -1       635 8.32212E+04 2.41437E+04 1.01487E+02 4.77784E+04 1.11072E-09 4.28156E-09
 -1       636 8.47166E+04 2.26439E+04 2.05067E+02 4.60645E+04-9.35188E-10 1.02762E-09
 -1       637 8.32629E+04 2.41764E+04 4.50751E+02 4.77762E+04 7.54570E-10 2.56478E-09
 -1       638 8.46982E+04 2.27448E+04 9.26532E+02 4.60178E+04 4.26326E-11-1.79898E-09
 -1       639 8.37462E+04 2.48548E+04 2.19197E+03 4.76314E+04-5.59623E-10-4.55952E-09
 -1       640 8.46314E+04 2.47636E+04 4.54917E+03 4.51606E+04-5.42173E-10 4.72937E-10
 -1       656 2.29487E+04-5.80923E+05-5.54148E+04-4.99459E+02-6.18456E-10-6.41265E-10
 -1       657-3.03221E+04-6.05959E+05-4.58278E+04 3.80867E+03 6.00267E-11-2.33367E-09
 -1       658 7.27506E+03-5.88070E+05-2.81250E+04-7.82034E+02 3.27759E-10-6.91674E-10
 -1       659-3.25067E+04-6.06985E+05-4.86968E+04 3.99407E+03-1.47338E-10-7.44723E-10
 -1       660 2.51271E+04-5.79898E+05-6.03566E+04-6.84860E+02 7.27596E-12-1.65402E-09
 -1       661 8.26144E+04 8.96228E+03 7.91732E+03 3.22380E+04 1.02136E-09-7.78073E-10
 -1       662 8.67069E+04 1.52030E+04 5.33491E+03 3.08959E+04 2.45421E-10-4.85443E-10
 -1       663 8.41621E+04 1.15091E+04 1.86620E+03 3.17947E+04-1.38175E-09-1.19110E-09
 -1       664 8.49185E+04 1.22190E+04 1.11564E+03 3.14319E+04-5.41510E-09-1.10091E-10
 -1       665 8.43911E+04 1.18626E+04 4.40141E+02 3.17334E+04-3.15853E-09-5.00123E-10
 -1       666 8.46524E+04 1.18099E+04 2.56568E+02 3.15080E+04-4.92890E-09 2.78160E-09
 -1       667 8.44268E+04 1.19077E+04 1.35319E+02 3.17226E+04 3.91296E-10-3.80826E-09
 -1       668 8.46169E+04 1.17709E+04 1.35430E+02 3.15220E+04 1.38627E-09 3.79952E-10
 -1       669 8.44264E+04 1.19006E+04 1.81523E+02 3.17198E+04 3.88788E-10 2.42615E-09
 -1       670 8.46679E+04 1.18616E+04 3.93361E+02 3.15156E+04 3.28872E-09-1.20105E-09
 -1       671 8.43760E+04 1.18189E+04 6.97945E+02 3.17282E+04 7.37213E-10-1.29032E-09
 -1       672 8.50798E+04 1.25354E+04 1.78518E+03 3.14115E+04-4.64766E-10 4.88285E-10
 -1       673 8.40168E+04 1.12438E+04 2.99155E+03 3.18174E+04-2.15499E-09-1.97895E-09
 -1       674 8.79328E+04 1.73368E+04 8.55558E+03 3.05691E+04 9.00371E-10-4.14730E-10
 -1       675 8.15416E+04 7.15176E+03 1.26987E+04 3.25201E+04 9.86120E-10-2.91038E-10
 -1       676 9.35292E+00-1.11598E+05-4.34535E+02 1.11054E+01 6.20446E-10-2.04362E-09
 -1       677-1.15346E+02-1.11703E+05-7.95207E+02-2.22098E+01-2.40654E-09-3.85673E-09
 -1       678 7.70045E+01-1.11523E+05-1.40570E+03 1.10967E+01-1.00795E-09-2.30261E-09
 -1       679-1.40582E+03-1.12551E+05-3.33905E+03-2.21673E+01-1.30876E-09 2.61891E-09
 -1       680 8.38901E+02-1.10749E+05-5.38149E+03 1.09352E+01-6.43695E-10 1.89956E-09
 -1       771-1.20090E+06-2.08407E+05-2.91192E+04-4.97012E+05-3.52156E-09-5.38421E-10
 -1       772-1.19320E+06-2.24989E+05-1.56752E+04-5.15475E+05-3.34330E-09 1.96906E-09
 -1       773-1.20464E+06-2.05521E+05-6.67537E+03-4.98641E+05-1.57888E-09 1.81535E-09
 -1       774-1.18889E+06-2.21411E+05-3.27476E+03-5.16834E+05 4.15275E-09-7.12134E-10
 -1       775-1.20529E+06-2.05150E+05-1.59594E+03-4.98734E+05-1.12050E-09 2.82853E-10
 -1       776-1.18873E+06-2.21354E+05-7.51711E+02-5.17402E+05-1.47702E-09 9.48603E-10
 -1       777-1.20568E+06-2.04887E+05-4.28187E+02-4.98766E+05 4.83851E-10 7.58519E-10
 -1       778-1.18881E+06-2.21423E+05-2.01470E+02-5.17865E+05-2.03727E-10 1.92085E-09
 -1       779-1.20598E+06-2.04661E+05-1.78565E+02-4.98792E+05-1.73532E-09-1.26920E-09
 -1       780-1.18891E+06-2.21489E+05-1.56035E+02-5.18240E+05-2.10639E-09 1.58707E-10
 -1       781-1.20620E+06-2.04478E+05-2.72460E+02-4.98809E+05-3.89809E-09-6.14818E-10
 -1       782-1.18902E+06-2.21566E+05-5.18776E+02-5.18517E+05-5.83987E-09-1.49441E-09
 -1       783-1.20631E+06-2.04361E+05-1.03544E+03-4.98808E+05-1.18689E-09-1.98270E-09
 -1       784-1.18969E+06-2.22259E+05-2.46222E+03-5.18658E+05-2.87446E-09-1.40972E-11
 -1       785-1.20594E+06-2.04628E+05-4.55019E+03-4.98480E+05-6.55018E-09-3.05727E-09
 -1       786 8.70234E+04-4.65740E+03 1.07742E+04 1.93952E+00 4.85581E-08 3.93811E-10
 -1       787 9.16922E+04 5.39178E+03 7.62272E+03-8.62181E+00 9.63514E-08 2.74065E-09
 -1       788 8.88247E+04-7.30095E+02 2.78860E+03 2.45997E+00 1.51176E-07-1.21099E-09
 -1       789 8.95938E+04 8.44761E+02 1.75210E+03-1.02158E+01 2.06234E-07 2.01101E-09
 -1       790 8.91220E+04-1.14052E+02 7.12901E+02 3.53353E+00 2.90250E-07-2.25123E-09
 -1       791 8.92469E+04 1.32511E+02 4.18558E+02-1.30694E+01 3.74719E-07 4.23491E-09
 -1       792 8.91717E+04-1.83793E+01 1.91011E+02 5.31363E+00 5.28172E-07-3.80128E-09
 -1       793 8.91909E+04 2.58067E+01 1.25143E+02-1.75970E+01 6.82516E-07 2.09254E-09
 -1       794 8.91781E+04-7.41691E+00 9.26654E+01 8.06120E+00 9.89055E-07-5.60982E-09
 -1       795 8.91963E+04 3.82566E+01 1.33990E+02-2.44534E+01 1.29379E-06 6.92358E-09
 -1       796 8.91662E+04-3.08206E+01 2.00685E+02 1.21701E+01 6.46800E-07-3.13139E-09
 -1       797 8.92873E+04 2.25919E+02 4.73156E+02-3.46222E+01 2.19243E-09 1.30719E-09
 -1       798 8.90871E+04-1.94942E+02 7.46894E+02 1.82302E+01-1.00938E-10 1.16785E-09
 -1       799 8.98474E+04 1.43934E+03 2.03610E+03-4.96618E+01-3.64682E-10-2.48022E-09
 -1       800 8.86061E+04-1.24326E+03 2.87632E+03 2.72099E+01 8.59228E-11-9.32914E-10
 -1       801-4.32784E+03 1.69397E+03 7.64035E+03 9.24459E+03 5.11204E-09 1.69382E-09
 -1       802 1.24925E+04 3.25638E+04 2.41283E+04-3.79605E+04 1.37711E-08-6.92182E-10
 -1       803-7.91247E+03 1.16195E+04 3.22632E+04 8.98989E+03 1.08375E-08 9.56508E-09
 -1       804 6.25484E+04 5.84425E+04 8.96324E+04-3.82679E+04 1.28084E-08 1.08057E-08
 -1       805-5.43882E+04-2.40933E+04 1.18767E+05 9.55139E+03 4.49654E-09 1.28840E-08
 -1       806-1.02743E+05-2.19843E+04-8.71776E+03-4.27566E+04-3.49132E-10 8.48104E-10
 -1       807-1.03258E+05-2.07334E+04-4.28281E+03-4.50654E+04-5.22959E-12 2.22312E-09
 -1       808-1.02990E+05-1.88348E+04-1.81683E+03-4.42357E+04-2.40561E-10 2.40641E-09
 -1       809-1.02345E+05-1.95440E+04-8.88223E+02-4.51889E+04-1.42563E-10-2.99787E-09
 -1       810-1.03029E+05-1.87235E+04-4.06696E+02-4.43012E+04-6.11749E-10-1.65642E-10
 -1       811-1.02275E+05-1.94969E+04-2.01709E+02-4.51789E+04 3.00929E-10 1.37106E-09
 -1       812-1.03036E+05-1.87314E+04-1.00610E+02-4.43013E+04-3.34467E-10 9.47693E-10
 -1       813-1.02266E+05-1.94979E+04-6.34939E+01-4.51741E+04 3.03771E-10-5.60533E-10
 -1       814-1.03036E+05-1.87340E+04-5.94614E+01-4.43003E+04-4.00860E-10 2.66255E-10
 -1       815-1.02268E+05-1.94988E+04-9.32065E+01-4.51735E+04-7.33962E-10-3.11951E-09
 -1       816-1.03031E+05-1.87326E+04-1.74542E+02-4.42995E+04-1.16324E-09-4.03361E-10
 -1       817-1.02299E+05-1.95153E+04-3.74509E+02-4.51714E+04-3.75167E-11 4.18595E-09
 -1       818-1.03010E+05-1.87844E+04-7.63104E+02-4.42752E+04 1.66438E-10-1.97565E-09
 -1       819-1.02722E+05-1.99732E+04-1.79645E+03-4.50706E+04-5.97083E-10 2.91675E-09
 -1       820-1.02866E+05-2.01424E+04-3.65584E+03-4.36968E+04-3.24599E-09-1.25118E-09
 -1       821-1.32667E+05 7.36563E+03-1.70367E+04-5.62853E-01-3.97988E-10 1.01409E-09
 -1       822-1.40049E+05-8.52696E+03-1.20552E+04-9.42950E+01-1.52491E-09-1.86265E-09
 -1       823-1.35516E+05 1.15467E+03-4.41256E+03-2.44408E+01 1.29529E-09-2.18029E-09
 -1       824-1.36731E+05-1.33648E+03-2.77697E+03-4.31541E+01-4.81402E-10-6.63704E-10
 -1       825-1.35986E+05 1.80810E+02-1.14068E+03-5.17054E+01-1.22412E-09 3.22939E-09
 -1       826-1.36184E+05-2.13249E+02-6.90147E+02 8.95915E+00-2.39693E-09 1.40534E-09
 -1       827-1.36062E+05 3.22633E+01-3.55899E+02-7.65552E+01-2.97094E-09-5.42799E-09
 -1       828-1.36109E+05-6.52026E+01-3.16150E+02 5.10801E+01 2.85346E-08 2.84035E-09
 -1       829-1.36061E+05 3.28781E+01-3.61295E+02-9.38271E+01 9.45414E-06-6.69117E-09
 -1       830-1.36189E+05-2.18480E+02-7.06271E+02 7.44651E+01 1.88181E-05-1.09325E-08
 -1       831-1.35982E+05 1.85448E+02-1.16903E+03-9.99407E+01-1.22300E-06-1.07167E-09
 -1       832-1.36749E+05-1.37092E+03-2.84857E+03 7.44311E+01-2.12582E-05 1.10523E-08
 -1       833-1.35501E+05 1.18447E+03-4.52619E+03-9.37928E+01-1.06771E-05 8.61928E-09
 -1       834-1.40153E+05-8.74713E+03-1.23666E+04 5.18396E+01-3.51924E-08-1.52727E-09
 -1       835-1.32579E+05 7.55585E+03-1.74768E+04-7.73465E+01 2.12554E-09 1.49157E-09
 -1       836-4.42724E+02 1.25823E+05 7.57462E+03-1.10123E+04 8.95852E-10 2.66050E-09
 -1       837 1.66151E+03 1.28171E+05 6.46393E+03-2.21382E+04 1.36060E-09 4.53440E-10
 -1       838-1.65926E+02 1.26479E+05 6.66317E+03-1.09733E+04 1.17984E-09-1.27369E-09
 -1       839 4.26922E+03 1.30121E+05 1.26811E+04-2.21530E+04 1.56683E-09 1.35353E-09
 -1       840-1.28913E+03 1.23864E+05 2.02527E+04-1.09970E+04 1.08594E-09 7.04176E-10
 -1       856-4.17420E+04 3.56188E+03-9.38527E+03-1.96565E+02-1.66210E-09-2.30875E-09
 -1       857-4.56200E+04-4.17850E+03-6.46196E+03 2.15933E+03-1.67699E-09-2.44597E-09
 -1       858-4.32741E+04 4.99309E+02-2.43570E+03-2.02357E+02-1.38107E-09 6.35282E-10
 -1       859-4.38594E+04-5.81911E+02-1.47131E+03 2.16831E+03 1.05651E-10 4.51880E-09
 -1       860-4.35034E+04 6.96079E+01-6.18633E+02-2.05583E+02 2.02903E-10 5.99897E-10
 -1       861-4.35948E+04-7.85583E+01-3.44743E+02 2.17264E+03-2.76289E-09-1.95803E-09
 -1       862-4.35392E+04 9.38300E+00-1.52093E+02-2.06702E+02 2.11748E-09-4.95325E-09
 -1       863-4.35526E+04-7.60497E+00-7.53493E+01 2.17315E+03 5.23861E-09-3.69491E-09
 -1       864-4.35457E+04 1.75574E-01-2.39072E+01-2.06090E+02 2.29691E-09-6.54813E-09
 -1       865-4.35410E+04 8.66331E+00 1.33183E+01 2.16994E+03 1.16313E-09 5.21048E-10
 -1       866-4.35504E+04-6.87884E+00 5.01550E+01-2.03489E+02-8.04761E-10-5.36172E-10
 -1       867-4.35126E+04 5.83540E+01 1.37770E+02 2.16292E+03-2.04736E-10 1.82215E-09
 -1       868-4.35733E+04-4.87918E+01 2.33130E+02-1.99077E+02-1.32889E-09 1.10276E-11
 -1       869-4.33395E+04 4.06359E+02 6.25007E+02 2.15060E+03-4.44170E-09-7.28983E-09
 -1       870-4.37224E+04-3.45667E+02 9.07521E+02-1.91172E+02-1.40480E-09 1.18126E-09
 -1       871-1.92290E+03-4.02019E+03-6.30191E+03 4.13312E+04 1.66983E-09-1.39380E-09
 -1       872-8.29655E+02-5.42645E+03-2.56645E+03 5.35818E+04 2.51839E-09 1.42904E-10
 -1       873-9.76369E+00-4.75770E+03 3.76550E+02 4.12391E+04 1.05706E-09-2.75753E-09
 -1       874 9.85344E+02-3.84054E+03 3.59832E+03 5.36013E+04 2.96859E-09 6.67114E-10
 -1       875 2.32205E+03-5.61894E+03 7.97576E+03 4.13139E+04 1.07275E-09 1.24578E-09
 -1       876 1.03557E+05 1.78289E+04 5.55293E+03 4.19932E+04-1.15682E-09 1.44473E-09
 -1       877 1.03873E+05 1.90485E+04 2.96528E+03 4.36377E+04-2.68255E-09-5.23573E-09
 -1       878 1.04078E+05 1.72133E+04 1.24239E+03 4.24488E+04-5.13683E-09-7.16045E-09
 -1       879 1.03118E+05 1.82965E+04 6.18817E+02 4.36786E+04-6.91898E-10 2.41806E-09
 -1       880 1.04116E+05 1.72057E+04 2.88135E+02 4.24674E+04-7.75617E-09 5.22789E-09
 -1       881 1.03068E+05 1.82648E+04 1.53393E+02 4.36719E+04-2.15198E-08-5.56895E-09
 -1       882 1.04121E+05 1.72098E+04 9.74064E+01 4.24679E+04-5.77296E-09 3.46116E-09
 -1       883 1.03065E+05 1.82635E+04 1.03490E+02 4.36702E+04 2.76600E-10 6.61041E-09
 -1       884 1.04119E+05 1.72084E+04 1.63562E+02 4.24680E+04-7.81918E-09 4.21639E-09
 -1       885 1.03078E+05 1.82658E+04 3.28191E+02 4.36745E+04-9.32507E-09-3.94772E-09
 -1       886 1.04106E+05 1.71989E+04 6.61187E+02 4.24667E+04 4.77013E-09 1.08329E-08
 -1       887 1.03194E+05 1.83419E+04 1.44423E+03 4.36910E+04-9.50081E-10 3.40975E-09
 -1       888 1.04014E+05 1.72153E+04 2.91023E+03 4.24205E+04-3.56420E-09 1.02523E-09
 -1       889 1.04929E+05 2.01424E+04 6.95267E+03 4.36352E+04-4.76668E-10 9.91236E-10
 -1       890 1.02827E+05 1.86246E+04 1.30214E+04 4.13114E+04 2.21758E-09 1.18234E-11
 -1       891-6.07078E+01-5.89071E+04-6.92636E+02 1.12041E+04-3.68345E-11 4.25189E-10
 -1       892-1.06003E+02-5.90763E+04-7.54853E+02 1.69602E+04-1.60276E-09-9.68782E-10
 -1       893-1.27411E+01-5.89312E+04-1.07952E+03 1.12060E+04 2.56478E-10-6.21185E-10
 -1       894-5.81518E+02-5.94975E+04-2.24294E+03 1.69005E+04-6.73481E-10-3.12298E-10
 -1       895-4.52011E+02-5.84699E+04-3.95163E+03 1.12633E+04-4.56765E-10-2.24873E-09
 -1       956-1.30041E+05-1.87592E+03-4.72183E+03 8.59415E+03 2.26419E-09-2.21917E-09
 -1       957-1.30973E+05-6.34338E+02-2.42421E+03 1.03431E+04 7.51515E-09-9.45784E-09
 -1       958-1.30457E+05-5.18819E+01-1.09198E+03 8.53864E+03 5.69935E-09-3.68061E-09
 -1       959-1.30530E+05-1.19217E+01-5.57873E+02 1.04031E+04 6.97128E-10 3.40890E-09
 -1       960-1.30492E+05 1.27421E+01-2.71824E+02 8.53365E+03-1.04205E-09 3.16061E-09
 -1       961-1.30496E+05 1.02358E+01-1.44185E+02 1.04086E+04-2.60479E-09 2.57842E-09
 -1       962-1.30498E+05 9.79776E+00-8.22899E+01 8.53307E+03-1.18689E-09 1.36924E-09
 -1       963-1.30493E+05 1.00291E+01-6.57127E+01 1.04094E+04-2.38697E-09 1.28625E-09
 -1       964-1.30499E+05 1.02208E+01-7.92513E+01 8.53286E+03-2.90072E-10 3.49195E-09
 -1       965-1.30498E+05 1.12290E+01-1.36514E+02 1.04094E+04 1.60704E-09 2.39959E-09
 -1       966-1.30495E+05 1.39626E+01-2.55933E+02 8.53311E+03-1.71610E-09-4.17731E-09
 -1       967-1.30532E+05-8.57167E+00-5.24755E+02 1.04063E+04-1.11015E-10 3.30459E-09
 -1       968-1.30464E+05-4.58273E+01-1.02671E+03 8.53599E+03 1.79512E-10 1.10229E-09
 -1       969-1.30950E+05-5.92942E+02-2.27956E+03 1.03712E+04-9.20863E-12-3.33594E-09
 -1       970-1.30074E+05-1.76040E+03-4.43983E+03 8.56889E+03 8.30937E-10 2.69802E-09
 -1       971-1.23616E+05-6.54550E+02-3.63940E+03 6.10414E+03-2.45586E-09 5.33973E-10
 -1       972-1.24501E+05-4.71662E+02-1.98236E+03 8.51249E+03-2.11128E-09-1.16074E-09
 -1       973-1.24018E+05-5.82176E+00-8.87273E+02 6.05473E+03-1.51090E-09 2.73531E-10
 -1       974-1.24078E+05-8.44178E+00-4.59808E+02 8.56534E+03-1.68257E-11 4.19050E-10
 -1       975-1.24048E+05 9.56459E+00-2.29094E+02 6.05095E+03 1.60685E-09 4.37524E-10
 -1       976-1.24051E+05 9.13646E+00-1.31257E+02 8.56962E+03-1.33514E-09 6.27438E-10
 -1       977-1.24052E+05 8.37294E+00-9.33582E+01 6.05042E+03 9.84301E-10-3.87899E-10
 -1       978-1.24050E+05 1.03913E+01-1.06803E+02 8.57035E+03 6.97648E-09-1.82291E-09
 -1       979-1.24051E+05 1.07416E+01-1.69366E+02 6.05022E+03 3.25446E-09 4.25530E-10
 -1       980-1.24063E+05 1.12050E+01-3.25625E+02 8.57039E+03 4.03347E-09 2.51833E-09
 -1       981-1.24041E+05 1.89204E+01-6.29824E+02 6.05038E+03 9.24331E-10-7.02755E-10
 -1       982-1.24150E+05-3.48696E+01-1.30136E+03 8.56820E+03-7.66534E-10-1.02919E-09
 -1       983-1.23963E+05-2.06866E+01-2.52812E+03 6.05247E+03 1.58423E-09-9.22171E-10
 -1       984-1.25367E+05-1.35394E+03-5.66117E+03 8.53466E+03 2.86946E-10 1.03404E-09
 -1       985-1.22820E+05-1.86982E+03-1.03956E+04 6.08529E+03 1.38402E-09 1.99634E-10
 -3
    1PSTEP                         5           3           1          
  100CL  103 4.37500E-01         409                     0    3           1
 -4  DISP        4    1
 -5  D1          1    2    1    0
 -5  D2          1    2    2    0
 -5  D3          1    2    3    0
 -5  ALL         1    2    0    0    1ALL
 -1         1 1.15593E-04 0.00000E+00 0.00000E+00
 -1         2 1.06349E-04-1.00959E-30 0.00000E+00
 -1         3 9.91203E-05 8.10931E-28 0.00000E+00
 -1         5 7.09130E-05 7.76291E-27 3.30872E-24
 -1         8 9.18865E-05-8.53207E-07 0.00000E+00
 -1         9 9.36844E-05 6.16931E-07 0.00000E+00
 -1        10 9.17861E-05-1.35300E-06-3.30872E-24
 -1        12 7.04310E-05 4.77510E-07 1.65436E-24
 -1        15 6.35317E-05-9.40411E-07 2.06795E-25
 -1        16 6.66746E-05 4.83514E-07 0.00000E+00
 -1        17 6.82996E-05-2.85240E-06 0.00000E+00
 -1        18 6.80620E-05 3.82970E-07 0.00000E+00
 -1        19 6.89851E-05 9.52375E-07 0.00000E+00
 -1        20 6.91088E-05 1.39557E-05 0.00000E+00
 -1        21 6.86416E-05 2.63565E-05 0.00000E+00
 -1        24 1.73046E-05-3.86774E-06 0.00000E+00
 -1        25 6.65444E-05 4.92806E-07 0.00000E+00
 -1        26 6.74172E-05 1.32682E-06 0.00000E+00
 -1        27 6.60958E-05 1.18340E-05 0.00000E+00
 -1        28 6.56694E-05 2.59488E-05 0.00000E+00
 -1        32 0.00000E+00 0.00000E+00 0.00000E+00
 -1        33 6.47098E-05 1.77891E-06 0.00000E+00
 -1        34 6.34339E-05 1.18149E-05 0.00000E+00
 -1        35 6.22208E-05 2.57336E-05 0.00000E+00
 -1        51 1.14064E-04-1.40139E-07 0.00000E+00
 -1        52 1.11211E-04-2.76676E-07 0.00000E+00
 -1        53 1.07296E-04-4.14681E-07 0.00000E+00
 -1        54 1.02590E-04-5.55489E-07-3.30872E-24
 -1        55 9.73623E-05-6.99750E-07-1.86116E-24
 -1        56 1.14544E-04-6.93356E-07 0.00000E+00
 -1        57 1.13634E-04-1.87961E-06 0.00000E+00
 -1        58 1.12860E-04-3.42117E-06 2.64698E-23
 -1        59 1.12162E-04-5.18912E-06 0.00000E+00
 -1        60 1.11494E-04-7.03603E-06 0.00000E+00
 -1        61 1.10799E-04-8.81514E-06 0.00000E+00
 -1        62 1.10025E-04-1.03829E-05 0.00000E+00
 -1        63 1.09120E-04-1.16022E-05 0.00000E+00
 -1        64 1.08041E-04-1.23555E-05-2.64698E-23
 -1        65 1.06748E-04-1.25381E-05-1.32349E-23
 -1        66 1.05214E-04-1.20780E-05 2.64698E-23
 -1        67 1.03418E-04-1.09206E-05 1.32349E-23
 -1        68 1.01355E-04-9.05143E-06-2.64698E-23
 -1        69 9.90300E-05-6.47328E-06-1.32349E-23
 -1        70 9.64527E-05-3.23410E-06 2.64698E-23
 -1        86 1.06025E-04 1.10451E-07 3.30872E-24
 -1        87 1.05054E-04 2.19969E-07 0.00000E+00
 -1        88 1.03394E-04 3.28535E-07 0.00000E+00
 -1        89 1.01004E-04 4.32359E-07 0.00000E+00
 -1        90 9.77971E-05 5.35096E-07-3.30872E-24
 -1       121 9.89157E-05-2.24479E-07-6.61744E-24
 -1       122 9.83021E-05-4.49123E-07-3.30872E-24
 -1       123 9.72805E-05-6.74097E-07-6.61744E-24
 -1       124 9.58524E-05-8.99599E-07 0.00000E+00
 -1       125 9.40199E-05-1.12573E-06 0.00000E+00
 -1       191 7.08997E-05 7.95919E-08 0.00000E+00
 -1       192 7.08595E-05 1.59182E-07 0.00000E+00
 -1       193 7.07925E-05 2.38771E-07 3.30872E-24
 -1       194 7.06988E-05 3.18357E-07-1.65436E-24
 -1       195 7.05783E-05 3.97937E-07-3.30872E-24
 -1       251 9.19763E-05 3.04649E-06 0.00000E+00
 -1       252 9.20886E-05 5.32513E-06 0.00000E+00
 -1       253 9.22019E-05 6.28431E-06 0.00000E+00
 -1       254 9.23190E-05 6.21892E-06 0.00000E+00
 -1       255 9.24359E-05 5.35996E-06 3.30872E-24
 -1       256 9.25528E-05 3.93456E-06-1.65436E-24
 -1       257 9.26692E-05 2.13426E-06 0.00000E+00
 -1       258 9.27854E-05 1.48838E-07-1.65436E-24
 -1       259 9.29016E-05-1.84367E-06 0.00000E+00
 -1       260 9.30180E-05-3.66520E-06 0.00000E+00
 -1       261 9.31348E-05-5.12691E-06 0.00000E+00
 -1       262 9.32516E-05-6.03828E-06-1.65436E-24
 -1       263 9.33687E-05-6.17421E-06 1.65436E-24
 -1       264 9.34820E-05-5.30576E-06-1.03398E-25
 -1       265 9.35945E-05-3.14141E-06 0.00000E+00
 -1       266 8.71607E-05-8.79171E-07 6.61744E-24
 -1       267 8.24349E-05-8.92312E-07 1.65436E-24
 -1       268 7.77091E-05-9.06265E-07 0.00000E+00
 -1       269 7.29833E-05-9.17812E-07 4.13590E-25
 -1       270 6.82575E-05-9.29303E-07 0.00000E+00
 -1       271 8.90514E-05 2.70251E-06-2.64698E-23
 -1       272 8.66453E-05 4.99315E-06 0.00000E+00
 -1       273 8.46639E-05 6.16364E-06-5.29396E-23
 -1       274 8.30419E-05 6.35864E-06 0.00000E+00
 -1       275 8.17226E-05 5.74576E-06 0.00000E+00
 -1       276 8.06375E-05 4.50391E-06 0.00000E+00
 -1       277 7.97159E-05 2.82409E-06 0.00000E+00
 -1       278 7.88838E-05 9.04461E-07 2.64698E-23
 -1       279 7.80655E-05-1.05240E-06 0.00000E+00
 -1       280 7.71853E-05-2.84322E-06 2.64698E-23
 -1       281 7.61684E-05-4.26791E-06 0.00000E+00
 -1       282 7.49427E-05-5.13249E-06-2.64698E-23
 -1       283 7.34386E-05-5.25345E-06-5.29396E-23
 -1       284 7.15952E-05-4.45840E-06 0.00000E+00
 -1       285 6.93478E-05-2.59503E-06-2.64698E-23
 -1       301 8.90824E-05 5.88972E-07 6.61744E-24
 -1       302 8.44887E-05 5.74715E-07-1.65436E-24
 -1       303 7.99271E-05 5.60942E-07 0.00000E+00
 -1       304 7.54216E-05 5.45792E-07 0.00000E+00
 -1       305 7.09963E-05 5.28686E-07 0.00000E+00
 -1       306 9.07731E-05 4.05354E-06 0.00000E+00
 -1       307 8.82875E-05 6.22438E-06-1.32349E-23
 -1       308 8.63046E-05 7.07162E-06 0.00000E+00
 -1       309 8.48182E-05 6.57245E-06 0.00000E+00
 -1       310 8.37727E-05 4.89529E-06-5.29396E-23
 -1       311 8.30844E-05 2.25660E-06-2.64698E-23
 -1       312 8.26238E-05-9.93955E-07 0.00000E+00
 -1       313 8.22508E-05-4.48057E-06-2.64698E-23
 -1       314 8.18134E-05-7.79439E-06-5.29396E-23
 -1       315 8.11627E-05-1.05341E-05 2.64698E-23
 -1       316 8.01780E-05-1.23783E-05 5.29396E-23
 -1       317 7.87542E-05-1.30440E-05 0.00000E+00
 -1       318 7.68428E-05-1.24110E-05 0.00000E+00
 -1       319 7.44270E-05-1.04119E-05 0.00000E+00
 -1       320 7.15386E-05-7.17392E-06 2.64698E-23
 -1       336 8.91011E-05-1.59907E-06 0.00000E+00
 -1       337 8.59156E-05-1.84689E-06-3.30872E-24
 -1       338 8.22350E-05-2.09627E-06 0.00000E+00
 -1       339 7.80667E-05-2.34714E-06 3.30872E-24
 -1       340 7.34185E-05-2.60006E-06 0.00000E+00
 -1       406 7.02569E-05 5.57069E-07-3.30872E-24
 -1       407 7.00560E-05 6.36597E-07 1.65436E-24
 -1       408 6.98284E-05 7.16071E-07 3.30872E-24
 -1       409 6.95739E-05 7.95391E-07 0.00000E+00
 -1       410 6.92927E-05 8.74404E-07-3.30872E-24
 -1       521 6.32566E-05 1.45313E-06-5.29396E-23
 -1       522 6.14352E-05-2.10430E-06-2.64698E-23
 -1       523 6.10556E-05-9.53870E-06 0.00000E+00
 -1       524 6.17471E-05-1.99434E-05 0.00000E+00
 -1       525 6.29706E-05-3.18091E-05 1.05879E-22
 -1       526 6.41347E-05-4.35202E-05 0.00000E+00
 -1       527 6.46636E-05-5.34905E-05-1.05879E-22
 -1       528 6.40205E-05-6.02687E-05 5.29396E-23
 -1       529 6.18906E-05-6.30407E-05 1.05879E-22
 -1       530 5.80651E-05-6.12967E-05 0.00000E+00
 -1       531 5.26703E-05-5.54241E-05 1.05879E-22
 -1       532 4.59587E-05-4.61185E-05 0.00000E+00
 -1       533 3.84506E-05-3.47546E-05 1.05879E-22
 -1       534 3.07507E-05-2.28526E-05 0.00000E+00
 -1       535 2.34725E-05-1.20527E-05 0.00000E+00
 -1       536 6.82681E-05 1.95768E-06-3.30872E-24
 -1       537 6.82478E-05 5.68988E-06 0.00000E+00
 -1       538 6.82301E-05 8.41453E-06 8.27181E-25
 -1       539 6.82158E-05 1.02026E-05 0.00000E+00
 -1       540 6.82026E-05 1.11506E-05 0.00000E+00
 -1       541 6.81900E-05 1.13557E-05 0.00000E+00
 -1       542 6.81775E-05 1.09351E-05-4.13590E-25
 -1       543 6.81647E-05 1.00063E-05 0.00000E+00
 -1       544 6.81515E-05 8.70071E-06 4.13590E-25
 -1       545 6.81379E-05 7.14982E-06 0.00000E+00
 -1       546 6.81243E-05 5.49183E-06 4.13590E-25
 -1       547 6.81107E-05 3.86500E-06 2.06795E-25
 -1       548 6.80974E-05 2.40669E-06-2.06795E-25
 -1       549 6.80848E-05 1.25424E-06 0.00000E+00
 -1       550 6.80725E-05 5.36724E-07 0.00000E+00
 -1       551 6.15493E-05-3.00481E-06 3.30872E-24
 -1       552 5.34764E-05-3.16389E-06-1.65436E-24
 -1       553 4.45449E-05-3.32985E-06-6.61744E-24
 -1       554 3.52258E-05-3.50134E-06-3.30872E-24
 -1       555 2.59899E-05-3.67465E-06-1.32349E-23
 -1       556 6.65233E-05 1.74754E-06-1.32349E-23
 -1       557 6.51647E-05 5.26813E-06 0.00000E+00
 -1       558 6.41781E-05 7.80857E-06 0.00000E+00
 -1       559 6.35219E-05 9.47592E-06 0.00000E+00
 -1       560 6.31546E-05 1.03770E-05 0.00000E+00
 -1       561 6.30350E-05 1.06192E-05 0.00000E+00
 -1       562 6.31225E-05 1.03101E-05 0.00000E+00
 -1       563 6.33761E-05 9.55738E-06 0.00000E+00
 -1       564 6.37556E-05 8.46867E-06 0.00000E+00
 -1       565 6.42204E-05 7.15177E-06 0.00000E+00
 -1       566 6.47301E-05 5.71449E-06-8.27181E-25
 -1       567 6.52446E-05 4.26469E-06 0.00000E+00
 -1       568 6.57235E-05 2.91015E-06 0.00000E+00
 -1       569 6.61265E-05 1.75858E-06 0.00000E+00
 -1       570 6.64132E-05 9.17689E-07 0.00000E+00
 -1       571 6.81181E-05 4.55150E-07 4.13590E-25
 -1       572 6.81753E-05 4.89048E-07-6.20385E-25
 -1       573 6.82329E-05 4.91483E-07-1.65436E-24
 -1       574 6.82907E-05 4.69637E-07 0.00000E+00
 -1       575 6.83486E-05 4.30720E-07 0.00000E+00
 -1       576 6.84065E-05 3.81993E-07 8.27181E-25
 -1       577 6.84644E-05 3.30719E-07-1.65436E-24
 -1       578 6.85222E-05 2.84170E-07 8.27181E-25
 -1       579 6.85801E-05 2.49613E-07-3.30872E-24
 -1       580 6.86381E-05 2.34322E-07 0.00000E+00
 -1       581 6.86959E-05 2.45566E-07 0.00000E+00
 -1       582 6.87538E-05 2.90606E-07 0.00000E+00
 -1       583 6.88117E-05 3.76698E-07 0.00000E+00
 -1       584 6.88696E-05 5.11023E-07 0.00000E+00
 -1       585 6.89274E-05 7.00720E-07 0.00000E+00
 -1       586 6.77895E-05 4.02411E-07 0.00000E+00
 -1       587 6.74923E-05 4.21367E-07 0.00000E+00
 -1       588 6.71947E-05 4.40114E-07 0.00000E+00
 -1       589 6.69213E-05 4.58566E-07 0.00000E+00
 -1       590 6.66966E-05 4.76517E-07 0.00000E+00
 -1       591 6.80080E-05 4.84726E-07 0.00000E+00
 -1       592 6.79635E-05 5.54899E-07 4.13590E-25
 -1       593 6.79285E-05 5.99492E-07 8.27181E-25
 -1       594 6.79007E-05 6.23915E-07 0.00000E+00
 -1       595 6.78785E-05 6.33650E-07 0.00000E+00
 -1       596 6.78596E-05 6.34135E-07 0.00000E+00
 -1       597 6.78421E-05 6.30809E-07 0.00000E+00
 -1       598 6.78241E-05 6.29106E-07 0.00000E+00
 -1       599 6.78033E-05 6.34460E-07-4.13590E-25
 -1       600 6.77780E-05 6.52302E-07-2.06795E-25
 -1       601 6.77459E-05 6.88065E-07-2.06795E-25
 -1       602 6.77051E-05 7.47190E-07-1.03398E-25
 -1       603 6.76535E-05 8.35112E-07-1.03398E-25
 -1       604 6.75894E-05 9.57315E-07-5.16988E-26
 -1       605 6.75106E-05 1.11921E-06 0.00000E+00
 -1       606 6.89958E-05 1.33592E-06-3.30872E-24
 -1       607 6.90044E-05 1.80188E-06 0.00000E+00
 -1       608 6.90125E-05 2.34543E-06 3.30872E-24
 -1       609 6.90203E-05 2.96110E-06 1.65436E-24
 -1       610 6.90280E-05 3.64342E-06 0.00000E+00
 -1       611 6.90356E-05 4.38683E-06 0.00000E+00
 -1       612 6.90431E-05 5.18575E-06 0.00000E+00
 -1       613 6.90506E-05 6.03464E-06 0.00000E+00
 -1       614 6.90580E-05 6.92791E-06-1.65436E-24
 -1       615 6.90654E-05 7.85999E-06 0.00000E+00
 -1       616 6.90728E-05 8.82532E-06 0.00000E+00
 -1       617 6.90801E-05 9.81834E-06 0.00000E+00
 -1       618 6.90874E-05 1.08334E-05 8.27181E-25
 -1       619 6.90947E-05 1.18651E-05-2.06795E-25
 -1       620 6.91019E-05 1.29077E-05-4.13590E-25
 -1       621 6.86829E-05 1.01482E-06 0.00000E+00
 -1       622 6.84036E-05 1.07758E-06 8.27181E-25
 -1       623 6.81422E-05 1.14033E-06 0.00000E+00
 -1       624 6.78940E-05 1.20297E-06 0.00000E+00
 -1       625 6.76539E-05 1.26551E-06 0.00000E+00
 -1       626 6.89080E-05 1.35556E-06 0.00000E+00
 -1       627 6.88059E-05 1.82695E-06 0.00000E+00
 -1       628 6.86806E-05 2.36023E-06 0.00000E+00
 -1       629 6.85347E-05 2.94863E-06 0.00000E+00
 -1       630 6.83706E-05 3.58539E-06 0.00000E+00
 -1       631 6.81910E-05 4.26371E-06 0.00000E+00
 -1       632 6.79983E-05 4.97676E-06-3.30872E-24
 -1       633 6.77951E-05 5.71775E-06 0.00000E+00
 -1       634 6.75839E-05 6.47987E-06-3.30872E-24
 -1       635 6.73674E-05 7.25629E-06-8.27181E-25
 -1       636 6.71481E-05 8.04023E-06 0.00000E+00
 -1       637 6.69284E-05 8.82486E-06 8.27181E-25
 -1       638 6.67110E-05 9.60338E-06-1.65436E-24
 -1       639 6.64983E-05 1.03690E-05-8.27181E-25
 -1       640 6.62927E-05 1.11148E-05 8.27181E-25
 -1       656 6.82389E-05 1.36105E-05-6.61744E-24
 -1       657 6.76784E-05 1.32515E-05-3.30872E-24
 -1       658 6.73095E-05 1.28936E-05 6.61744E-24
 -1       659 6.70114E-05 1.25360E-05 0.00000E+00
 -1       660 6.66510E-05 1.21773E-05-3.30872E-24
 -1       661 6.87873E-05 1.49823E-05-8.27181E-25
 -1       662 6.84852E-05 1.59644E-05 0.00000E+00
 -1       663 6.81993E-05 1.69030E-05 0.00000E+00
 -1       664 6.79294E-05 1.78004E-05 0.00000E+00
 -1       665 6.76744E-05 1.86583E-05 1.65436E-24
 -1       666 6.74336E-05 1.94785E-05 0.00000E+00
 -1       667 6.72063E-05 2.02627E-05 1.65436E-24
 -1       668 6.69920E-05 2.10126E-05 0.00000E+00
 -1       669 6.67899E-05 2.17298E-05-1.65436E-24
 -1       670 6.65996E-05 2.24156E-05-8.27181E-25
 -1       671 6.64204E-05 2.30717E-05 0.00000E+00
 -1       672 6.62519E-05 2.36993E-05 8.27181E-25
 -1       673 6.60935E-05 2.42998E-05 1.65436E-24
 -1       674 6.59441E-05 2.48741E-05 0.00000E+00
 -1       675 6.58042E-05 2.54239E-05 4.13590E-25
 -1       676 6.81451E-05 2.62881E-05-1.65436E-24
 -1       677 6.76488E-05 2.62198E-05 0.00000E+00
 -1       678 6.71529E-05 2.61515E-05-1.65436E-24
 -1       679 6.66575E-05 2.60834E-05 0.00000E+00
 -1       680 6.61630E-05 2.60154E-05 0.00000E+00
 -1       771 1.38107E-05 2.77763E-06 0.00000E+00
 -1       772 1.07672E-05 8.21896E-06-1.32349E-23
 -1       773 8.15592E-06 1.25236E-05 0.00000E+00
 -1       774 5.94791E-06 1.57632E-05 0.00000E+00
 -1       775 4.11501E-06 1.80109E-05-2.64698E-23
 -1       776 2.62773E-06 1.93425E-05 0.00000E+00
 -1       777 1.45622E-06 1.98352E-05-2.64698E-23
 -1       778 5.70036E-07 1.95682E-05 0.00000E+00
 -1       779-6.15344E-08 1.86219E-05-2.64698E-23
 -1       780-4.69716E-07 1.70785E-05 0.00000E+00
 -1       781-6.85853E-07 1.50210E-05-2.64698E-23
 -1       782-7.41693E-07 1.25338E-05 0.00000E+00
 -1       783-6.69052E-07 9.70189E-06 2.64698E-23
 -1       784-4.99962E-07 6.61128E-06-1.32349E-23
 -1       785-2.66574E-07 3.34827E-06 0.00000E+00
 -1       786 6.65958E-05 4.80180E-07 0.00000E+00
 -1       787 6.66502E-05 4.71360E-07 0.00000E+00
 -1       788 6.67045E-05 4.66356E-07 0.00000E+00
 -1       789 6.67592E-05 4.65189E-07 0.00000E+00
 -1       790 6.68141E-05 4.68362E-07 0.00000E+00
 -1       791 6.68690E-05 4.76391E-07-8.27181E-25
 -1       792 6.69239E-05 4.90404E-07 0.00000E+00
 -1       793 6.69789E-05 5.11542E-07-8.27181E-25
 -1       794 6.70338E-05 5.41849E-07 0.00000E+00
 -1       795 6.70888E-05 5.83390E-07-8.27181E-25
 -1       796 6.71438E-05 6.39650E-07 0.00000E+00
 -1       797 6.71987E-05 7.14149E-07 8.27181E-25
 -1       798 6.72536E-05 8.12710E-07 0.00000E+00
 -1       799 6.73084E-05 9.41217E-07 0.00000E+00
 -1       800 6.73632E-05 1.10933E-06-1.65436E-24
 -1       801 6.20494E-05 4.84374E-07-8.27181E-25
 -1       802 4.86504E-05 3.99356E-07-8.27181E-25
 -1       803 3.10512E-05 2.54954E-07 0.00000E+00
 -1       804 1.39549E-05 1.12664E-07 0.00000E+00
 -1       805 2.04219E-06 4.04464E-08 0.00000E+00
 -1       806 6.64822E-05 4.42016E-07 1.65436E-24
 -1       807 6.64172E-05 3.91449E-07-8.27181E-25
 -1       808 6.63499E-05 3.45370E-07 0.00000E+00
 -1       809 6.62794E-05 3.07394E-07-8.27181E-25
 -1       810 6.62043E-05 2.81131E-07-1.65436E-24
 -1       811 6.61235E-05 2.70135E-07 8.27181E-25
 -1       812 6.60356E-05 2.77960E-07 1.65436E-24
 -1       813 6.59393E-05 3.08146E-07 0.00000E+00
 -1       814 6.58332E-05 3.64237E-07-1.65436E-24
 -1       815 6.57162E-05 4.49768E-07 0.00000E+00
 -1       816 6.55867E-05 5.68276E-07 1.65436E-24
 -1       817 6.54436E-05 7.23295E-07 0.00000E+00
 -1       818 6.52855E-05 9.18357E-07-1.65436E-24
 -1       819 6.51112E-05 1.15698E-06-4.13590E-25
 -1       820 6.49194E-05 1.44268E-06 0.00000E+00
 -1       821 6.73394E-05 1.57059E-06 0.00000E+00
 -1       822 6.72568E-05 1.81810E-06 8.27181E-25
 -1       823 6.71746E-05 2.10062E-06 0.00000E+00
 -1       824 6.70914E-05 2.44924E-06-8.27181E-25
 -1       825 6.70081E-05 2.88365E-06 0.00000E+00
 -1       826 6.69247E-05 3.42315E-06 1.65436E-24
 -1       827 6.68411E-05 4.06885E-06 0.00000E+00
 -1       828 6.67574E-05 4.82147E-06-1.65436E-24
 -1       829 6.66737E-05 5.66316E-06 0.00000E+00
 -1       830 6.65899E-05 6.57576E-06-1.65436E-24
 -1       831 6.65062E-05 7.52880E-06-3.30872E-24
 -1       832 6.64226E-05 8.49168E-06 0.00000E+00
 -1       833 6.63390E-05 9.43206E-06 1.65436E-24
 -1       834 6.62564E-05 1.03177E-05 8.27181E-25
 -1       835 6.61736E-05 1.11259E-05 0.00000E+00
 -1       836 6.70924E-05 1.40209E-06 0.00000E+00
 -1       837 6.66681E-05 1.47901E-06-8.27181E-25
 -1       838 6.61808E-05 1.55579E-06 0.00000E+00
 -1       839 6.56675E-05 1.63208E-06 0.00000E+00
 -1       840 6.51649E-05 1.70825E-06 0.00000E+00
 -1       856 6.60721E-05 1.25406E-05 0.00000E+00
 -1       857 6.60458E-05 1.33380E-05-2.06795E-25
 -1       858 6.60195E-05 1.42119E-05 4.13590E-25
 -1       859 6.59927E-05 1.51478E-05 0.00000E+00
 -1       860 6.59659E-05 1.61314E-05 0.00000E+00
 -1       861 6.59389E-05 1.71482E-05 4.13590E-25
 -1       862 6.59119E-05 1.81837E-05-8.27181E-25
 -1       863 6.58849E-05 1.92233E-05 4.13590E-25
 -1       864 6.58579E-05 2.02524E-05 0.00000E+00
 -1       865 6.58308E-05 2.12566E-05-4.13590E-25
 -1       866 6.58039E-05 2.22213E-05 8.27181E-25
 -1       867 6.57769E-05 2.31321E-05 4.13590E-25
 -1       868 6.57500E-05 2.39746E-05 0.00000E+00
 -1       869 6.57232E-05 2.47343E-05 0.00000E+00
 -1       870 6.56964E-05 2.53971E-05 8.27181E-25
 -1       871 6.55599E-05 1.18333E-05 4.13590E-25
 -1       872 6.51111E-05 1.18307E-05 0.00000E+00
 -1       873 6.47121E-05 1.18279E-05 0.00000E+00
 -1       874 6.43247E-05 1.18246E-05 1.03398E-25
 -1       875 6.39112E-05 1.18209E-05 2.06795E-25
 -1       876 6.59100E-05 1.25481E-05 0.00000E+00
 -1       877 6.57096E-05 1.33065E-05 8.27181E-25
 -1       878 6.54947E-05 1.41036E-05 3.30872E-24
 -1       879 6.52673E-05 1.49346E-05 0.00000E+00
 -1       880 6.50290E-05 1.57945E-05 3.30872E-24
 -1       881 6.47819E-05 1.66782E-05 1.65436E-24
 -1       882 6.45276E-05 1.75809E-05 0.00000E+00
 -1       883 6.42681E-05 1.84974E-05 8.27181E-25
 -1       884 6.40053E-05 1.94230E-05 1.65436E-24
 -1       885 6.37409E-05 2.03525E-05 0.00000E+00
 -1       886 6.34769E-05 2.12811E-05 0.00000E+00
 -1       887 6.32150E-05 2.22037E-05 8.27181E-25
 -1       888 6.29570E-05 2.31154E-05 1.65436E-24
 -1       889 6.27047E-05 2.40111E-05 0.00000E+00
 -1       890 6.24598E-05 2.48859E-05 8.27181E-25
 -1       891 6.51935E-05 2.59128E-05 0.00000E+00
 -1       892 6.47020E-05 2.58767E-05 0.00000E+00
 -1       893 6.41769E-05 2.58406E-05 0.00000E+00
 -1       894 6.36003E-05 2.58045E-05 4.13590E-25
 -1       895 6.29541E-05 2.57685E-05-6.20385E-25
 -1       956 6.46316E-05 2.21828E-06 0.00000E+00
 -1       957 6.45520E-05 2.70884E-06 0.00000E+00
 -1       958 6.44723E-05 3.24526E-06-1.65436E-24
 -1       959 6.43923E-05 3.82191E-06-1.65436E-24
 -1       960 6.43123E-05 4.43316E-06 1.65436E-24
 -1       961 6.42323E-05 5.07331E-06-8.27181E-25
 -1       962 6.41522E-05 5.73668E-06 0.00000E+00
 -1       963 6.40721E-05 6.41761E-06-8.27181E-25
 -1       964 6.39920E-05 7.11040E-06 1.65436E-24
 -1       965 6.39120E-05 7.80936E-06 0.00000E+00
 -1       966 6.38319E-05 8.50882E-06 3.30872E-24
 -1       967 6.37518E-05 9.20309E-06 0.00000E+00
 -1       968 6.36718E-05 9.88647E-06 0.00000E+00
 -1       969 6.35920E-05 1.05533E-05 0.00000E+00
 -1       970 6.35123E-05 1.11979E-05 3.30872E-24
 -1       971 6.33591E-05 1.24489E-05 0.00000E+00
 -1       972 6.32832E-05 1.31502E-05 0.00000E+00
 -1       973 6.32072E-05 1.39115E-05 1.65436E-24
 -1       974 6.31310E-05 1.47250E-05 0.00000E+00
 -1       975 6.30548E-05 1.55830E-05-1.65436E-24
 -1       976 6.29785E-05 1.64776E-05 0.00000E+00
 -1       977 6.29022E-05 1.74012E-05 0.00000E+00
 -1       978 6.28259E-05 1.83459E-05 0.00000E+00
 -1       979 6.27496E-05 1.93041E-05-1.65436E-24
 -1       980 6.26732E-05 2.02678E-05 0.00000E+00
 -1       981 6.25969E-05 2.12295E-05-1.65436E-24
 -1       982 6.25207E-05 2.21812E-05 0.00000E+00
 -1       983 6.24446E-05 2.31152E-05-1.65436E-24
 -1       984 6.23688E-05 2.40237E-05 0.00000E+00
 -1       985 6.22934E-05 2.48990E-05 0.00000E+00
 -3
    1PSTEP                         6           3           1          
  100CL  103 4.37500E-01         409                     0    3           1
 -4  STRESS      6    1
 -5  SXX         1    4    1    1
 -5  SYY         1    4    2    2
 -5  SZZ         1    4    3    3
 -5  SXY         1    4    1    2
 -5  SYZ         1    4    2    3
 -5  SZX         1    4    3    1
 -1         1-1.52933E+06-7.00658E+05-3.11599E+05-9.88196E+05 1.20053E-10-6.65750E-09
 -1         2 2.60569E+03 3.19607E+05 8.53621E+03 8.80572E+02-1.44553E-10 7.59599E-10
 -1         3-6.89090E+01-6.41333E+05 1.49660E+02-2.09224E+02-1.64972E-10-1.90676E-08
 -1         5-5.68134E+00 2.27741E+05 5.96863E+00 8.03824E-02 8.82452E-11 5.47880E-09
 -1         8-6.91605E+05-3.04789E+05-1.81200E+04-5.40929E+05 8.54925E-11-1.76806E-09
 -1         9-1.21835E+06-3.04892E+05-1.17731E+05-4.21103E+05 3.31202E-09 3.55649E-09
 -1        10-5.10494E+02-6.68133E+05-8.68680E+02-1.40947E+03-3.22598E-09-6.92700E-09
 -1        12-3.23499E+00 2.27754E+05 1.93568E+02 8.15696E-01 1.29827E-10-2.52362E-09
 -1        15 1.89384E+03 1.04078E+03 6.12185E+03 3.87028E+00 4.93969E-11 1.34697E-08
 -1        16-3.42112E+06-1.11093E+06-5.33642E+05-1.13007E+06 1.05889E-08-9.62367E-09
 -1        17-7.66706E+05-4.68263E+05-1.47928E+05-4.37922E+05-5.02841E-09 1.73750E-09
 -1        18 1.94576E+04 6.99132E+02-1.25855E+04-5.37851E+04 7.02357E-10-1.57888E-09
 -1        19 7.13240E+04 8.50735E+04-3.99702E+02 1.39503E+04-5.25688E-10 1.67383E-09
 -1        20-2.96890E+04-3.37007E+05-7.43299E+04 2.48806E+04 2.29344E-09-2.72848E-11
 -1        21-3.18378E+01-1.95347E+05-6.30970E+02-6.65262E+01-7.93570E-09-1.84014E-08
 -1        24-3.04711E+06-1.01909E+06-4.31466E+05-1.24282E+06-1.60023E-08-7.70281E-09
 -1        25 2.71503E+04-4.05329E+03 1.58177E+04-9.72988E+04 3.49155E-10 5.12500E-09
 -1        26-1.64570E+04 5.81352E+04-1.14993E+04-8.35177E+03 1.34096E-09 5.11616E-09
 -1        27-5.39693E+04-1.84904E+05-6.93712E+04 4.16676E+04 4.66146E-09-3.42061E-09
 -1        28 1.51201E+04-5.39548E+04 1.10332E+04 1.73015E+04 1.51977E-09-9.05992E-10
 -1        32-7.19048E+05-1.04411E+05 3.12145E+05-4.87972E+05-1.46538E-08 1.36187E-08
 -1        33-1.05717E+05 5.43864E+04 1.92775E+04-3.16227E+04 1.09560E-09 4.38331E-09
 -1        34-1.37285E+05-1.36619E+04 3.21807E+02 4.22022E+04 3.05237E-09 2.98072E-09
 -1        35-1.53764E+04-2.14461E+04-8.39657E+02 3.40274E+04 4.27151E-09-5.72375E-09
 -1        51 1.26541E+04-3.54726E+05 3.38400E+04-8.86000E+05-2.32831E-10-1.38243E-09
 -1        52 8.08328E+03-3.53661E+05 2.27830E+04-1.03747E+06-2.54659E-10 6.22094E-09
 -1        53 6.05839E+03-3.65196E+05 1.98279E+04-8.82888E+05 2.83762E-10 4.24916E-09
 -1        54 1.77395E+04-3.63810E+05 3.23200E+04-1.04071E+06-2.11003E-10 9.17862E-09
 -1        55 3.52012E+04-3.76166E+05 5.79166E+04-8.82408E+05 1.45519E-11 7.90169E-09
 -1        56-2.93823E+06-3.31463E+05-2.29551E+05-1.13230E+06 4.00178E-10-5.60249E-09
 -1        57-3.02785E+06-5.41679E+05-1.54724E+05-1.12634E+06 6.20275E-10 8.78936E-09
 -1        58-2.98488E+06-4.03610E+05-5.40150E+04-1.11723E+06 5.17502E-10-3.85626E-09
 -1        59-2.97381E+06-4.57115E+05-3.22434E+04-1.14446E+06-5.17048E-10-6.61203E-09
 -1        60-2.99180E+06-4.13552E+05-1.26156E+04-1.11506E+06 1.74623E-10 8.14725E-09
 -1        61-2.96693E+06-4.44282E+05-7.17038E+03-1.14559E+06-9.48035E-10 9.47051E-09
 -1        62-2.99163E+06-4.16142E+05-3.46647E+03-1.11618E+06 5.51836E-10 1.03674E-08
 -1        63-2.96944E+06-4.39148E+05-2.83126E+03-1.14150E+06-2.49111E-09 8.45239E-09
 -1        64-2.98918E+06-4.18717E+05-3.30108E+03-1.11909E+06-1.22100E-10-8.50127E-09
 -1        65-2.97611E+06-4.34446E+05-6.54243E+03-1.13429E+06 8.81300E-10-8.61826E-09
 -1        66-2.98486E+06-4.20950E+05-1.15973E+04-1.12329E+06 1.29103E-09-2.09002E-09
 -1        67-2.99030E+06-4.38085E+05-2.93463E+04-1.12399E+06-4.72198E-10-3.10320E-09
 -1        68-2.97502E+06-4.15400E+05-4.93306E+04-1.12927E+06 2.14231E-09 5.40240E-10
 -1        69-3.04527E+06-5.09701E+05-1.41060E+05-1.10136E+06-2.53749E-10 2.16824E-09
 -1        70-2.93043E+06-3.51521E+05-2.09382E+05-1.14518E+06-9.02219E-10 6.11180E-10
 -1        86-1.30836E+03 3.16880E+05 9.12523E+03-4.40312E+02 1.07570E-09-8.07233E-10
 -1        87 8.68147E+03 3.22606E+05 1.90694E+04 1.82831E+03 1.80489E-09-2.38401E-10
 -1        88-7.36867E+03 3.13884E+05 2.91551E+04-1.38808E+03 2.71393E-09 3.91532E-09
 -1        89 5.49161E+04 3.44274E+05 7.86963E+04 4.01061E+03 4.18640E-09-1.09682E-08
 -1        90-4.73986E+04 2.95237E+05 1.11087E+05-2.62210E+03 4.91855E-09-3.18380E-09
 -1       121-1.10438E+02-6.41654E+05 1.25134E+02 1.04496E+02 3.49850E-10-1.01327E-08
 -1       122-1.94014E+01-6.41302E+05 3.24704E+02-4.18393E+02-1.17992E-09-4.32647E-09
 -1       123-1.45064E+02-6.41689E+05 5.07986E+02 3.13210E+02 9.32289E-10-1.14824E-08
 -1       124 5.79859E+02-6.40940E+05 1.35660E+03-9.48424E+02-2.42255E-09-4.16549E-09
 -1       125-5.31763E+02-6.42028E+05 2.06267E+03 6.34299E+02 1.39335E-09-1.33605E-09
 -1       191-6.16175E+00 2.27760E+05 7.06520E+00-4.08526E-02 1.50836E-10-1.42973E-09
 -1       192-6.23034E+00 2.27741E+05 1.26410E+01 5.97455E-01 2.09887E-10-7.03039E-09
 -1       193-7.62123E+00 2.27760E+05 2.34420E+01-5.61047E-01 2.44490E-10-2.25918E-09
 -1       194-7.99697E+00 2.27743E+05 4.78234E+01 1.49825E+00 1.45947E-10-1.34378E-09
 -1       195-1.04261E+01 2.27758E+05 9.34783E+01-9.48713E-01 3.56231E-10 1.74623E-10
 -1       251 3.15030E+05-4.71763E+04 1.10061E+05 5.30557E+03 3.87786E-10 2.10275E-09
 -1       252 3.65787E+05 5.45593E+04 7.81864E+04-1.56790E+04-3.46745E-11 1.07320E-09
 -1       253 3.34208E+05-7.29905E+03 2.84863E+04 3.24666E+03-2.44029E-10 2.49383E-09
 -1       254 3.43150E+05 8.42904E+03 1.80330E+04-1.24612E+04-3.82897E-10 9.05857E-10
 -1       255 3.37553E+05-1.12578E+03 7.36165E+03 2.08795E+03-3.43789E-10 2.04682E-09
 -1       256 3.39141E+05 1.33824E+03 4.47955E+03-1.07599E+04 3.71287E-10-6.86214E-10
 -1       257 3.38170E+05-1.96116E+02 2.30337E+03 1.54530E+03-5.99840E-10 1.73111E-09
 -1       258 3.38509E+05 4.19265E+02 2.03921E+03-1.02068E+04-1.03610E-09 5.36263E-09
 -1       259 3.38171E+05-1.99538E+02 2.33575E+03 1.53495E+03 2.77254E-11-9.73841E-10
 -1       260 3.39145E+05 1.36863E+03 4.56951E+03-1.07181E+04 4.35421E-11-1.30708E-08
 -1       261 3.37547E+05-1.15190E+03 7.52951E+03 2.05653E+03 1.42234E-09 3.91537E-09
 -1       262 3.43217E+05 8.62676E+03 1.84409E+04-1.23707E+04-2.66368E-10 2.35923E-09
 -1       263 3.34143E+05-7.46810E+03 2.91529E+04 3.18755E+03-3.45892E-10 8.44557E-09
 -1       264 3.66314E+05 5.58259E+04 7.99799E+04-1.55259E+04-1.42984E-09 8.20000E-09
 -1       265 3.14563E+05-4.82647E+04 1.12634E+05 5.21152E+03-8.30482E-10 4.13274E-09
 -1       266-3.42840E+04-1.60291E+04 8.04502E+04-8.28211E+01 1.81899E-11 6.88759E-09
 -1       267 3.97456E+04 1.86855E+04 5.68558E+04 9.55477E+01 1.37334E-10 3.46043E-09
 -1       268-5.32977E+03-2.64621E+03 2.11334E+04-1.21751E+01 1.90994E-11-3.91372E-09
 -1       269 6.29294E+03 3.16715E+03 1.37361E+04 1.41815E+01 5.70708E-11 2.04210E-09
 -1       270-9.44578E+02-5.20379E+02 6.63060E+03-1.92455E+00 2.13731E-11 7.65699E-09
 -1       271-3.33615E+06-4.17875E+05-2.56339E+05-1.30147E+06-1.30967E-09-1.35333E-09
 -1       272-3.41007E+06-6.22330E+05-1.64729E+05-1.31908E+06 1.70394E-09-4.55475E-09
 -1       273-3.38599E+06-4.80028E+05-6.05651E+04-1.28822E+06-1.22236E-09-4.01269E-09
 -1       274-3.35145E+06-5.46604E+05-3.38468E+04-1.33991E+06-1.89902E-09-6.33327E-09
 -1       275-3.39435E+06-4.84848E+05-1.40913E+04-1.28434E+06-4.00178E-11-2.51839E-09
 -1       276-3.34148E+06-5.41153E+05-7.46590E+03-1.34631E+06-2.73667E-09-4.56112E-09
 -1       277-3.39654E+06-4.84174E+05-3.65610E+03-1.28265E+06-2.32603E-09 5.90376E-10
 -1       278-3.33944E+06-5.41659E+05-2.65464E+03-1.34839E+06-2.65868E-09-4.87375E-09
 -1       279-3.39670E+06-4.84074E+05-2.85205E+03-1.28251E+06-2.11389E-09-6.72071E-09
 -1       280-3.34078E+06-5.41229E+05-5.22723E+03-1.34696E+06-1.60253E-09-9.11859E-09
 -1       281-3.39498E+06-4.84787E+05-9.59760E+03-1.28391E+06-3.33785E-10-5.17957E-09
 -1       282-3.34822E+06-5.44037E+05-2.28671E+04-1.34151E+06-3.05590E-10-4.12547E-09
 -1       283-3.38868E+06-4.82263E+05-4.09190E+04-1.28727E+06 6.28461E-10-8.36735E-10
 -1       284-3.38921E+06-5.93436E+05-1.11112E+05-1.32532E+06 9.66793E-10-9.74796E-09
 -1       285-3.35400E+06-4.41493E+05-1.73088E+05-1.29740E+06 1.00772E-09-4.04543E-09
 -1       301 1.29781E+04-8.96615E+03 1.00435E+05-2.86883E+04-7.82165E-10-4.60659E-10
 -1       302 1.39762E+04 1.64734E+04 7.25097E+04-4.22628E+04 9.84073E-10 1.02708E-08
 -1       303 7.00541E+02 5.94800E+01 6.67324E+04-2.87735E+04-8.02174E-10-7.43967E-10
 -1       304 2.61861E+04 2.77646E+04 1.12236E+05-4.21299E+04 1.36060E-09 4.64388E-09
 -1       305 2.59099E+04-2.01384E+04 1.88368E+05-2.87319E+04-1.09139E-09 4.77485E-10
 -1       306-3.59981E+06-4.19817E+05-2.74770E+05-1.41192E+06 1.34605E-10-3.82715E-09
 -1       307-3.74927E+06-6.43620E+05-1.87263E+05-1.35449E+06 2.96768E-09-7.85803E-10
 -1       308-3.66602E+06-5.01626E+05-6.47049E+04-1.38201E+06 1.89993E-09-7.43239E-09
 -1       309-3.66466E+06-5.56529E+05-3.90357E+04-1.39892E+06 1.43621E-09-7.34872E-10
 -1       310-3.68401E+06-5.05232E+05-1.52051E+04-1.36806E+06-7.21855E-10-1.48430E-09
 -1       311-3.64079E+06-5.55777E+05-8.74657E+03-1.41952E+06 3.48837E-09-2.73576E-09
 -1       312-3.69009E+06-5.01934E+05-4.28721E+03-1.36169E+06-1.09253E-10 3.19505E-09
 -1       313-3.63618E+06-5.57521E+05-3.85509E+03-1.42425E+06-3.89113E-09 6.74927E-09
 -1       314-3.68872E+06-5.03388E+05-4.67279E+03-1.36341E+06-3.02680E-09-8.56357E-09
 -1       315-3.64595E+06-5.50811E+05-9.73869E+03-1.41316E+06-8.43102E-10 1.70439E-09
 -1       316-3.68010E+06-5.08841E+05-1.72108E+04-1.37260E+06-6.59384E-12-2.09366E-09
 -1       317-3.67473E+06-5.50222E+05-4.41721E+04-1.38833E+06-7.88816E-10-4.61387E-09
 -1       318-3.65979E+06-5.04423E+05-7.32307E+04-1.38798E+06-3.66981E-09 2.54659E-09
 -1       319-3.76866E+06-6.51296E+05-2.12133E+05-1.34113E+06-3.44153E-09-6.74117E-09
 -1       320-3.58679E+06-4.09536E+05-3.11006E+05-1.41929E+06 8.72387E-09-7.84348E-09
 -1       336 4.63150E+02-6.94629E+05-3.74828E+03 7.73538E+02-6.25937E-09-2.27828E-09
 -1       337-1.36349E+03-6.95570E+05-4.11523E+03-1.98819E+03-1.14032E-08-2.33013E-09
 -1       338 3.04383E+02-6.94732E+05-5.24095E+03 1.21052E+03-8.18272E-09-1.57797E-09
 -1       339-5.42288E+03-6.98084E+05-1.14673E+04-2.85089E+03-1.48912E-08 1.16702E-08
 -1       340 3.65774E+03-6.92170E+05-1.77011E+04 1.63036E+03-9.81072E-09 8.50741E-09
 -1       406 1.14818E+01 2.27750E+05 3.82083E+02 1.15993E-01 4.72937E-10 7.79755E-09
 -1       407 1.30018E+02 2.27821E+05 8.12221E+02-8.19428E+00-1.34150E-11 1.47236E-08
 -1       408 4.14811E+02 2.27691E+05 1.62209E+03 8.21802E+00 5.83441E-10 1.20044E-08
 -1       409 1.75102E+03 2.28339E+05 3.65198E+03-7.81257E+01 1.29148E-10-1.37175E-09
 -1       410 5.03676E+03 2.27230E+05 7.45533E+03 7.25943E+01 5.92081E-10-5.91626E-10
 -1       521-6.82052E+06-7.73516E+05-5.12284E+05-2.63039E+06 4.30009E-09-9.37143E-09
 -1       522-6.97184E+06-1.28507E+06-3.44322E+05-2.64494E+06-8.15453E-09-3.16504E-10
 -1       523-6.97375E+06-8.85565E+05-1.20574E+05-2.53256E+06 4.92946E-10-8.15635E-09
 -1       524-6.78900E+06-1.16344E+06-7.16474E+04-2.77709E+06 1.01373E-08-9.04947E-09
 -1       525-7.00657E+06-8.88053E+05-2.76574E+04-2.50268E+06 7.80528E-09-9.83346E-09
 -1       526-6.77464E+06-1.13068E+06-1.53241E+04-2.77680E+06 2.79533E-09 1.64792E-09
 -1       527-6.98745E+06-9.18058E+05-8.92939E+03-2.53269E+06 4.93856E-09 4.29418E-09
 -1       528-6.84354E+06-1.04415E+06-4.12058E+03-2.67456E+06-5.14774E-09 1.16961E-09
 -1       529-6.93281E+06-9.77954E+05-1.03576E+04-2.60137E+06-3.97813E-09 1.71258E-09
 -1       530-6.96452E+06-9.27953E+05-1.33164E+04-2.53670E+06-1.37306E-08 1.33468E-09
 -1       531-6.86615E+06-1.03453E+06-2.91197E+04-2.67020E+06-2.07929E-08-5.72982E-10
 -1       532-7.08646E+06-8.63654E+05-7.07901E+04-2.43396E+06 4.12621E-09-1.08566E-08
 -1       533-6.81593E+06-1.03943E+06-1.18400E+05-2.70759E+06 1.11631E-08-1.68075E-08
 -1       534-7.22032E+06-1.04625E+06-3.43402E+05-2.38337E+06-5.11136E-10 1.67638E-08
 -1       535-6.73497E+06-8.54838E+05-5.06294E+05-2.72070E+06-1.01136E-08 1.19035E-08
 -1       536-4.42986E+04-1.79943E+04 4.13952E+04 1.14060E+02-1.10072E-09 1.03464E-08
 -1       537-2.47046E+04 2.08199E+04 2.95694E+04-1.18850E+03-7.63566E-09 6.69206E-09
 -1       538-3.72109E+04-2.82339E+03 1.06541E+04 2.23641E+02-1.17609E-10 1.79625E-10
 -1       539-3.31056E+04 3.25686E+03 6.87200E+03-1.43171E+03 1.93386E-09 1.16188E-09
 -1       540-3.59082E+04-4.40635E+02 2.67220E+03 3.57258E+02-2.48619E-10 4.71539E-09
 -1       541-3.47512E+04 5.01331E+02 1.63807E+03-1.66814E+03 2.64379E-10-2.34536E-09
 -1       542-3.55732E+04-6.44150E+01 6.22397E+02 4.60042E+02 5.59197E-12-3.89952E-09
 -1       543-3.52289E+04 5.57036E+01 3.11650E+02-1.83297E+03 4.83286E-10 1.08674E-09
 -1       544-3.54367E+04 9.10963E+00-5.93318E+00 5.22089E+02 1.09917E-10-3.07769E-09
 -1       545-3.54515E+04-1.18085E+02-3.05136E+02-1.91273E+03-8.44697E-10-8.69546E-09
 -1       546-3.53538E+04 1.11578E+02-6.46009E+02 5.39812E+02 1.01216E-09-3.14085E-09
 -1       547-3.57790E+04-8.18654E+02-1.67164E+03-1.90281E+03-2.17929E-09 6.90741E-09
 -1       548-3.51088E+04 7.08868E+02-2.70720E+03 5.12169E+02-2.38422E-09-1.40301E-09
 -1       549-3.76578E+04-5.22347E+03-7.36081E+03-1.80112E+03-9.33454E-10 2.27419E-09
 -1       550-3.34710E+04 4.51009E+03-1.05014E+04 4.38107E+02 3.09655E-11-1.52977E-09
 -1       551 7.47193E+03-3.62259E+05 1.95635E+04-6.19370E+05-2.73940E-08 4.79486E-09
 -1       552 1.61381E+04-3.64263E+05 2.59807E+04-8.81590E+05-2.14204E-08 2.16351E-08
 -1       553 1.08347E+04-3.69011E+05 4.05034E+04-6.17309E+05-3.38841E-08 1.78225E-08
 -1       554 3.66766E+04-3.52553E+05 8.61119E+04-8.82452E+05-2.12749E-08 1.36514E-08
 -1       555 3.57651E+04-3.85406E+05 1.54612E+05-6.18062E+05-3.35858E-08 4.16185E-09
 -1       556 5.30399E+04-1.16965E+05 3.98614E+04-1.54249E+05-4.44561E-09-4.02360E-09
 -1       557 1.00391E+05-1.56373E+05 2.09261E+04-1.92966E+05 1.13505E-09 3.27600E-09
 -1       558 5.30642E+04-1.22388E+05 8.47954E+03-1.49574E+05-2.91766E-09-3.87081E-09
 -1       559 9.41799E+04-1.61879E+05 4.29889E+03-1.95664E+05 5.83168E-09 2.27101E-09
 -1       560 5.17962E+04-1.21539E+05 1.78630E+03-1.50357E+05 3.84171E-09 1.01954E-08
 -1       561 9.21603E+04-1.61392E+05 9.45717E+02-1.96939E+05 4.49290E-09 7.95308E-09
 -1       562 5.07661E+04-1.20844E+05 3.63461E+02-1.51100E+05 3.98722E-09 4.30146E-09
 -1       563 9.09470E+04-1.60872E+05 2.26192E+02-1.97714E+05-2.62116E-09-4.16748E-09
 -1       564 5.01264E+04-1.20430E+05 8.06980E+01-1.51556E+05 4.22006E-10 7.34553E-09
 -1       565 9.03207E+04-1.60605E+05 4.83717E+01-1.98108E+05-8.68840E-09 5.31418E-09
 -1       566 4.99022E+04-1.20280E+05-2.13468E+01-1.51718E+05-4.29463E-09 3.02862E-09
 -1       567 9.02432E+04-1.60566E+05-1.04867E+02-1.98099E+05 3.74257E-09-3.32875E-10
 -1       568 5.01233E+04-1.20426E+05-2.96891E+02-1.51618E+05-4.32919E-10 1.26602E-09
 -1       569 9.01284E+04-1.60460E+05-6.95044E+02-1.97181E+05-6.59384E-10 8.14907E-10
 -1       570 5.12693E+04-1.21485E+05-1.47194E+03-1.51612E+05 9.38599E-10-4.88581E-09
 -1       571 1.65078E+05 5.98700E+03 8.87200E+03-4.16839E+04-3.50610E-10 8.91259E-09
 -1       572 1.66399E+05 2.08215E+03 4.34666E+03-4.56924E+04 1.15688E-09 9.00218E-09
 -1       573 1.65609E+05 4.96239E+02 1.93094E+03-4.15748E+04 1.91676E-09 3.28646E-09
 -1       574 1.65765E+05 1.61519E+02 9.67405E+02-4.58143E+04 1.15574E-09 1.71258E-09
 -1       575 1.65668E+05 2.23733E+01 4.55908E+02-4.15605E+04 5.23869E-10 3.78805E-09
 -1       576 1.65678E+05 6.50954E+00 2.32024E+02-4.58306E+04 7.16739E-10-1.23646E-09
 -1       577 1.65677E+05-2.93441E+00 1.14233E+02-4.15585E+04-1.55751E-10 5.16729E-09
 -1       578 1.65670E+05-1.14535E+00 6.21780E+01-4.58325E+04-2.04227E-09 6.62430E-09
 -1       579 1.65686E+05-4.35109E+00 3.78461E+01-4.15585E+04-7.94444E-10-6.84940E-09
 -1       580 1.65682E+05-5.78588E+00 3.50368E+01-4.58301E+04-1.00317E-09-3.48064E-09
 -1       581 1.65702E+05-1.00199E+01 4.71798E+01-4.15610E+04 2.50111E-10-3.43744E-09
 -1       582 1.65712E+05-3.40285E+00 8.96617E+01-4.58053E+04 1.33832E-09-1.85355E-09
 -1       583 1.65721E+05 1.83731E+01 1.71791E+02-4.15832E+04 1.34150E-09-2.27487E-09
 -1       584 1.65799E+05 1.51868E+02 3.85142E+02-4.56198E+04-1.65164E-09-1.63607E-09
 -1       585 1.65703E+05 4.91280E+02 7.82001E+02-4.17468E+04 2.04636E-10-2.00089E-09
 -1       586-2.01011E+03 5.40628E+04-2.67181E+03-1.41680E+05 3.75621E-10-4.14934E-09
 -1       587-4.25663E+02 5.37029E+04-3.06683E+02-1.55906E+05 6.58474E-10-1.37584E-09
 -1       588 5.67065E+02 5.37744E+04 1.87943E+03-1.41594E+05 3.88354E-10 3.07409E-10
 -1       589 2.80691E+03 5.48075E+04 5.48545E+03-1.55778E+05 5.53882E-10-3.43607E-09
 -1       590 8.04917E+03 5.31103E+04 1.17496E+04-1.41810E+05 2.73758E-10-1.90175E-09
 -1       591-3.61571E+04-1.03481E+04-1.20049E+04-1.87472E+04 4.45971E-09-4.93674E-09
 -1       592-3.72806E+04-1.32972E+04-6.50233E+03-2.18789E+04 7.97581E-09-2.48519E-09
 -1       593-3.73710E+04-9.46350E+03-2.70699E+03-1.96141E+04 3.61229E-09 1.52613E-09
 -1       594-3.56076E+04-1.15524E+04-1.35010E+03-2.19622E+04 1.73230E-09 3.58159E-09
 -1       595-3.74640E+04-9.45945E+03-6.20456E+02-1.96539E+04-3.68573E-10 3.18471E-09
 -1       596-3.54944E+04-1.14724E+04-3.16272E+02-2.19505E+04 9.31465E-10 5.93880E-09
 -1       597-3.74758E+04-9.46713E+03-1.74096E+02-1.96555E+04 1.42317E-09 5.65456E-09
 -1       598-3.54836E+04-1.14694E+04-1.43391E+02-2.19472E+04-6.23814E-10 9.06550E-09
 -1       599-3.74750E+04-9.46716E+03-1.87451E+02-1.96552E+04 1.05302E-09-5.02075E-09
 -1       600-3.54957E+04-1.14735E+04-3.51676E+02-2.19502E+04 1.22401E-09-1.30603E-09
 -1       601-3.74602E+04-9.45881E+03-6.95561E+02-1.96528E+04-2.57660E-09-3.64946E-09
 -1       602-3.56228E+04-1.15631E+04-1.51689E+03-2.19619E+04-1.35196E-09-5.88670E-09
 -1       603-3.73546E+04-9.46481E+03-3.04248E+03-1.96083E+04 1.53932E-10-3.48405E-09
 -1       604-3.75092E+04-1.35175E+04-7.30855E+03-2.18594E+04 6.17661E-10 1.11504E-09
 -1       605-3.59822E+04-1.04649E+04-1.34931E+04-1.86405E+04 1.00704E-09 5.76983E-09
 -1       606 2.35904E+04-7.95169E+03-1.43202E+04 2.30429E+04-3.08864E-09 5.14865E-09
 -1       607 2.11378E+04-2.56479E+03-7.13065E+03 2.58668E+04-2.40925E-09 5.88943E-09
 -1       608 2.25304E+04-4.31953E+02-3.19314E+03 2.28590E+04 1.58980E-09-2.81943E-10
 -1       609 2.22534E+04-1.11996E+02-1.61281E+03 2.60697E+04-1.44337E-09 4.29736E-09
 -1       610 2.24027E+04 2.10808E+01-7.70349E+02 2.28385E+04-3.76531E-09 8.56858E-09
 -1       611 2.23503E+04 3.14094E+01-3.88580E+02 2.60919E+04-7.60701E-09 3.78486E-09
 -1       612 2.23690E+04 3.33728E+01-1.85938E+02 2.28365E+04-4.42742E-09 2.21530E-09
 -1       613 2.23491E+04 3.80190E+01-8.48197E+01 2.60945E+04-4.64070E-09-2.66414E-09
 -1       614 2.23508E+04 3.36566E+01-2.37800E+01 2.28358E+04 1.68257E-09-1.64459E-09
 -1       615 2.23399E+04 4.22352E+01 2.61773E+01 2.60949E+04 7.97490E-09 1.38016E-09
 -1       616 2.23370E+04 3.81445E+01 8.71321E+01 2.28360E+04-3.75030E-09 9.01309E-10
 -1       617 2.23455E+04 6.39194E+01 2.02203E+02 2.60945E+04-1.67620E-09 5.27598E-09
 -1       618 2.23157E+04 9.88263E+01 4.08803E+02 2.28361E+04-1.70235E-09 3.22711E-09
 -1       619 2.24870E+04 3.82037E+02 9.18847E+02 2.60939E+04-7.42375E-11-2.51839E-09
 -1       620 2.21780E+04 1.07036E+03 1.84707E+03 2.28352E+04 2.34934E-09-1.54455E-09
 -1       621 2.87154E+02 1.79799E+05 2.48966E+03 5.87561E+03-2.34095E-10-4.06942E-09
 -1       622 3.28146E+02 1.80416E+05 2.11236E+03 8.58131E+03-2.01965E-10-4.92076E-09
 -1       623 1.33997E+01 1.79977E+05 2.42827E+03 5.84807E+03-1.45860E-10 6.12874E-09
 -1       624 1.09784E+03 1.81122E+05 4.61027E+03 8.60818E+03-2.72991E-10 5.99795E-09
 -1       625 1.10246E+03 1.79089E+05 8.01435E+03 5.84904E+03-2.01453E-10 6.71878E-09
 -1       626 1.48257E+05 4.11156E+04 2.94866E+03 8.02073E+04-2.17460E-09-2.09548E-09
 -1       627 1.46223E+05 4.26160E+04 1.42073E+03 8.34513E+04-1.93359E-09-3.76838E-09
 -1       628 1.48369E+05 3.97196E+04 6.00121E+02 8.06514E+04 2.58842E-09-8.08996E-10
 -1       629 1.45797E+05 4.22812E+04 2.94131E+02 8.36460E+04 7.25049E-09 4.87415E-09
 -1       630 1.48376E+05 3.96533E+04 1.36026E+02 8.06633E+04 2.57296E-09-3.65810E-09
 -1       631 1.45746E+05 4.22738E+04 7.31776E+01 8.36481E+04-1.36970E-09 2.19914E-09
 -1       632 1.48369E+05 3.96584E+04 4.83645E+01 8.06568E+04 1.03864E-09-8.31324E-09
 -1       633 1.45735E+05 4.22782E+04 5.41134E+01 8.36425E+04 1.37288E-08 2.82415E-09
 -1       634 1.48361E+05 3.96591E+04 8.76793E+01 8.06531E+04 7.90851E-09-4.50950E-09
 -1       635 1.45738E+05 4.22796E+04 1.77861E+02 8.36420E+04 1.74623E-09-9.64519E-10
 -1       636 1.48351E+05 3.96585E+04 3.59279E+02 8.06503E+04 1.77147E-09 1.41972E-09
 -1       637 1.45811E+05 4.23369E+04 7.89660E+02 8.36382E+04 4.21175E-09 4.96016E-09
 -1       638 1.48320E+05 3.98347E+04 1.62295E+03 8.05689E+04-9.53378E-10-1.98770E-09
 -1       639 1.46660E+05 4.35243E+04 3.83943E+03 8.33857E+04-1.10736E-08-1.28102E-08
 -1       640 1.48206E+05 4.33691E+04 7.96787E+03 7.90679E+04-1.77283E-09 2.68346E-09
 -1       656 4.02030E+04-1.01743E+06-9.70555E+04-4.04106E+02-3.89264E-10-1.00459E-08
 -1       657-5.31226E+04-1.06124E+06-8.02633E+04 6.61343E+03-7.27596E-12 7.04517E-10
 -1       658 1.27462E+04-1.02993E+06-4.92521E+04-1.27613E+03 1.27216E-10-8.55358E-10
 -1       659-5.69504E+04-1.06305E+06-8.52908E+04 7.19212E+03-1.40517E-09 2.25507E-09
 -1       660 4.40212E+04-1.01562E+06-1.05705E+05-9.82781E+02-4.22006E-10 3.01209E-09
 -1       661 1.44414E+05 1.57191E+04 1.38474E+04 5.64278E+04 1.84900E-09-2.86309E-09
 -1       662 1.51619E+05 2.65876E+04 9.33082E+03 5.40287E+04-4.06430E-11-2.49304E-09
 -1       663 1.47126E+05 2.01677E+04 3.26400E+03 5.56460E+04 4.48267E-10 2.24918E-09
 -1       664 1.48480E+05 2.13792E+04 1.95142E+03 5.49780E+04 8.66606E-10 2.35335E-09
 -1       665 1.47532E+05 2.07813E+04 7.69783E+02 5.55336E+04-3.58528E-09-2.11287E-10
 -1       666 1.48006E+05 2.06725E+04 4.48858E+02 5.51210E+04-6.76130E-09 5.20651E-09
 -1       667 1.47598E+05 2.08559E+04 2.36640E+02 5.55099E+04-9.16117E-10-3.49596E-09
 -1       668 1.47936E+05 2.06123E+04 2.36968E+02 5.51545E+04 2.88863E-09-4.54036E-09
 -1       669 1.47601E+05 2.08398E+04 3.17477E+02 5.55008E+04 2.47591E-09-1.03171E-09
 -1       670 1.48018E+05 2.07780E+04 6.88115E+02 5.51514E+04 6.68578E-09-2.62422E-09
 -1       671 1.47516E+05 2.06935E+04 1.22079E+03 5.55116E+04-2.24784E-10-2.24833E-09
 -1       672 1.48732E+05 2.19629E+04 3.12251E+03 5.49768E+04-6.04655E-09-2.23685E-09
 -1       673 1.46891E+05 1.96847E+04 5.23253E+03 5.56641E+04-1.85196E-09 9.26548E-10
 -1       674 1.53716E+05 3.03660E+04 1.49641E+04 5.35095E+04-2.08513E-09 7.10679E-09
 -1       675 1.42565E+05 1.25255E+04 2.22112E+04 5.68903E+04 2.94676E-10-2.00089E-11
 -1       676 1.63799E+01-1.95294E+05-7.60480E+02 3.32639E+01-1.23023E-09 5.53040E-10
 -1       677-2.01836E+02-1.95478E+05-1.39175E+03-6.65022E+01-1.31013E-09-1.84482E-09
 -1       678 1.34805E+02-1.95163E+05-2.46023E+03 3.32153E+01-4.30873E-11-2.61213E-09
 -1       679-2.46065E+03-1.96963E+05-5.84419E+03-6.63079E+01-3.05795E-09-4.89946E-09
 -1       680 1.46852E+03-1.93809E+05-9.41892E+03 3.26885E+01-7.50788E-10 1.21442E-09
 -1       771-2.09849E+06-3.67416E+05-5.14822E+04-8.70471E+05-7.72707E-09-6.17001E-09
 -1       772-2.08547E+06-3.94928E+05-2.75941E+04-9.01139E+05-5.80258E-09 3.26781E-09
 -1       773-2.10558E+06-3.61909E+05-1.19689E+04-8.73347E+05-3.92902E-09 3.40515E-09
 -1       774-2.07808E+06-3.88910E+05-5.81036E+03-9.04413E+05 5.40967E-09-7.13044E-10
 -1       775-2.10728E+06-3.60801E+05-2.98693E+03-8.73543E+05-3.27418E-10 9.65883E-10
 -1       776-2.07796E+06-3.88970E+05-1.36358E+03-9.06212E+05-2.67755E-09 1.74350E-09
 -1       777-2.10848E+06-3.59934E+05-8.79703E+02-8.73643E+05-4.51109E-10 1.26602E-09
 -1       778-2.07827E+06-3.89206E+05-3.80422E+02-9.07714E+05 1.38243E-09 3.73257E-09
 -1       779-2.10943E+06-3.59196E+05-3.91336E+02-8.73734E+05-2.81943E-09-2.13913E-09
 -1       780-2.07861E+06-3.89401E+05-2.85671E+02-9.08929E+05-3.63434E-09 2.18733E-10
 -1       781-2.11015E+06-3.58606E+05-5.15136E+02-8.73803E+05-7.05040E-09-1.19917E-09
 -1       782-2.07894E+06-3.89587E+05-9.09457E+02-9.09823E+05-9.34779E-09-2.90720E-09
 -1       783-2.11058E+06-3.58218E+05-1.82308E+03-8.73831E+05-2.17005E-09-3.81999E-09
 -1       784-2.08020E+06-3.90830E+05-4.30622E+03-9.10319E+05-4.63115E-09-2.03727E-10
 -1       785-2.11004E+06-3.58593E+05-7.96534E+03-8.73276E+05-1.01245E-08-2.52294E-09
 -1       786 1.53516E+05-8.18219E+03 1.89294E+04-2.47428E+00 3.86583E-07 1.38334E-09
 -1       787 1.61718E+05 9.47242E+03 1.33922E+04-1.16356E+00 7.69713E-07 5.26416E-09
 -1       788 1.56681E+05-1.28265E+03 4.89944E+03 4.00234E-01 9.03155E-07-1.31377E-09
 -1       789 1.58032E+05 1.48411E+03 3.07839E+03-7.22799E+00 1.03573E-06 7.98235E-09
 -1       790 1.57203E+05-2.00373E+02 1.25266E+03 3.59014E+00 1.26519E-06-2.65362E-09
 -1       791 1.57423E+05 2.32824E+02 7.35604E+02-1.48021E+01 1.49634E-06 9.09019E-09
 -1       792 1.57290E+05-3.23106E+01 3.35983E+02 7.97446E+00 1.97463E-06-1.13712E-08
 -1       793 1.57324E+05 4.54995E+01 2.20686E+02-2.59083E+01 2.44894E-06 1.97183E-09
 -1       794 1.57302E+05-1.31724E+01 1.64269E+02 1.46966E+01 1.22596E-06-8.91628E-09
 -1       795 1.57334E+05 6.82667E+01 2.38767E+02-4.34243E+01 5.08071E-09 9.18605E-09
 -1       796 1.57280E+05-5.50612E+01 3.58344E+02 2.54907E+01 4.86411E-10-7.19517E-09
 -1       797 1.57497E+05 4.03720E+02 8.45512E+02-7.18765E+01-7.64362E-11-7.46212E-11
 -1       798 1.57139E+05-3.48379E+02 1.33477E+03 4.31493E+01 4.38227E-10-5.87175E-09
 -1       799 1.58499E+05 2.57233E+03 3.63904E+03-1.18897E+02-3.31309E-10-6.98930E-09
 -1       800 1.56279E+05-2.22192E+03 5.14040E+03 7.25119E+01 1.37637E-10 2.62162E-09
 -1       801-9.21104E+03-2.26032E+04 8.87969E+03 1.67171E+04 9.07767E-09-9.76047E-09
 -1       802 2.29039E+04 6.47392E+04 4.50436E+04-6.80454E+04 2.43631E-08-3.39710E-09
 -1       803-1.29022E+04 1.25343E+04 5.63382E+04 1.59653E+04 1.92813E-08 1.63159E-08
 -1       804 1.10942E+05 1.14246E+05 1.60658E+05-6.89674E+04 2.26719E-08 1.70251E-08
 -1       805-9.73248E+04-7.18176E+04 2.02717E+05 1.76360E+04 7.95990E-09 2.23274E-08
 -1       806-1.79775E+05-3.85588E+04-1.53001E+04-7.49059E+04 4.57931E-10 4.75802E-09
 -1       807-1.80670E+05-3.63725E+04-7.51657E+03-7.89680E+04 1.61953E-09 4.89683E-09
 -1       808-1.80209E+05-3.30312E+04-3.18853E+03-7.75011E+04-7.22821E-10 2.10181E-09
 -1       809-1.79066E+05-3.42856E+04-1.55878E+03-7.91847E+04-1.74606E-09 3.56351E-09
 -1       810-1.80277E+05-3.28362E+04-7.13747E+02-7.76155E+04-2.71484E-10 2.79192E-09
 -1       811-1.78943E+05-3.42031E+04-3.53964E+02-7.91664E+04 3.13776E-10 2.73076E-09
 -1       812-1.80288E+05-3.28507E+04-1.76623E+02-7.76153E+04-4.11092E-10 3.65458E-09
 -1       813-1.78927E+05-3.42052E+04-1.11382E+02-7.91568E+04-3.36559E-09-1.12832E-08
 -1       814-1.80286E+05-3.28562E+04-1.04384E+02-7.76129E+04-8.90850E-10 1.25601E-09
 -1       815-1.78929E+05-3.42071E+04-1.63308E+02-7.91540E+04 1.05956E-09-2.61821E-10
 -1       816-1.80276E+05-3.28550E+04-3.05932E+02-7.76107E+04-1.92813E-10 3.70801E-09
 -1       817-1.78981E+05-3.42363E+04-6.55870E+02-7.91483E+04 2.01067E-09 6.12567E-09
 -1       818-1.80237E+05-3.29471E+04-1.33665E+03-7.75671E+04 1.54523E-09-1.31604E-09
 -1       819-1.79719E+05-3.50384E+04-3.14586E+03-7.89692E+04-1.42404E-09-8.73024E-09
 -1       820-1.79982E+05-3.53258E+04-6.40239E+03-7.65532E+04-1.66438E-09 7.25879E-09
 -1       821-2.32658E+05 1.29111E+04-2.98599E+04 5.86633E+01-4.91458E-10-1.38789E-09
 -1       822-2.45598E+05-1.49468E+04-2.11300E+04-4.93926E+02-1.65309E-09 1.14778E-09
 -1       823-2.37653E+05 2.02407E+03-7.73383E+03 2.12225E+01 1.29363E-09-5.25233E-10
 -1       824-2.39776E+05-2.34281E+03-4.86630E+03-3.61377E+02-2.66219E-10-2.77134E-09
 -1       825-2.38479E+05 3.16796E+02-1.99987E+03-7.38903E+01-3.29773E-09-8.02629E-11
 -1       826-2.38815E+05-3.73660E+02-1.20789E+03-1.48376E+02-5.65406E-09 2.73739E-09
 -1       827-2.38613E+05 5.62801E+01-6.24606E+02-1.91782E+02-4.28058E-09-3.30043E-09
 -1       828-2.38684E+05-1.14034E+02-5.52757E+02 6.84616E+01-4.94148E-09 5.96947E-09
 -1       829-2.38609E+05 5.74039E+01-6.33579E+02-2.90732E+02-9.43583E-11 1.40263E-09
 -1       830-2.38829E+05-3.82733E+02-1.23746E+03 2.12425E+02 1.36384E-09-1.03853E-10
 -1       831-2.38469E+05 3.24912E+02-2.04885E+03-3.35749E+02-2.18032E-09 1.86458E-09
 -1       832-2.39813E+05-2.40279E+03-4.99258E+03 2.33114E+02 3.20905E-10-8.78970E-10
 -1       833-2.37626E+05 2.07602E+03-7.93330E+03-3.11421E+02-9.72761E-10-6.96400E-09
 -1       834-2.45775E+05-1.53322E+04-2.16753E+04 1.25408E+02-1.47560E-09-5.94810E-09
 -1       835-2.32508E+05 1.32442E+04-3.06330E+04-2.28034E+02 4.45747E-09-1.80262E-09
 -1       836-7.74691E+02 2.20444E+05 1.32755E+04-1.94287E+04 1.60844E-09 2.50020E-09
 -1       837 2.92548E+03 2.24553E+05 1.13280E+04-3.90214E+04 2.48065E-09-6.66205E-09
 -1       838-2.83121E+02 2.21589E+05 1.16728E+04-1.93629E+04 2.08274E-09 2.67585E-09
 -1       839 7.49241E+03 2.27959E+05 2.22105E+04-3.90446E+04 2.54113E-09 6.88885E-10
 -1       840-2.25008E+03 2.17009E+05 3.54702E+04-1.94040E+04 1.78625E-09-1.43245E-09
 -1       856-7.27363E+04 6.22358E+03-1.64004E+04-3.65649E+02-2.85900E-09 1.57797E-09
 -1       857-7.95116E+04-7.29936E+03-1.12915E+04 3.73960E+03-3.34234E-09 1.89812E-09
 -1       858-7.54130E+04 8.72071E+02-4.25638E+03-3.81268E+02-3.45480E-09-3.18937E-09
 -1       859-7.64372E+04-1.01404E+03-2.57082E+03 3.76448E+03-1.20899E-09 4.00109E-09
 -1       860-7.58133E+04 1.21303E+02-1.08101E+03-3.90645E+02 8.50179E-10-4.51450E-10
 -1       861-7.59760E+04-1.34179E+02-6.02303E+02 3.77728E+03-3.81008E-09-6.57803E-09
 -1       862-7.58756E+04 1.61022E+01-2.65622E+02-3.94094E+02 5.48064E-09-3.86962E-10
 -1       863-7.59024E+04-1.01252E+01-1.31381E+02 3.77881E+03 9.60885E-09 4.41906E-09
 -1       864-7.58871E+04-3.78857E-02-4.12999E+01-3.92181E+02 4.88858E-09 6.45258E-10
 -1       865-7.58811E+04 1.83111E+01 2.44827E+01 3.76917E+03 6.41546E-09-5.13293E-09
 -1       866-7.58958E+04-1.26485E+01 8.94438E+01-3.84448E+02-5.95122E-10-5.66056E-09
 -1       867-7.58288E+04 1.06303E+02 2.45713E+02 3.74820E+03-7.82961E-10 9.65727E-10
 -1       868-7.59370E+04-8.74307E+01 4.14666E+02-3.71213E+02-6.03450E-10 1.64874E-09
 -1       869-7.55178E+04 7.25331E+02 1.11324E+03 3.71330E+03-2.27473E-09-4.61600E-09
 -1       870-7.62032E+04-6.16303E+02 1.61464E+03-3.49549E+02 1.11908E-09-2.79351E-09
 -1       871-3.40611E+03-7.07023E+03-1.10461E+04 7.23902E+04 1.65437E-09-2.18188E-09
 -1       872-1.48611E+03-9.53870E+03-4.49807E+03 9.38484E+04 3.27009E-09 6.37283E-09
 -1       873-4.01418E+01-8.38332E+03 6.56072E+02 7.22305E+04 2.32603E-09 5.55292E-09
 -1       874 1.69535E+03-6.76872E+03 6.29627E+03 9.38823E+04 2.95495E-09 3.25974E-09
 -1       875 4.03321E+03-9.87937E+03 1.39546E+04 7.23631E+04 3.06227E-09 1.26238E-09
 -1       876 1.81236E+05 3.12589E+04 9.71804E+03 7.35643E+04-5.34487E-09-2.26646E-09
 -1       877 1.81785E+05 3.33986E+04 5.18961E+03 7.64457E+04-4.52508E-09 6.58076E-09
 -1       878 1.82144E+05 3.01830E+04 2.17423E+03 7.43622E+04-1.09701E-08-2.46769E-09
 -1       879 1.80462E+05 3.20824E+04 1.08305E+03 7.65152E+04-1.69890E-08 3.95428E-09
 -1       880 1.82211E+05 3.01708E+04 5.04221E+02 7.43947E+04-4.44265E-09 3.50860E-09
 -1       881 1.80375E+05 3.20266E+04 2.68497E+02 7.65019E+04 1.74987E-09-4.16961E-09
 -1       882 1.82218E+05 3.01785E+04 1.70488E+02 7.43957E+04 3.04840E-09-2.23948E-09
 -1       883 1.80368E+05 3.20240E+04 1.81193E+02 7.64981E+04 2.37605E-10 9.91298E-09
 -1       884 1.82214E+05 3.01764E+04 2.86359E+02 7.43958E+04-1.42148E-09 5.02138E-09
 -1       885 1.80391E+05 3.20281E+04 5.74570E+02 7.65054E+04 4.21032E-09 6.88942E-10
 -1       886 1.82192E+05 3.01596E+04 1.15749E+03 7.43935E+04 5.40483E-09 7.51936E-09
 -1       887 1.80595E+05 3.21614E+04 2.52821E+03 7.65346E+04-2.96669E-09 1.11459E-09
 -1       888 1.82032E+05 3.01879E+04 5.09440E+03 7.43126E+04-4.15099E-10 2.07774E-09
 -1       889 1.83631E+05 3.53129E+04 1.21703E+04 7.64378E+04 4.68170E-10 3.94107E-09
 -1       890 1.79956E+05 3.26537E+04 2.27938E+04 7.23695E+04 4.48540E-09 4.14730E-09
 -1       891-1.14258E+02-1.03091E+05-1.21450E+03 1.96433E+04-1.97247E-10-1.53352E-09
 -1       892-1.98475E+02-1.03381E+05-1.32236E+03 2.97243E+04-2.38151E-09 4.93628E-09
 -1       893-3.30273E+01-1.03129E+05-1.89066E+03 1.96470E+04 1.48202E-09 2.31057E-09
 -1       894-1.03520E+03-1.04108E+05-3.92667E+03 2.96190E+04-4.07226E-09-4.18731E-09
 -1       895-8.07841E+02-1.02314E+05-6.91953E+03 1.97474E+04 1.27670E-10-4.83124E-09
 -1       956-2.27670E+05-3.28478E+03-8.27388E+03 1.50340E+04 2.19234E-09-5.85123E-09
 -1       957-2.29304E+05-1.10690E+03-4.24757E+03 1.81022E+04 7.18455E-09-6.30280E-09
 -1       958-2.28403E+05-8.68805E+01-1.91357E+03 1.49356E+04 5.59521E-09-2.95972E-09
 -1       959-2.28533E+05-1.39610E+01-9.77444E+02 1.82084E+04-1.11913E-09 6.46060E-09
 -1       960-2.28467E+05 2.84466E+01-4.76388E+02 1.49264E+04-3.90446E-09-7.02244E-10
 -1       961-2.28476E+05 2.67168E+01-2.52581E+02 1.82189E+04-5.67661E-09 4.36785E-10
 -1       962-2.28480E+05 2.47297E+01-1.44171E+02 1.49250E+04-1.33218E-09 6.27870E-09
 -1       963-2.28473E+05 2.74877E+01-1.15020E+02 1.82207E+04-2.28886E-09 8.53413E-09
 -1       964-2.28482E+05 2.62060E+01-1.38707E+02 1.49245E+04-1.26715E-09 1.47747E-09
 -1       965-2.28481E+05 2.99867E+01-2.38907E+02 1.82207E+04 1.44017E-09-1.93302E-09
 -1       966-2.28476E+05 3.27872E+01-4.47978E+02 1.49250E+04-1.83604E-09-8.27299E-10
 -1       967-2.28541E+05-5.01177E+00-9.18565E+02 1.82152E+04 2.26350E-10-5.21709E-09
 -1       968-2.28420E+05-7.25363E+01-1.79740E+03 1.49302E+04 6.99401E-10-5.19924E-09
 -1       969-2.29271E+05-1.02909E+03-3.99074E+03 1.81533E+04 1.51704E-09-1.55126E-10
 -1       970-2.27735E+05-3.07518E+03-7.77295E+03 1.49890E+04 1.26192E-09 4.65661E-09
 -1       971-2.16388E+05-1.14356E+03-6.36944E+03 1.05996E+04-2.60980E-09-5.32353E-10
 -1       972-2.17937E+05-8.19362E+02-3.46895E+03 1.48054E+04-2.61093E-09 3.34353E-10
 -1       973-2.17095E+05-6.07866E+00-1.55311E+03 1.05116E+04-2.97132E-09-2.47383E-09
 -1       974-2.17203E+05-6.31163E+00-8.04637E+02 1.48999E+04 1.29694E-09 1.41097E-09
 -1       975-2.17148E+05 2.28998E+01-4.01112E+02 1.05040E+04-5.12955E-10 5.27552E-09
 -1       976-2.17158E+05 2.62933E+01-2.29666E+02 1.49090E+04-1.31149E-09-2.60900E-09
 -1       977-2.17158E+05 2.21673E+01-1.63419E+02 1.05025E+04 1.61890E-09-3.55237E-09
 -1       978-2.17159E+05 2.95582E+01-1.86862E+02 1.49112E+04 9.00582E-09-2.17165E-09
 -1       979-2.17158E+05 2.69411E+01-2.96399E+02 1.05018E+04 6.34935E-09-6.70411E-10
 -1       980-2.17181E+05 3.12659E+01-5.69910E+02 1.49115E+04 5.60738E-09 4.67003E-09
 -1       981-2.17140E+05 4.11590E+01-1.10247E+03 1.05021E+04-2.07115E-09 6.79108E-10
 -1       982-2.17332E+05-4.99041E+01-2.27805E+03 1.49072E+04-4.05362E-09-4.05748E-10
 -1       983-2.17001E+05-2.89854E+01-4.42577E+03 1.05063E+04 1.93950E-09 1.80967E-09
 -1       984-2.19462E+05-2.36053E+03-9.91073E+03 1.48477E+04 1.02796E-09 1.80671E-09
 -1       985-2.14999E+05-3.26706E+03-1.81993E+04 1.05658E+04 1.68120E-09-1.34969E-09
 -3
    1PSTEP                         7           4           1          
  100CL  104 4.55078E-01         409                     0    4           1
 -4  DISP        4    1
 -5  D1          1    2    1    0
 -5  D2          1    2    2    0
 -5  D3          1    2    3    0
 -5  ALL         1    2    0    0    1ALL
 -1         1 1.21102E-04 0.00000E+00 0.00000E+00
 -1         2 1.11276E-04-4.62841E-31 3.30872E-24
 -1         3 1.04155E-04 7.03862E-28 6.61744E-24
 -1         5 7.42974E-05 1.59927E-27 3.30872E-24
 -1         8 9.65124E-05-8.85245E-07 0.00000E+00
 -1         9 9.81915E-05 6.10301E-07 0.00000E+00
 -1        10 9.64260E-05-1.42166E-06 0.00000E+00
 -1        12 7.38038E-05 4.96922E-07 0.00000E+00
 -1        15 6.70978E-05-9.78172E-07-4.13590E-25
 -1        16 7.04255E-05 4.65970E-07 0.00000E+00
 -1        17 7.16999E-05-2.99938E-06 0.00000E+00
 -1        18 7.13621E-05 4.99191E-07 0.00000E+00
 -1        19 7.23229E-05 9.91091E-07 0.00000E+00
 -1        20 7.24512E-05 1.44243E-05 0.00000E+00
 -1        21 7.19656E-05 2.72213E-05 1.65436E-24
 -1        24 1.80320E-05-4.07461E-06 0.00000E+00
 -1        25 6.98220E-05 6.13661E-07 0.00000E+00
 -1        26 7.07285E-05 1.38064E-06 0.00000E+00
 -1        27 6.93531E-05 1.22163E-05 0.00000E+00
 -1        28 6.89105E-05 2.67973E-05 0.00000E+00
 -1        32 0.00000E+00 0.00000E+00 0.00000E+00
 -1        33 6.79507E-05 1.85091E-06 0.00000E+00
 -1        34 6.66229E-05 1.21964E-05 0.00000E+00
 -1        35 6.53606E-05 2.65733E-05 0.00000E+00
 -1        51 1.19516E-04-1.45276E-07 0.00000E+00
 -1        52 1.16557E-04-2.86816E-07 0.00000E+00
 -1        53 1.12497E-04-4.29957E-07 0.00000E+00
 -1        54 1.07615E-04-5.76092E-07 3.30872E-24
 -1        55 1.02193E-04-7.25880E-07-1.44757E-24
 -1        56 1.20005E-04-7.27226E-07 0.00000E+00
 -1        57 1.19055E-04-1.97393E-06 0.00000E+00
 -1        58 1.18248E-04-3.59530E-06 0.00000E+00
 -1        59 1.17522E-04-5.45507E-06 1.32349E-23
 -1        60 1.16826E-04-7.39689E-06-2.64698E-23
 -1        61 1.16101E-04-9.26502E-06-1.32349E-23
 -1        62 1.15292E-04-1.09075E-05 2.64698E-23
 -1        63 1.14344E-04-1.21793E-05 0.00000E+00
 -1        64 1.13211E-04-1.29575E-05-5.29396E-23
 -1        65 1.11853E-04-1.31332E-05 0.00000E+00
 -1        66 1.10241E-04-1.26336E-05 0.00000E+00
 -1        67 1.08356E-04-1.14051E-05 1.32349E-23
 -1        68 1.06192E-04-9.43784E-06 0.00000E+00
 -1        69 1.03760E-04-6.74095E-06 1.32349E-23
 -1        70 1.01071E-04-3.37188E-06 0.00000E+00
 -1        86 1.10942E-04 1.09704E-07 0.00000E+00
 -1        87 1.09937E-04 2.18430E-07 1.65436E-24
 -1        88 1.08222E-04 3.26143E-07 0.00000E+00
 -1        89 1.05752E-04 4.28900E-07-2.58494E-26
 -1        90 1.02439E-04 5.30464E-07 0.00000E+00
 -1       121 1.03940E-04-2.35816E-07 0.00000E+00
 -1       122 1.03293E-04-4.71815E-07-3.30872E-24
 -1       123 1.02216E-04-7.08180E-07-6.61744E-24
 -1       124 1.00711E-04-9.45129E-07 0.00000E+00
 -1       125 9.87798E-05-1.18277E-06 0.00000E+00
 -1       191 7.42837E-05 8.28276E-08-3.30872E-24
 -1       192 7.42426E-05 1.65653E-07-1.65436E-24
 -1       193 7.41740E-05 2.48478E-07 3.30872E-24
 -1       194 7.40780E-05 3.31300E-07-1.65436E-24
 -1       195 7.39546E-05 4.14115E-07 0.00000E+00
 -1       251 9.65943E-05 3.16405E-06 3.30872E-24
 -1       252 9.66991E-05 5.53861E-06-2.58494E-26
 -1       253 9.68051E-05 6.54589E-06-1.65436E-24
 -1       254 9.69150E-05 6.48679E-06 1.65436E-24
 -1       255 9.70246E-05 5.59990E-06 3.30872E-24
 -1       256 9.71342E-05 4.12001E-06 0.00000E+00
 -1       257 9.72432E-05 2.24701E-06-3.30872E-24
 -1       258 9.73520E-05 1.78985E-07 0.00000E+00
 -1       259 9.74608E-05-1.89752E-06-3.30872E-24
 -1       260 9.75698E-05-3.79594E-06 0.00000E+00
 -1       261 9.76794E-05-5.31922E-06-3.30872E-24
 -1       262 9.77889E-05-6.26864E-06-1.65436E-24
 -1       263 9.78987E-05-6.41166E-06 0.00000E+00
 -1       264 9.80047E-05-5.51202E-06 2.58494E-26
 -1       265 9.81097E-05-3.27255E-06 0.00000E+00
 -1       266 9.16100E-05-9.12575E-07 0.00000E+00
 -1       267 8.67076E-05-9.26620E-07 0.00000E+00
 -1       268 8.18051E-05-9.41506E-07 1.65436E-24
 -1       269 7.69027E-05-9.53899E-07 4.13590E-25
 -1       270 7.20002E-05-9.66234E-07 4.13590E-25
 -1       271 9.35710E-05 2.81204E-06-2.64698E-23
 -1       272 9.10706E-05 5.20882E-06 0.00000E+00
 -1       273 8.90079E-05 6.45112E-06-5.29396E-23
 -1       274 8.73167E-05 6.68532E-06 0.00000E+00
 -1       275 8.59393E-05 6.08211E-06-5.29396E-23
 -1       276 8.48056E-05 4.82448E-06 2.64698E-23
 -1       277 8.38431E-05 3.10833E-06 5.29396E-23
 -1       278 8.29756E-05 1.13738E-06 0.00000E+00
 -1       279 8.21254E-05-8.79780E-07-5.29396E-23
 -1       280 8.12143E-05-2.73373E-06 2.64698E-23
 -1       281 8.01653E-05-4.21824E-06 0.00000E+00
 -1       282 7.89041E-05-5.13351E-06 2.64698E-23
 -1       283 7.73590E-05-5.29070E-06-5.29396E-23
 -1       284 7.54678E-05-4.51277E-06-2.64698E-23
 -1       285 7.31639E-05-2.64383E-06-2.64698E-23
 -1       301 9.34353E-05 5.80056E-07 0.00000E+00
 -1       302 8.86921E-05 5.64175E-07 0.00000E+00
 -1       303 8.39908E-05 5.48852E-07 0.00000E+00
 -1       304 7.93600E-05 5.32181E-07-3.30872E-24
 -1       305 7.48288E-05 5.13568E-07-1.32349E-23
 -1       306 9.51723E-05 4.14674E-06 2.64698E-23
 -1       307 9.25994E-05 6.35771E-06 0.00000E+00
 -1       308 9.05560E-05 7.17408E-06 5.29396E-23
 -1       309 8.90378E-05 6.56647E-06 0.00000E+00
 -1       310 8.79848E-05 4.71578E-06 0.00000E+00
 -1       311 8.73064E-05 1.85597E-06-2.64698E-23
 -1       312 8.68623E-05-1.63341E-06 0.00000E+00
 -1       313 8.65004E-05-5.34475E-06-2.64698E-23
 -1       314 8.60574E-05-8.83802E-06 5.29396E-23
 -1       315 8.53735E-05-1.16831E-05 2.64698E-23
 -1       316 8.43225E-05-1.35439E-05 0.00000E+00
 -1       317 8.27957E-05-1.41281E-05 0.00000E+00
 -1       318 8.07487E-05-1.33273E-05-5.29396E-23
 -1       319 7.81716E-05-1.10918E-05 0.00000E+00
 -1       320 7.51089E-05-7.58462E-06-2.64698E-23
 -1       336 9.35973E-05-1.68037E-06 0.00000E+00
 -1       337 9.02419E-05-1.94099E-06-3.30872E-24
 -1       338 8.63661E-05-2.20334E-06 0.00000E+00
 -1       339 8.19778E-05-2.46735E-06 0.00000E+00
 -1       340 7.70857E-05-2.73363E-06-6.61744E-24
 -1       406 7.36255E-05 5.79715E-07 0.00000E+00
 -1       407 7.34197E-05 6.62476E-07 1.65436E-24
 -1       408 7.31865E-05 7.45181E-07 0.00000E+00
 -1       409 7.29259E-05 8.27727E-07 0.00000E+00
 -1       410 7.26380E-05 9.09951E-07 0.00000E+00
 -1       521 6.74529E-05-7.02985E-08 5.29396E-23
 -1       522 6.71555E-05-8.08591E-06 0.00000E+00
 -1       523 6.90887E-05-2.22033E-05-1.05879E-22
 -1       524 7.25367E-05-4.05953E-05 0.00000E+00
 -1       525 7.65362E-05-6.05374E-05 1.05879E-22
 -1       526 8.00726E-05-7.91854E-05 0.00000E+00
 -1       527 8.22209E-05-9.39636E-05 1.05879E-22
 -1       528 8.21396E-05-1.02609E-04 0.00000E+00
 -1       529 7.94166E-05-1.04131E-04 1.05879E-22
 -1       530 7.38348E-05-9.81018E-05-5.29396E-23
 -1       531 6.57717E-05-8.56436E-05 0.00000E+00
 -1       532 5.58234E-05-6.83746E-05 0.00000E+00
 -1       533 4.49992E-05-4.88922E-05 0.00000E+00
 -1       534 3.44097E-05-2.99542E-05 2.64698E-23
 -1       535 2.50801E-05-1.42249E-05 0.00000E+00
 -1       536 7.16611E-05 2.08848E-06 3.30872E-24
 -1       537 7.16337E-05 6.09777E-06-8.27181E-25
 -1       538 7.16094E-05 9.07472E-06 0.00000E+00
 -1       539 7.15887E-05 1.10665E-05 0.00000E+00
 -1       540 7.15693E-05 1.21600E-05-8.27181E-25
 -1       541 7.15508E-05 1.24426E-05 0.00000E+00
 -1       542 7.15322E-05 1.20345E-05 8.27181E-25
 -1       543 7.15134E-05 1.10563E-05 2.06795E-25
 -1       544 7.14941E-05 9.65121E-06 4.13590E-25
 -1       545 7.14743E-05 7.96309E-06 0.00000E+00
 -1       546 7.14544E-05 6.14696E-06 4.13590E-25
 -1       547 7.14346E-05 4.35796E-06-2.06795E-25
 -1       548 7.14151E-05 2.75013E-06 4.13590E-25
 -1       549 7.13965E-05 1.47740E-06 0.00000E+00
 -1       550 7.13781E-05 6.80361E-07 0.00000E+00
 -1       551 6.46060E-05-3.16024E-06 3.30872E-24
 -1       552 5.61217E-05-3.32858E-06 3.30872E-24
 -1       553 4.67311E-05-3.50452E-06-3.30872E-24
 -1       554 3.69256E-05-3.68647E-06 3.30872E-24
 -1       555 2.71967E-05-3.87036E-06-2.64698E-23
 -1       556 6.98305E-05 1.84127E-06 0.00000E+00
 -1       557 6.83996E-05 5.54904E-06 0.00000E+00
 -1       558 6.73593E-05 8.22787E-06 0.00000E+00
 -1       559 6.66662E-05 9.98994E-06-6.61744E-24
 -1       560 6.62766E-05 1.09472E-05 0.00000E+00
 -1       561 6.61474E-05 1.12122E-05 0.00000E+00
 -1       562 6.62357E-05 1.08976E-05 0.00000E+00
 -1       563 6.64990E-05 1.01162E-05 0.00000E+00
 -1       564 6.68947E-05 8.98100E-06 0.00000E+00
 -1       565 6.73805E-05 7.60488E-06 0.00000E+00
 -1       566 6.79141E-05 6.10084E-06-8.27181E-25
 -1       567 6.84532E-05 4.58193E-06 2.06795E-25
 -1       568 6.89557E-05 3.16112E-06 0.00000E+00
 -1       569 6.93794E-05 1.95129E-06 0.00000E+00
 -1       570 6.96819E-05 1.06534E-06 0.00000E+00
 -1       571 7.14204E-05 5.67665E-07-1.24077E-24
 -1       572 7.14800E-05 5.96279E-07 4.13590E-25
 -1       573 7.15400E-05 5.92147E-07 0.00000E+00
 -1       574 7.16001E-05 5.62754E-07 4.13590E-25
 -1       575 7.16603E-05 5.15621E-07 1.65436E-24
 -1       576 7.17206E-05 4.58314E-07-8.27181E-25
 -1       577 7.17808E-05 3.98409E-07-1.65436E-24
 -1       578 7.18411E-05 3.43486E-07 1.65436E-24
 -1       579 7.19014E-05 3.01124E-07 0.00000E+00
 -1       580 7.19616E-05 2.78905E-07 0.00000E+00
 -1       581 7.20219E-05 2.84408E-07 0.00000E+00
 -1       582 7.20822E-05 3.25204E-07 0.00000E+00
 -1       583 7.21424E-05 4.08859E-07 0.00000E+00
 -1       584 7.22026E-05 5.42859E-07 0.00000E+00
 -1       585 7.22628E-05 7.34647E-07 0.00000E+00
 -1       586 7.10847E-05 5.19450E-07-8.27181E-25
 -1       587 7.07817E-05 5.39206E-07 0.00000E+00
 -1       588 7.04784E-05 5.58745E-07 0.00000E+00
 -1       589 7.02005E-05 5.77976E-07 0.00000E+00
 -1       590 6.99734E-05 5.96686E-07 0.00000E+00
 -1       591 7.13083E-05 5.98579E-07 1.03398E-25
 -1       592 7.12644E-05 6.65180E-07 0.00000E+00
 -1       593 7.12303E-05 7.05230E-07-4.13590E-25
 -1       594 7.12037E-05 7.24348E-07 0.00000E+00
 -1       595 7.11829E-05 7.28226E-07 0.00000E+00
 -1       596 7.11656E-05 7.22514E-07 2.06795E-25
 -1       597 7.11497E-05 7.12860E-07 0.00000E+00
 -1       598 7.11332E-05 7.04907E-07 2.06795E-25
 -1       599 7.11139E-05 7.04298E-07 4.13590E-25
 -1       600 7.10898E-05 7.16676E-07-2.06795E-25
 -1       601 7.10587E-05 7.47683E-07 2.06795E-25
 -1       602 7.10186E-05 8.02967E-07 2.06795E-25
 -1       603 7.09673E-05 8.88177E-07 1.03398E-25
 -1       604 7.09029E-05 1.00901E-06-1.03398E-25
 -1       605 7.08233E-05 1.17107E-06 0.00000E+00
 -1       606 7.23340E-05 1.38484E-06 0.00000E+00
 -1       607 7.23430E-05 1.86421E-06 1.65436E-24
 -1       608 7.23514E-05 2.42417E-06-3.30872E-24
 -1       609 7.23595E-05 3.05906E-06 0.00000E+00
 -1       610 7.23674E-05 3.76318E-06 3.30872E-24
 -1       611 7.23753E-05 4.53076E-06 0.00000E+00
 -1       612 7.23831E-05 5.35602E-06 0.00000E+00
 -1       613 7.23909E-05 6.23317E-06 0.00000E+00
 -1       614 7.23986E-05 7.15644E-06 0.00000E+00
 -1       615 7.24063E-05 8.12002E-06 0.00000E+00
 -1       616 7.24139E-05 9.11815E-06-1.65436E-24
 -1       617 7.24215E-05 1.01450E-05-4.13590E-25
 -1       618 7.24291E-05 1.11949E-05-8.27181E-25
 -1       619 7.24366E-05 1.22619E-05-2.06795E-25
 -1       620 7.24441E-05 1.33403E-05 0.00000E+00
 -1       621 7.20140E-05 1.05606E-06 0.00000E+00
 -1       622 7.17292E-05 1.12134E-06 0.00000E+00
 -1       623 7.14634E-05 1.18662E-06 0.00000E+00
 -1       624 7.12115E-05 1.25180E-06 0.00000E+00
 -1       625 7.09683E-05 1.31686E-06 1.65436E-24
 -1       626 7.22447E-05 1.40529E-06 0.00000E+00
 -1       627 7.21405E-05 1.89033E-06 0.00000E+00
 -1       628 7.20122E-05 2.43962E-06-3.30872E-24
 -1       629 7.18626E-05 3.04614E-06 0.00000E+00
 -1       630 7.16941E-05 3.70288E-06 3.30872E-24
 -1       631 7.15094E-05 4.40274E-06 0.00000E+00
 -1       632 7.13111E-05 5.13865E-06 0.00000E+00
 -1       633 7.11020E-05 5.90354E-06 0.00000E+00
 -1       634 7.08846E-05 6.69032E-06 0.00000E+00
 -1       635 7.06617E-05 7.49192E-06 0.00000E+00
 -1       636 7.04359E-05 8.30126E-06 1.65436E-24
 -1       637 7.02097E-05 9.11128E-06 8.27181E-25
 -1       638 6.99860E-05 9.91488E-06-1.65436E-24
 -1       639 6.97671E-05 1.07050E-05 8.27181E-25
 -1       640 6.95556E-05 1.14745E-05 8.27181E-25
 -1       656 7.15523E-05 1.40650E-05 6.61744E-24
 -1       657 7.09748E-05 1.36914E-05-3.30872E-24
 -1       658 7.05968E-05 1.33190E-05 6.61744E-24
 -1       659 7.02929E-05 1.29469E-05 3.30872E-24
 -1       660 6.99243E-05 1.25736E-05-6.61744E-24
 -1       661 7.21190E-05 1.54859E-05 0.00000E+00
 -1       662 7.18071E-05 1.65011E-05 0.00000E+00
 -1       663 7.15120E-05 1.74711E-05-1.65436E-24
 -1       664 7.12336E-05 1.83981E-05 0.00000E+00
 -1       665 7.09707E-05 1.92840E-05 1.65436E-24
 -1       666 7.07225E-05 2.01306E-05 0.00000E+00
 -1       667 7.04885E-05 2.09399E-05 0.00000E+00
 -1       668 7.02679E-05 2.17134E-05-8.27181E-25
 -1       669 7.00601E-05 2.24529E-05 0.00000E+00
 -1       670 6.98644E-05 2.31599E-05-8.27181E-25
 -1       671 6.96804E-05 2.38359E-05 1.65436E-24
 -1       672 6.95073E-05 2.44824E-05-8.27181E-25
 -1       673 6.93448E-05 2.51007E-05 0.00000E+00
 -1       674 6.91918E-05 2.56918E-05 8.27181E-25
 -1       675 6.90485E-05 2.62575E-05 0.00000E+00
 -1       676 7.14552E-05 2.71502E-05 1.65436E-24
 -1       677 7.09450E-05 2.70791E-05 0.00000E+00
 -1       678 7.04352E-05 2.70081E-05 0.00000E+00
 -1       679 6.99261E-05 2.69373E-05 0.00000E+00
 -1       680 6.94178E-05 2.68665E-05 0.00000E+00
 -1       771 1.43502E-05 2.95792E-06 0.00000E+00
 -1       772 1.11452E-05 8.71764E-06 0.00000E+00
 -1       773 8.39770E-06 1.32752E-05 2.64698E-23
 -1       774 6.07722E-06 1.67058E-05-1.32349E-23
 -1       775 4.15397E-06 1.90867E-05-2.64698E-23
 -1       776 2.59679E-06 2.04976E-05 1.32349E-23
 -1       777 1.37414E-06 2.10200E-05-2.64698E-23
 -1       778 4.53777E-07 2.07376E-05 1.32349E-23
 -1       779-1.96790E-07 1.97353E-05-2.64698E-23
 -1       780-6.10627E-07 1.81001E-05 1.32349E-23
 -1       781-8.20927E-07 1.59200E-05-2.64698E-23
 -1       782-8.61327E-07 1.32843E-05-1.32349E-23
 -1       783-7.65540E-07 1.02831E-05 0.00000E+00
 -1       784-5.67515E-07 7.00743E-06 1.32349E-23
 -1       785-3.01329E-07 3.54895E-06 2.64698E-23
 -1       786 6.98753E-05 5.93410E-07 0.00000E+00
 -1       787 6.99319E-05 5.77700E-07 0.00000E+00
 -1       788 6.99882E-05 5.66380E-07 0.00000E+00
 -1       789 7.00451E-05 5.59310E-07 0.00000E+00
 -1       790 7.01020E-05 5.56907E-07 1.65436E-24
 -1       791 7.01591E-05 5.59600E-07 0.00000E+00
 -1       792 7.02161E-05 5.68489E-07 0.00000E+00
 -1       793 7.02732E-05 5.84687E-07 0.00000E+00
 -1       794 7.03303E-05 6.10271E-07-1.65436E-24
 -1       795 7.03874E-05 6.47339E-07-8.27181E-25
 -1       796 7.04445E-05 6.99500E-07 1.65436E-24
 -1       797 7.05016E-05 7.70402E-07 0.00000E+00
 -1       798 7.05586E-05 8.66153E-07-1.65436E-24
 -1       799 7.06155E-05 9.92926E-07 8.27181E-25
 -1       800 7.06724E-05 1.16097E-06 0.00000E+00
 -1       801 6.51050E-05 5.92377E-07-8.27181E-25
 -1       802 5.10280E-05 4.86093E-07-8.27181E-25
 -1       803 3.25417E-05 3.14383E-07 0.00000E+00
 -1       804 1.45987E-05 1.45656E-07 0.00000E+00
 -1       805 2.11236E-06 5.41340E-08 1.32349E-23
 -1       806 6.97600E-05 5.53542E-07-1.65436E-24
 -1       807 6.96949E-05 4.93853E-07 8.27181E-25
 -1       808 6.96275E-05 4.39016E-07 0.00000E+00
 -1       809 6.95566E-05 3.92780E-07 0.00000E+00
 -1       810 6.94809E-05 3.58885E-07 1.65436E-24
 -1       811 6.93992E-05 3.41016E-07 8.27181E-25
 -1       812 6.93101E-05 3.42852E-07 0.00000E+00
 -1       813 6.92122E-05 3.68065E-07 0.00000E+00
 -1       814 6.91042E-05 4.20325E-07 1.65436E-24
 -1       815 6.89846E-05 5.03297E-07 0.00000E+00
 -1       816 6.88522E-05 6.20644E-07 0.00000E+00
 -1       817 6.87055E-05 7.76029E-07 8.27181E-25
 -1       818 6.85431E-05 9.73111E-07-1.65436E-24
 -1       819 6.83640E-05 1.21554E-06 0.00000E+00
 -1       820 6.81666E-05 1.50695E-06 0.00000E+00
 -1       821 7.06476E-05 1.62356E-06 0.00000E+00
 -1       822 7.05616E-05 1.86199E-06-8.27181E-25
 -1       823 7.04760E-05 2.13169E-06 1.65436E-24
 -1       824 7.03895E-05 2.46830E-06-1.65436E-24
 -1       825 7.03028E-05 2.89540E-06 3.30872E-24
 -1       826 7.02160E-05 3.43621E-06 0.00000E+00
 -1       827 7.01290E-05 4.09349E-06 3.30872E-24
 -1       828 7.00419E-05 4.86955E-06 0.00000E+00
 -1       829 6.99548E-05 5.74529E-06 0.00000E+00
 -1       830 6.98676E-05 6.70123E-06 0.00000E+00
 -1       831 6.97804E-05 7.70347E-06 3.30872E-24
 -1       832 6.96933E-05 8.71792E-06 0.00000E+00
 -1       833 6.96063E-05 9.70825E-06-1.65436E-24
 -1       834 6.95204E-05 1.06383E-05 0.00000E+00
 -1       835 6.94342E-05 1.14827E-05 8.27181E-25
 -1       836 7.03972E-05 1.45893E-06 0.00000E+00
 -1       837 6.99624E-05 1.53895E-06 0.00000E+00
 -1       838 6.94621E-05 1.61882E-06-1.65436E-24
 -1       839 6.89345E-05 1.69818E-06 8.27181E-25
 -1       840 6.84180E-05 1.77741E-06-2.06795E-25
 -1       856 6.93286E-05 1.29450E-05-2.06795E-25
 -1       857 6.93013E-05 1.37680E-05 0.00000E+00
 -1       858 6.92740E-05 1.46707E-05 0.00000E+00
 -1       859 6.92462E-05 1.56379E-05 4.13590E-25
 -1       860 6.92183E-05 1.66547E-05 8.27181E-25
 -1       861 6.91903E-05 1.77060E-05-4.13590E-25
 -1       862 6.91623E-05 1.87767E-05 8.27181E-25
 -1       863 6.91342E-05 1.98517E-05 0.00000E+00
 -1       864 6.91062E-05 2.09159E-05-8.27181E-25
 -1       865 6.90781E-05 2.19541E-05-4.13590E-25
 -1       866 6.90501E-05 2.29513E-05 8.27181E-25
 -1       867 6.90221E-05 2.38924E-05 0.00000E+00
 -1       868 6.89942E-05 2.47624E-05 8.27181E-25
 -1       869 6.89663E-05 2.55464E-05 0.00000E+00
 -1       870 6.89385E-05 2.62296E-05-8.27181E-25
 -1       871 6.88021E-05 1.22155E-05 0.00000E+00
 -1       872 6.83418E-05 1.22129E-05 0.00000E+00
 -1       873 6.79332E-05 1.22099E-05 0.00000E+00
 -1       874 6.75368E-05 1.22065E-05 1.03398E-25
 -1       875 6.71130E-05 1.22026E-05-4.13590E-25
 -1       876 6.91623E-05 1.29528E-05 1.65436E-24
 -1       877 6.89562E-05 1.37353E-05 0.00000E+00
 -1       878 6.87351E-05 1.45581E-05 0.00000E+00
 -1       879 6.85009E-05 1.54162E-05 0.00000E+00
 -1       880 6.82555E-05 1.63043E-05 0.00000E+00
 -1       881 6.80008E-05 1.72172E-05 0.00000E+00
 -1       882 6.77387E-05 1.81498E-05 3.30872E-24
 -1       883 6.74712E-05 1.90969E-05 0.00000E+00
 -1       884 6.72001E-05 2.00533E-05 3.30872E-24
 -1       885 6.69275E-05 2.10138E-05 8.27181E-25
 -1       886 6.66552E-05 2.19734E-05 1.65436E-24
 -1       887 6.63852E-05 2.29268E-05-8.27181E-25
 -1       888 6.61193E-05 2.38688E-05 0.00000E+00
 -1       889 6.58592E-05 2.47942E-05 8.27181E-25
 -1       890 6.56068E-05 2.56978E-05 0.00000E+00
 -1       891 6.84217E-05 2.67598E-05-8.27181E-25
 -1       892 6.79166E-05 2.67222E-05 0.00000E+00
 -1       893 6.73766E-05 2.66846E-05 0.00000E+00
 -1       894 6.67830E-05 2.66472E-05 2.06795E-25
 -1       895 6.61171E-05 2.66097E-05-4.13590E-25
 -1       956 6.78693E-05 2.30217E-06 0.00000E+00
 -1       957 6.77865E-05 2.80668E-06-8.27181E-25
 -1       958 6.77035E-05 3.35891E-06 0.00000E+00
 -1       959 6.76203E-05 3.95299E-06-8.27181E-25
 -1       960 6.75371E-05 4.58306E-06 0.00000E+00
 -1       961 6.74538E-05 5.24319E-06-8.27181E-25
 -1       962 6.73704E-05 5.92746E-06-1.65436E-24
 -1       963 6.72871E-05 6.62997E-06-8.27181E-25
 -1       964 6.72037E-05 7.34479E-06 3.30872E-24
 -1       965 6.71204E-05 8.06600E-06 0.00000E+00
 -1       966 6.70371E-05 8.78768E-06 3.30872E-24
 -1       967 6.69537E-05 9.50391E-06-1.65436E-24
 -1       968 6.68705E-05 1.02088E-05 3.30872E-24
 -1       969 6.67874E-05 1.08964E-05 0.00000E+00
 -1       970 6.67045E-05 1.15608E-05 0.00000E+00
 -1       971 6.65450E-05 1.28495E-05 0.00000E+00
 -1       972 6.64661E-05 1.35728E-05 0.00000E+00
 -1       973 6.63870E-05 1.43584E-05 0.00000E+00
 -1       974 6.63078E-05 1.51983E-05 0.00000E+00
 -1       975 6.62284E-05 1.60844E-05-3.30872E-24
 -1       976 6.61491E-05 1.70087E-05-1.65436E-24
 -1       977 6.60697E-05 1.79630E-05-1.65436E-24
 -1       978 6.59902E-05 1.89394E-05-8.27181E-25
 -1       979 6.59108E-05 1.99297E-05 0.00000E+00
 -1       980 6.58314E-05 2.09259E-05 0.00000E+00
 -1       981 6.57520E-05 2.19198E-05 0.00000E+00
 -1       982 6.56727E-05 2.29034E-05-1.65436E-24
 -1       983 6.55935E-05 2.38686E-05 0.00000E+00
 -1       984 6.55146E-05 2.48073E-05 0.00000E+00
 -1       985 6.54361E-05 2.57115E-05-1.65436E-24
 -3
    1PSTEP                         8           4           1          
  100CL  104 4.55078E-01         409                     0    4           1
 -4  STRESS      6    1
 -5  SXX         1    4    1    1
 -5  SYY         1    4    2    2
 -5  SZZ         1    4    3    3
 -5  SXY         1    4    1    2
 -5  SYZ         1    4    2    3
 -5  SZX         1    4    3    1
 -1         1-1.60012E+06-7.31005E+05-3.26613E+05-1.02886E+06 4.03816E-10 9.15315E-09
 -1         2 2.69579E+03 3.17616E+05 8.83490E+03 9.04435E+02-1.53960E-10-4.46244E-09
 -1         3-7.71667E+01-6.73677E+05 1.57343E+02-2.31428E+02-1.42741E-10-6.57565E-10
 -1         5-5.95412E+00 2.37001E+05 6.21126E+00 9.85005E-02 1.08641E-10 8.88258E-09
 -1         8-7.24274E+05-3.17222E+05-2.06252E+04-5.59974E+05-3.18323E-10 4.58385E-09
 -1         9-1.28087E+06-3.23027E+05-1.24786E+05-4.40607E+05 3.23926E-09-2.97441E-09
 -1        10-5.40748E+02-7.01829E+05-9.19949E+02-1.56031E+03-3.22689E-09-1.40227E-08
 -1        12-3.40845E+00 2.37014E+05 2.01436E+02 9.31912E-01 1.68349E-10-9.17908E-10
 -1        15 1.96212E+03 1.07831E+03 6.34251E+03 4.15966E+00 2.56796E-09 5.93157E-07
 -1        16-3.52328E+06-1.16464E+06-5.51683E+05-1.18783E+06 1.10643E-08-4.05513E-09
 -1        17-8.03526E+05-4.89845E+05-1.55207E+05-4.56187E+05-5.54719E-09 3.00643E-09
 -1        18 1.62069E+04-2.52364E+02-1.40933E+04-5.60892E+04 7.39988E-10-3.35513E-09
 -1        19 7.42310E+04 8.85166E+04-4.18762E+02 1.45128E+04-5.86806E-10-2.11148E-09
 -1        20-3.09887E+04-3.50724E+05-7.73633E+04 2.58299E+04 2.18082E-09 2.91341E-09
 -1        21-3.31050E+01-2.03195E+05-6.56239E+02-7.11342E+01-8.00405E-09-6.35973E-09
 -1        24-3.17611E+06-1.03902E+06-4.46622E+05-1.26979E+06-1.70282E-08-1.13311E-08
 -1        25 2.68873E+04-1.06676E+04 1.49182E+04-1.01456E+05 3.52338E-10 2.29938E-09
 -1        26-1.72019E+04 6.04615E+04-1.19771E+04-8.65404E+03 1.49557E-09 2.75929E-09
 -1        27-5.61283E+04-1.92416E+05-7.21847E+04 4.33606E+04 5.32327E-09-1.70621E-09
 -1        28 1.57296E+04-5.61303E+04 1.14778E+04 1.79811E+04 3.78100E-09 2.79957E-09
 -1        32-7.50974E+05-1.24275E+05 3.21294E+05-5.08252E+05-1.55633E-08 1.20294E-08
 -1        33-1.10028E+05 5.65819E+04 2.00569E+04-3.28590E+04 1.02528E-09 5.61067E-09
 -1        34-1.42848E+05-1.42195E+04 3.34898E+02 4.39259E+04 2.86790E-09-1.97633E-09
 -1        35-1.59956E+04-2.23090E+04-8.73911E+02 3.53951E+04 4.92901E-09-5.56611E-10
 -1        51 1.31375E+04-3.66435E+05 3.53034E+04-9.18742E+05-7.27596E-11-2.11003E-09
 -1        52 8.52827E+03-3.65499E+05 2.37636E+04-1.07581E+06-5.16593E-10-1.57161E-09
 -1        53 6.45565E+03-3.77762E+05 2.06163E+04-9.15507E+05 3.12866E-10 1.00408E-09
 -1        54 1.87459E+04-3.76519E+05 3.35610E+04-1.07917E+06-1.89175E-10-4.26007E-09
 -1        55 3.68426E+04-3.89397E+05 6.00850E+04-9.14999E+05 1.16415E-10-1.61890E-09
 -1        56-3.07379E+06-3.46552E+05-2.40504E+05-1.18451E+06-2.51021E-10 9.53150E-09
 -1        57-3.16758E+06-5.66915E+05-1.62109E+05-1.17837E+06 1.31877E-10-3.11047E-09
 -1        58-3.12277E+06-4.22041E+05-5.65887E+04-1.16859E+06 4.40195E-10-2.31375E-09
 -1        59-3.11084E+06-4.78428E+05-3.37794E+04-1.19750E+06-1.08514E-09-2.77259E-09
 -1        60-3.13003E+06-4.32442E+05-1.32151E+04-1.16629E+06 6.03450E-10-5.16729E-09
 -1        61-3.10370E+06-4.64920E+05-7.50973E+03-1.19861E+06 4.17185E-09 1.41558E-08
 -1        62-3.12978E+06-4.35236E+05-3.63078E+03-1.16755E+06 1.03228E-10 6.08743E-09
 -1        63-3.10654E+06-4.59310E+05-2.95975E+03-1.19405E+06-1.03682E-10-6.34702E-09
 -1        64-3.12706E+06-4.38089E+05-3.45436E+03-1.17078E+06 4.42242E-10-4.51223E-09
 -1        65-3.11385E+06-4.54047E+05-6.83458E+03-1.18612E+06 5.42741E-10-4.18731E-09
 -1        66-3.12236E+06-4.40612E+05-1.21239E+04-1.17539E+06 1.76396E-09 4.40195E-10
 -1        67-3.12904E+06-4.57506E+05-3.06701E+04-1.17496E+06-1.02182E-09 1.53364E-08
 -1        68-3.11192E+06-4.34965E+05-5.15603E+04-1.18181E+06 2.60616E-09 1.01500E-09
 -1        69-3.18676E+06-5.32140E+05-1.47447E+05-1.15107E+06 1.56433E-09-2.21917E-10
 -1        70-3.06523E+06-3.68255E+05-2.18853E+05-1.19853E+06-9.45874E-10-2.91038E-10
 -1        86-1.35389E+03 3.14773E+05 9.44046E+03-4.52246E+02 1.10526E-09 1.28296E-09
 -1        87 8.98235E+03 3.20722E+05 1.97339E+04 1.87789E+03 1.85128E-09-1.30728E-09
 -1        88-7.62453E+03 3.11672E+05 3.01650E+04-1.42573E+03 2.84672E-09 1.68774E-09
 -1        89 5.68218E+04 3.43146E+05 8.14310E+04 4.12270E+03 4.30646E-09-5.58626E-09
 -1        90-4.90440E+04 2.92374E+05 1.14941E+05-2.69653E+03 5.04224E-09 9.01514E-09
 -1       121-1.22414E+02-6.74030E+05 1.28339E+02 1.15579E+02 3.27120E-10 5.12046E-10
 -1       122-2.49832E+01-6.73645E+05 3.40970E+02-4.62749E+02-1.33853E-09-2.71302E-09
 -1       123-1.58603E+02-6.74067E+05 5.29972E+02 3.46369E+02 1.08508E-09-8.07722E-09
 -1       124 6.04994E+02-6.73266E+05 1.42360E+03-1.04271E+03-2.40425E-09 1.57584E-08
 -1       125-5.64433E+02-6.74422E+05 2.16067E+03 6.95254E+02 1.64982E-09-6.38829E-09
 -1       191-6.45612E+00 2.37021E+05 7.35028E+00-4.99590E-02 1.58879E-10 7.28187E-09
 -1       192-6.52547E+00 2.37002E+05 1.31550E+01 6.44183E-01 2.36184E-10 1.56890E-08
 -1       193-7.97499E+00 2.37021E+05 2.43929E+01-5.98984E-01 2.11729E-10 1.20149E-08
 -1       194-8.36400E+00 2.37004E+05 4.97676E+01 1.59899E+00 1.29727E-10 2.89378E-09
 -1       195-1.08939E+01 2.37019E+05 9.72761E+01-1.01232E+00 3.65105E-10-2.77396E-10
 -1       251 2.94056E+05-4.76411E+04 1.11110E+05 5.34411E+03-2.62617E-10 4.24916E-09
 -1       252 3.45496E+05 5.50909E+04 7.89659E+04-1.60083E+04 1.52681E-10-6.14455E-09
 -1       253 3.13456E+05-7.37110E+03 2.87543E+04 3.33050E+03-4.38718E-10-4.84761E-09
 -1       254 3.22572E+05 8.51042E+03 1.82173E+04-1.28590E+04-1.02546E-10-1.34548E-08
 -1       255 3.16856E+05-1.13688E+03 7.43136E+03 2.19506E+03 1.99748E-10-3.34967E-09
 -1       256 3.18486E+05 1.35233E+03 4.52769E+03-1.11893E+04 1.45837E-09-5.57765E-09
 -1       257 3.17491E+05-1.98206E+02 2.33008E+03 1.66081E+03 5.82659E-10-3.03720E-09
 -1       258 3.17837E+05 4.26815E+02 2.06915E+03-1.06434E+04-3.54814E-10-3.02702E-10
 -1       259 3.17491E+05-2.03137E+02 2.37677E+03 1.64918E+03-3.11289E-10-8.58222E-10
 -1       260 3.18495E+05 1.39603E+03 4.65804E+03-1.11424E+04 4.60076E-10-6.90437E-09
 -1       261 3.16846E+05-1.17458E+03 7.67355E+03 2.15977E+03 1.68473E-09 8.38099E-10
 -1       262 3.22676E+05 8.79562E+03 1.88078E+04-1.27578E+04 2.76600E-10 5.73436E-09
 -1       263 3.13358E+05-7.61537E+03 2.97166E+04 3.26464E+03-9.38371E-10-3.57250E-09
 -1       264 3.46274E+05 5.69206E+04 8.15602E+04-1.58394E+04-2.74579E-09 2.44108E-09
 -1       265 2.93370E+05-4.92145E+04 1.14825E+05 5.24107E+03-1.37675E-09 6.29370E-09
 -1       266-3.55196E+04-1.66065E+04 8.33510E+04-8.90150E+01 4.25280E-09 9.12741E-07
 -1       267 4.11781E+04 1.93591E+04 5.89052E+04 1.02692E+02 8.42283E-09 1.81022E-06
 -1       268-5.52185E+03-2.74156E+03 2.18952E+04-1.30855E+01 6.77301E-09 1.44761E-06
 -1       269 6.51977E+03 3.28132E+03 1.42312E+04 1.52418E+01 5.06316E-09 1.09637E-06
 -1       270-9.78609E+02-5.39122E+02 6.86960E+03-2.06846E+00 3.68004E-09 8.10475E-07
 -1       271-3.45297E+06-4.32717E+05-2.65270E+05-1.34730E+06-1.05501E-10 2.60479E-09
 -1       272-3.53053E+06-6.43200E+05-1.70465E+05-1.36423E+06 1.40585E-09-8.82574E-09
 -1       273-3.50467E+06-4.96920E+05-6.26768E+04-1.33345E+06 7.27141E-10 5.72254E-09
 -1       274-3.46965E+06-5.65051E+05-3.50207E+04-1.38605E+06 1.46520E-09 2.81943E-10
 -1       275-3.51343E+06-5.01802E+05-1.45836E+04-1.32931E+06 7.68523E-10-3.86626E-09
 -1       276-3.45919E+06-5.59576E+05-7.72287E+03-1.39288E+06-1.24874E-09-6.02995E-10
 -1       277-3.51576E+06-5.01029E+05-3.78249E+03-1.32748E+06 3.37877E-10-1.81683E-09
 -1       278-3.45698E+06-5.60197E+05-2.74397E+03-1.39515E+06 3.08165E-09 1.80989E-10
 -1       279-3.51595E+06-5.00893E+05-2.94588E+03-1.32731E+06 9.02901E-10-2.56637E-09
 -1       280-3.45836E+06-5.59769E+05-5.39897E+03-1.39370E+06-1.66551E-09 5.51495E-09
 -1       281-3.51417E+06-5.01644E+05-9.91233E+03-1.32877E+06 6.15728E-10 8.91578E-09
 -1       282-3.46611E+06-5.62604E+05-2.36181E+04-1.38799E+06 6.95763E-11 1.09189E-08
 -1       283-3.50760E+06-4.99093E+05-4.22652E+04-1.33230E+06 9.81345E-10 7.05768E-10
 -1       284-3.50857E+06-6.13498E+05-1.14770E+05-1.37110E+06 1.41881E-10-5.42786E-09
 -1       285-3.47170E+06-4.57063E+05-1.78790E+05-1.34286E+06 6.18456E-10-2.67028E-09
 -1       301 1.36307E+04-1.16383E+04 1.05003E+05-3.45272E+04-1.10958E-09 5.28291E-09
 -1       302 1.46860E+04 1.49388E+04 7.56486E+04-5.08591E+04 1.23714E-09 2.91402E-09
 -1       303 7.74885E+02-2.17381E+03 6.93765E+04-3.46219E+04-8.94943E-10-6.55791E-09
 -1       304 2.72082E+04 2.65440E+04 1.16418E+05-5.06923E+04 9.18590E-10 5.56611E-09
 -1       305 2.68881E+04-2.30815E+04 1.95248E+05-3.46045E+04-8.00355E-10 3.26236E-09
 -1       306-3.75471E+06-4.38602E+05-2.86213E+05-1.47339E+06 2.39379E-09-1.32859E-08
 -1       307-3.91157E+06-6.70418E+05-1.95040E+05-1.41205E+06 5.41331E-09 3.66163E-09
 -1       308-3.82434E+06-5.23180E+05-6.74096E+04-1.44149E+06 1.88356E-09 8.97126E-09
 -1       309-3.82220E+06-5.80928E+05-4.06403E+04-1.45975E+06-1.99196E-09 1.35838E-08
 -1       310-3.84364E+06-5.26341E+05-1.58412E+04-1.42627E+06 7.91488E-10-1.38243E-09
 -1       311-3.79668E+06-5.80887E+05-9.10601E+03-1.48210E+06 4.56964E-09 1.40653E-09
 -1       312-3.85011E+06-5.22738E+05-4.46261E+03-1.41944E+06 3.34580E-10 4.75484E-09
 -1       313-3.79211E+06-5.82464E+05-4.01171E+03-1.48675E+06-1.34571E-09-2.43301E-09
 -1       314-3.84830E+06-5.24662E+05-4.87942E+03-1.42171E+06-3.01782E-09-6.13386E-09
 -1       315-3.80337E+06-5.74288E+05-1.01314E+04-1.47377E+06 3.99041E-10 6.58292E-09
 -1       316-3.83858E+06-5.31144E+05-1.79677E+04-1.43221E+06 2.11503E-09 4.55839E-09
 -1       317-3.83491E+06-5.72122E+05-4.60366E+04-1.44609E+06 4.96073E-10-6.31644E-09
 -1       318-3.81660E+06-5.27297E+05-7.63775E+04-1.44911E+06-4.64752E-09 1.06593E-08
 -1       319-3.93409E+06-6.76466E+05-2.21229E+05-1.39572E+06-3.41061E-10 9.09495E-09
 -1       320-3.74010E+06-4.28615E+05-3.24324E+05-1.48209E+06 7.81438E-09-3.05590E-10
 -1       336 4.79472E+02-7.29676E+05-3.95636E+03 8.63122E+02-6.51062E-09-2.01362E-09
 -1       337-1.44172E+03-7.30653E+05-4.35564E+03-2.20676E+03-1.21559E-08-4.07090E-09
 -1       338 3.18101E+02-7.29781E+05-5.56920E+03 1.33887E+03-8.56289E-09-3.41424E-09
 -1       339-5.76751E+03-7.33338E+05-1.21942E+04-3.14539E+03-1.58818E-08-2.35195E-09
 -1       340 3.88703E+03-7.27056E+05-1.88316E+04 1.79518E+03-1.05024E-08 4.13820E-09
 -1       406 1.19048E+01 2.37010E+05 3.97611E+02 6.21930E-02 5.28132E-10 8.34098E-09
 -1       407 1.35261E+02 2.37084E+05 8.45233E+02-8.26454E+00 9.70886E-11 1.61028E-08
 -1       408 4.31628E+02 2.36949E+05 1.68801E+03 8.35118E+00 6.36192E-10 1.03100E-08
 -1       409 1.82214E+03 2.37623E+05 3.80038E+03-7.98505E+01 4.32010E-12 1.62822E-09
 -1       410 5.24141E+03 2.36469E+05 7.75828E+03 7.43627E+01 5.58430E-10-1.67256E-09
 -1       521-7.11776E+06-7.86341E+05-5.37226E+05-2.70843E+06 4.63479E-09-4.22006E-09
 -1       522-7.14479E+06-1.40675E+06-3.54048E+05-2.83238E+06-1.20613E-08-3.89991E-09
 -1       523-7.29986E+06-8.65908E+05-1.26196E+05-2.56472E+06-3.01497E-10-6.87578E-09
 -1       524-6.94167E+06-1.31352E+06-7.36233E+04-3.01975E+06 1.56895E-08-1.91822E-08
 -1       525-7.33204E+06-8.66508E+05-2.85373E+04-2.53130E+06 1.06211E-08-1.54196E-08
 -1       526-6.94612E+06-1.24998E+06-1.36084E+04-2.97850E+06 1.68075E-09 1.85537E-10
 -1       527-7.29043E+06-9.32308E+05-1.26811E+04-2.60273E+06 1.24455E-08 2.31830E-09
 -1       528-7.07504E+06-1.08285E+06 9.56670E+02-2.77036E+06-7.13044E-09 7.50060E-09
 -1       529-7.18993E+06-1.04299E+06-1.54801E+04-2.72968E+06 2.65572E-10-1.46429E-09
 -1       530-7.29394E+06-8.77946E+05-9.91479E+03-2.53732E+06-1.21327E-08 8.85484E-09
 -1       531-7.07501E+06-1.13468E+06-3.13894E+04-2.83803E+06-2.16805E-08 6.30098E-09
 -1       532-7.48159E+06-7.70802E+05-7.26208E+04-2.39909E+06 6.84122E-09-1.78006E-08
 -1       533-7.01587E+06-1.14122E+06-1.22546E+05-2.87810E+06 5.38057E-09-2.82162E-08
 -1       534-7.58153E+06-9.90620E+05-3.54385E+05-2.37662E+06-8.43465E-09 2.24027E-08
 -1       535-6.97484E+06-9.20073E+05-5.29127E+05-2.85798E+06-1.00845E-08 1.76078E-08
 -1       536-6.15296E+04-1.82160E+04 4.19102E+04-7.55819E+01-8.05130E-10 6.75755E-09
 -1       537-4.16675E+04 2.10808E+04 2.99425E+04-9.16634E+02-7.01328E-09 3.59887E-09
 -1       538-5.44010E+04-2.85937E+03 1.07781E+04 1.17548E+02-7.22196E-10 1.52340E-09
 -1       539-5.01166E+04 3.30107E+03 6.97416E+03-1.32424E+03 3.15070E-09-1.99714E-09
 -1       540-5.30908E+04-4.47224E+02 2.69425E+03 3.32021E+02 1.29276E-10-7.76822E-10
 -1       541-5.17932E+04 5.08678E+02 1.67009E+03-1.70722E+03 1.57058E-10 6.14628E-09
 -1       542-5.27349E+04-6.54215E+01 6.17091E+02 5.00549E+02-9.64079E-10-4.24504E-09
 -1       543-5.23181E+04 5.34940E+01 3.07652E+02-1.97993E+03 2.20549E-10-2.17457E-09
 -1       544-5.25736E+04 1.24810E+01-3.54665E+01 6.04792E+02-5.55715E-11-5.61852E-09
 -1       545-5.25839E+04-1.39854E+02-3.71649E+02-2.11549E+03-1.09353E-09-1.68983E-09
 -1       546-5.24721E+04 1.31871E+02-7.64159E+02 6.36149E+02 4.18122E-10-6.36078E-11
 -1       547-5.29700E+04-9.59638E+02-1.96361E+03-2.10272E+03-2.43950E-09-4.33459E-10
 -1       548-5.21867E+04 8.31776E+02-3.17658E+03 5.92031E+02-3.00231E-09 2.08775E-09
 -1       549-5.51698E+04-6.12521E+03-8.63217E+03-1.93932E+03-1.48066E-09 6.28552E-09
 -1       550-5.02684E+04 5.28902E+03-1.23164E+04 4.72724E+02 4.74643E-12-4.78030E-09
 -1       551 8.04041E+03-3.79133E+05 2.02621E+04-6.46123E+05-2.84672E-08 7.40692E-09
 -1       552 1.75314E+04-3.81612E+05 2.70120E+04-9.19700E+05-2.16023E-08 2.39706E-08
 -1       553 1.18530E+04-3.86588E+05 4.20866E+04-6.43946E+05-3.58123E-08 2.05546E-08
 -1       554 3.90612E+04-3.69838E+05 8.94858E+04-9.20620E+05-2.21917E-08 7.62589E-09
 -1       555 3.77988E+04-4.03680E+05 1.60630E+05-6.44702E+05-3.45026E-08-5.85715E-10
 -1       556 5.63834E+04-1.22686E+05 4.16449E+04-1.61281E+05-5.95901E-09-2.99042E-09
 -1       557 1.06030E+05-1.63933E+05 2.18764E+04-2.01855E+05-2.11003E-09-4.44697E-09
 -1       558 5.63085E+04-1.28295E+05 8.84459E+03-1.56449E+05-2.91766E-09 2.97769E-09
 -1       559 9.94091E+04-1.69650E+05 4.49065E+03-2.04765E+05 6.08634E-09-1.19144E-09
 -1       560 5.49022E+04-1.27358E+05 1.85527E+03-1.57325E+05-2.69210E-10 5.12500E-09
 -1       561 9.72001E+04-1.69099E+05 9.87013E+02-2.06161E+05-2.11003E-09 1.09030E-08
 -1       562 5.37657E+04-1.26594E+05 3.74692E+02-1.58145E+05-4.35830E-09-1.85878E-09
 -1       563 9.58643E+04-1.68526E+05 2.36940E+02-2.07015E+05 4.96584E-10 8.81369E-09
 -1       564 5.30590E+04-1.26137E+05 8.38671E+01-1.58647E+05-3.00133E-09 4.26553E-10
 -1       565 9.51723E+04-1.68230E+05 5.26774E+01-2.07450E+05-1.35606E-09 1.24464E-08
 -1       566 5.28086E+04-1.25970E+05-1.99746E+01-1.58829E+05-6.96036E-09-3.54157E-09
 -1       567 9.50848E+04-1.68187E+05-1.05367E+02-2.07445E+05 6.46378E-09 1.26602E-08
 -1       568 5.30458E+04-1.26126E+05-3.05007E+02-1.58720E+05-2.16460E-09-1.23691E-10
 -1       569 9.49929E+04-1.68082E+05-7.13489E+02-2.06471E+05-3.49246E-09-5.21322E-09
 -1       570 5.42686E+04-1.27246E+05-1.52028E+03-1.58697E+05 5.78439E-10-8.73115E-11
 -1       571 1.71832E+05 6.23650E+03 9.24161E+03-4.34622E+04-2.78760E-10 1.85605E-09
 -1       572 1.73206E+05 2.16921E+03 4.52778E+03-4.76419E+04-1.08230E-09 5.60931E-09
 -1       573 1.72383E+05 5.17331E+02 2.01141E+03-4.33486E+04 5.22959E-11-2.52840E-10
 -1       574 1.72546E+05 1.68909E+02 1.00774E+03-4.77688E+04 3.38332E-10-2.68710E-09
 -1       575 1.72444E+05 2.39715E+01 4.74925E+02-4.33336E+04 6.00721E-10 2.00453E-09
 -1       576 1.72455E+05 7.58040E+00 2.41722E+02-4.77857E+04 4.42242E-11 3.17141E-09
 -1       577 1.72453E+05-2.37243E+00 1.19020E+02-4.33316E+04 6.83940E-10 4.44015E-09
 -1       578 1.72446E+05-4.99156E-01 6.48122E+01-4.77878E+04-1.43962E-09 4.24052E-09
 -1       579 1.72463E+05-4.07551E+00 3.94736E+01-4.33316E+04-7.90351E-10 3.82806E-09
 -1       580 1.72460E+05-5.68552E+00 3.66041E+01-4.77852E+04-1.70530E-09 9.20409E-10
 -1       581 1.72481E+05-1.04413E+01 4.93080E+01-4.33342E+04-1.00817E-08 2.04182E-10
 -1       582 1.72492E+05-3.73905E+00 9.37753E+01-4.77594E+04-1.92540E-08 9.57243E-10
 -1       583 1.72502E+05 1.86219E+01 1.79610E+02-4.33573E+04-1.05474E-08-5.75938E-09
 -1       584 1.72584E+05 1.57967E+02 4.02748E+02-4.75659E+04-3.66708E-09-4.62683E-09
 -1       585 1.72484E+05 5.12582E+02 8.17629E+02-4.35280E+04-1.22418E-09-2.02454E-09
 -1       586-2.08080E+03 5.63476E+04-2.76554E+03-1.47763E+05 4.09500E-10-1.29853E-09
 -1       587-4.37051E+02 5.59748E+04-3.09563E+02-1.62600E+05 6.88487E-10 3.23598E-09
 -1       588 5.93641E+02 5.60483E+04 1.96428E+03-1.47672E+05 3.92902E-10 1.04992E-08
 -1       589 2.92791E+03 5.71279E+04 5.72220E+03-1.62465E+05 5.89353E-10-1.12323E-10
 -1       590 8.39221E+03 5.53605E+04 1.22524E+04-1.47898E+05 3.05590E-10-3.02680E-09
 -1       591-3.76731E+04-1.07663E+04-1.24930E+04-1.95147E+04-5.86056E-11-6.45741E-11
 -1       592-3.88463E+04-1.38312E+04-6.76671E+03-2.27690E+04-5.81167E-10-3.13230E-09
 -1       593-3.89364E+04-9.84575E+03-2.81705E+03-2.04169E+04 8.90964E-10 2.85195E-09
 -1       594-3.71054E+04-1.20153E+04-1.40499E+03-2.28557E+04-1.52204E-09-5.99174E-09
 -1       595-3.90332E+04-9.84151E+03-6.45679E+02-2.04583E+04-1.55239E-10-1.64363E-09
 -1       596-3.69876E+04-1.19322E+04-3.29125E+02-2.28435E+04 3.59819E-10 7.56913E-09
 -1       597-3.90455E+04-9.84950E+03-1.81166E+02-2.04600E+04-1.23409E-09 3.40560E-09
 -1       598-3.69764E+04-1.19290E+04-1.49207E+02-2.28401E+04-2.08814E-10-6.27767E-09
 -1       599-3.90445E+04-9.84954E+03-1.95052E+02-2.04597E+04-4.38263E-11-5.69287E-09
 -1       600-3.69889E+04-1.19332E+04-3.65927E+02-2.28431E+04 9.48603E-10-2.20598E-09
 -1       601-3.90291E+04-9.84090E+03-7.23757E+02-2.04571E+04 5.28166E-09 9.74933E-09
 -1       602-3.71212E+04-1.20265E+04-1.57836E+03-2.28553E+04 1.55603E-09 8.18875E-09
 -1       603-3.89191E+04-9.84719E+03-3.16580E+03-2.04108E+04-9.59744E-10 5.83395E-09
 -1       604-3.90838E+04-1.40602E+04-7.60474E+03-2.27486E+04-8.10928E-10 4.14411E-09
 -1       605-3.74912E+04-1.08878E+04-1.40400E+04-1.94037E+04-8.23434E-10-3.18460E-09
 -1       606 2.45164E+04-8.27796E+03-1.49067E+04 2.39384E+04-4.02542E-09 3.14685E-09
 -1       607 2.19633E+04-2.67019E+03-7.42269E+03 2.68721E+04-7.66704E-10 6.70752E-12
 -1       608 2.34121E+04-4.49965E+02-3.32401E+03 2.37474E+04 2.88492E-09 1.28125E-09
 -1       609 2.31236E+04-1.16452E+02-1.67888E+03 2.70828E+04-1.34605E-09 2.43313E-09
 -1       610 2.32784E+04 2.21367E+01-8.01966E+02 2.37261E+04-5.62977E-09-3.44016E-10
 -1       611 2.32235E+04 3.33226E+01-4.04504E+02 2.71058E+04-7.52561E-09 1.70780E-09
 -1       612 2.32426E+04 3.53775E+01-1.93594E+02 2.37240E+04-3.33785E-09 4.15184E-10
 -1       613 2.32215E+04 4.06137E+01-8.82896E+01 2.71085E+04-3.81124E-09-3.69027E-10
 -1       614 2.32231E+04 3.60291E+01-2.47587E+01 2.37232E+04 1.72349E-09 1.19303E-09
 -1       615 2.32113E+04 4.53219E+01 2.72936E+01 2.71090E+04 4.30327E-09-1.11277E-09
 -1       616 2.32083E+04 4.09685E+01 9.07784E+01 2.37235E+04-4.59931E-09-2.01680E-10
 -1       617 2.32168E+04 6.81372E+01 2.10674E+02 2.71085E+04-3.14685E-10 1.84855E-10
 -1       618 2.31858E+04 1.04364E+02 4.25911E+02 2.37236E+04-4.50200E-10 7.14635E-09
 -1       619 2.33639E+04 3.99701E+02 9.57304E+02 2.71079E+04-1.32252E-09 5.98470E-09
 -1       620 2.30422E+04 1.11664E+03 1.92437E+03 2.37226E+04 2.82444E-09-1.34833E-10
 -1       621 2.97782E+02 1.87050E+05 2.58475E+03 6.20440E+03-2.09340E-10 6.81212E-09
 -1       622 3.40456E+02 1.87690E+05 2.19491E+03 9.06156E+03-2.74781E-10 1.80756E-09
 -1       623 1.38191E+01 1.87234E+05 2.52556E+03 6.17534E+03-2.74412E-10 6.21435E-09
 -1       624 1.14234E+03 1.88426E+05 4.79709E+03 9.08991E+03-2.91493E-10 1.77096E-10
 -1       625 1.14725E+03 1.86310E+05 8.34009E+03 6.17637E+03-1.24146E-10-2.62554E-09
 -1       626 1.54320E+05 4.27705E+04 3.06976E+03 8.34518E+04-1.49748E-09 4.30009E-09
 -1       627 1.52207E+05 4.43289E+04 1.47913E+03 8.68245E+04-2.40334E-09-4.61750E-09
 -1       628 1.54436E+05 4.13176E+04 6.24743E+02 8.39141E+04 5.94810E-10 6.00949E-10
 -1       629 1.51762E+05 4.39803E+04 3.06225E+02 8.70263E+04-1.42427E-09-4.01076E-09
 -1       630 1.54443E+05 4.12489E+04 1.41595E+02 8.39261E+04-3.14685E-09-8.18153E-09
 -1       631 1.51708E+05 4.39728E+04 7.61905E+01 8.70281E+04-4.90490E-09-5.92574E-09
 -1       632 1.54435E+05 4.12545E+04 5.03412E+01 8.39192E+04-6.33554E-09 2.40038E-09
 -1       633 1.51697E+05 4.39774E+04 5.63363E+01 8.70220E+04-8.80163E-10-3.18209E-09
 -1       634 1.54426E+05 4.12553E+04 9.12662E+01 8.39151E+04 1.15929E-08 5.98254E-09
 -1       635 1.51700E+05 4.39790E+04 1.85135E+02 8.70214E+04 5.97447E-09-7.17569E-09
 -1       636 1.54416E+05 4.12547E+04 3.73957E+02 8.39122E+04-3.87843E-09-6.71116E-09
 -1       637 1.51776E+05 4.40386E+04 8.21911E+02 8.70174E+04 1.60661E-09 2.46314E-09
 -1       638 1.54384E+05 4.14381E+04 1.68921E+03 8.38275E+04 5.63227E-09-4.64979E-09
 -1       639 1.52660E+05 4.52745E+04 3.99617E+03 8.67547E+04 1.61476E-08 5.56611E-10
 -1       640 1.54265E+05 4.51166E+04 8.29311E+03 8.22653E+04 5.93809E-09-5.45242E-10
 -1       656 4.18354E+04-1.05876E+06-1.00994E+05-3.78554E+02 1.19326E-09-1.91525E-09
 -1       657-5.52801E+04-1.10435E+06-8.35211E+04 6.86480E+03 3.72893E-10 2.41454E-09
 -1       658 1.32643E+04-1.07177E+06-5.12515E+04-1.32287E+03-9.65088E-10 3.98929E-09
 -1       659-5.92659E+04-1.10624E+06-8.87561E+04 7.49266E+03-6.94854E-10-9.21302E-10
 -1       660 4.58113E+04-1.05688E+06-1.10000E+05-1.00640E+03-1.01136E-09 5.51665E-10
 -1       661 1.50040E+05 1.63349E+04 1.43915E+04 5.86335E+04 3.14185E-09-3.74894E-09
 -1       662 1.57535E+05 2.76239E+04 9.69748E+03 5.61329E+04 3.22507E-09-1.78568E-09
 -1       663 1.52860E+05 2.09577E+04 3.39226E+03 5.78204E+04-1.07025E-09 9.14952E-10
 -1       664 1.54272E+05 2.22120E+04 2.02812E+03 5.71207E+04-5.78808E-10 2.49725E-09
 -1       665 1.53282E+05 2.15949E+04 8.00033E+02 5.77030E+04-2.35502E-09-4.48210E-10
 -1       666 1.53779E+05 2.14784E+04 4.66514E+02 5.72703E+04-5.92833E-09 4.66835E-09
 -1       667 1.53352E+05 2.16720E+04 2.45947E+02 5.76779E+04-2.53905E-09-5.58098E-09
 -1       668 1.53705E+05 2.14165E+04 2.46315E+02 5.73059E+04 1.02119E-09-2.76636E-09
 -1       669 1.53355E+05 2.16550E+04 3.30000E+02 5.76680E+04 1.66447E-09-4.94840E-09
 -1       670 1.53789E+05 2.15895E+04 7.15282E+02 5.73036E+04 5.53831E-09-2.58092E-09
 -1       671 1.53267E+05 2.15026E+04 1.26897E+03 5.76789E+04-3.96099E-10 9.10177E-10
 -1       672 1.54531E+05 2.28218E+04 3.24576E+03 5.71227E+04-3.36829E-09 2.08820E-09
 -1       673 1.52618E+05 2.04537E+04 5.43907E+03 5.78371E+04-2.37901E-09-5.12728E-09
 -1       674 1.59711E+05 3.15570E+04 1.55547E+04 5.55981E+04 2.49634E-09-1.13323E-09
 -1       675 1.48121E+05 1.30117E+04 2.30879E+04 5.91114E+04 5.11136E-10-1.11231E-09
 -1       676 1.70392E+01-2.03140E+05-7.90936E+02 3.55680E+01-1.84471E-09 5.09209E-09
 -1       677-2.09915E+02-2.03332E+05-1.44749E+03-7.11063E+01-3.01912E-09-4.72236E-09
 -1       678 1.40210E+02-2.03004E+05-2.55877E+03 3.55138E+01 1.82160E-09-2.95075E-09
 -1       679-2.55923E+03-2.04876E+05-6.07831E+03-7.08918E+01-2.79545E-09-9.38680E-09
 -1       680 1.52737E+03-2.01596E+05-9.79622E+03 3.49461E+01-2.92630E-09-4.39547E-09
 -1       771-2.18200E+06-3.83467E+05-5.36803E+04-9.06605E+05-8.78936E-09-6.59929E-09
 -1       772-2.16810E+06-4.12278E+05-2.87519E+04-9.38743E+05-6.76664E-09 4.90218E-09
 -1       773-2.18948E+06-3.77652E+05-1.25089E+04-9.09598E+05-1.99361E-09 7.06495E-09
 -1       774-2.16043E+06-4.06053E+05-6.06222E+03-9.42300E+05 8.14907E-09 2.76395E-09
 -1       775-2.19134E+06-3.76427E+05-3.14287E+03-9.09816E+05-2.72848E-09 8.87667E-10
 -1       776-2.16035E+06-4.06130E+05-1.42773E+03-9.44297E+05-2.61934E-09 1.71167E-09
 -1       777-2.19267E+06-3.75461E+05-9.38099E+02-9.09935E+05 1.03319E-09 1.36970E-09
 -1       778-2.16072E+06-4.06384E+05-4.00214E+02-9.45965E+05 7.45786E-10 3.91810E-09
 -1       779-2.19373E+06-3.74639E+05-4.19830E+02-9.10044E+05-5.19140E-09-2.39106E-09
 -1       780-2.16110E+06-4.06591E+05-2.96836E+02-9.47316E+05-3.04863E-09-5.99812E-10
 -1       781-2.19453E+06-3.73982E+05-5.37324E+02-9.10127E+05-8.52378E-09-1.18780E-09
 -1       782-2.16148E+06-4.06786E+05-9.34717E+02-9.48310E+05-1.05938E-08-2.72439E-09
 -1       783-2.19502E+06-3.73550E+05-1.87500E+03-9.10165E+05-1.58434E-09-4.02815E-09
 -1       784-2.16279E+06-4.08064E+05-4.42261E+03-9.48865E+05-5.72163E-09-1.86446E-11
 -1       785-2.19449E+06-3.73917E+05-8.18213E+03-9.09600E+05-1.00390E-08 1.24601E-09
 -1       786 1.59455E+05-8.50880E+03 1.96852E+04-4.45303E+00 5.30101E-07 2.75941E-09
 -1       787 1.67985E+05 9.85055E+03 1.39269E+04 1.52865E-01 1.05481E-06 7.76799E-09
 -1       788 1.62746E+05-1.33385E+03 5.09505E+03-9.95195E-01 1.19170E-06 1.33286E-09
 -1       789 1.64151E+05 1.54335E+03 3.20128E+03-6.87118E+00 1.32674E-06 1.32340E-08
 -1       790 1.63289E+05-2.08369E+02 1.30266E+03 2.57094E+00 1.57265E-06-1.25235E-08
 -1       791 1.63518E+05 2.42116E+02 7.64937E+02-1.51532E+01 1.81991E-06 6.07800E-09
 -1       792 1.63380E+05-3.35940E+01 3.49326E+02 7.28692E+00 2.34815E-06-1.19987E-08
 -1       793 1.63415E+05 4.72844E+01 2.29337E+02-2.70163E+01 2.87255E-06 5.13434E-09
 -1       794 1.63392E+05-1.36673E+01 1.70536E+02 1.44343E+01 1.43708E-06-2.70801E-09
 -1       795 1.63426E+05 7.07772E+01 2.47625E+02-4.56608E+01 4.31946E-09 1.08435E-08
 -1       796 1.63370E+05-5.70699E+01 3.71488E+02 2.59318E+01 1.71588E-10 3.21950E-09
 -1       797 1.63595E+05 4.18451E+02 8.76400E+02-7.60996E+01-3.20169E-10 3.82755E-09
 -1       798 1.63223E+05-3.61085E+02 1.38349E+03 4.48736E+01-1.64439E-10-3.14935E-09
 -1       799 1.64633E+05 2.66617E+03 3.77182E+03-1.26812E+02-9.54357E-10-3.25036E-09
 -1       800 1.62331E+05-2.30298E+03 5.32792E+03 7.66449E+01-5.86571E-11 8.32483E-09
 -1       801-8.50814E+03-6.04852E+04 5.47190E+03 1.76540E+04 9.53059E-09-1.12952E-08
 -1       802 2.22700E+04 3.38220E+04 4.47324E+04-7.09099E+04 2.56846E-08-4.76575E-09
 -1       803-1.29095E+04-2.17607E+04 5.70977E+04 1.75461E+04 2.02417E-08 1.91781E-08
 -1       804 1.13954E+05 8.59245E+04 1.65194E+05-7.17450E+04 2.38997E-08 2.28796E-08
 -1       805-1.00285E+05-1.12265E+05 2.07120E+05 1.84856E+04 8.41101E-09 2.38335E-08
 -1       806-1.87114E+05-4.00909E+04-1.59076E+04-7.79195E+04-9.77479E-10-1.13369E-09
 -1       807-1.88050E+05-3.78137E+04-7.81508E+03-8.21383E+04 1.23509E-09 5.11079E-10
 -1       808-1.87565E+05-3.43441E+04-3.31515E+03-8.06180E+04 8.49695E-10 5.71833E-09
 -1       809-1.86382E+05-3.56437E+04-1.62068E+03-8.23632E+04 1.51397E-09 7.72275E-09
 -1       810-1.87636E+05-3.41414E+04-7.42094E+02-8.07370E+04 2.19188E-10 6.55405E-09
 -1       811-1.86254E+05-3.55579E+04-3.68026E+02-8.23440E+04 3.73802E-10-4.92219E-09
 -1       812-1.87648E+05-3.41565E+04-1.83661E+02-8.07366E+04-1.21054E-09 3.26258E-09
 -1       813-1.86237E+05-3.55601E+04-1.15836E+02-8.23339E+04-4.73574E-09-1.25223E-08
 -1       814-1.87646E+05-3.41623E+04-1.08605E+02-8.07341E+04-9.55879E-10-6.13954E-09
 -1       815-1.86239E+05-3.55620E+04-1.69920E+02-8.23308E+04-2.01726E-09 1.01056E-09
 -1       816-1.87634E+05-3.41612E+04-3.18355E+02-8.07318E+04-1.22782E-10-1.28921E-09
 -1       817-1.86293E+05-3.55926E+04-6.82459E+02-8.23247E+04 2.45450E-09 1.93904E-09
 -1       818-1.87593E+05-3.42572E+04-1.39087E+03-8.06863E+04 7.02130E-10 3.13776E-10
 -1       819-1.87061E+05-3.64272E+04-3.27339E+03-8.21382E+04 4.01997E-10 2.88310E-10
 -1       820-1.87328E+05-3.67323E+04-6.66197E+03-7.96312E+04-7.24867E-10 1.65255E-09
 -1       821-2.42130E+05 1.34342E+04-3.10693E+04 7.16110E+01-4.11938E-10 3.07955E-09
 -1       822-2.55594E+05-1.55524E+04-2.19859E+04-5.55992E+02-1.67630E-09 1.18166E-09
 -1       823-2.47326E+05 2.10611E+03-8.04705E+03 3.70782E+01 9.82990E-10-1.02682E-09
 -1       824-2.49536E+05-2.43776E+03-5.06328E+03-4.17019E+02 2.30358E-10 8.19250E-09
 -1       825-2.48187E+05 3.29618E+02-2.08101E+03-6.73655E+01-3.15196E-09-3.66640E-10
 -1       826-2.48534E+05-3.88768E+02-1.25646E+03-1.78027E+02-5.51502E-09-4.33336E-09
 -1       827-2.48327E+05 5.85087E+01-6.50137E+02-2.01918E+02-3.96175E-09-5.76547E-09
 -1       828-2.48399E+05-1.18604E+02-5.74865E+02 7.17565E+01-4.58648E-09 2.92728E-09
 -1       829-2.48323E+05 5.96994E+01-6.59444E+02-3.17154E+02-1.70887E-10 2.02368E-09
 -1       830-2.48550E+05-3.98264E+02-1.28769E+03 2.40601E+02 1.56458E-09-5.05518E-09
 -1       831-2.48176E+05 3.38122E+02-2.13221E+03-3.70766E+02-2.43011E-09 1.43598E-09
 -1       832-2.49575E+05-2.50055E+03-5.19571E+03 2.67067E+02-1.07486E-09 2.26737E-09
 -1       833-2.47299E+05 2.16049E+03-8.25619E+03-3.43620E+02 1.32552E-11-1.54296E-09
 -1       834-2.55778E+05-1.59562E+04-2.25573E+04 1.43706E+02-3.06468E-10-7.08496E-09
 -1       835-2.41973E+05 1.37832E+04-3.18798E+04-2.47395E+02 5.46947E-09-5.68434E-09
 -1       836-8.06125E+02 2.29319E+05 1.38122E+04-2.01709E+04 1.61435E-09-1.72895E-09
 -1       837 3.04452E+03 2.33594E+05 1.17862E+04-4.05094E+04 2.25441E-09 3.46176E-10
 -1       838-2.94114E+02 2.30510E+05 1.21450E+04-2.01028E+04 2.00998E-09 4.77962E-09
 -1       839 7.79641E+03 2.37138E+05 2.31088E+04-4.05334E+04 2.86855E-09-4.73977E-09
 -1       840-2.34056E+03 2.25745E+05 3.69049E+04-2.01454E+04 1.96815E-09 1.15642E-09
 -1       856-7.54731E+04 6.46906E+03-1.70474E+04-3.81840E+02-2.99906E-09 1.52431E-09
 -1       857-8.25155E+04-7.58715E+03-1.17369E+04 3.88602E+03-3.20962E-09 1.83809E-09
 -1       858-7.82553E+04 9.06438E+02-4.42431E+03-3.98601E+02-4.15073E-09 7.56700E-10
 -1       859-7.93201E+04-1.05381E+03-2.67221E+03 3.91276E+03-2.77245E-09 2.79738E-09
 -1       860-7.86714E+04 1.26061E+02-1.12364E+03-4.08700E+02-1.79384E-10-3.23621E-09
 -1       861-7.88408E+04-1.39205E+02-6.26017E+02 3.92656E+03-4.00355E-09 1.75544E-09
 -1       862-7.87361E+04 1.67117E+01-2.76018E+02-4.12426E+02 4.08530E-09 3.36892E-09
 -1       863-7.87643E+04-1.02341E+01-1.36391E+02 3.92821E+03 5.43453E-09-6.95849E-10
 -1       864-7.87481E+04-8.44988E-02-4.26133E+01-4.10360E+02 5.31873E-09 1.20885E-09
 -1       865-7.87419E+04 1.94452E+01 2.61651E+01 3.91781E+03 4.87719E-09 2.83675E-09
 -1       866-7.87572E+04-1.33239E+01 9.42167E+01-4.02025E+02-1.00991E-09-1.56700E-09
 -1       867-7.86869E+04 1.11888E+02 2.58429E+02 3.89521E+03 5.94738E-10-7.14767E-09
 -1       868-7.88006E+04-9.19474E+01 4.35934E+02-3.87754E+02 2.77646E-09-5.20771E-09
 -1       869-7.83597E+04 7.62599E+02 1.17035E+03 3.85769E+03-3.34774E-09-1.42427E-09
 -1       870-7.90805E+04-6.47948E+02 1.69733E+03-3.64505E+02-4.70266E-10-3.14265E-09
 -1       871-3.54813E+03-7.37551E+03-1.14983E+04 7.53592E+04 2.32922E-09 7.37236E-09
 -1       872-1.54896E+03-9.94563E+03-4.68263E+03 9.76978E+04 4.34784E-09 1.26165E-08
 -1       873-4.32333E+01-8.74429E+03 6.81379E+02 7.51931E+04 2.23281E-09 7.54017E-09
 -1       874 1.76206E+03-7.06378E+03 6.55023E+03 9.77330E+04 4.95584E-09 4.40514E-09
 -1       875 4.19403E+03-1.02997E+04 1.45182E+04 7.53314E+04 1.96997E-09-8.08541E-10
 -1       876 1.88569E+05 3.25260E+04 1.01091E+04 7.65442E+04-2.97678E-09-4.12365E-09
 -1       877 1.89140E+05 3.47519E+04 5.39848E+03 7.95413E+04-6.87942E-09-2.54693E-09
 -1       878 1.89514E+05 3.14069E+04 2.26172E+03 7.73743E+04-2.56546E-09-8.24093E-09
 -1       879 1.87765E+05 3.33826E+04 1.12665E+03 7.96134E+04 8.75843E-10 5.39541E-09
 -1       880 1.89583E+05 3.13943E+04 5.24513E+02 7.74081E+04 1.41449E-09 4.84675E-09
 -1       881 1.87674E+05 3.33245E+04 2.79314E+02 7.95994E+04 5.49562E-09 1.47550E-08
 -1       882 1.89590E+05 3.14024E+04 1.77362E+02 7.74091E+04 8.00719E-09 2.66478E-09
 -1       883 1.87667E+05 3.33218E+04 1.88516E+02 7.95955E+04 5.62858E-09 4.71510E-09
 -1       884 1.89586E+05 3.14003E+04 2.97941E+02 7.74092E+04 6.16524E-10 3.11843E-09
 -1       885 1.87691E+05 3.33261E+04 5.97813E+02 7.96030E+04 8.71077E-09-1.37325E-09
 -1       886 1.89563E+05 3.13828E+04 1.20431E+03 7.74068E+04 9.52772E-09 2.94938E-09
 -1       887 1.87902E+05 3.34647E+04 2.63046E+03 7.96334E+04-3.50906E-09 3.75474E-09
 -1       888 1.89397E+05 3.14122E+04 5.30044E+03 7.73226E+04-7.54000E-10 3.81351E-09
 -1       889 1.91061E+05 3.67437E+04 1.26624E+04 7.95328E+04 4.55441E-09 2.87491E-09
 -1       890 1.87237E+05 3.39775E+04 2.37156E+04 7.53008E+04 4.68981E-09-7.82165E-10
 -1       891-1.19447E+02-1.07250E+05-1.26395E+03 2.04295E+04 4.68049E-10 5.44730E-09
 -1       892-2.07437E+02-1.07552E+05-1.37600E+03 3.09131E+04-1.17734E-09 2.90811E-10
 -1       893-3.51755E+01-1.07290E+05-1.96722E+03 2.04333E+04 4.25871E-10 2.25327E-09
 -1       894-1.07838E+03-1.08308E+05-4.08546E+03 3.08034E+04 2.34195E-10 2.32922E-09
 -1       895-8.41870E+02-1.06441E+05-7.19946E+03 2.05377E+04 4.82260E-10 6.93490E-10
 -1       956-2.36912E+05-3.41740E+03-8.60817E+03 1.56509E+04 2.35559E-09-6.06815E-09
 -1       957-2.38612E+05-1.15133E+03-4.41916E+03 1.88457E+04 6.82144E-09-2.75918E-09
 -1       958-2.37675E+05-9.01331E+01-1.99090E+03 1.55484E+04 5.83941E-09-1.75714E-09
 -1       959-2.37811E+05-1.40127E+01-1.01693E+03 1.89564E+04-1.94905E-09 1.85628E-09
 -1       960-2.37743E+05 3.00606E+01-4.95645E+02 1.55387E+04-1.00999E-09-2.29261E-09
 -1       961-2.37752E+05 2.84910E+01-2.62783E+02 1.89673E+04-4.85102E-09-3.05272E-09
 -1       962-2.37756E+05 2.63347E+01-1.50002E+02 1.55373E+04-3.46267E-09 4.21369E-09
 -1       963-2.37749E+05 2.94027E+01-1.19672E+02 1.89692E+04-4.23813E-09 5.55758E-09
 -1       964-2.37759E+05 2.79408E+01-1.44332E+02 1.55368E+04-1.13153E-09 1.86969E-09
 -1       965-2.37758E+05 3.20379E+01-2.48605E+02 1.89693E+04 2.36360E-09-3.85489E-09
 -1       966-2.37752E+05 3.47869E+01-4.66181E+02 1.55372E+04-4.60091E-10-2.79795E-09
 -1       967-2.37820E+05-4.42335E+00-9.55898E+02 1.89635E+04 2.32103E-09 3.00042E-09
 -1       968-2.37693E+05-7.48904E+01-1.87047E+03 1.55427E+04-1.24601E-10 4.93145E-10
 -1       969-2.38579E+05-1.07024E+03-4.15299E+03 1.88990E+04-1.13596E-09 3.46969E-09
 -1       970-2.36980E+05-3.19972E+03-8.08900E+03 1.56041E+04 2.61480E-11 5.50517E-09
 -1       971-2.25134E+05-1.18933E+03-6.62483E+03 1.10160E+04-4.15184E-09-1.34096E-09
 -1       972-2.26746E+05-8.51787E+02-3.60800E+03 1.53889E+04-2.07251E-09-5.69355E-09
 -1       973-2.25870E+05-6.04009E+00-1.61541E+03 1.09243E+04-4.36876E-09 2.10434E-09
 -1       974-2.25982E+05-5.91012E+00-8.36893E+02 1.54874E+04-2.01089E-09 5.20362E-09
 -1       975-2.25926E+05 2.42982E+01-4.17216E+02 1.09163E+04 1.92631E-09 5.26393E-09
 -1       976-2.25936E+05 2.81799E+01-2.38880E+02 1.54970E+04-2.13765E-09-7.20411E-09
 -1       977-2.25936E+05 2.36673E+01-1.69996E+02 1.09147E+04 1.52158E-09 1.53318E-09
 -1       978-2.25938E+05 3.16795E+01-1.94394E+02 1.54993E+04 9.45687E-09 1.08116E-09
 -1       979-2.25936E+05 2.86950E+01-3.08372E+02 1.09140E+04 4.01508E-09 2.16426E-09
 -1       980-2.25960E+05 3.34837E+01-5.92949E+02 1.54997E+04 4.95146E-09-2.50378E-09
 -1       981-2.25917E+05 4.34788E+01-1.14706E+03 1.09143E+04-1.83093E-09-3.97677E-09
 -1       982-2.26118E+05-5.10188E+01-2.37019E+03 1.54952E+04-4.31965E-09-4.04515E-09
 -1       983-2.25773E+05-2.95804E+01-4.60482E+03 1.09186E+04 2.38128E-09 1.50112E-09
 -1       984-2.28333E+05-2.45526E+03-1.03117E+04 1.54332E+04-4.29372E-09-2.67221E-09
 -1       985-2.23689E+05-3.39874E+03-1.89356E+04 1.09808E+04 4.25689E-09-3.12411E-09
 -3
    1PSTEP                         9           5           1          
  100CL  105 4.72656E-01         409                     0    5           1
 -4  DISP        4    1
 -5  D1          1    2    1    0
 -5  D2          1    2    2    0
 -5  D3          1    2    3    0
 -5  ALL         1    2    0    0    1ALL
 -1         1 1.29768E-04 0.00000E+00 0.00000E+00
 -1         2 1.18666E-04 2.28385E-32 1.65436E-24
 -1         3 1.12524E-04 8.09782E-28-6.61744E-24
 -1         5 7.93741E-05-4.01150E-28-3.30872E-24
 -1         8 1.04561E-04-9.01905E-07 0.00000E+00
 -1         9 1.05441E-04 4.87242E-07 0.00000E+00
 -1        10 1.04093E-04-1.53364E-06 0.00000E+00
 -1        12 7.88927E-05 5.16792E-07 1.65436E-24
 -1        15 7.43962E-05-9.98910E-07 0.00000E+00
 -1        16 7.80989E-05 3.28467E-07 0.00000E+00
 -1        17 7.71699E-05-3.24020E-06 0.00000E+00
 -1        18 7.64481E-05 9.29760E-07 0.00000E+00
 -1        19 7.74489E-05 1.03074E-06 0.00000E+00
 -1        20 7.75815E-05 1.46017E-05 0.00000E+00
 -1        21 7.70759E-05 2.74697E-05-1.65436E-24
 -1        24 1.88335E-05-4.41755E-06 0.00000E+00
 -1        25 7.50109E-05 1.04939E-06 0.00000E+00
 -1        26 7.59430E-05 1.43531E-06 0.00000E+00
 -1        27 7.45121E-05 1.23043E-05 0.00000E+00
 -1        28 7.40570E-05 2.70293E-05 0.00000E+00
 -1        32 0.00000E+00 0.00000E+00 0.00000E+00
 -1        33 7.32182E-05 1.92375E-06 0.00000E+00
 -1        34 7.18367E-05 1.22834E-05 0.00000E+00
 -1        35 7.05245E-05 2.67966E-05 0.00000E+00
 -1        51 1.28143E-04-1.48117E-07 0.00000E+00
 -1        52 1.25110E-04-2.92203E-07 0.00000E+00
 -1        53 1.20948E-04-4.37940E-07 0.00000E+00
 -1        54 1.15943E-04-5.86788E-07-3.30872E-24
 -1        55 1.10385E-04-7.39425E-07 2.68834E-24
 -1        56 1.28595E-04-7.61013E-07-2.64698E-23
 -1        57 1.27571E-04-2.05151E-06 1.32349E-23
 -1        58 1.26691E-04-3.72234E-06 0.00000E+00
 -1        59 1.25892E-04-5.63339E-06 0.00000E+00
 -1        60 1.25122E-04-7.62305E-06 0.00000E+00
 -1        61 1.24321E-04-9.53048E-06 2.64698E-23
 -1        62 1.23429E-04-1.11994E-05 0.00000E+00
 -1        63 1.22393E-04-1.24813E-05-2.64698E-23
 -1        64 1.21166E-04-1.32522E-05 0.00000E+00
 -1        65 1.19706E-04-1.34037E-05-2.64698E-23
 -1        66 1.17988E-04-1.28666E-05 0.00000E+00
 -1        67 1.15994E-04-1.15929E-05-2.64698E-23
 -1        68 1.13721E-04-9.58122E-06 0.00000E+00
 -1        69 1.11185E-04-6.85067E-06 1.32349E-23
 -1        70 1.08400E-04-3.47092E-06 0.00000E+00
 -1        86 1.18323E-04 8.93106E-08 0.00000E+00
 -1        87 1.17293E-04 1.77612E-07 8.27181E-25
 -1        88 1.15540E-04 2.64863E-07 0.00000E+00
 -1        89 1.13030E-04 3.47072E-07 0.00000E+00
 -1        90 1.09688E-04 4.28114E-07 3.30872E-24
 -1       121 1.12289E-04-2.54277E-07 0.00000E+00
 -1       122 1.11583E-04-5.08772E-07 3.30872E-24
 -1       123 1.10408E-04-7.63700E-07 0.00000E+00
 -1       124 1.08766E-04-1.01932E-06-3.30872E-24
 -1       125 1.06660E-04-1.27576E-06 0.00000E+00
 -1       191 7.93607E-05 8.61390E-08 3.30872E-24
 -1       192 7.93206E-05 1.72276E-07 0.00000E+00
 -1       193 7.92537E-05 2.58413E-07 0.00000E+00
 -1       194 7.91601E-05 3.44545E-07 0.00000E+00
 -1       195 7.90398E-05 4.30673E-07 0.00000E+00
 -1       251 1.04594E-04 3.27912E-06-3.30872E-24
 -1       252 1.04649E-04 5.79434E-06 4.13590E-25
 -1       253 1.04705E-04 6.91926E-06 4.13590E-25
 -1       254 1.04765E-04 6.92563E-06 0.00000E+00
 -1       255 1.04825E-04 6.04985E-06 1.65436E-24
 -1       256 1.04884E-04 4.52605E-06 8.27181E-25
 -1       257 1.04943E-04 2.56767E-06-1.65436E-24
 -1       258 1.05001E-04 3.87065E-07 0.00000E+00
 -1       259 1.05060E-04-1.81061E-06 1.65436E-24
 -1       260 1.05118E-04-3.82016E-06-8.27181E-25
 -1       261 1.05178E-04-5.43038E-06-1.65436E-24
 -1       262 1.05237E-04-6.42910E-06 0.00000E+00
 -1       263 1.05297E-04-6.58458E-06 0.00000E+00
 -1       264 1.05353E-04-5.66290E-06-8.27181E-25
 -1       265 1.05408E-04-3.39614E-06 3.30872E-24
 -1       266 9.95334E-05-9.30166E-07 0.00000E+00
 -1       267 9.45060E-05-9.44860E-07-1.65436E-24
 -1       268 8.94785E-05-9.60412E-07-1.65436E-24
 -1       269 8.44511E-05-9.73420E-07 0.00000E+00
 -1       270 7.94237E-05-9.86367E-07 0.00000E+00
 -1       271 1.01549E-04 2.91444E-06 0.00000E+00
 -1       272 9.89766E-05 5.43107E-06 0.00000E+00
 -1       273 9.68441E-05 6.78891E-06-5.29396E-23
 -1       274 9.50866E-05 7.12930E-06 2.64698E-23
 -1       275 9.36481E-05 6.61849E-06 0.00000E+00
 -1       276 9.24601E-05 5.43544E-06-2.64698E-23
 -1       277 9.14514E-05 3.77259E-06 5.29396E-23
 -1       278 9.05467E-05 1.83072E-06 0.00000E+00
 -1       279 8.96691E-05-1.84009E-07 0.00000E+00
 -1       280 8.87414E-05-2.06408E-06 0.00000E+00
 -1       281 8.76870E-05-3.60470E-06 5.29396E-23
 -1       282 8.64320E-05-4.60704E-06-2.64698E-23
 -1       283 8.49051E-05-4.88282E-06-5.29396E-23
 -1       284 8.30441E-05-4.25521E-06 2.64698E-23
 -1       285 8.07826E-05-2.56823E-06 2.64698E-23
 -1       301 1.00689E-04 4.53415E-07 0.00000E+00
 -1       302 9.59609E-05 4.35091E-07 0.00000E+00
 -1       303 9.12979E-05 4.17511E-07 0.00000E+00
 -1       304 8.67398E-05 3.98785E-07-3.30872E-24
 -1       305 8.23270E-05 3.78285E-07 1.32349E-23
 -1       306 1.02355E-04 3.90806E-06 0.00000E+00
 -1       307 9.97629E-05 5.87057E-06 0.00000E+00
 -1       308 9.77456E-05 6.31667E-06 0.00000E+00
 -1       309 9.62908E-05 5.23660E-06 2.64698E-23
 -1       310 9.53206E-05 2.85955E-06 0.00000E+00
 -1       311 9.47242E-05-5.26163E-07 0.00000E+00
 -1       312 9.43380E-05-4.47755E-06-5.29396E-23
 -1       313 9.39871E-05-8.52484E-06 2.64698E-23
 -1       314 9.34916E-05-1.21830E-05 0.00000E+00
 -1       315 9.26783E-05-1.49860E-05-2.64698E-23
 -1       316 9.14208E-05-1.65990E-05 5.29396E-23
 -1       317 8.96155E-05-1.67441E-05-2.64698E-23
 -1       318 8.72377E-05-1.53676E-05-5.29396E-23
 -1       319 8.43025E-05-1.24848E-05-2.64698E-23
 -1       320 8.08871E-05-8.34773E-06 0.00000E+00
 -1       336 1.01009E-04-1.81302E-06-6.61744E-24
 -1       337 9.73528E-05-2.09463E-06 0.00000E+00
 -1       338 9.31307E-05-2.37830E-06 6.61744E-24
 -1       339 8.83525E-05-2.66394E-06-3.30872E-24
 -1       340 8.30282E-05-2.95228E-06 0.00000E+00
 -1       406 7.87189E-05 6.02896E-07 3.30872E-24
 -1       407 7.85183E-05 6.88968E-07 1.65436E-24
 -1       408 7.82909E-05 7.74981E-07-3.30872E-24
 -1       409 7.80368E-05 8.60830E-07 0.00000E+00
 -1       410 7.77561E-05 9.46345E-07 0.00000E+00
 -1       521 7.65868E-05-4.37635E-06-5.29396E-23
 -1       522 8.04235E-05-2.41084E-05 2.64698E-23
 -1       523 8.83594E-05-5.55497E-05 0.00000E+00
 -1       524 9.87949E-05-9.44307E-05 0.00000E+00
 -1       525 1.09753E-04-1.34872E-04 0.00000E+00
 -1       526 1.19216E-04-1.70865E-04 0.00000E+00
 -1       527 1.25416E-04-1.97363E-04 0.00000E+00
 -1       528 1.26739E-04-2.10126E-04-5.29396E-23
 -1       529 1.22484E-04-2.07843E-04-1.05879E-22
 -1       530 1.12374E-04-1.90432E-04 0.00000E+00
 -1       531 9.74283E-05-1.60969E-04 0.00000E+00
 -1       532 7.91588E-05-1.23460E-04 0.00000E+00
 -1       533 5.98921E-05-8.35653E-05 0.00000E+00
 -1       534 4.20865E-05-4.71137E-05 0.00000E+00
 -1       535 2.78031E-05-1.92520E-05-5.29396E-23
 -1       536 7.71055E-05 2.43317E-06 0.00000E+00
 -1       537 7.70519E-05 7.21158E-06 0.00000E+00
 -1       538 7.70019E-05 1.10128E-05 0.00000E+00
 -1       539 7.69564E-05 1.37565E-05-8.27181E-25
 -1       540 7.69132E-05 1.54563E-05 1.65436E-24
 -1       541 7.68714E-05 1.61278E-05-8.27181E-25
 -1       542 7.68298E-05 1.58779E-05 0.00000E+00
 -1       543 7.67878E-05 1.48150E-05 8.27181E-25
 -1       544 7.67449E-05 1.31199E-05 1.65436E-24
 -1       545 7.67013E-05 1.09744E-05 8.27181E-25
 -1       546 7.66572E-05 8.60025E-06 1.65436E-24
 -1       547 7.66132E-05 6.21977E-06 4.13590E-25
 -1       548 7.65697E-05 4.05570E-06 0.00000E+00
 -1       549 7.65276E-05 2.33046E-06 0.00000E+00
 -1       550 7.64861E-05 1.22769E-06 2.06795E-25
 -1       551 6.94766E-05-3.41546E-06 0.00000E+00
 -1       552 6.02787E-05-3.59971E-06 1.65436E-24
 -1       553 5.00922E-05-3.79285E-06 4.96308E-24
 -1       554 3.94407E-05-3.99283E-06 0.00000E+00
 -1       555 2.88478E-05-4.19492E-06 1.32349E-23
 -1       556 7.51341E-05 2.03143E-06 0.00000E+00
 -1       557 7.35721E-05 6.08085E-06 0.00000E+00
 -1       558 7.24322E-05 9.01947E-06 0.00000E+00
 -1       559 7.16676E-05 1.09676E-05 0.00000E+00
 -1       560 7.12314E-05 1.20452E-05 0.00000E+00
 -1       561 7.10772E-05 1.23732E-05 0.00000E+00
 -1       562 7.11592E-05 1.20722E-05 0.00000E+00
 -1       563 7.14315E-05 1.12634E-05 0.00000E+00
 -1       564 7.18486E-05 1.00679E-05 0.00000E+00
 -1       565 7.23649E-05 8.60689E-06-1.65436E-24
 -1       566 7.29351E-05 7.00151E-06-8.27181E-25
 -1       567 7.35140E-05 5.37307E-06 2.06795E-25
 -1       568 7.40562E-05 3.84279E-06 0.00000E+00
 -1       569 7.45165E-05 2.53178E-06 0.00000E+00
 -1       570 7.48495E-05 1.56116E-06 0.00000E+00
 -1       571 7.65088E-05 9.73496E-07 1.24077E-24
 -1       572 7.65709E-05 9.75773E-07 4.13590E-25
 -1       573 7.66333E-05 9.44040E-07 8.27181E-25
 -1       574 7.66960E-05 8.86136E-07 8.27181E-25
 -1       575 7.67587E-05 8.09935E-07 0.00000E+00
 -1       576 7.68215E-05 7.23360E-07 0.00000E+00
 -1       577 7.68842E-05 6.34342E-07-1.65436E-24
 -1       578 7.69470E-05 5.50819E-07 0.00000E+00
 -1       579 7.70098E-05 4.80725E-07 0.00000E+00
 -1       580 7.70726E-05 4.31998E-07 0.00000E+00
 -1       581 7.71353E-05 4.12576E-07 3.30872E-24
 -1       582 7.71981E-05 4.30384E-07 0.00000E+00
 -1       583 7.72609E-05 4.93345E-07-3.30872E-24
 -1       584 7.73236E-05 6.09296E-07 0.00000E+00
 -1       585 7.73863E-05 7.86030E-07 0.00000E+00
 -1       586 7.61855E-05 9.50927E-07 0.00000E+00
 -1       587 7.58966E-05 9.71578E-07-4.13590E-25
 -1       588 7.56079E-05 9.92005E-07 0.00000E+00
 -1       589 7.53463E-05 1.01211E-06 0.00000E+00
 -1       590 7.51386E-05 1.03166E-06 0.00000E+00
 -1       591 7.64022E-05 1.00622E-06 5.16988E-26
 -1       592 7.63664E-05 1.04902E-06 0.00000E+00
 -1       593 7.63407E-05 1.06459E-06 0.00000E+00
 -1       594 7.63227E-05 1.05871E-06 0.00000E+00
 -1       595 7.63106E-05 1.03723E-06-4.13590E-25
 -1       596 7.63020E-05 1.00598E-06 0.00000E+00
 -1       597 7.62949E-05 9.70777E-07 0.00000E+00
 -1       598 7.62872E-05 9.37421E-07-2.06795E-25
 -1       599 7.62765E-05 9.11725E-07 4.13590E-25
 -1       600 7.62608E-05 8.99499E-07 2.06795E-25
 -1       601 7.62379E-05 9.06549E-07 0.00000E+00
 -1       602 7.62057E-05 9.38693E-07 1.03398E-25
 -1       603 7.61619E-05 1.00174E-06-2.06795E-25
 -1       604 7.61046E-05 1.10156E-06 0.00000E+00
 -1       605 7.60316E-05 1.24393E-06 0.00000E+00
 -1       606 7.74604E-05 1.41842E-06 0.00000E+00
 -1       607 7.74697E-05 1.89455E-06 0.00000E+00
 -1       608 7.74784E-05 2.45392E-06 0.00000E+00
 -1       609 7.74867E-05 3.09068E-06 0.00000E+00
 -1       610 7.74950E-05 3.79896E-06 0.00000E+00
 -1       611 7.75031E-05 4.57279E-06 0.00000E+00
 -1       612 7.75112E-05 5.40619E-06 0.00000E+00
 -1       613 7.75192E-05 6.29319E-06 0.00000E+00
 -1       614 7.75272E-05 7.22782E-06 0.00000E+00
 -1       615 7.75351E-05 8.20409E-06 0.00000E+00
 -1       616 7.75430E-05 9.21605E-06 1.65436E-24
 -1       617 7.75509E-05 1.02577E-05 0.00000E+00
 -1       618 7.75587E-05 1.13231E-05 0.00000E+00
 -1       619 7.75665E-05 1.24062E-05 0.00000E+00
 -1       620 7.75742E-05 1.35010E-05 0.00000E+00
 -1       621 7.71502E-05 1.09821E-06 1.65436E-24
 -1       622 7.68781E-05 1.16602E-06 8.27181E-25
 -1       623 7.66270E-05 1.23381E-06 0.00000E+00
 -1       624 7.63913E-05 1.30150E-06-8.27181E-25
 -1       625 7.61651E-05 1.36907E-06-1.65436E-24
 -1       626 7.73758E-05 1.43977E-06 0.00000E+00
 -1       627 7.72759E-05 1.92188E-06 0.00000E+00
 -1       628 7.71512E-05 2.47025E-06 0.00000E+00
 -1       629 7.70044E-05 3.07762E-06 0.00000E+00
 -1       630 7.68382E-05 3.73670E-06 0.00000E+00
 -1       631 7.66554E-05 4.44017E-06 0.00000E+00
 -1       632 7.64586E-05 5.18070E-06 0.00000E+00
 -1       633 7.62506E-05 5.95097E-06 0.00000E+00
 -1       634 7.60343E-05 6.74364E-06 0.00000E+00
 -1       635 7.58122E-05 7.55140E-06 0.00000E+00
 -1       636 7.55873E-05 8.36692E-06 0.00000E+00
 -1       637 7.53621E-05 9.18287E-06-8.27181E-25
 -1       638 7.51395E-05 9.99193E-06 0.00000E+00
 -1       639 7.49221E-05 1.07868E-05 8.27181E-25
 -1       640 7.47124E-05 1.15600E-05 8.27181E-25
 -1       656 7.66726E-05 1.42279E-05 0.00000E+00
 -1       657 7.60967E-05 1.38391E-05 0.00000E+00
 -1       658 7.57280E-05 1.34516E-05 6.61744E-24
 -1       659 7.54370E-05 1.30644E-05 3.30872E-24
 -1       660 7.50795E-05 1.26760E-05-6.61744E-24
 -1       661 7.72457E-05 1.56789E-05-8.27181E-25
 -1       662 7.69311E-05 1.67075E-05-8.27181E-25
 -1       663 7.66341E-05 1.76887E-05-1.65436E-24
 -1       664 7.63544E-05 1.86252E-05 8.27181E-25
 -1       665 7.60909E-05 1.95186E-05 1.65436E-24
 -1       666 7.58429E-05 2.03712E-05 8.27181E-25
 -1       667 7.56095E-05 2.11849E-05 1.65436E-24
 -1       668 7.53901E-05 2.19614E-05 0.00000E+00
 -1       669 7.51840E-05 2.27025E-05-1.65436E-24
 -1       670 7.49905E-05 2.34100E-05-8.27181E-25
 -1       671 7.48090E-05 2.40853E-05 1.65436E-24
 -1       672 7.46389E-05 2.47300E-05-8.27181E-25
 -1       673 7.44798E-05 2.53456E-05 0.00000E+00
 -1       674 7.43303E-05 2.59333E-05 8.27181E-25
 -1       675 7.41910E-05 2.64946E-05 0.00000E+00
 -1       676 7.65715E-05 2.73959E-05 0.00000E+00
 -1       677 7.60673E-05 2.73221E-05 0.00000E+00
 -1       678 7.55636E-05 2.72483E-05 0.00000E+00
 -1       679 7.50604E-05 2.71748E-05 8.27181E-25
 -1       680 7.45582E-05 2.71012E-05 1.65436E-24
 -1       771 1.48411E-05 3.31924E-06 0.00000E+00
 -1       772 1.13744E-05 9.65699E-06 0.00000E+00
 -1       773 8.41169E-06 1.46725E-05 0.00000E+00
 -1       774 5.91945E-06 1.84482E-05-1.32349E-23
 -1       775 3.86488E-06 2.10684E-05-2.64698E-23
 -1       776 2.21367E-06 2.26205E-05 1.32349E-23
 -1       777 9.31076E-07 2.31938E-05-2.64698E-23
 -1       778-1.84112E-08 2.28804E-05 0.00000E+00
 -1       779-6.70574E-07 2.17737E-05 0.00000E+00
 -1       780-1.06185E-06 1.99692E-05 0.00000E+00
 -1       781-1.22880E-06 1.75638E-05-2.64698E-23
 -1       782-1.20851E-06 1.46559E-05 1.32349E-23
 -1       783-1.03810E-06 1.13449E-05 0.00000E+00
 -1       784-7.55021E-07 7.73111E-06 0.00000E+00
 -1       785-3.96804E-07 3.91553E-06-2.64698E-23
 -1       786 7.50657E-05 9.97618E-07 4.13590E-25
 -1       787 7.51238E-05 9.52591E-07-4.13590E-25
 -1       788 7.51817E-05 9.13697E-07 0.00000E+00
 -1       789 7.52403E-05 8.80336E-07 0.00000E+00
 -1       790 7.52988E-05 8.52655E-07-1.65436E-24
 -1       791 7.53574E-05 8.30815E-07 0.00000E+00
 -1       792 7.54161E-05 8.15771E-07 1.65436E-24
 -1       793 7.54748E-05 8.08491E-07 8.27181E-25
 -1       794 7.55335E-05 8.10997E-07 0.00000E+00
 -1       795 7.55922E-05 8.25335E-07 0.00000E+00
 -1       796 7.56509E-05 8.55152E-07 0.00000E+00
 -1       797 7.57096E-05 9.04136E-07 0.00000E+00
 -1       798 7.57683E-05 9.78566E-07 0.00000E+00
 -1       799 7.58267E-05 1.08479E-06 8.27181E-25
 -1       800 7.58853E-05 1.23345E-06 0.00000E+00
 -1       801 6.99443E-05 9.68653E-07 1.65436E-24
 -1       802 5.47503E-05 7.86596E-07-1.65436E-24
 -1       803 3.48122E-05 5.28823E-07 0.00000E+00
 -1       804 1.55281E-05 2.76580E-07 0.00000E+00
 -1       805 2.17054E-06 1.13867E-07 0.00000E+00
 -1       806 7.49579E-05 9.55906E-07 0.00000E+00
 -1       807 7.49014E-05 8.63970E-07 0.00000E+00
 -1       808 7.48420E-05 7.78098E-07-1.65436E-24
 -1       809 7.47787E-05 7.02101E-07 0.00000E+00
 -1       810 7.47101E-05 6.39782E-07 3.30872E-24
 -1       811 7.46349E-05 5.94881E-07 0.00000E+00
 -1       812 7.45517E-05 5.71138E-07 0.00000E+00
 -1       813 7.44592E-05 5.72283E-07 8.27181E-25
 -1       814 7.43560E-05 6.02040E-07-3.30872E-24
 -1       815 7.42407E-05 6.64133E-07-1.65436E-24
 -1       816 7.41118E-05 7.62283E-07-1.65436E-24
 -1       817 7.39681E-05 9.00208E-07 0.00000E+00
 -1       818 7.38080E-05 1.08162E-06 1.65436E-24
 -1       819 7.36304E-05 1.31023E-06 4.13590E-25
 -1       820 7.34339E-05 1.58973E-06 1.65436E-24
 -1       821 7.58587E-05 1.65626E-06 8.27181E-25
 -1       822 7.57693E-05 1.86291E-06 0.00000E+00
 -1       823 7.56803E-05 2.09626E-06-1.65436E-24
 -1       824 7.55902E-05 2.39723E-06 0.00000E+00
 -1       825 7.55001E-05 2.79406E-06-3.30872E-24
 -1       826 7.54098E-05 3.31461E-06-1.65436E-24
 -1       827 7.53193E-05 3.96363E-06 0.00000E+00
 -1       828 7.52287E-05 4.74535E-06 0.00000E+00
 -1       829 7.51380E-05 5.63919E-06-3.30872E-24
 -1       830 7.50473E-05 6.62410E-06-1.65436E-24
 -1       831 7.49566E-05 7.66206E-06-3.30872E-24
 -1       832 7.48660E-05 8.71479E-06 1.65436E-24
 -1       833 7.47755E-05 9.74124E-06 0.00000E+00
 -1       834 7.46861E-05 1.07005E-05 0.00000E+00
 -1       835 7.45964E-05 1.15642E-05 8.27181E-25
 -1       836 7.56260E-05 1.51663E-06 0.00000E+00
 -1       837 7.52021E-05 1.59974E-06-8.27181E-25
 -1       838 7.47101E-05 1.68270E-06 0.00000E+00
 -1       839 7.41893E-05 1.76512E-06 0.00000E+00
 -1       840 7.36790E-05 1.84741E-06 0.00000E+00
 -1       856 7.44869E-05 1.30349E-05 0.00000E+00
 -1       857 7.44588E-05 1.38635E-05 0.00000E+00
 -1       858 7.44308E-05 1.47746E-05 0.00000E+00
 -1       859 7.44022E-05 1.57528E-05 4.13590E-25
 -1       860 7.43735E-05 1.67825E-05 0.00000E+00
 -1       861 7.43447E-05 1.78481E-05 4.13590E-25
 -1       862 7.43159E-05 1.89338E-05 0.00000E+00
 -1       863 7.42870E-05 2.00240E-05 0.00000E+00
 -1       864 7.42581E-05 2.11030E-05-8.27181E-25
 -1       865 7.42293E-05 2.21551E-05 0.00000E+00
 -1       866 7.42005E-05 2.31646E-05-8.27181E-25
 -1       867 7.41718E-05 2.41159E-05 0.00000E+00
 -1       868 7.41431E-05 2.49935E-05 8.27181E-25
 -1       869 7.41144E-05 2.57818E-05 0.00000E+00
 -1       870 7.40858E-05 2.64655E-05 0.00000E+00
 -1       871 7.39664E-05 1.23035E-05 4.13590E-25
 -1       872 7.35151E-05 1.23007E-05 0.00000E+00
 -1       873 7.31177E-05 1.22976E-05 0.00000E+00
 -1       874 7.27329E-05 1.22940E-05 2.06795E-25
 -1       875 7.23195E-05 1.22900E-05-8.27181E-25
 -1       876 7.43238E-05 1.30431E-05-1.65436E-24
 -1       877 7.41197E-05 1.38296E-05 0.00000E+00
 -1       878 7.39000E-05 1.46580E-05 0.00000E+00
 -1       879 7.36667E-05 1.55230E-05 0.00000E+00
 -1       880 7.34218E-05 1.64191E-05 3.30872E-24
 -1       881 7.31672E-05 1.73410E-05 0.00000E+00
 -1       882 7.29050E-05 1.82834E-05-3.30872E-24
 -1       883 7.26371E-05 1.92408E-05 0.00000E+00
 -1       884 7.23656E-05 2.02078E-05-3.30872E-24
 -1       885 7.20924E-05 2.11793E-05 1.65436E-24
 -1       886 7.18195E-05 2.21497E-05-1.65436E-24
 -1       887 7.15490E-05 2.31137E-05 8.27181E-25
 -1       888 7.12828E-05 2.40659E-05 0.00000E+00
 -1       889 7.10225E-05 2.50009E-05-8.27181E-25
 -1       890 7.07704E-05 2.59134E-05-8.27181E-25
 -1       891 7.35749E-05 2.69904E-05 0.00000E+00
 -1       892 7.30760E-05 2.69514E-05-4.13590E-25
 -1       893 7.25408E-05 2.69123E-05 0.00000E+00
 -1       894 7.19500E-05 2.68733E-05-2.06795E-25
 -1       895 7.12843E-05 2.68344E-05 6.20385E-25
 -1       956 7.31335E-05 2.36906E-06 0.00000E+00
 -1       957 7.30474E-05 2.86970E-06 0.00000E+00
 -1       958 7.29610E-05 3.41990E-06-1.65436E-24
 -1       959 7.28745E-05 4.01354E-06 8.27181E-25
 -1       960 7.27878E-05 4.64449E-06-1.65436E-24
 -1       961 7.27012E-05 5.30660E-06-1.65436E-24
 -1       962 7.26145E-05 5.99368E-06 3.30872E-24
 -1       963 7.25278E-05 6.69958E-06-1.65436E-24
 -1       964 7.24411E-05 7.41811E-06 3.30872E-24
 -1       965 7.23543E-05 8.14310E-06 0.00000E+00
 -1       966 7.22676E-05 8.86838E-06 3.30872E-24
 -1       967 7.21810E-05 9.58777E-06 1.65436E-24
 -1       968 7.20944E-05 1.02951E-05 0.00000E+00
 -1       969 7.20079E-05 1.09842E-05 1.65436E-24
 -1       970 7.19217E-05 1.16490E-05 0.00000E+00
 -1       971 7.17558E-05 1.29359E-05 1.65436E-24
 -1       972 7.16737E-05 1.36611E-05 0.00000E+00
 -1       973 7.15915E-05 1.44510E-05-1.65436E-24
 -1       974 7.15092E-05 1.52971E-05 8.27181E-25
 -1       975 7.14267E-05 1.61913E-05 1.65436E-24
 -1       976 7.13442E-05 1.71250E-05 8.27181E-25
 -1       977 7.12616E-05 1.80900E-05 0.00000E+00
 -1       978 7.11791E-05 1.90778E-05-1.65436E-24
 -1       979 7.10965E-05 2.00800E-05-3.30872E-24
 -1       980 7.10139E-05 2.10884E-05 0.00000E+00
 -1       981 7.09314E-05 2.20944E-05 0.00000E+00
 -1       982 7.08489E-05 2.30897E-05-1.65436E-24
 -1       983 7.07666E-05 2.40659E-05 0.00000E+00
 -1       984 7.06846E-05 2.50147E-05 0.00000E+00
 -1       985 7.06030E-05 2.59277E-05-1.65436E-24
 -3
    1PSTEP                        10           5           1          
  100CL  105 4.72656E-01         409                     0    5           1
 -4  STRESS      6    1
 -5  SXX         1    4    1    1
 -5  SYY         1    4    2    2
 -5  SZZ         1    4    3    3
 -5  SXY         1    4    1    2
 -5  SYZ         1    4    2    3
 -5  SZX         1    4    3    1
 -1         1-1.70398E+06-7.70508E+05-3.49588E+05-1.07259E+06 2.61934E-10-8.39646E-09
 -1         2 2.73791E+03 2.59336E+05 8.97136E+03 7.56989E+02-1.40403E-10-3.57261E-09
 -1         3-9.30346E+01-7.26326E+05 1.69939E+02-2.71852E+02-1.75648E-10-5.91172E-09
 -1         5-5.71743E+00 2.46476E+05 6.45565E+00 1.12175E-01 6.82773E-11 1.72431E-08
 -1         8-7.74371E+05-3.30849E+05-2.93898E+04-5.70129E+05 1.29148E-10 3.51429E-09
 -1         9-1.40037E+06-3.67703E+05-1.42104E+05-4.72224E+05 3.57104E-09 3.06172E-09
 -1        10-5.92412E+02-7.56678E+05-1.00660E+03-1.83485E+03-3.57431E-09-8.39049E-09
 -1        12-3.07205E+00 2.46490E+05 2.09326E+02 1.00519E+00 1.70761E-10 2.42721E-09
 -1        15 2.00376E+03 1.10119E+03 6.47716E+03 4.35628E+00-4.45652E-11 6.98407E-09
 -1        16-3.50564E+06-1.21879E+06-5.54070E+05-1.25232E+06 1.09091E-08 1.57161E-09
 -1        17-8.69820E+05-5.25882E+05-1.68745E+05-4.84096E+05-5.64032E-09 5.82077E-10
 -1        18 4.52946E+02-4.25012E+03-1.87078E+04-5.88566E+04 8.35144E-10 2.11958E-09
 -1        19 7.72655E+04 9.19924E+04-4.47579E+02 1.50898E+04-6.12818E-10-3.10429E-09
 -1        20-3.26648E+04-3.65040E+05-8.05512E+04 2.66549E+04 3.56007E-09 2.68028E-09
 -1        21-3.43686E+01-2.11044E+05-6.81171E+02-7.30146E+01-3.77471E-09-7.28703E-10
 -1        24-3.26428E+06-1.01457E+06-4.48081E+05-1.25558E+06-2.17454E-08-1.24031E-08
 -1        25 2.03975E+04-4.51157E+04 7.37202E+03-1.06130E+05 3.36604E-10 7.65340E-09
 -1        26-1.83361E+04 6.26939E+04-1.25369E+04-8.77641E+03 1.44719E-09 7.41289E-09
 -1        27-5.82195E+04-2.00201E+05-7.50800E+04 4.51169E+04 5.79924E-09-1.42851E-09
 -1        28 1.63337E+04-5.83439E+04 1.19246E+04 1.86006E+04-1.66978E-10 1.38233E-08
 -1        32-7.97561E+05-2.12968E+05 3.14977E+05-5.28686E+05-1.67856E-08 1.15079E-08
 -1        33-1.14602E+05 5.87983E+04 2.08514E+04-3.39067E+04 1.07510E-09 8.45951E-09
 -1        34-1.48577E+05-1.48106E+04 3.50334E+02 4.57615E+04 3.65983E-09 4.57370E-09
 -1        35-1.66112E+04-2.31866E+04-9.08939E+02 3.67629E+04 4.53630E-09-1.15160E-08
 -1        51 1.41253E+04-3.71723E+05 3.77207E+04-9.41325E+05-4.36557E-11 7.39237E-09
 -1        52 9.05068E+03-3.70625E+05 2.51538E+04-1.10224E+06 3.63798E-11 2.85218E-09
 -1        53 6.76210E+03-3.83556E+05 2.14814E+04-9.38002E+05-1.89175E-10-1.32713E-08
 -1        54 1.94683E+04-3.82396E+05 3.45848E+04-1.10569E+06-3.20142E-10-1.80153E-08
 -1        55 3.80046E+04-3.95659E+05 6.16684E+04-9.37472E+05 5.67525E-10-2.21917E-09
 -1        56-3.27141E+06-3.68372E+05-2.57417E+05-1.26096E+06-1.49521E-09-5.96629E-09
 -1        57-3.37296E+06-6.03137E+05-1.73520E+05-1.25308E+06 1.60799E-09 7.76345E-09
 -1        58-3.32386E+06-4.49167E+05-6.05627E+04-1.24390E+06 1.30149E-09 6.47560E-10
 -1        59-3.31222E+06-5.08406E+05-3.61518E+04-1.27355E+06 1.75146E-09-7.12862E-09
 -1        60-3.33161E+06-4.60325E+05-1.41401E+04-1.24146E+06-1.03432E-09 1.98452E-09
 -1        61-3.30466E+06-4.93851E+05-8.03217E+03-1.27463E+06-1.17871E-09 4.27093E-09
 -1        62-3.33127E+06-4.63387E+05-3.87820E+03-1.24290E+06 1.53636E-09 4.62444E-09
 -1        63-3.30785E+06-4.87686E+05-3.15045E+03-1.26957E+06-7.46127E-10-9.78844E-10
 -1        64-3.32827E+06-4.66529E+05-3.66435E+03-1.24645E+06 1.35560E-09 3.65208E-09
 -1        65-3.31583E+06-4.81890E+05-7.24048E+03-1.26093E+06 1.11868E-09 2.45927E-09
 -1        66-3.32319E+06-4.69298E+05-1.28338E+04-1.25144E+06 6.30962E-10 4.96311E-09
 -1        67-3.33206E+06-4.85433E+05-3.24780E+04-1.24899E+06-3.42885E-09-1.72085E-08
 -1        68-3.31211E+06-4.63331E+05-5.45832E+04-1.25826E+06 2.18643E-09-3.15413E-09
 -1        69-3.39311E+06-5.64578E+05-1.56138E+05-1.22383E+06 9.70886E-10 5.56429E-09
 -1        70-3.26279E+06-3.92557E+05-2.31722E+05-1.27583E+06-5.05679E-10-7.59610E-09
 -1        86-1.37542E+03 2.56419E+05 9.58073E+03-3.78522E+02 1.13255E-09-1.11176E-08
 -1        87 9.12058E+03 2.62478E+05 2.00331E+04 1.56500E+03 1.88993E-09 3.24005E-09
 -1        88-7.74127E+03 2.53282E+05 3.06204E+04-1.18656E+03 2.89219E-09 4.52064E-09
 -1        89 5.76846E+04 2.85197E+05 8.26550E+04 3.42120E+03 4.37740E-09-9.92785E-09
 -1        90-4.97852E+04 2.33726E+05 1.16688E+05-2.23417E+03 5.07134E-09-4.76473E-09
 -1       121-1.45162E+02-7.26737E+05 1.32002E+02 1.35750E+02 3.78748E-10-4.41833E-09
 -1       122-3.64266E+01-7.26292E+05 3.67424E+02-5.43503E+02-1.49926E-09-3.29601E-09
 -1       123-1.83844E+02-7.26777E+05 5.63976E+02 4.06709E+02 1.09418E-09-2.36469E-10
 -1       124 6.43734E+02-7.25886E+05 1.53207E+03-1.21405E+03-2.74792E-09 5.65342E-09
 -1       125-6.20706E+02-7.27161E+05 2.31740E+03 8.05863E+02 1.68211E-09-2.01726E-09
 -1       191-6.21598E+00 2.46497E+05 7.66329E+00-5.67608E-02 1.54622E-10 1.22086E-08
 -1       192-6.31112E+00 2.46477E+05 1.36713E+01 6.60381E-01 2.13580E-10 1.83013E-09
 -1       193-7.79427E+00 2.46497E+05 2.53733E+01-6.08172E-01 2.30097E-10 9.55424E-10
 -1       194-8.22156E+00 2.46479E+05 5.17177E+01 1.62356E+00 9.36700E-11 2.20075E-09
 -1       195-1.08274E+01 2.46495E+05 1.01111E+02-1.02733E+00 3.29557E-10-1.80080E-09
 -1       251 1.52875E+05-4.29883E+04 1.00187E+05 4.29804E+03-1.80989E-10-2.13913E-09
 -1       252 1.99635E+05 4.97015E+04 7.12705E+04-1.45111E+04 3.89207E-10 4.94038E-09
 -1       253 1.70382E+05-6.65575E+03 2.59115E+04 3.12042E+03-7.51584E-10-4.42378E-09
 -1       254 1.78880E+05 7.67881E+03 1.64636E+04-1.26661E+04 1.19428E-10-5.87761E-09
 -1       255 1.73507E+05-1.02781E+03 6.69757E+03 2.45313E+03-2.85524E-10-1.54932E-09
 -1       256 1.75083E+05 1.22480E+03 4.10518E+03-1.16751E+04-7.37359E-10-1.75817E-10
 -1       257 1.74120E+05-1.80526E+02 2.12311E+03 2.12934E+03-3.23055E-10 1.99464E-10
 -1       258 1.74452E+05 4.00115E+02 1.91675E+03-1.13384E+04-1.97939E-10 8.18635E-09
 -1       259 1.74120E+05-1.92222E+02 2.23445E+03 2.11647E+03-3.70392E-10 7.59019E-09
 -1       260 1.75108E+05 1.32847E+03 4.41678E+03-1.16239E+04-5.28061E-10 9.19511E-09
 -1       261 1.73480E+05-1.11747E+03 7.27493E+03 2.41485E+03 1.27545E-09 3.56385E-09
 -1       262 1.79147E+05 8.35787E+03 1.78756E+04-1.25593E+04-1.05291E-09 4.15525E-09
 -1       263 1.70135E+05-7.23844E+03 2.82048E+04 3.05181E+03-6.99629E-10 3.85808E-09
 -1       264 2.01552E+05 5.40673E+04 7.74737E+04-1.43450E+04-3.37917E-09 1.21099E-08
 -1       265 1.51194E+05-4.67474E+04 1.09042E+05 4.20040E+03-1.00920E-09 6.09725E-09
 -1       266-3.62736E+04-1.69588E+04 8.51212E+04-9.32232E+01-4.36557E-11-3.49587E-10
 -1       267 4.20523E+04 1.97701E+04 6.01558E+04 1.07546E+02 1.41881E-10-9.04299E-09
 -1       268-5.63909E+03-2.79977E+03 2.23600E+04-1.37041E+01 6.54836E-11-5.03656E-09
 -1       269 6.65817E+03 3.35098E+03 1.45333E+04 1.59623E+01-7.27596E-12 4.07847E-09
 -1       270-9.99399E+02-5.50581E+02 7.01544E+03-2.16623E+00-1.84173E-11 6.74423E-09
 -1       271-3.50968E+06-4.39906E+05-2.69228E+05-1.36937E+06-6.54836E-10-1.15251E-08
 -1       272-3.59049E+06-6.51482E+05-1.73016E+05-1.38418E+06 1.69302E-09-1.54196E-08
 -1       273-3.56218E+06-5.05063E+05-6.36128E+04-1.35528E+06 3.46517E-10-5.31509E-09
 -1       274-3.52858E+06-5.72243E+05-3.55424E+04-1.40639E+06 2.53931E-09 8.93215E-09
 -1       275-3.57111E+06-5.09970E+05-1.48043E+04-1.35103E+06 2.52021E-09 3.26418E-09
 -1       276-3.51783E+06-5.66817E+05-7.83570E+03-1.41347E+06-6.22094E-10-2.57387E-09
 -1       277-3.57356E+06-5.09107E+05-3.83960E+03-1.34909E+06-3.21506E-10-5.19071E-09
 -1       278-3.51544E+06-5.67612E+05-2.78039E+03-1.41598E+06 2.52885E-09-6.38238E-10
 -1       279-3.57385E+06-5.08869E+05-2.97901E+03-1.34880E+06 1.13141E-09-9.50354E-09
 -1       280-3.51668E+06-5.67360E+05-5.46095E+03-1.41476E+06-2.01635E-09-4.82373E-09
 -1       281-3.57215E+06-5.09521E+05-1.00122E+04-1.35017E+06 8.73570E-10-2.88128E-09
 -1       282-3.52437E+06-5.70408E+05-2.38782E+04-1.40924E+06 9.74978E-10-1.83536E-09
 -1       283-3.56561E+06-5.06834E+05-4.27069E+04-1.35364E+06 5.59794E-10 3.19415E-09
 -1       284-3.56715E+06-6.22045E+05-1.16020E+05-1.39240E+06-1.08616E-09 1.88629E-09
 -1       285-3.52941E+06-4.64238E+05-1.80701E+05-1.36421E+06 1.98088E-09 3.58705E-09
 -1       301 1.47328E+04-1.88661E+04 1.12193E+05-4.82015E+04-5.74801E-10 1.53022E-10
 -1       302 1.58474E+04 9.50004E+03 7.99464E+04-7.09777E+04 1.78034E-09-1.96451E-10
 -1       303 8.97853E+02-8.60818E+03 7.19538E+04-4.83090E+04-5.80258E-10 1.00626E-08
 -1       304 2.78945E+04 2.07508E+04 1.19263E+05-7.07319E+04 1.18962E-09 8.75298E-09
 -1       305 2.74653E+04-2.98278E+04 1.99216E+05-4.83770E+04-5.74801E-10 6.14818E-09
 -1       306-3.99947E+06-4.67036E+05-3.03674E+05-1.56844E+06 2.48838E-09-1.08266E-08
 -1       307-4.16371E+06-7.14818E+05-2.06887E+05-1.50537E+06 8.70386E-10-4.97676E-09
 -1       308-4.07450E+06-5.55579E+05-7.15287E+04-1.53320E+06 2.21189E-09 1.53159E-09
 -1       309-4.06736E+06-6.21583E+05-4.31019E+04-1.55806E+06 2.92987E-09-1.92722E-09
 -1       310-4.09541E+06-5.58372E+05-1.67918E+04-1.51641E+06-7.98138E-10-3.44789E-09
 -1       311-4.04046E+06-6.21482E+05-9.67094E+03-1.58180E+06 3.16169E-09 6.60680E-09
 -1       312-4.10169E+06-5.55136E+05-4.72683E+03-1.50983E+06 1.26643E-09 5.08965E-09
 -1       313-4.03761E+06-6.20965E+05-4.24157E+03-1.58412E+06-1.53454E-09 1.19275E-08
 -1       314-4.09830E+06-5.58824E+05-5.22430E+03-1.51413E+06-2.48110E-09 3.34717E-09
 -1       315-4.05286E+06-6.08731E+05-1.07183E+04-1.56611E+06 1.05865E-09 1.48691E-08
 -1       316-4.08606E+06-5.67676E+05-1.91745E+04-1.52754E+06 2.75736E-09 4.59295E-09
 -1       317-4.08980E+06-6.03187E+05-4.89573E+04-1.53301E+06 1.40938E-09-7.93898E-09
 -1       318-4.06123E+06-5.64846E+05-8.13034E+04-1.54697E+06-6.43740E-09 1.30458E-08
 -1       319-4.19697E+06-7.13115E+05-2.35529E+05-1.47828E+06-4.45289E-09-2.72485E-09
 -1       320-3.97980E+06-4.59590E+05-3.45196E+05-1.58185E+06 7.68341E-09 4.07454E-10
 -1       336 5.02146E+02-7.86734E+05-4.30353E+03 1.02638E+03-7.05018E-09 2.82307E-09
 -1       337-1.57365E+03-7.87763E+05-4.76092E+03-2.60460E+03-1.31492E-08 2.51748E-09
 -1       338 3.38686E+02-7.86840E+05-6.13098E+03 1.57214E+03-9.20159E-09 5.63887E-10
 -1       339-6.35910E+03-7.90743E+05-1.34401E+04-3.68030E+03-1.68616E-08 9.96442E-09
 -1       340 4.27790E+03-7.83835E+05-2.07726E+04 2.09418E+03-1.14715E-08 1.77934E-08
 -1       406 1.28639E+01 2.46486E+05 4.13206E+02 4.50104E-03 5.11676E-10 3.56522E-09
 -1       407 1.41024E+02 2.46562E+05 8.78331E+02-7.92985E+00 6.79847E-11-3.64275E-09
 -1       408 4.49016E+02 2.46422E+05 1.75414E+03 8.07721E+00 5.54792E-10 5.38193E-09
 -1       409 1.89391E+03 2.47122E+05 3.94920E+03-7.76893E+01-1.25510E-10-5.35897E-09
 -1       410 5.44704E+03 2.45923E+05 8.06210E+03 7.25145E+01 4.82032E-10 4.66298E-09
 -1       521-7.41662E+06-7.71666E+05-5.75425E+05-2.71647E+06 3.77622E-09-5.79166E-09
 -1       522-7.03560E+06-1.62188E+06-3.46090E+05-3.13246E+06-3.11356E-08-1.39808E-08
 -1       523-7.63399E+06-7.51166E+05-1.32888E+05-2.45249E+06 8.87394E-09-1.75351E-08
 -1       524-6.84136E+06-1.60394E+06-7.15872E+04-3.46826E+06 3.46084E-08-4.62860E-08
 -1       525-7.65898E+06-7.49909E+05-2.97230E+04-2.41616E+06 2.31066E-08-2.16914E-08
 -1       526-6.85837E+06-1.46180E+06-4.55259E+02-3.29251E+06 2.05418E-08-8.76207E-09
 -1       527-7.58409E+06-9.16201E+05-3.20616E+04-2.60606E+06 1.16488E-08 7.53425E-09
 -1       528-7.10088E+06-1.09039E+06 2.76924E+04-2.78891E+06 1.33005E-08 1.69857E-08
 -1       529-7.36644E+06-1.15671E+06-3.83823E+04-2.88184E+06 4.40923E-09-3.96540E-10
 -1       530-7.60924E+06-6.57579E+05 7.58479E+03-2.33826E+06-1.71640E-08 2.33849E-08
 -1       531-7.10565E+06-1.32743E+06-3.60803E+04-3.07648E+06-5.26743E-08-2.82489E-09
 -1       532-7.99653E+06-4.44915E+05-7.00988E+04-2.14415E+06 2.65766E-08-3.79378E-08
 -1       533-7.02992E+06-1.33452E+06-1.25176E+05-3.11641E+06 1.26420E-08-5.37038E-08
 -1       534-7.95071E+06-7.54658E+05-3.48917E+05-2.18370E+06-1.20162E-08 4.33247E-08
 -1       535-7.12872E+06-1.03858E+06-5.60936E+05-3.01586E+06-1.20344E-08 2.91038E-08
 -1       536-1.26814E+05-1.70662E+04 3.93213E+04-9.67111E+02-9.60910E-10 1.25328E-08
 -1       537-1.08396E+05 1.97607E+04 2.80579E+04 5.85564E+02-9.56383E-09 1.19007E-08
 -1       538-1.20379E+05-2.68944E+03 1.00816E+04-4.85294E+02-7.68807E-11 6.40239E-09
 -1       539-1.15946E+05 3.10744E+03 6.59729E+03-4.66524E+02 4.92201E-09-4.15037E-09
 -1       540-1.19264E+05-4.29409E+02 2.47543E+03 8.50125E+01 1.16533E-09 2.66573E-09
 -1       541-1.17445E+05 4.85342E+02 1.62710E+03-1.54520E+03-4.71736E-10-1.97008E-09
 -1       542-1.18887E+05-6.51010E+01 5.15648E+02 5.93335E+02-6.74021E-10-1.30680E-09
 -1       543-1.18100E+05 4.05812E+01 2.70121E+02-2.40230E+03 9.23620E-10-3.49456E-09
 -1       544-1.18619E+05 2.30457E+01-1.59353E+02 9.42108E+02 9.78055E-10 8.81215E-10
 -1       545-1.18566E+05-2.17211E+02-6.02913E+02-2.87727E+03-1.81464E-09-2.92826E-09
 -1       546-1.18430E+05 1.98758E+02-1.16967E+03 1.06833E+03 2.86913E-10-3.68539E-09
 -1       547-1.19170E+05-1.44065E+03-2.95516E+03-2.88449E+03-2.50409E-09-9.35341E-09
 -1       548-1.18016E+05 1.24570E+03-4.76989E+03 9.49330E+02-3.56647E-09-8.66294E-11
 -1       549-1.22424E+05-9.17798E+03-1.29319E+04-2.41642E+03-1.80130E-09 3.64480E-09
 -1       550-1.15168E+05 7.92398E+03-1.84709E+04 6.00227E+02 1.81956E-10-7.19410E-10
 -1       551 8.99808E+03-4.06894E+05 2.10013E+04-6.88218E+05-3.12284E-08 4.81668E-09
 -1       552 1.99109E+04-4.10311E+05 2.80081E+04-9.79667E+05-2.42508E-08 1.82445E-08
 -1       553 1.36220E+04-4.15569E+05 4.34006E+04-6.85844E+05-3.87518E-08 7.33417E-09
 -1       554 4.24865E+04-3.99160E+05 9.21840E+04-9.80694E+05-2.43454E-08 6.00107E-09
 -1       555 4.04378E+04-4.33309E+05 1.65329E+05-6.86597E+05-3.91374E-08-3.70346E-09
 -1       556 6.30976E+04-1.31625E+05 4.45820E+04-1.71904E+05 9.89530E-10 6.18456E-10
 -1       557 1.16429E+05-1.75776E+05 2.34440E+04-2.15396E+05 6.51198E-09-7.24094E-09
 -1       558 6.28442E+04-1.37531E+05 9.44125E+03-1.66822E+05 2.89583E-09 5.07498E-10
 -1       559 1.09109E+05-1.81834E+05 4.80555E+03-2.18669E+05 8.33825E-09-9.84073E-10
 -1       560 6.11956E+04-1.36439E+05 1.96473E+03-1.67863E+05 2.80124E-09 7.43330E-09
 -1       561 1.06568E+05-1.81170E+05 1.05402E+03-2.20278E+05 8.14907E-10 8.85848E-10
 -1       562 5.98701E+04-1.35553E+05 3.90576E+02-1.68818E+05-1.67347E-10 1.77124E-10
 -1       563 1.05012E+05-1.80501E+05 2.54486E+02-2.21273E+05 5.87534E-10 7.33002E-09
 -1       564 5.90407E+04-1.35019E+05 8.87047E+01-1.69407E+05 8.15271E-09 2.83990E-09
 -1       565 1.04196E+05-1.80151E+05 6.17938E+01-2.21787E+05 7.70888E-09-3.81988E-09
 -1       566 5.87364E+04-1.34817E+05-1.32821E+01-1.69626E+05 4.50382E-09-3.74348E-09
 -1       567 1.04079E+05-1.80094E+05-9.61413E+01-2.21797E+05 7.43103E-09-4.66571E-09
 -1       568 5.89897E+04-1.34985E+05-2.97430E+02-1.69510E+05 9.84619E-09 1.61526E-09
 -1       569 1.04029E+05-1.79981E+05-6.96280E+02-2.20745E+05 1.30904E-08-3.29419E-09
 -1       570 6.03198E+04-1.36175E+05-1.50702E+03-1.69469E+05 1.02518E-08-1.55524E-09
 -1       571 1.78989E+05 6.51875E+03 9.65698E+03-4.55102E+04-1.03510E-08 1.80216E-09
 -1       572 1.80425E+05 2.26911E+03 4.73133E+03-4.98883E+04-2.16560E-08 2.11003E-10
 -1       573 1.79564E+05 5.42895E+02 2.10184E+03-4.53921E+04-9.98443E-09 3.63434E-09
 -1       574 1.79733E+05 1.79241E+02 1.05308E+03-5.00204E+04 4.54747E-11 1.17461E-09
 -1       575 1.79628E+05 2.75804E+01 4.96312E+02-4.53765E+04 7.81256E-10 7.84121E-09
 -1       576 1.79639E+05 1.07434E+01 2.52647E+02-5.00381E+04-1.93495E-10 3.41061E-09
 -1       577 1.79637E+05-1.58955E-02 1.24452E+02-4.53744E+04-5.37739E-10 1.95496E-09
 -1       578 1.79630E+05 2.07807E+00 6.78817E+01-5.00402E+04-8.18773E-10 1.34560E-09
 -1       579 1.79648E+05-2.16850E+00 4.15109E+01-4.53744E+04-7.94444E-10-5.06088E-09
 -1       580 1.79645E+05-3.85279E+00 3.88056E+01-5.00375E+04-1.25510E-09-1.04956E-09
 -1       581 1.79668E+05-9.42513E+00 5.25575E+01-4.53771E+04 9.33687E-09 7.66022E-09
 -1       582 1.79680E+05-2.27192E+00 1.00241E+02-5.00105E+04 2.07583E-08-1.97315E-09
 -1       583 1.79691E+05 2.11195E+01 1.92053E+02-4.54014E+04 1.06002E-08-3.24326E-09
 -1       584 1.79780E+05 1.70147E+02 4.30793E+02-4.98071E+04-1.10731E-09-5.12466E-09
 -1       585 1.79673E+05 5.49072E+02 8.74499E+02-4.55808E+04 6.18456E-10-6.19002E-09
 -1       586-2.13578E+03 5.88986E+04-2.82443E+03-1.55147E+05 2.40107E-10 4.14366E-09
 -1       587-4.44616E+02 5.85196E+04-2.85179E+02-1.70729E+05 5.63887E-10 1.54387E-10
 -1       588 6.23202E+02 5.85903E+04 2.08165E+03-1.55054E+05 3.62888E-10-7.28505E-10
 -1       589 3.07133E+03 5.97301E+04 6.02134E+03-1.70585E+05 5.06589E-10 3.32420E-10
 -1       590 8.81013E+03 5.78747E+04 1.28773E+04-1.55293E+05 2.27828E-10 6.53836E-09
 -1       591-3.92757E+04-1.11624E+04-1.29854E+04-2.02686E+04 9.41441E-10-7.16955E-09
 -1       592-4.05153E+04-1.43279E+04-7.03344E+03-2.36284E+04-1.23964E-09-8.57381E-09
 -1       593-4.05886E+04-1.02058E+04-2.92809E+03-2.12067E+04 1.87549E-09 5.39171E-09
 -1       594-3.87062E+04-1.24401E+04-1.46037E+03-2.37181E+04-9.46329E-10 5.67866E-11
 -1       595-4.06892E+04-1.02014E+04-6.71124E+02-2.12497E+04-1.12732E-09 2.26608E-09
 -1       596-3.85838E+04-1.23536E+04-3.42089E+02-2.37054E+04 2.09639E-10 7.69688E-09
 -1       597-4.07020E+04-1.02097E+04-1.88288E+02-2.12515E+04-7.78101E-10 8.75502E-10
 -1       598-3.85721E+04-1.23503E+04-1.55047E+02-2.37018E+04-3.59336E-10-9.54634E-09
 -1       599-4.07010E+04-1.02097E+04-2.02657E+02-2.12512E+04-1.82467E-10-1.50181E-08
 -1       600-3.85851E+04-1.23548E+04-3.80167E+02-2.37050E+04 1.51607E-09-9.77900E-09
 -1       601-4.06849E+04-1.02008E+04-7.51916E+02-2.12485E+04 6.17206E-10-6.58304E-09
 -1       602-3.87224E+04-1.24517E+04-1.63975E+03-2.37176E+04 9.19044E-10-5.04622E-09
 -1       603-4.05706E+04-1.02073E+04-3.28893E+03-2.12004E+04 8.39464E-10 1.97042E-09
 -1       604-4.07610E+04-1.45648E+04-7.90050E+03-2.36069E+04-2.33285E-09-2.93767E-10
 -1       605-3.90873E+04-1.12882E+04-1.45860E+04-2.01538E+04-1.10367E-09 2.36651E-09
 -1       606 2.53450E+04-8.62288E+03-1.55258E+04 2.47270E+04-3.23962E-09-5.82986E-10
 -1       607 2.26860E+04-2.78217E+03-7.73091E+03 2.77576E+04 1.85537E-10-1.35958E-09
 -1       608 2.41942E+04-4.69631E+02-3.46210E+03 2.45299E+04 2.25009E-09-1.77397E-09
 -1       609 2.38936E+04-1.22049E+02-1.74859E+03 2.79752E+04-1.56524E-09-2.42858E-09
 -1       610 2.40543E+04 2.24442E+01-8.35310E+02 2.45079E+04-3.49883E-09-2.63731E-09
 -1       611 2.39971E+04 3.42993E+01-4.21298E+02 2.79990E+04-7.67568E-09-6.20730E-10
 -1       612 2.40166E+04 3.65530E+01-2.01641E+02 2.45057E+04-2.99042E-09 4.21505E-09
 -1       613 2.39945E+04 4.21858E+01-9.19065E+01 2.80018E+04-5.54746E-09-1.80012E-09
 -1       614 2.39958E+04 3.74831E+01-2.56978E+01 2.45050E+04-3.56886E-09 2.92721E-09
 -1       615 2.39835E+04 4.73166E+01 2.86496E+01 2.80022E+04 5.42514E-10 1.61322E-09
 -1       616 2.39801E+04 4.28198E+01 9.49806E+01 2.45052E+04-3.80078E-09-2.93176E-09
 -1       617 2.39890E+04 7.13175E+01 2.20349E+02 2.80017E+04 2.55022E-09 1.59162E-10
 -1       618 2.39564E+04 1.09227E+02 4.45426E+02 2.45053E+04 2.66755E-09-1.98929E-09
 -1       619 2.41427E+04 4.18146E+02 1.00115E+03 2.80010E+04 1.26374E-09-1.21531E-09
 -1       620 2.38061E+04 1.16791E+03 2.01249E+03 2.45043E+04 2.05341E-09 4.33238E-09
 -1       621 3.04783E+02 1.94254E+05 2.65451E+03 6.82843E+03-2.52911E-10 4.67571E-09
 -1       622 3.49333E+02 1.94911E+05 2.26374E+03 9.97022E+03-1.65869E-10 6.52562E-11
 -1       623 1.42527E+01 1.94441E+05 2.61725E+03 6.79643E+03-2.51589E-10 3.08978E-09
 -1       624 1.18717E+03 1.95679E+05 4.98212E+03 1.00015E+04-3.36968E-10 6.12738E-09
 -1       625 1.19249E+03 1.93480E+05 8.66691E+03 6.79743E+03-2.22371E-10 3.29496E-09
 -1       626 1.60765E+05 4.44325E+04 3.20804E+03 8.67644E+04 1.48748E-09 4.55293E-09
 -1       627 1.58579E+05 4.60380E+04 1.54581E+03 9.02624E+04-1.17143E-09-2.02999E-09
 -1       628 1.60884E+05 4.29158E+04 6.52881E+02 8.72490E+04 1.75878E-08-8.86916E-09
 -1       629 1.58116E+05 4.56723E+04 3.20024E+02 9.04712E+04 3.27668E-08-1.14905E-08
 -1       630 1.60891E+05 4.28444E+04 1.47952E+02 8.72616E+04 1.35378E-08-8.69454E-09
 -1       631 1.58060E+05 4.56643E+04 7.96034E+01 9.04726E+04 1.72258E-09 9.40321E-09
 -1       632 1.60882E+05 4.28504E+04 5.25366E+01 8.72541E+04-3.72074E-09-4.56527E-09
 -1       633 1.58048E+05 4.56693E+04 5.87335E+01 9.04661E+04 3.06954E-11 9.59176E-09
 -1       634 1.60873E+05 4.28513E+04 9.50768E+01 8.72499E+04 1.55796E-09-6.33713E-09
 -1       635 1.58051E+05 4.56709E+04 1.92817E+02 9.04654E+04 3.31079E-09 2.44449E-09
 -1       636 1.60862E+05 4.28506E+04 3.89444E+02 8.72469E+04-2.93960E-09 3.98131E-10
 -1       637 1.58130E+05 4.57329E+04 8.55938E+02 9.04613E+04-6.48278E-10-1.42609E-09
 -1       638 1.60829E+05 4.30416E+04 1.75911E+03 8.71588E+04 7.19979E-10-1.76124E-09
 -1       639 1.59050E+05 4.70198E+04 4.16153E+03 9.01878E+04-3.81897E-09 3.46381E-09
 -1       640 1.60706E+05 4.68722E+04 8.63623E+03 8.55321E+04-1.66438E-10 9.04697E-09
 -1       656 4.35199E+04-1.10162E+06-1.05059E+05-3.65534E+02-1.81899E-10-7.51609E-09
 -1       657-5.75079E+04-1.14904E+06-8.68861E+04 7.08055E+03 9.28594E-10 1.72597E-09
 -1       658 1.38003E+04-1.11514E+06-5.33204E+04-1.38559E+03 4.24166E-10 6.01958E-10
 -1       659-6.16666E+04-1.15101E+06-9.23484E+04 7.76217E+03-1.38607E-09-4.47445E-09
 -1       660 4.76685E+04-1.09965E+06-1.14455E+05-1.04713E+03-5.82077E-10-1.04163E-09
 -1       661 1.55022E+05 1.68735E+04 1.48894E+04 6.05873E+04 1.13528E-09 1.69075E-09
 -1       662 1.62790E+05 2.85388E+04 1.00330E+04 5.79841E+04 3.10456E-09-2.61684E-09
 -1       663 1.57940E+05 2.16555E+04 3.50961E+03 5.97454E+04 2.96166E-09 7.92397E-11
 -1       664 1.59414E+05 2.29407E+04 2.09830E+03 5.90073E+04 3.80817E-09-2.45299E-09
 -1       665 1.58377E+05 2.23143E+04 8.27715E+02 5.96235E+04-1.59235E-09-3.00531E-09
 -1       666 1.58902E+05 2.21827E+04 4.82694E+02 5.91631E+04-8.72470E-09 1.08753E-09
 -1       667 1.58449E+05 2.23937E+04 2.54503E+02 5.95970E+04-9.69237E-10 3.45373E-09
 -1       668 1.58825E+05 2.21195E+04 2.54972E+02 5.92009E+04 1.80878E-09 2.66436E-09
 -1       669 1.58454E+05 2.23757E+04 3.41651E+02 5.95863E+04 2.12039E-09 5.48226E-10
 -1       670 1.58912E+05 2.22993E+04 7.40610E+02 5.91992E+04 7.47377E-09-5.68629E-09
 -1       671 1.58363E+05 2.22175E+04 1.31391E+03 5.95972E+04-3.94508E-09 1.92676E-09
 -1       672 1.59679E+05 2.35759E+04 3.36074E+03 5.90126E+04-3.96577E-09-6.26926E-10
 -1       673 1.57691E+05 2.11312E+04 5.63173E+03 5.97607E+04 1.36629E-09 1.16120E-09
 -1       674 1.65042E+05 3.26209E+04 1.61056E+04 5.74346E+04 3.49121E-09 3.78600E-09
 -1       675 1.53034E+05 1.34254E+04 2.39057E+04 6.10799E+04 1.02955E-09 1.59980E-09
 -1       676 1.76842E+01-2.10987E+05-8.20986E+02 3.65082E+01-9.83277E-10 1.90881E-09
 -1       677-2.17899E+02-2.11185E+05-1.50249E+03-7.29837E+01-3.62445E-09-6.57209E-09
 -1       678 1.45538E+02-2.10845E+05-2.65600E+03 3.64503E+01-7.84325E-10 3.79440E-10
 -1       679-2.65651E+03-2.12788E+05-6.30929E+03-7.27563E+01-3.81488E-09 2.75708E-09
 -1       680 1.58543E+03-2.09384E+05-1.01685E+04 3.58632E+01-2.34968E-09 2.56636E-09
 -1       771-2.26391E+06-4.02760E+05-5.64313E+04-9.46093E+05-8.47649E-09-8.71660E-09
 -1       772-2.24791E+06-4.33940E+05-3.01770E+04-9.80952E+05-5.84623E-09 4.66935E-09
 -1       773-2.27197E+06-3.96472E+05-1.32175E+04-9.49234E+05-5.82077E-11 3.18687E-09
 -1       774-2.23998E+06-4.27491E+05-6.38148E+03-9.85011E+05 1.20926E-08-8.90032E-09
 -1       775-2.27412E+06-3.95036E+05-3.36938E+03-9.49514E+05 2.11730E-09-7.93079E-10
 -1       776-2.24002E+06-4.27576E+05-1.51403E+03-9.87358E+05-2.66300E-09 1.41335E-09
 -1       777-2.27568E+06-3.93890E+05-1.03310E+03-9.49690E+05 1.68802E-09 1.01682E-09
 -1       778-2.24052E+06-4.27835E+05-4.26819E+02-9.89322E+05 2.68483E-09 3.37513E-09
 -1       779-2.27695E+06-3.92916E+05-4.64431E+02-9.49849E+05-2.10275E-09-2.63572E-09
 -1       780-2.24103E+06-4.28044E+05-3.01301E+02-9.90912E+05 1.28966E-09 1.65073E-10
 -1       781-2.27790E+06-3.92139E+05-5.48227E+02-9.49971E+05-8.98945E-09-1.24373E-09
 -1       782-2.24150E+06-4.28235E+05-9.14078E+02-9.92081E+05-1.27620E-08-2.86889E-09
 -1       783-2.27850E+06-3.91625E+05-1.83637E+03-9.50039E+05-2.08820E-09-4.43004E-09
 -1       784-2.24284E+06-4.29481E+05-4.31307E+03-9.92744E+05-6.17365E-09-1.15961E-11
 -1       785-2.27805E+06-3.91936E+05-7.98341E+03-9.49503E+05-1.09294E-08 1.37334E-09
 -1       786 1.63916E+05-8.81172E+03 2.03861E+04-1.16801E+01 1.20118E-06 1.21272E-08
 -1       787 1.72749E+05 1.02012E+04 1.44227E+04 2.41153E+00 2.39274E-06 6.67114E-09
 -1       788 1.67324E+05-1.38134E+03 5.27643E+03-6.61720E+00 2.47243E-06-7.88623E-09
 -1       789 1.68779E+05 1.59829E+03 3.31520E+03-7.12923E+00 2.54810E-06 1.54770E-08
 -1       790 1.67886E+05-2.15785E+02 1.34891E+03-2.13958E+00 2.76241E-06-1.27531E-08
 -1       791 1.68123E+05 2.50697E+02 7.91892E+02-1.69270E+01 2.97930E-06 1.32085E-08
 -1       792 1.67981E+05-3.47603E+01 3.61234E+02 3.18066E+00 3.57498E-06-1.35350E-08
 -1       793 1.68017E+05 4.87261E+01 2.36336E+02-2.99093E+01 4.16433E-06 5.74128E-09
 -1       794 1.67993E+05-1.39477E+01 1.74491E+02 1.08430E+01 2.08363E-06-1.40125E-08
 -1       795 1.68027E+05 7.17403E+01 2.51570E+02-4.96943E+01 6.45669E-09-5.69898E-10
 -1       796 1.67970E+05-5.77576E+01 3.76323E+02 2.29659E+01-6.52731E-11-1.27062E-09
 -1       797 1.68198E+05 4.23366E+02 8.86913E+02-8.17561E+01-9.69209E-10-2.15248E-09
 -1       798 1.67822E+05-3.65314E+02 1.39979E+03 4.29054E+01 1.19723E-10 5.14285E-09
 -1       799 1.69248E+05 2.69736E+03 3.81602E+03-1.35257E+02-1.90271E-10 3.35348E-09
 -1       800 1.66920E+05-2.32993E+03 5.39025E+03 7.64669E+01 9.72626E-11 4.10159E-09
 -1       801-2.86799E+03-2.36222E+05-1.12296E+04 1.93718E+04 1.02809E-08-2.31648E-09
 -1       802 1.49945E+04-1.34256E+05 3.48175E+04-7.30742E+04 2.76887E-08 1.09685E-09
 -1       803-1.12762E+04-1.92216E+05 5.18702E+04 2.30399E+04 2.18279E-08 1.97995E-08
 -1       804 1.10541E+05-7.90734E+04 1.60469E+05-7.30459E+04 2.56987E-08 2.31247E-08
 -1       805-9.85488E+04-2.91026E+05 1.98589E+05 1.93395E+04 9.13860E-09 2.27401E-08
 -1       806-1.94938E+05-4.15184E+04-1.64689E+04-8.09162E+04-9.27685E-10 1.73259E-10
 -1       807-1.95931E+05-3.91368E+04-8.09083E+03-8.52561E+04 2.40459E-09-3.64162E-09
 -1       808-1.95404E+05-3.55703E+04-3.43212E+03-8.37112E+04-3.67663E-10-4.90459E-10
 -1       809-1.94205E+05-3.68885E+04-1.67788E+03-8.54870E+04-5.48198E-10-6.78028E-10
 -1       810-1.95476E+05-3.53606E+04-7.68305E+02-8.38345E+04 7.69887E-10-2.62071E-09
 -1       811-1.94073E+05-3.67996E+04-3.81060E+02-8.54668E+04-1.91903E-10-5.51108E-09
 -1       812-1.95489E+05-3.53764E+04-1.90249E+02-8.38341E+04-9.09495E-10 1.12186E-09
 -1       813-1.94056E+05-3.68019E+04-1.20100E+02-8.54561E+04-3.68345E-10-1.17734E-08
 -1       814-1.95486E+05-3.53825E+04-1.12813E+02-8.38314E+04-1.79352E-09-8.48559E-09
 -1       815-1.94057E+05-3.68039E+04-1.76664E+02-8.54528E+04 9.97943E-10 4.35648E-10
 -1       816-1.95474E+05-3.53814E+04-3.31123E+02-8.38290E+04-1.48202E-09 1.14869E-09
 -1       817-1.94114E+05-3.68357E+04-7.09828E+02-8.54463E+04-5.34328E-10 7.56881E-09
 -1       818-1.95432E+05-3.54813E+04-1.44670E+03-8.37817E+04 1.45428E-09 1.06047E-09
 -1       819-1.94912E+05-3.77041E+04-3.40471E+03-8.52526E+04-1.87356E-10-1.65574E-09
 -1       820-1.95156E+05-3.80555E+04-6.92927E+03-8.26839E+04-1.51249E-09 1.61685E-09
 -1       821-2.51909E+05 1.39664E+04-3.22998E+04 9.22148E+01-2.55590E-10 2.45745E-09
 -1       822-2.65907E+05-1.61685E+04-2.28568E+04-6.22577E+02-2.12983E-09-3.07682E-09
 -1       823-2.57311E+05 2.18959E+03-8.36573E+03 6.17958E+01 8.56891E-10-2.99906E-09
 -1       824-2.59607E+05-2.53436E+03-5.26366E+03-4.77013E+02-2.09194E-10 5.09090E-09
 -1       825-2.58206E+05 3.42658E+02-2.16362E+03-5.33529E+01-2.97282E-09 2.86047E-09
 -1       826-2.58565E+05-4.04128E+02-1.30581E+03-2.07459E+02-5.31982E-09-3.87206E-09
 -1       827-2.58353E+05 6.07677E+01-6.76286E+02-2.07763E+02-3.61796E-09-1.04009E-08
 -1       828-2.58424E+05-1.23282E+02-5.97458E+02 8.17796E+01-5.25882E-09 1.81845E-09
 -1       829-2.58347E+05 6.20709E+01-6.86193E+02-3.42597E+02 6.17455E-10-1.75669E-09
 -1       830-2.58583E+05-4.14354E+02-1.33966E+03 2.80492E+02 3.40477E-09-7.88823E-09
 -1       831-2.58194E+05 3.51822E+02-2.21857E+03-4.06480E+02-2.05403E-09 2.61593E-10
 -1       832-2.59649E+05-2.60186E+03-5.40620E+03 3.13546E+02-9.50005E-11 3.18994E-09
 -1       833-2.57282E+05 2.24803E+03-8.59083E+03-3.75651E+02-2.21718E-10 1.94950E-09
 -1       834-2.66103E+05-1.66028E+04-2.34712E+04 1.70549E+02 1.86705E-10 7.46923E-09
 -1       835-2.51741E+05 1.43418E+04-3.31721E+04-2.63472E+02 4.77899E-09 7.59246E-09
 -1       836-8.38741E+02 2.38162E+05 1.43540E+04-2.06900E+04 1.47566E-09-1.87947E-09
 -1       837 3.16264E+03 2.42605E+05 1.22500E+04-4.15516E+04 2.30739E-09-9.61973E-09
 -1       838-3.06357E+02 2.39399E+05 1.26248E+04-2.06200E+04 1.99543E-09-2.04238E-09
 -1       839 8.10402E+03 2.46289E+05 2.40235E+04-4.15768E+04 2.61889E-09-4.83047E-09
 -1       840-2.43360E+03 2.34445E+05 3.83666E+04-2.06632E+04 1.82445E-09-1.21122E-09
 -1       856-7.75812E+04 6.69981E+03-1.76557E+04-3.95860E+02-1.57240E-09 2.12549E-09
 -1       857-8.48746E+04-7.85779E+03-1.21556E+04 4.03199E+03-1.56376E-09-7.61361E-09
 -1       858-8.04627E+04 9.38748E+02-4.58216E+03-4.13725E+02-2.01140E-10-2.35991E-09
 -1       859-8.15654E+04-1.09132E+03-2.76749E+03 4.06050E+03 3.38051E-09 2.51976E-09
 -1       860-8.08935E+04 1.30539E+02-1.16365E+03-4.24495E+02 2.70990E-09-1.00260E-09
 -1       861-8.10691E+04-1.44034E+02-6.48167E+02 4.07523E+03-5.42277E-09-5.52723E-09
 -1       862-8.09605E+04 1.72832E+01-2.85516E+02-4.28478E+02 5.16502E-09-8.89500E-10
 -1       863-8.09898E+04-1.03716E+01-1.40511E+02 4.07700E+03 8.36390E-09 4.21716E-09
 -1       864-8.09730E+04-1.89541E-01-4.27438E+01-4.26277E+02 7.13405E-09-7.63308E-10
 -1       865-8.09662E+04 2.09706E+01 3.02066E+01 4.06592E+03 5.46885E-09-9.62088E-09
 -1       866-8.09829E+04-1.44485E+01 1.03096E+02-4.17394E+02 4.72227E-10-1.26562E-08
 -1       867-8.09066E+04 1.21162E+02 2.80829E+02 4.04182E+03 1.60306E-09-2.80414E-09
 -1       868-8.10299E+04-9.97360E+01 4.73204E+02-4.02178E+02 2.66328E-09 1.98096E-09
 -1       869-8.05518E+04 8.27170E+02 1.26991E+03 4.00190E+03-6.11919E-11-3.04317E-09
 -1       870-8.13336E+04-7.02979E+02 1.84164E+03-3.77474E+02 3.17726E-09 1.41677E-09
 -1       871-3.69535E+03-7.75106E+03-1.19773E+04 7.85488E+04 1.68438E-09 4.01360E-09
 -1       872-1.61155E+03-1.04299E+04-4.87996E+03 1.01833E+05 5.31873E-09 9.90440E-09
 -1       873-4.35773E+01-9.17876E+03 7.03599E+02 7.83758E+04 2.87400E-09 3.86672E-09
 -1       874 1.83411E+03-7.43178E+03 6.80852E+03 1.01870E+05 3.95630E-09 1.95837E-09
 -1       875 4.36147E+03-1.07948E+04 1.50945E+04 7.85200E+04 2.53021E-09-5.67206E-09
 -1       876 1.96107E+05 3.38156E+04 1.05026E+04 7.95923E+04-5.53416E-09-6.14818E-09
 -1       877 1.96703E+05 3.61261E+04 5.60861E+03 8.27038E+04-9.09506E-09-1.05314E-08
 -1       878 1.97089E+05 3.26530E+04 2.34975E+03 8.04547E+04-1.21190E-10-1.36549E-08
 -1       879 1.95274E+05 3.47035E+04 1.17051E+03 8.27784E+04-8.60950E-10-3.63997E-10
 -1       880 1.97160E+05 3.26400E+04 5.44936E+02 8.04898E+04 5.22505E-10-6.07491E-09
 -1       881 1.95179E+05 3.46431E+04 2.90214E+02 8.27638E+04 5.04053E-09-4.19674E-09
 -1       882 1.97168E+05 3.26485E+04 1.84318E+02 8.04908E+04 4.45300E-09 7.20472E-09
 -1       883 1.95172E+05 3.46403E+04 1.95972E+02 8.27596E+04 4.79326E-09 1.42293E-08
 -1       884 1.97164E+05 3.26463E+04 3.09777E+02 8.04909E+04 3.02612E-09 9.98455E-10
 -1       885 1.95196E+05 3.46447E+04 6.21596E+02 8.27674E+04 6.14197E-09 2.21019E-09
 -1       886 1.97140E+05 3.26282E+04 1.25223E+03 8.04885E+04 7.31275E-09 4.95356E-09
 -1       887 1.95417E+05 3.47889E+04 2.73513E+03 8.27990E+04 9.53150E-10-5.44856E-09
 -1       888 1.96967E+05 3.26587E+04 5.51135E+03 8.04010E+04 2.71783E-09 4.75393E-09
 -1       889 1.98701E+05 3.81984E+04 1.31662E+04 8.26946E+04 6.73186E-09 4.83487E-09
 -1       890 1.94721E+05 3.53260E+04 2.46592E+04 7.82985E+04 2.95540E-09-2.63572E-09
 -1       891-1.24016E+02-1.11480E+05-1.31516E+03 2.11892E+04-3.89491E-10 5.93229E-09
 -1       892-2.15465E+02-1.11794E+05-1.43119E+03 3.20631E+04-4.19277E-10-1.11254E-09
 -1       893-3.65570E+01-1.11521E+05-2.04561E+03 2.11933E+04 2.33285E-10 1.17325E-09
 -1       894-1.12127E+03-1.12579E+05-4.24780E+03 3.19492E+04-2.01271E-09 5.52063E-10
 -1       895-8.75806E+02-1.10638E+05-7.48552E+03 2.13016E+04-5.35920E-10-1.36743E-09
 -1       956-2.46500E+05-3.55176E+03-8.94552E+03 1.63201E+04 7.51697E-10 6.82121E-10
 -1       957-2.48267E+05-1.19677E+03-4.59231E+03 1.96523E+04 8.28913E-09-2.75941E-09
 -1       958-2.47293E+05-9.38955E+01-2.06893E+03 1.62136E+04 7.22594E-09-3.33284E-09
 -1       959-2.47434E+05-1.46338E+01-1.05677E+03 1.97674E+04-1.01977E-09 5.18367E-09
 -1       960-2.47364E+05 3.12314E+01-5.15085E+02 1.62035E+04-1.61936E-09 3.89809E-09
 -1       961-2.47374E+05 2.97271E+01-2.73096E+02 1.97788E+04-5.76165E-09 1.66938E-09
 -1       962-2.47378E+05 2.75041E+01-1.55923E+02 1.62020E+04-3.80169E-09 2.88219E-09
 -1       963-2.47371E+05 3.07808E+01-1.24445E+02 1.97809E+04-4.53747E-09 5.41070E-09
 -1       964-2.47381E+05 2.92364E+01-1.50162E+02 1.62015E+04-9.34961E-10 4.06851E-09
 -1       965-2.47380E+05 3.35393E+01-2.58709E+02 1.97810E+04 2.73510E-09-3.12843E-09
 -1       966-2.47374E+05 3.63351E+01-4.85173E+02 1.62019E+04-2.30102E-09-4.57874E-09
 -1       967-2.47444E+05-4.48024E+00-9.94865E+02 1.97748E+04-7.20775E-11 4.51473E-09
 -1       968-2.47313E+05-7.79230E+01-1.94676E+03 1.62077E+04 2.30330E-10 6.57735E-10
 -1       969-2.48235E+05-1.11391E+03-4.32236E+03 1.97071E+04 1.56035E-09-1.87558E-09
 -1       970-2.46571E+05-3.33034E+03-8.41893E+03 1.62721E+04 1.38152E-09 1.22691E-09
 -1       971-2.34069E+05-1.23513E+03-6.87798E+03 1.14257E+04-1.92176E-09-5.70290E-09
 -1       972-2.35742E+05-8.84513E+02-3.74582E+03 1.59616E+04-3.28509E-09 4.37694E-09
 -1       973-2.34833E+05-6.42086E+00-1.67717E+03 1.13305E+04-2.92130E-09 5.77393E-09
 -1       974-2.34950E+05-6.09228E+00-8.68878E+02 1.60640E+04-4.20187E-10-6.67342E-11
 -1       975-2.34892E+05 2.52750E+01-4.33203E+02 1.13221E+04 1.45883E-09 2.76452E-09
 -1       976-2.34902E+05 2.94782E+01-2.48060E+02 1.60741E+04 3.00247E-10-9.86915E-10
 -1       977-2.34903E+05 2.47529E+01-1.76608E+02 1.13203E+04 2.53704E-09-1.78568E-09
 -1       978-2.34904E+05 3.32171E+01-2.02047E+02 1.60767E+04 9.46324E-09-5.16297E-09
 -1       979-2.34902E+05 3.00422E+01-3.20606E+02 1.13196E+04 5.31435E-09-3.26111E-09
 -1       980-2.34928E+05 3.51206E+01-6.16532E+02 1.60770E+04 6.04454E-09 5.00779E-09
 -1       981-2.34883E+05 4.54068E+01-1.19272E+03 1.13199E+04-7.46809E-10 7.20411E-09
 -1       982-2.35092E+05-5.27936E+01-2.46457E+03 1.60723E+04-1.72918E-09 9.85231E-10
 -1       983-2.34733E+05-3.06358E+01-4.78821E+03 1.13245E+04 1.55910E-09 1.67597E-09
 -1       984-2.37395E+05-2.55292E+03-1.07224E+04 1.60079E+04-5.09692E-09 7.83984E-10
 -1       985-2.32566E+05-3.53406E+03-1.96898E+04 1.13890E+04 3.14776E-09-4.91127E-10
 -3
    1PSTEP                        11           6           1          
  100CL  106 4.99023E-01         409                     0    6           1
 -4  DISP        4    1
 -5  D1          1    2    1    0
 -5  D2          1    2    2    0
 -5  D3          1    2    3    0
 -5  ALL         1    2    0    0    1ALL
 -1         1 1.49309E-04 0.00000E+00 0.00000E+00
 -1         2 1.34828E-04-2.03140E-31 0.00000E+00
 -1         3 1.31648E-04-9.80045E-29 6.61744E-24
 -1         5 9.01392E-05-1.08132E-26-3.30872E-24
 -1         8 1.23665E-04-8.98816E-07 0.00000E+00
 -1         9 1.22092E-04 9.43203E-08 0.00000E+00
 -1        10 1.21528E-04-1.78262E-06-6.61744E-24
 -1        12 8.97276E-05 5.47335E-07 0.00000E+00
 -1        15 9.29565E-05-9.98642E-07 0.00000E+00
 -1        16 9.75509E-05-8.14031E-08 0.00000E+00
 -1        17 8.93362E-05-3.77997E-06 0.00000E+00
 -1        18 8.74273E-05 2.24674E-06 0.00000E+00
 -1        19 8.84931E-05 1.09171E-06 0.00000E+00
 -1        20 8.86316E-05 1.42408E-05 0.00000E+00
 -1        21 8.80923E-05 2.65115E-05-1.65436E-24
 -1        24 2.01832E-05-5.20798E-06 0.00000E+00
 -1        25 8.64194E-05 2.37499E-06 0.00000E+00
 -1        26 8.73662E-05 1.51855E-06 0.00000E+00
 -1        27 8.58500E-05 1.18023E-05 0.00000E+00
 -1        28 8.53849E-05 2.60467E-05 0.00000E+00
 -1        32 0.00000E+00 0.00000E+00 0.00000E+00
 -1        33 8.49901E-05 2.03425E-06 0.00000E+00
 -1        34 8.35241E-05 1.17798E-05 0.00000E+00
 -1        35 8.21351E-05 2.58006E-05 0.00000E+00
 -1        51 1.47656E-04-1.48211E-07 0.00000E+00
 -1        52 1.44573E-04-2.91640E-07 0.00000E+00
 -1        53 1.40339E-04-4.36644E-07 0.00000E+00
 -1        54 1.35248E-04-5.84779E-07-3.30872E-24
 -1        55 1.29592E-04-7.36784E-07-3.15363E-24
 -1        56 1.47970E-04-8.06017E-07 0.00000E+00
 -1        57 1.46762E-04-2.11555E-06 1.32349E-23
 -1        58 1.45690E-04-3.78002E-06 5.29396E-23
 -1        59 1.44690E-04-5.66227E-06 0.00000E+00
 -1        60 1.43711E-04-7.60252E-06-5.29396E-23
 -1        61 1.42693E-04-9.44257E-06-2.64698E-23
 -1        62 1.41581E-04-1.10306E-05 0.00000E+00
 -1        63 1.40320E-04-1.22242E-05 0.00000E+00
 -1        64 1.38869E-04-1.29088E-05 5.29396E-23
 -1        65 1.37191E-04-1.29873E-05 0.00000E+00
 -1        66 1.35265E-04-1.24060E-05 0.00000E+00
 -1        67 1.33080E-04-1.11336E-05-2.64698E-23
 -1        68 1.30642E-04-9.18847E-06-5.29396E-23
 -1        69 1.27972E-04-6.60931E-06 0.00000E+00
 -1        70 1.25094E-04-3.48588E-06 0.00000E+00
 -1        86 1.34480E-04 2.34970E-08 0.00000E+00
 -1        87 1.33438E-04 4.59774E-08 1.03398E-25
 -1        88 1.31691E-04 6.74328E-08 8.27181E-25
 -1        89 1.29231E-04 8.39726E-08 0.00000E+00
 -1        90 1.26037E-04 9.96946E-08 6.61744E-24
 -1       121 1.31365E-04-2.95217E-07 0.00000E+00
 -1       122 1.30517E-04-5.90746E-07 0.00000E+00
 -1       123 1.29106E-04-8.86898E-07-6.61744E-24
 -1       124 1.27135E-04-1.18403E-06 3.30872E-24
 -1       125 1.24607E-04-1.48234E-06 6.61744E-24
 -1       191 9.01277E-05 9.12287E-08-3.30872E-24
 -1       192 9.00934E-05 1.82456E-07 0.00000E+00
 -1       193 9.00363E-05 2.73682E-07 3.30872E-24
 -1       194 8.99563E-05 3.64906E-07 1.65436E-24
 -1       195 8.98534E-05 4.56124E-07 3.30872E-24
 -1       251 1.23551E-04 3.46904E-06 0.00000E+00
 -1       252 1.23452E-04 6.34584E-06 0.00000E+00
 -1       253 1.23355E-04 7.86736E-06 0.00000E+00
 -1       254 1.23261E-04 8.17440E-06-1.65436E-24
 -1       255 1.23167E-04 7.46626E-06 0.00000E+00
 -1       256 1.23072E-04 5.94606E-06 0.00000E+00
 -1       257 1.22977E-04 3.85592E-06-3.30872E-24
 -1       258 1.22880E-04 1.44015E-06 0.00000E+00
 -1       259 1.22784E-04-1.04141E-06 0.00000E+00
 -1       260 1.22688E-04-3.32860E-06 0.00000E+00
 -1       261 1.22593E-04-5.17057E-06 0.00000E+00
 -1       262 1.22498E-04-6.31825E-06 1.65436E-24
 -1       263 1.22404E-04-6.55582E-06-3.30872E-24
 -1       264 1.22306E-04-5.67093E-06 0.00000E+00
 -1       265 1.22208E-04-3.50537E-06-6.61744E-24
 -1       266 1.18547E-04-9.27632E-07 6.61744E-24
 -1       267 1.13429E-04-9.42785E-07 0.00000E+00
 -1       268 1.08311E-04-9.58804E-07-1.65436E-24
 -1       269 1.03193E-04-9.72259E-07 0.00000E+00
 -1       270 9.80747E-05-9.85654E-07 0.00000E+00
 -1       271 1.20617E-04 3.04320E-06 0.00000E+00
 -1       272 1.17990E-04 5.73681E-06 0.00000E+00
 -1       273 1.15789E-04 7.30771E-06 0.00000E+00
 -1       274 1.13956E-04 7.88138E-06 0.00000E+00
 -1       275 1.12440E-04 7.60758E-06-5.29396E-23
 -1       276 1.11180E-04 6.64866E-06-2.64698E-23
 -1       277 1.10111E-04 5.18058E-06 0.00000E+00
 -1       278 1.09162E-04 3.38806E-06 0.00000E+00
 -1       279 1.08263E-04 1.46206E-06-5.29396E-23
 -1       280 1.07342E-04-4.04053E-07 0.00000E+00
 -1       281 1.06327E-04-2.01817E-06 0.00000E+00
 -1       282 1.05149E-04-3.19253E-06 0.00000E+00
 -1       283 1.03739E-04-3.74801E-06 0.00000E+00
 -1       284 1.02038E-04-3.51487E-06-1.32349E-23
 -1       285 9.99824E-05-2.34190E-06-2.64698E-23
 -1       301 1.17704E-04 5.47906E-08 0.00000E+00
 -1       302 1.13356E-04 3.34386E-08 3.30872E-24
 -1       303 1.09109E-04 1.32060E-08 0.00000E+00
 -1       304 1.05020E-04-7.70414E-09 3.30872E-24
 -1       305 1.01148E-04-3.00888E-08-2.64698E-23
 -1       306 1.19037E-04 2.72025E-06 0.00000E+00
 -1       307 1.16704E-04 3.25036E-06-2.64698E-23
 -1       308 1.15133E-04 1.76280E-06 5.29396E-23
 -1       309 1.14243E-04-1.58001E-06 0.00000E+00
 -1       310 1.13858E-04-6.28518E-06-5.29396E-23
 -1       311 1.13766E-04-1.17878E-05 0.00000E+00
 -1       312 1.13709E-04-1.73826E-05-5.29396E-23
 -1       313 1.13422E-04-2.23601E-05 2.64698E-23
 -1       314 1.12683E-04-2.61180E-05-5.29396E-23
 -1       315 1.11291E-04-2.81220E-05 0.00000E+00
 -1       316 1.09156E-04-2.81446E-05 0.00000E+00
 -1       317 1.06233E-04-2.60673E-05 2.64698E-23
 -1       318 1.02607E-04-2.21378E-05 0.00000E+00
 -1       319 9.84216E-05-1.67005E-05-2.64698E-23
 -1       320 9.38900E-05-1.03710E-05 2.64698E-23
 -1       336 1.17831E-04-2.10823E-06 0.00000E+00
 -1       337 1.13451E-04-2.43693E-06-6.61744E-24
 -1       338 1.08398E-04-2.76858E-06-6.61744E-24
 -1       339 1.02684E-04-3.10314E-06 0.00000E+00
 -1       340 9.63251E-05-3.44148E-06 6.61744E-24
 -1       406 8.95790E-05 6.38532E-07 0.00000E+00
 -1       407 8.94075E-05 7.29696E-07 0.00000E+00
 -1       408 8.92131E-05 8.20800E-07 0.00000E+00
 -1       409 8.89958E-05 9.11732E-07 1.65436E-24
 -1       410 8.87558E-05 1.00232E-06 0.00000E+00
 -1       521 9.86085E-05-1.19733E-05-5.29396E-23
 -1       522 1.09150E-04-5.13668E-05 0.00000E+00
 -1       523 1.26505E-04-1.11714E-04 0.00000E+00
 -1       524 1.47689E-04-1.84645E-04 0.00000E+00
 -1       525 1.69301E-04-2.58998E-04-1.05879E-22
 -1       526 1.87922E-04-3.23485E-04-5.29396E-23
 -1       527 2.00482E-04-3.69019E-04-1.05879E-22
 -1       528 2.04036E-04-3.88184E-04-5.29396E-23
 -1       529 1.97178E-04-3.79274E-04 0.00000E+00
 -1       530 1.79304E-04-3.42918E-04 5.29396E-23
 -1       531 1.52410E-04-2.85441E-04 1.05879E-22
 -1       532 1.19586E-04-2.14751E-04 0.00000E+00
 -1       533 8.55555E-05-1.41413E-04 1.05879E-22
 -1       534 5.52267E-05-7.61642E-05 0.00000E+00
 -1       535 3.24429E-05-2.81549E-05 0.00000E+00
 -1       536 8.91991E-05 4.03099E-06 0.00000E+00
 -1       537 8.90590E-05 1.28541E-05 0.00000E+00
 -1       538 8.89176E-05 2.17933E-05 0.00000E+00
 -1       539 8.87836E-05 2.99522E-05 1.65436E-24
 -1       540 8.86601E-05 3.65972E-05 0.00000E+00
 -1       541 8.85488E-05 4.10016E-05 1.65436E-24
 -1       542 8.84449E-05 4.29067E-05 0.00000E+00
 -1       543 8.83425E-05 4.20652E-05 0.00000E+00
 -1       544 8.82354E-05 3.88029E-05 3.30872E-24
 -1       545 8.81198E-05 3.34569E-05-1.65436E-24
 -1       546 8.79969E-05 2.67995E-05 0.00000E+00
 -1       547 8.78706E-05 1.96089E-05 0.00000E+00
 -1       548 8.77467E-05 1.27748E-05 3.30872E-24
 -1       549 8.76312E-05 7.18537E-06 0.00000E+00
 -1       550 8.75236E-05 3.46938E-06 8.27181E-25
 -1       551 8.02148E-05-3.99078E-06 6.61744E-24
 -1       552 6.93336E-05-4.21448E-06-3.30872E-24
 -1       553 5.72869E-05-4.45034E-06-4.96308E-24
 -1       554 4.46781E-05-4.69490E-06-3.30872E-24
 -1       555 3.21105E-05-4.94171E-06-1.32349E-23
 -1       556 8.69007E-05 2.52736E-06 0.00000E+00
 -1       557 8.50205E-05 7.40590E-06 0.00000E+00
 -1       558 8.36356E-05 1.09837E-05 0.00000E+00
 -1       559 8.26919E-05 1.33993E-05 0.00000E+00
 -1       560 8.21350E-05 1.47909E-05 0.00000E+00
 -1       561 8.19113E-05 1.52976E-05 0.00000E+00
 -1       562 8.19678E-05 1.50584E-05 0.00000E+00
 -1       563 8.22514E-05 1.42130E-05 0.00000E+00
 -1       564 8.27098E-05 1.29008E-05 0.00000E+00
 -1       565 8.32905E-05 1.12614E-05 0.00000E+00
 -1       566 8.39412E-05 9.43457E-06 0.00000E+00
 -1       567 8.46097E-05 7.56005E-06 1.03398E-25
 -1       568 8.52438E-05 5.77755E-06 0.00000E+00
 -1       569 8.57915E-05 4.22663E-06 0.00000E+00
 -1       570 8.62004E-05 3.04691E-06 0.00000E+00
 -1       571 8.74920E-05 2.20785E-06 1.24077E-24
 -1       572 8.75581E-05 2.12520E-06 6.20385E-25
 -1       573 8.76246E-05 2.00681E-06 8.27181E-25
 -1       574 8.76913E-05 1.86115E-06-4.13590E-25
 -1       575 8.77581E-05 1.69670E-06 0.00000E+00
 -1       576 8.78250E-05 1.52201E-06 0.00000E+00
 -1       577 8.78918E-05 1.34563E-06 1.65436E-24
 -1       578 8.79586E-05 1.17611E-06 0.00000E+00
 -1       579 8.80255E-05 1.02202E-06 0.00000E+00
 -1       580 8.80923E-05 8.91901E-07 0.00000E+00
 -1       581 8.81592E-05 7.94323E-07 0.00000E+00
 -1       582 8.82261E-05 7.37827E-07 3.30872E-24
 -1       583 8.82929E-05 7.30953E-07 3.30872E-24
 -1       584 8.83597E-05 7.82153E-07 0.00000E+00
 -1       585 8.84265E-05 8.99826E-07 0.00000E+00
 -1       586 8.72303E-05 2.26943E-06 0.00000E+00
 -1       587 8.70063E-05 2.29158E-06-2.06795E-25
 -1       588 8.67841E-05 2.31350E-06 0.00000E+00
 -1       589 8.65929E-05 2.33506E-06 0.00000E+00
 -1       590 8.64619E-05 2.35603E-06 0.00000E+00
 -1       591 8.74100E-05 2.24431E-06 5.16988E-26
 -1       592 8.74028E-05 2.20777E-06 4.13590E-25
 -1       593 8.74058E-05 2.14375E-06-4.13590E-25
 -1       594 8.74165E-05 2.05816E-06 0.00000E+00
 -1       595 8.74331E-05 1.95700E-06-8.27181E-25
 -1       596 8.74531E-05 1.84622E-06 2.06795E-25
 -1       597 8.74746E-05 1.73177E-06 0.00000E+00
 -1       598 8.74951E-05 1.61959E-06-2.06795E-25
 -1       599 8.75126E-05 1.51564E-06 4.13590E-25
 -1       600 8.75248E-05 1.42585E-06 0.00000E+00
 -1       601 8.75295E-05 1.35617E-06 0.00000E+00
 -1       602 8.75245E-05 1.31255E-06 0.00000E+00
 -1       603 8.75075E-05 1.30094E-06-2.06795E-25
 -1       604 8.74766E-05 1.32734E-06 0.00000E+00
 -1       605 8.74294E-05 1.39767E-06 0.00000E+00
 -1       606 8.85052E-05 1.43553E-06 3.30872E-24
 -1       607 8.85149E-05 1.87114E-06 1.65436E-24
 -1       608 8.85239E-05 2.39318E-06 0.00000E+00
 -1       609 8.85327E-05 2.99554E-06-1.65436E-24
 -1       610 8.85412E-05 3.67215E-06 0.00000E+00
 -1       611 8.85497E-05 4.41679E-06 0.00000E+00
 -1       612 8.85581E-05 5.22326E-06 0.00000E+00
 -1       613 8.85665E-05 6.08538E-06 0.00000E+00
 -1       614 8.85748E-05 6.99694E-06 0.00000E+00
 -1       615 8.85831E-05 7.95172E-06 0.00000E+00
 -1       616 8.85914E-05 8.94353E-06 0.00000E+00
 -1       617 8.85996E-05 9.96616E-06 0.00000E+00
 -1       618 8.86077E-05 1.10134E-05-8.27181E-25
 -1       619 8.86158E-05 1.20791E-05 4.13590E-25
 -1       620 8.86239E-05 1.31569E-05-4.13590E-25
 -1       621 8.82459E-05 1.16292E-06 1.65436E-24
 -1       622 8.80317E-05 1.23446E-06 0.00000E+00
 -1       623 8.78437E-05 1.30598E-06-1.65436E-24
 -1       624 8.76747E-05 1.37739E-06 0.00000E+00
 -1       625 8.75179E-05 1.44868E-06 0.00000E+00
 -1       626 8.84410E-05 1.45840E-06 0.00000E+00
 -1       627 8.83612E-05 1.90067E-06-1.65436E-24
 -1       628 8.82558E-05 2.41137E-06 0.00000E+00
 -1       629 8.81276E-05 2.98290E-06 0.00000E+00
 -1       630 8.79795E-05 3.60766E-06 0.00000E+00
 -1       631 8.78142E-05 4.27799E-06 1.65436E-24
 -1       632 8.76347E-05 4.98621E-06 0.00000E+00
 -1       633 8.74439E-05 5.72469E-06 0.00000E+00
 -1       634 8.72446E-05 6.48577E-06 0.00000E+00
 -1       635 8.70396E-05 7.26176E-06 1.65436E-24
 -1       636 8.68319E-05 8.04504E-06-1.65436E-24
 -1       637 8.66243E-05 8.82793E-06 0.00000E+00
 -1       638 8.64197E-05 9.60278E-06 1.65436E-24
 -1       639 8.62208E-05 1.03619E-05 8.27181E-25
 -1       640 8.60304E-05 1.10977E-05 0.00000E+00
 -1       656 8.77485E-05 1.38440E-05 0.00000E+00
 -1       657 8.72151E-05 1.34314E-05 3.30872E-24
 -1       658 8.69002E-05 1.30201E-05-6.61744E-24
 -1       659 8.66687E-05 1.26091E-05-3.30872E-24
 -1       660 8.63689E-05 1.21968E-05-6.61744E-24
 -1       661 8.83054E-05 1.52993E-05 8.27181E-25
 -1       662 8.80021E-05 1.63052E-05 8.27181E-25
 -1       663 8.77177E-05 1.72602E-05 0.00000E+00
 -1       664 8.74520E-05 1.81670E-05 8.27181E-25
 -1       665 8.72036E-05 1.90278E-05-1.65436E-24
 -1       666 8.69717E-05 1.98449E-05 8.27181E-25
 -1       667 8.67554E-05 2.06205E-05 0.00000E+00
 -1       668 8.65539E-05 2.13567E-05 0.00000E+00
 -1       669 8.63665E-05 2.20555E-05-1.65436E-24
 -1       670 8.61924E-05 2.27187E-05 0.00000E+00
 -1       671 8.60310E-05 2.33482E-05 0.00000E+00
 -1       672 8.58814E-05 2.39458E-05 0.00000E+00
 -1       673 8.57432E-05 2.45131E-05 0.00000E+00
 -1       674 8.56150E-05 2.50514E-05 0.00000E+00
 -1       675 8.54973E-05 2.55627E-05 4.13590E-25
 -1       676 8.76399E-05 2.64335E-05 1.65436E-24
 -1       677 8.71877E-05 2.63557E-05 0.00000E+00
 -1       678 8.67358E-05 2.62778E-05-1.65436E-24
 -1       679 8.62846E-05 2.62002E-05 8.27181E-25
 -1       680 8.58342E-05 2.61226E-05 1.65436E-24
 -1       771 1.55248E-05 4.09882E-06 0.00000E+00
 -1       772 1.15017E-05 1.17254E-05-2.64698E-23
 -1       773 8.08649E-06 1.77624E-05 0.00000E+00
 -1       774 5.23899E-06 2.23080E-05 0.00000E+00
 -1       775 2.91947E-06 2.54625E-05 5.29396E-23
 -1       776 1.08647E-06 2.73306E-05 2.64698E-23
 -1       777-3.01932E-07 2.80191E-05-5.29396E-23
 -1       778-1.28860E-06 2.76384E-05-1.32349E-23
 -1       779-1.91669E-06 2.63006E-05 0.00000E+00
 -1       780-2.23018E-06 2.41209E-05-1.32349E-23
 -1       781-2.27315E-06 2.12156E-05 0.00000E+00
 -1       782-2.09033E-06 1.77036E-05-1.32349E-23
 -1       783-1.72649E-06 1.37044E-05 0.00000E+00
 -1       784-1.22679E-06 9.33936E-06 0.00000E+00
 -1       785-6.36467E-07 4.73028E-06-2.64698E-23
 -1       786 8.64750E-05 2.22471E-06 0.00000E+00
 -1       787 8.65340E-05 2.08767E-06-8.27181E-25
 -1       788 8.65928E-05 1.96190E-06 1.65436E-24
 -1       789 8.66523E-05 1.84546E-06 0.00000E+00
 -1       790 8.67117E-05 1.73773E-06 0.00000E+00
 -1       791 8.67713E-05 1.63805E-06 8.27181E-25
 -1       792 8.68309E-05 1.54694E-06 0.00000E+00
 -1       793 8.68905E-05 1.46488E-06 0.00000E+00
 -1       794 8.69502E-05 1.39363E-06 0.00000E+00
 -1       795 8.70098E-05 1.33498E-06 0.00000E+00
 -1       796 8.70694E-05 1.29244E-06 0.00000E+00
 -1       797 8.71290E-05 1.26957E-06 0.00000E+00
 -1       798 8.71886E-05 1.27263E-06 0.00000E+00
 -1       799 8.72481E-05 1.30795E-06 0.00000E+00
 -1       800 8.73076E-05 1.38630E-06 1.65436E-24
 -1       801 8.05738E-05 2.10649E-06-6.61744E-24
 -1       802 6.28131E-05 1.69294E-06 0.00000E+00
 -1       803 3.95851E-05 1.17829E-06 1.32349E-23
 -1       804 1.74023E-05 6.79207E-07 0.00000E+00
 -1       805 2.24042E-06 3.00488E-07 0.00000E+00
 -1       806 8.63989E-05 2.17995E-06 1.65436E-24
 -1       807 8.63733E-05 1.99016E-06 0.00000E+00
 -1       808 8.63435E-05 1.81012E-06 1.65436E-24
 -1       809 8.63083E-05 1.64355E-06 0.00000E+00
 -1       810 8.62665E-05 1.49422E-06 1.65436E-24
 -1       811 8.62168E-05 1.36578E-06-1.65436E-24
 -1       812 8.61579E-05 1.26190E-06-3.30872E-24
 -1       813 8.60885E-05 1.18623E-06-8.27181E-25
 -1       814 8.60070E-05 1.14244E-06 3.30872E-24
 -1       815 8.59123E-05 1.13417E-06 8.27181E-25
 -1       816 8.58029E-05 1.16506E-06 0.00000E+00
 -1       817 8.56774E-05 1.23876E-06 1.65436E-24
 -1       818 8.55345E-05 1.35891E-06 3.30872E-24
 -1       819 8.53730E-05 1.52914E-06 0.00000E+00
 -1       820 8.51916E-05 1.75307E-06-1.65436E-24
 -1       821 8.72770E-05 1.66092E-06 0.00000E+00
 -1       822 8.71822E-05 1.77048E-06 8.27181E-25
 -1       823 8.70879E-05 1.89785E-06 3.30872E-24
 -1       824 8.69924E-05 2.09356E-06 0.00000E+00
 -1       825 8.68970E-05 2.39462E-06 0.00000E+00
 -1       826 8.68012E-05 2.83762E-06 1.65436E-24
 -1       827 8.67054E-05 3.43111E-06-3.30872E-24
 -1       828 8.66094E-05 4.18301E-06-1.65436E-24
 -1       829 8.65133E-05 5.06998E-06 0.00000E+00
 -1       830 8.64172E-05 6.06807E-06-1.65436E-24
 -1       831 8.63210E-05 7.13146E-06-3.30872E-24
 -1       832 8.62250E-05 8.21399E-06 0.00000E+00
 -1       833 8.61291E-05 9.26573E-06 3.30872E-24
 -1       834 8.60343E-05 1.02369E-05-8.27181E-25
 -1       835 8.59393E-05 1.10936E-05 0.00000E+00
 -1       836 8.71162E-05 1.60440E-06 0.00000E+00
 -1       837 8.67550E-05 1.69216E-06 8.27181E-25
 -1       838 8.63222E-05 1.77975E-06 0.00000E+00
 -1       839 8.58573E-05 1.86678E-06 8.27181E-25
 -1       840 8.54001E-05 1.95367E-06-4.13590E-25
 -1       856 8.58243E-05 1.24922E-05 2.06795E-25
 -1       857 8.57956E-05 1.32853E-05 2.06795E-25
 -1       858 8.57670E-05 1.41655E-05 0.00000E+00
 -1       859 8.57378E-05 1.51164E-05-4.13590E-25
 -1       860 8.57085E-05 1.61217E-05 8.27181E-25
 -1       861 8.56790E-05 1.71647E-05-4.13590E-25
 -1       862 8.56496E-05 1.82291E-05-8.27181E-25
 -1       863 8.56201E-05 1.92983E-05 4.13590E-25
 -1       864 8.55906E-05 2.03558E-05 8.27181E-25
 -1       865 8.55611E-05 2.13849E-05-4.13590E-25
 -1       866 8.55317E-05 2.23693E-05 8.27181E-25
 -1       867 8.55023E-05 2.32925E-05 4.13590E-25
 -1       868 8.54729E-05 2.41381E-05-8.27181E-25
 -1       869 8.54436E-05 2.48897E-05-4.13590E-25
 -1       870 8.54144E-05 2.55313E-05 8.27181E-25
 -1       871 8.53566E-05 1.18014E-05-4.13590E-25
 -1       872 8.49637E-05 1.17984E-05 0.00000E+00
 -1       873 8.46280E-05 1.17950E-05-4.13590E-25
 -1       874 8.43053E-05 1.17912E-05-5.16988E-26
 -1       875 8.39519E-05 1.17868E-05-2.06795E-25
 -1       876 8.56822E-05 1.25010E-05 0.00000E+00
 -1       877 8.54976E-05 1.32500E-05 0.00000E+00
 -1       878 8.52966E-05 1.40431E-05-3.30872E-24
 -1       879 8.50813E-05 1.48748E-05 0.00000E+00
 -1       880 8.48537E-05 1.57394E-05 0.00000E+00
 -1       881 8.46160E-05 1.66312E-05 1.65436E-24
 -1       882 8.43701E-05 1.75445E-05-3.30872E-24
 -1       883 8.41183E-05 1.84737E-05-1.65436E-24
 -1       884 8.38626E-05 1.94132E-05-3.30872E-24
 -1       885 8.36052E-05 2.03573E-05 1.65436E-24
 -1       886 8.33481E-05 2.13003E-05 3.30872E-24
 -1       887 8.30935E-05 2.22367E-05-8.27181E-25
 -1       888 8.28433E-05 2.31608E-05 0.00000E+00
 -1       889 8.25994E-05 2.40668E-05-8.27181E-25
 -1       890 8.23640E-05 2.49490E-05-8.27181E-25
 -1       891 8.49555E-05 2.60055E-05-8.27181E-25
 -1       892 8.45083E-05 2.59642E-05 0.00000E+00
 -1       893 8.40231E-05 2.59229E-05-8.27181E-25
 -1       894 8.34793E-05 2.58817E-05 0.00000E+00
 -1       895 8.28566E-05 2.58406E-05 8.27181E-25
 -1       956 8.49001E-05 2.43239E-06 1.65436E-24
 -1       957 8.48088E-05 2.88897E-06 8.27181E-25
 -1       958 8.47171E-05 3.39782E-06 0.00000E+00
 -1       959 8.46253E-05 3.95241E-06 0.00000E+00
 -1       960 8.45334E-05 4.54619E-06 0.00000E+00
 -1       961 8.44414E-05 5.17258E-06-8.27181E-25
 -1       962 8.43494E-05 5.82498E-06 0.00000E+00
 -1       963 8.42574E-05 6.49681E-06 0.00000E+00
 -1       964 8.41654E-05 7.18148E-06-3.30872E-24
 -1       965 8.40734E-05 7.87237E-06 1.65436E-24
 -1       966 8.39814E-05 8.56290E-06 0.00000E+00
 -1       967 8.38894E-05 9.24649E-06 1.65436E-24
 -1       968 8.37975E-05 9.91651E-06 0.00000E+00
 -1       969 8.37057E-05 1.05664E-05 0.00000E+00
 -1       970 8.36143E-05 1.11896E-05-3.30872E-24
 -1       971 8.34385E-05 1.23882E-05 0.00000E+00
 -1       972 8.33516E-05 1.30730E-05 1.65436E-24
 -1       973 8.32646E-05 1.38259E-05-1.65436E-24
 -1       974 8.31774E-05 1.46380E-05-8.27181E-25
 -1       975 8.30901E-05 1.55006E-05 3.30872E-24
 -1       976 8.30027E-05 1.64049E-05-8.27181E-25
 -1       977 8.29154E-05 1.73421E-05 3.30872E-24
 -1       978 8.28280E-05 1.83033E-05 1.65436E-24
 -1       979 8.27406E-05 1.92798E-05 0.00000E+00
 -1       980 8.26532E-05 2.02626E-05 1.65436E-24
 -1       981 8.25658E-05 2.12431E-05 0.00000E+00
 -1       982 8.24785E-05 2.22123E-05-1.65436E-24
 -1       983 8.23914E-05 2.31614E-05 0.00000E+00
 -1       984 8.23046E-05 2.40817E-05 1.65436E-24
 -1       985 8.22182E-05 2.49643E-05-1.65436E-24
 -3
    1PSTEP                        12           6           1          
  100CL  106 4.99023E-01         409                     0    6           1
 -4  STRESS      6    1
 -5  SXX         1    4    1    1
 -5  SYY         1    4    2    2
 -5  SZZ         1    4    3    3
 -5  SXY         1    4    1    2
 -5  SYZ         1    4    2    3
 -5  SZX         1    4    3    1
 -1         1-1.92049E+06-8.46586E+05-3.98619E+05-1.14367E+06 5.02041E-10 1.00263E-08
 -1         2 2.72890E+03 7.10265E+04 8.92688E+03 2.06349E+02-1.29063E-10 1.89518E-08
 -1         3-1.37382E+02-8.43010E+05 1.98961E+02-3.78052E+02-2.19854E-10-1.16142E-08
 -1         5-4.39829E+00 2.61035E+05 6.81768E+00 1.17118E-01 7.50225E-11 2.86618E-08
 -1         8-8.81503E+05-3.53866E+05-5.40684E+04-5.69166E+05 2.18279E-11 2.75031E-09
 -1         9-1.69790E+06-4.87932E+05-1.89563E+05-5.43631E+05 3.64089E-09 1.39116E-09
 -1        10-7.12465E+02-8.78240E+05-1.18429E+03-2.55573E+03-4.43561E-09-3.46627E-08
 -1        12-1.60360E+00 2.61050E+05 2.20945E+02 9.86865E-01 1.68711E-10 1.00863E-08
 -1        15 2.01782E+03 1.10891E+03 6.52259E+03 4.46600E+00-4.69811E-11 1.49179E-08
 -1        16-3.26859E+06-1.24990E+06-5.23736E+05-1.30136E+06 1.14378E-08 4.21035E-09
 -1        17-1.03665E+06-6.10065E+05-2.02786E+05-5.49414E+05-5.84841E-09-1.48721E-09
 -1        18-4.07132E+04-1.45100E+04-3.00201E+04-6.43210E+04 1.88697E-09 2.12822E-10
 -1        19 8.20966E+04 9.72481E+04-5.12172E+02 1.60022E+04-5.70799E-10-1.00918E-09
 -1        20-3.60332E+04-3.87863E+05-8.56817E+04 2.76098E+04 3.30450E-09-3.79623E-09
 -1        21-3.62422E+01-2.22816E+05-7.17793E+02-6.91435E+01-1.07650E-08-5.55539E-09
 -1        24-3.24165E+06-9.25054E+05-4.16923E+05-1.19872E+06-2.92130E-08-1.48236E-08
 -1        25-2.76167E+03-1.54795E+05-1.78382E+04-1.13155E+05 2.94403E-10 1.81626E-08
 -1        26-2.10195E+04 6.58054E+04-1.35962E+04-8.52353E+03 1.52359E-09 4.59851E-09
 -1        27-6.11544E+04-2.12487E+05-7.95960E+04 4.78949E+04 4.91453E-09-7.63733E-09
 -1        28 1.72270E+04-6.17514E+04 1.25996E+04 1.93928E+04 4.97559E-09-3.89332E-09
 -1        32-8.99032E+05-4.89806E+05 2.72853E+05-5.54781E+05-1.94850E-08 1.16245E-08
 -1        33-1.22066E+05 6.21799E+04 2.20807E+04-3.50132E+04 7.83227E-10 4.35496E-09
 -1        34-1.57547E+05-1.57727E+04 3.78838E+02 4.87690E+04 2.76593E-09 8.51287E-10
 -1        35-1.75259E+04-2.45372E+04-9.63225E+02 3.88143E+04 7.02439E-09 1.45519E-09
 -1        51 1.65483E+04-3.68111E+05 4.31094E+04-9.56576E+05-1.16415E-10 6.38829E-09
 -1        52 9.96923E+03-3.66211E+05 2.79940E+04-1.12007E+06-2.91038E-10-1.23691E-10
 -1        53 7.04072E+03-3.80005E+05 2.29221E+04-9.53182E+05-2.03727E-10 5.67525E-09
 -1        54 1.99985E+04-3.78839E+05 3.57218E+04-1.12359E+06-1.96451E-10 1.04228E-08
 -1        55 3.88357E+04-3.92423E+05 6.29705E+04-9.52636E+05-1.16415E-10 7.30506E-09
 -1        56-3.68154E+06-4.13500E+05-2.93692E+05-1.42018E+06 1.06957E-09-6.86850E-09
 -1        57-3.80165E+06-6.77333E+05-1.98009E+05-1.40641E+06 8.58563E-10-1.13941E-08
 -1        58-3.74119E+06-5.05942E+05-6.90850E+04-1.40093E+06 7.09406E-11-6.51198E-10
 -1        59-3.73263E+06-5.68849E+05-4.12408E+04-1.42935E+06-1.84264E-09 1.12464E-08
 -1        60-3.74989E+06-5.18829E+05-1.61227E+04-1.39833E+06-2.26692E-09-1.05283E-08
 -1        61-3.72420E+06-5.52018E+05-9.15023E+03-1.43033E+06 2.14732E-09 2.12094E-09
 -1        62-3.74943E+06-5.22390E+05-4.39909E+03-1.40004E+06-1.42791E-09-4.42711E-09
 -1        63-3.72790E+06-5.44964E+05-3.54904E+03-1.42457E+06-4.31055E-09-6.57110E-10
 -1        64-3.74606E+06-5.25912E+05-4.07499E+03-1.40401E+06-2.29375E-09-6.85850E-09
 -1        65-3.73671E+06-5.38612E+05-8.04705E+03-1.41513E+06-1.82047E-09-6.50493E-09
 -1        66-3.74053E+06-5.28847E+05-1.42071E+04-1.40940E+06-1.20667E-09 3.80805E-09
 -1        67-3.75428E+06-5.43037E+05-3.60169E+04-1.40250E+06-1.35075E-09-1.80262E-08
 -1        68-3.72861E+06-5.21848E+05-6.04648E+04-1.41653E+06 1.99634E-09-4.58022E-09
 -1        69-3.82095E+06-6.31839E+05-1.73102E+05-1.37580E+06 1.80898E-09 2.09729E-09
 -1        70-3.67463E+06-4.42703E+05-2.56817E+05-1.43526E+06-5.45697E-10 1.28057E-08
 -1        86-1.37122E+03 6.80876E+04 9.52737E+03-1.03198E+02 1.15188E-09 2.45160E-09
 -1        87 9.08180E+03 7.41118E+04 1.99240E+04 4.27216E+02 1.91881E-09 1.17086E-08
 -1        88-7.70487E+03 6.50041E+04 3.04651E+04-3.24075E+02 2.86491E-09 4.55532E-09
 -1        89 5.73981E+04 9.65700E+04 8.21964E+04 9.83504E+02 4.34375E-09-5.02448E-09
 -1        90-4.95252E+04 4.56507E+04 1.16114E+05-6.58957E+02 4.72210E-09-1.82365E-09
 -1       121-2.07888E+02-8.43579E+05 1.35203E+02 1.88722E+02 5.14142E-10-4.01633E-09
 -1       122-7.05319E+01-8.42973E+05 4.27661E+02-7.55638E+02-1.63578E-09 8.41192E-09
 -1       123-2.51688E+02-8.43626E+05 6.35825E+02 5.65106E+02 1.41534E-09-9.04765E-09
 -1       124 7.22187E+02-8.42510E+05 1.77672E+03-1.66144E+03-3.20529E-09 5.99539E-09
 -1       125-7.56629E+02-8.44073E+05 2.66685E+03 1.09360E+03 2.18506E-09-1.29312E-08
 -1       191-4.84394E+00 2.61058E+05 8.17598E+00-5.90309E-02 1.23861E-10 9.22546E-09
 -1       192-5.02452E+00 2.61036E+05 1.44337E+01 6.07249E-01 1.83137E-10 4.25939E-09
 -1       193-6.50901E+00 2.61057E+05 2.68688E+01-5.51508E-01 2.22461E-10 8.91305E-11
 -1       194-7.03978E+00 2.61038E+05 5.45913E+01 1.47333E+00 1.02037E-10-1.30315E-08
 -1       195-9.70894E+00 2.61056E+05 1.06809E+02-9.30963E-01 2.97362E-10-2.41334E-09
 -1       251-2.80352E+05-2.65757E+04 6.17768E+04 3.80853E+02-6.42672E-10 2.80852E-09
 -1       252-2.50625E+05 3.07118E+04 4.41103E+04-7.98759E+03-9.34278E-10-2.75259E-09
 -1       253-2.69646E+05-4.13364E+03 1.59219E+04 1.84214E+03 6.03450E-10-4.55111E-09
 -1       254-2.63495E+05 4.75153E+03 1.02739E+04-1.05998E+04-7.68523E-11-4.62160E-09
 -1       255-2.67572E+05-6.45888E+02 4.11208E+03 2.99293E+03 5.45242E-10 3.33421E-09
 -1       256-2.66172E+05 7.74229E+02 2.61589E+03-1.24006E+04 1.25121E-09 1.58352E-08
 -1       257-2.67039E+05-1.18953E+02 1.38234E+03 3.64296E+03 2.81318E-10 9.27039E-09
 -1       258-2.66749E+05 2.99839E+02 1.35837E+03-1.31253E+04-6.37867E-10-7.91363E-09
 -1       259-2.67026E+05-1.50290E+02 1.69166E+03 3.71765E+03-3.94081E-10-2.17801E-09
 -1       260-2.66148E+05 1.05944E+03 3.46435E+03-1.26933E+04-3.00133E-10 3.37218E-09
 -1       261-2.67621E+05-8.90129E+02 5.70564E+03 3.21093E+03 1.52380E-09 2.86286E-09
 -1       262-2.62770E+05 6.61658E+03 1.41550E+04-1.11553E+04 5.65024E-11-1.18835E-08
 -1       263-2.70340E+05-5.73462E+03 2.22268E+04 2.17960E+03-5.94696E-10 7.93079E-09
 -1       264-2.45176E+05 4.27233E+04 6.12090E+04-8.76802E+03-2.06342E-09 6.61385E-09
 -1       265-2.85116E+05-3.69314E+04 8.61047E+04 8.23588E+02-1.51260E-09-9.05857E-10
 -1       266-3.65280E+04-1.70777E+04 8.57185E+04-9.55714E+01 1.20053E-10 2.91681E-08
 -1       267 4.23473E+04 1.99088E+04 6.05778E+04 1.10254E+02 3.77440E-10 4.84946E-08
 -1       268-5.67864E+03-2.81940E+03 2.25169E+04-1.40492E+01 2.54659E-10 4.85868E-08
 -1       269 6.70487E+03 3.37449E+03 1.46352E+04 1.63643E+01 9.09495E-11 4.47187E-08
 -1       270-1.00641E+03-5.54443E+02 7.06465E+03-2.22079E+00 9.70886E-11 3.29794E-08
 -1       271-3.48445E+06-4.36753E+05-2.66040E+05-1.35903E+06 1.49157E-10 6.79574E-09
 -1       272-3.56830E+06-6.41988E+05-1.70991E+05-1.36924E+06 3.28100E-10-2.39197E-09
 -1       273-3.53622E+06-5.01283E+05-6.28610E+04-1.34522E+06 1.63072E-09-7.73434E-09
 -1       274-3.50710E+06-5.63596E+05-3.51264E+04-1.39101E+06 1.00408E-09 2.44381E-09
 -1       275-3.54506E+06-5.06149E+05-1.46366E+04-1.34101E+06 8.05812E-10 9.82254E-11
 -1       276-3.49632E+06-5.58357E+05-7.74152E+03-1.39810E+06-8.54925E-10-8.92442E-10
 -1       277-3.54758E+06-5.05188E+05-3.80009E+03-1.33896E+06-4.81123E-10 5.80940E-09
 -1       278-3.49367E+06-5.59456E+05-2.74376E+03-1.40097E+06 3.21097E-09-4.78883E-09
 -1       279-3.54808E+06-5.04727E+05-2.93286E+03-1.33845E+06-1.56859E-09-1.14087E-08
 -1       280-3.49449E+06-5.59687E+05-5.38089E+03-1.40039E+06-7.16682E-10-4.63547E-09
 -1       281-3.54670E+06-5.05050E+05-9.83446E+03-1.33947E+06-1.15961E-10 2.65936E-09
 -1       282-3.50155E+06-5.63300E+05-2.35076E+04-1.39578E+06-5.94810E-10 7.04404E-10
 -1       283-3.54062E+06-5.02020E+05-4.19817E+04-1.34249E+06 7.58973E-10 8.25821E-10
 -1       284-3.54301E+06-6.14843E+05-1.14172E+05-1.38014E+06 2.42721E-10-6.70843E-09
 -1       285-3.50541E+06-4.59676E+05-1.77729E+05-1.35245E+06 1.70803E-09-1.38243E-10
 -1       301 1.72132E+04-3.23467E+04 1.28831E+05-7.02628E+04-6.25732E-10 3.17823E-09
 -1       302 1.83464E+04 2.27147E+02 8.90283E+04-1.03424E+05 1.39585E-09 1.36924E-09
 -1       303 1.03169E+03-2.01317E+04 7.57936E+04-7.03861E+04-8.62201E-10 3.71620E-09
 -1       304 2.80166E+04 9.48045E+03 1.20830E+05-1.03056E+05 8.85848E-10-1.35242E-09
 -1       305 2.73737E+04-4.10232E+04 1.99200E+05-7.06123E+04-9.02219E-10 1.01754E-08
 -1       306-4.60694E+06-5.33014E+05-3.47802E+05-1.79843E+06 2.67755E-09-1.14669E-08
 -1       307-4.77456E+06-8.34623E+05-2.36556E+05-1.74661E+06-3.08501E-09 8.00355E-09
 -1       308-4.69779E+06-6.28780E+05-8.19309E+04-1.75163E+06 1.36424E-09 8.96398E-09
 -1       309-4.65954E+06-7.34002E+05-4.93030E+04-1.81475E+06 4.55202E-10-3.07136E-09
 -1       310-4.72188E+06-6.31133E+05-1.91203E+04-1.73136E+06 7.37032E-10-1.94268E-09
 -1       311-4.63340E+06-7.29483E+05-1.10896E+04-1.83705E+06 7.13192E-09-9.88166E-10
 -1       312-4.72432E+06-6.32611E+05-5.43973E+03-1.72979E+06-2.14914E-09 5.49667E-09
 -1       313-4.64256E+06-7.14895E+05-4.63814E+03-1.82280E+06-6.07361E-09 9.24751E-09
 -1       314-4.71224E+06-6.46007E+05-6.28182E+03-1.74528E+06-1.66347E-09 3.75712E-09
 -1       315-4.67669E+06-6.83334E+05-1.19529E+04-1.78158E+06-4.53656E-09 3.44471E-10
 -1       316-4.68947E+06-6.64736E+05-2.22869E+04-1.77045E+06 3.63252E-09-9.38871E-09
 -1       317-4.73293E+06-6.64690E+05-5.61720E+04-1.73034E+06 6.95758E-09-1.96451E-09
 -1       318-4.65636E+06-6.64873E+05-9.34515E+04-1.79657E+06-7.85622E-09 1.19981E-08
 -1       319-4.85771E+06-7.91429E+05-2.71115E+05-1.66858E+06-3.87081E-09 4.71482E-09
 -1       320-4.56634E+06-5.39736E+05-3.96972E+05-1.83216E+06 9.75706E-09 9.74978E-10
 -1       336 5.37410E+02-9.13221E+05-5.05281E+03 1.45736E+03-8.66385E-09-2.25191E-09
 -1       337-1.85748E+03-9.14324E+05-5.59733E+03-3.65030E+03-1.60685E-08-6.86850E-09
 -1       338 3.63183E+02-9.13338E+05-7.27257E+03 2.18290E+03-1.09801E-08 4.40923E-09
 -1       339-7.53979E+03-9.17900E+05-1.59312E+04-5.07682E+03-2.02283E-08 7.86349E-09
 -1       340 5.04277E+03-9.09778E+05-2.46569E+04 2.87264E+03-1.34987E-08 8.54197E-09
 -1       406 1.52974E+01 2.61046E+05 4.36225E+02-6.93689E-02 5.00961E-10 1.38425E-08
 -1       407 1.50479E+02 2.61126E+05 9.27074E+02-6.61119E+00 3.74882E-11-4.52656E-09
 -1       408 4.75629E+02 2.60979E+05 1.85158E+03 6.82086E+00 5.06134E-10 9.67157E-09
 -1       409 2.00051E+03 2.61718E+05 4.16839E+03-6.62088E+01-4.41105E-11 6.40284E-10
 -1       410 5.75067E+03 2.60452E+05 8.50961E+03 6.20111E+01 5.32054E-10-3.77804E-09
 -1       521-7.74737E+06-7.57608E+05-6.55012E+05-2.64436E+06-2.40834E-09 1.89175E-09
 -1       522-6.49362E+06-1.88577E+06-2.96354E+05-3.53139E+06-5.60394E-08-2.83180E-08
 -1       523-7.92650E+06-5.46736E+05-1.42368E+05-2.16199E+06-7.19592E-09-2.91475E-08
 -1       524-6.46429E+06-1.97634E+06-5.93132E+04-4.15576E+06 6.96258E-08-7.23667E-08
 -1       525-7.93804E+06-5.44770E+05-3.37930E+04-2.12592E+06 5.83932E-08-4.52219E-08
 -1       526-6.36254E+06-1.72485E+06 4.59428E+04-3.69511E+06 1.02591E-08-5.75437E-09
 -1       527-7.89440E+06-8.95018E+05-9.60851E+04-2.53771E+06-5.32600E-09 1.28821E-08
 -1       528-6.66155E+06-1.02875E+06 1.13629E+05-2.63593E+06 3.32511E-09 4.16185E-09
 -1       529-7.48203E+06-1.35170E+06-1.08328E+05-3.06086E+06 6.91216E-09 7.82165E-09
 -1       530-7.78116E+06-2.03147E+05 6.15030E+04-1.89025E+06-1.95396E-08 2.67173E-08
 -1       531-6.90060E+06-1.62887E+06-4.59694E+04-3.36376E+06-6.68806E-08-1.81899E-09
 -1       532-8.62287E+06 1.88774E+05-5.63917E+04-1.68629E+06 7.45995E-08-8.88340E-08
 -1       533-6.79679E+06-1.63572E+06-1.26897E+05-3.39962E+06 3.04935E-08-1.12261E-07
 -1       534-8.20895E+06-2.61917E+05-3.00824E+05-1.76073E+06-2.59679E-08 8.81500E-08
 -1       535-7.21355E+06-1.25257E+06-6.25811E+05-3.19756E+06-9.51695E-09 5.13101E-08
 -1       536-2.97844E+05-1.37872E+04 3.15656E+04-5.24104E+03-3.00020E-10 5.99357E-09
 -1       537-2.83070E+05 1.59849E+04 2.25328E+04 9.91160E+03-1.53669E-08 1.08012E-08
 -1       538-2.92292E+05-2.11361E+03 8.15137E+03-5.42633E+03 3.10106E-09 1.69916E-08
 -1       539-2.87251E+05 2.58463E+03 5.63737E+03 8.06556E+03 1.52525E-08-6.60236E-10
 -1       540-2.93590E+05-4.13723E+02 1.57708E+03-3.39488E+03 1.67887E-09 1.63357E-09
 -1       541-2.84774E+05 5.79764E+02 2.34712E+03 2.64363E+03-2.06234E-09 7.51118E-09
 -1       542-2.94700E+05-2.03490E+02-3.47976E+02-3.40072E+00 2.59945E-10-9.07221E-11
 -1       543-2.85324E+05 1.60589E+02 1.11528E+03-4.03563E+03-1.61484E-09-1.27489E-08
 -1       544-2.93073E+05-1.07569E+01-8.44193E+02 3.28396E+03-1.61265E-09-8.47098E-09
 -1       545-2.89198E+05-3.82417E+02-8.34930E+02-9.09208E+03-5.39188E-10 1.11640E-10
 -1       546-2.90900E+05 4.34938E+02-2.21022E+03 5.05356E+03 2.78696E-09-6.02256E-09
 -1       547-2.91690E+05-2.66121E+03-5.39599E+03-1.03831E+04-1.20356E-08-1.36797E-08
 -1       548-2.90593E+05 2.32010E+03-8.94597E+03 4.57582E+03-1.11166E-08-9.80799E-09
 -1       549-2.95262E+05-1.67417E+04-2.33342E+04-7.34221E+03-6.45213E-09 2.74122E-09
 -1       550-2.87276E+05 1.44201E+04-3.47499E+04 2.01151E+03 6.81098E-10-3.00315E-09
 -1       551 1.16646E+04-4.72705E+05 2.22961E+04-7.92095E+05-3.69691E-08-1.10595E-09
 -1       552 2.63058E+04-4.78818E+05 2.94708E+04-1.12775E+06-2.85509E-08 6.92671E-09
 -1       553 1.83793E+04-4.84464E+05 4.47307E+04-7.89255E+05-4.58240E-08 2.87400E-09
 -1       554 5.04425E+04-4.70063E+05 9.45519E+04-1.12897E+06-2.77942E-08 2.82694E-09
 -1       555 4.59020E+04-5.02738E+05 1.69021E+05-7.90058E+05-4.46526E-08-5.34055E-09
 -1       556 7.93984E+04-1.51678E+05 5.15416E+04-1.95234E+05 1.01863E-10 2.29193E-09
 -1       557 1.41141E+05-2.02310E+05 2.71678E+04-2.45189E+05-3.16504E-09-8.30869E-09
 -1       558 7.86726E+04-1.58267E+05 1.08420E+04-1.89599E+05-9.50240E-09-6.32645E-09
 -1       559 1.32075E+05-2.09151E+05 5.54964E+03-2.49370E+05 1.13796E-08-1.87811E-09
 -1       560 7.63988E+04-1.56775E+05 2.21240E+03-1.91069E+05 6.65750E-09 1.32786E-09
 -1       561 1.28680E+05-2.08188E+05 1.21022E+03-2.51528E+05 4.61660E-09 6.63249E-09
 -1       562 7.45817E+04-1.55575E+05 4.20934E+02-1.92376E+05-1.43336E-09-6.58338E-09
 -1       563 1.26547E+05-2.07268E+05 2.95040E+02-2.52893E+05 1.59343E-09-2.92982E-09
 -1       564 7.34261E+04-1.54835E+05 9.75484E+01-1.93196E+05 1.46611E-09-1.05692E-08
 -1       565 1.25393E+05-2.06771E+05 8.48600E+01-2.53620E+05 5.29508E-09 5.29508E-09
 -1       566 7.29674E+04-1.54535E+05 5.55994E+00-1.93523E+05-2.26191E-09 4.23461E-09
 -1       567 1.25177E+05-2.06667E+05-6.66965E+01-2.53687E+05 4.22222E-09-8.58199E-09
 -1       568 7.32404E+04-1.54716E+05-2.63955E+02-1.93400E+05-4.01269E-09-7.33780E-09
 -1       569 1.25226E+05-2.06530E+05-6.22146E+02-2.52472E+05-2.24281E-09 6.68661E-09
 -1       570 7.48032E+04-1.56051E+05-1.41097E+03-1.93319E+05 2.40834E-09-1.94268E-09
 -1       571 1.90618E+05 7.00289E+03 1.03630E+04-4.90797E+04-9.89530E-09 5.19776E-10
 -1       572 1.92157E+05 2.44373E+03 5.07731E+03-5.38057E+04-1.87902E-08-5.85123E-09
 -1       573 1.91234E+05 5.90727E+02 2.25557E+03-4.89550E+04-8.07586E-09-4.54247E-09
 -1       574 1.91415E+05 2.01553E+02 1.13017E+03-5.39458E+04-2.15368E-09-6.85941E-09
 -1       575 1.91302E+05 3.79527E+01 5.32702E+02-4.89385E+04-1.06070E-09-5.70753E-09
 -1       576 1.91313E+05 2.06834E+01 2.71289E+02-5.39645E+04-2.04881E-09-9.59972E-10
 -1       577 1.91313E+05 7.99294E+00 1.33811E+02-4.89363E+04-1.27443E-09 5.12910E-09
 -1       578 1.91305E+05 1.07394E+01 7.33592E+01-5.39668E+04-1.84923E-09-6.89852E-10
 -1       579 1.91326E+05 4.74963E+00 4.54639E+01-4.89363E+04-1.65937E-09 2.16778E-09
 -1       580 1.91323E+05 3.20845E+00 4.35799E+01-5.39639E+04-8.24002E-10 6.19002E-09
 -1       581 1.91349E+05-4.30025E+00 6.00853E+01-4.89392E+04-1.00526E-08 4.45471E-09
 -1       582 1.91365E+05 4.43205E+00 1.15533E+02-5.39345E+04-2.02804E-08-3.62570E-09
 -1       583 1.91377E+05 3.04362E+01 2.21734E+02-4.89657E+04-9.77616E-09 3.61388E-09
 -1       584 1.91482E+05 2.03163E+02 4.97736E+02-5.37128E+04-7.31234E-10 8.41283E-12
 -1       585 1.91358E+05 6.40259E+02 1.01043E+03-4.91612E+04 4.01997E-10-2.91402E-09
 -1       586-2.20869E+03 6.31776E+04-2.86903E+03-1.68504E+05-7.77618E-11 3.25099E-09
 -1       587-4.58291E+02 6.27995E+04-2.04270E+02-1.85437E+05 2.32831E-10-4.78303E-09
 -1       588 6.69737E+02 6.28582E+04 2.32326E+03-1.68407E+05 8.91305E-11 4.31100E-10
 -1       589 3.33331E+03 6.41181E+04 6.60642E+03-1.85272E+05 1.99179E-10-3.13321E-10
 -1       590 9.60240E+03 6.20913E+04 1.40874E+04-1.68672E+05-1.50067E-10 7.76163E-09
 -1       591-4.17404E+04-1.16746E+04-1.37342E+04-2.13011E+04 2.42380E-10-4.48836E-09
 -1       592-4.31231E+04-1.49512E+04-7.43907E+03-2.47734E+04 9.09949E-10 8.79936E-10
 -1       593-4.31279E+04-1.06639E+04-3.09694E+03-2.22944E+04 3.43903E-10-2.54829E-09
 -1       594-4.12108E+04-1.29533E+04-1.54458E+03-2.48669E+04 3.79032E-10 5.74369E-09
 -1       595-4.32342E+04-1.06593E+04-7.09799E+02-2.23400E+04-1.80648E-10 6.67831E-09
 -1       596-4.10813E+04-1.28618E+04-3.61774E+02-2.48534E+04 4.95220E-10-6.33646E-09
 -1       597-4.32477E+04-1.06681E+04-1.99055E+02-2.23418E+04-1.73510E-09-1.51294E-09
 -1       598-4.10689E+04-1.28583E+04-1.63791E+02-2.48495E+04-7.14067E-10 1.05296E-08
 -1       599-4.32467E+04-1.06682E+04-2.13941E+02-2.23415E+04-1.57934E-09-1.42900E-08
 -1       600-4.10826E+04-1.28630E+04-4.01213E+02-2.48528E+04 9.51104E-10-2.04375E-09
 -1       601-4.32297E+04-1.06587E+04-7.93490E+02-2.23387E+04-3.17641E-10-2.20950E-09
 -1       602-4.12274E+04-1.29653E+04-1.73036E+03-2.48661E+04 8.94488E-10-9.06289E-09
 -1       603-4.31091E+04-1.06656E+04-3.47068E+03-2.22878E+04-2.38356E-09 2.30170E-09
 -1       604-4.33777E+04-1.51961E+04-8.33706E+03-2.47504E+04-2.85581E-10 8.51560E-09
 -1       605-4.15446E+04-1.18055E+04-1.53920E+04-2.11825E+04-9.59517E-11-2.69119E-09
 -1       606 2.63651E+04-9.17990E+03-1.65232E+04 2.56684E+04-2.07820E-09 2.30011E-09
 -1       607 2.35355E+04-2.96423E+03-8.22759E+03 2.88152E+04 7.89441E-10-1.25710E-08
 -1       608 2.51400E+04-5.02726E+02-3.68455E+03 2.54644E+04 1.80626E-09-2.27283E-09
 -1       609 2.48204E+04-1.33023E+02-1.86093E+03 2.90410E+04-2.95404E-09-1.12755E-09
 -1       610 2.49907E+04 2.11719E+01-8.88981E+02 2.54415E+04-6.83576E-09 3.61388E-09
 -1       611 2.49301E+04 3.35643E+01-4.48324E+02 2.90657E+04-1.02937E-08-1.28330E-09
 -1       612 2.49503E+04 3.63614E+01-2.14523E+02 2.54393E+04-7.22684E-09-1.59798E-09
 -1       613 2.49270E+04 4.21152E+01-9.76283E+01 2.90686E+04-4.59704E-09-7.38896E-09
 -1       614 2.49279E+04 3.74791E+01-2.69941E+01 2.54385E+04-4.00723E-09 7.71820E-09
 -1       615 2.49151E+04 4.76965E+01 3.12394E+01 2.90691E+04-7.69069E-09 5.43628E-09
 -1       616 2.49110E+04 4.32674E+01 1.02554E+02 2.54388E+04-1.00631E-08-3.78759E-09
 -1       617 2.49211E+04 7.35803E+01 2.37597E+02 2.90686E+04-4.24279E-09 4.68094E-09
 -1       618 2.48855E+04 1.14854E+02 4.80156E+02 2.54389E+04-3.12320E-09 5.05179E-09
 -1       619 2.50867E+04 4.47419E+02 1.07913E+03 2.90678E+04-3.11547E-09 8.40464E-09
 -1       620 2.47235E+04 1.25598E+03 2.16921E+03 2.54378E+04-1.14176E-09 4.60204E-10
 -1       621 3.07182E+02 2.04904E+05 2.70102E+03 8.39742E+03-2.51134E-10-2.41857E-09
 -1       622 3.55092E+02 2.05572E+05 2.33467E+03 1.22510E+04-2.00089E-10 4.24905E-09
 -1       623 1.51459E+01 2.05090E+05 2.73978E+03 8.35795E+03-2.16374E-10 5.12864E-09
 -1       624 1.25429E+03 2.06395E+05 5.25056E+03 1.22900E+04-3.01242E-10 4.21232E-09
 -1       625 1.26036E+03 2.04073E+05 9.15042E+03 8.35863E+03-1.13687E-10 8.14214E-09
 -1       626 1.71294E+05 4.69445E+04 3.45885E+03 9.18873E+04-1.21145E-09-3.85262E-09
 -1       627 1.69020E+05 4.85945E+04 1.66673E+03 9.55666E+04-5.88534E-09-1.26118E-08
 -1       628 1.71418E+05 4.53142E+04 7.03963E+02 9.24154E+04-5.59703E-09 3.59842E-09
 -1       629 1.68526E+05 4.81946E+04 3.45027E+02 9.57854E+04-1.83354E-09 3.43833E-08
 -1       630 1.71425E+05 4.52377E+04 1.59481E+02 9.24296E+04-4.55384E-09 2.17057E-09
 -1       631 1.68465E+05 4.81855E+04 8.57298E+01 9.57864E+04-4.19459E-09 3.11725E-09
 -1       632 1.71416E+05 4.52441E+04 5.63751E+01 9.24217E+04-6.72071E-09 5.39944E-09
 -1       633 1.68452E+05 4.81907E+04 6.27484E+01 9.57794E+04-8.25958E-09 9.05243E-09
 -1       634 1.71406E+05 4.52451E+04 1.01310E+02 9.24172E+04 4.64752E-09 9.33801E-09
 -1       635 1.68456E+05 4.81923E+04 2.05266E+02 9.57787E+04 3.90060E-09-1.30171E-09
 -1       636 1.71395E+05 4.52443E+04 4.14494E+02 9.24141E+04-2.84103E-09-7.99901E-09
 -1       637 1.68541E+05 4.82583E+04 9.10958E+02 9.57746E+04 1.25084E-09 3.73620E-09
 -1       638 1.71359E+05 4.54473E+04 1.87211E+03 9.23206E+04 8.39123E-10 1.08907E-08
 -1       639 1.69521E+05 4.96274E+04 4.42886E+03 9.54836E+04-2.58103E-09 8.25094E-09
 -1       640 1.71228E+05 4.95242E+04 9.19096E+03 9.05901E+04-2.54363E-09-4.76280E-09
 -1       656 4.61639E+04-1.16932E+06-1.11440E+05-3.78876E+02-3.92902E-10 1.45673E-09
 -1       657-6.10071E+04-1.21962E+06-9.21746E+04 7.32011E+03 8.60382E-10-5.90319E-10
 -1       658 1.46448E+04-1.18366E+06-5.65804E+04-1.51935E+03 9.85779E-10-3.45880E-09
 -1       659-6.54596E+04-1.22173E+06-9.80226E+04 8.09270E+03-3.06500E-10-4.37563E-09
 -1       660 5.06057E+04-1.16722E+06-1.21499E+05-1.15145E+03-1.65164E-09-4.22762E-09
 -1       661 1.61025E+05 1.75050E+04 1.55306E+04 6.29435E+04 3.95812E-09 7.71979E-09
 -1       662 1.69167E+05 2.96339E+04 1.04651E+04 6.01839E+04 3.54589E-09 1.96735E-09
 -1       663 1.64070E+05 2.24921E+04 3.66074E+03 6.20643E+04 2.82057E-10 4.78167E-10
 -1       664 1.65643E+05 2.37966E+04 2.18873E+03 6.12532E+04 2.28511E-11-1.19311E-09
 -1       665 1.64526E+05 2.31784E+04 8.63387E+02 6.19361E+04-2.09621E-09-3.46003E-09
 -1       666 1.65107E+05 2.30076E+04 5.03602E+02 6.14176E+04-4.52100E-09-1.20323E-10
 -1       667 1.64602E+05 2.32605E+04 2.65631E+02 6.19077E+04-1.01329E-09-2.56672E-09
 -1       668 1.65026E+05 2.29430E+04 2.66386E+02 6.14584E+04 3.57463E-09 2.70918E-09
 -1       669 1.64607E+05 2.32410E+04 3.57147E+02 6.18959E+04 2.65857E-10 1.58118E-09
 -1       670 1.65116E+05 2.31320E+04 7.74415E+02 6.14577E+04 8.10517E-09-2.16777E-09
 -1       671 1.64513E+05 2.30753E+04 1.37394E+03 6.19068E+04-4.43379E-11-5.63563E-09
 -1       672 1.65917E+05 2.44677E+04 3.51433E+03 6.12634E+04-6.40207E-09-4.16912E-09
 -1       673 1.63810E+05 2.19390E+04 5.88913E+03 6.20774E+04-1.65198E-09-3.23325E-10
 -1       674 1.71525E+05 3.39267E+04 1.68417E+04 5.96140E+04-5.39103E-09-1.41904E-09
 -1       675 1.58941E+05 1.38808E+04 2.49983E+04 6.34565E+04 1.21008E-09-3.76895E-09
 -1       676 1.86326E+01-2.22756E+05-8.65126E+02 3.45726E+01-2.00191E-09-1.16085E-08
 -1       677-2.29645E+02-2.22965E+05-1.58328E+03-6.91108E+01-2.68497E-09 2.23280E-09
 -1       678 1.53364E+02-2.22607E+05-2.79881E+03 3.45145E+01 1.35935E-09 1.19249E-09
 -1       679-2.79942E+03-2.24655E+05-6.64858E+03-6.88851E+01-1.74680E-09-8.94719E-09
 -1       680 1.67072E+03-2.21067E+05-1.07153E+04 3.39522E+01 5.54792E-11-7.47858E-09
 -1       771-2.38398E+06-4.37102E+05-6.20642E+04-1.01052E+06-1.20635E-08-1.25438E-08
 -1       772-2.36300E+06-4.73497E+05-3.30616E+04-1.05141E+06-8.03266E-09 3.58341E-09
 -1       773-2.39334E+06-4.29766E+05-1.47158E+04-1.01401E+06-1.19326E-09 3.32511E-09
 -1       774-2.35465E+06-4.66596E+05-7.04153E+03-1.05664E+06 1.81026E-08 1.38243E-10
 -1       775-2.39618E+06-4.27821E+05-3.87859E+03-1.01448E+06 1.52795E-09-2.18279E-10
 -1       776-2.35509E+06-4.66654E+05-1.69959E+03-1.05983E+06-5.10408E-09 2.17005E-09
 -1       777-2.39833E+06-4.26238E+05-1.25933E+03-1.01483E+06 3.32511E-09 1.61526E-09
 -1       778-2.35600E+06-4.66882E+05-4.83772E+02-1.06250E+06 3.26327E-09 3.94266E-09
 -1       779-2.40008E+06-4.24893E+05-5.67822E+02-1.01515E+06-1.70257E-09-2.82853E-09
 -1       780-2.35686E+06-4.67056E+05-2.94616E+02-1.06467E+06-2.42653E-09 4.14275E-10
 -1       781-2.40142E+06-4.23823E+05-5.41757E+02-1.01539E+06-1.02045E-08-1.33696E-09
 -1       782-2.35759E+06-4.67207E+05-7.86268E+02-1.06626E+06-1.15997E-08-3.70073E-09
 -1       783-2.40230E+06-4.23109E+05-1.58737E+03-1.01554E+06-2.53931E-09-5.29974E-09
 -1       784-2.35894E+06-4.68255E+05-3.67145E+03-1.06718E+06-7.54881E-09 2.19643E-10
 -1       785-2.40209E+06-4.23235E+05-6.80772E+03-1.01514E+06-1.28057E-08 1.71804E-09
 -1       786 1.66416E+05-9.18477E+03 2.12492E+04-3.39367E+01 4.68278E-06 2.24873E-08
 -1       787 1.75624E+05 1.06331E+04 1.50333E+04 7.69875E+00 9.32861E-06 2.55795E-08
 -1       788 1.69969E+05-1.43981E+03 5.49970E+03-2.42402E+01 8.71649E-06-1.12284E-08
 -1       789 1.71486E+05 1.66593E+03 3.45530E+03-9.00297E+00 8.08461E-06 1.13010E-08
 -1       790 1.70555E+05-2.24900E+02 1.40550E+03-1.72360E+01 7.74104E-06-1.93101E-08
 -1       791 1.70802E+05 2.61168E+02 8.24318E+02-2.28171E+01 7.38933E-06 2.25824E-08
 -1       792 1.70653E+05-3.61081E+01 3.74453E+02-1.04260E+01 3.69834E-06-5.89313E-09
 -1       793 1.70691E+05 4.98521E+01 2.41782E+02-3.82297E+01 1.13505E-08-4.44562E-09
 -1       794 1.70666E+05-1.37217E+01 1.73607E+02-1.82317E+00 1.25783E-09-7.59761E-09
 -1       795 1.70699E+05 6.87023E+01 2.43180E+02-5.96488E+01-8.21646E-10 7.85530E-09
 -1       796 1.70645E+05-5.49414E+01 3.59456E+02 1.09935E+01 7.72428E-10 2.27470E-09
 -1       797 1.70860E+05 4.02281E+02 8.43585E+02-9.30942E+01-2.77488E-10 8.51244E-10
 -1       798 1.70504E+05-3.47057E+02 1.33025E+03 3.16229E+01 1.88792E-10-2.19444E-09
 -1       799 1.71858E+05 2.56249E+03 3.62542E+03-1.48199E+02-3.87228E-10-9.09120E-09
 -1       800 1.69647E+05-2.21341E+03 5.12071E+03 6.60985E+01-9.51061E-12-2.89447E-10
 -1       801 1.58180E+04-7.91561E+05-6.45736E+04 2.37991E+04 1.21508E-08 9.47466E-10
 -1       802-9.74422E+03-6.73521E+05 7.86862E+01-7.24062E+04 3.26072E-08 6.55064E-10
 -1       803-5.49201E+03-7.34570E+05 3.13890E+04 4.19223E+04 2.55168E-08 2.52568E-08
 -1       804 9.18042E+04-6.14165E+05 1.33859E+05-6.82422E+04 2.91893E-08 2.58587E-08
 -1       805-8.60078E+04-8.50418E+05 1.58472E+05 1.96297E+04 1.05792E-08 2.36880E-08
 -1       806-2.07810E+05-4.34277E+04-1.71978E+04-8.53919E+04-3.19460E-10-2.73576E-09
 -1       807-2.08927E+05-4.08606E+04-8.44893E+03-8.98322E+04 4.31601E-09 1.25725E-08
 -1       808-2.08292E+05-3.72209E+04-3.58405E+03-8.83152E+04-1.72304E-09-4.80057E-09
 -1       809-2.07130E+05-3.85077E+04-1.75221E+03-9.00668E+04-7.24526E-10 3.41424E-09
 -1       810-2.08367E+05-3.70027E+04-8.02413E+02-8.84442E+04 4.11274E-09 1.51902E-08
 -1       811-2.06992E+05-3.84143E+04-3.98099E+02-9.00448E+04 6.93262E-10-1.53796E-09
 -1       812-2.08380E+05-3.70195E+04-1.99034E+02-8.84438E+04-1.84536E-09 1.14801E-09
 -1       813-2.06974E+05-3.84166E+04-1.26039E+02-9.00332E+04 7.80346E-10 7.18001E-09
 -1       814-2.08377E+05-3.70259E+04-1.19106E+02-8.84410E+04 3.62434E-10-4.29691E-09
 -1       815-2.06976E+05-3.84187E+04-1.87135E+02-9.00296E+04-5.41377E-10-1.15901E-08
 -1       816-2.08364E+05-3.70247E+04-3.51192E+02-8.84384E+04-1.69894E-09 6.26187E-09
 -1       817-2.07036E+05-3.84523E+04-7.52951E+02-9.00227E+04-1.64164E-10 1.88695E-08
 -1       818-2.08319E+05-3.71306E+04-1.53471E+03-8.83883E+04-3.17414E-10 2.08684E-09
 -1       819-2.07881E+05-3.93745E+04-3.61176E+03-8.98185E+04-2.69210E-10 2.41198E-09
 -1       820-2.08028E+05-3.98603E+04-7.35071E+03-8.72228E+04-1.55160E-09 7.18796E-09
 -1       821-2.67013E+05 1.47769E+04-3.41739E+04 1.41500E+02 3.69725E-10 5.36238E-09
 -1       822-2.81822E+05-1.71068E+04-2.41831E+04-7.32090E+02-2.34814E-09-4.04361E-09
 -1       823-2.72728E+05 2.31675E+03-8.85108E+03 1.20408E+02 6.85640E-10-1.92176E-09
 -1       824-2.75156E+05-2.68145E+03-5.56877E+03-5.76761E+02-2.46700E-10 8.49184E-09
 -1       825-2.73678E+05 3.62515E+02-2.28960E+03-1.38330E+01-2.08149E-09-6.01290E-10
 -1       826-2.74049E+05-4.27471E+02-1.38076E+03-2.50793E+02-4.65926E-09-2.15093E-09
 -1       827-2.73834E+05 6.41898E+01-7.16529E+02-2.05565E+02-3.44992E-09-8.29601E-10
 -1       828-2.73901E+05-1.30447E+02-6.32000E+02 1.13081E+02-5.55619E-09 1.39453E-08
 -1       829-2.73826E+05 6.57687E+01-7.27873E+02-3.77714E+02-1.85349E-10 3.99598E-09
 -1       830-2.74073E+05-4.39469E+02-1.42062E+03 3.68534E+02 1.49417E-09-6.00269E-09
 -1       831-2.73662E+05 3.73258E+02-2.35338E+03-4.61022E+02-2.23386E-09 7.63578E-09
 -1       832-2.75205E+05-2.76008E+03-5.73483E+03 4.13387E+02-1.09116E-09 5.24142E-09
 -1       833-2.72695E+05 2.38476E+03-9.11345E+03-4.22567E+02-1.51422E-09 4.56112E-09
 -1       834-2.82049E+05-1.76126E+04-2.48982E+04 2.31349E+02-1.09812E-09 4.40650E-10
 -1       835-2.66820E+05 1.52141E+04-3.51902E+04-2.78973E+02 5.03100E-09 5.08771E-09
 -1       836-8.90248E+02 2.51392E+05 1.51781E+04-2.08975E+04 1.19780E-09 5.20549E-09
 -1       837 3.33753E+03 2.56094E+05 1.29588E+04-4.19744E+04 1.67915E-09-8.24457E-09
 -1       838-3.27674E+02 2.52698E+05 1.33630E+04-2.08259E+04 1.90175E-09 3.81328E-09
 -1       839 8.57452E+03 2.59997E+05 2.54357E+04-4.20021E+04 2.60115E-09-9.81004E-10
 -1       840-2.57931E+03 2.47452E+05 4.06257E+04-2.08683E+04 1.63345E-09-3.94425E-09
 -1       856-7.93135E+04 7.01253E+03-1.84799E+04-4.11802E+02-5.38711E-09-3.28328E-09
 -1       857-8.69466E+04-8.22486E+03-1.27230E+04 4.25014E+03-6.05360E-09-1.21508E-09
 -1       858-8.23294E+04 9.82560E+02-4.79604E+03-4.31188E+02-4.64115E-09-1.58911E-09
 -1       859-8.34833E+04-1.14244E+03-2.89651E+03 4.28103E+03 1.96280E-09-4.01297E-09
 -1       860-8.27803E+04 1.36639E+02-1.21770E+03-4.42819E+02-1.84485E-10-1.84610E-09
 -1       861-8.29640E+04-1.50848E+02-6.77831E+02 4.29695E+03-5.27471E-09-8.14211E-10
 -1       862-8.28504E+04 1.80717E+01-2.97717E+02-4.47132E+02 3.91244E-09-5.36171E-09
 -1       863-8.28808E+04-1.06599E+01-1.44660E+02 4.29890E+03 1.09157E-08-1.28510E-08
 -1       864-8.28636E+04-4.62530E-01-4.02433E+01-4.44773E+02 3.64712E-09-2.99257E-09
 -1       865-8.28548E+04 2.41330E+01 4.16415E+01 4.28699E+03 2.07298E-09 6.92216E-09
 -1       866-8.28750E+04-1.71400E+01 1.25763E+02-4.35221E+02-9.73472E-10 4.09625E-09
 -1       867-8.27844E+04 1.43452E+02 3.36471E+02 4.26106E+03 6.01960E-09 8.95539E-09
 -1       868-8.29310E+04-1.18846E+02 5.65523E+02-4.18843E+02 3.52088E-10-3.78782E-09
 -1       869-8.23616E+04 9.86141E+02 1.51581E+03 4.21816E+03-5.79493E-09-1.85787E-09
 -1       870-8.32932E+04-8.38719E+02 2.19834E+03-3.92323E+02 2.31938E-09-9.13428E-09
 -1       871-3.92723E+03-8.47096E+03-1.27564E+04 8.38351E+04 1.89357E-09-1.43118E-08
 -1       872-1.70391E+03-1.13289E+04-5.20487E+03 1.08688E+05 4.05862E-09-1.62745E-08
 -1       873-3.71714E+01-9.99433E+03 7.30039E+02 8.36508E+04 2.66527E-09 3.80521E-09
 -1       874 1.95518E+03-8.14652E+03 7.20598E+03 1.08725E+05 3.77804E-09 1.09458E-08
 -1       875 4.62840E+03-1.17041E+04 1.59886E+04 8.38049E+04 1.83536E-09 7.32052E-09
 -1       876 2.07881E+05 3.58003E+04 1.10981E+04 8.43188E+04-1.98554E-09-9.25957E-09
 -1       877 2.08517E+05 3.82346E+04 5.92664E+03 8.75987E+04-4.10955E-09-1.61435E-08
 -1       878 2.08918E+05 3.45720E+04 2.48298E+03 8.52302E+04 2.21939E-09-5.44969E-09
 -1       879 2.07007E+05 3.67311E+04 1.23691E+03 8.76771E+04 4.82032E-10 7.12180E-09
 -1       880 2.08993E+05 3.45584E+04 5.75867E+02 8.52673E+04 1.92335E-09-9.01764E-10
 -1       881 2.06907E+05 3.66672E+04 3.06760E+02 8.76614E+04 5.64478E-09-3.29466E-09
 -1       882 2.09001E+05 3.45675E+04 1.94944E+02 8.52684E+04 5.30315E-09-1.39610E-09
 -1       883 2.06900E+05 3.66642E+04 2.07464E+02 8.76568E+04 3.14759E-09 3.26997E-09
 -1       884 2.08996E+05 3.45652E+04 3.28116E+02 8.52685E+04 2.95626E-09 8.67607E-09
 -1       885 2.06926E+05 3.66688E+04 6.58503E+02 8.76650E+04 2.79609E-09 7.71126E-09
 -1       886 2.08971E+05 3.45460E+04 1.32663E+03 8.52659E+04-8.26219E-11 2.31728E-09
 -1       887 2.07159E+05 3.68216E+04 2.89765E+03 8.76986E+04-3.30374E-10-7.78982E-10
 -1       888 2.08788E+05 3.45782E+04 5.83880E+03 8.51731E+04-1.36561E-09-6.03359E-09
 -1       889 2.10638E+05 4.04339E+04 1.39484E+04 8.75883E+04-1.80285E-09 1.18939E-09
 -1       890 2.06409E+05 3.74040E+04 2.61243E+04 8.29457E+04 3.35558E-09 3.53702E-09
 -1       891-1.29322E+02-1.17985E+05-1.39593E+03 2.22682E+04 7.83530E-10 7.51561E-09
 -1       892-2.25176E+02-1.18319E+05-1.51747E+03 3.36987E+04 1.99111E-09 1.49521E-09
 -1       893-3.67379E+01-1.18028E+05-2.16737E+03 2.22726E+04-2.10775E-10 7.62566E-09
 -1       894-1.18473E+03-1.19149E+05-4.49936E+03 3.35787E+04-1.72622E-09 5.94969E-09
 -1       895-9.26329E+02-1.17092E+05-7.92857E+03 2.23867E+04-1.11589E-09-4.64797E-09
 -1       956-2.61669E+05-3.75681E+03-9.45726E+03 1.74413E+04-8.50696E-09 1.39607E-10
 -1       957-2.63537E+05-1.26715E+03-4.85498E+03 2.10030E+04-1.07611E-08-4.51769E-09
 -1       958-2.62509E+05-1.00772E+02-2.18731E+03 1.73288E+04-3.05499E-09-9.03833E-09
 -1       959-2.62658E+05-1.69733E+01-1.11722E+03 2.11249E+04-1.77624E-09-9.96761E-09
 -1       960-2.62584E+05 3.18828E+01-5.44587E+02 1.73181E+04-3.02407E-09 2.43972E-09
 -1       961-2.62594E+05 3.02316E+01-2.88779E+02 2.11371E+04-5.19503E-09 6.04268E-09
 -1       962-2.62599E+05 2.81640E+01-1.64986E+02 1.73165E+04-3.26190E-09-7.04404E-10
 -1       963-2.62591E+05 3.14936E+01-1.31865E+02 2.11393E+04-5.06043E-09-1.88220E-09
 -1       964-2.62602E+05 3.00707E+01-1.59367E+02 1.73159E+04-2.96791E-09 1.37845E-09
 -1       965-2.62601E+05 3.43995E+01-2.74784E+02 2.11394E+04 5.77097E-10 1.24135E-09
 -1       966-2.62594E+05 3.75117E+01-5.15465E+02 1.73164E+04-1.43893E-09-3.75792E-09
 -1       967-2.62669E+05-6.18448E+00-1.05705E+03 2.11327E+04-1.69121E-09 9.64053E-09
 -1       968-2.62529E+05-8.41447E+01-2.06851E+03 1.73227E+04 1.00431E-09 1.54250E-09
 -1       969-2.63508E+05-1.18532E+03-4.59269E+03 2.10590E+04 8.70614E-10 6.38067E-10
 -1       970-2.61740E+05-3.54029E+03-8.94556E+03 1.73924E+04 1.34787E-09 9.60426E-10
 -1       971-2.47900E+05-1.30397E+03-7.25271E+03 1.20264E+04-3.63843E-09 5.45975E-09
 -1       972-2.49664E+05-9.34385E+02-3.94985E+03 1.67975E+04-1.53773E-09 5.59851E-09
 -1       973-2.48706E+05-7.99822E+00-1.76860E+03 1.19261E+04-4.42560E-09-3.31829E-09
 -1       974-2.48829E+05-7.78381E+00-9.16249E+02 1.69057E+04 5.32737E-10-1.60003E-08
 -1       975-2.48768E+05 2.57213E+01-4.56920E+02 1.19172E+04 5.94355E-10-3.22507E-09
 -1       976-2.48779E+05 2.99898E+01-2.61754E+02 1.69166E+04-6.15762E-09 1.92199E-09
 -1       977-2.48780E+05 2.53731E+01-1.86601E+02 1.19151E+04 1.57638E-09 4.05714E-09
 -1       978-2.48782E+05 3.40939E+01-2.13795E+02 1.69194E+04 9.80663E-09 2.52010E-09
 -1       979-2.48780E+05 3.10699E+01-3.39546E+02 1.19143E+04 6.51335E-09 3.97529E-09
 -1       980-2.48806E+05 3.61519E+01-6.53142E+02 1.69198E+04 8.40578E-09-1.19360E-09
 -1       981-2.48759E+05 4.73406E+01-1.26366E+03 1.19147E+04 3.76554E-09-2.76901E-09
 -1       982-2.48980E+05-5.70577E+01-2.61122E+03 1.69148E+04 5.61386E-10-7.99176E-10
 -1       983-2.48600E+05-3.33295E+01-5.07319E+03 1.19195E+04 2.98041E-09-1.93268E-09
 -1       984-2.51420E+05-2.70617E+03-1.13606E+04 1.68469E+04-1.64073E-09-5.20504E-09
 -1       985-2.46304E+05-3.74539E+03-2.08617E+04 1.19873E+04 3.57568E-09 4.65661E-10
 -3
    1PSTEP                        13           7           1          
  100CL  107 5.38574E-01         409                     0    7           1
 -4  DISP        4    1
 -5  D1          1    2    1    0
 -5  D2          1    2    2    0
 -5  D3          1    2    3    0
 -5  ALL         1    2    0    0    1ALL
 -1         1 1.82699E-04 0.00000E+00 0.00000E+00
 -1         2 1.62251E-04-3.07641E-30 0.00000E+00
 -1         3 1.63103E-04 4.92172E-27-1.32349E-23
 -1         5 1.06934E-04 3.78041E-26 3.30872E-24
 -1         8 1.56550E-04-8.86287E-07 0.00000E+00
 -1         9 1.50920E-04-5.50156E-07 0.00000E+00
 -1        10 1.50091E-04-2.19246E-06 0.00000E+00
 -1        12 1.06667E-04 5.91838E-07 0.00000E+00
 -1        15 1.25204E-04-9.89361E-07 4.13590E-25
 -1        16 1.31216E-04-7.49537E-07 0.00000E+00
 -1        17 1.08955E-04-4.67861E-06 0.00000E+00
 -1        18 1.04700E-04 4.74849E-06 0.00000E+00
 -1        19 1.05868E-04 1.18059E-06 0.00000E+00
 -1        20 1.06014E-04 1.31643E-05 0.00000E+00
 -1        21 1.05420E-04 2.39104E-05 0.00000E+00
 -1        24 2.22978E-05-6.54936E-06 0.00000E+00
 -1        25 1.04609E-04 4.88825E-06 0.00000E+00
 -1        26 1.05512E-04 1.63959E-06 0.00000E+00
 -1        27 1.03876E-04 1.05056E-05 0.00000E+00
 -1        28 1.03406E-04 2.34091E-05 0.00000E+00
 -1        32 0.00000E+00 0.00000E+00 0.00000E+00
 -1        33 1.03912E-04 2.19666E-06 0.00000E+00
 -1        34 1.02314E-04 1.04804E-05 0.00000E+00
 -1        35 1.00807E-04 2.31426E-05 0.00000E+00
 -1        51 1.81015E-04-1.47187E-07 0.00000E+00
 -1        52 1.77872E-04-2.88377E-07 0.00000E+00
 -1        53 1.73556E-04-4.30979E-07 0.00000E+00
 -1        54 1.68365E-04-5.76701E-07-3.30872E-24
 -1        55 1.62597E-04-7.26375E-07 2.48154E-24
 -1        56 1.81090E-04-8.60074E-07-2.64698E-23
 -1        57 1.79574E-04-2.14960E-06 0.00000E+00
 -1        58 1.78170E-04-3.72630E-06 5.29396E-23
 -1        59 1.76814E-04-5.46474E-06-2.64698E-23
 -1        60 1.75463E-04-7.21741E-06 5.29396E-23
 -1        61 1.74061E-04-8.84056E-06-2.64698E-23
 -1        62 1.72561E-04-1.02004E-05 0.00000E+00
 -1        63 1.70915E-04-1.11745E-05 2.64698E-23
 -1        64 1.69092E-04-1.16725E-05-5.29396E-23
 -1        65 1.67063E-04-1.16235E-05 0.00000E+00
 -1        66 1.64819E-04-1.10020E-05 5.29396E-23
 -1        67 1.62360E-04-9.80565E-06 0.00000E+00
 -1        68 1.59703E-04-8.08075E-06 5.29396E-23
 -1        69 1.56879E-04-5.89153E-06 0.00000E+00
 -1        70 1.53919E-04-3.34801E-06 0.00000E+00
 -1        86 1.61915E-04-8.46645E-08-3.30872E-24
 -1        87 1.60910E-04-1.70305E-07 0.00000E+00
 -1        88 1.59264E-04-2.56837E-07 0.00000E+00
 -1        89 1.57011E-04-3.47932E-07-3.30872E-24
 -1        90 1.54210E-04-4.39195E-07 6.61744E-24
 -1       121 1.62739E-04-3.62347E-07 0.00000E+00
 -1       122 1.61648E-04-7.25209E-07 6.61744E-24
 -1       123 1.59832E-04-1.08910E-06 0.00000E+00
 -1       124 1.57296E-04-1.45457E-06 6.61744E-24
 -1       125 1.54046E-04-1.82200E-06 1.32349E-23
 -1       191 1.06926E-04 9.86445E-08 0.00000E+00
 -1       192 1.06904E-04 1.97288E-07-1.65436E-24
 -1       193 1.06867E-04 2.95931E-07 3.30872E-24
 -1       194 1.06815E-04 3.94572E-07-1.65436E-24
 -1       195 1.06749E-04 4.93208E-07 3.30872E-24
 -1       251 1.56192E-04 3.93037E-06-1.32349E-23
 -1       252 1.55836E-04 7.90463E-06 0.00000E+00
 -1       253 1.55484E-04 1.08003E-05 0.00000E+00
 -1       254 1.55135E-04 1.23966E-05 0.00000E+00
 -1       255 1.54787E-04 1.26952E-05 0.00000E+00
 -1       256 1.54439E-04 1.17165E-05 6.61744E-24
 -1       257 1.54089E-04 9.69980E-06 0.00000E+00
 -1       258 1.53738E-04 6.89914E-06-6.61744E-24
 -1       259 1.53385E-04 3.70285E-06 0.00000E+00
 -1       260 1.53032E-04 5.05023E-07 6.61744E-24
 -1       261 1.52680E-04-2.30002E-06 0.00000E+00
 -1       262 1.52330E-04-4.32362E-06 0.00000E+00
 -1       263 1.51981E-04-5.31104E-06-1.32349E-23
 -1       264 1.51631E-04-5.02227E-06-6.61744E-24
 -1       265 1.51281E-04-3.43620E-06 0.00000E+00
 -1       266 1.51326E-04-9.15688E-07-6.61744E-24
 -1       267 1.46102E-04-9.31378E-07 0.00000E+00
 -1       268 1.40877E-04-9.47935E-07 0.00000E+00
 -1       269 1.35653E-04-9.61920E-07 0.00000E+00
 -1       270 1.30429E-04-9.75846E-07 4.13590E-25
 -1       271 1.53471E-04 3.21818E-06-2.64698E-23
 -1       272 1.50786E-04 6.15072E-06 0.00000E+00
 -1       273 1.48507E-04 8.01532E-06 0.00000E+00
 -1       274 1.46584E-04 8.91486E-06 0.00000E+00
 -1       275 1.44976E-04 8.97540E-06 5.29396E-23
 -1       276 1.43630E-04 8.33515E-06 2.64698E-23
 -1       277 1.42489E-04 7.14593E-06 0.00000E+00
 -1       278 1.41493E-04 5.56886E-06 2.64698E-23
 -1       279 1.40579E-04 3.77230E-06 0.00000E+00
 -1       280 1.39682E-04 1.92853E-06 0.00000E+00
 -1       281 1.38739E-04 2.10537E-07 0.00000E+00
 -1       282 1.37686E-04-1.21071E-06 0.00000E+00
 -1       283 1.36460E-04-2.17002E-06 0.00000E+00
 -1       284 1.35007E-04-2.50866E-06-1.32349E-23
 -1       285 1.33266E-04-2.08293E-06 0.00000E+00
 -1       301 1.47280E-04-5.97814E-07 0.00000E+00
 -1       302 1.43671E-04-6.23116E-07 0.00000E+00
 -1       303 1.40176E-04-6.46893E-07 0.00000E+00
 -1       304 1.36879E-04-6.70817E-07 0.00000E+00
 -1       305 1.33865E-04-6.96005E-07 1.32349E-23
 -1       306 1.48896E-04-1.86102E-06-5.29396E-23
 -1       307 1.49717E-04-1.10763E-05 0.00000E+00
 -1       308 1.52845E-04-2.66339E-05-5.29396E-23
 -1       309 1.57517E-04-4.65636E-05 0.00000E+00
 -1       310 1.62711E-04-6.79638E-05 5.29396E-23
 -1       311 1.67361E-04-8.78343E-05 0.00000E+00
 -1       312 1.70507E-04-1.03499E-04 5.29396E-23
 -1       313 1.71265E-04-1.12574E-04 0.00000E+00
 -1       314 1.69215E-04-1.14068E-04 5.29396E-23
 -1       315 1.64113E-04-1.07502E-04 0.00000E+00
 -1       316 1.56362E-04-9.40820E-05 0.00000E+00
 -1       317 1.46569E-04-7.54660E-05 0.00000E+00
 -1       318 1.35797E-04-5.43868E-05-5.29396E-23
 -1       319 1.25210E-04-3.37292E-05 0.00000E+00
 -1       320 1.15900E-04-1.63072E-05-5.29396E-23
 -1       336 1.45346E-04-2.59486E-06 0.00000E+00
 -1       337 1.39732E-04-3.00211E-06 0.00000E+00
 -1       338 1.33265E-04-3.41418E-06 0.00000E+00
 -1       339 1.25964E-04-3.83112E-06 0.00000E+00
 -1       340 1.17852E-04-4.25411E-06 0.00000E+00
 -1       406 1.06571E-04 6.90456E-07 0.00000E+00
 -1       407 1.06460E-04 7.89040E-07 0.00000E+00
 -1       408 1.06334E-04 8.87563E-07 0.00000E+00
 -1       409 1.06194E-04 9.85906E-07-1.65436E-24
 -1       410 1.06038E-04 1.08388E-06 0.00000E+00
 -1       521 1.35099E-04-2.07322E-05-5.29396E-23
 -1       522 1.52574E-04-8.18340E-05 5.29396E-23
 -1       523 1.79322E-04-1.74003E-04 0.00000E+00
 -1       524 2.10972E-04-2.84348E-04 0.00000E+00
 -1       525 2.42933E-04-3.95863E-04 1.05879E-22
 -1       526 2.70609E-04-4.91433E-04 0.00000E+00
 -1       527 2.89625E-04-5.57571E-04-1.05879E-22
 -1       528 2.95485E-04-5.83495E-04 0.00000E+00
 -1       529 2.85657E-04-5.67173E-04 0.00000E+00
 -1       530 2.58851E-04-5.10167E-04 5.29396E-23
 -1       531 2.17989E-04-4.22341E-04 1.05879E-22
 -1       532 1.67964E-04-3.15772E-04-5.29396E-23
 -1       533 1.16433E-04-2.06181E-04-1.05879E-22
 -1       534 7.13142E-05-1.09467E-04-5.29396E-23
 -1       535 3.85347E-05-3.90728E-05 0.00000E+00
 -1       536 1.08744E-04 7.92840E-06-6.61744E-24
 -1       537 1.08437E-04 2.71489E-05-3.30872E-24
 -1       538 1.08055E-04 5.01872E-05 0.00000E+00
 -1       539 1.07651E-04 7.42279E-05 1.65436E-24
 -1       540 1.07292E-04 9.61926E-05 3.30872E-24
 -1       541 1.07029E-04 1.13015E-04-1.65436E-24
 -1       542 1.06852E-04 1.22946E-04-3.30872E-24
 -1       543 1.06722E-04 1.24277E-04-1.65436E-24
 -1       544 1.06571E-04 1.17474E-04-3.30872E-24
 -1       545 1.06343E-04 1.03051E-04 0.00000E+00
 -1       546 1.06032E-04 8.34558E-05 0.00000E+00
 -1       547 1.05668E-04 6.11681E-05 0.00000E+00
 -1       548 1.05313E-04 3.93608E-05 0.00000E+00
 -1       549 1.05030E-04 2.12050E-05 0.00000E+00
 -1       550 1.04830E-04 8.93451E-06 0.00000E+00
 -1       551 9.74525E-05-4.95168E-06 0.00000E+00
 -1       552 8.38016E-05-5.24523E-06-3.30872E-24
 -1       553 6.87261E-05-5.55706E-06 0.00000E+00
 -1       554 5.29611E-05-5.88089E-06-6.61744E-24
 -1       555 3.72417E-05-6.20684E-06-2.64698E-23
 -1       556 1.05839E-04 3.37832E-06 0.00000E+00
 -1       557 1.03413E-04 9.66639E-06 0.00000E+00
 -1       558 1.01604E-04 1.43404E-05 2.64698E-23
 -1       559 1.00346E-04 1.75681E-05 0.00000E+00
 -1       560 9.95721E-05 1.95170E-05 0.00000E+00
 -1       561 9.92168E-05 2.03554E-05 0.00000E+00
 -1       562 9.92154E-05 2.02523E-05 0.00000E+00
 -1       563 9.95037E-05 1.93766E-05 0.00000E+00
 -1       564 1.00018E-04 1.78978E-05 0.00000E+00
 -1       565 1.00694E-04 1.59851E-05 0.00000E+00
 -1       566 1.01469E-04 1.38081E-05 0.00000E+00
 -1       567 1.02279E-04 1.15363E-05-2.06795E-25
 -1       568 1.03061E-04 9.33943E-06 0.00000E+00
 -1       569 1.03752E-04 7.38673E-06 0.00000E+00
 -1       570 1.04289E-04 5.84769E-06 0.00000E+00
 -1       571 1.04771E-04 4.54508E-06-8.27181E-25
 -1       572 1.04844E-04 4.29562E-06 2.06795E-25
 -1       573 1.04916E-04 4.00902E-06 1.65436E-24
 -1       574 1.04990E-04 3.69461E-06-8.27181E-25
 -1       575 1.05063E-04 3.36176E-06 0.00000E+00
 -1       576 1.05136E-04 3.01990E-06 8.27181E-25
 -1       577 1.05209E-04 2.67847E-06 0.00000E+00
 -1       578 1.05283E-04 2.34692E-06 0.00000E+00
 -1       579 1.05356E-04 2.03468E-06-3.30872E-24
 -1       580 1.05429E-04 1.75120E-06 1.65436E-24
 -1       581 1.05502E-04 1.50592E-06 0.00000E+00
 -1       582 1.05576E-04 1.30828E-06 0.00000E+00
 -1       583 1.05649E-04 1.16770E-06 0.00000E+00
 -1       584 1.05722E-04 1.09350E-06 0.00000E+00
 -1       585 1.05795E-04 1.09496E-06 0.00000E+00
 -1       586 1.04645E-04 4.77328E-06 0.00000E+00
 -1       587 1.04564E-04 4.79748E-06-2.06795E-25
 -1       588 1.04487E-04 4.82141E-06-8.27181E-25
 -1       589 1.04448E-04 4.84494E-06 0.00000E+00
 -1       590 1.04478E-04 4.86776E-06 0.00000E+00
 -1       591 1.04741E-04 4.58786E-06 1.29247E-25
 -1       592 1.04792E-04 4.39461E-06 0.00000E+00
 -1       593 1.04851E-04 4.17534E-06 4.13590E-25
 -1       594 1.04919E-04 3.93591E-06 0.00000E+00
 -1       595 1.04991E-04 3.68227E-06-8.27181E-25
 -1       596 1.05066E-04 3.42031E-06 0.00000E+00
 -1       597 1.05143E-04 3.15593E-06 4.13590E-25
 -1       598 1.05218E-04 2.89501E-06 0.00000E+00
 -1       599 1.05289E-04 2.64343E-06 4.13590E-25
 -1       600 1.05355E-04 2.40709E-06 2.06795E-25
 -1       601 1.05413E-04 2.19186E-06 0.00000E+00
 -1       602 1.05461E-04 2.00364E-06-1.03398E-25
 -1       603 1.05497E-04 1.84831E-06 2.06795E-25
 -1       604 1.05518E-04 1.73183E-06 0.00000E+00
 -1       605 1.05523E-04 1.66004E-06 0.00000E+00
 -1       606 1.05881E-04 1.43083E-06 0.00000E+00
 -1       607 1.05891E-04 1.77686E-06 0.00000E+00
 -1       608 1.05901E-04 2.21306E-06 0.00000E+00
 -1       609 1.05910E-04 2.73308E-06-1.65436E-24
 -1       610 1.05919E-04 3.33056E-06 0.00000E+00
 -1       611 1.05928E-04 3.99903E-06 0.00000E+00
 -1       612 1.05937E-04 4.73202E-06 0.00000E+00
 -1       613 1.05946E-04 5.52307E-06 0.00000E+00
 -1       614 1.05955E-04 6.36569E-06 0.00000E+00
 -1       615 1.05963E-04 7.25340E-06 8.27181E-25
 -1       616 1.05972E-04 8.17975E-06-1.65436E-24
 -1       617 1.05981E-04 9.13825E-06 0.00000E+00
 -1       618 1.05989E-04 1.01224E-05 0.00000E+00
 -1       619 1.05998E-04 1.11258E-05 0.00000E+00
 -1       620 1.06006E-04 1.21419E-05 0.00000E+00
 -1       621 1.05727E-04 1.25720E-06 1.65436E-24
 -1       622 1.05631E-04 1.33412E-06-8.27181E-25
 -1       623 1.05571E-04 1.41103E-06 1.65436E-24
 -1       624 1.05537E-04 1.48781E-06 0.00000E+00
 -1       625 1.05521E-04 1.56446E-06 1.65436E-24
 -1       626 1.05859E-04 1.45624E-06 3.30872E-24
 -1       627 1.05820E-04 1.81016E-06 0.00000E+00
 -1       628 1.05755E-04 2.23477E-06 0.00000E+00
 -1       629 1.05667E-04 2.72200E-06-1.65436E-24
 -1       630 1.05558E-04 3.26380E-06-3.30872E-24
 -1       631 1.05432E-04 3.85206E-06 0.00000E+00
 -1       632 1.05291E-04 4.47866E-06 0.00000E+00
 -1       633 1.05139E-04 5.13551E-06 1.65436E-24
 -1       634 1.04979E-04 5.81449E-06-3.30872E-24
 -1       635 1.04813E-04 6.50748E-06 0.00000E+00
 -1       636 1.04645E-04 7.20639E-06-3.30872E-24
 -1       637 1.04478E-04 7.90310E-06 8.27181E-25
 -1       638 1.04315E-04 8.58951E-06-1.65436E-24
 -1       639 1.04158E-04 9.25749E-06 8.27181E-25
 -1       640 1.04011E-04 9.89893E-06-1.65436E-24
 -1       656 1.05205E-04 1.27317E-05 0.00000E+00
 -1       657 1.04770E-04 1.22818E-05 6.61744E-24
 -1       658 1.04569E-04 1.18333E-05 0.00000E+00
 -1       659 1.04462E-04 1.13853E-05 0.00000E+00
 -1       660 1.04284E-04 1.09357E-05 0.00000E+00
 -1       661 1.05716E-04 1.41578E-05 0.00000E+00
 -1       662 1.05443E-04 1.50922E-05 8.27181E-25
 -1       663 1.05191E-04 1.59695E-05 0.00000E+00
 -1       664 1.04960E-04 1.67929E-05 0.00000E+00
 -1       665 1.04748E-04 1.75653E-05 0.00000E+00
 -1       666 1.04554E-04 1.82894E-05-8.27181E-25
 -1       667 1.04378E-04 1.89678E-05 0.00000E+00
 -1       668 1.04217E-04 1.96033E-05 8.27181E-25
 -1       669 1.04072E-04 2.01981E-05-1.65436E-24
 -1       670 1.03942E-04 2.07546E-05 0.00000E+00
 -1       671 1.03824E-04 2.12752E-05-1.65436E-24
 -1       672 1.03720E-04 2.17619E-05 8.27181E-25
 -1       673 1.03627E-04 2.22169E-05 1.65436E-24
 -1       674 1.03545E-04 2.26419E-05 0.00000E+00
 -1       675 1.03473E-04 2.30393E-05-4.13590E-25
 -1       676 1.05083E-04 2.38264E-05 3.30872E-24
 -1       677 1.04747E-04 2.37423E-05 0.00000E+00
 -1       678 1.04411E-04 2.36584E-05 0.00000E+00
 -1       679 1.04075E-04 2.35746E-05 8.27181E-25
 -1       680 1.03740E-04 2.34909E-05 1.65436E-24
 -1       771 1.65966E-05 5.20998E-06 0.00000E+00
 -1       772 1.17023E-05 1.48534E-05 0.00000E+00
 -1       773 7.57892E-06 2.24923E-05 0.00000E+00
 -1       774 4.17538E-06 2.82484E-05 0.00000E+00
 -1       775 1.44120E-06 3.22468E-05 5.29396E-23
 -1       776-6.76280E-07 3.46180E-05-2.64698E-23
 -1       777-2.23024E-06 3.54961E-05 0.00000E+00
 -1       778-3.27510E-06 3.50197E-05 0.00000E+00
 -1       779-3.86558E-06 3.33301E-05 0.00000E+00
 -1       780-4.05744E-06 3.05723E-05 0.00000E+00
 -1       781-3.90654E-06 2.68937E-05 5.29396E-23
 -1       782-3.46956E-06 2.24445E-05-1.32349E-23
 -1       783-2.80320E-06 1.73763E-05 0.00000E+00
 -1       784-1.96471E-06 1.18429E-05 0.00000E+00
 -1       785-1.01132E-06 5.99886E-06 2.64698E-23
 -1       786 1.04661E-04 4.54826E-06 0.00000E+00
 -1       787 1.04718E-04 4.23385E-06 0.00000E+00
 -1       788 1.04774E-04 3.94062E-06 0.00000E+00
 -1       789 1.04830E-04 3.66426E-06 8.27181E-25
 -1       790 1.04887E-04 3.40265E-06-1.65436E-24
 -1       791 1.04944E-04 3.15371E-06-8.27181E-25
 -1       792 1.05001E-04 2.91702E-06 0.00000E+00
 -1       793 1.05058E-04 2.69219E-06 0.00000E+00
 -1       794 1.05114E-04 2.48038E-06 1.65436E-24
 -1       795 1.05171E-04 2.28278E-06 8.27181E-25
 -1       796 1.05228E-04 2.10247E-06 0.00000E+00
 -1       797 1.05285E-04 1.94253E-06 8.27181E-25
 -1       798 1.05342E-04 1.80875E-06 0.00000E+00
 -1       799 1.05399E-04 1.70697E-06-8.27181E-25
 -1       800 1.05456E-04 1.64720E-06 1.65436E-24
 -1       801 9.73754E-05 4.26287E-06 0.00000E+00
 -1       802 7.49837E-05 3.39823E-06-6.61744E-24
 -1       803 4.61192E-05 2.38538E-06 0.00000E+00
 -1       804 1.96515E-05 1.42824E-06 0.00000E+00
 -1       805 2.16465E-06 6.51666E-07-2.64698E-23
 -1       806 1.04652E-04 4.49898E-06 1.65436E-24
 -1       807 1.04687E-04 4.12256E-06-8.27181E-25
 -1       808 1.04715E-04 3.76329E-06-1.65436E-24
 -1       809 1.04735E-04 3.42463E-06 8.27181E-25
 -1       810 1.04746E-04 3.11004E-06 0.00000E+00
 -1       811 1.04746E-04 2.82286E-06 1.65436E-24
 -1       812 1.04735E-04 2.56648E-06-3.30872E-24
 -1       813 1.04711E-04 2.34425E-06-8.27181E-25
 -1       814 1.04673E-04 2.15951E-06-3.30872E-24
 -1       815 1.04620E-04 2.01562E-06 0.00000E+00
 -1       816 1.04551E-04 1.91590E-06 0.00000E+00
 -1       817 1.04463E-04 1.86371E-06 0.00000E+00
 -1       818 1.04356E-04 1.86238E-06-1.65436E-24
 -1       819 1.04230E-04 1.91523E-06-8.27181E-25
 -1       820 1.04082E-04 2.02557E-06 1.65436E-24
 -1       821 1.05416E-04 1.62258E-06 0.00000E+00
 -1       822 1.05313E-04 1.53580E-06 0.00000E+00
 -1       823 1.05211E-04 1.44764E-06-3.30872E-24
 -1       824 1.05108E-04 1.42649E-06 1.65436E-24
 -1       825 1.05005E-04 1.52650E-06 0.00000E+00
 -1       826 1.04902E-04 1.80127E-06 1.65436E-24
 -1       827 1.04799E-04 2.26734E-06 0.00000E+00
 -1       828 1.04695E-04 2.94041E-06 0.00000E+00
 -1       829 1.04592E-04 3.79226E-06 0.00000E+00
 -1       830 1.04488E-04 4.79387E-06-1.65436E-24
 -1       831 1.04384E-04 5.88449E-06-3.30872E-24
 -1       832 1.04280E-04 7.00293E-06-1.65436E-24
 -1       833 1.04177E-04 8.08211E-06 0.00000E+00
 -1       834 1.04075E-04 9.05515E-06 0.00000E+00
 -1       835 1.03972E-04 9.87757E-06-8.27181E-25
 -1       836 1.05403E-04 1.73232E-06 1.65436E-24
 -1       837 1.05180E-04 1.82712E-06 0.00000E+00
 -1       838 1.04882E-04 1.92176E-06-1.65436E-24
 -1       839 1.04546E-04 2.01578E-06 0.00000E+00
 -1       840 1.04210E-04 2.10966E-06 0.00000E+00
 -1       856 1.03850E-04 1.10957E-05-2.06795E-25
 -1       857 1.03821E-04 1.17968E-05 0.00000E+00
 -1       858 1.03792E-04 1.25916E-05 8.27181E-25
 -1       859 1.03763E-04 1.34625E-05 4.13590E-25
 -1       860 1.03733E-04 1.43919E-05-8.27181E-25
 -1       861 1.03704E-04 1.53621E-05 4.13590E-25
 -1       862 1.03674E-04 1.63553E-05 0.00000E+00
 -1       863 1.03644E-04 1.73539E-05 0.00000E+00
 -1       864 1.03614E-04 1.83399E-05 0.00000E+00
 -1       865 1.03585E-04 1.92958E-05-4.13590E-25
 -1       866 1.03555E-04 2.02038E-05 0.00000E+00
 -1       867 1.03525E-04 2.10461E-05 0.00000E+00
 -1       868 1.03496E-04 2.18052E-05 0.00000E+00
 -1       869 1.03466E-04 2.24637E-05 0.00000E+00
 -1       870 1.03436E-04 2.30041E-05 0.00000E+00
 -1       871 1.03501E-04 1.05045E-05-8.27181E-25
 -1       872 1.03235E-04 1.05011E-05 0.00000E+00
 -1       873 1.03033E-04 1.04973E-05 0.00000E+00
 -1       874 1.02844E-04 1.04930E-05-5.16988E-26
 -1       875 1.02620E-04 1.04881E-05 2.06795E-25
 -1       876 1.03753E-04 1.11055E-05-3.30872E-24
 -1       877 1.03613E-04 1.17595E-05-1.65436E-24
 -1       878 1.03455E-04 1.24611E-05 0.00000E+00
 -1       879 1.03281E-04 1.32041E-05-1.65436E-24
 -1       880 1.03095E-04 1.39824E-05 0.00000E+00
 -1       881 1.02897E-04 1.47900E-05 1.65436E-24
 -1       882 1.02691E-04 1.56209E-05-3.30872E-24
 -1       883 1.02478E-04 1.64689E-05 0.00000E+00
 -1       884 1.02261E-04 1.73281E-05-3.30872E-24
 -1       885 1.02042E-04 1.81923E-05 0.00000E+00
 -1       886 1.01823E-04 1.90555E-05 3.30872E-24
 -1       887 1.01607E-04 1.99117E-05 1.65436E-24
 -1       888 1.01396E-04 2.07547E-05-3.30872E-24
 -1       889 1.01192E-04 2.15785E-05 8.27181E-25
 -1       890 1.00996E-04 2.23770E-05 8.27181E-25
 -1       891 1.03094E-04 2.33645E-05-8.27181E-25
 -1       892 1.02762E-04 2.33197E-05 0.00000E+00
 -1       893 1.02389E-04 2.32750E-05 0.00000E+00
 -1       894 1.01953E-04 2.32304E-05-4.13590E-25
 -1       895 1.01433E-04 2.31859E-05-6.20385E-25
 -1       956 1.03814E-04 2.49261E-06-3.30872E-24
 -1       957 1.03715E-04 2.85156E-06 8.27181E-25
 -1       958 1.03615E-04 3.26670E-06-1.65436E-24
 -1       959 1.03514E-04 3.73082E-06 8.27181E-25
 -1       960 1.03414E-04 4.23670E-06 0.00000E+00
 -1       961 1.03314E-04 4.77709E-06 0.00000E+00
 -1       962 1.03214E-04 5.34472E-06 0.00000E+00
 -1       963 1.03113E-04 5.93233E-06 0.00000E+00
 -1       964 1.03013E-04 6.53264E-06 0.00000E+00
 -1       965 1.02913E-04 7.13838E-06 1.65436E-24
 -1       966 1.02813E-04 7.74229E-06-3.30872E-24
 -1       967 1.02712E-04 8.33710E-06-1.65436E-24
 -1       968 1.02612E-04 8.91553E-06 0.00000E+00
 -1       969 1.02512E-04 9.47034E-06 1.65436E-24
 -1       970 1.02412E-04 9.99430E-06-3.30872E-24
 -1       971 1.02221E-04 1.09843E-05 0.00000E+00
 -1       972 1.02127E-04 1.15701E-05 0.00000E+00
 -1       973 1.02032E-04 1.22290E-05 1.65436E-24
 -1       974 1.01938E-04 1.29514E-05 1.65436E-24
 -1       975 1.01843E-04 1.37280E-05-3.30872E-24
 -1       976 1.01748E-04 1.45493E-05 1.65436E-24
 -1       977 1.01654E-04 1.54059E-05 0.00000E+00
 -1       978 1.01559E-04 1.62883E-05-1.65436E-24
 -1       979 1.01464E-04 1.71871E-05-3.30872E-24
 -1       980 1.01369E-04 1.80928E-05 0.00000E+00
 -1       981 1.01275E-04 1.89959E-05 0.00000E+00
 -1       982 1.01180E-04 1.98870E-05 1.65436E-24
 -1       983 1.01085E-04 2.07567E-05 0.00000E+00
 -1       984 1.00991E-04 2.15954E-05 0.00000E+00
 -1       985 1.00897E-04 2.23938E-05 1.65436E-24
 -3
    1PSTEP                        14           7           1          
  100CL  107 5.38574E-01         409                     0    7           1
 -4  STRESS      6    1
 -5  SXX         1    4    1    1
 -5  SYY         1    4    2    2
 -5  SZZ         1    4    3    3
 -5  SXY         1    4    1    2
 -5  SYZ         1    4    2    3
 -5  SZX         1    4    3    1
 -1         1-2.26320E+06-9.65656E+05-4.76469E+05-1.25177E+06 2.61934E-10-1.83063E-08
 -1         2 2.69879E+03-2.38445E+05 8.79857E+03-6.87999E+02-1.08827E-10-9.41623E-09
 -1         3-2.33251E+02-1.03415E+06 2.48122E+02-5.95461E+02-2.68823E-10-2.01580E-08
 -1         5-2.30478E+00 2.82248E+05 7.29106E+00 9.58014E-02 5.16222E-11-2.57851E-08
 -1         8-1.05139E+06-3.89470E+05-9.44780E+04-5.62194E+05-1.47338E-10 5.52973E-09
 -1         9-2.15692E+06-6.95792E+05-2.65604E+05-6.71672E+05 4.94474E-09 3.53903E-09
 -1        10-9.23033E+02-1.07738E+06-1.47700E+03-4.02948E+03-5.15047E-09-9.14147E-09
 -1        12 6.86657E-01 2.82264E+05 2.36111E+02 7.58979E-01 1.30683E-10 1.00672E-08
 -1        15 2.02504E+03 1.11289E+03 6.54594E+03 4.57493E+00-2.88708E-10-4.19449E-08
 -1        16-2.85828E+06-1.24774E+06-4.64762E+05-1.32278E+06 1.18453E-08 1.13117E-08
 -1        17-1.26882E+06-7.16686E+05-2.44892E+05-6.36687E+05-5.63887E-09 9.42964E-09
 -1        18-4.05679E+04-1.47246E+04-3.19015E+04-7.33917E+04 4.95334E-09 2.42198E-09
 -1        19 8.96181E+04 1.04935E+05-6.30755E+02 1.75322E+04-3.49792E-10-2.07438E-09
 -1        20-4.21602E+04-4.23724E+05-9.38013E+04 2.86819E+04 4.16852E-09 1.25146E-09
 -1        21-3.90138E+01-2.40475E+05-7.71729E+02-5.54983E+01-5.89120E-09-1.01455E-08
 -1        24-3.10869E+06-7.93661E+05-3.55478E+05-1.12734E+06-3.90379E-08-1.87623E-08
 -1        25-5.03930E+04-3.59013E+05-6.54429E+04-1.19981E+05-7.45786E-11 1.79953E-09
 -1        26-2.70330E+04 6.99813E+04-1.57171E+04-7.38394E+03 1.52104E-09 8.97038E-09
 -1        27-6.49393E+04-2.31548E+05-8.64942E+04 5.22498E+04 5.40816E-09 7.63733E-09
 -1        28 1.85512E+04-6.69741E+04 1.36188E+04 2.04044E+04 4.18333E-09-1.02252E-09
 -1        32-1.07658E+06-1.01237E+06 1.84619E+05-5.74796E+05-2.39197E-08 7.10290E-09
 -1        33-1.34096E+05 6.73888E+04 2.39937E+04-3.58073E+04 6.75679E-10 1.28527E-08
 -1        34-1.71485E+05-1.73032E+04 4.28422E+02 5.35983E+04 1.78770E-09-5.39755E-09
 -1        35-1.88866E+04-2.66076E+04-1.04694E+03 4.18917E+04 3.75244E-09-2.04758E-09
 -1        51 2.04599E+04-3.59474E+05 5.17091E+04-9.73982E+05-2.03727E-10-3.97267E-09
 -1        52 1.13880E+04-3.56209E+05 3.24756E+04-1.14041E+06 1.89175E-10 1.14960E-09
 -1        53 7.40692E+03-3.71257E+05 2.51253E+04-9.70503E+05 2.69210E-10 1.19326E-09
 -1        54 2.06326E+04-3.70043E+05 3.73105E+04-1.14400E+06-3.49246E-10 1.77643E-08
 -1        55 3.98154E+04-3.84033E+05 6.46087E+04-9.69936E+05-1.45519E-10 1.33950E-08
 -1        56-4.32989E+06-4.84944E+05-3.51294E+05-1.67221E+06 1.88447E-09-6.59202E-09
 -1        57-4.48050E+06-7.93986E+05-2.36912E+05-1.64795E+06-1.28784E-09 2.93585E-09
 -1        58-4.40067E+06-5.96204E+05-8.26123E+04-1.64985E+06-3.52156E-09-9.13133E-09
 -1        59-4.39875E+06-6.63189E+05-4.93193E+04-1.67426E+06 1.56433E-10-2.80425E-08
 -1        60-4.41073E+06-6.11992E+05-1.92680E+04-1.64714E+06-4.05180E-10-4.98039E-09
 -1        61-4.38908E+06-6.42628E+05-1.09241E+04-1.67496E+06 2.04147E-09-4.32010E-10
 -1        62-4.41011E+06-6.16304E+05-5.22125E+03-1.64924E+06-2.64049E-09 7.84524E-09
 -1        63-4.39330E+06-6.34446E+05-4.18187E+03-1.66844E+06-5.60703E-10 2.59897E-08
 -1        64-4.40639E+06-6.20179E+05-4.71336E+03-1.65360E+06-7.93534E-11-2.67391E-09
 -1        65-4.40279E+06-6.27883E+05-9.31720E+03-1.65851E+06 5.93445E-10-1.47982E-08
 -1        66-4.40059E+06-6.22950E+05-1.63505E+04-1.65912E+06 1.65124E-09-2.94494E-09
 -1        67-4.42147E+06-6.34650E+05-4.15644E+04-1.64588E+06-5.36602E-11 4.63842E-09
 -1        68-4.38790E+06-6.13804E+05-6.96768E+04-1.66615E+06 1.57979E-09-2.85581E-09
 -1        69-4.49582E+06-7.39675E+05-1.99687E+05-1.61795E+06-9.32232E-10-1.51849E-08
 -1        70-4.32716E+06-5.21006E+05-2.96155E+05-1.68610E+06 1.48430E-09 4.23461E-09
 -1        86-1.35560E+03-2.41334E+05 9.39572E+03 3.43985E+02 1.11231E-09 7.95944E-09
 -1        87 8.96828E+03-2.35459E+05 1.96343E+04-1.33356E+03 1.81899E-09-9.16543E-10
 -1        88-7.60230E+03-2.44321E+05 3.00568E+04 9.89557E+02 2.63390E-09 5.31713E-10
 -1        89 5.66280E+04-2.13465E+05 8.10269E+04-2.45121E+03 3.98541E-09-8.97194E-09
 -1        90-4.88449E+04-2.63307E+05 1.14564E+05 1.46209E+03 3.98722E-09 1.61702E-09
 -1       121-3.41790E+02-1.03505E+06 1.26563E+02 2.97083E+02 5.92038E-10-2.48619E-08
 -1       122-1.48215E+02-1.03411E+06 5.27917E+02-1.18981E+03-2.26828E-09-2.89310E-09
 -1       123-3.92650E+02-1.03511E+06 7.40151E+02 8.88867E+02 1.72508E-09-1.01118E-08
 -1       124 8.33006E+02-1.03356E+06 2.17890E+03-2.56715E+03-4.28645E-09 1.32459E-08
 -1       125-1.00662E+03-1.03566E+06 3.22692E+03 1.67208E+03 2.80488E-09 9.14588E-09
 -1       191-2.66303E+00 2.82273E+05 8.86502E+00-4.80989E-02 7.06217E-11 5.06316E-09
 -1       192-2.97323E+00 2.82249E+05 1.54298E+01 4.33241E-01 1.28752E-10-4.68390E-10
 -1       193-4.44093E+00 2.82273E+05 2.88407E+01-3.86646E-01 1.28816E-10 3.92720E-09
 -1       194-5.12462E+00 2.82251E+05 5.83430E+01 1.03396E+00 8.69571E-11-1.23312E-08
 -1       195-7.85775E+00 2.82271E+05 1.14267E+02-6.52087E-01 2.23437E-10-9.82254E-10
 -1       251-9.94312E+05 8.25696E+02-2.17938E+03-8.10579E+03 4.86466E-10 9.16202E-09
 -1       252-9.93743E+05-9.38307E+02-1.25278E+03 8.59515E+03-2.00430E-10 1.68535E-09
 -1       253-9.95154E+05 7.20760E+01-7.05476E+02-3.53307E+03-2.69438E-10-1.99597E-09
 -1       254-9.92811E+05-1.13346E+02 3.47144E-01-1.47782E+03-7.56017E-10-1.07090E-08
 -1       255-9.95194E+05-3.26466E+01-2.54702E+02 1.96712E+03 3.70051E-10-5.67824E-09
 -1       256-9.93309E+05 3.30276E+01 2.32638E+02-1.13785E+04 4.57106E-10 8.46100E-09
 -1       257-9.94713E+05-3.21482E+01 1.05800E+02 6.36752E+03 1.13192E-09 1.13063E-08
 -1       258-9.94140E+05 1.48194E+02 4.59897E+02-1.74537E+04-8.45034E-10 4.82549E-09
 -1       259-9.94449E+05-8.28751E+01 7.90260E+02 8.04265E+03-2.83952E-10-5.89779E-10
 -1       260-9.93884E+05 6.28933E+02 1.85424E+03-1.74654E+04-4.23086E-10 2.89847E-09
 -1       261-9.94966E+05-5.10542E+02 3.08012E+03 6.37928E+03 2.14686E-09 2.26248E-09
 -1       262-9.91479E+05 3.70109E+03 7.91934E+03-1.14136E+04 6.81837E-10-5.14126E-09
 -1       263-9.96764E+05-3.21033E+03 1.21694E+04 1.99066E+03-2.34093E-09 2.33649E-09
 -1       264-9.81629E+05 2.36660E+04 3.39590E+04-1.57538E+03-1.32675E-09 6.03541E-09
 -1       265-1.00474E+06-2.04524E+04 4.75083E+04-3.45893E+03-2.32603E-09-3.83625E-09
 -1       266-3.66587E+04-1.71388E+04 8.60254E+04-9.79025E+01-2.80124E-10-4.49160E-08
 -1       267 4.24988E+04 1.99801E+04 6.07947E+04 1.12943E+02-4.83851E-10-9.58107E-08
 -1       268-5.69896E+03-2.82949E+03 2.25975E+04-1.43919E+01-3.31056E-10-7.57248E-08
 -1       269 6.72888E+03 3.38657E+03 1.46876E+04 1.67634E+01-2.90811E-10-6.41852E-08
 -1       270-1.01000E+03-5.56422E+02 7.08994E+03-2.27495E+00-3.03771E-10-5.14019E-08
 -1       271-3.41443E+06-4.28066E+05-2.58606E+05-1.33096E+06 2.24827E-09-1.16415E-08
 -1       272-3.50127E+06-6.22411E+05-1.66241E+05-1.33496E+06 6.73026E-11-2.25464E-08
 -1       273-3.46460E+06-4.90994E+05-6.11071E+04-1.31770E+06-9.12223E-10-1.44937E-08
 -1       274-3.44180E+06-5.46071E+05-3.41511E+04-1.35586E+06 1.41699E-09 3.12139E-09
 -1       275-3.47318E+06-4.95754E+05-1.42391E+04-1.31360E+06-6.97582E-10 2.29829E-09
 -1       276-3.43110E+06-5.41139E+05-7.52305E+03-1.36288E+06-1.44610E-09 9.80572E-09
 -1       277-3.47579E+06-4.94675E+05-3.70474E+03-1.31144E+06-1.84673E-09 5.08703E-09
 -1       278-3.42811E+06-5.42645E+05-2.66244E+03-1.36619E+06 1.37334E-09 5.22252E-09
 -1       279-3.47657E+06-4.93915E+05-2.84330E+03-1.31061E+06-1.38152E-09 1.08472E-08
 -1       280-3.42831E+06-5.43552E+05-5.21545E+03-1.36652E+06-5.48312E-10 3.24781E-09
 -1       281-3.47566E+06-4.93778E+05-9.50006E+03-1.31114E+06-8.79709E-10 2.51111E-09
 -1       282-3.43439E+06-5.47936E+05-2.27657E+04-1.36321E+06 3.08773E-09-2.81352E-09
 -1       283-3.47029E+06-4.90292E+05-4.05831E+04-1.31350E+06-3.61524E-10-9.76797E-10
 -1       284-3.47360E+06-5.98882E+05-1.10512E+05-1.34942E+06-1.12436E-09-2.11548E-09
 -1       285-3.43679E+06-4.48688E+05-1.71918E+05-1.32250E+06-4.09273E-10 8.08359E-09
 -1       301 2.11036E+04-5.17477E+04 1.55684E+05-1.00637E+05-4.14730E-10 2.11458E-09
 -1       302 2.22038E+04-1.23480E+04 1.03504E+05-1.47979E+05 8.50378E-10 1.68011E-08
 -1       303 1.13553E+03-3.63754E+04 8.15477E+04-1.00733E+05-8.34916E-10 8.88758E-09
 -1       304 2.77807E+04-6.58849E+03 1.22303E+05-1.47517E+05 5.52973E-10-9.27685E-09
 -1       305 2.68454E+04-5.65173E+04 1.97241E+05-1.01139E+05-6.54836E-10 3.09410E-09
 -1       306-5.66019E+06-6.13254E+05-4.28239E+05-2.13929E+06-1.71713E-09-2.85218E-09
 -1       307-5.62992E+06-1.14287E+06-2.79693E+05-2.27450E+06-1.80862E-08 1.94632E-09
 -1       308-5.80821E+06-6.67595E+05-1.00507E+05-2.01180E+06 3.48848E-09 6.45377E-09
 -1       309-5.46775E+06-1.07750E+06-5.84309E+04-2.43874E+06 7.29821E-09-6.07179E-09
 -1       310-5.83279E+06-6.67900E+05-2.26957E+04-1.98396E+06-6.47742E-09 1.19362E-08
 -1       311-5.47385E+06-1.01879E+06-9.78859E+03-2.39513E+06 2.57342E-08 1.67400E-08
 -1       312-5.79720E+06-7.29371E+05-1.16986E+04-2.05211E+06 1.36497E-08-8.10269E-09
 -1       313-5.58750E+06-8.64349E+05 3.38361E+03-2.20102E+06 5.06861E-09-1.45656E-08
 -1       314-5.70715E+06-8.30899E+05-1.53155E+04-2.16915E+06 1.11286E-08-1.23873E-08
 -1       315-5.78966E+06-6.76970E+05-7.34500E+03-1.98781E+06 3.94721E-09-7.49378E-09
 -1       316-5.59824E+06-9.14426E+05-2.94182E+04-2.26734E+06-1.56706E-08-1.47684E-08
 -1       317-5.96973E+06-5.78892E+05-6.67882E+04-1.86157E+06 1.88156E-08-2.02963E-08
 -1       318-5.53953E+06-9.20668E+05-1.12654E+05-2.30478E+06-2.35432E-08 5.89353E-10
 -1       319-6.06669E+06-7.78992E+05-3.26700E+05-1.83627E+06-9.61154E-09 1.92558E-08
 -1       320-5.50118E+06-7.18056E+05-4.86999E+05-2.29087E+06 1.66037E-08-3.95812E-09
 -1       336 5.61835E+02-1.12050E+06-6.30238E+03 2.34677E+03-1.09881E-08-6.27369E-09
 -1       337-2.32765E+03-1.12166E+06-6.97562E+03-5.79147E+03-2.04716E-08-1.61117E-08
 -1       338 3.77695E+02-1.12064E+06-9.17572E+03 3.42468E+03-1.44123E-08 5.94810E-10
 -1       339-9.48251E+03-1.12626E+06-2.00578E+04-7.90169E+03-2.62917E-08-4.52383E-09
 -1       340 6.29138E+03-1.11616E+06-3.11070E+04 4.43902E+03-1.75623E-08 1.61272E-08
 -1       406 1.88661E+01 2.82260E+05 4.66290E+02-1.13890E-01 3.20597E-10 1.69198E-08
 -1       407 1.63191E+02 2.82345E+05 9.90694E+02-4.11965E+00 4.58158E-11 2.23763E-08
 -1       408 5.10754E+02 2.82189E+05 1.97880E+03 4.33364E+00 3.69027E-10 8.33916E-09
 -1       409 2.13998E+03 2.82977E+05 4.45448E+03-4.26502E+01 1.46088E-10 1.39372E-08
 -1       410 6.14729E+03 2.81626E+05 9.09374E+03 4.01345E+01 3.72893E-10 6.50334E-09
 -1       521-8.16096E+06-7.89717E+05-7.86108E+05-2.55671E+06-1.02373E-08 2.23517E-08
 -1       522-5.69441E+06-2.09416E+06-2.05873E+05-3.93899E+06-9.14843E-08-4.33647E-08
 -1       523-8.16741E+06-3.44146E+05-1.55372E+05-1.80830E+06 2.30939E-08-5.15574E-08
 -1       524-6.04922E+06-2.27064E+06-3.63971E+04-4.93532E+06 1.40876E-07-1.04430E-07
 -1       525-8.16730E+06-3.43099E+05-4.27289E+04-1.77648E+06 7.91697E-08-8.39846E-08
 -1       526-5.60848E+06-1.93926E+06 1.30707E+05-4.08973E+06 1.02373E-08-3.75585E-08
 -1       527-8.28188E+06-9.15268E+05-2.11287E+05-2.46235E+06 3.01661E-08 1.51558E-08
 -1       528-5.78864E+06-9.03336E+05 2.65874E+05-2.32544E+06-5.65269E-08 4.86834E-08
 -1       529-7.65163E+06-1.61461E+06-2.30338E+05-3.26203E+06 2.42435E-08-9.01491E-09
 -1       530-7.76892E+06 3.82630E+05 1.55197E+05-1.33921E+06-6.81684E-08 2.82307E-08
 -1       531-6.60851E+06-1.97532E+06-6.16185E+04-3.63554E+06-1.33732E-07-2.92239E-08
 -1       532-9.28272E+06 9.73702E+05-3.11116E+04-1.24404E+06 9.27221E-08-1.07410E-07
 -1       533-6.46681E+06-1.98120E+06-1.29925E+05-3.66402E+06 3.44589E-08-1.50525E-07
 -1       534-8.31199E+06 3.83860E+05-2.09491E+05-1.24995E+06-4.04543E-08 1.04465E-07
 -1       535-7.34340E+06-1.54979E+06-7.35514E+05-3.40087E+06-9.66247E-09 7.32252E-08
 -1       536-3.89446E+05-1.89571E+04 3.32251E+04-1.32596E+04-1.67631E-09 1.93249E-08
 -1       537-3.31432E+05 2.13216E+04 3.11428E+04 3.17594E+04-3.43519E-08 2.19188E-08
 -1       538-3.61213E+05-1.99937E+03 9.95085E+03-1.93584E+04 6.94627E-09 2.36023E-08
 -1       539-3.48304E+05 3.14757E+03 8.19672E+03 3.45978E+04 4.70310E-08 3.00815E-08
 -1       540-3.72645E+05-4.43158E+02 1.04426E+02-1.61021E+04 8.69954E-09 2.81924E-08
 -1       541-3.12550E+05 2.04194E+03 1.09023E+04 1.97561E+04-1.03942E-08 3.45169E-08
 -1       542-3.96069E+05-1.75892E+03-6.74088E+03-4.49865E+03 1.85612E-08 1.37697E-08
 -1       543-2.96770E+05 2.18199E+03 1.27545E+04-5.95364E+03 1.29750E-08 3.28913E-09
 -1       544-3.88184E+05-1.10544E+03-6.11635E+03 9.58648E+03 1.02934E-08-1.60948E-08
 -1       545-3.30866E+05 1.45499E+02 4.40639E+03-2.85427E+04-1.05946E-08-2.56917E-08
 -1       546-3.62759E+05 1.10288E+03-3.05584E+03 1.80846E+04 3.38952E-09-2.37067E-08
 -1       547-3.54706E+05-3.24768E+03-5.25955E+03-3.62787E+04-3.00421E-08-2.41894E-08
 -1       548-3.64731E+05 2.98200E+03-1.16714E+04 1.73337E+04-3.03928E-08-2.65104E-08
 -1       549-3.32373E+05-1.71809E+04-2.10276E+04-2.56649E+04-1.79941E-08-1.81080E-08
 -1       550-3.84455E+05 1.42614E+04-4.78498E+04 7.45560E+03 1.48611E-09-1.36260E-08
 -1       551 1.71708E+04-5.78744E+05 2.43585E+04-9.63179E+05-4.58458E-08-7.45058E-09
 -1       552 3.89985E+04-5.90272E+05 3.17826E+04-1.37186E+06-3.56522E-08 1.97251E-08
 -1       553 2.77894E+04-5.96226E+05 4.65649E+04-9.59555E+05-5.76983E-08 1.35769E-08
 -1       554 6.56056E+04-5.85959E+05 9.75710E+04-1.37330E+06-3.51574E-08 5.28712E-09
 -1       555 5.59616E+04-6.14869E+05 1.73320E+05-9.60499E+05-5.68980E-08-7.67977E-09
 -1       556 1.00190E+05-1.85567E+05 6.20025E+04-2.34607E+05-1.41881E-08-1.22236E-09
 -1       557 1.75526E+05-2.46464E+05 3.28184E+04-2.94985E+05-1.63855E-08-1.27775E-08
 -1       558 9.83917E+04-1.92979E+05 1.28834E+04-2.28320E+05-1.14524E-08-1.69894E-09
 -1       559 1.63367E+05-2.54375E+05 6.66138E+03-3.00883E+05 1.08630E-08-5.94082E-09
 -1       560 9.48763E+04-1.90699E+05 2.53130E+03-2.30655E+05 1.80444E-09 1.32786E-09
 -1       561 1.58314E+05-2.52809E+05 1.43545E+03-3.04120E+05-2.32831E-09 8.91487E-09
 -1       562 9.20823E+04-1.88878E+05 4.35534E+02-2.32662E+05-2.25555E-09-3.55431E-09
 -1       563 1.55032E+05-2.51389E+05 3.51358E+02-3.06224E+05-1.70985E-10-6.09975E-09
 -1       564 9.02666E+04-1.87722E+05 9.60182E+01-2.33947E+05 3.80533E-09 1.07680E-08
 -1       565 1.53185E+05-2.50590E+05 1.13139E+02-3.07391E+05-1.21145E-09 2.29029E-08
 -1       566 8.94768E+04-1.87212E+05 1.60922E+01-2.34506E+05-8.03811E-09-5.12409E-09
 -1       567 1.52727E+05-2.50379E+05-5.91431E+01-3.07601E+05 8.73865E-09-6.15728E-09
 -1       568 8.97531E+04-1.87396E+05-2.95194E+02-2.34392E+05-2.85218E-09 5.29326E-09
 -1       569 1.52889E+05-2.50258E+05-7.09760E+02-3.06133E+05-4.66935E-09 1.62363E-08
 -1       570 9.17337E+04-1.89047E+05-1.66454E+03-2.34179E+05 4.24916E-09 7.64339E-09
 -1       571 2.09012E+05 7.69869E+03 1.13671E+04-5.41918E+04-1.04801E-08 8.46080E-09
 -1       572 2.10699E+05 2.69992E+03 5.56938E+03-5.94218E+04-2.06237E-08 2.31012E-10
 -1       573 2.09688E+05 6.65814E+02 2.47425E+03-5.40607E+04-6.99629E-09 2.61116E-09
 -1       574 2.09884E+05 2.40817E+02 1.23985E+03-5.95705E+04 8.73115E-10 1.07548E-08
 -1       575 2.09762E+05 5.93193E+01 5.84547E+02-5.40434E+04-3.68345E-11-2.21416E-09
 -1       576 2.09773E+05 4.18166E+01 2.97961E+02-5.95904E+04-2.65651E-09-6.13545E-09
 -1       577 2.09776E+05 2.53842E+01 1.47412E+02-5.40410E+04-3.63502E-09-8.23093E-11
 -1       578 2.09767E+05 2.93535E+01 8.17563E+01-5.95928E+04-3.81419E-09-2.57523E-09
 -1       579 2.09793E+05 1.98142E+01 5.22329E+01-5.40409E+04 4.44743E-10-1.45019E-09
 -1       580 2.09792E+05 1.87806E+01 5.27968E+01-5.95897E+04-2.81943E-10 1.23755E-08
 -1       581 2.09823E+05 7.60567E+00 7.55109E+01-5.40442E+04 7.76708E-10-8.68567E-10
 -1       582 2.09845E+05 2.01986E+01 1.47421E+02-5.95565E+04-8.19000E-10-1.22441E-08
 -1       583 2.09859E+05 5.23504E+01 2.84060E+02-5.40741E+04 3.27418E-10-2.80966E-09
 -1       584 2.09994E+05 2.75589E+02 6.38383E+02-5.93060E+04-2.22644E-09 2.05364E-09
 -1       585 2.09832E+05 8.35537E+02 1.29634E+03-5.42952E+04-7.74889E-10 2.64481E-09
 -1       586-2.49133E+03 6.90081E+04-3.14691E+03-1.86314E+05-5.44333E-10 1.22122E-08
 -1       587-5.50950E+02 6.86053E+04-1.57201E+02-2.05054E+05-3.89264E-10 2.11548E-09
 -1       588 7.22359E+02 6.86581E+04 2.71149E+03-1.86215E+05-6.80302E-10 1.44883E-08
 -1       589 3.77645E+03 7.01287E+04 7.62951E+03-2.04856E+05-8.22183E-10 2.22840E-08
 -1       590 1.09985E+04 6.77933E+04 1.62387E+04-1.86519E+05-4.31100E-10 1.42118E-08
 -1       591-4.44725E+04-1.21012E+04-1.48722E+04-2.22123E+04-1.49498E-10 7.77527E-09
 -1       592-4.61672E+04-1.54525E+04-8.05554E+03-2.57479E+04-3.48450E-11 6.21503E-09
 -1       593-4.59718E+04-1.10099E+04-3.35350E+03-2.32911E+04 1.15733E-09 5.32850E-09
 -1       594-4.40996E+04-1.32857E+04-1.67255E+03-2.58450E+04-5.06657E-09-5.58862E-09
 -1       595-4.60866E+04-1.10052E+04-7.68496E+02-2.33405E+04-2.08615E-09 1.11834E-08
 -1       596-4.39592E+04-1.31865E+04-3.91549E+02-2.58299E+04 3.90685E-09 1.90872E-08
 -1       597-4.61012E+04-1.10149E+04-2.15111E+02-2.33424E+04-5.39075E-10 1.23895E-08
 -1       598-4.39457E+04-1.31827E+04-1.76414E+02-2.58256E+04-5.79945E-10-1.48532E-09
 -1       599-4.61000E+04-1.10151E+04-2.29712E+02-2.33420E+04-5.28303E-10-1.41980E-08
 -1       600-4.39604E+04-1.31877E+04-4.30215E+02-2.58291E+04 1.46292E-09 2.63992E-09
 -1       601-4.60819E+04-1.10050E+04-8.50558E+02-2.33391E+04-1.34401E-09 2.76100E-09
 -1       602-4.41156E+04-1.32975E+04-1.85464E+03-2.58436E+04-5.69344E-10 2.50793E-10
 -1       603-4.59529E+04-1.10122E+04-3.71986E+03-2.32846E+04-1.63595E-09 1.97224E-09
 -1       604-4.64181E+04-1.56907E+04-8.93565E+03-2.57224E+04 1.93745E-09 8.63656E-09
 -1       605-4.42781E+04-1.22318E+04-1.64970E+04-2.20979E+04 1.63811E-09 8.91941E-09
 -1       606 2.76048E+04-1.00446E+04-1.80697E+04 2.67844E+04-1.86083E-09-3.17868E-09
 -1       607 2.45111E+04-3.24790E+03-8.99767E+03 3.00696E+04 9.38599E-10-4.87671E-09
 -1       608 2.62650E+04-5.55273E+02-4.02939E+03 2.65727E+04 1.76078E-09 6.41512E-09
 -1       609 2.59164E+04-1.51816E+02-2.03508E+03 3.03053E+04-1.72440E-09 9.06607E-09
 -1       610 2.61019E+04 1.75849E+01-9.72125E+02 2.65489E+04-6.21549E-09 2.73485E-09
 -1       611 2.60366E+04 3.02782E+01-4.90177E+02 3.03311E+04-7.48332E-09 4.94106E-09
 -1       612 2.60578E+04 3.41166E+01-2.34385E+02 2.65465E+04-3.21052E-09-2.27919E-09
 -1       613 2.60334E+04 3.95491E+01-1.06339E+02 3.03341E+04-7.01766E-09-6.45787E-09
 -1       614 2.60334E+04 3.52484E+01-2.86798E+01 2.65457E+04-1.21490E-08 9.09654E-09
 -1       615 2.60205E+04 4.55864E+01 3.58777E+01 3.03345E+04-1.40799E-08-8.17863E-10
 -1       616 2.60149E+04 4.15402E+01 1.15526E+02 2.65460E+04-1.20417E-09-4.03179E-09
 -1       617 2.60276E+04 7.44278E+01 2.66899E+02 3.03340E+04 1.95751E-08-1.61990E-08
 -1       618 2.59866E+04 1.21723E+02 5.39068E+02 2.65461E+04 6.69115E-09-4.99404E-09
 -1       619 2.62138E+04 4.93914E+02 1.21135E+03 3.03332E+04-7.23389E-10 2.08024E-09
 -1       620 2.58049E+04 1.40253E+03 2.43492E+03 2.65450E+04 3.48928E-09 3.97040E-09
 -1       621 3.00569E+02 2.20295E+05 2.69057E+03 1.12593E+04-1.99634E-10-3.41765E-09
 -1       622 3.54309E+02 2.20958E+05 2.38991E+03 1.64074E+04-8.40146E-11-3.42880E-09
 -1       623 1.73424E+01 2.20469E+05 2.88666E+03 1.12058E+04 3.36513E-11 3.37945E-09
 -1       624 1.34618E+03 2.21862E+05 5.60229E+03 1.64612E+04-1.86475E-10-4.94276E-09
 -1       625 1.35309E+03 2.19377E+05 9.79615E+03 1.12054E+04 2.22826E-11 1.05202E-08
 -1       626 1.88148E+05 5.07609E+04 3.92318E+03 9.97657E+04-3.40242E-09-1.89539E-09
 -1       627 1.85766E+05 5.24365E+04 1.89055E+03 1.03716E+05-1.13505E-09 3.38616E-09
 -1       628 1.88279E+05 4.89233E+04 7.98581E+02 1.00378E+05 1.20599E-09 5.55633E-09
 -1       629 1.85219E+05 5.19698E+04 3.91264E+02 1.03950E+05 8.34916E-09 5.28303E-09
 -1       630 1.88286E+05 4.88370E+04 1.80786E+02 1.00396E+05 5.11136E-09 8.93743E-09
 -1       631 1.85153E+05 5.19580E+04 9.69156E+01 1.03951E+05-3.11047E-10-3.21080E-10
 -1       632 1.88276E+05 4.88440E+04 6.31505E+01 1.00388E+05-1.37138E-08-5.18509E-09
 -1       633 1.85139E+05 5.19634E+04 6.94447E+01 1.03943E+05-2.30937E-08-6.18479E-09
 -1       634 1.88266E+05 4.88451E+04 1.11346E+02 1.00383E+05-7.05131E-09 4.70413E-09
 -1       635 1.85144E+05 5.19649E+04 2.25053E+02 1.03943E+05 7.66704E-10 1.19726E-08
 -1       636 1.88255E+05 4.88438E+04 4.54195E+02 1.00380E+05 1.40386E-09 7.60133E-09
 -1       637 1.85237E+05 5.20369E+04 9.98109E+02 1.03939E+05-3.31056E-10-3.25235E-09
 -1       638 1.88216E+05 4.90659E+04 2.05106E+03 1.00278E+05-3.78532E-09-7.99400E-09
 -1       639 1.86312E+05 5.35360E+04 4.85223E+03 1.03620E+05-2.46359E-09 4.14730E-09
 -1       640 1.88073E+05 5.35332E+04 1.00694E+04 9.83837E+04-3.37468E-09 1.01006E-08
 -1       656 5.02690E+04-1.27496E+06-1.21348E+05-4.32172E+02 6.33008E-10-2.93858E-09
 -1       657-6.64438E+04-1.32974E+06-1.00394E+05 7.57237E+03 9.22228E-10-7.74835E-09
 -1       658 1.59602E+04-1.29057E+06-6.16576E+04-1.76791E+03 9.02673E-11-1.91122E-09
 -1       659-7.13808E+04-1.33208E+06-1.06879E+05 8.50089E+03 1.60071E-10-2.29826E-09
 -1       660 5.51945E+04-1.27262E+06-1.32500E+05-1.36068E+03-1.01863E-09-9.24430E-09
 -1       661 1.68133E+05 1.82270E+04 1.63555E+04 6.57391E+04 4.53701E-09 3.31420E-09
 -1       662 1.76789E+05 3.09201E+04 1.10211E+04 6.27414E+04 2.18569E-09-7.48059E-09
 -1       663 1.71341E+05 2.34774E+04 3.85517E+03 6.48113E+04 1.59673E-09 5.47971E-09
 -1       664 1.73075E+05 2.47758E+04 2.30512E+03 6.38709E+04-1.11186E-09-1.91818E-09
 -1       665 1.71823E+05 2.41987E+04 9.09304E+02 6.46747E+04-1.95433E-09-1.37368E-09
 -1       666 1.72508E+05 2.39475E+04 5.30605E+02 6.40469E+04-4.50291E-09 1.17160E-08
 -1       667 1.71905E+05 2.42840E+04 2.80110E+02 6.46434E+04-2.35966E-09-9.03292E-10
 -1       668 1.72420E+05 2.38817E+04 2.81479E+02 6.40922E+04 4.10756E-09-6.00159E-09
 -1       669 1.71911E+05 2.42625E+04 3.77834E+02 6.46299E+04 2.55768E-09 3.47814E-09
 -1       670 1.72513E+05 2.40833E+04 8.19727E+02 6.40931E+04 5.29122E-09-1.62231E-10
 -1       671 1.71812E+05 2.40864E+04 1.45446E+03 6.46408E+04-2.28088E-09 1.19172E-09
 -1       672 1.73361E+05 2.54982E+04 3.72040E+03 6.38884E+04 4.94992E-10-3.43584E-09
 -1       673 1.71068E+05 2.28832E+04 6.23449E+03 6.48210E+04-4.96811E-10-6.18229E-09
 -1       674 1.79296E+05 3.55127E+04 1.78292E+04 6.21432E+04-5.65706E-10-2.45313E-09
 -1       675 1.65914E+05 1.43520E+04 2.64644E+04 6.62805E+04 5.74346E-10 4.04361E-09
 -1       676 2.00303E+01-2.40411E+05-9.30133E+02 2.77498E+01-8.75389E-12-4.10700E-09
 -1       677-2.46958E+02-2.40635E+05-1.70226E+03-5.54680E+01-2.86809E-09-9.43161E-09
 -1       678 1.64894E+02-2.40250E+05-3.00915E+03 2.76992E+01 5.15797E-10-5.48627E-09
 -1       679-3.00992E+03-2.42452E+05-7.14831E+03-5.52739E+01-3.17414E-10 1.54840E-09
 -1       680 1.79635E+03-2.38595E+05-1.15207E+04 2.72403E+01 1.74168E-10-2.18512E-09
 -1       771-2.56307E+06-4.90068E+05-7.13809E+04-1.10754E+06-1.67420E-08-1.82481E-08
 -1       772-2.53429E+06-5.34222E+05-3.77920E+04-1.15745E+06-9.69158E-09 3.77986E-09
 -1       773-2.57464E+06-4.80954E+05-1.72573E+04-1.11170E+06-3.66708E-09 3.40515E-09
 -1       774-2.52548E+06-5.26542E+05-8.14328E+03-1.16476E+06 1.19326E-08-7.15954E-09
 -1       775-2.57874E+06-4.78082E+05-4.78344E+03-1.11258E+06 8.58563E-10-8.36735E-11
 -1       776-2.52673E+06-5.26501E+05-2.02017E+03-1.16948E+06-2.61207E-09 1.32786E-09
 -1       777-2.58198E+06-4.75691E+05-1.67931E+03-1.11331E+06 3.81260E-09 1.51340E-09
 -1       778-2.52848E+06-5.26620E+05-5.85506E+02-1.17346E+06 4.68572E-09 1.09230E-09
 -1       779-2.58466E+06-4.73655E+05-7.63008E+02-1.11394E+06-2.18279E-11-3.62888E-09
 -1       780-2.53006E+06-5.26684E+05-2.76854E+02-1.17669E+06-4.74392E-09-2.82853E-10
 -1       781-2.58673E+06-4.72037E+05-5.21899E+02-1.11444E+06-1.61599E-08-4.62114E-09
 -1       782-2.53132E+06-5.26724E+05-5.22757E+02-1.17905E+06-2.04091E-08-8.34189E-09
 -1       783-2.58813E+06-4.70946E+05-1.07345E+03-1.11478E+06-8.86212E-09-1.13673E-08
 -1       784-2.53269E+06-5.27347E+05-2.35210E+03-1.18047E+06-8.40009E-09-4.78394E-10
 -1       785-2.58841E+06-4.70706E+05-4.38873E+03-1.11465E+06-1.55342E-08 2.50657E-09
 -1       786 1.58528E+05-9.44112E+03 2.18421E+04-7.32763E+01 1.24090E-09 6.97946E-09
 -1       787 1.67995E+05 1.09299E+04 1.54527E+04 1.78338E+01 3.07445E-09-9.31141E-09
 -1       788 1.62180E+05-1.47997E+03 5.65274E+03-5.55284E+01 1.24933E-09 4.15571E-09
 -1       789 1.63741E+05 1.71235E+03 3.55087E+03-1.13225E+01-5.91451E-10 1.13457E-08
 -1       790 1.62783E+05-2.31103E+02 1.44304E+03-4.41223E+01 1.00856E-10 7.50703E-09
 -1       791 1.63038E+05 2.67997E+02 8.43763E+02-3.20482E+01-1.15818E-09 5.13175E-09
 -1       792 1.62884E+05-3.67026E+01 3.78210E+02-3.48028E+01-8.64911E-10 3.69538E-09
 -1       793 1.62922E+05 4.82211E+01 2.33826E+02-5.12571E+01-3.35604E-10-5.65642E-10
 -1       794 1.62899E+05-1.14699E+01 1.51782E+02-2.49131E+01 3.59891E-10 1.76492E-09
 -1       795 1.62921E+05 5.10298E+01 1.88588E+02-7.42636E+01-8.89799E-10 1.01489E-08
 -1       796 1.62885E+05-3.95063E+01 2.63758E+02-1.17958E+01 8.50332E-10-5.39430E-09
 -1       797 1.63036E+05 2.87763E+02 6.06428E+02-1.07221E+02-4.12145E-10-6.37311E-09
 -1       798 1.62784E+05-2.48031E+02 9.52205E+02 8.04491E+00 3.54222E-10 2.30290E-09
 -1       799 1.63749E+05 1.83114E+03 2.59148E+03-1.59042E+02 1.07456E-09 4.30606E-09
 -1       800 1.62172E+05-1.58165E+03 3.65925E+03 4.00265E+01 3.43112E-11 1.15740E-08
 -1       801 5.04215E+04-1.84790E+06-1.66997E+05 3.39513E+04 1.48721E-08-2.51475E-09
 -1       802-5.60233E+04-1.68479E+06-6.45171E+04-6.19901E+04 4.08400E-08-1.91039E-09
 -1       803 4.97200E+03-1.76084E+06-8.98012E+03 8.62771E+04 3.19560E-08 2.77772E-08
 -1       804 5.30071E+04-1.63059E+06 7.90761E+04-4.25520E+04 3.44808E-08 3.28034E-08
 -1       805-5.93190E+04-1.90149E+06 7.86379E+04 1.45052E+04 1.27984E-08 2.46991E-08
 -1       806-2.28838E+05-4.60273E+04-1.80652E+04-9.22256E+04-1.44837E-09 7.27368E-09
 -1       807-2.30173E+05-4.31669E+04-8.87515E+03-9.67022E+04 4.50473E-09 5.64097E-09
 -1       808-2.29334E+05-3.95167E+04-3.76494E+03-9.53058E+04-5.57975E-10 6.50877E-09
 -1       809-2.28296E+05-4.06847E+04-1.84077E+03-9.69356E+04 2.05864E-09 1.22379E-08
 -1       810-2.29411E+05-3.92886E+04-8.43169E+02-9.54421E+04 6.54427E-09 2.06430E-08
 -1       811-2.28152E+05-4.05855E+04-4.18633E+02-9.69107E+04-7.74207E-10 9.01514E-09
 -1       812-2.29424E+05-3.93067E+04-2.10014E+02-9.54418E+04-3.19233E-10 4.60932E-09
 -1       813-2.28132E+05-4.05875E+04-1.34060E+02-9.68980E+04 2.60047E-09 5.51984E-09
 -1       814-2.29421E+05-3.93135E+04-1.28558E+02-9.54389E+04 3.87445E-10 4.41560E-10
 -1       815-2.28135E+05-4.05894E+04-2.03688E+02-9.68940E+04-1.00590E-09-6.62362E-09
 -1       816-2.29407E+05-3.93121E+04-3.83432E+02-9.54365E+04 1.30967E-09 1.02182E-08
 -1       817-2.28201E+05-4.06260E+04-8.22474E+02-9.68869E+04 6.32326E-09 4.68572E-09
 -1       818-2.29358E+05-3.94273E+04-1.67671E+03-9.53819E+04 6.37738E-09 2.05000E-09
 -1       819-2.29122E+05-4.16364E+04-3.94591E+03-9.66679E+04 5.21322E-09-1.11058E-08
 -1       820-2.29044E+05-4.24064E+04-8.03086E+03-9.41060E+04 1.17325E-10-3.86524E-09
 -1       821-2.88226E+05 1.59434E+04-3.68718E+04 2.41724E+02 1.15212E-09-5.17502E-09
 -1       822-3.04202E+05-1.84572E+04-2.60919E+04-9.22275E+02-1.81277E-09-1.37379E-09
 -1       823-2.94390E+05 2.49985E+03-9.54963E+03 2.44903E+02 2.07687E-10 2.00089E-09
 -1       824-2.97006E+05-2.89314E+03-6.00771E+03-7.58621E+02 4.07752E-10-3.18664E-10
 -1       825-2.95419E+05 3.91059E+02-2.47131E+03 7.80675E+01-1.59498E-09-9.35108E-09
 -1       826-2.95804E+05-4.60910E+02-1.48774E+03-3.28675E+02-3.57004E-09-3.63826E-09
 -1       827-2.95591E+05 6.89806E+01-7.75321E+02-1.85050E+02-3.71774E-09-4.18541E-09
 -1       828-2.95644E+05-1.40673E+02-6.81054E+02 1.80390E+02-4.34200E-09 1.20134E-08
 -1       829-2.95580E+05 7.11211E+01-7.89029E+02-4.31006E+02 5.99204E-10 6.61419E-09
 -1       830-2.95839E+05-4.76170E+02-1.53852E+03 5.48877E+02 1.89703E-09 2.05387E-09
 -1       831-2.95397E+05 4.04691E+02-2.55044E+03-5.53545E+02-3.28362E-09 6.38533E-09
 -1       832-2.97068E+05-2.99143E+03-6.21515E+03 6.18189E+02-7.63247E-10 1.50631E-08
 -1       833-2.94351E+05 2.58469E+03-9.87774E+03-5.00318E+02-1.32177E-09 3.31329E-09
 -1       834-3.04479E+05-1.90886E+04-2.69837E+04 3.58931E+02-4.97181E-10 5.87534E-10
 -1       835-2.87988E+05 1.64891E+04-3.81417E+04-2.94274E+02 5.41038E-09 9.12405E-09
 -1       836-9.69251E+02 2.71466E+05 1.64250E+04-2.00017E+04 6.09361E-10 1.14032E-08
 -1       837 3.59729E+03 2.76563E+05 1.40399E+04-4.01887E+04 1.17370E-09 6.43377E-09
 -1       838-3.63213E+02 2.72878E+05 1.45015E+04-1.99305E+04 1.19098E-09 2.94904E-10
 -1       839 9.29996E+03 2.80812E+05 2.76256E+04-4.02211E+04 1.90403E-09 1.16434E-09
 -1       840-2.80751E+03 2.67175E+05 4.41348E+04-1.99681E+04 1.09685E-09-1.49248E-09
 -1       856-8.00645E+04 7.43872E+03-1.96033E+04-4.30373E+02-1.95871E-09 1.39426E-09
 -1       857-8.81600E+04-8.72552E+03-1.34961E+04 4.57453E+03-2.00913E-09-6.87533E-09
 -1       858-8.32635E+04 1.04230E+03-5.08748E+03-4.51804E+02-2.78436E-09-5.03587E-09
 -1       859-8.44867E+04-1.21247E+03-3.07222E+03 4.60855E+03-4.24070E-09 2.11821E-09
 -1       860-8.37417E+04 1.44988E+02-1.29113E+03-4.64510E+02 1.02557E-09-3.15555E-09
 -1       861-8.39361E+04-1.60459E+02-7.17759E+02 4.62596E+03-7.17523E-09-1.31973E-08
 -1       862-8.38161E+04 1.91563E+01-3.13388E+02-4.69235E+02 4.96792E-09-3.74496E-09
 -1       863-8.38475E+04-1.11376E+01-1.48267E+02 4.62814E+03 1.01096E-08 1.21325E-11
 -1       864-8.38305E+04-1.03115E+00-3.30146E+01-4.66703E+02 5.75180E-09-8.54358E-09
 -1       865-8.38171E+04 3.00653E+01 6.57305E+01 4.61527E+03 8.62457E-09-9.86427E-09
 -1       866-8.38450E+04-2.24854E+01 1.71833E+02-4.56361E+02-3.64679E-10-5.42830E-09
 -1       867-8.37255E+04 1.87764E+02 4.48398E+02 4.58717E+03 1.76979E-09 2.74208E-09
 -1       868-8.39187E+04-1.57116E+02 7.51023E+02-4.38601E+02 1.15045E-09-1.09044E-08
 -1       869-8.31668E+04 1.30486E+03 2.00937E+03 4.54070E+03-2.93474E-09-1.27716E-08
 -1       870-8.43983E+04-1.11104E+03 2.91447E+03-4.09891E+02-4.29168E-10-1.05399E-09
 -1       871-4.28903E+03-9.71922E+03-1.40011E+04 9.24111E+04 1.47247E-09-2.09275E-09
 -1       872-1.84019E+03-1.28665E+04-5.72800E+03 1.19808E+05 2.78442E-09 4.12456E-09
 -1       873-1.85731E+01-1.13959E+04 7.61884E+02 9.22083E+04 1.21145E-09-4.45527E-09
 -1       874 2.15392E+03-9.39491E+03 7.81657E+03 1.19847E+05 4.09182E-09 4.95675E-09
 -1       875 5.04956E+03-1.32499E+04 1.73700E+04 9.23785E+04 1.44701E-09-1.19053E-09
 -1       876 2.26142E+05 3.88413E+04 1.19971E+04 9.16064E+04-1.09338E-09 4.73301E-09
 -1       877 2.26847E+05 4.14561E+04 6.40678E+03 9.51337E+04-4.04816E-09-1.32783E-08
 -1       878 2.27263E+05 3.75138E+04 2.68413E+03 9.25917E+04 4.41560E-09 5.24847E-09
 -1       879 2.25215E+05 3.98303E+04 1.33717E+03 9.52177E+04 1.90153E-09 1.04944E-08
 -1       880 2.27344E+05 3.74993E+04 6.22594E+02 9.26319E+04 2.11617E-09 5.92155E-09
 -1       881 2.25107E+05 3.97612E+04 3.31805E+02 9.52003E+04 2.19143E-09 1.66785E-08
 -1       882 2.27352E+05 3.75093E+04 2.11115E+02 9.26330E+04 7.76072E-09 2.16504E-09
 -1       883 2.25099E+05 3.97578E+04 2.25092E+02 9.51951E+04 6.90011E-09 9.38560E-09
 -1       884 2.27348E+05 3.75069E+04 3.56374E+02 9.26332E+04-3.33722E-09-4.55304E-09
 -1       885 2.25127E+05 3.97629E+04 7.15451E+02 9.52040E+04 1.86580E-09 8.79254E-10
 -1       886 2.27320E+05 3.74860E+04 1.44146E+03 9.26303E+04 2.55898E-09-2.54238E-09
 -1       887 2.25381E+05 3.99290E+04 3.14850E+03 9.52406E+04-2.29079E-09 5.65365E-10
 -1       888 2.27121E+05 3.75210E+04 6.34428E+03 9.25295E+04 6.29626E-10 1.48448E-08
 -1       889 2.29161E+05 4.38543E+04 1.51558E+04 9.51215E+04 3.81601E-10 4.32192E-09
 -1       890 2.24536E+05 4.05914E+04 2.83859E+04 9.01092E+04 4.44288E-09 2.78942E-09
 -1       891-1.35584E+02-1.27948E+05-1.52223E+03 2.38095E+04 7.23844E-10 5.31691E-09
 -1       892-2.37194E+02-1.28314E+05-1.65142E+03 3.60381E+04 8.28550E-10 4.24302E-09
 -1       893-3.48903E+01-1.27995E+05-2.35537E+03 2.38143E+04 2.41312E-09-1.33105E-09
 -1       894-1.27929E+03-1.29213E+05-4.88709E+03 3.59092E+04-1.54228E-09-9.12473E-09
 -1       895-1.00199E+03-1.26976E+05-8.61109E+03 2.39368E+04 1.18081E-09-1.10867E-09
 -1       956-2.85438E+05-4.06495E+03-1.02225E+04 1.92487E+04 1.56888E-09-5.89921E-10
 -1       957-2.87456E+05-1.37412E+03-5.24775E+03 2.31806E+04 4.21824E-09-8.58199E-09
 -1       958-2.86347E+05-1.12443E+02-2.36432E+03 1.91276E+04 3.71710E-09-5.62272E-09
 -1       959-2.86507E+05-2.21080E+01-1.20762E+03 2.33126E+04-2.93676E-09-7.95262E-09
 -1       960-2.86429E+05 3.15497E+01-5.88727E+02 1.91159E+04-6.68069E-09-4.86375E-09
 -1       961-2.86439E+05 2.93987E+01-3.12297E+02 2.33259E+04-1.01427E-08 1.09549E-08
 -1       962-2.86445E+05 2.78626E+01-1.78679E+02 1.91141E+04-6.76823E-09 7.25322E-11
 -1       963-2.86436E+05 3.09587E+01-1.43268E+02 2.33283E+04-4.52667E-09 1.42834E-08
 -1       964-2.86449E+05 2.99971E+01-1.73749E+02 1.91135E+04-1.61208E-10-7.02971E-09
 -1       965-2.86447E+05 3.40116E+01-3.00095E+02 2.33283E+04 1.23964E-09-1.73623E-08
 -1       966-2.86440E+05 3.78726E+01-5.63282E+02 1.91141E+04-1.74191E-09-7.17375E-09
 -1       967-2.86520E+05-1.07589E+01-1.15526E+03 2.33206E+04-2.57205E-09-2.03841E-10
 -1       968-2.86368E+05-9.56235E+01-2.26087E+03 1.91214E+04-5.24324E-10-7.28011E-09
 -1       969-2.87436E+05-1.30018E+03-5.01975E+03 2.32365E+04 2.45473E-09-4.52081E-09
 -1       970-2.85504E+05-3.87378E+03-9.77755E+03 1.92002E+04 1.53204E-09 2.14004E-09
 -1       971-2.69199E+05-1.40747E+03-7.80951E+03 1.29110E+04-2.93949E-09 4.55321E-09
 -1       972-2.71097E+05-1.01015E+03-4.25300E+03 1.80241E+04-3.97586E-09 1.18382E-09
 -1       973-2.70068E+05-1.15254E+01-1.90448E+03 1.28034E+04-3.85307E-09 5.79826E-09
 -1       974-2.70199E+05-1.19256E+01-9.86665E+02 1.81407E+04-6.93490E-10-1.37959E-09
 -1       975-2.70136E+05 2.52408E+01-4.92226E+02 1.27935E+04 3.42243E-09 5.31873E-09
 -1       976-2.70146E+05 2.91564E+01-2.82228E+02 1.81528E+04-1.93540E-09-2.66618E-09
 -1       977-2.70149E+05 2.51821E+01-2.01706E+02 1.27912E+04-2.72962E-09-1.65096E-09
 -1       978-2.70150E+05 3.38288E+01-2.31774E+02 1.81561E+04 8.20683E-09-1.84377E-09
 -1       979-2.70149E+05 3.15170E+01-3.68719E+02 1.27902E+04 5.75369E-10 5.08044E-09
 -1       980-2.70177E+05 3.61295E+01-7.09652E+02 1.81567E+04-4.69001E-09-1.25476E-09
 -1       981-2.70126E+05 4.91911E+01-1.37322E+03 1.27906E+04-7.08860E-09-3.00474E-10
 -1       982-2.70365E+05-6.52576E+01-2.83775E+03 1.81512E+04-3.78031E-09-7.40394E-09
 -1       983-2.69953E+05-3.86251E+01-5.51340E+03 1.27959E+04-2.29420E-10 2.15095E-10
 -1       984-2.73017E+05-2.94451E+03-1.23465E+04 1.80782E+04 5.43196E-10 8.72637E-09
 -1       985-2.67457E+05-4.07295E+03-2.26721E+04 1.28681E+04 6.14682E-09 7.36691E-09
 -3
    1PSTEP                        15           8           1          
  100CL  108 5.53406E-01         409                     0    8           1
 -4  DISP        4    1
 -5  D1          1    2    1    0
 -5  D2          1    2    2    0
 -5  D3          1    2    3    0
 -5  ALL         1    2    0    0    1ALL
 -1         1 2.18133E-04 0.00000E+00 0.00000E+00
 -1         2 1.93643E-04-3.87204E-31 0.00000E+00
 -1         3 1.78770E-04 1.90377E-27-1.32349E-23
 -1         5 1.14412E-04 6.32255E-27-3.30872E-24
 -1         8 1.92120E-04-8.63499E-07 0.00000E+00
 -1         9 1.84140E-04-9.46933E-07 0.00000E+00
 -1        10 1.64179E-04-2.39772E-06 0.00000E+00
 -1        12 1.14243E-04 6.08517E-07 0.00000E+00
 -1        15 1.60916E-04-9.65514E-07 0.00000E+00
 -1        16 1.67676E-04-1.18509E-06 0.00000E+00
 -1        17 1.18197E-04-5.13484E-06 0.00000E+00
 -1        18 1.12525E-04 6.24891E-06 0.00000E+00
 -1        19 1.13737E-04 1.21391E-06 0.00000E+00
 -1        20 1.13884E-04 1.22208E-05 0.00000E+00
 -1        21 1.13265E-04 2.17802E-05 3.30872E-24
 -1        24 2.31851E-05-7.21171E-06 0.00000E+00
 -1        25 1.13027E-04 6.39296E-06 0.00000E+00
 -1        26 1.13878E-04 1.68435E-06 0.00000E+00
 -1        27 1.12199E-04 9.47270E-06 0.00000E+00
 -1        28 1.11736E-04 2.12652E-05 0.00000E+00
 -1        32 0.00000E+00 0.00000E+00 0.00000E+00
 -1        33 1.12809E-04 2.25703E-06 0.00000E+00
 -1        34 1.11157E-04 9.44621E-06 0.00000E+00
 -1        35 1.09604E-04 2.09908E-05 0.00000E+00
 -1        51 2.16459E-04-1.44136E-07 0.00000E+00
 -1        52 2.13333E-04-2.81613E-07 0.00000E+00
 -1        53 2.09040E-04-4.20335E-07 0.00000E+00
 -1        54 2.03876E-04-5.62068E-07 0.00000E+00
 -1        55 1.98137E-04-7.07698E-07 6.41065E-24
 -1        56 2.16380E-04-8.53236E-07 0.00000E+00
 -1        57 2.14675E-04-2.03623E-06 0.00000E+00
 -1        58 2.13051E-04-3.42219E-06 5.29396E-23
 -1        59 2.11452E-04-4.90644E-06-2.64698E-23
 -1        60 2.09842E-04-6.36620E-06 0.00000E+00
 -1        61 2.08177E-04-7.68450E-06 0.00000E+00
 -1        62 2.06420E-04-8.75605E-06-5.29396E-23
 -1        63 2.04535E-04-9.48717E-06-2.64698E-23
 -1        64 2.02498E-04-9.81432E-06 0.00000E+00
 -1        65 2.00292E-04-9.69171E-06 0.00000E+00
 -1        66 1.97915E-04-9.11379E-06-5.29396E-23
 -1        67 1.95374E-04-8.09448E-06 2.64698E-23
 -1        68 1.92688E-04-6.68799E-06 5.29396E-23
 -1        69 1.89891E-04-4.96165E-06 0.00000E+00
 -1        70 1.87009E-04-3.01903E-06 5.29396E-23
 -1        86 1.93347E-04-1.51706E-07-6.61744E-24
 -1        87 1.92460E-04-3.04265E-07-3.30872E-24
 -1        88 1.91030E-04-4.57500E-07 0.00000E+00
 -1        89 1.89107E-04-6.14790E-07 0.00000E+00
 -1        90 1.86780E-04-7.71795E-07-1.32349E-23
 -1       121 1.78361E-04-3.95796E-07 0.00000E+00
 -1       122 1.77137E-04-7.92239E-07-6.61744E-24
 -1       123 1.75100E-04-1.18997E-06-1.32349E-23
 -1       124 1.72256E-04-1.58968E-06-6.61744E-24
 -1       125 1.68612E-04-1.99185E-06 0.00000E+00
 -1       191 1.14407E-04 1.01424E-07 0.00000E+00
 -1       192 1.14393E-04 2.02846E-07-1.65436E-24
 -1       193 1.14370E-04 3.04268E-07 0.00000E+00
 -1       194 1.14337E-04 4.05689E-07 0.00000E+00
 -1       195 1.14295E-04 5.07106E-07 0.00000E+00
 -1       251 1.91623E-04 4.77088E-06-1.32349E-23
 -1       252 1.91114E-04 1.12085E-05 0.00000E+00
 -1       253 1.90607E-04 1.76215E-05 0.00000E+00
 -1       254 1.90103E-04 2.31824E-05 0.00000E+00
 -1       255 1.89606E-04 2.72647E-05 1.32349E-23
 -1       256 1.89114E-04 2.92718E-05-6.61744E-24
 -1       257 1.88625E-04 2.90963E-05 0.00000E+00
 -1       258 1.88132E-04 2.66746E-05-6.61744E-24
 -1       259 1.87635E-04 2.24728E-05 0.00000E+00
 -1       260 1.87131E-04 1.69926E-05 0.00000E+00
 -1       261 1.86624E-04 1.10375E-05 0.00000E+00
 -1       262 1.86120E-04 5.42017E-06-6.61744E-24
 -1       263 1.85620E-04 8.73752E-07-1.32349E-23
 -1       264 1.85126E-04-1.89002E-06 0.00000E+00
 -1       265 1.84635E-04-2.58014E-06 1.32349E-23
 -1       266 1.86919E-04-8.92549E-07 0.00000E+00
 -1       267 1.81719E-04-9.08084E-07 1.65436E-24
 -1       268 1.76518E-04-9.24474E-07 0.00000E+00
 -1       269 1.71317E-04-9.38328E-07 0.00000E+00
 -1       270 1.66117E-04-9.52123E-07 0.00000E+00
 -1       271 1.89074E-04 3.26723E-06 2.64698E-23
 -1       272 1.86401E-04 6.28795E-06 0.00000E+00
 -1       273 1.84115E-04 8.28931E-06 0.00000E+00
 -1       274 1.82173E-04 9.36013E-06 2.64698E-23
 -1       275 1.80538E-04 9.61106E-06 0.00000E+00
 -1       276 1.79165E-04 9.16428E-06-2.64698E-23
 -1       277 1.78001E-04 8.15509E-06 5.29396E-23
 -1       278 1.76994E-04 6.72804E-06-2.64698E-23
 -1       279 1.76087E-04 5.03530E-06 5.29396E-23
 -1       280 1.75220E-04 3.23357E-06 0.00000E+00
 -1       281 1.74335E-04 1.48141E-06 0.00000E+00
 -1       282 1.73373E-04-6.33266E-08 0.00000E+00
 -1       283 1.72276E-04-1.24675E-06-5.29396E-23
 -1       284 1.70993E-04-1.91957E-06 0.00000E+00
 -1       285 1.69466E-04-1.94506E-06 0.00000E+00
 -1       301 1.81139E-04-1.00237E-06-6.61744E-24
 -1       302 1.78079E-04-1.03406E-06 0.00000E+00
 -1       303 1.75082E-04-1.06423E-06 0.00000E+00
 -1       304 1.72268E-04-1.09444E-06 0.00000E+00
 -1       305 1.69760E-04-1.12590E-06 0.00000E+00
 -1       306 1.85775E-04-1.27156E-05 0.00000E+00
 -1       307 1.96620E-04-5.11155E-05 0.00000E+00
 -1       308 2.14039E-04-1.09667E-04 5.29396E-23
 -1       309 2.35170E-04-1.80334E-04 0.00000E+00
 -1       310 2.56691E-04-2.52290E-04 0.00000E+00
 -1       311 2.75270E-04-3.14607E-04 0.00000E+00
 -1       312 2.87957E-04-3.58588E-04 0.00000E+00
 -1       313 2.91877E-04-3.76970E-04 2.64698E-23
 -1       314 2.85742E-04-3.68247E-04 5.29396E-23
 -1       315 2.68944E-04-3.32897E-04 0.00000E+00
 -1       316 2.43470E-04-2.77153E-04 5.29396E-23
 -1       317 2.12270E-04-2.08579E-04 2.64698E-23
 -1       318 1.79909E-04-1.37440E-04-5.29396E-23
 -1       319 1.51114E-04-7.41433E-05-2.64698E-23
 -1       320 1.29568E-04-2.74836E-05 0.00000E+00
 -1       336 1.58864E-04-2.83901E-06 0.00000E+00
 -1       337 1.52579E-04-3.28627E-06 6.61744E-24
 -1       338 1.45343E-04-3.73954E-06 0.00000E+00
 -1       339 1.37182E-04-4.19891E-06 0.00000E+00
 -1       340 1.28123E-04-4.66577E-06 1.32349E-23
 -1       406 1.14182E-04 7.09915E-07 3.30872E-24
 -1       407 1.14112E-04 8.11281E-07 0.00000E+00
 -1       408 1.14032E-04 9.12586E-07 0.00000E+00
 -1       409 1.13943E-04 1.01371E-06-1.65436E-24
 -1       410 1.13844E-04 1.11445E-06-3.30872E-24
 -1       521 1.73745E-04-2.76641E-05 5.29396E-23
 -1       522 1.96505E-04-1.06542E-04 5.29396E-23
 -1       523 2.30200E-04-2.24889E-04-1.05879E-22
 -1       524 2.69407E-04-3.66021E-04 0.00000E+00
 -1       525 3.08813E-04-5.08003E-04-1.05879E-22
 -1       526 3.43114E-04-6.28813E-04 0.00000E+00
 -1       527 3.66921E-04-7.11339E-04 1.05879E-22
 -1       528 3.74363E-04-7.42109E-04 0.00000E+00
 -1       529 3.61722E-04-7.18962E-04 0.00000E+00
 -1       530 3.26923E-04-6.44456E-04-5.29396E-23
 -1       531 2.73616E-04-5.31476E-04 1.05879E-22
 -1       532 2.08316E-04-3.95580E-04 0.00000E+00
 -1       533 1.41398E-04-2.56657E-04 1.05879E-22
 -1       534 8.35392E-05-1.34751E-04 5.29396E-23
 -1       535 4.24413E-05-4.67494E-05 0.00000E+00
 -1       536 1.17952E-04 9.64926E-06 0.00000E+00
 -1       537 1.17551E-04 3.32543E-05 0.00000E+00
 -1       538 1.17020E-04 6.21396E-05 0.00000E+00
 -1       539 1.16442E-04 9.27364E-05 1.65436E-24
 -1       540 1.15927E-04 1.21018E-04 3.30872E-24
 -1       541 1.15566E-04 1.42970E-04-1.65436E-24
 -1       542 1.15347E-04 1.56238E-04 0.00000E+00
 -1       543 1.15211E-04 1.58517E-04-1.65436E-24
 -1       544 1.15046E-04 1.50319E-04 0.00000E+00
 -1       545 1.14756E-04 1.32216E-04 0.00000E+00
 -1       546 1.14330E-04 1.07336E-04 0.00000E+00
 -1       547 1.13812E-04 7.88470E-05-1.65436E-24
 -1       548 1.13307E-04 5.08668E-05 3.30872E-24
 -1       549 1.12917E-04 2.75135E-05 0.00000E+00
 -1       550 1.12665E-04 1.16887E-05 0.00000E+00
 -1       551 1.05488E-04-5.43652E-06 0.00000E+00
 -1       552 9.04973E-05-5.76256E-06 1.65436E-24
 -1       553 7.39916E-05-6.10985E-06 3.30872E-24
 -1       554 5.67517E-05-6.47072E-06 0.00000E+00
 -1       555 3.95578E-05-6.83367E-06 0.00000E+00
 -1       556 1.14712E-04 3.86738E-06 0.00000E+00
 -1       557 1.11988E-04 1.09211E-05 0.00000E+00
 -1       558 1.09947E-04 1.61950E-05 0.00000E+00
 -1       559 1.08514E-04 1.98719E-05 0.00000E+00
 -1       560 1.07618E-04 2.21343E-05 0.00000E+00
 -1       561 1.07186E-04 2.31659E-05 0.00000E+00
 -1       562 1.07147E-04 2.31510E-05 0.00000E+00
 -1       563 1.07432E-04 2.22738E-05 0.00000E+00
 -1       564 1.07971E-04 2.07190E-05 0.00000E+00
 -1       565 1.08694E-04 1.86715E-05 3.30872E-24
 -1       566 1.09531E-04 1.63161E-05 0.00000E+00
 -1       567 1.10414E-04 1.38380E-05 4.13590E-25
 -1       568 1.11274E-04 1.14221E-05 0.00000E+00
 -1       569 1.12042E-04 9.25335E-06 0.00000E+00
 -1       570 1.12649E-04 7.51658E-06 0.00000E+00
 -1       571 1.12599E-04 5.94406E-06 4.13590E-25
 -1       572 1.12674E-04 5.59276E-06 8.27181E-25
 -1       573 1.12750E-04 5.20427E-06 0.00000E+00
 -1       574 1.12825E-04 4.78828E-06 8.27181E-25
 -1       575 1.12901E-04 4.35455E-06 0.00000E+00
 -1       576 1.12977E-04 3.91286E-06 0.00000E+00
 -1       577 1.13053E-04 3.47301E-06 0.00000E+00
 -1       578 1.13129E-04 3.04483E-06 0.00000E+00
 -1       579 1.13205E-04 2.63812E-06 3.30872E-24
 -1       580 1.13281E-04 2.26269E-06 0.00000E+00
 -1       581 1.13357E-04 1.92837E-06 3.30872E-24
 -1       582 1.13433E-04 1.64493E-06 0.00000E+00
 -1       583 1.13509E-04 1.42218E-06 0.00000E+00
 -1       584 1.13585E-04 1.26981E-06 0.00000E+00
 -1       585 1.13661E-04 1.19744E-06 6.61744E-24
 -1       586 1.12564E-04 6.27451E-06 8.27181E-25
 -1       587 1.12575E-04 6.29949E-06-3.10193E-25
 -1       588 1.12594E-04 6.32419E-06 8.27181E-25
 -1       589 1.12654E-04 6.34845E-06 0.00000E+00
 -1       590 1.12787E-04 6.37195E-06 0.00000E+00
 -1       591 1.12603E-04 5.99005E-06 1.29247E-25
 -1       592 1.12689E-04 5.70032E-06 0.00000E+00
 -1       593 1.12784E-04 5.38618E-06 0.00000E+00
 -1       594 1.12886E-04 5.05331E-06 0.00000E+00
 -1       595 1.12993E-04 4.70751E-06 8.27181E-25
 -1       596 1.13102E-04 4.35446E-06 0.00000E+00
 -1       597 1.13212E-04 3.99991E-06-8.27181E-25
 -1       598 1.13320E-04 3.64956E-06 4.13590E-25
 -1       599 1.13425E-04 3.30911E-06 4.13590E-25
 -1       600 1.13524E-04 2.98429E-06 4.13590E-25
 -1       601 1.13614E-04 2.68080E-06-4.13590E-25
 -1       602 1.13695E-04 2.40435E-06-1.03398E-25
 -1       603 1.13763E-04 2.16067E-06 1.03398E-25
 -1       604 1.13818E-04 1.95552E-06 1.03398E-25
 -1       605 1.13856E-04 1.79459E-06 0.00000E+00
 -1       606 1.13750E-04 1.39975E-06 0.00000E+00
 -1       607 1.13760E-04 1.68203E-06 0.00000E+00
 -1       608 1.13770E-04 2.05509E-06 0.00000E+00
 -1       609 1.13779E-04 2.51254E-06 0.00000E+00
 -1       610 1.13788E-04 3.04797E-06-3.30872E-24
 -1       611 1.13797E-04 3.65486E-06 1.65436E-24
 -1       612 1.13806E-04 4.32670E-06 0.00000E+00
 -1       613 1.13815E-04 5.05699E-06 0.00000E+00
 -1       614 1.13824E-04 5.83920E-06 0.00000E+00
 -1       615 1.13833E-04 6.66680E-06 0.00000E+00
 -1       616 1.13841E-04 7.53329E-06 0.00000E+00
 -1       617 1.13850E-04 8.43214E-06 0.00000E+00
 -1       618 1.13859E-04 9.35683E-06 0.00000E+00
 -1       619 1.13867E-04 1.03009E-05 0.00000E+00
 -1       620 1.13876E-04 1.12577E-05 0.00000E+00
 -1       621 1.13666E-04 1.29245E-06-1.65436E-24
 -1       622 1.13647E-04 1.37130E-06 0.00000E+00
 -1       623 1.13669E-04 1.45012E-06-1.65436E-24
 -1       624 1.13722E-04 1.52881E-06 8.27181E-25
 -1       625 1.13795E-04 1.60735E-06-1.65436E-24
 -1       626 1.13754E-04 1.42631E-06 3.30872E-24
 -1       627 1.13742E-04 1.71713E-06 0.00000E+00
 -1       628 1.13704E-04 2.07866E-06-3.30872E-24
 -1       629 1.13643E-04 2.50272E-06 0.00000E+00
 -1       630 1.13562E-04 2.98111E-06 3.30872E-24
 -1       631 1.13463E-04 3.50559E-06 0.00000E+00
 -1       632 1.13350E-04 4.06791E-06-3.30872E-24
 -1       633 1.13225E-04 4.65986E-06 0.00000E+00
 -1       634 1.13093E-04 5.27318E-06 3.30872E-24
 -1       635 1.12956E-04 5.89963E-06 0.00000E+00
 -1       636 1.12817E-04 6.53098E-06 0.00000E+00
 -1       637 1.12679E-04 7.15900E-06-8.27181E-25
 -1       638 1.12545E-04 7.77543E-06-1.65436E-24
 -1       639 1.12419E-04 8.37205E-06-1.65436E-24
 -1       640 1.12303E-04 8.94059E-06 1.65436E-24
 -1       656 1.13139E-04 1.17737E-05 6.61744E-24
 -1       657 1.12774E-04 1.13087E-05 0.00000E+00
 -1       658 1.12651E-04 1.08451E-05 0.00000E+00
 -1       659 1.12624E-04 1.03819E-05 0.00000E+00
 -1       660 1.12529E-04 9.91729E-06-6.61744E-24
 -1       661 1.13609E-04 1.31535E-05 0.00000E+00
 -1       662 1.13361E-04 1.40239E-05 8.27181E-25
 -1       663 1.13134E-04 1.48344E-05 1.65436E-24
 -1       664 1.12930E-04 1.55884E-05 0.00000E+00
 -1       665 1.12746E-04 1.62891E-05 1.65436E-24
 -1       666 1.12580E-04 1.69394E-05 8.27181E-25
 -1       667 1.12433E-04 1.75424E-05-1.65436E-24
 -1       668 1.12302E-04 1.81008E-05 0.00000E+00
 -1       669 1.12187E-04 1.86173E-05-1.65436E-24
 -1       670 1.12086E-04 1.90946E-05-8.27181E-25
 -1       671 1.12000E-04 1.95350E-05-1.65436E-24
 -1       672 1.11926E-04 1.99411E-05 8.27181E-25
 -1       673 1.11864E-04 2.03152E-05 0.00000E+00
 -1       674 1.11813E-04 2.06592E-05 0.00000E+00
 -1       675 1.11772E-04 2.09758E-05 0.00000E+00
 -1       676 1.13009E-04 2.16938E-05 0.00000E+00
 -1       677 1.12754E-04 2.16075E-05 0.00000E+00
 -1       678 1.12499E-04 2.15213E-05 0.00000E+00
 -1       679 1.12244E-04 2.14353E-05 8.27181E-25
 -1       680 1.11990E-04 2.13493E-05 0.00000E+00
 -1       771 1.69824E-05 5.74388E-06 0.00000E+00
 -1       772 1.16710E-05 1.63716E-05 0.00000E+00
 -1       773 7.21051E-06 2.47928E-05 0.00000E+00
 -1       774 3.54442E-06 3.11407E-05 0.00000E+00
 -1       775 6.16940E-07 3.55520E-05-5.29396E-23
 -1       776-1.63015E-06 3.81700E-05-2.64698E-23
 -1       777-3.25559E-06 3.91419E-05-5.29396E-23
 -1       778-4.31948E-06 3.86200E-05 0.00000E+00
 -1       779-4.88222E-06 3.67596E-05 0.00000E+00
 -1       780-5.00533E-06 3.37206E-05-2.64698E-23
 -1       781-4.75045E-06 2.96653E-05 0.00000E+00
 -1       782-4.18008E-06 2.47591E-05 2.64698E-23
 -1       783-3.35674E-06 1.91693E-05 0.00000E+00
 -1       784-2.34357E-06 1.30656E-05-1.32349E-23
 -1       785-1.20362E-06 6.61858E-06-2.64698E-23
 -1       786 1.13076E-04 5.93813E-06 0.00000E+00
 -1       787 1.13129E-04 5.51596E-06 0.00000E+00
 -1       788 1.13182E-04 5.12080E-06 0.00000E+00
 -1       789 1.13235E-04 4.74709E-06 0.00000E+00
 -1       790 1.13289E-04 4.39187E-06 0.00000E+00
 -1       791 1.13342E-04 4.05226E-06 0.00000E+00
 -1       792 1.13396E-04 3.72727E-06 0.00000E+00
 -1       793 1.13449E-04 3.41598E-06-8.27181E-25
 -1       794 1.13503E-04 3.11912E-06 0.00000E+00
 -1       795 1.13557E-04 2.83747E-06 0.00000E+00
 -1       796 1.13610E-04 2.57371E-06 1.65436E-24
 -1       797 1.13664E-04 2.33052E-06 8.27181E-25
 -1       798 1.13718E-04 2.11315E-06-1.65436E-24
 -1       799 1.13771E-04 1.92689E-06 8.27181E-25
 -1       800 1.13825E-04 1.78088E-06 0.00000E+00
 -1       801 1.04884E-04 5.54922E-06 1.32349E-23
 -1       802 7.94775E-05 4.39554E-06 0.00000E+00
 -1       803 4.73961E-05 3.07177E-06 2.64698E-23
 -1       804 1.94861E-05 1.85976E-06 0.00000E+00
 -1       805 1.79688E-06 8.61913E-07 2.64698E-23
 -1       806 1.13110E-04 5.88711E-06 1.65436E-24
 -1       807 1.13183E-04 5.39884E-06-1.65436E-24
 -1       808 1.13247E-04 4.93222E-06-1.65436E-24
 -1       809 1.13302E-04 4.49044E-06 0.00000E+00
 -1       810 1.13346E-04 4.07669E-06-1.65436E-24
 -1       811 1.13378E-04 3.69406E-06 1.65436E-24
 -1       812 1.13398E-04 3.34564E-06 3.30872E-24
 -1       813 1.13403E-04 3.03454E-06-8.27181E-25
 -1       814 1.13394E-04 2.76381E-06-1.65436E-24
 -1       815 1.13368E-04 2.53654E-06-8.27181E-25
 -1       816 1.13325E-04 2.35580E-06 3.30872E-24
 -1       817 1.13263E-04 2.22465E-06 8.27181E-25
 -1       818 1.13181E-04 2.14615E-06 3.30872E-24
 -1       819 1.13079E-04 2.12337E-06 0.00000E+00
 -1       820 1.12955E-04 2.15933E-06 1.65436E-24
 -1       821 1.13779E-04 1.56822E-06 0.00000E+00
 -1       822 1.13674E-04 1.36476E-06 0.00000E+00
 -1       823 1.13570E-04 1.15063E-06 0.00000E+00
 -1       824 1.13464E-04 1.00250E-06 1.65436E-24
 -1       825 1.13358E-04 9.82684E-07 0.00000E+00
 -1       826 1.13252E-04 1.15289E-06 1.65436E-24
 -1       827 1.13146E-04 1.53354E-06 0.00000E+00
 -1       828 1.13040E-04 2.14407E-06 1.65436E-24
 -1       829 1.12933E-04 2.95395E-06 3.30872E-24
 -1       830 1.12827E-04 3.93175E-06 0.00000E+00
 -1       831 1.12720E-04 5.00955E-06 3.30872E-24
 -1       832 1.12614E-04 6.11893E-06 0.00000E+00
 -1       833 1.12508E-04 7.18462E-06 3.30872E-24
 -1       834 1.12403E-04 8.13158E-06 0.00000E+00
 -1       835 1.12297E-04 8.91045E-06-8.27181E-25
 -1       836 1.13862E-04 1.77967E-06 0.00000E+00
 -1       837 1.13733E-04 1.87713E-06-1.65436E-24
 -1       838 1.13527E-04 1.97443E-06 0.00000E+00
 -1       839 1.13280E-04 2.07110E-06 0.00000E+00
 -1       840 1.13029E-04 2.16761E-06 0.00000E+00
 -1       856 1.12173E-04 9.98732E-06 0.00000E+00
 -1       857 1.12145E-04 1.06159E-05 1.03398E-25
 -1       858 1.12116E-04 1.13404E-05 4.13590E-25
 -1       859 1.12087E-04 1.21430E-05 0.00000E+00
 -1       860 1.12058E-04 1.30057E-05 0.00000E+00
 -1       861 1.12029E-04 1.39102E-05 0.00000E+00
 -1       862 1.12000E-04 1.48384E-05 8.27181E-25
 -1       863 1.11970E-04 1.57722E-05 4.13590E-25
 -1       864 1.11941E-04 1.66933E-05 0.00000E+00
 -1       865 1.11912E-04 1.75835E-05 0.00000E+00
 -1       866 1.11882E-04 1.84248E-05 0.00000E+00
 -1       867 1.11853E-04 1.91989E-05 4.13590E-25
 -1       868 1.11824E-04 1.98878E-05 0.00000E+00
 -1       869 1.11795E-04 2.04737E-05 0.00000E+00
 -1       870 1.11766E-04 2.09388E-05 0.00000E+00
 -1       871 1.11906E-04 9.47151E-06 4.13590E-25
 -1       872 1.11728E-04 9.46794E-06 0.00000E+00
 -1       873 1.11615E-04 9.46393E-06 0.00000E+00
 -1       874 1.11515E-04 9.45935E-06 1.03398E-25
 -1       875 1.11379E-04 9.45425E-06-6.20385E-25
 -1       876 1.12108E-04 9.99766E-06 0.00000E+00
 -1       877 1.11998E-04 1.05781E-05 0.00000E+00
 -1       878 1.11871E-04 1.12072E-05-3.30872E-24
 -1       879 1.11727E-04 1.18788E-05 1.65436E-24
 -1       880 1.11570E-04 1.25867E-05 3.30872E-24
 -1       881 1.11402E-04 1.33247E-05-1.65436E-24
 -1       882 1.11225E-04 1.40865E-05 0.00000E+00
 -1       883 1.11042E-04 1.48659E-05-1.65436E-24
 -1       884 1.10854E-04 1.56568E-05 0.00000E+00
 -1       885 1.10664E-04 1.64530E-05 0.00000E+00
 -1       886 1.10474E-04 1.72482E-05 3.30872E-24
 -1       887 1.10287E-04 1.80362E-05 0.00000E+00
 -1       888 1.10105E-04 1.88109E-05 3.30872E-24
 -1       889 1.09930E-04 1.95660E-05 0.00000E+00
 -1       890 1.09763E-04 2.02952E-05-8.27181E-25
 -1       891 1.11504E-04 2.12192E-05 0.00000E+00
 -1       892 1.11252E-04 2.11732E-05 4.13590E-25
 -1       893 1.10959E-04 2.11271E-05 0.00000E+00
 -1       894 1.10601E-04 2.10812E-05-2.06795E-25
 -1       895 1.10157E-04 2.10353E-05-6.20385E-25
 -1       956 1.12708E-04 2.48216E-06 0.00000E+00
 -1       957 1.12605E-04 2.77196E-06 8.27181E-25
 -1       958 1.12501E-04 3.11932E-06 0.00000E+00
 -1       959 1.12398E-04 3.51677E-06-8.27181E-25
 -1       960 1.12294E-04 3.95679E-06-3.30872E-24
 -1       961 1.12191E-04 4.43183E-06 1.65436E-24
 -1       962 1.12087E-04 4.93434E-06 0.00000E+00
 -1       963 1.11983E-04 5.45676E-06 0.00000E+00
 -1       964 1.11880E-04 5.99154E-06 0.00000E+00
 -1       965 1.11776E-04 6.53110E-06-1.65436E-24
 -1       966 1.11672E-04 7.06789E-06 0.00000E+00
 -1       967 1.11569E-04 7.59434E-06 0.00000E+00
 -1       968 1.11465E-04 8.10290E-06 0.00000E+00
 -1       969 1.11362E-04 8.58604E-06 0.00000E+00
 -1       970 1.11259E-04 9.03623E-06 0.00000E+00
 -1       971 1.11061E-04 9.87326E-06-1.65436E-24
 -1       972 1.10964E-04 1.03843E-05-8.27181E-25
 -1       973 1.10867E-04 1.09701E-05 0.00000E+00
 -1       974 1.10769E-04 1.16209E-05 1.65436E-24
 -1       975 1.10672E-04 1.23272E-05 0.00000E+00
 -1       976 1.10574E-04 1.30793E-05 1.65436E-24
 -1       977 1.10477E-04 1.38676E-05-3.30872E-24
 -1       978 1.10379E-04 1.46823E-05 1.65436E-24
 -1       979 1.10281E-04 1.55137E-05-3.30872E-24
 -1       980 1.10183E-04 1.63523E-05 0.00000E+00
 -1       981 1.10086E-04 1.71882E-05 0.00000E+00
 -1       982 1.09988E-04 1.80119E-05-1.65436E-24
 -1       983 1.09891E-04 1.88137E-05 0.00000E+00
 -1       984 1.09794E-04 1.95838E-05 0.00000E+00
 -1       985 1.09697E-04 2.03126E-05-1.65436E-24
 -3
    1PSTEP                        16           8           1          
  100CL  108 5.53406E-01         409                     0    8           1
 -4  STRESS      6    1
 -5  SXX         1    4    1    1
 -5  SYY         1    4    2    2
 -5  SZZ         1    4    3    3
 -5  SXY         1    4    1    2
 -5  SYZ         1    4    2    3
 -5  SZX         1    4    3    1
 -1         1-2.43272E+06-1.02132E+06-5.15376E+05-1.29550E+06 1.45519E-10 1.34314E-08
 -1         2 2.57044E+03-4.30439E+05 8.35640E+03-1.09215E+03-9.37632E-11 4.20954E-09
 -1         3-2.96262E+02-1.12927E+06 2.72082E+02-7.28910E+02-2.58815E-10-1.11995E-08
 -1         5-1.39670E+00 2.90198E+05 7.44182E+00 6.54875E-02 1.11368E-11 5.88830E-09
 -1         8-1.13220E+06-4.03620E+05-1.16243E+05-5.46554E+05 6.36646E-11 2.23808E-08
 -1         9-2.19219E+06-8.14756E+05-2.77588E+05-7.59377E+05 6.76373E-09-1.41561E-08
 -1        10-1.04123E+03-1.17649E+06-1.67653E+03-4.93265E+03-6.23459E-09-3.55615E-08
 -1        12 1.65750E+00 2.90213E+05 2.40924E+02 5.09784E-01 6.26272E-11 8.21819E-09
 -1        15 1.99609E+03 1.09698E+03 6.45238E+03 4.48913E+00 8.31619E-11 2.76137E-09
 -1        16-2.42124E+06-1.22823E+06-4.00286E+05-1.33057E+06 1.00020E-08 9.52665E-09
 -1        17-1.28301E+06-6.72114E+05-2.35740E+05-5.77558E+05-4.95202E-09 1.37370E-08
 -1        18-3.02697E+04-1.22699E+04-3.01764E+04-7.71850E+04 6.13477E-09-5.40604E-09
 -1        19 9.26909E+04 1.07776E+05-6.94964E+02 1.81856E+04-2.00453E-10 3.13812E-09
 -1        20-4.53080E+04-4.38489E+05-9.71877E+04 2.88016E+04 3.38938E-09 1.99179E-09
 -1        21-4.00264E+01-2.47097E+05-7.91174E+02-4.33056E+01 1.02508E-09-1.21235E-08
 -1        24-2.89443E+06-6.35973E+05-2.93578E+05-9.85585E+05-4.52371E-08-2.29823E-08
 -1        25-7.95124E+04-4.79144E+05-9.38087E+04-1.21830E+05-1.00681E-10 8.17090E-10
 -1        26-3.05144E+04 7.12444E+04-1.68154E+04-6.45053E+03 1.50176E-09-6.50880E-10
 -1        27-6.60374E+04-2.39256E+05-8.92223E+04 5.40274E+04 5.73110E-09-4.71906E-09
 -1        28 1.90342E+04-6.90204E+04 1.40058E+04 2.06458E+04 9.74467E-10 7.29441E-09
 -1        32-1.17222E+06-1.33589E+06 1.22081E+05-5.65387E+05-2.58115E-08 1.68774E-09
 -1        33-1.39233E+05 6.94184E+04 2.47553E+04-3.55469E+04 4.57419E-10 5.66949E-09
 -1        34-1.77089E+05-1.79501E+04 4.52395E+02 5.56623E+04 1.40438E-09 1.28466E-09
 -1        35-1.93876E+04-2.74189E+04-1.08008E+03 4.30455E+04 7.73181E-09-5.36359E-09
 -1        51 2.25596E+04-3.48901E+05 5.61146E+04-9.68051E+05-1.45519E-10 3.46336E-09
 -1        52 1.20047E+04-3.44743E+05 3.46604E+04-1.13344E+06 3.56522E-10-2.38651E-09
 -1        53 7.41527E+03-3.60159E+05 2.60468E+04-9.64582E+05 8.73115E-11-2.45054E-08
 -1        54 2.04852E+04-3.58831E+05 3.76381E+04-1.13702E+06-1.26602E-09-3.30765E-08
 -1        55 3.95582E+04-3.72800E+05 6.45032E+04-9.64019E+05-4.22006E-10 5.83896E-09
 -1        56-4.64869E+06-5.20303E+05-3.80153E+05-1.79680E+06-6.25732E-10-1.62981E-09
 -1        57-4.81693E+06-8.49744E+05-2.56417E+05-1.76465E+06-6.27551E-11-2.91038E-09
 -1        58-4.72458E+06-6.41504E+05-8.93886E+04-1.77345E+06 5.87534E-10-9.12041E-09
 -1        59-4.72944E+06-7.07078E+05-5.33673E+04-1.79186E+06 3.44244E-10-3.72074E-09
 -1        60-4.73513E+06-6.58930E+05-2.08439E+04-1.77089E+06-8.19455E-10-4.11819E-09
 -1        61-4.71916E+06-6.84645E+05-1.18156E+04-1.79243E+06 2.83546E-09-2.11060E-08
 -1        62-4.73461E+06-6.63432E+05-5.63136E+03-1.77298E+06-2.84945E-09-5.65171E-09
 -1        63-4.72298E+06-6.76590E+05-4.51134E+03-1.78635E+06-1.26386E-09 1.39179E-08
 -1        64-4.73121E+06-6.66965E+05-5.03490E+03-1.77694E+06-1.36197E-10-3.29987E-09
 -1        65-4.73161E+06-6.71154E+05-9.98901E+03-1.77759E+06 2.20007E-09-4.23822E-08
 -1        66-4.72598E+06-6.68932E+05-1.74630E+04-1.78171E+06-5.78609E-10-2.16914E-09
 -1        67-4.74940E+06-6.80596E+05-4.44736E+04-1.76659E+06-4.70834E-09 2.16360E-08
 -1        68-4.71364E+06-6.57941E+05-7.44971E+04-1.78786E+06 1.70076E-10 1.09139E-11
 -1        69-4.82646E+06-7.95394E+05-2.13610E+05-1.73942E+06-6.36646E-10-1.93868E-08
 -1        70-4.64991E+06-5.57456E+05-3.16759E+05-1.80785E+06 1.98634E-09-4.90400E-09
 -1        86-1.28951E+03-4.33094E+05 8.94560E+03 5.46069E+02 9.60881E-10-1.03853E-10
 -1        87 8.53646E+03-4.27614E+05 1.86632E+04-2.08550E+03 1.59889E-09-1.73429E-10
 -1        88-7.23269E+03-4.35920E+05 2.86072E+04 1.53944E+03 2.29920E-09 1.62689E-09
 -1        89 5.38860E+04-4.06713E+05 7.70741E+04-3.75842E+03 3.41333E-09-2.18071E-08
 -1        90-4.64751E+04-4.53971E+05 1.09022E+05 2.21935E+03 3.13594E-09-9.87660E-09
 -1       121-4.28936E+02-1.13038E+06 1.11180E+02 3.63541E+02 6.55703E-10-1.03319E-09
 -1       122-2.01273E+02-1.12923E+06 5.75478E+02-1.45629E+03-2.39470E-09 6.71116E-09
 -1       123-4.82395E+02-1.13045E+06 7.76912E+02 1.08731E+03 2.06626E-09 5.56247E-09
 -1       124 8.76120E+02-1.12864E+06 2.36703E+03-3.11941E+03-4.43151E-09 9.31595E-09
 -1       125-1.14864E+03-1.13105E+06 3.47233E+03 2.02317E+03 2.95404E-09 1.08230E-09
 -1       191-1.71522E+00 2.90223E+05 9.09667E+00-3.28391E-02 4.44196E-11 4.84897E-09
 -1       192-2.07849E+00 2.90198E+05 1.57463E+01 2.84229E-01 7.09848E-11 2.99951E-09
 -1       193-3.52881E+00 2.90223E+05 2.94794E+01-2.52166E-01 5.84759E-11-8.72365E-09
 -1       194-4.27291E+00 2.90200E+05 5.95340E+01 6.74625E-01 6.60023E-11-1.35515E-08
 -1       195-7.01427E+00 2.90221E+05 1.16646E+02-4.25153E-01 7.98863E-11 1.52545E-09
 -1       251-1.39112E+06 1.65404E+04-3.92114E+04-1.76289E+04 5.67866E-10 1.49739E-08
 -1       252-1.40758E+06-1.89559E+04-2.75024E+04 3.39518E+04 2.57643E-11 1.10549E-09
 -1       253-1.39764E+06 2.49324E+03-1.01736E+04-1.74571E+04-5.06645E-10 1.20299E-08
 -1       254-1.39797E+06-2.73581E+03-5.86024E+03 2.49766E+04-9.80549E-10 1.02536E-08
 -1       255-1.40050E+06 2.21849E+02-2.98927E+03-8.65243E+03-1.09480E-09 1.60602E-08
 -1       256-1.39432E+06-2.88973E+02-5.44915E+02 3.16765E+03-1.09588E-09 1.43671E-08
 -1       257-1.40106E+06-1.34855E+02-1.06959E+03 4.35187E+03 1.21418E-10 1.23342E-08
 -1       258-1.39556E+06 1.62126E+02 4.75070E+02-2.04332E+04-2.32376E-09 1.57833E-08
 -1       259-1.39941E+06-1.18862E+02 7.56551E+01 1.49475E+04-1.46883E-09 4.87717E-09
 -1       260-1.39812E+06 5.27677E+02 9.18900E+02-3.38516E+04 1.29211E-09-2.21827E-08
 -1       261-1.39876E+06-2.84947E+02 1.50937E+03 1.77719E+04 3.04044E-09-7.41255E-09
 -1       262-1.39651E+06 2.04501E+03 4.02866E+03-3.03055E+04-2.12174E-09-8.46342E-10
 -1       263-1.40093E+06-1.69270E+03 5.69693E+03 1.14008E+04-5.02382E-10 1.73525E-08
 -1       264-1.38901E+06 1.18365E+04 1.72823E+04-1.16138E+04 3.38559E-09 3.36779E-08
 -1       265-1.40596E+06-1.02731E+04 2.27083E+04-9.20642E+02-6.24141E-10 1.43336E-09
 -1       266-3.61348E+04-1.68940E+04 8.47954E+04-9.60661E+01 1.01863E-10-6.59449E-09
 -1       267 4.18914E+04 1.96945E+04 5.99257E+04 1.10826E+02 1.05501E-10-8.60079E-09
 -1       268-5.61751E+03-2.78906E+03 2.22745E+04-1.41220E+01-1.27329E-11-5.39098E-09
 -1       269 6.63270E+03 3.33816E+03 1.44777E+04 1.64490E+01 3.56977E-11 1.17800E-08
 -1       270-9.95575E+02-5.48476E+02 6.98860E+03-2.23229E+00 2.91038E-11 1.46295E-09
 -1       271-3.31800E+06-4.15885E+05-2.50047E+05-1.29272E+06-1.02591E-09 2.04745E-08
 -1       272-3.40491E+06-6.00979E+05-1.60756E+05-1.29337E+06 4.48654E-09-2.67210E-09
 -1       273-3.36637E+06-4.76898E+05-5.90851E+04-1.28006E+06 4.01087E-10 2.09184E-09
 -1       274-3.34751E+06-5.26988E+05-3.30261E+04-1.31331E+06 1.01727E-09 1.43191E-08
 -1       275-3.37462E+06-4.81566E+05-1.37724E+04-1.27615E+06 3.07409E-10 1.11231E-08
 -1       276-3.33710E+06-5.22237E+05-7.27110E+03-1.32007E+06-5.57066E-10 1.69357E-08
 -1       277-3.37720E+06-4.80475E+05-3.58378E+03-1.27399E+06 1.86628E-09-2.90129E-10
 -1       278-3.33401E+06-5.23902E+05-2.55968E+03-1.32351E+06-1.22486E-09-1.03852E-08
 -1       279-3.37811E+06-4.79578E+05-2.72400E+03-1.27301E+06-4.94992E-10 1.81888E-09
 -1       280-3.33385E+06-5.25159E+05-4.97996E+03-1.32433E+06 1.21259E-09 2.60604E-09
 -1       281-3.37748E+06-4.79187E+05-9.05294E+03-1.27325E+06-7.56586E-10-6.26642E-10
 -1       282-3.33919E+06-5.29862E+05-2.17135E+04-1.32185E+06-9.45874E-11 4.34738E-09
 -1       283-3.37267E+06-4.75537E+05-3.86707E+04-1.27516E+06-1.78602E-10-1.93068E-08
 -1       284-3.37602E+06-5.79072E+05-1.05370E+05-1.30952E+06 1.96223E-10-2.04927E-08
 -1       285-3.34109E+06-4.35497E+05-1.63862E+05-1.28334E+06-6.16637E-10 2.29193E-09
 -1       301 2.27168E+04-7.51803E+04 1.65990E+05-1.45787E+05-2.40107E-10-1.53045E-08
 -1       302 2.38905E+04-3.32739E+04 1.08799E+05-2.13953E+05 9.51104E-10 2.57278E-08
 -1       303 1.31085E+03-5.86139E+04 8.30939E+04-1.45731E+05-6.71207E-10-1.60217E-08
 -1       304 2.74552E+04-2.91571E+04 1.21286E+05-2.13524E+05 3.78350E-10-1.79825E-08
 -1       305 2.62624E+04-7.79866E+04 1.93551E+05-1.46269E+05-4.80213E-10 6.47560E-10
 -1       306-6.35079E+06-6.10947E+05-5.35754E+05-2.15201E+06-7.59792E-09-7.85803E-10
 -1       307-5.20072E+06-1.55272E+06-2.26920E+05-2.89022E+06-8.52888E-08 1.32277E-08
 -1       308-6.46777E+06-4.22994E+05-1.15829E+05-1.73239E+06-4.15821E-09 2.36687E-08
 -1       309-5.19898E+06-1.64933E+06-4.64555E+04-3.42013E+06 2.98638E-08-1.08744E-08
 -1       310-6.47438E+06-4.21769E+05-2.82562E+04-1.70245E+06-8.38190E-09-2.04541E-08
 -1       311-5.09898E+06-1.42540E+06 4.68786E+04-3.02240E+06 8.73733E-08-5.80440E-09
 -1       312-6.46568E+06-7.21508E+05-8.57098E+04-2.06476E+06 2.01035E-08 2.10312E-08
 -1       313-5.33676E+06-8.20737E+05 1.11539E+05-2.11748E+06-4.03015E-08 1.46556E-08
 -1       314-6.11770E+06-1.11124E+06-9.72858E+04-2.51301E+06 7.42875E-09-1.89757E-08
 -1       315-6.30365E+06-1.27684E+05 5.96655E+04-1.48501E+06-5.11900E-08-3.45171E-08
 -1       316-5.59437E+06-1.34424E+06-4.33385E+04-2.75885E+06-8.43174E-08-6.16201E-08
 -1       317-7.04166E+06 1.90431E+05-5.55604E+04-1.31293E+06 7.03058E-08-7.75653E-08
 -1       318-5.49866E+06-1.34635E+06-1.21769E+05-2.78757E+06-9.33505E-08 5.28235E-09
 -1       319-6.68996E+06-2.08190E+05-2.88893E+05-1.37054E+06-2.00525E-08 1.55105E-08
 -1       320-5.86939E+06-1.00281E+06-5.92890E+05-2.63157E+06 2.87255E-08-1.04192E-08
 -1       336 5.55592E+02-1.22370E+06-7.04258E+03 2.89428E+03-1.23405E-08-1.45574E-08
 -1       337-2.61145E+03-1.22489E+06-7.89672E+03-7.10383E+03-2.27215E-08 6.87578E-10
 -1       338 4.02554E+02-1.22382E+06-1.05601E+04 4.18210E+03-1.60212E-08-1.28966E-09
 -1       339-1.09423E+04-1.23029E+06-2.31635E+04-9.62067E+03-2.92707E-08 7.91260E-09
 -1       340 7.25665E+03-1.21865E+06-3.59811E+04 5.38814E+03-1.94268E-08 1.08121E-08
 -1       406 2.02546E+01 2.90210E+05 4.75843E+02-8.85660E-02 1.71497E-10 1.39496E-08
 -1       407 1.67468E+02 2.90296E+05 1.01088E+03-2.57388E+00-7.02443E-11-1.32752E-09
 -1       408 5.22152E+02 2.90137E+05 2.01918E+03 2.72799E+00 8.50378E-11-3.01588E-09
 -1       409 2.18445E+03 2.90942E+05 4.54526E+03-2.69917E+01-1.60526E-10 1.85914E-08
 -1       410 6.27335E+03 2.89564E+05 9.27912E+03 2.54407E+01 9.68612E-11 1.73862E-08
 -1       521-8.60894E+06-8.60132E+05-9.34612E+05-2.50247E+06-6.97037E-09 1.72295E-08
 -1       522-4.93780E+06-2.22018E+06-1.07026E+05-4.28464E+06-1.00459E-07-3.50265E-08
 -1       523-8.37294E+06-1.99949E+05-1.69304E+05-1.51075E+06-9.98261E-09-4.41432E-08
 -1       524-5.76632E+06-2.43802E+06-1.04381E+04-5.62816E+06 1.29789E-07-1.32236E-07
 -1       525-8.36850E+06-2.01882E+05-5.46657E+04-1.48630E+06 6.97328E-08-8.32424E-08
 -1       526-4.87480E+06-2.07358E+06 2.28136E+05-4.40702E+06 4.18513E-08-3.03116E-08
 -1       527-8.70881E+06-9.76616E+05-3.42996E+05-2.42634E+06 4.03670E-08 2.67974E-08
 -1       528-4.83792E+06-7.54901E+05 4.36728E+05-1.97234E+06 1.76515E-08 4.34557E-08
 -1       529-7.88037E+06-1.88735E+06-3.65694E+05-3.46489E+06-3.07336E-08-4.72937E-10
 -1       530-7.70097E+06 9.45309E+05 2.57359E+05-8.51883E+05-1.71494E-07 8.02393E-08
 -1       531-6.36959E+06-2.28870E+06-7.72624E+04-3.85592E+06-1.74616E-07 5.49335E-09
 -1       532-9.88036E+06 1.68836E+06-4.16069E+03-9.47054E+05 8.22802E-08-1.21299E-07
 -1       533-6.20668E+06-2.28956E+06-1.38579E+05-3.87368E+06 3.96103E-08-1.94177E-07
 -1       534-8.30476E+06 9.80502E+05-1.10998E+05-8.09376E+05-3.38841E-08 1.55424E-07
 -1       535-7.55741E+06-1.84408E+06-8.73934E+05-3.59348E+06-1.22236E-08 9.62464E-08
 -1       536-4.13774E+05-2.26349E+04 3.35748E+04-1.66258E+04-3.72768E-09 2.08911E-08
 -1       537-3.20717E+05 2.49938E+04 3.74866E+04 4.06459E+04-4.57197E-08 2.67069E-08
 -1       538-3.68544E+05-2.04958E+03 1.09081E+04-2.50079E+04 1.00693E-08 3.89650E-08
 -1       539-3.49386E+05 3.30421E+03 9.85901E+03 4.54617E+04 7.16481E-08 4.14841E-08
 -1       540-3.85620E+05-5.51616E+02-8.62978E+02-2.14602E+04-4.51450E-10 3.49393E-08
 -1       541-2.90949E+05 2.87243E+03 1.66971E+04 2.70759E+04-2.03585E-09 3.09595E-08
 -1       542-4.25404E+05-2.90122E+03-1.12539E+04-6.58074E+03 1.55383E-08 1.85714E-08
 -1       543-2.61650E+05 3.65678E+03 2.12012E+04-6.70052E+03 6.64147E-09 1.38618E-09
 -1       544-4.14142E+05-1.96674E+03-9.98950E+03 1.22788E+04-1.12141E-09-1.49864E-08
 -1       545-3.16657E+05 5.55049E+02 8.52109E+03-3.67846E+04 3.81920E-09-3.33471E-08
 -1       546-3.71840E+05 1.37050E+03-3.53468E+03 2.34931E+04 4.86125E-09-3.11702E-08
 -1       547-3.56807E+05-3.59426E+03-4.57101E+03-4.71868E+04-4.04313E-08-3.33739E-08
 -1       548-3.75021E+05 3.01514E+03-1.26185E+04 2.27128E+04-3.78291E-08-2.95177E-08
 -1       549-3.15349E+05-1.56219E+04-1.66120E+04-3.36772E+04-2.69927E-08-2.41948E-08
 -1       550-4.12032E+05 1.23575E+04-5.32421E+04 9.94706E+03 2.28715E-09-1.42609E-08
 -1       551 2.00603E+04-6.19517E+05 2.49799E+04-1.02162E+06-5.25615E-08-1.28639E-08
 -1       552 4.50323E+04-6.33535E+05 3.25583E+04-1.45539E+06-3.86499E-08 9.49512E-09
 -1       553 3.22335E+04-6.39256E+05 4.71697E+04-1.01769E+06-6.25660E-08 1.67420E-08
 -1       554 7.25992E+04-6.30991E+05 9.85712E+04-1.45688E+06-3.83734E-08 1.58466E-08
 -1       555 6.06238E+04-6.58029E+05 1.74701E+05-1.01866E+06-6.30753E-08-3.78350E-09
 -1       556 1.10790E+05-2.03876E+05 6.52689E+04-2.54725E+05-1.14960E-08-1.32422E-08
 -1       557 1.92822E+05-2.69903E+05 3.46507E+04-3.20711E+05 5.60249E-10 4.86034E-09
 -1       558 1.08164E+05-2.11251E+05 1.34435E+04-2.48427E+05-1.09430E-08-6.22822E-09
 -1       559 1.79137E+05-2.78044E+05 7.00183E+03-3.27629E+05 8.41101E-09-1.23109E-08
 -1       560 1.03879E+05-2.08486E+05 2.56772E+03-2.51304E+05 4.29281E-09 1.91194E-08
 -1       561 1.73098E+05-2.76096E+05 1.49589E+03-3.31520E+05 1.09139E-10 8.81755E-09
 -1       562 1.00484E+05-2.06287E+05 4.05408E+02-2.53742E+05-1.16415E-09-6.45559E-09
 -1       563 1.69112E+05-2.74368E+05 3.66780E+02-3.34079E+05-6.40284E-10 5.42616E-09
 -1       564 9.82569E+04-2.04874E+05 8.37613E+01-2.55317E+05 3.84898E-09-7.75435E-09
 -1       565 1.66827E+05-2.73378E+05 1.24612E+02-3.35525E+05 4.98403E-09-6.35919E-09
 -1       566 9.72510E+04-2.04227E+05 1.78944E+01-2.56027E+05-8.40373E-10 1.77170E-09
 -1       567 1.66200E+05-2.73092E+05-5.89398E+01-3.35836E+05 1.36761E-08-7.32325E-09
 -1       568 9.75096E+04-2.04401E+05-3.19872E+02-2.55930E+05-1.48066E-09 8.85120E-09
 -1       569 1.66409E+05-2.72985E+05-7.77658E+02-3.34248E+05-7.52334E-09 1.13923E-08
 -1       570 9.97122E+04-2.06224E+05-1.84280E+03-2.55637E+05 1.24419E-09-9.25866E-10
 -1       571 2.16741E+05 7.98547E+03 1.17739E+04-5.63194E+04 6.42103E-10-4.28918E-09
 -1       572 2.18487E+05 2.80903E+03 5.76872E+03-6.17619E+04 2.43290E-09-4.94356E-09
 -1       573 2.17441E+05 7.01016E+02 2.56286E+03-5.61872E+04 2.56114E-09 5.28416E-10
 -1       574 2.17643E+05 2.61842E+02 1.28430E+03-6.19129E+04-3.20142E-10 1.18871E-09
 -1       575 2.17518E+05 7.24882E+01 6.05590E+02-5.61697E+04 9.89917E-09 4.65388E-09
 -1       576 2.17530E+05 5.51845E+01 3.08845E+02-6.19330E+04 1.87235E-08 9.68021E-09
 -1       577 2.17534E+05 3.65935E+01 1.53068E+02-5.61674E+04 7.89078E-09-1.95541E-09
 -1       578 2.17525E+05 4.13120E+01 8.54692E+01-6.19356E+04-1.45701E-09-5.33419E-10
 -1       579 2.17554E+05 2.96594E+01 5.55640E+01-5.61673E+04 1.39062E-09-3.55976E-09
 -1       580 2.17553E+05 2.90954E+01 5.77839E+01-6.19323E+04-3.61979E-09-5.11682E-09
 -1       581 2.17587E+05 1.58479E+01 8.41971E+01-5.61707E+04 1.90357E-09-1.00636E-09
 -1       582 2.17613E+05 3.09521E+01 1.65583E+02-6.18974E+04 3.84171E-09 1.63832E-08
 -1       583 2.17626E+05 6.67451E+01 3.19711E+02-5.62021E+04 1.67529E-09 4.97880E-09
 -1       584 2.17779E+05 3.19255E+02 7.18869E+02-6.16335E+04 7.49424E-10 6.78801E-09
 -1       585 2.17594E+05 9.49644E+02 1.46008E+03-5.64350E+04 6.93944E-10 6.78483E-09
 -1       586-2.65063E+03 7.12650E+04-3.29519E+03-1.93593E+05-6.51653E-10-2.85149E-09
 -1       587-6.13047E+02 7.08507E+04-1.38636E+02-2.13076E+05-9.84073E-10-1.86662E-09
 -1       588 7.35489E+02 7.09007E+04 2.90281E+03-1.93495E+05-6.47560E-10 4.53838E-10
 -1       589 3.98326E+03 7.24775E+04 8.13834E+03-2.12861E+05-6.36646E-10 1.21545E-08
 -1       590 1.16821E+04 6.99865E+04 1.73106E+04-1.93817E+05-9.01309E-10 4.32010E-09
 -1       591-4.52105E+04-1.21010E+04-1.53092E+04-2.22858E+04-5.27928E-09-4.76575E-10
 -1       592-4.70793E+04-1.54268E+04-8.29229E+03-2.57839E+04-6.76505E-09 1.24633E-08
 -1       593-4.67518E+04-1.09796E+04-3.45201E+03-2.33982E+04-5.10602E-09 6.80780E-09
 -1       594-4.49527E+04-1.31943E+04-1.72168E+03-2.58811E+04-3.46267E-09 3.90997E-10
 -1       595-4.68698E+04-1.09750E+04-7.91004E+02-2.34491E+04-2.07302E-09 1.43357E-08
 -1       596-4.48082E+04-1.30921E+04-4.02924E+02-2.58654E+04 8.16485E-10 3.76340E-09
 -1       597-4.68846E+04-1.09850E+04-2.21145E+02-2.34511E+04-2.49771E-09-7.26351E-09
 -1       598-4.47942E+04-1.30882E+04-1.80972E+02-2.58609E+04-1.26815E-09 7.07178E-09
 -1       599-4.68835E+04-1.09852E+04-2.35165E+02-2.34507E+04-9.53378E-10-7.97809E-09
 -1       600-4.48092E+04-1.30933E+04-4.40049E+02-2.58645E+04-1.87310E-09-6.02722E-09
 -1       601-4.68650E+04-1.09749E+04-8.69796E+02-2.34477E+04-8.29687E-10-9.01173E-09
 -1       602-4.49680E+04-1.32056E+04-1.89648E+03-2.58794E+04-2.03545E-09-1.68563E-08
 -1       603-4.67333E+04-1.09821E+04-3.80372E+03-2.33920E+04 4.05180E-10-1.29285E-09
 -1       604-4.73212E+04-1.56542E+04-9.13712E+03-2.57575E+04-2.83319E-09-6.74981E-09
 -1       605-4.50222E+04-1.22279E+04-1.68689E+04-2.21773E+04 1.56433E-09-4.47289E-09
 -1       606 2.78437E+04-1.04012E+04-1.87060E+04 2.69652E+04-1.75442E-09 3.98359E-10
 -1       607 2.46416E+04-3.36581E+03-9.31459E+03 3.02737E+04 1.11322E-09-1.00672E-08
 -1       608 2.64573E+04-5.77925E+02-4.17124E+03 2.67528E+04 1.46429E-09 1.58252E-10
 -1       609 2.60972E+04-1.61072E+02-2.10674E+03 3.05111E+04-4.72937E-11-2.09411E-10
 -1       610 2.62891E+04 1.47192E+01-1.00628E+03 2.67289E+04-1.28239E-09 2.16005E-10
 -1       611 2.62223E+04 2.70504E+01-5.07369E+02 3.05370E+04-3.55340E-09 1.95314E-10
 -1       612 2.62440E+04 3.14857E+01-2.42478E+02 2.67266E+04-3.25235E-09 1.23396E-09
 -1       613 2.62195E+04 3.63228E+01-1.09820E+02 3.05400E+04-4.38740E-09 3.58182E-09
 -1       614 2.62192E+04 3.23624E+01-2.91604E+01 2.67258E+04-3.39242E-10 2.31444E-09
 -1       615 2.62067E+04 4.23176E+01 3.81862E+01 3.05405E+04 7.38055E-10 1.13109E-08
 -1       616 2.62003E+04 3.86728E+01 1.21659E+02 2.67261E+04-6.46196E-09 2.60684E-09
 -1       617 2.62147E+04 7.23479E+01 2.80601E+02 3.05399E+04-4.09273E-10 1.95614E-08
 -1       618 2.61709E+04 1.22715E+02 5.66570E+02 2.67262E+04 2.98951E-09 9.49012E-09
 -1       619 2.64107E+04 5.13014E+02 1.27304E+03 3.05391E+04 1.02102E-09 7.66249E-10
 -1       620 2.59802E+04 1.46861E+03 2.55889E+03 2.67251E+04 2.65311E-09 1.35256E-08
 -1       621 2.90243E+02 2.25777E+05 2.62583E+03 1.28664E+04-3.29692E-11 1.11095E-08
 -1       622 3.47071E+02 2.26422E+05 2.37464E+03 1.87394E+04-3.67208E-11-8.43465E-09
 -1       623 1.90295E+01 2.25938E+05 2.92061E+03 1.28050E+04 6.86668E-11 4.55884E-09
 -1       624 1.37836E+03 2.27359E+05 5.71184E+03 1.88017E+04 1.23094E-10 6.76982E-09
 -1       625 1.38534E+03 2.24820E+05 1.00078E+04 1.28038E+04 2.26464E-10-3.63923E-09
 -1       626 1.95319E+05 5.22185E+04 4.15171E+03 1.02873E+05 8.97217E-10 8.23093E-09
 -1       627 1.92915E+05 5.38750E+04 2.00069E+03 1.06921E+05-6.14455E-09-1.79460E-08
 -1       628 1.95452E+05 5.02805E+04 8.45181E+02 1.03529E+05 2.78305E-09 3.82897E-10
 -1       629 1.92345E+05 5.33732E+04 4.13993E+02 1.07161E+05 3.72165E-09 5.78552E-09
 -1       630 1.95459E+05 5.01894E+04 1.91260E+02 1.03549E+05-9.65065E-09-1.96818E-08
 -1       631 1.92277E+05 5.33597E+04 1.02354E+02 1.07161E+05-1.30376E-09 1.16924E-08
 -1       632 1.95450E+05 5.01964E+04 6.63424E+01 1.03541E+05 4.81123E-10 1.82440E-08
 -1       633 1.92263E+05 5.33649E+04 7.24184E+01 1.07153E+05-2.38788E-09 1.32726E-08
 -1       634 1.95440E+05 5.01973E+04 1.15632E+02 1.03536E+05 9.21727E-09 1.25374E-08
 -1       635 1.92268E+05 5.33663E+04 2.33373E+02 1.07153E+05 4.09250E-09 1.20458E-08
 -1       636 1.95428E+05 5.01958E+04 4.70835E+02 1.03534E+05-2.04994E-09 5.12955E-09
 -1       637 1.92366E+05 5.34408E+04 1.03462E+03 1.07150E+05 1.86452E-09-2.31921E-10
 -1       638 1.95389E+05 5.04259E+04 2.12600E+03 1.03428E+05-3.50474E-09 7.49878E-10
 -1       639 1.93480E+05 5.49942E+04 5.02955E+03 1.06819E+05-1.88459E-09-2.12822E-10
 -1       640 1.95240E+05 5.50568E+04 1.04373E+04 1.01465E+05 2.77032E-09 1.04365E-08
 -1       656 5.19219E+04-1.31790E+06-1.25338E+05-4.90171E+02 2.76486E-10-2.75466E-09
 -1       657-6.86355E+04-1.37448E+06-1.03710E+05 7.57940E+03-7.99446E-10 3.27594E-09
 -1       658 1.64928E+04-1.33402E+06-6.37140E+04-1.90452E+03 3.36513E-11-1.12770E-10
 -1       659-7.37886E+04-1.37692E+06-1.10479E+05 8.57709E+03-7.13044E-10-3.59483E-09
 -1       660 5.70631E+04-1.31546E+06-1.36977E+05-1.48784E+03-4.58385E-10 2.67303E-09
 -1       661 1.69319E+05 1.83207E+04 1.65583E+04 6.62094E+04 2.00907E-09-2.23554E-09
 -1       662 1.78130E+05 3.11240E+04 1.11579E+04 6.31205E+04 1.47918E-09-1.72561E-08
 -1       663 1.72568E+05 2.36355E+04 3.90297E+03 6.52693E+04 1.82126E-10 2.01248E-09
 -1       664 1.74369E+05 2.49047E+04 2.33378E+03 6.42654E+04-1.87674E-09 1.00877E-08
 -1       665 1.73057E+05 2.43652E+04 9.20615E+02 6.51303E+04-3.54618E-09-1.77101E-09
 -1       666 1.73794E+05 2.40672E+04 5.37336E+02 6.44448E+04-3.29555E-09 1.41052E-09
 -1       667 1.73140E+05 2.44510E+04 2.83815E+02 6.50981E+04-2.42977E-09 4.45030E-09
 -1       668 1.73704E+05 2.40016E+04 2.85554E+02 6.44916E+04 1.04728E-09-8.90668E-09
 -1       669 1.73146E+05 2.44289E+04 3.83594E+02 6.50842E+04 1.63021E-09 5.15928E-09
 -1       670 1.73798E+05 2.42069E+04 8.32503E+02 6.44930E+04 1.51948E-09 5.60328E-09
 -1       671 1.73045E+05 2.42499E+04 1.47722E+03 6.50951E+04-8.26979E-10 4.73449E-10
 -1       672 1.74659E+05 2.56441E+04 3.77869E+03 6.42853E+04-3.37644E-09-1.92085E-09
 -1       673 1.72290E+05 2.30278E+04 6.33219E+03 6.52780E+04-1.26727E-09 2.60843E-09
 -1       674 1.80687E+05 3.58157E+04 1.81086E+04 6.25129E+04 6.56598E-10-1.65483E-09
 -1       675 1.67056E+05 1.43628E+04 2.68792E+04 6.67602E+04 2.33240E-09-2.21735E-09
 -1       676 2.05296E+01-2.47031E+05-9.53570E+02 2.16533E+01 1.11737E-09-9.08849E-09
 -1       677-2.53213E+02-2.47261E+05-1.74516E+03-4.32808E+01-4.01519E-09-1.42740E-08
 -1       678 1.69046E+02-2.46867E+05-3.08499E+03 2.16127E+01 8.86871E-10 7.87276E-09
 -1       679-3.08583E+03-2.49124E+05-7.32848E+03-4.31253E+01-5.81394E-10-1.21489E-08
 -1       680 1.84164E+03-2.45170E+05-1.18110E+04 2.12524E+01 4.25644E-10-1.64998E-09
 -1       771-2.62861E+06-5.13017E+05-7.54819E+04-1.14652E+06-1.64873E-08-1.42027E-08
 -1       772-2.59576E+06-5.60813E+05-3.98339E+04-1.20070E+06-1.19326E-08 6.91034E-09
 -1       773-2.64127E+06-5.03028E+05-1.84350E+04-1.15103E+06-6.24277E-09 6.41012E-09
 -1       774-2.58691E+06-5.52804E+05-8.63664E+03-1.20911E+06 1.28348E-08-1.08776E-09
 -1       775-2.64606E+06-4.99654E+05-5.23913E+03-1.15217E+06-4.36557E-10 1.73168E-09
 -1       776-2.58868E+06-5.52679E+05-2.17317E+03-1.21467E+06-1.86265E-09 1.94996E-09
 -1       777-2.64990E+06-4.96819E+05-1.90545E+03-1.15313E+06 1.30967E-10 2.16096E-09
 -1       778-2.59093E+06-5.52705E+05-6.35870E+02-1.21936E+06 1.83354E-09 4.64934E-09
 -1       779-2.65310E+06-4.94401E+05-8.69067E+02-1.15396E+06-7.46513E-09-2.29920E-09
 -1       780-2.59295E+06-5.52682E+05-2.59058E+02-1.22317E+06-1.40426E-08 1.90539E-09
 -1       781-2.65557E+06-4.92480E+05-4.97204E+02-1.15462E+06-1.54832E-08-5.87534E-10
 -1       782-2.59454E+06-5.52637E+05-3.43012E+02-1.22596E+06-1.62545E-08 1.04751E-09
 -1       783-2.65726E+06-4.91180E+05-7.21619E+02-1.15508E+06-4.00541E-09-7.24413E-09
 -1       784-2.59589E+06-5.52967E+05-1.45788E+03-1.22764E+06-8.94579E-09 8.24457E-10
 -1       785-2.65786E+06-4.90714E+05-2.74727E+03-1.15512E+06-1.79716E-08 2.61844E-09
 -1       786 1.49295E+05-9.38838E+03 2.17200E+04-9.28163E+01 1.30236E-09-1.53432E-09
 -1       787 1.58710E+05 1.08688E+04 1.53662E+04 2.40023E+01 2.15530E-09 1.27964E-08
 -1       788 1.52926E+05-1.47169E+03 5.62082E+03-7.12772E+01 1.31997E-09 1.04599E-08
 -1       789 1.54480E+05 1.70273E+03 3.53044E+03-1.10626E+01-1.60423E-10 8.57892E-09
 -1       790 1.53526E+05-2.29762E+02 1.43382E+03-5.77546E+01-3.56799E-10 1.45502E-09
 -1       791 1.53780E+05 2.66182E+02 8.36631E+02-3.50878E+01-1.05019E-09 5.28007E-09
 -1       792 1.53627E+05-3.62188E+01 3.71556E+02-4.72521E+01-9.54538E-10-7.14395E-09
 -1       793 1.53664E+05 4.58990E+01 2.22553E+02-5.59316E+01-3.98913E-10-3.70875E-09
 -1       794 1.53642E+05-9.62068E+00 1.32859E+02-3.69105E+01 8.33833E-10-1.59121E-10
 -1       795 1.53657E+05 3.74656E+01 1.45940E+02-7.90732E+01-9.02745E-11 9.67620E-09
 -1       796 1.53634E+05-2.77869E+01 1.90636E+02-2.41100E+01 5.43091E-10-9.79684E-09
 -1       797 1.53736E+05 2.00938E+02 4.26373E+02-1.10337E+02 9.20358E-10-9.25115E-09
 -1       798 1.53563E+05-1.72975E+02 6.65542E+02-5.64575E+00 2.32905E-10 3.90810E-09
 -1       799 1.54233E+05 1.27684E+03 1.80777E+03-1.57628E+02 7.62296E-10 4.11922E-09
 -1       800 1.53136E+05-1.10283E+03 2.55161E+03 2.31812E+01 2.31387E-10 1.97737E-08
 -1       801 7.06040E+04-2.49451E+06-2.30871E+05 4.37440E+04 1.68948E-08-8.19500E-09
 -1       802-8.31121E+04-2.28523E+06-1.01778E+05-5.39524E+04 4.62314E-08-1.12059E-08
 -1       803 1.07847E+04-2.38596E+06-3.55060E+04 1.16832E+05 3.49464E-08 2.33092E-08
 -1       804 2.60494E+04-2.25378E+06 4.11640E+04-1.54051E+04 3.48946E-08 2.90618E-08
 -1       805-3.97336E+04-2.52546E+06 2.82828E+04 5.18870E+03 1.32422E-08 2.14204E-08
 -1       806-2.37951E+05-4.67792E+04-1.82541E+04-9.48122E+04-1.97906E-09 3.08091E-09
 -1       807-2.39402E+05-4.37859E+04-8.96799E+03-9.92176E+04 9.93168E-10-2.41556E-09
 -1       808-2.38447E+05-4.02062E+04-3.80440E+03-9.79306E+04-4.67480E-10 9.55157E-09
 -1       809-2.37512E+05-4.12711E+04-1.86015E+03-9.94453E+04-5.42673E-09-5.65615E-09
 -1       810-2.38524E+05-3.99764E+04-8.52184E+02-9.80689E+04-1.11459E-09-3.24462E-09
 -1       811-2.37367E+05-4.11701E+04-4.23308E+02-9.94192E+04-1.55524E-09 1.12054E-08
 -1       812-2.38537E+05-3.99949E+04-2.12818E+02-9.80687E+04-2.82853E-09-1.04658E-08
 -1       813-2.37348E+05-4.11718E+04-1.36531E+02-9.94061E+04 9.64747E-10-1.53057E-09
 -1       814-2.38534E+05-4.00017E+04-1.32107E+02-9.80660E+04-2.95768E-09-2.57342E-09
 -1       815-2.37352E+05-4.11735E+04-2.10383E+02-9.94021E+04-2.42289E-09-3.88900E-09
 -1       816-2.38520E+05-4.00000E+04-3.96753E+02-9.80637E+04 5.18958E-09 1.07962E-08
 -1       817-2.37420E+05-4.12112E+04-8.51327E+02-9.93952E+04 1.00408E-08 1.81435E-08
 -1       818-2.38470E+05-4.01190E+04-1.73570E+03-9.80074E+04 8.22820E-09-4.01042E-09
 -1       819-2.38373E+05-4.22590E+04-4.08476E+03-9.91713E+04 1.42654E-09-5.24847E-09
 -1       820-2.38147E+05-4.32008E+04-8.31347E+03-9.66850E+04 2.33013E-09 9.78662E-09
 -1       821-2.95958E+05 1.63715E+04-3.78624E+04 2.97576E+02 1.78137E-09 7.68159E-09
 -1       822-3.12361E+05-1.89528E+04-2.67925E+04-1.00075E+03-1.46502E-09 2.29056E-09
 -1       823-3.02287E+05 2.56708E+03-9.80608E+03 3.13591E+02-1.53570E-10 2.53158E-09
 -1       824-3.04971E+05-2.97080E+03-6.16874E+03-8.35233E+02 1.23634E-10-5.74607E-09
 -1       825-3.03346E+05 4.01506E+02-2.53823E+03 1.32054E+02-1.02772E-09-3.29419E-09
 -1       826-3.03732E+05-4.73095E+02-1.52661E+03-3.56496E+02-3.21198E-09-1.47793E-11
 -1       827-3.03524E+05 7.06766E+01-7.97430E+02-1.65154E+02-2.82719E-09 2.95870E-09
 -1       828-3.03568E+05-1.44438E+02-6.98935E+02 2.22316E+02-5.42467E-09 1.11557E-08
 -1       829-3.03511E+05 7.31510E+01-8.12413E+02-4.46768E+02 7.49541E-10 6.71861E-09
 -1       830-3.03773E+05-4.90220E+02-1.58331E+03 6.45256E+02 2.46409E-09 6.33452E-09
 -1       831-3.03320E+05 4.16767E+02-2.62569E+03-5.88102E+02-2.42014E-09-3.19687E-09
 -1       832-3.05040E+05-3.07990E+03-6.39861E+03 7.25620E+02-1.34934E-09-9.30686E-09
 -1       833-3.02244E+05 2.66111E+03-1.01699E+04-5.27133E+02-2.52601E-09 7.31870E-09
 -1       834-3.12665E+05-1.96526E+04-2.77803E+04 4.27539E+02-1.81995E-09 4.57385E-09
 -1       835-2.95696E+05 1.69762E+04-3.92698E+04-2.90008E+02 5.14952E-09 1.37697E-09
 -1       836-1.00035E+03 2.79041E+05 1.69022E+04-1.89337E+04 4.61114E-10 4.87307E-09
 -1       837 3.69349E+03 2.84291E+05 1.44584E+04-3.80549E+04 1.09685E-09 1.32186E-08
 -1       838-3.78936E+02 2.80493E+05 1.49491E+04-1.88642E+04 8.04448E-10 1.59598E-08
 -1       839 9.58454E+03 2.88680E+05 2.84932E+04-3.80897E+04 1.29876E-09 3.17819E-09
 -1       840-2.89948E+03 2.74608E+05 4.55282E+04-1.88978E+04 8.96762E-10-3.32057E-09
 -1       856-7.89094E+04 7.56510E+03-1.99364E+04-4.32870E+02-2.34320E-09-1.38361E-08
 -1       857-8.71416E+04-8.87438E+03-1.37254E+04 4.69476E+03-1.36652E-09-1.77079E-08
 -1       858-8.21628E+04 1.06004E+03-5.17387E+03-4.54841E+02-2.38930E-09-1.09574E-08
 -1       859-8.34062E+04-1.23363E+03-3.12421E+03 4.72954E+03 1.68046E-09 4.11575E-09
 -1       860-8.26490E+04 1.47494E+02-1.31270E+03-4.67748E+02 1.17026E-09-2.93824E-09
 -1       861-8.28463E+04-1.63665E+02-7.29172E+02 4.74722E+03-4.24853E-09 5.08564E-10
 -1       862-8.27248E+04 1.94869E+01-3.17217E+02-4.72546E+02 5.66299E-09 5.57641E-09
 -1       863-8.27560E+04-1.14307E+01-1.47585E+02 4.74948E+03 9.69934E-09-2.67784E-09
 -1       864-8.27397E+04-1.36756E+00-2.75985E+01-4.70007E+02 6.54013E-09-1.59684E-08
 -1       865-8.27234E+04 3.31391E+01 8.01588E+01 4.73650E+03 6.46079E-09-3.93146E-09
 -1       866-8.27557E+04-2.55061E+01 1.98503E+02-4.59565E+02 3.19915E-09-6.81165E-09
 -1       867-8.26198E+04 2.12775E+02 5.12515E+02 4.70811E+03 1.47324E-09 1.80310E-09
 -1       868-8.28396E+04-1.78936E+02 8.57183E+02-4.41622E+02 2.26839E-09-1.52278E-09
 -1       869-8.19837E+04 1.48678E+03 2.29150E+03 4.66113E+03-9.23478E-10-3.18551E-09
 -1       870-8.33862E+04-1.26662E+03 3.32395E+03-4.12583E+02-7.71820E-10-4.01087E-10
 -1       871-4.43456E+03-1.03337E+04-1.45280E+04 9.61317E+04 5.93900E-10 6.60839E-09
 -1       872-1.88826E+03-1.36059E+04-5.95269E+03 1.24633E+05 4.57476E-10-8.58381E-09
 -1       873-3.55117E+00-1.20752E+04 7.67285E+02 9.59208E+04 7.63521E-10-2.09729E-09
 -1       874 2.24302E+03-1.00158E+04 8.05615E+03 1.24673E+05 2.10639E-09 1.50139E-08
 -1       875 5.22460E+03-1.39861E+04 1.79185E+04 9.60978E+04 6.18456E-11 6.10999E-09
 -1       876 2.33461E+05 4.00310E+04 1.23392E+04 9.44931E+04-2.91340E-09 5.03951E-09
 -1       877 2.34196E+05 4.27098E+04 6.58949E+03 9.81096E+04-1.85810E-09 8.67431E-10
 -1       878 2.34613E+05 3.86657E+04 2.76067E+03 9.55065E+04-1.45610E-09 1.02357E-08
 -1       879 2.32518E+05 4.10375E+04 1.37533E+03 9.81956E+04 1.53136E-09-1.69308E-09
 -1       880 2.34697E+05 3.86510E+04 6.40397E+02 9.55478E+04 8.85234E-09-1.29025E-08
 -1       881 2.32407E+05 4.09663E+04 3.41381E+02 9.81776E+04 1.61581E-08-1.71639E-09
 -1       882 2.34705E+05 3.86613E+04 2.17364E+02 9.55490E+04 8.59313E-09 8.40735E-10
 -1       883 2.32399E+05 4.09628E+04 2.32008E+02 9.81722E+04 7.27368E-10 1.05031E-08
 -1       884 2.34700E+05 3.86588E+04 3.67554E+02 9.55492E+04-1.22674E-09-4.43725E-09
 -1       885 2.32428E+05 4.09680E+04 7.38044E+02 9.81813E+04 5.99471E-10-4.48915E-09
 -1       886 2.34672E+05 3.86372E+04 1.48705E+03 9.55463E+04 1.32094E-09 3.52918E-09
 -1       887 2.32689E+05 4.11393E+04 3.24810E+03 9.82190E+04-1.78579E-09-7.75162E-09
 -1       888 2.34466E+05 3.86733E+04 6.54499E+03 9.54422E+04-8.40288E-10-6.05860E-09
 -1       889 2.36589E+05 4.51892E+04 1.56353E+04 9.80966E+04 3.29570E-09-3.81806E-09
 -1       890 2.31800E+05 4.18410E+04 2.92839E+04 9.29454E+04 2.33149E-09 6.62112E-10
 -1       891-1.36359E+02-1.31845E+05-1.57355E+03 2.43257E+04 1.17006E-09 7.78505E-09
 -1       892-2.39323E+02-1.32226E+05-1.70515E+03 3.68247E+04 7.88532E-10-2.12094E-09
 -1       893-3.22617E+01-1.31893E+05-2.43004E+03 2.43308E+04 1.92040E-09-3.27418E-10
 -1       894-1.31381E+03-1.33152E+05-5.04059E+03 3.66927E+04 9.57243E-10 1.42791E-09
 -1       895-1.02990E+03-1.30843E+05-8.88105E+03 2.44563E+04 1.44428E-09-1.99634E-09
 -1       956-2.95143E+05-4.18284E+03-1.05119E+04 2.00366E+04-7.84075E-09-1.82740E-09
 -1       957-2.97217E+05-1.41618E+03-5.39626E+03 2.41294E+04-1.28416E-08-4.13229E-09
 -1       958-2.96077E+05-1.18160E+02-2.43124E+03 1.99125E+04-4.58749E-09-5.09772E-10
 -1       959-2.96242E+05-2.56235E+01-1.24181E+03 2.42651E+04-1.37879E-09 5.08362E-09
 -1       960-2.96162E+05 3.01506E+01-6.05433E+02 1.99004E+04-1.46792E-09-2.07933E-09
 -1       961-2.96172E+05 2.75208E+01-3.21235E+02 2.42789E+04-2.70870E-09-4.90081E-09
 -1       962-2.96180E+05 2.64700E+01-1.83951E+02 1.98986E+04-2.56546E-09-3.57136E-09
 -1       963-2.96170E+05 2.91681E+01-1.47787E+02 2.42814E+04-4.88922E-09 7.57655E-09
 -1       964-2.96183E+05 2.86557E+01-1.79601E+02 1.98979E+04-3.44113E-09 3.19005E-10
 -1       965-2.96180E+05 3.22171E+01-3.10519E+02 2.42813E+04-9.14611E-10-4.65752E-09
 -1       966-2.96173E+05 3.66364E+01-5.83050E+02 1.98986E+04-3.04760E-09-3.25304E-09
 -1       967-2.96256E+05-1.43762E+01-1.19589E+03 2.42731E+04-4.20221E-09-1.26818E-09
 -1       968-2.96098E+05-1.01858E+02-2.34047E+03 1.99063E+04-4.81441E-09-4.11038E-09
 -1       969-2.97203E+05-1.34953E+03-5.19648E+03 2.41839E+04-3.08501E-09-6.18016E-09
 -1       970-2.95204E+05-4.01336E+03-1.01219E+04 1.99894E+04-2.20689E-09 1.19380E-08
 -1       971-2.77618E+05-1.44651E+03-8.01368E+03 1.32307E+04-2.35741E-09 1.11012E-08
 -1       972-2.79564E+05-1.03944E+03-4.36417E+03 1.84632E+04 8.29914E-10 3.39787E-09
 -1       973-2.78509E+05-1.38937E+01-1.95432E+03 1.31206E+04-8.87212E-10-1.74714E-09
 -1       974-2.78643E+05-1.49638E+01-1.01251E+03 1.85828E+04-6.03222E-10 6.11578E-09
 -1       975-2.78579E+05 2.39920E+01-5.05225E+02 1.31104E+04-1.21008E-09 3.48257E-09
 -1       976-2.78589E+05 2.73323E+01-2.89843E+02 1.85954E+04-3.58523E-09 1.13721E-09
 -1       977-2.78593E+05 2.40447E+01-2.07455E+02 1.31079E+04-1.37629E-09-4.77826E-09
 -1       978-2.78592E+05 3.22182E+01-2.38793E+02 1.85989E+04 5.27325E-09 2.25032E-09
 -1       979-2.78593E+05 3.06307E+01-3.80256E+02 1.31069E+04 5.01836E-09-1.01909E-09
 -1       980-2.78621E+05 3.46139E+01-7.32089E+02 1.85995E+04 5.15443E-09 2.52157E-10
 -1       981-2.78569E+05 4.88669E+01-1.41677E+03 1.31073E+04 3.61706E-09 1.67364E-09
 -1       982-2.78815E+05-7.00151E+01-2.92780E+03 1.85938E+04 2.43540E-09-1.23957E-08
 -1       983-2.78391E+05-4.17773E+01-5.68842E+03 1.31127E+04 1.18234E-09-1.12254E-08
 -1       984-2.81551E+05-3.04075E+03-1.27385E+04 1.85190E+04-5.38944E-09-2.82409E-09
 -1       985-2.75816E+05-4.20422E+03-2.33919E+04 1.31863E+04 2.64936E-09-5.30781E-09
 -3
    1PSTEP                        17           9           1          
  100CL  109 5.68237E-01         409                     0    9           1
 -4  DISP        4    1
 -5  D1          1    2    1    0
 -5  D2          1    2    2    0
 -5  D3          1    2    3    0
 -5  ALL         1    2    0    0    1ALL
 -1         1 4.15023E-04 0.00000E+00 0.00000E+00
 -1         2 3.79861E-04-5.06967E-29-6.61744E-24
 -1         3 2.04441E-04-1.36847E-27 0.00000E+00
 -1         5 1.25386E-04-3.34985E-27 3.30872E-24
 -1         8 3.90622E-04-7.88841E-07 0.00000E+00
 -1         9 3.76438E-04-1.62012E-06 0.00000E+00
 -1        10 1.87110E-04-2.70767E-06 6.61744E-24
 -1        12 1.25431E-04 6.27226E-07-1.65436E-24
 -1        15 3.61335E-04-8.79844E-07 2.06795E-25
 -1        16 3.68595E-04-1.99468E-06 0.00000E+00
 -1        17 1.32750E-04-5.83668E-06 0.00000E+00
 -1        18 1.24303E-04 9.27840E-06 0.00000E+00
 -1        19 1.25567E-04 1.25129E-06 0.00000E+00
 -1        20 1.25715E-04 9.84492E-06 0.00000E+00
 -1        21 1.25061E-04 1.66100E-05 0.00000E+00
 -1        24 2.43054E-05-8.20980E-06 0.00000E+00
 -1        25 1.26028E-04 9.42826E-06 0.00000E+00
 -1        26 1.26768E-04 1.73363E-06 0.00000E+00
 -1        27 1.25042E-04 6.99050E-06 0.00000E+00
 -1        28 1.24605E-04 1.60814E-05 0.00000E+00
 -1        32 0.00000E+00 0.00000E+00 0.00000E+00
 -1        33 1.26846E-04 2.32361E-06 0.00000E+00
 -1        34 1.25131E-04 6.96181E-06 0.00000E+00
 -1        35 1.23527E-04 1.57984E-05 0.00000E+00
 -1        51 4.13453E-04-1.33964E-07 0.00000E+00
 -1        52 4.10522E-04-2.59722E-07 0.00000E+00
 -1        53 4.06496E-04-3.86091E-07 0.00000E+00
 -1        54 4.01652E-04-5.14897E-07 0.00000E+00
 -1        55 3.96268E-04-6.47154E-07 0.00000E+00
 -1        56 4.12951E-04-7.81643E-07 0.00000E+00
 -1        57 4.10798E-04-1.57813E-06 0.00000E+00
 -1        58 4.08627E-04-2.31454E-06 0.00000E+00
 -1        59 4.06406E-04-2.95521E-06 0.00000E+00
 -1        60 4.04135E-04-3.46332E-06 0.00000E+00
 -1        61 4.01802E-04-3.81419E-06 0.00000E+00
 -1        62 3.99405E-04-3.99805E-06 0.00000E+00
 -1        63 3.96946E-04-4.01431E-06 0.00000E+00
 -1        64 3.94429E-04-3.87912E-06 0.00000E+00
 -1        65 3.91865E-04-3.61620E-06 2.64698E-23
 -1        66 3.89267E-04-3.26236E-06 0.00000E+00
 -1        67 3.86652E-04-2.85833E-06-2.64698E-23
 -1        68 3.84037E-04-2.45102E-06 0.00000E+00
 -1        69 3.81448E-04-2.08297E-06-2.64698E-23
 -1        70 3.78888E-04-1.80180E-06 0.00000E+00
 -1        86 3.79744E-04-2.65894E-07 0.00000E+00
 -1        87 3.79396E-04-5.32278E-07 0.00000E+00
 -1        88 3.78849E-04-7.98814E-07-1.32349E-23
 -1        89 3.78135E-04-1.06822E-06 6.61744E-24
 -1        90 3.77313E-04-1.33676E-06 1.32349E-23
 -1       121 2.03955E-04-4.45934E-07-1.32349E-23
 -1       122 2.02500E-04-8.92781E-07-6.61744E-24
 -1       123 2.00079E-04-1.34144E-06 0.00000E+00
 -1       124 1.96700E-04-1.79286E-06 0.00000E+00
 -1       125 1.92372E-04-2.24776E-06 1.32349E-23
 -1       191 1.25387E-04 1.04541E-07-3.30872E-24
 -1       192 1.25391E-04 2.09081E-07-1.65436E-24
 -1       193 1.25397E-04 3.13622E-07 0.00000E+00
 -1       194 1.25406E-04 4.18161E-07 1.65436E-24
 -1       195 1.25417E-04 5.22696E-07 0.00000E+00
 -1       251 3.90029E-04-2.87925E-06 0.00000E+00
 -1       252 3.89306E-04-1.88113E-05 0.00000E+00
 -1       253 3.88375E-04-4.52860E-05 0.00000E+00
 -1       254 3.87241E-04-7.87442E-05-6.61744E-24
 -1       255 3.86061E-04-1.13651E-04 0.00000E+00
 -1       256 3.85010E-04-1.44435E-04-6.61744E-24
 -1       257 3.84170E-04-1.66699E-04-1.32349E-23
 -1       258 3.83524E-04-1.76248E-04 0.00000E+00
 -1       259 3.82914E-04-1.72467E-04-1.32349E-23
 -1       260 3.82165E-04-1.55070E-04 6.61744E-24
 -1       261 3.81206E-04-1.27595E-04 0.00000E+00
 -1       262 3.80062E-04-9.38258E-05 6.61744E-24
 -1       263 3.78894E-04-5.93317E-05 0.00000E+00
 -1       264 3.77876E-04-2.96991E-05 0.00000E+00
 -1       265 3.77070E-04-9.13330E-06 1.32349E-23
 -1       266 3.85741E-04-8.15189E-07 3.30872E-24
 -1       267 3.80860E-04-8.28993E-07-8.27181E-25
 -1       268 3.75978E-04-8.43592E-07-1.65436E-24
 -1       269 3.71097E-04-8.55837E-07 4.13590E-25
 -1       270 3.66216E-04-8.68028E-07 0.00000E+00
 -1       271 3.87756E-04 3.20244E-06 0.00000E+00
 -1       272 3.85174E-04 6.32818E-06 1.32349E-23
 -1       273 3.82903E-04 8.63564E-06 0.00000E+00
 -1       274 3.80918E-04 1.01672E-05 1.32349E-23
 -1       275 3.79202E-04 1.09826E-05-2.64698E-23
 -1       276 3.77729E-04 1.11506E-05 0.00000E+00
 -1       277 3.76469E-04 1.07509E-05 0.00000E+00
 -1       278 3.75388E-04 9.87199E-06 0.00000E+00
 -1       279 3.74450E-04 8.61011E-06 0.00000E+00
 -1       280 3.73618E-04 7.06753E-06 0.00000E+00
 -1       281 3.72851E-04 5.35105E-06 0.00000E+00
 -1       282 3.72108E-04 3.57028E-06 0.00000E+00
 -1       283 3.71348E-04 1.83572E-06 0.00000E+00
 -1       284 3.70534E-04 2.58511E-07 0.00000E+00
 -1       285 3.69621E-04-1.05578E-06 2.64698E-23
 -1       301 3.75045E-04-1.69940E-06-6.61744E-24
 -1       302 3.73368E-04-1.75397E-06-3.30872E-24
 -1       303 3.71645E-04-1.80707E-06 0.00000E+00
 -1       304 3.70116E-04-1.86007E-06 0.00000E+00
 -1       305 3.69021E-04-1.91439E-06-1.32349E-23
 -1       306 3.87488E-04-4.17777E-05 0.00000E+00
 -1       307 4.21356E-04-1.59984E-04 0.00000E+00
 -1       308 4.68667E-04-3.36545E-04 5.29396E-23
 -1       309 5.21988E-04-5.46280E-04 0.00000E+00
 -1       310 5.75232E-04-7.55578E-04 0.00000E+00
 -1       311 6.22272E-04-9.30863E-04 2.64698E-23
 -1       312 6.55641E-04-1.04721E-03 1.05879E-22
 -1       313 6.65902E-04-1.08523E-03 2.64698E-23
 -1       314 6.45956E-04-1.04347E-03 0.00000E+00
 -1       315 5.91223E-04-9.27267E-04 0.00000E+00
 -1       316 5.07213E-04-7.57058E-04 5.29396E-23
 -1       317 4.04609E-04-5.56192E-04-2.64698E-23
 -1       318 3.01065E-04-3.53810E-04 5.29396E-23
 -1       319 2.14436E-04-1.79087E-04 0.00000E+00
 -1       320 1.56191E-04-5.60109E-05-5.29396E-23
 -1       336 1.80807E-04-3.20861E-06 1.32349E-23
 -1       337 1.73359E-04-3.71771E-06 6.61744E-24
 -1       338 1.64795E-04-4.23518E-06 1.32349E-23
 -1       339 1.55147E-04-4.76109E-06 0.00000E+00
 -1       340 1.44452E-04-5.29731E-06 0.00000E+00
 -1       406 1.25448E-04 7.31743E-07-3.30872E-24
 -1       407 1.25467E-04 8.36228E-07 0.00000E+00
 -1       408 1.25488E-04 9.40651E-07 0.00000E+00
 -1       409 1.25512E-04 1.04489E-06 0.00000E+00
 -1       410 1.25538E-04 1.14874E-06 0.00000E+00
 -1       521 3.81969E-04-5.17907E-05 5.29396E-23
 -1       522 4.21089E-04-1.95116E-04-5.29396E-23
 -1       523 4.74404E-04-4.08693E-04 1.05879E-22
 -1       524 5.33399E-04-6.61682E-04-5.29396E-23
 -1       525 5.92245E-04-9.13582E-04 0.00000E+00
 -1       526 6.45011E-04-1.12399E-03 0.00000E+00
 -1       527 6.83017E-04-1.26268E-03 1.05879E-22
 -1       528 6.94554E-04-1.30716E-03 0.00000E+00
 -1       529 6.69485E-04-1.25554E-03 0.00000E+00
 -1       530 6.01271E-04-1.11557E-03 0.00000E+00
 -1       531 4.95877E-04-9.11518E-04 1.05879E-22
 -1       532 3.66709E-04-6.71504E-04 5.29396E-23
 -1       533 2.36223E-04-4.29546E-04 1.05879E-22
 -1       534 1.27182E-04-2.19712E-04-5.29396E-23
 -1       535 5.41213E-05-7.08227E-05 1.05879E-22
 -1       536 1.32444E-04 1.24506E-05 0.00000E+00
 -1       537 1.31861E-04 4.28674E-05 0.00000E+00
 -1       538 1.31040E-04 8.07488E-05-3.30872E-24
 -1       539 1.30115E-04 1.21390E-04 0.00000E+00
 -1       540 1.29290E-04 1.59326E-04-3.30872E-24
 -1       541 1.28731E-04 1.89106E-04 0.00000E+00
 -1       542 1.28429E-04 2.07471E-04 0.00000E+00
 -1       543 1.28283E-04 2.11229E-04 0.00000E+00
 -1       544 1.28094E-04 2.00955E-04 3.30872E-24
 -1       545 1.27687E-04 1.77311E-04-1.65436E-24
 -1       546 1.27038E-04 1.44442E-04-3.30872E-24
 -1       547 1.26217E-04 1.06545E-04 0.00000E+00
 -1       548 1.25414E-04 6.91843E-05 0.00000E+00
 -1       549 1.24815E-04 3.79204E-05 0.00000E+00
 -1       550 1.24461E-04 1.66673E-05 0.00000E+00
 -1       551 1.18085E-04-6.17714E-06 0.00000E+00
 -1       552 1.00988E-04-6.54861E-06 0.00000E+00
 -1       553 8.22540E-05-6.94634E-06-3.30872E-24
 -1       554 6.26912E-05-7.36084E-06 0.00000E+00
 -1       555 4.31074E-05-7.77846E-06 0.00000E+00
 -1       556 1.28626E-04 4.80169E-06 0.00000E+00
 -1       557 1.25383E-04 1.31911E-05 0.00000E+00
 -1       558 1.22930E-04 1.95230E-05 0.00000E+00
 -1       559 1.21186E-04 2.40044E-05 0.00000E+00
 -1       560 1.20065E-04 2.68424E-05 0.00000E+00
 -1       561 1.19486E-04 2.82454E-05 0.00000E+00
 -1       562 1.19370E-04 2.84222E-05 0.00000E+00
 -1       563 1.19635E-04 2.75821E-05 6.61744E-24
 -1       564 1.20202E-04 2.59346E-05 0.00000E+00
 -1       565 1.20992E-04 2.36895E-05 0.00000E+00
 -1       566 1.21927E-04 2.10569E-05 0.00000E+00
 -1       567 1.22927E-04 1.82468E-05 0.00000E+00
 -1       568 1.23916E-04 1.54694E-05 0.00000E+00
 -1       569 1.24814E-04 1.29345E-05 0.00000E+00
 -1       570 1.25544E-04 1.08521E-05 0.00000E+00
 -1       571 1.24380E-04 8.76781E-06 0.00000E+00
 -1       572 1.24458E-04 8.21072E-06 4.13590E-25
 -1       573 1.24537E-04 7.61693E-06 8.27181E-25
 -1       574 1.24616E-04 6.99669E-06 0.00000E+00
 -1       575 1.24695E-04 6.36030E-06 0.00000E+00
 -1       576 1.24775E-04 5.71807E-06 0.00000E+00
 -1       577 1.24854E-04 5.08037E-06 0.00000E+00
 -1       578 1.24933E-04 4.45756E-06 4.96308E-24
 -1       579 1.25012E-04 3.86000E-06 0.00000E+00
 -1       580 1.25092E-04 3.29804E-06 0.00000E+00
 -1       581 1.25171E-04 2.78205E-06 0.00000E+00
 -1       582 1.25250E-04 2.32237E-06 3.30872E-24
 -1       583 1.25330E-04 1.92934E-06 0.00000E+00
 -1       584 1.25409E-04 1.61319E-06 0.00000E+00
 -1       585 1.25488E-04 1.38407E-06 0.00000E+00
 -1       586 1.24536E-04 9.30510E-06-8.27181E-25
 -1       587 1.24744E-04 9.33116E-06 3.36042E-25
 -1       588 1.24963E-04 9.35691E-06 0.00000E+00
 -1       589 1.25226E-04 9.38217E-06 0.00000E+00
 -1       590 1.25570E-04 9.40658E-06 0.00000E+00
 -1       591 1.24455E-04 8.81924E-06 1.03398E-25
 -1       592 1.24615E-04 8.33315E-06 2.06795E-25
 -1       593 1.24782E-04 7.82618E-06 0.00000E+00
 -1       594 1.24955E-04 7.30357E-06 0.00000E+00
 -1       595 1.25131E-04 6.77064E-06 0.00000E+00
 -1       596 1.25309E-04 6.23266E-06-4.13590E-25
 -1       597 1.25488E-04 5.69490E-06-8.27181E-25
 -1       598 1.25664E-04 5.16262E-06 0.00000E+00
 -1       599 1.25836E-04 4.64106E-06 4.13590E-25
 -1       600 1.26002E-04 4.13550E-06 0.00000E+00
 -1       601 1.26160E-04 3.65119E-06 4.13590E-25
 -1       602 1.26308E-04 3.19338E-06-1.03398E-25
 -1       603 1.26445E-04 2.76736E-06-3.10193E-25
 -1       604 1.26568E-04 2.37844E-06-5.16988E-26
 -1       605 1.26675E-04 2.03184E-06 0.00000E+00
 -1       606 1.25580E-04 1.29347E-06-3.30872E-24
 -1       607 1.25591E-04 1.43072E-06 0.00000E+00
 -1       608 1.25600E-04 1.65746E-06-3.30872E-24
 -1       609 1.25610E-04 1.96740E-06 0.00000E+00
 -1       610 1.25619E-04 2.35419E-06 0.00000E+00
 -1       611 1.25628E-04 2.81143E-06 0.00000E+00
 -1       612 1.25637E-04 3.33270E-06 0.00000E+00
 -1       613 1.25645E-04 3.91157E-06 0.00000E+00
 -1       614 1.25654E-04 4.54162E-06 0.00000E+00
 -1       615 1.25663E-04 5.21641E-06 0.00000E+00
 -1       616 1.25672E-04 5.92953E-06 1.65436E-24
 -1       617 1.25681E-04 6.67454E-06 0.00000E+00
 -1       618 1.25689E-04 7.44500E-06-8.27181E-25
 -1       619 1.25698E-04 8.23451E-06 0.00000E+00
 -1       620 1.25707E-04 9.03663E-06 0.00000E+00
 -1       621 1.25649E-04 1.33186E-06 1.65436E-24
 -1       622 1.25796E-04 1.41271E-06 8.27181E-25
 -1       623 1.25994E-04 1.49352E-06 0.00000E+00
 -1       624 1.26231E-04 1.57419E-06 0.00000E+00
 -1       625 1.26493E-04 1.65470E-06 0.00000E+00
 -1       626 1.25642E-04 1.32156E-06 3.30872E-24
 -1       627 1.25689E-04 1.46838E-06 1.65436E-24
 -1       628 1.25710E-04 1.68397E-06 0.00000E+00
 -1       629 1.25708E-04 1.96011E-06-1.65436E-24
 -1       630 1.25687E-04 2.28857E-06 3.30872E-24
 -1       631 1.25649E-04 2.66110E-06 0.00000E+00
 -1       632 1.25598E-04 3.06941E-06 3.30872E-24
 -1       633 1.25537E-04 3.50525E-06 0.00000E+00
 -1       634 1.25468E-04 3.96034E-06 0.00000E+00
 -1       635 1.25395E-04 4.42642E-06 1.65436E-24
 -1       636 1.25321E-04 4.89522E-06 0.00000E+00
 -1       637 1.25250E-04 5.35848E-06-8.27181E-25
 -1       638 1.25183E-04 5.80792E-06-1.65436E-24
 -1       639 1.25124E-04 6.23528E-06-8.27181E-25
 -1       640 1.25077E-04 6.63227E-06 1.65436E-24
 -1       656 1.25126E-04 9.38055E-06 0.00000E+00
 -1       657 1.24924E-04 8.89760E-06-6.61744E-24
 -1       658 1.24969E-04 8.41606E-06 0.00000E+00
 -1       659 1.25115E-04 7.93492E-06 6.61744E-24
 -1       660 1.25196E-04 7.45227E-06-6.61744E-24
 -1       661 1.25498E-04 1.06205E-05 8.27181E-25
 -1       662 1.25309E-04 1.13293E-05 8.27181E-25
 -1       663 1.25144E-04 1.19740E-05 0.00000E+00
 -1       664 1.25002E-04 1.25588E-05 0.00000E+00
 -1       665 1.24882E-04 1.30871E-05-1.65436E-24
 -1       666 1.24781E-04 1.35624E-05-8.27181E-25
 -1       667 1.24699E-04 1.39879E-05 1.65436E-24
 -1       668 1.24635E-04 1.43671E-05-8.27181E-25
 -1       669 1.24586E-04 1.47029E-05 0.00000E+00
 -1       670 1.24553E-04 1.49985E-05 0.00000E+00
 -1       671 1.24534E-04 1.52567E-05 0.00000E+00
 -1       672 1.24528E-04 1.54804E-05 8.27181E-25
 -1       673 1.24533E-04 1.56723E-05-1.65436E-24
 -1       674 1.24549E-04 1.58348E-05-8.27181E-25
 -1       675 1.24575E-04 1.59709E-05 0.00000E+00
 -1       676 1.24985E-04 1.65214E-05-3.30872E-24
 -1       677 1.24909E-04 1.64328E-05 0.00000E+00
 -1       678 1.24833E-04 1.63443E-05 0.00000E+00
 -1       679 1.24757E-04 1.62560E-05 8.27181E-25
 -1       680 1.24681E-04 1.61677E-05 0.00000E+00
 -1       771 1.72195E-05 6.90633E-06 5.29396E-23
 -1       772 1.11794E-05 1.93093E-05 0.00000E+00
 -1       773 6.13659E-06 2.91389E-05 0.00000E+00
 -1       774 2.02430E-06 3.65489E-05 0.00000E+00
 -1       775-1.22319E-06 4.16977E-05 0.00000E+00
 -1       776-3.67438E-06 4.47517E-05 0.00000E+00
 -1       777-5.39824E-06 4.58817E-05 0.00000E+00
 -1       778-6.46533E-06 4.52650E-05-2.64698E-23
 -1       779-6.94640E-06 4.30825E-05 0.00000E+00
 -1       780-6.91353E-06 3.95207E-05-2.64698E-23
 -1       781-6.43876E-06 3.47687E-05 0.00000E+00
 -1       782-5.59519E-06 2.90199E-05 0.00000E+00
 -1       783-4.45579E-06 2.24698E-05 0.00000E+00
 -1       784-3.09434E-06 1.53165E-05 0.00000E+00
 -1       785-1.58435E-06 7.75971E-06 0.00000E+00
 -1       786 1.26070E-04 8.74839E-06 2.06795E-25
 -1       787 1.26116E-04 8.11221E-06 0.00000E+00
 -1       788 1.26162E-04 7.51238E-06 0.00000E+00
 -1       789 1.26208E-04 6.94163E-06 8.27181E-25
 -1       790 1.26255E-04 6.39579E-06 0.00000E+00
 -1       791 1.26301E-04 5.87075E-06 0.00000E+00
 -1       792 1.26348E-04 5.36459E-06 0.00000E+00
 -1       793 1.26395E-04 4.87548E-06-8.27181E-25
 -1       794 1.26441E-04 4.40336E-06 0.00000E+00
 -1       795 1.26488E-04 3.94822E-06 0.00000E+00
 -1       796 1.26535E-04 3.51188E-06 0.00000E+00
 -1       797 1.26581E-04 3.09617E-06 0.00000E+00
 -1       798 1.26628E-04 2.70516E-06 0.00000E+00
 -1       799 1.26675E-04 2.34293E-06 8.27181E-25
 -1       800 1.26721E-04 2.01667E-06 0.00000E+00
 -1       801 1.13046E-04 8.14808E-06 0.00000E+00
 -1       802 7.27634E-05 6.12592E-06 1.32349E-23
 -1       803 2.89039E-05 3.97635E-06 0.00000E+00
 -1       804 5.40799E-06 2.47495E-06 0.00000E+00
 -1       805-2.38548E-06 1.22468E-06-2.64698E-23
 -1       806 1.26191E-04 8.69559E-06 0.00000E+00
 -1       807 1.26341E-04 7.98835E-06 8.27181E-25
 -1       808 1.26480E-04 7.31014E-06-1.65436E-24
 -1       809 1.26606E-04 6.66366E-06 8.27181E-25
 -1       810 1.26720E-04 6.05159E-06 1.65436E-24
 -1       811 1.26820E-04 5.47649E-06 8.27181E-25
 -1       812 1.26905E-04 4.94096E-06 0.00000E+00
 -1       813 1.26974E-04 4.44757E-06 8.27181E-25
 -1       814 1.27026E-04 3.99887E-06-1.65436E-24
 -1       815 1.27060E-04 3.59743E-06-8.27181E-25
 -1       816 1.27076E-04 3.24579E-06-1.65436E-24
 -1       817 1.27073E-04 2.94651E-06-8.27181E-25
 -1       818 1.27049E-04 2.70212E-06-3.30872E-24
 -1       819 1.27003E-04 2.51517E-06 0.00000E+00
 -1       820 1.26935E-04 2.38817E-06 3.30872E-24
 -1       821 1.26666E-04 1.41725E-06 0.00000E+00
 -1       822 1.26558E-04 9.92569E-07 8.27181E-25
 -1       823 1.26450E-04 5.46612E-07-3.30872E-24
 -1       824 1.26342E-04 1.66530E-07 1.65436E-24
 -1       825 1.26233E-04-7.52705E-08 0.00000E+00
 -1       826 1.26124E-04-1.07047E-07-1.65436E-24
 -1       827 1.26015E-04 9.61294E-08 3.30872E-24
 -1       828 1.25906E-04 5.58045E-07 1.65436E-24
 -1       829 1.25796E-04 1.24481E-06 0.00000E+00
 -1       830 1.25687E-04 2.12145E-06 0.00000E+00
 -1       831 1.25578E-04 3.11069E-06 0.00000E+00
 -1       832 1.25468E-04 4.13466E-06 0.00000E+00
 -1       833 1.25359E-04 5.10776E-06 0.00000E+00
 -1       834 1.25251E-04 5.94467E-06-8.27181E-25
 -1       835 1.25143E-04 6.59029E-06-8.27181E-25
 -1       836 1.26947E-04 1.83180E-06 0.00000E+00
 -1       837 1.27017E-04 1.93221E-06 0.00000E+00
 -1       838 1.27011E-04 2.03246E-06 3.30872E-24
 -1       839 1.26959E-04 2.13207E-06 8.27181E-25
 -1       840 1.26894E-04 2.23152E-06 0.00000E+00
 -1       856 1.25018E-04 7.33007E-06-4.13590E-25
 -1       857 1.24991E-04 7.78618E-06 0.00000E+00
 -1       858 1.24964E-04 8.34056E-06 4.13590E-25
 -1       859 1.24937E-04 8.97488E-06 0.00000E+00
 -1       860 1.24910E-04 9.67067E-06 0.00000E+00
 -1       861 1.24882E-04 1.04094E-05-4.13590E-25
 -1       862 1.24854E-04 1.11726E-05 8.27181E-25
 -1       863 1.24827E-04 1.19416E-05-4.13590E-25
 -1       864 1.24799E-04 1.26979E-05 0.00000E+00
 -1       865 1.24771E-04 1.34228E-05 4.13590E-25
 -1       866 1.24744E-04 1.40979E-05-8.27181E-25
 -1       867 1.24716E-04 1.47047E-05 4.13590E-25
 -1       868 1.24689E-04 1.52247E-05 0.00000E+00
 -1       869 1.24661E-04 1.56396E-05 0.00000E+00
 -1       870 1.24633E-04 1.59312E-05 0.00000E+00
 -1       871 1.24934E-04 6.98911E-06-8.27181E-25
 -1       872 1.24945E-04 6.98519E-06 0.00000E+00
 -1       873 1.25023E-04 6.98081E-06 0.00000E+00
 -1       874 1.25115E-04 6.97584E-06 2.06795E-25
 -1       875 1.25169E-04 6.97034E-06 2.06795E-25
 -1       876 1.25020E-04 7.34106E-06 0.00000E+00
 -1       877 1.24979E-04 7.74833E-06 0.00000E+00
 -1       878 1.24920E-04 8.20546E-06 0.00000E+00
 -1       879 1.24845E-04 8.70612E-06 1.65436E-24
 -1       880 1.24756E-04 9.24392E-06 0.00000E+00
 -1       881 1.24656E-04 9.81252E-06-1.65436E-24
 -1       882 1.24546E-04 1.04056E-05 3.30872E-24
 -1       883 1.24429E-04 1.10168E-05 1.65436E-24
 -1       884 1.24308E-04 1.16398E-05 3.30872E-24
 -1       885 1.24185E-04 1.22683E-05 1.65436E-24
 -1       886 1.24062E-04 1.28960E-05 0.00000E+00
 -1       887 1.23942E-04 1.35166E-05 1.65436E-24
 -1       888 1.23827E-04 1.41237E-05 3.30872E-24
 -1       889 1.23718E-04 1.47108E-05-8.27181E-25
 -1       890 1.23619E-04 1.52717E-05 0.00000E+00
 -1       891 1.24551E-04 1.60340E-05 0.00000E+00
 -1       892 1.24477E-04 1.59865E-05 0.00000E+00
 -1       893 1.24360E-04 1.59390E-05-8.27181E-25
 -1       894 1.24178E-04 1.58916E-05-2.06795E-25
 -1       895 1.23907E-04 1.58443E-05 0.00000E+00
 -1       956 1.26741E-04 2.38894E-06-1.65436E-24
 -1       957 1.26634E-04 2.52085E-06 0.00000E+00
 -1       958 1.26526E-04 2.71187E-06 3.30872E-24
 -1       959 1.26419E-04 2.95409E-06-1.65436E-24
 -1       960 1.26311E-04 3.23962E-06 0.00000E+00
 -1       961 1.26204E-04 3.56049E-06 0.00000E+00
 -1       962 1.26096E-04 3.90874E-06 0.00000E+00
 -1       963 1.25988E-04 4.27642E-06 1.65436E-24
 -1       964 1.25881E-04 4.65556E-06 3.30872E-24
 -1       965 1.25773E-04 5.03818E-06 0.00000E+00
 -1       966 1.25666E-04 5.41633E-06 3.30872E-24
 -1       967 1.25558E-04 5.78204E-06 0.00000E+00
 -1       968 1.25450E-04 6.12734E-06 0.00000E+00
 -1       969 1.25343E-04 6.44431E-06-1.65436E-24
 -1       970 1.25236E-04 6.72501E-06 0.00000E+00
 -1       971 1.25032E-04 7.21384E-06-1.65436E-24
 -1       972 1.24931E-04 7.55145E-06-1.65436E-24
 -1       973 1.24831E-04 7.96522E-06 1.65436E-24
 -1       974 1.24730E-04 8.44533E-06 0.00000E+00
 -1       975 1.24629E-04 8.98197E-06-3.30872E-24
 -1       976 1.24528E-04 9.56530E-06 1.65436E-24
 -1       977 1.24428E-04 1.01855E-05 3.30872E-24
 -1       978 1.24327E-04 1.08326E-05 0.00000E+00
 -1       979 1.24226E-04 1.14969E-05-3.30872E-24
 -1       980 1.24125E-04 1.21685E-05 0.00000E+00
 -1       981 1.24024E-04 1.28374E-05 0.00000E+00
 -1       982 1.23923E-04 1.34939E-05 0.00000E+00
 -1       983 1.23823E-04 1.41281E-05 0.00000E+00
 -1       984 1.23723E-04 1.47301E-05-1.65436E-24
 -1       985 1.23623E-04 1.52901E-05 0.00000E+00
 -3
    1PSTEP                        18           9           1          
  100CL  109 5.68237E-01         409                     0    9           1
 -4  STRESS      6    1
 -5  SXX         1    4    1    1
 -5  SYY         1    4    2    2
 -5  SZZ         1    4    3    3
 -5  SXY         1    4    1    2
 -5  SYZ         1    4    2    3
 -5  SZX         1    4    3    1
 -1         1-2.78065E+06-1.13212E+06-5.95604E+05-1.35548E+06 4.65661E-10-1.67347E-08
 -1         2 2.18033E+03-7.57717E+05 7.04655E+03-7.53441E+02-7.08269E-11 9.18555E-08
 -1         3-4.23647E+02-1.27161E+06 3.05237E+02-9.74913E+02-2.02952E-10 1.28603E-08
 -1         5-8.35434E-01 2.99118E+05 7.58299E+00-1.90349E-02-1.33097E-11-3.83072E-08
 -1         8-1.09730E+06-3.80306E+05-1.18838E+05-5.27714E+05 4.14730E-10-3.45608E-09
 -1         9-1.19065E+06-8.50996E+05-1.12588E+05-7.89671E+05 1.29337E-08 3.43076E-08
 -1        10-1.25216E+03-1.32483E+06-2.14589E+03-6.59535E+03-6.92216E-09-1.60829E-08
 -1        12 2.27762E+00 2.99133E+05 2.45450E+02-1.45627E-01-1.94156E-11-3.81240E-09
 -1        15 1.85243E+03 1.01802E+03 5.98799E+03 3.91013E+00-1.68569E-10 1.27064E-08
 -1        16-1.45866E+05-1.05265E+06-5.51460E+04-1.26219E+06 9.72068E-09 2.69890E-08
 -1        17-5.17075E+05-2.02587E+05-4.14348E+04-8.61164E+04-1.22236E-09 8.51578E-09
 -1        18-8.91978E+03-6.96759E+03-2.59515E+04-8.25590E+04 7.60713E-09-1.86492E-09
 -1        19 9.64272E+04 1.10859E+05-7.93018E+02 1.89583E+04-6.03904E-11 2.35595E-09
 -1        20-5.04239E+04-4.56440E+05-1.01394E+05 2.82726E+04 1.60905E-09-2.29435E-09
 -1        21-4.09552E+01-2.53719E+05-8.08853E+02-1.32637E+01-7.26295E-06-2.24607E-08
 -1        24-1.43924E+06 2.67864E+05 5.19991E+04-7.05082E+04-6.74190E-08-2.72218E-08
 -1        25-1.15352E+05-6.25725E+05-1.28220E+05-1.46627E+05-2.08365E-10 9.02983E-09
 -1        26-3.63291E+04 7.21930E+04-1.84783E+04-4.52411E+03 1.53050E-09-1.55076E-08
 -1        27-6.66242E+04-2.48400E+05-9.23380E+04 5.61225E+04 5.68722E-09-2.97829E-09
 -1        28 1.94840E+04-7.12651E+04 1.44032E+04 2.05766E+04 1.28384E-09 4.03220E-09
 -1        32-1.34182E+06-1.99373E+06-1.77461E+04-4.69081E+05-2.81871E-08-5.11394E-09
 -1        33-1.45616E+05 7.17828E+04 2.56460E+04-3.43398E+04 7.72313E-11 1.34244E-08
 -1        34-1.83547E+05-1.87918E+04 4.88378E+02 5.83283E+04 1.91424E-09 7.05904E-09
 -1        35-1.98676E+04-2.83078E+04-1.11710E+03 4.41976E+04 3.15350E-09-1.23206E-09
 -1        51 2.73804E+04-3.19328E+05 6.55445E+04-9.07412E+05-1.01863E-10 9.41509E-09
 -1        52 1.29972E+04-3.12648E+05 3.89668E+04-1.06239E+06-3.71074E-10 1.40863E-08
 -1        53 6.87983E+03-3.27964E+05 2.73189E+04-9.04148E+05-3.56522E-10-1.97469E-08
 -1        54 1.86526E+04-3.26127E+05 3.66921E+04-1.06576E+06-1.14233E-09-3.06754E-08
 -1        55 3.65035E+04-3.39267E+05 6.10689E+04-9.03638E+05-6.54836E-10-1.67638E-08
 -1        56-5.30090E+06-5.93248E+05-4.39952E+05-2.05298E+06-1.56433E-09-3.62052E-08
 -1        57-5.50923E+06-9.61339E+05-2.96831E+05-2.00028E+06 1.05429E-08 1.96014E-08
 -1        58-5.38615E+06-7.36246E+05-1.03429E+05-2.02892E+06-1.21327E-09 1.92304E-08
 -1        59-5.41150E+06-7.92458E+05-6.17520E+04-2.02755E+06 1.21190E-09-3.87417E-08
 -1        60-5.39731E+06-7.57480E+05-2.41114E+04-2.02716E+06-7.17591E-10 9.46966E-09
 -1        61-5.39988E+06-7.66234E+05-1.36770E+04-2.02799E+06 1.47975E-09-2.68192E-08
 -1        62-5.39748E+06-7.61859E+05-6.50425E+03-2.02863E+06-3.12048E-09 9.08085E-09
 -1        63-5.40110E+06-7.60246E+05-5.25785E+03-2.02485E+06-1.51363E-09 7.22378E-09
 -1        64-5.39604E+06-7.63397E+05-5.82516E+03-2.03031E+06-1.98625E-10 6.58156E-09
 -1        65-5.40499E+06-7.60146E+05-1.16690E+04-2.02181E+06 7.67196E-09-2.85251E-08
 -1        66-5.39363E+06-7.62010E+05-2.03194E+04-2.03167E+06-1.53159E-09-2.09138E-08
 -1        67-5.41813E+06-7.78730E+05-5.18786E+04-2.01754E+06 5.60431E-09 1.39134E-08
 -1        68-5.38314E+06-7.45326E+05-8.68429E+04-2.03445E+06-5.06407E-09-3.46699E-08
 -1        69-5.50094E+06-9.19698E+05-2.49173E+05-1.99373E+06-8.15817E-10-3.95703E-08
 -1        70-5.31197E+06-6.24970E+05-3.69425E+05-2.05427E+06 1.25874E-09-5.18048E-09
 -1        86-1.08863E+03-7.59658E+05 7.61548E+03 3.76724E+02 3.49928E-10-7.98956E-09
 -1        87 7.24310E+03-7.55284E+05 1.58017E+04-1.39680E+03 5.62068E-10-7.59073E-09
 -1        88-6.13436E+03-7.62087E+05 2.42988E+04 1.02010E+03 9.59517E-10 1.99778E-08
 -1        89 4.57393E+04-7.37449E+05 6.54056E+04-2.37781E+03 1.26965E-09 1.35981E-08
 -1        90-3.94522E+04-7.77455E+05 9.25560E+04 1.35783E+03 9.93168E-10 1.38047E-08
 -1       121-6.03671E+02-1.27314E+06 6.22173E+01 4.85923E+02 8.15064E-10 3.48155E-09
 -1       122-3.11907E+02-1.27157E+06 6.38151E+02-1.94762E+03-2.95834E-09 4.30737E-09
 -1       123-6.59030E+02-1.27322E+06 7.92606E+02 1.45257E+03 2.41914E-09 8.21819E-09
 -1       124 9.13939E+02-1.27095E+06 2.60925E+03-4.13420E+03-5.71504E-09 7.45422E-09
 -1       125-1.39891E+03-1.27391E+06 3.74151E+03 2.66625E+03 3.40879E-09-4.57294E-09
 -1       191-1.13099E+00 2.99144E+05 9.29897E+00 9.53820E-03-1.63631E-11-3.22733E-08
 -1       192-1.52982E+00 2.99118E+05 1.60435E+01-7.92725E-02-1.10878E-11-3.49442E-08
 -1       193-2.97825E+00 2.99144E+05 3.00646E+01 6.99146E-02-6.37481E-11-2.66369E-08
 -1       194-3.76486E+00 2.99120E+05 6.06536E+01-1.87079E-01 1.87779E-11 3.14159E-09
 -1       195-6.52840E+00 2.99142E+05 1.18869E+02 1.17837E-01-2.30145E-11 5.11068E-09
 -1       251-1.77554E+06 1.79409E+04-9.29635E+04 3.29441E+04-2.41926E-10-1.40317E-08
 -1       252-1.60343E+06-2.17838E+04-2.68255E+04-1.41953E+05-2.73303E-10-3.27377E-08
 -1       253-1.71395E+06 7.59695E+02-2.29291E+04 1.09306E+05 2.77669E-09-5.54828E-08
 -1       254-1.68886E+06 5.63120E+03-7.09885E+03-2.28112E+05 8.40646E-09-5.53965E-08
 -1       255-1.69965E+06-1.57215E+03-5.40428E+03 1.19397E+05 5.48516E-09-5.11068E-09
 -1       256-1.62397E+06 8.05782E+03 1.31896E+04-1.77665E+05 1.65182E-08-8.00492E-09
 -1       257-1.77263E+06-6.71618E+03-1.76343E+04 5.86307E+04 2.20280E-09 8.83773E-09
 -1       258-1.52972E+06 6.49110E+03 3.26185E+04-1.87108E+04-2.19493E-08 2.43305E-08
 -1       259-1.78465E+06-7.55137E+03-1.92238E+04-3.94725E+04 6.47560E-09 9.46699E-10
 -1       260-1.59755E+06 8.33037E+03 2.08606E+04 1.52116E+05 2.31921E-09-9.29731E-09
 -1       261-1.71150E+06-3.08504E+03-2.63374E+03-1.11964E+05-2.05346E-08-1.66735E-08
 -1       262-1.68707E+06 1.17793E+04 5.70024E+03 2.29366E+05 1.05685E-08-1.67437E-08
 -1       263-1.70401E+06-3.74462E+03 7.55308E+02-1.17007E+05-8.47785E-09 1.54998E-08
 -1       264-1.61035E+06 1.88836E+04 2.55611E+04 1.69896E+05-4.78838E-08 3.90273E-08
 -1       265-1.78104E+06-1.60206E+04-9.64805E+03-5.22413E+04-1.76979E-08 5.52473E-08
 -1       266-3.35344E+04-1.56788E+04 7.86905E+04-8.36732E+01 1.45519E-11 2.58400E-08
 -1       267 3.88765E+04 1.82769E+04 5.56126E+04 9.65316E+01-2.18279E-11-2.66184E-08
 -1       268-5.21323E+03-2.58836E+03 2.06712E+04-1.23004E+01 9.09495E-12-3.70291E-08
 -1       269 6.15534E+03 3.09790E+03 1.34357E+04 1.43275E+01 5.45697E-11 5.35052E-10
 -1       270-9.23922E+02-5.09001E+02 6.48561E+03-1.94437E+00-1.29603E-11 4.62751E-08
 -1       271-3.03796E+06-3.79074E+05-2.27612E+05-1.18096E+06 3.57977E-09-7.02858E-09
 -1       272-3.12768E+06-5.37505E+05-1.46408E+05-1.17009E+06-9.05084E-09 3.70346E-09
 -1       273-3.08140E+06-4.35303E+05-5.37716E+04-1.17010E+06 8.05699E-09 1.63345E-09
 -1       274-3.07604E+06-4.69282E+05-3.00881E+04-1.18704E+06-6.02449E-09-2.04363E-08
 -1       275-3.08862E+06-4.39910E+05-1.25387E+04-1.16686E+06 2.15732E-09 2.10821E-09
 -1       276-3.06663E+06-4.64733E+05-6.61419E+03-1.19277E+06 1.72258E-09-3.08955E-09
 -1       277-3.09098E+06-4.38924E+05-3.26441E+03-1.16486E+06 4.22096E-09 2.10275E-09
 -1       278-3.06334E+06-4.66649E+05-2.28689E+03-1.19630E+06-2.32149E-10 7.65112E-09
 -1       279-3.09217E+06-4.37750E+05-2.41597E+03-1.16356E+06-6.58520E-09-5.02899E-09
 -1       280-3.06223E+06-4.68774E+05-4.34778E+03-1.19827E+06 1.70303E-09-2.14812E-08
 -1       281-3.09230E+06-4.36712E+05-7.88013E+03-1.16301E+06 5.25165E-09-3.00151E-08
 -1       282-3.06553E+06-4.74377E+05-1.89050E+04-1.19804E+06 5.12648E-09-1.06777E-08
 -1       283-3.08901E+06-4.32576E+05-3.36016E+04-1.16367E+06-3.19233E-10-2.32085E-08
 -1       284-3.09585E+06-5.19133E+05-9.16806E+04-1.18978E+06-7.97627E-10-8.80391E-09
 -1       285-3.06266E+06-3.96573E+05-1.42441E+05-1.16955E+06-5.16593E-10 7.45786E-09
 -1       301 2.34935E+04-1.49423E+05 1.71802E+05-2.88072E+05-1.96451E-10 2.06091E-08
 -1       302 2.49224E+04-1.06305E+05 1.10670E+05-4.21959E+05 5.52518E-10 1.03512E-08
 -1       303 1.36035E+03-1.32280E+05 8.10337E+04-2.87590E+05-2.72848E-10-1.28111E-08
 -1       304 2.52901E+04-1.04235E+05 1.13738E+05-4.21502E+05 5.45697E-10 2.96441E-08
 -1       305 2.33859E+04-1.48796E+05 1.78416E+05-2.88598E+05-4.58385E-10-8.10178E-09
 -1       306-8.67248E+06-1.00005E+06-1.22945E+06-2.05269E+06-1.44646E-08 1.70257E-08
 -1       307-1.69445E+06-1.93860E+06 3.00922E+05-4.23879E+06-2.56128E-07-1.67747E-08
 -1       308-7.35505E+06 1.13911E+05-1.79092E+05-5.32127E+05-1.83500E-08 6.48506E-08
 -1       309-4.05029E+06-2.22652E+06 8.62092E+04-6.25169E+06 1.10336E-07 4.62906E-08
 -1       310-7.37643E+06 9.99179E+04-9.60701E+04-5.43139E+05 5.29399E-08-3.41679E-08
 -1       311-1.61485E+06-1.88185E+06 5.63744E+05-4.19739E+06 1.82248E-07 1.78816E-08
 -1       312-8.70847E+06-1.05822E+06-7.29940E+05-2.06986E+06-3.88827E-08 4.19896E-08
 -1       313-6.98188E+05-1.22568E+04 1.00704E+06-3.57490E+05-9.42964E-08-2.69938E-08
 -1       314-7.44241E+06-2.36384E+06-7.40977E+05-3.54292E+06 1.02620E-07-5.22559E-08
 -1       315-5.78023E+06 2.37076E+06 5.75356E+05 6.38939E+05-3.51065E-08-3.58559E-08
 -1       316-4.65288E+06-2.66341E+06-1.11044E+05-3.65384E+06-3.48795E-07-1.31491E-07
 -1       317-9.45463E+06 3.17152E+06 7.53102E+04-1.73312E+05 1.90867E-07-1.35517E-07
 -1       318-4.54541E+06-2.64955E+06-1.87534E+05-3.64338E+06-2.19545E-07-2.96131E-09
 -1       319-6.15229E+06 2.37430E+06 2.33131E+05 6.06480E+05-4.63988E-08 2.77287E-08
 -1       320-7.24846E+06-2.33377E+06-1.29831E+06-3.58931E+06 5.73054E-08-1.82918E-08
 -1       336 5.09830E+02-1.37823E+06-8.51319E+03 3.90323E+03-1.46538E-08-2.25191E-09
 -1       337-3.19305E+03-1.37950E+06-1.00204E+04-9.51839E+03-2.72855E-08-7.09588E-09
 -1       338 5.13057E+02-1.37826E+06-1.40060E+04 5.57096E+03-1.93149E-08-5.41331E-09
 -1       339-1.46976E+04-1.38702E+06-3.11401E+04-1.27738E+04-3.48732E-08-2.51657E-09
 -1       340 9.80200E+03-1.37126E+06-4.85312E+04 7.12282E+03-2.33376E-08-2.65572E-10
 -1       406 2.12532E+01 2.99131E+05 4.84812E+02 2.87700E-02-2.95017E-11 5.39870E-09
 -1       407 1.71199E+02 2.99218E+05 1.02987E+03 6.80434E-01 1.46088E-11-2.45586E-09
 -1       408 5.32569E+02 2.99057E+05 2.05714E+03-7.27280E-01-2.17142E-11 1.57902E-08
 -1       409 2.22601E+03 2.99875E+05 4.63063E+03 7.24083E+00-1.44553E-10 2.17372E-08
 -1       410 6.39164E+03 2.98472E+05 9.45340E+03-6.83602E+00-2.64208E-10 1.41679E-08
 -1       521-1.08923E+07-1.40537E+06-1.75484E+06-2.34871E+06-2.47965E-08 1.74623E-08
 -1       522-1.31091E+06-2.32426E+06 4.40790E+05-5.63225E+06-1.82190E-07-1.14538E-07
 -1       523-8.99522E+06 1.63092E+05-2.36757E+05-3.39408E+05-1.48138E-08-1.12726E-07
 -1       524-5.04951E+06-2.41067E+06 1.44257E+05-8.41514E+06 2.41031E-07-1.94024E-07
 -1       525-9.05026E+06 1.33090E+05-1.38792E+05-3.69714E+05 2.44210E-07-1.78492E-07
 -1       526-1.12737E+06-2.26650E+06 7.94532E+05-5.49303E+06 7.40984E-08-6.20748E-08
 -1       527-1.09402E+07-1.49192E+06-1.10063E+06-2.41222E+06 1.08936E-07-9.16771E-10
 -1       528 4.77783E+05 1.47044E+05 1.39284E+06 8.97051E+04 6.82339E-08-1.36934E-08
 -1       529-9.18824E+06-3.28531E+06-1.11180E+06-4.41768E+06-5.25033E-08-4.54020E-08
 -1       530-6.95967E+06 3.66414E+06 8.10097E+05 1.19151E+06-1.31316E-07 9.23828E-08
 -1       531-5.36860E+06-3.59426E+06-1.49074E+05-4.52916E+06-2.80386E-07 1.52286E-08
 -1       532-1.22330E+07 4.78091E+06 1.51009E+05-3.92532E+05 1.88840E-07-2.03841E-07
 -1       533-5.21646E+06-3.57761E+06-2.14552E+05-4.50916E+06 1.45810E-08-3.31980E-07
 -1       534-7.48209E+06 3.78131E+06 4.56682E+05 1.08634E+06-6.58329E-08 2.27999E-07
 -1       535-8.95043E+06-3.33046E+06-1.69808E+06-4.46942E+06 1.59489E-08 1.60529E-07
 -1       536-4.53756E+05-2.71719E+04 2.75590E+04-2.21830E+04-4.68503E-09 2.55768E-08
 -1       537-2.91834E+05 2.91926E+04 4.57493E+04 5.46193E+04-5.28748E-08 3.76276E-08
 -1       538-3.75334E+05-1.58556E+03 1.10916E+04-3.36780E+04 1.65026E-08 5.72718E-08
 -1       539-3.43651E+05 3.36669E+03 1.22152E+04 6.22141E+04 8.26381E-08 5.06661E-08
 -1       540-4.03033E+05-4.80115E+02-3.07221E+03-2.98301E+04 3.32693E-09 3.94725E-08
 -1       541-2.40605E+05 4.59876E+03 2.79270E+04 3.86602E+04-8.49832E-09 2.59913E-08
 -1       542-4.75615E+05-5.07650E+03-2.02607E+04-1.00249E+04 1.51349E-08 1.13519E-08
 -1       543-1.83689E+05 6.59670E+03 3.80091E+04-7.89704E+03-1.20278E-08-1.03012E-08
 -1       544-4.58441E+05-3.70679E+03-1.78060E+04 1.66420E+04-3.34262E-09-2.65175E-08
 -1       545-2.79588E+05 1.52695E+03 1.69455E+04-4.97732E+04 7.98553E-09-4.94079E-08
 -1       546-3.82246E+05 2.05234E+03-4.43153E+03 3.18215E+04 8.15032E-09-4.95377E-08
 -1       547-3.52636E+05-3.88639E+03-2.89368E+03-6.41087E+04-5.14633E-08-5.22252E-08
 -1       548-3.87297E+05 3.25887E+03-1.41392E+04 3.10550E+04-4.77008E-08-5.63377E-08
 -1       549-2.73532E+05-1.18848E+04-7.15540E+03-4.64712E+04-3.13966E-08-4.32128E-08
 -1       550-4.59108E+05 8.21224E+03-6.30048E+04 1.40977E+04 1.21645E-09-1.80262E-08
 -1       551 2.34152E+04-6.57881E+05 2.25833E+04-1.05616E+06-5.91099E-08-1.19326E-09
 -1       552 5.20392E+04-6.75373E+05 3.14172E+04-1.50497E+06-4.23606E-08 2.32831E-08
 -1       553 3.76665E+04-6.80262E+05 4.64076E+04-1.05188E+06-7.19301E-08 7.33417E-09
 -1       554 8.10270E+04-6.75409E+05 9.78022E+04-1.50660E+06-4.71773E-08 3.48655E-09
 -1       555 6.65825E+04-6.99892E+05 1.73511E+05-1.05268E+06-7.43894E-08-5.13683E-09
 -1       556 1.29235E+05-2.35126E+05 6.44115E+04-2.86066E+05-1.24710E-08-7.95990E-09
 -1       557 2.21050E+05-3.09036E+05 3.44670E+04-3.61802E+05 9.02219E-10 1.59889E-09
 -1       558 1.24658E+05-2.41212E+05 1.29585E+04-2.80592E+05-1.39407E-08-1.13141E-09
 -1       559 2.05339E+05-3.16691E+05 6.88332E+03-3.70595E+05 8.14907E-10 4.55657E-09
 -1       560 1.18903E+05-2.37524E+05 2.28181E+03-2.84518E+05 6.25732E-10 5.70435E-09
 -1       561 1.97512E+05-3.13994E+05 1.43669E+03-3.75699E+05-1.86265E-09-1.22145E-09
 -1       562 1.14374E+05-2.34623E+05 2.61289E+02-2.87767E+05-6.67933E-09 7.25777E-09
 -1       563 1.92199E+05-3.11683E+05 3.53311E+02-3.79120E+05-5.03496E-09 5.82213E-09
 -1       564 1.11357E+05-2.32719E+05 3.53174E+01-2.89897E+05-8.52015E-09-6.71525E-09
 -1       565 1.89061E+05-3.10322E+05 1.33644E+02-3.81108E+05-8.58745E-09 3.73984E-09
 -1       566 1.09914E+05-2.31796E+05 1.19275E+01-2.90912E+05-1.07102E-08 9.14224E-09
 -1       567 1.88067E+05-3.09875E+05-6.56696E+01-3.81645E+05 7.15045E-09 3.01952E-08
 -1       568 1.10095E+05-2.31923E+05-3.72944E+02-2.90877E+05-5.36238E-09-7.44330E-09
 -1       569 1.88307E+05-3.09790E+05-9.23376E+02-3.79897E+05-4.53474E-09 1.21363E-08
 -1       570 1.12642E+05-2.34024E+05-2.20237E+03-2.90444E+05 2.32831E-09 5.42059E-09
 -1       571 2.26502E+05 8.34373E+03 1.22661E+04-5.94939E+04 7.54881E-10 8.09928E-09
 -1       572 2.28318E+05 2.95344E+03 6.00991E+03-6.52559E+04-1.94632E-10 9.77025E-09
 -1       573 2.27230E+05 7.54845E+02 2.67010E+03-5.93619E+04 2.45700E-09 3.25372E-09
 -1       574 2.27439E+05 2.99505E+02 1.33812E+03-6.54089E+04 1.47406E-09 2.87582E-09
 -1       575 2.27312E+05 9.93066E+01 6.31122E+02-5.93443E+04 6.16751E-10 1.29371E-08
 -1       576 2.27323E+05 8.30949E+01 3.22147E+02-6.54293E+04-1.24004E-09 1.13073E-08
 -1       577 2.27331E+05 6.04214E+01 1.60131E+02-5.93420E+04-1.42791E-09 4.93810E-09
 -1       578 2.27321E+05 6.67568E+01 9.04302E+01-6.54319E+04-2.86764E-09 4.02224E-09
 -1       579 2.27356E+05 5.09521E+01 6.04511E+01-5.93418E+04 2.03454E-09-4.33056E-09
 -1       580 2.27355E+05 5.15960E+01 6.56579E+01-6.54285E+04-3.92538E-09-1.52527E-08
 -1       581 2.27395E+05 3.43009E+01 9.82398E+01-5.93455E+04 7.43057E-10-2.56023E-10
 -1       582 2.27426E+05 5.39942E+01 1.95203E+02-6.53909E+04 2.93585E-09 3.14913E-09
 -1       583 2.27440E+05 9.51306E+01 3.77929E+02-5.93795E+04 2.62298E-09-1.96542E-09
 -1       584 2.27621E+05 3.96007E+02 8.50417E+02-6.51055E+04 1.17325E-09 5.08021E-09
 -1       585 2.27400E+05 1.14109E+03 1.72769E+03-5.96312E+04-9.96806E-10-6.00630E-09
 -1       586-2.87747E+03 7.44630E+04-3.46175E+03-2.02799E+05-1.66983E-09 8.09109E-10
 -1       587-7.22353E+02 7.40431E+04-8.48050E+01-2.23226E+05-1.98452E-09-2.34809E-09
 -1       588 7.31100E+02 7.40816E+04 3.19876E+03-2.02705E+05-1.59525E-09 1.11295E-08
 -1       589 4.26219E+03 7.58196E+04 8.90030E+03-2.22988E+05-2.13731E-09-3.27691E-09
 -1       590 1.26721E+04 7.30934E+04 1.89065E+04-2.03053E+05-1.22236E-09-1.98816E-09
 -1       591-4.60779E+04-1.19071E+04-1.58566E+04-2.21101E+04-2.35900E-10-8.28368E-09
 -1       592-4.82483E+04-1.51178E+04-8.58886E+03-2.54660E+04-4.74301E-10-2.86218E-09
 -1       593-4.76707E+04-1.07493E+04-3.57538E+03-2.32659E+04-1.57274E-09-7.85644E-09
 -1       594-4.60492E+04-1.28016E+04-1.78322E+03-2.55617E+04-1.24598E-09-4.32007E-09
 -1       595-4.77924E+04-1.07449E+04-8.19147E+02-2.33186E+04-3.25815E-09 1.80175E-09
 -1       596-4.58994E+04-1.26956E+04-4.17075E+02-2.55449E+04-2.18293E-10 8.02865E-09
 -1       597-4.78077E+04-1.07554E+04-2.28492E+02-2.33206E+04-3.91154E-09-4.05873E-09
 -1       598-4.58848E+04-1.26915E+04-1.86218E+02-2.55402E+04-1.51695E-08 8.39242E-09
 -1       599-4.78065E+04-1.07557E+04-2.41036E+02-2.33203E+04-3.70324E-09-2.21132E-09
 -1       600-4.59002E+04-1.26967E+04-4.50291E+02-2.55439E+04 8.32586E-10-6.41813E-09
 -1       601-4.77879E+04-1.07450E+04-8.89637E+02-2.33173E+04-3.05181E-09-5.51086E-09
 -1       602-4.60628E+04-1.28115E+04-1.93955E+03-2.55596E+04-5.20117E-10-1.58252E-09
 -1       603-4.76535E+04-1.07520E+04-3.88997E+03-2.32603E+04 2.62617E-10 3.01361E-09
 -1       604-4.84670E+04-1.53184E+04-9.34438E+03-2.54385E+04-1.28125E-10 1.78920E-09
 -1       605-4.59063E+04-1.20236E+04-1.72514E+04-2.20158E+04-8.31960E-10 6.64113E-09
 -1       606 2.75758E+04-1.08532E+04-1.95093E+04 2.65813E+04 8.75843E-10 2.10275E-09
 -1       607 2.42372E+04-3.51709E+03-9.71471E+03 2.98451E+04 7.85803E-10-2.94108E-09
 -1       608 2.61320E+04-6.08647E+02-4.35018E+03 2.63737E+04 1.64800E-09-9.24297E-09
 -1       609 2.57582E+04-1.75986E+02-2.19718E+03 3.00793E+04-1.17871E-09 1.50737E-09
 -1       610 2.59587E+04 8.14952E+00-1.04928E+03 2.63502E+04-1.08048E-09 3.16390E-09
 -1       611 2.58909E+04 1.89443E+01-5.29010E+02 3.01048E+04-2.81216E-09 1.24010E-09
 -1       612 2.59134E+04 2.44890E+01-2.52537E+02 2.63479E+04-3.14230E-09 2.44449E-09
 -1       613 2.58900E+04 2.75485E+01-1.14037E+02 3.01079E+04-4.70436E-09 1.47293E-09
 -1       614 2.58890E+04 2.44536E+01-2.93985E+01 2.63471E+04-1.70985E-10 5.25938E-09
 -1       615 2.58781E+04 3.29669E+01 4.17667E+01 3.01083E+04 1.65528E-09 5.91967E-09
 -1       616 2.58703E+04 3.03571E+01 1.30724E+02 2.63474E+04-3.89991E-09-2.88128E-09
 -1       617 2.58881E+04 6.43507E+01 3.00628E+02 3.01078E+04 1.46611E-09 7.49151E-09
 -1       618 2.58399E+04 1.19729E+02 6.06698E+02 2.63475E+04 1.59207E-09 3.64003E-09
 -1       619 2.60988E+04 5.35666E+02 1.36298E+03 3.01070E+04-7.95239E-10-3.95016E-09
 -1       620 2.56362E+04 1.56037E+03 2.73964E+03 2.63466E+04 1.03717E-09 5.72891E-09
 -1       621 2.70503E+02 2.31540E+05 2.48245E+03 1.59233E+04 7.18501E-11 5.95992E-09
 -1       622 3.33361E+02 2.32145E+05 2.31723E+03 2.31729E+04 1.28239E-10 9.48603E-09
 -1       623 2.37421E+01 2.31679E+05 2.93772E+03 1.58470E+04 8.95284E-11 4.65252E-09
 -1       624 1.41703E+03 2.33123E+05 5.81725E+03 2.32509E+04 1.84087E-10-7.66420E-09
 -1       625 1.42294E+03 2.30532E+05 1.02252E+04 1.58445E+04 2.99224E-10-1.21360E-08
 -1       626 2.04447E+05 5.36905E+04 4.46652E+03 1.06301E+05 1.51749E-09 9.27503E-09
 -1       627 2.02065E+05 5.52697E+04 2.15237E+03 1.10427E+05-1.76260E-09 2.64561E-09
 -1       628 2.04581E+05 5.16171E+04 9.09448E+02 1.07022E+05-4.86671E-09-1.34496E-08
 -1       629 2.01468E+05 5.47156E+04 4.45278E+02 1.10672E+05-1.78761E-09 8.35348E-09
 -1       630 2.04590E+05 5.15190E+04 2.05712E+02 1.07047E+05-1.14233E-09-7.61852E-09
 -1       631 2.01398E+05 5.46990E+04 1.09806E+02 1.10672E+05 2.65572E-09 3.18320E-09
 -1       632 2.04582E+05 5.15258E+04 7.06450E+01 1.07039E+05 4.89990E-09 1.51290E-08
 -1       633 2.01385E+05 5.47038E+04 7.62814E+01 1.10665E+05 2.24281E-09-3.32943E-09
 -1       634 2.04572E+05 5.15262E+04 1.21065E+02 1.07035E+05 2.23440E-09-2.68460E-09
 -1       635 2.01391E+05 5.47048E+04 2.43794E+02 1.10665E+05 2.14050E-09 8.27708E-09
 -1       636 2.04561E+05 5.15242E+04 4.91634E+02 1.07032E+05-3.71548E-09-3.24872E-09
 -1       637 2.01494E+05 5.47822E+04 1.08026E+03 1.10662E+05 3.02634E-09-2.65027E-09
 -1       638 2.04521E+05 5.17641E+04 2.21965E+03 1.06923E+05-3.86217E-09 2.65163E-09
 -1       639 2.02659E+05 5.64035E+04 5.25117E+03 1.10317E+05-4.11103E-09-2.76214E-09
 -1       640 2.04364E+05 5.66003E+04 1.08972E+04 1.04875E+05-7.83984E-10-4.42924E-09
 -1       656 5.38543E+04-1.36896E+06-1.30005E+05-6.54804E+02 1.16415E-10 6.74476E-10
 -1       657-7.12026E+04-1.42766E+06-1.07600E+05 7.37434E+03 1.17325E-10 1.99637E-08
 -1       658 1.71211E+04-1.38567E+06-6.61411E+04-2.15311E+03 6.91216E-10-1.24384E-08
 -1       659-7.66485E+04-1.43024E+06-1.14753E+05 8.46026E+03-8.33097E-10-7.71364E-09
 -1       660 5.92876E+04-1.36638E+06-1.42306E+05-1.74071E+03-1.14233E-09 5.61394E-09
 -1       661 1.67174E+05 1.80137E+04 1.65229E+04 6.53766E+04 2.20098E-09 3.19778E-09
 -1       662 1.76055E+05 3.07017E+04 1.11342E+04 6.21933E+04 2.67937E-09-1.27986E-08
 -1       663 1.70416E+05 2.33166E+04 3.89458E+03 6.44377E+04 1.06115E-09-3.21825E-09
 -1       664 1.72300E+05 2.44971E+04 2.32891E+03 6.33373E+04 1.34150E-09 3.10544E-09
 -1       665 1.70905E+05 2.40440E+04 9.18715E+02 6.42982E+04 1.30046E-09-4.88322E-09
 -1       666 1.71724E+05 2.36627E+04 5.36472E+02 6.35178E+04-1.14373E-09-6.05959E-09
 -1       667 1.70988E+05 2.41291E+04 2.83662E+02 6.42654E+04-2.46828E-09 4.70300E-09
 -1       668 1.71634E+05 2.35983E+04 2.86072E+02 6.35654E+04-1.32383E-09 4.91980E-09
 -1       669 1.70995E+05 2.41065E+04 3.84866E+02 6.42511E+04 1.74772E-09 8.71992E-09
 -1       670 1.71728E+05 2.38047E+04 8.35790E+02 6.35670E+04 3.33661E-09 1.11606E-08
 -1       671 1.70893E+05 2.39268E+04 1.48324E+03 6.42621E+04-3.28185E-10-2.01703E-09
 -1       672 1.72593E+05 2.52478E+04 3.79422E+03 6.33582E+04-1.27146E-09 3.09205E-09
 -1       673 1.70135E+05 2.26998E+04 6.35828E+03 6.44460E+04-2.38140E-09 1.03637E-09
 -1       674 1.78646E+05 3.54612E+04 1.81833E+04 6.15784E+04-1.16148E-09 1.85537E-09
 -1       675 1.64879E+05 1.39991E+04 2.69900E+04 6.59342E+04 6.30280E-10 5.99721E-09
 -1       676 2.09848E+01-2.53651E+05-9.74879E+02 6.63202E+00-3.68345E-10-1.93570E-09
 -1       677-2.58909E+02-2.53887E+05-1.78416E+03-1.32558E+01-1.02429E-09-2.31110E-08
 -1       678 1.72823E+02-2.53483E+05-3.15394E+03 6.61923E+00-5.75255E-11 3.06072E-10
 -1       679-3.15486E+03-2.55791E+05-7.49229E+03-1.32068E+01 1.07775E-10 4.86035E-10
 -1       680 1.88282E+03-2.51749E+05-1.20750E+04 6.50821E+00-1.01863E-09 9.89375E-09
 -1       771-2.68821E+06-5.46690E+05-8.36202E+04-1.19458E+06-1.97178E-08-1.61235E-08
 -1       772-2.64770E+06-6.01144E+05-4.38721E+04-1.25662E+06-1.27548E-08 6.33190E-09
 -1       773-2.70298E+06-5.35013E+05-2.07930E+04-1.19990E+06-2.40107E-09 8.89122E-09
 -1       774-2.63894E+06-5.92369E+05-9.61899E+03-1.26714E+06 1.76951E-08-1.03319E-09
 -1       775-2.70913E+06-5.30656E+05-6.16367E+03-1.20163E+06-6.99947E-09 1.91721E-09
 -1       776-2.64186E+06-5.91985E+05-2.48139E+03-1.27432E+06-1.18816E-08 2.65936E-09
 -1       777-2.71418E+06-5.26949E+05-2.36940E+03-1.20312E+06 1.74623E-10 2.48838E-09
 -1       778-2.64524E+06-5.91751E+05-7.39790E+02-1.28041E+06 4.93310E-09 4.58931E-09
 -1       779-2.71840E+06-5.23779E+05-1.09037E+03-1.20441E+06 1.18744E-08 1.27256E-08
 -1       780-2.64823E+06-5.91486E+05-2.28416E+02-1.28534E+06 1.05138E-09-6.42103E-10
 -1       781-2.72168E+06-5.21258E+05-4.59286E+02-1.20542E+06-2.08747E-08 1.47884E-09
 -1       782-2.65052E+06-5.91225E+05 2.59634E-02-1.28896E+06-3.35567E-08-5.71640E-09
 -1       783-2.72396E+06-5.19542E+05-5.17376E+01-1.20614E+06-1.02664E-08-6.85168E-09
 -1       784-2.65191E+06-5.90963E+05 2.53367E+02-1.29117E+06-1.03246E-08 4.34284E-10
 -1       785-2.72516E+06-5.18634E+05 3.92817E+02-1.20653E+06-2.23135E-08 7.71252E-10
 -1       786 1.29552E+05-9.08300E+03 2.10131E+04-1.20637E+02 1.12368E-09 1.70030E-08
 -1       787 1.38663E+05 1.05153E+04 1.48662E+04 3.05312E+01 3.01775E-09 1.39955E-08
 -1       788 1.33066E+05-1.42377E+03 5.43734E+03-9.48573E+01 1.64878E-09 1.27454E-08
 -1       789 1.34570E+05 1.64724E+03 3.41452E+03-1.11827E+01 5.43745E-10 6.03188E-09
 -1       790 1.33646E+05-2.22186E+02 1.38507E+03-7.89277E+01-1.03721E-09 1.21338E-09
 -1       791 1.33892E+05 2.56947E+02 8.05019E+02-3.89331E+01-1.29631E-09 6.18729E-09
 -1       792 1.33744E+05-3.45232E+01 3.51199E+02-6.71071E+01-9.78138E-10-1.38596E-09
 -1       793 1.33778E+05 4.06709E+01 1.97172E+02-6.13529E+01 4.09499E-10-2.36322E-09
 -1       794 1.33760E+05-6.04838E+00 9.56282E+01-5.65075E+01 1.28178E-09 6.10304E-09
 -1       795 1.33761E+05 1.20721E+01 6.54636E+01-8.36683E+01-9.97996E-10 1.69708E-08
 -1       796 1.33761E+05-5.93807E+00 5.39867E+01-4.47914E+01 8.38686E-10 6.82587E-09
 -1       797 1.33773E+05 3.92469E+01 9.08461E+01-1.10758E+02 9.84256E-10-3.41551E-09
 -1       798 1.33748E+05-3.32048E+01 1.31656E+02-2.94173E+01 7.21212E-10-1.01137E-09
 -1       799 1.33868E+05 2.44681E+02 3.48409E+02-1.48531E+02 1.80428E-09 2.58170E-09
 -1       800 1.33666E+05-2.11217E+02 4.89160E+02-7.01797E+00 4.39365E-10 5.84367E-09
 -1       801 8.99539E+04-3.78408E+06-3.76540E+05 1.25584E+05 2.68919E-08-1.44919E-08
 -1       802-9.98326E+04-2.99775E+06-9.54526E+04-1.05189E+05 7.40401E-08-6.34054E-09
 -1       803 6.80351E+03-3.66296E+06-1.21221E+05 1.83599E+05 4.14802E-08 3.15163E-08
 -1       804-2.67303E+04-3.25561E+06-1.18510E+04 9.53138E+04 1.61340E-08 2.17610E-08
 -1       805 1.19914E+04-3.52840E+06-4.53600E+04-7.48784E+04 5.81736E-09 8.60996E-09
 -1       806-2.49513E+05-4.72642E+04-1.82700E+04-9.76173E+04 3.28691E-09 1.37597E-08
 -1       807-2.51139E+05-4.40936E+04-8.97583E+03-1.01826E+05-2.89219E-10 3.33196E-09
 -1       808-2.50000E+05-4.06951E+04-3.80791E+03-1.00749E+05 4.90218E-10-9.67941E-09
 -1       809-2.49259E+05-4.15651E+04-1.86199E+03-1.02040E+05 5.66729E-09 2.01590E-08
 -1       810-2.50076E+05-4.04660E+04-8.53287E+02-1.00888E+05 5.68843E-09 8.61746E-11
 -1       811-2.49115E+05-4.14626E+04-4.24192E+02-1.02013E+05 2.05000E-09 1.40960E-09
 -1       812-2.50089E+05-4.04849E+04-2.14058E+02-1.00888E+05 1.56251E-09-5.69798E-09
 -1       813-2.49097E+05-4.14637E+04-1.38492E+02-1.02000E+05-1.44382E-09 1.06866E-08
 -1       814-2.50086E+05-4.04914E+04-1.36017E+02-1.00886E+05-5.67616E-09-1.38125E-08
 -1       815-2.49101E+05-4.14650E+04-2.18431E+02-1.01996E+05-3.70346E-09-4.85034E-09
 -1       816-2.50072E+05-4.04893E+04-4.13136E+02-1.00884E+05 2.35559E-09 1.41640E-08
 -1       817-2.49173E+05-4.15040E+04-8.86977E+02-1.01989E+05-2.28647E-09 3.65162E-09
 -1       818-2.50021E+05-4.06125E+04-1.80865E+03-1.00826E+05-6.36646E-12 2.97587E-09
 -1       819-2.50164E+05-4.25987E+04-4.25655E+03-1.01761E+05-1.74214E-09-1.14960E-09
 -1       820-2.49689E+05-4.38206E+04-8.66312E+03-9.94456E+04-1.63163E-09 5.06407E-09
 -1       821-3.04269E+05 1.68289E+04-3.89209E+04 3.93196E+02 1.81580E-06-6.73208E-08
 -1       822-3.21127E+05-1.94822E+04-2.75411E+04-1.07615E+03 3.65407E-06 2.69765E-08
 -1       823-3.10772E+05 2.63886E+03-1.00801E+04 4.23957E+02 1.81941E-06 6.45150E-09
 -1       824-3.13529E+05-3.05359E+03-6.34065E+03-9.05569E+02 4.93694E-09 5.10806E-09
 -1       825-3.11864E+05 4.12594E+02-2.60999E+03 2.22615E+02 6.27995E-10-2.17540E-09
 -1       826-3.12249E+05-4.85972E+02-1.56776E+03-3.63078E+02-1.32274E-09-3.91083E-09
 -1       827-3.12050E+05 7.24419E+01-8.21654E+02-1.18544E+02-1.03046E-09 3.48177E-09
 -1       828-3.12079E+05-1.48550E+02-7.18137E+02 3.04596E+02-4.41292E-09 1.54267E-08
 -1       829-3.12033E+05 7.54820E+01-8.38623E+02-4.45070E+02 5.48805E-10-7.67872E-09
 -1       830-3.12297E+05-5.06157E+02-1.63350E+03 7.94676E+02 1.51446E-09 4.96328E-09
 -1       831-3.11833E+05 4.30498E+02-2.71032E+03-6.08633E+02-2.76896E-09 8.55573E-09
 -1       832-3.13607E+05-3.17961E+03-6.60496E+03 8.84965E+02-1.22112E-09 9.05220E-09
 -1       833-3.10725E+05 2.74719E+03-1.04988E+04-5.35360E+02-1.44219E-09-1.37788E-09
 -1       834-3.21473E+05-2.02872E+04-2.86764E+04 5.32475E+02-1.06150E-09-1.39457E-08
 -1       835-3.03969E+05 1.75244E+04-4.05399E+04-2.56130E+02 4.92536E-09 6.98492E-10
 -1       836-1.03799E+03 2.87469E+05 1.74553E+04-1.66115E+04-3.99268E-10-3.78122E-09
 -1       837 3.79977E+03 2.92899E+05 1.49441E+04-3.34215E+04-1.78034E-10 9.06539E-10
 -1       838-4.00035E+02 2.88968E+05 1.54701E+04-1.65463E+04-2.09639E-10 7.40488E-09
 -1       839 9.91078E+03 2.97454E+05 2.95044E+04-3.34603E+04 3.51520E-10 4.27576E-10
 -1       840-3.00917E+03 2.82871E+05 4.71530E+04-1.65721E+04 7.27596E-12 3.25838E-09
 -1       856-7.45299E+04 7.61523E+03-2.00685E+04-4.25337E+02 1.38868E-10 3.92356E-09
 -1       857-8.28148E+04-8.93460E+03-1.38161E+04 4.81356E+03-8.40544E-10 1.56888E-10
 -1       858-7.78047E+04 1.06716E+03-5.20799E+03-4.47334E+02-4.11603E-10 2.37651E-09
 -1       859-7.90549E+04-1.24324E+03-3.14451E+03 4.84813E+03 2.51532E-09 1.98708E-09
 -1       860-7.82942E+04 1.48593E+02-1.32068E+03-4.59965E+02 8.62173E-10 2.74827E-09
 -1       861-7.84915E+04-1.66062E+02-7.32472E+02 4.86542E+03-4.20061E-09 3.11485E-09
 -1       862-7.83705E+04 1.96617E+01-3.16393E+02-4.64649E+02 2.34202E-09-3.54024E-09
 -1       863-7.84000E+04-1.20874E+01-1.42302E+02 4.86769E+03 6.51283E-09-1.02245E-08
 -1       864-7.83859E+04-1.96215E+00-1.60882E+01-4.62235E+02 3.40088E-09-9.82794E-10
 -1       865-7.83640E+04 3.80122E+01 1.06714E+02 4.85519E+03 2.55240E-09 6.76485E-09
 -1       866-7.84048E+04-3.07888E+01 2.46280E+02-4.52154E+02 1.09753E-09 2.37181E-09
 -1       867-7.82396E+04 2.56539E+02 6.26375E+02 4.82778E+03-1.08878E-09 3.51162E-09
 -1       868-7.85065E+04-2.17511E+02 1.04555E+03-4.34817E+02-2.13902E-10-2.13691E-09
 -1       869-7.74667E+04 1.80875E+03 2.79159E+03 4.78225E+03-7.97797E-11-1.58896E-08
 -1       870-7.91718E+04-1.54225E+03 4.04999E+03-4.06623E+02 1.76897E-10-6.05883E-09
 -1       871-4.60121E+03-1.13839E+04-1.51969E+04 1.00993E+05 5.94810E-10-6.55473E-09
 -1       872-1.92692E+03-1.48199E+04-6.24579E+03 1.30937E+05 1.10049E-10 9.44829E-09
 -1       873 3.20556E+01-1.32067E+04 7.54833E+02 1.00771E+05-3.84262E-11-1.11950E-08
 -1       874 2.36731E+03-1.10884E+04 8.31526E+03 1.30977E+05-6.16183E-11-5.54405E-09
 -1       875 5.43884E+03-1.51804E+04 1.85285E+04 1.00957E+05 7.36691E-11-1.26729E-08
 -1       876 2.41839E+05 4.13341E+04 1.26964E+04 9.77286E+04-2.05233E-09-3.42425E-09
 -1       877 2.42615E+05 4.40704E+04 6.78026E+03 1.01429E+05-1.89175E-09-5.51631E-09
 -1       878 2.43025E+05 3.99293E+04 2.84061E+03 9.87713E+04 5.50244E-10-1.03080E-08
 -1       879 2.40889E+05 4.23492E+04 1.41520E+03 1.01517E+05 3.81499E-09 4.58090E-09
 -1       880 2.43110E+05 3.99142E+04 6.59030E+02 9.88139E+04-6.32099E-11 1.34503E-09
 -1       881 2.40774E+05 4.22759E+04 3.51473E+02 1.01498E+05 5.42786E-09 1.92904E-09
 -1       882 2.43119E+05 3.99249E+04 2.24080E+02 9.88151E+04 3.08023E-09 6.89828E-09
 -1       883 2.40766E+05 4.22723E+04 2.39635E+02 1.01492E+05 1.30359E-09 1.40685E-08
 -1       884 2.43113E+05 3.99223E+04 3.80064E+02 9.88153E+04-1.90016E-09 1.60106E-08
 -1       885 2.40796E+05 4.22777E+04 7.63432E+02 1.01502E+05 6.26343E-09 2.00982E-08
 -1       886 2.43084E+05 3.99000E+04 1.53833E+03 9.88123E+04 5.28297E-09 4.63524E-09
 -1       887 2.41067E+05 4.24549E+04 3.36018E+03 1.01541E+05-3.60140E-09-1.57232E-08
 -1       888 2.42872E+05 3.99373E+04 6.77084E+03 9.87047E+04-5.77870E-09-9.09949E-10
 -1       889 2.45100E+05 4.66451E+04 1.61747E+04 1.01415E+05-1.81712E-09-2.00885E-09
 -1       890 2.40113E+05 4.32147E+04 3.02943E+04 9.61221E+04 3.26895E-09-1.19926E-08
 -1       891-1.33116E+02-1.36104E+05-1.63367E+03 2.47007E+04 1.07593E-09 3.92788E-09
 -1       892-2.35370E+02-1.36505E+05-1.76674E+03 3.74044E+04 4.51791E-10 7.14226E-09
 -1       893-2.47683E+01-1.36156E+05-2.51411E+03 2.47061E+04-4.22006E-10 1.39107E-08
 -1       894-1.34544E+03-1.37461E+05-5.21238E+03 3.72698E+04-8.13998E-11 1.63468E-08
 -1       895-1.05620E+03-1.35069E+05-9.18262E+03 2.48341E+04 8.03595E-10 1.02282E-08
 -1       956-3.06631E+05-4.31409E+03-1.08252E+04 2.11544E+04 2.33285E-09-7.19399E-09
 -1       957-3.08766E+05-1.46595E+03-5.55708E+03 2.54732E+04 6.08270E-09-9.71363E-09
 -1       958-3.07594E+05-1.27776E+02-2.50372E+03 2.10270E+04 3.86535E-09-3.44744E-09
 -1       959-3.07762E+05-3.35466E+01-1.27883E+03 2.56135E+04 5.22959E-12-9.13997E-09
 -1       960-3.07682E+05 2.52962E+01-6.23542E+02 2.10146E+04 2.08047E-09-8.78799E-10
 -1       961-3.07691E+05 2.14136E+01-3.30974E+02 2.56278E+04 1.55887E-09 1.66015E-08
 -1       962-3.07700E+05 2.16289E+01-1.89788E+02 2.10126E+04-2.51021E-09 1.13082E-08
 -1       963-3.07688E+05 2.31204E+01-1.52963E+02 2.56303E+04-4.55032E-09-5.68434E-12
 -1       964-3.07704E+05 2.38081E+01-1.86508E+02 2.10120E+04-7.45558E-10-5.40012E-09
 -1       965-3.07699E+05 2.60541E+01-3.22983E+02 2.56301E+04 1.59284E-09 1.25481E-08
 -1       966-3.07693E+05 3.17793E+01-6.06788E+02 2.10129E+04 6.26960E-09-3.16459E-09
 -1       967-3.07777E+05-2.29004E+01-1.24472E+03 2.56210E+04 1.19880E-08 4.43993E-09
 -1       968-3.07614E+05-1.12916E+02-2.43618E+03 2.10212E+04 7.03449E-09-6.52301E-09
 -1       969-3.08762E+05-1.41323E+03-5.40891E+03 2.55240E+04 7.34872E-10-1.05274E-08
 -1       970-3.06682E+05-4.18492E+03-1.05358E+04 2.11106E+04-4.32465E-10 3.46427E-09
 -1       971-2.87006E+05-1.48560E+03-8.20386E+03 1.35204E+04-1.48202E-09 1.72221E-09
 -1       972-2.88997E+05-1.07060E+03-4.46774E+03 1.88497E+04-2.03136E-09-7.19592E-09
 -1       973-2.87919E+05-1.88492E+01-2.00076E+03 1.34084E+04-3.03316E-09 3.61752E-10
 -1       974-2.88054E+05-2.17261E+01-1.03665E+03 1.89719E+04 9.74978E-10-3.06409E-09
 -1       975-2.87991E+05 2.00516E+01-5.17459E+02 1.33979E+04-3.72438E-10-1.47485E-08
 -1       976-2.87999E+05 2.16730E+01-2.97202E+02 1.89850E+04-4.55475E-09-7.85349E-09
 -1       977-2.88005E+05 2.01988E+01-2.13335E+02 1.33953E+04 1.36833E-09 2.70802E-10
 -1       978-2.88003E+05 2.67519E+01-2.46408E+02 1.89886E+04 8.80664E-09 5.52632E-09
 -1       979-2.88005E+05 2.70505E+01-3.93121E+02 1.33942E+04 5.28320E-09 8.86075E-09
 -1       980-2.88032E+05 2.92457E+01-7.57324E+02 1.89893E+04 3.21427E-09 2.43165E-09
 -1       981-2.87980E+05 4.59303E+01-1.46585E+03 1.33946E+04 8.43329E-10-2.59882E-09
 -1       982-2.88233E+05-7.90123E+01-3.02937E+03 1.89835E+04-3.26509E-09 8.19041E-09
 -1       983-2.87796E+05-4.78620E+01-5.88582E+03 1.34002E+04 1.34060E-09 3.72575E-09
 -1       984-2.91063E+05-3.15287E+03-1.31806E+04 1.89072E+04-1.56251E-09 5.16047E-09
 -1       985-2.85131E+05-4.35475E+03-2.42038E+04 1.34740E+04-3.55158E-10-6.42467E-09
 -3
    1PSTEP                        19          10           1          
  100CL  110 5.83069E-01         409                     0   10           1
 -4  DISP        4    1
 -5  D1          1    2    1    0
 -5  D2          1    2    2    0
 -5  D3          1    2    3    0
 -5  ALL         1    2    0    0    1ALL
 -1         1 7.16804E-04 0.00000E+00 0.00000E+00
 -1         2 6.68950E-04 8.59986E-30 1.32349E-23
 -1         3 2.29906E-04 2.67629E-27-1.32349E-23
 -1         5 1.34968E-04 6.66847E-26-3.30872E-24
 -1         8 6.94213E-04-7.19118E-07 0.00000E+00
 -1         9 6.73222E-04-2.28466E-06 0.00000E+00
 -1        10 2.09841E-04-2.94441E-06 0.00000E+00
 -1        12 1.35328E-04 6.56010E-07 1.65436E-24
 -1        15 6.67060E-04-7.98670E-07 2.06795E-25
 -1        16 6.74412E-04-2.81385E-06 0.00000E+00
 -1        17 1.47128E-04-6.39590E-06 0.00000E+00
 -1        18 1.35087E-04 1.36407E-05 0.00000E+00
 -1        19 1.36408E-04 1.30861E-06 0.00000E+00
 -1        20 1.36555E-04 6.35212E-06 0.00000E+00
 -1        21 1.35865E-04 9.16725E-06 0.00000E+00
 -1        24 2.53919E-05-9.07487E-06 0.00000E+00
 -1        25 1.38413E-04 1.38035E-05 0.00000E+00
 -1        26 1.39123E-04 1.81301E-06 0.00000E+00
 -1        27 1.37325E-04 3.38297E-06 0.00000E+00
 -1        28 1.36915E-04 8.62472E-06 0.00000E+00
 -1        32 0.00000E+00 0.00000E+00 0.00000E+00
 -1        33 1.40755E-04 2.42954E-06 0.00000E+00
 -1        34 1.38975E-04 3.35052E-06 0.00000E+00
 -1        35 1.37321E-04 8.33296E-06 0.00000E+00
 -1        51 7.15352E-04-1.24771E-07 0.00000E+00
 -1        52 7.12640E-04-2.39685E-07 0.00000E+00
 -1        53 7.08914E-04-3.54537E-07 0.00000E+00
 -1        54 7.04429E-04-4.71215E-07 0.00000E+00
 -1        55 6.99443E-04-5.90867E-07 6.20385E-24
 -1        56 7.14376E-04-6.74147E-07 0.00000E+00
 -1        57 7.11704E-04-9.62402E-07 0.00000E+00
 -1        58 7.08890E-04-8.56082E-07-5.29396E-23
 -1        59 7.05931E-04-4.10874E-07 2.64698E-23
 -1        60 7.02875E-04 2.91264E-07 5.29396E-23
 -1        61 6.99757E-04 1.14753E-06 0.00000E+00
 -1        62 6.96626E-04 2.03860E-06 0.00000E+00
 -1        63 6.93528E-04 2.84227E-06-2.64698E-23
 -1        64 6.90505E-04 3.44670E-06 5.29396E-23
 -1        65 6.87595E-04 3.75136E-06 2.64698E-23
 -1        66 6.84823E-04 3.68997E-06 0.00000E+00
 -1        67 6.82208E-04 3.21776E-06-2.64698E-23
 -1        68 6.79747E-04 2.33586E-06 0.00000E+00
 -1        69 6.77443E-04 1.07400E-06 2.64698E-23
 -1        70 6.75253E-04-5.05023E-07 5.29396E-23
 -1        86 6.69109E-04-3.77389E-07 0.00000E+00
 -1        87 6.69581E-04-7.55217E-07 0.00000E+00
 -1        88 6.70307E-04-1.13324E-06 0.00000E+00
 -1        89 6.71223E-04-1.51360E-06 6.61744E-24
 -1        90 6.72228E-04-1.89330E-06 0.00000E+00
 -1       121 2.29343E-04-4.83624E-07-1.32349E-23
 -1       122 2.27657E-04-9.68471E-07 0.00000E+00
 -1       123 2.24853E-04-1.45574E-06 0.00000E+00
 -1       124 2.20940E-04-1.94669E-06 6.61744E-24
 -1       125 2.15930E-04-2.44229E-06 0.00000E+00
 -1       191 1.34978E-04 1.09341E-07-3.30872E-24
 -1       192 1.35008E-04 2.18680E-07 0.00000E+00
 -1       193 1.35058E-04 3.28019E-07-3.30872E-24
 -1       194 1.35128E-04 4.37356E-07 0.00000E+00
 -1       195 1.35218E-04 5.46687E-07 0.00000E+00
 -1       251 6.93592E-04-6.92935E-06 1.32349E-23
 -1       252 6.92618E-04-3.44076E-05-6.61744E-24
 -1       253 6.91124E-04-7.76586E-05 0.00000E+00
 -1       254 6.89170E-04-1.30798E-04-6.61744E-24
 -1       255 6.87156E-04-1.85125E-04 0.00000E+00
 -1       256 6.85509E-04-2.31912E-04 0.00000E+00
 -1       257 6.84383E-04-2.64587E-04-1.32349E-23
 -1       258 6.83698E-04-2.76918E-04 6.61744E-24
 -1       259 6.83049E-04-2.68361E-04 0.00000E+00
 -1       260 6.82017E-04-2.38896E-04-6.61744E-24
 -1       261 6.80467E-04-1.94336E-04 0.00000E+00
 -1       262 6.78495E-04-1.40864E-04-6.61744E-24
 -1       263 6.76514E-04-8.72051E-05 0.00000E+00
 -1       264 6.74939E-04-4.20905E-05 6.61744E-24
 -1       265 6.73885E-04-1.18074E-05 2.64698E-23
 -1       266 6.89687E-04-7.42651E-07 3.30872E-24
 -1       267 6.85162E-04-7.54658E-07 8.27181E-25
 -1       268 6.80637E-04-7.67394E-07 0.00000E+00
 -1       269 6.76111E-04-7.77968E-07 2.06795E-25
 -1       270 6.71586E-04-7.88491E-07 0.00000E+00
 -1       271 6.91526E-04 3.10420E-06-2.64698E-23
 -1       272 6.89027E-04 6.32540E-06 0.00000E+00
 -1       273 6.86757E-04 8.94462E-06 0.00000E+00
 -1       274 6.84712E-04 1.09542E-05-1.32349E-23
 -1       275 6.82893E-04 1.23601E-05 2.64698E-23
 -1       276 6.81297E-04 1.31746E-05-1.32349E-23
 -1       277 6.79914E-04 1.34195E-05 0.00000E+00
 -1       278 6.78734E-04 1.31241E-05-1.32349E-23
 -1       279 6.77742E-04 1.23262E-05-2.64698E-23
 -1       280 6.76922E-04 1.10705E-05-1.32349E-23
 -1       281 6.76254E-04 9.40866E-06-2.64698E-23
 -1       282 6.75717E-04 7.39807E-06 0.00000E+00
 -1       283 6.75287E-04 5.10126E-06 0.00000E+00
 -1       284 6.74942E-04 2.58607E-06-1.32349E-23
 -1       285 6.74652E-04-7.91077E-08-2.64698E-23
 -1       301 6.73446E-04-2.39073E-06-6.61744E-24
 -1       302 6.73190E-04-2.47112E-06 0.00000E+00
 -1       303 6.72807E-04-2.54980E-06 6.61744E-24
 -1       304 6.72648E-04-2.62833E-06 0.00000E+00
 -1       305 6.73067E-04-2.70870E-06 1.32349E-23
 -1       306 6.91395E-04-6.67345E-05-5.29396E-23
 -1       307 7.39582E-04-2.52391E-04 0.00000E+00
 -1       308 8.01739E-04-5.28827E-04 1.05879E-22
 -1       309 8.68018E-04-8.55936E-04 0.00000E+00
 -1       310 9.34064E-04-1.17982E-03 5.29396E-23
 -1       311 9.95157E-04-1.44688E-03 0.00000E+00
 -1       312 1.04060E-03-1.61884E-03-1.05879E-22
 -1       313 1.05377E-03-1.66769E-03 0.00000E+00
 -1       314 1.01862E-03-1.59306E-03 0.00000E+00
 -1       315 9.24224E-04-1.40719E-03-2.64698E-23
 -1       316 7.78256E-04-1.14274E-03 1.05879E-22
 -1       317 5.99586E-04-8.35677E-04 0.00000E+00
 -1       318 4.21075E-04-5.28812E-04-1.05879E-22
 -1       319 2.75553E-04-2.64953E-04 2.64698E-23
 -1       320 1.81733E-04-7.99617E-05 5.29396E-23
 -1       336 2.02551E-04-3.49247E-06 0.00000E+00
 -1       337 1.93945E-04-4.05119E-06 0.00000E+00
 -1       338 1.84056E-04-4.62103E-06 0.00000E+00
 -1       339 1.72926E-04-5.20209E-06-6.61744E-24
 -1       340 1.60599E-04-5.79671E-06 0.00000E+00
 -1       406 1.35458E-04 7.65318E-07 0.00000E+00
 -1       407 1.35608E-04 8.74589E-07 8.27181E-25
 -1       408 1.35778E-04 9.83792E-07 0.00000E+00
 -1       409 1.35968E-04 1.09280E-06 0.00000E+00
 -1       410 1.36178E-04 1.20139E-06-1.65436E-24
 -1       521 6.94280E-04-7.58699E-05 0.00000E+00
 -1       522 7.45393E-04-2.82767E-04 5.29396E-23
 -1       523 8.09702E-04-5.90266E-04 0.00000E+00
 -1       524 8.76870E-04-9.53116E-04-5.29396E-23
 -1       525 9.43863E-04-1.31185E-03 0.00000E+00
 -1       526 1.00713E-03-1.60742E-03-5.29396E-23
 -1       527 1.05504E-03-1.79684E-03 0.00000E+00
 -1       528 1.06865E-03-1.85002E-03 0.00000E+00
 -1       529 1.02815E-03-1.76611E-03 0.00000E+00
 -1       530 9.20370E-04-1.56042E-03 0.00000E+00
 -1       531 7.53032E-04-1.26875E-03 0.00000E+00
 -1       532 5.47853E-04-9.31023E-04 0.00000E+00
 -1       533 3.42518E-04-5.93108E-04-1.05879E-22
 -1       534 1.74759E-04-3.00870E-04 0.00000E+00
 -1       535 6.64245E-05-9.42140E-05-1.05879E-22
 -1       536 1.46749E-04 1.54176E-05-6.61744E-24
 -1       537 1.45937E-04 5.27276E-05-3.30872E-24
 -1       538 1.44741E-04 9.97481E-05-3.30872E-24
 -1       539 1.43363E-04 1.50641E-04 0.00000E+00
 -1       540 1.42128E-04 1.98470E-04-3.30872E-24
 -1       541 1.41304E-04 2.36315E-04 0.00000E+00
 -1       542 1.40888E-04 2.60000E-04-3.30872E-24
 -1       543 1.40728E-04 2.65438E-04 1.65436E-24
 -1       544 1.40512E-04 2.53247E-04 0.00000E+00
 -1       545 1.39961E-04 2.24160E-04-1.65436E-24
 -1       546 1.39028E-04 1.83328E-04 3.30872E-24
 -1       547 1.37817E-04 1.35971E-04 1.65436E-24
 -1       548 1.36629E-04 8.91314E-05 0.00000E+00
 -1       549 1.35755E-04 4.98482E-05 1.65436E-24
 -1       550 1.35267E-04 2.30631E-05 0.00000E+00
 -1       551 1.30523E-04-6.77549E-06 0.00000E+00
 -1       552 1.11344E-04-7.19354E-06 3.30872E-24
 -1       553 9.04105E-05-7.64328E-06-9.92617E-24
 -1       554 6.85535E-05-8.11337E-06 0.00000E+00
 -1       555 4.66051E-05-8.58795E-06 0.00000E+00
 -1       556 1.42358E-04 5.89389E-06 0.00000E+00
 -1       557 1.38577E-04 1.56632E-05 0.00000E+00
 -1       558 1.35688E-04 2.31219E-05 0.00000E+00
 -1       559 1.33597E-04 2.84969E-05 0.00000E+00
 -1       560 1.32213E-04 3.20151E-05 0.00000E+00
 -1       561 1.31446E-04 3.39049E-05 0.00000E+00
 -1       562 1.31206E-04 3.43955E-05 0.00000E+00
 -1       563 1.31405E-04 3.37163E-05 0.00000E+00
 -1       564 1.31956E-04 3.20973E-05 0.00000E+00
 -1       565 1.32772E-04 2.97688E-05 0.00000E+00
 -1       566 1.33767E-04 2.69611E-05 3.30872E-24
 -1       567 1.34854E-04 2.39050E-05 0.00000E+00
 -1       568 1.35948E-04 2.08311E-05 1.65436E-24
 -1       569 1.36963E-04 1.79699E-05 0.00000E+00
 -1       570 1.37813E-04 1.55519E-05 0.00000E+00
 -1       571 1.35167E-04 1.28472E-05-1.65436E-24
 -1       572 1.35249E-04 1.20044E-05-4.13590E-25
 -1       573 1.35331E-04 1.11230E-05-1.65436E-24
 -1       574 1.35414E-04 1.02144E-05 8.27181E-25
 -1       575 1.35497E-04 9.28978E-06 1.65436E-24
 -1       576 1.35579E-04 8.36053E-06 0.00000E+00
 -1       577 1.35662E-04 7.43799E-06 3.30872E-24
 -1       578 1.35745E-04 6.53354E-06 1.65436E-24
 -1       579 1.35828E-04 5.65850E-06 0.00000E+00
 -1       580 1.35911E-04 4.82426E-06 0.00000E+00
 -1       581 1.35993E-04 4.04219E-06 0.00000E+00
 -1       582 1.36076E-04 3.32361E-06 0.00000E+00
 -1       583 1.36159E-04 2.67987E-06 0.00000E+00
 -1       584 1.36242E-04 2.12220E-06 0.00000E+00
 -1       585 1.36325E-04 1.66171E-06-6.61744E-24
 -1       586 1.35587E-04 1.36697E-05 0.00000E+00
 -1       587 1.36061E-04 1.36980E-05-1.03398E-25
 -1       588 1.36544E-04 1.37259E-05 0.00000E+00
 -1       589 1.37073E-04 1.37534E-05 0.00000E+00
 -1       590 1.37684E-04 1.37799E-05 0.00000E+00
 -1       591 1.35340E-04 1.29059E-05 1.03398E-25
 -1       592 1.35601E-04 1.21460E-05 0.00000E+00
 -1       593 1.35868E-04 1.13670E-05 4.13590E-25
 -1       594 1.36139E-04 1.05740E-05-4.13590E-25
 -1       595 1.36415E-04 9.77201E-06 8.27181E-25
 -1       596 1.36691E-04 8.96618E-06 0.00000E+00
 -1       597 1.36967E-04 8.16157E-06 0.00000E+00
 -1       598 1.37241E-04 7.36327E-06 2.06795E-25
 -1       599 1.37510E-04 6.57633E-06 4.13590E-25
 -1       600 1.37773E-04 5.80582E-06 2.06795E-25
 -1       601 1.38029E-04 5.05682E-06 8.27181E-25
 -1       602 1.38274E-04 4.33439E-06-2.06795E-25
 -1       603 1.38508E-04 3.64360E-06-4.13590E-25
 -1       604 1.38728E-04 2.98962E-06 5.16988E-26
 -1       605 1.38933E-04 2.37744E-06 0.00000E+00
 -1       606 1.36421E-04 1.13971E-06 0.00000E+00
 -1       607 1.36431E-04 1.06381E-06 0.00000E+00
 -1       608 1.36441E-04 1.07545E-06 0.00000E+00
 -1       609 1.36450E-04 1.16848E-06 0.00000E+00
 -1       610 1.36459E-04 1.33669E-06 0.00000E+00
 -1       611 1.36468E-04 1.57381E-06 0.00000E+00
 -1       612 1.36477E-04 1.87357E-06 0.00000E+00
 -1       613 1.36486E-04 2.22967E-06 0.00000E+00
 -1       614 1.36495E-04 2.63582E-06 0.00000E+00
 -1       615 1.36503E-04 3.08574E-06 8.27181E-25
 -1       616 1.36512E-04 3.57313E-06 0.00000E+00
 -1       617 1.36521E-04 4.09171E-06 0.00000E+00
 -1       618 1.36530E-04 4.63519E-06 0.00000E+00
 -1       619 1.36538E-04 5.19728E-06 0.00000E+00
 -1       620 1.36547E-04 5.77168E-06 0.00000E+00
 -1       621 1.36713E-04 1.39291E-06 0.00000E+00
 -1       622 1.37099E-04 1.47747E-06 0.00000E+00
 -1       623 1.37550E-04 1.56199E-06 1.65436E-24
 -1       624 1.38048E-04 1.64633E-06 0.00000E+00
 -1       625 1.38578E-04 1.73051E-06-1.65436E-24
 -1       626 1.36565E-04 1.16922E-06 3.30872E-24
 -1       627 1.36696E-04 1.10365E-06 1.65436E-24
 -1       628 1.36802E-04 1.10410E-06 3.30872E-24
 -1       629 1.36886E-04 1.16242E-06 0.00000E+00
 -1       630 1.36952E-04 1.27041E-06 0.00000E+00
 -1       631 1.37002E-04 1.41985E-06 0.00000E+00
 -1       632 1.37040E-04 1.60249E-06 0.00000E+00
 -1       633 1.37069E-04 1.81012E-06 1.65436E-24
 -1       634 1.37091E-04 2.03450E-06-3.30872E-24
 -1       635 1.37110E-04 2.26741E-06 1.65436E-24
 -1       636 1.37129E-04 2.50063E-06 3.30872E-24
 -1       637 1.37150E-04 2.72591E-06 0.00000E+00
 -1       638 1.37178E-04 2.93504E-06 0.00000E+00
 -1       639 1.37215E-04 3.11977E-06 0.00000E+00
 -1       640 1.37263E-04 3.27186E-06-1.65436E-24
 -1       656 1.36196E-04 5.86916E-06 6.61744E-24
 -1       657 1.36228E-04 5.36682E-06 6.61744E-24
 -1       658 1.36512E-04 4.86590E-06 1.32349E-23
 -1       659 1.36903E-04 4.36536E-06-6.61744E-24
 -1       660 1.37230E-04 3.86327E-06 6.61744E-24
 -1       661 1.36423E-04 6.89770E-06 8.27181E-25
 -1       662 1.36321E-04 7.37211E-06 0.00000E+00
 -1       663 1.36245E-04 7.77857E-06 1.65436E-24
 -1       664 1.36193E-04 8.12158E-06 0.00000E+00
 -1       665 1.36163E-04 8.40500E-06 0.00000E+00
 -1       666 1.36154E-04 8.63279E-06 8.27181E-25
 -1       667 1.36165E-04 8.80869E-06 0.00000E+00
 -1       668 1.36194E-04 8.93640E-06 8.27181E-25
 -1       669 1.36239E-04 9.01942E-06-1.65436E-24
 -1       670 1.36300E-04 9.06122E-06-8.27181E-25
 -1       671 1.36375E-04 9.06512E-06 0.00000E+00
 -1       672 1.36463E-04 9.03435E-06-8.27181E-25
 -1       673 1.36563E-04 8.97209E-06 0.00000E+00
 -1       674 1.36673E-04 8.88117E-06 0.00000E+00
 -1       675 1.36792E-04 8.76500E-06-4.13590E-25
 -1       676 1.36040E-04 9.07629E-06 0.00000E+00
 -1       677 1.36216E-04 8.98538E-06 1.65436E-24
 -1       678 1.36391E-04 8.89451E-06-3.30872E-24
 -1       679 1.36566E-04 8.80391E-06-1.65436E-24
 -1       680 1.36741E-04 8.71333E-06 1.65436E-24
 -1       771 1.74217E-05 8.19283E-06 0.00000E+00
 -1       772 1.06523E-05 2.23640E-05 0.00000E+00
 -1       773 5.02717E-06 3.35962E-05 0.00000E+00
 -1       774 4.69339E-07 4.20635E-05 0.00000E+00
 -1       775-3.09699E-06 4.79455E-05 5.29396E-23
 -1       776-5.75069E-06 5.14310E-05 0.00000E+00
 -1       777-7.57106E-06 5.27143E-05 0.00000E+00
 -1       778-8.63915E-06 5.19973E-05-2.64698E-23
 -1       779-9.03612E-06 4.94864E-05 0.00000E+00
 -1       780-8.84458E-06 4.53942E-05 0.00000E+00
 -1       781-8.14701E-06 3.99369E-05 0.00000E+00
 -1       782-7.02705E-06 3.33355E-05-2.64698E-23
 -1       783-5.56811E-06 2.58135E-05 0.00000E+00
 -1       784-3.85449E-06 1.75978E-05 0.00000E+00
 -1       785-1.97016E-06 8.91668E-06-2.64698E-23
 -1       786 1.38454E-04 1.28446E-05 0.00000E+00
 -1       787 1.38498E-04 1.19321E-05 0.00000E+00
 -1       788 1.38542E-04 1.10582E-05 0.00000E+00
 -1       789 1.38586E-04 1.02154E-05 8.27181E-25
 -1       790 1.38631E-04 9.39911E-06 0.00000E+00
 -1       791 1.38675E-04 8.60504E-06-8.27181E-25
 -1       792 1.38720E-04 7.83106E-06 0.00000E+00
 -1       793 1.38765E-04 7.07514E-06-8.27181E-25
 -1       794 1.38809E-04 6.33703E-06 0.00000E+00
 -1       795 1.38854E-04 5.61657E-06-8.27181E-25
 -1       796 1.38899E-04 4.91542E-06 1.65436E-24
 -1       797 1.38944E-04 4.23522E-06-8.27181E-25
 -1       798 1.38989E-04 3.57981E-06 0.00000E+00
 -1       799 1.39033E-04 2.95309E-06 0.00000E+00
 -1       800 1.39078E-04 2.36185E-06 1.65436E-24
 -1       801 1.15641E-04 1.20797E-05 0.00000E+00
 -1       802 4.60505E-05 8.24219E-06 0.00000E+00
 -1       803-1.89792E-05 4.65860E-06 5.29396E-23
 -1       804-2.83455E-05 3.04950E-06-2.64698E-23
 -1       805-1.15734E-05 1.49243E-06-5.29396E-23
 -1       806 1.38677E-04 1.27894E-05 0.00000E+00
 -1       807 1.38927E-04 1.18022E-05-8.27181E-25
 -1       808 1.39166E-04 1.08455E-05 0.00000E+00
 -1       809 1.39391E-04 9.92224E-06 1.65436E-24
 -1       810 1.39603E-04 9.03517E-06-3.30872E-24
 -1       811 1.39800E-04 8.18695E-06-1.65436E-24
 -1       812 1.39982E-04 7.38029E-06 3.30872E-24
 -1       813 1.40147E-04 6.61787E-06-1.65436E-24
 -1       814 1.40294E-04 5.90233E-06-3.30872E-24
 -1       815 1.40423E-04 5.23636E-06 1.65436E-24
 -1       816 1.40533E-04 4.62260E-06 3.30872E-24
 -1       817 1.40622E-04 4.06370E-06-1.65436E-24
 -1       818 1.40689E-04 3.56232E-06-1.65436E-24
 -1       819 1.40734E-04 3.12110E-06-8.27181E-25
 -1       820 1.40756E-04 2.74264E-06 1.65436E-24
 -1       821 1.39017E-04 1.20850E-06-8.27181E-25
 -1       822 1.38904E-04 4.52052E-07-8.27181E-25
 -1       823 1.38792E-04-3.51101E-07-3.30872E-24
 -1       824 1.38679E-04-1.09548E-06 0.00000E+00
 -1       825 1.38565E-04-1.68929E-06-3.30872E-24
 -1       826 1.38452E-04-2.04150E-06 0.00000E+00
 -1       827 1.38338E-04-2.11698E-06-3.30872E-24
 -1       828 1.38224E-04-1.88205E-06 0.00000E+00
 -1       829 1.38111E-04-1.37483E-06 0.00000E+00
 -1       830 1.37997E-04-6.34874E-07 0.00000E+00
 -1       831 1.37883E-04 2.44438E-07 3.30872E-24
 -1       832 1.37769E-04 1.16899E-06-1.65436E-24
 -1       833 1.37656E-04 2.03417E-06-3.30872E-24
 -1       834 1.37543E-04 2.73571E-06 0.00000E+00
 -1       835 1.37431E-04 3.20709E-06 8.27181E-25
 -1       836 1.39569E-04 1.91554E-06 0.00000E+00
 -1       837 1.39904E-04 2.02045E-06-1.65436E-24
 -1       838 1.40159E-04 2.12521E-06 0.00000E+00
 -1       839 1.40366E-04 2.22932E-06-8.27181E-25
 -1       840 1.40554E-04 2.33326E-06 0.00000E+00
 -1       856 1.37303E-04 3.47465E-06 0.00000E+00
 -1       857 1.37278E-04 3.68582E-06 1.03398E-25
 -1       858 1.37253E-04 3.99776E-06 0.00000E+00
 -1       859 1.37227E-04 4.39171E-06 0.00000E+00
 -1       860 1.37201E-04 4.84880E-06 0.00000E+00
 -1       861 1.37176E-04 5.35011E-06 4.13590E-25
 -1       862 1.37150E-04 5.87666E-06 8.27181E-25
 -1       863 1.37124E-04 6.40947E-06 4.13590E-25
 -1       864 1.37098E-04 6.92954E-06 8.27181E-25
 -1       865 1.37072E-04 7.41789E-06 4.13590E-25
 -1       866 1.37046E-04 7.85556E-06 8.27181E-25
 -1       867 1.37020E-04 8.22363E-06-4.13590E-25
 -1       868 1.36994E-04 8.50329E-06 0.00000E+00
 -1       869 1.36968E-04 8.67577E-06 0.00000E+00
 -1       870 1.36942E-04 8.72242E-06 0.00000E+00
 -1       871 1.37474E-04 3.38112E-06 4.13590E-25
 -1       872 1.37747E-04 3.37661E-06 0.00000E+00
 -1       873 1.38090E-04 3.37160E-06 0.00000E+00
 -1       874 1.38445E-04 3.36597E-06 1.03398E-25
 -1       875 1.38759E-04 3.35980E-06 0.00000E+00
 -1       876 1.37400E-04 3.48631E-06-3.30872E-24
 -1       877 1.37456E-04 3.64791E-06 0.00000E+00
 -1       878 1.37492E-04 3.86076E-06-3.30872E-24
 -1       879 1.37512E-04 4.11835E-06 0.00000E+00
 -1       880 1.37518E-04 4.41415E-06-3.30872E-24
 -1       881 1.37511E-04 4.74165E-06 0.00000E+00
 -1       882 1.37496E-04 5.09438E-06-3.30872E-24
 -1       883 1.37473E-04 5.46586E-06-1.65436E-24
 -1       884 1.37446E-04 5.84960E-06 0.00000E+00
 -1       885 1.37416E-04 6.23915E-06 1.65436E-24
 -1       886 1.37387E-04 6.62802E-06 0.00000E+00
 -1       887 1.37361E-04 7.00973E-06-1.65436E-24
 -1       888 1.37339E-04 7.37779E-06 3.30872E-24
 -1       889 1.37324E-04 7.72559E-06 0.00000E+00
 -1       890 1.37319E-04 8.04668E-06 1.65436E-24
 -1       891 1.37111E-04 8.57584E-06 1.65436E-24
 -1       892 1.37286E-04 8.52680E-06-8.27181E-25
 -1       893 1.37417E-04 8.47780E-06 0.00000E+00
 -1       894 1.37482E-04 8.42894E-06-4.13590E-25
 -1       895 1.37457E-04 8.38022E-06 0.00000E+00
 -1       956 1.40646E-04 2.25306E-06 1.65436E-24
 -1       957 1.40535E-04 2.14706E-06 0.00000E+00
 -1       958 1.40423E-04 2.10353E-06-1.65436E-24
 -1       959 1.40312E-04 2.11401E-06 0.00000E+00
 -1       960 1.40200E-04 2.17002E-06 0.00000E+00
 -1       961 1.40089E-04 2.26302E-06 0.00000E+00
 -1       962 1.39977E-04 2.38449E-06 0.00000E+00
 -1       963 1.39865E-04 2.52589E-06-1.65436E-24
 -1       964 1.39754E-04 2.67868E-06 0.00000E+00
 -1       965 1.39642E-04 2.83432E-06 0.00000E+00
 -1       966 1.39530E-04 2.98426E-06 0.00000E+00
 -1       967 1.39419E-04 3.11998E-06-1.65436E-24
 -1       968 1.39307E-04 3.23294E-06 0.00000E+00
 -1       969 1.39196E-04 3.31462E-06 0.00000E+00
 -1       970 1.39085E-04 3.35654E-06 0.00000E+00
 -1       971 1.38873E-04 3.35707E-06-1.65436E-24
 -1       972 1.38770E-04 3.45051E-06 0.00000E+00
 -1       973 1.38666E-04 3.62127E-06 0.00000E+00
 -1       974 1.38562E-04 3.85938E-06 0.00000E+00
 -1       975 1.38458E-04 4.15489E-06 3.30872E-24
 -1       976 1.38354E-04 4.49780E-06 0.00000E+00
 -1       977 1.38250E-04 4.87812E-06-3.30872E-24
 -1       978 1.38146E-04 5.28585E-06 0.00000E+00
 -1       979 1.38042E-04 5.71096E-06 0.00000E+00
 -1       980 1.37938E-04 6.14345E-06 1.65436E-24
 -1       981 1.37834E-04 6.57331E-06 3.30872E-24
 -1       982 1.37730E-04 6.99051E-06 1.65436E-24
 -1       983 1.37626E-04 7.38505E-06 0.00000E+00
 -1       984 1.37523E-04 7.74693E-06-1.65436E-24
 -1       985 1.37420E-04 8.06614E-06-1.65436E-24
 -3
    1PSTEP                        20          10           1          
  100CL  110 5.83069E-01         409                     0   10           1
 -4  STRESS      6    1
 -5  SXX         1    4    1    1
 -5  SYY         1    4    2    2
 -5  SZZ         1    4    3    3
 -5  SXY         1    4    1    2
 -5  SYZ         1    4    2    3
 -5  SZX         1    4    3    1
 -1         1-3.15557E+06-1.25370E+06-6.81680E+05-1.41822E+06-1.96451E-10-5.87897E-08
 -1         2 1.72386E+03-1.07675E+06 5.57324E+03 1.45379E+03 2.29903E-10 8.52248E-08
 -1         3-5.73603E+02-1.37823E+06 3.31546E+02-1.22383E+03-3.22665E-10-2.27919E-08
 -1         5-3.65379E+00 3.12865E+05 7.96451E+00-1.68523E-01-1.52459E-10 1.89398E-08
 -1         8-9.74042E+05-3.36295E+05-1.00422E+05-4.98350E+05 1.45519E-10-2.48401E-08
 -1         9 4.88920E+05-7.76676E+05 1.69032E+05-7.65425E+05 2.02737E-08 1.86497E-08
 -1        10-1.45277E+03-1.43597E+06-2.58140E+03-8.27632E+03-8.68658E-09-3.01766E-08
 -1        12-3.88213E-01 3.12881E+05 2.57985E+02-1.25873E+00-1.59684E-10 8.77117E-09
 -1        15 1.70244E+03 9.35593E+02 5.50312E+03 3.33162E+00-1.58280E-10-1.02843E-07
 -1        16 3.16473E+06-7.79524E+05 4.45093E+05-1.13709E+06 8.33340E-09 2.01010E-08
 -1        17 7.87210E+05 5.50314E+05 2.75776E+05 6.65202E+05 3.45754E-09 2.30677E-08
 -1        18 1.84029E+04 2.66221E+02-2.04077E+04-8.90482E+04 9.07005E-09-2.15186E-09
 -1        19 1.00689E+05 1.15684E+05-8.28041E+02 1.94790E+04 1.86810E-10 2.57132E-09
 -1        20-5.59648E+04-4.75778E+05-1.05925E+05 2.75989E+04 1.23327E-09-2.48777E-09
 -1        21-4.18265E+01-2.60341E+05-8.26357E+02 3.13614E+01 9.08388E-07-1.43367E-08
 -1        24 8.37585E+05 1.66533E+06 5.82620E+05 1.32800E+06-8.69817E-08-3.39739E-08
 -1        25-7.70484E+04-4.80492E+05-9.11243E+04-2.35390E+05-1.21481E-09 7.25868E-09
 -1        26-4.04216E+04 7.50880E+04-1.97057E+04-3.22803E+03 1.14378E-09 3.39264E-08
 -1        27-6.80626E+04-2.58518E+05-9.57894E+04 5.82062E+04 5.12167E-09 1.77927E-09
 -1        28 1.99146E+04-7.35295E+04 1.47985E+04 2.04867E+04-1.06724E-10 2.23162E-09
 -1        32-1.44527E+06-2.38852E+06-9.56720E+04-2.78283E+05-2.99206E-08-6.41990E-09
 -1        33-1.51190E+05 7.51647E+04 2.67338E+04-3.46253E+04-3.66394E-10 1.16961E-08
 -1        34-1.90090E+05-1.98172E+04 5.23976E+02 6.12151E+04-2.53380E-11-8.05070E-09
 -1        35-2.03444E+04-2.91969E+04-1.15446E+03 4.53423E+04 7.26700E-10 4.85064E-11
 -1        51 3.25281E+04-2.92424E+05 7.56238E+04-8.38435E+05-2.32831E-10-5.53264E-08
 -1        52 1.40584E+04-2.83060E+05 4.35437E+04-9.81578E+05 2.91038E-11-2.67755E-09
 -1        53 6.30645E+03-2.98287E+05 2.86105E+04-8.35402E+05-1.01863E-10 9.45874E-10
 -1        54 1.66639E+04-2.95954E+05 3.55238E+04-9.84710E+05-6.03904E-10-4.07745E-08
 -1        55 3.31098E+04-3.08159E+05 5.70831E+04-8.34946E+05-1.01863E-10 5.30781E-08
 -1        56-6.00357E+06-6.72712E+05-5.04108E+05-2.32994E+06 2.43745E-09-6.23404E-08
 -1        57-6.25653E+06-1.08034E+06-3.40146E+05-2.25302E+06-5.55156E-09 4.51291E-08
 -1        58-6.09752E+06-8.40369E+05-1.18487E+05-2.30657E+06 7.92352E-09 4.62751E-08
 -1        59-6.14965E+06-8.81632E+05-7.07309E+04-2.27854E+06 4.19641E-09 3.41970E-10
 -1        60-6.10889E+06-8.66057E+05-2.76085E+04-2.30608E+06-1.47656E-08-1.08321E-09
 -1        61-6.13628E+06-8.51686E+05-1.56713E+04-2.27923E+06 1.34869E-08 3.24744E-08
 -1        62-6.11057E+06-8.69584E+05-7.45893E+03-2.30605E+06-4.73369E-09-1.95762E-08
 -1        63-6.13223E+06-8.50239E+05-6.06024E+03-2.28179E+06 4.28747E-09-2.71583E-08
 -1        64-6.11287E+06-8.67439E+05-6.76748E+03-2.30352E+06 7.66204E-09-7.65544E-09
 -1        65-6.12759E+06-8.59194E+05-1.35599E+04-2.28850E+06-9.08312E-09-6.50043E-08
 -1        66-6.11519E+06-8.60730E+05-2.36900E+04-2.29929E+06 4.94583E-09-4.27890E-08
 -1        67-6.13319E+06-8.90577E+05-6.04355E+04-2.29459E+06-1.24551E-08-3.57340E-08
 -1        68-6.10756E+06-8.36674E+05-1.01231E+05-2.29728E+06-5.33510E-09 3.74348E-09
 -1        69-6.22269E+06-1.06221E+06-2.90523E+05-2.27512E+06 6.80302E-09-3.93302E-08
 -1        70-6.02714E+06-6.93652E+05-4.30675E+05-2.31742E+06-2.99042E-09-2.24391E-08
 -1        86-8.61960E+02-1.07840E+06 6.00568E+03-7.26908E+02-4.86125E-10-5.00628E-08
 -1        87 5.72309E+03-1.07485E+06 1.24821E+04 2.61574E+03-9.77252E-10 1.54275E-08
 -1        88-4.84591E+03-1.08030E+06 1.91831E+04-1.88888E+03-9.34051E-10-6.01919E-08
 -1        89 3.61279E+04-1.06079E+06 5.16484E+04 4.17708E+03-1.43609E-09-8.00220E-08
 -1        90-3.11600E+04-1.09243E+06 7.30840E+04-2.28834E+03-1.33514E-09 4.74357E-08
 -1       121-8.07661E+02-1.38025E+06-9.93961E+00 6.09534E+02 1.01882E-09-4.90400E-09
 -1       122-4.46407E+02-1.37821E+06 6.83737E+02-2.44510E+03-3.28941E-09 1.52249E-08
 -1       123-8.61578E+02-1.38034E+06 7.63218E+02 1.82139E+03 2.60184E-09-5.92991E-10
 -1       124 8.98590E+02-1.37757E+06 2.77424E+03-5.16048E+03-6.69888E-09-1.84373E-08
 -1       125-1.65076E+03-1.38109E+06 3.87524E+03 3.31473E+03 4.39559E-09 3.48882E-09
 -1       191-4.10120E+00 3.12892E+05 9.62632E+00 8.46369E-02-1.37097E-10-8.95579E-09
 -1       192-4.38469E+00 3.12865E+05 1.68575E+01-6.63524E-01-1.33023E-10-2.80747E-08
 -1       193-6.04479E+00 3.12892E+05 3.14533E+01 5.81606E-01-2.03366E-10 2.94858E-09
 -1       194-6.73685E+00 3.12868E+05 6.37474E+01-1.55338E+00-1.47452E-10 6.95695E-09
 -1       195-9.77974E+00 3.12889E+05 1.24795E+02 9.79824E-01-3.18337E-10 1.72022E-08
 -1       251-1.89316E+06 2.55455E+03-1.27732E+05 6.35274E+04-4.58385E-10-3.41752E-08
 -1       252-1.45920E+06-4.25682E+03-3.93153E+02-2.40000E+05-4.28417E-09-1.19147E-07
 -1       253-1.72351E+06-4.02516E+03-2.84275E+04 1.76370E+05-9.06402E-09-5.17757E-08
 -1       254-1.66967E+06 2.15489E+04-2.13025E+03-3.59550E+05-2.19833E-09-4.78766E-08
 -1       255-1.70437E+06-5.41573E+03-8.46915E+03 1.84181E+05 1.19780E-09-3.56104E-08
 -1       256-1.49174E+06 2.04813E+04 3.94704E+04-2.69208E+05-1.88393E-08 2.35406E-08
 -1       257-1.88407E+06-1.71640E+04-4.35559E+04 8.50585E+04-4.58749E-09 1.32823E-08
 -1       258-1.27929E+06 1.59365E+04 8.08686E+04-1.20092E+04 2.88246E-08-5.17571E-09
 -1       259-1.89591E+06-1.79618E+04-4.49059E+04-7.25095E+04 3.07537E-08-6.59356E-08
 -1       260-1.46541E+06 2.08524E+04 4.76338E+04 2.53266E+05-1.31645E-08-6.08952E-09
 -1       261-1.71633E+06-7.04616E+03-4.71459E+03-1.79473E+05-3.29646E-08 2.56150E-08
 -1       262-1.66704E+06 2.87585E+04 1.31416E+04 3.60369E+05 3.24691E-08-4.97018E-08
 -1       263-1.71428E+06-9.48452E+03-8.61901E+02-1.80665E+05-1.64518E-08-1.35935E-08
 -1       264-1.46244E+06 4.38510E+04 6.27009E+04 2.58028E+05-6.94586E-08-1.79475E-08
 -1       265-1.90161E+06-3.78822E+04-2.92428E+04-7.60997E+04-3.15940E-08 4.59513E-08
 -1       266-3.08192E+04-1.44099E+04 7.23166E+04-7.12914E+01-1.34605E-10-1.05618E-07
 -1       267 3.57285E+04 1.67969E+04 5.11093E+04 8.22496E+01-2.11912E-10-8.18771E-08
 -1       268-4.79110E+03-2.37880E+03 1.89973E+04-1.04804E+01-2.23736E-10-1.46998E-09
 -1       269 5.65693E+03 2.84704E+03 1.23477E+04 1.22077E+01-1.68257E-10-1.55669E-08
 -1       270-8.49105E+02-4.67781E+02 5.96044E+03-1.65669E+00-1.07320E-10-3.38367E-09
 -1       271-2.78278E+06-3.44912E+05-2.07949E+05-1.07864E+06 1.16779E-09-4.66389E-08
 -1       272-2.87756E+06-4.77334E+05-1.33827E+05-1.05471E+06 3.32307E-09-2.24682E-08
 -1       273-2.82186E+06-3.96966E+05-4.91117E+04-1.06940E+06-1.65846E-09 1.62945E-08
 -1       274-2.83106E+06-4.14110E+05-2.75118E+04-1.06902E+06-1.08275E-08-4.80304E-09
 -1       275-2.82815E+06-4.01534E+05-1.14541E+04-1.06677E+06 1.31176E-08 2.37806E-08
 -1       276-2.82253E+06-4.09705E+05-6.03873E+03-1.07378E+06 6.84668E-09-5.56338E-09
 -1       277-2.83032E+06-4.00663E+05-2.98975E+03-1.06491E+06 2.75850E-09-6.52108E-09
 -1       278-2.81905E+06-4.11832E+05-2.05170E+03-1.07732E+06 9.05402E-10 1.22576E-07
 -1       279-2.83173E+06-3.99277E+05-2.17785E+03-1.06333E+06-1.43891E-08 2.01401E-08
 -1       280-2.81701E+06-4.14733E+05-3.82465E+03-1.08023E+06 2.06728E-08-3.42116E-08
 -1       281-2.83252E+06-3.97701E+05-6.96484E+03-1.06210E+06-2.88310E-10-2.60411E-09
 -1       282-2.81843E+06-4.21212E+05-1.66254E+04-1.08189E+06-7.62293E-09 8.68649E-08
 -1       283-2.83054E+06-3.93115E+05-2.95656E+04-1.06164E+06-2.73758E-10 2.39306E-08
 -1       284-2.84320E+06-4.62613E+05-8.06398E+04-1.07712E+06-2.79260E-09-1.11999E-07
 -1       285-2.80852E+06-3.60243E+05-1.25259E+05-1.06549E+06-1.15560E-08-4.35466E-08
 -1       301 2.26705E+04-2.25621E+05 1.72993E+05-4.25148E+05 2.54659E-10 7.77509E-08
 -1       302 2.42137E+04-1.82258E+05 1.09853E+05-6.22310E+05-1.45519E-11 9.32350E-08
 -1       303 6.11762E+02-2.08643E+05 7.73584E+04-4.24273E+05 2.91038E-11 1.13196E-08
 -1       304 2.15605E+04-1.81744E+05 1.04429E+05-6.21775E+05 3.34694E-10 1.04174E-08
 -1       305 1.90027E+04-2.21538E+05 1.60679E+05-4.25744E+05-2.83762E-10 1.40572E-08
 -1       306-1.19054E+07-1.77282E+06-2.29940E+06-2.01974E+06-3.45171E-08-9.28412E-09
 -1       307 2.95392E+06-1.67258E+06 1.10579E+06-5.56732E+06-4.09142E-07 7.06495E-09
 -1       308-7.86305E+06 2.93919E+05-2.63602E+05 6.50046E+05-5.95901E-08 9.67775E-08
 -1       309-3.45400E+06-1.63914E+06 3.17057E+05-9.04819E+06 2.12918E-07-4.48963E-08
 -1       310-8.08760E+06 2.41275E+05-2.39030E+05 5.62451E+05 3.45317E-08-1.10624E-07
 -1       311 3.46738E+06-1.80260E+06 1.41077E+06-5.08981E+06 3.13041E-07-1.00585E-07
 -1       312-1.19442E+07-1.78399E+06-1.76686E+06-2.27946E+06-3.69619E-08 5.88043E-08
 -1       313 6.59022E+06 1.37891E+06 2.40251E+06 2.54287E+06-4.77739E-08 4.61587E-08
 -1       314-9.42136E+06-4.16722E+06-1.73062E+06-4.87166E+06 1.79512E-07-1.74332E-08
 -1       315-4.40805E+06 5.73397E+06 1.35580E+06 2.97933E+06-9.56934E-08-1.41968E-07
 -1       316-3.61794E+06-4.05923E+06-1.99782E+05-4.15987E+06-4.26793E-07-2.31317E-07
 -1       317-1.16517E+07 6.54209E+06 3.03422E+05-5.64039E+04 4.10311E-07-2.89975E-07
 -1       318-3.64608E+06-4.07615E+06-3.26719E+05-4.16089E+06-3.87940E-07 3.69619E-08
 -1       319-4.29114E+06 5.84859E+06 1.09813E+06 2.96121E+06-4.28336E-08 3.85044E-08
 -1       320-9.50000E+06-4.27111E+06-2.42785E+06-4.83789E+06 8.50414E-08-5.32600E-09
 -1       336 4.00094E+02-1.49417E+06-9.82555E+03 4.92099E+03-1.71131E-08 4.19459E-09
 -1       337-3.71863E+03-1.49539E+06-1.19795E+04-1.19567E+04-3.12666E-08-2.52039E-08
 -1       338 5.83991E+02-1.49409E+06-1.72991E+04 6.96928E+03-2.15678E-08-1.83718E-09
 -1       339-1.82833E+04-1.50501E+06-3.87771E+04-1.59532E+04-3.90592E-08 1.03846E-08
 -1       340 1.22192E+04-1.48534E+06-6.05842E+04 8.86669E+03-2.66191E-08 1.95396E-08
 -1       406 1.94205E+01 3.12878E+05 5.09427E+02 2.90742E-01-4.81180E-10-2.46655E-09
 -1       407 1.77178E+02 3.12971E+05 1.08246E+03 5.26169E+00-4.74074E-11-1.11393E-08
 -1       408 5.56893E+02 3.12800E+05 2.16200E+03-5.69834E+00-4.82260E-10 3.48336E-10
 -1       409 2.33712E+03 3.13661E+05 4.86696E+03 5.72726E+01-1.37305E-10-3.14685E-08
 -1       410 6.71563E+03 3.12185E+05 9.93575E+03-5.42578E+01-6.58929E-10-1.52920E-08
 -1       521-1.40824E+07-2.32359E+06-2.96898E+06-2.18650E+06-5.25615E-08 7.08387E-08
 -1       522 3.52286E+06-1.91078E+06 1.24751E+06-7.25732E+06-2.76574E-07-5.33109E-08
 -1       523-9.35704E+06 2.62973E+05-3.22895E+05 9.33568E+05 6.58911E-08-1.74605E-07
 -1       524-4.81540E+06-1.33281E+06 3.99224E+05-1.14698E+07 4.21771E-07-3.52928E-07
 -1       525-9.66053E+06 1.75263E+05-3.00078E+05 8.20051E+05 3.09490E-07-1.61036E-07
 -1       526 4.33977E+06-2.09010E+06 1.67533E+06-6.58287E+06 7.01111E-08-3.15631E-08
 -1       527-1.41581E+07-2.39314E+06-2.26550E+06-2.53085E+06-4.81959E-08-4.00178E-08
 -1       528 8.37787E+06 1.63816E+06 2.81849E+06 3.32354E+06-1.05065E-08-6.34172E-08
 -1       529-1.10627E+07-5.31781E+06-2.21646E+06-5.68378E+06-9.61008E-08-7.74162E-08
 -1       530-5.69389E+06 7.52374E+06 1.61578E+06 3.57803E+06-1.79745E-07 2.27257E-07
 -1       531-4.17914E+06-5.10391E+06-2.40358E+05-4.92541E+06-4.65385E-07-2.55095E-08
 -1       532-1.46595E+07 8.50508E+06 4.04902E+05-7.78324E+05 1.29276E-07-2.91864E-07
 -1       533-4.17408E+06-5.11689E+06-3.64594E+05-4.91319E+06-1.28639E-08-5.09463E-07
 -1       534-5.66296E+06 7.73311E+06 1.34406E+06 3.50031E+06-1.19115E-07 3.69575E-07
 -1       535-1.11220E+07-5.49751E+06-2.96830E+06-5.64281E+06 9.72068E-09 2.29029E-07
 -1       536-5.03207E+05-3.18601E+04 1.62736E+04-2.83995E+04-4.68276E-09 4.42797E-08
 -1       537-2.49606E+05 3.32454E+04 5.46968E+04 6.94973E+04-7.15799E-08 6.25710E-08
 -1       538-3.81324E+05-8.19618E+02 1.03868E+04-4.26641E+04 2.14835E-08 6.25255E-08
 -1       539-3.33033E+05 3.25574E+03 1.47660E+04 7.97850E+04 8.81020E-08 6.28719E-08
 -1       540-4.21685E+05-3.32510E+02-6.02668E+03-3.88010E+04 1.26636E-08 6.61551E-08
 -1       541-1.72914E+05 6.77844E+03 4.21918E+04 5.14279E+04-2.12920E-08 5.79648E-08
 -1       542-5.37155E+05-7.86616E+03-3.19390E+04-1.41100E+04 3.15854E-08 1.66353E-08
 -1       543-7.84774E+04 1.04314E+04 5.99403E+04-8.97345E+03 7.77140E-09-1.87976E-08
 -1       544-5.13616E+05-6.03702E+03-2.81658E+04 2.14387E+04 2.05282E-08-1.19089E-08
 -1       545-2.26449E+05 2.88590E+03 2.82345E+04-6.36383E+04 5.81894E-07-2.30316E-08
 -1       546-3.93101E+05 2.88599E+03-5.71643E+03 4.04875E+04 1.75299E-04 7.38789E-06
 -1       547-3.43517E+05-4.19187E+03-5.84934E+02-8.18670E+04 3.51436E-04 1.70240E-05
 -1       548-3.99632E+05 3.57161E+03-1.59719E+04 3.98233E+04 1.75066E-04 7.19359E-06
 -1       549-2.16300E+05-6.86643E+03 5.26248E+03-6.04450E+04 5.22547E-07-2.64295E-08
 -1       550-5.16828E+05 2.68766E+03-7.53297E+04 1.88967E+04 2.57464E-08-2.48619E-08
 -1       551 2.64037E+04-6.88716E+05 1.75395E+04-1.08582E+06-6.77028E-08 4.22006E-10
 -1       552 5.87361E+04-7.10295E+05 2.86169E+04-1.54756E+06-4.68426E-08 2.93585E-08
 -1       553 4.31020E+04-7.13947E+05 4.44914E+04-1.08118E+06-7.94244E-08 1.59998E-08
 -1       554 8.92115E+04-7.12913E+05 9.55242E+04-1.54932E+06-5.16302E-08 6.55746E-09
 -1       555 7.22687E+04-7.34320E+05 1.70013E+05-1.08179E+06-8.17090E-08-9.38962E-09
 -1       556 1.45555E+05-2.61977E+05 6.06254E+04-3.10636E+05-1.60217E-08-1.37661E-08
 -1       557 2.45042E+05-3.42017E+05 3.27666E+04-3.94551E+05-7.13044E-10 8.26367E-09
 -1       558 1.38922E+05-2.66313E+05 1.18103E+04-3.06346E+05-1.62690E-08 3.06318E-09
 -1       559 2.27671E+05-3.48809E+05 6.43879E+03-4.05174E+05 9.91713E-09 9.32596E-09
 -1       560 1.31699E+05-2.61710E+05 1.82375E+03-3.11334E+05 3.84171E-09-2.48838E-09
 -1       561 2.18078E+05-3.45351E+05 1.29463E+03-4.11496E+05 2.96859E-09 1.15824E-08
 -1       562 1.26015E+05-2.58100E+05 5.76477E+01-3.15414E+05 1.06229E-09-1.39335E-08
 -1       563 2.11393E+05-3.42440E+05 3.11232E+02-4.15812E+05-1.45519E-09-1.85823E-08
 -1       564 1.22158E+05-2.55675E+05-4.43971E+01-3.18137E+05 1.16779E-08 1.01454E-09
 -1       565 2.07313E+05-3.40667E+05 1.22563E+02-4.18403E+05 1.05647E-08 1.42199E-09
 -1       566 1.20197E+05-2.54424E+05-2.35184E+01-3.19514E+05 6.14091E-09 7.71252E-10
 -1       567 2.05814E+05-3.40004E+05-1.16473E+02-4.19254E+05 1.90175E-08 8.75298E-09
 -1       568 1.20186E+05-2.54432E+05-5.03052E+02-3.19614E+05-7.27596E-12 3.07045E-09
 -1       569 2.05898E+05-3.39952E+05-1.26011E+03-4.17500E+05-6.33554E-09 6.59929E-09
 -1       570 1.22934E+05-2.56765E+05-2.90662E+03-3.19054E+05 5.52245E-09 9.77980E-09
 -1       571 2.37153E+05 8.69320E+03 1.27233E+04-6.53013E+04 6.75755E-10 2.83057E-09
 -1       572 2.39030E+05 3.10692E+03 6.23419E+03-7.16326E+04 3.01588E-09-1.60139E-08
 -1       573 2.37905E+05 8.22923E+02 2.76980E+03-6.51628E+04-3.46972E-10 1.79534E-09
 -1       574 2.38116E+05 3.55237E+02 1.38824E+03-7.17962E+04-2.05796E-09 1.17689E-09
 -1       575 2.37989E+05 1.43262E+02 6.54857E+02-6.51442E+04-1.48600E-09 5.23414E-10
 -1       576 2.37997E+05 1.30217E+02 3.34467E+02-7.18181E+04-4.43163E-09 6.10271E-09
 -1       577 2.38011E+05 1.01476E+02 1.66468E+02-6.51417E+04-2.89538E-09 7.50651E-09
 -1       578 2.37999E+05 1.10870E+02 9.45430E+01-7.18209E+04-3.71028E-09 1.00499E-09
 -1       579 2.38042E+05 8.83673E+01 6.38411E+01-6.51415E+04 5.95810E-09 3.81306E-09
 -1       580 2.38043E+05 9.09737E+01 7.06426E+01-7.18172E+04 1.22418E-09-4.26371E-09
 -1       581 2.38091E+05 6.63126E+01 1.06426E+02-6.51455E+04 4.67298E-09 4.22324E-09
 -1       582 2.38127E+05 8.91034E+01 2.12602E+02-7.17755E+04 2.75577E-10-8.61837E-09
 -1       583 2.38148E+05 1.27773E+02 4.11322E+02-6.51833E+04-3.10501E-09-2.68597E-09
 -1       584 2.38350E+05 4.56781E+02 9.26441E+02-7.14579E+04 1.58616E-09 7.52493E-09
 -1       585 2.38114E+05 1.26380E+03 1.88134E+03-6.54633E+04-1.20417E-09 4.45471E-09
 -1       586-2.97034E+03 8.12497E+04-3.38954E+03-2.11008E+05-2.28738E-09-5.06407E-09
 -1       587-8.14537E+02 8.08562E+04 5.79279E+01-2.32258E+05-2.41198E-09-2.02365E-08
 -1       588 6.92695E+02 8.08586E+04 3.47753E+03-2.10908E+05-8.76753E-10-4.06453E-09
 -1       589 4.43771E+03 8.27284E+04 9.52571E+03-2.32016E+05-1.90630E-09 3.16595E-09
 -1       590 1.34142E+04 7.98073E+04 2.01804E+04-2.11271E+05-1.89993E-09 2.64117E-09
 -1       591-5.05284E+04-1.24594E+04-1.69180E+04-2.35238E+04-3.65776E-09 3.53702E-09
 -1       592-5.30391E+04-1.56903E+04-9.16386E+03-2.68826E+04-9.33113E-10 9.74057E-09
 -1       593-5.22255E+04-1.12265E+04-3.81467E+03-2.47593E+04-9.39735E-10 1.61162E-09
 -1       594-5.06957E+04-1.32160E+04-1.90255E+03-2.69811E+04 2.53047E-09-8.33384E-09
 -1       595-5.23551E+04-1.12220E+04-8.73836E+02-2.48156E+04 3.19858E-10-4.97499E-09
 -1       596-5.05358E+04-1.31028E+04-4.44710E+02-2.69629E+04-3.15550E-09-1.35780E-08
 -1       597-5.23714E+04-1.12333E+04-2.43185E+02-2.48177E+04-2.07899E-09-1.19348E-09
 -1       598-5.05201E+04-1.30985E+04-1.97379E+02-2.69577E+04-1.21270E-08-6.92580E-10
 -1       599-5.23702E+04-1.12336E+04-2.54478E+02-2.48173E+04-9.32550E-09-8.69534E-09
 -1       600-5.05364E+04-1.31038E+04-4.74616E+02-2.69617E+04 2.21053E-09-4.32863E-09
 -1       601-5.23507E+04-1.12223E+04-9.37283E+02-2.48143E+04 4.60204E-10-9.44158E-09
 -1       602-5.07078E+04-1.32248E+04-2.04322E+03-2.69784E+04-5.59339E-10-6.97082E-09
 -1       603-5.22094E+04-1.12295E+04-4.09777E+03-2.47543E+04-7.29869E-11 1.21040E-08
 -1       604-5.32381E+04-1.58682E+04-9.84360E+03-2.68541E+04-1.69075E-09-1.41438E-08
 -1       605-5.03709E+04-1.25670E+04-1.81729E+04-2.34415E+04 1.54108E-09-7.41875E-09
 -1       606 2.72825E+04-1.14237E+04-2.05213E+04 2.60005E+04 2.54659E-11-4.44106E-09
 -1       607 2.37720E+04-3.70884E+03-1.02189E+04 2.91966E+04 2.98314E-10-4.57840E-09
 -1       608 2.57663E+04-6.48357E+02-4.57563E+03 2.58001E+04 8.02174E-10-5.79939E-09
 -1       609 2.53755E+04-1.96028E+02-2.31115E+03 2.94261E+04 1.01863E-09-5.37875E-09
 -1       610 2.55868E+04-1.24050E+00-1.10346E+03 2.57773E+04-4.42014E-10 7.92352E-09
 -1       611 2.55182E+04 7.36952E+00-5.56330E+02 2.94511E+04-1.91267E-09 4.17117E-09
 -1       612 2.55415E+04 1.44672E+01-2.65308E+02 2.57750E+04-2.26282E-09 2.45564E-09
 -1       613 2.55196E+04 1.50479E+01-1.19567E+02 2.94540E+04-2.64208E-09-1.36495E-08
 -1       614 2.55177E+04 1.32209E+01-3.01240E+01 2.57743E+04-5.22050E-10-9.25411E-11
 -1       615 2.55091E+04 1.96769E+01 4.53929E+01 2.94545E+04 3.24872E-09 9.19840E-09
 -1       616 2.54994E+04 1.85497E+01 1.40406E+02 2.57745E+04-1.84627E-09 8.55653E-09
 -1       617 2.55213E+04 5.24200E+01 3.22208E+02 2.94539E+04 2.79397E-09-3.36377E-09
 -1       618 2.54680E+04 1.13603E+02 6.50036E+02 2.57747E+04 6.15728E-10 2.46928E-09
 -1       619 2.57480E+04 5.56800E+02 1.46017E+03 2.94531E+04-1.39698E-09-8.91509E-09
 -1       620 2.52504E+04 1.65660E+03 2.93497E+03 2.57741E+04 1.49953E-10 9.00400E-11
 -1       621 2.97400E+02 2.42373E+05 2.66446E+03 2.02503E+04 2.46928E-10 1.43291E-09
 -1       622 3.71707E+02 2.43018E+05 2.47245E+03 2.94503E+04 3.03999E-10 1.11504E-09
 -1       623 3.50296E+01 2.42519E+05 3.11532E+03 2.01547E+04 3.71870E-10 9.22455E-09
 -1       624 1.51515E+03 2.44040E+05 6.15467E+03 2.95472E+04 3.75145E-10 9.11223E-09
 -1       625 1.51622E+03 2.41304E+05 1.08113E+04 2.01519E+04 4.44743E-10 2.33649E-08
 -1       626 2.13909E+05 5.49214E+04 4.60543E+03 1.09620E+05-2.64663E-09 5.04406E-09
 -1       627 2.11551E+05 5.64517E+04 2.21929E+03 1.13764E+05-2.05591E-09-1.44930E-08
 -1       628 2.14042E+05 5.27908E+04 9.37922E+02 1.10373E+05-1.16597E-09 7.03039E-10
 -1       629 2.10946E+05 5.58710E+04 4.59154E+02 1.14009E+05 2.88492E-09-3.68439E-09
 -1       630 2.14052E+05 5.26895E+04 2.12299E+02 1.10400E+05 7.10952E-09 8.09189E-09
 -1       631 2.10876E+05 5.58524E+04 1.13450E+02 1.14009E+05 3.24553E-09 1.60636E-08
 -1       632 2.14044E+05 5.26957E+04 7.32350E+01 1.10393E+05-2.27828E-09 7.74776E-10
 -1       633 2.10864E+05 5.58566E+04 7.94271E+01 1.14003E+05-3.85762E-09-1.39232E-08
 -1       634 2.14036E+05 5.26956E+04 1.26408E+02 1.10389E+05 2.02726E-09-2.87650E-09
 -1       635 2.10872E+05 5.58571E+04 2.54701E+02 1.14004E+05-3.36081E-09-9.01241E-09
 -1       636 2.14025E+05 5.26929E+04 5.13751E+02 1.10387E+05-6.89511E-11 1.56188E-08
 -1       637 2.10980E+05 5.59377E+04 1.12897E+03 1.14001E+05-1.70166E-09-1.14605E-08
 -1       638 2.13984E+05 5.29433E+04 2.31972E+03 1.10273E+05 4.71573E-10-1.35014E-09
 -1       639 2.12198E+05 5.76320E+04 5.48804E+03 1.13641E+05 1.54000E-09 6.67387E-09
 -1       640 2.13819E+05 5.79987E+04 1.13887E+04 1.08135E+05 2.23872E-09 3.24439E-09
 -1       656 5.59337E+04-1.42394E+06-1.35025E+05-9.29685E+02 1.38243E-10-9.68532E-09
 -1       657-7.39613E+04-1.48492E+06-1.11778E+05 7.02897E+03-6.76664E-10 2.14289E-09
 -1       658 1.77936E+04-1.44129E+06-6.87405E+04-2.51472E+03-4.21778E-10 6.38316E-09
 -1       659-7.97010E+04-1.48764E+06-1.19318E+05 8.21092E+03-1.16233E-09-1.33926E-08
 -1       660 6.16602E+04-1.42122E+06-1.47990E+05-2.11161E+03-1.14233E-09 3.93641E-11
 -1       661 1.64792E+05 1.76663E+04 1.64790E+04 6.44406E+04 2.32012E-09 3.25417E-09
 -1       662 1.73737E+05 3.02346E+04 1.11048E+04 6.11665E+04 2.49747E-09 4.64979E-11
 -1       663 1.68026E+05 2.29548E+04 3.88422E+03 6.35037E+04 2.24111E-09 5.59999E-09
 -1       664 1.69990E+05 2.40475E+04 2.32286E+03 6.23087E+04 1.05661E-09 8.45307E-09
 -1       665 1.68514E+05 2.36796E+04 9.16344E+02 6.33637E+04 5.30349E-11 4.19436E-09
 -1       666 1.69415E+05 2.32166E+04 5.35325E+02 6.24899E+04-2.63174E-09 5.67422E-09
 -1       667 1.68598E+05 2.37640E+04 2.83344E+02 6.33305E+04 8.10161E-10 1.21957E-08
 -1       668 1.69324E+05 2.31532E+04 2.86395E+02 6.25382E+04-2.25981E-10-7.07340E-09
 -1       669 1.68604E+05 2.37411E+04 3.85846E+02 6.33159E+04 1.69756E-09 7.01985E-09
 -1       670 1.69419E+05 2.33606E+04 8.38418E+02 6.25399E+04-2.33408E-09 8.68718E-09
 -1       671 1.68503E+05 2.35608E+04 1.48808E+03 6.33270E+04 1.67440E-09 2.99997E-09
 -1       672 1.70286E+05 2.48082E+04 3.80674E+03 6.23302E+04 1.61911E-09 1.52795E-10
 -1       673 1.67742E+05 2.23299E+04 6.37930E+03 6.35117E+04 2.40232E-09 7.45376E-09
 -1       674 1.76359E+05 3.50556E+04 1.82434E+04 6.05447E+04-1.87447E-09 2.25782E-10
 -1       675 1.62469E+05 1.36002E+04 2.70793E+04 6.50045E+04 2.90129E-10-5.29326E-09
 -1       676 2.14422E+01-2.60272E+05-9.95975E+02-1.56811E+01 2.24560E-10 1.53435E-09
 -1       677-2.64500E+02-2.60512E+05-1.82278E+03 3.13418E+01 3.47882E-11-8.65145E-09
 -1       678 1.76569E+02-2.60100E+05-3.22220E+03-1.56500E+01-1.62800E-10 7.45196E-09
 -1       679-3.22315E+03-2.62457E+05-7.65448E+03 3.12227E+01 2.10287E-09 9.62618E-09
 -1       680 1.92361E+03-2.58328E+05-1.23364E+04-1.53859E+01-9.49967E-10-6.36033E-09
 -1       771-2.74641E+06-5.80761E+05-9.46643E+04-1.24149E+06-2.14495E-08-1.75496E-08
 -1       772-2.69873E+06-6.41824E+05-4.94317E+04-1.31132E+06-1.49303E-08 3.34694E-09
 -1       773-2.76368E+06-5.67126E+05-2.38866E+04-1.24795E+06-1.26602E-08 7.66886E-09
 -1       774-2.68992E+06-6.31840E+05-1.09399E+04-1.32416E+06 1.53377E-08-7.89441E-10
 -1       775-2.77137E+06-5.61680E+05-7.31779E+03-1.25039E+06-5.44242E-09 2.05182E-09
 -1       776-2.69417E+06-6.31111E+05-2.88218E+03-1.33316E+06-7.85803E-09 2.47746E-09
 -1       777-2.77776E+06-5.56997E+05-2.93200E+03-1.25253E+06-1.16415E-09 3.25599E-09
 -1       778-2.69887E+06-6.30541E+05-8.82685E+02-1.34080E+06 5.29690E-09 5.87352E-09
 -1       779-2.78315E+06-5.52978E+05-1.37782E+03-1.25437E+06 1.04774E-09 8.22183E-10
 -1       780-2.70301E+06-6.29969E+05-2.50938E+02-1.34700E+06-5.97356E-09 2.62844E-10
 -1       781-2.78736E+06-5.49775E+05-5.30726E+02-1.25580E+06-2.02272E-08-2.67391E-10
 -1       782-2.70617E+06-6.29450E+05 1.47897E+02-1.35156E+06-2.56696E-08-3.85580E-09
 -1       783-2.79030E+06-5.47583E+05 2.23492E+02-1.25682E+06-4.30009E-09-9.91849E-09
 -1       784-2.70791E+06-6.28813E+05 1.03308E+03-1.35436E+06-1.39771E-08 4.69072E-10
 -1       785-2.79198E+06-5.46322E+05 1.80982E+03-1.25746E+06-2.47073E-08 5.25051E-09
 -1       786 1.24626E+05-9.09392E+03 2.10384E+04-1.54581E+02 1.10496E-09 7.71797E-09
 -1       787 1.33749E+05 1.05280E+04 1.48841E+04 5.93482E+00 3.75740E-09-1.11504E-09
 -1       788 1.28143E+05-1.42543E+03 5.44367E+03-1.27120E+02 2.23606E-09 1.33355E-08
 -1       789 1.29650E+05 1.64920E+03 3.41818E+03-3.80633E+01-8.67442E-10 6.50601E-09
 -1       790 1.28724E+05-2.22373E+02 1.38582E+03-1.10589E+02-1.86344E-09-2.27635E-09
 -1       791 1.28972E+05 2.57027E+02 8.04057E+02-6.67301E+01-3.04973E-09 1.61057E-09
 -1       792 1.28822E+05-3.43030E+01 3.47984E+02-9.84541E+01-1.53378E-09 1.04347E-08
 -1       793 1.28856E+05 3.91059E+01 1.89419E+02-8.95790E+01 2.99001E-10-1.14438E-08
 -1       794 1.28840E+05-4.58922E+00 8.12480E+01-8.77399E+01 1.82347E-09-1.82417E-08
 -1       795 1.28834E+05 1.47455E+00 3.21812E+01-1.11878E+02-2.79833E-09 1.21482E-08
 -1       796 1.28845E+05 3.30913E+00-3.41634E+00-7.61550E+01 1.13671E-09-3.72638E-09
 -1       797 1.28818E+05-2.90144E+01-5.07473E+01-1.38343E+02 1.68947E-09-4.93318E-09
 -1       798 1.28856E+05 2.58757E+01-9.38554E+01-6.12740E+01 1.09279E-09 4.82090E-09
 -1       799 1.28744E+05-1.91390E+02-2.68180E+02-1.74567E+02 2.04394E-09 7.86446E-09
 -1       800 1.28919E+05 1.65543E+02-3.82323E+02-3.99308E+01 1.28151E-10 1.71461E-08
 -1       801 5.20502E+04-5.05935E+06-5.75721E+05 3.54855E+05 4.56785E-08-3.27800E-08
 -1       802 3.04264E+04-1.63384E+06 2.78751E+05-3.66139E+05 1.30596E-07-1.36199E-08
 -1       803-8.30811E+04-5.55460E+06-4.14352E+05 2.80026E+05 4.95784E-08 2.61789E-08
 -1       804 1.02182E+03-2.63239E+06 2.00870E+05 2.54092E+05-3.18432E-08-2.65472E-08
 -1       805 6.57629E+04-4.06936E+06-7.62508E+04-2.64679E+05-1.34660E-08-1.69966E-08
 -1       806-2.59641E+05-4.90849E+04-1.89089E+04-1.01524E+05-6.97628E-09-5.26506E-09
 -1       807-2.61318E+05-4.58087E+04-9.28970E+03-1.05887E+05 4.45380E-09-6.60691E-10
 -1       808-2.60146E+05-4.22851E+04-3.94109E+03-1.04763E+05-1.65801E-09-1.23721E-08
 -1       809-2.59374E+05-4.31909E+04-1.92713E+03-1.06107E+05 1.25169E-09 1.05631E-08
 -1       810-2.60225E+05-4.20481E+04-8.83217E+02-1.04907E+05 4.44379E-09 1.15476E-08
 -1       811-2.59225E+05-4.30848E+04-4.39158E+02-1.06079E+05 2.54204E-09-3.68345E-10
 -1       812-2.60238E+05-4.20678E+04-2.21843E+02-1.04908E+05 1.82445E-09 1.23016E-08
 -1       813-2.59205E+05-4.30860E+04-1.43863E+02-1.06064E+05-1.45064E-10-3.97131E-09
 -1       814-2.60234E+05-4.20747E+04-1.41886E+02-1.04905E+05 4.32465E-09-6.92398E-09
 -1       815-2.59210E+05-4.30872E+04-2.28332E+02-1.06060E+05 6.50289E-09 2.58751E-10
 -1       816-2.60219E+05-4.20726E+04-4.32235E+02-1.04903E+05 3.99177E-09 1.39294E-08
 -1       817-2.59285E+05-4.31280E+04-9.28033E+02-1.06053E+05-3.60933E-09 9.26207E-09
 -1       818-2.60166E+05-4.22017E+04-1.89250E+03-1.04842E+05 3.64980E-09 8.16226E-09
 -1       819-2.60321E+05-4.42736E+04-4.45376E+03-1.05814E+05 3.85626E-10-2.32012E-09
 -1       820-2.59817E+05-4.55592E+04-9.06456E+03-1.03399E+05-1.06229E-09-1.15836E-09
 -1       821-3.16982E+05 1.75148E+04-4.05100E+04 5.44974E+02-1.09681E-06 8.57981E-08
 -1       822-3.34520E+05-2.02762E+04-2.86640E+04-1.21614E+03-2.27222E-06-7.16454E-09
 -1       823-3.23745E+05 2.74659E+03-1.04911E+04 6.14118E+02-1.12707E-06-3.94948E-09
 -1       824-3.26611E+05-3.17777E+03-6.59843E+03-1.05660E+03-2.74340E-09-3.69312E-09
 -1       825-3.24888E+05 4.29157E+02-2.71762E+03 3.85434E+02 1.95869E-09 4.69163E-09
 -1       826-3.25264E+05-5.05035E+02-1.62795E+03-4.09317E+02 2.18695E-09-1.42859E-09
 -1       827-3.25089E+05 7.47968E+01-8.57773E+02-3.31728E+01-8.49809E-10-7.74040E-09
 -1       828-3.25086E+05-1.54059E+02-7.43245E+02 4.21155E+02-2.71806E-09 2.44309E-08
 -1       829-3.25067E+05 7.84575E+01-8.74415E+02-4.45053E+02 1.20124E-10 8.33015E-09
 -1       830-3.25325E+05-5.27087E+02-1.69864E+03 1.04386E+03 9.49434E-10 1.53764E-09
 -1       831-3.24851E+05 4.48570E+02-2.82087E+03-6.55885E+02-2.62043E-09-6.97707E-09
 -1       832-3.26693E+05-3.30981E+03-6.87390E+03 1.16526E+03-1.45164E-09-1.22485E-08
 -1       833-3.23700E+05 2.85947E+03-1.09279E+04-5.66454E+02-1.96276E-09 2.16869E-09
 -1       834-3.34868E+05-2.11143E+04-2.98435E+04 7.23388E+02-1.13471E-09 5.46288E-09
 -1       835-3.16677E+05 1.82386E+04-4.21968E+04-2.14005E+02 5.22972E-09 1.84627E-09
 -1       836-1.09793E+03 3.00496E+05 1.83222E+04-1.60686E+04-1.83172E-09 3.09637E-09
 -1       837 3.97084E+03 3.06204E+05 1.56521E+04-3.23998E+04-1.58605E-09 9.06743E-09
 -1       838-4.26082E+02 3.02077E+05 1.61559E+04-1.60034E+04-1.11231E-09 3.49610E-09
 -1       839 1.03145E+04 3.10932E+05 3.07667E+04-3.24414E+04-8.13998E-10 4.00951E-09
 -1       840-3.14380E+03 2.95723E+05 4.91509E+04-1.60273E+04-1.21145E-09-5.30440E-09
 -1       856-6.99951E+04 7.65499E+03-2.01731E+04-4.14462E+02-7.27312E-10-2.40925E-09
 -1       857-7.83204E+04-8.98337E+03-1.38879E+04 4.94392E+03 1.54375E-09-6.74299E-09
 -1       858-7.32869E+04 1.07288E+03-5.23499E+03-4.36691E+02-2.72206E-09 8.22638E-10
 -1       859-7.45413E+04-1.25189E+03-3.16048E+03 4.97852E+03 9.78929E-10 8.08586E-09
 -1       860-7.37788E+04 1.49548E+02-1.32683E+03-4.49059E+02 4.66628E-10 1.67641E-08
 -1       861-7.39750E+04-1.68967E+02-7.34720E+02 4.99545E+03 1.39515E-10-1.24589E-09
 -1       862-7.38556E+04 1.98685E+01-3.15043E+02-4.53632E+02 4.47241E-09-5.97736E-09
 -1       863-7.38826E+04-1.34369E+01-1.36625E+02 4.99775E+03 3.94252E-09 3.83925E-09
 -1       864-7.38715E+04-2.51512E+00-4.18293E+00-4.51364E+02 2.14716E-09-3.49263E-09
 -1       865-7.38431E+04 4.22906E+01 1.33952E+02 4.98580E+03 3.58246E-09 3.32840E-09
 -1       866-7.38933E+04-3.61365E+01 2.95199E+02-4.41687E+02-1.34298E-09-7.50730E-09
 -1       867-7.36974E+04 3.00606E+02 7.42895E+02 4.95947E+03-1.56336E-09-8.72134E-10
 -1       868-7.40133E+04-2.56925E+02 1.23830E+03-4.25028E+02 9.46386E-10-4.84960E-09
 -1       869-7.27845E+04 2.13748E+03 3.30330E+03 4.91564E+03-1.61427E-09-1.31019E-08
 -1       870-7.48000E+04-1.82422E+03 4.79288E+03-3.97853E+02 1.05570E-09-1.10990E-08
 -1       871-4.76225E+03-1.30463E+04-1.59127E+04 1.05959E+05-2.03727E-10 1.51613E-08
 -1       872-1.94744E+03-1.66620E+04-6.56653E+03 1.37379E+05-1.21963E-09 2.03418E-08
 -1       873 8.54763E+01-1.49545E+04 7.24015E+02 1.05727E+05-7.24867E-10 9.72830E-09
 -1       874 2.51077E+03-1.27871E+04 8.55169E+03 1.37417E+05-1.61549E-09 9.20409E-09
 -1       875 5.66125E+03-1.69871E+04 1.91031E+04 1.05922E+05-5.57520E-10-3.41697E-09
 -1       876 2.50295E+05 4.26566E+04 1.30763E+04 1.01002E+05 5.32123E-09-3.99541E-09
 -1       877 2.51110E+05 4.54602E+04 6.98318E+03 1.04798E+05 4.70322E-09-1.55003E-08
 -1       878 2.51517E+05 4.12095E+04 2.92563E+03 1.02075E+05 1.32322E-08 9.33505E-09
 -1       879 2.49332E+05 4.36873E+04 1.45759E+03 1.04889E+05 1.47545E-08 9.51502E-09
 -1       880 2.51605E+05 4.11941E+04 6.78813E+02 1.02119E+05 1.06543E-08 5.92684E-09
 -1       881 2.49214E+05 4.36117E+04 3.62137E+02 1.04869E+05 1.10094E-09-1.31090E-08
 -1       882 2.51614E+05 4.12051E+04 2.31077E+02 1.02120E+05 4.88762E-09-7.60961E-09
 -1       883 2.49205E+05 4.36080E+04 2.47438E+02 1.04863E+05 3.24007E-12 3.27401E-09
 -1       884 2.51608E+05 4.12025E+04 3.92734E+02 1.02121E+05 2.96438E-10-2.96097E-09
 -1       885 2.49237E+05 4.36135E+04 7.89065E+02 1.04873E+05-3.44244E-10-9.88393E-09
 -1       886 2.51578E+05 4.11795E+04 1.59007E+03 1.02118E+05 5.07064E-09 2.92778E-09
 -1       887 2.49516E+05 4.37967E+04 3.47322E+03 1.04913E+05 8.13884E-10 1.01270E-08
 -1       888 2.51358E+05 4.12181E+04 6.99864E+03 1.02006E+05 3.83261E-09 5.61431E-09
 -1       889 2.53684E+05 4.81282E+04 1.67188E+04 1.04784E+05 1.48826E-08-4.62023E-10
 -1       890 2.48506E+05 4.46067E+04 3.13135E+04 9.93378E+04 5.92763E-09 3.51611E-09
 -1       891-1.26131E+02-1.40393E+05-1.69364E+03 2.50491E+04-6.59384E-12-8.38486E-09
 -1       892-2.25775E+02-1.40814E+05-1.82852E+03 3.79495E+04 7.59428E-10-1.69359E-08
 -1       893-1.35763E+01-1.40447E+05-2.59883E+03 2.50547E+04-2.16460E-10-1.29057E-08
 -1       894-1.37190E+03-1.41802E+05-5.38576E+03 3.78122E+04 5.86624E-10-8.27640E-10
 -1       895-1.07910E+03-1.39325E+05-9.48709E+03 2.51855E+04-3.15026E-10-1.76260E-09
 -1       956-3.18249E+05-4.49063E+03-1.12396E+04 2.27472E+04-2.68483E-09 3.41333E-09
 -1       957-3.20464E+05-1.53502E+03-5.76971E+03 2.73814E+04-8.82210E-10-1.02600E-08
 -1       958-3.19250E+05-1.43211E+02-2.59959E+03 2.26134E+04 2.91584E-09 8.10019E-09
 -1       959-3.19424E+05-4.69853E+01-1.32774E+03 2.75303E+04 3.76667E-09 9.60063E-09
 -1       960-3.19343E+05 1.64859E+01-6.47407E+02 2.26002E+04 5.39330E-09-5.15661E-09
 -1       961-3.19350E+05 1.06864E+01-3.43601E+02 2.75455E+04 6.64136E-09-4.76439E-09
 -1       962-3.19362E+05 1.30984E+01-1.97017E+02 2.25981E+04 1.82467E-09-3.11775E-09
 -1       963-3.19348E+05 1.27080E+01-1.58761E+02 2.75482E+04 2.20143E-09 7.93557E-09
 -1       964-3.19366E+05 1.54240E+01-1.93586E+02 2.25975E+04 2.03295E-09-2.77305E-09
 -1       965-3.19359E+05 1.56343E+01-3.35251E+02 2.75479E+04-3.30886E-10 9.12451E-10
 -1       966-3.19354E+05 2.34053E+01-6.29894E+02 2.25985E+04 6.23390E-09-3.78122E-09
 -1       967-3.19439E+05-3.56664E+01-1.29210E+03 2.75379E+04 5.39785E-09 1.00372E-08
 -1       968-3.19272E+05-1.27444E+02-2.52902E+03 2.26076E+04 4.61841E-09 1.55643E-08
 -1       969-3.20460E+05-1.47969E+03-5.61494E+03 2.74321E+04 2.71757E-09 5.07544E-09
 -1       970-3.18303E+05-4.35538E+03-1.09373E+04 2.27037E+04-5.61613E-10 1.39580E-08
 -1       971-2.96458E+05-1.52299E+03-8.37370E+03 1.37925E+04-2.94949E-09-7.44993E-09
 -1       972-2.98487E+05-1.10191E+03-4.56024E+03 1.92032E+04 3.27418E-11-1.07505E-08
 -1       973-2.97390E+05-2.57521E+01-2.04226E+03 1.36793E+04-1.16142E-09 2.30943E-09
 -1       974-2.97524E+05-3.12853E+01-1.05825E+03 1.93275E+04-7.62839E-10-2.36912E-09
 -1       975-2.97463E+05 1.40426E+01-5.28467E+02 1.36685E+04 2.61480E-10 6.77665E-09
 -1       976-2.97468E+05 1.30828E+01-3.03950E+02 1.93410E+04-2.25668E-09-4.71664E-09
 -1       977-2.97477E+05 1.42692E+01-2.18933E+02 1.36658E+04 1.11413E-11-4.52792E-09
 -1       978-2.97472E+05 1.83290E+01-2.53919E+02 1.93448E+04 5.90899E-09 1.43251E-08
 -1       979-2.97477E+05 2.13763E+01-4.06010E+02 1.36646E+04 3.57016E-09 9.33778E-09
 -1       980-2.97502E+05 2.09112E+01-7.82726E+02 1.93455E+04 3.44099E-09 7.66249E-11
 -1       981-2.97452E+05 4.09033E+01-1.51531E+03 1.36651E+04 3.01964E-09-1.14738E-09
 -1       982-2.97710E+05-9.09992E+01-3.13176E+03 1.93396E+04-2.28431E-09 1.08980E-08
 -1       983-2.97261E+05-5.60508E+01-6.08484E+03 1.36707E+04-5.88352E-09 1.75214E-09
 -1       984-3.00637E+05-3.26879E+03-1.36264E+04 1.92619E+04-3.47882E-09 8.40623E-09
 -1       985-2.94507E+05-4.50855E+03-2.50224E+04 1.37441E+04 3.86990E-09-2.10457E-09
 -3
    1PSTEP                        21          11           1          
  100CL  111 5.97900E-01         409                     0   11           1
 -4  DISP        4    1
 -5  D1          1    2    1    0
 -5  D2          1    2    2    0
 -5  D3          1    2    3    0
 -5  ALL         1    2    0    0    1ALL
 -1         1 1.04215E-03 0.00000E+00 0.00000E+00
 -1         2 9.80848E-04 4.96124E-29 1.32349E-23
 -1         3 2.52634E-04-3.16710E-28 1.32349E-23
 -1         5 1.43383E-04-5.06663E-26 1.65436E-24
 -1         8 1.02100E-03-6.63693E-07 0.00000E+00
 -1         9 9.94219E-04-3.04067E-06 0.00000E+00
 -1        10 2.30134E-04-3.12511E-06 6.61744E-24
 -1        12 1.44039E-04 6.85243E-07 8.27181E-25
 -1        15 9.95535E-04-7.34686E-07 0.00000E+00
 -1        16 1.00307E-03-3.72118E-06 0.00000E+00
 -1        17 1.59998E-04-6.83939E-06 0.00000E+00
 -1        18 1.44630E-04 1.77509E-05 0.00000E+00
 -1        19 1.46005E-04 1.36671E-06 0.00000E+00
 -1        20 1.46152E-04 3.10809E-06 0.00000E+00
 -1        21 1.45425E-04 2.26199E-06 3.30872E-24
 -1        24 2.64190E-05-9.80933E-06 0.00000E+00
 -1        25 1.49437E-04 1.79265E-05 0.00000E+00
 -1        26 1.50140E-04 1.89374E-06 0.00000E+00
 -1        27 1.48267E-04 2.73309E-08 0.00000E+00
 -1        28 1.47878E-04 1.70526E-06 0.00000E+00
 -1        32 0.00000E+00 0.00000E+00 0.00000E+00
 -1        33 1.53211E-04 2.53700E-06 0.00000E+00
 -1        34 1.51369E-04-9.08777E-09 0.00000E+00
 -1        35 1.49663E-04 1.40454E-06 0.00000E+00
 -1        51 1.04080E-03-1.17547E-07 0.00000E+00
 -1        52 1.03826E-03-2.23817E-07 0.00000E+00
 -1        53 1.03477E-03-3.29487E-07 0.00000E+00
 -1        54 1.03057E-03-4.36505E-07 0.00000E+00
 -1        55 1.02590E-03-5.46127E-07 4.13590E-25
 -1        56 1.03939E-03-5.29685E-07-5.29396E-23
 -1        57 1.03621E-03-2.23800E-07-2.64698E-23
 -1        58 1.03274E-03 8.47719E-07 0.00000E+00
 -1        59 1.02903E-03 2.51992E-06-5.29396E-23
 -1        60 1.02518E-03 4.56626E-06 1.05879E-22
 -1        61 1.02128E-03 6.72984E-06 5.29396E-23
 -1        62 1.01743E-03 8.74024E-06 0.00000E+00
 -1        63 1.01375E-03 1.03356E-05 5.29396E-23
 -1        64 1.01029E-03 1.13068E-05-1.05879E-22
 -1        65 1.00714E-03 1.14838E-05 5.29396E-23
 -1        66 1.00431E-03 1.07965E-05-1.05879E-22
 -1        67 1.00182E-03 9.22991E-06 0.00000E+00
 -1        68 9.99619E-04 6.87889E-06 0.00000E+00
 -1        69 9.97671E-04 3.89341E-06-2.64698E-23
 -1        70 9.95873E-04 4.91989E-07-5.29396E-23
 -1        86 9.81393E-04-5.02115E-07 0.00000E+00
 -1        87 9.83019E-04-1.00559E-06 0.00000E+00
 -1        88 9.85454E-04-1.51063E-06 1.32349E-23
 -1        89 9.88408E-04-2.01847E-06-6.61744E-24
 -1        90 9.91469E-04-2.52612E-06 0.00000E+00
 -1       121 2.52003E-04-5.11955E-07-1.32349E-23
 -1       122 2.50111E-04-1.02545E-06 0.00000E+00
 -1       123 2.46965E-04-1.54198E-06-1.32349E-23
 -1       124 2.42577E-04-2.06312E-06-6.61744E-24
 -1       125 2.36959E-04-2.59011E-06 0.00000E+00
 -1       191 1.43402E-04 1.14219E-07-3.30872E-24
 -1       192 1.43456E-04 2.28435E-07 0.00000E+00
 -1       193 1.43547E-04 3.42649E-07-3.30872E-24
 -1       194 1.43675E-04 4.56857E-07 0.00000E+00
 -1       195 1.43838E-04 5.71056E-07 3.30872E-24
 -1       251 1.02035E-03-9.49963E-06 1.32349E-23
 -1       252 1.01915E-03-4.42239E-05 0.00000E+00
 -1       253 1.01716E-03-9.79664E-05 0.00000E+00
 -1       254 1.01450E-03-1.63386E-04 6.61744E-24
 -1       255 1.01178E-03-2.29786E-04 1.32349E-23
 -1       256 1.00964E-03-2.86450E-04-6.61744E-24
 -1       257 1.00829E-03-3.25465E-04-1.32349E-23
 -1       258 1.00757E-03-3.39352E-04 0.00000E+00
 -1       259 1.00688E-03-3.27635E-04 0.00000E+00
 -1       260 1.00559E-03-2.90495E-04 6.61744E-24
 -1       261 1.00352E-03-2.35194E-04 0.00000E+00
 -1       262 1.00084E-03-1.69437E-04 6.61744E-24
 -1       263 9.98182E-04-1.03942E-04-1.32349E-23
 -1       264 9.96152E-04-4.94216E-05 0.00000E+00
 -1       265 9.94904E-04-1.34219E-05 0.00000E+00
 -1       266 1.01676E-03-6.85076E-07 0.00000E+00
 -1       267 1.01251E-03-6.95744E-07 8.27181E-25
 -1       268 1.00827E-03-7.07090E-07 0.00000E+00
 -1       269 1.00402E-03-7.16427E-07 0.00000E+00
 -1       270 9.99779E-04-7.25717E-07 0.00000E+00
 -1       271 1.01845E-03 3.03147E-06-2.64698E-23
 -1       272 1.01602E-03 6.33929E-06 0.00000E+00
 -1       273 1.01374E-03 9.22008E-06-2.64698E-23
 -1       274 1.01165E-03 1.16246E-05 1.32349E-23
 -1       275 1.00974E-03 1.35141E-05 0.00000E+00
 -1       276 1.00804E-03 1.48548E-05 1.32349E-23
 -1       277 1.00656E-03 1.56210E-05 0.00000E+00
 -1       278 1.00530E-03 1.57940E-05-1.32349E-23
 -1       279 1.00427E-03 1.53636E-05 0.00000E+00
 -1       280 1.00346E-03 1.43274E-05 0.00000E+00
 -1       281 1.00288E-03 1.26914E-05 0.00000E+00
 -1       282 1.00251E-03 1.04693E-05-1.32349E-23
 -1       283 1.00236E-03 7.68308E-06-2.64698E-23
 -1       284 1.00241E-03 4.36313E-06-1.32349E-23
 -1       285 1.00265E-03 5.44722E-07 2.64698E-23
 -1       301 9.95811E-04-3.17304E-06 1.32349E-23
 -1       302 9.96759E-04-3.27849E-06 0.00000E+00
 -1       303 9.97509E-04-3.38186E-06-6.61744E-24
 -1       304 9.98512E-04-3.48510E-06 0.00000E+00
 -1       305 1.00022E-03-3.59098E-06 1.32349E-23
 -1       306 1.01747E-03-8.68734E-05 0.00000E+00
 -1       307 1.07373E-03-3.25585E-04-2.64698E-23
 -1       308 1.14111E-03-6.80546E-04 0.00000E+00
 -1       309 1.20879E-03-1.09959E-03 0.00000E+00
 -1       310 1.27650E-03-1.51229E-03 0.00000E+00
 -1       311 1.34301E-03-1.84882E-03-5.29396E-23
 -1       312 1.39505E-03-2.06057E-03-1.05879E-22
 -1       313 1.40899E-03-2.11401E-03 5.29396E-23
 -1       314 1.35906E-03-2.01008E-03 0.00000E+00
 -1       315 1.22778E-03-1.76863E-03 5.29396E-23
 -1       316 1.02418E-03-1.43206E-03 0.00000E+00
 -1       317 7.74822E-04-1.04575E-03 0.00000E+00
 -1       318 5.27332E-04-6.61399E-04 0.00000E+00
 -1       319 3.28862E-04-3.30847E-04 0.00000E+00
 -1       320 2.04096E-04-9.88435E-05 0.00000E+00
 -1       336 2.21966E-04-3.71025E-06 0.00000E+00
 -1       337 2.12329E-04-4.30857E-06-6.61744E-24
 -1       338 2.01262E-04-4.92078E-06 1.32349E-23
 -1       339 1.88814E-04-5.54703E-06-6.61744E-24
 -1       340 1.75039E-04-6.19008E-06 1.32349E-23
 -1       406 1.44275E-04 7.99409E-07 0.00000E+00
 -1       407 1.44549E-04 9.13530E-07 1.65436E-24
 -1       408 1.44858E-04 1.02757E-06 3.30872E-24
 -1       409 1.45204E-04 1.14140E-06 8.27181E-25
 -1       410 1.45587E-04 1.25479E-06 0.00000E+00
 -1       521 1.02771E-03-9.59672E-05 1.05879E-22
 -1       522 1.08564E-03-3.54558E-04-5.29396E-23
 -1       523 1.15294E-03-7.38272E-04 0.00000E+00
 -1       524 1.21875E-03-1.18977E-03 5.29396E-23
 -1       525 1.28480E-03-1.63382E-03-1.05879E-22
 -1       526 1.35159E-03-1.99596E-03 0.00000E+00
 -1       527 1.40503E-03-2.22288E-03 0.00000E+00
 -1       528 1.41889E-03-2.27942E-03 5.29396E-23
 -1       529 1.36304E-03-2.16597E-03 0.00000E+00
 -1       530 1.21757E-03-1.90614E-03-5.29396E-23
 -1       531 9.91399E-04-1.54530E-03 0.00000E+00
 -1       532 7.14310E-04-1.13249E-03 5.29396E-23
 -1       533 4.38851E-04-7.21286E-04 0.00000E+00
 -1       534 2.17133E-04-3.65369E-04-5.29396E-23
 -1       535 7.72909E-05-1.13318E-04 0.00000E+00
 -1       536 1.59548E-04 1.78853E-05-6.61744E-24
 -1       537 1.58522E-04 6.06596E-05 0.00000E+00
 -1       538 1.56976E-04 1.14837E-04 0.00000E+00
 -1       539 1.55177E-04 1.73710E-04-1.65436E-24
 -1       540 1.53558E-04 2.29208E-04 0.00000E+00
 -1       541 1.52488E-04 2.73279E-04 0.00000E+00
 -1       542 1.51964E-04 3.01067E-04 3.30872E-24
 -1       543 1.51791E-04 3.07817E-04 1.65436E-24
 -1       544 1.51553E-04 2.94178E-04-3.30872E-24
 -1       545 1.50873E-04 2.60943E-04 1.65436E-24
 -1       546 1.49681E-04 2.14022E-04 0.00000E+00
 -1       547 1.48112E-04 1.59406E-04-1.65436E-24
 -1       548 1.46569E-04 1.05280E-04 0.00000E+00
 -1       549 1.45443E-04 5.98274E-05 1.65436E-24
 -1       550 1.44832E-04 2.87726E-05 0.00000E+00
 -1       551 1.41664E-04-7.25588E-06 0.00000E+00
 -1       552 1.20628E-04-7.71813E-06-3.30872E-24
 -1       553 9.77301E-05-8.21733E-06 3.30872E-24
 -1       554 7.38264E-05-8.74038E-06-6.61744E-24
 -1       555 4.97725E-05-9.26933E-06 0.00000E+00
 -1       556 1.54650E-04 6.91842E-06 0.00000E+00
 -1       557 1.50388E-04 1.79194E-05 0.00000E+00
 -1       558 1.47105E-04 2.63892E-05 0.00000E+00
 -1       559 1.44701E-04 3.25714E-05 0.00000E+00
 -1       560 1.43077E-04 3.67099E-05 0.00000E+00
 -1       561 1.42135E-04 3.90502E-05 1.32349E-23
 -1       562 1.41778E-04 3.98386E-05 0.00000E+00
 -1       563 1.41912E-04 3.93218E-05 0.00000E+00
 -1       564 1.42442E-04 3.77472E-05-1.32349E-23
 -1       565 1.43275E-04 3.53624E-05 0.00000E+00
 -1       566 1.44317E-04 3.24153E-05 0.00000E+00
 -1       567 1.45476E-04 2.91541E-05-1.65436E-24
 -1       568 1.46660E-04 2.58270E-05-8.27181E-25
 -1       569 1.47776E-04 2.26820E-05 0.00000E+00
 -1       570 1.48732E-04 1.99672E-05 0.00000E+00
 -1       571 1.44713E-04 1.66928E-05 8.27181E-25
 -1       572 1.44799E-04 1.55824E-05 4.13590E-25
 -1       573 1.44884E-04 1.44313E-05-3.30872E-24
 -1       574 1.44970E-04 1.32518E-05 0.00000E+00
 -1       575 1.45056E-04 1.20560E-05-3.30872E-24
 -1       576 1.45142E-04 1.08565E-05 0.00000E+00
 -1       577 1.45229E-04 9.66549E-06 0.00000E+00
 -1       578 1.45315E-04 8.49538E-06 0.00000E+00
 -1       579 1.45401E-04 7.35852E-06 0.00000E+00
 -1       580 1.45487E-04 6.26727E-06-6.61744E-24
 -1       581 1.45573E-04 5.23402E-06 0.00000E+00
 -1       582 1.45660E-04 4.27109E-06 0.00000E+00
 -1       583 1.45746E-04 3.39083E-06 0.00000E+00
 -1       584 1.45833E-04 2.60545E-06 0.00000E+00
 -1       585 1.45919E-04 1.92705E-06 0.00000E+00
 -1       586 1.45380E-04 1.77820E-05 1.65436E-24
 -1       587 1.46100E-04 1.78125E-05-1.03398E-25
 -1       588 1.46828E-04 1.78427E-05 0.00000E+00
 -1       589 1.47602E-04 1.78723E-05 0.00000E+00
 -1       590 1.48460E-04 1.79010E-05 0.00000E+00
 -1       591 1.44978E-04 1.67585E-05 1.03398E-25
 -1       592 1.45332E-04 1.57422E-05 0.00000E+00
 -1       593 1.45692E-04 1.47079E-05 8.27181E-25
 -1       594 1.46057E-04 1.36606E-05 0.00000E+00
 -1       595 1.46425E-04 1.26053E-05 8.27181E-25
 -1       596 1.46794E-04 1.15469E-05 4.13590E-25
 -1       597 1.47162E-04 1.04905E-05-8.27181E-25
 -1       598 1.47527E-04 9.44113E-06 0.00000E+00
 -1       599 1.47888E-04 8.40362E-06 4.13590E-25
 -1       600 1.48243E-04 7.38300E-06 4.13590E-25
 -1       601 1.48589E-04 6.38424E-06-4.13590E-25
 -1       602 1.48926E-04 5.41231E-06 2.06795E-25
 -1       603 1.49250E-04 4.47220E-06 2.06795E-25
 -1       604 1.49562E-04 3.56897E-06 0.00000E+00
 -1       605 1.49858E-04 2.70751E-06 0.00000E+00
 -1       606 1.46018E-04 9.99963E-07 0.00000E+00
 -1       607 1.46029E-04 7.24581E-07 0.00000E+00
 -1       608 1.46038E-04 5.35201E-07 0.00000E+00
 -1       609 1.46047E-04 4.25778E-07 0.00000E+00
 -1       610 1.46056E-04 3.90218E-07 3.30872E-24
 -1       611 1.46065E-04 4.22357E-07 0.00000E+00
 -1       612 1.46074E-04 5.16022E-07 0.00000E+00
 -1       613 1.46082E-04 6.65036E-07 0.00000E+00
 -1       614 1.46091E-04 8.63219E-07-1.65436E-24
 -1       615 1.46100E-04 1.10439E-06 0.00000E+00
 -1       616 1.46109E-04 1.38237E-06 0.00000E+00
 -1       617 1.46118E-04 1.69098E-06 0.00000E+00
 -1       618 1.46126E-04 2.02403E-06-8.27181E-25
 -1       619 1.46135E-04 2.37535E-06-8.27181E-25
 -1       620 1.46144E-04 2.73877E-06 0.00000E+00
 -1       621 1.46519E-04 1.45482E-06-1.65436E-24
 -1       622 1.47130E-04 1.54321E-06-8.27181E-25
 -1       623 1.47817E-04 1.63153E-06-3.30872E-24
 -1       624 1.48561E-04 1.71965E-06 8.27181E-25
 -1       625 1.49342E-04 1.80759E-06 0.00000E+00
 -1       626 1.46240E-04 1.03078E-06 3.30872E-24
 -1       627 1.46449E-04 7.66332E-07 1.65436E-24
 -1       628 1.46635E-04 5.65610E-07 3.30872E-24
 -1       629 1.46800E-04 4.20453E-07 1.65436E-24
 -1       630 1.46947E-04 3.22687E-07-3.30872E-24
 -1       631 1.47079E-04 2.64103E-07 1.65436E-24
 -1       632 1.47200E-04 2.36495E-07 3.30872E-24
 -1       633 1.47312E-04 2.31652E-07 1.65436E-24
 -1       634 1.47419E-04 2.41368E-07-3.30872E-24
 -1       635 1.47523E-04 2.57436E-07 0.00000E+00
 -1       636 1.47628E-04 2.71649E-07 0.00000E+00
 -1       637 1.47737E-04 2.75798E-07-8.27181E-25
 -1       638 1.47852E-04 2.61672E-07 0.00000E+00
 -1       639 1.47977E-04 2.21052E-07 0.00000E+00
 -1       640 1.48115E-04 1.45712E-07-1.65436E-24
 -1       656 1.46006E-04 2.60706E-06 0.00000E+00
 -1       657 1.46256E-04 2.08587E-06 0.00000E+00
 -1       658 1.46763E-04 1.56609E-06 0.00000E+00
 -1       659 1.47382E-04 1.04668E-06-6.61744E-24
 -1       660 1.47941E-04 5.25685E-07-6.61744E-24
 -1       661 1.46099E-04 3.44060E-06 0.00000E+00
 -1       662 1.46078E-04 3.69793E-06 0.00000E+00
 -1       663 1.46084E-04 3.88368E-06 0.00000E+00
 -1       664 1.46115E-04 4.00276E-06 0.00000E+00
 -1       665 1.46169E-04 4.05941E-06 0.00000E+00
 -1       666 1.46246E-04 4.05799E-06 8.27181E-25
 -1       667 1.46343E-04 4.00260E-06 1.65436E-24
 -1       668 1.46458E-04 3.89732E-06 0.00000E+00
 -1       669 1.46591E-04 3.74605E-06-1.65436E-24
 -1       670 1.46739E-04 3.55259E-06 0.00000E+00
 -1       671 1.46902E-04 3.32065E-06 1.65436E-24
 -1       672 1.47078E-04 3.05382E-06 0.00000E+00
 -1       673 1.47265E-04 2.75567E-06-1.65436E-24
 -1       674 1.47462E-04 2.42938E-06 0.00000E+00
 -1       675 1.47669E-04 2.07874E-06 4.13590E-25
 -1       676 1.45836E-04 2.16866E-06 0.00000E+00
 -1       677 1.46245E-04 2.07536E-06 0.00000E+00
 -1       678 1.46655E-04 1.98212E-06-3.30872E-24
 -1       679 1.47064E-04 1.88915E-06 0.00000E+00
 -1       680 1.47472E-04 1.79620E-06 0.00000E+00
 -1       771 1.76593E-05 9.35985E-06 5.29396E-23
 -1       772 1.02382E-05 2.50944E-05 0.00000E+00
 -1       773 4.09230E-06 3.75672E-05 0.00000E+00
 -1       774-8.64650E-07 4.69698E-05 0.00000E+00
 -1       775-4.71741E-06 5.35002E-05-5.29396E-23
 -1       776-7.55418E-06 5.73670E-05-5.29396E-23
 -1       777-9.46350E-06 5.87851E-05-5.29396E-23
 -1       778-1.05358E-05 5.79780E-05 0.00000E+00
 -1       779-1.08615E-05 5.51745E-05-5.29396E-23
 -1       780-1.05327E-05 5.06106E-05 0.00000E+00
 -1       781-9.64115E-06 4.45263E-05 0.00000E+00
 -1       782-8.27983E-06 3.71672E-05-2.64698E-23
 -1       783-6.54146E-06 2.87818E-05 0.00000E+00
 -1       784-4.51971E-06 1.96225E-05 0.00000E+00
 -1       785-2.30777E-06 9.94329E-06-5.29396E-23
 -1       786 1.49477E-04 1.67110E-05 0.00000E+00
 -1       787 1.49521E-04 1.55426E-05 0.00000E+00
 -1       788 1.49564E-04 1.44136E-05-8.27181E-25
 -1       789 1.49608E-04 1.33163E-05 8.27181E-25
 -1       790 1.49652E-04 1.22460E-05 1.65436E-24
 -1       791 1.49696E-04 1.11985E-05-8.27181E-25
 -1       792 1.49740E-04 1.01714E-05 0.00000E+00
 -1       793 1.49785E-04 9.16281E-06 8.27181E-25
 -1       794 1.49829E-04 8.17239E-06 0.00000E+00
 -1       795 1.49873E-04 7.19999E-06-8.27181E-25
 -1       796 1.49917E-04 6.24727E-06 1.65436E-24
 -1       797 1.49962E-04 5.31589E-06-8.27181E-25
 -1       798 1.50006E-04 4.40973E-06-1.65436E-24
 -1       799 1.50051E-04 3.53272E-06-8.27181E-25
 -1       800 1.50095E-04 2.69173E-06-1.65436E-24
 -1       801 1.20534E-04 1.58395E-05 0.00000E+00
 -1       802 3.25708E-05 1.04083E-05-1.32349E-23
 -1       803-4.61667E-05 5.60435E-06 5.29396E-23
 -1       804-4.80861E-05 3.76015E-06 0.00000E+00
 -1       805-1.71532E-05 1.72852E-06 5.29396E-23
 -1       806 1.49794E-04 1.66532E-05 1.65436E-24
 -1       807 1.50137E-04 1.54068E-05-8.27181E-25
 -1       808 1.50467E-04 1.41912E-05 0.00000E+00
 -1       809 1.50785E-04 1.30095E-05 0.00000E+00
 -1       810 1.51089E-04 1.18647E-05 0.00000E+00
 -1       811 1.51378E-04 1.07597E-05 8.27181E-25
 -1       812 1.51650E-04 9.69747E-06 1.65436E-24
 -1       813 1.51906E-04 8.68088E-06 8.27181E-25
 -1       814 1.52144E-04 7.71281E-06 1.65436E-24
 -1       815 1.52362E-04 6.79615E-06 1.65436E-24
 -1       816 1.52560E-04 5.93381E-06-1.65436E-24
 -1       817 1.52737E-04 5.12863E-06-8.27181E-25
 -1       818 1.52891E-04 4.38352E-06 0.00000E+00
 -1       819 1.53022E-04 3.70132E-06 8.27181E-25
 -1       820 1.53128E-04 3.08488E-06-1.65436E-24
 -1       821 1.50029E-04 1.00864E-06 0.00000E+00
 -1       822 1.49911E-04-9.15846E-08 8.27181E-25
 -1       823 1.49794E-04-1.27772E-06 3.30872E-24
 -1       824 1.49676E-04-2.42005E-06 0.00000E+00
 -1       825 1.49557E-04-3.39951E-06-3.30872E-24
 -1       826 1.49439E-04-4.09788E-06 1.65436E-24
 -1       827 1.49321E-04-4.46444E-06 0.00000E+00
 -1       828 1.49202E-04-4.45022E-06 0.00000E+00
 -1       829 1.49084E-04-4.09772E-06-3.30872E-24
 -1       830 1.48966E-04-3.45120E-06 0.00000E+00
 -1       831 1.48847E-04-2.62550E-06-3.30872E-24
 -1       832 1.48729E-04-1.73646E-06 0.00000E+00
 -1       833 1.48611E-04-9.15137E-07 0.00000E+00
 -1       834 1.48494E-04-2.92190E-07 0.00000E+00
 -1       835 1.48377E-04 4.91882E-08 0.00000E+00
 -1       836 1.50832E-04 2.00065E-06 3.30872E-24
 -1       837 1.51412E-04 2.11009E-06 0.00000E+00
 -1       838 1.51908E-04 2.21939E-06 3.30872E-24
 -1       839 1.52353E-04 2.32803E-06 8.27181E-25
 -1       840 1.52777E-04 2.43650E-06 0.00000E+00
 -1       856 1.48246E-04-1.11078E-07-4.13590E-25
 -1       857 1.48222E-04-1.27007E-07 5.16988E-26
 -1       858 1.48199E-04-3.95895E-08 0.00000E+00
 -1       859 1.48174E-04 1.31969E-07-4.13590E-25
 -1       860 1.48150E-04 3.68360E-07 0.00000E+00
 -1       861 1.48126E-04 6.50234E-07 4.13590E-25
 -1       862 1.48101E-04 9.58192E-07 0.00000E+00
 -1       863 1.48076E-04 1.27281E-06-4.13590E-25
 -1       864 1.48052E-04 1.57467E-06 0.00000E+00
 -1       865 1.48027E-04 1.84434E-06-4.13590E-25
 -1       866 1.48003E-04 2.06245E-06-8.27181E-25
 -1       867 1.47978E-04 2.20965E-06 4.13590E-25
 -1       868 1.47954E-04 2.26668E-06-8.27181E-25
 -1       869 1.47929E-04 2.21432E-06 4.13590E-25
 -1       870 1.47904E-04 2.03351E-06-8.27181E-25
 -1       871 1.48655E-04 2.49857E-08 4.13590E-25
 -1       872 1.49172E-04 1.98422E-08 0.00000E+00
 -1       873 1.49759E-04 1.41574E-08 0.00000E+00
 -1       874 1.50360E-04 7.82948E-09 0.00000E+00
 -1       875 1.50915E-04 9.55840E-10 6.20385E-25
 -1       876 1.48432E-04-9.88197E-08 3.30872E-24
 -1       877 1.48576E-04-1.65117E-07 1.65436E-24
 -1       878 1.48702E-04-1.78758E-07-3.30872E-24
 -1       879 1.48810E-04-1.46398E-07 1.65436E-24
 -1       880 1.48903E-04-7.47431E-08 0.00000E+00
 -1       881 1.48985E-04 2.95506E-08 0.00000E+00
 -1       882 1.49056E-04 1.59836E-07-3.30872E-24
 -1       883 1.49121E-04 3.09475E-07 0.00000E+00
 -1       884 1.49180E-04 4.71832E-07-3.30872E-24
 -1       885 1.49238E-04 6.40280E-07-1.65436E-24
 -1       886 1.49295E-04 8.08184E-07 0.00000E+00
 -1       887 1.49355E-04 9.68896E-07 0.00000E+00
 -1       888 1.49420E-04 1.11577E-06 3.30872E-24
 -1       889 1.49492E-04 1.24202E-06-8.27181E-25
 -1       890 1.49574E-04 1.34106E-06-1.65436E-24
 -1       891 1.48306E-04 1.65485E-06 1.65436E-24
 -1       892 1.48713E-04 1.60428E-06 0.00000E+00
 -1       893 1.49076E-04 1.55376E-06 0.00000E+00
 -1       894 1.49370E-04 1.50341E-06 4.13590E-25
 -1       895 1.49574E-04 1.45321E-06 8.27181E-25
 -1       956 1.53098E-04 2.13294E-06-1.65436E-24
 -1       957 1.52983E-04 1.80340E-06 0.00000E+00
 -1       958 1.52867E-04 1.53984E-06 0.00000E+00
 -1       959 1.52752E-04 1.33323E-06-1.65436E-24
 -1       960 1.52636E-04 1.17455E-06 3.30872E-24
 -1       961 1.52521E-04 1.05469E-06 0.00000E+00
 -1       962 1.52405E-04 9.64570E-07-3.30872E-24
 -1       963 1.52290E-04 8.95090E-07 0.00000E+00
 -1       964 1.52174E-04 8.37148E-07 0.00000E+00
 -1       965 1.52059E-04 7.81643E-07-1.65436E-24
 -1       966 1.51943E-04 7.19471E-07 0.00000E+00
 -1       967 1.51828E-04 6.41534E-07 0.00000E+00
 -1       968 1.51712E-04 5.38734E-07 0.00000E+00
 -1       969 1.51597E-04 4.02007E-07 0.00000E+00
 -1       970 1.51482E-04 2.22301E-07 6.61744E-24
 -1       971 1.51263E-04-2.30363E-07 0.00000E+00
 -1       972 1.51156E-04-3.63375E-07 8.27181E-25
 -1       973 1.51049E-04-4.17854E-07-3.30872E-24
 -1       974 1.50942E-04-4.03921E-07 0.00000E+00
 -1       975 1.50835E-04-3.31689E-07 0.00000E+00
 -1       976 1.50728E-04-2.11310E-07 0.00000E+00
 -1       977 1.50620E-04-5.29354E-08 3.30872E-24
 -1       978 1.50513E-04 1.33268E-07 0.00000E+00
 -1       979 1.50406E-04 3.37130E-07 3.30872E-24
 -1       980 1.50299E-04 5.48480E-07 0.00000E+00
 -1       981 1.50192E-04 7.57144E-07-3.30872E-24
 -1       982 1.50084E-04 9.52945E-07-1.65436E-24
 -1       983 1.49978E-04 1.12572E-06 3.30872E-24
 -1       984 1.49871E-04 1.26530E-06 1.65436E-24
 -1       985 1.49765E-04 1.36155E-06 0.00000E+00
 -3
    1PSTEP                        22          11           1          
  100CL  111 5.97900E-01         409                     0   11           1
 -4  STRESS      6    1
 -5  SXX         1    4    1    1
 -5  SYY         1    4    2    2
 -5  SZZ         1    4    3    3
 -5  SXY         1    4    1    2
 -5  SYZ         1    4    2    3
 -5  SZX         1    4    3    1
 -1         1-3.48530E+06-1.36067E+06-7.57213E+05-1.47603E+06 6.54836E-11-4.36557E-08
 -1         2 1.18743E+03-1.43207E+06 3.92128E+03 6.66120E+03 2.56364E-10 9.17229E-08
 -1         3-7.26200E+02-1.45810E+06 3.52848E+02-1.45264E+03-2.70912E-10-1.83536E-08
 -1         5-1.02247E+01 3.26850E+05 8.36388E+00-3.39082E-01-1.67138E-10 3.80987E-09
 -1         8-8.74775E+05-3.00642E+05-8.55139E+04-4.72812E+05 9.82254E-11 8.93160E-08
 -1         9 2.28549E+06-7.19022E+05 4.59363E+05-7.65034E+05 2.46568E-08 6.15371E-08
 -1        10-1.63119E+03-1.51925E+06-2.95174E+03-9.82070E+03-9.58426E-09-2.09400E-08
 -1        12-6.80692E+00 3.26867E+05 2.71355E+02-2.47905E+00-1.39778E-10 6.56655E-09
 -1        15 1.58239E+03 8.69614E+02 5.11503E+03 2.90408E+00-2.76074E-10 9.33541E-08
 -1        16 6.62148E+06-5.40746E+05 9.54766E+05-1.07197E+06 1.65504E-08-6.03419E-08
 -1        17 2.16201E+06 1.40577E+06 6.16061E+05 1.50040E+06 3.70492E-09 1.99710E-08
 -1        18 4.37441E+04 7.03400E+03-1.53106E+04-9.50948E+04 1.00487E-08-2.48019E-09
 -1        19 1.04837E+05 1.20620E+05-8.49325E+02 1.99449E+04 4.45107E-10 5.79894E-10
 -1        20-6.10598E+04-4.94455E+05-1.10285E+05 2.70643E+04 5.74649E-10 2.36893E-09
 -1        21-4.26515E+01-2.66962E+05-8.44271E+02 7.50981E+01-1.09281E-07 1.82232E-08
 -1        24 3.20725E+06 3.22473E+06 1.14464E+06 2.86494E+06-1.01092E-07-4.31707E-08
 -1        25-3.69409E+04-3.29773E+05-5.27771E+04-3.13013E+05-1.82031E-09-1.39753E-09
 -1        26-4.37463E+04 7.82556E+04-2.07463E+04-2.24520E+03 1.09103E-09 6.36340E-09
 -1        27-6.96917E+04-2.68368E+05-9.91726E+04 6.02120E+04 4.77106E-09 7.59246E-09
 -1        28 2.03482E+04-7.57475E+04 1.51904E+04 2.04714E+04-5.39501E-10-4.64139E-09
 -1        32-1.49965E+06-2.57666E+06-1.24402E+05-1.32985E+05-3.10720E-08-6.28688E-09
 -1        33-1.56375E+05 7.85642E+04 2.78090E+04-3.52885E+04-9.91577E-10 1.03682E-08
 -1        34-1.96427E+05-2.08142E+04 5.56442E+02 6.39763E+04-1.00723E-09-2.86142E-09
 -1        35-2.08247E+04-3.00677E+04-1.19093E+03 4.64859E+04 5.54209E-10-2.11003E-09
 -1        51 3.69574E+04-2.70635E+05 8.43915E+04-7.83454E+05-2.91038E-10 5.15574E-08
 -1        52 1.50410E+04-2.59044E+05 4.75690E+04-9.17164E+05-4.14730E-10 6.16492E-08
 -1        53 5.90151E+03-2.74340E+05 2.98067E+04-7.80604E+05 4.98403E-10-9.10950E-09
 -1        54 1.51628E+04-2.71643E+05 3.46793E+04-9.20110E+05-9.45874E-11-4.16367E-08
 -1        55 3.04832E+04-2.83126E+05 5.39449E+04-7.80188E+05-7.27596E-12-1.38061E-08
 -1        56-6.62004E+06-7.43608E+05-5.60401E+05-2.57439E+06 4.30737E-09-6.30971E-08
 -1        57-6.91544E+06-1.18211E+06-3.78075E+05-2.47195E+06 1.31695E-08-2.94567E-08
 -1        58-6.71983E+06-9.34530E+05-1.31698E+05-2.55349E+06-1.48975E-08-6.81030E-09
 -1        59-6.80287E+06-9.55154E+05-7.85853E+04-2.49377E+06-8.23275E-09-1.97833E-08
 -1        60-6.73097E+06-9.64470E+05-3.06625E+04-2.55451E+06-5.67979E-09-1.52977E-09
 -1        61-6.78715E+06-9.22746E+05-1.74039E+04-2.49560E+06-8.22007E-09 6.17547E-09
 -1        62-6.73520E+06-9.66106E+05-8.31811E+03-2.55187E+06-5.94412E-09-3.85980E-08
 -1        63-6.77478E+06-9.28683E+05-6.71457E+03-2.50680E+06-5.74346E-09 2.88323E-08
 -1        64-6.74307E+06-9.58581E+05-7.66808E+03-2.54317E+06 9.34187E-09-7.22539E-08
 -1        65-6.75814E+06-9.49955E+05-1.51617E+04-2.52694E+06-9.74228E-09 4.10694E-09
 -1        66-6.75170E+06-9.45041E+05-2.67423E+04-2.53157E+06 1.95178E-09-4.75084E-08
 -1        67-6.75419E+06-9.95746E+05-6.79797E+04-2.54589E+06-9.63928E-09 3.98240E-08
 -1        68-6.74745E+06-9.13425E+05-1.14008E+05-2.52414E+06 3.16322E-09 7.40765E-08
 -1        69-6.84984E+06-1.19474E+06-3.27225E+05-2.53066E+06-1.87538E-09 1.07684E-09
 -1        70-6.65798E+06-7.51044E+05-4.85017E+05-2.54546E+06 7.61065E-09 5.01750E-08
 -1        86-6.18242E+02-1.43482E+06 3.88584E+03-3.33061E+03-1.82149E-09 1.27538E-07
 -1        87 3.86686E+03-1.43127E+06 8.43633E+03 1.15876E+04-2.97405E-09-2.08022E-08
 -1        88-3.25050E+03-1.43565E+06 1.27540E+04-8.25716E+03-3.19778E-09 2.46591E-08
 -1        89 2.41560E+04-1.42246E+06 3.44280E+04 1.71425E+04-5.11136E-09-1.06622E-07
 -1        90-2.07933E+04-1.44366E+06 4.86663E+04-8.88580E+03-3.40151E-09-1.33028E-08
 -1       121-1.01446E+03-1.46061E+06-8.95584E+01 7.22960E+02 1.09394E-09-2.30648E-09
 -1       122-5.85074E+02-1.45809E+06 7.17993E+02-2.90270E+03-3.61950E-09-2.00052E-08
 -1       123-1.06501E+03-1.46071E+06 7.13024E+02 2.15974E+03 3.08637E-09-1.06302E-08
 -1       124 8.55736E+02-1.45746E+06 2.89005E+03-6.10274E+03-7.20911E-09 1.61090E-08
 -1       125-1.88659E+03-1.46151E+06 3.93399E+03 3.90821E+03 4.50018E-09 1.03864E-08
 -1       191-1.10098E+01 3.26877E+05 9.78578E+00 1.71103E-01-2.23834E-10 5.42514E-09
 -1       192-1.09961E+01 3.26850E+05 1.77186E+01-1.27059E+00-3.25977E-10-1.33441E-08
 -1       193-1.30591E+01 3.26876E+05 3.27454E+01 1.10977E+00-4.35806E-10-8.40828E-09
 -1       194-1.34777E+01 3.26853E+05 6.70421E+01-2.95302E+00-2.61809E-10 4.52565E-09
 -1       195-1.69966E+01 3.26874E+05 1.30929E+02 1.86882E+00-5.36929E-10 3.36058E-09
 -1       251-1.99785E+06-1.03026E+04-1.57155E+05 8.42960E+04-2.81943E-09 1.18776E-07
 -1       252-1.34714E+06 1.06699E+04 2.11863E+04-3.04093E+05 6.18456E-09-2.98151E-08
 -1       253-1.73666E+06-8.05926E+03-3.28435E+04 2.19309E+05 3.62706E-09-6.75500E-08
 -1       254-1.65957E+06 3.52513E+04 2.16409E+03-4.43253E+05 1.92169E-08-2.71320E-08
 -1       255-1.71701E+06-8.89471E+03-1.15478E+04 2.25463E+05-9.03492E-09 7.28674E-08
 -1       256-1.38192E+06 3.10358E+04 6.25609E+04-3.28221E+05-2.06001E-08 2.54458E-08
 -1       257-1.98708E+06-2.61701E+04-6.59638E+04 1.02436E+05-1.18162E-08 3.71664E-08
 -1       258-1.07385E+06 2.39733E+04 1.21722E+05-6.30489E+03 2.24645E-10-1.71613E-08
 -1       259-1.99470E+06-2.66917E+04-6.62373E+04-9.53912E+04 1.53141E-08-3.23525E-08
 -1       260-1.36465E+06 3.16772E+04 6.94633E+04 3.20137E+05-2.74486E-09-2.67883E-08
 -1       261-1.72504E+06-1.03347E+04-6.11582E+03-2.22749E+05-7.25349E-08 1.53130E-08
 -1       262-1.65594E+06 4.32723E+04 1.94883E+04 4.43892E+05 3.21840E-08-1.78454E-09
 -1       263-1.73233E+06-1.45516E+04-3.07525E+03-2.21043E+05-8.31187E-09 9.01582E-09
 -1       264-1.33841E+06 6.45393E+04 9.45897E+04 3.14228E+05-8.94474E-08 6.42799E-08
 -1       265-2.01246E+06-5.61807E+04-4.72084E+04-9.11447E+04-2.81761E-08 5.79093E-08
 -1       266-2.86460E+04-1.33941E+04 6.72153E+04-6.21413E+01-9.09495E-11-3.77002E-08
 -1       267 3.32090E+04 1.56123E+04 4.75049E+04 7.16949E+01-1.37334E-10-1.23536E-07
 -1       268-4.45324E+03-2.21107E+03 1.76575E+04-9.13539E+00-4.09273E-11-5.57332E-08
 -1       269 5.25800E+03 2.64626E+03 1.14770E+04 1.06411E+01 1.04023E-10-6.16891E-09
 -1       270-7.89226E+02-4.34792E+02 5.54010E+03-1.44409E+00 1.31877E-11 8.40518E-08
 -1       271-2.57807E+06-3.17468E+05-1.92187E+05-9.96448E+05-4.23825E-09 8.45976E-08
 -1       272-2.67739E+06-4.28417E+05-1.23720E+05-9.61391E+05 5.68321E-09-1.24764E-07
 -1       273-2.61374E+06-3.66070E+05-4.53774E+04-9.88429E+05-2.18068E-08 5.69544E-08
 -1       274-2.63498E+06-3.69312E+05-2.54399E+04-9.73754E+05 1.46269E-09-5.08917E-08
 -1       275-2.61932E+06-3.70552E+05-1.05834E+04-9.86241E+05 1.73222E-08 9.97989E-09
 -1       276-2.62714E+06-3.65070E+05-5.57558E+03-9.77829E+05-7.33507E-10 4.26337E-08
 -1       277-2.62134E+06-3.69766E+05-2.77194E+03-9.84491E+05-9.39508E-09 2.91175E-08
 -1       278-2.62348E+06-3.67351E+05-1.86397E+03-9.81327E+05 2.92493E-09 9.39631E-08
 -1       279-2.62291E+06-3.68256E+05-2.00680E+03-9.82718E+05-9.56697E-09 4.15935E-08
 -1       280-2.62069E+06-3.70803E+05-3.42034E+03-9.84815E+05 1.64255E-09-1.80136E-08
 -1       281-2.62414E+06-3.66337E+05-6.30422E+03-9.81000E+05-9.08312E-09 6.85397E-08
 -1       282-2.62065E+06-3.77889E+05-1.48986E+04-9.87727E+05 5.94628E-09-8.43119E-09
 -1       283-2.62310E+06-3.61490E+05-2.65864E+04-9.79732E+05 6.53381E-09-4.60523E-08
 -1       284-2.64122E+06-4.16705E+05-7.23413E+04-9.85418E+05-7.40692E-09 5.68252E-09
 -1       285-2.60428E+06-3.31047E+05-1.12456E+05-9.82102E+05-1.40499E-08 8.48377E-09
 -1       301 2.11196E+04-2.94075E+05 1.73099E+05-5.42190E+05 5.67525E-10 1.07804E-07
 -1       302 2.26825E+04-2.50608E+05 1.08618E+05-7.93309E+05-7.67614E-10 1.22436E-08
 -1       303-5.94298E+02-2.77552E+05 7.38015E+04-5.40980E+05 4.98403E-10 3.36495E-08
 -1       304 1.73509E+04-2.51287E+05 9.58682E+04-7.92700E+05 6.83940E-10 6.10016E-08
 -1       305 1.42424E+04-2.86824E+05 1.44437E+05-5.42823E+05 8.00355E-11-3.89700E-08
 -1       306-1.52578E+07-2.60960E+06-3.43432E+06-1.95227E+06-5.02914E-08-3.31784E-09
 -1       307 7.55726E+06-1.11481E+06 1.94512E+06-6.93922E+06-5.20857E-07 1.54258E-07
 -1       308-8.10738E+06 2.42441E+05-3.46082E+05 1.66969E+06-6.86559E-08 1.94945E-07
 -1       309-3.24389E+06-4.12055E+05 5.91515E+05-1.14858E+07 2.71277E-07 1.39247E-07
 -1       310-8.70945E+06 1.35290E+05-4.28933E+05 1.51444E+06-7.58737E-08 1.32413E-08
 -1       311 8.92430E+06-1.52684E+06 2.34296E+06-5.88326E+06 4.15414E-07-5.90444E-08
 -1       312-1.53825E+07-2.59567E+06-2.89205E+06-2.55564E+06 7.79983E-08 8.07631E-08
 -1       313 1.41883E+07 3.01559E+06 3.87793E+06 5.75952E+06-1.79658E-07 5.24960E-08
 -1       314-1.13836E+07-6.15379E+06-2.77548E+06-6.25162E+06 5.87897E-08 7.56700E-10
 -1       315-3.09770E+06 9.39506E+06 2.16994E+06 5.11083E+06-1.56520E-07 4.70318E-08
 -1       316-2.67014E+06-5.33944E+06-2.86338E+05-4.35325E+06-6.34056E-07-2.57583E-07
 -1       317-1.34093E+07 9.72169E+06 5.74479E+05-6.44796E+05 5.27325E-07-2.95957E-07
 -1       318-2.93360E+06-5.46558E+06-5.11606E+05-4.43736E+06-4.58094E-07 5.91972E-08
 -1       319-2.16848E+06 9.64398E+06 2.04949E+06 5.32720E+06-7.97736E-08 8.86939E-08
 -1       320-1.18887E+07-6.38245E+06-3.65636E+06-6.15547E+06 1.19791E-07-2.49747E-08
 -1       336 2.62188E+02-1.58116E+06-1.09284E+04 5.85487E+03-1.85155E-08-2.36105E-09
 -1       337-4.15942E+03-1.58227E+06-1.36410E+04-1.41954E+04-3.44180E-08-8.94943E-10
 -1       338 6.18554E+02-1.58097E+06-2.01493E+04 8.24905E+03-2.42480E-08-3.94357E-09
 -1       339-2.13690E+04-1.59374E+06-4.53778E+04-1.88658E+04-4.46562E-08 1.46501E-08
 -1       340 1.42917E+04-1.57073E+06-7.10231E+04 1.04597E+04-3.01297E-08 3.14758E-08
 -1       406 1.37145E+01 3.26862E+05 5.35497E+02 6.48139E-01-7.51456E-10-1.61890E-09
 -1       407 1.80003E+02 3.26961E+05 1.13856E+03 9.32727E+00-4.48793E-10-8.14862E-09
 -1       408 5.79144E+02 3.26780E+05 2.27364E+03-1.02345E+01-9.01224E-10 3.29146E-09
 -1       409 2.45236E+03 3.27688E+05 5.11894E+03 1.03916E+02-1.08997E-10-1.49976E-09
 -1       410 7.05821E+03 3.26133E+05 1.04499E+04-9.87949E+01-9.94987E-10 6.56337E-09
 -1       521-1.73392E+07-3.30697E+06-4.23866E+06-1.99211E+06-4.63333E-08-6.69388E-09
 -1       522 8.25157E+06-1.19799E+06 2.07904E+06-8.94974E+06-3.69138E-07-3.64889E-08
 -1       523-9.44925E+06 1.44829E+05-4.02400E+05 2.03067E+06 1.10886E-08-1.73971E-07
 -1       524-4.97740E+06 3.77274E+05 6.94312E+05-1.41222E+07 3.73984E-07-5.21444E-07
 -1       525-1.01699E+07-2.18515E+04-5.07591E+05 1.84887E+06 3.28291E-07-2.53460E-07
 -1       526 1.01635E+07-1.74162E+06 2.62791E+06-7.60225E+06-1.63913E-07 6.73026E-09
 -1       527-1.75284E+07-3.38012E+06-3.51416E+06-2.71404E+06 1.07684E-08-6.70843E-08
 -1       528 1.64938E+07 3.38832E+06 4.30361E+06 6.87722E+06-1.09052E-07-3.94502E-08
 -1       529-1.28892E+07-7.51285E+06-3.36871E+06-6.96826E+06-1.14087E-08-5.42786E-08
 -1       530-4.56300E+06 1.17008E+07 2.44400E+06 5.70211E+06-2.03479E-07 3.76720E-07
 -1       531-3.08344E+06-6.47103E+06-3.25167E+05-5.00098E+06-4.07890E-07 6.60075E-08
 -1       532-1.65790E+07 1.19513E+07 6.97765E+05-1.90456E+06 1.98066E-07-4.87686E-07
 -1       533-3.32191E+06-6.59508E+06-5.59389E+05-5.06479E+06-5.96337E-08-6.41332E-07
 -1       534-3.64336E+06 1.20238E+07 2.30442E+06 5.90834E+06-9.18517E-08 4.52739E-07
 -1       535-1.34012E+07-7.81821E+06-4.33384E+06-6.85422E+06 2.57278E-08 2.87400E-07
 -1       536-5.46890E+05-3.57831E+04 4.91087E+03-3.38177E+04-6.66751E-09 3.54667E-08
 -1       537-2.09208E+05 3.65461E+04 6.22795E+04 8.16916E+04-8.57262E-08 7.36509E-08
 -1       538-3.85263E+05-7.77231E+01 9.46183E+03-4.97414E+04 1.67448E-08 8.32324E-08
 -1       539-3.21391E+05 3.16075E+03 1.70232E+04 9.37112E+04 1.34733E-07 6.69212E-08
 -1       540-4.37359E+05-2.36341E+02-8.84994E+03-4.60206E+04 2.36128E-09 5.94655E-08
 -1       541-1.09035E+05 8.79917E+03 5.52767E+04 6.18967E+04-1.13547E-08 5.91594E-08
 -1       542-5.91928E+05-1.04100E+04-4.26579E+04-1.76207E+04 4.43088E-08 3.58864E-08
 -1       543 1.99663E+04 1.39424E+04 8.01069E+04-9.88079E+03-2.01094E-08-5.22368E-09
 -1       544-5.62931E+05-8.19582E+03-3.77407E+04 2.55121E+04-3.23280E-09-3.62963E-08
 -1       545-1.75362E+05 4.18281E+03 3.87392E+04-7.49513E+04-6.77710E-09-6.86796E-08
 -1       546-4.01789E+05 3.61020E+03-6.96650E+03 4.73386E+04 1.18650E-08-6.69313E-08
 -1       547-3.33253E+05-4.40686E+03 1.61189E+03-9.59727E+04-7.08094E-08-8.70496E-08
 -1       548-4.09223E+05 3.84333E+03-1.76080E+04 4.67764E+04-6.84913E-08-7.45295E-08
 -1       549-1.62432E+05-2.19546E+03 1.66784E+04-7.19398E+04-4.62314E-08-5.35583E-08
 -1       550-5.67982E+05-2.42271E+03-8.64868E+04 2.30463E+04 5.91217E-09-4.16803E-08
 -1       551 2.91104E+04-7.13750E+05 1.19221E+04-1.11559E+06-7.50370E-08-7.79983E-09
 -1       552 6.50381E+04-7.39453E+05 2.54722E+04-1.59028E+06-5.39585E-08 2.38506E-08
 -1       553 4.82924E+04-7.41814E+05 4.23696E+04-1.11059E+06-8.67003E-08 1.24637E-08
 -1       554 9.69605E+04-7.44468E+05 9.30158E+04-1.59211E+06-5.29544E-08 1.74987E-08
 -1       555 7.75758E+04-7.62782E+05 1.66173E+05-1.11105E+06-8.85848E-08-5.78802E-09
 -1       556 1.60116E+05-2.85480E+05 5.59672E+04-3.30995E+05-1.85537E-08-1.24564E-08
 -1       557 2.66028E+05-3.70601E+05 3.06025E+04-4.21995E+05-1.29512E-09 4.35102E-09
 -1       558 1.51503E+05-2.88004E+05 1.04782E+04-3.27986E+05-1.15542E-08-1.08193E-08
 -1       559 2.47195E+05-3.76427E+05 5.89834E+03-4.34338E+05 1.19908E-08-1.45228E-08
 -1       560 1.42884E+05-2.82533E+05 1.32526E+03-3.33997E+05 9.00764E-09-3.20870E-09
 -1       561 2.35928E+05-3.72241E+05 1.12972E+03-4.41824E+05-2.93221E-09 7.21593E-09
 -1       562 1.36096E+05-2.78247E+05-1.57903E+02-3.38875E+05-8.22183E-09-1.25019E-08
 -1       563 2.27924E+05-3.68752E+05 2.61378E+02-4.47004E+05-2.11003E-09-6.55336E-09
 -1       564 1.31424E+05-2.75316E+05-1.31012E+02-3.42176E+05 2.62662E-09-6.35373E-09
 -1       565 2.22919E+05-3.66576E+05 1.07496E+02-4.50188E+05 4.69663E-09-4.92173E-09
 -1       566 1.28945E+05-2.73739E+05-6.32075E+01-3.43913E+05 3.78350E-09 1.63709E-11
 -1       567 2.20902E+05-3.65691E+05-1.67573E+02-4.51363E+05 1.36060E-08 7.86167E-09
 -1       568 1.28720E+05-2.73614E+05-6.29426E+02-3.44165E+05 1.35424E-09 1.73277E-08
 -1       569 2.20792E+05-3.65658E+05-1.58445E+03-4.49644E+05-5.99539E-09 2.03690E-08
 -1       570 1.31611E+05-2.76137E+05-3.57855E+03-3.43502E+05 5.94446E-09 2.20116E-08
 -1       571 2.47382E+05 9.02892E+03 1.31551E+04-7.11076E+04-1.26602E-09 5.50631E-09
 -1       572 2.49317E+05 3.25847E+03 6.44596E+03-7.80057E+04 1.83127E-09-1.41790E-09
 -1       573 2.48156E+05 8.93373E+02 2.86394E+03-7.09616E+04-7.82165E-10-6.03359E-09
 -1       574 2.48369E+05 4.14869E+02 1.43558E+03-7.81809E+04 1.57092E-09-1.99052E-08
 -1       575 2.48243E+05 1.91171E+02 6.77265E+02-7.09419E+04-1.68134E-08 1.35788E-09
 -1       576 2.48247E+05 1.81805E+02 3.46082E+02-7.82043E+04-3.62422E-08-3.84989E-09
 -1       577 2.48267E+05 1.46571E+02 1.72380E+02-7.09393E+04-2.14386E-08 1.15324E-08
 -1       578 2.48254E+05 1.59375E+02 9.82732E+01-7.82073E+04-4.09591E-09 2.08274E-09
 -1       579 2.48305E+05 1.29626E+02 6.66910E+01-7.09391E+04 5.29326E-10-4.36194E-09
 -1       580 2.48306E+05 1.34406E+02 7.46432E+01-7.82034E+04-6.30462E-09-1.14269E-08
 -1       581 2.48365E+05 1.01651E+02 1.12685E+02-7.09434E+04 7.56700E-10 1.73181E-08
 -1       582 2.48406E+05 1.27095E+02 2.25975E+02-7.81577E+04-2.00089E-09 6.26051E-09
 -1       583 2.48436E+05 1.61157E+02 4.36607E+02-7.09849E+04-1.63709E-11 5.65365E-09
 -1       584 2.48656E+05 5.11743E+02 9.84289E+02-7.78090E+04 5.55247E-09 1.43159E-08
 -1       585 2.48410E+05 1.36376E+03 1.99777E+03-7.12921E+04-5.27507E-11-7.42148E-10
 -1       586-3.04146E+03 8.81562E+04-3.29068E+03-2.18601E+05-2.50247E-09 3.69084E-09
 -1       587-9.01091E+02 8.77913E+04 2.00977E+02-2.40609E+05-2.62662E-09 1.83070E-08
 -1       588 6.48971E+02 8.77563E+04 3.73075E+03-2.18494E+05-1.42427E-09 9.71704E-09
 -1       589 4.58028E+03 8.97432E+04 1.00803E+04-2.40369E+05-3.30510E-09-5.77529E-09
 -1       590 1.40565E+04 8.66486E+04 2.13039E+04-2.18870E+05-3.63616E-09 6.00267E-10
 -1       591-5.52920E+04-1.31301E+04-1.80024E+04-2.51501E+04 7.50788E-10-6.31735E-09
 -1       592-5.81153E+04-1.64166E+04-9.75134E+03-2.85519E+04 2.44995E-11-6.87555E-09
 -1       593-5.70962E+04-1.18198E+04-4.05917E+03-2.64664E+04 3.32386E-09-4.80895E-10
 -1       594-5.56236E+04-1.37815E+04-2.02447E+03-2.86540E+04 2.45743E-09-1.70985E-10
 -1       595-5.72339E+04-1.18151E+04-9.29732E+02-2.65263E+04-1.81012E-09 1.29415E-08
 -1       596-5.54535E+04-1.36610E+04-4.72980E+02-2.86344E+04-4.56613E-10 5.00941E-09
 -1       597-5.72512E+04-1.18273E+04-2.58272E+02-2.65286E+04-2.03727E-10 7.08155E-09
 -1       598-5.54368E+04-1.36563E+04-2.08947E+02-2.86289E+04 2.57955E-09 1.21832E-09
 -1       599-5.72501E+04-1.18276E+04-2.68555E+02-2.65282E+04 4.79213E-09-8.76571E-09
 -1       600-5.54540E+04-1.36619E+04-5.00209E+02-2.86330E+04 3.43249E-09-1.22645E-08
 -1       601-5.72295E+04-1.18157E+04-9.87482E+02-2.65251E+04 8.81982E-10-1.76716E-08
 -1       602-5.56346E+04-1.37893E+04-2.15247E+03-2.86509E+04-3.74484E-09 2.94972E-09
 -1       603-5.70809E+04-1.18231E+04-4.31678E+03-2.64619E+04-3.15595E-10 1.02759E-08
 -1       604-5.82983E+04-1.65761E+04-1.03698E+04-2.85225E+04-2.83558E-09-1.71212E-09
 -1       605-5.51457E+04-1.32307E+04-1.91442E+04-2.50776E+04-6.59725E-10 1.09194E-08
 -1       606 2.71107E+04-1.19818E+04-2.15125E+04 2.55410E+04-9.39508E-10 3.09274E-09
 -1       607 2.34317E+04-3.89598E+03-1.07126E+04 2.86842E+04-8.51287E-10-1.84889E-08
 -1       608 2.55234E+04-6.86675E+02-4.79645E+03 2.53468E+04-7.71070E-09-9.17612E-09
 -1       609 2.51158E+04-2.14854E+02-2.42277E+03 2.89100E+04-1.61426E-08 1.81694E-08
 -1       610 2.53375E+04-9.70905E+00-1.15655E+03 2.53246E+04-6.30826E-09 2.08138E-09
 -1       611 2.52678E+04-3.01001E+00-5.83104E+02 2.89346E+04-2.83399E-09-1.53054E-08
 -1       612 2.52921E+04 5.51801E+00-2.77858E+02 2.53224E+04 7.04222E-09 9.73159E-10
 -1       613 2.52714E+04 3.88991E+00-1.25045E+02 2.89375E+04 1.72595E-08-9.30777E-09
 -1       614 2.52687E+04 3.20008E+00-3.09587E+01 2.53216E+04 6.84122E-09-2.08956E-09
 -1       615 2.52620E+04 7.84629E+00 4.87069E+01 2.89379E+04 4.83851E-10 1.00999E-09
 -1       616 2.52507E+04 8.04776E+00 1.49419E+02 2.53219E+04-3.74712E-10 9.87097E-09
 -1       617 2.52763E+04 4.19118E+01 3.42369E+02 2.89374E+04 1.93268E-10 4.89194E-09
 -1       618 2.52183E+04 1.08453E+02 6.90549E+02 2.53221E+04-3.02407E-09-5.68457E-09
 -1       619 2.55179E+04 5.77241E+02 1.55105E+03 2.89367E+04-8.86303E-10-8.68545E-09
 -1       620 2.49875E+04 1.74718E+03 3.11761E+03 2.53219E+04 3.46529E-09 5.07589E-09
 -1       621 3.33487E+02 2.53630E+05 2.89731E+03 2.43446E+04 3.72893E-10-7.59883E-09
 -1       622 4.21205E+02 2.54326E+05 2.65875E+03 3.53885E+04 3.70164E-10-1.23418E-08
 -1       623 4.94073E+01 2.53787E+05 3.31258E+03 2.42310E+04 4.25302E-10-6.29370E-10
 -1       624 1.62259E+03 2.55389E+05 6.51554E+03 3.55027E+04 4.70237E-10-1.01339E-08
 -1       625 1.61716E+03 2.52500E+05 1.14316E+04 2.42282E+04 5.57520E-10-5.72675E-09
 -1       626 2.22918E+05 5.61225E+04 4.70545E+03 1.12845E+05-7.78527E-10-5.46061E-09
 -1       627 2.20574E+05 5.76210E+04 2.26749E+03 1.17007E+05-3.28146E-09-6.33122E-09
 -1       628 2.23049E+05 5.39510E+04 9.58454E+02 1.13621E+05-1.98634E-09-6.06633E-10
 -1       629 2.19963E+05 5.70205E+04 4.69177E+02 1.17250E+05 1.74441E-09 6.75669E-09
 -1       630 2.23060E+05 5.38474E+04 2.17114E+02 1.13650E+05 9.96170E-09 1.39857E-08
 -1       631 2.19894E+05 5.70005E+04 1.16214E+02 1.17251E+05 2.54227E-09-5.38330E-09
 -1       632 2.23054E+05 5.38532E+04 7.53742E+01 1.13643E+05 3.50656E-09 1.08046E-08
 -1       633 2.19883E+05 5.70042E+04 8.22781E+01 1.17245E+05-2.90879E-09-7.33257E-09
 -1       634 2.23046E+05 5.38525E+04 1.31450E+02 1.13641E+05 1.05706E-09-1.98575E-08
 -1       635 2.19892E+05 5.70042E+04 2.65128E+02 1.17248E+05-1.51829E-10-4.29668E-09
 -1       636 2.23036E+05 5.38492E+04 5.34949E+02 1.13639E+05 4.11228E-09 8.12861E-09
 -1       637 2.20005E+05 5.70880E+04 1.17570E+03 1.17245E+05-2.07183E-09-1.68711E-09
 -1       638 2.22993E+05 5.41097E+04 2.41572E+03 1.13520E+05 7.42148E-10-4.54747E-11
 -1       639 2.21274E+05 5.88525E+04 5.71527E+03 1.16870E+05 6.78028E-10 2.41812E-09
 -1       640 2.22820E+05 5.93754E+04 1.18602E+04 1.11295E+05 4.15866E-09-7.75344E-10
 -1       656 5.79576E+04-1.47727E+06-1.39910E+05-1.20928E+03-2.18279E-11 3.24610E-09
 -1       657-7.66451E+04-1.54046E+06-1.15842E+05 6.69830E+03 3.63798E-11 1.43519E-08
 -1       658 1.84465E+04-1.49524E+06-7.12640E+04-2.88255E+03 2.46928E-10-5.68363E-10
 -1       659-8.26597E+04-1.54332E+06-1.23744E+05 7.97651E+03-1.06593E-09-5.28943E-09
 -1       660 6.39585E+04-1.47443E+06-1.53497E+05-2.48747E+03-1.17143E-09-1.87555E-09
 -1       661 1.63209E+05 1.74144E+04 1.64932E+04 6.38169E+04 4.41560E-10-1.37725E-08
 -1       662 1.72238E+05 2.99186E+04 1.11145E+04 6.04534E+04 2.38850E-09-1.18805E-08
 -1       663 1.66447E+05 2.27070E+04 3.88754E+03 6.28787E+04-4.27121E-10 4.24484E-09
 -1       664 1.68487E+05 2.37271E+04 2.32499E+03 6.15976E+04 1.63254E-10-1.56329E-08
 -1       665 1.66936E+05 2.34319E+04 9.17190E+02 6.27380E+04-1.97872E-09-4.30623E-09
 -1       666 1.67910E+05 2.28965E+04 5.36030E+02 6.17802E+04 5.13523E-10 1.08328E-08
 -1       667 1.67020E+05 2.35159E+04 2.83962E+02 6.27041E+04 1.43692E-09-1.79220E-09
 -1       668 1.67818E+05 2.28340E+04 2.87578E+02 6.18293E+04-7.71522E-10-1.54347E-08
 -1       669 1.67027E+05 2.34926E+04 3.87908E+02 6.26893E+04 3.44556E-10 4.99440E-09
 -1       670 1.67914E+05 2.30429E+04 8.43331E+02 6.18312E+04 2.25973E-09 1.58882E-09
 -1       671 1.66925E+05 2.33113E+04 1.49695E+03 6.27004E+04 2.82458E-09-1.50067E-11
 -1       672 1.68786E+05 2.44991E+04 3.82954E+03 6.16201E+04 2.08020E-09 7.93079E-10
 -1       673 1.66159E+05 2.20732E+04 6.41756E+03 6.28863E+04-1.80967E-09-1.84787E-09
 -1       674 1.74895E+05 3.48082E+04 1.83528E+04 5.98242E+04-2.57569E-09-1.46574E-08
 -1       675 1.60855E+05 1.32907E+04 2.72418E+04 6.43878E+04-2.66164E-09-1.48666E-08
 -1       676 2.19173E+01-2.66892E+05-1.01757E+03-3.75499E+01 1.45462E-10 1.44378E-08
 -1       677-2.70156E+02-2.67138E+05-1.86230E+03 7.50489E+01 2.53738E-09-5.29458E-09
 -1       678 1.80410E+02-2.66717E+05-3.29207E+03-3.74736E+01 2.61934E-10 5.48066E-09
 -1       679-3.29299E+03-2.69125E+05-7.82048E+03 7.47563E+01 2.41289E-09 1.00725E-08
 -1       680 1.96535E+03-2.64906E+05-1.26040E+04-3.68374E+01 2.89219E-10 8.70338E-09
 -1       771-2.80535E+06-6.12557E+05-1.06342E+05-1.28548E+06-1.88011E-08-2.22644E-08
 -1       772-2.75157E+06-6.79395E+05-5.53396E+04-1.36211E+06-4.08909E-09 1.08193E-08
 -1       773-2.82510E+06-5.96999E+05-2.71217E+04-1.29318E+06-7.39237E-09 5.86442E-09
 -1       774-2.74264E+06-6.68065E+05-1.23332E+04-1.37720E+06 1.83936E-08 1.91721E-09
 -1       775-2.83429E+06-5.90496E+05-8.50431E+03-1.29636E+06-5.64614E-09 9.53150E-10
 -1       776-2.74823E+06-6.66971E+05-3.30020E+03-1.38798E+06-6.75209E-09 1.82627E-09
 -1       777-2.84202E+06-5.84856E+05-3.50400E+03-1.29915E+06 2.29920E-09 2.51384E-09
 -1       778-2.75426E+06-6.66052E+05-1.03348E+03-1.39716E+06 3.22325E-09 3.03771E-09
 -1       779-2.84856E+06-5.79999E+05-1.67498E+03-1.30154E+06-2.45927E-09-1.32059E-09
 -1       780-2.75956E+06-6.65156E+05-2.91026E+02-1.40461E+06-5.12227E-09-3.59432E-09
 -1       781-2.85369E+06-5.76120E+05-6.36465E+02-1.30341E+06-1.84227E-08-1.42063E-09
 -1       782-2.76361E+06-6.64368E+05 2.21550E+02-1.41010E+06-2.62589E-08-8.88576E-09
 -1       783-2.85728E+06-5.73457E+05 3.49940E+02-1.30473E+06-1.02737E-08-1.62511E-08
 -1       784-2.76582E+06-6.63446E+05 1.45489E+03-1.41346E+06-1.77715E-08-6.82121E-09
 -1       785-2.85937E+06-5.71892E+05 2.56595E+03-1.30558E+06-2.60188E-08 5.37239E-09
 -1       786 1.23738E+05-9.20206E+03 2.12887E+04-1.87082E+02 1.93429E-09 9.50604E-09
 -1       787 1.32970E+05 1.06533E+04 1.50611E+04-2.16224E+01 3.24128E-09-7.36850E-09
 -1       788 1.27297E+05-1.44233E+03 5.50831E+03-1.58247E+02 2.94646E-09 2.64936E-09
 -1       789 1.28822E+05 1.66883E+03 3.45858E+03-6.73759E+01 5.41857E-10 8.72978E-09
 -1       790 1.27885E+05-2.24939E+02 1.40177E+03-1.41337E+02-1.27577E-09 2.66846E-09
 -1       791 1.28136E+05 2.59975E+02 8.12480E+02-9.66203E+01-3.72398E-09-1.86966E-08
 -1       792 1.27985E+05-3.45274E+01 3.49977E+02-1.29003E+02-2.94870E-09-2.06325E-09
 -1       793 1.28018E+05 3.86460E+01 1.86949E+02-1.19825E+02-1.63255E-09 1.22341E-09
 -1       794 1.28003E+05-3.75007E+00 7.36489E+01-1.18132E+02 2.49545E-09-6.66748E-09
 -1       795 1.27993E+05-4.74687E+00 1.28483E+01-1.42432E+02-3.53770E-09 1.02811E-08
 -1       796 1.28010E+05 8.84267E+00-3.74196E+01-1.06396E+02 2.46399E-09-4.97921E-09
 -1       797 1.27960E+05-6.96911E+01-1.35092E+02-1.69222E+02 2.79972E-09 1.00056E-08
 -1       798 1.28035E+05 6.11446E+01-2.28340E+02-9.13419E+01 1.18756E-09 6.26912E-09
 -1       799 1.27784E+05-4.51503E+02-6.36001E+02-2.05886E+02 2.98412E-09 1.60141E-08
 -1       800 1.28186E+05 3.90336E+02-9.02254E+02-6.97319E+01 8.13456E-11 1.47364E-08
 -1       801 1.45671E+04-6.08552E+06-7.42888E+05 5.53030E+05 5.83386E-08-2.81234E-08
 -1       802 1.64951E+05-1.15066E+05 6.60693E+05-6.12456E+05 1.64517E-07-2.37133E-08
 -1       803-1.76710E+05-7.32799E+06-7.11594E+05 3.80806E+05 5.59776E-08 2.39143E-08
 -1       804 5.46834E+04-1.66081E+06 4.63143E+05 3.55003E+05-5.87333E-08-4.64552E-08
 -1       805 9.81546E+04-4.55173E+06-1.16247E+05-4.12746E+05-2.44872E-08-2.94790E-08
 -1       806-2.69025E+05-5.10960E+04-1.96408E+04-1.05484E+05-3.83443E-09-8.84120E-09
 -1       807-2.70725E+05-4.77347E+04-9.64931E+03-1.10065E+05 3.75530E-09 2.14245E-08
 -1       808-2.69552E+05-4.40299E+04-4.09364E+03-1.08845E+05-5.83759E-09 1.13848E-08
 -1       809-2.68703E+05-4.50172E+04-2.00172E+03-1.10296E+05-4.87967E-09-1.09123E-08
 -1       810-2.69634E+05-4.37838E+04-9.17429E+02-1.08994E+05 4.85215E-09-2.67460E-09
 -1       811-2.68548E+05-4.49072E+04-4.56198E+02-1.10265E+05 3.66526E-09-3.28441E-09
 -1       812-2.69647E+05-4.38043E+04-2.30545E+02-1.08994E+05 9.91349E-11 1.23487E-09
 -1       813-2.68528E+05-4.49085E+04-1.49640E+02-1.10251E+05-2.10775E-09 1.22645E-09
 -1       814-2.69643E+05-4.38117E+04-1.47835E+02-1.08991E+05 9.06584E-09-1.08453E-08
 -1       815-2.68532E+05-4.49099E+04-2.38070E+02-1.10246E+05 2.13217E-08-8.87303E-09
 -1       816-2.69627E+05-4.38098E+04-4.50844E+02-1.08989E+05 1.24255E-08 8.75934E-09
 -1       817-2.68610E+05-4.49525E+04-9.67942E+02-1.10238E+05-5.11864E-09 7.70274E-09
 -1       818-2.69571E+05-4.39448E+04-1.97397E+03-1.08925E+05-1.47520E-09-9.55788E-09
 -1       819-2.69691E+05-4.61469E+04-4.64533E+03-1.09987E+05-2.43745E-10-1.53541E-08
 -1       820-2.69205E+05-4.74482E+04-9.45455E+03-1.07421E+05 1.06047E-09 7.41420E-09
 -1       821-3.29895E+05 1.82117E+04-4.21273E+04 7.17026E+02 5.35111E-09-4.31100E-10
 -1       822-3.48113E+05-2.10830E+04-2.98048E+04-1.42083E+03 4.81641E-11 2.67391E-09
 -1       823-3.36915E+05 2.85619E+03-1.09090E+04 8.49689E+02-3.26558E-09 7.45376E-09
 -1       824-3.39891E+05-3.30396E+03-6.86020E+03-1.29576E+03 7.65379E-11-1.17502E-08
 -1       825-3.38114E+05 4.45871E+02-2.82759E+03 5.91971E+02 5.08743E-09 5.57975E-09
 -1       826-3.38467E+05-5.23964E+02-1.68673E+03-5.15680E+02 4.68525E-09-9.31448E-09
 -1       827-3.38336E+05 7.66744E+01-8.96192E+02 6.95910E+01 1.45448E-09-3.88079E-09
 -1       828-3.38275E+05-1.59097E+02-7.65310E+02 5.39231E+02-3.61132E-09 8.81851E-09
 -1       829-3.38306E+05 8.11672E+01-9.11582E+02-4.62958E+02-3.46887E-11-2.77137E-09
 -1       830-3.38545E+05-5.48000E+02-1.76227E+03 1.35380E+03 1.10875E-09 1.04947E-08
 -1       831-3.38068E+05 4.66815E+02-2.93109E+03-7.44997E+02-2.31296E-09-5.09749E-09
 -1       832-3.39976E+05-3.43980E+03-7.14154E+03 1.52943E+03-1.55784E-09-1.07412E-08
 -1       833-3.36877E+05 2.97138E+03-1.13558E+04-6.38584E+02-1.98010E-09-4.78303E-09
 -1       834-3.48450E+05-2.19377E+04-3.10042E+04 9.72344E+02-1.01701E-09 4.79122E-09
 -1       835-3.29595E+05 1.89493E+04-4.38496E+04-1.87899E+02 5.16590E-09-8.93488E-09
 -1       836-1.15849E+03 3.13764E+05 1.92009E+04-1.60048E+04-2.64117E-09-3.96221E-09
 -1       837 4.14554E+03 3.19754E+05 1.63652E+04-3.23453E+04-2.85934E-09-1.99786E-08
 -1       838-4.51364E+02 3.15428E+05 1.68396E+04-1.59386E+04-2.09639E-09-4.62819E-09
 -1       839 1.07153E+04 3.24650E+05 3.20181E+04-3.23892E+04-1.67938E-09-3.50218E-09
 -1       840-3.27654E+03 3.08821E+05 5.11280E+04-1.59622E+04-2.12458E-09-8.33282E-09
 -1       856-6.62548E+04 7.71298E+03-2.03258E+04-4.07181E+02-1.36509E-09-2.24645E-10
 -1       857-7.46404E+04-9.05349E+03-1.39928E+04 5.07464E+03-2.04716E-09-6.44286E-09
 -1       858-6.95714E+04 1.08115E+03-5.27449E+03-4.29759E+02-1.60259E-09-2.90902E-09
 -1       859-7.08331E+04-1.26347E+03-3.18404E+03 5.10947E+03-1.40898E-09-1.63658E-09
 -1       860-7.00671E+04 1.50845E+02-1.33623E+03-4.41956E+02 3.26850E-11-8.96989E-11
 -1       861-7.02627E+04-1.72231E+02-7.38911E+02 5.12615E+03-1.19591E-09-7.22025E-10
 -1       862-7.01445E+04 2.01185E+01-3.14814E+02-4.46452E+02 1.08905E-09-8.32893E-09
 -1       863-7.01692E+04-1.48672E+01-1.32066E+02 5.12849E+03 4.24003E-09-3.53405E-09
 -1       864-7.01609E+04-2.99867E+00 6.23303E+00-4.44299E+02 3.39369E-10-8.90537E-10
 -1       865-7.01265E+04 4.59556E+01 1.58220E+02 5.11697E+03 2.24759E-09 1.71786E-09
 -1       866-7.01853E+04-4.09235E+01 3.38942E+02-4.34931E+02-9.85779E-10-1.10788E-10
 -1       867-6.99616E+04 3.39898E+02 8.47218E+02 5.09147E+03 1.53349E-09 1.82075E-09
 -1       868-7.03216E+04-2.92226E+02 1.41089E+03-4.18798E+02-7.49594E-10 1.20775E-08
 -1       869-6.89233E+04 2.43168E+03 3.76156E+03 5.04902E+03 1.12937E-09-9.28503E-09
 -1       870-7.12172E+04-2.07675E+03 5.45814E+03-3.92455E+02-1.35174E-09-1.02320E-08
 -1       871-4.91346E+03-1.46640E+04-1.65978E+04 1.10652E+05-1.20963E-09 1.89284E-08
 -1       872-1.96305E+03-1.84527E+04-6.87295E+03 1.43466E+05-3.42970E-09 1.51304E-08
 -1       873 1.39727E+02-1.66542E+04 6.95849E+02 1.10410E+05-1.83491E-09 9.91872E-09
 -1       874 2.65277E+03-1.44397E+04 8.78107E+03 1.43502E+05-3.68073E-09 2.15255E-09
 -1       875 5.87867E+03-1.87432E+04 1.96589E+04 1.10613E+05-1.50612E-09-4.69026E-09
 -1       876 2.58500E+05 4.39504E+04 1.34548E+04 1.04190E+05-3.07375E-09-1.31695E-08
 -1       877 2.59350E+05 4.68237E+04 7.18533E+03 1.08086E+05-1.57524E-09-1.75544E-08
 -1       878 2.59757E+05 4.24611E+04 3.01032E+03 1.05294E+05-6.34918E-09 7.37987E-09
 -1       879 2.57520E+05 4.49993E+04 1.49982E+03 1.08178E+05 2.83535E-09 9.44073E-09
 -1       880 2.59848E+05 4.24452E+04 6.98508E+02 1.05339E+05 7.57154E-11 1.76934E-08
 -1       881 2.57399E+05 4.49215E+04 3.72732E+02 1.08158E+05-1.88084E-09-1.11973E-09
 -1       882 2.59857E+05 4.24567E+04 2.37988E+02 1.05340E+05 1.72076E-09-8.60553E-10
 -1       883 2.57390E+05 4.49176E+04 2.55083E+02 1.08152E+05-1.90357E-09 8.01595E-09
 -1       884 2.59851E+05 4.24541E+04 4.05090E+02 1.05340E+05-1.56547E-09-7.22480E-11
 -1       885 2.57422E+05 4.49232E+04 8.14029E+02 1.08161E+05 2.72448E-09-9.80685E-09
 -1       886 2.59820E+05 4.24303E+04 1.64044E+03 1.05337E+05 2.59664E-09 1.91278E-09
 -1       887 2.57711E+05 4.51123E+04 3.58327E+03 1.08203E+05-2.34570E-09 8.45557E-09
 -1       888 2.59593E+05 4.24701E+04 7.22039E+03 1.05222E+05 3.94604E-09-1.71894E-09
 -1       889 2.62011E+05 4.95814E+04 1.72485E+04 1.08070E+05 1.19780E-08-6.92671E-09
 -1       890 2.56650E+05 4.59670E+04 3.23057E+04 1.02470E+05 5.47652E-09-1.73532E-09
 -1       891-1.19404E+02-1.44595E+05-1.75128E+03 2.54267E+04-3.75167E-10 4.64593E-09
 -1       892-2.16573E+02-1.45037E+05-1.88830E+03 3.85387E+04 8.69477E-10 1.17871E-09
 -1       893-2.88091E+00-1.44651E+05-2.68126E+03 2.54327E+04-1.88948E-10-4.58385E-10
 -1       894-1.39806E+03-1.46054E+05-5.55479E+03 3.83987E+04 9.72705E-10 7.53971E-10
 -1       895-1.10174E+03-1.43494E+05-9.78408E+03 2.55664E+04-3.24690E-10-2.77032E-09
 -1       956-3.29435E+05-4.66964E+03-1.16580E+04 2.43091E+04 9.14952E-10-6.26255E-09
 -1       957-3.31731E+05-1.60563E+03-5.98436E+03 2.92511E+04-1.14505E-09-3.95812E-09
 -1       958-3.30476E+05-1.59517E+02-2.69639E+03 2.41686E+04 1.08230E-09-2.95404E-09
 -1       959-3.30654E+05-6.13497E+01-1.37711E+03 2.94090E+04 9.70886E-10 1.91676E-10
 -1       960-3.30573E+05 6.94342E+00-6.71490E+02 2.41546E+04 4.10319E-09 4.00632E-09
 -1       961-3.30579E+05-8.70549E-01-3.56310E+02 2.94251E+04 1.35065E-08-1.42004E-08
 -1       962-3.30594E+05 3.89622E+00-2.04241E+02 2.41524E+04 6.14568E-09 1.16120E-09
 -1       963-3.30577E+05 1.51842E+00-1.64456E+02 2.94280E+04-9.68271E-10 9.83255E-09
 -1       964-3.30598E+05 6.40194E+00-2.00418E+02 2.41518E+04-2.89654E-09 2.05114E-09
 -1       965-3.30588E+05 4.46380E+00-3.46992E+02 2.94276E+04 1.74441E-09-9.02924E-09
 -1       966-3.30585E+05 1.43966E+01-6.51956E+02 2.41528E+04-3.86808E-09 2.58865E-09
 -1       967-3.30670E+05-4.90914E+01-1.33732E+03 2.94168E+04-8.88667E-09 9.28935E-09
 -1       968-3.30498E+05-1.42362E+02-2.61761E+03 2.41626E+04-5.71799E-09-5.04912E-09
 -1       969-3.31725E+05-1.54440E+03-5.81151E+03 2.93027E+04-1.42632E-09 3.90392E-09
 -1       970-3.29494E+05-4.51914E+03-1.13204E+04 2.42649E+04-7.83984E-10 1.56497E-08
 -1       971-3.05674E+05-1.56042E+03-8.54502E+03 1.40743E+04-6.58474E-10-9.40511E-09
 -1       972-3.07741E+05-1.13306E+03-4.65354E+03 1.95703E+04 9.91804E-10-4.52928E-09
 -1       973-3.06625E+05-3.24228E+01-2.08411E+03 1.39597E+04-1.28239E-09 1.75555E-09
 -1       974-3.06760E+05-4.04868E+01-1.08003E+03 1.96969E+04-1.24282E-09 2.18379E-08
 -1       975-3.06700E+05 8.28552E+00-5.39546E+02 1.39486E+04 2.90129E-10 2.12099E-08
 -1       976-3.06702E+05 4.86945E+00-3.10701E+02 1.97107E+04-3.72893E-10 2.08516E-08
 -1       977-3.06714E+05 8.59795E+00-2.24470E+02 1.39458E+04-1.13118E-09-3.07409E-09
 -1       978-3.06707E+05 1.02881E+01-2.61271E+02 1.97148E+04 4.30737E-09-9.49331E-09
 -1       979-3.06714E+05 1.59576E+01-4.18570E+02 1.39446E+04 3.02600E-09 3.10558E-09
 -1       980-3.06738E+05 1.29579E+01-8.07448E+02 1.97155E+04 2.94202E-09 3.32864E-09
 -1       981-3.06688E+05 3.61116E+01-1.56344E+03 1.39450E+04-1.93199E-09-8.42613E-09
 -1       982-3.06952E+05-1.02513E+02-3.23137E+03 1.97095E+04-2.27510E-09-9.10465E-09
 -1       983-3.06492E+05-6.39284E+01-6.27845E+03 1.39507E+04 1.92949E-09 1.02714E-08
 -1       984-3.09972E+05-3.38143E+03-1.40600E+04 1.96304E+04 8.49468E-10 5.99368E-09
 -1       985-3.03649E+05-4.65809E+03-2.58187E+04 1.40238E+04-1.75396E-09 1.16906E-08
 -3
    1PSTEP                        23          12           1          
  100CL  112 6.12732E-01         409                     0   12           1
 -4  DISP        4    1
 -5  D1          1    2    1    0
 -5  D2          1    2    2    0
 -5  D3          1    2    3    0
 -5  ALL         1    2    0    0    1ALL
 -1         1 1.37809E-03 0.00000E+00 0.00000E+00
 -1         2 1.29921E-03-8.68909E-29 0.00000E+00
 -1         3 2.73690E-04 1.41842E-27 1.32349E-23
 -1         5 1.51247E-04-2.50838E-26-1.65436E-24
 -1         8 1.35817E-03-6.16075E-07 0.00000E+00
 -1         9 1.32614E-03-3.89809E-06 0.00000E+00
 -1        10 2.48940E-04-3.27301E-06-6.61744E-24
 -1        12 1.52174E-04 7.13591E-07 1.65436E-24
 -1        15 1.33416E-03-6.80058E-07 0.00000E+00
 -1        16 1.34194E-03-4.73135E-06 0.00000E+00
 -1        17 1.71957E-04-7.21629E-06 0.00000E+00
 -1        18 1.53528E-04 2.15492E-05 0.00000E+00
 -1        19 1.54955E-04 1.42297E-06 0.00000E+00
 -1        20 1.55101E-04 1.48783E-07 0.00000E+00
 -1        21 1.54339E-04-4.04430E-06 3.30872E-24
 -1        24 2.74160E-05-1.04711E-05 0.00000E+00
 -1        25 1.59698E-04 2.17368E-05 0.00000E+00
 -1        26 1.60396E-04 1.97174E-06 0.00000E+00
 -1        27 1.58450E-04-3.04071E-06 0.00000E+00
 -1        28 1.58080E-04-4.61549E-06 0.00000E+00
 -1        32 0.00000E+00 0.00000E+00 0.00000E+00
 -1        33 1.64789E-04 2.64069E-06 0.00000E+00
 -1        34 1.62884E-04-3.08116E-06 0.00000E+00
 -1        35 1.61128E-04-4.92528E-06 0.00000E+00
 -1        51 1.37681E-03-1.11400E-07 0.00000E+00
 -1        52 1.37442E-03-2.10233E-07 0.00000E+00
 -1        53 1.37114E-03-3.07996E-07 0.00000E+00
 -1        54 1.36719E-03-4.06698E-07 0.00000E+00
 -1        55 1.36279E-03-5.07696E-07 4.13590E-25
 -1        56 1.37499E-03-3.24310E-07-5.29396E-23
 -1        57 1.37125E-03 7.41485E-07-2.64698E-23
 -1        58 1.36706E-03 3.02370E-06 1.05879E-22
 -1        59 1.36251E-03 6.21400E-06-5.29396E-23
 -1        60 1.35776E-03 9.89572E-06 0.00000E+00
 -1        61 1.35300E-03 1.36112E-05 5.29396E-23
 -1        62 1.34841E-03 1.68997E-05 1.05879E-22
 -1        63 1.34413E-03 1.93281E-05 5.29396E-23
 -1        64 1.34031E-03 2.05814E-05 0.00000E+00
 -1        65 1.33701E-03 2.04241E-05 0.00000E+00
 -1        66 1.33426E-03 1.88140E-05 0.00000E+00
 -1        67 1.33204E-03 1.58086E-05-5.29396E-23
 -1        68 1.33024E-03 1.16553E-05 1.05879E-22
 -1        69 1.32876E-03 6.68692E-06 0.00000E+00
 -1        70 1.32742E-03 1.33514E-06 5.29396E-23
 -1        86 1.30044E-03-6.38618E-07-2.64698E-23
 -1        87 1.30407E-03-1.28296E-06 1.32349E-23
 -1        88 1.30936E-03-1.93417E-06 0.00000E+00
 -1        89 1.31550E-03-2.59072E-06-1.32349E-23
 -1        90 1.32145E-03-3.24591E-06 0.00000E+00
 -1       121 2.72995E-04-5.34776E-07-1.32349E-23
 -1       122 2.70914E-04-1.07141E-06-6.61744E-24
 -1       123 2.67452E-04-1.61173E-06 1.32349E-23
 -1       124 2.62624E-04-2.15759E-06 0.00000E+00
 -1       125 2.56445E-04-2.71053E-06 0.00000E+00
 -1       191 1.51273E-04 1.18951E-07-3.30872E-24
 -1       192 1.51350E-04 2.37898E-07 8.27181E-25
 -1       193 1.51479E-04 3.56840E-07-1.65436E-24
 -1       194 1.51659E-04 4.75773E-07-8.27181E-25
 -1       195 1.51891E-04 5.94692E-07 1.65436E-24
 -1       251 1.35749E-03-1.14990E-05-1.32349E-23
 -1       252 1.35607E-03-5.18240E-05 6.61744E-24
 -1       253 1.35364E-03-1.13661E-04 0.00000E+00
 -1       254 1.35034E-03-1.88544E-04-6.61744E-24
 -1       255 1.34698E-03-2.64226E-04-1.32349E-23
 -1       256 1.34440E-03-3.28446E-04 0.00000E+00
 -1       257 1.34284E-03-3.72271E-04 0.00000E+00
 -1       258 1.34209E-03-3.87269E-04 6.61744E-24
 -1       259 1.34136E-03-3.73033E-04 0.00000E+00
 -1       260 1.33983E-03-3.29916E-04 0.00000E+00
 -1       261 1.33729E-03-2.66308E-04-1.32349E-23
 -1       262 1.33396E-03-1.91103E-04-6.61744E-24
 -1       263 1.33069E-03-1.16564E-04-1.32349E-23
 -1       264 1.32826E-03-5.49417E-05-1.32349E-23
 -1       265 1.32684E-03-1.47290E-05 2.64698E-23
 -1       266 1.35417E-03-6.35662E-07 0.00000E+00
 -1       267 1.35017E-03-6.45238E-07 0.00000E+00
 -1       268 1.34616E-03-6.55448E-07 0.00000E+00
 -1       269 1.34216E-03-6.63780E-07 0.00000E+00
 -1       270 1.33816E-03-6.72068E-07-2.06795E-25
 -1       271 1.35575E-03 2.97051E-06 2.64698E-23
 -1       272 1.35336E-03 6.35670E-06-1.32349E-23
 -1       273 1.35108E-03 9.46719E-06-2.64698E-23
 -1       274 1.34894E-03 1.22158E-05 1.32349E-23
 -1       275 1.34696E-03 1.45248E-05 0.00000E+00
 -1       276 1.34517E-03 1.63199E-05 1.32349E-23
 -1       277 1.34360E-03 1.75341E-05 0.00000E+00
 -1       278 1.34228E-03 1.81067E-05 1.32349E-23
 -1       279 1.34121E-03 1.79859E-05-2.64698E-23
 -1       280 1.34042E-03 1.71278E-05-1.32349E-23
 -1       281 1.33992E-03 1.54981E-05-2.64698E-23
 -1       282 1.33971E-03 1.30719E-05 1.32349E-23
 -1       283 1.33981E-03 9.83465E-06 0.00000E+00
 -1       284 1.34022E-03 5.78239E-06 1.32349E-23
 -1       285 1.34092E-03 9.19489E-07 0.00000E+00
 -1       301 1.32898E-03-4.05711E-06 1.32349E-23
 -1       302 1.33102E-03-4.18772E-06 0.00000E+00
 -1       303 1.33280E-03-4.31574E-06 0.00000E+00
 -1       304 1.33485E-03-4.44371E-06 0.00000E+00
 -1       305 1.33772E-03-4.57531E-06 0.00000E+00
 -1       306 1.35333E-03-1.04358E-04 0.00000E+00
 -1       307 1.41429E-03-3.87833E-04 0.00000E+00
 -1       308 1.48172E-03-8.08875E-04 0.00000E+00
 -1       309 1.54470E-03-1.30489E-03-5.29396E-23
 -1       310 1.60837E-03-1.79121E-03 0.00000E+00
 -1       311 1.67601E-03-2.18411E-03-5.29396E-23
 -1       312 1.73191E-03-2.42634E-03 0.00000E+00
 -1       313 1.74540E-03-2.48069E-03 0.00000E+00
 -1       314 1.68064E-03-2.34946E-03 0.00000E+00
 -1       315 1.51380E-03-2.06063E-03 5.29396E-23
 -1       316 1.25492E-03-1.66501E-03 1.05879E-22
 -1       317 9.38056E-04-1.21545E-03-5.29396E-23
 -1       318 6.25269E-04-7.69548E-04 0.00000E+00
 -1       319 3.77500E-04-3.85313E-04 0.00000E+00
 -1       320 2.24596E-04-1.14846E-04-1.05879E-22
 -1       336 2.39962E-04-3.88943E-06 0.00000E+00
 -1       337 2.29372E-04-4.52160E-06 0.00000E+00
 -1       338 2.17218E-04-5.17049E-06 0.00000E+00
 -1       339 2.03555E-04-5.83632E-06 0.00000E+00
 -1       340 1.88445E-04-6.52223E-06 0.00000E+00
 -1       406 1.52509E-04 8.32461E-07 1.65436E-24
 -1       407 1.52895E-04 9.51275E-07 8.27181E-25
 -1       408 1.53333E-04 1.07000E-06-1.65436E-24
 -1       409 1.53822E-04 1.18848E-06-1.65436E-24
 -1       410 1.54363E-04 1.30650E-06-3.30872E-24
 -1       521 1.37032E-03-1.13655E-04-1.05879E-22
 -1       522 1.43202E-03-4.16424E-04 0.00000E+00
 -1       523 1.49774E-03-8.65006E-04-1.05879E-22
 -1       524 1.55684E-03-1.39144E-03 5.29396E-23
 -1       525 1.61700E-03-1.90689E-03 0.00000E+00
 -1       526 1.68364E-03-2.32367E-03 0.00000E+00
 -1       527 1.74027E-03-2.57960E-03 1.05879E-22
 -1       528 1.75327E-03-2.63608E-03 0.00000E+00
 -1       529 1.68186E-03-2.49484E-03 1.05879E-22
 -1       530 1.49969E-03-2.18830E-03-5.29396E-23
 -1       531 1.21669E-03-1.77027E-03 1.05879E-22
 -1       532 8.70592E-04-1.29708E-03-5.29396E-23
 -1       533 5.28414E-04-8.27198E-04 0.00000E+00
 -1       534 2.56063E-04-4.19470E-04 5.29396E-23
 -1       535 8.72617E-05-1.29773E-04 1.05879E-22
 -1       536 1.71441E-04 2.00312E-05-6.61744E-24
 -1       537 1.70213E-04 6.73634E-05 3.30872E-24
 -1       538 1.68344E-04 1.27436E-04 0.00000E+00
 -1       539 1.66154E-04 1.92836E-04 0.00000E+00
 -1       540 1.64181E-04 2.54577E-04 0.00000E+00
 -1       541 1.62883E-04 3.03689E-04 0.00000E+00
 -1       542 1.62261E-04 3.34785E-04 3.30872E-24
 -1       543 1.62076E-04 3.42587E-04 1.65436E-24
 -1       544 1.61818E-04 3.27778E-04 0.00000E+00
 -1       545 1.61021E-04 2.91196E-04 0.00000E+00
 -1       546 1.59594E-04 2.39359E-04 0.00000E+00
 -1       547 1.57700E-04 1.78872E-04 1.65436E-24
 -1       548 1.55832E-04 1.18851E-04 3.30872E-24
 -1       549 1.54475E-04 6.84052E-05 1.65436E-24
 -1       550 1.53750E-04 3.38875E-05 1.65436E-24
 -1       551 1.52027E-04-7.66864E-06 0.00000E+00
 -1       552 1.29271E-04-8.17403E-06 0.00000E+00
 -1       553 1.04552E-04-8.72163E-06 7.85822E-24
 -1       554 7.87514E-05-9.29660E-06 3.30872E-24
 -1       555 5.27478E-05-9.87892E-06 0.00000E+00
 -1       556 1.66076E-04 7.89273E-06 0.00000E+00
 -1       557 1.61370E-04 2.00272E-05 0.00000E+00
 -1       558 1.57724E-04 2.94270E-05 0.00000E+00
 -1       559 1.55031E-04 3.63515E-05 0.00000E+00
 -1       560 1.53186E-04 4.10600E-05 0.00000E+00
 -1       561 1.52083E-04 4.38138E-05 0.00000E+00
 -1       562 1.51619E-04 4.48750E-05 2.64698E-23
 -1       563 1.51693E-04 4.45062E-05 0.00000E+00
 -1       564 1.52205E-04 4.29710E-05 0.00000E+00
 -1       565 1.53053E-04 4.05328E-05 0.00000E+00
 -1       566 1.54140E-04 3.74559E-05 6.61744E-24
 -1       567 1.55366E-04 3.40046E-05 0.00000E+00
 -1       568 1.56633E-04 3.04431E-05 1.44757E-24
 -1       569 1.57842E-04 2.70358E-05 0.00000E+00
 -1       570 1.58896E-04 2.40471E-05 0.00000E+00
 -1       571 1.53615E-04 2.02472E-05-8.27181E-25
 -1       572 1.53703E-04 1.88898E-05 8.27181E-25
 -1       573 1.53792E-04 1.74896E-05 1.65436E-24
 -1       574 1.53882E-04 1.60597E-05 0.00000E+00
 -1       575 1.53971E-04 1.46135E-05-3.30872E-24
 -1       576 1.54060E-04 1.31641E-05 1.65436E-24
 -1       577 1.54149E-04 1.17249E-05 3.30872E-24
 -1       578 1.54239E-04 1.03092E-05-1.65436E-24
 -1       579 1.54328E-04 8.93029E-06 0.00000E+00
 -1       580 1.54417E-04 7.60150E-06 0.00000E+00
 -1       581 1.54507E-04 6.33615E-06 6.61744E-24
 -1       582 1.54596E-04 5.14751E-06 0.00000E+00
 -1       583 1.54686E-04 4.04889E-06 0.00000E+00
 -1       584 1.54776E-04 3.05342E-06 0.00000E+00
 -1       585 1.54865E-04 2.17413E-06 0.00000E+00
 -1       586 1.54508E-04 2.15824E-05-1.65436E-24
 -1       587 1.55455E-04 2.16149E-05 2.06795E-25
 -1       588 1.56408E-04 2.16472E-05 0.00000E+00
 -1       589 1.57408E-04 2.16789E-05 0.00000E+00
 -1       590 1.58491E-04 2.17095E-05 0.00000E+00
 -1       591 1.53964E-04 2.03193E-05-1.03398E-25
 -1       592 1.54404E-04 1.90664E-05 2.06795E-25
 -1       593 1.54850E-04 1.77964E-05 0.00000E+00
 -1       594 1.55301E-04 1.65143E-05-4.13590E-25
 -1       595 1.55754E-04 1.52249E-05-8.27181E-25
 -1       596 1.56208E-04 1.39332E-05-4.13590E-25
 -1       597 1.56661E-04 1.26442E-05 8.27181E-25
 -1       598 1.57111E-04 1.13627E-05 0.00000E+00
 -1       599 1.57556E-04 1.00936E-05 0.00000E+00
 -1       600 1.57995E-04 8.84187E-06 2.06795E-25
 -1       601 1.58426E-04 7.61238E-06 0.00000E+00
 -1       602 1.58846E-04 6.41004E-06 2.06795E-25
 -1       603 1.59255E-04 5.23977E-06 2.06795E-25
 -1       604 1.59650E-04 4.10656E-06 2.58494E-26
 -1       605 1.60030E-04 3.01526E-06 0.00000E+00
 -1       606 1.54968E-04 8.74437E-07 0.00000E+00
 -1       607 1.54978E-04 4.15996E-07 0.00000E+00
 -1       608 1.54988E-04 4.23532E-08 0.00000E+00
 -1       609 1.54997E-04-2.52454E-07 1.65436E-24
 -1       610 1.55006E-04-4.74436E-07 0.00000E+00
 -1       611 1.55014E-04-6.29671E-07 0.00000E+00
 -1       612 1.55023E-04-7.24244E-07 0.00000E+00
 -1       613 1.55032E-04-7.64251E-07 0.00000E+00
 -1       614 1.55041E-04-7.55785E-07 0.00000E+00
 -1       615 1.55049E-04-7.04941E-07 8.27181E-25
 -1       616 1.55058E-04-6.17812E-07-1.65436E-24
 -1       617 1.55067E-04-5.00495E-07 0.00000E+00
 -1       618 1.55076E-04-3.59084E-07 0.00000E+00
 -1       619 1.55084E-04-1.99671E-07 0.00000E+00
 -1       620 1.55093E-04-2.83509E-08 4.13590E-25
 -1       621 1.55662E-04 1.51475E-06 1.65436E-24
 -1       622 1.56479E-04 1.60682E-06-8.27181E-25
 -1       623 1.57384E-04 1.69878E-06-1.65436E-24
 -1       624 1.58354E-04 1.79053E-06 1.65436E-24
 -1       625 1.59366E-04 1.88207E-06 0.00000E+00
 -1       626 1.55262E-04 9.06481E-07-3.30872E-24
 -1       627 1.55543E-04 4.59541E-07 0.00000E+00
 -1       628 1.55802E-04 7.43574E-08 3.30872E-24
 -1       629 1.56040E-04-2.57226E-07 1.65436E-24
 -1       630 1.56262E-04-5.43390E-07-3.30872E-24
 -1       631 1.56469E-04-7.92337E-07 1.65436E-24
 -1       632 1.56666E-04-1.01227E-06 3.30872E-24
 -1       633 1.56855E-04-1.21141E-06-1.65436E-24
 -1       634 1.57039E-04-1.39795E-06 3.30872E-24
 -1       635 1.57222E-04-1.58010E-06 0.00000E+00
 -1       636 1.57406E-04-1.76607E-06 0.00000E+00
 -1       637 1.57594E-04-1.96406E-06 8.27181E-25
 -1       638 1.57790E-04-2.18229E-06 1.65436E-24
 -1       639 1.57996E-04-2.42898E-06 1.65436E-24
 -1       640 1.58216E-04-2.71234E-06 1.65436E-24
 -1       656 1.55149E-04-3.69852E-07 6.61744E-24
 -1       657 1.55599E-04-9.09417E-07 0.00000E+00
 -1       658 1.56311E-04-1.44757E-06 0.00000E+00
 -1       659 1.57141E-04-1.98535E-06 0.00000E+00
 -1       660 1.57912E-04-2.52477E-06-6.61744E-24
 -1       661 1.55121E-04 2.87242E-07 0.00000E+00
 -1       662 1.55173E-04 3.46698E-07-8.27181E-25
 -1       663 1.55254E-04 3.31152E-07 0.00000E+00
 -1       664 1.55361E-04 2.45855E-07-8.27181E-25
 -1       665 1.55493E-04 9.54207E-08 1.65436E-24
 -1       666 1.55647E-04-1.15437E-07 8.27181E-25
 -1       667 1.55823E-04-3.82252E-07 0.00000E+00
 -1       668 1.56018E-04-7.00613E-07 8.27181E-25
 -1       669 1.56230E-04-1.06627E-06 0.00000E+00
 -1       670 1.56459E-04-1.47507E-06 0.00000E+00
 -1       671 1.56702E-04-1.92297E-06 1.65436E-24
 -1       672 1.56958E-04-2.40603E-06 0.00000E+00
 -1       673 1.57226E-04-2.92036E-06 0.00000E+00
 -1       674 1.57504E-04-3.46241E-06 0.00000E+00
 -1       675 1.57790E-04-4.02807E-06 0.00000E+00
 -1       676 1.54964E-04-4.14006E-06-3.30872E-24
 -1       677 1.55589E-04-4.23577E-06 0.00000E+00
 -1       678 1.56214E-04-4.33144E-06-3.30872E-24
 -1       679 1.56837E-04-4.42682E-06 0.00000E+00
 -1       680 1.57459E-04-4.52218E-06 1.65436E-24
 -1       771 1.79226E-05 1.04502E-05 0.00000E+00
 -1       772 9.89556E-06 2.76262E-05 0.00000E+00
 -1       773 3.26494E-06 4.12435E-05 0.00000E+00
 -1       774-2.06397E-06 5.15095E-05-2.64698E-23
 -1       775-6.18433E-06 5.86388E-05 5.29396E-23
 -1       776-9.19303E-06 6.28581E-05 0.00000E+00
 -1       777-1.11872E-05 6.44008E-05 5.29396E-23
 -1       778-1.22660E-05 6.35106E-05 0.00000E+00
 -1       779-1.25284E-05 6.04366E-05 0.00000E+00
 -1       780-1.20754E-05 5.54365E-05 0.00000E+00
 -1       781-1.10072E-05 4.87722E-05 5.29396E-23
 -1       782-9.42565E-06 4.07121E-05 0.00000E+00
 -1       783-7.43190E-06 3.15279E-05 0.00000E+00
 -1       784-5.12832E-06 2.14955E-05 0.00000E+00
 -1       785-2.61668E-06 1.08930E-05 5.29396E-23
 -1       786 1.59738E-04 2.02848E-05-5.16988E-26
 -1       787 1.59781E-04 1.88806E-05 0.00000E+00
 -1       788 1.59824E-04 1.75162E-05 8.27181E-25
 -1       789 1.59867E-04 1.61840E-05 8.27181E-25
 -1       790 1.59911E-04 1.48793E-05-1.65436E-24
 -1       791 1.59955E-04 1.35976E-05-8.27181E-25
 -1       792 1.59999E-04 1.23367E-05 0.00000E+00
 -1       793 1.60043E-04 1.10946E-05 0.00000E+00
 -1       794 1.60087E-04 9.87090E-06-1.65436E-24
 -1       795 1.60131E-04 8.66557E-06-8.27181E-25
 -1       796 1.60175E-04 7.48027E-06-1.65436E-24
 -1       797 1.60219E-04 6.31671E-06 0.00000E+00
 -1       798 1.60263E-04 5.17885E-06 0.00000E+00
 -1       799 1.60307E-04 4.07071E-06-8.27181E-25
 -1       800 1.60352E-04 2.99930E-06 1.65436E-24
 -1       801 1.26188E-04 1.93238E-05 2.64698E-23
 -1       802 2.44217E-05 1.24525E-05 0.00000E+00
 -1       803-6.48781E-05 6.54813E-06-5.29396E-23
 -1       804-6.20632E-05 4.45346E-06 2.64698E-23
 -1       805-2.12398E-05 1.94680E-06 0.00000E+00
 -1       806 1.60140E-04 2.02245E-05 0.00000E+00
 -1       807 1.60567E-04 1.87390E-05 0.00000E+00
 -1       808 1.60983E-04 1.72844E-05 0.00000E+00
 -1       809 1.61386E-04 1.58640E-05 0.00000E+00
 -1       810 1.61774E-04 1.44812E-05 0.00000E+00
 -1       811 1.62147E-04 1.31390E-05-1.65436E-24
 -1       812 1.62504E-04 1.18406E-05 0.00000E+00
 -1       813 1.62843E-04 1.05892E-05 8.27181E-25
 -1       814 1.63164E-04 9.38775E-06 1.65436E-24
 -1       815 1.63464E-04 8.23951E-06 1.65436E-24
 -1       816 1.63744E-04 7.14758E-06-3.30872E-24
 -1       817 1.64001E-04 6.11503E-06 8.27181E-25
 -1       818 1.64235E-04 5.14499E-06 0.00000E+00
 -1       819 1.64445E-04 4.24055E-06-8.27181E-25
 -1       820 1.64629E-04 3.40478E-06-1.65436E-24
 -1       821 1.60281E-04 8.12508E-07-8.27181E-25
 -1       822 1.60159E-04-6.51460E-07 0.00000E+00
 -1       823 1.60036E-04-2.25922E-06-3.30872E-24
 -1       824 1.59913E-04-3.84902E-06 1.65436E-24
 -1       825 1.59790E-04-5.26373E-06 0.00000E+00
 -1       826 1.59666E-04-6.34715E-06 1.65436E-24
 -1       827 1.59544E-04-7.02538E-06 0.00000E+00
 -1       828 1.59421E-04-7.22679E-06 1.65436E-24
 -1       829 1.59298E-04-6.99817E-06 0.00000E+00
 -1       830 1.59175E-04-6.38868E-06 1.65436E-24
 -1       831 1.59052E-04-5.54210E-06 0.00000E+00
 -1       832 1.58930E-04-4.60349E-06-1.65436E-24
 -1       833 1.58807E-04-3.74084E-06-3.30872E-24
 -1       834 1.58686E-04-3.12166E-06 1.65436E-24
 -1       835 1.58565E-04-2.85320E-06-8.27181E-25
 -1       836 1.61316E-04 2.08286E-06-3.30872E-24
 -1       837 1.62120E-04 2.19665E-06 0.00000E+00
 -1       838 1.62838E-04 2.31032E-06 0.00000E+00
 -1       839 1.63501E-04 2.42331E-06 8.27181E-25
 -1       840 1.64141E-04 2.53614E-06 4.13590E-25
 -1       856 1.58431E-04-3.38968E-06-4.13590E-25
 -1       857 1.58408E-04-3.61314E-06-5.16988E-26
 -1       858 1.58385E-04-3.73068E-06 0.00000E+00
 -1       859 1.58362E-04-3.76195E-06-2.06795E-25
 -1       860 1.58339E-04-3.72669E-06 0.00000E+00
 -1       861 1.58316E-04-3.64469E-06 0.00000E+00
 -1       862 1.58292E-04-3.53578E-06 8.27181E-25
 -1       863 1.58269E-04-3.41983E-06 4.13590E-25
 -1       864 1.58245E-04-3.31669E-06 0.00000E+00
 -1       865 1.58222E-04-3.24622E-06 0.00000E+00
 -1       866 1.58199E-04-3.22825E-06 0.00000E+00
 -1       867 1.58175E-04-3.28255E-06-4.13590E-25
 -1       868 1.58152E-04-3.42884E-06 0.00000E+00
 -1       869 1.58128E-04-3.68676E-06 4.13590E-25
 -1       870 1.58104E-04-4.07583E-06 8.27181E-25
 -1       871 1.59058E-04-3.04357E-06 4.13590E-25
 -1       872 1.59798E-04-3.04936E-06 0.00000E+00
 -1       873 1.60611E-04-3.05572E-06 0.00000E+00
 -1       874 1.61436E-04-3.06275E-06-1.03398E-25
 -1       875 1.62214E-04-3.07034E-06-6.20385E-25
 -1       876 1.58697E-04-3.37686E-06-3.30872E-24
 -1       877 1.58924E-04-3.65157E-06 1.65436E-24
 -1       878 1.59130E-04-3.87220E-06-3.30872E-24
 -1       879 1.59319E-04-4.04559E-06-1.65436E-24
 -1       880 1.59493E-04-4.17860E-06 3.30872E-24
 -1       881 1.59655E-04-4.27805E-06-1.65436E-24
 -1       882 1.59806E-04-4.35074E-06 0.00000E+00
 -1       883 1.59950E-04-4.40348E-06 1.65436E-24
 -1       884 1.60089E-04-4.44306E-06-3.30872E-24
 -1       885 1.60226E-04-4.47628E-06 0.00000E+00
 -1       886 1.60363E-04-4.50993E-06-3.30872E-24
 -1       887 1.60502E-04-4.55081E-06 0.00000E+00
 -1       888 1.60646E-04-4.60573E-06 3.30872E-24
 -1       889 1.60798E-04-4.68165E-06-8.27181E-25
 -1       890 1.60959E-04-4.78532E-06 0.00000E+00
 -1       891 1.58721E-04-4.66745E-06-1.65436E-24
 -1       892 1.59341E-04-4.71957E-06-4.13590E-25
 -1       893 1.59915E-04-4.77162E-06-1.65436E-24
 -1       894 1.60420E-04-4.82349E-06-8.27181E-25
 -1       895 1.60832E-04-4.87519E-06 8.27181E-25
 -1       956 1.64672E-04 2.02744E-06-1.65436E-24
 -1       957 1.64553E-04 1.49259E-06 0.00000E+00
 -1       958 1.64433E-04 1.02710E-06 0.00000E+00
 -1       959 1.64314E-04 6.21436E-07-1.65436E-24
 -1       960 1.64195E-04 2.66006E-07 0.00000E+00
 -1       961 1.64075E-04-4.88026E-08 1.65436E-24
 -1       962 1.63956E-04-3.32614E-07 0.00000E+00
 -1       963 1.63836E-04-5.95066E-07 0.00000E+00
 -1       964 1.63717E-04-8.45794E-07 0.00000E+00
 -1       965 1.63598E-04-1.09443E-06 0.00000E+00
 -1       966 1.63478E-04-1.35062E-06 0.00000E+00
 -1       967 1.63359E-04-1.62399E-06-1.65436E-24
 -1       968 1.63239E-04-1.92417E-06 0.00000E+00
 -1       969 1.63120E-04-2.26077E-06 0.00000E+00
 -1       970 1.63001E-04-2.64336E-06 0.00000E+00
 -1       971 1.62776E-04-3.51105E-06-1.65436E-24
 -1       972 1.62666E-04-3.85125E-06 0.00000E+00
 -1       973 1.62555E-04-4.11164E-06 0.00000E+00
 -1       974 1.62445E-04-4.30250E-06 0.00000E+00
 -1       975 1.62335E-04-4.43412E-06 0.00000E+00
 -1       976 1.62224E-04-4.51681E-06-1.65436E-24
 -1       977 1.62114E-04-4.56088E-06 0.00000E+00
 -1       978 1.62003E-04-4.57668E-06 0.00000E+00
 -1       979 1.61893E-04-4.57454E-06-3.30872E-24
 -1       980 1.61783E-04-4.56479E-06 0.00000E+00
 -1       981 1.61672E-04-4.55779E-06 0.00000E+00
 -1       982 1.61562E-04-4.56386E-06 0.00000E+00
 -1       983 1.61452E-04-4.59335E-06 3.30872E-24
 -1       984 1.61342E-04-4.65658E-06-1.65436E-24
 -1       985 1.61233E-04-4.76386E-06 0.00000E+00
 -3
    1PSTEP                        24          12           1          
  100CL  112 6.12732E-01         409                     0   12           1
 -4  STRESS      6    1
 -5  SXX         1    4    1    1
 -5  SYY         1    4    2    2
 -5  SZZ         1    4    3    3
 -5  SXY         1    4    1    2
 -5  SYZ         1    4    2    3
 -5  SZX         1    4    3    1
 -1         1-3.79130E+06-1.45911E+06-8.27072E+05-1.53033E+06-4.65661E-10-4.63915E-08
 -1         2 7.27711E+02-1.81568E+06 2.71084E+03 1.89324E+04 6.12559E-10-1.95635E-08
 -1         3-8.83061E+02-1.52221E+06 3.71514E+02-1.66908E+03-3.60487E-10-1.95359E-08
 -1         5-1.96193E+01 3.40430E+05 8.74489E+00-5.23968E-01-2.44872E-10 6.47560E-09
 -1         8-7.87263E+05-2.69260E+05-7.22184E+04-4.50173E+05-1.89175E-10-6.29771E-08
 -1         9 4.11698E+06-6.95900E+05 7.45166E+05-8.07725E+05 2.62226E-08 2.30968E-08
 -1        10-1.79729E+03-1.58610E+06-3.27936E+03-1.12812E+04-9.92623E-09-4.24846E-08
 -1        12-1.60642E+01 3.40449E+05 2.84324E+02-3.76079E+00-3.70633E-10-2.87432E-08
 -1        15 1.47847E+03 8.12507E+02 4.77913E+03 2.55844E+00 4.29736E-11 1.62497E-08
 -1        16 1.01057E+07-3.56903E+05 1.45393E+06-1.09059E+06 1.71713E-08 3.84171E-08
 -1        17 3.52148E+06 2.32969E+06 9.61196E+05 2.38753E+06 1.01369E-08 1.65310E-08
 -1        18 6.69844E+04 1.32473E+04-1.06873E+04-1.00746E+05 1.29221E-08-6.65659E-09
 -1        19 1.08853E+05 1.25425E+05-8.69527E+02 2.04052E+04 6.79029E-10-4.22551E-09
 -1        20-6.58277E+04-5.12557E+05-1.14499E+05 2.66307E+04 8.57957E-11-8.08844E-09
 -1        21-4.34336E+01-2.73584E+05-8.62457E+02 1.17364E+02-2.23290E-08 1.83565E-08
 -1        24 5.54141E+06 4.89503E+06 1.71186E+06 4.48661E+06-1.21154E-07-4.93795E-08
 -1        25-1.93822E+02-1.93024E+05-1.78765E+04-3.85159E+05-1.03273E-09 2.39597E-09
 -1        26-4.67614E+04 8.13756E+04-2.17140E+04-1.39179E+03 6.41739E-10 4.96439E-09
 -1        27-7.13200E+04-2.77934E+05-1.02469E+05 6.21747E+04 4.59310E-09 1.01609E-08
 -1        28 2.07848E+04-7.79345E+04 1.55804E+04 2.05046E+04-1.22193E-09-5.39384E-09
 -1        32-1.54404E+06-2.72178E+06-1.43043E+05-3.23005E+03-3.39423E-08-9.03196E-09
 -1        33-1.61411E+05 8.18576E+04 2.88535E+04-3.60154E+04-1.50442E-09-3.35088E-09
 -1        34-2.02624E+05-2.17728E+04 5.86959E+02 6.66346E+04-2.00120E-09-1.48884E-09
 -1        35-2.13071E+04-3.09275E+04-1.22679E+03 4.76294E+04-3.67839E-10 2.19734E-09
 -1        51 4.10018E+04-2.51653E+05 9.24559E+04-7.35960E+05-1.60071E-10-3.44589E-08
 -1        52 1.59830E+04-2.38080E+05 5.12983E+04-8.61523E+05-6.00267E-10 1.07502E-07
 -1        53 5.58858E+03-2.53531E+05 3.09515E+04-7.33268E+05-2.91038E-11 1.01005E-07
 -1        54 1.39250E+04-2.50543E+05 3.40074E+04-8.64307E+05-3.63798E-10-5.53446E-08
 -1        55 2.82689E+04-2.61416E+05 5.12588E+04-7.32884E+05 3.63798E-11-1.53355E-07
 -1        56-7.18975E+06-8.10775E+05-6.12562E+05-2.80233E+06-6.69388E-09-8.84756E-08
 -1        57-7.52935E+06-1.27198E+06-4.13073E+05-2.66980E+06-2.37196E-09 5.51190E-08
 -1        58-7.29256E+06-1.02534E+06-1.43934E+05-2.78615E+06-1.86665E-08 1.48648E-08
 -1        59-7.41459E+06-1.01629E+06-8.58248E+04-2.68556E+06-1.12395E-08-7.85858E-08
 -1        60-7.30303E+06-1.05954E+06-3.34715E+04-2.78895E+06-2.44022E-08-1.10795E-08
 -1        61-7.39520E+06-9.82983E+05-1.89710E+04-2.68993E+06-1.29213E-08 1.99816E-08
 -1        62-7.31150E+06-1.05776E+06-9.16569E+03-2.78198E+06-9.12723E-09 6.61566E-08
 -1        63-7.36986E+06-1.00051E+06-7.21879E+03-2.71415E+06 1.39453E-08 1.13741E-07
 -1        64-7.32763E+06-1.04236E+06-8.62387E+03-2.76426E+06-5.32964E-10-1.42079E-08
 -1        65-7.33632E+06-1.03885E+06-1.65262E+04-2.75312E+06-1.98343E-08-9.73046E-08
 -1        66-7.34470E+06-1.01978E+06-2.96476E+04-2.74271E+06 8.49104E-09-3.44990E-08
 -1        67-7.32048E+06-1.10154E+06-7.49021E+04-2.78845E+06-2.17233E-08 1.05357E-07
 -1        68-7.34433E+06-9.80134E+05-1.25810E+05-2.72910E+06-1.94595E-08 1.77824E-08
 -1        69-7.42271E+06-1.32530E+06-3.61165E+05-2.77685E+06 1.89011E-08-2.31579E-07
 -1        70-7.24504E+06-8.01279E+05-5.35257E+05-2.75316E+06-3.27418E-09 6.48724E-08
 -1        86-4.94452E+02-1.82460E+06 1.13057E+03-9.46584E+03-4.00559E-09 3.07491E-08
 -1        87 1.95581E+03-1.81796E+06 4.17936E+03 3.17392E+04-6.71707E-09-6.90766E-08
 -1        88-1.48502E+03-1.82260E+06 5.46967E+03-2.22731E+04-6.98947E-09-8.82480E-08
 -1        89 1.08801E+04-1.81621E+06 1.50417E+04 4.29876E+04-1.07120E-08-1.06023E-07
 -1        90-9.19460E+03-1.82656E+06 2.08404E+04-2.07160E+04-5.66070E-09 2.44006E-08
 -1       121-1.22655E+03-1.52521E+06-1.75034E+02 8.30064E+02 1.11093E-09-3.70346E-09
 -1       122-7.28681E+02-1.52221E+06 7.46034E+02-3.33586E+03-4.29908E-09 4.33101E-09
 -1       123-1.27240E+03-1.52532E+06 6.49560E+02 2.47918E+03 3.53270E-09 1.47884E-08
 -1       124 7.94845E+02-1.52160E+06 2.97810E+03-6.99343E+03-8.12679E-09-2.58278E-08
 -1       125-2.11602E+03-1.52617E+06 3.94927E+03 4.46753E+03 5.14046E-09-1.16888E-08
 -1       191-2.08809E+01 3.40457E+05 9.77971E+00 2.65965E-01-2.99373E-10 2.12349E-08
 -1       192-2.04315E+01 3.40431E+05 1.85477E+01-1.88224E+00-3.77140E-10 1.43373E-08
 -1       193-2.30355E+01 3.40456E+05 3.38387E+01 1.64153E+00-5.95035E-10-5.04770E-09
 -1       194-2.30428E+01 3.40434E+05 7.02333E+01-4.34678E+00-3.06027E-10-1.93859E-08
 -1       195-2.71746E+01 3.40454E+05 1.36721E+02 2.76320E+00-7.52326E-10-2.63208E-08
 -1       251-2.09350E+06-2.20184E+04-1.83638E+05 1.01392E+05 4.52565E-09-2.80488E-08
 -1       252-1.24797E+06 2.44291E+04 4.06188E+04-3.55324E+05 4.95129E-09-1.23713E-07
 -1       253-1.74914E+06-1.17555E+04-3.66959E+04 2.53062E+05-1.22718E-08-8.04848E-08
 -1       254-1.65123E+06 4.79055E+04 6.18832E+03-5.08835E+05-2.09475E-09 6.58004E-08
 -1       255-1.73068E+06-1.21922E+04-1.45701E+04 2.57870E+05-2.53976E-08 1.45201E-07
 -1       256-1.28123E+06 4.06799E+04 8.39516E+04-3.75016E+05-2.48810E-08 1.37120E-07
 -1       257-2.08275E+06-3.44292E+04-8.65224E+04 1.16456E+05-1.28002E-08 2.96708E-08
 -1       258-8.88630E+05 3.12987E+04 1.58800E+05-1.02909E+03-8.88394E-09-7.58459E-08
 -1       259-2.08451E+06-3.45852E+04-8.53780E+04-1.14425E+05 4.03379E-08 3.52316E-08
 -1       260-1.27670E+06 4.16614E+04 8.88723E+04 3.73924E+05 3.47063E-09-3.57682E-08
 -1       261-1.73309E+06-1.32950E+04-7.16304E+03-2.56733E+05-3.96303E-08 4.89456E-09
 -1       262-1.64642E+06 5.66207E+04 2.54180E+04 5.09359E+05 2.61585E-08 1.81855E-08
 -1       263-1.75153E+06-1.93265E+04-5.42145E+03-2.52640E+05-1.97051E-08 2.14823E-09
 -1       264-1.22384E+06 8.33777E+04 1.24215E+05 3.58461E+05-8.62897E-08 8.43670E-08
 -1       265-2.11552E+06-7.29171E+04-6.36673E+04-1.02913E+05-3.32693E-08-9.50604E-09
 -1       266-2.67649E+04-1.25149E+04 6.28000E+04-5.47440E+01-7.27596E-11 2.97767E-08
 -1       267 3.10282E+04 1.45870E+04 4.43852E+04 6.31618E+01 1.45519E-11-1.17807E-07
 -1       268-4.16080E+03-2.06588E+03 1.64978E+04-8.04802E+00 1.05501E-10-2.37638E-08
 -1       269 4.91271E+03 2.47247E+03 1.07233E+04 9.37462E+00 5.45697E-11-2.61700E-08
 -1       270-7.37395E+02-4.06237E+02 5.17628E+03-1.27221E+00-5.02496E-11 3.78718E-09
 -1       271-2.40093E+06-2.93692E+05-1.78564E+05-9.25246E+05 1.10958E-08-3.18032E-08
 -1       272-2.50443E+06-3.85707E+05-1.14968E+05-8.80185E+05 3.39205E-08 7.02858E-09
 -1       273-2.43370E+06-3.39234E+05-4.21509E+04-9.18227E+05-7.38873E-09 7.17919E-08
 -1       274-2.46552E+06-3.30246E+05-2.36442E+04-8.91000E+05 2.16023E-08 1.71697E-07
 -1       275-2.43870E+06-3.43599E+05-9.82964E+03-9.16388E+05 1.31331E-09-3.88782E-08
 -1       276-2.45826E+06-3.26177E+05-5.17330E+03-8.94527E+05 5.19140E-09-5.44139E-08
 -1       277-2.44060E+06-3.42884E+05-2.58415E+03-9.14727E+05 1.15842E-08 4.37267E-08
 -1       278-2.45444E+06-3.28575E+05-1.69932E+03-8.97947E+05 2.30821E-08 6.57337E-09
 -1       279-2.44227E+06-3.41304E+05-1.86810E+03-9.12812E+05-7.69978E-09-5.44437E-08
 -1       280-2.45102E+06-3.32442E+05-3.06848E+03-9.01805E+05 2.12904E-08 2.05187E-08
 -1       281-2.44383E+06-3.39163E+05-5.76296E+03-9.10726E+05-1.59853E-08 1.21388E-08
 -1       282-2.44973E+06-3.39954E+05-1.34182E+04-9.05595E+05 9.15679E-09 1.24795E-07
 -1       283-2.44351E+06-3.34188E+05-2.40944E+04-9.08837E+05 4.92946E-10 2.66409E-08
 -1       284-2.46675E+06-3.76453E+05-6.52769E+04-9.05147E+05 2.01298E-08-9.47834E-08
 -1       285-2.42735E+06-3.05916E+05-1.01651E+05-9.10015E+05-2.30575E-08 3.01552E-08
 -1       301 1.91016E+04-3.58861E+05 1.73054E+05-6.48265E+05 7.05768E-10 1.01496E-07
 -1       302 2.06263E+04-3.15239E+05 1.07443E+05-9.48217E+05-8.80391E-10-4.43179E-08
 -1       303-2.13802E+03-3.42958E+05 7.05113E+04-6.46751E+05 3.01952E-10-3.97959E-08
 -1       304 1.28017E+04-3.16924E+05 8.79876E+04-9.47543E+05-1.81899E-10 7.87659E-08
 -1       305 9.20804E+03-3.48603E+05 1.29414E+05-6.48907E+05 3.23780E-10 1.56651E-08
 -1       306-1.86088E+07-3.44499E+06-4.58185E+06-1.81788E+06-5.13974E-08 4.81086E-08
 -1       307 1.19973E+07-3.90173E+05 2.78069E+06-8.42279E+06-5.71192E-07 2.13622E-08
 -1       308-8.17962E+06 5.59365E+04-4.22888E+05 2.58148E+06-9.39472E-08 1.22702E-07
 -1       309-3.23622E+06 1.20792E+06 8.98981E+05-1.36857E+07 3.33543E-07-2.26137E-08
 -1       310-9.31470E+06-1.23652E+05-6.58314E+05 2.38614E+06-1.01689E-07 5.32200E-08
 -1       311 1.45862E+07-1.17521E+06 3.31368E+06-6.68874E+06 3.09665E-07 7.75835E-08
 -1       312-1.88849E+07-3.42296E+06-4.04943E+06-2.86125E+06-6.43195E-08 4.90254E-08
 -1       313 2.16800E+07 4.85695E+06 5.36055E+06 9.15448E+06-2.20054E-07-6.03904E-09
 -1       314-1.31989E+07-8.28130E+06-3.82853E+06-7.64818E+06 2.70433E-07 8.44011E-09
 -1       315-2.03301E+06 1.33095E+07 2.98128E+06 7.02291E+06-3.32489E-07-1.02998E-07
 -1       316-1.78194E+06-6.52740E+06-3.67669E+05-4.33019E+06-6.53497E-07-2.59810E-07
 -1       317-1.48196E+07 1.27412E+07 8.78103E+05-1.70090E+06 6.05974E-07-4.16672E-07
 -1       318-2.34492E+06-6.85954E+06-7.34615E+05-4.56545E+06-6.55593E-07 1.44646E-08
 -1       319-6.40171E+04 1.37370E+07 3.03885E+06 7.69315E+06-1.38643E-07 1.23357E-07
 -1       320-1.42582E+07-8.60176E+06-4.92322E+06-7.51234E+06 1.23051E-07-5.41186E-08
 -1       336 1.03807E+02-1.65110E+06-1.19013E+04 6.73669E+03-2.02936E-08-6.95218E-09
 -1       337-4.54596E+03-1.65204E+06-1.51086E+04-1.63113E+04-3.84398E-08 1.66619E-09
 -1       338 6.26212E+02-1.65082E+06-2.27067E+04 9.45523E+03-2.74304E-08-1.22527E-08
 -1       339-2.41183E+04-1.66520E+06-5.12858E+04-2.16141E+04-4.88462E-08-5.63887E-09
 -1       340 1.61314E+04-1.63923E+06-8.03831E+04 1.19591E+04-3.20651E-08 2.63863E-08
 -1       406 4.99908E+00 3.40441E+05 5.60628E+02 1.08387E+00-9.18796E-10-9.99080E-09
 -1       407 1.79729E+02 3.40547E+05 1.19299E+03 1.28542E+01-2.52392E-10 4.87080E-09
 -1       408 5.97592E+02 3.40355E+05 2.38173E+03-1.42821E+01-1.24055E-09-2.18552E-09
 -1       409 2.56136E+03 3.41308E+05 5.36326E+03 1.46531E+02-2.89162E-10 1.28330E-09
 -1       410 7.38793E+03 3.39676E+05 1.09482E+04-1.39780E+02-1.42973E-09-2.07638E-09
 -1       521-2.05638E+07-4.29262E+06-5.51519E+06-1.74367E+06-5.27361E-08 5.22705E-08
 -1       522 1.27619E+07-2.96164E+05 2.90161E+06-1.07467E+07-3.94299E-07-2.50366E-07
 -1       523-9.35993E+06-1.02958E+05-4.72382E+05 2.99410E+06 1.65310E-08-1.84496E-07
 -1       524-5.35862E+06 2.47969E+06 1.01883E+06-1.64701E+07 5.62257E-07-4.06813E-07
 -1       525-1.06465E+07-3.72450E+05-7.54052E+05 2.77518E+06 3.57890E-07-1.87116E-07
 -1       526 1.61763E+07-1.32409E+06 3.61094E+06-8.63177E+06 3.74392E-07-2.52592E-07
 -1       527-2.09370E+07-4.38465E+06-4.79353E+06-2.93495E+06 1.52970E-07-8.97708E-08
 -1       528 2.44390E+07 5.36528E+06 5.78517E+06 1.06201E+07-4.97676E-09 1.74492E-07
 -1       529-1.45640E+07-9.82497E+06-4.52416E+06-8.24335E+06 6.71716E-08-5.38421E-08
 -1       530-3.70460E+06 1.61226E+07 3.26292E+06 7.53994E+06-1.41459E-07 4.46220E-07
 -1       531-2.07068E+06-7.70662E+06-4.00935E+05-4.84680E+06-6.21250E-07 1.49594E-07
 -1       532-1.80551E+07 1.51223E+07 1.01931E+06-3.53512E+06 2.33245E-07-4.86449E-07
 -1       533-2.61511E+06-8.04027E+06-7.91592E+05-5.05033E+06-2.66591E-08-7.36851E-07
 -1       534-1.66351E+06 1.66118E+07 3.29511E+06 8.28662E+06-8.13598E-08 5.59870E-07
 -1       535-1.56588E+07-1.02271E+07-5.73695E+06-8.08352E+06 3.58559E-08 3.29601E-07
 -1       536-5.85672E+05-3.90980E+04-6.01392E+03-3.86964E+04-7.49469E-09 2.86382E-08
 -1       537-1.72168E+05 3.92764E+04 6.87020E+04 9.21403E+04-9.67779E-08 6.68947E-08
 -1       538-3.88092E+05 6.27702E+02 8.47038E+03-5.55883E+04 1.92206E-08 7.83684E-08
 -1       539-3.09843E+05 3.10268E+03 1.90514E+04 1.05287E+05 1.18666E-07 1.01749E-07
 -1       540-4.51318E+05-2.00229E+02-1.15420E+04-5.20982E+04 4.92219E-09 8.51541E-08
 -1       541-4.97976E+04 1.06752E+04 6.72545E+04 7.08311E+04 7.32371E-09 7.74671E-08
 -1       542-6.41162E+05-1.27183E+04-5.24344E+04-2.07127E+04 2.68860E-08 4.24707E-08
 -1       543 1.10418E+05 1.71271E+04 9.84891E+04-1.07006E+04 2.24991E-08-5.90217E-09
 -1       544-6.07266E+05-1.01659E+04-4.64828E+04 2.91029E+04 4.18017E-08-2.07536E-08
 -1       545-1.27853E+05 5.39401E+03 4.83718E+04-8.45954E+04 9.43294E-09-7.07269E-08
 -1       546-4.09239E+05 4.24074E+03-8.14952E+03 5.30241E+04 2.24363E-08-6.40756E-08
 -1       547-3.23049E+05-4.54888E+03 3.66274E+03-1.07710E+05-1.00816E-07-8.13318E-08
 -1       548-4.17262E+05 4.07632E+03-1.90878E+04 5.25505E+04-8.87658E-08-6.90388E-08
 -1       549-1.12892E+05 2.08645E+03 2.70612E+04-8.17714E+04-5.10869E-08-6.17852E-08
 -1       550-6.13736E+05-7.08238E+03-9.65824E+04 2.67335E+04 9.17680E-09-3.10793E-08
 -1       551 3.17113E+04-7.34804E+05 6.16059E+03-1.14551E+06-8.08432E-08 3.62343E-09
 -1       552 7.12098E+04-7.64638E+05 2.22562E+04-1.63318E+06-5.83386E-08 3.08137E-08
 -1       553 5.33979E+04-7.65714E+05 4.02265E+04-1.14017E+06-9.40709E-08 1.44428E-08
 -1       554 1.04585E+05-7.71986E+05 9.05209E+04-1.63508E+06-5.84550E-08 1.06538E-08
 -1       555 8.27734E+04-7.87239E+05 1.62374E+05-1.14049E+06-9.71413E-08-9.50240E-09
 -1       556 1.74025E+05-3.07540E+05 5.08781E+04-3.49391E+05-1.72440E-08-5.96629E-09
 -1       557 2.85832E+05-3.97272E+05 2.82146E+04-4.47004E+05-4.59841E-09 4.17094E-09
 -1       558 1.63445E+05-3.08211E+05 9.04949E+03-3.47742E+05-1.67347E-08-1.62254E-08
 -1       559 2.65587E+05-4.02067E+05 5.31010E+03-4.61046E+05 1.27620E-08-1.28348E-08
 -1       560 1.53438E+05-3.01879E+05 8.02147E+02-3.54779E+05 1.02154E-08 1.02555E-08
 -1       561 2.52656E+05-3.97156E+05 9.52930E+02-4.69695E+05 9.02219E-09 4.33647E-09
 -1       562 1.45549E+05-2.96921E+05-3.81753E+02-3.60457E+05-2.63390E-09-9.55333E-09
 -1       563 2.43335E+05-3.93092E+05 2.07814E+02-4.75741E+05-1.16415E-09 1.44737E-08
 -1       564 1.40060E+05-2.93485E+05-2.21492E+02-3.64336E+05 4.07454E-10 2.70666E-09
 -1       565 2.37401E+05-3.90510E+05 9.17632E+01-4.79520E+05 9.93168E-10 1.29767E-08
 -1       566 1.37058E+05-2.91578E+05-1.03233E+02-3.66439E+05-3.92538E-09 6.49561E-09
 -1       567 2.34856E+05-3.89397E+05-2.14014E+02-4.81026E+05 1.18589E-08 4.49654E-09
 -1       568 1.36609E+05-2.91313E+05-7.45646E+02-3.66849E+05-7.67932E-09 7.15227E-09
 -1       569 2.34546E+05-3.89372E+05-1.88135E+03-4.79352E+05-4.66298E-09 9.37143E-09
 -1       570 1.39628E+05-2.94008E+05-4.19624E+03-3.66095E+05 5.31873E-09-9.36325E-09
 -1       571 2.57245E+05 9.35861E+03 1.35748E+04-7.66117E+04 4.20823E-09 3.72916E-09
 -1       572 2.59236E+05 3.40950E+03 6.65189E+03-8.40463E+04 2.17688E-09-1.23237E-09
 -1       573 2.58040E+05 9.65252E+02 2.95549E+03-7.64585E+04-8.50150E-09 1.53595E-08
 -1       574 2.58254E+05 4.76621E+02 1.48162E+03-8.42327E+04-1.75050E-08 1.56479E-08
 -1       575 2.58128E+05 2.41169E+02 6.99056E+02-7.64378E+04 4.63274E-10 1.67092E-08
 -1       576 2.58128E+05 2.35715E+02 3.57378E+02-8.42576E+04 1.53227E-08 1.28784E-09
 -1       577 2.58156E+05 1.93748E+02 1.78112E+02-7.64350E+04 3.68937E-09 7.01675E-09
 -1       578 2.58140E+05 2.10136E+02 1.01867E+02-8.42609E+04-5.13546E-09 8.84120E-09
 -1       579 2.58200E+05 1.72862E+02 6.93746E+01-7.64347E+04 5.56247E-09-4.17640E-09
 -1       580 2.58202E+05 1.79947E+02 7.83660E+01-8.42567E+04-2.91857E-09-7.22048E-09
 -1       581 2.58271E+05 1.38768E+02 1.18407E+02-7.64394E+04 4.17094E-09 3.41061E-10
 -1       582 2.58318E+05 1.66814E+02 2.38238E+02-8.42073E+04 2.93767E-10-5.09226E-09
 -1       583 2.58356E+05 1.95549E+02 4.59654E+02-7.64844E+04-2.11003E-10-2.21962E-09
 -1       584 2.58593E+05 5.65981E+02 1.03713E+03-8.38293E+04 2.42289E-09 7.45490E-09
 -1       585 2.58339E+05 1.45823E+03 2.10394E+03-7.68172E+04-1.83536E-09-1.56688E-08
 -1       586-3.11674E+03 9.47267E+04-3.20291E+03-2.25929E+05-3.96540E-09 1.12302E-08
 -1       587-9.88775E+02 9.43880E+04 3.33217E+02-2.48668E+05-6.81575E-09 2.95749E-08
 -1       588 6.03063E+02 9.43177E+04 3.96829E+03-2.25814E+05-2.77942E-09 1.10740E-08
 -1       589 4.70970E+03 9.64155E+04 1.06025E+04-2.48429E+05-5.47334E-09-1.17006E-08
 -1       590 1.46573E+04 9.31574E+04 2.23628E+04-2.26202E+05-2.74940E-09 5.66251E-09
 -1       591-5.98366E+04-1.37883E+04-1.90418E+04-2.67252E+04 1.25283E-10-2.49292E-09
 -1       592-6.29507E+04-1.71370E+04-1.03144E+04-3.01783E+04-3.82204E-09-1.23774E-08
 -1       593-6.17438E+04-1.24036E+04-4.29350E+03-2.81187E+04-3.91452E-10-8.10178E-09
 -1       594-6.03169E+04-1.43479E+04-2.14132E+03-3.02840E+04 5.14660E-10-1.46767E-08
 -1       595-6.18894E+04-1.23988E+04-9.83311E+02-2.81821E+04-4.66038E-09 2.81207E-09
 -1       596-6.01369E+04-1.42203E+04-5.00085E+02-3.02631E+04-1.17473E-09 1.61336E-08
 -1       597-6.19076E+04-1.24117E+04-2.72756E+02-2.81845E+04 2.61713E-09 1.89982E-09
 -1       598-6.01193E+04-1.42153E+04-2.20086E+02-3.02572E+04-4.81123E-10-5.42369E-09
 -1       599-6.19065E+04-1.24120E+04-2.82155E+02-2.81841E+04-1.06979E-09-1.67952E-08
 -1       600-6.01373E+04-1.42211E+04-5.24970E+02-3.02615E+04 4.96584E-10-1.04038E-08
 -1       601-6.18850E+04-1.23995E+04-1.03607E+03-2.81809E+04 1.28057E-09 9.77616E-09
 -1       602-6.03269E+04-1.43548E+04-2.25823E+03-3.02804E+04-8.02061E-10-2.73212E-09
 -1       603-6.17291E+04-1.24072E+04-4.52880E+03-2.81147E+04 1.14619E-09-5.32418E-09
 -1       604-6.31198E+04-1.72802E+04-1.08791E+04-3.01479E+04 2.81216E-09 4.60159E-09
 -1       605-5.97002E+04-1.38827E+04-2.00845E+04-2.66613E+04 2.30898E-09 2.41653E-09
 -1       606 2.70172E+04-1.25187E+04-2.24666E+04 2.51801E+04 2.29466E-09 2.59615E-09
 -1       607 2.31760E+04-4.07557E+03-1.11878E+04 2.82825E+04 7.63976E-10-4.86125E-09
 -1       608 2.53613E+04-7.23073E+02-5.00902E+03 2.49915E+04-2.08456E-09 1.09367E-09
 -1       609 2.49373E+04-2.32310E+02-2.53022E+03 2.85055E+04 6.51198E-10-3.90855E-09
 -1       610 2.51691E+04-1.72610E+01-1.20767E+03 2.49697E+04 3.83170E-09 1.09210E-08
 -1       611 2.50982E+04-1.22261E+01-6.08883E+02 2.85298E+04 4.54975E-09 7.48082E-09
 -1       612 2.51233E+04-2.39763E+00-2.89959E+02 2.49675E+04 8.51651E-09 2.78851E-09
 -1       613 2.51036E+04-5.98368E+00-1.30339E+02 2.85326E+04 1.70662E-08-8.53333E-10
 -1       614 2.51002E+04-5.66644E+00-3.18053E+01 2.49668E+04 9.56970E-09 3.20279E-09
 -1       615 2.50952E+04-2.60324E+00 5.18204E+01 2.85331E+04 4.30873E-09-1.20413E-08
 -1       616 2.50824E+04-1.22284E+00 1.57942E+02 2.49671E+04 2.19643E-10-5.19140E-09
 -1       617 2.51114E+04 3.27602E+01 3.61461E+02 2.85326E+04-1.22509E-09-4.74051E-09
 -1       618 2.50489E+04 1.04289E+02 7.28924E+02 2.49673E+04-2.41016E-09-1.01149E-08
 -1       619 2.53670E+04 5.97436E+02 1.63713E+03 2.85318E+04-3.23973E-09 9.70090E-09
 -1       620 2.48057E+04 1.83372E+03 3.29063E+03 2.49674E+04 1.95973E-09 1.74732E-08
 -1       621 3.70528E+02 2.64566E+05 3.12427E+03 2.81490E+04 5.15229E-10 1.15779E-09
 -1       622 4.72837E+02 2.65311E+05 2.83989E+03 4.09044E+04 7.65795E-10-1.05538E-08
 -1       623 6.57978E+01 2.64733E+05 3.50353E+03 2.80187E+04 5.43423E-10-3.07000E-09
 -1       624 1.73034E+03 2.66412E+05 6.86417E+03 4.10344E+04 7.15715E-10-2.67187E-09
 -1       625 1.71740E+03 2.63377E+05 1.20304E+04 2.80159E+04 8.28095E-10 2.30284E-09
 -1       626 2.31604E+05 5.73317E+04 4.80126E+03 1.16022E+05-1.10049E-10-9.22773E-09
 -1       627 2.29266E+05 5.88060E+04 2.31367E+03 1.20209E+05-3.38332E-10-4.64183E-09
 -1       628 2.31734E+05 5.51207E+04 9.78111E+02 1.16820E+05-5.78075E-09-2.36469E-11
 -1       629 2.28650E+05 5.81872E+04 4.78782E+02 1.20452E+05-5.31327E-09 1.21939E-08
 -1       630 2.31746E+05 5.50149E+04 2.21719E+02 1.16851E+05-2.93858E-09 4.39854E-09
 -1       631 2.28581E+05 5.81658E+04 1.18862E+02 1.20453E+05 3.49701E-09 8.98848E-09
 -1       632 2.31740E+05 5.50202E+04 7.74262E+01 1.16845E+05-4.42105E-09-2.81481E-08
 -1       633 2.28571E+05 5.81690E+04 8.50257E+01 1.20447E+05-4.52167E-09-1.30776E-08
 -1       634 2.31733E+05 5.50191E+04 1.36311E+02 1.16842E+05-2.29011E-09 1.86635E-08
 -1       635 2.28581E+05 5.81686E+04 2.75193E+02 1.20450E+05-1.50624E-09 1.32004E-08
 -1       636 2.31723E+05 5.50152E+04 5.55410E+02 1.16841E+05 6.45741E-11 2.64754E-09
 -1       637 2.28700E+05 5.82555E+04 1.22081E+03 1.20448E+05 3.08091E-10 8.92669E-09
 -1       638 2.31679E+05 5.52855E+04 2.50839E+03 1.16718E+05 9.33596E-10-1.19421E-08
 -1       639 2.30017E+05 6.00878E+04 5.93462E+03 1.20059E+05 5.21572E-09-3.08864E-09
 -1       640 2.31499E+05 6.07543E+04 1.23154E+04 1.14409E+05 2.24190E-09-4.00541E-09
 -1       656 5.99295E+04-1.52911E+06-1.44669E+05-1.48554E+03-2.91038E-11-1.08677E-08
 -1       657-7.92596E+04-1.59446E+06-1.19799E+05 6.38489E+03-2.91948E-10-1.27627E-08
 -1       658 1.90818E+04-1.54769E+06-7.37197E+04-3.24880E+03 3.29692E-10-2.02265E-09
 -1       659-8.55372E+04-1.59744E+06-1.28047E+05 7.76022E+03-1.05501E-09-8.68074E-09
 -1       660 6.61928E+04-1.52614E+06-1.58850E+05-2.86085E+03-1.44792E-09-5.04230E-10
 -1       661 1.62152E+05 1.72264E+04 1.65446E+04 6.33994E+04 1.58889E-09 1.59407E-08
 -1       662 1.71278E+05 2.97018E+04 1.11493E+04 5.99470E+04 9.02844E-10-5.39637E-09
 -1       663 1.65400E+05 2.25352E+04 3.89962E+03 6.24578E+04 1.07968E-09 3.45040E-09
 -1       664 1.67514E+05 2.34920E+04 2.33233E+03 6.10958E+04 2.84510E-09-5.59305E-09
 -1       665 1.65891E+05 2.32618E+04 9.20092E+02 6.23160E+04-8.63906E-10-9.82197E-09
 -1       666 1.66934E+05 2.26598E+04 5.37919E+02 6.12800E+04 3.89826E-09-4.01197E-09
 -1       667 1.65976E+05 2.33456E+04 2.85183E+02 6.22815E+04 1.43879E-09 1.46053E-09
 -1       668 1.66842E+05 2.25979E+04 2.89321E+02 6.13301E+04-1.05025E-09-1.26695E-08
 -1       669 1.65984E+05 2.33219E+04 3.90677E+02 6.22664E+04-9.26804E-10 1.88760E-09
 -1       670 1.66937E+05 2.28087E+04 8.49743E+02 6.13322E+04-3.16734E-09 4.95548E-09
 -1       671 1.65881E+05 2.31391E+04 1.50846E+03 6.22775E+04-9.14369E-10 4.18919E-09
 -1       672 1.67816E+05 2.42762E+04 3.85910E+03 6.11194E+04 4.12059E-09-1.69575E-09
 -1       673 1.65109E+05 2.18915E+04 6.46714E+03 6.24650E+04 1.58400E-09 1.54353E-08
 -1       674 1.73972E+05 3.46652E+04 1.84946E+04 5.93100E+04-3.51326E-09-8.57654E-10
 -1       675 1.59764E+05 1.30409E+04 2.74523E+04 6.39777E+04-1.02773E-09 3.91083E-10
 -1       676 2.24065E+01-2.73513E+05-1.03949E+03-5.86836E+01 1.39266E-12 1.76510E-08
 -1       677-2.75843E+02-2.73764E+05-1.90242E+03 1.17284E+02 4.12538E-09-1.76548E-08
 -1       678 1.84316E+02-2.73334E+05-3.36300E+03-5.85611E+01 4.92719E-10-1.48148E-08
 -1       679-3.36383E+03-2.75794E+05-7.98901E+03 1.16815E+02 3.51099E-09-1.11135E-08
 -1       680 2.00775E+03-2.71484E+05-1.28756E+04-5.75609E+01 5.19321E-10-8.81050E-09
 -1       771-2.86474E+06-6.43015E+05-1.18265E+05-1.32765E+06-2.27737E-08-1.67347E-08
 -1       772-2.80545E+06-7.15068E+05-6.13770E+04-1.41045E+06-2.00671E-08 8.65111E-09
 -1       773-2.88695E+06-6.25561E+05-3.04219E+04-1.33666E+06-9.60426E-09 1.02809E-08
 -1       774-2.79639E+06-7.02334E+05-1.37566E+04-1.42776E+06 2.41707E-08 3.41970E-09
 -1       775-2.89763E+06-6.18007E+05-9.71420E+03-1.34060E+06-1.37661E-08 4.36557E-09
 -1       776-2.80334E+06-7.00864E+05-3.72754E+03-1.44032E+06-1.83354E-08 1.19690E-08
 -1       777-2.90670E+06-6.11409E+05-4.08790E+03-1.34406E+06-3.97267E-09 5.65706E-09
 -1       778-2.81073E+06-6.99579E+05-1.18881E+03-1.45104E+06 2.09548E-09 1.39407E-08
 -1       779-2.91440E+06-6.05708E+05-1.98026E+03-1.34703E+06-6.75209E-09 1.01863E-10
 -1       780-2.81723E+06-6.98343E+05-3.36321E+02-1.45976E+06-6.65750E-09-1.12595E-09
 -1       781-2.92047E+06-6.01146E+05-7.52934E+02-1.34935E+06-2.37487E-08 3.41970E-10
 -1       782-2.82220E+06-6.97271E+05 2.78321E+02-1.46618E+06-3.07737E-08-4.69799E-09
 -1       783-2.92472E+06-5.98004E+05 4.42177E+02-1.35098E+06-5.52245E-09-1.20606E-08
 -1       784-2.82491E+06-6.96074E+05 1.79695E+03-1.47013E+06-1.66328E-08 8.46285E-10
 -1       785-2.92722E+06-5.96142E+05 3.17446E+03-1.35203E+06-3.03808E-08 2.44654E-09
 -1       786 1.23681E+05-9.33217E+03 2.15900E+04-2.17790E+02 3.79071E-10-1.18716E-08
 -1       787 1.33043E+05 1.08040E+04 1.52742E+04-4.76989E+01 4.08467E-09-9.57698E-09
 -1       788 1.27291E+05-1.46265E+03 5.58614E+03-1.87582E+02 2.69240E-09 4.50200E-11
 -1       789 1.28838E+05 1.69246E+03 3.50729E+03-9.52138E+01 1.29839E-09 1.34037E-08
 -1       790 1.27887E+05-2.28037E+02 1.42117E+03-1.70286E+02-2.78309E-09-1.69973E-09
 -1       791 1.28141E+05 2.63580E+02 8.23036E+02-1.25053E+02-4.85880E-09-1.56467E-08
 -1       792 1.27988E+05-3.48463E+01 3.53163E+02-1.57744E+02-3.65306E-09-2.64893E-09
 -1       793 1.28021E+05 3.84510E+01 1.85711E+02-1.48650E+02 3.37391E-10 3.83688E-09
 -1       794 1.28006E+05-3.05040E+00 6.76489E+01-1.46689E+02 2.50175E-09 1.39085E-08
 -1       795 1.27994E+05-9.92333E+00-3.17900E+00-1.71656E+02-3.28505E-09 6.79173E-09
 -1       796 1.28016E+05 1.35020E+01-6.58712E+01-1.34737E+02 2.65029E-09 1.95904E-08
 -1       797 1.27947E+05-1.03814E+02-2.05850E+02-1.98967E+02 2.77053E-09 8.06312E-09
 -1       798 1.28053E+05 9.07689E+01-3.41219E+02-1.19377E+02 1.78127E-09-4.35762E-10
 -1       799 1.27686E+05-6.69844E+02-9.44775E+02-2.36476E+02 3.35374E-09-1.80886E-09
 -1       800 1.28277E+05 5.79065E+02-1.33874E+03-9.72288E+01 4.20107E-10 2.36026E-08
 -1       801-2.23182E+04-6.99882E+06-8.92887E+05 7.37932E+05 6.74918E-08-4.02470E-08
 -1       802 2.91190E+05 1.28563E+06 1.01131E+06-8.49203E+05 1.90717E-07-1.92867E-08
 -1       803-2.61789E+05-8.94330E+06-9.84653E+05 4.83739E+05 6.08379E-08 2.28829E-08
 -1       804 1.07686E+05-7.29131E+05 7.10763E+05 4.36192E+05-7.71142E-08-6.60232E-08
 -1       805 1.22873E+05-4.99796E+06-1.55426E+05-5.44771E+05-3.21161E-08-3.78977E-08
 -1       806-2.78108E+05-5.30738E+04-2.03663E+04-1.09348E+05-5.09135E-09-7.68068E-09
 -1       807-2.79829E+05-4.96304E+04-1.00058E+04-1.14148E+05 5.98902E-09 1.35099E-08
 -1       808-2.78658E+05-4.57437E+04-4.24483E+03-1.12829E+05-6.58383E-09 5.22743E-09
 -1       809-2.77731E+05-4.68141E+04-2.07564E+03-1.14389E+05-6.62749E-09-7.97377E-09
 -1       810-2.78742E+05-4.54883E+04-9.51331E+02-1.12984E+05 1.90539E-10 1.11984E-08
 -1       811-2.77570E+05-4.67004E+04-4.73074E+02-1.14358E+05 1.03319E-09-3.21006E-09
 -1       812-2.78756E+05-4.55098E+04-2.39143E+02-1.12984E+05-3.12866E-09-1.10322E-08
 -1       813-2.77548E+05-4.67019E+04-1.55315E+02-1.14342E+05 3.09956E-09 1.17348E-08
 -1       814-2.78751E+05-4.55177E+04-1.53628E+02-1.12981E+05-6.23277E-09-1.33082E-08
 -1       815-2.77553E+05-4.67035E+04-2.47500E+02-1.14336E+05-8.52424E-09 1.47838E-09
 -1       816-2.78734E+05-4.55160E+04-4.68839E+02-1.12978E+05-6.76664E-10 2.41675E-08
 -1       817-2.77634E+05-4.67479E+04-1.00651E+03-1.14328E+05-7.78527E-09 1.52002E-08
 -1       818-2.78675E+05-4.56568E+04-2.05270E+03-1.12912E+05 3.27418E-10-2.01858E-08
 -1       819-2.78757E+05-4.79893E+04-4.83044E+03-1.14066E+05-3.42880E-10-1.18619E-08
 -1       820-2.78293E+05-4.93013E+04-9.83140E+03-1.11349E+05-2.47655E-09-1.26925E-08
 -1       821-3.42330E+05 1.88840E+04-4.36937E+04 9.13396E+02 6.89872E-09 2.99042E-09
 -1       822-3.61183E+05-2.18618E+04-3.09056E+04-1.71295E+03 5.84111E-10 1.41335E-08
 -1       823-3.49586E+05 2.96228E+03-1.13130E+04 1.14514E+03-4.28259E-09 5.36147E-10
 -1       824-3.52666E+05-3.42579E+03-7.11259E+03-1.65692E+03-2.73182E-10-5.31145E-09
 -1       825-3.50844E+05 4.61881E+02-2.93487E+03 8.57383E+02 6.78873E-09 1.70558E-08
 -1       826-3.51148E+05-5.41427E+02-1.73919E+03-7.07313E+02 6.27676E-09 2.22716E-08
 -1       827-3.51099E+05 7.75595E+01-9.36784E+02 1.95513E+02 2.88797E-09 1.30950E-08
 -1       828-3.50934E+05-1.62940E+02-7.80527E+02 6.56951E+02-1.54489E-09 6.46250E-09
 -1       829-3.51057E+05 8.32645E+01-9.50112E+02-5.06903E+02 4.61512E-10 8.10616E-10
 -1       830-3.51251E+05-5.68168E+02-1.82100E+03 1.74658E+03 1.74284E-10-4.04134E-09
 -1       831-3.50785E+05 4.84859E+02-3.03759E+03-8.94132E+02-3.29115E-09 1.17677E-09
 -1       832-3.52752E+05-3.56564E+03-7.39918E+03 2.00977E+03-1.28771E-09 1.46110E-09
 -1       833-3.49559E+05 3.07950E+03-1.17695E+04-7.70102E+02-1.83850E-09-4.08727E-09
 -1       834-3.61499E+05-2.27311E+04-3.21204E+04 1.30185E+03-1.55404E-09 8.62565E-09
 -1       835-3.42038E+05 1.96335E+04-4.54483E+04-1.86197E+02 4.64830E-09 5.60794E-09
 -1       836-1.21687E+03 3.26654E+05 2.00505E+04-1.60350E+04-3.84262E-09 1.19567E-08
 -1       837 4.31498E+03 3.32915E+05 1.70557E+04-3.24803E+04-3.71017E-09 2.91629E-09
 -1       838-4.75602E+02 3.28398E+05 1.75030E+04-1.59676E+04-3.17414E-09-1.27375E-09
 -1       839 1.11053E+04 3.37974E+05 3.32337E+04-3.25262E+04-3.03771E-09 3.20807E-09
 -1       840-3.40524E+03 3.21544E+05 5.30492E+04-1.59914E+04-2.96131E-09 1.26515E-08
 -1       856-6.30318E+04 7.78365E+03-2.05119E+04-4.02793E+02-1.55546E-09-9.31959E-09
 -1       857-7.14915E+04-9.13842E+03-1.41208E+04 5.20406E+03 1.45138E-09-1.68595E-08
 -1       858-6.63786E+04 1.09117E+03-5.32268E+03-4.25764E+02-1.17825E-09-1.09633E-08
 -1       859-6.76497E+04-1.27705E+03-3.21286E+03 5.23920E+03-2.60671E-09-8.00935E-09
 -1       860-6.68788E+04 1.52376E+02-1.34790E+03-4.37839E+02 1.51579E-09-1.94143E-09
 -1       861-6.70742E+04-1.75699E+02-7.44447E+02 5.25571E+03-2.63429E-09-1.40798E-08
 -1       862-6.69569E+04 2.03949E+01-3.15350E+02-4.42273E+02 8.99458E-10-8.74599E-09
 -1       863-6.69794E+04-1.63031E+01-1.28253E+02 5.25809E+03 1.97903E-09 2.85998E-09
 -1       864-6.69739E+04-3.44048E+00 1.56691E+01-4.40215E+02 9.31777E-10-5.96543E-09
 -1       865-6.69337E+04 4.92693E+01 1.80545E+02 5.24691E+03-2.35445E-10 2.50883E-09
 -1       866-6.70006E+04-4.53486E+01 3.79307E+02-4.31098E+02 2.07649E-10 9.14440E-10
 -1       867-6.67512E+04 3.76126E+02 9.43585E+02 5.22209E+03 6.97383E-10-1.36718E-08
 -1       868-6.71521E+04-3.24847E+02 1.57032E+03-4.15397E+02-1.42256E-09-9.26093E-10
 -1       869-6.55969E+04 2.70341E+03 4.18495E+03 5.18081E+03 2.77046E-09-7.82597E-09
 -1       870-6.81482E+04-2.31007E+03 6.07275E+03-3.89778E+02-2.16016E-09 7.09861E-10
 -1       871-5.05791E+03-1.61842E+04-1.72583E+04 1.15162E+05-1.91540E-09-5.74801E-10
 -1       872-1.97596E+03-2.01405E+04-7.16722E+03 1.49317E+05-5.22687E-09-2.00525E-08
 -1       873 1.93784E+02-1.82539E+04 6.71464E+02 1.14910E+05-2.78942E-09-7.68921E-09
 -1       874 2.79340E+03-1.59930E+04 9.00866E+03 1.49352E+05-5.37057E-09-3.86444E-09
 -1       875 6.09329E+03-2.03984E+04 2.02069E+04 1.15122E+05-2.18461E-09 4.37285E-09
 -1       876 2.66540E+05 4.52230E+04 1.38299E+04 1.07319E+05 1.66062E-09-5.63887E-09
 -1       877 2.67423E+05 4.81666E+04 7.38564E+03 1.11314E+05 6.92671E-09-2.63287E-09
 -1       878 2.67833E+05 4.36919E+04 3.09423E+03 1.08453E+05 3.87172E-09-7.24413E-10
 -1       879 2.65543E+05 4.62911E+04 1.54165E+03 1.11409E+05 2.00762E-08-1.59446E-09
 -1       880 2.67926E+05 4.36758E+04 7.18016E+02 1.08500E+05 4.65866E-09 8.85223E-09
 -1       881 2.65418E+05 4.62110E+04 3.83219E+02 1.11388E+05-5.17787E-09 9.28486E-09
 -1       882 2.67934E+05 4.36876E+04 2.44813E+02 1.08501E+05 2.52362E-09 2.54114E-09
 -1       883 2.65409E+05 4.62070E+04 2.62609E+02 1.11381E+05 2.71484E-10-8.57733E-09
 -1       884 2.67928E+05 4.36849E+04 4.17233E+02 1.08501E+05 3.58227E-10-6.27426E-09
 -1       885 2.65442E+05 4.62128E+04 8.38549E+02 1.11392E+05-1.83562E-09-6.22185E-09
 -1       886 2.67896E+05 4.36605E+04 1.68991E+03 1.08498E+05-3.32196E-09-1.09389E-08
 -1       887 2.65739E+05 4.64075E+04 3.69134E+03 1.11434E+05 2.85888E-09-2.31889E-08
 -1       888 2.67663E+05 4.37015E+04 7.43816E+03 1.08380E+05-2.07649E-09-1.83036E-09
 -1       889 2.70169E+05 5.10117E+04 1.77686E+04 1.11297E+05 2.55744E-09 8.24912E-09
 -1       890 2.64630E+05 4.73047E+04 3.32799E+04 1.05546E+05-1.55319E-09-1.20071E-08
 -1       891-1.13114E+02-1.48740E+05-1.80745E+03 2.58246E+04-4.08590E-10 1.30710E-08
 -1       892-2.08031E+02-1.49201E+05-1.94680E+03 3.91581E+04 1.73623E-09 2.99851E-08
 -1       893 7.22269E+00-1.48798E+05-2.76220E+03 2.58308E+04-5.66843E-10 1.76137E-08
 -1       894-1.42439E+03-1.50248E+05-5.72092E+03 3.90152E+04 7.58519E-10-4.76939E-09
 -1       895-1.12448E+03-1.47606E+05-1.00761E+04 2.59675E+04-2.66027E-10-7.17955E-09
 -1       956-3.40336E+05-4.84540E+03-1.20673E+04 2.57983E+04 3.54976E-09-6.91170E-09
 -1       957-3.42711E+05-1.67544E+03-6.19434E+03 3.10334E+04 5.96629E-10-8.60382E-10
 -1       958-3.41415E+05-1.76066E+02-2.79109E+03 2.56514E+04-1.95996E-09-1.61890E-08
 -1       959-3.41598E+05-7.60834E+01-1.42541E+03 3.11998E+04-2.98860E-09 9.40099E-09
 -1       960-3.41517E+05-2.94623E+00-6.95050E+02 2.56367E+04-1.80898E-09 6.20867E-09
 -1       961-3.41522E+05-1.28221E+01-3.68739E+02 3.12169E+04-4.57248E-10 1.16265E-08
 -1       962-3.41539E+05-5.63400E+00-2.11301E+02 2.56344E+04 7.81256E-10 1.35421E-08
 -1       963-3.41520E+05-1.00549E+01-1.70012E+02 3.12200E+04-1.78409E-09 2.03572E-08
 -1       964-3.41544E+05-2.94273E+00-2.07076E+02 2.56337E+04 7.80381E-09-3.38105E-09
 -1       965-3.41532E+05-7.08965E+00-3.58426E+02 3.12195E+04 1.41458E-08-6.11908E-09
 -1       966-3.41530E+05 5.05674E+00-6.73441E+02 2.56348E+04 1.06845E-08 1.20710E-08
 -1       967-3.41615E+05-6.28581E+01-1.38135E+03 3.12079E+04 1.67347E-09 8.13634E-09
 -1       968-3.41440E+05-1.57484E+02-2.70388E+03 2.56453E+04-1.00044E-09-3.07807E-10
 -1       969-3.42704E+05-1.60814E+03-6.00292E+03 3.10860E+04-3.27418E-11 1.58401E-08
 -1       970-3.40401E+05-4.67924E+03-1.16934E+04 2.57534E+04-3.17868E-10 3.76622E-09
 -1       971-3.14735E+05-1.59817E+03-8.71960E+03 1.43654E+04 1.80080E-10-1.08796E-08
 -1       972-3.16842E+05-1.16423E+03-4.74861E+03 1.99511E+04-1.41563E-09 1.54273E-08
 -1       973-3.15706E+05-3.88138E+01-2.12675E+03 1.42493E+04 1.80898E-09 1.42245E-09
 -1       974-3.15841E+05-4.92629E+01-1.10220E+03 2.00801E+04 1.81717E-09 1.31959E-08
 -1       975-3.15782E+05 2.83716E+00-5.50808E+02 1.42379E+04-2.39879E-09 4.81339E-09
 -1       976-3.15782E+05-2.88904E+00-3.17524E+02 2.00943E+04 8.67658E-10-1.23405E-08
 -1       977-3.15797E+05 3.24307E+00-2.30002E+02 1.42349E+04-4.91809E-10-1.35482E-08
 -1       978-3.15787E+05 2.70978E+00-2.68536E+02 2.00985E+04 3.41402E-10-2.84979E-09
 -1       979-3.15797E+05 1.08555E+01-4.30923E+02 1.42337E+04 7.05427E-11 1.57356E-08
 -1       980-3.15819E+05 5.46800E+00-8.31725E+02 2.00993E+04-1.53921E-09 1.41913E-08
 -1       981-3.15770E+05 3.16234E+01-1.61068E+03 1.42342E+04-9.12223E-10 2.00419E-09
 -1       982-3.16040E+05-1.13503E+02-3.32915E+03 2.00932E+04-2.50293E-09 9.66198E-09
 -1       983-3.15568E+05-7.14546E+01-6.46849E+03 1.42399E+04 4.87717E-10-8.79481E-10
 -1       984-3.19151E+05-3.49170E+03-1.44857E+04 2.00126E+04-9.82936E-10 8.40600E-10
 -1       985-3.12639E+05-4.80468E+03-2.66003E+04 1.43128E+04 8.27640E-11-1.50303E-08
 -3
    1PSTEP                        25          13           1          
  100CL  113 6.27563E-01         409                     0   13           1
 -4  DISP        4    1
 -5  D1          1    2    1    0
 -5  D2          1    2    2    0
 -5  D3          1    2    3    0
 -5  ALL         1    2    0    0    1ALL
 -1         1 1.72142E-03 0.00000E+00 0.00000E+00
 -1         2 1.61132E-03 2.64999E-28-2.64698E-23
 -1         3 2.93746E-04 2.07913E-27 1.32349E-23
 -1         5 1.58787E-04 3.20772E-26-3.30872E-24
 -1         8 1.70264E-03-5.72750E-07 0.00000E+00
 -1         9 1.66567E-03-4.98431E-06 0.00000E+00
 -1        10 2.66859E-04-3.39669E-06 6.61744E-24
 -1        12 1.59971E-04 7.41362E-07-8.27181E-25
 -1        15 1.67996E-03-6.30612E-07 2.06795E-25
 -1        16 1.68808E-03-5.97570E-06 0.00000E+00
 -1        17 1.83375E-04-7.54550E-06 0.00000E+00
 -1        18 1.62048E-04 2.51579E-05 0.00000E+00
 -1        19 1.63523E-04 1.47800E-06 0.00000E+00
 -1        20 1.63668E-04-2.63792E-06 0.00000E+00
 -1        21 1.62870E-04-9.98792E-06-3.30872E-24
 -1        24 2.83971E-05-1.10850E-05 0.00000E+00
 -1        25 1.69507E-04 2.53569E-05 0.00000E+00
 -1        26 1.70203E-04 2.04787E-06 0.00000E+00
 -1        27 1.68185E-04-5.93447E-06 0.00000E+00
 -1        28 1.67829E-04-1.05738E-05 0.00000E+00
 -1        32 0.00000E+00 0.00000E+00 0.00000E+00
 -1        33 1.75845E-04 2.74181E-06 0.00000E+00
 -1        34 1.73879E-04-5.97903E-06 0.00000E+00
 -1        35 1.72072E-04-1.08928E-05 0.00000E+00
 -1        51 1.72022E-03-1.05845E-07 0.00000E+00
 -1        52 1.71797E-03-1.97900E-07 0.00000E+00
 -1        53 1.71488E-03-2.88456E-07 0.00000E+00
 -1        54 1.71115E-03-3.79584E-07 0.00000E+00
 -1        55 1.70700E-03-4.72731E-07-3.72231E-24
 -1        56 1.71797E-03-1.78234E-08-5.29396E-23
 -1        57 1.71358E-03 2.09552E-06-5.29396E-23
 -1        58 1.70851E-03 6.01713E-06-1.05879E-22
 -1        59 1.70292E-03 1.12351E-05 0.00000E+00
 -1        60 1.69710E-03 1.70649E-05 1.05879E-22
 -1        61 1.69133E-03 2.27694E-05-5.29396E-23
 -1        62 1.68587E-03 2.76310E-05 0.00000E+00
 -1        63 1.68099E-03 3.09925E-05 0.00000E+00
 -1        64 1.67684E-03 3.24169E-05 1.05879E-22
 -1        65 1.67353E-03 3.16086E-05 5.29396E-23
 -1        66 1.67104E-03 2.86005E-05 0.00000E+00
 -1        67 1.66931E-03 2.35878E-05-5.29396E-23
 -1        68 1.66813E-03 1.70602E-05 1.05879E-22
 -1        69 1.66731E-03 9.62623E-06 0.00000E+00
 -1        70 1.66655E-03 2.01497E-06-5.29396E-23
 -1        86 1.61409E-03-7.90500E-07-2.64698E-23
 -1        87 1.62231E-03-1.60978E-06 0.00000E+00
 -1        88 1.63392E-03-2.45995E-06 0.00000E+00
 -1        89 1.64676E-03-3.32421E-06 0.00000E+00
 -1        90 1.65820E-03-4.17295E-06 0.00000E+00
 -1       121 2.92991E-04-5.53493E-07 0.00000E+00
 -1       122 2.90729E-04-1.10918E-06 0.00000E+00
 -1       123 2.86967E-04-1.66920E-06 1.32349E-23
 -1       124 2.81722E-04-2.23576E-06-6.61744E-24
 -1       125 2.75010E-04-2.81067E-06 0.00000E+00
 -1       191 1.58820E-04 1.23589E-07 8.27181E-25
 -1       192 1.58918E-04 2.47172E-07-4.13590E-25
 -1       193 1.59083E-04 3.70748E-07-1.65436E-24
 -1       194 1.59313E-04 4.94309E-07 4.13590E-25
 -1       195 1.59609E-04 6.17850E-07-8.27181E-25
 -1       251 1.70193E-03-1.31952E-05 0.00000E+00
 -1       252 1.70031E-03-5.82464E-05 6.61744E-24
 -1       253 1.69744E-03-1.26904E-04-1.32349E-23
 -1       254 1.69353E-03-2.09757E-04 0.00000E+00
 -1       255 1.68958E-03-2.93244E-04 0.00000E+00
 -1       256 1.68658E-03-3.63794E-04 0.00000E+00
 -1       257 1.68483E-03-4.11624E-04 0.00000E+00
 -1       258 1.68407E-03-4.27510E-04 0.00000E+00
 -1       259 1.68329E-03-4.11110E-04 0.00000E+00
 -1       260 1.68153E-03-3.62933E-04-6.61744E-24
 -1       261 1.67853E-03-2.92330E-04 0.00000E+00
 -1       262 1.67460E-03-2.09202E-04-6.61744E-24
 -1       263 1.67075E-03-1.27123E-04 0.00000E+00
 -1       264 1.66795E-03-5.96415E-05 1.32349E-23
 -1       265 1.66639E-03-1.60327E-05 0.00000E+00
 -1       266 1.69886E-03-5.90742E-07-3.30872E-24
 -1       267 1.69508E-03-5.99368E-07 8.27181E-25
 -1       268 1.69130E-03-6.08587E-07 0.00000E+00
 -1       269 1.68752E-03-6.16049E-07 2.06795E-25
 -1       270 1.68374E-03-6.23470E-07 0.00000E+00
 -1       271 1.70033E-03 2.91328E-06-1.32349E-23
 -1       272 1.69800E-03 6.36709E-06-1.32349E-23
 -1       273 1.69572E-03 9.68044E-06-2.64698E-23
 -1       274 1.69353E-03 1.27334E-05 0.00000E+00
 -1       275 1.69149E-03 1.54125E-05 0.00000E+00
 -1       276 1.68963E-03 1.76071E-05 1.32349E-23
 -1       277 1.68799E-03 1.92125E-05 2.64698E-23
 -1       278 1.68661E-03 2.01304E-05 0.00000E+00
 -1       279 1.68552E-03 2.02710E-05 0.00000E+00
 -1       280 1.68475E-03 1.95528E-05-1.32349E-23
 -1       281 1.68433E-03 1.79048E-05-2.64698E-23
 -1       282 1.68428E-03 1.52665E-05-1.32349E-23
 -1       283 1.68462E-03 1.15891E-05-2.64698E-23
 -1       284 1.68536E-03 6.83649E-06-1.32349E-23
 -1       285 1.68651E-03 9.83249E-07 2.64698E-23
 -1       301 1.66970E-03-5.17109E-06-6.61744E-24
 -1       302 1.67279E-03-5.32762E-06-6.61744E-24
 -1       303 1.67555E-03-5.48093E-06 0.00000E+00
 -1       304 1.67861E-03-5.63430E-06-1.32349E-23
 -1       305 1.68258E-03-5.79247E-06 0.00000E+00
 -1       306 1.69609E-03-1.20348E-04 0.00000E+00
 -1       307 1.75958E-03-4.43223E-04 0.00000E+00
 -1       308 1.82382E-03-9.22167E-04 0.00000E+00
 -1       309 1.87831E-03-1.48517E-03 0.00000E+00
 -1       310 1.93449E-03-2.03496E-03 1.05879E-22
 -1       311 2.00079E-03-2.47551E-03 5.29396E-23
 -1       312 2.05900E-03-2.74192E-03 0.00000E+00
 -1       313 2.07116E-03-2.79454E-03-5.29396E-23
 -1       314 1.99120E-03-2.63713E-03 0.00000E+00
 -1       315 1.78924E-03-2.30629E-03 5.29396E-23
 -1       316 1.47624E-03-1.86040E-03-1.05879E-22
 -1       317 1.09373E-03-1.35846E-03 5.29396E-23
 -1       318 7.17941E-04-8.61757E-04 0.00000E+00
 -1       319 4.23195E-04-4.32412E-04 0.00000E+00
 -1       320 2.43969E-04-1.29014E-04-1.05879E-22
 -1       336 2.57110E-04-4.04021E-06 0.00000E+00
 -1       337 2.45617E-04-4.70212E-06 6.61744E-24
 -1       338 2.32431E-04-5.38370E-06-1.32349E-23
 -1       339 2.17614E-04-6.08521E-06 0.00000E+00
 -1       340 2.01236E-04-6.81022E-06 1.32349E-23
 -1       406 1.60398E-04 8.64836E-07-8.27181E-25
 -1       407 1.60892E-04 9.88240E-07-1.24077E-24
 -1       408 1.61451E-04 1.11154E-06 0.00000E+00
 -1       409 1.62077E-04 1.23457E-06 1.24077E-24
 -1       410 1.62767E-04 1.35710E-06-1.65436E-24
 -1       521 1.71952E-03-1.29949E-04-2.11758E-22
 -1       522 1.78301E-03-4.71868E-04 0.00000E+00
 -1       523 1.84416E-03-9.77612E-04 0.00000E+00
 -1       524 1.89317E-03-1.56954E-03 0.00000E+00
 -1       525 1.94442E-03-2.14680E-03-1.05879E-22
 -1       526 2.00876E-03-2.60998E-03 0.00000E+00
 -1       527 2.06719E-03-2.88896E-03-2.11758E-22
 -1       528 2.07850E-03-2.94285E-03 0.00000E+00
 -1       529 1.99104E-03-2.77481E-03 0.00000E+00
 -1       530 1.77243E-03-2.42661E-03 5.29396E-23
 -1       531 1.43357E-03-1.95972E-03 1.05879E-22
 -1       532 1.02023E-03-1.43649E-03 0.00000E+00
 -1       533 6.13544E-04-9.18108E-04 1.05879E-22
 -1       534 2.92741E-04-4.66654E-04-5.29396E-23
 -1       535 9.66732E-05-1.44494E-04 0.00000E+00
 -1       536 1.82794E-04 2.19930E-05 0.00000E+00
 -1       537 1.81372E-04 7.33416E-05 0.00000E+00
 -1       538 1.79192E-04 1.38555E-04 0.00000E+00
 -1       539 1.76630E-04 2.09614E-04 0.00000E+00
 -1       540 1.74322E-04 2.76743E-04 0.00000E+00
 -1       541 1.72809E-04 3.30186E-04 1.65436E-24
 -1       542 1.72095E-04 3.64112E-04-3.30872E-24
 -1       543 1.71898E-04 3.72811E-04 0.00000E+00
 -1       544 1.71621E-04 3.56993E-04 3.30872E-24
 -1       545 1.70715E-04 3.17543E-04 0.00000E+00
 -1       546 1.69069E-04 2.61490E-04 3.30872E-24
 -1       547 1.66868E-04 1.95963E-04-1.65436E-24
 -1       548 1.64694E-04 1.30876E-04-3.30872E-24
 -1       549 1.63119E-04 7.61415E-05 1.65436E-24
 -1       550 1.62287E-04 3.86434E-05 0.00000E+00
 -1       551 1.61927E-04-8.03345E-06 0.00000E+00
 -1       552 1.37532E-04-8.58181E-06 3.30872E-24
 -1       553 1.11079E-04-9.17773E-06 4.13590E-24
 -1       554 8.34705E-05-9.80461E-06-3.30872E-24
 -1       555 5.56104E-05-1.04404E-05 0.00000E+00
 -1       556 1.76987E-04 8.84478E-06 0.00000E+00
 -1       557 1.71858E-04 2.20536E-05 2.64698E-23
 -1       558 1.67867E-04 3.23347E-05 0.00000E+00
 -1       559 1.64900E-04 3.99619E-05 0.00000E+00
 -1       560 1.62845E-04 4.52096E-05 0.00000E+00
 -1       561 1.61590E-04 4.83538E-05 0.00000E+00
 -1       562 1.61026E-04 4.96719E-05 0.00000E+00
 -1       563 1.61044E-04 4.94416E-05 0.00000E+00
 -1       564 1.61538E-04 4.79416E-05 0.00000E+00
 -1       565 1.62402E-04 4.54509E-05 6.61744E-24
 -1       566 1.63532E-04 4.22489E-05 0.00000E+00
 -1       567 1.64821E-04 3.86154E-05 0.00000E+00
 -1       568 1.66168E-04 3.48301E-05-1.44757E-24
 -1       569 1.67466E-04 3.11728E-05 0.00000E+00
 -1       570 1.68614E-04 2.79233E-05 0.00000E+00
 -1       571 1.62137E-04 2.36244E-05 0.00000E+00
 -1       572 1.62229E-04 2.20326E-05 8.27181E-25
 -1       573 1.62320E-04 2.03957E-05 0.00000E+00
 -1       574 1.62413E-04 1.87281E-05-1.65436E-24
 -1       575 1.62505E-04 1.70438E-05-3.30872E-24
 -1       576 1.62597E-04 1.53570E-05 0.00000E+00
 -1       577 1.62689E-04 1.36819E-05 3.30872E-24
 -1       578 1.62782E-04 1.20328E-05-1.65436E-24
 -1       579 1.62874E-04 1.04239E-05 0.00000E+00
 -1       580 1.62967E-04 8.86943E-06 0.00000E+00
 -1       581 1.63059E-04 7.38360E-06 0.00000E+00
 -1       582 1.63152E-04 5.98060E-06 3.30872E-24
 -1       583 1.63245E-04 4.67466E-06-6.61744E-24
 -1       584 1.63338E-04 3.47983E-06-3.30872E-24
 -1       585 1.63431E-04 2.41003E-06 0.00000E+00
 -1       586 1.63244E-04 2.51931E-05-1.65436E-24
 -1       587 1.64406E-04 2.52276E-05 0.00000E+00
 -1       588 1.65573E-04 2.52618E-05-8.27181E-25
 -1       589 1.66785E-04 2.52954E-05 0.00000E+00
 -1       590 1.68084E-04 2.53279E-05 0.00000E+00
 -1       591 1.62565E-04 2.37026E-05 1.03398E-25
 -1       592 1.63087E-04 2.22252E-05 2.06795E-25
 -1       593 1.63615E-04 2.07314E-05 0.00000E+00
 -1       594 1.64147E-04 1.92263E-05 4.13590E-25
 -1       595 1.64681E-04 1.77146E-05 0.00000E+00
 -1       596 1.65216E-04 1.62012E-05-4.13590E-25
 -1       597 1.65749E-04 1.46911E-05 0.00000E+00
 -1       598 1.66280E-04 1.31891E-05 0.00000E+00
 -1       599 1.66805E-04 1.17000E-05 0.00000E+00
 -1       600 1.67324E-04 1.02287E-05-4.13590E-25
 -1       601 1.67835E-04 8.78005E-06-8.27181E-25
 -1       602 1.68335E-04 7.35890E-06-2.06795E-25
 -1       603 1.68823E-04 5.97011E-06-8.27181E-25
 -1       604 1.69298E-04 4.61864E-06-1.00166E-25
 -1       605 1.69758E-04 3.30926E-06 0.00000E+00
 -1       606 1.63537E-04 7.57456E-07 0.00000E+00
 -1       607 1.63547E-04 1.25933E-07 0.00000E+00
 -1       608 1.63556E-04-4.21798E-07 0.00000E+00
 -1       609 1.63565E-04-8.91629E-07 0.00000E+00
 -1       610 1.63574E-04-1.28950E-06-3.30872E-24
 -1       611 1.63582E-04-1.62143E-06 0.00000E+00
 -1       612 1.63591E-04-1.89341E-06 0.00000E+00
 -1       613 1.63600E-04-2.11148E-06 0.00000E+00
 -1       614 1.63608E-04-2.28166E-06-1.65436E-24
 -1       615 1.63617E-04-2.40997E-06 0.00000E+00
 -1       616 1.63626E-04-2.50244E-06 0.00000E+00
 -1       617 1.63635E-04-2.56509E-06 4.13590E-25
 -1       618 1.63643E-04-2.60394E-06 0.00000E+00
 -1       619 1.63652E-04-2.62501E-06 0.00000E+00
 -1       620 1.63660E-04-2.63433E-06 0.00000E+00
 -1       621 1.64412E-04 1.57336E-06-1.65436E-24
 -1       622 1.65425E-04 1.66899E-06-1.65436E-24
 -1       623 1.66537E-04 1.76450E-06 1.65436E-24
 -1       624 1.67721E-04 1.85977E-06 1.65436E-24
 -1       625 1.68952E-04 1.95480E-06 0.00000E+00
 -1       626 1.63898E-04 7.90688E-07 3.30872E-24
 -1       627 1.64248E-04 1.71195E-07-1.65436E-24
 -1       628 1.64575E-04-3.88297E-07 0.00000E+00
 -1       629 1.64884E-04-8.95958E-07 1.65436E-24
 -1       630 1.65176E-04-1.35998E-06-3.30872E-24
 -1       631 1.65454E-04-1.78858E-06 0.00000E+00
 -1       632 1.65723E-04-2.18997E-06-3.30872E-24
 -1       633 1.65984E-04-2.57238E-06 0.00000E+00
 -1       634 1.66242E-04-2.94401E-06 3.30872E-24
 -1       635 1.66498E-04-3.31309E-06 1.65436E-24
 -1       636 1.66757E-04-3.68784E-06 0.00000E+00
 -1       637 1.67020E-04-4.07646E-06 1.65436E-24
 -1       638 1.67292E-04-4.48719E-06 3.30872E-24
 -1       639 1.67575E-04-4.92827E-06 1.65436E-24
 -1       640 1.67872E-04-5.40791E-06 0.00000E+00
 -1       656 1.63900E-04-3.17389E-06 6.61744E-24
 -1       657 1.64538E-04-3.73154E-06 0.00000E+00
 -1       658 1.65445E-04-4.28777E-06 1.32349E-23
 -1       659 1.66473E-04-4.84365E-06 6.61744E-24
 -1       660 1.67445E-04-5.40121E-06 0.00000E+00
 -1       661 1.63756E-04-2.68200E-06 8.27181E-25
 -1       662 1.63878E-04-2.80877E-06 8.27181E-25
 -1       663 1.64030E-04-3.01388E-06 0.00000E+00
 -1       664 1.64209E-04-3.29172E-06 0.00000E+00
 -1       665 1.64413E-04-3.63733E-06 0.00000E+00
 -1       666 1.64641E-04-4.04566E-06 8.27181E-25
 -1       667 1.64891E-04-4.51190E-06 0.00000E+00
 -1       668 1.65161E-04-5.03131E-06 8.27181E-25
 -1       669 1.65449E-04-5.59931E-06 0.00000E+00
 -1       670 1.65753E-04-6.21142E-06 0.00000E+00
 -1       671 1.66073E-04-6.86326E-06-1.65436E-24
 -1       672 1.66405E-04-7.55059E-06 0.00000E+00
 -1       673 1.66749E-04-8.26916E-06-1.65436E-24
 -1       674 1.67102E-04-9.01514E-06 0.00000E+00
 -1       675 1.67465E-04-9.78406E-06-4.13590E-25
 -1       676 1.63700E-04-1.00861E-05 0.00000E+00
 -1       677 1.64528E-04-1.01843E-05 1.65436E-24
 -1       678 1.65356E-04-1.02824E-05 0.00000E+00
 -1       679 1.66183E-04-1.03802E-05 0.00000E+00
 -1       680 1.67007E-04-1.04781E-05 0.00000E+00
 -1       771 1.82026E-05 1.14991E-05 0.00000E+00
 -1       772 9.59608E-06 3.00438E-05 0.00000E+00
 -1       773 2.50183E-06 4.47485E-05 0.00000E+00
 -1       774-3.18322E-06 5.58353E-05 0.00000E+00
 -1       775-7.56021E-06 6.35343E-05 5.29396E-23
 -1       776-1.07344E-05 6.80890E-05 0.00000E+00
 -1       777-1.28110E-05 6.97506E-05 0.00000E+00
 -1       778-1.38976E-05 6.87813E-05-2.64698E-23
 -1       779-1.41016E-05 6.54500E-05-5.29396E-23
 -1       780-1.35321E-05 6.00345E-05 0.00000E+00
 -1       781-1.22976E-05 5.28178E-05 0.00000E+00
 -1       782-1.05082E-05 4.40900E-05 0.00000E+00
 -1       783-8.27333E-06 3.41447E-05-5.29396E-23
 -1       784-5.70350E-06 2.32804E-05 0.00000E+00
 -1       785-2.90862E-06 1.17979E-05 5.29396E-23
 -1       786 1.69546E-04 2.36804E-05 0.00000E+00
 -1       787 1.69589E-04 2.20524E-05 0.00000E+00
 -1       788 1.69632E-04 2.04648E-05-8.27181E-25
 -1       789 1.69676E-04 1.89096E-05 0.00000E+00
 -1       790 1.69719E-04 1.73822E-05 0.00000E+00
 -1       791 1.69763E-04 1.58781E-05 0.00000E+00
 -1       792 1.69807E-04 1.43951E-05 0.00000E+00
 -1       793 1.69851E-04 1.29311E-05 8.27181E-25
 -1       794 1.69895E-04 1.14858E-05 0.00000E+00
 -1       795 1.69938E-04 1.00592E-05 8.27181E-25
 -1       796 1.69982E-04 8.65288E-06 0.00000E+00
 -1       797 1.70026E-04 7.26874E-06 0.00000E+00
 -1       798 1.70070E-04 5.91081E-06-1.65436E-24
 -1       799 1.70114E-04 4.58321E-06 8.27181E-25
 -1       800 1.70159E-04 3.29313E-06 1.65436E-24
 -1       801 1.32153E-04 2.26376E-05-2.64698E-23
 -1       802 1.88801E-05 1.44064E-05-2.64698E-23
 -1       803-7.93908E-05 7.46091E-06 0.00000E+00
 -1       804-7.31800E-05 5.11903E-06 0.00000E+00
 -1       805-2.45840E-05 2.15366E-06 5.29396E-23
 -1       806 1.70029E-04 2.36178E-05-3.30872E-24
 -1       807 1.70538E-04 2.19052E-05 0.00000E+00
 -1       808 1.71034E-04 2.02236E-05 0.00000E+00
 -1       809 1.71517E-04 1.85766E-05-1.65436E-24
 -1       810 1.71985E-04 1.69676E-05 0.00000E+00
 -1       811 1.72438E-04 1.54000E-05 0.00000E+00
 -1       812 1.72875E-04 1.38773E-05 0.00000E+00
 -1       813 1.73293E-04 1.24027E-05 8.27181E-25
 -1       814 1.73692E-04 1.09797E-05 0.00000E+00
 -1       815 1.74071E-04 9.61151E-06-8.27181E-25
 -1       816 1.74428E-04 8.30158E-06 3.30872E-24
 -1       817 1.74761E-04 7.05320E-06 0.00000E+00
 -1       818 1.75071E-04 5.86973E-06-3.30872E-24
 -1       819 1.75355E-04 4.75449E-06 8.27181E-25
 -1       820 1.75613E-04 3.71076E-06 1.65436E-24
 -1       821 1.70084E-04 6.04798E-07 0.00000E+00
 -1       822 1.69956E-04-1.27575E-06 0.00000E+00
 -1       823 1.69829E-04-3.38850E-06 0.00000E+00
 -1       824 1.69700E-04-5.52680E-06 0.00000E+00
 -1       825 1.69572E-04-7.47771E-06 0.00000E+00
 -1       826 1.69444E-04-9.02928E-06 0.00000E+00
 -1       827 1.69316E-04-1.00719E-05-3.30872E-24
 -1       828 1.69189E-04-1.04991E-05 0.00000E+00
 -1       829 1.69062E-04-1.03618E-05 3.30872E-24
 -1       830 1.68935E-04-9.71439E-06 0.00000E+00
 -1       831 1.68808E-04-8.74193E-06 0.00000E+00
 -1       832 1.68681E-04-7.63135E-06 1.65436E-24
 -1       833 1.68554E-04-6.60500E-06 3.30872E-24
 -1       834 1.68428E-04-5.88474E-06 0.00000E+00
 -1       835 1.68303E-04-5.61421E-06-8.27181E-25
 -1       836 1.71338E-04 2.16309E-06 3.30872E-24
 -1       837 1.72354E-04 2.28110E-06 0.00000E+00
 -1       838 1.73281E-04 2.39902E-06 0.00000E+00
 -1       839 1.74152E-04 2.51625E-06 0.00000E+00
 -1       840 1.74996E-04 2.63331E-06 0.00000E+00
 -1       856 1.68166E-04-6.48216E-06-4.13590E-25
 -1       857 1.68144E-04-6.90132E-06 2.58494E-26
 -1       858 1.68123E-04-7.21199E-06-4.13590E-25
 -1       859 1.68100E-04-7.43424E-06 0.00000E+00
 -1       860 1.68078E-04-7.58827E-06 8.27181E-25
 -1       861 1.68056E-04-7.69431E-06 0.00000E+00
 -1       862 1.68033E-04-7.77264E-06 0.00000E+00
 -1       863 1.68011E-04-7.84354E-06 4.13590E-25
 -1       864 1.67989E-04-7.92734E-06-8.27181E-25
 -1       865 1.67966E-04-8.04431E-06 0.00000E+00
 -1       866 1.67944E-04-8.21473E-06 8.27181E-25
 -1       867 1.67921E-04-8.45882E-06 0.00000E+00
 -1       868 1.67899E-04-8.79674E-06 0.00000E+00
 -1       869 1.67876E-04-9.24857E-06 0.00000E+00
 -1       870 1.67853E-04-9.83428E-06 8.27181E-25
 -1       871 1.68999E-04-5.93785E-06 4.13590E-25
 -1       872 1.69951E-04-5.94430E-06 0.00000E+00
 -1       873 1.70977E-04-5.95136E-06 0.00000E+00
 -1       874 1.72016E-04-5.95911E-06-4.13590E-25
 -1       875 1.73004E-04-5.96742E-06-4.13590E-25
 -1       876 1.68509E-04-6.46882E-06-3.30872E-24
 -1       877 1.68813E-04-6.94014E-06 0.00000E+00
 -1       878 1.69096E-04-7.35599E-06 0.00000E+00
 -1       879 1.69362E-04-7.72334E-06-1.65436E-24
 -1       880 1.69612E-04-8.04923E-06 0.00000E+00
 -1       881 1.69849E-04-8.34064E-06 0.00000E+00
 -1       882 1.70076E-04-8.60455E-06 0.00000E+00
 -1       883 1.70295E-04-8.84791E-06-1.65436E-24
 -1       884 1.70509E-04-9.07768E-06-3.30872E-24
 -1       885 1.70720E-04-9.30081E-06 0.00000E+00
 -1       886 1.70932E-04-9.52427E-06-3.30872E-24
 -1       887 1.71146E-04-9.75501E-06-1.65436E-24
 -1       888 1.71365E-04-1.00000E-05-3.30872E-24
 -1       889 1.71592E-04-1.02664E-05-8.27181E-25
 -1       890 1.71828E-04-1.05611E-05 0.00000E+00
 -1       891 1.68672E-04-1.06273E-05 0.00000E+00
 -1       892 1.69493E-04-1.06810E-05 4.13590E-25
 -1       893 1.70268E-04-1.07346E-05 8.27181E-25
 -1       894 1.70972E-04-1.07880E-05 0.00000E+00
 -1       895 1.71581E-04-1.08412E-05-4.13590E-25
 -1       956 1.75724E-04 1.93055E-06-3.30872E-24
 -1       957 1.75601E-04 1.20149E-06 8.27181E-25
 -1       958 1.75478E-04 5.45109E-07 1.65436E-24
 -1       959 1.75355E-04-4.86635E-08 1.65436E-24
 -1       960 1.75232E-04-5.89923E-07 3.30872E-24
 -1       961 1.75109E-04-1.08880E-06 0.00000E+00
 -1       962 1.74985E-04-1.55544E-06-3.30872E-24
 -1       963 1.74862E-04-2.00000E-06 1.65436E-24
 -1       964 1.74739E-04-2.43262E-06 0.00000E+00
 -1       965 1.74616E-04-2.86347E-06-1.65436E-24
 -1       966 1.74492E-04-3.30271E-06 3.30872E-24
 -1       967 1.74369E-04-3.76047E-06 0.00000E+00
 -1       968 1.74246E-04-4.24692E-06 0.00000E+00
 -1       969 1.74123E-04-4.77216E-06 0.00000E+00
 -1       970 1.74000E-04-5.34630E-06 3.30872E-24
 -1       971 1.73767E-04-6.60594E-06 3.30872E-24
 -1       972 1.73654E-04-7.14167E-06 1.65436E-24
 -1       973 1.73541E-04-7.59628E-06-3.30872E-24
 -1       974 1.73427E-04-7.98021E-06 0.00000E+00
 -1       975 1.73314E-04-8.30393E-06 0.00000E+00
 -1       976 1.73200E-04-8.57791E-06-1.65436E-24
 -1       977 1.73086E-04-8.81264E-06 0.00000E+00
 -1       978 1.72973E-04-9.01864E-06 0.00000E+00
 -1       979 1.72859E-04-9.20640E-06-3.30872E-24
 -1       980 1.72746E-04-9.38644E-06-1.65436E-24
 -1       981 1.72632E-04-9.56927E-06 3.30872E-24
 -1       982 1.72519E-04-9.76541E-06 1.65436E-24
 -1       983 1.72406E-04-9.98537E-06 0.00000E+00
 -1       984 1.72293E-04-1.02396E-05 1.65436E-24
 -1       985 1.72181E-04-1.05387E-05 3.30872E-24
 -3
    1PSTEP                        26          13           1          
  100CL  113 6.27563E-01         409                     0   13           1
 -4  STRESS      6    1
 -5  SXX         1    4    1    1
 -5  SYY         1    4    2    2
 -5  SZZ         1    4    3    3
 -5  SXY         1    4    1    2
 -5  SYZ         1    4    2    3
 -5  SZX         1    4    3    1
 -1         1-4.08527E+06-1.55159E+06-8.93816E+05-1.58115E+06 1.38243E-09-2.01573E-07
 -1         2 1.07004E+03-2.21488E+06 4.97739E+03 5.29195E+04 9.27969E-10-7.69896E-08
 -1         3-1.04620E+03-1.57455E+06 3.88501E+02-1.87669E+03-5.43235E-10-5.51554E-08
 -1         5-3.14733E+01 3.53752E+05 9.11219E+00-7.24876E-01-3.22610E-10 1.05010E-08
 -1         8-7.06093E+05-2.40221E+05-5.98013E+04-4.29165E+05 2.72848E-11 1.30447E-07
 -1         9 5.96002E+06-7.08838E+05 1.02365E+06-8.95186E+05 3.03495E-08-8.21194E-08
 -1        10-1.95624E+03-1.64071E+06-3.57316E+03-1.26823E+04-1.11486E-08-2.62763E-08
 -1        12-2.77949E+01 3.53771E+05 2.97016E+02-5.11882E+00-5.43622E-10-7.99446E-10
 -1        15 1.38326E+03 7.60178E+02 4.47138E+03 2.26103E+00-7.25180E-11 2.43638E-07
 -1        16 1.35910E+07-2.28879E+05 1.93860E+06-1.19646E+06 1.80250E-08-5.93718E-09
 -1        17 4.84454E+06 3.31125E+06 1.30635E+06 3.31536E+06 1.48313E-08 2.41096E-08
 -1        18 8.88431E+04 1.90985E+04-6.37773E+03-1.06167E+05 1.39091E-08 2.72075E-09
 -1        19 1.12789E+05 1.30145E+05-8.89651E+02 2.08636E+04 9.52605E-10-9.57516E-09
 -1        20-7.04031E+04-5.30312E+05-1.18625E+05 2.62540E+04-7.13802E-10 1.80844E-08
 -1        21-4.41739E+01-2.80206E+05-8.80800E+02 1.59362E+02 2.78060E-09-9.14978E-09
 -1        24 7.80937E+06 6.66212E+06 2.27761E+06 6.17620E+06-1.33465E-07-4.44318E-08
 -1        25 3.48375E+04-6.36262E+04 1.52279E+04-4.55500E+05-2.65836E-09 1.30764E-08
 -1        26-4.95470E+04 8.44715E+04-2.26281E+04-6.20785E+02 5.53337E-10 2.25542E-08
 -1        27-7.28961E+04-2.87315E+05-1.05701E+05 6.41203E+04 4.84033E-09 1.21963E-09
 -1        28 2.12223E+04-8.01039E+04 1.59691E+04 2.05660E+04-2.13100E-09 2.93170E-10
 -1        32-1.58488E+06-2.85227E+06-1.58294E+05 1.20959E+05-3.63070E-08-8.87457E-09
 -1        33-1.66364E+05 8.50843E+04 2.98791E+04-3.67721E+04-2.24615E-09 3.12351E-09
 -1        34-2.08739E+05-2.27088E+04 6.16323E+02 6.92330E+04-2.81290E-09 4.08909E-09
 -1        35-2.17902E+04-3.17812E+04-1.26233E+03 4.87726E+04-1.43288E-09 2.44108E-09
 -1        51 4.48354E+04-2.34184E+05 1.00137E+05-6.92485E+05-3.63798E-10 1.62734E-07
 -1        52 1.69064E+04-2.18768E+05 5.48670E+04-8.10593E+05-6.22094E-10 2.53458E-07
 -1        53 5.33040E+03-2.34428E+05 3.20677E+04-6.89938E+05 2.21917E-10 1.39531E-07
 -1        54 1.28389E+04-2.31192E+05 3.34283E+04-8.13228E+05-6.47560E-10-1.55283E-07
 -1        55 2.62855E+04-2.41516E+05 4.88157E+04-6.89581E+05-6.91216E-10 1.37370E-08
 -1        56-7.73329E+06-8.77430E+05-6.62669E+05-3.02292E+06 1.93540E-09-1.15426E-07
 -1        57-8.12297E+06-1.35081E+06-4.46397E+05-2.85114E+06-2.21371E-08 2.39961E-08
 -1        58-7.83538E+06-1.11768E+06-1.55677E+05-3.01479E+06 8.87667E-10 1.93373E-07
 -1        59-8.01068E+06-1.06394E+06-9.27082E+04-2.85758E+06-2.30330E-08-3.74157E-08
 -1        60-7.84471E+06-1.15625E+06-3.61374E+04-3.01963E+06-1.69293E-08-7.59792E-09
 -1        61-7.98500E+06-1.03223E+06-2.03885E+04-2.86692E+06 4.73631E-09 8.20773E-09
 -1        62-7.86033E+06-1.14857E+06-1.01062E+04-3.00549E+06-1.75905E-08-1.70885E-08
 -1        63-7.93888E+06-1.06822E+06-7.49067E+03-2.91118E+06-1.88775E-08-5.56731E-08
 -1        64-7.88908E+06-1.12127E+06-9.77991E+03-2.97415E+06-2.86000E-08-7.53555E-08
 -1        65-7.88100E+06-1.13109E+06-1.76149E+04-2.97754E+06-1.92322E-08-2.89003E-09
 -1        66-7.91770E+06-1.08620E+06-3.25345E+04-2.93871E+06-6.65204E-09 3.63907E-08
 -1        67-7.85031E+06-1.21445E+06-8.14054E+04-3.03463E+06-2.82662E-08-8.77626E-08
 -1        68-7.92165E+06-1.03780E+06-1.36980E+05-2.91793E+06-2.16787E-08 1.04337E-08
 -1        69-7.96076E+06-1.46011E+06-3.93379E+05-3.02495E+06-2.55386E-09 6.84304E-09
 -1        70-7.81066E+06-8.45901E+05-5.83017E+05-2.94756E+06-6.37374E-09-3.09665E-08
 -1        86-1.21830E+03-2.25743E+06-3.84860E+03-2.64537E+04-8.81366E-09-2.23127E-07
 -1        87 9.37630E+02-2.23094E+06 1.15908E+03 8.51418E+04-1.59773E-08-1.08169E-07
 -1        88 2.99233E+02-2.24299E+06-2.47227E+03-5.86823E+04-1.52784E-08 2.80465E-08
 -1        89-2.14962E+03-2.24036E+06-5.23041E+03 1.04142E+05-2.31094E-08-8.63892E-08
 -1        90 2.54782E+03-2.24883E+06-1.13050E+04-4.54639E+04-9.10859E-09 6.33413E-08
 -1       121-1.44674E+03-1.57807E+06-2.66648E+02 9.32604E+02 1.26954E-09-6.66478E-09
 -1       122-8.78925E+02-1.57457E+06 7.69790E+02-3.75172E+03-4.40899E-09 1.57361E-08
 -1       123-1.48676E+03-1.57819E+06 5.74657E+02 2.78497E+03 3.64616E-09 7.89441E-09
 -1       124 7.17976E+02-1.57398E+06 3.04614E+03-7.84791E+03-8.73115E-09-8.50559E-09
 -1       125-2.34447E+03-1.57908E+06 3.93142E+03 5.00262E+03 5.43150E-09-3.85626E-10
 -1       191-3.33323E+01 3.53776E+05 9.63228E+00 3.70370E-01-3.49206E-10 1.76642E-08
 -1       192-3.23269E+01 3.53752E+05 1.93539E+01-2.50969E+00-4.63749E-10 2.32694E-08
 -1       193-3.55930E+01 3.53776E+05 3.47677E+01 2.18880E+00-7.41405E-10 2.77687E-08
 -1       194-3.50697E+01 3.53755E+05 7.33524E+01-5.76301E+00-4.22262E-10 3.30483E-08
 -1       195-3.99348E+01 3.53774E+05 1.42249E+02 3.68312E+00-9.62299E-10 1.98888E-08
 -1       251-2.18388E+06-3.31096E+04-2.08475E+05 1.16615E+05 9.86984E-09-3.43425E-08
 -1       252-1.15573E+06 3.75640E+04 5.88671E+04-3.99797E+05-2.38761E-08-1.44941E-07
 -1       253-1.76104E+06-1.52912E+04-4.02424E+04 2.81973E+05 8.78117E-09 1.86583E-08
 -1       254-1.64357E+06 6.00242E+04 1.00851E+04-5.64842E+05-2.48062E-09 4.14202E-08
 -1       255-1.74476E+06-1.54216E+04-1.75782E+04 2.85637E+05-8.58472E-09 3.40506E-08
 -1       256-1.18535E+06 4.98394E+04 1.04409E+05-4.15445E+05-3.26918E-08-1.65180E-08
 -1       257-2.17410E+06-4.22766E+04-1.06048E+05 1.28774E+05 2.76104E-08-6.85964E-08
 -1       258-7.14592E+05 3.82310E+04 1.93751E+05 4.05826E+03 1.70257E-09-8.00401E-08
 -1       259-2.16896E+06-4.20132E+04-1.03265E+05-1.31478E+05 1.73768E-08-1.07623E-07
 -1       260-1.19593E+06 5.11940E+04 1.06901E+05 4.20868E+05 1.12714E-08-5.03294E-08
 -1       261-1.74048E+06-1.60763E+04-7.97072E+03-2.85766E+05-4.97994E-08-1.93050E-08
 -1       262-1.63739E+06 6.93633E+04 3.12090E+04 5.65311E+05 3.18483E-08-2.50757E-08
 -1       263-1.77141E+06-2.39948E+04-7.80164E+03-2.79617E+05-4.39468E-09-2.00189E-08
 -1       264-1.11387E+06 1.01357E+05 1.52907E+05 3.96442E+05-1.13636E-07-5.27953E-08
 -1       265-2.21415E+06-8.89367E+04-7.89210E+04-1.12932E+05-3.19305E-08 7.43676E-08
 -1       266-2.50415E+04-1.17094E+04 5.87550E+04-4.83795E+01-1.52795E-10 6.18225E-08
 -1       267 2.90302E+04 1.36476E+04 4.15270E+04 5.58197E+01 1.00044E-10-8.59609E-08
 -1       268-3.89289E+03-1.93288E+03 1.54354E+04-7.11244E+00-1.40972E-10-3.89170E-08
 -1       269 4.59636E+03 2.31325E+03 1.00327E+04 8.28489E+00-6.27551E-11-1.62967E-07
 -1       270-6.89919E+02-3.80085E+02 4.84295E+03-1.12432E+00-1.14937E-10-1.14277E-08
 -1       271-2.23864E+06-2.71909E+05-1.66098E+05-8.59980E+05 3.37459E-08 4.40050E-08
 -1       272-2.34599E+06-3.46476E+05-1.06946E+05-8.05656E+05-1.79330E-08-9.40545E-08
 -1       273-2.26880E+06-3.14578E+05-3.91993E+04-8.53819E+05 1.01782E-08-8.72878E-08
 -1       274-2.31025E+06-2.94431E+05-2.19967E+04-8.15175E+05-4.34511E-10-1.44541E-07
 -1       275-2.27331E+06-3.18799E+05-9.13883E+03-8.52270E+05-6.17138E-09 8.67576E-08
 -1       276-2.30350E+06-2.90549E+05-4.80305E+03-8.18247E+05-2.90420E-08 2.85818E-07
 -1       277-2.27509E+06-3.18148E+05-2.41176E+03-8.50685E+05 4.52928E-09-5.04538E-08
 -1       278-2.29953E+06-2.93038E+05-1.54458E+03-8.21557E+05-3.10538E-08 1.67530E-07
 -1       279-2.27682E+06-3.16538E+05-1.74425E+03-8.48665E+05-5.76620E-09 1.65641E-07
 -1       280-2.29555E+06-2.97222E+05-2.73495E+03-8.25635E+05-1.24382E-08 1.68859E-07
 -1       281-2.27864E+06-3.14262E+05-5.27321E+03-8.46293E+05 1.01263E-08 1.10092E-07
 -1       282-2.29315E+06-3.05014E+05-1.20283E+04-8.30038E+05-2.34877E-08 2.75307E-07
 -1       283-2.27891E+06-3.09270E+05-2.18020E+04-8.43908E+05 1.74623E-10-1.25674E-08
 -1       284-2.30692E+06-3.39193E+05-5.86815E+04-8.31062E+05-7.18592E-09-2.15578E-07
 -1       285-2.26511E+06-2.83153E+05-9.16403E+04-8.44077E+05-9.96806E-10-1.08899E-07
 -1       301 1.66784E+04-4.22409E+05 1.73213E+05-7.48443E+05 8.73115E-10 3.12211E-08
 -1       302 1.81227E+04-3.78506E+05 1.06495E+05-1.09444E+06-1.75351E-09-4.12911E-08
 -1       303-3.99639E+03-4.07265E+05 6.74988E+04-7.46638E+05 7.85803E-10-1.01407E-07
 -1       304 7.90611E+03-3.81117E+05 8.06497E+04-1.09371E+06 7.71252E-10-4.03634E-08
 -1       305 3.88041E+03-4.09244E+05 1.15298E+05-7.49065E+05-6.54836E-11-4.53801E-08
 -1       306-2.19274E+07-4.26422E+06-5.72868E+06-1.60959E+06-4.88362E-08 8.29168E-08
 -1       307 1.62483E+07 4.64403E+05 3.60286E+06-1.00328E+07-6.62112E-07 1.40630E-07
 -1       308-8.11848E+06-2.23279E+05-4.92373E+05 3.41203E+06-2.02446E-07 1.24710E-07
 -1       309-3.35303E+06 3.11870E+06 1.23519E+06-1.57161E+07 1.15615E-07-1.38207E-08
 -1       310-9.93297E+06-4.97583E+05-9.24672E+05 3.21561E+06-1.51020E-07-1.11489E-07
 -1       311 2.04086E+07-7.85449E+05 4.30956E+06-7.53840E+06 4.43775E-07-8.49832E-09
 -1       312-2.24129E+07-4.24699E+06-5.22386E+06-3.19287E+06 1.15135E-07 7.72416E-08
 -1       313 2.89428E+07 6.90889E+06 6.83158E+06 1.26935E+07-3.32191E-07 9.35397E-08
 -1       314-1.48312E+07-1.05446E+07-4.87848E+06-9.04424E+06 4.56814E-07-1.09139E-07
 -1       315-1.25287E+06 1.74588E+07 3.78067E+06 8.69866E+06-2.58035E-07 9.16771E-09
 -1       316-9.42751E+05-7.63100E+06-4.42537E+05-4.13248E+06-8.44695E-07-2.08587E-07
 -1       317-1.59240E+07 1.56187E+07 1.21014E+06-3.12427E+06 4.59600E-07-4.89570E-07
 -1       318-1.84734E+06-8.28286E+06-9.93319E+05-4.58136E+06-7.77683E-07 4.48199E-08
 -1       319 1.93088E+06 1.81342E+07 4.05247E+06 1.00472E+07-5.32091E-08 1.19820E-07
 -1       320-1.65659E+07-1.09113E+07-6.21229E+06-8.89860E+06 1.48430E-07-4.76139E-08
 -1       336-7.47633E+01-1.70832E+06-1.27761E+04 7.58072E+03-2.25400E-08 2.03836E-08
 -1       337-4.89156E+03-1.70906E+06-1.64229E+04-1.83402E+04-4.17576E-08-3.33093E-08
 -1       338 6.08423E+02-1.70796E+06-2.50331E+04 1.06088E+04-2.99133E-08-3.65617E-09
 -1       339-2.65985E+04-1.72378E+06-5.66406E+04-2.42470E+04-5.35474E-08 3.97849E-08
 -1       340 1.77814E+04-1.69516E+06-8.88837E+04 1.33923E+04-3.38332E-08 4.05962E-08
 -1       406-6.33345E+00 3.53760E+05 5.85086E+02 1.59823E+00-1.12738E-09-4.51837E-09
 -1       407 1.76804E+02 3.53874E+05 1.24626E+03 1.60019E+01-3.37586E-10 3.63725E-08
 -1       408 6.12884E+02 3.53670E+05 2.48735E+03-1.79964E+01-1.68438E-09 3.02534E-08
 -1       409 2.66559E+03 3.54668E+05 5.60229E+03 1.86629E+02-3.80169E-10-5.42332E-09
 -1       410 7.70836E+03 3.52959E+05 1.14357E+04-1.78609E+02-2.06001E-09 2.59297E-09
 -1       521-2.37369E+07-5.26548E+06-6.78800E+06-1.43480E+06-8.20728E-08-6.15255E-08
 -1       522 1.70392E+07 7.57877E+05 3.70758E+06-1.26584E+07-3.74886E-07-2.44458E-07
 -1       523-9.13145E+06-4.37075E+05-5.31712E+05 3.85196E+06 1.94705E-08-1.74281E-07
 -1       524-5.87469E+06 4.86832E+06 1.36895E+06-1.85871E+07 7.84101E-07-5.03260E-07
 -1       525-1.11232E+07-8.38091E+05-1.03731E+06 3.63679E+06 3.71248E-07-3.12735E-07
 -1       526 2.23444E+07-8.73937E+05 4.61353E+06-9.69849E+06-7.26432E-08-1.19529E-07
 -1       527-2.43580E+07-5.38775E+06-6.09061E+06-3.19068E+06 8.11415E-08-4.53438E-08
 -1       528 3.21048E+07 7.58155E+06 7.24852E+06 1.45229E+07-9.35979E-08-1.27402E-07
 -1       529-1.60597E+07-1.22516E+07-5.67347E+06-9.49721E+06-2.39583E-07-1.21654E-08
 -1       530-3.14128E+06 2.07656E+07 4.06569E+06 9.07556E+06-4.55337E-07 4.78874E-07
 -1       531-1.13217E+06-8.81932E+06-4.66779E+05-4.50902E+06-7.83592E-07 2.16009E-07
 -1       532-1.91274E+07 1.80366E+07 1.36591E+06-5.55738E+06 3.28182E-07-5.86508E-07
 -1       533-2.02414E+06-9.47694E+06-1.05913E+06-4.90953E+06-7.43021E-08-8.32777E-07
 -1       534 1.95244E+05 2.15054E+07 4.30492E+06 1.06244E+07-1.01209E-07 5.82659E-07
 -1       535-1.78600E+07-1.27110E+07-7.16366E+06-9.32710E+06 7.13626E-08 3.65544E-07
 -1       536-6.21380E+05-4.20188E+04-1.66500E+04-4.32808E+04-5.02769E-09 7.05204E-08
 -1       537-1.37572E+05 4.16372E+04 7.43482E+04 1.01578E+05-9.01284E-08 9.58444E-08
 -1       538-3.90310E+05 1.30966E+03 7.44367E+03-6.07035E+04 2.91083E-08 9.33865E-08
 -1       539-2.98454E+05 3.07883E+03 2.09436E+04 1.15483E+05 1.45979E-07 1.10624E-07
 -1       540-4.64432E+05-2.17817E+02-1.41738E+04-5.75155E+04-9.67475E-10 1.06856E-07
 -1       541 6.46329E+03 1.24692E+04 7.85531E+04 7.88857E+04-6.01585E-09 8.07031E-08
 -1       542-6.87036E+05-1.48767E+04-6.16153E+04-2.35673E+04 4.86384E-08 4.31809E-08
 -1       543 1.95628E+05 2.01005E+04 1.15733E+05-1.14702E+04 8.52788E-09-1.24619E-08
 -1       544-6.48546E+05-1.20135E+04-5.46892E+04 3.24208E+04-1.64696E-08-1.13777E-08
 -1       545-8.27895E+04 6.55178E+03 5.74444E+04-9.32692E+04-3.47499E-08-2.27893E-08
 -1       546-4.16055E+05 4.80653E+03-9.29371E+03 5.80248E+04 3.88620E-08-7.63746E-08
 -1       547-3.13010E+05-4.63794E+03 5.62371E+03-1.18049E+05-8.80348E-08-1.10794E-07
 -1       548-4.24473E+05 4.28007E+03-2.04754E+04 5.76285E+04-9.76527E-08-7.26473E-08
 -1       549-6.62673E+04 6.11649E+03 3.67751E+04-9.06326E+04-5.70059E-08-4.20255E-08
 -1       550-6.56173E+05-1.14484E+04-1.06011E+05 3.01594E+04 8.24775E-09-3.09592E-08
 -1       551 3.43055E+04-7.52719E+05 3.70757E+02-1.17554E+06-8.55798E-08-5.36966E-09
 -1       552 7.74033E+04-7.86707E+05 1.90429E+04-1.67620E+06-6.22822E-08 3.87663E-08
 -1       553 5.85201E+04-7.86504E+05 3.81107E+04-1.16984E+06-1.02358E-07 2.52330E-08
 -1       554 1.12258E+05-7.96377E+05 8.81028E+04-1.67814E+06-6.65459E-08 2.17642E-08
 -1       555 8.80007E+04-8.08587E+05 1.58713E+05-1.17003E+06-1.05887E-07-9.90258E-09
 -1       556 1.87682E+05-3.28836E+05 4.54895E+04-3.66570E+05-1.93540E-08 3.52156E-09
 -1       557 3.05102E+05-4.22896E+05 2.56760E+04-4.70528E+05-5.10772E-09 9.84983E-09
 -1       558 1.75116E+05-3.27611E+05 7.54704E+03-3.66355E+05-1.67638E-08-9.90258E-09
 -1       559 2.83438E+05-4.26607E+05 4.68773E+03-4.86285E+05 1.52650E-08-1.07793E-08
 -1       560 1.63700E+05-3.20408E+05 2.56223E+02-3.74443E+05 3.17232E-09 1.19180E-08
 -1       561 2.68819E+05-4.20959E+05 7.66700E+02-4.96120E+05-5.23869E-10 1.38607E-08
 -1       562 1.54692E+05-3.14766E+05-6.14965E+02-3.80937E+05 1.89175E-09-9.15679E-09
 -1       563 2.58156E+05-4.16309E+05 1.51078E+02-5.03051E+05 9.02946E-09-7.42739E-09
 -1       564 1.48369E+05-3.10814E+05-3.16370E+02-3.85408E+05-3.34694E-10 6.89715E-09
 -1       565 2.51271E+05-4.13312E+05 7.54901E+01-5.07439E+05-2.80852E-09-1.93349E-08
 -1       566 1.44830E+05-3.08569E+05-1.44018E+02-3.87886E+05 2.02272E-09-1.40481E-08
 -1       567 2.48181E+05-4.11965E+05-2.57205E+02-5.09286E+05 1.86155E-08 1.92194E-08
 -1       568 1.44145E+05-3.08158E+05-8.55276E+02-3.88461E+05 1.29876E-09 1.04847E-08
 -1       569 2.47662E+05-4.11937E+05-2.16035E+03-5.07667E+05-9.33414E-09 2.08747E-08
 -1       570 1.47281E+05-3.11013E+05-4.77942E+03-3.87625E+05 8.92760E-09 1.63072E-08
 -1       571 2.66887E+05 9.68624E+03 1.39877E+04-8.19271E+04 7.53971E-10 4.39468E-09
 -1       572 2.68931E+05 3.56180E+03 6.85447E+03-8.98795E+04 6.00267E-11-3.93447E-09
 -1       573 2.67702E+05 1.03939E+03 3.04554E+03-8.17670E+04 1.07548E-09 1.54450E-08
 -1       574 2.67916E+05 5.41192E+02 1.52692E+03-9.00768E+04 4.15912E-09-3.57886E-09
 -1       575 2.67791E+05 2.93812E+02 7.20494E+02-8.17453E+04 1.03535E-09-2.01908E-10
 -1       576 2.67787E+05 2.92538E+02 3.68493E+02-9.01031E+04-6.32326E-09 1.07239E-08
 -1       577 2.67822E+05 2.43520E+02 1.83742E+02-8.17424E+04-7.14454E-09 2.22190E-08
 -1       578 2.67804E+05 2.63701E+02 1.05389E+02-9.01066E+04-5.58612E-09 1.10986E-08
 -1       579 2.67874E+05 2.18535E+02 7.19658E+01-8.17421E+04 3.74075E-09 3.99086E-09
 -1       580 2.67877E+05 2.28081E+02 8.19434E+01-9.01022E+04-4.70118E-09 2.22299E-08
 -1       581 2.67956E+05 1.78059E+02 1.23835E+02-8.17471E+04 5.73709E-09 6.38829E-09
 -1       582 2.68008E+05 2.08737E+02 2.49914E+02-9.00493E+04 1.46520E-09-5.69071E-09
 -1       583 2.68055E+05 2.31504E+02 4.81486E+02-8.17954E+04-9.87711E-10 4.97812E-09
 -1       584 2.68310E+05 6.20901E+02 1.08728E+03-8.96432E+04 2.89401E-09-9.70272E-09
 -1       585 2.68050E+05 1.55063E+03 2.20456E+03-8.21529E+04-1.88811E-09 4.66753E-09
 -1       586-3.19720E+03 1.01084E+05-3.12296E+03-2.33108E+05-3.47654E-09-4.00746E-09
 -1       587-1.07941E+03 1.00770E+05 4.58533E+02-2.56564E+05-5.42605E-09 1.20521E-08
 -1       588 5.54003E+02 1.00665E+05 4.19648E+03-2.32987E+05-3.00497E-09 2.23326E-08
 -1       589 4.82949E+03 1.02871E+05 1.11059E+04-2.56327E+05-3.96176E-09 2.37123E-08
 -1       590 1.52322E+04 9.94548E+04 2.33840E+04-2.33387E+05-4.64570E-09 1.23000E-08
 -1       591-6.42302E+04-1.44341E+04-2.00516E+04-2.82597E+04-1.34173E-09 1.58343E-09
 -1       592-6.76219E+04-1.78480E+04-1.08614E+04-3.17681E+04 2.50216E-09-1.06911E-08
 -1       593-6.62375E+04-1.29771E+04-4.52117E+03-2.97281E+04 2.99704E-09-1.60751E-08
 -1       594-6.48499E+04-1.49094E+04-2.25486E+03-3.18774E+04 3.26024E-09-6.09873E-10
 -1       595-6.63907E+04-1.29721E+04-1.03537E+03-2.97948E+04 2.45592E-10 1.98773E-09
 -1       596-6.46604E+04-1.47750E+04-5.26426E+02-3.18553E+04 1.66811E-08-4.97107E-09
 -1       597-6.64099E+04-1.29857E+04-2.86844E+02-2.97974E+04 8.88178E-09-8.54999E-09
 -1       598-6.46418E+04-1.47697E+04-2.30941E+02-3.18490E+04-5.22903E-09 7.41920E-09
 -1       599-6.64087E+04-1.29861E+04-2.95435E+02-2.97970E+04 1.81524E-09-2.71609E-08
 -1       600-6.46607E+04-1.47757E+04-5.49172E+02-3.18535E+04 1.28682E-09-3.66276E-09
 -1       601-6.63863E+04-1.29730E+04-1.08357E+03-2.97937E+04-3.25144E-11-2.02954E-09
 -1       602-6.48589E+04-1.49156E+04-2.36163E+03-3.18734E+04-2.13663E-09-1.72337E-08
 -1       603-6.62234E+04-1.29809E+04-4.73609E+03-2.97244E+04-3.54930E-10-1.55655E-08
 -1       604-6.77782E+04-1.79764E+04-1.13771E+04-3.17367E+04 4.05839E-09 5.27507E-11
 -1       605-6.41026E+04-1.45230E+04-2.10037E+04-2.82036E+04 3.01412E-09 1.29512E-09
 -1       606 2.69685E+04-1.30424E+04-2.33979E+04 2.48780E+04 3.23689E-09 8.37417E-09
 -1       607 2.29689E+04-4.25051E+03-1.16518E+04 2.79469E+04-7.83984E-10-4.43151E-10
 -1       608 2.52455E+04-7.58282E+02-5.21654E+03 2.46945E+04-1.82081E-09 1.31099E-08
 -1       609 2.48054E+04-2.48916E+02-2.63511E+03 2.81677E+04 2.72757E-09 1.55474E-08
 -1       610 2.50470E+04-2.42425E+01-1.25758E+03 2.46732E+04 3.31420E-09-5.01973E-09
 -1       611 2.49749E+04-2.07210E+01-6.34053E+02 2.81916E+04 4.85670E-09-2.23076E-09
 -1       612 2.50008E+04-9.67363E+00-3.01784E+02 2.46711E+04 2.74576E-09 4.89013E-09
 -1       613 2.49820E+04-1.50644E+01-1.35519E+02 2.81944E+04 1.00545E-09-6.77687E-09
 -1       614 2.49780E+04-1.38215E+01-3.26575E+01 2.46704E+04 6.32645E-09-9.49967E-10
 -1       615 2.49744E+04-1.22025E+01 5.48154E+01 2.81949E+04 1.50030E-08 3.44432E-08
 -1       616 2.49602E+04-9.73623E+00 1.66175E+02 2.46706E+04 6.93944E-10-8.02856E-10
 -1       617 2.49924E+04 2.44445E+01 3.79921E+02 2.81944E+04-1.60355E-08-1.63900E-08
 -1       618 2.49257E+04 1.00736E+02 7.66033E+02 2.46709E+04-8.39691E-09 1.02834E-08
 -1       619 2.52616E+04 6.17518E+02 1.72038E+03 2.81937E+04-5.62864E-10 8.34052E-09
 -1       620 2.46705E+04 1.91790E+03 3.45795E+03 2.46713E+04 2.74565E-09 4.28554E-09
 -1       621 4.08446E+02 2.75286E+05 3.34594E+03 3.17800E+04 7.61702E-10-9.49058E-09
 -1       622 5.26543E+02 2.76078E+05 3.01682E+03 4.61672E+04 8.88122E-10-7.31688E-10
 -1       623 8.41214E+01 2.75463E+05 3.68979E+03 3.16341E+04 9.30868E-10 1.05570E-08
 -1       624 1.83915E+03 2.77215E+05 7.20412E+03 4.63122E+04 1.02443E-09 3.61979E-09
 -1       625 1.81776E+03 2.74039E+05 1.26142E+04 3.16312E+04 1.12823E-09 1.22729E-08
 -1       626 2.40097E+05 5.85461E+04 4.89531E+03 1.19171E+05-2.18733E-09 8.67658E-10
 -1       627 2.37762E+05 6.00007E+04 2.35900E+03 1.23387E+05-3.92538E-09-7.82381E-09
 -1       628 2.40226E+05 5.62960E+04 9.97396E+02 1.19990E+05-8.52560E-09 2.23963E-10
 -1       629 2.37139E+05 5.93641E+04 4.88209E+02 1.23629E+05-4.36557E-09 1.95895E-08
 -1       630 2.40239E+05 5.61881E+04 2.26230E+02 1.20022E+05 6.30916E-09 4.24026E-09
 -1       631 2.37072E+05 5.93414E+04 1.21457E+02 1.23630E+05 1.73839E-08-7.57416E-09
 -1       632 2.40234E+05 5.61930E+04 7.94314E+01 1.20017E+05 1.68629E-08-4.18834E-09
 -1       633 2.37061E+05 5.93443E+04 8.77121E+01 1.23625E+05 3.88366E-09-4.70709E-09
 -1       634 2.40228E+05 5.61914E+04 1.41060E+02 1.20015E+05 3.50894E-09-1.16061E-08
 -1       635 2.37073E+05 5.93435E+04 2.85034E+02 1.23629E+05 6.38177E-09 7.98764E-10
 -1       636 2.40218E+05 5.61870E+04 5.75414E+02 1.20014E+05 1.32263E-09-6.16910E-09
 -1       637 2.37196E+05 5.94333E+04 1.26492E+03 1.23627E+05 9.17680E-10 1.11577E-08
 -1       638 2.40172E+05 5.64668E+04 2.59900E+03 1.19887E+05 9.20409E-10 1.50994E-08
 -1       639 2.38561E+05 6.13319E+04 6.14909E+03 1.23224E+05 4.94856E-09-7.37600E-09
 -1       640 2.39985E+05 6.21341E+04 1.27605E+04 1.17495E+05 4.63069E-09 7.72616E-10
 -1       656 6.18699E+04-1.58005E+06-1.49352E+05-1.76497E+03-2.76486E-10-3.63218E-09
 -1       657-8.18322E+04-1.64752E+06-1.23693E+05 6.07512E+03-4.65661E-10-2.29274E-08
 -1       658 1.97064E+04-1.59923E+06-7.61344E+04-3.62018E+03 4.15866E-10-1.76067E-08
 -1       659-8.83658E+04-1.65063E+06-1.32277E+05 7.54944E+03-1.35788E-09-1.94836E-08
 -1       660 6.83887E+04-1.57696E+06-1.64112E+05-3.23927E+03-1.59343E-09-4.25828E-09
 -1       661 1.61399E+05 1.70755E+04 1.66172E+04 6.31013E+04-2.11594E-09 2.48201E-08
 -1       662 1.70629E+05 2.95425E+04 1.11984E+04 5.95603E+04-2.89316E-09-1.32297E-09
 -1       663 1.64662E+05 2.24073E+04 3.91672E+03 6.21550E+04-2.51589E-09-5.48425E-09
 -1       664 1.66848E+05 2.33062E+04 2.34269E+03 6.07152E+04-1.02318E-12-4.25419E-09
 -1       665 1.65155E+05 2.31366E+04 9.24177E+02 6.20120E+04-7.77504E-10-1.11591E-08
 -1       666 1.66264E+05 2.24714E+04 5.40491E+02 6.09012E+04 2.07658E-09-3.27799E-09
 -1       667 1.65241E+05 2.32203E+04 2.86749E+02 6.19769E+04 1.87839E-10 3.42054E-09
 -1       668 1.66170E+05 2.24100E+04 2.91386E+02 6.09522E+04-1.82858E-09 1.60433E-09
 -1       669 1.65249E+05 2.31962E+04 3.93855E+02 6.19614E+04-1.40588E-09 3.54950E-09
 -1       670 1.66266E+05 2.26230E+04 8.57021E+02 6.09547E+04-3.63685E-09-1.12526E-09
 -1       671 1.65145E+05 2.30117E+04 1.52150E+03 6.19725E+04-5.86958E-10 1.68702E-08
 -1       672 1.67153E+05 2.41032E+04 3.89257E+03 6.07400E+04 5.06196E-09 1.18960E-08
 -1       673 1.64366E+05 2.17534E+04 6.52326E+03 6.21617E+04 9.00172E-10 1.54894E-08
 -1       674 1.73362E+05 3.45827E+04 1.86551E+04 5.89152E+04-3.04851E-09-1.09740E-08
 -1       675 1.58976E+05 1.28256E+04 2.76907E+04 6.36871E+04 4.14730E-10-7.01766E-09
 -1       676 2.29028E+01-2.80133E+05-1.06160E+03-7.96830E+01 9.61421E-10 4.40556E-09
 -1       677-2.81530E+02-2.80390E+05-1.94289E+03 1.59249E+02 5.80712E-09-2.06383E-08
 -1       678 1.88258E+02-2.79950E+05-3.43454E+03-7.95125E+01 1.25351E-09-1.32386E-08
 -1       679-3.43524E+03-2.82463E+05-8.15897E+03 1.58597E+02 5.20197E-09-3.52259E-09
 -1       680 2.05050E+03-2.78061E+05-1.31495E+04-7.81462E+01 1.06775E-09-7.31048E-09
 -1       771-2.92431E+06-6.72727E+05-1.30337E+05-1.36863E+06-2.82889E-08-2.31375E-08
 -1       772-2.85981E+06-7.49608E+05-6.74861E+04-1.45715E+06-1.92085E-08 1.37043E-08
 -1       773-2.94896E+06-6.53385E+05-3.37758E+04-1.37901E+06-9.31323E-09 1.14669E-08
 -1       774-2.85066E+06-7.35442E+05-1.52010E+04-1.47671E+06 2.91038E-08-9.34961E-10
 -1       775-2.96117E+06-6.44769E+05-1.09523E+04-1.38374E+06-3.23053E-09 6.98492E-10
 -1       776-2.85901E+06-7.33579E+05-4.16391E+03-1.49110E+06-3.43425E-09 9.74978E-09
 -1       777-2.97161E+06-6.37194E+05-4.68963E+03-1.38790E+06 9.37143E-09 7.20320E-10
 -1       778-2.86781E+06-7.31911E+05-1.34916E+03-1.50340E+06 1.17070E-08 4.60022E-09
 -1       779-2.98050E+06-6.30628E+05-2.29705E+03-1.39147E+06-9.31323E-10-1.36570E-08
 -1       780-2.87555E+06-7.30313E+05-3.85425E+02-1.51341E+06 5.50062E-09-1.31695E-09
 -1       781-2.98753E+06-6.25363E+05-8.78243E+02-1.39425E+06-1.49739E-08-1.19144E-09
 -1       782-2.88149E+06-7.28940E+05 3.27214E+02-1.52079E+06-2.92930E-08-6.40102E-09
 -1       783-2.99246E+06-6.21727E+05 5.17831E+02-1.39621E+06-3.44153E-09-1.06443E-08
 -1       784-2.88473E+06-7.27466E+05 2.10369E+03-1.52533E+06-1.72877E-08 6.03904E-10
 -1       785-2.99537E+06-6.19566E+05 3.71697E+03-1.39747E+06-3.05336E-08 6.08088E-09
 -1       786 1.24045E+05-9.47353E+03 2.19172E+04-2.47690E+02 9.93499E-10-4.58749E-09
 -1       787 1.33550E+05 1.09678E+04 1.55057E+04-7.29815E+01 5.71553E-09 4.92309E-09
 -1       788 1.27710E+05-1.48474E+03 5.67072E+03-2.16084E+02 4.57759E-09 2.28918E-08
 -1       789 1.29281E+05 1.71814E+03 3.56025E+03-1.22298E+02 3.62908E-10 5.39785E-09
 -1       790 1.28315E+05-2.31405E+02 1.44232E+03-1.98386E+02-3.14729E-09-8.67817E-09
 -1       791 1.28573E+05 2.67523E+02 8.34682E+02-1.52759E+02-7.38475E-09 4.43123E-09
 -1       792 1.28418E+05-3.52123E+01 3.56962E+02-1.85624E+02-3.26317E-09 1.06943E-08
 -1       793 1.28452E+05 3.83941E+01 1.85107E+02-1.76776E+02 1.13029E-09-1.23361E-08
 -1       794 1.28437E+05-2.42170E+00 6.24756E+01-1.74369E+02 2.95100E-09-8.59721E-09
 -1       795 1.28421E+05-1.45562E+01-1.74937E+01-2.00232E+02-2.27871E-09 1.10243E-08
 -1       796 1.28448E+05 1.77092E+01-9.14447E+01-1.62168E+02 2.83400E-09 9.07089E-09
 -1       797 1.28362E+05-1.34535E+02-2.69562E+02-2.28167E+02 2.88996E-09-1.41318E-08
 -1       798 1.28496E+05 1.17466E+02-4.42893E+02-1.46433E+02 9.27942E-10 9.30646E-09
 -1       799 1.28024E+05-8.66515E+02-1.22292E+03-2.66738E+02 4.11950E-09 7.46184E-09
 -1       800 1.28786E+05 7.49087E+02-1.73194E+03-1.23598E+02 3.06695E-10 4.96561E-09
 -1       801-6.02671E+04-7.85097E+06-1.03388E+06 9.19068E+05 7.42148E-08-4.35248E-08
 -1       802 4.13279E+05 2.60526E+06 1.34175E+06-1.08542E+06 2.12451E-07-3.11034E-08
 -1       803-3.40818E+05-1.04557E+07-1.24116E+06 5.90207E+05 6.60111E-08 2.14695E-08
 -1       804 1.58483E+05 1.55164E+05 9.45096E+05 5.07630E+05-9.07530E-08-8.42311E-08
 -1       805 1.43633E+05-5.41577E+06-1.92412E+05-6.70339E+05-3.79951E-08-4.84870E-08
 -1       806-2.87026E+05-5.50250E+04-2.10861E+04-1.13150E+05-4.81123E-10 2.89810E-09
 -1       807-2.88767E+05-5.15004E+04-1.03594E+04-1.18168E+05 1.02636E-08-1.23890E-08
 -1       808-2.87598E+05-4.74327E+04-4.39484E+03-1.16750E+05-4.95447E-09-1.07148E-08
 -1       809-2.86593E+05-4.85863E+04-2.14898E+03-1.18419E+05-9.63519E-09 1.35651E-08
 -1       810-2.87685E+05-4.71683E+04-9.84962E+02-1.16910E+05 1.63482E-09 8.97148E-09
 -1       811-2.86425E+05-4.84688E+04-4.89811E+02-1.18386E+05 2.78123E-09-1.10608E-08
 -1       812-2.87699E+05-4.71907E+04-2.47662E+02-1.16910E+05-3.11411E-09 6.65614E-09
 -1       813-2.86403E+05-4.84705E+04-1.60920E+02-1.18369E+05-1.01845E-08-6.58724E-09
 -1       814-2.87693E+05-4.71991E+04-1.59324E+02-1.16907E+05-5.45242E-09 1.55751E-09
 -1       815-2.86407E+05-4.84723E+04-2.56744E+02-1.18364E+05-6.05269E-10 5.42605E-09
 -1       816-2.87675E+05-4.71976E+04-4.86465E+02-1.16904E+05 5.90262E-10-2.62435E-09
 -1       817-2.86490E+05-4.85184E+04-1.04427E+03-1.18354E+05-7.69251E-09 9.29867E-09
 -1       818-2.87613E+05-4.73440E+04-2.12978E+03-1.16835E+05-1.31877E-09 3.69528E-09
 -1       819-2.87656E+05-4.98060E+04-5.01165E+03-1.18081E+05-3.26781E-09-2.78089E-08
 -1       820-2.87216E+05-5.11267E+04-1.02003E+04-1.15215E+05 1.77806E-09-1.81590E-08
 -1       821-3.54260E+05 1.95301E+04-4.52122E+04 1.15172E+03 8.64000E-09 7.15227E-09
 -1       822-3.73675E+05-2.26110E+04-3.19633E+04-2.14616E+03 2.25835E-09-3.11047E-10
 -1       823-3.61718E+05 3.06499E+03-1.17030E+04 1.54119E+03-5.56467E-09 3.24826E-09
 -1       824-3.64890E+05-3.54317E+03-7.35492E+03-2.21666E+03 1.56310E-09 9.73273E-09
 -1       825-3.63042E+05 4.77190E+02-3.04022E+03 1.22224E+03 9.12524E-09 1.43508E-08
 -1       826-3.63247E+05-5.56679E+02-1.78118E+03-1.03763E+03 1.07109E-08 3.34910E-09
 -1       827-3.63354E+05 7.65586E+01-9.83013E+02 3.62132E+02 4.18090E-09-1.92404E-08
 -1       828-3.62992E+05-1.64452E+02-7.82546E+02 7.76419E+02-2.10791E-09-1.34124E-08
 -1       829-3.63295E+05 8.41384E+01-9.92962E+02-5.91838E+02 1.85671E-09 1.06007E-09
 -1       830-3.63387E+05-5.87419E+02-1.87185E+03 2.27961E+03-2.35854E-10-1.00170E-08
 -1       831-3.62964E+05 5.03128E+02-3.14070E+03-1.14109E+03-2.62646E-09-3.30192E-09
 -1       832-3.64978E+05-3.68780E+03-7.64644E+03 2.68645E+03-1.51137E-09-1.71258E-09
 -1       833-3.61708E+05 3.18409E+03-1.21701E+04-9.98679E+02-2.52673E-09-9.21955E-09
 -1       834-3.73956E+05-2.34937E+04-3.31893E+04 1.76847E+03-2.34596E-09 1.39898E-08
 -1       835-3.53985E+05 2.02904E+04-4.69984E+04-2.23083E+02 5.71390E-09 1.93850E-08
 -1       836-1.27392E+03 3.39299E+05 2.08812E+04-1.61112E+04-4.67116E-09-9.90394E-09
 -1       837 4.48076E+03 3.45825E+05 1.77315E+04-3.27093E+04-4.86591E-09-1.46194E-08
 -1       838-4.99280E+02 3.41121E+05 1.81537E+04-1.60425E+04-4.26326E-09 5.94741E-09
 -1       839 1.14885E+04 3.51046E+05 3.44271E+04-3.27571E+04-4.43288E-09 1.81087E-08
 -1       840-3.53153E+03 3.34026E+05 5.49360E+04-1.60665E+04-4.03088E-09 2.54385E-08
 -1       856-6.01115E+04 7.86180E+03-2.07178E+04-4.00357E+02 3.36433E-09 1.01300E-08
 -1       857-6.86536E+04-9.23212E+03-1.42624E+04 5.33245E+03 2.82569E-09 2.01203E-09
 -1       858-6.34919E+04 1.10224E+03-5.37601E+03-4.23740E+02 1.96997E-09 1.06852E-08
 -1       859-6.47736E+04-1.29183E+03-3.24480E+03 5.36795E+03 1.32663E-09-6.77898E-09
 -1       860-6.39970E+04 1.54044E+02-1.36090E+03-4.35714E+02 1.18007E-10-2.82512E-10
 -1       861-6.41924E+04-1.79318E+02-7.50778E+02 5.38431E+03 5.00485E-10-1.77806E-09
 -1       862-6.40759E+04 2.06853E+01-3.16337E+02-4.40093E+02-5.04414E-11 7.70075E-09
 -1       863-6.40964E+04-1.77728E+01-1.24880E+02 5.38672E+03-4.24419E-09 4.00841E-09
 -1       864-6.40934E+04-3.85961E+00 2.45304E+01-4.38118E+02-2.05532E-09-8.55854E-09
 -1       865-6.40478E+04 5.23472E+01 2.01734E+02 5.37584E+03-4.02579E-10-2.35709E-08
 -1       866-6.41225E+04-4.95640E+01 4.17696E+02-4.29222E+02 1.07798E-09-3.25318E-09
 -1       867-6.38484E+04 4.10531E+02 1.03530E+03 5.35164E+03 2.03192E-09-2.00021E-08
 -1       868-6.42884E+04-3.55904E+02 1.72206E+03-4.13909E+02 7.64544E-10-2.15459E-09
 -1       869-6.25837E+04 2.96197E+03 4.58796E+03 5.31144E+03-2.28653E-10 1.01006E-08
 -1       870-6.53802E+04-2.53218E+03 6.65776E+03-3.88972E+02-1.64880E-09-7.33871E-09
 -1       871-5.19735E+03-1.76456E+04-1.79044E+04 1.19567E+05-3.32147E-09-6.14546E-09
 -1       872-1.98585E+03-2.17665E+04-7.45430E+03 1.55031E+05-6.78210E-09 4.69572E-09
 -1       873 2.48813E+02-1.97934E+04 6.49382E+02 1.19305E+05-3.49428E-09 1.40483E-08
 -1       874 2.93466E+03-1.74866E+04 9.23536E+03 1.55064E+05-7.62884E-09 2.02326E-08
 -1       875 6.30735E+03-2.19926E+04 2.07508E+04 1.19525E+05-3.02316E-09 1.47556E-08
 -1       876 2.74485E+05 4.64825E+04 1.42028E+04 1.10413E+05 1.06866E-11 2.40016E-09
 -1       877 2.75401E+05 4.94964E+04 7.58482E+03 1.14508E+05 1.21054E-09 2.51987E-09
 -1       878 2.75813E+05 4.49099E+04 3.17767E+03 1.11578E+05-1.07248E-08-2.10325E-08
 -1       879 2.73470E+05 4.75702E+04 1.58325E+03 1.14605E+05-7.50947E-09-1.34265E-08
 -1       880 2.75908E+05 4.48934E+04 7.37411E+02 1.11625E+05-1.07079E-08-7.60878E-09
 -1       881 2.73342E+05 4.74879E+04 3.93641E+02 1.14583E+05-1.86398E-08-7.00787E-09
 -1       882 2.75917E+05 4.49057E+04 2.51586E+02 1.11627E+05 1.02773E-09 1.42404E-09
 -1       883 2.73333E+05 4.74837E+04 2.70065E+02 1.14576E+05 1.03164E-08 2.17243E-09
 -1       884 2.75911E+05 4.49030E+04 4.29252E+02 1.11627E+05 3.27520E-09 2.30904E-09
 -1       885 2.73367E+05 4.74897E+04 8.62810E+02 1.14587E+05 1.90880E-10-1.39700E-08
 -1       886 2.75878E+05 4.48778E+04 1.73885E+03 1.11624E+05 2.08183E-09-2.35332E-10
 -1       887 2.73673E+05 4.76901E+04 3.79826E+03 1.14631E+05 5.01927E-09-1.20849E-10
 -1       888 2.75638E+05 4.49200E+04 7.65361E+03 1.11502E+05 3.29521E-09 2.20280E-09
 -1       889 2.78230E+05 5.24279E+04 1.82832E+04 1.14490E+05 5.70389E-09-4.63660E-09
 -1       890 2.72516E+05 4.86285E+04 3.42438E+04 1.08587E+05 4.31282E-09 4.42924E-09
 -1       891-1.06973E+02-1.52853E+05-1.86272E+03 2.62333E+04-2.20803E-09 1.32270E-08
 -1       892-1.99713E+02-1.53333E+05-2.00454E+03 3.97939E+04 1.96360E-09-1.21281E-08
 -1       893 1.70801E+01-1.52912E+05-2.84226E+03 2.62398E+04-1.17893E-09-1.52431E-09
 -1       894-1.45069E+03-1.54409E+05-5.88539E+03 3.96481E+04 9.52241E-10-1.17871E-08
 -1       895-1.14718E+03-1.51686E+05-1.03652E+04 2.63796E+04-1.79625E-11-1.50321E-08
 -1       956-3.51072E+05-5.01945E+03-1.24709E+04 2.72441E+04 5.80621E-09 4.66775E-09
 -1       957-3.53524E+05-1.74511E+03-6.40140E+03 3.27631E+04-5.13410E-10 1.27893E-08
 -1       958-3.52189E+05-1.93076E+02-2.88447E+03 2.70911E+04-4.16094E-09-7.10315E-10
 -1       959-3.52376E+05-9.14055E+01-1.47303E+03 3.29379E+04-3.13230E-09 3.47313E-09
 -1       960-3.52295E+05-1.33440E+01-7.18283E+02 2.70756E+04-2.79852E-09-6.84008E-09
 -1       961-3.52298E+05-2.53640E+01-3.80994E+02 3.29560E+04 1.56274E-09-4.68253E-09
 -1       962-3.52319E+05-1.56505E+01-2.18262E+02 2.70731E+04-1.16324E-09 6.51880E-10
 -1       963-3.52297E+05-2.22062E+01-1.75487E+02 3.29592E+04 4.20039E-09-9.01491E-09
 -1       964-3.52324E+05-1.27689E+01-2.13634E+02 2.70724E+04 7.62554E-11 3.38150E-09
 -1       965-3.52309E+05-1.92236E+01-3.69686E+02 3.29587E+04-3.00719E-09 4.13570E-09
 -1       966-3.52310E+05-4.77689E+00-6.94599E+02 2.70737E+04-8.30369E-10-8.17636E-10
 -1       967-3.52395E+05-7.71936E+01-1.42470E+03 3.29463E+04-5.63887E-11 2.75181E-08
 -1       968-3.52215E+05-1.73042E+02-2.78883E+03 2.70848E+04 1.25419E-09 7.41153E-09
 -1       969-3.53516E+05-1.67172E+03-6.19142E+03 3.28169E+04 8.90395E-10 2.27567E-09
 -1       970-3.51143E+05-4.83762E+03-1.20608E+04 2.71984E+04-1.54023E-09 1.94086E-09
 -1       971-3.23706E+05-1.63620E+03-8.89616E+03 1.46632E+04 4.13820E-09 1.18599E-08
 -1       972-3.25854E+05-1.19550E+03-4.84476E+03 2.03412E+04-3.21961E-10 3.79487E-09
 -1       973-3.24697E+05-4.51125E+01-2.16987E+03 1.45455E+04 6.18456E-10-6.46423E-10
 -1       974-3.24832E+05-5.78832E+01-1.12462E+03 2.04726E+04-1.04319E-09 1.44428E-08
 -1       975-3.24775E+05-2.49902E+00-5.62185E+02 1.45338E+04-9.39508E-10 3.51747E-09
 -1       976-3.24773E+05-1.04719E+01-3.24392E+02 2.04874E+04 3.15981E-09 2.95745E-09
 -1       977-3.24790E+05-1.99355E+00-2.35533E+02 1.45308E+04-3.78805E-10 1.49316E-09
 -1       978-3.24778E+05-4.68728E+00-2.75752E+02 2.04917E+04-5.45890E-09 2.11719E-09
 -1       979-3.24790E+05 5.87256E+00-4.43155E+02 1.45294E+04 5.14660E-10 8.40862E-09
 -1       980-3.24811E+05-1.83982E+00-8.55746E+02 2.04926E+04 3.94380E-10 2.55977E-09
 -1       981-3.24763E+05 2.72465E+01-1.65741E+03 1.45299E+04-1.19587E-09-8.98598E-09
 -1       982-3.25038E+05-1.24277E+02-3.42586E+03 2.04863E+04-1.93404E-09 1.90722E-09
 -1       983-3.24554E+05-7.88426E+01-6.65647E+03 1.45358E+04 1.20599E-09-5.03496E-09
 -1       984-3.28240E+05-3.60068E+03-1.49068E+04 2.04042E+04-7.78755E-10 1.26674E-08
 -1       985-3.21541E+05-4.94963E+03-2.73735E+04 1.46084E+04-3.53612E-09 5.66979E-09
 -3
    1PSTEP                        27          14           1          
  100CL  114 6.49811E-01         409                     0   14           1
 -4  DISP        4    1
 -5  D1          1    2    1    0
 -5  D2          1    2    2    0
 -5  D3          1    2    3    0
 -5  ALL         1    2    0    0    1ALL
 -1         1 2.26434E-03 0.00000E+00 0.00000E+00
 -1         2 1.68124E-03-3.26391E-27 2.64698E-23
 -1         3 3.23100E-04-7.35982E-28 0.00000E+00
 -1         5 1.69855E-04-5.89693E-27 1.96455E-24
 -1         8 2.24771E-03-5.03778E-07 0.00000E+00
 -1         9 2.21241E-03-3.42330E-05 0.00000E+00
 -1        10 2.93111E-04-3.51681E-06 6.61744E-24
 -1        12 1.71419E-04 7.82757E-07 6.72084E-25
 -1        15 2.22770E-03-5.50644E-07 2.06795E-25
 -1        16 2.24627E-03-3.55081E-05 0.00000E+00
 -1        17 2.00143E-04-7.91152E-06 0.00000E+00
 -1        18 1.74563E-04 3.04980E-05 0.00000E+00
 -1        19 1.76111E-04 1.55987E-06 0.00000E+00
 -1        20 1.76254E-04-6.75139E-06 0.00000E+00
 -1        21 1.75401E-04-1.87639E-05-3.30872E-24
 -1        24 2.98392E-05-1.18819E-05 0.00000E+00
 -1        25 1.83931E-04 3.07133E-05 0.00000E+00
 -1        26 1.84623E-04 2.16077E-06 0.00000E+00
 -1        27 1.82495E-04-1.02081E-05 0.00000E+00
 -1        28 1.82161E-04-1.93722E-05 0.00000E+00
 -1        32 0.00000E+00 0.00000E+00 0.00000E+00
 -1        33 1.92112E-04 2.89157E-06 0.00000E+00
 -1        34 1.90053E-04-1.02592E-05 0.00000E+00
 -1        35 1.88169E-04-1.97054E-05 0.00000E+00
 -1        51 2.26327E-03-9.71100E-08 0.00000E+00
 -1        52 2.26128E-03-1.78445E-07 0.00000E+00
 -1        53 2.25853E-03-2.57562E-07 0.00000E+00
 -1        54 2.25523E-03-3.36621E-07 0.00000E+00
 -1        55 2.25156E-03-4.17208E-07 1.65436E-24
 -1        56 2.26015E-03 8.60153E-07 0.00000E+00
 -1        57 2.25432E-03 5.68998E-06-5.29396E-23
 -1        58 2.24732E-03 1.35688E-05-1.05879E-22
 -1        59 2.23959E-03 2.32637E-05 5.29396E-23
 -1        60 2.23175E-03 3.32680E-05 0.00000E+00
 -1        61 2.22438E-03 4.20409E-05 0.00000E+00
 -1        62 2.21799E-03 4.82428E-05 0.00000E+00
 -1        63 2.21302E-03 5.07394E-05-5.29396E-23
 -1        64 2.20964E-03 4.90001E-05 0.00000E+00
 -1        65 2.20791E-03 4.28387E-05 0.00000E+00
 -1        66 2.20761E-03 3.27937E-05 0.00000E+00
 -1        67 2.20841E-03 1.97236E-05 0.00000E+00
 -1        68 2.20982E-03 4.98449E-06-1.05879E-22
 -1        69 2.21131E-03-9.92156E-06 0.00000E+00
 -1        70 2.21230E-03-2.34789E-05 0.00000E+00
 -1        86 1.71386E-03-1.76085E-06 0.00000E+00
 -1        87 1.81003E-03-7.46669E-06 1.32349E-23
 -1        88 1.93972E-03-1.66306E-05 2.64698E-23
 -1        89 2.07148E-03-2.60572E-05 0.00000E+00
 -1        90 2.17279E-03-3.22329E-05 2.64698E-23
 -1       121 3.22258E-04-5.70482E-07 0.00000E+00
 -1       122 3.19734E-04-1.14369E-06 0.00000E+00
 -1       123 3.15538E-04-1.72230E-06 1.32349E-23
 -1       124 3.09686E-04-2.30900E-06-6.61744E-24
 -1       125 3.02200E-04-2.90610E-06 0.00000E+00
 -1       191 1.69898E-04 1.30507E-07-1.86116E-24
 -1       192 1.70028E-04 2.61004E-07 1.60266E-24
 -1       193 1.70246E-04 3.91488E-07 2.17135E-24
 -1       194 1.70550E-04 5.21948E-07 1.55096E-24
 -1       195 1.70941E-04 6.52374E-07 1.24077E-24
 -1       251 2.24700E-03-1.32120E-05 0.00000E+00
 -1       252 2.24540E-03-5.76605E-05 6.61744E-24
 -1       253 2.24259E-03-1.25372E-04-1.32349E-23
 -1       254 2.23875E-03-2.07281E-04 0.00000E+00
 -1       255 2.23484E-03-2.90156E-04 1.32349E-23
 -1       256 2.23183E-03-3.60743E-04-6.61744E-24
 -1       257 2.23005E-03-4.09409E-04 1.32349E-23
 -1       258 2.22925E-03-4.27066E-04-6.61744E-24
 -1       259 2.22851E-03-4.13318E-04 0.00000E+00
 -1       260 2.22690E-03-3.68607E-04 6.61744E-24
 -1       261 2.22416E-03-3.02059E-04-1.32349E-23
 -1       262 2.22057E-03-2.23343E-04 0.00000E+00
 -1       263 2.21706E-03-1.45715E-04-2.64698E-23
 -1       264 2.21452E-03-8.24088E-05-1.32349E-23
 -1       265 2.21310E-03-4.24365E-05-2.64698E-23
 -1       266 2.24437E-03-5.18997E-07 3.30872E-24
 -1       267 2.24104E-03-5.25906E-07 0.00000E+00
 -1       268 2.23770E-03-5.33340E-07-8.27181E-25
 -1       269 2.23437E-03-5.39215E-07 0.00000E+00
 -1       270 2.23103E-03-5.45054E-07 0.00000E+00
 -1       271 2.24573E-03 2.44747E-06-1.32349E-23
 -1       272 2.24382E-03 5.11087E-06 0.00000E+00
 -1       273 2.24207E-03 7.38938E-06 2.64698E-23
 -1       274 2.24049E-03 9.17830E-06 1.32349E-23
 -1       275 2.23913E-03 1.03811E-05-2.64698E-23
 -1       276 2.23803E-03 1.09055E-05-1.32349E-23
 -1       277 2.23722E-03 1.06667E-05 0.00000E+00
 -1       278 2.23672E-03 9.58714E-06 0.00000E+00
 -1       279 2.23656E-03 7.59806E-06 2.64698E-23
 -1       280 2.23676E-03 4.63964E-06 0.00000E+00
 -1       281 2.23734E-03 6.62165E-07-2.64698E-23
 -1       282 2.23831E-03-4.37407E-06 0.00000E+00
 -1       283 2.23969E-03-1.04977E-05 0.00000E+00
 -1       284 2.24147E-03-1.77259E-05 0.00000E+00
 -1       285 2.24366E-03-2.60660E-05 0.00000E+00
 -1       301 2.21854E-03-3.44702E-05 0.00000E+00
 -1       302 2.22348E-03-3.46730E-05 6.61744E-24
 -1       303 2.22796E-03-3.48711E-05 0.00000E+00
 -1       304 2.23275E-03-3.50695E-05 0.00000E+00
 -1       305 2.23860E-03-3.52752E-05 0.00000E+00
 -1       306 2.24689E-03-1.70580E-04 1.05879E-22
 -1       307 2.31149E-03-5.46906E-04 0.00000E+00
 -1       308 2.36670E-03-1.10317E-03-1.05879E-22
 -1       309 2.40371E-03-1.75393E-03 0.00000E+00
 -1       310 2.44476E-03-2.38482E-03-1.05879E-22
 -1       311 2.50656E-03-2.88325E-03 0.00000E+00
 -1       312 2.56613E-03-3.17401E-03 0.00000E+00
 -1       313 2.57360E-03-3.21601E-03 0.00000E+00
 -1       314 2.46682E-03-3.01592E-03-1.05879E-22
 -1       315 2.20781E-03-2.62489E-03 5.29396E-23
 -1       316 1.80963E-03-2.11200E-03 1.05879E-22
 -1       317 1.32601E-03-1.54364E-03 0.00000E+00
 -1       318 8.54719E-04-9.83009E-04-1.05879E-22
 -1       319 4.89910E-04-4.95391E-04 0.00000E+00
 -1       320 2.72305E-04-1.48423E-04 1.05879E-22
 -1       336 2.82243E-04-4.18968E-06 0.00000E+00
 -1       337 2.69434E-04-4.88519E-06-6.61744E-24
 -1       338 2.54743E-04-5.60510E-06 0.00000E+00
 -1       339 2.38244E-04-6.34986E-06-6.61744E-24
 -1       340 2.20014E-04-7.12359E-06 0.00000E+00
 -1       406 1.71984E-04 9.13081E-07-2.89513E-24
 -1       407 1.72635E-04 1.04331E-06-5.16988E-26
 -1       408 1.73374E-04 1.17341E-06-2.84343E-25
 -1       409 1.74200E-04 1.30319E-06 7.23783E-25
 -1       410 1.75113E-04 1.43242E-06-1.65436E-24
 -1       521 2.28155E-03-1.80752E-04-1.05879E-22
 -1       522 2.34515E-03-5.76102E-04 0.00000E+00
 -1       523 2.39547E-03-1.15855E-03 1.05879E-22
 -1       524 2.42503E-03-1.83657E-03-5.29396E-23
 -1       525 2.45950E-03-2.49300E-03 1.05879E-22
 -1       526 2.51825E-03-3.01271E-03 5.29396E-23
 -1       527 2.57752E-03-3.31462E-03 0.00000E+00
 -1       528 2.58353E-03-3.35652E-03-5.29396E-23
 -1       529 2.46762E-03-3.14461E-03-1.05879E-22
 -1       530 2.18941E-03-2.73640E-03 5.29396E-23
 -1       531 1.76220E-03-2.20429E-03 0.00000E+00
 -1       532 1.24490E-03-1.61771E-03 5.29396E-23
 -1       533 7.40092E-04-1.03839E-03-1.05879E-22
 -1       534 3.46622E-04-5.30280E-04 0.00000E+00
 -1       535 1.10490E-04-1.64867E-04-1.05879E-22
 -1       536 1.99461E-04 2.48510E-05 0.00000E+00
 -1       537 1.97749E-04 8.16873E-05-3.30872E-24
 -1       538 1.95109E-04 1.53849E-04-3.30872E-24
 -1       539 1.91999E-04 2.32509E-04 0.00000E+00
 -1       540 1.89198E-04 3.06842E-04 0.00000E+00
 -1       541 1.87372E-04 3.66043E-04 0.00000E+00
 -1       542 1.86522E-04 4.03714E-04 0.00000E+00
 -1       543 1.86308E-04 4.13592E-04 0.00000E+00
 -1       544 1.86004E-04 3.96427E-04 0.00000E+00
 -1       545 1.84941E-04 3.53168E-04 0.00000E+00
 -1       546 1.82977E-04 2.91515E-04 0.00000E+00
 -1       547 1.80331E-04 2.19282E-04 0.00000E+00
 -1       548 1.77711E-04 1.47453E-04 3.30872E-24
 -1       549 1.75819E-04 8.70093E-05 0.00000E+00
 -1       550 1.74830E-04 4.55358E-05-1.65436E-24
 -1       551 1.76467E-04-8.45257E-06 0.00000E+00
 -1       552 1.49668E-04-9.06557E-06 0.00000E+00
 -1       553 1.20666E-04-9.73457E-06 4.96308E-24
 -1       554 9.04021E-05-1.04403E-05 3.30872E-24
 -1       555 5.98150E-05-1.11574E-05 0.00000E+00
 -1       556 1.93009E-04 1.03544E-05 0.00000E+00
 -1       557 1.87258E-04 2.51353E-05 0.00000E+00
 -1       558 1.82761E-04 3.67048E-05 5.29396E-23
 -1       559 1.79394E-04 4.53586E-05 0.00000E+00
 -1       560 1.77032E-04 5.13925E-05 0.00000E+00
 -1       561 1.75555E-04 5.51048E-05 0.00000E+00
 -1       562 1.74845E-04 5.67948E-05 0.00000E+00
 -1       563 1.74782E-04 5.67627E-05 1.32349E-23
 -1       564 1.75253E-04 5.53095E-05 0.00000E+00
 -1       565 1.76142E-04 5.27366E-05-6.61744E-24
 -1       566 1.77336E-04 4.93463E-05 0.00000E+00
 -1       567 1.78721E-04 4.54408E-05 1.65436E-24
 -1       568 1.80185E-04 4.13227E-05-8.27181E-25
 -1       569 1.81616E-04 3.72944E-05 0.00000E+00
 -1       570 1.82901E-04 3.36586E-05 0.00000E+00
 -1       571 1.74657E-04 2.86220E-05 0.00000E+00
 -1       572 1.74753E-04 2.66831E-05-1.65436E-24
 -1       573 1.74850E-04 2.46962E-05 3.30872E-24
 -1       574 1.74946E-04 2.26767E-05 1.65436E-24
 -1       575 1.75043E-04 2.06401E-05-3.30872E-24
 -1       576 1.75140E-04 1.86020E-05 0.00000E+00
 -1       577 1.75236E-04 1.65779E-05 0.00000E+00
 -1       578 1.75333E-04 1.45834E-05 0.00000E+00
 -1       579 1.75430E-04 1.26341E-05 0.00000E+00
 -1       580 1.75527E-04 1.07456E-05 0.00000E+00
 -1       581 1.75624E-04 8.93349E-06 0.00000E+00
 -1       582 1.75721E-04 7.21332E-06 0.00000E+00
 -1       583 1.75819E-04 5.60067E-06 0.00000E+00
 -1       584 1.75916E-04 4.11093E-06 0.00000E+00
 -1       585 1.76014E-04 2.75934E-06 0.00000E+00
 -1       586 1.76081E-04 3.05359E-05 1.65436E-24
 -1       587 1.77561E-04 3.05733E-05-4.13590E-25
 -1       588 1.79043E-04 3.06103E-05 0.00000E+00
 -1       589 1.80571E-04 3.06467E-05 0.00000E+00
 -1       590 1.82186E-04 3.06818E-05 0.00000E+00
 -1       591 1.75203E-04 2.87093E-05 1.03398E-25
 -1       592 1.75846E-04 2.68995E-05 2.06795E-25
 -1       593 1.76495E-04 2.50747E-05 0.00000E+00
 -1       594 1.77147E-04 2.32394E-05 4.13590E-25
 -1       595 1.77801E-04 2.13988E-05 0.00000E+00
 -1       596 1.78455E-04 1.95574E-05 4.13590E-25
 -1       597 1.79107E-04 1.77201E-05-8.27181E-25
 -1       598 1.79756E-04 1.58918E-05 4.13590E-25
 -1       599 1.80401E-04 1.40771E-05-8.27181E-25
 -1       600 1.81038E-04 1.22809E-05 0.00000E+00
 -1       601 1.81666E-04 1.05079E-05 8.27181E-25
 -1       602 1.82285E-04 8.76299E-06-4.13590E-25
 -1       603 1.82891E-04 7.05088E-06-4.13590E-25
 -1       604 1.83483E-04 5.37647E-06-1.93870E-25
 -1       605 1.84060E-04 3.74447E-06 0.00000E+00
 -1       606 1.76125E-04 5.85089E-07 3.30872E-24
 -1       607 1.76135E-04-3.02200E-07 0.00000E+00
 -1       608 1.76144E-04-1.10713E-06 0.00000E+00
 -1       609 1.76152E-04-1.83549E-06-1.65436E-24
 -1       610 1.76161E-04-2.49313E-06-3.30872E-24
 -1       611 1.76170E-04-3.08595E-06 0.00000E+00
 -1       612 1.76178E-04-3.61986E-06 0.00000E+00
 -1       613 1.76187E-04-4.10080E-06 0.00000E+00
 -1       614 1.76195E-04-4.53466E-06 1.65436E-24
 -1       615 1.76204E-04-4.92739E-06 0.00000E+00
 -1       616 1.76212E-04-5.28490E-06 0.00000E+00
 -1       617 1.76221E-04-5.61311E-06 0.00000E+00
 -1       618 1.76230E-04-5.91794E-06 8.27181E-25
 -1       619 1.76238E-04-6.20532E-06-2.06795E-25
 -1       620 1.76246E-04-6.48117E-06 0.00000E+00
 -1       621 1.77270E-04 1.66050E-06-1.65436E-24
 -1       622 1.78573E-04 1.76140E-06-8.27181E-25
 -1       623 1.79990E-04 1.86212E-06-3.30872E-24
 -1       624 1.81491E-04 1.96255E-06-8.27181E-25
 -1       625 1.83046E-04 2.06272E-06-3.30872E-24
 -1       626 1.76586E-04 6.20073E-07-3.30872E-24
 -1       627 1.77037E-04-2.54416E-07-3.30872E-24
 -1       628 1.77467E-04-1.07145E-06 0.00000E+00
 -1       629 1.77878E-04-1.83923E-06-1.65436E-24
 -1       630 1.78274E-04-2.56597E-06-3.30872E-24
 -1       631 1.78658E-04-3.25991E-06 0.00000E+00
 -1       632 1.79033E-04-3.92928E-06 0.00000E+00
 -1       633 1.79401E-04-4.58233E-06-1.65436E-24
 -1       634 1.79767E-04-5.22729E-06 0.00000E+00
 -1       635 1.80132E-04-5.87240E-06-1.65436E-24
 -1       636 1.80501E-04-6.52591E-06 0.00000E+00
 -1       637 1.80876E-04-7.19606E-06-1.65436E-24
 -1       638 1.81260E-04-7.89108E-06-1.65436E-24
 -1       639 1.81656E-04-8.61923E-06 0.00000E+00
 -1       640 1.82067E-04-9.38879E-06 1.65436E-24
 -1       656 1.76756E-04-7.31329E-06 0.00000E+00
 -1       657 1.77673E-04-7.89799E-06 0.00000E+00
 -1       658 1.78866E-04-8.48128E-06 0.00000E+00
 -1       659 1.80189E-04-9.06423E-06 0.00000E+00
 -1       660 1.81459E-04-9.64893E-06 0.00000E+00
 -1       661 1.76443E-04-7.06485E-06 8.27181E-25
 -1       662 1.76667E-04-7.46649E-06 0.00000E+00
 -1       663 1.76923E-04-7.95143E-06-1.65436E-24
 -1       664 1.77208E-04-8.51356E-06 0.00000E+00
 -1       665 1.77520E-04-9.14739E-06 1.65436E-24
 -1       666 1.77857E-04-9.84735E-06 0.00000E+00
 -1       667 1.78216E-04-1.06082E-05-1.65436E-24
 -1       668 1.78597E-04-1.14245E-05 0.00000E+00
 -1       669 1.78996E-04-1.22915E-05 0.00000E+00
 -1       670 1.79412E-04-1.32040E-05 0.00000E+00
 -1       671 1.79844E-04-1.41572E-05 0.00000E+00
 -1       672 1.80289E-04-1.51463E-05 0.00000E+00
 -1       673 1.80745E-04-1.61668E-05 0.00000E+00
 -1       674 1.81211E-04-1.72141E-05-8.27181E-25
 -1       675 1.81685E-04-1.82835E-05-4.13590E-25
 -1       676 1.76531E-04-1.88659E-05 0.00000E+00
 -1       677 1.77661E-04-1.89678E-05-1.65436E-24
 -1       678 1.78790E-04-1.90697E-05-3.30872E-24
 -1       679 1.79916E-04-1.91713E-05 0.00000E+00
 -1       680 1.81040E-04-1.92728E-05-1.65436E-24
 -1       771 1.86095E-05 1.31404E-05 0.00000E+00
 -1       772 9.14793E-06 3.36928E-05 0.00000E+00
 -1       773 1.36984E-06 4.99925E-05 5.29396E-23
 -1       774-4.84011E-06 6.22828E-05 0.00000E+00
 -1       775-9.59498E-06 7.08161E-05-5.29396E-23
 -1       776-1.30124E-05 7.58603E-05 2.64698E-23
 -1       777-1.52097E-05 7.76923E-05-1.05879E-22
 -1       778-1.63072E-05 7.66017E-05 7.94093E-23
 -1       779-1.64241E-05 7.28860E-05 0.00000E+00
 -1       780-1.56821E-05 6.68528E-05 2.64698E-23
 -1       781-1.42018E-05 5.88160E-05 5.29396E-23
 -1       782-1.21055E-05 4.90976E-05 0.00000E+00
 -1       783-9.51463E-06 3.80237E-05 5.29396E-23
 -1       784-6.55193E-06 2.59261E-05 0.00000E+00
 -1       785-3.33924E-06 1.31393E-05 0.00000E+00
 -1       786 1.83970E-04 2.87048E-05 0.00000E+00
 -1       787 1.84012E-04 2.67457E-05 4.13590E-25
 -1       788 1.84055E-04 2.48276E-05 8.27181E-25
 -1       789 1.84098E-04 2.29425E-05 0.00000E+00
 -1       790 1.84141E-04 2.10857E-05-1.65436E-24
 -1       791 1.84185E-04 1.92526E-05 0.00000E+00
 -1       792 1.84228E-04 1.74409E-05 0.00000E+00
 -1       793 1.84272E-04 1.56486E-05 0.00000E+00
 -1       794 1.84316E-04 1.38755E-05 1.65436E-24
 -1       795 1.84359E-04 1.21213E-05-8.27181E-25
 -1       796 1.84403E-04 1.03881E-05-1.65436E-24
 -1       797 1.84447E-04 8.67753E-06-8.27181E-25
 -1       798 1.84491E-04 6.99396E-06-1.65436E-24
 -1       799 1.84535E-04 5.34165E-06 0.00000E+00
 -1       800 1.84579E-04 3.72806E-06 0.00000E+00
 -1       801 1.41507E-04 2.75435E-05 0.00000E+00
 -1       802 1.30867E-05 1.73010E-05 0.00000E+00
 -1       803-9.71926E-05 8.81163E-06-5.29396E-23
 -1       804-8.71911E-05 6.10110E-06 0.00000E+00
 -1       805-2.89283E-05 2.45862E-06 0.00000E+00
 -1       806 1.84572E-04 2.86384E-05-3.30872E-24
 -1       807 1.85200E-04 2.65898E-05 0.00000E+00
 -1       808 1.85815E-04 2.45723E-05 3.30872E-24
 -1       809 1.86416E-04 2.25898E-05 0.00000E+00
 -1       810 1.87004E-04 2.06462E-05 0.00000E+00
 -1       811 1.87575E-04 1.87451E-05 0.00000E+00
 -1       812 1.88129E-04 1.68904E-05 0.00000E+00
 -1       813 1.88664E-04 1.50857E-05 0.00000E+00
 -1       814 1.89179E-04 1.33346E-05 3.30872E-24
 -1       815 1.89673E-04 1.16410E-05 0.00000E+00
 -1       816 1.90144E-04 1.00086E-05 3.30872E-24
 -1       817 1.90590E-04 8.44091E-06 8.27181E-25
 -1       818 1.91012E-04 6.94172E-06-1.65436E-24
 -1       819 1.91406E-04 5.51469E-06-8.27181E-25
 -1       820 1.91773E-04 4.16345E-06 0.00000E+00
 -1       821 1.84498E-04 2.19942E-07 1.65436E-24
 -1       822 1.84363E-04-2.51008E-06 0.00000E+00
 -1       823 1.84227E-04-5.71295E-06 3.30872E-24
 -1       824 1.84089E-04-9.06944E-06 1.65436E-24
 -1       825 1.83952E-04-1.22197E-05 0.00000E+00
 -1       826 1.83816E-04-1.48051E-05-1.65436E-24
 -1       827 1.83682E-04-1.66178E-05 0.00000E+00
 -1       828 1.83549E-04-1.74546E-05 1.65436E-24
 -1       829 1.83416E-04-1.73729E-05 0.00000E+00
 -1       830 1.83283E-04-1.64354E-05 0.00000E+00
 -1       831 1.83149E-04-1.49335E-05 0.00000E+00
 -1       832 1.83015E-04-1.31617E-05 1.65436E-24
 -1       833 1.82881E-04-1.14869E-05 0.00000E+00
 -1       834 1.82750E-04-1.02751E-05 0.00000E+00
 -1       835 1.82618E-04-9.76932E-06 8.27181E-25
 -1       836 1.86077E-04 2.28202E-06 0.00000E+00
 -1       837 1.87406E-04 2.40628E-06 0.00000E+00
 -1       838 1.88643E-04 2.53046E-06-3.30872E-24
 -1       839 1.89818E-04 2.65394E-06 0.00000E+00
 -1       840 1.90964E-04 2.77726E-06 0.00000E+00
 -1       856 1.82477E-04-1.10493E-05 8.27181E-25
 -1       857 1.82457E-04-1.17575E-05 3.23117E-27
 -1       858 1.82437E-04-1.23533E-05-4.13590E-25
 -1       859 1.82416E-04-1.28575E-05-2.06795E-25
 -1       860 1.82395E-04-1.32909E-05 0.00000E+00
 -1       861 1.82374E-04-1.36745E-05-4.13590E-25
 -1       862 1.82353E-04-1.40291E-05-8.27181E-25
 -1       863 1.82332E-04-1.43758E-05-4.13590E-25
 -1       864 1.82311E-04-1.47355E-05 0.00000E+00
 -1       865 1.82290E-04-1.51292E-05 4.13590E-25
 -1       866 1.82269E-04-1.55777E-05 0.00000E+00
 -1       867 1.82248E-04-1.61020E-05 4.13590E-25
 -1       868 1.82227E-04-1.67229E-05 0.00000E+00
 -1       869 1.82205E-04-1.74611E-05-4.13590E-25
 -1       870 1.82184E-04-1.83374E-05 0.00000E+00
 -1       871 1.83616E-04-1.02123E-05-8.27181E-25
 -1       872 1.84880E-04-1.02199E-05 0.00000E+00
 -1       873 1.86222E-04-1.02280E-05 0.00000E+00
 -1       874 1.87575E-04-1.02369E-05-1.55096E-25
 -1       875 1.88874E-04-1.02464E-05 1.65436E-24
 -1       876 1.82934E-04-1.10352E-05-3.30872E-24
 -1       877 1.83352E-04-1.17970E-05 1.65436E-24
 -1       878 1.83749E-04-1.25011E-05 0.00000E+00
 -1       879 1.84127E-04-1.31549E-05-1.65436E-24
 -1       880 1.84489E-04-1.37657E-05 0.00000E+00
 -1       881 1.84838E-04-1.43405E-05 0.00000E+00
 -1       882 1.85176E-04-1.48868E-05 3.30872E-24
 -1       883 1.85506E-04-1.54116E-05 0.00000E+00
 -1       884 1.85830E-04-1.59222E-05-3.30872E-24
 -1       885 1.86152E-04-1.64257E-05 0.00000E+00
 -1       886 1.86474E-04-1.69295E-05 3.30872E-24
 -1       887 1.86799E-04-1.74405E-05 0.00000E+00
 -1       888 1.87129E-04-1.79662E-05-3.30872E-24
 -1       889 1.87466E-04-1.85138E-05-1.65436E-24
 -1       890 1.87814E-04-1.90905E-05 0.00000E+00
 -1       891 1.83302E-04-1.94281E-05-1.65436E-24
 -1       892 1.84421E-04-1.94843E-05 8.27181E-25
 -1       893 1.85491E-04-1.95403E-05 0.00000E+00
 -1       894 1.86489E-04-1.95961E-05-4.13590E-25
 -1       895 1.87390E-04-1.96516E-05-4.13590E-25
 -1       956 1.91985E-04 1.78768E-06 1.65436E-24
 -1       957 1.91856E-04 7.71637E-07-8.27181E-25
 -1       958 1.91727E-04-1.66802E-07 0.00000E+00
 -1       959 1.91598E-04-1.03847E-06-1.65436E-24
 -1       960 1.91469E-04-1.85422E-06 0.00000E+00
 -1       961 1.91340E-04-2.62497E-06 0.00000E+00
 -1       962 1.91211E-04-3.36163E-06 0.00000E+00
 -1       963 1.91082E-04-4.07512E-06 0.00000E+00
 -1       964 1.90953E-04-4.77637E-06-3.30872E-24
 -1       965 1.90824E-04-5.47630E-06 0.00000E+00
 -1       966 1.90695E-04-6.18586E-06 3.30872E-24
 -1       967 1.90566E-04-6.91595E-06 1.65436E-24
 -1       968 1.90437E-04-7.67750E-06 0.00000E+00
 -1       969 1.90308E-04-8.48140E-06 1.65436E-24
 -1       970 1.90180E-04-9.33850E-06 3.30872E-24
 -1       971 1.89936E-04-1.11772E-05 3.30872E-24
 -1       972 1.89818E-04-1.20018E-05 0.00000E+00
 -1       973 1.89700E-04-1.27433E-05 0.00000E+00
 -1       974 1.89581E-04-1.34123E-05 0.00000E+00
 -1       975 1.89463E-04-1.40197E-05 0.00000E+00
 -1       976 1.89345E-04-1.45761E-05 0.00000E+00
 -1       977 1.89226E-04-1.50923E-05 0.00000E+00
 -1       978 1.89108E-04-1.55791E-05 0.00000E+00
 -1       979 1.88990E-04-1.60472E-05 0.00000E+00
 -1       980 1.88871E-04-1.65074E-05 0.00000E+00
 -1       981 1.88753E-04-1.69704E-05 0.00000E+00
 -1       982 1.88635E-04-1.74472E-05 0.00000E+00
 -1       983 1.88517E-04-1.79483E-05 0.00000E+00
 -1       984 1.88399E-04-1.84846E-05 0.00000E+00
 -1       985 1.88282E-04-1.90668E-05 0.00000E+00
 -3
    1PSTEP                        28          14           1          
  100CL  114 6.49811E-01         409                     0   14           1
 -4  STRESS      6    1
 -5  SXX         1    4    1    1
 -5  SYY         1    4    2    2
 -5  SZZ         1    4    3    3
 -5  SXY         1    4    1    2
 -5  SYZ         1    4    2    3
 -5  SZX         1    4    3    1
 -1         1-4.57908E+06-1.67631E+06-1.00081E+06-1.63109E+06-2.47383E-10-1.36846E-07
 -1         2 1.91983E+05 8.98618E+05 7.69643E+05 1.05935E+06 1.00845E-08 2.47757E-07
 -1         3-1.30751E+03-1.62130E+06 4.09301E+02-2.15757E+03-4.09685E-10 2.83871E-08
 -1         5-5.42650E+01 3.73640E+05 9.64913E+00-1.06702E+00-3.68764E-10-2.06019E-08
 -1         8-6.53048E+05-2.17270E+05-5.93681E+04-3.80615E+05 1.22782E-10-2.13913E-08
 -1         9 8.86018E+06-1.05133E+05 1.57952E+06-9.60629E+05 2.02563E-08 8.21892E-08
 -1        10-2.18408E+03-1.68952E+06-3.93045E+03-1.45816E+04-1.33587E-08-5.93745E-08
 -1        12-5.04247E+01 3.73661E+05 3.15938E+02-7.37238E+00-2.83620E-10-1.53523E-08
 -1        15 1.22754E+03 6.74597E+02 3.96799E+03 1.77039E+00-2.94932E-10 8.98949E-08
 -1        16 1.89215E+07-1.59888E+05 2.64628E+06-1.56615E+06 1.44355E-08 1.11526E-07
 -1        17 6.82100E+06 4.93181E+06 1.83871E+06 4.81269E+06 2.23226E-08 3.10596E-08
 -1        18 1.20537E+05 2.76069E+04-1.71141E+02-1.14172E+05 1.09512E-08 7.42011E-09
 -1        19 1.18658E+05 1.37190E+05-9.20971E+02 2.15525E+04 1.45847E-09-3.13376E-09
 -1        20-7.72024E+04-5.56799E+05-1.24778E+05 2.56979E+04-1.41730E-09 8.91547E-09
 -1        21-4.51713E+01-2.90139E+05-9.08344E+02 2.24979E+02 1.27669E-08 1.41796E-08
 -1        24 1.12053E+07 9.57307E+06 3.15093E+06 8.90152E+06-1.55531E-07-4.95347E-08
 -1        25 8.70932E+04 1.28146E+05 6.43830E+04-5.63546E+05-1.93577E-09 5.58994E-09
 -1        26-5.32723E+04 8.91929E+04-2.38955E+04 4.59518E+02 1.45155E-10-4.66217E-09
 -1        27-7.49314E+04-3.01234E+05-1.10448E+05 6.70740E+04 3.86338E-09-6.31492E-10
 -1        28 2.18746E+04-8.33539E+04 1.65511E+04 2.06652E+04-3.08430E-09 5.36460E-11
 -1        32-1.64385E+06-3.04299E+06-1.79862E+05 3.10170E+05-3.85771E-08-8.48365E-09
 -1        33-1.73773E+05 8.99020E+04 3.14113E+04-3.79178E+04-2.72469E-09 7.45513E-09
 -1        34-2.17886E+05-2.41079E+04 6.59944E+02 7.31168E+04-4.44495E-09 3.09986E-10
 -1        35-2.25131E+04-3.30615E+04-1.31556E+03 5.04864E+04-2.97477E-09-2.56478E-09
 -1        51 5.10716E+04-2.06916E+05 1.12526E+05-6.16475E+05-2.91038E-10 8.49177E-08
 -1        52 1.84265E+04-1.88522E+05 6.06026E+04-7.21605E+05-5.52973E-10-4.85306E-09
 -1        53 4.92948E+03-2.04455E+05 3.38314E+04-6.14207E+05 2.65572E-10-1.07073E-07
 -1        54 1.10426E+04-2.00803E+05 3.24008E+04-7.23939E+05-4.36557E-10-1.15364E-07
 -1        55 2.29640E+04-2.10161E+05 4.46885E+04-6.13917E+05 1.67347E-10-5.65451E-08
 -1        56-8.60096E+06-9.96145E+05-7.44512E+05-3.38986E+06 3.84171E-09-6.70552E-08
 -1        57-9.13208E+06-1.42086E+06-4.99484E+05-3.08047E+06 9.72068E-09 4.42960E-08
 -1        58-8.69222E+06-1.28381E+06-1.74514E+05-3.40218E+06-1.73422E-08 1.60391E-07
 -1        59-9.02744E+06-1.08372E+06-1.03638E+05-3.07417E+06-1.02918E-08 3.91083E-10
 -1        60-8.70758E+06-1.32211E+06-4.05275E+04-3.40200E+06-6.50550E-09-3.23562E-08
 -1        61-8.95944E+06-1.08154E+06-2.18452E+04-3.11808E+06-1.87301E-08 1.87791E-07
 -1        62-8.75608E+06-1.28731E+06-1.29276E+04-3.35582E+06-8.02174E-10 9.94314E-08
 -1        63-8.83550E+06-1.18672E+06-6.47957E+03-3.23628E+06-3.19415E-09-1.16482E-07
 -1        64-8.82535E+06-1.22098E+06-1.30513E+04-3.27934E+06-1.78661E-08-6.48033E-08
 -1        65-8.71322E+06-1.31861E+06-1.84783E+04-3.38509E+06-4.28372E-09 8.23925E-08
 -1        66-8.87997E+06-1.15449E+06-3.73274E+04-3.20824E+06 6.50107E-09 1.36439E-07
 -1        67-8.66148E+06-1.43878E+06-9.17932E+04-3.48732E+06-4.23206E-08 1.94664E-07
 -1        68-8.88430E+06-1.09720E+06-1.54665E+05-3.18174E+06-1.18198E-08 5.13828E-08
 -1        69-8.80670E+06-1.69497E+06-4.44743E+05-3.45023E+06-2.41034E-08-1.02445E-07
 -1        70-8.73790E+06-9.04956E+05-6.60927E+05-3.24383E+06-2.33485E-08-9.93314E-08
 -1        86-1.94633E+05-4.84762E+06-4.22646E+05-5.18959E+05-1.07265E-07 4.49108E-08
 -1        87 2.59978E+05-1.39775E+06 3.43946E+05 1.36837E+06-1.78794E-07 1.24852E-07
 -1        88-2.68877E+04-2.80514E+06 1.64525E+04-8.43120E+05-1.60991E-07 1.45429E-07
 -1        89 3.47556E+05-1.50027E+06 3.14771E+05 1.41168E+06-2.18923E-07-9.10563E-08
 -1        90-2.67097E+05-4.76045E+06-4.87613E+05-5.64030E+05-5.75928E-08 5.02478E-08
 -1       121-1.79835E+03-1.62565E+06-4.20602E+02 1.07081E+03 1.39332E-09-3.28509E-09
 -1       122-1.12274E+03-1.62135E+06 7.93449E+02-4.31548E+03-4.93164E-09 1.61817E-08
 -1       123-1.82738E+03-1.62579E+06 4.30438E+02 3.19727E+03 3.99245E-09 2.55714E-08
 -1       124 5.56315E+02-1.62083E+06 3.09234E+03-9.00969E+03-9.76706E-09 2.10675E-08
 -1       125-2.68616E+03-1.62671E+06 3.81069E+03 5.72795E+03 6.09907E-09-2.39379E-08
 -1       191-5.72672E+01 3.73662E+05 9.14026E+00 5.51214E-01-5.01949E-10-3.62361E-08
 -1       192-5.51834E+01 3.73641E+05 2.05457E+01-3.51958E+00-6.16218E-10-4.52465E-08
 -1       193-5.96916E+01 3.73662E+05 3.58815E+01 3.07736E+00-9.19060E-10-2.88201E-08
 -1       194-5.81308E+01 3.73644E+05 7.79951E+01-8.02109E+00-6.98265E-10-4.51982E-08
 -1       195-6.43463E+01 3.73659E+05 1.50224E+02 5.17578E+00-1.30747E-09-1.33114E-08
 -1       251-2.17576E+06-2.66114E+04-2.11452E+05 1.12094E+05 8.84029E-10 1.29439E-08
 -1       252-1.19095E+06 3.01334E+04 4.90222E+04-3.81019E+05-7.89350E-09 4.93792E-08
 -1       253-1.77645E+06-1.48409E+04-4.25716E+04 2.76970E+05 1.97970E-08 1.69084E-08
 -1       254-1.66176E+06 5.75583E+04 7.78976E+03-5.47718E+05-1.39467E-09-1.59992E-07
 -1       255-1.75216E+06-1.50802E+04-1.66271E+04 2.82622E+05-9.75524E-09 5.31086E-08
 -1       256-1.23544E+06 4.85836E+04 9.71695E+04-4.04876E+05-1.64064E-08 2.16385E-08
 -1       257-2.16082E+06-4.04128E+04-1.00108E+05 1.30558E+05 7.42148E-09-9.52718E-08
 -1       258-7.82521E+05 3.63083E+04 1.83288E+05 2.81419E+03 3.29692E-09-1.48319E-07
 -1       259-2.16040E+06-3.94916E+04-9.79273E+04-1.23095E+05 3.13703E-08-2.27391E-07
 -1       260-1.23461E+06 4.70532E+04 1.01847E+05 4.11448E+05-3.53248E-09-4.59186E-08
 -1       261-1.75372E+06-1.42054E+04-6.69321E+03-2.75817E+05-3.93075E-08-4.04682E-08
 -1       262-1.65141E+06 6.43860E+04 3.17076E+04 5.54349E+05 2.12834E-08-6.35864E-08
 -1       263-1.78520E+06-2.25176E+04-4.63246E+03-2.69239E+05-2.09357E-08 3.64435E-08
 -1       264-1.15070E+06 1.00254E+05 1.54054E+05 3.85812E+05-9.97688E-08 1.60810E-07
 -1       265-2.20684E+06-8.90983E+04-6.33586E+04-1.03797E+05-4.22697E-08 9.09313E-08
 -1       266-2.22226E+04-1.03916E+04 5.21389E+04-3.78800E+01 1.16415E-10-5.71570E-08
 -1       267 2.57620E+04 1.21111E+04 3.68518E+04 4.37070E+01 1.19599E-10-1.38830E-07
 -1       268-3.45464E+03-1.71530E+03 1.36976E+04-5.56897E+00 8.54925E-11-1.10688E-07
 -1       269 4.07891E+03 2.05282E+03 8.90326E+03 6.48708E+00-9.73159E-11-1.80842E-07
 -1       270-6.12250E+02-3.37296E+02 4.29773E+03-8.80340E-01 1.62231E-10 9.42911E-09
 -1       271-1.95639E+06-2.36585E+05-1.44257E+05-7.49673E+05 1.04628E-08-3.24289E-08
 -1       272-2.05014E+06-3.00583E+05-9.28520E+04-7.01514E+05-1.99952E-09-2.42946E-07
 -1       273-1.98307E+06-2.73167E+05-3.40808E+04-7.43750E+05-2.37657E-08-8.46994E-08
 -1       274-2.01805E+06-2.56343E+05-1.90788E+04-7.10736E+05 3.24799E-08 1.40164E-07
 -1       275-1.98741E+06-2.76442E+05-7.98597E+03-7.41916E+05-1.67747E-08-6.96346E-08
 -1       276-2.01134E+06-2.53753E+05-4.13297E+03-7.14229E+05 9.95078E-09 2.46109E-08
 -1       277-1.98929E+06-2.75550E+05-2.13371E+03-7.40135E+05-2.28147E-08-6.40784E-09
 -1       278-2.00727E+06-2.56516E+05-1.26484E+03-7.17795E+05 2.22071E-08 5.40360E-08
 -1       279-1.99105E+06-2.73900E+05-1.47982E+03-7.38072E+05-1.24637E-08 9.45433E-08
 -1       280-2.00338E+06-2.60539E+05-2.13092E+03-7.21878E+05 1.94059E-08 9.20227E-09
 -1       281-1.99283E+06-2.71771E+05-4.22057E+03-7.35799E+05-2.23299E-08-5.55387E-08
 -1       282-2.00090E+06-2.67275E+05-9.41404E+03-7.26128E+05-2.93585E-08 5.10081E-08
 -1       283-1.99333E+06-2.67552E+05-1.71835E+04-7.33578E+05 8.30914E-09-1.53218E-07
 -1       284-2.01124E+06-2.94618E+05-4.60381E+04-7.27659E+05-1.34260E-08-2.18523E-07
 -1       285-1.98275E+06-2.46788E+05-7.20035E+04-7.33395E+05-4.67116E-09-1.13036E-07
 -1       301 1.11864E+04-5.27276E+05 1.73109E+05-9.14630E+05 9.82254E-10 1.39189E-07
 -1       302 1.24160E+04-4.82811E+05 1.04985E+05-1.33680E+06-1.40426E-09 7.76490E-08
 -1       303-8.04488E+03-5.14052E+05 6.28778E+04-9.12321E+05-7.34872E-10-2.43417E-08
 -1       304-1.38839E+03-4.86902E+05 6.94563E+04-1.33602E+06-2.00816E-09 9.09640E-08
 -1       305-5.93879E+03-5.09803E+05 9.35755E+04-9.15134E+05 1.07320E-09-1.19282E-07
 -1       306-2.68889E+07-5.46849E+06-7.46230E+06-1.12942E+06-5.78584E-08-2.49333E-07
 -1       307 2.22479E+07 1.99088E+06 4.80908E+06-1.27831E+07-7.14906E-07 8.59727E-08
 -1       308-7.75241E+06-7.50058E+05-5.59635E+05 4.54428E+06-2.66242E-07 3.07933E-07
 -1       309-3.59416E+06 6.43366E+06 1.80570E+06-1.86036E+07 3.93862E-07 1.41325E-07
 -1       310-1.10366E+07-1.25450E+06-1.42947E+06 4.43197E+06 1.71713E-08-1.22280E-07
 -1       311 2.98533E+07-1.88253E+05 5.90450E+06-8.79379E+06 3.28524E-07-2.94996E-07
 -1       312-2.78651E+07-5.54012E+06-7.06688E+06-3.86372E+06-1.01281E-08 1.28784E-08
 -1       313 3.93728E+07 1.06810E+07 9.05678E+06 1.85207E+07-2.58005E-07 6.79865E-08
 -1       314-1.68278E+07-1.43577E+07-6.46295E+06-1.11494E+07 2.24565E-07-9.02219E-08
 -1       315-7.87746E+05 2.42878E+07 4.95760E+06 1.06050E+07-5.40633E-07 4.26371E-08
 -1       316 3.06789E+05-9.12524E+06-5.20727E+05-3.49085E+06-1.10912E-06-3.76109E-07
 -1       317-1.70176E+07 1.97473E+07 1.77338E+06-5.97518E+06 5.66062E-07-6.40190E-07
 -1       318-1.25075E+06-1.06138E+07-1.48158E+06-4.43085E+06-9.76666E-07 8.43138E-08
 -1       319 4.80773E+06 2.55604E+07 5.67180E+06 1.36622E+07-5.24669E-08 2.04513E-07
 -1       320-1.99984E+07-1.46434E+07-8.24186E+06-1.10884E+07 1.80560E-07-5.49771E-08
 -1       336-4.01602E+02-1.75983E+06-1.38418E+04 8.71552E+03-2.50293E-08-2.16678E-08
 -1       337-5.32222E+03-1.76010E+06-1.80160E+04-2.10885E+04-4.58178E-08 1.20635E-08
 -1       338 5.10142E+02-1.75937E+06-2.79680E+04 1.21673E+04-3.21370E-08 1.29148E-08
 -1       339-2.96904E+04-1.77687E+06-6.33380E+04-2.78267E+04-5.95555E-08-9.29504E-10
 -1       340 1.97860E+04-1.74505E+06-9.95716E+04 1.53364E+04-3.87954E-08 3.14576E-08
 -1       406-2.86242E+01 3.73645E+05 6.21283E+02 2.54362E+00-1.64056E-09-1.90412E-08
 -1       407 1.67329E+02 3.73770E+05 1.32568E+03 2.03286E+01-5.57975E-10 1.07357E-08
 -1       408 6.30362E+02 3.73549E+05 2.64450E+03-2.32716E+01-2.24009E-09 3.54703E-10
 -1       409 2.81625E+03 3.74615E+05 5.95848E+03 2.45476E+02-2.70461E-10-1.10595E-09
 -1       410 8.18173E+03 3.72790E+05 1.21618E+04-2.36037E+02-2.46291E-09 8.81937E-09
 -1       521-2.84604E+07-6.71105E+06-8.71474E+06-8.24840E+05-9.80217E-08-5.46570E-08
 -1       522 2.30166E+07 2.63565E+06 4.88843E+06-1.58575E+07-4.38537E-07-4.06755E-07
 -1       523-8.50825E+06-1.02899E+06-5.76549E+05 4.98640E+06-1.28639E-08-1.54774E-07
 -1       524-6.71965E+06 8.89559E+06 1.95733E+06-2.15245E+07 6.39615E-07-3.34261E-07
 -1       525-1.19933E+07-1.73686E+06-1.57218E+06 4.86362E+06 4.66243E-07-1.12166E-07
 -1       526 3.23796E+07-2.16306E+05 6.21356E+06-1.12603E+07 9.50240E-08-8.66130E-08
 -1       527-2.96455E+07-6.96400E+06-8.13269E+06-3.76270E+06 3.11295E-07-1.72193E-07
 -1       528 4.30617E+07 1.17110E+07 9.45765E+06 2.09749E+07 3.77418E-07-2.42988E-07
 -1       529-1.78617E+07-1.62867E+07-7.40860E+06-1.13512E+07 1.39582E-07-7.92788E-08
 -1       530-3.01542E+06 2.83329E+07 5.24522E+06 1.06118E+07-3.71117E-07 5.29981E-07
 -1       531 2.25511E+05-1.02594E+07-5.23146E+05-3.64317E+06-7.62637E-07 3.27767E-07
 -1       532-1.99701E+07 2.20023E+07 1.94743E+06-9.36673E+06 3.69211E-07-6.66125E-07
 -1       533-1.33303E+06-1.17637E+07-1.56457E+06-4.49423E+06-2.32772E-07-9.89297E-07
 -1       534 2.86048E+06 2.97265E+07 5.91415E+06 1.41749E+07-1.52795E-08 6.65721E-07
 -1       535-2.11522E+07-1.66995E+07-9.41760E+06-1.12794E+07 1.02213E-07 4.17989E-07
 -1       536-6.72103E+05-4.57448E+04-3.31469E+04-4.99939E+04-3.85899E-09 5.26616E-08
 -1       537-8.80651E+04 4.45068E+04 8.15751E+04 1.14856E+05-1.00192E-07 7.42034E-08
 -1       538-3.92955E+05 2.36946E+03 5.68952E+03-6.76490E+04 3.34280E-08 9.74974E-08
 -1       539-2.81236E+05 3.07018E+03 2.36026E+04 1.29463E+05 1.51681E-07 1.05658E-07
 -1       540-4.83730E+05-3.26467E+02-1.82037E+04-6.50481E+04 6.39602E-09 7.77825E-08
 -1       541 8.90172E+04 1.51290E+04 9.50329E+04 9.02209E+04 4.78826E-09 3.87300E-08
 -1       542-7.53242E+05-1.79934E+04-7.49502E+04-2.76765E+04 3.18132E-08 2.07661E-08
 -1       543 3.19511E+05 2.43848E+04 1.40720E+05-1.25896E+04-1.00918E-08-1.20963E-08
 -1       544-7.08054E+05-1.46883E+04-6.65894E+04 3.72005E+04-4.00232E-08-3.61389E-08
 -1       545-1.69025E+04 8.26795E+03 7.06468E+04-1.05420E+05-5.55114E-08-9.21534E-08
 -1       546-4.25844E+05 5.58695E+03-1.10061E+04 6.48681E+04 4.32831E-08-8.07208E-08
 -1       547-2.97888E+05-4.68495E+03 8.52951E+03-1.32215E+05-1.02258E-07-9.83672E-08
 -1       548-4.34602E+05 4.55223E+03-2.24907E+04 6.45728E+04-1.16430E-07-8.20537E-08
 -1       549 1.38742E+03 1.19829E+04 5.08145E+04-1.03070E+05-5.94282E-08-3.81360E-08
 -1       550-7.17105E+05-1.77661E+04-1.19620E+05 3.51219E+04 8.67840E-09-4.00032E-08
 -1       551 3.83043E+04-7.70151E+05-8.58477E+03-1.22077E+06-9.50677E-08-1.05065E-08
 -1       552 8.69797E+04-8.10558E+05 1.40959E+04-1.74090E+06-6.45814E-08 3.85407E-08
 -1       553 6.64362E+04-8.08396E+05 3.48881E+04-1.21451E+06-1.12050E-07 4.40778E-08
 -1       554 1.24159E+05-8.23804E+05 8.44856E+04-1.74286E+06-7.27305E-08 2.46200E-08
 -1       555 9.61220E+04-8.31373E+05 1.53275E+05-1.21450E+06-1.17208E-07-1.52686E-08
 -1       556 2.08538E+05-3.60731E+05 3.61997E+04-3.91168E+05-2.27883E-08-1.45810E-08
 -1       557 3.34136E+05-4.61028E+05 2.12644E+04-5.04594E+05 6.78119E-09 1.29148E-08
 -1       558 1.92828E+05-3.56418E+05 4.99728E+03-3.93363E+05-1.43482E-08-4.48927E-09
 -1       559 3.10304E+05-4.62915E+05 3.61860E+03-5.23051E+05 2.49711E-08-1.51631E-08
 -1       560 1.79186E+05-3.47842E+05-6.51602E+02-4.03128E+05 8.52742E-09 1.62254E-09
 -1       561 2.93018E+05-4.56098E+05 4.51307E+02-5.34769E+05-7.39237E-09 1.83936E-08
 -1       562 1.68403E+05-3.41120E+05-9.98248E+02-4.10922E+05 5.35510E-09-1.10595E-09
 -1       563 2.80223E+05-4.50520E+05 5.52045E+01-5.43109E+05 2.03727E-10-7.06859E-09
 -1       564 1.60754E+05-3.36349E+05-4.72540E+02-4.16338E+05 5.86442E-09-8.98581E-09
 -1       565 2.71822E+05-4.46862E+05 4.86921E+01-5.48472E+05 1.30131E-08 1.71208E-08
 -1       566 1.56354E+05-3.33562E+05-2.09085E+02-4.19417E+05-4.22006E-10-1.35551E-08
 -1       567 2.67854E+05-4.45135E+05-3.19234E+02-5.50869E+05 2.51821E-08-1.74623E-09
 -1       568 1.55283E+05-3.32909E+05-1.01510E+03-4.20262E+05-1.25146E-09-1.67638E-08
 -1       569 2.66996E+05-4.45088E+05-2.56524E+03-5.49350E+05-9.17044E-09 8.65839E-09
 -1       570 1.58583E+05-3.35994E+05-5.63025E+03-4.19313E+05 1.11540E-08 1.51458E-08
 -1       571 2.81253E+05 1.01830E+04 1.46037E+04-8.98339E+04 4.34738E-09 1.03073E-08
 -1       572 2.83377E+05 3.79803E+03 7.15671E+03-9.85556E+04 1.86810E-09-5.91490E-09
 -1       573 2.82098E+05 1.15827E+03 3.17990E+03-8.96636E+04-8.94943E-10 8.24002E-09
 -1       574 2.82313E+05 6.46732E+02 1.59453E+03-9.87692E+04-2.15755E-09 1.25019E-08
 -1       575 2.82190E+05 3.80669E+02 7.52498E+02-8.96404E+04-2.13262E-09 1.18671E-08
 -1       576 2.82179E+05 3.86417E+02 3.85101E+02-9.87977E+04-6.56360E-09-1.07320E-09
 -1       577 2.82226E+05 3.25844E+02 1.92150E+02-8.96373E+04-5.03860E-09 1.11413E-09
 -1       578 2.82204E+05 3.52310E+02 1.10662E+02-9.88016E+04-4.57840E-09 4.23825E-10
 -1       579 2.82289E+05 2.94187E+02 7.58121E+01-8.96370E+04-4.84033E-09-1.93995E-09
 -1       580 2.82293E+05 3.07871E+02 8.72750E+01-9.87970E+04-2.60879E-08 4.21096E-09
 -1       581 2.82390E+05 2.43334E+02 1.31837E+02-8.96425E+04-2.64845E-09 9.06130E-09
 -1       582 2.82450E+05 2.78225E+02 2.67218E+02-9.87388E+04 2.18279E-09 1.01809E-08
 -1       583 2.82512E+05 2.90622E+02 5.13670E+02-8.96957E+04 2.13186E-09 9.63405E-09
 -1       584 2.82794E+05 7.08315E+02 1.16139E+03-9.82910E+04 3.74166E-09-1.67574E-10
 -1       585 2.82525E+05 1.69222E+03 2.35300E+03-9.00898E+04-3.51065E-09-4.74392E-09
 -1       586-3.32934E+03 1.10539E+05-3.00731E+03-2.43828E+05-5.30599E-09-4.19413E-09
 -1       587-1.22623E+03 1.10262E+05 6.42877E+02-2.68355E+05-6.67205E-09 7.37793E-09
 -1       588 4.70352E+02 1.10106E+05 4.53395E+03-2.43696E+05-2.81761E-09 2.20598E-08
 -1       589 4.99495E+03 1.12472E+05 1.18514E+04-2.68120E+05-6.68115E-09 3.73620E-09
 -1       590 1.60727E+04 1.08821E+05 2.48968E+04-2.44115E+05-6.46924E-09 4.91491E-09
 -1       591-7.07256E+04-1.53897E+04-2.15510E+04-3.05282E+04-5.63409E-09-1.87529E-08
 -1       592-7.45281E+04-1.89019E+04-1.16737E+04-3.41203E+04-4.77328E-09-2.41497E-08
 -1       593-7.28818E+04-1.38250E+04-4.85921E+03-3.21076E+04-9.19876E-10-8.90941E-09
 -1       594-7.15510E+04-1.57411E+04-2.42342E+03-3.42350E+04 2.05921E-09-2.11341E-09
 -1       595-7.30462E+04-1.38197E+04-1.11266E+03-3.21794E+04 4.17092E-09 3.22564E-08
 -1       596-7.13473E+04-1.55966E+04-5.65542E+02-3.42109E+04 9.16333E-09 1.51254E-08
 -1       597-7.30668E+04-1.38344E+04-3.07773E+02-3.21821E+04 4.34909E-09-1.20226E-08
 -1       598-7.13272E+04-1.55909E+04-2.47084E+02-3.42041E+04-8.87621E-09-1.20149E-08
 -1       599-7.30656E+04-1.38349E+04-3.15209E+02-3.21817E+04 9.71568E-10-2.73053E-09
 -1       600-7.13474E+04-1.55972E+04-5.85227E+02-3.42089E+04 1.75521E-09-1.73600E-09
 -1       601-7.30418E+04-1.38209E+04-1.15435E+03-3.21783E+04 4.57021E-10-1.25985E-08
 -1       602-7.15587E+04-1.57462E+04-2.51570E+03-3.42302E+04-4.26144E-09 7.48310E-09
 -1       603-7.28685E+04-1.38292E+04-5.04498E+03-3.21045E+04-3.40151E-10 2.18643E-08
 -1       604-7.46663E+04-1.90089E+04-1.21192E+04-3.40874E+04 3.74132E-09 1.83434E-08
 -1       605-7.06106E+04-1.54707E+04-2.23736E+04-3.04834E+04 3.69900E-09 1.07884E-08
 -1       606 2.69061E+04-1.38227E+04-2.47862E+04 2.44476E+04 6.33008E-09-2.08820E-09
 -1       607 2.26702E+04-4.51084E+03-1.23433E+04 2.74693E+04 4.22096E-09-1.51986E-08
 -1       608 2.50830E+04-8.10386E+02-5.52587E+03 2.42720E+04-4.32738E-09 9.10268E-09
 -1       609 2.46190E+04-2.73206E+02-2.79146E+03 2.76869E+04 2.76759E-09-1.01136E-08
 -1       610 2.48752E+04-3.42379E+01-1.33199E+03 2.42513E+04 2.77123E-09 2.19234E-09
 -1       611 2.48010E+04-3.28880E+01-6.71573E+02 2.77104E+04 6.20003E-09 9.79844E-09
 -1       612 2.48282E+04-2.00790E+01-3.19414E+02 2.42492E+04 2.48838E-09 1.69512E-08
 -1       613 2.48107E+04-2.80777E+01-1.43243E+02 2.77132E+04 4.08954E-09 1.99923E-08
 -1       614 2.48057E+04-2.55136E+01-3.39344E+01 2.42485E+04 6.93944E-10 1.06591E-08
 -1       615 2.48043E+04-2.59678E+01 5.92684E+01 2.77137E+04-5.51154E-09 1.34223E-08
 -1       616 2.47880E+04-2.19451E+01 1.78422E+02 2.42488E+04-1.60344E-09-1.67574E-09
 -1       617 2.48249E+04 1.26034E+01 4.07387E+02 2.77132E+04 7.10770E-10-1.57543E-08
 -1       618 2.47520E+04 9.59184E+01 8.21246E+02 2.42490E+04 1.18644E-09 1.12011E-08
 -1       619 2.51143E+04 6.47936E+02 1.84425E+03 2.77125E+04-1.78716E-10 1.30137E-08
 -1       620 2.44789E+04 2.04362E+03 3.70690E+03 2.42501E+04 1.00613E-09 6.39557E-09
 -1       621 4.68329E+02 2.91272E+05 3.67526E+03 3.71774E+04 8.22638E-10 1.17170E-08
 -1       622 6.13132E+02 2.92130E+05 3.27970E+03 5.39869E+04 1.13641E-09-7.71115E-09
 -1       623 1.16161E+02 2.91461E+05 3.96607E+03 3.70083E+04 1.23475E-09-1.84691E-08
 -1       624 2.00835E+03 2.93318E+05 7.70819E+03 5.41540E+04 1.37368E-09 3.45858E-09
 -1       625 1.97204E+03 2.89935E+05 1.34795E+04 3.70052E+04 1.23418E-09-6.74709E-09
 -1       626 2.52750E+05 6.03663E+04 5.03486E+03 1.23877E+05-1.01954E-09-2.31721E-08
 -1       627 2.50418E+05 6.17934E+04 2.42626E+03 1.28138E+05 5.94446E-09-4.17685E-10
 -1       628 2.52879E+05 5.80582E+04 1.02601E+03 1.24727E+05-2.44745E-09 1.33687E-08
 -1       629 2.49786E+05 6.11307E+04 5.02198E+02 1.28379E+05-2.83217E-09 2.37646E-08
 -1       630 2.52893E+05 5.79470E+04 2.32920E+02 1.24762E+05-3.97449E-10 5.76648E-09
 -1       631 2.49719E+05 6.11062E+04 1.25309E+02 1.28381E+05 4.72323E-09-1.13073E-09
 -1       632 2.52889E+05 5.79514E+04 8.24042E+01 1.24758E+05 8.09951E-09 5.20231E-09
 -1       633 2.49710E+05 6.11084E+04 9.17031E+01 1.28377E+05-1.67438E-09 1.65428E-08
 -1       634 2.52883E+05 5.79491E+04 1.48113E+02 1.24756E+05-6.43468E-09 6.26301E-09
 -1       635 2.49723E+05 6.11071E+04 2.99659E+02 1.28381E+05-6.93581E-09 4.39604E-09
 -1       636 2.52874E+05 5.79438E+04 6.05137E+02 1.24756E+05 1.39721E-09 8.15498E-09
 -1       637 2.49854E+05 6.12013E+04 1.33046E+03 1.28380E+05-4.79918E-09-1.84073E-08
 -1       638 2.52827E+05 5.82379E+04 2.73364E+03 1.24623E+05 6.29370E-10-2.31194E-09
 -1       639 2.51289E+05 6.31984E+04 6.46781E+03 1.27957E+05 1.03053E-08 1.08898E-08
 -1       640 2.52629E+05 6.42004E+04 1.34219E+04 1.22109E+05 4.16185E-09-5.27666E-09
 -1       656 6.47662E+04-1.65607E+06-1.56342E+05-2.21033E+03 5.38421E-10-1.26162E-08
 -1       657-8.56726E+04-1.72671E+06-1.29504E+05 5.58117E+03-3.74712E-10-5.31956E-09
 -1       658 2.06384E+04-1.67613E+06-7.97385E+04-4.20756E+03 4.31328E-10-2.99187E-09
 -1       659-9.25880E+04-1.72999E+06-1.38591E+05 7.21012E+03-1.13414E-09-2.14027E-08
 -1       660 7.16661E+04-1.65279E+06-1.71965E+05-3.83926E+03-1.26602E-09 1.34348E-08
 -1       661 1.60351E+05 1.68598E+04 1.67318E+04 6.26870E+04-1.65028E-09 1.15433E-08
 -1       662 1.69740E+05 2.93198E+04 1.12759E+04 5.90137E+04 1.92642E-09-7.69307E-09
 -1       663 1.63637E+05 2.22279E+04 3.94369E+03 6.17336E+04 1.01647E-09-1.79148E-09
 -1       664 1.65930E+05 2.30419E+04 2.35901E+03 6.01780E+04-2.20211E-09 1.94134E-09
 -1       665 1.64135E+05 2.29614E+04 9.30613E+02 6.15886E+04 1.58582E-09 9.25817E-09
 -1       666 1.65341E+05 2.22027E+04 5.44531E+02 6.03669E+04 3.32989E-09 2.38436E-08
 -1       667 1.64222E+05 2.30451E+04 2.89190E+02 6.15525E+04-3.30090E-10 1.01007E-08
 -1       668 1.65246E+05 2.21422E+04 2.94573E+02 6.04194E+04-4.27730E-09-2.36814E-08
 -1       669 1.64230E+05 2.30203E+04 3.98734E+02 6.15365E+04-4.08235E-09-4.03105E-09
 -1       670 1.65343E+05 2.23584E+04 8.68181E+02 6.04222E+04-1.00728E-08 9.56435E-09
 -1       671 1.64125E+05 2.28333E+04 1.54150E+03 6.15477E+04 1.52028E-09-1.30683E-09
 -1       672 1.66241E+05 2.38582E+04 3.94386E+03 6.02047E+04 1.21463E-09-6.64318E-09
 -1       673 1.63336E+05 2.15585E+04 6.60928E+03 6.17395E+04 1.02068E-09-2.15277E-09
 -1       674 1.72532E+05 3.44764E+04 1.89011E+04 5.83564E+04-1.20860E-09-3.94698E-09
 -1       675 1.57875E+05 1.25124E+04 2.80559E+04 6.32844E+04-2.16050E-09-4.34011E-09
 -1       676 2.36645E+01-2.90064E+05-1.09479E+03-1.12492E+02-1.40062E-10 1.31061E-08
 -1       677-2.89957E+02-2.90328E+05-2.00366E+03 2.24810E+02 8.96304E-09-1.78503E-08
 -1       678 1.94194E+02-2.89875E+05-3.54196E+03-1.12243E+02 2.70347E-10-1.44751E-08
 -1       679-3.54235E+03-2.92466E+05-8.41421E+03 2.23858E+02 5.43878E-09-3.45103E-08
 -1       680 2.11473E+03-2.87927E+05-1.35608E+04-1.10297E+02-7.27596E-10-1.27353E-08
 -1       771-3.01322E+06-7.17175E+05-1.49417E+05-1.42892E+06-3.39787E-08-2.88710E-08
 -1       772-2.94111E+06-8.00961E+05-7.71343E+04-1.52564E+06-2.89438E-08 7.77072E-09
 -1       773-3.04168E+06-6.94915E+05-3.90969E+04-1.44153E+06-1.22818E-08 7.55244E-09
 -1       774-2.93186E+06-7.84511E+05-1.74893E+04-1.54874E+06 2.53203E-08 1.01500E-09
 -1       775-3.05629E+06-6.84630E+05-1.29311E+04-1.44755E+06-8.46921E-09 4.34375E-09
 -1       776-2.94246E+06-7.82012E+05-4.85979E+03-1.56603E+06-2.38651E-08 4.28190E-09
 -1       777-3.06891E+06-6.75503E+05-5.65848E+03-1.45286E+06-6.11180E-10 8.71660E-09
 -1       778-2.95355E+06-7.79710E+05-1.60764E+03-1.58087E+06 5.84987E-09 2.63026E-09
 -1       779-3.07971E+06-6.67554E+05-2.81040E+03-1.45740E+06-9.10950E-09-6.67569E-09
 -1       780-2.96331E+06-7.77510E+05-4.67399E+02-1.59295E+06-7.31234E-09 9.71340E-10
 -1       781-3.08828E+06-6.61160E+05-1.08649E+03-1.46095E+06-2.64408E-08-1.80080E-09
 -1       782-2.97082E+06-7.75636E+05 3.95302E+02-1.60185E+06-3.70783E-08-4.64843E-09
 -1       783-3.09431E+06-6.56728E+05 6.18120E+02-1.46344E+06-1.53595E-08-1.26988E-08
 -1       784-2.97496E+06-7.73714E+05 2.54745E+03-1.60735E+06-2.95586E-08-1.49930E-09
 -1       785-3.09787E+06-6.54089E+05 4.49783E+03-1.46503E+06-4.14257E-08 8.78208E-09
 -1       786 1.24777E+05-9.68937E+03 2.24170E+04-2.92751E+02 2.99777E-09 1.82636E-08
 -1       787 1.34499E+05 1.12179E+04 1.58591E+04-1.10874E+02 3.97156E-09 1.02746E-08
 -1       788 1.28525E+05-1.51845E+03 5.79989E+03-2.58975E+02 2.17056E-09 2.56830E-08
 -1       789 1.30132E+05 1.75738E+03 3.64114E+03-1.62991E+02 9.76463E-10 2.22240E-08
 -1       790 1.29144E+05-2.36527E+02 1.47465E+03-2.40650E+02-3.68849E-09 2.40033E-09
 -1       791 1.29408E+05 2.73574E+02 8.52527E+02-1.94420E+02-7.54300E-09-5.45162E-09
 -1       792 1.29249E+05-3.57548E+01 3.62873E+02-2.27547E+02-3.48439E-09-1.27431E-08
 -1       793 1.29283E+05 3.83804E+01 1.84425E+02-2.19088E+02-1.83690E-09-1.49135E-08
 -1       794 1.29269E+05-1.48157E+00 5.50115E+01-2.15982E+02 4.05978E-09 4.34508E-09
 -1       795 1.29249E+05-2.12874E+01-3.83516E+01-2.43243E+02-3.59145E-09-8.19448E-09
 -1       796 1.29283E+05 2.38800E+01-1.28773E+02-2.03393E+02 2.61241E-09-6.31488E-09
 -1       797 1.29171E+05-1.79374E+02-3.62604E+02-2.72165E+02 3.80555E-09 4.37247E-09
 -1       798 1.29347E+05 1.56486E+02-5.91388E+02-1.87059E+02 1.48115E-09-1.97261E-09
 -1       799 1.28722E+05-1.15374E+03-1.62917E+03-3.12469E+02 5.37034E-09-2.14706E-08
 -1       800 1.29733E+05 9.97443E+02-2.30624E+03-1.63090E+02-5.85043E-12 2.17426E-09
 -1       801-1.22081E+05-9.09382E+06-1.24140E+06 1.19905E+06 8.55944E-08-4.28045E-08
 -1       802 5.98437E+05 4.53678E+06 1.82636E+06-1.45673E+06 2.40107E-07-2.88919E-08
 -1       803-4.54611E+05-1.26565E+07-1.61547E+06 7.62535E+05 7.19774E-08 1.13505E-08
 -1       804 2.32943E+05 1.44674E+06 1.28723E+06 6.06490E+05-1.10107E-07-8.77449E-08
 -1       805 1.70968E+05-6.01883E+06-2.45750E+05-8.59266E+05-4.57439E-08-5.50899E-08
 -1       806-3.00356E+05-5.79390E+04-2.21684E+04-1.18826E+05-8.06722E-09-1.06602E-08
 -1       807-3.02128E+05-5.42917E+04-1.08911E+04-1.24171E+05 1.15378E-08 3.13958E-09
 -1       808-3.00962E+05-4.99525E+04-4.62038E+03-1.22607E+05-1.15260E-08-3.15572E-09
 -1       809-2.99840E+05-5.12304E+04-2.25925E+03-1.24437E+05-1.01920E-08 1.29536E-08
 -1       810-3.01054E+05-4.96744E+04-1.03553E+03-1.22774E+05 6.93763E-09 1.15451E-08
 -1       811-2.99663E+05-5.11072E+04-5.14970E+02-1.24403E+05 1.44464E-08 1.77997E-08
 -1       812-3.01067E+05-4.96982E+04-2.60460E+02-1.22774E+05 5.45697E-11-1.02364E-09
 -1       813-2.99639E+05-5.11092E+04-1.69326E+02-1.24385E+05 1.32832E-09-1.47929E-08
 -1       814-3.01061E+05-4.97074E+04-1.67849E+02-1.22770E+05 1.75169E-09-1.30585E-08
 -1       815-2.99643E+05-5.11113E+04-2.70548E+02-1.24378E+05 4.38013E-09-2.19416E-10
 -1       816-3.01041E+05-4.97062E+04-5.12779E+02-1.22766E+05 8.18454E-09 3.62261E-08
 -1       817-2.99730E+05-5.11601E+04-1.10061E+03-1.24367E+05-2.14277E-09 3.09744E-08
 -1       818-3.00975E+05-4.98612E+04-2.24482E+03-1.22693E+05 5.73255E-09 5.79803E-09
 -1       819-3.00959E+05-5.25166E+04-5.28207E+03-1.24077E+05 4.03634E-09 1.44730E-08
 -1       820-3.00553E+05-5.38502E+04-1.07508E+04-1.20988E+05 1.32150E-09 2.40289E-09
 -1       821-3.70648E+05 2.04193E+04-4.73724E+04 1.65976E+03 1.12952E-08 1.27056E-08
 -1       822-3.90561E+05-2.36459E+04-3.34149E+04-3.29101E+03 3.09643E-09-2.71530E-09
 -1       823-3.78251E+05 3.21026E+03-1.22510E+04 2.49508E+03-9.24911E-09 4.13957E-09
 -1       824-3.81509E+05-3.70690E+03-7.68735E+03-3.75881E+03 1.37338E-09 7.63612E-09
 -1       825-3.79700E+05 4.98773E+02-3.19550E+03 2.12761E+03 1.57436E-08 1.46500E-08
 -1       826-3.79518E+05-5.70577E+02-1.79781E+03-2.02595E+03 1.81172E-08-1.28483E-08
 -1       827-3.80228E+05 6.60645E+01-1.08306E+03 7.62154E+02 6.90505E-09 1.02708E-09
 -1       828-3.79091E+05-1.55008E+02-7.20151E+02 9.63203E+02-3.52151E-09 2.19637E-09
 -1       829-3.80120E+05 7.89789E+01-1.08311E+03-8.61581E+02 1.80378E-10 9.02355E-09
 -1       830-3.79758E+05-6.12398E+02-1.91151E+03 3.58422E+03 1.66460E-09 7.68713E-09
 -1       831-3.79574E+05 5.32743E+02-3.28760E+03-1.85889E+03-4.80060E-09-6.93944E-09
 -1       832-3.81595E+05-3.86218E+03-7.98586E+03 4.41030E+03-2.15452E-09 1.16834E-08
 -1       833-3.78292E+05 3.33208E+03-1.27379E+04-1.68768E+03-1.42369E-09-2.95677E-09
 -1       834-3.90739E+05-2.45475E+04-3.46458E+04 2.96618E+03-3.01657E-09 5.77347E-09
 -1       835-3.70423E+05 2.11934E+04-4.92079E+04-4.14731E+02 5.48650E-09 7.56700E-09
 -1       836-1.35903E+03 3.58183E+05 2.21176E+04-1.62411E+04-6.16819E-09 2.36269E-08
 -1       837 4.72714E+03 3.65105E+05 1.87386E+04-3.30927E+04-6.54131E-09 1.98213E-08
 -1       838-5.34752E+02 3.60121E+05 1.91246E+04-1.61705E+04-5.26916E-09-2.88424E-09
 -1       839 1.20607E+04 3.70567E+05 3.62096E+04-3.31432E+04-5.70799E-09 2.22894E-09
 -1       840-3.72030E+03 3.52664E+05 5.77549E+04-1.61952E+04-5.30054E-09 1.29463E-08
 -1       856-5.58309E+04 7.98163E+03-2.10334E+04-3.98962E+02 2.83546E-09 1.04292E-08
 -1       857-6.44992E+04-9.37586E+03-1.44794E+04 5.52322E+03 6.00335E-09-1.60553E-08
 -1       858-5.92627E+04 1.11921E+03-5.45778E+03-4.22931E+02 3.20279E-09 1.13143E-08
 -1       859-6.05606E+04-1.31454E+03-3.29378E+03 5.55920E+03-3.64197E-09 2.40297E-08
 -1       860-5.97754E+04 1.56602E+02-1.38086E+03-4.34726E+02 1.07562E-09-1.09355E-09
 -1       861-5.99708E+04-1.84920E+02-7.60546E+02 5.57530E+03-1.06380E-09-3.29649E-10
 -1       862-5.98556E+04 2.11349E+01-3.17970E+02-4.39007E+02 7.93040E-10 1.12564E-08
 -1       863-5.98728E+04-2.01100E+01-1.19964E+02 5.57772E+03-1.35267E-09 1.67770E-08
 -1       864-5.98738E+04-4.47194E+00 3.76381E+01-4.37155E+02-1.90026E-09 1.69363E-08
 -1       865-5.98199E+04 5.67657E+01 2.33155E+02 5.56732E+03-1.09181E-09 1.63710E-09
 -1       866-5.99063E+04-5.58112E+01 4.74648E+02-4.28601E+02 1.42336E-09 7.37677E-09
 -1       867-5.95954E+04 4.61429E+02 1.17139E+03 5.54406E+03 2.26350E-09 1.85904E-08
 -1       868-6.00936E+04-4.01980E+02 1.94722E+03-4.13900E+02 4.89820E-10 2.93653E-09
 -1       869-5.81669E+04 3.34547E+03 5.18597E+03 5.50563E+03 2.53576E-09-2.16622E-08
 -1       870-6.13274E+04-2.86174E+03 7.52581E+03-3.90086E+02-3.21677E-09-2.04636E-11
 -1       871-5.39990E+03-1.98217E+04-1.88690E+04 1.26146E+05-4.93128E-09-1.45155E-09
 -1       872-1.99290E+03-2.41904E+04-7.88259E+03 1.63565E+05-9.22137E-09-1.02959E-08
 -1       873 3.36936E+02-2.20865E+04 6.17101E+02 1.25869E+05-4.75484E-09 5.75972E-09
 -1       874 3.15360E+03-1.97123E+04 9.57541E+03 1.63596E+05-9.79162E-09 1.86255E-08
 -1       875 6.63336E+03-2.43672E+04 2.15656E+04 1.26101E+05-4.38740E-09 1.35842E-08
 -1       876 2.86381E+05 4.83644E+04 1.47617E+04 1.15041E+05 3.53020E-09-2.02272E-09
 -1       877 2.87346E+05 5.14835E+04 7.88333E+03 1.19285E+05 5.39740E-09-2.94449E-10
 -1       878 2.87761E+05 4.67294E+04 3.30273E+03 1.16251E+05-6.96537E-09-1.52784E-08
 -1       879 2.85340E+05 4.94812E+04 1.64560E+03 1.19385E+05 1.48316E-09-1.54691E-08
 -1       880 2.87860E+05 4.67125E+04 7.66478E+02 1.16300E+05-2.79169E-09 2.16122E-08
 -1       881 2.85206E+05 4.93956E+04 4.09259E+02 1.19362E+05-3.97154E-09 4.73999E-08
 -1       882 2.87869E+05 4.67254E+04 2.61733E+02 1.16302E+05-2.34081E-09 8.31925E-09
 -1       883 2.85197E+05 4.93912E+04 2.81232E+02 1.19355E+05-1.26556E-09-2.14606E-08
 -1       884 2.87862E+05 4.67226E+04 4.47246E+02 1.16302E+05-3.13412E-09-6.06332E-09
 -1       885 2.85233E+05 4.93974E+04 8.99133E+02 1.19366E+05-8.07593E-09-1.49100E-09
 -1       886 2.87828E+05 4.66964E+04 1.81212E+03 1.16298E+05-8.92409E-09-1.05251E-09
 -1       887 2.85551E+05 4.96062E+04 3.95833E+03 1.19412E+05 3.95164E-09-1.45238E-08
 -1       888 2.87578E+05 4.67404E+04 7.97614E+03 1.16172E+05-8.75889E-09-9.60381E-09
 -1       889 2.90300E+05 5.45441E+04 1.90536E+04 1.19266E+05-3.98859E-09 6.90488E-09
 -1       890 2.84323E+05 5.06065E+04 3.56868E+04 1.13135E+05 1.72849E-09-4.77667E-09
 -1       891-9.73295E+01-1.59013E+05-1.94521E+03 2.68453E+04 5.39330E-10-1.30876E-09
 -1       892-1.86581E+02-1.59521E+05-2.09084E+03 4.07473E+04 3.22098E-09 1.73477E-08
 -1       893 3.22360E+01-1.59075E+05-2.96209E+03 2.68524E+04-1.77374E-09 3.66208E-09
 -1       894-1.48947E+03-1.60641E+05-6.13163E+03 4.05971E+04 2.74781E-09-1.34492E-08
 -1       895-1.18082E+03-1.57797E+05-1.07982E+04 2.69967E+04-9.82141E-10-9.39053E-09
 -1       956-3.67129E+05-5.28181E+03-1.30749E+04 2.94035E+04 5.32600E-09 1.80569E-08
 -1       957-3.69697E+05-1.85155E+03-6.71124E+03 3.53455E+04-7.68978E-09 1.47193E-08
 -1       958-3.68302E+05-2.20327E+02-3.02421E+03 2.92414E+04-6.51107E-09-1.68575E-09
 -1       959-3.68496E+05-1.16419E+02-1.54428E+03 3.55328E+04-1.04546E-09-1.76476E-08
 -1       960-3.68416E+05-3.05980E+01-7.53051E+02 2.92249E+04 7.21866E-09-1.48971E-08
 -1       961-3.68416E+05-4.61358E+01-3.99326E+02 3.55523E+04 1.30713E-08-1.55978E-10
 -1       962-3.68442E+05-3.22775E+01-2.28674E+02 2.92221E+04 3.16732E-09 6.07884E-09
 -1       963-3.68416E+05-4.23593E+01-1.83674E+02 3.55558E+04-1.21963E-09 1.11002E-08
 -1       964-3.68447E+05-2.91012E+01-2.23443E+02 2.92214E+04-3.12582E-10-1.24344E-08
 -1       965-3.68428E+05-3.93647E+01-3.86531E+02 3.55552E+04-2.75259E-09-8.23547E-10
 -1       966-3.68432E+05-2.11573E+01-7.26261E+02 2.92228E+04 3.97836E-09 2.11357E-08
 -1       967-3.68516E+05-1.00691E+02-1.48959E+03 3.55416E+04-2.09184E-10-4.76120E-10
 -1       968-3.68332E+05-1.98073E+02-2.91598E+03 2.92348E+04-3.45517E-09-6.30166E-09
 -1       969-3.69687E+05-1.76901E+03-6.47352E+03 3.54009E+04 1.69666E-09 2.93218E-09
 -1       970-3.67208E+05-5.07648E+03-1.26106E+04 2.93566E+04 1.36060E-09-2.54022E-09
 -1       971-3.37136E+05-1.69361E+03-9.16160E+03 1.51172E+04 4.31737E-09-1.31842E-08
 -1       972-3.39345E+05-1.24284E+03-4.98931E+03 2.09348E+04 6.57246E-09 2.20134E-08
 -1       973-3.38157E+05-5.48218E+01-2.23470E+03 1.49972E+04 9.32232E-10 1.37932E-08
 -1       974-3.38293E+05-7.11504E+01-1.15832E+03 2.10699E+04 1.08457E-09 3.68937E-09
 -1       975-3.38238E+05-1.07502E+01-5.79283E+02 1.49851E+04 3.89718E-10-9.81277E-09
 -1       976-3.38232E+05-2.21703E+01-3.34707E+02 2.10853E+04 6.07861E-09-1.25373E-08
 -1       977-3.38254E+05-1.00880E+01-2.43828E+02 1.49818E+04-9.74751E-10 4.40946E-09
 -1       978-3.38237E+05-1.61011E+01-2.86559E+02 2.10900E+04-5.38409E-09 1.62487E-08
 -1       979-3.38254E+05-1.83846E+00-4.61468E+02 1.49804E+04-4.34994E-09-6.18525E-09
 -1       980-3.38272E+05-1.31184E+01-8.91700E+02 2.10909E+04 1.80609E-09-7.18956E-10
 -1       981-3.38225E+05 2.04419E+01-1.72736E+03 1.49809E+04 1.10276E-11-2.42341E-09
 -1       982-3.38509E+05-1.40747E+02-3.57062E+03 2.10844E+04 2.50225E-09-5.11204E-09
 -1       983-3.38008E+05-9.01595E+01-6.93784E+03 1.49869E+04-3.34057E-09 9.32300E-09
 -1       984-3.41846E+05-3.76416E+03-1.55370E+04 2.10000E+04-3.77281E-09 3.78168E-09
 -1       985-3.34866E+05-5.16685E+03-2.85308E+04 1.50591E+04-3.11093E-09 6.33008E-10
 -3
    1PSTEP                        29          15           1          
  100CL  115 6.52592E-01         409                     0   15           1
 -4  DISP        4    1
 -5  D1          1    2    1    0
 -5  D2          1    2    2    0
 -5  D3          1    2    3    0
 -5  ALL         1    2    0    0    1ALL
 -1         1 2.35328E-03 0.00000E+00 0.00000E+00
 -1         2 1.50707E-03-4.33720E-27 2.64698E-23
 -1         3 3.27165E-04-7.12363E-28 0.00000E+00
 -1         5 1.71358E-04-5.63881E-27-2.06795E-24
 -1         8 2.33748E-03-4.89008E-07 0.00000E+00
 -1         9 2.31360E-03-7.16141E-05 0.00000E+00
 -1        10 2.96765E-04-3.49306E-06-6.61744E-24
 -1        12 1.72981E-04 7.88334E-07-5.16988E-25
 -1        15 2.31863E-03-5.31814E-07-2.06795E-25
 -1        16 2.35058E-03-7.29576E-05 0.00000E+00
 -1        17 2.02487E-04-7.87960E-06 0.00000E+00
 -1        18 1.76291E-04 3.13103E-05 0.00000E+00
 -1        19 1.77849E-04 1.57087E-06 0.00000E+00
 -1        20 1.77991E-04-7.39779E-06 0.00000E+00
 -1        21 1.77129E-04-2.01390E-05 3.30872E-24
 -1        24 2.99989E-05-1.19014E-05 0.00000E+00
 -1        25 1.85952E-04 3.15279E-05 0.00000E+00
 -1        26 1.86642E-04 2.17586E-06 0.00000E+00
 -1        27 1.84499E-04-1.08760E-05 0.00000E+00
 -1        28 1.84169E-04-2.07502E-05 0.00000E+00
 -1        32 0.00000E+00 0.00000E+00 0.00000E+00
 -1        33 1.94416E-04 2.91154E-06 0.00000E+00
 -1        34 1.92345E-04-1.09282E-05 0.00000E+00
 -1        35 1.90451E-04-2.10853E-05 0.00000E+00
 -1        51 2.35226E-03-9.53566E-08 6.61744E-24
 -1        52 2.35035E-03-1.74487E-07 0.00000E+00
 -1        53 2.34774E-03-2.51198E-07 0.00000E+00
 -1        54 2.34461E-03-3.27655E-07 0.00000E+00
 -1        55 2.34112E-03-4.05473E-07-5.68687E-25
 -1        56 2.34892E-03 1.09073E-06 0.00000E+00
 -1        57 2.34277E-03 6.51873E-06-5.29396E-23
 -1        58 2.33545E-03 1.49997E-05-1.05879E-22
 -1        59 2.32754E-03 2.49301E-05 5.29396E-23
 -1        60 2.31978E-03 3.44886E-05 0.00000E+00
 -1        61 2.31286E-03 4.18745E-05 0.00000E+00
 -1        62 2.30731E-03 4.56479E-05 1.05879E-22
 -1        63 2.30356E-03 4.46647E-05 0.00000E+00
 -1        64 2.30171E-03 3.85720E-05 1.05879E-22
 -1        65 2.30172E-03 2.74430E-05 5.29396E-23
 -1        66 2.30321E-03 1.21952E-05 0.00000E+00
 -1        67 2.30574E-03-5.90566E-06-5.29396E-23
 -1        68 2.30866E-03-2.51136E-05-1.05879E-22
 -1        69 2.31133E-03-4.35807E-05 0.00000E+00
 -1        70 2.31313E-03-5.95982E-05 0.00000E+00
 -1        86 1.55721E-03-2.78977E-06-5.29396E-23
 -1        87 1.70439E-03-1.48387E-05 1.32349E-23
 -1        88 1.90240E-03-3.49613E-05 0.00000E+00
 -1        89 2.10277E-03-5.55508E-05 0.00000E+00
 -1        90 2.25576E-03-6.84113E-05 0.00000E+00
 -1       121 3.26311E-04-5.66100E-07 1.32349E-23
 -1       122 3.23752E-04-1.13500E-06 6.61744E-24
 -1       123 3.19499E-04-1.70945E-06-1.32349E-23
 -1       124 3.13568E-04-2.29221E-06 6.61744E-24
 -1       125 3.05980E-04-2.88565E-06 0.00000E+00
 -1       191 1.71403E-04 1.31439E-07 2.27475E-24
 -1       192 1.71538E-04 2.62869E-07-4.13590E-25
 -1       193 1.71764E-04 3.94284E-07 2.48154E-24
 -1       194 1.72079E-04 5.25673E-07 7.23783E-25
 -1       195 1.72485E-04 6.57027E-07 1.44757E-24
 -1       251 2.33682E-03-9.52345E-06 0.00000E+00
 -1       252 2.33566E-03-4.27071E-05-6.61744E-24
 -1       253 2.33378E-03-9.40136E-05 0.00000E+00
 -1       254 2.33126E-03-1.56954E-04 0.00000E+00
 -1       255 2.32863E-03-2.21632E-04 0.00000E+00
 -1       256 2.32649E-03-2.78111E-04-6.61744E-24
 -1       257 2.32505E-03-3.18868E-04 0.00000E+00
 -1       258 2.32426E-03-3.36772E-04 0.00000E+00
 -1       259 2.32361E-03-3.31239E-04 0.00000E+00
 -1       260 2.32257E-03-3.02294E-04-6.61744E-24
 -1       261 2.32096E-03-2.56659E-04 1.32349E-23
 -1       262 2.31888E-03-2.01478E-04 0.00000E+00
 -1       263 2.31682E-03-1.46702E-04 0.00000E+00
 -1       264 2.31525E-03-1.02276E-04 0.00000E+00
 -1       265 2.31426E-03-7.50922E-05 2.64698E-23
 -1       266 2.33434E-03-5.03330E-07 0.00000E+00
 -1       267 2.33120E-03-5.09588E-07 0.00000E+00
 -1       268 2.32806E-03-5.16357E-07 0.00000E+00
 -1       269 2.32492E-03-5.21613E-07-2.06795E-25
 -1       270 2.32177E-03-5.26834E-07-2.06795E-25
 -1       271 2.33574E-03 1.92850E-06-1.32349E-23
 -1       272 2.33432E-03 3.41264E-06 0.00000E+00
 -1       273 2.33326E-03 3.94168E-06 2.64698E-23
 -1       274 2.33256E-03 3.49257E-06 0.00000E+00
 -1       275 2.33224E-03 2.05485E-06 0.00000E+00
 -1       276 2.33228E-03-3.73971E-07 1.32349E-23
 -1       277 2.33269E-03-3.78606E-06 2.64698E-23
 -1       278 2.33346E-03-8.16444E-06-1.32349E-23
 -1       279 2.33458E-03-1.34825E-05 0.00000E+00
 -1       280 2.33603E-03-1.97045E-05-1.32349E-23
 -1       281 2.33779E-03-2.67857E-05 2.64698E-23
 -1       282 2.33985E-03-3.46734E-05 1.32349E-23
 -1       283 2.34219E-03-4.33064E-05-2.64698E-23
 -1       284 2.34477E-03-5.26159E-05 0.00000E+00
 -1       285 2.34758E-03-6.25281E-05 0.00000E+00
 -1       301 2.32031E-03-7.18632E-05 0.00000E+00
 -1       302 2.32574E-03-7.20771E-05 3.30872E-24
 -1       303 2.33070E-03-7.22858E-05 0.00000E+00
 -1       304 2.33596E-03-7.24949E-05 1.32349E-23
 -1       305 2.34233E-03-7.27121E-05 0.00000E+00
 -1       306 2.34869E-03-2.11195E-04 0.00000E+00
 -1       307 2.41324E-03-5.95028E-04 0.00000E+00
 -1       308 2.46687E-03-1.16139E-03-1.05879E-22
 -1       309 2.50132E-03-1.82262E-03-5.29396E-23
 -1       310 2.54043E-03-2.46182E-03 1.05879E-22
 -1       311 2.60176E-03-2.96410E-03-5.29396E-23
 -1       312 2.66098E-03-3.25309E-03 0.00000E+00
 -1       313 2.66595E-03-3.28826E-03 0.00000E+00
 -1       314 2.55208E-03-3.07737E-03 0.00000E+00
 -1       315 2.28070E-03-2.67432E-03 0.00000E+00
 -1       316 1.86594E-03-2.14984E-03 0.00000E+00
 -1       317 1.36407E-03-1.57110E-03 0.00000E+00
 -1       318 8.76418E-04-1.00090E-03-1.05879E-22
 -1       319 5.00089E-04-5.04624E-04-5.29396E-23
 -1       320 2.76441E-04-1.51228E-04 0.00000E+00
 -1       336 2.85747E-04-4.16276E-06-1.32349E-23
 -1       337 2.72760E-04-4.85572E-06 6.61744E-24
 -1       338 2.57865E-04-5.57378E-06 0.00000E+00
 -1       339 2.41132E-04-6.31749E-06 6.61744E-24
 -1       340 2.22643E-04-7.09101E-06 0.00000E+00
 -1       406 1.73567E-04 9.19579E-07 8.27181E-25
 -1       407 1.74243E-04 1.05073E-06-7.23783E-25
 -1       408 1.75009E-04 1.18173E-06-3.10193E-25
 -1       409 1.75866E-04 1.31242E-06-1.03398E-25
 -1       410 1.76813E-04 1.44254E-06 2.48154E-24
 -1       521 2.38644E-03-2.21532E-04 0.00000E+00
 -1       522 2.44985E-03-6.24480E-04 5.29396E-23
 -1       523 2.49835E-03-1.21705E-03 0.00000E+00
 -1       524 2.52510E-03-1.90541E-03-5.29396E-23
 -1       525 2.55746E-03-2.56996E-03 1.05879E-22
 -1       526 2.61569E-03-3.09337E-03-5.29396E-23
 -1       527 2.67458E-03-3.39324E-03 0.00000E+00
 -1       528 2.67794E-03-3.42800E-03 5.29396E-23
 -1       529 2.55451E-03-3.20499E-03 0.00000E+00
 -1       530 2.26327E-03-2.78472E-03 0.00000E+00
 -1       531 1.81871E-03-2.24130E-03 0.00000E+00
 -1       532 1.28247E-03-1.64477E-03 5.29396E-23
 -1       533 7.60664E-04-1.05630E-03 0.00000E+00
 -1       534 3.55107E-04-5.39695E-04 0.00000E+00
 -1       535 1.12588E-04-1.67830E-04 0.00000E+00
 -1       536 2.01790E-04 2.53357E-05 0.00000E+00
 -1       537 2.00036E-04 8.29317E-05 3.30872E-24
 -1       538 1.97330E-04 1.56050E-04 3.30872E-24
 -1       539 1.94139E-04 2.35753E-04-1.65436E-24
 -1       540 1.91267E-04 3.11071E-04 3.30872E-24
 -1       541 1.89395E-04 3.71057E-04 0.00000E+00
 -1       542 1.88526E-04 4.09236E-04-3.30872E-24
 -1       543 1.88310E-04 4.19272E-04 0.00000E+00
 -1       544 1.88003E-04 4.01920E-04-3.30872E-24
 -1       545 1.86917E-04 3.58138E-04 0.00000E+00
 -1       546 1.84907E-04 2.95718E-04 3.30872E-24
 -1       547 1.82196E-04 2.22567E-04 0.00000E+00
 -1       548 1.79512E-04 1.49812E-04-3.30872E-24
 -1       549 1.77574E-04 8.85855E-05 1.65436E-24
 -1       550 1.76562E-04 4.65652E-05 1.65436E-24
 -1       551 1.78495E-04-8.42640E-06 0.00000E+00
 -1       552 1.51353E-04-9.04688E-06 0.00000E+00
 -1       553 1.21989E-04-9.72461E-06 4.96308E-24
 -1       554 9.13473E-05-1.04399E-05-3.30872E-24
 -1       555 6.03709E-05-1.11671E-05-2.64698E-23
 -1       556 1.95247E-04 1.06543E-05 0.00000E+00
 -1       557 1.89407E-04 2.56593E-05 0.00000E+00
 -1       558 1.84838E-04 3.74121E-05 0.00000E+00
 -1       559 1.81413E-04 4.62114E-05 0.00000E+00
 -1       560 1.79008E-04 5.23562E-05 0.00000E+00
 -1       561 1.77501E-04 5.61479E-05 0.00000E+00
 -1       562 1.76770E-04 5.78890E-05 0.00000E+00
 -1       563 1.76697E-04 5.78828E-05 0.00000E+00
 -1       564 1.77165E-04 5.64337E-05 0.00000E+00
 -1       565 1.78059E-04 5.38464E-05 0.00000E+00
 -1       566 1.79263E-04 5.04262E-05 0.00000E+00
 -1       567 1.80663E-04 4.64787E-05 0.00000E+00
 -1       568 1.82145E-04 4.23098E-05-8.27181E-25
 -1       569 1.83596E-04 3.82253E-05 0.00000E+00
 -1       570 1.84902E-04 3.45308E-05 0.00000E+00
 -1       571 1.76386E-04 2.93820E-05 8.27181E-25
 -1       572 1.76482E-04 2.73902E-05 4.13590E-25
 -1       573 1.76579E-04 2.53499E-05-1.65436E-24
 -1       574 1.76676E-04 2.32769E-05 8.27181E-25
 -1       575 1.76774E-04 2.11867E-05 0.00000E+00
 -1       576 1.76871E-04 1.90951E-05 1.65436E-24
 -1       577 1.76968E-04 1.70179E-05-3.30872E-24
 -1       578 1.77066E-04 1.49709E-05 0.00000E+00
 -1       579 1.77163E-04 1.29699E-05 0.00000E+00
 -1       580 1.77261E-04 1.10306E-05 0.00000E+00
 -1       581 1.77359E-04 9.16884E-06 6.61744E-24
 -1       582 1.77456E-04 7.40036E-06 0.00000E+00
 -1       583 1.77554E-04 5.74092E-06 6.61744E-24
 -1       584 1.77653E-04 4.20612E-06 0.00000E+00
 -1       585 1.77751E-04 2.81139E-06 0.00000E+00
 -1       586 1.77859E-04 3.13487E-05 0.00000E+00
 -1       587 1.79387E-04 3.13864E-05-4.13590E-25
 -1       588 1.80918E-04 3.14238E-05 0.00000E+00
 -1       589 1.82494E-04 3.14606E-05 0.00000E+00
 -1       590 1.84159E-04 3.14961E-05 0.00000E+00
 -1       591 1.76949E-04 2.94706E-05 2.06795E-25
 -1       592 1.77611E-04 2.76101E-05 0.00000E+00
 -1       593 1.78278E-04 2.57348E-05-8.27181E-25
 -1       594 1.78949E-04 2.38492E-05 0.00000E+00
 -1       595 1.79621E-04 2.19585E-05 0.00000E+00
 -1       596 1.80293E-04 2.00672E-05 4.13590E-25
 -1       597 1.80964E-04 1.81801E-05 8.27181E-25
 -1       598 1.81631E-04 1.63021E-05-4.13590E-25
 -1       599 1.82293E-04 1.44379E-05 0.00000E+00
 -1       600 1.82948E-04 1.25922E-05 0.00000E+00
 -1       601 1.83595E-04 1.07699E-05 0.00000E+00
 -1       602 1.84231E-04 8.97555E-06-2.06795E-25
 -1       603 1.84855E-04 7.21409E-06 4.13590E-25
 -1       604 1.85466E-04 5.49034E-06 1.55096E-25
 -1       605 1.86061E-04 3.80896E-06 4.13590E-25
 -1       606 1.77862E-04 5.56846E-07-3.30872E-24
 -1       607 1.77872E-04-3.70040E-07 0.00000E+00
 -1       608 1.77881E-04-1.21490E-06 0.00000E+00
 -1       609 1.77890E-04-1.98350E-06 0.00000E+00
 -1       610 1.77898E-04-2.68166E-06 0.00000E+00
 -1       611 1.77907E-04-3.31527E-06 0.00000E+00
 -1       612 1.77915E-04-3.89020E-06 0.00000E+00
 -1       613 1.77924E-04-4.41237E-06 0.00000E+00
 -1       614 1.77932E-04-4.88767E-06 0.00000E+00
 -1       615 1.77941E-04-5.32200E-06 0.00000E+00
 -1       616 1.77949E-04-5.72125E-06 0.00000E+00
 -1       617 1.77958E-04-6.09132E-06 0.00000E+00
 -1       618 1.77966E-04-6.43811E-06 0.00000E+00
 -1       619 1.77975E-04-6.76753E-06 0.00000E+00
 -1       620 1.77983E-04-7.08546E-06 0.00000E+00
 -1       621 1.79049E-04 1.67220E-06 0.00000E+00
 -1       622 1.80396E-04 1.77379E-06 0.00000E+00
 -1       623 1.81860E-04 1.87520E-06-1.65436E-24
 -1       624 1.83410E-04 1.97631E-06 0.00000E+00
 -1       625 1.85014E-04 2.07715E-06 3.30872E-24
 -1       626 1.78339E-04 5.92071E-07 0.00000E+00
 -1       627 1.78805E-04-3.21902E-07 0.00000E+00
 -1       628 1.79251E-04-1.17890E-06 0.00000E+00
 -1       629 1.79678E-04-1.98712E-06-1.65436E-24
 -1       630 1.80090E-04-2.75477E-06-3.30872E-24
 -1       631 1.80490E-04-3.49007E-06 0.00000E+00
 -1       632 1.80881E-04-4.20126E-06 3.30872E-24
 -1       633 1.81267E-04-4.89659E-06 0.00000E+00
 -1       634 1.81649E-04-5.58427E-06 3.30872E-24
 -1       635 1.82031E-04-6.27254E-06 1.65436E-24
 -1       636 1.82417E-04-6.96963E-06 0.00000E+00
 -1       637 1.82809E-04-7.68379E-06 0.00000E+00
 -1       638 1.83211E-04-8.42324E-06 3.30872E-24
 -1       639 1.83624E-04-9.19624E-06-8.27181E-25
 -1       640 1.84053E-04-1.00110E-05-1.65436E-24
 -1       656 1.78535E-04-7.96317E-06 0.00000E+00
 -1       657 1.79496E-04-8.55150E-06-6.61744E-24
 -1       658 1.80733E-04-9.13843E-06-1.32349E-23
 -1       659 1.82101E-04-9.72501E-06 6.61744E-24
 -1       660 1.83417E-04-1.03134E-05 0.00000E+00
 -1       661 1.78195E-04-7.75375E-06 8.27181E-25
 -1       662 1.78436E-04-8.19868E-06-8.27181E-25
 -1       663 1.78708E-04-8.72761E-06-1.65436E-24
 -1       664 1.79009E-04-9.33436E-06-8.27181E-25
 -1       665 1.79338E-04-1.00134E-05-1.65436E-24
 -1       666 1.79692E-04-1.07590E-05 0.00000E+00
 -1       667 1.80069E-04-1.15658E-05 1.65436E-24
 -1       668 1.80466E-04-1.24286E-05 0.00000E+00
 -1       669 1.80883E-04-1.33421E-05 0.00000E+00
 -1       670 1.81316E-04-1.43014E-05 0.00000E+00
 -1       671 1.81765E-04-1.53015E-05 0.00000E+00
 -1       672 1.82227E-04-1.63376E-05-8.27181E-25
 -1       673 1.82701E-04-1.74050E-05 1.65436E-24
 -1       674 1.83184E-04-1.84991E-05 8.27181E-25
 -1       675 1.83675E-04-1.96151E-05 0.00000E+00
 -1       676 1.78307E-04-2.02415E-05 0.00000E+00
 -1       677 1.79483E-04-2.03439E-05 0.00000E+00
 -1       678 1.80658E-04-2.04462E-05 3.30872E-24
 -1       679 1.81831E-04-2.05483E-05-1.65436E-24
 -1       680 1.83002E-04-2.06503E-05 0.00000E+00
 -1       771 1.86207E-05 1.34718E-05 0.00000E+00
 -1       772 9.03704E-06 3.43121E-05 0.00000E+00
 -1       773 1.16203E-06 5.08394E-05-5.29396E-23
 -1       774-5.12152E-06 6.32998E-05 0.00000E+00
 -1       775-9.92841E-06 7.19493E-05 5.29396E-23
 -1       776-1.33781E-05 7.70591E-05 0.00000E+00
 -1       777-1.55898E-05 7.89100E-05-5.29396E-23
 -1       778-1.66855E-05 7.77957E-05-2.64698E-23
 -1       779-1.67864E-05 7.40176E-05 5.29396E-23
 -1       780-1.60159E-05 6.78879E-05-2.64698E-23
 -1       781-1.44964E-05 5.97250E-05 5.29396E-23
 -1       782-1.23519E-05 4.98554E-05-2.64698E-23
 -1       783-9.70578E-06 3.86101E-05 0.00000E+00
 -1       784-6.68242E-06 2.63258E-05 0.00000E+00
 -1       785-3.40541E-06 1.33418E-05 0.00000E+00
 -1       786 1.85991E-04 2.94686E-05 2.58494E-26
 -1       787 1.86033E-04 2.74588E-05-4.13590E-25
 -1       788 1.86076E-04 2.54902E-05 0.00000E+00
 -1       789 1.86119E-04 2.35547E-05 0.00000E+00
 -1       790 1.86162E-04 2.16477E-05 0.00000E+00
 -1       791 1.86205E-04 1.97645E-05 8.27181E-25
 -1       792 1.86249E-04 1.79028E-05 0.00000E+00
 -1       793 1.86292E-04 1.60606E-05 0.00000E+00
 -1       794 1.86336E-04 1.42376E-05-1.65436E-24
 -1       795 1.86379E-04 1.24336E-05-8.27181E-25
 -1       796 1.86423E-04 1.06507E-05 1.65436E-24
 -1       797 1.86466E-04 8.89048E-06 0.00000E+00
 -1       798 1.86510E-04 7.15734E-06 0.00000E+00
 -1       799 1.86554E-04 5.45552E-06 8.27181E-25
 -1       800 1.86598E-04 3.79250E-06 1.65436E-24
 -1       801 1.42811E-04 2.82897E-05 0.00000E+00
 -1       802 1.22506E-05 1.77426E-05-2.64698E-23
 -1       803-9.97233E-05 9.02034E-06 0.00000E+00
 -1       804-8.91912E-05 6.25306E-06 0.00000E+00
 -1       805-2.95566E-05 2.50549E-06 5.29396E-23
 -1       806 1.86612E-04 2.94017E-05-1.65436E-24
 -1       807 1.87258E-04 2.73018E-05-1.65436E-24
 -1       808 1.87891E-04 2.52330E-05-3.30872E-24
 -1       809 1.88511E-04 2.31994E-05 1.65436E-24
 -1       810 1.89116E-04 2.12048E-05 3.30872E-24
 -1       811 1.89706E-04 1.92529E-05 1.65436E-24
 -1       812 1.90278E-04 1.73476E-05 0.00000E+00
 -1       813 1.90831E-04 1.54926E-05-1.65436E-24
 -1       814 1.91364E-04 1.36917E-05-1.65436E-24
 -1       815 1.91875E-04 1.19485E-05 1.65436E-24
 -1       816 1.92363E-04 1.02668E-05 3.30872E-24
 -1       817 1.92828E-04 8.65045E-06-1.65436E-24
 -1       818 1.93266E-04 7.10303E-06 0.00000E+00
 -1       819 1.93677E-04 5.62830E-06 1.65436E-24
 -1       820 1.94061E-04 4.22993E-06 1.65436E-24
 -1       821 1.86516E-04 1.52060E-07-1.65436E-24
 -1       822 1.86379E-04-2.72799E-06 1.65436E-24
 -1       823 1.86242E-04-6.12724E-06 3.30872E-24
 -1       824 1.86103E-04-9.70545E-06-1.65436E-24
 -1       825 1.85965E-04-1.30748E-05-3.30872E-24
 -1       826 1.85828E-04-1.58487E-05 0.00000E+00
 -1       827 1.85692E-04-1.78003E-05 0.00000E+00
 -1       828 1.85559E-04-1.87077E-05 0.00000E+00
 -1       829 1.85425E-04-1.86290E-05 0.00000E+00
 -1       830 1.85291E-04-1.76283E-05 0.00000E+00
 -1       831 1.85157E-04-1.60170E-05-3.30872E-24
 -1       832 1.85022E-04-1.41100E-05 0.00000E+00
 -1       833 1.84887E-04-1.23018E-05-3.30872E-24
 -1       834 1.84755E-04-1.09861E-05 0.00000E+00
 -1       835 1.84623E-04-1.04250E-05 0.00000E+00
 -1       836 1.88145E-04 2.29790E-06 0.00000E+00
 -1       837 1.89523E-04 2.42299E-06 0.00000E+00
 -1       838 1.90807E-04 2.54799E-06-3.30872E-24
 -1       839 1.92029E-04 2.67230E-06 0.00000E+00
 -1       840 1.93222E-04 2.79645E-06 8.27181E-25
 -1       856 1.84481E-04-1.17630E-05 8.27181E-25
 -1       857 1.84461E-04-1.25164E-05-3.23117E-27
 -1       858 1.84441E-04-1.31569E-05-4.13590E-25
 -1       859 1.84421E-04-1.37054E-05 0.00000E+00
 -1       860 1.84400E-04-1.41829E-05 0.00000E+00
 -1       861 1.84379E-04-1.46102E-05 0.00000E+00
 -1       862 1.84359E-04-1.50085E-05 8.27181E-25
 -1       863 1.84338E-04-1.53987E-05-4.13590E-25
 -1       864 1.84317E-04-1.58019E-05 8.27181E-25
 -1       865 1.84296E-04-1.62392E-05 4.13590E-25
 -1       866 1.84276E-04-1.67315E-05 0.00000E+00
 -1       867 1.84255E-04-1.72998E-05 0.00000E+00
 -1       868 1.84234E-04-1.79650E-05 0.00000E+00
 -1       869 1.84213E-04-1.87481E-05 4.13590E-25
 -1       870 1.84191E-04-1.96695E-05-8.27181E-25
 -1       871 1.85667E-04-1.08804E-05-8.27181E-25
 -1       872 1.86979E-04-1.08881E-05 0.00000E+00
 -1       873 1.88370E-04-1.08964E-05 4.13590E-25
 -1       874 1.89772E-04-1.09055E-05 0.00000E+00
 -1       875 1.91119E-04-1.09151E-05 1.44757E-24
 -1       876 1.84956E-04-1.17488E-05 3.30872E-24
 -1       877 1.85392E-04-1.25559E-05 1.65436E-24
 -1       878 1.85806E-04-1.33052E-05-3.30872E-24
 -1       879 1.86201E-04-1.40038E-05 0.00000E+00
 -1       880 1.86581E-04-1.46592E-05 0.00000E+00
 -1       881 1.86947E-04-1.52786E-05-1.65436E-24
 -1       882 1.87302E-04-1.58692E-05-3.30872E-24
 -1       883 1.87650E-04-1.64382E-05 0.00000E+00
 -1       884 1.87991E-04-1.69930E-05 0.00000E+00
 -1       885 1.88331E-04-1.75406E-05 0.00000E+00
 -1       886 1.88670E-04-1.80884E-05 0.00000E+00
 -1       887 1.89012E-04-1.86435E-05 0.00000E+00
 -1       888 1.89359E-04-1.92133E-05-3.30872E-24
 -1       889 1.89714E-04-1.98051E-05 0.00000E+00
 -1       890 1.90079E-04-2.04260E-05 0.00000E+00
 -1       891 1.85356E-04-2.08065E-05 1.65436E-24
 -1       892 1.86521E-04-2.08629E-05-8.27181E-25
 -1       893 1.87637E-04-2.09193E-05 0.00000E+00
 -1       894 1.88681E-04-2.09754E-05 4.13590E-25
 -1       895 1.89627E-04-2.10312E-05 8.27181E-25
 -1       956 1.94289E-04 1.76252E-06 0.00000E+00
 -1       957 1.94159E-04 7.02143E-07 1.65436E-24
 -1       958 1.94030E-04-2.79961E-07 0.00000E+00
 -1       959 1.93900E-04-1.19472E-06 1.65436E-24
 -1       960 1.93770E-04-2.05312E-06 3.30872E-24
 -1       961 1.93640E-04-2.86616E-06 0.00000E+00
 -1       962 1.93510E-04-3.64487E-06 0.00000E+00
 -1       963 1.93380E-04-4.40028E-06 0.00000E+00
 -1       964 1.93250E-04-5.14343E-06 0.00000E+00
 -1       965 1.93121E-04-5.88535E-06 0.00000E+00
 -1       966 1.92991E-04-6.63709E-06 0.00000E+00
 -1       967 1.92861E-04-7.40968E-06 0.00000E+00
 -1       968 1.92731E-04-8.21414E-06 0.00000E+00
 -1       969 1.92602E-04-9.06147E-06 1.65436E-24
 -1       970 1.92472E-04-9.96264E-06 0.00000E+00
 -1       971 1.92227E-04-1.18915E-05 0.00000E+00
 -1       972 1.92109E-04-1.27611E-05 0.00000E+00
 -1       973 1.91990E-04-1.35474E-05 0.00000E+00
 -1       974 1.91871E-04-1.42611E-05 0.00000E+00
 -1       975 1.91752E-04-1.49129E-05 0.00000E+00
 -1       976 1.91633E-04-1.55137E-05 1.65436E-24
 -1       977 1.91514E-04-1.60741E-05 3.30872E-24
 -1       978 1.91395E-04-1.66051E-05 0.00000E+00
 -1       979 1.91276E-04-1.71173E-05-3.30872E-24
 -1       980 1.91157E-04-1.76216E-05-1.65436E-24
 -1       981 1.91038E-04-1.81287E-05 0.00000E+00
 -1       982 1.90919E-04-1.86496E-05 0.00000E+00
 -1       983 1.90800E-04-1.91949E-05 0.00000E+00
 -1       984 1.90682E-04-1.97755E-05 1.65436E-24
 -1       985 1.90564E-04-2.04021E-05 0.00000E+00
 -3
    1PSTEP                        30          15           1          
  100CL  115 6.52592E-01         409                     0   15           1
 -4  STRESS      6    1
 -5  SXX         1    4    1    1
 -5  SYY         1    4    2    2
 -5  SZZ         1    4    3    3
 -5  SXY         1    4    1    2
 -5  SYZ         1    4    2    3
 -5  SZX         1    4    3    1
 -1         1-4.70549E+06-1.68169E+06-1.02351E+06-1.61280E+06-2.91038E-10 1.30909E-07
 -1         2 4.68437E+05 5.91697E+06 1.80294E+06 2.17402E+06 1.70985E-08 1.76879E-07
 -1         3-1.34422E+03-1.60855E+06 4.08592E+02-2.17025E+03-5.91211E-10 1.31258E-08
 -1         5-5.83321E+01 3.76326E+05 9.71952E+00-1.12226E+00-4.43559E-10 3.77295E-08
 -1         8-7.38960E+05-2.41539E+05-8.37390E+04-3.51110E+05-1.53705E-10-6.19148E-08
 -1         9 9.39485E+06 8.49186E+05 1.84372E+06-8.10858E+05 2.07801E-08-5.43892E-08
 -1        10-2.20810E+03-1.67624E+06-3.93380E+03-1.46709E+04-1.27493E-08-1.56809E-08
 -1        12-5.44739E+01 3.76347E+05 3.18492E+02-7.73166E+00-5.39757E-10-5.37239E-09
 -1        15 1.19108E+03 6.54563E+02 3.85016E+03 1.61785E+00 5.72129E-11 3.71071E-07
 -1        16 1.97231E+07-1.91203E+05 2.74271E+06-1.68622E+06 1.86070E-08 9.85650E-08
 -1        17 7.15059E+06 5.20516E+06 1.92726E+06 5.05661E+06 2.15165E-08 1.89757E-08
 -1        18 1.25074E+05 2.88353E+04 7.26838E+02-1.15295E+05 1.22718E-08 1.65710E-09
 -1        19 1.19452E+05 1.38134E+05-9.25927E+02 2.16408E+04 1.32695E-09-4.26262E-09
 -1        20-7.82066E+04-5.60372E+05-1.25614E+05 2.55760E+04-1.61693E-09 5.29447E-09
 -1        21-4.52652E+01-2.91381E+05-9.11650E+02 2.35268E+02 1.14343E-08 1.68514E-08
 -1        24 1.17819E+07 1.00614E+07 3.29829E+06 9.34929E+06-1.50001E-07-5.01556E-08
 -1        25 9.49070E+04 1.56972E+05 7.17549E+04-5.80408E+05 4.67116E-10 1.42267E-08
 -1        26-5.37836E+04 8.98299E+04-2.40655E+04 6.42116E+02 2.42653E-10 1.41212E-08
 -1        27-7.51081E+04-3.03086E+05-1.11062E+05 6.74725E+04 3.65101E-09-2.04606E-09
 -1        28 2.19525E+04-8.37754E+04 1.66244E+04 2.06542E+04-4.26664E-09-9.40219E-10
 -1        32-1.65158E+06-3.07135E+06-1.83435E+05 3.40424E+05-4.05635E-08-6.62396E-09
 -1        33-1.74768E+05 9.05556E+04 3.16175E+04-3.80326E+04-2.80852E-09 1.48442E-08
 -1        34-2.19094E+05-2.43023E+04 6.66258E+02 7.36531E+04-4.65840E-09 8.58578E-09
 -1        35-2.26015E+04-3.32274E+04-1.32251E+03 5.07002E+04-3.93282E-09 2.57811E-09
 -1        51 5.24977E+04-2.01938E+05 1.15217E+05-5.93213E+05-3.63798E-10 1.17980E-07
 -1        52 1.87587E+04-1.82841E+05 6.18210E+04-6.94421E+05-6.98492E-10 6.04850E-08
 -1        53 4.81565E+03-1.98705E+05 3.41734E+04-5.91053E+05 2.18279E-11-1.75300E-07
 -1        54 1.05223E+04-1.94901E+05 3.20724E+04-6.96622E+05-2.98314E-10 4.27463E-09
 -1        55 2.20331E+04-2.03952E+05 4.35880E+04-5.90805E+05 1.16415E-10-8.97089E-08
 -1        56-8.78192E+06-1.02548E+06-7.61996E+05-3.47243E+06-1.23255E-08-1.67842E-07
 -1        57-9.38772E+06-1.39560E+06-5.10806E+05-3.08505E+06-5.36966E-09-2.63157E-07
 -1        58-8.87390E+06-1.31899E+06-1.78214E+05-3.48477E+06-1.36970E-08-6.16856E-08
 -1        59-9.26918E+06-1.06211E+06-1.05847E+05-3.09096E+06-8.62246E-09-1.78130E-07
 -1        60-8.90232E+06-1.34763E+06-4.18590E+04-3.47237E+06 8.73797E-09-1.73630E-07
 -1        61-9.16503E+06-1.08862E+06-2.14377E+04-3.16453E+06 3.09956E-09-1.23946E-07
 -1        62-8.97048E+06-1.29612E+06-1.44938E+04-3.40621E+06-1.26020E-08-1.24803E-07
 -1        63-9.00662E+06-1.22657E+06-5.57678E+03-3.32063E+06 1.38371E-08 3.38673E-08
 -1        64-9.05362E+06-1.21438E+06-1.41221E+04-3.31125E+06-6.77755E-09 1.26287E-07
 -1        65-8.87181E+06-1.37710E+06-1.86540E+04-3.49715E+06 1.78916E-08-7.48987E-08
 -1        66-9.11027E+06-1.14236E+06-3.80187E+04-3.23338E+06-1.39225E-08 6.69061E-08
 -1        67-8.82838E+06-1.49357E+06-9.42750E+04-3.59738E+06-5.28789E-08 7.16755E-08
 -1        68-9.10614E+06-1.09302E+06-1.58770E+05-3.21688E+06-3.45972E-08-6.95654E-08
 -1        69-8.99748E+06-1.73101E+06-4.55934E+05-3.52527E+06-5.42550E-08-1.55051E-07
 -1        70-8.94133E+06-9.13910E+05-6.79758E+05-3.30180E+06 6.26460E-09-1.28639E-08
 -1        86-4.75372E+05-7.47117E+06-9.83622E+05-1.04781E+06-1.63135E-07 7.31161E-08
 -1        87 6.69893E+05 5.12202E+05 8.15040E+05 2.42863E+06-2.73067E-07-5.17393E-08
 -1        88-8.82314E+04-2.68241E+06 6.07450E+04-1.36034E+06-2.37804E-07-5.56702E-09
 -1        89 9.10039E+05 3.86840E+05 8.05997E+05 2.49207E+06-3.34456E-07-2.73023E-07
 -1        90-6.88234E+05-7.37155E+06-1.08961E+06-1.11602E+06-7.66122E-08-3.29528E-08
 -1       121-1.84718E+03-1.61301E+06-4.46374E+02 1.07682E+03 1.40702E-09 2.23627E-08
 -1       122-1.15919E+03-1.60860E+06 7.88569E+02-4.34157E+03-5.08767E-09 3.41242E-09
 -1       123-1.87427E+03-1.61315E+06 3.95932E+02 3.21538E+03 4.15582E-09-1.03246E-08
 -1       124 5.11358E+02-1.60809E+06 3.06318E+03-9.06826E+03-1.00208E-08 2.35959E-08
 -1       125-2.72283E+03-1.61406E+06 3.73934E+03 5.76469E+03 6.01722E-09 1.41008E-08
 -1       191-6.15375E+01 3.76347E+05 9.02115E+00 5.80832E-01-4.82809E-10 1.08103E-08
 -1       192-5.92598E+01 3.76327E+05 2.07046E+01-3.67920E+00-6.68739E-10 1.88084E-08
 -1       193-6.39851E+01 3.76347E+05 3.59793E+01 3.21950E+00-1.02665E-09 5.17139E-09
 -1       194-6.22365E+01 3.76330E+05 7.86203E+01-8.37702E+00-5.76748E-10-4.40923E-09
 -1       195-6.86839E+01 3.76344E+05 1.51249E+02 5.41450E+00-1.35776E-09-1.61072E-08
 -1       251-1.99964E+06 4.70461E+03-1.68278E+05 7.39743E+04-5.88261E-09-3.53830E-08
 -1       252-1.43754E+06-6.44004E+03-2.06840E+03-2.59476E+05 1.12500E-08-7.07560E-08
 -1       253-1.78510E+06-6.70279E+03-3.86359E+04 2.07013E+05-4.03543E-09-3.67627E-08
 -1       254-1.71288E+06 3.00405E+04-2.89530E+03-4.02136E+05 1.18935E-08-9.41407E-08
 -1       255-1.75270E+06-8.29367E+03-1.05077E+04 2.18398E+05 3.71529E-09 1.87843E-07
 -1       256-1.49375E+06 2.84664E+04 4.91833E+04-3.02962E+05-1.52450E-08 2.44501E-07
 -1       257-1.98287E+06-2.26735E+04-5.50097E+04 1.06359E+05-3.86353E-09 2.22747E-08
 -1       258-1.22240E+06 2.04397E+04 1.01913E+05-6.67969E+03-1.99134E-08-1.05022E-07
 -1       259-1.99749E+06-2.20733E+04-5.59391E+04-7.73791E+04 1.44064E-08 2.76382E-08
 -1       260-1.45996E+06 2.43391E+04 5.96844E+04 3.00112E+05-5.07498E-10-1.17795E-07
 -1       261-1.76912E+06-7.01925E+03-3.35038E+03-1.99255E+05-4.05244E-08-1.66160E-08
 -1       262-1.70253E+06 3.45544E+04 2.09590E+04 4.17973E+05 5.55607E-09-7.41338E-08
 -1       263-1.77925E+06-1.22396E+04 3.47431E+03-1.96482E+05-1.88184E-08 5.57193E-08
 -1       264-1.42547E+06 6.41988E+04 9.92632E+04 2.90581E+05-1.02689E-07 1.63389E-07
 -1       265-2.02016E+06-5.79361E+04-1.50384E+04-7.05826E+04-3.00606E-08 1.41761E-07
 -1       266-2.15627E+04-1.00831E+04 5.05902E+04-3.46160E+01 2.43745E-10 1.21300E-07
 -1       267 2.49970E+04 1.17515E+04 3.57574E+04 3.99412E+01 2.77396E-10-2.70788E-07
 -1       268-3.35205E+03-1.66437E+03 1.32908E+04-5.08914E+00 1.91903E-10-1.32501E-08
 -1       269 3.95778E+03 1.99185E+03 8.63886E+03 5.92816E+00-1.54614E-10-1.75806E-07
 -1       270-5.94068E+02-3.27279E+02 4.17010E+03-8.04490E-01 5.29781E-11 5.54301E-08
 -1       271-1.86917E+06-2.28706E+05-1.37445E+05-7.19052E+05 1.81617E-08 4.31246E-08
 -1       272-1.93679E+06-3.09858E+05-8.82688E+04-6.96144E+05 6.61657E-09 3.59869E-08
 -1       273-1.89566E+06-2.62348E+05-3.25818E+04-7.12148E+05 6.31826E-09 1.40990E-08
 -1       274-1.90461E+06-2.69617E+05-1.80889E+04-7.07176E+05-3.29792E-08 5.43400E-08
 -1       275-1.90054E+06-2.64652E+05-7.70929E+03-7.09566E+05-2.85509E-08-1.88884E-08
 -1       276-1.89746E+06-2.68217E+05-3.88756E+03-7.12066E+05 1.92813E-09-6.28593E-08
 -1       277-1.90274E+06-2.63301E+05-2.07391E+03-7.07432E+05 2.25027E-08 1.74321E-07
 -1       278-1.89365E+06-2.71178E+05-1.17293E+03-7.16304E+05 9.76797E-09 1.51146E-07
 -1       279-1.90448E+06-2.61566E+05-1.34904E+03-7.05443E+05-4.16785E-08-2.87905E-08
 -1       280-1.89075E+06-2.74612E+05-1.95309E+03-7.20248E+05 9.17498E-09 9.40602E-08
 -1       281-1.90589E+06-2.59730E+05-3.73915E+03-7.03657E+05-1.38789E-09 4.05767E-08
 -1       282-1.88976E+06-2.79842E+05-8.54817E+03-7.23539E+05 4.22733E-09 1.56638E-07
 -1       283-1.90582E+06-2.56351E+05-1.53731E+04-7.02298E+05 1.06756E-08 3.02816E-08
 -1       284-1.90089E+06-3.03063E+05-4.16216E+04-7.23509E+05-4.42014E-09-2.22832E-07
 -1       285-1.89541E+06-2.38385E+05-6.47802E+04-7.03175E+05-4.50636E-08-1.20875E-07
 -1       301 9.29201E+03-5.49496E+05 1.71608E+05-9.56628E+05-3.28873E-09-1.67202E-08
 -1       302 1.04184E+04-5.05192E+05 1.03913E+05-1.39804E+06-5.36966E-09 6.74499E-08
 -1       303-9.31332E+03-5.37005E+05 6.16172E+04-9.54199E+05-5.74801E-10 1.06462E-07
 -1       304-3.96686E+03-5.09293E+05 6.70644E+04-1.39724E+06-8.76025E-09 4.01655E-07
 -1       305-8.60017E+03-5.31197E+05 8.91011E+04-9.57104E+05-3.98904E-09 2.17435E-07
 -1       306-2.75872E+07-5.63071E+06-7.70845E+06-1.02466E+06-8.57981E-08-7.04895E-08
 -1       307 2.29650E+07 2.23026E+06 4.96279E+06-1.32722E+07-7.73100E-07-1.97906E-08
 -1       308-7.61270E+06-8.04879E+05-5.42130E+05 4.69086E+06-2.08674E-07 2.39976E-07
 -1       309-3.52124E+06 6.89613E+06 1.90335E+06-1.90506E+07 5.86027E-07-7.77800E-09
 -1       310-1.13401E+07-1.38755E+06-1.54794E+06 4.59251E+06-1.55414E-08-8.91887E-08
 -1       311 3.16131E+07-1.49435E+05 6.18745E+06-8.81016E+06 1.00117E-07 4.86616E-08
 -1       312-2.87216E+07-5.79517E+06-7.37337E+06-4.09896E+06 2.29338E-07 2.01660E-07
 -1       313 4.07039E+07 1.15353E+07 9.39713E+06 1.96136E+07 1.02882E-07 2.57191E-07
 -1       314-1.69392E+07-1.50612E+07-6.68750E+06-1.14582E+07 4.52797E-07-1.87778E-07
 -1       315-9.93881E+05 2.54279E+07 5.10910E+06 1.06446E+07-8.19447E-07-1.15251E-07
 -1       316 5.51313E+05-9.29987E+06-5.05277E+05-3.30514E+06-1.23130E-06-3.75207E-07
 -1       317-1.70819E+07 2.03339E+07 1.86892E+06-6.55089E+06 7.93618E-07-6.80229E-07
 -1       318-1.20872E+06-1.10632E+07-1.59522E+06-4.40343E+06-8.23464E-07 1.67172E-07
 -1       319 5.34485E+06 2.68556E+07 5.95718E+06 1.42881E+07-1.81717E-07 2.67348E-07
 -1       320-2.05579E+07-1.52637E+07-8.57957E+06-1.14493E+07 1.75671E-07-3.28873E-08
 -1       336-4.71339E+02-1.74615E+06-1.38426E+04 8.76186E+03-2.52694E-08 1.29367E-08
 -1       337-5.33893E+03-1.74627E+06-1.80265E+04-2.12171E+04-4.75629E-08-2.81616E-08
 -1       338 4.62775E+02-1.74568E+06-2.80679E+04 1.22406E+04-3.34803E-08 1.02445E-08
 -1       339-2.97930E+04-1.76313E+06-6.35384E+04-2.80128E+04-5.78721E-08 1.85828E-08
 -1       340 1.98085E+04-1.73131E+06-9.99282E+04 1.54376E+04-3.97340E-08 2.15659E-08
 -1       406-3.26768E+01 3.76330E+05 6.26118E+02 2.70156E+00-1.63067E-09 5.45333E-09
 -1       407 1.65061E+02 3.76457E+05 1.33640E+03 2.09787E+01-2.50921E-10 1.11113E-08
 -1       408 6.31692E+02 3.76233E+05 2.66565E+03-2.40694E+01-2.10571E-09 4.64752E-09
 -1       409 2.83567E+03 3.77308E+05 6.00653E+03 2.54517E+02-2.70234E-10 3.66072E-09
 -1       410 8.24478E+03 3.75467E+05 1.22597E+04-2.44879E+02-2.55386E-09 2.80124E-09
 -1       521-2.91247E+07-6.90923E+06-8.98969E+06-7.01725E+05-1.15833E-07 5.06407E-09
 -1       522 2.37186E+07 2.93854E+06 5.04042E+06-1.64233E+07-4.91040E-07-3.96743E-07
 -1       523-8.33184E+06-1.08741E+06-5.52850E+05 5.13005E+06 6.28643E-09-4.82440E-07
 -1       524-6.72019E+06 9.45661E+06 2.05866E+06-2.19892E+07 6.56219E-07-3.40253E-07
 -1       525-1.22618E+07-1.89550E+06-1.69985E+06 5.02228E+06 8.51753E-07-1.24855E-07
 -1       526 3.42900E+07-1.94184E+05 6.49893E+06-1.13048E+07 8.28208E-07 6.79865E-08
 -1       527-3.04852E+07-7.26846E+06-8.47668E+06-3.98742E+06 4.76139E-07 1.34954E-07
 -1       528 4.44454E+07 1.26719E+07 9.79808E+06 2.21988E+07 3.77418E-07-1.24215E-07
 -1       529-1.79422E+07-1.70268E+07-7.65586E+06-1.16166E+07 1.10187E-07-1.06986E-07
 -1       530-3.28159E+06 2.95912E+07 5.39876E+06 1.05410E+07-2.85654E-07 5.26838E-07
 -1       531 4.85161E+05-1.04192E+07-5.01284E+05-3.42039E+06-6.79065E-07 2.75235E-07
 -1       532-1.99578E+07 2.25304E+07 2.04626E+06-1.01098E+07 4.92262E-07-6.07441E-07
 -1       533-1.28147E+06-1.22043E+07-1.68481E+06-4.41754E+06-1.39378E-07-9.71835E-07
 -1       534 3.37570E+06 3.11661E+07 6.19958E+06 1.47980E+07-6.73172E-08 7.50937E-07
 -1       535-2.16980E+07-1.73672E+07-9.79749E+06-1.16035E+07 8.47504E-08 4.60132E-07
 -1       536-6.79201E+05-4.59664E+04-3.62432E+04-5.09653E+04-1.75032E-09 5.17794E-08
 -1       537-8.11462E+04 4.45582E+04 8.20895E+04 1.16739E+05-1.01916E-07 9.55374E-08
 -1       538-3.93272E+05 2.57076E+03 5.25202E+03-6.86118E+04 4.21915E-08 8.53779E-08
 -1       539-2.78724E+05 3.02236E+03 2.38770E+04 1.31417E+05 1.63336E-07 1.12117E-07
 -1       540-4.86543E+05-3.43541E+02-1.88449E+04-6.61091E+04 4.11299E-08 1.02778E-07
 -1       541 1.00980E+05 1.55096E+04 9.73910E+04 9.18314E+04 1.68338E-08 6.39319E-08
 -1       542-7.62755E+05-1.84397E+04-7.68823E+04-2.82664E+04 6.19907E-08 3.97195E-08
 -1       543 3.37366E+05 2.49979E+04 1.44310E+05-1.27512E+04-3.60867E-08 4.32283E-09
 -1       544-7.16598E+05-1.50730E+04-6.83052E+04 3.78897E+04-2.88260E-08-4.36662E-08
 -1       545-7.37665E+03 8.51899E+03 7.25507E+04-1.07139E+05 2.47178E-09-9.09795E-08
 -1       546-4.27255E+05 5.69492E+03-1.12580E+04 6.58232E+04 2.16244E-08-9.21152E-08
 -1       547-2.95668E+05-4.68289E+03 8.95436E+03-1.34190E+05-1.11673E-07-9.46543E-08
 -1       548-4.36041E+05 4.58829E+03-2.27802E+04 6.55414E+04-9.76277E-08-9.54651E-08
 -1       549 1.11236E+04 1.28327E+04 5.28351E+04-1.04832E+05-7.98622E-08-6.41176E-08
 -1       550-7.25832E+05-1.86769E+04-1.21569E+05 3.58402E+04 7.12862E-09-4.11364E-08
 -1       551 3.88328E+04-7.66447E+05-1.00856E+04-1.22655E+06-9.72796E-08 1.74623E-10
 -1       552 8.82960E+04-8.07807E+05 1.32463E+04-1.74910E+06-6.83649E-08 5.02987E-08
 -1       553 6.75491E+04-8.05338E+05 3.43235E+04-1.22021E+06-1.12326E-07 2.94385E-08
 -1       554 1.25811E+05-8.21572E+05 8.38271E+04-1.75106E+06-7.30506E-08 1.01209E-08
 -1       555 9.72471E+04-8.28445E+05 1.52280E+05-1.22017E+06-1.18933E-07-1.47338E-08
 -1       556 2.11668E+05-3.65498E+05 3.40667E+04-3.94559E+05-2.41562E-08-1.56579E-08
 -1       557 3.38304E+05-4.66649E+05 2.02200E+04-5.09444E+05-1.09139E-09 2.46837E-08
 -1       558 1.95441E+05-3.60593E+05 4.45179E+03-3.97210E+05-1.93540E-08-5.18776E-09
 -1       559 3.14230E+05-4.68165E+05 3.37817E+03-5.28309E+05 2.63535E-08-1.40899E-08
 -1       560 1.81459E+05-3.51808E+05-8.25470E+02-4.07233E+05 1.27475E-08 5.27507E-10
 -1       561 2.96547E+05-4.61168E+05 3.85831E+02-5.40312E+05-6.70843E-09-5.72982E-09
 -1       562 1.70407E+05-3.44923E+05-1.06497E+03-4.15225E+05-8.78936E-09-6.83940E-09
 -1       563 2.83430E+05-4.55449E+05 3.65133E+01-5.48865E+05 1.67347E-10 7.09406E-11
 -1       564 1.62557E+05-3.40027E+05-4.98477E+02-4.20784E+05 5.83532E-09-8.67612E-09
 -1       565 2.74799E+05-4.51691E+05 4.36555E+01-5.54376E+05 6.46105E-09 1.19412E-08
 -1       566 1.58025E+05-3.37158E+05-2.19484E+02-4.23955E+05-6.11180E-09 1.67347E-09
 -1       567 2.70696E+05-4.49905E+05-3.28426E+02-5.56858E+05 2.00889E-08 2.10275E-08
 -1       568 1.56894E+05-3.36468E+05-1.03848E+03-4.24842E+05 2.83035E-09 2.71393E-09
 -1       569 2.69785E+05-4.49854E+05-2.62406E+03-5.55356E+05 7.47968E-09 5.75528E-09
 -1       570 1.60216E+05-3.39585E+05-5.75398E+03-4.23877E+05 1.44792E-08 4.72392E-09
 -1       571 2.83216E+05 1.02516E+04 1.46859E+04-9.09684E+04 1.86174E-09 1.80708E-08
 -1       572 2.85350E+05 3.83203E+03 7.19706E+03-9.98006E+04 1.93131E-09 8.26003E-09
 -1       573 2.84064E+05 1.17640E+03 3.19784E+03-9.07968E+04 1.97088E-09 1.94632E-09
 -1       574 2.84279E+05 6.63314E+02 1.60356E+03-1.00016E+05 3.27532E-09 3.28055E-09
 -1       575 2.84157E+05 3.94508E+02 7.56777E+02-9.07734E+04-2.01067E-09 1.77388E-08
 -1       576 2.84145E+05 4.01397E+02 3.87329E+02-1.00045E+05-6.50834E-09-5.84350E-09
 -1       577 2.84193E+05 3.38995E+02 1.93284E+02-9.07702E+04-5.89262E-09-7.52880E-09
 -1       578 2.84171E+05 3.66466E+02 1.11393E+02-1.00049E+05-6.08998E-09-1.01809E-08
 -1       579 2.84259E+05 3.06293E+02 7.63633E+01-9.07699E+04 5.10772E-09-8.11815E-09
 -1       580 2.84263E+05 3.20659E+02 8.80756E+01-1.00045E+05-6.41012E-09-1.40953E-08
 -1       581 2.84362E+05 2.53840E+02 1.33060E+02-9.07756E+04 6.59929E-09 5.19140E-09
 -1       582 2.84423E+05 2.89432E+02 2.69881E+02-9.99857E+04 3.84262E-09-2.58206E-09
 -1       583 2.84488E+05 3.00194E+02 5.18630E+02-9.08295E+04 2.16460E-09-3.60842E-10
 -1       584 2.84774E+05 7.22308E+02 1.17282E+03-9.95318E+04 8.84938E-09-1.67238E-08
 -1       585 2.84504E+05 1.71454E+03 2.37589E+03-9.12289E+04 9.74978E-10-4.55475E-09
 -1       586-3.34880E+03 1.11884E+05-2.98805E+03-2.45284E+05-4.75984E-09-2.08843E-09
 -1       587-1.24936E+03 1.11613E+05 6.70286E+02-2.69956E+05-4.17640E-09 1.46230E-08
 -1       588 4.55880E+02 1.11449E+05 4.58211E+03-2.45151E+05-3.90719E-09 2.31767E-08
 -1       589 5.01517E+03 1.13838E+05 1.19567E+04-2.69722E+05-7.86167E-09 2.23117E-08
 -1       590 1.61882E+04 1.10154E+05 2.51099E+04-2.45573E+05-2.65936E-09 1.82899E-08
 -1       591-7.16343E+04-1.55133E+04-2.17590E+04-3.08325E+04-3.38787E-10 5.20049E-09
 -1       592-7.54982E+04-1.90348E+04-1.17863E+04-3.44312E+04 5.65181E-09-3.70244E-09
 -1       593-7.38111E+04-1.39337E+04-4.90610E+03-3.24273E+04 1.40482E-09-8.61291E-09
 -1       594-7.24927E+04-1.58432E+04-2.44680E+03-3.45465E+04 3.48348E-09-9.14764E-09
 -1       595-7.39771E+04-1.39285E+04-1.12339E+03-3.24998E+04-6.78995E-10 2.03840E-08
 -1       596-7.22870E+04-1.56973E+04-5.70963E+02-3.45222E+04 1.23572E-09 1.40561E-08
 -1       597-7.39979E+04-1.39433E+04-3.10667E+02-3.25025E+04-2.36440E-09 5.01331E-09
 -1       598-7.22668E+04-1.56915E+04-2.49302E+02-3.45153E+04-3.22376E-09-2.09220E-08
 -1       599-7.39967E+04-1.39438E+04-3.17907E+02-3.25022E+04 4.15707E-09-7.18831E-09
 -1       600-7.22871E+04-1.56979E+04-5.90131E+02-3.45202E+04 4.45976E-09-1.65875E-09
 -1       601-7.39727E+04-1.39297E+04-1.16397E+03-3.24987E+04 3.51520E-09-3.18460E-09
 -1       602-7.25002E+04-1.58481E+04-2.53663E+03-3.45417E+04-2.83103E-09-8.37224E-09
 -1       603-7.37980E+04-1.39380E+04-5.08694E+03-3.24243E+04 1.16302E-09-3.27718E-08
 -1       604-7.56334E+04-1.91383E+04-1.22200E+04-3.43981E+04 5.19481E-09-2.39952E-08
 -1       605-7.15216E+04-1.55929E+04-2.25596E+04-3.07896E+04 6.45440E-09 9.51968E-09
 -1       606 2.68599E+04-1.39301E+04-2.49772E+04 2.43482E+04 1.16715E-08-1.06993E-08
 -1       607 2.25916E+04-4.54669E+03-1.24384E+04 2.73586E+04 3.21597E-09 1.15738E-08
 -1       608 2.50232E+04-8.17573E+02-5.56843E+03 2.41740E+04-5.67343E-09 1.18350E-08
 -1       609 2.45559E+04-2.76615E+02-2.81297E+03 2.75754E+04-4.58385E-10 7.04472E-09
 -1       610 2.48142E+04-3.56792E+01-1.34222E+03 2.41535E+04 1.76715E-09 5.73505E-09
 -1       611 2.47398E+04-3.46763E+01-6.76732E+02 2.75989E+04 3.45199E-09-2.56423E-08
 -1       612 2.47672E+04-2.16193E+01-3.21831E+02 2.41514E+04-1.80808E-09-3.54180E-09
 -1       613 2.47498E+04-3.00219E+01-1.44296E+02 2.76016E+04 3.30783E-09 1.47252E-08
 -1       614 2.47447E+04-2.72657E+01-3.40896E+01 2.41507E+04 3.59796E-09 1.08391E-08
 -1       615 2.47437E+04-2.80462E+01 5.99181E+01 2.76021E+04 4.62251E-09-1.33975E-08
 -1       616 2.47271E+04-2.37936E+01 1.80181E+02 2.41510E+04 3.34967E-09-1.64191E-08
 -1       617 2.47647E+04 1.07803E+01 4.11318E+02 2.76016E+04-2.29011E-09-6.34418E-09
 -1       618 2.46909E+04 9.51113E+01 8.29144E+02 2.41513E+04-7.90351E-09 1.05797E-08
 -1       619 2.50570E+04 6.52145E+02 1.86196E+03 2.76009E+04-4.29736E-09 9.85892E-09
 -1       620 2.44152E+04 2.06147E+03 3.74250E+03 2.41524E+04-1.34378E-10 4.24734E-09
 -1       621 4.77070E+02 2.93422E+05 3.71912E+03 3.79932E+04 9.52241E-10 5.04861E-09
 -1       622 6.26213E+02 2.94288E+05 3.31497E+03 5.51685E+04 9.42237E-10-1.64273E-08
 -1       623 1.21532E+02 2.93612E+05 4.00337E+03 3.78205E+04 1.14198E-09 1.40917E-08
 -1       624 2.03299E+03 2.95482E+05 7.77654E+03 5.53389E+04 1.24004E-09-1.15344E-08
 -1       625 1.99415E+03 2.92072E+05 1.35970E+04 3.78175E+04 1.38698E-09-1.14871E-08
 -1       626 2.54479E+05 6.05879E+04 5.05363E+03 1.24485E+05 8.87849E-09-1.46847E-08
 -1       627 2.52149E+05 6.20083E+04 2.43530E+03 1.28748E+05 1.90648E-08 2.02201E-08
 -1       628 2.54607E+05 5.82721E+04 1.02986E+03 1.25339E+05-1.07957E-09-1.71403E-08
 -1       629 2.51517E+05 6.13418E+04 5.04079E+02 1.28989E+05-8.85984E-09-5.62288E-09
 -1       630 2.54621E+05 5.81605E+04 2.33822E+02 1.25374E+05-5.13046E-09-1.71484E-08
 -1       631 2.51450E+05 6.13169E+04 1.25828E+02 1.28990E+05 8.12179E-09 2.01294E-09
 -1       632 2.54617E+05 5.81648E+04 8.28052E+01 1.25370E+05 7.09588E-09-4.88603E-09
 -1       633 2.51441E+05 6.13191E+04 9.22428E+01 1.28986E+05 2.89174E-09-4.67139E-09
 -1       634 2.54612E+05 5.81624E+04 1.49067E+02 1.25369E+05-1.11618E-09 6.70343E-09
 -1       635 2.51454E+05 6.13177E+04 3.01640E+02 1.28991E+05-4.73460E-09 1.35742E-09
 -1       636 2.54602E+05 5.81570E+04 6.09162E+02 1.25368E+05 1.11975E-08-2.41744E-09
 -1       637 2.51586E+05 6.14125E+04 1.33934E+03 1.28990E+05 1.00501E-08-1.41563E-08
 -1       638 2.54555E+05 5.84530E+04 2.75188E+03 1.25234E+05 1.12418E-08-6.46651E-09
 -1       639 2.53031E+05 6.34230E+04 6.51100E+03 1.28565E+05 1.15647E-08 1.37325E-08
 -1       640 2.54356E+05 6.44556E+04 1.35115E+04 1.22704E+05 5.68116E-09-2.07797E-09
 -1       656 6.51517E+04-1.66625E+06-1.57272E+05-2.28172E+03 0.00000E+00-9.34222E-10
 -1       657-8.61842E+04-1.73731E+06-1.30278E+05 5.49501E+03-4.89308E-10 2.81664E-08
 -1       658 2.07628E+04-1.68643E+06-8.02197E+04-4.29725E+03-4.00178E-11 1.69716E-09
 -1       659-9.31530E+04-1.74062E+06-1.39436E+05 7.14547E+03-1.04410E-09-1.23568E-08
 -1       660 7.21049E+04-1.66295E+06-1.73017E+05-3.93217E+03-2.16096E-09-9.49902E-09
 -1       661 1.59968E+05 1.68026E+04 1.67283E+04 6.25369E+04-2.33058E-09 1.68166E-09
 -1       662 1.69370E+05 2.92451E+04 1.12736E+04 5.88470E+04-2.29602E-09-3.45053E-08
 -1       663 1.63254E+05 2.21695E+04 3.94286E+03 6.15836E+04 3.09717E-09 8.76025E-09
 -1       664 1.65561E+05 2.29687E+04 2.35854E+03 6.00112E+04-4.16989E-09 2.34407E-08
 -1       665 1.63752E+05 2.29028E+04 9.30428E+02 6.14385E+04 3.32204E-09-2.40957E-08
 -1       666 1.64972E+05 2.21299E+04 5.44468E+02 6.02003E+04 6.63982E-09-3.95011E-08
 -1       667 1.63839E+05 2.29864E+04 2.89206E+02 6.14024E+04-1.04083E-09 1.27853E-08
 -1       668 1.64876E+05 2.20694E+04 2.94704E+02 6.02529E+04-2.88208E-09 2.63928E-09
 -1       669 1.63847E+05 2.29615E+04 3.99006E+02 6.13862E+04-3.12883E-09-1.46835E-08
 -1       670 1.64973E+05 2.22859E+04 8.68861E+02 6.02557E+04-7.87737E-09-3.69056E-09
 -1       671 1.63742E+05 2.27744E+04 1.54273E+03 6.13975E+04-1.14905E-09-8.69630E-09
 -1       672 1.65872E+05 2.37868E+04 3.94705E+03 6.00380E+04 5.21224E-09-8.89582E-09
 -1       673 1.62952E+05 2.14985E+04 6.61463E+03 6.15894E+04 2.50816E-09-3.40970E-09
 -1       674 1.72168E+05 3.44138E+04 1.89164E+04 5.81883E+04-3.94618E-09-2.61771E-08
 -1       675 1.57486E+05 1.24451E+04 2.80786E+04 6.31356E+04-2.69711E-09-2.16460E-10
 -1       676 2.37590E+01-2.91305E+05-1.09878E+03-1.17637E+02 1.36293E-09-9.74391E-09
 -1       677-2.90943E+02-2.91571E+05-2.01095E+03 2.35090E+02 9.86643E-09-1.68428E-08
 -1       678 1.94910E+02-2.91116E+05-3.55486E+03-1.17375E+02 1.06093E-09 1.54804E-09
 -1       679-3.55519E+03-2.93717E+05-8.44485E+03 2.34090E+02 5.27541E-09-2.95991E-09
 -1       680 2.12244E+03-2.89160E+05-1.36102E+04-1.15338E+02-1.38698E-09-1.30356E-08
 -1       771-3.02380E+06-7.23413E+05-1.52745E+05-1.43674E+06-3.10538E-08-2.69210E-08
 -1       772-2.95067E+06-8.08246E+05-7.88304E+04-1.53471E+06-2.14204E-08 8.33825E-09
 -1       773-3.05288E+06-7.00686E+05-4.00052E+04-1.44974E+06-8.03266E-09 1.40572E-08
 -1       774-2.94136E+06-7.91379E+05-1.78855E+04-1.55835E+06 3.02680E-08 1.50612E-09
 -1       775-3.06786E+06-6.90147E+05-1.32569E+04-1.45596E+06-1.13505E-09-4.78030E-09
 -1       776-2.95230E+06-7.88773E+05-4.97691E+03-1.57608E+06 1.73168E-09-9.13133E-10
 -1       777-3.08081E+06-6.80783E+05-5.81309E+03-1.46146E+06-2.64845E-09-5.52973E-09
 -1       778-2.96376E+06-7.86368E+05-1.64981E+03-1.59131E+06 5.29690E-09 1.17252E-08
 -1       779-3.09191E+06-6.72623E+05-2.89099E+03-1.46615E+06-8.23638E-09-6.69388E-10
 -1       780-2.97383E+06-7.84071E+05-4.80422E+02-1.60370E+06-1.17216E-08 3.99450E-09
 -1       781-3.10072E+06-6.66055E+05-1.11867E+03-1.46982E+06-2.76777E-08-6.03904E-10
 -1       782-2.98159E+06-7.82114E+05 4.06642E+02-1.61284E+06-3.87081E-08-4.67844E-09
 -1       783-3.10692E+06-6.61500E+05 6.35406E+02-1.47240E+06-9.05857E-09-1.41695E-08
 -1       784-2.98587E+06-7.80120E+05 2.62062E+03-1.61848E+06-1.67347E-08 4.45652E-11
 -1       785-3.11058E+06-6.58787E+05 4.62702E+03-1.47404E+06-3.57868E-08 6.59929E-09
 -1       786 1.24515E+05-9.70515E+03 2.24536E+04-2.98923E+02 1.97522E-09 1.80489E-08
 -1       787 1.34253E+05 1.12362E+04 1.58850E+04-1.16006E+02 7.26307E-09 2.22117E-08
 -1       788 1.28269E+05-1.52090E+03 5.80933E+03-2.64865E+02 1.76485E-09 2.33019E-08
 -1       789 1.29879E+05 1.76025E+03 3.64703E+03-1.68479E+02-1.04478E-09 1.17352E-08
 -1       790 1.28889E+05-2.36887E+02 1.47695E+03-2.46465E+02-3.40005E-09 1.67230E-08
 -1       791 1.29154E+05 2.74008E+02 8.53685E+02-2.00020E+02-7.39477E-09-5.15763E-09
 -1       792 1.28994E+05-3.57660E+01 3.63028E+02-2.33326E+02-4.32679E-09 9.20753E-09
 -1       793 1.29029E+05 3.82642E+01 1.83765E+02-2.24751E+02-1.68642E-10 2.46179E-09
 -1       794 1.29015E+05-1.29238E+00 5.33575E+01-2.21734E+02 3.17474E-09 1.17141E-08
 -1       795 1.28994E+05-2.25825E+01-4.24277E+01-2.48951E+02-4.42595E-09-4.80681E-09
 -1       796 1.29029E+05 2.50470E+01-1.35897E+02-2.09125E+02 3.67127E-09-1.83295E-08
 -1       797 1.28912E+05-1.87867E+02-3.80243E+02-2.77912E+02 4.22568E-09-1.88901E-08
 -1       798 1.29096E+05 1.63868E+02-6.19502E+02-1.92773E+02 2.35477E-09-8.36138E-10
 -1       799 1.28442E+05-1.20810E+03-1.70606E+03-3.18284E+02 6.02428E-09 2.29457E-09
 -1       800 1.29500E+05 1.04444E+03-2.41491E+03-1.68754E+02 1.14266E-10 9.15691E-09
 -1       801-1.31916E+05-9.28103E+06-1.27279E+06 1.24303E+06 8.88249E-08-4.74793E-08
 -1       802 6.27028E+05 4.82945E+06 1.89988E+06-1.51554E+06 2.43381E-07-3.18505E-08
 -1       803-4.71690E+05-1.29904E+07-1.67246E+06 7.89800E+05 7.33526E-08 2.76777E-08
 -1       804 2.44220E+05 1.64358E+06 1.33913E+06 6.21317E+05-1.12177E-07-7.75035E-08
 -1       805 1.74886E+05-6.11009E+06-2.54195E+05-8.88750E+05-4.65516E-08-6.02795E-08
 -1       806-3.02163E+05-5.83204E+04-2.23125E+04-1.19580E+05 2.71029E-10 1.12259E-08
 -1       807-3.03941E+05-5.46552E+04-1.09619E+04-1.24966E+05 1.38550E-08-3.81307E-09
 -1       808-3.02773E+05-5.02813E+04-4.65040E+03-1.23384E+05-4.19550E-09-3.70221E-09
 -1       809-3.01638E+05-5.15742E+04-2.27393E+03-1.25234E+05-1.35003E-08-2.66259E-08
 -1       810-3.02866E+05-5.00014E+04-1.04226E+03-1.23552E+05 8.08450E-09-1.03084E-08
 -1       811-3.01460E+05-5.14503E+04-5.18322E+02-1.25200E+05 1.34437E-08-5.29326E-10
 -1       812-3.02880E+05-5.00254E+04-2.62170E+02-1.23552E+05 5.25415E-09 9.55060E-09
 -1       813-3.01435E+05-5.14523E+04-1.70455E+02-1.25182E+05 7.95353E-10 9.44465E-09
 -1       814-3.02873E+05-5.00347E+04-1.69004E+02-1.23548E+05-3.31420E-09-1.37770E-08
 -1       815-3.01439E+05-5.14545E+04-2.72426E+02-1.25175E+05 2.25737E-09-2.31566E-08
 -1       816-3.02853E+05-5.00336E+04-5.16365E+02-1.23544E+05 1.57979E-08 6.21367E-09
 -1       817-3.01527E+05-5.15036E+04-1.10829E+03-1.25164E+05 8.90213E-09-7.53312E-09
 -1       818-3.02786E+05-5.01898E+04-2.26050E+03-1.23471E+05 9.05038E-09 3.94948E-09
 -1       819-3.02764E+05-5.28695E+04-5.31892E+03-1.24872E+05 1.79170E-09-2.90456E-08
 -1       820-3.02361E+05-5.42068E+04-1.08259E+04-1.21754E+05 2.29738E-09 8.13975E-09
 -1       821-3.72586E+05 2.05242E+04-4.76411E+04 1.74954E+03 1.18603E-08 1.43573E-08
 -1       822-3.92501E+05-2.37687E+04-3.35851E+04-3.50737E+03 3.17282E-09 1.65060E-08
 -1       823-3.80180E+05 3.22812E+03-1.23180E+04 2.67205E+03-9.77826E-09 1.37065E-08
 -1       824-3.83440E+05-3.72666E+03-7.72636E+03-4.05570E+03 6.38085E-11-6.60032E-09
 -1       825-3.81649E+05 5.01475E+02-3.21571E+03 2.29793E+03 1.71648E-08 9.04038E-10
 -1       826-3.81374E+05-5.70896E+02-1.79195E+03-2.22117E+03 2.15549E-08 1.22773E-08
 -1       827-3.82230E+05 6.30779E+01-1.10190E+03 8.37444E+02 1.00526E-08-6.36237E-09
 -1       828-3.80904E+05-1.51641E+02-7.00072E+02 9.91341E+02-1.09418E-09-5.41555E-09
 -1       829-3.82112E+05 7.70928E+01-1.09995E+03-9.14621E+02 2.71427E-12-1.54805E-09
 -1       830-3.81634E+05-6.15024E+02-1.91015E+03 3.82778E+03 5.17929E-10-1.11552E-08
 -1       831-3.81513E+05 5.37105E+02-3.30605E+03-1.99902E+03-4.42839E-09-9.05618E-09
 -1       832-3.83525E+05-3.88407E+03-8.02591E+03 4.73685E+03-2.00171E-09 1.66162E-08
 -1       833-3.80231E+05 3.35043E+03-1.28083E+04-1.82372E+03-2.71359E-09 2.03172E-08
 -1       834-3.92659E+05-2.46732E+04-3.48156E+04 3.19412E+03-3.98762E-09-1.87265E-09
 -1       835-3.72371E+05 2.13002E+04-4.94846E+04-4.56242E+02 5.56628E-09 5.89716E-09
 -1       836-1.37065E+03 3.60728E+05 2.22853E+04-1.62143E+04-6.51926E-09 2.50743E-08
 -1       837 4.76036E+03 3.67704E+05 1.88749E+04-3.30581E+04-7.12282E-09 6.73936E-09
 -1       838-5.39655E+02 3.62682E+05 1.92555E+04-1.61435E+04-5.56338E-09-3.60001E-09
 -1       839 1.21374E+04 3.73198E+05 3.64495E+04-3.31091E+04-5.57111E-09-1.32513E-09
 -1       840-3.74580E+03 3.55176E+05 5.81340E+04-1.61683E+04-5.51881E-09-9.02417E-09
 -1       856-5.50568E+04 7.99079E+03-2.10576E+04-3.98560E+02 2.17972E-09-1.72986E-09
 -1       857-6.37344E+04-9.38710E+03-1.44960E+04 5.54672E+03 1.55288E-09 1.13960E-09
 -1       858-5.84925E+04 1.12053E+03-5.46402E+03-4.22558E+02 2.83461E-09 9.51741E-09
 -1       859-5.97914E+04-1.31653E+03-3.29749E+03 5.58267E+03-5.00049E-09 2.41595E-08
 -1       860-5.90058E+04 1.56815E+02-1.38232E+03-4.34288E+02 8.26759E-10 8.05790E-09
 -1       861-5.92009E+04-1.85595E+02-7.61149E+02 5.59867E+03 3.30068E-10-4.38149E-09
 -1       862-5.90860E+04 2.11800E+01-3.17822E+02-4.38538E+02-1.90841E-10 6.66174E-09
 -1       863-5.91027E+04-2.04662E+01-1.19004E+02 5.60109E+03-3.43888E-09-1.61154E-08
 -1       864-5.91044E+04-4.56680E+00 3.97315E+01-4.36711E+02-2.03406E-09 2.95529E-10
 -1       865-5.90492E+04 5.74142E+01 2.37986E+02 5.59079E+03-9.46557E-10-1.36861E-08
 -1       866-5.91374E+04-5.67594E+01 4.83338E+02-4.28238E+02-7.25493E-10 1.95338E-08
 -1       867-5.88209E+04 4.69148E+02 1.19211E+03 5.56777E+03 1.22697E-10 9.55626E-09
 -1       868-5.93279E+04-4.08985E+02 1.98148E+03-4.13683E+02-2.38646E-09 3.82681E-09
 -1       869-5.73674E+04 3.40378E+03 5.27694E+03 5.52974E+03 3.79873E-09-1.55846E-08
 -1       870-6.05833E+04-2.91186E+03 7.65787E+03-3.90124E+02-5.85965E-09 4.41059E-09
 -1       871-5.42562E+03-2.01424E+04-1.90012E+04 1.27055E+05-3.19596E-09 2.07474E-08
 -1       872-1.99129E+03-2.45458E+04-7.94185E+03 1.64744E+05-9.56152E-09-3.49110E-09
 -1       873 3.50948E+02-2.24233E+04 6.11292E+02 1.26776E+05-5.55156E-09 1.16567E-08
 -1       874 3.18538E+03-2.00412E+04 9.61878E+03 1.64775E+05-9.81981E-09 3.27182E-08
 -1       875 6.67819E+03-2.47144E+04 2.16710E+04 1.27009E+05-3.77986E-09 1.37279E-08
 -1       876 2.87948E+05 4.86078E+04 1.48333E+04 1.15646E+05 1.66722E-09 1.27557E-08
 -1       877 2.88921E+05 5.17399E+04 7.92157E+03 1.19908E+05 6.33372E-09 5.87727E-09
 -1       878 2.89335E+05 4.69649E+04 3.31875E+03 1.16861E+05-2.46291E-09 1.16279E-09
 -1       879 2.86905E+05 4.97277E+04 1.65359E+03 1.20009E+05 1.55774E-09 3.60483E-08
 -1       880 2.89435E+05 4.69478E+04 7.70204E+02 1.16911E+05 4.57680E-09 2.26817E-08
 -1       881 2.86771E+05 4.96417E+04 4.11265E+02 1.19986E+05-3.91447E-09-1.44849E-08
 -1       882 2.89444E+05 4.69608E+04 2.63043E+02 1.16912E+05 1.82672E-09 9.15286E-09
 -1       883 2.86761E+05 4.96373E+04 2.82686E+02 1.19978E+05-1.56109E-09-1.38013E-08
 -1       884 2.89437E+05 4.69580E+04 4.49598E+02 1.16912E+05 2.50861E-09-6.58207E-09
 -1       885 2.86797E+05 4.96435E+04 9.03885E+02 1.19989E+05-8.54584E-10-4.76803E-10
 -1       886 2.89402E+05 4.69317E+04 1.82171E+03 1.16909E+05 7.06848E-10-7.30438E-09
 -1       887 2.87117E+05 4.98534E+04 3.97928E+03 1.20035E+05 6.53836E-09-1.12735E-08
 -1       888 2.89151E+05 4.69760E+04 8.01836E+03 1.16782E+05-7.36819E-09-1.20967E-08
 -1       889 2.91891E+05 5.48175E+04 1.91544E+04 1.19889E+05-2.54320E-09 2.05546E-10
 -1       890 2.85879E+05 5.08628E+04 3.58757E+04 1.13729E+05 1.16779E-09 1.16470E-08
 -1       891-9.56924E+01-1.59810E+05-1.95614E+03 2.69101E+04-5.59112E-10 1.56615E-09
 -1       892-1.84284E+02-1.60323E+05-2.10219E+03 4.08495E+04 4.59295E-11 8.14839E-09
 -1       893 3.46206E+01-1.59873E+05-2.97777E+03 2.69172E+04-2.09889E-09-6.08634E-09
 -1       894-1.49392E+03-1.61448E+05-6.16380E+03 4.06989E+04 3.82533E-09 7.76163E-09
 -1       895-1.18479E+03-1.58589E+05-1.08548E+04 2.70621E+04-2.33058E-10 7.88805E-09
 -1       956-3.69271E+05-5.31719E+03-1.31549E+04 2.97110E+04 6.49288E-09 9.83118E-09
 -1       957-3.71854E+05-1.86636E+03-6.75230E+03 3.57130E+04-4.09182E-09-4.89490E-09
 -1       958-3.70452E+05-2.24515E+02-3.04273E+03 2.95478E+04-4.97585E-09-1.53705E-08
 -1       959-3.70646E+05-1.20415E+02-1.55372E+03 3.59021E+04 1.61890E-09-1.18453E-08
 -1       960-3.70566E+05-3.34393E+01-7.57659E+02 2.95311E+04 9.96897E-09-1.26420E-10
 -1       961-3.70566E+05-4.95539E+01-4.01756E+02 3.59218E+04 2.12876E-08 3.35558E-09
 -1       962-3.70593E+05-3.50258E+01-2.30055E+02 2.95283E+04 6.09043E-09 7.61042E-09
 -1       963-3.70566E+05-4.56915E+01-1.84762E+02 3.59253E+04 2.33354E-09 1.56670E-08
 -1       964-3.70598E+05-3.18126E+01-2.24752E+02 2.95275E+04 1.80654E-09 2.53726E-09
 -1       965-3.70578E+05-4.27041E+01-3.88783E+02 3.59247E+04-6.55496E-09-5.49971E-09
 -1       966-3.70582E+05-2.38893E+01-7.30497E+02 2.95290E+04 2.42517E-09-7.81165E-09
 -1       967-3.70667E+05-1.04499E+02-1.49827E+03 3.59109E+04 1.48248E-09 1.09858E-08
 -1       968-3.70481E+05-2.01987E+02-2.93299E+03 2.95411E+04 2.79670E-10 1.42049E-08
 -1       969-3.71843E+05-1.78272E+03-6.51126E+03 3.57686E+04 4.51746E-09 3.30004E-09
 -1       970-3.69351E+05-5.10904E+03-1.26842E+04 2.96641E+04 8.18545E-11 5.72982E-10
 -1       971-3.38888E+05-1.70077E+03-9.19320E+03 1.51722E+04 6.15182E-09 6.28793E-09
 -1       972-3.41103E+05-1.24893E+03-5.00652E+03 2.10052E+04 8.64020E-09-1.60817E-08
 -1       973-3.39912E+05-5.63081E+01-2.24243E+03 1.50519E+04 4.74301E-09-1.22509E-08
 -1       974-3.40048E+05-7.31966E+01-1.16234E+03 2.11407E+04-1.95769E-10 2.25191E-09
 -1       975-3.39993E+05-1.20655E+01-5.81331E+02 1.50398E+04 1.31013E-09-2.50327E-09
 -1       976-3.39987E+05-2.40324E+01-3.35961E+02 2.11562E+04-4.06317E-10-6.80700E-09
 -1       977-3.40009E+05-1.13856E+01-2.44867E+02 1.50365E+04-4.81100E-09-5.81417E-09
 -1       978-3.39992E+05-1.79301E+01-2.87951E+02 2.11609E+04-1.88993E-09 2.89265E-09
 -1       979-3.40009E+05-3.08745E+00-4.63856E+02 1.50351E+04-6.24442E-09-3.71654E-09
 -1       980-3.40027E+05-1.49307E+01-8.96405E+02 2.11619E+04-4.66741E-09-5.85135E-09
 -1       981-3.39981E+05 1.93123E+01-1.73653E+03 1.50356E+04 3.28282E-09 1.33366E-09
 -1       982-3.40265E+05-1.43237E+02-3.58959E+03 2.11553E+04 3.53248E-09-2.42572E-09
 -1       983-3.39762E+05-9.18769E+01-6.97470E+03 1.50416E+04-2.29647E-10-4.28463E-09
 -1       984-3.43620E+05-3.78591E+03-1.56196E+04 2.10707E+04-2.46928E-10 9.74069E-09
 -1       985-3.36604E+05-5.19554E+03-2.86824E+04 1.51136E+04-4.21187E-09 7.89441E-10
 -3
    1PSTEP                        31          16           1          
  100CL  116 6.53287E-01         409                     0   16           1
 -4  DISP        4    1
 -5  D1          1    2    1    0
 -5  D2          1    2    2    0
 -5  D3          1    2    3    0
 -5  ALL         1    2    0    0    1ALL
 -1         1 2.37852E-03 0.00000E+00 0.00000E+00
 -1         2 1.45557E-03-1.93848E-27 2.64698E-23
 -1         3 3.28243E-04-6.95560E-28 0.00000E+00
 -1         5 1.71753E-04-2.64723E-27 2.48154E-24
 -1         8 2.36299E-03-4.84614E-07 0.00000E+00
 -1         9 2.34356E-03-8.56917E-05 0.00000E+00
 -1        10 2.97737E-04-3.48178E-06 0.00000E+00
 -1        12 1.73392E-04 7.89789E-07-8.27181E-25
 -1        15 2.34452E-03-5.26155E-07-2.06795E-25
 -1        16 2.38151E-03-8.70566E-05 0.00000E+00
 -1        17 2.03112E-04-7.86088E-06 0.00000E+00
 -1        18 1.76749E-04 3.15353E-05 0.00000E+00
 -1        19 1.78309E-04 1.57374E-06 0.00000E+00
 -1        20 1.78451E-04-7.57935E-06 0.00000E+00
 -1        21 1.77587E-04-2.05248E-05 0.00000E+00
 -1        24 3.00359E-05-1.18951E-05 0.00000E+00
 -1        25 1.86491E-04 3.17534E-05 0.00000E+00
 -1        26 1.87180E-04 2.17978E-06 0.00000E+00
 -1        27 1.85033E-04-1.10632E-05 0.00000E+00
 -1        28 1.84704E-04-2.11367E-05 0.00000E+00
 -1        32 0.00000E+00 0.00000E+00 0.00000E+00
 -1        33 1.95034E-04 2.91672E-06 0.00000E+00
 -1        34 1.92960E-04-1.11156E-05 0.00000E+00
 -1        35 1.91063E-04-2.14723E-05 0.00000E+00
 -1        51 2.37751E-03-9.48340E-08 6.61744E-24
 -1        52 2.37564E-03-1.73311E-07 0.00000E+00
 -1        53 2.37307E-03-2.49308E-07 0.00000E+00
 -1        54 2.36998E-03-3.24990E-07 0.00000E+00
 -1        55 2.36656E-03-4.01984E-07-2.06795E-25
 -1        56 2.37411E-03 1.16586E-06-5.29396E-23
 -1        57 2.36786E-03 6.77893E-06 0.00000E+00
 -1        58 2.36045E-03 1.54215E-05-1.05879E-22
 -1        59 2.35252E-03 2.53569E-05 0.00000E+00
 -1        60 2.34484E-03 3.46554E-05 0.00000E+00
 -1        61 2.33812E-03 4.14300E-05 5.29396E-23
 -1        62 2.33292E-03 4.42149E-05 0.00000E+00
 -1        63 2.32965E-03 4.18727E-05 0.00000E+00
 -1        64 2.32839E-03 3.41250E-05 0.00000E+00
 -1        65 2.32904E-03 2.11464E-05-5.29396E-23
 -1        66 2.33120E-03 3.99513E-06 1.05879E-22
 -1        67 2.33434E-03-1.59157E-05-5.29396E-23
 -1        68 2.33779E-03-3.67052E-05 0.00000E+00
 -1        69 2.34089E-03-5.64093E-05 0.00000E+00
 -1        70 2.34295E-03-7.32626E-05 0.00000E+00
 -1        86 1.51095E-03-3.17857E-06 0.00000E+00
 -1        87 1.67319E-03-1.76182E-05 1.32349E-23
 -1        88 1.89136E-03-4.18762E-05 0.00000E+00
 -1        89 2.11199E-03-6.66719E-05-1.32349E-23
 -1        90 2.28027E-03-8.20407E-05 0.00000E+00
 -1       121 3.27386E-04-5.64110E-07 0.00000E+00
 -1       122 3.24819E-04-1.13104E-06 6.61744E-24
 -1       123 3.20551E-04-1.70355E-06 0.00000E+00
 -1       124 3.14599E-04-2.28444E-06 0.00000E+00
 -1       125 3.06984E-04-2.87609E-06-1.32349E-23
 -1       191 1.71798E-04 1.31683E-07 8.27181E-25
 -1       192 1.71935E-04 2.63356E-07-9.30578E-25
 -1       193 1.72162E-04 3.95014E-07-1.24077E-24
 -1       194 1.72481E-04 5.26646E-07 1.34417E-24
 -1       195 1.72891E-04 6.58241E-07-3.10193E-24
 -1       251 2.36234E-03-7.55683E-06 1.32349E-23
 -1       252 2.36135E-03-3.47945E-05 0.00000E+00
 -1       253 2.35986E-03-7.74283E-05 0.00000E+00
 -1       254 2.35790E-03-1.30292E-04-6.61744E-24
 -1       255 2.35583E-03-1.85206E-04 0.00000E+00
 -1       256 2.35407E-03-2.33942E-04 6.61744E-24
 -1       257 2.35280E-03-2.70099E-04 1.32349E-23
 -1       258 2.35202E-03-2.87596E-04 0.00000E+00
 -1       259 2.35138E-03-2.85774E-04 0.00000E+00
 -1       260 2.35053E-03-2.64477E-04 0.00000E+00
 -1       261 2.34931E-03-2.29200E-04-2.64698E-23
 -1       262 2.34778E-03-1.85794E-04-1.32349E-23
 -1       263 2.34626E-03-1.42516E-04-2.64698E-23
 -1       264 2.34505E-03-1.07620E-04 0.00000E+00
 -1       265 2.34421E-03-8.68740E-05 2.64698E-23
 -1       266 2.35991E-03-4.98663E-07-3.30872E-24
 -1       267 2.35683E-03-5.04718E-07 8.27181E-25
 -1       268 2.35376E-03-5.11279E-07-8.27181E-25
 -1       269 2.35068E-03-5.16341E-07 0.00000E+00
 -1       270 2.34760E-03-5.21367E-07 0.00000E+00
 -1       271 2.36133E-03 1.73716E-06 1.32349E-23
 -1       272 2.36009E-03 2.77636E-06 0.00000E+00
 -1       273 2.35930E-03 2.64085E-06 0.00000E+00
 -1       274 2.35893E-03 1.33955E-06 1.32349E-23
 -1       275 2.35900E-03-1.10441E-06-2.64698E-23
 -1       276 2.35947E-03-4.65856E-06-1.32349E-23
 -1       277 2.36034E-03-9.27906E-06 0.00000E+00
 -1       278 2.36159E-03-1.49122E-05 1.32349E-23
 -1       279 2.36318E-03-2.14943E-05 2.64698E-23
 -1       280 2.36510E-03-2.89526E-05 1.32349E-23
 -1       281 2.36731E-03-3.72057E-05 0.00000E+00
 -1       282 2.36978E-03-4.61648E-05 1.32349E-23
 -1       283 2.37247E-03-5.57341E-05 0.00000E+00
 -1       284 2.37534E-03-6.58112E-05 1.32349E-23
 -1       285 2.37837E-03-7.62902E-05 0.00000E+00
 -1       301 2.35044E-03-8.59446E-05 6.61744E-24
 -1       302 2.35603E-03-8.61619E-05 6.61744E-24
 -1       303 2.36113E-03-8.63739E-05 1.32349E-23
 -1       304 2.36654E-03-8.65864E-05 0.00000E+00
 -1       305 2.37307E-03-8.68072E-05 0.00000E+00
 -1       306 2.37881E-03-2.26173E-04 1.05879E-22
 -1       307 2.44334E-03-6.12038E-04-5.29396E-23
 -1       308 2.49654E-03-1.18106E-03 1.05879E-22
 -1       309 2.53033E-03-1.84491E-03 0.00000E+00
 -1       310 2.56898E-03-2.48602E-03 0.00000E+00
 -1       311 2.63023E-03-2.98886E-03 5.29396E-23
 -1       312 2.68930E-03-3.27678E-03 0.00000E+00
 -1       313 2.69337E-03-3.30949E-03-5.29396E-23
 -1       314 2.57719E-03-3.09513E-03 0.00000E+00
 -1       315 2.30195E-03-2.68840E-03 5.29396E-23
 -1       316 1.88218E-03-2.16052E-03-1.05879E-22
 -1       317 1.37494E-03-1.57879E-03-5.29396E-23
 -1       318 8.82543E-04-1.00590E-03 0.00000E+00
 -1       319 5.02920E-04-5.07186E-04 0.00000E+00
 -1       320 2.77568E-04-1.51998E-04 0.00000E+00
 -1       336 2.86680E-04-4.14974E-06-1.32349E-23
 -1       337 2.73647E-04-4.84113E-06 6.61744E-24
 -1       338 2.58697E-04-5.55781E-06 0.00000E+00
 -1       339 2.41903E-04-6.30036E-06 6.61744E-24
 -1       340 2.23344E-04-7.07295E-06 0.00000E+00
 -1       406 1.73984E-04 9.21274E-07 2.06795E-25
 -1       407 1.74667E-04 1.05266E-06 1.03398E-25
 -1       408 1.75441E-04 1.18390E-06-1.03398E-24
 -1       409 1.76306E-04 1.31483E-06 5.68687E-25
 -1       410 1.77263E-04 1.44518E-06-1.65436E-24
 -1       521 2.41753E-03-2.36564E-04 1.05879E-22
 -1       522 2.48087E-03-6.41575E-04 0.00000E+00
 -1       523 2.52888E-03-1.23681E-03 0.00000E+00
 -1       524 2.55492E-03-1.92776E-03 5.29396E-23
 -1       525 2.58678E-03-2.59418E-03 1.05879E-22
 -1       526 2.64491E-03-3.11810E-03 5.29396E-23
 -1       527 2.70365E-03-3.41682E-03 0.00000E+00
 -1       528 2.70606E-03-3.44902E-03-5.29396E-23
 -1       529 2.58019E-03-3.22245E-03 2.11758E-22
 -1       530 2.28490E-03-2.79850E-03 0.00000E+00
 -1       531 1.83509E-03-2.25173E-03 0.00000E+00
 -1       532 1.29325E-03-1.65236E-03 5.29396E-23
 -1       533 7.66512E-04-1.06130E-03 0.00000E+00
 -1       534 3.57492E-04-5.42309E-04 0.00000E+00
 -1       535 1.13169E-04-1.68643E-04 1.05879E-22
 -1       536 2.02411E-04 2.54764E-05-6.61744E-24
 -1       537 2.00645E-04 8.32768E-05 0.00000E+00
 -1       538 1.97921E-04 1.56653E-04 0.00000E+00
 -1       539 1.94709E-04 2.36636E-04-1.65436E-24
 -1       540 1.91817E-04 3.12219E-04 0.00000E+00
 -1       541 1.89933E-04 3.72416E-04-1.65436E-24
 -1       542 1.89059E-04 4.10731E-04 0.00000E+00
 -1       543 1.88842E-04 4.20809E-04 1.65436E-24
 -1       544 1.88534E-04 4.03406E-04 3.30872E-24
 -1       545 1.87442E-04 3.59483E-04 0.00000E+00
 -1       546 1.85419E-04 2.96857E-04 0.00000E+00
 -1       547 1.82691E-04 2.23458E-04 0.00000E+00
 -1       548 1.79989E-04 1.50455E-04 0.00000E+00
 -1       549 1.78038E-04 8.90167E-05 1.65436E-24
 -1       550 1.77021E-04 4.68489E-05 0.00000E+00
 -1       551 1.79034E-04-8.40898E-06 0.00000E+00
 -1       552 1.51800E-04-9.03122E-06 0.00000E+00
 -1       553 1.22339E-04-9.71106E-06-8.27181E-24
 -1       554 9.15960E-05-1.04287E-05 3.30872E-24
 -1       555 6.05148E-05-1.11584E-05 0.00000E+00
 -1       556 1.95843E-04 1.07453E-05 5.29396E-23
 -1       557 1.89979E-04 2.58106E-05 0.00000E+00
 -1       558 1.85391E-04 3.76128E-05 0.00000E+00
 -1       559 1.81951E-04 4.64511E-05 0.00000E+00
 -1       560 1.79534E-04 5.26256E-05 0.00000E+00
 -1       561 1.78018E-04 5.64385E-05 0.00000E+00
 -1       562 1.77282E-04 5.81931E-05 0.00000E+00
 -1       563 1.77206E-04 5.81937E-05 0.00000E+00
 -1       564 1.77674E-04 5.67454E-05 0.00000E+00
 -1       565 1.78569E-04 5.41539E-05-6.61744E-24
 -1       566 1.79776E-04 5.07252E-05 0.00000E+00
 -1       567 1.81180E-04 4.67661E-05 0.00000E+00
 -1       568 1.82667E-04 4.25831E-05 0.00000E+00
 -1       569 1.84124E-04 3.84830E-05 0.00000E+00
 -1       570 1.85436E-04 3.47723E-05 0.00000E+00
 -1       571 1.76843E-04 2.95924E-05-8.27181E-25
 -1       572 1.76940E-04 2.75859E-05-1.24077E-24
 -1       573 1.77037E-04 2.55309E-05 0.00000E+00
 -1       574 1.77135E-04 2.34430E-05 8.27181E-25
 -1       575 1.77232E-04 2.13380E-05 3.30872E-24
 -1       576 1.77329E-04 1.92316E-05 1.65436E-24
 -1       577 1.77427E-04 1.71397E-05 3.30872E-24
 -1       578 1.77524E-04 1.50782E-05 0.00000E+00
 -1       579 1.77622E-04 1.30628E-05 0.00000E+00
 -1       580 1.77720E-04 1.11095E-05-3.30872E-24
 -1       581 1.77818E-04 9.23396E-06 0.00000E+00
 -1       582 1.77916E-04 7.45209E-06 0.00000E+00
 -1       583 1.78014E-04 5.77968E-06 6.61744E-24
 -1       584 1.78112E-04 4.23238E-06-3.30872E-24
 -1       585 1.78211E-04 2.82568E-06 6.61744E-24
 -1       586 1.78330E-04 3.15737E-05-1.65436E-24
 -1       587 1.79872E-04 3.16116E-05 0.00000E+00
 -1       588 1.81416E-04 3.16491E-05 0.00000E+00
 -1       589 1.83006E-04 3.16859E-05 0.00000E+00
 -1       590 1.84684E-04 3.17216E-05 0.00000E+00
 -1       591 1.77412E-04 2.96814E-05-1.03398E-25
 -1       592 1.78079E-04 2.78068E-05-6.20385E-25
 -1       593 1.78751E-04 2.59175E-05 0.00000E+00
 -1       594 1.79427E-04 2.40180E-05 0.00000E+00
 -1       595 1.80104E-04 2.21134E-05-8.27181E-25
 -1       596 1.80781E-04 2.02082E-05 0.00000E+00
 -1       597 1.81457E-04 1.83074E-05 0.00000E+00
 -1       598 1.82129E-04 1.64156E-05 0.00000E+00
 -1       599 1.82796E-04 1.45377E-05 8.27181E-25
 -1       600 1.83457E-04 1.26783E-05 4.13590E-25
 -1       601 1.84108E-04 1.08423E-05 0.00000E+00
 -1       602 1.84749E-04 9.03429E-06 0.00000E+00
 -1       603 1.85378E-04 7.25914E-06 4.13590E-25
 -1       604 1.85994E-04 5.52170E-06-7.75482E-26
 -1       605 1.86594E-04 3.82661E-06 0.00000E+00
 -1       606 1.78322E-04 5.48777E-07 0.00000E+00
 -1       607 1.78332E-04-3.89160E-07-1.65436E-24
 -1       608 1.78341E-04-1.24517E-06 0.00000E+00
 -1       609 1.78350E-04-2.02503E-06 0.00000E+00
 -1       610 1.78358E-04-2.73454E-06 0.00000E+00
 -1       611 1.78367E-04-3.37958E-06 0.00000E+00
 -1       612 1.78375E-04-3.96602E-06 0.00000E+00
 -1       613 1.78384E-04-4.49977E-06 0.00000E+00
 -1       614 1.78392E-04-4.98670E-06 0.00000E+00
 -1       615 1.78401E-04-5.43271E-06 0.00000E+00
 -1       616 1.78409E-04-5.84370E-06 0.00000E+00
 -1       617 1.78418E-04-6.22555E-06 0.00000E+00
 -1       618 1.78426E-04-6.58415E-06 0.00000E+00
 -1       619 1.78435E-04-6.92539E-06 0.00000E+00
 -1       620 1.78443E-04-7.25516E-06 2.06795E-25
 -1       621 1.79521E-04 1.67525E-06 1.65436E-24
 -1       622 1.80880E-04 1.77702E-06 1.65436E-24
 -1       623 1.82357E-04 1.87861E-06-1.65436E-24
 -1       624 1.83921E-04 1.97989E-06-8.27181E-25
 -1       625 1.85539E-04 2.08090E-06 0.00000E+00
 -1       626 1.78803E-04 5.84065E-07 0.00000E+00
 -1       627 1.79274E-04-3.40928E-07 0.00000E+00
 -1       628 1.79724E-04-1.20909E-06-6.61744E-24
 -1       629 1.80156E-04-2.02861E-06 0.00000E+00
 -1       630 1.80572E-04-2.80771E-06-6.61744E-24
 -1       631 1.80977E-04-3.55459E-06 0.00000E+00
 -1       632 1.81372E-04-4.27750E-06-3.30872E-24
 -1       633 1.81762E-04-4.98466E-06 0.00000E+00
 -1       634 1.82149E-04-5.68432E-06 0.00000E+00
 -1       635 1.82536E-04-6.38468E-06 1.65436E-24
 -1       636 1.82927E-04-7.09399E-06 0.00000E+00
 -1       637 1.83324E-04-7.82048E-06 0.00000E+00
 -1       638 1.83730E-04-8.57238E-06 0.00000E+00
 -1       639 1.84149E-04-9.35795E-06-8.27181E-25
 -1       640 1.84583E-04-1.01854E-05 1.65436E-24
 -1       656 1.79007E-04-8.14564E-06-6.61744E-24
 -1       657 1.79979E-04-8.73492E-06 6.61744E-24
 -1       658 1.81229E-04-9.32279E-06-1.32349E-23
 -1       659 1.82610E-04-9.91032E-06-6.61744E-24
 -1       660 1.83938E-04-1.04996E-05-6.61744E-24
 -1       661 1.78659E-04-7.94727E-06-8.27181E-25
 -1       662 1.78905E-04-8.40436E-06 0.00000E+00
 -1       663 1.79181E-04-8.94566E-06 0.00000E+00
 -1       664 1.79487E-04-9.56492E-06 0.00000E+00
 -1       665 1.79821E-04-1.02566E-05-1.65436E-24
 -1       666 1.80179E-04-1.10150E-05 8.27181E-25
 -1       667 1.80561E-04-1.18347E-05-1.65436E-24
 -1       668 1.80963E-04-1.27105E-05 0.00000E+00
 -1       669 1.81384E-04-1.36371E-05-1.65436E-24
 -1       670 1.81823E-04-1.46095E-05 0.00000E+00
 -1       671 1.82277E-04-1.56227E-05 1.65436E-24
 -1       672 1.82744E-04-1.66720E-05 0.00000E+00
 -1       673 1.83222E-04-1.77524E-05 0.00000E+00
 -1       674 1.83710E-04-1.88597E-05 0.00000E+00
 -1       675 1.84206E-04-1.99886E-05-4.13590E-25
 -1       676 1.78777E-04-2.06274E-05-3.30872E-24
 -1       677 1.79967E-04-2.07299E-05-1.65436E-24
 -1       678 1.81155E-04-2.08324E-05-3.30872E-24
 -1       679 1.82341E-04-2.09345E-05 0.00000E+00
 -1       680 1.83524E-04-2.10367E-05-1.65436E-24
 -1       771 1.86177E-05 1.35730E-05 0.00000E+00
 -1       772 9.00118E-06 3.44909E-05 0.00000E+00
 -1       773 1.10019E-06 5.10794E-05-5.29396E-23
 -1       774-5.20298E-06 6.35855E-05 0.00000E+00
 -1       775-1.00236E-05 7.22658E-05 0.00000E+00
 -1       776-1.34816E-05 7.73927E-05-2.64698E-23
 -1       777-1.56969E-05 7.92480E-05 0.00000E+00
 -1       778-1.67917E-05 7.81265E-05-7.94093E-23
 -1       779-1.68878E-05 7.43307E-05 0.00000E+00
 -1       780-1.61091E-05 6.81740E-05 2.64698E-23
 -1       781-1.45785E-05 5.99760E-05 5.29396E-23
 -1       782-1.24206E-05 5.00646E-05 0.00000E+00
 -1       783-9.75899E-06 3.87719E-05 5.29396E-23
 -1       784-6.71872E-06 2.64360E-05 2.64698E-23
 -1       785-3.42382E-06 1.33977E-05 0.00000E+00
 -1       786 1.86530E-04 2.96800E-05 0.00000E+00
 -1       787 1.86573E-04 2.76561E-05 0.00000E+00
 -1       788 1.86615E-04 2.56735E-05 8.27181E-25
 -1       789 1.86658E-04 2.37241E-05 0.00000E+00
 -1       790 1.86701E-04 2.18032E-05 1.65436E-24
 -1       791 1.86744E-04 1.99061E-05 0.00000E+00
 -1       792 1.86788E-04 1.80306E-05 0.00000E+00
 -1       793 1.86831E-04 1.61745E-05 8.27181E-25
 -1       794 1.86874E-04 1.43376E-05-1.65436E-24
 -1       795 1.86918E-04 1.25199E-05-8.27181E-25
 -1       796 1.86961E-04 1.07232E-05-1.65436E-24
 -1       797 1.87005E-04 8.94928E-06-8.27181E-25
 -1       798 1.87048E-04 7.20241E-06 0.00000E+00
 -1       799 1.87092E-04 5.48687E-06 0.00000E+00
 -1       800 1.87136E-04 3.81013E-06 1.65436E-24
 -1       801 1.43154E-04 2.84964E-05 0.00000E+00
 -1       802 1.20090E-05 1.78651E-05 0.00000E+00
 -1       803-1.00426E-04 9.07864E-06-5.29396E-23
 -1       804-8.97449E-05 6.29555E-06-2.64698E-23
 -1       805-2.97305E-05 2.51855E-06 0.00000E+00
 -1       806 1.87156E-04 2.96130E-05-1.65436E-24
 -1       807 1.87807E-04 2.74988E-05-1.65436E-24
 -1       808 1.88446E-04 2.54159E-05-3.30872E-24
 -1       809 1.89071E-04 2.33681E-05 0.00000E+00
 -1       810 1.89681E-04 2.13593E-05 0.00000E+00
 -1       811 1.90275E-04 1.93934E-05 1.65436E-24
 -1       812 1.90852E-04 1.74741E-05 0.00000E+00
 -1       813 1.91410E-04 1.56052E-05 0.00000E+00
 -1       814 1.91948E-04 1.37904E-05 1.65436E-24
 -1       815 1.92464E-04 1.20335E-05 0.00000E+00
 -1       816 1.92958E-04 1.03382E-05 0.00000E+00
 -1       817 1.93427E-04 8.70829E-06 0.00000E+00
 -1       818 1.93870E-04 7.14748E-06-3.30872E-24
 -1       819 1.94286E-04 5.65951E-06-8.27181E-25
 -1       820 1.94674E-04 4.24805E-06-3.30872E-24
 -1       821 1.87054E-04 1.33103E-07 1.65436E-24
 -1       822 1.86917E-04-2.78810E-06 1.65436E-24
 -1       823 1.86780E-04-6.24115E-06 3.30872E-24
 -1       824 1.86640E-04-9.88007E-06-1.65436E-24
 -1       825 1.86501E-04-1.33095E-05 0.00000E+00
 -1       826 1.86364E-04-1.61351E-05 0.00000E+00
 -1       827 1.86228E-04-1.81249E-05 3.30872E-24
 -1       828 1.86094E-04-1.90518E-05-1.65436E-24
 -1       829 1.85961E-04-1.89743E-05 3.30872E-24
 -1       830 1.85827E-04-1.79567E-05 1.65436E-24
 -1       831 1.85692E-04-1.63159E-05 3.30872E-24
 -1       832 1.85557E-04-1.43724E-05 0.00000E+00
 -1       833 1.85422E-04-1.25281E-05 3.30872E-24
 -1       834 1.85290E-04-1.11844E-05 0.00000E+00
 -1       835 1.85157E-04-1.06085E-05-8.27181E-25
 -1       836 1.88697E-04 2.30203E-06 0.00000E+00
 -1       837 1.90088E-04 2.42733E-06-1.65436E-24
 -1       838 1.91386E-04 2.55255E-06 0.00000E+00
 -1       839 1.92621E-04 2.67708E-06 8.27181E-25
 -1       840 1.93827E-04 2.80144E-06 0.00000E+00
 -1       856 1.85016E-04-1.19630E-05 0.00000E+00
 -1       857 1.84996E-04-1.27290E-05 0.00000E+00
 -1       858 1.84976E-04-1.33821E-05 0.00000E+00
 -1       859 1.84955E-04-1.39431E-05 0.00000E+00
 -1       860 1.84935E-04-1.44329E-05-4.13590E-25
 -1       861 1.84914E-04-1.48725E-05 2.06795E-25
 -1       862 1.84893E-04-1.52831E-05 0.00000E+00
 -1       863 1.84873E-04-1.56855E-05 4.13590E-25
 -1       864 1.84852E-04-1.61010E-05 8.27181E-25
 -1       865 1.84831E-04-1.65505E-05 0.00000E+00
 -1       866 1.84811E-04-1.70552E-05 0.00000E+00
 -1       867 1.84790E-04-1.76358E-05 0.00000E+00
 -1       868 1.84769E-04-1.83135E-05 8.27181E-25
 -1       869 1.84748E-04-1.91091E-05 0.00000E+00
 -1       870 1.84727E-04-2.00432E-05 8.27181E-25
 -1       871 1.86214E-04-1.10676E-05 0.00000E+00
 -1       872 1.87540E-04-1.10753E-05 0.00000E+00
 -1       873 1.88944E-04-1.10837E-05 0.00000E+00
 -1       874 1.90360E-04-1.10928E-05-2.06795E-25
 -1       875 1.91721E-04-1.11025E-05 1.03398E-24
 -1       876 1.85495E-04-1.19488E-05 0.00000E+00
 -1       877 1.85936E-04-1.27686E-05-1.65436E-24
 -1       878 1.86355E-04-1.35305E-05-3.30872E-24
 -1       879 1.86755E-04-1.42417E-05 0.00000E+00
 -1       880 1.87140E-04-1.49097E-05 0.00000E+00
 -1       881 1.87511E-04-1.55415E-05-1.65436E-24
 -1       882 1.87871E-04-1.61445E-05-3.30872E-24
 -1       883 1.88223E-04-1.67260E-05-1.65436E-24
 -1       884 1.88570E-04-1.72931E-05 3.30872E-24
 -1       885 1.88914E-04-1.78532E-05-1.65436E-24
 -1       886 1.89258E-04-1.84133E-05 0.00000E+00
 -1       887 1.89604E-04-1.89808E-05-1.65436E-24
 -1       888 1.89956E-04-1.95630E-05 0.00000E+00
 -1       889 1.90316E-04-2.01672E-05 0.00000E+00
 -1       890 1.90686E-04-2.08006E-05 0.00000E+00
 -1       891 1.85904E-04-2.11930E-05 1.65436E-24
 -1       892 1.87082E-04-2.12496E-05 8.27181E-25
 -1       893 1.88211E-04-2.13060E-05-1.65436E-24
 -1       894 1.89268E-04-2.13622E-05-8.27181E-25
 -1       895 1.90226E-04-2.14181E-05 8.27181E-25
 -1       956 1.94906E-04 1.75514E-06 3.30872E-24
 -1       957 1.94777E-04 6.82398E-07-1.65436E-24
 -1       958 1.94647E-04-3.11892E-07 3.30872E-24
 -1       959 1.94517E-04-1.23869E-06 1.65436E-24
 -1       960 1.94387E-04-2.10901E-06 0.00000E+00
 -1       961 1.94257E-04-2.93388E-06-1.65436E-24
 -1       962 1.94127E-04-3.72435E-06 0.00000E+00
 -1       963 1.93997E-04-4.49149E-06 1.65436E-24
 -1       964 1.93867E-04-5.24638E-06 0.00000E+00
 -1       965 1.93737E-04-6.00006E-06 0.00000E+00
 -1       966 1.93606E-04-6.76361E-06 0.00000E+00
 -1       967 1.93477E-04-7.54810E-06-1.65436E-24
 -1       968 1.93347E-04-8.36457E-06 0.00000E+00
 -1       969 1.93217E-04-9.22406E-06 0.00000E+00
 -1       970 1.93087E-04-1.01376E-05 3.30872E-24
 -1       971 1.92842E-04-1.20916E-05-3.30872E-24
 -1       972 1.92723E-04-1.29738E-05 1.65436E-24
 -1       973 1.92604E-04-1.37727E-05 3.30872E-24
 -1       974 1.92485E-04-1.44989E-05 0.00000E+00
 -1       975 1.92366E-04-1.51632E-05-3.30872E-24
 -1       976 1.92246E-04-1.57764E-05 0.00000E+00
 -1       977 1.92127E-04-1.63493E-05 0.00000E+00
 -1       978 1.92008E-04-1.68926E-05-1.65436E-24
 -1       979 1.91889E-04-1.74172E-05 0.00000E+00
 -1       980 1.91770E-04-1.79339E-05 0.00000E+00
 -1       981 1.91651E-04-1.84535E-05-3.30872E-24
 -1       982 1.91532E-04-1.89867E-05 0.00000E+00
 -1       983 1.91413E-04-1.95445E-05 0.00000E+00
 -1       984 1.91294E-04-2.01375E-05-1.65436E-24
 -1       985 1.91177E-04-2.07766E-05 0.00000E+00
 -3
    1PSTEP                        32          16           1          
  100CL  116 6.53287E-01         409                     0   16           1
 -4  STRESS      6    1
 -5  SXX         1    4    1    1
 -5  SYY         1    4    2    2
 -5  SZZ         1    4    3    3
 -5  SXY         1    4    1    2
 -5  SYZ         1    4    2    3
 -5  SZX         1    4    3    1
 -1         1-4.74429E+06-1.68061E+06-1.03002E+06-1.60429E+06 2.91038E-10-2.47877E-07
 -1         2 5.77307E+05 7.79572E+06 2.18965E+06 2.62321E+06 1.70257E-08 1.86301E-07
 -1         3-1.35382E+03-1.60281E+06 4.07948E+02-2.17018E+03-5.67770E-10-6.38684E-08
 -1         5-5.94909E+01 3.77027E+05 9.73770E+00-1.13757E+00-4.04208E-10-3.90119E-08
 -1         8-7.79553E+05-2.52927E+05-9.46741E+04-3.38952E+05 5.90262E-10 1.02169E-07
 -1         9 9.55051E+06 1.20745E+06 1.93593E+06-7.44179E+05 1.18045E-08 3.11527E-08
 -1        10-2.21352E+03-1.67025E+06-3.92907E+03-1.46718E+04-1.27729E-08-4.19599E-08
 -1        12-5.56284E+01 3.77048E+05 3.19159E+02-7.83110E+00-6.26525E-10 4.91445E-08
 -1        15 1.18063E+03 6.48816E+02 3.81635E+03 1.57117E+00 1.35643E-10 1.81650E-07
 -1        16 1.99424E+07-2.03971E+05 2.76811E+06-1.72538E+06 2.76292E-08 9.22785E-08
 -1        17 7.24551E+06 5.28304E+06 1.95261E+06 5.12537E+06 2.37575E-08 2.18395E-08
 -1        18 1.26301E+05 2.91686E+04 9.71114E+02-1.15595E+05 1.25353E-08 4.93037E-09
 -1        19 1.19659E+05 1.38380E+05-9.27313E+02 2.16632E+04 1.50503E-09-6.24641E-09
 -1        20-7.84809E+04-5.61305E+05-1.25834E+05 2.55378E+04-1.75927E-09-2.44230E-09
 -1        21-4.52849E+01-2.91691E+05-9.12457E+02 2.38124E+02 1.36726E-08-1.65949E-08
 -1        24 1.19487E+07 1.02000E+07 3.34064E+06 9.47569E+06-1.57549E-07-5.43466E-08
 -1        25 9.70488E+04 1.64902E+05 7.37801E+04-5.85097E+05-3.81142E-09 1.55946E-08
 -1        26-5.39246E+04 8.99947E+04-2.41112E+04 6.95632E+02 1.01136E-10 1.24564E-08
 -1        27-7.51456E+04-3.03567E+05-1.11220E+05 6.75760E+04 3.29192E-09-1.22585E-08
 -1        28 2.19715E+04-8.38830E+04 1.66429E+04 2.06479E+04-3.38247E-09 1.20219E-08
 -1        32-1.65357E+06-3.07911E+06-1.84459E+05 3.48935E+05-3.98431E-08-1.21788E-08
 -1        33-1.75028E+05 9.07267E+04 3.16712E+04-3.80569E+04-2.79939E-09-7.73070E-11
 -1        34-2.19406E+05-2.43539E+04 6.67966E+02 7.37947E+04-4.70378E-09 2.01711E-09
 -1        35-2.26234E+04-3.32698E+04-1.32429E+03 5.07535E+04-3.59459E-09 1.08788E-08
 -1        51 5.29131E+04-2.00483E+05 1.15994E+05-5.86114E+05 2.91038E-11-1.10755E-07
 -1        52 1.88553E+04-1.81181E+05 6.21724E+04-6.86129E+05-7.63976E-11 1.49739E-07
 -1        53 4.78219E+03-1.97018E+05 3.42736E+04-5.83990E+05 3.45608E-10 1.02169E-07
 -1        54 1.03681E+04-1.93165E+05 3.19807E+04-6.88286E+05 4.36557E-11-1.79745E-07
 -1        55 2.17613E+04-2.02125E+05 4.32767E+04-5.83755E+05-4.36557E-10 9.07785E-08
 -1        56-8.83327E+06-1.03441E+06-7.67021E+05-3.49667E+06 1.76078E-09 4.82833E-08
 -1        57-9.46593E+06-1.38343E+06-5.14047E+05-3.08093E+06 4.96511E-08-6.08852E-08
 -1        58-8.92580E+06-1.32915E+06-1.79250E+05-3.50856E+06-1.53777E-08 1.93395E-08
 -1        59-9.34135E+06-1.05269E+06-1.06429E+05-3.09197E+06 2.15332E-08-1.88447E-07
 -1        60-8.95946E+06-1.35391E+06-4.23451E+04-3.49132E+06-2.80670E-08 8.50923E-09
 -1        61-9.22344E+06-1.09009E+06-2.11804E+04-3.17672E+06-5.58430E-09 2.31123E-07
 -1        62-9.03475E+06-1.29632E+06-1.51053E+04-3.41780E+06-2.10530E-08-8.05030E-08
 -1        63-9.05334E+06-1.23951E+06-5.20988E+03-3.34655E+06 7.47059E-09-1.25434E-07
 -1        64-9.12233E+06-1.20931E+06-1.44673E+04-3.31643E+06 3.37968E-09-3.17765E-07
 -1        65-8.91539E+06-1.39572E+06-1.86984E+04-3.53230E+06 8.79663E-09-2.57562E-07
 -1        66-9.17911E+06-1.13588E+06-3.81703E+04-3.23676E+06-8.90759E-09-1.42991E-08
 -1        67-8.87562E+06-1.50977E+06-9.49741E+04-3.63035E+06 5.42068E-08-2.78487E-08
 -1        68-9.17168E+06-1.09003E+06-1.60025E+05-3.22454E+06-4.85306E-09-9.34670E-08
 -1        69-9.05310E+06-1.73944E+06-4.59048E+05-3.54456E+06-1.10067E-08-8.38627E-08
 -1        70-9.00042E+06-9.16218E+05-6.85403E+05-3.31788E+06 1.35042E-08 1.86876E-07
 -1        86-5.86268E+05-8.44270E+06-1.19428E+06-1.25869E+06-1.75462E-07-2.47892E-08
 -1        87 8.39694E+05 1.21646E+06 9.91422E+05 2.81048E+06-3.07657E-07-1.48211E-08
 -1        88-1.17573E+05-2.62120E+06 7.80448E+04-1.52525E+06-2.65944E-07 6.02790E-08
 -1        89 1.13862E+06 1.08729E+06 9.91241E+05 2.88256E+06-3.86226E-07 2.81489E-08
 -1        90-8.53573E+05-8.34273E+06-1.31670E+06-1.33687E+06-1.02755E-07 2.19050E-07
 -1       121-1.85987E+03-1.60730E+06-4.53636E+02 1.07670E+03 1.35070E-09-2.03072E-08
 -1       122-1.16901E+03-1.60286E+06 7.86257E+02-4.34166E+03-5.23369E-09-1.24492E-08
 -1       123-1.88642E+03-1.60743E+06 3.85101E+02 3.21508E+03 4.08124E-09 4.93310E-09
 -1       124 4.96777E+02-1.60236E+06 3.05105E+03-9.07035E+03-9.91304E-09-3.07191E-08
 -1       125-2.73103E+03-1.60835E+06 3.71377E+03 5.76609E+03 6.29916E-09-3.22871E-08
 -1       191-6.27541E+01 3.77048E+05 8.98489E+00 5.89067E-01-4.65346E-10-1.19180E-08
 -1       192-6.04210E+01 3.77028E+05 2.07459E+01-3.72344E+00-6.31204E-10-5.20959E-09
 -1       193-6.52078E+01 3.77048E+05 3.59997E+01 3.25905E+00-9.64357E-10-8.25275E-09
 -1       194-6.34055E+01 3.77031E+05 7.87834E+01-8.47572E+00-5.54474E-10-3.33448E-08
 -1       195-6.99184E+01 3.77045E+05 1.51511E+02 5.48092E+00-1.39725E-09 2.08656E-08
 -1       251-1.93808E+06 1.80009E+04-1.51183E+05 5.58555E+04-8.89122E-09-1.26034E-07
 -1       252-1.55438E+06-2.17967E+04-2.42711E+04-2.00138E+05 4.18549E-09 5.66188E-08
 -1       253-1.79903E+06-3.03849E+03-3.68494E+04 1.71190E+05 6.28643E-09-1.65403E-07
 -1       254-1.74498E+06 1.85885E+04-7.24903E+03-3.28571E+05 1.37217E-08-1.30110E-07
 -1       255-1.76776E+06-5.53121E+03-8.62267E+03 1.85341E+05 2.59752E-09 1.09761E-07
 -1       256-1.60552E+06 1.99764E+04 3.06092E+04-2.52054E+05-1.39153E-09 4.02266E-07
 -1       257-1.92505E+06-1.55021E+04-3.71845E+04 9.38607E+04 8.39646E-09 1.44485E-07
 -1       258-1.41215E+06 1.40550E+04 6.90639E+04-9.84223E+03-2.29047E-08 6.72802E-08
 -1       259-1.94229E+06-1.51131E+04-3.86837E+04-5.67189E+04 1.10413E-08-4.00944E-08
 -1       260-1.56657E+06 1.58000E+04 4.20978E+04 2.45811E+05-1.72722E-08-7.14268E-08
 -1       261-1.78619E+06-4.40312E+03-1.85920E+03-1.61046E+05-2.18743E-08 2.19252E-07
 -1       262-1.73581E+06 2.32443E+04 1.65083E+04 3.48559E+05-1.57125E-08 3.58449E-07
 -1       263-1.79009E+06-8.46777E+03 6.11263E+03-1.60115E+05-2.23372E-09 2.00481E-07
 -1       264-1.54714E+06 4.94782E+04 7.66739E+04 2.43044E+05-5.46311E-08 9.96897E-09
 -1       265-1.95736E+06-4.49685E+04 3.03796E+03-5.48774E+04-2.29975E-08 1.92838E-07
 -1       266-2.13734E+04-9.99462E+03 5.01460E+04-3.36172E+01 3.63798E-11 1.83625E-07
 -1       267 2.47775E+04 1.16483E+04 3.54435E+04 3.87888E+01 2.52840E-10 7.97981E-08
 -1       268-3.32262E+03-1.64976E+03 1.31741E+04-4.94230E+00 9.09495E-11-1.32997E-08
 -1       269 3.92303E+03 1.97437E+03 8.56302E+03 5.75712E+00-2.33626E-10-1.20705E-08
 -1       270-5.88853E+02-3.24406E+02 4.13349E+03-7.81278E-01 8.66294E-11 1.84823E-07
 -1       271-1.84010E+06-2.26388E+05-1.35189E+05-7.09086E+05-2.54186E-08 1.83565E-07
 -1       272-1.89743E+06-3.14411E+05-8.66872E+04-6.96049E+05 1.69957E-08-2.78014E-07
 -1       273-1.86656E+06-2.58960E+05-3.21041E+04-7.01834E+05-7.91988E-09-3.67290E-08
 -1       274-1.86533E+06-2.75547E+05-1.77396E+04-7.07834E+05 9.02855E-09 2.07298E-07
 -1       275-1.87163E+06-2.60888E+05-7.62836E+03-6.98990E+05 1.19671E-08-1.58901E-07
 -1       276-1.85814E+06-2.74545E+05-3.79851E+03-7.13291E+05 1.56906E-08 2.57805E-07
 -1       277-1.87395E+06-2.59356E+05-2.05478E+03-6.96737E+05 5.58975E-09 2.18027E-07
 -1       278-1.85448E+06-2.77560E+05-1.14011E+03-7.17799E+05 5.22568E-08 1.78472E-07
 -1       279-1.87568E+06-2.57587E+05-1.30150E+03-6.94778E+05 6.93944E-09-6.93180E-08
 -1       280-1.85194E+06-2.80778E+05-1.89168E+03-7.21682E+05-3.08100E-08-5.93072E-08
 -1       281-1.87696E+06-2.55866E+05-3.57625E+03-6.93168E+05 4.57203E-09-1.14924E-07
 -1       282-1.85142E+06-2.85480E+05-8.25067E+03-7.24577E+05-2.98814E-09 4.48737E-08
 -1       283-1.87668E+06-2.52810E+05-1.47715E+04-6.92121E+05 7.69796E-09-6.35291E-08
 -1       284-1.86276E+06-3.07271E+05-4.01151E+04-7.23895E+05 2.67664E-09-1.13871E-07
 -1       285-1.86628E+06-2.35855E+05-6.23665E+04-6.93385E+05-3.81988E-11-5.51627E-08
 -1       301 8.66489E+03-5.56262E+05 1.71055E+05-9.70086E+05 4.43106E-09 1.35842E-08
 -1       302 9.75816E+03-5.12026E+05 1.03538E+05-1.41766E+06-9.15315E-09-1.57954E-07
 -1       303-9.72850E+03-5.44015E+05 6.12134E+04-9.67621E+05 9.42237E-09-2.02406E-07
 -1       304-4.79900E+03-5.16101E+05 6.63302E+04-1.41686E+06 9.21136E-09-1.58398E-08
 -1       305-9.46257E+03-5.37702E+05 8.77347E+04-9.70555E+05 5.86806E-09-2.54950E-08
 -1       306-2.77737E+07-5.67332E+06-7.77429E+06-9.93368E+05-6.50762E-08-1.05385E-07
 -1       307 2.31427E+07 2.29534E+06 5.00195E+06-1.34130E+07-8.40460E-07-3.43280E-07
 -1       308-7.56605E+06-8.15986E+05-5.34171E+05 4.72909E+06-1.24972E-07 2.23983E-07
 -1       309-3.48580E+06 7.01487E+06 1.93130E+06-1.91768E+07 4.83542E-07 2.93159E-07
 -1       310-1.14402E+07-1.42493E+06-1.58518E+06 4.63410E+06 1.03610E-07-9.79344E-09
 -1       311 3.21349E+07-1.45073E+05 6.27005E+06-8.79169E+06 5.59347E-07 1.75991E-07
 -1       312-2.89602E+07-5.87308E+06-7.46081E+06-4.17972E+06 4.71482E-08 2.93279E-07
 -1       313 4.10424E+07 1.18031E+07 9.49145E+06 1.99375E+07 9.10950E-09-3.14321E-08
 -1       314-1.69496E+07-1.52682E+07-6.74754E+06-1.15413E+07 6.39237E-07-2.21771E-08
 -1       315-1.07863E+06 2.57502E+07 5.14782E+06 1.06280E+07-4.82090E-07 8.68458E-08
 -1       316 6.25221E+05-9.34234E+06-4.97867E+05-3.24532E+06-1.21858E-06-2.32714E-07
 -1       317-1.70908E+07 2.04925E+07 1.89618E+06-6.72205E+06 7.69491E-07-8.48504E-07
 -1       318-1.20205E+06-1.11984E+07-1.63094E+06-4.39665E+06-7.51810E-07 3.05008E-08
 -1       319 5.50656E+06 2.72291E+07 6.04037E+06 1.44708E+07-1.03915E-07 2.21655E-07
 -1       320-2.07177E+07-1.54399E+07-8.67592E+06-1.15519E+07 1.57277E-07-5.31436E-08
 -1       336-4.92608E+02-1.73996E+06-1.38247E+04 8.75963E+03-2.50384E-08-5.76256E-09
 -1       337-5.33829E+03-1.74003E+06-1.80037E+04-2.12181E+04-4.62144E-08-6.41739E-09
 -1       338 4.46234E+02-1.73949E+06-2.80570E+04 1.22414E+04-3.23080E-08 2.73285E-08
 -1       339-2.97811E+04-1.75690E+06-6.35031E+04-2.80215E+04-6.01285E-08 3.16504E-08
 -1       340 1.97835E+04-1.72513E+06-9.98862E+04 1.54423E+04-3.91592E-08 1.81899E-09
 -1       406-3.38369E+01 3.77031E+05 6.27376E+02 2.74546E+00-1.71447E-09 3.15958E-08
 -1       407 1.64372E+02 3.77159E+05 1.33920E+03 2.11604E+01-4.65690E-10-1.09940E-08
 -1       408 6.31939E+02 3.76934E+05 2.67116E+03-2.42916E+01-2.40311E-09-7.73070E-10
 -1       409 2.84065E+03 3.78012E+05 6.01907E+03 2.57035E+02-3.02748E-10-1.04801E-08
 -1       410 8.26116E+03 3.76167E+05 1.22853E+04-2.47341E+02-2.68847E-09-7.73070E-09
 -1       521-2.93017E+07-6.96145E+06-9.06321E+06-6.65380E+05-9.08040E-08-1.68802E-08
 -1       522 2.38905E+07 3.02183E+06 5.07924E+06-1.65860E+07-5.35278E-07-2.04425E-07
 -1       523-8.27540E+06-1.09883E+06-5.42889E+05 5.16728E+06 1.58907E-07-1.67915E-07
 -1       524-6.70260E+06 9.60104E+06 2.08771E+06-2.21220E+07 9.94347E-07-3.05427E-07
 -1       525-1.23523E+07-1.94038E+06-1.74015E+06 5.06315E+06 6.44883E-07-1.02678E-07
 -1       526 3.48596E+07-1.97510E+05 6.58230E+06-1.12915E+07 8.27131E-08 5.35219E-08
 -1       527-3.07198E+07-7.36059E+06-8.57507E+06-4.06562E+06 1.59489E-07-5.11354E-08
 -1       528 4.47941E+07 1.29747E+07 9.89254E+06 2.25619E+07 2.23517E-08-1.39262E-07
 -1       529-1.79436E+07-1.72439E+07-7.72194E+06-1.16871E+07 2.67173E-08-1.00117E-08
 -1       530-3.38359E+06 2.99458E+07 5.43815E+06 1.04880E+07-3.20448E-07 7.54080E-07
 -1       531 5.63248E+05-1.04572E+07-4.91777E+05-3.35011E+06-8.62710E-07 4.86296E-07
 -1       532-1.99420E+07 2.26699E+07 2.07445E+06-1.03291E+07 5.18907E-07-6.48564E-07
 -1       533-1.27253E+06-1.23370E+07-1.72279E+06-4.39622E+06-1.65892E-07-9.73698E-07
 -1       534 3.53232E+06 3.15815E+07 6.28285E+06 1.49808E+07-5.18048E-09 6.78236E-07
 -1       535-2.18546E+07-1.75572E+07-9.90616E+06-1.16958E+07 7.43894E-08 4.39817E-07
 -1       536-6.81107E+05-4.59894E+04-3.71682E+04-5.12286E+04-5.85851E-09 5.34255E-08
 -1       537-7.92919E+04 4.45293E+04 8.21678E+04 1.17248E+05-1.13173E-07 1.06385E-07
 -1       538-3.93354E+05 2.63114E+03 5.11134E+03-6.88714E+04 2.76507E-08 1.13232E-07
 -1       539-2.78045E+05 3.00306E+03 2.39378E+04 1.31945E+05 1.39428E-07 9.06748E-08
 -1       540-4.87307E+05-3.47617E+02-1.90249E+04-6.63959E+04 1.37504E-08 1.02742E-07
 -1       541 1.04225E+05 1.56119E+04 9.80274E+04 9.22672E+04-2.28395E-08 1.09341E-07
 -1       542-7.65332E+05-1.85604E+04-7.74074E+04-2.84262E+04 6.78474E-08 4.37820E-08
 -1       543 3.42206E+05 2.51638E+04 1.45282E+05-1.27950E+04 2.38697E-08-5.33328E-09
 -1       544-7.18913E+05-1.51773E+04-6.87706E+04 3.80767E+04-4.54743E-08-4.29595E-08
 -1       545-4.79335E+03 8.58724E+03 7.30668E+04-1.07604E+05-2.80442E-08-9.63310E-08
 -1       546-4.27637E+05 5.72396E+03-1.13266E+04 6.60810E+04 2.42333E-08-8.00708E-08
 -1       547-2.95065E+05-4.68186E+03 9.06983E+03-1.34723E+05-9.75507E-08-1.10218E-07
 -1       548-4.36430E+05 4.59787E+03-2.28585E+04 6.58028E+04-1.07937E-07-9.55447E-08
 -1       549 1.37621E+04 1.30636E+04 5.33831E+04-1.05308E+05-6.11276E-08-5.89425E-08
 -1       550-7.28196E+05-1.89241E+04-1.22096E+05 3.60352E+04 7.82711E-09-4.33702E-08
 -1       551 3.89678E+04-7.64711E+05-1.05169E+04-1.22802E+06-9.82400E-08 8.35280E-09
 -1       552 8.86396E+04-8.06330E+05 1.29997E+04-1.75117E+06-6.95873E-08 3.41824E-08
 -1       553 6.78433E+04-8.03775E+05 3.41582E+04-1.22166E+06-1.15659E-07 3.61470E-08
 -1       554 1.26244E+05-8.20234E+05 8.36311E+04-1.75313E+06-6.95145E-08 3.37150E-08
 -1       555 9.75417E+04-8.26916E+05 1.51983E+05-1.22161E+06-1.15382E-07-1.05938E-08
 -1       556 2.12524E+05-3.66806E+05 3.33963E+04-3.95462E+05-2.13622E-08-6.86850E-09
 -1       557 3.39423E+05-4.68182E+05 1.98891E+04-5.10753E+05-2.67755E-09 4.12729E-09
 -1       558 1.96152E+05-3.61723E+05 4.28360E+03-3.98248E+05-2.12458E-08 2.01180E-08
 -1       559 3.15294E+05-4.69586E+05 3.30302E+03-5.29729E+05 1.88011E-08-5.96629E-09
 -1       560 1.82076E+05-3.52880E+05-8.77289E+02-4.08341E+05 3.84171E-09 1.06302E-08
 -1       561 2.97504E+05-4.62539E+05 3.65828E+02-5.41809E+05 2.67755E-09-5.38239E-09
 -1       562 1.70950E+05-3.45951E+05-1.08419E+03-4.16387E+05 1.80444E-09-1.56433E-10
 -1       563 2.84299E+05-4.56782E+05 3.09204E+01-5.50421E+05-2.59024E-09 1.50221E-08
 -1       564 1.63046E+05-3.41022E+05-5.05801E+02-4.21986E+05 1.30385E-08 1.87374E-08
 -1       565 2.75605E+05-4.52996E+05 4.21631E+01-5.55972E+05 1.89539E-09 1.59325E-08
 -1       566 1.58477E+05-3.38130E+05-2.22387E+02-4.25182E+05-1.02955E-08-6.19548E-09
 -1       567 2.71465E+05-4.51195E+05-3.30958E+02-5.58477E+05 1.10122E-08-8.43647E-09
 -1       568 1.57330E+05-3.37429E+05-1.04487E+03-4.26080E+05-5.67525E-10-1.54614E-09
 -1       569 2.70540E+05-4.51142E+05-2.64007E+03-5.56980E+05-2.53658E-09 1.72440E-08
 -1       570 1.60659E+05-3.40555E+05-5.78765E+03-4.25111E+05 7.07223E-09 4.54747E-10
 -1       571 2.83732E+05 1.02696E+04 1.47073E+04-9.12740E+04 3.57431E-09-6.74390E-09
 -1       572 2.85869E+05 3.84113E+03 7.20754E+03-1.00136E+05 5.02223E-09-1.73923E-08
 -1       573 2.84581E+05 1.18135E+03 3.20250E+03-9.11021E+04 1.84718E-09 5.82713E-09
 -1       574 2.84796E+05 6.67889E+02 1.60591E+03-1.00352E+05 1.51749E-09-2.14732E-08
 -1       575 2.84674E+05 3.98343E+02 7.57889E+02-9.10786E+04-3.26622E-10 6.62567E-09
 -1       576 2.84662E+05 4.05550E+02 3.87909E+02-1.00381E+05-8.06449E-09 9.17225E-09
 -1       577 2.84711E+05 3.42643E+02 1.93580E+02-9.10754E+04-6.47287E-09 1.08039E-08
 -1       578 2.84688E+05 3.70392E+02 1.11586E+02-1.00385E+05-2.68619E-09-7.91715E-09
 -1       579 2.84777E+05 3.09652E+02 7.65119E+01-9.10751E+04 6.83212E-09-1.56006E-08
 -1       580 2.84781E+05 3.24209E+02 8.82960E+01-1.00381E+05-1.06047E-08 5.18139E-09
 -1       581 2.84881E+05 2.56761E+02 1.33399E+02-9.10808E+04 1.45701E-08-1.76206E-08
 -1       582 2.84942E+05 2.92552E+02 2.70622E+02-1.00322E+05 1.92713E-08-2.32176E-08
 -1       583 2.85008E+05 3.02868E+02 5.20014E+02-9.11348E+04 6.54836E-09-1.21418E-08
 -1       584 2.85295E+05 7.26219E+02 1.17600E+03-9.98659E+04 5.62432E-09 2.34058E-09
 -1       585 2.85024E+05 1.72078E+03 2.38228E+03-9.15357E+04 1.72440E-09-1.37516E-09
 -1       586-3.35401E+03 1.12244E+05-2.98250E+03-2.45666E+05-8.83574E-09-5.81963E-09
 -1       587-1.25576E+03 1.11975E+05 6.77806E+02-2.70376E+05-7.84712E-09 9.02253E-09
 -1       588 4.51752E+02 1.11809E+05 4.59506E+03-2.45532E+05-3.12320E-09 3.02680E-09
 -1       589 5.02027E+03 1.14204E+05 1.19848E+04-2.70142E+05-6.22458E-09-3.73002E-08
 -1       590 1.62188E+04 1.10511E+05 2.51669E+04-2.45954E+05-5.50608E-09-7.84166E-09
 -1       591-7.18767E+04-1.55450E+04-2.18141E+04-3.09119E+04-6.22617E-09 1.22009E-08
 -1       592-7.57573E+04-1.90683E+04-1.18162E+04-3.45117E+04 2.71527E-09 1.25920E-08
 -1       593-7.40589E+04-1.39614E+04-4.91854E+03-3.25108E+04-1.03864E-09 4.47153E-09
 -1       594-7.27444E+04-1.58686E+04-2.45301E+03-3.46272E+04-2.10957E-09 6.50624E-09
 -1       595-7.42253E+04-1.39562E+04-1.12623E+03-3.25835E+04-2.15947E-09 1.85731E-08
 -1       596-7.25381E+04-1.57222E+04-5.72401E+02-3.46028E+04 3.18830E-09 1.36100E-08
 -1       597-7.42462E+04-1.39710E+04-3.11433E+02-3.25862E+04 7.09008E-10-5.08322E-09
 -1       598-7.25178E+04-1.57165E+04-2.49886E+02-3.45959E+04-3.08023E-09 9.90212E-10
 -1       599-7.42449E+04-1.39715E+04-3.18615E+02-3.25859E+04 3.62706E-09 6.90113E-09
 -1       600-7.25382E+04-1.57228E+04-5.91416E+02-3.46008E+04 5.12784E-09-6.70218E-09
 -1       601-7.42209E+04-1.39574E+04-1.16649E+03-3.25824E+04 3.86808E-09-3.43312E-09
 -1       602-7.27518E+04-1.58734E+04-2.54212E+03-3.46223E+04-4.63433E-09-5.21811E-09
 -1       603-7.40458E+04-1.39657E+04-5.09793E+03-3.25079E+04-1.70121E-09 3.20506E-09
 -1       604-7.58916E+04-1.91708E+04-1.22464E+04-3.44785E+04 6.44479E-09 1.04387E-09
 -1       605-7.17646E+04-1.56242E+04-2.26084E+04-3.08695E+04 5.64214E-09 2.65381E-08
 -1       606 2.68427E+04-1.39584E+04-2.50276E+04 2.43165E+04 3.51065E-09-2.51339E-09
 -1       607 2.25658E+04-4.55615E+03-1.24636E+04 2.73232E+04-9.02219E-10 1.89448E-09
 -1       608 2.50024E+04-8.19473E+02-5.57966E+03 2.41427E+04-2.00816E-09 6.87328E-09
 -1       609 2.45342E+04-2.77526E+02-2.81865E+03 2.75398E+04 4.24461E-09-1.37612E-08
 -1       610 2.47930E+04-3.60703E+01-1.34492E+03 2.41222E+04 6.15819E-09 8.08086E-09
 -1       611 2.47186E+04-3.51658E+01-6.78093E+02 2.75632E+04 4.57203E-09 1.03682E-10
 -1       612 2.47461E+04-2.20423E+01-3.22467E+02 2.41202E+04 8.25275E-09-5.85032E-10
 -1       613 2.47288E+04-3.05579E+01-1.44572E+02 2.75659E+04 2.21844E-08 7.99810E-09
 -1       614 2.47236E+04-2.77494E+01-3.41277E+01 2.41195E+04 1.28211E-08 5.61818E-09
 -1       615 2.47227E+04-2.86219E+01 6.00945E+01 2.75664E+04 2.49202E-09 1.44933E-08
 -1       616 2.47060E+04-2.43062E+01 1.80655E+02 2.41197E+04 3.02634E-09-9.74933E-09
 -1       617 2.47438E+04 1.02707E+01 4.12376E+02 2.75659E+04-2.63140E-09-1.47249E-08
 -1       618 2.46697E+04 9.48768E+01 8.31268E+02 2.41200E+04-3.22552E-09-6.43968E-09
 -1       619 2.50369E+04 6.53256E+02 1.86673E+03 2.75652E+04-1.93404E-09 1.43655E-09
 -1       620 2.43934E+04 2.06625E+03 3.75208E+03 2.41212E+04 7.22821E-10 1.93722E-10
 -1       621 4.79416E+02 2.93982E+05 3.73050E+03 3.82182E+04 1.00636E-09 2.43017E-09
 -1       622 6.29768E+02 2.94850E+05 3.32416E+03 5.54944E+04 1.21099E-09 6.64386E-10
 -1       623 1.23040E+02 2.94173E+05 4.01313E+03 3.80446E+04 1.23259E-09 1.80507E-08
 -1       624 2.03962E+03 2.96046E+05 7.79446E+03 5.56657E+04 9.66793E-10 4.62023E-10
 -1       625 2.00007E+03 2.92628E+05 1.36278E+04 3.80415E+04 1.10549E-09 5.93695E-09
 -1       626 2.54933E+05 6.06424E+04 5.05855E+03 1.24639E+05 1.61326E-08 1.43282E-08
 -1       627 2.52605E+05 6.20607E+04 2.43767E+03 1.28903E+05 1.42554E-08-2.80578E-08
 -1       628 2.55062E+05 5.83247E+04 1.03087E+03 1.25495E+05 5.00677E-09-4.64752E-09
 -1       629 2.51973E+05 6.13931E+04 5.04572E+02 1.29144E+05-5.60703E-09 1.29722E-08
 -1       630 2.55076E+05 5.82130E+04 2.34059E+02 1.25530E+05 9.30186E-09 2.93759E-08
 -1       631 2.51905E+05 6.13682E+04 1.25964E+02 1.29145E+05 5.82804E-09 3.11347E-08
 -1       632 2.55071E+05 5.82172E+04 8.29102E+01 1.25526E+05 1.39626E-08-1.38907E-08
 -1       633 2.51896E+05 6.13703E+04 9.23842E+01 1.29141E+05 1.59916E-08-2.26089E-08
 -1       634 2.55066E+05 5.82148E+04 1.49318E+02 1.25525E+05 8.23661E-09-1.59434E-09
 -1       635 2.51910E+05 6.13689E+04 3.02159E+02 1.29146E+05-2.80437E-09 1.31131E-08
 -1       636 2.55057E+05 5.82094E+04 6.10217E+02 1.25524E+05 1.20795E-08 7.20911E-09
 -1       637 2.52042E+05 6.14639E+04 1.34167E+03 1.29145E+05 1.29542E-08-2.17869E-08
 -1       638 2.55009E+05 5.85059E+04 2.75667E+03 1.25390E+05 4.30282E-09-1.74100E-08
 -1       639 2.53490E+05 6.34778E+04 6.52232E+03 1.28719E+05 4.31623E-09 3.71438E-09
 -1       640 2.54810E+05 6.45190E+04 1.35350E+04 1.22855E+05 7.91988E-09-8.09905E-09
 -1       656 6.52517E+04-1.66889E+06-1.57514E+05-2.30167E+03-5.74801E-10-1.38476E-08
 -1       657-8.63169E+04-1.74006E+06-1.30479E+05 5.47013E+03-4.47471E-10-1.65572E-08
 -1       658 2.07951E+04-1.68911E+06-8.03447E+04-4.32181E+03-6.95991E-10 4.65043E-09
 -1       659-9.32998E+04-1.74338E+06-1.39656E+05 7.12623E+03-1.95723E-09 5.33953E-09
 -1       660 7.22190E+04-1.66559E+06-1.73290E+05-3.95776E+03-1.82627E-09 1.31953E-08
 -1       661 1.59835E+05 1.67838E+04 1.67248E+04 6.24847E+04-1.35697E-09 1.52040E-08
 -1       662 1.69239E+05 2.92195E+04 1.12712E+04 5.87906E+04 6.73197E-10 4.43833E-09
 -1       663 1.63120E+05 2.21495E+04 3.94203E+03 6.15316E+04 1.67415E-09 1.11240E-08
 -1       664 1.65431E+05 2.29443E+04 2.35805E+03 5.99547E+04-7.14607E-10-8.28163E-09
 -1       665 1.63618E+05 2.28827E+04 9.30235E+02 6.13865E+04-2.70353E-09 8.41086E-09
 -1       666 1.64842E+05 2.21058E+04 5.44367E+02 6.01438E+04 7.10745E-09 6.43144E-09
 -1       667 1.63705E+05 2.29662E+04 2.89167E+02 6.13503E+04-1.14994E-10 2.27030E-09
 -1       668 1.64746E+05 2.20454E+04 2.94697E+02 6.01964E+04-1.76692E-09 2.74881E-09
 -1       669 1.63713E+05 2.29413E+04 3.99024E+02 6.13342E+04-2.16625E-09-5.02098E-09
 -1       670 1.64843E+05 2.22619E+04 8.68924E+02 6.01992E+04-7.42750E-09-1.26480E-08
 -1       671 1.63608E+05 2.27542E+04 1.54285E+03 6.13455E+04 1.82280E-09-8.30153E-09
 -1       672 1.65742E+05 2.37629E+04 3.94736E+03 5.99814E+04 3.01088E-09 3.64707E-09
 -1       673 1.62818E+05 2.14782E+04 6.61516E+03 6.15374E+04 3.10922E-09-1.11695E-08
 -1       674 1.72038E+05 3.43907E+04 1.89179E+04 5.81316E+04-2.15800E-09-2.01674E-08
 -1       675 1.57352E+05 1.24241E+04 2.80809E+04 6.30837E+04-5.31145E-10 2.72667E-09
 -1       676 2.37824E+01-2.91615E+05-1.09975E+03-1.19065E+02 2.28908E-10-7.31813E-09
 -1       677-2.91180E+02-2.91881E+05-2.01273E+03 2.37943E+02 7.86213E-09 3.18359E-09
 -1       678 1.95085E+02-2.91426E+05-3.55800E+03-1.18800E+02 1.12254E-09 1.62846E-08
 -1       679-3.55831E+03-2.94029E+05-8.45233E+03 2.36931E+02 6.57826E-09 5.32407E-09
 -1       680 2.12432E+03-2.89469E+05-1.36223E+04-1.16737E+02 5.74801E-10 9.19705E-09
 -1       771-3.02637E+06-7.25072E+05-1.53710E+05-1.43875E+06-3.08501E-08-2.73285E-08
 -1       772-2.95297E+06-8.10197E+05-7.93241E+04-1.53706E+06-2.11876E-08 1.03537E-08
 -1       773-3.05562E+06-7.02214E+05-4.02663E+04-1.45186E+06-1.37661E-08 1.07975E-08
 -1       774-2.94364E+06-7.93207E+05-1.80001E+04-1.56085E+06 2.70666E-08-3.20142E-09
 -1       775-3.07071E+06-6.91606E+05-1.33490E+04-1.45814E+06-4.59841E-09 2.51021E-09
 -1       776-2.95468E+06-7.90571E+05-5.01035E+03-1.57871E+06-1.04046E-08 7.91624E-09
 -1       777-3.08375E+06-6.82178E+05-5.85614E+03-1.46368E+06-4.77303E-09-4.80213E-10
 -1       778-2.96623E+06-7.88137E+05-1.66167E+03-1.59403E+06 6.72298E-09 9.24774E-09
 -1       779-3.09493E+06-6.73959E+05-2.91323E+03-1.46842E+06-3.55067E-09-1.14378E-08
 -1       780-2.97640E+06-7.85813E+05-4.84020E+02-1.60651E+06 5.84987E-09 4.72937E-11
 -1       781-3.10380E+06-6.67344E+05-1.12746E+03-1.47213E+06-2.42580E-08 4.09273E-10
 -1       782-2.98422E+06-7.83833E+05 4.09929E+02-1.61572E+06-3.84534E-08-5.97174E-09
 -1       783-3.11005E+06-6.62756E+05 6.40522E+02-1.47472E+06-4.78030E-09-1.11327E-08
 -1       784-2.98854E+06-7.81819E+05 2.64162E+03-1.62140E+06-1.58325E-08 2.02590E-09
 -1       785-3.11374E+06-6.60022E+05 4.66417E+03-1.47638E+06-3.61324E-08 5.58975E-09
 -1       786 1.24395E+05-9.70738E+03 2.24588E+04-3.00533E+02 1.19648E-09 9.81163E-09
 -1       787 1.34135E+05 1.12388E+04 1.58887E+04-1.17337E+02 3.69761E-09 1.53409E-09
 -1       788 1.28150E+05-1.52124E+03 5.81066E+03-2.66404E+02 4.47910E-09 1.24876E-08
 -1       789 1.29760E+05 1.76066E+03 3.64785E+03-1.69900E+02-8.36820E-10 7.21593E-09
 -1       790 1.28771E+05-2.36934E+02 1.47726E+03-2.47986E+02-4.16729E-09-4.50927E-09
 -1       791 1.29035E+05 2.74066E+02 8.53811E+02-2.01467E+02-9.80362E-09 7.60630E-09
 -1       792 1.28876E+05-3.57603E+01 3.62977E+02-2.34839E+02-4.51663E-09 1.33414E-08
 -1       793 1.28910E+05 3.82175E+01 1.83512E+02-2.26210E+02 9.56826E-11 9.64291E-09
 -1       794 1.28896E+05-1.23439E+00 5.28342E+01-2.23243E+02 3.72272E-09-7.53826E-09
 -1       795 1.28875E+05-2.29756E+01-4.36701E+01-2.50415E+02-5.62462E-09-2.52643E-09
 -1       796 1.28911E+05 2.53987E+01-1.38052E+02-2.10633E+02 3.33812E-09-5.45857E-09
 -1       797 1.28792E+05-1.90430E+02-3.85566E+02-2.79373E+02 4.61086E-09-5.62778E-09
 -1       798 1.28979E+05 1.66094E+02-6.27983E+02-1.94285E+02 2.08675E-09 1.24508E-08
 -1       799 1.28315E+05-1.22449E+03-1.72925E+03-3.19739E+02 6.76426E-09 6.61259E-09
 -1       800 1.29388E+05 1.05862E+03-2.44769E+03-1.70268E+02 5.13239E-10 2.40694E-08
 -1       801-1.34644E+05-9.33276E+06-1.28147E+06 1.25528E+06 8.83883E-08-6.01831E-08
 -1       802 6.34958E+05 4.91053E+06 1.92024E+06-1.53193E+06 2.43926E-07-3.83470E-08
 -1       803-4.76415E+05-1.30831E+07-1.68830E+06 7.97358E+05 7.28251E-08 2.02926E-08
 -1       804 2.47347E+05 1.69832E+06 1.35354E+06 6.25450E+05-1.12872E-07-8.12503E-08
 -1       805 1.75963E+05-6.13544E+06-2.56590E+05-8.96978E+05-4.68935E-08-5.66461E-08
 -1       806-3.02636E+05-5.84183E+04-2.23498E+04-1.19775E+05-7.22412E-09-3.71256E-09
 -1       807-3.04416E+05-5.47483E+04-1.09802E+04-1.25172E+05 1.18491E-08-7.59246E-09
 -1       808-3.03247E+05-5.03657E+04-4.65817E+03-1.23585E+05-2.82762E-09-1.25923E-08
 -1       809-3.02108E+05-5.16622E+04-2.27773E+03-1.25440E+05-8.43647E-09 2.68701E-08
 -1       810-3.03340E+05-5.00853E+04-1.04400E+03-1.23754E+05 1.74941E-09 1.79698E-08
 -1       811-3.01930E+05-5.15381E+04-5.19189E+02-1.25406E+05-5.17684E-09 2.20741E-08
 -1       812-3.03354E+05-5.01093E+04-2.62614E+02-1.23753E+05-1.36433E-08 1.71167E-09
 -1       813-3.01905E+05-5.15401E+04-1.70748E+02-1.25388E+05-1.24801E-08-6.25846E-09
 -1       814-3.03347E+05-5.01186E+04-1.69306E+02-1.23749E+05-5.55247E-09 5.80940E-09
 -1       815-3.01909E+05-5.15423E+04-2.72918E+02-1.25381E+05 3.84125E-09 1.00936E-08
 -1       816-3.03327E+05-5.01176E+04-5.17306E+02-1.23746E+05-2.28920E-09-1.91858E-09
 -1       817-3.01997E+05-5.15915E+04-1.11031E+03-1.25370E+05-1.45719E-08 3.37268E-08
 -1       818-3.03260E+05-5.02741E+04-2.26461E+03-1.23672E+05-5.18412E-09 1.42895E-08
 -1       819-3.03237E+05-5.29598E+04-5.32859E+03-1.25077E+05-7.17137E-10-9.05993E-09
 -1       820-3.02834E+05-5.42985E+04-1.08456E+04-1.21952E+05 3.94630E-09 8.92146E-09
 -1       821-3.73076E+05 2.05506E+04-4.77098E+04 1.77404E+03 1.23500E-08 1.34569E-08
 -1       822-3.92988E+05-2.37997E+04-3.36279E+04-3.56611E+03 4.23343E-09-1.00822E-08
 -1       823-3.80665E+05 3.23267E+03-1.23350E+04 2.72036E+03-9.80852E-09-8.17636E-10
 -1       824-3.83925E+05-3.73166E+03-7.73617E+03-4.13650E+03 2.11408E-09 1.73770E-09
 -1       825-3.82140E+05 5.02165E+02-3.22093E+03 2.34450E+03 1.75280E-08 1.16758E-08
 -1       826-3.81838E+05-5.70893E+02-1.78998E+03-2.27436E+03 2.09097E-08 1.78345E-08
 -1       827-3.82736E+05 6.22142E+01-1.10709E+03 8.58135E+02 8.69923E-09-6.24652E-10
 -1       828-3.81356E+05-1.50650E+02-6.94206E+02 9.99045E+02 1.19729E-09 5.29431E-09
 -1       829-3.82615E+05 7.65365E+01-1.10458E+03-9.28939E+02 3.15544E-09 6.69019E-09
 -1       830-3.82104E+05-6.15669E+02-1.90943E+03 3.89427E+03 4.28841E-10-2.63128E-09
 -1       831-3.82002E+05 5.38262E+02-3.31077E+03-2.03712E+03-2.43231E-09-6.57087E-09
 -1       832-3.84010E+05-3.88968E+03-8.03602E+03 4.82604E+03-6.35819E-10-2.12272E-08
 -1       833-3.80719E+05 3.35512E+03-1.28264E+04-1.86073E+03-1.64084E-09 1.01045E-09
 -1       834-3.93139E+05-2.47050E+04-3.48584E+04 3.25643E+03-2.02652E-09 1.07980E-08
 -1       835-3.72863E+05 2.13272E+04-4.95555E+04-4.67462E+02 6.00423E-09 4.78758E-09
 -1       836-1.37370E+03 3.61392E+05 2.23293E+04-1.62011E+04-6.18547E-09-1.01240E-08
 -1       837 4.76904E+03 3.68381E+05 1.89106E+04-3.30367E+04-6.90034E-09 4.39286E-09
 -1       838-5.40948E+02 3.63350E+05 1.92897E+04-1.61302E+04-5.54564E-09 2.66839E-08
 -1       839 1.21574E+04 3.73884E+05 3.65121E+04-3.30878E+04-5.90990E-09 3.51480E-09
 -1       840-3.75245E+03 3.55831E+05 5.82328E+04-1.61549E+04-5.54792E-09-1.12683E-08
 -1       856-5.48274E+04 7.99221E+03-2.10613E+04-3.98412E+02 2.64208E-09 5.22232E-09
 -1       857-6.35064E+04-9.38890E+03-1.44985E+04 5.55255E+03 2.10321E-09 7.96717E-09
 -1       858-5.82637E+04 1.12073E+03-5.46498E+03-4.22411E+02 4.77343E-09-2.87946E-09
 -1       859-5.95627E+04-1.31690E+03-3.29805E+03 5.58849E+03-2.27232E-10 5.62522E-10
 -1       860-5.87771E+04 1.56852E+02-1.38252E+03-4.34118E+02 3.80612E-09-3.63900E-09
 -1       861-5.89721E+04-1.85758E+02-7.61207E+02 5.60445E+03-3.88067E-09-7.24296E-09
 -1       862-5.88574E+04 2.11896E+01-3.17732E+02-4.38358E+02 1.03377E-10-2.06228E-08
 -1       863-5.88739E+04-2.05636E+01-1.18712E+02 5.60688E+03-3.92465E-09-3.86360E-09
 -1       864-5.88758E+04-4.59331E+00 4.03230E+01-4.36539E+02-1.41864E-09-5.56619E-09
 -1       865-5.88202E+04 5.75922E+01 2.39329E+02 5.59661E+03-6.45385E-09-5.38264E-09
 -1       866-5.89089E+04-5.70216E+01 4.85746E+02-4.28092E+02 7.42375E-10-5.45961E-09
 -1       867-5.85908E+04 4.71283E+02 1.19784E+03 5.57365E+03 2.84257E-09 2.94347E-09
 -1       868-5.91004E+04-4.10923E+02 1.99096E+03-4.13583E+02-2.68506E-09 1.18165E-08
 -1       869-5.71305E+04 3.41992E+03 5.30211E+03 5.53575E+03 3.57599E-09 1.52795E-10
 -1       870-6.03617E+04-2.92573E+03 7.69441E+03-3.90103E+02-5.09374E-09 9.43965E-09
 -1       871-5.43216E+03-2.02299E+04-1.90360E+04 1.27296E+05-3.80896E-09-2.71848E-09
 -1       872-1.99058E+03-2.46424E+04-7.95752E+03 1.65056E+05-9.98625E-09 1.35028E-08
 -1       873 3.54846E+02-2.25149E+04 6.09573E+02 1.27016E+05-6.11226E-09-9.22466E-09
 -1       874 3.19391E+03-2.01309E+04 9.62975E+03 1.65087E+05-1.03064E-08 8.67112E-09
 -1       875 6.68995E+03-2.48087E+04 2.16979E+04 1.27250E+05-4.35648E-09 2.59206E-08
 -1       876 2.88352E+05 4.86699E+04 1.48515E+04 1.15801E+05 3.85353E-09-9.14952E-10
 -1       877 2.89327E+05 5.18052E+04 7.93127E+03 1.20068E+05 6.21003E-09-6.18718E-09
 -1       878 2.89741E+05 4.70250E+04 3.32281E+03 1.17017E+05-3.05272E-09 4.74074E-09
 -1       879 2.87308E+05 4.97906E+04 1.65561E+03 1.20168E+05 1.87083E-09 1.11114E-08
 -1       880 2.89841E+05 4.70079E+04 7.71149E+02 1.17067E+05-3.04931E-09-5.36545E-09
 -1       881 2.87174E+05 4.97044E+04 4.11775E+02 1.20145E+05-1.01556E-08-2.14468E-08
 -1       882 2.89850E+05 4.70209E+04 2.63377E+02 1.17069E+05-3.47882E-11-1.15253E-08
 -1       883 2.87164E+05 4.97000E+04 2.83057E+02 1.20138E+05-1.60986E-09 3.24854E-09
 -1       884 2.89843E+05 4.70181E+04 4.50201E+02 1.17069E+05-2.20689E-09-1.07909E-08
 -1       885 2.87200E+05 4.97062E+04 9.05105E+02 1.20149E+05-2.20467E-09 2.50213E-09
 -1       886 2.89808E+05 4.69917E+04 1.82418E+03 1.17065E+05-7.18293E-09-1.98565E-09
 -1       887 2.87521E+05 4.99164E+04 3.98466E+03 1.20195E+05 1.99555E-09 1.33933E-08
 -1       888 2.89556E+05 4.70361E+04 8.02920E+03 1.16938E+05 1.95664E-09 1.04678E-08
 -1       889 2.92301E+05 5.48872E+04 1.91803E+04 1.20048E+05-3.68345E-11-2.86836E-08
 -1       890 2.86280E+05 5.09282E+04 3.59242E+04 1.13881E+05-4.35375E-09-3.54339E-09
 -1       891-9.52238E+01-1.60014E+05-1.95897E+03 2.69246E+04-4.78167E-10 1.70432E-08
 -1       892-1.83620E+02-1.60527E+05-2.10512E+03 4.08726E+04 2.42744E-09-1.19981E-08
 -1       893 3.52852E+01-1.60076E+05-2.98179E+03 2.69317E+04-4.26780E-10-1.36965E-08
 -1       894-1.49498E+03-1.61654E+05-6.17205E+03 4.07219E+04 1.52068E-09-3.94957E-08
 -1       895-1.18574E+03-1.58790E+05-1.08693E+04 2.70768E+04-1.43552E-09-3.40169E-08
 -1       956-3.69826E+05-5.32640E+03-1.31756E+04 2.97935E+04 4.01997E-09-5.44742E-09
 -1       957-3.72413E+05-1.87027E+03-6.76291E+03 3.58115E+04-8.32188E-11-1.48934E-08
 -1       958-3.71009E+05-2.25663E+02-3.04752E+03 2.96299E+04-5.61158E-09-2.12840E-08
 -1       959-3.71203E+05-1.21526E+02-1.55616E+03 3.60011E+04-4.38968E-09-1.02593E-08
 -1       960-3.71124E+05-3.42372E+01-7.58849E+02 2.96132E+04-6.89397E-09-8.80277E-09
 -1       961-3.71124E+05-5.05137E+01-4.02383E+02 3.60208E+04-3.62638E-09-1.38471E-10
 -1       962-3.71150E+05-3.57987E+01-2.30412E+02 2.96104E+04-1.52249E-09-3.54567E-09
 -1       963-3.71124E+05-4.66289E+01-1.85044E+02 3.60244E+04 2.46439E-09 1.06188E-08
 -1       964-3.71156E+05-3.25764E+01-2.25091E+02 2.96096E+04-3.67166E-09 1.61440E-08
 -1       965-3.71136E+05-4.36444E+01-3.89368E+02 3.60237E+04-4.20209E-09 1.60367E-09
 -1       966-3.71140E+05-2.46601E+01-7.31597E+02 2.96111E+04 4.73369E-09-1.39994E-08
 -1       967-3.71224E+05-1.05564E+02-1.50052E+03 3.60099E+04-1.13437E-09-6.19116E-09
 -1       968-3.71039E+05-2.03068E+02-2.93741E+03 2.96233E+04-1.99816E-09-5.29781E-09
 -1       969-3.72403E+05-1.78636E+03-6.52106E+03 3.58671E+04-4.02179E-09 2.77336E-09
 -1       970-3.69906E+05-5.11756E+03-1.27033E+04 2.97465E+04-1.47065E-09 1.38034E-08
 -1       971-3.39337E+05-1.70256E+03-9.20087E+03 1.51857E+04 4.26007E-09-2.55740E-09
 -1       972-3.41554E+05-1.25048E+03-5.01070E+03 2.10222E+04 7.05677E-09-4.42014E-10
 -1       973-3.40362E+05-5.67173E+01-2.24430E+03 1.50653E+04-1.66619E-09-1.63441E-08
 -1       974-3.40498E+05-7.37618E+01-1.16331E+03 2.11578E+04-1.02470E-08-1.00490E-08
 -1       975-3.40443E+05-1.24337E+01-5.81830E+02 1.50532E+04-8.26367E-09-5.48084E-10
 -1       976-3.40437E+05-2.45536E+01-3.36269E+02 2.11733E+04 4.37922E-10-2.29147E-09
 -1       977-3.40459E+05-1.17497E+01-2.45127E+02 1.50499E+04-2.09275E-09 8.54538E-09
 -1       978-3.40442E+05-1.84434E+01-2.88305E+02 2.11780E+04-7.31359E-09 1.03104E-08
 -1       979-3.40459E+05-3.43933E+00-4.64467E+02 1.50484E+04-4.43094E-10 1.50546E-08
 -1       980-3.40477E+05-1.54398E+01-8.97612E+02 2.11790E+04-1.63448E-09-1.44610E-09
 -1       981-3.40430E+05 1.89911E+01-1.73888E+03 1.50489E+04-7.19979E-10-6.60737E-09
 -1       982-3.40715E+05-1.43920E+02-3.59446E+03 2.11724E+04-5.05861E-09 1.03957E-08
 -1       983-3.40211E+05-9.23485E+01-6.98417E+03 1.50549E+04-2.66482E-09 2.09707E-09
 -1       984-3.44074E+05-3.79153E+03-1.56408E+04 2.10877E+04 5.33646E-10 2.74301E-08
 -1       985-3.37049E+05-5.20294E+03-2.87213E+04 1.51270E+04-3.56522E-09 2.79288E-08
 -3
    1PSTEP                        33          17           1          
  100CL  117 6.53461E-01         409                     0   17           1
 -4  DISP        4    1
 -5  D1          1    2    1    0
 -5  D2          1    2    2    0
 -5  D3          1    2    3    0
 -5  ALL         1    2    0    0    1ALL
 -1         1 2.38555E-03 0.00000E+00 0.00000E+00
 -1         2 1.43850E-03 2.34341E-28 0.00000E+00
 -1         3 3.28528E-04-5.08894E-28 0.00000E+00
 -1         5 1.71856E-04-1.40450E-27-6.20385E-25
 -1         8 2.37010E-03-4.83329E-07 0.00000E+00
 -1         9 2.35221E-03-9.04269E-05 0.00000E+00
 -1        10 2.97995E-04-3.47764E-06-6.61744E-24
 -1        12 1.73500E-04 7.90169E-07-6.20385E-25
 -1        15 2.35175E-03-5.24499E-07 0.00000E+00
 -1        16 2.39043E-03-9.17982E-05 0.00000E+00
 -1        17 2.03278E-04-7.85353E-06 0.00000E+00
 -1        18 1.76870E-04 3.15970E-05 0.00000E+00
 -1        19 1.78430E-04 1.57449E-06 0.00000E+00
 -1        20 1.78572E-04-7.62978E-06 0.00000E+00
 -1        21 1.77708E-04-2.06318E-05 3.30872E-24
 -1        24 3.00444E-05-1.18908E-05 0.00000E+00
 -1        25 1.86635E-04 3.18153E-05 0.00000E+00
 -1        26 1.87323E-04 2.18080E-06 0.00000E+00
 -1        27 1.85175E-04-1.11151E-05 0.00000E+00
 -1        28 1.84846E-04-2.12439E-05 0.00000E+00
 -1        32 0.00000E+00 0.00000E+00 0.00000E+00
 -1        33 1.95199E-04 2.91807E-06 0.00000E+00
 -1        34 1.93124E-04-1.11676E-05 0.00000E+00
 -1        35 1.91227E-04-2.15796E-05 0.00000E+00
 -1        51 2.38455E-03-9.46779E-08 0.00000E+00
 -1        52 2.38269E-03-1.72963E-07 0.00000E+00
 -1        53 2.38013E-03-2.48751E-07 0.00000E+00
 -1        54 2.37706E-03-3.24207E-07 0.00000E+00
 -1        55 2.37366E-03-4.00960E-07 1.13737E-24
 -1        56 2.38113E-03 1.18486E-06 0.00000E+00
 -1        57 2.37486E-03 6.84092E-06 5.29396E-23
 -1        58 2.36743E-03 1.55085E-05 1.05879E-22
 -1        59 2.35951E-03 2.54099E-05 0.00000E+00
 -1        60 2.35186E-03 3.45840E-05 1.05879E-22
 -1        61 2.34523E-03 4.11200E-05 5.29396E-23
 -1        62 2.34016E-03 4.35477E-05-1.05879E-22
 -1        63 2.33707E-03 4.07360E-05 0.00000E+00
 -1        64 2.33600E-03 3.24328E-05 0.00000E+00
 -1        65 2.33686E-03 1.88474E-05 0.00000E+00
 -1        66 2.33923E-03 1.08289E-06 1.05879E-22
 -1        67 2.34257E-03-1.94016E-05 0.00000E+00
 -1        68 2.34619E-03-4.06848E-05 1.05879E-22
 -1        69 2.34941E-03-6.07692E-05-5.29396E-23
 -1        70 2.35156E-03-7.78751E-05 0.00000E+00
 -1        86 1.49554E-03-3.30966E-06 0.00000E+00
 -1        87 1.66254E-03-1.85536E-05 1.32349E-23
 -1        88 1.88707E-03-4.42036E-05 2.64698E-23
 -1        89 2.11409E-03-7.04143E-05 0.00000E+00
 -1        90 2.28719E-03-8.66256E-05 0.00000E+00
 -1       121 3.27671E-04-5.63391E-07 0.00000E+00
 -1       122 3.25102E-04-1.12961E-06-6.61744E-24
 -1       123 3.20830E-04-1.70142E-06 1.32349E-23
 -1       124 3.14872E-04-2.28161E-06-6.61744E-24
 -1       125 3.07250E-04-2.87259E-06-1.32349E-23
 -1       191 1.71902E-04 1.31746E-07 2.27475E-24
 -1       192 1.72039E-04 2.63483E-07-1.03398E-24
 -1       193 1.72267E-04 3.95204E-07 1.24077E-24
 -1       194 1.72587E-04 5.26899E-07 1.03398E-24
 -1       195 1.72997E-04 6.58557E-07 1.44757E-24
 -1       251 2.36946E-03-6.73656E-06 1.32349E-23
 -1       252 2.36853E-03-3.15060E-05-6.61744E-24
 -1       253 2.36718E-03-7.05378E-05 0.00000E+00
 -1       254 2.36541E-03-1.19208E-04-6.61744E-24
 -1       255 2.36355E-03-1.70041E-04-1.32349E-23
 -1       256 2.36193E-03-2.15510E-04 0.00000E+00
 -1       257 2.36073E-03-2.49680E-04 1.32349E-23
 -1       258 2.35995E-03-2.66906E-04 6.61744E-24
 -1       259 2.35932E-03-2.66504E-04-2.64698E-23
 -1       260 2.35852E-03-2.48248E-04 0.00000E+00
 -1       261 2.35743E-03-2.17133E-04 0.00000E+00
 -1       262 2.35608E-03-1.78484E-04 1.32349E-23
 -1       263 2.35474E-03-1.39862E-04 0.00000E+00
 -1       264 2.35365E-03-1.08831E-04 1.32349E-23
 -1       265 2.35285E-03-9.06944E-05 2.64698E-23
 -1       266 2.36704E-03-4.97299E-07 3.30872E-24
 -1       267 2.36398E-03-5.03294E-07 0.00000E+00
 -1       268 2.36093E-03-5.09795E-07 0.00000E+00
 -1       269 2.35787E-03-5.14799E-07-2.06795E-25
 -1       270 2.35481E-03-5.19768E-07 0.00000E+00
 -1       271 2.36847E-03 1.67406E-06 1.32349E-23
 -1       272 2.36729E-03 2.56363E-06 1.32349E-23
 -1       273 2.36659E-03 2.20348E-06-2.64698E-23
 -1       274 2.36634E-03 6.13517E-07 0.00000E+00
 -1       275 2.36653E-03-2.17155E-06 0.00000E+00
 -1       276 2.36715E-03-6.10724E-06 0.00000E+00
 -1       277 2.36818E-03-1.11373E-05 2.64698E-23
 -1       278 2.36958E-03-1.71954E-05-1.32349E-23
 -1       279 2.37134E-03-2.42052E-05 0.00000E+00
 -1       280 2.37341E-03-3.20811E-05 0.00000E+00
 -1       281 2.37577E-03-4.07292E-05 0.00000E+00
 -1       282 2.37838E-03-5.00484E-05 0.00000E+00
 -1       283 2.38118E-03-5.99307E-05-2.64698E-23
 -1       284 2.38416E-03-7.02622E-05 0.00000E+00
 -1       285 2.38725E-03-8.09264E-05 0.00000E+00
 -1       301 2.35914E-03-9.06809E-05 6.61744E-24
 -1       302 2.36477E-03-9.08993E-05 6.61744E-24
 -1       303 2.36991E-03-9.11123E-05 0.00000E+00
 -1       304 2.37537E-03-9.13257E-05 0.00000E+00
 -1       305 2.38194E-03-9.15476E-05 0.00000E+00
 -1       306 2.38751E-03-2.31156E-04 0.00000E+00
 -1       307 2.45202E-03-6.17570E-04 5.29396E-23
 -1       308 2.50512E-03-1.18729E-03 0.00000E+00
 -1       309 2.53873E-03-1.85181E-03 0.00000E+00
 -1       310 2.57728E-03-2.49336E-03 0.00000E+00
 -1       311 2.63852E-03-2.99624E-03 0.00000E+00
 -1       312 2.69753E-03-3.28374E-03 1.05879E-22
 -1       313 2.70131E-03-3.31565E-03 0.00000E+00
 -1       314 2.58442E-03-3.10022E-03 0.00000E+00
 -1       315 2.30803E-03-2.69240E-03 0.00000E+00
 -1       316 1.88680E-03-2.16352E-03 0.00000E+00
 -1       317 1.37800E-03-1.58095E-03 5.29396E-23
 -1       318 8.84252E-04-1.00729E-03 0.00000E+00
 -1       319 5.03700E-04-5.07895E-04 0.00000E+00
 -1       320 2.77873E-04-1.52209E-04 0.00000E+00
 -1       336 2.86928E-04-4.14493E-06 1.32349E-23
 -1       337 2.73882E-04-4.83570E-06 6.61744E-24
 -1       338 2.58918E-04-5.55180E-06 0.00000E+00
 -1       339 2.42107E-04-6.29383E-06 0.00000E+00
 -1       340 2.23531E-04-7.06598E-06-1.32349E-23
 -1       406 1.74093E-04 9.21716E-07 4.13590E-25
 -1       407 1.74778E-04 1.05316E-06 1.65436E-24
 -1       408 1.75555E-04 1.18447E-06-1.65436E-24
 -1       409 1.76422E-04 1.31546E-06 1.49926E-24
 -1       410 1.77381E-04 1.44587E-06-8.27181E-25
 -1       521 2.42650E-03-2.41563E-04 1.05879E-22
 -1       522 2.48983E-03-6.47131E-04 0.00000E+00
 -1       523 2.53771E-03-1.24307E-03 0.00000E+00
 -1       524 2.56356E-03-1.93468E-03 0.00000E+00
 -1       525 2.59531E-03-2.60152E-03 1.05879E-22
 -1       526 2.65343E-03-3.12547E-03 0.00000E+00
 -1       527 2.71211E-03-3.42375E-03 0.00000E+00
 -1       528 2.71422E-03-3.45511E-03 0.00000E+00
 -1       529 2.58759E-03-3.22745E-03 2.11758E-22
 -1       530 2.29109E-03-2.80240E-03 0.00000E+00
 -1       531 1.83975E-03-2.25467E-03 1.05879E-22
 -1       532 1.29630E-03-1.65448E-03 5.29396E-23
 -1       533 7.68151E-04-1.06269E-03 0.00000E+00
 -1       534 3.58154E-04-5.43032E-04-5.29396E-23
 -1       535 1.13328E-04-1.68865E-04 0.00000E+00
 -1       536 2.02576E-04 2.55165E-05 0.00000E+00
 -1       537 2.00807E-04 8.33719E-05 0.00000E+00
 -1       538 1.98077E-04 1.56817E-04-3.30872E-24
 -1       539 1.94860E-04 2.36876E-04 0.00000E+00
 -1       540 1.91963E-04 3.12530E-04 0.00000E+00
 -1       541 1.90076E-04 3.72783E-04 0.00000E+00
 -1       542 1.89200E-04 4.11135E-04 0.00000E+00
 -1       543 1.88983E-04 4.21225E-04 1.65436E-24
 -1       544 1.88674E-04 4.03808E-04-3.30872E-24
 -1       545 1.87581E-04 3.59847E-04 0.00000E+00
 -1       546 1.85555E-04 2.97165E-04 3.30872E-24
 -1       547 1.82822E-04 2.23699E-04 0.00000E+00
 -1       548 1.80115E-04 1.50629E-04 3.30872E-24
 -1       549 1.78161E-04 8.91342E-05-1.65436E-24
 -1       550 1.77142E-04 4.69266E-05 0.00000E+00
 -1       551 1.79177E-04-8.40192E-06 0.00000E+00
 -1       552 1.51919E-04-9.02458E-06 0.00000E+00
 -1       553 1.22432E-04-9.70493E-06-8.27181E-24
 -1       554 9.16613E-05-1.04232E-05-3.30872E-24
 -1       555 6.05520E-05-1.11534E-05 0.00000E+00
 -1       556 1.96001E-04 1.07720E-05 0.00000E+00
 -1       557 1.90131E-04 2.58536E-05 0.00000E+00
 -1       558 1.85537E-04 3.76689E-05 0.00000E+00
 -1       559 1.82093E-04 4.65178E-05 0.00000E+00
 -1       560 1.79674E-04 5.27002E-05 0.00000E+00
 -1       561 1.78155E-04 5.65187E-05 0.00000E+00
 -1       562 1.77418E-04 5.82769E-05 0.00000E+00
 -1       563 1.77341E-04 5.82792E-05 0.00000E+00
 -1       564 1.77809E-04 5.68311E-05 0.00000E+00
 -1       565 1.78705E-04 5.42383E-05 0.00000E+00
 -1       566 1.79912E-04 5.08073E-05 0.00000E+00
 -1       567 1.81317E-04 4.68450E-05 0.00000E+00
 -1       568 1.82806E-04 4.26581E-05 0.00000E+00
 -1       569 1.84264E-04 3.85537E-05 0.00000E+00
 -1       570 1.85578E-04 3.48386E-05 0.00000E+00
 -1       571 1.76964E-04 2.96502E-05-8.27181E-25
 -1       572 1.77061E-04 2.76397E-05-1.24077E-24
 -1       573 1.77158E-04 2.55806E-05 1.65436E-24
 -1       574 1.77256E-04 2.34886E-05 0.00000E+00
 -1       575 1.77353E-04 2.13795E-05 3.30872E-24
 -1       576 1.77450E-04 1.92691E-05-1.65436E-24
 -1       577 1.77548E-04 1.71732E-05 3.30872E-24
 -1       578 1.77646E-04 1.51076E-05 0.00000E+00
 -1       579 1.77743E-04 1.30883E-05-6.61744E-24
 -1       580 1.77841E-04 1.11311E-05 0.00000E+00
 -1       581 1.77939E-04 9.25182E-06 0.00000E+00
 -1       582 1.78037E-04 7.46627E-06 0.00000E+00
 -1       583 1.78135E-04 5.79031E-06 0.00000E+00
 -1       584 1.78234E-04 4.23957E-06 0.00000E+00
 -1       585 1.78332E-04 2.82956E-06 0.00000E+00
 -1       586 1.78455E-04 3.16355E-05 0.00000E+00
 -1       587 1.80000E-04 3.16734E-05 4.13590E-25
 -1       588 1.81548E-04 3.17109E-05 0.00000E+00
 -1       589 1.83142E-04 3.17478E-05 0.00000E+00
 -1       590 1.84824E-04 3.17834E-05 0.00000E+00
 -1       591 1.77534E-04 2.97393E-05 0.00000E+00
 -1       592 1.78203E-04 2.78608E-05 0.00000E+00
 -1       593 1.78876E-04 2.59676E-05-8.27181E-25
 -1       594 1.79553E-04 2.40643E-05 4.13590E-25
 -1       595 1.80232E-04 2.21558E-05 0.00000E+00
 -1       596 1.80910E-04 2.02469E-05 0.00000E+00
 -1       597 1.81588E-04 1.83423E-05 0.00000E+00
 -1       598 1.82261E-04 1.64468E-05 0.00000E+00
 -1       599 1.82930E-04 1.45651E-05 0.00000E+00
 -1       600 1.83591E-04 1.27019E-05-4.13590E-25
 -1       601 1.84244E-04 1.08621E-05-8.27181E-25
 -1       602 1.84887E-04 9.05038E-06 0.00000E+00
 -1       603 1.85517E-04 7.27148E-06-8.27181E-25
 -1       604 1.86134E-04 5.53027E-06 2.58494E-26
 -1       605 1.86736E-04 3.83141E-06 0.00000E+00
 -1       606 1.78444E-04 5.46505E-07 0.00000E+00
 -1       607 1.78454E-04-3.94484E-07-1.65436E-24
 -1       608 1.78463E-04-1.25358E-06-3.30872E-24
 -1       609 1.78471E-04-2.03655E-06 0.00000E+00
 -1       610 1.78480E-04-2.74921E-06-3.30872E-24
 -1       611 1.78488E-04-3.39741E-06 0.00000E+00
 -1       612 1.78497E-04-3.98705E-06 0.00000E+00
 -1       613 1.78505E-04-4.52401E-06 0.00000E+00
 -1       614 1.78514E-04-5.01418E-06 1.65436E-24
 -1       615 1.78522E-04-5.46344E-06 0.00000E+00
 -1       616 1.78531E-04-5.87768E-06 0.00000E+00
 -1       617 1.78539E-04-6.26281E-06 0.00000E+00
 -1       618 1.78548E-04-6.62469E-06 0.00000E+00
 -1       619 1.78556E-04-6.96922E-06-2.06795E-25
 -1       620 1.78565E-04-7.30229E-06 2.06795E-25
 -1       621 1.79645E-04 1.67604E-06 0.00000E+00
 -1       622 1.81008E-04 1.77786E-06-8.27181E-25
 -1       623 1.82489E-04 1.87949E-06 1.65436E-24
 -1       624 1.84056E-04 1.98082E-06 0.00000E+00
 -1       625 1.85678E-04 2.08188E-06 1.65436E-24
 -1       626 1.78926E-04 5.81810E-07 3.30872E-24
 -1       627 1.79398E-04-3.46228E-07 0.00000E+00
 -1       628 1.79849E-04-1.21748E-06 0.00000E+00
 -1       629 1.80282E-04-2.04013E-06 0.00000E+00
 -1       630 1.80700E-04-2.82239E-06 6.61744E-24
 -1       631 1.81106E-04-3.57248E-06 0.00000E+00
 -1       632 1.81503E-04-4.29863E-06 0.00000E+00
 -1       633 1.81894E-04-5.00908E-06 0.00000E+00
 -1       634 1.82282E-04-5.71205E-06 3.30872E-24
 -1       635 1.82670E-04-6.41576E-06-1.65436E-24
 -1       636 1.83062E-04-7.12846E-06 3.30872E-24
 -1       637 1.83460E-04-7.85838E-06 1.65436E-24
 -1       638 1.83868E-04-8.61373E-06 1.65436E-24
 -1       639 1.84288E-04-9.40278E-06 0.00000E+00
 -1       640 1.84723E-04-1.02338E-05 3.30872E-24
 -1       656 1.79132E-04-8.19630E-06 0.00000E+00
 -1       657 1.80107E-04-8.78582E-06 6.61744E-24
 -1       658 1.81361E-04-9.37394E-06 0.00000E+00
 -1       659 1.82745E-04-9.96172E-06 0.00000E+00
 -1       660 1.84077E-04-1.05513E-05 0.00000E+00
 -1       661 1.78782E-04-8.00102E-06 0.00000E+00
 -1       662 1.79029E-04-8.46149E-06 8.27181E-25
 -1       663 1.79306E-04-9.00622E-06-1.65436E-24
 -1       664 1.79614E-04-9.62896E-06 8.27181E-25
 -1       665 1.79949E-04-1.03241E-05-1.65436E-24
 -1       666 1.80308E-04-1.10861E-05-8.27181E-25
 -1       667 1.80691E-04-1.19094E-05 1.65436E-24
 -1       668 1.81095E-04-1.27888E-05 0.00000E+00
 -1       669 1.81517E-04-1.37190E-05 1.65436E-24
 -1       670 1.81957E-04-1.46950E-05 0.00000E+00
 -1       671 1.82412E-04-1.57119E-05 0.00000E+00
 -1       672 1.82881E-04-1.67648E-05 8.27181E-25
 -1       673 1.83361E-04-1.78488E-05 0.00000E+00
 -1       674 1.83850E-04-1.89597E-05-8.27181E-25
 -1       675 1.84347E-04-2.00923E-05 0.00000E+00
 -1       676 1.78902E-04-2.07344E-05 0.00000E+00
 -1       677 1.80095E-04-2.08370E-05 1.65436E-24
 -1       678 1.81287E-04-2.09395E-05 3.30872E-24
 -1       679 1.82476E-04-2.10417E-05 0.00000E+00
 -1       680 1.83663E-04-2.11439E-05 1.65436E-24
 -1       771 1.86154E-05 1.36029E-05 0.00000E+00
 -1       772 8.99016E-06 3.45417E-05 0.00000E+00
 -1       773 1.08224E-06 5.11465E-05 0.00000E+00
 -1       774-5.22614E-06 6.36647E-05 0.00000E+00
 -1       775-1.00504E-05 7.23532E-05-5.29396E-23
 -1       776-1.35106E-05 7.74846E-05 2.64698E-23
 -1       777-1.57267E-05 7.93410E-05 5.29396E-23
 -1       778-1.68211E-05 7.82173E-05 0.00000E+00
 -1       779-1.69159E-05 7.44166E-05 5.29396E-23
 -1       780-1.61349E-05 6.82524E-05 5.29396E-23
 -1       781-1.46012E-05 6.00448E-05 0.00000E+00
 -1       782-1.24395E-05 5.01218E-05 2.64698E-23
 -1       783-9.77366E-06 3.88162E-05 5.29396E-23
 -1       784-6.72872E-06 2.64662E-05 2.64698E-23
 -1       785-3.42889E-06 1.34130E-05 5.29396E-23
 -1       786 1.86674E-04 2.97380E-05 0.00000E+00
 -1       787 1.86716E-04 2.77103E-05 0.00000E+00
 -1       788 1.86758E-04 2.57238E-05 0.00000E+00
 -1       789 1.86801E-04 2.37706E-05-8.27181E-25
 -1       790 1.86844E-04 2.18459E-05 0.00000E+00
 -1       791 1.86887E-04 1.99449E-05 0.00000E+00
 -1       792 1.86931E-04 1.80656E-05 0.00000E+00
 -1       793 1.86974E-04 1.62057E-05 8.27181E-25
 -1       794 1.87018E-04 1.43651E-05 0.00000E+00
 -1       795 1.87061E-04 1.25436E-05 0.00000E+00
 -1       796 1.87104E-04 1.07431E-05 0.00000E+00
 -1       797 1.87148E-04 8.96538E-06-8.27181E-25
 -1       798 1.87192E-04 7.21474E-06-1.65436E-24
 -1       799 1.87235E-04 5.49544E-06 0.00000E+00
 -1       800 1.87279E-04 3.81493E-06-1.65436E-24
 -1       801 1.43244E-04 2.85531E-05 2.64698E-23
 -1       802 1.19391E-05 1.78987E-05-2.64698E-23
 -1       803-1.00622E-04 9.09477E-06 5.29396E-23
 -1       804-8.98981E-05 6.30731E-06-2.64698E-23
 -1       805-2.97785E-05 2.52215E-06-5.29396E-23
 -1       806 1.87301E-04 2.96710E-05-1.65436E-24
 -1       807 1.87953E-04 2.75529E-05 1.65436E-24
 -1       808 1.88593E-04 2.54660E-05-3.30872E-24
 -1       809 1.89220E-04 2.34143E-05 0.00000E+00
 -1       810 1.89831E-04 2.14017E-05 0.00000E+00
 -1       811 1.90427E-04 1.94319E-05 1.65436E-24
 -1       812 1.91005E-04 1.75088E-05 3.30872E-24
 -1       813 1.91565E-04 1.56360E-05 1.65436E-24
 -1       814 1.92104E-04 1.38174E-05 1.65436E-24
 -1       815 1.92622E-04 1.20567E-05-1.65436E-24
 -1       816 1.93116E-04 1.03577E-05 3.30872E-24
 -1       817 1.93587E-04 8.72412E-06-8.27181E-25
 -1       818 1.94031E-04 7.15964E-06-3.30872E-24
 -1       819 1.94449E-04 5.66803E-06 0.00000E+00
 -1       820 1.94838E-04 4.25296E-06-1.65436E-24
 -1       821 1.87197E-04 1.27942E-07 0.00000E+00
 -1       822 1.87060E-04-2.80423E-06 0.00000E+00
 -1       823 1.86923E-04-6.27157E-06 0.00000E+00
 -1       824 1.86783E-04-9.92659E-06 0.00000E+00
 -1       825 1.86644E-04-1.33719E-05-3.30872E-24
 -1       826 1.86507E-04-1.62113E-05 0.00000E+00
 -1       827 1.86371E-04-1.82112E-05-3.30872E-24
 -1       828 1.86237E-04-1.91435E-05 0.00000E+00
 -1       829 1.86103E-04-1.90664E-05 0.00000E+00
 -1       830 1.85969E-04-1.80446E-05 1.65436E-24
 -1       831 1.85834E-04-1.63962E-05 3.30872E-24
 -1       832 1.85699E-04-1.44433E-05 0.00000E+00
 -1       833 1.85564E-04-1.25897E-05-3.30872E-24
 -1       834 1.85432E-04-1.12388E-05 0.00000E+00
 -1       835 1.85299E-04-1.06593E-05 0.00000E+00
 -1       836 1.88843E-04 2.30311E-06 6.61744E-24
 -1       837 1.90239E-04 2.42846E-06-1.65436E-24
 -1       838 1.91540E-04 2.55374E-06 0.00000E+00
 -1       839 1.92779E-04 2.67831E-06-8.27181E-25
 -1       840 1.93989E-04 2.80273E-06 0.00000E+00
 -1       856 1.85158E-04-1.20184E-05 0.00000E+00
 -1       857 1.85138E-04-1.27880E-05 0.00000E+00
 -1       858 1.85118E-04-1.34445E-05 0.00000E+00
 -1       859 1.85097E-04-1.40089E-05-2.06795E-25
 -1       860 1.85077E-04-1.45022E-05 4.13590E-25
 -1       861 1.85056E-04-1.49453E-05-2.06795E-25
 -1       862 1.85036E-04-1.53592E-05 8.27181E-25
 -1       863 1.85015E-04-1.57651E-05 0.00000E+00
 -1       864 1.84994E-04-1.61840E-05 0.00000E+00
 -1       865 1.84974E-04-1.66369E-05 0.00000E+00
 -1       866 1.84953E-04-1.71450E-05 0.00000E+00
 -1       867 1.84932E-04-1.77291E-05-4.13590E-25
 -1       868 1.84911E-04-1.84102E-05-8.27181E-25
 -1       869 1.84890E-04-1.92092E-05-4.13590E-25
 -1       870 1.84869E-04-2.01469E-05-8.27181E-25
 -1       871 1.86360E-04-1.11195E-05-8.27181E-25
 -1       872 1.87690E-04-1.11272E-05 0.00000E+00
 -1       873 1.89098E-04-1.11356E-05 0.00000E+00
 -1       874 1.90517E-04-1.11448E-05 5.16988E-26
 -1       875 1.91881E-04-1.11545E-05 4.13590E-25
 -1       876 1.85639E-04-1.20042E-05 3.30872E-24
 -1       877 1.86081E-04-1.28275E-05 1.65436E-24
 -1       878 1.86501E-04-1.35929E-05 0.00000E+00
 -1       879 1.86903E-04-1.43077E-05 0.00000E+00
 -1       880 1.87289E-04-1.49791E-05-3.30872E-24
 -1       881 1.87661E-04-1.56144E-05 1.65436E-24
 -1       882 1.88022E-04-1.62209E-05 0.00000E+00
 -1       883 1.88376E-04-1.68058E-05 0.00000E+00
 -1       884 1.88724E-04-1.73764E-05-3.30872E-24
 -1       885 1.89069E-04-1.79398E-05 0.00000E+00
 -1       886 1.89415E-04-1.85034E-05 3.30872E-24
 -1       887 1.89763E-04-1.90744E-05 1.65436E-24
 -1       888 1.90116E-04-1.96600E-05-3.30872E-24
 -1       889 1.90477E-04-2.02676E-05 1.65436E-24
 -1       890 1.90848E-04-2.09044E-05-1.65436E-24
 -1       891 1.86050E-04-2.13003E-05 0.00000E+00
 -1       892 1.87231E-04-2.13568E-05 0.00000E+00
 -1       893 1.88364E-04-2.14133E-05-8.27181E-25
 -1       894 1.89424E-04-2.14695E-05 4.13590E-25
 -1       895 1.90386E-04-2.15255E-05-4.13590E-25
 -1       956 1.95071E-04 1.75302E-06-1.65436E-24
 -1       957 1.94942E-04 6.76865E-07 8.27181E-25
 -1       958 1.94812E-04-3.20792E-07 0.00000E+00
 -1       959 1.94682E-04-1.25092E-06 0.00000E+00
 -1       960 1.94552E-04-2.12453E-06 3.30872E-24
 -1       961 1.94421E-04-2.95267E-06 0.00000E+00
 -1       962 1.94291E-04-3.74640E-06 3.30872E-24
 -1       963 1.94161E-04-4.51680E-06 0.00000E+00
 -1       964 1.94031E-04-5.27493E-06-3.30872E-24
 -1       965 1.93901E-04-6.03187E-06 1.65436E-24
 -1       966 1.93771E-04-6.79870E-06 0.00000E+00
 -1       967 1.93641E-04-7.58648E-06-1.65436E-24
 -1       968 1.93511E-04-8.40628E-06 0.00000E+00
 -1       969 1.93381E-04-9.26914E-06 1.65436E-24
 -1       970 1.93252E-04-1.01861E-05 3.30872E-24
 -1       971 1.93006E-04-1.21471E-05-3.30872E-24
 -1       972 1.92887E-04-1.30328E-05 1.65436E-24
 -1       973 1.92768E-04-1.38351E-05 0.00000E+00
 -1       974 1.92649E-04-1.45648E-05 0.00000E+00
 -1       975 1.92530E-04-1.52326E-05-3.30872E-24
 -1       976 1.92410E-04-1.58492E-05 0.00000E+00
 -1       977 1.92291E-04-1.64256E-05-3.30872E-24
 -1       978 1.92172E-04-1.69724E-05-1.65436E-24
 -1       979 1.92053E-04-1.75004E-05 0.00000E+00
 -1       980 1.91934E-04-1.80205E-05 0.00000E+00
 -1       981 1.91814E-04-1.85435E-05 0.00000E+00
 -1       982 1.91695E-04-1.90802E-05 0.00000E+00
 -1       983 1.91577E-04-1.96414E-05 3.30872E-24
 -1       984 1.91458E-04-2.02379E-05 0.00000E+00
 -1       985 1.91340E-04-2.08805E-05 0.00000E+00
 -3
    1PSTEP                        34          17           1          
  100CL  117 6.53461E-01         409                     0   17           1
 -4  STRESS      6    1
 -5  SXX         1    4    1    1
 -5  SYY         1    4    2    2
 -5  SZZ         1    4    3    3
 -5  SXY         1    4    1    2
 -5  SYZ         1    4    2    3
 -5  SZX         1    4    3    1
 -1         1-4.75538E+06-1.67969E+06-1.03178E+06-1.60126E+06-1.45519E-10-2.69152E-07
 -1         2 6.14513E+05 8.42569E+06 2.31940E+06 2.77845E+06 1.87429E-08 7.60847E-08
 -1         3-1.35631E+03-1.60074E+06 4.07671E+02-2.16937E+03-6.33488E-10-1.27984E-08
 -1         5-5.98124E+01 3.77210E+05 9.74239E+00-1.14174E+00-5.22033E-10 1.71767E-08
 -1         8-7.95703E+05-2.57399E+05-9.89016E+04-3.34472E+05 3.91992E-10 1.02755E-07
 -1         9 9.59422E+06 1.32754E+06 1.96551E+06-7.20198E+05 8.44011E-09-8.18865E-08
 -1        10-2.21472E+03-1.66809E+06-3.92652E+03-1.46668E+04-1.28348E-08 1.34465E-08
 -1        12-5.59488E+01 3.77231E+05 3.19333E+02-7.85822E+00-5.58337E-10 3.03116E-08
 -1        15 1.17783E+03 6.47277E+02 3.80731E+03 1.55775E+00 1.11939E-10 6.54204E-08
 -1        16 2.00020E+07-2.08336E+05 2.77480E+06-1.73730E+06 1.49982E-08 1.74856E-07
 -1        17 7.27245E+06 5.30480E+06 1.95975E+06 5.14444E+06 2.12167E-08 4.27710E-08
 -1        18 1.26631E+05 2.92586E+04 1.03726E+03-1.15675E+05 1.40590E-08 7.70842E-09
 -1        19 1.19714E+05 1.38443E+05-9.27696E+02 2.16689E+04 1.38825E-09 1.14305E-09
 -1        20-7.85553E+04-5.61548E+05-1.25891E+05 2.55263E+04-1.28587E-09 5.95416E-09
 -1        21-4.52891E+01-2.91769E+05-9.12653E+02 2.38907E+02 1.29341E-08-2.27509E-08
 -1        24 1.19962E+07 1.02386E+07 3.35259E+06 9.51074E+06-1.54794E-07-6.29225E-08
 -1        25 9.76313E+04 1.67066E+05 7.43321E+04-5.86386E+05-2.83999E-09 7.02294E-09
 -1        26-5.39638E+04 9.00371E+04-2.41236E+04 7.11053E+02 1.52795E-11 4.59103E-09
 -1        27-7.51539E+04-3.03693E+05-1.11261E+05 6.76027E+04 4.92582E-09-3.45760E-09
 -1        28 2.19761E+04-8.39105E+04 1.66475E+04 2.06455E+04-3.62300E-09-8.02082E-10
 -1        32-1.65409E+06-3.08122E+06-1.84748E+05 3.51296E+05-4.04834E-08-1.24554E-08
 -1        33-1.75095E+05 9.07714E+04 3.16852E+04-3.80618E+04-2.63022E-09-3.31632E-09
 -1        34-2.19486E+05-2.43675E+04 6.68425E+02 7.38320E+04-5.34954E-09-1.23079E-08
 -1        35-2.26288E+04-3.32806E+04-1.32475E+03 5.07669E+04-3.02929E-09 1.00020E-08
 -1        51 5.30270E+04-2.00056E+05 1.16205E+05-5.84131E+05-1.74623E-10-6.96309E-09
 -1        52 1.88819E+04-1.80697E+05 6.22683E+04-6.83815E+05-4.72937E-10 3.70434E-07
 -1        53 4.77320E+03-1.96526E+05 3.43021E+04-5.82017E+05 1.01863E-10-1.61308E-08
 -1        54 1.03260E+04-1.92657E+05 3.19586E+04-6.85958E+05-5.09317E-10-1.44966E-07
 -1        55 2.16888E+04-2.01592E+05 4.31978E+04-5.81787E+05-1.60071E-10 1.17609E-07
 -1        56-8.84701E+06-1.03687E+06-7.68368E+05-3.50327E+06 2.91038E-11-9.86329E-08
 -1        57-9.48809E+06-1.37910E+06-5.14927E+05-3.07865E+06 5.23869E-10-5.18048E-09
 -1        58-8.93989E+06-1.33174E+06-1.79523E+05-3.51482E+06-2.80234E-08 9.31759E-08
 -1        59-9.36123E+06-1.04963E+06-1.06577E+05-3.09159E+06-5.24187E-09-6.27770E-08
 -1        60-8.97534E+06-1.35517E+06-4.24978E+04-3.49593E+06-3.97386E-08-1.09903E-08
 -1        61-9.23889E+06-1.09058E+06-2.10866E+04-3.17998E+06 4.15512E-08-2.87824E-07
 -1        62-9.05283E+06-1.29567E+06-1.52966E+04-3.42009E+06-7.46877E-09 4.87107E-08
 -1        63-9.06538E+06-1.24343E+06-5.09765E+03-3.35404E+06 3.85080E-09 2.05596E-08
 -1        64-9.14163E+06-1.20713E+06-1.45588E+04-3.31684E+06-1.45155E-08-1.61966E-07
 -1        65-8.92682E+06-1.40109E+06-1.87162E+04-3.54236E+06-2.11166E-08-1.35342E-07
 -1        66-9.19827E+06-1.13345E+06-3.81979E+04-3.23682E+06 3.93484E-08-1.65282E-07
 -1        67-8.88841E+06-1.51406E+06-9.51620E+04-3.63929E+06-2.57824E-08-2.08900E-07
 -1        68-9.18972E+06-1.08887E+06-1.60377E+05-3.22613E+06-2.00889E-08-9.65083E-08
 -1        69-9.06856E+06-1.74106E+06-4.59868E+05-3.54898E+06-1.58307E-08-3.80780E-07
 -1        70-9.01645E+06-9.16808E+05-6.86962E+05-3.32213E+06 2.11294E-08 4.49363E-08
 -1        86-6.24209E+05-8.76790E+06-1.26506E+06-1.33138E+06-1.82383E-07 1.56433E-08
 -1        87 8.98636E+05 1.45095E+06 1.05059E+06 2.93856E+06-3.20757E-07-3.26299E-08
 -1        88-1.28224E+05-2.59932E+06 8.39109E+04-1.57857E+06-2.83788E-07-2.59179E-08
 -1        89 1.21744E+06 1.32095E+06 1.05349E+06 3.01361E+06-4.04301E-07 8.49072E-08
 -1        90-9.09969E+05-8.66822E+06-1.39315E+06-1.41300E+06-9.40236E-08-5.12664E-08
 -1       121-1.86315E+03-1.60524E+06-4.55649E+02 1.07627E+03 1.45656E-09 4.67116E-09
 -1       122-1.17163E+03-1.60079E+06 7.85407E+02-4.34012E+03-5.20514E-09 1.57670E-08
 -1       123-1.88955E+03-1.60537E+06 3.81852E+02 3.21382E+03 4.13922E-09-6.45377E-09
 -1       124 4.92314E+02-1.60029E+06 3.04682E+03-9.06782E+03-1.01909E-08-3.55794E-09
 -1       125-2.73283E+03-1.60628E+06 3.70547E+03 5.76454E+03 6.40102E-09-4.48563E-09
 -1       191-6.30917E+01 3.77231E+05 8.97441E+00 5.91316E-01-4.76519E-10 6.23186E-09
 -1       192-6.07432E+01 3.77211E+05 2.07566E+01-3.73555E+00-6.00624E-10 5.26961E-09
 -1       193-6.55470E+01 3.77231E+05 3.60040E+01 3.26988E+00-9.77099E-10-1.82681E-08
 -1       194-6.37297E+01 3.77214E+05 7.88259E+01-8.50274E+00-5.08571E-10-5.68707E-09
 -1       195-7.02606E+01 3.77228E+05 1.51579E+02 5.49912E+00-1.26268E-09 1.95450E-08
 -1       251-1.92022E+06 2.29334E+04-1.45363E+05 4.86611E+04-3.71983E-09 6.97619E-08
 -1       252-1.60159E+06-2.74755E+04-3.26184E+04-1.76333E+05-1.59071E-09-2.94867E-08
 -1       253-1.80819E+06-1.66114E+03-3.62246E+04 1.56527E+05-4.54747E-11-1.65224E-07
 -1       254-1.76088E+06 1.44061E+04-8.85076E+03-2.98620E+05 1.63729E-08 8.36349E-09
 -1       255-1.77822E+06-4.55166E+03-8.08544E+03 1.71773E+05-3.85808E-09 3.79510E-07
 -1       256-1.64885E+06 1.68730E+04 2.41622E+04-2.31452E+05-1.25819E-08 1.23299E-07
 -1       257-1.90948E+06-1.29559E+04-3.09382E+04 8.87514E+04 4.44743E-09 2.07907E-07
 -1       258-1.48408E+06 1.17878E+04 5.74015E+04-1.09064E+04 1.40499E-08 2.03415E-07
 -1       259-1.92697E+06-1.26546E+04-3.25035E+04-4.87096E+04 7.10133E-09 1.07000E-07
 -1       260-1.60968E+06 1.28624E+04 3.57297E+04 2.24054E+05 5.17684E-09 2.59840E-09
 -1       261-1.79660E+06-3.54529E+03-1.32306E+03-1.45610E+05-1.12645E-08 9.52487E-08
 -1       262-1.75237E+06 1.93189E+04 1.48569E+04 3.20256E+05 3.24594E-08 4.08090E-08
 -1       263-1.79870E+06-7.20106E+03 6.87823E+03-1.45384E+05 3.97222E-09 1.35210E-07
 -1       264-1.59474E+06 4.41106E+04 6.84139E+04 2.23753E+05-4.32753E-08 2.47898E-07
 -1       265-1.93968E+06-4.02107E+04 8.99214E+03-4.86343E+04-2.14313E-08 1.13723E-08
 -1       266-2.13227E+04-9.97093E+03 5.00270E+04-3.33300E+01-1.12777E-10-6.94037E-08
 -1       267 2.47188E+04 1.16207E+04 3.53594E+04 3.84575E+01 1.50521E-10-3.09008E-07
 -1       268-3.31475E+03-1.64584E+03 1.31429E+04-4.90008E+00-1.96451E-10-5.14511E-08
 -1       269 3.91373E+03 1.96968E+03 8.54271E+03 5.70794E+00 2.33740E-10 2.17330E-07
 -1       270-5.87456E+02-3.23637E+02 4.12369E+03-7.74605E-01 6.77574E-11 1.21018E-07
 -1       271-1.83091E+06-2.25712E+05-1.34469E+05-7.05978E+05-2.65368E-08 2.13658E-07
 -1       272-1.88468E+06-3.16124E+05-8.61722E+04-6.96339E+05 4.19973E-08-3.47791E-09
 -1       273-1.85736E+06-2.57926E+05-3.19543E+04-6.98609E+05-2.89947E-08-7.06677E-09
 -1       274-1.85263E+06-2.77711E+05-1.76247E+04-7.08390E+05 4.62387E-09 2.69314E-07
 -1       275-1.86250E+06-2.59725E+05-7.60411E+03-6.95679E+05 5.52245E-09 1.48189E-07
 -1       276-1.84544E+06-2.76837E+05-3.76899E+03-7.14046E+05 2.41471E-09 3.97035E-08
 -1       277-1.86486E+06-2.58130E+05-2.04879E+03-6.93387E+05-2.41562E-08-4.14243E-08
 -1       278-1.84184E+06-2.79868E+05-1.12942E+03-7.18648E+05 1.69202E-08-1.84568E-07
 -1       279-1.86658E+06-2.56349E+05-1.28577E+03-6.91440E+05-8.31278E-10-1.08265E-07
 -1       280-1.83941E+06-2.83013E+05-1.87204E+03-7.22508E+05-2.71393E-08 1.87498E-07
 -1       281-1.86782E+06-2.54669E+05-3.52417E+03-6.89889E+05-6.67842E-09 2.13401E-07
 -1       282-1.83904E+06-2.87541E+05-8.15531E+03-7.25262E+05-3.33716E-08 1.15630E-07
 -1       283-1.86746E+06-2.51723E+05-1.45812E+04-6.88946E+05-5.17139E-09-1.20252E-07
 -1       284-1.85045E+06-3.08866E+05-3.96332E+04-7.24347E+05 7.73207E-09-2.52542E-07
 -1       285-1.85706E+06-2.35104E+05-6.16016E+04-6.90341E+05 2.80324E-08 3.19669E-08
 -1       301 8.47465E+03-5.58267E+05 1.70876E+05-9.74237E+05-8.36735E-10 3.91519E-08
 -1       302 9.56020E+03-5.14056E+05 1.03419E+05-1.42372E+06 4.46016E-09 1.18047E-07
 -1       303-9.85199E+03-5.46097E+05 6.10900E+04-9.71760E+05 3.36877E-09 2.61243E-08
 -1       304-5.04732E+03-5.18119E+05 6.61107E+04-1.42291E+06 4.91855E-09 3.05881E-08
 -1       305-9.72312E+03-5.39628E+05 8.73274E+04-9.74703E+05 3.96903E-09-1.50714E-07
 -1       306-2.78235E+07-5.68452E+06-7.79185E+06-9.84408E+05-1.06869E-07-2.18250E-07
 -1       307 2.31872E+07 2.31270E+06 5.01197E+06-1.34528E+07-7.81845E-07-2.08442E-07
 -1       308-7.55165E+06-8.18077E+05-5.31321E+05 4.73914E+06-9.18808E-08 2.09664E-07
 -1       309-3.47267E+06 7.04511E+06 1.93913E+06-1.92120E+07 5.42215E-07 2.35588E-07
 -1       310-1.14711E+07-1.43519E+06-1.59632E+06 4.64482E+06 6.00121E-08 1.00903E-07
 -1       311 3.22855E+07-1.45306E+05 6.29362E+06-8.78154E+06 4.76604E-07 5.39876E-08
 -1       312-2.90261E+07-5.89608E+06-7.48535E+06-4.20524E+06 2.39699E-07 2.94240E-08
 -1       313 4.11292E+07 1.18828E+07 9.51737E+06 2.00308E+07 1.58645E-07-1.65979E-07
 -1       314-1.69482E+07-1.53275E+07-6.76353E+06-1.15638E+07 2.00875E-07-1.40280E-08
 -1       315-1.10779E+06 2.58399E+07 5.15774E+06 1.06179E+07-5.75616E-07-1.01572E-08
 -1       316 6.47053E+05-9.35294E+06-4.95153E+05-3.22725E+06-9.38249E-07-2.63040E-07
 -1       317-1.70917E+07 2.05354E+07 1.90379E+06-6.77125E+06 5.71803E-07-7.05157E-07
 -1       318-1.20125E+06-1.12378E+07-1.64162E+06-4.39512E+06-9.29344E-07 7.31670E-08
 -1       319 5.55419E+06 2.73342E+07 6.06409E+06 1.45230E+07-5.09099E-08 1.76631E-07
 -1       320-2.07628E+07-1.54891E+07-8.70297E+06-1.15806E+07 1.66823E-07-2.80561E-08
 -1       336-4.98858E+02-1.73773E+06-1.38158E+04 8.75571E+03-2.51894E-08 2.58406E-08
 -1       337-5.33692E+03-1.73779E+06-1.79918E+04-2.12108E+04-4.64588E-08-9.37143E-09
 -1       338 4.40955E+02-1.73725E+06-2.80455E+04 1.22373E+04-3.33457E-08-7.25413E-09
 -1       339-2.97688E+04-1.75465E+06-6.34733E+04-2.80145E+04-6.05114E-08 3.33421E-09
 -1       340 1.97697E+04-1.72290E+06-9.98433E+04 1.54385E+04-3.86135E-08 2.23772E-08
 -1       406-3.41598E+01 3.77214E+05 6.27702E+02 2.75741E+00-1.88611E-09 3.16140E-09
 -1       407 1.64173E+02 3.77342E+05 1.33993E+03 2.12110E+01-4.29978E-10-1.12959E-08
 -1       408 6.31983E+02 3.77116E+05 2.67260E+03-2.43530E+01-2.28192E-09-9.38599E-09
 -1       409 2.84193E+03 3.78195E+05 6.02234E+03 2.57729E+02-3.15026E-10-2.30812E-08
 -1       410 8.26541E+03 3.76349E+05 1.22919E+04-2.48020E+02-2.52658E-09 7.45786E-11
 -1       521-2.93487E+07-6.97518E+06-9.08279E+06-6.55046E+05-5.79748E-08 2.74449E-07
 -1       522 2.39330E+07 3.04424E+06 5.08917E+06-1.66319E+07-5.82862E-07-1.01019E-07
 -1       523-8.25842E+06-1.10085E+06-5.39430E+05 5.17703E+06-7.96863E-08-2.01791E-07
 -1       524-6.69379E+06 9.63788E+06 2.09585E+06-2.21594E+07 8.00792E-07-4.31981E-07
 -1       525-1.23806E+07-1.95277E+06-1.75223E+06 5.07363E+06 3.98024E-07-7.70087E-08
 -1       526 3.50243E+07-2.00528E+05 6.60607E+06-1.12822E+07 1.99128E-07 1.00932E-07
 -1       527-3.07845E+07-7.38758E+06-8.60270E+06-4.09051E+06 9.33651E-08-5.44242E-09
 -1       528 4.48827E+07 1.30651E+07 9.91849E+06 2.26666E+07 1.08790E-07-1.70927E-07
 -1       529-1.79397E+07-1.73059E+07-7.73952E+06-1.17060E+07-1.83354E-07-2.47383E-08
 -1       530-3.41768E+06 3.00442E+07 5.44826E+06 1.04667E+07-6.24394E-07 3.92552E-07
 -1       531 5.86248E+05-1.04664E+07-4.88420E+05-3.32914E+06-1.10880E-06 7.34581E-08
 -1       532-1.99357E+07 2.27071E+07 2.08232E+06-1.03919E+07 3.22136E-07-4.72064E-07
 -1       533-1.27114E+06-1.23757E+07-1.73418E+06-4.39052E+06-8.24803E-08-9.73640E-07
 -1       534 3.57876E+06 3.16983E+07 6.30658E+06 1.50332E+07-7.76199E-08 7.46280E-07
 -1       535-2.18988E+07-1.76103E+07-9.93667E+06-1.17216E+07 7.29924E-08 4.43135E-07
 -1       536-6.81617E+05-4.59872E+04-3.74373E+04-5.12995E+04-1.97406E-09 6.10617E-08
 -1       537-7.87959E+04 4.45117E+04 8.21752E+04 1.17385E+05-1.16693E-07 9.43496E-08
 -1       538-3.93375E+05 2.64875E+03 5.06836E+03-6.89414E+04 3.95081E-08 1.07147E-07
 -1       539-2.77862E+05 2.99635E+03 2.39511E+04 1.32087E+05 1.68857E-07 1.13267E-07
 -1       540-4.87513E+05-3.48528E+02-1.90748E+04-6.64731E+04-1.26847E-08 9.53917E-08
 -1       541 1.05101E+05 1.56393E+04 9.81984E+04 9.23848E+04-7.64867E-08 8.89594E-08
 -1       542-7.66028E+05-1.85930E+04-7.75494E+04-2.84692E+04 1.23759E-08 5.12393E-08
 -1       543 3.43512E+05 2.52085E+04 1.45545E+05-1.28069E+04 1.04683E-09-2.85972E-08
 -1       544-7.19538E+05-1.52054E+04-6.88963E+04 3.81272E+04-8.34507E-09-3.60639E-08
 -1       545-4.09620E+03 8.60569E+03 7.32060E+04-1.07729E+05-8.68840E-09-6.76771E-08
 -1       546-4.27741E+05 5.73177E+03-1.13451E+04 6.61506E+04 1.61658E-08-8.03911E-08
 -1       547-2.94902E+05-4.68153E+03 9.10103E+03-1.34867E+05-1.17223E-07-9.15238E-08
 -1       548-4.36535E+05 4.60042E+03-2.28797E+04 6.58733E+04-1.09418E-07-1.17578E-07
 -1       549 1.44740E+04 1.31260E+04 5.35310E+04-1.05437E+05-7.43853E-08-7.81338E-08
 -1       550-7.28834E+05-1.89908E+04-1.22238E+05 3.60879E+04 3.99814E-09-4.81868E-08
 -1       551 3.90023E+04-7.64077E+05-1.06387E+04-1.22839E+06-9.62609E-08-8.87667E-09
 -1       552 8.87290E+04-8.05766E+05 1.29295E+04-1.75169E+06-6.77101E-08 3.24144E-08
 -1       553 6.79207E+04-8.03188E+05 3.41108E+04-1.22202E+06-1.14713E-07 2.60043E-08
 -1       554 1.26358E+05-8.19707E+05 8.35743E+04-1.75365E+06-7.16827E-08 1.47811E-08
 -1       555 9.76185E+04-8.26337E+05 1.51897E+05-1.22197E+06-1.17318E-07-1.69202E-08
 -1       556 2.12757E+05-3.67162E+05 3.31947E+04-3.95702E+05-2.10130E-08-1.60362E-08
 -1       557 3.39722E+05-4.68597E+05 1.97891E+04-5.11105E+05-2.54659E-09-8.14907E-10
 -1       558 1.96343E+05-3.62027E+05 4.23368E+03-3.98528E+05-2.22644E-08-8.86939E-09
 -1       559 3.15581E+05-4.69968E+05 3.28051E+03-5.30112E+05 2.31666E-08 2.82307E-09
 -1       560 1.82242E+05-3.53169E+05-8.92297E+02-4.08640E+05 9.28412E-09-8.00355E-10
 -1       561 2.97761E+05-4.62908E+05 3.59931E+02-5.42212E+05 9.19681E-09-9.56061E-09
 -1       562 1.71097E+05-3.46228E+05-1.08961E+03-4.16700E+05 9.90985E-09-3.75439E-09
 -1       563 2.84533E+05-4.57141E+05 2.92966E+01-5.50840E+05 3.45608E-09-2.92339E-08
 -1       564 1.63177E+05-3.41289E+05-5.07833E+02-4.22309E+05-1.45519E-09 1.66074E-09
 -1       565 2.75822E+05-4.53347E+05 4.17327E+01-5.56402E+05 1.41881E-09 3.59842E-08
 -1       566 1.58599E+05-3.38391E+05-2.23186E+02-4.25512E+05-1.57233E-08-1.73732E-08
 -1       567 2.71672E+05-4.51542E+05-3.31651E+02-5.58913E+05 1.52613E-08 1.29621E-08
 -1       568 1.57447E+05-3.37688E+05-1.04660E+03-4.26413E+05 2.45745E-09 2.18133E-08
 -1       569 2.70743E+05-4.51489E+05-2.64441E+03-5.57417E+05-1.34060E-09 1.78552E-08
 -1       570 1.60778E+05-3.40816E+05-5.79677E+03-4.25443E+05 1.21436E-08 8.88213E-09
 -1       571 2.83867E+05 1.02743E+04 1.47128E+04-9.13559E+04 2.65391E-09 1.76983E-08
 -1       572 2.86005E+05 3.84355E+03 7.21026E+03-1.00226E+05 3.88718E-09 8.45102E-09
 -1       573 2.84717E+05 1.18269E+03 3.20371E+03-9.11839E+04 3.39242E-09 1.02345E-08
 -1       574 2.84932E+05 6.69134E+02 1.60651E+03-1.00442E+05 2.67391E-09 1.27966E-08
 -1       575 2.84810E+05 3.99390E+02 7.58178E+02-9.11604E+04-2.37682E-09 1.47211E-08
 -1       576 2.84798E+05 4.06684E+02 3.88060E+02-1.00471E+05-1.15915E-08 5.94900E-09
 -1       577 2.84847E+05 3.43639E+02 1.93658E+02-9.11572E+04-1.01427E-08 7.00948E-09
 -1       578 2.84824E+05 3.71464E+02 1.11637E+02-1.00475E+05-1.03864E-08-2.57751E-08
 -1       579 2.84912E+05 3.10570E+02 7.65518E+01-9.11569E+04 2.55750E-09-1.53468E-08
 -1       580 2.84917E+05 3.25180E+02 8.83563E+01-1.00471E+05-5.52245E-09-2.81580E-09
 -1       581 2.85017E+05 2.57560E+02 1.33493E+02-9.11626E+04-2.17678E-08-1.10340E-08
 -1       582 2.85078E+05 2.93407E+02 2.70827E+02-1.00412E+05-5.52718E-08-1.68111E-08
 -1       583 2.85144E+05 3.03603E+02 5.20397E+02-9.12167E+04-2.41889E-08-2.45109E-09
 -1       584 2.85432E+05 7.27296E+02 1.17688E+03-9.99555E+04 6.80848E-09-1.51256E-08
 -1       585 2.85160E+05 1.72251E+03 2.38405E+03-9.16180E+04-3.05045E-09 2.24099E-09
 -1       586-3.35539E+03 1.12341E+05-2.98093E+03-2.45765E+05-4.50655E-09 4.50609E-09
 -1       587-1.25751E+03 1.12072E+05 6.79855E+02-2.70486E+05-6.28461E-09-7.30324E-09
 -1       588 4.50600E+02 1.11905E+05 4.59853E+03-2.45632E+05-3.34512E-09-9.91349E-10
 -1       589 5.02156E+03 1.14302E+05 1.19923E+04-2.70251E+05-7.26504E-09-3.97185E-08
 -1       590 1.62269E+04 1.10607E+05 2.51821E+04-2.46054E+05-5.49517E-09-2.65936E-09
 -1       591-7.19411E+04-1.55531E+04-2.18287E+04-3.09326E+04 4.06772E-10-1.31331E-09
 -1       592-7.58264E+04-1.90768E+04-1.18241E+04-3.45326E+04 2.21865E-09 6.65341E-09
 -1       593-7.41248E+04-1.39685E+04-4.92183E+03-3.25326E+04 1.04673E-09 9.54560E-09
 -1       594-7.28114E+04-1.58749E+04-2.45465E+03-3.46481E+04-3.13975E-09 1.67804E-08
 -1       595-7.42913E+04-1.39632E+04-1.12698E+03-3.26053E+04-1.35221E-09 1.06822E-08
 -1       596-7.26051E+04-1.57284E+04-5.72781E+02-3.46236E+04 1.03425E-08 1.20750E-08
 -1       597-7.43122E+04-1.39781E+04-3.11635E+02-3.26081E+04 5.21777E-09-4.16600E-09
 -1       598-7.25847E+04-1.57226E+04-2.50040E+02-3.46168E+04-2.22542E-09 1.39921E-08
 -1       599-7.43109E+04-1.39786E+04-3.18801E+02-3.26077E+04 4.59579E-09-4.00780E-09
 -1       600-7.26051E+04-1.57290E+04-5.91753E+02-3.46216E+04 9.71454E-10 9.18311E-09
 -1       601-7.42869E+04-1.39645E+04-1.16715E+03-3.26043E+04 1.97383E-09-2.37605E-09
 -1       602-7.28188E+04-1.58796E+04-2.54355E+03-3.46432E+04-4.35921E-09-4.88353E-09
 -1       603-7.41117E+04-1.39728E+04-5.10081E+03-3.25297E+04-1.87561E-09 4.08181E-09
 -1       604-7.59604E+04-1.91790E+04-1.22533E+04-3.44994E+04 4.06681E-09 2.37642E-08
 -1       605-7.18292E+04-1.56322E+04-2.26212E+04-3.08904E+04 2.78902E-09 2.46855E-08
 -1       606 2.68370E+04-1.39659E+04-2.50408E+04 2.43068E+04 5.95173E-09-1.12157E-08
 -1       607 2.25579E+04-4.55864E+03-1.24702E+04 2.73124E+04 5.30235E-10-5.73345E-09
 -1       608 2.49957E+04-8.19974E+02-5.58261E+03 2.41332E+04-1.96633E-09-1.11236E-08
 -1       609 2.45273E+04-2.77769E+02-2.82014E+03 2.75289E+04 1.67438E-09-1.10319E-08
 -1       610 2.47863E+04-3.61761E+01-1.34563E+03 2.41127E+04 2.28556E-09-6.60134E-09
 -1       611 2.47118E+04-3.52992E+01-6.78451E+02 2.75523E+04 5.01313E-09 1.32691E-08
 -1       612 2.47393E+04-2.21580E+01-3.22635E+02 2.41106E+04 3.87990E-09 2.79931E-08
 -1       613 2.47220E+04-3.07049E+01-1.44645E+02 2.75550E+04 3.99450E-09-1.77872E-08
 -1       614 2.47169E+04-2.78822E+01-3.41371E+01 2.41099E+04-1.57161E-09 1.11461E-08
 -1       615 2.47160E+04-2.87803E+01 6.01422E+01 2.75555E+04-5.20959E-09 2.11739E-08
 -1       616 2.46993E+04-2.44474E+01 1.80782E+02 2.41102E+04 2.71029E-10 4.83828E-09
 -1       617 2.47371E+04 1.01293E+01 4.12659E+02 2.75550E+04 3.22621E-09 2.09343E-09
 -1       618 2.46630E+04 9.48096E+01 8.31837E+02 2.41105E+04 3.47063E-09 3.86922E-09
 -1       619 2.50304E+04 6.53548E+02 1.86800E+03 2.75544E+04 1.69803E-09 3.57295E-09
 -1       620 2.43865E+04 2.06753E+03 3.75464E+03 2.41117E+04 1.71212E-10 3.70983E-09
 -1       621 4.80040E+02 2.94128E+05 3.73344E+03 3.82797E+04 8.94033E-10 8.71933E-09
 -1       622 6.30722E+02 2.94997E+05 3.32655E+03 5.55835E+04 9.72250E-10 2.26719E-08
 -1       623 1.23455E+02 2.94319E+05 4.01568E+03 3.81058E+04 1.18393E-09 2.07292E-08
 -1       624 2.04139E+03 2.96193E+05 7.79916E+03 5.57551E+04 1.28864E-09 1.33307E-08
 -1       625 2.00165E+03 2.92773E+05 1.36359E+04 3.81027E+04 1.09367E-09 1.67388E-08
 -1       626 2.55052E+05 6.06559E+04 5.05984E+03 1.24679E+05 2.61207E-09 1.34896E-08
 -1       627 2.52725E+05 6.20734E+04 2.43829E+03 1.28942E+05 8.70386E-10-1.47138E-08
 -1       628 2.55181E+05 5.83376E+04 1.03113E+03 1.25535E+05 3.45062E-09 3.11750E-08
 -1       629 2.52092E+05 6.14056E+04 5.04701E+02 1.29183E+05-8.39464E-10 1.38603E-08
 -1       630 2.55195E+05 5.82259E+04 2.34121E+02 1.25570E+05-8.66521E-09-7.53482E-09
 -1       631 2.52025E+05 6.13806E+04 1.26000E+02 1.29185E+05-8.14225E-10-1.48279E-08
 -1       632 2.55191E+05 5.82301E+04 8.29377E+01 1.25566E+05-4.11046E-09-2.19627E-08
 -1       633 2.52016E+05 6.13828E+04 9.24213E+01 1.29181E+05-6.18434E-09-1.02966E-08
 -1       634 2.55186E+05 5.82277E+04 1.49383E+02 1.25565E+05-2.27822E-08-1.32025E-08
 -1       635 2.52030E+05 6.13813E+04 3.02295E+02 1.29186E+05-1.37993E-08 4.89899E-09
 -1       636 2.55176E+05 5.82223E+04 6.10494E+02 1.25564E+05-9.39417E-09 2.72985E-09
 -1       637 2.52162E+05 6.14764E+04 1.34228E+03 1.29185E+05-1.06320E-08 3.17323E-09
 -1       638 2.55129E+05 5.85189E+04 2.75792E+03 1.25430E+05-6.41467E-09-1.86337E-08
 -1       639 2.53610E+05 6.34912E+04 6.52529E+03 1.28758E+05 5.79348E-09 1.19683E-08
 -1       640 2.54929E+05 6.45347E+04 1.35411E+04 1.22894E+05 4.37512E-09 5.22277E-09
 -1       656 6.52776E+04-1.66958E+06-1.57576E+05-2.30716E+03 3.56522E-10 1.10151E-08
 -1       657-8.63513E+04-1.74078E+06-1.30531E+05 5.46309E+03-4.92946E-10 5.77134E-09
 -1       658 2.08035E+04-1.68980E+06-8.03771E+04-4.32847E+03-4.79758E-11 1.37413E-08
 -1       659-9.33380E+04-1.74410E+06-1.39713E+05 7.12067E+03-1.47884E-09 3.51099E-09
 -1       660 7.22486E+04-1.66627E+06-1.73361E+05-3.96472E+03-1.51340E-09-7.35437E-09
 -1       661 1.59792E+05 1.67779E+04 1.67233E+04 6.24680E+04-1.86947E-09 2.97496E-09
 -1       662 1.69197E+05 2.92113E+04 1.12702E+04 5.87729E+04 1.95655E-09-1.64323E-09
 -1       663 1.63077E+05 2.21432E+04 3.94166E+03 6.15149E+04-4.64865E-10 1.54273E-09
 -1       664 1.65389E+05 2.29368E+04 2.35783E+03 5.99368E+04 2.80943E-09-1.66623E-08
 -1       665 1.63575E+05 2.28763E+04 9.30150E+02 6.13698E+04-4.14389E-11-8.73462E-09
 -1       666 1.64800E+05 2.20983E+04 5.44321E+02 6.01259E+04 5.81872E-09 1.34028E-09
 -1       667 1.63662E+05 2.29598E+04 2.89147E+02 6.13337E+04-9.93850E-10 1.48135E-09
 -1       668 1.64704E+05 2.20379E+04 2.94686E+02 6.01785E+04-5.24096E-09-2.28266E-09
 -1       669 1.63670E+05 2.29349E+04 3.99015E+02 6.13176E+04-1.48884E-09 1.01091E-08
 -1       670 1.64801E+05 2.22544E+04 8.68913E+02 6.01813E+04-9.31121E-09-8.94086E-09
 -1       671 1.63565E+05 2.27478E+04 1.54284E+03 6.13288E+04 2.52650E-09-1.27247E-08
 -1       672 1.65700E+05 2.37554E+04 3.94732E+03 5.99636E+04 6.66499E-09 1.87551E-08
 -1       673 1.62775E+05 2.14718E+04 6.61509E+03 6.15208E+04 2.22531E-09 8.69341E-09
 -1       674 1.71996E+05 3.43831E+04 1.89177E+04 5.81137E+04-2.84808E-09-6.05723E-09
 -1       675 1.57309E+05 1.24178E+04 2.80806E+04 6.30670E+04-7.67614E-10 1.82808E-09
 -1       676 2.37882E+01-2.91693E+05-1.09999E+03-1.19457E+02 9.45391E-10-2.52492E-09
 -1       677-2.91237E+02-2.91959E+05-2.01316E+03 2.38726E+02 8.61056E-09-1.09213E-09
 -1       678 1.95128E+02-2.91503E+05-3.55877E+03-1.19190E+02 2.44336E-09 4.01300E-09
 -1       679-3.55907E+03-2.94107E+05-8.45415E+03 2.37710E+02 8.55437E-09 8.23895E-09
 -1       680 2.12478E+03-2.89546E+05-1.36252E+04-1.17121E+02 1.59707E-09 1.15166E-09
 -1       771-3.02700E+06-7.25512E+05-1.53984E+05-1.43927E+06-3.49246E-08-3.17814E-08
 -1       772-2.95352E+06-8.10718E+05-7.94648E+04-1.53767E+06-2.44472E-08 8.20728E-09
 -1       773-3.05630E+06-7.02618E+05-4.03399E+04-1.45240E+06-7.36327E-09 9.86620E-09
 -1       774-2.94418E+06-7.93692E+05-1.80325E+04-1.56150E+06 3.57832E-08-5.44969E-09
 -1       775-3.07141E+06-6.91991E+05-1.33746E+04-1.45870E+06-1.07684E-09 6.98492E-10
 -1       776-2.95525E+06-7.91048E+05-5.01973E+03-1.57939E+06-1.44792E-08 3.39060E-09
 -1       777-3.08447E+06-6.82545E+05-5.86796E+03-1.46426E+06 2.53203E-09-1.64437E-09
 -1       778-2.96683E+06-7.88606E+05-1.66495E+03-1.59474E+06 7.27596E-10 3.71074E-09
 -1       779-3.09568E+06-6.74311E+05-2.91929E+03-1.46901E+06-1.38971E-08-1.22782E-08
 -1       780-2.97702E+06-7.86274E+05-4.85000E+02-1.60725E+06-3.77622E-09-9.04038E-10
 -1       781-3.10457E+06-6.67683E+05-1.12982E+03-1.47272E+06-2.72266E-08 1.24055E-09
 -1       782-2.98487E+06-7.84288E+05 4.10866E+02-1.61647E+06-3.55940E-08-5.07271E-09
 -1       783-3.11082E+06-6.63085E+05 6.42008E+02-1.47533E+06-4.59113E-09-1.58502E-08
 -1       784-2.98920E+06-7.82268E+05 2.64755E+03-1.62216E+06-1.94450E-08-8.51287E-10
 -1       785-3.11452E+06-6.60346E+05 4.67468E+03-1.47699E+06-3.69510E-08 8.72751E-09
 -1       786 1.24351E+05-9.70750E+03 2.24590E+04-3.00952E+02 2.49192E-09 9.92350E-09
 -1       787 1.34092E+05 1.12390E+04 1.58889E+04-1.17683E+02 3.37441E-09 2.89062E-08
 -1       788 1.28107E+05-1.52126E+03 5.81073E+03-2.66805E+02 3.10055E-09 1.14239E-08
 -1       789 1.29716E+05 1.76069E+03 3.64789E+03-1.70267E+02 1.42423E-09-1.28903E-08
 -1       790 1.28727E+05-2.36935E+02 1.47726E+03-2.48384E+02-4.25979E-09-1.98374E-08
 -1       791 1.28991E+05 2.74068E+02 8.53800E+02-2.01840E+02-6.93468E-09-5.00803E-09
 -1       792 1.28832E+05-3.57568E+01 3.62942E+02-2.35234E+02-4.57903E-09 1.71386E-09
 -1       793 1.28866E+05 3.82013E+01 1.83426E+02-2.26586E+02 1.45093E-09-5.51804E-09
 -1       794 1.28852E+05-1.21720E+00 5.26755E+01-2.23638E+02 4.29810E-09-5.26706E-09
 -1       795 1.28831E+05-2.30914E+01-4.40375E+01-2.50791E+02-3.71268E-09 6.29541E-09
 -1       796 1.28867E+05 2.55019E+01-1.38685E+02-2.11029E+02 3.63371E-09-2.63710E-09
 -1       797 1.28748E+05-1.91182E+02-3.87129E+02-2.79744E+02 4.55295E-09-1.24670E-08
 -1       798 1.28935E+05 1.66747E+02-6.30473E+02-1.94684E+02 2.05276E-09-4.46437E-09
 -1       799 1.28269E+05-1.22931E+03-1.73605E+03-3.20103E+02 5.19324E-09-1.52202E-08
 -1       800 1.29346E+05 1.06278E+03-2.45731E+03-1.70672E+02 7.98653E-10 2.07012E-09
 -1       801-1.35390E+05-9.34695E+06-1.28384E+06 1.25865E+06 8.82137E-08-5.32600E-08
 -1       802 6.37135E+05 4.93281E+06 1.92584E+06-1.53644E+06 2.45927E-07-2.88419E-08
 -1       803-4.77714E+05-1.31087E+07-1.69266E+06 7.99425E+05 7.41420E-08 2.20007E-08
 -1       804 2.48208E+05 1.71342E+06 1.35750E+06 6.26595E+05-1.11966E-07-9.49266E-08
 -1       805 1.76260E+05-6.14243E+06-2.57262E+05-8.99248E+05-4.67626E-08-6.33900E-08
 -1       806-3.02759E+05-5.84434E+04-2.23594E+04-1.19825E+05-1.52659E-09-1.29671E-08
 -1       807-3.04540E+05-5.47721E+04-1.09849E+04-1.25225E+05 1.01886E-09 1.52434E-08
 -1       808-3.03371E+05-5.03873E+04-4.66017E+03-1.23637E+05-1.09053E-08-7.26857E-09
 -1       809-3.02231E+05-5.16847E+04-2.27871E+03-1.25493E+05-9.26593E-09 9.82254E-11
 -1       810-3.03464E+05-5.01068E+04-1.04445E+03-1.23806E+05 8.97307E-09-1.67506E-09
 -1       811-3.02053E+05-5.15605E+04-5.19414E+02-1.25459E+05 1.18112E-08-1.17980E-08
 -1       812-3.03478E+05-5.01308E+04-2.62729E+02-1.23805E+05-1.11477E-08-1.49794E-09
 -1       813-3.02028E+05-5.15626E+04-1.70824E+02-1.25441E+05-1.26606E-08 2.05773E-10
 -1       814-3.03471E+05-5.01401E+04-1.69385E+02-1.23801E+05-2.27828E-09 1.00699E-08
 -1       815-3.02032E+05-5.15647E+04-2.73047E+02-1.25434E+05 7.80437E-09 1.32629E-08
 -1       816-3.03451E+05-5.01391E+04-5.17552E+02-1.23798E+05 9.35233E-09 1.79871E-08
 -1       817-3.02120E+05-5.16140E+04-1.11084E+03-1.25423E+05 3.90582E-09 2.36453E-08
 -1       818-3.03384E+05-5.02956E+04-2.26569E+03-1.23724E+05 4.58658E-09 2.68028E-09
 -1       819-3.03361E+05-5.29830E+04-5.33112E+03-1.25130E+05-2.14186E-09-1.72611E-08
 -1       820-3.02958E+05-5.43220E+04-1.08507E+04-1.22003E+05 4.48017E-09 1.30931E-08
 -1       821-3.73202E+05 2.05574E+04-4.77275E+04 1.78053E+03 1.22561E-08 8.57472E-09
 -1       822-3.93113E+05-2.38076E+04-3.36389E+04-3.58145E+03 2.74490E-09-1.20140E-08
 -1       823-3.80790E+05 3.23384E+03-1.23394E+04 2.73310E+03-9.38134E-09 3.73575E-09
 -1       824-3.84050E+05-3.73295E+03-7.73869E+03-4.15763E+03 1.30851E-09 1.54770E-08
 -1       825-3.82266E+05 5.02342E+02-3.22227E+03 2.35678E+03 1.56852E-08-1.07127E-08
 -1       826-3.81957E+05-5.70885E+02-1.78944E+03-2.28824E+03 1.90839E-08-7.14152E-10
 -1       827-3.82866E+05 6.19838E+01-1.10845E+03 8.63622E+02 9.23018E-09-2.93304E-09
 -1       828-3.81472E+05-1.50386E+02-6.92640E+02 1.00114E+03-2.82488E-09-1.77946E-09
 -1       829-3.82745E+05 7.63881E+01-1.10581E+03-9.32638E+02 2.53709E-09-9.22086E-10
 -1       830-3.82225E+05-6.15836E+02-1.90922E+03 3.91179E+03 1.88393E-09-9.79347E-09
 -1       831-3.82127E+05 5.38565E+02-3.31200E+03-2.04705E+03-4.95957E-09-6.82485E-09
 -1       832-3.84135E+05-3.89113E+03-8.03862E+03 4.84950E+03-3.83268E-09-2.13731E-09
 -1       833-3.80845E+05 3.35633E+03-1.28310E+04-1.87038E+03-1.98352E-09-9.71886E-09
 -1       834-3.93263E+05-2.47132E+04-3.48694E+04 3.27283E+03-2.70160E-09-9.18135E-10
 -1       835-3.72990E+05 2.13342E+04-4.95738E+04-4.70332E+02 4.90289E-09-2.18788E-08
 -1       836-1.37450E+03 3.61565E+05 2.23408E+04-1.61960E+04-6.52290E-09 5.45515E-09
 -1       837 4.77131E+03 3.68558E+05 1.89199E+04-3.30281E+04-7.09156E-09 4.72185E-08
 -1       838-5.41288E+02 3.63524E+05 1.92986E+04-1.61252E+04-5.62477E-09 8.65975E-09
 -1       839 1.21626E+04 3.74063E+05 3.65284E+04-3.30792E+04-5.89625E-09-2.37156E-09
 -1       840-3.75419E+03 3.56002E+05 5.82585E+04-1.61499E+04-5.56975E-09-1.15122E-08
 -1       856-5.47611E+04 7.99235E+03-2.10616E+04-3.98362E+02 5.43650E-09-6.00994E-09
 -1       857-6.34401E+04-9.38910E+03-1.44988E+04 5.55400E+03 3.53180E-09-1.28350E-08
 -1       858-5.81974E+04 1.12075E+03-5.46507E+03-4.22358E+02 3.54447E-09 7.55836E-09
 -1       859-5.94964E+04-1.31697E+03-3.29810E+03 5.58993E+03-4.84215E-09-3.10047E-09
 -1       860-5.87108E+04 1.56858E+02-1.38254E+03-4.34059E+02-1.11726E-10 8.36735E-11
 -1       861-5.89058E+04-1.85797E+02-7.61199E+02 5.60589E+03 4.10454E-09-2.41585E-10
 -1       862-5.87911E+04 2.11916E+01-3.17697E+02-4.38296E+02-7.96355E-10 1.15343E-08
 -1       863-5.88076E+04-2.05899E+01-1.18626E+02 5.60831E+03-5.16326E-09 7.93196E-09
 -1       864-5.88095E+04-4.60065E+00 4.04880E+01-4.36479E+02-4.92548E-10 9.97417E-09
 -1       865-5.87539E+04 5.76407E+01 2.39698E+02 5.59805E+03-1.79540E-09 3.77735E-09
 -1       866-5.88427E+04-5.70934E+01 4.86407E+02-4.28040E+02 6.44604E-11-2.24972E-08
 -1       867-5.85242E+04 4.71868E+02 1.19941E+03 5.57512E+03 3.21597E-09-2.39710E-08
 -1       868-5.90344E+04-4.11455E+02 1.99356E+03-4.13545E+02-2.42767E-09 3.99018E-09
 -1       869-5.70620E+04 3.42435E+03 5.30902E+03 5.53725E+03 6.85588E-10 1.12379E-08
 -1       870-6.02973E+04-2.92953E+03 7.70443E+03-3.90089E+02-5.92877E-09 3.69073E-09
 -1       871-5.43382E+03-2.02536E+04-1.90451E+04 1.27359E+05-3.97085E-09 6.24004E-09
 -1       872-1.99033E+03-2.46685E+04-7.96165E+03 1.65138E+05-9.64974E-09 7.20593E-09
 -1       873 3.55915E+02-2.25397E+04 6.09076E+02 1.27079E+05-4.05043E-09-7.40533E-09
 -1       874 3.19618E+03-2.01552E+04 9.63252E+03 1.65169E+05-1.03764E-08-1.31402E-08
 -1       875 6.69303E+03-2.48342E+04 2.17048E+04 1.27313E+05-5.57884E-09-1.85437E-08
 -1       876 2.88456E+05 4.86858E+04 1.48561E+04 1.15840E+05 1.08594E-09-3.50974E-09
 -1       877 2.89431E+05 5.18218E+04 7.93373E+03 1.20109E+05 6.71389E-09 1.29869E-08
 -1       878 2.89846E+05 4.70403E+04 3.32384E+03 1.17058E+05-5.32009E-09 5.00108E-09
 -1       879 2.87412E+05 4.98066E+04 1.65613E+03 1.20209E+05 2.78305E-09-5.26632E-09
 -1       880 2.89945E+05 4.70233E+04 7.71389E+02 1.17107E+05-4.47812E-09-4.95868E-09
 -1       881 2.87278E+05 4.97204E+04 4.11904E+02 1.20186E+05-4.27553E-09 3.33449E-09
 -1       882 2.89954E+05 4.70363E+04 2.63462E+02 1.17109E+05 7.80574E-10 1.60389E-08
 -1       883 2.87268E+05 4.97160E+04 2.83152E+02 1.20179E+05 8.51628E-10 1.64704E-08
 -1       884 2.89948E+05 4.70335E+04 4.50355E+02 1.17109E+05 8.42078E-10 2.21121E-10
 -1       885 2.87304E+05 4.97222E+04 9.05418E+02 1.20190E+05-4.85377E-09-2.42161E-08
 -1       886 2.89912E+05 4.70071E+04 1.82481E+03 1.17106E+05-7.20995E-09-1.21124E-08
 -1       887 2.87625E+05 4.99325E+04 3.98604E+03 1.20236E+05 3.19113E-09-1.25497E-08
 -1       888 2.89661E+05 4.70514E+04 8.03198E+03 1.16978E+05-4.42051E-09-3.43016E-09
 -1       889 2.92406E+05 5.49050E+04 1.91869E+04 1.20089E+05-7.92312E-09-3.64707E-09
 -1       890 2.86383E+05 5.09449E+04 3.59366E+04 1.13920E+05 9.27685E-11 1.52613E-09
 -1       891-9.50920E+01-1.60065E+05-1.95970E+03 2.69278E+04-6.75300E-10 9.54037E-09
 -1       892-1.83432E+02-1.60579E+05-2.10587E+03 4.08778E+04 8.43556E-10 1.01891E-08
 -1       893 3.54682E+01-1.60128E+05-2.98283E+03 2.69349E+04-2.01635E-09 6.82121E-10
 -1       894-1.49523E+03-1.61707E+05-6.17417E+03 4.07270E+04 2.95131E-09-1.38502E-08
 -1       895-1.18598E+03-1.58842E+05-1.08730E+04 2.70800E+04 6.91671E-10 2.88310E-09
 -1       956-3.69970E+05-5.32879E+03-1.31809E+04 2.98155E+04 5.96083E-09 1.66128E-08
 -1       957-3.72558E+05-1.87130E+03-6.76565E+03 3.58378E+04-2.57205E-09 4.94128E-09
 -1       958-3.71154E+05-2.25974E+02-3.04875E+03 2.96519E+04 4.85488E-09-7.31688E-10
 -1       959-3.71348E+05-1.21830E+02-1.55679E+03 3.60275E+04 1.67838E-08 2.91675E-08
 -1       960-3.71268E+05-3.44573E+01-7.59156E+02 2.96351E+04 9.11768E-09 1.21290E-08
 -1       961-3.71268E+05-5.07786E+01-4.02545E+02 3.60472E+04 1.03241E-08 2.78374E-09
 -1       962-3.71295E+05-3.60122E+01-2.30505E+02 2.96323E+04 6.11999E-09-7.41397E-09
 -1       963-3.71268E+05-4.68880E+01-1.85117E+02 3.60508E+04 2.28135E-09-1.59032E-08
 -1       964-3.71300E+05-3.27877E+01-2.25179E+02 2.96316E+04-1.91517E-09 4.03702E-09
 -1       965-3.71280E+05-4.39045E+01-3.89519E+02 3.60501E+04-5.38466E-09-1.05417E-08
 -1       966-3.71285E+05-2.48735E+01-7.31883E+02 2.96330E+04 2.67642E-09-6.57928E-09
 -1       967-3.71369E+05-1.05856E+02-1.50110E+03 3.60363E+04-4.60250E-09-7.37373E-09
 -1       968-3.71183E+05-2.03363E+02-2.93856E+03 2.96452E+04 3.49701E-10-1.49985E-08
 -1       969-3.72548E+05-1.78732E+03-6.52361E+03 3.58934E+04 9.63382E-09 1.99998E-09
 -1       970-3.70050E+05-5.11979E+03-1.27082E+04 2.97685E+04 1.77988E-09-5.01404E-09
 -1       971-3.39452E+05-1.70301E+03-9.20273E+03 1.51889E+04 2.85672E-09-6.90903E-10
 -1       972-3.41669E+05-1.25087E+03-5.01171E+03 2.10263E+04-5.61613E-10-7.22139E-09
 -1       973-3.40477E+05-5.68288E+01-2.24475E+03 1.50686E+04-3.96994E-09 4.66343E-09
 -1       974-3.40613E+05-7.39164E+01-1.16355E+03 2.11619E+04-8.93306E-09 6.74163E-09
 -1       975-3.40558E+05-1.25354E+01-5.81951E+02 1.50564E+04-3.23826E-09-1.10128E-09
 -1       976-3.40552E+05-2.46977E+01-3.36345E+02 2.11774E+04 1.20963E-09-1.71239E-08
 -1       977-3.40574E+05-1.18505E+01-2.45192E+02 1.50531E+04-4.18868E-09-1.05404E-08
 -1       978-3.40557E+05-1.85856E+01-2.88395E+02 2.11821E+04-4.99710E-09 4.98869E-09
 -1       979-3.40574E+05-3.53707E+00-4.64624E+02 1.50517E+04-3.06142E-09 1.02153E-08
 -1       980-3.40592E+05-1.55809E+01-8.97922E+02 2.11831E+04-7.85519E-09 2.52794E-09
 -1       981-3.40545E+05 1.89013E+01-1.73948E+03 1.50522E+04-1.33309E-09 1.21701E-08
 -1       982-3.40831E+05-1.44105E+02-3.59571E+03 2.11765E+04 2.83126E-09-3.93972E-09
 -1       983-3.40326E+05-9.24768E+01-6.98660E+03 1.50582E+04 1.26829E-09-2.26510E-09
 -1       984-3.44191E+05-3.79299E+03-1.56462E+04 2.10918E+04-1.26965E-09-1.95241E-08
 -1       985-3.37163E+05-5.20484E+03-2.87313E+04 1.51302E+04-2.90538E-09-1.27693E-09
 -3
    1PSTEP                        35          18           1          
  100CL  118 6.53504E-01         409                     0   18           1
 -4  DISP        4    1
 -5  D1          1    2    1    0
 -5  D2          1    2    2    0
 -5  D3          1    2    3    0
 -5  ALL         1    2    0    0    1ALL
 -1         1 2.38747E-03 0.00000E+00 0.00000E+00
 -1         2 1.43314E-03-5.95890E-28-2.64698E-23
 -1         3 3.28603E-04-5.06165E-28 1.32349E-23
 -1         5 1.71883E-04-1.71740E-27-1.86116E-24
 -1         8 2.37204E-03-4.82965E-07 0.00000E+00
 -1         9 2.35463E-03-9.18892E-05 0.00000E+00
 -1        10 2.98063E-04-3.47631E-06 6.61744E-24
 -1        12 1.73528E-04 7.90267E-07-5.16988E-25
 -1        15 2.35373E-03-5.24031E-07 0.00000E+00
 -1        16 2.39294E-03-9.32622E-05 0.00000E+00
 -1        17 2.03322E-04-7.85110E-06 0.00000E+00
 -1        18 1.76901E-04 3.16137E-05 0.00000E+00
 -1        19 1.78462E-04 1.57468E-06 0.00000E+00
 -1        20 1.78604E-04-7.64352E-06 0.00000E+00
 -1        21 1.77740E-04-2.06610E-05 0.00000E+00
 -1        24 3.00463E-05-1.18890E-05 0.00000E+00
 -1        25 1.86673E-04 3.18320E-05 0.00000E+00
 -1        26 1.87361E-04 2.18106E-06 0.00000E+00
 -1        27 1.85212E-04-1.11292E-05 0.00000E+00
 -1        28 1.84884E-04-2.12731E-05 0.00000E+00
 -1        32 0.00000E+00 0.00000E+00 0.00000E+00
 -1        33 1.95243E-04 2.91842E-06 0.00000E+00
 -1        34 1.93167E-04-1.11817E-05 0.00000E+00
 -1        35 1.91270E-04-2.16089E-05 0.00000E+00
 -1        51 2.38647E-03-9.46330E-08 6.61744E-24
 -1        52 2.38461E-03-1.72864E-07 0.00000E+00
 -1        53 2.38206E-03-2.48592E-07 0.00000E+00
 -1        54 2.37899E-03-3.23985E-07 0.00000E+00
 -1        55 2.37560E-03-4.00670E-07 1.13737E-24
 -1        56 2.38305E-03 1.18930E-06 0.00000E+00
 -1        57 2.37677E-03 6.85430E-06 5.29396E-23
 -1        58 2.36934E-03 1.55230E-05 1.05879E-22
 -1        59 2.36142E-03 2.54060E-05 0.00000E+00
 -1        60 2.35380E-03 3.45338E-05 0.00000E+00
 -1        61 2.34719E-03 4.09890E-05-5.29396E-23
 -1        62 2.34217E-03 4.33012E-05 1.05879E-22
 -1        63 2.33912E-03 4.03421E-05 0.00000E+00
 -1        64 2.33812E-03 3.18679E-05 0.00000E+00
 -1        65 2.33905E-03 1.80988E-05 0.00000E+00
 -1        66 2.34148E-03 1.50890E-07-1.05879E-22
 -1        67 2.34487E-03-2.05030E-05 0.00000E+00
 -1        68 2.34854E-03-4.19304E-05 0.00000E+00
 -1        69 2.35180E-03-6.21246E-05-5.29396E-23
 -1        70 2.35398E-03-7.93027E-05-5.29396E-23
 -1        86 1.49068E-03-3.35018E-06 0.00000E+00
 -1        87 1.65912E-03-1.88426E-05 0.00000E+00
 -1        88 1.88558E-03-4.49225E-05-2.64698E-23
 -1        89 2.11453E-03-7.15702E-05 1.32349E-23
 -1        90 2.28910E-03-8.80415E-05 0.00000E+00
 -1       121 3.27746E-04-5.63162E-07 0.00000E+00
 -1       122 3.25176E-04-1.12915E-06 0.00000E+00
 -1       123 3.20903E-04-1.70073E-06 0.00000E+00
 -1       124 3.14944E-04-2.28071E-06 0.00000E+00
 -1       125 3.07321E-04-2.87147E-06-1.32349E-23
 -1       191 1.71929E-04 1.31763E-07-1.24077E-24
 -1       192 1.72066E-04 2.63516E-07-5.16988E-25
 -1       193 1.72294E-04 3.95253E-07-6.20385E-25
 -1       194 1.72614E-04 5.26965E-07 1.55096E-24
 -1       195 1.73025E-04 6.58639E-07 4.13590E-25
 -1       251 2.37141E-03-6.45627E-06 0.00000E+00
 -1       252 2.37049E-03-3.03840E-05 0.00000E+00
 -1       253 2.36918E-03-6.81873E-05-1.32349E-23
 -1       254 2.36748E-03-1.15426E-04 6.61744E-24
 -1       255 2.36568E-03-1.64865E-04-1.32349E-23
 -1       256 2.36411E-03-2.09213E-04 6.61744E-24
 -1       257 2.36294E-03-2.42695E-04-2.64698E-23
 -1       258 2.36216E-03-2.59816E-04-6.61744E-24
 -1       259 2.36152E-03-2.59881E-04-2.64698E-23
 -1       260 2.36074E-03-2.42644E-04-1.32349E-23
 -1       261 2.35969E-03-2.12929E-04 0.00000E+00
 -1       262 2.35840E-03-1.75883E-04 0.00000E+00
 -1       263 2.35711E-03-1.38832E-04-2.64698E-23
 -1       264 2.35606E-03-1.09107E-04 0.00000E+00
 -1       265 2.35528E-03-9.18502E-05 0.00000E+00
 -1       266 2.36899E-03-4.96913E-07-3.30872E-24
 -1       267 2.36594E-03-5.02892E-07 8.27181E-25
 -1       268 2.36288E-03-5.09375E-07 8.27181E-25
 -1       269 2.35983E-03-5.14363E-07-2.06795E-25
 -1       270 2.35678E-03-5.19316E-07 0.00000E+00
 -1       271 2.37042E-03 1.65482E-06 1.32349E-23
 -1       272 2.36926E-03 2.49819E-06-1.32349E-23
 -1       273 2.36858E-03 2.06846E-06 0.00000E+00
 -1       274 2.36837E-03 3.88992E-07 1.32349E-23
 -1       275 2.36860E-03-2.50191E-06-2.64698E-23
 -1       276 2.36927E-03-6.55598E-06-1.32349E-23
 -1       277 2.37034E-03-1.17131E-05 0.00000E+00
 -1       278 2.37180E-03-1.79030E-05 1.32349E-23
 -1       279 2.37361E-03-2.50453E-05 0.00000E+00
 -1       280 2.37573E-03-3.30505E-05 0.00000E+00
 -1       281 2.37813E-03-4.18208E-05-2.64698E-23
 -1       282 2.38078E-03-5.12510E-05 1.32349E-23
 -1       283 2.38362E-03-6.12296E-05 0.00000E+00
 -1       284 2.38663E-03-7.16391E-05 0.00000E+00
 -1       285 2.38974E-03-8.23593E-05 0.00000E+00
 -1       301 2.36157E-03-9.21435E-05 6.61744E-24
 -1       302 2.36722E-03-9.23621E-05 0.00000E+00
 -1       303 2.37238E-03-9.25754E-05-1.32349E-23
 -1       304 2.37784E-03-9.27891E-05 0.00000E+00
 -1       305 2.38443E-03-9.30113E-05 0.00000E+00
 -1       306 2.38994E-03-2.32685E-04 1.05879E-22
 -1       307 2.45446E-03-6.19245E-04 5.29396E-23
 -1       308 2.50752E-03-1.18915E-03-1.05879E-22
 -1       309 2.54110E-03-1.85384E-03 5.29396E-23
 -1       310 2.57962E-03-2.49549E-03 0.00000E+00
 -1       311 2.64086E-03-2.99836E-03-5.29396E-23
 -1       312 2.69985E-03-3.28572E-03-1.05879E-22
 -1       313 2.70354E-03-3.31738E-03-5.29396E-23
 -1       314 2.58644E-03-3.10164E-03-1.05879E-22
 -1       315 2.30973E-03-2.69351E-03 0.00000E+00
 -1       316 1.88807E-03-2.16436E-03 0.00000E+00
 -1       317 1.37884E-03-1.58154E-03 0.00000E+00
 -1       318 8.84720E-04-1.00767E-03 0.00000E+00
 -1       319 5.03912E-04-5.08088E-04 0.00000E+00
 -1       320 2.77955E-04-1.52266E-04 1.05879E-22
 -1       336 2.86993E-04-4.14338E-06-1.32349E-23
 -1       337 2.73944E-04-4.83393E-06 0.00000E+00
 -1       338 2.58976E-04-5.54985E-06-1.32349E-23
 -1       339 2.42161E-04-6.29170E-06 0.00000E+00
 -1       340 2.23580E-04-7.06368E-06 0.00000E+00
 -1       406 1.74122E-04 9.21830E-07-2.27475E-24
 -1       407 1.74807E-04 1.05329E-06-1.03398E-25
 -1       408 1.75584E-04 1.18461E-06-3.30872E-24
 -1       409 1.76453E-04 1.31562E-06-7.49632E-25
 -1       410 1.77412E-04 1.44605E-06 3.30872E-24
 -1       521 2.42902E-03-2.43096E-04-1.05879E-22
 -1       522 2.49234E-03-6.48813E-04 0.00000E+00
 -1       523 2.54018E-03-1.24494E-03 0.00000E+00
 -1       524 2.56599E-03-1.93671E-03 0.00000E+00
 -1       525 2.59771E-03-2.60365E-03 0.00000E+00
 -1       526 2.65583E-03-3.12758E-03 0.00000E+00
 -1       527 2.71449E-03-3.42571E-03-2.11758E-22
 -1       528 2.71651E-03-3.45683E-03-1.05879E-22
 -1       529 2.58967E-03-3.22885E-03 0.00000E+00
 -1       530 2.29282E-03-2.80348E-03 0.00000E+00
 -1       531 1.84104E-03-2.25548E-03 0.00000E+00
 -1       532 1.29714E-03-1.65506E-03 0.00000E+00
 -1       533 7.68601E-04-1.06308E-03 0.00000E+00
 -1       534 3.58335E-04-5.43228E-04 0.00000E+00
 -1       535 1.13371E-04-1.68924E-04 0.00000E+00
 -1       536 2.02619E-04 2.55276E-05 0.00000E+00
 -1       537 2.00849E-04 8.33977E-05 3.30872E-24
 -1       538 1.98119E-04 1.56861E-04-3.30872E-24
 -1       539 1.94900E-04 2.36940E-04 0.00000E+00
 -1       540 1.92001E-04 3.12613E-04 0.00000E+00
 -1       541 1.90113E-04 3.72882E-04 0.00000E+00
 -1       542 1.89237E-04 4.11243E-04 0.00000E+00
 -1       543 1.89020E-04 4.21336E-04 0.00000E+00
 -1       544 1.88711E-04 4.03915E-04-3.30872E-24
 -1       545 1.87617E-04 3.59945E-04 0.00000E+00
 -1       546 1.85591E-04 2.97248E-04-3.30872E-24
 -1       547 1.82856E-04 2.23764E-04 0.00000E+00
 -1       548 1.80149E-04 1.50676E-04-3.30872E-24
 -1       549 1.78193E-04 8.91657E-05-1.65436E-24
 -1       550 1.77174E-04 4.69475E-05 0.00000E+00
 -1       551 1.79215E-04-8.39955E-06 0.00000E+00
 -1       552 1.51950E-04-9.02231E-06 0.00000E+00
 -1       553 1.22456E-04-9.70277E-06 3.30872E-24
 -1       554 9.16783E-05-1.04212E-05 0.00000E+00
 -1       555 6.05615E-05-1.11515E-05-1.32349E-23
 -1       556 1.96043E-04 1.07796E-05 0.00000E+00
 -1       557 1.90171E-04 2.58655E-05 0.00000E+00
 -1       558 1.85576E-04 3.76843E-05 0.00000E+00
 -1       559 1.82131E-04 4.65359E-05 0.00000E+00
 -1       560 1.79710E-04 5.27204E-05 0.00000E+00
 -1       561 1.78191E-04 5.65404E-05 0.00000E+00
 -1       562 1.77453E-04 5.82995E-05 0.00000E+00
 -1       563 1.77377E-04 5.83023E-05 0.00000E+00
 -1       564 1.77845E-04 5.68542E-05 0.00000E+00
 -1       565 1.78740E-04 5.42611E-05 0.00000E+00
 -1       566 1.79948E-04 5.08295E-05 0.00000E+00
 -1       567 1.81354E-04 4.68663E-05 0.00000E+00
 -1       568 1.82843E-04 4.26784E-05 8.27181E-25
 -1       569 1.84301E-04 3.85728E-05 0.00000E+00
 -1       570 1.85615E-04 3.48565E-05 0.00000E+00
 -1       571 1.76996E-04 2.96658E-05 0.00000E+00
 -1       572 1.77093E-04 2.76542E-05 4.13590E-25
 -1       573 1.77190E-04 2.55940E-05-1.65436E-24
 -1       574 1.77287E-04 2.35009E-05 8.27181E-25
 -1       575 1.77385E-04 2.13907E-05-3.30872E-24
 -1       576 1.77482E-04 1.92792E-05 0.00000E+00
 -1       577 1.77580E-04 1.71822E-05 0.00000E+00
 -1       578 1.77677E-04 1.51156E-05-6.61744E-24
 -1       579 1.77775E-04 1.30952E-05 0.00000E+00
 -1       580 1.77873E-04 1.11370E-05 0.00000E+00
 -1       581 1.77971E-04 9.25665E-06-6.61744E-24
 -1       582 1.78069E-04 7.47011E-06 0.00000E+00
 -1       583 1.78167E-04 5.79317E-06-6.61744E-24
 -1       584 1.78266E-04 4.24151E-06 0.00000E+00
 -1       585 1.78364E-04 2.83061E-06 6.61744E-24
 -1       586 1.78487E-04 3.16522E-05-1.65436E-24
 -1       587 1.80034E-04 3.16901E-05 0.00000E+00
 -1       588 1.81583E-04 3.17276E-05 8.27181E-25
 -1       589 1.83178E-04 3.17645E-05 0.00000E+00
 -1       590 1.84861E-04 3.18002E-05 0.00000E+00
 -1       591 1.77567E-04 2.97549E-05 0.00000E+00
 -1       592 1.78235E-04 2.78754E-05 0.00000E+00
 -1       593 1.78909E-04 2.59811E-05-8.27181E-25
 -1       594 1.79586E-04 2.40768E-05 4.13590E-25
 -1       595 1.80265E-04 2.21673E-05 0.00000E+00
 -1       596 1.80944E-04 2.02574E-05-4.13590E-25
 -1       597 1.81622E-04 1.83517E-05 8.27181E-25
 -1       598 1.82296E-04 1.64552E-05 0.00000E+00
 -1       599 1.82965E-04 1.45725E-05 0.00000E+00
 -1       600 1.83627E-04 1.27083E-05 4.13590E-25
 -1       601 1.84280E-04 1.08675E-05 0.00000E+00
 -1       602 1.84923E-04 9.05472E-06 0.00000E+00
 -1       603 1.85554E-04 7.27480E-06 0.00000E+00
 -1       604 1.86171E-04 5.53257E-06-2.06795E-25
 -1       605 1.86773E-04 3.83270E-06-4.13590E-25
 -1       606 1.78476E-04 5.45879E-07 0.00000E+00
 -1       607 1.78485E-04-3.95939E-07 0.00000E+00
 -1       608 1.78494E-04-1.25588E-06 3.30872E-24
 -1       609 1.78503E-04-2.03969E-06 0.00000E+00
 -1       610 1.78512E-04-2.75320E-06 0.00000E+00
 -1       611 1.78520E-04-3.40227E-06 0.00000E+00
 -1       612 1.78529E-04-3.99278E-06 0.00000E+00
 -1       613 1.78537E-04-4.53061E-06 0.00000E+00
 -1       614 1.78546E-04-5.02166E-06 0.00000E+00
 -1       615 1.78554E-04-5.47181E-06 0.00000E+00
 -1       616 1.78563E-04-5.88694E-06-1.65436E-24
 -1       617 1.78571E-04-6.27296E-06 0.00000E+00
 -1       618 1.78580E-04-6.63574E-06 0.00000E+00
 -1       619 1.78588E-04-6.98117E-06-2.06795E-25
 -1       620 1.78596E-04-7.31514E-06 0.00000E+00
 -1       621 1.79678E-04 1.67625E-06-3.30872E-24
 -1       622 1.81042E-04 1.77808E-06-8.27181E-25
 -1       623 1.82524E-04 1.87972E-06 1.65436E-24
 -1       624 1.84092E-04 1.98106E-06 0.00000E+00
 -1       625 1.85714E-04 2.08213E-06 0.00000E+00
 -1       626 1.78958E-04 5.81188E-07-3.30872E-24
 -1       627 1.79430E-04-3.47676E-07 3.30872E-24
 -1       628 1.79882E-04-1.21977E-06 0.00000E+00
 -1       629 1.80315E-04-2.04327E-06 0.00000E+00
 -1       630 1.80733E-04-2.82639E-06-3.30872E-24
 -1       631 1.81139E-04-3.57735E-06-1.65436E-24
 -1       632 1.81537E-04-4.30439E-06 3.30872E-24
 -1       633 1.81928E-04-5.01573E-06 0.00000E+00
 -1       634 1.82317E-04-5.71960E-06 0.00000E+00
 -1       635 1.82706E-04-6.42423E-06 0.00000E+00
 -1       636 1.83098E-04-7.13785E-06 0.00000E+00
 -1       637 1.83496E-04-7.86869E-06 0.00000E+00
 -1       638 1.83904E-04-8.62498E-06 0.00000E+00
 -1       639 1.84325E-04-9.41498E-06 8.27181E-25
 -1       640 1.84760E-04-1.02469E-05 0.00000E+00
 -1       656 1.79164E-04-8.21011E-06 0.00000E+00
 -1       657 1.80141E-04-8.79969E-06 0.00000E+00
 -1       658 1.81395E-04-9.38787E-06 0.00000E+00
 -1       659 1.82780E-04-9.97572E-06 0.00000E+00
 -1       660 1.84113E-04-1.05653E-05 6.61744E-24
 -1       661 1.78814E-04-8.01567E-06 0.00000E+00
 -1       662 1.79061E-04-8.47707E-06 0.00000E+00
 -1       663 1.79339E-04-9.02273E-06 0.00000E+00
 -1       664 1.79647E-04-9.64642E-06 8.27181E-25
 -1       665 1.79982E-04-1.03426E-05 0.00000E+00
 -1       666 1.80342E-04-1.11055E-05 8.27181E-25
 -1       667 1.80725E-04-1.19298E-05 1.65436E-24
 -1       668 1.81129E-04-1.28101E-05 0.00000E+00
 -1       669 1.81552E-04-1.37413E-05 1.65436E-24
 -1       670 1.81993E-04-1.47183E-05 8.27181E-25
 -1       671 1.82448E-04-1.57362E-05 1.65436E-24
 -1       672 1.82917E-04-1.67900E-05 8.27181E-25
 -1       673 1.83397E-04-1.78751E-05 0.00000E+00
 -1       674 1.83887E-04-1.89870E-05 8.27181E-25
 -1       675 1.84384E-04-2.01205E-05 0.00000E+00
 -1       676 1.78934E-04-2.07636E-05 3.30872E-24
 -1       677 1.80129E-04-2.08661E-05 1.65436E-24
 -1       678 1.81321E-04-2.09687E-05 3.30872E-24
 -1       679 1.82512E-04-2.10709E-05 0.00000E+00
 -1       680 1.83700E-04-2.11731E-05 1.65436E-24
 -1       771 1.86145E-05 1.36114E-05 0.00000E+00
 -1       772 8.98694E-06 3.45557E-05 0.00000E+00
 -1       773 1.07719E-06 5.11649E-05 5.29396E-23
 -1       774-5.23256E-06 6.36864E-05 0.00000E+00
 -1       775-1.00578E-05 7.23770E-05-5.29396E-23
 -1       776-1.35185E-05 7.75095E-05 0.00000E+00
 -1       777-1.57348E-05 7.93661E-05 0.00000E+00
 -1       778-1.68292E-05 7.82419E-05-2.64698E-23
 -1       779-1.69235E-05 7.44398E-05 0.00000E+00
 -1       780-1.61419E-05 6.82736E-05-2.64698E-23
 -1       781-1.46073E-05 6.00633E-05-5.29396E-23
 -1       782-1.24446E-05 5.01373E-05-2.64698E-23
 -1       783-9.77763E-06 3.88281E-05 5.29396E-23
 -1       784-6.73143E-06 2.64743E-05 0.00000E+00
 -1       785-3.43026E-06 1.34171E-05 0.00000E+00
 -1       786 1.86711E-04 2.97537E-05 0.00000E+00
 -1       787 1.86754E-04 2.77249E-05-4.13590E-25
 -1       788 1.86796E-04 2.57374E-05 0.00000E+00
 -1       789 1.86839E-04 2.37831E-05 0.00000E+00
 -1       790 1.86882E-04 2.18574E-05 1.65436E-24
 -1       791 1.86925E-04 1.99554E-05 0.00000E+00
 -1       792 1.86969E-04 1.80750E-05 0.00000E+00
 -1       793 1.87012E-04 1.62141E-05-8.27181E-25
 -1       794 1.87055E-04 1.43725E-05-1.65436E-24
 -1       795 1.87099E-04 1.25500E-05 0.00000E+00
 -1       796 1.87142E-04 1.07484E-05 0.00000E+00
 -1       797 1.87186E-04 8.96973E-06 0.00000E+00
 -1       798 1.87229E-04 7.21806E-06 0.00000E+00
 -1       799 1.87273E-04 5.49774E-06 0.00000E+00
 -1       800 1.87317E-04 3.81621E-06-1.65436E-24
 -1       801 1.43267E-04 2.85684E-05-2.64698E-23
 -1       802 1.19194E-05 1.79078E-05 2.64698E-23
 -1       803-1.00675E-04 9.09915E-06 0.00000E+00
 -1       804-8.99398E-05 6.31051E-06-2.64698E-23
 -1       805-2.97916E-05 2.52313E-06 5.29396E-23
 -1       806 1.87339E-04 2.96866E-05-3.30872E-24
 -1       807 1.87992E-04 2.75675E-05-1.65436E-24
 -1       808 1.88632E-04 2.54796E-05 0.00000E+00
 -1       809 1.89259E-04 2.34268E-05 0.00000E+00
 -1       810 1.89871E-04 2.14132E-05 0.00000E+00
 -1       811 1.90467E-04 1.94423E-05 1.65436E-24
 -1       812 1.91046E-04 1.75181E-05-3.30872E-24
 -1       813 1.91606E-04 1.56444E-05 0.00000E+00
 -1       814 1.92145E-04 1.38247E-05 1.65436E-24
 -1       815 1.92663E-04 1.20630E-05 1.65436E-24
 -1       816 1.93158E-04 1.03630E-05-1.65436E-24
 -1       817 1.93629E-04 8.72839E-06-1.65436E-24
 -1       818 1.94074E-04 7.16292E-06 3.30872E-24
 -1       819 1.94492E-04 5.67032E-06 8.27181E-25
 -1       820 1.94881E-04 4.25427E-06 0.00000E+00
 -1       821 1.87234E-04 1.26560E-07 1.65436E-24
 -1       822 1.87098E-04-2.80850E-06 0.00000E+00
 -1       823 1.86960E-04-6.27957E-06-3.30872E-24
 -1       824 1.86821E-04-9.93881E-06-1.65436E-24
 -1       825 1.86682E-04-1.33883E-05 0.00000E+00
 -1       826 1.86544E-04-1.62312E-05 0.00000E+00
 -1       827 1.86409E-04-1.82339E-05 3.30872E-24
 -1       828 1.86274E-04-1.91675E-05 0.00000E+00
 -1       829 1.86141E-04-1.90907E-05 0.00000E+00
 -1       830 1.86007E-04-1.80678E-05 0.00000E+00
 -1       831 1.85872E-04-1.64174E-05-3.30872E-24
 -1       832 1.85737E-04-1.44621E-05 0.00000E+00
 -1       833 1.85602E-04-1.26062E-05 0.00000E+00
 -1       834 1.85469E-04-1.12535E-05 1.65436E-24
 -1       835 1.85337E-04-1.06731E-05 0.00000E+00
 -1       836 1.88882E-04 2.30338E-06 0.00000E+00
 -1       837 1.90278E-04 2.42875E-06-1.65436E-24
 -1       838 1.91581E-04 2.55404E-06 0.00000E+00
 -1       839 1.92821E-04 2.67864E-06 0.00000E+00
 -1       840 1.94031E-04 2.80307E-06 0.00000E+00
 -1       856 1.85195E-04-1.20335E-05 8.27181E-25
 -1       857 1.85175E-04-1.28040E-05 0.00000E+00
 -1       858 1.85155E-04-1.34615E-05 0.00000E+00
 -1       859 1.85135E-04-1.40269E-05-2.06795E-25
 -1       860 1.85114E-04-1.45211E-05-4.13590E-25
 -1       861 1.85094E-04-1.49651E-05 2.06795E-25
 -1       862 1.85073E-04-1.53800E-05 0.00000E+00
 -1       863 1.85052E-04-1.57868E-05 0.00000E+00
 -1       864 1.85032E-04-1.62066E-05 0.00000E+00
 -1       865 1.85011E-04-1.66605E-05-4.13590E-25
 -1       866 1.84990E-04-1.71694E-05-8.27181E-25
 -1       867 1.84970E-04-1.77545E-05 0.00000E+00
 -1       868 1.84949E-04-1.84366E-05 0.00000E+00
 -1       869 1.84928E-04-1.92365E-05 0.00000E+00
 -1       870 1.84906E-04-2.01751E-05 8.27181E-25
 -1       871 1.86399E-04-1.11336E-05 0.00000E+00
 -1       872 1.87729E-04-1.11414E-05 0.00000E+00
 -1       873 1.89138E-04-1.11498E-05 0.00000E+00
 -1       874 1.90559E-04-1.11589E-05-1.55096E-25
 -1       875 1.91924E-04-1.11686E-05-8.27181E-25
 -1       876 1.85676E-04-1.20193E-05-6.61744E-24
 -1       877 1.86119E-04-1.28436E-05-1.65436E-24
 -1       878 1.86540E-04-1.36099E-05 0.00000E+00
 -1       879 1.86942E-04-1.43256E-05-1.65436E-24
 -1       880 1.87328E-04-1.49980E-05 0.00000E+00
 -1       881 1.87701E-04-1.56342E-05-1.65436E-24
 -1       882 1.88062E-04-1.62417E-05-3.30872E-24
 -1       883 1.88416E-04-1.68275E-05 0.00000E+00
 -1       884 1.88765E-04-1.73990E-05-3.30872E-24
 -1       885 1.89110E-04-1.79634E-05 1.65436E-24
 -1       886 1.89456E-04-1.85280E-05 3.30872E-24
 -1       887 1.89805E-04-1.90999E-05 0.00000E+00
 -1       888 1.90158E-04-1.96864E-05 3.30872E-24
 -1       889 1.90519E-04-2.02950E-05-1.65436E-24
 -1       890 1.90891E-04-2.09327E-05-1.65436E-24
 -1       891 1.86089E-04-2.13295E-05 0.00000E+00
 -1       892 1.87271E-04-2.13860E-05 0.00000E+00
 -1       893 1.88405E-04-2.14425E-05 8.27181E-25
 -1       894 1.89466E-04-2.14987E-05 0.00000E+00
 -1       895 1.90429E-04-2.15547E-05 4.13590E-25
 -1       956 1.95115E-04 1.75243E-06-1.65436E-24
 -1       957 1.94985E-04 6.75346E-07-1.65436E-24
 -1       958 1.94855E-04-3.23225E-07 0.00000E+00
 -1       959 1.94725E-04-1.25426E-06 1.65436E-24
 -1       960 1.94595E-04-2.12876E-06-3.30872E-24
 -1       961 1.94465E-04-2.95780E-06-1.65436E-24
 -1       962 1.94335E-04-3.75241E-06 0.00000E+00
 -1       963 1.94205E-04-4.52369E-06 0.00000E+00
 -1       964 1.94075E-04-5.28271E-06 0.00000E+00
 -1       965 1.93945E-04-6.04053E-06 0.00000E+00
 -1       966 1.93814E-04-6.80825E-06 0.00000E+00
 -1       967 1.93684E-04-7.59694E-06 0.00000E+00
 -1       968 1.93554E-04-8.41764E-06 3.30872E-24
 -1       969 1.93425E-04-9.28141E-06 0.00000E+00
 -1       970 1.93295E-04-1.01993E-05 0.00000E+00
 -1       971 1.93050E-04-1.21621E-05 0.00000E+00
 -1       972 1.92931E-04-1.30488E-05 1.65436E-24
 -1       973 1.92811E-04-1.38521E-05 0.00000E+00
 -1       974 1.92692E-04-1.45827E-05 0.00000E+00
 -1       975 1.92573E-04-1.52515E-05 0.00000E+00
 -1       976 1.92454E-04-1.58691E-05-1.65436E-24
 -1       977 1.92334E-04-1.64463E-05 3.30872E-24
 -1       978 1.92215E-04-1.69941E-05 0.00000E+00
 -1       979 1.92096E-04-1.75230E-05 0.00000E+00
 -1       980 1.91977E-04-1.80441E-05-1.65436E-24
 -1       981 1.91858E-04-1.85681E-05-3.30872E-24
 -1       982 1.91739E-04-1.91057E-05 1.65436E-24
 -1       983 1.91620E-04-1.96678E-05 0.00000E+00
 -1       984 1.91501E-04-2.02653E-05 1.65436E-24
 -1       985 1.91383E-04-2.09088E-05 0.00000E+00
 -3
    1PSTEP                        36          18           1          
  100CL  118 6.53504E-01         409                     0   18           1
 -4  STRESS      6    1
 -5  SXX         1    4    1    1
 -5  SYY         1    4    2    2
 -5  SZZ         1    4    3    3
 -5  SXY         1    4    1    2
 -5  SYZ         1    4    2    3
 -5  SZX         1    4    3    1
 -1         1-4.75845E+06-1.67932E+06-1.03224E+06-1.60030E+06 1.32422E-09 3.04193E-07
 -1         2 6.26064E+05 8.62004E+06 2.35944E+06 2.82682E+06 1.90630E-08 1.50241E-07
 -1         3-1.35696E+03-1.60008E+06 4.07576E+02-2.16899E+03-5.60831E-10 1.16488E-08
 -1         5-5.98997E+01 3.77258E+05 9.74360E+00-1.14286E+00-3.96096E-10 3.43280E-08
 -1         8-8.01161E+05-2.58900E+05-1.00311E+05-3.33020E+05 3.80169E-10 2.44199E-07
 -1         9 9.60620E+06 1.36458E+06 1.97440E+06-7.12577E+05 1.23866E-08 9.63919E-08
 -1        10-2.21499E+03-1.66740E+06-3.92557E+03-1.46643E+04-1.23491E-08-2.19645E-08
 -1        12-5.60359E+01 3.77279E+05 3.19378E+02-7.86551E+00-5.57179E-10-8.39736E-09
 -1        15 1.17709E+03 6.46875E+02 3.80494E+03 1.55402E+00-4.57163E-11 4.68587E-07
 -1        16 2.00180E+07-2.09690E+05 2.77655E+06-1.74075E+06 1.66086E-08-1.16415E-08
 -1        17 7.27991E+06 5.31076E+06 1.96172E+06 5.14963E+06 1.82714E-08 2.11876E-08
 -1        18 1.26719E+05 2.92826E+04 1.05495E+03-1.15696E+05 1.57102E-08 2.12231E-09
 -1        19 1.19728E+05 1.38460E+05-9.27800E+02 2.16704E+04 1.58707E-09-4.52674E-09
 -1        20-7.85752E+04-5.61611E+05-1.25906E+05 2.55230E+04-1.57100E-09 1.34332E-08
 -1        21-4.52899E+01-2.91788E+05-9.12701E+02 2.39118E+02 1.43985E-08-2.18568E-08
 -1        24 1.20094E+07 1.02491E+07 3.35588E+06 9.52028E+06-1.61458E-07-5.49092E-08
 -1        25 9.77876E+04 1.67649E+05 7.44804E+04-5.86734E+05-7.27505E-10 9.52386E-09
 -1        26-5.39746E+04 9.00480E+04-2.41269E+04 7.15374E+02 1.78625E-10 1.35036E-08
 -1        27-7.51557E+04-3.03725E+05-1.11272E+05 6.76096E+04 4.05362E-09 2.27374E-09
 -1        28 2.19772E+04-8.39175E+04 1.66487E+04 2.06446E+04-4.61154E-09 1.04618E-09
 -1        32-1.65422E+06-3.08179E+06-1.84827E+05 3.51939E+05-4.05562E-08-1.23047E-08
 -1        33-1.75113E+05 9.07831E+04 3.16888E+04-3.80628E+04-2.32815E-09 1.59356E-08
 -1        34-2.19507E+05-2.43711E+04 6.68547E+02 7.38417E+04-4.93689E-09-3.47609E-09
 -1        35-2.26301E+04-3.32834E+04-1.32487E+03 5.07702E+04-5.48965E-11 1.26408E-08
 -1        51 5.30575E+04-1.99934E+05 1.16261E+05-5.83596E+05 7.27596E-11 1.49812E-08
 -1        52 1.88891E+04-1.80560E+05 6.22939E+04-6.83189E+05-6.25732E-10-1.49914E-07
 -1        53 4.77085E+03-1.96386E+05 3.43100E+04-5.81484E+05 7.27596E-11-2.13113E-07
 -1        54 1.03148E+04-1.92513E+05 3.19535E+04-6.85330E+05 4.00178E-10-7.08969E-08
 -1        55 2.16698E+04-2.01442E+05 4.31784E+04-5.81255E+05-3.56522E-10 6.00703E-08
 -1        56-8.85061E+06-1.03753E+06-7.68721E+05-3.50501E+06-1.10595E-09 2.47965E-08
 -1        57-9.49415E+06-1.37774E+06-5.15161E+05-3.07780E+06 7.10133E-09 5.77493E-08
 -1        58-8.94364E+06-1.33238E+06-1.79593E+05-3.51642E+06-1.57634E-08 1.05938E-08
 -1        59-9.36655E+06-1.04873E+06-1.06615E+05-3.09137E+06 1.99507E-08 7.23339E-08
 -1        60-8.97964E+06-1.35540E+06-4.25421E+04-3.49702E+06-2.06819E-08-6.14236E-08
 -1        61-9.24288E+06-1.09075E+06-2.10576E+04-3.18086E+06 2.19916E-08-9.60790E-08
 -1        62-9.05777E+06-1.29534E+06-1.53513E+04-3.42050E+06-2.11548E-08 8.12724E-09
 -1        63-9.06843E+06-1.24456E+06-5.06634E+03-3.35613E+06 2.82889E-08 4.70482E-09
 -1        64-9.14688E+06-1.20638E+06-1.45816E+04-3.31673E+06 2.73576E-09-6.23813E-08
 -1        65-8.92977E+06-1.40257E+06-1.87227E+04-3.54512E+06-1.60726E-08-2.32369E-07
 -1        66-9.20345E+06-1.13267E+06-3.82021E+04-3.23666E+06 9.40418E-09-1.02591E-08
 -1        67-8.89181E+06-1.51515E+06-9.52118E+04-3.64163E+06-1.39844E-08 2.26319E-08
 -1        68-9.19454E+06-1.08849E+06-1.60472E+05-3.22645E+06-8.13998E-09-4.88944E-09
 -1        69-9.07276E+06-1.74132E+06-4.60081E+05-3.54995E+06-4.28554E-09-4.34593E-08
 -1        70-9.02070E+06-9.16959E+05-6.87379E+05-3.32324E+06 1.42536E-08 8.75443E-08
 -1        86-6.35984E+05-8.86818E+06-1.28691E+06-1.35401E+06-1.86825E-07-4.89235E-08
 -1        87 9.17059E+05 1.52315E+06 1.06886E+06 2.97811E+06-3.17432E-07 3.12939E-08
 -1        88-1.31557E+05-2.59241E+06 8.57407E+04-1.59484E+06-2.76947E-07 3.58250E-08
 -1        89 1.24201E+06 1.39296E+06 1.07273E+06 3.05409E+06-3.84205E-07-2.29291E-07
 -1        90-9.27456E+05-8.76865E+06-1.41677E+06-1.43669E+06-8.34225E-08-1.28595E-07
 -1       121-1.86400E+03-1.60458E+06-4.56197E+02 1.07608E+03 1.40854E-09 4.30373E-09
 -1       122-1.17232E+03-1.60013E+06 7.85134E+02-4.33939E+03-5.15996E-09 1.13941E-08
 -1       123-1.89036E+03-1.60471E+06 3.80918E+02 3.21325E+03 4.10660E-09 1.11322E-09
 -1       124 4.91014E+02-1.59963E+06 3.04549E+03-9.06651E+03-9.93668E-09-7.44330E-09
 -1       125-2.73323E+03-1.60563E+06 3.70297E+03 5.76373E+03 6.48652E-09 6.54109E-09
 -1       191-6.31834E+01 3.77278E+05 8.97148E+00 5.91921E-01-5.15940E-10 6.47378E-09
 -1       192-6.08307E+01 3.77258E+05 2.07594E+01-3.73880E+00-7.86518E-10-2.89574E-08
 -1       193-6.56391E+01 3.77278E+05 3.60049E+01 3.27281E+00-9.15433E-10-2.20098E-09
 -1       194-6.38178E+01 3.77262E+05 7.88369E+01-8.51002E+00-3.17467E-10-2.86309E-09
 -1       195-7.03535E+01 3.77276E+05 1.51596E+02 5.50403E+00-1.31518E-09-2.02235E-08
 -1       251-1.91531E+06 2.45459E+04-1.43560E+05 4.62462E+04 5.29690E-09 4.64061E-08
 -1       252-1.61766E+06-2.93159E+04-3.53533E+04-1.68316E+05-5.88898E-09 2.05695E-07
 -1       253-1.81192E+06-1.19507E+03-3.60256E+04 1.51555E+05 1.67965E-08 5.18594E-08
 -1       254-1.76679E+06 1.30745E+04-9.36484E+03-2.88483E+05 2.07785E-09-2.52106E-07
 -1       255-1.78248E+06-4.22581E+03-7.92831E+03 1.67167E+05-1.08325E-08 9.12255E-08
 -1       256-1.66340E+06 1.58790E+04 2.21302E+04-2.24497E+05-1.34496E-08 1.22068E-07
 -1       257-1.90544E+06-1.21431E+04-2.89589E+04 8.70219E+04 3.64707E-09 1.56978E-08
 -1       258-1.50787E+06 1.10653E+04 5.36850E+04-1.12435E+04-1.62336E-08 1.52998E-07
 -1       259-1.92291E+06-1.18678E+04-3.05253E+04-4.60471E+04-1.88447E-08 1.05619E-07
 -1       260-1.62437E+06 1.19524E+04 3.36884E+04 2.16735E+05 7.76890E-09-5.65894E-08
 -1       261-1.80073E+06-3.26206E+03-1.14530E+03-1.40404E+05-4.72619E-09-1.76315E-08
 -1       262-1.75851E+06 1.81025E+04 1.43265E+04 3.10676E+05 1.68950E-09 1.62705E-07
 -1       263-1.80233E+06-6.78786E+03 7.10068E+03-1.40410E+05-5.52882E-09-1.37537E-07
 -1       264-1.61076E+06 4.23806E+04 6.57362E+04 2.17232E+05-6.09080E-08 1.00284E-07
 -1       265-1.93491E+06-3.86607E+04 1.08051E+04-4.65383E+04-6.27369E-09 1.10638E-07
 -1       266-2.13094E+04-9.96474E+03 4.99959E+04-3.32500E+01 8.00355E-11 1.45311E-07
 -1       267 2.47034E+04 1.16134E+04 3.53374E+04 3.83653E+01 1.65073E-10-1.05932E-07
 -1       268-3.31269E+03-1.64482E+03 1.31347E+04-4.88833E+00-1.56433E-10-2.06745E-07
 -1       269 3.91130E+03 1.96846E+03 8.53740E+03 5.69425E+00 1.76442E-10-8.42034E-08
 -1       270-5.87091E+02-3.23435E+02 4.12112E+03-7.72746E-01-1.63254E-10 8.43208E-08
 -1       271-1.82817E+06-2.25520E+05-1.34252E+05-7.05060E+05 3.17891E-08 4.18659E-08
 -1       272-1.88083E+06-3.16685E+05-8.60159E+04-6.96485E+05-1.87729E-08-2.09244E-07
 -1       273-1.85462E+06-2.57624E+05-3.19096E+04-6.97655E+05 1.18962E-08-1.92298E-07
 -1       274-1.84879E+06-2.78409E+05-1.75897E+04-7.08620E+05-1.10158E-08 6.24959E-08
 -1       275-1.85978E+06-2.59383E+05-7.59699E+03-6.94699E+05 4.02124E-08-1.21413E-07
 -1       276-1.84160E+06-2.77575E+05-3.75991E+03-7.14338E+05-3.08573E-08 2.65550E-08
 -1       277-1.86215E+06-2.57768E+05-2.04695E+03-6.92394E+05-4.10546E-09 1.61190E-07
 -1       278-1.83802E+06-2.80610E+05-1.12613E+03-7.18970E+05 7.15481E-08-3.04835E-08
 -1       279-1.86388E+06-2.55984E+05-1.28091E+03-6.90450E+05-4.62551E-08 3.97404E-08
 -1       280-1.83563E+06-2.83733E+05-1.86612E+03-7.22822E+05-7.70888E-09 2.56023E-08
 -1       281-1.86509E+06-2.54317E+05-3.50847E+03-6.88918E+05 7.12134E-10 2.34387E-07
 -1       282-1.83531E+06-2.88207E+05-8.12671E+03-7.25531E+05-2.35750E-08 2.45818E-07
 -1       283-1.86472E+06-2.51405E+05-1.45243E+04-6.88008E+05 2.88674E-09-2.64790E-08
 -1       284-1.84674E+06-3.09390E+05-3.94888E+04-7.24543E+05-2.43344E-08-1.01033E-07
 -1       285-1.85432E+06-2.34888E+05-6.13731E+04-6.89444E+05 9.08949E-09 8.64748E-08
 -1       301 8.41995E+03-5.58840E+05 1.70821E+05-9.75454E+05 1.74623E-09 1.98197E-08
 -1       302 9.50385E+03-5.14637E+05 1.03383E+05-1.42549E+06-5.02041E-09 4.11965E-08
 -1       303-9.88692E+03-5.46692E+05 6.10541E+04-9.72974E+05-5.54428E-09 8.72969E-08
 -1       304-5.11796E+03-5.18696E+05 6.60476E+04-1.42468E+06-8.29459E-09 2.19632E-07
 -1       305-9.79804E+03-5.40178E+05 8.72104E+04-9.75920E+05 4.85670E-09 1.25030E-07
 -1       306-2.78366E+07-5.68744E+06-7.79650E+06-9.81921E+05-4.67990E-08-7.61938E-08
 -1       307 2.31984E+07 2.31727E+06 5.01453E+06-1.34637E+07-7.28513E-07-1.14669E-07
 -1       308-7.54744E+06-8.18443E+05-5.30416E+05 4.74177E+06-1.95811E-07 1.45155E-07
 -1       309-3.46842E+06 7.05278E+06 1.94128E+06-1.92217E+07 3.77055E-07-1.24910E-07
 -1       310-1.14801E+07-1.43795E+06-1.59951E+06 4.64757E+06-7.19447E-08-2.93032E-07
 -1       311 3.23276E+07-1.45664E+05 6.30017E+06-8.77776E+06 2.08383E-07-3.09432E-07
 -1       312-2.90439E+07-5.90262E+06-7.49209E+06-4.21281E+06 1.42376E-07 3.37895E-08
 -1       313 4.11515E+07 1.19056E+07 9.52438E+06 2.00570E+07 2.31550E-07 2.24711E-07
 -1       314-1.69470E+07-1.53440E+07-6.76776E+06-1.15698E+07 1.81608E-07 2.14146E-07
 -1       315-1.11688E+06 2.58644E+07 5.16028E+06 1.06141E+07-5.00120E-07-6.81612E-08
 -1       316 6.53285E+05-9.35561E+06-4.94282E+05-3.22204E+06-1.14615E-06-3.46772E-07
 -1       317-1.70918E+07 2.05469E+07 1.90587E+06-6.78499E+06 6.59435E-07-5.57004E-07
 -1       318-1.20124E+06-1.12489E+07-1.64468E+06-4.39478E+06-8.35338E-07 1.00059E-07
 -1       319 5.56776E+06 2.73631E+07 6.07068E+06 1.45376E+07-2.67755E-09 2.22295E-07
 -1       320-2.07752E+07-1.55025E+07-8.71040E+06-1.15885E+07 1.64029E-07-5.35510E-09
 -1       336-5.00631E+02-1.73702E+06-1.38126E+04 8.75397E+03-2.59697E-08 3.57250E-09
 -1       337-5.33631E+03-1.73707E+06-1.79874E+04-2.12072E+04-4.82523E-08 1.63782E-08
 -1       338 4.39378E+02-1.73654E+06-2.80406E+04 1.22354E+04-3.34248E-08 1.31331E-08
 -1       339-2.97636E+04-1.75393E+06-6.34610E+04-2.80106E+04-6.01540E-08 4.16276E-08
 -1       340 1.97646E+04-1.72219E+06-9.98253E+04 1.54365E+04-3.94284E-08 3.38187E-08
 -1       406-3.42477E+01 3.77261E+05 6.27787E+02 2.76061E+00-1.71436E-09 6.59929E-09
 -1       407 1.64117E+02 3.77389E+05 1.34012E+03 2.12247E+01-5.56852E-10-7.77618E-10
 -1       408 6.31990E+02 3.77164E+05 2.67297E+03-2.43697E+01-2.09684E-09-3.04681E-09
 -1       409 2.84226E+03 3.78243E+05 6.02319E+03 2.57918E+02-1.54046E-10-1.76378E-08
 -1       410 8.26651E+03 3.76396E+05 1.22937E+04-2.48204E+02-2.51930E-09-1.62145E-08
 -1       521-2.93611E+07-6.97876E+06-9.08796E+06-6.52189E+05-7.48551E-08 8.61473E-09
 -1       522 2.39436E+07 3.05018E+06 5.09171E+06-1.66445E+07-4.89701E-07-4.99946E-07
 -1       523-8.25353E+06-1.10117E+06-5.38349E+05 5.17957E+06 1.08848E-07-3.64846E-07
 -1       524-6.69060E+06 9.64725E+06 2.09808E+06-2.21698E+07 7.56496E-07-5.63599E-07
 -1       525-1.23890E+07-1.95612E+06-1.75569E+06 5.07630E+06 6.44359E-07-2.01428E-07
 -1       526 3.50705E+07-2.01777E+05 6.61267E+06-1.12785E+07 1.37486E-07 1.51544E-07
 -1       527-3.08021E+07-7.39521E+06-8.61029E+06-4.09792E+06 4.92437E-08 2.04411E-07
 -1       528 4.49052E+07 1.30910E+07 9.92551E+06 2.26959E+07 1.45461E-07-4.54020E-09
 -1       529-1.79377E+07-1.73231E+07-7.74416E+06-1.17110E+07 1.02737E-07-6.05360E-08
 -1       530-3.42814E+06 3.00710E+07 5.45085E+06 1.04596E+07-3.02156E-07 6.01693E-07
 -1       531 5.92802E+05-1.04688E+07-4.87361E+05-3.32315E+06-8.30842E-07 3.75352E-07
 -1       532-1.99336E+07 2.27170E+07 2.08447E+06-1.04093E+07 3.91155E-07-5.71512E-07
 -1       533-1.27098E+06-1.23866E+07-1.73745E+06-4.38902E+06-2.72441E-07-9.04431E-07
 -1       534 3.59205E+06 3.17304E+07 6.31317E+06 1.50479E+07-1.30938E-07 7.22765E-07
 -1       535-2.19110E+07-1.76248E+07-9.94506E+06-1.17287E+07 6.26314E-08 4.53088E-07
 -1       536-6.81753E+05-4.59848E+04-3.75131E+04-5.13184E+04 2.10548E-09 7.49660E-08
 -1       537-7.86645E+04 4.45050E+04 8.21744E+04 1.17421E+05-1.12566E-07 7.96117E-08
 -1       538-3.93381E+05 2.65373E+03 5.05585E+03-6.89600E+04 3.30281E-08 1.06608E-07
 -1       539-2.77813E+05 2.99424E+03 2.39540E+04 1.32125E+05 1.91680E-07 1.25847E-07
 -1       540-4.87568E+05-3.48728E+02-1.90884E+04-6.64938E+04-9.22728E-09 1.15543E-07
 -1       541 1.05334E+05 1.56465E+04 9.82438E+04 9.24162E+04-1.44928E-08 8.08039E-08
 -1       542-7.66213E+05-1.86017E+04-7.75873E+04-2.84807E+04 7.65658E-08 3.96530E-08
 -1       543 3.43860E+05 2.52205E+04 1.45615E+05-1.28100E+04 1.54262E-08 8.93579E-10
 -1       544-7.19704E+05-1.52130E+04-6.89298E+04 3.81407E+04-1.50699E-08-2.11430E-08
 -1       545-3.91025E+03 8.61061E+03 7.32432E+04-1.07763E+05 2.50711E-08-6.26671E-08
 -1       546-4.27768E+05 5.73385E+03-1.13501E+04 6.61691E+04 7.18796E-09-7.12001E-08
 -1       547-2.94858E+05-4.68143E+03 9.10935E+03-1.34905E+05-1.51463E-07-9.60063E-08
 -1       548-4.36564E+05 4.60110E+03-2.28853E+04 6.58921E+04-1.22170E-07-8.78276E-08
 -1       549 1.46639E+04 1.31426E+04 5.35705E+04-1.05471E+05-5.44642E-08-4.43022E-08
 -1       550-7.29004E+05-1.90086E+04-1.22276E+05 3.61020E+04 2.17824E-09-3.85280E-08
 -1       551 3.90110E+04-7.63873E+05-1.06723E+04-1.22848E+06-9.69303E-08-2.75031E-08
 -1       552 8.87521E+04-8.05581E+05 1.29100E+04-1.75182E+06-6.95727E-08 2.40980E-08
 -1       553 6.79410E+04-8.02996E+05 3.40976E+04-1.22212E+06-1.14465E-07 2.21771E-08
 -1       554 1.26387E+05-8.19532E+05 8.35583E+04-1.75378E+06-7.21775E-08 2.61462E-08
 -1       555 9.76384E+04-8.26148E+05 1.51872E+05-1.22206E+06-1.16379E-07-1.20272E-08
 -1       556 2.12819E+05-3.67257E+05 3.31366E+04-3.95765E+05-2.30211E-08-1.03028E-08
 -1       557 3.39801E+05-4.68709E+05 1.97602E+04-5.11199E+05 3.49246E-09-7.90897E-09
 -1       558 1.96394E+05-3.62108E+05 4.21942E+03-3.98602E+05-1.59198E-08 1.39553E-08
 -1       559 3.15657E+05-4.70070E+05 3.27404E+03-5.30213E+05 2.72412E-08 1.51485E-08
 -1       560 1.82287E+05-3.53246E+05-8.96512E+02-4.08719E+05 1.44937E-08 7.21047E-09
 -1       561 2.97830E+05-4.63006E+05 3.58254E+02-5.42320E+05-6.24277E-09-2.04909E-08
 -1       562 1.71136E+05-3.46302E+05-1.09110E+03-4.16784E+05 3.60887E-09-5.55883E-09
 -1       563 2.84595E+05-4.57236E+05 2.88399E+01-5.50951E+05 9.10950E-09 1.76924E-08
 -1       564 1.63212E+05-3.41361E+05-5.08386E+02-4.22395E+05 4.36557E-10-1.13087E-08
 -1       565 2.75879E+05-4.53441E+05 4.16122E+01-5.56516E+05 8.20728E-09-1.26383E-08
 -1       566 1.58632E+05-3.38461E+05-2.23402E+02-4.25600E+05-4.12547E-09-1.20763E-08
 -1       567 2.71727E+05-4.51634E+05-3.31838E+02-5.59029E+05 1.80225E-08 1.43955E-08
 -1       568 1.57479E+05-3.37757E+05-1.04706E+03-4.26502E+05 3.74257E-09 1.90048E-08
 -1       569 2.70797E+05-4.51581E+05-2.64557E+03-5.57534E+05-7.54608E-09-1.57161E-08
 -1       570 1.60809E+05-3.40886E+05-5.79920E+03-4.25531E+05 2.51748E-09 4.80577E-09
 -1       571 2.83902E+05 1.02756E+04 1.47142E+04-9.13776E+04 4.60477E-09 1.01445E-08
 -1       572 2.86040E+05 3.84418E+03 7.21096E+03-1.00250E+05 3.35876E-09-8.66021E-09
 -1       573 2.84752E+05 1.18304E+03 3.20403E+03-9.12056E+04 1.43518E-09 2.60934E-09
 -1       574 2.84967E+05 6.69468E+02 1.60667E+03-1.00466E+05 3.48791E-10 1.36497E-08
 -1       575 2.84845E+05 3.99672E+02 7.58253E+02-9.11821E+04-2.12123E-09 3.00743E-08
 -1       576 2.84833E+05 4.06989E+02 3.88099E+02-1.00495E+05-1.04919E-08 2.31039E-08
 -1       577 2.84882E+05 3.43907E+02 1.93678E+02-9.11789E+04-8.72296E-09 1.61899E-08
 -1       578 2.84859E+05 3.71752E+02 1.11650E+02-1.00499E+05-8.21092E-09 8.72296E-09
 -1       579 2.84948E+05 3.10817E+02 7.65624E+01-9.11786E+04 5.95355E-09-6.97582E-09
 -1       580 2.84952E+05 3.25441E+02 8.83725E+01-1.00495E+05-9.52514E-09 1.75896E-09
 -1       581 2.85052E+05 2.57775E+02 1.33518E+02-9.11843E+04 8.49286E-09-9.34142E-09
 -1       582 2.85114E+05 2.93638E+02 2.70882E+02-1.00435E+05 8.26549E-09-9.45420E-09
 -1       583 2.85180E+05 3.03801E+02 5.20501E+02-9.12384E+04 3.05590E-09 4.67526E-09
 -1       584 2.85467E+05 7.27588E+02 1.17712E+03-9.99793E+04 4.97857E-09-1.73918E-09
 -1       585 2.85196E+05 1.72298E+03 2.38453E+03-9.16398E+04-1.28057E-09-2.13840E-08
 -1       586-3.35576E+03 1.12366E+05-2.98050E+03-2.45791E+05-7.85440E-09 5.70481E-09
 -1       587-1.25798E+03 1.12097E+05 6.80405E+02-2.70514E+05-9.74796E-09 8.32858E-09
 -1       588 4.50285E+02 1.11931E+05 4.59945E+03-2.45658E+05-3.55976E-09 6.93035E-09
 -1       589 5.02189E+03 1.14328E+05 1.19943E+04-2.70280E+05-6.56837E-09-2.13613E-08
 -1       590 1.62290E+04 1.10632E+05 2.51861E+04-2.46080E+05-4.28645E-09-6.85759E-10
 -1       591-7.19581E+04-1.55551E+04-2.18325E+04-3.09380E+04-2.94494E-09-1.57497E-08
 -1       592-7.58446E+04-1.90789E+04-1.18262E+04-3.45379E+04-1.68379E-09-2.96590E-08
 -1       593-7.41421E+04-1.39703E+04-4.92269E+03-3.25383E+04 1.74431E-10 5.67138E-09
 -1       594-7.28291E+04-1.58764E+04-2.45508E+03-3.46534E+04 2.83848E-09 2.37202E-09
 -1       595-7.43087E+04-1.39650E+04-1.12718E+03-3.26110E+04 1.71493E-09 9.92924E-09
 -1       596-7.26227E+04-1.57300E+04-5.72880E+02-3.46290E+04 7.22166E-09-1.01905E-08
 -1       597-7.43296E+04-1.39799E+04-3.11688E+02-3.26137E+04 6.00477E-09 2.81887E-10
 -1       598-7.26024E+04-1.57242E+04-2.50080E+02-3.46222E+04 1.02290E-09 7.74077E-09
 -1       599-7.43283E+04-1.39804E+04-3.18850E+02-3.26134E+04 6.98549E-09-1.66270E-08
 -1       600-7.26228E+04-1.57306E+04-5.91840E+02-3.46270E+04 1.05284E-08 6.62840E-09
 -1       601-7.43043E+04-1.39663E+04-1.16732E+03-3.26100E+04 5.78575E-09-1.03948E-08
 -1       602-7.28365E+04-1.58812E+04-2.54393E+03-3.46485E+04-4.75552E-09-2.77681E-08
 -1       603-7.41291E+04-1.39746E+04-5.10156E+03-3.25354E+04-6.53472E-10-1.25128E-08
 -1       604-7.59785E+04-1.91810E+04-1.22551E+04-3.45047E+04 1.14187E-09-6.42422E-09
 -1       605-7.18462E+04-1.56342E+04-2.26245E+04-3.08958E+04 6.06519E-09 8.75389E-09
 -1       606 2.68352E+04-1.39678E+04-2.50443E+04 2.43040E+04 8.09268E-09-4.93560E-09
 -1       607 2.25555E+04-4.55929E+03-1.24719E+04 2.73092E+04 1.38152E-09-7.88873E-09
 -1       608 2.49937E+04-8.20106E+02-5.58338E+03 2.41304E+04-4.55475E-09 8.60314E-09
 -1       609 2.45252E+04-2.77833E+02-2.82053E+03 2.75257E+04-2.02544E-09 1.17866E-08
 -1       610 2.47842E+04-3.62044E+01-1.34581E+03 2.41099E+04 3.66344E-09-1.04867E-08
 -1       611 2.47098E+04-3.53351E+01-6.78545E+02 2.75491E+04 6.16683E-09-2.20900E-08
 -1       612 2.47373E+04-2.21892E+01-3.22678E+02 2.41079E+04 1.63800E-09-6.09771E-09
 -1       613 2.47200E+04-3.07447E+01-1.44664E+02 2.75519E+04-3.41061E-10-1.09026E-09
 -1       614 2.47148E+04-2.79181E+01-3.41394E+01 2.41072E+04 2.15732E-09 2.08956E-09
 -1       615 2.47140E+04-2.88233E+01 6.01549E+01 2.75523E+04 1.02955E-09 3.34103E-09
 -1       616 2.46973E+04-2.44857E+01 1.80816E+02 2.41074E+04 2.35559E-09-3.11002E-09
 -1       617 2.47351E+04 1.00908E+01 4.12734E+02 2.75518E+04 2.08274E-10-2.04507E-08
 -1       618 2.46610E+04 9.47908E+01 8.31988E+02 2.41077E+04-1.69939E-09 8.04744E-09
 -1       619 2.50284E+04 6.53624E+02 1.86834E+03 2.75512E+04 1.40972E-11-1.18398E-08
 -1       620 2.43844E+04 2.06787E+03 3.75532E+03 2.41089E+04-1.39494E-10 7.73389E-09
 -1       621 4.80204E+02 2.94166E+05 3.73420E+03 3.82962E+04 8.62656E-10-9.59608E-09
 -1       622 6.30976E+02 2.95035E+05 3.32717E+03 5.56075E+04 1.18916E-09-1.13278E-09
 -1       623 1.23568E+02 2.94356E+05 4.01634E+03 3.81223E+04 1.17529E-09 7.08496E-10
 -1       624 2.04186E+03 2.96231E+05 7.80038E+03 5.57791E+04 1.32513E-09 3.31852E-09
 -1       625 2.00206E+03 2.92811E+05 1.36380E+04 3.81192E+04 1.25056E-09 9.53992E-09
 -1       626 2.55083E+05 6.06592E+04 5.06017E+03 1.24689E+05 1.21690E-09-1.84882E-08
 -1       627 2.52756E+05 6.20765E+04 2.43845E+03 1.28952E+05 3.28100E-09-1.19051E-08
 -1       628 2.55212E+05 5.83408E+04 1.03120E+03 1.25545E+05 1.43973E-09 3.48064E-09
 -1       629 2.52124E+05 6.14086E+04 5.04734E+02 1.29193E+05-6.76891E-09-2.36568E-10
 -1       630 2.55226E+05 5.82290E+04 2.34137E+02 1.25580E+05-1.00940E-08-2.00898E-08
 -1       631 2.52056E+05 6.13837E+04 1.26009E+02 1.29195E+05 1.71076E-09-1.43665E-08
 -1       632 2.55222E+05 5.82333E+04 8.29449E+01 1.25576E+05 4.20323E-09-1.62752E-08
 -1       633 2.52047E+05 6.13858E+04 9.24309E+01 1.29191E+05 4.90536E-09-2.37258E-08
 -1       634 2.55217E+05 5.82308E+04 1.49400E+02 1.25575E+05-4.17231E-09-1.06484E-08
 -1       635 2.52061E+05 6.13844E+04 3.02330E+02 1.29196E+05-6.25079E-09 6.94581E-09
 -1       636 2.55207E+05 5.82254E+04 6.10566E+02 1.25574E+05-2.55841E-09-1.72708E-08
 -1       637 2.52193E+05 6.14794E+04 1.34244E+03 1.29195E+05-1.33946E-09 3.11584E-08
 -1       638 2.55160E+05 5.85221E+04 2.75824E+03 1.25440E+05 3.35604E-10-9.55106E-09
 -1       639 2.53642E+05 6.34945E+04 6.52606E+03 1.28768E+05 6.09225E-09 2.43836E-09
 -1       640 2.54960E+05 6.45386E+04 1.35427E+04 1.22904E+05 4.57385E-09-3.05090E-09
 -1       656 6.52842E+04-1.66976E+06-1.57592E+05-2.30865E+03 1.52795E-10-9.63399E-09
 -1       657-8.63602E+04-1.74097E+06-1.30545E+05 5.46115E+03-8.91305E-11-4.86743E-08
 -1       658 2.08056E+04-1.68998E+06-8.03855E+04-4.33025E+03 4.95675E-11-1.64608E-08
 -1       659-9.33478E+04-1.74428E+06-1.39727E+05 7.11911E+03-1.96906E-09-1.98120E-08
 -1       660 7.22563E+04-1.66645E+06-1.73379E+05-3.96659E+03-2.54659E-09 1.34679E-08
 -1       661 1.59779E+05 1.67762E+04 1.67227E+04 6.24629E+04-1.77397E-09 4.85670E-10
 -1       662 1.69184E+05 2.92089E+04 1.12698E+04 5.87676E+04 1.29654E-09-5.22778E-09
 -1       663 1.63064E+05 2.21413E+04 3.94153E+03 6.15099E+04 1.67563E-09 1.01588E-08
 -1       664 1.65376E+05 2.29345E+04 2.35776E+03 5.99315E+04-1.59540E-09-3.35405E-09
 -1       665 1.63562E+05 2.28743E+04 9.30120E+02 6.13648E+04-1.21588E-09-6.37584E-09
 -1       666 1.64787E+05 2.20961E+04 5.44304E+02 6.01206E+04 7.56117E-09-6.04274E-09
 -1       667 1.63649E+05 2.29579E+04 2.89139E+02 6.13287E+04 7.17534E-10-9.05720E-09
 -1       668 1.64691E+05 2.20357E+04 2.94680E+02 6.01732E+04-1.24766E-09-5.15078E-09
 -1       669 1.63657E+05 2.29330E+04 3.99010E+02 6.13126E+04 1.80677E-10 3.75792E-09
 -1       670 1.64789E+05 2.22522E+04 8.68904E+02 6.01760E+04-1.10435E-08 5.54748E-09
 -1       671 1.63552E+05 2.27459E+04 1.54282E+03 6.13238E+04 3.76621E-09-3.80783E-09
 -1       672 1.65688E+05 2.37532E+04 3.94729E+03 5.99583E+04 2.92037E-09-1.07675E-08
 -1       673 1.62762E+05 2.14699E+04 6.61502E+03 6.15158E+04 2.80772E-09 4.10000E-09
 -1       674 1.71984E+05 3.43808E+04 1.89176E+04 5.81084E+04-3.57886E-09 5.72845E-09
 -1       675 1.57296E+05 1.24160E+04 2.80803E+04 6.30620E+04-2.41789E-09 7.79801E-09
 -1       676 2.37896E+01-2.91712E+05-1.10005E+03-1.19563E+02 1.41171E-10 7.49739E-09
 -1       677-2.91251E+02-2.91978E+05-2.01327E+03 2.38937E+02 7.25231E-09 1.80262E-08
 -1       678 1.95138E+02-2.91523E+05-3.55896E+03-1.19296E+02 2.55113E-10-6.65521E-09
 -1       679-3.55926E+03-2.94127E+05-8.45459E+03 2.37920E+02 7.44774E-09 5.58465E-09
 -1       680 2.12489E+03-2.89565E+05-1.36259E+04-1.17224E+02-3.71074E-10-9.14085E-10
 -1       771-3.02715E+06-7.25628E+05-1.54060E+05-1.43940E+06-3.18687E-08-2.67755E-08
 -1       772-2.95366E+06-8.10855E+05-7.95039E+04-1.53783E+06-2.20607E-08 1.29221E-08
 -1       773-3.05646E+06-7.02723E+05-4.03602E+04-1.45255E+06-1.58034E-08 1.14233E-08
 -1       774-2.94432E+06-7.93820E+05-1.80415E+04-1.56167E+06 2.54367E-08-1.40426E-09
 -1       775-3.07158E+06-6.92091E+05-1.33816E+04-1.45885E+06-4.91855E-09 3.85626E-09
 -1       776-2.95539E+06-7.91173E+05-5.02231E+03-1.57957E+06-4.39468E-09 4.79122E-09
 -1       777-3.08465E+06-6.82641E+05-5.87115E+03-1.46441E+06 8.52742E-09 4.60568E-09
 -1       778-2.96698E+06-7.88729E+05-1.66584E+03-1.59493E+06 1.07684E-08 8.68204E-09
 -1       779-3.09586E+06-6.74402E+05-2.92092E+03-1.46916E+06-1.48721E-08-3.21234E-09
 -1       780-2.97717E+06-7.86395E+05-4.85263E+02-1.60744E+06-9.60426E-09-3.12684E-09
 -1       781-3.10476E+06-6.67771E+05-1.13045E+03-1.47288E+06-2.23808E-08-2.26464E-09
 -1       782-2.98502E+06-7.84408E+05 4.11127E+02-1.61667E+06-3.03335E-08-4.21096E-10
 -1       783-3.11102E+06-6.63171E+05 6.42427E+02-1.47548E+06-3.60887E-09-1.16638E-08
 -1       784-2.98936E+06-7.82386E+05 2.64919E+03-1.62236E+06-1.74332E-08 5.15138E-09
 -1       785-3.11472E+06-6.60431E+05 4.67759E+03-1.47714E+06-3.53321E-08 5.80440E-09
 -1       786 1.24337E+05-9.70743E+03 2.24589E+04-3.01061E+02 1.96466E-09 2.34468E-09
 -1       787 1.34077E+05 1.12389E+04 1.58888E+04-1.17772E+02 6.82225E-09 6.04996E-09
 -1       788 1.28092E+05-1.52125E+03 5.81069E+03-2.66909E+02 5.59615E-09 4.67594E-09
 -1       789 1.29702E+05 1.76067E+03 3.64787E+03-1.70362E+02 2.05498E-09 3.72875E-08
 -1       790 1.28713E+05-2.36933E+02 1.47725E+03-2.48487E+02-4.43190E-09-1.30291E-09
 -1       791 1.28977E+05 2.74066E+02 8.53788E+02-2.01936E+02-6.73533E-09-4.96853E-09
 -1       792 1.28818E+05-3.57554E+01 3.62927E+02-2.35337E+02-4.14836E-09 1.87496E-08
 -1       793 1.28852E+05 3.81962E+01 1.83400E+02-2.26683E+02 6.12736E-10 6.63394E-09
 -1       794 1.28838E+05-1.21228E+00 5.26295E+01-2.23741E+02 3.22112E-09-8.07552E-09
 -1       795 1.28817E+05-2.31244E+01-4.41423E+01-2.50887E+02-4.46473E-09-5.72398E-09
 -1       796 1.28853E+05 2.55311E+01-1.38865E+02-2.11133E+02 2.10776E-09-1.84913E-08
 -1       797 1.28734E+05-1.91396E+02-3.87573E+02-2.79838E+02 2.52592E-09-1.40630E-08
 -1       798 1.28921E+05 1.66933E+02-6.31179E+02-1.94789E+02 2.04843E-09 1.12793E-08
 -1       799 1.28255E+05-1.23067E+03-1.73799E+03-3.20194E+02 5.28885E-09-4.46619E-10
 -1       800 1.29332E+05 1.06396E+03-2.46004E+03-1.70778E+02-5.52447E-11 1.09218E-08
 -1       801-1.35590E+05-9.35078E+06-1.28449E+06 1.25956E+06 8.59436E-08-5.18557E-08
 -1       802 6.37722E+05 4.93883E+06 1.92735E+06-1.53766E+06 2.43417E-07-3.68955E-08
 -1       803-4.78065E+05-1.31156E+07-1.69384E+06 7.99980E+05 7.35017E-08 1.85682E-08
 -1       804 2.48441E+05 1.71752E+06 1.35858E+06 6.26906E+05-1.12501E-07-9.02119E-08
 -1       805 1.76340E+05-6.14433E+06-2.57447E+05-8.99864E+05-4.69590E-08-5.88725E-08
 -1       806-3.02791E+05-5.84498E+04-2.23619E+04-1.19838E+05-3.55612E-10 1.90084E-09
 -1       807-3.04572E+05-5.47782E+04-1.09862E+04-1.25238E+05 9.09768E-09-9.85267E-10
 -1       808-3.03403E+05-5.03928E+04-4.66069E+03-1.23650E+05 1.39153E-09-1.62182E-08
 -1       809-3.02263E+05-5.16904E+04-2.27897E+03-1.25507E+05-4.74324E-09 1.86208E-09
 -1       810-3.03496E+05-5.01122E+04-1.04457E+03-1.23819E+05-8.08541E-10 6.23209E-09
 -1       811-3.02085E+05-5.15662E+04-5.19472E+02-1.25473E+05-1.55242E-08-2.44238E-08
 -1       812-3.03510E+05-5.01363E+04-2.62758E+02-1.23818E+05-9.30686E-09 5.21231E-09
 -1       813-3.02060E+05-5.15683E+04-1.70844E+02-1.25454E+05-4.76939E-09 1.69657E-08
 -1       814-3.03503E+05-5.01456E+04-1.69405E+02-1.23814E+05-3.80624E-09 1.65210E-09
 -1       815-3.02064E+05-5.15704E+04-2.73081E+02-1.25447E+05 4.27463E-09-5.40422E-09
 -1       816-3.03483E+05-5.01446E+04-5.17616E+02-1.23811E+05-6.64932E-09 5.84441E-09
 -1       817-3.02152E+05-5.16197E+04-1.11097E+03-1.25436E+05-3.61906E-08-1.43882E-08
 -1       818-3.03416E+05-5.03012E+04-2.26597E+03-1.23737E+05-1.35005E-08 1.01832E-08
 -1       819-3.03393E+05-5.29889E+04-5.33178E+03-1.25143E+05-4.38195E-09-3.41256E-08
 -1       820-3.02990E+05-5.43280E+04-1.08521E+04-1.22016E+05-7.49606E-09-1.65185E-08
 -1       821-3.73234E+05 2.05591E+04-4.77320E+04 1.78223E+03 1.24104E-08 8.21638E-09
 -1       822-3.93145E+05-2.38097E+04-3.36417E+04-3.58541E+03 3.91412E-09 1.15110E-08
 -1       823-3.80822E+05 3.23414E+03-1.23405E+04 2.73641E+03-1.02922E-08-9.56788E-10
 -1       824-3.84082E+05-3.73328E+03-7.73934E+03-4.16308E+03 1.15142E-09-2.07538E-08
 -1       825-3.82299E+05 5.02387E+02-3.22262E+03 2.35997E+03 1.64521E-08 7.89987E-09
 -1       826-3.81988E+05-5.70882E+02-1.78930E+03-2.29181E+03 2.03691E-08 4.91357E-09
 -1       827-3.82900E+05 6.19238E+01-1.10881E+03 8.65057E+02 9.40221E-09-1.68485E-08
 -1       828-3.81501E+05-1.50317E+02-6.92233E+02 1.00170E+03-1.39546E-09-1.26090E-08
 -1       829-3.82778E+05 7.63496E+01-1.10612E+03-9.33581E+02 5.53285E-10 7.65175E-09
 -1       830-3.82256E+05-6.15879E+02-1.90916E+03 3.91634E+03 1.80578E-09 1.82388E-08
 -1       831-3.82160E+05 5.38643E+02-3.31231E+03-2.04961E+03-4.36729E-09 3.19255E-09
 -1       832-3.84167E+05-3.89151E+03-8.03929E+03 4.85559E+03-3.92973E-09-3.59353E-09
 -1       833-3.80877E+05 3.35664E+03-1.28322E+04-1.87285E+03-3.50160E-09-3.26509E-09
 -1       834-3.93295E+05-2.47153E+04-3.48722E+04 3.27708E+03-3.76133E-09-7.74753E-09
 -1       835-3.73022E+05 2.13360E+04-4.95785E+04-4.71056E+02 4.77331E-09 4.54747E-09
 -1       836-1.37471E+03 3.61610E+05 2.23438E+04-1.61944E+04-6.53290E-09 5.59066E-09
 -1       837 4.77189E+03 3.68604E+05 1.89223E+04-3.30252E+04-7.15545E-09-4.96584E-10
 -1       838-5.41377E+02 3.63569E+05 1.93009E+04-1.61236E+04-5.71481E-09 4.58954E-09
 -1       839 1.21639E+04 3.74109E+05 3.65326E+04-3.30763E+04-6.33736E-09 3.17826E-08
 -1       840-3.75464E+03 3.56046E+05 5.82652E+04-1.61483E+04-5.56247E-09 3.41676E-08
 -1       856-5.47424E+04 7.99233E+03-2.10616E+04-3.98346E+02 4.10887E-09-8.50741E-09
 -1       857-6.34214E+04-9.38909E+03-1.44987E+04 5.55436E+03 2.08439E-09-6.44854E-09
 -1       858-5.81788E+04 1.12075E+03-5.46506E+03-4.22342E+02 5.36119E-09-4.63751E-09
 -1       859-5.94777E+04-1.31697E+03-3.29809E+03 5.59029E+03-7.13229E-10-1.38116E-08
 -1       860-5.86922E+04 1.56858E+02-1.38253E+03-4.34040E+02 3.09475E-09-3.40367E-09
 -1       861-5.88871E+04-1.85807E+02-7.61191E+02 5.60624E+03 4.77911E-10 1.12664E-08
 -1       862-5.87725E+04 2.11920E+01-3.17685E+02-4.38276E+02 2.19167E-09 1.60058E-08
 -1       863-5.87889E+04-2.05969E+01-1.18602E+02 5.60866E+03-7.79499E-09 2.42371E-08
 -1       864-5.87908E+04-4.60264E+00 4.05332E+01-4.36460E+02-6.45599E-10 3.88441E-09
 -1       865-5.87352E+04 5.76538E+01 2.39799E+02 5.59841E+03-1.97184E-09 4.54497E-09
 -1       866-5.88240E+04-5.71128E+01 4.86586E+02-4.28023E+02-2.14845E-09-1.33142E-08
 -1       867-5.85054E+04 4.72026E+02 1.19983E+03 5.57548E+03 1.81853E-09-1.70346E-08
 -1       868-5.90158E+04-4.11598E+02 1.99427E+03-4.13532E+02-2.01027E-09 1.10375E-08
 -1       869-5.70427E+04 3.42554E+03 5.31088E+03 5.53763E+03 2.92334E-09-1.43450E-08
 -1       870-6.02792E+04-2.93056E+03 7.70714E+03-3.90083E+02-3.39060E-09-2.01012E-08
 -1       871-5.43425E+03-2.02599E+04-1.90475E+04 1.27376E+05-4.56930E-09 1.24119E-08
 -1       872-1.99025E+03-2.46755E+04-7.96273E+03 1.65160E+05-9.57880E-09-1.07684E-09
 -1       873 3.56204E+02-2.25463E+04 6.08937E+02 1.27096E+05-5.20231E-09-1.01829E-09
 -1       874 3.19679E+03-2.01617E+04 9.63322E+03 1.65190E+05-9.89439E-09-7.08860E-09
 -1       875 6.69383E+03-2.48410E+04 2.17065E+04 1.27329E+05-3.96722E-09-1.41499E-08
 -1       876 2.88483E+05 4.86898E+04 1.48573E+04 1.15850E+05-1.48475E-10 3.37604E-09
 -1       877 2.89458E+05 5.18260E+04 7.93435E+03 1.20119E+05 1.17843E-08-1.82117E-08
 -1       878 2.89872E+05 4.70442E+04 3.32410E+03 1.17068E+05-3.34512E-09-2.17710E-09
 -1       879 2.87438E+05 4.98107E+04 1.65626E+03 1.20220E+05 5.12318E-09 1.39479E-08
 -1       880 2.89972E+05 4.70272E+04 7.71450E+02 1.17118E+05-5.75437E-09 7.23179E-09
 -1       881 2.87304E+05 4.97245E+04 4.11937E+02 1.20197E+05-9.31743E-09 1.14855E-09
 -1       882 2.89981E+05 4.70402E+04 2.63484E+02 1.17119E+05-4.51723E-09 4.86980E-09
 -1       883 2.87295E+05 4.97200E+04 2.83177E+02 1.20189E+05 2.16590E-09 9.91943E-09
 -1       884 2.89974E+05 4.70374E+04 4.50395E+02 1.17119E+05 2.63231E-09-1.17194E-09
 -1       885 2.87331E+05 4.97263E+04 9.05498E+02 1.20200E+05-4.26942E-09 7.11520E-09
 -1       886 2.89939E+05 4.70110E+04 1.82497E+03 1.17116E+05-3.46486E-09-1.59530E-08
 -1       887 2.87651E+05 4.99366E+04 3.98639E+03 1.20246E+05 8.60496E-10-7.71615E-09
 -1       888 2.89687E+05 4.70553E+04 8.03269E+03 1.16988E+05 6.00562E-09 1.20099E-09
 -1       889 2.92434E+05 5.49095E+04 1.91886E+04 1.20100E+05-1.93053E-09 5.12500E-09
 -1       890 2.86409E+05 5.09492E+04 3.59398E+04 1.13930E+05-3.30374E-09-4.30009E-09
 -1       891-9.50558E+01-1.60079E+05-1.95989E+03 2.69285E+04-1.33423E-09-5.06361E-10
 -1       892-1.83380E+02-1.60593E+05-2.10606E+03 4.08789E+04 8.47194E-10-1.23955E-08
 -1       893 3.55178E+01-1.60142E+05-2.98309E+03 2.69356E+04-4.24211E-09 1.42390E-08
 -1       894-1.49529E+03-1.61720E+05-6.17471E+03 4.07281E+04 1.14574E-09 8.94079E-09
 -1       895-1.18603E+03-1.58855E+05-1.08739E+04 2.70807E+04 2.50111E-11 1.33541E-08
 -1       956-3.70007E+05-5.32941E+03-1.31823E+04 2.98213E+04 6.69934E-09-1.34282E-08
 -1       957-3.72596E+05-1.87157E+03-6.76635E+03 3.58448E+04-9.09495E-10-2.30211E-08
 -1       958-3.71191E+05-2.26057E+02-3.04907E+03 2.96577E+04-2.05910E-09-6.56655E-09
 -1       959-3.71385E+05-1.21912E+02-1.55695E+03 3.60345E+04 6.23186E-09 5.67979E-10
 -1       960-3.71306E+05-3.45170E+01-7.59235E+02 2.96409E+04 4.98312E-09 9.62177E-09
 -1       961-3.71305E+05-5.08503E+01-4.02587E+02 3.60542E+04 1.07848E-08 1.33957E-08
 -1       962-3.71332E+05-3.60701E+01-2.30528E+02 2.96381E+04 8.16271E-10-9.33596E-09
 -1       963-3.71305E+05-4.69583E+01-1.85136E+02 3.60578E+04 2.37105E-09-5.04679E-09
 -1       964-3.71338E+05-3.28451E+01-2.25202E+02 2.96374E+04 5.15428E-10-1.11727E-08
 -1       965-3.71317E+05-4.39751E+01-3.89558E+02 3.60571E+04-6.62300E-09 9.13565E-09
 -1       966-3.71322E+05-2.49315E+01-7.31956E+02 2.96388E+04 2.85877E-09 4.14389E-09
 -1       967-3.71406E+05-1.05936E+02-1.50126E+03 3.60433E+04-3.02703E-09-1.30012E-09
 -1       968-3.71221E+05-2.03442E+02-2.93885E+03 2.96510E+04-9.06766E-10 2.36878E-09
 -1       969-3.72585E+05-1.78757E+03-6.52426E+03 3.59004E+04-1.82627E-09 1.77360E-08
 -1       970-3.70088E+05-5.12036E+03-1.27095E+04 2.97744E+04-1.36515E-09 1.77952E-08
 -1       971-3.39481E+05-1.70312E+03-9.20318E+03 1.51897E+04 4.06817E-09-4.31746E-09
 -1       972-3.41699E+05-1.25097E+03-5.01195E+03 2.10272E+04 4.92219E-09 1.22288E-08
 -1       973-3.40507E+05-5.68587E+01-2.24486E+03 1.50694E+04-3.02225E-09 9.45352E-09
 -1       974-3.40642E+05-7.39580E+01-1.16361E+03 2.11629E+04-1.03469E-08 7.42671E-09
 -1       975-3.40588E+05-1.25630E+01-5.81981E+02 1.50572E+04-7.51697E-09 2.22929E-09
 -1       976-3.40581E+05-2.47367E+01-3.36364E+02 2.11784E+04 3.64071E-09 2.18392E-09
 -1       977-3.40604E+05-1.18779E+01-2.45208E+02 1.50539E+04-3.63502E-09 1.53648E-09
 -1       978-3.40586E+05-1.86242E+01-2.88418E+02 2.11831E+04-1.23114E-08-2.43263E-08
 -1       979-3.40604E+05-3.56370E+00-4.64664E+02 1.50525E+04-7.50316E-09 1.40461E-08
 -1       980-3.40621E+05-1.56193E+01-8.98001E+02 2.11841E+04-9.76266E-09 2.30102E-08
 -1       981-3.40575E+05 1.88767E+01-1.73964E+03 1.50530E+04-1.27875E-09-1.13158E-09
 -1       982-3.40860E+05-1.44155E+02-3.59603E+03 2.11775E+04 5.44662E-09-3.00174E-09
 -1       983-3.40356E+05-9.25112E+01-6.98722E+03 1.50590E+04-4.53065E-09 1.30876E-09
 -1       984-3.44221E+05-3.79336E+03-1.56476E+04 2.10928E+04-9.22773E-09 9.55606E-09
 -1       985-3.37192E+05-5.20533E+03-2.87339E+04 1.51310E+04-1.38107E-09-7.55063E-09
 -3
    1PSTEP                        37          19           1          
  100CL  119 6.53548E-01         409                     0   19           1
 -4  DISP        4    1
 -5  D1          1    2    1    0
 -5  D2          1    2    2    0
 -5  D3          1    2    3    0
 -5  ALL         1    2    0    0    1ALL
 -1         1 2.38956E-03 0.00000E+00 0.00000E+00
 -1         2 1.42657E-03 4.98125E-28 0.00000E+00
 -1         3 3.28682E-04-6.16209E-28 0.00000E+00
 -1         5 1.71911E-04-1.59884E-27 6.20385E-25
 -1         8 2.37416E-03-4.82556E-07 0.00000E+00
 -1         9 2.35733E-03-9.36456E-05 0.00000E+00
 -1        10 2.98135E-04-3.47466E-06 1.32349E-23
 -1        12 1.73557E-04 7.90369E-07-2.06795E-25
 -1        15 2.35588E-03-5.23505E-07 2.06795E-25
 -1        16 2.39572E-03-9.50206E-05 0.00000E+00
 -1        17 2.03368E-04-7.84803E-06 0.00000E+00
 -1        18 1.76935E-04 3.16317E-05 0.00000E+00
 -1        19 1.78496E-04 1.57488E-06 0.00000E+00
 -1        20 1.78638E-04-7.65847E-06 0.00000E+00
 -1        21 1.77773E-04-2.06926E-05 0.00000E+00
 -1        24 3.00481E-05-1.18867E-05 0.00000E+00
 -1        25 1.86712E-04 3.18501E-05 0.00000E+00
 -1        26 1.87401E-04 2.18134E-06 0.00000E+00
 -1        27 1.85252E-04-1.11445E-05 0.00000E+00
 -1        28 1.84923E-04-2.13048E-05 0.00000E+00
 -1        32 0.00000E+00 0.00000E+00 0.00000E+00
 -1        33 1.95289E-04 2.91878E-06 0.00000E+00
 -1        34 1.93213E-04-1.11971E-05 0.00000E+00
 -1        35 1.91316E-04-2.16406E-05 0.00000E+00
 -1        51 2.38856E-03-9.45818E-08 0.00000E+00
 -1        52 2.38670E-03-1.72751E-07 0.00000E+00
 -1        53 2.38415E-03-2.48413E-07 0.00000E+00
 -1        54 2.38109E-03-3.23734E-07 0.00000E+00
 -1        55 2.37770E-03-4.00343E-07 1.34417E-24
 -1        56 2.38513E-03 1.19330E-06 5.29396E-23
 -1        57 2.37885E-03 6.86500E-06 5.29396E-23
 -1        58 2.37143E-03 1.55290E-05 1.05879E-22
 -1        59 2.36352E-03 2.53827E-05 0.00000E+00
 -1        60 2.35591E-03 3.44472E-05 0.00000E+00
 -1        61 2.34934E-03 4.07988E-05-5.29396E-23
 -1        62 2.34437E-03 4.29677E-05 1.05879E-22
 -1        63 2.34139E-03 3.98293E-05 5.29396E-23
 -1        64 2.34046E-03 3.11504E-05 1.05879E-22
 -1        65 2.34146E-03 1.71639E-05 0.00000E+00
 -1        66 2.34397E-03-9.98560E-07 0.00000E+00
 -1        67 2.34743E-03-2.18489E-05 5.29396E-23
 -1        68 2.35116E-03-4.34418E-05 1.05879E-22
 -1        69 2.35446E-03-6.37610E-05-5.29396E-23
 -1        70 2.35666E-03-8.10205E-05-5.29396E-23
 -1        86 1.48471E-03-3.39889E-06 0.00000E+00
 -1        87 1.65486E-03-1.91898E-05-1.32349E-23
 -1        88 1.88362E-03-4.57863E-05-2.64698E-23
 -1        89 2.11488E-03-7.29588E-05 0.00000E+00
 -1        90 2.29118E-03-8.97423E-05-2.64698E-23
 -1       121 3.27824E-04-5.62879E-07 1.32349E-23
 -1       122 3.25254E-04-1.12858E-06 0.00000E+00
 -1       123 3.20980E-04-1.69989E-06 1.32349E-23
 -1       124 3.15019E-04-2.27959E-06 0.00000E+00
 -1       125 3.07394E-04-2.87008E-06 1.32349E-23
 -1       191 1.71957E-04 1.31780E-07 2.48154E-24
 -1       192 1.72094E-04 2.63550E-07 3.10193E-25
 -1       193 1.72323E-04 3.95304E-07 1.65436E-24
 -1       194 1.72643E-04 5.27033E-07-1.34417E-24
 -1       195 1.73054E-04 6.58725E-07 2.27475E-24
 -1       251 2.37352E-03-6.09693E-06-1.32349E-23
 -1       252 2.37263E-03-2.89470E-05 0.00000E+00
 -1       253 2.37138E-03-6.51773E-05 1.32349E-23
 -1       254 2.36976E-03-1.10583E-04 6.61744E-24
 -1       255 2.36804E-03-1.58234E-04 0.00000E+00
 -1       256 2.36653E-03-2.01142E-04 0.00000E+00
 -1       257 2.36538E-03-2.33737E-04 0.00000E+00
 -1       258 2.36460E-03-2.50712E-04-1.32349E-23
 -1       259 2.36396E-03-2.51364E-04 2.64698E-23
 -1       260 2.36320E-03-2.35417E-04 1.32349E-23
 -1       261 2.36219E-03-2.07481E-04 0.00000E+00
 -1       262 2.36097E-03-1.72472E-04 1.32349E-23
 -1       263 2.35975E-03-1.37420E-04 0.00000E+00
 -1       264 2.35875E-03-1.09356E-04 1.32349E-23
 -1       265 2.35798E-03-9.32186E-05 0.00000E+00
 -1       266 2.37111E-03-4.96480E-07-3.30872E-24
 -1       267 2.36806E-03-5.02440E-07 0.00000E+00
 -1       268 2.36502E-03-5.08903E-07 0.00000E+00
 -1       269 2.36197E-03-5.13873E-07 2.06795E-25
 -1       270 2.35892E-03-5.18808E-07-2.06795E-25
 -1       271 2.37255E-03 1.63192E-06-1.32349E-23
 -1       272 2.37141E-03 2.41982E-06 0.00000E+00
 -1       273 2.37076E-03 1.90634E-06 0.00000E+00
 -1       274 2.37059E-03 1.19017E-07 0.00000E+00
 -1       275 2.37087E-03-2.89944E-06 2.64698E-23
 -1       276 2.37159E-03-7.09621E-06-1.32349E-23
 -1       277 2.37273E-03-1.24065E-05-2.64698E-23
 -1       278 2.37424E-03-1.87552E-05 1.32349E-23
 -1       279 2.37611E-03-2.60571E-05 2.64698E-23
 -1       280 2.37829E-03-3.42179E-05 0.00000E+00
 -1       281 2.38075E-03-4.31350E-05-2.64698E-23
 -1       282 2.38344E-03-5.26986E-05 0.00000E+00
 -1       283 2.38633E-03-6.27925E-05 2.64698E-23
 -1       284 2.38937E-03-7.32950E-05 0.00000E+00
 -1       285 2.39251E-03-8.40817E-05 2.64698E-23
 -1       301 2.36429E-03-9.39002E-05-6.61744E-24
 -1       302 2.36995E-03-9.41192E-05 6.61744E-24
 -1       303 2.37512E-03-9.43327E-05-1.32349E-23
 -1       304 2.38060E-03-9.45468E-05 0.00000E+00
 -1       305 2.38720E-03-9.47693E-05 0.00000E+00
 -1       306 2.39266E-03-2.34513E-04 0.00000E+00
 -1       307 2.45717E-03-6.21230E-04-5.29396E-23
 -1       308 2.51020E-03-1.19133E-03-1.05879E-22
 -1       309 2.54373E-03-1.85618E-03-5.29396E-23
 -1       310 2.58223E-03-2.49793E-03 0.00000E+00
 -1       311 2.64347E-03-3.00077E-03 5.29396E-23
 -1       312 2.70244E-03-3.28795E-03 0.00000E+00
 -1       313 2.70603E-03-3.31933E-03 0.00000E+00
 -1       314 2.58869E-03-3.10323E-03-1.05879E-22
 -1       315 2.31160E-03-2.69474E-03 0.00000E+00
 -1       316 1.88948E-03-2.16527E-03 0.00000E+00
 -1       317 1.37977E-03-1.58219E-03 0.00000E+00
 -1       318 8.85231E-04-1.00809E-03-1.05879E-22
 -1       319 5.04141E-04-5.08298E-04-5.29396E-23
 -1       320 2.78042E-04-1.52328E-04 0.00000E+00
 -1       336 2.87062E-04-4.14146E-06 0.00000E+00
 -1       337 2.74010E-04-4.83175E-06 0.00000E+00
 -1       338 2.59038E-04-5.54741E-06 0.00000E+00
 -1       339 2.42218E-04-6.28903E-06 6.61744E-24
 -1       340 2.23632E-04-7.06080E-06 0.00000E+00
 -1       406 1.74152E-04 9.21949E-07 3.10193E-24
 -1       407 1.74838E-04 1.05343E-06 6.20385E-25
 -1       408 1.75615E-04 1.18477E-06 2.89513E-24
 -1       409 1.76484E-04 1.31579E-06-1.64144E-24
 -1       410 1.77445E-04 1.44623E-06 2.48154E-24
 -1       521 2.43182E-03-2.44930E-04 0.00000E+00
 -1       522 2.49513E-03-6.50805E-04-5.29396E-23
 -1       523 2.54294E-03-1.24712E-03-1.05879E-22
 -1       524 2.56870E-03-1.93906E-03-5.29396E-23
 -1       525 2.60039E-03-2.60609E-03-1.05879E-22
 -1       526 2.65852E-03-3.12999E-03 0.00000E+00
 -1       527 2.71716E-03-3.42793E-03 2.11758E-22
 -1       528 2.71907E-03-3.45875E-03 5.29396E-23
 -1       529 2.59197E-03-3.23040E-03 0.00000E+00
 -1       530 2.29473E-03-2.80468E-03 0.00000E+00
 -1       531 1.84246E-03-2.25637E-03-1.05879E-22
 -1       532 1.29806E-03-1.65570E-03 5.29396E-23
 -1       533 7.69093E-04-1.06349E-03 0.00000E+00
 -1       534 3.58532E-04-5.43442E-04-5.29396E-23
 -1       535 1.13417E-04-1.68989E-04 1.05879E-22
 -1       536 2.02665E-04 2.55400E-05 0.00000E+00
 -1       537 2.00894E-04 8.34257E-05 0.00000E+00
 -1       538 1.98162E-04 1.56909E-04 3.30872E-24
 -1       539 1.94942E-04 2.37009E-04 0.00000E+00
 -1       540 1.92042E-04 3.12703E-04-3.30872E-24
 -1       541 1.90153E-04 3.72987E-04-1.65436E-24
 -1       542 1.89276E-04 4.11359E-04 0.00000E+00
 -1       543 1.89059E-04 4.21455E-04 0.00000E+00
 -1       544 1.88750E-04 4.04030E-04-3.30872E-24
 -1       545 1.87656E-04 3.60049E-04 0.00000E+00
 -1       546 1.85628E-04 2.97336E-04-3.30872E-24
 -1       547 1.82892E-04 2.23833E-04 1.65436E-24
 -1       548 1.80183E-04 1.50726E-04 3.30872E-24
 -1       549 1.78227E-04 8.91996E-05 1.65436E-24
 -1       550 1.77207E-04 4.69701E-05 1.65436E-24
 -1       551 1.79254E-04-8.39653E-06 0.00000E+00
 -1       552 1.51983E-04-9.01939E-06 0.00000E+00
 -1       553 1.22482E-04-9.69997E-06-1.65436E-24
 -1       554 9.16961E-05-1.04185E-05-3.30872E-24
 -1       555 6.05714E-05-1.11490E-05 0.00000E+00
 -1       556 1.96087E-04 1.07882E-05-5.29396E-23
 -1       557 1.90213E-04 2.58786E-05 0.00000E+00
 -1       558 1.85617E-04 3.77011E-05 0.00000E+00
 -1       559 1.82170E-04 4.65557E-05 0.00000E+00
 -1       560 1.79749E-04 5.27424E-05 0.00000E+00
 -1       561 1.78229E-04 5.65640E-05 0.00000E+00
 -1       562 1.77491E-04 5.83241E-05 0.00000E+00
 -1       563 1.77414E-04 5.83273E-05 0.00000E+00
 -1       564 1.77882E-04 5.68792E-05 0.00000E+00
 -1       565 1.78778E-04 5.42857E-05 0.00000E+00
 -1       566 1.79986E-04 5.08534E-05 0.00000E+00
 -1       567 1.81392E-04 4.68893E-05 0.00000E+00
 -1       568 1.82881E-04 4.27003E-05-8.27181E-25
 -1       569 1.84340E-04 3.85934E-05 0.00000E+00
 -1       570 1.85654E-04 3.48758E-05 0.00000E+00
 -1       571 1.77029E-04 2.96826E-05 0.00000E+00
 -1       572 1.77126E-04 2.76698E-05 4.13590E-25
 -1       573 1.77223E-04 2.56085E-05 3.30872E-24
 -1       574 1.77321E-04 2.35142E-05-8.27181E-25
 -1       575 1.77418E-04 2.14028E-05 3.30872E-24
 -1       576 1.77515E-04 1.92901E-05 1.65436E-24
 -1       577 1.77613E-04 1.71919E-05 3.30872E-24
 -1       578 1.77711E-04 1.51242E-05 0.00000E+00
 -1       579 1.77808E-04 1.31027E-05 0.00000E+00
 -1       580 1.77906E-04 1.11433E-05 6.61744E-24
 -1       581 1.78004E-04 9.26185E-06 0.00000E+00
 -1       582 1.78102E-04 7.47424E-06 0.00000E+00
 -1       583 1.78201E-04 5.79626E-06 6.61744E-24
 -1       584 1.78299E-04 4.24359E-06 0.00000E+00
 -1       585 1.78397E-04 2.83173E-06 0.00000E+00
 -1       586 1.78522E-04 3.16702E-05 3.30872E-24
 -1       587 1.80069E-04 3.17081E-05 0.00000E+00
 -1       588 1.81620E-04 3.17457E-05-8.27181E-25
 -1       589 1.83216E-04 3.17825E-05 0.00000E+00
 -1       590 1.84899E-04 3.18182E-05 0.00000E+00
 -1       591 1.77600E-04 2.97718E-05 1.03398E-25
 -1       592 1.78269E-04 2.78911E-05 2.06795E-25
 -1       593 1.78944E-04 2.59958E-05-8.27181E-25
 -1       594 1.79621E-04 2.40903E-05-4.13590E-25
 -1       595 1.80301E-04 2.21797E-05 8.27181E-25
 -1       596 1.80980E-04 2.02686E-05 0.00000E+00
 -1       597 1.81658E-04 1.83619E-05 8.27181E-25
 -1       598 1.82332E-04 1.64643E-05 0.00000E+00
 -1       599 1.83002E-04 1.45804E-05 8.27181E-25
 -1       600 1.83664E-04 1.27152E-05 0.00000E+00
 -1       601 1.84318E-04 1.08733E-05 8.27181E-25
 -1       602 1.84961E-04 9.05940E-06 0.00000E+00
 -1       603 1.85592E-04 7.27839E-06 0.00000E+00
 -1       604 1.86210E-04 5.53506E-06 2.58494E-26
 -1       605 1.86812E-04 3.83408E-06 0.00000E+00
 -1       606 1.78509E-04 5.45193E-07-3.30872E-24
 -1       607 1.78519E-04-3.97524E-07 0.00000E+00
 -1       608 1.78528E-04-1.25837E-06 0.00000E+00
 -1       609 1.78536E-04-2.04311E-06 1.65436E-24
 -1       610 1.78545E-04-2.75754E-06 0.00000E+00
 -1       611 1.78553E-04-3.40755E-06 0.00000E+00
 -1       612 1.78562E-04-3.99900E-06 0.00000E+00
 -1       613 1.78570E-04-4.53779E-06 0.00000E+00
 -1       614 1.78579E-04-5.02979E-06 0.00000E+00
 -1       615 1.78587E-04-5.48090E-06 8.27181E-25
 -1       616 1.78596E-04-5.89701E-06 0.00000E+00
 -1       617 1.78604E-04-6.28400E-06 4.13590E-25
 -1       618 1.78613E-04-6.64775E-06 0.00000E+00
 -1       619 1.78621E-04-6.99416E-06 0.00000E+00
 -1       620 1.78630E-04-7.32911E-06 0.00000E+00
 -1       621 1.79712E-04 1.67646E-06-1.65436E-24
 -1       622 1.81077E-04 1.77830E-06-8.27181E-25
 -1       623 1.82560E-04 1.87996E-06-1.65436E-24
 -1       624 1.84129E-04 1.98131E-06-1.65436E-24
 -1       625 1.85753E-04 2.08239E-06 3.30872E-24
 -1       626 1.78992E-04 5.80507E-07 3.30872E-24
 -1       627 1.79464E-04-3.49254E-07 0.00000E+00
 -1       628 1.79916E-04-1.22225E-06 0.00000E+00
 -1       629 1.80350E-04-2.04668E-06 0.00000E+00
 -1       630 1.80768E-04-2.83073E-06 3.30872E-24
 -1       631 1.81175E-04-3.58265E-06 1.65436E-24
 -1       632 1.81573E-04-4.31064E-06 3.30872E-24
 -1       633 1.81964E-04-5.02295E-06-1.65436E-24
 -1       634 1.82353E-04-5.72781E-06-3.30872E-24
 -1       635 1.82743E-04-6.43342E-06 0.00000E+00
 -1       636 1.83135E-04-7.14805E-06 0.00000E+00
 -1       637 1.83534E-04-7.87990E-06 0.00000E+00
 -1       638 1.83943E-04-8.63721E-06 0.00000E+00
 -1       639 1.84363E-04-9.42824E-06-8.27181E-25
 -1       640 1.84799E-04-1.02612E-05 1.65436E-24
 -1       656 1.79199E-04-8.22512E-06 6.61744E-24
 -1       657 1.80176E-04-8.81477E-06 0.00000E+00
 -1       658 1.81431E-04-9.40302E-06-1.32349E-23
 -1       659 1.82818E-04-9.99093E-06 6.61744E-24
 -1       660 1.84152E-04-1.05806E-05 0.00000E+00
 -1       661 1.78848E-04-8.03161E-06-8.27181E-25
 -1       662 1.79095E-04-8.49401E-06-8.27181E-25
 -1       663 1.79374E-04-9.04069E-06 0.00000E+00
 -1       664 1.79682E-04-9.66541E-06 8.27181E-25
 -1       665 1.80017E-04-1.03626E-05 0.00000E+00
 -1       666 1.80378E-04-1.11266E-05 0.00000E+00
 -1       667 1.80761E-04-1.19519E-05 1.65436E-24
 -1       668 1.81166E-04-1.28333E-05 0.00000E+00
 -1       669 1.81589E-04-1.37656E-05 1.65436E-24
 -1       670 1.82030E-04-1.47437E-05 0.00000E+00
 -1       671 1.82486E-04-1.57626E-05-1.65436E-24
 -1       672 1.82955E-04-1.68175E-05-8.27181E-25
 -1       673 1.83436E-04-1.79037E-05 0.00000E+00
 -1       674 1.83925E-04-1.90166E-05 8.27181E-25
 -1       675 1.84424E-04-2.01512E-05-4.13590E-25
 -1       676 1.78969E-04-2.07953E-05-3.30872E-24
 -1       677 1.80164E-04-2.08978E-05 0.00000E+00
 -1       678 1.81358E-04-2.10004E-05 0.00000E+00
 -1       679 1.82549E-04-2.11026E-05 0.00000E+00
 -1       680 1.83738E-04-2.12048E-05 0.00000E+00
 -1       771 1.86133E-05 1.36210E-05-5.29396E-23
 -1       772 8.98323E-06 3.45712E-05 5.29396E-23
 -1       773 1.07154E-06 5.11850E-05-5.29396E-23
 -1       774-5.23965E-06 6.37098E-05 0.00000E+00
 -1       775-1.00658E-05 7.24027E-05 5.29396E-23
 -1       776-1.35272E-05 7.75365E-05 0.00000E+00
 -1       777-1.57437E-05 7.93933E-05-5.29396E-23
 -1       778-1.68379E-05 7.82684E-05 2.64698E-23
 -1       779-1.69318E-05 7.44648E-05 5.29396E-23
 -1       780-1.61495E-05 6.82964E-05 0.00000E+00
 -1       781-1.46140E-05 6.00833E-05 0.00000E+00
 -1       782-1.24502E-05 5.01539E-05 0.00000E+00
 -1       783-9.78194E-06 3.88410E-05 0.00000E+00
 -1       784-6.73436E-06 2.64831E-05 0.00000E+00
 -1       785-3.43175E-06 1.34215E-05 0.00000E+00
 -1       786 1.86751E-04 2.97706E-05 2.58494E-26
 -1       787 1.86794E-04 2.77407E-05 4.13590E-25
 -1       788 1.86836E-04 2.57521E-05 0.00000E+00
 -1       789 1.86879E-04 2.37967E-05 0.00000E+00
 -1       790 1.86922E-04 2.18698E-05 0.00000E+00
 -1       791 1.86965E-04 1.99667E-05 8.27181E-25
 -1       792 1.87008E-04 1.80852E-05 0.00000E+00
 -1       793 1.87052E-04 1.62232E-05 8.27181E-25
 -1       794 1.87095E-04 1.43805E-05 0.00000E+00
 -1       795 1.87138E-04 1.25569E-05 8.27181E-25
 -1       796 1.87182E-04 1.07542E-05 0.00000E+00
 -1       797 1.87225E-04 8.97441E-06 8.27181E-25
 -1       798 1.87269E-04 7.22164E-06 1.65436E-24
 -1       799 1.87313E-04 5.50022E-06 0.00000E+00
 -1       800 1.87356E-04 3.81759E-06 1.65436E-24
 -1       801 1.43291E-04 2.85850E-05 0.00000E+00
 -1       802 1.18974E-05 1.79176E-05 0.00000E+00
 -1       803-1.00733E-04 9.10391E-06 5.29396E-23
 -1       804-8.99851E-05 6.31398E-06 0.00000E+00
 -1       805-2.98057E-05 2.52419E-06 0.00000E+00
 -1       806 1.87379E-04 2.97035E-05 0.00000E+00
 -1       807 1.88033E-04 2.75833E-05-1.65436E-24
 -1       808 1.88673E-04 2.54942E-05-3.30872E-24
 -1       809 1.89301E-04 2.34403E-05 0.00000E+00
 -1       810 1.89913E-04 2.14255E-05-3.30872E-24
 -1       811 1.90509E-04 1.94536E-05 1.65436E-24
 -1       812 1.91089E-04 1.75282E-05 0.00000E+00
 -1       813 1.91649E-04 1.56534E-05 0.00000E+00
 -1       814 1.92189E-04 1.38326E-05 0.00000E+00
 -1       815 1.92707E-04 1.20698E-05 1.65436E-24
 -1       816 1.93203E-04 1.03687E-05 3.30872E-24
 -1       817 1.93674E-04 8.73299E-06 0.00000E+00
 -1       818 1.94119E-04 7.16644E-06-1.65436E-24
 -1       819 1.94537E-04 5.67278E-06-1.65436E-24
 -1       820 1.94927E-04 4.25567E-06 0.00000E+00
 -1       821 1.87274E-04 1.25084E-07 0.00000E+00
 -1       822 1.87137E-04-2.81300E-06 1.65436E-24
 -1       823 1.87000E-04-6.28800E-06 0.00000E+00
 -1       824 1.86860E-04-9.95163E-06 0.00000E+00
 -1       825 1.86721E-04-1.34055E-05 3.30872E-24
 -1       826 1.86584E-04-1.62522E-05-1.65436E-24
 -1       827 1.86448E-04-1.82576E-05-3.30872E-24
 -1       828 1.86314E-04-1.91928E-05-1.65436E-24
 -1       829 1.86180E-04-1.91161E-05 0.00000E+00
 -1       830 1.86046E-04-1.80922E-05 0.00000E+00
 -1       831 1.85911E-04-1.64399E-05-3.30872E-24
 -1       832 1.85776E-04-1.44822E-05 0.00000E+00
 -1       833 1.85641E-04-1.26239E-05 3.30872E-24
 -1       834 1.85509E-04-1.12693E-05-1.65436E-24
 -1       835 1.85376E-04-1.06880E-05 0.00000E+00
 -1       836 1.88923E-04 2.30367E-06 0.00000E+00
 -1       837 1.90320E-04 2.42905E-06 0.00000E+00
 -1       838 1.91624E-04 2.55436E-06 0.00000E+00
 -1       839 1.92865E-04 2.67897E-06-8.27181E-25
 -1       840 1.94076E-04 2.80341E-06 0.00000E+00
 -1       856 1.85235E-04-1.20499E-05 8.27181E-25
 -1       857 1.85215E-04-1.28214E-05 0.00000E+00
 -1       858 1.85195E-04-1.34800E-05 0.00000E+00
 -1       859 1.85174E-04-1.40464E-05 0.00000E+00
 -1       860 1.85154E-04-1.45416E-05 0.00000E+00
 -1       861 1.85133E-04-1.49866E-05 0.00000E+00
 -1       862 1.85113E-04-1.54025E-05 0.00000E+00
 -1       863 1.85092E-04-1.58103E-05 0.00000E+00
 -1       864 1.85071E-04-1.62311E-05 0.00000E+00
 -1       865 1.85051E-04-1.66860E-05 0.00000E+00
 -1       866 1.85030E-04-1.71960E-05-8.27181E-25
 -1       867 1.85009E-04-1.77821E-05 4.13590E-25
 -1       868 1.84988E-04-1.84652E-05-8.27181E-25
 -1       869 1.84967E-04-1.92662E-05 0.00000E+00
 -1       870 1.84946E-04-2.02058E-05 0.00000E+00
 -1       871 1.86439E-04-1.11490E-05 0.00000E+00
 -1       872 1.87771E-04-1.11567E-05 0.00000E+00
 -1       873 1.89181E-04-1.11651E-05 0.00000E+00
 -1       874 1.90602E-04-1.11743E-05 1.29247E-25
 -1       875 1.91969E-04-1.11840E-05-4.13590E-25
 -1       876 1.85716E-04-1.20357E-05 0.00000E+00
 -1       877 1.86159E-04-1.28610E-05 0.00000E+00
 -1       878 1.86580E-04-1.36284E-05 3.30872E-24
 -1       879 1.86983E-04-1.43451E-05 1.65436E-24
 -1       880 1.87369E-04-1.50185E-05-3.30872E-24
 -1       881 1.87742E-04-1.56558E-05 0.00000E+00
 -1       882 1.88105E-04-1.62643E-05 3.30872E-24
 -1       883 1.88459E-04-1.68511E-05 0.00000E+00
 -1       884 1.88808E-04-1.74237E-05 0.00000E+00
 -1       885 1.89154E-04-1.79891E-05 0.00000E+00
 -1       886 1.89500E-04-1.85546E-05 0.00000E+00
 -1       887 1.89849E-04-1.91276E-05 1.65436E-24
 -1       888 1.90203E-04-1.97151E-05-3.30872E-24
 -1       889 1.90564E-04-2.03247E-05 1.65436E-24
 -1       890 1.90936E-04-2.09635E-05 0.00000E+00
 -1       891 1.86129E-04-2.13612E-05 0.00000E+00
 -1       892 1.87312E-04-2.14178E-05 0.00000E+00
 -1       893 1.88447E-04-2.14742E-05 8.27181E-25
 -1       894 1.89509E-04-2.15305E-05 0.00000E+00
 -1       895 1.90474E-04-2.15864E-05-4.13590E-25
 -1       956 1.95161E-04 1.75177E-06 1.65436E-24
 -1       957 1.95032E-04 6.73684E-07 1.65436E-24
 -1       958 1.94902E-04-3.25878E-07-3.30872E-24
 -1       959 1.94771E-04-1.25789E-06 1.65436E-24
 -1       960 1.94641E-04-2.13337E-06-3.30872E-24
 -1       961 1.94511E-04-2.96337E-06-1.65436E-24
 -1       962 1.94381E-04-3.75894E-06 3.30872E-24
 -1       963 1.94251E-04-4.53118E-06 1.65436E-24
 -1       964 1.94121E-04-5.29116E-06 3.30872E-24
 -1       965 1.93991E-04-6.04995E-06-1.65436E-24
 -1       966 1.93861E-04-6.81864E-06-3.30872E-24
 -1       967 1.93730E-04-7.60829E-06 0.00000E+00
 -1       968 1.93600E-04-8.42998E-06 0.00000E+00
 -1       969 1.93471E-04-9.29474E-06-1.65436E-24
 -1       970 1.93341E-04-1.02136E-05 0.00000E+00
 -1       971 1.93096E-04-1.21785E-05-3.30872E-24
 -1       972 1.92977E-04-1.30663E-05 0.00000E+00
 -1       973 1.92857E-04-1.38706E-05-3.30872E-24
 -1       974 1.92738E-04-1.46022E-05-1.65436E-24
 -1       975 1.92619E-04-1.52720E-05 0.00000E+00
 -1       976 1.92500E-04-1.58906E-05 1.65436E-24
 -1       977 1.92380E-04-1.64689E-05-3.30872E-24
 -1       978 1.92261E-04-1.70176E-05 0.00000E+00
 -1       979 1.92142E-04-1.75477E-05-3.30872E-24
 -1       980 1.92023E-04-1.80697E-05 1.65436E-24
 -1       981 1.91904E-04-1.85947E-05 0.00000E+00
 -1       982 1.91785E-04-1.91334E-05 1.65436E-24
 -1       983 1.91666E-04-1.96965E-05 0.00000E+00
 -1       984 1.91547E-04-2.02950E-05 0.00000E+00
 -1       985 1.91429E-04-2.09395E-05-3.30872E-24
 -3
    1PSTEP                        38          19           1          
  100CL  119 6.53548E-01         409                     0   19           1
 -4  STRESS      6    1
 -5  SXX         1    4    1    1
 -5  SYY         1    4    2    2
 -5  SZZ         1    4    3    3
 -5  SXY         1    4    1    2
 -5  SYZ         1    4    2    3
 -5  SZX         1    4    3    1
 -1         1-4.76181E+06-1.67879E+06-1.03274E+06-1.59914E+06 2.29920E-09-1.16590E-07
 -1         2 6.39978E+05 8.85338E+06 2.40752E+06 2.88521E+06 1.84518E-08 1.58012E-07
 -1         3-1.35763E+03-1.59927E+06 4.07453E+02-2.16842E+03-5.67255E-10-1.39771E-08
 -1         5-5.99943E+01 3.77307E+05 9.74485E+00-1.14406E+00-4.91607E-10 1.82954E-08
 -1         8-8.08136E+05-2.60809E+05-1.02096E+05-3.31219E+05 2.40107E-10 1.97299E-07
 -1         9 9.61927E+06 1.40903E+06 1.98486E+06-7.03253E+05 4.09782E-09-2.91737E-08
 -1        10-2.21522E+03-1.66656E+06-3.92430E+03-1.46607E+04-1.30985E-08-2.26474E-08
 -1        12-5.61302E+01 3.77328E+05 3.19424E+02-7.87332E+00-7.42677E-10 4.25098E-09
 -1        15 1.17633E+03 6.46455E+02 3.80247E+03 1.54988E+00-4.36629E-10 3.05247E-07
 -1        16 2.00351E+07-2.11319E+05 2.77839E+06-1.74470E+06 1.02640E-08-1.98837E-07
 -1        17 7.28815E+06 5.31725E+06 1.96388E+06 5.15527E+06 1.90688E-08 3.69502E-08
 -1        18 1.26813E+05 2.93082E+04 1.07386E+03-1.15718E+05 1.28468E-08 4.78485E-09
 -1        19 1.19742E+05 1.38477E+05-9.27913E+02 2.16718E+04 1.38953E-09-7.05186E-09
 -1        20-7.85965E+04-5.61677E+05-1.25921E+05 2.55192E+04-1.95557E-09-6.43437E-09
 -1        21-4.52906E+01-2.91808E+05-9.12748E+02 2.39346E+02 1.30046E-08-3.37328E-08
 -1        24 1.20239E+07 1.02605E+07 3.35950E+06 9.53062E+06-1.58800E-07-5.79748E-08
 -1        25 9.79550E+04 1.68274E+05 7.46397E+04-5.87110E+05-1.84209E-09 4.59131E-09
 -1        26-5.39863E+04 9.00591E+04-2.41304E+04 7.20188E+02 2.67391E-10 1.64669E-08
 -1        27-7.51574E+04-3.03758E+05-1.11282E+05 6.76167E+04 4.22187E-09 6.75421E-09
 -1        28 2.19783E+04-8.39246E+04 1.66498E+04 2.06436E+04-3.33102E-09 3.08034E-10
 -1        32-1.65435E+06-3.08239E+06-1.84915E+05 3.52638E+05-4.05853E-08-7.20388E-09
 -1        33-1.75131E+05 9.07951E+04 3.16926E+04-3.80635E+04-2.36923E-09 2.41456E-08
 -1        34-2.19528E+05-2.43748E+04 6.68677E+02 7.38519E+04-4.42663E-09-9.72674E-09
 -1        35-2.26314E+04-3.32862E+04-1.32499E+03 5.07735E+04-2.55872E-09-1.21957E-08
 -1        51 5.30900E+04-1.99797E+05 1.16320E+05-5.83020E+05-4.36557E-11-2.11039E-07
 -1        52 1.88967E+04-1.80407E+05 6.23210E+04-6.82518E+05-5.45697E-10 5.97684E-08
 -1        53 4.76840E+03-1.96229E+05 3.43187E+04-5.80912E+05-1.56433E-10-1.29861E-07
 -1        54 1.03029E+04-1.92351E+05 3.19488E+04-6.84654E+05-4.94765E-10-8.01992E-08
 -1        55 2.16502E+04-2.01273E+05 4.31594E+04-5.80684E+05-3.63798E-11 2.66245E-07
 -1        56-8.85438E+06-1.03822E+06-7.69089E+05-3.50686E+06-2.44763E-08 1.06811E-08
 -1        57-9.50075E+06-1.37611E+06-5.15409E+05-3.07668E+06 4.44816E-08 1.13738E-07
 -1        58-8.94761E+06-1.33301E+06-1.79665E+05-3.51806E+06-1.00626E-08 3.69619E-08
 -1        59-9.37220E+06-1.04771E+06-1.06653E+05-3.09102E+06 9.27685E-09-7.92406E-08
 -1        60-8.98429E+06-1.35552E+06-4.25926E+04-3.49803E+06-8.98581E-10-3.11298E-07
 -1        61-9.24700E+06-1.09097E+06-2.10233E+04-3.18181E+06-1.98734E-08 2.14288E-07
 -1        62-9.06313E+06-1.29482E+06-1.54128E+04-3.42073E+06-2.00453E-09 9.56716E-08
 -1        63-9.07152E+06-1.24586E+06-5.03231E+03-3.35845E+06 3.29310E-08-2.46528E-08
 -1        64-9.15258E+06-1.20541E+06-1.46041E+04-3.31640E+06 6.54836E-10 1.10444E-07
 -1        65-8.93282E+06-1.40420E+06-1.87319E+04-3.54813E+06 4.02724E-09-9.91150E-08
 -1        66-9.20902E+06-1.13171E+06-3.82035E+04-3.23631E+06 9.76979E-09 9.09695E-08
 -1        67-8.89542E+06-1.51626E+06-9.52646E+04-3.64407E+06-1.29194E-08-1.09889E-07
 -1        68-9.19969E+06-1.08802E+06-1.60574E+05-3.22670E+06-3.00861E-08-1.07175E-07
 -1        69-9.07730E+06-1.74144E+06-4.60301E+05-3.55078E+06 8.07449E-09-1.07953E-07
 -1        70-9.02517E+06-9.17113E+05-6.87823E+05-3.32439E+06-7.47241E-09 1.04716E-07
 -1        86-6.50183E+05-8.98858E+06-1.31316E+06-1.38131E+06-1.88498E-07-4.99858E-09
 -1        87 9.39256E+05 1.60966E+06 1.09078E+06 3.02564E+06-3.23955E-07 1.73532E-07
 -1        88-1.35663E+05-2.58410E+06 8.79198E+04-1.61429E+06-2.86005E-07 4.20293E-08
 -1        89 1.27159E+06 1.47929E+06 1.09581E+06 3.10271E+06-4.15486E-07-2.63775E-07
 -1        90-9.48525E+05-8.88926E+06-1.44516E+06-1.46527E+06-1.06960E-07-5.23869E-08
 -1       121-1.86487E+03-1.60377E+06-4.56792E+02 1.07579E+03 1.52035E-09-2.11585E-08
 -1       122-1.17305E+03-1.59932E+06 7.84796E+02-4.33828E+03-5.17554E-09-2.12458E-08
 -1       123-1.89118E+03-1.60391E+06 3.79856E+02 3.21240E+03 3.86365E-09 2.07692E-08
 -1       124 4.89520E+02-1.59882E+06 3.04388E+03-9.06447E+03-1.04178E-08 1.22927E-08
 -1       125-2.73356E+03-1.60482E+06 3.70001E+03 5.76248E+03 6.02449E-09-8.46194E-09
 -1       191-6.32827E+01 3.77328E+05 8.96822E+00 5.92569E-01-5.40687E-10 1.75642E-08
 -1       192-6.09255E+01 3.77308E+05 2.07622E+01-3.74231E+00-7.25288E-10-1.29294E-08
 -1       193-6.57388E+01 3.77327E+05 3.60056E+01 3.27595E+00-9.72310E-10-2.31194E-09
 -1       194-6.39131E+01 3.77311E+05 7.88483E+01-8.51785E+00-4.35438E-10-1.15824E-08
 -1       195-7.04541E+01 3.77325E+05 1.51614E+02 5.50931E+00-1.32118E-09-2.34068E-08
 -1       251-1.90998E+06 2.65545E+04-1.41397E+05 4.31807E+04 3.22689E-09 2.27374E-08
 -1       252-1.63832E+06-3.16327E+04-3.87872E+04-1.58125E+05 5.08862E-09-3.62479E-08
 -1       253-1.81725E+06-6.40719E+02-3.57991E+04 1.45207E+05-5.47334E-09 1.04865E-08
 -1       254-1.77485E+06 1.13867E+04-1.00215E+04-2.75560E+05 4.86028E-09-8.07513E-08
 -1       255-1.78857E+06-3.85007E+03-7.76043E+03 1.61287E+05-6.69024E-09 5.31140E-08
 -1       256-1.68196E+06 1.46328E+04 1.96419E+04-2.15645E+05 6.74981E-09 6.42037E-08
 -1       257-1.90129E+06-1.11470E+04-2.65373E+04 8.48179E+04 1.10049E-09 1.79126E-07
 -1       258-1.53785E+06 1.01769E+04 4.91188E+04-1.16587E+04-1.68056E-08-4.69065E-08
 -1       259-1.91868E+06-1.09107E+04-2.80938E+04-4.26864E+04 2.21717E-08-1.26365E-07
 -1       260-1.64328E+06 1.08171E+04 3.11570E+04 2.07437E+05-9.37143E-09-1.73499E-07
 -1       261-1.80660E+06-2.95603E+03-9.42377E+02-1.33781E+05-1.55201E-08-1.73201E-07
 -1       262-1.76690E+06 1.65692E+04 1.36444E+04 2.98467E+05 1.42174E-08 2.42744E-09
 -1       263-1.80759E+06-6.31741E+03 7.33732E+03-1.34078E+05 3.44153E-09 1.49775E-07
 -1       264-1.63123E+06 4.02061E+04 6.23928E+04 2.08924E+05-4.52983E-08 1.80228E-07
 -1       265-1.92982E+06-3.67343E+04 1.29558E+04-4.38779E+04-9.55151E-09 1.14660E-07
 -1       266-2.12956E+04-9.95827E+03 4.99635E+04-3.31616E+01-7.27596E-11-8.46672E-08
 -1       267 2.46874E+04 1.16059E+04 3.53145E+04 3.82632E+01-1.34605E-10 5.59354E-09
 -1       268-3.31054E+03-1.64375E+03 1.31262E+04-4.87533E+00 9.27685E-11-4.68795E-09
 -1       269 3.90876E+03 1.96718E+03 8.53186E+03 5.67911E+00-1.16870E-10-1.72903E-07
 -1       270-5.86710E+02-3.23225E+02 4.11845E+03-7.70692E-01-1.46656E-11 1.88578E-07
 -1       271-1.82497E+06-2.25305E+05-1.33996E+05-7.03994E+05 4.99313E-10 3.26690E-08
 -1       272-1.87628E+06-3.17386E+05-8.58307E+04-6.96708E+05-2.56882E-08-1.11177E-07
 -1       273-1.85142E+06-2.57277E+05-3.18571E+04-6.96545E+05-2.34322E-08 5.53737E-08
 -1       274-1.84426E+06-2.79275E+05-1.75482E+04-7.08945E+05 1.63054E-08 3.73234E-08
 -1       275-1.85661E+06-2.58986E+05-7.58884E+03-6.93556E+05-5.70435E-09 2.23426E-08
 -1       276-1.83707E+06-2.78487E+05-3.74918E+03-7.14740E+05-3.90492E-08 8.52378E-08
 -1       277-1.85899E+06-2.57348E+05-2.04489E+03-6.91238E+05 2.10584E-08 5.66561E-08
 -1       278-1.83352E+06-2.81527E+05-1.12235E+03-7.19407E+05 2.74194E-08-6.63263E-08
 -1       279-1.86071E+06-2.55559E+05-1.27520E+03-6.89298E+05-3.34203E-08-1.41358E-07
 -1       280-1.83117E+06-2.84623E+05-1.85928E+03-7.23250E+05-3.49719E-08-8.91689E-08
 -1       281-1.86191E+06-2.53907E+05-3.49001E+03-6.87788E+05-8.05721E-09-1.05374E-07
 -1       282-1.83090E+06-2.89032E+05-8.09320E+03-7.25905E+05-1.47611E-09-1.75375E-08
 -1       283-1.86151E+06-2.51038E+05-1.44577E+04-6.86917E+05-3.48782E-08 2.39652E-09
 -1       284-1.84235E+06-3.10046E+05-3.93194E+04-7.24826E+05-7.21820E-09-7.50224E-08
 -1       285-1.85110E+06-2.34643E+05-6.11054E+04-6.88403E+05 2.69010E-08 9.96406E-08
 -1       301 8.35787E+03-5.59487E+05 1.70757E+05-9.76860E+05-1.81899E-10 6.33736E-08
 -1       302 9.44046E+03-5.15296E+05 1.03341E+05-1.42754E+06-1.58179E-08 6.67806E-08
 -1       303-9.92599E+03-5.47366E+05 6.10126E+04-9.74377E+05-2.22644E-09-5.82113E-08
 -1       304-5.19744E+03-5.19349E+05 6.59758E+04-1.42673E+06 3.76895E-09 3.25210E-07
 -1       305-9.88315E+03-5.40799E+05 8.70776E+04-9.77326E+05 2.84672E-09-1.22658E-07
 -1       306-2.78505E+07-5.69050E+06-7.80140E+06-9.79176E+05-1.22120E-07 1.26893E-08
 -1       307 2.32097E+07 2.32209E+06 5.01715E+06-1.34757E+07-8.03484E-07 1.06520E-07
 -1       308-7.54260E+06-8.18644E+05-5.29309E+05 4.74454E+06-1.70839E-07 1.14233E-07
 -1       309-3.46317E+06 7.06056E+06 1.94362E+06-1.92323E+07 3.74857E-07 2.43272E-08
 -1       310-1.14905E+07-1.44093E+06-1.60312E+06 4.65039E+06-8.01519E-08-2.23386E-07
 -1       311 3.23745E+07-1.46339E+05 6.30741E+06-8.77269E+06 3.40864E-07-2.55270E-07
 -1       312-2.90633E+07-5.91000E+06-7.49947E+06-4.22164E+06 3.72529E-08-7.15372E-08
 -1       313 4.11744E+07 1.19314E+07 9.53195E+06 2.00860E+07 1.54716E-07-1.55764E-07
 -1       314-1.69448E+07-1.53622E+07-6.77222E+06-1.15762E+07 4.79457E-07-3.21888E-08
 -1       315-1.12784E+06 2.58911E+07 5.16288E+06 1.06089E+07 1.43773E-08 1.46538E-07
 -1       316 6.60336E+05-9.35830E+06-4.93207E+05-3.21612E+06-9.91902E-07-3.16708E-07
 -1       317-1.70915E+07 2.05593E+07 1.90814E+06-6.80021E+06 6.72109E-07-8.13110E-07
 -1       318-1.20143E+06-1.12612E+07-1.64816E+06-4.39450E+06-9.09466E-07 9.74396E-08
 -1       319 5.58308E+06 2.73947E+07 6.07796E+06 1.45537E+07-8.94652E-08 2.16416E-07
 -1       320-2.07889E+07-1.55172E+07-8.71853E+06-1.15971E+07 1.91038E-07-4.47035E-08
 -1       336-5.02623E+02-1.73614E+06-1.38083E+04 8.75145E+03-2.54549E-08 2.54659E-09
 -1       337-5.33541E+03-1.73619E+06-1.79815E+04-2.12019E+04-4.66569E-08 1.34005E-08
 -1       338 4.37530E+02-1.73567E+06-2.80336E+04 1.22324E+04-3.30410E-08 6.88669E-09
 -1       339-2.97563E+04-1.75305E+06-6.34438E+04-2.80047E+04-5.98129E-08 2.76304E-09
 -1       340 1.97576E+04-1.72132E+06-9.97996E+04 1.54332E+04-3.89591E-08 2.59643E-08
 -1       406-3.43431E+01 3.77311E+05 6.27874E+02 2.76404E+00-1.80373E-09 1.32695E-08
 -1       407 1.64056E+02 3.77438E+05 1.34032E+03 2.12398E+01-4.40423E-10 5.44151E-09
 -1       408 6.31993E+02 3.77213E+05 2.67336E+03-2.43878E+01-2.24804E-09 4.71846E-09
 -1       409 2.84260E+03 3.78292E+05 6.02406E+03 2.58122E+02-4.50996E-10 1.36879E-09
 -1       410 8.26765E+03 3.76445E+05 1.22955E+04-2.48403E+02-2.60115E-09-5.98448E-09
 -1       521-2.93742E+07-6.98250E+06-9.09340E+06-6.49048E+05-9.91859E-08 5.42495E-08
 -1       522 2.39540E+07 3.05647E+06 5.09430E+06-1.66584E+07-5.38857E-07-2.64321E-07
 -1       523-8.24798E+06-1.10128E+06-5.37041E+05 5.18223E+06 7.91624E-08-2.22310E-07
 -1       524-6.68637E+06 9.65676E+06 2.10052E+06-2.21811E+07 9.60114E-07-4.91524E-07
 -1       525-1.23986E+07-1.95974E+06-1.75962E+06 5.07903E+06 7.21077E-07-3.78146E-07
 -1       526 3.51220E+07-2.03547E+05 6.61996E+06-1.12735E+07 2.35625E-07-5.79748E-08
 -1       527-3.08211E+07-7.40378E+06-8.61860E+06-4.10659E+06-2.17697E-08 8.30769E-08
 -1       528 4.49282E+07 1.31203E+07 9.93308E+06 2.27284E+07 6.43195E-08 2.84170E-07
 -1       529-1.79348E+07-1.73421E+07-7.74904E+06-1.17163E+07 1.28464E-07 4.16767E-08
 -1       530-3.44063E+06 3.01002E+07 5.45350E+06 1.04507E+07-1.26456E-07 7.33999E-07
 -1       531 6.00206E+05-1.04710E+07-4.86071E+05-3.31637E+06-8.59058E-07 4.71744E-07
 -1       532-1.99311E+07 2.27274E+07 2.08681E+06-1.04286E+07 4.88071E-07-5.54443E-07
 -1       533-1.27101E+06-1.23988E+07-1.74116E+06-4.38746E+06-1.52533E-07-9.27190E-07
 -1       534 3.60711E+06 3.17654E+07 6.32044E+06 1.50641E+07-5.02332E-08 7.21659E-07
 -1       535-2.19244E+07-1.76406E+07-9.95423E+06-1.17364E+07 8.81264E-08 4.50178E-07
 -1       536-6.81896E+05-4.59806E+04-3.75979E+04-5.13385E+04-6.68888E-09 4.93783E-08
 -1       537-7.85253E+04 4.44959E+04 8.21706E+04 1.17460E+05-1.15652E-07 1.01838E-07
 -1       538-3.93387E+05 2.65930E+03 5.04148E+03-6.89799E+04 2.92857E-08 1.18500E-07
 -1       539-2.77762E+05 2.99167E+03 2.39564E+04 1.32166E+05 1.46603E-07 1.11271E-07
 -1       540-4.87626E+05-3.48897E+02-1.91031E+04-6.65157E+04 1.29328E-08 1.01807E-07
 -1       541 1.05583E+05 1.56542E+04 9.82921E+04 9.24496E+04-1.12877E-08 7.41611E-08
 -1       542-7.66411E+05-1.86109E+04-7.76278E+04-2.84929E+04 4.07022E-08 2.53728E-08
 -1       543 3.44231E+05 2.52332E+04 1.45689E+05-1.28134E+04-5.02723E-08-2.39152E-09
 -1       544-7.19882E+05-1.52210E+04-6.89656E+04 3.81551E+04-1.98838E-08-3.81158E-08
 -1       545-3.71199E+03 8.61586E+03 7.32828E+04-1.07798E+05 3.93102E-08-9.62118E-08
 -1       546-4.27798E+05 5.73607E+03-1.13554E+04 6.61889E+04 3.86121E-08-1.01613E-07
 -1       547-2.94812E+05-4.68132E+03 9.11823E+03-1.34946E+05-9.06804E-08-1.18093E-07
 -1       548-4.36593E+05 4.60182E+03-2.28913E+04 6.59122E+04-1.01081E-07-1.07416E-07
 -1       549 1.48664E+04 1.31604E+04 5.36126E+04-1.05507E+05-5.86178E-08-6.05144E-08
 -1       550-7.29186E+05-1.90276E+04-1.22316E+05 3.61170E+04 1.21072E-08-3.68636E-08
 -1       551 3.90199E+04-7.63622E+05-1.07092E+04-1.22858E+06-1.00335E-07-3.17232E-09
 -1       552 8.87761E+04-8.05350E+05 1.28884E+04-1.75196E+06-6.92380E-08 2.86745E-08
 -1       553 6.79621E+04-8.02758E+05 3.40830E+04-1.22221E+06-1.13709E-07 2.92202E-08
 -1       554 1.26418E+05-8.19311E+05 8.35405E+04-1.75391E+06-7.33417E-08 1.57015E-08
 -1       555 9.76590E+04-8.25912E+05 1.51845E+05-1.22216E+06-1.16677E-07-1.77206E-08
 -1       556 2.12885E+05-3.67360E+05 3.30705E+04-3.95832E+05-2.62226E-08-1.69093E-08
 -1       557 3.39885E+05-4.68827E+05 1.97272E+04-5.11298E+05-3.65253E-09 3.13594E-09
 -1       558 1.96449E+05-3.62194E+05 4.20330E+03-3.98681E+05-1.65019E-08-1.23327E-08
 -1       559 3.15738E+05-4.70178E+05 3.26669E+03-5.30322E+05 2.40689E-08 1.01827E-08
 -1       560 1.82334E+05-3.53328E+05-9.01213E+02-4.08804E+05 1.18744E-08 4.70027E-09
 -1       561 2.97903E+05-4.63111E+05 3.56365E+02-5.42434E+05 3.63798E-09-8.38554E-09
 -1       562 1.71177E+05-3.46380E+05-1.09274E+03-4.16872E+05 2.72121E-09 1.13650E-08
 -1       563 2.84662E+05-4.57338E+05 2.83299E+01-5.51070E+05-6.43922E-09-1.27930E-08
 -1       564 1.63250E+05-3.41436E+05-5.08987E+02-4.22487E+05 1.78989E-09 1.49157E-08
 -1       565 2.75941E+05-4.53540E+05 4.14782E+01-5.56638E+05 1.25146E-08 3.07818E-09
 -1       566 1.58666E+05-3.38535E+05-2.23636E+02-4.25693E+05-4.00905E-09 5.22050E-10
 -1       567 2.71786E+05-4.51732E+05-3.32040E+02-5.59152E+05 1.65528E-08-6.09361E-09
 -1       568 1.57512E+05-3.37830E+05-1.04756E+03-4.26596E+05 1.55433E-09 3.49246E-10
 -1       569 2.70854E+05-4.51679E+05-2.64681E+03-5.57657E+05-2.72303E-09 3.67872E-08
 -1       570 1.60843E+05-3.40960E+05-5.80181E+03-4.25625E+05 6.08270E-09 1.60708E-08
 -1       571 2.83939E+05 1.02769E+04 1.47157E+04-9.14007E+04 1.89084E-09 1.45851E-08
 -1       572 2.86077E+05 3.84485E+03 7.21169E+03-1.00275E+05 5.23505E-09 5.00222E-10
 -1       573 2.84789E+05 1.18342E+03 3.20435E+03-9.12286E+04 1.24055E-09 7.86349E-09
 -1       574 2.85004E+05 6.69826E+02 1.60683E+03-1.00492E+05 9.80435E-10 7.26777E-09
 -1       575 2.84882E+05 3.99974E+02 7.58330E+02-9.12051E+04-2.93883E-09-2.24463E-09
 -1       576 2.84870E+05 4.07316E+02 3.88139E+02-1.00521E+05-9.30504E-09-2.01817E-09
 -1       577 2.84919E+05 3.44195E+02 1.93699E+02-9.12019E+04-4.14548E-09-7.12134E-10
 -1       578 2.84896E+05 3.72062E+02 1.11664E+02-1.00525E+05-6.13090E-09-1.53341E-08
 -1       579 2.84985E+05 3.11082E+02 7.65736E+01-9.12016E+04 7.43967E-09-3.07318E-09
 -1       580 2.84989E+05 3.25721E+02 8.83899E+01-1.00520E+05-9.23319E-09-4.15639E-09
 -1       581 2.85089E+05 2.58007E+02 1.33546E+02-9.12073E+04 3.38150E-09 1.94359E-09
 -1       582 2.85151E+05 2.93886E+02 2.70943E+02-1.00461E+05 3.05590E-10 1.43609E-09
 -1       583 2.85217E+05 3.04015E+02 5.20614E+02-9.12615E+04 2.27737E-09-1.32045E-08
 -1       584 2.85505E+05 7.27904E+02 1.17738E+03-1.00004E+05 9.81527E-09-1.56676E-08
 -1       585 2.85233E+05 1.72348E+03 2.38505E+03-9.16629E+04 4.78394E-10-2.03363E-09
 -1       586-3.35614E+03 1.12393E+05-2.98002E+03-2.45818E+05-6.56246E-09-3.81897E-08
 -1       587-1.25848E+03 1.12125E+05 6.80996E+02-2.70544E+05-4.92764E-09-2.76104E-08
 -1       588 4.49942E+02 1.11958E+05 4.60043E+03-2.45685E+05-1.51704E-09 5.72982E-09
 -1       589 5.02223E+03 1.14355E+05 1.19964E+04-2.70310E+05-5.90262E-09 1.80717E-09
 -1       590 1.62312E+04 1.10659E+05 2.51903E+04-2.46107E+05-4.54656E-09-8.00355E-11
 -1       591-7.19760E+04-1.55573E+04-2.18366E+04-3.09436E+04-2.00680E-09 1.53705E-10
 -1       592-7.58638E+04-1.90811E+04-1.18284E+04-3.45435E+04-2.65032E-12-1.57138E-09
 -1       593-7.41605E+04-1.39721E+04-4.92360E+03-3.25441E+04-3.93026E-09-1.23439E-08
 -1       594-7.28478E+04-1.58780E+04-2.45553E+03-3.46590E+04-2.92286E-09 2.07215E-08
 -1       595-7.43270E+04-1.39668E+04-1.12738E+03-3.26169E+04 3.80893E-09 9.67179E-09
 -1       596-7.26414E+04-1.57315E+04-5.72985E+02-3.46346E+04 9.43413E-09-5.73721E-09
 -1       597-7.43479E+04-1.39817E+04-3.11743E+02-3.26196E+04 6.93734E-09-1.86782E-09
 -1       598-7.26210E+04-1.57257E+04-2.50123E+02-3.46277E+04 6.02768E-09-2.02267E-08
 -1       599-7.43467E+04-1.39822E+04-3.18900E+02-3.26193E+04 8.38179E-09-7.34849E-09
 -1       600-7.26415E+04-1.57321E+04-5.91931E+02-3.46325E+04 5.86522E-09-1.22299E-09
 -1       601-7.43226E+04-1.39681E+04-1.16750E+03-3.26159E+04 6.77323E-09 7.32120E-09
 -1       602-7.28552E+04-1.58827E+04-2.54431E+03-3.46541E+04-4.12558E-09-1.45678E-09
 -1       603-7.41474E+04-1.39764E+04-5.10233E+03-3.25412E+04 5.02268E-10-5.85578E-09
 -1       604-7.59977E+04-1.91831E+04-1.22570E+04-3.45103E+04 2.17460E-09-2.03408E-09
 -1       605-7.18642E+04-1.56363E+04-2.26279E+04-3.09015E+04 5.43429E-09 1.81017E-08
 -1       606 2.68331E+04-1.39699E+04-2.50479E+04 2.43008E+04 5.61340E-09-5.06520E-09
 -1       607 2.25528E+04-4.55998E+03-1.24737E+04 2.73056E+04 1.97178E-09 6.12545E-09
 -1       608 2.49914E+04-8.20243E+02-5.58419E+03 2.41272E+04-2.25555E-09 6.02245E-09
 -1       609 2.45228E+04-2.77901E+02-2.82094E+03 2.75221E+04 4.25280E-09 7.71706E-09
 -1       610 2.47819E+04-3.62347E+01-1.34601E+03 2.41067E+04 4.27372E-09 9.89530E-09
 -1       611 2.47074E+04-3.53738E+01-6.78642E+02 2.75455E+04 4.40377E-09 3.00452E-09
 -1       612 2.47349E+04-2.22228E+01-3.22724E+02 2.41047E+04-1.67984E-09 6.01904E-09
 -1       613 2.47176E+04-3.07875E+01-1.44683E+02 2.75482E+04 2.73212E-09-6.77346E-10
 -1       614 2.47125E+04-2.79569E+01-3.41417E+01 2.41040E+04 2.05637E-09 8.82687E-09
 -1       615 2.47116E+04-2.88697E+01 6.01684E+01 2.75487E+04 4.39695E-09 3.53157E-09
 -1       616 2.46949E+04-2.45272E+01 1.80852E+02 2.41042E+04 5.20686E-10-8.93829E-09
 -1       617 2.47328E+04 1.00488E+01 4.12814E+02 2.75482E+04-2.92130E-09-1.70578E-08
 -1       618 2.46586E+04 9.47699E+01 8.32148E+02 2.41045E+04-2.06364E-09 8.69045E-09
 -1       619 2.50261E+04 6.53704E+02 1.86870E+03 2.75476E+04-6.13340E-10 7.24958E-09
 -1       620 2.43820E+04 2.06822E+03 3.75604E+03 2.41057E+04 1.24624E-09 3.14094E-09
 -1       621 4.80377E+02 2.94205E+05 3.73499E+03 3.83141E+04 8.03084E-10-1.53350E-08
 -1       622 6.31245E+02 2.95074E+05 3.32781E+03 5.56333E+04 1.16779E-09 5.59339E-09
 -1       623 1.23689E+02 2.94396E+05 4.01703E+03 3.81401E+04 1.31195E-09 1.03910E-08
 -1       624 2.04235E+03 2.96271E+05 7.80165E+03 5.58050E+04 1.23595E-09-1.23821E-08
 -1       625 2.00250E+03 2.92850E+05 1.36402E+04 3.81370E+04 1.32059E-09 1.63050E-08
 -1       626 2.55116E+05 6.06624E+04 5.06052E+03 1.24699E+05 5.86351E-09 3.24144E-09
 -1       627 2.52789E+05 6.20796E+04 2.43862E+03 1.28962E+05 3.12912E-09-9.23251E-09
 -1       628 2.55245E+05 5.83439E+04 1.03127E+03 1.25555E+05 2.35941E-08-6.97128E-10
 -1       629 2.52156E+05 6.14116E+04 5.04769E+02 1.29203E+05 5.01973E-08-1.81284E-08
 -1       630 2.55258E+05 5.82321E+04 2.34154E+02 1.25591E+05 2.36528E-08-2.70960E-08
 -1       631 2.52089E+05 6.13866E+04 1.26019E+02 1.29205E+05 8.29709E-09 1.56128E-08
 -1       632 2.55254E+05 5.82364E+04 8.29523E+01 1.25586E+05 1.42677E-08 3.39537E-09
 -1       633 2.52080E+05 6.13887E+04 9.24409E+01 1.29201E+05 9.11359E-09 2.58456E-09
 -1       634 2.55249E+05 5.82339E+04 1.49418E+02 1.25585E+05 1.34526E-09 1.81817E-08
 -1       635 2.52094E+05 6.13873E+04 3.02367E+02 1.29206E+05-7.70919E-09 1.52609E-08
 -1       636 2.55240E+05 5.82285E+04 6.10640E+02 1.25585E+05 5.17775E-09 5.55656E-09
 -1       637 2.52226E+05 6.14823E+04 1.34261E+03 1.29205E+05-3.03567E-09 9.60199E-09
 -1       638 2.55192E+05 5.85252E+04 2.75858E+03 1.25451E+05 1.61299E-09-1.10058E-08
 -1       639 2.53674E+05 6.34977E+04 6.52687E+03 1.28778E+05-2.18097E-09-7.55267E-09
 -1       640 2.54992E+05 6.45425E+04 1.35444E+04 1.22914E+05 1.89493E-09-1.25829E-09
 -1       656 6.52911E+04-1.66994E+06-1.57609E+05-2.31025E+03 7.27596E-11 4.65218E-09
 -1       657-8.63693E+04-1.74116E+06-1.30559E+05 5.45901E+03-2.60115E-10 2.27222E-09
 -1       658 2.08079E+04-1.69017E+06-8.03941E+04-4.33215E+03 1.93268E-10-1.23532E-08
 -1       659-9.33580E+04-1.74448E+06-1.39743E+05 7.11737E+03-1.99088E-09-1.49219E-08
 -1       660 7.22642E+04-1.66663E+06-1.73398E+05-3.96860E+03-1.88447E-09 4.76746E-10
 -1       661 1.59764E+05 1.67742E+04 1.67220E+04 6.24571E+04-3.62434E-10 2.65754E-09
 -1       662 1.69169E+05 2.92060E+04 1.12693E+04 5.87614E+04-3.64042E-09 7.41784E-09
 -1       663 1.63048E+05 2.21391E+04 3.94137E+03 6.15041E+04-4.53133E-09-5.35806E-09
 -1       664 1.65361E+05 2.29319E+04 2.35766E+03 5.99253E+04-2.29272E-09 5.42775E-09
 -1       665 1.63546E+05 2.28721E+04 9.30082E+02 6.13590E+04 5.23471E-10-6.40810E-09
 -1       666 1.64772E+05 2.20935E+04 5.44283E+02 6.01144E+04 1.22761E-08 2.17278E-09
 -1       667 1.63634E+05 2.29557E+04 2.89129E+02 6.13228E+04 2.70495E-09 2.38831E-08
 -1       668 1.64677E+05 2.20332E+04 2.94673E+02 6.01670E+04-3.09490E-09-4.24177E-09
 -1       669 1.63641E+05 2.29307E+04 3.99003E+02 6.13067E+04-1.99080E-09 5.90808E-09
 -1       670 1.64774E+05 2.22497E+04 8.68889E+02 6.01698E+04-1.03080E-08-1.33633E-09
 -1       671 1.63536E+05 2.27437E+04 1.54279E+03 6.13180E+04 9.78417E-10-9.07204E-09
 -1       672 1.65673E+05 2.37506E+04 3.94722E+03 5.99520E+04 5.90273E-09 8.75673E-09
 -1       673 1.62747E+05 2.14677E+04 6.61491E+03 6.15099E+04 4.22062E-09-2.60388E-09
 -1       674 1.71969E+05 3.43780E+04 1.89172E+04 5.81022E+04-9.76570E-10-2.06619E-08
 -1       675 1.57281E+05 1.24139E+04 2.80798E+04 6.30561E+04-4.23370E-10-1.43100E-08
 -1       676 2.37911E+01-2.91732E+05-1.10010E+03-1.19676E+02-7.50646E-10 1.45101E-08
 -1       677-2.91264E+02-2.91998E+05-2.01337E+03 2.39165E+02 7.30077E-09 7.30307E-09
 -1       678 1.95148E+02-2.91542E+05-3.55914E+03-1.19409E+02 1.02091E-10-3.86300E-09
 -1       679-3.55944E+03-2.94146E+05-8.45503E+03 2.38146E+02 7.71581E-09-2.07482E-08
 -1       680 2.12500E+03-2.89584E+05-1.36266E+04-1.17336E+02 2.34650E-10-6.67126E-09
 -1       771-3.02730E+06-7.25749E+05-1.54144E+05-1.43953E+06-3.26545E-08-2.68919E-08
 -1       772-2.95379E+06-8.11001E+05-7.95470E+04-1.53799E+06-2.69938E-08 9.92077E-09
 -1       773-3.05662E+06-7.02834E+05-4.03824E+04-1.45269E+06-1.41154E-08 9.83709E-09
 -1       774-2.94444E+06-7.93954E+05-1.80514E+04-1.56184E+06 3.18978E-08-2.80124E-09
 -1       775-3.07175E+06-6.92197E+05-1.33892E+04-1.45900E+06-9.45874E-09 4.22733E-09
 -1       776-2.95552E+06-7.91305E+05-5.02512E+03-1.57975E+06-1.79280E-08 6.83940E-09
 -1       777-3.08483E+06-6.82741E+05-5.87459E+03-1.46456E+06 4.36557E-09 6.95582E-09
 -1       778-2.96712E+06-7.88858E+05-1.66680E+03-1.59512E+06 4.22006E-09 1.83354E-09
 -1       779-3.09605E+06-6.74498E+05-2.92266E+03-1.46931E+06-1.12195E-08-5.69707E-09
 -1       780-2.97732E+06-7.86522E+05-4.85544E+02-1.60764E+06-4.30737E-09 5.82077E-11
 -1       781-3.10495E+06-6.67864E+05-1.13112E+03-1.47304E+06-2.66591E-08-8.02174E-10
 -1       782-2.98518E+06-7.84533E+05 4.11416E+02-1.61687E+06-3.97486E-08-8.34461E-09
 -1       783-3.11121E+06-6.63261E+05 6.42895E+02-1.47564E+06-1.08193E-08-1.81681E-08
 -1       784-2.98951E+06-7.82510E+05 2.65099E+03-1.62257E+06-1.99798E-08-4.62933E-10
 -1       785-3.11491E+06-6.60519E+05 4.68079E+03-1.47730E+06-3.66163E-08 6.47560E-09
 -1       786 1.24320E+05-9.70726E+03 2.24585E+04-3.01174E+02 3.41590E-09-5.89353E-09
 -1       787 1.34060E+05 1.12387E+04 1.58885E+04-1.17864E+02 4.68956E-09 2.46746E-09
 -1       788 1.28075E+05-1.52122E+03 5.81058E+03-2.67018E+02 3.02406E-09-1.12341E-08
 -1       789 1.29684E+05 1.76064E+03 3.64780E+03-1.70460E+02-1.32713E-09 4.22210E-09
 -1       790 1.28695E+05-2.36928E+02 1.47722E+03-2.48594E+02-2.27128E-09 1.20512E-08
 -1       791 1.28959E+05 2.74060E+02 8.53766E+02-2.02035E+02-5.74639E-09-1.04160E-08
 -1       792 1.28800E+05-3.57535E+01 3.62908E+02-2.35444E+02-4.05319E-09 1.44425E-10
 -1       793 1.28834E+05 3.81900E+01 1.83368E+02-2.26782E+02-2.17504E-09-4.93614E-09
 -1       794 1.28820E+05-1.20672E+00 5.25767E+01-2.23848E+02 3.69558E-09-8.04483E-09
 -1       795 1.28799E+05-2.31616E+01-4.42607E+01-2.50985E+02-4.38612E-09-1.37728E-09
 -1       796 1.28835E+05 2.55640E+01-1.39068E+02-2.11241E+02 4.51561E-09 8.09377E-09
 -1       797 1.28716E+05-1.91636E+02-3.88072E+02-2.79934E+02 4.50692E-09 2.42437E-08
 -1       798 1.28904E+05 1.67141E+02-6.31974E+02-1.94898E+02 2.65859E-09 1.18253E-08
 -1       799 1.28236E+05-1.23221E+03-1.74016E+03-3.20285E+02 5.05266E-09-5.56946E-09
 -1       800 1.29315E+05 1.06528E+03-2.46311E+03-1.70891E+02-1.90310E-11 1.39762E-08
 -1       801-1.35806E+05-9.35491E+06-1.28518E+06 1.26054E+06 8.80100E-08-4.73447E-08
 -1       802 6.38356E+05 4.94534E+06 1.92898E+06-1.53897E+06 2.44167E-07-3.21079E-08
 -1       803-4.78444E+05-1.31230E+07-1.69512E+06 8.00578E+05 7.46659E-08 2.21662E-08
 -1       804 2.48692E+05 1.72195E+06 1.35974E+06 6.27245E+05-1.12806E-07-9.38828E-08
 -1       805 1.76427E+05-6.14638E+06-2.57649E+05-9.00530E+05-4.66462E-08-6.11944E-08
 -1       806-3.02825E+05-5.84564E+04-2.23644E+04-1.19851E+05-1.51795E-09 2.44654E-09
 -1       807-3.04606E+05-5.47844E+04-1.09874E+04-1.25252E+05 1.03209E-08-1.45626E-08
 -1       808-3.03437E+05-5.03984E+04-4.66122E+03-1.23664E+05-6.45514E-09-1.24385E-08
 -1       809-3.02297E+05-5.16963E+04-2.27923E+03-1.25521E+05-1.02273E-08 2.91711E-08
 -1       810-3.03529E+05-5.01179E+04-1.04469E+03-1.23833E+05 5.12500E-10 9.48762E-09
 -1       811-3.02118E+05-5.15721E+04-5.19531E+02-1.25487E+05-9.16771E-10-1.70903E-08
 -1       812-3.03543E+05-5.01419E+04-2.62789E+02-1.23832E+05-5.67616E-09 1.81394E-08
 -1       813-3.02094E+05-5.15741E+04-1.70865E+02-1.25469E+05-1.34123E-08-1.40835E-09
 -1       814-3.03537E+05-5.01513E+04-1.69427E+02-1.23828E+05 4.36557E-10-2.34877E-09
 -1       815-3.02097E+05-5.15763E+04-2.73116E+02-1.25462E+05 8.38327E-09-1.35515E-09
 -1       816-3.03517E+05-5.01502E+04-5.17683E+02-1.23825E+05 9.10222E-09 8.68113E-09
 -1       817-3.02186E+05-5.16256E+04-1.11112E+03-1.25450E+05-7.05404E-09 2.10441E-08
 -1       818-3.03450E+05-5.03068E+04-2.26626E+03-1.23751E+05-5.34965E-09-1.57352E-08
 -1       819-3.03426E+05-5.29949E+04-5.33247E+03-1.25157E+05-1.74623E-09-2.97382E-09
 -1       820-3.03023E+05-5.43342E+04-1.08535E+04-1.22030E+05-5.11136E-10 1.12889E-08
 -1       821-3.73268E+05 2.05609E+04-4.77367E+04 1.78401E+03 1.18611E-08-1.53796E-08
 -1       822-3.93178E+05-2.38118E+04-3.36447E+04-3.58949E+03 4.54762E-09-3.34367E-08
 -1       823-3.80855E+05 3.23445E+03-1.23417E+04 2.73985E+03-1.03898E-08-1.12973E-08
 -1       824-3.84115E+05-3.73362E+03-7.74001E+03-4.16870E+03-2.69708E-10 1.08466E-08
 -1       825-3.82333E+05 5.02434E+02-3.22298E+03 2.36328E+03 1.58721E-08 1.86324E-08
 -1       826-3.82020E+05-5.70879E+02-1.78915E+03-2.29549E+03 2.11811E-08 1.92189E-08
 -1       827-3.82934E+05 6.18617E+01-1.10917E+03 8.66555E+02 7.84402E-09 3.06972E-09
 -1       828-3.81532E+05-1.50246E+02-6.91811E+02 1.00230E+03-7.07217E-10 1.64482E-08
 -1       829-3.82813E+05 7.63099E+01-1.10645E+03-9.34541E+02 3.33664E-09 1.43185E-08
 -1       830-3.82288E+05-6.15924E+02-1.90910E+03 3.92107E+03 2.90967E-10-3.73007E-09
 -1       831-3.82193E+05 5.38724E+02-3.31264E+03-2.05224E+03-3.93405E-09 3.56772E-09
 -1       832-3.84200E+05-3.89190E+03-8.03999E+03 4.86190E+03-3.78068E-09-4.92116E-09
 -1       833-3.80911E+05 3.35696E+03-1.28334E+04-1.87540E+03-1.73388E-09 6.46651E-09
 -1       834-3.93327E+05-2.47175E+04-3.48752E+04 3.28150E+03-4.47402E-09-1.84141E-08
 -1       835-3.73056E+05 2.13378E+04-4.95834E+04-4.71784E+02 5.13222E-09-7.51970E-09
 -1       836-1.37493E+03 3.61656E+05 2.23469E+04-1.61924E+04-6.24459E-09 2.17588E-08
 -1       837 4.77251E+03 3.68651E+05 1.89248E+04-3.30215E+04-6.85407E-09 2.85422E-09
 -1       838-5.41470E+02 3.63615E+05 1.93033E+04-1.61215E+04-5.62932E-09 7.95558E-09
 -1       839 1.21653E+04 3.74157E+05 3.65369E+04-3.30727E+04-5.92854E-09 2.86104E-09
 -1       840-3.75510E+03 3.56092E+05 5.82721E+04-1.61462E+04-5.52973E-09 1.38862E-08
 -1       856-5.47217E+04 7.99226E+03-2.10614E+04-3.98326E+02 4.44584E-09 1.90448E-09
 -1       857-6.34006E+04-9.38902E+03-1.44986E+04 5.55472E+03 3.22166E-09-1.04594E-08
 -1       858-5.81580E+04 1.12074E+03-5.46501E+03-4.22321E+02 2.56915E-09-3.89264E-10
 -1       859-5.94569E+04-1.31697E+03-3.29806E+03 5.59065E+03-2.90589E-09 1.02125E-08
 -1       860-5.86714E+04 1.56858E+02-1.38252E+03-4.34017E+02 1.44021E-09-5.31685E-09
 -1       861-5.88663E+04-1.85816E+02-7.61178E+02 5.60659E+03 2.08067E-09-2.49086E-08
 -1       862-5.87516E+04 2.11922E+01-3.17669E+02-4.38252E+02-7.77710E-10-8.01475E-09
 -1       863-5.87681E+04-2.06044E+01-1.18574E+02 5.60902E+03-3.75195E-09 5.12176E-09
 -1       864-5.87700E+04-4.60481E+00 4.05824E+01-4.36437E+02-1.50760E-09-3.41444E-09
 -1       865-5.87143E+04 5.76678E+01 2.39907E+02 5.59876E+03-3.06716E-09-2.05598E-08
 -1       866-5.88032E+04-5.71337E+01 4.86779E+02-4.28002E+02 1.91665E-09-1.07720E-08
 -1       867-5.84845E+04 4.72196E+02 1.20029E+03 5.57584E+03 4.64382E-10 5.49738E-09
 -1       868-5.89951E+04-4.11753E+02 1.99502E+03-4.13516E+02-2.14254E-09-1.55300E-08
 -1       869-5.70212E+04 3.42683E+03 5.31289E+03 5.53800E+03 3.25349E-09-2.27838E-08
 -1       870-6.02590E+04-2.93167E+03 7.71006E+03-3.90075E+02-3.38684E-09-7.26777E-09
 -1       871-5.43468E+03-2.02667E+04-1.90500E+04 1.27393E+05-4.10546E-09 5.86078E-09
 -1       872-1.99016E+03-2.46829E+04-7.96387E+03 1.65182E+05-9.07494E-09 8.12634E-10
 -1       873 3.56515E+02-2.25534E+04 6.08781E+02 1.27113E+05-5.18821E-09 5.91422E-09
 -1       874 3.19742E+03-2.01687E+04 9.63393E+03 1.65213E+05-1.13587E-08 2.02067E-08
 -1       875 6.69466E+03-2.48482E+04 2.17083E+04 1.27347E+05-3.13958E-09 1.85082E-08
 -1       876 2.88510E+05 4.86939E+04 1.48584E+04 1.15861E+05-1.29842E-09-1.44682E-08
 -1       877 2.89486E+05 5.18303E+04 7.93498E+03 1.20130E+05 1.27652E-08-1.18600E-08
 -1       878 2.89900E+05 4.70482E+04 3.32437E+03 1.17078E+05-4.37194E-09-5.55929E-10
 -1       879 2.87466E+05 4.98148E+04 1.65639E+03 1.20230E+05 8.49923E-10 9.37501E-09
 -1       880 2.89999E+05 4.70311E+04 7.71511E+02 1.17128E+05-1.51658E-10-2.76822E-09
 -1       881 2.87332E+05 4.97286E+04 4.11970E+02 1.20207E+05-1.76669E-09 7.63923E-09
 -1       882 2.90008E+05 4.70441E+04 2.63506E+02 1.17130E+05 3.05977E-09 9.07699E-09
 -1       883 2.87322E+05 4.97242E+04 2.83201E+02 1.20200E+05-2.01754E-09 1.19997E-08
 -1       884 2.90002E+05 4.70414E+04 4.50435E+02 1.17130E+05-6.09020E-09-2.34202E-08
 -1       885 2.87358E+05 4.97304E+04 9.05580E+02 1.20211E+05-2.54681E-09 8.48354E-09
 -1       886 2.89967E+05 4.70149E+04 1.82514E+03 1.17126E+05-7.99766E-10-2.31307E-09
 -1       887 2.87679E+05 4.99407E+04 3.98675E+03 1.20257E+05 6.98532E-09-9.38826E-09
 -1       888 2.89715E+05 4.70593E+04 8.03342E+03 1.16999E+05-1.94640E-09 9.92895E-09
 -1       889 2.92461E+05 5.49141E+04 1.91904E+04 1.20110E+05-2.73551E-09 1.98324E-08
 -1       890 2.86437E+05 5.09535E+04 3.59431E+04 1.13941E+05-2.99497E-09-1.03410E-08
 -1       891-9.50161E+01-1.60092E+05-1.96008E+03 2.69291E+04-1.93631E-09 7.56836E-09
 -1       892-1.83323E+02-1.60606E+05-2.10626E+03 4.08799E+04-6.55973E-10-1.92927E-09
 -1       893 3.55714E+01-1.60155E+05-2.98336E+03 2.69362E+04-2.73963E-09 4.03816E-09
 -1       894-1.49535E+03-1.61734E+05-6.17526E+03 4.07291E+04 1.97792E-09 5.94446E-09
 -1       895-1.18609E+03-1.58868E+05-1.08749E+04 2.70813E+04-1.31661E-09-1.18780E-08
 -1       956-3.70046E+05-5.33005E+03-1.31837E+04 2.98275E+04 5.06589E-09 6.96036E-09
 -1       957-3.72634E+05-1.87185E+03-6.76707E+03 3.58521E+04 1.66983E-09-2.37878E-09
 -1       958-3.71229E+05-2.26146E+02-3.04940E+03 2.96638E+04 7.83075E-10 6.04200E-09
 -1       959-3.71424E+05-1.22000E+02-1.55712E+03 3.60419E+04-9.49058E-10-1.23246E-08
 -1       960-3.71344E+05-3.45814E+01-7.59317E+02 2.96470E+04 3.64980E-09-3.86490E-09
 -1       961-3.71344E+05-5.09279E+01-4.02630E+02 3.60616E+04 1.02445E-08 5.07362E-09
 -1       962-3.71371E+05-3.61328E+01-2.30553E+02 2.96442E+04 7.43648E-09 1.00670E-08
 -1       963-3.71344E+05-4.70343E+01-1.85155E+02 3.60652E+04 6.74549E-09 1.38350E-08
 -1       964-3.71376E+05-3.29072E+01-2.25225E+02 2.96435E+04-3.06613E-10 5.19321E-09
 -1       965-3.71356E+05-4.40516E+01-3.89599E+02 3.60645E+04-6.62914E-09 1.12179E-08
 -1       966-3.71360E+05-2.49944E+01-7.32033E+02 2.96449E+04 4.34557E-09-1.30510E-08
 -1       967-3.71444E+05-1.06021E+02-1.50141E+03 3.60507E+04 3.29715E-09-1.53204E-08
 -1       968-3.71259E+05-2.03526E+02-2.93916E+03 2.96571E+04 6.36646E-11 5.25279E-09
 -1       969-3.72624E+05-1.78783E+03-6.52494E+03 3.59077E+04-6.10817E-09-1.05993E-08
 -1       970-3.70126E+05-5.12096E+03-1.27108E+04 2.97805E+04-3.34967E-09 3.70164E-09
 -1       971-3.39511E+05-1.70323E+03-9.20362E+03 1.51905E+04 7.53789E-09-1.38664E-08
 -1       972-3.41729E+05-1.25107E+03-5.01219E+03 2.10282E+04 5.47834E-09-1.01459E-08
 -1       973-3.40537E+05-5.68909E+01-2.24497E+03 1.50702E+04 4.00451E-09-4.08727E-09
 -1       974-3.40672E+05-7.40028E+01-1.16366E+03 2.11638E+04 5.80167E-09-1.04450E-08
 -1       975-3.40618E+05-1.25929E+01-5.82010E+02 1.50580E+04 2.32558E-09 7.68364E-09
 -1       976-3.40611E+05-2.47791E+01-3.36382E+02 2.11794E+04 7.68614E-09 2.21872E-08
 -1       977-3.40634E+05-1.19076E+01-2.45225E+02 1.50547E+04-3.29078E-09 1.09587E-08
 -1       978-3.40616E+05-1.86662E+01-2.88441E+02 2.11841E+04-4.61523E-09 5.88022E-09
 -1       979-3.40634E+05-3.59266E+00-4.64704E+02 1.50533E+04-9.77195E-10 5.35783E-09
 -1       980-3.40651E+05-1.56610E+01-8.98082E+02 2.11850E+04-7.52935E-09-1.07312E-08
 -1       981-3.40605E+05 1.88499E+01-1.73979E+03 1.50538E+04-1.84411E-09-1.00698E-08
 -1       982-3.40890E+05-1.44208E+02-3.59635E+03 2.11785E+04 3.22007E-09-4.17984E-10
 -1       983-3.40386E+05-9.25481E+01-6.98786E+03 1.50598E+04 2.03954E-09 2.79242E-08
 -1       984-3.44251E+05-3.79375E+03-1.56490E+04 2.10937E+04 1.03846E-08 1.57086E-08
 -1       985-3.37222E+05-5.20583E+03-2.87365E+04 1.51318E+04 3.00588E-09 1.72695E-08
 -3
    1PSTEP                        39          20           1          
  100CL  120 6.53564E-01         409                     0   20           1
 -4  DISP        4    1
 -5  D1          1    2    1    0
 -5  D2          1    2    2    0
 -5  D3          1    2    3    0
 -5  ALL         1    2    0    0    1ALL
 -1         1 2.39044E-03 0.00000E+00 0.00000E+00
 -1         2 1.42344E-03-1.84823E-28 0.00000E+00
 -1         3 3.28714E-04-5.74014E-28-1.32349E-23
 -1         5 1.71923E-04-1.51274E-27 1.03398E-24
 -1         8 2.37505E-03-4.82378E-07 0.00000E+00
 -1         9 2.35849E-03-9.44668E-05 0.00000E+00
 -1        10 2.98163E-04-3.47387E-06 0.00000E+00
 -1        12 1.73569E-04 7.90409E-07-7.23783E-25
 -1        15 2.35678E-03-5.23276E-07 2.06795E-25
 -1        16 2.39692E-03-9.58427E-05 0.00000E+00
 -1        17 2.03386E-04-7.84652E-06 0.00000E+00
 -1        18 1.76948E-04 3.16392E-05 0.00000E+00
 -1        19 1.78509E-04 1.57496E-06 0.00000E+00
 -1        20 1.78651E-04-7.66474E-06 0.00000E+00
 -1        21 1.77786E-04-2.07059E-05 0.00000E+00
 -1        24 3.00487E-05-1.18854E-05 0.00000E+00
 -1        25 1.86729E-04 3.18576E-05 0.00000E+00
 -1        26 1.87417E-04 2.18144E-06 0.00000E+00
 -1        27 1.85268E-04-1.11510E-05 0.00000E+00
 -1        28 1.84939E-04-2.13181E-05 0.00000E+00
 -1        32 0.00000E+00 0.00000E+00 0.00000E+00
 -1        33 1.95308E-04 2.91892E-06 0.00000E+00
 -1        34 1.93232E-04-1.12035E-05 0.00000E+00
 -1        35 1.91334E-04-2.16540E-05 0.00000E+00
 -1        51 2.38944E-03-9.45591E-08 6.61744E-24
 -1        52 2.38758E-03-1.72702E-07 0.00000E+00
 -1        53 2.38503E-03-2.48335E-07 0.00000E+00
 -1        54 2.38198E-03-3.23625E-07 0.00000E+00
 -1        55 2.37859E-03-4.00200E-07 6.20385E-25
 -1        56 2.38601E-03 1.19453E-06 0.00000E+00
 -1        57 2.37972E-03 6.86743E-06-5.29396E-23
 -1        58 2.37230E-03 1.55264E-05-1.05879E-22
 -1        59 2.36440E-03 2.53629E-05 0.00000E+00
 -1        60 2.35680E-03 3.43942E-05 0.00000E+00
 -1        61 2.35026E-03 4.06943E-05-5.29396E-23
 -1        62 2.34531E-03 4.27939E-05 0.00000E+00
 -1        63 2.34236E-03 3.95707E-05-5.29396E-23
 -1        64 2.34146E-03 3.07964E-05-1.05879E-22
 -1        65 2.34250E-03 1.67099E-05-5.29396E-23
 -1        66 2.34504E-03-1.55024E-06-1.05879E-22
 -1        67 2.34854E-03-2.24890E-05 0.00000E+00
 -1        68 2.35229E-03-4.41558E-05 1.05879E-22
 -1        69 2.35561E-03-6.45300E-05-5.29396E-23
 -1        70 2.35782E-03-8.18250E-05-5.29396E-23
 -1        86 1.48185E-03-3.42168E-06 0.00000E+00
 -1        87 1.65280E-03-1.93522E-05 0.00000E+00
 -1        88 1.88262E-03-4.61903E-05 0.00000E+00
 -1        89 2.11495E-03-7.36081E-05 1.32349E-23
 -1        90 2.29205E-03-9.05376E-05 0.00000E+00
 -1       121 3.27856E-04-5.62744E-07-1.32349E-23
 -1       122 3.25285E-04-1.12832E-06 0.00000E+00
 -1       123 3.21011E-04-1.69949E-06 1.32349E-23
 -1       124 3.15050E-04-2.27906E-06 0.00000E+00
 -1       125 3.07424E-04-2.86942E-06 0.00000E+00
 -1       191 1.71968E-04 1.31786E-07-2.68834E-24
 -1       192 1.72106E-04 2.63563E-07 1.03398E-25
 -1       193 1.72334E-04 3.95325E-07 2.48154E-24
 -1       194 1.72654E-04 5.27060E-07 1.03398E-25
 -1       195 1.73066E-04 6.58758E-07 3.10193E-24
 -1       251 2.37441E-03-5.91876E-06-1.32349E-23
 -1       252 2.37353E-03-2.82350E-05 0.00000E+00
 -1       253 2.37230E-03-6.36863E-05 0.00000E+00
 -1       254 2.37072E-03-1.08184E-04 6.61744E-24
 -1       255 2.36904E-03-1.54948E-04-1.32349E-23
 -1       256 2.36756E-03-1.97141E-04 6.61744E-24
 -1       257 2.36642E-03-2.29294E-04 2.64698E-23
 -1       258 2.36564E-03-2.46192E-04-1.32349E-23
 -1       259 2.36500E-03-2.47130E-04 2.64698E-23
 -1       260 2.36425E-03-2.31816E-04 1.32349E-23
 -1       261 2.36327E-03-2.04754E-04 0.00000E+00
 -1       262 2.36208E-03-1.70749E-04 0.00000E+00
 -1       263 2.36089E-03-1.36682E-04 2.64698E-23
 -1       264 2.35990E-03-1.09435E-04 1.32349E-23
 -1       265 2.35914E-03-9.38495E-05 2.64698E-23
 -1       266 2.37200E-03-4.96292E-07 0.00000E+00
 -1       267 2.36896E-03-5.02243E-07 0.00000E+00
 -1       268 2.36591E-03-5.08698E-07 8.27181E-25
 -1       269 2.36287E-03-5.13660E-07 0.00000E+00
 -1       270 2.35982E-03-5.18587E-07 2.06795E-25
 -1       271 2.37344E-03 1.62131E-06 0.00000E+00
 -1       272 2.37231E-03 2.38328E-06 0.00000E+00
 -1       273 2.37168E-03 1.83055E-06-2.64698E-23
 -1       274 2.37153E-03-7.34799E-09 0.00000E+00
 -1       275 2.37183E-03-3.08565E-06 2.64698E-23
 -1       276 2.37258E-03-7.34937E-06 1.32349E-23
 -1       277 2.37374E-03-1.27315E-05-2.64698E-23
 -1       278 2.37528E-03-1.91546E-05-1.32349E-23
 -1       279 2.37718E-03-2.65314E-05 0.00000E+00
 -1       280 2.37939E-03-3.47652E-05 0.00000E+00
 -1       281 2.38187E-03-4.37510E-05 2.64698E-23
 -1       282 2.38459E-03-5.33769E-05 1.32349E-23
 -1       283 2.38750E-03-6.35246E-05-2.64698E-23
 -1       284 2.39055E-03-7.40702E-05 1.32349E-23
 -1       285 2.39371E-03-8.48875E-05-5.29396E-23
 -1       301 2.36546E-03-9.47216E-05 1.32349E-23
 -1       302 2.37113E-03-9.49407E-05 0.00000E+00
 -1       303 2.37630E-03-9.51544E-05 0.00000E+00
 -1       304 2.38178E-03-9.53686E-05 6.61744E-24
 -1       305 2.38839E-03-9.55912E-05 0.00000E+00
 -1       306 2.39383E-03-2.35364E-04 0.00000E+00
 -1       307 2.45834E-03-6.22145E-04 0.00000E+00
 -1       308 2.51136E-03-1.19232E-03 0.00000E+00
 -1       309 2.54488E-03-1.85724E-03-5.29396E-23
 -1       310 2.58337E-03-2.49902E-03 1.05879E-22
 -1       311 2.64461E-03-3.00183E-03 0.00000E+00
 -1       312 2.70357E-03-3.28893E-03 1.05879E-22
 -1       313 2.70711E-03-3.32017E-03 5.29396E-23
 -1       314 2.58966E-03-3.10391E-03-1.05879E-22
 -1       315 2.31241E-03-2.69527E-03 0.00000E+00
 -1       316 1.89008E-03-2.16566E-03 0.00000E+00
 -1       317 1.38016E-03-1.58246E-03 0.00000E+00
 -1       318 8.85446E-04-1.00826E-03-1.05879E-22
 -1       319 5.04237E-04-5.08386E-04 0.00000E+00
 -1       320 2.78078E-04-1.52353E-04 1.05879E-22
 -1       336 2.87090E-04-4.14053E-06-1.32349E-23
 -1       337 2.74036E-04-4.83069E-06 0.00000E+00
 -1       338 2.59062E-04-5.54623E-06-1.32349E-23
 -1       339 2.42241E-04-6.28774E-06 0.00000E+00
 -1       340 2.23653E-04-7.05939E-06-1.32349E-23
 -1       406 1.74164E-04 9.21996E-07 1.44757E-24
 -1       407 1.74850E-04 1.05348E-06 7.23783E-25
 -1       408 1.75628E-04 1.18483E-06 3.10193E-24
 -1       409 1.76497E-04 1.31586E-06-4.65289E-25
 -1       410 1.77458E-04 1.44631E-06-8.27181E-25
 -1       521 2.43302E-03-2.45783E-04 0.00000E+00
 -1       522 2.49634E-03-6.51724E-04 0.00000E+00
 -1       523 2.54413E-03-1.24812E-03 1.05879E-22
 -1       524 2.56987E-03-1.94012E-03 5.29396E-23
 -1       525 2.60156E-03-2.60718E-03 0.00000E+00
 -1       526 2.65968E-03-3.13105E-03-5.29396E-23
 -1       527 2.71832E-03-3.42890E-03 2.11758E-22
 -1       528 2.72018E-03-3.45958E-03 0.00000E+00
 -1       529 2.59297E-03-3.23107E-03 2.11758E-22
 -1       530 2.29555E-03-2.80520E-03 5.29396E-23
 -1       531 1.84307E-03-2.25675E-03-1.05879E-22
 -1       532 1.29845E-03-1.65597E-03 5.29396E-23
 -1       533 7.69301E-04-1.06367E-03 0.00000E+00
 -1       534 3.58614E-04-5.43531E-04 0.00000E+00
 -1       535 1.13436E-04-1.69015E-04 0.00000E+00
 -1       536 2.02683E-04 2.55453E-05 0.00000E+00
 -1       537 2.00912E-04 8.34373E-05 0.00000E+00
 -1       538 1.98180E-04 1.56929E-04-3.30872E-24
 -1       539 1.94958E-04 2.37038E-04-1.65436E-24
 -1       540 1.92058E-04 3.12739E-04 0.00000E+00
 -1       541 1.90169E-04 3.73030E-04 1.65436E-24
 -1       542 1.89292E-04 4.11406E-04 3.30872E-24
 -1       543 1.89075E-04 4.21503E-04 0.00000E+00
 -1       544 1.88766E-04 4.04078E-04 0.00000E+00
 -1       545 1.87671E-04 3.60091E-04 0.00000E+00
 -1       546 1.85643E-04 2.97372E-04-3.30872E-24
 -1       547 1.82907E-04 2.23862E-04 1.65436E-24
 -1       548 1.80197E-04 1.50746E-04 0.00000E+00
 -1       549 1.78241E-04 8.92136E-05 0.00000E+00
 -1       550 1.77220E-04 4.69794E-05 1.65436E-24
 -1       551 1.79270E-04-8.39505E-06 0.00000E+00
 -1       552 1.51996E-04-9.01793E-06 0.00000E+00
 -1       553 1.22492E-04-9.69855E-06 9.92617E-24
 -1       554 9.17031E-05-1.04171E-05 0.00000E+00
 -1       555 6.05753E-05-1.11477E-05 0.00000E+00
 -1       556 1.96104E-04 1.07919E-05 0.00000E+00
 -1       557 1.90230E-04 2.58841E-05 0.00000E+00
 -1       558 1.85633E-04 3.77082E-05 0.00000E+00
 -1       559 1.82186E-04 4.65640E-05 0.00000E+00
 -1       560 1.79764E-04 5.27516E-05 0.00000E+00
 -1       561 1.78245E-04 5.65738E-05 0.00000E+00
 -1       562 1.77506E-04 5.83343E-05 0.00000E+00
 -1       563 1.77429E-04 5.83377E-05-1.32349E-23
 -1       564 1.77897E-04 5.68896E-05 0.00000E+00
 -1       565 1.78793E-04 5.42960E-05 0.00000E+00
 -1       566 1.80001E-04 5.08634E-05 0.00000E+00
 -1       567 1.81407E-04 4.68988E-05 0.00000E+00
 -1       568 1.82897E-04 4.27093E-05 8.27181E-25
 -1       569 1.84356E-04 3.86020E-05 0.00000E+00
 -1       570 1.85670E-04 3.48839E-05 0.00000E+00
 -1       571 1.77043E-04 2.96896E-05 1.65436E-24
 -1       572 1.77139E-04 2.76763E-05 8.27181E-25
 -1       573 1.77236E-04 2.56145E-05-3.30872E-24
 -1       574 1.77334E-04 2.35197E-05-8.27181E-25
 -1       575 1.77431E-04 2.14078E-05 0.00000E+00
 -1       576 1.77529E-04 1.92946E-05-1.65436E-24
 -1       577 1.77626E-04 1.71960E-05 0.00000E+00
 -1       578 1.77724E-04 1.51277E-05 0.00000E+00
 -1       579 1.77822E-04 1.31057E-05 0.00000E+00
 -1       580 1.77920E-04 1.11459E-05-6.61744E-24
 -1       581 1.78018E-04 9.26401E-06 0.00000E+00
 -1       582 1.78116E-04 7.47595E-06 3.30872E-24
 -1       583 1.78214E-04 5.79754E-06 6.61744E-24
 -1       584 1.78312E-04 4.24446E-06 3.30872E-24
 -1       585 1.78411E-04 2.83219E-06 0.00000E+00
 -1       586 1.78535E-04 3.16777E-05-1.65436E-24
 -1       587 1.80083E-04 3.17156E-05-4.13590E-25
 -1       588 1.81634E-04 3.17531E-05-8.27181E-25
 -1       589 1.83231E-04 3.17900E-05 0.00000E+00
 -1       590 1.84915E-04 3.18257E-05 0.00000E+00
 -1       591 1.77614E-04 2.97788E-05 0.00000E+00
 -1       592 1.78283E-04 2.78977E-05 0.00000E+00
 -1       593 1.78957E-04 2.60018E-05 0.00000E+00
 -1       594 1.79635E-04 2.40959E-05 4.13590E-25
 -1       595 1.80315E-04 2.21848E-05 8.27181E-25
 -1       596 1.80994E-04 2.02733E-05-4.13590E-25
 -1       597 1.81672E-04 1.83661E-05-8.27181E-25
 -1       598 1.82347E-04 1.64680E-05 4.13590E-25
 -1       599 1.83017E-04 1.45837E-05 0.00000E+00
 -1       600 1.83679E-04 1.27180E-05 0.00000E+00
 -1       601 1.84333E-04 1.08757E-05-8.27181E-25
 -1       602 1.84977E-04 9.06134E-06 0.00000E+00
 -1       603 1.85608E-04 7.27987E-06-4.13590E-25
 -1       604 1.86226E-04 5.53608E-06 2.58494E-26
 -1       605 1.86828E-04 3.83465E-06 0.00000E+00
 -1       606 1.78522E-04 5.44902E-07 0.00000E+00
 -1       607 1.78532E-04-3.98190E-07 1.65436E-24
 -1       608 1.78541E-04-1.25942E-06 0.00000E+00
 -1       609 1.78550E-04-2.04454E-06 0.00000E+00
 -1       610 1.78558E-04-2.75936E-06 0.00000E+00
 -1       611 1.78567E-04-3.40976E-06 0.00000E+00
 -1       612 1.78575E-04-4.00161E-06 0.00000E+00
 -1       613 1.78584E-04-4.54079E-06 0.00000E+00
 -1       614 1.78592E-04-5.03320E-06 0.00000E+00
 -1       615 1.78601E-04-5.48472E-06 0.00000E+00
 -1       616 1.78609E-04-5.90123E-06 0.00000E+00
 -1       617 1.78618E-04-6.28863E-06 0.00000E+00
 -1       618 1.78626E-04-6.65279E-06 0.00000E+00
 -1       619 1.78635E-04-6.99960E-06 2.06795E-25
 -1       620 1.78643E-04-7.33496E-06 0.00000E+00
 -1       621 1.79726E-04 1.67655E-06 0.00000E+00
 -1       622 1.81091E-04 1.77839E-06 8.27181E-25
 -1       623 1.82575E-04 1.88005E-06 0.00000E+00
 -1       624 1.84144E-04 1.98141E-06 8.27181E-25
 -1       625 1.85769E-04 2.08250E-06 0.00000E+00
 -1       626 1.79005E-04 5.80217E-07 0.00000E+00
 -1       627 1.79478E-04-3.49917E-07 0.00000E+00
 -1       628 1.79930E-04-1.22330E-06 0.00000E+00
 -1       629 1.80364E-04-2.04810E-06-1.65436E-24
 -1       630 1.80783E-04-2.83255E-06 0.00000E+00
 -1       631 1.81189E-04-3.58486E-06 0.00000E+00
 -1       632 1.81587E-04-4.31326E-06 0.00000E+00
 -1       633 1.81979E-04-5.02598E-06 0.00000E+00
 -1       634 1.82368E-04-5.73124E-06 0.00000E+00
 -1       635 1.82757E-04-6.43727E-06-1.65436E-24
 -1       636 1.83150E-04-7.15232E-06-3.30872E-24
 -1       637 1.83549E-04-7.88459E-06 1.65436E-24
 -1       638 1.83958E-04-8.64233E-06 1.65436E-24
 -1       639 1.84379E-04-9.43379E-06 1.65436E-24
 -1       640 1.84815E-04-1.02672E-05-1.65436E-24
 -1       656 1.79212E-04-8.23142E-06 0.00000E+00
 -1       657 1.80191E-04-8.82109E-06-6.61744E-24
 -1       658 1.81446E-04-9.40937E-06 1.32349E-23
 -1       659 1.82833E-04-9.99730E-06-6.61744E-24
 -1       660 1.84167E-04-1.05870E-05-6.61744E-24
 -1       661 1.78862E-04-8.03829E-06 0.00000E+00
 -1       662 1.79109E-04-8.50112E-06-8.27181E-25
 -1       663 1.79387E-04-9.04823E-06 0.00000E+00
 -1       664 1.79696E-04-9.67338E-06 8.27181E-25
 -1       665 1.80031E-04-1.03710E-05 0.00000E+00
 -1       666 1.80392E-04-1.11354E-05 0.00000E+00
 -1       667 1.80776E-04-1.19612E-05 1.65436E-24
 -1       668 1.81180E-04-1.28431E-05 0.00000E+00
 -1       669 1.81604E-04-1.37758E-05 1.65436E-24
 -1       670 1.82045E-04-1.47543E-05 0.00000E+00
 -1       671 1.82501E-04-1.57737E-05 1.65436E-24
 -1       672 1.82970E-04-1.68291E-05 0.00000E+00
 -1       673 1.83451E-04-1.79156E-05 1.65436E-24
 -1       674 1.83941E-04-1.90290E-05-8.27181E-25
 -1       675 1.84439E-04-2.01640E-05-4.13590E-25
 -1       676 1.78982E-04-2.08085E-05 0.00000E+00
 -1       677 1.80178E-04-2.09111E-05 0.00000E+00
 -1       678 1.81372E-04-2.10136E-05 3.30872E-24
 -1       679 1.82564E-04-2.11159E-05-1.65436E-24
 -1       680 1.83754E-04-2.12181E-05 0.00000E+00
 -1       771 1.86126E-05 1.36252E-05 5.29396E-23
 -1       772 8.98156E-06 3.45778E-05 0.00000E+00
 -1       773 1.06910E-06 5.11935E-05 0.00000E+00
 -1       774-5.24268E-06 6.37197E-05-2.64698E-23
 -1       775-1.00693E-05 7.24135E-05 0.00000E+00
 -1       776-1.35308E-05 7.75477E-05 2.64698E-23
 -1       777-1.57474E-05 7.94046E-05 1.05879E-22
 -1       778-1.68416E-05 7.82794E-05 2.64698E-23
 -1       779-1.69353E-05 7.44752E-05-5.29396E-23
 -1       780-1.61526E-05 6.83058E-05 0.00000E+00
 -1       781-1.46168E-05 6.00915E-05 0.00000E+00
 -1       782-1.24525E-05 5.01608E-05 0.00000E+00
 -1       783-9.78373E-06 3.88463E-05 5.29396E-23
 -1       784-6.73559E-06 2.64867E-05 0.00000E+00
 -1       785-3.43236E-06 1.34234E-05-1.05879E-22
 -1       786 1.86767E-04 2.97776E-05 0.00000E+00
 -1       787 1.86810E-04 2.77473E-05-4.13590E-25
 -1       788 1.86852E-04 2.57582E-05 0.00000E+00
 -1       789 1.86895E-04 2.38023E-05 0.00000E+00
 -1       790 1.86938E-04 2.18749E-05 0.00000E+00
 -1       791 1.86981E-04 1.99714E-05 8.27181E-25
 -1       792 1.87024E-04 1.80895E-05 1.65436E-24
 -1       793 1.87068E-04 1.62270E-05 0.00000E+00
 -1       794 1.87111E-04 1.43838E-05 0.00000E+00
 -1       795 1.87154E-04 1.25597E-05 0.00000E+00
 -1       796 1.87198E-04 1.07566E-05-1.65436E-24
 -1       797 1.87241E-04 8.97635E-06-8.27181E-25
 -1       798 1.87285E-04 7.22313E-06 1.65436E-24
 -1       799 1.87329E-04 5.50125E-06-8.27181E-25
 -1       800 1.87372E-04 3.81816E-06 0.00000E+00
 -1       801 1.43301E-04 2.85918E-05-2.64698E-23
 -1       802 1.18878E-05 1.79217E-05 0.00000E+00
 -1       803-1.00758E-04 9.10590E-06-5.29396E-23
 -1       804-9.00041E-05 6.31544E-06-2.64698E-23
 -1       805-2.98117E-05 2.52463E-06-5.29396E-23
 -1       806 1.87396E-04 2.97106E-05 0.00000E+00
 -1       807 1.88049E-04 2.75898E-05 0.00000E+00
 -1       808 1.88690E-04 2.55003E-05 0.00000E+00
 -1       809 1.89317E-04 2.34459E-05 0.00000E+00
 -1       810 1.89930E-04 2.14307E-05 0.00000E+00
 -1       811 1.90527E-04 1.94582E-05 0.00000E+00
 -1       812 1.91106E-04 1.75324E-05 3.30872E-24
 -1       813 1.91666E-04 1.56571E-05-1.65436E-24
 -1       814 1.92206E-04 1.38359E-05 0.00000E+00
 -1       815 1.92725E-04 1.20726E-05-1.65436E-24
 -1       816 1.93220E-04 1.03711E-05 1.65436E-24
 -1       817 1.93692E-04 8.73490E-06 8.27181E-25
 -1       818 1.94137E-04 7.16790E-06 1.65436E-24
 -1       819 1.94555E-04 5.67379E-06 8.27181E-25
 -1       820 1.94946E-04 4.25625E-06 0.00000E+00
 -1       821 1.87290E-04 1.24479E-07-1.65436E-24
 -1       822 1.87153E-04-2.81483E-06 0.00000E+00
 -1       823 1.87016E-04-6.29138E-06 3.30872E-24
 -1       824 1.86876E-04-9.95676E-06 1.65436E-24
 -1       825 1.86737E-04-1.34123E-05 0.00000E+00
 -1       826 1.86600E-04-1.62605E-05 0.00000E+00
 -1       827 1.86464E-04-1.82671E-05-3.30872E-24
 -1       828 1.86330E-04-1.92029E-05 0.00000E+00
 -1       829 1.86196E-04-1.91263E-05 3.30872E-24
 -1       830 1.86062E-04-1.81020E-05 1.65436E-24
 -1       831 1.85927E-04-1.64490E-05 0.00000E+00
 -1       832 1.85792E-04-1.44903E-05 0.00000E+00
 -1       833 1.85657E-04-1.26311E-05 0.00000E+00
 -1       834 1.85525E-04-1.12759E-05-1.65436E-24
 -1       835 1.85392E-04-1.06942E-05 0.00000E+00
 -1       836 1.88939E-04 2.30378E-06 3.30872E-24
 -1       837 1.90337E-04 2.42917E-06 1.65436E-24
 -1       838 1.91641E-04 2.55448E-06-3.30872E-24
 -1       839 1.92883E-04 2.67910E-06-8.27181E-25
 -1       840 1.94095E-04 2.80355E-06 0.00000E+00
 -1       856 1.85251E-04-1.20568E-05 0.00000E+00
 -1       857 1.85231E-04-1.28287E-05 0.00000E+00
 -1       858 1.85211E-04-1.34877E-05 0.00000E+00
 -1       859 1.85190E-04-1.40545E-05 0.00000E+00
 -1       860 1.85170E-04-1.45502E-05 0.00000E+00
 -1       861 1.85149E-04-1.49956E-05 0.00000E+00
 -1       862 1.85128E-04-1.54119E-05 0.00000E+00
 -1       863 1.85108E-04-1.58202E-05 0.00000E+00
 -1       864 1.85087E-04-1.62414E-05-8.27181E-25
 -1       865 1.85067E-04-1.66967E-05 0.00000E+00
 -1       866 1.85046E-04-1.72072E-05 0.00000E+00
 -1       867 1.85025E-04-1.77937E-05 4.13590E-25
 -1       868 1.85004E-04-1.84772E-05 0.00000E+00
 -1       869 1.84983E-04-1.92786E-05-4.13590E-25
 -1       870 1.84962E-04-2.02187E-05 8.27181E-25
 -1       871 1.86455E-04-1.11554E-05 8.27181E-25
 -1       872 1.87788E-04-1.11631E-05 0.00000E+00
 -1       873 1.89198E-04-1.11715E-05 0.00000E+00
 -1       874 1.90620E-04-1.11807E-05 1.29247E-25
 -1       875 1.91987E-04-1.11904E-05-8.27181E-25
 -1       876 1.85732E-04-1.20425E-05 0.00000E+00
 -1       877 1.86175E-04-1.28683E-05 0.00000E+00
 -1       878 1.86597E-04-1.36361E-05-3.30872E-24
 -1       879 1.86999E-04-1.43533E-05 1.65436E-24
 -1       880 1.87386E-04-1.50271E-05 0.00000E+00
 -1       881 1.87759E-04-1.56648E-05 1.65436E-24
 -1       882 1.88122E-04-1.62737E-05 0.00000E+00
 -1       883 1.88476E-04-1.68610E-05 0.00000E+00
 -1       884 1.88825E-04-1.74340E-05 0.00000E+00
 -1       885 1.89171E-04-1.79998E-05 0.00000E+00
 -1       886 1.89518E-04-1.85658E-05 3.30872E-24
 -1       887 1.89867E-04-1.91391E-05 0.00000E+00
 -1       888 1.90221E-04-1.97271E-05 0.00000E+00
 -1       889 1.90583E-04-2.03371E-05 0.00000E+00
 -1       890 1.90955E-04-2.09764E-05 1.65436E-24
 -1       891 1.86146E-04-2.13745E-05-1.65436E-24
 -1       892 1.87329E-04-2.14311E-05-8.27181E-25
 -1       893 1.88465E-04-2.14875E-05-8.27181E-25
 -1       894 1.89527E-04-2.15438E-05 8.27181E-25
 -1       895 1.90492E-04-2.15998E-05 4.13590E-25
 -1       956 1.95180E-04 1.75149E-06 1.65436E-24
 -1       957 1.95050E-04 6.72983E-07 8.27181E-25
 -1       958 1.94920E-04-3.26993E-07-3.30872E-24
 -1       959 1.94790E-04-1.25941E-06 1.65436E-24
 -1       960 1.94660E-04-2.13530E-06 0.00000E+00
 -1       961 1.94530E-04-2.96570E-06 1.65436E-24
 -1       962 1.94400E-04-3.76168E-06-3.30872E-24
 -1       963 1.94270E-04-4.53432E-06 0.00000E+00
 -1       964 1.94139E-04-5.29470E-06 0.00000E+00
 -1       965 1.94009E-04-6.05389E-06 1.65436E-24
 -1       966 1.93879E-04-6.82298E-06 0.00000E+00
 -1       967 1.93749E-04-7.61305E-06 0.00000E+00
 -1       968 1.93619E-04-8.43515E-06 0.00000E+00
 -1       969 1.93489E-04-9.30033E-06 1.65436E-24
 -1       970 1.93360E-04-1.02196E-05 0.00000E+00
 -1       971 1.93114E-04-1.21854E-05-3.30872E-24
 -1       972 1.92995E-04-1.30736E-05-1.65436E-24
 -1       973 1.92876E-04-1.38783E-05-3.30872E-24
 -1       974 1.92757E-04-1.46104E-05-1.65436E-24
 -1       975 1.92637E-04-1.52806E-05 0.00000E+00
 -1       976 1.92518E-04-1.58996E-05-1.65436E-24
 -1       977 1.92399E-04-1.64783E-05 3.30872E-24
 -1       978 1.92280E-04-1.70275E-05 1.65436E-24
 -1       979 1.92161E-04-1.75580E-05-3.30872E-24
 -1       980 1.92041E-04-1.80805E-05 0.00000E+00
 -1       981 1.91922E-04-1.86059E-05 3.30872E-24
 -1       982 1.91803E-04-1.91450E-05 0.00000E+00
 -1       983 1.91684E-04-1.97085E-05 3.30872E-24
 -1       984 1.91566E-04-2.03074E-05 0.00000E+00
 -1       985 1.91448E-04-2.09524E-05 0.00000E+00
 -3
    1PSTEP                        40          20           1          
  100CL  120 6.53564E-01         409                     0   20           1
 -4  STRESS      6    1
 -5  SXX         1    4    1    1
 -5  SYY         1    4    2    2
 -5  SZZ         1    4    3    3
 -5  SXY         1    4    1    2
 -5  SYZ         1    4    2    3
 -5  SZX         1    4    3    1
 -1         1-4.76323E+06-1.67851E+06-1.03293E+06-1.59859E+06-1.01863E-10 5.09317E-08
 -1         2 6.46500E+05 8.96244E+06 2.43000E+06 2.91261E+06 1.61817E-08-1.51122E-08
 -1         3-1.35789E+03-1.59888E+06 4.07391E+02-2.16811E+03-4.44299E-10 1.29148E-09
 -1         5-6.00338E+01 3.77326E+05 9.74534E+00-1.14456E+00-1.91450E-10-1.46974E-09
 -1         8-8.11591E+05-2.61752E+05-1.02973E+05-3.30351E+05 2.91038E-11-5.21031E-08
 -1         9 9.62477E+06 1.42980E+06 1.98965E+06-6.98820E+05 8.14907E-09-5.49015E-08
 -1        10-2.21528E+03-1.66616E+06-3.92364E+03-1.46587E+04-1.37916E-08-4.71206E-08
 -1        12-5.61696E+01 3.77347E+05 3.19443E+02-7.87654E+00-6.25047E-10-2.50629E-08
 -1        15 1.17603E+03 6.46289E+02 3.80149E+03 1.54811E+00-3.64125E-10-1.33477E-08
 -1        16 2.00422E+07-2.12082E+05 2.77912E+06-1.74645E+06 1.37758E-09 2.53009E-07
 -1        17 7.29166E+06 5.31998E+06 1.96480E+06 5.15763E+06 2.02563E-08 2.22819E-08
 -1        18 1.26851E+05 2.93187E+04 1.08163E+03-1.15727E+05 1.51842E-08-2.98451E-09
 -1        19 1.19748E+05 1.38484E+05-9.27960E+02 2.16724E+04 1.50430E-09-1.97721E-08
 -1        20-7.86053E+04-5.61703E+05-1.25927E+05 2.55175E+04-1.86553E-09 1.40190E-08
 -1        21-4.52907E+01-2.91815E+05-9.12765E+02 2.39440E+02 1.77100E-08-2.84406E-09
 -1        24 1.20301E+07 1.02653E+07 3.36104E+06 9.53494E+06-1.59625E-07-5.48122E-08
 -1        25 9.80240E+04 1.68533E+05 7.47054E+04-5.87266E+05-2.09720E-09 7.03694E-09
 -1        26-5.39913E+04 9.00635E+04-2.41319E+04 7.22265E+02-5.78439E-11 1.47378E-08
 -1        27-7.51579E+04-3.03772E+05-1.11287E+05 6.76195E+04 4.07590E-09 2.01489E-08
 -1        28 2.19787E+04-8.39274E+04 1.66503E+04 2.06431E+04-3.28487E-09-1.11609E-08
 -1        32-1.65441E+06-3.08264E+06-1.84952E+05 3.52930E+05-4.07672E-08-8.01151E-09
 -1        33-1.75138E+05 9.07999E+04 3.16941E+04-3.80637E+04-2.67081E-09 2.60813E-08
 -1        34-2.19536E+05-2.43763E+04 6.68730E+02 7.38560E+04-5.14599E-09-1.98720E-08
 -1        35-2.26319E+04-3.32872E+04-1.32503E+03 5.07748E+04-2.55273E-09 5.46182E-09
 -1        51 5.31033E+04-1.99737E+05 1.16344E+05-5.82782E+05 1.01863E-10-1.05072E-07
 -1        52 1.88999E+04-1.80340E+05 6.23321E+04-6.82241E+05 7.27596E-12-1.39302E-07
 -1        53 4.76743E+03-1.96161E+05 3.43224E+04-5.80676E+05-4.07454E-10-3.36804E-08
 -1        54 1.02981E+04-1.92280E+05 3.19473E+04-6.84375E+05-5.74801E-10 5.36966E-08
 -1        55 2.16425E+04-2.01199E+05 4.31525E+04-5.80449E+05 1.74623E-10 5.78730E-08
 -1        56-8.85588E+06-1.03850E+06-7.69235E+05-3.50760E+06-5.83532E-09-3.89118E-08
 -1        57-9.50351E+06-1.37534E+06-5.15510E+05-3.07610E+06 2.07292E-08 1.52126E-07
 -1        58-8.94923E+06-1.33323E+06-1.79694E+05-3.51868E+06-3.00133E-09-1.08761E-07
 -1        59-9.37450E+06-1.04726E+06-1.06668E+05-3.09083E+06-1.24128E-08-6.03668E-08
 -1        60-8.98621E+06-1.35550E+06-4.26148E+04-3.49837E+06 4.73028E-09-1.89531E-07
 -1        61-9.24860E+06-1.09109E+06-2.10075E+04-3.18220E+06-1.44501E-08-1.67688E-07
 -1        62-9.06537E+06-1.29452E+06-1.54395E+04-3.42072E+06-3.18396E-08-1.35737E-07
 -1        63-9.07270E+06-1.24644E+06-5.01803E+03-3.35944E+06-2.10439E-08-1.26238E-09
 -1        64-9.15495E+06-1.20492E+06-1.46121E+04-3.31615E+06 2.42326E-08-3.15231E-08
 -1        65-8.93401E+06-1.40489E+06-1.87367E+04-3.54939E+06-7.34799E-08-1.76120E-07
 -1        66-9.21132E+06-1.13125E+06-3.82024E+04-3.23608E+06-5.85169E-09 2.74849E-09
 -1        67-8.89689E+06-1.51669E+06-9.52861E+04-3.64503E+06-2.01280E-08 9.11077E-08
 -1        68-9.20178E+06-1.08780E+06-1.60616E+05-3.22675E+06-3.81515E-08 3.56813E-08
 -1        69-9.07920E+06-1.74140E+06-4.60388E+05-3.55101E+06-4.04743E-08-9.24265E-08
 -1        70-9.02696E+06-9.17172E+05-6.88004E+05-3.32484E+06-6.43195E-09 1.15950E-07
 -1        86-6.56835E+05-9.04485E+06-1.32543E+06-1.39412E+06-1.82750E-07-7.32398E-08
 -1        87 9.49697E+05 1.65007E+06 1.10103E+06 3.04786E+06-3.17646E-07-1.16534E-07
 -1        88-1.37583E+05-2.58017E+06 8.89469E+04-1.62334E+06-2.81831E-07-1.51271E-07
 -1        89 1.28548E+06 1.51964E+06 1.10661E+06 3.12545E+06-4.32308E-07-1.70756E-07
 -1        90-9.58391E+05-8.94565E+06-1.45844E+06-1.47868E+06-1.09449E-07-1.60071E-09
 -1       121-1.86521E+03-1.60339E+06-4.57041E+02 1.07563E+03 1.40966E-09-3.22507E-08
 -1       122-1.17334E+03-1.59893E+06 7.84633E+02-4.33767E+03-5.28914E-09-5.26343E-08
 -1       123-1.89151E+03-1.60352E+06 3.79386E+02 3.21192E+03 4.34534E-09 2.38470E-08
 -1       124 4.88853E+02-1.59843E+06 3.04312E+03-9.06332E+03-9.06175E-09 2.32267E-08
 -1       125-2.73365E+03-1.60443E+06 3.69865E+03 5.76176E+03 6.40830E-09-1.39589E-08
 -1       191-6.33241E+01 3.77347E+05 8.96683E+00 5.92836E-01-4.80566E-10 1.41645E-08
 -1       192-6.09650E+01 3.77327E+05 2.07634E+01-3.74376E+00-8.36347E-10-9.20772E-09
 -1       193-6.57804E+01 3.77347E+05 3.60058E+01 3.27725E+00-9.46139E-10-1.46829E-08
 -1       194-6.39528E+01 3.77330E+05 7.88528E+01-8.52109E+00-6.04768E-10-1.80571E-08
 -1       195-7.04961E+01 3.77344E+05 1.51621E+02 5.51150E+00-1.37592E-09-2.30812E-08
 -1       251-1.90775E+06 2.75311E+04-1.40386E+05 4.16728E+04 1.24237E-09-3.89336E-08
 -1       252-1.64859E+06-3.27483E+04-4.04548E+04-1.53106E+05-3.27236E-09 9.85983E-09
 -1       253-1.82013E+06-3.60508E+02-3.56900E+04 1.42072E+05 2.51021E-10-1.02464E-07
 -1       254-1.77904E+06 1.05881E+04-1.03344E+04-2.69182E+05 3.28345E-09-2.92039E-09
 -1       255-1.79185E+06-3.66039E+03-7.68273E+03 1.58381E+05-4.08909E-09 8.16717E-08
 -1       256-1.69114E+06 1.40389E+04 1.84609E+04-2.11282E+05-1.73036E-08 1.91939E-07
 -1       257-1.89967E+06-1.06698E+04-2.53833E+04 8.37310E+04 9.71522E-09 1.04204E-07
 -1       258-1.55254E+06 9.75237E+03 4.69365E+04-1.18583E+04-8.43283E-09 2.98890E-07
 -1       259-1.91699E+06-1.04504E+04-2.69285E+04-4.10412E+04 1.50121E-08 1.46238E-07
 -1       260-1.65268E+06 1.02880E+04 2.99455E+04 2.02862E+05-8.72797E-09-3.63919E-08
 -1       261-1.80973E+06-2.79901E+03-8.40779E+02-1.30519E+05-2.08320E-08-6.47606E-09
 -1       262-1.77125E+06 1.58562E+04 1.33197E+04 2.92444E+05 1.26835E-09-5.49389E-08
 -1       263-1.81045E+06-6.08199E+03 7.44476E+03-1.30957E+05 5.99721E-09 2.38152E-07
 -1       264-1.64136E+06 3.91616E+04 6.07771E+04 2.04826E+05-3.05711E-08 8.57594E-08
 -1       265-1.92773E+06-3.57986E+04 1.39504E+04-4.25696E+04-1.65528E-08 5.95974E-08
 -1       266-2.12901E+04-9.95571E+03 4.99506E+04-3.31238E+01 3.63798E-12-5.40621E-08
 -1       267 2.46810E+04 1.16029E+04 3.53054E+04 3.82196E+01 1.81899E-12-1.33316E-07
 -1       268-3.30968E+03-1.64333E+03 1.31228E+04-4.86977E+00-1.16415E-10-9.66371E-08
 -1       269 3.90775E+03 1.96668E+03 8.52966E+03 5.67263E+00-8.39009E-11-8.84055E-08
 -1       270-5.86559E+02-3.23142E+02 4.11739E+03-7.69812E-01-6.15046E-11-3.82352E-08
 -1       271-1.82351E+06-2.25211E+05-1.33878E+05-7.03512E+05 2.71848E-09-3.62998E-08
 -1       272-1.87419E+06-3.17727E+05-8.57452E+04-6.96835E+05-3.63802E-08-1.37183E-07
 -1       273-1.84996E+06-2.57121E+05-3.18332E+04-6.96043E+05 9.49149E-09-2.01815E-07
 -1       274-1.84217E+06-2.79691E+05-1.75289E+04-7.09121E+05 2.21162E-08-5.38748E-08
 -1       275-1.85516E+06-2.58807E+05-7.58515E+03-6.93039E+05 2.61498E-08-1.08986E-07
 -1       276-1.83499E+06-2.78925E+05-3.74418E+03-7.14952E+05-5.42423E-08 6.24641E-09
 -1       277-1.85755E+06-2.57158E+05-2.04392E+03-6.90713E+05 2.13950E-08 4.48513E-08
 -1       278-1.83144E+06-2.81968E+05-1.12057E+03-7.19636E+05-2.77942E-09-7.12280E-08
 -1       279-1.85927E+06-2.55367E+05-1.27251E+03-6.88776E+05-8.40373E-10 3.25454E-08
 -1       280-1.82912E+06-2.85051E+05-1.85613E+03-7.23474E+05-3.75708E-08 6.46030E-08
 -1       281-1.86047E+06-2.53723E+05-3.48151E+03-6.87276E+05 3.93939E-08-8.74161E-08
 -1       282-1.82888E+06-2.89430E+05-8.07788E+03-7.26103E+05-7.04022E-08-1.34978E-08
 -1       283-1.86005E+06-2.50873E+05-1.44272E+04-6.86424E+05-1.30840E-08-2.93394E-08
 -1       284-1.84034E+06-3.10366E+05-3.92419E+04-7.24981E+05 3.89987E-08-1.42314E-07
 -1       285-1.84964E+06-2.34535E+05-6.09833E+04-6.87934E+05-2.60425E-08-1.81135E-08
 -1       301 8.33055E+03-5.59772E+05 1.70727E+05-9.77492E+05 6.38101E-09-1.73895E-07
 -1       302 9.41285E+03-5.15586E+05 1.03322E+05-1.42846E+06-1.42027E-08 7.41256E-08
 -1       303-9.94289E+03-5.47662E+05 6.09941E+04-9.75007E+05 4.43833E-09 1.86719E-07
 -1       304-5.23207E+03-5.19636E+05 6.59441E+04-1.42766E+06 1.30385E-08 3.63001E-07
 -1       305-9.92066E+03-5.41072E+05 8.70191E+04-9.77957E+05 8.17272E-09 3.62998E-07
 -1       306-2.78561E+07-5.69172E+06-7.80339E+06-9.78006E+05-3.01516E-08 4.27826E-09
 -1       307 2.32139E+07 2.32402E+06 5.01817E+06-1.34808E+07-7.26432E-07-2.48518E-07
 -1       308-7.54043E+06-8.18628E+05-5.28783E+05 4.74564E+06-4.53729E-08 1.34882E-07
 -1       309-3.46065E+06 7.06354E+06 1.94461E+06-1.92367E+07 5.29450E-07 7.41165E-08
 -1       310-1.14952E+07-1.44216E+06-1.60471E+06 4.65149E+06-1.30734E-07-2.57656E-07
 -1       311 3.23947E+07-1.46767E+05 6.31050E+06-8.77007E+06 3.38798E-07 1.60217E-07
 -1       312-2.90713E+07-5.91322E+06-7.50259E+06-4.22564E+06-9.89530E-09 2.07830E-07
 -1       313 4.11834E+07 1.19427E+07 9.53510E+06 2.00986E+07-1.85712E-07-1.75118E-07
 -1       314-1.69435E+07-1.53701E+07-6.77403E+06-1.15788E+07 2.62226E-07-9.49367E-08
 -1       315-1.13299E+06 2.59023E+07 5.16388E+06 1.06062E+07-6.35991E-07 2.28931E-07
 -1       316 6.63434E+05-9.35933E+06-4.92693E+05-3.21350E+06-9.95846E-07-2.27708E-07
 -1       317-1.70913E+07 2.05643E+07 1.90909E+06-6.80675E+06 8.29925E-07-5.85322E-07
 -1       318-1.20161E+06-1.12666E+07-1.64969E+06-4.39443E+06-9.08040E-07 1.31608E-07
 -1       319 5.58980E+06 2.74081E+07 6.08108E+06 1.45606E+07-4.10437E-08 1.30123E-07
 -1       320-2.07947E+07-1.55233E+07-8.72196E+06-1.16007E+07 1.93948E-07-4.54311E-08
 -1       336-5.03492E+02-1.73573E+06-1.38061E+04 8.75007E+03-2.50220E-08-9.38235E-09
 -1       337-5.33491E+03-1.73577E+06-1.79784E+04-2.11990E+04-4.63090E-08 1.32532E-08
 -1       338 4.36688E+02-1.73525E+06-2.80298E+04 1.22307E+04-3.24771E-08 7.11589E-09
 -1       339-2.97523E+04-1.75263E+06-6.34346E+04-2.80012E+04-5.85796E-08 2.37051E-08
 -1       340 1.97541E+04-1.72091E+06-9.97858E+04 1.54314E+04-3.86572E-08 1.84191E-08
 -1       406-3.43830E+01 3.77330E+05 6.27909E+02 2.76545E+00-1.67257E-09-9.64246E-09
 -1       407 1.64029E+02 3.77458E+05 1.34039E+03 2.12461E+01-2.48164E-10 2.16669E-08
 -1       408 6.31993E+02 3.77233E+05 2.67351E+03-2.43954E+01-2.27442E-09 3.31784E-09
 -1       409 2.84273E+03 3.78312E+05 6.02441E+03 2.58207E+02-2.18392E-10-1.73313E-08
 -1       410 8.26810E+03 3.76465E+05 1.22962E+04-2.48486E+02-2.44108E-09-1.11031E-08
 -1       521-2.93795E+07-6.98399E+06-9.09560E+06-6.47714E+05-9.82545E-08 1.29803E-07
 -1       522 2.39579E+07 3.05902E+06 5.09530E+06-1.66642E+07-4.84142E-07-2.78145E-07
 -1       523-8.24553E+06-1.10122E+06-5.36425E+05 5.18328E+06 4.07454E-09-2.68308E-07
 -1       524-6.68421E+06 9.66041E+06 2.10154E+06-2.21860E+07 8.03127E-07-7.05673E-07
 -1       525-1.24030E+07-1.96124E+06-1.76135E+06 5.08009E+06 4.82425E-07-2.73169E-07
 -1       526 3.51442E+07-2.04499E+05 6.62308E+06-1.12708E+07-9.26666E-08-3.75148E-08
 -1       527-3.08290E+07-7.40751E+06-8.62211E+06-4.11053E+06-2.16183E-07-5.87170E-08
 -1       528 4.49371E+07 1.31331E+07 9.93622E+06 2.27424E+07-5.65778E-08-3.98140E-08
 -1       529-1.79331E+07-1.73503E+07-7.75101E+06-1.17185E+07-1.29221E-08-8.29459E-08
 -1       530-3.44644E+06 3.01124E+07 5.45453E+06 1.04464E+07-2.39001E-07 4.70725E-07
 -1       531 6.03455E+05-1.04719E+07-4.85460E+05-3.31340E+06-7.49671E-07 4.00556E-07
 -1       532-1.99298E+07 2.27316E+07 2.08779E+06-1.04369E+07 4.48214E-07-6.34871E-07
 -1       533-1.27112E+06-1.24041E+07-1.74279E+06-4.38683E+06-1.29046E-07-1.00292E-06
 -1       534 3.61374E+06 3.17802E+07 6.32355E+06 1.50711E+07-8.55653E-09 6.55593E-07
 -1       535-2.19302E+07-1.76473E+07-9.95810E+06-1.17397E+07 1.13505E-07 4.47268E-07
 -1       536-6.81955E+05-4.59780E+04-3.76347E+04-5.13467E+04-2.02772E-09 5.00895E-08
 -1       537-7.84688E+04 4.44911E+04 8.21677E+04 1.17476E+05-1.08790E-07 1.09190E-07
 -1       538-3.93389E+05 2.66172E+03 5.03507E+03-6.89880E+04 2.59112E-08 1.14981E-07
 -1       539-2.77741E+05 2.99046E+03 2.39571E+04 1.32182E+05 1.31134E-07 1.19931E-07
 -1       540-4.87650E+05-3.48943E+02-1.91093E+04-6.65247E+04-9.12655E-09 9.52831E-08
 -1       541 1.05685E+05 1.56573E+04 9.83118E+04 9.24633E+04 6.44945E-09 9.20658E-08
 -1       542-7.66492E+05-1.86147E+04-7.76444E+04-2.84979E+04 5.59221E-08 5.19196E-08
 -1       543 3.44383E+05 2.52384E+04 1.45719E+05-1.28148E+04-2.00944E-08-3.57932E-09
 -1       544-7.19955E+05-1.52242E+04-6.89802E+04 3.81610E+04-4.09996E-08-4.16107E-08
 -1       545-3.63086E+03 8.61801E+03 7.32990E+04-1.07813E+05 9.72807E-09-6.58622E-08
 -1       546-4.27810E+05 5.73697E+03-1.13575E+04 6.61970E+04 3.01839E-09-6.97768E-08
 -1       547-2.94793E+05-4.68127E+03 9.12187E+03-1.34962E+05-1.01079E-07-9.07536E-08
 -1       548-4.36606E+05 4.60211E+03-2.28937E+04 6.59204E+04-1.00093E-07-8.73961E-08
 -1       549 1.49492E+04 1.31677E+04 5.36299E+04-1.05522E+05-6.39628E-08-4.96038E-08
 -1       550-7.29260E+05-1.90354E+04-1.22333E+05 3.61231E+04 6.22913E-09-2.50111E-08
 -1       551 3.90233E+04-7.63502E+05-1.07249E+04-1.22862E+06-9.80217E-08-2.79979E-08
 -1       552 8.87855E+04-8.05238E+05 1.28793E+04-1.75201E+06-7.11298E-08 1.90048E-08
 -1       553 6.79705E+04-8.02643E+05 3.40767E+04-1.22225E+06-1.12690E-07 3.23635E-08
 -1       554 1.26430E+05-8.19203E+05 8.35328E+04-1.75396E+06-7.07078E-08 2.09548E-09
 -1       555 9.76672E+04-8.25798E+05 1.51834E+05-1.22219E+06-1.16772E-07-1.45410E-08
 -1       556 2.12913E+05-3.67402E+05 3.30412E+04-3.95859E+05-2.22353E-08-1.19617E-08
 -1       557 3.39918E+05-4.68876E+05 1.97126E+04-5.11339E+05 1.74623E-09 1.07102E-08
 -1       558 1.96471E+05-3.62229E+05 4.19622E+03-3.98713E+05-1.01863E-08 2.14131E-08
 -1       559 3.15771E+05-4.70222E+05 3.26344E+03-5.30366E+05 2.74595E-08 3.96540E-10
 -1       560 1.82353E+05-3.53361E+05-9.03244E+02-4.08838E+05 1.14669E-08-1.23400E-08
 -1       561 2.97932E+05-4.63153E+05 3.55539E+02-5.42480E+05 8.45466E-09-9.64428E-09
 -1       562 1.71194E+05-3.46412E+05-1.09344E+03-4.16908E+05 7.93079E-09-6.32645E-09
 -1       563 2.84689E+05-4.57379E+05 2.81092E+01-5.51118E+05 7.56700E-10-4.39904E-08
 -1       564 1.63265E+05-3.41467E+05-5.09238E+02-4.22524E+05 1.34605E-08 4.05362E-09
 -1       565 2.75966E+05-4.53581E+05 4.14205E+01-5.56688E+05 1.05028E-08 1.62681E-08
 -1       566 1.58680E+05-3.38565E+05-2.23733E+02-4.25731E+05-9.37871E-09-3.00133E-10
 -1       567 2.71810E+05-4.51772E+05-3.32123E+02-5.59203E+05 1.23255E-08 5.44605E-09
 -1       568 1.57526E+05-3.37860E+05-1.04776E+03-4.26635E+05 2.73576E-09 1.97833E-08
 -1       569 2.70878E+05-4.51719E+05-2.64732E+03-5.57708E+05-2.09548E-09 3.86644E-08
 -1       570 1.60857E+05-3.40990E+05-5.80288E+03-4.25664E+05 6.62840E-09-3.33421E-09
 -1       571 2.83954E+05 1.02774E+04 1.47163E+04-9.14100E+04 3.83534E-09 2.18934E-08
 -1       572 2.86092E+05 3.84513E+03 7.21198E+03-1.00285E+05 1.02191E-08-6.60339E-09
 -1       573 2.84804E+05 1.18358E+03 3.20448E+03-9.12380E+04 6.53108E-09 3.65799E-09
 -1       574 2.85019E+05 6.69973E+02 1.60690E+03-1.00502E+05 2.11253E-09 2.95586E-10
 -1       575 2.84897E+05 4.00098E+02 7.58360E+02-9.12145E+04-2.06455E-10-9.54969E-11
 -1       576 2.84885E+05 4.07451E+02 3.88155E+02-1.00531E+05-5.63864E-09 1.97952E-08
 -1       577 2.84934E+05 3.44313E+02 1.93707E+02-9.12113E+04-6.30280E-09-2.29193E-10
 -1       578 2.84911E+05 3.72189E+02 1.11670E+02-1.00535E+05-3.22279E-09-6.51926E-09
 -1       579 2.85000E+05 3.11192E+02 7.65782E+01-9.12110E+04 1.51649E-08-6.01267E-09
 -1       580 2.85004E+05 3.25837E+02 8.83971E+01-1.00530E+05 1.33768E-08-6.56382E-09
 -1       581 2.85104E+05 2.58102E+02 1.33557E+02-9.12166E+04 1.73914E-08 8.64202E-09
 -1       582 2.85166E+05 2.93988E+02 2.70968E+02-1.00471E+05 3.34694E-10 1.58188E-08
 -1       583 2.85232E+05 3.04104E+02 5.20661E+02-9.12708E+04 1.70621E-09-4.39286E-09
 -1       584 2.85519E+05 7.28035E+02 1.17749E+03-1.00015E+05 6.70843E-09-1.22245E-08
 -1       585 2.85248E+05 1.72370E+03 2.38527E+03-9.16723E+04-2.38470E-09-1.55305E-08
 -1       586-3.35629E+03 1.12404E+05-2.97981E+03-2.45829E+05-5.93946E-09 2.15600E-08
 -1       587-1.25869E+03 1.12136E+05 6.81240E+02-2.70556E+05-1.17943E-08 3.47836E-08
 -1       588 4.49798E+02 1.11969E+05 4.60082E+03-2.45695E+05-5.35329E-09 7.03949E-09
 -1       589 5.02235E+03 1.14366E+05 1.19973E+04-2.70321E+05-5.17321E-09-2.24645E-09
 -1       590 1.62321E+04 1.10670E+05 2.51920E+04-2.46118E+05-5.38057E-09-4.89308E-10
 -1       591-7.19832E+04-1.55581E+04-2.18382E+04-3.09458E+04 3.46859E-09-8.90759E-09
 -1       592-7.58716E+04-1.90819E+04-1.18293E+04-3.45457E+04-7.68054E-10 1.71087E-08
 -1       593-7.41678E+04-1.39728E+04-4.92396E+03-3.25465E+04 3.33087E-09 1.76419E-09
 -1       594-7.28554E+04-1.58785E+04-2.45571E+03-3.46612E+04-4.12751E-09 7.82023E-09
 -1       595-7.43344E+04-1.39676E+04-1.12747E+03-3.26192E+04-1.84698E-10 2.98653E-08
 -1       596-7.26489E+04-1.57320E+04-5.73027E+02-3.46367E+04 5.57174E-09 1.88435E-08
 -1       597-7.43553E+04-1.39825E+04-3.11766E+02-3.26220E+04 2.65015E-09 5.42457E-09
 -1       598-7.26286E+04-1.57263E+04-2.50139E+02-3.46299E+04-6.25255E-09 1.43280E-08
 -1       599-7.43541E+04-1.39829E+04-3.18920E+02-3.26216E+04 3.34092E-09 1.26108E-08
 -1       600-7.26490E+04-1.57326E+04-5.91967E+02-3.46347E+04-3.78759E-09 6.73543E-09
 -1       601-7.43300E+04-1.39688E+04-1.16757E+03-3.26182E+04-1.13664E-09 3.62313E-08
 -1       602-7.28627E+04-1.58833E+04-2.54447E+03-3.46563E+04-9.42146E-09 2.37651E-09
 -1       603-7.41548E+04-1.39771E+04-5.10264E+03-3.25436E+04-5.41604E-10-1.07370E-08
 -1       604-7.60054E+04-1.91839E+04-1.22577E+04-3.45125E+04-1.47384E-09-1.73395E-09
 -1       605-7.18715E+04-1.56371E+04-2.26293E+04-3.09037E+04 8.09723E-09 8.77753E-09
 -1       606 2.68321E+04-1.39707E+04-2.50494E+04 2.42993E+04 4.15821E-09 7.50242E-09
 -1       607 2.25516E+04-4.56025E+03-1.24744E+04 2.73040E+04 5.37420E-09 2.45359E-09
 -1       608 2.49903E+04-8.20299E+02-5.58451E+03 2.41258E+04 1.90812E-09-1.28284E-09
 -1       609 2.45217E+04-2.77928E+02-2.82110E+03 2.75205E+04 2.56114E-09 3.51702E-09
 -1       610 2.47808E+04-3.62472E+01-1.34609E+03 2.41053E+04 1.13414E-09 2.91834E-09
 -1       611 2.47063E+04-3.53897E+01-6.78682E+02 2.75439E+04 5.65478E-09-4.80486E-09
 -1       612 2.47338E+04-2.22367E+01-3.22742E+02 2.41033E+04-1.68711E-09 1.46385E-08
 -1       613 2.47165E+04-3.08054E+01-1.44691E+02 2.75466E+04 8.57654E-10 1.13719E-08
 -1       614 2.47114E+04-2.79730E+01-3.41425E+01 2.41025E+04-4.60204E-10-1.10504E-10
 -1       615 2.47106E+04-2.88891E+01 6.01740E+01 2.75471E+04-5.51609E-10 3.48518E-09
 -1       616 2.46938E+04-2.45445E+01 1.80866E+02 2.41028E+04 5.12728E-09-1.26806E-08
 -1       617 2.47317E+04 1.00312E+01 4.12846E+02 2.75466E+04 5.61749E-09-7.29597E-09
 -1       618 2.46575E+04 9.47609E+01 8.32213E+02 2.41031E+04-1.24010E-09-1.41031E-08
 -1       619 2.50251E+04 6.53736E+02 1.86885E+03 2.75459E+04-2.90026E-09-9.97989E-09
 -1       620 2.43809E+04 2.06837E+03 3.75633E+03 2.41043E+04 9.81913E-10-9.94805E-09
 -1       621 4.80446E+02 2.94220E+05 3.73529E+03 3.83215E+04 8.61291E-10 5.67252E-09
 -1       622 6.31354E+02 2.95089E+05 3.32806E+03 5.56440E+04 1.17916E-09 1.65965E-08
 -1       623 1.23739E+02 2.94411E+05 4.01731E+03 3.81474E+04 1.32491E-09-1.18716E-08
 -1       624 2.04255E+03 2.96286E+05 7.80216E+03 5.58158E+04 1.49663E-09-1.48157E-08
 -1       625 2.00268E+03 2.92865E+05 1.36410E+04 3.81443E+04 1.41426E-09-2.52464E-08
 -1       626 2.55129E+05 6.06636E+04 5.06066E+03 1.24703E+05 1.26920E-09-6.18456E-10
 -1       627 2.52802E+05 6.20806E+04 2.43869E+03 1.28966E+05 6.43968E-09 2.15048E-08
 -1       628 2.55258E+05 5.83451E+04 1.03130E+03 1.25559E+05-1.25056E-09-1.28011E-10
 -1       629 2.52169E+05 6.14126E+04 5.04783E+02 1.29207E+05-8.05221E-09 3.18001E-09
 -1       630 2.55271E+05 5.82333E+04 2.34161E+02 1.25595E+05 5.02632E-09 1.57823E-08
 -1       631 2.52102E+05 6.13877E+04 1.26023E+02 1.29209E+05 9.02196E-09 1.43200E-09
 -1       632 2.55267E+05 5.82375E+04 8.29553E+01 1.25590E+05 1.37902E-08-2.67164E-09
 -1       633 2.52093E+05 6.13898E+04 9.24449E+01 1.29205E+05 1.05388E-09-1.15715E-08
 -1       634 2.55262E+05 5.82351E+04 1.49425E+02 1.25589E+05-1.13130E-09 2.89940E-08
 -1       635 2.52107E+05 6.13883E+04 3.02381E+02 1.29210E+05-3.70255E-09 2.39538E-08
 -1       636 2.55253E+05 5.82297E+04 6.10670E+02 1.25589E+05 8.63338E-10 1.42441E-08
 -1       637 2.52239E+05 6.14834E+04 1.34267E+03 1.29209E+05-5.62159E-09-1.97410E-08
 -1       638 2.55205E+05 5.85264E+04 2.75872E+03 1.25455E+05-1.70799E-08-9.14497E-10
 -1       639 2.53688E+05 6.34988E+04 6.52719E+03 1.28782E+05-2.88283E-08 2.65416E-08
 -1       640 2.55005E+05 6.45439E+04 1.35451E+04 1.22918E+05-1.40212E-08 1.60064E-08
 -1       656 6.52938E+04-1.67002E+06-1.57615E+05-2.31092E+03-3.49246E-10-9.42663E-09
 -1       657-8.63729E+04-1.74123E+06-1.30564E+05 5.45810E+03-4.09273E-11-1.06554E-08
 -1       658 2.08088E+04-1.69024E+06-8.03975E+04-4.33293E+03 1.17780E-10 9.47860E-09
 -1       659-9.33621E+04-1.74455E+06-1.39749E+05 7.11662E+03-2.22644E-09 9.07689E-09
 -1       660 7.22673E+04-1.66671E+06-1.73406E+05-3.96942E+03-2.08820E-09 1.15193E-09
 -1       661 1.59757E+05 1.67733E+04 1.67217E+04 6.24544E+04 6.55746E-10 3.96813E-09
 -1       662 1.69162E+05 2.92047E+04 1.12691E+04 5.87586E+04-5.87022E-10-1.91529E-08
 -1       663 1.63041E+05 2.21381E+04 3.94129E+03 6.15014E+04-1.10037E-09-8.86075E-10
 -1       664 1.65355E+05 2.29307E+04 2.35761E+03 5.99225E+04-1.37535E-09-7.44578E-09
 -1       665 1.63539E+05 2.28711E+04 9.30063E+02 6.13563E+04-4.05294E-10-1.19502E-09
 -1       666 1.64766E+05 2.20923E+04 5.44272E+02 6.01116E+04 4.90991E-09 1.16157E-08
 -1       667 1.63627E+05 2.29546E+04 2.89124E+02 6.13202E+04 1.23575E-09 5.12468E-09
 -1       668 1.64670E+05 2.20320E+04 2.94669E+02 6.01641E+04-3.40241E-09-1.89860E-08
 -1       669 1.63634E+05 2.29297E+04 3.98998E+02 6.13040E+04-2.34593E-10-3.06983E-09
 -1       670 1.64767E+05 2.22485E+04 8.68880E+02 6.01670E+04-6.67676E-09-5.95428E-09
 -1       671 1.63529E+05 2.27426E+04 1.54278E+03 6.13153E+04 9.06645E-10 7.95575E-09
 -1       672 1.65666E+05 2.37495E+04 3.94718E+03 5.99492E+04 4.92196E-09 9.15657E-09
 -1       673 1.62740E+05 2.14667E+04 6.61484E+03 6.15073E+04 2.00771E-09-3.61069E-09
 -1       674 1.71962E+05 3.43768E+04 1.89171E+04 5.80994E+04-2.37981E-09-9.54424E-09
 -1       675 1.57274E+05 1.24130E+04 2.80795E+04 6.30534E+04-1.42018E-09 6.09361E-09
 -1       676 2.37916E+01-2.91739E+05-1.10012E+03-1.19724E+02 6.84139E-10-5.53987E-10
 -1       677-2.91269E+02-2.92005E+05-2.01341E+03 2.39259E+02 9.21580E-09-1.02911E-08
 -1       678 1.95152E+02-2.91549E+05-3.55921E+03-1.19456E+02 1.62868E-09-1.20070E-08
 -1       679-3.55951E+03-2.94154E+05-8.45518E+03 2.38240E+02 8.10815E-09 1.38116E-08
 -1       680 2.12504E+03-2.89592E+05-1.36269E+04-1.17382E+02 1.15415E-09 6.94976E-09
 -1       771-3.02735E+06-7.25798E+05-1.54180E+05-1.43959E+06-3.26254E-08-2.47674E-08
 -1       772-2.95383E+06-8.11059E+05-7.95654E+04-1.53806E+06-2.22353E-08 1.34532E-08
 -1       773-3.05668E+06-7.02879E+05-4.03919E+04-1.45275E+06-1.69384E-08 1.09576E-08
 -1       774-2.94449E+06-7.94008E+05-1.80556E+04-1.56191E+06 2.76050E-08 2.51021E-10
 -1       775-3.07181E+06-6.92239E+05-1.33924E+04-1.45906E+06-1.45519E-09 7.58155E-09
 -1       776-2.95557E+06-7.91358E+05-5.02631E+03-1.57982E+06-5.64614E-09 3.59432E-09
 -1       777-3.08490E+06-6.82781E+05-5.87601E+03-1.46462E+06 1.19326E-08 6.83212E-09
 -1       778-2.96717E+06-7.88910E+05-1.66721E+03-1.59520E+06-1.86265E-09 7.75071E-09
 -1       779-3.09611E+06-6.74537E+05-2.92337E+03-1.46938E+06-1.12195E-08-6.23913E-09
 -1       780-2.97738E+06-7.86573E+05-4.85659E+02-1.60772E+06-3.84171E-09 1.79352E-09
 -1       781-3.10502E+06-6.67900E+05-1.13139E+03-1.47310E+06-2.87837E-08-1.81171E-09
 -1       782-2.98523E+06-7.84584E+05 4.11539E+02-1.61695E+06-3.66708E-08-3.47791E-09
 -1       783-3.11128E+06-6.63297E+05 6.43098E+02-1.47571E+06-9.96806E-09-1.35906E-08
 -1       784-2.98957E+06-7.82560E+05 2.65176E+03-1.62265E+06-1.92522E-08-1.01863E-10
 -1       785-3.11498E+06-6.60554E+05 4.68216E+03-1.47737E+06-3.58741E-08 6.74481E-09
 -1       786 1.24311E+05-9.70713E+03 2.24582E+04-3.01218E+02-1.33763E-09 6.58292E-09
 -1       787 1.34051E+05 1.12386E+04 1.58883E+04-1.17900E+02 1.99294E-09 1.37115E-08
 -1       788 1.28066E+05-1.52120E+03 5.81051E+03-2.67061E+02 4.25968E-09 2.46962E-08
 -1       789 1.29676E+05 1.76062E+03 3.64775E+03-1.70498E+02-4.59274E-10 3.18323E-11
 -1       790 1.28687E+05-2.36925E+02 1.47720E+03-2.48637E+02-2.95156E-09 2.39953E-09
 -1       791 1.28951E+05 2.74056E+02 8.53752E+02-2.02074E+02-7.84212E-09 1.84681E-08
 -1       792 1.28792E+05-3.57526E+01 3.62898E+02-2.35487E+02-5.40296E-09-6.28546E-10
 -1       793 1.28826E+05 3.81871E+01 1.83353E+02-2.26820E+02 4.71854E-11-1.22134E-08
 -1       794 1.28812E+05-1.20428E+00 5.25533E+01-2.23890E+02 4.21880E-09 7.12910E-09
 -1       795 1.28791E+05-2.31779E+01-4.43126E+01-2.51023E+02-5.31484E-09 1.54971E-08
 -1       796 1.28827E+05 2.55783E+01-1.39157E+02-2.11284E+02 4.99578E-09 7.00380E-09
 -1       797 1.28708E+05-1.91741E+02-3.88290E+02-2.79971E+02 4.00519E-09 5.12330E-10
 -1       798 1.28895E+05 1.67232E+02-6.32321E+02-1.94942E+02 2.80606E-09 1.22622E-08
 -1       799 1.28227E+05-1.23288E+03-1.74111E+03-3.20319E+02 4.87489E-09-1.41457E-08
 -1       800 1.29307E+05 1.06586E+03-2.46445E+03-1.70936E+02 7.78475E-10 1.60848E-08
 -1       801-1.35895E+05-9.35662E+06-1.28546E+06 1.26095E+06 8.72824E-08-4.42669E-08
 -1       802 6.38619E+05 4.94805E+06 1.92966E+06-1.53952E+06 2.46568E-07-3.28309E-08
 -1       803-4.78602E+05-1.31262E+07-1.69565E+06 8.00825E+05 7.46440E-08 1.95869E-08
 -1       804 2.48797E+05 1.72380E+06 1.36022E+06 6.27386E+05-1.11158E-07-9.63466E-08
 -1       805 1.76463E+05-6.14724E+06-2.57735E+05-9.00808E+05-4.64133E-08-5.88161E-08
 -1       806-3.02838E+05-5.84589E+04-2.23654E+04-1.19857E+05-7.27141E-09-1.66383E-08
 -1       807-3.04619E+05-5.47868E+04-1.09879E+04-1.25258E+05 5.38512E-09 5.14456E-09
 -1       808-3.03450E+05-5.04006E+04-4.66143E+03-1.23669E+05-4.23552E-09 1.47762E-08
 -1       809-3.02310E+05-5.16985E+04-2.27933E+03-1.25527E+05-1.41965E-08 5.04269E-09
 -1       810-3.03543E+05-5.01200E+04-1.04473E+03-1.23838E+05 6.15864E-09 4.00178E-11
 -1       811-3.02131E+05-5.15743E+04-5.19554E+02-1.25492E+05 1.14537E-08-1.03719E-08
 -1       812-3.03557E+05-5.01441E+04-2.62801E+02-1.23838E+05-3.99541E-09-2.53976E-08
 -1       813-3.02107E+05-5.15764E+04-1.70873E+02-1.25474E+05-1.06756E-08-1.39419E-08
 -1       814-3.03550E+05-5.01534E+04-1.69435E+02-1.23834E+05-8.92032E-09-8.53242E-09
 -1       815-3.02111E+05-5.15785E+04-2.73129E+02-1.25467E+05-5.95537E-09 3.49476E-08
 -1       816-3.03530E+05-5.01524E+04-5.17710E+02-1.23830E+05-3.37332E-09 4.07431E-08
 -1       817-3.02199E+05-5.16278E+04-1.11117E+03-1.25456E+05-1.34055E-08 1.64205E-08
 -1       818-3.03463E+05-5.03090E+04-2.26638E+03-1.23756E+05-8.24457E-09 5.49289E-09
 -1       819-3.03439E+05-5.29972E+04-5.33274E+03-1.25163E+05-5.52700E-09 1.27741E-08
 -1       820-3.03036E+05-5.43366E+04-1.08540E+04-1.22035E+05-3.93629E-09 1.47731E-08
 -1       821-3.73281E+05 2.05616E+04-4.77386E+04 1.78471E+03 1.21727E-08-3.30874E-09
 -1       822-3.93191E+05-2.38126E+04-3.36458E+04-3.59108E+03 3.83478E-09-3.35740E-09
 -1       823-3.80868E+05 3.23457E+03-1.23421E+04 2.74121E+03-1.03683E-08 1.92449E-09
 -1       824-3.84128E+05-3.73375E+03-7.74027E+03-4.17090E+03 5.80394E-10 6.25016E-09
 -1       825-3.82346E+05 5.02452E+02-3.22312E+03 2.36460E+03 1.56519E-08 1.31012E-08
 -1       826-3.82032E+05-5.70877E+02-1.78909E+03-2.29692E+03 1.97911E-08 8.05676E-09
 -1       827-3.82948E+05 6.18372E+01-1.10932E+03 8.67151E+02 7.61048E-09-1.95404E-08
 -1       828-3.81544E+05-1.50218E+02-6.91645E+02 1.00255E+03 3.44833E-10-2.75834E-08
 -1       829-3.82826E+05 7.62943E+01-1.10658E+03-9.34910E+02 2.47233E-09-2.78290E-08
 -1       830-3.82300E+05-6.15942E+02-1.90908E+03 3.92293E+03 1.19812E-10-8.42283E-09
 -1       831-3.82206E+05 5.38757E+02-3.31277E+03-2.05326E+03-4.63969E-09-1.62631E-08
 -1       832-3.84213E+05-3.89205E+03-8.04026E+03 4.86439E+03-2.76157E-09 6.29223E-09
 -1       833-3.80924E+05 3.35709E+03-1.28339E+04-1.87639E+03-2.02853E-09 5.36602E-11
 -1       834-3.93340E+05-2.47184E+04-3.48763E+04 3.28324E+03-1.99449E-09-7.87804E-09
 -1       835-3.73069E+05 2.13386E+04-4.95853E+04-4.72059E+02 5.78757E-09 7.73070E-09
 -1       836-1.37501E+03 3.61674E+05 2.23482E+04-1.61914E+04-6.19366E-09 1.13287E-08
 -1       837 4.77275E+03 3.68670E+05 1.89258E+04-3.30197E+04-6.60918E-09 7.49992E-09
 -1       838-5.41507E+02 3.63634E+05 1.93043E+04-1.61205E+04-5.72345E-09 1.58909E-08
 -1       839 1.21659E+04 3.74176E+05 3.65387E+04-3.30709E+04-6.36282E-09 6.82309E-09
 -1       840-3.75529E+03 3.56110E+05 5.82748E+04-1.61453E+04-5.35874E-09-9.61895E-09
 -1       856-5.47127E+04 7.99221E+03-2.10613E+04-3.98317E+02 3.93482E-09 5.08044E-09
 -1       857-6.33915E+04-9.38896E+03-1.44985E+04 5.55486E+03 1.93293E-09 2.67300E-09
 -1       858-5.81490E+04 1.12074E+03-5.46497E+03-4.22311E+02 2.97717E-09-7.01084E-09
 -1       859-5.94479E+04-1.31697E+03-3.29804E+03 5.59078E+03-3.91583E-09 1.24760E-09
 -1       860-5.86624E+04 1.56857E+02-1.38251E+03-4.34006E+02 1.12800E-09-8.34063E-09
 -1       861-5.88573E+04-1.85819E+02-7.61170E+02 5.60673E+03-1.93352E-09-9.09840E-09
 -1       862-5.87426E+04 2.11923E+01-3.17662E+02-4.38241E+02-6.15575E-10 1.53449E-10
 -1       863-5.87591E+04-2.06075E+01-1.18562E+02 5.60915E+03-2.15744E-09-1.29268E-08
 -1       864-5.87610E+04-4.60571E+00 4.06031E+01-4.36426E+02-2.08887E-09-1.09250E-08
 -1       865-5.87053E+04 5.76736E+01 2.39952E+02 5.59890E+03-3.38257E-09 2.81005E-09
 -1       866-5.87942E+04-5.71424E+01 4.86859E+02-4.27992E+02-2.04176E-09-3.08347E-09
 -1       867-5.84755E+04 4.72267E+02 1.20048E+03 5.57598E+03-3.01338E-09 1.17923E-08
 -1       868-5.89861E+04-4.11817E+02 1.99534E+03-4.13508E+02 1.02955E-09 9.92952E-09
 -1       869-5.70120E+04 3.42736E+03 5.31372E+03 5.53814E+03 4.70675E-09-1.93259E-08
 -1       870-6.02502E+04-2.93213E+03 7.71127E+03-3.90070E+02-1.05604E-09-8.79709E-09
 -1       871-5.43484E+03-2.02695E+04-1.90510E+04 1.27400E+05-4.78576E-09 9.25138E-09
 -1       872-1.99011E+03-2.46860E+04-7.96432E+03 1.65191E+05-8.18727E-09-2.26555E-09
 -1       873 3.56644E+02-2.25563E+04 6.08714E+02 1.27120E+05-4.34329E-09 2.23406E-09
 -1       874 3.19768E+03-2.01715E+04 9.63420E+03 1.65222E+05-9.57698E-09 5.39330E-10
 -1       875 6.69499E+03-2.48512E+04 2.17090E+04 1.27354E+05-3.01770E-09-5.83077E-09
 -1       876 2.88521E+05 4.86955E+04 1.48589E+04 1.15865E+05 7.24890E-09-3.52247E-09
 -1       877 2.89496E+05 5.18320E+04 7.93522E+03 1.20134E+05 7.87418E-09-2.07529E-08
 -1       878 2.89911E+05 4.70497E+04 3.32447E+03 1.17082E+05-7.23549E-09-2.15186E-09
 -1       879 2.87476E+05 4.98164E+04 1.65644E+03 1.20235E+05 6.41876E-10 5.55644E-09
 -1       880 2.90010E+05 4.70327E+04 7.71535E+02 1.17132E+05-2.17210E-09 4.52297E-09
 -1       881 2.87342E+05 4.97302E+04 4.11983E+02 1.20211E+05-5.73345E-09 1.23940E-08
 -1       882 2.90019E+05 4.70457E+04 2.63514E+02 1.17134E+05-1.32309E-09 8.13288E-09
 -1       883 2.87333E+05 4.97258E+04 2.83211E+02 1.20204E+05 2.47070E-09 1.20318E-09
 -1       884 2.90013E+05 4.70429E+04 4.50451E+02 1.17134E+05 6.95536E-09-1.69416E-08
 -1       885 2.87369E+05 4.97320E+04 9.05612E+02 1.20215E+05-3.41052E-09-1.12857E-09
 -1       886 2.89978E+05 4.70165E+04 1.82520E+03 1.17130E+05-1.04826E-08-1.42586E-09
 -1       887 2.87689E+05 4.99423E+04 3.98689E+03 1.20261E+05 1.56922E-09 1.90049E-08
 -1       888 2.89726E+05 4.70608E+04 8.03370E+03 1.17003E+05 1.56030E-09 2.91493E-10
 -1       889 2.92472E+05 5.49159E+04 1.91911E+04 1.20114E+05-2.21031E-09 8.21638E-09
 -1       890 2.86447E+05 5.09552E+04 3.59443E+04 1.13945E+05 1.66347E-09 1.56379E-08
 -1       891-9.49993E+01-1.60097E+05-1.96016E+03 2.69293E+04-2.11730E-09-7.32689E-09
 -1       892-1.83298E+02-1.60611E+05-2.10634E+03 4.08802E+04 8.03993E-10-1.55205E-08
 -1       893 3.55937E+01-1.60160E+05-2.98347E+03 2.69364E+04-4.01315E-10-8.27640E-11
 -1       894-1.49537E+03-1.61739E+05-6.17548E+03 4.07294E+04 3.17709E-09-3.95812E-09
 -1       895-1.18611E+03-1.58874E+05-1.08753E+04 2.70815E+04 5.52177E-10-1.54450E-08
 -1       956-3.70061E+05-5.33030E+03-1.31843E+04 2.98299E+04 3.93356E-09-6.63363E-09
 -1       957-3.72649E+05-1.87196E+03-6.76736E+03 3.58551E+04-4.19823E-09-1.16324E-08
 -1       958-3.71244E+05-2.26182E+02-3.04952E+03 2.96663E+04-2.23008E-09 5.77757E-10
 -1       959-3.71439E+05-1.22036E+02-1.55719E+03 3.60448E+04 7.50788E-10-4.48199E-09
 -1       960-3.71359E+05-3.46083E+01-7.59348E+02 2.96495E+04 8.42920E-09 1.37431E-08
 -1       961-3.71359E+05-5.09602E+01-4.02647E+02 3.60646E+04 1.12877E-08-2.42767E-09
 -1       962-3.71386E+05-3.61589E+01-2.30562E+02 2.96467E+04 1.65073E-09 4.38831E-11
 -1       963-3.71359E+05-4.70660E+01-1.85163E+02 3.60681E+04 8.68113E-10 1.85701E-08
 -1       964-3.71391E+05-3.29331E+01-2.25234E+02 2.96460E+04 1.66382E-09 2.48406E-09
 -1       965-3.71371E+05-4.40834E+01-3.89615E+02 3.60675E+04-1.47230E-09-1.22288E-08
 -1       966-3.71375E+05-2.50206E+01-7.32062E+02 2.96474E+04 6.51312E-09 4.60295E-09
 -1       967-3.71460E+05-1.06056E+02-1.50147E+03 3.60537E+04 3.93538E-09-1.26738E-08
 -1       968-3.71274E+05-2.03561E+02-2.93928E+03 2.96596E+04 6.42240E-09-2.25871E-08
 -1       969-3.72639E+05-1.78794E+03-6.52521E+03 3.59107E+04 6.02040E-09-2.30770E-08
 -1       970-3.70141E+05-5.12120E+03-1.27114E+04 2.97830E+04-1.84627E-10-2.74486E-09
 -1       971-3.39523E+05-1.70327E+03-9.20377E+03 1.51908E+04 5.09681E-09 8.02174E-09
 -1       972-3.41740E+05-1.25111E+03-5.01228E+03 2.10285E+04 2.55841E-09 1.30476E-08
 -1       973-3.40548E+05-5.69042E+01-2.24501E+03 1.50704E+04-2.37560E-09 4.93151E-09
 -1       974-3.40684E+05-7.40213E+01-1.16368E+03 2.11642E+04-1.07475E-08-6.17797E-09
 -1       975-3.40629E+05-1.26054E+01-5.82020E+02 1.50583E+04-2.88492E-09-2.13731E-11
 -1       976-3.40623E+05-2.47968E+01-3.36389E+02 2.11797E+04 6.01813E-09 9.22569E-10
 -1       977-3.40645E+05-1.19200E+01-2.45231E+02 1.50550E+04-9.81299E-09 9.65929E-09
 -1       978-3.40628E+05-1.86837E+01-2.88450E+02 2.11844E+04-9.71795E-09-5.99675E-09
 -1       979-3.40645E+05-3.60479E+00-4.64720E+02 1.50535E+04 2.62429E-09 1.04733E-08
 -1       980-3.40663E+05-1.56785E+01-8.98114E+02 2.11854E+04 3.50410E-09 8.08132E-09
 -1       981-3.40617E+05 1.88385E+01-1.73986E+03 1.50541E+04-2.70654E-09 1.73625E-08
 -1       982-3.40902E+05-1.44230E+02-3.59648E+03 2.11788E+04-7.32052E-09 1.50956E-08
 -1       983-3.40397E+05-9.25633E+01-6.98810E+03 1.50601E+04-6.65887E-09-7.74753E-09
 -1       984-3.44263E+05-3.79390E+03-1.56496E+04 2.10941E+04-8.34643E-09 6.09180E-09
 -1       985-3.37234E+05-5.20603E+03-2.87375E+04 1.51320E+04-8.46239E-09 4.71118E-10
 -3
    1PSTEP                        41          21           1          
  100CL  121 6.53580E-01         409                     0   21           1
 -4  DISP        4    1
 -5  D1          1    2    1    0
 -5  D2          1    2    2    0
 -5  D3          1    2    3    0
 -5  ALL         1    2    0    0    1ALL
 -1         1 2.39145E-03 0.00000E+00 0.00000E+00
 -1         2 1.41931E-03 3.23900E-28 0.00000E+00
 -1         3 3.28749E-04-5.70187E-28-1.32349E-23
 -1         5 1.71935E-04-1.62000E-27-1.86116E-24
 -1         8 2.37607E-03-4.82164E-07 0.00000E+00
 -1         9 2.35988E-03-9.55260E-05 0.00000E+00
 -1        10 2.98195E-04-3.47283E-06 6.61744E-24
 -1        12 1.73582E-04 7.90452E-07-9.30578E-25
 -1        15 2.35783E-03-5.23000E-07-2.06795E-25
 -1        16 2.39835E-03-9.69030E-05 0.00000E+00
 -1        17 2.03407E-04-7.84451E-06 0.00000E+00
 -1        18 1.76962E-04 3.16478E-05 0.00000E+00
 -1        19 1.78524E-04 1.57505E-06 0.00000E+00
 -1        20 1.78666E-04-7.67198E-06 0.00000E+00
 -1        21 1.77801E-04-2.07212E-05 0.00000E+00
 -1        24 3.00491E-05-1.18836E-05 0.00000E+00
 -1        25 1.86746E-04 3.18661E-05 0.00000E+00
 -1        26 1.87434E-04 2.18156E-06 0.00000E+00
 -1        27 1.85285E-04-1.11584E-05 0.00000E+00
 -1        28 1.84957E-04-2.13334E-05 0.00000E+00
 -1        32 0.00000E+00 0.00000E+00 0.00000E+00
 -1        33 1.95329E-04 2.91907E-06 0.00000E+00
 -1        34 1.93253E-04-1.12109E-05 0.00000E+00
 -1        35 1.91355E-04-2.16693E-05 0.00000E+00
 -1        51 2.39045E-03-9.45313E-08 0.00000E+00
 -1        52 2.38860E-03-1.72642E-07 0.00000E+00
 -1        53 2.38605E-03-2.48240E-07 0.00000E+00
 -1        54 2.38300E-03-3.23492E-07 0.00000E+00
 -1        55 2.37961E-03-4.00028E-07-2.89513E-24
 -1        56 2.38702E-03 1.19534E-06 0.00000E+00
 -1        57 2.38074E-03 6.86749E-06 0.00000E+00
 -1        58 2.37332E-03 1.55164E-05 1.05879E-22
 -1        59 2.36542E-03 2.53265E-05-5.29396E-23
 -1        60 2.35785E-03 3.43109E-05 0.00000E+00
 -1        61 2.35132E-03 4.05409E-05 5.29396E-23
 -1        62 2.34641E-03 4.25484E-05 1.05879E-22
 -1        63 2.34350E-03 3.92146E-05 5.29396E-23
 -1        64 2.34265E-03 3.03176E-05 0.00000E+00
 -1        65 2.34373E-03 1.61040E-05 0.00000E+00
 -1        66 2.34632E-03-2.27877E-06-1.05879E-22
 -1        67 2.34985E-03-2.33274E-05 0.00000E+00
 -1        68 2.35363E-03-4.50852E-05 0.00000E+00
 -1        69 2.35698E-03-6.55266E-05-5.29396E-23
 -1        70 2.35920E-03-8.28643E-05 0.00000E+00
 -1        86 1.47808E-03-3.45108E-06 0.00000E+00
 -1        87 1.65005E-03-1.95617E-05 0.00000E+00
 -1        88 1.88124E-03-4.67114E-05 2.64698E-23
 -1        89 2.11493E-03-7.44457E-05 0.00000E+00
 -1        90 2.29307E-03-9.15633E-05 0.00000E+00
 -1       121 3.27890E-04-5.62567E-07 0.00000E+00
 -1       122 3.25319E-04-1.12796E-06-6.61744E-24
 -1       123 3.21045E-04-1.69896E-06-1.32349E-23
 -1       124 3.15083E-04-2.27835E-06 0.00000E+00
 -1       125 3.07457E-04-2.86854E-06-1.32349E-23
 -1       191 1.71980E-04 1.31794E-07-2.68834E-24
 -1       192 1.72118E-04 2.63578E-07-7.23783E-25
 -1       193 1.72346E-04 3.95346E-07 2.48154E-24
 -1       194 1.72667E-04 5.27089E-07 1.34417E-24
 -1       195 1.73078E-04 6.58794E-07-2.06795E-25
 -1       251 2.37544E-03-5.67736E-06 0.00000E+00
 -1       252 2.37457E-03-2.72711E-05 0.00000E+00
 -1       253 2.37337E-03-6.16677E-05 0.00000E+00
 -1       254 2.37184E-03-1.04936E-04 0.00000E+00
 -1       255 2.37022E-03-1.50499E-04 1.32349E-23
 -1       256 2.36877E-03-1.91722E-04 0.00000E+00
 -1       257 2.36765E-03-2.23273E-04 0.00000E+00
 -1       258 2.36687E-03-2.40064E-04 1.32349E-23
 -1       259 2.36623E-03-2.41382E-04 2.64698E-23
 -1       260 2.36549E-03-2.26920E-04 0.00000E+00
 -1       261 2.36454E-03-2.01035E-04-2.64698E-23
 -1       262 2.36339E-03-1.68381E-04 1.32349E-23
 -1       263 2.36224E-03-1.35640E-04 2.64698E-23
 -1       264 2.36128E-03-1.09496E-04 0.00000E+00
 -1       265 2.36053E-03-9.46532E-05 0.00000E+00
 -1       266 2.37303E-03-4.96065E-07-3.30872E-24
 -1       267 2.36999E-03-5.02007E-07 0.00000E+00
 -1       268 2.36695E-03-5.08452E-07 0.00000E+00
 -1       269 2.36391E-03-5.13404E-07 0.00000E+00
 -1       270 2.36087E-03-5.18321E-07-2.06795E-25
 -1       271 2.37447E-03 1.60775E-06 0.00000E+00
 -1       272 2.37336E-03 2.33628E-06 0.00000E+00
 -1       273 2.37275E-03 1.73284E-06-2.64698E-23
 -1       274 2.37262E-03-1.70480E-07 0.00000E+00
 -1       275 2.37295E-03-3.32621E-06 0.00000E+00
 -1       276 2.37373E-03-7.67656E-06-1.32349E-23
 -1       277 2.37493E-03-1.31516E-05 0.00000E+00
 -1       278 2.37651E-03-1.96711E-05 1.32349E-23
 -1       279 2.37844E-03-2.71446E-05 0.00000E+00
 -1       280 2.38068E-03-3.54726E-05-1.32349E-23
 -1       281 2.38320E-03-4.45471E-05-2.64698E-23
 -1       282 2.38595E-03-5.42533E-05 1.32349E-23
 -1       283 2.38888E-03-6.44703E-05 2.64698E-23
 -1       284 2.39196E-03-7.50712E-05 0.00000E+00
 -1       285 2.39513E-03-8.59275E-05 0.00000E+00
 -1       301 2.36686E-03-9.57810E-05 6.61744E-24
 -1       302 2.37253E-03-9.60002E-05-3.30872E-24
 -1       303 2.37771E-03-9.62141E-05 0.00000E+00
 -1       304 2.38320E-03-9.64284E-05-6.61744E-24
 -1       305 2.38981E-03-9.66513E-05 0.00000E+00
 -1       306 2.39522E-03-2.36457E-04 0.00000E+00
 -1       307 2.45973E-03-6.23310E-04 0.00000E+00
 -1       308 2.51274E-03-1.19357E-03 0.00000E+00
 -1       309 2.54624E-03-1.85856E-03 0.00000E+00
 -1       310 2.58472E-03-2.50036E-03-1.05879E-22
 -1       311 2.64596E-03-3.00313E-03-5.29396E-23
 -1       312 2.70491E-03-3.29011E-03 0.00000E+00
 -1       313 2.70839E-03-3.32118E-03 0.00000E+00
 -1       314 2.59082E-03-3.10472E-03 0.00000E+00
 -1       315 2.31336E-03-2.69589E-03 5.29396E-23
 -1       316 1.89079E-03-2.16612E-03 1.05879E-22
 -1       317 1.38062E-03-1.58279E-03 5.29396E-23
 -1       318 8.85696E-04-1.00847E-03-1.05879E-22
 -1       319 5.04347E-04-5.08488E-04 0.00000E+00
 -1       320 2.78118E-04-1.52382E-04 0.00000E+00
 -1       336 2.87120E-04-4.13931E-06 1.32349E-23
 -1       337 2.74065E-04-4.82929E-06 0.00000E+00
 -1       338 2.59090E-04-5.54467E-06 1.32349E-23
 -1       339 2.42267E-04-6.28601E-06-6.61744E-24
 -1       340 2.23676E-04-7.05752E-06 0.00000E+00
 -1       406 1.74177E-04 9.22046E-07-2.27475E-24
 -1       407 1.74863E-04 1.05354E-06 1.34417E-24
 -1       408 1.75641E-04 1.18489E-06-4.13590E-25
 -1       409 1.76511E-04 1.31593E-06-1.38294E-24
 -1       410 1.77472E-04 1.44638E-06 8.27181E-25
 -1       521 2.43446E-03-2.46879E-04 0.00000E+00
 -1       522 2.49777E-03-6.52892E-04 5.29396E-23
 -1       523 2.54555E-03-1.24937E-03 0.00000E+00
 -1       524 2.57127E-03-1.94144E-03 5.29396E-23
 -1       525 2.60295E-03-2.60852E-03 0.00000E+00
 -1       526 2.66108E-03-3.13234E-03 5.29396E-23
 -1       527 2.71970E-03-3.43008E-03 2.11758E-22
 -1       528 2.72150E-03-3.46058E-03-5.29396E-23
 -1       529 2.59415E-03-3.23187E-03-2.11758E-22
 -1       530 2.29652E-03-2.80580E-03-5.29396E-23
 -1       531 1.84379E-03-2.25720E-03 1.05879E-22
 -1       532 1.29891E-03-1.65629E-03 5.29396E-23
 -1       533 7.69543E-04-1.06387E-03-1.05879E-22
 -1       534 3.58709E-04-5.43634E-04 0.00000E+00
 -1       535 1.13458E-04-1.69046E-04 0.00000E+00
 -1       536 2.02704E-04 2.55515E-05-6.61744E-24
 -1       537 2.00932E-04 8.34507E-05 0.00000E+00
 -1       538 1.98199E-04 1.56951E-04 0.00000E+00
 -1       539 1.94977E-04 2.37070E-04 0.00000E+00
 -1       540 1.92076E-04 3.12781E-04 0.00000E+00
 -1       541 1.90186E-04 3.73079E-04 0.00000E+00
 -1       542 1.89309E-04 4.11460E-04 0.00000E+00
 -1       543 1.89092E-04 4.21558E-04-1.65436E-24
 -1       544 1.88783E-04 4.04131E-04 0.00000E+00
 -1       545 1.87688E-04 3.60140E-04 0.00000E+00
 -1       546 1.85660E-04 2.97413E-04-3.30872E-24
 -1       547 1.82922E-04 2.23894E-04 0.00000E+00
 -1       548 1.80213E-04 1.50770E-04 0.00000E+00
 -1       549 1.78256E-04 8.92295E-05-1.65436E-24
 -1       550 1.77235E-04 4.69901E-05 0.00000E+00
 -1       551 1.79288E-04-8.39305E-06 0.00000E+00
 -1       552 1.52010E-04-9.01595E-06 0.00000E+00
 -1       553 1.22503E-04-9.69661E-06-9.92617E-24
 -1       554 9.17108E-05-1.04152E-05-6.61744E-24
 -1       555 6.05794E-05-1.11459E-05 1.32349E-23
 -1       556 1.96124E-04 1.07964E-05 0.00000E+00
 -1       557 1.90248E-04 2.58907E-05 0.00000E+00
 -1       558 1.85651E-04 3.77164E-05-5.29396E-23
 -1       559 1.82204E-04 4.65735E-05 0.00000E+00
 -1       560 1.79781E-04 5.27622E-05 0.00000E+00
 -1       561 1.78261E-04 5.65851E-05 0.00000E+00
 -1       562 1.77523E-04 5.83460E-05 0.00000E+00
 -1       563 1.77446E-04 5.83496E-05-1.32349E-23
 -1       564 1.77914E-04 5.69015E-05 0.00000E+00
 -1       565 1.78809E-04 5.43077E-05 6.61744E-24
 -1       566 1.80018E-04 5.08747E-05 0.00000E+00
 -1       567 1.81424E-04 4.69097E-05 0.00000E+00
 -1       568 1.82914E-04 4.27197E-05 8.27181E-25
 -1       569 1.84373E-04 3.86118E-05 0.00000E+00
 -1       570 1.85688E-04 3.48930E-05 0.00000E+00
 -1       571 1.77057E-04 2.96976E-05-8.27181E-25
 -1       572 1.77154E-04 2.76838E-05-8.27181E-25
 -1       573 1.77251E-04 2.56213E-05 1.65436E-24
 -1       574 1.77348E-04 2.35260E-05 8.27181E-25
 -1       575 1.77446E-04 2.14136E-05 0.00000E+00
 -1       576 1.77543E-04 1.92998E-05-1.65436E-24
 -1       577 1.77641E-04 1.72006E-05 3.30872E-24
 -1       578 1.77739E-04 1.51318E-05 0.00000E+00
 -1       579 1.77836E-04 1.31093E-05 0.00000E+00
 -1       580 1.77934E-04 1.11489E-05 6.61744E-24
 -1       581 1.78032E-04 9.26647E-06 0.00000E+00
 -1       582 1.78130E-04 7.47791E-06 6.61744E-24
 -1       583 1.78229E-04 5.79901E-06-6.61744E-24
 -1       584 1.78327E-04 4.24544E-06-3.30872E-24
 -1       585 1.78425E-04 2.83272E-06 6.61744E-24
 -1       586 1.78550E-04 3.16862E-05 0.00000E+00
 -1       587 1.80099E-04 3.17241E-05 0.00000E+00
 -1       588 1.81650E-04 3.17617E-05 0.00000E+00
 -1       589 1.83247E-04 3.17986E-05 0.00000E+00
 -1       590 1.84932E-04 3.18343E-05 0.00000E+00
 -1       591 1.77628E-04 2.97868E-05 0.00000E+00
 -1       592 1.78298E-04 2.79051E-05-2.06795E-25
 -1       593 1.78973E-04 2.60087E-05 8.27181E-25
 -1       594 1.79651E-04 2.41023E-05 0.00000E+00
 -1       595 1.80330E-04 2.21907E-05 0.00000E+00
 -1       596 1.81010E-04 2.02787E-05 4.13590E-25
 -1       597 1.81688E-04 1.83709E-05-8.27181E-25
 -1       598 1.82363E-04 1.64723E-05 0.00000E+00
 -1       599 1.83033E-04 1.45875E-05-8.27181E-25
 -1       600 1.83696E-04 1.27213E-05 0.00000E+00
 -1       601 1.84350E-04 1.08784E-05-8.27181E-25
 -1       602 1.84993E-04 9.06356E-06 0.00000E+00
 -1       603 1.85625E-04 7.28156E-06-4.13590E-25
 -1       604 1.86243E-04 5.53725E-06-2.58494E-26
 -1       605 1.86846E-04 3.83529E-06-4.13590E-25
 -1       606 1.78537E-04 5.44562E-07 0.00000E+00
 -1       607 1.78547E-04-3.98961E-07 0.00000E+00
 -1       608 1.78556E-04-1.26063E-06-3.30872E-24
 -1       609 1.78564E-04-2.04619E-06 0.00000E+00
 -1       610 1.78573E-04-2.76146E-06 0.00000E+00
 -1       611 1.78581E-04-3.41231E-06 0.00000E+00
 -1       612 1.78590E-04-4.00462E-06 0.00000E+00
 -1       613 1.78598E-04-4.54426E-06 0.00000E+00
 -1       614 1.78607E-04-5.03713E-06 0.00000E+00
 -1       615 1.78615E-04-5.48912E-06 0.00000E+00
 -1       616 1.78624E-04-5.90610E-06 0.00000E+00
 -1       617 1.78633E-04-6.29397E-06 4.13590E-25
 -1       618 1.78641E-04-6.65860E-06 0.00000E+00
 -1       619 1.78649E-04-7.00589E-06 0.00000E+00
 -1       620 1.78658E-04-7.34173E-06-2.06795E-25
 -1       621 1.79741E-04 1.67664E-06-1.65436E-24
 -1       622 1.81107E-04 1.77849E-06-8.27181E-25
 -1       623 1.82591E-04 1.88015E-06-1.65436E-24
 -1       624 1.84161E-04 1.98152E-06 0.00000E+00
 -1       625 1.85786E-04 2.08261E-06 0.00000E+00
 -1       626 1.79020E-04 5.79879E-07-3.30872E-24
 -1       627 1.79493E-04-3.50685E-07 0.00000E+00
 -1       628 1.79945E-04-1.22450E-06 0.00000E+00
 -1       629 1.80379E-04-2.04975E-06 0.00000E+00
 -1       630 1.80798E-04-2.83465E-06-3.30872E-24
 -1       631 1.81205E-04-3.58742E-06 0.00000E+00
 -1       632 1.81603E-04-4.31627E-06-3.30872E-24
 -1       633 1.81995E-04-5.02946E-06 1.65436E-24
 -1       634 1.82384E-04-5.73520E-06 3.30872E-24
 -1       635 1.82774E-04-6.44171E-06 0.00000E+00
 -1       636 1.83167E-04-7.15724E-06 0.00000E+00
 -1       637 1.83566E-04-7.89001E-06-1.65436E-24
 -1       638 1.83975E-04-8.64824E-06 1.65436E-24
 -1       639 1.84396E-04-9.44019E-06 0.00000E+00
 -1       640 1.84832E-04-1.02741E-05 0.00000E+00
 -1       656 1.79228E-04-8.23868E-06-6.61744E-24
 -1       657 1.80206E-04-8.82839E-06 0.00000E+00
 -1       658 1.81462E-04-9.41669E-06 0.00000E+00
 -1       659 1.82849E-04-1.00047E-05 0.00000E+00
 -1       660 1.84184E-04-1.05944E-05 6.61744E-24
 -1       661 1.78876E-04-8.04601E-06-8.27181E-25
 -1       662 1.79124E-04-8.50933E-06 8.27181E-25
 -1       663 1.79403E-04-9.05693E-06 0.00000E+00
 -1       664 1.79711E-04-9.68258E-06 0.00000E+00
 -1       665 1.80047E-04-1.03807E-05 0.00000E+00
 -1       666 1.80408E-04-1.11456E-05 0.00000E+00
 -1       667 1.80792E-04-1.19719E-05 0.00000E+00
 -1       668 1.81196E-04-1.28543E-05 0.00000E+00
 -1       669 1.81620E-04-1.37875E-05 0.00000E+00
 -1       670 1.82061E-04-1.47666E-05-8.27181E-25
 -1       671 1.82517E-04-1.57865E-05 0.00000E+00
 -1       672 1.82987E-04-1.68423E-05 0.00000E+00
 -1       673 1.83468E-04-1.79294E-05 1.65436E-24
 -1       674 1.83958E-04-1.90433E-05 0.00000E+00
 -1       675 1.84457E-04-2.01789E-05-4.13590E-25
 -1       676 1.78998E-04-2.08239E-05-3.30872E-24
 -1       677 1.80194E-04-2.09264E-05-1.65436E-24
 -1       678 1.81388E-04-2.10290E-05 3.30872E-24
 -1       679 1.82581E-04-2.11312E-05 0.00000E+00
 -1       680 1.83771E-04-2.12334E-05 0.00000E+00
 -1       771 1.86117E-05 1.36303E-05 5.29396E-23
 -1       772 8.97951E-06 3.45855E-05 0.00000E+00
 -1       773 1.06617E-06 5.12033E-05-5.29396E-23
 -1       774-5.24624E-06 6.37310E-05 0.00000E+00
 -1       775-1.00733E-05 7.24258E-05 0.00000E+00
 -1       776-1.35351E-05 7.75606E-05 0.00000E+00
 -1       777-1.57517E-05 7.94175E-05 0.00000E+00
 -1       778-1.68458E-05 7.82919E-05-2.64698E-23
 -1       779-1.69393E-05 7.44870E-05-1.05879E-22
 -1       780-1.61563E-05 6.83166E-05-2.64698E-23
 -1       781-1.46200E-05 6.01010E-05 5.29396E-23
 -1       782-1.24552E-05 5.01686E-05 0.00000E+00
 -1       783-9.78579E-06 3.88524E-05 0.00000E+00
 -1       784-6.73699E-06 2.64908E-05 0.00000E+00
 -1       785-3.43307E-06 1.34254E-05 0.00000E+00
 -1       786 1.86785E-04 2.97857E-05 0.00000E+00
 -1       787 1.86827E-04 2.77547E-05 4.13590E-25
 -1       788 1.86870E-04 2.57651E-05-8.27181E-25
 -1       789 1.86913E-04 2.38087E-05-8.27181E-25
 -1       790 1.86956E-04 2.18808E-05 1.65436E-24
 -1       791 1.86999E-04 1.99767E-05 8.27181E-25
 -1       792 1.87042E-04 1.80943E-05 1.65436E-24
 -1       793 1.87085E-04 1.62313E-05 8.27181E-25
 -1       794 1.87129E-04 1.43876E-05 0.00000E+00
 -1       795 1.87172E-04 1.25630E-05-8.27181E-25
 -1       796 1.87216E-04 1.07593E-05 0.00000E+00
 -1       797 1.87259E-04 8.97856E-06 0.00000E+00
 -1       798 1.87303E-04 7.22482E-06-1.65436E-24
 -1       799 1.87346E-04 5.50241E-06 8.27181E-25
 -1       800 1.87390E-04 3.81880E-06 1.65436E-24
 -1       801 1.43311E-04 2.85997E-05-2.64698E-23
 -1       802 1.18763E-05 1.79264E-05 2.64698E-23
 -1       803-1.00786E-04 9.10819E-06 0.00000E+00
 -1       804-9.00261E-05 6.31711E-06 0.00000E+00
 -1       805-2.98185E-05 2.52514E-06 5.29396E-23
 -1       806 1.87414E-04 2.97186E-05 0.00000E+00
 -1       807 1.88067E-04 2.75973E-05 0.00000E+00
 -1       808 1.88708E-04 2.55072E-05-3.30872E-24
 -1       809 1.89336E-04 2.34523E-05 1.65436E-24
 -1       810 1.89949E-04 2.14365E-05 3.30872E-24
 -1       811 1.90545E-04 1.94635E-05 0.00000E+00
 -1       812 1.91125E-04 1.75372E-05 0.00000E+00
 -1       813 1.91685E-04 1.56613E-05 0.00000E+00
 -1       814 1.92226E-04 1.38396E-05 0.00000E+00
 -1       815 1.92745E-04 1.20758E-05 1.65436E-24
 -1       816 1.93240E-04 1.03737E-05-1.65436E-24
 -1       817 1.93712E-04 8.73707E-06-8.27181E-25
 -1       818 1.94157E-04 7.16956E-06 1.65436E-24
 -1       819 1.94576E-04 5.67494E-06 8.27181E-25
 -1       820 1.94966E-04 4.25690E-06 1.65436E-24
 -1       821 1.87308E-04 1.23797E-07-1.65436E-24
 -1       822 1.87171E-04-2.81684E-06 0.00000E+00
 -1       823 1.87033E-04-6.29509E-06 3.30872E-24
 -1       824 1.86894E-04-9.96238E-06-1.65436E-24
 -1       825 1.86755E-04-1.34198E-05 0.00000E+00
 -1       826 1.86617E-04-1.62697E-05 1.65436E-24
 -1       827 1.86482E-04-1.82775E-05 3.30872E-24
 -1       828 1.86348E-04-1.92139E-05 1.65436E-24
 -1       829 1.86214E-04-1.91375E-05 0.00000E+00
 -1       830 1.86080E-04-1.81128E-05 1.65436E-24
 -1       831 1.85945E-04-1.64591E-05-3.30872E-24
 -1       832 1.85810E-04-1.44994E-05 1.65436E-24
 -1       833 1.85675E-04-1.26393E-05-3.30872E-24
 -1       834 1.85542E-04-1.12834E-05-1.65436E-24
 -1       835 1.85410E-04-1.07014E-05 0.00000E+00
 -1       836 1.88958E-04 2.30390E-06 3.30872E-24
 -1       837 1.90356E-04 2.42930E-06 0.00000E+00
 -1       838 1.91660E-04 2.55462E-06-3.30872E-24
 -1       839 1.92903E-04 2.67924E-06-8.27181E-25
 -1       840 1.94115E-04 2.80369E-06 8.27181E-25
 -1       856 1.85268E-04-1.20647E-05 0.00000E+00
 -1       857 1.85248E-04-1.28371E-05 0.00000E+00
 -1       858 1.85228E-04-1.34966E-05 0.00000E+00
 -1       859 1.85208E-04-1.40639E-05-2.06795E-25
 -1       860 1.85187E-04-1.45601E-05-4.13590E-25
 -1       861 1.85167E-04-1.50060E-05 0.00000E+00
 -1       862 1.85146E-04-1.54228E-05 8.27181E-25
 -1       863 1.85125E-04-1.58316E-05 0.00000E+00
 -1       864 1.85105E-04-1.62533E-05-8.27181E-25
 -1       865 1.85084E-04-1.67091E-05-4.13590E-25
 -1       866 1.85064E-04-1.72200E-05 8.27181E-25
 -1       867 1.85043E-04-1.78070E-05-4.13590E-25
 -1       868 1.85022E-04-1.84910E-05-8.27181E-25
 -1       869 1.85001E-04-1.92930E-05 4.13590E-25
 -1       870 1.84980E-04-2.02335E-05 8.27181E-25
 -1       871 1.86474E-04-1.11628E-05-8.27181E-25
 -1       872 1.87806E-04-1.11705E-05 0.00000E+00
 -1       873 1.89217E-04-1.11790E-05 0.00000E+00
 -1       874 1.90640E-04-1.11881E-05 1.55096E-25
 -1       875 1.92007E-04-1.11978E-05 1.65436E-24
 -1       876 1.85750E-04-1.20504E-05 3.30872E-24
 -1       877 1.86193E-04-1.28767E-05-1.65436E-24
 -1       878 1.86615E-04-1.36450E-05 3.30872E-24
 -1       879 1.87018E-04-1.43627E-05 0.00000E+00
 -1       880 1.87405E-04-1.50370E-05 0.00000E+00
 -1       881 1.87778E-04-1.56752E-05-1.65436E-24
 -1       882 1.88141E-04-1.62846E-05 0.00000E+00
 -1       883 1.88495E-04-1.68724E-05-1.65436E-24
 -1       884 1.88844E-04-1.74459E-05 3.30872E-24
 -1       885 1.89191E-04-1.80122E-05 1.65436E-24
 -1       886 1.89537E-04-1.85787E-05 0.00000E+00
 -1       887 1.89886E-04-1.91525E-05-1.65436E-24
 -1       888 1.90241E-04-1.97410E-05 0.00000E+00
 -1       889 1.90603E-04-2.03515E-05 0.00000E+00
 -1       890 1.90975E-04-2.09912E-05 0.00000E+00
 -1       891 1.86164E-04-2.13898E-05-1.65436E-24
 -1       892 1.87348E-04-2.14464E-05 0.00000E+00
 -1       893 1.88484E-04-2.15029E-05 1.65436E-24
 -1       894 1.89547E-04-2.15591E-05 0.00000E+00
 -1       895 1.90512E-04-2.16151E-05 4.13590E-25
 -1       956 1.95201E-04 1.75115E-06-1.65436E-24
 -1       957 1.95071E-04 6.72166E-07 1.65436E-24
 -1       958 1.94941E-04-3.28286E-07 0.00000E+00
 -1       959 1.94811E-04-1.26118E-06 0.00000E+00
 -1       960 1.94681E-04-2.13753E-06 0.00000E+00
 -1       961 1.94551E-04-2.96840E-06 1.65436E-24
 -1       962 1.94420E-04-3.76484E-06 3.30872E-24
 -1       963 1.94290E-04-4.53795E-06 0.00000E+00
 -1       964 1.94160E-04-5.29879E-06 3.30872E-24
 -1       965 1.94030E-04-6.05844E-06 0.00000E+00
 -1       966 1.93900E-04-6.82800E-06-3.30872E-24
 -1       967 1.93770E-04-7.61853E-06 0.00000E+00
 -1       968 1.93640E-04-8.44111E-06 0.00000E+00
 -1       969 1.93510E-04-9.30677E-06 1.65436E-24
 -1       970 1.93380E-04-1.02265E-05 0.00000E+00
 -1       971 1.93135E-04-1.21933E-05 0.00000E+00
 -1       972 1.93016E-04-1.30820E-05 0.00000E+00
 -1       973 1.92897E-04-1.38872E-05 0.00000E+00
 -1       974 1.92777E-04-1.46198E-05-1.65436E-24
 -1       975 1.92658E-04-1.52905E-05-3.30872E-24
 -1       976 1.92539E-04-1.59100E-05 0.00000E+00
 -1       977 1.92420E-04-1.64892E-05-3.30872E-24
 -1       978 1.92300E-04-1.70389E-05 1.65436E-24
 -1       979 1.92181E-04-1.75698E-05 3.30872E-24
 -1       980 1.92062E-04-1.80928E-05 1.65436E-24
 -1       981 1.91943E-04-1.86187E-05 0.00000E+00
 -1       982 1.91824E-04-1.91583E-05 0.00000E+00
 -1       983 1.91705E-04-1.97224E-05-3.30872E-24
 -1       984 1.91586E-04-2.03218E-05 1.65436E-24
 -1       985 1.91468E-04-2.09672E-05 0.00000E+00
 -3
    1PSTEP                        42          21           1          
  100CL  121 6.53580E-01         409                     0   21           1
 -4  STRESS      6    1
 -5  SXX         1    4    1    1
 -5  SYY         1    4    2    2
 -5  SZZ         1    4    3    3
 -5  SXY         1    4    1    2
 -5  SYZ         1    4    2    3
 -5  SZX         1    4    3    1
 -1         1-4.76488E+06-1.67810E+06-1.03315E+06-1.59787E+06 2.91038E-11-6.07979E-08
 -1         2 6.54926E+05 9.10308E+06 2.45898E+06 2.94806E+06 1.98925E-08 5.46861E-08
 -1         3-1.35817E+03-1.59838E+06 4.07307E+02-2.16764E+03-5.53072E-10-4.25644E-10
 -1         5-6.00790E+01 3.77347E+05 9.74585E+00-1.14511E+00-5.04980E-10-3.19069E-08
 -1         8-8.16275E+05-2.63025E+05-1.04155E+05-3.29203E+05 9.56788E-10 1.03442E-07
 -1         9 9.63115E+06 1.45658E+06 1.99572E+06-6.93018E+05 7.61356E-09 2.40281E-08
 -1        10-2.21531E+03-1.66563E+06-3.92272E+03-1.46556E+04-1.25710E-08-6.78233E-09
 -1        12-5.62148E+01 3.77368E+05 3.19463E+02-7.88019E+00-6.87123E-10 3.19233E-10
 -1        15 1.17570E+03 6.46109E+02 3.80043E+03 1.54603E+00-4.15582E-10 9.46911E-08
 -1        16 2.00501E+07-2.13066E+05 2.77993E+06-1.74860E+06-3.04620E-09 1.94491E-07
 -1        17 7.29580E+06 5.32315E+06 1.96587E+06 5.16034E+06 1.68104E-08 1.96276E-08
 -1        18 1.26894E+05 2.93305E+04 1.09038E+03-1.15737E+05 1.38837E-08-3.26327E-09
 -1        19 1.19755E+05 1.38491E+05-9.28014E+02 2.16729E+04 1.34387E-09-1.08499E-08
 -1        20-7.86152E+04-5.61731E+05-1.25934E+05 2.55155E+04-1.67923E-09-4.35951E-09
 -1        21-4.52907E+01-2.91822E+05-9.12781E+02 2.39548E+02 1.24331E-08-3.34261E-08
 -1        24 1.20374E+07 1.02708E+07 3.36284E+06 9.53992E+06-1.55143E-07-4.82736E-08
 -1        25 9.81020E+04 1.68826E+05 7.47799E+04-5.87445E+05-1.46292E-09 6.38738E-09
 -1        26-5.39971E+04 9.00680E+04-2.41336E+04 7.24739E+02 1.70257E-10 2.94129E-09
 -1        27-7.51582E+04-3.03786E+05-1.11291E+05 6.76225E+04 4.65267E-09-7.16015E-09
 -1        28 2.19791E+04-8.39302E+04 1.66507E+04 2.06425E+04-4.30560E-09 3.27192E-09
 -1        32-1.65446E+06-3.08292E+06-1.84995E+05 3.53268E+05-4.09564E-08-1.03189E-08
 -1        33-1.75146E+05 9.08051E+04 3.16956E+04-3.80636E+04-2.78737E-09 5.49486E-09
 -1        34-2.19545E+05-2.43779E+04 6.68790E+02 7.38604E+04-4.66987E-09 3.68451E-09
 -1        35-2.26324E+04-3.32884E+04-1.32508E+03 5.07760E+04-3.70463E-09-2.33558E-09
 -1        51 5.31182E+04-1.99664E+05 1.16371E+05-5.82514E+05-3.63798E-10 1.54527E-07
 -1        52 1.89035E+04-1.80260E+05 6.23444E+04-6.81928E+05-4.83851E-10 2.06783E-08
 -1        53 4.76638E+03-1.96079E+05 3.43268E+04-5.80409E+05 2.32831E-10 3.39132E-08
 -1        54 1.02928E+04-1.92195E+05 3.19463E+04-6.84059E+05-2.69210E-10-1.23928E-07
 -1        55 2.16342E+04-2.01111E+05 4.31460E+04-5.80183E+05 1.01863E-10-1.45228E-07
 -1        56-8.85750E+06-1.03881E+06-7.69392E+05-3.50842E+06-3.50410E-08 6.94126E-08
 -1        57-9.50669E+06-1.37435E+06-5.15622E+05-3.07530E+06 9.44419E-09 2.11185E-07
 -1        58-8.95102E+06-1.33344E+06-1.79723E+05-3.51933E+06 1.84700E-08 1.36257E-07
 -1        59-9.37706E+06-1.04671E+06-1.06683E+05-3.09054E+06 8.02083E-09-7.08460E-08
 -1        60-8.98841E+06-1.35540E+06-4.26419E+04-3.49864E+06-3.58905E-08-1.45752E-07
 -1        61-9.25030E+06-1.09125E+06-2.09876E+04-3.18266E+06 1.67420E-08-1.73743E-07
 -1        62-9.06795E+06-1.29407E+06-1.54713E+04-3.42056E+06-3.57868E-08 4.53620E-08
 -1        63-9.07390E+06-1.24714E+06-5.00168E+03-3.36061E+06-4.66935E-09 3.12126E-07
 -1        64-9.15767E+06-1.20426E+06-1.46197E+04-3.31572E+06-1.24892E-08 4.44661E-08
 -1        65-8.93528E+06-1.40569E+06-1.87436E+04-3.55085E+06-1.30931E-08-1.04344E-07
 -1        66-9.21392E+06-1.13064E+06-3.81990E+04-3.23570E+06 2.53985E-08 1.13636E-07
 -1        67-8.89853E+06-1.51712E+06-9.53100E+04-3.64607E+06-3.56467E-08 1.43706E-07
 -1        68-9.20413E+06-1.08750E+06-1.60664E+05-3.22674E+06-5.37148E-09-5.30927E-08
 -1        69-9.08136E+06-1.74123E+06-4.60481E+05-3.55111E+06-2.63863E-08 3.46045E-08
 -1        70-9.02894E+06-9.17234E+05-6.88206E+05-3.32533E+06 7.08678E-09 1.80764E-07
 -1        86-6.65431E+05-9.11740E+06-1.34126E+06-1.41069E+06-1.85728E-07 6.96309E-09
 -1        87 9.63201E+05 1.70213E+06 1.11425E+06 3.07654E+06-3.20968E-07-8.69086E-08
 -1        88-1.40083E+05-2.57509E+06 9.02698E+04-1.63498E+06-2.86269E-07-9.25822E-08
 -1        89 1.30344E+06 1.57164E+06 1.12054E+06 3.15479E+06-4.11073E-07-3.48395E-07
 -1        90-9.71137E+05-9.01839E+06-1.47557E+06-1.49601E+06-1.02729E-07 8.20582E-08
 -1       121-1.86557E+03-1.60288E+06-4.57327E+02 1.07540E+03 1.41377E-09 4.40195E-10
 -1       122-1.17367E+03-1.59843E+06 7.84419E+02-4.33675E+03-5.12213E-09-4.86943E-09
 -1       123-1.89185E+03-1.60301E+06 3.78814E+02 3.21123E+03 4.10728E-09-1.51304E-08
 -1       124 4.88030E+02-1.59793E+06 3.04213E+03-9.06158E+03-1.01290E-08 2.85418E-08
 -1       125-2.73370E+03-1.60392E+06 3.69692E+03 5.76069E+03 6.27551E-09-1.16379E-08
 -1       191-6.33716E+01 3.77368E+05 8.96517E+00 5.93139E-01-5.28133E-10-6.23731E-09
 -1       192-6.10104E+01 3.77348E+05 2.07646E+01-3.74540E+00-6.73191E-10-2.42762E-08
 -1       193-6.58281E+01 3.77368E+05 3.60059E+01 3.27874E+00-9.55421E-10-2.88310E-08
 -1       194-6.39984E+01 3.77351E+05 7.88576E+01-8.52478E+00-4.67357E-10-2.82680E-08
 -1       195-7.05442E+01 3.77365E+05 1.51628E+02 5.51399E+00-1.35768E-09-4.61769E-08
 -1       251-1.90521E+06 2.88318E+04-1.39084E+05 3.96422E+04-1.80444E-09-1.31971E-07
 -1       252-1.66258E+06-3.42377E+04-4.26828E+04-1.46342E+05-1.05060E-08-4.13911E-08
 -1       253-1.82430E+06 8.29546E+00-3.55528E+04 1.37836E+05 3.31693E-09-1.00095E-07
 -1       254-1.78496E+06 9.52460E+03-1.07538E+04-2.60574E+05 3.21256E-09-8.34086E-08
 -1       255-1.79660E+06-3.41467E+03-7.58926E+03 1.54456E+05-1.23705E-08 4.72805E-08
 -1       256-1.70358E+06 1.32508E+04 1.69124E+04-2.05401E+05 5.04770E-09 8.61655E-09
 -1       257-1.89797E+06-1.00427E+04-2.38699E+04 8.22650E+04-2.54831E-08-1.08650E-07
 -1       258-1.57226E+06 9.19374E+03 4.40661E+04-1.21227E+04-1.99111E-08-7.14509E-08
 -1       259-1.91517E+06-9.84675E+03-2.53946E+04-3.88344E+04 2.62826E-08-5.83172E-08
 -1       260-1.66550E+06 9.59177E+03 2.83444E+04 1.96701E+05 1.30735E-08-2.12359E-07
 -1       261-1.81426E+06-2.60090E+03-7.10483E+02-1.26123E+05-3.21429E-08-8.24768E-08
 -1       262-1.77740E+06 1.49135E+04 1.28832E+04 2.84317E+05-2.26592E-08-7.07814E-08
 -1       263-1.81464E+06-5.77910E+03 7.57192E+03-1.26749E+05-1.84573E-08 8.17222E-08
 -1       264-1.65509E+06 3.77688E+04 5.86256E+04 1.99299E+05-5.38021E-08 1.27743E-07
 -1       265-1.92540E+06-3.45538E+04 1.52186E+04-4.08084E+04-1.80698E-08 5.28380E-08
 -1       266-2.12842E+04-9.95295E+03 4.99367E+04-3.30792E+01 1.52795E-10-8.15112E-08
 -1       267 2.46742E+04 1.15997E+04 3.52956E+04 3.81681E+01 7.73070E-12 4.01437E-08
 -1       268-3.30876E+03-1.64287E+03 1.31192E+04-4.86321E+00 2.09184E-11 5.29543E-08
 -1       269 3.90667E+03 1.96613E+03 8.52729E+03 5.66499E+00-1.34037E-10 2.67589E-08
 -1       270-5.86396E+02-3.23052E+02 4.11625E+03-7.68776E-01 1.62117E-10 2.24682E-07
 -1       271-1.82168E+06-2.25097E+05-1.33729E+05-7.02910E+05 4.68312E-08 4.07745E-08
 -1       272-1.87153E+06-3.18181E+05-8.56362E+04-6.97025E+05-4.23802E-08-3.08501E-09
 -1       273-1.84813E+06-2.56928E+05-3.18029E+04-6.95414E+05 1.29930E-08-1.44359E-07
 -1       274-1.83953E+06-2.80243E+05-1.75044E+04-7.09375E+05-1.16415E-10-1.22109E-08
 -1       275-1.85335E+06-2.58585E+05-7.58056E+03-6.92391E+05 1.07957E-08 9.38962E-08
 -1       276-1.83234E+06-2.79506E+05-3.73779E+03-7.15253E+05-3.28555E-08-1.63415E-07
 -1       277-1.85575E+06-2.56920E+05-2.04271E+03-6.90056E+05 3.23653E-08-1.66308E-07
 -1       278-1.82881E+06-2.82551E+05-1.11833E+03-7.19958E+05 4.20187E-08 1.79590E-07
 -1       279-1.85747E+06-2.55127E+05-1.26909E+03-6.88121E+05-1.93704E-08 4.31769E-08
 -1       280-1.82651E+06-2.85618E+05-1.85219E+03-7.23790E+05 8.76253E-09 2.39606E-07
 -1       281-1.85865E+06-2.53492E+05-3.47074E+03-6.86636E+05 4.10546E-09 1.46095E-07
 -1       282-1.82631E+06-2.89957E+05-8.05858E+03-7.26386E+05 1.08575E-08 1.18462E-09
 -1       283-1.85821E+06-2.50668E+05-1.43888E+04-6.85807E+05-1.55987E-08 5.43846E-08
 -1       284-1.83779E+06-3.10793E+05-3.91443E+04-7.25207E+05 9.52696E-10-2.39843E-07
 -1       285-1.84780E+06-2.34403E+05-6.08293E+04-6.87348E+05-1.57488E-08-8.79736E-08
 -1       301 8.29734E+03-5.60116E+05 1.70689E+05-9.78277E+05 2.76486E-09 1.28886E-07
 -1       302 9.37966E+03-5.15938E+05 1.03298E+05-1.42961E+06-7.71252E-10 9.65210E-08
 -1       303-9.96308E+03-5.48022E+05 6.09712E+04-9.75790E+05 3.58705E-09 3.38841E-08
 -1       304-5.27375E+03-5.19984E+05 6.59054E+04-1.42880E+06-4.42378E-09 1.02238E-07
 -1       305-9.96631E+03-5.41402E+05 8.69476E+04-9.78742E+05 8.82210E-10 7.29633E-08
 -1       306-2.78624E+07-5.69305E+06-7.80559E+06-9.76629E+05-7.95117E-08 1.23109E-08
 -1       307 2.32183E+07 2.32615E+06 5.01923E+06-1.34868E+07-8.65271E-07-2.69967E-07
 -1       308-7.53776E+06-8.18478E+05-5.28095E+05 4.74685E+06-2.05328E-07 2.68308E-07
 -1       309-3.45731E+06 7.06662E+06 1.94576E+06-1.92419E+07 4.67913E-07 1.48604E-07
 -1       310-1.15009E+07-1.44356E+06-1.60665E+06 4.65265E+06-3.13157E-08-4.23854E-07
 -1       311 3.24188E+07-1.47450E+05 6.31416E+06-8.76640E+06 2.62837E-07-2.85916E-07
 -1       312-2.90806E+07-5.91711E+06-7.50622E+06-4.23064E+06-8.64966E-08 2.20010E-07
 -1       313 4.11928E+07 1.19564E+07 9.53870E+06 2.01134E+07-3.79659E-07 2.56929E-07
 -1       314-1.69415E+07-1.53793E+07-6.77602E+06-1.15818E+07 4.29573E-07-4.74392E-08
 -1       315-1.13966E+06 2.59153E+07 5.16494E+06 1.06025E+07-2.01268E-07 1.10362E-07
 -1       316 6.67195E+05-9.36038E+06-4.92014E+05-3.21030E+06-1.08490E-06-4.14846E-07
 -1       317-1.70909E+07 2.05701E+07 1.91020E+06-6.81449E+06 8.16406E-07-6.15968E-07
 -1       318-1.20195E+06-1.12730E+07-1.65155E+06-4.39440E+06-9.28441E-07 1.73633E-07
 -1       319 5.59793E+06 2.74237E+07 6.08475E+06 1.45688E+07-5.89062E-08 2.16969E-07
 -1       320-2.08015E+07-1.55305E+07-8.72597E+06-1.16049E+07 1.94181E-07-5.84696E-08
 -1       336-5.04539E+02-1.73518E+06-1.38030E+04 8.74805E+03-2.55495E-08-2.21189E-09
 -1       337-5.33418E+03-1.73522E+06-1.79742E+04-2.11945E+04-4.67062E-08-1.51631E-08
 -1       338 4.35629E+02-1.73470E+06-2.80243E+04 1.22282E+04-3.24690E-08 2.19625E-08
 -1       339-2.97465E+04-1.75207E+06-6.34214E+04-2.79960E+04-5.91053E-08 2.13331E-08
 -1       340 1.97490E+04-1.72036E+06-9.97657E+04 1.54286E+04-3.92683E-08 1.08630E-08
 -1       406-3.44289E+01 3.77351E+05 6.27945E+02 2.76703E+00-1.75758E-09 4.83669E-09
 -1       407 1.63998E+02 3.77479E+05 1.34048E+03 2.12534E+01-3.83913E-10-3.70965E-08
 -1       408 6.31989E+02 3.77253E+05 2.67367E+03-2.44041E+01-2.12890E-09-2.23627E-08
 -1       409 2.84287E+03 3.78333E+05 6.02478E+03 2.58305E+02-3.37877E-10-5.64978E-09
 -1       410 8.26858E+03 3.76486E+05 1.22969E+04-2.48581E+02-2.65027E-09-5.60067E-09
 -1       521-2.93853E+07-6.98562E+06-9.09803E+06-6.46152E+05-1.07451E-07 2.98955E-07
 -1       522 2.39618E+07 3.06184E+06 5.09635E+06-1.66711E+07-5.30505E-07-3.41330E-07
 -1       523-8.24254E+06-1.10099E+06-5.35626E+05 5.18444E+06 3.50992E-08-3.86935E-07
 -1       524-6.68121E+06 9.66418E+06 2.10273E+06-2.21916E+07 8.13976E-07-3.42745E-07
 -1       525-1.24084E+07-1.96296E+06-1.76345E+06 5.08119E+06 5.56407E-07-4.28903E-07
 -1       526 3.51707E+07-2.05871E+05 6.62675E+06-1.12670E+07 1.73284E-07-2.67755E-07
 -1       527-3.08381E+07-7.41198E+06-8.62620E+06-4.11548E+06 2.95928E-07-1.66750E-07
 -1       528 4.49463E+07 1.31487E+07 9.93982E+06 2.27591E+07 2.51981E-07-1.43482E-07
 -1       529-1.79307E+07-1.73599E+07-7.75318E+06-1.17209E+07-1.00583E-07-1.54425E-07
 -1       530-3.45389E+06 3.01265E+07 5.45561E+06 1.04406E+07-6.23259E-08 5.66070E-07
 -1       531 6.07392E+05-1.04728E+07-4.84662E+05-3.30979E+06-6.94199E-07 2.59373E-07
 -1       532-1.99282E+07 2.27364E+07 2.08893E+06-1.04467E+07 4.37736E-07-7.95641E-07
 -1       533-1.27139E+06-1.24104E+07-1.74478E+06-4.38615E+06-1.77009E-07-1.01374E-06
 -1       534 3.62180E+06 3.17975E+07 6.32721E+06 1.50794E+07-9.62464E-08 7.24220E-07
 -1       535-2.19368E+07-1.76550E+07-9.96261E+06-1.17435E+07 1.19791E-07 4.51342E-07
 -1       536-6.82020E+05-4.59739E+04-3.76788E+04-5.13559E+04-5.74846E-09 6.41940E-08
 -1       537-7.84060E+04 4.44844E+04 8.21624E+04 1.17494E+05-1.08503E-07 1.03768E-07
 -1       538-3.93392E+05 2.66463E+03 5.02715E+03-6.89972E+04 1.71319E-08 9.90872E-08
 -1       539-2.77717E+05 2.98888E+03 2.39574E+04 1.32201E+05 1.44386E-07 1.21471E-07
 -1       540-4.87677E+05-3.48964E+02-1.91164E+04-6.65348E+04 1.54021E-08 9.96115E-08
 -1       541 1.05799E+05 1.56608E+04 9.83338E+04 9.24787E+04-4.74886E-08 6.09157E-08
 -1       542-7.66583E+05-1.86189E+04-7.76631E+04-2.85035E+04 2.99569E-08 4.43382E-08
 -1       543 3.44554E+05 2.52442E+04 1.45754E+05-1.28163E+04 2.66527E-09 8.44193E-09
 -1       544-7.20036E+05-1.52279E+04-6.89967E+04 3.81676E+04-3.23203E-08-3.77720E-08
 -1       545-3.53980E+03 8.62043E+03 7.33171E+04-1.07829E+05-4.47512E-08-9.08676E-08
 -1       546-4.27823E+05 5.73799E+03-1.13599E+04 6.62061E+04 5.53473E-09-1.00221E-07
 -1       547-2.94772E+05-4.68121E+03 9.12595E+03-1.34981E+05-1.15140E-07-1.10092E-07
 -1       548-4.36619E+05 4.60243E+03-2.28964E+04 6.59296E+04-9.79435E-08-8.99913E-08
 -1       549 1.50422E+04 1.31759E+04 5.36492E+04-1.05539E+05-5.40061E-08-5.05572E-08
 -1       550-7.29343E+05-1.90442E+04-1.22351E+05 3.61300E+04 1.12232E-08-3.74421E-08
 -1       551 3.90269E+04-7.63343E+05-1.07433E+04-1.22865E+06-9.79198E-08-3.12866E-08
 -1       552 8.87956E+04-8.05088E+05 1.28684E+04-1.75206E+06-6.90488E-08 2.74376E-08
 -1       553 6.79797E+04-8.02490E+05 3.40693E+04-1.22228E+06-1.13243E-07 2.08092E-08
 -1       554 1.26443E+05-8.19058E+05 8.35236E+04-1.75402E+06-7.16755E-08 1.49539E-08
 -1       555 9.76759E+04-8.25646E+05 1.51820E+05-1.22223E+06-1.15833E-07-1.20890E-08
 -1       556 2.12944E+05-3.67450E+05 3.30054E+04-3.95889E+05-2.21189E-08 1.10595E-09
 -1       557 3.39956E+05-4.68931E+05 1.96946E+04-5.11384E+05-1.68802E-09-4.71118E-10
 -1       558 1.96496E+05-3.62269E+05 4.18763E+03-3.98749E+05-1.47556E-08-1.20272E-08
 -1       559 3.15808E+05-4.70272E+05 3.25948E+03-5.30415E+05 3.33966E-08 4.00178E-09
 -1       560 1.82375E+05-3.53398E+05-9.05667E+02-4.08877E+05 2.14495E-08 2.15623E-08
 -1       561 2.97966E+05-4.63201E+05 3.54542E+02-5.42532E+05-3.73984E-09 0.00000E+00
 -1       562 1.71213E+05-3.46448E+05-1.09425E+03-4.16949E+05-1.10595E-09 1.75860E-08
 -1       563 2.84719E+05-4.57425E+05 2.78455E+01-5.51172E+05-5.09317E-09 2.07692E-08
 -1       564 1.63282E+05-3.41502E+05-5.09527E+02-4.22566E+05 8.01811E-09 7.54881E-11
 -1       565 2.75994E+05-4.53626E+05 4.13518E+01-5.56743E+05 9.40054E-09-2.18215E-08
 -1       566 1.58696E+05-3.38599E+05-2.23844E+02-4.25774E+05-1.61526E-09-6.56473E-09
 -1       567 2.71836E+05-4.51817E+05-3.32218E+02-5.59259E+05 1.97506E-08-4.44925E-09
 -1       568 1.57541E+05-3.37894E+05-1.04799E+03-4.26678E+05-6.88851E-09 8.80755E-09
 -1       569 2.70904E+05-4.51764E+05-2.64790E+03-5.57764E+05-9.11859E-09 1.92595E-08
 -1       570 1.60872E+05-3.41024E+05-5.80408E+03-4.25707E+05 1.17725E-08-2.00862E-08
 -1       571 2.83970E+05 1.02779E+04 1.47169E+04-9.14205E+04 8.32188E-10 9.81936E-09
 -1       572 2.86108E+05 3.84542E+03 7.21228E+03-1.00297E+05 5.68343E-09-1.42736E-08
 -1       573 2.84820E+05 1.18375E+03 3.20461E+03-9.12484E+04 3.46063E-09 1.70166E-08
 -1       574 2.85035E+05 6.70139E+02 1.60697E+03-1.00513E+05 2.75622E-09 2.73967E-08
 -1       575 2.84912E+05 4.00240E+02 7.58393E+02-9.12249E+04-6.13369E-10 1.39926E-08
 -1       576 2.84901E+05 4.07604E+02 3.88172E+02-1.00542E+05-9.64974E-09 2.91220E-09
 -1       577 2.84950E+05 3.44448E+02 1.93716E+02-9.12217E+04-4.30009E-09 6.54836E-10
 -1       578 2.84927E+05 3.72334E+02 1.11676E+02-1.00546E+05-3.65617E-09-1.16688E-08
 -1       579 2.85016E+05 3.11316E+02 7.65834E+01-9.12214E+04 2.84854E-09-6.41558E-09
 -1       580 2.85020E+05 3.25968E+02 8.84053E+01-1.00542E+05-1.02955E-08 7.45058E-09
 -1       581 2.85120E+05 2.58211E+02 1.33570E+02-9.12271E+04 7.13771E-09 7.66431E-09
 -1       582 2.85182E+05 2.94105E+02 2.70997E+02-1.00482E+05 5.85715E-09 1.36488E-08
 -1       583 2.85248E+05 3.04205E+02 5.20715E+02-9.12812E+04 8.14907E-10-1.06866E-09
 -1       584 2.85535E+05 7.28185E+02 1.17762E+03-1.00026E+05 5.58612E-09-2.35323E-08
 -1       585 2.85264E+05 1.72394E+03 2.38552E+03-9.16828E+04-1.69348E-09-7.62157E-09
 -1       586-3.35646E+03 1.12416E+05-2.97957E+03-2.45840E+05-6.52244E-09-3.73668E-08
 -1       587-1.25892E+03 1.12148E+05 6.81516E+02-2.70569E+05-4.09273E-09-3.30003E-08
 -1       588 4.49631E+02 1.11981E+05 4.60126E+03-2.45707E+05-3.91083E-09-2.19388E-08
 -1       589 5.02249E+03 1.14379E+05 1.19982E+04-2.70334E+05-8.45648E-09-1.33186E-08
 -1       590 1.62331E+04 1.10682E+05 2.51939E+04-2.46130E+05-6.74481E-09-1.16106E-08
 -1       591-7.19912E+04-1.55589E+04-2.18399E+04-3.09481E+04-4.24961E-09 9.83709E-09
 -1       592-7.58802E+04-1.90828E+04-1.18302E+04-3.45480E+04 8.13095E-10-4.81668E-09
 -1       593-7.41760E+04-1.39736E+04-4.92436E+03-3.25490E+04 8.17743E-09 5.16729E-09
 -1       594-7.28637E+04-1.58791E+04-2.45591E+03-3.46635E+04 6.62595E-09 1.68532E-08
 -1       595-7.43426E+04-1.39683E+04-1.12756E+03-3.26217E+04-8.11681E-10 3.19953E-08
 -1       596-7.26573E+04-1.57326E+04-5.73073E+02-3.46391E+04 6.21733E-09 1.72010E-08
 -1       597-7.43635E+04-1.39832E+04-3.11790E+02-3.26245E+04-4.82834E-09 3.84324E-09
 -1       598-7.26369E+04-1.57268E+04-2.50158E+02-3.46322E+04-2.40243E-08 1.39675E-08
 -1       599-7.43622E+04-1.39837E+04-3.18942E+02-3.26241E+04-5.78166E-09-6.21890E-09
 -1       600-7.26574E+04-1.57332E+04-5.92006E+02-3.46370E+04 4.06226E-09 3.66384E-09
 -1       601-7.43382E+04-1.39695E+04-1.16765E+03-3.26207E+04-5.81394E-10-1.84400E-09
 -1       602-7.28711E+04-1.58839E+04-2.54463E+03-3.46586E+04-9.74717E-09-1.17593E-08
 -1       603-7.41629E+04-1.39779E+04-5.10297E+03-3.25461E+04-4.69163E-09-1.20099E-08
 -1       604-7.60140E+04-1.91847E+04-1.22585E+04-3.45148E+04 5.24722E-09-4.87489E-09
 -1       605-7.18795E+04-1.56379E+04-2.26308E+04-3.09061E+04-4.00854E-09 3.18032E-08
 -1       606 2.68309E+04-1.39716E+04-2.50510E+04 2.42976E+04 8.79754E-09 3.20392E-09
 -1       607 2.25501E+04-4.56055E+03-1.24752E+04 2.73020E+04 5.17684E-09-2.45518E-08
 -1       608 2.49889E+04-8.20359E+02-5.58486E+03 2.41240E+04-9.40418E-10 2.94813E-09
 -1       609 2.45203E+04-2.77959E+02-2.82128E+03 2.75185E+04 1.20053E-10 9.30322E-09
 -1       610 2.47794E+04-3.62612E+01-1.34617E+03 2.41036E+04 1.07957E-08 7.40283E-09
 -1       611 2.47049E+04-3.54079E+01-6.78724E+02 2.75419E+04 2.08602E-08-5.39990E-09
 -1       612 2.47325E+04-2.22526E+01-3.22762E+02 2.41015E+04 7.41875E-09 7.94421E-09
 -1       613 2.47152E+04-3.08257E+01-1.44700E+02 2.75446E+04 5.16593E-10 7.34872E-09
 -1       614 2.47100E+04-2.79915E+01-3.41433E+01 2.41008E+04 4.52928E-09 4.99563E-09
 -1       615 2.47092E+04-2.89113E+01 6.01802E+01 2.75451E+04 4.04179E-09 5.12478E-09
 -1       616 2.46925E+04-2.45644E+01 1.80883E+02 2.41011E+04 1.02636E-09-1.96837E-09
 -1       617 2.47303E+04 1.00109E+01 4.12882E+02 2.75446E+04 2.65663E-09-1.01725E-08
 -1       618 2.46561E+04 9.47502E+01 8.32285E+02 2.41013E+04-1.63709E-09-1.37720E-09
 -1       619 2.50238E+04 6.53770E+02 1.86901E+03 2.75439E+04-1.36629E-09-1.10549E-09
 -1       620 2.43795E+04 2.06853E+03 3.75666E+03 2.41026E+04 5.31941E-10 4.15866E-09
 -1       621 4.80523E+02 2.94237E+05 3.73562E+03 3.83299E+04 8.45830E-10 4.38376E-10
 -1       622 6.31475E+02 2.95106E+05 3.32833E+03 5.56562E+04 1.10958E-09 1.40644E-08
 -1       623 1.23796E+02 2.94428E+05 4.01760E+03 3.81558E+04 1.27397E-09 7.73798E-09
 -1       624 2.04277E+03 2.96303E+05 7.80271E+03 5.58280E+04 1.28932E-09 2.16569E-08
 -1       625 2.00287E+03 2.92882E+05 1.36420E+04 3.81527E+04 1.34514E-09 9.13110E-09
 -1       626 2.55143E+05 6.06648E+04 5.06081E+03 1.24707E+05 7.41102E-09 1.91976E-08
 -1       627 2.52816E+05 6.20817E+04 2.43876E+03 1.28970E+05 4.60750E-09-1.17034E-08
 -1       628 2.55272E+05 5.83462E+04 1.03133E+03 1.25563E+05 3.16322E-09 2.43206E-08
 -1       629 2.52183E+05 6.14136E+04 5.04798E+02 1.29211E+05-7.44330E-09 9.49647E-09
 -1       630 2.55285E+05 5.82344E+04 2.34168E+02 1.25599E+05-5.40376E-09-7.61781E-09
 -1       631 2.52116E+05 6.13886E+04 1.26027E+02 1.29213E+05 2.18097E-09 6.91807E-09
 -1       632 2.55281E+05 5.82386E+04 8.29585E+01 1.25594E+05-6.33463E-10-1.97424E-08
 -1       633 2.52107E+05 6.13908E+04 9.24492E+01 1.29209E+05 2.01385E-09-1.45365E-08
 -1       634 2.55276E+05 5.82362E+04 1.49433E+02 1.25593E+05-3.13253E-09-5.27598E-09
 -1       635 2.52121E+05 6.13893E+04 3.02397E+02 1.29214E+05-3.26807E-09-7.28960E-10
 -1       636 2.55267E+05 5.82307E+04 6.10702E+02 1.25593E+05 6.06906E-09 9.13178E-09
 -1       637 2.52253E+05 6.14844E+04 1.34274E+03 1.29213E+05 4.46789E-11-7.82074E-09
 -1       638 2.55219E+05 5.85275E+04 2.75886E+03 1.25459E+05 2.91084E-09 5.97720E-09
 -1       639 2.53702E+05 6.34999E+04 6.52753E+03 1.28786E+05 1.32059E-09 1.28402E-08
 -1       640 2.55019E+05 6.45454E+04 1.35458E+04 1.22922E+05 5.01950E-09 1.47602E-08
 -1       656 6.52967E+04-1.67009E+06-1.57622E+05-2.31168E+03 9.45874E-11-8.68721E-09
 -1       657-8.63768E+04-1.74131E+06-1.30570E+05 5.45704E+03 1.38243E-10-1.88278E-08
 -1       658 2.08097E+04-1.69032E+06-8.04012E+04-4.33381E+03 4.17458E-10-5.97402E-09
 -1       659-9.33663E+04-1.74463E+06-1.39755E+05 7.11573E+03-1.53159E-09-1.09286E-08
 -1       660 7.22707E+04-1.66678E+06-1.73414E+05-3.97035E+03-1.44792E-09-1.68266E-08
 -1       661 1.59748E+05 1.67722E+04 1.67212E+04 6.24509E+04 5.04770E-10 6.11271E-09
 -1       662 1.69153E+05 2.92031E+04 1.12688E+04 5.87551E+04 9.67816E-10 7.04290E-09
 -1       663 1.63033E+05 2.21368E+04 3.94117E+03 6.14980E+04-4.86580E-10-1.03337E-08
 -1       664 1.65346E+05 2.29293E+04 2.35755E+03 5.99189E+04-3.71102E-10-8.11769E-09
 -1       665 1.63531E+05 2.28698E+04 9.30036E+02 6.13529E+04 5.06191E-10 2.12876E-09
 -1       666 1.64757E+05 2.20909E+04 5.44257E+02 6.01080E+04 8.42061E-09-5.91116E-09
 -1       667 1.63618E+05 2.29533E+04 2.89116E+02 6.13168E+04-1.43598E-09-3.07961E-09
 -1       668 1.64661E+05 2.20306E+04 2.94663E+02 6.01606E+04-1.22098E-09-1.44850E-08
 -1       669 1.63626E+05 2.29284E+04 3.98991E+02 6.13007E+04-1.76587E-09 4.15949E-09
 -1       670 1.64758E+05 2.22471E+04 8.68865E+02 6.01634E+04-6.57485E-09-3.41728E-10
 -1       671 1.63521E+05 2.27413E+04 1.54275E+03 6.13119E+04-4.96385E-11-1.64557E-08
 -1       672 1.65657E+05 2.37480E+04 3.94711E+03 5.99457E+04 4.97823E-09-2.56443E-08
 -1       673 1.62731E+05 2.14654E+04 6.61474E+03 6.15039E+04 4.74870E-09-1.00717E-08
 -1       674 1.71953E+05 3.43751E+04 1.89167E+04 5.80959E+04-3.01475E-09-2.04363E-09
 -1       675 1.57265E+05 1.24118E+04 2.80791E+04 6.30500E+04-7.51243E-10 5.12409E-09
 -1       676 2.37921E+01-2.91746E+05-1.10014E+03-1.19778E+02 1.74742E-09-2.76986E-08
 -1       677-2.91273E+02-2.92012E+05-2.01344E+03 2.39366E+02 8.93516E-09-1.51409E-08
 -1       678 1.95155E+02-2.91557E+05-3.55927E+03-1.19510E+02 2.52066E-09 1.00083E-09
 -1       679-3.55957E+03-2.94161E+05-8.45533E+03 2.38347E+02 6.70889E-09-1.11278E-08
 -1       680 2.12508E+03-2.89599E+05-1.36271E+04-1.17435E+02-7.36691E-10-2.17857E-09
 -1       771-3.02740E+06-7.25852E+05-1.54222E+05-1.43964E+06-3.21597E-08-2.84635E-08
 -1       772-2.95387E+06-8.11124E+05-7.95872E+04-1.53812E+06-2.28320E-08 1.19762E-08
 -1       773-3.05674E+06-7.02927E+05-4.04029E+04-1.45281E+06-1.57161E-08 1.21508E-08
 -1       774-2.94453E+06-7.94067E+05-1.80605E+04-1.56198E+06 1.93249E-08 9.60426E-10
 -1       775-3.07187E+06-6.92285E+05-1.33961E+04-1.45912E+06-1.16415E-09 2.16824E-09
 -1       776-2.95561E+06-7.91416E+05-5.02769E+03-1.57990E+06-1.39844E-08 4.70027E-09
 -1       777-3.08496E+06-6.82825E+05-5.87763E+03-1.46468E+06-1.57161E-09 2.79397E-09
 -1       778-2.96722E+06-7.88967E+05-1.66767E+03-1.59528E+06 8.90577E-09 1.30567E-08
 -1       779-3.09618E+06-6.74578E+05-2.92418E+03-1.46944E+06-8.49832E-09-6.01722E-09
 -1       780-2.97743E+06-7.86629E+05-4.85790E+02-1.60780E+06-6.67933E-09-2.12458E-09
 -1       781-3.10509E+06-6.67940E+05-1.13170E+03-1.47316E+06-1.52941E-08 1.14742E-08
 -1       782-2.98529E+06-7.84639E+05 4.11686E+02-1.61704E+06-2.83108E-08 1.27511E-09
 -1       783-3.11135E+06-6.63336E+05 6.43342E+02-1.47577E+06-4.01633E-09-9.50013E-09
 -1       784-2.98962E+06-7.82614E+05 2.65266E+03-1.62274E+06-1.91831E-08-3.77440E-10
 -1       785-3.11505E+06-6.60592E+05 4.68376E+03-1.47744E+06-3.71219E-08 7.03585E-09
 -1       786 1.24300E+05-9.70693E+03 2.24577E+04-3.01266E+02 4.11708E-09 7.70888E-09
 -1       787 1.34040E+05 1.12383E+04 1.58879E+04-1.17939E+02 5.77342E-09 7.16432E-09
 -1       788 1.28055E+05-1.52117E+03 5.81038E+03-2.67107E+02 3.36258E-09 1.62843E-08
 -1       789 1.29665E+05 1.76058E+03 3.64767E+03-1.70539E+02-2.91814E-09 8.30391E-09
 -1       790 1.28675E+05-2.36919E+02 1.47717E+03-2.48683E+02-3.62704E-09 2.83293E-08
 -1       791 1.28940E+05 2.74050E+02 8.53730E+02-2.02115E+02-5.85663E-09-5.47715E-09
 -1       792 1.28780E+05-3.57512E+01 3.62883E+02-2.35532E+02-3.59673E-09-5.31737E-09
 -1       793 1.28815E+05 3.81833E+01 1.83334E+02-2.26861E+02-4.91340E-10-1.96923E-08
 -1       794 1.28801E+05-1.20132E+00 5.25244E+01-2.23936E+02 3.95544E-09-2.59947E-09
 -1       795 1.28780E+05-2.31976E+01-4.43755E+01-2.51063E+02-2.89535E-09 1.43343E-08
 -1       796 1.28815E+05 2.55956E+01-1.39264E+02-2.11330E+02 3.44937E-09 1.67182E-09
 -1       797 1.28696E+05-1.91868E+02-3.88553E+02-2.80009E+02 3.72169E-09 8.17641E-09
 -1       798 1.28884E+05 1.67342E+02-6.32739E+02-1.94991E+02 1.65909E-09 1.45605E-08
 -1       799 1.28216E+05-1.23369E+03-1.74225E+03-3.20353E+02 6.81748E-09 3.56275E-09
 -1       800 1.29296E+05 1.06656E+03-2.46607E+03-1.70987E+02 4.33253E-10 8.65214E-09
 -1       801-1.35996E+05-9.35858E+06-1.28579E+06 1.26142E+06 8.64966E-08-5.80367E-08
 -1       802 6.38919E+05 4.95114E+06 1.93044E+06-1.54014E+06 2.45527E-07-3.22789E-08
 -1       803-4.78783E+05-1.31297E+07-1.69626E+06 8.01105E+05 7.42584E-08 1.89320E-08
 -1       804 2.48917E+05 1.72593E+06 1.36078E+06 6.27550E+05-1.12253E-07-9.36072E-08
 -1       805 1.76504E+05-6.14822E+06-2.57834E+05-9.01127E+05-4.63333E-08-5.96510E-08
 -1       806-3.02852E+05-5.84616E+04-2.23665E+04-1.19862E+05-7.37600E-09 1.73350E-09
 -1       807-3.04633E+05-5.47893E+04-1.09884E+04-1.25264E+05 1.57722E-08 1.10393E-08
 -1       808-3.03464E+05-5.04029E+04-4.66165E+03-1.23675E+05-3.38650E-09 2.54181E-09
 -1       809-3.02324E+05-5.17009E+04-2.27944E+03-1.25533E+05-1.23700E-08-1.64962E-08
 -1       810-3.03557E+05-5.01223E+04-1.04478E+03-1.23844E+05 7.60383E-09 3.28146E-08
 -1       811-3.02145E+05-5.15767E+04-5.19579E+02-1.25498E+05 1.24764E-08-7.07041E-09
 -1       812-3.03571E+05-5.01464E+04-2.62813E+02-1.23843E+05 7.48514E-10-2.16733E-08
 -1       813-3.02121E+05-5.15787E+04-1.70881E+02-1.25480E+05-1.08275E-08-9.37007E-09
 -1       814-3.03564E+05-5.01557E+04-1.69444E+02-1.23839E+05-8.07995E-09-2.20425E-08
 -1       815-3.02125E+05-5.15809E+04-2.73144E+02-1.25473E+05-1.89402E-09-1.42752E-08
 -1       816-3.03544E+05-5.01547E+04-5.17738E+02-1.23836E+05 3.22234E-09-1.24637E-08
 -1       817-3.02213E+05-5.16302E+04-1.11124E+03-1.25462E+05-1.10222E-08 1.30169E-08
 -1       818-3.03477E+05-5.03113E+04-2.26650E+03-1.23762E+05-3.34148E-09 6.33372E-09
 -1       819-3.03454E+05-5.29996E+04-5.33304E+03-1.25169E+05 4.36921E-09-9.51786E-10
 -1       820-3.03051E+05-5.43391E+04-1.08546E+04-1.22041E+05 7.01311E-09 9.09426E-09
 -1       821-3.73295E+05 2.05623E+04-4.77405E+04 1.78548E+03 1.21297E-08 4.92219E-09
 -1       822-3.93205E+05-2.38135E+04-3.36470E+04-3.59277E+03 3.27412E-09 8.58790E-09
 -1       823-3.80882E+05 3.23470E+03-1.23426E+04 2.74268E+03-9.91948E-09 3.57477E-09
 -1       824-3.84142E+05-3.73389E+03-7.74055E+03-4.17322E+03 4.04619E-11 1.90195E-08
 -1       825-3.82360E+05 5.02471E+02-3.22327E+03 2.36600E+03 1.70183E-08-1.35202E-08
 -1       826-3.82046E+05-5.70875E+02-1.78903E+03-2.29843E+03 2.03819E-08-1.55086E-08
 -1       827-3.82962E+05 6.18110E+01-1.10947E+03 8.67797E+02 8.85990E-09-1.51883E-09
 -1       828-3.81557E+05-1.50189E+02-6.91469E+02 1.00283E+03-2.63951E-09 8.64224E-09
 -1       829-3.82841E+05 7.62778E+01-1.10672E+03-9.35291E+02 1.46021E-09 5.86564E-09
 -1       830-3.82314E+05-6.15961E+02-1.90905E+03 3.92494E+03 8.46171E-10 1.47757E-08
 -1       831-3.82220E+05 5.38791E+02-3.31290E+03-2.05434E+03-4.32310E-09 5.79769E-09
 -1       832-3.84227E+05-3.89221E+03-8.04055E+03 4.86705E+03-3.96284E-09 1.52073E-08
 -1       833-3.80938E+05 3.35723E+03-1.28345E+04-1.87743E+03-4.84334E-10 1.36924E-08
 -1       834-3.93354E+05-2.47193E+04-3.48776E+04 3.28510E+03-2.73265E-09 1.62677E-08
 -1       835-3.73084E+05 2.13393E+04-4.95874E+04-4.72337E+02 6.17655E-09 1.97906E-09
 -1       836-1.37510E+03 3.61694E+05 2.23495E+04-1.61901E+04-6.29734E-09 4.47108E-09
 -1       837 4.77301E+03 3.68690E+05 1.89269E+04-3.30173E+04-6.71207E-09-5.14228E-09
 -1       838-5.41547E+02 3.63654E+05 1.93053E+04-1.61192E+04-5.57429E-09 2.02456E-08
 -1       839 1.21664E+04 3.74197E+05 3.65405E+04-3.30684E+04-6.40466E-09-6.18076E-09
 -1       840-3.75548E+03 3.56129E+05 5.82777E+04-1.61439E+04-5.68980E-09-2.85553E-08
 -1       856-5.47020E+04 7.99211E+03-2.10610E+04-3.98305E+02 3.74132E-09-1.03864E-09
 -1       857-6.33807E+04-9.38885E+03-1.44983E+04 5.55499E+03 2.91212E-09-1.54687E-08
 -1       858-5.81382E+04 1.12072E+03-5.46490E+03-4.22298E+02 1.94910E-09 2.27283E-09
 -1       859-5.94371E+04-1.31696E+03-3.29800E+03 5.59091E+03-7.13101E-10 1.71876E-08
 -1       860-5.86516E+04 1.56855E+02-1.38249E+03-4.33992E+02 8.48360E-10-3.49183E-09
 -1       861-5.88465E+04-1.85822E+02-7.61158E+02 5.60685E+03 6.62396E-10-5.20959E-09
 -1       862-5.87319E+04 2.11922E+01-3.17652E+02-4.38226E+02-3.16392E-09 4.56600E-09
 -1       863-5.87483E+04-2.06109E+01-1.18547E+02 5.60927E+03-6.76414E-09 2.84098E-09
 -1       864-5.87503E+04-4.60675E+00 4.06271E+01-4.36411E+02-3.58793E-09-3.97067E-09
 -1       865-5.86945E+04 5.76802E+01 2.40003E+02 5.59902E+03-2.60611E-09 3.02187E-10
 -1       866-5.87835E+04-5.71523E+01 4.86950E+02-4.27979E+02-7.26288E-10-1.00535E-08
 -1       867-5.84646E+04 4.72347E+02 1.20070E+03 5.57611E+03 2.52228E-09 1.48120E-09
 -1       868-5.89754E+04-4.11890E+02 1.99570E+03-4.13497E+02-1.84201E-09-2.57535E-09
 -1       869-5.70009E+04 3.42797E+03 5.31468E+03 5.53828E+03 8.03448E-09-2.67016E-08
 -1       870-6.02397E+04-2.93265E+03 7.71265E+03-3.90064E+02-1.83843E-09-9.77252E-09
 -1       871-5.43502E+03-2.02726E+04-1.90521E+04 1.27407E+05-4.04543E-09-3.57431E-10
 -1       872-1.99006E+03-2.46894E+04-7.96482E+03 1.65201E+05-9.45693E-09 1.82567E-08
 -1       873 3.56790E+02-2.25595E+04 6.08634E+02 1.27128E+05-5.64751E-09 7.27573E-09
 -1       874 3.19796E+03-2.01748E+04 9.63448E+03 1.65232E+05-1.00772E-08 5.28416E-09
 -1       875 6.69535E+03-2.48545E+04 2.17097E+04 1.27361E+05-4.55293E-09-2.77123E-09
 -1       876 2.88532E+05 4.86971E+04 1.48594E+04 1.15869E+05 8.35701E-09 1.08294E-08
 -1       877 2.89508E+05 5.18337E+04 7.93547E+03 1.20138E+05 5.51245E-09 1.16241E-08
 -1       878 2.89922E+05 4.70513E+04 3.32457E+03 1.17087E+05-3.97222E-09-2.30418E-08
 -1       879 2.87488E+05 4.98180E+04 1.65649E+03 1.20239E+05 1.26536E-08 4.78508E-09
 -1       880 2.90021E+05 4.70343E+04 7.71559E+02 1.17136E+05 3.09478E-09 1.07355E-08
 -1       881 2.87354E+05 4.97319E+04 4.11996E+02 1.20216E+05-5.54928E-09 9.04598E-09
 -1       882 2.90030E+05 4.70473E+04 2.63523E+02 1.17138E+05 2.71530E-09 5.15874E-09
 -1       883 2.87344E+05 4.97274E+04 2.83221E+02 1.20208E+05 2.70256E-09 5.12242E-09
 -1       884 2.90024E+05 4.70445E+04 4.50467E+02 1.17138E+05 4.17401E-09-7.78846E-09
 -1       885 2.87380E+05 4.97337E+04 9.05645E+02 1.20219E+05 1.93268E-11-7.15886E-10
 -1       886 2.89989E+05 4.70181E+04 1.82527E+03 1.17135E+05-1.25937E-09 1.04137E-10
 -1       887 2.87701E+05 4.99440E+04 3.98704E+03 1.20266E+05 1.10093E-08-8.54629E-09
 -1       888 2.89737E+05 4.70624E+04 8.03399E+03 1.17007E+05-1.47728E-09-2.38679E-08
 -1       889 2.92484E+05 5.49178E+04 1.91918E+04 1.20119E+05-5.20758E-09-7.95444E-09
 -1       890 2.86458E+05 5.09569E+04 3.59457E+04 1.13949E+05-4.43515E-09-6.67933E-09
 -1       891-9.49798E+01-1.60103E+05-1.96024E+03 2.69294E+04-5.86624E-10 1.12370E-08
 -1       892-1.83270E+02-1.60617E+05-2.10642E+03 4.08804E+04 2.80352E-09 1.74987E-08
 -1       893 3.56193E+01-1.60166E+05-2.98358E+03 2.69365E+04-2.36037E-09 2.26846E-08
 -1       894-1.49538E+03-1.61744E+05-6.17570E+03 4.07296E+04 2.08433E-09 3.91447E-09
 -1       895-1.18612E+03-1.58879E+05-1.08757E+04 2.70816E+04 2.24532E-10-1.06156E-08
 -1       956-3.70077E+05-5.33057E+03-1.31848E+04 2.98327E+04 7.24140E-09-4.78576E-09
 -1       957-3.72666E+05-1.87208E+03-6.76766E+03 3.58584E+04-1.56342E-09-1.00845E-08
 -1       958-3.71260E+05-2.26223E+02-3.04966E+03 2.96690E+04-5.70799E-09-1.68704E-08
 -1       959-3.71455E+05-1.22078E+02-1.55725E+03 3.60482E+04 1.92995E-09 1.78143E-08
 -1       960-3.71375E+05-3.46390E+01-7.59382E+02 2.96522E+04 8.58108E-09-6.09134E-10
 -1       961-3.71375E+05-5.09972E+01-4.02664E+02 3.60679E+04 1.35569E-08 2.09366E-09
 -1       962-3.71402E+05-3.61888E+01-2.30572E+02 2.96495E+04 3.05181E-09-6.85213E-09
 -1       963-3.71375E+05-4.71023E+01-1.85171E+02 3.60715E+04 5.47868E-09-1.33302E-08
 -1       964-3.71407E+05-3.29628E+01-2.25244E+02 2.96487E+04 6.17746E-11 8.83119E-10
 -1       965-3.71387E+05-4.41200E+01-3.89631E+02 3.60708E+04-4.86187E-09 1.12530E-08
 -1       966-3.71391E+05-2.50508E+01-7.32094E+02 2.96501E+04 4.80645E-09-4.61546E-09
 -1       967-3.71476E+05-1.06097E+02-1.50154E+03 3.60570E+04 5.61431E-09-5.53177E-09
 -1       968-3.71290E+05-2.03601E+02-2.93941E+03 2.96624E+04 5.61613E-09-3.63565E-09
 -1       969-3.72655E+05-1.78805E+03-6.52549E+03 3.59140E+04 1.97133E-09-6.07079E-09
 -1       970-3.70157E+05-5.12146E+03-1.27119E+04 2.97858E+04-1.58980E-09 7.04040E-09
 -1       971-3.39535E+05-1.70331E+03-9.20392E+03 1.51911E+04 1.04064E-08 1.37804E-08
 -1       972-3.41752E+05-1.25115E+03-5.01236E+03 2.10288E+04 1.18143E-08-1.10276E-09
 -1       973-3.40560E+05-5.69192E+01-2.24504E+03 1.50707E+04 9.21864E-09 2.10139E-09
 -1       974-3.40696E+05-7.40424E+01-1.16370E+03 2.11645E+04 2.05546E-10-4.52428E-09
 -1       975-3.40641E+05-1.26198E+01-5.82030E+02 1.50585E+04-9.41600E-09 4.17367E-09
 -1       976-3.40635E+05-2.48171E+01-3.36395E+02 2.11800E+04-1.25856E-08-2.12754E-09
 -1       977-3.40658E+05-1.19343E+01-2.45237E+02 1.50552E+04-5.46856E-09-1.54683E-08
 -1       978-3.40640E+05-1.87039E+01-2.88459E+02 2.11847E+04-5.45890E-09-5.10852E-09
 -1       979-3.40657E+05-3.61879E+00-4.64737E+02 1.50538E+04-7.14016E-09-2.73030E-09
 -1       980-3.40675E+05-1.56985E+01-8.98147E+02 2.11857E+04 2.83154E-09-1.00870E-08
 -1       981-3.40629E+05 1.88254E+01-1.73992E+03 1.50543E+04 1.91528E-09-2.24532E-10
 -1       982-3.40914E+05-1.44255E+02-3.59661E+03 2.11791E+04-2.02624E-09-8.49878E-09
 -1       983-3.40410E+05-9.25805E+01-6.98836E+03 1.50603E+04-4.64024E-09-2.12958E-09
 -1       984-3.44275E+05-3.79406E+03-1.56502E+04 2.10944E+04-1.23700E-08 2.76448E-08
 -1       985-3.37246E+05-5.20624E+03-2.87386E+04 1.51323E+04-1.10563E-08 1.49266E-08
 -3
    1PSTEP                        43          22           1          
  100CL  122 6.53605E-01         409                     0   22           1
 -4  DISP        4    1
 -5  D1          1    2    1    0
 -5  D2          1    2    2    0
 -5  D3          1    2    3    0
 -5  ALL         1    2    0    0    1ALL
 -1         1 2.39621E-03 0.00000E+00 0.00000E+00
 -1         2 1.38951E-03 4.62327E-28 0.00000E+00
 -1         3 3.28874E-04-5.50919E-28 1.32349E-23
 -1         5 1.71975E-04-1.50625E-27 1.03398E-24
 -1         8 2.38089E-03-4.80985E-07 0.00000E+00
 -1         9 2.36725E-03-1.02772E-04 0.00000E+00
 -1        10 2.98311E-04-3.46524E-06 6.61744E-24
 -1        12 1.73625E-04 7.90587E-07-3.10193E-25
 -1        15 2.36275E-03-5.21496E-07 0.00000E+00
 -1        16 2.40592E-03-1.04155E-04 0.00000E+00
 -1        17 2.03482E-04-7.82935E-06 0.00000E+00
 -1        18 1.77014E-04 3.16858E-05 0.00000E+00
 -1        19 1.78575E-04 1.57531E-06 0.00000E+00
 -1        20 1.78717E-04-7.70586E-06 0.00000E+00
 -1        21 1.77852E-04-2.07926E-05 3.30872E-24
 -1        24 3.00463E-05-1.18682E-05 0.00000E+00
 -1        25 1.86812E-04 3.19042E-05 0.00000E+00
 -1        26 1.87500E-04 2.18191E-06 0.00000E+00
 -1        27 1.85350E-04-1.11927E-05 0.00000E+00
 -1        28 1.85022E-04-2.14048E-05 0.00000E+00
 -1        32 0.00000E+00 0.00000E+00 0.00000E+00
 -1        33 1.95408E-04 2.91953E-06 0.00000E+00
 -1        34 1.93332E-04-1.12454E-05 0.00000E+00
 -1        35 1.91434E-04-2.17408E-05 0.00000E+00
 -1        51 2.39521E-03-9.43684E-08 6.61744E-24
 -1        52 2.39336E-03-1.72298E-07 0.00000E+00
 -1        53 2.39082E-03-2.47704E-07 0.00000E+00
 -1        54 2.38778E-03-3.22752E-07 1.65436E-24
 -1        55 2.38441E-03-3.99073E-07-1.44757E-24
 -1        56 2.39177E-03 1.18574E-06-5.29396E-23
 -1        57 2.38550E-03 6.80706E-06-5.29396E-23
 -1        58 2.37813E-03 1.53185E-05 1.05879E-22
 -1        59 2.37034E-03 2.48664E-05 0.00000E+00
 -1        60 2.36292E-03 3.34461E-05-1.05879E-22
 -1        61 2.35660E-03 3.91232E-05-5.29396E-23
 -1        62 2.35195E-03 4.04488E-05 0.00000E+00
 -1        63 2.34933E-03 3.63342E-05 0.00000E+00
 -1        64 2.34878E-03 2.66056E-05 1.05879E-22
 -1        65 2.35016E-03 1.15618E-05 0.00000E+00
 -1        66 2.35301E-03-7.59664E-06 1.05879E-22
 -1        67 2.35678E-03-2.93174E-05 0.00000E+00
 -1        68 2.36075E-03-5.16121E-05 0.00000E+00
 -1        69 2.36423E-03-7.24354E-05 0.00000E+00
 -1        70 2.36654E-03-9.00062E-05 0.00000E+00
 -1        86 1.45069E-03-3.65266E-06 0.00000E+00
 -1        87 1.62955E-03-2.09961E-05 0.00000E+00
 -1        88 1.86994E-03-5.02788E-05 0.00000E+00
 -1        89 2.11287E-03-8.01779E-05 0.00000E+00
 -1        90 2.29797E-03-9.85810E-05 0.00000E+00
 -1       121 3.28015E-04-5.61293E-07-1.32349E-23
 -1       122 3.25443E-04-1.12541E-06 6.61744E-24
 -1       123 3.21168E-04-1.69514E-06-1.32349E-23
 -1       124 3.15204E-04-2.27327E-06-6.61744E-24
 -1       125 3.07575E-04-2.86221E-06 0.00000E+00
 -1       191 1.72021E-04 1.31816E-07-1.24077E-24
 -1       192 1.72158E-04 2.63623E-07 1.44757E-24
 -1       193 1.72387E-04 3.95414E-07-2.48154E-24
 -1       194 1.72708E-04 5.27179E-07 9.30578E-25
 -1       195 1.73121E-04 6.58907E-07-4.13590E-25
 -1       251 2.38025E-03-3.76083E-06-1.32349E-23
 -1       252 2.37949E-03-1.96312E-05 6.61744E-24
 -1       253 2.37853E-03-4.56743E-05 0.00000E+00
 -1       254 2.37737E-03-7.91982E-05-6.61744E-24
 -1       255 2.37612E-03-1.15228E-04 2.64698E-23
 -1       256 2.37495E-03-1.48725E-04 0.00000E+00
 -1       257 2.37396E-03-1.75433E-04 2.64698E-23
 -1       258 2.37319E-03-1.91275E-04 0.00000E+00
 -1       259 2.37253E-03-1.95492E-04 0.00000E+00
 -1       260 2.37186E-03-1.87631E-04-1.32349E-23
 -1       261 2.37110E-03-1.70921E-04 0.00000E+00
 -1       262 2.37024E-03-1.48825E-04 1.32349E-23
 -1       263 2.36937E-03-1.26460E-04 2.64698E-23
 -1       264 2.36860E-03-1.08947E-04 0.00000E+00
 -1       265 2.36791E-03-9.99166E-05 0.00000E+00
 -1       266 2.37787E-03-4.94826E-07-3.30872E-24
 -1       267 2.37484E-03-5.00714E-07 0.00000E+00
 -1       268 2.37182E-03-5.07105E-07 0.00000E+00
 -1       269 2.36880E-03-5.12005E-07-2.06795E-25
 -1       270 2.36577E-03-5.16869E-07 2.06795E-25
 -1       271 2.37933E-03 1.51744E-06 0.00000E+00
 -1       272 2.37831E-03 2.01745E-06 0.00000E+00
 -1       273 2.37783E-03 1.06521E-06 0.00000E+00
 -1       274 2.37787E-03-1.28918E-06 0.00000E+00
 -1       275 2.37841E-03-4.97931E-06 0.00000E+00
 -1       276 2.37942E-03-9.92775E-06 1.32349E-23
 -1       277 2.38086E-03-1.60443E-05 0.00000E+00
 -1       278 2.38269E-03-2.32282E-05 0.00000E+00
 -1       279 2.38487E-03-3.13681E-05-2.64698E-23
 -1       280 2.38735E-03-4.03438E-05 0.00000E+00
 -1       281 2.39010E-03-5.00267E-05 0.00000E+00
 -1       282 2.39305E-03-6.02819E-05-1.32349E-23
 -1       283 2.39616E-03-7.09688E-05 0.00000E+00
 -1       284 2.39938E-03-8.19420E-05 1.32349E-23
 -1       285 2.40265E-03-9.30549E-05-1.32349E-23
 -1       301 2.37426E-03-1.03028E-04 0.00000E+00
 -1       302 2.37996E-03-1.03248E-04 3.30872E-24
 -1       303 2.38517E-03-1.03463E-04 0.00000E+00
 -1       304 2.39069E-03-1.03678E-04-1.32349E-23
 -1       305 2.39734E-03-1.03902E-04 0.00000E+00
 -1       306 2.40262E-03-2.43853E-04 0.00000E+00
 -1       307 2.46713E-03-6.31001E-04 0.00000E+00
 -1       308 2.52009E-03-1.20156E-03-1.05879E-22
 -1       309 2.55355E-03-1.86669E-03-5.29396E-23
 -1       310 2.59206E-03-2.50837E-03 0.00000E+00
 -1       311 2.65334E-03-3.01064E-03 0.00000E+00
 -1       312 2.71220E-03-3.29674E-03 0.00000E+00
 -1       313 2.71528E-03-3.32670E-03-5.29396E-23
 -1       314 2.59690E-03-3.10904E-03 0.00000E+00
 -1       315 2.31828E-03-2.69910E-03 5.29396E-23
 -1       316 1.89437E-03-2.16842E-03 0.00000E+00
 -1       317 1.38289E-03-1.58437E-03 0.00000E+00
 -1       318 8.86889E-04-1.00945E-03 1.05879E-22
 -1       319 5.04848E-04-5.08965E-04 0.00000E+00
 -1       320 2.78287E-04-1.52512E-04 0.00000E+00
 -1       336 2.87232E-04-4.13038E-06-1.32349E-23
 -1       337 2.74172E-04-4.81905E-06 0.00000E+00
 -1       338 2.59191E-04-5.53313E-06 0.00000E+00
 -1       339 2.42361E-04-6.27322E-06-6.61744E-24
 -1       340 2.23761E-04-7.04350E-06 0.00000E+00
 -1       406 1.74221E-04 9.22203E-07 1.86116E-24
 -1       407 1.74908E-04 1.05372E-06 1.03398E-24
 -1       408 1.75688E-04 1.18509E-06 2.68834E-24
 -1       409 1.76559E-04 1.31615E-06-1.51219E-24
 -1       410 1.77522E-04 1.44663E-06 8.27181E-25
 -1       521 2.44205E-03-2.54289E-04 1.05879E-22
 -1       522 2.50536E-03-6.60601E-04-5.29396E-23
 -1       523 2.55309E-03-1.25737E-03-1.05879E-22
 -1       524 2.57877E-03-1.94958E-03-5.29396E-23
 -1       525 2.61048E-03-2.61651E-03 0.00000E+00
 -1       526 2.66867E-03-3.13982E-03-5.29396E-23
 -1       527 2.72720E-03-3.43665E-03 0.00000E+00
 -1       528 2.72859E-03-3.46601E-03-5.29396E-23
 -1       529 2.60040E-03-3.23607E-03 0.00000E+00
 -1       530 2.30156E-03-2.80891E-03-5.29396E-23
 -1       531 1.84742E-03-2.25942E-03 1.05879E-22
 -1       532 1.30119E-03-1.65783E-03 5.29396E-23
 -1       533 7.70712E-04-1.06484E-03 0.00000E+00
 -1       534 3.59155E-04-5.44113E-04 0.00000E+00
 -1       535 1.13555E-04-1.69178E-04-1.05879E-22
 -1       536 2.02778E-04 2.55836E-05-6.61744E-24
 -1       537 2.01006E-04 8.35117E-05-3.30872E-24
 -1       538 1.98270E-04 1.57049E-04-3.30872E-24
 -1       539 1.95044E-04 2.37207E-04 1.65436E-24
 -1       540 1.92141E-04 3.12955E-04-3.30872E-24
 -1       541 1.90249E-04 3.73284E-04 0.00000E+00
 -1       542 1.89371E-04 4.11683E-04 0.00000E+00
 -1       543 1.89155E-04 4.21788E-04 1.65436E-24
 -1       544 1.88845E-04 4.04352E-04 0.00000E+00
 -1       545 1.87749E-04 3.60341E-04 0.00000E+00
 -1       546 1.85719E-04 2.97584E-04 3.30872E-24
 -1       547 1.82979E-04 2.24029E-04 0.00000E+00
 -1       548 1.80267E-04 1.50869E-04-3.30872E-24
 -1       549 1.78308E-04 8.92979E-05 1.65436E-24
 -1       550 1.77287E-04 4.70369E-05 0.00000E+00
 -1       551 1.79352E-04-8.37773E-06 0.00000E+00
 -1       552 1.52062E-04-9.00055E-06 0.00000E+00
 -1       553 1.22542E-04-9.68116E-06 9.92617E-24
 -1       554 9.17365E-05-1.03998E-05-3.30872E-24
 -1       555 6.05911E-05-1.11304E-05 0.00000E+00
 -1       556 1.96195E-04 1.08214E-05 0.00000E+00
 -1       557 1.90317E-04 2.59239E-05 0.00000E+00
 -1       558 1.85717E-04 3.77562E-05 0.00000E+00
 -1       559 1.82267E-04 4.66184E-05 0.00000E+00
 -1       560 1.79844E-04 5.28109E-05 0.00000E+00
 -1       561 1.78323E-04 5.66364E-05 0.00000E+00
 -1       562 1.77583E-04 5.83988E-05 0.00000E+00
 -1       563 1.77506E-04 5.84030E-05 0.00000E+00
 -1       564 1.77974E-04 5.69546E-05 0.00000E+00
 -1       565 1.78870E-04 5.43598E-05-6.61744E-24
 -1       566 1.80079E-04 5.09253E-05 0.00000E+00
 -1       567 1.81486E-04 4.69582E-05 0.00000E+00
 -1       568 1.82976E-04 4.27658E-05-1.65436E-24
 -1       569 1.84437E-04 3.86552E-05 0.00000E+00
 -1       570 1.85753E-04 3.49338E-05 0.00000E+00
 -1       571 1.77109E-04 2.97331E-05-8.27181E-25
 -1       572 1.77205E-04 2.77168E-05 1.24077E-24
 -1       573 1.77302E-04 2.56518E-05-3.30872E-24
 -1       574 1.77400E-04 2.35540E-05-8.27181E-25
 -1       575 1.77497E-04 2.14390E-05-3.30872E-24
 -1       576 1.77595E-04 1.93228E-05 1.65436E-24
 -1       577 1.77692E-04 1.72211E-05-3.30872E-24
 -1       578 1.77790E-04 1.51499E-05 0.00000E+00
 -1       579 1.77888E-04 1.31249E-05 6.61744E-24
 -1       580 1.77986E-04 1.11621E-05 0.00000E+00
 -1       581 1.78084E-04 9.27741E-06 0.00000E+00
 -1       582 1.78182E-04 7.48657E-06 0.00000E+00
 -1       583 1.78280E-04 5.80546E-06-6.61744E-24
 -1       584 1.78379E-04 4.24975E-06 0.00000E+00
 -1       585 1.78477E-04 2.83497E-06-6.61744E-24
 -1       586 1.78604E-04 3.17243E-05 0.00000E+00
 -1       587 1.80155E-04 3.17622E-05 0.00000E+00
 -1       588 1.81709E-04 3.17997E-05 8.27181E-25
 -1       589 1.83308E-04 3.18366E-05 0.00000E+00
 -1       590 1.84996E-04 3.18723E-05 0.00000E+00
 -1       591 1.77681E-04 2.98223E-05 2.06795E-25
 -1       592 1.78351E-04 2.79383E-05 0.00000E+00
 -1       593 1.79027E-04 2.60395E-05-8.27181E-25
 -1       594 1.79705E-04 2.41307E-05-4.13590E-25
 -1       595 1.80386E-04 2.22168E-05 8.27181E-25
 -1       596 1.81067E-04 2.03024E-05 4.13590E-25
 -1       597 1.81746E-04 1.83923E-05-8.27181E-25
 -1       598 1.82422E-04 1.64914E-05 4.13590E-25
 -1       599 1.83092E-04 1.46043E-05 0.00000E+00
 -1       600 1.83756E-04 1.27357E-05-4.13590E-25
 -1       601 1.84411E-04 1.08905E-05 0.00000E+00
 -1       602 1.85055E-04 9.07333E-06-2.06795E-25
 -1       603 1.85688E-04 7.28899E-06 0.00000E+00
 -1       604 1.86306E-04 5.54234E-06-1.29247E-25
 -1       605 1.86910E-04 3.83802E-06 0.00000E+00
 -1       606 1.78589E-04 5.42889E-07 0.00000E+00
 -1       607 1.78598E-04-4.02607E-07-1.65436E-24
 -1       608 1.78607E-04-1.26628E-06 0.00000E+00
 -1       609 1.78616E-04-2.05389E-06 0.00000E+00
 -1       610 1.78625E-04-2.77123E-06 0.00000E+00
 -1       611 1.78633E-04-3.42419E-06 0.00000E+00
 -1       612 1.78642E-04-4.01862E-06 0.00000E+00
 -1       613 1.78650E-04-4.56041E-06 0.00000E+00
 -1       614 1.78658E-04-5.05546E-06 1.65436E-24
 -1       615 1.78667E-04-5.50962E-06 0.00000E+00
 -1       616 1.78676E-04-5.92881E-06-1.65436E-24
 -1       617 1.78684E-04-6.31890E-06 0.00000E+00
 -1       618 1.78693E-04-6.68576E-06 0.00000E+00
 -1       619 1.78701E-04-7.03529E-06 0.00000E+00
 -1       620 1.78709E-04-7.37336E-06-2.06795E-25
 -1       621 1.79795E-04 1.67692E-06 0.00000E+00
 -1       622 1.81163E-04 1.77878E-06 1.65436E-24
 -1       623 1.82649E-04 1.88046E-06 3.30872E-24
 -1       624 1.84221E-04 1.98184E-06-8.27181E-25
 -1       625 1.85848E-04 2.08294E-06 3.30872E-24
 -1       626 1.79072E-04 5.78214E-07-3.30872E-24
 -1       627 1.79546E-04-3.54320E-07 6.61744E-24
 -1       628 1.79999E-04-1.23015E-06 0.00000E+00
 -1       629 1.80434E-04-2.05744E-06-3.30872E-24
 -1       630 1.80853E-04-2.84442E-06 0.00000E+00
 -1       631 1.81261E-04-3.59930E-06 0.00000E+00
 -1       632 1.81660E-04-4.33030E-06-3.30872E-24
 -1       633 1.82053E-04-5.04566E-06-1.65436E-24
 -1       634 1.82443E-04-5.75360E-06 3.30872E-24
 -1       635 1.82833E-04-6.46233E-06 0.00000E+00
 -1       636 1.83227E-04-7.18011E-06 3.30872E-24
 -1       637 1.83628E-04-7.91514E-06 1.65436E-24
 -1       638 1.84037E-04-8.67566E-06 3.30872E-24
 -1       639 1.84459E-04-9.46992E-06 0.00000E+00
 -1       640 1.84896E-04-1.03062E-05 1.65436E-24
 -1       656 1.79281E-04-8.27264E-06 6.61744E-24
 -1       657 1.80262E-04-8.86243E-06 0.00000E+00
 -1       658 1.81520E-04-9.45082E-06 0.00000E+00
 -1       659 1.82909E-04-1.00389E-05 6.61744E-24
 -1       660 1.84247E-04-1.06287E-05 6.61744E-24
 -1       661 1.78929E-04-8.08215E-06-8.27181E-25
 -1       662 1.79177E-04-8.54774E-06-8.27181E-25
 -1       663 1.79457E-04-9.09765E-06 1.65436E-24
 -1       664 1.79766E-04-9.72563E-06-8.27181E-25
 -1       665 1.80103E-04-1.04261E-05 0.00000E+00
 -1       666 1.80464E-04-1.11934E-05 0.00000E+00
 -1       667 1.80849E-04-1.20221E-05 0.00000E+00
 -1       668 1.81255E-04-1.29068E-05 8.27181E-25
 -1       669 1.81679E-04-1.38424E-05 0.00000E+00
 -1       670 1.82121E-04-1.48238E-05 0.00000E+00
 -1       671 1.82578E-04-1.58461E-05 1.65436E-24
 -1       672 1.83049E-04-1.69044E-05 0.00000E+00
 -1       673 1.83531E-04-1.79938E-05 1.65436E-24
 -1       674 1.84022E-04-1.91101E-05 8.27181E-25
 -1       675 1.84521E-04-2.02480E-05 0.00000E+00
 -1       676 1.79051E-04-2.08952E-05 0.00000E+00
 -1       677 1.80250E-04-2.09978E-05 0.00000E+00
 -1       678 1.81447E-04-2.11004E-05-3.30872E-24
 -1       679 1.82641E-04-2.12026E-05 0.00000E+00
 -1       680 1.83834E-04-2.13048E-05 0.00000E+00
 -1       771 1.86035E-05 1.36588E-05 0.00000E+00
 -1       772 8.96703E-06 3.46246E-05-5.29396E-23
 -1       773 1.05041E-06 5.12505E-05 0.00000E+00
 -1       774-5.26436E-06 6.37840E-05-5.29396E-23
 -1       775-1.00929E-05 7.24824E-05-5.29396E-23
 -1       776-1.35554E-05 7.76188E-05-2.64698E-23
 -1       777-1.57720E-05 7.94754E-05 0.00000E+00
 -1       778-1.68654E-05 7.83479E-05 2.64698E-23
 -1       779-1.69577E-05 7.45394E-05 5.29396E-23
 -1       780-1.61730E-05 6.83641E-05 0.00000E+00
 -1       781-1.46346E-05 6.01424E-05-5.29396E-23
 -1       782-1.24673E-05 5.02030E-05-2.64698E-23
 -1       783-9.79510E-06 3.88789E-05-5.29396E-23
 -1       784-6.74332E-06 2.65088E-05 2.64698E-23
 -1       785-3.43628E-06 1.34346E-05 5.29396E-23
 -1       786 1.86851E-04 2.98213E-05 0.00000E+00
 -1       787 1.86893E-04 2.77880E-05 0.00000E+00
 -1       788 1.86935E-04 2.57959E-05 0.00000E+00
 -1       789 1.86978E-04 2.38371E-05 0.00000E+00
 -1       790 1.87021E-04 2.19069E-05 0.00000E+00
 -1       791 1.87064E-04 2.00004E-05 0.00000E+00
 -1       792 1.87108E-04 1.81156E-05 0.00000E+00
 -1       793 1.87151E-04 1.62503E-05 0.00000E+00
 -1       794 1.87194E-04 1.44042E-05 0.00000E+00
 -1       795 1.87238E-04 1.25773E-05-8.27181E-25
 -1       796 1.87281E-04 1.07714E-05 0.00000E+00
 -1       797 1.87324E-04 8.98829E-06-8.27181E-25
 -1       798 1.87368E-04 7.23222E-06 1.65436E-24
 -1       799 1.87412E-04 5.50748E-06 8.27181E-25
 -1       800 1.87455E-04 3.82152E-06 0.00000E+00
 -1       801 1.43345E-04 2.86346E-05 0.00000E+00
 -1       802 1.18137E-05 1.79474E-05 0.00000E+00
 -1       803-1.00922E-04 9.11874E-06-5.29396E-23
 -1       804-9.01286E-05 6.32485E-06-2.64698E-23
 -1       805-2.98500E-05 2.52744E-06-5.29396E-23
 -1       806 1.87480E-04 2.97542E-05-1.65436E-24
 -1       807 1.88135E-04 2.76305E-05 0.00000E+00
 -1       808 1.88777E-04 2.55380E-05 0.00000E+00
 -1       809 1.89405E-04 2.34807E-05 0.00000E+00
 -1       810 1.90019E-04 2.14625E-05 3.30872E-24
 -1       811 1.90616E-04 1.94871E-05 0.00000E+00
 -1       812 1.91197E-04 1.75584E-05-3.30872E-24
 -1       813 1.91758E-04 1.56802E-05-1.65436E-24
 -1       814 1.92299E-04 1.38561E-05-3.30872E-24
 -1       815 1.92819E-04 1.20900E-05 0.00000E+00
 -1       816 1.93316E-04 1.03856E-05 1.65436E-24
 -1       817 1.93788E-04 8.74662E-06 8.27181E-25
 -1       818 1.94234E-04 7.17681E-06 1.65436E-24
 -1       819 1.94654E-04 5.67992E-06 0.00000E+00
 -1       820 1.95045E-04 4.25961E-06 3.30872E-24
 -1       821 1.87373E-04 1.20978E-07 0.00000E+00
 -1       822 1.87236E-04-2.82439E-06 0.00000E+00
 -1       823 1.87099E-04-6.30846E-06 0.00000E+00
 -1       824 1.86959E-04-9.98213E-06 0.00000E+00
 -1       825 1.86820E-04-1.34459E-05 0.00000E+00
 -1       826 1.86682E-04-1.63013E-05 0.00000E+00
 -1       827 1.86547E-04-1.83135E-05 0.00000E+00
 -1       828 1.86413E-04-1.92527E-05 1.65436E-24
 -1       829 1.86279E-04-1.91775E-05 3.30872E-24
 -1       830 1.86145E-04-1.81524E-05-1.65436E-24
 -1       831 1.86010E-04-1.64972E-05 0.00000E+00
 -1       832 1.85875E-04-1.45355E-05 0.00000E+00
 -1       833 1.85740E-04-1.26734E-05-3.30872E-24
 -1       834 1.85607E-04-1.13163E-05-1.65436E-24
 -1       835 1.85475E-04-1.07343E-05 0.00000E+00
 -1       836 1.89025E-04 2.30427E-06 0.00000E+00
 -1       837 1.90426E-04 2.42968E-06 1.65436E-24
 -1       838 1.91733E-04 2.55502E-06 3.30872E-24
 -1       839 1.92978E-04 2.67966E-06 8.27181E-25
 -1       840 1.94192E-04 2.80413E-06 0.00000E+00
 -1       856 1.85333E-04-1.21014E-05 0.00000E+00
 -1       857 1.85313E-04-1.28762E-05 0.00000E+00
 -1       858 1.85293E-04-1.35380E-05 0.00000E+00
 -1       859 1.85273E-04-1.41076E-05 0.00000E+00
 -1       860 1.85252E-04-1.46061E-05-4.13590E-25
 -1       861 1.85232E-04-1.50544E-05 0.00000E+00
 -1       862 1.85211E-04-1.54735E-05-8.27181E-25
 -1       863 1.85190E-04-1.58845E-05 0.00000E+00
 -1       864 1.85170E-04-1.63086E-05 0.00000E+00
 -1       865 1.85149E-04-1.67667E-05-4.13590E-25
 -1       866 1.85129E-04-1.72799E-05 0.00000E+00
 -1       867 1.85108E-04-1.78692E-05 4.13590E-25
 -1       868 1.85087E-04-1.85555E-05-8.27181E-25
 -1       869 1.85066E-04-1.93598E-05 4.13590E-25
 -1       870 1.85045E-04-2.03026E-05 0.00000E+00
 -1       871 1.86541E-04-1.11972E-05 0.00000E+00
 -1       872 1.87876E-04-1.12049E-05 0.00000E+00
 -1       873 1.89289E-04-1.12134E-05 0.00000E+00
 -1       874 1.90714E-04-1.12225E-05-3.87741E-25
 -1       875 1.92084E-04-1.12322E-05-4.13590E-25
 -1       876 1.85816E-04-1.20871E-05 0.00000E+00
 -1       877 1.86260E-04-1.29157E-05 0.00000E+00
 -1       878 1.86682E-04-1.36864E-05 0.00000E+00
 -1       879 1.87086E-04-1.44064E-05-1.65436E-24
 -1       880 1.87474E-04-1.50830E-05 3.30872E-24
 -1       881 1.87848E-04-1.57236E-05 1.65436E-24
 -1       882 1.88212E-04-1.63353E-05 0.00000E+00
 -1       883 1.88567E-04-1.69254E-05-1.65436E-24
 -1       884 1.88917E-04-1.75012E-05 0.00000E+00
 -1       885 1.89265E-04-1.80698E-05-1.65436E-24
 -1       886 1.89612E-04-1.86386E-05-3.30872E-24
 -1       887 1.89962E-04-1.92147E-05 0.00000E+00
 -1       888 1.90317E-04-1.98055E-05 3.30872E-24
 -1       889 1.90680E-04-2.04183E-05 1.65436E-24
 -1       890 1.91053E-04-2.10604E-05-1.65436E-24
 -1       891 1.86231E-04-2.14613E-05 1.65436E-24
 -1       892 1.87418E-04-2.15178E-05 8.27181E-25
 -1       893 1.88556E-04-2.15743E-05 0.00000E+00
 -1       894 1.89621E-04-2.16305E-05 0.00000E+00
 -1       895 1.90588E-04-2.16865E-05-4.13590E-25
 -1       956 1.95280E-04 1.74939E-06 0.00000E+00
 -1       957 1.95150E-04 6.68210E-07 0.00000E+00
 -1       958 1.95020E-04-3.34418E-07 3.30872E-24
 -1       959 1.94890E-04-1.26947E-06-1.65436E-24
 -1       960 1.94760E-04-2.14798E-06-3.30872E-24
 -1       961 1.94630E-04-2.98099E-06 0.00000E+00
 -1       962 1.94500E-04-3.77957E-06 0.00000E+00
 -1       963 1.94370E-04-4.55482E-06 1.65436E-24
 -1       964 1.94239E-04-5.31780E-06 0.00000E+00
 -1       965 1.94109E-04-6.07961E-06 0.00000E+00
 -1       966 1.93979E-04-6.85133E-06 3.30872E-24
 -1       967 1.93849E-04-7.64404E-06 1.65436E-24
 -1       968 1.93719E-04-8.46880E-06 0.00000E+00
 -1       969 1.93589E-04-9.33668E-06 1.65436E-24
 -1       970 1.93459E-04-1.02587E-05-3.30872E-24
 -1       971 1.93214E-04-1.22300E-05-3.30872E-24
 -1       972 1.93095E-04-1.31210E-05 0.00000E+00
 -1       973 1.92976E-04-1.39285E-05 0.00000E+00
 -1       974 1.92856E-04-1.46634E-05 0.00000E+00
 -1       975 1.92737E-04-1.53364E-05-3.30872E-24
 -1       976 1.92618E-04-1.59583E-05-1.65436E-24
 -1       977 1.92499E-04-1.65398E-05 0.00000E+00
 -1       978 1.92379E-04-1.70918E-05-1.65436E-24
 -1       979 1.92260E-04-1.76251E-05 0.00000E+00
 -1       980 1.92141E-04-1.81504E-05 1.65436E-24
 -1       981 1.92022E-04-1.86786E-05-3.30872E-24
 -1       982 1.91903E-04-1.92205E-05 1.65436E-24
 -1       983 1.91784E-04-1.97869E-05 0.00000E+00
 -1       984 1.91665E-04-2.03886E-05-1.65436E-24
 -1       985 1.91547E-04-2.10364E-05 0.00000E+00
 -3
    1PSTEP                        44          22           1          
  100CL  122 6.53605E-01         409                     0   22           1
 -4  FORC        4    1
 -5  F1          1    2    1    0
 -5  F2          1    2    2    0
 -5  F3          1    2    3    0
 -5  ALL         1    2    0    0    1ALL
 -1         1-9.14505E-07 0.00000E+00 0.00000E+00
 -1         2 0.00000E+00 0.00000E+00 0.00000E+00
 -1         3 0.00000E+00 0.00000E+00 0.00000E+00
 -1         5 0.00000E+00 0.00000E+00 0.00000E+00
 -1         8 2.79992E-04 1.30880E-04 0.00000E+00
 -1         9 1.25799E-03-1.14073E-03 0.00000E+00
 -1        10-3.48927E-09 1.38436E-08 0.00000E+00
 -1        12 0.00000E+00 0.00000E+00 0.00000E+00
 -1        15 0.00000E+00 0.00000E+00 0.00000E+00
 -1        16-3.10166E-05-3.70976E-05 0.00000E+00
 -1        17-2.53844E-05 1.66298E-05 0.00000E+00
 -1        18 1.97889E-07 1.63394E-07 0.00000E+00
 -1        19 5.58756E-08-1.26942E-08 0.00000E+00
 -1        20-9.26786E-08 1.02806E-08 0.00000E+00
 -1        21 0.00000E+00 3.68981E-08 0.00000E+00
 -1        24-3.27539E-05 1.55110E-05 0.00000E+00
 -1        25 1.10210E-07-1.03590E-07 0.00000E+00
 -1        26-6.01437E-08-4.25519E-08 0.00000E+00
 -1        27-3.11648E-08 5.89580E-08 0.00000E+00
 -1        28-2.87831E-08 1.75553E-08 0.00000E+00
 -1        32 0.00000E+00 0.00000E+00 0.00000E+00
 -1        33-3.81062E-09-7.48980E-08 0.00000E+00
 -1        34-2.19785E-08-7.79849E-08 0.00000E+00
 -1        35-1.30674E-07-8.40259E-08 0.00000E+00
 -1        51 0.00000E+00 0.00000E+00 0.00000E+00
 -1        52 0.00000E+00 0.00000E+00 0.00000E+00
 -1        53 0.00000E+00 0.00000E+00 0.00000E+00
 -1        54 0.00000E+00 0.00000E+00 0.00000E+00
 -1        55 0.00000E+00 0.00000E+00 0.00000E+00
 -1        56 0.00000E+00 0.00000E+00 0.00000E+00
 -1        57 0.00000E+00 0.00000E+00 0.00000E+00
 -1        58 0.00000E+00 0.00000E+00 0.00000E+00
 -1        59 0.00000E+00 0.00000E+00 0.00000E+00
 -1        60 0.00000E+00 0.00000E+00 0.00000E+00
 -1        61 0.00000E+00 0.00000E+00 0.00000E+00
 -1        62 0.00000E+00 0.00000E+00 0.00000E+00
 -1        63 0.00000E+00 0.00000E+00 0.00000E+00
 -1        64 0.00000E+00 0.00000E+00 0.00000E+00
 -1        65 0.00000E+00 0.00000E+00 0.00000E+00
 -1        66 0.00000E+00 0.00000E+00 0.00000E+00
 -1        67 0.00000E+00 0.00000E+00 0.00000E+00
 -1        68 0.00000E+00 0.00000E+00 0.00000E+00
 -1        69 0.00000E+00 0.00000E+00 0.00000E+00
 -1        70 0.00000E+00 0.00000E+00 0.00000E+00
 -1        86 0.00000E+00 0.00000E+00 0.00000E+00
 -1        87 0.00000E+00 0.00000E+00 0.00000E+00
 -1        88 0.00000E+00 0.00000E+00 0.00000E+00
 -1        89 0.00000E+00 0.00000E+00 0.00000E+00
 -1        90 0.00000E+00 0.00000E+00 0.00000E+00
 -1       121 0.00000E+00 0.00000E+00 0.00000E+00
 -1       122 0.00000E+00 0.00000E+00 0.00000E+00
 -1       123 0.00000E+00 0.00000E+00 0.00000E+00
 -1       124 0.00000E+00 0.00000E+00 0.00000E+00
 -1       125 0.00000E+00 0.00000E+00 0.00000E+00
 -1       191 0.00000E+00 0.00000E+00 0.00000E+00
 -1       192 0.00000E+00 0.00000E+00 0.00000E+00
 -1       193 0.00000E+00 0.00000E+00 0.00000E+00
 -1       194 0.00000E+00 0.00000E+00 0.00000E+00
 -1       195 0.00000E+00 0.00000E+00 0.00000E+00
 -1       251 0.00000E+00 0.00000E+00 0.00000E+00
 -1       252 0.00000E+00 0.00000E+00 0.00000E+00
 -1       253 0.00000E+00 0.00000E+00 0.00000E+00
 -1       254 0.00000E+00 0.00000E+00 0.00000E+00
 -1       255 0.00000E+00 0.00000E+00 0.00000E+00
 -1       256 0.00000E+00 0.00000E+00 0.00000E+00
 -1       257 0.00000E+00 0.00000E+00 0.00000E+00
 -1       258 0.00000E+00 0.00000E+00 0.00000E+00
 -1       259 0.00000E+00 0.00000E+00 0.00000E+00
 -1       260 0.00000E+00 0.00000E+00 0.00000E+00
 -1       261 0.00000E+00 0.00000E+00 0.00000E+00
 -1       262 0.00000E+00 0.00000E+00 0.00000E+00
 -1       263 0.00000E+00 0.00000E+00 0.00000E+00
 -1       264 0.00000E+00 0.00000E+00 0.00000E+00
 -1       265 0.00000E+00 0.00000E+00 0.00000E+00
 -1       266 0.00000E+00 0.00000E+00 0.00000E+00
 -1       267 0.00000E+00 0.00000E+00 0.00000E+00
 -1       268 0.00000E+00 0.00000E+00 0.00000E+00
 -1       269 0.00000E+00 0.00000E+00 0.00000E+00
 -1       270 0.00000E+00 0.00000E+00 0.00000E+00
 -1       271 0.00000E+00 0.00000E+00 0.00000E+00
 -1       272 0.00000E+00 0.00000E+00 0.00000E+00
 -1       273 0.00000E+00 0.00000E+00 0.00000E+00
 -1       274 0.00000E+00 0.00000E+00 0.00000E+00
 -1       275 0.00000E+00 0.00000E+00 0.00000E+00
 -1       276 0.00000E+00 0.00000E+00 0.00000E+00
 -1       277 0.00000E+00 0.00000E+00 0.00000E+00
 -1       278 0.00000E+00 0.00000E+00 0.00000E+00
 -1       279 0.00000E+00 0.00000E+00 0.00000E+00
 -1       280 0.00000E+00 0.00000E+00 0.00000E+00
 -1       281 0.00000E+00 0.00000E+00 0.00000E+00
 -1       282 0.00000E+00 0.00000E+00 0.00000E+00
 -1       283 0.00000E+00 0.00000E+00 0.00000E+00
 -1       284 0.00000E+00 0.00000E+00 0.00000E+00
 -1       285 0.00000E+00 0.00000E+00 0.00000E+00
 -1       301 0.00000E+00 0.00000E+00 0.00000E+00
 -1       302 0.00000E+00 0.00000E+00 0.00000E+00
 -1       303 0.00000E+00 0.00000E+00 0.00000E+00
 -1       304 0.00000E+00 0.00000E+00 0.00000E+00
 -1       305 0.00000E+00 0.00000E+00 0.00000E+00
 -1       306 0.00000E+00 0.00000E+00 0.00000E+00
 -1       307 0.00000E+00 0.00000E+00 0.00000E+00
 -1       308 0.00000E+00 0.00000E+00 0.00000E+00
 -1       309 0.00000E+00 0.00000E+00 0.00000E+00
 -1       310 0.00000E+00 0.00000E+00 0.00000E+00
 -1       311 0.00000E+00 0.00000E+00 0.00000E+00
 -1       312 0.00000E+00 0.00000E+00 0.00000E+00
 -1       313 0.00000E+00 0.00000E+00 0.00000E+00
 -1       314 0.00000E+00 0.00000E+00 0.00000E+00
 -1       315 0.00000E+00 0.00000E+00 0.00000E+00
 -1       316 0.00000E+00 0.00000E+00 0.00000E+00
 -1       317 0.00000E+00 0.00000E+00 0.00000E+00
 -1       318 0.00000E+00 0.00000E+00 0.00000E+00
 -1       319 0.00000E+00 0.00000E+00 0.00000E+00
 -1       320 0.00000E+00 0.00000E+00 0.00000E+00
 -1       336 0.00000E+00 0.00000E+00 0.00000E+00
 -1       337 0.00000E+00 0.00000E+00 0.00000E+00
 -1       338 0.00000E+00 0.00000E+00 0.00000E+00
 -1       339 0.00000E+00 0.00000E+00 0.00000E+00
 -1       340 0.00000E+00 0.00000E+00 0.00000E+00
 -1       406 0.00000E+00 0.00000E+00 0.00000E+00
 -1       407 0.00000E+00 0.00000E+00 0.00000E+00
 -1       408 0.00000E+00 0.00000E+00 0.00000E+00
 -1       409 0.00000E+00 0.00000E+00 0.00000E+00
 -1       410 0.00000E+00 0.00000E+00 0.00000E+00
 -1       521 0.00000E+00 0.00000E+00 0.00000E+00
 -1       522 0.00000E+00 0.00000E+00 0.00000E+00
 -1       523 0.00000E+00 0.00000E+00 0.00000E+00
 -1       524 0.00000E+00 0.00000E+00 0.00000E+00
 -1       525 0.00000E+00 0.00000E+00 0.00000E+00
 -1       526 0.00000E+00 0.00000E+00 0.00000E+00
 -1       527 0.00000E+00 0.00000E+00 0.00000E+00
 -1       528 0.00000E+00 0.00000E+00 0.00000E+00
 -1       529 0.00000E+00 0.00000E+00 0.00000E+00
 -1       530 0.00000E+00 0.00000E+00 0.00000E+00
 -1       531 0.00000E+00 0.00000E+00 0.00000E+00
 -1       532 0.00000E+00 0.00000E+00 0.00000E+00
 -1       533 0.00000E+00 0.00000E+00 0.00000E+00
 -1       534 0.00000E+00 0.00000E+00 0.00000E+00
 -1       535 0.00000E+00 0.00000E+00 0.00000E+00
 -1       536 0.00000E+00 0.00000E+00 0.00000E+00
 -1       537 0.00000E+00 0.00000E+00 0.00000E+00
 -1       538 0.00000E+00 0.00000E+00 0.00000E+00
 -1       539 0.00000E+00 0.00000E+00 0.00000E+00
 -1       540 0.00000E+00 0.00000E+00 0.00000E+00
 -1       541 0.00000E+00 0.00000E+00 0.00000E+00
 -1       542 0.00000E+00 0.00000E+00 0.00000E+00
 -1       543 0.00000E+00 0.00000E+00 0.00000E+00
 -1       544 0.00000E+00 0.00000E+00 0.00000E+00
 -1       545 0.00000E+00 0.00000E+00 0.00000E+00
 -1       546 0.00000E+00 0.00000E+00 0.00000E+00
 -1       547 0.00000E+00 0.00000E+00 0.00000E+00
 -1       548 0.00000E+00 0.00000E+00 0.00000E+00
 -1       549 0.00000E+00 0.00000E+00 0.00000E+00
 -1       550 0.00000E+00 0.00000E+00 0.00000E+00
 -1       551 0.00000E+00 0.00000E+00 0.00000E+00
 -1       552 0.00000E+00 0.00000E+00 0.00000E+00
 -1       553 0.00000E+00 0.00000E+00 0.00000E+00
 -1       554 0.00000E+00 0.00000E+00 0.00000E+00
 -1       555 0.00000E+00 0.00000E+00 0.00000E+00
 -1       556 0.00000E+00 0.00000E+00 0.00000E+00
 -1       557 0.00000E+00 0.00000E+00 0.00000E+00
 -1       558 0.00000E+00 0.00000E+00 0.00000E+00
 -1       559 0.00000E+00 0.00000E+00 0.00000E+00
 -1       560 0.00000E+00 0.00000E+00 0.00000E+00
 -1       561 0.00000E+00 0.00000E+00 0.00000E+00
 -1       562 0.00000E+00 0.00000E+00 0.00000E+00
 -1       563 0.00000E+00 0.00000E+00 0.00000E+00
 -1       564 0.00000E+00 0.00000E+00 0.00000E+00
 -1       565 0.00000E+00 0.00000E+00 0.00000E+00
 -1       566 0.00000E+00 0.00000E+00 0.00000E+00
 -1       567 0.00000E+00 0.00000E+00 0.00000E+00
 -1       568 0.00000E+00 0.00000E+00 0.00000E+00
 -1       569 0.00000E+00 0.00000E+00 0.00000E+00
 -1       570 0.00000E+00 0.00000E+00 0.00000E+00
 -1       571 0.00000E+00 0.00000E+00 0.00000E+00
 -1       572 0.00000E+00 0.00000E+00 0.00000E+00
 -1       573 0.00000E+00 0.00000E+00 0.00000E+00
 -1       574 0.00000E+00 0.00000E+00 0.00000E+00
 -1       575 0.00000E+00 0.00000E+00 0.00000E+00
 -1       576 0.00000E+00 0.00000E+00 0.00000E+00
 -1       577 0.00000E+00 0.00000E+00 0.00000E+00
 -1       578 0.00000E+00 0.00000E+00 0.00000E+00
 -1       579 0.00000E+00 0.00000E+00 0.00000E+00
 -1       580 0.00000E+00 0.00000E+00 0.00000E+00
 -1       581 0.00000E+00 0.00000E+00 0.00000E+00
 -1       582 0.00000E+00 0.00000E+00 0.00000E+00
 -1       583 0.00000E+00 0.00000E+00 0.00000E+00
 -1       584 0.00000E+00 0.00000E+00 0.00000E+00
 -1       585 0.00000E+00 0.00000E+00 0.00000E+00
 -1       586 0.00000E+00 0.00000E+00 0.00000E+00
 -1       587 0.00000E+00 0.00000E+00 0.00000E+00
 -1       588 0.00000E+00 0.00000E+00 0.00000E+00
 -1       589 0.00000E+00 0.00000E+00 0.00000E+00
 -1       590 0.00000E+00 0.00000E+00 0.00000E+00
 -1       591 0.00000E+00 0.00000E+00 0.00000E+00
 -1       592 0.00000E+00 0.00000E+00 0.00000E+00
 -1       593 0.00000E+00 0.00000E+00 0.00000E+00
 -1       594 0.00000E+00 0.00000E+00 0.00000E+00
 -1       595 0.00000E+00 0.00000E+00 0.00000E+00
 -1       596 0.00000E+00 0.00000E+00 0.00000E+00
 -1       597 0.00000E+00 0.00000E+00 0.00000E+00
 -1       598 0.00000E+00 0.00000E+00 0.00000E+00
 -1       599 0.00000E+00 0.00000E+00 0.00000E+00
 -1       600 0.00000E+00 0.00000E+00 0.00000E+00
 -1       601 0.00000E+00 0.00000E+00 0.00000E+00
 -1       602 0.00000E+00 0.00000E+00 0.00000E+00
 -1       603 0.00000E+00 0.00000E+00 0.00000E+00
 -1       604 0.00000E+00 0.00000E+00 0.00000E+00
 -1       605 0.00000E+00 0.00000E+00 0.00000E+00
 -1       606 0.00000E+00 0.00000E+00 0.00000E+00
 -1       607 0.00000E+00 0.00000E+00 0.00000E+00
 -1       608 0.00000E+00 0.00000E+00 0.00000E+00
 -1       609 0.00000E+00 0.00000E+00 0.00000E+00
 -1       610 0.00000E+00 0.00000E+00 0.00000E+00
 -1       611 0.00000E+00 0.00000E+00 0.00000E+00
 -1       612 0.00000E+00 0.00000E+00 0.00000E+00
 -1       613 0.00000E+00 0.00000E+00 0.00000E+00
 -1       614 0.00000E+00 0.00000E+00 0.00000E+00
 -1       615 0.00000E+00 0.00000E+00 0.00000E+00
 -1       616 0.00000E+00 0.00000E+00 0.00000E+00
 -1       617 0.00000E+00 0.00000E+00 0.00000E+00
 -1       618 0.00000E+00 0.00000E+00 0.00000E+00
 -1       619 0.00000E+00 0.00000E+00 0.00000E+00
 -1       620 0.00000E+00 0.00000E+00 0.00000E+00
 -1       621 0.00000E+00 0.00000E+00 0.00000E+00
 -1       622 0.00000E+00 0.00000E+00 0.00000E+00
 -1       623 0.00000E+00 0.00000E+00 0.00000E+00
 -1       624 0.00000E+00 0.00000E+00 0.00000E+00
 -1       625 0.00000E+00 0.00000E+00 0.00000E+00
 -1       626 0.00000E+00 0.00000E+00 0.00000E+00
 -1       627 0.00000E+00 0.00000E+00 0.00000E+00
 -1       628 0.00000E+00 0.00000E+00 0.00000E+00
 -1       629 0.00000E+00 0.00000E+00 0.00000E+00
 -1       630 0.00000E+00 0.00000E+00 0.00000E+00
 -1       631 0.00000E+00 0.00000E+00 0.00000E+00
 -1       632 0.00000E+00 0.00000E+00 0.00000E+00
 -1       633 0.00000E+00 0.00000E+00 0.00000E+00
 -1       634 0.00000E+00 0.00000E+00 0.00000E+00
 -1       635 0.00000E+00 0.00000E+00 0.00000E+00
 -1       636 0.00000E+00 0.00000E+00 0.00000E+00
 -1       637 0.00000E+00 0.00000E+00 0.00000E+00
 -1       638 0.00000E+00 0.00000E+00 0.00000E+00
 -1       639 0.00000E+00 0.00000E+00 0.00000E+00
 -1       640 0.00000E+00 0.00000E+00 0.00000E+00
 -1       656 0.00000E+00 0.00000E+00 0.00000E+00
 -1       657 0.00000E+00 0.00000E+00 0.00000E+00
 -1       658 0.00000E+00 0.00000E+00 0.00000E+00
 -1       659 0.00000E+00 0.00000E+00 0.00000E+00
 -1       660 0.00000E+00 0.00000E+00 0.00000E+00
 -1       661 0.00000E+00 0.00000E+00 0.00000E+00
 -1       662 0.00000E+00 0.00000E+00 0.00000E+00
 -1       663 0.00000E+00 0.00000E+00 0.00000E+00
 -1       664 0.00000E+00 0.00000E+00 0.00000E+00
 -1       665 0.00000E+00 0.00000E+00 0.00000E+00
 -1       666 0.00000E+00 0.00000E+00 0.00000E+00
 -1       667 0.00000E+00 0.00000E+00 0.00000E+00
 -1       668 0.00000E+00 0.00000E+00 0.00000E+00
 -1       669 0.00000E+00 0.00000E+00 0.00000E+00
 -1       670 0.00000E+00 0.00000E+00 0.00000E+00
 -1       671 0.00000E+00 0.00000E+00 0.00000E+00
 -1       672 0.00000E+00 0.00000E+00 0.00000E+00
 -1       673 0.00000E+00 0.00000E+00 0.00000E+00
 -1       674 0.00000E+00 0.00000E+00 0.00000E+00
 -1       675 0.00000E+00 0.00000E+00 0.00000E+00
 -1       676 0.00000E+00 0.00000E+00 0.00000E+00
 -1       677 0.00000E+00 0.00000E+00 0.00000E+00
 -1       678 0.00000E+00 0.00000E+00 0.00000E+00
 -1       679 0.00000E+00 0.00000E+00 0.00000E+00
 -1       680 0.00000E+00 0.00000E+00 0.00000E+00
 -1       771 0.00000E+00 0.00000E+00 0.00000E+00
 -1       772 0.00000E+00 0.00000E+00 0.00000E+00
 -1       773 0.00000E+00 0.00000E+00 0.00000E+00
 -1       774 0.00000E+00 0.00000E+00 0.00000E+00
 -1       775 0.00000E+00 0.00000E+00 0.00000E+00
 -1       776 0.00000E+00 0.00000E+00 0.00000E+00
 -1       777 0.00000E+00 0.00000E+00 0.00000E+00
 -1       778 0.00000E+00 0.00000E+00 0.00000E+00
 -1       779 0.00000E+00 0.00000E+00 0.00000E+00
 -1       780 0.00000E+00 0.00000E+00 0.00000E+00
 -1       781 0.00000E+00 0.00000E+00 0.00000E+00
 -1       782 0.00000E+00 0.00000E+00 0.00000E+00
 -1       783 0.00000E+00 0.00000E+00 0.00000E+00
 -1       784 0.00000E+00 0.00000E+00 0.00000E+00
 -1       785 0.00000E+00 0.00000E+00 0.00000E+00
 -1       786 0.00000E+00 0.00000E+00 0.00000E+00
 -1       787 0.00000E+00 0.00000E+00 0.00000E+00
 -1       788 0.00000E+00 0.00000E+00 0.00000E+00
 -1       789 0.00000E+00 0.00000E+00 0.00000E+00
 -1       790 0.00000E+00 0.00000E+00 0.00000E+00
 -1       791 0.00000E+00 0.00000E+00 0.00000E+00
 -1       792 0.00000E+00 0.00000E+00 0.00000E+00
 -1       793 0.00000E+00 0.00000E+00 0.00000E+00
 -1       794 0.00000E+00 0.00000E+00 0.00000E+00
 -1       795 0.00000E+00 0.00000E+00 0.00000E+00
 -1       796 0.00000E+00 0.00000E+00 0.00000E+00
 -1       797 0.00000E+00 0.00000E+00 0.00000E+00
 -1       798 0.00000E+00 0.00000E+00 0.00000E+00
 -1       799 0.00000E+00 0.00000E+00 0.00000E+00
 -1       800 0.00000E+00 0.00000E+00 0.00000E+00
 -1       801 0.00000E+00 0.00000E+00 0.00000E+00
 -1       802 0.00000E+00 0.00000E+00 0.00000E+00
 -1       803 0.00000E+00 0.00000E+00 0.00000E+00
 -1       804 0.00000E+00 0.00000E+00 0.00000E+00
 -1       805 0.00000E+00 0.00000E+00 0.00000E+00
 -1       806 0.00000E+00 0.00000E+00 0.00000E+00
 -1       807 0.00000E+00 0.00000E+00 0.00000E+00
 -1       808 0.00000E+00 0.00000E+00 0.00000E+00
 -1       809 0.00000E+00 0.00000E+00 0.00000E+00
 -1       810 0.00000E+00 0.00000E+00 0.00000E+00
 -1       811 0.00000E+00 0.00000E+00 0.00000E+00
 -1       812 0.00000E+00 0.00000E+00 0.00000E+00
 -1       813 0.00000E+00 0.00000E+00 0.00000E+00
 -1       814 0.00000E+00 0.00000E+00 0.00000E+00
 -1       815 0.00000E+00 0.00000E+00 0.00000E+00
 -1       816 0.00000E+00 0.00000E+00 0.00000E+00
 -1       817 0.00000E+00 0.00000E+00 0.00000E+00
 -1       818 0.00000E+00 0.00000E+00 0.00000E+00
 -1       819 0.00000E+00 0.00000E+00 0.00000E+00
 -1       820 0.00000E+00 0.00000E+00 0.00000E+00
 -1       821 0.00000E+00 0.00000E+00 0.00000E+00
 -1       822 0.00000E+00 0.00000E+00 0.00000E+00
 -1       823 0.00000E+00 0.00000E+00 0.00000E+00
 -1       824 0.00000E+00 0.00000E+00 0.00000E+00
 -1       825 0.00000E+00 0.00000E+00 0.00000E+00
 -1       826 0.00000E+00 0.00000E+00 0.00000E+00
 -1       827 0.00000E+00 0.00000E+00 0.00000E+00
 -1       828 0.00000E+00 0.00000E+00 0.00000E+00
 -1       829 0.00000E+00 0.00000E+00 0.00000E+00
 -1       830 0.00000E+00 0.00000E+00 0.00000E+00
 -1       831 0.00000E+00 0.00000E+00 0.00000E+00
 -1       832 0.00000E+00 0.00000E+00 0.00000E+00
 -1       833 0.00000E+00 0.00000E+00 0.00000E+00
 -1       834 0.00000E+00 0.00000E+00 0.00000E+00
 -1       835 0.00000E+00 0.00000E+00 0.00000E+00
 -1       836 0.00000E+00 0.00000E+00 0.00000E+00
 -1       837 0.00000E+00 0.00000E+00 0.00000E+00
 -1       838 0.00000E+00 0.00000E+00 0.00000E+00
 -1       839 0.00000E+00 0.00000E+00 0.00000E+00
 -1       840 0.00000E+00 0.00000E+00 0.00000E+00
 -1       856 0.00000E+00 0.00000E+00 0.00000E+00
 -1       857 0.00000E+00 0.00000E+00 0.00000E+00
 -1       858 0.00000E+00 0.00000E+00 0.00000E+00
 -1       859 0.00000E+00 0.00000E+00 0.00000E+00
 -1       860 0.00000E+00 0.00000E+00 0.00000E+00
 -1       861 0.00000E+00 0.00000E+00 0.00000E+00
 -1       862 0.00000E+00 0.00000E+00 0.00000E+00
 -1       863 0.00000E+00 0.00000E+00 0.00000E+00
 -1       864 0.00000E+00 0.00000E+00 0.00000E+00
 -1       865 0.00000E+00 0.00000E+00 0.00000E+00
 -1       866 0.00000E+00 0.00000E+00 0.00000E+00
 -1       867 0.00000E+00 0.00000E+00 0.00000E+00
 -1       868 0.00000E+00 0.00000E+00 0.00000E+00
 -1       869 0.00000E+00 0.00000E+00 0.00000E+00
 -1       870 0.00000E+00 0.00000E+00 0.00000E+00
 -1       871 0.00000E+00 0.00000E+00 0.00000E+00
 -1       872 0.00000E+00 0.00000E+00 0.00000E+00
 -1       873 0.00000E+00 0.00000E+00 0.00000E+00
 -1       874 0.00000E+00 0.00000E+00 0.00000E+00
 -1       875 0.00000E+00 0.00000E+00 0.00000E+00
 -1       876 0.00000E+00 0.00000E+00 0.00000E+00
 -1       877 0.00000E+00 0.00000E+00 0.00000E+00
 -1       878 0.00000E+00 0.00000E+00 0.00000E+00
 -1       879 0.00000E+00 0.00000E+00 0.00000E+00
 -1       880 0.00000E+00 0.00000E+00 0.00000E+00
 -1       881 0.00000E+00 0.00000E+00 0.00000E+00
 -1       882 0.00000E+00 0.00000E+00 0.00000E+00
 -1       883 0.00000E+00 0.00000E+00 0.00000E+00
 -1       884 0.00000E+00 0.00000E+00 0.00000E+00
 -1       885 0.00000E+00 0.00000E+00 0.00000E+00
 -1       886 0.00000E+00 0.00000E+00 0.00000E+00
 -1       887 0.00000E+00 0.00000E+00 0.00000E+00
 -1       888 0.00000E+00 0.00000E+00 0.00000E+00
 -1       889 0.00000E+00 0.00000E+00 0.00000E+00
 -1       890 0.00000E+00 0.00000E+00 0.00000E+00
 -1       891 0.00000E+00 0.00000E+00 0.00000E+00
 -1       892 0.00000E+00 0.00000E+00 0.00000E+00
 -1       893 0.00000E+00 0.00000E+00 0.00000E+00
 -1       894 0.00000E+00 0.00000E+00 0.00000E+00
 -1       895 0.00000E+00 0.00000E+00 0.00000E+00
 -1       956 0.00000E+00 0.00000E+00 0.00000E+00
 -1       957 0.00000E+00 0.00000E+00 0.00000E+00
 -1       958 0.00000E+00 0.00000E+00 0.00000E+00
 -1       959 0.00000E+00 0.00000E+00 0.00000E+00
 -1       960 0.00000E+00 0.00000E+00 0.00000E+00
 -1       961 0.00000E+00 0.00000E+00 0.00000E+00
 -1       962 0.00000E+00 0.00000E+00 0.00000E+00
 -1       963 0.00000E+00 0.00000E+00 0.00000E+00
 -1       964 0.00000E+00 0.00000E+00 0.00000E+00
 -1       965 0.00000E+00 0.00000E+00 0.00000E+00
 -1       966 0.00000E+00 0.00000E+00 0.00000E+00
 -1       967 0.00000E+00 0.00000E+00 0.00000E+00
 -1       968 0.00000E+00 0.00000E+00 0.00000E+00
 -1       969 0.00000E+00 0.00000E+00 0.00000E+00
 -1       970 0.00000E+00 0.00000E+00 0.00000E+00
 -1       971 0.00000E+00 0.00000E+00 0.00000E+00
 -1       972 0.00000E+00 0.00000E+00 0.00000E+00
 -1       973 0.00000E+00 0.00000E+00 0.00000E+00
 -1       974 0.00000E+00 0.00000E+00 0.00000E+00
 -1       975 0.00000E+00 0.00000E+00 0.00000E+00
 -1       976 0.00000E+00 0.00000E+00 0.00000E+00
 -1       977 0.00000E+00 0.00000E+00 0.00000E+00
 -1       978 0.00000E+00 0.00000E+00 0.00000E+00
 -1       979 0.00000E+00 0.00000E+00 0.00000E+00
 -1       980 0.00000E+00 0.00000E+00 0.00000E+00
 -1       981 0.00000E+00 0.00000E+00 0.00000E+00
 -1       982 0.00000E+00 0.00000E+00 0.00000E+00
 -1       983 0.00000E+00 0.00000E+00 0.00000E+00
 -1       984 0.00000E+00 0.00000E+00 0.00000E+00
 -1       985 0.00000E+00 0.00000E+00 0.00000E+00
 -3
