    1C
    1UUSER                                                              
    1UDATE              11.october.2022                                 
    1UTIME              18:10:29                                        
    1UHOST                                                              
    1UPGM               CalculiX                                        
    1UVERSION           Version 2.20                             
    1UCOMPILETIME       Sun Jul 31 18:08:37 CEST 2022                    
    1UDIR                                                               
    1UDBN                                                               
    1UMAT    1MESH_MATERIAL                                             
    2C                           394                                     1
 -1         1 0.00000E+00 0.00000E+00 0.00000E+00
 -1         2 1.66667E-02 0.00000E+00 0.00000E+00
 -1         3 3.33333E-02 0.00000E+00 0.00000E+00
 -1         5 6.66667E-02 0.00000E+00 0.00000E+00
 -1         8 0.00000E+00 6.25000E-03 0.00000E+00
 -1         9 1.66667E-02 6.25000E-03 0.00000E+00
 -1        10 3.33333E-02 6.25000E-03 0.00000E+00
 -1        12 6.66667E-02 6.25000E-03 0.00000E+00
 -1        15 0.00000E+00 1.25000E-02 0.00000E+00
 -1        16 1.66667E-02 1.25000E-02 0.00000E+00
 -1        17 3.33333E-02 1.25000E-02 0.00000E+00
 -1        18 5.00000E-02 1.25000E-02 0.00000E+00
 -1        19 6.66667E-02 1.25000E-02 0.00000E+00
 -1        20 8.33333E-02 1.25000E-02 0.00000E+00
 -1        21 1.00000E-01 1.25000E-02 0.00000E+00
 -1        24 3.33333E-02 1.87500E-02 0.00000E+00
 -1        25 5.00000E-02 1.87500E-02 0.00000E+00
 -1        26 6.66667E-02 1.87500E-02 0.00000E+00
 -1        27 8.33333E-02 1.87500E-02 0.00000E+00
 -1        28 1.00000E-01 1.87500E-02 0.00000E+00
 -1        32 5.00000E-02 2.50000E-02 0.00000E+00
 -1        33 6.66667E-02 2.50000E-02 0.00000E+00
 -1        34 8.33333E-02 2.50000E-02 0.00000E+00
 -1        35 1.00000E-01 2.50000E-02 0.00000E+00
 -1        51 0.00000E+00 1.04167E-03 0.00000E+00
 -1        52 0.00000E+00 2.08333E-03 0.00000E+00
 -1        53 0.00000E+00 3.12500E-03 0.00000E+00
 -1        54 0.00000E+00 4.16667E-03 0.00000E+00
 -1        55 0.00000E+00 5.20833E-03 0.00000E+00
 -1        56 1.04167E-03 3.90630E-04 0.00000E+00
 -1        57 2.08333E-03 7.81250E-04 0.00000E+00
 -1        58 3.12500E-03 1.17188E-03 0.00000E+00
 -1        59 4.16667E-03 1.56250E-03 0.00000E+00
 -1        60 5.20833E-03 1.95312E-03 0.00000E+00
 -1        61 6.25000E-03 2.34375E-03 0.00000E+00
 -1        62 7.29167E-03 2.73438E-03 0.00000E+00
 -1        63 8.33333E-03 3.12500E-03 0.00000E+00
 -1        64 9.37500E-03 3.51563E-03 0.00000E+00
 -1        65 1.04167E-02 3.90625E-03 0.00000E+00
 -1        66 1.14583E-02 4.29688E-03 0.00000E+00
 -1        67 1.25000E-02 4.68750E-03 0.00000E+00
 -1        68 1.35417E-02 5.07813E-03 0.00000E+00
 -1        69 1.45833E-02 5.46875E-03 0.00000E+00
 -1        70 1.56250E-02 5.85938E-03 0.00000E+00
 -1        86 1.66667E-02 1.04167E-03 0.00000E+00
 -1        87 1.66667E-02 2.08333E-03 0.00000E+00
 -1        88 1.66667E-02 3.12500E-03 0.00000E+00
 -1        89 1.66667E-02 4.16667E-03 0.00000E+00
 -1        90 1.66667E-02 5.20833E-03 0.00000E+00
 -1       121 3.33333E-02 1.04167E-03 0.00000E+00
 -1       122 3.33333E-02 2.08333E-03 0.00000E+00
 -1       123 3.33333E-02 3.12500E-03 0.00000E+00
 -1       124 3.33333E-02 4.16667E-03 0.00000E+00
 -1       125 3.33333E-02 5.20833E-03 0.00000E+00
 -1       191 6.66667E-02 1.04167E-03 0.00000E+00
 -1       192 6.66667E-02 2.08333E-03 0.00000E+00
 -1       193 6.66667E-02 3.12500E-03 0.00000E+00
 -1       194 6.66667E-02 4.16667E-03 0.00000E+00
 -1       195 6.66667E-02 5.20833E-03 0.00000E+00
 -1       266 0.00000E+00 7.29167E-03 0.00000E+00
 -1       267 0.00000E+00 8.33333E-03 0.00000E+00
 -1       268 0.00000E+00 9.37500E-03 0.00000E+00
 -1       269 0.00000E+00 1.04167E-02 0.00000E+00
 -1       270 0.00000E+00 1.14583E-02 0.00000E+00
 -1       271 1.04167E-03 6.64063E-03 0.00000E+00
 -1       272 2.08333E-03 7.03125E-03 0.00000E+00
 -1       273 3.12500E-03 7.42188E-03 0.00000E+00
 -1       274 4.16667E-03 7.81250E-03 0.00000E+00
 -1       275 5.20833E-03 8.20313E-03 0.00000E+00
 -1       276 6.25000E-03 8.59375E-03 0.00000E+00
 -1       277 7.29167E-03 8.98438E-03 0.00000E+00
 -1       278 8.33333E-03 9.37500E-03 0.00000E+00
 -1       279 9.37500E-03 9.76562E-03 0.00000E+00
 -1       280 1.04167E-02 1.01562E-02 0.00000E+00
 -1       281 1.14583E-02 1.05469E-02 0.00000E+00
 -1       282 1.25000E-02 1.09375E-02 0.00000E+00
 -1       283 1.35417E-02 1.13281E-02 0.00000E+00
 -1       284 1.45833E-02 1.17188E-02 0.00000E+00
 -1       285 1.56250E-02 1.21094E-02 0.00000E+00
 -1       301 1.66667E-02 7.29167E-03 0.00000E+00
 -1       302 1.66667E-02 8.33333E-03 0.00000E+00
 -1       303 1.66667E-02 9.37500E-03 0.00000E+00
 -1       304 1.66667E-02 1.04167E-02 0.00000E+00
 -1       305 1.66667E-02 1.14583E-02 0.00000E+00
 -1       306 1.77083E-02 6.64063E-03 0.00000E+00
 -1       307 1.87500E-02 7.03125E-03 0.00000E+00
 -1       308 1.97917E-02 7.42188E-03 0.00000E+00
 -1       309 2.08333E-02 7.81250E-03 0.00000E+00
 -1       310 2.18750E-02 8.20313E-03 0.00000E+00
 -1       311 2.29167E-02 8.59375E-03 0.00000E+00
 -1       312 2.39583E-02 8.98438E-03 0.00000E+00
 -1       313 2.50000E-02 9.37500E-03 0.00000E+00
 -1       314 2.60417E-02 9.76562E-03 0.00000E+00
 -1       315 2.70833E-02 1.01562E-02 0.00000E+00
 -1       316 2.81250E-02 1.05469E-02 0.00000E+00
 -1       317 2.91667E-02 1.09375E-02 0.00000E+00
 -1       318 3.02083E-02 1.13281E-02 0.00000E+00
 -1       319 3.12500E-02 1.17188E-02 0.00000E+00
 -1       320 3.22917E-02 1.21094E-02 0.00000E+00
 -1       336 3.33333E-02 7.29167E-03 0.00000E+00
 -1       337 3.33333E-02 8.33333E-03 0.00000E+00
 -1       338 3.33333E-02 9.37500E-03 0.00000E+00
 -1       339 3.33333E-02 1.04167E-02 0.00000E+00
 -1       340 3.33333E-02 1.14583E-02 0.00000E+00
 -1       406 6.66667E-02 7.29167E-03 0.00000E+00
 -1       407 6.66667E-02 8.33333E-03 0.00000E+00
 -1       408 6.66667E-02 9.37500E-03 0.00000E+00
 -1       409 6.66667E-02 1.04167E-02 0.00000E+00
 -1       410 6.66667E-02 1.14583E-02 0.00000E+00
 -1       521 1.77083E-02 1.28906E-02 0.00000E+00
 -1       522 1.87500E-02 1.32813E-02 0.00000E+00
 -1       523 1.97917E-02 1.36719E-02 0.00000E+00
 -1       524 2.08333E-02 1.40625E-02 0.00000E+00
 -1       525 2.18750E-02 1.44531E-02 0.00000E+00
 -1       526 2.29167E-02 1.48437E-02 0.00000E+00
 -1       527 2.39583E-02 1.52344E-02 0.00000E+00
 -1       528 2.50000E-02 1.56250E-02 0.00000E+00
 -1       529 2.60417E-02 1.60156E-02 0.00000E+00
 -1       530 2.70833E-02 1.64062E-02 0.00000E+00
 -1       531 2.81250E-02 1.67969E-02 0.00000E+00
 -1       532 2.91667E-02 1.71875E-02 0.00000E+00
 -1       533 3.02083E-02 1.75781E-02 0.00000E+00
 -1       534 3.12500E-02 1.79687E-02 0.00000E+00
 -1       535 3.22917E-02 1.83594E-02 0.00000E+00
 -1       536 3.43750E-02 1.25000E-02 0.00000E+00
 -1       537 3.54167E-02 1.25000E-02 0.00000E+00
 -1       538 3.64583E-02 1.25000E-02 0.00000E+00
 -1       539 3.75000E-02 1.25000E-02 0.00000E+00
 -1       540 3.85417E-02 1.25000E-02 0.00000E+00
 -1       541 3.95833E-02 1.25000E-02 0.00000E+00
 -1       542 4.06250E-02 1.25000E-02 0.00000E+00
 -1       543 4.16667E-02 1.25000E-02 0.00000E+00
 -1       544 4.27083E-02 1.25000E-02 0.00000E+00
 -1       545 4.37500E-02 1.25000E-02 0.00000E+00
 -1       546 4.47917E-02 1.25000E-02 0.00000E+00
 -1       547 4.58333E-02 1.25000E-02 0.00000E+00
 -1       548 4.68750E-02 1.25000E-02 0.00000E+00
 -1       549 4.79167E-02 1.25000E-02 0.00000E+00
 -1       550 4.89583E-02 1.25000E-02 0.00000E+00
 -1       551 3.33333E-02 1.35417E-02 0.00000E+00
 -1       552 3.33333E-02 1.45833E-02 0.00000E+00
 -1       553 3.33333E-02 1.56250E-02 0.00000E+00
 -1       554 3.33333E-02 1.66667E-02 0.00000E+00
 -1       555 3.33333E-02 1.77083E-02 0.00000E+00
 -1       556 3.43750E-02 1.28906E-02 0.00000E+00
 -1       557 3.54167E-02 1.32813E-02 0.00000E+00
 -1       558 3.64583E-02 1.36719E-02 0.00000E+00
 -1       559 3.75000E-02 1.40625E-02 0.00000E+00
 -1       560 3.85417E-02 1.44531E-02 0.00000E+00
 -1       561 3.95833E-02 1.48437E-02 0.00000E+00
 -1       562 4.06250E-02 1.52344E-02 0.00000E+00
 -1       563 4.16667E-02 1.56250E-02 0.00000E+00
 -1       564 4.27083E-02 1.60156E-02 0.00000E+00
 -1       565 4.37500E-02 1.64062E-02 0.00000E+00
 -1       566 4.47917E-02 1.67969E-02 0.00000E+00
 -1       567 4.58333E-02 1.71875E-02 0.00000E+00
 -1       568 4.68750E-02 1.75781E-02 0.00000E+00
 -1       569 4.79167E-02 1.79687E-02 0.00000E+00
 -1       570 4.89583E-02 1.83594E-02 0.00000E+00
 -1       571 5.10417E-02 1.25000E-02 0.00000E+00
 -1       572 5.20833E-02 1.25000E-02 0.00000E+00
 -1       573 5.31250E-02 1.25000E-02 0.00000E+00
 -1       574 5.41667E-02 1.25000E-02 0.00000E+00
 -1       575 5.52083E-02 1.25000E-02 0.00000E+00
 -1       576 5.62500E-02 1.25000E-02 0.00000E+00
 -1       577 5.72917E-02 1.25000E-02 0.00000E+00
 -1       578 5.83333E-02 1.25000E-02 0.00000E+00
 -1       579 5.93750E-02 1.25000E-02 0.00000E+00
 -1       580 6.04167E-02 1.25000E-02 0.00000E+00
 -1       581 6.14583E-02 1.25000E-02 0.00000E+00
 -1       582 6.25000E-02 1.25000E-02 0.00000E+00
 -1       583 6.35417E-02 1.25000E-02 0.00000E+00
 -1       584 6.45833E-02 1.25000E-02 0.00000E+00
 -1       585 6.56250E-02 1.25000E-02 0.00000E+00
 -1       586 5.00000E-02 1.35417E-02 0.00000E+00
 -1       587 5.00000E-02 1.45833E-02 0.00000E+00
 -1       588 5.00000E-02 1.56250E-02 0.00000E+00
 -1       589 5.00000E-02 1.66667E-02 0.00000E+00
 -1       590 5.00000E-02 1.77083E-02 0.00000E+00
 -1       591 5.10417E-02 1.28906E-02 0.00000E+00
 -1       592 5.20833E-02 1.32813E-02 0.00000E+00
 -1       593 5.31250E-02 1.36719E-02 0.00000E+00
 -1       594 5.41667E-02 1.40625E-02 0.00000E+00
 -1       595 5.52083E-02 1.44531E-02 0.00000E+00
 -1       596 5.62500E-02 1.48437E-02 0.00000E+00
 -1       597 5.72917E-02 1.52344E-02 0.00000E+00
 -1       598 5.83333E-02 1.56250E-02 0.00000E+00
 -1       599 5.93750E-02 1.60156E-02 0.00000E+00
 -1       600 6.04167E-02 1.64062E-02 0.00000E+00
 -1       601 6.14583E-02 1.67969E-02 0.00000E+00
 -1       602 6.25000E-02 1.71875E-02 0.00000E+00
 -1       603 6.35417E-02 1.75781E-02 0.00000E+00
 -1       604 6.45833E-02 1.79687E-02 0.00000E+00
 -1       605 6.56250E-02 1.83594E-02 0.00000E+00
 -1       606 6.77083E-02 1.25000E-02 0.00000E+00
 -1       607 6.87500E-02 1.25000E-02 0.00000E+00
 -1       608 6.97917E-02 1.25000E-02 0.00000E+00
 -1       609 7.08333E-02 1.25000E-02 0.00000E+00
 -1       610 7.18750E-02 1.25000E-02 0.00000E+00
 -1       611 7.29167E-02 1.25000E-02 0.00000E+00
 -1       612 7.39583E-02 1.25000E-02 0.00000E+00
 -1       613 7.50000E-02 1.25000E-02 0.00000E+00
 -1       614 7.60417E-02 1.25000E-02 0.00000E+00
 -1       615 7.70833E-02 1.25000E-02 0.00000E+00
 -1       616 7.81250E-02 1.25000E-02 0.00000E+00
 -1       617 7.91667E-02 1.25000E-02 0.00000E+00
 -1       618 8.02083E-02 1.25000E-02 0.00000E+00
 -1       619 8.12500E-02 1.25000E-02 0.00000E+00
 -1       620 8.22917E-02 1.25000E-02 0.00000E+00
 -1       621 6.66667E-02 1.35417E-02 0.00000E+00
 -1       622 6.66667E-02 1.45833E-02 0.00000E+00
 -1       623 6.66667E-02 1.56250E-02 0.00000E+00
 -1       624 6.66667E-02 1.66667E-02 0.00000E+00
 -1       625 6.66667E-02 1.77083E-02 0.00000E+00
 -1       626 6.77083E-02 1.28906E-02 0.00000E+00
 -1       627 6.87500E-02 1.32813E-02 0.00000E+00
 -1       628 6.97917E-02 1.36719E-02 0.00000E+00
 -1       629 7.08333E-02 1.40625E-02 0.00000E+00
 -1       630 7.18750E-02 1.44531E-02 0.00000E+00
 -1       631 7.29167E-02 1.48437E-02 0.00000E+00
 -1       632 7.39583E-02 1.52344E-02 0.00000E+00
 -1       633 7.50000E-02 1.56250E-02 0.00000E+00
 -1       634 7.60417E-02 1.60156E-02 0.00000E+00
 -1       635 7.70833E-02 1.64062E-02 0.00000E+00
 -1       636 7.81250E-02 1.67969E-02 0.00000E+00
 -1       637 7.91667E-02 1.71875E-02 0.00000E+00
 -1       638 8.02083E-02 1.75781E-02 0.00000E+00
 -1       639 8.12500E-02 1.79687E-02 0.00000E+00
 -1       640 8.22917E-02 1.83594E-02 0.00000E+00
 -1       656 8.33333E-02 1.35417E-02 0.00000E+00
 -1       657 8.33333E-02 1.45833E-02 0.00000E+00
 -1       658 8.33333E-02 1.56250E-02 0.00000E+00
 -1       659 8.33333E-02 1.66667E-02 0.00000E+00
 -1       660 8.33333E-02 1.77083E-02 0.00000E+00
 -1       661 8.43750E-02 1.28906E-02 0.00000E+00
 -1       662 8.54167E-02 1.32813E-02 0.00000E+00
 -1       663 8.64583E-02 1.36719E-02 0.00000E+00
 -1       664 8.75000E-02 1.40625E-02 0.00000E+00
 -1       665 8.85417E-02 1.44531E-02 0.00000E+00
 -1       666 8.95833E-02 1.48437E-02 0.00000E+00
 -1       667 9.06250E-02 1.52344E-02 0.00000E+00
 -1       668 9.16667E-02 1.56250E-02 0.00000E+00
 -1       669 9.27083E-02 1.60156E-02 0.00000E+00
 -1       670 9.37500E-02 1.64062E-02 0.00000E+00
 -1       671 9.47917E-02 1.67969E-02 0.00000E+00
 -1       672 9.58333E-02 1.71875E-02 0.00000E+00
 -1       673 9.68750E-02 1.75781E-02 0.00000E+00
 -1       674 9.79167E-02 1.79687E-02 0.00000E+00
 -1       675 9.89583E-02 1.83594E-02 0.00000E+00
 -1       676 1.00000E-01 1.35417E-02 0.00000E+00
 -1       677 1.00000E-01 1.45833E-02 0.00000E+00
 -1       678 1.00000E-01 1.56250E-02 0.00000E+00
 -1       679 1.00000E-01 1.66667E-02 0.00000E+00
 -1       680 1.00000E-01 1.77083E-02 0.00000E+00
 -1       771 3.43750E-02 1.91406E-02 0.00000E+00
 -1       772 3.54167E-02 1.95312E-02 0.00000E+00
 -1       773 3.64583E-02 1.99219E-02 0.00000E+00
 -1       774 3.75000E-02 2.03125E-02 0.00000E+00
 -1       775 3.85417E-02 2.07031E-02 0.00000E+00
 -1       776 3.95833E-02 2.10938E-02 0.00000E+00
 -1       777 4.06250E-02 2.14844E-02 0.00000E+00
 -1       778 4.16667E-02 2.18750E-02 0.00000E+00
 -1       779 4.27083E-02 2.22656E-02 0.00000E+00
 -1       780 4.37500E-02 2.26563E-02 0.00000E+00
 -1       781 4.47917E-02 2.30469E-02 0.00000E+00
 -1       782 4.58333E-02 2.34375E-02 0.00000E+00
 -1       783 4.68750E-02 2.38281E-02 0.00000E+00
 -1       784 4.79167E-02 2.42187E-02 0.00000E+00
 -1       785 4.89583E-02 2.46094E-02 0.00000E+00
 -1       786 5.10417E-02 1.87500E-02 0.00000E+00
 -1       787 5.20833E-02 1.87500E-02 0.00000E+00
 -1       788 5.31250E-02 1.87500E-02 0.00000E+00
 -1       789 5.41667E-02 1.87500E-02 0.00000E+00
 -1       790 5.52083E-02 1.87500E-02 0.00000E+00
 -1       791 5.62500E-02 1.87500E-02 0.00000E+00
 -1       792 5.72917E-02 1.87500E-02 0.00000E+00
 -1       793 5.83333E-02 1.87500E-02 0.00000E+00
 -1       794 5.93750E-02 1.87500E-02 0.00000E+00
 -1       795 6.04167E-02 1.87500E-02 0.00000E+00
 -1       796 6.14583E-02 1.87500E-02 0.00000E+00
 -1       797 6.25000E-02 1.87500E-02 0.00000E+00
 -1       798 6.35417E-02 1.87500E-02 0.00000E+00
 -1       799 6.45833E-02 1.87500E-02 0.00000E+00
 -1       800 6.56250E-02 1.87500E-02 0.00000E+00
 -1       801 5.00000E-02 1.97917E-02 0.00000E+00
 -1       802 5.00000E-02 2.08333E-02 0.00000E+00
 -1       803 5.00000E-02 2.18750E-02 0.00000E+00
 -1       804 5.00000E-02 2.29167E-02 0.00000E+00
 -1       805 5.00000E-02 2.39583E-02 0.00000E+00
 -1       806 5.10417E-02 1.91406E-02 0.00000E+00
 -1       807 5.20833E-02 1.95312E-02 0.00000E+00
 -1       808 5.31250E-02 1.99219E-02 0.00000E+00
 -1       809 5.41667E-02 2.03125E-02 0.00000E+00
 -1       810 5.52083E-02 2.07031E-02 0.00000E+00
 -1       811 5.62500E-02 2.10938E-02 0.00000E+00
 -1       812 5.72917E-02 2.14844E-02 0.00000E+00
 -1       813 5.83333E-02 2.18750E-02 0.00000E+00
 -1       814 5.93750E-02 2.22656E-02 0.00000E+00
 -1       815 6.04167E-02 2.26563E-02 0.00000E+00
 -1       816 6.14583E-02 2.30469E-02 0.00000E+00
 -1       817 6.25000E-02 2.34375E-02 0.00000E+00
 -1       818 6.35417E-02 2.38281E-02 0.00000E+00
 -1       819 6.45833E-02 2.42187E-02 0.00000E+00
 -1       820 6.56250E-02 2.46094E-02 0.00000E+00
 -1       821 6.77083E-02 1.87500E-02 0.00000E+00
 -1       822 6.87500E-02 1.87500E-02 0.00000E+00
 -1       823 6.97917E-02 1.87500E-02 0.00000E+00
 -1       824 7.08333E-02 1.87500E-02 0.00000E+00
 -1       825 7.18750E-02 1.87500E-02 0.00000E+00
 -1       826 7.29167E-02 1.87500E-02 0.00000E+00
 -1       827 7.39583E-02 1.87500E-02 0.00000E+00
 -1       828 7.50000E-02 1.87500E-02 0.00000E+00
 -1       829 7.60417E-02 1.87500E-02 0.00000E+00
 -1       830 7.70833E-02 1.87500E-02 0.00000E+00
 -1       831 7.81250E-02 1.87500E-02 0.00000E+00
 -1       832 7.91667E-02 1.87500E-02 0.00000E+00
 -1       833 8.02083E-02 1.87500E-02 0.00000E+00
 -1       834 8.12500E-02 1.87500E-02 0.00000E+00
 -1       835 8.22917E-02 1.87500E-02 0.00000E+00
 -1       836 6.66667E-02 1.97917E-02 0.00000E+00
 -1       837 6.66667E-02 2.08333E-02 0.00000E+00
 -1       838 6.66667E-02 2.18750E-02 0.00000E+00
 -1       839 6.66667E-02 2.29167E-02 0.00000E+00
 -1       840 6.66667E-02 2.39583E-02 0.00000E+00
 -1       856 8.43750E-02 1.87500E-02 0.00000E+00
 -1       857 8.54167E-02 1.87500E-02 0.00000E+00
 -1       858 8.64583E-02 1.87500E-02 0.00000E+00
 -1       859 8.75000E-02 1.87500E-02 0.00000E+00
 -1       860 8.85417E-02 1.87500E-02 0.00000E+00
 -1       861 8.95833E-02 1.87500E-02 0.00000E+00
 -1       862 9.06250E-02 1.87500E-02 0.00000E+00
 -1       863 9.16667E-02 1.87500E-02 0.00000E+00
 -1       864 9.27083E-02 1.87500E-02 0.00000E+00
 -1       865 9.37500E-02 1.87500E-02 0.00000E+00
 -1       866 9.47917E-02 1.87500E-02 0.00000E+00
 -1       867 9.58333E-02 1.87500E-02 0.00000E+00
 -1       868 9.68750E-02 1.87500E-02 0.00000E+00
 -1       869 9.79167E-02 1.87500E-02 0.00000E+00
 -1       870 9.89583E-02 1.87500E-02 0.00000E+00
 -1       871 8.33333E-02 1.97917E-02 0.00000E+00
 -1       872 8.33333E-02 2.08333E-02 0.00000E+00
 -1       873 8.33333E-02 2.18750E-02 0.00000E+00
 -1       874 8.33333E-02 2.29167E-02 0.00000E+00
 -1       875 8.33333E-02 2.39583E-02 0.00000E+00
 -1       876 8.43750E-02 1.91406E-02 0.00000E+00
 -1       877 8.54167E-02 1.95312E-02 0.00000E+00
 -1       878 8.64583E-02 1.99219E-02 0.00000E+00
 -1       879 8.75000E-02 2.03125E-02 0.00000E+00
 -1       880 8.85417E-02 2.07031E-02 0.00000E+00
 -1       881 8.95833E-02 2.10938E-02 0.00000E+00
 -1       882 9.06250E-02 2.14844E-02 0.00000E+00
 -1       883 9.16667E-02 2.18750E-02 0.00000E+00
 -1       884 9.27083E-02 2.22656E-02 0.00000E+00
 -1       885 9.37500E-02 2.26563E-02 0.00000E+00
 -1       886 9.47917E-02 2.30469E-02 0.00000E+00
 -1       887 9.58333E-02 2.34375E-02 0.00000E+00
 -1       888 9.68750E-02 2.38281E-02 0.00000E+00
 -1       889 9.79167E-02 2.42187E-02 0.00000E+00
 -1       890 9.89583E-02 2.46094E-02 0.00000E+00
 -1       891 1.00000E-01 1.97917E-02 0.00000E+00
 -1       892 1.00000E-01 2.08333E-02 0.00000E+00
 -1       893 1.00000E-01 2.18750E-02 0.00000E+00
 -1       894 1.00000E-01 2.29167E-02 0.00000E+00
 -1       895 1.00000E-01 2.39583E-02 0.00000E+00
 -1       956 6.77083E-02 2.50000E-02 0.00000E+00
 -1       957 6.87500E-02 2.50000E-02 0.00000E+00
 -1       958 6.97917E-02 2.50000E-02 0.00000E+00
 -1       959 7.08333E-02 2.50000E-02 0.00000E+00
 -1       960 7.18750E-02 2.50000E-02 0.00000E+00
 -1       961 7.29167E-02 2.50000E-02 0.00000E+00
 -1       962 7.39583E-02 2.50000E-02 0.00000E+00
 -1       963 7.50000E-02 2.50000E-02 0.00000E+00
 -1       964 7.60417E-02 2.50000E-02 0.00000E+00
 -1       965 7.70833E-02 2.50000E-02 0.00000E+00
 -1       966 7.81250E-02 2.50000E-02 0.00000E+00
 -1       967 7.91667E-02 2.50000E-02 0.00000E+00
 -1       968 8.02083E-02 2.50000E-02 0.00000E+00
 -1       969 8.12500E-02 2.50000E-02 0.00000E+00
 -1       970 8.22917E-02 2.50000E-02 0.00000E+00
 -1       971 8.43750E-02 2.50000E-02 0.00000E+00
 -1       972 8.54167E-02 2.50000E-02 0.00000E+00
 -1       973 8.64583E-02 2.50000E-02 0.00000E+00
 -1       974 8.75000E-02 2.50000E-02 0.00000E+00
 -1       975 8.85417E-02 2.50000E-02 0.00000E+00
 -1       976 8.95833E-02 2.50000E-02 0.00000E+00
 -1       977 9.06250E-02 2.50000E-02 0.00000E+00
 -1       978 9.16667E-02 2.50000E-02 0.00000E+00
 -1       979 9.27083E-02 2.50000E-02 0.00000E+00
 -1       980 9.37500E-02 2.50000E-02 0.00000E+00
 -1       981 9.47917E-02 2.50000E-02 0.00000E+00
 -1       982 9.58333E-02 2.50000E-02 0.00000E+00
 -1       983 9.68750E-02 2.50000E-02 0.00000E+00
 -1       984 9.79167E-02 2.50000E-02 0.00000E+00
 -1       985 9.89583E-02 2.50000E-02 0.00000E+00
 -3
    3C                           203                                     1
 -1         1   12    0    1
 -2         1        52        51
 -1         2   12    0    1
 -2        52        54        53
 -1         3   12    0    1
 -2        54         8        55
 -1         4   12    0    1
 -2         1        57        56
 -1         5   12    0    1
 -2        57        59        58
 -1         6   12    0    1
 -2        59        61        60
 -1         7   12    0    1
 -2        61        63        62
 -1         8   12    0    1
 -2        63        65        64
 -1         9   12    0    1
 -2        65        67        66
 -1        10   12    0    1
 -2        67        69        68
 -1        11   12    0    1
 -2        69         9        70
 -1        12   12    0    1
 -2         2        87        86
 -1        13   12    0    1
 -2        87        89        88
 -1        14   12    0    1
 -2        89         9        90
 -1        15   12    0    1
 -2         3       122       121
 -1        16   12    0    1
 -2       122       124       123
 -1        17   12    0    1
 -2       124        10       125
 -1        18   12    0    1
 -2         5       192       191
 -1        19   12    0    1
 -2       192       194       193
 -1        20   12    0    1
 -2       194        12       195
 -1        21   12    0    1
 -2         8       267       266
 -1        22   12    0    1
 -2       267       269       268
 -1        23   12    0    1
 -2       269        15       270
 -1        24   12    0    1
 -2         8       272       271
 -1        25   12    0    1
 -2       272       274       273
 -1        26   12    0    1
 -2       274       276       275
 -1        27   12    0    1
 -2       276       278       277
 -1        28   12    0    1
 -2       278       280       279
 -1        29   12    0    1
 -2       280       282       281
 -1        30   12    0    1
 -2       282       284       283
 -1        31   12    0    1
 -2       284        16       285
 -1        32   12    0    1
 -2         9       302       301
 -1        33   12    0    1
 -2       302       304       303
 -1        34   12    0    1
 -2       304        16       305
 -1        35   12    0    1
 -2         9       307       306
 -1        36   12    0    1
 -2       307       309       308
 -1        37   12    0    1
 -2       309       311       310
 -1        38   12    0    1
 -2       311       313       312
 -1        39   12    0    1
 -2       313       315       314
 -1        40   12    0    1
 -2       315       317       316
 -1        41   12    0    1
 -2       317       319       318
 -1        42   12    0    1
 -2       319        17       320
 -1        43   12    0    1
 -2        10       337       336
 -1        44   12    0    1
 -2       337       339       338
 -1        45   12    0    1
 -2       339        17       340
 -1        46   12    0    1
 -2        12       407       406
 -1        47   12    0    1
 -2       407       409       408
 -1        48   12    0    1
 -2       409        19       410
 -1        49   12    0    1
 -2        16       522       521
 -1        50   12    0    1
 -2       522       524       523
 -1        51   12    0    1
 -2       524       526       525
 -1        52   12    0    1
 -2       526       528       527
 -1        53   12    0    1
 -2       528       530       529
 -1        54   12    0    1
 -2       530       532       531
 -1        55   12    0    1
 -2       532       534       533
 -1        56   12    0    1
 -2       534        24       535
 -1        57   12    0    1
 -2        17       537       536
 -1        58   12    0    1
 -2       537       539       538
 -1        59   12    0    1
 -2       539       541       540
 -1        60   12    0    1
 -2       541       543       542
 -1        61   12    0    1
 -2       543       545       544
 -1        62   12    0    1
 -2       545       547       546
 -1        63   12    0    1
 -2       547       549       548
 -1        64   12    0    1
 -2       549        18       550
 -1        65   12    0    1
 -2        17       552       551
 -1        66   12    0    1
 -2       552       554       553
 -1        67   12    0    1
 -2       554        24       555
 -1        68   12    0    1
 -2        17       557       556
 -1        69   12    0    1
 -2       557       559       558
 -1        70   12    0    1
 -2       559       561       560
 -1        71   12    0    1
 -2       561       563       562
 -1        72   12    0    1
 -2       563       565       564
 -1        73   12    0    1
 -2       565       567       566
 -1        74   12    0    1
 -2       567       569       568
 -1        75   12    0    1
 -2       569        25       570
 -1        76   12    0    1
 -2        18       572       571
 -1        77   12    0    1
 -2       572       574       573
 -1        78   12    0    1
 -2       574       576       575
 -1        79   12    0    1
 -2       576       578       577
 -1        80   12    0    1
 -2       578       580       579
 -1        81   12    0    1
 -2       580       582       581
 -1        82   12    0    1
 -2       582       584       583
 -1        83   12    0    1
 -2       584        19       585
 -1        84   12    0    1
 -2        18       587       586
 -1        85   12    0    1
 -2       587       589       588
 -1        86   12    0    1
 -2       589        25       590
 -1        87   12    0    1
 -2        18       592       591
 -1        88   12    0    1
 -2       592       594       593
 -1        89   12    0    1
 -2       594       596       595
 -1        90   12    0    1
 -2       596       598       597
 -1        91   12    0    1
 -2       598       600       599
 -1        92   12    0    1
 -2       600       602       601
 -1        93   12    0    1
 -2       602       604       603
 -1        94   12    0    1
 -2       604        26       605
 -1        95   12    0    1
 -2        19       607       606
 -1        96   12    0    1
 -2       607       609       608
 -1        97   12    0    1
 -2       609       611       610
 -1        98   12    0    1
 -2       611       613       612
 -1        99   12    0    1
 -2       613       615       614
 -1       100   12    0    1
 -2       615       617       616
 -1       101   12    0    1
 -2       617       619       618
 -1       102   12    0    1
 -2       619        20       620
 -1       103   12    0    1
 -2        19       622       621
 -1       104   12    0    1
 -2       622       624       623
 -1       105   12    0    1
 -2       624        26       625
 -1       106   12    0    1
 -2        19       627       626
 -1       107   12    0    1
 -2       627       629       628
 -1       108   12    0    1
 -2       629       631       630
 -1       109   12    0    1
 -2       631       633       632
 -1       110   12    0    1
 -2       633       635       634
 -1       111   12    0    1
 -2       635       637       636
 -1       112   12    0    1
 -2       637       639       638
 -1       113   12    0    1
 -2       639        27       640
 -1       114   12    0    1
 -2        20       657       656
 -1       115   12    0    1
 -2       657       659       658
 -1       116   12    0    1
 -2       659        27       660
 -1       117   12    0    1
 -2        20       662       661
 -1       118   12    0    1
 -2       662       664       663
 -1       119   12    0    1
 -2       664       666       665
 -1       120   12    0    1
 -2       666       668       667
 -1       121   12    0    1
 -2       668       670       669
 -1       122   12    0    1
 -2       670       672       671
 -1       123   12    0    1
 -2       672       674       673
 -1       124   12    0    1
 -2       674        28       675
 -1       125   12    0    1
 -2        21       677       676
 -1       126   12    0    1
 -2       677       679       678
 -1       127   12    0    1
 -2       679        28       680
 -1       128   12    0    1
 -2        24       772       771
 -1       129   12    0    1
 -2       772       774       773
 -1       130   12    0    1
 -2       774       776       775
 -1       131   12    0    1
 -2       776       778       777
 -1       132   12    0    1
 -2       778       780       779
 -1       133   12    0    1
 -2       780       782       781
 -1       134   12    0    1
 -2       782       784       783
 -1       135   12    0    1
 -2       784        32       785
 -1       136   12    0    1
 -2        25       787       786
 -1       137   12    0    1
 -2       787       789       788
 -1       138   12    0    1
 -2       789       791       790
 -1       139   12    0    1
 -2       791       793       792
 -1       140   12    0    1
 -2       793       795       794
 -1       141   12    0    1
 -2       795       797       796
 -1       142   12    0    1
 -2       797       799       798
 -1       143   12    0    1
 -2       799        26       800
 -1       144   12    0    1
 -2        25       802       801
 -1       145   12    0    1
 -2       802       804       803
 -1       146   12    0    1
 -2       804        32       805
 -1       147   12    0    1
 -2        25       807       806
 -1       148   12    0    1
 -2       807       809       808
 -1       149   12    0    1
 -2       809       811       810
 -1       150   12    0    1
 -2       811       813       812
 -1       151   12    0    1
 -2       813       815       814
 -1       152   12    0    1
 -2       815       817       816
 -1       153   12    0    1
 -2       817       819       818
 -1       154   12    0    1
 -2       819        33       820
 -1       155   12    0    1
 -2        26       822       821
 -1       156   12    0    1
 -2       822       824       823
 -1       157   12    0    1
 -2       824       826       825
 -1       158   12    0    1
 -2       826       828       827
 -1       159   12    0    1
 -2       828       830       829
 -1       160   12    0    1
 -2       830       832       831
 -1       161   12    0    1
 -2       832       834       833
 -1       162   12    0    1
 -2       834        27       835
 -1       163   12    0    1
 -2        26       837       836
 -1       164   12    0    1
 -2       837       839       838
 -1       165   12    0    1
 -2       839        33       840
 -1       166   12    0    1
 -2        27       857       856
 -1       167   12    0    1
 -2       857       859       858
 -1       168   12    0    1
 -2       859       861       860
 -1       169   12    0    1
 -2       861       863       862
 -1       170   12    0    1
 -2       863       865       864
 -1       171   12    0    1
 -2       865       867       866
 -1       172   12    0    1
 -2       867       869       868
 -1       173   12    0    1
 -2       869        28       870
 -1       174   12    0    1
 -2        27       872       871
 -1       175   12    0    1
 -2       872       874       873
 -1       176   12    0    1
 -2       874        34       875
 -1       177   12    0    1
 -2        27       877       876
 -1       178   12    0    1
 -2       877       879       878
 -1       179   12    0    1
 -2       879       881       880
 -1       180   12    0    1
 -2       881       883       882
 -1       181   12    0    1
 -2       883       885       884
 -1       182   12    0    1
 -2       885       887       886
 -1       183   12    0    1
 -2       887       889       888
 -1       184   12    0    1
 -2       889        35       890
 -1       185   12    0    1
 -2        28       892       891
 -1       186   12    0    1
 -2       892       894       893
 -1       187   12    0    1
 -2       894        35       895
 -1       188   12    0    1
 -2        33       957       956
 -1       189   12    0    1
 -2       957       959       958
 -1       190   12    0    1
 -2       959       961       960
 -1       191   12    0    1
 -2       961       963       962
 -1       192   12    0    1
 -2       963       965       964
 -1       193   12    0    1
 -2       965       967       966
 -1       194   12    0    1
 -2       967       969       968
 -1       195   12    0    1
 -2       969        34       970
 -1       196   12    0    1
 -2        34       972       971
 -1       197   12    0    1
 -2       972       974       973
 -1       198   12    0    1
 -2       974       976       975
 -1       199   12    0    1
 -2       976       978       977
 -1       200   12    0    1
 -2       978       980       979
 -1       201   12    0    1
 -2       980       982       981
 -1       202   12    0    1
 -2       982       984       983
 -1       203   12    0    1
 -2       984        35       985
 -3
    1PSTEP                         1           1           1          
  100CL  101 1.000000000         394                     0    1           1
 -4  DISP        4    1
 -5  D1          1    2    1    0
 -5  D2          1    2    2    0
 -5  D3          1    2    3    0
 -5  ALL         1    2    0    0    1ALL
 -1         1 1.78769E-04 0.00000E+00 0.00000E+00
 -1         2 1.05399E-04 3.18485E-31 0.00000E+00
 -1         3 1.14303E-04-1.65484E-26 1.32349E-23
 -1         5 8.53731E-05 2.67736E-25-6.61744E-24
 -1         8 1.44497E-04-1.59274E-06 0.00000E+00
 -1         9 1.06486E-04-1.49847E-06 0.00000E+00
 -1        10 1.05591E-04-2.94665E-06 6.61744E-24
 -1        12 8.41189E-05 1.19412E-06 3.30872E-24
 -1        15 1.06559E-04-1.75340E-06-4.13590E-25
 -1        16 8.55492E-05-1.71157E-06 0.00000E+00
 -1        17 7.84069E-05-6.20776E-06 0.00000E+00
 -1        18 7.82772E-05-4.66638E-07 0.00000E+00
 -1        19 8.03543E-05 2.37990E-06 0.00000E+00
 -1        20 8.10355E-05 2.86040E-05 0.00000E+00
 -1        21 7.98317E-05 6.25220E-05 0.00000E+00
 -1        24 2.79192E-05-7.73964E-06 0.00000E+00
 -1        25 7.37100E-05-1.16522E-07 0.00000E+00
 -1        26 7.54583E-05 3.21205E-06 0.00000E+00
 -1        27 7.32211E-05 2.72581E-05 0.00000E+00
 -1        28 7.14033E-05 6.14767E-05 0.00000E+00
 -1        32 0.00000E+00 0.00000E+00 0.00000E+00
 -1        33 6.97359E-05 4.32878E-06 0.00000E+00
 -1        34 6.72283E-05 2.71502E-05 0.00000E+00
 -1        35 6.40121E-05 6.09791E-05 0.00000E+00
 -1        51 1.76285E-04-2.61894E-07 0.00000E+00
 -1        52 1.72048E-04-5.16767E-07 0.00000E+00
 -1        53 1.66396E-04-7.73524E-07 0.00000E+00
 -1        54 1.59683E-04-1.03540E-06 6.61744E-24
 -1        55 1.52264E-04-1.30469E-06-5.79026E-24
 -1        56 1.74569E-04-5.02033E-07 5.29396E-23
 -1        57 1.69533E-04 7.65261E-07-5.29396E-23
 -1        58 1.64090E-04 3.13996E-06 1.05879E-22
 -1        59 1.58528E-04 5.74653E-06 0.00000E+00
 -1        60 1.53241E-04 7.62700E-06 0.00000E+00
 -1        61 1.48555E-04 7.90290E-06-5.29396E-23
 -1        62 1.44531E-04 6.41808E-06 0.00000E+00
 -1        63 1.41140E-04 3.23683E-06-5.29396E-23
 -1        64 1.38073E-04-8.11719E-07 0.00000E+00
 -1        65 1.34980E-04-4.78812E-06 0.00000E+00
 -1        66 1.31522E-04-7.78566E-06-1.05879E-22
 -1        67 1.27409E-04-9.02048E-06-5.29396E-23
 -1        68 1.22638E-04-8.50435E-06 0.00000E+00
 -1        69 1.17318E-04-6.45929E-06-5.29396E-23
 -1        70 1.11759E-04-3.81295E-06 5.29396E-23
 -1        86 1.06591E-04-2.43150E-07 6.61744E-24
 -1        87 1.10157E-04-4.92141E-07 3.30872E-24
 -1        88 1.13100E-04-7.39571E-07-6.61744E-24
 -1        89 1.12433E-04-9.85895E-07 0.00000E+00
 -1        90 1.09704E-04-1.23402E-06 0.00000E+00
 -1       121 1.14058E-04-4.89582E-07-1.32349E-23
 -1       122 1.13324E-04-9.79408E-07 0.00000E+00
 -1       123 1.12104E-04-1.46971E-06 1.32349E-23
 -1       124 1.10404E-04-1.96081E-06-6.61744E-24
 -1       125 1.08230E-04-2.45275E-06-1.32349E-23
 -1       191 8.53383E-05 1.99056E-07 0.00000E+00
 -1       192 8.52338E-05 3.98105E-07 3.30872E-24
 -1       193 8.50596E-05 5.97145E-07-6.61744E-24
 -1       194 8.48158E-05 7.96167E-07 0.00000E+00
 -1       195 8.45022E-05 9.95163E-07 0.00000E+00
 -1       266 1.38174E-04-1.64224E-06 0.00000E+00
 -1       267 1.31851E-04-1.66624E-06 0.00000E+00
 -1       268 1.25528E-04-1.69188E-06 0.00000E+00
 -1       269 1.19205E-04-1.71271E-06 0.00000E+00
 -1       270 1.12882E-04-1.73344E-06 0.00000E+00
 -1       271 1.39188E-04 3.01816E-06 0.00000E+00
 -1       272 1.34185E-04 6.49651E-06 5.29396E-23
 -1       273 1.29611E-04 8.85755E-06 0.00000E+00
 -1       274 1.25435E-04 1.01146E-05 5.29396E-23
 -1       275 1.21644E-04 1.03484E-05 1.05879E-22
 -1       276 1.18189E-04 9.67815E-06-5.29396E-23
 -1       277 1.15011E-04 8.26859E-06 0.00000E+00
 -1       278 1.12035E-04 6.31613E-06 0.00000E+00
 -1       279 1.09180E-04 4.04402E-06 1.05879E-22
 -1       280 1.06355E-04 1.68957E-06 5.29396E-23
 -1       281 1.03472E-04-5.06226E-07 0.00000E+00
 -1       282 1.00444E-04-2.30869E-06 5.29396E-23
 -1       283 9.71896E-05-3.50344E-06-1.05879E-22
 -1       284 9.36510E-05-3.89733E-06 5.29396E-23
 -1       285 8.97530E-05-3.34770E-06-5.29396E-23
 -1       301 1.02989E-04-1.54573E-06 0.00000E+00
 -1       302 9.94762E-05-1.56762E-06 3.30872E-24
 -1       303 9.59609E-05-1.58678E-06 0.00000E+00
 -1       304 9.24584E-05-1.60819E-06 3.30872E-24
 -1       305 8.89830E-05-1.63663E-06 0.00000E+00
 -1       306 1.03857E-04 6.58915E-07 2.64698E-23
 -1       307 1.01667E-04 1.51987E-06-2.64698E-23
 -1       308 9.99004E-05 1.25892E-06 0.00000E+00
 -1       309 9.84795E-05 5.62928E-08 2.64698E-23
 -1       310 9.73320E-05-1.87915E-06 0.00000E+00
 -1       311 9.63737E-05-4.32468E-06 0.00000E+00
 -1       312 9.55173E-05-7.04423E-06 0.00000E+00
 -1       313 9.46728E-05-9.79608E-06 0.00000E+00
 -1       314 9.37497E-05-1.23374E-05 0.00000E+00
 -1       315 9.26596E-05-1.44303E-05 2.64698E-23
 -1       316 9.13174E-05-1.58479E-05-5.29396E-23
 -1       317 8.96445E-05-1.63784E-05 2.64698E-23
 -1       318 8.75680E-05-1.58325E-05 5.29396E-23
 -1       319 8.50320E-05-1.40417E-05 0.00000E+00
 -1       320 8.19729E-05-1.08751E-05 2.64698E-23
 -1       336 1.02430E-04-3.48624E-06 0.00000E+00
 -1       337 9.86902E-05-4.02851E-06-6.61744E-24
 -1       338 9.43932E-05-4.57272E-06 0.00000E+00
 -1       339 8.95622E-05-5.11804E-06 0.00000E+00
 -1       340 8.42236E-05-5.66605E-06-1.32349E-23
 -1       406 8.36659E-05 1.39303E-06 6.61744E-24
 -1       407 8.31430E-05 1.59182E-06 0.00000E+00
 -1       408 8.25503E-05 1.79043E-06-6.61744E-24
 -1       409 8.18878E-05 1.98858E-06 0.00000E+00
 -1       410 8.11556E-05 2.18578E-06 0.00000E+00
 -1       521 8.13298E-05-1.70502E-07 0.00000E+00
 -1       522 7.74714E-05 1.31258E-07 0.00000E+00
 -1       523 7.40246E-05-6.50323E-07 1.05879E-22
 -1       524 7.09068E-05-2.35348E-06-5.29396E-23
 -1       525 6.80507E-05-4.75934E-06 1.05879E-22
 -1       526 6.53627E-05-7.62319E-06 5.29396E-23
 -1       527 6.27449E-05-1.06762E-05 1.05879E-22
 -1       528 6.00941E-05-1.36421E-05 0.00000E+00
 -1       529 5.73091E-05-1.62486E-05 1.05879E-22
 -1       530 5.42943E-05-1.82394E-05 5.29396E-23
 -1       531 5.09650E-05-1.93893E-05 0.00000E+00
 -1       532 4.72517E-05-1.95095E-05 0.00000E+00
 -1       533 4.31002E-05-1.84638E-05 1.05879E-22
 -1       534 3.84906E-05-1.61622E-05 5.29396E-23
 -1       535 3.33939E-05-1.25885E-05 0.00000E+00
 -1       536 7.83722E-05-8.63570E-07-6.61744E-24
 -1       537 7.83567E-05 3.19602E-06 0.00000E+00
 -1       538 7.83447E-05 6.10318E-06 0.00000E+00
 -1       539 7.83373E-05 7.99089E-06 0.00000E+00
 -1       540 7.83313E-05 8.99196E-06 0.00000E+00
 -1       541 7.83262E-05 9.23937E-06 0.00000E+00
 -1       542 7.83213E-05 8.86611E-06 0.00000E+00
 -1       543 7.83161E-05 8.00522E-06 2.06795E-25
 -1       544 7.83107E-05 6.78976E-06 0.00000E+00
 -1       545 7.83050E-05 5.35282E-06 0.00000E+00
 -1       546 7.82992E-05 3.82750E-06 0.00000E+00
 -1       547 7.82936E-05 2.34691E-06 2.58494E-26
 -1       548 7.82882E-05 1.04414E-06 0.00000E+00
 -1       549 7.82835E-05 5.22630E-08 0.00000E+00
 -1       550 7.82791E-05-4.95579E-07 0.00000E+00
 -1       551 7.09210E-05-6.45000E-06-1.65436E-24
 -1       552 6.25271E-05-6.69383E-06 2.89513E-24
 -1       553 5.36244E-05-6.94180E-06 6.61744E-24
 -1       554 4.46191E-05-7.19414E-06 0.00000E+00
 -1       555 3.59170E-05-7.45055E-06 0.00000E+00
 -1       556 7.63055E-05-1.07689E-06 0.00000E+00
 -1       557 7.46648E-05 2.86882E-06 0.00000E+00
 -1       558 7.34335E-05 5.73875E-06-2.64698E-23
 -1       559 7.25647E-05 7.65233E-06 0.00000E+00
 -1       560 7.20118E-05 8.72901E-06 0.00000E+00
 -1       561 7.17286E-05 9.08918E-06 0.00000E+00
 -1       562 7.16693E-05 8.85347E-06 0.00000E+00
 -1       563 7.17881E-05 8.14271E-06 6.61744E-24
 -1       564 7.20395E-05 7.07790E-06 0.00000E+00
 -1       565 7.23780E-05 5.78012E-06 0.00000E+00
 -1       566 7.27584E-05 4.37055E-06-3.30872E-24
 -1       567 7.31354E-05 2.97040E-06 8.27181E-25
 -1       568 7.34637E-05 1.70084E-06 2.48154E-24
 -1       569 7.36983E-05 6.82906E-07 8.27181E-25
 -1       570 7.37940E-05 3.75404E-08 0.00000E+00
 -1       571 7.84025E-05-2.20707E-07 2.48154E-24
 -1       572 7.85312E-05-5.91068E-08-1.24077E-24
 -1       573 7.86608E-05 3.35506E-08 1.65436E-24
 -1       574 7.87909E-05 7.34419E-08-8.27181E-25
 -1       575 7.89211E-05 7.68121E-08-3.30872E-24
 -1       576 7.90515E-05 6.00113E-08 0.00000E+00
 -1       577 7.91818E-05 3.93979E-08 0.00000E+00
 -1       578 7.93122E-05 3.13443E-08 0.00000E+00
 -1       579 7.94426E-05 5.22242E-08 0.00000E+00
 -1       580 7.95730E-05 1.18413E-07 0.00000E+00
 -1       581 7.97033E-05 2.46284E-07 0.00000E+00
 -1       582 7.98337E-05 4.52198E-07 3.30872E-24
 -1       583 7.99640E-05 7.52499E-07 0.00000E+00
 -1       584 8.00942E-05 1.16337E-06 0.00000E+00
 -1       585 8.02244E-05 1.70089E-06 6.61744E-24
 -1       586 7.76125E-05-4.06976E-07-3.30872E-24
 -1       587 7.68407E-05-3.47151E-07 0.00000E+00
 -1       588 7.60126E-05-2.87462E-07-1.65436E-24
 -1       589 7.51804E-05-2.28310E-07 1.03398E-25
 -1       590 7.43959E-05-1.70281E-07 0.00000E+00
 -1       591 7.80850E-05-1.74430E-07 0.00000E+00
 -1       592 7.79095E-05 5.49641E-08 0.00000E+00
 -1       593 7.77518E-05 2.34383E-07 3.30872E-24
 -1       594 7.76079E-05 3.75258E-07 1.65436E-24
 -1       595 7.74739E-05 4.89077E-07-3.30872E-24
 -1       596 7.73457E-05 5.87236E-07-1.65436E-24
 -1       597 7.72191E-05 6.81122E-07 1.65436E-24
 -1       598 7.70897E-05 7.82111E-07-8.27181E-25
 -1       599 7.69535E-05 9.01575E-07-1.65436E-24
 -1       600 7.68060E-05 1.05089E-06 8.27181E-25
 -1       601 7.66431E-05 1.24141E-06-1.65436E-24
 -1       602 7.64607E-05 1.48452E-06 4.13590E-25
 -1       603 7.62543E-05 1.79160E-06 0.00000E+00
 -1       604 7.60204E-05 2.17410E-06-4.13590E-25
 -1       605 7.57548E-05 2.64341E-06-8.27181E-25
 -1       606 8.04027E-05 3.32418E-06 0.00000E+00
 -1       607 8.04473E-05 4.40273E-06 0.00000E+00
 -1       608 8.04909E-05 5.60761E-06 0.00000E+00
 -1       609 8.05338E-05 6.92982E-06 0.00000E+00
 -1       610 8.05764E-05 8.36030E-06 0.00000E+00
 -1       611 8.06188E-05 9.88983E-06 0.00000E+00
 -1       612 8.06610E-05 1.15092E-05 3.30872E-24
 -1       613 8.07031E-05 1.32092E-05-1.65436E-24
 -1       614 8.07451E-05 1.49806E-05 3.30872E-24
 -1       615 8.07869E-05 1.68141E-05 0.00000E+00
 -1       616 8.08287E-05 1.87005E-05-3.30872E-24
 -1       617 8.08704E-05 2.06307E-05 0.00000E+00
 -1       618 8.09120E-05 2.25953E-05-1.65436E-24
 -1       619 8.09534E-05 2.45852E-05-8.27181E-25
 -1       620 8.09947E-05 2.65912E-05-1.65436E-24
 -1       621 7.94894E-05 2.51932E-06-3.30872E-24
 -1       622 7.86275E-05 2.65920E-06 0.00000E+00
 -1       623 7.77810E-05 2.79903E-06 0.00000E+00
 -1       624 7.69624E-05 2.93849E-06 1.65436E-24
 -1       625 7.61841E-05 3.07729E-06 1.65436E-24
 -1       626 8.01146E-05 3.38965E-06 0.00000E+00
 -1       627 7.98221E-05 4.53894E-06 0.00000E+00
 -1       628 7.94820E-05 5.81453E-06 0.00000E+00
 -1       629 7.90998E-05 7.20197E-06 0.00000E+00
 -1       630 7.86810E-05 8.68677E-06 6.61744E-24
 -1       631 7.82310E-05 1.02543E-05 0.00000E+00
 -1       632 7.77553E-05 1.18899E-05 0.00000E+00
 -1       633 7.72596E-05 1.35790E-05 0.00000E+00
 -1       634 7.67491E-05 1.53068E-05-3.30872E-24
 -1       635 7.62296E-05 1.70589E-05 0.00000E+00
 -1       636 7.57064E-05 1.88204E-05 3.30872E-24
 -1       637 7.51851E-05 2.05769E-05 0.00000E+00
 -1       638 7.46711E-05 2.23136E-05 0.00000E+00
 -1       639 7.41695E-05 2.40159E-05 0.00000E+00
 -1       640 7.36854E-05 2.56691E-05-1.65436E-24
 -1       656 7.92945E-05 2.83858E-05 0.00000E+00
 -1       657 7.79063E-05 2.81577E-05 0.00000E+00
 -1       658 7.67384E-05 2.79304E-05 0.00000E+00
 -1       659 7.56573E-05 2.77032E-05 0.00000E+00
 -1       660 7.45294E-05 2.74754E-05 0.00000E+00
 -1       661 8.04223E-05 3.06743E-05 0.00000E+00
 -1       662 7.97892E-05 3.28130E-05 0.00000E+00
 -1       663 7.91365E-05 3.50033E-05 0.00000E+00
 -1       664 7.84706E-05 3.72308E-05 0.00000E+00
 -1       665 7.77964E-05 3.94805E-05 3.30872E-24
 -1       666 7.71195E-05 4.17378E-05 0.00000E+00
 -1       667 7.64453E-05 4.39880E-05 0.00000E+00
 -1       668 7.57794E-05 4.62164E-05 1.65436E-24
 -1       669 7.51272E-05 4.84082E-05 0.00000E+00
 -1       670 7.44944E-05 5.05488E-05-1.65436E-24
 -1       671 7.38864E-05 5.26234E-05 0.00000E+00
 -1       672 7.33087E-05 5.46169E-05 1.65436E-24
 -1       673 7.27669E-05 5.65145E-05 0.00000E+00
 -1       674 7.22658E-05 5.83008E-05 0.00000E+00
 -1       675 7.18123E-05 5.99610E-05 0.00000E+00
 -1       676 7.84165E-05 6.23464E-05 0.00000E+00
 -1       677 7.70032E-05 6.21709E-05-3.30872E-24
 -1       678 7.55934E-05 6.19955E-05 0.00000E+00
 -1       679 7.41890E-05 6.18209E-05 1.65436E-24
 -1       680 7.27917E-05 6.16462E-05 3.30872E-24
 -1       771 2.43246E-05-2.32443E-06 5.29396E-23
 -1       772 2.11259E-05 2.01062E-06 2.64698E-23
 -1       773 1.83036E-05 5.34949E-06 0.00000E+00
 -1       774 1.58236E-05 7.78056E-06 0.00000E+00
 -1       775 1.36526E-05 9.39339E-06 0.00000E+00
 -1       776 1.17553E-05 1.02796E-05 0.00000E+00
 -1       777 1.00967E-05 1.05317E-05 5.29396E-23
 -1       778 8.64100E-06 1.02437E-05-2.64698E-23
 -1       779 7.35249E-06 9.51027E-06 0.00000E+00
 -1       780 6.19510E-06 8.42712E-06-2.64698E-23
 -1       781 5.13276E-06 7.09044E-06 0.00000E+00
 -1       782 4.12936E-06 5.59703E-06 0.00000E+00
 -1       783 3.14877E-06 4.04385E-06 5.29396E-23
 -1       784 2.15563E-06 2.52822E-06-2.64698E-23
 -1       785 1.11422E-06 1.14729E-06 0.00000E+00
 -1       786 7.38127E-05 2.31629E-07 8.27181E-25
 -1       787 7.39217E-05 4.90100E-07 8.27181E-25
 -1       788 7.40306E-05 6.74241E-07-3.30872E-24
 -1       789 7.41404E-05 7.99347E-07-1.65436E-24
 -1       790 7.42504E-05 8.80620E-07 0.00000E+00
 -1       791 7.43606E-05 9.33208E-07 0.00000E+00
 -1       792 7.44708E-05 9.72216E-07-3.30872E-24
 -1       793 7.45811E-05 1.01273E-06-1.65436E-24
 -1       794 7.46913E-05 1.06985E-06 0.00000E+00
 -1       795 7.48016E-05 1.15868E-06 1.65436E-24
 -1       796 7.49118E-05 1.29438E-06 3.30872E-24
 -1       797 7.50220E-05 1.49217E-06 1.65436E-24
 -1       798 7.51321E-05 1.76736E-06 0.00000E+00
 -1       799 7.52417E-05 2.13535E-06-1.65436E-24
 -1       800 7.53513E-05 2.61170E-06-3.30872E-24
 -1       801 6.77150E-05-2.91427E-08 0.00000E+00
 -1       802 5.39331E-05-3.36944E-09 0.00000E+00
 -1       803 3.63177E-05-2.97975E-08 0.00000E+00
 -1       804 1.88218E-05-6.13542E-08 0.00000E+00
 -1       805 5.39733E-06-3.81640E-08 0.00000E+00
 -1       806 7.34618E-05 1.75066E-07 0.00000E+00
 -1       807 7.32274E-05 4.18563E-07 1.65436E-24
 -1       808 7.30060E-05 6.24322E-07 0.00000E+00
 -1       809 7.27946E-05 8.02211E-07 0.00000E+00
 -1       810 7.25899E-05 9.62072E-07 3.30872E-24
 -1       811 7.23881E-05 1.11371E-06-1.65436E-24
 -1       812 7.21857E-05 1.26691E-06-3.30872E-24
 -1       813 7.19790E-05 1.43145E-06 1.65436E-24
 -1       814 7.17644E-05 1.61714E-06 0.00000E+00
 -1       815 7.15382E-05 1.83374E-06 1.65436E-24
 -1       816 7.12967E-05 2.09104E-06-1.65436E-24
 -1       817 7.10364E-05 2.39880E-06 0.00000E+00
 -1       818 7.07534E-05 2.76678E-06-3.30872E-24
 -1       819 7.04444E-05 3.20471E-06 4.13590E-25
 -1       820 7.01060E-05 3.72227E-06 1.65436E-24
 -1       821 7.53270E-05 3.98489E-06 0.00000E+00
 -1       822 7.51878E-05 4.94916E-06 0.00000E+00
 -1       823 7.50485E-05 6.08547E-06 3.30872E-24
 -1       824 7.49079E-05 7.37402E-06 0.00000E+00
 -1       825 7.47669E-05 8.79479E-06 0.00000E+00
 -1       826 7.46255E-05 1.03275E-05 1.65436E-24
 -1       827 7.44840E-05 1.19517E-05-3.30872E-24
 -1       828 7.43423E-05 1.36467E-05 0.00000E+00
 -1       829 7.42005E-05 1.53919E-05-3.30872E-24
 -1       830 7.40587E-05 1.71663E-05-1.65436E-24
 -1       831 7.39169E-05 1.89490E-05-3.30872E-24
 -1       832 7.37754E-05 2.07192E-05-1.65436E-24
 -1       833 7.36340E-05 2.24560E-05 3.30872E-24
 -1       834 7.34940E-05 2.41386E-05-1.65436E-24
 -1       835 7.33538E-05 2.57461E-05 0.00000E+00
 -1       836 7.46491E-05 3.39596E-06-3.30872E-24
 -1       837 7.36890E-05 3.58564E-06 0.00000E+00
 -1       838 7.26476E-05 3.77509E-06 0.00000E+00
 -1       839 7.15951E-05 3.96376E-06 0.00000E+00
 -1       840 7.06013E-05 4.15224E-06-1.65436E-24
 -1       856 7.31152E-05 2.88488E-05-1.65436E-24
 -1       857 7.30026E-05 3.06672E-05 0.00000E+00
 -1       858 7.28896E-05 3.26807E-05 3.30872E-24
 -1       859 7.27754E-05 3.48562E-05 1.65436E-24
 -1       860 7.26608E-05 3.71604E-05-3.30872E-24
 -1       861 7.25458E-05 3.95602E-05 1.65436E-24
 -1       862 7.24306E-05 4.20222E-05 0.00000E+00
 -1       863 7.23153E-05 4.45130E-05 0.00000E+00
 -1       864 7.22000E-05 4.69993E-05 3.30872E-24
 -1       865 7.20848E-05 4.94476E-05 0.00000E+00
 -1       866 7.19698E-05 5.18246E-05 3.30872E-24
 -1       867 7.18551E-05 5.40969E-05 0.00000E+00
 -1       868 7.17407E-05 5.62313E-05-3.30872E-24
 -1       869 7.16270E-05 5.81947E-05 1.65436E-24
 -1       870 7.15137E-05 5.99540E-05 0.00000E+00
 -1       871 7.20255E-05 2.72436E-05 0.00000E+00
 -1       872 7.10025E-05 2.72269E-05 0.00000E+00
 -1       873 7.00823E-05 2.72097E-05 1.65436E-24
 -1       874 6.91938E-05 2.71918E-05 0.00000E+00
 -1       875 6.82659E-05 2.71732E-05-8.27181E-25
 -1       876 7.28228E-05 2.88762E-05 0.00000E+00
 -1       877 7.23731E-05 3.06511E-05-3.30872E-24
 -1       878 7.18725E-05 3.25613E-05 6.61744E-24
 -1       879 7.13291E-05 3.45877E-05 0.00000E+00
 -1       880 7.07495E-05 3.67108E-05 6.61744E-24
 -1       881 7.01408E-05 3.89113E-05 0.00000E+00
 -1       882 6.95101E-05 4.11702E-05 0.00000E+00
 -1       883 6.88646E-05 4.34683E-05 0.00000E+00
 -1       884 6.82114E-05 4.57867E-05 0.00000E+00
 -1       885 6.75578E-05 4.81064E-05 0.00000E+00
 -1       886 6.69108E-05 5.04083E-05 0.00000E+00
 -1       887 6.62774E-05 5.26734E-05 0.00000E+00
 -1       888 6.56649E-05 5.48826E-05 6.61744E-24
 -1       889 6.50794E-05 5.70164E-05 0.00000E+00
 -1       890 6.45292E-05 5.90561E-05 1.65436E-24
 -1       891 7.01716E-05 6.13943E-05 0.00000E+00
 -1       892 6.90731E-05 6.13108E-05-8.27181E-25
 -1       893 6.80078E-05 6.12275E-05-1.65436E-24
 -1       894 6.68758E-05 6.11442E-05 0.00000E+00
 -1       895 6.55771E-05 6.10607E-05 8.27181E-25
 -1       956 6.95832E-05 5.19387E-06-1.65436E-24
 -1       957 6.94274E-05 6.21614E-06 0.00000E+00
 -1       958 6.92709E-05 7.37890E-06 1.65436E-24
 -1       959 6.91139E-05 8.66438E-06 1.65436E-24
 -1       960 6.89567E-05 1.00548E-05 3.30872E-24
 -1       961 6.87994E-05 1.15323E-05-1.65436E-24
 -1       962 6.86419E-05 1.30789E-05 3.30872E-24
 -1       963 6.84843E-05 1.46767E-05-1.65436E-24
 -1       964 6.83267E-05 1.63077E-05-3.30872E-24
 -1       965 6.81690E-05 1.79541E-05 0.00000E+00
 -1       966 6.80114E-05 1.95978E-05-6.61744E-24
 -1       967 6.78539E-05 2.12209E-05 0.00000E+00
 -1       968 6.76965E-05 2.28055E-05 0.00000E+00
 -1       969 6.75393E-05 2.43337E-05-3.30872E-24
 -1       970 6.73827E-05 2.57877E-05 0.00000E+00
 -1       971 6.70320E-05 2.85503E-05-3.30872E-24
 -1       972 6.68315E-05 3.01704E-05 0.00000E+00
 -1       973 6.66306E-05 3.19845E-05 6.61744E-24
 -1       974 6.64289E-05 3.39658E-05 0.00000E+00
 -1       975 6.62268E-05 3.60876E-05-6.61744E-24
 -1       976 6.60244E-05 3.83230E-05 0.00000E+00
 -1       977 6.58217E-05 4.06451E-05 0.00000E+00
 -1       978 6.56189E-05 4.30268E-05 3.30872E-24
 -1       979 6.54161E-05 4.54411E-05 0.00000E+00
 -1       980 6.52132E-05 4.78608E-05-3.30872E-24
 -1       981 6.50105E-05 5.02589E-05 6.61744E-24
 -1       982 6.48081E-05 5.26083E-05 0.00000E+00
 -1       983 6.46060E-05 5.48819E-05-6.61744E-24
 -1       984 6.44051E-05 5.70529E-05 9.92617E-24
 -1       985 6.42048E-05 5.90941E-05 3.30872E-24
 -3
    1PSTEP                         2           1           1          
  100CL  101 1.000000000         394                     0    1           1
 -4  STRESS      6    1
 -5  SXX         1    4    1    1
 -5  SYY         1    4    2    2
 -5  SZZ         1    4    3    3
 -5  SXY         1    4    1    2
 -5  SYZ         1    4    2    3
 -5  SZX         1    4    3    1
 -1         1-5.26272E+06-2.17326E+06-1.24629E+06-2.44713E+06 0.00000E+00 5.87897E-09
 -1         2 2.09686E+03-6.84887E+05 8.09130E+03 7.84342E+03 2.92906E-09 1.33940E-08
 -1         3-5.21796E+01-1.39852E+06 3.62275E+02-6.57366E+02-6.13340E-11-1.32713E-08
 -1         5-3.60727E+01 5.69782E+05 1.75196E+01 1.72605E+00 3.23042E-10 1.32495E-08
 -1         8-2.58990E+06-1.16076E+06-3.91034E+05-1.47189E+06 5.62674E-10 1.60847E-08
 -1         9-3.55711E+06-1.38111E+06-6.41795E+05-1.09327E+06-1.15506E-09 1.96451E-10
 -1        10-1.29925E+03-1.46548E+06-2.65661E+03-4.50310E+03 2.15573E-09-9.17271E-09
 -1        12-2.90270E+01 5.69819E+05 5.69122E+02 1.11368E+01 2.88537E-10 1.86528E-08
 -1        15 3.94381E+03 2.13276E+03 1.22398E+04 1.09938E+01 6.19593E-12-2.08532E-09
 -1        16-5.41257E+06-1.73881E+06-8.17787E+05-1.77283E+06-1.07684E-09 5.11439E-09
 -1        17-8.83504E+05-7.02619E+05-1.34369E+05-5.89806E+05 8.25094E-09-1.42900E-09
 -1        18 4.07896E+04 1.32771E+04-1.95698E+04-1.30319E+05 1.02864E-09 4.67298E-09
 -1        19 1.63004E+05 2.00313E+05-5.32657E+02 1.57473E+04 7.39965E-10-8.18545E-10
 -1        20 1.07689E+05-1.77739E+05-3.20989E+04 8.11358E+04 5.31145E-09 1.78867E-09
 -1        21-1.51894E+02-5.00130E+05-2.17853E+03-5.87046E+02 1.33535E-08 1.51176E-08
 -1        24-3.75966E+06-1.34261E+06-4.19586E+05-1.72747E+06-8.91790E-09-8.51772E-09
 -1        25 1.91996E+04 6.63012E+04 3.38751E+04-5.58281E+05-6.60730E-09 1.93468E-09
 -1        26-2.46588E+04 1.49294E+05-2.24570E+03-3.62987E+04-1.15397E-09 2.68000E-09
 -1        27-3.70354E+04-1.07210E+05-4.93852E+04 1.03544E+05 5.24051E-09-1.57646E-11
 -1        28-8.06883E+03-1.49773E+05-1.09152E+03 5.82221E+04 5.84760E-09 9.72882E-10
 -1        32-1.21062E+06-1.21864E+05 3.36203E+05-1.71919E+06-3.29601E-09 4.47972E-09
 -1        33-1.78573E+05 1.41745E+05 4.43564E+04-5.46510E+04 1.29830E-10 4.28675E-09
 -1        34-3.20511E+05-4.72886E+04-1.06417E+04 9.84084E+04 5.75314E-09-2.02150E-09
 -1        35-4.06953E+04-4.75828E+04-1.49063E+03 9.26694E+04-5.73576E-09-8.83059E-09
 -1        51 3.42760E+04-6.39382E+05 6.38704E+04-1.72302E+06 1.74623E-10 6.98492E-09
 -1        52 2.26996E+04-6.43644E+05 4.34312E+04-1.92076E+06 1.36788E-09-8.84756E-09
 -1        53 2.07249E+04-6.69354E+05 3.96521E+04-1.71788E+06-3.49246E-10-1.11904E-08
 -1        54 4.92539E+04-6.69677E+05 6.70037E+04-1.92589E+06-2.03727E-10-1.76660E-08
 -1        55 9.85099E+04-6.94835E+05 1.24108E+05-1.71652E+06 1.16415E-10 1.78334E-08
 -1        56-9.78378E+06-1.07918E+06-8.53539E+05-3.83713E+06 7.27596E-11 5.47152E-09
 -1        57-1.02879E+07-1.76044E+06-5.85717E+05-3.62165E+06 3.59432E-09 5.82077E-10
 -1        58-9.92592E+06-1.40162E+06-1.99697E+05-3.81347E+06 4.55111E-09 2.15368E-09
 -1        59-1.00979E+07-1.40753E+06-1.22132E+05-3.67372E+06-6.38829E-09 9.20409E-09
 -1        60-9.97105E+06-1.42807E+06-4.67874E+04-3.78562E+06-1.96633E-09 3.47245E-09
 -1        61-1.00041E+07-1.41767E+06-2.66968E+04-3.75151E+06-1.04706E-10-5.70481E-09
 -1        62-1.00184E+07-1.39129E+06-1.31113E+04-3.73520E+06-8.64475E-10 5.79030E-09
 -1        63-9.93701E+06-1.47551E+06-1.07463E+04-3.82703E+06 1.42961E-09 1.73943E-08
 -1        64-1.00385E+07-1.36975E+06-1.23610E+04-3.71045E+06 5.61693E-09 7.94898E-09
 -1        65-9.94352E+06-1.47894E+06-2.57985E+04-3.82285E+06 1.50672E-09-9.34051E-10
 -1        66-1.00120E+07-1.38797E+06-4.48210E+04-3.73937E+06 4.61569E-10 5.60976E-09
 -1        67-1.00387E+07-1.46076E+06-1.16436E+05-3.73711E+06-1.68347E-09 4.71846E-09
 -1        68-9.94359E+06-1.38888E+06-1.91072E+05-3.79592E+06 1.11686E-09-1.60071E-09
 -1        69-1.02897E+07-1.73047E+06-5.59559E+05-3.61167E+06-2.66300E-09 1.46683E-08
 -1        70-9.76435E+06-1.12157E+06-8.15059E+05-3.86483E+06-1.67347E-09 7.47968E-09
 -1        86-1.05218E+03-6.94652E+05 7.17893E+03-3.92171E+03-3.40037E-09-8.14460E-09
 -1        87 7.86044E+03-6.78634E+05 1.78035E+04 5.82956E+03-1.01227E-09-1.50527E-08
 -1        88-6.76404E+03-7.00878E+05 2.31876E+04-1.90771E+03-2.20098E-10-8.13138E-09
 -1        89 4.70310E+04-6.63158E+05 6.74161E+04-2.90296E+03-5.53882E-10 1.09105E-08
 -1        90-4.02516E+04-7.10108E+05 9.32463E+04 4.81021E+03 3.69982E-09 1.17680E-10
 -1       121-1.35890E+02-1.39905E+06 3.51385E+02 3.28530E+02-3.49473E-10-1.88356E-09
 -1       122 9.61035E+01-1.39844E+06 7.89413E+02-1.30882E+03-5.48646E-10-7.75481E-09
 -1       123-2.49828E+02-1.39914E+06 1.26124E+03 9.79417E+02-1.21054E-09-2.66300E-09
 -1       124 1.71714E+03-1.39753E+06 3.30843E+03-2.68974E+03-8.56346E-10 2.16687E-09
 -1       125-1.41393E+03-1.39999E+06 4.93643E+03 1.70961E+03-1.95496E-09 1.93268E-09
 -1       191-3.84429E+01 5.69825E+05 1.97549E+01-8.72997E-01 3.69991E-10 2.49638E-08
 -1       192-3.77071E+01 5.69783E+05 3.71443E+01 4.57170E+00 5.91069E-10 2.92857E-08
 -1       193-4.27718E+01 5.69824E+05 6.79179E+01-3.76223E+00 6.26613E-10 2.77723E-08
 -1       194-4.29590E+01 5.69789E+05 1.40607E+02 9.92758E+00 2.98147E-10 3.42552E-08
 -1       195-5.10851E+01 5.69820E+05 2.73854E+02-6.31260E+00 9.71269E-10 2.15150E-08
 -1       266-6.93305E+04-3.20441E+04 1.60091E+05-2.26343E+02 1.01863E-10-3.30408E-09
 -1       267 8.02966E+04 3.74449E+04 1.13523E+05 2.60127E+02 1.74623E-10-2.69068E-10
 -1       268-1.09412E+04-5.35968E+03 4.20206E+04-3.38820E+01 2.72848E-11-1.34577E-08
 -1       269 1.29156E+04 6.42833E+03 2.74604E+04 3.93804E+01 1.09139E-10 8.12198E-09
 -1       270-1.97161E+03-1.06632E+03 1.31844E+04-5.49546E+00-3.59250E-11 1.68192E-09
 -1       271-7.94281E+06-9.73442E+05-6.39752E+05-3.10012E+06 3.05590E-10 7.74162E-09
 -1       272-8.23454E+06-1.40233E+06-4.14894E+05-3.02748E+06-1.20872E-09-3.17232E-09
 -1       273-8.06892E+06-1.13614E+06-1.50796E+05-3.06431E+06 4.88399E-10 1.03610E-08
 -1       274-8.08136E+06-1.20963E+06-8.51629E+04-3.08227E+06 7.75799E-10 6.07542E-09
 -1       275-8.09219E+06-1.14787E+06-3.51015E+04-3.05181E+06 2.72848E-12-1.38207E-08
 -1       276-8.04998E+06-1.19951E+06-1.88318E+04-3.10319E+06-9.46784E-10 4.71164E-09
 -1       277-8.10032E+06-1.14388E+06-9.39684E+03-3.04445E+06 1.55160E-09-3.23189E-09
 -1       278-8.03965E+06-1.20568E+06-7.23601E+03-3.11412E+06-7.88305E-10 9.95470E-10
 -1       279-8.10307E+06-1.14112E+06-8.29177E+03-3.04137E+06 1.51886E-10-8.13452E-09
 -1       280-8.03999E+06-1.20912E+06-1.59185E+04-3.11552E+06 4.05895E-09 4.91900E-09
 -1       281-8.10017E+06-1.14050E+06-2.91002E+04-3.04311E+06 1.73571E-10 9.66065E-09
 -1       282-8.06016E+06-1.22340E+06-7.06839E+04-3.10495E+06 1.38834E-09 4.78758E-09
 -1       283-8.08297E+06-1.12876E+06-1.24931E+05-3.05114E+06 1.15779E-09 9.16771E-10
 -1       284-8.18445E+06-1.38532E+06-3.43869E+05-3.06152E+06-1.98452E-09 8.18545E-10
 -1       285-7.97858E+06-9.94121E+05-5.30476E+05-3.08085E+06 1.03319E-09 5.00586E-09
 -1       301 6.21805E+04-3.19337E+04 1.89552E+05-3.37681E+04 5.84259E-09-3.40174E-09
 -1       302 2.40909E+04 7.74634E+03 1.26047E+05-4.23213E+04 5.30190E-09-2.03591E-08
 -1       303 4.60867E+03-1.79777E+04 1.12434E+05-3.39613E+04 5.62795E-09-1.03616E-08
 -1       304 4.12198E+04 2.13090E+04 1.81416E+05-4.22618E+04 5.37875E-09-7.42580E-09
 -1       305 1.10704E+05-4.53673E+04 3.20441E+05-3.36266E+04 6.46105E-09 7.60883E-09
 -1       306-4.04531E+06-5.12531E+05-2.53362E+05-1.56441E+06 3.23780E-10-5.67525E-10
 -1       307-4.11246E+06-7.27735E+05-1.63826E+05-1.58895E+06 2.00544E-09-1.04847E-08
 -1       308-4.09620E+06-5.75175E+05-5.98279E+04-1.54918E+06-1.74077E-09-1.06593E-09
 -1       309-4.05237E+06-6.52486E+05-3.37408E+04-1.61210E+06-7.88987E-10 6.43558E-09
 -1       310-4.10513E+06-5.79915E+05-1.39848E+04-1.54462E+06-3.23780E-10-9.65429E-09
 -1       311-4.04203E+06-6.46852E+05-7.63909E+03-1.61881E+06 8.89941E-09-3.43266E-09
 -1       312-4.10704E+06-5.79616E+05-4.02517E+03-1.54321E+06 1.28864E-09 1.18383E-08
 -1       313-4.04107E+06-6.46123E+05-3.57862E+03-1.61925E+06-3.62206E-09 8.11724E-11
 -1       314-4.10611E+06-5.80553E+05-4.73921E+03-1.54423E+06-7.26959E-09-2.53476E-09
 -1       315-4.04527E+06-6.43809E+05-9.50777E+03-1.61440E+06-8.59472E-11 8.27640E-11
 -1       316-4.10225E+06-5.82401E+05-1.78551E+04-1.54760E+06-1.66438E-10 7.11225E-10
 -1       317-4.06037E+06-6.49030E+05-4.30174E+04-1.60345E+06 1.20053E-09 2.11730E-09
 -1       318-4.09021E+06-5.76957E+05-7.64807E+04-1.55412E+06 2.78123E-09-6.43922E-10
 -1       319-4.13789E+06-7.44638E+05-2.09248E+05-1.57359E+06 1.43064E-09-7.60338E-10
 -1       320-4.02534E+06-4.96627E+05-3.23556E+05-1.57333E+06 5.45697E-11-3.91447E-09
 -1       336 1.69918E+03-1.53098E+06-1.00041E+04 2.79181E+03 5.96162E-09-1.29603E-09
 -1       337-4.15196E+03-1.53435E+06-1.21723E+04-6.63584E+03 7.60411E-09-5.24597E-09
 -1       338 1.61496E+03-1.53096E+06-1.60233E+04 3.83873E+03 7.57973E-09 1.91903E-10
 -1       339-1.88009E+04-1.54288E+06-3.67669E+04-8.65536E+03 9.67930E-09 1.04742E-08
 -1       340 1.42568E+04-1.52261E+06-5.57105E+04 4.79771E+03 1.01136E-08 1.29057E-09
 -1       406 1.32865E+01 5.69794E+05 1.12229E+03-5.04356E+00 1.36220E-09 8.50923E-09
 -1       407 3.62795E+02 5.70016E+05 2.38766E+03-9.37318E+00 2.85581E-10-4.22824E-09
 -1       408 1.19928E+03 5.69621E+05 4.76682E+03 1.53676E+01 1.40381E-09-4.89126E-09
 -1       409 5.12857E+03 5.71537E+05 1.07329E+04-1.87655E+02 1.45519E-11 6.82121E-11
 -1       410 1.47874E+04 5.68261E+05 2.19093E+04 1.92721E+02 1.80080E-09-1.91994E-09
 -1       521-8.09432E+06-1.00679E+06-5.42123E+05-3.12497E+06-4.59841E-09 5.18048E-09
 -1       522-8.30141E+06-1.40934E+06-3.51341E+05-3.10846E+06-1.74350E-09-6.10453E-09
 -1       523-8.20213E+06-1.14317E+06-1.27674E+05-3.09329E+06-3.38332E-09-6.80302E-09
 -1       524-8.17270E+06-1.24576E+06-7.21720E+04-3.15518E+06 5.13523E-10-2.22190E-09
 -1       525-8.22047E+06-1.15435E+06-2.96732E+04-3.08420E+06 2.72848E-10 6.57747E-09
 -1       526-8.15124E+06-1.23213E+06-1.61086E+04-3.16724E+06 7.02062E-09 1.80034E-09
 -1       527-8.22366E+06-1.15474E+06-8.16865E+03-3.08216E+06-2.38560E-09-6.89704E-09
 -1       528-8.15091E+06-1.22849E+06-6.72195E+03-3.16571E+06-8.22183E-10 1.37243E-09
 -1       529-8.22059E+06-1.15794E+06-8.29366E+03-3.08566E+06-2.89037E-09-8.43647E-09
 -1       530-8.16203E+06-1.22061E+06-1.61886E+04-3.15319E+06-5.96629E-10-4.91218E-09
 -1       531-8.21178E+06-1.16330E+06-3.01134E+04-3.09405E+06-1.15506E-10-5.31145E-10
 -1       532-8.19301E+06-1.22485E+06-7.27603E+04-3.12998E+06-1.46565E-09 1.11177E-08
 -1       533-8.18927E+06-1.15596E+06-1.28980E+05-3.10772E+06-4.54293E-10-5.44969E-09
 -1       534-8.32932E+06-1.38399E+06-3.54508E+05-3.07681E+06-3.19051E-09-4.48199E-09
 -1       535-8.07870E+06-1.01987E+06-5.47045E+05-3.14162E+06-5.83532E-09 3.14321E-09
 -1       536-2.80979E+04-2.44495E+04 8.24413E+04-1.00385E+04 6.45741E-10-4.35466E-09
 -1       537 5.72920E+03 2.90496E+04 5.45967E+04-6.78245E+04-6.64295E-09-5.67888E-09
 -1       538-1.52504E+04-3.13780E+03 2.12856E+04-9.85930E+03 8.91305E-11-2.95586E-10
 -1       539-9.90895E+03 2.97903E+03 1.23783E+04-6.80326E+04 3.76531E-09 7.86940E-10
 -1       540-1.36811E+04-5.23122E+02 5.32165E+03-9.82307E+03 1.02682E-09-6.20275E-10
 -1       541-1.25602E+04 2.82489E+02 2.93033E+03-6.80810E+04 3.63798E-10 6.59838E-10
 -1       542-1.34958E+04-1.03383E+02 1.26236E+03-9.81447E+03 2.20098E-10 3.28396E-09
 -1       543-1.33443E+04 1.30904E+02 6.00470E+02-6.80952E+04 2.36923E-10 4.43811E-09
 -1       544-1.34771E+04 1.50415E+01 9.10507E+01-9.80939E+03 3.95175E-10 4.30373E-09
 -1       545-1.36676E+04 1.20267E+02-3.45017E+02-6.81016E+04-3.37548E-09-2.27772E-10
 -1       546-1.34361E+04 8.92710E+01-8.93974E+02-9.80778E+03 1.59457E-09 4.75154E-09
 -1       547-1.39604E+04-4.37402E+02-2.17171E+03-6.80926E+04-2.95495E-09 7.19479E-09
 -1       548-1.31311E+04 4.83879E+02-3.88432E+03-9.81867E+03-2.05910E-09 1.60981E-09
 -1       549-1.62462E+04-5.30700E+03-9.80994E+03-6.79787E+04 3.21052E-10 2.69029E-09
 -1       550-1.07802E+04 4.16304E+03-1.50534E+04-9.92168E+03-8.84029E-10-9.79526E-10
 -1       551 2.36490E+04-6.00935E+05 4.36085E+04-9.47778E+05 1.01645E-08-3.42698E-09
 -1       552 2.46007E+04-5.98970E+05 4.56029E+04-1.17801E+06 8.30187E-09 8.62201E-10
 -1       553 1.86253E+04-6.06118E+05 6.50640E+04-9.45745E+05 1.17143E-08-2.31557E-09
 -1       554 5.23960E+04-5.79492E+05 1.32469E+05-1.17824E+06 7.31961E-09 1.19162E-08
 -1       555 1.01371E+05-6.24723E+05 2.48999E+05-9.46858E+05 1.13505E-08-4.51109E-09
 -1       556-1.56479E+05-1.98341E+05 5.17634E+04-3.10102E+05-4.90400E-09-1.61672E-08
 -1       557-1.03701E+05-2.46681E+05 2.65081E+04-3.51398E+05-1.40863E-08-1.29799E-08
 -1       558-1.57944E+05-2.09077E+05 1.08012E+04-3.02988E+05-1.29512E-09-2.53203E-09
 -1       559-1.11735E+05-2.53582E+05 5.44888E+03-3.55111E+05 6.53381E-09-4.23370E-09
 -1       560-1.60086E+05-2.07894E+05 2.26691E+03-3.04190E+05 2.69938E-09 9.15315E-09
 -1       561-1.14614E+05-2.52830E+05 1.17864E+03-3.57045E+05-3.04135E-09-1.28875E-09
 -1       562-1.61738E+05-2.06835E+05 4.17718E+02-3.05324E+05 4.79486E-09 5.70003E-09
 -1       563-1.16357E+05-2.52081E+05 1.74457E+02-3.58220E+05 9.69521E-10 1.19589E-08
 -1       564-1.62731E+05-2.06210E+05-1.36189E+02-3.06003E+05 9.71340E-10-3.33421E-09
 -1       565-1.17239E+05-2.51710E+05-4.66000E+02-3.58795E+05 3.75258E-09-2.77942E-09
 -1       566-1.63017E+05-2.05992E+05-1.12157E+03-3.06218E+05 1.43700E-10 2.33558E-09
 -1       567-1.17446E+05-2.51784E+05-2.52953E+03-3.58756E+05-1.94814E-09 4.64206E-09
 -1       568-1.62467E+05-2.06409E+05-5.27901E+03-3.05900E+05-1.09467E-08-1.01318E-08
 -1       569-1.20005E+05-2.54567E+05-1.24327E+04-3.57246E+05-1.90757E-08-4.62205E-09
 -1       570-1.59520E+05-2.13981E+05-2.47676E+04-3.02608E+05-9.08767E-09 4.90218E-09
 -1       571 3.71616E+05 1.60126E+04 2.37883E+04-9.38828E+04 1.25237E-09 6.91443E-09
 -1       572 3.75148E+05 5.55103E+03 1.16564E+04-1.02919E+05-7.45331E-10 1.04064E-08
 -1       573 3.72999E+05 1.30803E+03 5.17831E+03-9.36354E+04 7.71161E-09 1.32422E-09
 -1       574 3.73413E+05 4.18453E+02 2.59521E+03-1.03186E+05 1.62840E-08 6.57292E-09
 -1       575 3.73136E+05 5.00964E+01 1.22253E+03-9.36038E+04 9.70658E-09 9.06130E-09
 -1       576 3.73168E+05 9.79245E+00 6.21364E+02-1.03222E+05 2.46240E-09-2.95404E-09
 -1       577 3.73158E+05-1.69522E+01 3.03050E+02-9.35996E+04 2.70120E-09-3.58159E-09
 -1       578 3.73155E+05-1.64051E+01 1.59450E+02-1.03227E+05 3.22689E-09 3.03680E-09
 -1       579 3.73204E+05-3.26132E+01 8.53368E+01-9.35992E+04-7.83257E-09-5.52973E-10
 -1       580 3.73220E+05-4.88232E+01 6.08061E+01-1.03222E+05-2.00707E-08-8.45830E-11
 -1       581 3.73291E+05-7.69274E+01 5.83992E+01-9.36040E+04-1.15870E-08 3.08319E-09
 -1       582 3.73347E+05-9.77831E+01 9.75707E+01-1.03168E+05-1.88174E-09 3.01679E-09
 -1       583 3.73416E+05-1.09076E+02 1.70355E+02-9.36534E+04-9.87711E-10-9.06311E-10
 -1       584 3.73570E+05-8.13134E+00 3.83070E+02-1.02748E+05-3.86444E-09-2.29102E-09
 -1       585 3.73524E+05 3.03847E+02 7.63386E+02-9.40248E+04 1.47338E-10 7.11589E-09
 -1       586 1.71787E+03 1.72653E+05 3.45634E+03-2.53010E+05 9.19499E-10 4.35648E-10
 -1       587 1.28532E+03 1.73167E+05 4.30805E+03-2.82817E+05 8.44011E-10-7.71706E-10
 -1       588 1.75607E+03 1.72372E+05 7.11746E+03-2.52696E+05 1.18234E-09 2.05728E-09
 -1       589 6.70103E+03 1.75264E+05 1.52577E+04-2.82834E+05 1.21508E-09-2.04636E-11
 -1       590 1.90414E+04 1.70506E+05 3.05555E+04-2.52985E+05 1.08685E-09-4.71118E-10
 -1       591-1.83720E+05-5.32124E+04-3.65257E+04-8.76970E+04-7.13408E-09-2.37378E-09
 -1       592-1.86218E+05-5.24271E+04-1.84833E+04-9.74764E+04-2.79078E-09 6.42967E-09
 -1       593-1.85737E+05-4.36354E+04-7.84166E+03-9.26124E+04-4.58749E-09 2.27783E-09
 -1       594-1.82000E+05-4.78970E+04-3.85572E+03-9.77775E+04-6.36646E-10 4.33890E-09
 -1       595-1.85948E+05-4.33973E+04-1.78013E+03-9.27965E+04-9.23592E-10 2.85593E-09
 -1       596-1.81719E+05-4.77387E+04-9.00373E+02-9.77364E+04-1.10759E-09 4.15491E-09
 -1       597-1.85982E+05-4.34279E+04-4.85898E+02-9.27970E+04 1.57644E-09-4.53610E-09
 -1       598-1.81688E+05-4.77403E+04-3.80475E+02-9.77223E+04 8.57767E-10 2.47064E-09
 -1       599-1.85977E+05-4.34316E+04-4.73586E+02-9.27940E+04 1.05617E-08 8.09314E-09
 -1       600-1.81707E+05-4.77434E+04-8.67581E+02-9.77256E+04 1.30385E-08-5.22869E-09
 -1       601-1.85932E+05-4.34087E+04-1.70934E+03-9.27876E+04 7.00129E-09 1.60753E-09
 -1       602-1.81970E+05-4.78956E+04-3.69862E+03-9.77509E+04 5.27416E-09 9.00627E-10
 -1       603-1.85717E+05-4.36482E+04-7.52088E+03-9.26093E+04 1.57524E-09-5.22596E-09
 -1       604-1.86046E+05-5.21971E+04-1.77219E+04-9.74008E+04 6.98492E-10 1.27384E-08
 -1       605-1.83732E+05-5.28704E+04-3.50211E+04-8.79345E+04 3.84716E-10-5.41695E-09
 -1       606 1.26514E+05-1.57610E+04-2.56723E+04 4.50564E+04-6.29734E-09 4.31464E-09
 -1       607 1.22354E+05-5.21680E+03-1.26695E+04 4.97017E+04-1.59707E-09-5.65342E-09
 -1       608 1.24721E+05-1.03661E+03-5.65519E+03 4.47318E+04 4.48199E-09-3.59796E-09
 -1       609 1.24184E+05-2.54263E+02-2.84241E+03 5.00550E+04-2.27828E-09-2.40834E-09
 -1       610 1.24456E+05 5.51347E+01-1.35048E+03 4.46925E+04-1.78898E-08 3.64707E-10
 -1       611 1.24334E+05 1.11473E+02-6.79004E+02 5.00962E+04-3.45390E-08-2.58751E-09
 -1       612 1.24368E+05 1.19970E+02-3.23899E+02 4.46887E+04-1.57852E-08-2.00316E-09
 -1       613 1.24308E+05 1.44820E+02-1.45565E+02 5.01005E+04-1.02928E-08 5.67525E-09
 -1       614 1.24314E+05 1.33553E+02-3.75589E+01 4.46878E+04-3.84171E-09 7.90351E-10
 -1       615 1.24272E+05 1.63759E+02 5.46509E+01 5.01003E+04 1.01372E-08 4.25780E-09
 -1       616 1.24274E+05 1.53932E+02 1.69357E+02 4.46885E+04-5.32964E-10 4.67935E-10
 -1       617 1.24273E+05 2.25507E+02 3.91780E+02 5.00982E+04 1.38971E-09 7.55699E-09
 -1       618 1.24223E+05 3.14881E+02 7.93424E+02 4.46892E+04-1.02727E-09 2.10548E-10
 -1       619 1.24525E+05 9.30998E+02 1.78844E+03 5.00910E+04-2.79783E-09 4.75120E-09
 -1       620 1.23969E+05 2.39884E+03 3.62630E+03 4.46900E+04-5.26825E-10-4.88490E-09
 -1       621 1.33871E+03 4.01847E+05 4.89585E+03-2.95494E+04-1.92597E-09-2.22451E-09
 -1       622 6.35794E+02 4.02847E+05 4.96203E+03-3.67291E+04-2.18279E-09 1.66347E-09
 -1       623 3.20606E+02 4.02004E+05 7.09046E+03-2.95427E+04-2.08911E-09 2.98905E-09
 -1       624 3.55933E+03 4.05179E+05 1.44285E+04-3.66376E+04-1.78352E-09-5.76688E-09
 -1       625 9.61032E+03 3.99549E+05 2.72392E+04-2.96349E+04-1.56615E-09-4.37058E-09
 -1       626 2.64960E+05 8.33105E+04-1.70041E+03 1.62213E+05 7.53062E-10-4.19459E-09
 -1       627 2.59600E+05 8.89877E+04-8.08136E+02 1.67695E+05 7.20320E-10-4.86966E-09
 -1       628 2.65098E+05 8.39090E+04-3.42782E+02 1.61544E+05 3.20688E-09 1.90812E-09
 -1       629 2.59420E+05 8.95672E+04-1.57180E+02 1.67877E+05-1.33059E-09 8.81289E-09
 -1       630 2.65048E+05 8.39697E+04-6.32948E+01 1.61449E+05-4.45471E-09-5.16383E-09
 -1       631 2.59338E+05 8.96357E+04-8.80290E+00 1.67860E+05-1.00144E-08-1.81564E-08
 -1       632 2.64996E+05 8.39917E+04 3.92265E+01 1.61414E+05-6.93944E-10-3.66299E-10
 -1       633 2.59300E+05 8.96536E+04 1.12373E+02 1.67837E+05 1.51931E-09-3.79259E-09
 -1       634 2.64960E+05 8.39941E+04 2.41784E+02 1.61398E+05-3.38787E-09-1.87952E-08
 -1       635 2.59308E+05 8.96619E+04 5.28930E+02 1.67833E+05 7.72616E-09-6.90443E-09
 -1       636 2.64930E+05 8.40044E+04 1.08725E+03 1.61384E+05-2.24020E-09-4.08454E-09
 -1       637 2.59550E+05 8.98929E+04 2.41116E+03 1.67810E+05-3.15538E-10 4.99313E-10
 -1       638 2.64864E+05 8.47088E+04 4.97639E+03 1.61070E+05 1.03814E-08 8.94579E-09
 -1       639 2.62116E+05 9.39491E+04 1.18086E+04 1.66894E+05-1.95541E-09-3.93084E-09
 -1       640 2.64806E+05 9.66238E+04 2.47287E+04 1.56055E+05 1.01045E-08 2.44931E-08
 -1       656 1.95990E+04-6.44962E+05-7.12201E+04 1.08281E+04-2.91766E-09 8.33279E-09
 -1       657-2.73065E+04-6.72383E+05-5.41247E+04 6.87581E+04-3.18187E-09 8.74024E-09
 -1       658 4.47918E+03-6.54164E+05-3.49583E+04 1.05738E+04-1.50476E-09 6.98890E-09
 -1       659-2.76286E+04-6.72670E+05-5.46948E+04 6.89313E+04-3.36559E-09 1.32576E-09
 -1       660 1.99536E+04-6.44778E+05-7.22377E+04 1.06564E+04-2.30284E-09-4.04725E-10
 -1       661 3.70870E+05 4.99568E+04 2.99240E+04 1.45604E+05 3.98359E-09 4.83124E-09
 -1       662 3.77712E+05 6.95896E+04 1.83855E+04 1.49665E+05-5.53965E-09 3.81328E-09
 -1       663 3.75711E+05 5.54712E+04 7.04825E+03 1.45297E+05-3.17573E-09 3.25190E-09
 -1       664 3.72105E+05 6.16776E+04 3.78269E+03 1.50681E+05 7.30392E-09 8.96824E-09
 -1       665 3.76209E+05 5.60089E+04 1.65045E+03 1.45288E+05 7.12053E-10-7.31347E-10
 -1       666 3.71526E+05 6.09489E+04 8.86407E+02 1.50743E+05-8.67999E-09 1.23250E-08
 -1       667 3.76268E+05 5.60605E+04 5.11250E+02 1.45288E+05-4.91070E-09 2.59979E-09
 -1       668 3.71467E+05 6.09019E+04 4.92267E+02 1.50758E+05-3.82028E-09 5.20129E-09
 -1       669 3.76271E+05 5.60459E+04 7.12810E+02 1.45278E+05-1.22031E-09-2.80920E-10
 -1       670 3.71559E+05 6.10324E+04 1.43768E+03 1.50788E+05 1.50236E-08 2.23940E-09
 -1       671 3.76187E+05 5.59351E+04 2.78421E+03 1.45260E+05 6.65500E-09 3.64548E-09
 -1       672 3.72530E+05 6.23092E+04 6.45186E+03 1.50725E+05-4.83863E-09-4.02633E-09
 -1       673 3.75349E+05 5.49987E+04 1.20422E+04 1.45261E+05-5.88864E-09-7.71888E-09
 -1       674 3.82110E+05 7.58596E+04 3.14395E+04 1.49015E+05 1.62072E-08 1.22054E-09
 -1       675 3.67076E+05 4.55617E+04 5.11718E+04 1.45783E+05 7.62157E-09 1.26238E-09
 -1       676 7.43415E+01-4.99901E+05-2.60479E+03 2.93526E+02-6.63408E-09-4.14310E-10
 -1       677-8.60785E+02-5.00628E+05-4.82574E+03-5.85894E+02-4.06999E-09-6.82277E-09
 -1       678 6.29005E+02-4.99403E+05-8.40400E+03 2.92165E+02-7.38964E-10-7.41196E-10
 -1       679-9.35506E+03-5.05869E+05-2.02908E+04-5.82985E+02 3.63957E-09 1.12266E-11
 -1       680 6.44114E+03-4.94664E+05-3.20464E+04 2.87806E+02-2.46109E-09 4.02963E-09
 -1       771-3.28933E+06-6.36913E+05-8.63402E+04-1.41694E+06-3.71074E-10 3.11411E-09
 -1       772-3.27307E+06-6.55179E+05-4.34458E+04-1.46338E+06-1.57816E-08 9.33142E-10
 -1       773-3.29699E+06-6.12362E+05-1.88034E+04-1.42818E+06-6.62112E-09 3.63798E-12
 -1       774-3.26380E+06-6.45528E+05-9.12538E+03-1.46773E+06-3.08501E-09 1.07320E-09
 -1       775-3.29955E+06-6.10378E+05-4.43779E+03-1.42930E+06 2.11003E-10-1.46792E-09
 -1       776-3.26445E+06-6.44978E+05-2.16141E+03-1.46971E+06-1.00772E-09-1.50067E-10
 -1       777-3.30127E+06-6.09376E+05-1.27607E+03-1.42994E+06-7.27596E-11 4.37649E-09
 -1       778-3.26544E+06-6.44748E+05-8.83708E+02-1.47119E+06 1.22236E-09 1.21418E-10
 -1       779-3.30243E+06-6.08612E+05-1.12434E+03-1.43040E+06 1.42609E-09 1.26283E-09
 -1       780-3.26622E+06-6.44594E+05-1.93892E+03-1.47219E+06 6.73208E-09 6.23754E-09
 -1       781-3.30303E+06-6.08097E+05-3.84550E+03-1.43067E+06 1.31331E-09-4.94219E-09
 -1       782-3.26719E+06-6.44853E+05-8.31695E+03-1.47272E+06-1.84082E-09-5.36602E-10
 -1       783-3.30275E+06-6.08511E+05-1.69649E+04-1.43037E+06-4.66071E-09-3.83079E-09
 -1       784-3.27650E+06-6.54512E+05-4.00673E+04-1.47179E+06-3.02157E-09-4.61660E-09
 -1       785-3.29794E+06-6.29615E+05-7.92742E+04-1.41985E+06-1.85264E-09-2.14641E-10
 -1       786 3.08654E+05-1.11652E+04 3.89884E+04-1.06378E+03 5.00222E-11-6.03359E-09
 -1       787 3.23444E+05 1.39910E+04 2.56362E+04-7.77228E+03 2.57387E-10-8.42056E-09
 -1       788 3.14725E+05-1.28499E+03 1.01280E+04-1.08034E+03-3.99837E-10 7.15954E-09
 -1       789 3.16605E+05 1.57702E+03 5.80029E+03-7.73852E+03 3.47313E-10-2.22826E-11
 -1       790 3.15488E+05-1.50069E+02 2.58106E+03-1.09696E+03-2.40561E-10-2.84263E-09
 -1       791 3.15734E+05 1.76611E+02 1.40737E+03-7.71665E+03 1.07553E-09 7.47633E-10
 -1       792 3.15592E+05-1.88884E+01 7.09676E+02-1.10221E+03-5.73248E-10 3.59577E-09
 -1       793 3.15621E+05 2.65661E+01 4.73250E+02-7.71810E+03 1.62663E-09 6.55909E-10
 -1       794 3.15602E+05-1.02066E+01 4.29059E+02-1.09551E+03-2.67846E-10-4.57661E-10
 -1       795 3.15657E+05 7.36451E+01 6.57021E+02-7.74378E+03-3.26480E-10 1.26344E-08
 -1       796 3.15561E+05-6.45654E+01 1.11266E+03-1.07653E+03-3.54362E-10 1.84997E-09
 -1       797 3.16024E+05 6.56178E+02 2.44535E+03-7.79169E+03-5.26370E-10-8.49400E-09
 -1       798 3.15243E+05-5.41025E+02 4.24629E+03-1.04760E+03-6.29598E-10 3.54521E-09
 -1       799 3.18895E+05 5.85031E+03 1.07367E+04-7.84631E+03-1.75351E-09 3.76406E-09
 -1       800 3.12701E+05-4.67978E+03 1.63186E+04-1.02230E+03 2.96268E-10 9.35870E-09
 -1       801-3.07716E+04 3.53602E+05 4.19600E+04-2.98165E+05 3.78695E-08-1.61672E-08
 -1       802 8.71098E+04 3.61770E+05 7.77130E+04-2.02852E+06 4.75848E-09-1.59198E-08
 -1       803 1.28801E+03 3.49451E+05 9.31995E+04-2.98212E+05 5.66070E-08 1.66758E-08
 -1       804 1.72118E+05 4.13139E+05 2.17213E+05-2.02826E+06 1.92667E-08 2.14714E-08
 -1       805-1.08945E+05 3.06565E+05 2.98015E+05-2.98523E+05 2.12458E-08 1.66910E-08
 -1       806-2.91406E+05-8.46580E+04-2.50396E+04-1.45024E+05-9.71227E-10-1.30058E-09
 -1       807-2.90588E+05-8.00445E+04-1.19538E+04-1.53878E+05-1.48475E-10-2.47098E-09
 -1       808-2.91486E+05-7.26002E+04-5.03814E+03-1.50158E+05 3.09228E-11 1.95121E-09
 -1       809-2.88072E+05-7.58821E+04-2.44053E+03-1.54789E+05 3.49883E-09 9.36609E-09
 -1       810-2.91573E+05-7.18769E+04-1.10503E+03-1.50493E+05-3.24690E-10-2.55886E-09
 -1       811-2.87841E+05-7.56409E+04-5.46550E+02-1.54815E+05-4.23938E-09-2.15869E-09
 -1       812-2.91593E+05-7.18699E+04-2.71217E+02-1.50503E+05 6.57337E-09 1.90084E-08
 -1       813-2.87810E+05-7.56412E+04-1.71042E+02-1.54802E+05 2.84672E-10-2.36014E-10
 -1       814-2.91585E+05-7.18821E+04-1.60363E+02-1.50495E+05-1.97406E-09 1.87083E-09
 -1       815-2.87804E+05-7.56515E+04-2.52237E+02-1.54789E+05 2.14277E-09 3.84716E-10
 -1       816-2.91554E+05-7.18997E+04-4.74399E+02-1.50479E+05-3.47063E-09 1.41335E-09
 -1       817-2.87889E+05-7.57492E+04-1.02885E+03-1.54743E+05-4.04361E-09 2.19779E-09
 -1       818-2.91481E+05-7.22316E+04-2.11745E+03-1.50338E+05 2.06273E-09 8.91214E-09
 -1       819-2.89038E+05-7.73793E+04-5.01502E+03-1.54195E+05-1.56297E-09-1.51431E-09
 -1       820-2.91302E+05-7.74062E+04-1.05050E+04-1.48294E+05 7.18501E-10-2.44927E-09
 -1       821-3.92835E+05 1.39578E+04-4.87633E+04 1.11741E+03-4.35739E-09 7.27596E-12
 -1       822-4.11295E+05-1.74978E+04-3.20627E+04 9.60425E+03-1.83616E-09-3.26054E-10
 -1       823-4.00427E+05 1.60127E+03-1.26744E+04 1.00317E+03 3.69732E-09-4.01133E-09
 -1       824-4.02771E+05-1.95438E+03-7.26274E+03 9.78641E+03-1.30512E-10-8.72546E-10
 -1       825-4.01382E+05 1.86778E+02-3.25421E+03 9.34187E+02-8.70182E-09-1.72872E-09
 -1       826-4.01706E+05-1.94663E+02-1.81081E+03 9.90180E+03-1.28886E-08 7.25208E-10
 -1       827-4.01510E+05 2.73056E+01-9.91249E+02 8.87505E+02-8.07995E-09 5.99016E-10
 -1       828-4.01589E+05-1.37274E+01-8.06978E+02 9.97449E+03-8.55653E-09 1.24558E-10
 -1       829-4.01512E+05 2.77544E+01-9.53018E+02 8.61425E+02-1.49498E-09 3.77167E-09
 -1       830-4.01712E+05-1.74734E+02-1.71155E+03 1.00047E+04 6.63591E-09 2.94591E-09
 -1       831-4.01393E+05 1.80159E+02-3.05594E+03 8.57303E+02-5.80360E-09-6.22595E-09
 -1       832-4.02726E+05-1.81941E+03-6.81675E+03 9.99156E+03-5.44844E-10-8.20023E-10
 -1       833-4.00498E+05 1.50988E+03-1.18856E+04 8.74847E+02-9.10745E-10-3.44653E-09
 -1       834-4.10735E+05-1.63946E+04-3.00768E+04 9.92813E+03 3.10456E-09-3.31829E-09
 -1       835-3.93377E+05 1.31034E+04-4.57332E+04 9.22996E+02 1.89243E-09 1.90448E-09
 -1       836-1.94820E+03 5.43843E+05 4.28001E+04-4.00722E+04-4.12911E-10 3.85171E-09
 -1       837 8.98390E+03 5.56835E+05 3.27775E+04-7.75421E+04-2.23275E-09-3.52156E-09
 -1       838-5.56589E+02 5.48170E+05 2.89623E+04-3.99694E+04-8.13088E-10-1.51141E-09
 -1       839 1.60550E+04 5.62233E+05 5.01078E+04-7.75474E+04-1.95359E-09 1.68393E-09
 -1       840-3.75138E+03 5.38419E+05 7.83835E+04-4.00630E+04-5.05679E-10 8.30096E-09
 -1       856-3.15011E+05 6.71302E+03-3.92825E+04 8.57357E+03-9.74342E-09 5.66433E-09
 -1       857-3.28406E+05-1.05800E+04-2.44713E+04 2.50480E+04-1.35224E-08-2.68983E-09
 -1       858-3.20737E+05 6.43664E+02-1.01349E+04 8.44531E+03-1.36965E-08-2.13322E-09
 -1       859-3.22182E+05-8.02502E+02-5.52593E+03 2.52082E+04-2.67619E-09-3.86081E-10
 -1       860-3.21330E+05 9.97974E+01-2.56350E+03 8.40899E+03 7.95580E-10-1.18446E-08
 -1       861-3.21568E+05 4.23594E+01-1.35365E+03 2.52584E+04-1.04908E-08-5.57395E-09
 -1       862-3.21408E+05 5.07013E+01-6.97321E+02 8.39445E+03 9.12814E-09-2.09877E-09
 -1       863-3.21501E+05 1.14324E+02-4.52631E+02 2.52719E+04 2.41794E-08-7.66471E-09
 -1       864-3.21414E+05 4.57848E+01-4.10557E+02 8.39538E+03 1.01317E-08-5.48204E-09
 -1       865-3.21506E+05 8.57626E+01-6.06225E+02 2.52533E+04 8.54470E-09-9.64786E-09
 -1       866-3.21380E+05 5.85463E+01-1.05630E+03 8.41315E+03-3.25053E-09-3.70687E-09
 -1       867-3.21723E+05-2.61724E+02-2.21803E+03 2.51991E+04-3.78918E-09-9.49749E-09
 -1       868-3.21134E+05 2.64224E+02-4.05249E+03 8.44997E+03-3.01497E-10-6.79199E-09
 -1       869-3.24161E+05-4.17391E+03-9.75495E+03 2.50291E+04-7.90442E-09-1.83093E-09
 -1       870-3.18841E+05 2.66578E+03-1.56699E+04 8.58497E+03 4.36467E-09-5.50062E-09
 -1       871-5.89561E+03-4.62035E+04-1.41892E+04 1.67076E+05 4.61478E-09 3.35240E-09
 -1       872-2.28443E+03-4.91762E+04-4.88589E+03 2.07410E+05 6.89761E-09 3.59069E-09
 -1       873-1.92585E+02-4.80423E+04 2.71511E+03 1.66728E+05 3.65708E-09 9.10404E-10
 -1       874 3.09072E+03-4.50615E+04 1.23157E+04 2.07515E+05 1.42063E-09 6.96900E-09
 -1       875 9.24566E+03-5.05582E+04 2.64214E+04 1.66998E+05 2.15005E-09 1.62072E-09
 -1       876 4.69130E+05 7.05835E+04 3.99467E+04 1.87465E+05 7.54812E-09 4.96584E-10
 -1       877 4.75758E+05 9.01160E+04 2.32894E+04 1.95271E+05-1.13344E-08-2.35377E-09
 -1       878 4.74680E+05 7.41042E+04 9.29648E+03 1.88273E+05-4.74756E-10-2.43199E-09
 -1       879 4.69080E+05 8.18405E+04 4.79560E+03 1.96024E+05-7.19865E-10-5.08408E-10
 -1       880 4.75134E+05 7.44399E+04 2.15424E+03 1.88355E+05-7.36691E-10-6.61385E-09
 -1       881 4.68526E+05 8.12429E+04 1.12313E+03 1.95991E+05-2.50913E-08-5.90336E-09
 -1       882 4.75171E+05 7.44914E+04 6.35247E+02 1.88371E+05-6.90375E-09 1.35141E-09
 -1       883 4.68482E+05 8.11940E+04 5.66730E+02 1.95963E+05 5.63136E-09-1.58103E-09
 -1       884 4.75161E+05 7.44945E+04 7.88595E+02 1.88373E+05-3.18789E-09 5.66615E-10
 -1       885 4.68564E+05 8.12484E+04 1.53185E+03 1.95973E+05 2.13625E-08 3.14549E-09
 -1       886 4.75089E+05 7.44386E+04 3.01658E+03 1.88360E+05-6.38693E-09 4.37467E-10
 -1       887 4.69358E+05 8.20735E+04 6.75332E+03 1.95983E+05-1.80504E-08 8.40828E-10
 -1       888 4.74426E+05 7.39825E+04 1.31117E+04 1.88251E+05-6.41251E-09 9.70431E-10
 -1       889 4.78749E+05 9.37657E+04 3.28501E+04 1.94922E+05-6.59511E-09 2.10593E-09
 -1       890 4.66613E+05 6.89994E+04 5.63558E+04 1.87076E+05 1.78852E-08-3.02316E-09
 -1       891 5.30099E+02-2.36768E+05-8.77529E+03 4.86792E+04-3.36104E-09-1.79898E-09
 -1       892-2.16710E+03-2.39421E+05-6.69470E+03 1.01643E+05-1.44887E-08-3.54277E-09
 -1       893 6.57660E+01-2.37710E+05-5.73973E+03 4.85656E+04-9.44010E-09-9.72818E-09
 -1       894-3.57191E+03-2.40323E+05-9.85805E+03 1.01555E+05-5.05861E-09-1.44610E-08
 -1       895 9.83217E+02-2.35685E+05-1.52043E+04 4.87642E+04-1.11577E-08-2.25009E-09
 -1       956-4.45309E+05-8.11728E+03-1.94068E+04 5.01851E+04-7.31779E-09-3.08319E-10
 -1       957-4.49089E+05-2.63794E+03-9.91091E+03 5.98542E+04-3.66163E-09 4.12365E-09
 -1       958-4.47056E+05-2.01800E+02-4.46750E+03 4.98695E+04 5.09681E-09-1.22782E-10
 -1       959-4.47407E+05 3.77726E+01-2.27589E+03 6.01976E+04-2.19552E-09-3.75712E-09
 -1       960-4.47267E+05 1.38749E+02-1.10751E+03 4.98361E+04-6.79938E-09-4.99131E-09
 -1       961-4.47331E+05 1.72527E+02-5.79406E+02 6.02360E+04-1.44573E-08-9.58289E-09
 -1       962-4.47335E+05 1.55725E+02-3.19709E+02 4.98300E+04-2.53749E-10-4.43151E-09
 -1       963-4.47357E+05 1.92774E+02-2.33823E+02 6.02442E+04 2.89469E-09-1.47111E-09
 -1       964-4.47361E+05 1.68895E+02-2.57464E+02 4.98276E+04 4.96880E-09-1.98361E-09
 -1       965-4.47382E+05 2.02249E+02-4.22866E+02 6.02447E+04 7.29261E-09-5.82850E-09
 -1       966-4.47347E+05 1.77669E+02-7.82755E+02 4.98294E+04 3.93356E-10-3.25144E-09
 -1       967-4.47470E+05 1.27160E+02-1.60023E+03 6.02239E+04 1.09583E-08 1.47247E-09
 -1       968-4.47225E+05-4.51733E+01-3.13392E+03 4.98490E+04-1.03500E-09 5.77074E-10
 -1       969-4.48678E+05-1.73885E+03-6.95733E+03 6.00116E+04-8.26185E-09 4.20494E-09
 -1       970-4.46013E+05-5.59632E+03-1.36204E+04 5.00503E+04-1.93722E-10 5.47516E-10
 -1       971-5.68700E+05 1.19867E+03-2.44033E+04 1.41828E+04-3.26963E-09 1.12486E-08
 -1       972-5.76091E+05-4.84922E+03-1.44324E+04 2.81585E+04-7.65795E-09 4.32192E-09
 -1       973-5.71987E+05 1.57827E+02-6.21306E+03 1.39890E+04-8.76571E-09 5.33419E-09
 -1       974-5.72640E+05-2.04715E+02-3.29284E+03 2.83938E+04-2.27737E-09 3.04112E-09
 -1       975-5.72284E+05 7.04193E+01-1.59630E+03 1.39434E+04 5.13046E-09 1.99202E-09
 -1       976-5.72388E+05 1.04586E+02-8.84256E+02 2.84616E+04-5.66160E-09-1.08946E-09
 -1       977-5.72331E+05 6.93191E+01-5.67828E+02 1.39205E+04 6.89033E-09-2.58012E-09
 -1       978-5.72388E+05 1.32380E+02-5.67689E+02 2.84929E+04 2.38405E-08-6.23720E-09
 -1       979-5.72333E+05 7.85838E+01-8.29032E+02 1.39118E+04 1.82473E-08 1.95780E-09
 -1       980-5.72457E+05 1.03230E+02-1.55926E+03 2.84952E+04 2.16591E-08 7.08701E-09
 -1       981-5.72267E+05 1.08401E+02-2.97513E+03 1.39181E+04 3.45881E-09 6.61095E-09
 -1       982-5.73013E+05-4.51593E+02-6.25018E+03 2.84646E+04 5.07498E-10 1.18234E-11
 -1       983-5.71739E+05 3.09433E+02-1.18228E+04 1.39435E+04 1.04797E-08 1.51385E-09
 -1       984-5.79694E+05-9.27331E+03-2.75291E+04 2.83065E+04-2.25737E-09-1.36424E-10
 -1       985-5.65509E+05 2.33897E+03-4.65267E+04 1.40872E+04 1.97178E-09-1.90266E-09
 -3
 9999
