    1C
    1UUSER                                                              
    1UDATE              11.october.2022                                 
    1UTIME              18:40:38                                        
    1UHOST                                                              
    1UPGM               CalculiX                                        
    1UVERSION           Version 2.20                             
    1UCOMPILETIME       Sun Jul 31 18:08:37 CEST 2022                    
    1UDIR                                                               
    1UDBN                                                               
    1UMAT    1MESH_MATERIAL                                             
    2C                           409                                     1
 -1         1 0.00000E+00 0.00000E+00 0.00000E+00
 -1         2 1.66667E-02 0.00000E+00 0.00000E+00
 -1         3 3.33333E-02 0.00000E+00 0.00000E+00
 -1         5 6.66667E-02 0.00000E+00 0.00000E+00
 -1         8 0.00000E+00 6.25000E-03 0.00000E+00
 -1         9 1.66667E-02 6.25000E-03 0.00000E+00
 -1        10 3.33333E-02 6.25000E-03 0.00000E+00
 -1        12 6.66667E-02 6.25000E-03 0.00000E+00
 -1        15 0.00000E+00 1.25000E-02 0.00000E+00
 -1        16 1.66667E-02 1.25000E-02 0.00000E+00
 -1        17 3.33333E-02 1.25000E-02 0.00000E+00
 -1        18 5.00000E-02 1.25000E-02 0.00000E+00
 -1        19 6.66667E-02 1.25000E-02 0.00000E+00
 -1        20 8.33333E-02 1.25000E-02 0.00000E+00
 -1        21 1.00000E-01 1.25000E-02 0.00000E+00
 -1        24 3.33333E-02 1.87500E-02 0.00000E+00
 -1        25 5.00000E-02 1.87500E-02 0.00000E+00
 -1        26 6.66667E-02 1.87500E-02 0.00000E+00
 -1        27 8.33333E-02 1.87500E-02 0.00000E+00
 -1        28 1.00000E-01 1.87500E-02 0.00000E+00
 -1        32 5.00000E-02 2.50000E-02 0.00000E+00
 -1        33 6.66667E-02 2.50000E-02 0.00000E+00
 -1        34 8.33333E-02 2.50000E-02 0.00000E+00
 -1        35 1.00000E-01 2.50000E-02 0.00000E+00
 -1        51 0.00000E+00 1.04167E-03 0.00000E+00
 -1        52 0.00000E+00 2.08333E-03 0.00000E+00
 -1        53 0.00000E+00 3.12500E-03 0.00000E+00
 -1        54 0.00000E+00 4.16667E-03 0.00000E+00
 -1        55 0.00000E+00 5.20833E-03 0.00000E+00
 -1        56 1.04167E-03 3.90630E-04 0.00000E+00
 -1        57 2.08333E-03 7.81250E-04 0.00000E+00
 -1        58 3.12500E-03 1.17188E-03 0.00000E+00
 -1        59 4.16667E-03 1.56250E-03 0.00000E+00
 -1        60 5.20833E-03 1.95312E-03 0.00000E+00
 -1        61 6.25000E-03 2.34375E-03 0.00000E+00
 -1        62 7.29167E-03 2.73438E-03 0.00000E+00
 -1        63 8.33333E-03 3.12500E-03 0.00000E+00
 -1        64 9.37500E-03 3.51563E-03 0.00000E+00
 -1        65 1.04167E-02 3.90625E-03 0.00000E+00
 -1        66 1.14583E-02 4.29688E-03 0.00000E+00
 -1        67 1.25000E-02 4.68750E-03 0.00000E+00
 -1        68 1.35417E-02 5.07813E-03 0.00000E+00
 -1        69 1.45833E-02 5.46875E-03 0.00000E+00
 -1        70 1.56250E-02 5.85938E-03 0.00000E+00
 -1        86 1.66667E-02 1.04167E-03 0.00000E+00
 -1        87 1.66667E-02 2.08333E-03 0.00000E+00
 -1        88 1.66667E-02 3.12500E-03 0.00000E+00
 -1        89 1.66667E-02 4.16667E-03 0.00000E+00
 -1        90 1.66667E-02 5.20833E-03 0.00000E+00
 -1       121 3.33333E-02 1.04167E-03 0.00000E+00
 -1       122 3.33333E-02 2.08333E-03 0.00000E+00
 -1       123 3.33333E-02 3.12500E-03 0.00000E+00
 -1       124 3.33333E-02 4.16667E-03 0.00000E+00
 -1       125 3.33333E-02 5.20833E-03 0.00000E+00
 -1       191 6.66667E-02 1.04167E-03 0.00000E+00
 -1       192 6.66667E-02 2.08333E-03 0.00000E+00
 -1       193 6.66667E-02 3.12500E-03 0.00000E+00
 -1       194 6.66667E-02 4.16667E-03 0.00000E+00
 -1       195 6.66667E-02 5.20833E-03 0.00000E+00
 -1       251 1.04167E-03 6.25000E-03 0.00000E+00
 -1       252 2.08333E-03 6.25000E-03 0.00000E+00
 -1       253 3.12500E-03 6.25000E-03 0.00000E+00
 -1       254 4.16667E-03 6.25000E-03 0.00000E+00
 -1       255 5.20833E-03 6.25000E-03 0.00000E+00
 -1       256 6.25000E-03 6.25000E-03 0.00000E+00
 -1       257 7.29167E-03 6.25000E-03 0.00000E+00
 -1       258 8.33333E-03 6.25000E-03 0.00000E+00
 -1       259 9.37500E-03 6.25000E-03 0.00000E+00
 -1       260 1.04167E-02 6.25000E-03 0.00000E+00
 -1       261 1.14583E-02 6.25000E-03 0.00000E+00
 -1       262 1.25000E-02 6.25000E-03 0.00000E+00
 -1       263 1.35417E-02 6.25000E-03 0.00000E+00
 -1       264 1.45833E-02 6.25000E-03 0.00000E+00
 -1       265 1.56250E-02 6.25000E-03 0.00000E+00
 -1       266 0.00000E+00 7.29167E-03 0.00000E+00
 -1       267 0.00000E+00 8.33333E-03 0.00000E+00
 -1       268 0.00000E+00 9.37500E-03 0.00000E+00
 -1       269 0.00000E+00 1.04167E-02 0.00000E+00
 -1       270 0.00000E+00 1.14583E-02 0.00000E+00
 -1       271 1.04167E-03 6.64063E-03 0.00000E+00
 -1       272 2.08333E-03 7.03125E-03 0.00000E+00
 -1       273 3.12500E-03 7.42188E-03 0.00000E+00
 -1       274 4.16667E-03 7.81250E-03 0.00000E+00
 -1       275 5.20833E-03 8.20313E-03 0.00000E+00
 -1       276 6.25000E-03 8.59375E-03 0.00000E+00
 -1       277 7.29167E-03 8.98438E-03 0.00000E+00
 -1       278 8.33333E-03 9.37500E-03 0.00000E+00
 -1       279 9.37500E-03 9.76562E-03 0.00000E+00
 -1       280 1.04167E-02 1.01562E-02 0.00000E+00
 -1       281 1.14583E-02 1.05469E-02 0.00000E+00
 -1       282 1.25000E-02 1.09375E-02 0.00000E+00
 -1       283 1.35417E-02 1.13281E-02 0.00000E+00
 -1       284 1.45833E-02 1.17188E-02 0.00000E+00
 -1       285 1.56250E-02 1.21094E-02 0.00000E+00
 -1       301 1.66667E-02 7.29167E-03 0.00000E+00
 -1       302 1.66667E-02 8.33333E-03 0.00000E+00
 -1       303 1.66667E-02 9.37500E-03 0.00000E+00
 -1       304 1.66667E-02 1.04167E-02 0.00000E+00
 -1       305 1.66667E-02 1.14583E-02 0.00000E+00
 -1       306 1.77083E-02 6.64063E-03 0.00000E+00
 -1       307 1.87500E-02 7.03125E-03 0.00000E+00
 -1       308 1.97917E-02 7.42188E-03 0.00000E+00
 -1       309 2.08333E-02 7.81250E-03 0.00000E+00
 -1       310 2.18750E-02 8.20313E-03 0.00000E+00
 -1       311 2.29167E-02 8.59375E-03 0.00000E+00
 -1       312 2.39583E-02 8.98438E-03 0.00000E+00
 -1       313 2.50000E-02 9.37500E-03 0.00000E+00
 -1       314 2.60417E-02 9.76562E-03 0.00000E+00
 -1       315 2.70833E-02 1.01562E-02 0.00000E+00
 -1       316 2.81250E-02 1.05469E-02 0.00000E+00
 -1       317 2.91667E-02 1.09375E-02 0.00000E+00
 -1       318 3.02083E-02 1.13281E-02 0.00000E+00
 -1       319 3.12500E-02 1.17188E-02 0.00000E+00
 -1       320 3.22917E-02 1.21094E-02 0.00000E+00
 -1       336 3.33333E-02 7.29167E-03 0.00000E+00
 -1       337 3.33333E-02 8.33333E-03 0.00000E+00
 -1       338 3.33333E-02 9.37500E-03 0.00000E+00
 -1       339 3.33333E-02 1.04167E-02 0.00000E+00
 -1       340 3.33333E-02 1.14583E-02 0.00000E+00
 -1       406 6.66667E-02 7.29167E-03 0.00000E+00
 -1       407 6.66667E-02 8.33333E-03 0.00000E+00
 -1       408 6.66667E-02 9.37500E-03 0.00000E+00
 -1       409 6.66667E-02 1.04167E-02 0.00000E+00
 -1       410 6.66667E-02 1.14583E-02 0.00000E+00
 -1       521 1.77083E-02 1.28906E-02 0.00000E+00
 -1       522 1.87500E-02 1.32813E-02 0.00000E+00
 -1       523 1.97917E-02 1.36719E-02 0.00000E+00
 -1       524 2.08333E-02 1.40625E-02 0.00000E+00
 -1       525 2.18750E-02 1.44531E-02 0.00000E+00
 -1       526 2.29167E-02 1.48437E-02 0.00000E+00
 -1       527 2.39583E-02 1.52344E-02 0.00000E+00
 -1       528 2.50000E-02 1.56250E-02 0.00000E+00
 -1       529 2.60417E-02 1.60156E-02 0.00000E+00
 -1       530 2.70833E-02 1.64062E-02 0.00000E+00
 -1       531 2.81250E-02 1.67969E-02 0.00000E+00
 -1       532 2.91667E-02 1.71875E-02 0.00000E+00
 -1       533 3.02083E-02 1.75781E-02 0.00000E+00
 -1       534 3.12500E-02 1.79687E-02 0.00000E+00
 -1       535 3.22917E-02 1.83594E-02 0.00000E+00
 -1       536 3.43750E-02 1.25000E-02 0.00000E+00
 -1       537 3.54167E-02 1.25000E-02 0.00000E+00
 -1       538 3.64583E-02 1.25000E-02 0.00000E+00
 -1       539 3.75000E-02 1.25000E-02 0.00000E+00
 -1       540 3.85417E-02 1.25000E-02 0.00000E+00
 -1       541 3.95833E-02 1.25000E-02 0.00000E+00
 -1       542 4.06250E-02 1.25000E-02 0.00000E+00
 -1       543 4.16667E-02 1.25000E-02 0.00000E+00
 -1       544 4.27083E-02 1.25000E-02 0.00000E+00
 -1       545 4.37500E-02 1.25000E-02 0.00000E+00
 -1       546 4.47917E-02 1.25000E-02 0.00000E+00
 -1       547 4.58333E-02 1.25000E-02 0.00000E+00
 -1       548 4.68750E-02 1.25000E-02 0.00000E+00
 -1       549 4.79167E-02 1.25000E-02 0.00000E+00
 -1       550 4.89583E-02 1.25000E-02 0.00000E+00
 -1       551 3.33333E-02 1.35417E-02 0.00000E+00
 -1       552 3.33333E-02 1.45833E-02 0.00000E+00
 -1       553 3.33333E-02 1.56250E-02 0.00000E+00
 -1       554 3.33333E-02 1.66667E-02 0.00000E+00
 -1       555 3.33333E-02 1.77083E-02 0.00000E+00
 -1       556 3.43750E-02 1.28906E-02 0.00000E+00
 -1       557 3.54167E-02 1.32813E-02 0.00000E+00
 -1       558 3.64583E-02 1.36719E-02 0.00000E+00
 -1       559 3.75000E-02 1.40625E-02 0.00000E+00
 -1       560 3.85417E-02 1.44531E-02 0.00000E+00
 -1       561 3.95833E-02 1.48437E-02 0.00000E+00
 -1       562 4.06250E-02 1.52344E-02 0.00000E+00
 -1       563 4.16667E-02 1.56250E-02 0.00000E+00
 -1       564 4.27083E-02 1.60156E-02 0.00000E+00
 -1       565 4.37500E-02 1.64062E-02 0.00000E+00
 -1       566 4.47917E-02 1.67969E-02 0.00000E+00
 -1       567 4.58333E-02 1.71875E-02 0.00000E+00
 -1       568 4.68750E-02 1.75781E-02 0.00000E+00
 -1       569 4.79167E-02 1.79687E-02 0.00000E+00
 -1       570 4.89583E-02 1.83594E-02 0.00000E+00
 -1       571 5.10417E-02 1.25000E-02 0.00000E+00
 -1       572 5.20833E-02 1.25000E-02 0.00000E+00
 -1       573 5.31250E-02 1.25000E-02 0.00000E+00
 -1       574 5.41667E-02 1.25000E-02 0.00000E+00
 -1       575 5.52083E-02 1.25000E-02 0.00000E+00
 -1       576 5.62500E-02 1.25000E-02 0.00000E+00
 -1       577 5.72917E-02 1.25000E-02 0.00000E+00
 -1       578 5.83333E-02 1.25000E-02 0.00000E+00
 -1       579 5.93750E-02 1.25000E-02 0.00000E+00
 -1       580 6.04167E-02 1.25000E-02 0.00000E+00
 -1       581 6.14583E-02 1.25000E-02 0.00000E+00
 -1       582 6.25000E-02 1.25000E-02 0.00000E+00
 -1       583 6.35417E-02 1.25000E-02 0.00000E+00
 -1       584 6.45833E-02 1.25000E-02 0.00000E+00
 -1       585 6.56250E-02 1.25000E-02 0.00000E+00
 -1       586 5.00000E-02 1.35417E-02 0.00000E+00
 -1       587 5.00000E-02 1.45833E-02 0.00000E+00
 -1       588 5.00000E-02 1.56250E-02 0.00000E+00
 -1       589 5.00000E-02 1.66667E-02 0.00000E+00
 -1       590 5.00000E-02 1.77083E-02 0.00000E+00
 -1       591 5.10417E-02 1.28906E-02 0.00000E+00
 -1       592 5.20833E-02 1.32813E-02 0.00000E+00
 -1       593 5.31250E-02 1.36719E-02 0.00000E+00
 -1       594 5.41667E-02 1.40625E-02 0.00000E+00
 -1       595 5.52083E-02 1.44531E-02 0.00000E+00
 -1       596 5.62500E-02 1.48437E-02 0.00000E+00
 -1       597 5.72917E-02 1.52344E-02 0.00000E+00
 -1       598 5.83333E-02 1.56250E-02 0.00000E+00
 -1       599 5.93750E-02 1.60156E-02 0.00000E+00
 -1       600 6.04167E-02 1.64062E-02 0.00000E+00
 -1       601 6.14583E-02 1.67969E-02 0.00000E+00
 -1       602 6.25000E-02 1.71875E-02 0.00000E+00
 -1       603 6.35417E-02 1.75781E-02 0.00000E+00
 -1       604 6.45833E-02 1.79687E-02 0.00000E+00
 -1       605 6.56250E-02 1.83594E-02 0.00000E+00
 -1       606 6.77083E-02 1.25000E-02 0.00000E+00
 -1       607 6.87500E-02 1.25000E-02 0.00000E+00
 -1       608 6.97917E-02 1.25000E-02 0.00000E+00
 -1       609 7.08333E-02 1.25000E-02 0.00000E+00
 -1       610 7.18750E-02 1.25000E-02 0.00000E+00
 -1       611 7.29167E-02 1.25000E-02 0.00000E+00
 -1       612 7.39583E-02 1.25000E-02 0.00000E+00
 -1       613 7.50000E-02 1.25000E-02 0.00000E+00
 -1       614 7.60417E-02 1.25000E-02 0.00000E+00
 -1       615 7.70833E-02 1.25000E-02 0.00000E+00
 -1       616 7.81250E-02 1.25000E-02 0.00000E+00
 -1       617 7.91667E-02 1.25000E-02 0.00000E+00
 -1       618 8.02083E-02 1.25000E-02 0.00000E+00
 -1       619 8.12500E-02 1.25000E-02 0.00000E+00
 -1       620 8.22917E-02 1.25000E-02 0.00000E+00
 -1       621 6.66667E-02 1.35417E-02 0.00000E+00
 -1       622 6.66667E-02 1.45833E-02 0.00000E+00
 -1       623 6.66667E-02 1.56250E-02 0.00000E+00
 -1       624 6.66667E-02 1.66667E-02 0.00000E+00
 -1       625 6.66667E-02 1.77083E-02 0.00000E+00
 -1       626 6.77083E-02 1.28906E-02 0.00000E+00
 -1       627 6.87500E-02 1.32813E-02 0.00000E+00
 -1       628 6.97917E-02 1.36719E-02 0.00000E+00
 -1       629 7.08333E-02 1.40625E-02 0.00000E+00
 -1       630 7.18750E-02 1.44531E-02 0.00000E+00
 -1       631 7.29167E-02 1.48437E-02 0.00000E+00
 -1       632 7.39583E-02 1.52344E-02 0.00000E+00
 -1       633 7.50000E-02 1.56250E-02 0.00000E+00
 -1       634 7.60417E-02 1.60156E-02 0.00000E+00
 -1       635 7.70833E-02 1.64062E-02 0.00000E+00
 -1       636 7.81250E-02 1.67969E-02 0.00000E+00
 -1       637 7.91667E-02 1.71875E-02 0.00000E+00
 -1       638 8.02083E-02 1.75781E-02 0.00000E+00
 -1       639 8.12500E-02 1.79687E-02 0.00000E+00
 -1       640 8.22917E-02 1.83594E-02 0.00000E+00
 -1       656 8.33333E-02 1.35417E-02 0.00000E+00
 -1       657 8.33333E-02 1.45833E-02 0.00000E+00
 -1       658 8.33333E-02 1.56250E-02 0.00000E+00
 -1       659 8.33333E-02 1.66667E-02 0.00000E+00
 -1       660 8.33333E-02 1.77083E-02 0.00000E+00
 -1       661 8.43750E-02 1.28906E-02 0.00000E+00
 -1       662 8.54167E-02 1.32813E-02 0.00000E+00
 -1       663 8.64583E-02 1.36719E-02 0.00000E+00
 -1       664 8.75000E-02 1.40625E-02 0.00000E+00
 -1       665 8.85417E-02 1.44531E-02 0.00000E+00
 -1       666 8.95833E-02 1.48437E-02 0.00000E+00
 -1       667 9.06250E-02 1.52344E-02 0.00000E+00
 -1       668 9.16667E-02 1.56250E-02 0.00000E+00
 -1       669 9.27083E-02 1.60156E-02 0.00000E+00
 -1       670 9.37500E-02 1.64062E-02 0.00000E+00
 -1       671 9.47917E-02 1.67969E-02 0.00000E+00
 -1       672 9.58333E-02 1.71875E-02 0.00000E+00
 -1       673 9.68750E-02 1.75781E-02 0.00000E+00
 -1       674 9.79167E-02 1.79687E-02 0.00000E+00
 -1       675 9.89583E-02 1.83594E-02 0.00000E+00
 -1       676 1.00000E-01 1.35417E-02 0.00000E+00
 -1       677 1.00000E-01 1.45833E-02 0.00000E+00
 -1       678 1.00000E-01 1.56250E-02 0.00000E+00
 -1       679 1.00000E-01 1.66667E-02 0.00000E+00
 -1       680 1.00000E-01 1.77083E-02 0.00000E+00
 -1       771 3.43750E-02 1.91406E-02 0.00000E+00
 -1       772 3.54167E-02 1.95312E-02 0.00000E+00
 -1       773 3.64583E-02 1.99219E-02 0.00000E+00
 -1       774 3.75000E-02 2.03125E-02 0.00000E+00
 -1       775 3.85417E-02 2.07031E-02 0.00000E+00
 -1       776 3.95833E-02 2.10938E-02 0.00000E+00
 -1       777 4.06250E-02 2.14844E-02 0.00000E+00
 -1       778 4.16667E-02 2.18750E-02 0.00000E+00
 -1       779 4.27083E-02 2.22656E-02 0.00000E+00
 -1       780 4.37500E-02 2.26563E-02 0.00000E+00
 -1       781 4.47917E-02 2.30469E-02 0.00000E+00
 -1       782 4.58333E-02 2.34375E-02 0.00000E+00
 -1       783 4.68750E-02 2.38281E-02 0.00000E+00
 -1       784 4.79167E-02 2.42187E-02 0.00000E+00
 -1       785 4.89583E-02 2.46094E-02 0.00000E+00
 -1       786 5.10417E-02 1.87500E-02 0.00000E+00
 -1       787 5.20833E-02 1.87500E-02 0.00000E+00
 -1       788 5.31250E-02 1.87500E-02 0.00000E+00
 -1       789 5.41667E-02 1.87500E-02 0.00000E+00
 -1       790 5.52083E-02 1.87500E-02 0.00000E+00
 -1       791 5.62500E-02 1.87500E-02 0.00000E+00
 -1       792 5.72917E-02 1.87500E-02 0.00000E+00
 -1       793 5.83333E-02 1.87500E-02 0.00000E+00
 -1       794 5.93750E-02 1.87500E-02 0.00000E+00
 -1       795 6.04167E-02 1.87500E-02 0.00000E+00
 -1       796 6.14583E-02 1.87500E-02 0.00000E+00
 -1       797 6.25000E-02 1.87500E-02 0.00000E+00
 -1       798 6.35417E-02 1.87500E-02 0.00000E+00
 -1       799 6.45833E-02 1.87500E-02 0.00000E+00
 -1       800 6.56250E-02 1.87500E-02 0.00000E+00
 -1       801 5.00000E-02 1.97917E-02 0.00000E+00
 -1       802 5.00000E-02 2.08333E-02 0.00000E+00
 -1       803 5.00000E-02 2.18750E-02 0.00000E+00
 -1       804 5.00000E-02 2.29167E-02 0.00000E+00
 -1       805 5.00000E-02 2.39583E-02 0.00000E+00
 -1       806 5.10417E-02 1.91406E-02 0.00000E+00
 -1       807 5.20833E-02 1.95312E-02 0.00000E+00
 -1       808 5.31250E-02 1.99219E-02 0.00000E+00
 -1       809 5.41667E-02 2.03125E-02 0.00000E+00
 -1       810 5.52083E-02 2.07031E-02 0.00000E+00
 -1       811 5.62500E-02 2.10938E-02 0.00000E+00
 -1       812 5.72917E-02 2.14844E-02 0.00000E+00
 -1       813 5.83333E-02 2.18750E-02 0.00000E+00
 -1       814 5.93750E-02 2.22656E-02 0.00000E+00
 -1       815 6.04167E-02 2.26563E-02 0.00000E+00
 -1       816 6.14583E-02 2.30469E-02 0.00000E+00
 -1       817 6.25000E-02 2.34375E-02 0.00000E+00
 -1       818 6.35417E-02 2.38281E-02 0.00000E+00
 -1       819 6.45833E-02 2.42187E-02 0.00000E+00
 -1       820 6.56250E-02 2.46094E-02 0.00000E+00
 -1       821 6.77083E-02 1.87500E-02 0.00000E+00
 -1       822 6.87500E-02 1.87500E-02 0.00000E+00
 -1       823 6.97917E-02 1.87500E-02 0.00000E+00
 -1       824 7.08333E-02 1.87500E-02 0.00000E+00
 -1       825 7.18750E-02 1.87500E-02 0.00000E+00
 -1       826 7.29167E-02 1.87500E-02 0.00000E+00
 -1       827 7.39583E-02 1.87500E-02 0.00000E+00
 -1       828 7.50000E-02 1.87500E-02 0.00000E+00
 -1       829 7.60417E-02 1.87500E-02 0.00000E+00
 -1       830 7.70833E-02 1.87500E-02 0.00000E+00
 -1       831 7.81250E-02 1.87500E-02 0.00000E+00
 -1       832 7.91667E-02 1.87500E-02 0.00000E+00
 -1       833 8.02083E-02 1.87500E-02 0.00000E+00
 -1       834 8.12500E-02 1.87500E-02 0.00000E+00
 -1       835 8.22917E-02 1.87500E-02 0.00000E+00
 -1       836 6.66667E-02 1.97917E-02 0.00000E+00
 -1       837 6.66667E-02 2.08333E-02 0.00000E+00
 -1       838 6.66667E-02 2.18750E-02 0.00000E+00
 -1       839 6.66667E-02 2.29167E-02 0.00000E+00
 -1       840 6.66667E-02 2.39583E-02 0.00000E+00
 -1       856 8.43750E-02 1.87500E-02 0.00000E+00
 -1       857 8.54167E-02 1.87500E-02 0.00000E+00
 -1       858 8.64583E-02 1.87500E-02 0.00000E+00
 -1       859 8.75000E-02 1.87500E-02 0.00000E+00
 -1       860 8.85417E-02 1.87500E-02 0.00000E+00
 -1       861 8.95833E-02 1.87500E-02 0.00000E+00
 -1       862 9.06250E-02 1.87500E-02 0.00000E+00
 -1       863 9.16667E-02 1.87500E-02 0.00000E+00
 -1       864 9.27083E-02 1.87500E-02 0.00000E+00
 -1       865 9.37500E-02 1.87500E-02 0.00000E+00
 -1       866 9.47917E-02 1.87500E-02 0.00000E+00
 -1       867 9.58333E-02 1.87500E-02 0.00000E+00
 -1       868 9.68750E-02 1.87500E-02 0.00000E+00
 -1       869 9.79167E-02 1.87500E-02 0.00000E+00
 -1       870 9.89583E-02 1.87500E-02 0.00000E+00
 -1       871 8.33333E-02 1.97917E-02 0.00000E+00
 -1       872 8.33333E-02 2.08333E-02 0.00000E+00
 -1       873 8.33333E-02 2.18750E-02 0.00000E+00
 -1       874 8.33333E-02 2.29167E-02 0.00000E+00
 -1       875 8.33333E-02 2.39583E-02 0.00000E+00
 -1       876 8.43750E-02 1.91406E-02 0.00000E+00
 -1       877 8.54167E-02 1.95312E-02 0.00000E+00
 -1       878 8.64583E-02 1.99219E-02 0.00000E+00
 -1       879 8.75000E-02 2.03125E-02 0.00000E+00
 -1       880 8.85417E-02 2.07031E-02 0.00000E+00
 -1       881 8.95833E-02 2.10938E-02 0.00000E+00
 -1       882 9.06250E-02 2.14844E-02 0.00000E+00
 -1       883 9.16667E-02 2.18750E-02 0.00000E+00
 -1       884 9.27083E-02 2.22656E-02 0.00000E+00
 -1       885 9.37500E-02 2.26563E-02 0.00000E+00
 -1       886 9.47917E-02 2.30469E-02 0.00000E+00
 -1       887 9.58333E-02 2.34375E-02 0.00000E+00
 -1       888 9.68750E-02 2.38281E-02 0.00000E+00
 -1       889 9.79167E-02 2.42187E-02 0.00000E+00
 -1       890 9.89583E-02 2.46094E-02 0.00000E+00
 -1       891 1.00000E-01 1.97917E-02 0.00000E+00
 -1       892 1.00000E-01 2.08333E-02 0.00000E+00
 -1       893 1.00000E-01 2.18750E-02 0.00000E+00
 -1       894 1.00000E-01 2.29167E-02 0.00000E+00
 -1       895 1.00000E-01 2.39583E-02 0.00000E+00
 -1       956 6.77083E-02 2.50000E-02 0.00000E+00
 -1       957 6.87500E-02 2.50000E-02 0.00000E+00
 -1       958 6.97917E-02 2.50000E-02 0.00000E+00
 -1       959 7.08333E-02 2.50000E-02 0.00000E+00
 -1       960 7.18750E-02 2.50000E-02 0.00000E+00
 -1       961 7.29167E-02 2.50000E-02 0.00000E+00
 -1       962 7.39583E-02 2.50000E-02 0.00000E+00
 -1       963 7.50000E-02 2.50000E-02 0.00000E+00
 -1       964 7.60417E-02 2.50000E-02 0.00000E+00
 -1       965 7.70833E-02 2.50000E-02 0.00000E+00
 -1       966 7.81250E-02 2.50000E-02 0.00000E+00
 -1       967 7.91667E-02 2.50000E-02 0.00000E+00
 -1       968 8.02083E-02 2.50000E-02 0.00000E+00
 -1       969 8.12500E-02 2.50000E-02 0.00000E+00
 -1       970 8.22917E-02 2.50000E-02 0.00000E+00
 -1       971 8.43750E-02 2.50000E-02 0.00000E+00
 -1       972 8.54167E-02 2.50000E-02 0.00000E+00
 -1       973 8.64583E-02 2.50000E-02 0.00000E+00
 -1       974 8.75000E-02 2.50000E-02 0.00000E+00
 -1       975 8.85417E-02 2.50000E-02 0.00000E+00
 -1       976 8.95833E-02 2.50000E-02 0.00000E+00
 -1       977 9.06250E-02 2.50000E-02 0.00000E+00
 -1       978 9.16667E-02 2.50000E-02 0.00000E+00
 -1       979 9.27083E-02 2.50000E-02 0.00000E+00
 -1       980 9.37500E-02 2.50000E-02 0.00000E+00
 -1       981 9.47917E-02 2.50000E-02 0.00000E+00
 -1       982 9.58333E-02 2.50000E-02 0.00000E+00
 -1       983 9.68750E-02 2.50000E-02 0.00000E+00
 -1       984 9.79167E-02 2.50000E-02 0.00000E+00
 -1       985 9.89583E-02 2.50000E-02 0.00000E+00
 -3
    3C                           211                                     1
 -1         1   12    0    1
 -2         1        52        51
 -1         2   12    0    1
 -2        52        54        53
 -1         3   12    0    1
 -2        54         8        55
 -1         4   12    0    1
 -2         1        57        56
 -1         5   12    0    1
 -2        57        59        58
 -1         6   12    0    1
 -2        59        61        60
 -1         7   12    0    1
 -2        61        63        62
 -1         8   12    0    1
 -2        63        65        64
 -1         9   12    0    1
 -2        65        67        66
 -1        10   12    0    1
 -2        67        69        68
 -1        11   12    0    1
 -2        69         9        70
 -1        12   12    0    1
 -2         2        87        86
 -1        13   12    0    1
 -2        87        89        88
 -1        14   12    0    1
 -2        89         9        90
 -1        15   12    0    1
 -2         3       122       121
 -1        16   12    0    1
 -2       122       124       123
 -1        17   12    0    1
 -2       124        10       125
 -1        18   12    0    1
 -2         5       192       191
 -1        19   12    0    1
 -2       192       194       193
 -1        20   12    0    1
 -2       194        12       195
 -1        21   12    0    1
 -2         8       252       251
 -1        22   12    0    1
 -2       252       254       253
 -1        23   12    0    1
 -2       254       256       255
 -1        24   12    0    1
 -2       256       258       257
 -1        25   12    0    1
 -2       258       260       259
 -1        26   12    0    1
 -2       260       262       261
 -1        27   12    0    1
 -2       262       264       263
 -1        28   12    0    1
 -2       264         9       265
 -1        29   12    0    1
 -2         8       267       266
 -1        30   12    0    1
 -2       267       269       268
 -1        31   12    0    1
 -2       269        15       270
 -1        32   12    0    1
 -2         8       272       271
 -1        33   12    0    1
 -2       272       274       273
 -1        34   12    0    1
 -2       274       276       275
 -1        35   12    0    1
 -2       276       278       277
 -1        36   12    0    1
 -2       278       280       279
 -1        37   12    0    1
 -2       280       282       281
 -1        38   12    0    1
 -2       282       284       283
 -1        39   12    0    1
 -2       284        16       285
 -1        40   12    0    1
 -2         9       302       301
 -1        41   12    0    1
 -2       302       304       303
 -1        42   12    0    1
 -2       304        16       305
 -1        43   12    0    1
 -2         9       307       306
 -1        44   12    0    1
 -2       307       309       308
 -1        45   12    0    1
 -2       309       311       310
 -1        46   12    0    1
 -2       311       313       312
 -1        47   12    0    1
 -2       313       315       314
 -1        48   12    0    1
 -2       315       317       316
 -1        49   12    0    1
 -2       317       319       318
 -1        50   12    0    1
 -2       319        17       320
 -1        51   12    0    1
 -2        10       337       336
 -1        52   12    0    1
 -2       337       339       338
 -1        53   12    0    1
 -2       339        17       340
 -1        54   12    0    1
 -2        12       407       406
 -1        55   12    0    1
 -2       407       409       408
 -1        56   12    0    1
 -2       409        19       410
 -1        57   12    0    1
 -2        16       522       521
 -1        58   12    0    1
 -2       522       524       523
 -1        59   12    0    1
 -2       524       526       525
 -1        60   12    0    1
 -2       526       528       527
 -1        61   12    0    1
 -2       528       530       529
 -1        62   12    0    1
 -2       530       532       531
 -1        63   12    0    1
 -2       532       534       533
 -1        64   12    0    1
 -2       534        24       535
 -1        65   12    0    1
 -2        17       537       536
 -1        66   12    0    1
 -2       537       539       538
 -1        67   12    0    1
 -2       539       541       540
 -1        68   12    0    1
 -2       541       543       542
 -1        69   12    0    1
 -2       543       545       544
 -1        70   12    0    1
 -2       545       547       546
 -1        71   12    0    1
 -2       547       549       548
 -1        72   12    0    1
 -2       549        18       550
 -1        73   12    0    1
 -2        17       552       551
 -1        74   12    0    1
 -2       552       554       553
 -1        75   12    0    1
 -2       554        24       555
 -1        76   12    0    1
 -2        17       557       556
 -1        77   12    0    1
 -2       557       559       558
 -1        78   12    0    1
 -2       559       561       560
 -1        79   12    0    1
 -2       561       563       562
 -1        80   12    0    1
 -2       563       565       564
 -1        81   12    0    1
 -2       565       567       566
 -1        82   12    0    1
 -2       567       569       568
 -1        83   12    0    1
 -2       569        25       570
 -1        84   12    0    1
 -2        18       572       571
 -1        85   12    0    1
 -2       572       574       573
 -1        86   12    0    1
 -2       574       576       575
 -1        87   12    0    1
 -2       576       578       577
 -1        88   12    0    1
 -2       578       580       579
 -1        89   12    0    1
 -2       580       582       581
 -1        90   12    0    1
 -2       582       584       583
 -1        91   12    0    1
 -2       584        19       585
 -1        92   12    0    1
 -2        18       587       586
 -1        93   12    0    1
 -2       587       589       588
 -1        94   12    0    1
 -2       589        25       590
 -1        95   12    0    1
 -2        18       592       591
 -1        96   12    0    1
 -2       592       594       593
 -1        97   12    0    1
 -2       594       596       595
 -1        98   12    0    1
 -2       596       598       597
 -1        99   12    0    1
 -2       598       600       599
 -1       100   12    0    1
 -2       600       602       601
 -1       101   12    0    1
 -2       602       604       603
 -1       102   12    0    1
 -2       604        26       605
 -1       103   12    0    1
 -2        19       607       606
 -1       104   12    0    1
 -2       607       609       608
 -1       105   12    0    1
 -2       609       611       610
 -1       106   12    0    1
 -2       611       613       612
 -1       107   12    0    1
 -2       613       615       614
 -1       108   12    0    1
 -2       615       617       616
 -1       109   12    0    1
 -2       617       619       618
 -1       110   12    0    1
 -2       619        20       620
 -1       111   12    0    1
 -2        19       622       621
 -1       112   12    0    1
 -2       622       624       623
 -1       113   12    0    1
 -2       624        26       625
 -1       114   12    0    1
 -2        19       627       626
 -1       115   12    0    1
 -2       627       629       628
 -1       116   12    0    1
 -2       629       631       630
 -1       117   12    0    1
 -2       631       633       632
 -1       118   12    0    1
 -2       633       635       634
 -1       119   12    0    1
 -2       635       637       636
 -1       120   12    0    1
 -2       637       639       638
 -1       121   12    0    1
 -2       639        27       640
 -1       122   12    0    1
 -2        20       657       656
 -1       123   12    0    1
 -2       657       659       658
 -1       124   12    0    1
 -2       659        27       660
 -1       125   12    0    1
 -2        20       662       661
 -1       126   12    0    1
 -2       662       664       663
 -1       127   12    0    1
 -2       664       666       665
 -1       128   12    0    1
 -2       666       668       667
 -1       129   12    0    1
 -2       668       670       669
 -1       130   12    0    1
 -2       670       672       671
 -1       131   12    0    1
 -2       672       674       673
 -1       132   12    0    1
 -2       674        28       675
 -1       133   12    0    1
 -2        21       677       676
 -1       134   12    0    1
 -2       677       679       678
 -1       135   12    0    1
 -2       679        28       680
 -1       136   12    0    1
 -2        24       772       771
 -1       137   12    0    1
 -2       772       774       773
 -1       138   12    0    1
 -2       774       776       775
 -1       139   12    0    1
 -2       776       778       777
 -1       140   12    0    1
 -2       778       780       779
 -1       141   12    0    1
 -2       780       782       781
 -1       142   12    0    1
 -2       782       784       783
 -1       143   12    0    1
 -2       784        32       785
 -1       144   12    0    1
 -2        25       787       786
 -1       145   12    0    1
 -2       787       789       788
 -1       146   12    0    1
 -2       789       791       790
 -1       147   12    0    1
 -2       791       793       792
 -1       148   12    0    1
 -2       793       795       794
 -1       149   12    0    1
 -2       795       797       796
 -1       150   12    0    1
 -2       797       799       798
 -1       151   12    0    1
 -2       799        26       800
 -1       152   12    0    1
 -2        25       802       801
 -1       153   12    0    1
 -2       802       804       803
 -1       154   12    0    1
 -2       804        32       805
 -1       155   12    0    1
 -2        25       807       806
 -1       156   12    0    1
 -2       807       809       808
 -1       157   12    0    1
 -2       809       811       810
 -1       158   12    0    1
 -2       811       813       812
 -1       159   12    0    1
 -2       813       815       814
 -1       160   12    0    1
 -2       815       817       816
 -1       161   12    0    1
 -2       817       819       818
 -1       162   12    0    1
 -2       819        33       820
 -1       163   12    0    1
 -2        26       822       821
 -1       164   12    0    1
 -2       822       824       823
 -1       165   12    0    1
 -2       824       826       825
 -1       166   12    0    1
 -2       826       828       827
 -1       167   12    0    1
 -2       828       830       829
 -1       168   12    0    1
 -2       830       832       831
 -1       169   12    0    1
 -2       832       834       833
 -1       170   12    0    1
 -2       834        27       835
 -1       171   12    0    1
 -2        26       837       836
 -1       172   12    0    1
 -2       837       839       838
 -1       173   12    0    1
 -2       839        33       840
 -1       174   12    0    1
 -2        27       857       856
 -1       175   12    0    1
 -2       857       859       858
 -1       176   12    0    1
 -2       859       861       860
 -1       177   12    0    1
 -2       861       863       862
 -1       178   12    0    1
 -2       863       865       864
 -1       179   12    0    1
 -2       865       867       866
 -1       180   12    0    1
 -2       867       869       868
 -1       181   12    0    1
 -2       869        28       870
 -1       182   12    0    1
 -2        27       872       871
 -1       183   12    0    1
 -2       872       874       873
 -1       184   12    0    1
 -2       874        34       875
 -1       185   12    0    1
 -2        27       877       876
 -1       186   12    0    1
 -2       877       879       878
 -1       187   12    0    1
 -2       879       881       880
 -1       188   12    0    1
 -2       881       883       882
 -1       189   12    0    1
 -2       883       885       884
 -1       190   12    0    1
 -2       885       887       886
 -1       191   12    0    1
 -2       887       889       888
 -1       192   12    0    1
 -2       889        35       890
 -1       193   12    0    1
 -2        28       892       891
 -1       194   12    0    1
 -2       892       894       893
 -1       195   12    0    1
 -2       894        35       895
 -1       196   12    0    1
 -2        33       957       956
 -1       197   12    0    1
 -2       957       959       958
 -1       198   12    0    1
 -2       959       961       960
 -1       199   12    0    1
 -2       961       963       962
 -1       200   12    0    1
 -2       963       965       964
 -1       201   12    0    1
 -2       965       967       966
 -1       202   12    0    1
 -2       967       969       968
 -1       203   12    0    1
 -2       969        34       970
 -1       204   12    0    1
 -2        34       972       971
 -1       205   12    0    1
 -2       972       974       973
 -1       206   12    0    1
 -2       974       976       975
 -1       207   12    0    1
 -2       976       978       977
 -1       208   12    0    1
 -2       978       980       979
 -1       209   12    0    1
 -2       980       982       981
 -1       210   12    0    1
 -2       982       984       983
 -1       211   12    0    1
 -2       984        35       985
 -3
    1PSTEP                         1           1           1          
  100CL  101 1.000000000         409                     0    1           1
 -4  DISP        4    1
 -5  D1          1    2    1    0
 -5  D2          1    2    2    0
 -5  D3          1    2    3    0
 -5  ALL         1    2    0    0    1ALL
 -1         1 2.47706E-04 0.00000E+00 0.00000E+00
 -1         2 2.33549E-04-2.15855E-27 6.61744E-24
 -1         3 2.27141E-04 7.47286E-26-1.32349E-23
 -1         5 1.53645E-04-5.33273E-25 6.61744E-24
 -1         8 2.05488E-04-1.84550E-06 0.00000E+00
 -1         9 2.09308E-04 1.04601E-06 0.00000E+00
 -1        10 2.07914E-04-2.54957E-06 0.00000E+00
 -1        12 1.52600E-04 1.11685E-06-3.30872E-24
 -1        15 1.56931E-04-2.07724E-06 0.00000E+00
 -1        16 1.60191E-04 6.98535E-07 0.00000E+00
 -1        17 1.47650E-04-5.53010E-06 0.00000E+00
 -1        18 1.47321E-04 8.92688E-07 0.00000E+00
 -1        19 1.49461E-04 2.22754E-06 0.00000E+00
 -1        20 1.49859E-04 3.19144E-05 0.00000E+00
 -1        21 1.47614E-04 6.26927E-05-3.30872E-24
 -1        24 3.60230E-05-8.32934E-06 0.00000E+00
 -1        25 1.43627E-04 1.16236E-06 0.00000E+00
 -1        26 1.45561E-04 3.07018E-06 0.00000E+00
 -1        27 1.42412E-04 2.87843E-05 0.00000E+00
 -1        28 1.41075E-04 6.18997E-05 0.00000E+00
 -1        32 0.00000E+00 0.00000E+00 0.00000E+00
 -1        33 1.39560E-04 4.31791E-06 0.00000E+00
 -1        34 1.36483E-04 2.87105E-05 0.00000E+00
 -1        35 1.33480E-04 6.13800E-05 0.00000E+00
 -1        51 2.44832E-04-3.00818E-07 0.00000E+00
 -1        52 2.39676E-04-5.94994E-07 0.00000E+00
 -1        53 2.32691E-04-8.93670E-07 0.00000E+00
 -1        54 2.24349E-04-1.19980E-06 6.61744E-24
 -1        55 2.15123E-04-1.51423E-06 1.26145E-23
 -1        56 2.45872E-04-1.23161E-06 5.29396E-23
 -1        57 2.44281E-04-3.31509E-06 2.64698E-23
 -1        58 2.42923E-04-6.01557E-06-5.29396E-23
 -1        59 2.41700E-04-9.10815E-06 2.64698E-23
 -1        60 2.40529E-04-1.23430E-05 5.29396E-23
 -1        61 2.39315E-04-1.54698E-05 2.64698E-23
 -1        62 2.37969E-04-1.82420E-05-5.29396E-23
 -1        63 2.36403E-04-2.04252E-05 2.64698E-23
 -1        64 2.34538E-04-2.18093E-05-5.29396E-23
 -1        65 2.32305E-04-2.22109E-05-2.64698E-23
 -1        66 2.29649E-04-2.14871E-05 0.00000E+00
 -1        67 2.26530E-04-1.95317E-05 0.00000E+00
 -1        68 2.22925E-04-1.62907E-05 5.29396E-23
 -1        69 2.18837E-04-1.17481E-05 0.00000E+00
 -1        70 2.14266E-04-5.94980E-06 0.00000E+00
 -1        86 2.32896E-04 1.93427E-07 6.61744E-24
 -1        87 2.30932E-04 3.84273E-07 0.00000E+00
 -1        88 2.27633E-04 5.71499E-07-3.30872E-24
 -1        89 2.22967E-04 7.47535E-07 5.16988E-26
 -1        90 2.16879E-04 9.18082E-07 0.00000E+00
 -1       121 2.26603E-04-4.18408E-07-1.32349E-23
 -1       122 2.24993E-04-8.37928E-07-6.61744E-24
 -1       123 2.22312E-04-1.25967E-06 1.32349E-23
 -1       124 2.18567E-04-1.68477E-06-6.61744E-24
 -1       125 2.13763E-04-2.11420E-06-1.32349E-23
 -1       191 1.53616E-04 1.86167E-07 0.00000E+00
 -1       192 1.53529E-04 3.72329E-07 0.00000E+00
 -1       193 1.53384E-04 5.58485E-07-1.32349E-23
 -1       194 1.53181E-04 7.44628E-07-3.30872E-24
 -1       195 1.52919E-04 9.30753E-07-6.61744E-24
 -1       251 2.05677E-04 4.81369E-06 0.00000E+00
 -1       252 2.05915E-04 8.76607E-06-4.13590E-25
 -1       253 2.06158E-04 1.04593E-05-3.30872E-24
 -1       254 2.06408E-04 1.03243E-05-3.30872E-24
 -1       255 2.06658E-04 8.75419E-06 0.00000E+00
 -1       256 2.06907E-04 6.13165E-06-3.30872E-24
 -1       257 2.07153E-04 2.81739E-06 6.61744E-24
 -1       258 2.07399E-04-8.32867E-07 0.00000E+00
 -1       259 2.07645E-04-4.47056E-06 6.61744E-24
 -1       260 2.07893E-04-7.74692E-06 0.00000E+00
 -1       261 2.08141E-04-1.03056E-05 0.00000E+00
 -1       262 2.08391E-04-1.17852E-05 0.00000E+00
 -1       263 2.08641E-04-1.18016E-05 0.00000E+00
 -1       264 2.08883E-04-9.96009E-06-8.27181E-25
 -1       265 2.09121E-04-5.82756E-06 0.00000E+00
 -1       266 1.97395E-04-1.90572E-06 0.00000E+00
 -1       267 1.89302E-04-1.94177E-06 1.65436E-24
 -1       268 1.81209E-04-1.97918E-06 1.65436E-24
 -1       269 1.73116E-04-2.01221E-06 0.00000E+00
 -1       270 1.65023E-04-2.04507E-06 0.00000E+00
 -1       271 2.00526E-04 4.18022E-06 0.00000E+00
 -1       272 1.96300E-04 8.04207E-06 2.64698E-23
 -1       273 1.92807E-04 9.97707E-06 5.29396E-23
 -1       274 1.89935E-04 1.02318E-05 0.00000E+00
 -1       275 1.87585E-04 9.09254E-06 5.29396E-23
 -1       276 1.85638E-04 6.87227E-06 0.00000E+00
 -1       277 1.83968E-04 3.90535E-06 0.00000E+00
 -1       278 1.82447E-04 5.42053E-07-2.64698E-23
 -1       279 1.80939E-04-2.85982E-06-5.29396E-23
 -1       280 1.79312E-04-5.94150E-06-2.64698E-23
 -1       281 1.77435E-04-8.35053E-06 5.29396E-23
 -1       282 1.75181E-04-9.74898E-06 0.00000E+00
 -1       283 1.72429E-04-9.81844E-06 0.00000E+00
 -1       284 1.69074E-04-8.26746E-06 0.00000E+00
 -1       285 1.65007E-04-4.83986E-06 0.00000E+00
 -1       301 2.00905E-04 9.77518E-07 0.00000E+00
 -1       302 1.92520E-04 9.34736E-07-3.30872E-24
 -1       303 1.84205E-04 8.93608E-07 6.61744E-24
 -1       304 1.76012E-04 8.50071E-07 0.00000E+00
 -1       305 1.67990E-04 8.01914E-07 0.00000E+00
 -1       306 2.02125E-04 9.86359E-06 0.00000E+00
 -1       307 1.93748E-04 2.14108E-05 0.00000E+00
 -1       308 1.85449E-04 3.27804E-05 0.00000E+00
 -1       309 1.78338E-04 4.10199E-05 0.00000E+00
 -1       310 1.73176E-04 4.41582E-05-1.05879E-22
 -1       311 1.70481E-04 4.07279E-05 0.00000E+00
 -1       312 1.70004E-04 3.12978E-05 0.00000E+00
 -1       313 1.71277E-04 1.70519E-05 5.29396E-23
 -1       314 1.73316E-04 6.79227E-07 0.00000E+00
 -1       315 1.75075E-04-1.49090E-05 5.29396E-23
 -1       316 1.75586E-04-2.70493E-05 1.05879E-22
 -1       317 1.73993E-04-3.34355E-05 0.00000E+00
 -1       318 1.70065E-04-3.35557E-05 0.00000E+00
 -1       319 1.63829E-04-2.75302E-05 5.29396E-23
 -1       320 1.56002E-04-1.73938E-05 5.29396E-23
 -1       336 2.00916E-04-3.01941E-06 0.00000E+00
 -1       337 1.92672E-04-3.49896E-06-6.61744E-24
 -1       338 1.83198E-04-3.98889E-06-1.32349E-23
 -1       339 1.72519E-04-4.49026E-06 6.61744E-24
 -1       340 1.60660E-04-5.00437E-06-1.32349E-23
 -1       406 1.52222E-04 1.30291E-06 0.00000E+00
 -1       407 1.51786E-04 1.48889E-06 0.00000E+00
 -1       408 1.51292E-04 1.67473E-06 0.00000E+00
 -1       409 1.50740E-04 1.86023E-06-3.30872E-24
 -1       410 1.50129E-04 2.04503E-06 6.61744E-24
 -1       521 1.52485E-04 8.15893E-07 1.05879E-22
 -1       522 1.47986E-04-8.38552E-06 0.00000E+00
 -1       523 1.44991E-04-2.16363E-05 0.00000E+00
 -1       524 1.41233E-04-3.29272E-05 0.00000E+00
 -1       525 1.34940E-04-3.73723E-05 2.11758E-22
 -1       526 1.24731E-04-3.14994E-05 0.00000E+00
 -1       527 1.11468E-04-1.77570E-05-2.11758E-22
 -1       528 9.66776E-05-1.51012E-07 0.00000E+00
 -1       529 8.28106E-05 1.51142E-05 2.11758E-22
 -1       530 7.21013E-05 2.22904E-05 0.00000E+00
 -1       531 6.49033E-05 2.02447E-05-2.11758E-22
 -1       532 6.08699E-05 9.69388E-06 0.00000E+00
 -1       533 5.78944E-05-3.74275E-06 0.00000E+00
 -1       534 5.37444E-05-1.38380E-05-1.05879E-22
 -1       535 4.67422E-05-1.63077E-05 1.05879E-22
 -1       536 1.47553E-04 6.50954E-06 6.61744E-24
 -1       537 1.47503E-04 1.55645E-05 0.00000E+00
 -1       538 1.47471E-04 2.19378E-05 1.65436E-24
 -1       539 1.47454E-04 2.59330E-05-4.13590E-25
 -1       540 1.47444E-04 2.78567E-05 8.27181E-25
 -1       541 1.47436E-04 2.80161E-05 0.00000E+00
 -1       542 1.47427E-04 2.67205E-05 0.00000E+00
 -1       543 1.47416E-04 2.42797E-05 0.00000E+00
 -1       544 1.47403E-04 2.10046E-05 0.00000E+00
 -1       545 1.47389E-04 1.72065E-05 1.03398E-25
 -1       546 1.47373E-04 1.31972E-05 2.06795E-25
 -1       547 1.47358E-04 9.28866E-06-5.16988E-26
 -1       548 1.47345E-04 5.79261E-06 0.00000E+00
 -1       549 1.47334E-04 3.02074E-06-2.06795E-25
 -1       550 1.47326E-04 1.28394E-06 0.00000E+00
 -1       551 1.31417E-04-5.95004E-06 0.00000E+00
 -1       552 1.13019E-04-6.39816E-06-8.27181E-25
 -1       553 9.33620E-05-6.86809E-06 0.00000E+00
 -1       554 7.33655E-05-7.34890E-06 0.00000E+00
 -1       555 5.39489E-05-7.82581E-06 0.00000E+00
 -1       556 1.43091E-04 6.13757E-06 2.64698E-23
 -1       557 1.39631E-04 1.50094E-05 0.00000E+00
 -1       558 1.37145E-04 2.13464E-05 0.00000E+00
 -1       559 1.35522E-04 2.54283E-05 0.00000E+00
 -1       560 1.34647E-04 2.75347E-05 0.00000E+00
 -1       561 1.34412E-04 2.79469E-05 0.00000E+00
 -1       562 1.34706E-04 2.69470E-05 0.00000E+00
 -1       563 1.35423E-04 2.48177E-05-6.61744E-24
 -1       564 1.36456E-04 2.18425E-05 0.00000E+00
 -1       565 1.37697E-04 1.83049E-05 0.00000E+00
 -1       566 1.39042E-04 1.44888E-05 0.00000E+00
 -1       567 1.40386E-04 1.06783E-05 0.00000E+00
 -1       568 1.41621E-04 7.15725E-06 0.00000E+00
 -1       569 1.42644E-04 4.20945E-06 0.00000E+00
 -1       570 1.43347E-04 2.11850E-06 0.00000E+00
 -1       571 1.47451E-04 1.08045E-06 0.00000E+00
 -1       572 1.47583E-04 1.17970E-06-8.27181E-25
 -1       573 1.47717E-04 1.20566E-06 0.00000E+00
 -1       574 1.47851E-04 1.17436E-06 8.27181E-25
 -1       575 1.47985E-04 1.10191E-06 0.00000E+00
 -1       576 1.48119E-04 1.00453E-06 0.00000E+00
 -1       577 1.48254E-04 8.98443E-07 0.00000E+00
 -1       578 1.48388E-04 7.99887E-07-3.30872E-24
 -1       579 1.48522E-04 7.25102E-07 0.00000E+00
 -1       580 1.48656E-04 6.90330E-07 0.00000E+00
 -1       581 1.48791E-04 7.11813E-07 0.00000E+00
 -1       582 1.48925E-04 8.05776E-07-6.61744E-24
 -1       583 1.49059E-04 9.88432E-07 0.00000E+00
 -1       584 1.49193E-04 1.27584E-06 0.00000E+00
 -1       585 1.49328E-04 1.68395E-06 0.00000E+00
 -1       586 1.46691E-04 9.39852E-07 0.00000E+00
 -1       587 1.45997E-04 9.86191E-07 0.00000E+00
 -1       588 1.45292E-04 1.03214E-06 4.13590E-25
 -1       589 1.44626E-04 1.07748E-06 0.00000E+00
 -1       590 1.44055E-04 1.12175E-06 0.00000E+00
 -1       591 1.47176E-04 1.13870E-06 0.00000E+00
 -1       592 1.47052E-04 1.31209E-06 0.00000E+00
 -1       593 1.46950E-04 1.42640E-06 0.00000E+00
 -1       594 1.46865E-04 1.49373E-06 8.27181E-25
 -1       595 1.46792E-04 1.52634E-06 1.65436E-24
 -1       596 1.46728E-04 1.53639E-06 0.00000E+00
 -1       597 1.46668E-04 1.53603E-06 0.00000E+00
 -1       598 1.46607E-04 1.53741E-06 0.00000E+00
 -1       599 1.46541E-04 1.55268E-06-1.65436E-24
 -1       600 1.46466E-04 1.59397E-06 0.00000E+00
 -1       601 1.46376E-04 1.67343E-06-1.65436E-24
 -1       602 1.46267E-04 1.80321E-06 8.27181E-25
 -1       603 1.46135E-04 1.99546E-06-4.13590E-25
 -1       604 1.45975E-04 2.26241E-06-2.97268E-25
 -1       605 1.45784E-04 2.61617E-06 0.00000E+00
 -1       606 1.49494E-04 3.06783E-06 0.00000E+00
 -1       607 1.49521E-04 4.10351E-06 0.00000E+00
 -1       608 1.49548E-04 5.32295E-06 6.61744E-24
 -1       609 1.49573E-04 6.71314E-06 0.00000E+00
 -1       610 1.49598E-04 8.26104E-06 0.00000E+00
 -1       611 1.49623E-04 9.95342E-06 0.00000E+00
 -1       612 1.49648E-04 1.17770E-05 0.00000E+00
 -1       613 1.49672E-04 1.37187E-05 1.65436E-24
 -1       614 1.49696E-04 1.57652E-05 0.00000E+00
 -1       615 1.49720E-04 1.79033E-05 0.00000E+00
 -1       616 1.49744E-04 2.01197E-05 0.00000E+00
 -1       617 1.49767E-04 2.24013E-05-8.27181E-25
 -1       618 1.49791E-04 2.47347E-05-1.65436E-24
 -1       619 1.49814E-04 2.71069E-05 0.00000E+00
 -1       620 1.49837E-04 2.95045E-05 8.27181E-25
 -1       621 1.48758E-04 2.36858E-06-3.30872E-24
 -1       622 1.48066E-04 2.50994E-06-1.65436E-24
 -1       623 1.47393E-04 2.65122E-06 3.30872E-24
 -1       624 1.46746E-04 2.79221E-06 0.00000E+00
 -1       625 1.46133E-04 2.93283E-06 0.00000E+00
 -1       626 1.49302E-04 3.13802E-06 0.00000E+00
 -1       627 1.49073E-04 4.23610E-06 0.00000E+00
 -1       628 1.48780E-04 5.50388E-06-6.61744E-24
 -1       629 1.48431E-04 6.92240E-06-3.30872E-24
 -1       630 1.48032E-04 8.47272E-06 6.61744E-24
 -1       631 1.47591E-04 1.01358E-05 0.00000E+00
 -1       632 1.47115E-04 1.18926E-05-6.61744E-24
 -1       633 1.46610E-04 1.37241E-05 0.00000E+00
 -1       634 1.46085E-04 1.56113E-05 0.00000E+00
 -1       635 1.45545E-04 1.75352E-05 0.00000E+00
 -1       636 1.44999E-04 1.94768E-05 0.00000E+00
 -1       637 1.44454E-04 2.14171E-05 1.65436E-24
 -1       638 1.43915E-04 2.33371E-05 0.00000E+00
 -1       639 1.43392E-04 2.52177E-05 0.00000E+00
 -1       640 1.42889E-04 2.70399E-05 0.00000E+00
 -1       656 1.47846E-04 3.14044E-05 0.00000E+00
 -1       657 1.46489E-04 3.08744E-05 0.00000E+00
 -1       658 1.45533E-04 3.03465E-05 1.32349E-23
 -1       659 1.44716E-04 2.98191E-05-6.61744E-24
 -1       660 1.43766E-04 2.92900E-05-6.61744E-24
 -1       661 1.49109E-04 3.43079E-05 1.65436E-24
 -1       662 1.48383E-04 3.66521E-05-1.65436E-24
 -1       663 1.47678E-04 3.89415E-05-3.30872E-24
 -1       664 1.46996E-04 4.11731E-05 1.65436E-24
 -1       665 1.46336E-04 4.33430E-05 3.30872E-24
 -1       666 1.45702E-04 4.54475E-05 1.65436E-24
 -1       667 1.45094E-04 4.74824E-05 0.00000E+00
 -1       668 1.44514E-04 4.94436E-05-1.65436E-24
 -1       669 1.43963E-04 5.13267E-05-3.30872E-24
 -1       670 1.43444E-04 5.31271E-05 0.00000E+00
 -1       671 1.42957E-04 5.48400E-05-3.30872E-24
 -1       672 1.42505E-04 5.64602E-05 0.00000E+00
 -1       673 1.42090E-04 5.79824E-05 0.00000E+00
 -1       674 1.41712E-04 5.94006E-05 0.00000E+00
 -1       675 1.41376E-04 6.07096E-05 0.00000E+00
 -1       676 1.46520E-04 6.25597E-05 0.00000E+00
 -1       677 1.45427E-04 6.24269E-05-1.65436E-24
 -1       678 1.44336E-04 6.22941E-05-3.30872E-24
 -1       679 1.43246E-04 6.21617E-05 0.00000E+00
 -1       680 1.42159E-04 6.20293E-05 3.30872E-24
 -1       771 2.88400E-05 5.15166E-06 5.29396E-23
 -1       772 2.25811E-05 1.62148E-05 2.64698E-23
 -1       773 1.72092E-05 2.49810E-05-5.29396E-23
 -1       774 1.26665E-05 3.15860E-05 0.00000E+00
 -1       775 8.89518E-06 3.61712E-05 0.00000E+00
 -1       776 5.83412E-06 3.88868E-05 0.00000E+00
 -1       777 3.42118E-06 3.98880E-05-5.29396E-23
 -1       778 1.59214E-06 3.93374E-05-2.64698E-23
 -1       779 2.82190E-07 3.74017E-05 0.00000E+00
 -1       780-5.75190E-07 3.42535E-05-2.64698E-23
 -1       781-1.04679E-06 3.00688E-05 0.00000E+00
 -1       782-1.20064E-06 2.50282E-05 0.00000E+00
 -1       783-1.10488E-06 1.93142E-05-5.29396E-23
 -1       784-8.28013E-07 1.31129E-05 0.00000E+00
 -1       785-4.39192E-07 6.61127E-06-5.29396E-23
 -1       786 1.43741E-04 1.22153E-06-1.65436E-24
 -1       787 1.43862E-04 1.25031E-06-1.65436E-24
 -1       788 1.43982E-04 1.25694E-06 0.00000E+00
 -1       789 1.44103E-04 1.24958E-06-1.65436E-24
 -1       790 1.44225E-04 1.23614E-06 0.00000E+00
 -1       791 1.44347E-04 1.22449E-06 0.00000E+00
 -1       792 1.44468E-04 1.22254E-06 3.30872E-24
 -1       793 1.44590E-04 1.23824E-06 0.00000E+00
 -1       794 1.44712E-04 1.27986E-06 0.00000E+00
 -1       795 1.44834E-04 1.35579E-06 0.00000E+00
 -1       796 1.44956E-04 1.47503E-06-3.30872E-24
 -1       797 1.45078E-04 1.64678E-06 0.00000E+00
 -1       798 1.45199E-04 1.88119E-06 0.00000E+00
 -1       799 1.45320E-04 2.18866E-06 1.65436E-24
 -1       800 1.45442E-04 2.58096E-06-3.30872E-24
 -1       801 1.33282E-04 1.26645E-06 0.00000E+00
 -1       802 1.04703E-04 1.04124E-06 0.00000E+00
 -1       803 6.75080E-05 5.60681E-07 0.00000E+00
 -1       804 3.12622E-05 1.01919E-07 0.00000E+00
 -1       805 5.54040E-06-6.17115E-08-2.64698E-23
 -1       806 1.43458E-04 1.15162E-06 0.00000E+00
 -1       807 1.43287E-04 1.13046E-06 0.00000E+00
 -1       808 1.43115E-04 1.10819E-06-3.30872E-24
 -1       809 1.42940E-04 1.09285E-06 0.00000E+00
 -1       810 1.42759E-04 1.09243E-06 3.30872E-24
 -1       811 1.42570E-04 1.11480E-06-1.65436E-24
 -1       812 1.42369E-04 1.16785E-06 6.61744E-24
 -1       813 1.42153E-04 1.25943E-06 0.00000E+00
 -1       814 1.41920E-04 1.39737E-06 3.30872E-24
 -1       815 1.41667E-04 1.58952E-06-1.65436E-24
 -1       816 1.41390E-04 1.84371E-06 3.30872E-24
 -1       817 1.41088E-04 2.16775E-06 3.30872E-24
 -1       818 1.40756E-04 2.56946E-06 3.30872E-24
 -1       819 1.40392E-04 3.05660E-06 0.00000E+00
 -1       820 1.39994E-04 3.63693E-06 3.30872E-24
 -1       821 1.45376E-04 3.72039E-06 0.00000E+00
 -1       822 1.45179E-04 4.59123E-06 1.65436E-24
 -1       823 1.44983E-04 5.67121E-06 0.00000E+00
 -1       824 1.44785E-04 6.94747E-06 0.00000E+00
 -1       825 1.44587E-04 8.40138E-06-6.61744E-24
 -1       826 1.44388E-04 1.00131E-05 0.00000E+00
 -1       827 1.44189E-04 1.17581E-05 0.00000E+00
 -1       828 1.43989E-04 1.36112E-05 0.00000E+00
 -1       829 1.43789E-04 1.55437E-05-6.61744E-24
 -1       830 1.43590E-04 1.75265E-05 3.30872E-24
 -1       831 1.43390E-04 1.95292E-05 0.00000E+00
 -1       832 1.43191E-04 2.15211E-05-3.30872E-24
 -1       833 1.42992E-04 2.34717E-05 6.61744E-24
 -1       834 1.42795E-04 2.53510E-05 1.65436E-24
 -1       835 1.42597E-04 2.71310E-05 0.00000E+00
 -1       836 1.44835E-04 3.27658E-06-3.30872E-24
 -1       837 1.43871E-04 3.48867E-06 0.00000E+00
 -1       838 1.42767E-04 3.70027E-06 0.00000E+00
 -1       839 1.41616E-04 3.91073E-06-1.65436E-24
 -1       840 1.40515E-04 4.12127E-06-8.27181E-25
 -1       856 1.42336E-04 3.04882E-05-6.46235E-26
 -1       857 1.42253E-04 3.24013E-05 0.00000E+00
 -1       858 1.42170E-04 3.44899E-05-1.65436E-24
 -1       859 1.42086E-04 3.67197E-05 0.00000E+00
 -1       860 1.42002E-04 3.90562E-05 0.00000E+00
 -1       861 1.41917E-04 4.14649E-05-1.65436E-24
 -1       862 1.41832E-04 4.39110E-05 0.00000E+00
 -1       863 1.41747E-04 4.63599E-05 1.65436E-24
 -1       864 1.41662E-04 4.87767E-05 0.00000E+00
 -1       865 1.41577E-04 5.11267E-05 1.65436E-24
 -1       866 1.41492E-04 5.33754E-05-3.30872E-24
 -1       867 1.41408E-04 5.54882E-05 0.00000E+00
 -1       868 1.41324E-04 5.74310E-05-3.30872E-24
 -1       869 1.41240E-04 5.91695E-05 0.00000E+00
 -1       870 1.41157E-04 6.06702E-05-3.30872E-24
 -1       871 1.41151E-04 2.87772E-05 0.00000E+00
 -1       872 1.40147E-04 2.87663E-05 0.00000E+00
 -1       873 1.39290E-04 2.87550E-05 0.00000E+00
 -1       874 1.38467E-04 2.87426E-05 2.06795E-25
 -1       875 1.37568E-04 2.87293E-05-8.27181E-25
 -1       876 1.41969E-04 3.05009E-05 3.30872E-24
 -1       877 1.41496E-04 3.23154E-05-3.30872E-24
 -1       878 1.40990E-04 3.42149E-05 6.61744E-24
 -1       879 1.40458E-04 3.61879E-05 0.00000E+00
 -1       880 1.39902E-04 3.82227E-05-6.61744E-24
 -1       881 1.39328E-04 4.03076E-05 0.00000E+00
 -1       882 1.38738E-04 4.24312E-05-6.61744E-24
 -1       883 1.38139E-04 4.45820E-05 3.30872E-24
 -1       884 1.37534E-04 4.67484E-05 6.61744E-24
 -1       885 1.36927E-04 4.89189E-05 3.30872E-24
 -1       886 1.36323E-04 5.10821E-05 6.61744E-24
 -1       887 1.35726E-04 5.32264E-05 0.00000E+00
 -1       888 1.35140E-04 5.53402E-05 3.30872E-24
 -1       889 1.34569E-04 5.74120E-05-1.65436E-24
 -1       890 1.34017E-04 5.94301E-05 0.00000E+00
 -1       891 1.40040E-04 6.18135E-05 0.00000E+00
 -1       892 1.38980E-04 6.17264E-05 0.00000E+00
 -1       893 1.37846E-04 6.16392E-05 0.00000E+00
 -1       894 1.36585E-04 6.15521E-05 8.27181E-25
 -1       895 1.35146E-04 6.14649E-05 0.00000E+00
 -1       956 1.39372E-04 5.25644E-06 0.00000E+00
 -1       957 1.39180E-04 6.35787E-06 0.00000E+00
 -1       958 1.38988E-04 7.60492E-06 6.61744E-24
 -1       959 1.38796E-04 8.97931E-06 1.65436E-24
 -1       960 1.38603E-04 1.04628E-05 3.30872E-24
 -1       961 1.38410E-04 1.20369E-05 1.65436E-24
 -1       962 1.38217E-04 1.36833E-05 0.00000E+00
 -1       963 1.38023E-04 1.53835E-05 0.00000E+00
 -1       964 1.37830E-04 1.71191E-05-6.61744E-24
 -1       965 1.37637E-04 1.88716E-05 0.00000E+00
 -1       966 1.37443E-04 2.06227E-05 6.61744E-24
 -1       967 1.37250E-04 2.23537E-05 0.00000E+00
 -1       968 1.37057E-04 2.40463E-05 6.61744E-24
 -1       969 1.36864E-04 2.56822E-05 0.00000E+00
 -1       970 1.36672E-04 2.72428E-05 0.00000E+00
 -1       971 1.36298E-04 3.01964E-05 3.30872E-24
 -1       972 1.36111E-04 3.18463E-05 0.00000E+00
 -1       973 1.35923E-04 3.36415E-05 6.61744E-24
 -1       974 1.35734E-04 3.55627E-05 0.00000E+00
 -1       975 1.35546E-04 3.75907E-05-6.61744E-24
 -1       976 1.35357E-04 3.97059E-05 0.00000E+00
 -1       977 1.35168E-04 4.18890E-05 6.61744E-24
 -1       978 1.34979E-04 4.41205E-05-3.30872E-24
 -1       979 1.34790E-04 4.63810E-05 6.61744E-24
 -1       980 1.34601E-04 4.86509E-05-3.30872E-24
 -1       981 1.34412E-04 5.09109E-05-6.61744E-24
 -1       982 1.34223E-04 5.31414E-05 0.00000E+00
 -1       983 1.34034E-04 5.53229E-05-6.61744E-24
 -1       984 1.33847E-04 5.74361E-05 0.00000E+00
 -1       985 1.33660E-04 5.94614E-05 3.30872E-24
 -3
    1PSTEP                         2           1           1          
  100CL  101 1.000000000         409                     0    1           1
 -4  STRESS      6    1
 -5  SXX         1    4    1    1
 -5  SYY         1    4    2    2
 -5  SZZ         1    4    3    3
 -5  SXY         1    4    1    2
 -5  SYZ         1    4    2    3
 -5  SZX         1    4    3    1
 -1         1-2.64523E+06-1.24790E+06-5.05163E+05-1.87381E+06-7.27596E-11 8.20728E-09
 -1         2 3.89377E+03 5.61505E+05 1.56522E+04 2.15456E+03-1.03591E-09-2.65391E-08
 -1         3-7.81757E+02-1.19150E+06 2.12817E+02-7.53437E+02 1.02191E-09-2.44145E-08
 -1         5-2.51630E+01 5.32843E+05 1.30525E+01 1.30255E+00 3.82062E-10 2.61607E-08
 -1         8-1.18955E+06-5.65113E+05-1.27427E+04-1.04248E+06 1.38243E-10 1.77533E-09
 -1         9-2.62019E+06-6.45249E+05-3.04577E+05-8.34287E+05 2.78815E-09-9.52277E-09
 -1        10-1.30097E+03-1.23262E+06-8.98629E+02-4.98123E+03-5.80440E-09-1.55242E-08
 -1        12-1.98969E+01 5.32870E+05 4.23926E+02 8.49043E+00 5.72243E-10-1.88447E-09
 -1        15 2.93589E+03 1.73282E+03 1.12934E+04 9.34767E+00-2.76259E-10-3.10551E-08
 -1        16-7.71386E+06-2.70132E+06-1.35019E+06-2.62775E+06 1.28445E-08-4.26856E-09
 -1        17-1.83299E+06-9.83437E+05-3.44942E+05-9.43837E+05 3.27622E-08-1.49012E-09
 -1        18 5.33647E+04 5.82199E+03-2.41727E+04-1.30080E+05 1.39812E-09-4.00087E-09
 -1        19 1.72148E+05 1.97421E+05-2.33116E+03 2.75243E+04-1.26893E-09 6.40284E-09
 -1        20 1.26569E+04-4.79337E+05-9.96880E+04 6.47060E+04 6.20609E-09-4.27584E-09
 -1        21-3.05819E+01-3.78827E+05-1.14620E+03-2.13269E+02 1.06463E-09-2.09131E-08
 -1        24-7.20001E+06-2.62495E+06-1.16694E+06-2.98452E+06 4.49654E-08-2.69404E-08
 -1        25 8.83400E+04 1.21739E+05 6.05366E+04-4.60801E+05-6.07124E-09-2.23663E-09
 -1        26-4.21504E+04 1.54148E+05-1.59130E+04-2.77282E+04 8.82574E-10-6.46349E-09
 -1        27-8.84510E+04-2.74286E+05-1.17392E+05 1.07080E+05 7.26232E-09-1.88265E-09
 -1        28 2.04004E+04-1.14651E+05 1.97611E+04 4.31720E+04 6.53131E-09 4.36631E-09
 -1        32-1.45087E+06 8.71906E+04 6.23560E+05-1.63121E+06-6.05360E-09-4.72960E-09
 -1        33-2.30682E+05 1.62352E+05 5.41037E+04-6.46061E+04 1.81141E-10 3.26327E-09
 -1        34-3.34525E+05-3.63466E+04 6.23510E+02 1.06345E+05 7.50864E-10-3.21855E-09
 -1        35-3.59060E+04-5.18866E+04-2.31858E+03 8.06619E+04 6.16243E-09-3.93508E-09
 -1        51 2.76939E+04-7.23166E+05 6.65719E+04-1.80747E+06-3.49246E-10 2.53203E-09
 -1        52 2.29098E+04-7.30981E+05 4.42810E+04-2.07130E+06 2.91038E-10-2.66300E-09
 -1        53 2.10306E+04-7.63712E+05 3.61836E+04-1.80134E+06 2.47383E-10-2.21189E-09
 -1        54 4.92097E+04-7.70330E+05 5.73499E+04-2.07721E+06 2.32831E-10-1.63491E-08
 -1        55 8.32238E+04-7.93848E+05 1.01565E+05-1.80002E+06-1.45519E-11-1.31549E-08
 -1        56-5.14058E+06-6.07953E+05-3.85296E+05-1.97707E+06-2.21189E-09 1.76951E-08
 -1        57-5.26417E+06-9.39309E+05-2.52777E+05-1.99500E+06 3.97267E-09 4.07454E-10
 -1        58-5.21610E+06-7.14234E+05-9.07676E+04-1.95562E+06 1.60162E-09 1.89830E-08
 -1        59-5.17699E+06-8.11252E+05-5.21837E+04-2.02268E+06 5.84805E-10 2.95822E-08
 -1        60-5.22639E+06-7.27149E+05-2.11334E+04-1.95266E+06-3.44471E-09 6.79302E-09
 -1        61-5.16722E+06-7.93391E+05-1.16028E+04-2.02346E+06-4.19163E-09 7.53224E-09
 -1        62-5.22545E+06-7.31203E+05-5.83260E+03-1.95504E+06 3.36513E-11 1.75351E-09
 -1        63-5.17250E+06-7.84388E+05-4.62034E+03-2.01489E+06 2.43108E-09 9.61222E-09
 -1        64-5.22046E+06-7.36447E+05-5.70381E+03-1.96082E+06 4.45016E-09 7.57973E-09
 -1        65-5.18508E+06-7.73976E+05-1.07850E+04-2.00021E+06 1.14778E-09-4.89672E-09
 -1        66-5.21217E+06-7.42171E+05-2.00469E+04-1.96917E+06-1.15506E-09-4.74392E-09
 -1        67-5.21026E+06-7.74044E+05-4.85819E+04-1.98010E+06 4.99222E-09-8.72387E-09
 -1        68-5.19511E+06-7.37570E+05-8.50736E+04-1.98032E+06-4.60432E-10 2.62626E-08
 -1        69-5.30445E+06-8.81339E+05-2.35968E+05-1.94094E+06-6.15319E-09 1.30276E-08
 -1        70-5.11979E+06-6.42804E+05-3.60048E+05-2.00556E+06 2.40107E-09-8.74570E-09
 -1        86-2.10336E+03 5.55553E+05 1.67980E+04-1.07788E+03 1.43245E-09-1.23600E-09
 -1        87 1.39927E+04 5.66713E+05 3.47719E+04 4.38796E+03 1.01136E-09-2.05603E-08
 -1        88-1.20541E+04 5.50378E+05 5.39829E+04-3.31258E+03 3.15777E-09-7.78527E-10
 -1        89 9.51368E+04 6.06010E+05 1.43676E+05 9.28088E+03 3.09956E-09 1.02875E-08
 -1        90-8.18206E+04 5.16396E+05 2.05709E+05-5.96261E+03 5.34055E-09-2.42926E-09
 -1       121-1.01651E+03-1.19333E+06-1.08993E+02 3.73750E+02-1.38814E-09-5.18776E-09
 -1       122-7.10914E+02-1.19149E+06 4.94745E+02-1.51432E+03 2.73906E-09 8.07086E-09
 -1       123-1.02816E+03-1.19340E+06 5.35806E+02 1.12276E+03-4.43833E-09 1.08339E-08
 -1       124 1.32951E+02-1.19104E+06 2.14804E+03-3.46461E+03 5.15365E-09-9.34233E-09
 -1       125-1.36175E+03-1.19395E+06 3.17225E+03 2.30999E+03-7.46149E-09 8.93124E-09
 -1       191-2.68440E+01 5.32885E+05 1.48047E+01-6.57108E-01 3.44040E-10-2.27556E-09
 -1       192-2.63781E+01 5.32843E+05 2.76699E+01 3.54356E+00 3.75468E-10-4.28554E-09
 -1       193-3.00641E+01 5.32884E+05 5.06791E+01-2.92375E+00 5.19716E-10-3.99996E-09
 -1       194-3.02834E+01 5.32847E+05 1.04735E+02 7.74249E+00 3.16218E-10 2.34977E-08
 -1       195-3.62486E+01 5.32881E+05 2.04075E+02-4.90586E+00 8.09223E-10-5.75346E-09
 -1       251 6.78287E+05-8.62711E+04 2.14720E+05 1.66943E+04 1.25328E-09 7.69796E-09
 -1       252 7.78063E+05 9.93409E+04 1.50735E+05-8.74245E+04-2.09184E-09 8.94397E-09
 -1       253 7.15442E+05-1.26895E+04 5.55888E+04 1.15381E+04-1.55705E-09-1.67202E-08
 -1       254 7.32999E+05 1.44562E+04 3.46808E+04-7.91746E+04 2.99679E-10-5.27280E-09
 -1       255 7.21803E+05-1.89300E+03 1.43529E+04 8.44527E+03-8.85848E-10-2.58451E-08
 -1       256 7.24623E+05 2.44202E+03 8.62629E+03-7.46019E+04 2.33638E-09 4.63206E-09
 -1       257 7.23030E+05-3.20096E+02 4.51044E+03 6.96522E+03 4.83851E-10-9.61018E-09
 -1       258 7.23167E+05 1.02327E+03 3.92447E+03-7.31475E+04-3.56307E-09 5.05679E-09
 -1       259 7.23020E+05-3.26139E+02 4.56921E+03 6.99162E+03-4.04157E-10-8.68113E-09
 -1       260 7.24697E+05 2.47947E+03 8.80393E+03-7.47157E+04-5.86056E-10-1.85692E-08
 -1       261 7.21758E+05-1.93685E+03 1.46631E+04 8.53265E+03 5.83441E-10-6.32826E-09
 -1       262 7.33276E+05 1.47638E+04 3.54655E+04-7.94017E+04 1.43336E-09-9.12860E-09
 -1       263 7.15252E+05-1.29770E+04 5.68395E+04 1.16780E+04-1.89539E-09-8.04357E-09
 -1       264 7.79354E+05 1.01568E+05 1.54147E+05-8.77873E+04-4.90627E-09-8.66385E-09
 -1       265 6.77261E+05-8.82197E+04 2.19577E+05 1.69175E+04-2.73849E-09-5.76256E-09
 -1       266-6.00248E+04-2.94588E+04 1.51443E+05-2.37494E+02-2.83762E-10-4.58165E-08
 -1       267 7.00593E+04 3.41091E+04 1.05375E+05 2.79328E+02-9.24047E-10-1.09867E-07
 -1       268-8.76221E+03-4.61319E+03 3.98443E+04-3.22374E+01-8.33097E-10-6.74707E-08
 -1       269 1.03773E+04 5.48163E+03 2.53392E+04 3.80390E+01-9.02219E-10-4.82439E-08
 -1       270-1.44907E+03-8.66349E+02 1.24912E+04-4.52767E+00-3.63798E-10-2.87064E-08
 -1       271-5.95183E+06-7.99654E+05-4.58844E+05-2.34419E+06 1.73532E-09-1.33296E-08
 -1       272-6.06427E+06-1.11492E+06-2.85039E+05-2.39157E+06-1.75714E-09 2.00816E-09
 -1       273-6.03720E+06-8.85415E+05-1.08302E+05-2.32687E+06 3.96722E-09 7.90897E-09
 -1       274-5.96447E+06-9.99691E+05-5.81843E+04-2.42772E+06 3.27236E-09 8.63110E-09
 -1       275-6.05191E+06-8.88301E+05-2.50918E+04-2.32014E+06-4.05271E-09-6.73026E-11
 -1       276-5.94840E+06-9.95255E+05-1.28146E+04-2.44091E+06 1.01863E-09 2.10853E-08
 -1       277-6.05636E+06-8.85625E+05-6.35638E+03-2.31688E+06 1.43700E-10-1.76642E-08
 -1       278-5.94510E+06-9.97059E+05-4.38787E+03-2.44538E+06-3.19505E-09-2.30771E-08
 -1       279-6.05660E+06-8.85478E+05-4.66715E+03-2.31672E+06 9.62245E-10 1.31149E-08
 -1       280-5.94746E+06-9.95306E+05-8.21602E+03-2.44178E+06 3.86262E-09 1.83027E-08
 -1       281-6.05286E+06-8.88184E+05-1.56194E+04-2.31964E+06-5.80258E-10 1.35860E-08
 -1       282-5.95932E+06-9.95358E+05-3.57282E+04-2.42982E+06 1.72258E-09-2.85945E-09
 -1       283-6.04163E+06-8.88772E+05-6.66909E+04-2.32585E+06-2.51021E-10-7.05768E-09
 -1       284-6.02428E+06-1.06121E+06-1.74750E+05-2.40110E+06-3.04772E-09 8.74570E-09
 -1       285-5.98605E+06-8.39734E+05-2.82069E+05-2.33971E+06 2.26873E-09-4.67116E-09
 -1       301 3.69804E+04-1.82615E+04 1.90887E+05-7.61082E+04 1.68802E-09 3.68982E-09
 -1       302 2.54368E+04 2.69020E+04 1.37012E+05-1.05507E+05-4.77280E-09-2.41907E-08
 -1       303 2.98174E+03-2.33361E+03 1.29721E+05-7.64935E+04 1.34605E-09-8.53379E-09
 -1       304 4.96826E+04 4.96136E+04 2.19864E+05-1.05149E+05-4.61660E-09 6.68661E-09
 -1       305 7.77284E+04-4.03618E+04 3.78680E+05-7.60619E+04 2.05182E-09 8.49650E-09
 -1       306-8.40720E+06-1.07060E+06-6.89612E+05-3.44630E+06 7.58155E-09-1.62981E-08
 -1       307-9.13602E+06-1.27666E+06-4.69520E+05-2.91032E+06 2.08802E-08-1.33296E-08
 -1       308-8.54892E+06-1.30125E+06-1.62306E+05-3.39933E+06 9.10040E-09 2.41562E-09
 -1       309-8.84842E+06-1.11099E+06-9.37910E+04-3.07018E+06-7.54380E-09 3.77240E-08
 -1       310-8.68534E+06-1.23773E+06-4.31454E+04-3.28157E+06-2.30830E-09-4.54384E-09
 -1       311-8.59571E+06-1.29162E+06-1.62823E+04-3.32598E+06 1.41008E-08 1.45410E-08
 -1       312-8.79830E+06-1.12216E+06-1.32512E+04-3.14156E+06-2.76850E-09 7.69251E-09
 -1       313-8.45931E+06-1.44453E+06-7.46166E+03-3.52396E+06-1.32854E-08-1.49160E-09
 -1       314-8.83040E+06-1.07803E+06-1.06188E+04-3.09023E+06-1.16756E-08-1.50803E-08
 -1       315-8.48261E+06-1.42460E+06-2.06843E+04-3.49024E+06-2.51384E-09-8.01856E-09
 -1       316-8.77304E+06-1.14375E+06-4.44734E+04-3.17375E+06 1.96596E-08-1.80262E-08
 -1       317-8.67732E+06-1.27784E+06-9.96758E+04-3.25093E+06-3.56749E-09 1.75896E-09
 -1       318-8.62870E+06-1.23126E+06-1.78353E+05-3.32368E+06-1.39462E-08 2.47892E-08
 -1       319-9.07532E+06-1.36274E+06-5.03121E+05-2.96866E+06 4.58385E-10-3.95812E-09
 -1       320-8.38361E+06-1.05840E+06-7.40795E+05-3.45987E+06 2.02854E-08 2.18279E-09
 -1       336-6.01958E+02-1.27489E+06-5.33734E+03 2.61895E+03 3.03589E-09-3.69255E-09
 -1       337-1.95187E+03-1.27435E+06-4.30068E+03-6.84040E+03-4.52565E-09-4.03452E-09
 -1       338-8.69847E+02-1.27536E+06-4.93326E+03 4.13641E+03 4.08363E-09 1.05319E-08
 -1       339-3.86155E+03-1.27621E+06-8.78443E+03-9.80452E+03-5.39740E-09 8.30914E-09
 -1       340 8.83043E+02-1.27365E+06-1.41274E+04 5.55674E+03 5.49062E-09 1.25874E-08
 -1       406 1.17072E+01 5.32862E+05 8.36065E+02-3.71425E+00 1.08673E-09-7.45786E-10
 -1       407 2.71962E+02 5.33017E+05 1.77855E+03-8.87228E+00 3.79714E-11 1.85082E-09
 -1       408 8.95113E+02 5.32733E+05 3.55089E+03 1.31857E+01 1.40881E-09 1.51085E-08
 -1       409 3.82191E+03 5.34150E+05 7.99502E+03-1.58153E+02 2.42835E-10 1.28111E-08
 -1       410 1.10165E+04 5.31720E+05 1.63204E+04 1.57665E+02 1.49157E-09-2.79579E-09
 -1       521-1.70744E+07-1.82373E+06-1.36424E+06-6.50377E+06 6.19912E-09-7.04313E-09
 -1       522-1.71436E+07-3.53539E+06-9.18840E+05-6.92125E+06-1.27511E-08-3.41970E-09
 -1       523-1.74686E+07-2.11835E+06-3.14955E+05-6.22710E+06-1.91358E-09 8.29459E-10
 -1       524-1.69184E+07-2.89240E+06-1.83106E+05-6.89024E+06 9.58426E-09-5.10590E-09
 -1       525-1.72859E+07-2.46536E+06-8.69872E+04-6.52928E+06-7.44694E-09 6.20457E-09
 -1       526-1.74370E+07-2.23934E+06-3.24221E+04-6.25201E+06-3.01607E-08 3.14176E-08
 -1       527-1.69440E+07-2.77253E+06-2.04960E+04-6.86200E+06 1.46247E-08-1.89780E-08
 -1       528-1.76756E+07-2.00520E+06-9.38937E+03-6.02601E+06 4.93071E-08 6.57565E-09
 -1       529-1.70576E+07-2.68657E+06-2.75286E+04-6.76573E+06 1.25801E-08-2.20025E-08
 -1       530-1.71889E+07-2.47784E+06-3.05250E+04-6.51102E+06 3.15231E-09 5.66502E-10
 -1       531-1.74156E+07-2.31759E+06-8.04988E+04-6.36239E+06-1.18598E-09-1.01682E-09
 -1       532-1.68030E+07-3.01897E+06-1.80454E+05-7.05159E+06-1.14651E-08-1.35115E-08
 -1       533-1.74620E+07-2.13142E+06-3.08985E+05-6.23964E+06 1.32022E-08 2.60043E-08
 -1       534-1.72758E+07-3.36359E+06-8.96402E+05-6.72978E+06-1.00663E-08-1.77533E-09
 -1       535-1.69393E+07-1.99048E+06-1.33792E+06-6.67518E+06 2.91038E-08-1.15833E-08
 -1       536-4.54258E+04-4.12365E+04 9.75918E+04 7.41079E+03 3.98813E-09 1.30967E-10
 -1       537 8.78747E+03 4.67248E+04 7.04054E+04-4.24783E+04-1.65433E-08-1.61435E-08
 -1       538-2.75521E+04-6.32574E+03 2.49345E+04 7.36084E+03-1.89812E-09-7.31779E-09
 -1       539-1.36857E+04 6.70541E+03 1.65522E+04-4.25934E+04 2.29420E-09 1.47338E-09
 -1       540-2.38429E+04-1.02840E+03 6.15864E+03 7.51314E+03 1.35333E-09 6.28415E-09
 -1       541-1.92547E+04 9.83531E+02 4.05306E+03-4.28615E+04-1.86060E-09-2.40379E-09
 -1       542-2.26398E+04-1.95805E+02 1.43351E+03 7.62314E+03-3.92811E-09-1.08298E-08
 -1       543-2.14179E+04 2.84949E+02 8.55999E+02-4.30347E+04 7.13044E-10 1.30549E-08
 -1       544-2.21083E+04-3.19216E+01 9.42447E+01 7.68595E+03 1.69950E-09-1.92580E-09
 -1       545-2.23481E+04 9.66660E+01-4.45309E+02-4.31133E+04-3.49519E-09-2.67806E-08
 -1       546-2.19061E+04 1.30459E+02-1.06999E+03 7.70251E+03-7.21343E-11-1.84008E-09
 -1       547-2.27590E+04-1.01806E+03-2.77623E+03-4.30982E+04-4.97062E-09-8.63071E-09
 -1       548-2.16595E+04 1.04537E+03-4.66748E+03 7.67062E+03-5.30031E-09-9.46761E-09
 -1       549-2.51079E+04-8.33627E+03-1.22975E+04-4.29736E+04-3.37900E-09 4.26439E-09
 -1       550-1.92851E+04 7.17907E+03-1.81255E+04 7.57712E+03-3.30601E-10-4.62660E-09
 -1       551 4.14660E+04-8.26874E+05 4.22442E+04-1.36794E+06 2.32831E-09-7.66886E-09
 -1       552 7.31317E+04-8.46293E+05 5.61534E+04-1.88233E+06 9.60426E-10 7.85076E-09
 -1       553 5.27441E+04-8.49105E+05 8.58320E+04-1.36357E+06 3.56522E-09 9.92077E-09
 -1       554 1.14376E+05-8.21964E+05 1.80546E+05-1.88283E+06 2.56114E-09 1.00608E-08
 -1       555 1.11595E+05-8.73017E+05 3.25291E+05-1.36543E+06 1.41154E-09-8.22911E-09
 -1       556 9.00770E+04-2.72579E+05 8.04825E+04-3.33268E+05 4.07454E-10-4.36557E-09
 -1       557 2.15901E+05-3.66067E+05 4.43072E+04-4.38065E+05-1.22527E-08-6.00630E-09
 -1       558 8.52098E+04-2.74879E+05 1.63206E+04-3.29070E+05 2.91038E-11-1.00626E-08
 -1       559 1.93619E+05-3.75511E+05 8.86352E+03-4.49719E+05 7.21775E-09-1.59198E-08
 -1       560 7.77089E+04-2.69689E+05 2.89546E+03-3.34394E+05-3.34694E-10-1.60744E-08
 -1       561 1.82878E+05-3.71887E+05 1.90810E+03-4.56638E+05-8.73115E-11-1.85400E-08
 -1       562 7.20056E+04-2.65865E+05 4.12245E+02-3.38514E+05-1.78989E-09-3.27418E-10
 -1       563 1.76024E+05-3.68984E+05 4.99836E+02-4.61045E+05 3.62343E-09 1.06960E-08
 -1       564 6.85463E+04-2.63571E+05 9.44720E+01-3.40968E+05 3.87809E-09 2.15186E-09
 -1       565 1.72589E+05-3.67528E+05 8.93364E+01-4.63220E+05 1.85901E-09 6.20821E-09
 -1       566 6.74208E+04-2.62805E+05-2.33411E+02-3.41772E+05-9.45874E-10-1.58034E-08
 -1       567 1.72484E+05-3.67520E+05-7.13401E+02-4.63142E+05 1.07557E-08-2.33631E-08
 -1       568 6.87279E+04-2.63655E+05-1.90173E+03-3.40980E+05 4.88944E-09 1.01863E-10
 -1       569 1.73798E+05-3.68811E+05-4.34829E+03-4.59585E+05 1.03173E-08-8.04721E-09
 -1       570 7.39009E+04-2.68008E+05-9.11127E+03-3.39130E+05 8.15635E-09 6.39466E-09
 -1       571 3.82903E+05 1.47778E+04 2.19510E+04-9.31646E+04-3.31966E-10 4.25280E-09
 -1       572 3.86154E+05 5.12757E+03 1.07567E+04-1.02101E+05 9.04038E-10 2.31012E-10
 -1       573 3.84168E+05 1.21346E+03 4.77836E+03-9.29092E+04 2.35468E-09 1.60035E-08
 -1       574 3.84540E+05 3.97198E+02 2.39497E+03-1.02380E+05-3.04226E-10 3.38969E-09
 -1       575 3.84284E+05 5.83803E+01 1.12792E+03-9.28765E+04 3.13412E-09-1.08957E-09
 -1       576 3.84305E+05 2.52617E+01 5.72989E+02-1.02416E+05 2.01726E-09-6.72389E-09
 -1       577 3.84297E+05 8.76757E-01 2.78658E+02-9.28722E+04 7.95399E-09 9.27685E-09
 -1       578 3.84286E+05 4.70200E+00 1.44946E+02-1.02421E+05 1.72549E-08-1.80535E-09
 -1       579 3.84335E+05-1.08021E+01 7.43508E+01-9.28719E+04 6.85668E-09-1.18416E-09
 -1       580 3.84343E+05-2.36246E+01 4.67251E+01-1.02417E+05-7.58519E-10 5.22959E-09
 -1       581 3.84414E+05-5.18191E+01 3.52987E+01-9.28766E+04-1.27329E-11 5.54519E-09
 -1       582 3.84456E+05-7.52599E+01 5.01828E+01-1.02364E+05-5.52973E-10-1.09021E-08
 -1       583 3.84534E+05-1.02057E+02 7.75180E+01-9.29240E+04 5.56611E-10-8.42192E-09
 -1       584 3.84639E+05-7.39937E+01 1.73801E+02-1.01961E+05-6.88487E-10-1.03091E-08
 -1       585 3.84660E+05 4.91253E+01 3.37298E+02-9.32805E+04 1.06047E-09-8.00355E-10
 -1       586-2.98983E+03 1.32771E+05-4.05875E+03-3.04044E+05 1.02955E-09-3.09228E-11
 -1       587-2.43810E+02 1.32183E+05 2.29998E+02-3.34504E+05 1.69166E-09 6.57337E-09
 -1       588 1.57506E+03 1.32202E+05 4.54050E+03-3.03827E+05 9.65883E-10 1.27966E-09
 -1       589 6.44200E+03 1.34567E+05 1.22834E+04-3.34286E+05 1.67347E-09 2.67028E-09
 -1       590 1.78698E+04 1.30935E+05 2.59484E+04-3.04264E+05 8.91305E-10 2.57569E-09
 -1       591-1.19315E+05-3.31092E+04-3.09268E+04-5.85889E+04 4.03850E-09 5.28053E-09
 -1       592-1.22080E+05-3.77621E+04-1.63667E+04-6.65918E+04 1.90403E-09 1.95610E-09
 -1       593-1.22004E+05-2.90004E+04-6.87489E+03-6.14266E+04 3.85899E-09-6.28688E-09
 -1       594-1.18036E+05-3.36499E+04-3.40759E+03-6.67631E+04 9.21773E-09 5.10170E-10
 -1       595-1.22220E+05-2.89336E+04-1.57073E+03-6.15418E+04 2.66618E-09-6.82861E-09
 -1       596-1.17774E+05-3.34835E+04-7.97010E+02-6.67306E+04 3.81931E-10-1.98084E-08
 -1       597-1.22251E+05-2.89544E+04-4.34060E+02-6.15451E+04 6.08708E-10-4.33624E-09
 -1       598-1.17747E+05-3.34792E+04-3.48077E+02-6.67213E+04-8.74024E-10-1.20613E-08
 -1       599-1.22248E+05-2.89560E+04-4.43997E+02-6.15437E+04-4.93174E-10-2.20446E-08
 -1       600-1.17770E+05-3.34861E+04-8.23088E+02-6.67255E+04-4.45425E-10-1.56915E-08
 -1       601-1.22210E+05-2.89375E+04-1.62573E+03-6.15373E+04 1.52750E-09 9.41918E-09
 -1       602-1.18038E+05-3.36586E+04-3.52867E+03-6.67518E+04 1.66642E-09 3.66740E-08
 -1       603-1.21979E+05-2.90125E+04-7.11978E+03-6.14173E+04-1.98861E-09 4.75575E-09
 -1       604-1.22241E+05-3.78969E+04-1.69473E+04-6.65451E+04-7.09542E-09 8.40555E-09
 -1       605-1.19170E+05-3.32855E+04-3.20237E+04-5.84968E+04-3.75189E-09-7.79801E-09
 -1       606 7.77523E+04-1.63516E+04-3.20186E+04 4.84086E+04-3.87627E-09-5.50426E-09
 -1       607 7.20121E+04-5.23080E+03-1.60652E+04 5.51786E+04 9.80435E-10 1.30040E-08
 -1       608 7.51857E+04-7.62156E+02-7.21916E+03 4.79974E+04-4.99858E-09 2.66482E-10
 -1       609 7.45578E+04-1.62839E+02-3.65415E+03 5.56253E+04-2.40907E-08-2.08593E-09
 -1       610 7.48458E+04 8.39925E+01-1.75736E+03 4.79549E+04-2.48110E-09 5.39922E-09
 -1       611 7.47026E+04 1.30290E+02-8.85017E+02 5.56691E+04 1.86910E-08 4.15639E-09
 -1       612 7.47211E+04 1.27403E+02-4.26874E+02 4.79517E+04 7.85440E-09 4.74893E-09
 -1       613 7.46456E+04 1.71540E+02-1.91651E+02 5.56727E+04-1.30749E-08 1.44619E-08
 -1       614 7.46399E+04 1.54001E+02-5.15748E+01 4.79506E+04-1.64910E-08 8.59018E-09
 -1       615 7.45841E+04 2.04249E+02 6.99333E+01 5.56724E+04-2.81361E-08-1.80353E-09
 -1       616 7.45786E+04 1.81542E+02 2.18252E+02 4.79514E+04-2.80579E-08-3.66254E-09
 -1       617 7.45699E+04 2.64068E+02 5.02727E+02 5.56704E+04-1.00817E-09 1.22591E-08
 -1       618 7.45090E+04 3.13260E+02 1.01125E+03 4.79518E+04-9.02128E-09 6.07361E-09
 -1       619 7.49186E+04 9.88055E+02 2.26741E+03 5.56670E+04-1.79516E-08 1.59403E-08
 -1       620 7.41436E+04 2.52160E+03 4.52157E+03 4.79475E+04-9.26366E-09-6.22640E-09
 -1       621 5.09693E+02 4.05509E+05 3.43569E+03-1.12473E+04-1.12118E-09 8.87212E-10
 -1       622 4.20670E+02 4.06286E+05 3.81275E+03-1.54241E+04-8.60382E-10-3.41743E-09
 -1       623 9.10648E+01 4.05619E+05 5.64738E+03-1.12545E+04-9.89758E-10 7.75253E-09
 -1       624 2.74282E+03 4.08441E+05 1.17239E+04-1.53621E+04-3.20824E-10-1.92813E-10
 -1       625 4.40247E+03 4.03365E+05 2.13376E+04-1.13064E+04-7.40329E-10 8.02970E-09
 -1       626 3.63531E+05 1.01439E+05 7.92998E+03 1.97517E+05 5.97538E-10 8.13452E-09
 -1       627 3.57842E+05 1.06048E+05 3.86117E+03 2.06512E+05-3.56249E-09-2.01885E-09
 -1       628 3.63827E+05 9.80115E+04 1.62827E+03 1.98592E+05 1.88629E-09-2.62480E-09
 -1       629 3.56612E+05 1.05241E+05 8.03413E+02 2.06922E+05 3.20961E-09-4.60818E-09
 -1       630 3.63788E+05 9.79076E+04 3.70444E+02 1.98578E+05 8.60928E-09 1.06679E-08
 -1       631 3.56426E+05 1.05250E+05 2.03156E+02 2.06877E+05-1.16561E-08-9.82703E-09
 -1       632 3.63726E+05 9.79484E+04 1.36294E+02 1.98535E+05-7.07587E-09-1.22398E-08
 -1       633 3.56363E+05 1.05276E+05 1.59347E+02 2.06833E+05-5.06179E-09 1.33477E-08
 -1       634 3.63679E+05 9.79637E+04 2.61736E+02 1.98510E+05 6.76027E-09-6.22913E-09
 -1       635 3.56356E+05 1.05285E+05 5.33236E+02 2.06820E+05 6.72071E-09 1.83477E-08
 -1       636 3.63644E+05 9.79578E+04 1.07664E+03 1.98501E+05 1.24812E-08 2.26578E-08
 -1       637 3.56563E+05 1.05423E+05 2.35806E+03 2.06823E+05 8.23644E-09 7.24503E-09
 -1       638 3.63550E+05 9.83562E+04 4.83139E+03 1.98308E+05 1.37425E-08 4.27463E-09
 -1       639 3.59123E+05 1.08678E+05 1.14054E+04 2.06237E+05-1.06547E-09 4.27826E-09
 -1       640 3.63041E+05 1.07870E+05 2.34541E+04 1.94167E+05 4.98585E-09 8.54425E-09
 -1       656 5.81738E+04-1.49984E+06-1.45963E+05-3.16280E+03-3.63798E-11 9.12974E-09
 -1       657-7.71546E+04-1.56434E+06-1.20018E+05 3.69598E+04 3.18687E-09-1.06127E-09
 -1       658 1.81112E+04-1.51840E+06-7.48912E+04-5.37187E+03 1.00476E-09-8.47555E-09
 -1       659-8.41142E+04-1.56780E+06-1.29375E+05 3.84037E+04-2.50475E-09-2.69607E-08
 -1       660 6.50922E+04-1.49643E+06-1.62122E+05-4.60637E+03-2.34286E-09-1.59617E-08
 -1       661 3.38611E+05 3.88363E+04 3.09559E+04 1.32033E+05-9.75115E-09 2.97587E-09
 -1       662 3.52252E+05 6.25213E+04 2.04175E+04 1.29307E+05-1.64705E-08-6.22617E-09
 -1       663 3.44461E+05 4.78876E+04 7.31127E+03 1.30578E+05 2.19848E-09 1.61936E-09
 -1       664 3.45503E+05 5.17265E+04 4.24364E+03 1.31189E+05 5.35323E-09 1.14192E-08
 -1       665 3.45278E+05 4.90255E+04 1.72262E+03 1.30380E+05 2.92289E-10 1.34825E-08
 -1       666 3.44540E+05 5.04055E+04 9.78273E+02 1.31469E+05-4.72221E-09 8.57770E-09
 -1       667 3.45416E+05 4.91390E+04 5.29246E+02 1.30326E+05 4.67799E-09 4.06332E-09
 -1       668 3.44377E+05 5.03333E+04 5.21045E+02 1.31567E+05 1.32370E-08 1.90568E-11
 -1       669 3.45442E+05 4.90908E+04 7.13960E+02 1.30286E+05 7.33144E-09-3.76053E-09
 -1       670 3.44491E+05 5.06721E+04 1.51192E+03 1.31620E+05 3.64025E-09 7.06677E-09
 -1       671 3.45305E+05 4.88098E+04 2.75538E+03 1.30269E+05-6.01744E-09-6.01790E-09
 -1       672 3.45876E+05 5.29968E+04 6.85272E+03 1.31379E+05-1.71282E-09-1.24193E-08
 -1       673 3.44073E+05 4.68762E+04 1.18253E+04 1.30486E+05-2.23088E-09-5.59339E-11
 -1       674 3.56630E+05 7.06451E+04 3.30434E+04 1.28536E+05-1.70758E-09 3.90037E-09
 -1       675 3.34689E+05 3.21406E+04 5.01029E+04 1.32744E+05 5.67343E-09-1.21181E-08
 -1       676 2.18925E+01-3.78751E+05-1.39379E+03 1.06643E+02-4.42634E-09-3.50746E-09
 -1       677-2.52870E+02-3.79030E+05-2.51206E+03-2.13119E+02-1.59338E-08 7.55469E-09
 -1       678 1.33416E+02-3.78548E+05-4.52929E+03 1.06377E+02-1.37029E-08-1.98371E-09
 -1       679-3.79181E+03-3.81620E+05-1.05115E+04-2.11652E+02-1.21116E-08-1.05254E-08
 -1       680 1.39921E+03-3.76163E+05-1.75020E+04 1.02935E+02-3.25781E-09-1.85902E-09
 -1       771-4.28013E+06-7.99989E+05-9.88529E+04-1.81979E+06 9.92441E-09 2.93949E-09
 -1       772-4.24995E+06-8.42590E+05-5.12522E+04-1.87793E+06-6.93399E-09 6.22094E-10
 -1       773-4.29527E+06-7.81703E+05-2.36276E+04-1.82761E+06 1.41154E-09-1.30894E-08
 -1       774-4.23867E+06-8.33259E+05-1.11690E+04-1.88869E+06 1.46902E-08-4.74029E-09
 -1       775-4.30177E+06-7.77029E+05-6.61319E+03-1.82911E+06 1.03610E-08 2.81580E-09
 -1       776-4.24072E+06-8.33398E+05-2.88979E+03-1.89612E+06 6.22822E-09-5.38421E-10
 -1       777-4.30714E+06-7.73189E+05-2.45138E+03-1.83040E+06-1.01863E-09-8.86939E-09
 -1       778-4.24348E+06-8.33564E+05-1.10266E+03-1.90245E+06-4.71482E-09-1.47702E-09
 -1       779-4.31163E+06-7.69895E+05-1.57690E+03-1.83155E+06-2.73576E-09-5.20231E-10
 -1       780-4.24604E+06-8.33601E+05-1.52979E+03-1.90758E+06 2.93949E-09 1.89175E-10
 -1       781-4.31504E+06-7.67275E+05-3.02755E+03-1.83246E+06-1.01136E-09-2.67664E-09
 -1       782-4.24843E+06-8.33836E+05-5.82146E+03-1.91132E+06 1.30240E-08 1.33389E-09
 -1       783-4.31702E+06-7.65680E+05-1.17970E+04-1.83290E+06 1.65892E-09 1.18325E-09
 -1       784-4.25648E+06-8.40858E+05-2.78988E+04-1.91321E+06 8.60018E-09 3.81988E-11
 -1       785-4.31353E+06-7.71877E+05-5.28175E+04-1.82841E+06 8.48013E-09-5.12591E-09
 -1       786 3.40671E+05-1.67925E+04 4.08366E+04 2.22562E+02 1.17580E-09 1.20999E-08
 -1       787 3.58028E+05 1.95165E+04 2.85779E+04-1.13452E+03 8.36472E-10 1.97001E-08
 -1       788 3.47437E+05-2.51939E+03 1.05861E+04 1.95003E+02-1.07768E-09 1.20353E-08
 -1       789 3.50191E+05 2.92377E+03 6.54751E+03-1.09955E+03-1.48152E-09 3.98961E-09
 -1       790 3.48512E+05-3.76772E+02 2.70889E+03 1.87598E+02-2.00404E-10 9.82845E-09
 -1       791 3.48944E+05 4.38742E+02 1.57061E+03-1.10393E+03-9.26647E-10 1.12964E-08
 -1       792 3.48685E+05-5.86242E+01 7.37117E+02 1.99386E+02-1.15016E-10-7.95495E-10
 -1       793 3.48751E+05 8.61728E+01 4.96064E+02-1.14731E+03-9.38378E-10-3.61060E-09
 -1       794 3.48705E+05-2.72704E+01 4.02001E+02 2.30980E+02-1.61382E-09 7.15707E-09
 -1       795 3.48788E+05 1.57848E+02 6.16366E+02-1.23172E+03 1.17728E-09-4.32814E-09
 -1       796 3.48649E+05-1.29827E+02 9.62826E+02 2.83800E+02-7.62455E-10-2.38117E-09
 -1       797 3.49211E+05 9.99578E+02 2.25744E+03-1.36069E+03-6.09667E-10-6.27460E-09
 -1       798 3.48282E+05-8.61177E+02 3.62596E+03 3.59944E+02 3.10479E-10-3.51065E-09
 -1       799 3.51892E+05 6.66837E+03 9.77117E+03-1.54116E+03-1.32155E-09 1.03504E-08
 -1       800 3.45968E+05-5.73890E+03 1.39535E+04 4.64241E+02-4.50967E-10-4.86580E-09
 -1       801-6.54273E+04 3.96948E+05 3.86422E+04 2.31469E+05 3.10283E-08-6.09361E-09
 -1       802 1.38410E+05 6.59804E+05 1.38174E+05-1.35446E+06-2.69592E-08-2.19097E-08
 -1       803-3.14132E+04 5.48258E+05 1.34331E+05 2.12563E+05 2.84635E-08 2.85160E-08
 -1       804 2.96310E+05 7.80126E+05 3.59960E+05-1.36020E+06 8.73115E-10 3.59669E-08
 -1       805-2.29418E+05 2.88014E+05 4.02311E+05 2.36916E+05-5.32600E-09 2.60334E-08
 -1       806-3.80869E+05-8.68296E+04-3.38451E+04-1.62014E+05 3.14367E-09 2.54840E-09
 -1       807-3.82431E+05-8.07993E+04-1.64536E+04-1.71299E+05 1.32241E-09 5.33055E-09
 -1       808-3.81509E+05-7.32270E+04-6.96813E+03-1.68187E+05 8.94863E-09-4.97670E-09
 -1       809-3.78962E+05-7.59040E+04-3.39732E+03-1.71968E+05 1.63968E-08-1.05538E-08
 -1       810-3.81642E+05-7.26566E+04-1.55009E+03-1.68491E+05-3.59250E-09 1.70701E-08
 -1       811-3.78677E+05-7.56901E+04-7.65913E+02-1.71938E+05-1.89082E-08 1.15319E-08
 -1       812-3.81663E+05-7.26847E+04-3.77085E+02-1.68490E+05-4.41923E-09-3.74257E-10
 -1       813-3.78634E+05-7.56970E+04-2.27860E+02-1.71912E+05 9.45693E-09-5.48243E-09
 -1       814-3.81652E+05-7.27029E+04-1.98451E+02-1.68480E+05-1.42427E-09-1.22836E-08
 -1       815-3.78628E+05-7.57051E+04-2.93116E+02-1.71896E+05-1.94163E-08-9.59062E-09
 -1       816-3.81620E+05-7.27114E+04-5.39251E+02-1.68468E+05-1.62181E-08 6.51198E-09
 -1       817-3.78714E+05-7.57700E+04-1.15135E+03-1.71865E+05-9.27139E-09-1.49930E-09
 -1       818-3.81538E+05-7.29345E+04-2.35104E+03-1.68368E+05-6.08361E-09 2.71575E-09
 -1       819-3.80005E+05-7.72717E+04-5.53646E+03-1.71443E+05-1.17675E-08-6.44832E-10
 -1       820-3.81158E+05-7.76510E+04-1.13885E+04-1.66433E+05-7.28687E-09-1.45926E-08
 -1       821-5.52922E+05 2.76589E+04-6.72232E+04-6.18943E+02-3.26429E-09 1.29694E-08
 -1       822-5.81446E+05-3.21442E+04-4.70503E+04 1.15195E+03-2.70472E-09-1.71713E-09
 -1       823-5.64054E+05 4.14652E+03-1.74375E+04-1.02994E+03 4.15201E-09 1.08839E-08
 -1       824-5.68550E+05-4.81210E+03-1.07952E+04 1.91178E+03 8.71779E-10 7.40761E-09
 -1       825-5.65813E+05 6.17930E+02-4.50756E+03-1.37894E+03-8.62482E-09 3.51884E-09
 -1       826-5.66519E+05-7.24575E+02-2.68379E+03 2.52329E+03-1.46594E-08 1.51149E-08
 -1       827-5.66086E+05 1.01614E+02-1.40914E+03-1.64152E+03-7.91911E-09 7.19825E-09
 -1       828-5.66255E+05-2.04444E+02-1.24024E+03 2.94279E+03-1.21045E-08 1.46160E-08
 -1       829-5.66080E+05 1.04737E+02-1.44389E+03-1.79846E+03-1.36779E-09-5.92757E-09
 -1       830-5.66558E+05-7.49991E+02-2.78877E+03 3.13920E+03 4.42166E-09-6.47970E-09
 -1       831-5.65786E+05 6.43715E+02-4.69126E+03-1.83793E+03-1.78387E-09 2.90470E-09
 -1       832-5.68693E+05-5.01000E+03-1.12590E+04 3.10049E+03-1.75987E-09-9.09745E-09
 -1       833-5.63947E+05 4.32310E+03-1.81774E+04-1.75968E+03-2.65912E-09 2.19370E-09
 -1       834-5.82147E+05-3.35102E+04-4.90673E+04 2.84351E+03-4.31162E-09-5.49335E-09
 -1       835-5.52338E+05 2.88413E+04-7.00914E+04-1.58049E+03 3.07907E-09 5.66797E-09
 -1       836-5.62912E+03 6.07511E+05 4.35897E+04-3.31439E+04 4.92946E-10-5.79348E-09
 -1       837 1.17989E+04 6.22111E+05 3.57185E+04-8.23167E+04-3.91992E-10-5.00677E-09
 -1       838-1.55341E+03 6.11819E+05 3.24374E+04-3.30723E+04 3.45608E-10-7.35326E-10
 -1       839 2.32913E+04 6.29788E+05 5.95627E+04-8.23130E+04-4.29281E-10-6.51085E-09
 -1       840-1.24782E+04 5.99740E+05 9.06277E+04-3.31432E+04 6.54836E-11-4.65479E-09
 -1       856-2.27627E+05 1.34379E+04-4.13739E+04 4.26953E+02-8.25275E-09 1.08557E-08
 -1       857-2.43892E+05-1.62168E+04-2.77153E+04 1.38327E+04-8.23729E-09 2.24586E-08
 -1       858-2.34201E+05 1.67597E+03-1.07508E+04 3.48284E+02-6.43172E-09 8.86439E-09
 -1       859-2.36460E+05-1.94939E+03-6.27713E+03 1.39523E+04 6.89636E-09 1.08663E-08
 -1       860-2.35088E+05 2.11802E+02-2.73139E+03 3.05827E+02 2.61400E-09 1.19020E-08
 -1       861-2.35460E+05-1.80990E+02-1.49048E+03 1.40085E+04-5.12443E-09 8.05156E-09
 -1       862-2.35216E+05 2.98092E+01-6.99548E+02 2.91702E+02 1.05740E-08 3.69556E-09
 -1       863-2.35314E+05 3.34129E+01-3.91192E+02 1.40106E+04 1.66132E-08-9.74997E-09
 -1       864-2.35235E+05 7.67424E+00-2.33958E+02 3.03708E+02 1.14567E-08-9.73793E-09
 -1       865-2.35287E+05 3.43602E+01-2.22394E+02 1.39590E+04 8.97904E-09-5.52238E-09
 -1       866-2.35228E+05 1.78912E+01-2.95701E+02 3.43373E+02 1.76556E-10 2.73975E-09
 -1       867-2.35343E+05-1.34983E+02-5.93957E+02 1.38526E+04 7.53312E-09 7.42589E-09
 -1       868-2.35149E+05 1.45821E+02-1.00439E+03 4.10216E+02 8.06608E-09 3.94806E-09
 -1       869-2.35977E+05-1.45628E+03-2.54224E+03 1.36705E+04-8.05255E-09-8.23302E-09
 -1       870-2.34550E+05 1.21486E+03-3.81539E+03 5.25677E+02 2.83990E-09 1.06361E-08
 -1       871-6.16394E+03-2.89587E+04-2.40016E+04 1.74899E+05 3.67982E-09 1.66438E-09
 -1       872-3.54257E+03-3.47050E+04-9.70302E+03 2.37522E+05-2.43290E-09 2.20425E-08
 -1       873-2.59808E+02-3.22521E+04 2.02362E+03 1.74488E+05 3.61979E-10 7.03176E-09
 -1       874 3.82915E+03-2.80962E+04 1.52721E+04 2.37608E+05-1.27875E-09-1.70803E-09
 -1       875 7.07404E+03-3.58533E+04 3.27656E+04 1.74844E+05 3.84171E-09-7.34872E-10
 -1       876 4.50214E+05 7.39512E+04 2.77609E+04 1.79937E+05 2.64535E-09-1.28493E-08
 -1       877 4.53440E+05 8.13085E+04 1.51906E+04 1.86460E+05-7.90988E-09 2.98064E-09
 -1       878 4.53172E+05 7.25861E+04 6.29734E+03 1.81715E+05-5.28007E-09-6.08043E-09
 -1       879 4.49453E+05 7.70970E+04 3.15735E+03 1.86672E+05-7.86144E-09-7.71399E-09
 -1       880 4.53383E+05 7.26111E+04 1.45836E+03 1.81804E+05 1.98906E-09 3.58591E-09
 -1       881 4.49179E+05 7.68868E+04 7.68442E+02 1.86628E+05 5.10454E-09 7.85018E-09
 -1       882 4.53401E+05 7.26358E+04 4.69377E+02 1.81809E+05 1.27457E-08 6.16119E-09
 -1       883 4.49158E+05 7.68739E+04 4.71262E+02 1.86613E+05-1.86986E-09 8.32756E-10
 -1       884 4.53392E+05 7.26338E+04 7.18223E+02 1.81810E+05-7.00879E-10-1.45906E-09
 -1       885 4.49218E+05 7.68916E+04 1.42651E+03 1.86629E+05 3.31639E-08 3.05135E-10
 -1       886 4.53337E+05 7.25947E+04 2.86075E+03 1.81801E+05-2.06182E-09-7.19047E-09
 -1       887 4.49768E+05 7.73050E+04 6.27330E+03 1.86692E+05-3.18032E-08-5.24233E-09
 -1       888 4.52896E+05 7.25555E+04 1.25500E+04 1.81622E+05-1.10152E-08 1.63436E-08
 -1       889 4.57632E+05 8.57820E+04 3.02895E+04 1.86339E+05 6.57575E-09 2.22590E-08
 -1       890 4.47061E+05 7.52103E+04 5.53678E+04 1.77979E+05 6.77119E-10 1.65164E-09
 -1       891-2.89022E+02-2.47659E+05-6.09923E+03 4.27885E+04-3.80624E-09-8.11406E-09
 -1       892-1.16221E+03-2.49259E+05-5.06033E+03 7.09897E+04-4.62023E-10-5.32964E-10
 -1       893-9.45143E+01-2.48122E+05-5.39970E+03 4.27844E+04-5.91172E-11-2.13095E-09
 -1       894-2.98351E+03-2.50634E+05-1.00880E+04 7.07637E+04-6.98856E-09-1.21436E-08
 -1       895-8.62170E+02-2.46012E+05-1.68298E+04 4.30088E+04-3.52270E-09-3.47518E-09
 -1       956-5.46640E+05-7.28011E+03-2.13248E+04 4.11085E+04-1.17197E-08 6.54609E-09
 -1       957-5.51103E+05-2.66459E+03-1.10889E+04 5.10507E+04-1.20745E-08-2.34231E-08
 -1       958-5.48701E+05-1.24147E+02-5.00066E+03 4.08132E+04-1.83718E-10-1.89848E-08
 -1       959-5.49068E+05 3.77380E+01-2.55648E+03 5.13706E+04-2.56750E-09-6.81484E-09
 -1       960-5.48912E+05 1.27495E+02-1.24845E+03 4.07824E+04-7.77254E-09-4.18777E-09
 -1       961-5.48970E+05 1.57339E+02-6.57140E+02 5.14080E+04-1.11449E-08-2.86855E-09
 -1       962-5.48974E+05 1.37006E+02-3.69794E+02 4.07749E+04-8.76571E-09-2.66937E-10
 -1       963-5.48991E+05 1.75548E+02-2.83427E+02 5.14186E+04-1.27848E-08-2.21462E-10
 -1       964-5.48996E+05 1.49812E+02-3.29409E+02 4.07715E+04-3.21961E-10-6.53108E-09
 -1       965-5.49019E+05 1.85552E+02-5.56748E+02 5.14207E+04 1.47280E-08 1.54296E-08
 -1       966-5.48980E+05 1.64795E+02-1.03943E+03 4.07727E+04-3.22711E-09 1.45810E-08
 -1       967-5.49141E+05 1.09134E+02-2.12562E+03 5.14032E+04-2.55591E-09 1.11559E-08
 -1       968-5.48836E+05-2.37748E+01-4.15175E+03 4.07896E+04-3.66981E-09 3.50497E-09
 -1       969-5.50870E+05-2.11886E+03-9.21554E+03 5.12101E+04-5.38421E-10-1.71809E-08
 -1       970-5.47146E+05-5.95920E+03-1.77178E+04 4.09761E+04 2.53658E-09-5.24415E-09
 -1       971-5.32062E+05-1.72308E+03-1.55808E+04 2.02973E+04-4.42560E-09-3.43050E-09
 -1       972-5.36116E+05-2.16501E+03-8.67601E+03 3.07137E+04 7.13953E-09-1.26440E-08
 -1       973-5.33919E+05 3.12367E+01-3.85700E+03 2.00982E+04-4.46016E-09 8.89486E-10
 -1       974-5.34228E+05 1.51215E+01-2.00608E+03 3.09342E+04-1.59389E-09 8.95113E-09
 -1       975-5.34076E+05 8.48974E+01-9.98599E+02 2.00718E+04 3.57522E-09-6.80006E-09
 -1       976-5.34128E+05 1.24197E+02-5.71029E+02 3.09703E+04-3.18801E-09-8.98513E-09
 -1       977-5.34110E+05 9.15251E+01-4.06506E+02 2.00615E+04 8.88576E-09-9.60949E-09
 -1       978-5.34142E+05 1.39112E+02-4.64501E+02 3.09847E+04 3.13785E-08 1.01932E-09
 -1       979-5.34112E+05 1.04733E+02-7.37625E+02 2.00572E+04 1.38983E-08-1.00902E-08
 -1       980-5.34199E+05 1.37970E+02-1.42014E+03 3.09870E+04 9.28497E-09-2.81307E-09
 -1       981-5.34063E+05 1.33497E+02-2.74656E+03 2.00592E+04 4.86716E-09-1.85091E-08
 -1       982-5.34595E+05-1.19232E+02-5.69212E+03 3.09717E+04-3.54726E-09 1.32594E-09
 -1       983-5.33687E+05 3.79786E+01-1.10073E+04 2.00735E+04 6.65432E-09 1.70303E-09
 -1       984-5.40145E+05-6.30095E+03-2.48459E+04 3.08285E+04-5.10181E-09-6.00585E-09
 -1       985-5.28450E+05-4.92104E+03-4.46060E+04 2.02215E+04 4.18822E-09-1.21090E-08
 -3
 9999
