    1C
    1UUSER                                                              
    1UDATE              11.october.2022                                 
    1UTIME              17:44:48                                        
    1UHOST                                                              
    1UPGM               CalculiX                                        
    1UVERSION           Version 2.20                             
    1UCOMPILETIME       Sun Jul 31 18:08:37 CEST 2022                    
    1UDIR                                                               
    1UDBN                                                               
    1UMAT    1MESH_MATERIAL                                             
    2C                           841                                     1
 -1         1 0.00000E+00 0.00000E+00 0.00000E+00
 -1         2 1.66667E-02 0.00000E+00 0.00000E+00
 -1         3 3.33333E-02 0.00000E+00 0.00000E+00
 -1         4 5.00000E-02 0.00000E+00 0.00000E+00
 -1         5 6.66667E-02 0.00000E+00 0.00000E+00
 -1         8 0.00000E+00 6.25000E-03 0.00000E+00
 -1         9 1.66667E-02 6.25000E-03 0.00000E+00
 -1        10 3.33333E-02 6.25000E-03 0.00000E+00
 -1        11 5.00000E-02 6.25000E-03 0.00000E+00
 -1        12 6.66667E-02 6.25000E-03 0.00000E+00
 -1        15 0.00000E+00 1.25000E-02 0.00000E+00
 -1        16 1.66667E-02 1.25000E-02 0.00000E+00
 -1        17 3.33333E-02 1.25000E-02 0.00000E+00
 -1        18 5.00000E-02 1.25000E-02 0.00000E+00
 -1        19 6.66667E-02 1.25000E-02 0.00000E+00
 -1        20 8.33333E-02 1.25000E-02 0.00000E+00
 -1        21 1.00000E-01 1.25000E-02 0.00000E+00
 -1        22 0.00000E+00 1.87500E-02 0.00000E+00
 -1        23 1.66667E-02 1.87500E-02 0.00000E+00
 -1        24 3.33333E-02 1.87500E-02 0.00000E+00
 -1        25 5.00000E-02 1.87500E-02 0.00000E+00
 -1        26 6.66667E-02 1.87500E-02 0.00000E+00
 -1        27 8.33333E-02 1.87500E-02 0.00000E+00
 -1        28 1.00000E-01 1.87500E-02 0.00000E+00
 -1        29 0.00000E+00 2.50000E-02 0.00000E+00
 -1        30 1.66667E-02 2.50000E-02 0.00000E+00
 -1        31 3.33333E-02 2.50000E-02 0.00000E+00
 -1        32 5.00000E-02 2.50000E-02 0.00000E+00
 -1        33 6.66667E-02 2.50000E-02 0.00000E+00
 -1        34 8.33333E-02 2.50000E-02 0.00000E+00
 -1        35 1.00000E-01 2.50000E-02 0.00000E+00
 -1        36 1.04167E-03 0.00000E+00 0.00000E+00
 -1        37 2.08333E-03 0.00000E+00 0.00000E+00
 -1        38 3.12500E-03 0.00000E+00 0.00000E+00
 -1        39 4.16667E-03 0.00000E+00 0.00000E+00
 -1        40 5.20833E-03 0.00000E+00 0.00000E+00
 -1        41 6.25000E-03 0.00000E+00 0.00000E+00
 -1        42 7.29167E-03 0.00000E+00 0.00000E+00
 -1        43 8.33333E-03 0.00000E+00 0.00000E+00
 -1        44 9.37500E-03 0.00000E+00 0.00000E+00
 -1        45 1.04167E-02 0.00000E+00 0.00000E+00
 -1        46 1.14583E-02 0.00000E+00 0.00000E+00
 -1        47 1.25000E-02 0.00000E+00 0.00000E+00
 -1        48 1.35417E-02 0.00000E+00 0.00000E+00
 -1        49 1.45833E-02 0.00000E+00 0.00000E+00
 -1        50 1.56250E-02 0.00000E+00 0.00000E+00
 -1        51 0.00000E+00 1.04167E-03 0.00000E+00
 -1        52 0.00000E+00 2.08333E-03 0.00000E+00
 -1        53 0.00000E+00 3.12500E-03 0.00000E+00
 -1        54 0.00000E+00 4.16667E-03 0.00000E+00
 -1        55 0.00000E+00 5.20833E-03 0.00000E+00
 -1        56 1.04167E-03 3.90630E-04 0.00000E+00
 -1        57 2.08333E-03 7.81250E-04 0.00000E+00
 -1        58 3.12500E-03 1.17188E-03 0.00000E+00
 -1        59 4.16667E-03 1.56250E-03 0.00000E+00
 -1        60 5.20833E-03 1.95312E-03 0.00000E+00
 -1        61 6.25000E-03 2.34375E-03 0.00000E+00
 -1        62 7.29167E-03 2.73438E-03 0.00000E+00
 -1        63 8.33333E-03 3.12500E-03 0.00000E+00
 -1        64 9.37500E-03 3.51563E-03 0.00000E+00
 -1        65 1.04167E-02 3.90625E-03 0.00000E+00
 -1        66 1.14583E-02 4.29688E-03 0.00000E+00
 -1        67 1.25000E-02 4.68750E-03 0.00000E+00
 -1        68 1.35417E-02 5.07813E-03 0.00000E+00
 -1        69 1.45833E-02 5.46875E-03 0.00000E+00
 -1        70 1.56250E-02 5.85938E-03 0.00000E+00
 -1        71 1.77083E-02 0.00000E+00 0.00000E+00
 -1        72 1.87500E-02 0.00000E+00 0.00000E+00
 -1        73 1.97917E-02 0.00000E+00 0.00000E+00
 -1        74 2.08333E-02 0.00000E+00 0.00000E+00
 -1        75 2.18750E-02 0.00000E+00 0.00000E+00
 -1        76 2.29167E-02 0.00000E+00 0.00000E+00
 -1        77 2.39583E-02 0.00000E+00 0.00000E+00
 -1        78 2.50000E-02 0.00000E+00 0.00000E+00
 -1        79 2.60417E-02 0.00000E+00 0.00000E+00
 -1        80 2.70833E-02 0.00000E+00 0.00000E+00
 -1        81 2.81250E-02 0.00000E+00 0.00000E+00
 -1        82 2.91667E-02 0.00000E+00 0.00000E+00
 -1        83 3.02083E-02 0.00000E+00 0.00000E+00
 -1        84 3.12500E-02 0.00000E+00 0.00000E+00
 -1        85 3.22917E-02 0.00000E+00 0.00000E+00
 -1        86 1.66667E-02 1.04167E-03 0.00000E+00
 -1        87 1.66667E-02 2.08333E-03 0.00000E+00
 -1        88 1.66667E-02 3.12500E-03 0.00000E+00
 -1        89 1.66667E-02 4.16667E-03 0.00000E+00
 -1        90 1.66667E-02 5.20833E-03 0.00000E+00
 -1        91 1.77083E-02 3.90630E-04 0.00000E+00
 -1        92 1.87500E-02 7.81250E-04 0.00000E+00
 -1        93 1.97917E-02 1.17188E-03 0.00000E+00
 -1        94 2.08333E-02 1.56250E-03 0.00000E+00
 -1        95 2.18750E-02 1.95312E-03 0.00000E+00
 -1        96 2.29167E-02 2.34375E-03 0.00000E+00
 -1        97 2.39583E-02 2.73438E-03 0.00000E+00
 -1        98 2.50000E-02 3.12500E-03 0.00000E+00
 -1        99 2.60417E-02 3.51563E-03 0.00000E+00
 -1       100 2.70833E-02 3.90625E-03 0.00000E+00
 -1       101 2.81250E-02 4.29688E-03 0.00000E+00
 -1       102 2.91667E-02 4.68750E-03 0.00000E+00
 -1       103 3.02083E-02 5.07813E-03 0.00000E+00
 -1       104 3.12500E-02 5.46875E-03 0.00000E+00
 -1       105 3.22917E-02 5.85938E-03 0.00000E+00
 -1       106 3.43750E-02 0.00000E+00 0.00000E+00
 -1       107 3.54167E-02 0.00000E+00 0.00000E+00
 -1       108 3.64583E-02 0.00000E+00 0.00000E+00
 -1       109 3.75000E-02 0.00000E+00 0.00000E+00
 -1       110 3.85417E-02 0.00000E+00 0.00000E+00
 -1       111 3.95833E-02 0.00000E+00 0.00000E+00
 -1       112 4.06250E-02 0.00000E+00 0.00000E+00
 -1       113 4.16667E-02 0.00000E+00 0.00000E+00
 -1       114 4.27083E-02 0.00000E+00 0.00000E+00
 -1       115 4.37500E-02 0.00000E+00 0.00000E+00
 -1       116 4.47917E-02 0.00000E+00 0.00000E+00
 -1       117 4.58333E-02 0.00000E+00 0.00000E+00
 -1       118 4.68750E-02 0.00000E+00 0.00000E+00
 -1       119 4.79167E-02 0.00000E+00 0.00000E+00
 -1       120 4.89583E-02 0.00000E+00 0.00000E+00
 -1       121 3.33333E-02 1.04167E-03 0.00000E+00
 -1       122 3.33333E-02 2.08333E-03 0.00000E+00
 -1       123 3.33333E-02 3.12500E-03 0.00000E+00
 -1       124 3.33333E-02 4.16667E-03 0.00000E+00
 -1       125 3.33333E-02 5.20833E-03 0.00000E+00
 -1       126 3.43750E-02 3.90630E-04 0.00000E+00
 -1       127 3.54167E-02 7.81250E-04 0.00000E+00
 -1       128 3.64583E-02 1.17188E-03 0.00000E+00
 -1       129 3.75000E-02 1.56250E-03 0.00000E+00
 -1       130 3.85417E-02 1.95312E-03 0.00000E+00
 -1       131 3.95833E-02 2.34375E-03 0.00000E+00
 -1       132 4.06250E-02 2.73438E-03 0.00000E+00
 -1       133 4.16667E-02 3.12500E-03 0.00000E+00
 -1       134 4.27083E-02 3.51563E-03 0.00000E+00
 -1       135 4.37500E-02 3.90625E-03 0.00000E+00
 -1       136 4.47917E-02 4.29688E-03 0.00000E+00
 -1       137 4.58333E-02 4.68750E-03 0.00000E+00
 -1       138 4.68750E-02 5.07813E-03 0.00000E+00
 -1       139 4.79167E-02 5.46875E-03 0.00000E+00
 -1       140 4.89583E-02 5.85938E-03 0.00000E+00
 -1       141 5.10417E-02 0.00000E+00 0.00000E+00
 -1       142 5.20833E-02 0.00000E+00 0.00000E+00
 -1       143 5.31250E-02 0.00000E+00 0.00000E+00
 -1       144 5.41667E-02 0.00000E+00 0.00000E+00
 -1       145 5.52083E-02 0.00000E+00 0.00000E+00
 -1       146 5.62500E-02 0.00000E+00 0.00000E+00
 -1       147 5.72917E-02 0.00000E+00 0.00000E+00
 -1       148 5.83333E-02 0.00000E+00 0.00000E+00
 -1       149 5.93750E-02 0.00000E+00 0.00000E+00
 -1       150 6.04167E-02 0.00000E+00 0.00000E+00
 -1       151 6.14583E-02 0.00000E+00 0.00000E+00
 -1       152 6.25000E-02 0.00000E+00 0.00000E+00
 -1       153 6.35417E-02 0.00000E+00 0.00000E+00
 -1       154 6.45833E-02 0.00000E+00 0.00000E+00
 -1       155 6.56250E-02 0.00000E+00 0.00000E+00
 -1       156 5.00000E-02 1.04167E-03 0.00000E+00
 -1       157 5.00000E-02 2.08333E-03 0.00000E+00
 -1       158 5.00000E-02 3.12500E-03 0.00000E+00
 -1       159 5.00000E-02 4.16667E-03 0.00000E+00
 -1       160 5.00000E-02 5.20833E-03 0.00000E+00
 -1       161 5.10417E-02 3.90630E-04 0.00000E+00
 -1       162 5.20833E-02 7.81250E-04 0.00000E+00
 -1       163 5.31250E-02 1.17188E-03 0.00000E+00
 -1       164 5.41667E-02 1.56250E-03 0.00000E+00
 -1       165 5.52083E-02 1.95312E-03 0.00000E+00
 -1       166 5.62500E-02 2.34375E-03 0.00000E+00
 -1       167 5.72917E-02 2.73438E-03 0.00000E+00
 -1       168 5.83333E-02 3.12500E-03 0.00000E+00
 -1       169 5.93750E-02 3.51563E-03 0.00000E+00
 -1       170 6.04167E-02 3.90625E-03 0.00000E+00
 -1       171 6.14583E-02 4.29688E-03 0.00000E+00
 -1       172 6.25000E-02 4.68750E-03 0.00000E+00
 -1       173 6.35417E-02 5.07813E-03 0.00000E+00
 -1       174 6.45833E-02 5.46875E-03 0.00000E+00
 -1       175 6.56250E-02 5.85938E-03 0.00000E+00
 -1       191 6.66667E-02 1.04167E-03 0.00000E+00
 -1       192 6.66667E-02 2.08333E-03 0.00000E+00
 -1       193 6.66667E-02 3.12500E-03 0.00000E+00
 -1       194 6.66667E-02 4.16667E-03 0.00000E+00
 -1       195 6.66667E-02 5.20833E-03 0.00000E+00
 -1       251 1.04167E-03 6.25000E-03 0.00000E+00
 -1       252 2.08333E-03 6.25000E-03 0.00000E+00
 -1       253 3.12500E-03 6.25000E-03 0.00000E+00
 -1       254 4.16667E-03 6.25000E-03 0.00000E+00
 -1       255 5.20833E-03 6.25000E-03 0.00000E+00
 -1       256 6.25000E-03 6.25000E-03 0.00000E+00
 -1       257 7.29167E-03 6.25000E-03 0.00000E+00
 -1       258 8.33333E-03 6.25000E-03 0.00000E+00
 -1       259 9.37500E-03 6.25000E-03 0.00000E+00
 -1       260 1.04167E-02 6.25000E-03 0.00000E+00
 -1       261 1.14583E-02 6.25000E-03 0.00000E+00
 -1       262 1.25000E-02 6.25000E-03 0.00000E+00
 -1       263 1.35417E-02 6.25000E-03 0.00000E+00
 -1       264 1.45833E-02 6.25000E-03 0.00000E+00
 -1       265 1.56250E-02 6.25000E-03 0.00000E+00
 -1       266 0.00000E+00 7.29167E-03 0.00000E+00
 -1       267 0.00000E+00 8.33333E-03 0.00000E+00
 -1       268 0.00000E+00 9.37500E-03 0.00000E+00
 -1       269 0.00000E+00 1.04167E-02 0.00000E+00
 -1       270 0.00000E+00 1.14583E-02 0.00000E+00
 -1       271 1.04167E-03 6.64063E-03 0.00000E+00
 -1       272 2.08333E-03 7.03125E-03 0.00000E+00
 -1       273 3.12500E-03 7.42188E-03 0.00000E+00
 -1       274 4.16667E-03 7.81250E-03 0.00000E+00
 -1       275 5.20833E-03 8.20313E-03 0.00000E+00
 -1       276 6.25000E-03 8.59375E-03 0.00000E+00
 -1       277 7.29167E-03 8.98438E-03 0.00000E+00
 -1       278 8.33333E-03 9.37500E-03 0.00000E+00
 -1       279 9.37500E-03 9.76562E-03 0.00000E+00
 -1       280 1.04167E-02 1.01562E-02 0.00000E+00
 -1       281 1.14583E-02 1.05469E-02 0.00000E+00
 -1       282 1.25000E-02 1.09375E-02 0.00000E+00
 -1       283 1.35417E-02 1.13281E-02 0.00000E+00
 -1       284 1.45833E-02 1.17188E-02 0.00000E+00
 -1       285 1.56250E-02 1.21094E-02 0.00000E+00
 -1       286 1.77083E-02 6.25000E-03 0.00000E+00
 -1       287 1.87500E-02 6.25000E-03 0.00000E+00
 -1       288 1.97917E-02 6.25000E-03 0.00000E+00
 -1       289 2.08333E-02 6.25000E-03 0.00000E+00
 -1       290 2.18750E-02 6.25000E-03 0.00000E+00
 -1       291 2.29167E-02 6.25000E-03 0.00000E+00
 -1       292 2.39583E-02 6.25000E-03 0.00000E+00
 -1       293 2.50000E-02 6.25000E-03 0.00000E+00
 -1       294 2.60417E-02 6.25000E-03 0.00000E+00
 -1       295 2.70833E-02 6.25000E-03 0.00000E+00
 -1       296 2.81250E-02 6.25000E-03 0.00000E+00
 -1       297 2.91667E-02 6.25000E-03 0.00000E+00
 -1       298 3.02083E-02 6.25000E-03 0.00000E+00
 -1       299 3.12500E-02 6.25000E-03 0.00000E+00
 -1       300 3.22917E-02 6.25000E-03 0.00000E+00
 -1       301 1.66667E-02 7.29167E-03 0.00000E+00
 -1       302 1.66667E-02 8.33333E-03 0.00000E+00
 -1       303 1.66667E-02 9.37500E-03 0.00000E+00
 -1       304 1.66667E-02 1.04167E-02 0.00000E+00
 -1       305 1.66667E-02 1.14583E-02 0.00000E+00
 -1       306 1.77083E-02 6.64063E-03 0.00000E+00
 -1       307 1.87500E-02 7.03125E-03 0.00000E+00
 -1       308 1.97917E-02 7.42188E-03 0.00000E+00
 -1       309 2.08333E-02 7.81250E-03 0.00000E+00
 -1       310 2.18750E-02 8.20313E-03 0.00000E+00
 -1       311 2.29167E-02 8.59375E-03 0.00000E+00
 -1       312 2.39583E-02 8.98438E-03 0.00000E+00
 -1       313 2.50000E-02 9.37500E-03 0.00000E+00
 -1       314 2.60417E-02 9.76562E-03 0.00000E+00
 -1       315 2.70833E-02 1.01562E-02 0.00000E+00
 -1       316 2.81250E-02 1.05469E-02 0.00000E+00
 -1       317 2.91667E-02 1.09375E-02 0.00000E+00
 -1       318 3.02083E-02 1.13281E-02 0.00000E+00
 -1       319 3.12500E-02 1.17188E-02 0.00000E+00
 -1       320 3.22917E-02 1.21094E-02 0.00000E+00
 -1       321 3.43750E-02 6.25000E-03 0.00000E+00
 -1       322 3.54167E-02 6.25000E-03 0.00000E+00
 -1       323 3.64583E-02 6.25000E-03 0.00000E+00
 -1       324 3.75000E-02 6.25000E-03 0.00000E+00
 -1       325 3.85417E-02 6.25000E-03 0.00000E+00
 -1       326 3.95833E-02 6.25000E-03 0.00000E+00
 -1       327 4.06250E-02 6.25000E-03 0.00000E+00
 -1       328 4.16667E-02 6.25000E-03 0.00000E+00
 -1       329 4.27083E-02 6.25000E-03 0.00000E+00
 -1       330 4.37500E-02 6.25000E-03 0.00000E+00
 -1       331 4.47917E-02 6.25000E-03 0.00000E+00
 -1       332 4.58333E-02 6.25000E-03 0.00000E+00
 -1       333 4.68750E-02 6.25000E-03 0.00000E+00
 -1       334 4.79167E-02 6.25000E-03 0.00000E+00
 -1       335 4.89583E-02 6.25000E-03 0.00000E+00
 -1       336 3.33333E-02 7.29167E-03 0.00000E+00
 -1       337 3.33333E-02 8.33333E-03 0.00000E+00
 -1       338 3.33333E-02 9.37500E-03 0.00000E+00
 -1       339 3.33333E-02 1.04167E-02 0.00000E+00
 -1       340 3.33333E-02 1.14583E-02 0.00000E+00
 -1       341 3.43750E-02 6.64063E-03 0.00000E+00
 -1       342 3.54167E-02 7.03125E-03 0.00000E+00
 -1       343 3.64583E-02 7.42188E-03 0.00000E+00
 -1       344 3.75000E-02 7.81250E-03 0.00000E+00
 -1       345 3.85417E-02 8.20313E-03 0.00000E+00
 -1       346 3.95833E-02 8.59375E-03 0.00000E+00
 -1       347 4.06250E-02 8.98438E-03 0.00000E+00
 -1       348 4.16667E-02 9.37500E-03 0.00000E+00
 -1       349 4.27083E-02 9.76562E-03 0.00000E+00
 -1       350 4.37500E-02 1.01562E-02 0.00000E+00
 -1       351 4.47917E-02 1.05469E-02 0.00000E+00
 -1       352 4.58333E-02 1.09375E-02 0.00000E+00
 -1       353 4.68750E-02 1.13281E-02 0.00000E+00
 -1       354 4.79167E-02 1.17188E-02 0.00000E+00
 -1       355 4.89583E-02 1.21094E-02 0.00000E+00
 -1       356 5.10417E-02 6.25000E-03 0.00000E+00
 -1       357 5.20833E-02 6.25000E-03 0.00000E+00
 -1       358 5.31250E-02 6.25000E-03 0.00000E+00
 -1       359 5.41667E-02 6.25000E-03 0.00000E+00
 -1       360 5.52083E-02 6.25000E-03 0.00000E+00
 -1       361 5.62500E-02 6.25000E-03 0.00000E+00
 -1       362 5.72917E-02 6.25000E-03 0.00000E+00
 -1       363 5.83333E-02 6.25000E-03 0.00000E+00
 -1       364 5.93750E-02 6.25000E-03 0.00000E+00
 -1       365 6.04167E-02 6.25000E-03 0.00000E+00
 -1       366 6.14583E-02 6.25000E-03 0.00000E+00
 -1       367 6.25000E-02 6.25000E-03 0.00000E+00
 -1       368 6.35417E-02 6.25000E-03 0.00000E+00
 -1       369 6.45833E-02 6.25000E-03 0.00000E+00
 -1       370 6.56250E-02 6.25000E-03 0.00000E+00
 -1       371 5.00000E-02 7.29167E-03 0.00000E+00
 -1       372 5.00000E-02 8.33333E-03 0.00000E+00
 -1       373 5.00000E-02 9.37500E-03 0.00000E+00
 -1       374 5.00000E-02 1.04167E-02 0.00000E+00
 -1       375 5.00000E-02 1.14583E-02 0.00000E+00
 -1       376 5.10417E-02 6.64063E-03 0.00000E+00
 -1       377 5.20833E-02 7.03125E-03 0.00000E+00
 -1       378 5.31250E-02 7.42188E-03 0.00000E+00
 -1       379 5.41667E-02 7.81250E-03 0.00000E+00
 -1       380 5.52083E-02 8.20313E-03 0.00000E+00
 -1       381 5.62500E-02 8.59375E-03 0.00000E+00
 -1       382 5.72917E-02 8.98438E-03 0.00000E+00
 -1       383 5.83333E-02 9.37500E-03 0.00000E+00
 -1       384 5.93750E-02 9.76562E-03 0.00000E+00
 -1       385 6.04167E-02 1.01562E-02 0.00000E+00
 -1       386 6.14583E-02 1.05469E-02 0.00000E+00
 -1       387 6.25000E-02 1.09375E-02 0.00000E+00
 -1       388 6.35417E-02 1.13281E-02 0.00000E+00
 -1       389 6.45833E-02 1.17188E-02 0.00000E+00
 -1       390 6.56250E-02 1.21094E-02 0.00000E+00
 -1       406 6.66667E-02 7.29167E-03 0.00000E+00
 -1       407 6.66667E-02 8.33333E-03 0.00000E+00
 -1       408 6.66667E-02 9.37500E-03 0.00000E+00
 -1       409 6.66667E-02 1.04167E-02 0.00000E+00
 -1       410 6.66667E-02 1.14583E-02 0.00000E+00
 -1       466 1.04167E-03 1.25000E-02 0.00000E+00
 -1       467 2.08333E-03 1.25000E-02 0.00000E+00
 -1       468 3.12500E-03 1.25000E-02 0.00000E+00
 -1       469 4.16667E-03 1.25000E-02 0.00000E+00
 -1       470 5.20833E-03 1.25000E-02 0.00000E+00
 -1       471 6.25000E-03 1.25000E-02 0.00000E+00
 -1       472 7.29167E-03 1.25000E-02 0.00000E+00
 -1       473 8.33333E-03 1.25000E-02 0.00000E+00
 -1       474 9.37500E-03 1.25000E-02 0.00000E+00
 -1       475 1.04167E-02 1.25000E-02 0.00000E+00
 -1       476 1.14583E-02 1.25000E-02 0.00000E+00
 -1       477 1.25000E-02 1.25000E-02 0.00000E+00
 -1       478 1.35417E-02 1.25000E-02 0.00000E+00
 -1       479 1.45833E-02 1.25000E-02 0.00000E+00
 -1       480 1.56250E-02 1.25000E-02 0.00000E+00
 -1       481 0.00000E+00 1.35417E-02 0.00000E+00
 -1       482 0.00000E+00 1.45833E-02 0.00000E+00
 -1       483 0.00000E+00 1.56250E-02 0.00000E+00
 -1       484 0.00000E+00 1.66667E-02 0.00000E+00
 -1       485 0.00000E+00 1.77083E-02 0.00000E+00
 -1       486 1.04167E-03 1.28906E-02 0.00000E+00
 -1       487 2.08333E-03 1.32813E-02 0.00000E+00
 -1       488 3.12500E-03 1.36719E-02 0.00000E+00
 -1       489 4.16667E-03 1.40625E-02 0.00000E+00
 -1       490 5.20833E-03 1.44531E-02 0.00000E+00
 -1       491 6.25000E-03 1.48437E-02 0.00000E+00
 -1       492 7.29167E-03 1.52344E-02 0.00000E+00
 -1       493 8.33333E-03 1.56250E-02 0.00000E+00
 -1       494 9.37500E-03 1.60156E-02 0.00000E+00
 -1       495 1.04167E-02 1.64062E-02 0.00000E+00
 -1       496 1.14583E-02 1.67969E-02 0.00000E+00
 -1       497 1.25000E-02 1.71875E-02 0.00000E+00
 -1       498 1.35417E-02 1.75781E-02 0.00000E+00
 -1       499 1.45833E-02 1.79687E-02 0.00000E+00
 -1       500 1.56250E-02 1.83594E-02 0.00000E+00
 -1       501 1.77083E-02 1.25000E-02 0.00000E+00
 -1       502 1.87500E-02 1.25000E-02 0.00000E+00
 -1       503 1.97917E-02 1.25000E-02 0.00000E+00
 -1       504 2.08333E-02 1.25000E-02 0.00000E+00
 -1       505 2.18750E-02 1.25000E-02 0.00000E+00
 -1       506 2.29167E-02 1.25000E-02 0.00000E+00
 -1       507 2.39583E-02 1.25000E-02 0.00000E+00
 -1       508 2.50000E-02 1.25000E-02 0.00000E+00
 -1       509 2.60417E-02 1.25000E-02 0.00000E+00
 -1       510 2.70833E-02 1.25000E-02 0.00000E+00
 -1       511 2.81250E-02 1.25000E-02 0.00000E+00
 -1       512 2.91667E-02 1.25000E-02 0.00000E+00
 -1       513 3.02083E-02 1.25000E-02 0.00000E+00
 -1       514 3.12500E-02 1.25000E-02 0.00000E+00
 -1       515 3.22917E-02 1.25000E-02 0.00000E+00
 -1       516 1.66667E-02 1.35417E-02 0.00000E+00
 -1       517 1.66667E-02 1.45833E-02 0.00000E+00
 -1       518 1.66667E-02 1.56250E-02 0.00000E+00
 -1       519 1.66667E-02 1.66667E-02 0.00000E+00
 -1       520 1.66667E-02 1.77083E-02 0.00000E+00
 -1       521 1.77083E-02 1.28906E-02 0.00000E+00
 -1       522 1.87500E-02 1.32813E-02 0.00000E+00
 -1       523 1.97917E-02 1.36719E-02 0.00000E+00
 -1       524 2.08333E-02 1.40625E-02 0.00000E+00
 -1       525 2.18750E-02 1.44531E-02 0.00000E+00
 -1       526 2.29167E-02 1.48437E-02 0.00000E+00
 -1       527 2.39583E-02 1.52344E-02 0.00000E+00
 -1       528 2.50000E-02 1.56250E-02 0.00000E+00
 -1       529 2.60417E-02 1.60156E-02 0.00000E+00
 -1       530 2.70833E-02 1.64062E-02 0.00000E+00
 -1       531 2.81250E-02 1.67969E-02 0.00000E+00
 -1       532 2.91667E-02 1.71875E-02 0.00000E+00
 -1       533 3.02083E-02 1.75781E-02 0.00000E+00
 -1       534 3.12500E-02 1.79687E-02 0.00000E+00
 -1       535 3.22917E-02 1.83594E-02 0.00000E+00
 -1       536 3.43750E-02 1.25000E-02 0.00000E+00
 -1       537 3.54167E-02 1.25000E-02 0.00000E+00
 -1       538 3.64583E-02 1.25000E-02 0.00000E+00
 -1       539 3.75000E-02 1.25000E-02 0.00000E+00
 -1       540 3.85417E-02 1.25000E-02 0.00000E+00
 -1       541 3.95833E-02 1.25000E-02 0.00000E+00
 -1       542 4.06250E-02 1.25000E-02 0.00000E+00
 -1       543 4.16667E-02 1.25000E-02 0.00000E+00
 -1       544 4.27083E-02 1.25000E-02 0.00000E+00
 -1       545 4.37500E-02 1.25000E-02 0.00000E+00
 -1       546 4.47917E-02 1.25000E-02 0.00000E+00
 -1       547 4.58333E-02 1.25000E-02 0.00000E+00
 -1       548 4.68750E-02 1.25000E-02 0.00000E+00
 -1       549 4.79167E-02 1.25000E-02 0.00000E+00
 -1       550 4.89583E-02 1.25000E-02 0.00000E+00
 -1       551 3.33333E-02 1.35417E-02 0.00000E+00
 -1       552 3.33333E-02 1.45833E-02 0.00000E+00
 -1       553 3.33333E-02 1.56250E-02 0.00000E+00
 -1       554 3.33333E-02 1.66667E-02 0.00000E+00
 -1       555 3.33333E-02 1.77083E-02 0.00000E+00
 -1       556 3.43750E-02 1.28906E-02 0.00000E+00
 -1       557 3.54167E-02 1.32813E-02 0.00000E+00
 -1       558 3.64583E-02 1.36719E-02 0.00000E+00
 -1       559 3.75000E-02 1.40625E-02 0.00000E+00
 -1       560 3.85417E-02 1.44531E-02 0.00000E+00
 -1       561 3.95833E-02 1.48437E-02 0.00000E+00
 -1       562 4.06250E-02 1.52344E-02 0.00000E+00
 -1       563 4.16667E-02 1.56250E-02 0.00000E+00
 -1       564 4.27083E-02 1.60156E-02 0.00000E+00
 -1       565 4.37500E-02 1.64062E-02 0.00000E+00
 -1       566 4.47917E-02 1.67969E-02 0.00000E+00
 -1       567 4.58333E-02 1.71875E-02 0.00000E+00
 -1       568 4.68750E-02 1.75781E-02 0.00000E+00
 -1       569 4.79167E-02 1.79687E-02 0.00000E+00
 -1       570 4.89583E-02 1.83594E-02 0.00000E+00
 -1       571 5.10417E-02 1.25000E-02 0.00000E+00
 -1       572 5.20833E-02 1.25000E-02 0.00000E+00
 -1       573 5.31250E-02 1.25000E-02 0.00000E+00
 -1       574 5.41667E-02 1.25000E-02 0.00000E+00
 -1       575 5.52083E-02 1.25000E-02 0.00000E+00
 -1       576 5.62500E-02 1.25000E-02 0.00000E+00
 -1       577 5.72917E-02 1.25000E-02 0.00000E+00
 -1       578 5.83333E-02 1.25000E-02 0.00000E+00
 -1       579 5.93750E-02 1.25000E-02 0.00000E+00
 -1       580 6.04167E-02 1.25000E-02 0.00000E+00
 -1       581 6.14583E-02 1.25000E-02 0.00000E+00
 -1       582 6.25000E-02 1.25000E-02 0.00000E+00
 -1       583 6.35417E-02 1.25000E-02 0.00000E+00
 -1       584 6.45833E-02 1.25000E-02 0.00000E+00
 -1       585 6.56250E-02 1.25000E-02 0.00000E+00
 -1       586 5.00000E-02 1.35417E-02 0.00000E+00
 -1       587 5.00000E-02 1.45833E-02 0.00000E+00
 -1       588 5.00000E-02 1.56250E-02 0.00000E+00
 -1       589 5.00000E-02 1.66667E-02 0.00000E+00
 -1       590 5.00000E-02 1.77083E-02 0.00000E+00
 -1       591 5.10417E-02 1.28906E-02 0.00000E+00
 -1       592 5.20833E-02 1.32813E-02 0.00000E+00
 -1       593 5.31250E-02 1.36719E-02 0.00000E+00
 -1       594 5.41667E-02 1.40625E-02 0.00000E+00
 -1       595 5.52083E-02 1.44531E-02 0.00000E+00
 -1       596 5.62500E-02 1.48437E-02 0.00000E+00
 -1       597 5.72917E-02 1.52344E-02 0.00000E+00
 -1       598 5.83333E-02 1.56250E-02 0.00000E+00
 -1       599 5.93750E-02 1.60156E-02 0.00000E+00
 -1       600 6.04167E-02 1.64062E-02 0.00000E+00
 -1       601 6.14583E-02 1.67969E-02 0.00000E+00
 -1       602 6.25000E-02 1.71875E-02 0.00000E+00
 -1       603 6.35417E-02 1.75781E-02 0.00000E+00
 -1       604 6.45833E-02 1.79687E-02 0.00000E+00
 -1       605 6.56250E-02 1.83594E-02 0.00000E+00
 -1       606 6.77083E-02 1.25000E-02 0.00000E+00
 -1       607 6.87500E-02 1.25000E-02 0.00000E+00
 -1       608 6.97917E-02 1.25000E-02 0.00000E+00
 -1       609 7.08333E-02 1.25000E-02 0.00000E+00
 -1       610 7.18750E-02 1.25000E-02 0.00000E+00
 -1       611 7.29167E-02 1.25000E-02 0.00000E+00
 -1       612 7.39583E-02 1.25000E-02 0.00000E+00
 -1       613 7.50000E-02 1.25000E-02 0.00000E+00
 -1       614 7.60417E-02 1.25000E-02 0.00000E+00
 -1       615 7.70833E-02 1.25000E-02 0.00000E+00
 -1       616 7.81250E-02 1.25000E-02 0.00000E+00
 -1       617 7.91667E-02 1.25000E-02 0.00000E+00
 -1       618 8.02083E-02 1.25000E-02 0.00000E+00
 -1       619 8.12500E-02 1.25000E-02 0.00000E+00
 -1       620 8.22917E-02 1.25000E-02 0.00000E+00
 -1       621 6.66667E-02 1.35417E-02 0.00000E+00
 -1       622 6.66667E-02 1.45833E-02 0.00000E+00
 -1       623 6.66667E-02 1.56250E-02 0.00000E+00
 -1       624 6.66667E-02 1.66667E-02 0.00000E+00
 -1       625 6.66667E-02 1.77083E-02 0.00000E+00
 -1       626 6.77083E-02 1.28906E-02 0.00000E+00
 -1       627 6.87500E-02 1.32813E-02 0.00000E+00
 -1       628 6.97917E-02 1.36719E-02 0.00000E+00
 -1       629 7.08333E-02 1.40625E-02 0.00000E+00
 -1       630 7.18750E-02 1.44531E-02 0.00000E+00
 -1       631 7.29167E-02 1.48437E-02 0.00000E+00
 -1       632 7.39583E-02 1.52344E-02 0.00000E+00
 -1       633 7.50000E-02 1.56250E-02 0.00000E+00
 -1       634 7.60417E-02 1.60156E-02 0.00000E+00
 -1       635 7.70833E-02 1.64062E-02 0.00000E+00
 -1       636 7.81250E-02 1.67969E-02 0.00000E+00
 -1       637 7.91667E-02 1.71875E-02 0.00000E+00
 -1       638 8.02083E-02 1.75781E-02 0.00000E+00
 -1       639 8.12500E-02 1.79687E-02 0.00000E+00
 -1       640 8.22917E-02 1.83594E-02 0.00000E+00
 -1       641 8.43750E-02 1.25000E-02 0.00000E+00
 -1       642 8.54167E-02 1.25000E-02 0.00000E+00
 -1       643 8.64583E-02 1.25000E-02 0.00000E+00
 -1       644 8.75000E-02 1.25000E-02 0.00000E+00
 -1       645 8.85417E-02 1.25000E-02 0.00000E+00
 -1       646 8.95833E-02 1.25000E-02 0.00000E+00
 -1       647 9.06250E-02 1.25000E-02 0.00000E+00
 -1       648 9.16667E-02 1.25000E-02 0.00000E+00
 -1       649 9.27083E-02 1.25000E-02 0.00000E+00
 -1       650 9.37500E-02 1.25000E-02 0.00000E+00
 -1       651 9.47917E-02 1.25000E-02 0.00000E+00
 -1       652 9.58333E-02 1.25000E-02 0.00000E+00
 -1       653 9.68750E-02 1.25000E-02 0.00000E+00
 -1       654 9.79167E-02 1.25000E-02 0.00000E+00
 -1       655 9.89583E-02 1.25000E-02 0.00000E+00
 -1       656 8.33333E-02 1.35417E-02 0.00000E+00
 -1       657 8.33333E-02 1.45833E-02 0.00000E+00
 -1       658 8.33333E-02 1.56250E-02 0.00000E+00
 -1       659 8.33333E-02 1.66667E-02 0.00000E+00
 -1       660 8.33333E-02 1.77083E-02 0.00000E+00
 -1       661 8.43750E-02 1.28906E-02 0.00000E+00
 -1       662 8.54167E-02 1.32813E-02 0.00000E+00
 -1       663 8.64583E-02 1.36719E-02 0.00000E+00
 -1       664 8.75000E-02 1.40625E-02 0.00000E+00
 -1       665 8.85417E-02 1.44531E-02 0.00000E+00
 -1       666 8.95833E-02 1.48437E-02 0.00000E+00
 -1       667 9.06250E-02 1.52344E-02 0.00000E+00
 -1       668 9.16667E-02 1.56250E-02 0.00000E+00
 -1       669 9.27083E-02 1.60156E-02 0.00000E+00
 -1       670 9.37500E-02 1.64062E-02 0.00000E+00
 -1       671 9.47917E-02 1.67969E-02 0.00000E+00
 -1       672 9.58333E-02 1.71875E-02 0.00000E+00
 -1       673 9.68750E-02 1.75781E-02 0.00000E+00
 -1       674 9.79167E-02 1.79687E-02 0.00000E+00
 -1       675 9.89583E-02 1.83594E-02 0.00000E+00
 -1       676 1.00000E-01 1.35417E-02 0.00000E+00
 -1       677 1.00000E-01 1.45833E-02 0.00000E+00
 -1       678 1.00000E-01 1.56250E-02 0.00000E+00
 -1       679 1.00000E-01 1.66667E-02 0.00000E+00
 -1       680 1.00000E-01 1.77083E-02 0.00000E+00
 -1       681 1.04167E-03 1.87500E-02 0.00000E+00
 -1       682 2.08333E-03 1.87500E-02 0.00000E+00
 -1       683 3.12500E-03 1.87500E-02 0.00000E+00
 -1       684 4.16667E-03 1.87500E-02 0.00000E+00
 -1       685 5.20833E-03 1.87500E-02 0.00000E+00
 -1       686 6.25000E-03 1.87500E-02 0.00000E+00
 -1       687 7.29167E-03 1.87500E-02 0.00000E+00
 -1       688 8.33333E-03 1.87500E-02 0.00000E+00
 -1       689 9.37500E-03 1.87500E-02 0.00000E+00
 -1       690 1.04167E-02 1.87500E-02 0.00000E+00
 -1       691 1.14583E-02 1.87500E-02 0.00000E+00
 -1       692 1.25000E-02 1.87500E-02 0.00000E+00
 -1       693 1.35417E-02 1.87500E-02 0.00000E+00
 -1       694 1.45833E-02 1.87500E-02 0.00000E+00
 -1       695 1.56250E-02 1.87500E-02 0.00000E+00
 -1       696 0.00000E+00 1.97917E-02 0.00000E+00
 -1       697 0.00000E+00 2.08333E-02 0.00000E+00
 -1       698 0.00000E+00 2.18750E-02 0.00000E+00
 -1       699 0.00000E+00 2.29167E-02 0.00000E+00
 -1       700 0.00000E+00 2.39583E-02 0.00000E+00
 -1       701 1.04167E-03 1.91406E-02 0.00000E+00
 -1       702 2.08333E-03 1.95312E-02 0.00000E+00
 -1       703 3.12500E-03 1.99219E-02 0.00000E+00
 -1       704 4.16667E-03 2.03125E-02 0.00000E+00
 -1       705 5.20833E-03 2.07031E-02 0.00000E+00
 -1       706 6.25000E-03 2.10938E-02 0.00000E+00
 -1       707 7.29167E-03 2.14844E-02 0.00000E+00
 -1       708 8.33333E-03 2.18750E-02 0.00000E+00
 -1       709 9.37500E-03 2.22656E-02 0.00000E+00
 -1       710 1.04167E-02 2.26563E-02 0.00000E+00
 -1       711 1.14583E-02 2.30469E-02 0.00000E+00
 -1       712 1.25000E-02 2.34375E-02 0.00000E+00
 -1       713 1.35417E-02 2.38281E-02 0.00000E+00
 -1       714 1.45833E-02 2.42187E-02 0.00000E+00
 -1       715 1.56250E-02 2.46094E-02 0.00000E+00
 -1       716 1.77083E-02 1.87500E-02 0.00000E+00
 -1       717 1.87500E-02 1.87500E-02 0.00000E+00
 -1       718 1.97917E-02 1.87500E-02 0.00000E+00
 -1       719 2.08333E-02 1.87500E-02 0.00000E+00
 -1       720 2.18750E-02 1.87500E-02 0.00000E+00
 -1       721 2.29167E-02 1.87500E-02 0.00000E+00
 -1       722 2.39583E-02 1.87500E-02 0.00000E+00
 -1       723 2.50000E-02 1.87500E-02 0.00000E+00
 -1       724 2.60417E-02 1.87500E-02 0.00000E+00
 -1       725 2.70833E-02 1.87500E-02 0.00000E+00
 -1       726 2.81250E-02 1.87500E-02 0.00000E+00
 -1       727 2.91667E-02 1.87500E-02 0.00000E+00
 -1       728 3.02083E-02 1.87500E-02 0.00000E+00
 -1       729 3.12500E-02 1.87500E-02 0.00000E+00
 -1       730 3.22917E-02 1.87500E-02 0.00000E+00
 -1       731 1.66667E-02 1.97917E-02 0.00000E+00
 -1       732 1.66667E-02 2.08333E-02 0.00000E+00
 -1       733 1.66667E-02 2.18750E-02 0.00000E+00
 -1       734 1.66667E-02 2.29167E-02 0.00000E+00
 -1       735 1.66667E-02 2.39583E-02 0.00000E+00
 -1       736 1.77083E-02 1.91406E-02 0.00000E+00
 -1       737 1.87500E-02 1.95312E-02 0.00000E+00
 -1       738 1.97917E-02 1.99219E-02 0.00000E+00
 -1       739 2.08333E-02 2.03125E-02 0.00000E+00
 -1       740 2.18750E-02 2.07031E-02 0.00000E+00
 -1       741 2.29167E-02 2.10938E-02 0.00000E+00
 -1       742 2.39583E-02 2.14844E-02 0.00000E+00
 -1       743 2.50000E-02 2.18750E-02 0.00000E+00
 -1       744 2.60417E-02 2.22656E-02 0.00000E+00
 -1       745 2.70833E-02 2.26563E-02 0.00000E+00
 -1       746 2.81250E-02 2.30469E-02 0.00000E+00
 -1       747 2.91667E-02 2.34375E-02 0.00000E+00
 -1       748 3.02083E-02 2.38281E-02 0.00000E+00
 -1       749 3.12500E-02 2.42187E-02 0.00000E+00
 -1       750 3.22917E-02 2.46094E-02 0.00000E+00
 -1       751 3.43750E-02 1.87500E-02 0.00000E+00
 -1       752 3.54167E-02 1.87500E-02 0.00000E+00
 -1       753 3.64583E-02 1.87500E-02 0.00000E+00
 -1       754 3.75000E-02 1.87500E-02 0.00000E+00
 -1       755 3.85417E-02 1.87500E-02 0.00000E+00
 -1       756 3.95833E-02 1.87500E-02 0.00000E+00
 -1       757 4.06250E-02 1.87500E-02 0.00000E+00
 -1       758 4.16667E-02 1.87500E-02 0.00000E+00
 -1       759 4.27083E-02 1.87500E-02 0.00000E+00
 -1       760 4.37500E-02 1.87500E-02 0.00000E+00
 -1       761 4.47917E-02 1.87500E-02 0.00000E+00
 -1       762 4.58333E-02 1.87500E-02 0.00000E+00
 -1       763 4.68750E-02 1.87500E-02 0.00000E+00
 -1       764 4.79167E-02 1.87500E-02 0.00000E+00
 -1       765 4.89583E-02 1.87500E-02 0.00000E+00
 -1       766 3.33333E-02 1.97917E-02 0.00000E+00
 -1       767 3.33333E-02 2.08333E-02 0.00000E+00
 -1       768 3.33333E-02 2.18750E-02 0.00000E+00
 -1       769 3.33333E-02 2.29167E-02 0.00000E+00
 -1       770 3.33333E-02 2.39583E-02 0.00000E+00
 -1       771 3.43750E-02 1.91406E-02 0.00000E+00
 -1       772 3.54167E-02 1.95312E-02 0.00000E+00
 -1       773 3.64583E-02 1.99219E-02 0.00000E+00
 -1       774 3.75000E-02 2.03125E-02 0.00000E+00
 -1       775 3.85417E-02 2.07031E-02 0.00000E+00
 -1       776 3.95833E-02 2.10938E-02 0.00000E+00
 -1       777 4.06250E-02 2.14844E-02 0.00000E+00
 -1       778 4.16667E-02 2.18750E-02 0.00000E+00
 -1       779 4.27083E-02 2.22656E-02 0.00000E+00
 -1       780 4.37500E-02 2.26563E-02 0.00000E+00
 -1       781 4.47917E-02 2.30469E-02 0.00000E+00
 -1       782 4.58333E-02 2.34375E-02 0.00000E+00
 -1       783 4.68750E-02 2.38281E-02 0.00000E+00
 -1       784 4.79167E-02 2.42187E-02 0.00000E+00
 -1       785 4.89583E-02 2.46094E-02 0.00000E+00
 -1       786 5.10417E-02 1.87500E-02 0.00000E+00
 -1       787 5.20833E-02 1.87500E-02 0.00000E+00
 -1       788 5.31250E-02 1.87500E-02 0.00000E+00
 -1       789 5.41667E-02 1.87500E-02 0.00000E+00
 -1       790 5.52083E-02 1.87500E-02 0.00000E+00
 -1       791 5.62500E-02 1.87500E-02 0.00000E+00
 -1       792 5.72917E-02 1.87500E-02 0.00000E+00
 -1       793 5.83333E-02 1.87500E-02 0.00000E+00
 -1       794 5.93750E-02 1.87500E-02 0.00000E+00
 -1       795 6.04167E-02 1.87500E-02 0.00000E+00
 -1       796 6.14583E-02 1.87500E-02 0.00000E+00
 -1       797 6.25000E-02 1.87500E-02 0.00000E+00
 -1       798 6.35417E-02 1.87500E-02 0.00000E+00
 -1       799 6.45833E-02 1.87500E-02 0.00000E+00
 -1       800 6.56250E-02 1.87500E-02 0.00000E+00
 -1       801 5.00000E-02 1.97917E-02 0.00000E+00
 -1       802 5.00000E-02 2.08333E-02 0.00000E+00
 -1       803 5.00000E-02 2.18750E-02 0.00000E+00
 -1       804 5.00000E-02 2.29167E-02 0.00000E+00
 -1       805 5.00000E-02 2.39583E-02 0.00000E+00
 -1       806 5.10417E-02 1.91406E-02 0.00000E+00
 -1       807 5.20833E-02 1.95312E-02 0.00000E+00
 -1       808 5.31250E-02 1.99219E-02 0.00000E+00
 -1       809 5.41667E-02 2.03125E-02 0.00000E+00
 -1       810 5.52083E-02 2.07031E-02 0.00000E+00
 -1       811 5.62500E-02 2.10938E-02 0.00000E+00
 -1       812 5.72917E-02 2.14844E-02 0.00000E+00
 -1       813 5.83333E-02 2.18750E-02 0.00000E+00
 -1       814 5.93750E-02 2.22656E-02 0.00000E+00
 -1       815 6.04167E-02 2.26563E-02 0.00000E+00
 -1       816 6.14583E-02 2.30469E-02 0.00000E+00
 -1       817 6.25000E-02 2.34375E-02 0.00000E+00
 -1       818 6.35417E-02 2.38281E-02 0.00000E+00
 -1       819 6.45833E-02 2.42187E-02 0.00000E+00
 -1       820 6.56250E-02 2.46094E-02 0.00000E+00
 -1       821 6.77083E-02 1.87500E-02 0.00000E+00
 -1       822 6.87500E-02 1.87500E-02 0.00000E+00
 -1       823 6.97917E-02 1.87500E-02 0.00000E+00
 -1       824 7.08333E-02 1.87500E-02 0.00000E+00
 -1       825 7.18750E-02 1.87500E-02 0.00000E+00
 -1       826 7.29167E-02 1.87500E-02 0.00000E+00
 -1       827 7.39583E-02 1.87500E-02 0.00000E+00
 -1       828 7.50000E-02 1.87500E-02 0.00000E+00
 -1       829 7.60417E-02 1.87500E-02 0.00000E+00
 -1       830 7.70833E-02 1.87500E-02 0.00000E+00
 -1       831 7.81250E-02 1.87500E-02 0.00000E+00
 -1       832 7.91667E-02 1.87500E-02 0.00000E+00
 -1       833 8.02083E-02 1.87500E-02 0.00000E+00
 -1       834 8.12500E-02 1.87500E-02 0.00000E+00
 -1       835 8.22917E-02 1.87500E-02 0.00000E+00
 -1       836 6.66667E-02 1.97917E-02 0.00000E+00
 -1       837 6.66667E-02 2.08333E-02 0.00000E+00
 -1       838 6.66667E-02 2.18750E-02 0.00000E+00
 -1       839 6.66667E-02 2.29167E-02 0.00000E+00
 -1       840 6.66667E-02 2.39583E-02 0.00000E+00
 -1       841 6.77083E-02 1.91406E-02 0.00000E+00
 -1       842 6.87500E-02 1.95312E-02 0.00000E+00
 -1       843 6.97917E-02 1.99219E-02 0.00000E+00
 -1       844 7.08333E-02 2.03125E-02 0.00000E+00
 -1       845 7.18750E-02 2.07031E-02 0.00000E+00
 -1       846 7.29167E-02 2.10938E-02 0.00000E+00
 -1       847 7.39583E-02 2.14844E-02 0.00000E+00
 -1       848 7.50000E-02 2.18750E-02 0.00000E+00
 -1       849 7.60417E-02 2.22656E-02 0.00000E+00
 -1       850 7.70833E-02 2.26563E-02 0.00000E+00
 -1       851 7.81250E-02 2.30469E-02 0.00000E+00
 -1       852 7.91667E-02 2.34375E-02 0.00000E+00
 -1       853 8.02083E-02 2.38281E-02 0.00000E+00
 -1       854 8.12500E-02 2.42187E-02 0.00000E+00
 -1       855 8.22917E-02 2.46094E-02 0.00000E+00
 -1       856 8.43750E-02 1.87500E-02 0.00000E+00
 -1       857 8.54167E-02 1.87500E-02 0.00000E+00
 -1       858 8.64583E-02 1.87500E-02 0.00000E+00
 -1       859 8.75000E-02 1.87500E-02 0.00000E+00
 -1       860 8.85417E-02 1.87500E-02 0.00000E+00
 -1       861 8.95833E-02 1.87500E-02 0.00000E+00
 -1       862 9.06250E-02 1.87500E-02 0.00000E+00
 -1       863 9.16667E-02 1.87500E-02 0.00000E+00
 -1       864 9.27083E-02 1.87500E-02 0.00000E+00
 -1       865 9.37500E-02 1.87500E-02 0.00000E+00
 -1       866 9.47917E-02 1.87500E-02 0.00000E+00
 -1       867 9.58333E-02 1.87500E-02 0.00000E+00
 -1       868 9.68750E-02 1.87500E-02 0.00000E+00
 -1       869 9.79167E-02 1.87500E-02 0.00000E+00
 -1       870 9.89583E-02 1.87500E-02 0.00000E+00
 -1       871 8.33333E-02 1.97917E-02 0.00000E+00
 -1       872 8.33333E-02 2.08333E-02 0.00000E+00
 -1       873 8.33333E-02 2.18750E-02 0.00000E+00
 -1       874 8.33333E-02 2.29167E-02 0.00000E+00
 -1       875 8.33333E-02 2.39583E-02 0.00000E+00
 -1       876 8.43750E-02 1.91406E-02 0.00000E+00
 -1       877 8.54167E-02 1.95312E-02 0.00000E+00
 -1       878 8.64583E-02 1.99219E-02 0.00000E+00
 -1       879 8.75000E-02 2.03125E-02 0.00000E+00
 -1       880 8.85417E-02 2.07031E-02 0.00000E+00
 -1       881 8.95833E-02 2.10938E-02 0.00000E+00
 -1       882 9.06250E-02 2.14844E-02 0.00000E+00
 -1       883 9.16667E-02 2.18750E-02 0.00000E+00
 -1       884 9.27083E-02 2.22656E-02 0.00000E+00
 -1       885 9.37500E-02 2.26563E-02 0.00000E+00
 -1       886 9.47917E-02 2.30469E-02 0.00000E+00
 -1       887 9.58333E-02 2.34375E-02 0.00000E+00
 -1       888 9.68750E-02 2.38281E-02 0.00000E+00
 -1       889 9.79167E-02 2.42187E-02 0.00000E+00
 -1       890 9.89583E-02 2.46094E-02 0.00000E+00
 -1       891 1.00000E-01 1.97917E-02 0.00000E+00
 -1       892 1.00000E-01 2.08333E-02 0.00000E+00
 -1       893 1.00000E-01 2.18750E-02 0.00000E+00
 -1       894 1.00000E-01 2.29167E-02 0.00000E+00
 -1       895 1.00000E-01 2.39583E-02 0.00000E+00
 -1       896 1.04167E-03 2.50000E-02 0.00000E+00
 -1       897 2.08333E-03 2.50000E-02 0.00000E+00
 -1       898 3.12500E-03 2.50000E-02 0.00000E+00
 -1       899 4.16667E-03 2.50000E-02 0.00000E+00
 -1       900 5.20833E-03 2.50000E-02 0.00000E+00
 -1       901 6.25000E-03 2.50000E-02 0.00000E+00
 -1       902 7.29167E-03 2.50000E-02 0.00000E+00
 -1       903 8.33333E-03 2.50000E-02 0.00000E+00
 -1       904 9.37500E-03 2.50000E-02 0.00000E+00
 -1       905 1.04167E-02 2.50000E-02 0.00000E+00
 -1       906 1.14583E-02 2.50000E-02 0.00000E+00
 -1       907 1.25000E-02 2.50000E-02 0.00000E+00
 -1       908 1.35417E-02 2.50000E-02 0.00000E+00
 -1       909 1.45833E-02 2.50000E-02 0.00000E+00
 -1       910 1.56250E-02 2.50000E-02 0.00000E+00
 -1       911 1.77083E-02 2.50000E-02 0.00000E+00
 -1       912 1.87500E-02 2.50000E-02 0.00000E+00
 -1       913 1.97917E-02 2.50000E-02 0.00000E+00
 -1       914 2.08333E-02 2.50000E-02 0.00000E+00
 -1       915 2.18750E-02 2.50000E-02 0.00000E+00
 -1       916 2.29167E-02 2.50000E-02 0.00000E+00
 -1       917 2.39583E-02 2.50000E-02 0.00000E+00
 -1       918 2.50000E-02 2.50000E-02 0.00000E+00
 -1       919 2.60417E-02 2.50000E-02 0.00000E+00
 -1       920 2.70833E-02 2.50000E-02 0.00000E+00
 -1       921 2.81250E-02 2.50000E-02 0.00000E+00
 -1       922 2.91667E-02 2.50000E-02 0.00000E+00
 -1       923 3.02083E-02 2.50000E-02 0.00000E+00
 -1       924 3.12500E-02 2.50000E-02 0.00000E+00
 -1       925 3.22917E-02 2.50000E-02 0.00000E+00
 -1       926 3.43750E-02 2.50000E-02 0.00000E+00
 -1       927 3.54167E-02 2.50000E-02 0.00000E+00
 -1       928 3.64583E-02 2.50000E-02 0.00000E+00
 -1       929 3.75000E-02 2.50000E-02 0.00000E+00
 -1       930 3.85417E-02 2.50000E-02 0.00000E+00
 -1       931 3.95833E-02 2.50000E-02 0.00000E+00
 -1       932 4.06250E-02 2.50000E-02 0.00000E+00
 -1       933 4.16667E-02 2.50000E-02 0.00000E+00
 -1       934 4.27083E-02 2.50000E-02 0.00000E+00
 -1       935 4.37500E-02 2.50000E-02 0.00000E+00
 -1       936 4.47917E-02 2.50000E-02 0.00000E+00
 -1       937 4.58333E-02 2.50000E-02 0.00000E+00
 -1       938 4.68750E-02 2.50000E-02 0.00000E+00
 -1       939 4.79167E-02 2.50000E-02 0.00000E+00
 -1       940 4.89583E-02 2.50000E-02 0.00000E+00
 -1       941 5.10417E-02 2.50000E-02 0.00000E+00
 -1       942 5.20833E-02 2.50000E-02 0.00000E+00
 -1       943 5.31250E-02 2.50000E-02 0.00000E+00
 -1       944 5.41667E-02 2.50000E-02 0.00000E+00
 -1       945 5.52083E-02 2.50000E-02 0.00000E+00
 -1       946 5.62500E-02 2.50000E-02 0.00000E+00
 -1       947 5.72917E-02 2.50000E-02 0.00000E+00
 -1       948 5.83333E-02 2.50000E-02 0.00000E+00
 -1       949 5.93750E-02 2.50000E-02 0.00000E+00
 -1       950 6.04167E-02 2.50000E-02 0.00000E+00
 -1       951 6.14583E-02 2.50000E-02 0.00000E+00
 -1       952 6.25000E-02 2.50000E-02 0.00000E+00
 -1       953 6.35417E-02 2.50000E-02 0.00000E+00
 -1       954 6.45833E-02 2.50000E-02 0.00000E+00
 -1       955 6.56250E-02 2.50000E-02 0.00000E+00
 -1       956 6.77083E-02 2.50000E-02 0.00000E+00
 -1       957 6.87500E-02 2.50000E-02 0.00000E+00
 -1       958 6.97917E-02 2.50000E-02 0.00000E+00
 -1       959 7.08333E-02 2.50000E-02 0.00000E+00
 -1       960 7.18750E-02 2.50000E-02 0.00000E+00
 -1       961 7.29167E-02 2.50000E-02 0.00000E+00
 -1       962 7.39583E-02 2.50000E-02 0.00000E+00
 -1       963 7.50000E-02 2.50000E-02 0.00000E+00
 -1       964 7.60417E-02 2.50000E-02 0.00000E+00
 -1       965 7.70833E-02 2.50000E-02 0.00000E+00
 -1       966 7.81250E-02 2.50000E-02 0.00000E+00
 -1       967 7.91667E-02 2.50000E-02 0.00000E+00
 -1       968 8.02083E-02 2.50000E-02 0.00000E+00
 -1       969 8.12500E-02 2.50000E-02 0.00000E+00
 -1       970 8.22917E-02 2.50000E-02 0.00000E+00
 -1       971 8.43750E-02 2.50000E-02 0.00000E+00
 -1       972 8.54167E-02 2.50000E-02 0.00000E+00
 -1       973 8.64583E-02 2.50000E-02 0.00000E+00
 -1       974 8.75000E-02 2.50000E-02 0.00000E+00
 -1       975 8.85417E-02 2.50000E-02 0.00000E+00
 -1       976 8.95833E-02 2.50000E-02 0.00000E+00
 -1       977 9.06250E-02 2.50000E-02 0.00000E+00
 -1       978 9.16667E-02 2.50000E-02 0.00000E+00
 -1       979 9.27083E-02 2.50000E-02 0.00000E+00
 -1       980 9.37500E-02 2.50000E-02 0.00000E+00
 -1       981 9.47917E-02 2.50000E-02 0.00000E+00
 -1       982 9.58333E-02 2.50000E-02 0.00000E+00
 -1       983 9.68750E-02 2.50000E-02 0.00000E+00
 -1       984 9.79167E-02 2.50000E-02 0.00000E+00
 -1       985 9.89583E-02 2.50000E-02 0.00000E+00
 -3
    3C                           440                                     1
 -1         1   12    0    1
 -2         1        37        36
 -1         2   12    0    1
 -2        37        39        38
 -1         3   12    0    1
 -2        39        41        40
 -1         4   12    0    1
 -2        41        43        42
 -1         5   12    0    1
 -2        43        45        44
 -1         6   12    0    1
 -2        45        47        46
 -1         7   12    0    1
 -2        47        49        48
 -1         8   12    0    1
 -2        49         2        50
 -1         9   12    0    1
 -2         1        52        51
 -1        10   12    0    1
 -2        52        54        53
 -1        11   12    0    1
 -2        54         8        55
 -1        12   12    0    1
 -2         1        57        56
 -1        13   12    0    1
 -2        57        59        58
 -1        14   12    0    1
 -2        59        61        60
 -1        15   12    0    1
 -2        61        63        62
 -1        16   12    0    1
 -2        63        65        64
 -1        17   12    0    1
 -2        65        67        66
 -1        18   12    0    1
 -2        67        69        68
 -1        19   12    0    1
 -2        69         9        70
 -1        20   12    0    1
 -2         2        72        71
 -1        21   12    0    1
 -2        72        74        73
 -1        22   12    0    1
 -2        74        76        75
 -1        23   12    0    1
 -2        76        78        77
 -1        24   12    0    1
 -2        78        80        79
 -1        25   12    0    1
 -2        80        82        81
 -1        26   12    0    1
 -2        82        84        83
 -1        27   12    0    1
 -2        84         3        85
 -1        28   12    0    1
 -2         2        87        86
 -1        29   12    0    1
 -2        87        89        88
 -1        30   12    0    1
 -2        89         9        90
 -1        31   12    0    1
 -2         2        92        91
 -1        32   12    0    1
 -2        92        94        93
 -1        33   12    0    1
 -2        94        96        95
 -1        34   12    0    1
 -2        96        98        97
 -1        35   12    0    1
 -2        98       100        99
 -1        36   12    0    1
 -2       100       102       101
 -1        37   12    0    1
 -2       102       104       103
 -1        38   12    0    1
 -2       104        10       105
 -1        39   12    0    1
 -2         3       107       106
 -1        40   12    0    1
 -2       107       109       108
 -1        41   12    0    1
 -2       109       111       110
 -1        42   12    0    1
 -2       111       113       112
 -1        43   12    0    1
 -2       113       115       114
 -1        44   12    0    1
 -2       115       117       116
 -1        45   12    0    1
 -2       117       119       118
 -1        46   12    0    1
 -2       119         4       120
 -1        47   12    0    1
 -2         3       122       121
 -1        48   12    0    1
 -2       122       124       123
 -1        49   12    0    1
 -2       124        10       125
 -1        50   12    0    1
 -2         3       127       126
 -1        51   12    0    1
 -2       127       129       128
 -1        52   12    0    1
 -2       129       131       130
 -1        53   12    0    1
 -2       131       133       132
 -1        54   12    0    1
 -2       133       135       134
 -1        55   12    0    1
 -2       135       137       136
 -1        56   12    0    1
 -2       137       139       138
 -1        57   12    0    1
 -2       139        11       140
 -1        58   12    0    1
 -2         4       142       141
 -1        59   12    0    1
 -2       142       144       143
 -1        60   12    0    1
 -2       144       146       145
 -1        61   12    0    1
 -2       146       148       147
 -1        62   12    0    1
 -2       148       150       149
 -1        63   12    0    1
 -2       150       152       151
 -1        64   12    0    1
 -2       152       154       153
 -1        65   12    0    1
 -2       154         5       155
 -1        66   12    0    1
 -2         4       157       156
 -1        67   12    0    1
 -2       157       159       158
 -1        68   12    0    1
 -2       159        11       160
 -1        69   12    0    1
 -2         4       162       161
 -1        70   12    0    1
 -2       162       164       163
 -1        71   12    0    1
 -2       164       166       165
 -1        72   12    0    1
 -2       166       168       167
 -1        73   12    0    1
 -2       168       170       169
 -1        74   12    0    1
 -2       170       172       171
 -1        75   12    0    1
 -2       172       174       173
 -1        76   12    0    1
 -2       174        12       175
 -1        77   12    0    1
 -2         5       192       191
 -1        78   12    0    1
 -2       192       194       193
 -1        79   12    0    1
 -2       194        12       195
 -1        80   12    0    1
 -2         8       252       251
 -1        81   12    0    1
 -2       252       254       253
 -1        82   12    0    1
 -2       254       256       255
 -1        83   12    0    1
 -2       256       258       257
 -1        84   12    0    1
 -2       258       260       259
 -1        85   12    0    1
 -2       260       262       261
 -1        86   12    0    1
 -2       262       264       263
 -1        87   12    0    1
 -2       264         9       265
 -1        88   12    0    1
 -2         8       267       266
 -1        89   12    0    1
 -2       267       269       268
 -1        90   12    0    1
 -2       269        15       270
 -1        91   12    0    1
 -2         8       272       271
 -1        92   12    0    1
 -2       272       274       273
 -1        93   12    0    1
 -2       274       276       275
 -1        94   12    0    1
 -2       276       278       277
 -1        95   12    0    1
 -2       278       280       279
 -1        96   12    0    1
 -2       280       282       281
 -1        97   12    0    1
 -2       282       284       283
 -1        98   12    0    1
 -2       284        16       285
 -1        99   12    0    1
 -2         9       287       286
 -1       100   12    0    1
 -2       287       289       288
 -1       101   12    0    1
 -2       289       291       290
 -1       102   12    0    1
 -2       291       293       292
 -1       103   12    0    1
 -2       293       295       294
 -1       104   12    0    1
 -2       295       297       296
 -1       105   12    0    1
 -2       297       299       298
 -1       106   12    0    1
 -2       299        10       300
 -1       107   12    0    1
 -2         9       302       301
 -1       108   12    0    1
 -2       302       304       303
 -1       109   12    0    1
 -2       304        16       305
 -1       110   12    0    1
 -2         9       307       306
 -1       111   12    0    1
 -2       307       309       308
 -1       112   12    0    1
 -2       309       311       310
 -1       113   12    0    1
 -2       311       313       312
 -1       114   12    0    1
 -2       313       315       314
 -1       115   12    0    1
 -2       315       317       316
 -1       116   12    0    1
 -2       317       319       318
 -1       117   12    0    1
 -2       319        17       320
 -1       118   12    0    1
 -2        10       322       321
 -1       119   12    0    1
 -2       322       324       323
 -1       120   12    0    1
 -2       324       326       325
 -1       121   12    0    1
 -2       326       328       327
 -1       122   12    0    1
 -2       328       330       329
 -1       123   12    0    1
 -2       330       332       331
 -1       124   12    0    1
 -2       332       334       333
 -1       125   12    0    1
 -2       334        11       335
 -1       126   12    0    1
 -2        10       337       336
 -1       127   12    0    1
 -2       337       339       338
 -1       128   12    0    1
 -2       339        17       340
 -1       129   12    0    1
 -2        10       342       341
 -1       130   12    0    1
 -2       342       344       343
 -1       131   12    0    1
 -2       344       346       345
 -1       132   12    0    1
 -2       346       348       347
 -1       133   12    0    1
 -2       348       350       349
 -1       134   12    0    1
 -2       350       352       351
 -1       135   12    0    1
 -2       352       354       353
 -1       136   12    0    1
 -2       354        18       355
 -1       137   12    0    1
 -2        11       357       356
 -1       138   12    0    1
 -2       357       359       358
 -1       139   12    0    1
 -2       359       361       360
 -1       140   12    0    1
 -2       361       363       362
 -1       141   12    0    1
 -2       363       365       364
 -1       142   12    0    1
 -2       365       367       366
 -1       143   12    0    1
 -2       367       369       368
 -1       144   12    0    1
 -2       369        12       370
 -1       145   12    0    1
 -2        11       372       371
 -1       146   12    0    1
 -2       372       374       373
 -1       147   12    0    1
 -2       374        18       375
 -1       148   12    0    1
 -2        11       377       376
 -1       149   12    0    1
 -2       377       379       378
 -1       150   12    0    1
 -2       379       381       380
 -1       151   12    0    1
 -2       381       383       382
 -1       152   12    0    1
 -2       383       385       384
 -1       153   12    0    1
 -2       385       387       386
 -1       154   12    0    1
 -2       387       389       388
 -1       155   12    0    1
 -2       389        19       390
 -1       156   12    0    1
 -2        12       407       406
 -1       157   12    0    1
 -2       407       409       408
 -1       158   12    0    1
 -2       409        19       410
 -1       159   12    0    1
 -2        15       467       466
 -1       160   12    0    1
 -2       467       469       468
 -1       161   12    0    1
 -2       469       471       470
 -1       162   12    0    1
 -2       471       473       472
 -1       163   12    0    1
 -2       473       475       474
 -1       164   12    0    1
 -2       475       477       476
 -1       165   12    0    1
 -2       477       479       478
 -1       166   12    0    1
 -2       479        16       480
 -1       167   12    0    1
 -2        15       482       481
 -1       168   12    0    1
 -2       482       484       483
 -1       169   12    0    1
 -2       484        22       485
 -1       170   12    0    1
 -2        15       487       486
 -1       171   12    0    1
 -2       487       489       488
 -1       172   12    0    1
 -2       489       491       490
 -1       173   12    0    1
 -2       491       493       492
 -1       174   12    0    1
 -2       493       495       494
 -1       175   12    0    1
 -2       495       497       496
 -1       176   12    0    1
 -2       497       499       498
 -1       177   12    0    1
 -2       499        23       500
 -1       178   12    0    1
 -2        16       502       501
 -1       179   12    0    1
 -2       502       504       503
 -1       180   12    0    1
 -2       504       506       505
 -1       181   12    0    1
 -2       506       508       507
 -1       182   12    0    1
 -2       508       510       509
 -1       183   12    0    1
 -2       510       512       511
 -1       184   12    0    1
 -2       512       514       513
 -1       185   12    0    1
 -2       514        17       515
 -1       186   12    0    1
 -2        16       517       516
 -1       187   12    0    1
 -2       517       519       518
 -1       188   12    0    1
 -2       519        23       520
 -1       189   12    0    1
 -2        16       522       521
 -1       190   12    0    1
 -2       522       524       523
 -1       191   12    0    1
 -2       524       526       525
 -1       192   12    0    1
 -2       526       528       527
 -1       193   12    0    1
 -2       528       530       529
 -1       194   12    0    1
 -2       530       532       531
 -1       195   12    0    1
 -2       532       534       533
 -1       196   12    0    1
 -2       534        24       535
 -1       197   12    0    1
 -2        17       537       536
 -1       198   12    0    1
 -2       537       539       538
 -1       199   12    0    1
 -2       539       541       540
 -1       200   12    0    1
 -2       541       543       542
 -1       201   12    0    1
 -2       543       545       544
 -1       202   12    0    1
 -2       545       547       546
 -1       203   12    0    1
 -2       547       549       548
 -1       204   12    0    1
 -2       549        18       550
 -1       205   12    0    1
 -2        17       552       551
 -1       206   12    0    1
 -2       552       554       553
 -1       207   12    0    1
 -2       554        24       555
 -1       208   12    0    1
 -2        17       557       556
 -1       209   12    0    1
 -2       557       559       558
 -1       210   12    0    1
 -2       559       561       560
 -1       211   12    0    1
 -2       561       563       562
 -1       212   12    0    1
 -2       563       565       564
 -1       213   12    0    1
 -2       565       567       566
 -1       214   12    0    1
 -2       567       569       568
 -1       215   12    0    1
 -2       569        25       570
 -1       216   12    0    1
 -2        18       572       571
 -1       217   12    0    1
 -2       572       574       573
 -1       218   12    0    1
 -2       574       576       575
 -1       219   12    0    1
 -2       576       578       577
 -1       220   12    0    1
 -2       578       580       579
 -1       221   12    0    1
 -2       580       582       581
 -1       222   12    0    1
 -2       582       584       583
 -1       223   12    0    1
 -2       584        19       585
 -1       224   12    0    1
 -2        18       587       586
 -1       225   12    0    1
 -2       587       589       588
 -1       226   12    0    1
 -2       589        25       590
 -1       227   12    0    1
 -2        18       592       591
 -1       228   12    0    1
 -2       592       594       593
 -1       229   12    0    1
 -2       594       596       595
 -1       230   12    0    1
 -2       596       598       597
 -1       231   12    0    1
 -2       598       600       599
 -1       232   12    0    1
 -2       600       602       601
 -1       233   12    0    1
 -2       602       604       603
 -1       234   12    0    1
 -2       604        26       605
 -1       235   12    0    1
 -2        19       607       606
 -1       236   12    0    1
 -2       607       609       608
 -1       237   12    0    1
 -2       609       611       610
 -1       238   12    0    1
 -2       611       613       612
 -1       239   12    0    1
 -2       613       615       614
 -1       240   12    0    1
 -2       615       617       616
 -1       241   12    0    1
 -2       617       619       618
 -1       242   12    0    1
 -2       619        20       620
 -1       243   12    0    1
 -2        19       622       621
 -1       244   12    0    1
 -2       622       624       623
 -1       245   12    0    1
 -2       624        26       625
 -1       246   12    0    1
 -2        19       627       626
 -1       247   12    0    1
 -2       627       629       628
 -1       248   12    0    1
 -2       629       631       630
 -1       249   12    0    1
 -2       631       633       632
 -1       250   12    0    1
 -2       633       635       634
 -1       251   12    0    1
 -2       635       637       636
 -1       252   12    0    1
 -2       637       639       638
 -1       253   12    0    1
 -2       639        27       640
 -1       254   12    0    1
 -2        20       642       641
 -1       255   12    0    1
 -2       642       644       643
 -1       256   12    0    1
 -2       644       646       645
 -1       257   12    0    1
 -2       646       648       647
 -1       258   12    0    1
 -2       648       650       649
 -1       259   12    0    1
 -2       650       652       651
 -1       260   12    0    1
 -2       652       654       653
 -1       261   12    0    1
 -2       654        21       655
 -1       262   12    0    1
 -2        20       657       656
 -1       263   12    0    1
 -2       657       659       658
 -1       264   12    0    1
 -2       659        27       660
 -1       265   12    0    1
 -2        20       662       661
 -1       266   12    0    1
 -2       662       664       663
 -1       267   12    0    1
 -2       664       666       665
 -1       268   12    0    1
 -2       666       668       667
 -1       269   12    0    1
 -2       668       670       669
 -1       270   12    0    1
 -2       670       672       671
 -1       271   12    0    1
 -2       672       674       673
 -1       272   12    0    1
 -2       674        28       675
 -1       273   12    0    1
 -2        21       677       676
 -1       274   12    0    1
 -2       677       679       678
 -1       275   12    0    1
 -2       679        28       680
 -1       276   12    0    1
 -2        22       682       681
 -1       277   12    0    1
 -2       682       684       683
 -1       278   12    0    1
 -2       684       686       685
 -1       279   12    0    1
 -2       686       688       687
 -1       280   12    0    1
 -2       688       690       689
 -1       281   12    0    1
 -2       690       692       691
 -1       282   12    0    1
 -2       692       694       693
 -1       283   12    0    1
 -2       694        23       695
 -1       284   12    0    1
 -2        22       697       696
 -1       285   12    0    1
 -2       697       699       698
 -1       286   12    0    1
 -2       699        29       700
 -1       287   12    0    1
 -2        22       702       701
 -1       288   12    0    1
 -2       702       704       703
 -1       289   12    0    1
 -2       704       706       705
 -1       290   12    0    1
 -2       706       708       707
 -1       291   12    0    1
 -2       708       710       709
 -1       292   12    0    1
 -2       710       712       711
 -1       293   12    0    1
 -2       712       714       713
 -1       294   12    0    1
 -2       714        30       715
 -1       295   12    0    1
 -2        23       717       716
 -1       296   12    0    1
 -2       717       719       718
 -1       297   12    0    1
 -2       719       721       720
 -1       298   12    0    1
 -2       721       723       722
 -1       299   12    0    1
 -2       723       725       724
 -1       300   12    0    1
 -2       725       727       726
 -1       301   12    0    1
 -2       727       729       728
 -1       302   12    0    1
 -2       729        24       730
 -1       303   12    0    1
 -2        23       732       731
 -1       304   12    0    1
 -2       732       734       733
 -1       305   12    0    1
 -2       734        30       735
 -1       306   12    0    1
 -2        23       737       736
 -1       307   12    0    1
 -2       737       739       738
 -1       308   12    0    1
 -2       739       741       740
 -1       309   12    0    1
 -2       741       743       742
 -1       310   12    0    1
 -2       743       745       744
 -1       311   12    0    1
 -2       745       747       746
 -1       312   12    0    1
 -2       747       749       748
 -1       313   12    0    1
 -2       749        31       750
 -1       314   12    0    1
 -2        24       752       751
 -1       315   12    0    1
 -2       752       754       753
 -1       316   12    0    1
 -2       754       756       755
 -1       317   12    0    1
 -2       756       758       757
 -1       318   12    0    1
 -2       758       760       759
 -1       319   12    0    1
 -2       760       762       761
 -1       320   12    0    1
 -2       762       764       763
 -1       321   12    0    1
 -2       764        25       765
 -1       322   12    0    1
 -2        24       767       766
 -1       323   12    0    1
 -2       767       769       768
 -1       324   12    0    1
 -2       769        31       770
 -1       325   12    0    1
 -2        24       772       771
 -1       326   12    0    1
 -2       772       774       773
 -1       327   12    0    1
 -2       774       776       775
 -1       328   12    0    1
 -2       776       778       777
 -1       329   12    0    1
 -2       778       780       779
 -1       330   12    0    1
 -2       780       782       781
 -1       331   12    0    1
 -2       782       784       783
 -1       332   12    0    1
 -2       784        32       785
 -1       333   12    0    1
 -2        25       787       786
 -1       334   12    0    1
 -2       787       789       788
 -1       335   12    0    1
 -2       789       791       790
 -1       336   12    0    1
 -2       791       793       792
 -1       337   12    0    1
 -2       793       795       794
 -1       338   12    0    1
 -2       795       797       796
 -1       339   12    0    1
 -2       797       799       798
 -1       340   12    0    1
 -2       799        26       800
 -1       341   12    0    1
 -2        25       802       801
 -1       342   12    0    1
 -2       802       804       803
 -1       343   12    0    1
 -2       804        32       805
 -1       344   12    0    1
 -2        25       807       806
 -1       345   12    0    1
 -2       807       809       808
 -1       346   12    0    1
 -2       809       811       810
 -1       347   12    0    1
 -2       811       813       812
 -1       348   12    0    1
 -2       813       815       814
 -1       349   12    0    1
 -2       815       817       816
 -1       350   12    0    1
 -2       817       819       818
 -1       351   12    0    1
 -2       819        33       820
 -1       352   12    0    1
 -2        26       822       821
 -1       353   12    0    1
 -2       822       824       823
 -1       354   12    0    1
 -2       824       826       825
 -1       355   12    0    1
 -2       826       828       827
 -1       356   12    0    1
 -2       828       830       829
 -1       357   12    0    1
 -2       830       832       831
 -1       358   12    0    1
 -2       832       834       833
 -1       359   12    0    1
 -2       834        27       835
 -1       360   12    0    1
 -2        26       837       836
 -1       361   12    0    1
 -2       837       839       838
 -1       362   12    0    1
 -2       839        33       840
 -1       363   12    0    1
 -2        26       842       841
 -1       364   12    0    1
 -2       842       844       843
 -1       365   12    0    1
 -2       844       846       845
 -1       366   12    0    1
 -2       846       848       847
 -1       367   12    0    1
 -2       848       850       849
 -1       368   12    0    1
 -2       850       852       851
 -1       369   12    0    1
 -2       852       854       853
 -1       370   12    0    1
 -2       854        34       855
 -1       371   12    0    1
 -2        27       857       856
 -1       372   12    0    1
 -2       857       859       858
 -1       373   12    0    1
 -2       859       861       860
 -1       374   12    0    1
 -2       861       863       862
 -1       375   12    0    1
 -2       863       865       864
 -1       376   12    0    1
 -2       865       867       866
 -1       377   12    0    1
 -2       867       869       868
 -1       378   12    0    1
 -2       869        28       870
 -1       379   12    0    1
 -2        27       872       871
 -1       380   12    0    1
 -2       872       874       873
 -1       381   12    0    1
 -2       874        34       875
 -1       382   12    0    1
 -2        27       877       876
 -1       383   12    0    1
 -2       877       879       878
 -1       384   12    0    1
 -2       879       881       880
 -1       385   12    0    1
 -2       881       883       882
 -1       386   12    0    1
 -2       883       885       884
 -1       387   12    0    1
 -2       885       887       886
 -1       388   12    0    1
 -2       887       889       888
 -1       389   12    0    1
 -2       889        35       890
 -1       390   12    0    1
 -2        28       892       891
 -1       391   12    0    1
 -2       892       894       893
 -1       392   12    0    1
 -2       894        35       895
 -1       393   12    0    1
 -2        29       897       896
 -1       394   12    0    1
 -2       897       899       898
 -1       395   12    0    1
 -2       899       901       900
 -1       396   12    0    1
 -2       901       903       902
 -1       397   12    0    1
 -2       903       905       904
 -1       398   12    0    1
 -2       905       907       906
 -1       399   12    0    1
 -2       907       909       908
 -1       400   12    0    1
 -2       909        30       910
 -1       401   12    0    1
 -2        30       912       911
 -1       402   12    0    1
 -2       912       914       913
 -1       403   12    0    1
 -2       914       916       915
 -1       404   12    0    1
 -2       916       918       917
 -1       405   12    0    1
 -2       918       920       919
 -1       406   12    0    1
 -2       920       922       921
 -1       407   12    0    1
 -2       922       924       923
 -1       408   12    0    1
 -2       924        31       925
 -1       409   12    0    1
 -2        31       927       926
 -1       410   12    0    1
 -2       927       929       928
 -1       411   12    0    1
 -2       929       931       930
 -1       412   12    0    1
 -2       931       933       932
 -1       413   12    0    1
 -2       933       935       934
 -1       414   12    0    1
 -2       935       937       936
 -1       415   12    0    1
 -2       937       939       938
 -1       416   12    0    1
 -2       939        32       940
 -1       417   12    0    1
 -2        32       942       941
 -1       418   12    0    1
 -2       942       944       943
 -1       419   12    0    1
 -2       944       946       945
 -1       420   12    0    1
 -2       946       948       947
 -1       421   12    0    1
 -2       948       950       949
 -1       422   12    0    1
 -2       950       952       951
 -1       423   12    0    1
 -2       952       954       953
 -1       424   12    0    1
 -2       954        33       955
 -1       425   12    0    1
 -2        33       957       956
 -1       426   12    0    1
 -2       957       959       958
 -1       427   12    0    1
 -2       959       961       960
 -1       428   12    0    1
 -2       961       963       962
 -1       429   12    0    1
 -2       963       965       964
 -1       430   12    0    1
 -2       965       967       966
 -1       431   12    0    1
 -2       967       969       968
 -1       432   12    0    1
 -2       969        34       970
 -1       433   12    0    1
 -2        34       972       971
 -1       434   12    0    1
 -2       972       974       973
 -1       435   12    0    1
 -2       974       976       975
 -1       436   12    0    1
 -2       976       978       977
 -1       437   12    0    1
 -2       978       980       979
 -1       438   12    0    1
 -2       980       982       981
 -1       439   12    0    1
 -2       982       984       983
 -1       440   12    0    1
 -2       984        35       985
 -3
    1PSTEP                         1           1           1          
  100CL  101 2.50000E-01         841                     0    1           1
 -4  DISP        4    1
 -5  D1          1    2    1    0
 -5  D2          1    2    2    0
 -5  D3          1    2    3    0
 -5  ALL         1    2    0    0    1ALL
 -1         1 3.01875E-05 0.00000E+00 0.00000E+00
 -1         2 2.23752E-05 0.00000E+00 0.00000E+00
 -1         3 1.87338E-05 0.00000E+00 0.00000E+00
 -1         4 1.68130E-05 0.00000E+00 0.00000E+00
 -1         5 1.59932E-05 0.00000E+00 0.00000E+00
 -1         8 2.35765E-05-2.97999E-07 0.00000E+00
 -1         9 1.88980E-05 3.07625E-07 0.00000E+00
 -1        10 1.75822E-05-8.47975E-07 0.00000E+00
 -1        11 1.64125E-05-1.84740E-07 0.00000E+00
 -1        12 1.53270E-05 4.29662E-07 0.00000E+00
 -1        15 9.79887E-06-6.14260E-07 0.00000E+00
 -1        16 1.34499E-05 3.18004E-07 0.00000E+00
 -1        17 1.25664E-05-1.70408E-06 0.00000E+00
 -1        18 1.28530E-05-3.56581E-07 0.00000E+00
 -1        19 1.35754E-05 8.49970E-07 0.00000E+00
 -1        20 1.37938E-05 8.98358E-06 0.00000E+00
 -1        21 1.37888E-05 2.15381E-05 0.00000E+00
 -1        22 3.64343E-06-3.95496E-07 0.00000E+00
 -1        23 4.84968E-06 5.90314E-07 0.00000E+00
 -1        24 5.13208E-06-1.98031E-06 0.00000E+00
 -1        25 1.10674E-05-2.56344E-07 0.00000E+00
 -1        26 1.18221E-05 1.12528E-06 0.00000E+00
 -1        27 1.11186E-05 8.67069E-06 0.00000E+00
 -1        28 1.02942E-05 2.12422E-05 0.00000E+00
 -1        29 0.00000E+00 0.00000E+00 0.00000E+00
 -1        30 1.74553E-06 7.55112E-07 0.00000E+00
 -1        31 2.27189E-06-1.61065E-06 0.00000E+00
 -1        32 0.00000E+00 0.00000E+00 0.00000E+00
 -1        33 9.31724E-06 1.81384E-06 0.00000E+00
 -1        34 8.81409E-06 8.64385E-06 0.00000E+00
 -1        35 7.70567E-06 2.10856E-05 0.00000E+00
 -1        36 2.97148E-05-6.01443E-21 0.00000E+00
 -1        37 2.92266E-05 2.33087E-20-6.61744E-24
 -1        38 2.87393E-05 1.04483E-19-1.32349E-23
 -1        39 2.82491E-05 2.20849E-19 0.00000E+00
 -1        40 2.77588E-05 3.43952E-19 0.00000E+00
 -1        41 2.72680E-05 4.65127E-19 6.61744E-24
 -1        42 2.67770E-05 5.29870E-19 1.32349E-23
 -1        43 2.62860E-05 5.66922E-19 0.00000E+00
 -1        44 2.57949E-05 5.61111E-19 1.32349E-23
 -1        45 2.53040E-05 5.15237E-19-6.61744E-24
 -1        46 2.48130E-05 4.16137E-19-1.32349E-23
 -1        47 2.43224E-05 3.05242E-19 0.00000E+00
 -1        48 2.38319E-05 1.92111E-19 0.00000E+00
 -1        49 2.33434E-05 1.10750E-19-6.61744E-24
 -1        50 2.28542E-05 4.95270E-20 1.32349E-23
 -1        51 2.96923E-05-5.10897E-08 0.00000E+00
 -1        52 2.88671E-05-9.97011E-08 0.00000E+00
 -1        53 2.77758E-05-1.47854E-07 0.00000E+00
 -1        54 2.64854E-05-1.96233E-07 0.00000E+00
 -1        55 2.50631E-05-2.45503E-07-2.27475E-24
 -1        56 2.96012E-05-2.37190E-07 1.32349E-23
 -1        57 2.90027E-05-5.05785E-07 0.00000E+00
 -1        58 2.84088E-05-7.83495E-07-1.32349E-23
 -1        59 2.78097E-05-1.05798E-06 6.61744E-24
 -1        60 2.72034E-05-1.31390E-06 0.00000E+00
 -1        61 2.65844E-05-1.53767E-06-6.61744E-24
 -1        62 2.59483E-05-1.71614E-06-1.32349E-23
 -1        63 2.52904E-05-1.83701E-06 0.00000E+00
 -1        64 2.46069E-05-1.88927E-06 1.32349E-23
 -1        65 2.38939E-05-1.86283E-06 0.00000E+00
 -1        66 2.31484E-05-1.74953E-06-1.32349E-23
 -1        67 2.23683E-05-1.54216E-06-6.61744E-24
 -1        68 2.15512E-05-1.23613E-06-1.32349E-23
 -1        69 2.06994E-05-8.26746E-07-6.61744E-24
 -1        70 1.98077E-05-3.14746E-07 1.32349E-23
 -1        71 2.21469E-05-5.34317E-20 0.00000E+00
 -1        72 2.19189E-05-1.03954E-19 0.00000E+00
 -1        73 2.16909E-05-1.33495E-19 0.00000E+00
 -1        74 2.14630E-05-1.90535E-19 3.30872E-24
 -1        75 2.12350E-05-2.81943E-19 0.00000E+00
 -1        76 2.10071E-05-3.40707E-19 0.00000E+00
 -1        77 2.07792E-05-3.60361E-19-6.61744E-24
 -1        78 2.05513E-05-3.50180E-19 0.00000E+00
 -1        79 2.03234E-05-3.50386E-19 6.61744E-24
 -1        80 2.00955E-05-3.14881E-19 0.00000E+00
 -1        81 1.98677E-05-2.68472E-19-6.61744E-24
 -1        82 1.96399E-05-1.94459E-19 0.00000E+00
 -1        83 1.94122E-05-1.03899E-19-6.61744E-24
 -1        84 1.91851E-05-2.66563E-20-3.30872E-24
 -1        85 1.89578E-05-2.87652E-22-6.61744E-24
 -1        86 2.22488E-05 4.28250E-08 0.00000E+00
 -1        87 2.18746E-05 9.71451E-08-4.13590E-25
 -1        88 2.13035E-05 1.50584E-07 3.23117E-27
 -1        89 2.05863E-05 2.04836E-07 5.16988E-26
 -1        90 1.97691E-05 2.59553E-07 8.27181E-25
 -1        91 2.21180E-05-1.61747E-07-6.61744E-24
 -1        92 2.19014E-05-4.37184E-07 0.00000E+00
 -1        93 2.17165E-05-7.96874E-07 0.00000E+00
 -1        94 2.15517E-05-1.21127E-06-3.30872E-24
 -1        95 2.13929E-05-1.64167E-06 0.00000E+00
 -1        96 2.12255E-05-2.04928E-06 3.30872E-24
 -1        97 2.10365E-05-2.39943E-06-6.61744E-24
 -1        98 2.08133E-05-2.65815E-06-3.30872E-24
 -1        99 2.05485E-05-2.80576E-06 6.61744E-24
 -1       100 2.02351E-05-2.82384E-06 0.00000E+00
 -1       101 1.98740E-05-2.71480E-06 0.00000E+00
 -1       102 1.94668E-05-2.48241E-06-3.30872E-24
 -1       103 1.90222E-05-2.15029E-06 0.00000E+00
 -1       104 1.85505E-05-1.74279E-06 0.00000E+00
 -1       105 1.80639E-05-1.29705E-06 0.00000E+00
 -1       106 1.86123E-05-1.53393E-20 3.30872E-24
 -1       107 1.84919E-05-7.91984E-21 0.00000E+00
 -1       108 1.83715E-05-3.44426E-20 3.30872E-24
 -1       109 1.82513E-05-4.25120E-20 0.00000E+00
 -1       110 1.81311E-05-5.31242E-20 0.00000E+00
 -1       111 1.80109E-05-5.31533E-20-1.65436E-24
 -1       112 1.78907E-05-3.34422E-20 0.00000E+00
 -1       113 1.77706E-05-2.44383E-20-1.65436E-24
 -1       114 1.76504E-05-4.90650E-20 0.00000E+00
 -1       115 1.75303E-05-5.92928E-20 1.65436E-24
 -1       116 1.74102E-05-5.66517E-20-3.30872E-24
 -1       117 1.72901E-05-4.09138E-20 0.00000E+00
 -1       118 1.71701E-05-1.51210E-20 3.30872E-24
 -1       119 1.70504E-05 1.65591E-20-1.65436E-24
 -1       120 1.69307E-05 1.20015E-20-3.30872E-24
 -1       121 1.87278E-05-1.41449E-07-3.30872E-24
 -1       122 1.86827E-05-2.82636E-07 1.65436E-24
 -1       123 1.85720E-05-4.23844E-07 0.00000E+00
 -1       124 1.83693E-05-5.65077E-07 0.00000E+00
 -1       125 1.80480E-05-7.06329E-07 0.00000E+00
 -1       126 1.86069E-05-6.29039E-08 0.00000E+00
 -1       127 1.84906E-05-1.51917E-07-1.65436E-24
 -1       128 1.83813E-05-2.59916E-07 3.30872E-24
 -1       129 1.82765E-05-3.79347E-07 0.00000E+00
 -1       130 1.81727E-05-5.01726E-07-3.30872E-24
 -1       131 1.80669E-05-6.18498E-07 1.65436E-24
 -1       132 1.79561E-05-7.21835E-07-3.30872E-24
 -1       133 1.78373E-05-8.03961E-07 0.00000E+00
 -1       134 1.77082E-05-8.58616E-07-3.30872E-24
 -1       135 1.75666E-05-8.79686E-07 0.00000E+00
 -1       136 1.74110E-05-8.63609E-07-3.30872E-24
 -1       137 1.72403E-05-8.06993E-07-1.65436E-24
 -1       138 1.70543E-05-7.09643E-07 0.00000E+00
 -1       139 1.68534E-05-5.71411E-07 0.00000E+00
 -1       140 1.66383E-05-3.95625E-07 3.30872E-24
 -1       141 1.67604E-05-1.76489E-21 0.00000E+00
 -1       142 1.67086E-05 4.17556E-21 0.00000E+00
 -1       143 1.66567E-05 3.26953E-20 1.65436E-24
 -1       144 1.66050E-05 5.88878E-20 8.27181E-25
 -1       145 1.65533E-05 6.06575E-20-1.65436E-24
 -1       146 1.65016E-05 5.94531E-20 0.00000E+00
 -1       147 1.64499E-05 6.00958E-20 0.00000E+00
 -1       148 1.63982E-05 4.52836E-20 0.00000E+00
 -1       149 1.63465E-05 5.07361E-20 0.00000E+00
 -1       150 1.62949E-05 4.77233E-20 8.27181E-25
 -1       151 1.62432E-05 3.97508E-20 1.65436E-24
 -1       152 1.61918E-05 1.98790E-20 0.00000E+00
 -1       153 1.61404E-05 1.23565E-20 0.00000E+00
 -1       154 1.60899E-05 5.47705E-21-4.13590E-25
 -1       155 1.60391E-05-3.27982E-21 0.00000E+00
 -1       156 1.68176E-05-3.16557E-08 1.65436E-24
 -1       157 1.68290E-05-6.18125E-08 0.00000E+00
 -1       158 1.68207E-05-9.20838E-08 1.65436E-24
 -1       159 1.67657E-05-1.22425E-07-8.27181E-25
 -1       160 1.66383E-05-1.52638E-07 0.00000E+00
 -1       161 1.67414E-05-3.12003E-08 0.00000E+00
 -1       162 1.66724E-05-6.98355E-08 8.27181E-25
 -1       163 1.66049E-05-1.12224E-07 1.65436E-24
 -1       164 1.65373E-05-1.54752E-07 0.00000E+00
 -1       165 1.64684E-05-1.93708E-07-1.65436E-24
 -1       166 1.63968E-05-2.25404E-07-8.27181E-25
 -1       167 1.63213E-05-2.46581E-07 0.00000E+00
 -1       168 1.62406E-05-2.54009E-07 0.00000E+00
 -1       169 1.61537E-05-2.45011E-07-1.65436E-24
 -1       170 1.60598E-05-2.16944E-07 0.00000E+00
 -1       171 1.59580E-05-1.68010E-07 0.00000E+00
 -1       172 1.58479E-05-9.64017E-08-8.27181E-25
 -1       173 1.57291E-05-1.41018E-09 0.00000E+00
 -1       174 1.56023E-05 1.18061E-07-8.27181E-25
 -1       175 1.54662E-05 2.61129E-07 0.00000E+00
 -1       191 1.59697E-05 7.15271E-08 0.00000E+00
 -1       192 1.59099E-05 1.43200E-07-3.30872E-24
 -1       193 1.58146E-05 2.14903E-07 0.00000E+00
 -1       194 1.56849E-05 2.86596E-07-1.65436E-24
 -1       195 1.55219E-05 3.58233E-07 0.00000E+00
 -1       251 2.32904E-05 7.69455E-07-6.61744E-24
 -1       252 2.29976E-05 1.59454E-06-3.30872E-24
 -1       253 2.27053E-05 2.14998E-06 0.00000E+00
 -1       254 2.24119E-05 2.41174E-06 3.30872E-24
 -1       255 2.21185E-05 2.39866E-06-6.61744E-24
 -1       256 2.18248E-05 2.13290E-06 3.30872E-24
 -1       257 2.15309E-05 1.67349E-06 0.00000E+00
 -1       258 2.12370E-05 1.08182E-06-3.30872E-24
 -1       259 2.09430E-05 4.38557E-07 0.00000E+00
 -1       260 2.06491E-05-1.74969E-07 0.00000E+00
 -1       261 2.03553E-05-6.81786E-07 6.61744E-24
 -1       262 2.00618E-05-1.00622E-06 3.30872E-24
 -1       263 1.97684E-05-1.09921E-06-6.61744E-24
 -1       264 1.94764E-05-9.14494E-07 3.30872E-24
 -1       265 1.91838E-05-4.46319E-07-6.61744E-24
 -1       266 2.20047E-05-3.52385E-07 3.30872E-24
 -1       267 1.96917E-05-4.05148E-07-8.27181E-25
 -1       268 1.69753E-05-4.59029E-07 0.00000E+00
 -1       269 1.41943E-05-5.12204E-07 0.00000E+00
 -1       270 1.16889E-05-5.64777E-07 8.27181E-25
 -1       271 2.26632E-05 5.39991E-07-1.32349E-23
 -1       272 2.18344E-05 1.09849E-06 0.00000E+00
 -1       273 2.10964E-05 1.41714E-06 1.32349E-23
 -1       274 2.04329E-05 1.52910E-06 6.61744E-24
 -1       275 1.98331E-05 1.47074E-06-1.32349E-23
 -1       276 1.92829E-05 1.27852E-06 0.00000E+00
 -1       277 1.87687E-05 9.89830E-07 1.32349E-23
 -1       278 1.82765E-05 6.42554E-07 0.00000E+00
 -1       279 1.77919E-05 2.74904E-07 0.00000E+00
 -1       280 1.73006E-05-7.47637E-08 6.61744E-24
 -1       281 1.67884E-05-3.68248E-07 1.32349E-23
 -1       282 1.62414E-05-5.67580E-07 6.61744E-24
 -1       283 1.56453E-05-6.35483E-07 1.32349E-23
 -1       284 1.49888E-05-5.34559E-07 6.61744E-24
 -1       285 1.42555E-05-2.30334E-07-1.32349E-23
 -1       286 1.88142E-05 1.07004E-06-3.30872E-24
 -1       287 1.87321E-05 1.56695E-06 0.00000E+00
 -1       288 1.86500E-05 1.82148E-06 3.30872E-24
 -1       289 1.85682E-05 1.85757E-06 1.65436E-24
 -1       290 1.84865E-05 1.70835E-06 0.00000E+00
 -1       291 1.84047E-05 1.40757E-06-1.65436E-24
 -1       292 1.83229E-05 9.95357E-07 0.00000E+00
 -1       293 1.82411E-05 5.12194E-07-1.65436E-24
 -1       294 1.81593E-05 1.56275E-09 3.30872E-24
 -1       295 1.80774E-05-4.92965E-07 0.00000E+00
 -1       296 1.79956E-05-9.28508E-07 3.30872E-24
 -1       297 1.79137E-05-1.26237E-06-1.65436E-24
 -1       298 1.78318E-05-1.45612E-06 0.00000E+00
 -1       299 1.77495E-05-1.47183E-06 0.00000E+00
 -1       300 1.76672E-05-1.27903E-06 3.30872E-24
 -1       301 1.79889E-05 3.05794E-07 0.00000E+00
 -1       302 1.70759E-05 3.09296E-07 0.00000E+00
 -1       303 1.61622E-05 3.13751E-07 0.00000E+00
 -1       304 1.52511E-05 3.18091E-07-8.27181E-25
 -1       305 1.43459E-05 3.21220E-07 0.00000E+00
 -1       306 1.82435E-05 9.04502E-07-6.61744E-24
 -1       307 1.76828E-05 1.21688E-06 6.61744E-24
 -1       308 1.72136E-05 1.28652E-06 0.00000E+00
 -1       309 1.68193E-05 1.15125E-06 6.61744E-24
 -1       310 1.64866E-05 8.51040E-07-1.32349E-23
 -1       311 1.62004E-05 4.25944E-07 0.00000E+00
 -1       312 1.59457E-05-8.33243E-08-1.32349E-23
 -1       313 1.57071E-05-6.35791E-07 0.00000E+00
 -1       314 1.54693E-05-1.19026E-06 1.32349E-23
 -1       315 1.52168E-05-1.70553E-06-6.61744E-24
 -1       316 1.49344E-05-2.14062E-06 0.00000E+00
 -1       317 1.46071E-05-2.45476E-06 0.00000E+00
 -1       318 1.42195E-05-2.60784E-06-1.32349E-23
 -1       319 1.37588E-05-2.55975E-06 6.61744E-24
 -1       320 1.32080E-05-2.27268E-06 0.00000E+00
 -1       321 1.75057E-05-3.62126E-07-3.30872E-24
 -1       322 1.74323E-05-6.44169E-09 1.65436E-24
 -1       323 1.73588E-05 2.29725E-07-3.30872E-24
 -1       324 1.72859E-05 3.57382E-07 8.27181E-25
 -1       325 1.72130E-05 3.91604E-07 0.00000E+00
 -1       326 1.71402E-05 3.47746E-07 0.00000E+00
 -1       327 1.70675E-05 2.44086E-07 0.00000E+00
 -1       328 1.69947E-05 9.90846E-08 8.27181E-25
 -1       329 1.69220E-05-6.72483E-08-1.65436E-24
 -1       330 1.68492E-05-2.34844E-07 0.00000E+00
 -1       331 1.67765E-05-3.83582E-07 1.65436E-24
 -1       332 1.67038E-05-4.93398E-07 0.00000E+00
 -1       333 1.66310E-05-5.45690E-07-1.65436E-24
 -1       334 1.65583E-05-5.22022E-07-8.27181E-25
 -1       335 1.64855E-05-4.06811E-07 0.00000E+00
 -1       336 1.69443E-05-9.91520E-07 3.30872E-24
 -1       337 1.61735E-05-1.13479E-06 1.65436E-24
 -1       338 1.53100E-05-1.27808E-06 0.00000E+00
 -1       339 1.43941E-05-1.42095E-06 0.00000E+00
 -1       340 1.34661E-05-1.56387E-06 0.00000E+00
 -1       341 1.71358E-05-4.05429E-07 0.00000E+00
 -1       342 1.66983E-05 6.79693E-10 0.00000E+00
 -1       343 1.62823E-05 3.50583E-07-6.61744E-24
 -1       344 1.58944E-05 6.23057E-07 0.00000E+00
 -1       345 1.55392E-05 8.08664E-07 0.00000E+00
 -1       346 1.52198E-05 8.98536E-07-3.30872E-24
 -1       347 1.49344E-05 8.97561E-07 0.00000E+00
 -1       348 1.46809E-05 8.11530E-07 3.30872E-24
 -1       349 1.44525E-05 6.58665E-07 6.61744E-24
 -1       350 1.42421E-05 4.57887E-07-3.30872E-24
 -1       351 1.40402E-05 2.34578E-07-6.61744E-24
 -1       352 1.38375E-05 1.44979E-08 3.30872E-24
 -1       353 1.36241E-05-1.77145E-07 6.61744E-24
 -1       354 1.33926E-05-3.14565E-07-3.30872E-24
 -1       355 1.31339E-05-3.81359E-07-3.30872E-24
 -1       356 1.63436E-05 5.72792E-08 0.00000E+00
 -1       357 1.62751E-05 2.31640E-07 8.27181E-25
 -1       358 1.62066E-05 3.44995E-07-1.65436E-24
 -1       359 1.61382E-05 4.04159E-07 0.00000E+00
 -1       360 1.60698E-05 4.17865E-07-1.65436E-24
 -1       361 1.60014E-05 3.94973E-07 0.00000E+00
 -1       362 1.59330E-05 3.45630E-07-1.65436E-24
 -1       363 1.58646E-05 2.80063E-07 8.27181E-25
 -1       364 1.57962E-05 2.09065E-07-1.65436E-24
 -1       365 1.57279E-05 1.43449E-07 0.00000E+00
 -1       366 1.56595E-05 9.38370E-08 1.65436E-24
 -1       367 1.55914E-05 7.08040E-08 8.27181E-25
 -1       368 1.55234E-05 8.39903E-08 0.00000E+00
 -1       369 1.54563E-05 1.42934E-07 0.00000E+00
 -1       370 1.53890E-05 2.55566E-07-2.58494E-26
 -1       371 1.60013E-05-2.15544E-07-1.65436E-24
 -1       372 1.53322E-05-2.44405E-07 0.00000E+00
 -1       373 1.45440E-05-2.73458E-07 0.00000E+00
 -1       374 1.37757E-05-3.01799E-07-4.13590E-25
 -1       375 1.31658E-05-3.30125E-07 0.00000E+00
 -1       376 1.61866E-05 1.45556E-08 3.30872E-24
 -1       377 1.59787E-05 1.58940E-07 1.65436E-24
 -1       378 1.57896E-05 2.53666E-07 3.30872E-24
 -1       379 1.56170E-05 3.03113E-07-1.65436E-24
 -1       380 1.54583E-05 3.15602E-07 3.30872E-24
 -1       381 1.53102E-05 2.99471E-07 0.00000E+00
 -1       382 1.51688E-05 2.65411E-07 0.00000E+00
 -1       383 1.50301E-05 2.24187E-07 0.00000E+00
 -1       384 1.48898E-05 1.87218E-07 3.30872E-24
 -1       385 1.47437E-05 1.65917E-07 0.00000E+00
 -1       386 1.45880E-05 1.70188E-07 0.00000E+00
 -1       387 1.44193E-05 2.09879E-07 0.00000E+00
 -1       388 1.42347E-05 2.92036E-07-3.30872E-24
 -1       389 1.40328E-05 4.24034E-07 0.00000E+00
 -1       390 1.38109E-05 6.08172E-07 0.00000E+00
 -1       406 1.50885E-05 5.00069E-07 0.00000E+00
 -1       407 1.48234E-05 5.70592E-07 0.00000E+00
 -1       408 1.45354E-05 6.41092E-07-3.30872E-24
 -1       409 1.42287E-05 7.11421E-07 1.65436E-24
 -1       410 1.39073E-05 7.81373E-07 0.00000E+00
 -1       466 1.00176E-05 6.95847E-07 0.00000E+00
 -1       467 1.02465E-05 1.50309E-06-3.30872E-24
 -1       468 1.04751E-05 1.91595E-06 0.00000E+00
 -1       469 1.07056E-05 2.03912E-06-3.30872E-24
 -1       470 1.09361E-05 1.94106E-06-6.61744E-24
 -1       471 1.11670E-05 1.68812E-06-3.30872E-24
 -1       472 1.13978E-05 1.32727E-06 0.00000E+00
 -1       473 1.16287E-05 9.04436E-07 0.00000E+00
 -1       474 1.18596E-05 4.57758E-07 0.00000E+00
 -1       475 1.20904E-05 2.51705E-08-3.30872E-24
 -1       476 1.23211E-05-3.53626E-07 0.00000E+00
 -1       477 1.25513E-05-6.38434E-07 3.30872E-24
 -1       478 1.27815E-05-7.77272E-07-6.61744E-24
 -1       479 1.30088E-05-7.16766E-07 0.00000E+00
 -1       480 1.32369E-05-3.78657E-07 0.00000E+00
 -1       481 8.32633E-06-5.79819E-07 0.00000E+00
 -1       482 7.04291E-06-5.43279E-07-4.13590E-25
 -1       483 5.93990E-06-5.06654E-07 0.00000E+00
 -1       484 5.00894E-06-4.69606E-07-4.13590E-25
 -1       485 4.24503E-06-4.32374E-07 8.27181E-25
 -1       486 9.00612E-06 7.76454E-07 0.00000E+00
 -1       487 8.27151E-06 1.98315E-06 3.30872E-24
 -1       488 7.62610E-06 2.95474E-06-6.61744E-24
 -1       489 7.08721E-06 3.63770E-06 3.30872E-24
 -1       490 6.66089E-06 4.02096E-06 6.61744E-24
 -1       491 6.34998E-06 4.09575E-06 3.30872E-24
 -1       492 6.14147E-06 3.89740E-06 0.00000E+00
 -1       493 6.02102E-06 3.46394E-06 0.00000E+00
 -1       494 5.96189E-06 2.86675E-06-6.61744E-24
 -1       495 5.93674E-06 2.17894E-06 0.00000E+00
 -1       496 5.91336E-06 1.48647E-06 0.00000E+00
 -1       497 5.85980E-06 8.75439E-07 0.00000E+00
 -1       498 5.74788E-06 4.20262E-07 6.61744E-24
 -1       499 5.55174E-06 1.94404E-07 0.00000E+00
 -1       500 5.25412E-06 2.37459E-07 3.30872E-24
 -1       501 1.33908E-05 1.03564E-06 0.00000E+00
 -1       502 1.33354E-05 1.43077E-06 0.00000E+00
 -1       503 1.32799E-05 1.54139E-06 0.00000E+00
 -1       504 1.32251E-05 1.40612E-06 0.00000E+00
 -1       505 1.31703E-05 1.07056E-06 0.00000E+00
 -1       506 1.31155E-05 5.80741E-07 0.00000E+00
 -1       507 1.30607E-05-1.29456E-08 1.65436E-24
 -1       508 1.30059E-05-6.59886E-07 0.00000E+00
 -1       509 1.29510E-05-1.30795E-06 0.00000E+00
 -1       510 1.28963E-05-1.90499E-06 8.27181E-25
 -1       511 1.28415E-05-2.40035E-06 1.65436E-24
 -1       512 1.27868E-05-2.74355E-06 8.27181E-25
 -1       513 1.27321E-05-2.88842E-06 0.00000E+00
 -1       514 1.26773E-05-2.78925E-06 0.00000E+00
 -1       515 1.26224E-05-2.40720E-06 1.65436E-24
 -1       516 1.23254E-05 3.57936E-07-1.65436E-24
 -1       517 1.07362E-05 4.04861E-07 0.00000E+00
 -1       518 8.93811E-06 4.50943E-07-4.13590E-25
 -1       519 7.18648E-06 4.97854E-07 2.06795E-25
 -1       520 5.73794E-06 5.45517E-07 0.00000E+00
 -1       521 1.26900E-05 8.59382E-07 0.00000E+00
 -1       522 1.20188E-05 1.11778E-06-6.61744E-24
 -1       523 1.14381E-05 1.13644E-06 0.00000E+00
 -1       524 1.09306E-05 9.53179E-07 6.61744E-24
 -1       525 1.04833E-05 6.08623E-07-1.32349E-23
 -1       526 1.00807E-05 1.43486E-07-6.61744E-24
 -1       527 9.70763E-06-4.00702E-07 1.32349E-23
 -1       528 9.34843E-06-9.82102E-07-6.61744E-24
 -1       529 8.98741E-06-1.55864E-06-1.32349E-23
 -1       530 8.60889E-06-2.08827E-06 0.00000E+00
 -1       531 8.19723E-06-2.52923E-06 0.00000E+00
 -1       532 7.73724E-06-2.84013E-06 0.00000E+00
 -1       533 7.21354E-06-2.98043E-06 1.32349E-23
 -1       534 6.61318E-06-2.90979E-06 0.00000E+00
 -1       535 5.91902E-06-2.59061E-06 0.00000E+00
 -1       536 1.25796E-05-9.40714E-07 0.00000E+00
 -1       537 1.25970E-05-3.60754E-07 0.00000E+00
 -1       538 1.26145E-05 5.56590E-08-5.16988E-26
 -1       539 1.26326E-05 3.28505E-07 1.03398E-25
 -1       540 1.26508E-05 4.77703E-07 4.13590E-25
 -1       541 1.26692E-05 5.23161E-07-2.06795E-25
 -1       542 1.26876E-05 4.84769E-07 0.00000E+00
 -1       543 1.27060E-05 3.82404E-07-2.06795E-25
 -1       544 1.27244E-05 2.35931E-07 4.13590E-25
 -1       545 1.27428E-05 6.52041E-08-2.06795E-25
 -1       546 1.27613E-05-1.09921E-07-4.13590E-25
 -1       547 1.27797E-05-2.69591E-07 2.06795E-25
 -1       548 1.27981E-05-3.93953E-07 8.27181E-25
 -1       549 1.28165E-05-4.63149E-07-2.06795E-25
 -1       550 1.28349E-05-4.57298E-07 0.00000E+00
 -1       551 1.14550E-05-1.74986E-06 1.02105E-24
 -1       552 1.02203E-05-1.79429E-06-4.13590E-25
 -1       553 8.91592E-06-1.83866E-06 0.00000E+00
 -1       554 7.59675E-06-1.88347E-06-1.65436E-24
 -1       555 6.31749E-06-1.92934E-06-3.30872E-24
 -1       556 1.22374E-05-9.91948E-07 0.00000E+00
 -1       557 1.19707E-05-4.42079E-07 0.00000E+00
 -1       558 1.17593E-05-3.88127E-08 0.00000E+00
 -1       559 1.15967E-05 2.35042E-07 0.00000E+00
 -1       560 1.14763E-05 3.96708E-07 3.30872E-24
 -1       561 1.13914E-05 4.63553E-07 3.30872E-24
 -1       562 1.13356E-05 4.52955E-07 0.00000E+00
 -1       563 1.13023E-05 3.82311E-07 0.00000E+00
 -1       564 1.12850E-05 2.69022E-07 1.65436E-24
 -1       565 1.12772E-05 1.30492E-07-8.27181E-25
 -1       566 1.12724E-05-1.58706E-08 0.00000E+00
 -1       567 1.12640E-05-1.52656E-07 4.13590E-25
 -1       568 1.12455E-05-2.62458E-07 1.24077E-24
 -1       569 1.12106E-05-3.27889E-07-4.58827E-25
 -1       570 1.11529E-05-3.31575E-07 6.20385E-25
 -1       571 1.28963E-05-2.45959E-07-6.72084E-25
 -1       572 1.29410E-05-1.69040E-07 1.03398E-25
 -1       573 1.29861E-05-1.19894E-07 0.00000E+00
 -1       574 1.30314E-05-9.22826E-08 4.13590E-25
 -1       575 1.30767E-05-7.99450E-08-1.65436E-24
 -1       576 1.31221E-05-7.65791E-08-8.27181E-25
 -1       577 1.31675E-05-7.58803E-08 1.65436E-24
 -1       578 1.32129E-05-7.15393E-08 0.00000E+00
 -1       579 1.32583E-05-5.72458E-08-1.65436E-24
 -1       580 1.33037E-05-2.66900E-08-8.27181E-25
 -1       581 1.33491E-05 2.64373E-08 3.30872E-24
 -1       582 1.33945E-05 1.08440E-07-3.30872E-24
 -1       583 1.34399E-05 2.25615E-07-3.30872E-24
 -1       584 1.34852E-05 3.84201E-07 0.00000E+00
 -1       585 1.35305E-05 5.90405E-07 0.00000E+00
 -1       586 1.25940E-05-3.39554E-07 0.00000E+00
 -1       587 1.22977E-05-3.22360E-07 0.00000E+00
 -1       588 1.19803E-05-3.05179E-07 0.00000E+00
 -1       589 1.16584E-05-2.88168E-07 0.00000E+00
 -1       590 1.13486E-05-2.71546E-07 0.00000E+00
 -1       591 1.27777E-05-2.29139E-07 0.00000E+00
 -1       592 1.27087E-05-1.23934E-07 0.00000E+00
 -1       593 1.26462E-05-3.69394E-08 0.00000E+00
 -1       594 1.25889E-05 3.55733E-08 0.00000E+00
 -1       595 1.25356E-05 9.73290E-08 0.00000E+00
 -1       596 1.24849E-05 1.52032E-07-4.13590E-25
 -1       597 1.24354E-05 2.03381E-07-8.27181E-25
 -1       598 1.23858E-05 2.55073E-07 4.13590E-25
 -1       599 1.23347E-05 3.10806E-07 0.00000E+00
 -1       600 1.22807E-05 3.74276E-07 0.00000E+00
 -1       601 1.22224E-05 4.49178E-07 4.13590E-25
 -1       602 1.21585E-05 5.39215E-07-2.06795E-25
 -1       603 1.20876E-05 6.48088E-07-4.13590E-25
 -1       604 1.20085E-05 7.79521E-07 2.06795E-25
 -1       605 1.19199E-05 9.37242E-07 0.00000E+00
 -1       606 1.35906E-05 1.19339E-06 0.00000E+00
 -1       607 1.36047E-05 1.56863E-06 8.27181E-25
 -1       608 1.36185E-05 1.97382E-06 1.65436E-24
 -1       609 1.36322E-05 2.40685E-06 8.27181E-25
 -1       610 1.36457E-05 2.86558E-06 0.00000E+00
 -1       611 1.36593E-05 3.34782E-06-1.65436E-24
 -1       612 1.36728E-05 3.85140E-06 0.00000E+00
 -1       613 1.36863E-05 4.37414E-06 0.00000E+00
 -1       614 1.36998E-05 4.91384E-06 0.00000E+00
 -1       615 1.37133E-05 5.46834E-06 4.13590E-25
 -1       616 1.37267E-05 6.03544E-06 0.00000E+00
 -1       617 1.37402E-05 6.61296E-06 0.00000E+00
 -1       618 1.37537E-05 7.19871E-06 0.00000E+00
 -1       619 1.37671E-05 7.79052E-06 2.06795E-25
 -1       620 1.37805E-05 8.38621E-06 0.00000E+00
 -1       621 1.32500E-05 8.95952E-07 1.65436E-24
 -1       622 1.29329E-05 9.42229E-07 4.13590E-25
 -1       623 1.26279E-05 9.88530E-07-8.27181E-25
 -1       624 1.23386E-05 1.03472E-06 8.27181E-25
 -1       625 1.20688E-05 1.08064E-06-8.27181E-25
 -1       626 1.34716E-05 1.20884E-06 0.00000E+00
 -1       627 1.33548E-05 1.60089E-06 0.00000E+00
 -1       628 1.32264E-05 2.02311E-06 0.00000E+00
 -1       629 1.30879E-05 2.47206E-06-1.65436E-24
 -1       630 1.29407E-05 2.94429E-06 0.00000E+00
 -1       631 1.27860E-05 3.43630E-06 0.00000E+00
 -1       632 1.26252E-05 3.94457E-06-1.65436E-24
 -1       633 1.24596E-05 4.46560E-06 0.00000E+00
 -1       634 1.22906E-05 4.99586E-06 0.00000E+00
 -1       635 1.21194E-05 5.53183E-06 0.00000E+00
 -1       636 1.19473E-05 6.07002E-06 0.00000E+00
 -1       637 1.17757E-05 6.60689E-06 0.00000E+00
 -1       638 1.16059E-05 7.13892E-06 0.00000E+00
 -1       639 1.14391E-05 7.66261E-06 1.03398E-25
 -1       640 1.12765E-05 8.17440E-06-2.06795E-25
 -1       641 1.37943E-05 9.60447E-06 0.00000E+00
 -1       642 1.37943E-05 1.02913E-05 5.16988E-26
 -1       643 1.37942E-05 1.10346E-05 0.00000E+00
 -1       644 1.37941E-05 1.18249E-05-1.29247E-26
 -1       645 1.37939E-05 1.26529E-05-1.29247E-26
 -1       646 1.37937E-05 1.35089E-05 0.00000E+00
 -1       647 1.37934E-05 1.43836E-05 0.00000E+00
 -1       648 1.37932E-05 1.52676E-05-1.00974E-28
 -1       649 1.37929E-05 1.61513E-05 0.00000E+00
 -1       650 1.37927E-05 1.70254E-05 0.00000E+00
 -1       651 1.37924E-05 1.78804E-05-2.58494E-26
 -1       652 1.37921E-05 1.87068E-05 5.16988E-26
 -1       653 1.37918E-05 1.94952E-05 0.00000E+00
 -1       654 1.37913E-05 2.02362E-05 2.06795E-25
 -1       655 1.37908E-05 2.09203E-05 8.27181E-25
 -1       656 1.32546E-05 8.93318E-06-1.65436E-24
 -1       657 1.27863E-05 8.88019E-06 0.00000E+00
 -1       658 1.23637E-05 8.82732E-06 0.00000E+00
 -1       659 1.19618E-05 8.77441E-06 0.00000E+00
 -1       660 1.15551E-05 8.72139E-06 0.00000E+00
 -1       661 1.36208E-05 9.62233E-06 1.65436E-24
 -1       662 1.34305E-05 1.03135E-05 0.00000E+00
 -1       663 1.32235E-05 1.10488E-05 1.65436E-24
 -1       664 1.30030E-05 1.18209E-05 0.00000E+00
 -1       665 1.27716E-05 1.26222E-05 0.00000E+00
 -1       666 1.25321E-05 1.34454E-05 0.00000E+00
 -1       667 1.22872E-05 1.42829E-05 0.00000E+00
 -1       668 1.20397E-05 1.51274E-05-8.27181E-25
 -1       669 1.17923E-05 1.59714E-05-1.65436E-24
 -1       670 1.15479E-05 1.68076E-05-8.27181E-25
 -1       671 1.13092E-05 1.76285E-05 1.65436E-24
 -1       672 1.10789E-05 1.84267E-05-8.27181E-25
 -1       673 1.08599E-05 1.91949E-05 1.65436E-24
 -1       674 1.06545E-05 1.99252E-05 8.27181E-25
 -1       675 1.04661E-05 2.06106E-05 0.00000E+00
 -1       676 1.32049E-05 2.14887E-05 0.00000E+00
 -1       677 1.26215E-05 2.14390E-05 0.00000E+00
 -1       678 1.20387E-05 2.13893E-05 0.00000E+00
 -1       679 1.14565E-05 2.13399E-05 0.00000E+00
 -1       680 1.08750E-05 2.12903E-05-8.27181E-25
 -1       681 3.71704E-06 4.06773E-08 0.00000E+00
 -1       682 3.79281E-06 3.10936E-07 0.00000E+00
 -1       683 3.86847E-06 4.44328E-07 0.00000E+00
 -1       684 3.94454E-06 4.69467E-07-8.27181E-25
 -1       685 4.02061E-06 4.10617E-07 0.00000E+00
 -1       686 4.09676E-06 2.91776E-07 0.00000E+00
 -1       687 4.17292E-06 1.34532E-07 0.00000E+00
 -1       688 4.24907E-06-3.96457E-08-8.27181E-25
 -1       689 4.32523E-06-2.09978E-07 1.65436E-24
 -1       690 4.40135E-06-3.55665E-07-8.27181E-25
 -1       691 4.47746E-06-4.54918E-07 1.65436E-24
 -1       692 4.55338E-06-4.85805E-07-8.27181E-25
 -1       693 4.62927E-06-4.23643E-07 0.00000E+00
 -1       694 4.70422E-06-2.43456E-07 0.00000E+00
 -1       695 4.77944E-06 8.44703E-08 0.00000E+00
 -1       696 3.08296E-06-3.31323E-07 0.00000E+00
 -1       697 2.44665E-06-2.65453E-07-8.27181E-25
 -1       698 1.77731E-06-1.99701E-07-1.65436E-24
 -1       699 1.11768E-06-1.33456E-07 0.00000E+00
 -1       700 5.10839E-07-6.72192E-08 1.65436E-24
 -1       701 3.38804E-06 5.33721E-08 0.00000E+00
 -1       702 3.16063E-06 4.14632E-07-8.27181E-25
 -1       703 2.96464E-06 6.93073E-07 0.00000E+00
 -1       704 2.79774E-06 8.91631E-07 0.00000E+00
 -1       705 2.65801E-06 1.01775E-06-3.30872E-24
 -1       706 2.54253E-06 1.07879E-06-1.65436E-24
 -1       707 2.44748E-06 1.08533E-06 0.00000E+00
 -1       708 2.36882E-06 1.04809E-06-1.65436E-24
 -1       709 2.30177E-06 9.79898E-07 0.00000E+00
 -1       710 2.24151E-06 8.93662E-07 0.00000E+00
 -1       711 2.18286E-06 8.03160E-07-3.30872E-24
 -1       712 2.12078E-06 7.22230E-07 0.00000E+00
 -1       713 2.05013E-06 6.64177E-07 1.65436E-24
 -1       714 1.96669E-06 6.42566E-07-8.27181E-25
 -1       715 1.86508E-06 6.68528E-07 8.27181E-25
 -1       716 4.86536E-06 1.03919E-06-4.13590E-25
 -1       717 4.88371E-06 1.19755E-06 0.00000E+00
 -1       718 4.90191E-06 1.11204E-06 4.13590E-25
 -1       719 4.92057E-06 8.29130E-07 2.06795E-25
 -1       720 4.93919E-06 3.93325E-07 0.00000E+00
 -1       721 4.95786E-06-1.50966E-07 2.06795E-25
 -1       722 4.97650E-06-7.60403E-07 4.13590E-25
 -1       723 4.99513E-06-1.39171E-06-2.06795E-25
 -1       724 5.01377E-06-2.00182E-06 4.13590E-25
 -1       725 5.03239E-06-2.54764E-06 0.00000E+00
 -1       726 5.05103E-06-2.98545E-06 0.00000E+00
 -1       727 5.06944E-06-3.27145E-06-1.03398E-25
 -1       728 5.08784E-06-3.36035E-06-1.03398E-25
 -1       729 5.10485E-06-3.20670E-06 0.00000E+00
 -1       730 5.12223E-06-2.76270E-06 1.65436E-24
 -1       731 4.23471E-06 6.15134E-07 0.00000E+00
 -1       732 3.58718E-06 6.42910E-07 0.00000E+00
 -1       733 2.96054E-06 6.70511E-07 0.00000E+00
 -1       734 2.40830E-06 6.98672E-07 0.00000E+00
 -1       735 1.98504E-06 7.26932E-07 0.00000E+00
 -1       736 4.46236E-06 1.07269E-06-3.30872E-24
 -1       737 4.10442E-06 1.45918E-06 3.30872E-24
 -1       738 3.78812E-06 1.73595E-06 6.61744E-24
 -1       739 3.51776E-06 1.88712E-06 0.00000E+00
 -1       740 3.29503E-06 1.91132E-06 6.61744E-24
 -1       741 3.12001E-06 1.80767E-06 0.00000E+00
 -1       742 2.98798E-06 1.58934E-06 0.00000E+00
 -1       743 2.89365E-06 1.27030E-06 0.00000E+00
 -1       744 2.82770E-06 8.75539E-07 0.00000E+00
 -1       745 2.78057E-06 4.30622E-07 3.30872E-24
 -1       746 2.74065E-06-3.35024E-08 0.00000E+00
 -1       747 2.69644E-06-4.85650E-07 3.30872E-24
 -1       748 2.63660E-06-8.96057E-07 6.61744E-24
 -1       749 2.55103E-06-1.23489E-06 3.30872E-24
 -1       750 2.43023E-06-1.48081E-06-3.30872E-24
 -1       751 5.48112E-06-1.16707E-06 0.00000E+00
 -1       752 5.85207E-06-6.27009E-07 3.30872E-24
 -1       753 6.22174E-06-2.91953E-07 0.00000E+00
 -1       754 6.59556E-06-9.69504E-08 0.00000E+00
 -1       755 6.96953E-06-6.18057E-09 0.00000E+00
 -1       756 7.34432E-06 1.45624E-08-6.61744E-24
 -1       757 7.71920E-06-1.51259E-08 0.00000E+00
 -1       758 8.09423E-06-7.64287E-08 0.00000E+00
 -1       759 8.46927E-06-1.57129E-07-1.32349E-23
 -1       760 8.84422E-06-2.45311E-07 0.00000E+00
 -1       761 9.21910E-06-3.30621E-07 0.00000E+00
 -1       762 9.59340E-06-4.02657E-07 0.00000E+00
 -1       763 9.96760E-06-4.48254E-07 0.00000E+00
 -1       764 1.03388E-05-4.53833E-07 0.00000E+00
 -1       765 1.07110E-05-3.97488E-07 0.00000E+00
 -1       766 4.25857E-06-1.92577E-06 0.00000E+00
 -1       767 3.54531E-06-1.86210E-06 0.00000E+00
 -1       768 2.98982E-06-1.79895E-06-8.27181E-25
 -1       769 2.59010E-06-1.73493E-06-4.13590E-25
 -1       770 2.34952E-06-1.67048E-06-5.16988E-26
 -1       771 4.57692E-06-1.22063E-06 6.61744E-24
 -1       772 4.07082E-06-6.01975E-07 6.61744E-24
 -1       773 3.61246E-06-1.12444E-07 0.00000E+00
 -1       774 3.19766E-06 2.59984E-07 0.00000E+00
 -1       775 2.82218E-06 5.27344E-07 0.00000E+00
 -1       776 2.48154E-06 7.01715E-07 0.00000E+00
 -1       777 2.17123E-06 7.95192E-07 0.00000E+00
 -1       778 1.88672E-06 8.19888E-07 3.30872E-24
 -1       779 1.62347E-06 7.87927E-07-6.61744E-24
 -1       780 1.37692E-06 7.11449E-07-3.30872E-24
 -1       781 1.14254E-06 6.02602E-07 0.00000E+00
 -1       782 9.15803E-07 4.73554E-07 0.00000E+00
 -1       783 6.92204E-07 3.36473E-07 0.00000E+00
 -1       784 4.67449E-07 2.03590E-07-3.30872E-24
 -1       785 2.37285E-07 8.71396E-08 0.00000E+00
 -1       786 1.11118E-05-9.21710E-08 0.00000E+00
 -1       787 1.11589E-05 3.61324E-08 0.00000E+00
 -1       788 1.12059E-05 1.34037E-07-1.65436E-24
 -1       789 1.12533E-05 2.07022E-07-8.27181E-25
 -1       790 1.13008E-05 2.60555E-07 0.00000E+00
 -1       791 1.13484E-05 3.00093E-07 0.00000E+00
 -1       792 1.13959E-05 3.31089E-07 0.00000E+00
 -1       793 1.14435E-05 3.58991E-07-8.27181E-25
 -1       794 1.14912E-05 3.89247E-07 0.00000E+00
 -1       795 1.15388E-05 4.27303E-07 0.00000E+00
 -1       796 1.15863E-05 4.78612E-07 0.00000E+00
 -1       797 1.16339E-05 5.48631E-07 0.00000E+00
 -1       798 1.16814E-05 6.42826E-07 0.00000E+00
 -1       799 1.17287E-05 7.66671E-07 8.27181E-25
 -1       800 1.17761E-05 9.25662E-07 0.00000E+00
 -1       801 1.00732E-05-2.12338E-07 1.65436E-24
 -1       802 8.01439E-06-1.67319E-07 0.00000E+00
 -1       803 5.43389E-06-1.23573E-07 0.00000E+00
 -1       804 2.87556E-06-8.07439E-08 0.00000E+00
 -1       805 8.83246E-07-3.66171E-08 0.00000E+00
 -1       806 1.09538E-05-1.09743E-07-1.65436E-24
 -1       807 1.08440E-05 2.15808E-08-8.27181E-25
 -1       808 1.07384E-05 1.40636E-07 1.65436E-24
 -1       809 1.06361E-05 2.50184E-07 0.00000E+00
 -1       810 1.05363E-05 3.52966E-07 0.00000E+00
 -1       811 1.04379E-05 4.51704E-07-8.27181E-25
 -1       812 1.03401E-05 5.49113E-07 0.00000E+00
 -1       813 1.02417E-05 6.47905E-07 0.00000E+00
 -1       814 1.01418E-05 7.50793E-07-1.65436E-24
 -1       815 1.00393E-05 8.60488E-07 8.27181E-25
 -1       816 9.93327E-06 9.79700E-07 8.27181E-25
 -1       817 9.82269E-06 1.11115E-06 8.27181E-25
 -1       818 9.70655E-06 1.25754E-06 1.65436E-24
 -1       819 9.58398E-06 1.42161E-06 4.13590E-25
 -1       820 9.45417E-06 1.60608E-06 1.65436E-24
 -1       821 1.17808E-05 1.37927E-06 0.00000E+00
 -1       822 1.17369E-05 1.68993E-06-4.13590E-25
 -1       823 1.16931E-05 2.05141E-06 0.00000E+00
 -1       824 1.16488E-05 2.45778E-06 0.00000E+00
 -1       825 1.16044E-05 2.90315E-06 1.65436E-24
 -1       826 1.15600E-05 3.38157E-06 8.27181E-25
 -1       827 1.15155E-05 3.88708E-06 0.00000E+00
 -1       828 1.14711E-05 4.41374E-06 0.00000E+00
 -1       829 1.14266E-05 4.95556E-06-1.65436E-24
 -1       830 1.13821E-05 5.50656E-06 8.27181E-25
 -1       831 1.13376E-05 6.06078E-06 0.00000E+00
 -1       832 1.12932E-05 6.61222E-06 0.00000E+00
 -1       833 1.12488E-05 7.15490E-06 1.65436E-24
 -1       834 1.12048E-05 7.68285E-06 0.00000E+00
 -1       835 1.11607E-05 8.19010E-06 0.00000E+00
 -1       836 1.15110E-05 1.23785E-06-1.65436E-24
 -1       837 1.10814E-05 1.35443E-06 0.00000E+00
 -1       838 1.05903E-05 1.47077E-06 0.00000E+00
 -1       839 1.00945E-05 1.58685E-06-8.27181E-25
 -1       840 9.65120E-06 1.70317E-06 0.00000E+00
 -1       841 1.17178E-05 1.37588E-06 1.03398E-25
 -1       842 1.15892E-05 1.68810E-06 0.00000E+00
 -1       843 1.14398E-05 2.05570E-06-2.06795E-25
 -1       844 1.12720E-05 2.47188E-06 1.03398E-25
 -1       845 1.10885E-05 2.92973E-06 0.00000E+00
 -1       846 1.08920E-05 3.42220E-06 2.06795E-25
 -1       847 1.06852E-05 3.94207E-06 0.00000E+00
 -1       848 1.04708E-05 4.48211E-06 0.00000E+00
 -1       849 1.02515E-05 5.03495E-06 0.00000E+00
 -1       850 1.00303E-05 5.59322E-06 0.00000E+00
 -1       851 9.80976E-06 6.14953E-06 0.00000E+00
 -1       852 9.59275E-06 6.69645E-06 0.00000E+00
 -1       853 9.38201E-06 7.22664E-06 0.00000E+00
 -1       854 9.18022E-06 7.73274E-06-2.06795E-25
 -1       855 8.99019E-06 8.20760E-06 0.00000E+00
 -1       856 1.10697E-05 9.18748E-06-8.27181E-25
 -1       857 1.10183E-05 9.79712E-06 0.00000E+00
 -1       858 1.09670E-05 1.04875E-05-1.65436E-24
 -1       859 1.09152E-05 1.12465E-05 0.00000E+00
 -1       860 1.08633E-05 1.20618E-05-1.65436E-24
 -1       861 1.08114E-05 1.29213E-05 0.00000E+00
 -1       862 1.07594E-05 1.38126E-05 0.00000E+00
 -1       863 1.07073E-05 1.47235E-05 0.00000E+00
 -1       864 1.06553E-05 1.56417E-05 1.65436E-24
 -1       865 1.06033E-05 1.65549E-05 0.00000E+00
 -1       866 1.05512E-05 1.74508E-05-1.65436E-24
 -1       867 1.04993E-05 1.83172E-05 0.00000E+00
 -1       868 1.04474E-05 1.91417E-05-1.65436E-24
 -1       869 1.03958E-05 1.99122E-05 0.00000E+00
 -1       870 1.03442E-05 2.06164E-05 0.00000E+00
 -1       871 1.07004E-05 8.66687E-06 0.00000E+00
 -1       872 1.03085E-05 8.66267E-06 0.00000E+00
 -1       873 9.93371E-06 8.65837E-06-4.13590E-25
 -1       874 9.56615E-06 8.65393E-06 1.03398E-25
 -1       875 9.19615E-06 8.64930E-06-2.06795E-25
 -1       876 1.09935E-05 9.20418E-06 0.00000E+00
 -1       877 1.08412E-05 9.81821E-06 8.27181E-25
 -1       878 1.06627E-05 1.05015E-05 0.00000E+00
 -1       879 1.04625E-05 1.12440E-05-8.27181E-25
 -1       880 1.02440E-05 1.20355E-05 0.00000E+00
 -1       881 1.00109E-05 1.28658E-05-8.27181E-25
 -1       882 9.76710E-06 1.37248E-05 0.00000E+00
 -1       883 9.51627E-06 1.46024E-05-8.27181E-25
 -1       884 9.26220E-06 1.54887E-05-1.65436E-24
 -1       885 9.00867E-06 1.63735E-05 8.27181E-25
 -1       886 8.75945E-06 1.72467E-05 0.00000E+00
 -1       887 8.51826E-06 1.80984E-05-8.27181E-25
 -1       888 8.28891E-06 1.89184E-05-1.65436E-24
 -1       889 8.07476E-06 1.96964E-05 0.00000E+00
 -1       890 7.88020E-06 2.04226E-05-8.27181E-25
 -1       891 9.78798E-06 2.12163E-05-8.27181E-25
 -1       892 9.37895E-06 2.11899E-05 0.00000E+00
 -1       893 9.01667E-06 2.11637E-05 0.00000E+00
 -1       894 8.65068E-06 2.11374E-05 4.13590E-25
 -1       895 8.23047E-06 2.11112E-05-4.13590E-25
 -1       896 1.08459E-07 4.01328E-07 0.00000E+00
 -1       897 2.17852E-07 6.85694E-07 1.65436E-24
 -1       898 3.27212E-07 8.72937E-07-3.30872E-24
 -1       899 4.36752E-07 9.82451E-07 0.00000E+00
 -1       900 5.46301E-07 1.02911E-06 3.30872E-24
 -1       901 6.55884E-07 1.02750E-06 0.00000E+00
 -1       902 7.65470E-07 9.89403E-07-3.30872E-24
 -1       903 8.75054E-07 9.26437E-07 0.00000E+00
 -1       904 9.84633E-07 8.48766E-07 0.00000E+00
 -1       905 1.09419E-06 7.66492E-07-1.65436E-24
 -1       906 1.20372E-06 6.89448E-07 0.00000E+00
 -1       907 1.31312E-06 6.27489E-07 0.00000E+00
 -1       908 1.42251E-06 5.91350E-07 3.30872E-24
 -1       909 1.53122E-06 5.91882E-07 1.65436E-24
 -1       910 1.64015E-06 6.42067E-07 0.00000E+00
 -1       911 1.77835E-06 8.57452E-07 8.27181E-25
 -1       912 1.81164E-06 8.75344E-07 4.13590E-25
 -1       913 1.84491E-06 8.20863E-07-8.27181E-25
 -1       914 1.87826E-06 7.05985E-07 0.00000E+00
 -1       915 1.91160E-06 5.41626E-07-8.27181E-25
 -1       916 1.94496E-06 3.38639E-07 4.13590E-25
 -1       917 1.97830E-06 1.07201E-07 0.00000E+00
 -1       918 2.01165E-06-1.42557E-07 4.13590E-25
 -1       919 2.04498E-06-4.00817E-07 0.00000E+00
 -1       920 2.07828E-06-6.57772E-07 4.13590E-25
 -1       921 2.11157E-06-9.03602E-07 0.00000E+00
 -1       922 2.14473E-06-1.12846E-06-4.13590E-25
 -1       923 2.17786E-06-1.32214E-06-8.27181E-25
 -1       924 2.21029E-06-1.47439E-06 0.00000E+00
 -1       925 2.24297E-06-1.57425E-06-4.13590E-25
 -1       926 2.13360E-06-1.60268E-06 0.00000E+00
 -1       927 1.99197E-06-1.57043E-06 0.00000E+00
 -1       928 1.85055E-06-1.51454E-06 0.00000E+00
 -1       929 1.70849E-06-1.43578E-06 0.00000E+00
 -1       930 1.56641E-06-1.33659E-06 3.30872E-24
 -1       931 1.42420E-06-1.21952E-06-1.65436E-24
 -1       932 1.28198E-06-1.08841E-06 0.00000E+00
 -1       933 1.13972E-06-9.47215E-07 0.00000E+00
 -1       934 9.97456E-07-8.00580E-07 3.30872E-24
 -1       935 8.55178E-07-6.53201E-07 0.00000E+00
 -1       936 7.12895E-07-5.09827E-07 0.00000E+00
 -1       937 5.70579E-07-3.75184E-07-1.65436E-24
 -1       938 4.28257E-07-2.53361E-07-3.30872E-24
 -1       939 2.85765E-07-1.48378E-07 1.65436E-24
 -1       940 1.43334E-07-6.30305E-08-3.30872E-24
 -1       941 5.52335E-07 5.84262E-08 0.00000E+00
 -1       942 1.13507E-06 1.29548E-07 0.00000E+00
 -1       943 1.71591E-06 2.09781E-07-1.32349E-23
 -1       944 2.30251E-06 2.95767E-07-6.61744E-24
 -1       945 2.88928E-06 3.86096E-07 0.00000E+00
 -1       946 3.47720E-06 4.79469E-07-6.61744E-24
 -1       947 4.06526E-06 5.75619E-07-1.32349E-23
 -1       948 4.65350E-06 6.74345E-07 0.00000E+00
 -1       949 5.24177E-06 7.76327E-07 0.00000E+00
 -1       950 5.82989E-06 8.82323E-07-6.61744E-24
 -1       951 6.41790E-06 9.94456E-07 0.00000E+00
 -1       952 7.00500E-06 1.11500E-06-6.61744E-24
 -1       953 7.59194E-06 1.24909E-06 0.00000E+00
 -1       954 8.17422E-06 1.40219E-06-6.61744E-24
 -1       955 8.75804E-06 1.58621E-06 6.61744E-24
 -1       956 9.28638E-06 2.09490E-06-6.20385E-25
 -1       957 9.25505E-06 2.41268E-06 2.06795E-25
 -1       958 9.22360E-06 2.76372E-06 0.00000E+00
 -1       959 9.19210E-06 3.14428E-06-3.10193E-25
 -1       960 9.16056E-06 3.55063E-06-4.13590E-25
 -1       961 9.12901E-06 3.97899E-06 0.00000E+00
 -1       962 9.09745E-06 4.42560E-06 0.00000E+00
 -1       963 9.06588E-06 4.88668E-06 4.13590E-25
 -1       964 9.03430E-06 5.35847E-06 0.00000E+00
 -1       965 9.00273E-06 5.83717E-06-4.13590E-25
 -1       966 8.97115E-06 6.31903E-06 8.27181E-25
 -1       967 8.93958E-06 6.80027E-06 0.00000E+00
 -1       968 8.90803E-06 7.27711E-06 8.27181E-25
 -1       969 8.87653E-06 7.74581E-06 4.13590E-25
 -1       970 8.84512E-06 8.20260E-06 8.27181E-25
 -1       971 8.74686E-06 9.11966E-06 0.00000E+00
 -1       972 8.67762E-06 9.69314E-06 0.00000E+00
 -1       973 8.60837E-06 1.03521E-05 0.00000E+00
 -1       974 8.53876E-06 1.10844E-05 0.00000E+00
 -1       975 8.46907E-06 1.18776E-05-1.65436E-24
 -1       976 8.39929E-06 1.27195E-05 0.00000E+00
 -1       977 8.32946E-06 1.35976E-05 1.65436E-24
 -1       978 8.25960E-06 1.44996E-05 8.27181E-25
 -1       979 8.18973E-06 1.54130E-05 0.00000E+00
 -1       980 8.11988E-06 1.63255E-05 0.00000E+00
 -1       981 8.05006E-06 1.72246E-05 0.00000E+00
 -1       982 7.98033E-06 1.80978E-05 0.00000E+00
 -1       983 7.91069E-06 1.89329E-05-1.65436E-24
 -1       984 7.84148E-06 1.97174E-05 8.27181E-25
 -1       985 7.77227E-06 2.04391E-05 0.00000E+00
 -3
    1PSTEP                         2           1           1          
  100CL  101 2.50000E-01         841                     0    1           1
 -4  STRESS      6    1
 -5  SXX         1    4    1    1
 -5  SYY         1    4    2    2
 -5  SZZ         1    4    3    3
 -5  SXY         1    4    1    2
 -5  SYZ         1    4    2    3
 -5  SZX         1    4    3    1
 -1         1-1.01029E+06-3.22639E+05-2.05275E+05-2.89579E+05-9.58001E-11 8.87667E-10
 -1         2-6.43433E+05-2.92463E+04 9.33925E+02-6.45790E+04-1.32786E-10 5.40012E-10
 -1         3-3.30392E+05-1.19413E+05-5.53234E+03-2.77087E+04-4.60489E-10-7.22025E-10
 -1         4-1.62520E+05-3.36950E+04 2.42536E+02-1.66653E+04 1.81643E-10 7.10259E-10
 -1         5-7.87007E+04 5.83643E+04-4.30872E+04-3.20497E+03 1.75896E-09 3.89576E-10
 -1         8-5.43917E+05-2.19046E+05-8.28498E+04-2.12017E+05 1.12777E-10 7.18501E-10
 -1         9-5.84855E+05-1.28374E+05-7.42076E+04-1.36107E+05 4.82032E-11-1.92813E-10
 -1        10-2.98622E+05-1.74032E+05-9.09760E+03-7.64893E+04-8.18356E-10 3.41364E-10
 -1        11-1.69610E+05-5.21153E+04 1.82066E+02-3.90334E+04 6.20787E-10 1.93647E-10
 -1        12-1.02997E+05 4.73084E+04-4.94286E+04-1.76161E+04 2.13768E-09-3.90219E-10
 -1        15 5.70699E+03-2.49949E+04 1.05152E+03-5.11994E+04 4.32919E-10-2.08274E-10
 -1        16-3.22989E+05-6.20962E+04 4.41040E+03-1.48383E+05 5.21747E-10 6.90306E-10
 -1        17-2.03035E+05-1.40607E+05-2.34655E+04-1.12708E+05-4.28372E-10-3.34694E-10
 -1        18-9.67228E+04-5.20805E+04-3.68830E+04-6.01094E+04-4.44591E-10-2.80731E-10
 -1        19-2.02370E+04 2.88608E+04-2.06037E+04-1.87686E+04 2.33816E-10 1.04289E-10
 -1        20 3.73084E+04-2.70577E+04-4.32487E+03 1.96461E+04 4.57112E-09-2.08956E-10
 -1        21-6.94819E+02-5.59519E+04 1.24634E+04 2.66413E+02 5.22846E-09-9.72352E-10
 -1        22 1.04485E+04 6.08376E+04 3.92594E+02-1.45726E+04 1.70530E-11-8.09450E-11
 -1        23-1.23055E+05-4.10406E+02 1.24237E+03-5.97442E+04 3.56219E-10-1.39759E-10
 -1        24-7.38788E+04 7.62693E+03 7.97386E+04-1.47774E+05-1.32786E-09 1.81899E-10
 -1        25 1.83429E+05 6.64896E+04 5.90019E+04-9.55134E+04 4.90976E-10-4.63842E-10
 -1        26 1.33024E+03 6.52013E+04 3.67679E+03-1.30551E+04-2.45033E-10 9.07448E-10
 -1        27-1.58898E+04-2.35398E+04-1.01904E+04 2.56731E+04 3.13973E-09-9.58304E-10
 -1        28-4.90328E+03-4.30387E+04-2.65193E+02 2.05228E+04 1.87413E-09 1.33205E-10
 -1        29 1.50134E+05 1.02101E+05 4.19208E+02-1.79527E+03 9.98774E-11 6.47333E-10
 -1        30 5.05679E+04 1.47796E+04 6.27110E+02-1.48936E+04 4.51934E-11 2.77396E-10
 -1        31-1.77582E+05 1.44960E+04 1.43691E+03-3.77505E+04-2.69615E-10 8.58108E-10
 -1        32 2.31501E+05 1.42625E+05 1.68750E+05-1.43019E+05 1.84921E-09 1.25146E-09
 -1        33 4.07108E+05 1.86018E+05 1.30606E+05-1.85631E+04-3.92120E-09-3.81078E-10
 -1        34-7.59397E+04-1.17914E+04-4.54486E+03 1.23313E+04-5.00851E-10-1.90539E-10
 -1        35-1.16008E+04-1.42081E+04-2.63657E+02 3.02399E+04 4.75708E-09 9.79223E-10
 -1        36-1.38454E+06 4.13982E+04-9.69412E+04-2.51125E-08-1.35960E-10 9.02219E-10
 -1        37-1.42630E+06-4.79627E+04-6.84062E+04 2.47126E-08-3.23195E-10-2.70029E-09
 -1        38-1.40070E+06 6.41274E+03-2.50982E+04 4.07016E-08-9.69283E-10 1.71894E-10
 -1        39-1.40747E+06-7.42568E+03-1.57153E+04-1.04905E-08 2.42820E-10 1.52568E-09
 -1        40-1.40334E+06 9.91224E+02-6.44854E+03-1.47728E-08-7.64194E-10 1.61890E-10
 -1        41-1.40439E+06-1.16069E+03-3.83078E+03-4.74367E-08-5.24659E-10-5.22050E-10
 -1        42-1.40377E+06 1.66654E+02-1.87498E+03-2.16810E-08-7.41558E-10 8.74820E-11
 -1        43-1.40393E+06-2.90530E+02-1.46968E+03 4.63106E-08-8.57678E-10-2.36165E-09
 -1        44-1.40379E+06 1.23390E+02-1.46930E+03-7.26940E-09-5.66073E-10-2.04949E-10
 -1        45-1.40418E+06-7.84743E+02-2.66126E+03-2.28963E-08-9.47755E-10-2.94563E-10
 -1        46-1.40352E+06 6.59480E+02-4.33413E+03-5.18833E-08-1.32398E-10 3.05818E-10
 -1        47-1.40622E+06-4.92829E+03-1.04547E+04-7.44916E-08-1.46864E-09-1.65426E-09
 -1        48-1.40177E+06 4.25438E+03-1.66644E+04 5.48809E-08-4.99260E-10-1.37334E-09
 -1        49-1.41871E+06-3.18186E+04-4.53874E+04-2.96307E-08-1.03939E-09 4.48154E-09
 -1        50-1.39105E+06 2.74624E+04-6.43221E+04 4.43960E-08-1.30407E-09 1.12777E-09
 -1        51 1.19564E+04-1.33254E+05 1.94064E+04-3.56952E+05 7.27596E-12-1.79716E-09
 -1        52 4.80250E+03-1.30697E+05 1.15234E+04-3.94466E+05-1.09139E-11 2.36469E-11
 -1        53 2.57270E+03-1.33533E+05 8.99297E+03-3.56021E+05 5.45697E-11 8.40373E-10
 -1        54 6.29596E+03-1.31549E+05 1.32731E+04-3.95488E+05 4.72937E-11 1.16597E-09
 -1        55 1.59000E+04-1.35562E+05 2.38199E+04-3.55886E+05 5.45697E-11-6.25732E-10
 -1        56-1.51708E+06-1.71920E+05-1.23216E+05-5.86642E+05-6.25732E-10-5.38421E-10
 -1        57-1.57408E+06-2.73038E+05-8.26413E+04-5.73221E+05 9.45874E-10-1.54523E-09
 -1        58-1.54095E+06-2.10839E+05-2.90308E+04-5.80016E+05-5.55247E-10-1.84446E-09
 -1        59-1.54658E+06-2.27180E+05-1.72111E+04-5.81188E+05 2.32717E-10-1.75896E-09
 -1        60-1.54431E+06-2.16234E+05-6.79234E+03-5.79232E+05-2.36923E-10-1.28011E-10
 -1        61-1.54280E+06-2.20754E+05-3.84669E+03-5.82003E+05 4.75495E-11 1.71343E-09
 -1        62-1.54468E+06-2.17073E+05-1.88136E+03-5.79266E+05 1.85935E-10 8.62883E-11
 -1        63-1.54259E+06-2.19718E+05-1.58421E+03-5.81772E+05-5.40012E-13-1.58536E-09
 -1        64-1.54451E+06-2.17252E+05-1.85413E+03-5.79468E+05 2.91436E-10 2.50850E-09
 -1        65-1.54347E+06-2.20035E+05-3.76501E+03-5.81204E+05 3.63642E-10 6.91216E-11
 -1        66-1.54381E+06-2.16777E+05-6.63903E+03-5.79827E+05-5.08464E-10-1.27011E-09
 -1        67-1.54781E+06-2.25660E+05-1.68121E+04-5.79661E+05-5.75255E-10-1.28716E-09
 -1        68-1.54021E+06-2.11816E+05-2.83589E+04-5.80945E+05-1.03228E-10-1.63891E-09
 -1        69-1.57523E+06-2.69893E+05-8.07203E+04-5.71238E+05 6.34373E-10 2.10457E-09
 -1        70-1.51665E+06-1.74053E+05-1.20357E+05-5.87705E+05-5.82077E-10 2.76486E-10
 -1        71-6.52223E+05-9.72629E+02 2.27838E+03-5.09973E-09-2.50137E-10-1.54841E-10
 -1        72-6.51180E+05 1.12687E+03 1.60522E+03-3.35958E-08-8.04080E-10-3.24974E-10
 -1        73-6.51843E+05-1.50570E+02 5.84643E+02 7.16440E-09-5.34132E-10-3.28725E-10
 -1        74-6.51624E+05 1.73613E+02 3.57764E+02-3.06687E-08-1.24252E-10-7.29649E-10
 -1        75-6.51781E+05-2.25261E+01 1.29047E+02 4.76432E-08-1.19136E-10 1.51046E-09
 -1        76-6.51700E+05 2.13469E+01 4.18046E+01-7.73977E-08 4.20170E-12 1.96985E-09
 -1        77-6.51767E+05 1.24393E+00-4.66848E+01-7.33569E-08-7.03894E-10 7.34175E-10
 -1        78-6.51731E+05-3.24920E+01-1.64615E+02-5.34824E-08-4.96306E-11-1.60861E-09
 -1        79-6.51750E+05 3.11938E+01-3.27907E+02 4.51870E-09-7.55563E-11-1.14807E-09
 -1        80-6.51841E+05-2.38919E+02-7.68683E+02 1.84474E-08 1.68733E-10 5.10894E-10
 -1        81-6.51657E+05 2.07133E+02-1.33626E+03 2.11879E-08 1.64489E-10-3.95687E-10
 -1        82-6.52489E+05-1.55521E+03-3.28656E+03 6.29140E-08 3.43169E-10 1.36311E-10
 -1        83-6.51104E+05 1.34350E+03-5.25853E+03-5.39501E-08-1.30646E-11-5.32509E-10
 -1        84-6.56434E+05-1.00490E+04-1.43355E+04-4.17994E-08-4.61067E-10 2.67391E-10
 -1        85-6.47716E+05 8.67295E+03-2.03223E+04 2.42517E-08-6.72233E-10 6.63022E-10
 -1        86-3.21234E+04 1.47957E+05 7.65575E+04 6.15970E+02 4.32919E-10-3.97137E-10
 -1        87 4.01007E+04 1.81980E+05 5.91668E+04-2.79622E+03 7.19865E-10-1.06866E-11
 -1        88-7.84595E+03 1.59136E+05 3.03525E+04 4.71901E+02 8.25366E-10 7.39163E-10
 -1        89 2.76643E+04 1.76168E+05 4.28326E+04-2.57493E+03 1.25942E-09-3.82911E-09
 -1        90-1.97275E+04 1.53763E+05 4.83808E+04 3.94740E+02 1.04228E-09-1.03728E-09
 -1        91-7.01496E+05-9.43379E+04-1.05115E+04-2.64532E+05 1.22782E-11 3.02862E-09
 -1        92-7.05944E+05-1.04882E+05-7.27616E+03-2.63847E+05 6.35794E-11 1.29785E-09
 -1        93-7.03818E+05-9.78906E+04-2.46781E+03-2.63606E+05 1.43984E-10 1.30069E-09
 -1        94-7.03238E+05-1.00773E+05-1.54149E+03-2.64925E+05 5.99016E-10-1.11572E-09
 -1        95-7.04198E+05-9.84341E+04-5.90761E+02-2.63457E+05-1.79725E-10-1.38991E-09
 -1        96-7.02938E+05-1.00011E+05-3.74931E+02-2.64936E+05-1.62423E-10 8.29324E-10
 -1        97-7.04118E+05-9.86514E+04-2.21335E+02-2.63596E+05 3.00766E-10-2.50838E-10
 -1        98-7.03285E+05-9.95672E+04-2.83583E+02-2.64500E+05-2.79069E-10 1.46200E-09
 -1        99-7.03850E+05-9.88779E+04-4.24150E+02-2.63892E+05-6.35815E-10 6.46793E-10
 -1       100-7.04007E+05-9.93226E+04-9.97238E+02-2.63829E+05 2.61020E-10 6.61046E-10
 -1       101-7.03396E+05-9.88970E+04-1.71732E+03-2.64267E+05 1.92642E-10-2.23622E-10
 -1       102-7.05725E+05-1.00826E+05-4.59141E+03-2.62877E+05-2.67974E-10-1.94171E-09
 -1       103-7.02135E+05-9.73796E+04-7.38311E+03-2.64843E+05-6.91898E-10 9.55879E-10
 -1       104-7.13490E+05-1.13519E+05-2.18059E+04-2.60081E+05-5.88784E-10 1.21508E-09
 -1       105-6.95643E+05-8.62392E+04-3.14927E+04-2.67053E+05-1.59616E-09 1.20963E-09
 -1       106-3.45074E+05-2.96515E+03 6.94892E+03 4.73574E-09-5.18644E-10-1.31695E-09
 -1       107-3.42043E+05 3.43564E+03 4.90036E+03 4.92055E-08-1.96559E-10 7.85690E-10
 -1       108-3.43916E+05-4.59268E+02 1.79530E+03-5.77626E-08-1.61828E-10 7.05199E-10
 -1       109-3.43392E+05 5.31234E+02 1.11741E+03-8.97200E-08 2.28309E-10-1.43621E-09
 -1       110-3.43726E+05-7.03923E+01 4.44433E+02-2.05789E-08-1.07796E-10-4.27292E-10
 -1       111-3.43615E+05 7.83841E+01 2.35995E+02 1.40238E-09 8.81870E-12 4.24468E-10
 -1       112-3.43693E+05-7.79101E+00 6.15550E+01-3.33820E-08-4.57608E-11 8.67431E-11
 -1       113-3.43664E+05-1.07924E+01-5.47115E+01-3.59253E-08 1.32312E-10 4.97803E-10
 -1       114-3.43677E+05 1.85655E+01-1.86053E+02 1.29136E-08-3.36250E-10 8.20819E-11
 -1       115-3.43740E+05-1.50650E+02-4.77540E+02-6.92253E-08-1.58810E-10-2.11685E-09
 -1       116-3.43617E+05 1.31709E+02-8.45588E+02-4.57029E-08-1.35831E-10-3.17584E-10
 -1       117-3.44153E+05-9.90138E+02-2.09047E+03 1.90612E-08-3.31185E-10 1.78068E-09
 -1       118-3.43265E+05 8.55502E+02-3.34812E+03-4.14330E-08-4.52104E-10-7.93534E-11
 -1       119-3.46665E+05-6.39909E+03-9.12925E+03-4.61936E-08-2.29238E-10 4.54747E-11
 -1       120-3.41106E+05 5.52287E+03-1.29423E+04 1.85465E-08-1.30272E-10 4.08363E-10
 -1       121-4.22092E+02-4.03919E+05 1.80349E+03 3.67269E+03-1.17439E-10 1.03205E-09
 -1       122 6.19278E+02-4.03198E+05 1.38834E+03 1.61267E+04-1.30740E-11-3.42141E-10
 -1       123-1.04599E+02-4.03697E+05 9.82927E+02 3.70448E+03-5.55559E-10-6.80984E-10
 -1       124 7.46667E+02-4.03097E+05 1.62266E+03 1.60120E+04-3.06954E-10 1.18416E-09
 -1       125-5.46614E+02-4.03991E+05 2.23663E+03 3.78741E+03-1.40290E-09 1.67461E-09
 -1       126-3.29863E+05-4.78589E+04 3.94897E+03-1.22949E+05-3.29919E-10-7.88987E-10
 -1       127-3.27493E+05-4.45266E+04 2.73355E+03-1.23915E+05 4.58158E-11 7.90976E-11
 -1       128-3.29079E+05-4.64314E+04 9.23904E+02-1.23191E+05-4.87432E-12 1.12863E-09
 -1       129-3.28404E+05-4.61811E+04 5.71436E+02-1.23636E+05-2.38472E-10-3.56273E-10
 -1       130-3.28953E+05-4.62089E+04 2.06118E+02-1.23226E+05-3.60110E-10-2.77154E-09
 -1       131-3.28566E+05-4.64274E+04 1.04363E+02-1.23579E+05 3.50527E-10 7.91712E-10
 -1       132-3.28917E+05-4.61857E+04 1.28188E+01-1.23248E+05 4.11136E-11-1.26679E-10
 -1       133-3.28647E+05-4.64428E+04-6.00543E+01-1.23519E+05 1.18350E-10-1.28160E-09
 -1       134-3.28872E+05-4.61937E+04-1.48229E+02-1.23286E+05 1.27550E-10-1.20060E-09
 -1       135-3.28800E+05-4.65063E+04-3.93531E+02-1.23417E+05-1.46470E-10-1.63249E-09
 -1       136-3.28764E+05-4.61226E+04-6.91479E+02-1.23350E+05-2.07955E-10-9.30640E-10
 -1       137-3.29368E+05-4.72457E+04-1.86131E+03-1.23176E+05-1.91612E-10 1.70019E-10
 -1       138-3.28305E+05-4.54563E+04-2.99553E+03-1.23526E+05-3.97335E-11 1.45917E-09
 -1       139-3.32470E+05-5.24411E+04-8.84826E+03-1.22093E+05 7.25549E-10-3.42652E-10
 -1       140-3.25665E+05-4.09415E+04-1.27800E+04-1.24428E+05 2.47837E-11-5.26597E-10
 -1       141-1.48765E+05-1.87126E+03 4.38451E+03 8.91944E-09 1.51934E-10-1.70530E-10
 -1       142-1.46858E+05 2.16805E+03 3.09004E+03 1.06477E-08-1.47373E-10-8.36735E-10
 -1       143-1.48033E+05-2.89729E+02 1.12752E+03-3.92046E-09 6.46273E-11-7.53744E-10
 -1       144-1.47710E+05 3.34371E+02 6.93330E+02-2.43674E-08 1.29067E-11-6.08395E-10
 -1       145-1.47913E+05-4.36459E+01 2.57517E+02 2.50174E-08-5.20271E-11-1.09944E-09
 -1       146-1.47854E+05 4.34470E+01 9.98384E+01-1.35438E-08 2.87842E-11-1.44460E-09
 -1       147-1.47889E+05 3.23908E-01-5.34898E+01-3.43807E-08-1.04099E-11-5.45697E-12
 -1       148-1.47906E+05-4.67464E+01-2.37068E+02 3.17889E-08-1.51654E-11 1.27972E-09
 -1       149-1.47861E+05 4.63442E+01-4.85979E+02-4.50333E-08-1.33561E-10-1.40886E-10
 -1       150-1.48072E+05-3.56463E+02-1.14638E+03 1.74675E-08-8.70262E-11 4.31100E-10
 -1       151-1.47723E+05 3.09239E+02-1.99553E+03 2.63930E-08-6.89909E-11-3.19687E-10
 -1       152-1.49038E+05-2.32203E+03-4.90881E+03-1.46163E-08-9.02231E-11 2.87230E-10
 -1       153-1.46896E+05 2.00595E+03-7.85456E+03-5.62161E-09 5.39012E-10 1.54614E-10
 -1       154-1.54928E+05-1.50039E+04-2.14082E+04-2.26775E-08 1.17748E-11-6.91898E-10
 -1       155-1.41833E+05 1.29495E+04-3.03459E+04-3.90543E-08 1.12016E-09 1.49157E-10
 -1       156-4.34513E+03-8.71787E+04 1.05315E+04-3.21379E+02 0.00000E+00 5.50687E-10
 -1       157 5.81982E+03-8.23727E+04 8.84914E+03 1.41801E+03 2.75122E-11-7.24463E-10
 -1       158-1.45600E+03-8.58619E+04 5.63219E+03-3.14175E+02 1.92983E-11 8.59721E-11
 -1       159 6.75584E+03-8.19324E+04 1.00788E+04 1.38542E+03 1.47338E-10 7.93605E-11
 -1       160-5.27839E+03-8.76184E+04 1.26504E+04-2.88786E+02 1.39607E-10 7.70520E-10
 -1       161-1.83375E+05-2.53687E+04-1.00373E+03-6.88965E+04 4.26553E-10 2.48616E-09
 -1       162-1.83748E+05-2.64164E+04-6.96682E+02-6.88766E+04-1.84230E-10-5.98980E-10
 -1       163-1.83582E+05-2.57233E+04-2.40013E+02-6.88263E+04-1.90294E-10-7.54881E-11
 -1       164-1.83512E+05-2.60035E+04-1.57301E+02-6.89540E+04-3.41622E-10 1.30594E-10
 -1       165-1.83611E+05-2.57805E+04-7.62946E+01-6.88194E+04-3.57185E-10 4.92442E-10
 -1       166-1.83489E+05-2.59381E+04-8.16517E+01-6.89544E+04 5.83911E-12 4.83431E-11
 -1       167-1.83605E+05-2.57885E+04-1.08377E+02-6.88260E+04-6.53002E-11 9.78275E-11
 -1       168-1.83532E+05-2.59643E+04-2.35507E+02-6.89305E+04 1.96991E-10-8.48530E-10
 -1       169-1.83567E+05-2.57544E+04-4.22216E+02-6.88432E+04-2.38714E-10-3.94223E-10
 -1       170-1.83761E+05-2.62753E+04-1.05226E+03-6.88497E+04 2.51333E-10 3.31056E-10
 -1       171-1.83377E+05-2.54783E+04-1.82541E+03-6.89066E+04-1.64363E-10 1.07730E-09
 -1       172-1.85063E+05-2.84061E+04-4.89839E+03-6.84336E+04-2.15095E-10-2.18233E-09
 -1       173-1.82266E+05-2.36290E+04-7.87773E+03-6.92575E+04 6.86782E-10 6.91216E-11
 -1       174-1.93026E+05-4.22569E+04-2.32645E+04-6.58063E+04 1.94723E-09-4.22233E-10
 -1       175-1.75420E+05-1.16645E+04-3.35973E+04-7.15204E+04 3.68027E-09-3.12866E-10
 -1       191 7.00926E+02 2.05275E+05 1.14750E+03-6.03854E+03-3.72893E-11-1.44155E-09
 -1       192 2.56045E+02 2.05445E+05 6.87595E+02-6.50402E+03-3.80282E-10-1.22918E-09
 -1       193 1.18945E+02 2.05332E+05 5.54097E+02-5.94405E+03-5.26370E-11 1.82263E-09
 -1       194 3.37332E+02 2.05470E+05 8.38345E+02-6.67942E+03-7.08496E-10 2.19870E-10
 -1       195 9.54888E+02 2.05241E+05 1.52203E+03-5.86269E+03 7.00311E-11 1.09412E-09
 -1       251-8.31506E+05 1.85490E+04-4.34736E+04-1.34243E+03-1.73372E-11 9.84073E-10
 -1       252-8.50109E+05-2.14923E+04-3.06552E+04 7.97701E+02-1.03825E-10-5.45697E-11
 -1       253-8.38766E+05 2.87111E+03-1.12679E+04-3.64002E+02-3.95232E-10-5.38876E-10
 -1       254-8.41666E+05-3.32727E+03-7.04133E+03-1.16651E+03 2.82085E-12 7.18956E-10
 -1       255-8.39937E+05 4.42933E+02-2.91479E+03 6.21764E+02-1.07974E-10 7.28846E-10
 -1       256-8.40327E+05-5.22601E+02-1.74475E+03-2.84621E+03-1.34072E-10 1.15190E-09
 -1       257-8.40106E+05 7.76628E+01-9.06091E+02 1.31573E+03-2.43872E-10 2.28681E-10
 -1       258-8.40169E+05-1.55012E+02-7.97126E+02-3.72484E+03 7.26743E-11-7.05333E-10
 -1       259-8.40097E+05 7.88195E+01-9.11573E+02 1.50041E+03-5.86962E-10 1.00187E-10
 -1       260-8.40356E+05-5.28643E+02-1.77025E+03-3.52740E+03 1.08713E-11-6.03080E-10
 -1       261-8.39919E+05 4.49657E+02-2.94923E+03 1.11829E+03 3.59805E-10 1.68814E-09
 -1       262-8.41709E+05-3.37147E+03-7.13892E+03-2.31500E+03-1.24352E-10 2.68756E-10
 -1       263-8.38743E+05 2.91003E+03-1.14172E+04 2.87979E+02-5.68775E-10 9.27230E-10
 -1       264-8.50236E+05-2.17803E+04-3.10634E+04-4.58314E+02-1.17573E-09 2.60798E-09
 -1       265-8.31402E+05 1.87964E+04-4.40573E+04-7.38392E+02-1.32934E-09 1.12050E-09
 -1       266-7.77335E+03-1.46045E+05 1.77278E+04 4.22827E+03 2.54659E-11 1.21440E-09
 -1       267 8.36625E+03-1.38126E+05 1.13458E+04-1.76013E+04 4.91127E-11-7.95104E-10
 -1       268-5.28865E+02-1.42426E+05 2.01880E+03 4.47349E+03-1.27329E-11-3.42780E-10
 -1       269-3.68041E+03-1.43817E+05-4.48376E+03-1.76812E+04-1.63709E-11 1.18627E-09
 -1       270 4.23959E+03-1.40364E+05-9.53264E+03 4.30818E+03-1.31877E-11 2.26134E-09
 -1       271-1.34371E+06-1.67415E+05-1.04685E+05-5.19696E+05 8.00355E-11-1.57161E-09
 -1       272-1.37836E+06-2.41068E+05-6.65083E+04-5.22488E+05 8.07972E-10-1.05865E-09
 -1       273-1.36232E+06-1.92086E+05-2.47114E+04-5.16404E+05 4.76234E-10 3.12866E-10
 -1       274-1.35683E+06-2.09695E+05-1.36808E+04-5.27840E+05 4.87944E-10 1.63755E-09
 -1       275-1.36468E+06-1.94631E+05-5.75715E+03-5.15919E+05-4.46335E-10-1.40608E-09
 -1       276-1.35407E+06-2.06554E+05-3.07264E+03-5.28635E+05 2.18279E-10-7.81711E-10
 -1       277-1.36506E+06-1.94819E+05-1.57827E+03-5.15776E+05-4.80668E-10-1.10441E-09
 -1       278-1.35368E+06-2.06352E+05-1.26325E+03-5.28828E+05 3.21165E-12 3.05278E-09
 -1       279-1.36509E+06-1.94795E+05-1.52925E+03-5.15749E+05-9.78595E-11 7.56245E-10
 -1       280-1.35397E+06-2.06627E+05-2.93938E+03-5.28752E+05 2.32603E-10 4.42697E-10
 -1       281-1.36476E+06-1.94573E+05-5.48366E+03-5.15839E+05 4.59636E-10 4.16094E-10
 -1       282-1.35654E+06-2.09690E+05-1.30272E+04-5.28085E+05-5.22220E-10-2.13549E-09
 -1       283-1.36256E+06-1.92115E+05-2.35201E+04-5.16263E+05 2.11003E-10-5.89353E-10
 -1       284-1.37696E+06-2.39621E+05-6.33091E+04-5.23073E+05-3.11047E-10-2.54659E-11
 -1       285-1.34488E+06-1.68596E+05-9.96433E+04-5.19357E+05 4.12911E-10 5.89353E-10
 -1       286-2.35619E+05-4.11585E+03 9.63104E+03 7.40027E+01 9.33113E-10-1.96815E-09
 -1       287-2.31343E+05 4.76654E+03 6.81202E+03-1.33307E+03 4.20769E-10-2.61366E-10
 -1       288-2.34001E+05-6.38230E+02 2.49406E+03 3.14093E+02 7.76765E-11-9.17794E-10
 -1       289-2.33238E+05 7.38318E+02 1.57517E+03-1.75782E+03 9.70388E-11 3.47654E-10
 -1       290-2.33727E+05-9.92792E+01 6.50649E+02 4.98768E+02 4.18225E-11 1.36225E-09
 -1       291-2.33564E+05 1.18998E+02 4.07401E+02-2.05367E+03 4.14303E-10 1.71596E-09
 -1       292-2.33677E+05-1.92622E+01 2.31032E+02 6.09951E+02 4.14857E-10 2.38909E-10
 -1       293-2.33612E+05 4.94830E+01 2.44658E+02-2.19230E+03 2.14079E-10 6.08424E-10
 -1       294-2.33681E+05-2.91446E+01 3.24856E+02 6.37400E+02 6.09868E-10-3.23297E-11
 -1       295-2.33527E+05 2.05741E+02 6.74751E+02-2.16088E+03 4.49802E-10-6.56712E-10
 -1       296-2.33762E+05-1.75292E+02 1.13822E+03 5.78522E+02 3.05796E-10 8.59188E-10
 -1       297-2.32967E+05 1.31230E+03 2.78169E+03-1.96242E+03 3.14113E-10 5.45015E-10
 -1       298-2.34239E+05-1.13347E+03 4.43454E+03 4.38941E+02 2.43290E-10-2.77851E-10
 -1       299-2.29616E+05 8.47337E+03 1.20973E+04-1.61726E+03-7.70797E-11-6.14818E-10
 -1       300-2.37108E+05-7.31422E+03 1.71311E+04 2.33348E+02-1.54415E-10 1.92813E-10
 -1       301 1.84063E+04 1.50682E+04 3.93972E+04-1.13627E+04-1.16779E-09 1.17805E-09
 -1       302 6.18814E+03 2.23699E+04 2.36495E+04-1.32738E+04-1.05501E-10 9.36450E-10
 -1       303 1.72880E+03 1.76965E+04 1.82490E+04-1.13677E+04-1.09742E-09 3.24803E-10
 -1       304 7.20689E+03 2.29515E+04 2.63137E+04-1.32624E+04-1.75532E-10 2.12765E-10
 -1       305 2.17211E+04 1.44887E+04 4.58726E+04-1.13710E+04-1.10413E-09 1.34457E-09
 -1       306-9.63158E+05-1.22845E+05-6.69835E+04-3.72832E+05 6.70298E-10 5.05679E-10
 -1       307-9.80362E+05-1.74839E+05-4.25421E+04-3.80240E+05 4.63615E-10 1.77533E-09
 -1       308-9.75101E+05-1.38571E+05-1.58165E+04-3.70689E+05-4.24052E-11 9.82254E-10
 -1       309-9.66571E+05-1.54825E+05-8.75684E+03-3.83735E+05-1.28239E-10-1.26533E-10
 -1       310-9.76622E+05-1.40181E+05-3.69359E+03-3.70367E+05 6.23686E-10-4.72482E-10
 -1       311-9.64811E+05-1.52823E+05-1.98433E+03-3.84263E+05 1.94404E-10 1.25493E-09
 -1       312-9.76863E+05-1.40302E+05-1.04737E+03-3.70280E+05 5.11591E-12 1.59156E-09
 -1       313-9.64584E+05-1.52681E+05-8.90203E+02-3.84368E+05 2.02746E-10 1.28264E-09
 -1       314-9.76861E+05-1.40296E+05-1.14334E+03-3.70278E+05-5.45754E-10 3.10934E-10
 -1       315-9.64842E+05-1.52869E+05-2.25209E+03-3.84269E+05 6.54211E-10 9.66395E-10
 -1       316-9.76594E+05-1.40142E+05-4.23099E+03-3.70363E+05 8.87667E-10 1.78784E-09
 -1       317-9.66839E+05-1.55208E+05-1.00615E+04-3.83710E+05 2.78760E-10 6.23913E-10
 -1       318-9.74869E+05-1.38264E+05-1.81761E+04-3.70706E+05 3.30829E-10 6.26642E-10
 -1       319-9.82641E+05-1.78279E+05-4.89056E+04-3.79772E+05 4.05294E-11-2.30102E-10
 -1       320-9.61178E+05-1.20142E+05-7.69915E+04-3.73125E+05 2.68301E-10-9.38599E-10
 -1       321-2.11898E+05-8.28027E+03 1.94049E+04 1.84338E+01-5.61243E-10 6.37556E-10
 -1       322-2.03477E+05 9.59368E+03 1.36913E+04-6.35994E+02-9.54770E-10 1.55705E-09
 -1       323-2.08660E+05-1.28283E+03 5.02194E+03 1.21937E+02-1.10887E-10-3.26281E-10
 -1       324-2.07248E+05 1.48472E+03 3.14232E+03-8.22394E+02 7.53317E-11 6.84395E-10
 -1       325-2.08129E+05-1.97942E+02 1.27949E+03 2.04850E+02-5.39870E-11 6.64500E-11
 -1       326-2.07870E+05 2.29028E+02 7.42672E+02-9.58385E+02 1.02816E-10-9.45860E-10
 -1       327-2.08038E+05-3.06061E+01 3.27614E+02 2.57931E+02-1.57780E-10-3.30374E-10
 -1       328-2.07976E+05 3.73979E+01 1.89097E+02-1.03042E+03 8.26859E-11 2.24819E-09
 -1       329-2.08023E+05-6.59353E+00 1.02332E+02 2.76888E+02-1.24029E-10 9.08987E-10
 -1       330-2.07987E+05 2.06795E+01 9.24282E+01-1.03259E+03-2.07510E-10 5.28466E-13
 -1       331-2.08027E+05-1.39038E+01 1.05419E+02 2.60103E+02 3.43192E-12-5.43608E-10
 -1       332-2.07946E+05 1.00015E+02 2.20821E+02-9.64706E+02 1.07184E-10 1.22023E-09
 -1       333-2.08064E+05-8.58846E+01 3.39805E+02 2.08998E+02-1.04635E-10 3.88042E-10
 -1       334-2.07690E+05 6.41131E+02 9.18282E+02-8.32331E+02 2.59689E-10 6.98961E-10
 -1       335-2.08283E+05-5.53585E+02 1.29562E+03 1.27726E+02-4.30440E-10 2.52868E-09
 -1       336-3.65434E+02-4.09389E+05 8.30287E+02-5.28739E+03-2.23690E-09-5.76392E-10
 -1       337 2.64945E+01-4.09183E+05-1.22015E+03-2.40648E+04-1.49781E-09-1.48793E-09
 -1       338 3.96275E+02-4.08841E+05-3.83623E+03-5.21498E+03-2.67687E-09-1.94905E-09
 -1       339-5.32650E+03-4.12326E+05-1.04977E+04-2.41326E+04-1.79421E-09-5.10244E-09
 -1       340 4.09101E+03-4.06274E+05-1.65945E+04-5.22022E+03-2.52203E-09-2.64697E-09
 -1       341-6.21896E+05-7.85091E+04-2.42582E+04-2.37947E+05 6.24823E-10-4.64752E-10
 -1       342-6.35385E+05-9.97653E+04-1.67985E+04-2.32856E+05 6.99345E-10 2.25305E-09
 -1       343-6.26944E+05-8.70436E+04-5.69538E+03-2.36193E+05-3.87445E-10 8.18545E-12
 -1       344-6.29360E+05-9.00373E+04-3.55421E+03-2.35062E+05-6.87805E-12 1.12544E-09
 -1       345-6.27911E+05-8.82099E+04-1.35847E+03-2.35749E+05-3.09200E-10-5.79803E-11
 -1       346-6.28085E+05-8.88580E+04-8.50640E+02-2.35755E+05 8.79505E-11 5.54721E-10
 -1       347-6.28217E+05-8.82189E+04-4.83017E+02-2.35501E+05-2.15159E-10-6.09660E-10
 -1       348-6.27682E+05-8.90352E+04-5.92761E+02-2.36150E+05-4.19647E-10-1.72410E-10
 -1       349-6.28314E+05-8.80322E+04-8.55519E+02-2.35354E+05 8.64247E-10-2.28653E-10
 -1       350-6.27871E+05-8.98070E+04-2.00685E+03-2.36259E+05-1.63591E-09-3.19616E-09
 -1       351-6.28030E+05-8.74483E+04-3.43799E+03-2.35392E+05 3.97904E-11-1.14551E-09
 -1       352-6.30271E+05-9.38415E+04-9.19680E+03-2.35525E+05 9.85040E-10 2.45109E-09
 -1       353-6.25918E+05-8.40082E+04-1.47819E+04-2.36085E+05 1.66438E-10 1.43700E-10
 -1       354-6.45367E+05-1.19687E+05-4.36573E+04-2.30421E+05 3.38218E-09-2.77214E-09
 -1       355-6.12954E+05-6.16728E+04-6.30420E+04-2.40474E+05 1.63254E-09-1.62981E-09
 -1       356-1.96151E+05-1.01937E+03 2.38647E+03 2.71267E+01 6.43823E-11-8.10246E-10
 -1       357-1.95096E+05 1.18075E+03 1.68138E+03-3.84022E+02-2.96517E-10-5.86709E-10
 -1       358-1.95752E+05-1.57763E+02 6.09230E+02 7.79709E+01-1.40059E-10 3.44102E-10
 -1       359-1.95563E+05 1.81359E+02 3.68404E+02-4.72836E+02 1.11314E-10 9.51026E-10
 -1       360-1.95685E+05-2.31598E+01 1.21703E+02 1.15943E+02-1.65866E-10-1.29961E-09
 -1       361-1.95646E+05 1.88433E+01 1.52420E+01-5.32952E+02-3.21328E-10-2.13390E-10
 -1       362-1.95669E+05 4.37163E+00-1.02945E+02 1.38088E+02 2.72733E-11 3.87757E-10
 -1       363-1.95691E+05-5.73567E+01-2.90937E+02-5.59626E+02-8.84344E-11-1.00925E-09
 -1       364-1.95640E+05 5.29248E+01-5.59150E+02 1.42618E+02 9.12048E-11 1.32559E-10
 -1       365-1.95876E+05-4.03034E+02-1.29948E+03-5.50787E+02-2.43534E-10-5.93644E-10
 -1       366-1.95484E+05 3.49135E+02-2.25499E+03 1.29249E+02-1.81416E-10 7.96831E-10
 -1       367-1.96965E+05-2.62106E+03-5.54161E+03-5.06932E+02-1.48077E-11 1.56831E-09
 -1       368-1.94551E+05 2.26415E+03-8.86614E+03 9.87621E+01 4.88285E-10 2.16460E-09
 -1       369-2.03611E+05-1.69354E+04-2.41633E+04-4.29587E+02-1.18819E-10 1.33650E-09
 -1       370-1.88838E+05 1.46164E+04-3.42518E+04 5.19115E+01 1.32341E-09 5.71163E-10
 -1       371-5.26096E+03-8.35902E+04 1.20018E+04 1.68951E+03 4.35648E-10 8.75019E-10
 -1       372 5.42873E+03-7.85538E+04 7.24044E+03-7.32320E+03 9.82141E-10-9.21247E-10
 -1       373-1.45197E+02-8.11769E+04 5.62165E+02 1.73061E+03 8.34916E-10 4.78924E-11
 -1       374-4.15357E+03-8.29976E+04-5.33871E+03-7.30881E+03 7.45786E-10-4.60641E-10
 -1       375 4.28896E+03-7.91461E+04-9.70665E+03 1.67512E+03 6.75300E-10 1.15313E-09
 -1       376-3.35600E+05-4.19032E+04-1.37488E+04-1.28238E+05 8.07859E-10-6.44832E-10
 -1       377-3.42627E+05-5.45651E+04-9.52077E+03-1.26059E+05 1.43109E-09 5.97879E-10
 -1       378-3.38450E+05-4.67480E+04-3.22913E+03-1.27254E+05 3.84262E-11-1.58593E-10
 -1       379-3.39287E+05-4.89839E+04-2.01724E+03-1.27231E+05-2.30017E-10 2.09704E-09
 -1       380-3.38937E+05-4.74691E+04-7.73688E+02-1.27071E+05 1.76030E-10-9.78844E-11
 -1       381-3.38713E+05-4.81705E+04-4.92194E+02-1.27456E+05-7.90905E-11-1.14261E-09
 -1       382-3.39023E+05-4.75591E+04-2.90631E+02-1.27030E+05 1.42264E-10-1.17108E-10
 -1       383-3.38656E+05-4.81138E+04-3.77669E+02-1.27488E+05 3.10375E-10-1.07274E-10
 -1       384-3.38995E+05-4.75256E+04-5.60353E+02-1.27040E+05 7.11466E-11-7.54198E-10
 -1       385-3.38932E+05-4.84759E+04-1.32636E+03-1.27384E+05-6.39275E-11-9.08784E-10
 -1       386-3.38747E+05-4.71979E+04-2.27672E+03-1.27133E+05 6.85816E-11 1.52340E-10
 -1       387-3.40591E+05-5.10793E+04-6.09219E+03-1.26819E+05-2.15181E-10-1.22930E-09
 -1       388-3.37338E+05-4.49291E+04-9.79319E+03-1.27603E+05 7.47150E-10-1.28648E-09
 -1       389-3.50559E+05-6.82269E+04-2.89187E+04-1.23472E+05 2.37821E-09-4.76575E-10
 -1       390-3.28788E+05-3.00965E+04-4.17618E+04-1.30463E+05 4.53474E-09-6.54836E-10
 -1       406 7.70701E+02 2.02178E+05 1.53138E+03-2.17604E+04-1.36424E-12 6.03450E-10
 -1       407 4.12795E+02 2.02445E+05 1.56666E+03-2.40062E+04-1.29307E-09-1.40062E-10
 -1       408 5.39218E+02 2.02169E+05 2.33803E+03-2.16881E+04 9.86802E-11 1.19417E-09
 -1       409 2.15923E+03 2.03055E+05 4.86711E+03-2.41015E+04-1.50703E-09 4.35421E-11
 -1       410 6.27270E+03 2.01549E+05 9.72740E+03-2.16624E+04-1.06411E-10-4.39741E-10
 -1       466 6.49142E+05-2.58948E+04 6.06771E+04 2.31436E+03-1.23123E-10-4.80213E-10
 -1       467 6.75589E+05 2.99944E+04 4.28570E+04-5.41545E+03 6.84963E-11 4.82487E-10
 -1       468 6.59351E+05-4.01005E+03 1.57322E+04 1.17005E+03 1.24516E-10-9.69521E-10
 -1       469 6.63699E+05 4.64291E+03 9.88513E+03-3.64238E+03 7.22039E-10 2.23963E-11
 -1       470 6.61032E+05-6.21182E+02 4.09925E+03 5.41406E+02 2.97135E-10-4.65207E-10
 -1       471 6.61745E+05 7.40149E+02 2.52563E+03-2.70805E+03-2.28926E-10-1.30740E-11
 -1       472 6.61305E+05-1.16743E+02 1.40375E+03 2.35702E+02 1.82126E-10 6.55433E-10
 -1       473 6.61497E+05 2.80128E+02 1.41954E+03-2.33476E+03-1.25962E-10-9.33763E-10
 -1       474 6.61279E+05-1.61700E+02 1.82640E+03 1.68111E+02-2.37703E-11-1.08059E-10
 -1       475 6.61948E+05 1.13113E+03 3.74067E+03-2.41960E+03 3.83956E-10 6.95536E-10
 -1       476 6.60853E+05-9.65608E+02 6.30006E+03 3.20549E+02 1.42670E-10 7.87168E-10
 -1       477 6.64963E+05 7.23569E+03 1.53467E+04-2.98675E+03-1.40346E-10 6.35055E-10
 -1       478 6.58261E+05-6.24869E+03 2.45025E+04 7.35265E+02-2.76003E-10-1.63709E-10
 -1       479 6.83365E+05 4.67392E+04 6.67373E+04-4.21392E+03 4.61569E-11-3.30238E-09
 -1       480 6.42445E+05-4.03384E+04 9.45909E+04 1.54761E+03 7.72474E-10-6.83940E-10
 -1       481-5.03341E+03 1.05521E+05 1.18825E+04-2.72793E+02-8.18545E-12-5.68619E-10
 -1       482 6.04906E+03 1.10766E+05 8.77559E+03 3.37274E+02-5.60476E-11 1.70057E-09
 -1       483-9.97509E+02 1.07387E+05 3.85438E+03-1.85590E+02-4.82032E-11 8.68255E-10
 -1       484 2.56294E+03 1.09140E+05 4.19716E+03 1.72724E+02-1.71951E-12-1.00549E-10
 -1       485-1.55851E+03 1.07147E+05 3.98600E+03-1.08261E+02 5.59339E-11-7.83814E-10
 -1       486-6.06969E+05-6.43723E+04-5.74122E+04-2.39073E+05 2.34650E-10-1.03319E-09
 -1       487-6.39195E+05-1.14413E+05-3.97463E+04-2.26725E+05-3.58341E-10 7.91260E-10
 -1       488-6.19154E+05-8.43591E+04-1.34732E+04-2.34680E+05-2.10775E-10 3.85626E-10
 -1       489-6.24506E+05-9.17856E+04-8.36579E+03-2.32400E+05-7.46894E-10-1.75874E-10
 -1       490-6.21637E+05-8.69381E+04-3.15814E+03-2.33417E+05-2.63583E-10 4.66116E-11
 -1       491-6.21191E+05-8.92672E+04-1.85229E+03-2.34385E+05 9.55893E-11 6.34856E-10
 -1       492-6.22466E+05-8.68672E+04-8.60111E+02-2.32697E+05-2.92509E-10-3.74570E-10
 -1       493-6.20046E+05-8.96586E+04-7.15144E+02-2.35497E+05 7.60341E-10-1.61374E-09
 -1       494-6.22785E+05-8.65434E+04-7.70428E+02-2.32308E+05-1.08827E-10 3.70676E-10
 -1       495-6.19972E+05-9.03972E+04-1.60445E+03-2.35828E+05-3.44649E-10-5.81664E-10
 -1       496-6.22542E+05-8.61285E+04-2.67569E+03-2.32367E+05-6.62908E-10-5.22959E-12
 -1       497-6.22096E+05-9.31968E+04-7.09816E+03-2.34914E+05-3.04084E-10 6.28461E-10
 -1       498-6.20663E+05-8.37530E+04-1.14061E+04-2.33219E+05 8.86757E-12 1.01454E-09
 -1       499-6.34400E+05-1.12408E+05-3.36453E+04-2.30157E+05 4.05294E-10 5.43878E-10
 -1       500-6.10252E+05-6.69740E+04-4.86130E+04-2.37104E+05-1.05501E-10 3.38332E-10
 -1       501-1.60674E+05-9.49349E+03 2.22292E+04 3.26620E+02 6.25135E-10 1.51886E-10
 -1       502-1.50924E+05 1.09967E+04 1.57038E+04-2.07723E+03-3.29337E-10-8.95852E-11
 -1       503-1.56944E+05-1.47127E+03 5.75179E+03 5.11331E+02 5.45270E-10-1.41836E-09
 -1       504-1.55283E+05 1.70255E+03 3.60951E+03-2.39507E+03-3.89925E-10-4.60204E-10
 -1       505-1.56321E+05-2.27393E+02 1.46976E+03 6.44489E+02 9.39437E-10 8.37872E-11
 -1       506-1.56019E+05 2.65351E+02 8.63009E+02-2.59751E+03 1.89104E-08-6.86512E-10
 -1       507-1.56211E+05-3.63932E+01 3.95307E+02 7.13773E+02 1.42697E-06 2.85192E-09
 -1       508-1.56143E+05 5.33432E+01 2.60112E+02-2.66755E+03 2.81844E-06 1.23156E-09
 -1       509-1.56198E+05-1.51907E+01 1.96094E+02 7.14526E+02 1.42703E-06 3.19937E-09
 -1       510-1.56120E+05 8.11449E+01 2.88833E+02-2.60046E+03 1.90209E-08-7.16032E-10
 -1       511-1.56233E+05-6.48241E+01 4.31891E+02 6.46688E+02 8.63423E-10 3.24007E-10
 -1       512-1.55895E+05 4.78849E+02 1.02859E+03-2.40049E+03 1.37483E-10 4.65590E-10
 -1       513-1.56420E+05-4.13710E+02 1.61386E+03 5.14548E+02 5.90134E-10 3.54589E-10
 -1       514-1.54643E+05 3.08614E+03 4.41773E+03-2.08054E+03-1.02366E-09 1.09196E-09
 -1       515-1.57481E+05-2.66632E+03 6.22596E+03 3.26728E+02-1.15648E-10 5.25233E-10
 -1       516-2.09883E+04 1.32569E+05 4.98019E+04 2.92215E+03 1.95905E-09-1.78488E-10
 -1       517 2.58877E+04 1.54722E+05 3.79286E+04-1.38830E+04 2.77578E-09 1.40753E-09
 -1       518-4.79237E+03 1.40123E+05 1.85387E+04 2.79423E+03 2.08047E-09 1.18517E-09
 -1       519 1.55833E+04 1.49983E+05 2.44056E+04-1.39439E+04 3.07955E-09-1.21929E-10
 -1       520-1.07220E+04 1.37312E+05 2.64358E+04 2.98297E+03 1.18052E-09-7.91715E-10
 -1       521-1.24718E+06-1.57388E+05-8.98381E+04-4.81892E+05-1.15688E-09-1.70985E-09
 -1       522-1.27412E+06-2.23333E+05-5.70683E+04-4.87452E+05 1.85253E-10-1.42882E-09
 -1       523-1.26317E+06-1.78524E+05-2.12066E+04-4.79042E+05 3.93072E-11-9.09495E-11
 -1       524-1.25564E+06-1.96443E+05-1.17399E+04-4.92086E+05-5.26597E-10-8.57881E-10
 -1       525-1.26519E+06-1.80701E+05-4.93983E+03-4.78620E+05 3.04226E-10 2.03727E-10
 -1       526-1.25328E+06-1.93739E+05-2.63597E+03-4.92764E+05 1.29916E-09 1.26471E-09
 -1       527-1.26551E+06-1.80874E+05-1.35215E+03-4.78512E+05 6.95650E-10 2.07842E-09
 -1       528-1.25298E+06-1.93528E+05-1.07990E+03-4.92883E+05-2.97241E-10 8.47535E-11
 -1       529-1.26550E+06-1.80881E+05-1.30434E+03-4.78517E+05-2.50907E-10 1.85310E-10
 -1       530-1.25328E+06-1.93700E+05-2.50325E+03-4.92740E+05 4.74870E-10 1.01920E-09
 -1       531-1.26519E+06-1.80734E+05-4.67170E+03-4.78636E+05-2.67164E-11 7.02130E-10
 -1       532-1.25554E+06-1.96219E+05-1.10912E+04-4.92058E+05 1.26079E-10 3.20142E-10
 -1       533-1.26326E+06-1.78699E+05-2.00300E+04-4.79056E+05 9.24899E-10 3.00406E-09
 -1       534-1.27304E+06-2.21568E+05-5.38983E+04-4.87624E+05 2.75804E-10 3.41061E-10
 -1       535-1.24812E+06-1.58767E+05-8.48485E+04-4.81778E+05-4.27463E-11 9.67702E-10
 -1       536 4.83703E+04-6.27206E+03 2.55405E+04-2.76901E+03 1.65528E-10-7.29415E-10
 -1       537 5.77516E+04 8.28263E+03 1.64704E+04-1.20614E+04-9.71340E-10-8.23093E-10
 -1       538 5.22507E+04-6.71650E+02 6.61860E+03-2.73763E+03 1.11413E-11-8.13088E-10
 -1       539 5.33879E+04 8.37157E+02 3.71688E+03-1.20890E+04 4.29168E-10-9.44624E-10
 -1       540 5.26992E+04-7.76253E+01 1.67252E+03-2.74029E+03 1.18689E-10-2.95586E-12
 -1       541 5.28578E+04 8.30026E+01 8.87939E+02-1.20816E+04-9.00400E-11-1.11532E-09
 -1       542 5.27562E+04-9.98998E+00 4.24118E+02-2.74506E+03 2.04636E-11 2.84672E-10
 -1       543 5.27780E+04 1.10107E+01 2.29179E+02-1.20743E+04-1.89402E-10-5.53712E-10
 -1       544 5.27637E+04-1.00257E+00 1.30046E+02-2.74756E+03 7.95808E-11-2.66454E-10
 -1       545 5.27668E+04 9.89843E+00 1.07763E+02-1.20715E+04-1.25720E-10-1.26334E-10
 -1       546 5.27616E+04-3.76664E+00 1.29061E+02-2.74787E+03 7.31859E-11-2.75989E-10
 -1       547 5.27990E+04 5.50323E+01 2.42159E+02-1.20716E+04-2.93596E-11-1.05661E-09
 -1       548 5.27352E+04-4.15448E+01 4.13572E+02-2.74752E+03-3.04567E-10 5.66274E-10
 -1       549 5.30758E+04 5.10640E+02 1.01783E+03-1.20531E+04-1.40062E-10 1.52873E-09
 -1       550 5.24979E+04-3.89873E+02 1.57193E+03-2.76639E+03-8.34461E-11 1.25567E-09
 -1       551 5.64769E+03-1.23741E+05 1.22775E+04-1.88979E+05-3.16504E-10-2.95586E-10
 -1       552 2.44588E+03-1.21572E+05 9.29222E+03-2.20245E+05-7.34872E-10 8.15817E-10
 -1       553 1.43883E+03-1.23331E+05 1.03652E+04-1.88667E+05-3.01952E-10 7.09633E-10
 -1       554 6.21812E+03-1.19483E+05 1.90905E+04-2.20305E+05-4.36557E-10-1.07320E-10
 -1       555 1.78831E+04-1.25952E+05 3.60942E+04-1.88904E+05-3.40151E-10-1.44973E-09
 -1       556-9.70098E+04-5.00310E+04 7.50125E+03-8.99054E+04 1.84627E-10-4.54747E-11
 -1       557-8.98102E+04-5.79510E+04 3.67753E+03-9.56315E+04-2.20825E-09 1.02580E-09
 -1       558-9.71446E+04-5.25973E+04 1.54872E+03-8.83654E+04-2.79579E-09 1.37516E-09
 -1       559-9.04323E+04-5.92261E+04 7.58118E+02-9.58657E+04-1.32150E-09 1.07434E-10
 -1       560-9.71984E+04-5.26428E+04 3.37554E+02-8.83228E+04-8.89304E-09 3.44556E-09
 -1       561-9.05393E+04-5.92648E+04 1.57387E+02-9.59468E+04-1.48884E-08 8.25615E-09
 -1       562-9.72418E+04-5.26083E+04 5.30497E+01-8.83519E+04-8.47194E-09 2.44017E-09
 -1       563-9.05876E+04-5.92442E+04-1.22652E+01-9.59826E+04-1.59707E-09 6.33463E-10
 -1       564-9.72645E+04-5.25864E+04-8.84818E+01-8.83705E+04-1.83763E-09-4.54747E-11
 -1       565-9.06189E+04-5.92334E+04-2.19663E+02-9.60001E+04-1.18098E-09 2.28101E-09
 -1       566-9.72580E+04-5.25754E+04-4.66338E+02-8.83743E+04-8.74735E-10-3.77440E-10
 -1       567-9.07062E+04-5.92830E+04-1.03087E+03-9.59918E+04-5.02268E-10-5.51154E-10
 -1       568-9.71854E+04-5.27417E+04-2.11871E+03-8.82931E+04-3.45153E-10-9.44965E-10
 -1       569-9.18681E+04-6.05922E+04-4.99966E+03-9.56544E+04-2.06001E-10-1.18780E-09
 -1       570-9.67767E+04-5.67384E+04-1.02255E+04-8.66185E+04-1.51886E-10 3.39242E-10
 -1       571 1.29214E+05 6.50142E+03 1.00840E+04-3.32870E+04 1.75987E-10 1.02659E-10
 -1       572 1.30771E+05 2.20549E+03 4.95792E+03-3.67675E+04-5.18412E-11 2.36469E-11
 -1       573 1.29851E+05 4.83660E+02 2.20693E+03-3.31936E+04-1.52795E-10-4.64752E-10
 -1       574 1.30033E+05 1.48809E+02 1.10886E+03-3.68708E+04-1.56660E-10-1.13232E-09
 -1       575 1.29921E+05 1.06217E+01 5.25346E+02-3.31818E+04-1.92586E-10 1.00317E-09
 -1       576 1.29939E+05-1.40554E+00 2.68903E+02-3.68841E+04 6.52847E-11 1.11959E-09
 -1       577 1.29931E+05-8.77099E+00 1.35224E+02-3.31803E+04-5.08180E-11 2.71484E-10
 -1       578 1.29928E+05-6.06945E+00 7.85498E+01-3.68857E+04-1.95087E-10 4.82487E-10
 -1       579 1.29938E+05-7.95261E+00 5.72046E+01-3.31803E+04-2.32831E-10-8.81300E-10
 -1       580 1.29937E+05-7.78882E+00 6.81000E+01-3.68838E+04-1.68257E-10-1.38243E-10
 -1       581 1.29947E+05-8.74623E+00 1.09373E+02-3.31822E+04-9.53150E-10-2.38742E-11
 -1       582 1.29970E+05 1.41259E+01 2.18989E+02-3.68639E+04-7.49424E-10 7.63976E-11
 -1       583 1.29950E+05 7.41889E+01 4.28737E+02-3.32001E+04-6.12999E-10-7.68296E-10
 -1       584 1.30133E+05 4.02985E+02 9.60977E+02-3.67094E+04-7.49424E-10-7.74207E-11
 -1       585 1.29845E+05 1.23139E+03 1.95123E+03-3.33374E+04 9.51331E-10 1.00044E-11
 -1       586 1.04048E+03 4.96431E+04 1.91550E+03-8.83952E+04 7.49878E-10-1.83445E-09
 -1       587 5.48328E+02 4.99692E+04 1.80166E+03-9.79270E+04 7.00311E-11-2.01385E-09
 -1       588 6.26017E+02 4.96342E+04 2.53180E+03-8.82841E+04 8.65839E-10-6.53245E-10
 -1       589 2.32807E+03 5.05915E+04 5.16556E+03-9.79494E+04 2.61934E-10-3.13833E-10
 -1       590 6.64790E+03 4.90030E+04 1.02692E+04-8.83714E+04 8.04221E-10-4.60886E-10
 -1       591-5.88326E+04-2.09018E+04-1.09349E+04-3.12545E+04 5.94639E-10 5.45697E-11
 -1       592-5.90437E+04-1.95571E+04-5.34859E+03-3.46349E+04 3.09672E-09 8.72205E-09
 -1       593-5.91309E+04-1.67397E+04-2.26871E+03-3.31365E+04-1.02773E-10-3.20256E-10
 -1       594-5.78802E+04-1.80620E+04-1.10934E+03-3.48515E+04 1.20656E-09 2.56613E-11
 -1       595-5.91828E+04-1.65792E+04-5.10816E+02-3.32232E+04 1.31683E-09-3.42618E-09
 -1       596-5.77912E+04-1.80013E+04-2.59905E+02-3.48457E+04 1.29467E-09-2.05898E-09
 -1       597-5.91930E+04-1.65860E+04-1.43158E+02-3.32241E+04-3.45153E-10-4.06999E-10
 -1       598-5.77826E+04-1.80019E+04-1.17643E+02-3.48422E+04-5.28757E-10-8.67658E-10
 -1       599-5.91921E+04-1.65858E+04-1.53145E+02-3.32239E+04-2.51418E-10-3.72893E-10
 -1       600-5.77919E+04-1.80016E+04-2.86415E+02-3.48456E+04-1.66779E-10 6.46196E-10
 -1       601-5.91791E+04-1.65782E+04-5.67019E+02-3.32223E+04-4.50655E-10 1.42609E-09
 -1       602-5.78910E+04-1.80687E+04-1.23421E+03-3.48505E+04 3.96085E-10 1.72440E-09
 -1       603-5.91202E+04-1.67585E+04-2.52479E+03-3.31261E+04-4.09955E-10 8.24457E-10
 -1       604-5.91923E+04-1.97254E+04-5.95269E+03-3.46003E+04 1.43928E-10 1.05729E-10
 -1       605-5.87796E+04-2.13959E+04-1.21694E+04-3.10382E+04-2.91493E-10 2.06001E-10
 -1       606 3.95760E+04-5.01064E+03-7.76303E+03 1.15923E+04-2.75759E-09-7.83984E-10
 -1       607 3.83604E+04-1.69995E+03-3.81597E+03 1.26831E+04-7.47605E-10 4.53383E-10
 -1       608 3.90722E+04-3.72600E+02-1.69854E+03 1.15129E+04 1.44428E-09 5.79803E-11
 -1       609 3.89144E+04-1.10069E+02-8.52242E+02 1.27711E+04-1.14323E-09 7.65112E-10
 -1       610 3.90080E+04-2.77366E+00-4.02557E+02 1.15028E+04-2.88219E-09-3.80737E-10
 -1       611 3.89785E+04 9.81058E+00-2.03002E+02 1.27821E+04-3.90810E-09 3.69027E-10
 -1       612 3.89955E+04 1.44788E+01-9.68009E+01 1.15016E+04 4.54747E-13 2.36810E-10
 -1       613 3.89854E+04 1.39639E+01-4.54638E+01 1.27836E+04-1.98361E-09-9.37916E-11
 -1       614 3.89909E+04 1.22488E+01-1.50665E+01 1.15013E+04-7.48969E-10-4.60318E-10
 -1       615 3.89855E+04 1.37122E+01 7.47630E+00 1.27838E+04 1.91039E-09 5.96515E-10
 -1       616 3.89875E+04 1.34158E+01 3.33406E+01 1.15014E+04-2.64572E-09-3.13776E-11
 -1       617 3.89907E+04 2.55829E+01 8.05817E+01 1.27835E+04 1.39153E-10 1.43746E-09
 -1       618 3.89801E+04 4.98558E+01 1.65211E+02 1.15016E+04 2.84217E-12-6.91784E-10
 -1       619 3.90445E+04 1.81854E+02 3.73919E+02 1.27821E+04-9.25979E-11-1.39494E-10
 -1       620 3.89304E+04 5.05346E+02 7.61818E+02 1.15024E+04 1.79062E-09-5.79803E-12
 -1       621 1.09611E+03 1.32859E+05 2.59722E+03-1.28431E+04 9.06084E-11 4.70664E-11
 -1       622 4.12344E+02 1.33345E+05 2.07442E+03-1.50359E+04-7.81938E-10 9.08244E-10
 -1       623 2.37196E+02 1.32972E+05 2.46690E+03-1.28572E+04 7.02585E-11 9.61791E-11
 -1       624 1.40723E+03 1.33917E+05 4.67983E+03-1.49702E+04-5.01473E-10-2.08274E-10
 -1       625 4.33455E+03 1.32296E+05 8.92812E+03-1.29084E+04 7.88987E-11 2.61025E-10
 -1       626 5.51521E+04 1.79836E+04-3.68405E+03 3.77970E+04 6.83758E-09-2.79397E-09
 -1       627 5.35410E+04 2.04688E+04-1.75007E+03 3.84679E+04 1.99086E-08 8.90878E-10
 -1       628 5.52261E+04 1.97759E+04-7.35644E+02 3.69301E+04 8.83847E-09-8.65509E-09
 -1       629 5.38266E+04 2.11982E+04-3.53705E+02 3.84036E+04 2.18256E-09 1.63404E-10
 -1       630 5.52206E+04 1.98942E+04-1.56501E+02 3.68630E+04 3.32557E-09-1.87924E-10
 -1       631 5.38491E+04 2.12494E+04-7.09031E+01 3.84052E+04-1.52022E-09 2.46104E-10
 -1       632 5.52149E+04 1.98970E+04-2.15463E+01 3.68580E+04-1.63004E-09 7.44024E-10
 -1       633 5.38512E+04 2.12512E+04 1.30133E+01 3.84067E+04 2.22997E-09 1.34935E-09
 -1       634 5.52106E+04 1.98934E+04 5.43494E+01 3.68576E+04 1.73668E-09-1.80307E-10
 -1       635 5.38580E+04 2.12522E+04 1.31431E+02 3.84086E+04 8.14254E-09 1.61781E-08
 -1       636 5.52045E+04 1.98981E+04 2.76356E+02 3.68537E+04 1.01846E-08 2.09807E-08
 -1       637 5.39226E+04 2.13233E+04 6.18283E+02 3.83982E+04 3.89508E-09 9.95897E-10
 -1       638 5.51880E+04 2.01139E+04 1.28126E+03 3.67588E+04 7.84905E-09 9.94169E-09
 -1       639 5.45742E+04 2.24436E+04 3.04759E+03 3.81277E+04-8.91532E-10 1.17325E-09
 -1       640 5.52044E+04 2.33640E+04 6.41600E+03 3.54044E+04-6.57519E-09 1.04774E-09
 -1       641 9.05406E+02 1.18941E+03-2.78876E+03-1.13245E+02-3.15692E-09-8.14339E-10
 -1       642-2.94433E+02-1.37771E+03-1.96530E+03 5.03772E+02 2.72820E-10 6.19593E-11
 -1       643 4.41253E+02 1.84051E+02-7.19452E+02-1.12941E+02-4.15879E-09-7.60906E-10
 -1       644 2.45120E+02-2.12194E+02-4.45351E+02 5.03416E+02 1.32458E-09 1.39210E-10
 -1       645 3.65655E+02 2.78814E+01-1.72919E+02-1.12892E+02-2.17153E-09-1.18972E-09
 -1       646 3.34476E+02-2.92069E+01-8.27861E+01 5.03314E+02-8.65993E-08-7.74577E-10
 -1       647 3.51790E+02 1.68963E+00-2.37422E+00-1.12839E+02-6.35441E-06 5.14081E-09
 -1       648 3.58801E+02 1.47956E+01 7.09653E+01 5.03262E+02-1.25644E-05 1.16458E-08
 -1       649 3.41295E+02-1.59933E+01 1.63848E+02-1.12839E+02-6.35386E-06 5.49925E-09
 -1       650 4.18154E+02 1.24453E+02 3.96161E+02 5.03234E+02-7.89012E-08-3.84055E-10
 -1       651 2.92473E+02-1.07710E+02 6.92978E+02-1.12812E+02-4.11321E-09-5.43253E-10
 -1       652 7.55526E+02 8.08500E+02 1.70751E+03 5.03086E+02 2.38099E-09 7.72616E-10
 -1       653 4.03332E+00-6.98029E+02 2.73237E+03-1.12694E+02-2.09552E-09-1.28148E-09
 -1       654 2.80632E+03 5.22039E+03 7.44859E+03 5.02094E+02 2.95185E-09 2.09604E-09
 -1       655-1.75801E+03-4.50511E+03 1.05585E+04-1.11827E+02 1.47138E-09 2.50111E-10
 -1       656 4.17296E+03-1.50220E+05-1.76466E+04 3.56767E+03-3.99268E-10-7.27823E-10
 -1       657-6.00566E+03-1.56753E+05-1.29355E+04 1.53508E+04-1.15915E-09 4.47869E-10
 -1       658 8.22389E+02-1.52523E+05-8.16048E+03 3.54178E+03-6.92808E-10 1.05058E-09
 -1       659-5.46019E+03-1.56441E+05-1.19942E+04 1.53662E+04-5.74346E-10 7.06617E-10
 -1       660 3.72455E+03-1.50538E+05-1.58766E+04 3.55249E+03-1.14960E-09 4.18254E-10
 -1       661 1.49874E+05 1.88068E+04 1.23166E+04 5.84136E+04 3.80976E-09 1.56979E-09
 -1       662 1.52881E+05 2.85444E+04 7.82505E+03 5.99812E+04 2.27678E-09 1.12232E-09
 -1       663 1.52029E+05 2.17428E+04 2.90957E+03 5.80682E+04 2.58416E-09 1.61094E-10
 -1       664 1.50406E+05 2.47974E+04 1.61369E+03 6.05349E+04-3.63798E-10-2.02061E-09
 -1       665 1.52279E+05 2.20697E+04 6.82748E+02 5.80409E+04 9.12962E-10-5.75483E-10
 -1       666 1.50119E+05 2.43888E+04 3.72698E+02 6.05783E+04 1.78133E-09 8.03112E-10
 -1       667 1.52308E+05 2.21073E+04 2.07048E+02 5.80408E+04 2.36550E-09 2.51236E-09
 -1       668 1.50092E+05 2.43506E+04 1.94965E+02 6.05793E+04-1.89625E-09 4.15847E-09
 -1       669 1.52305E+05 2.21049E+04 2.72171E+02 5.80408E+04-7.99076E-11-6.34770E-10
 -1       670 1.50143E+05 2.44156E+04 5.54038E+02 6.05770E+04 7.42257E-09 4.75538E-10
 -1       671 1.52258E+05 2.20469E+04 1.04772E+03 5.80417E+04 2.08621E-09-4.24052E-11
 -1       672 1.50592E+05 2.50481E+04 2.49727E+03 6.05072E+04-3.02646E-09-2.21007E-10
 -1       673 1.51868E+05 2.15411E+04 4.50952E+03 5.80852E+04-1.09483E-09 2.36014E-10
 -1       674 1.54430E+05 3.08589E+04 1.21342E+04 5.96477E+04 2.95699E-09-2.04864E-10
 -1       675 1.48527E+05 1.69876E+04 1.91002E+04 5.86197E+04 1.49180E-09-9.81345E-10
 -1       676 5.37893E+02-1.41649E+05-2.53574E+03 7.23561E+01-8.99831E-11-1.85697E-10
 -1       677-9.71653E+02-1.42625E+05-2.55013E+03 4.67280E+01 9.30243E-10-2.72551E-09
 -1       678 2.79493E+02-1.41812E+05-2.76417E+03 7.21198E+01 1.83627E-09-3.42322E-11
 -1       679-2.90349E+03-1.43751E+05-5.89433E+03 4.67193E+01-4.71744E-10 7.70932E-10
 -1       680 2.14014E+03-1.40523E+05-8.81909E+03 7.21818E+01-8.73115E-11-3.03190E-10
 -1       681 2.15387E+05-5.61415E+03 1.31560E+04 4.58980E+02-4.76064E-12-6.71207E-10
 -1       682 2.21084E+05 6.50403E+03 9.28901E+03-1.50352E+03 7.63407E-11-3.51520E-10
 -1       683 2.17590E+05-8.69765E+02 3.41301E+03 3.29437E+02 8.38298E-11-3.86763E-10
 -1       684 2.18519E+05 1.00762E+03 2.14747E+03-1.29549E+03-8.13714E-11-1.06979E-10
 -1       685 2.17952E+05-1.35154E+02 8.99083E+02 2.50948E+02 1.03562E-11 7.98650E-11
 -1       686 2.18100E+05 1.63409E+02 5.69879E+02-1.18123E+03 3.93161E-11-5.31131E-10
 -1       687 2.18009E+05-2.77613E+01 3.46936E+02 2.15176E+02 1.24501E-10 1.46123E-10
 -1       688 2.18057E+05 7.91979E+01 4.01348E+02-1.14904E+03-1.09293E-10 3.10312E-10
 -1       689 2.17995E+05-5.10939E+01 5.66331E+02 2.18755E+02-2.59964E-10-6.13340E-11
 -1       690 2.18211E+05 3.66125E+02 1.20219E+03-1.19598E+03-1.19975E-11 3.84617E-10
 -1       691 2.17854E+05-3.14074E+02 2.04192E+03 2.62119E+02 2.22684E-10-2.88310E-10
 -1       692 2.19194E+05 2.35436E+03 4.98915E+03-1.32637E+03 1.73173E-10-6.82121E-12
 -1       693 2.17012E+05-2.03370E+03 7.96869E+03 3.49144E+02-1.28217E-10 1.50067E-11
 -1       694 2.25178E+05 1.52105E+04 2.17129E+04-1.55620E+03-2.44356E-10-9.86802E-11
 -1       695 2.11871E+05-1.31282E+04 3.07720E+04 4.91934E+02 8.51799E-11-5.52973E-10
 -1       696-4.50275E+03 1.87715E+05 1.03898E+04 4.12972E+02 3.54703E-11-3.23027E-10
 -1       697 4.87135E+03 1.92080E+05 6.68391E+03-2.40634E+03 5.77529E-11-3.47784E-10
 -1       698-3.50890E+02 1.89648E+05 1.35649E+03 3.87036E+02-6.23004E-11 4.23300E-10
 -1       699-1.83764E+03 1.88963E+05-2.12497E+03-2.42373E+03-1.21418E-10 9.68491E-10
 -1       700 2.18396E+03 1.90834E+05-4.80885E+03 4.30345E+02-6.63931E-11 2.13156E-10
 -1       701-1.97522E+05-1.80310E+04-2.52863E+04-7.84426E+04 5.95719E-11-3.76531E-10
 -1       702-2.10649E+05-4.11571E+04-1.75081E+04-7.42578E+04 1.08855E-10-3.25599E-10
 -1       703-2.02719E+05-2.69880E+04-5.93262E+03-7.66860E+04 1.25283E-10-8.23093E-11
 -1       704-2.04574E+05-3.08184E+04-3.69299E+03-7.63311E+04-2.63412E-10-1.05842E-10
 -1       705-2.03591E+05-2.83418E+04-1.38980E+03-7.63794E+04-6.36788E-11-1.17097E-10
 -1       706-2.03537E+05-2.92841E+04-8.26962E+02-7.67170E+04 1.31683E-10-2.91450E-10
 -1       707-2.03756E+05-2.85180E+04-3.86230E+02-7.63016E+04 2.69758E-11-7.14522E-11
 -1       708-2.03352E+05-2.91276E+04-3.39871E+02-7.68196E+04-1.79334E-10-1.72859E-10
 -1       709-2.03777E+05-2.84977E+04-3.80322E+02-7.62771E+04-1.30996E-10 1.22071E-11
 -1       710-2.03456E+05-2.93581E+04-8.09925E+02-7.68116E+04 7.28910E-11 2.82512E-10
 -1       711-2.03652E+05-2.82880E+04-1.35723E+03-7.63094E+04-3.96483E-11-1.62572E-10
 -1       712-2.04402E+05-3.09250E+04-3.60746E+03-7.65145E+04-2.55298E-10-3.97904E-12
 -1       713-2.02832E+05-2.69348E+04-5.79231E+03-7.65729E+04 1.39835E-11 6.73026E-11
 -1       714-2.10277E+05-4.10759E+04-1.70965E+04-7.45539E+04 1.82354E-10 1.50976E-10
 -1       715-1.97781E+05-1.81645E+04-2.46897E+04-7.82602E+04 2.63299E-10 6.18456E-10
 -1       716 5.06747E+04-6.93948E+03 1.62492E+04 5.92826E+02 3.54930E-10 1.02773E-10
 -1       717 5.77921E+04 8.03854E+03 1.14846E+04-2.48392E+03 8.70983E-11-3.32875E-10
 -1       718 5.34080E+04-1.07541E+03 4.21593E+03 5.33902E+02-1.33298E-10-4.75211E-11
 -1       719 5.46006E+04 1.24653E+03 2.66001E+03-2.38947E+03-8.81357E-11 2.98968E-10
 -1       720 5.38626E+04-1.67542E+02 1.11818E+03 4.98384E+02 4.86416E-10 6.62794E-10
 -1       721 5.40715E+04 2.05606E+02 7.22005E+02-2.33892E+03 9.02382E-10 9.85906E-10
 -1       722 5.39354E+04-3.63440E+01 4.61613E+02 4.83351E+02 6.83851E-10 2.12975E-10
 -1       723 5.40233E+04 1.13736E+02 5.68291E+02-2.32875E+03 1.31770E-10 8.62027E-10
 -1       724 5.39103E+04-7.56969E+01 8.31079E+02 4.88213E+02 7.14532E-10 8.04505E-10
 -1       725 5.42652E+04 5.47001E+02 1.78889E+03-2.35859E+03 8.78629E-10 1.32820E-09
 -1       726 5.36945E+04-4.69239E+02 3.04353E+03 5.13186E+02 2.32930E-10 3.68459E-10
 -1       727 5.57520E+04 3.51637E+03 7.45241E+03-2.43002E+03 3.95225E-10 1.67915E-10
 -1       728 5.24261E+04-3.03789E+03 1.18937E+04 5.59648E+02 2.53991E-10-4.12456E-10
 -1       729 6.47160E+04 2.27163E+04 3.24325E+04-2.55571E+03 9.86233E-11 1.58252E-10
 -1       730 4.47371E+04-1.96080E+04 4.59461E+04 6.38828E+02 5.13523E-10-3.78350E-10
 -1       731-7.99632E+03 7.79464E+04 1.87801E+04 5.88387E+02 7.57609E-10-9.58771E-11
 -1       732 9.37483E+03 8.60851E+04 1.34221E+04-2.90019E+03 1.20781E-09 2.44269E-10
 -1       733-1.34599E+03 8.10191E+04 5.20521E+03 5.97502E+02 6.25505E-10 4.76533E-10
 -1       734 2.25320E+03 8.27913E+04 4.07382E+03-2.95476E+03 9.12621E-10 1.07532E-09
 -1       735-8.99446E+02 8.12419E+04 2.64126E+03 6.42936E+02 2.64166E-10 5.00975E-10
 -1       736-4.61755E+05-5.20762E+04-3.41009E+04-1.79437E+05-1.91903E-10 1.69166E-10
 -1       737-4.80241E+05-8.24627E+04-2.36106E+04-1.72866E+05-3.94152E-10-2.79897E-10
 -1       738-4.68860E+05-6.40642E+04-7.99970E+03-1.76961E+05-2.89333E-10 3.29237E-10
 -1       739-4.71818E+05-6.87419E+04-4.97705E+03-1.75918E+05 3.29237E-10-3.04397E-10
 -1       740-4.70168E+05-6.57592E+04-1.87303E+03-1.76397E+05 2.06484E-10 2.33626E-10
 -1       741-4.70161E+05-6.69281E+04-1.10906E+03-1.76731E+05-1.44274E-10 1.87470E-10
 -1       742-4.70515E+05-6.58723E+04-5.14093E+02-1.76149E+05-5.84199E-11 3.33372E-10
 -1       743-4.69699E+05-6.69258E+04-4.39405E+02-1.77115E+05-7.65255E-12 3.44507E-11
 -1       744-4.70630E+05-6.57605E+04-4.80408E+02-1.76014E+05 1.48376E-10-4.38632E-10
 -1       745-4.69714E+05-6.73259E+04-1.01053E+03-1.77242E+05 2.54317E-10-3.85967E-10
 -1       746-4.70501E+05-6.54725E+04-1.68870E+03-1.76022E+05-5.90489E-10-2.83080E-11
 -1       747-4.70908E+05-6.92555E+04-4.48547E+03-1.76851E+05-7.27169E-10-8.37417E-10
 -1       748-4.69437E+05-6.38360E+04-7.20150E+03-1.76403E+05 1.09594E-10 3.63798E-11
 -1       749-4.78359E+05-8.17287E+04-2.12567E+04-1.74241E+05 1.56433E-10-3.59933E-10
 -1       750-4.63058E+05-5.30340E+04-3.07003E+04-1.78621E+05-4.05635E-10 1.89175E-10
 -1       751 1.04688E+06-5.80690E+04 1.36245E+05 1.82282E+03-5.38290E-09-3.41970E-10
 -1       752 1.10567E+06 6.72894E+04 9.60916E+04-3.23283E+03-1.06058E-09-1.39516E-09
 -1       753 1.06963E+06-8.99599E+03 3.52991E+04 8.42616E+02-3.18209E-10-5.85715E-10
 -1       754 1.07923E+06 1.04173E+04 2.21070E+04-1.76985E+03-8.81926E-11 4.27917E-10
 -1       755 1.07335E+06-1.39077E+03 9.08896E+03 3.60049E+02-4.61050E-10 5.39330E-10
 -1       756 1.07491E+06 1.63045E+03 5.41475E+03-1.05473E+03-5.79583E-10 4.19902E-10
 -1       757 1.07396E+06-2.35799E+02 2.68031E+03 1.27494E+02-8.30259E-10 5.72868E-10
 -1       758 1.07428E+06 4.23256E+02 2.15227E+03-7.32789E+02-1.03454E-09 1.07026E-09
 -1       759 1.07399E+06-1.86703E+02 2.21738E+03 3.80974E+01 4.61343E-10 6.19423E-10
 -1       760 1.07468E+06 1.20377E+03 4.08083E+03-6.56613E+02 3.55069E-10 1.49657E-09
 -1       761 1.07355E+06-1.01408E+03 6.67842E+03 5.13171E+01 4.24369E-10 2.52385E-11
 -1       762 1.07780E+06 7.58130E+03 1.61141E+04-7.91895E+02 1.15176E-09 1.87924E-09
 -1       763 1.07085E+06-6.54451E+03 2.56933E+04 1.73383E+02 1.16182E-09 1.42245E-09
 -1       764 1.09701E+06 4.89474E+04 6.98988E+04-1.20533E+03-7.53317E-11 2.46473E-10
 -1       765 1.05432E+06-4.22397E+04 9.90972E+04 4.64722E+02-2.08928E-10-9.82254E-10
 -1       766-2.49550E+04 1.76866E+05 5.93894E+04-2.20299E+02 1.38243E-09-2.26137E-10
 -1       767 3.09571E+04 2.03180E+05 4.55497E+04 2.17650E+01-1.50976E-10-2.44754E-10
 -1       768-5.90167E+03 1.85632E+05 2.28307E+04-8.01747E+01 6.63476E-10-8.82494E-11
 -1       769 2.00119E+04 1.98092E+05 3.11775E+04-2.49690E+02-1.60753E-10-1.12205E-10
 -1       770-1.40469E+04 1.81952E+05 3.45849E+04 5.10830E+01 1.63709E-10 6.20901E-10
 -1       771-5.80158E+05-1.17831E+05-2.21214E+04-2.50256E+05 4.67935E-10-6.03904E-10
 -1       772-5.79079E+05-1.16536E+05-1.08134E+04-2.58725E+05-1.50612E-09 1.99225E-09
 -1       773-5.80928E+05-1.09272E+05-4.59293E+03-2.53939E+05-4.27463E-10 1.25510E-09
 -1       774-5.76632E+05-1.13648E+05-2.24210E+03-2.59373E+05 9.62245E-10-2.84444E-10
 -1       775-5.81088E+05-1.08905E+05-1.03441E+03-2.54121E+05-1.14596E-10 3.09910E-10
 -1       776-5.76475E+05-1.13529E+05-5.22419E+02-2.59416E+05-2.87400E-10 1.03512E-10
 -1       777-5.81149E+05-1.08897E+05-2.84351E+02-2.54140E+05 2.27374E-10 3.66640E-11
 -1       778-5.76482E+05-1.13522E+05-2.21554E+02-2.59439E+05 7.27596E-11 4.64055E-10
 -1       779-5.81176E+05-1.08881E+05-2.78488E+02-2.54153E+05-5.18412E-11 3.38787E-10
 -1       780-5.76519E+05-1.13516E+05-5.09226E+02-2.59467E+05-3.41061E-12 3.56977E-11
 -1       781-5.81171E+05-1.08857E+05-1.00483E+03-2.54159E+05 8.23093E-11 1.80989E-10
 -1       782-5.76704E+05-1.13634E+05-2.18479E+03-2.59491E+05 2.48860E-10 4.59750E-10
 -1       783-5.81077E+05-1.09168E+05-4.46955E+03-2.53990E+05-6.65295E-10-6.34373E-10
 -1       784-5.78989E+05-1.16593E+05-1.05413E+04-2.59081E+05-7.08695E-10-1.02773E-09
 -1       785-5.80500E+05-1.17359E+05-2.15521E+04-2.50269E+05-1.35856E-10-1.04592E-10
 -1       786 1.33371E+05-4.07380E+03 1.66462E+04-7.48498E+02 1.93040E-10-2.08274E-10
 -1       787 1.39445E+05 5.40721E+03 1.07307E+04-3.30906E+03-6.54836E-11-4.24734E-10
 -1       788 1.35902E+05-4.30588E+02 4.31726E+03-7.44549E+02-2.30216E-11 2.61480E-10
 -1       789 1.36619E+05 5.51323E+02 2.42461E+03-3.31066E+03 1.10816E-10 3.94039E-10
 -1       790 1.36196E+05-4.72622E+01 1.09845E+03-7.46737E+02-6.62226E-12-9.05516E-11
 -1       791 1.36286E+05 5.56684E+01 5.92735E+02-3.30740E+03 3.32157E-10 6.11493E-10
 -1       792 1.36234E+05-5.93865E+00 3.05548E+02-7.47807E+02-4.38902E-11 1.61933E-10
 -1       793 1.36244E+05 7.91123E+00 2.08431E+02-3.30665E+03 7.12426E-11 8.20052E-10
 -1       794 1.36238E+05-3.49421E+00 1.99866E+02-7.47488E+02-7.57723E-11-2.18137E-12
 -1       795 1.36259E+05 2.70946E+01 3.13372E+02-3.30884E+03 1.16813E-10 5.57794E-11
 -1       796 1.36220E+05-2.31339E+01 5.44452E+02-7.45613E+02 6.41194E-11-1.36271E-09
 -1       797 1.36420E+05 2.66379E+02 1.17996E+03-3.31321E+03-4.45738E-10-3.48791E-10
 -1       798 1.36078E+05-2.08764E+02 2.09234E+03-7.43127E+02 4.20073E-11-1.44951E-10
 -1       799 1.37788E+05 2.61607E+03 5.19466E+03-3.31149E+03-8.32642E-10-1.58673E-09
 -1       800 1.34853E+05-1.97222E+03 8.05594E+03-7.47422E+02 4.39968E-11-1.88720E-10
 -1       801-4.58004E+03 1.34768E+05 1.91207E+04-7.56435E+04 1.90994E-10 8.64020E-10
 -1       802 8.71800E+03 1.41604E+05 1.85121E+04-3.30390E+05 3.89264E-09 2.21598E-09
 -1       803-1.44545E+03 1.35958E+05 1.85248E+04-7.54125E+04 2.07638E-09 1.78983E-09
 -1       804 2.00277E+04 1.48329E+05 3.81628E+04-3.30378E+05 2.66664E-09-9.14497E-10
 -1       805-1.40512E+04 1.28189E+05 5.60181E+04-7.56576E+04 2.01908E-09 3.81988E-11
 -1       806-1.26687E+05-3.30181E+04-1.08981E+04-5.74497E+04 3.41117E-10-6.70298E-10
 -1       807-1.26821E+05-3.02462E+04-5.17670E+03-6.06972E+04 5.82077E-11-1.66852E-09
 -1       808-1.26642E+05-2.75173E+04-2.17790E+03-5.97777E+04 1.86446E-11-8.52651E-11
 -1       809-1.25744E+05-2.83161E+04-1.05346E+03-6.11309E+04-2.61537E-10 6.14705E-10
 -1       810-1.26669E+05-2.71511E+04-4.77153E+02-5.99433E+04 2.77737E-10 5.65024E-10
 -1       811-1.25640E+05-2.81913E+04-2.39981E+02-6.11468E+04 4.80441E-10-8.65271E-10
 -1       812-1.26678E+05-2.71415E+04-1.27073E+02-5.99506E+04 9.06368E-11-1.29739E-09
 -1       813-1.25629E+05-2.81880E+04-9.66436E+01-6.11440E+04-7.14834E-10-6.88374E-10
 -1       814-1.26678E+05-2.71424E+04-1.16208E+02-5.99501E+04-5.50097E-09-1.04951E-08
 -1       815-1.25637E+05-2.81918E+04-2.11219E+02-6.11449E+04-1.09634E-09 3.25826E-10
 -1       816-1.26668E+05-2.71518E+04-4.15151E+02-5.99430E+04-3.79487E-10-1.15961E-11
 -1       817-1.25729E+05-2.82985E+04-9.14587E+02-6.11275E+04-1.70860E-09-6.27142E-09
 -1       818-1.26642E+05-2.74727E+04-1.88959E+03-5.98009E+04 7.54653E-10-6.95763E-11
 -1       819-1.26679E+05-2.99548E+04-4.49054E+03-6.07293E+04 6.57110E-10 1.68257E-10
 -1       820-1.26662E+05-3.22592E+04-9.45285E+03-5.77988E+04-2.16914E-10-4.79986E-10
 -1       821-1.24170E+05 3.91648E+03-1.60066E+04 7.88783E+02-1.26397E-09 4.29281E-10
 -1       822-1.30008E+05-5.19970E+03-1.03187E+04 3.52444E+03-9.27571E-10-1.43609E-09
 -1       823-1.26605E+05 4.13450E+02-4.15263E+03 7.69481E+02 1.32388E-09-3.01270E-10
 -1       824-1.27294E+05-5.28370E+02-2.33349E+03 3.54930E+03-7.03892E-10-7.04176E-10
 -1       825-1.26888E+05 4.55593E+01-1.06121E+03 7.63764E+02-2.20052E-09-9.34961E-10
 -1       826-1.26976E+05-5.08056E+01-5.79899E+02 3.55846E+03-4.50245E-09 8.15987E-10
 -1       827-1.26924E+05 6.48070E+00-3.13789E+02 7.60293E+02-2.44887E-09-1.85651E-10
 -1       828-1.26939E+05-5.81104E+00-2.41702E+02 3.56403E+03-2.89212E-09 8.99881E-10
 -1       829-1.26926E+05 5.72866E+00-2.72529E+02 7.58189E+02-2.83478E-10 3.04617E-10
 -1       830-1.26967E+05-3.90325E+01-4.71085E+02 3.56648E+03 1.56368E-09 1.25226E-10
 -1       831-1.26897E+05 3.67536E+01-8.45084E+02 7.57839E+02-1.30687E-09-2.12481E-10
 -1       832-1.27219E+05-4.16025E+02-1.84850E+03 3.56536E+03 5.65905E-10 9.25326E-10
 -1       833-1.26674E+05 3.27963E+02-3.28510E+03 7.59346E+02 2.16858E-11 7.97286E-10
 -1       834-1.29367E+05-4.10978E+03-8.16094E+03 3.55509E+03-4.38831E-11 6.92467E-10
 -1       835-1.24749E+05 3.09849E+03-1.26581E+04 7.68378E+02 4.85500E-10-1.20417E-09
 -1       836-6.55269E+03 3.32393E+05 2.81716E+04-8.04153E+03-5.96629E-10 6.96900E-10
 -1       837 9.80067E+03 3.42905E+05 2.19489E+04-3.47634E+04 5.09885E-10 3.15310E-10
 -1       838-1.60966E+03 3.35751E+05 1.60106E+04-8.02881E+03-6.12090E-10 5.07427E-10
 -1       839 1.26924E+04 3.44587E+05 2.69546E+04-3.47616E+04 6.84850E-10-7.15715E-10
 -1       840-8.94825E+03 3.30707E+05 3.75802E+04-8.04316E+03-4.56566E-10-2.24190E-10
 -1       841-2.41666E+04-9.35077E+02-6.50001E+03-1.02412E+04-1.32798E-09 6.46196E-10
 -1       842-2.78183E+04-6.60347E+03-4.49971E+03-8.85118E+03-1.40017E-09-1.20860E-09
 -1       843-2.54832E+04-3.25658E+03-1.52378E+03-9.81190E+03 1.23916E-09-1.11595E-09
 -1       844-2.62926E+04-3.91095E+03-9.46374E+02-9.34424E+03 6.36248E-10-3.02748E-10
 -1       845-2.56915E+04-3.62038E+03-3.51176E+02-9.75087E+03-7.24413E-10 3.68260E-10
 -1       846-2.60519E+04-3.48720E+03-1.98793E+02-9.41258E+03-3.14703E-09-1.52281E-09
 -1       847-2.57237E+04-3.67925E+03-7.26185E+01-9.74399E+03-1.07485E-09-5.71919E-10
 -1       848-2.60125E+04-3.41444E+03-2.39488E+01-9.42020E+03 2.80932E-09 1.44777E-09
 -1       849-2.57309E+04-3.69296E+03 1.87154E+01-9.74333E+03 1.61048E-09-3.05285E-11
 -1       850-2.59882E+04-3.37385E+03 8.36299E+01-9.42561E+03 2.76545E-10 2.83466E-10
 -1       851-2.57480E+04-3.71975E+03 1.57879E+02-9.73862E+03 3.27981E-10-9.90347E-10
 -1       852-2.58717E+04-3.18217E+03 4.33092E+02-9.46164E+03 1.76600E-09-1.76371E-10
 -1       853-2.58474E+04-3.88417E+03 6.98768E+02-9.70747E+03 1.43208E-09 8.96705E-11
 -1       854-2.51619E+04-1.95319E+03 2.06635E+03-9.69659E+03-4.29168E-12-9.41668E-10
 -1       855-2.64573E+04-4.94544E+03 2.98442E+03-9.50487E+03 1.70985E-10 1.33014E-11
 -1       856-1.45249E+05 3.56193E+03-1.45646E+04 1.61391E+03-2.20348E-09-1.25510E-10
 -1       857-1.50557E+05-4.72491E+03-9.38747E+03 7.27116E+03-2.06387E-09 4.93742E-10
 -1       858-1.47465E+05 3.76583E+02-3.77824E+03 1.58148E+03-2.99610E-09 3.16504E-10
 -1       859-1.48093E+05-4.72843E+02-2.12167E+03 7.31373E+03 7.63407E-11-1.62402E-10
 -1       860-1.47723E+05 4.30060E+01-9.63362E+02 1.57103E+03 6.06860E-10-9.91406E-10
 -1       861-1.47807E+05-3.69699E+01-5.22784E+02 7.32885E+03-4.56805E-09-1.72264E-10
 -1       862-1.47757E+05 7.94162E+00-2.76160E+02 1.56630E+03 2.98996E-09-7.05910E-10
 -1       863-1.47774E+05 5.10690E+00-2.00697E+02 7.33468E+03 9.91014E-09-9.11058E-10
 -1       864-1.47759E+05 6.62050E+00-2.10704E+02 1.56519E+03 4.03202E-09-3.11360E-10
 -1       865-1.47792E+05-1.86772E+01-3.49991E+02 7.33294E+03 4.61660E-09-1.35269E-09
 -1       866-1.47738E+05 2.86428E+01-6.20381E+02 1.56804E+03 7.82336E-10 5.43409E-10
 -1       867-1.47973E+05-2.95262E+02-1.35160E+03 7.32271E+03-9.76797E-10-1.02635E-09
 -1       868-1.47574E+05 2.40219E+02-2.40112E+03 1.57546E+03 3.16959E-09-8.73001E-10
 -1       869-1.49536E+05-2.99550E+03-5.96160E+03 7.28801E+03-1.56092E-10 1.07320E-10
 -1       870-1.46167E+05 2.26226E+03-9.24859E+03 1.60300E+03 1.80648E-09-3.72893E-11
 -1       871-1.23814E+03-1.18935E+04-2.23326E+03 3.35670E+04 1.36697E-09-2.16005E-11
 -1       872-3.82295E+02-1.22845E+04-6.42067E+02 3.90948E+04-7.45786E-11-1.09640E-09
 -1       873 3.92101E+01-1.21354E+04 6.78311E+02 3.35026E+04 1.63755E-09-2.65118E-09
 -1       874 8.21497E+02-1.16034E+04 2.49937E+03 3.91254E+04-8.59700E-10-2.17768E-09
 -1       875 2.67395E+03-1.25854E+04 5.40063E+03 3.35386E+04 7.64203E-10 1.10197E-09
 -1       876 1.69097E+05 2.08311E+04 1.60620E+04 6.63114E+04 3.41686E-09 1.51704E-09
 -1       877 1.72888E+05 3.36667E+04 1.02048E+04 6.85130E+04 9.80705E-10 3.73780E-09
 -1       878 1.71906E+05 2.46616E+04 3.79338E+03 6.58621E+04 2.85803E-09-1.03682E-10
 -1       879 1.69662E+05 2.87773E+04 2.10281E+03 6.92304E+04-1.24783E-09 4.44288E-10
 -1       880 1.72230E+05 2.50903E+04 8.86581E+02 6.58286E+04-1.46315E-10-1.01693E-09
 -1       881 1.69290E+05 2.82405E+04 4.78153E+02 6.92819E+04-4.65747E-10 7.43512E-10
 -1       882 1.72266E+05 2.51417E+04 2.53808E+02 6.58305E+04 2.95663E-09 1.90174E-09
 -1       883 1.69254E+05 2.81855E+04 2.18670E+02 6.92790E+04-4.26781E-09 1.66169E-09
 -1       884 1.72263E+05 2.51421E+04 2.83748E+02 6.58319E+04-1.41541E-09 1.83819E-09
 -1       885 1.69306E+05 2.82478E+04 5.61362E+02 6.92745E+04 7.42020E-09 1.66223E-09
 -1       886 1.72216E+05 2.50843E+04 1.05427E+03 6.58332E+04 3.62165E-09-3.47723E-09
 -1       887 1.69756E+05 2.88829E+04 2.50834E+03 6.92050E+04-2.73018E-09-3.05482E-09
 -1       888 1.71825E+05 2.45758E+04 4.52784E+03 6.58763E+04-1.28194E-09-7.08951E-10
 -1       889 1.73610E+05 3.47172E+04 1.21824E+04 6.83436E+04 4.81532E-09-3.62206E-10
 -1       890 1.68471E+05 2.00038E+04 1.91754E+04 6.64128E+04 2.86332E-09 1.87720E-09
 -1       891 6.44167E+02-7.49154E+04-2.85830E+03 7.02598E+03 7.85349E-10-6.98037E-11
 -1       892-1.02974E+03-7.59645E+04-2.32556E+03 3.06564E+04 1.43592E-09 2.23679E-11
 -1       893 1.83414E+02-7.52343E+04-1.85750E+03 6.99500E+03 6.85247E-10 4.74436E-10
 -1       894-1.62103E+03-7.63070E+04-3.34812E+03 3.06541E+04 1.66392E-09-1.36100E-09
 -1       895 1.13311E+03-7.45707E+04-4.78015E+03 7.02816E+03 5.30235E-10 4.29054E-10
 -1       896 3.12499E+05-2.39572E+03 5.61417E+03 3.77240E+02 3.93030E-10 9.70203E-10
 -1       897 3.14913E+05 2.77531E+03 3.96541E+03-9.82406E+02 1.51434E-10 5.86851E-10
 -1       898 3.13439E+05-3.71166E+02 1.45875E+03 2.46248E+02 1.38201E-10 3.90060E-10
 -1       899 3.13818E+05 4.30191E+02 9.21548E+02-7.66987E+02 9.55520E-11 1.30115E-10
 -1       900 3.13594E+05-5.79826E+01 3.93110E+02 1.61821E+02 1.26494E-10 7.30154E-11
 -1       901 3.13641E+05 7.21051E+01 2.63545E+02-6.33638E+02 1.86846E-10-5.07647E-11
 -1       902 3.13617E+05-1.40017E+01 1.86000E+02 1.12897E+02 8.43698E-11-8.93574E-11
 -1       903 3.13630E+05 5.01533E+01 2.54599E+02-5.64964E+02-3.96447E-11-1.53941E-10
 -1       904 3.13604E+05-3.60343E+01 3.93238E+02 9.31461E+01 1.04028E-10-1.82936E-10
 -1       905 3.13743E+05 2.63635E+02 8.60202E+02-5.52238E+02 2.18436E-10-3.05604E-10
 -1       906 3.13503E+05-2.26907E+02 1.47244E+03 1.00170E+02 4.23483E-12-3.79430E-10
 -1       907 3.14450E+05 1.70191E+03 3.60356E+03-5.93924E+02 1.11797E-10-3.64366E-11
 -1       908 3.12897E+05-1.46996E+03 5.76046E+03 1.34834E+02 1.25151E-10 7.48059E-11
 -1       909 3.18767E+05 1.09947E+04 1.56925E+04-6.96224E+02 3.45452E-10-7.00311E-11
 -1       910 3.09185E+05-9.48882E+03 2.22452E+04 2.02467E+02 4.36032E-10 1.10958E-10
 -1       911 9.49262E+04-1.25791E+03 2.94798E+03 1.58168E+02 1.04215E-10 4.97380E-10
 -1       912 9.61995E+04 1.45745E+03 2.08328E+03-6.43570E+02-7.39515E-11 5.38591E-11
 -1       913 9.54195E+04-1.95012E+02 7.68706E+02 1.28620E+02-3.58540E-11-1.55154E-10
 -1       914 9.56254E+04 2.26571E+02 4.90215E+02-5.93780E+02-1.60265E-10-4.16186E-10
 -1       915 9.55002E+04-3.09096E+01 2.18610E+02 1.08378E+02 2.32355E-10-5.19307E-10
 -1       916 9.55339E+04 4.12852E+01 1.64597E+02-5.61907E+02 4.12741E-10-5.65640E-10
 -1       917 9.55108E+04-1.01871E+01 1.46953E+02 9.67461E+01 2.93667E-10-4.32930E-10
 -1       918 9.55392E+04 4.78620E+01 2.41814E+02-5.46811E+02 1.15913E-10-7.39607E-10
 -1       919 9.54948E+04-3.74430E+01 4.03266E+02 9.32814E+01 3.24306E-10-7.36904E-10
 -1       920 9.56621E+04 2.78194E+02 9.02867E+02-5.47875E+02 3.49637E-10-8.40615E-10
 -1       921 9.53878E+04-2.39916E+02 1.55369E+03 9.78109E+01 4.03617E-10-7.00311E-10
 -1       922 9.64105E+04 1.80004E+03 3.80890E+03-5.65118E+02 4.66963E-10-7.02755E-10
 -1       923 9.47463E+04-1.55471E+03 6.09044E+03 1.10525E+02 1.93939E-10-5.82759E-10
 -1       924 1.00976E+05 1.16283E+04 1.65950E+04-5.99551E+02 1.19764E-10-1.77579E-10
 -1       925 9.08221E+04-1.00356E+04 2.35257E+04 1.32244E+02 2.58950E-10-8.82210E-11
 -1       926-4.02714E+05 8.93465E+03-2.09368E+04-4.72674E+00 6.43832E-10-2.45564E-10
 -1       927-4.11720E+05-1.03522E+04-1.47690E+04 1.99177E+01-1.85031E-10 3.23098E-10
 -1       928-4.06206E+05 1.38400E+03-5.41758E+03-4.59710E+01 2.23377E-11 1.75760E-10
 -1       929-4.07655E+05-1.60199E+03-3.38461E+03 9.66794E+01 7.72857E-11-3.09228E-11
 -1       930-4.06776E+05 2.13252E+02-1.37365E+03-8.14899E+01-1.82645E-10 1.87299E-10
 -1       931-4.06989E+05-2.45194E+02-7.84814E+02 1.56554E+02-3.41795E-10 3.04638E-10
 -1       932-4.06872E+05 3.13363E+01-3.24228E+02-1.05847E+02-2.29656E-11 3.51434E-10
 -1       933-4.06872E+05-2.74755E+01-1.39520E+02 1.90353E+02-4.98568E-10 4.09557E-10
 -1       934-4.06893E+05-3.89378E+00 6.71553E+00-1.15289E+02-4.10246E-10 5.15506E-10
 -1       935-4.06822E+05 6.09629E+01 1.68829E+02 1.92829E+02-8.42659E-11 2.95142E-10
 -1       936-4.06921E+05-5.68924E+01 3.50542E+02-1.08324E+02-3.15462E-10 5.68448E-10
 -1       937-4.06639E+05 4.31597E+02 9.02968E+02 1.63583E+02 9.72826E-11 1.16188E-10
 -1       938-4.07076E+05-3.73419E+02 1.45706E+03-8.60423E+01 1.31585E-10-2.85354E-11
 -1       939-4.05541E+05 2.79362E+03 3.98336E+03 1.07172E+02 7.68874E-11 1.87924E-10
 -1       940-4.08018E+05-2.41113E+03 5.64972E+03-5.19118E+01-5.60085E-12 4.40878E-10
 -1       941 1.64732E+06-8.12899E+04 1.90840E+05 4.40653E+01 6.26754E-09 1.91358E-09
 -1       942 1.72949E+06 9.42071E+04 1.34557E+05 3.13252E+02 5.68726E-09-1.37334E-09
 -1       943 1.67913E+06-1.25953E+04 4.94557E+04 1.08993E+02 2.10350E-09 2.27374E-10
 -1       944 1.69254E+06 1.45876E+04 3.09741E+04 2.17215E+02 4.41065E-11-7.49424E-10
 -1       945 1.68434E+06-1.94809E+03 1.27532E+04 1.40118E+02 1.44625E-09 1.43564E-09
 -1       946 1.68651E+06 2.28771E+03 7.62211E+03 1.66048E+02-1.82796E-11 3.07318E-09
 -1       947 1.68519E+06-3.33958E+02 3.82267E+03 1.60166E+02 3.07723E-10 2.58319E-09
 -1       948 1.68564E+06 6.20870E+02 3.16020E+03 1.22413E+02-3.14546E-10 1.77835E-09
 -1       949 1.68522E+06-2.85830E+02 3.36899E+03 1.83755E+02 1.27323E-11-1.81922E-09
 -1       950 1.68629E+06 1.86953E+03 6.31576E+03 5.42738E+01 7.97872E-10 3.07352E-09
 -1       951 1.68454E+06-1.57912E+03 1.03911E+04 2.28306E+02-1.18715E-09-1.69030E-09
 -1       952 1.69116E+06 1.18099E+04 2.51066E+04-8.92222E+01-1.24978E-09-1.09867E-09
 -1       953 1.68033E+06-1.01953E+04 4.00458E+04 3.27246E+02-3.24096E-09 8.09450E-10
 -1       954 1.72106E+06 7.62537E+04 1.08920E+05-4.21544E+02-8.22985E-10-1.27875E-09
 -1       955 1.65457E+06-6.57996E+04 1.54449E+05 5.60557E+02-4.34868E-09-1.38243E-10
 -1       956-8.97570E+04-1.52248E+03-3.11382E+03 1.29862E+04 6.95400E-09 1.13687E-11
 -1       957-9.03186E+04-4.82820E+02-1.56827E+03 1.50027E+04 1.57313E-08-2.66596E-10
 -1       958-9.00071E+04-5.92495E+01-7.04833E+02 1.29077E+04 1.02932E-08-1.20406E-09
 -1       959-9.00583E+04-9.32170E+00-3.58360E+02 1.50890E+04 8.47649E-10-1.09594E-10
 -1       960-9.00341E+04 1.23752E+01-1.73775E+02 1.28996E+04-2.78305E-10-1.25044E-09
 -1       961-9.00380E+04 1.36696E+01-9.16570E+01 1.50979E+04-3.72233E-09-4.14957E-10
 -1       962-9.00405E+04 1.31388E+01-5.15282E+01 1.28987E+04-1.33082E-09-5.86510E-10
 -1       963-9.00382E+04 1.48508E+01-3.97271E+01 1.50990E+04-2.46382E-09 6.89738E-10
 -1       964-9.00427E+04 1.41593E+01-4.62086E+01 1.28984E+04-5.92991E-10-1.96451E-10
 -1       965-9.00420E+04 1.60223E+01-7.82166E+01 1.50989E+04 2.11625E-09 6.56769E-10
 -1       966-9.00408E+04 1.55978E+01-1.45909E+02 1.28988E+04-1.53871E-09-7.12475E-10
 -1       967-9.00629E+04-1.06996E+00-3.00045E+02 1.50947E+04 4.53610E-11 4.37240E-10
 -1       968-9.00215E+04-4.23185E+01-5.89380E+02 1.29027E+04 1.83718E-10-3.40833E-10
 -1       969-9.02843E+04-3.95351E+02-1.31177E+03 1.50538E+04-1.68257E-10-4.46335E-10
 -1       970-8.98148E+04-1.26513E+03-2.60412E+03 1.29404E+04 1.05524E-09-1.71372E-09
 -1       971-1.96653E+05 2.99028E+03-1.22319E+04 1.60140E+03-1.28398E-09 7.19865E-10
 -1       972-2.01102E+05-3.96736E+03-7.88402E+03 7.28349E+03-1.41790E-09 1.28898E-09
 -1       973-1.98513E+05 3.15876E+02-3.17509E+03 1.56270E+03-3.04419E-09 1.12186E-09
 -1       974-1.99034E+05-3.95952E+02-1.78573E+03 7.33639E+03 1.87242E-10 1.44996E-09
 -1       975-1.98730E+05 3.61959E+01-8.17378E+02 1.54826E+03 1.94859E-10 5.91058E-10
 -1       976-1.98796E+05-2.95985E+01-4.55901E+02 7.35805E+03-2.86454E-09 2.52174E-09
 -1       977-1.98758E+05 7.33692E+00-2.65229E+02 1.54100E+03 4.54241E-09 1.00013E-09
 -1       978-1.98773E+05 3.64846E+00-2.37373E+02 7.36761E+03 8.57182E-09 8.79311E-10
 -1       979-1.98757E+05 8.73767E+00-3.10632E+02 1.53868E+03 4.37591E-09 7.50099E-10
 -1       980-1.98810E+05-4.08329E+01-5.76385E+02 7.36701E+03 7.17347E-09 1.83153E-09
 -1       981-1.98721E+05 4.76406E+01-1.05573E+03 1.54161E+03 4.88058E-10 1.25490E-09
 -1       982-1.99125E+05-5.16693E+02-2.32240E+03 7.35535E+03-1.30848E-09 1.84659E-09
 -1       983-1.98439E+05 4.13290E+02-4.13340E+03 1.55041E+03 2.11685E-10 1.15620E-09
 -1       984-2.01824E+05-5.16796E+03-1.02710E+04 7.31771E+03-8.01492E-10 2.29522E-09
 -1       985-1.96015E+05 3.89930E+03-1.59336E+04 1.57969E+03 3.00679E-09 1.21145E-09
 -3
    1PSTEP                         3           2           1          
  100CL  102 3.12500E-01         841                     0    2           1
 -4  DISP        4    1
 -5  D1          1    2    1    0
 -5  D2          1    2    2    0
 -5  D3          1    2    3    0
 -5  ALL         1    2    0    0    1ALL
 -1         1 3.77437E-05 0.00000E+00 0.00000E+00
 -1         2 2.79762E-05 0.00000E+00 0.00000E+00
 -1         3 2.34231E-05 0.00000E+00 0.00000E+00
 -1         4 2.10200E-05 0.00000E+00 0.00000E+00
 -1         5 1.99940E-05 0.00000E+00 0.00000E+00
 -1         8 2.94779E-05-3.73687E-07 0.00000E+00
 -1         9 2.36289E-05 3.86018E-07 0.00000E+00
 -1        10 2.19836E-05-1.06033E-06 0.00000E+00
 -1        11 2.05197E-05-2.29435E-07 0.00000E+00
 -1        12 1.91614E-05 5.37183E-07 0.00000E+00
 -1        15 1.22526E-05-7.71308E-07 0.00000E+00
 -1        16 1.68145E-05 3.98348E-07 0.00000E+00
 -1        17 1.57126E-05-2.13136E-06 0.00000E+00
 -1        18 1.60692E-05-4.43019E-07 0.00000E+00
 -1        19 1.69722E-05 1.06261E-06 0.00000E+00
 -1        20 1.72446E-05 1.12282E-05 0.00000E+00
 -1        21 1.72376E-05 2.69206E-05 0.00000E+00
 -1        22 4.55422E-06-4.96457E-07 0.00000E+00
 -1        23 6.06231E-06 7.36521E-07 0.00000E+00
 -1        24 6.41638E-06-2.47799E-06 0.00000E+00
 -1        25 1.38371E-05-3.17664E-07 0.00000E+00
 -1        26 1.47812E-05 1.40675E-06 0.00000E+00
 -1        27 1.39012E-05 1.08369E-05 0.00000E+00
 -1        28 1.28690E-05 2.65505E-05 0.00000E+00
 -1        29 0.00000E+00 0.00000E+00 0.00000E+00
 -1        30 2.18192E-06 9.42219E-07 0.00000E+00
 -1        31 2.84003E-06-2.01629E-06 0.00000E+00
 -1        32 0.00000E+00 0.00000E+00 0.00000E+00
 -1        33 1.16501E-05 2.26742E-06 0.00000E+00
 -1        34 1.10207E-05 1.08032E-05 0.00000E+00
 -1        35 9.63372E-06 2.63546E-05 0.00000E+00
 -1        36 3.71527E-05 3.01234E-20 1.32349E-23
 -1        37 3.65423E-05 3.03215E-20 0.00000E+00
 -1        38 3.59331E-05-1.52975E-20-1.32349E-23
 -1        39 3.53202E-05 1.61445E-20 6.61744E-24
 -1        40 3.47072E-05 1.10675E-19-1.32349E-23
 -1        41 3.40935E-05 1.69043E-19-6.61744E-24
 -1        42 3.34797E-05 1.32174E-19 1.32349E-23
 -1        43 3.28657E-05 9.83377E-20-6.61744E-24
 -1        44 3.22518E-05 9.60109E-20-1.32349E-23
 -1        45 3.16379E-05 1.14289E-19-6.61744E-24
 -1        46 3.10241E-05 1.55965E-19 1.32349E-23
 -1        47 3.04107E-05 1.65077E-19-6.61744E-24
 -1        48 2.97975E-05 8.24211E-20-1.32349E-23
 -1        49 2.91866E-05 2.14356E-20 0.00000E+00
 -1        50 2.85750E-05 1.62913E-20 0.00000E+00
 -1        51 3.71247E-05-6.39740E-08 0.00000E+00
 -1        52 3.60929E-05-1.24875E-07 0.00000E+00
 -1        53 3.47284E-05-1.85245E-07 0.00000E+00
 -1        54 3.31150E-05-2.45941E-07 0.00000E+00
 -1        55 3.13367E-05-3.07788E-07 2.68834E-24
 -1        56 3.70119E-05-2.99455E-07 0.00000E+00
 -1        57 3.62666E-05-6.43318E-07 0.00000E+00
 -1        58 3.55285E-05-1.00208E-06 0.00000E+00
 -1        59 3.47845E-05-1.35858E-06 0.00000E+00
 -1        60 3.40316E-05-1.69188E-06 0.00000E+00
 -1        61 3.32621E-05-1.98331E-06 1.32349E-23
 -1        62 3.24700E-05-2.21506E-06-2.64698E-23
 -1        63 3.16493E-05-2.37058E-06 1.32349E-23
 -1        64 3.07945E-05-2.43555E-06 0.00000E+00
 -1        65 2.99011E-05-2.39711E-06 0.00000E+00
 -1        66 2.89654E-05-2.24556E-06 2.64698E-23
 -1        67 2.79850E-05-1.97287E-06 1.32349E-23
 -1        68 2.69578E-05-1.57504E-06 0.00000E+00
 -1        69 2.58872E-05-1.04842E-06 1.32349E-23
 -1        70 2.47681E-05-3.96855E-07 0.00000E+00
 -1        71 2.76907E-05-3.84097E-20 0.00000E+00
 -1        72 2.74056E-05-1.04476E-19-3.30872E-24
 -1        73 2.71205E-05-1.68377E-19 6.61744E-24
 -1        74 2.68355E-05-2.33399E-19 0.00000E+00
 -1        75 2.65505E-05-2.86221E-19 6.61744E-24
 -1        76 2.62656E-05-3.30759E-19 0.00000E+00
 -1        77 2.59806E-05-3.74149E-19-6.61744E-24
 -1        78 2.56956E-05-3.74755E-19 3.30872E-24
 -1        79 2.54107E-05-3.76294E-19-6.61744E-24
 -1        80 2.51258E-05-3.51289E-19 3.30872E-24
 -1        81 2.48409E-05-3.04843E-19 0.00000E+00
 -1        82 2.45561E-05-2.49105E-19 3.30872E-24
 -1        83 2.42714E-05-1.68232E-19-6.61744E-24
 -1        84 2.39875E-05-7.85710E-20 0.00000E+00
 -1        85 2.37033E-05-1.57127E-20 0.00000E+00
 -1        86 2.78179E-05 5.38303E-08-3.30872E-24
 -1        87 2.73494E-05 1.22021E-07 0.00000E+00
 -1        88 2.66352E-05 1.89082E-07 1.61559E-27
 -1        89 2.57391E-05 2.57132E-07 0.00000E+00
 -1        90 2.47181E-05 3.25742E-07 0.00000E+00
 -1        91 2.76699E-05-2.42821E-07 0.00000E+00
 -1        92 2.74445E-05-7.08283E-07 0.00000E+00
 -1        93 2.72809E-05-1.33822E-06-1.32349E-23
 -1        94 2.71561E-05-2.07314E-06-6.61744E-24
 -1        95 2.70405E-05-2.83236E-06 0.00000E+00
 -1        96 2.69035E-05-3.53495E-06 0.00000E+00
 -1        97 2.67194E-05-4.11173E-06 1.32349E-23
 -1        98 2.64630E-05-4.49542E-06 0.00000E+00
 -1        99 2.61231E-05-4.65642E-06 0.00000E+00
 -1       100 2.56899E-05-4.56835E-06 0.00000E+00
 -1       101 2.51717E-05-4.25405E-06 1.32349E-23
 -1       102 2.45786E-05-3.73957E-06 0.00000E+00
 -1       103 2.39350E-05-3.09056E-06 0.00000E+00
 -1       104 2.32674E-05-2.37407E-06 0.00000E+00
 -1       105 2.26045E-05-1.67141E-06-6.61744E-24
 -1       106 2.32711E-05 7.15160E-21 6.61744E-24
 -1       107 2.31205E-05 3.62921E-20 0.00000E+00
 -1       108 2.29699E-05 6.37891E-20 0.00000E+00
 -1       109 2.28195E-05 1.01304E-19-1.65436E-24
 -1       110 2.26691E-05 9.82267E-20 3.30872E-24
 -1       111 2.25187E-05 1.30092E-19 0.00000E+00
 -1       112 2.23684E-05 1.70447E-19 3.30872E-24
 -1       113 2.22180E-05 1.94659E-19-1.65436E-24
 -1       114 2.20677E-05 1.84243E-19 3.30872E-24
 -1       115 2.19174E-05 1.71790E-19 0.00000E+00
 -1       116 2.17671E-05 1.24937E-19 0.00000E+00
 -1       117 2.16169E-05 7.40826E-20-1.65436E-24
 -1       118 2.14668E-05 5.66966E-20 0.00000E+00
 -1       119 2.13171E-05 5.06860E-20 1.65436E-24
 -1       120 2.11673E-05 1.69394E-20 0.00000E+00
 -1       121 2.34158E-05-1.76861E-07 0.00000E+00
 -1       122 2.33598E-05-3.53396E-07 0.00000E+00
 -1       123 2.32218E-05-5.29958E-07 0.00000E+00
 -1       124 2.29684E-05-7.06558E-07 3.30872E-24
 -1       125 2.25665E-05-8.83188E-07 0.00000E+00
 -1       126 2.32656E-05-8.17112E-08 0.00000E+00
 -1       127 2.31235E-05-2.02104E-07 0.00000E+00
 -1       128 2.29920E-05-3.50755E-07-6.61744E-24
 -1       129 2.28671E-05-5.16641E-07-3.30872E-24
 -1       130 2.27439E-05-6.87028E-07 0.00000E+00
 -1       131 2.26176E-05-8.49082E-07 3.30872E-24
 -1       132 2.24838E-05-9.91134E-07 0.00000E+00
 -1       133 2.23382E-05-1.10163E-06 0.00000E+00
 -1       134 2.21775E-05-1.17186E-06-6.61744E-24
 -1       135 2.19985E-05-1.19344E-06 0.00000E+00
 -1       136 2.17999E-05-1.16253E-06 0.00000E+00
 -1       137 2.15804E-05-1.07565E-06 0.00000E+00
 -1       138 2.13407E-05-9.34758E-07 0.00000E+00
 -1       139 2.10820E-05-7.41950E-07-1.65436E-24
 -1       140 2.08064E-05-5.04699E-07 0.00000E+00
 -1       141 2.09543E-05-2.27992E-20-1.65436E-24
 -1       142 2.08894E-05-3.63043E-20 0.00000E+00
 -1       143 2.08245E-05-3.16653E-20 0.00000E+00
 -1       144 2.07597E-05-6.12941E-21 0.00000E+00
 -1       145 2.06950E-05 6.05993E-21-1.65436E-24
 -1       146 2.06303E-05 3.13063E-20-8.27181E-25
 -1       147 2.05656E-05 5.63230E-20 1.65436E-24
 -1       148 2.05009E-05 6.76823E-20 0.00000E+00
 -1       149 2.04362E-05 8.18516E-20 0.00000E+00
 -1       150 2.03716E-05 6.87442E-20 0.00000E+00
 -1       151 2.03070E-05 6.92242E-20 0.00000E+00
 -1       152 2.02426E-05 5.96746E-20 0.00000E+00
 -1       153 2.01783E-05 1.53483E-20 0.00000E+00
 -1       154 2.01151E-05-1.39185E-20 4.13590E-25
 -1       155 2.00516E-05-1.24156E-20-4.13590E-25
 -1       156 2.10268E-05-3.93260E-08 1.65436E-24
 -1       157 2.10440E-05-7.67683E-08 0.00000E+00
 -1       158 2.10365E-05-1.14354E-07 0.00000E+00
 -1       159 2.09692E-05-1.52027E-07 0.00000E+00
 -1       160 2.08082E-05-1.89543E-07 0.00000E+00
 -1       161 2.09308E-05-3.98012E-08 0.00000E+00
 -1       162 2.08453E-05-9.04235E-08 0.00000E+00
 -1       163 2.07621E-05-1.46778E-07-3.30872E-24
 -1       164 2.06791E-05-2.03855E-07 0.00000E+00
 -1       165 2.05944E-05-2.56487E-07-3.30872E-24
 -1       166 2.05061E-05-2.99547E-07-1.65436E-24
 -1       167 2.04125E-05-3.28560E-07 0.00000E+00
 -1       168 2.03120E-05-3.39106E-07 1.65436E-24
 -1       169 2.02033E-05-3.27706E-07 0.00000E+00
 -1       170 2.00852E-05-2.90945E-07-1.65436E-24
 -1       171 1.99568E-05-2.26804E-07 0.00000E+00
 -1       172 1.98176E-05-1.33273E-07 1.65436E-24
 -1       173 1.96674E-05-1.00752E-08 0.00000E+00
 -1       174 1.95072E-05 1.43529E-07-8.27181E-25
 -1       175 1.93358E-05 3.25489E-07-2.06795E-25
 -1       191 1.99646E-05 8.94285E-08 0.00000E+00
 -1       192 1.98899E-05 1.79038E-07 0.00000E+00
 -1       193 1.97708E-05 2.68687E-07-3.30872E-24
 -1       194 1.96087E-05 3.58320E-07 0.00000E+00
 -1       195 1.94050E-05 4.47882E-07 0.00000E+00
 -1       251 2.91201E-05 9.93993E-07-6.61744E-24
 -1       252 2.87539E-05 2.12122E-06 0.00000E+00
 -1       253 2.83885E-05 2.93852E-06 1.32349E-23
 -1       254 2.80216E-05 3.38104E-06 0.00000E+00
 -1       255 2.76549E-05 3.45153E-06-1.32349E-23
 -1       256 2.72877E-05 3.15834E-06 0.00000E+00
 -1       257 2.69204E-05 2.57545E-06 0.00000E+00
 -1       258 2.65530E-05 1.78117E-06 6.61744E-24
 -1       259 2.61854E-05 8.91935E-07 0.00000E+00
 -1       260 2.58179E-05 2.56383E-08 0.00000E+00
 -1       261 2.54506E-05-7.03968E-07-1.32349E-23
 -1       262 2.50837E-05-1.18521E-06 6.61744E-24
 -1       263 2.47169E-05-1.35120E-06 1.32349E-23
 -1       264 2.43519E-05-1.13979E-06 0.00000E+00
 -1       265 2.39861E-05-5.56882E-07 6.61744E-24
 -1       266 2.75202E-05-4.41609E-07 0.00000E+00
 -1       267 2.46499E-05-5.07874E-07 0.00000E+00
 -1       268 2.12764E-05-5.75820E-07-1.65436E-24
 -1       269 1.78101E-05-6.42975E-07 0.00000E+00
 -1       270 1.46646E-05-7.09236E-07 0.00000E+00
 -1       271 2.83352E-05 6.75441E-07 1.32349E-23
 -1       272 2.72979E-05 1.37650E-06 0.00000E+00
 -1       273 2.63739E-05 1.77780E-06-2.64698E-23
 -1       274 2.55435E-05 1.91997E-06-1.32349E-23
 -1       275 2.47930E-05 1.84806E-06 2.64698E-23
 -1       276 2.41051E-05 1.60751E-06 1.32349E-23
 -1       277 2.34628E-05 1.24522E-06-2.64698E-23
 -1       278 2.28481E-05 8.08870E-07 0.00000E+00
 -1       279 2.22431E-05 3.46663E-07 0.00000E+00
 -1       280 2.16297E-05-9.29737E-08 0.00000E+00
 -1       281 2.09899E-05-4.61839E-07 2.64698E-23
 -1       282 2.03063E-05-7.12129E-07 0.00000E+00
 -1       283 1.95610E-05-7.97085E-07 0.00000E+00
 -1       284 1.87399E-05-6.70046E-07 0.00000E+00
 -1       285 1.78223E-05-2.88315E-07-1.32349E-23
 -1       286 2.35240E-05 1.34367E-06-3.30872E-24
 -1       287 2.34214E-05 1.97641E-06 1.65436E-24
 -1       288 2.33187E-05 2.30818E-06-3.30872E-24
 -1       289 2.32165E-05 2.36423E-06 0.00000E+00
 -1       290 2.31142E-05 2.18422E-06-3.30872E-24
 -1       291 2.30120E-05 1.80881E-06-1.65436E-24
 -1       292 2.29097E-05 1.28891E-06 3.30872E-24
 -1       293 2.28074E-05 6.76000E-07 0.00000E+00
 -1       294 2.27051E-05 2.64581E-08 0.00000E+00
 -1       295 2.26028E-05-6.03187E-07 1.65436E-24
 -1       296 2.25004E-05-1.15747E-06-3.30872E-24
 -1       297 2.23980E-05-1.58121E-06 0.00000E+00
 -1       298 2.22957E-05-1.82609E-06 0.00000E+00
 -1       299 2.21927E-05-1.84452E-06 0.00000E+00
 -1       300 2.20899E-05-1.60081E-06 3.30872E-24
 -1       301 2.24918E-05 3.83621E-07 1.65436E-24
 -1       302 2.13498E-05 3.87890E-07 0.00000E+00
 -1       303 2.02070E-05 3.93352E-07-8.27181E-25
 -1       304 1.90675E-05 3.98668E-07-8.27181E-25
 -1       305 1.79353E-05 4.02473E-07 0.00000E+00
 -1       306 2.28100E-05 1.13355E-06 1.32349E-23
 -1       307 2.21082E-05 1.52588E-06 6.61744E-24
 -1       308 2.15209E-05 1.61446E-06 0.00000E+00
 -1       309 2.10277E-05 1.44611E-06 6.61744E-24
 -1       310 2.06118E-05 1.07058E-06 0.00000E+00
 -1       311 2.02543E-05 5.38002E-07-6.61744E-24
 -1       312 1.99365E-05-1.00539E-07 0.00000E+00
 -1       313 1.96390E-05-7.93506E-07 6.61744E-24
 -1       314 1.93424E-05-1.48903E-06 0.00000E+00
 -1       315 1.90275E-05-2.13522E-06 0.00000E+00
 -1       316 1.86748E-05-2.68052E-06-1.32349E-23
 -1       317 1.82657E-05-3.07376E-06 0.00000E+00
 -1       318 1.77810E-05-3.26475E-06 1.32349E-23
 -1       319 1.72045E-05-3.20350E-06-6.61744E-24
 -1       320 1.65152E-05-2.84318E-06-6.61744E-24
 -1       321 2.18878E-05-4.50646E-07 3.30872E-24
 -1       322 2.17960E-05-1.03566E-09 1.65436E-24
 -1       323 2.17040E-05 2.99650E-07 0.00000E+00
 -1       324 2.16127E-05 4.63121E-07 0.00000E+00
 -1       325 2.15215E-05 5.07506E-07-3.30872E-24
 -1       326 2.14304E-05 4.51378E-07 0.00000E+00
 -1       327 2.13394E-05 3.18007E-07-3.30872E-24
 -1       328 2.12483E-05 1.30956E-07 1.65436E-24
 -1       329 2.11573E-05-8.37011E-08 0.00000E+00
 -1       330 2.10663E-05-2.99795E-07 0.00000E+00
 -1       331 2.09752E-05-4.91081E-07 3.30872E-24
 -1       332 2.08842E-05-6.31411E-07 0.00000E+00
 -1       333 2.07932E-05-6.97019E-07 0.00000E+00
 -1       334 2.07021E-05-6.64416E-07 1.65436E-24
 -1       335 2.06110E-05-5.14709E-07 0.00000E+00
 -1       336 2.11856E-05-1.23987E-06-6.61744E-24
 -1       337 2.02219E-05-1.41909E-06-3.30872E-24
 -1       338 1.91426E-05-1.59835E-06 0.00000E+00
 -1       339 1.79977E-05-1.77711E-06-3.30872E-24
 -1       340 1.68376E-05-1.95594E-06 3.30872E-24
 -1       341 2.14161E-05-4.82376E-07 0.00000E+00
 -1       342 2.08424E-05 9.66270E-08 3.30872E-24
 -1       343 2.02848E-05 6.33451E-07 6.61744E-24
 -1       344 1.97591E-05 1.08286E-06 0.00000E+00
 -1       345 1.92770E-05 1.41596E-06-6.61744E-24
 -1       346 1.88489E-05 1.60495E-06 6.61744E-24
 -1       347 1.84756E-05 1.64758E-06 0.00000E+00
 -1       348 1.81574E-05 1.54349E-06 0.00000E+00
 -1       349 1.78844E-05 1.31858E-06 1.32349E-23
 -1       350 1.76466E-05 1.00033E-06 0.00000E+00
 -1       351 1.74274E-05 6.32287E-07 0.00000E+00
 -1       352 1.72108E-05 2.58796E-07 3.30872E-24
 -1       353 1.69794E-05-7.49281E-08 0.00000E+00
 -1       354 1.67186E-05-3.23095E-07-3.30872E-24
 -1       355 1.64140E-05-4.57047E-07 6.61744E-24
 -1       356 2.04335E-05 8.16059E-08 0.00000E+00
 -1       357 2.03478E-05 3.07751E-07 0.00000E+00
 -1       358 2.02621E-05 4.56375E-07-3.30872E-24
 -1       359 2.01764E-05 5.35123E-07 1.65436E-24
 -1       360 2.00908E-05 5.54713E-07-3.30872E-24
 -1       361 2.00052E-05 5.26076E-07 0.00000E+00
 -1       362 1.99196E-05 4.62263E-07-3.30872E-24
 -1       363 1.98341E-05 3.76448E-07 1.65436E-24
 -1       364 1.97485E-05 2.82773E-07 0.00000E+00
 -1       365 1.96630E-05 1.95408E-07 0.00000E+00
 -1       366 1.95775E-05 1.28247E-07 0.00000E+00
 -1       367 1.94923E-05 9.51110E-08 8.27181E-25
 -1       368 1.94071E-05 1.08324E-07-1.65436E-24
 -1       369 1.93232E-05 1.80050E-07 0.00000E+00
 -1       370 1.92389E-05 3.19885E-07-5.16988E-26
 -1       371 1.99994E-05-2.67715E-07 1.65436E-24
 -1       372 1.91611E-05-3.03596E-07 0.00000E+00
 -1       373 1.81769E-05-3.39740E-07 0.00000E+00
 -1       374 1.72190E-05-3.74989E-07 0.00000E+00
 -1       375 1.64593E-05-4.10188E-07 0.00000E+00
 -1       376 2.02340E-05 2.83597E-08 0.00000E+00
 -1       377 1.99708E-05 2.17514E-07-1.65436E-24
 -1       378 1.97317E-05 3.42927E-07-6.61744E-24
 -1       379 1.95144E-05 4.08498E-07 3.30872E-24
 -1       380 1.93157E-05 4.24459E-07 0.00000E+00
 -1       381 1.91317E-05 4.01150E-07 0.00000E+00
 -1       382 1.89570E-05 3.52881E-07 0.00000E+00
 -1       383 1.87862E-05 2.94102E-07 0.00000E+00
 -1       384 1.86136E-05 2.40408E-07 0.00000E+00
 -1       385 1.84332E-05 2.07378E-07 3.30872E-24
 -1       386 1.82402E-05 2.08226E-07 0.00000E+00
 -1       387 1.80299E-05 2.56039E-07 3.30872E-24
 -1       388 1.77988E-05 3.59285E-07 0.00000E+00
 -1       389 1.75455E-05 5.26757E-07 0.00000E+00
 -1       390 1.72670E-05 7.59529E-07 0.00000E+00
 -1       406 1.88633E-05 6.25203E-07 0.00000E+00
 -1       407 1.85319E-05 7.13367E-07-1.65436E-24
 -1       408 1.81720E-05 8.01499E-07-3.30872E-24
 -1       409 1.77887E-05 8.89417E-07 0.00000E+00
 -1       410 1.73870E-05 9.76862E-07 0.00000E+00
 -1       466 1.25256E-05 9.13984E-07 3.30872E-24
 -1       467 1.28116E-05 1.93257E-06 0.00000E+00
 -1       468 1.30972E-05 2.43866E-06 0.00000E+00
 -1       469 1.33852E-05 2.58028E-06 0.00000E+00
 -1       470 1.36733E-05 2.44793E-06 0.00000E+00
 -1       471 1.39618E-05 2.12887E-06-3.30872E-24
 -1       472 1.42503E-05 1.68080E-06 0.00000E+00
 -1       473 1.45388E-05 1.15991E-06 0.00000E+00
 -1       474 1.48273E-05 6.10829E-07 6.61744E-24
 -1       475 1.51157E-05 7.78919E-08 3.30872E-24
 -1       476 1.54041E-05-3.92030E-07-6.61744E-24
 -1       477 1.56917E-05-7.51327E-07 0.00000E+00
 -1       478 1.59793E-05-9.34883E-07 6.61744E-24
 -1       479 1.62634E-05-8.75487E-07 0.00000E+00
 -1       480 1.65485E-05-4.67649E-07-1.65436E-24
 -1       481 1.03617E-05-7.28264E-07-4.13590E-25
 -1       482 8.74198E-06-6.82446E-07 4.13590E-25
 -1       483 7.37088E-06-6.36421E-07 0.00000E+00
 -1       484 6.22661E-06-5.89806E-07 8.27181E-25
 -1       485 5.29299E-06-5.42918E-07 0.00000E+00
 -1       486 1.12111E-05 1.10042E-06 6.61744E-24
 -1       487 1.01945E-05 2.86906E-06-3.30872E-24
 -1       488 9.26410E-06 4.41155E-06 0.00000E+00
 -1       489 8.46391E-06 5.60163E-06-3.30872E-24
 -1       490 7.81982E-06 6.37668E-06 0.00000E+00
 -1       491 7.35310E-06 6.67843E-06 0.00000E+00
 -1       492 7.05450E-06 6.53198E-06 6.61744E-24
 -1       493 6.91227E-06 5.96809E-06 0.00000E+00
 -1       494 6.88739E-06 5.09071E-06 6.61744E-24
 -1       495 6.93940E-06 4.00790E-06 0.00000E+00
 -1       496 7.01438E-06 2.86380E-06-6.61744E-24
 -1       497 7.05844E-06 1.80340E-06 0.00000E+00
 -1       498 7.02250E-06 9.56905E-07 6.61744E-24
 -1       499 6.86061E-06 4.52559E-07 3.30872E-24
 -1       500 6.54471E-06 3.56966E-07-6.61744E-24
 -1       501 1.67408E-05 1.29802E-06-3.30872E-24
 -1       502 1.66718E-05 1.79779E-06-1.65436E-24
 -1       503 1.66026E-05 1.94213E-06-3.30872E-24
 -1       504 1.65342E-05 1.77649E-06-8.27181E-25
 -1       505 1.64658E-05 1.35723E-06 1.65436E-24
 -1       506 1.63975E-05 7.41437E-07 8.27181E-25
 -1       507 1.63291E-05-6.91795E-09 1.65436E-24
 -1       508 1.62607E-05-8.23502E-07 8.27181E-25
 -1       509 1.61923E-05-1.64157E-06-1.65436E-24
 -1       510 1.61240E-05-2.39437E-06 0.00000E+00
 -1       511 1.60557E-05-3.01746E-06-1.65436E-24
 -1       512 1.59875E-05-3.44675E-06 0.00000E+00
 -1       513 1.59193E-05-3.62495E-06 0.00000E+00
 -1       514 1.58510E-05-3.49547E-06 0.00000E+00
 -1       515 1.57825E-05-3.01254E-06 3.30872E-24
 -1       516 1.54063E-05 4.48028E-07 0.00000E+00
 -1       517 1.34140E-05 5.06251E-07 0.00000E+00
 -1       518 1.11606E-05 5.63316E-07-4.13590E-25
 -1       519 8.96787E-06 6.21449E-07 0.00000E+00
 -1       520 7.16009E-06 6.80672E-07 1.03398E-25
 -1       521 1.58639E-05 1.07659E-06 0.00000E+00
 -1       522 1.50240E-05 1.40159E-06-6.61744E-24
 -1       523 1.42975E-05 1.42643E-06 0.00000E+00
 -1       524 1.36628E-05 1.19783E-06 0.00000E+00
 -1       525 1.31038E-05 7.66389E-07-2.64698E-23
 -1       526 1.26011E-05 1.83077E-07-1.32349E-23
 -1       527 1.21357E-05-4.99900E-07 2.64698E-23
 -1       528 1.16878E-05-1.22981E-06 0.00000E+00
 -1       529 1.12375E-05-1.95355E-06 2.64698E-23
 -1       530 1.07652E-05-2.61808E-06 1.32349E-23
 -1       531 1.02510E-05-3.17078E-06 1.32349E-23
 -1       532 9.67604E-06-3.55967E-06 0.00000E+00
 -1       533 9.02093E-06-3.73406E-06-1.32349E-23
 -1       534 8.26962E-06-3.64378E-06 6.61744E-24
 -1       535 7.40088E-06-3.24247E-06 0.00000E+00
 -1       536 1.57290E-05-1.17665E-06 0.00000E+00
 -1       537 1.57506E-05-4.51288E-07 0.00000E+00
 -1       538 1.57723E-05 6.95917E-08-2.06795E-25
 -1       539 1.57948E-05 4.10984E-07 0.00000E+00
 -1       540 1.58175E-05 5.97799E-07 4.13590E-25
 -1       541 1.58404E-05 6.54932E-07 2.06795E-25
 -1       542 1.58633E-05 6.07247E-07 0.00000E+00
 -1       543 1.58862E-05 4.79586E-07 4.13590E-25
 -1       544 1.59091E-05 2.96775E-07 0.00000E+00
 -1       545 1.59321E-05 8.36256E-08-4.13590E-25
 -1       546 1.59550E-05-1.35054E-07 0.00000E+00
 -1       547 1.59779E-05-3.34457E-07-4.13590E-25
 -1       548 1.60008E-05-4.89776E-07-8.27181E-25
 -1       549 1.60237E-05-5.76196E-07 0.00000E+00
 -1       550 1.60466E-05-5.68867E-07-8.27181E-25
 -1       551 1.43229E-05-2.18877E-06 4.39440E-25
 -1       552 1.27790E-05-2.24453E-06 4.13590E-25
 -1       553 1.11480E-05-2.30023E-06 0.00000E+00
 -1       554 9.49849E-06-2.35650E-06 1.65436E-24
 -1       555 7.89882E-06-2.41407E-06 0.00000E+00
 -1       556 1.53010E-05-1.24067E-06 0.00000E+00
 -1       557 1.49674E-05-5.52839E-07 0.00000E+00
 -1       558 1.47030E-05-4.82891E-08 0.00000E+00
 -1       559 1.44996E-05 2.94461E-07 0.00000E+00
 -1       560 1.43488E-05 4.96932E-07 0.00000E+00
 -1       561 1.42426E-05 5.80833E-07 0.00000E+00
 -1       562 1.41727E-05 5.67886E-07 0.00000E+00
 -1       563 1.41311E-05 4.79837E-07 0.00000E+00
 -1       564 1.41094E-05 3.38441E-07 0.00000E+00
 -1       565 1.40996E-05 1.65454E-07 0.00000E+00
 -1       566 1.40934E-05-1.73588E-08-1.65436E-24
 -1       567 1.40829E-05-1.88232E-07 0.00000E+00
 -1       568 1.40598E-05-3.25404E-07-4.13590E-25
 -1       569 1.40161E-05-4.07138E-07-6.97934E-25
 -1       570 1.39439E-05-4.11713E-07 4.13590E-25
 -1       571 1.61233E-05-3.04842E-07-1.55096E-25
 -1       572 1.61792E-05-2.08814E-07 2.06795E-25
 -1       573 1.62355E-05-1.47518E-07 0.00000E+00
 -1       574 1.62921E-05-1.13154E-07 8.27181E-25
 -1       575 1.63488E-05-9.78942E-08 1.65436E-24
 -1       576 1.64056E-05-9.38580E-08 8.27181E-25
 -1       577 1.64623E-05-9.31630E-08 0.00000E+00
 -1       578 1.65191E-05-8.79200E-08 0.00000E+00
 -1       579 1.65758E-05-7.02393E-08 0.00000E+00
 -1       580 1.66326E-05-3.22311E-08 1.65436E-24
 -1       581 1.66894E-05 3.39933E-08 0.00000E+00
 -1       582 1.67461E-05 1.36316E-07 0.00000E+00
 -1       583 1.68028E-05 2.82612E-07 0.00000E+00
 -1       584 1.68595E-05 4.80682E-07 0.00000E+00
 -1       585 1.69160E-05 7.38288E-07 0.00000E+00
 -1       586 1.57455E-05-4.21725E-07-1.65436E-24
 -1       587 1.53751E-05-4.00223E-07 0.00000E+00
 -1       588 1.49783E-05-3.78738E-07-8.27181E-25
 -1       589 1.45759E-05-3.57465E-07 1.16322E-25
 -1       590 1.41887E-05-3.36677E-07 0.00000E+00
 -1       591 1.59750E-05-2.83817E-07 0.00000E+00
 -1       592 1.58889E-05-1.52430E-07 0.00000E+00
 -1       593 1.58108E-05-4.38214E-08 0.00000E+00
 -1       594 1.57392E-05 4.66705E-08-8.27181E-25
 -1       595 1.56726E-05 1.23704E-07 0.00000E+00
 -1       596 1.56092E-05 1.91912E-07 0.00000E+00
 -1       597 1.55474E-05 2.55921E-07 0.00000E+00
 -1       598 1.54855E-05 3.20354E-07 0.00000E+00
 -1       599 1.54217E-05 3.89836E-07 0.00000E+00
 -1       600 1.53542E-05 4.68988E-07 4.13590E-25
 -1       601 1.52814E-05 5.62433E-07 4.13590E-25
 -1       602 1.52015E-05 6.74801E-07-2.06795E-25
 -1       603 1.51129E-05 8.10721E-07-4.13590E-25
 -1       604 1.50141E-05 9.74848E-07-5.16988E-26
 -1       605 1.49034E-05 1.17185E-06 0.00000E+00
 -1       606 1.69912E-05 1.49178E-06 0.00000E+00
 -1       607 1.70088E-05 1.96074E-06 0.00000E+00
 -1       608 1.70261E-05 2.46714E-06-1.65436E-24
 -1       609 1.70431E-05 3.00833E-06 8.27181E-25
 -1       610 1.70600E-05 3.58165E-06 0.00000E+00
 -1       611 1.70769E-05 4.18436E-06 0.00000E+00
 -1       612 1.70938E-05 4.81375E-06 0.00000E+00
 -1       613 1.71106E-05 5.46708E-06-8.27181E-25
 -1       614 1.71274E-05 6.14164E-06-1.65436E-24
 -1       615 1.71443E-05 6.83467E-06 0.00000E+00
 -1       616 1.71611E-05 7.54346E-06 0.00000E+00
 -1       617 1.71778E-05 8.26528E-06 8.27181E-25
 -1       618 1.71946E-05 8.99739E-06 0.00000E+00
 -1       619 1.72114E-05 9.73708E-06 0.00000E+00
 -1       620 1.72281E-05 1.04816E-05-4.13590E-25
 -1       621 1.65656E-05 1.12009E-06-1.65436E-24
 -1       622 1.61693E-05 1.17793E-06 0.00000E+00
 -1       623 1.57881E-05 1.23581E-06-1.65436E-24
 -1       624 1.54266E-05 1.29354E-06 0.00000E+00
 -1       625 1.50895E-05 1.35095E-06 8.27181E-25
 -1       626 1.68425E-05 1.51109E-06 0.00000E+00
 -1       627 1.66964E-05 2.00104E-06 0.00000E+00
 -1       628 1.65360E-05 2.52871E-06 1.65436E-24
 -1       629 1.63629E-05 3.08979E-06 0.00000E+00
 -1       630 1.61788E-05 3.67997E-06 0.00000E+00
 -1       631 1.59855E-05 4.29488E-06 0.00000E+00
 -1       632 1.57845E-05 4.93011E-06 0.00000E+00
 -1       633 1.55775E-05 5.58128E-06 0.00000E+00
 -1       634 1.53662E-05 6.24400E-06 0.00000E+00
 -1       635 1.51522E-05 6.91387E-06 0.00000E+00
 -1       636 1.49371E-05 7.58650E-06 0.00000E+00
 -1       637 1.47226E-05 8.25750E-06-4.13590E-25
 -1       638 1.45103E-05 8.92245E-06 8.27181E-25
 -1       639 1.43018E-05 9.57697E-06-2.06795E-25
 -1       640 1.40986E-05 1.02166E-05 0.00000E+00
 -1       641 1.72452E-05 1.20043E-05 2.06795E-25
 -1       642 1.72452E-05 1.28627E-05 0.00000E+00
 -1       643 1.72451E-05 1.37918E-05 0.00000E+00
 -1       644 1.72448E-05 1.47796E-05 0.00000E+00
 -1       645 1.72446E-05 1.58144E-05 0.00000E+00
 -1       646 1.72442E-05 1.68844E-05 0.00000E+00
 -1       647 1.72438E-05 1.79777E-05 6.46235E-27
 -1       648 1.72435E-05 1.90825E-05 0.00000E+00
 -1       649 1.72431E-05 2.01871E-05-6.46235E-27
 -1       650 1.72427E-05 2.12797E-05 0.00000E+00
 -1       651 1.72423E-05 2.23484E-05 0.00000E+00
 -1       652 1.72418E-05 2.33814E-05-5.16988E-26
 -1       653 1.72414E-05 2.43670E-05 0.00000E+00
 -1       654 1.72407E-05 2.52932E-05 0.00000E+00
 -1       655 1.72402E-05 2.61484E-05 8.27181E-25
 -1       656 1.65707E-05 1.11652E-05 0.00000E+00
 -1       657 1.59854E-05 1.10989E-05-8.27181E-25
 -1       658 1.54573E-05 1.10328E-05-1.65436E-24
 -1       659 1.49549E-05 1.09666E-05 0.00000E+00
 -1       660 1.44467E-05 1.09003E-05-8.27181E-25
 -1       661 1.70283E-05 1.20266E-05 1.65436E-24
 -1       662 1.67904E-05 1.28905E-05 0.00000E+00
 -1       663 1.65316E-05 1.38096E-05 0.00000E+00
 -1       664 1.62560E-05 1.47747E-05-8.27181E-25
 -1       665 1.59666E-05 1.57762E-05 0.00000E+00
 -1       666 1.56672E-05 1.68050E-05 8.27181E-25
 -1       667 1.53610E-05 1.78518E-05 1.65436E-24
 -1       668 1.50515E-05 1.89073E-05 0.00000E+00
 -1       669 1.47422E-05 1.99622E-05 1.65436E-24
 -1       670 1.44366E-05 2.10073E-05 0.00000E+00
 -1       671 1.41381E-05 2.20334E-05 0.00000E+00
 -1       672 1.38502E-05 2.30312E-05 0.00000E+00
 -1       673 1.35763E-05 2.39913E-05 0.00000E+00
 -1       674 1.33195E-05 2.49043E-05 0.00000E+00
 -1       675 1.30840E-05 2.57610E-05 0.00000E+00
 -1       676 1.65076E-05 2.68588E-05 0.00000E+00
 -1       677 1.57783E-05 2.67967E-05 0.00000E+00
 -1       678 1.50497E-05 2.67346E-05-1.65436E-24
 -1       679 1.43219E-05 2.66727E-05 8.27181E-25
 -1       680 1.35950E-05 2.66107E-05 0.00000E+00
 -1       681 4.64624E-06 4.10290E-08-1.65436E-24
 -1       682 4.74096E-06 3.73413E-07 1.65436E-24
 -1       683 4.83556E-06 5.37876E-07 3.30872E-24
 -1       684 4.93066E-06 5.70930E-07-1.65436E-24
 -1       685 5.02578E-06 5.02467E-07-3.30872E-24
 -1       686 5.12099E-06 3.61978E-07 1.65436E-24
 -1       687 5.21620E-06 1.75322E-07-3.30872E-24
 -1       688 5.31142E-06-3.18225E-08-1.65436E-24
 -1       689 5.40664E-06-2.34817E-07 0.00000E+00
 -1       690 5.50181E-06-4.09002E-07 0.00000E+00
 -1       691 5.59696E-06-5.28262E-07 0.00000E+00
 -1       692 5.69189E-06-5.66273E-07 0.00000E+00
 -1       693 5.78678E-06-4.92608E-07 1.65436E-24
 -1       694 5.88048E-06-2.76401E-07 0.00000E+00
 -1       695 5.97452E-06 1.20391E-07 8.27181E-25
 -1       696 3.85965E-06-4.15885E-07 0.00000E+00
 -1       697 3.06496E-06-3.33201E-07 0.00000E+00
 -1       698 2.22587E-06-2.50675E-07 0.00000E+00
 -1       699 1.39793E-06-1.67530E-07 0.00000E+00
 -1       700 6.37213E-07-8.43841E-08 3.30872E-24
 -1       701 4.23705E-06 5.90816E-08 1.65436E-24
 -1       702 3.95252E-06 5.11387E-07-8.27181E-25
 -1       703 3.70589E-06 8.63813E-07 3.30872E-24
 -1       704 3.49523E-06 1.11747E-06 0.00000E+00
 -1       705 3.31868E-06 1.28020E-06 0.00000E+00
 -1       706 3.17310E-06 1.35982E-06 0.00000E+00
 -1       707 3.05384E-06 1.36924E-06-3.30872E-24
 -1       708 2.95595E-06 1.32161E-06 0.00000E+00
 -1       709 2.87324E-06 1.23347E-06 0.00000E+00
 -1       710 2.79948E-06 1.12155E-06-1.65436E-24
 -1       711 2.72786E-06 1.00396E-06 0.00000E+00
 -1       712 2.65173E-06 8.98931E-07 1.65436E-24
 -1       713 2.56439E-06 8.23819E-07 0.00000E+00
 -1       714 2.46030E-06 7.96291E-07 8.27181E-25
 -1       715 2.33272E-06 8.30322E-07-1.65436E-24
 -1       716 6.08198E-06 1.28174E-06 0.00000E+00
 -1       717 6.10502E-06 1.46736E-06-5.16988E-26
 -1       718 6.12787E-06 1.35192E-06 0.00000E+00
 -1       719 6.15127E-06 9.93643E-07-2.06795E-25
 -1       720 6.17462E-06 4.47757E-07 0.00000E+00
 -1       721 6.19801E-06-2.30674E-07 0.00000E+00
 -1       722 6.22135E-06-9.88229E-07 8.27181E-25
 -1       723 6.24469E-06-1.77158E-06 0.00000E+00
 -1       724 6.26803E-06-2.52770E-06 0.00000E+00
 -1       725 6.29136E-06-3.20355E-06 0.00000E+00
 -1       726 6.31473E-06-3.74508E-06 0.00000E+00
 -1       727 6.33783E-06-4.09812E-06 0.00000E+00
 -1       728 6.36093E-06-4.20618E-06 1.03398E-25
 -1       729 6.38228E-06-4.01251E-06 0.00000E+00
 -1       730 6.40407E-06-3.45671E-06 0.00000E+00
 -1       731 5.30690E-06 7.67493E-07 0.00000E+00
 -1       732 4.50239E-06 8.02147E-07-2.06795E-25
 -1       733 3.71785E-06 8.36580E-07 0.00000E+00
 -1       734 3.02236E-06 8.71724E-07 4.13590E-25
 -1       735 2.48673E-06 9.07011E-07 8.27181E-25
 -1       736 5.57751E-06 1.34105E-06-3.30872E-24
 -1       737 5.11544E-06 1.86306E-06 0.00000E+00
 -1       738 4.69692E-06 2.27055E-06-6.61744E-24
 -1       739 4.33285E-06 2.52907E-06 3.30872E-24
 -1       740 4.02968E-06 2.62525E-06 6.61744E-24
 -1       741 3.79178E-06 2.54671E-06 0.00000E+00
 -1       742 3.61513E-06 2.30474E-06 0.00000E+00
 -1       743 3.49487E-06 1.91216E-06 0.00000E+00
 -1       744 3.41862E-06 1.40211E-06 0.00000E+00
 -1       745 3.37355E-06 8.08898E-07 0.00000E+00
 -1       746 3.34263E-06 1.77934E-07-6.61744E-24
 -1       747 3.30892E-06-4.44901E-07 0.00000E+00
 -1       748 3.25546E-06-1.01496E-06 0.00000E+00
 -1       749 3.16687E-06-1.48762E-06 0.00000E+00
 -1       750 3.02982E-06-1.83226E-06 6.61744E-24
 -1       751 6.85270E-06-1.46908E-06 0.00000E+00
 -1       752 7.31645E-06-8.16706E-07-3.30872E-24
 -1       753 7.77864E-06-4.24611E-07 0.00000E+00
 -1       754 8.24602E-06-2.01634E-07 0.00000E+00
 -1       755 8.71359E-06-1.01334E-07 1.32349E-23
 -1       756 9.18217E-06-7.96513E-08-6.61744E-24
 -1       757 9.65088E-06-1.13380E-07 0.00000E+00
 -1       758 1.01198E-05-1.80387E-07 0.00000E+00
 -1       759 1.05887E-05-2.67374E-07 0.00000E+00
 -1       760 1.10575E-05-3.61430E-07-6.61744E-24
 -1       761 1.15262E-05-4.51519E-07 0.00000E+00
 -1       762 1.19942E-05-5.26529E-07 6.61744E-24
 -1       763 1.24620E-05-5.71347E-07 0.00000E+00
 -1       764 1.29261E-05-5.70277E-07 0.00000E+00
 -1       765 1.33915E-05-4.95479E-07 6.61744E-24
 -1       766 5.32274E-06-2.40995E-06 1.65436E-24
 -1       767 4.42748E-06-2.33046E-06 5.16988E-26
 -1       768 3.72900E-06-2.25159E-06 8.27181E-25
 -1       769 3.22643E-06-2.17161E-06 0.00000E+00
 -1       770 2.92735E-06-2.09107E-06-5.16988E-26
 -1       771 5.72202E-06-1.52762E-06 0.00000E+00
 -1       772 5.08902E-06-7.53568E-07-6.61744E-24
 -1       773 4.51576E-06-1.40982E-07 1.32349E-23
 -1       774 3.99700E-06 3.25138E-07 0.00000E+00
 -1       775 3.52745E-06 6.59817E-07 1.32349E-23
 -1       776 3.10150E-06 8.78147E-07 0.00000E+00
 -1       777 2.71352E-06 9.95244E-07 0.00000E+00
 -1       778 2.35783E-06 1.02625E-06 6.61744E-24
 -1       779 2.02876E-06 9.86333E-07 1.32349E-23
 -1       780 1.72060E-06 8.90674E-07-6.61744E-24
 -1       781 1.42768E-06 7.54477E-07-1.32349E-23
 -1       782 1.14434E-06 5.92967E-07 0.00000E+00
 -1       783 8.64939E-07 4.21375E-07-6.61744E-24
 -1       784 5.84100E-07 2.55007E-07 0.00000E+00
 -1       785 2.96502E-07 1.09177E-07 0.00000E+00
 -1       786 1.38926E-05-1.12477E-07 0.00000E+00
 -1       787 1.39515E-05 4.78273E-08 0.00000E+00
 -1       788 1.40103E-05 1.70100E-07 0.00000E+00
 -1       789 1.40696E-05 2.61201E-07 0.00000E+00
 -1       790 1.41290E-05 3.27970E-07 1.65436E-24
 -1       791 1.41885E-05 3.77232E-07 0.00000E+00
 -1       792 1.42481E-05 4.15806E-07 0.00000E+00
 -1       793 1.43076E-05 4.50500E-07 8.27181E-25
 -1       794 1.43672E-05 4.88126E-07 0.00000E+00
 -1       795 1.44267E-05 5.35491E-07 0.00000E+00
 -1       796 1.44862E-05 5.99413E-07 0.00000E+00
 -1       797 1.45457E-05 6.86716E-07 8.27181E-25
 -1       798 1.46052E-05 8.04239E-07-1.65436E-24
 -1       799 1.46644E-05 9.58832E-07 0.00000E+00
 -1       800 1.47236E-05 1.15738E-06 0.00000E+00
 -1       801 1.25941E-05-2.62742E-07 0.00000E+00
 -1       802 1.00199E-05-2.06978E-07 0.00000E+00
 -1       803 6.79362E-06-1.53122E-07 4.13590E-25
 -1       804 3.59508E-06-1.00396E-07 0.00000E+00
 -1       805 1.10420E-06-4.57113E-08 0.00000E+00
 -1       806 1.36951E-05-1.34445E-07 1.65436E-24
 -1       807 1.35579E-05 2.96477E-08-8.27181E-25
 -1       808 1.34258E-05 1.78376E-07 0.00000E+00
 -1       809 1.32980E-05 3.15195E-07 0.00000E+00
 -1       810 1.31732E-05 4.43534E-07-1.65436E-24
 -1       811 1.30504E-05 5.66799E-07 8.27181E-25
 -1       812 1.29281E-05 6.88385E-07 0.00000E+00
 -1       813 1.28052E-05 8.11686E-07-8.27181E-25
 -1       814 1.26803E-05 9.40096E-07 0.00000E+00
 -1       815 1.25523E-05 1.07701E-06 8.27181E-25
 -1       816 1.24198E-05 1.22581E-06 1.65436E-24
 -1       817 1.22816E-05 1.38990E-06 8.27181E-25
 -1       818 1.21365E-05 1.57267E-06 1.65436E-24
 -1       819 1.19834E-05 1.77754E-06-8.27181E-25
 -1       820 1.18212E-05 2.00793E-06 8.27181E-25
 -1       821 1.47295E-05 1.72409E-06-4.13590E-25
 -1       822 1.46746E-05 2.11222E-06 0.00000E+00
 -1       823 1.46198E-05 2.56386E-06 1.65436E-24
 -1       824 1.45644E-05 3.07164E-06 8.27181E-25
 -1       825 1.45090E-05 3.62818E-06-1.65436E-24
 -1       826 1.44534E-05 4.22606E-06 0.00000E+00
 -1       827 1.43977E-05 4.85783E-06 0.00000E+00
 -1       828 1.43421E-05 5.51607E-06-8.27181E-25
 -1       829 1.42864E-05 6.19328E-06 0.00000E+00
 -1       830 1.42308E-05 6.88199E-06 0.00000E+00
 -1       831 1.41751E-05 7.57473E-06-1.65436E-24
 -1       832 1.41195E-05 8.26401E-06-8.27181E-25
 -1       833 1.40640E-05 8.94233E-06 1.65436E-24
 -1       834 1.40089E-05 9.60223E-06 0.00000E+00
 -1       835 1.39538E-05 1.02362E-05 8.27181E-25
 -1       836 1.43924E-05 1.54747E-06 3.30872E-24
 -1       837 1.38553E-05 1.69319E-06 1.65436E-24
 -1       838 1.32413E-05 1.83860E-06 0.00000E+00
 -1       839 1.26216E-05 1.98369E-06 0.00000E+00
 -1       840 1.20674E-05 2.12908E-06-1.65436E-24
 -1       841 1.46509E-05 1.71971E-06 0.00000E+00
 -1       842 1.44903E-05 2.10940E-06-1.03398E-25
 -1       843 1.43038E-05 2.56821E-06 0.00000E+00
 -1       844 1.40942E-05 3.08780E-06 0.00000E+00
 -1       845 1.38649E-05 3.65958E-06 0.00000E+00
 -1       846 1.36193E-05 4.27484E-06 2.06795E-25
 -1       847 1.33608E-05 4.92454E-06 0.00000E+00
 -1       848 1.30927E-05 5.59963E-06-2.06795E-25
 -1       849 1.28185E-05 6.29087E-06-4.13590E-25
 -1       850 1.25418E-05 6.98898E-06 0.00000E+00
 -1       851 1.22659E-05 7.68467E-06 0.00000E+00
 -1       852 1.19945E-05 8.36861E-06 2.06795E-25
 -1       853 1.17309E-05 9.03158E-06 4.13590E-25
 -1       854 1.14785E-05 9.66433E-06 0.00000E+00
 -1       855 1.12409E-05 1.02580E-05-8.27181E-25
 -1       856 1.38399E-05 1.14828E-05 0.00000E+00
 -1       857 1.37757E-05 1.22447E-05 0.00000E+00
 -1       858 1.37114E-05 1.31075E-05-1.65436E-24
 -1       859 1.36466E-05 1.40561E-05-8.27181E-25
 -1       860 1.35817E-05 1.50752E-05 1.65436E-24
 -1       861 1.35166E-05 1.61494E-05 0.00000E+00
 -1       862 1.34515E-05 1.72636E-05-1.65436E-24
 -1       863 1.33863E-05 1.84022E-05-8.27181E-25
 -1       864 1.33211E-05 1.95499E-05 0.00000E+00
 -1       865 1.32559E-05 2.06915E-05-8.27181E-25
 -1       866 1.31908E-05 2.18114E-05-1.65436E-24
 -1       867 1.31258E-05 2.28944E-05 8.27181E-25
 -1       868 1.30608E-05 2.39250E-05-1.65436E-24
 -1       869 1.29962E-05 2.48881E-05 0.00000E+00
 -1       870 1.29316E-05 2.57683E-05-1.65436E-24
 -1       871 1.33784E-05 1.08321E-05 0.00000E+00
 -1       872 1.28886E-05 1.08268E-05 0.00000E+00
 -1       873 1.24201E-05 1.08214E-05 0.00000E+00
 -1       874 1.19607E-05 1.08159E-05 1.03398E-25
 -1       875 1.14983E-05 1.08101E-05 4.13590E-25
 -1       876 1.37446E-05 1.15038E-05 0.00000E+00
 -1       877 1.35542E-05 1.22714E-05 8.27181E-25
 -1       878 1.33311E-05 1.31255E-05 0.00000E+00
 -1       879 1.30807E-05 1.40537E-05 0.00000E+00
 -1       880 1.28074E-05 1.50430E-05-3.30872E-24
 -1       881 1.25160E-05 1.60808E-05 0.00000E+00
 -1       882 1.22111E-05 1.71545E-05 0.00000E+00
 -1       883 1.18975E-05 1.82515E-05 1.65436E-24
 -1       884 1.15799E-05 1.93591E-05-3.30872E-24
 -1       885 1.12629E-05 2.04649E-05 0.00000E+00
 -1       886 1.09513E-05 2.15564E-05 0.00000E+00
 -1       887 1.06497E-05 2.26208E-05 0.00000E+00
 -1       888 1.03630E-05 2.36457E-05-1.65436E-24
 -1       889 1.00952E-05 2.46182E-05-8.27181E-25
 -1       890 9.85194E-06 2.55259E-05 0.00000E+00
 -1       891 1.22363E-05 2.65180E-05 0.00000E+00
 -1       892 1.17250E-05 2.64851E-05 0.00000E+00
 -1       893 1.12723E-05 2.64522E-05 0.00000E+00
 -1       894 1.08148E-05 2.64195E-05 0.00000E+00
 -1       895 1.02897E-05 2.63866E-05 4.13590E-25
 -1       896 1.35564E-07 4.96870E-07-3.30872E-24
 -1       897 2.72299E-07 8.44670E-07 0.00000E+00
 -1       898 4.09000E-07 1.07033E-06 3.30872E-24
 -1       899 5.45928E-07 1.20008E-06-1.65436E-24
 -1       900 6.82867E-07 1.25315E-06 3.30872E-24
 -1       901 8.19849E-07 1.24833E-06 0.00000E+00
 -1       902 9.56833E-07 1.20019E-06-3.30872E-24
 -1       903 1.09382E-06 1.12305E-06 0.00000E+00
 -1       904 1.23079E-06 1.02909E-06 0.00000E+00
 -1       905 1.36773E-06 9.30415E-07-1.65436E-24
 -1       906 1.50466E-06 8.38792E-07-3.30872E-24
 -1       907 1.64141E-06 7.66013E-07 1.65436E-24
 -1       908 1.77814E-06 7.25251E-07-3.30872E-24
 -1       909 1.91403E-06 7.29862E-07 1.65436E-24
 -1       910 2.05020E-06 7.96512E-07 3.30872E-24
 -1       911 2.22296E-06 1.07454E-06 8.27181E-25
 -1       912 2.26459E-06 1.10075E-06-4.13590E-25
 -1       913 2.30619E-06 1.03631E-06-1.65436E-24
 -1       914 2.34789E-06 8.96499E-07 0.00000E+00
 -1       915 2.38958E-06 6.94945E-07-1.65436E-24
 -1       916 2.43128E-06 4.45182E-07 0.00000E+00
 -1       917 2.47298E-06 1.59684E-07 0.00000E+00
 -1       918 2.51466E-06-1.49144E-07 0.00000E+00
 -1       919 2.55633E-06-4.69400E-07 0.00000E+00
 -1       920 2.59797E-06-7.89200E-07-8.27181E-25
 -1       921 2.63959E-06-1.09666E-06 0.00000E+00
 -1       922 2.68103E-06-1.37987E-06 0.00000E+00
 -1       923 2.72246E-06-1.62638E-06 8.27181E-25
 -1       924 2.76301E-06-1.82369E-06 2.06795E-25
 -1       925 2.80386E-06-1.95823E-06 4.13590E-25
 -1       926 2.66716E-06-2.02027E-06 0.00000E+00
 -1       927 2.49011E-06-1.99362E-06-1.65436E-24
 -1       928 2.31333E-06-1.93582E-06 6.61744E-24
 -1       929 2.13575E-06-1.84654E-06 0.00000E+00
 -1       930 1.95814E-06-1.72830E-06 0.00000E+00
 -1       931 1.78037E-06-1.58382E-06 0.00000E+00
 -1       932 1.60257E-06-1.41821E-06 6.61744E-24
 -1       933 1.42474E-06-1.23669E-06-3.30872E-24
 -1       934 1.24690E-06-1.04596E-06-6.61744E-24
 -1       935 1.06904E-06-8.52741E-07 3.30872E-24
 -1       936 8.91170E-07-6.64012E-07 0.00000E+00
 -1       937 7.13262E-07-4.86705E-07 3.30872E-24
 -1       938 5.35347E-07-3.26723E-07 0.00000E+00
 -1       939 3.57223E-07-1.89845E-07-3.30872E-24
 -1       940 1.79174E-07-7.97709E-08-6.61744E-24
 -1       941 6.90638E-07 7.39593E-08 6.61744E-24
 -1       942 1.41928E-06 1.65853E-07 0.00000E+00
 -1       943 2.14555E-06 2.70117E-07 0.00000E+00
 -1       944 2.87902E-06 3.81572E-07 1.32349E-23
 -1       945 3.61270E-06 4.98172E-07 2.64698E-23
 -1       946 4.34782E-06 6.18028E-07 0.00000E+00
 -1       947 5.08311E-06 7.40677E-07 0.00000E+00
 -1       948 5.81865E-06 8.65737E-07-1.32349E-23
 -1       949 6.55420E-06 9.93888E-07 0.00000E+00
 -1       950 7.28957E-06 1.12590E-06 1.32349E-23
 -1       951 8.02481E-06 1.26423E-06-2.64698E-23
 -1       952 8.75890E-06 1.41153E-06-1.32349E-23
 -1       953 9.49280E-06 1.57439E-06 0.00000E+00
 -1       954 1.02209E-05 1.75984E-06-6.61744E-24
 -1       955 1.09509E-05 1.98481E-06 1.32349E-23
 -1       956 1.16115E-05 2.61856E-06-6.20385E-25
 -1       957 1.15723E-05 3.01562E-06 5.16988E-26
 -1       958 1.15330E-05 3.45426E-06 4.13590E-25
 -1       959 1.14936E-05 3.92982E-06 2.06795E-25
 -1       960 1.14541E-05 4.43762E-06-4.13590E-25
 -1       961 1.14147E-05 4.97295E-06-6.20385E-25
 -1       962 1.13752E-05 5.53109E-06 1.65436E-24
 -1       963 1.13357E-05 6.10734E-06 0.00000E+00
 -1       964 1.12962E-05 6.69698E-06 1.65436E-24
 -1       965 1.12567E-05 7.29527E-06 4.13590E-25
 -1       966 1.12172E-05 7.89752E-06 0.00000E+00
 -1       967 1.11777E-05 8.49900E-06 8.27181E-25
 -1       968 1.11383E-05 9.09498E-06 0.00000E+00
 -1       969 1.10988E-05 9.68079E-06 0.00000E+00
 -1       970 1.10596E-05 1.02517E-05 0.00000E+00
 -1       971 1.09367E-05 1.13979E-05 0.00000E+00
 -1       972 1.08501E-05 1.21145E-05 0.00000E+00
 -1       973 1.07634E-05 1.29381E-05 0.00000E+00
 -1       974 1.06764E-05 1.38533E-05 0.00000E+00
 -1       975 1.05891E-05 1.48447E-05 0.00000E+00
 -1       976 1.05018E-05 1.58969E-05 0.00000E+00
 -1       977 1.04144E-05 1.69946E-05 0.00000E+00
 -1       978 1.03270E-05 1.81221E-05 0.00000E+00
 -1       979 1.02395E-05 1.92639E-05 0.00000E+00
 -1       980 1.01521E-05 2.04046E-05 0.00000E+00
 -1       981 1.00647E-05 2.15284E-05-3.30872E-24
 -1       982 9.97739E-06 2.26201E-05 0.00000E+00
 -1       983 9.89023E-06 2.36639E-05 0.00000E+00
 -1       984 9.80363E-06 2.46445E-05-8.27181E-25
 -1       985 9.71704E-06 2.55465E-05 0.00000E+00
 -3
    1PSTEP                         4           2           1          
  100CL  102 3.12500E-01         841                     0    2           1
 -4  STRESS      6    1
 -5  SXX         1    4    1    1
 -5  SYY         1    4    2    2
 -5  SZZ         1    4    3    3
 -5  SXY         1    4    1    2
 -5  SYZ         1    4    2    3
 -5  SZX         1    4    3    1
 -1         1-1.26282E+06-4.03254E+05-2.56828E+05-3.62045E+05-4.28069E-10-2.15368E-09
 -1         2-8.04181E+05-3.64489E+04 1.16291E+03-8.08201E+04-4.42810E-10-7.65112E-10
 -1         3-4.13142E+05-1.49321E+05-6.92822E+03-3.46247E+04-4.05180E-10-5.97652E-10
 -1         4-2.03286E+05-4.19829E+04 3.04145E+02-2.08223E+04 1.85125E-10 3.36826E-10
 -1         5-9.84912E+04 7.29565E+04-5.38943E+04-4.01112E+03 2.11912E-09 1.55248E-09
 -1         8-6.79795E+05-2.73443E+05-1.03522E+05-2.64263E+05 1.43700E-10-5.45697E-11
 -1         9-7.31099E+05-1.60208E+05-9.27453E+04-1.69716E+05-8.18545E-11 6.13606E-10
 -1        10-3.73500E+05-2.17382E+05-1.13703E+04-9.52973E+04-7.29869E-10 1.91600E-10
 -1        11-2.12133E+05-6.49192E+04 2.30113E+02-4.87271E+04 7.94936E-10-1.68429E-09
 -1        12-1.28858E+05 5.91391E+04-6.18193E+04-2.20212E+04 2.64140E-09-6.94417E-10
 -1        15 6.89505E+03-3.02933E+04 1.31984E+03-6.35399E+04 5.14319E-10 2.58296E-10
 -1        16-4.03739E+05-7.75552E+04 5.50369E+03-1.85481E+05 6.87881E-10 1.23843E-10
 -1        17-2.53761E+05-1.75745E+05-2.93453E+04-1.40752E+05-4.15336E-10 8.90698E-10
 -1        18-1.20916E+05-6.49935E+04-4.60913E+04-7.51481E+04-5.94355E-10-5.39937E-10
 -1        19-2.53319E+04 3.60865E+04-2.57669E+04-2.34641E+04 3.41364E-10 3.83504E-11
 -1        20 4.66633E+04-3.38067E+04-5.40025E+03 2.45712E+04 4.89604E-09-6.09361E-11
 -1        21-8.04276E+02-6.99251E+04 1.55914E+04 3.41275E+02 7.34917E-09 9.02129E-11
 -1        22 1.31332E+04 7.66072E+04 4.92982E+02-1.81166E+04 2.95586E-11-4.30191E-10
 -1        23-1.53763E+05-4.35402E+02 1.55691E+03-7.46799E+04 5.17048E-10-2.07365E-10
 -1        24-9.21992E+04 9.57688E+03 9.96742E+04-1.84783E+05-2.04758E-09-3.83200E-10
 -1        25 2.29415E+05 8.33299E+04 7.37647E+04-1.19457E+05 6.15273E-10-6.68479E-10
 -1        26 1.67265E+03 8.15176E+04 4.59699E+03-1.63472E+04-1.59313E-10 2.20098E-10
 -1        27-1.98772E+04-2.94170E+04-1.27394E+04 3.20902E+04 4.52807E-09-6.25429E-10
 -1        28-6.13759E+03-5.37858E+04-3.32234E+02 2.56590E+04 2.93483E-09 8.74215E-10
 -1        29 1.87750E+05 1.28152E+05 5.26671E+02-2.40200E+03 4.14269E-11 9.33596E-10
 -1        30 6.32365E+04 1.84774E+04 7.83387E+02-1.86683E+04 3.29942E-11 2.64208E-10
 -1        31-2.21959E+05 1.81108E+04 1.79431E+03-4.72704E+04-3.27406E-10 1.28875E-09
 -1        32 2.89700E+05 1.78603E+05 2.10961E+05-1.78803E+05 2.06517E-09 1.53887E-09
 -1        33 5.09177E+05 2.32570E+05 1.63307E+05-2.32702E+04-4.77762E-09 5.55019E-10
 -1        34-9.49367E+04-1.47437E+04-5.68579E+03 1.53886E+04-1.42232E-09-6.05496E-10
 -1        35-1.45126E+04-1.77422E+04-3.30652E+02 3.77982E+04 3.91890E-09 1.36909E-09
 -1        36-1.73067E+06 5.17873E+04-1.21239E+05-6.75770E-08-4.44932E-10-6.11180E-10
 -1        37-1.78290E+06-5.99977E+04-8.55573E+04 2.97521E-08 1.49093E-09-3.30328E-09
 -1        38-1.75088E+06 8.02187E+03-3.13853E+04-1.13062E-08-2.05281E-10-9.00400E-10
 -1        39-1.75934E+06-9.28888E+03-1.96520E+04 1.27674E-07-1.19337E-09-2.46337E-09
 -1        40-1.75417E+06 1.23993E+03-8.06244E+03 1.38709E-08-1.05572E-09-4.39286E-10
 -1        41-1.75549E+06-1.45191E+03-4.78940E+03-2.92866E-08-9.07190E-10 2.59030E-09
 -1        42-1.75471E+06 2.08464E+02-2.34370E+03-1.42172E-08-1.06204E-09 5.06247E-10
 -1        43-1.75491E+06-3.63401E+02-1.83702E+03 4.82594E-08 2.85428E-10-1.32788E-09
 -1        44-1.75474E+06 1.54330E+02-1.83640E+03-4.03118E-08 9.62001E-11 3.74655E-10
 -1        45-1.75523E+06-9.81497E+02-3.32672E+03-1.74619E-08 5.68081E-10-1.86697E-09
 -1        46-1.75439E+06 8.24828E+02-5.41804E+03-1.04541E-09-3.15496E-12 1.55160E-09
 -1        47-1.75777E+06-6.16396E+03-1.30716E+04-3.81377E-09-1.00814E-09 1.47065E-09
 -1        48-1.75221E+06 5.32112E+03-2.08358E+04 6.00415E-08-7.38222E-10-1.26965E-09
 -1        49-1.77340E+06-3.97967E+04-5.67589E+04-1.74165E-08 1.37587E-09-1.45701E-09
 -1        50-1.73881E+06 3.43488E+04-8.04353E+04 2.81984E-08-1.74505E-09-1.09139E-10
 -1        51 1.48496E+04-1.65998E+05 2.41328E+04-4.46216E+05-2.18279E-11-4.29281E-10
 -1        52 6.09416E+03-1.63011E+05 1.43631E+04-4.93109E+05 3.63798E-12 3.16140E-09
 -1        53 3.37949E+03-1.66759E+05 1.12214E+04-4.45045E+05 1.74623E-10 4.64206E-09
 -1        54 8.16236E+03-1.64436E+05 1.65938E+04-4.94387E+05-1.78261E-10-2.00089E-10
 -1        55 2.01742E+04-1.69513E+05 2.97791E+04-4.44868E+05 1.52795E-10-4.18368E-11
 -1        56-1.89611E+06-2.14796E+05-1.54057E+05-7.33176E+05 5.20231E-10 2.27737E-09
 -1        57-1.96705E+06-3.41598E+05-1.03336E+05-7.16764E+05-5.20231E-10-4.65661E-10
 -1        58-1.92597E+06-2.63455E+05-3.62915E+04-7.24862E+05 1.31877E-10-3.31602E-09
 -1        59-1.93265E+06-2.84247E+05-2.15160E+04-7.26731E+05 2.05318E-10 1.52068E-09
 -1        60-1.93016E+06-2.70217E+05-8.48911E+03-7.23896E+05 7.57609E-10-3.88945E-09
 -1        61-1.92798E+06-2.76148E+05-4.80726E+03-7.27679E+05-1.16250E-09-2.04864E-09
 -1        62-1.93057E+06-2.71313E+05-2.35077E+03-7.23992E+05-3.06613E-10 1.82638E-10
 -1        63-1.92784E+06-2.74734E+05-1.97880E+03-7.27255E+05-1.43586E-10 2.42721E-10
 -1        64-1.93029E+06-2.71608E+05-2.31652E+03-7.24326E+05 1.92131E-11 4.23870E-09
 -1        65-1.92910E+06-2.74975E+05-4.70364E+03-7.26366E+05-3.23993E-10 2.19234E-09
 -1        66-1.92932E+06-2.71099E+05-8.29564E+03-7.24872E+05-3.49019E-10-4.30191E-10
 -1        67-1.93469E+06-2.81838E+05-2.10107E+04-7.24241E+05-5.73209E-10-5.87306E-10
 -1        68-1.92475E+06-2.64982E+05-3.54419E+04-7.26370E+05 1.45974E-10-3.32875E-10
 -1        69-1.96914E+06-3.36982E+05-1.00905E+05-7.13526E+05 1.04092E-09 9.95897E-10
 -1        70-1.89522E+06-2.17840E+05-1.50440E+05-7.34914E+05-4.80213E-10-1.29512E-09
 -1        71-8.15418E+05-1.20264E+03 2.81704E+03-2.04777E-08-3.15226E-11-1.48111E-09
 -1        72-8.14128E+05 1.39336E+03 1.98466E+03-6.89475E-08 8.53722E-11-2.84928E-10
 -1        73-8.14948E+05-1.86177E+02 7.22731E+02-3.69535E-08 2.51736E-10-5.99584E-10
 -1        74-8.14676E+05 2.14658E+02 4.42158E+02 5.87508E-08 1.79663E-10-1.70030E-09
 -1        75-8.14871E+05-2.78433E+01 1.59245E+02-4.29154E-08-3.30866E-10 1.07497E-09
 -1        76-8.14770E+05 2.63193E+01 5.10718E+01-2.97877E-08-2.85248E-10-3.11135E-09
 -1        77-8.14854E+05 1.60399E+00-5.88569E+01 1.42884E-08-6.53981E-10-9.00144E-10
 -1        78-8.14808E+05-4.06779E+01-2.06020E+02 4.17391E-08-1.68742E-10 1.33940E-09
 -1        79-8.14832E+05 3.90059E+01-4.09953E+02 3.55106E-08 5.97558E-12-1.56308E-09
 -1        80-8.14947E+05-2.98705E+02-9.60853E+02 4.79296E-08-7.14218E-11 5.51182E-10
 -1        81-8.14716E+05 2.58960E+02-1.67025E+03 3.55599E-08-3.98224E-11-1.52954E-09
 -1        82-8.15756E+05-1.94434E+03-4.10828E+03 6.27125E-11 1.33403E-10-5.92308E-10
 -1        83-8.14025E+05 1.67966E+03-6.57330E+03 8.74347E-09 3.25579E-10 1.00681E-09
 -1        84-8.20689E+05-1.25633E+04-1.79212E+04 2.63399E-08 1.24972E-10 9.57016E-10
 -1        85-8.09790E+05 1.08431E+04-2.54053E+04 1.23446E-08-5.59458E-10-4.23825E-10
 -1        86-4.01838E+04 1.85833E+05 9.57731E+04 7.79611E+02 5.42059E-10-2.43062E-10
 -1        87 5.01657E+04 2.28413E+05 7.40208E+04-3.55734E+03 8.73115E-10-3.87594E-10
 -1        88-9.81698E+03 1.99821E+05 3.79778E+04 5.53736E+02 1.03546E-09 2.27608E-09
 -1        89 3.46236E+04 2.21140E+05 5.36059E+04-3.21029E+03 1.57047E-09-1.25052E-09
 -1        90-2.46921E+04 1.93096E+05 6.05582E+04 4.32654E+02 1.34605E-09-1.35569E-09
 -1        91-8.76908E+05-1.17752E+05-1.31505E+04-3.30447E+05-6.63704E-10-8.78572E-10
 -1        92-8.81760E+05-1.31610E+05-9.09599E+03-3.30357E+05 2.69097E-10-1.55978E-10
 -1        93-8.80028E+05-1.21964E+05-3.08678E+03-3.29023E+05-3.59080E-10-9.90894E-10
 -1        94-8.78140E+05-1.26726E+05-1.92702E+03-3.32000E+05 4.47621E-10 2.72269E-09
 -1        95-8.80524E+05-1.22620E+05-7.38803E+02-3.28809E+05-6.44036E-10 1.89331E-09
 -1        96-8.77926E+05-1.25601E+05-4.66345E+02-3.31814E+05 1.47111E-10 1.09847E-09
 -1        97-8.80239E+05-1.23088E+05-2.79073E+02-3.29209E+05 3.34580E-10 2.04384E-09
 -1        98-8.78855E+05-1.24531E+05-3.48144E+02-3.30676E+05 8.71381E-10-7.51761E-10
 -1        99-8.79593E+05-1.23690E+05-5.33916E+02-3.29945E+05-2.50886E-10-1.40398E-09
 -1       100-8.80360E+05-1.23626E+05-1.24010E+03-3.29151E+05-3.17342E-11 9.65358E-10
 -1       101-8.78735E+05-1.23995E+05-2.14733E+03-3.30734E+05 5.69543E-10 1.72440E-09
 -1       102-8.82909E+05-1.25125E+05-5.73498E+03-3.27532E+05 5.91172E-10 1.44428E-09
 -1       103-8.77051E+05-1.22196E+05-9.22398E+03-3.31564E+05-4.87262E-10 1.55023E-09
 -1       104-8.92568E+05-1.41036E+05-2.72462E+04-3.24097E+05-9.18590E-10 1.82081E-09
 -1       105-8.69094E+05-1.08128E+05-3.93513E+04-3.34158E+05-1.75078E-09 3.27054E-09
 -1       106-4.31693E+05-3.69911E+03 8.66879E+03-2.94630E-08-2.98780E-10-1.80853E-09
 -1       107-4.27911E+05 4.28605E+03 6.11311E+03-4.29947E-09-1.10711E-10 1.59889E-09
 -1       108-4.30248E+05-5.72948E+02 2.23950E+03-5.48888E-08-3.79083E-10 2.25896E-10
 -1       109-4.29594E+05 6.62726E+02 1.39385E+03-9.98780E-09-4.23977E-10-7.03693E-10
 -1       110-4.30011E+05-8.78138E+01 5.54310E+02-7.43513E-09-2.66429E-10 1.63331E-09
 -1       111-4.29872E+05 9.77686E+01 2.94234E+02 2.58099E-08 1.25815E-10 2.71827E-09
 -1       112-4.29969E+05-9.70427E+00 7.65143E+01 2.04021E-08-1.11576E-10 2.06707E-09
 -1       113-4.29934E+05-1.35794E+01-6.88284E+01-2.26382E-08-2.45107E-11-9.01256E-10
 -1       114-4.29950E+05 2.32612E+01-2.33136E+02 2.34652E-08-4.60106E-10-2.15678E-09
 -1       115-4.30028E+05-1.88697E+02-5.98116E+02 6.75968E-08-1.41190E-10 7.55733E-11
 -1       116-4.29875E+05 1.64965E+02-1.05900E+03 8.81712E-08-1.30866E-10 1.49998E-09
 -1       117-4.30546E+05-1.24014E+03-2.61811E+03 9.45264E-08-5.57636E-10-1.35483E-09
 -1       118-4.29433E+05 1.07151E+03-4.19317E+03-3.05240E-09-3.46128E-10-1.66438E-09
 -1       119-4.33692E+05-8.01481E+03-1.14339E+04-3.93654E-08-2.60243E-10 8.86757E-10
 -1       120-4.26730E+05 6.91738E+03-1.62095E+04 6.94607E-08 4.24394E-11-1.33241E-09
 -1       121-5.28773E+02-5.05010E+05 2.25779E+03 4.62188E+03-1.28807E-10-1.23907E-09
 -1       122 7.74052E+02-5.04104E+05 1.73763E+03 2.02768E+04-5.34897E-11-5.76733E-09
 -1       123-1.32388E+02-5.04731E+05 1.22840E+03 4.67004E+03-6.94541E-10-1.53523E-09
 -1       124 9.29254E+02-5.03971E+05 2.02798E+03 2.01095E+04-3.40862E-10 1.16415E-10
 -1       125-6.87153E+02-5.05097E+05 2.79210E+03 4.78920E+03-1.72304E-09 1.62572E-09
 -1       126-4.12477E+05-5.98321E+04 4.93584E+03-1.53725E+05 1.97019E-10 2.57387E-10
 -1       127-4.09464E+05-5.57173E+04 3.41678E+03-1.54991E+05-8.58336E-11-2.44484E-10
 -1       128-4.11510E+05-5.80354E+04 1.15472E+03-1.54013E+05 4.26240E-10 1.60810E-10
 -1       129-4.10588E+05-5.77998E+04 7.14220E+02-1.54659E+05 1.56010E-10 1.36843E-09
 -1       130-4.11354E+05-5.77551E+04 2.57587E+02-1.54055E+05 2.16289E-10-5.72982E-10
 -1       131-4.10798E+05-5.81010E+04 1.30432E+02-1.54580E+05 9.51507E-10 2.14296E-10
 -1       132-4.11300E+05-5.77350E+04 1.59244E+01-1.54092E+05 6.98651E-10 1.76669E-10
 -1       133-4.10925E+05-5.80944E+04-7.51011E+01-1.54475E+05-9.21005E-11 1.33149E-09
 -1       134-4.11227E+05-5.77620E+04-1.85609E+02-1.54159E+05 2.40692E-11-9.93992E-10
 -1       135-4.11152E+05-5.81364E+04-4.92370E+02-1.54304E+05 6.41058E-10-1.96749E-09
 -1       136-4.11072E+05-5.76934E+04-8.65536E+02-1.54263E+05 3.57034E-10 3.37616E-09
 -1       137-4.11902E+05-5.90239E+04-2.32953E+03-1.53959E+05-3.61609E-10 1.58403E-09
 -1       138-4.10479E+05-5.68771E+04-3.74935E+03-1.54504E+05-4.65491E-10 1.22577E-09
 -1       139-4.15813E+05-6.55003E+04-1.10753E+04-1.52573E+05 1.76215E-10 1.92358E-09
 -1       140-4.07166E+05-5.12349E+04-1.59965E+04-1.55644E+05-9.95897E-11 1.30512E-09
 -1       141-1.86172E+05-2.33113E+03 5.46195E+03 2.90394E-08 1.97190E-10 9.39735E-10
 -1       142-1.83796E+05 2.70084E+03 3.84934E+03 2.64431E-08 1.24670E-10 6.70752E-12
 -1       143-1.85261E+05-3.60928E+02 1.40453E+03-7.65472E-08-1.46591E-10 5.13865E-10
 -1       144-1.84858E+05 4.16536E+02 8.63605E+02-2.55752E-08-5.09199E-11-4.52758E-10
 -1       145-1.85111E+05-5.43664E+01 3.20627E+02 2.94891E-08-7.23255E-11 4.93145E-10
 -1       146-1.85038E+05 5.40822E+01 1.24029E+02-1.95178E-08-1.24816E-10-4.21551E-10
 -1       147-1.85080E+05 4.39933E-01-6.72687E+01-3.99006E-10 1.11199E-10 1.76144E-10
 -1       148-1.85102E+05-5.85118E+01-2.96712E+02 9.47937E-09-5.78643E-12-1.53761E-11
 -1       149-1.85046E+05 5.79738E+01-6.07926E+02-3.53239E-08 4.09860E-11-1.45579E-09
 -1       150-1.85310E+05-4.45880E+02-1.43390E+03-8.31937E-09-7.41026E-11-3.13008E-10
 -1       151-1.84873E+05 3.86806E+02-2.49596E+03-1.83876E-08 2.81979E-11-1.54841E-09
 -1       152-1.86518E+05-2.90446E+03-6.13988E+03-2.55657E-08 1.21862E-10 4.46562E-10
 -1       153-1.83839E+05 2.50911E+03-9.82432E+03-2.38741E-08 6.87264E-10 9.48148E-10
 -1       154-1.93886E+05-1.87674E+04-2.67775E+04-3.32966E-08 1.68791E-10 1.18916E-09
 -1       155-1.77506E+05 1.61977E+04-3.79558E+04 1.96481E-08 1.29465E-09-3.00133E-10
 -1       156-5.46004E+03-1.08252E+05 1.32332E+04-4.23235E+02-6.82121E-12 7.18317E-10
 -1       157 7.31164E+03-1.02214E+05 1.11166E+04 1.86384E+03 3.56977E-11-7.49334E-10
 -1       158-1.82812E+03-1.06597E+05 7.07155E+03-4.12103E+02 8.98126E-12 2.32813E-10
 -1       159 8.47828E+03-1.01663E+05 1.26495E+04 1.81199E+03 1.83604E-10-1.40155E-09
 -1       160-6.62337E+03-1.08802E+05 1.58734E+04-3.71380E+02 1.97360E-10-3.01435E-09
 -1       161-2.29363E+05-3.17220E+04-1.26802E+03-8.61717E+04-8.41254E-10 3.01662E-09
 -1       162-2.29819E+05-3.30611E+04-8.80086E+02-8.61644E+04-1.08995E-09 3.04175E-09
 -1       163-2.29626E+05-3.21685E+04-3.03139E+02-8.60814E+04-9.56604E-11-6.32525E-11
 -1       164-2.29520E+05-3.25403E+04-1.98568E+02-8.62632E+04 5.18607E-12 2.21255E-09
 -1       165-2.29662E+05-3.22414E+04-9.60997E+01-8.60734E+04 1.47313E-10-2.52065E-10
 -1       166-2.29494E+05-3.24545E+04-1.02490E+02-8.62600E+04 2.61034E-10-2.30897E-09
 -1       167-2.29652E+05-3.22541E+04-1.35685E+02-8.60846E+04-3.65945E-10-6.00480E-10
 -1       168-2.29555E+05-3.24803E+04-2.94552E+02-8.62225E+04-4.10116E-11 3.66420E-09
 -1       169-2.29601E+05-3.22156E+04-5.28011E+02-8.61109E+04 2.48775E-10 9.24530E-10
 -1       170-2.29850E+05-3.28602E+04-1.31582E+03-8.61111E+04 1.18661E-11-1.75680E-09
 -1       171-2.29358E+05-3.18752E+04-2.28267E+03-8.61957E+04-2.99337E-10-7.64771E-10
 -1       172-2.31488E+05-3.55154E+04-6.12552E+03-8.55798E+04-1.59645E-10-1.15961E-09
 -1       173-2.27964E+05-2.95673E+04-9.85123E+03-8.66399E+04 6.97355E-10-2.20689E-09
 -1       174-2.41455E+05-5.28284E+04-2.90935E+04-8.22843E+04 2.60286E-09 4.19732E-10
 -1       175-2.19399E+05-1.46083E+04-4.20140E+04-8.94745E+04 5.17321E-09-1.00044E-09
 -1       191 8.74196E+02 2.56669E+05 1.43430E+03-7.55721E+03-5.63887E-11 1.75169E-09
 -1       192 3.18083E+02 2.56882E+05 8.59584E+02-8.13958E+03-4.32408E-10 8.81755E-10
 -1       193 1.46661E+02 2.56739E+05 6.92590E+02-7.43923E+03-1.42109E-12 4.42014E-10
 -1       194 4.20271E+02 2.56912E+05 1.04813E+03-8.35851E+03-8.09450E-10 3.81988E-11
 -1       195 1.19275E+03 2.56625E+05 1.90279E+03-7.33759E+03 4.91127E-11-3.76076E-10
 -1       251-1.03917E+06 2.31885E+04-5.43400E+04-2.43718E+03-2.72536E-10-1.34605E-10
 -1       252-1.06243E+06-2.68652E+04-3.83184E+04 2.52846E+03 2.11749E-10 2.57569E-09
 -1       253-1.04826E+06 3.58745E+03-1.40870E+04-1.03221E+03-3.06443E-10-1.24601E-10
 -1       254-1.05183E+06-4.15763E+03-8.79267E+03-5.43041E+02 1.25127E-10 1.00954E-09
 -1       255-1.04974E+06 5.51711E+02-3.64819E+03 6.34302E+02 6.48583E-10 1.86151E-09
 -1       256-1.05016E+06-6.51790E+02-2.17333E+03-3.50609E+03 5.04770E-10 9.95698E-10
 -1       257-1.04993E+06 9.61163E+01-1.13441E+03 1.93089E+03-2.27843E-10 1.11709E-09
 -1       258-1.05000E+06-1.91718E+02-9.94306E+02-5.22726E+03-6.90306E-10-1.85217E-10
 -1       259-1.04991E+06 9.82197E+01-1.13864E+03 2.35550E+03-6.77346E-10 6.65693E-10
 -1       260-1.05023E+06-6.58648E+02-2.21056E+03-5.04055E+03-8.97202E-11-5.83469E-10
 -1       261-1.04970E+06 5.61089E+02-3.68720E+03 1.74418E+03 1.71539E-10-2.24873E-09
 -1       262-1.05190E+06-4.21243E+03-8.91527E+03-3.01694E+03 6.62297E-10-2.18188E-09
 -1       263-1.04824E+06 3.63549E+03-1.42729E+04 3.31848E+02 1.74424E-10 1.88538E-09
 -1       264-1.06255E+06-2.72219E+04-3.88170E+04 7.45161E+01-1.14701E-09 3.48382E-09
 -1       265-1.03906E+06 2.34929E+04-5.50662E+04-1.34728E+03-1.87831E-09 2.27737E-09
 -1       266-9.77364E+03-1.81367E+05 2.22477E+04 5.18353E+03 1.18234E-11-1.26477E-10
 -1       267 1.05365E+04-1.71304E+05 1.42763E+04-2.12001E+04 2.91038E-11-1.55751E-09
 -1       268-6.74487E+02-1.76756E+05 2.56357E+03 5.56312E+03-5.86624E-11-1.65672E-09
 -1       269-4.54297E+03-1.78471E+05-5.54488E+03-2.13416E+04-1.72804E-11 6.14790E-10
 -1       270 5.26652E+03-1.74217E+05-1.18633E+04 5.32509E+03-1.02773E-10 2.46422E-09
 -1       271-1.67955E+06-2.09444E+05-1.30898E+05-6.49859E+05-4.63842E-10-7.42148E-10
 -1       272-1.72322E+06-3.01195E+05-8.31630E+04-6.52913E+05 6.25164E-10 3.46790E-09
 -1       273-1.70291E+06-2.40212E+05-3.08964E+04-6.45640E+05 1.45235E-10-1.42791E-09
 -1       274-1.69615E+06-2.62104E+05-1.71022E+04-6.59787E+05-1.78261E-10-1.70940E-09
 -1       275-1.70592E+06-2.43329E+05-7.19706E+03-6.44961E+05 7.61247E-10 1.71940E-09
 -1       276-1.69261E+06-2.58272E+05-3.83982E+03-6.60903E+05 1.68029E-10 3.17425E-09
 -1       277-1.70643E+06-2.43525E+05-1.97223E+03-6.44742E+05-6.74504E-10 4.20300E-10
 -1       278-1.69208E+06-2.58062E+05-1.57822E+03-6.61197E+05 4.77769E-11 7.21940E-10
 -1       279-1.70647E+06-2.43487E+05-1.91065E+03-6.44699E+05 4.38568E-10 1.28159E-09
 -1       280-1.69246E+06-2.58394E+05-3.67319E+03-6.61087E+05-2.98144E-10-2.15550E-10
 -1       281-1.70604E+06-2.43232E+05-6.85405E+03-6.44835E+05 9.82595E-10 1.55615E-09
 -1       282-1.69573E+06-2.62157E+05-1.62843E+04-6.60168E+05 1.32928E-09 1.24783E-09
 -1       283-1.70324E+06-2.40209E+05-2.94039E+04-6.45421E+05 2.39993E-10-7.56700E-10
 -1       284-1.72139E+06-2.99468E+05-7.91574E+04-6.53751E+05-2.78305E-10 1.64437E-09
 -1       285-1.68106E+06-2.10872E+05-1.24584E+05-6.49379E+05 6.71207E-10-9.38599E-10
 -1       286-2.94534E+05-5.14403E+03 1.20325E+04-3.11135E+01 7.33792E-10 1.12595E-09
 -1       287-2.89166E+05 5.95676E+03 8.51512E+03-1.43995E+03 2.66844E-10 1.12618E-09
 -1       288-2.92512E+05-7.97992E+02 3.11466E+03 3.41298E+02-2.39794E-10 2.52385E-10
 -1       289-2.91539E+05 9.22752E+02 1.97058E+03-2.10638E+03-1.87413E-10-4.21522E-09
 -1       290-2.92167E+05-1.24294E+02 8.12041E+02 6.35341E+02 2.59661E-10-1.64798E-09
 -1       291-2.91954E+05 1.49023E+02 5.10101E+02-2.58060E+03 3.49225E-10 1.51283E-09
 -1       292-2.92101E+05-2.41758E+01 2.88527E+02 8.15532E+02 5.48503E-10-3.00631E-10
 -1       293-2.92018E+05 6.23675E+01 3.05967E+02-2.80653E+03 8.11156E-11-1.62149E-09
 -1       294-2.92104E+05-3.65132E+01 4.06204E+02 8.61269E+02 5.87262E-10 9.90553E-10
 -1       295-2.91910E+05 2.57768E+02 8.44029E+02-2.75825E+03 5.26612E-10 2.29832E-09
 -1       296-2.92208E+05-2.19356E+02 1.42291E+03 7.67249E+02 6.79130E-10 1.17836E-09
 -1       297-2.91204E+05 1.64145E+03 3.47993E+03-2.44150E+03 6.96431E-10 1.84951E-09
 -1       298-2.92808E+05-1.41783E+03 5.54424E+03 5.44514E+02 3.09626E-10 8.23093E-10
 -1       299-2.87007E+05 1.05972E+04 1.51310E+04-1.89585E+03-3.40037E-10 6.64613E-10
 -1       300-2.96398E+05-9.14788E+03 2.14217E+04 2.21579E+02-9.05516E-11-1.33332E-09
 -1       301 2.30151E+04 1.88803E+04 4.92491E+04-1.41117E+04-1.55887E-09 4.51394E-10
 -1       302 7.74236E+03 2.80059E+04 2.95630E+04-1.64908E+04-1.09367E-10-3.01314E-09
 -1       303 2.16716E+03 2.21651E+04 2.28127E+04-1.41232E+04-1.29739E-09-2.03943E-09
 -1       304 9.01627E+03 2.87335E+04 3.28948E+04-1.64764E+04-5.18412E-11 3.81760E-10
 -1       305 2.71608E+04 1.81562E+04 5.73478E+04-1.41213E+04-1.36970E-09 1.34958E-09
 -1       306-1.20398E+06-1.53635E+05-8.37586E+04-4.66152E+05 3.31966E-10 1.38243E-10
 -1       307-1.22569E+06-2.18423E+05-5.31930E+04-4.75141E+05 1.08491E-09-1.85446E-09
 -1       308-1.21897E+06-1.73234E+05-1.97769E+04-4.63400E+05 3.66640E-10-1.60617E-09
 -1       309-1.20835E+06-1.93497E+05-1.09469E+04-4.79644E+05-5.78893E-10-4.61569E-10
 -1       310-1.22092E+06-1.75201E+05-4.61800E+03-4.62949E+05 3.54930E-10 1.13187E-09
 -1       311-1.20610E+06-1.91056E+05-2.47990E+03-4.80386E+05 3.74257E-10-1.18393E-09
 -1       312-1.22124E+06-1.75327E+05-1.30888E+03-4.62815E+05 1.39835E-11 9.66821E-10
 -1       313-1.20579E+06-1.90901E+05-1.11225E+03-4.80547E+05 6.37812E-10-1.36197E-09
 -1       314-1.22124E+06-1.75320E+05-1.42874E+03-4.62812E+05-7.16398E-10-5.54223E-10
 -1       315-1.20613E+06-1.91116E+05-2.81443E+03-4.80397E+05 6.43922E-10 2.75850E-09
 -1       316-1.22088E+06-1.75150E+05-5.28931E+03-4.62941E+05 7.54653E-10 1.97588E-09
 -1       317-1.20868E+06-1.93980E+05-1.25771E+04-4.79619E+05 9.21659E-10-1.46338E-09
 -1       318-1.21868E+06-1.72848E+05-2.27250E+04-4.63418E+05 2.68983E-10 1.46429E-10
 -1       319-1.22853E+06-2.22729E+05-6.11455E+04-4.74564E+05 4.65775E-10 3.20870E-09
 -1       320-1.20150E+06-1.50251E+05-9.62637E+04-4.66514E+05 6.58474E-10 1.05501E-09
 -1       321-2.65160E+05-1.03440E+04 2.42403E+04-3.76457E+01-9.70616E-10-9.31323E-10
 -1       322-2.54634E+05 1.19846E+04 1.71038E+04-7.03722E+02-9.01693E-10 6.57110E-11
 -1       323-2.61115E+05-1.60263E+03 6.27274E+03 1.23714E+02-2.30159E-10-1.12891E-09
 -1       324-2.59347E+05 1.85472E+03 3.92581E+03-9.97235E+02-2.81446E-11 1.49117E-09
 -1       325-2.60451E+05-2.47316E+02 1.59795E+03 2.55892E+02-1.82681E-11 1.37794E-09
 -1       326-2.60126E+05 2.86113E+02 9.27890E+02-1.21521E+03-7.54170E-11 2.13461E-10
 -1       327-2.60337E+05-3.82352E+01 4.09014E+02 3.41690E+02 1.69749E-11-8.84654E-10
 -1       328-2.60259E+05 4.67190E+01 2.35947E+02-1.33170E+03-4.66081E-11 7.84269E-10
 -1       329-2.60318E+05-8.18289E+00 1.27290E+02 3.72386E+02-9.64570E-11 1.48383E-10
 -1       330-2.60273E+05 2.55142E+01 1.14259E+02-1.33478E+03-2.40051E-10-2.67667E-10
 -1       331-2.60323E+05-1.70497E+01 1.29479E+02 3.44769E+02-2.39417E-11-8.00373E-10
 -1       332-2.60222E+05 1.22500E+02 2.70872E+02-1.22410E+03 1.23904E-10-9.83004E-10
 -1       333-2.60369E+05-1.05209E+02 4.15827E+02 2.61710E+02 2.72991E-11-6.15131E-10
 -1       334-2.59906E+05 7.85012E+02 1.12487E+03-1.01098E+03 2.38678E-10 1.98989E-09
 -1       335-2.60638E+05-6.77941E+02 1.58559E+03 1.31638E+02-5.24594E-10-3.17527E-10
 -1       336-4.57415E+02-5.11825E+05 1.03607E+03-6.49091E+03-2.72144E-09 4.92491E-10
 -1       337 4.38544E+01-5.11572E+05-1.52600E+03-2.98690E+04-1.91130E-09 1.26192E-10
 -1       338 4.98075E+02-5.11141E+05-4.79787E+03-6.38845E+03-3.23189E-09 2.18495E-09
 -1       339-6.64899E+03-5.15510E+05-1.31289E+04-2.99680E+04-2.16585E-09 5.43037E-09
 -1       340 5.11968E+03-5.07931E+05-2.07538E+04-6.39296E+03-3.13867E-09 4.31021E-09
 -1       341-7.77232E+05-9.83620E+04-3.03257E+04-2.97712E+05 7.78982E-10-2.37560E-09
 -1       342-7.94759E+05-1.24276E+05-2.10008E+04-2.90591E+05 8.34575E-10 4.09955E-10
 -1       343-7.83506E+05-1.09068E+05-7.11931E+03-2.95560E+05 1.76215E-10 3.26054E-10
 -1       344-7.87182E+05-1.12152E+05-4.44200E+03-2.93392E+05 9.50450E-10-4.52474E-11
 -1       345-7.84796E+05-1.10452E+05-1.69889E+03-2.94920E+05 1.25098E-10-1.25453E-10
 -1       346-7.85365E+05-1.10893E+05-1.06102E+03-2.94503E+05 4.07672E-10-2.41430E-09
 -1       347-7.85320E+05-1.10322E+05-6.04982E+02-2.94449E+05-2.99160E-10-1.45033E-09
 -1       348-7.84585E+05-1.11394E+05-7.39087E+02-2.95317E+05 3.94202E-10 3.12916E-09
 -1       349-7.85576E+05-1.09951E+05-1.06977E+03-2.94107E+05 5.78098E-10 1.62245E-09
 -1       350-7.84620E+05-1.12566E+05-2.50805E+03-2.95693E+05-5.96501E-10-3.01921E-09
 -1       351-7.85287E+05-1.09151E+05-4.29730E+03-2.94074E+05 1.45917E-10-1.28966E-09
 -1       352-7.87582E+05-1.17651E+05-1.14966E+04-2.94822E+05 2.10429E-09 1.15392E-09
 -1       353-7.82621E+05-1.04879E+05-1.84788E+04-2.94975E+05 5.25233E-10 1.52886E-09
 -1       354-8.06593E+05-1.49824E+05-5.45794E+04-2.88277E+05 4.52633E-09-2.00362E-09
 -1       355-7.66303E+05-7.70654E+04-7.88128E+04-3.00592E+05 1.89357E-09-2.09548E-09
 -1       356-2.45433E+05-1.26157E+03 2.95305E+03 3.99381E+00 1.31479E-10 1.24783E-09
 -1       357-2.44125E+05 1.46123E+03 2.08090E+03-4.41745E+02-1.79316E-10 1.06400E-09
 -1       358-2.44938E+05-1.95263E+02 7.53656E+02 8.48175E+01-2.75733E-10-7.28960E-10
 -1       359-2.44703E+05 2.24409E+02 4.55817E+02-5.84391E+02 2.20496E-10-1.13187E-09
 -1       360-2.44856E+05-2.86547E+01 1.50063E+02 1.46643E+02-2.21497E-10-4.20314E-10
 -1       361-2.44806E+05 2.31959E+01 1.79279E+01-6.83049E+02-1.92800E-10-9.74396E-10
 -1       362-2.44835E+05 5.51834E+00-1.29289E+02 1.83478E+02-1.62476E-10 1.44861E-09
 -1       363-2.44863E+05-7.17884E+01-3.64156E+02-7.28090E+02-5.72662E-11 1.60936E-09
 -1       364-2.44799E+05 6.62099E+01-6.99459E+02 1.91686E+02 2.45367E-10 4.08960E-10
 -1       365-2.45094E+05-5.04120E+02-1.62535E+03-7.15179E+02-2.20257E-10-2.23497E-09
 -1       366-2.44604E+05 4.36704E+02-2.82045E+03 1.70566E+02-2.78284E-11-1.28489E-09
 -1       367-2.46456E+05-3.27847E+03-6.93117E+03-6.45274E+02 2.52101E-10 1.22373E-09
 -1       368-2.43438E+05 2.83204E+03-1.10895E+04 1.21779E+02 5.15531E-10 1.12959E-09
 -1       369-2.54769E+05-2.11831E+04-3.02231E+04-5.22167E+02-1.88143E-10 1.23691E-09
 -1       370-2.36292E+05 1.82826E+04-4.28408E+04 4.74697E+01 1.65921E-09-2.14823E-09
 -1       371-6.60410E+03-1.03744E+05 1.50640E+04 2.10338E+03 5.76620E-10 1.66835E-11
 -1       372 6.82375E+03-9.74058E+04 9.10475E+03-9.05613E+03 1.23578E-09-1.05418E-09
 -1       373-1.89898E+02-1.00710E+05 7.35126E+02 2.16584E+03 1.06411E-09-3.44205E-11
 -1       374-5.15146E+03-1.02955E+05-6.61495E+03-9.03260E+03 9.00400E-10-1.66878E-10
 -1       375 5.33033E+03-9.81941E+04-1.20668E+04 2.07984E+03 7.93989E-10 6.88374E-10
 -1       376-4.19648E+05-5.24310E+04-1.72127E+04-1.60413E+05 1.00954E-09-2.99679E-09
 -1       377-4.28516E+05-6.82115E+04-1.19193E+04-1.57603E+05 1.09236E-09-1.91028E-09
 -1       378-4.23235E+05-5.84770E+04-4.04258E+03-1.59159E+05 1.86731E-10-1.86674E-10
 -1       379-4.24297E+05-6.12606E+04-2.52516E+03-1.59112E+05-2.92744E-10 2.27820E-09
 -1       380-4.23862E+05-5.93626E+04-9.68524E+02-1.58910E+05 4.38121E-11 5.77359E-10
 -1       381-4.23552E+05-6.02693E+04-6.15981E+02-1.59425E+05-8.73829E-10-1.82835E-09
 -1       382-4.23979E+05-5.94655E+04-3.63619E+02-1.58847E+05-1.68803E-10-6.60695E-10
 -1       383-4.23472E+05-6.02068E+04-4.72325E+02-1.59474E+05 3.16012E-10 5.24604E-10
 -1       384-4.23942E+05-5.94248E+04-7.00679E+02-1.58861E+05 1.40886E-10-2.58862E-09
 -1       385-4.23830E+05-6.06470E+04-1.65842E+03-1.59330E+05 1.36815E-10-2.07990E-09
 -1       386-4.23621E+05-5.90265E+04-2.84683E+03-1.58991E+05-1.14483E-10-4.07567E-10
 -1       387-4.25933E+05-6.38734E+04-7.61783E+03-1.58589E+05-5.42656E-10-1.39858E-09
 -1       388-4.21842E+05-5.62071E+04-1.22459E+04-1.59599E+05 1.32604E-09-4.59295E-10
 -1       389-4.38436E+05-8.52809E+04-3.61630E+04-1.54362E+05 3.35581E-09 1.89630E-10
 -1       390-4.11131E+05-3.76766E+04-5.22219E+04-1.63198E+05 5.83168E-09-2.29556E-09
 -1       406 9.65734E+02 2.52790E+05 1.91452E+03-2.72264E+04 6.32099E-11-2.26282E-09
 -1       407 5.19238E+02 2.53123E+05 1.95894E+03-3.00347E+04-1.55273E-09-1.87856E-09
 -1       408 6.77403E+02 2.52776E+05 2.92351E+03-2.71361E+04 9.39053E-11 8.54925E-11
 -1       409 2.70410E+03 2.53884E+05 6.08596E+03-3.01535E+04-1.93177E-09-2.51021E-10
 -1       410 7.84761E+03 2.52000E+05 1.21633E+04-2.71033E+04 9.09495E-13 1.50681E-09
 -1       466 8.11267E+05-3.23404E+04 7.57637E+04 3.48109E+03 6.11067E-11-3.09228E-10
 -1       467 8.44440E+05 3.74550E+04 5.35362E+04-7.66240E+03 1.32445E-11 4.02906E-10
 -1       468 8.24068E+05-5.00661E+03 1.96459E+04 1.62138E+03 2.07137E-10-6.89397E-10
 -1       469 8.29525E+05 5.79586E+03 1.23483E+04-4.82899E+03 1.99130E-10-4.56339E-10
 -1       470 8.26178E+05-7.75203E+02 5.11988E+03 6.47871E+02-4.07638E-10-3.90628E-10
 -1       471 8.27072E+05 9.23853E+02 3.15510E+03-3.39849E+03 1.17097E-10-8.63849E-10
 -1       472 8.26520E+05-1.45624E+02 1.75393E+03 1.90847E+02-5.17055E-10-4.09528E-10
 -1       473 8.26761E+05 3.50072E+02 1.77407E+03-2.84157E+03-9.85034E-11-2.83947E-10
 -1       474 8.26489E+05-2.01958E+02 2.28311E+03 9.09424E+01 1.88791E-11-7.57154E-11
 -1       475 8.27325E+05 1.41370E+03 4.67602E+03-2.96495E+03 3.41643E-10-9.22228E-10
 -1       476 8.25955E+05-1.20660E+03 7.87544E+03 3.14232E+02 1.14716E-09-9.67702E-10
 -1       477 8.31097E+05 9.04262E+03 1.91836E+04-3.81264E+03 9.79021E-10-1.23646E-09
 -1       478 8.22711E+05-7.80912E+03 3.06269E+04 9.38652E+02-7.40670E-11-1.16415E-09
 -1       479 8.54120E+05 5.84139E+04 8.34185E+04-5.71262E+03 1.38087E-10-1.47520E-09
 -1       480 8.02924E+05-5.04148E+04 1.18230E+05 2.21402E+03 1.02381E-09-2.76486E-10
 -1       481-6.31348E+03 1.33076E+05 1.49005E+04-5.42545E+02 7.82165E-11 7.35213E-10
 -1       482 7.58783E+03 1.39693E+05 1.10153E+04 9.94072E+02-9.00400E-11 2.56728E-09
 -1       483-1.25329E+03 1.35422E+05 4.84187E+03-3.91290E+02-4.75211E-11 1.80992E-09
 -1       484 3.23140E+03 1.37648E+05 5.29163E+03 7.19805E+02 4.35705E-11-8.71580E-10
 -1       485-1.97027E+03 1.35119E+05 5.03561E+03-2.68305E+02 8.25366E-11-1.37480E-09
 -1       486-7.57694E+05-8.11122E+04-7.17903E+04-2.99537E+05 1.60071E-10-1.99361E-09
 -1       487-8.00193E+05-1.41530E+05-4.97071E+04-2.81632E+05-2.39879E-10 1.51476E-09
 -1       488-7.72935E+05-1.06134E+05-1.68489E+04-2.94073E+05-1.69848E-10 9.72250E-10
 -1       489-7.81485E+05-1.13493E+05-1.04491E+04-2.89012E+05 6.21270E-10 2.34115E-09
 -1       490-7.76369E+05-1.09075E+05-3.95945E+03-2.92175E+05-3.54731E-10-1.97133E-10
 -1       491-7.76566E+05-1.11071E+05-2.29543E+03-2.92316E+05-6.41052E-11 1.43729E-10
 -1       492-7.77846E+05-1.08545E+05-1.08587E+03-2.90770E+05 2.50395E-10 1.38300E-10
 -1       493-7.74351E+05-1.12382E+05-8.80851E+02-2.94655E+05 5.33042E-10-4.15948E-10
 -1       494-7.78589E+05-1.07758E+05-9.65652E+02-2.89841E+05 3.00219E-10-3.63684E-10
 -1       495-7.73790E+05-1.13831E+05-2.00260E+03-2.95683E+05-1.24601E-10-8.24230E-11
 -1       496-7.78413E+05-1.07093E+05-3.34259E+03-2.89746E+05 3.98188E-10 5.94810E-10
 -1       497-7.76440E+05-1.17325E+05-8.86571E+03-2.94533E+05-7.13527E-10-5.27621E-10
 -1       498-7.75942E+05-1.04275E+05-1.42577E+04-2.90986E+05-4.71118E-10 3.00133E-10
 -1       499-7.92268E+05-1.40826E+05-4.20312E+04-2.87997E+05 2.75122E-11-3.04681E-11
 -1       500-7.62601E+05-8.36667E+04-6.07605E+04-2.96257E+05 4.27463E-11 7.89441E-10
 -1       501-2.00312E+05-1.18894E+04 2.78324E+04 3.32165E+02 6.62624E-10-1.00044E-09
 -1       502-1.88065E+05 1.37711E+04 1.96690E+04-2.45422E+03 1.99179E-10-9.18590E-11
 -1       503-1.95638E+05-1.84287E+03 7.20013E+03 6.19545E+02-1.47281E-10-4.39286E-10
 -1       504-1.93534E+05 2.13226E+03 4.52237E+03-2.95172E+03-1.35799E-10-1.31712E-09
 -1       505-1.94852E+05-2.84966E+02 1.83953E+03 8.29707E+02 3.56522E-10 7.30893E-10
 -1       506-1.94466E+05 3.32862E+02 1.08148E+03-3.27208E+03 8.65498E-10 4.55373E-10
 -1       507-1.94710E+05-4.56807E+01 4.95056E+02 9.39916E+02 2.77922E-10 1.09051E-09
 -1       508-1.94626E+05 6.76021E+01 3.26063E+02-3.38353E+03-2.46939E-10 1.52129E-09
 -1       509-1.94694E+05-1.91756E+01 2.46055E+02 9.41156E+02 4.12690E-10 2.40387E-09
 -1       510-1.94592E+05 1.02603E+02 3.63733E+02-3.27693E+03 4.71879E-10-9.53548E-11
 -1       511-1.94742E+05-8.17417E+01 5.42223E+02 8.33312E+02-1.79341E-11 7.09690E-11
 -1       512-1.94300E+05 6.02574E+02 1.29612E+03-2.96056E+03 5.75390E-10 3.48450E-11
 -1       513-1.94982E+05-5.20859E+02 2.02765E+03 6.24777E+02 2.66652E-10-6.47105E-10
 -1       514-1.92714E+05 3.88241E+03 5.56082E+03-2.45976E+03-8.55877E-10-3.71813E-10
 -1       515-1.96322E+05-3.35504E+03 7.82710E+03 3.32499E+02-1.84201E-10 1.10958E-10
 -1       516-2.62371E+04 1.65571E+05 6.22364E+04 3.64427E+03 2.41198E-09 4.77428E-10
 -1       517 3.23676E+04 1.93308E+05 4.74077E+04-1.75973E+04 3.45153E-09 9.46205E-10
 -1       518-5.98863E+03 1.75046E+05 2.31672E+04 3.44424E+03 2.56614E-09 1.94534E-09
 -1       519 1.94848E+04 1.87404E+05 3.05035E+04-1.76971E+04 3.95130E-09 7.60792E-10
 -1       520-1.34034E+04 1.71481E+05 3.30141E+04 3.74395E+03 1.58980E-09-1.41415E-09
 -1       521-1.55876E+06-1.96802E+05-1.12306E+05-6.02417E+05-7.22139E-10 1.33878E-09
 -1       522-1.59269E+06-2.78975E+05-7.13401E+04-6.09035E+05 4.67480E-10-8.29459E-10
 -1       523-1.57883E+06-2.23146E+05-2.65081E+04-5.98758E+05 1.71042E-10-3.63798E-10
 -1       524-1.56946E+06-2.45486E+05-1.46722E+04-6.14996E+05-4.70322E-10-1.75282E-09
 -1       525-1.58142E+06-2.25808E+05-6.17378E+03-5.98168E+05 5.51609E-10-4.75666E-10
 -1       526-1.56644E+06-2.42185E+05-3.29337E+03-6.15945E+05 1.73668E-09 1.65369E-09
 -1       527-1.58184E+06-2.25995E+05-1.68917E+03-5.98003E+05-2.97291E-10 1.24942E-10
 -1       528-1.56604E+06-2.41946E+05-1.34889E+03-6.16126E+05-3.19943E-10-6.28347E-10
 -1       529-1.58183E+06-2.26006E+05-1.62957E+03-5.98012E+05-7.26743E-10-5.74119E-10
 -1       530-1.56645E+06-2.42129E+05-3.12768E+03-6.15907E+05 8.27072E-10 5.51950E-10
 -1       531-1.58141E+06-2.25855E+05-5.83932E+03-5.98194E+05 3.94266E-10 6.14818E-10
 -1       532-1.56935E+06-2.45194E+05-1.38624E+04-6.14944E+05 2.56932E-10 1.05433E-09
 -1       533-1.57893E+06-2.23373E+05-2.50398E+04-5.98786E+05-1.46656E-11-1.83172E-09
 -1       534-1.59137E+06-2.76753E+05-6.73821E+04-6.09227E+05-1.15506E-10 6.40284E-10
 -1       535-1.55993E+06-1.98535E+05-1.06078E+05-6.02287E+05-2.42835E-10 1.25874E-09
 -1       536 6.02015E+04-7.83997E+03 3.18976E+04-3.45555E+03 1.71894E-10-6.33008E-10
 -1       537 7.19335E+04 1.03390E+04 2.05721E+04-1.50854E+04-1.07320E-09-1.38289E-09
 -1       538 6.50467E+04-8.42435E+02 8.26509E+03-3.41913E+03 2.31921E-11 2.78305E-10
 -1       539 6.64748E+04 1.04247E+03 4.64277E+03-1.51147E+04 4.59067E-10-1.06093E-09
 -1       540 6.56057E+04-9.86426E+01 2.08823E+03-3.42452E+03 3.88809E-11-2.46700E-10
 -1       541 6.58068E+04 1.02867E+02 1.10923E+03-1.51020E+04-2.00203E-10-8.90793E-10
 -1       542 6.56761E+04-1.29230E+01 5.29394E+02-3.43186E+03 3.54703E-11 3.60501E-10
 -1       543 6.57035E+04 1.43947E+01 2.86162E+02-1.50908E+04-2.57785E-10-7.29415E-10
 -1       544 6.56851E+04-1.03888E+00 1.62052E+02-3.43571E+03 2.35787E-10-7.03182E-10
 -1       545 6.56880E+04 1.34862E+01 1.33825E+02-1.50865E+04-1.29830E-10 1.27349E-09
 -1       546 6.56826E+04-4.36486E+00 1.59640E+02-3.43618E+03-1.11527E-10 1.06328E-09
 -1       547 6.57286E+04 6.88019E+01 2.98996E+02-1.50871E+04 1.90369E-10-1.08122E-09
 -1       548 6.56503E+04-5.15191E+01 5.10019E+02-3.43516E+03-5.12841E-10-1.29202E-09
 -1       549 6.60735E+04 6.29664E+02 1.25570E+03-1.50658E+04 4.88171E-10-1.93154E-10
 -1       550 6.53582E+04-4.82475E+02 1.93809E+03-3.45750E+03-3.41970E-10 7.79551E-10
 -1       551 7.17311E+03-1.54707E+05 1.53394E+04-2.36126E+05-4.18368E-11-9.82254E-11
 -1       552 3.22297E+03-1.52054E+05 1.16169E+04-2.75201E+05-8.07631E-10 1.30831E-09
 -1       553 1.94488E+03-1.54250E+05 1.29567E+04-2.35736E+05-3.12866E-10 8.57881E-10
 -1       554 7.94514E+03-1.49459E+05 2.38630E+04-2.75275E+05-2.32831E-10 1.26420E-10
 -1       555 2.24794E+04-1.57494E+05 4.51081E+04-2.36029E+05-5.00222E-10-1.46974E-09
 -1       556-1.21186E+05-6.25783E+04 9.36350E+03-1.12339E+05 1.00590E-09 4.87489E-10
 -1       557-1.12191E+05-7.24657E+04 4.59252E+03-1.19497E+05-1.49703E-09 1.12595E-09
 -1       558-1.21382E+05-6.57708E+04 1.93169E+03-1.10429E+05-1.61526E-09 1.49885E-09
 -1       559-1.12997E+05-7.40483E+04 9.46659E+02-1.19809E+05-4.82032E-11 6.51198E-10
 -1       560-1.21471E+05-6.58157E+04 4.20347E+02-1.10390E+05-1.16597E-09-4.80441E-10
 -1       561-1.13152E+05-7.40876E+04 1.96624E+02-1.19925E+05-4.25280E-09-6.51451E-09
 -1       562-1.21540E+05-6.57642E+04 6.58859E+01-1.10436E+05-2.11003E-10-8.50378E-11
 -1       563-1.13226E+05-7.40561E+04-1.50828E+01-1.19979E+05 2.91402E-09 4.85988E-09
 -1       564-1.21577E+05-6.57322E+04-1.10499E+02-1.10465E+05 1.89175E-10-1.10049E-10
 -1       565-1.13271E+05-7.40402E+04-2.74296E+02-1.20005E+05-6.89397E-10 1.86628E-09
 -1       566-1.21570E+05-6.57176E+04-5.82941E+02-1.10471E+05-4.11831E-10-1.13687E-10
 -1       567-1.13378E+05-7.41031E+04-1.28885E+03-1.19993E+05-2.45564E-11-1.43064E-09
 -1       568-1.21474E+05-6.59283E+04-2.64989E+03-1.10366E+05 9.68612E-11 8.40373E-10
 -1       569-1.14821E+05-7.57444E+04-6.25284E+03-1.19564E+05 1.05501E-10 9.72250E-10
 -1       570-1.20953E+05-7.09319E+04-1.27903E+04-1.08264E+05-3.97449E-10 1.11118E-09
 -1       571 1.61541E+05 8.12283E+03 1.26043E+04-4.16222E+04 2.49202E-10 2.01908E-10
 -1       572 1.63486E+05 2.75410E+03 6.19721E+03-4.59738E+04-4.06089E-10 9.97488E-10
 -1       573 1.62333E+05 6.02812E+02 2.75859E+03-4.15049E+04-4.32010E-11 1.10731E-09
 -1       574 1.62560E+05 1.85155E+02 1.38616E+03-4.61029E+04 2.46018E-10-9.90440E-10
 -1       575 1.62419E+05 1.28943E+01 6.56743E+02-4.14902E+04-2.03272E-10-1.89584E-09
 -1       576 1.62441E+05-1.77726E+00 3.36231E+02-4.61195E+04 1.15620E-10 8.40373E-10
 -1       577 1.62431E+05-1.11010E+01 1.69099E+02-4.14883E+04 1.67915E-10 5.42514E-10
 -1       578 1.62428E+05-7.95692E+00 9.82765E+01-4.61215E+04 1.57229E-10 6.45286E-10
 -1       579 1.62441E+05-1.10131E+01 7.15206E+01-4.14882E+04 1.23691E-10 6.79393E-10
 -1       580 1.62442E+05-1.16610E+01 8.51680E+01-4.61192E+04 8.02174E-10 1.31058E-09
 -1       581 1.62456E+05-1.41227E+01 1.36572E+02-4.14906E+04 2.76486E-10-8.94033E-10
 -1       582 1.62488E+05 1.29860E+01 2.73596E+02-4.60945E+04 2.56023E-10-1.31740E-09
 -1       583 1.62464E+05 8.62625E+01 5.35222E+02-4.15129E+04 4.94765E-10-2.04250E-09
 -1       584 1.62698E+05 4.95177E+02 1.20002E+03-4.59016E+04-1.02227E-09 1.27613E-09
 -1       585 1.62340E+05 1.52834E+03 2.43595E+03-4.16846E+04-4.36557E-10 1.51522E-09
 -1       586 1.31652E+03 6.21194E+04 2.39917E+03-1.10538E+05 9.04947E-10-2.03727E-10
 -1       587 7.04484E+02 6.25211E+04 2.25532E+03-1.22457E+05 1.80080E-10-1.27329E-11
 -1       588 7.99520E+02 6.21006E+04 3.16649E+03-1.10399E+05 1.02136E-09 1.91312E-09
 -1       589 2.92932E+03 6.32967E+04 6.45861E+03-1.22485E+05 2.18279E-10-3.90969E-10
 -1       590 8.32505E+03 6.13161E+04 1.28375E+04-1.10508E+05 9.34506E-10-9.06766E-10
 -1       591-7.35770E+04-2.61420E+04-1.36750E+04-3.90882E+04-3.15367E-10-5.27507E-10
 -1       592-7.38409E+04-2.44604E+04-6.68884E+03-4.33159E+04-1.55990E-09 1.87151E-09
 -1       593-7.39504E+04-2.09369E+04-2.83720E+03-4.14424E+04 1.49180E-09 8.48036E-09
 -1       594-7.23864E+04-2.25904E+04-1.38729E+03-4.35873E+04-2.52840E-10 1.32010E-09
 -1       595-7.40158E+04-2.07359E+04-6.38798E+02-4.15512E+04-3.06954E-11 2.89219E-10
 -1       596-7.22754E+04-2.25144E+04-3.25003E+02-4.35802E+04-3.50269E-10 1.92244E-10
 -1       597-7.40286E+04-2.07443E+04-1.79010E+02-4.15523E+04 1.63823E-10 1.24828E-09
 -1       598-7.22646E+04-2.25152E+04-1.47095E+02-4.35759E+04 1.47125E-10 5.29099E-10
 -1       599-7.40274E+04-2.07442E+04-1.91504E+02-4.15519E+04 6.55973E-11 1.06661E-09
 -1       600-7.22759E+04-2.25150E+04-3.58149E+02-4.35798E+04-2.24304E-10 2.73531E-10
 -1       601-7.40107E+04-2.07350E+04-7.09082E+02-4.15497E+04-2.34195E-10-7.09861E-10
 -1       602-7.23992E+04-2.25992E+04-1.54338E+03-4.35855E+04 3.31056E-10 3.03316E-10
 -1       603-7.39362E+04-2.09609E+04-3.15736E+03-4.14289E+04-3.23325E-10 6.07088E-10
 -1       604-7.40254E+04-2.46713E+04-7.44398E+03-4.32718E+04 4.34056E-10-8.53106E-10
 -1       605-7.35096E+04-2.67600E+04-1.52182E+04-3.88170E+04-1.63709E-10-7.42148E-10
 -1       606 4.94837E+04-6.26365E+03-9.70577E+03 1.44977E+04-2.91220E-09-7.27596E-10
 -1       607 4.79635E+04-2.12402E+03-4.77089E+03 1.58614E+04-4.43833E-10 4.82942E-10
 -1       608 4.88525E+04-4.64579E+02-2.12368E+03 1.43982E+04 2.20462E-09-4.80554E-10
 -1       609 4.86544E+04-1.35525E+02-1.06550E+03 1.59712E+04-1.14642E-09-1.11254E-09
 -1       610 4.87708E+04-1.41680E+00-5.03357E+02 1.43856E+04-3.43425E-09-6.93262E-10
 -1       611 4.87333E+04 1.51178E+01-2.53798E+02 1.59849E+04-5.90262E-09 7.73639E-10
 -1       612 4.87541E+04 2.08435E+01-1.21066E+02 1.43841E+04-2.53203E-09-7.32825E-10
 -1       613 4.87407E+04 2.09440E+01-5.68367E+01 1.59867E+04-3.99905E-09-1.35969E-09
 -1       614 4.87474E+04 1.86074E+01-1.88603E+01 1.43837E+04-1.16188E-09-1.85275E-09
 -1       615 4.87399E+04 2.11192E+01 9.35082E+00 1.59869E+04 2.99883E-09-1.31672E-09
 -1       616 4.87425E+04 2.04763E+01 4.16690E+01 1.43839E+04-1.69393E-09-9.07335E-10
 -1       617 4.87458E+04 3.63033E+01 1.00739E+02 1.59865E+04 8.54811E-10 7.43057E-10
 -1       618 4.87328E+04 6.62962E+01 2.06522E+02 1.43841E+04-1.04592E-10-5.94014E-10
 -1       619 4.88127E+04 2.31849E+02 4.67420E+02 1.59848E+04 3.76531E-10 2.60991E-09
 -1       620 4.86704E+04 6.35802E+02 9.52298E+02 1.43850E+04 9.15577E-10 2.37696E-09
 -1       621 1.37336E+03 1.66114E+05 3.24833E+03-1.60738E+04 1.80876E-10-1.65005E-09
 -1       622 5.18342E+02 1.66722E+05 2.59420E+03-1.88162E+04-8.28891E-10-2.06876E-09
 -1       623 2.98526E+02 1.66256E+05 3.08463E+03-1.60915E+04 5.54792E-11 9.45874E-11
 -1       624 1.76155E+03 1.67438E+05 5.85136E+03-1.87340E+04-5.52518E-10 2.57955E-09
 -1       625 5.42098E+03 1.65412E+05 1.11629E+04-1.61551E+04 2.51930E-10 3.43334E-10
 -1       626 6.89291E+04 2.24854E+04-4.60882E+03 4.72525E+04-2.64890E-09-3.50155E-10
 -1       627 6.69142E+04 2.55939E+04-2.18928E+03 4.80899E+04 7.40329E-10-4.83169E-12
 -1       628 6.90201E+04 2.47280E+04-9.20346E+02 4.61671E+04 9.41236E-09 1.06761E-08
 -1       629 6.72698E+04 2.65068E+04-4.42446E+02 4.80081E+04 2.86104E-09 2.17049E-09
 -1       630 6.90118E+04 2.48768E+04-1.95811E+02 4.60823E+04 1.94314E-09 6.13142E-10
 -1       631 6.72966E+04 2.65714E+04-8.86808E+01 4.80092E+04-6.83940E-09-7.91937E-09
 -1       632 6.90037E+04 2.48807E+04-2.69702E+01 4.60754E+04-3.02998E-09 2.71939E-10
 -1       633 6.72984E+04 2.65741E+04 1.62738E+01 4.80105E+04 3.99439E-09-3.45608E-10
 -1       634 6.89977E+04 2.48765E+04 6.79425E+01 4.60746E+04-6.98469E-09 3.69437E-09
 -1       635 6.73065E+04 2.65754E+04 1.64310E+02 4.80126E+04-2.24611E-08-1.11527E-09
 -1       636 6.89900E+04 2.48825E+04 3.45460E+02 4.60696E+04-1.39972E-08-2.90538E-09
 -1       637 6.73873E+04 2.66643E+04 7.72875E+02 4.79997E+04 2.63188E-09 8.64702E-10
 -1       638 6.89696E+04 2.51521E+04 1.60157E+03 4.59511E+04 8.01924E-09 1.00129E-08
 -1       639 6.82024E+04 2.80644E+04 3.80943E+03 4.76618E+04-2.00100E-09 6.66205E-11
 -1       640 6.89912E+04 2.92140E+04 8.01981E+03 4.42581E+04-1.25053E-08-1.07532E-08
 -1       641 1.25752E+03 1.48221E+03-3.47570E+03-1.41509E+02-3.55868E-09-1.19940E-09
 -1       642-2.36397E+02-1.71673E+03-2.44909E+03 6.30052E+02 1.14380E-10-1.08207E-09
 -1       643 6.79395E+02 2.29311E+02-8.96692E+02-1.40986E+02-6.94988E-09-7.76708E-10
 -1       644 4.35432E+02-2.64210E+02-5.54918E+02 6.29406E+02 2.13752E-09 7.22245E-10
 -1       645 5.85390E+02 3.46905E+01-2.15476E+02-1.40867E+02-4.22914E-09-1.63297E-09
 -1       646 5.46452E+02-3.61368E+01-1.03044E+02 6.29195E+02-1.27932E-07 6.59110E-10
 -1       647 5.68207E+02 2.04095E+00-2.75512E+00-1.40776E+02-9.52628E-06 9.89803E-09
 -1       648 5.76699E+02 1.87829E+01 8.88921E+01 6.29103E+02-1.88409E-05 2.08667E-08
 -1       649 5.55088E+02-2.00619E+01 2.05016E+02-1.40775E+02-9.52926E-06 9.94207E-09
 -1       650 6.51050E+02 1.55932E+02 4.95620E+02 6.29079E+02-1.19794E-07 9.03206E-10
 -1       651 4.93912E+02-1.34792E+02 8.66858E+02-1.40753E+02-1.72261E-09-5.21084E-10
 -1       652 1.07343E+03 1.01161E+03 2.13607E+03 6.28894E+02 3.99962E-09-6.60521E-11
 -1       653 1.32887E+02-8.73249E+02 3.41794E+03-1.40591E+02-1.60545E-09 8.45830E-11
 -1       654 3.63943E+03 6.53061E+03 9.31788E+03 6.27410E+02 3.15877E-09 1.48975E-09
 -1       655-2.07160E+03-5.63569E+03 1.32080E+04-1.39281E+02 4.10635E-09 4.36557E-10
 -1       656 5.21514E+03-1.87784E+05-2.20608E+04 4.48138E+03-6.29370E-10-8.57199E-11
 -1       657-7.51228E+03-1.95948E+05-1.61708E+04 1.92074E+04 3.34239E-11-4.57931E-10
 -1       658 1.02721E+03-1.90664E+05-1.02012E+04 4.44668E+03-6.56257E-10-1.65016E-10
 -1       659-6.82945E+03-1.95559E+05-1.49934E+04 1.92286E+04-2.57842E-10-7.25535E-11
 -1       660 4.65505E+03-1.88182E+05-1.98465E+04 4.46039E+03-1.52886E-09 2.09411E-10
 -1       661 1.87331E+05 2.35346E+04 1.53956E+04 7.30491E+04 3.19665E-09-6.95763E-10
 -1       662 1.91083E+05 3.57133E+04 9.78133E+03 7.50146E+04 1.97124E-09-1.44553E-09
 -1       663 1.90022E+05 2.72062E+04 3.63695E+03 7.26192E+04 2.80247E-09-1.52340E-10
 -1       664 1.87992E+05 3.10272E+04 2.01719E+03 7.57032E+04-2.83421E-09-7.86736E-09
 -1       665 1.90334E+05 2.76161E+04 8.53446E+02 7.25863E+04 1.15080E-09-7.76936E-10
 -1       666 1.87635E+05 3.05147E+04 4.65910E+02 7.57554E+04-1.52920E-09 1.05439E-09
 -1       667 1.90370E+05 2.76637E+04 2.58835E+02 7.25869E+04 4.28064E-09 3.26345E-10
 -1       668 1.87601E+05 3.04664E+04 2.43737E+02 7.57559E+04-2.69367E-10 3.70200E-09
 -1       669 1.90366E+05 2.76607E+04 3.40252E+02 7.25868E+04-9.04933E-10-1.04262E-09
 -1       670 1.87664E+05 3.05483E+04 6.92619E+02 7.57538E+04 6.99333E-09 1.27011E-09
 -1       671 1.90308E+05 2.75875E+04 1.30972E+03 7.25873E+04 3.19312E-09-1.64459E-09
 -1       672 1.88224E+05 3.13407E+04 3.12179E+03 7.56688E+04-3.46661E-09-7.61020E-10
 -1       673 1.89821E+05 2.69540E+04 5.63714E+03 7.26404E+04 3.00470E-09-8.00355E-10
 -1       674 1.93020E+05 3.86068E+04 1.51683E+04 7.45978E+04 5.23787E-09 8.25366E-11
 -1       675 1.85647E+05 2.12604E+04 2.38762E+04 7.33067E+04 5.12955E-10-1.69439E-09
 -1       676 6.72800E+02-1.77060E+05-3.17146E+03 1.14636E+02 8.52424E-10-8.92173E-10
 -1       677-1.21521E+03-1.78281E+05-3.18883E+03 8.00818E+01-2.83485E-10 4.46494E-10
 -1       678 3.49407E+02-1.77264E+05-3.45569E+03 1.14296E+02 9.40076E-10-5.36284E-10
 -1       679-3.62963E+03-1.79688E+05-7.36835E+03 7.99983E+01 1.12357E-09-6.61208E-10
 -1       680 2.67534E+03-1.75653E+05-1.10242E+04 1.14433E+02 4.61114E-10 2.18327E-10
 -1       681 2.69314E+05-6.99712E+03 1.63957E+04 6.16314E+02 7.05285E-11-7.25777E-10
 -1       682 2.76422E+05 8.10589E+03 1.15780E+04-1.91387E+03-3.28484E-11 9.77707E-12
 -1       683 2.72061E+05-1.08397E+03 4.25355E+03 4.17532E+02 6.12630E-11-1.39607E-10
 -1       684 2.73222E+05 1.25569E+03 2.67683E+03-1.59644E+03-1.30385E-10-2.11003E-10
 -1       685 2.72513E+05-1.68423E+02 1.12065E+03 2.98897E+02 6.05453E-11 3.00304E-10
 -1       686 2.72699E+05 2.03670E+02 7.10587E+02-1.42401E+03 7.12959E-11 2.15380E-10
 -1       687 2.72585E+05-3.46106E+01 4.32893E+02 2.45102E+02-2.51745E-11 2.18137E-10
 -1       688 2.72645E+05 9.89150E+01 5.01261E+02-1.37505E+03-1.50701E-10-9.23741E-11
 -1       689 2.72567E+05-6.38360E+01 7.07733E+02 2.49932E+02-7.05800E-11-4.83169E-12
 -1       690 2.72838E+05 4.57585E+02 1.50268E+03-1.44401E+03 8.07887E-11 6.93490E-12
 -1       691 2.72391E+05-3.92534E+02 2.55228E+03 3.14066E+02 2.63753E-10 2.16005E-12
 -1       692 2.74068E+05 2.94260E+03 6.23651E+03-1.63880E+03 2.15678E-10-2.81943E-11
 -1       693 2.71337E+05-2.54190E+03 9.96028E+03 4.44726E+02-7.11822E-11-1.22327E-10
 -1       694 2.81551E+05 1.90116E+04 2.71406E+04-1.98780E+03-4.37900E-10-3.36058E-10
 -1       695 2.64908E+05-1.64091E+04 3.84627E+04 6.63028E+02 7.98224E-11-7.45786E-10
 -1       696-5.65003E+03 2.35809E+05 1.30385E+04 5.12262E+02 5.72982E-11-4.53930E-10
 -1       697 6.11830E+03 2.41289E+05 8.39754E+03-3.16541E+03 2.67164E-11-6.26704E-10
 -1       698-4.45320E+02 2.38233E+05 1.72137E+03 4.68285E+02-9.59517E-11 2.46129E-10
 -1       699-2.26659E+03 2.37394E+05-2.61190E+03-3.19072E+03-1.26761E-10 1.34160E-09
 -1       700 2.70697E+03 2.39706E+05-5.95723E+03 5.37554E+02-8.82210E-11 5.12614E-10
 -1       701-2.46794E+05-2.25532E+04-3.16541E+04-9.80850E+04 7.95808E-11-6.94854E-10
 -1       702-2.63333E+05-5.13972E+04-2.19174E+04-9.27231E+04-4.45652E-11-5.29099E-10
 -1       703-2.53316E+05-3.37519E+04-7.42668E+03-9.58693E+04 1.02318E-11 2.91038E-11
 -1       704-2.55698E+05-3.84842E+04-4.62261E+03-9.53526E+04-1.40787E-10-3.11275E-10
 -1       705-2.54422E+05-3.54314E+04-1.73984E+03-9.54680E+04 2.51532E-11-9.58380E-11
 -1       706-2.54372E+05-3.65916E+04-1.03486E+03-9.58681E+04 7.85860E-12-1.96181E-10
 -1       707-2.54641E+05-3.56391E+04-4.83400E+02-9.53556E+04-2.05258E-11-1.88834E-10
 -1       708-2.54119E+05-3.64165E+04-4.25007E+02-9.60204E+04 1.69067E-10-2.62309E-10
 -1       709-2.54674E+05-3.56058E+04-4.75469E+02-9.53159E+04 3.92362E-11-1.12507E-10
 -1       710-2.54241E+05-3.67135E+04-1.01232E+03-9.60210E+04 3.14561E-10-5.18980E-11
 -1       711-2.54519E+05-3.53426E+04-1.69631E+03-9.53550E+04 2.70660E-10-1.99122E-10
 -1       712-2.55428E+05-3.86673E+04-4.50878E+03-9.56442E+04-9.02389E-11-1.00385E-10
 -1       713-2.53489E+05-3.36571E+04-7.23959E+03-9.56911E+04 6.69615E-11 9.90440E-10
 -1       714-2.62788E+05-5.13375E+04-2.13687E+04-9.31732E+04 2.83762E-10 2.09184E-10
 -1       715-2.47165E+05-2.27067E+04-3.08591E+04-9.78138E+04 1.27784E-10 7.45786E-11
 -1       716 6.36099E+04-8.68260E+03 2.03256E+04 7.53354E+02 4.98659E-10 3.65617E-10
 -1       717 7.25420E+04 1.00571E+04 1.43707E+04-3.11720E+03 1.32147E-10 4.22915E-10
 -1       718 6.70360E+04-1.34557E+03 5.27320E+03 6.61906E+02-1.95399E-10 4.15639E-10
 -1       719 6.85383E+04 1.55972E+03 3.32885E+03-2.97106E+03-2.30287E-11 3.08546E-10
 -1       720 6.76081E+04-2.09648E+02 1.39860E+03 6.07230E+02 6.07002E-10 3.04965E-10
 -1       721 6.78711E+04 2.57667E+02 9.03374E+02-2.89347E+03 1.18960E-09 1.28767E-09
 -1       722 6.77004E+04-4.54844E+01 5.77403E+02 5.84314E+02 7.35486E-10 4.86402E-10
 -1       723 6.78100E+04 1.42722E+02 7.10734E+02-2.87840E+03-1.60032E-11 4.91639E-10
 -1       724 6.76686E+04-9.46806E+01 1.03914E+03 5.92161E+02 6.48939E-10 9.24217E-10
 -1       725 6.81159E+04 6.84267E+02 2.23750E+03-2.92522E+03 1.98288E-10 4.80469E-10
 -1       726 6.73962E+04-5.86795E+02 3.80504E+03 6.31135E+02 2.17611E-10 6.05723E-10
 -1       727 6.99833E+04 4.39682E+03 9.32061E+03-3.03665E+03 5.86006E-10 1.82763E-09
 -1       728 6.58052E+04-3.79881E+03 1.48702E+04 7.03592E+02 3.17186E-10 1.64619E-10
 -1       729 8.12072E+04 2.84048E+04 4.05585E+04-3.23333E+03-5.85089E-10-8.11269E-10
 -1       730 5.61827E+04-2.45190E+04 5.74491E+04 8.27735E+02 3.17840E-10-8.80391E-10
 -1       731-9.99106E+03 9.74139E+04 2.34648E+04 7.47989E+02 9.98625E-10-4.84953E-10
 -1       732 1.17141E+04 1.07582E+05 1.67698E+04-3.76153E+03 1.46974E-09-4.25663E-10
 -1       733-1.68161E+03 1.01253E+05 6.50278E+03 7.59396E+02 7.22139E-10 5.00407E-10
 -1       734 2.81494E+03 1.03472E+05 5.08887E+03-3.84335E+03 1.23165E-09 8.03091E-10
 -1       735-1.12323E+03 1.01527E+05 3.29550E+03 8.29781E+02 3.65731E-10 3.80908E-10
 -1       736-5.76995E+05-6.52516E+04-4.26326E+04-2.24475E+05-2.26464E-10-1.29148E-10
 -1       737-6.00658E+05-1.02698E+05-2.95192E+04-2.15635E+05-1.37902E-10 2.16914E-10
 -1       738-5.85891E+05-8.02315E+04-1.00010E+04-2.21369E+05-2.93994E-10 3.26054E-10
 -1       739-5.90042E+05-8.56191E+04-6.22085E+03-2.19536E+05-3.14657E-10-4.62023E-10
 -1       740-5.87596E+05-8.22840E+04-2.34242E+03-2.20588E+05-4.96414E-10 3.12639E-10
 -1       741-5.87806E+05-8.35110E+04-1.38437E+03-2.20735E+05-6.66915E-11 8.96421E-11
 -1       742-5.88123E+05-8.23325E+04-6.43625E+02-2.20171E+05-6.84679E-11 6.22720E-11
 -1       743-5.87060E+05-8.36807E+04-5.47835E+02-2.21413E+05-6.47219E-10-4.01192E-10
 -1       744-5.88343E+05-8.21128E+04-6.00765E+02-2.19911E+05 7.94813E-11-1.27997E-10
 -1       745-5.86968E+05-8.42963E+04-1.26268E+03-2.21705E+05 1.07332E-09 6.86029E-10
 -1       746-5.88216E+05-8.17171E+04-2.11054E+03-2.19880E+05-1.87015E-10 1.19542E-09
 -1       747-5.88447E+05-8.67229E+04-5.60629E+03-2.21234E+05-1.37450E-09-5.15399E-10
 -1       748-5.86867E+05-7.96926E+04-9.00155E+03-2.20380E+05 4.76348E-11 1.22782E-11
 -1       749-5.97846E+05-1.02227E+05-2.65700E+04-2.17868E+05-5.25233E-11-7.45786E-11
 -1       750-5.78829E+05-6.62570E+04-3.83758E+04-2.23232E+05-5.48425E-10-8.54925E-11
 -1       751 1.30911E+06-7.25888E+04 1.70352E+05 2.71921E+03-7.06177E-09-6.54836E-10
 -1       752 1.38263E+06 8.41160E+04 1.20140E+05-4.55488E+03-1.91235E-09-1.03500E-09
 -1       753 1.33756E+06-1.12451E+04 4.41382E+04 1.16165E+03-4.57234E-10-4.01997E-10
 -1       754 1.34957E+06 1.30218E+04 2.76427E+04-2.28604E+03-1.71269E-10 9.08585E-10
 -1       755 1.34221E+06-1.73841E+03 1.13664E+04 4.50710E+02-9.66502E-10 2.40561E-10
 -1       756 1.34417E+06 2.03802E+03 6.77157E+03-1.25531E+03-1.48992E-10 1.22054E-09
 -1       757 1.34297E+06-2.94737E+02 3.35249E+03 1.30910E+02 2.22336E-10 4.09841E-10
 -1       758 1.34337E+06 5.29083E+02 2.69203E+03-8.20273E+02 4.77780E-10-3.43924E-10
 -1       759 1.34301E+06-2.33403E+02 2.77361E+03 1.56668E+01 1.00625E-09 1.84798E-10
 -1       760 1.34388E+06 1.50490E+03 5.10383E+03-7.27884E+02-8.17556E-10 2.44290E-09
 -1       761 1.34247E+06-1.26777E+03 8.35245E+03 3.85203E+01-5.53086E-10 7.83984E-10
 -1       762 1.34778E+06 9.47787E+03 2.01504E+04-9.25210E+02 3.35453E-10 1.86992E-09
 -1       763 1.33909E+06-8.18164E+03 3.21293E+04 2.12997E+02 1.30648E-09 1.17689E-09
 -1       764 1.37179E+06 6.11921E+04 8.73958E+04-1.53423E+03-7.25286E-11 1.23237E-09
 -1       765 1.31842E+06-5.28052E+04 1.23911E+05 6.47494E+02-3.74747E-10-3.49246E-10
 -1       766-3.11882E+04 2.21038E+05 7.42285E+04-3.17539E+02 1.64073E-09-9.98170E-10
 -1       767 3.86899E+04 2.53936E+05 5.69302E+04-8.71962E+01 6.95763E-11-3.53168E-10
 -1       768-7.37608E+03 2.31994E+05 2.85344E+04-9.90664E+01 9.29958E-10 5.23741E-10
 -1       769 2.50120E+04 2.47579E+05 3.89692E+04-5.15698E+02-3.87217E-10 2.46587E-10
 -1       770-1.75569E+04 2.27393E+05 4.32260E+04 1.10846E+02 7.45786E-11 9.91008E-10
 -1       771-7.25020E+05-1.47332E+05-2.76638E+04-3.12782E+05 4.16549E-10-9.24047E-10
 -1       772-7.23676E+05-1.45700E+05-1.35212E+04-3.23360E+05-2.05728E-09 2.63208E-09
 -1       773-7.25996E+05-1.36626E+05-5.74462E+03-3.17398E+05-6.83940E-10 1.07684E-09
 -1       774-7.20631E+05-1.42086E+05-2.80351E+03-3.24185E+05 1.29785E-09-5.27280E-10
 -1       775-7.26210E+05-1.36159E+05-1.29452E+03-3.17632E+05-2.31012E-10 1.27329E-10
 -1       776-7.20447E+05-1.41934E+05-6.53275E+02-3.24251E+05-3.61069E-10 1.74396E-10
 -1       777-7.26298E+05-1.36141E+05-3.56145E+02-3.17661E+05 2.98314E-10 1.61208E-10
 -1       778-7.20465E+05-1.41922E+05-2.76957E+02-3.24290E+05-4.09273E-12 4.17600E-10
 -1       779-7.26341E+05-1.36117E+05-3.48360E+02-3.17682E+05 3.27418E-11 5.35238E-10
 -1       780-7.20516E+05-1.41913E+05-6.36514E+02-3.24331E+05 9.45874E-11 1.51886E-10
 -1       781-7.26340E+05-1.36083E+05-1.25627E+03-3.17691E+05 2.66937E-10 2.23963E-10
 -1       782-7.20751E+05-1.42059E+05-2.73162E+03-3.24364E+05 5.04315E-10 4.75666E-10
 -1       783-7.26224E+05-1.36472E+05-5.58873E+03-3.17481E+05-8.33325E-10-7.00766E-10
 -1       784-7.23608E+05-1.45760E+05-1.31819E+04-3.23852E+05-9.72307E-10-1.16233E-09
 -1       785-7.25500E+05-1.46715E+05-2.69516E+04-3.12827E+05-1.68484E-10-1.20053E-10
 -1       786 1.66850E+05-5.09410E+03 2.08152E+04-9.31928E+02-3.46745E-11-3.98359E-10
 -1       787 1.74446E+05 6.76093E+03 1.34181E+04-4.13916E+03-5.95719E-11-3.50155E-09
 -1       788 1.70015E+05-5.38528E+02 5.39853E+03-9.28331E+02-1.55410E-10 4.40878E-10
 -1       789 1.70912E+05 6.89208E+02 3.03191E+03-4.13892E+03 1.31649E-10 2.57387E-10
 -1       790 1.70383E+05-5.91428E+01 1.37359E+03-9.31919E+02 5.36318E-11 5.32509E-10
 -1       791 1.70495E+05 6.95279E+01 7.41231E+02-4.13362E+03 3.73930E-10 9.13815E-10
 -1       792 1.70431E+05-7.43802E+00 3.82125E+02-9.33631E+02 4.63061E-11 6.40654E-10
 -1       793 1.70443E+05 9.83463E+00 2.60715E+02-4.13241E+03-9.20295E-11-1.85720E-09
 -1       794 1.70435E+05-4.39301E+00 2.50060E+02-9.33131E+02-2.00941E-11-2.33399E-10
 -1       795 1.70462E+05 3.37962E+01 3.92143E+02-4.13583E+03 2.28653E-11 1.23638E-09
 -1       796 1.70413E+05-2.90228E+01 6.81307E+02-9.30211E+02-3.42197E-11-1.69535E-09
 -1       797 1.70663E+05 3.33110E+02 1.47663E+03-4.14291E+03-4.15611E-10-3.65844E-10
 -1       798 1.70235E+05-2.61409E+02 2.61831E+03-9.26048E+02-3.10592E-10-2.59888E-10
 -1       799 1.72376E+05 3.27326E+03 6.50056E+03-4.14338E+03-5.05509E-10 1.78147E-10
 -1       800 1.68702E+05-2.46827E+03 1.00810E+04-9.29880E+02 1.34037E-10-1.77351E-10
 -1       801-5.83977E+03 1.68982E+05 2.38245E+04-9.46594E+04 2.29193E-10 4.22006E-10
 -1       802 1.13630E+04 1.77331E+05 2.32041E+04-4.13191E+05 4.89490E-09 3.89264E-10
 -1       803-1.67584E+03 1.70363E+05 2.31877E+04-9.43915E+04 2.78942E-09 1.70996E-09
 -1       804 2.54848E+04 1.85771E+05 4.77632E+04-4.13175E+05 3.37968E-09-1.48793E-09
 -1       805-1.76948E+04 1.60772E+05 6.99303E+04-9.46785E+04 2.52112E-09 8.36735E-11
 -1       806-1.58372E+05-4.12941E+04-1.36317E+04-7.18326E+04 2.37151E-10-1.23691E-10
 -1       807-1.58540E+05-3.78273E+04-6.47516E+03-7.58951E+04-2.22826E-11 8.14111E-10
 -1       808-1.58316E+05-3.44136E+04-2.72415E+03-7.47450E+04-4.00178E-11-5.25006E-10
 -1       809-1.57193E+05-3.54129E+04-1.31764E+03-7.64379E+04-5.78893E-10-1.23123E-09
 -1       810-1.58351E+05-3.39554E+04-5.96805E+02-7.49523E+04-4.05862E-11 9.69408E-10
 -1       811-1.57063E+05-3.52568E+04-3.00143E+02-7.64579E+04-2.42721E-11 9.00400E-11
 -1       812-1.58362E+05-3.39433E+04-1.58920E+02-7.49615E+04-3.36797E-11 4.78508E-10
 -1       813-1.57049E+05-3.52527E+04-1.20847E+02-7.64544E+04 1.69450E-10-1.68257E-10
 -1       814-1.58361E+05-3.39446E+04-1.45313E+02-7.49608E+04-2.19904E-09-7.48560E-09
 -1       815-1.57059E+05-3.52575E+04-2.64107E+02-7.64552E+04-2.63753E-10-1.52249E-09
 -1       816-1.58349E+05-3.39566E+04-5.19138E+02-7.49516E+04 7.20775E-11 1.77579E-10
 -1       817-1.57173E+05-3.53912E+04-1.14365E+03-7.64330E+04 4.86568E-09 8.61291E-09
 -1       818-1.58315E+05-3.43581E+04-2.36294E+03-7.47735E+04 1.22600E-09 3.65617E-10
 -1       819-1.58361E+05-3.74626E+04-5.61546E+03-7.59345E+04 5.65478E-10 9.54969E-11
 -1       820-1.58340E+05-4.03436E+04-1.18210E+04-7.22690E+04-4.76120E-10-5.85715E-10
 -1       821-1.55229E+05 4.89613E+03-2.00112E+04 9.71209E+02-1.44371E-09 1.06411E-10
 -1       822-1.62527E+05-6.50022E+03-1.29001E+04 4.38007E+03-8.39464E-10-9.06311E-10
 -1       823-1.58272E+05 5.16790E+02-5.19160E+03 9.45171E+02 1.48839E-09-1.19144E-09
 -1       824-1.59134E+05-6.59837E+02-2.91720E+03 4.41458E+03-6.04587E-10 1.27238E-09
 -1       825-1.58626E+05 5.70122E+01-1.32674E+03 9.36454E+02-2.95825E-09 4.59579E-10
 -1       826-1.58737E+05-6.25527E+01-7.24927E+02 4.42868E+03-5.99280E-09 9.22398E-10
 -1       827-1.58672E+05 8.27299E+00-3.92296E+02 9.31013E+02-2.55625E-09 9.13730E-10
 -1       828-1.58692E+05-6.15080E+00-3.02133E+02 4.43736E+03-3.82340E-09 1.68947E-09
 -1       829-1.58674E+05 7.39880E+00-3.40674E+02 9.27764E+02 1.04876E-11 5.84864E-10
 -1       830-1.58727E+05-4.76165E+01-5.88873E+02 4.44118E+03 2.67963E-09-1.62731E-09
 -1       831-1.58639E+05 4.61984E+01-1.05639E+03 9.27195E+02-1.25612E-09-6.38977E-10
 -1       832-1.59042E+05-5.18924E+02-2.31074E+03 4.43957E+03 3.61908E-10 8.49326E-10
 -1       833-1.58359E+05 4.10212E+02-4.10661E+03 9.29422E+02 3.77923E-10 8.18545E-12
 -1       834-1.61726E+05-5.13665E+03-1.02019E+04 4.42578E+03-5.50017E-10 1.04478E-10
 -1       835-1.55953E+05 3.87366E+03-1.58237E+04 9.41413E+02 9.89530E-10-7.65795E-10
 -1       836-8.19183E+03 4.15576E+05 3.52195E+04-1.01004E+04-7.45786E-10 1.05365E-09
 -1       837 1.22615E+04 4.28713E+05 2.74411E+04-4.35296E+04 5.90148E-10-6.17035E-10
 -1       838-2.00960E+03 4.19773E+05 2.00170E+04-1.00907E+04-8.44238E-10 5.78012E-10
 -1       839 1.58763E+04 4.30815E+05 3.36983E+04-4.35262E+04 7.74889E-10-8.66407E-10
 -1       840-1.11856E+04 4.13469E+05 4.69813E+04-1.01035E+04-6.58474E-10 4.95675E-11
 -1       841-3.02648E+04-1.17436E+03-8.13170E+03-1.28239E+04-1.95064E-09 9.57243E-10
 -1       842-3.48244E+04-8.27281E+03-5.62903E+03-1.10931E+04-2.10625E-09-7.66647E-10
 -1       843-3.19102E+04-4.07997E+03-1.90634E+03-1.22884E+04 1.48663E-09 4.09955E-10
 -1       844-3.29185E+04-4.90196E+03-1.18382E+03-1.17072E+04 7.02890E-10-6.07713E-10
 -1       845-3.21696E+04-4.53616E+03-4.39366E+02-1.22133E+04-7.90777E-10-4.13451E-10
 -1       846-3.26196E+04-4.37004E+03-2.48660E+02-1.17907E+04-3.33826E-09-1.09378E-09
 -1       847-3.22090E+04-4.61053E+03-9.08828E+01-1.22055E+04-1.08648E-09-7.05938E-10
 -1       848-3.25715E+04-4.27795E+03-3.00094E+01-1.17991E+04 3.55058E-09-8.30653E-10
 -1       849-3.22177E+04-4.62802E+03 2.33036E+01-1.22050E+04 1.33513E-09 6.60734E-10
 -1       850-3.25415E+04-4.22696E+03 1.04348E+02-1.18055E+04-2.87512E-10 1.04305E-09
 -1       851-3.22391E+04-4.66140E+03 1.97029E+02-1.21991E+04-2.69338E-10-1.02926E-09
 -1       852-3.23955E+04-3.98822E+03 5.40542E+02-1.18510E+04 2.22624E-09-3.36115E-10
 -1       853-3.23636E+04-4.86617E+03 8.72091E+02-1.21597E+04 1.59869E-09-1.19371E-11
 -1       854-3.15081E+04-2.45565E+03 2.57903E+03-1.21457E+04-6.21014E-10-9.93396E-10
 -1       855-3.31258E+04-6.18987E+03 3.72475E+03-1.19059E+04-2.57785E-10-2.42835E-10
 -1       856-1.81569E+05 4.45189E+03-1.82068E+04 1.98634E+03-2.47928E-09-3.19233E-10
 -1       857-1.88203E+05-5.90414E+03-1.17344E+04 9.04267E+03-2.50122E-09 4.91127E-11
 -1       858-1.84338E+05 4.70759E+02-4.72317E+03 1.94225E+03-3.42789E-09 5.34328E-11
 -1       859-1.85125E+05-5.87981E+02-2.65200E+03 9.10199E+03-8.19171E-10-3.94721E-10
 -1       860-1.84662E+05 5.42706E+01-1.20431E+03 1.92654E+03 8.18090E-10-4.36444E-10
 -1       861-1.84769E+05-4.24898E+01-6.53419E+02 9.12502E+03-2.30324E-09 8.12406E-10
 -1       862-1.84704E+05 1.07241E+01-3.45196E+02 1.91912E+03 3.46500E-09-8.89827E-10
 -1       863-1.84729E+05 1.03915E+01-2.50840E+02 9.13416E+03 9.48503E-09-4.02594E-10
 -1       864-1.84707E+05 9.13881E+00-2.63361E+02 1.91739E+03 2.59777E-09-5.67255E-10
 -1       865-1.84751E+05-1.94141E+01-4.37476E+02 9.13152E+03 3.22393E-09-9.62572E-11
 -1       866-1.84681E+05 3.65151E+01-7.75564E+02 1.92177E+03-4.15923E-09-2.55696E-10
 -1       867-1.84976E+05-3.65605E+02-1.68956E+03 9.11597E+03-2.88401E-09-1.21018E-09
 -1       868-1.84475E+05 3.00642E+02-3.00185E+03 1.93300E+03 2.62389E-09-7.92966E-10
 -1       869-1.86928E+05-3.74198E+03-7.45260E+03 9.06776E+03-3.40754E-09-2.11730E-09
 -1       870-1.82716E+05 2.82787E+03-1.15624E+04 1.97038E+03-8.36735E-11-9.00855E-10
 -1       871-1.55683E+03-1.48630E+04-2.79216E+03 4.19522E+04 2.48065E-09-1.48293E-09
 -1       872-4.87126E+02-1.53519E+04-8.02759E+02 4.88609E+04 1.76897E-10 8.02515E-10
 -1       873 4.14029E+01-1.51679E+04 8.47653E+02 4.18720E+04 3.76303E-10 3.23246E-09
 -1       874 1.01817E+03-1.45019E+04 3.12379E+03 4.88991E+04-2.11730E-09-2.89049E-10
 -1       875 3.33419E+03-1.57300E+04 6.74972E+03 4.19174E+04 1.18507E-09 2.12935E-10
 -1       876 2.11348E+05 2.60645E+04 2.00776E+04 8.29196E+04 3.99791E-09 9.44965E-10
 -1       877 2.16074E+05 4.21243E+04 1.27563E+04 8.56863E+04-5.93872E-11-8.20364E-10
 -1       878 2.14856E+05 3.08559E+04 4.74170E+03 8.23612E+04 3.13622E-09 1.35446E-09
 -1       879 2.12046E+05 3.60076E+04 2.62871E+03 8.65765E+04-8.15817E-10 9.68214E-10
 -1       880 2.15258E+05 3.13944E+04 1.10822E+03 8.23217E+04-1.00073E-09 1.38300E-10
 -1       881 2.11583E+05 3.53334E+04 5.97774E+02 8.66363E+04-7.47980E-09-4.63956E-09
 -1       882 2.15303E+05 3.14601E+04 3.17281E+02 8.23255E+04 3.08302E-09 3.21997E-09
 -1       883 2.11540E+05 3.52631E+04 2.73378E+02 8.66305E+04 2.37137E-10 4.72079E-09
 -1       884 2.15299E+05 3.14610E+04 3.54725E+02 8.23277E+04-2.33559E-09 2.40831E-09
 -1       885 2.11604E+05 3.53410E+04 7.01753E+02 8.66251E+04 6.94591E-09 8.12634E-10
 -1       886 2.15240E+05 3.13882E+04 1.31787E+03 8.23287E+04 3.41788E-09-1.97144E-09
 -1       887 2.12165E+05 3.61367E+04 3.13551E+03 8.65407E+04-5.73277E-09-3.80555E-09
 -1       888 2.14753E+05 3.07509E+04 5.65976E+03 8.23811E+04-3.37340E-09-1.41245E-09
 -1       889 2.16980E+05 4.34325E+04 1.52279E+04 8.54684E+04 3.06937E-09 1.05729E-09
 -1       890 2.10563E+05 2.50338E+04 2.39689E+04 8.30492E+04 1.38562E-09-1.76715E-09
 -1       891 8.01822E+02-9.36381E+04-3.57378E+03 8.79331E+03-2.14777E-09-1.21668E-09
 -1       892-1.29433E+03-9.49428E+04-2.90661E+03 3.83343E+04 2.62958E-10-1.48339E-09
 -1       893 2.27880E+02-9.40377E+04-2.32173E+03 8.75346E+03 2.18597E-09-3.16902E-11
 -1       894-2.03368E+03-9.53704E+04-4.18486E+03 3.83313E+04 9.82823E-10-1.12988E-09
 -1       895 1.41275E+03-9.32071E+04-5.97634E+03 8.79623E+03 3.71983E-10 5.52745E-10
 -1       896 3.90658E+05-2.97315E+03 6.96649E+03 5.39061E+02 1.02048E-10 1.20190E-09
 -1       897 3.93660E+05 3.44398E+03 4.92171E+03-1.32245E+03-4.25260E-11 7.06166E-10
 -1       898 3.91827E+05-4.60578E+02 1.81024E+03 3.33082E+02 3.11097E-10 5.58089E-10
 -1       899 3.92299E+05 5.33757E+02 1.14396E+03-9.87689E+02 3.04507E-10 2.06867E-10
 -1       900 3.92019E+05-7.19414E+01 4.88053E+02 2.04300E+02 3.36303E-10 1.97247E-11
 -1       901 3.92078E+05 8.95012E+01 3.27567E+02-7.86256E+02-6.87947E-11-8.74714E-11
 -1       902 3.92048E+05-1.74143E+01 2.31682E+02 1.31646E+02 1.37694E-10-9.74025E-11
 -1       903 3.92065E+05 6.25944E+01 3.17818E+02-6.85372E+02 1.31211E-11-2.65054E-10
 -1       904 3.92032E+05-4.50237E+01 4.91381E+02 1.03414E+02-2.30282E-11-2.52015E-10
 -1       905 3.92206E+05 3.29509E+02 1.07519E+03-6.68973E+02-3.26432E-10-3.56891E-10
 -1       906 3.91906E+05-2.83608E+02 1.84057E+03 1.15247E+02 3.17605E-10-2.98655E-10
 -1       907 3.93090E+05 2.12723E+03 4.50446E+03-7.34568E+02 4.54066E-10-5.94014E-11
 -1       908 3.91148E+05-1.83731E+03 7.20054E+03 1.69010E+02 9.65983E-12 2.22826E-11
 -1       909 3.98486E+05 1.37424E+04 1.96150E+04-8.94040E+02 9.94760E-13-7.93534E-11
 -1       910 3.86507E+05-1.18602E+04 2.78057E+04 2.74714E+02 3.87431E-10 2.51021E-10
 -1       911 1.18700E+05-1.57308E+03 3.68609E+03 2.06681E+02 9.28537E-11 2.50111E-10
 -1       912 1.20295E+05 1.82256E+03 2.60541E+03-8.22835E+02 5.16600E-11-4.69242E-11
 -1       913 1.19318E+05-2.43878E+02 9.61139E+02 1.60338E+02-1.94618E-11-5.42855E-11
 -1       914 1.19576E+05 2.83344E+02 6.13141E+02-7.44914E+02 2.28564E-11-5.81892E-10
 -1       915 1.19419E+05-3.86594E+01 2.73321E+02 1.28759E+02 2.93102E-10-4.94879E-10
 -1       916 1.19462E+05 5.16659E+01 2.05862E+02-6.95069E+02 4.81187E-10-6.15665E-10
 -1       917 1.19432E+05-1.27422E+01 1.83727E+02 1.10492E+02 3.63222E-10-9.50720E-10
 -1       918 1.19468E+05 5.98904E+01 3.02332E+02-6.70976E+02 1.24390E-10-1.19590E-09
 -1       919 1.19412E+05-4.68140E+01 5.04168E+02 1.04665E+02 3.82308E-10-8.85734E-10
 -1       920 1.19622E+05 3.47840E+02 1.12875E+03-6.71426E+02 2.75389E-10-9.57243E-10
 -1       921 1.19279E+05-2.99934E+02 1.94239E+03 1.10943E+02 4.47411E-10-8.16385E-10
 -1       922 1.20557E+05 2.25035E+03 4.76179E+03-6.96398E+02 5.96787E-10-7.04688E-10
 -1       923 1.18477E+05-1.94361E+03 7.61408E+03 1.29639E+02-1.15172E-10-5.95719E-10
 -1       924 1.26266E+05 1.45371E+04 2.07464E+04-7.47595E+02-2.58899E-10-3.79032E-10
 -1       925 1.13571E+05-1.25459E+04 2.94113E+04 1.62141E+02 1.40417E-10-2.56478E-10
 -1       926-5.03385E+05 1.11695E+04-2.61721E+04 1.85337E+01 8.24254E-10 3.63798E-11
 -1       927-5.14642E+05-1.29415E+04-1.84622E+04-4.37056E+01 1.12355E-12 6.27551E-11
 -1       928-5.07749E+05 1.73016E+03-6.77203E+03-4.94358E+01 2.33555E-11 1.17325E-10
 -1       929-5.09561E+05-2.00268E+03-4.23073E+03 8.71740E+01 3.43928E-10 1.16415E-10
 -1       930-5.08462E+05 2.66579E+02-1.71703E+03-1.12348E+02-1.84722E-10 4.16890E-10
 -1       931-5.08727E+05-3.06510E+02-9.80965E+02 1.95957E+02-2.75377E-10 5.85544E-10
 -1       932-5.08582E+05 3.91642E+01-4.05324E+02-1.58221E+02-3.26777E-10 4.08306E-10
 -1       933-5.08581E+05-3.43479E+01-1.74518E+02 2.61844E+02 1.28253E-11 4.11443E-10
 -1       934-5.08607E+05-4.85638E+00 8.13185E+00-1.78236E+02 1.36565E-10 4.85343E-10
 -1       935-5.08519E+05 7.60532E+01 2.10419E+02 2.72108E+02 2.31339E-10 4.71815E-10
 -1       936-5.08643E+05-7.09717E+01 4.37094E+02-1.68486E+02-3.71339E-10 6.00949E-10
 -1       937-5.08290E+05 5.38339E+02 1.12612E+03 2.24735E+02 7.17644E-11 1.21233E-10
 -1       938-5.08836E+05-4.65766E+02 1.81715E+03-1.30863E+02-1.50436E-10 3.00133E-11
 -1       939-5.06921E+05 3.48441E+03 4.96813E+03 1.28909E+02-2.30011E-10 2.27828E-10
 -1       940-5.10011E+05-3.00734E+03 7.04648E+03-7.26579E+01-4.04896E-10 5.62977E-10
 -1       941 2.06034E+06-1.01617E+05 2.38655E+05 6.99687E+01 7.82404E-09 2.50293E-09
 -1       942 2.16306E+06 1.17770E+05 1.68246E+05 4.96821E+02 7.79286E-09-1.62072E-09
 -1       943 2.10012E+06-1.57455E+04 6.18518E+04 1.80701E+02 2.94400E-09-1.49157E-10
 -1       944 2.11688E+06 1.82364E+04 3.87369E+04 3.40004E+02 6.42004E-10-1.33286E-09
 -1       945 2.10663E+06-2.43536E+03 1.59530E+04 2.26812E+02 1.30446E-09 1.76897E-09
 -1       946 2.10935E+06 2.85998E+03 9.53480E+03 2.68675E+02 1.33472E-09 4.02736E-09
 -1       947 2.10769E+06-4.17492E+02 4.78306E+03 2.52041E+02 6.66895E-10 3.05602E-09
 -1       948 2.10826E+06 7.76234E+02 3.95427E+03 2.15416E+02-4.97508E-10 1.98711E-09
 -1       949 2.10773E+06-3.57355E+02 4.21577E+03 2.80073E+02 6.62634E-10-2.87741E-09
 -1       950 2.10906E+06 2.33746E+03 7.90158E+03 1.29907E+02 1.05788E-09 3.66242E-09
 -1       951 2.10688E+06-1.97433E+03 1.29999E+04 3.37550E+02 8.57501E-11-2.02408E-09
 -1       952 2.11515E+06 1.47657E+04 3.14028E+04-6.99049E+01-7.89704E-10-1.04774E-09
 -1       953 2.10161E+06-1.27467E+04 5.00891E+04 4.79877E+02-2.59423E-09 1.97906E-09
 -1       954 2.15253E+06 9.53378E+04 1.36206E+05-5.85549E+02-2.29016E-09-1.42427E-09
 -1       955 2.06939E+06-8.22641E+04 1.93162E+05 8.53073E+02-5.66531E-09 2.18279E-10
 -1       956-1.12181E+05-1.90262E+03-3.89301E+03 1.62230E+04-1.11922E-08-4.53838E-10
 -1       957-1.12884E+05-6.01969E+02-1.96061E+03 1.87435E+04-1.72622E-08-1.14301E-09
 -1       958-1.12496E+05-7.25258E+01-8.81279E+02 1.61247E+04-6.77710E-09-1.61560E-09
 -1       959-1.12561E+05-8.99584E+00-4.48009E+02 1.88514E+04-3.12730E-09-7.16568E-10
 -1       960-1.12531E+05 1.79658E+01-2.17309E+02 1.61145E+04-5.33146E-09-7.74321E-10
 -1       961-1.12537E+05 2.05975E+01-1.14578E+02 1.88627E+04-7.34872E-09 5.96742E-10
 -1       962-1.12540E+05 1.96104E+01-6.44321E+01 1.61133E+04-3.39128E-09-1.79966E-09
 -1       963-1.12538E+05 2.26385E+01-4.96365E+01 1.88642E+04-3.94357E-09 1.21076E-10
 -1       964-1.12543E+05 2.12916E+01-5.77381E+01 1.61130E+04-1.25453E-09-1.54182E-09
 -1       965-1.12543E+05 2.43737E+01-9.77173E+01 1.88641E+04 2.08672E-09 4.00178E-11
 -1       966-1.12541E+05 2.32101E+01-1.82313E+02 1.61135E+04-3.06940E-09-9.19158E-10
 -1       967-1.12569E+05 2.99254E+00-3.74919E+02 1.88588E+04-6.61430E-10-2.23167E-10
 -1       968-1.12517E+05-4.93219E+01-7.36505E+02 1.61183E+04 6.37101E-10-8.19796E-10
 -1       969-1.12846E+05-4.90017E+02-1.63923E+03 1.88076E+04-2.95586E-12-1.83945E-10
 -1       970-1.12258E+05-1.57775E+03-3.25429E+03 1.61657E+04 1.14233E-09-9.37689E-10
 -1       971-2.45809E+05 3.73708E+03-1.52908E+04 1.96175E+03-3.34808E-09 1.03500E-09
 -1       972-2.51369E+05-4.95736E+03-9.85492E+03 9.04149E+03-1.78898E-09 2.18779E-09
 -1       973-2.48135E+05 3.94733E+02-3.96921E+03 1.90817E+03-3.68300E-09 1.73259E-09
 -1       974-2.48787E+05-4.92019E+02-2.23201E+03 9.11661E+03-1.25203E-09 2.74326E-09
 -1       975-2.48407E+05 4.56638E+01-1.02184E+03 1.88626E+03-1.01102E-09 8.55721E-10
 -1       976-2.48491E+05-3.33598E+01-5.69790E+02 9.14983E+03-3.81772E-09 3.28967E-09
 -1       977-2.48442E+05 9.91563E+00-3.31529E+02 1.87487E+03 3.91162E-09 1.53526E-09
 -1       978-2.48463E+05 8.55235E+00-2.96662E+02 9.16482E+03 9.45239E-09 1.37621E-09
 -1       979-2.48440E+05 1.17707E+01-3.88236E+02 1.87124E+03 4.09204E-09 3.37788E-10
 -1       980-2.48510E+05-4.70661E+01-7.20412E+02 9.16395E+03 4.92298E-09 2.26832E-09
 -1       981-2.48395E+05 6.02811E+01-1.31963E+03 1.87575E+03-1.04853E-09 1.49549E-09
 -1       982-2.48903E+05-6.42293E+02-2.90288E+03 9.14614E+03-1.47645E-09 2.42792E-09
 -1       983-2.48042E+05 5.17022E+02-5.16683E+03 1.88916E+03 2.79988E-09 5.49335E-10
 -1       984-2.52275E+05-6.45724E+03-1.28387E+04 9.09312E+03 2.21792E-09 1.86537E-09
 -1       985-2.45012E+05 4.87417E+03-1.99174E+04 1.92947E+03 3.70324E-09 7.18501E-10
 -3
    1PSTEP                         5           3           1          
  100CL  103 3.75000E-01         841                     0    3           1
 -4  DISP        4    1
 -5  D1          1    2    1    0
 -5  D2          1    2    2    0
 -5  D3          1    2    3    0
 -5  ALL         1    2    0    0    1ALL
 -1         1 4.53049E-05 0.00000E+00 0.00000E+00
 -1         2 3.35832E-05 0.00000E+00 0.00000E+00
 -1         3 2.81169E-05 0.00000E+00 0.00000E+00
 -1         4 2.52297E-05 0.00000E+00 0.00000E+00
 -1         5 2.39965E-05 0.00000E+00 0.00000E+00
 -1         8 3.53835E-05-4.49840E-07 0.00000E+00
 -1         9 2.83630E-05 4.64371E-07 0.00000E+00
 -1        10 2.63874E-05-1.27286E-06 0.00000E+00
 -1        11 2.46292E-05-2.73499E-07 0.00000E+00
 -1        12 2.29974E-05 6.44756E-07 0.00000E+00
 -1        15 1.47135E-05-9.29194E-07 0.00000E+00
 -1        16 2.01812E-05 4.78352E-07 0.00000E+00
 -1        17 1.88609E-05-2.55914E-06 0.00000E+00
 -1        18 1.92867E-05-5.28411E-07 0.00000E+00
 -1        19 2.03705E-05 1.27533E-06 0.00000E+00
 -1        20 2.06967E-05 1.34727E-05 0.00000E+00
 -1        21 2.06873E-05 3.23029E-05 0.00000E+00
 -1        22 5.46210E-06-5.97950E-07 0.00000E+00
 -1        23 7.27233E-06 8.80810E-07 0.00000E+00
 -1        24 7.70130E-06-2.97672E-06 0.00000E+00
 -1        25 1.66080E-05-3.77908E-07 0.00000E+00
 -1        26 1.77418E-05 1.68830E-06 0.00000E+00
 -1        27 1.66850E-05 1.30028E-05 0.00000E+00
 -1        28 1.54445E-05 3.18583E-05 0.00000E+00
 -1        29 0.00000E+00 0.00000E+00 0.00000E+00
 -1        30 2.61757E-06 1.12716E-06 0.00000E+00
 -1        31 3.40711E-06-2.42335E-06 0.00000E+00
 -1        32 0.00000E+00 0.00000E+00 0.00000E+00
 -1        33 1.39844E-05 2.72108E-06 0.00000E+00
 -1        34 1.32288E-05 1.29622E-05 0.00000E+00
 -1        35 1.15626E-05 3.16230E-05 0.00000E+00
 -1        36 4.45956E-05-9.11561E-20 1.32349E-23
 -1        37 4.38631E-05-2.39626E-19 0.00000E+00
 -1        38 4.31320E-05-3.94254E-19 0.00000E+00
 -1        39 4.23965E-05-4.56788E-19-1.32349E-23
 -1        40 4.16609E-05-4.50144E-19 0.00000E+00
 -1        41 4.09244E-05-4.20006E-19 1.32349E-23
 -1        42 4.01878E-05-3.38125E-19-2.64698E-23
 -1        43 3.94510E-05-2.17455E-19 0.00000E+00
 -1        44 3.87142E-05-9.29213E-20 2.64698E-23
 -1        45 3.79776E-05 6.00368E-20 0.00000E+00
 -1        46 3.72409E-05 1.30458E-19 0.00000E+00
 -1        47 3.65049E-05 1.15853E-19 0.00000E+00
 -1        48 3.57689E-05 6.44068E-20 0.00000E+00
 -1        49 3.50359E-05 5.38495E-20 1.32349E-23
 -1        50 3.43018E-05 4.58812E-20 0.00000E+00
 -1        51 4.45619E-05-7.69013E-08 0.00000E+00
 -1        52 4.33236E-05-1.50146E-07 0.00000E+00
 -1        53 4.16858E-05-2.22801E-07 0.00000E+00
 -1        54 3.97492E-05-2.95903E-07 0.00000E+00
 -1        55 3.76146E-05-3.70428E-07 2.06795E-25
 -1        56 4.44279E-05-3.63159E-07 0.00000E+00
 -1        57 4.35373E-05-7.86242E-07 1.32349E-23
 -1        58 4.26570E-05-1.23175E-06 0.00000E+00
 -1        59 4.17705E-05-1.67685E-06 0.00000E+00
 -1        60 4.08733E-05-2.09415E-06-2.64698E-23
 -1        61 3.99554E-05-2.45902E-06 1.32349E-23
 -1        62 3.90089E-05-2.74828E-06-2.64698E-23
 -1        63 3.80260E-05-2.94060E-06 0.00000E+00
 -1        64 3.69999E-05-3.01800E-06 0.00000E+00
 -1        65 3.59249E-05-2.96481E-06 0.00000E+00
 -1        66 3.47970E-05-2.77011E-06 0.00000E+00
 -1        67 3.36138E-05-2.42550E-06 0.00000E+00
 -1        68 3.23736E-05-1.92853E-06 0.00000E+00
 -1        69 3.10814E-05-1.27762E-06-1.32349E-23
 -1        70 2.97326E-05-4.81160E-07 1.32349E-23
 -1        71 3.32405E-05-1.02266E-19 1.32349E-23
 -1        72 3.28983E-05-1.79038E-19-6.61744E-24
 -1        73 3.25560E-05-1.95090E-19-1.32349E-23
 -1        74 3.22138E-05-2.13882E-19-6.61744E-24
 -1        75 3.18717E-05-1.96945E-19 0.00000E+00
 -1        76 3.15295E-05-1.74844E-19 6.61744E-24
 -1        77 3.11874E-05-1.92436E-19 1.32349E-23
 -1        78 3.08453E-05-1.59434E-19 0.00000E+00
 -1        79 3.05032E-05-1.25069E-19 1.32349E-23
 -1        80 3.01611E-05-9.93099E-20 6.61744E-24
 -1        81 2.98191E-05-6.42999E-20 0.00000E+00
 -1        82 2.94772E-05-5.28963E-20 0.00000E+00
 -1        83 2.91354E-05-4.28566E-20 0.00000E+00
 -1        84 2.87944E-05-2.21478E-20 0.00000E+00
 -1        85 2.84532E-05-8.57828E-21-6.61744E-24
 -1        86 3.33928E-05 6.48541E-08 0.00000E+00
 -1        87 3.28292E-05 1.46924E-07 0.00000E+00
 -1        88 3.19711E-05 2.27605E-07-6.46235E-27
 -1        89 3.08957E-05 3.09440E-07 0.00000E+00
 -1        90 2.96706E-05 3.91919E-07-1.65436E-24
 -1        91 3.32671E-05-4.27904E-07 1.32349E-23
 -1        92 3.31493E-05-1.39353E-06 6.61744E-24
 -1        93 3.31787E-05-2.75247E-06-1.32349E-23
 -1        94 3.32984E-05-4.35466E-06 0.00000E+00
 -1        95 3.34315E-05-5.99264E-06-1.32349E-23
 -1        96 3.35002E-05-7.45844E-06-6.61744E-24
 -1        97 3.34421E-05-8.58504E-06-1.32349E-23
 -1        98 3.31968E-05-9.21146E-06-6.61744E-24
 -1        99 3.27473E-05-9.29308E-06 0.00000E+00
 -1       100 3.20802E-05-8.79479E-06 0.00000E+00
 -1       101 3.12329E-05-7.81704E-06 0.00000E+00
 -1       102 3.02463E-05-6.46845E-06 6.61744E-24
 -1       103 2.91935E-05-4.94440E-06 0.00000E+00
 -1       104 2.81509E-05-3.44262E-06 0.00000E+00
 -1       105 2.71889E-05-2.15679E-06 0.00000E+00
 -1       106 2.79343E-05-1.93767E-20 0.00000E+00
 -1       107 2.77534E-05-2.97439E-20-3.30872E-24
 -1       108 2.75724E-05-4.78782E-20 0.00000E+00
 -1       109 2.73916E-05-7.02637E-20 0.00000E+00
 -1       110 2.72109E-05-9.02862E-20-6.61744E-24
 -1       111 2.70303E-05-8.84560E-20 0.00000E+00
 -1       112 2.68497E-05-7.93538E-20 0.00000E+00
 -1       113 2.66690E-05-7.79591E-20-3.30872E-24
 -1       114 2.64884E-05-1.03017E-19 0.00000E+00
 -1       115 2.63079E-05-1.05466E-19 0.00000E+00
 -1       116 2.61273E-05-8.64790E-20 6.61744E-24
 -1       117 2.59469E-05-8.22644E-20 0.00000E+00
 -1       118 2.57664E-05-4.61136E-20 6.61744E-24
 -1       119 2.55866E-05-1.50415E-20-3.30872E-24
 -1       120 2.54066E-05-6.68982E-22-3.30872E-24
 -1       121 2.81084E-05-2.12301E-07 0.00000E+00
 -1       122 2.80417E-05-4.24209E-07 3.30872E-24
 -1       123 2.78763E-05-6.36152E-07-6.61744E-24
 -1       124 2.75720E-05-8.48144E-07 0.00000E+00
 -1       125 2.70888E-05-1.06019E-06-6.61744E-24
 -1       126 2.79295E-05-1.02770E-07 0.00000E+00
 -1       127 2.77640E-05-2.61178E-07-3.30872E-24
 -1       128 2.76138E-05-4.60399E-07 6.61744E-24
 -1       129 2.74733E-05-6.84791E-07-3.30872E-24
 -1       130 2.73352E-05-9.15761E-07-6.61744E-24
 -1       131 2.71926E-05-1.13458E-06 0.00000E+00
 -1       132 2.70391E-05-1.32435E-06 0.00000E+00
 -1       133 2.68685E-05-1.46837E-06 3.30872E-24
 -1       134 2.66763E-05-1.55498E-06 0.00000E+00
 -1       135 2.64585E-05-1.57300E-06-3.30872E-24
 -1       136 2.62136E-05-1.51899E-06 6.61744E-24
 -1       137 2.59408E-05-1.39009E-06 3.30872E-24
 -1       138 2.56420E-05-1.19207E-06 0.00000E+00
 -1       139 2.53203E-05-9.30999E-07 3.30872E-24
 -1       140 2.49798E-05-6.20630E-07 0.00000E+00
 -1       141 2.51507E-05-1.27122E-21 0.00000E+00
 -1       142 2.50727E-05 9.85213E-21-1.65436E-24
 -1       143 2.49947E-05 1.87868E-20-3.30872E-24
 -1       144 2.49168E-05 3.57714E-20 0.00000E+00
 -1       145 2.48390E-05 3.84257E-20 0.00000E+00
 -1       146 2.47612E-05 5.55972E-20 0.00000E+00
 -1       147 2.46835E-05 8.07945E-20-3.30872E-24
 -1       148 2.46057E-05 9.86583E-20 8.27181E-25
 -1       149 2.45280E-05 1.16457E-19 1.65436E-24
 -1       150 2.44503E-05 1.38983E-19 0.00000E+00
 -1       151 2.43727E-05 1.13446E-19-1.65436E-24
 -1       152 2.42953E-05 7.87563E-20 0.00000E+00
 -1       153 2.42180E-05 6.34710E-20-1.65436E-24
 -1       154 2.41421E-05 4.36447E-20 0.00000E+00
 -1       155 2.40657E-05 1.81416E-20 4.13590E-25
 -1       156 2.52392E-05-4.68938E-08 1.65436E-24
 -1       157 2.52638E-05-9.15137E-08 8.27181E-25
 -1       158 2.52590E-05-1.36307E-07-1.65436E-24
 -1       159 2.51801E-05-1.81204E-07 0.00000E+00
 -1       160 2.49844E-05-2.25916E-07 0.00000E+00
 -1       161 2.51229E-05-4.88244E-08 0.00000E+00
 -1       162 2.50214E-05-1.12644E-07 1.65436E-24
 -1       163 2.49230E-05-1.84718E-07 0.00000E+00
 -1       164 2.48252E-05-2.58390E-07 1.65436E-24
 -1       165 2.47254E-05-3.26760E-07 0.00000E+00
 -1       166 2.46210E-05-3.82975E-07-1.65436E-24
 -1       167 2.45099E-05-4.21137E-07 0.00000E+00
 -1       168 2.43898E-05-4.35426E-07 0.00000E+00
 -1       169 2.42592E-05-4.21502E-07-3.30872E-24
 -1       170 2.41164E-05-3.75127E-07 1.65436E-24
 -1       171 2.39607E-05-2.94194E-07 0.00000E+00
 -1       172 2.37916E-05-1.76640E-07 0.00000E+00
 -1       173 2.36090E-05-2.29408E-08-3.30872E-24
 -1       174 2.34146E-05 1.66950E-07 0.00000E+00
 -1       175 2.32072E-05 3.89371E-07 0.00000E+00
 -1       191 2.39612E-05 1.07339E-07 0.00000E+00
 -1       192 2.38715E-05 2.14896E-07 3.30872E-24
 -1       193 2.37286E-05 3.22498E-07 6.61744E-24
 -1       194 2.35340E-05 4.30081E-07 0.00000E+00
 -1       195 2.32896E-05 5.37576E-07 3.30872E-24
 -1       251 3.49538E-05 1.25565E-06 0.00000E+00
 -1       252 3.45140E-05 2.79532E-06-6.61744E-24
 -1       253 3.40752E-05 4.02696E-06 0.00000E+00
 -1       254 3.36349E-05 4.81381E-06 0.00000E+00
 -1       255 3.31948E-05 5.11433E-06-1.32349E-23
 -1       256 3.27543E-05 4.89575E-06 0.00000E+00
 -1       257 3.23136E-05 4.23639E-06 0.00000E+00
 -1       258 3.18725E-05 3.22249E-06-6.61744E-24
 -1       259 3.14312E-05 2.01615E-06 1.32349E-23
 -1       260 3.09900E-05 7.82987E-07-6.61744E-24
 -1       261 3.05490E-05-3.05661E-07-1.32349E-23
 -1       262 3.01086E-05-1.08109E-06 6.61744E-24
 -1       263 2.96686E-05-1.44157E-06 0.00000E+00
 -1       264 2.92306E-05-1.29289E-06 6.61744E-24
 -1       265 2.87917E-05-6.49700E-07 0.00000E+00
 -1       266 3.30570E-05-5.31159E-07 0.00000E+00
 -1       267 2.96786E-05-6.10809E-07 0.00000E+00
 -1       268 2.56995E-05-6.92784E-07 3.30872E-24
 -1       269 2.15732E-05-7.74017E-07-8.27181E-25
 -1       270 1.77586E-05-8.54205E-07 1.65436E-24
 -1       271 3.40109E-05 8.11089E-07 0.00000E+00
 -1       272 3.27644E-05 1.65591E-06 0.00000E+00
 -1       273 3.16539E-05 2.14108E-06 0.00000E+00
 -1       274 3.06560E-05 2.31438E-06 0.00000E+00
 -1       275 2.97547E-05 2.22932E-06 2.64698E-23
 -1       276 2.89291E-05 1.94031E-06 1.32349E-23
 -1       277 2.81586E-05 1.50381E-06 0.00000E+00
 -1       278 2.74217E-05 9.77404E-07 0.00000E+00
 -1       279 2.66966E-05 4.19492E-07 0.00000E+00
 -1       280 2.59614E-05-1.11229E-07 0.00000E+00
 -1       281 2.51943E-05-5.56370E-07 2.64698E-23
 -1       282 2.43742E-05-8.58155E-07 0.00000E+00
 -1       283 2.34796E-05-9.60271E-07 0.00000E+00
 -1       284 2.24935E-05-8.06828E-07 0.00000E+00
 -1       285 2.13915E-05-3.47071E-07 0.00000E+00
 -1       286 2.82370E-05 1.61921E-06 0.00000E+00
 -1       287 2.81137E-05 2.39284E-06 1.65436E-24
 -1       288 2.79904E-05 2.80789E-06 3.30872E-24
 -1       289 2.78677E-05 2.88877E-06 0.00000E+00
 -1       290 2.77450E-05 2.68086E-06 0.00000E+00
 -1       291 2.76223E-05 2.23099E-06 0.00000E+00
 -1       292 2.74995E-05 1.60115E-06-3.30872E-24
 -1       293 2.73766E-05 8.54211E-07 1.65436E-24
 -1       294 2.72537E-05 6.04071E-08-3.30872E-24
 -1       295 2.71308E-05-7.09794E-07 0.00000E+00
 -1       296 2.70079E-05-1.38743E-06 0.00000E+00
 -1       297 2.68850E-05-1.90397E-06 0.00000E+00
 -1       298 2.67621E-05-2.20099E-06 0.00000E+00
 -1       299 2.66385E-05-2.22119E-06-1.65436E-24
 -1       300 2.65151E-05-1.92460E-06 6.61744E-24
 -1       301 2.69976E-05 4.61358E-07 3.30872E-24
 -1       302 2.56265E-05 4.66345E-07 8.27181E-25
 -1       303 2.42544E-05 4.72761E-07 0.00000E+00
 -1       304 2.28863E-05 4.79005E-07 0.00000E+00
 -1       305 2.15269E-05 4.83436E-07-3.30872E-24
 -1       306 2.73793E-05 1.36306E-06-1.32349E-23
 -1       307 2.65361E-05 1.83609E-06 0.00000E+00
 -1       308 2.58306E-05 1.94423E-06 0.00000E+00
 -1       309 2.52381E-05 1.74311E-06 0.00000E+00
 -1       310 2.47389E-05 1.29222E-06 0.00000E+00
 -1       311 2.43103E-05 6.51723E-07-6.61744E-24
 -1       312 2.39295E-05-1.16817E-07 0.00000E+00
 -1       313 2.35733E-05-9.51176E-07 0.00000E+00
 -1       314 2.32183E-05-1.78866E-06 0.00000E+00
 -1       315 2.28411E-05-2.56654E-06 6.61744E-24
 -1       316 2.24183E-05-3.22256E-06 0.00000E+00
 -1       317 2.19274E-05-3.69507E-06 6.61744E-24
 -1       318 2.13454E-05-3.92375E-06 0.00000E+00
 -1       319 2.06529E-05-3.84883E-06 0.00000E+00
 -1       320 1.98248E-05-3.41463E-06 1.32349E-23
 -1       321 2.62723E-05-5.37212E-07 0.00000E+00
 -1       322 2.61620E-05 9.18148E-09 1.65436E-24
 -1       323 2.60515E-05 3.77067E-07 3.30872E-24
 -1       324 2.59419E-05 5.78001E-07 0.00000E+00
 -1       325 2.58324E-05 6.32889E-07 3.30872E-24
 -1       326 2.57230E-05 5.63292E-07 1.65436E-24
 -1       327 2.56136E-05 3.97737E-07 0.00000E+00
 -1       328 2.55043E-05 1.65188E-07 0.00000E+00
 -1       329 2.53950E-05-1.01642E-07 3.30872E-24
 -1       330 2.52856E-05-3.69894E-07-1.65436E-24
 -1       331 2.51763E-05-6.06620E-07 0.00000E+00
 -1       332 2.50670E-05-7.79016E-07 0.00000E+00
 -1       333 2.49577E-05-8.57882E-07-3.30872E-24
 -1       334 2.48483E-05-8.14434E-07 1.65436E-24
 -1       335 2.47389E-05-6.26736E-07 0.00000E+00
 -1       336 2.54281E-05-1.48843E-06 0.00000E+00
 -1       337 2.42713E-05-1.70365E-06 3.30872E-24
 -1       338 2.29762E-05-1.91895E-06 0.00000E+00
 -1       339 2.16028E-05-2.13365E-06 0.00000E+00
 -1       340 2.02110E-05-2.34844E-06 6.61744E-24
 -1       341 2.56857E-05-5.24356E-07 0.00000E+00
 -1       342 2.49377E-05 3.28511E-07 6.61744E-24
 -1       343 2.41841E-05 1.19737E-06 0.00000E+00
 -1       344 2.34577E-05 1.99052E-06-6.61744E-24
 -1       345 2.27879E-05 2.63322E-06-1.32349E-23
 -1       346 2.22018E-05 3.05252E-06 0.00000E+00
 -1       347 2.17092E-05 3.22250E-06 0.00000E+00
 -1       348 2.13185E-05 3.12106E-06-6.61744E-24
 -1       349 2.10163E-05 2.78351E-06-1.32349E-23
 -1       350 2.07881E-05 2.24885E-06 0.00000E+00
 -1       351 2.06039E-05 1.59695E-06 0.00000E+00
 -1       352 2.04335E-05 9.09730E-07 0.00000E+00
 -1       353 2.02429E-05 2.76410E-07 0.00000E+00
 -1       354 2.00019E-05-2.13313E-07 3.30872E-24
 -1       355 1.96844E-05-5.02235E-07 6.61744E-24
 -1       356 2.45256E-05 1.11828E-07 0.00000E+00
 -1       357 2.44227E-05 3.94756E-07 1.65436E-24
 -1       358 2.43197E-05 5.82899E-07 3.30872E-24
 -1       359 2.42168E-05 6.84261E-07 0.00000E+00
 -1       360 2.41140E-05 7.11426E-07 0.00000E+00
 -1       361 2.40111E-05 6.77292E-07 1.65436E-24
 -1       362 2.39083E-05 5.97986E-07 0.00000E+00
 -1       363 2.38055E-05 4.89830E-07 0.00000E+00
 -1       364 2.37027E-05 3.70661E-07 3.30872E-24
 -1       365 2.35999E-05 2.58366E-07-1.65436E-24
 -1       366 2.34972E-05 1.70472E-07-3.30872E-24
 -1       367 2.33949E-05 1.24396E-07 0.00000E+00
 -1       368 2.32925E-05 1.35359E-07 0.00000E+00
 -1       369 2.31918E-05 2.18336E-07-8.27181E-25
 -1       370 2.30905E-05 3.84523E-07-5.16988E-26
 -1       371 2.39958E-05-3.19178E-07 0.00000E+00
 -1       372 2.29871E-05-3.62015E-07 0.00000E+00
 -1       373 2.18075E-05-4.05194E-07-1.65436E-24
 -1       374 2.06616E-05-4.47290E-07 0.00000E+00
 -1       375 1.97535E-05-4.89288E-07 0.00000E+00
 -1       376 2.42816E-05 4.83362E-08 0.00000E+00
 -1       377 2.39607E-05 2.88094E-07-3.30872E-24
 -1       378 2.36696E-05 4.49268E-07 0.00000E+00
 -1       379 2.34064E-05 5.34277E-07 0.00000E+00
 -1       380 2.31673E-05 5.55003E-07 0.00000E+00
 -1       381 2.29476E-05 5.23585E-07-3.30872E-24
 -1       382 2.27405E-05 4.58405E-07 6.61744E-24
 -1       383 2.25391E-05 3.78091E-07-3.30872E-24
 -1       384 2.23357E-05 3.03175E-07 0.00000E+00
 -1       385 2.21227E-05 2.54171E-07-3.30872E-24
 -1       386 2.18936E-05 2.48153E-07 0.00000E+00
 -1       387 2.16424E-05 3.01968E-07-3.30872E-24
 -1       388 2.13651E-05 4.25444E-07 6.61744E-24
 -1       389 2.10601E-05 6.28677E-07 1.65436E-24
 -1       390 2.07247E-05 9.10745E-07 3.30872E-24
 -1       406 2.26396E-05 7.50394E-07-6.61744E-24
 -1       407 2.22420E-05 8.56204E-07 1.65436E-24
 -1       408 2.18101E-05 9.61973E-07 0.00000E+00
 -1       409 2.13501E-05 1.06748E-06-1.65436E-24
 -1       410 2.08682E-05 1.17242E-06 0.00000E+00
 -1       466 1.50401E-05 1.25622E-06 6.61744E-24
 -1       467 1.53828E-05 2.55660E-06 0.00000E+00
 -1       468 1.57251E-05 3.18896E-06 6.61744E-24
 -1       469 1.60704E-05 3.36062E-06 6.61744E-24
 -1       470 1.64158E-05 3.19087E-06 0.00000E+00
 -1       471 1.67616E-05 2.79414E-06 6.61744E-24
 -1       472 1.71074E-05 2.24137E-06 0.00000E+00
 -1       473 1.74533E-05 1.60126E-06 6.61744E-24
 -1       474 1.77991E-05 9.25793E-07-1.32349E-23
 -1       475 1.81448E-05 2.66430E-07-6.61744E-24
 -1       476 1.84904E-05-3.22261E-07 1.32349E-23
 -1       477 1.88353E-05-7.84730E-07 0.00000E+00
 -1       478 1.91800E-05-1.04124E-06-6.61744E-24
 -1       479 1.95205E-05-1.00909E-06 0.00000E+00
 -1       480 1.98624E-05-5.50549E-07 0.00000E+00
 -1       481 1.22904E-05-8.77824E-07 8.27181E-25
 -1       482 1.02967E-05-8.22757E-07 0.00000E+00
 -1       483 8.67235E-06-7.67226E-07 1.65436E-24
 -1       484 7.35817E-06-7.10877E-07-8.27181E-25
 -1       485 6.30446E-06-6.54156E-07-1.65436E-24
 -1       486 1.33166E-05 1.70604E-06-6.61744E-24
 -1       487 1.18154E-05 4.57270E-06-3.30872E-24
 -1       488 1.03374E-05 7.38104E-06 0.00000E+00
 -1       489 8.99048E-06 9.83475E-06 6.61744E-24
 -1       490 7.86053E-06 1.17135E-05-1.32349E-23
 -1       491 7.02683E-06 1.28045E-05 0.00000E+00
 -1       492 6.50743E-06 1.30592E-05 1.32349E-23
 -1       493 6.31499E-06 1.24417E-05-6.61744E-24
 -1       494 6.39443E-06 1.10974E-05 0.00000E+00
 -1       495 6.68669E-06 9.18328E-06-6.61744E-24
 -1       496 7.08880E-06 6.97481E-06 0.00000E+00
 -1       497 7.49661E-06 4.75223E-06 0.00000E+00
 -1       498 7.80414E-06 2.79863E-06 0.00000E+00
 -1       499 7.90936E-06 1.39386E-06 0.00000E+00
 -1       500 7.74708E-06 7.01676E-07-6.61744E-24
 -1       501 2.00927E-05 1.56112E-06-3.30872E-24
 -1       502 2.00101E-05 2.16800E-06 0.00000E+00
 -1       503 1.99272E-05 2.34865E-06 0.00000E+00
 -1       504 1.98453E-05 2.15415E-06-1.65436E-24
 -1       505 1.97634E-05 1.65137E-06 0.00000E+00
 -1       506 1.96816E-05 9.08190E-07 1.65436E-24
 -1       507 1.95996E-05 2.58582E-09 0.00000E+00
 -1       508 1.95176E-05-9.86941E-07-1.65436E-24
 -1       509 1.94356E-05-1.97835E-06 0.00000E+00
 -1       510 1.93537E-05-2.88958E-06 0.00000E+00
 -1       511 1.92719E-05-3.64199E-06 0.00000E+00
 -1       512 1.91902E-05-4.15740E-06 0.00000E+00
 -1       513 1.91086E-05-4.36762E-06 0.00000E+00
 -1       514 1.90267E-05-4.20545E-06 0.00000E+00
 -1       515 1.89447E-05-3.61934E-06 3.30872E-24
 -1       516 1.84768E-05 5.37570E-07-1.65436E-24
 -1       517 1.60466E-05 6.06739E-07 0.00000E+00
 -1       518 1.33006E-05 6.74378E-07 0.00000E+00
 -1       519 1.06476E-05 7.43385E-07-4.13590E-25
 -1       520 8.50009E-06 8.13967E-07 0.00000E+00
 -1       521 1.90394E-05 1.29402E-06 0.00000E+00
 -1       522 1.80305E-05 1.68641E-06-1.32349E-23
 -1       523 1.71578E-05 1.71804E-06 0.00000E+00
 -1       524 1.63957E-05 1.44434E-06 1.32349E-23
 -1       525 1.57251E-05 9.25748E-07 0.00000E+00
 -1       526 1.51225E-05 2.23542E-07-1.32349E-23
 -1       527 1.45650E-05-5.99282E-07 0.00000E+00
 -1       528 1.40287E-05-1.47892E-06 1.32349E-23
 -1       529 1.34895E-05-2.35104E-06-2.64698E-23
 -1       530 1.29236E-05-3.15141E-06-1.32349E-23
 -1       531 1.23071E-05-3.81639E-06-2.64698E-23
 -1       532 1.16170E-05-4.28330E-06 0.00000E+00
 -1       533 1.08302E-05-4.49128E-06 2.64698E-23
 -1       534 9.92753E-06-4.38049E-06 0.00000E+00
 -1       535 8.88374E-06-3.89606E-06-1.32349E-23
 -1       536 1.88803E-05-1.41291E-06 0.00000E+00
 -1       537 1.89061E-05-5.41977E-07 0.00000E+00
 -1       538 1.89319E-05 8.35112E-08-1.03398E-25
 -1       539 1.89589E-05 4.93580E-07 0.00000E+00
 -1       540 1.89860E-05 7.18140E-07 0.00000E+00
 -1       541 1.90133E-05 7.87071E-07 0.00000E+00
 -1       542 1.90407E-05 7.30214E-07 0.00000E+00
 -1       543 1.90681E-05 5.77374E-07 4.13590E-25
 -1       544 1.90955E-05 3.58339E-07-8.27181E-25
 -1       545 1.91229E-05 1.02870E-07-4.13590E-25
 -1       546 1.91503E-05-1.59275E-07-8.27181E-25
 -1       547 1.91777E-05-3.98338E-07 0.00000E+00
 -1       548 1.92051E-05-5.84562E-07 8.27181E-25
 -1       549 1.92324E-05-6.88176E-07 0.00000E+00
 -1       550 1.92598E-05-6.79367E-07 0.00000E+00
 -1       551 1.71926E-05-2.62826E-06-1.29247E-24
 -1       552 1.53393E-05-2.69544E-06-1.24077E-24
 -1       553 1.33815E-05-2.76257E-06 1.65436E-24
 -1       554 1.14014E-05-2.83039E-06 0.00000E+00
 -1       555 9.48104E-06-2.89977E-06 6.61744E-24
 -1       556 1.83666E-05-1.48971E-06-6.61744E-24
 -1       557 1.79660E-05-6.63716E-07 0.00000E+00
 -1       558 1.76484E-05-5.77006E-08 0.00000E+00
 -1       559 1.74040E-05 3.54111E-07 6.61744E-24
 -1       560 1.72230E-05 5.97540E-07 0.00000E+00
 -1       561 1.70953E-05 6.98632E-07-6.61744E-24
 -1       562 1.70114E-05 6.83453E-07 0.00000E+00
 -1       563 1.69612E-05 5.78101E-07 0.00000E+00
 -1       564 1.69351E-05 4.08681E-07-3.30872E-24
 -1       565 1.69232E-05 2.01308E-07 0.00000E+00
 -1       566 1.69158E-05-1.78982E-08 0.00000E+00
 -1       567 1.69031E-05-2.22814E-07 0.00000E+00
 -1       568 1.68753E-05-3.87322E-07 8.27181E-25
 -1       569 1.68229E-05-4.85334E-07-6.20385E-25
 -1       570 1.67363E-05-4.90782E-07 4.13590E-25
 -1       571 1.93517E-05-3.62724E-07-3.10193E-25
 -1       572 1.94187E-05-2.47639E-07-4.13590E-25
 -1       573 1.94864E-05-1.74251E-07-1.65436E-24
 -1       574 1.95543E-05-1.33199E-07-4.13590E-25
 -1       575 1.96224E-05-1.15085E-07 0.00000E+00
 -1       576 1.96904E-05-1.10449E-07 8.27181E-25
 -1       577 1.97586E-05-1.09830E-07-1.65436E-24
 -1       578 1.98267E-05-1.03758E-07 1.65436E-24
 -1       579 1.98948E-05-8.27625E-08 0.00000E+00
 -1       580 1.99629E-05-3.73728E-08 0.00000E+00
 -1       581 2.00310E-05 4.18804E-08 0.00000E+00
 -1       582 2.00991E-05 1.64459E-07 3.30872E-24
 -1       583 2.01672E-05 3.39817E-07 0.00000E+00
 -1       584 2.02352E-05 5.77318E-07 0.00000E+00
 -1       585 2.03031E-05 8.86281E-07 0.00000E+00
 -1       586 1.88983E-05-5.02843E-07 0.00000E+00
 -1       587 1.84538E-05-4.77028E-07 0.00000E+00
 -1       588 1.79776E-05-4.51234E-07-8.27181E-25
 -1       589 1.74947E-05-4.25695E-07-1.29247E-26
 -1       590 1.70300E-05-4.00738E-07 0.00000E+00
 -1       591 1.91738E-05-3.37492E-07 0.00000E+00
 -1       592 1.90704E-05-1.79972E-07-1.65436E-24
 -1       593 1.89767E-05-4.98054E-08-1.65436E-24
 -1       594 1.88909E-05 5.86055E-08 0.00000E+00
 -1       595 1.88110E-05 1.50853E-07 1.65436E-24
 -1       596 1.87350E-05 2.32499E-07 0.00000E+00
 -1       597 1.86609E-05 3.09099E-07 0.00000E+00
 -1       598 1.85867E-05 3.86203E-07 0.00000E+00
 -1       599 1.85101E-05 4.69363E-07 1.65436E-24
 -1       600 1.84292E-05 5.64128E-07 0.00000E+00
 -1       601 1.83419E-05 6.76049E-07 8.27181E-25
 -1       602 1.82461E-05 8.10684E-07 0.00000E+00
 -1       603 1.81398E-05 9.73588E-07 2.06795E-25
 -1       604 1.80212E-05 1.17035E-06-2.58494E-25
 -1       605 1.78884E-05 1.40658E-06 4.13590E-25
 -1       606 2.03933E-05 1.79024E-06 0.00000E+00
 -1       607 2.04144E-05 2.35288E-06 0.00000E+00
 -1       608 2.04350E-05 2.96047E-06 0.00000E+00
 -1       609 2.04554E-05 3.60980E-06 8.27181E-25
 -1       610 2.04757E-05 4.29769E-06-1.65436E-24
 -1       611 2.04959E-05 5.02086E-06 0.00000E+00
 -1       612 2.05161E-05 5.77603E-06-1.65436E-24
 -1       613 2.05363E-05 6.55995E-06 0.00000E+00
 -1       614 2.05564E-05 7.36932E-06 1.65436E-24
 -1       615 2.05766E-05 8.20088E-06 1.65436E-24
 -1       616 2.05967E-05 9.05134E-06 0.00000E+00
 -1       617 2.06168E-05 9.91744E-06 4.13590E-25
 -1       618 2.06368E-05 1.07959E-05 8.27181E-25
 -1       619 2.06569E-05 1.16834E-05 0.00000E+00
 -1       620 2.06769E-05 1.25768E-05-8.27181E-25
 -1       621 1.98826E-05 1.34430E-06-1.65436E-24
 -1       622 1.94072E-05 1.41371E-06 0.00000E+00
 -1       623 1.89498E-05 1.48316E-06 0.00000E+00
 -1       624 1.85161E-05 1.55245E-06 4.13590E-25
 -1       625 1.81117E-05 1.62133E-06-8.27181E-25
 -1       626 2.02148E-05 1.81339E-06-3.30872E-24
 -1       627 2.00396E-05 2.40122E-06 0.00000E+00
 -1       628 1.98470E-05 3.03431E-06 0.00000E+00
 -1       629 1.96393E-05 3.70749E-06 0.00000E+00
 -1       630 1.94184E-05 4.41560E-06 0.00000E+00
 -1       631 1.91864E-05 5.15337E-06 0.00000E+00
 -1       632 1.89452E-05 5.91554E-06 1.65436E-24
 -1       633 1.86968E-05 6.69683E-06 0.00000E+00
 -1       634 1.84432E-05 7.49198E-06-1.65436E-24
 -1       635 1.81864E-05 8.29571E-06-8.27181E-25
 -1       636 1.79283E-05 9.10277E-06-8.27181E-25
 -1       637 1.76709E-05 9.90786E-06 0.00000E+00
 -1       638 1.74161E-05 1.07057E-05 8.27181E-25
 -1       639 1.71659E-05 1.14910E-05 2.06795E-25
 -1       640 1.69219E-05 1.22585E-05-4.13590E-25
 -1       641 2.06974E-05 1.44038E-05-2.06795E-25
 -1       642 2.06973E-05 1.54339E-05-5.16988E-26
 -1       643 2.06971E-05 1.65486E-05 0.00000E+00
 -1       644 2.06968E-05 1.77339E-05 0.00000E+00
 -1       645 2.06964E-05 1.89756E-05 2.58494E-26
 -1       646 2.06959E-05 2.02594E-05 0.00000E+00
 -1       647 2.06954E-05 2.15713E-05 6.46235E-27
 -1       648 2.06948E-05 2.28971E-05 0.00000E+00
 -1       649 2.06942E-05 2.42225E-05 0.00000E+00
 -1       650 2.06937E-05 2.55335E-05-1.29247E-26
 -1       651 2.06931E-05 2.68159E-05 0.00000E+00
 -1       652 2.06926E-05 2.80555E-05 0.00000E+00
 -1       653 2.06920E-05 2.92382E-05 2.06795E-25
 -1       654 2.06911E-05 3.03498E-05 0.00000E+00
 -1       655 2.06904E-05 3.13760E-05 8.27181E-25
 -1       656 1.98880E-05 1.33969E-05 0.00000E+00
 -1       657 1.91857E-05 1.33174E-05 8.27181E-25
 -1       658 1.85521E-05 1.32380E-05 1.65436E-24
 -1       659 1.79494E-05 1.31586E-05 8.27181E-25
 -1       660 1.73396E-05 1.30790E-05 0.00000E+00
 -1       661 2.04371E-05 1.44307E-05 0.00000E+00
 -1       662 2.01514E-05 1.54673E-05 0.00000E+00
 -1       663 1.98408E-05 1.65701E-05 0.00000E+00
 -1       664 1.95100E-05 1.77281E-05 0.00000E+00
 -1       665 1.91627E-05 1.89299E-05-3.30872E-24
 -1       666 1.88033E-05 2.01644E-05 0.00000E+00
 -1       667 1.84357E-05 2.14203E-05-3.30872E-24
 -1       668 1.80643E-05 2.26868E-05 0.00000E+00
 -1       669 1.76931E-05 2.39525E-05 0.00000E+00
 -1       670 1.73263E-05 2.52066E-05-1.65436E-24
 -1       671 1.69680E-05 2.64378E-05-3.30872E-24
 -1       672 1.66224E-05 2.76351E-05 0.00000E+00
 -1       673 1.62936E-05 2.87872E-05-3.30872E-24
 -1       674 1.59853E-05 2.98828E-05 8.27181E-25
 -1       675 1.57026E-05 3.09109E-05 0.00000E+00
 -1       676 1.98112E-05 3.22286E-05 0.00000E+00
 -1       677 1.89360E-05 3.21540E-05 0.00000E+00
 -1       678 1.80616E-05 3.20794E-05 0.00000E+00
 -1       679 1.71881E-05 3.20050E-05 8.27181E-25
 -1       680 1.63158E-05 3.19307E-05 1.65436E-24
 -1       681 5.57254E-06 2.42892E-08-1.65436E-24
 -1       682 5.68623E-06 4.17984E-07 0.00000E+00
 -1       683 5.79977E-06 6.25544E-07 0.00000E+00
 -1       684 5.91393E-06 6.88488E-07 1.65436E-24
 -1       685 6.02810E-06 6.39564E-07-3.30872E-24
 -1       686 6.14239E-06 5.10987E-07 0.00000E+00
 -1       687 6.25668E-06 3.30139E-07 0.00000E+00
 -1       688 6.37097E-06 1.24150E-07 0.00000E+00
 -1       689 6.48526E-06-8.13795E-08-3.30872E-24
 -1       690 6.59950E-06-2.60842E-07-1.65436E-24
 -1       691 6.71371E-06-3.87047E-07 0.00000E+00
 -1       692 6.82765E-06-4.32557E-07 0.00000E+00
 -1       693 6.94155E-06-3.65028E-07-3.30872E-24
 -1       694 7.05403E-06-1.51586E-07 0.00000E+00
 -1       695 7.16692E-06 2.49490E-07 8.27181E-25
 -1       696 4.65169E-06-5.00871E-07 1.65436E-24
 -1       697 3.70468E-06-4.01280E-07 0.00000E+00
 -1       698 2.69355E-06-3.01897E-07-3.30872E-24
 -1       699 1.69056E-06-2.01775E-07-1.65436E-24
 -1       700 7.68374E-07-1.01639E-07-3.30872E-24
 -1       701 5.09197E-06 4.10391E-08 1.65436E-24
 -1       702 4.75813E-06 5.63779E-07 0.00000E+00
 -1       703 4.46778E-06 9.72029E-07 0.00000E+00
 -1       704 4.21940E-06 1.26492E-06-1.65436E-24
 -1       705 4.01117E-06 1.45083E-06 0.00000E+00
 -1       706 3.83967E-06 1.53815E-06 0.00000E+00
 -1       707 3.69929E-06 1.54249E-06 3.30872E-24
 -1       708 3.58400E-06 1.47980E-06-1.65436E-24
 -1       709 3.48608E-06 1.37078E-06 0.00000E+00
 -1       710 3.39771E-06 1.23641E-06-1.65436E-24
 -1       711 3.31033E-06 1.09942E-06 0.00000E+00
 -1       712 3.21561E-06 9.82666E-07 0.00000E+00
 -1       713 3.10534E-06 9.07416E-07-3.30872E-24
 -1       714 2.97272E-06 8.95253E-07-1.65436E-24
 -1       715 2.80992E-06 9.62243E-07-1.65436E-24
 -1       716 7.29623E-06 1.42500E-06 0.00000E+00
 -1       717 7.32417E-06 1.56665E-06-5.16988E-26
 -1       718 7.35186E-06 1.37326E-06 0.00000E+00
 -1       719 7.38021E-06 9.11881E-07 0.00000E+00
 -1       720 7.40846E-06 2.45576E-07-8.27181E-25
 -1       721 7.43676E-06-5.62826E-07 4.13590E-25
 -1       722 7.46501E-06-1.45262E-06 8.27181E-25
 -1       723 7.49325E-06-2.36324E-06-4.13590E-25
 -1       724 7.52152E-06-3.23438E-06 0.00000E+00
 -1       725 7.54978E-06-4.00571E-06 0.00000E+00
 -1       726 7.57809E-06-4.61541E-06 0.00000E+00
 -1       727 7.60610E-06-5.00145E-06 0.00000E+00
 -1       728 7.63410E-06-5.09846E-06 2.06795E-25
 -1       729 7.65999E-06-4.84074E-06 8.27181E-25
 -1       730 7.68638E-06-4.15732E-06 0.00000E+00
 -1       731 6.45974E-06 9.17960E-07 0.00000E+00
 -1       732 5.52825E-06 9.59465E-07 0.00000E+00
 -1       733 4.57772E-06 1.00067E-06-8.27181E-25
 -1       734 3.70794E-06 1.04272E-06 0.00000E+00
 -1       735 3.02058E-06 1.08497E-06 0.00000E+00
 -1       736 6.72639E-06 1.51105E-06-6.61744E-24
 -1       737 6.18591E-06 2.10031E-06 0.00000E+00
 -1       738 5.68104E-06 2.59655E-06 0.00000E+00
 -1       739 5.23005E-06 2.94454E-06 3.30872E-24
 -1       740 4.84608E-06 3.11397E-06 0.00000E+00
 -1       741 4.53960E-06 3.07594E-06 0.00000E+00
 -1       742 4.30921E-06 2.83495E-06 6.61744E-24
 -1       743 4.15228E-06 2.39775E-06 0.00000E+00
 -1       744 4.05453E-06 1.80259E-06-6.61744E-24
 -1       745 4.00094E-06 1.08959E-06 3.30872E-24
 -1       746 3.96945E-06 3.17600E-07 0.00000E+00
 -1       747 3.93799E-06-4.53675E-07 3.30872E-24
 -1       748 3.88405E-06-1.16483E-06-6.61744E-24
 -1       749 3.78702E-06-1.75658E-06 0.00000E+00
 -1       750 3.63000E-06-2.18979E-06 0.00000E+00
 -1       751 8.22489E-06-1.77412E-06-6.61744E-24
 -1       752 8.78150E-06-1.01544E-06 6.61744E-24
 -1       753 9.33625E-06-5.72934E-07 1.32349E-23
 -1       754 9.89723E-06-3.26317E-07 0.00000E+00
 -1       755 1.04584E-05-2.18543E-07 0.00000E+00
 -1       756 1.10209E-05-1.95796E-07 0.00000E+00
 -1       757 1.15835E-05-2.31806E-07 1.32349E-23
 -1       758 1.21463E-05-3.01667E-07 0.00000E+00
 -1       759 1.27091E-05-3.91450E-07 0.00000E+00
 -1       760 1.32717E-05-4.87686E-07 6.61744E-24
 -1       761 1.38343E-05-5.79002E-07-1.32349E-23
 -1       762 1.43960E-05-6.53905E-07-6.61744E-24
 -1       763 1.49576E-05-6.95592E-07 1.32349E-23
 -1       764 1.55147E-05-6.86481E-07-6.61744E-24
 -1       765 1.60732E-05-5.92584E-07 6.61744E-24
 -1       766 6.38754E-06-2.89527E-06 0.00000E+00
 -1       767 5.31087E-06-2.80003E-06 0.00000E+00
 -1       768 4.46989E-06-2.70550E-06 0.00000E+00
 -1       769 3.86422E-06-2.60961E-06 0.00000E+00
 -1       770 3.50567E-06-2.51302E-06 0.00000E+00
 -1       771 6.86755E-06-1.83534E-06-1.32349E-23
 -1       772 6.10750E-06-9.05586E-07 0.00000E+00
 -1       773 5.41920E-06-1.69668E-07 0.00000E+00
 -1       774 4.79637E-06 3.90384E-07 0.00000E+00
 -1       775 4.23266E-06 7.92579E-07-1.32349E-23
 -1       776 3.72134E-06 1.05502E-06 0.00000E+00
 -1       777 3.25564E-06 1.19583E-06 0.00000E+00
 -1       778 2.82875E-06 1.23321E-06-6.61744E-24
 -1       779 2.43384E-06 1.18534E-06 0.00000E+00
 -1       780 2.06408E-06 1.07047E-06-6.61744E-24
 -1       781 1.71264E-06 9.06868E-07 0.00000E+00
 -1       782 1.37273E-06 7.12812E-07-6.61744E-24
 -1       783 1.03756E-06 5.06607E-07 0.00000E+00
 -1       784 7.00675E-07 3.06643E-07 0.00000E+00
 -1       785 3.55682E-07 1.31321E-07 6.61744E-24
 -1       786 1.66747E-05-1.31714E-07-8.27181E-25
 -1       787 1.67454E-05 6.05631E-08-8.27181E-25
 -1       788 1.68161E-05 2.07163E-07 0.00000E+00
 -1       789 1.68873E-05 3.16329E-07 8.27181E-25
 -1       790 1.69587E-05 3.96274E-07-1.65436E-24
 -1       791 1.70301E-05 4.55198E-07 8.27181E-25
 -1       792 1.71016E-05 5.01280E-07 0.00000E+00
 -1       793 1.71731E-05 5.42695E-07 0.00000E+00
 -1       794 1.72446E-05 5.87614E-07 1.65436E-24
 -1       795 1.73162E-05 6.44209E-07 0.00000E+00
 -1       796 1.73876E-05 7.20660E-07 0.00000E+00
 -1       797 1.74591E-05 8.25163E-07 0.00000E+00
 -1       798 1.75305E-05 9.65930E-07-1.65436E-24
 -1       799 1.76016E-05 1.15119E-06-8.27181E-25
 -1       800 1.76727E-05 1.38923E-06 0.00000E+00
 -1       801 1.51160E-05-3.12099E-07 0.00000E+00
 -1       802 1.20263E-05-2.45789E-07 0.00000E+00
 -1       803 8.15394E-06-1.82149E-07 0.00000E+00
 -1       804 4.31490E-06-1.19844E-07 0.00000E+00
 -1       805 1.32522E-06-5.47867E-08-3.30872E-24
 -1       806 1.64376E-05-1.58079E-07 0.00000E+00
 -1       807 1.62730E-05 3.87602E-08 0.00000E+00
 -1       808 1.61146E-05 2.17129E-07-3.30872E-24
 -1       809 1.59612E-05 3.81175E-07 0.00000E+00
 -1       810 1.58115E-05 5.35020E-07 3.30872E-24
 -1       811 1.56641E-05 6.82750E-07-1.65436E-24
 -1       812 1.55174E-05 8.28447E-07-3.30872E-24
 -1       813 1.53700E-05 9.76184E-07-8.27181E-25
 -1       814 1.52203E-05 1.13004E-06 0.00000E+00
 -1       815 1.50667E-05 1.29408E-06-1.65436E-24
 -1       816 1.49078E-05 1.47239E-06 1.65436E-24
 -1       817 1.47421E-05 1.66905E-06 1.65436E-24
 -1       818 1.45680E-05 1.88812E-06 0.00000E+00
 -1       819 1.43843E-05 2.13371E-06-4.13590E-25
 -1       820 1.41897E-05 2.40993E-06 0.00000E+00
 -1       821 1.76798E-05 2.06893E-06 8.27181E-25
 -1       822 1.76139E-05 2.53447E-06 8.27181E-25
 -1       823 1.75481E-05 3.07622E-06 0.00000E+00
 -1       824 1.74816E-05 3.68534E-06 8.27181E-25
 -1       825 1.74150E-05 4.35299E-06 0.00000E+00
 -1       826 1.73483E-05 5.07029E-06 0.00000E+00
 -1       827 1.72815E-05 5.82829E-06 1.65436E-24
 -1       828 1.72146E-05 6.61808E-06 0.00000E+00
 -1       829 1.71478E-05 7.43068E-06 0.00000E+00
 -1       830 1.70809E-05 8.25709E-06-8.27181E-25
 -1       831 1.70140E-05 9.08836E-06 0.00000E+00
 -1       832 1.69473E-05 9.91547E-06 0.00000E+00
 -1       833 1.68806E-05 1.07294E-05 0.00000E+00
 -1       834 1.68144E-05 1.15213E-05 0.00000E+00
 -1       835 1.67482E-05 1.22821E-05 8.27181E-25
 -1       836 1.72753E-05 1.85718E-06-3.30872E-24
 -1       837 1.66308E-05 2.03204E-06-1.65436E-24
 -1       838 1.58939E-05 2.20651E-06 0.00000E+00
 -1       839 1.51502E-05 2.38061E-06 0.00000E+00
 -1       840 1.44852E-05 2.55507E-06 0.00000E+00
 -1       841 1.75856E-05 2.06352E-06 0.00000E+00
 -1       842 1.73930E-05 2.53046E-06 0.00000E+00
 -1       843 1.71695E-05 3.08021E-06 0.00000E+00
 -1       844 1.69182E-05 3.70294E-06 0.00000E+00
 -1       845 1.66433E-05 4.38846E-06 0.00000E+00
 -1       846 1.63486E-05 5.12637E-06 0.00000E+00
 -1       847 1.60383E-05 5.90586E-06 4.13590E-25
 -1       848 1.57165E-05 6.71604E-06 2.06795E-25
 -1       849 1.53873E-05 7.54576E-06 0.00000E+00
 -1       850 1.50550E-05 8.38385E-06-2.06795E-25
 -1       851 1.47237E-05 9.21908E-06 4.13590E-25
 -1       852 1.43978E-05 1.00402E-05-2.06795E-25
 -1       853 1.40813E-05 1.08360E-05-4.13590E-25
 -1       854 1.37783E-05 1.15955E-05-4.13590E-25
 -1       855 1.34930E-05 1.23079E-05-8.27181E-25
 -1       856 1.66115E-05 1.37778E-05-8.27181E-25
 -1       857 1.65343E-05 1.46919E-05 0.00000E+00
 -1       858 1.64571E-05 1.57271E-05 0.00000E+00
 -1       859 1.63792E-05 1.68653E-05 0.00000E+00
 -1       860 1.63012E-05 1.80880E-05-1.65436E-24
 -1       861 1.62230E-05 1.93771E-05 0.00000E+00
 -1       862 1.61447E-05 2.07140E-05 1.65436E-24
 -1       863 1.60663E-05 2.20804E-05 0.00000E+00
 -1       864 1.59879E-05 2.34577E-05 1.65436E-24
 -1       865 1.59096E-05 2.48276E-05-8.27181E-25
 -1       866 1.58312E-05 2.61715E-05-1.65436E-24
 -1       867 1.57531E-05 2.74711E-05 0.00000E+00
 -1       868 1.56750E-05 2.87079E-05 1.65436E-24
 -1       869 1.55974E-05 2.98635E-05 8.27181E-25
 -1       870 1.55198E-05 3.09197E-05-1.65436E-24
 -1       871 1.60577E-05 1.29970E-05 0.00000E+00
 -1       872 1.54701E-05 1.29907E-05 0.00000E+00
 -1       873 1.49079E-05 1.29841E-05 0.00000E+00
 -1       874 1.43567E-05 1.29774E-05 0.00000E+00
 -1       875 1.38018E-05 1.29704E-05 0.00000E+00
 -1       876 1.64971E-05 1.38031E-05 1.65436E-24
 -1       877 1.62685E-05 1.47242E-05 1.65436E-24
 -1       878 1.60006E-05 1.57493E-05 0.00000E+00
 -1       879 1.57001E-05 1.68632E-05-1.65436E-24
 -1       880 1.53720E-05 1.80504E-05 0.00000E+00
 -1       881 1.50222E-05 1.92957E-05 1.65436E-24
 -1       882 1.46562E-05 2.05840E-05-3.30872E-24
 -1       883 1.42798E-05 2.19002E-05 0.00000E+00
 -1       884 1.38985E-05 2.32292E-05 0.00000E+00
 -1       885 1.35181E-05 2.45560E-05 1.65436E-24
 -1       886 1.31441E-05 2.58655E-05 0.00000E+00
 -1       887 1.27821E-05 2.71427E-05 1.65436E-24
 -1       888 1.24379E-05 2.83725E-05 0.00000E+00
 -1       889 1.21165E-05 2.95394E-05 8.27181E-25
 -1       890 1.18245E-05 3.06286E-05 0.00000E+00
 -1       891 1.46853E-05 3.18193E-05-8.27181E-25
 -1       892 1.40718E-05 3.17798E-05 0.00000E+00
 -1       893 1.35286E-05 3.17403E-05 0.00000E+00
 -1       894 1.29798E-05 3.17009E-05-4.13590E-25
 -1       895 1.23496E-05 3.16615E-05 8.27181E-25
 -1       896 1.62618E-07 5.93306E-07-3.30872E-24
 -1       897 3.26647E-07 1.00099E-06 0.00000E+00
 -1       898 4.90644E-07 1.25861E-06 6.61744E-24
 -1       899 6.54914E-07 1.40070E-06-3.30872E-24
 -1       900 8.19198E-07 1.45161E-06 6.61744E-24
 -1       901 9.83533E-07 1.43508E-06-3.30872E-24
 -1       902 1.14787E-06 1.36892E-06 0.00000E+00
 -1       903 1.31220E-06 1.27058E-06 0.00000E+00
 -1       904 1.47653E-06 1.15469E-06 0.00000E+00
 -1       905 1.64082E-06 1.03574E-06 3.30872E-24
 -1       906 1.80508E-06 9.27996E-07 0.00000E+00
 -1       907 1.96914E-06 8.45752E-07 3.30872E-24
 -1       908 2.13317E-06 8.05572E-07 0.00000E+00
 -1       909 2.29620E-06 8.24304E-07 0.00000E+00
 -1       910 2.45955E-06 9.23974E-07 0.00000E+00
 -1       911 2.66681E-06 1.31464E-06 1.65436E-24
 -1       912 2.71676E-06 1.36676E-06 0.00000E+00
 -1       913 2.76667E-06 1.30353E-06 1.65436E-24
 -1       914 2.81671E-06 1.14475E-06-8.27181E-25
 -1       915 2.86673E-06 9.07667E-07 0.00000E+00
 -1       916 2.91676E-06 6.09393E-07 0.00000E+00
 -1       917 2.96678E-06 2.65423E-07-1.65436E-24
 -1       918 3.01678E-06-1.08852E-07 8.27181E-25
 -1       919 3.06677E-06-4.98827E-07 0.00000E+00
 -1       920 3.11671E-06-8.89931E-07 0.00000E+00
 -1       921 3.16664E-06-1.26763E-06 0.00000E+00
 -1       922 3.21636E-06-1.61736E-06 8.27181E-25
 -1       923 3.26605E-06-1.92382E-06 0.00000E+00
 -1       924 3.31470E-06-2.17161E-06-2.06795E-25
 -1       925 3.36372E-06-2.34382E-06 4.13590E-25
 -1       926 3.19973E-06-2.43840E-06 0.00000E+00
 -1       927 2.98733E-06-2.41839E-06-3.30872E-24
 -1       928 2.77525E-06-2.36080E-06 0.00000E+00
 -1       929 2.56222E-06-2.26342E-06 0.00000E+00
 -1       930 2.34914E-06-2.12832E-06-6.61744E-24
 -1       931 2.13588E-06-1.95790E-06 0.00000E+00
 -1       932 1.92258E-06-1.75836E-06-6.61744E-24
 -1       933 1.70924E-06-1.53614E-06-3.30872E-24
 -1       934 1.49588E-06-1.30014E-06 0.00000E+00
 -1       935 1.28250E-06-1.05934E-06-3.30872E-24
 -1       936 1.06912E-06-8.23271E-07 0.00000E+00
 -1       937 8.55682E-07-6.01415E-07-3.30872E-24
 -1       938 6.42241E-07-4.01718E-07 0.00000E+00
 -1       939 4.28549E-07-2.31937E-07 0.00000E+00
 -1       940 2.14949E-07-9.66183E-08 6.61744E-24
 -1       941 8.29038E-07 8.96633E-08 0.00000E+00
 -1       942 1.70368E-06 2.02936E-07 6.61744E-24
 -1       943 2.57548E-06 3.31974E-07 2.64698E-23
 -1       944 3.45591E-06 4.69523E-07 0.00000E+00
 -1       945 4.33661E-06 6.12907E-07 0.00000E+00
 -1       946 5.21903E-06 7.59666E-07 1.32349E-23
 -1       947 6.10165E-06 9.09163E-07 0.00000E+00
 -1       948 6.98457E-06 1.06086E-06 0.00000E+00
 -1       949 7.86750E-06 1.21540E-06-2.64698E-23
 -1       950 8.75022E-06 1.37355E-06 1.32349E-23
 -1       951 9.63278E-06 1.53801E-06-2.64698E-23
 -1       952 1.05140E-05 1.71171E-06 1.32349E-23
 -1       953 1.13949E-05 1.90259E-06 0.00000E+00
 -1       954 1.22689E-05 2.11920E-06 1.32349E-23
 -1       955 1.31451E-05 2.38396E-06 0.00000E+00
 -1       956 1.39381E-05 3.14225E-06 1.44757E-24
 -1       957 1.38911E-05 3.61853E-06-1.03398E-25
 -1       958 1.38439E-05 4.14471E-06-4.13590E-25
 -1       959 1.37966E-05 4.71521E-06 4.13590E-25
 -1       960 1.37492E-05 5.32442E-06-4.13590E-25
 -1       961 1.37019E-05 5.96669E-06 0.00000E+00
 -1       962 1.36545E-05 6.63634E-06-1.65436E-24
 -1       963 1.36070E-05 7.32773E-06 4.13590E-25
 -1       964 1.35596E-05 8.03519E-06 0.00000E+00
 -1       965 1.35122E-05 8.75306E-06 8.27181E-25
 -1       966 1.34647E-05 9.47567E-06-1.65436E-24
 -1       967 1.34173E-05 1.01974E-05-8.27181E-25
 -1       968 1.33699E-05 1.09125E-05 0.00000E+00
 -1       969 1.33226E-05 1.16154E-05 0.00000E+00
 -1       970 1.32754E-05 1.23004E-05 0.00000E+00
 -1       971 1.31279E-05 1.36756E-05 1.65436E-24
 -1       972 1.30239E-05 1.45354E-05 0.00000E+00
 -1       973 1.29198E-05 1.55235E-05 0.00000E+00
 -1       974 1.28152E-05 1.66215E-05 0.00000E+00
 -1       975 1.27105E-05 1.78111E-05 0.00000E+00
 -1       976 1.26055E-05 1.90737E-05 0.00000E+00
 -1       977 1.25005E-05 2.03909E-05 3.30872E-24
 -1       978 1.23954E-05 2.17439E-05-1.65436E-24
 -1       979 1.22903E-05 2.31142E-05-3.30872E-24
 -1       980 1.21853E-05 2.44831E-05 1.65436E-24
 -1       981 1.20802E-05 2.58318E-05 0.00000E+00
 -1       982 1.19754E-05 2.71418E-05-1.65436E-24
 -1       983 1.18707E-05 2.83944E-05 0.00000E+00
 -1       984 1.17666E-05 2.95711E-05-1.65436E-24
 -1       985 1.16626E-05 3.06534E-05 0.00000E+00
 -3
    1PSTEP                         6           3           1          
  100CL  103 3.75000E-01         841                     0    3           1
 -4  STRESS      6    1
 -5  SXX         1    4    1    1
 -5  SYY         1    4    2    2
 -5  SZZ         1    4    3    3
 -5  SXY         1    4    1    2
 -5  SYZ         1    4    2    3
 -5  SZX         1    4    3    1
 -1         1-1.51524E+06-4.83837E+05-3.08455E+05-4.34552E+05 2.88613E-10-2.27495E-09
 -1         2-9.64516E+05-4.38074E+04 1.39850E+03-9.72489E+04 6.95763E-11-2.56932E-10
 -1         3-4.96095E+05-1.79285E+05-8.34895E+03-4.15374E+04-2.33399E-10 1.70644E-10
 -1         4-2.44187E+05-5.02205E+04 3.66243E+02-2.49793E+04 4.21778E-10-2.89015E-09
 -1         5-1.18374E+05 8.75397E+04-6.47270E+04-4.82121E+03 2.59206E-09 2.20433E-09
 -1         8-8.15626E+05-3.27650E+05-1.24167E+05-3.15780E+05-1.16415E-10-9.45874E-10
 -1         9-8.77396E+05-1.91995E+05-1.11289E+05-2.03185E+05 8.42798E-11-7.19107E-10
 -1        10-4.48487E+05-2.60462E+05-1.36152E+04-1.13720E+05-1.12398E-09 8.72205E-10
 -1        11-2.54735E+05-7.76381E+04 2.79333E+02-5.83959E+04 7.66079E-10-2.27461E-09
 -1        12-1.54794E+05 7.09628E+04-7.42317E+04-2.64363E+04 3.10848E-09-7.64604E-10
 -1        15 7.70713E+03-3.48303E+04 1.59503E+03-7.48814E+04 6.92125E-10-5.82077E-11
 -1        16-4.84677E+05-9.30717E+04 6.55240E+03-2.22784E+05 9.15558E-10 1.45246E-09
 -1        17-3.04507E+05-2.10884E+05-3.52378E+04-1.68721E+05-7.09406E-10 9.70128E-12
 -1        18-1.45052E+05-7.78855E+04-5.52878E+04-9.02125E+04-6.18305E-10-2.13428E-10
 -1        19-3.04494E+04 4.33138E+04-3.09378E+04-2.81650E+04 3.42576E-10 8.75843E-10
 -1        20 5.60289E+04-4.05499E+04-6.47334E+03 2.95015E+04 5.29405E-09-3.75167E-10
 -1        21-8.88050E+02-8.38926E+04 1.87242E+04 4.19484E+02 1.01601E-08 3.10278E-09
 -1        22 1.58911E+04 9.25641E+04 5.93242E+02-2.13631E+04-3.18323E-11-2.28283E-10
 -1        23-1.83985E+05-6.01039E+02 1.88633E+03-9.00075E+04 4.17761E-10-1.78867E-10
 -1        24-1.10401E+05 1.15422E+04 1.19624E+05-2.21786E+05-2.15490E-09-7.17894E-10
 -1        25 2.75456E+05 1.00261E+05 8.85333E+04-1.43427E+05 7.07738E-10 7.97627E-10
 -1        26 2.02041E+03 9.78419E+04 5.51788E+03-1.96502E+04-3.31246E-10 1.25980E-09
 -1        27-2.38702E+04-3.52912E+04-1.52889E+04 3.85070E+04 3.54703E-09-9.19499E-10
 -1        28-7.37529E+03-6.45280E+04-3.99573E+02 3.07972E+04 5.02666E-09-9.73479E-10
 -1        29 2.25332E+05 1.54342E+05 6.34897E+02-3.16884E+03 4.18661E-11 1.08821E-09
 -1        30 7.59082E+04 2.21723E+04 9.39129E+02-2.26630E+04 1.02300E-10 4.87944E-10
 -1        31-2.66257E+05 2.17274E+04 2.15059E+03-5.67846E+04-4.49302E-10 1.46156E-09
 -1        32 3.48087E+05 2.14729E+05 2.53197E+05-2.14605E+05 2.65449E-09 1.75714E-09
 -1        33 6.11369E+05 2.79144E+05 1.96031E+05-2.80014E+04-5.50127E-09-1.19962E-09
 -1        34-1.13938E+05-1.76974E+04-6.82826E+03 1.84364E+04-1.31994E-09-2.77396E-11
 -1        35-1.74291E+04-2.12693E+04-3.98082E+02 4.53559E+04 6.93185E-09 1.20963E-09
 -1        36-2.07644E+06 6.21788E+04-1.45531E+05 7.75428E-08 5.29056E-10-2.91038E-11
 -1        37-2.13914E+06-7.20348E+04-1.02706E+05-7.11054E-08-8.32174E-10 2.22462E-09
 -1        38-2.10070E+06 9.63129E+03-3.76692E+04 4.10498E-08-1.33452E-09-1.49703E-09
 -1        39-2.11085E+06-1.11524E+04-2.35868E+04 5.17969E-08-1.61968E-09-4.31100E-10
 -1        40-2.10465E+06 1.48868E+03-9.67494E+03-3.88517E-08-3.55375E-10 1.65892E-09
 -1        41-2.10622E+06-1.74317E+03-5.74714E+03-7.67197E-08-7.44976E-10 2.05580E-09
 -1        42-2.10529E+06 2.50279E+02-2.81182E+03 1.93663E-08-9.05219E-10 1.68416E-09
 -1        43-2.10553E+06-4.36275E+02-2.20385E+03-2.14855E-08-1.82575E-09-7.45948E-09
 -1        44-2.10533E+06 1.85266E+02-2.20295E+03-2.43981E-08-1.46513E-09-1.41017E-09
 -1        45-2.10592E+06-1.17822E+03-3.99138E+03-5.22301E-08 7.92163E-10 1.08406E-09
 -1        46-2.10491E+06 9.90153E+02-6.50070E+03 2.71971E-09-1.05409E-09 1.84968E-09
 -1        47-2.10897E+06-7.39946E+03-1.56866E+04-1.23098E-08-3.04579E-10 1.24237E-09
 -1        48-2.10230E+06 6.38773E+03-2.50041E+04-2.51735E-08 1.06307E-10-2.86855E-09
 -1        49-2.12773E+06-4.77740E+04-6.81255E+04 6.33912E-08-7.10366E-10-1.49521E-09
 -1        50-2.08622E+06 4.12347E+04-9.65408E+04 2.97701E-08-1.17354E-09 2.25555E-10
 -1        51 1.77045E+04-1.98509E+05 2.88091E+04-5.35490E+05-3.63798E-11-6.54836E-10
 -1        52 7.42225E+03-1.95175E+05 1.71865E+04-5.91763E+05-8.36735E-11-2.15005E-09
 -1        53 4.25181E+03-1.99916E+05 1.34421E+04-5.34077E+05-1.09139E-10 1.99361E-09
 -1        54 1.01460E+04-1.97319E+05 1.99155E+04-5.93296E+05-6.54836E-11 1.75169E-09
 -1        55 2.45686E+04-2.03483E+05 3.57402E+04-5.33854E+05-1.16415E-10-3.29237E-10
 -1        56-2.27514E+06-2.57636E+05-1.84924E+05-8.79693E+05-4.72937E-11 3.24508E-09
 -1        57-2.35990E+06-4.10314E+05-1.24052E+05-8.60458E+05 1.04228E-09-1.38789E-09
 -1        58-2.31101E+06-3.16036E+05-4.35558E+04-8.69669E+05 5.83896E-10 1.59525E-09
 -1        59-2.31857E+06-3.41460E+05-2.58231E+04-8.72438E+05-6.18456E-11 5.30736E-09
 -1        60-2.31602E+06-3.24173E+05-1.01859E+04-8.68529E+05 4.47699E-10 2.28283E-09
 -1        61-2.31305E+06-3.31656E+05-5.76767E+03-8.73484E+05-8.25366E-10 1.08668E-09
 -1        62-2.31646E+06-3.25551E+05-2.82001E+03-8.68715E+05 1.77351E-10 7.66761E-10
 -1        63-2.31303E+06-3.29802E+05-2.37283E+03-8.72795E+05-1.80790E-10 2.11104E-09
 -1        64-2.31602E+06-3.26000E+05-2.77866E+03-8.69223E+05-1.07946E-10 4.58147E-09
 -1        65-2.31474E+06-3.29886E+05-5.64134E+03-8.71493E+05-1.30878E-09-3.86126E-09
 -1        66-2.31475E+06-3.25500E+05-9.95145E+03-8.70005E+05-2.28511E-10 2.20098E-09
 -1        67-2.32168E+06-3.37908E+05-2.52084E+04-8.68696E+05-1.02318E-09 2.74849E-09
 -1        68-2.30916E+06-3.18263E+05-4.25238E+04-8.71926E+05-6.80302E-10 2.83035E-09
 -1        69-2.36323E+06-4.03912E+05-1.21097E+05-8.55619E+05 9.20863E-10 1.10595E-09
 -1        70-2.27364E+06-2.61757E+05-1.80528E+05-8.82284E+05-9.45874E-10-2.11003E-09
 -1        71-9.78869E+05-1.41483E+03 3.31384E+03-5.27954E-08-2.69050E-10 1.22191E-09
 -1        72-9.77350E+05 1.63918E+03 2.33458E+03-2.64402E-08-9.98591E-10 2.32194E-09
 -1        73-9.78317E+05-2.19020E+02 8.49965E+02-1.31517E-07-6.66852E-11 4.56339E-10
 -1        74-9.77995E+05 2.52505E+02 5.19762E+02-4.74454E-08-8.65909E-10-1.59641E-09
 -1        75-9.78226E+05-3.27339E+01 1.86667E+02 1.81671E-08-6.20683E-11 5.44944E-10
 -1        76-9.78106E+05 3.07954E+01 5.87190E+01-2.19006E-08 2.36583E-10 5.55588E-10
 -1        77-9.78207E+05 2.03244E+00-7.17659E+01 6.96451E-08 5.33494E-10 3.84397E-10
 -1        78-9.78152E+05-4.89627E+01-2.47899E+02-4.39170E-09 3.79932E-10 1.57105E-09
 -1        79-9.78180E+05 4.68484E+01-4.92338E+02-3.35728E-08 3.09163E-10 5.34243E-10
 -1        80-9.78318E+05-3.58659E+02-1.15353E+03-1.60537E-08 6.73976E-10 1.04251E-10
 -1        81-9.78041E+05 3.10923E+02-2.00499E+03-5.67381E-09 1.48530E-10 6.43809E-10
 -1        82-9.79289E+05-2.33448E+03-4.93192E+03-5.99499E-08-2.39099E-10 1.90835E-09
 -1        83-9.77211E+05 2.01670E+03-7.89111E+03-6.05172E-08 1.25277E-10 5.63887E-10
 -1        84-9.85213E+05-1.50843E+04-2.15156E+04-1.33379E-08-3.89540E-10 1.68689E-09
 -1        85-9.72128E+05 1.30189E+04-3.05008E+04 3.93250E-08-2.12015E-10-2.67573E-09
 -1        86-4.82393E+04 2.23761E+05 1.14979E+05 9.49078E+02 6.47560E-10-3.19937E-09
 -1        87 6.02258E+04 2.74902E+05 8.88691E+04-4.35264E+03 1.09139E-09-1.84671E-09
 -1        88-1.17877E+04 2.40558E+05 4.56022E+04 6.22943E+02 1.25419E-09 2.57288E-10
 -1        89 4.15855E+04 2.66168E+05 6.43825E+04-3.85167E+03 1.88402E-09 1.37675E-09
 -1        90-2.96592E+04 2.32481E+05 7.27426E+04 4.48247E+02 1.57524E-09 6.56527E-10
 -1        91-1.05224E+06-1.40711E+05-1.57741E+04-3.95695E+05-9.27685E-10-1.91631E-09
 -1        92-1.05546E+06-1.59626E+05-1.08651E+04-3.98241E+05-4.51735E-10-2.14641E-09
 -1        93-1.05668E+06-1.44950E+05-3.70009E+03-3.93064E+05 6.28347E-10 1.44860E-09
 -1        94-1.05041E+06-1.54618E+05-2.30271E+03-4.01187E+05-6.86100E-11 2.45339E-09
 -1        95-1.05730E+06-1.45694E+05-8.86193E+02-3.92760E+05-1.28060E-09 4.87347E-10
 -1        96-1.05077E+06-1.52572E+05-5.38364E+02-4.00146E+05 1.16118E-09 2.04254E-10
 -1        97-1.05631E+06-1.46998E+05-3.54054E+02-3.94100E+05-7.87963E-10-1.10973E-10
 -1        98-1.05360E+06-1.49448E+05-3.73380E+02-3.96646E+05 2.41911E-10-2.72649E-09
 -1        99-1.05446E+06-1.48826E+05-6.65866E+02-3.96252E+05-1.88379E-10 2.62997E-09
 -1       100-1.05742E+06-1.46403E+05-1.45345E+03-3.92586E+05-1.23185E-09 2.95685E-09
 -1       101-1.05249E+06-1.50041E+05-2.58069E+03-3.98163E+05-4.80540E-10-5.75255E-10
 -1       102-1.06161E+06-1.47209E+05-6.86591E+03-3.89542E+05 2.68017E-10 1.19269E-09
 -1       103-1.05029E+06-1.48019E+05-1.10510E+04-3.99304E+05-1.76919E-09 2.06046E-09
 -1       104-1.07259E+06-1.66820E+05-3.26357E+04-3.86048E+05-1.95098E-09 2.28283E-09
 -1       105-1.04152E+06-1.30485E+05-4.71730E+04-4.01642E+05-2.88492E-09 1.84446E-09
 -1       106-5.18626E+05-4.42640E+03 1.03730E+04-1.06608E-07-4.07122E-10-4.63842E-10
 -1       107-5.14100E+05 5.12875E+03 7.31475E+03-6.30545E-08 1.59100E-10 9.51445E-10
 -1       108-5.16896E+05-6.85596E+02 2.67959E+03 3.93303E-08-1.97185E-10 1.42336E-10
 -1       109-5.16114E+05 7.93021E+02 1.66771E+03-7.94174E-08 4.91142E-11-2.64691E-09
 -1       110-5.16614E+05-1.05075E+02 6.63109E+02 2.74174E-09-1.57599E-10 4.30362E-10
 -1       111-5.16447E+05 1.16963E+02 3.51818E+02 5.51657E-08 1.94438E-10 1.76956E-09
 -1       112-5.16564E+05-1.15882E+01 9.11233E+01-2.74861E-08 2.42090E-10-2.41585E-13
 -1       113-5.16521E+05-1.64322E+01-8.32735E+01-2.01164E-08 4.26982E-11-4.42373E-10
 -1       114-5.16540E+05 2.79932E+01-2.80615E+02 5.77290E-08 1.22036E-10-5.41917E-10
 -1       115-5.16635E+05-2.26994E+02-7.19493E+02-3.82520E-08-3.32399E-10-3.11070E-09
 -1       116-5.16450E+05 1.98435E+02-1.27375E+03-7.44716E-08-2.43686E-10-5.33475E-10
 -1       117-5.17257E+05-1.49174E+03-3.14905E+03-1.10852E-07-1.45319E-10-1.42091E-09
 -1       118-5.15919E+05 1.28890E+03-5.04349E+03-4.69295E-08-5.56328E-10-9.70886E-11
 -1       119-5.21042E+05-9.64087E+03-1.37531E+04-2.03705E-08-1.45248E-10 7.36691E-10
 -1       120-5.12668E+05 8.32082E+03-1.94973E+04 2.52264E-08-3.17617E-11-7.71252E-10
 -1       121-6.37307E+02-6.06161E+05 2.71890E+03 5.59806E+03-1.74168E-10-3.14276E-09
 -1       122 9.30447E+02-6.05067E+05 2.09066E+03 2.45385E+04-3.79430E-11-2.66448E-09
 -1       123-1.60872E+02-6.05824E+05 1.47364E+03 5.66602E+03-7.81540E-10-3.67254E-09
 -1       124 1.10826E+03-6.04901E+05 2.42999E+03 2.43087E+04-5.20345E-10-1.74259E-09
 -1       125-8.27927E+02-6.06260E+05 3.34015E+03 5.82804E+03-2.06364E-09 2.26919E-10
 -1       126-4.95341E+05-7.18270E+04 5.91084E+03-1.84585E+05-4.79304E-10-2.97177E-10
 -1       127-4.91654E+05-6.69760E+04 4.09195E+03-1.86190E+05 5.60590E-10 4.27008E-10
 -1       128-4.94203E+05-6.96550E+04 1.38273E+03-1.84907E+05-6.96332E-11 3.02890E-09
 -1       129-4.92978E+05-6.94937E+04 8.55280E+02-1.85819E+05 1.01352E-10-1.14581E-09
 -1       130-4.94020E+05-6.93159E+04 3.08387E+02-1.84954E+05-3.33088E-10-2.18783E-09
 -1       131-4.93240E+05-6.98433E+04 1.56136E+02-1.85711E+05 3.56134E-10 2.47737E-09
 -1       132-4.93941E+05-6.93064E+04 1.87686E+01-1.85015E+05 1.79886E-10-9.79696E-10
 -1       133-4.93434E+05-6.97932E+04-9.02487E+01-1.85538E+05 1.68826E-10 6.42899E-11
 -1       134-4.93826E+05-6.93664E+04-2.23406E+02-1.85127E+05-3.59228E-11-8.61746E-11
 -1       135-4.93765E+05-6.97851E+04-5.91765E+02-1.85265E+05-1.53939E-10-2.81155E-10
 -1       136-4.93609E+05-6.93151E+04-1.04095E+03-1.85288E+05 3.35248E-10-1.63567E-09
 -1       137-4.94722E+05-7.07972E+04-2.80105E+03-1.84786E+05-4.61355E-10 1.91915E-09
 -1       138-4.92871E+05-6.83574E+04-4.50868E+03-1.85605E+05 3.78748E-10-3.26054E-10
 -1       139-4.99459E+05-7.85539E+04-1.33187E+04-1.83083E+05 3.76531E-10-3.64867E-09
 -1       140-4.88878E+05-6.15799E+04-1.92368E+04-1.86985E+05 5.04770E-11-7.07587E-10
 -1       141-2.23754E+05-2.78769E+03 6.53165E+03 3.90745E-08 3.18288E-10-1.68166E-09
 -1       142-2.20913E+05 3.22982E+03 4.60316E+03 3.67766E-08-1.16263E-10 6.18627E-10
 -1       143-2.22665E+05-4.31617E+02 1.67951E+03-3.88183E-08 6.37582E-11 9.05175E-10
 -1       144-2.22183E+05 4.98108E+02 1.03261E+03-7.09884E-08-2.55913E-10 6.26642E-10
 -1       145-2.22485E+05-6.50074E+01 3.83203E+02 1.55834E-08 6.70585E-11-1.33164E-09
 -1       146-2.22398E+05 6.46213E+01 1.47883E+02 9.16841E-10-2.69682E-11 8.40160E-10
 -1       147-2.22449E+05 5.72316E-01-8.12482E+01-2.03462E-08-1.62265E-10-2.11185E-09
 -1       148-2.22475E+05-7.03237E+01-3.56584E+02 3.79795E-08 1.54386E-11-1.35559E-09
 -1       149-2.22408E+05 6.96336E+01-7.30188E+02-4.20883E-09-1.81519E-10 2.44313E-10
 -1       150-2.22725E+05-5.35513E+02-1.72209E+03-6.28282E-08-1.26462E-10-1.30592E-09
 -1       151-2.22200E+05 4.64558E+02-2.99753E+03 1.31690E-08-2.23739E-10 1.20940E-09
 -1       152-2.24176E+05-3.48828E+03-7.37380E+03 7.22447E-08 9.60624E-11 3.63104E-09
 -1       153-2.20958E+05 3.01347E+03-1.17986E+04 4.06377E-08 7.75618E-10 3.19551E-09
 -1       154-2.33024E+05-2.25398E+04-3.21594E+04 3.06483E-08 7.77368E-11 1.54978E-09
 -1       155-2.13352E+05 1.94538E+04-4.55833E+04-4.79820E-08 1.64614E-09 1.66438E-09
 -1       156-6.59042E+03-1.29020E+05 1.59720E+04-5.37792E+02-1.45519E-11 1.26825E-10
 -1       157 8.82320E+03-1.21732E+05 1.34135E+04 2.36376E+03 8.18545E-12 1.73507E-10
 -1       158-2.20442E+03-1.27022E+05 8.52707E+03-5.21947E+02 3.12639E-12 2.26696E-09
 -1       159 1.02173E+04-1.21070E+05 1.52457E+04 2.28747E+03 2.42721E-10 1.53523E-09
 -1       160-7.98076E+03-1.29680E+05 1.91261E+04-4.61485E+02 2.43745E-10 9.13730E-10
 -1       161-2.75494E+05-3.80909E+04-1.53853E+03-1.03499E+05-3.84830E-10 1.40136E-09
 -1       162-2.76027E+05-3.97357E+04-1.06779E+03-1.03513E+05-1.11005E-09 4.34136E-09
 -1       163-2.75814E+05-3.86304E+04-3.67720E+02-1.03387E+05-4.31200E-10-6.12928E-10
 -1       164-2.75663E+05-3.91052E+04-2.40741E+02-1.03634E+05 6.72131E-10 1.26130E-09
 -1       165-2.75858E+05-3.87196E+04-1.16251E+02-1.03378E+05 1.80091E-10 2.68083E-09
 -1       166-2.75635E+05-3.89968E+04-1.23534E+02-1.03626E+05-3.57994E-11 4.39058E-10
 -1       167-2.75842E+05-3.87387E+04-1.63115E+02-1.03395E+05-1.82236E-10-2.81469E-09
 -1       168-2.75717E+05-3.90184E+04-3.53720E+02-1.03570E+05 1.63425E-11-8.43762E-10
 -1       169-2.75775E+05-3.86981E+04-6.34013E+02-1.03433E+05 9.44169E-11 1.80026E-09
 -1       170-2.76083E+05-3.94625E+04-1.57984E+03-1.03423E+05-1.40162E-10 1.52249E-09
 -1       171-2.75477E+05-3.82958E+04-2.74074E+03-1.03542E+05-2.44427E-11 1.87470E-09
 -1       172-2.78063E+05-4.26384E+04-7.35486E+03-1.02770E+05-3.84915E-10 2.74031E-09
 -1       173-2.73798E+05-3.55303E+04-1.18283E+04-1.04083E+05 8.68795E-10 1.40062E-10
 -1       174-2.90041E+05-6.34173E+04-3.49334E+04-9.88020E+04 2.89037E-09 2.31557E-09
 -1       175-2.63509E+05-1.75722E+04-5.04458E+04-1.07491E+05 6.26551E-09-1.24419E-09
 -1       191 1.04687E+03 3.08097E+05 1.72137E+03-9.08309E+03-4.63842E-11 1.23509E-09
 -1       192 3.79401E+02 3.08354E+05 1.03178E+03-9.78294E+03-4.57931E-10-6.17092E-10
 -1       193 1.73598E+02 3.08181E+05 8.31194E+02-8.94166E+03-2.47837E-11-1.63709E-10
 -1       194 5.02723E+02 3.08388E+05 1.25816E+03-1.00453E+04-9.99307E-10 9.62245E-10
 -1       195 1.43045E+03 3.08042E+05 2.28394E+03-8.81975E+03 2.18279E-11 1.16415E-10
 -1       251-1.24665E+06 2.78262E+04-6.51966E+04-4.04601E+03 4.08704E-11 8.98581E-10
 -1       252-1.27461E+06-3.22315E+04-4.59803E+04 5.55267E+03-7.47931E-10-1.34605E-09
 -1       253-1.25760E+06 4.30238E+03-1.69040E+04-2.37000E+03-2.64720E-10-1.38334E-09
 -1       254-1.26181E+06-4.98475E+03-1.05359E+04 1.26476E+03 7.83075E-10-5.61613E-10
 -1       255-1.25941E+06 6.57552E+02-4.38805E+03 2.41892E+02-6.99174E-12-1.78261E-10
 -1       256-1.25978E+06-7.79019E+02-2.58959E+03-3.71209E+03 8.63352E-10 2.78578E-09
 -1       257-1.25963E+06 1.12409E+02-1.36791E+03 2.60692E+03-5.78922E-10 1.54262E-09
 -1       258-1.25964E+06-2.25842E+02-1.18635E+03-7.10883E+03 7.89271E-10 1.67996E-09
 -1       259-1.25956E+06 1.17092E+02-1.36501E+03 3.63871E+03-4.93614E-11-2.14527E-10
 -1       260-1.25995E+06-7.85374E+02-2.64997E+03-7.36581E+03-9.76740E-10-2.29164E-09
 -1       261-1.25932E+06 6.71569E+02-4.42457E+03 2.86390E+03-6.76152E-11 6.91216E-10
 -1       262-1.26190E+06-5.04993E+03-1.06836E+04-4.36275E+03 1.34082E-09 2.78692E-09
 -1       263-1.25761E+06 4.35797E+03-1.71300E+04 6.35569E+02 2.92800E-10 1.11686E-09
 -1       264-1.27466E+06-3.26553E+04-4.65519E+04 5.43193E+02-1.27967E-09 1.87265E-09
 -1       265-1.24658E+06 2.81821E+04-6.60663E+04-2.04206E+03-1.49618E-09 2.27374E-09
 -1       266-1.17988E+04-2.15964E+05 2.68302E+04 5.80476E+03 3.09228E-11-1.18496E-09
 -1       267 1.27361E+04-2.03729E+05 1.72546E+04-2.32182E+04 5.09317E-11-2.23793E-09
 -1       268-8.28266E+02-2.10363E+05 3.13102E+03 6.34402E+03 7.27596E-12-3.14314E-09
 -1       269-5.38831E+03-2.12429E+05-6.58210E+03-2.34845E+04 7.23048E-11-1.93020E-09
 -1       270 6.28417E+03-2.07294E+05-1.41446E+04 6.07104E+03-2.72848E-11 4.01678E-09
 -1       271-2.01540E+06-2.51550E+05-1.57132E+05-7.80138E+05-9.09495E-11-1.12777E-09
 -1       272-2.06824E+06-3.61273E+05-9.98322E+04-7.83275E+05 6.89624E-10 8.73115E-11
 -1       273-2.04354E+06-2.88388E+05-3.70854E+04-7.74950E+05 1.84457E-10-1.63709E-10
 -1       274-2.03557E+06-3.14513E+05-2.05248E+04-7.91747E+05-2.84672E-10-9.49058E-10
 -1       275-2.04723E+06-2.92051E+05-8.63755E+03-7.74048E+05 3.11047E-10-2.10684E-09
 -1       276-2.03121E+06-3.10028E+05-4.60672E+03-7.93232E+05 1.00954E-10 1.09628E-09
 -1       277-2.04789E+06-2.92238E+05-2.36604E+03-7.73734E+05-7.75799E-10-1.37806E-09
 -1       278-2.03053E+06-3.09829E+05-1.89286E+03-7.93651E+05-1.24231E-10 2.52722E-09
 -1       279-2.04795E+06-2.92182E+05-2.29168E+03-7.73672E+05 7.29017E-12 8.19909E-10
 -1       280-2.03100E+06-3.10212E+05-4.40656E+03-7.93500E+05 4.09273E-10-1.97042E-09
 -1       281-2.04741E+06-2.91903E+05-8.22420E+03-7.73864E+05 1.10572E-09 1.98679E-09
 -1       282-2.03500E+06-3.14648E+05-1.95414E+04-7.92294E+05-6.54040E-10-8.88122E-10
 -1       283-2.04399E+06-2.88337E+05-3.52892E+04-7.74635E+05-1.77806E-10 6.11180E-10
 -1       284-2.06594E+06-3.59298E+05-9.50135E+04-7.84409E+05-1.04751E-09-4.51109E-10
 -1       285-2.01728E+06-2.53205E+05-1.49537E+05-7.79493E+05 8.03993E-10 1.52795E-10
 -1       286-3.53558E+05-6.16927E+03 1.44258E+04-1.88727E+02 1.12703E-09 1.74623E-09
 -1       287-3.47093E+05 7.14350E+03 1.02139E+04-1.44846E+03 6.72529E-10-1.24089E-09
 -1       288-3.51134E+05-9.57504E+02 3.73245E+03 3.43661E+02-3.06500E-10-1.30694E-09
 -1       289-3.49941E+05 1.10673E+03 2.36588E+03-2.41258E+03-2.42721E-11 3.22805E-09
 -1       290-3.50716E+05-1.49385E+02 9.72373E+02 7.75421E+02 4.78011E-10 1.39499E-09
 -1       291-3.50448E+05 1.79134E+02 6.13060E+02-3.11369E+03 8.90040E-10-6.16950E-10
 -1       292-3.50632E+05-2.91466E+01 3.45713E+02 1.04478E+03 7.88503E-10 1.76199E-09
 -1       293-3.50531E+05 7.54852E+01 3.67188E+02-3.45326E+03 3.17257E-12 2.88779E-09
 -1       294-3.50635E+05-4.39097E+01 4.87353E+02 1.11500E+03 1.24668E-09 6.76351E-10
 -1       295-3.50401E+05 3.09929E+02 1.01304E+03-3.38488E+03 3.72047E-10-1.00522E-09
 -1       296-3.50762E+05-2.63409E+02 1.70666E+03 9.76401E+02 4.12356E-10-1.97588E-10
 -1       297-3.49545E+05 1.97002E+03 4.17719E+03-2.91820E+03 7.56238E-10-6.03166E-10
 -1       298-3.51486E+05-1.70172E+03 6.65061E+03 6.48311E+02 6.03507E-10-1.20099E-09
 -1       299-3.44501E+05 1.27163E+04 1.81586E+04-2.12189E+03 3.25166E-10 2.23918E-09
 -1       300-3.55797E+05-1.09776E+04 2.57014E+04 1.80058E+02-3.29891E-10 2.15186E-09
 -1       301 2.76279E+04 2.26921E+04 5.91044E+04-1.68217E+04-1.80444E-09 1.32638E-09
 -1       302 9.29971E+03 3.36414E+04 3.54786E+04-1.96645E+04 8.66294E-11 1.99716E-10
 -1       303 2.60805E+03 2.66332E+04 2.73787E+04-1.68419E+04-1.68711E-09 2.08667E-09
 -1       304 1.08294E+04 3.45154E+04 3.94798E+04-1.96470E+04-3.31056E-10 8.71523E-10
 -1       305 3.26067E+04 2.18230E+04 6.88307E+04-1.68324E+04-1.57524E-09 1.37663E-09
 -1       306-1.44484E+06-1.84461E+05-1.00546E+05-5.59532E+05 1.88265E-10 4.36557E-11
 -1       307-1.47115E+06-2.61960E+05-6.38504E+04-5.69989E+05-3.17470E-10-5.42059E-10
 -1       308-1.46292E+06-2.07910E+05-2.37399E+04-5.56141E+05-2.30784E-10-1.58798E-09
 -1       309-1.45023E+06-2.32159E+05-1.31373E+04-5.75555E+05-6.68024E-10-2.47564E-09
 -1       310-1.46531E+06-2.10215E+05-5.54288E+03-5.55540E+05 7.79210E-10 3.39242E-10
 -1       311-1.44745E+06-2.29305E+05-2.97526E+03-5.76546E+05 1.35640E-09 1.66551E-11
 -1       312-1.46572E+06-2.10337E+05-1.57028E+03-5.55350E+05-6.54836E-11 1.69018E-09
 -1       313-1.44707E+06-2.29146E+05-1.33412E+03-5.76774E+05 9.00684E-11 1.30058E-09
 -1       314-1.46572E+06-2.10327E+05-1.71401E+03-5.55345E+05-1.46838E-09-3.60501E-09
 -1       315-1.44750E+06-2.29380E+05-3.37658E+03-5.76562E+05 7.24867E-10-1.15608E-09
 -1       316-1.46527E+06-2.10152E+05-6.34808E+03-5.55529E+05 1.42222E-09-1.02955E-09
 -1       317-1.45062E+06-2.32744E+05-1.50932E+04-5.75531E+05 1.53034E-09 2.18279E-11
 -1       318-1.46258E+06-2.07444E+05-2.72768E+04-5.56159E+05 8.13429E-10 1.81899E-11
 -1       319-1.47456E+06-2.67135E+05-7.33929E+04-5.69306E+05 1.39789E-09 2.19825E-09
 -1       320-1.44188E+06-1.80395E+05-1.15549E+05-5.59961E+05 7.63976E-10-7.49424E-10
 -1       321-3.18427E+05-1.24073E+04 2.90745E+04-1.19151E+02-1.21064E-09 1.80626E-09
 -1       322-3.05795E+05 1.43751E+04 2.05157E+04-7.34145E+02-9.72896E-10 1.82808E-09
 -1       323-3.13576E+05-1.92243E+03 7.52297E+03 1.13080E+02-3.30232E-10 2.58797E-09
 -1       324-3.11448E+05 2.22466E+03 4.70937E+03-1.16094E+03 2.66169E-10 4.51371E-09
 -1       325-3.12779E+05-2.96714E+02 1.91615E+03 3.07677E+02 1.52838E-10 9.39963E-10
 -1       326-3.12385E+05 3.43205E+02 1.11320E+03-1.48352E+03 1.51740E-10 2.76235E-09
 -1       327-3.12641E+05-4.58716E+01 4.90340E+02 4.35670E+02-8.07319E-11 7.63208E-10
 -1       328-3.12547E+05 5.60762E+01 2.82803E+02-1.65728E+03-6.14637E-11-1.07127E-09
 -1       329-3.12618E+05-9.77124E+00 1.52238E+02 4.81438E+02-2.05569E-10-1.91643E-09
 -1       330-3.12564E+05 3.03839E+01 1.36102E+02-1.66092E+03-3.97286E-10 9.99472E-10
 -1       331-3.12624E+05-2.02027E+01 1.53471E+02 4.39307E+02 4.93650E-11 1.35649E-09
 -1       332-3.12501E+05 1.44988E+02 3.21040E+02-1.49396E+03 7.07061E-11-1.73561E-09
 -1       333-3.12680E+05-1.24556E+02 4.91615E+02 3.14472E+02-6.36007E-11-5.57293E-10
 -1       334-3.12126E+05 9.28818E+02 1.33158E+03-1.17675E+03 5.97140E-11 2.90289E-09
 -1       335-3.12999E+05-8.02287E+02 1.87501E+03 1.22099E+02-4.01783E-10-7.49878E-10
 -1       336-5.48698E+02-6.14282E+05 1.23764E+03-7.61697E+03-3.22825E-09-6.68479E-10
 -1       337 6.39395E+01-6.13987E+05-1.83435E+03-3.54580E+04-2.42389E-09 1.18723E-09
 -1       338 6.00878E+02-6.13463E+05-5.76109E+03-7.48018E+03-3.96631E-09 2.13390E-09
 -1       339-7.96797E+03-6.18721E+05-1.57623E+04-3.55933E+04-2.70302E-09 3.49121E-09
 -1       340 6.15020E+03-6.09610E+05-2.49160E+04-7.48306E+03-3.91992E-09 4.52746E-09
 -1       341-9.32250E+05-1.18394E+05-3.63845E+04-3.57648E+05 8.61291E-10-5.56611E-10
 -1       342-9.54525E+05-1.48234E+05-2.51957E+04-3.47674E+05 2.23395E-10 2.47837E-11
 -1       343-9.39593E+05-1.31415E+05-8.54006E+03-3.55267E+05-2.39652E-10-1.20554E-09
 -1       344-9.45499E+05-1.33613E+05-5.32712E+03-3.50948E+05 6.35453E-10-1.02028E-09
 -1       345-9.41256E+05-1.32974E+05-2.04035E+03-3.54384E+05 5.51964E-10 1.35810E-09
 -1       346-9.42875E+05-1.32518E+05-1.26560E+03-3.52751E+05-3.28466E-11 4.75040E-10
 -1       347-9.42210E+05-1.32506E+05-7.30671E+02-3.53463E+05-3.07011E-10-3.95829E-10
 -1       348-9.41272E+05-1.33785E+05-8.79292E+02-3.54489E+05-8.84462E-10 9.97019E-10
 -1       349-9.42860E+05-1.31706E+05-1.28601E+03-3.52646E+05-5.40894E-10-5.36829E-10
 -1       350-9.40779E+05-1.35752E+05-3.00663E+03-3.55587E+05-2.90103E-09-3.63340E-09
 -1       351-9.42708E+05-1.30538E+05-5.15572E+03-3.52367E+05-6.19480E-10-1.38152E-09
 -1       352-9.44179E+05-1.42019E+05-1.37939E+04-3.54732E+05 1.82558E-09 1.22122E-09
 -1       353-9.39470E+05-1.25456E+05-2.21734E+04-3.53499E+05 3.03771E-10-3.54703E-10
 -1       354-9.67287E+05-1.80317E+05-6.54907E+04-3.46516E+05 4.71118E-09-3.40424E-09
 -1       355-9.19635E+05-9.23468E+04-9.45755E+04-3.60552E+05 2.07183E-09-1.77533E-09
 -1       356-2.94843E+05-1.49893E+03 3.50809E+03-3.41621E+01-4.27036E-12-2.09275E-09
 -1       357-2.93287E+05 1.73607E+03 2.47246E+03-4.79688E+02-1.54216E-10-6.59611E-10
 -1       358-2.94256E+05-2.32028E+02 8.95029E+02 8.45402E+01-3.03409E-10 3.98188E-10
 -1       359-2.93974E+05 2.66584E+02 5.41470E+02-6.91533E+02 1.12053E-10 7.81384E-11
 -1       360-2.94157E+05-3.40416E+01 1.77607E+02 1.77688E+02-2.82302E-10 1.05160E-10
 -1       361-2.94097E+05 2.74123E+01 2.01988E+01-8.41480E+02-4.27379E-10-2.73945E-09
 -1       362-2.94133E+05 6.68504E+00-1.55887E+02 2.34490E+02-2.37247E-10-5.09601E-10
 -1       363-2.94166E+05-8.62573E+01-4.37587E+02-9.12099E+02-2.18961E-10-6.82981E-10
 -1       364-2.94089E+05 7.95211E+01-8.40022E+02 2.48308E+02 1.69627E-10-7.32257E-10
 -1       365-2.94444E+05-6.05368E+02-1.95174E+03-8.95278E+02-1.15101E-10 1.59676E-09
 -1       366-2.93855E+05 5.24416E+02-3.38678E+03 2.17668E+02-2.89297E-11 1.62709E-09
 -1       367-2.96078E+05-3.93697E+03-8.32285E+03-7.92551E+02 2.24356E-10-2.01226E-10
 -1       368-2.92456E+05 3.40085E+03-1.33163E+04 1.45580E+02 6.88352E-10-5.28416E-10
 -1       369-3.06060E+05-2.54379E+04-3.62925E+04-6.11476E+02-2.76266E-10 2.81716E-09
 -1       370-2.83875E+05 2.19549E+04-5.14432E+04 3.66089E+01 1.99596E-09 4.87489E-10
 -1       371-7.95834E+03-1.23633E+05 1.81512E+04 2.51049E+03 6.85759E-10 6.29797E-10
 -1       372 8.23359E+03-1.15979E+05 1.09901E+04-1.07336E+04 1.48248E-09-7.57641E-10
 -1       373-2.37765E+02-1.19973E+05 9.20158E+02 2.59766E+03 1.25920E-09-3.36826E-09
 -1       374-6.13506E+03-1.22631E+05-7.87042E+03-1.06979E+04 1.05524E-09-9.51140E-10
 -1       375 6.36098E+03-1.16980E+05-1.44040E+04 2.47478E+03 9.95897E-10 1.93876E-09
 -1       376-5.03805E+05-6.29915E+04-2.06897E+04-1.92662E+05 1.57297E-09-3.91992E-10
 -1       377-5.14564E+05-8.18596E+04-1.43267E+04-1.89168E+05 1.31513E-09-2.38742E-11
 -1       378-5.08142E+05-7.02345E+04-4.85906E+03-1.91126E+05 3.79941E-10-2.53749E-10
 -1       379-5.09443E+05-7.35532E+04-3.03482E+03-1.91038E+05-1.46997E-10 7.41750E-10
 -1       380-5.08919E+05-7.12747E+04-1.16408E+03-1.90799E+05 1.69308E-10-6.42615E-10
 -1       381-5.08510E+05-7.24003E+04-7.40114E+02-1.91458E+05 4.22613E-11-2.97462E-10
 -1       382-5.09073E+05-7.13839E+04-4.36787E+02-1.90706E+05-3.80118E-11-3.68583E-10
 -1       383-5.08400E+05-7.23390E+04-5.67128E+02-1.91534E+05-4.30251E-11 2.23686E-09
 -1       384-5.09030E+05-7.13356E+04-8.41177E+02-1.90723E+05 6.36973E-10-9.44567E-10
 -1       385-5.08845E+05-7.28520E+04-1.99083E+03-1.91343E+05 8.64873E-11 8.09308E-10
 -1       386-5.08629E+05-7.08724E+04-3.41763E+03-1.90897E+05 3.35035E-10 1.59002E-09
 -1       387-5.11409E+05-7.66870E+04-9.14530E+03-1.90409E+05-9.49512E-10-9.15179E-11
 -1       388-5.06470E+05-6.75110E+04-1.47017E+04-1.91655E+05 1.01272E-09 2.97405E-10
 -1       389-5.26467E+05-1.02343E+05-4.34171E+04-1.85281E+05 3.88286E-09-1.18916E-09
 -1       390-4.93587E+05-4.52853E+04-6.26953E+04-1.96002E+05 6.53199E-09 8.00355E-11
 -1       406 1.16181E+03 3.03432E+05 2.29791E+03-3.27111E+04 4.63842E-11 9.18590E-11
 -1       407 6.27027E+02 3.03831E+05 2.35153E+03-3.60833E+04-1.96837E-09-1.25760E-09
 -1       408 8.16963E+02 3.03414E+05 3.50941E+03-3.26029E+04 1.92358E-10 3.02862E-10
 -1       409 3.25103E+03 3.04742E+05 7.30567E+03-3.62255E+04-2.09911E-09 2.91857E-09
 -1       410 9.42523E+03 3.02479E+05 1.46009E+04-3.25628E+04 5.00222E-11 3.11252E-09
 -1       466 9.72555E+05-3.87478E+04 9.07346E+04 5.14105E+03 1.90425E-10-1.02955E-09
 -1       467 1.01258E+06 4.48647E+04 6.41620E+04-1.07430E+04-1.01878E-10 1.09139E-09
 -1       468 9.87990E+05-5.99530E+03 2.35314E+04 2.23284E+03-1.50607E-10-1.18871E-09
 -1       469 9.94581E+05 6.93866E+03 1.47982E+04-6.37925E+03 5.28587E-10 9.70886E-11
 -1       470 9.90539E+05-9.27625E+02 6.13374E+03 7.77562E+02 7.28122E-10 3.19005E-10
 -1       471 9.91618E+05 1.10579E+03 3.78115E+03-4.26081E+03-3.22501E-10-2.08388E-09
 -1       472 9.90952E+05-1.74140E+02 2.10231E+03 1.14372E+02-8.76099E-11 2.04284E-09
 -1       473 9.91240E+05 4.19787E+02 2.12725E+03-3.44726E+03-3.24572E-10-6.33428E-10
 -1       474 9.90915E+05-2.41979E+02 2.73859E+03-3.60118E+01 3.47313E-11 5.58771E-10
 -1       475 9.91916E+05 1.69559E+03 5.60895E+03-3.59722E+03 3.22842E-10-1.67347E-10
 -1       476 9.90274E+05-1.44675E+03 9.44697E+03 2.64342E+02 4.70870E-10-6.98492E-10
 -1       477 9.96446E+05 1.08443E+04 2.30109E+04-4.77536E+03 4.92228E-10-1.09912E-09
 -1       478 9.86377E+05-9.36482E+03 3.67352E+04 1.14216E+03 1.58025E-10 1.12232E-09
 -1       479 1.02409E+06 7.00558E+04 1.00058E+05-7.52555E+03-2.35332E-10-1.82445E-09
 -1       480 9.62616E+05-6.04635E+04 1.41804E+05 3.01424E+03 1.49794E-09 1.16415E-10
 -1       481-7.60038E+03 1.61035E+05 1.79205E+04-1.15018E+03-3.18323E-11-5.74829E-10
 -1       482 9.12987E+03 1.69119E+05 1.32736E+04 2.91242E+03-1.93268E-10 3.17573E-09
 -1       483-1.51008E+03 1.63888E+05 5.83364E+03-8.79396E+02-1.28466E-10 2.19498E-09
 -1       484 3.90461E+03 1.66615E+05 6.40030E+03 2.45753E+03-1.41895E-11 2.47269E-11
 -1       485-2.38768E+03 1.63533E+05 6.10251E+03-6.95316E+02 6.61657E-11-8.15717E-10
 -1       486-9.06702E+05-9.86725E+04-8.61235E+04-3.60717E+05 5.02041E-10-3.18687E-09
 -1       487-9.62679E+05-1.66151E+05-5.96317E+04-3.33577E+05 6.02768E-10 2.53203E-09
 -1       488-9.24444E+05-1.29188E+05-2.02062E+04-3.54733E+05-2.76032E-10 5.21140E-10
 -1       489-9.40111E+05-1.32478E+05-1.25052E+04-3.42344E+05 7.86088E-10 7.63976E-10
 -1       490-9.29215E+05-1.32264E+05-4.78451E+03-3.51962E+05 8.87809E-10 1.19189E-09
 -1       491-9.32278E+05-1.31195E+05-2.66608E+03-3.48095E+05-4.39869E-10 8.50378E-11
 -1       492-9.32245E+05-1.30473E+05-1.35849E+03-3.48967E+05 6.61601E-10 5.50017E-10
 -1       493-9.27241E+05-1.35191E+05-9.77245E+02-3.53681E+05 1.00209E-09-1.05484E-09
 -1       494-9.34262E+05-1.28258E+05-1.18451E+03-3.46384E+05-6.67796E-10-2.67718E-10
 -1       495-9.24886E+05-1.38911E+05-2.37841E+03-3.57247E+05-2.18904E-09-2.99670E-09
 -1       496-9.34629E+05-1.26735E+05-4.00353E+03-3.45422E+05-6.01517E-10-6.71207E-10
 -1       497-9.27581E+05-1.43644E+05-1.06173E+04-3.56507E+05-1.71207E-09-1.41995E-10
 -1       498-9.31575E+05-1.23537E+05-1.71062E+04-3.47122E+05-1.27534E-09 1.94268E-09
 -1       499-9.47407E+05-1.70692E+05-5.03259E+04-3.47340E+05-7.75344E-11 3.60160E-10
 -1       500-9.14806E+05-9.97887E+04-7.28926E+04-3.54546E+05 3.89264E-10 3.74712E-10
 -1       501-2.39905E+05-1.42903E+04 3.34451E+04 3.06264E+02 9.71227E-10-7.87622E-10
 -1       502-2.25141E+05 1.65511E+04 2.36433E+04-2.77152E+03 1.70246E-10-1.22236E-09
 -1       503-2.34283E+05-2.21545E+03 8.65019E+03 7.18682E+02-1.35572E-10 5.74346E-10
 -1       504-2.31726E+05 2.56295E+03 5.43809E+03-3.48979E+03 2.90029E-10 2.23372E-09
 -1       505-2.33333E+05-3.42776E+02 2.20953E+03 1.02459E+03 6.26173E-10-1.05365E-09
 -1       506-2.32859E+05 4.00778E+02 1.30075E+03-3.95737E+03 1.10127E-09-1.46377E-09
 -1       507-2.33158E+05-5.50467E+01 5.94954E+02 1.18627E+03 1.24401E-09 1.26812E-09
 -1       508-2.33056E+05 8.22405E+01 3.92181E+02-4.12093E+03 7.03715E-10-2.98854E-11
 -1       509-2.33139E+05-2.32301E+01 2.96105E+02 1.18815E+03 1.40678E-09 6.52780E-10
 -1       510-2.33011E+05 1.24401E+02 4.39214E+02-3.96469E+03 5.75113E-10-4.93156E-10
 -1       511-2.33200E+05-9.88344E+01 6.52454E+02 1.03003E+03 9.12308E-10 5.86539E-10
 -1       512-2.32646E+05 7.26835E+02 1.56560E+03-3.50306E+03 1.06093E-09 1.75987E-10
 -1       513-2.33496E+05-6.28589E+02 2.44170E+03 7.26514E+02-1.73969E-10 1.93290E-09
 -1       514-2.30722E+05 4.68140E+03 6.70907E+03-2.78002E+03-4.24095E-10-4.70322E-10
 -1       515-2.35116E+05-4.04635E+03 9.43169E+03 3.06973E+02-1.84002E-10-9.92713E-10
 -1       516-3.14809E+04 1.98228E+05 7.46403E+04 4.58848E+03 2.98678E-09 1.22088E-09
 -1       517 3.88440E+04 2.31580E+05 5.68685E+04-2.24308E+04 4.28372E-09 4.31153E-09
 -1       518-7.17930E+03 2.09650E+05 2.77774E+04 4.29804E+03 3.08683E-09 2.97262E-09
 -1       519 2.33731E+04 2.24555E+05 3.65768E+04-2.26131E+04 4.62387E-09 9.83562E-10
 -1       520-1.60735E+04 2.05266E+05 3.95232E+04 4.77060E+03 1.68438E-09-1.45002E-09
 -1       521-1.87036E+06-2.36255E+05-1.34783E+05-7.23002E+05-8.29459E-10-2.91038E-10
 -1       522-1.91140E+06-3.34555E+05-8.56168E+04-7.30543E+05 1.26761E-11-7.54881E-11
 -1       523-1.89454E+06-2.67778E+05-3.18108E+04-7.18498E+05-5.44560E-11-5.09317E-10
 -1       524-1.88335E+06-2.94515E+05-1.76041E+04-7.37899E+05-1.22782E-11-2.26487E-09
 -1       525-1.89771E+06-2.70903E+05-7.40763E+03-7.17713E+05 5.17957E-10 5.62522E-10
 -1       526-1.87964E+06-2.90650E+05-3.95025E+03-7.39162E+05 1.92904E-09 7.66590E-10
 -1       527-1.89825E+06-2.71091E+05-2.02586E+03-7.17477E+05 4.85556E-10 1.03518E-09
 -1       528-1.87914E+06-2.90392E+05-1.61757E+03-7.39417E+05-6.86221E-10-5.38307E-11
 -1       529-1.89824E+06-2.71107E+05-1.95459E+03-7.17490E+05-7.13271E-10-4.03588E-10
 -1       530-1.87966E+06-2.90574E+05-3.75183E+03-7.39105E+05 3.76303E-10 2.27590E-09
 -1       531-1.89770E+06-2.70966E+05-7.00737E+03-7.17751E+05-3.02634E-10-1.80898E-09
 -1       532-1.88324E+06-2.94149E+05-1.66342E+04-7.37816E+05 6.52676E-10-1.97815E-10
 -1       533-1.89465E+06-2.68062E+05-3.00527E+04-7.18542E+05 6.75470E-10 1.69530E-09
 -1       534-1.90982E+06-3.31868E+05-8.08757E+04-7.30744E+05 9.89644E-10 3.58887E-09
 -1       535-1.87175E+06-2.38347E+05-1.27324E+05-7.22862E+05-2.54659E-11 7.20320E-10
 -1       536 7.19345E+04-9.40809E+03 3.82444E+04-4.13981E+03-4.63842E-11-2.16278E-09
 -1       537 8.60197E+04 1.23900E+04 2.46680E+04-1.81126E+04-1.30058E-09-2.46564E-09
 -1       538 7.77425E+04-1.01440E+03 9.90857E+03-4.09947E+03-6.86668E-11-1.10049E-10
 -1       539 7.94642E+04 1.24623E+03 5.56748E+03-1.81416E+04 8.73115E-10-9.02673E-11
 -1       540 7.84115E+04-1.20308E+02 2.50302E+03-4.10837E+03-4.18368E-11-9.77707E-12
 -1       541 7.86561E+04 1.22375E+02 1.33027E+03-1.81223E+04 8.45830E-11-4.57788E-10
 -1       542 7.84950E+04-1.60319E+01 6.34386E+02-4.11883E+03-1.21190E-10 6.49550E-10
 -1       543 7.85279E+04 1.80269E+01 3.43027E+02-1.81064E+04 2.33456E-10 1.42711E-09
 -1       544 7.85053E+04-9.90705E-01 1.93859E+02-4.12433E+03 1.29717E-10 6.75669E-10
 -1       545 7.85076E+04 1.75149E+01 1.59535E+02-1.81002E+04-1.01579E-10 1.82192E-09
 -1       546 7.85023E+04-4.82595E+00 1.89542E+02-4.12498E+03-4.54747E-12 1.96280E-10
 -1       547 7.85567E+04 8.25730E+01 3.54347E+02-1.81015E+04 3.77440E-11-9.91889E-10
 -1       548 7.84644E+04-6.13262E+01 6.03681E+02-4.12307E+03-6.90306E-10 7.22405E-10
 -1       549 7.89691E+04 7.45223E+02 1.48692E+03-1.80781E+04 1.73941E-11-7.07274E-10
 -1       550 7.81194E+04-5.73118E+02 2.29348E+03-4.14840E+03-9.27685E-11-1.22623E-09
 -1       551 8.74416E+03-1.85685E+05 1.83989E+04-2.83239E+05-6.91216E-11 4.14730E-10
 -1       552 4.06642E+03-1.82572E+05 1.39426E+04-3.30120E+05-1.01136E-09 2.95950E-09
 -1       553 2.50952E+03-1.85206E+05 1.55485E+04-2.82771E+05-4.40195E-10 1.75851E-09
 -1       554 9.74142E+03-1.79476E+05 2.86359E+04-3.30208E+05-6.29370E-10 1.11368E-09
 -1       555 2.71266E+04-1.89058E+05 5.41194E+04-2.83117E+05-8.64020E-10-9.14952E-10
 -1       556-1.45333E+05-7.51413E+04 1.12210E+04-1.34756E+05 1.32059E-09 8.58563E-10
 -1       557-1.34544E+05-8.69912E+04 5.50599E+03-1.43344E+05-9.71340E-10 1.20281E-10
 -1       558-1.45600E+05-7.89540E+04 2.31306E+03-1.32483E+05-1.17871E-09-1.17780E-10
 -1       559-1.35545E+05-8.88767E+04 1.13485E+03-1.43743E+05 6.54836E-10-4.36103E-10
 -1       560-1.45732E+05-7.89935E+04 5.02519E+02-1.32452E+05 6.16637E-10 4.27463E-10
 -1       561-1.35756E+05-8.89131E+04 2.35827E+02-1.43899E+05 3.71529E-09 5.69011E-09
 -1       562-1.45834E+05-7.89216E+04 7.85545E+01-1.32519E+05 4.64934E-09-2.20643E-09
 -1       563-1.35861E+05-8.88684E+04-1.77995E+01-1.43975E+05 1.08371E-08 3.37127E-09
 -1       564-1.45888E+05-7.88776E+04-1.32476E+02-1.32560E+05 4.50655E-09-1.58980E-09
 -1       565-1.35922E+05-8.88463E+04-3.28816E+02-1.44011E+05-5.41149E-11 9.60881E-10
 -1       566-1.45882E+05-7.88591E+04-6.99555E+02-1.32568E+05 4.20073E-11-9.09495E-11
 -1       567-1.36048E+05-8.89229E+04-1.54695E+03-1.43995E+05 5.40808E-10 7.78527E-10
 -1       568-1.45760E+05-7.91155E+04-3.18169E+03-1.32438E+05 2.31012E-10-1.22782E-10
 -1       569-1.37768E+05-9.08983E+04-7.50738E+03-1.43473E+05-1.74623E-10 3.32875E-10
 -1       570-1.45121E+05-8.51288E+04-1.53587E+04-1.29906E+05-2.23736E-10-4.75893E-10
 -1       571 1.93890E+05 9.74304E+03 1.51248E+04-4.99639E+04 2.63753E-11 3.36286E-10
 -1       572 1.96222E+05 3.30173E+03 7.43672E+03-5.51871E+04 2.63753E-10 1.76851E-09
 -1       573 1.94835E+05 7.21290E+02 3.31034E+03-4.98225E+04-8.18545E-12-3.14685E-10
 -1       574 1.95106E+05 2.21172E+02 1.66356E+03-5.53420E+04 1.47793E-11-4.05635E-10
 -1       575 1.94935E+05 1.50201E+01 7.88195E+02-4.98048E+04-1.23919E-10 8.17181E-10
 -1       576 1.94961E+05-2.14979E+00 4.03616E+02-5.53618E+04-6.61089E-11 1.05138E-09
 -1       577 1.94949E+05-1.34798E+01 2.03011E+02-4.98026E+04 1.01409E-10 2.68301E-11
 -1       578 1.94946E+05-9.98557E+00 1.18049E+02-5.53642E+04 5.60931E-10-3.70619E-10
 -1       579 1.94963E+05-1.44977E+01 8.58566E+01-4.98025E+04 6.07088E-10-4.25644E-10
 -1       580 1.94966E+05-1.62981E+01 1.02280E+02-5.53615E+04 8.50832E-10 2.24054E-09
 -1       581 1.94986E+05-2.07716E+01 1.63763E+02-4.98052E+04 4.27463E-11 1.16597E-09
 -1       582 1.95027E+05 9.99280E+00 3.28253E+02-5.53321E+04 4.16094E-10 2.23827E-09
 -1       583 1.95002E+05 9.57899E+01 6.41637E+02-4.98319E+04 6.58474E-10 8.29914E-11
 -1       584 1.95289E+05 5.84151E+02 1.43906E+03-5.51008E+04-1.33150E-09-2.84558E-10
 -1       585 1.94861E+05 1.82154E+03 2.92040E+03-5.00380E+04-4.55657E-10 3.91083E-10
 -1       586 1.59864E+03 7.46245E+04 2.88430E+03-1.32702E+05 1.08594E-09-3.74712E-10
 -1       587 8.68190E+02 7.50994E+04 2.71007E+03-1.47010E+05 1.53705E-10-2.84672E-10
 -1       588 9.79830E+02 7.45926E+04 3.80182E+03-1.32535E+05 1.18871E-09 1.32866E-09
 -1       589 3.53833E+03 7.60272E+04 7.75235E+03-1.47043E+05 2.71029E-10-4.83965E-10
 -1       590 1.00084E+04 7.36567E+04 1.54065E+04-1.32665E+05 1.14960E-09-1.96906E-10
 -1       591-8.83359E+04-3.13884E+04-1.64183E+04-4.69298E+04 4.88967E-10-1.08230E-09
 -1       592-8.86527E+04-2.93696E+04-8.03067E+03-5.20059E+04-3.79259E-10-4.06544E-10
 -1       593-8.87848E+04-2.51390E+04-3.40636E+03-4.97570E+04 2.10684E-09 7.46923E-09
 -1       594-8.69071E+04-2.71241E+04-1.66555E+03-5.23323E+04-5.27507E-11 2.00932E-09
 -1       595-8.88638E+04-2.48974E+04-7.66924E+02-4.98880E+04 3.14458E-10 2.09775E-09
 -1       596-8.67743E+04-2.70327E+04-3.90167E+02-5.23241E+04 3.12411E-10 1.96565E-10
 -1       597-8.88794E+04-2.49074E+04-2.14894E+02-4.98895E+04 4.09216E-10-1.29558E-09
 -1       598-8.67614E+04-2.70336E+04-1.76567E+02-5.23189E+04 1.43714E-10-5.53655E-10
 -1       599-8.88777E+04-2.49074E+04-2.29895E+02-4.98889E+04 1.56888E-11 1.16916E-09
 -1       600-8.67745E+04-2.70335E+04-4.29939E+02-5.23233E+04 1.76215E-11-4.36785E-10
 -1       601-8.88570E+04-2.48967E+04-8.51277E+02-4.98858E+04-7.48969E-10 6.12772E-10
 -1       602-8.69216E+04-2.71350E+04-1.85282E+03-5.23294E+04 4.82032E-10 2.27374E-11
 -1       603-8.87667E+04-2.51684E+04-3.79050E+03-4.97403E+04-4.61114E-10-6.06633E-10
 -1       604-8.88728E+04-2.96230E+04-8.93662E+03-5.19521E+04-2.83762E-10-1.58730E-09
 -1       605-8.82539E+04-3.21303E+04-1.82698E+04-4.66034E+04-5.95719E-11 1.14596E-10
 -1       606 5.93967E+04-7.51704E+03-1.16497E+04 1.74057E+04-3.41333E-09-3.59250E-10
 -1       607 5.75716E+04-2.54781E+03-5.72638E+03 1.90421E+04-4.60204E-10-6.37897E-10
 -1       608 5.86375E+04-5.56107E+02-2.54911E+03 1.72860E+04 2.66118E-09 9.36893E-10
 -1       609 5.83989E+04-1.60161E+02-1.27887E+03 1.91737E+04-1.30194E-09 1.66619E-09
 -1       610 5.85378E+04 7.60882E-01-6.04240E+02 1.72708E+04-3.98995E-09 4.89990E-10
 -1       611 5.84918E+04 2.15679E+01-3.04622E+02 1.91901E+04-7.30370E-09-4.88399E-10
 -1       612 5.85164E+04 2.83077E+01-1.45362E+02 1.72691E+04-2.67300E-09 3.89036E-10
 -1       613 5.84993E+04 2.93210E+01-6.82145E+01 1.91923E+04-3.71983E-09 2.95586E-10
 -1       614 5.85072E+04 2.62858E+01-2.26658E+01 1.72686E+04-1.13732E-09-1.51067E-09
 -1       615 5.84974E+04 3.01188E+01 1.12275E+01 1.91925E+04 4.20346E-09-1.83491E-10
 -1       616 5.85005E+04 2.90207E+01 4.99957E+01 1.72688E+04-2.41289E-09-6.31417E-10
 -1       617 5.85036E+04 4.87549E+01 1.20904E+02 1.91920E+04 2.05182E-09 1.69894E-09
 -1       618 5.84883E+04 8.43295E+01 2.47841E+02 1.72691E+04 5.23642E-10 8.42419E-10
 -1       619 5.85835E+04 2.83662E+02 5.60941E+02 1.91899E+04-6.47560E-10 4.00405E-10
 -1       620 5.84132E+04 7.67922E+02 1.14281E+03 1.72701E+04 3.99950E-10-1.03159E-09
 -1       621 1.65184E+03 1.99388E+05 3.90006E+03-1.93119E+04-3.86535E-12 8.84711E-10
 -1       622 6.25491E+02 2.00118E+05 3.11441E+03-2.26042E+04-9.90440E-10 1.22964E-09
 -1       623 3.60670E+02 1.99560E+05 3.70273E+03-1.93332E+04 1.98725E-10 2.03272E-10
 -1       624 2.11687E+03 2.00979E+05 7.02354E+03-2.25057E+04-8.49468E-10 2.28101E-09
 -1       625 6.50856E+03 1.98547E+05 1.33988E+04-1.94092E+04 1.13687E-10 1.84627E-10
 -1       626 8.27025E+04 2.69893E+04-5.53536E+03 5.67106E+04-2.47883E-09-3.19233E-10
 -1       627 8.02833E+04 3.07219E+04-2.62928E+03 5.77138E+04 1.65983E-10 1.16148E-09
 -1       628 8.28098E+04 2.96833E+04-1.10542E+03 5.54058E+04-2.92675E-09-1.80280E-08
 -1       629 8.07083E+04 3.18190E+04-5.31340E+02 5.76140E+04 1.99589E-09 7.21201E-10
 -1       630 8.27981E+04 2.98627E+04-2.35206E+02 5.53029E+04 3.00497E-09-2.18262E-09
 -1       631 8.07389E+04 3.18972E+04-1.06485E+02 5.76143E+04-6.74936E-09-9.50007E-09
 -1       632 8.27872E+04 2.98681E+04-3.24116E+01 5.52940E+04 2.03272E-10 6.42467E-09
 -1       633 8.07401E+04 3.19008E+04 1.95360E+01 5.76151E+04 5.91672E-09-1.93836E-11
 -1       634 8.27793E+04 2.98634E+04 8.15378E+01 5.52925E+04 7.24776E-09 3.04726E-09
 -1       635 8.07494E+04 3.19026E+04 1.97199E+02 5.76173E+04 2.80602E-09 7.33667E-09
 -1       636 8.27699E+04 2.98707E+04 4.14572E+02 5.52864E+04 7.26345E-10 6.95377E-09
 -1       637 8.08464E+04 3.20093E+04 9.27478E+02 5.76019E+04-1.25559E-09-7.79619E-09
 -1       638 8.27458E+04 3.01940E+04 1.92188E+03 5.51443E+04 1.74703E-09-4.16958E-09
 -1       639 8.18253E+04 3.36889E+04 4.57128E+03 5.71967E+04-1.84116E-09-4.24507E-10
 -1       640 8.27729E+04 3.50675E+04 9.62359E+03 5.31128E+04-6.24800E-09 9.93532E-09
 -1       641 1.65992E+03 1.77317E+03-4.15850E+03-1.69719E+02-4.99488E-09-2.11480E-09
 -1       642-1.25720E+02-2.05357E+03-2.92984E+03 7.56564E+02 2.04245E-09-1.06638E-09
 -1       643 9.68642E+02 2.74268E+02-1.07287E+03-1.68904E+02-8.62912E-09-2.72314E-09
 -1       644 6.77331E+02-3.15811E+02-6.63772E+02 7.55517E+02 3.26738E-09 5.77060E-10
 -1       645 8.56428E+02 4.14350E+01-2.57763E+02-1.68678E+02-2.81479E-09 2.89390E-10
 -1       646 8.09746E+02-4.29176E+01-1.23125E+02 7.55145E+02-1.75260E-07 1.17307E-09
 -1       647 8.35987E+02 2.36403E+00-3.05032E+00-1.68534E+02-1.31448E-05 1.80691E-08
 -1       648 8.45852E+02 2.28855E+01 1.06893E+02 7.54997E+02-2.59978E-05 3.54042E-08
 -1       649 8.20244E+02-2.41584E+01 2.46266E+02-1.68530E+02-1.31448E-05 1.37182E-08
 -1       650 9.35264E+02 1.87556E+02 5.95247E+02 7.54988E+02-1.64300E-07-2.32734E-09
 -1       651 7.46656E+02-1.61937E+02 1.04099E+03-1.68525E+02-5.87460E-09-2.76054E-09
 -1       652 1.44290E+03 1.21512E+03 2.56530E+03 7.54782E+02 3.00052E-09 1.01360E-09
 -1       653 3.12855E+02-1.04876E+03 4.10451E+03-1.68328E+02-5.02180E-09-2.35605E-09
 -1       654 4.52512E+03 7.84287E+03 1.11900E+04 7.52740E+02 3.55919E-09-2.64663E-10
 -1       655-2.33483E+03-6.76798E+03 1.58614E+04-1.66500E+02 1.77293E-09 1.04228E-09
 -1       656 6.25691E+03-2.25353E+05-2.64761E+04 5.40370E+03-2.81580E-09-1.20212E-09
 -1       657-9.02102E+03-2.35146E+05-1.94067E+04 2.30710E+04-1.78352E-09 8.76753E-10
 -1       658 1.23171E+03-2.28811E+05-1.22422E+04 5.35926E+03-1.17689E-09 5.38137E-10
 -1       659-8.20046E+03-2.34681E+05-1.79929E+04 2.30990E+04-4.22006E-10-1.46656E-11
 -1       660 5.58533E+03-2.25833E+05-2.38168E+04 5.37610E+03-1.33787E-09 3.03316E-10
 -1       661 2.24782E+05 2.82726E+04 1.84745E+04 8.76971E+04 3.70710E-09-1.43518E-09
 -1       662 2.29277E+05 4.28953E+04 1.17376E+04 9.00629E+04 1.87009E-09-7.02130E-10
 -1       663 2.28009E+05 3.26806E+04 4.36430E+03 8.71835E+04 4.01101E-09 6.39602E-10
 -1       664 2.25570E+05 3.72689E+04 2.42070E+03 9.08851E+04-1.03654E-10-3.71756E-10
 -1       665 2.28381E+05 3.31739E+04 1.02415E+03 8.71455E+04 1.74043E-09 9.63098E-10
 -1       666 2.25143E+05 3.66521E+04 5.59137E+02 9.09451E+04-1.64265E-09 1.90572E-09
 -1       667 2.28424E+05 3.32319E+04 3.10631E+02 8.71470E+04 1.03310E-09 2.35488E-09
 -1       668 2.25103E+05 3.65935E+04 2.92521E+02 9.09449E+04-5.83435E-09 1.66708E-09
 -1       669 2.28420E+05 3.32283E+04 4.08347E+02 8.71468E+04 5.44931E-09 6.79242E-09
 -1       670 2.25179E+05 3.66924E+04 8.31228E+02 9.09432E+04 6.38674E-09 1.78670E-09
 -1       671 2.28350E+05 3.31396E+04 1.57175E+03 8.71466E+04 3.34842E-09-1.37334E-10
 -1       672 2.25848E+05 3.76453E+04 3.74640E+03 9.08440E+04-7.05313E-10 2.65629E-10
 -1       673 2.27768E+05 3.23778E+04 6.76483E+03 8.72088E+04 2.39895E-09-1.10958E-09
 -1       674 2.31601E+05 4.63678E+04 1.82026E+04 8.95629E+04 2.21988E-09-5.77529E-11
 -1       675 2.22761E+05 2.55434E+04 2.86526E+04 8.80062E+04-1.03410E-09-2.93039E-09
 -1       676 8.07871E+02-2.12471E+05-3.80790E+03 1.66594E+02-1.23998E-09 1.47930E-09
 -1       677-1.45902E+03-2.13937E+05-3.82799E+03 1.22085E+02-8.09187E-10-1.44806E-09
 -1       678 4.19330E+02-2.12716E+05-4.14739E+03 1.66132E+02-2.71598E-10 1.57391E-09
 -1       679-4.35588E+03-2.15625E+05-8.84255E+03 1.21901E+02-2.83069E-09-1.57910E-10
 -1       680 3.21058E+03-2.10783E+05-1.32294E+04 1.66367E+02-5.03496E-09 4.02888E-10
 -1       681 3.23282E+05-8.37121E+03 1.96159E+04 7.43873E+02-3.27418E-11-1.80080E-10
 -1       682 3.31788E+05 9.69759E+03 1.38522E+04-2.16322E+03-9.59588E-11-2.21235E-10
 -1       683 3.26570E+05-1.29679E+03 5.08914E+03 4.79231E+02 1.84997E-10 1.19826E-10
 -1       684 3.27960E+05 1.50217E+03 3.20276E+03-1.74161E+03-1.47498E-10-8.05471E-11
 -1       685 3.27111E+05-2.01482E+02 1.34095E+03 3.22270E+02-3.92077E-11 2.85240E-10
 -1       686 3.27333E+05 2.43619E+02 8.50490E+02-1.51151E+03 1.61180E-09 6.11905E-10
 -1       687 3.27196E+05-4.14304E+01 5.18434E+02 2.49128E+02 1.16494E-07-3.28981E-10
 -1       688 3.27268E+05 1.18501E+02 6.00819E+02-1.43900E+03 2.30691E-07 7.83196E-11
 -1       689 3.27175E+05-7.65513E+01 8.48770E+02 2.49758E+02 1.16549E-07 8.41197E-10
 -1       690 3.27499E+05 5.48811E+02 1.80221E+03-1.51428E+03 1.52336E-09 8.49013E-10
 -1       691 3.26965E+05-4.70791E+02 3.06154E+03 3.24410E+02 1.58231E-10 2.52840E-10
 -1       692 3.28973E+05 3.52940E+03 7.48004E+03-1.74773E+03-7.52500E-11 3.52884E-10
 -1       693 3.25701E+05-3.04870E+03 1.19474E+04 4.83220E+02-2.02874E-10-1.92358E-10
 -1       694 3.37947E+05 2.28025E+04 3.25526E+04-2.17889E+03-3.24704E-10-3.93356E-10
 -1       695 3.17991E+05-1.96807E+04 4.61351E+04 7.55523E+02 1.92216E-10-5.31145E-10
 -1       696-6.80021E+03 2.84224E+05 1.56934E+04 6.52451E+02 5.54792E-11-2.58723E-10
 -1       697 7.37036E+03 2.90826E+05 1.01185E+04-4.14873E+03 3.70619E-11-1.71296E-10
 -1       698-5.41460E+02 2.87142E+05 2.09282E+03 5.75340E+02-1.27784E-10 6.60029E-10
 -1       699-2.68437E+03 2.86155E+05-3.08371E+03-4.17201E+03-1.57002E-10 2.03563E-09
 -1       700 3.22112E+03 2.88898E+05-7.08560E+03 6.75703E+02-1.11413E-10 7.69461E-10
 -1       701-2.95843E+05-2.70492E+04-3.80229E+04-1.17652E+05 1.63709E-11-6.25732E-10
 -1       702-3.15803E+05-6.16052E+04-2.63274E+04-1.11104E+05-6.54836E-11-7.84439E-10
 -1       703-3.03693E+05-4.04868E+04-8.92092E+03-1.14973E+05 4.95334E-10 2.52840E-10
 -1       704-3.06601E+05-4.61240E+04-5.55232E+03-1.14298E+05 5.84350E-10 2.13277E-10
 -1       705-3.05037E+05-4.24886E+04-2.08990E+03-1.14473E+05 4.98574E-10-2.25555E-10
 -1       706-3.04980E+05-4.38790E+04-1.24275E+03-1.14950E+05-3.89768E-11 2.32490E-10
 -1       707-3.05313E+05-4.27254E+04-5.80493E+02-1.14324E+05 2.21634E-10-1.45832E-10
 -1       708-3.04658E+05-4.36868E+04-5.10033E+02-1.15154E+05 2.70106E-10 1.12936E-11
 -1       709-3.05359E+05-4.26798E+04-5.70319E+02-1.14269E+05 1.99833E-10-1.32076E-10
 -1       710-3.04802E+05-4.40457E+04-1.21407E+03-1.15158E+05 5.69848E-10-4.09472E-10
 -1       711-3.05170E+05-4.23671E+04-2.03424E+03-1.14320E+05 3.08063E-10 1.74282E-10
 -1       712-3.06239E+05-4.63742E+04-5.40699E+03-1.14689E+05-1.02773E-10-1.74737E-10
 -1       713-3.03923E+05-4.03574E+04-8.68204E+03-1.14736E+05 3.45835E-10 6.96218E-10
 -1       714-3.15095E+05-6.15400E+04-2.56265E+04-1.11691E+05 4.47585E-10 7.98082E-11
 -1       715-2.96321E+05-2.72425E+04-3.70078E+04-1.17303E+05 2.36469E-11 2.00089E-10
 -1       716 7.71336E+04-1.04375E+04 2.44325E+04 8.73582E+02 3.15310E-10-2.32831E-10
 -1       717 8.78770E+04 1.20899E+04 1.72754E+04-3.59882E+03 1.80307E-10 2.62844E-10
 -1       718 8.12547E+04-1.61754E+03 6.33876E+03 7.50375E+02-2.62332E-10 3.35149E-10
 -1       719 8.30603E+04 1.87533E+03 4.00148E+03-3.40327E+03-1.45064E-10 1.27579E-09
 -1       720 8.19433E+04-2.52034E+02 1.68130E+03 6.78050E+02 6.75840E-10 1.75748E-09
 -1       721 8.22576E+04 3.10151E+02 1.08566E+03-3.30239E+03 1.40378E-09 1.26612E-09
 -1       722 8.20541E+04-5.46851E+01 6.93924E+02 6.49489E+02 9.36168E-10 1.07885E-09
 -1       723 8.21857E+04 1.71792E+02 8.53997E+02-3.28763E+03 9.57723E-11 1.35287E-09
 -1       724 8.20147E+04-1.13758E+02 1.24805E+03 6.63293E+02 9.37099E-10 1.23163E-09
 -1       725 8.25570E+04 8.21988E+02 2.68840E+03-3.35828E+03 7.06684E-10 1.01227E-09
 -1       726 8.16852E+04-7.04866E+02 4.56971E+03 7.20140E+02 4.09784E-10 4.46789E-10
 -1       727 8.48073E+04 5.28091E+03 1.11974E+04-3.51873E+03 1.11329E-09 2.27374E-11
 -1       728 7.97699E+04-4.56302E+03 1.78596E+04 8.23746E+02 5.00279E-10-3.44698E-10
 -1       729 9.83020E+04 3.41179E+04 4.87206E+04-3.79965E+03-2.76472E-10-5.82077E-11
 -1       730 6.82050E+04-2.94513E+04 6.90031E+04 1.00095E+03 3.01213E-10-1.22964E-09
 -1       731-1.19737E+04 1.16798E+05 2.81177E+04 1.09717E+03 1.08957E-09-4.52225E-10
 -1       732 1.40396E+04 1.28989E+05 2.00955E+04-5.43775E+03 1.78875E-09-3.06580E-10
 -1       733-2.01463E+03 1.21406E+05 7.79115E+03 1.08989E+03 1.00817E-09 7.30218E-10
 -1       734 3.37247E+03 1.24064E+05 6.09428E+03-5.52683E+03 1.42279E-09 9.57272E-10
 -1       735-1.34433E+03 1.21726E+05 3.93974E+03 1.18621E+03 4.97607E-10 6.82348E-10
 -1       736-6.92002E+05-7.83702E+04-5.11622E+04-2.69393E+05-2.48292E-10-4.22006E-10
 -1       737-7.20887E+05-1.22840E+05-3.54280E+04-2.58243E+05 2.63526E-10 4.20187E-10
 -1       738-7.02630E+05-9.63990E+04-1.20009E+04-2.65723E+05-7.75344E-11-9.82254E-11
 -1       739-7.08152E+05-1.02327E+05-7.46515E+03-2.62907E+05 1.45775E-10-3.95630E-10
 -1       740-7.04718E+05-9.88265E+04-2.81139E+03-2.64745E+05 3.89718E-10 3.69710E-10
 -1       741-7.05334E+05-9.99228E+04-1.65939E+03-2.64489E+05 3.02625E-10 6.10214E-11
 -1       742-7.05443E+05-9.87952E+04-7.73373E+02-2.64142E+05 3.09868E-11 2.76458E-10
 -1       743-7.04256E+05-1.00309E+05-6.55523E+02-2.65512E+05-1.07348E-09 1.07113E-10
 -1       744-7.05796E+05-9.84387E+04-7.21121E+02-2.63723E+05 6.79563E-11-5.72726E-10
 -1       745-7.04011E+05-1.01189E+05-1.51402E+03-2.66026E+05 1.28330E-09 1.48123E-09
 -1       746-7.05690E+05-9.79151E+04-2.53136E+03-2.63629E+05-1.34150E-11 1.21747E-09
 -1       747-7.05754E+05-1.04132E+05-6.72456E+03-2.65498E+05-2.15528E-09-7.28846E-10
 -1       748-7.04056E+05-9.55033E+04-1.07976E+04-2.64250E+05 3.31966E-10 1.34605E-10
 -1       749-7.17113E+05-1.22644E+05-3.18718E+04-2.61359E+05 6.27551E-11-3.37423E-10
 -1       750-6.94347E+05-7.94558E+04-4.60351E+04-2.67752E+05-3.56522E-10 1.05501E-10
 -1       751 1.57155E+06-8.71107E+04 2.04479E+05 3.77696E+03-8.29499E-09-1.48430E-09
 -1       752 1.65983E+06 1.00945E+05 1.44201E+05-6.04279E+03-2.78618E-09-1.36788E-09
 -1       753 1.60571E+06-1.34942E+04 5.29837E+04 1.50345E+03-8.44508E-10-1.56433E-10
 -1       754 1.62013E+06 1.56263E+04 3.31821E+04-2.80188E+03 2.84729E-10 1.20781E-09
 -1       755 1.61130E+06-2.08604E+03 1.36462E+04 5.36587E+02-1.47939E-09 3.36513E-11
 -1       756 1.61365E+06 2.44558E+03 8.12971E+03-1.42757E+03-9.80755E-10-1.28694E-09
 -1       757 1.61222E+06-3.53676E+02 4.02556E+03 1.29145E+02-1.05623E-09 7.60792E-10
 -1       758 1.61270E+06 6.34923E+02 3.23251E+03-8.82083E+02 1.30765E-09-4.18652E-10
 -1       759 1.61226E+06-2.80115E+02 3.33062E+03-8.91423E+00 9.27629E-10-1.79170E-10
 -1       760 1.61330E+06 1.80612E+03 6.12799E+03-7.78100E+02-3.47962E-10 3.00417E-09
 -1       761 1.61161E+06-1.52153E+03 1.00283E+04 2.51616E+01-7.26539E-11-2.54659E-10
 -1       762 1.61799E+06 1.13750E+04 2.41900E+04-1.04286E+03 2.58133E-10-1.70076E-10
 -1       763 1.60755E+06-9.81923E+03 3.85707E+04 2.55849E+02 1.20628E-09 1.10776E-09
 -1       764 1.64679E+06 7.34405E+04 1.04902E+05-1.87443E+03-3.15879E-10 1.88629E-09
 -1       765 1.58274E+06-6.33734E+04 1.48743E+05 8.56661E+02-6.78341E-10-3.05590E-10
 -1       766-3.74156E+04 2.65095E+05 8.90558E+04-4.46814E+02 1.93540E-09-5.61897E-10
 -1       767 4.64152E+04 3.04574E+05 6.83001E+04-1.73115E+02 2.51021E-10-6.26457E-10
 -1       768-8.84849E+03 2.78238E+05 3.42305E+04-1.32878E+02 1.21645E-09-1.61222E-10
 -1       769 3.00024E+04 2.96948E+05 4.67474E+04-7.93133E+02-1.93268E-10 5.57499E-10
 -1       770-2.10594E+04 2.72717E+05 5.18488E+04 1.73034E+02 1.49157E-10 1.24254E-09
 -1       771-8.69823E+05-1.76854E+05-3.32113E+04-3.75298E+05 6.12090E-10-1.32059E-09
 -1       772-8.68218E+05-1.74879E+05-1.62310E+04-3.87982E+05-2.15368E-09 2.99360E-09
 -1       773-8.71009E+05-1.63997E+05-6.89777E+03-3.80850E+05-6.74845E-10 1.76806E-09
 -1       774-8.64580E+05-1.70538E+05-3.36530E+03-3.88990E+05 1.28421E-09-8.34916E-10
 -1       775-8.71285E+05-1.63425E+05-1.55525E+03-3.81141E+05-3.65617E-10 4.56566E-10
 -1       776-8.64373E+05-1.70350E+05-7.84245E+02-3.89085E+05-7.63976E-10 1.70758E-10
 -1       777-8.71405E+05-1.63396E+05-4.28233E+02-3.81182E+05 2.27374E-10 2.91038E-10
 -1       778-8.64405E+05-1.70332E+05-3.32375E+02-3.89144E+05 7.27596E-12 5.85658E-10
 -1       779-8.71466E+05-1.63360E+05-4.18349E+02-3.81212E+05 8.18545E-12 6.94627E-10
 -1       780-8.64473E+05-1.70319E+05-7.63822E+02-3.89200E+05 2.86036E-10 1.26420E-10
 -1       781-8.71471E+05-1.63316E+05-1.50787E+03-3.81226E+05 7.85803E-10 1.33241E-10
 -1       782-8.64759E+05-1.70494E+05-3.27882E+03-3.89243E+05 1.16097E-09 5.79803E-10
 -1       783-8.71334E+05-1.63782E+05-6.70888E+03-3.80975E+05-1.57297E-09-4.60204E-10
 -1       784-8.68188E+05-1.74938E+05-1.58252E+04-3.88628E+05-1.99708E-09 3.09592E-09
 -1       785-8.70464E+05-1.76080E+05-3.23570E+04-3.75386E+05-8.57654E-10 1.50976E-10
 -1       786 2.00385E+05-6.11513E+03 2.49872E+04-1.11391E+03 7.92397E-11-4.38376E-10
 -1       787 2.09504E+05 8.11541E+03 1.61074E+04-4.97055E+03-7.50333E-12-1.10413E-09
 -1       788 2.04184E+05-6.46586E+02 6.48058E+03-1.11121E+03-1.22213E-10 2.51475E-10
 -1       789 2.05261E+05 8.27113E+02 3.63965E+03-4.96756E+03 4.37410E-11-5.65706E-10
 -1       790 2.04626E+05-7.10493E+01 1.64894E+03-1.11654E+03 1.03455E-10 7.83075E-10
 -1       791 2.04760E+05 8.33648E+01 8.89852E+02-4.95972E+03 3.87345E-10 6.63178E-10
 -1       792 2.04683E+05-8.94312E+00 4.58777E+02-1.11904E+03-8.13287E-11-1.31485E-09
 -1       793 2.04698E+05 1.17370E+01 3.13070E+02-4.95794E+03 5.73941E-11-1.96971E-09
 -1       794 2.04688E+05-5.30166E+00 3.00344E+02-1.11832E+03 1.19655E-10-1.59297E-09
 -1       795 2.04720E+05 4.04695E+01 4.71083E+02-4.96285E+03 9.31664E-11 1.56782E-09
 -1       796 2.04662E+05-3.49534E+01 8.18455E+02-1.11413E+03-5.45697E-11-3.93413E-10
 -1       797 2.04963E+05 3.99895E+02 1.77395E+03-4.97332E+03-2.77396E-10 5.45697E-12
 -1       798 2.04448E+05-3.14234E+02 3.14541E+03-1.10786E+03-1.05047E-10-9.66338E-12
 -1       799 2.07021E+05 3.93170E+03 7.80933E+03-4.97704E+03-1.33514E-09-3.07864E-10
 -1       800 2.02607E+05-2.96549E+03 1.21104E+04-1.11061E+03 3.88809E-11 6.36646E-12
 -1       801-7.14576E+03 2.03423E+05 2.84991E+04-1.13719E+05 2.74667E-10 1.44064E-09
 -1       802 1.41954E+04 2.13205E+05 2.79229E+04-4.96080E+05 5.84259E-09 1.12141E-09
 -1       803-1.85362E+03 2.04951E+05 2.78642E+04-1.13423E+05 3.28328E-09 2.10810E-09
 -1       804 3.11232E+04 2.23373E+05 5.73890E+04-4.96059E+05 3.97995E-09-1.68347E-09
 -1       805-2.13914E+04 1.93586E+05 8.38072E+04-1.13744E+05 2.92493E-09 1.81899E-10
 -1       806-1.90065E+05-4.95792E+04-1.63692E+04-8.62245E+04 6.47560E-10 3.13776E-10
 -1       807-1.90266E+05-4.54167E+04-7.77551E+03-9.11033E+04-2.75122E-10-1.35003E-09
 -1       808-1.89998E+05-4.13172E+04-3.27117E+03-8.97225E+04 6.70752E-11 9.31436E-10
 -1       809-1.88650E+05-4.25174E+04-1.58220E+03-9.17557E+04-1.32218E-10 4.38064E-10
 -1       810-1.90040E+05-4.07667E+04-7.16618E+02-8.99716E+04-2.54909E-09-5.56713E-09
 -1       811-1.88493E+05-4.23298E+04-3.60378E+02-9.17798E+04-2.56364E-11-1.29853E-09
 -1       812-1.90053E+05-4.07522E+04-1.90802E+02-8.99827E+04 2.42392E-09 6.42945E-09
 -1       813-1.88476E+05-4.23249E+04-1.45071E+02-9.17756E+04 5.63887E-11-2.05773E-10
 -1       814-1.90052E+05-4.07538E+04-1.74441E+02-8.99817E+04-2.76589E-09-6.77028E-09
 -1       815-1.88488E+05-4.23309E+04-3.17032E+02-9.17762E+04-1.25556E-09 1.97861E-09
 -1       816-1.90037E+05-4.07686E+04-6.23213E+02-8.99704E+04-2.35332E-10 6.35055E-10
 -1       817-1.88624E+05-4.24916E+04-1.37291E+03-9.17491E+04 7.64203E-10-6.45150E-09
 -1       818-1.89995E+05-4.12511E+04-2.83671E+03-8.97561E+04 6.42876E-09 1.10090E-08
 -1       819-1.90050E+05-4.49786E+04-6.74136E+03-9.11497E+04 6.09816E-10-1.75305E-09
 -1       820-1.90025E+05-4.84365E+04-1.41912E+04-8.67484E+04-4.62933E-10-5.05452E-10
 -1       821-1.86293E+05 5.87599E+03-2.40169E+04 1.14775E+03-1.47270E-09 2.43381E-09
 -1       822-1.95051E+05-7.80099E+03-1.54823E+04 5.22557E+03-7.14692E-10-1.34605E-09
 -1       823-1.89945E+05 6.20115E+02-6.23089E+03 1.11421E+03 2.22690E-09-3.16277E-10
 -1       824-1.90979E+05-7.91061E+02-3.50103E+03 5.27110E+03-7.12134E-10 2.77169E-10
 -1       825-1.90370E+05 6.84848E+01-1.59236E+03 1.10187E+03-4.13718E-09-1.22759E-09
 -1       826-1.90504E+05-7.39242E+01-8.69974E+02 5.29123E+03-7.51737E-09-3.36556E-10
 -1       827-1.90426E+05 1.01281E+01-4.70826E+02 1.09401E+03-3.39753E-09-1.08957E-09
 -1       828-1.90450E+05-6.05006E+00-3.62565E+02 5.30371E+03-4.12058E-09 1.68313E-09
 -1       829-1.90428E+05 9.15800E+00-4.08823E+02 1.08937E+03-6.07201E-10 6.97691E-10
 -1       830-1.90492E+05-5.57345E+01-7.06663E+02 5.30920E+03 1.89743E-09 7.16199E-10
 -1       831-1.90385E+05 5.57395E+01-1.26771E+03 1.08852E+03-2.23250E-09-2.11458E-10
 -1       832-1.90870E+05-6.21381E+02-2.77302E+03 5.30702E+03-1.22512E-10-1.65954E-10
 -1       833-1.90050E+05 4.92556E+02-4.92820E+03 1.09161E+03-2.70103E-09-7.56245E-10
 -1       834-1.94092E+05-6.16325E+03-1.22431E+04 5.28932E+03-4.74816E-09-1.34060E-09
 -1       835-1.87162E+05 4.64900E+03-1.89896E+04 1.10684E+03-2.01192E-09 2.72848E-12
 -1       836-9.83147E+03 4.98800E+05 4.22699E+04-1.21785E+04-8.03993E-10 7.70797E-10
 -1       837 1.47269E+04 5.14560E+05 3.29356E+04-5.23255E+04 8.31278E-10 3.32875E-10
 -1       838-2.40856E+03 5.03836E+05 2.40253E+04-1.21745E+04-1.03751E-09-1.54756E-10
 -1       839 1.90648E+04 5.17081E+05 4.04444E+04-5.23201E+04 6.65295E-10-5.27962E-10
 -1       840-1.34231E+04 4.96271E+05 5.63855E+04-1.21836E+04-9.09495E-10 4.86125E-10
 -1       841-3.63812E+04-1.41534E+03-9.76575E+03-1.54138E+04-2.03227E-09 6.01176E-10
 -1       842-4.18465E+04-9.94881E+03-6.75990E+03-1.33451E+04-1.95712E-09-1.35105E-09
 -1       843-3.83554E+04-4.90644E+03-2.28947E+03-1.47726E+04 2.02152E-09 5.30349E-10
 -1       844-3.95610E+04-5.89768E+03-1.42157E+03-1.40793E+04 1.17652E-09 2.24844E-10
 -1       845-3.86653E+04-5.45559E+03-5.27699E+02-1.46838E+04-9.39124E-10 6.12772E-11
 -1       846-3.92046E+04-5.25667E+03-2.98582E+02-1.41772E+04-4.27807E-09-4.70081E-10
 -1       847-3.87117E+04-5.54579E+03-1.09186E+02-1.46755E+04-1.11249E-09-1.68948E-09
 -1       848-3.91485E+04-5.14478E+03-3.60936E+01-1.41857E+04 5.05072E-09 5.79163E-10
 -1       849-3.87215E+04-5.56720E+03 2.78625E+01-1.46754E+04 2.04959E-09 1.54931E-09
 -1       850-3.91129E+04-5.08327E+03 1.25006E+02-1.41930E+04-1.75780E-09-1.53477E-10
 -1       851-3.87472E+04-5.60715E+03 2.36078E+02-1.46682E+04-5.57858E-10-5.30036E-10
 -1       852-3.89372E+04-4.79779E+03 6.47734E+02-1.42482E+04 4.11927E-09-2.41727E-10
 -1       853-3.88970E+04-5.85198E+03 1.04498E+03-1.46204E+04 3.04192E-09-8.33666E-10
 -1       854-3.78720E+04-2.96293E+03 3.09048E+03-1.46031E+04-1.84315E-09-8.42249E-10
 -1       855-3.98116E+04-7.43712E+03 4.46325E+03-1.43151E+04-1.05729E-11 9.56788E-10
 -1       856-2.17890E+05 5.34162E+03-2.18493E+04 2.34637E+03-3.89537E-09-8.12179E-10
 -1       857-2.25851E+05-7.08258E+03-1.40814E+04 1.07957E+04-3.98995E-09-1.22554E-09
 -1       858-2.21214E+05 5.64928E+02-5.66823E+03 2.28919E+03-3.25304E-09-2.32149E-10
 -1       859-2.22160E+05-7.01910E+02-3.18229E+03 1.08742E+04-2.77510E-10 1.42057E-09
 -1       860-2.21602E+05 6.57213E+01-1.44530E+03 2.26716E+03-5.08408E-10-1.25169E-10
 -1       861-2.21735E+05-4.65375E+01-7.84027E+02 1.09068E+04-3.48859E-09 8.03595E-10
 -1       862-2.21654E+05 1.38057E+01-4.14228E+02 2.25644E+03 5.67201E-09 2.47866E-10
 -1       863-2.21687E+05 1.72652E+01-3.00969E+02 1.09200E+04 1.46235E-08-6.50402E-10
 -1       864-2.21657E+05 1.19827E+01-3.16010E+02 2.25394E+03 7.70719E-09-2.07675E-09
 -1       865-2.21713E+05-1.85923E+01-5.24951E+02 1.09162E+04 1.10253E-08-1.83527E-09
 -1       866-2.21625E+05 4.46526E+01-9.30778E+02 2.26018E+03-6.48129E-10 2.49514E-10
 -1       867-2.21982E+05-4.34574E+02-2.02754E+03 1.08943E+04-4.86102E-09 8.53504E-10
 -1       868-2.21379E+05 3.61191E+02-3.60274E+03 2.27602E+03 1.09276E-09 5.00904E-10
 -1       869-2.24323E+05-4.48749E+03-8.94379E+03 1.08306E+04-7.66067E-09-2.51021E-09
 -1       870-2.19268E+05 3.39347E+03-1.38767E+04 2.32442E+03 1.22282E-09-1.47338E-09
 -1       871-1.87921E+03-1.78316E+04-3.35138E+03 5.03354E+04 2.73667E-09-9.00400E-10
 -1       872-5.95669E+02-1.84184E+04-9.63559E+02 5.86247E+04-1.98816E-09 7.00084E-10
 -1       873 4.05536E+01-1.82004E+04 1.01689E+03 5.02395E+04 1.54364E-09 3.29737E-09
 -1       874 1.21136E+03-1.74000E+04 3.74804E+03 5.86706E+04-1.36447E-09 2.65494E-10
 -1       875 3.99115E+03-1.88744E+04 8.09840E+03 5.02944E+04 4.49745E-10 3.10138E-10
 -1       876 2.53591E+05 3.13083E+04 2.40933E+04 9.95401E+04 3.93857E-09-6.25732E-10
 -1       877 2.59247E+05 5.05983E+04 1.53081E+04 1.02878E+05 6.32099E-11 2.91266E-09
 -1       878 2.57796E+05 3.70620E+04 5.69002E+03 9.88740E+04 3.72353E-09 1.10663E-09
 -1       879 2.54417E+05 4.32526E+04 3.15470E+03 1.03938E+05-1.70178E-09-7.25606E-10
 -1       880 2.58277E+05 3.77111E+04 1.32985E+03 9.88295E+04 2.56546E-09-4.08272E-09
 -1       881 2.53866E+05 4.24396E+04 7.17429E+02 1.04005E+05 5.28271E-09 3.26395E-10
 -1       882 2.58328E+05 3.77917E+04 3.80763E+02 9.88357E+04 6.79711E-09 4.21053E-10
 -1       883 2.53815E+05 4.23532E+04 3.28103E+02 1.03995E+05-5.56884E-09 3.25123E-09
 -1       884 2.58323E+05 3.77934E+04 4.25718E+02 9.88389E+04-1.27542E-10 3.69783E-09
 -1       885 2.53891E+05 4.24469E+04 8.42165E+02 1.03989E+05 9.42113E-09 1.67171E-09
 -1       886 2.58253E+05 3.77052E+04 1.58149E+03 9.88394E+04 3.55863E-09-3.04328E-09
 -1       887 2.54563E+05 4.34039E+04 3.76271E+03 1.03890E+05-2.03147E-09-5.62176E-09
 -1       888 2.57670E+05 3.69387E+04 6.79168E+03 9.89003E+04-3.02309E-09-7.69887E-10
 -1       889 2.60337E+05 5.21624E+04 1.82734E+04 1.02609E+05 6.55618E-09 1.32377E-09
 -1       890 2.52645E+05 3.00756E+04 2.87624E+04 9.96993E+04 3.02316E-09-3.32875E-10
 -1       891 9.58122E+02-1.12359E+05-4.28964E+03 1.05650E+04-1.65596E-09-2.60115E-10
 -1       892-1.56179E+03-1.13916E+05-3.48753E+03 4.60178E+04 1.91676E-09-4.84022E-10
 -1       893 2.71790E+02-1.12839E+05-2.78591E+03 1.05158E+04 2.25953E-09 6.31047E-10
 -1       894-2.44929E+03-1.14429E+05-5.02150E+03 4.60139E+04 1.68279E-09-1.38476E-09
 -1       895 1.69093E+03-1.11841E+05-7.17302E+03 1.05687E+04 3.27555E-09 1.59571E-09
 -1       896 4.68696E+05-3.54221E+03 8.29848E+03 7.37175E+02 9.57527E-11 1.43837E-09
 -1       897 4.72281E+05 4.10277E+03 5.86443E+03-1.73933E+03 1.88106E-10 8.08541E-10
 -1       898 4.70092E+05-5.48654E+02 2.15650E+03 4.33501E+02 2.31537E-10 5.28303E-10
 -1       899 4.70656E+05 6.35743E+02 1.36326E+03-1.25191E+03-5.53122E-11 2.48860E-10
 -1       900 4.70321E+05-8.56832E+01 5.81675E+02 2.49752E+02 1.03800E-10 6.67058E-11
 -1       901 4.70391E+05 1.06650E+02 3.90822E+02-9.68260E+02 2.37570E-10-1.27582E-10
 -1       902 4.70356E+05-2.07871E+01 2.77004E+02 1.49845E+02 2.69635E-10-1.81064E-10
 -1       903 4.70375E+05 7.49839E+01 3.80757E+02-8.32984E+02 1.87183E-10-4.11195E-10
 -1       904 4.70337E+05-5.39859E+01 5.89279E+02 1.14473E+02 2.21646E-10-4.31726E-10
 -1       905 4.70546E+05 3.95238E+02 1.28975E+03-8.20162E+02 6.45395E-12-3.00872E-10
 -1       906 4.70185E+05-3.40183E+02 2.20797E+03 1.37023E+02 3.61334E-10-5.51836E-10
 -1       907 4.71606E+05 2.55163E+03 5.40366E+03-9.27496E+02-2.09418E-10-1.64164E-10
 -1       908 4.69275E+05-2.20389E+03 8.63773E+03 2.21810E+02-1.34520E-10-6.63931E-11
 -1       909 4.78080E+05 1.64843E+04 2.35298E+04-1.17788E+03 9.16405E-11-7.54881E-11
 -1       910 4.63707E+05-1.42266E+04 3.33547E+04 3.87401E+02 5.04485E-10 3.38332E-10
 -1       911 1.42428E+05-1.88663E+03 4.41970E+03 2.75638E+02 5.21112E-11 5.70935E-10
 -1       912 1.44347E+05 2.18568E+03 3.12503E+03-1.06442E+03-6.83400E-11-4.06658E-10
 -1       913 1.43170E+05-2.92493E+02 1.15236E+03 2.04816E+02 2.42295E-12-2.24304E-10
 -1       914 1.43482E+05 3.39807E+02 7.35568E+02-9.45545E+02 1.42819E-12-1.95769E-10
 -1       915 1.43292E+05-4.63737E+01 3.27694E+02 1.56765E+02 2.53710E-10-5.07853E-10
 -1       916 1.43344E+05 6.20250E+01 2.47008E+02-8.69466E+02 5.13765E-10-6.28340E-10
 -1       917 1.43308E+05-1.52921E+01 2.20374E+02 1.28737E+02 3.58124E-10-6.75065E-10
 -1       918 1.43351E+05 7.19374E+01 3.62724E+02-8.31828E+02 1.28329E-10-1.33545E-09
 -1       919 1.43284E+05-5.61693E+01 6.04874E+02 1.19126E+02 4.54948E-10-1.25954E-09
 -1       920 1.43535E+05 4.17402E+02 1.35421E+03-8.30394E+02 3.64121E-10-1.01539E-09
 -1       921 1.43124E+05-3.59840E+02 2.33036E+03 1.27303E+02 5.10701E-10-9.16884E-10
 -1       922 1.44658E+05 2.69985E+03 5.71290E+03-8.65006E+02 8.19002E-10-7.81256E-10
 -1       923 1.42161E+05-2.33177E+03 9.13481E+03 1.53742E+02 6.72411E-10-1.03955E-09
 -1       924 1.51507E+05 1.74403E+04 2.48900E+04-9.38388E+02 9.73357E-10-6.80302E-10
 -1       925 1.36275E+05-1.50513E+04 3.52857E+04 2.00688E+02 8.69640E-10-2.54659E-10
 -1       926-6.03852E+05 1.34001E+04-3.13970E+04 5.38286E+01 8.36291E-10-7.82165E-11
 -1       927-6.17356E+05-1.55260E+04-2.21481E+04-1.47522E+02-3.39899E-10 2.52840E-10
 -1       928-6.09087E+05 2.07567E+03-8.12369E+03-4.45166E+01-4.76145E-10 1.61435E-10
 -1       929-6.11260E+05-2.40261E+03-5.07505E+03 4.90801E+01-1.98426E-10-1.06525E-10
 -1       930-6.09942E+05 3.19796E+02-2.05966E+03-1.42776E+02-3.06173E-10 5.38193E-10
 -1       931-6.10260E+05-3.67699E+02-1.17663E+03 2.23122E+02-3.03228E-10 5.30036E-10
 -1       932-6.10085E+05 4.69643E+01-4.86186E+02-2.18563E+02-7.33014E-11 4.87262E-10
 -1       933-6.10085E+05-4.11657E+01-2.09291E+02 3.34803E+02 8.03126E-11 6.17149E-10
 -1       934-6.10116E+05-5.84961E+00 9.78874E+00-2.54459E+02-5.48038E-10 6.93205E-10
 -1       935-6.10011E+05 9.13058E+01 2.52477E+02 3.58369E+02-1.10200E-09 3.18238E-10
 -1       936-6.10159E+05-8.51827E+01 5.24419E+02-2.42130E+02-3.81220E-10 7.31887E-10
 -1       937-6.09736E+05 6.46011E+02 1.35119E+03 2.88338E+02 1.60271E-10 1.10560E-10
 -1       938-6.10390E+05-5.58912E+02 2.18025E+03-1.84426E+02 5.00032E-10 5.58202E-11
 -1       939-6.08092E+05 4.18112E+03 5.96127E+03 1.40905E+02-2.91717E-10 2.76600E-10
 -1       940-6.11800E+05-3.60865E+03 8.45508E+03-9.46948E+01-2.30248E-10 6.25732E-10
 -1       941 2.47385E+06-1.21947E+05 2.86514E+05 1.03661E+02 9.22735E-09 2.85218E-09
 -1       942 2.59714E+06 1.41338E+05 2.01956E+05 7.17941E+02 1.15880E-08-2.02272E-09
 -1       943 2.52160E+06-1.88963E+04 7.42615E+04 2.73698E+02 2.95727E-09 1.81899E-10
 -1       944 2.54173E+06 2.18862E+04 4.65080E+04 4.85135E+02-5.72077E-10-1.26602E-09
 -1       945 2.52942E+06-2.92275E+03 1.91576E+04 3.36505E+02 2.07984E-09 2.39834E-09
 -1       946 2.53269E+06 3.43242E+03 1.14505E+04 3.92644E+02 3.62785E-09 4.18549E-09
 -1       947 2.53070E+06-5.01044E+02 5.74540E+03 3.66206E+02 2.69005E-09 3.82147E-09
 -1       948 2.53138E+06 9.31670E+02 4.75000E+03 3.31857E+02 5.54459E-10 2.47324E-09
 -1       949 2.53075E+06-4.28907E+02 5.06443E+03 3.97296E+02-4.83349E-11-2.57603E-09
 -1       950 2.53235E+06 2.80564E+03 9.49025E+03 2.31758E+02 1.32390E-09 3.89855E-09
 -1       951 2.52973E+06-2.36974E+03 1.56132E+04 4.66305E+02 1.47702E-09-3.23780E-09
 -1       952 2.53965E+06 1.77231E+04 3.77072E+04-2.63551E+01-1.18271E-09-4.73392E-10
 -1       953 2.52339E+06-1.52994E+04 6.01457E+04 6.55393E+02-3.12233E-09 2.25191E-09
 -1       954 2.58451E+06 1.14431E+05 1.63517E+05-7.62368E+02-2.75953E-09-1.96451E-10
 -1       955 2.48471E+06-9.87355E+04 2.31917E+05 1.20213E+03-7.44939E-09 5.67525E-10
 -1       956-1.34601E+05-2.28261E+03-4.67255E+03 1.94564E+04-2.71621E-09-6.57110E-10
 -1       957-1.35445E+05-7.20511E+02-2.35308E+03 2.24807E+04-5.70253E-10 1.32377E-09
 -1       958-1.34980E+05-8.51943E+01-1.05783E+03 1.93382E+04 2.20098E-09-1.71553E-09
 -1       959-1.35060E+05-7.61281E+00-5.37688E+02 2.26104E+04-1.30422E-09-9.33596E-10
 -1       960-1.35024E+05 2.45506E+01-2.60881E+02 1.93259E+04-3.53930E-09-6.14818E-10
 -1       961-1.35033E+05 2.89257E+01-1.37502E+02 2.26241E+04-6.61066E-09 7.73298E-10
 -1       962-1.35037E+05 2.73535E+01-7.73457E+01 1.93244E+04-2.46291E-09-1.36083E-09
 -1       963-1.35035E+05 3.20537E+01-5.95378E+01 2.26260E+04-5.15138E-09 1.00499E-09
 -1       964-1.35041E+05 2.98585E+01-6.92592E+01 1.93240E+04-1.93950E-09-1.08344E-09
 -1       965-1.35042E+05 3.44616E+01-1.17198E+02 2.26259E+04 3.32966E-09-1.12004E-09
 -1       966-1.35039E+05 3.23059E+01-2.18689E+02 1.93245E+04-3.56518E-09-1.41335E-09
 -1       967-1.35074E+05 8.78538E+00-4.49743E+02 2.26197E+04 9.16828E-10 1.08707E-09
 -1       968-1.35010E+05-5.48974E+01-8.83552E+02 1.93303E+04 8.65839E-10-1.58366E-10
 -1       969-1.35404E+05-5.83022E+02-1.96652E+03 2.25582E+04 4.79986E-10-7.77959E-10
 -1       970-1.34698E+05-1.88892E+03-3.90415E+03 1.93874E+04 5.96856E-10-1.49794E-09
 -1       971-2.94963E+05 4.48356E+03-1.83500E+04 2.30610E+03-3.62570E-09 1.03591E-09
 -1       972-3.01634E+05-5.94665E+03-1.18258E+04 1.07743E+04-3.63298E-09 3.39242E-09
 -1       973-2.97755E+05 4.73523E+02-4.76346E+03 2.23557E+03-5.08226E-09 1.77965E-09
 -1       974-2.98538E+05-5.86948E+02-2.67824E+03 1.08753E+04-7.84894E-10 1.28216E-09
 -1       975-2.98081E+05 5.52744E+01-1.22634E+03 2.20463E+03-7.92511E-10 1.03603E-09
 -1       976-2.98185E+05-3.56880E+01-6.83644E+02 1.09225E+04-6.90466E-09 4.11933E-09
 -1       977-2.98123E+05 1.27662E+01-3.97827E+02 2.18818E+03 3.32420E-09 1.32866E-09
 -1       978-2.98152E+05 1.50352E+01-3.55930E+02 1.09442E+04 8.62053E-09 1.61205E-09
 -1       979-2.98122E+05 1.51173E+01-4.65821E+02 2.18295E+03 4.33522E-09 1.22124E-09
 -1       980-2.98209E+05-5.17271E+01-8.64414E+02 1.09430E+04 6.56104E-09 2.50320E-09
 -1       981-2.98067E+05 7.31886E+01-1.58352E+03 2.18938E+03-6.97923E-10 9.55026E-10
 -1       982-2.98679E+05-7.66487E+02-3.48333E+03 1.09177E+04-3.50337E-09 2.38089E-09
 -1       983-2.97643E+05 6.20896E+02-6.20032E+03 2.20836E+03 4.84306E-10 9.72705E-10
 -1       984-3.02724E+05-7.74548E+03-1.54064E+04 1.08469E+04-7.21809E-09 3.27532E-09
 -1       985-2.94008E+05 5.84906E+03-2.39014E+04 2.26120E+03 3.43789E-09 1.08594E-09
 -3
    1PSTEP                         7           4           1          
  100CL  104 3.98438E-01         841                     0    4           1
 -4  DISP        4    1
 -5  D1          1    2    1    0
 -5  D2          1    2    2    0
 -5  D3          1    2    3    0
 -5  ALL         1    2    0    0    1ALL
 -1         1 4.81432E-05 0.00000E+00 0.00000E+00
 -1         2 3.56920E-05 0.00000E+00 0.00000E+00
 -1         3 2.98806E-05 0.00000E+00 0.00000E+00
 -1         4 2.68102E-05 0.00000E+00 0.00000E+00
 -1         5 2.54986E-05 0.00000E+00 0.00000E+00
 -1         8 3.76007E-05-4.78498E-07 0.00000E+00
 -1         9 3.01401E-05 4.92689E-07 0.00000E+00
 -1        10 2.80391E-05-1.35268E-06 0.00000E+00
 -1        11 2.61716E-05-2.89804E-07 0.00000E+00
 -1        12 2.44368E-05 6.85120E-07 0.00000E+00
 -1        15 1.56466E-05-9.87868E-07 0.00000E+00
 -1        16 2.14458E-05 5.07146E-07 0.00000E+00
 -1        17 2.00423E-05-2.71972E-06 0.00000E+00
 -1        18 2.04940E-05-5.60198E-07 0.00000E+00
 -1        19 2.16456E-05 1.35514E-06 0.00000E+00
 -1        20 2.19919E-05 1.43145E-05 0.00000E+00
 -1        21 2.19815E-05 3.43215E-05 0.00000E+00
 -1        22 5.79809E-06-6.35745E-07 0.00000E+00
 -1        23 7.72149E-06 9.32326E-07 0.00000E+00
 -1        24 8.18345E-06-3.16405E-06 0.00000E+00
 -1        25 1.76478E-05-4.00252E-07 0.00000E+00
 -1        26 1.88528E-05 1.79393E-06 0.00000E+00
 -1        27 1.77296E-05 1.38152E-05 0.00000E+00
 -1        28 1.64108E-05 3.38491E-05 0.00000E+00
 -1        29 0.00000E+00 0.00000E+00 0.00000E+00
 -1        30 2.77968E-06 1.19368E-06 0.00000E+00
 -1        31 3.61789E-06-2.57663E-06 0.00000E+00
 -1        32 0.00000E+00 0.00000E+00 0.00000E+00
 -1        33 1.48605E-05 2.89126E-06 0.00000E+00
 -1        34 1.40574E-05 1.37720E-05 0.00000E+00
 -1        35 1.22863E-05 3.35990E-05 0.00000E+00
 -1        36 4.73898E-05 2.21279E-20 0.00000E+00
 -1        37 4.66117E-05 1.75672E-20 1.32349E-23
 -1        38 4.58351E-05-7.39880E-20 2.64698E-23
 -1        39 4.50538E-05-1.71020E-19 1.32349E-23
 -1        40 4.42724E-05-2.84789E-19 0.00000E+00
 -1        41 4.34901E-05-3.52240E-19 1.32349E-23
 -1        42 4.27076E-05-4.69377E-19-2.64698E-23
 -1        43 4.19250E-05-5.55570E-19-1.32349E-23
 -1        44 4.11423E-05-5.83563E-19 2.64698E-23
 -1        45 4.03598E-05-5.44653E-19 0.00000E+00
 -1        46 3.95773E-05-4.22540E-19 0.00000E+00
 -1        47 3.87954E-05-2.47726E-19 0.00000E+00
 -1        48 3.80137E-05-1.31748E-19 2.64698E-23
 -1        49 3.72350E-05-2.06936E-20 0.00000E+00
 -1        50 3.64553E-05 2.15373E-20-1.32349E-23
 -1        51 4.73537E-05-8.17569E-08 0.00000E+00
 -1        52 4.60379E-05-1.59641E-07 0.00000E+00
 -1        53 4.42976E-05-2.36918E-07 0.00000E+00
 -1        54 4.22398E-05-3.14691E-07 0.00000E+00
 -1        55 3.99715E-05-3.93994E-07-2.48154E-24
 -1        56 4.72119E-05-3.87468E-07 1.32349E-23
 -1        57 4.62671E-05-8.41388E-07 0.00000E+00
 -1        58 4.53341E-05-1.32105E-06 0.00000E+00
 -1        59 4.43947E-05-1.80127E-06 0.00000E+00
 -1        60 4.34440E-05-2.25195E-06-2.64698E-23
 -1        61 4.24710E-05-2.64603E-06-1.32349E-23
 -1        62 4.14670E-05-2.95810E-06 2.64698E-23
 -1        63 4.04234E-05-3.16486E-06-1.32349E-23
 -1        64 3.93329E-05-3.24690E-06-2.64698E-23
 -1        65 3.81895E-05-3.18746E-06 1.32349E-23
 -1        66 3.69889E-05-2.97526E-06 0.00000E+00
 -1        67 3.57289E-05-2.60192E-06 1.32349E-23
 -1        68 3.44079E-05-2.06581E-06 2.64698E-23
 -1        69 3.30319E-05-1.36645E-06-1.32349E-23
 -1        70 3.15964E-05-5.14297E-07 0.00000E+00
 -1        71 3.53276E-05-6.50214E-20 1.32349E-23
 -1        72 3.49638E-05-1.02153E-19 0.00000E+00
 -1        73 3.45999E-05-1.68070E-19 1.32349E-23
 -1        74 3.42361E-05-2.72713E-19 0.00000E+00
 -1        75 3.38724E-05-3.60132E-19-1.32349E-23
 -1        76 3.35087E-05-4.02080E-19 0.00000E+00
 -1        77 3.31449E-05-4.51688E-19-1.32349E-23
 -1        78 3.27812E-05-4.92966E-19-6.61744E-24
 -1        79 3.24175E-05-5.16872E-19-1.32349E-23
 -1        80 3.20538E-05-5.07635E-19 6.61744E-24
 -1        81 3.16902E-05-4.48733E-19 0.00000E+00
 -1        82 3.13268E-05-3.85169E-19 0.00000E+00
 -1        83 3.09633E-05-2.82825E-19 0.00000E+00
 -1        84 3.06009E-05-1.73702E-19 0.00000E+00
 -1        85 3.02382E-05-5.80495E-20 0.00000E+00
 -1        86 3.54891E-05 6.88246E-08 0.00000E+00
 -1        87 3.48891E-05 1.55924E-07 0.00000E+00
 -1        88 3.39758E-05 2.41534E-07 6.46235E-27
 -1        89 3.28322E-05 3.28355E-07-1.03398E-25
 -1        90 3.15299E-05 4.15851E-07 0.00000E+00
 -1        91 3.54121E-05-6.02788E-07 0.00000E+00
 -1        92 3.54525E-05-2.07061E-06 6.61744E-24
 -1        93 3.57280E-05-4.16753E-06 1.32349E-23
 -1        94 3.61455E-05-6.64716E-06 0.00000E+00
 -1        95 3.65783E-05-9.16799E-06 0.00000E+00
 -1        96 3.68990E-05-1.13879E-05-6.61744E-24
 -1        97 3.70077E-05-1.30398E-05 1.32349E-23
 -1        98 3.68082E-05-1.38674E-05 0.00000E+00
 -1        99 3.62799E-05-1.38173E-05 0.00000E+00
 -1       100 3.54079E-05-1.28526E-05 0.00000E+00
 -1       101 3.42625E-05-1.11618E-05 1.32349E-23
 -1       102 3.29197E-05-8.94692E-06 6.61744E-24
 -1       103 3.15040E-05-6.53916E-06-1.32349E-23
 -1       104 3.01435E-05-4.27255E-06-6.61744E-24
 -1       105 2.89489E-05-2.44766E-06 1.32349E-23
 -1       106 2.96864E-05-1.43755E-20 6.61744E-24
 -1       107 2.94940E-05-1.65211E-20 0.00000E+00
 -1       108 2.93015E-05-2.01733E-20-6.61744E-24
 -1       109 2.91093E-05-8.43931E-22 0.00000E+00
 -1       110 2.89172E-05-1.68054E-20 0.00000E+00
 -1       111 2.87251E-05-6.95545E-21 0.00000E+00
 -1       112 2.85330E-05-1.34782E-20 6.61744E-24
 -1       113 2.83409E-05-4.89588E-21 0.00000E+00
 -1       114 2.81489E-05 2.75894E-20 0.00000E+00
 -1       115 2.79568E-05 5.39155E-20 0.00000E+00
 -1       116 2.77648E-05 4.28126E-20 0.00000E+00
 -1       117 2.75729E-05 4.35139E-20-3.30872E-24
 -1       118 2.73811E-05 3.33432E-20 0.00000E+00
 -1       119 2.71898E-05 4.69542E-20 0.00000E+00
 -1       120 2.69984E-05 2.48781E-20 0.00000E+00
 -1       121 2.98717E-05-2.25611E-07-6.61744E-24
 -1       122 2.98008E-05-4.50801E-07 3.30872E-24
 -1       123 2.96248E-05-6.76030E-07 0.00000E+00
 -1       124 2.93009E-05-9.01314E-07-3.30872E-24
 -1       125 2.87863E-05-1.12666E-06 0.00000E+00
 -1       126 2.96821E-05-1.11485E-07 0.00000E+00
 -1       127 2.95087E-05-2.86501E-07-3.30872E-24
 -1       128 2.93526E-05-5.08184E-07 0.00000E+00
 -1       129 2.92077E-05-7.58752E-07 0.00000E+00
 -1       130 2.90655E-05-1.01684E-06 6.61744E-24
 -1       131 2.89182E-05-1.26094E-06-3.30872E-24
 -1       132 2.87583E-05-1.47170E-06 6.61744E-24
 -1       133 2.85788E-05-1.63001E-06 3.30872E-24
 -1       134 2.83748E-05-1.72293E-06-6.61744E-24
 -1       135 2.81416E-05-1.73808E-06-3.30872E-24
 -1       136 2.78782E-05-1.67244E-06 0.00000E+00
 -1       137 2.75837E-05-1.52364E-06 0.00000E+00
 -1       138 2.72609E-05-1.29946E-06 0.00000E+00
 -1       139 2.69136E-05-1.00810E-06 0.00000E+00
 -1       140 2.65471E-05-6.66370E-07 0.00000E+00
 -1       141 2.67262E-05-2.28562E-20 0.00000E+00
 -1       142 2.66433E-05-3.96040E-20-1.65436E-24
 -1       143 2.65603E-05-5.62016E-20 0.00000E+00
 -1       144 2.64775E-05-5.69121E-20-1.65436E-24
 -1       145 2.63947E-05-3.92270E-20 0.00000E+00
 -1       146 2.63120E-05-1.07234E-21 0.00000E+00
 -1       147 2.62293E-05-2.28112E-20-3.30872E-24
 -1       148 2.61466E-05-4.53497E-20 0.00000E+00
 -1       149 2.60639E-05-1.86267E-20 3.30872E-24
 -1       150 2.59813E-05 2.71412E-20 0.00000E+00
 -1       151 2.58987E-05 2.81860E-20 1.65436E-24
 -1       152 2.58164E-05 3.47266E-20 0.00000E+00
 -1       153 2.57342E-05 1.12566E-20-1.65436E-24
 -1       154 2.56534E-05-1.02688E-20 4.13590E-25
 -1       155 2.55721E-05-1.35708E-20 4.13590E-25
 -1       156 2.68210E-05-4.96972E-08 3.30872E-24
 -1       157 2.68488E-05-9.69709E-08 0.00000E+00
 -1       158 2.68454E-05-1.44429E-07-1.65436E-24
 -1       159 2.67623E-05-1.91998E-07 0.00000E+00
 -1       160 2.65531E-05-2.39371E-07 3.30872E-24
 -1       161 2.66968E-05-5.23452E-08-3.30872E-24
 -1       162 2.65894E-05-1.21483E-07 0.00000E+00
 -1       163 2.64855E-05-1.99980E-07 3.30872E-24
 -1       164 2.63824E-05-2.80491E-07 0.00000E+00
 -1       165 2.62771E-05-3.55378E-07-3.30872E-24
 -1       166 2.61668E-05-4.17063E-07 0.00000E+00
 -1       167 2.60492E-05-4.59045E-07-3.30872E-24
 -1       168 2.59218E-05-4.74920E-07-1.65436E-24
 -1       169 2.57828E-05-4.60006E-07 3.30872E-24
 -1       170 2.56307E-05-4.09745E-07 0.00000E+00
 -1       171 2.54645E-05-3.22037E-07 0.00000E+00
 -1       172 2.52839E-05-1.94845E-07-1.65436E-24
 -1       173 2.50888E-05-2.90236E-08-3.30872E-24
 -1       174 2.48812E-05 1.75115E-07-8.27181E-25
 -1       175 2.46602E-05 4.13179E-07 0.00000E+00
 -1       191 2.54611E-05 1.14060E-07 0.00000E+00
 -1       192 2.53658E-05 2.28351E-07 0.00000E+00
 -1       193 2.52139E-05 3.42690E-07 0.00000E+00
 -1       194 2.50071E-05 4.57008E-07 0.00000E+00
 -1       195 2.47474E-05 5.71232E-07 0.00000E+00
 -1       251 3.71440E-05 1.37561E-06 0.00000E+00
 -1       252 3.66765E-05 3.13485E-06 0.00000E+00
 -1       253 3.62100E-05 4.61450E-06 1.32349E-23
 -1       254 3.57420E-05 5.63510E-06 6.61744E-24
 -1       255 3.52744E-05 6.12115E-06 0.00000E+00
 -1       256 3.48064E-05 6.00741E-06 0.00000E+00
 -1       257 3.43382E-05 5.36441E-06 0.00000E+00
 -1       258 3.38695E-05 4.27279E-06 6.61744E-24
 -1       259 3.34006E-05 2.91476E-06 0.00000E+00
 -1       260 3.29316E-05 1.47765E-06 0.00000E+00
 -1       261 3.24628E-05 1.66708E-07 0.00000E+00
 -1       262 3.19948E-05-8.15296E-07 6.61744E-24
 -1       263 3.15272E-05-1.34000E-06-1.32349E-23
 -1       264 3.10618E-05-1.28781E-06-6.61744E-24
 -1       265 3.05956E-05-6.69637E-07-1.32349E-23
 -1       266 3.51528E-05-5.64660E-07-3.30872E-24
 -1       267 3.16319E-05-6.49049E-07 0.00000E+00
 -1       268 2.74768E-05-7.35995E-07-3.30872E-24
 -1       269 2.31285E-05-8.22330E-07 8.27181E-25
 -1       270 1.90358E-05-9.07775E-07 0.00000E+00
 -1       271 3.61418E-05 8.62018E-07 0.00000E+00
 -1       272 3.48166E-05 1.76104E-06-1.32349E-23
 -1       273 3.36361E-05 2.27795E-06 0.00000E+00
 -1       274 3.25753E-05 2.46312E-06 0.00000E+00
 -1       275 3.16173E-05 2.37319E-06-2.64698E-23
 -1       276 3.07400E-05 2.06592E-06-1.32349E-23
 -1       277 2.99215E-05 1.60135E-06 0.00000E+00
 -1       278 2.91388E-05 1.04085E-06 0.00000E+00
 -1       279 2.83688E-05 4.46662E-07 2.64698E-23
 -1       280 2.75880E-05-1.18597E-07 1.32349E-23
 -1       281 2.67733E-05-5.92672E-07-2.64698E-23
 -1       282 2.59020E-05-9.14006E-07-1.32349E-23
 -1       283 2.49514E-05-1.02269E-06-2.64698E-23
 -1       284 2.39035E-05-8.59369E-07 1.32349E-23
 -1       285 2.27321E-05-3.70322E-07 1.32349E-23
 -1       286 3.00061E-05 1.72186E-06 0.00000E+00
 -1       287 2.98750E-05 2.54950E-06 0.00000E+00
 -1       288 2.97439E-05 2.99715E-06 3.30872E-24
 -1       289 2.96134E-05 3.08837E-06 1.65436E-24
 -1       290 2.94829E-05 2.87047E-06 0.00000E+00
 -1       291 2.93524E-05 2.39238E-06 0.00000E+00
 -1       292 2.92218E-05 1.72037E-06-3.30872E-24
 -1       293 2.90911E-05 9.21735E-07 1.65436E-24
 -1       294 2.89604E-05 7.21894E-08 0.00000E+00
 -1       295 2.88296E-05-7.52264E-07 1.65436E-24
 -1       296 2.86990E-05-1.47732E-06-3.30872E-24
 -1       297 2.85682E-05-2.02917E-06 0.00000E+00
 -1       298 2.84376E-05-2.34556E-06 0.00000E+00
 -1       299 2.83061E-05-2.36548E-06 0.00000E+00
 -1       300 2.81749E-05-2.04767E-06 6.61744E-24
 -1       301 2.86892E-05 4.89421E-07 0.00000E+00
 -1       302 2.72322E-05 4.94653E-07 8.27181E-25
 -1       303 2.57742E-05 5.01404E-07 1.65436E-24
 -1       304 2.43204E-05 5.07972E-07 0.00000E+00
 -1       305 2.28759E-05 5.12614E-07-3.30872E-24
 -1       306 2.90946E-05 1.44810E-06-1.32349E-23
 -1       307 2.81983E-05 1.95153E-06-6.61744E-24
 -1       308 2.74482E-05 2.06716E-06 0.00000E+00
 -1       309 2.68185E-05 1.85387E-06 0.00000E+00
 -1       310 2.62880E-05 1.37476E-06 0.00000E+00
 -1       311 2.58327E-05 6.93780E-07 0.00000E+00
 -1       312 2.54283E-05-1.23588E-07 0.00000E+00
 -1       313 2.50501E-05-1.01108E-06 6.61744E-24
 -1       314 2.46731E-05-1.90190E-06 1.32349E-23
 -1       315 2.42725E-05-2.72924E-06-6.61744E-24
 -1       316 2.38234E-05-3.42678E-06-1.32349E-23
 -1       317 2.33018E-05-3.92893E-06 0.00000E+00
 -1       318 2.26832E-05-4.17159E-06 0.00000E+00
 -1       319 2.19470E-05-4.09133E-06 0.00000E+00
 -1       320 2.10668E-05-3.62921E-06 0.00000E+00
 -1       321 2.79169E-05-5.68229E-07 0.00000E+00
 -1       322 2.77997E-05 1.59546E-08 0.00000E+00
 -1       323 2.76823E-05 4.10247E-07 0.00000E+00
 -1       324 2.75659E-05 6.25934E-07 0.00000E+00
 -1       325 2.74495E-05 6.84914E-07-3.30872E-24
 -1       326 2.73334E-05 6.09831E-07-1.65436E-24
 -1       327 2.72172E-05 4.31291E-07 0.00000E+00
 -1       328 2.71011E-05 1.80397E-07 0.00000E+00
 -1       329 2.69849E-05-1.07450E-07 0.00000E+00
 -1       330 2.68688E-05-3.96681E-07 0.00000E+00
 -1       331 2.67527E-05-6.51638E-07-3.30872E-24
 -1       332 2.66365E-05-8.36824E-07 0.00000E+00
 -1       333 2.65204E-05-9.20894E-07 0.00000E+00
 -1       334 2.64043E-05-8.72976E-07 1.65436E-24
 -1       335 2.62881E-05-6.70044E-07-3.30872E-24
 -1       336 2.70184E-05-1.58176E-06 0.00000E+00
 -1       337 2.57889E-05-1.81049E-06 0.00000E+00
 -1       338 2.44132E-05-2.03930E-06 6.61744E-24
 -1       339 2.29547E-05-2.26750E-06 0.00000E+00
 -1       340 2.14766E-05-2.49579E-06-6.61744E-24
 -1       341 2.72789E-05-5.18296E-07 0.00000E+00
 -1       342 2.64423E-05 4.99282E-07 6.61744E-24
 -1       343 2.55815E-05 1.58235E-06 0.00000E+00
 -1       344 2.47407E-05 2.60886E-06 0.00000E+00
 -1       345 2.39619E-05 3.47041E-06 0.00000E+00
 -1       346 2.32848E-05 4.06079E-06 0.00000E+00
 -1       347 2.27267E-05 4.33414E-06 0.00000E+00
 -1       348 2.23029E-05 4.24975E-06 0.00000E+00
 -1       349 2.19985E-05 3.84684E-06 0.00000E+00
 -1       350 2.17969E-05 3.16994E-06 6.61744E-24
 -1       351 2.16586E-05 2.32391E-06-1.32349E-23
 -1       352 2.15439E-05 1.41665E-06 0.00000E+00
 -1       353 2.14067E-05 5.69571E-07 0.00000E+00
 -1       354 2.12050E-05-9.55446E-08 3.30872E-24
 -1       355 2.09042E-05-4.99777E-07-6.61744E-24
 -1       356 2.60615E-05 1.25109E-07 0.00000E+00
 -1       357 2.59520E-05 4.30954E-07 1.65436E-24
 -1       358 2.58425E-05 6.35286E-07 0.00000E+00
 -1       359 2.57332E-05 7.46112E-07 1.65436E-24
 -1       360 2.56238E-05 7.76673E-07-3.30872E-24
 -1       361 2.55145E-05 7.40574E-07 1.65436E-24
 -1       362 2.54052E-05 6.55151E-07 0.00000E+00
 -1       363 2.52959E-05 5.37959E-07-1.65436E-24
 -1       364 2.51866E-05 4.08332E-07 0.00000E+00
 -1       365 2.50774E-05 2.85661E-07-1.65436E-24
 -1       366 2.49682E-05 1.88949E-07 0.00000E+00
 -1       367 2.48594E-05 1.37077E-07-1.65436E-24
 -1       368 2.47506E-05 1.46423E-07-3.30872E-24
 -1       369 2.46435E-05 2.33088E-07 8.27181E-25
 -1       370 2.45358E-05 4.08860E-07 0.00000E+00
 -1       371 2.54944E-05-3.38254E-07 0.00000E+00
 -1       372 2.44213E-05-3.83698E-07 8.27181E-25
 -1       373 2.31685E-05-4.29515E-07 0.00000E+00
 -1       374 2.19526E-05-4.74179E-07-4.13590E-25
 -1       375 2.09893E-05-5.18724E-07 0.00000E+00
 -1       376 2.58000E-05 5.78963E-08 6.61744E-24
 -1       377 2.54567E-05 3.18624E-07 3.30872E-24
 -1       378 2.51454E-05 4.95002E-07 0.00000E+00
 -1       379 2.48644E-05 5.88562E-07-3.30872E-24
 -1       380 2.46099E-05 6.11696E-07-6.61744E-24
 -1       381 2.43768E-05 5.77123E-07 0.00000E+00
 -1       382 2.41578E-05 5.04875E-07-6.61744E-24
 -1       383 2.39454E-05 4.15278E-07 3.30872E-24
 -1       384 2.37310E-05 3.30955E-07 0.00000E+00
 -1       385 2.35062E-05 2.74507E-07 3.30872E-24
 -1       386 2.32639E-05 2.64648E-07 6.61744E-24
 -1       387 2.29977E-05 3.19814E-07 0.00000E+00
 -1       388 2.27033E-05 4.50358E-07-6.61744E-24
 -1       389 2.23789E-05 6.66865E-07 1.65436E-24
 -1       390 2.20221E-05 9.67464E-07 3.30872E-24
 -1       406 2.40567E-05 7.97368E-07 0.00000E+00
 -1       407 2.36341E-05 9.09798E-07 0.00000E+00
 -1       408 2.31752E-05 1.02218E-06 3.30872E-24
 -1       409 2.26865E-05 1.13429E-06-1.65436E-24
 -1       410 2.21744E-05 1.24580E-06-3.30872E-24
 -1       466 1.59925E-05 1.50766E-06 0.00000E+00
 -1       467 1.63558E-05 2.98751E-06 0.00000E+00
 -1       468 1.67189E-05 3.70548E-06 0.00000E+00
 -1       469 1.70852E-05 3.90366E-06 0.00000E+00
 -1       470 1.74516E-05 3.71838E-06 0.00000E+00
 -1       471 1.78185E-05 3.28016E-06-6.61744E-24
 -1       472 1.81853E-05 2.66794E-06 1.32349E-23
 -1       473 1.85522E-05 1.95801E-06-6.61744E-24
 -1       474 1.89190E-05 1.20671E-06-1.32349E-23
 -1       475 1.92857E-05 4.69780E-07-6.61744E-24
 -1       476 1.96523E-05-1.94121E-07 1.32349E-23
 -1       477 2.00181E-05-7.25241E-07 0.00000E+00
 -1       478 2.03838E-05-1.03674E-06 0.00000E+00
 -1       479 2.07451E-05-1.03843E-06 0.00000E+00
 -1       480 2.11077E-05-5.77223E-07 0.00000E+00
 -1       481 1.29137E-05-9.33719E-07 0.00000E+00
 -1       482 1.07425E-05-8.75284E-07 0.00000E+00
 -1       483 9.03616E-06-8.16169E-07 0.00000E+00
 -1       484 7.69901E-06-7.56112E-07-8.27181E-25
 -1       485 6.64734E-06-6.95644E-07 1.65436E-24
 -1       486 1.40142E-05 2.20462E-06 0.00000E+00
 -1       487 1.21370E-05 5.99624E-06-3.30872E-24
 -1       488 1.01991E-05 9.95088E-06 0.00000E+00
 -1       489 8.36571E-06 1.36218E-05 0.00000E+00
 -1       490 6.78433E-06 1.66271E-05 0.00000E+00
 -1       491 5.59466E-06 1.85943E-05-6.61744E-24
 -1       492 4.85026E-06 1.93792E-05 0.00000E+00
 -1       493 4.59652E-06 1.88564E-05 0.00000E+00
 -1       494 4.77119E-06 1.71881E-05 1.32349E-23
 -1       495 5.30547E-06 1.45554E-05 6.61744E-24
 -1       496 6.05232E-06 1.13516E-05 1.32349E-23
 -1       497 6.86211E-06 7.97962E-06-6.61744E-24
 -1       498 7.57094E-06 4.87936E-06 1.32349E-23
 -1       499 8.01894E-06 2.48727E-06-6.61744E-24
 -1       500 8.09769E-06 1.08203E-06-6.61744E-24
 -1       501 2.13518E-05 1.65880E-06-6.61744E-24
 -1       502 2.12639E-05 2.30649E-06-1.65436E-24
 -1       503 2.11759E-05 2.50150E-06 3.30872E-24
 -1       504 2.10889E-05 2.29666E-06-1.65436E-24
 -1       505 2.10018E-05 1.76268E-06-3.30872E-24
 -1       506 2.09148E-05 9.71418E-07 0.00000E+00
 -1       507 2.08276E-05 6.22664E-09 0.00000E+00
 -1       508 2.07404E-05-1.04896E-06-1.65436E-24
 -1       509 2.06533E-05-2.10618E-06-3.30872E-24
 -1       510 2.05662E-05-3.07746E-06 0.00000E+00
 -1       511 2.04792E-05-3.87867E-06-3.30872E-24
 -1       512 2.03923E-05-4.42627E-06 0.00000E+00
 -1       513 2.03056E-05-4.64802E-06-3.30872E-24
 -1       514 2.02185E-05-4.47284E-06 0.00000E+00
 -1       515 2.01314E-05-3.84734E-06 0.00000E+00
 -1       516 1.96154E-05 5.69726E-07 0.00000E+00
 -1       517 1.69785E-05 6.42675E-07 0.00000E+00
 -1       518 1.40023E-05 7.13924E-07 8.27181E-25
 -1       519 1.11527E-05 7.86725E-07-4.13590E-25
 -1       520 8.90136E-06 8.61414E-07 1.03398E-25
 -1       521 2.02323E-05 1.37441E-06 0.00000E+00
 -1       522 1.91598E-05 1.79222E-06-1.32349E-23
 -1       523 1.82322E-05 1.82656E-06 0.00000E+00
 -1       524 1.74222E-05 1.53604E-06 1.32349E-23
 -1       525 1.67096E-05 9.84765E-07 0.00000E+00
 -1       526 1.60695E-05 2.37878E-07 0.00000E+00
 -1       527 1.54775E-05-6.37552E-07 0.00000E+00
 -1       528 1.49079E-05-1.57353E-06 0.00000E+00
 -1       529 1.43354E-05-2.50147E-06 2.64698E-23
 -1       530 1.37344E-05-3.35288E-06-1.32349E-23
 -1       531 1.30794E-05-4.05997E-06 0.00000E+00
 -1       532 1.23460E-05-4.55602E-06-1.32349E-23
 -1       533 1.15096E-05-4.77636E-06 2.64698E-23
 -1       534 1.05500E-05-4.65757E-06 0.00000E+00
 -1       535 9.44030E-06-4.14166E-06 0.00000E+00
 -1       536 2.00628E-05-1.50162E-06 1.65436E-24
 -1       537 2.00902E-05-5.76059E-07 2.06795E-25
 -1       538 2.01176E-05 8.86943E-08-4.13590E-25
 -1       539 2.01461E-05 5.24552E-07-4.13590E-25
 -1       540 2.01749E-05 7.63299E-07 4.13590E-25
 -1       541 2.02039E-05 8.36686E-07 0.00000E+00
 -1       542 2.02329E-05 7.76420E-07 0.00000E+00
 -1       543 2.02620E-05 6.14170E-07 4.13590E-25
 -1       544 2.02911E-05 3.81579E-07 0.00000E+00
 -1       545 2.03201E-05 1.10266E-07-4.13590E-25
 -1       546 2.03492E-05-1.68155E-07-8.27181E-25
 -1       547 2.03783E-05-4.22072E-07 0.00000E+00
 -1       548 2.04073E-05-6.19872E-07 0.00000E+00
 -1       549 2.04363E-05-7.29927E-07 4.13590E-25
 -1       550 2.04654E-05-7.20564E-07 0.00000E+00
 -1       551 1.82695E-05-2.79325E-06-1.93870E-24
 -1       552 1.63001E-05-2.86474E-06-2.06795E-25
 -1       553 1.42197E-05-2.93619E-06 0.00000E+00
 -1       554 1.21155E-05-3.00837E-06 0.00000E+00
 -1       555 1.00748E-05-3.08219E-06 6.61744E-24
 -1       556 1.95170E-05-1.58321E-06 0.00000E+00
 -1       557 1.90912E-05-7.05360E-07 3.30872E-24
 -1       558 1.87537E-05-6.12495E-08 0.00000E+00
 -1       559 1.84939E-05 3.76503E-07 0.00000E+00
 -1       560 1.83015E-05 6.35328E-07 0.00000E+00
 -1       561 1.81658E-05 7.42901E-07 0.00000E+00
 -1       562 1.80765E-05 7.26915E-07 0.00000E+00
 -1       563 1.80232E-05 6.15099E-07 0.00000E+00
 -1       564 1.79954E-05 4.35192E-07 0.00000E+00
 -1       565 1.79828E-05 2.14942E-07 1.65436E-24
 -1       566 1.79749E-05-1.78965E-08-3.30872E-24
 -1       567 1.79613E-05-2.35566E-07-8.27181E-25
 -1       568 1.79318E-05-4.10315E-07 8.27181E-25
 -1       569 1.78761E-05-5.14422E-07-7.49632E-25
 -1       570 1.77840E-05-5.20191E-07-8.27181E-25
 -1       571 2.05630E-05-3.84210E-07 1.34417E-24
 -1       572 2.06342E-05-2.61995E-07-6.20385E-25
 -1       573 2.07061E-05-1.84091E-07 0.00000E+00
 -1       574 2.07783E-05-1.40550E-07-4.13590E-25
 -1       575 2.08506E-05-1.21385E-07 0.00000E+00
 -1       576 2.09230E-05-1.16545E-07 0.00000E+00
 -1       577 2.09954E-05-1.15974E-07 3.30872E-24
 -1       578 2.10677E-05-1.09610E-07 0.00000E+00
 -1       579 2.11401E-05-8.73886E-08 0.00000E+00
 -1       580 2.12125E-05-3.92462E-08 0.00000E+00
 -1       581 2.12849E-05 4.48802E-08 3.30872E-24
 -1       582 2.13573E-05 1.75045E-07 0.00000E+00
 -1       583 2.14296E-05 3.61296E-07 0.00000E+00
 -1       584 2.15019E-05 6.13582E-07 0.00000E+00
 -1       585 2.15740E-05 9.41807E-07 0.00000E+00
 -1       586 2.00813E-05-5.33026E-07 0.00000E+00
 -1       587 1.96090E-05-5.05591E-07 0.00000E+00
 -1       588 1.91031E-05-4.78179E-07 0.00000E+00
 -1       589 1.85899E-05-4.51038E-07-1.93870E-25
 -1       590 1.80961E-05-4.24515E-07 0.00000E+00
 -1       591 2.03740E-05-3.57398E-07 0.00000E+00
 -1       592 2.02641E-05-1.90092E-07 0.00000E+00
 -1       593 2.01646E-05-5.18556E-08 0.00000E+00
 -1       594 2.00734E-05 6.32596E-08 0.00000E+00
 -1       595 1.99885E-05 1.61197E-07 1.65436E-24
 -1       596 1.99079E-05 2.47867E-07-1.65436E-24
 -1       597 1.98292E-05 3.29172E-07 1.65436E-24
 -1       598 1.97503E-05 4.11012E-07 4.13590E-25
 -1       599 1.96690E-05 4.99287E-07 8.27181E-25
 -1       600 1.95830E-05 5.99894E-07 0.00000E+00
 -1       601 1.94903E-05 7.18731E-07-1.65436E-24
 -1       602 1.93885E-05 8.61705E-07 6.20385E-25
 -1       603 1.92756E-05 1.03472E-06-2.06795E-25
 -1       604 1.91496E-05 1.24372E-06-1.03398E-25
 -1       605 1.90085E-05 1.49465E-06-4.13590E-25
 -1       606 2.16698E-05 1.90221E-06 0.00000E+00
 -1       607 2.16922E-05 2.50000E-06-1.65436E-24
 -1       608 2.17141E-05 3.14554E-06 0.00000E+00
 -1       609 2.17358E-05 3.83545E-06 0.00000E+00
 -1       610 2.17573E-05 4.56631E-06 0.00000E+00
 -1       611 2.17788E-05 5.33466E-06 8.27181E-25
 -1       612 2.18003E-05 6.13701E-06-1.65436E-24
 -1       613 2.18217E-05 6.96991E-06 0.00000E+00
 -1       614 2.18430E-05 7.82985E-06 1.65436E-24
 -1       615 2.18644E-05 8.71335E-06 0.00000E+00
 -1       616 2.18857E-05 9.61695E-06 0.00000E+00
 -1       617 2.19071E-05 1.05372E-05 0.00000E+00
 -1       618 2.19284E-05 1.14705E-05 0.00000E+00
 -1       619 2.19496E-05 1.24135E-05-4.13590E-25
 -1       620 2.19709E-05 1.33627E-05 0.00000E+00
 -1       621 2.11272E-05 1.42841E-06 0.00000E+00
 -1       622 2.06221E-05 1.50217E-06 0.00000E+00
 -1       623 2.01361E-05 1.57596E-06-1.65436E-24
 -1       624 1.96754E-05 1.64958E-06-4.13590E-25
 -1       625 1.92457E-05 1.72277E-06 8.27181E-25
 -1       626 2.14802E-05 1.92680E-06 0.00000E+00
 -1       627 2.12940E-05 2.55135E-06 0.00000E+00
 -1       628 2.10894E-05 3.22399E-06 0.00000E+00
 -1       629 2.08687E-05 3.93922E-06 0.00000E+00
 -1       630 2.06340E-05 4.69156E-06 0.00000E+00
 -1       631 2.03875E-05 5.47542E-06 0.00000E+00
 -1       632 2.01312E-05 6.28518E-06 1.65436E-24
 -1       633 1.98672E-05 7.11528E-06 0.00000E+00
 -1       634 1.95978E-05 7.96010E-06-1.65436E-24
 -1       635 1.93249E-05 8.81404E-06-8.27181E-25
 -1       636 1.90506E-05 9.67150E-06 0.00000E+00
 -1       637 1.87771E-05 1.05269E-05 8.27181E-25
 -1       638 1.85064E-05 1.13746E-05-8.27181E-25
 -1       639 1.82405E-05 1.22090E-05 2.06795E-25
 -1       640 1.79813E-05 1.30244E-05-4.13590E-25
 -1       641 2.19926E-05 1.53039E-05 2.06795E-25
 -1       642 2.19925E-05 1.63983E-05 0.00000E+00
 -1       643 2.19923E-05 1.75827E-05-1.03398E-25
 -1       644 2.19919E-05 1.88420E-05 0.00000E+00
 -1       645 2.19915E-05 2.01613E-05 2.58494E-26
 -1       646 2.19909E-05 2.15253E-05 0.00000E+00
 -1       647 2.19903E-05 2.29192E-05-1.29247E-26
 -1       648 2.19897E-05 2.43278E-05-1.61559E-27
 -1       649 2.19891E-05 2.57360E-05 0.00000E+00
 -1       650 2.19884E-05 2.71290E-05 0.00000E+00
 -1       651 2.19878E-05 2.84915E-05-5.16988E-26
 -1       652 2.19872E-05 2.98086E-05-5.16988E-26
 -1       653 2.19866E-05 3.10652E-05-2.06795E-25
 -1       654 2.19856E-05 3.22463E-05 0.00000E+00
 -1       655 2.19848E-05 3.33367E-05 0.00000E+00
 -1       656 2.11327E-05 1.42340E-05 0.00000E+00
 -1       657 2.03865E-05 1.41495E-05 0.00000E+00
 -1       658 1.97134E-05 1.40651E-05 0.00000E+00
 -1       659 1.90729E-05 1.39807E-05 8.27181E-25
 -1       660 1.84251E-05 1.38961E-05 8.27181E-25
 -1       661 2.17160E-05 1.53324E-05 1.65436E-24
 -1       662 2.14125E-05 1.64338E-05 0.00000E+00
 -1       663 2.10824E-05 1.76056E-05-3.30872E-24
 -1       664 2.07309E-05 1.88359E-05 0.00000E+00
 -1       665 2.03619E-05 2.01128E-05 0.00000E+00
 -1       666 1.99799E-05 2.14243E-05 0.00000E+00
 -1       667 1.95894E-05 2.27588E-05 0.00000E+00
 -1       668 1.91947E-05 2.41043E-05 0.00000E+00
 -1       669 1.88002E-05 2.54492E-05 0.00000E+00
 -1       670 1.84104E-05 2.67816E-05-1.65436E-24
 -1       671 1.80297E-05 2.80897E-05 0.00000E+00
 -1       672 1.76625E-05 2.93618E-05 0.00000E+00
 -1       673 1.73131E-05 3.05859E-05 0.00000E+00
 -1       674 1.69855E-05 3.17500E-05 8.27181E-25
 -1       675 1.66850E-05 3.28424E-05 0.00000E+00
 -1       676 2.10506E-05 3.42427E-05 1.65436E-24
 -1       677 2.01206E-05 3.41633E-05 0.00000E+00
 -1       678 1.91915E-05 3.40840E-05 0.00000E+00
 -1       679 1.82635E-05 3.40050E-05 8.27181E-25
 -1       680 1.73366E-05 3.39260E-05 0.00000E+00
 -1       681 5.91543E-06 3.96097E-09-3.30872E-24
 -1       682 6.03621E-06 4.24234E-07 0.00000E+00
 -1       683 6.15684E-06 6.65613E-07-3.30872E-24
 -1       684 6.27812E-06 7.67729E-07 0.00000E+00
 -1       685 6.39942E-06 7.61222E-07 0.00000E+00
 -1       686 6.52085E-06 6.76193E-07-1.65436E-24
 -1       687 6.64228E-06 5.37664E-07 0.00000E+00
 -1       688 6.76372E-06 3.70390E-07 0.00000E+00
 -1       689 6.88515E-06 1.97263E-07 0.00000E+00
 -1       690 7.00653E-06 4.11512E-08 0.00000E+00
 -1       691 7.12787E-06-7.39779E-08 0.00000E+00
 -1       692 7.24893E-06-1.23956E-07 0.00000E+00
 -1       693 7.36993E-06-8.04006E-08-3.30872E-24
 -1       694 7.48945E-06 8.55376E-08 0.00000E+00
 -1       695 7.60942E-06 4.10599E-07 0.00000E+00
 -1       696 4.96183E-06-5.32501E-07 1.65436E-24
 -1       697 3.96390E-06-4.26609E-07 0.00000E+00
 -1       698 2.88663E-06-3.20952E-07 3.30872E-24
 -1       699 1.81205E-06-2.14517E-07 0.00000E+00
 -1       700 8.22329E-07-1.08061E-07 0.00000E+00
 -1       701 5.41710E-06 1.08992E-08-1.65436E-24
 -1       702 5.07391E-06 5.36039E-07 1.65436E-24
 -1       703 4.77608E-06 9.41825E-07-3.30872E-24
 -1       704 4.52186E-06 1.22765E-06-1.65436E-24
 -1       705 4.30908E-06 1.40303E-06 0.00000E+00
 -1       706 4.13388E-06 1.47755E-06-1.65436E-24
 -1       707 3.98997E-06 1.46859E-06 3.30872E-24
 -1       708 3.87067E-06 1.39390E-06 1.65436E-24
 -1       709 3.76750E-06 1.27618E-06 0.00000E+00
 -1       710 3.67190E-06 1.13839E-06-1.65436E-24
 -1       711 3.57468E-06 1.00497E-06 0.00000E+00
 -1       712 3.46689E-06 9.00401E-07-1.65436E-24
 -1       713 3.33997E-06 8.46901E-07 0.00000E+00
 -1       714 3.18686E-06 8.66922E-07 0.00000E+00
 -1       715 2.99972E-06 9.76298E-07-1.65436E-24
 -1       716 7.74734E-06 1.35794E-06-8.27181E-25
 -1       717 7.77742E-06 1.39710E-06 1.03398E-25
 -1       718 7.80721E-06 1.11675E-06 4.13590E-25
 -1       719 7.83769E-06 5.83365E-07-4.13590E-25
 -1       720 7.86808E-06-1.40610E-07-8.27181E-25
 -1       721 7.89852E-06-9.92979E-07 0.00000E+00
 -1       722 7.92892E-06-1.91361E-06-8.27181E-25
 -1       723 7.95933E-06-2.84250E-06-4.13590E-25
 -1       724 7.98977E-06-3.71972E-06 8.27181E-25
 -1       725 8.02021E-06-4.48531E-06 0.00000E+00
 -1       726 8.05070E-06-5.07750E-06 0.00000E+00
 -1       727 8.08086E-06-5.43431E-06 2.06795E-25
 -1       728 8.11101E-06-5.48993E-06 0.00000E+00
 -1       729 8.13889E-06-5.17821E-06 0.00000E+00
 -1       730 8.16728E-06-4.42712E-06-3.30872E-24
 -1       731 6.98855E-06 9.71835E-07 0.00000E+00
 -1       732 6.04555E-06 1.01590E-06 0.00000E+00
 -1       733 5.02264E-06 1.05959E-06 0.00000E+00
 -1       734 4.04982E-06 1.10415E-06 0.00000E+00
 -1       735 3.25832E-06 1.14893E-06 0.00000E+00
 -1       736 7.20364E-06 1.43689E-06 0.00000E+00
 -1       737 6.68518E-06 1.91495E-06-3.30872E-24
 -1       738 6.19586E-06 2.31732E-06 0.00000E+00
 -1       739 5.75288E-06 2.59118E-06 0.00000E+00
 -1       740 5.36929E-06 2.70677E-06-6.61744E-24
 -1       741 5.05541E-06 2.63556E-06-3.30872E-24
 -1       742 4.81031E-06 2.38088E-06 0.00000E+00
 -1       743 4.63185E-06 1.94820E-06 0.00000E+00
 -1       744 4.50668E-06 1.37326E-06 6.61744E-24
 -1       745 4.42078E-06 6.93562E-07-3.30872E-24
 -1       746 4.35347E-06-3.57448E-08 0.00000E+00
 -1       747 4.28413E-06-7.58762E-07 0.00000E+00
 -1       748 4.19199E-06-1.42084E-06 0.00000E+00
 -1       749 4.05833E-06-1.96744E-06 0.00000E+00
 -1       750 3.86810E-06-2.36472E-06-6.61744E-24
 -1       751 8.73979E-06-1.88925E-06 0.00000E+00
 -1       752 9.33122E-06-1.09206E-06-6.61744E-24
 -1       753 9.92070E-06-6.32118E-07 1.32349E-23
 -1       754 1.05168E-05-3.77541E-07 0.00000E+00
 -1       755 1.11132E-05-2.67338E-07-1.32349E-23
 -1       756 1.17108E-05-2.44093E-07 0.00000E+00
 -1       757 1.23086E-05-2.80517E-07-1.32349E-23
 -1       758 1.29066E-05-3.50797E-07 0.00000E+00
 -1       759 1.35047E-05-4.40859E-07 0.00000E+00
 -1       760 1.41026E-05-5.37119E-07-6.61744E-24
 -1       761 1.47004E-05-6.28139E-07 1.32349E-23
 -1       762 1.52973E-05-7.02355E-07 6.61744E-24
 -1       763 1.58940E-05-7.42377E-07 0.00000E+00
 -1       764 1.64859E-05-7.29971E-07 0.00000E+00
 -1       765 1.70795E-05-6.28788E-07 0.00000E+00
 -1       766 6.78970E-06-3.07762E-06 0.00000E+00
 -1       767 5.65249E-06-2.97654E-06 0.00000E+00
 -1       768 4.76592E-06-2.87618E-06-8.27181E-25
 -1       769 4.12522E-06-2.77438E-06 0.00000E+00
 -1       770 3.73923E-06-2.67184E-06-1.03398E-25
 -1       771 7.29737E-06-1.95095E-06 0.00000E+00
 -1       772 6.48962E-06-9.62703E-07 6.61744E-24
 -1       773 5.75813E-06-1.80451E-07 1.32349E-23
 -1       774 5.09624E-06 4.14896E-07-6.61744E-24
 -1       775 4.49718E-06 8.42467E-07 1.32349E-23
 -1       776 3.95382E-06 1.12149E-06 0.00000E+00
 -1       777 3.45895E-06 1.27123E-06 0.00000E+00
 -1       778 3.00534E-06 1.31100E-06 0.00000E+00
 -1       779 2.58574E-06 1.26016E-06-1.32349E-23
 -1       780 2.19288E-06 1.13808E-06 6.61744E-24
 -1       781 1.81949E-06 9.64175E-07-1.32349E-23
 -1       782 1.45836E-06 7.57887E-07 0.00000E+00
 -1       783 1.10228E-06 5.38671E-07 0.00000E+00
 -1       784 7.44383E-07 3.26075E-07-6.61744E-24
 -1       785 3.77871E-07 1.39658E-07-1.32349E-23
 -1       786 1.77186E-05-1.38678E-07 0.00000E+00
 -1       787 1.77938E-05 6.55850E-08 0.00000E+00
 -1       788 1.78688E-05 2.21298E-07 0.00000E+00
 -1       789 1.79446E-05 3.37227E-07 8.27181E-25
 -1       790 1.80204E-05 4.22100E-07 0.00000E+00
 -1       791 1.80964E-05 4.84631E-07 0.00000E+00
 -1       792 1.81723E-05 5.33512E-07 1.65436E-24
 -1       793 1.82483E-05 5.77429E-07 0.00000E+00
 -1       794 1.83244E-05 6.25064E-07 0.00000E+00
 -1       795 1.84004E-05 6.85102E-07 8.27181E-25
 -1       796 1.84763E-05 7.66233E-07 0.00000E+00
 -1       797 1.85523E-05 8.77168E-07 0.00000E+00
 -1       798 1.86281E-05 1.02663E-06 0.00000E+00
 -1       799 1.87037E-05 1.22339E-06 8.27181E-25
 -1       800 1.87793E-05 1.47622E-06 1.65436E-24
 -1       801 1.60623E-05-3.30362E-07 0.00000E+00
 -1       802 1.27792E-05-2.60144E-07 0.00000E+00
 -1       803 8.66434E-06-1.92914E-07 0.00000E+00
 -1       804 4.58497E-06-1.27094E-07 0.00000E+00
 -1       805 1.40813E-06-5.81900E-08-3.30872E-24
 -1       806 1.74667E-05-1.66693E-07 0.00000E+00
 -1       807 1.72918E-05 4.24252E-08 0.00000E+00
 -1       808 1.71235E-05 2.31904E-07 6.61744E-24
 -1       809 1.69605E-05 4.06153E-07-1.65436E-24
 -1       810 1.68015E-05 5.69551E-07 0.00000E+00
 -1       811 1.66449E-05 7.26444E-07 0.00000E+00
 -1       812 1.64891E-05 8.81168E-07 3.30872E-24
 -1       813 1.63324E-05 1.03805E-06 8.27181E-25
 -1       814 1.61733E-05 1.20143E-06-3.30872E-24
 -1       815 1.60102E-05 1.37564E-06-1.65436E-24
 -1       816 1.58414E-05 1.56500E-06 0.00000E+00
 -1       817 1.56653E-05 1.77385E-06 8.27181E-25
 -1       818 1.54804E-05 2.00652E-06 0.00000E+00
 -1       819 1.52853E-05 2.26736E-06-4.13590E-25
 -1       820 1.50785E-05 2.56075E-06 8.27181E-25
 -1       821 1.87869E-05 2.19829E-06 0.00000E+00
 -1       822 1.87169E-05 2.69286E-06-8.27181E-25
 -1       823 1.86469E-05 3.26839E-06 0.00000E+00
 -1       824 1.85762E-05 3.91551E-06 0.00000E+00
 -1       825 1.85055E-05 4.62483E-06-1.65436E-24
 -1       826 1.84345E-05 5.38691E-06-8.27181E-25
 -1       827 1.83635E-05 6.19226E-06 0.00000E+00
 -1       828 1.82925E-05 7.03139E-06-8.27181E-25
 -1       829 1.82214E-05 7.89477E-06 0.00000E+00
 -1       830 1.81504E-05 8.77284E-06 8.27181E-25
 -1       831 1.80793E-05 9.65607E-06 0.00000E+00
 -1       832 1.80084E-05 1.05349E-05 8.27181E-25
 -1       833 1.79375E-05 1.13997E-05 0.00000E+00
 -1       834 1.78671E-05 1.22411E-05 0.00000E+00
 -1       835 1.77967E-05 1.30494E-05 0.00000E+00
 -1       836 1.83571E-05 1.97337E-06 0.00000E+00
 -1       837 1.76722E-05 2.15915E-06 1.65436E-24
 -1       838 1.68893E-05 2.34453E-06 0.00000E+00
 -1       839 1.60990E-05 2.52951E-06 1.65436E-24
 -1       840 1.53925E-05 2.71487E-06 0.00000E+00
 -1       841 1.86868E-05 2.19248E-06 0.00000E+00
 -1       842 1.84823E-05 2.68835E-06 0.00000E+00
 -1       843 1.82449E-05 3.27213E-06 0.00000E+00
 -1       844 1.79779E-05 3.93349E-06 0.00000E+00
 -1       845 1.76859E-05 4.66162E-06 0.00000E+00
 -1       846 1.73729E-05 5.44552E-06 0.00000E+00
 -1       847 1.70432E-05 6.27367E-06-4.13590E-25
 -1       848 1.67012E-05 7.13454E-06 2.06795E-25
 -1       849 1.63513E-05 8.01624E-06 0.00000E+00
 -1       850 1.59981E-05 8.90687E-06 0.00000E+00
 -1       851 1.56461E-05 9.79447E-06 0.00000E+00
 -1       852 1.52996E-05 1.06670E-05 0.00000E+00
 -1       853 1.49633E-05 1.15128E-05-4.13590E-25
 -1       854 1.46413E-05 1.23198E-05 0.00000E+00
 -1       855 1.43382E-05 1.30768E-05 0.00000E+00
 -1       856 1.76515E-05 1.46385E-05-8.27181E-25
 -1       857 1.75694E-05 1.56097E-05 0.00000E+00
 -1       858 1.74873E-05 1.67096E-05-1.65436E-24
 -1       859 1.74046E-05 1.79188E-05 8.27181E-25
 -1       860 1.73216E-05 1.92180E-05-3.30872E-24
 -1       861 1.72384E-05 2.05876E-05-1.65436E-24
 -1       862 1.71552E-05 2.20081E-05 0.00000E+00
 -1       863 1.70719E-05 2.34599E-05 1.65436E-24
 -1       864 1.69885E-05 2.49233E-05-3.30872E-24
 -1       865 1.69052E-05 2.63789E-05 0.00000E+00
 -1       866 1.68219E-05 2.78068E-05-3.30872E-24
 -1       867 1.67388E-05 2.91876E-05 1.65436E-24
 -1       868 1.66558E-05 3.05017E-05-3.30872E-24
 -1       869 1.65733E-05 3.17296E-05 0.00000E+00
 -1       870 1.64908E-05 3.28518E-05 0.00000E+00
 -1       871 1.70631E-05 1.38090E-05 0.00000E+00
 -1       872 1.64388E-05 1.38022E-05 4.13590E-25
 -1       873 1.58415E-05 1.37953E-05 4.13590E-25
 -1       874 1.52558E-05 1.37882E-05 0.00000E+00
 -1       875 1.46662E-05 1.37807E-05 4.13590E-25
 -1       876 1.75300E-05 1.46655E-05 0.00000E+00
 -1       877 1.72870E-05 1.56442E-05 1.65436E-24
 -1       878 1.70023E-05 1.67334E-05-3.30872E-24
 -1       879 1.66829E-05 1.79170E-05-1.65436E-24
 -1       880 1.63343E-05 1.91784E-05-3.30872E-24
 -1       881 1.59626E-05 2.05015E-05 1.65436E-24
 -1       882 1.55737E-05 2.18703E-05 0.00000E+00
 -1       883 1.51737E-05 2.32687E-05 1.65436E-24
 -1       884 1.47685E-05 2.46807E-05-3.30872E-24
 -1       885 1.43643E-05 2.60904E-05-1.65436E-24
 -1       886 1.39668E-05 2.74818E-05 0.00000E+00
 -1       887 1.35822E-05 2.88387E-05 0.00000E+00
 -1       888 1.32165E-05 3.01453E-05 3.30872E-24
 -1       889 1.28749E-05 3.13852E-05 0.00000E+00
 -1       890 1.25646E-05 3.25425E-05 0.00000E+00
 -1       891 1.56041E-05 3.38076E-05-8.27181E-25
 -1       892 1.49524E-05 3.37656E-05 0.00000E+00
 -1       893 1.43752E-05 3.37237E-05-8.27181E-25
 -1       894 1.37920E-05 3.36818E-05 4.13590E-25
 -1       895 1.31225E-05 3.36399E-05 8.27181E-25
 -1       896 1.72682E-07 6.30869E-07-6.61744E-24
 -1       897 3.46870E-07 1.05831E-06 0.00000E+00
 -1       898 5.21027E-07 1.32221E-06-6.61744E-24
 -1       899 6.95472E-07 1.46127E-06 0.00000E+00
 -1       900 8.69933E-07 1.50247E-06 0.00000E+00
 -1       901 1.04445E-06 1.47213E-06 3.30872E-24
 -1       902 1.21896E-06 1.38983E-06 6.61744E-24
 -1       903 1.39347E-06 1.27479E-06 0.00000E+00
 -1       904 1.56798E-06 1.14315E-06 0.00000E+00
 -1       905 1.74244E-06 1.01094E-06 0.00000E+00
 -1       906 1.91687E-06 8.94139E-07 6.61744E-24
 -1       907 2.09110E-06 8.08825E-07 0.00000E+00
 -1       908 2.26529E-06 7.74036E-07 6.61744E-24
 -1       909 2.43842E-06 8.09172E-07 0.00000E+00
 -1       910 2.61189E-06 9.40174E-07 0.00000E+00
 -1       911 2.83195E-06 1.43012E-06 0.00000E+00
 -1       912 2.88499E-06 1.50940E-06 0.00000E+00
 -1       913 2.93798E-06 1.45503E-06 0.00000E+00
 -1       914 2.99110E-06 1.29022E-06 8.27181E-25
 -1       915 3.04421E-06 1.03509E-06 1.65436E-24
 -1       916 3.09732E-06 7.09579E-07 8.27181E-25
 -1       917 3.15042E-06 3.31647E-07 0.00000E+00
 -1       918 3.20350E-06-8.08667E-08 8.27181E-25
 -1       919 3.25656E-06-5.11082E-07 0.00000E+00
 -1       920 3.30958E-06-9.42155E-07-8.27181E-25
 -1       921 3.36258E-06-1.35728E-06 0.00000E+00
 -1       922 3.41536E-06-1.73960E-06 0.00000E+00
 -1       923 3.46812E-06-2.07136E-06 8.27181E-25
 -1       924 3.51977E-06-2.33466E-06 2.06795E-25
 -1       925 3.57181E-06-2.50975E-06 8.27181E-25
 -1       926 3.39768E-06-2.57202E-06-6.61744E-24
 -1       927 3.17214E-06-2.53413E-06-3.30872E-24
 -1       928 2.94694E-06-2.46027E-06 6.61744E-24
 -1       929 2.72072E-06-2.34808E-06-3.30872E-24
 -1       930 2.49447E-06-2.19955E-06 6.61744E-24
 -1       931 2.26801E-06-2.01703E-06 0.00000E+00
 -1       932 2.04152E-06-1.80672E-06-6.61744E-24
 -1       933 1.81498E-06-1.57509E-06 3.30872E-24
 -1       934 1.58842E-06-1.33103E-06 0.00000E+00
 -1       935 1.36184E-06-1.08355E-06-3.30872E-24
 -1       936 1.13526E-06-8.42048E-07 0.00000E+00
 -1       937 9.08621E-07-6.15862E-07 0.00000E+00
 -1       938 6.81977E-07-4.12590E-07-6.61744E-24
 -1       939 4.55066E-07-2.39617E-07 3.30872E-24
 -1       940 2.28252E-07-1.00882E-07 0.00000E+00
 -1       941 8.80976E-07 9.55867E-08 0.00000E+00
 -1       942 1.81041E-06 2.17009E-07 0.00000E+00
 -1       943 2.73682E-06 3.55495E-07 2.64698E-23
 -1       944 3.67240E-06 5.02956E-07 0.00000E+00
 -1       945 4.60827E-06 6.56483E-07-2.64698E-23
 -1       946 5.54596E-06 8.13411E-07-1.32349E-23
 -1       947 6.48388E-06 9.73043E-07-2.64698E-23
 -1       948 7.42210E-06 1.13479E-06 1.32349E-23
 -1       949 8.36034E-06 1.29928E-06 0.00000E+00
 -1       950 9.29836E-06 1.46727E-06-1.32349E-23
 -1       951 1.02362E-05 1.64153E-06 0.00000E+00
 -1       952 1.11726E-05 1.82508E-06 0.00000E+00
 -1       953 1.21087E-05 2.02633E-06-2.64698E-23
 -1       954 1.30374E-05 2.25437E-06 1.32349E-23
 -1       955 1.39686E-05 2.53381E-06 0.00000E+00
 -1       956 1.48112E-05 3.33868E-06-6.20385E-25
 -1       957 1.47613E-05 3.84466E-06 5.68687E-25
 -1       958 1.47111E-05 4.40368E-06-2.06795E-25
 -1       959 1.46608E-05 5.00978E-06-4.13590E-25
 -1       960 1.46105E-05 5.65702E-06-4.13590E-25
 -1       961 1.45602E-05 6.33939E-06 4.13590E-25
 -1       962 1.45098E-05 7.05086E-06 0.00000E+00
 -1       963 1.44594E-05 7.78544E-06-4.13590E-25
 -1       964 1.44090E-05 8.53710E-06 1.65436E-24
 -1       965 1.43586E-05 9.29981E-06-8.27181E-25
 -1       966 1.43081E-05 1.00676E-05 0.00000E+00
 -1       967 1.42577E-05 1.08344E-05 8.27181E-25
 -1       968 1.42074E-05 1.15942E-05 0.00000E+00
 -1       969 1.41571E-05 1.23410E-05-8.27181E-25
 -1       970 1.41069E-05 1.30689E-05 0.00000E+00
 -1       971 1.39501E-05 1.45299E-05 0.00000E+00
 -1       972 1.38396E-05 1.54434E-05 0.00000E+00
 -1       973 1.37291E-05 1.64931E-05 3.30872E-24
 -1       974 1.36179E-05 1.76597E-05 0.00000E+00
 -1       975 1.35065E-05 1.89236E-05 0.00000E+00
 -1       976 1.33950E-05 2.02652E-05-1.65436E-24
 -1       977 1.32833E-05 2.16647E-05 3.30872E-24
 -1       978 1.31716E-05 2.31023E-05 1.65436E-24
 -1       979 1.30599E-05 2.45583E-05 3.30872E-24
 -1       980 1.29482E-05 2.60127E-05-1.65436E-24
 -1       981 1.28365E-05 2.74458E-05-3.30872E-24
 -1       982 1.27251E-05 2.88377E-05-1.65436E-24
 -1       983 1.26138E-05 3.01686E-05 0.00000E+00
 -1       984 1.25032E-05 3.14189E-05 0.00000E+00
 -1       985 1.23926E-05 3.25688E-05 1.65436E-24
 -3
    1PSTEP                         8           4           1          
  100CL  104 3.98438E-01         841                     0    4           1
 -4  STRESS      6    1
 -5  SXX         1    4    1    1
 -5  SYY         1    4    2    2
 -5  SZZ         1    4    3    3
 -5  SXY         1    4    1    2
 -5  SYZ         1    4    2    3
 -5  SZX         1    4    3    1
 -1         1-1.60974E+06-5.14018E+05-3.27803E+05-4.61767E+05-2.86188E-10-4.94765E-10
 -1         2-1.02409E+06-4.68110E+04 1.50253E+03-1.03558E+05-4.25985E-10 1.19917E-09
 -1         3-5.27457E+05-1.90583E+05-8.91473E+03-4.41424E+04-4.54463E-10 2.57785E-09
 -1         4-2.59651E+05-5.32993E+04 3.89761E+02-2.65462E+04 9.55254E-11 1.54955E-10
 -1         5-1.25904E+05 9.29956E+04-6.88085E+04-5.12820E+03 2.91038E-09-1.10191E-09
 -1         8-8.66544E+05-3.47860E+05-1.31889E+05-3.34595E+05 1.61890E-10 1.96087E-09
 -1         9-9.32354E+05-2.04007E+05-1.18269E+05-2.15734E+05-2.45564E-10-3.39545E-10
 -1        10-4.76545E+05-2.76352E+05-1.44078E+04-1.20297E+05-1.13732E-09-2.60873E-10
 -1        11-2.70750E+05-8.23941E+04 2.98324E+02-6.20278E+04 1.07599E-09-1.25438E-09
 -1        12-1.64568E+05 7.53864E+04-7.89000E+04-2.81049E+04 3.40202E-09 6.34909E-10
 -1        15 7.72996E+03-3.59598E+04 1.71571E+03-7.81461E+04 7.33053E-10-8.54925E-11
 -1        16-5.15353E+05-9.90292E+04 6.87329E+03-2.37038E+05 6.17244E-10 7.05465E-10
 -1        17-3.23592E+05-2.24070E+05-3.74612E+04-1.79173E+05-8.14301E-10 2.42532E-12
 -1        18-1.54034E+05-8.27231E+04-5.87258E+04-9.58752E+04-6.15728E-10 9.36780E-11
 -1        19-3.23805E+04 4.60223E+04-3.28813E+04-2.99332E+04 4.85367E-10 4.92643E-10
 -1        20 5.95435E+04-4.30775E+04-6.87521E+03 3.13514E+04 7.48105E-09-1.56888E-10
 -1        21-9.12865E+02-8.91288E+04 1.99003E+04 4.49669E+02 1.13533E-08-1.22554E-09
 -1        22 1.69794E+04 9.85401E+04 6.29775E+02-2.22758E+04 4.54747E-11-1.41881E-10
 -1        23-1.94594E+05-8.80205E+02 2.03309E+03-9.62515E+04 4.97342E-10 1.68560E-10
 -1        24-1.17106E+05 1.22849E+04 1.27130E+05-2.35609E+05-2.32164E-09 3.78350E-10
 -1        25 2.92739E+05 1.06638E+05 9.40745E+04-1.52425E+05 7.05162E-10-5.69950E-11
 -1        26 2.15351E+03 1.03967E+05 5.86368E+03-2.08913E+04-3.23022E-10-2.81034E-10
 -1        27-2.53684E+04-3.74936E+04-1.62451E+04 4.09133E+04 4.28023E-09-2.16914E-09
 -1        28-7.84030E+03-6.85551E+04-4.24901E+02 3.27246E+04 5.03576E-09-3.34012E-11
 -1        29 2.39322E+05 1.64101E+05 6.75252E+02-3.58225E+03 8.65863E-11 1.11595E-09
 -1        30 8.06397E+04 2.35500E+04 9.96928E+02-2.44278E+04 6.71029E-11 3.27418E-10
 -1        31-2.82774E+05 2.31118E+04 2.28274E+03-6.02256E+04-6.29595E-10 1.44610E-09
 -1        32 3.70112E+05 2.28338E+05 2.69064E+05-2.28047E+05 2.93256E-09 2.04454E-09
 -1        33 6.49734E+05 2.96619E+05 2.08310E+05-2.97818E+04-6.23725E-09 1.87811E-10
 -1        34-1.21064E+05-1.88052E+04-7.25675E+03 1.95775E+04-9.30438E-10-8.87212E-10
 -1        35-1.85240E+04-2.25901E+04-4.23481E+02 4.81899E+04 2.67298E-09 6.11787E-10
 -1        36-2.20549E+06 6.60566E+04-1.54593E+05 1.52472E-08-1.70779E-10 1.53523E-09
 -1        37-2.27211E+06-7.65266E+04-1.09104E+05 1.87550E-07-9.93840E-10-4.18004E-09
 -1        38-2.23126E+06 1.02319E+04-4.00130E+04-4.83769E-09-1.20975E-09-3.53793E-09
 -1        39-2.24204E+06-1.18478E+04-2.50544E+04 2.30909E-08 5.26466E-10-1.15324E-09
 -1        40-2.23546E+06 1.58150E+03-1.02762E+04-9.41604E-09-2.19547E-11 2.75031E-09
 -1        41-2.23713E+06-1.85185E+03-6.10426E+03 5.23386E-08-4.64070E-10 2.17096E-09
 -1        42-2.23614E+06 2.65882E+02-2.98631E+03 6.91316E-08 8.00351E-10-2.10900E-09
 -1        43-2.23640E+06-4.63463E+02-2.34058E+03 3.69246E-08 1.08570E-09-3.57403E-10
 -1        44-2.23618E+06 1.96807E+02-2.33955E+03-1.42832E-07 7.86726E-11-1.07167E-09
 -1        45-2.23680E+06-1.25161E+03-4.23912E+03-1.53834E-07-1.86550E-09-8.87383E-10
 -1        46-2.23574E+06 1.05182E+03-6.90426E+03-6.75995E-08-1.52102E-10-1.66483E-09
 -1        47-2.24005E+06-7.86032E+03-1.66615E+04-1.54948E-08 9.09693E-11-1.44792E-09
 -1        48-2.23296E+06 6.78560E+03-2.65582E+04 7.38183E-09-1.95515E-10-1.74259E-09
 -1        49-2.25998E+06-5.07496E+04-7.23646E+04-3.69632E-08-9.80396E-10-1.93268E-09
 -1        50-2.21588E+06 4.38034E+04-1.02547E+05-2.59496E-08-1.07876E-09 1.23691E-09
 -1        51 1.87652E+04-2.10631E+05 3.05498E+04-5.68973E+05 0.00000E+00 2.11003E-09
 -1        52 7.92970E+03-2.07188E+05 1.82411E+04-6.28763E+05-1.34605E-10 5.31509E-09
 -1        53 4.59586E+03-2.12323E+05 1.42728E+04-5.67468E+05 1.09139E-10 1.44792E-09
 -1        54 1.09202E+04-2.09639E+05 2.11615E+04-6.30392E+05 1.45519E-10 3.67436E-09
 -1        55 2.62476E+04-2.16217E+05 3.79762E+04-5.67228E+05 2.18279E-11 2.14277E-09
 -1        56-2.41742E+06-2.73706E+05-1.96519E+05-9.34682E+05 2.25555E-10 2.99042E-09
 -1        57-2.50732E+06-4.36149E+05-1.31835E+05-9.14433E+05-1.43700E-10 2.72121E-09
 -1        58-2.45555E+06-3.35761E+05-4.62840E+04-9.24011E+05 1.88993E-09 3.04863E-09
 -1        59-2.46339E+06-3.62975E+05-2.74408E+04-9.27173E+05 7.51015E-10-2.77169E-09
 -1        60-2.46086E+06-3.44417E+05-1.08230E+04-9.22807E+05-2.92175E-10-1.09276E-09
 -1        61-2.45755E+06-3.52521E+05-6.12820E+03-9.28246E+05-3.75564E-10-3.37712E-09
 -1        62-2.46130E+06-3.45907E+05-2.99613E+03-9.23034E+05 5.23528E-10-1.66267E-09
 -1        63-2.45760E+06-3.50485E+05-2.52058E+03-9.27437E+05-1.34992E-09-1.93667E-09
 -1        64-2.46080E+06-3.46425E+05-2.95205E+03-9.23620E+05-3.18835E-10 7.65908E-10
 -1        65-2.45950E+06-3.50487E+05-5.99298E+03-9.25954E+05-3.93641E-11-7.13044E-10
 -1        66-2.45940E+06-3.45940E+05-1.05726E+04-9.24505E+05-5.82986E-10 1.31877E-10
 -1        67-2.46696E+06-3.58923E+05-2.67834E+04-9.22880E+05-8.81187E-10 4.34056E-09
 -1        68-2.45342E+06-3.38293E+05-4.51810E+04-9.26596E+05-4.33829E-10 9.00400E-10
 -1        69-2.51120E+06-4.28989E+05-1.28675E+05-9.08900E+05 1.78534E-09 2.34650E-09
 -1        70-2.41564E+06-2.78276E+05-1.91820E+05-9.37641E+05-9.16771E-10 1.16415E-09
 -1        71-1.04060E+06-1.46886E+03 3.44030E+03 2.62464E-08-7.78612E-10 1.56956E-09
 -1        72-1.03902E+06 1.70178E+03 2.42358E+03-7.72765E-08-4.76572E-10 2.32680E-09
 -1        73-1.04003E+06-2.27381E+02 8.82183E+02-8.38659E-08-1.72406E-10-1.70769E-09
 -1        74-1.03969E+06 2.62117E+02 5.39167E+02 7.67148E-08 4.77328E-11-5.73607E-10
 -1        75-1.03994E+06-3.39569E+01 1.92980E+02 5.47781E-08-6.23716E-10 8.97117E-10
 -1        76-1.03981E+06 3.17614E+01 5.92506E+01-1.05638E-07 2.27975E-10 9.12703E-10
 -1        77-1.03992E+06 2.29290E+00-7.77083E+01-1.20450E-07 3.03743E-11-3.25855E-11
 -1        78-1.03986E+06-5.22258E+01-2.64387E+02 5.88487E-08-8.50706E-10 1.56111E-09
 -1        79-1.03989E+06 4.98456E+01-5.23916E+02 7.41579E-08 4.01389E-11 8.99945E-10
 -1        80-1.04003E+06-3.81476E+02-1.22691E+03 1.34080E-08-2.49681E-11-2.79087E-10
 -1        81-1.03974E+06 3.30686E+02-2.13232E+03-1.54072E-08-2.29483E-10 1.32025E-09
 -1        82-1.04107E+06-2.48285E+03-5.24512E+03 1.30646E-07-1.37177E-10-1.34105E-09
 -1        83-1.03886E+06 2.14487E+03-8.39218E+03-1.93802E-09-5.73474E-10-1.98725E-09
 -1        84-1.04737E+06-1.60430E+04-2.28825E+04 4.19656E-08 4.46535E-11 8.77208E-10
 -1        85-1.03345E+06 1.38464E+04-3.24384E+04 6.33082E-08-4.23258E-10 2.13367E-09
 -1        86-5.12328E+04 2.37496E+05 1.22117E+05 1.01679E+03 6.83940E-10-4.49742E-09
 -1        87 6.39642E+04 2.91820E+05 9.43870E+04-4.67156E+03 1.10776E-09-1.54091E-09
 -1        88-1.25200E+04 2.55336E+05 4.84354E+04 6.48720E+02 1.29376E-09-1.57840E-09
 -1        89 4.41726E+04 2.82541E+05 6.83871E+04-4.10671E+03 1.97861E-09-1.81439E-09
 -1        90-3.15049E+04 2.46758E+05 7.72705E+04 4.52095E+02 1.72804E-09-1.15770E-09
 -1        91-1.11759E+06-1.48829E+05-1.67211E+04-4.19341E+05-2.12844E-09-8.46740E-10
 -1        92-1.11793E+06-1.71361E+05-1.14311E+04-4.24940E+05-1.24069E-09 5.48539E-10
 -1        93-1.12297E+06-1.52407E+05-3.91754E+03-4.15520E+05 1.90488E-09 3.51633E-09
 -1        94-1.11190E+06-1.66984E+05-2.42441E+03-4.29131E+05-1.23244E-09 5.14137E-09
 -1        95-1.12364E+06-1.53169E+05-9.40613E+02-4.15172E+05-8.32529E-10 1.24240E-09
 -1        96-1.11294E+06-1.63991E+05-5.27318E+02-4.27040E+05 8.82878E-10 5.47375E-09
 -1        97-1.12191E+06-1.55411E+05-4.15521E+02-4.17597E+05-6.01915E-10-1.08571E-10
 -1        98-1.11778E+06-1.58617E+05-3.11122E+02-4.20918E+05-3.13236E-10 5.11591E-13
 -1        99-1.11877E+06-1.58564E+05-7.54083E+02-4.21274E+05-4.43947E-11 4.38831E-11
 -1       100-1.12407E+06-1.53301E+05-1.48491E+03-4.14255E+05-6.47603E-10-3.16231E-09
 -1       101-1.11563E+06-1.60717E+05-2.74671E+03-4.24271E+05-4.53284E-10 1.02318E-10
 -1       102-1.12969E+06-1.53221E+05-7.26895E+03-4.10012E+05 1.25419E-09 3.39912E-09
 -1       103-1.11319E+06-1.58630E+05-1.17157E+04-4.25539E+05-1.23623E-09 2.06046E-09
 -1       104-1.14046E+06-1.74745E+05-3.45613E+04-4.07136E+05-2.49202E-09 2.00862E-09
 -1       105-1.10488E+06-1.39257E+05-5.00510E+04-4.27126E+05-3.35240E-09-1.62618E-09
 -1       106-5.51503E+05-4.69433E+03 1.10008E+04 3.07789E-08-1.51361E-10 4.71118E-10
 -1       107-5.46704E+05 5.43919E+03 7.75740E+03-8.64030E-08 1.22725E-10-1.66619E-09
 -1       108-5.49670E+05-7.27095E+02 2.84169E+03-3.91140E-08-3.61248E-10 1.08571E-10
 -1       109-5.48840E+05 8.41020E+02 1.76857E+03-1.69482E-08-3.09765E-11 1.17222E-09
 -1       110-5.49370E+05-1.11433E+02 7.03146E+02 9.17724E-08-4.61010E-10 3.40947E-10
 -1       111-5.49193E+05 1.24024E+02 3.72947E+02 4.74458E-08-2.15209E-10 1.48331E-09
 -1       112-5.49317E+05-1.22736E+01 9.63530E+01 3.71200E-08-1.20913E-10-3.91637E-10
 -1       113-5.49271E+05-1.75486E+01-8.89252E+01 6.05511E-08 1.42931E-10 1.62117E-09
 -1       114-5.49292E+05 2.97932E+01-2.98705E+02-3.45338E-08-3.44815E-10-1.65628E-09
 -1       115-5.49392E+05-2.41531E+02-7.65583E+02 4.78576E-08-1.28338E-11-3.58204E-09
 -1       116-5.49196E+05 2.11136E+02-1.35524E+03 3.43380E-09-2.06429E-11 4.69186E-10
 -1       117-5.50054E+05-1.58721E+03-3.35050E+03-3.55879E-08 1.09829E-10 4.20584E-10
 -1       118-5.48631E+05 1.37139E+03-5.36612E+03 3.00615E-09-2.62676E-10-2.07842E-09
 -1       119-5.54082E+05-1.02579E+04-1.46331E+04 3.04348E-09-2.49606E-10-2.08820E-09
 -1       120-5.45172E+05 8.85335E+03-2.07448E+04 1.91602E-08-4.42665E-11 8.69477E-10
 -1       121-6.80354E+02-6.44142E+05 2.90080E+03 5.97634E+03-2.23963E-10 2.78794E-09
 -1       122 9.91676E+02-6.42973E+05 2.22767E+03 2.61884E+04-1.92472E-10 2.53294E-09
 -1       123-1.71727E+02-6.43781E+05 1.56508E+03 6.05275E+03-9.11001E-10 1.77261E-09
 -1       124 1.17156E+03-6.42798E+05 2.57487E+03 2.59321E+04-3.95829E-10 4.99313E-10
 -1       125-8.78576E+02-6.44241E+05 3.53462E+03 6.23278E+03-2.15755E-09-1.61799E-09
 -1       126-5.26708E+05-7.63572E+04 6.26110E+03-1.96266E+05-6.35964E-10 1.99998E-09
 -1       127-5.22763E+05-7.12567E+04 4.33457E+03-1.98009E+05 4.47358E-10 1.56183E-09
 -1       128-5.25512E+05-7.40462E+04 1.46462E+03-1.96595E+05-2.10235E-10-1.46031E-10
 -1       129-5.24154E+05-7.39355E+04 9.05940E+02-1.97630E+05 5.27045E-11-1.36951E-09
 -1       130-5.25320E+05-7.36853E+04 3.26585E+02-1.96643E+05-5.93559E-10-1.86519E-09
 -1       131-5.24438E+05-7.43001E+04 1.65277E+02-1.97509E+05-9.33582E-11 1.28244E-09
 -1       132-5.25229E+05-7.36828E+04 1.95490E+01-1.96716E+05 2.07386E-10-6.94207E-10
 -1       133-5.24664E+05-7.42256E+04-9.61470E+01-1.97301E+05-1.22478E-10-6.23810E-10
 -1       134-5.25094E+05-7.37601E+04-2.37986E+02-1.96851E+05-3.17212E-10 1.24632E-09
 -1       135-5.25045E+05-7.41886E+04-6.29787E+02-1.96978E+05 2.38134E-10 9.71809E-10
 -1       136-5.24848E+05-7.37204E+04-1.10817E+03-1.97039E+05-7.18146E-10-3.73575E-09
 -1       137-5.26089E+05-7.52408E+04-2.98159E+03-1.96440E+05-9.90099E-10 1.82013E-09
 -1       138-5.24051E+05-7.27114E+04-4.79947E+03-1.97388E+05-6.84281E-10 1.55546E-09
 -1       139-5.31145E+05-8.34858E+04-1.41778E+04-1.94612E+05 1.17689E-09 9.14952E-10
 -1       140-5.19799E+05-6.54983E+04-2.04777E+04-1.98859E+05-1.90084E-10 6.90306E-10
 -1       141-2.37992E+05-2.95786E+03 6.93034E+03 2.21668E-08 2.74162E-10-8.41283E-11
 -1       142-2.34977E+05 3.42698E+03 4.88411E+03-1.70861E-07 8.62591E-12-1.11982E-11
 -1       143-2.36836E+05-4.57964E+02 1.78199E+03-9.47296E-08 4.07760E-11-1.04251E-10
 -1       144-2.36324E+05 5.28511E+02 1.09558E+03-7.19513E-08 2.41545E-12 8.75502E-10
 -1       145-2.36646E+05-6.89725E+01 4.06492E+02-3.98348E-08-1.40787E-10-9.41782E-10
 -1       146-2.36553E+05 6.85411E+01 1.56706E+02-3.79711E-08-6.30516E-11-6.03151E-10
 -1       147-2.36607E+05 6.28988E-01-8.65870E+01-3.38637E-08-9.38078E-11 1.32717E-09
 -1       148-2.36635E+05-7.47821E+01-3.79180E+02 3.09537E-08-3.23812E-11 4.47073E-10
 -1       149-2.36564E+05 7.40279E+01-7.76268E+02 3.23193E-09-2.11926E-10-4.33715E-10
 -1       150-2.36900E+05-5.69286E+02-1.83068E+03 9.54396E-08-4.56485E-11-4.27320E-10
 -1       151-2.36342E+05 4.93854E+02-3.18651E+03 5.12451E-08-6.81642E-11 1.37140E-09
 -1       152-2.38443E+05-3.70826E+03-7.83871E+03 8.95811E-08-8.12526E-12-1.97929E-10
 -1       153-2.35022E+05 3.20350E+03-1.25425E+04-4.92503E-08 8.45804E-10 6.99401E-10
 -1       154-2.47849E+05-2.39612E+04-3.41872E+04-2.07592E-08 1.75843E-10-2.62753E-09
 -1       155-2.26937E+05 2.06806E+04-4.84570E+04-4.61888E-08 1.72360E-09-7.34872E-10
 -1       156-7.02301E+03-1.36702E+05 1.70198E+04-5.84480E+02-2.36469E-11 2.85991E-09
 -1       157 9.40089E+03-1.28936E+05 1.42909E+04 2.56711E+03 5.11591E-12 1.54429E-09
 -1       158-2.34767E+03-1.34572E+05 9.08114E+03-5.66657E+02 3.97904E-12 2.75854E-10
 -1       159 1.08770E+04-1.28234E+05 1.62311E+04 2.48019E+03 2.49202E-10-5.05452E-10
 -1       160-8.49526E+03-1.37402E+05 2.03590E+04-4.97542E+02 2.35559E-10-5.20345E-10
 -1       161-2.92923E+05-4.04958E+04-1.64262E+03-1.10045E+05-1.94632E-10 7.90124E-10
 -1       162-2.93484E+05-4.22602E+04-1.14001E+03-1.10069E+05-1.42542E-10 1.89837E-09
 -1       163-2.93266E+05-4.10709E+04-3.92559E+02-1.09924E+05-7.85612E-10-1.46127E-09
 -1       164-2.93094E+05-4.15878E+04-2.56944E+02-1.10200E+05 7.16133E-10-1.78073E-09
 -1       165-2.93312E+05-4.11664E+04-1.23959E+02-1.09915E+05 2.27455E-10 4.56435E-11
 -1       166-2.93066E+05-4.14702E+04-1.31524E+02-1.10188E+05-2.84497E-11-2.10638E-09
 -1       167-2.93294E+05-4.11883E+04-1.73472E+02-1.09935E+05-2.33210E-10 4.47983E-10
 -1       168-2.93158E+05-4.14891E+04-3.76007E+02-1.10125E+05 7.71392E-11 3.00923E-09
 -1       169-2.93220E+05-4.11476E+04-6.73935E+02-1.09978E+05-2.05262E-10 1.75234E-09
 -1       170-2.93552E+05-4.19559E+04-1.67924E+03-1.09962E+05 7.33799E-10-1.30558E-09
 -1       171-2.92900E+05-4.07227E+04-2.91323E+03-1.10098E+05 4.62137E-11-3.35035E-10
 -1       172-2.95661E+05-4.53266E+04-7.81776E+03-1.09263E+05-1.82553E-10-6.48015E-10
 -1       173-2.91113E+05-3.77856E+04-1.25727E+04-1.10674E+05 6.08907E-10 3.04681E-10
 -1       174-3.08397E+05-6.74099E+04-3.71325E+04-1.05040E+05 3.29624E-09-4.43833E-10
 -1       175-2.80175E+05-1.86982E+04-5.36208E+04-1.14299E+05 6.27278E-09-6.43922E-10
 -1       191 1.11167E+03 3.27397E+05 1.82942E+03-9.66115E+03-7.27596E-11-5.68434E-10
 -1       192 4.02280E+02 3.27670E+05 1.09659E+03-1.04056E+04-5.82929E-10 4.69299E-10
 -1       193 1.83525E+02 3.27485E+05 8.83329E+02-9.51091E+03-5.48539E-11 2.04273E-09
 -1       194 5.33584E+02 3.27706E+05 1.33716E+03-1.06842E+04-1.08366E-09 4.23188E-09
 -1       195 1.51973E+03 3.27338E+05 2.42728E+03-9.38140E+03 3.91083E-11 2.36014E-09
 -1       251-1.32440E+06 2.95641E+04-6.92652E+04-4.87339E+03-1.01963E-09-2.22281E-09
 -1       252-1.35414E+06-3.42401E+04-4.88542E+04 7.32844E+03-1.22604E-09-1.71894E-10
 -1       253-1.33605E+06 4.57007E+03-1.79587E+04-3.25559E+03-1.14878E-09-5.65706E-10
 -1       254-1.34049E+06-5.29274E+03-1.11865E+04 2.66142E+03-5.51921E-10-3.77622E-09
 -1       255-1.33801E+06 6.95536E+02-4.66932E+03-2.06382E+02-7.04858E-11 1.10526E-09
 -1       256-1.33829E+06-8.25509E+02-2.73740E+03-3.40384E+03-1.39380E-10 3.52009E-09
 -1       257-1.33823E+06 1.16776E+02-1.46005E+03 2.80976E+03-4.02309E-10-8.08654E-10
 -1       258-1.33818E+06-2.37116E+02-1.25353E+03-7.93711E+03 5.79298E-10 3.61602E-10
 -1       259-1.33813E+06 1.23667E+02-1.45006E+03 4.32698E+03-2.63974E-10 4.72255E-10
 -1       260-1.33855E+06-8.30665E+02-2.81459E+03-8.73601E+03 6.24269E-10 8.27242E-10
 -1       261-1.33788E+06 7.12636E+02-4.69977E+03 3.60867E+03 6.66574E-10-2.40789E-09
 -1       262-1.34059E+06-5.36141E+03-1.13428E+04-5.40961E+03 8.98126E-12-1.72986E-09
 -1       263-1.33608E+06 4.62694E+03-1.82019E+04 1.00049E+03-6.24027E-10-2.50111E-10
 -1       264-1.35411E+06-3.46863E+04-4.94388E+04 4.52230E+02-2.87855E-10 3.65344E-09
 -1       265-1.32437E+06 2.99344E+04-7.01860E+04-2.25320E+03-2.58518E-09 3.18323E-09
 -1       266-1.25714E+04-2.28408E+05 2.85999E+04 5.69802E+03-1.45519E-11 7.58973E-10
 -1       267 1.35732E+04-2.15375E+05 1.84021E+04-2.24754E+04 1.05956E-10-1.45278E-10
 -1       268-8.91335E+02-2.22463E+05 3.36015E+03 6.30066E+03-1.81899E-12-2.89685E-09
 -1       269-5.70037E+03-2.24685E+05-6.95518E+03-2.28440E+04 9.79981E-11 1.13155E-09
 -1       270 6.66203E+03-2.19135E+05-1.49569E+04 6.06670E+03 2.72848E-12 4.02292E-09
 -1       271-2.14139E+06-2.67364E+05-1.66980E+05-8.29040E+05-3.31056E-10-2.46655E-09
 -1       272-2.19771E+06-3.83797E+05-1.06090E+05-8.32161E+05-2.58979E-10-3.21415E-09
 -1       273-2.17134E+06-3.06472E+05-3.94086E+04-8.23476E+05-6.09418E-10-3.91083E-09
 -1       274-2.16293E+06-3.34172E+05-2.18093E+04-8.41251E+05 7.69433E-10-2.38333E-09
 -1       275-2.17529E+06-3.10333E+05-9.17817E+03-8.22483E+05-2.57842E-10 1.79125E-09
 -1       276-2.15825E+06-3.29454E+05-4.89438E+03-8.42889E+05 1.12038E-09 3.28737E-09
 -1       277-2.17601E+06-3.10514E+05-2.51372E+03-8.22130E+05-3.86763E-10 2.94563E-10
 -1       278-2.15750E+06-3.29263E+05-2.01077E+03-8.43361E+05 9.23137E-10 3.16788E-09
 -1       279-2.17607E+06-3.10450E+05-2.43444E+03-8.22059E+05 2.10747E-11 1.47770E-09
 -1       280-2.15801E+06-3.29664E+05-4.68136E+03-8.43192E+05 7.74662E-10-3.31659E-09
 -1       281-2.17549E+06-3.10164E+05-8.73775E+03-8.22275E+05 7.86372E-10 1.77306E-09
 -1       282-2.16228E+06-3.34345E+05-2.07624E+04-8.41870E+05 6.69274E-10 1.12050E-09
 -1       283-2.17183E+06-3.06399E+05-3.74956E+04-8.23122E+05 5.48880E-10 2.49202E-09
 -1       284-2.19523E+06-3.81735E+05-1.00959E+05-8.33418E+05 4.31100E-10 4.62205E-09
 -1       285-2.14341E+06-2.69102E+05-1.58893E+05-8.28326E+05 3.12866E-10-7.20320E-10
 -1       286-3.75953E+05-6.54633E+03 1.53056E+04-2.62023E+02 1.07846E-09 3.54703E-11
 -1       287-3.69083E+05 7.57995E+03 1.08388E+04-1.42547E+03 7.44649E-11 2.20905E-09
 -1       288-3.73382E+05-1.01624E+03 3.95935E+03 3.37806E+02-1.43160E-10 2.06296E-09
 -1       289-3.72106E+05 1.17443E+03 2.51158E+03-2.51670E+03-2.40107E-10 1.51624E-09
 -1       290-3.72938E+05-1.58663E+02 1.03115E+03 8.29236E+02 2.91550E-10 3.33102E-10
 -1       291-3.72647E+05 1.90265E+02 6.51106E+02-3.31672E+03 6.46992E-10 1.60622E-09
 -1       292-3.72847E+05-3.09987E+01 3.66700E+02 1.13784E+03 6.99991E-10 4.03465E-09
 -1       293-3.72739E+05 8.03978E+01 3.89736E+02-3.70640E+03 5.71177E-10 1.37899E-10
 -1       294-3.72849E+05-4.66469E+01 5.17215E+02 1.21893E+03 7.93223E-10-3.80027E-10
 -1       295-3.72600E+05 3.29207E+02 1.07528E+03-3.62925E+03 9.32364E-10 1.06002E-09
 -1       296-3.72985E+05-2.79652E+02 1.81100E+03 1.06069E+03 1.28949E-10 6.29598E-10
 -1       297-3.71688E+05 2.09099E+03 4.43402E+03-3.09681E+03 1.87271E-10 2.50282E-10
 -1       298-3.73756E+05-1.80627E+03 7.05754E+03 6.86479E+02-7.53431E-10 6.92125E-10
 -1       299-3.66332E+05 1.34963E+04 1.92731E+04-2.19186E+03-1.37015E-09-2.61707E-09
 -1       300-3.78331E+05-1.16511E+04 2.72761E+04 1.55695E+02-3.43221E-10-1.36788E-09
 -1       301 2.93603E+04 2.40906E+04 6.28046E+04-1.78257E+04-1.79534E-09 4.05805E-10
 -1       302 9.88506E+03 3.57245E+04 3.76998E+04-2.08409E+04 2.91038E-11-4.33691E-09
 -1       303 2.77422E+03 2.82781E+04 2.90937E+04-1.78498E+04-1.82035E-09-3.62604E-09
 -1       304 1.15113E+04 3.66537E+04 4.19539E+04-2.08222E+04-4.06999E-10-2.07388E-09
 -1       305 3.46537E+04 2.31668E+04 7.31458E+04-1.78366E+04-1.78261E-09 2.34695E-09
 -1       306-1.53522E+06-1.96036E+05-1.06843E+05-5.94581E+05 5.47516E-10-1.49157E-09
 -1       307-1.56328E+06-2.78277E+05-6.78480E+04-6.05558E+05 3.40151E-10-4.54747E-12
 -1       308-1.55446E+06-2.20924E+05-2.52265E+04-5.90943E+05-4.72937E-11-1.08594E-09
 -1       309-1.54100E+06-2.46658E+05-1.39587E+04-6.11536E+05-7.04404E-10-1.82081E-09
 -1       310-1.55702E+06-2.23350E+05-5.88978E+03-5.90281E+05 5.60931E-10 1.70530E-10
 -1       311-1.53803E+06-2.43656E+05-3.16095E+03-6.12629E+05 7.76481E-10 2.11310E-09
 -1       312-1.55748E+06-2.23467E+05-1.66828E+03-5.90066E+05 5.79803E-12 1.22128E-09
 -1       313-1.53761E+06-2.43498E+05-1.41728E+03-6.12886E+05 8.29544E-10 2.86855E-09
 -1       314-1.55748E+06-2.23457E+05-1.82100E+03-5.90062E+05-2.82171E-10 1.74532E-09
 -1       315-1.53807E+06-2.43737E+05-3.58745E+03-6.12648E+05 1.62117E-10 5.72300E-10
 -1       316-1.55698E+06-2.23282E+05-6.74544E+03-5.90268E+05 1.13414E-09 2.01499E-09
 -1       317-1.54142E+06-2.47282E+05-1.60374E+04-6.11514E+05 1.02659E-10 3.09228E-11
 -1       318-1.55410E+06-2.20426E+05-2.89853E+04-5.90960E+05 8.15021E-10 2.47383E-10
 -1       319-1.56690E+06-2.83781E+05-7.79901E+04-6.04836E+05-1.16506E-09-5.09317E-10
 -1       320-1.53208E+06-1.91713E+05-1.22788E+05-5.95036E+05 7.96717E-10 0.00000E+00
 -1       321-3.38223E+05-1.31852E+04 3.08969E+04-1.56452E+02-1.17127E-09-1.66438E-09
 -1       322-3.24796E+05 1.52763E+04 2.18019E+04-7.36619E+02-1.17958E-09 1.95087E-10
 -1       323-3.33069E+05-2.04301E+03 7.99419E+03 1.05923E+02-2.02391E-10 1.26329E-09
 -1       324-3.30805E+05 2.36412E+03 5.00484E+03-1.22071E+03 3.76140E-10-1.42882E-09
 -1       325-3.32221E+05-3.15348E+02 2.03607E+03 3.27678E+02-7.89271E-11-1.02318E-09
 -1       326-3.31801E+05 3.64740E+02 1.18315E+03-1.58903E+03-4.11728E-10 1.13704E-09
 -1       327-3.32075E+05-4.87578E+01 5.21056E+02 4.74247E+02-3.06009E-10 1.76357E-09
 -1       328-3.31974E+05 5.96488E+01 3.00638E+02-1.78799E+03 4.77662E-11-3.51182E-10
 -1       329-3.32050E+05-1.03982E+01 1.61941E+02 5.26646E+02 6.26714E-11 1.74417E-10
 -1       330-3.31992E+05 3.24445E+01 1.45030E+02-1.79175E+03 1.97118E-10-1.14082E-09
 -1       331-3.32057E+05-2.15782E+01 1.63685E+02 4.78000E+02 5.87548E-11-3.03043E-10
 -1       332-3.31924E+05 1.54851E+02 3.42914E+02-1.59976E+03 6.31282E-11-2.00176E-09
 -1       333-3.32116E+05-1.33052E+02 5.24789E+02 3.34657E+02-4.96712E-10 1.04060E-09
 -1       334-3.31522E+05 9.91940E+02 1.42228E+03-1.23686E+03-1.30729E-10 3.18542E-09
 -1       335-3.32457E+05-8.56869E+02 2.00202E+03 1.15095E+02-5.22164E-10-6.75300E-11
 -1       336-5.81429E+02-6.52693E+05 1.30723E+03-7.98987E+03-3.59000E-09 3.29692E-10
 -1       337 7.02372E+01-6.52385E+05-1.95364E+03-3.73705E+04-2.46325E-09-6.95763E-10
 -1       338 6.39676E+02-6.51825E+05-6.12348E+03-7.83956E+03-4.12047E-09-1.58002E-09
 -1       339-8.46164E+03-6.57416E+05-1.67498E+04-3.75205E+04-2.92312E-09 1.37061E-09
 -1       340 6.53653E+03-6.47731E+05-2.64758E+04-7.84149E+03-3.93084E-09 1.87276E-09
 -1       341-9.90061E+05-1.25982E+05-3.86429E+04-3.80152E+05 1.73804E-09-2.38833E-09
 -1       342-1.01450E+06-1.56872E+05-2.67565E+04-3.68647E+05 1.86992E-09-1.51840E-09
 -1       343-9.97686E+05-1.39969E+05-9.06875E+03-3.77803E+05-4.08818E-10-3.65480E-09
 -1       344-1.00503E+06-1.41231E+05-5.65598E+03-3.71992E+05 1.77124E-10 1.30331E-09
 -1       345-9.99511E+05-1.41579E+05-2.16871E+03-3.76815E+05 4.00917E-10 7.01107E-10
 -1       346-1.00195E+06-1.40332E+05-1.33723E+03-3.74203E+05 2.04381E-09 6.69047E-10
 -1       347-1.00076E+06-1.40865E+05-7.81131E+02-3.75591E+05 1.87867E-10 6.50630E-10
 -1       348-9.99752E+05-1.42163E+05-9.25884E+02-3.76604E+05-1.92699E-11 3.88031E-10
 -1       349-1.00171E+06-1.39747E+05-1.36919E+03-3.74414E+05-3.76048E-10-9.64121E-10
 -1       350-9.98816E+05-1.44692E+05-3.19055E+03-3.78278E+05-2.89066E-09-4.71937E-09
 -1       351-1.00170E+06-1.38335E+05-5.47646E+03-3.73920E+05-6.39488E-10-1.24851E-09
 -1       352-1.00229E+06-1.51497E+05-1.46516E+04-3.77543E+05 3.14691E-09 2.56455E-09
 -1       353-9.98243E+05-1.32957E+05-2.35544E+04-3.75147E+05 9.69521E-10-2.21371E-09
 -1       354-1.02704E+06-1.91962E+05-6.95642E+04-3.68560E+05 4.77735E-09-3.46336E-09
 -1       355-9.76991E+05-9.79853E+04-1.00468E+05-3.82870E+05 2.82671E-09-1.69894E-09
 -1       356-3.13421E+05-1.58717E+03 3.71440E+03-5.28604E+01 8.36451E-11-4.79076E-10
 -1       357-3.11772E+05 1.83825E+03 2.61804E+03-4.88144E+02-2.27885E-10-6.79506E-10
 -1       358-3.12800E+05-2.45703E+02 9.47548E+02 8.22671E+01-1.80258E-10 4.02906E-10
 -1       359-3.12499E+05 2.82262E+02 5.73326E+02-7.30374E+02 1.51942E-10-3.98302E-10
 -1       360-3.12695E+05-3.60463E+01 1.87796E+02 1.89376E+02-1.92152E-10-2.27845E-09
 -1       361-3.12631E+05 2.89718E+01 2.09877E+01-9.03407E+02-3.38975E-10-3.65078E-09
 -1       362-3.12669E+05 7.12598E+00-1.65915E+02 2.55303E+02-1.73516E-10-1.23421E-10
 -1       363-3.12704E+05-9.16927E+01-4.65181E+02-9.85919E+02 5.74696E-11-9.53378E-10
 -1       364-3.12622E+05 8.45217E+01-8.92820E+02 2.71890E+02 2.22155E-10-7.54085E-10
 -1       365-3.12999E+05-6.43394E+02-2.07432E+03-9.67857E+02-3.97034E-10-1.90428E-09
 -1       366-3.12374E+05 5.57361E+02-3.59949E+03 2.37240E+02-2.84963E-10-3.01270E-10
 -1       367-3.14736E+05-4.18430E+03-8.84553E+03-8.50977E+02 3.06079E-10 1.40005E-09
 -1       368-3.10886E+05 3.61450E+03-1.41527E+04 1.55007E+02 7.48521E-10 5.99357E-10
 -1       369-3.25345E+05-2.70360E+04-3.85722E+04-6.44720E+02 4.91376E-11-5.78439E-10
 -1       370-3.01766E+05 2.33342E+04-5.46741E+04 3.10005E+01 2.10964E-09 3.31056E-10
 -1       371-8.46834E+03-1.31068E+05 1.93136E+04 2.66097E+03 7.38510E-10 4.43890E-10
 -1       372 8.76502E+03-1.22917E+05 1.17008E+04-1.13458E+04 1.54705E-09 1.22233E-09
 -1       373-2.56137E+02-1.27172E+05 9.91113E+02 2.75814E+03 1.35651E-09 2.86970E-09
 -1       374-6.50262E+03-1.29983E+05-8.33932E+03-1.13047E+04 1.16665E-09 8.10417E-10
 -1       375 6.74669E+03-1.24001E+05-1.52791E+04 2.61976E+03 1.07593E-09 9.28821E-10
 -1       376-5.35436E+05-6.69667E+04-2.19989E+04-2.04792E+05 1.78625E-09 5.72982E-10
 -1       377-5.46921E+05-8.69838E+04-1.52332E+04-2.01025E+05 1.46127E-09-1.65164E-09
 -1       378-5.40058E+05-7.46580E+04-5.16651E+03-2.03147E+05 9.27685E-11-4.60659E-10
 -1       379-5.41455E+05-7.81725E+04-3.22667E+03-2.03037E+05-4.11944E-10-5.15570E-11
 -1       380-5.40895E+05-7.57533E+04-1.23772E+03-2.02788E+05 5.28544E-10 2.78345E-09
 -1       381-5.40446E+05-7.69642E+04-7.86817E+02-2.03505E+05 2.14120E-10-1.55119E-09
 -1       382-5.41066E+05-7.58625E+04-4.64311E+02-2.02681E+05 5.43408E-11-3.36638E-09
 -1       383-5.40321E+05-7.69062E+04-6.02762E+02-2.03593E+05 9.28573E-11 3.13065E-10
 -1       384-5.41020E+05-7.58109E+04-8.93971E+02-2.02699E+05-3.45338E-10-1.90417E-09
 -1       385-5.40800E+05-7.74452E+04-2.11573E+03-2.03383E+05-9.39551E-11-2.09042E-10
 -1       386-5.40588E+05-7.53251E+04-3.63211E+03-2.02891E+05-2.42721E-10 3.44926E-10
 -1       387-5.43541E+05-8.15046E+04-9.71925E+03-2.02372E+05-4.35648E-10-2.91948E-10
 -1       388-5.38283E+05-7.17626E+04-1.56245E+04-2.03708E+05 1.11504E-09-1.15324E-09
 -1       389-5.59565E+05-1.08753E+05-4.61431E+04-1.96899E+05 3.69801E-09 9.50422E-11
 -1       390-5.24582E+05-4.81505E+04-6.66310E+04-2.08339E+05 7.60156E-09-8.69477E-10
 -1       406 1.23570E+03 3.22435E+05 2.44187E+03-3.47814E+04 1.24601E-10 1.22873E-09
 -1       407 6.67834E+02 3.22858E+05 2.49890E+03-3.83663E+04-1.98918E-09-2.20098E-10
 -1       408 8.69673E+02 3.22414E+05 3.72927E+03-3.46665E+04 2.86491E-11-8.93124E-10
 -1       409 3.45668E+03 3.23824E+05 7.76331E+03-3.85172E+04-2.43381E-09 2.37605E-09
 -1       410 1.00176E+04 3.21420E+05 1.55155E+04-3.46236E+04 1.90994E-11 2.55341E-09
 -1       466 1.03168E+06-4.10978E+04 9.62008E+04 6.11819E+03 2.18847E-10-1.97178E-09
 -1       467 1.07435E+06 4.75766E+04 6.80666E+04-1.25437E+04 2.45933E-10 6.88487E-10
 -1       468 1.04813E+06-6.35637E+03 2.49512E+04 2.59858E+03 1.85139E-10-2.46473E-10
 -1       469 1.05516E+06 7.35500E+03 1.56979E+04-7.28930E+03 7.49068E-10 1.21122E-09
 -1       470 1.05085E+06-9.82978E+02 6.50455E+03 8.64154E+02-1.70829E-10-2.15550E-10
 -1       471 1.05200E+06 1.17195E+03 4.01102E+03-4.77020E+03 7.31504E-11 1.18848E-09
 -1       472 1.05129E+06-1.84449E+02 2.23026E+03 7.94310E+01 3.98373E-10 1.34571E-09
 -1       473 1.05160E+06 4.45589E+02 2.25753E+03-3.79885E+03 2.77788E-10-1.28619E-09
 -1       474 1.05125E+06-2.56711E+02 2.90712E+03-1.07210E+02 2.74672E-10-4.55884E-11
 -1       475 1.05231E+06 1.80018E+03 5.95444E+03-3.94152E+03 8.71481E-11-5.82986E-10
 -1       476 1.05057E+06-1.53562E+03 1.00292E+04 2.22105E+02 1.39922E-09 3.58341E-10
 -1       477 1.05712E+06 1.15117E+04 2.44291E+04-5.26392E+03 1.65983E-11 2.18279E-10
 -1       478 1.04643E+06-9.94100E+03 3.89979E+04 1.21523E+03 1.27045E-10 5.80258E-10
 -1       479 1.08650E+06 7.43687E+04 1.06225E+05-8.41332E+03 2.70802E-10-2.56114E-09
 -1       480 1.02119E+06-6.41866E+04 1.50535E+05 3.37117E+03 1.47162E-09-1.15688E-09
 -1       481-8.08095E+03 1.71519E+05 1.90294E+04-1.68342E+03 1.45519E-11 1.33582E-09
 -1       482 9.69937E+03 1.80253E+05 1.41220E+04 4.83716E+03-8.18545E-11 4.38816E-09
 -1       483-1.60463E+03 1.74592E+05 6.19962E+03-1.32129E+03-7.73070E-11 1.81024E-09
 -1       484 4.15167E+03 1.77527E+05 6.81448E+03 4.26009E+03 1.14326E-11 2.26116E-10
 -1       485-2.54228E+03 1.74232E+05 6.50173E+03-1.10636E+03 1.03455E-10-9.58337E-10
 -1       486-9.60666E+05-1.05911E+05-9.14215E+04-3.84053E+05-1.01863E-10-1.71349E-09
 -1       487-1.02427E+06-1.73030E+05-6.32562E+04-3.50208E+05 1.14596E-09 2.83944E-09
 -1       488-9.78614E+05-1.38961E+05-2.14319E+04-3.78465E+05-4.35193E-10 1.14778E-09
 -1       489-1.00070E+06-1.36886E+05-1.32404E+04-3.59003E+05-2.09764E-09 3.36104E-09
 -1       490-9.84179E+05-1.41973E+05-5.11782E+03-3.75266E+05 4.34241E-10 1.74100E-09
 -1       491-9.90528E+05-1.36870E+05-2.70309E+03-3.66531E+05-4.65121E-10 3.23666E-10
 -1       492-9.88716E+05-1.39005E+05-1.53340E+03-3.70894E+05 1.19570E-09-7.47661E-10
 -1       493-9.82656E+05-1.43551E+05-8.94466E+02-3.75230E+05-2.52609E-09-6.68024E-10
 -1       494-9.92055E+05-1.35287E+05-1.31501E+03-3.66571E+05-5.87193E-11-1.13026E-09
 -1       495-9.78351E+05-1.49773E+05-2.46969E+03-3.81719E+05-5.68093E-10-3.41402E-09
 -1       496-9.93083E+05-1.32739E+05-4.24639E+03-3.64451E+05 1.27670E-10-1.77170E-09
 -1       497-9.80527E+05-1.55693E+05-1.12510E+04-3.82014E+05-1.64954E-09 3.27418E-11
 -1       498-9.89903E+05-1.29369E+05-1.81637E+04-3.66286E+05-6.98037E-10 2.89583E-09
 -1       499-1.00209E+06-1.83437E+05-5.32990E+04-3.71141E+05-4.94310E-10 3.89264E-10
 -1       500-9.71496E+05-1.05122E+05-7.74156E+04-3.75259E+05 6.62112E-10 1.09139E-10
 -1       501-2.54984E+05-1.51862E+04 3.55390E+04 2.87673E+02 9.29617E-10-1.32786E-09
 -1       502-2.39277E+05 1.75885E+04 2.51267E+04-2.87345E+03-8.58904E-11-3.59250E-11
 -1       503-2.49009E+05-2.35453E+03 9.19093E+03 7.53159E+02-1.41199E-10-1.17689E-09
 -1       504-2.46279E+05 2.72369E+03 5.78007E+03-3.68600E+03-2.13277E-10-1.55705E-09
 -1       505-2.47996E+05-3.64384E+02 2.34743E+03 1.10028E+03 6.55703E-10-3.94607E-10
 -1       506-2.47489E+05 4.26192E+02 1.38264E+03-4.21712E+03 1.50082E-09-1.56720E-09
 -1       507-2.47808E+05-5.85558E+01 6.32143E+02 1.28429E+03 1.47283E-09 3.69852E-10
 -1       508-2.47700E+05 8.77715E+01 4.16705E+02-4.40329E+03 1.18010E-09-1.92024E-11
 -1       509-2.47788E+05-2.47348E+01 3.14488E+02 1.28645E+03 1.42307E-09 6.18016E-10
 -1       510-2.47650E+05 1.32415E+02 4.66843E+02-4.22552E+03 8.76511E-10-1.60998E-09
 -1       511-2.47856E+05-1.05078E+02 6.92345E+02 1.10652E+03 5.88969E-10 1.40608E-09
 -1       512-2.47258E+05 7.71956E+02 1.66374E+03-3.70118E+03 1.35643E-09 3.65844E-10
 -1       513-2.48172E+05-6.67743E+02 2.59155E+03 7.62103E+02 9.05402E-10 2.58535E-09
 -1       514-2.45209E+05 4.97125E+03 7.12604E+03-2.88321E+03-1.50692E-10 2.59433E-09
 -1       515-2.49893E+05-4.29723E+03 1.00132E+04 2.88532E+02-1.88606E-10-5.63887E-11
 -1       516-3.34374E+04 2.09973E+05 7.92495E+04 5.23152E+03 3.19051E-09 2.62992E-09
 -1       517 4.12603E+04 2.45456E+05 6.03866E+04-2.55827E+04 4.55111E-09 5.09453E-09
 -1       518-7.61756E+03 2.22147E+05 2.94787E+04 4.89990E+03 3.33330E-09 3.24292E-09
 -1       519 2.48035E+04 2.38065E+05 3.88132E+04-2.58450E+04 4.92059E-09-1.54557E-10
 -1       520-1.70537E+04 2.17385E+05 4.18667E+04 5.49362E+03 1.70076E-09-1.66733E-09
 -1       521-1.98736E+06-2.51080E+05-1.43220E+05-7.68295E+05-1.85719E-09-2.45927E-09
 -1       522-2.03110E+06-3.55402E+05-9.09761E+04-7.76143E+05 2.09866E-10-1.99088E-09
 -1       523-2.01310E+06-2.84539E+05-3.38012E+04-7.63462E+05-4.24279E-10 4.74756E-10
 -1       524-2.00124E+06-3.12917E+05-1.87043E+04-7.84040E+05-6.27551E-11-3.31966E-11
 -1       525-2.01650E+06-2.87831E+05-7.87067E+03-7.62598E+05 3.85398E-10-1.01363E-09
 -1       526-1.99726E+06-3.08848E+05-4.19666E+03-7.85432E+05 1.64755E-09-1.91335E-10
 -1       527-2.01709E+06-2.88017E+05-2.15216E+03-7.62332E+05 3.74143E-10 1.62049E-09
 -1       528-1.99671E+06-3.08587E+05-1.71837E+03-7.85719E+05-3.75088E-10 5.68377E-10
 -1       529-2.01707E+06-2.88034E+05-2.07660E+03-7.62347E+05-7.07928E-10-1.72463E-09
 -1       530-1.99728E+06-3.08765E+05-3.98620E+03-7.85367E+05 4.67367E-10-1.04842E-09
 -1       531-2.01648E+06-2.87900E+05-7.44626E+03-7.62642E+05 3.35831E-10-5.52063E-10
 -1       532-2.00112E+06-3.12521E+05-1.76755E+04-7.83944E+05 1.52772E-09 2.50293E-09
 -1       533-2.01321E+06-2.84845E+05-3.19366E+04-7.63514E+05 5.38421E-10 1.28966E-09
 -1       534-2.02944E+06-3.52543E+05-8.59470E+04-7.76345E+05 7.16113E-10 2.84854E-09
 -1       535-1.98883E+06-2.53306E+05-1.35309E+05-7.68152E+05 2.25555E-10 1.29512E-09
 -1       536 7.63110E+04-9.99640E+03 4.06227E+04-4.39583E+03-7.45786E-11-2.36469E-11
 -1       537 9.12795E+04 1.31580E+04 2.62031E+04-1.92486E+04-1.34310E-09-9.32687E-10
 -1       538 8.24796E+04-1.07921E+03 1.05243E+04-4.35429E+03 3.77440E-11 5.81622E-10
 -1       539 8.43121E+04 1.32226E+03 5.91406E+03-1.92770E+04 8.42192E-10 3.10706E-10
 -1       540 8.31896E+04-1.28603E+02 2.65839E+03-4.36472E+03-9.23137E-11 1.45928E-09
 -1       541 8.34509E+04 1.29601E+02 1.41312E+03-1.92549E+04 1.00044E-10-1.14915E-09
 -1       542 8.32780E+04-1.72435E+01 6.73696E+02-4.37649E+03 1.84173E-10 6.50743E-10
 -1       543 8.33130E+04 1.94526E+01 3.64325E+02-1.92370E+04-6.85702E-10 2.57421E-09
 -1       544 8.32888E+04-9.50872E-01 2.05732E+02-4.38267E+03 2.61139E-10-1.01579E-09
 -1       545 8.32907E+04 1.91375E+01 1.69072E+02-1.92301E+04-3.02961E-10 5.70282E-10
 -1       546 8.32856E+04-4.96229E+00 2.00553E+02-4.38340E+03 7.83871E-11 9.42123E-10
 -1       547 8.33430E+04 8.77226E+01 3.74656E+02-1.92316E+04-2.47383E-10-1.32698E-09
 -1       548 8.32457E+04-6.49491E+01 6.37971E+02-4.38110E+03-3.74257E-10-1.13508E-09
 -1       549 8.37805E+04 7.87520E+02 1.57162E+03-1.92076E+04 2.93312E-11-2.93085E-10
 -1       550 8.28814E+04-6.06495E+02 2.42354E+03-4.40743E+03-1.85082E-10 6.59384E-12
 -1       551 9.34549E+03-1.97305E+05 1.95464E+04-3.00903E+05-4.42014E-10-4.18368E-10
 -1       552 4.40000E+03-1.94024E+05 1.48155E+04-3.50713E+05-9.84073E-10 2.07729E-09
 -1       553 2.73646E+03-1.96822E+05 1.65210E+04-3.00406E+05-6.94854E-10 1.16552E-09
 -1       554 1.04332E+04-1.90743E+05 3.04269E+04-3.50806E+05-1.14960E-09 8.93124E-10
 -1       555 2.88832E+04-2.00900E+05 5.74997E+04-3.00772E+05-8.00355E-10-1.48611E-09
 -1       556-1.54382E+05-7.98567E+04 1.19167E+04-1.43159E+05 1.59889E-09 1.55705E-09
 -1       557-1.42921E+05-9.24414E+04 5.84835E+03-1.52284E+05-7.47605E-10 3.31966E-11
 -1       558-1.54679E+05-8.39007E+04 2.45575E+03-1.40751E+05-1.25146E-09 4.08363E-10
 -1       559-1.43999E+05-9.44395E+04 1.20538E+03-1.52717E+05 8.82210E-10 7.78755E-10
 -1       560-1.54830E+05-8.39369E+04 5.33193E+02-1.40725E+05 7.63976E-10 1.10208E-09
 -1       561-1.44233E+05-9.44739E+04 2.50529E+02-1.52890E+05 3.29601E-09 6.63968E-09
 -1       562-1.54945E+05-8.38566E+04 8.32655E+01-1.40801E+05 4.63115E-09-2.56068E-09
 -1       563-1.44350E+05-9.44236E+04-1.87916E+01-1.52975E+05 8.37554E-09-7.29460E-09
 -1       564-1.55006E+05-8.38076E+04-1.40709E+02-1.40847E+05 4.39832E-09-1.76897E-09
 -1       565-1.44417E+05-9.43990E+04-3.49239E+02-1.53015E+05-1.96451E-10 2.48929E-09
 -1       566-1.55000E+05-8.37874E+04-7.43302E+02-1.40856E+05 1.12493E-10-3.32875E-10
 -1       567-1.44550E+05-9.44808E+04-1.64380E+03-1.52997E+05 4.17231E-10-3.35604E-10
 -1       568-1.54869E+05-8.40613E+04-3.38134E+03-1.40716E+05-1.06411E-10-6.18456E-11
 -1       569-1.46374E+05-9.65820E+04-7.97834E+03-1.52439E+05-2.31921E-10 1.04046E-09
 -1       570-1.54185E+05-9.04542E+04-1.63230E+04-1.38021E+05-2.78305E-10-8.42192E-10
 -1       571 2.06038E+05 1.03506E+04 1.60706E+04-5.30950E+04-2.83762E-10-1.34060E-09
 -1       572 2.08515E+05 3.50696E+03 7.90185E+03-5.86454E+04-4.54747E-10-1.08730E-09
 -1       573 2.07041E+05 7.65572E+02 3.51739E+03-5.29445E+04-5.10227E-10 9.59972E-10
 -1       574 2.07327E+05 2.34602E+02 1.76767E+03-5.88099E+04-1.54614E-10 1.30785E-09
 -1       575 2.07146E+05 1.57809E+01 8.37531E+02-5.29258E+04 6.84395E-11 2.03272E-10
 -1       576 2.07173E+05-2.28889E+00 4.28916E+02-5.88310E+04 1.09935E-09 1.96496E-09
 -1       577 2.07161E+05-1.43845E+01 2.15748E+02-5.29234E+04 1.62140E-09 1.59616E-09
 -1       578 2.07157E+05-1.07829E+01 1.25485E+02-5.88335E+04 1.19508E-09 4.63842E-11
 -1       579 2.07176E+05-1.59149E+01 9.12510E+01-5.29232E+04-6.55291E-10-1.27829E-09
 -1       580 2.07180E+05-1.82353E+01 1.08732E+02-5.88307E+04-5.53428E-10-7.82620E-10
 -1       581 2.07202E+05-2.35939E+01 1.74005E+02-5.29261E+04-1.49976E-09-1.65710E-09
 -1       582 2.07248E+05 8.40309E+00 3.48861E+02-5.87995E+04-1.61526E-09 3.27873E-10
 -1       583 2.07222E+05 9.87457E+01 6.81722E+02-5.29544E+04-1.37152E-09-1.37652E-09
 -1       584 2.07529E+05 6.16880E+02 1.52914E+03-5.85538E+04-1.56615E-09 2.63731E-09
 -1       585 2.07075E+05 1.93110E+03 3.10290E+03-5.31735E+04 1.12868E-09 2.21917E-10
 -1       586 1.70574E+03 7.93245E+04 3.06620E+03-1.41021E+05 1.19417E-09 1.60526E-09
 -1       587 9.31447E+02 7.98261E+04 2.88071E+03-1.56226E+05 1.36424E-10-1.07866E-09
 -1       588 1.04920E+03 7.92868E+04 4.04021E+03-1.40844E+05 1.27693E-09 9.19272E-10
 -1       589 3.76877E+03 8.08109E+04 8.23778E+03-1.56261E+05 3.05590E-10 7.03153E-10
 -1       590 1.06414E+04 7.82946E+04 1.63702E+04-1.40982E+05 1.18325E-09-2.08775E-09
 -1       591-9.38744E+04-3.33578E+04-1.74486E+04-4.98726E+04 4.59409E-10 1.84627E-10
 -1       592-9.42112E+04-3.12122E+04-8.53461E+03-5.52673E+04 2.03067E-09 8.13429E-09
 -1       593-9.43517E+04-2.67163E+04-3.62012E+03-5.28776E+04 2.59320E-09 7.12816E-09
 -1       594-9.23564E+04-2.88258E+04-1.77005E+03-5.56143E+04 2.87628E-11 3.34595E-11
 -1       595-9.44359E+04-2.64593E+04-8.15041E+02-5.30168E+04 2.65572E-10-1.16751E-09
 -1       596-9.22154E+04-2.87286E+04-4.14636E+02-5.56058E+04-3.99496E-10-1.31774E-09
 -1       597-9.44525E+04-2.64700E+04-2.28366E+02-5.30184E+04 2.85013E-10-6.34827E-10
 -1       598-9.22016E+04-2.87295E+04-1.87629E+02-5.56002E+04 5.62210E-10 5.63659E-10
 -1       599-9.44506E+04-2.64700E+04-2.44303E+02-5.30178E+04 3.27418E-11 5.97765E-10
 -1       600-9.22154E+04-2.87295E+04-4.56880E+02-5.56047E+04 2.10548E-10-1.61208E-09
 -1       601-9.44285E+04-2.64587E+04-9.04643E+02-5.30144E+04-9.14042E-10-1.67802E-09
 -1       602-9.23715E+04-2.88374E+04-1.96895E+03-5.56110E+04-1.05274E-10-4.09273E-12
 -1       603-9.43321E+04-2.67476E+04-4.02812E+03-5.28595E+04-4.31100E-10-1.13187E-09
 -1       604-9.44444E+04-3.14816E+04-9.49679E+03-5.52096E+04 3.97449E-10-7.08042E-10
 -1       605-9.37868E+04-3.41460E+04-1.94150E+04-4.95255E+04-5.13865E-11-7.08496E-10
 -1       606 6.31152E+04-7.98741E+03-1.23793E+04 1.84965E+04-4.02179E-09 2.81625E-09
 -1       607 6.11756E+04-2.70674E+03-6.08502E+03 2.02352E+04-1.10504E-09 2.34081E-10
 -1       608 6.23078E+04-5.90332E+02-2.70880E+03 1.83691E+04 2.76577E-09 1.21531E-09
 -1       609 6.20539E+04-1.69194E+02-1.35896E+03 2.03749E+04-1.56933E-09 1.83422E-09
 -1       610 6.22012E+04 1.78919E+00-6.42113E+02 1.83530E+04-3.91265E-09 6.33463E-10
 -1       611 6.21520E+04 2.42818E+01-3.23698E+02 2.03923E+04-7.34099E-09 1.05229E-09
 -1       612 6.21779E+04 3.13908E+01-1.54485E+02 1.83512E+04-2.30921E-09-2.27510E-09
 -1       613 6.21594E+04 3.28228E+01-7.24849E+01 2.03946E+04-5.28416E-09-8.96534E-10
 -1       614 6.21677E+04 2.95057E+01-2.40969E+01 1.83507E+04-1.27329E-09-6.33690E-10
 -1       615 6.21569E+04 3.39043E+01 1.19318E+01 2.03948E+04 3.29987E-09 1.35446E-09
 -1       616 6.21603E+04 3.26074E+01 5.31186E+01 1.83509E+04-2.20234E-09-1.56433E-10
 -1       617 6.21633E+04 5.38708E+01 1.28469E+02 2.03942E+04 2.02363E-10 1.18007E-10
 -1       618 6.21471E+04 9.15037E+01 2.63342E+02 1.83512E+04 3.81988E-10 2.48747E-10
 -1       619 6.22480E+04 3.03565E+02 5.96028E+02 2.03920E+04 2.39652E-10 3.18732E-09
 -1       620 6.20672E+04 8.17910E+02 1.21429E+03 1.83522E+04 1.16125E-09 4.02224E-10
 -1       621 1.75654E+03 2.11873E+05 4.14452E+03-2.05275E+04 1.47111E-10-9.58380E-10
 -1       622 6.65954E+02 2.12649E+05 3.30956E+03-2.40261E+04-1.21850E-09-2.36162E-09
 -1       623 3.84183E+02 2.12056E+05 3.93462E+03-2.05501E+04 7.07132E-11 7.44876E-10
 -1       624 2.25039E+03 2.13564E+05 7.46330E+03-2.39215E+04-8.58790E-10 8.92214E-10
 -1       625 6.91674E+03 2.10981E+05 1.42376E+04-2.06308E+04 1.60981E-10-1.38789E-09
 -1       626 8.78673E+04 2.86785E+04-5.88355E+03 6.02581E+04-2.49929E-09 4.82942E-10
 -1       627 8.52963E+04 3.26455E+04-2.79462E+03 6.13233E+04 1.64619E-10 1.43115E-09
 -1       628 8.79805E+04 3.15422E+04-1.17497E+03 5.88708E+04 3.20506E-09-1.31308E-09
 -1       629 8.57473E+04 3.38118E+04-5.64742E+02 6.12165E+04 1.02045E-09-6.00042E-09
 -1       630 8.79675E+04 3.17333E+04-2.50013E+02 5.87610E+04 5.75437E-09-2.04918E-09
 -1       631 8.57792E+04 3.38952E+04-1.13174E+02 6.12164E+04-9.99535E-10-2.06680E-09
 -1       632 8.79554E+04 3.17393E+04-3.44593E+01 5.87512E+04 2.04500E-09 7.81529E-09
 -1       633 8.57800E+04 3.38992E+04 2.07587E+01 6.12170E+04 6.26233E-09 6.53927E-10
 -1       634 8.79467E+04 3.17344E+04 8.66363E+01 5.87495E+04 6.39920E-09 2.30239E-09
 -1       635 8.57897E+04 3.39012E+04 2.09535E+02 6.12192E+04-2.94938E-09 1.20690E-09
 -1       636 8.79366E+04 3.17421E+04 4.40493E+02 5.87429E+04-5.35749E-09-5.56770E-09
 -1       637 8.58929E+04 3.40145E+04 9.85462E+02 6.12029E+04 4.29912E-09 1.78227E-09
 -1       638 8.79112E+04 3.20856E+04 2.04200E+03 5.85921E+04 5.22550E-09-2.31103E-09
 -1       639 8.69332E+04 3.57990E+04 4.85699E+03 6.07725E+04-3.10320E-09 2.18279E-11
 -1       640 8.79404E+04 3.72634E+04 1.02250E+04 5.64335E+04-1.19278E-08-2.00384E-09
 -1       641 1.82372E+03 1.88179E+03-4.41345E+03-1.80281E+02-4.61216E-09 1.26738E-09
 -1       642-7.06779E+01-2.17931E+03-3.10931E+03 8.04074E+02 2.80101E-09 8.92669E-10
 -1       643 1.09024E+03 2.91046E+02-1.13866E+03-1.79335E+02-9.48811E-09-4.48665E-10
 -1       644 7.81303E+02-3.35051E+02-7.04402E+02 8.02845E+02 4.48738E-09 2.55818E-09
 -1       645 9.71251E+02 4.39472E+01-2.73548E+02-1.79058E+02-6.49455E-09-8.86189E-10
 -1       646 9.21670E+02-4.54215E+01-1.30609E+02 8.02397E+02-1.94257E-07 9.73213E-10
 -1       647 9.49604E+02 2.47788E+00-3.13835E+00-1.78889E+02-1.45941E-05 1.80880E-08
 -1       648 9.59956E+02 2.44538E+01 1.13663E+02 8.02223E+02-2.88670E-05 4.13720E-08
 -1       649 9.32877E+02-2.57017E+01 2.61756E+02-1.78885E+02-1.45957E-05 1.73552E-08
 -1       650 1.05503E+03 1.99453E+02 6.32650E+02 8.02223E+02-1.82644E-07-4.51450E-10
 -1       651 8.54619E+02-1.72132E+02 1.10636E+03-1.78889E+02-7.54065E-09-1.61413E-09
 -1       652 1.59472E+03 1.29154E+03 2.72644E+03 8.02016E+02 2.45267E-09 2.28493E-09
 -1       653 3.93479E+02-1.11464E+03 4.36223E+03-1.78681E+02-3.63917E-09-1.29057E-09
 -1       654 4.87076E+03 8.33550E+03 1.18928E+04 7.99750E+02 4.65119E-10-6.27779E-10
 -1       655-2.42061E+03-7.19303E+03 1.68574E+04-1.76643E+02 2.61760E-09-3.86535E-10
 -1       656 6.64749E+03-2.39445E+05-2.81323E+04 5.75170E+03-1.25146E-09 1.03455E-10
 -1       657-9.58738E+03-2.49848E+05-2.06204E+04 2.45214E+04-1.74441E-09 7.45786E-10
 -1       658 1.30833E+03-2.43119E+05-1.30077E+04 5.70337E+03-1.51999E-09 1.19513E-09
 -1       659-8.71509E+03-2.49355E+05-1.91180E+04 2.45520E+04-1.29239E-09-7.71978E-10
 -1       660 5.93416E+03-2.39954E+05-2.53059E+04 5.72142E+03-1.97633E-09-4.59522E-10
 -1       661 2.38824E+05 3.00520E+04 1.96291E+04 9.31931E+04 6.18570E-09 1.88265E-10
 -1       662 2.43597E+05 4.55918E+04 1.24712E+04 9.57096E+04-7.84866E-11-4.11546E-11
 -1       663 2.42252E+05 3.47362E+04 4.63705E+03 9.26483E+04 2.83865E-09-6.65295E-10
 -1       664 2.39659E+05 3.96126E+04 2.57202E+03 9.65816E+04-4.49859E-10-2.47081E-09
 -1       665 2.42647E+05 3.52610E+04 1.08816E+03 9.26085E+04 2.87855E-10-6.34941E-10
 -1       666 2.39206E+05 3.89564E+04 5.94099E+02 9.66442E+04 1.54506E-09 3.40469E-09
 -1       667 2.42692E+05 3.53229E+04 3.30057E+02 9.26103E+04 3.10257E-09 1.24038E-09
 -1       668 2.39164E+05 3.88939E+04 3.10818E+02 9.66437E+04-3.25262E-09 3.05259E-09
 -1       669 2.42687E+05 3.53191E+04 4.33885E+02 9.26102E+04-8.05301E-10 1.59278E-09
 -1       670 2.39244E+05 3.89993E+04 8.83211E+02 9.66423E+04 8.62866E-09 3.30149E-09
 -1       671 2.42614E+05 3.52245E+04 1.67002E+03 9.26096E+04 2.85252E-09-8.85279E-10
 -1       672 2.39955E+05 4.00126E+04 3.98063E+03 9.65379E+04-2.89802E-09-4.91809E-10
 -1       673 2.41995E+05 3.44145E+04 7.18772E+03 9.26751E+04 4.59933E-09-1.16961E-09
 -1       674 2.46066E+05 4.92814E+04 1.93404E+04 9.51783E+04 7.14118E-09-1.32991E-09
 -1       675 2.36676E+05 2.71521E+04 3.04437E+04 9.35214E+04 3.95721E-09-1.45701E-09
 -1       676 8.58565E+02-2.25749E+05-4.04675E+03 1.88572E+02 2.04454E-09 6.76980E-10
 -1       677-1.55052E+03-2.27308E+05-4.06779E+03 1.40046E+02 1.98472E-09-1.61541E-09
 -1       678 4.45552E+02-2.26011E+05-4.40683E+03 1.88059E+02 2.23940E-09 1.34471E-09
 -1       679-4.62825E+03-2.29101E+05-9.39541E+03 1.39818E+02 3.03044E-09-1.33076E-09
 -1       680 3.41131E+03-2.23956E+05-1.40564E+04 1.88337E+02 1.86355E-09-7.38595E-10
 -1       681 3.43478E+05-8.88231E+03 2.08156E+04 7.40552E+02-2.78533E-12 6.09361E-11
 -1       682 3.52496E+05 1.02899E+04 1.46978E+04-2.04774E+03 1.01316E-10 2.41698E-10
 -1       683 3.46966E+05-1.37598E+03 5.40050E+03 4.70145E+02-2.55596E-10-7.12816E-10
 -1       684 3.48437E+05 1.59391E+03 3.39825E+03-1.61537E+03-1.18007E-10-2.44938E-10
 -1       685 3.47538E+05-2.13796E+02 1.42299E+03 3.08193E+02 9.00400E-11 2.61139E-10
 -1       686 3.47774E+05 2.58424E+02 9.02521E+02-1.37387E+03-2.61124E-11-2.63753E-11
 -1       687 3.47628E+05-4.39794E+01 5.50191E+02 2.28646E+02-6.94014E-10 4.27455E-10
 -1       688 3.47705E+05 1.25701E+02 6.37738E+02-1.28560E+03-9.87739E-10 2.35108E-10
 -1       689 3.47606E+05-8.12768E+01 9.01016E+02 2.19921E+02-5.32809E-10-1.77948E-10
 -1       690 3.47949E+05 5.82596E+02 1.91288E+03-1.33791E+03-1.79426E-10 7.37543E-11
 -1       691 3.47384E+05-4.99771E+02 3.25021E+03 2.80956E+02-4.09237E-11-4.95334E-10
 -1       692 3.49510E+05 3.74671E+03 7.93944E+03-1.53856E+03-3.47598E-11 4.87717E-11
 -1       693 3.46045E+05-3.23618E+03 1.26833E+04 4.20577E+02-2.20979E-10-4.24734E-10
 -1       694 3.59027E+05 2.42050E+04 3.45530E+04-1.92349E+03-1.36513E-10-1.06775E-09
 -1       695 3.37866E+05-2.08905E+04 4.89760E+04 6.65848E+02 3.49431E-10-5.78439E-10
 -1       696-7.22576E+03 3.02270E+05 1.66743E+04 7.51906E+02 3.54703E-11-9.14909E-10
 -1       697 7.83371E+03 3.09290E+05 1.07549E+04-4.71130E+03 7.77618E-11-2.32083E-10
 -1       698-5.76886E+02 3.05372E+05 2.22966E+03 6.49912E+02-1.43700E-10 6.97615E-10
 -1       699-2.83928E+03 3.04330E+05-3.25944E+03-4.72142E+03-2.07820E-10 1.82236E-09
 -1       700 3.41188E+03 3.07233E+05-7.50489E+03 7.62001E+02-1.29603E-10 6.22990E-10
 -1       701-3.13975E+05-2.86943E+04-4.03888E+04-1.24870E+05-1.00044E-10-7.11225E-10
 -1       702-3.35168E+05-6.54095E+04-2.79657E+04-1.17925E+05-2.74099E-10-7.13044E-10
 -1       703-3.22318E+05-4.29632E+04-9.47597E+03-1.22019E+05 1.75078E-10-2.23281E-10
 -1       704-3.25384E+05-4.89734E+04-5.89777E+03-1.21327E+05 5.62324E-10-3.31227E-10
 -1       705-3.23749E+05-4.50860E+04-2.21986E+03-1.21484E+05 3.23126E-10-5.08976E-10
 -1       706-3.23659E+05-4.65927E+04-1.32009E+03-1.22024E+05 1.35465E-10-1.70644E-10
 -1       707-3.24042E+05-4.53371E+04-6.16468E+02-1.21324E+05 2.04547E-10 4.99938E-11
 -1       708-3.23321E+05-4.63854E+04-5.41668E+02-1.22238E+05-1.50967E-10 1.43198E-10
 -1       709-3.24087E+05-4.52922E+04-6.05423E+02-1.21271E+05 3.42993E-10-2.35403E-10
 -1       710-3.23484E+05-4.67555E+04-1.28880E+03-1.22229E+05 4.60084E-10-9.68271E-10
 -1       711-3.23880E+05-4.49677E+04-2.15940E+03-1.21333E+05 3.37394E-10 2.46132E-10
 -1       712-3.25026E+05-4.92098E+04-5.73951E+03-1.21711E+05-2.94989E-10 9.95328E-11
 -1       713-3.22547E+05-4.28444E+04-9.21626E+03-1.21786E+05-2.59888E-10-2.80124E-10
 -1       714-3.34448E+05-6.52876E+04-2.72031E+04-1.18505E+05 3.47427E-10 2.00089E-10
 -1       715-3.14466E+05-2.89336E+04-3.92848E+04-1.24524E+05-5.09317E-11 2.96495E-10
 -1       716 8.30714E+04-1.11124E+04 2.60179E+04 8.60207E+02 2.51333E-10-7.20320E-10
 -1       717 9.44809E+04 1.28728E+04 1.83910E+04-3.57729E+03 5.06404E-11-2.56478E-10
 -1       718 8.74541E+04-1.72212E+03 6.75061E+03 7.34193E+02-2.31907E-10-3.27418E-10
 -1       719 8.93621E+04 1.99704E+03 4.25909E+03-3.37895E+03-1.08187E-10 3.79032E-10
 -1       720 8.81838E+04-2.68329E+02 1.79063E+03 6.61879E+02 7.73205E-10 5.71617E-10
 -1       721 8.85136E+04 3.30239E+02 1.15541E+03-3.28088E+03 1.44691E-09 2.68315E-10
 -1       722 8.82996E+04-5.82205E+01 7.38653E+02 6.36122E+02 1.02486E-09 6.66745E-10
 -1       723 8.84406E+04 1.82630E+02 9.08950E+02-3.27457E+03 4.11640E-10 7.88340E-10
 -1       724 8.82566E+04-1.21048E+02 1.32772E+03 6.55571E+02 9.42670E-10 1.92074E-10
 -1       725 8.88368E+04 8.74255E+02 2.86068E+03-3.35965E+03 7.32712E-10 1.86958E-10
 -1       726 8.79059E+04-7.49917E+02 4.86159E+03 7.21207E+02 6.14932E-10-1.34150E-11
 -1       727 9.12305E+04 5.61811E+03 1.19134E+04-3.54150E+03 7.50589E-10 1.00954E-09
 -1       728 8.58687E+04-4.85459E+03 1.90010E+04 8.37424E+02 4.70806E-10-3.40151E-10
 -1       729 1.05586E+05 3.62979E+04 5.18344E+04-3.85495E+03 1.59275E-10-8.76753E-10
 -1       730 7.35660E+04-3.13332E+04 7.34145E+04 1.03453E+03 3.99552E-10-8.07631E-10
 -1       731-1.27003E+04 1.23950E+05 2.98154E+04 1.47015E+03 1.15688E-09-4.61469E-10
 -1       732 1.48918E+04 1.36901E+05 2.13128E+04-7.06808E+03 1.77897E-09 2.84831E-10
 -1       733-2.13590E+03 1.28853E+05 8.26162E+03 1.42706E+03 1.10549E-09 2.19210E-10
 -1       734 3.57640E+03 1.31668E+05 6.45932E+03-7.12662E+03 1.63681E-09 7.54543E-10
 -1       735-1.42434E+03 1.29185E+05 4.17064E+03 1.52867E+03 4.80213E-10 3.60359E-10
 -1       736-7.34900E+05-8.30873E+04-5.43566E+04-2.85923E+05-5.65706E-10 4.83851E-10
 -1       737-7.65344E+05-1.30585E+05-3.76412E+04-2.74362E+05-2.89674E-10 5.82077E-10
 -1       738-7.46145E+05-1.02285E+05-1.27493E+04-2.82071E+05 2.33740E-10 8.88122E-10
 -1       739-7.51910E+05-1.08698E+05-7.93287E+03-2.79212E+05 3.83153E-10-8.06040E-10
 -1       740-7.48312E+05-1.04914E+05-2.98564E+03-2.81089E+05 1.25226E-10 5.80940E-11
 -1       741-7.49015E+05-1.06046E+05-1.76488E+03-2.80782E+05 1.87324E-10-1.56433E-10
 -1       742-7.49035E+05-1.04928E+05-8.20536E+02-2.80503E+05-2.46416E-11-1.72292E-10
 -1       743-7.47953E+05-1.06370E+05-6.97491E+02-2.81769E+05-7.69131E-10 1.64006E-10
 -1       744-7.49375E+05-1.04589E+05-7.65362E+02-2.80103E+05 2.90740E-10-4.13323E-10
 -1       745-7.47748E+05-1.07243E+05-1.60791E+03-2.82243E+05 1.79015E-09 3.90671E-10
 -1       746-7.49241E+05-1.04056E+05-2.68780E+03-2.80030E+05 5.23755E-10 1.39346E-09
 -1       747-7.49624E+05-1.10343E+05-7.14032E+03-2.81653E+05-1.91270E-09-9.96806E-10
 -1       748-7.47504E+05-1.01497E+05-1.14648E+04-2.80690E+05 4.31328E-10 3.28328E-10
 -1       749-7.61668E+05-1.30022E+05-3.38437E+04-2.77284E+05 1.09708E-10 5.82077E-11
 -1       750-7.37214E+05-8.44331E+04-4.88807E+04-2.84383E+05-7.09406E-10 4.00178E-11
 -1       751 1.67004E+06-9.25584E+04 2.17285E+05 4.21430E+03-8.85615E-09-3.63798E-10
 -1       752 1.76386E+06 1.07258E+05 1.53230E+05-6.64107E+03-2.70177E-09-2.28101E-09
 -1       753 1.70635E+06-1.43379E+04 5.63033E+04 1.63629E+03-9.38783E-10-9.74978E-10
 -1       754 1.72168E+06 1.66033E+04 3.52609E+04-2.99366E+03 2.03585E-09 9.76797E-10
 -1       755 1.71229E+06-2.21643E+03 1.45019E+04 5.67506E+02-4.34028E-10-2.47383E-10
 -1       756 1.71479E+06 2.59846E+03 8.63949E+03-1.48503E+03 3.79345E-10 4.73847E-10
 -1       757 1.71326E+06-3.75784E+02 4.27825E+03 1.27658E+02 3.63737E-10 9.99307E-10
 -1       758 1.71377E+06 6.74626E+02 3.43542E+03-8.99460E+02 5.57741E-11 4.92129E-10
 -1       759 1.71331E+06-2.97640E+02 3.53975E+03-1.80777E+01-7.22093E-10-1.29148E-10
 -1       760 1.71441E+06 1.91912E+03 6.51243E+03-7.92289E+02 1.61652E-09 2.24065E-09
 -1       761 1.71262E+06-1.61673E+03 1.06574E+04 2.04857E+01 5.58157E-10-1.04592E-10
 -1       762 1.71939E+06 1.20867E+04 2.57060E+04-1.08329E+03 1.13695E-09 2.60115E-09
 -1       763 1.70831E+06-1.04336E+04 4.09881E+04 2.72931E+02 1.63373E-09 4.98403E-10
 -1       764 1.75000E+06 7.80355E+04 1.11471E+05-2.00474E+03-3.86324E-10 2.85581E-10
 -1       765 1.68194E+06-6.73379E+04 1.58061E+05 9.41843E+02-9.52468E-10-1.16415E-09
 -1       766-3.97451E+04 2.81462E+05 9.46019E+04-5.55203E+02 1.84446E-09 7.75231E-10
 -1       767 4.93035E+04 3.23405E+05 7.25512E+04 3.82124E+01-3.27418E-11 1.10521E-09
 -1       768-9.39801E+03 2.95426E+05 3.63570E+04-2.00574E+02 1.27375E-09 1.15540E-09
 -1       769 3.18598E+04 3.15297E+05 4.96438E+04-6.51206E+02-1.01863E-10 4.28258E-10
 -1       770-2.23614E+04 2.89567E+05 5.50573E+04 1.34024E+02 2.83762E-10 1.27440E-09
 -1       771-9.24127E+05-1.87933E+05-3.52935E+04-3.98747E+05 6.71207E-10-9.85892E-10
 -1       772-9.22425E+05-1.85828E+05-1.72479E+04-4.12219E+05-2.54840E-09 3.37059E-09
 -1       773-9.25394E+05-1.74269E+05-7.33071E+03-4.04651E+05-8.84029E-10 1.43064E-09
 -1       774-9.18566E+05-1.81213E+05-3.57613E+03-4.13298E+05 1.14051E-09-1.18689E-09
 -1       775-9.25694E+05-1.73657E+05-1.65321E+03-4.04963E+05-2.38288E-10 4.07908E-10
 -1       776-9.18352E+05-1.81013E+05-8.33403E+02-4.13405E+05-4.36557E-10 4.16662E-10
 -1       777-9.25827E+05-1.73622E+05-4.55353E+02-4.05010E+05 8.82210E-10 1.97247E-10
 -1       778-9.18389E+05-1.80992E+05-3.53173E+02-4.13472E+05 6.76664E-10 3.12809E-10
 -1       779-9.25897E+05-1.73582E+05-4.44645E+02-4.05043E+05 7.69433E-10 2.85354E-10
 -1       780-9.18465E+05-1.80977E+05-8.11607E+02-4.13535E+05-5.53428E-10 4.20982E-10
 -1       781-9.25904E+05-1.73534E+05-1.60234E+03-4.05059E+05-4.30191E-10 4.80850E-09
 -1       782-9.18770E+05-1.81163E+05-3.48429E+03-4.13582E+05 1.01636E-10 8.70386E-10
 -1       783-9.25759E+05-1.74028E+05-7.12955E+03-4.04793E+05 6.00721E-10-1.48611E-09
 -1       784-9.22414E+05-1.85886E+05-1.68180E+04-4.12928E+05-7.50504E-10-1.67893E-09
 -1       785-9.24834E+05-1.87098E+05-3.43872E+04-3.98853E+05-2.34689E-09-3.45426E-09
 -1       786 2.12976E+05-6.49822E+03 2.65525E+04-1.18181E+03 1.26988E-10-1.32786E-09
 -1       787 2.22667E+05 8.62355E+03 1.71164E+04-5.28278E+03-8.40714E-11 2.45791E-10
 -1       788 2.17013E+05-6.87139E+02 6.88656E+03-1.17958E+03-2.11912E-10 1.30694E-09
 -1       789 2.18157E+05 8.78835E+02 3.86768E+03-5.27853E+03 2.03187E-10 8.32586E-10
 -1       790 2.17483E+05-7.55210E+01 1.75225E+03-1.18566E+03 1.92586E-10-8.66407E-10
 -1       791 2.17625E+05 8.85481E+01 9.45619E+02-5.26961E+03 2.29861E-10 1.15801E-09
 -1       792 2.17544E+05-9.50901E+00 4.87542E+02-1.18850E+03 3.02833E-11 9.67987E-10
 -1       793 2.17559E+05 1.24449E+01 3.32721E+02-5.26758E+03 1.32232E-11-1.57203E-09
 -1       794 2.17549E+05-5.64492E+00 3.19224E+02-1.18769E+03-7.29585E-11-3.30139E-10
 -1       795 2.17583E+05 4.29646E+01 5.00728E+02-5.27313E+03 7.27596E-12 7.54737E-10
 -1       796 2.17521E+05-3.71880E+01 8.69958E+02-1.18295E+03-1.34719E-10-9.52468E-10
 -1       797 2.17841E+05 4.24951E+02 1.88562E+03-5.28503E+03-2.22371E-10-1.90573E-09
 -1       798 2.17294E+05-3.34088E+02 3.34336E+03-1.17579E+03-1.64050E-10-5.65706E-10
 -1       799 2.20029E+05 4.17892E+03 8.30082E+03-5.29024E+03-1.14250E-09-9.65201E-10
 -1       800 2.15337E+05-3.15224E+03 1.28726E+04-1.17797E+03-4.02451E-11 4.11092E-10
 -1       801-7.64779E+03 2.16411E+05 3.02459E+04-1.20880E+05 2.45564E-10 3.67436E-10
 -1       802 1.53066E+04 2.26711E+05 2.97005E+04-5.27194E+05 6.26824E-09 2.45927E-09
 -1       803-1.90673E+03 2.17984E+05 2.96221E+04-1.20575E+05 3.53975E-09 2.59718E-09
 -1       804 3.32852E+04 2.37531E+05 6.10065E+04-5.27172E+05 4.16730E-09-1.72895E-09
 -1       805-2.27917E+04 2.05965E+05 8.90038E+04-1.20907E+05 3.20870E-09 5.82077E-11
 -1       806-2.01954E+05-5.26893E+04-1.73972E+04-9.16249E+04 1.50555E-09 1.21872E-10
 -1       807-2.02168E+05-4.82656E+04-8.26378E+03-9.68103E+04-1.22827E-09-7.71888E-09
 -1       808-2.01883E+05-4.39085E+04-3.47657E+03-9.53428E+04 3.40810E-09 7.33542E-09
 -1       809-2.00450E+05-4.51841E+04-1.68153E+03-9.75038E+04-8.70727E-10 1.91164E-10
 -1       810-2.01928E+05-4.33234E+04-7.61604E+02-9.56078E+04-2.70143E-09-5.25881E-09
 -1       811-2.00283E+05-4.49847E+04-3.82993E+02-9.75296E+04-1.96565E-10-1.29364E-09
 -1       812-2.01942E+05-4.33079E+04-2.02771E+02-9.56195E+04-2.46342E-09-6.80279E-09
 -1       813-2.00266E+05-4.49795E+04-1.54162E+02-9.75251E+04 6.03677E-10 1.82399E-09
 -1       814-2.01941E+05-4.33097E+04-1.85373E+02-9.56184E+04 3.12434E-09 7.78573E-09
 -1       815-2.00278E+05-4.49859E+04-3.36894E+02-9.75256E+04-6.82121E-11-6.42103E-10
 -1       816-2.01924E+05-4.33255E+04-6.62274E+02-9.56063E+04-2.65595E-09-8.06813E-09
 -1       817-2.00422E+05-4.51568E+04-1.45894E+03-9.74965E+04 4.11342E-09 7.41466E-09
 -1       818-2.01880E+05-4.38384E+04-3.01452E+03-9.53783E+04-4.00860E-09-9.63337E-09
 -1       819-2.01937E+05-4.77999E+04-7.16394E+03-9.68593E+04 3.89491E-10-5.13865E-10
 -1       820-2.01911E+05-5.14742E+04-1.50808E+04-9.21816E+04-5.10681E-10-1.06456E-09
 -1       821-1.97942E+05 6.24350E+03-2.55194E+04 1.21246E+03-1.79534E-09 5.83896E-10
 -1       822-2.07247E+05-8.28885E+03-1.64508E+04 5.54011E+03-1.48862E-09-1.67438E-09
 -1       823-2.01823E+05 6.58859E+02-6.62072E+03 1.17591E+03 1.62277E-09-1.74805E-09
 -1       824-2.02921E+05-8.40209E+02-3.72001E+03 5.59013E+03-6.24595E-10 3.66924E-10
 -1       825-2.02274E+05 7.27916E+01-1.69199E+03 1.16204E+03-4.14275E-09-1.08957E-09
 -1       826-2.02417E+05-7.80921E+01-9.24373E+02 5.61279E+03-7.16227E-09 1.15710E-09
 -1       827-2.02333E+05 1.08394E+01-5.00281E+02 1.15316E+03-3.68198E-09-5.51267E-10
 -1       828-2.02360E+05-5.89887E+00-3.85227E+02 5.62688E+03-4.97843E-09 7.18586E-10
 -1       829-2.02335E+05 9.84008E+00-4.34378E+02 1.14793E+03-4.10694E-10 3.39000E-11
 -1       830-2.02404E+05-5.86583E+01-7.50832E+02 5.63307E+03 3.87863E-09-1.35812E-09
 -1       831-2.02290E+05 5.93414E+01-1.34695E+03 1.14697E+03-1.76816E-09 2.23338E-10
 -1       832-2.02806E+05-6.59685E+02-2.94636E+03 5.63066E+03-8.35598E-10-1.36424E-11
 -1       833-2.01934E+05 5.23456E+02-5.23628E+03 1.15042E+03 2.68852E-09 2.03045E-10
 -1       834-2.06229E+05-6.54812E+03-1.30085E+04 5.61140E+03 4.85454E-09-2.75577E-10
 -1       835-1.98865E+05 4.93978E+03-2.01768E+04 1.16694E+03 3.12423E-09-8.46740E-10
 -1       836-1.04466E+04 5.30027E+05 4.49150E+04-1.29628E+04-8.71296E-10 9.41327E-11
 -1       837 1.56528E+04 5.46771E+05 3.49971E+04-5.56315E+04 7.20433E-10-3.57352E-09
 -1       838-2.55794E+03 5.35377E+05 2.55292E+04-1.29615E+04-1.03819E-09 1.39238E-10
 -1       839 2.02619E+04 5.49449E+05 4.29753E+04-5.56252E+04 1.09821E-09 7.03494E-10
 -1       840-1.42624E+04 5.27340E+05 5.99137E+04-1.29687E+04-1.02227E-09 5.58884E-10
 -1       841-3.86756E+04-1.50569E+03-1.03789E+04-1.63854E+04-2.10730E-09-1.53796E-09
 -1       842-4.44799E+04-1.05784E+04-7.18421E+03-1.41908E+04-2.17699E-09-6.84850E-10
 -1       843-4.07730E+04-5.21661E+03-2.43324E+03-1.57047E+04 1.97400E-09 7.92511E-10
 -1       844-4.20523E+04-6.27171E+03-1.51077E+03-1.49697E+04 3.99780E-10-1.68509E-09
 -1       845-4.11018E+04-5.80077E+03-5.60847E+02-1.56109E+04-9.14895E-10-2.05893E-09
 -1       846-4.16746E+04-5.58958E+03-3.17309E+02-1.50727E+04-5.37304E-09-2.10756E-09
 -1       847-4.11507E+04-5.89698E+03-1.16056E+02-1.56024E+04-2.29317E-09-5.86056E-10
 -1       848-4.16155E+04-5.47014E+03-3.83766E+01-1.50813E+04 4.00735E-09 1.46760E-09
 -1       849-4.11609E+04-5.91990E+03 2.95707E+01-1.56025E+04 2.88637E-09 1.92724E-10
 -1       850-4.15779E+04-5.40465E+03 1.32751E+02-1.50889E+04 1.14321E-09-2.06838E-09
 -1       851-4.11883E+04-5.96231E+03 2.50719E+02-1.55949E+04-5.25269E-11-3.12698E-09
 -1       852-4.13910E+04-5.10170E+03 6.87928E+02-1.51478E+04 3.89434E-09 5.43594E-10
 -1       853-4.13476E+04-6.22212E+03 1.10981E+03-1.55439E+04 2.51522E-09 5.54337E-10
 -1       854-4.02589E+04-3.15362E+03 3.28226E+03-1.55254E+04-1.45117E-09 2.70177E-10
 -1       855-4.23194E+04-7.90520E+03 4.74015E+03-1.52191E+04-1.11868E-10-2.95586E-12
 -1       856-2.31510E+05 5.67520E+03-2.32152E+04 2.47818E+03-4.96948E-09-1.65528E-10
 -1       857-2.39968E+05-7.52427E+03-1.49615E+04 1.14483E+04-5.13603E-09-1.08548E-09
 -1       858-2.35042E+05 6.00237E+02-6.02264E+03 2.41572E+03-2.60138E-09-9.33369E-10
 -1       859-2.36048E+05-7.44322E+02-3.38113E+03 1.15346E+04-8.23320E-10-1.21508E-09
 -1       860-2.35455E+05 7.00612E+01-1.53568E+03 2.39105E+03 4.90672E-10-4.97948E-10
 -1       861-2.35597E+05-4.76771E+01-8.32996E+02 1.15712E+04-4.30089E-09 2.00089E-10
 -1       862-2.35509E+05 1.50364E+01-4.40113E+02 2.37894E+03 6.44212E-09-5.66928E-10
 -1       863-2.35546E+05 2.02514E+01-3.19762E+02 1.15861E+04 1.55186E-08-2.40277E-10
 -1       864-2.35513E+05 1.31311E+01-3.35749E+02 2.37612E+03 7.74357E-09 7.16852E-10
 -1       865-2.35574E+05-1.78831E+01-5.57750E+02 1.15820E+04 1.05182E-08-1.47824E-09
 -1       866-2.35479E+05 4.77704E+01-9.88985E+02 2.38313E+03 3.17573E-09 8.59416E-10
 -1       867-2.35859E+05-4.60082E+02-2.15428E+03 1.15573E+04 1.19996E-09 1.10379E-09
 -1       868-2.35217E+05 3.83926E+02-3.82809E+03 2.40090E+03 4.98221E-09-1.50294E-10
 -1       869-2.38346E+05-4.76679E+03-9.50298E+03 1.14873E+04-4.99040E-09-1.87140E-09
 -1       870-2.32974E+05 3.60554E+03-1.47446E+04 2.45375E+03-1.58934E-10-1.18598E-09
 -1       871-2.00109E+03-1.89450E+04-3.56124E+03 5.34792E+04 2.47337E-09 9.78844E-09
 -1       872-6.37343E+02-1.95686E+04-1.02392E+03 6.22862E+04-2.55068E-09 1.59241E-08
 -1       873 3.94481E+01-1.93381E+04 1.08031E+03 5.33774E+04 4.77485E-10 5.82963E-09
 -1       874 1.28291E+03-1.84873E+04 3.98209E+03 6.23350E+04-2.25191E-09-3.34886E-10
 -1       875 4.23667E+03-2.00540E+04 8.60406E+03 5.34359E+04 6.97128E-10 3.35922E-09
 -1       876 2.69430E+05 3.32775E+04 2.55992E+04 1.05776E+05 5.49267E-09-9.67702E-10
 -1       877 2.75434E+05 5.37805E+04 1.62651E+04 1.09330E+05 8.06779E-10 7.07814E-10
 -1       878 2.73897E+05 3.93924E+04 6.04566E+03 1.05070E+05 3.64940E-09 5.74346E-10
 -1       879 2.70304E+05 4.59733E+04 3.35197E+03 1.10453E+05 2.16460E-10-6.25505E-10
 -1       880 2.74406E+05 4.00833E+04 1.41297E+03 1.05024E+05 2.66107E-09-1.34787E-09
 -1       881 2.69719E+05 4.51079E+04 7.62311E+02 1.10521E+05 2.13799E-09-7.40216E-09
 -1       882 2.74461E+05 4.01696E+04 4.04573E+02 1.05031E+05 8.61053E-09 2.25668E-10
 -1       883 2.69666E+05 4.50154E+04 3.48630E+02 1.10510E+05-5.04866E-09 7.65425E-10
 -1       884 2.74455E+05 4.01716E+04 4.52346E+02 1.05035E+05-4.22205E-09 3.34182E-09
 -1       885 2.69747E+05 4.51150E+04 8.94828E+02 1.10504E+05 1.12856E-08 4.93881E-09
 -1       886 2.74381E+05 4.00776E+04 1.68035E+03 1.05035E+05 5.92672E-09-1.57638E-09
 -1       887 2.70460E+05 4.61326E+04 3.99794E+03 1.10400E+05-5.98538E-09-4.94333E-09
 -1       888 2.73762E+05 3.92624E+04 7.21617E+03 1.05099E+05-2.77424E-09-1.26147E-09
 -1       889 2.76594E+05 5.54400E+04 1.94154E+04 1.09041E+05 6.36103E-09-1.74168E-10
 -1       890 2.68424E+05 3.19694E+04 3.05601E+04 1.05947E+05 1.17461E-09-1.56433E-09
 -1       891 1.01639E+03-1.19379E+05-4.55820E+03 1.12305E+04-2.09343E-09 1.40108E-09
 -1       892-1.66284E+03-1.21030E+05-3.70536E+03 4.89005E+04-3.07830E-09-6.30280E-10
 -1       893 2.88113E+02-1.19890E+05-2.95998E+03 1.11777E+04 5.82986E-10 3.71006E-09
 -1       894-2.60592E+03-1.21575E+05-5.33523E+03 4.88963E+04 2.54477E-09 3.65799E-09
 -1       895 1.79487E+03-1.18829E+05-7.62192E+03 1.12345E+04 1.10049E-09 3.58887E-09
 -1       896 4.97739E+05-3.75353E+03 8.79261E+03 8.30371E+02 2.81560E-10 1.52158E-09
 -1       897 5.01543E+05 4.34731E+03 6.21464E+03-1.95428E+03 6.43752E-12 9.00855E-10
 -1       898 4.99219E+05-5.81343E+02 2.28496E+03 4.78904E+02 9.90759E-10 5.89807E-10
 -1       899 4.99819E+05 6.73580E+02 1.44473E+03-1.39339E+03 1.08116E-09 1.03739E-10
 -1       900 4.99463E+05-9.07780E+01 6.16423E+02 2.69480E+02 5.77401E-10 1.16046E-10
 -1       901 4.99537E+05 1.13019E+02 4.14315E+02-1.07290E+03 2.42439E-10-1.23180E-10
 -1       902 4.99500E+05-2.20360E+01 2.93851E+02 1.58410E+02 1.54968E-10-1.64234E-10
 -1       903 4.99521E+05 7.95991E+01 4.04150E+02-9.26311E+02-4.02794E-10-3.40073E-10
 -1       904 4.99480E+05-5.73142E+01 6.25689E+02 1.22891E+02-3.25209E-11-3.48564E-10
 -1       905 4.99702E+05 4.19678E+02 1.36956E+03-9.23757E+02 2.10150E-10-2.38543E-10
 -1       906 4.99319E+05-3.61214E+02 2.34459E+03 1.55856E+02 3.95172E-10-4.15412E-10
 -1       907 5.00828E+05 2.70941E+03 5.73815E+03-1.06489E+03 1.58639E-10-3.81988E-10
 -1       908 4.98352E+05-2.34020E+03 9.17212E+03 2.64030E+02 9.97318E-11-6.45741E-11
 -1       909 5.07704E+05 1.75039E+04 2.49860E+04-1.38147E+03 1.33866E-10-1.39607E-10
 -1       910 4.92438E+05-1.51066E+04 3.54180E+04 4.72423E+02 5.28317E-10 3.69255E-10
 -1       911 1.51220E+05-2.00141E+03 4.68737E+03 3.28519E+02 2.58240E-10 4.88399E-10
 -1       912 1.53262E+05 2.31848E+03 3.31547E+03-1.24716E+03 2.97423E-10 6.51426E-11
 -1       913 1.52008E+05-3.10293E+02 1.22206E+03 2.41349E+02 2.08608E-10-3.38673E-10
 -1       914 1.52343E+05 3.60458E+02 7.80548E+02-1.10114E+03-2.04253E-10-3.19346E-10
 -1       915 1.52138E+05-4.92032E+01 3.47537E+02 1.82500E+02 2.90505E-10-8.85137E-10
 -1       916 1.52194E+05 6.58649E+01 2.62190E+02-1.00816E+03 5.46779E-10-9.01657E-10
 -1       917 1.52156E+05-1.62375E+01 2.33904E+02 1.48362E+02 4.74643E-10-9.97904E-10
 -1       918 1.52202E+05 7.64676E+01 3.85123E+02-9.62515E+02 1.56544E-10-1.34679E-09
 -1       919 1.52131E+05-5.96481E+01 6.42269E+02 1.36856E+02 6.06935E-10-1.17950E-09
 -1       920 1.52397E+05 4.43303E+02 1.43796E+03-9.61345E+02 3.85438E-10-1.11490E-09
 -1       921 1.51960E+05-3.82100E+02 2.47446E+03 1.47193E+02 6.37051E-10-1.34492E-09
 -1       922 1.53590E+05 2.86687E+03 6.06630E+03-1.00451E+03 9.07676E-10-1.16790E-09
 -1       923 1.50938E+05-2.47598E+03 9.69964E+03 1.80022E+02 1.23514E-10-9.68612E-10
 -1       924 1.60864E+05 1.85189E+04 2.64294E+04-1.09571E+03-4.80981E-10-5.35692E-10
 -1       925 1.44687E+05-1.59821E+04 3.74677E+04 2.38395E+02 3.35319E-10-3.34694E-10
 -1       926-6.41189E+05 1.42288E+04-3.33378E+04 4.42120E+01 9.83896E-10 9.82254E-11
 -1       927-6.55529E+05-1.64861E+04-2.35172E+04-1.67700E+02-5.73444E-10 4.62478E-10
 -1       928-6.46748E+05 2.20402E+03-8.62569E+03-5.55991E+01-3.37440E-10 4.47471E-10
 -1       929-6.49056E+05-2.55118E+03-5.38870E+03 3.25784E+01-5.12104E-10-1.09139E-11
 -1       930-6.47656E+05 3.39571E+02-2.18685E+03-1.56070E+02-5.09178E-10 3.56863E-10
 -1       931-6.47994E+05-3.90428E+02-1.24926E+03 2.09811E+02-9.68848E-10 7.35838E-10
 -1       932-6.47808E+05 4.98594E+01-5.16060E+02-2.32836E+02-2.23412E-10 3.66640E-10
 -1       933-6.47808E+05-4.36548E+01-2.21911E+02 3.20919E+02-3.91747E-10 6.01887E-10
 -1       934-6.47841E+05-6.26652E+00 1.09682E+01-2.67180E+02-3.95627E-10 6.66631E-10
 -1       935-6.47729E+05 9.73475E+01 2.69389E+02 3.38733E+02-2.55560E-10 4.23398E-10
 -1       936-6.47887E+05-9.08015E+01 5.59083E+02-2.50650E+02-3.50928E-11 8.04533E-10
 -1       937-6.47436E+05 6.88577E+02 1.44025E+03 2.58853E+02 6.50448E-10 1.99520E-10
 -1       938-6.48133E+05-5.95745E+02 2.32390E+03-1.87299E+02 1.13745E-10 4.68390E-11
 -1       939-6.45684E+05 4.45666E+03 6.35405E+03 1.00846E+02 2.92033E-10 2.72735E-10
 -1       940-6.49636E+05-3.84646E+03 9.01225E+03-9.26409E+01-2.70660E-10 6.66660E-10
 -1       941 2.62909E+06-1.29574E+05 3.04476E+05 1.18397E+02 1.02955E-08 3.20142E-09
 -1       942 2.76010E+06 1.50180E+05 2.14606E+05 8.10380E+02 9.79581E-09-2.05182E-09
 -1       943 2.67983E+06-2.00784E+04 7.89196E+04 3.14229E+02 4.29410E-09 5.82077E-11
 -1       944 2.70122E+06 2.32554E+04 4.94248E+04 5.45180E+02-1.13189E-09-1.59889E-09
 -1       945 2.68815E+06-3.10559E+03 2.03608E+04 3.83639E+02 1.70307E-09 2.27192E-09
 -1       946 2.69162E+06 3.64718E+03 1.21698E+04 4.44600E+02 3.04839E-10 4.79190E-09
 -1       947 2.68951E+06-5.32388E+02 6.10687E+03 4.14829E+02 2.05398E-09 3.57886E-09
 -1       948 2.69023E+06 9.89991E+02 5.04890E+03 3.81507E+02 4.02993E-10 2.93299E-09
 -1       949 2.68955E+06-4.55753E+02 5.38323E+03 4.46737E+02 7.52611E-11-2.63287E-09
 -1       950 2.69126E+06 2.98132E+03 1.00869E+04 2.76675E+02 3.14900E-09 4.12376E-09
 -1       951 2.68847E+06-2.51811E+03 1.65946E+04 5.19660E+02 2.39461E-09-2.34286E-09
 -1       952 2.69902E+06 1.88327E+04 4.00741E+04-3.47989E+00-1.99297E-10-1.70621E-09
 -1       953 2.68174E+06-1.62572E+04 6.39213E+04 7.26873E+02-2.95241E-09 1.51704E-09
 -1       954 2.74668E+06 1.21595E+05 1.73767E+05-8.31404E+02-1.26994E-09-2.01726E-09
 -1       955 2.64063E+06-1.04916E+05 2.46465E+05 1.34737E+03-7.22035E-09 4.22006E-10
 -1       956-1.43008E+05-2.42508E+03-4.96501E+03 2.06685E+04-9.62245E-10 3.66981E-10
 -1       957-1.43905E+05-7.64814E+02-2.50031E+03 2.38818E+04-4.03816E-10 1.08730E-09
 -1       958-1.43412E+05-8.97892E+01-1.12408E+03 2.05428E+04 1.74714E-09-1.76090E-09
 -1       959-1.43497E+05-6.82148E+00-5.71330E+02 2.40197E+04-4.12047E-09 3.50155E-11
 -1       960-1.43460E+05 2.72767E+01-2.77234E+02 2.05297E+04-6.96173E-09-1.95496E-09
 -1       961-1.43469E+05 3.24107E+01-1.46101E+02 2.40343E+04-8.83665E-09-2.61934E-10
 -1       962-1.43473E+05 3.05857E+01-8.21915E+01 2.05281E+04-2.59297E-09-1.59525E-09
 -1       963-1.43472E+05 3.60051E+01-6.32492E+01 2.40364E+04-3.77054E-09-9.14724E-10
 -1       964-1.43479E+05 3.34419E+01-7.35782E+01 2.05276E+04-9.47011E-10-1.66710E-09
 -1       965-1.43480E+05 3.86936E+01-1.24499E+02 2.40363E+04 2.97302E-09 5.59794E-10
 -1       966-1.43476E+05 3.61003E+01-2.32326E+02 2.05282E+04-2.13784E-09-1.59184E-09
 -1       967-1.43513E+05 1.14049E+01-4.77793E+02 2.40296E+04 8.74252E-10 1.16438E-09
 -1       968-1.43445E+05-5.66199E+01-9.38684E+02 2.05343E+04 1.10322E-09 2.06910E-10
 -1       969-1.43864E+05-6.17475E+02-2.08923E+03 2.39643E+04 3.80851E-10 2.42835E-10
 -1       970-1.43114E+05-2.00526E+03-4.14781E+03 2.05951E+04 2.76918E-09-7.68978E-10
 -1       971-3.13396E+05 4.76341E+03-1.94973E+04 2.43111E+03-2.66436E-09 1.56069E-09
 -1       972-3.20483E+05-6.31746E+03-1.25649E+04 1.14176E+04-2.11912E-09 1.31263E-09
 -1       973-3.16362E+05 5.03051E+02-5.06134E+03 2.35368E+03-4.05066E-09 1.42245E-09
 -1       974-3.17196E+05-6.22256E+02-2.84556E+03 1.15292E+04 1.97133E-09 2.35389E-09
 -1       975-3.16709E+05 5.89127E+01-1.30304E+03 2.31896E+03 1.58889E-09 2.19711E-09
 -1       976-3.16821E+05-3.61937E+01-7.26331E+02 1.15823E+04-4.65593E-09 3.95130E-09
 -1       977-3.16754E+05 1.39027E+01-4.22689E+02 2.30037E+03 5.66899E-09 6.91301E-10
 -1       978-3.16787E+05 1.78718E+01-3.78150E+02 1.16068E+04 1.48343E-08 1.30115E-09
 -1       979-3.16753E+05 1.64505E+01-4.94911E+02 2.29446E+03 6.61559E-09 1.38931E-09
 -1       980-3.16847E+05-5.30714E+01-9.18410E+02 1.16055E+04 9.51590E-09 3.80317E-09
 -1       981-3.16694E+05 7.80953E+01-1.68248E+03 2.30170E+03-5.43491E-09 1.75419E-09
 -1       982-3.17346E+05-8.12702E+02-3.70099E+03 1.15771E+04-3.38753E-09 2.79357E-09
 -1       983-3.16244E+05 6.59884E+02-6.58791E+03 2.32302E+03 2.61753E-09 1.19235E-09
 -1       984-3.21642E+05-8.22833E+03-1.63694E+04 1.14990E+04-3.28475E-09 3.45608E-09
 -1       985-3.12381E+05 6.21467E+03-2.53955E+04 2.38094E+03 1.82445E-09 1.53887E-09
 -3
    1PSTEP                         9           5           1          
  100CL  105 4.21875E-01         841                     0    5           1
 -4  DISP        4    1
 -5  D1          1    2    1    0
 -5  D2          1    2    2    0
 -5  D3          1    2    3    0
 -5  ALL         1    2    0    0    1ALL
 -1         1 5.09892E-05 0.00000E+00 0.00000E+00
 -1         2 3.78221E-05 0.00000E+00 0.00000E+00
 -1         3 3.16545E-05 0.00000E+00 0.00000E+00
 -1         4 2.83964E-05 0.00000E+00 0.00000E+00
 -1         5 2.70040E-05 0.00000E+00 0.00000E+00
 -1         8 3.98252E-05-5.07119E-07 0.00000E+00
 -1         9 3.19223E-05 5.16022E-07 0.00000E+00
 -1        10 2.96888E-05-1.43292E-06 0.00000E+00
 -1        11 2.77168E-05-3.05742E-07 0.00000E+00
 -1        12 2.58791E-05 7.25534E-07 0.00000E+00
 -1        15 1.66188E-05-1.04341E-06 0.00000E+00
 -1        16 2.27185E-05 5.30600E-07 0.00000E+00
 -1        17 2.12255E-05-2.88067E-06 0.00000E+00
 -1        18 2.17029E-05-5.91963E-07 0.00000E+00
 -1        19 2.29226E-05 1.43503E-06 0.00000E+00
 -1        20 2.32890E-05 1.51573E-05 0.00000E+00
 -1        21 2.32776E-05 3.63419E-05 0.00000E+00
 -1        22 6.11855E-06-6.71918E-07 0.00000E+00
 -1        23 8.15336E-06 9.74180E-07 0.00000E+00
 -1        24 8.66645E-06-3.35182E-06 0.00000E+00
 -1        25 1.86890E-05-4.22543E-07 0.00000E+00
 -1        26 1.99653E-05 1.89966E-06 0.00000E+00
 -1        27 1.87758E-05 1.46285E-05 0.00000E+00
 -1        28 1.73787E-05 3.58415E-05 0.00000E+00
 -1        29 0.00000E+00 0.00000E+00 0.00000E+00
 -1        30 2.93675E-06 1.24974E-06 0.00000E+00
 -1        31 3.82091E-06-2.73158E-06 0.00000E+00
 -1        32 0.00000E+00 0.00000E+00 0.00000E+00
 -1        33 1.57379E-05 3.06162E-06 0.00000E+00
 -1        34 1.48873E-05 1.45826E-05 0.00000E+00
 -1        35 1.30113E-05 3.55765E-05 0.00000E+00
 -1        36 5.01925E-05 3.98701E-22-1.32349E-23
 -1        37 4.93696E-05-3.02289E-20 0.00000E+00
 -1        38 4.85483E-05-5.86041E-20 0.00000E+00
 -1        39 4.77222E-05-8.68399E-20 0.00000E+00
 -1        40 4.68958E-05-1.73011E-19 0.00000E+00
 -1        41 4.60685E-05-3.14584E-19 0.00000E+00
 -1        42 4.52411E-05-4.12089E-19 0.00000E+00
 -1        43 4.44134E-05-5.19472E-19-1.32349E-23
 -1        44 4.35858E-05-5.93158E-19-2.64698E-23
 -1        45 4.27583E-05-5.83311E-19 1.32349E-23
 -1        46 4.19308E-05-5.10255E-19 0.00000E+00
 -1        47 4.11040E-05-3.94068E-19 0.00000E+00
 -1        48 4.02772E-05-2.40548E-19 0.00000E+00
 -1        49 3.94538E-05-7.33258E-20 1.32349E-23
 -1        50 3.86293E-05 1.62227E-20 0.00000E+00
 -1        51 5.01532E-05-8.66015E-08 0.00000E+00
 -1        52 4.87598E-05-1.69115E-07 0.00000E+00
 -1        53 4.69170E-05-2.51007E-07 0.00000E+00
 -1        54 4.47378E-05-3.33446E-07 0.00000E+00
 -1        55 4.23359E-05-4.17524E-07 1.24077E-24
 -1        56 5.00034E-05-4.12099E-07 2.64698E-23
 -1        57 4.90044E-05-8.97603E-07-1.32349E-23
 -1        58 4.80187E-05-1.41248E-06 2.64698E-23
 -1        59 4.70267E-05-1.92904E-06 0.00000E+00
 -1        60 4.60228E-05-2.41438E-06 0.00000E+00
 -1        61 4.49948E-05-2.83882E-06 0.00000E+00
 -1        62 4.39333E-05-3.17463E-06 2.64698E-23
 -1        63 4.28290E-05-3.39644E-06-1.32349E-23
 -1        64 4.16740E-05-3.48338E-06 0.00000E+00
 -1        65 4.04618E-05-3.41758E-06 0.00000E+00
 -1        66 3.91881E-05-3.18744E-06 0.00000E+00
 -1        67 3.78508E-05-2.78471E-06 0.00000E+00
 -1        68 3.64485E-05-2.20873E-06-2.64698E-23
 -1        69 3.49881E-05-1.46030E-06 0.00000E+00
 -1        70 3.34655E-05-5.52162E-07 2.64698E-23
 -1        71 3.74354E-05-2.33149E-20 0.00000E+00
 -1        72 3.70493E-05-5.50338E-20-6.61744E-24
 -1        73 3.66631E-05-6.56372E-20-1.32349E-23
 -1        74 3.62771E-05-7.31906E-20 0.00000E+00
 -1        75 3.58910E-05-1.05514E-19 0.00000E+00
 -1        76 3.55050E-05-1.19247E-19 0.00000E+00
 -1        77 3.51190E-05-1.22896E-19 0.00000E+00
 -1        78 3.47329E-05-1.30027E-19 0.00000E+00
 -1        79 3.43469E-05-1.52831E-19 0.00000E+00
 -1        80 3.39610E-05-1.74246E-19-6.61744E-24
 -1        81 3.35750E-05-1.66812E-19-1.32349E-23
 -1        82 3.31893E-05-1.35040E-19 6.61744E-24
 -1        83 3.28036E-05-8.49163E-20-1.32349E-23
 -1        84 3.24190E-05 6.62406E-21 0.00000E+00
 -1        85 3.20340E-05-1.69572E-23-1.32349E-23
 -1        86 3.76058E-05 7.20022E-08-6.61744E-24
 -1        87 3.69660E-05 1.63290E-07 8.27181E-25
 -1        88 3.59934E-05 2.52989E-07 0.00000E+00
 -1        89 3.47774E-05 3.43952E-07 0.00000E+00
 -1        90 3.33949E-05 4.35616E-07-1.65436E-24
 -1        91 3.76712E-05-1.02099E-06 0.00000E+00
 -1        92 3.81421E-05-3.71748E-06 0.00000E+00
 -1        93 3.90633E-05-7.62468E-06 1.32349E-23
 -1        94 4.02518E-05-1.22550E-05 6.61744E-24
 -1        95 4.14578E-05-1.69326E-05-1.32349E-23
 -1        96 4.24306E-05-2.09807E-05 0.00000E+00
 -1        97 4.29792E-05-2.38870E-05 0.00000E+00
 -1        98 4.29193E-05-2.51617E-05 0.00000E+00
 -1        99 4.22229E-05-2.47379E-05 0.00000E+00
 -1       100 4.08741E-05-2.25814E-05 0.00000E+00
 -1       101 3.90268E-05-1.91069E-05-1.32349E-23
 -1       102 3.68465E-05-1.47538E-05 0.00000E+00
 -1       103 3.45856E-05-1.01890E-05 0.00000E+00
 -1       104 3.25009E-05-6.08245E-06 6.61744E-24
 -1       105 3.07987E-05-2.98733E-06 0.00000E+00
 -1       106 3.14485E-05 3.06677E-22 0.00000E+00
 -1       107 3.12443E-05 3.31575E-21-3.30872E-24
 -1       108 3.10401E-05 2.37587E-20 0.00000E+00
 -1       109 3.08361E-05 5.10046E-20 0.00000E+00
 -1       110 3.06322E-05 3.48018E-20-6.61744E-24
 -1       111 3.04284E-05 3.17923E-20 0.00000E+00
 -1       112 3.02245E-05 6.09872E-20-6.61744E-24
 -1       113 3.00207E-05 6.27152E-20-3.30872E-24
 -1       114 2.98169E-05 3.26468E-20 0.00000E+00
 -1       115 2.96131E-05-1.61482E-20 0.00000E+00
 -1       116 2.94094E-05-4.31861E-20-6.61744E-24
 -1       117 2.92058E-05-4.57793E-20-3.30872E-24
 -1       118 2.90021E-05-4.50578E-20 0.00000E+00
 -1       119 2.87992E-05-1.76220E-20 3.30872E-24
 -1       120 2.85961E-05 7.18303E-21 6.61744E-24
 -1       121 3.16447E-05-2.38998E-07-6.61744E-24
 -1       122 3.15686E-05-4.77543E-07-3.30872E-24
 -1       123 3.13802E-05-7.16130E-07 6.61744E-24
 -1       124 3.10341E-05-9.54775E-07-3.30872E-24
 -1       125 3.04852E-05-1.19349E-06 6.61744E-24
 -1       126 3.14448E-05-1.20941E-07-6.61744E-24
 -1       127 3.12637E-05-3.14488E-07 0.00000E+00
 -1       128 3.11024E-05-5.61424E-07 0.00000E+00
 -1       129 3.09538E-05-8.41506E-07 0.00000E+00
 -1       130 3.08084E-05-1.13015E-06-6.61744E-24
 -1       131 3.06570E-05-1.40261E-06 0.00000E+00
 -1       132 3.04912E-05-1.63668E-06-6.61744E-24
 -1       133 3.03028E-05-1.81052E-06 0.00000E+00
 -1       134 3.00865E-05-1.90975E-06 0.00000E+00
 -1       135 2.98371E-05-1.92073E-06 0.00000E+00
 -1       136 2.95537E-05-1.84103E-06 6.61744E-24
 -1       137 2.92358E-05-1.66900E-06 0.00000E+00
 -1       138 2.88871E-05-1.41496E-06 0.00000E+00
 -1       139 2.85125E-05-1.08967E-06 3.30872E-24
 -1       140 2.81185E-05-7.13573E-07 0.00000E+00
 -1       141 2.83072E-05-3.62315E-21 3.30872E-24
 -1       142 2.82192E-05-1.00349E-20 0.00000E+00
 -1       143 2.81311E-05-1.46948E-20 0.00000E+00
 -1       144 2.80432E-05-8.08466E-21-1.65436E-24
 -1       145 2.79553E-05 1.28496E-20 3.30872E-24
 -1       146 2.78675E-05 3.75882E-20 0.00000E+00
 -1       147 2.77797E-05 7.34391E-20 0.00000E+00
 -1       148 2.76919E-05 1.00231E-19 1.65436E-24
 -1       149 2.76041E-05 4.28530E-20 0.00000E+00
 -1       150 2.75164E-05 8.00121E-21 0.00000E+00
 -1       151 2.74287E-05 9.49303E-21 0.00000E+00
 -1       152 2.73414E-05 2.31861E-20 0.00000E+00
 -1       153 2.72541E-05 1.52586E-20 0.00000E+00
 -1       154 2.71683E-05 1.14231E-20 0.00000E+00
 -1       155 2.70820E-05 7.67045E-21-4.13590E-25
 -1       156 2.84083E-05-5.24453E-08-3.30872E-24
 -1       157 2.84393E-05-1.02310E-07-8.27181E-25
 -1       158 2.84371E-05-1.52371E-07 0.00000E+00
 -1       159 2.83493E-05-2.02548E-07 8.27181E-25
 -1       160 2.81258E-05-2.52519E-07 0.00000E+00
 -1       161 2.82763E-05-5.60025E-08-3.30872E-24
 -1       162 2.81629E-05-1.30749E-07 0.00000E+00
 -1       163 2.80534E-05-2.16067E-07 3.30872E-24
 -1       164 2.79449E-05-3.03865E-07 0.00000E+00
 -1       165 2.78341E-05-3.85717E-07 3.30872E-24
 -1       166 2.77179E-05-4.53252E-07 1.65436E-24
 -1       167 2.75937E-05-4.99329E-07 0.00000E+00
 -1       168 2.74588E-05-5.16915E-07 0.00000E+00
 -1       169 2.73114E-05-5.00975E-07 0.00000E+00
 -1       170 2.71496E-05-4.46621E-07 0.00000E+00
 -1       171 2.69726E-05-3.51789E-07 0.00000E+00
 -1       172 2.67801E-05-2.14503E-07 1.65436E-24
 -1       173 2.65722E-05-3.60597E-08 0.00000E+00
 -1       174 2.63511E-05 1.82802E-07 0.00000E+00
 -1       175 2.61161E-05 4.36871E-07 4.13590E-25
 -1       191 2.69642E-05 1.20789E-07 0.00000E+00
 -1       192 2.68632E-05 2.41823E-07 0.00000E+00
 -1       193 2.67023E-05 3.62907E-07 6.61744E-24
 -1       194 2.64832E-05 4.83968E-07 0.00000E+00
 -1       195 2.62080E-05 6.04930E-07 0.00000E+00
 -1       251 3.93415E-05 1.52520E-06 0.00000E+00
 -1       252 3.88459E-05 3.59178E-06 6.61744E-24
 -1       253 3.83515E-05 5.44694E-06 1.32349E-23
 -1       254 3.78556E-05 6.84919E-06 6.61744E-24
 -1       255 3.73602E-05 7.66519E-06 0.00000E+00
 -1       256 3.68647E-05 7.77352E-06-6.61744E-24
 -1       257 3.63690E-05 7.22164E-06-1.32349E-23
 -1       258 3.58727E-05 6.07042E-06 0.00000E+00
 -1       259 3.53760E-05 4.52373E-06-1.32349E-23
 -1       260 3.48790E-05 2.79352E-06 6.61744E-24
 -1       261 3.43822E-05 1.13554E-06 0.00000E+00
 -1       262 3.38863E-05-1.95971E-07 0.00000E+00
 -1       263 3.33910E-05-1.02464E-06-1.32349E-23
 -1       264 3.28982E-05-1.18430E-06 0.00000E+00
 -1       265 3.24046E-05-6.68353E-07 0.00000E+00
 -1       266 3.72937E-05-5.97511E-07 0.00000E+00
 -1       267 3.37383E-05-6.85727E-07 0.00000E+00
 -1       268 2.95225E-05-7.76654E-07 0.00000E+00
 -1       269 2.50120E-05-8.67331E-07 8.27181E-25
 -1       270 2.05849E-05-9.57786E-07 0.00000E+00
 -1       271 3.82800E-05 9.13053E-07 1.32349E-23
 -1       272 3.68760E-05 1.86637E-06 1.32349E-23
 -1       273 3.56252E-05 2.41507E-06-2.64698E-23
 -1       274 3.45015E-05 2.61204E-06 0.00000E+00
 -1       275 3.34868E-05 2.51708E-06 2.64698E-23
 -1       276 3.25579E-05 2.19124E-06 0.00000E+00
 -1       277 3.16915E-05 1.69819E-06-2.64698E-23
 -1       278 3.08632E-05 1.10308E-06 0.00000E+00
 -1       279 3.00483E-05 4.72054E-07 0.00000E+00
 -1       280 2.92221E-05-1.28336E-07 0.00000E+00
 -1       281 2.83598E-05-6.31930E-07 0.00000E+00
 -1       282 2.74375E-05-9.73366E-07 1.32349E-23
 -1       283 2.64311E-05-1.08912E-06 0.00000E+00
 -1       284 2.53213E-05-9.16384E-07 1.32349E-23
 -1       285 2.40808E-05-3.98473E-07-1.32349E-23
 -1       286 3.17798E-05 1.81927E-06-6.61744E-24
 -1       287 3.16404E-05 2.70114E-06 1.65436E-24
 -1       288 3.15011E-05 3.18168E-06 0.00000E+00
 -1       289 3.13623E-05 3.28321E-06 1.65436E-24
 -1       290 3.12236E-05 3.05485E-06 0.00000E+00
 -1       291 3.10849E-05 2.54759E-06-1.65436E-24
 -1       292 3.09460E-05 1.83212E-06 0.00000E+00
 -1       293 3.08071E-05 9.80315E-07 0.00000E+00
 -1       294 3.06681E-05 7.36742E-08-3.30872E-24
 -1       295 3.05291E-05-8.05979E-07-1.65436E-24
 -1       296 3.03902E-05-1.57875E-06 3.30872E-24
 -1       297 3.02512E-05-2.16534E-06-1.65436E-24
 -1       298 3.01123E-05-2.49959E-06 0.00000E+00
 -1       299 2.99725E-05-2.51679E-06 3.30872E-24
 -1       300 2.98331E-05-2.17466E-06 6.61744E-24
 -1       301 3.03864E-05 5.12439E-07-3.30872E-24
 -1       302 2.88440E-05 5.17858E-07-8.27181E-25
 -1       303 2.73006E-05 5.24886E-07-1.65436E-24
 -1       304 2.57616E-05 5.31720E-07 0.00000E+00
 -1       305 2.42325E-05 5.36515E-07 0.00000E+00
 -1       306 3.08150E-05 1.52779E-06 0.00000E+00
 -1       307 2.98655E-05 2.06150E-06-6.61744E-24
 -1       308 2.90709E-05 2.18467E-06 0.00000E+00
 -1       309 2.84036E-05 1.95940E-06-1.32349E-23
 -1       310 2.78417E-05 1.45234E-06-2.64698E-23
 -1       311 2.73594E-05 7.31209E-07-1.32349E-23
 -1       312 2.69312E-05-1.34599E-07 0.00000E+00
 -1       313 2.65307E-05-1.07479E-06 1.32349E-23
 -1       314 2.61316E-05-2.01849E-06 0.00000E+00
 -1       315 2.57073E-05-2.89478E-06-1.32349E-23
 -1       316 2.52316E-05-3.63333E-06 0.00000E+00
 -1       317 2.46789E-05-4.16460E-06-1.32349E-23
 -1       318 2.40234E-05-4.42073E-06-1.32349E-23
 -1       319 2.32434E-05-4.33469E-06 0.00000E+00
 -1       320 2.23107E-05-3.84432E-06 0.00000E+00
 -1       321 2.95596E-05-5.96345E-07 6.61744E-24
 -1       322 2.94359E-05 2.83114E-08-1.65436E-24
 -1       323 2.93119E-05 4.50972E-07 0.00000E+00
 -1       324 2.91890E-05 6.82586E-07 1.65436E-24
 -1       325 2.90662E-05 7.46074E-07 0.00000E+00
 -1       326 2.89435E-05 6.65203E-07 0.00000E+00
 -1       327 2.88209E-05 4.72783E-07-3.30872E-24
 -1       328 2.86982E-05 2.02187E-07 1.65436E-24
 -1       329 2.85756E-05-1.08312E-07 3.30872E-24
 -1       330 2.84530E-05-4.20250E-07 1.65436E-24
 -1       331 2.83304E-05-6.95065E-07 0.00000E+00
 -1       332 2.82078E-05-8.94380E-07-1.65436E-24
 -1       333 2.80852E-05-9.84554E-07 3.30872E-24
 -1       334 2.79625E-05-9.32490E-07 1.65436E-24
 -1       335 2.78398E-05-7.14003E-07 3.30872E-24
 -1       336 2.86044E-05-1.67551E-06 0.00000E+00
 -1       337 2.73022E-05-1.91773E-06 3.30872E-24
 -1       338 2.58475E-05-2.16005E-06 0.00000E+00
 -1       339 2.43058E-05-2.40173E-06-3.30872E-24
 -1       340 2.27432E-05-2.64351E-06 0.00000E+00
 -1       341 2.88594E-05-4.83364E-07 0.00000E+00
 -1       342 2.79045E-05 7.78681E-07 6.61744E-24
 -1       343 2.68935E-05 2.19092E-06-1.32349E-23
 -1       344 2.58879E-05 3.58501E-06 0.00000E+00
 -1       345 2.49506E-05 4.79798E-06 1.32349E-23
 -1       346 2.41414E-05 5.66947E-06 0.00000E+00
 -1       347 2.34908E-05 6.11913E-06 0.00000E+00
 -1       348 2.30260E-05 6.07388E-06-6.61744E-24
 -1       349 2.27305E-05 5.57701E-06-1.32349E-23
 -1       350 2.25850E-05 4.67971E-06 0.00000E+00
 -1       351 2.25354E-05 3.52640E-06 0.00000E+00
 -1       352 2.25264E-05 2.26626E-06 0.00000E+00
 -1       353 2.24923E-05 1.07336E-06-1.32349E-23
 -1       354 2.23716E-05 1.22098E-07 0.00000E+00
 -1       355 2.21159E-05-4.72268E-07-6.61744E-24
 -1       356 2.76001E-05 1.40063E-07-3.30872E-24
 -1       357 2.74842E-05 4.70000E-07 0.00000E+00
 -1       358 2.73682E-05 6.91486E-07-3.30872E-24
 -1       359 2.72523E-05 8.12444E-07-1.65436E-24
 -1       360 2.71365E-05 8.46757E-07 3.30872E-24
 -1       361 2.70207E-05 8.08721E-07 0.00000E+00
 -1       362 2.69049E-05 7.16917E-07-3.30872E-24
 -1       363 2.67891E-05 5.90182E-07 1.65436E-24
 -1       364 2.66734E-05 4.49421E-07-3.30872E-24
 -1       365 2.65577E-05 3.15605E-07 1.65436E-24
 -1       366 2.64420E-05 2.09298E-07 3.30872E-24
 -1       367 2.63267E-05 1.50928E-07 0.00000E+00
 -1       368 2.62115E-05 1.58087E-07-3.30872E-24
 -1       369 2.60980E-05 2.48056E-07 8.27181E-25
 -1       370 2.59839E-05 4.33228E-07 0.00000E+00
 -1       371 2.69948E-05-3.57019E-07-3.30872E-24
 -1       372 2.58569E-05-4.05130E-07 0.00000E+00
 -1       373 2.45308E-05-4.53646E-07 1.65436E-24
 -1       374 2.32450E-05-5.00935E-07 0.00000E+00
 -1       375 2.22267E-05-5.48084E-07-4.13590E-25
 -1       376 2.73206E-05 6.92284E-08-6.61744E-24
 -1       377 2.69543E-05 3.52434E-07 3.30872E-24
 -1       378 2.66223E-05 5.45388E-07 0.00000E+00
 -1       379 2.63231E-05 6.48504E-07 3.30872E-24
 -1       380 2.60528E-05 6.74595E-07 0.00000E+00
 -1       381 2.58063E-05 6.36883E-07 0.00000E+00
 -1       382 2.55755E-05 5.57119E-07 0.00000E+00
 -1       383 2.53523E-05 4.57409E-07-3.30872E-24
 -1       384 2.51271E-05 3.62624E-07 0.00000E+00
 -1       385 2.48909E-05 2.97620E-07 3.30872E-24
 -1       386 2.46359E-05 2.82892E-07 0.00000E+00
 -1       387 2.43549E-05 3.38605E-07 0.00000E+00
 -1       388 2.40435E-05 4.75671E-07 0.00000E+00
 -1       389 2.36998E-05 7.05191E-07-3.30872E-24
 -1       390 2.33215E-05 1.02425E-06 3.30872E-24
 -1       406 2.54764E-05 8.44398E-07 3.30872E-24
 -1       407 2.50288E-05 9.63453E-07 0.00000E+00
 -1       408 2.45427E-05 1.08246E-06 0.00000E+00
 -1       409 2.40250E-05 1.20117E-06 0.00000E+00
 -1       410 2.34826E-05 1.31925E-06 0.00000E+00
 -1       466 1.69815E-05 2.03161E-06-6.61744E-24
 -1       467 1.73632E-05 3.85596E-06 0.00000E+00
 -1       468 1.77452E-05 4.74714E-06 1.32349E-23
 -1       469 1.81306E-05 5.00755E-06 0.00000E+00
 -1       470 1.85162E-05 4.80412E-06 0.00000E+00
 -1       471 1.89022E-05 4.29635E-06 6.61744E-24
 -1       472 1.92882E-05 3.57822E-06-1.32349E-23
 -1       473 1.96741E-05 2.74035E-06-6.61744E-24
 -1       474 2.00601E-05 1.84752E-06-1.32349E-23
 -1       475 2.04458E-05 9.63695E-07-6.61744E-24
 -1       476 2.08315E-05 1.54743E-07 1.32349E-23
 -1       477 2.12163E-05-5.12284E-07 6.61744E-24
 -1       478 2.16011E-05-9.39758E-07 6.61744E-24
 -1       479 2.19812E-05-1.02622E-06-3.30872E-24
 -1       480 2.23628E-05-5.97094E-07-1.65436E-24
 -1       481 1.33339E-05-9.87431E-07 0.00000E+00
 -1       482 1.09001E-05-9.25988E-07 8.27181E-25
 -1       483 9.13539E-06-8.63377E-07-1.65436E-24
 -1       484 7.85923E-06-7.99631E-07-8.27181E-25
 -1       485 6.90791E-06-7.35442E-07 0.00000E+00
 -1       486 1.45281E-05 3.29822E-06 0.00000E+00
 -1       487 1.18494E-05 9.13499E-06-6.61744E-24
 -1       488 8.89109E-06 1.57072E-05 1.32349E-23
 -1       489 5.94666E-06 2.22345E-05 0.00000E+00
 -1       490 3.31215E-06 2.79496E-05 0.00000E+00
 -1       491 1.27351E-06 3.20976E-05 6.61744E-24
 -1       492-2.26065E-08 3.42839E-05 0.00000E+00
 -1       493-4.44554E-07 3.41469E-05 0.00000E+00
 -1       494-6.26072E-08 3.18598E-05-1.32349E-23
 -1       495 1.04009E-06 2.76332E-05-6.61744E-24
 -1       496 2.61689E-06 2.21256E-05-1.32349E-23
 -1       497 4.41534E-06 1.60182E-05-6.61744E-24
 -1       498 6.13264E-06 1.01311E-05 1.32349E-23
 -1       499 7.46970E-06 5.28129E-06 0.00000E+00
 -1       500 8.20751E-06 2.04445E-06-6.61744E-24
 -1       501 2.26185E-05 1.75098E-06 0.00000E+00
 -1       502 2.25250E-05 2.43990E-06-1.65436E-24
 -1       503 2.24314E-05 2.64987E-06 0.00000E+00
 -1       504 2.23389E-05 2.43521E-06 0.00000E+00
 -1       505 2.22462E-05 1.87035E-06 3.30872E-24
 -1       506 2.21537E-05 1.03109E-06 0.00000E+00
 -1       507 2.20610E-05 6.19079E-09-3.30872E-24
 -1       508 2.19682E-05-1.11488E-06 0.00000E+00
 -1       509 2.18754E-05-2.23811E-06 3.30872E-24
 -1       510 2.17828E-05-3.26944E-06 0.00000E+00
 -1       511 2.16902E-05-4.11921E-06-3.30872E-24
 -1       512 2.15979E-05-4.69843E-06 0.00000E+00
 -1       513 2.15056E-05-4.93090E-06 0.00000E+00
 -1       514 2.14130E-05-4.74173E-06 0.00000E+00
 -1       515 2.13203E-05-4.07603E-06 0.00000E+00
 -1       516 2.07257E-05 5.95861E-07 3.30872E-24
 -1       517 1.77774E-05 6.71646E-07 1.03398E-25
 -1       518 1.44585E-05 7.45494E-07 0.00000E+00
 -1       519 1.13524E-05 8.21276E-07-4.13590E-25
 -1       520 9.05211E-06 8.99558E-07 0.00000E+00
 -1       521 2.14331E-05 1.44908E-06 0.00000E+00
 -1       522 2.02967E-05 1.89220E-06 0.00000E+00
 -1       523 1.93137E-05 1.92931E-06-2.64698E-23
 -1       524 1.84555E-05 1.62214E-06 0.00000E+00
 -1       525 1.77005E-05 1.03844E-06 0.00000E+00
 -1       526 1.70224E-05 2.47189E-07-1.32349E-23
 -1       527 1.63953E-05-6.80486E-07 0.00000E+00
 -1       528 1.57921E-05-1.67239E-06 1.32349E-23
 -1       529 1.51857E-05-2.65570E-06 0.00000E+00
 -1       530 1.45490E-05-3.55765E-06 1.32349E-23
 -1       531 1.38550E-05-4.30630E-06 0.00000E+00
 -1       532 1.30778E-05-4.83091E-06-1.32349E-23
 -1       533 1.21913E-05-5.06304E-06 0.00000E+00
 -1       534 1.11741E-05-4.93571E-06 1.32349E-23
 -1       535 9.99811E-06-4.38791E-06 0.00000E+00
 -1       536 2.12471E-05-1.59063E-06 1.65436E-24
 -1       537 2.12760E-05-6.10394E-07 2.06795E-25
 -1       538 2.13050E-05 9.36688E-08 0.00000E+00
 -1       539 2.13352E-05 5.55353E-07 2.06795E-25
 -1       540 2.13656E-05 8.08321E-07-8.27181E-25
 -1       541 2.13962E-05 8.86195E-07 0.00000E+00
 -1       542 2.14269E-05 8.22548E-07 0.00000E+00
 -1       543 2.14577E-05 6.50911E-07-4.13590E-25
 -1       544 2.14884E-05 4.04786E-07 0.00000E+00
 -1       545 2.15191E-05 1.17647E-07 0.00000E+00
 -1       546 2.15498E-05-1.77036E-07 0.00000E+00
 -1       547 2.15806E-05-4.45795E-07 0.00000E+00
 -1       548 2.16113E-05-6.55164E-07-8.27181E-25
 -1       549 2.16420E-05-7.71655E-07 4.13590E-25
 -1       550 2.16726E-05-7.61736E-07 0.00000E+00
 -1       551 1.93481E-05-2.95862E-06-1.00813E-24
 -1       552 1.72625E-05-3.03443E-06 1.65436E-24
 -1       553 1.50593E-05-3.11020E-06 0.00000E+00
 -1       554 1.28308E-05-3.18675E-06 0.00000E+00
 -1       555 1.06696E-05-3.26503E-06 0.00000E+00
 -1       556 2.06691E-05-1.67702E-06 0.00000E+00
 -1       557 2.02181E-05-7.47260E-07 0.00000E+00
 -1       558 1.98607E-05-6.50082E-08 0.00000E+00
 -1       559 1.95855E-05 3.98724E-07-3.30872E-24
 -1       560 1.93817E-05 6.72982E-07 6.61744E-24
 -1       561 1.92379E-05 7.87064E-07 0.00000E+00
 -1       562 1.91433E-05 7.70296E-07 0.00000E+00
 -1       563 1.90868E-05 6.52037E-07 0.00000E+00
 -1       564 1.90573E-05 4.61661E-07-3.30872E-24
 -1       565 1.90439E-05 2.28549E-07 0.00000E+00
 -1       566 1.90355E-05-1.79084E-08-1.65436E-24
 -1       567 1.90211E-05-2.48319E-07-1.65436E-24
 -1       568 1.89898E-05-4.33296E-07 1.65436E-24
 -1       569 1.89308E-05-5.43487E-07 3.36042E-25
 -1       570 1.88333E-05-5.49563E-07-1.24077E-24
 -1       571 2.17760E-05-4.05684E-07-9.30578E-25
 -1       572 2.18514E-05-2.76353E-07 2.06795E-25
 -1       573 2.19276E-05-1.93950E-07 8.27181E-25
 -1       574 2.20040E-05-1.47939E-07-4.13590E-25
 -1       575 2.20806E-05-1.27741E-07 0.00000E+00
 -1       576 2.21573E-05-1.22713E-07 0.00000E+00
 -1       577 2.22339E-05-1.22205E-07 0.00000E+00
 -1       578 2.23106E-05-1.15560E-07 0.00000E+00
 -1       579 2.23873E-05-9.21196E-08 0.00000E+00
 -1       580 2.24639E-05-4.12248E-08 0.00000E+00
 -1       581 2.25406E-05 4.77815E-08 0.00000E+00
 -1       582 2.26172E-05 1.85548E-07 0.00000E+00
 -1       583 2.26938E-05 3.82715E-07 0.00000E+00
 -1       584 2.27704E-05 6.49823E-07 6.61744E-24
 -1       585 2.28467E-05 9.97358E-07 0.00000E+00
 -1       586 2.12660E-05-5.63180E-07 1.65436E-24
 -1       587 2.07659E-05-5.34121E-07 0.00000E+00
 -1       588 2.02301E-05-5.05086E-07-8.27181E-25
 -1       589 1.96867E-05-4.76338E-07-9.04729E-26
 -1       590 1.91638E-05-4.48244E-07 0.00000E+00
 -1       591 2.15758E-05-3.77286E-07 0.00000E+00
 -1       592 2.14595E-05-2.00200E-07 0.00000E+00
 -1       593 2.13542E-05-5.38996E-08 0.00000E+00
 -1       594 2.12576E-05 6.79144E-08 0.00000E+00
 -1       595 2.11678E-05 1.71536E-07-1.65436E-24
 -1       596 2.10824E-05 2.63226E-07-8.27181E-25
 -1       597 2.09991E-05 3.49235E-07 0.00000E+00
 -1       598 2.09155E-05 4.35811E-07-4.13590E-25
 -1       599 2.08295E-05 5.29203E-07 8.27181E-25
 -1       600 2.07385E-05 6.35656E-07-4.13590E-25
 -1       601 2.06403E-05 7.61418E-07-8.27181E-25
 -1       602 2.05326E-05 9.12743E-07-4.13590E-25
 -1       603 2.04131E-05 1.09589E-06-4.13590E-25
 -1       604 2.02796E-05 1.31714E-06-2.58494E-25
 -1       605 2.01302E-05 1.58280E-06 4.13590E-25
 -1       606 2.29482E-05 2.01434E-06 0.00000E+00
 -1       607 2.29719E-05 2.64734E-06 0.00000E+00
 -1       608 2.29951E-05 3.33091E-06 3.30872E-24
 -1       609 2.30181E-05 4.06144E-06 0.00000E+00
 -1       610 2.30409E-05 4.83534E-06-3.30872E-24
 -1       611 2.30636E-05 5.64892E-06 0.00000E+00
 -1       612 2.30863E-05 6.49850E-06 0.00000E+00
 -1       613 2.31089E-05 7.38042E-06 0.00000E+00
 -1       614 2.31315E-05 8.29098E-06-1.65436E-24
 -1       615 2.31541E-05 9.22648E-06 0.00000E+00
 -1       616 2.31767E-05 1.01833E-05 1.65436E-24
 -1       617 2.31993E-05 1.11576E-05 0.00000E+00
 -1       618 2.32218E-05 1.21459E-05 8.27181E-25
 -1       619 2.32443E-05 1.31444E-05 4.13590E-25
 -1       620 2.32667E-05 1.41494E-05 8.27181E-25
 -1       621 2.23737E-05 1.51262E-06 0.00000E+00
 -1       622 2.18388E-05 1.59072E-06-8.27181E-25
 -1       623 2.13242E-05 1.66885E-06 0.00000E+00
 -1       624 2.08363E-05 1.74681E-06 0.00000E+00
 -1       625 2.03814E-05 1.82431E-06 0.00000E+00
 -1       626 2.27475E-05 2.04037E-06 0.00000E+00
 -1       627 2.25502E-05 2.70171E-06 0.00000E+00
 -1       628 2.23336E-05 3.41395E-06 0.00000E+00
 -1       629 2.20999E-05 4.17129E-06 0.00000E+00
 -1       630 2.18514E-05 4.96792E-06 0.00000E+00
 -1       631 2.15903E-05 5.79791E-06 0.00000E+00
 -1       632 2.13189E-05 6.65534E-06-1.65436E-24
 -1       633 2.10394E-05 7.53429E-06 0.00000E+00
 -1       634 2.07540E-05 8.42882E-06 1.65436E-24
 -1       635 2.04650E-05 9.33301E-06 8.27181E-25
 -1       636 2.01746E-05 1.02409E-05 0.00000E+00
 -1       637 1.98850E-05 1.11466E-05-4.13590E-25
 -1       638 1.95984E-05 1.20442E-05-8.27181E-25
 -1       639 1.93168E-05 1.29277E-05 4.13590E-25
 -1       640 1.90423E-05 1.37912E-05-2.06795E-25
 -1       641 2.32897E-05 1.62048E-05 2.06795E-25
 -1       642 2.32896E-05 1.73636E-05 0.00000E+00
 -1       643 2.32894E-05 1.86177E-05 0.00000E+00
 -1       644 2.32890E-05 1.99512E-05 0.00000E+00
 -1       645 2.32884E-05 2.13481E-05 0.00000E+00
 -1       646 2.32878E-05 2.27924E-05-6.46235E-27
 -1       647 2.32871E-05 2.42682E-05 0.00000E+00
 -1       648 2.32864E-05 2.57597E-05 3.23117E-27
 -1       649 2.32857E-05 2.72508E-05 0.00000E+00
 -1       650 2.32850E-05 2.87257E-05 0.00000E+00
 -1       651 2.32844E-05 3.01685E-05 5.16988E-26
 -1       652 2.32836E-05 3.15631E-05-5.16988E-26
 -1       653 2.32830E-05 3.28937E-05 2.06795E-25
 -1       654 2.32819E-05 3.41443E-05-2.06795E-25
 -1       655 2.32811E-05 3.52990E-05 0.00000E+00
 -1       656 2.23792E-05 1.50720E-05 0.00000E+00
 -1       657 2.15891E-05 1.49825E-05 8.27181E-25
 -1       658 2.08763E-05 1.48931E-05-1.65436E-24
 -1       659 2.01982E-05 1.48037E-05 0.00000E+00
 -1       660 1.95122E-05 1.47141E-05-8.27181E-25
 -1       661 2.29968E-05 1.62350E-05-1.65436E-24
 -1       662 2.26754E-05 1.74013E-05-1.65436E-24
 -1       663 2.23258E-05 1.86420E-05-3.30872E-24
 -1       664 2.19536E-05 1.99448E-05 1.65436E-24
 -1       665 2.15628E-05 2.12968E-05 0.00000E+00
 -1       666 2.11583E-05 2.26855E-05 1.65436E-24
 -1       667 2.07447E-05 2.40984E-05 0.00000E+00
 -1       668 2.03268E-05 2.55231E-05 1.65436E-24
 -1       669 1.99090E-05 2.69471E-05-3.30872E-24
 -1       670 1.94963E-05 2.83579E-05 0.00000E+00
 -1       671 1.90931E-05 2.97430E-05 0.00000E+00
 -1       672 1.87042E-05 3.10899E-05 1.65436E-24
 -1       673 1.83342E-05 3.23861E-05-3.30872E-24
 -1       674 1.79873E-05 3.36187E-05 8.27181E-25
 -1       675 1.76690E-05 3.47755E-05-8.27181E-25
 -1       676 2.22918E-05 3.62583E-05 1.65436E-24
 -1       677 2.13070E-05 3.61743E-05 0.00000E+00
 -1       678 2.03232E-05 3.60903E-05 1.65436E-24
 -1       679 1.93404E-05 3.60066E-05 0.00000E+00
 -1       680 1.83589E-05 3.59229E-05 0.00000E+00
 -1       681 6.24270E-06-4.25540E-08 3.30872E-24
 -1       682 6.37044E-06 4.17767E-07-1.65436E-24
 -1       683 6.49802E-06 7.38530E-07 0.00000E+00
 -1       684 6.62630E-06 9.48470E-07 0.00000E+00
 -1       685 6.75460E-06 1.06874E-06 0.00000E+00
 -1       686 6.88305E-06 1.12004E-06 0.00000E+00
 -1       687 7.01150E-06 1.11831E-06 0.00000E+00
 -1       688 7.13997E-06 1.07924E-06 0.00000E+00
 -1       689 7.26843E-06 1.01595E-06 3.30872E-24
 -1       690 7.39683E-06 9.41444E-07 0.00000E+00
 -1       691 7.52519E-06 8.67939E-07-3.30872E-24
 -1       692 7.65325E-06 8.07668E-07-1.65436E-24
 -1       693 7.78125E-06 7.73768E-07 0.00000E+00
 -1       694 7.90769E-06 7.79516E-07 0.00000E+00
 -1       695 8.03465E-06 8.40893E-07-8.27181E-25
 -1       696 5.29338E-06-5.62741E-07 3.30872E-24
 -1       697 4.25822E-06-4.50805E-07-1.65436E-24
 -1       698 3.11254E-06-3.39150E-07 0.00000E+00
 -1       699 1.95534E-06-2.26688E-07 1.65436E-24
 -1       700 8.84929E-07-1.14201E-07-3.30872E-24
 -1       701 5.74607E-06-6.82486E-08-1.65436E-24
 -1       702 5.41423E-06 4.05205E-07 0.00000E+00
 -1       703 5.12977E-06 7.53939E-07 0.00000E+00
 -1       704 4.88965E-06 9.80570E-07-1.65436E-24
 -1       705 4.69028E-06 1.09856E-06-3.30872E-24
 -1       706 4.52632E-06 1.12142E-06-1.65436E-24
 -1       707 4.39003E-06 1.07042E-06 0.00000E+00
 -1       708 4.27329E-06 9.67191E-07 0.00000E+00
 -1       709 4.16648E-06 8.37478E-07-3.30872E-24
 -1       710 4.05992E-06 7.07199E-07 0.00000E+00
 -1       711 3.94387E-06 6.02299E-07 0.00000E+00
 -1       712 3.80887E-06 5.48654E-07 1.65436E-24
 -1       713 3.64653E-06 5.67936E-07 3.30872E-24
 -1       714 3.45011E-06 6.81968E-07 0.00000E+00
 -1       715 3.21265E-06 9.03898E-07 0.00000E+00
 -1       716 8.18229E-06 9.95627E-07 0.00000E+00
 -1       717 8.21561E-06 7.25146E-07 0.00000E+00
 -1       718 8.24857E-06 2.19325E-07 0.00000E+00
 -1       719 8.28226E-06-4.65591E-07 4.13590E-25
 -1       720 8.31589E-06-1.27656E-06 0.00000E+00
 -1       721 8.34963E-06-2.16071E-06 0.00000E+00
 -1       722 8.38336E-06-3.06646E-06 0.00000E+00
 -1       723 8.41713E-06-3.94230E-06 4.13590E-25
 -1       724 8.45095E-06-4.73614E-06-8.27181E-25
 -1       725 8.48477E-06-5.39579E-06 4.13590E-25
 -1       726 8.51863E-06-5.86667E-06 8.27181E-25
 -1       727 8.55211E-06-6.09392E-06 0.00000E+00
 -1       728 8.58553E-06-6.01832E-06-1.03398E-25
 -1       729 8.61650E-06-5.58024E-06 0.00000E+00
 -1       730 8.64798E-06-4.71363E-06 0.00000E+00
 -1       731 7.74454E-06 1.01607E-06 0.00000E+00
 -1       732 6.87712E-06 1.06265E-06 0.00000E+00
 -1       733 5.75733E-06 1.10868E-06 0.00000E+00
 -1       734 4.59090E-06 1.15553E-06-4.13590E-25
 -1       735 3.58241E-06 1.20261E-06-1.65436E-24
 -1       736 7.79459E-06 1.00597E-06 0.00000E+00
 -1       737 7.44472E-06 9.84191E-07-3.30872E-24
 -1       738 7.11898E-06 9.00106E-07 6.61744E-24
 -1       739 6.81936E-06 7.40972E-07 0.00000E+00
 -1       740 6.54710E-06 5.08795E-07 6.61744E-24
 -1       741 6.30102E-06 2.05769E-07-6.61744E-24
 -1       742 6.07583E-06-1.53058E-07 0.00000E+00
 -1       743 5.86563E-06-5.52055E-07-6.61744E-24
 -1       744 5.66189E-06-9.68300E-07 0.00000E+00
 -1       745 5.45600E-06-1.37865E-06-6.61744E-24
 -1       746 5.23969E-06-1.76113E-06 0.00000E+00
 -1       747 5.00512E-06-2.09401E-06 0.00000E+00
 -1       748 4.74721E-06-2.36457E-06 0.00000E+00
 -1       749 4.46305E-06-2.56024E-06-3.30872E-24
 -1       750 4.15089E-06-2.68304E-06-6.61744E-24
 -1       751 9.25556E-06-2.00495E-06 0.00000E+00
 -1       752 9.88188E-06-1.16988E-06 0.00000E+00
 -1       753 1.05061E-05-6.93200E-07 1.32349E-23
 -1       754 1.11374E-05-4.31078E-07-6.61744E-24
 -1       755 1.17689E-05-3.18600E-07 1.32349E-23
 -1       756 1.24018E-05-2.94781E-07-6.61744E-24
 -1       757 1.30349E-05-3.31385E-07 0.00000E+00
 -1       758 1.36682E-05-4.01757E-07-1.32349E-23
 -1       759 1.43015E-05-4.91723E-07 2.64698E-23
 -1       760 1.49347E-05-5.87623E-07-1.32349E-23
 -1       761 1.55678E-05-6.77988E-07 0.00000E+00
 -1       762 1.61999E-05-7.51206E-07 0.00000E+00
 -1       763 1.68318E-05-7.89333E-07 0.00000E+00
 -1       764 1.74587E-05-7.73500E-07 0.00000E+00
 -1       765 1.80872E-05-6.64971E-07 0.00000E+00
 -1       766 7.20198E-06-3.26063E-06 3.30872E-24
 -1       767 6.03085E-06-3.15388E-06 0.00000E+00
 -1       768 5.12661E-06-3.04790E-06 0.00000E+00
 -1       769 4.46407E-06-2.94039E-06 0.00000E+00
 -1       770 4.03218E-06-2.83211E-06 1.03398E-25
 -1       771 7.72794E-06-2.06684E-06 1.32349E-23
 -1       772 6.87240E-06-1.02000E-06 6.61744E-24
 -1       773 6.09763E-06-1.91306E-07 2.64698E-23
 -1       774 5.39660E-06 4.39423E-07 0.00000E+00
 -1       775 4.76213E-06 8.92436E-07 0.00000E+00
 -1       776 4.18666E-06 1.18809E-06 0.00000E+00
 -1       777 3.66258E-06 1.34679E-06-1.32349E-23
 -1       778 3.18220E-06 1.38898E-06 0.00000E+00
 -1       779 2.73786E-06 1.33516E-06-1.32349E-23
 -1       780 2.32185E-06 1.20586E-06 0.00000E+00
 -1       781 1.92648E-06 1.02164E-06 1.32349E-23
 -1       782 1.54411E-06 8.03092E-07-6.61744E-24
 -1       783 1.16709E-06 5.70834E-07-1.32349E-23
 -1       784 7.88147E-07 3.45571E-07-6.61744E-24
 -1       785 4.00087E-07 1.48027E-07 0.00000E+00
 -1       786 1.87641E-05-1.45573E-07-8.27181E-25
 -1       787 1.88437E-05 7.06843E-08-8.27181E-25
 -1       788 1.89232E-05 2.35515E-07 0.00000E+00
 -1       789 1.90034E-05 3.58205E-07-8.27181E-25
 -1       790 1.90837E-05 4.48002E-07 1.65436E-24
 -1       791 1.91642E-05 5.14133E-07 0.00000E+00
 -1       792 1.92446E-05 5.65806E-07-3.30872E-24
 -1       793 1.93251E-05 6.12219E-07 0.00000E+00
 -1       794 1.94056E-05 6.62564E-07 0.00000E+00
 -1       795 1.94861E-05 7.26039E-07 0.00000E+00
 -1       796 1.95666E-05 8.11847E-07 0.00000E+00
 -1       797 1.96470E-05 9.29215E-07 1.65436E-24
 -1       798 1.97274E-05 1.08739E-06 0.00000E+00
 -1       799 1.98074E-05 1.29564E-06 0.00000E+00
 -1       800 1.98875E-05 1.56329E-06 0.00000E+00
 -1       801 1.70100E-05-3.48561E-07 1.65436E-24
 -1       802 1.35331E-05-2.74445E-07 0.00000E+00
 -1       803 9.17549E-06-2.03654E-07 8.27181E-25
 -1       804 4.85544E-06-1.34349E-07-4.13590E-25
 -1       805 1.49117E-06-6.16069E-08 0.00000E+00
 -1       806 1.84973E-05-1.75238E-07 3.30872E-24
 -1       807 1.83120E-05 4.61700E-08 0.00000E+00
 -1       808 1.81338E-05 2.46769E-07 0.00000E+00
 -1       809 1.79613E-05 4.31227E-07 0.00000E+00
 -1       810 1.77929E-05 6.04185E-07-3.30872E-24
 -1       811 1.76271E-05 7.70244E-07 0.00000E+00
 -1       812 1.74621E-05 9.33999E-07-3.30872E-24
 -1       813 1.72963E-05 1.10004E-06 1.65436E-24
 -1       814 1.71279E-05 1.27294E-06 1.65436E-24
 -1       815 1.69552E-05 1.45731E-06-8.27181E-25
 -1       816 1.67765E-05 1.65772E-06 1.65436E-24
 -1       817 1.65901E-05 1.87877E-06-8.27181E-25
 -1       818 1.63943E-05 2.12505E-06 3.30872E-24
 -1       819 1.61876E-05 2.40116E-06 0.00000E+00
 -1       820 1.59688E-05 2.71173E-06-8.27181E-25
 -1       821 1.98956E-05 2.32779E-06 0.00000E+00
 -1       822 1.98214E-05 2.85142E-06 0.00000E+00
 -1       823 1.97473E-05 3.46077E-06 0.00000E+00
 -1       824 1.96725E-05 4.14594E-06 8.27181E-25
 -1       825 1.95975E-05 4.89698E-06 0.00000E+00
 -1       826 1.95224E-05 5.70389E-06 8.27181E-25
 -1       827 1.94472E-05 6.55664E-06 0.00000E+00
 -1       828 1.93719E-05 7.44517E-06 8.27181E-25
 -1       829 1.92967E-05 8.35939E-06 0.00000E+00
 -1       830 1.92214E-05 9.28918E-06-8.27181E-25
 -1       831 1.91462E-05 1.02244E-05 1.65436E-24
 -1       832 1.90710E-05 1.11550E-05 0.00000E+00
 -1       833 1.89959E-05 1.20708E-05-1.65436E-24
 -1       834 1.89214E-05 1.29617E-05 0.00000E+00
 -1       835 1.88469E-05 1.38176E-05 8.27181E-25
 -1       836 1.94404E-05 2.08968E-06 0.00000E+00
 -1       837 1.87152E-05 2.28640E-06 0.00000E+00
 -1       838 1.78861E-05 2.48269E-06 0.00000E+00
 -1       839 1.70493E-05 2.67855E-06 0.00000E+00
 -1       840 1.63012E-05 2.87483E-06 1.65436E-24
 -1       841 1.97896E-05 2.32157E-06 0.00000E+00
 -1       842 1.95731E-05 2.84638E-06 0.00000E+00
 -1       843 1.93218E-05 3.46421E-06 0.00000E+00
 -1       844 1.90393E-05 4.16422E-06 2.06795E-25
 -1       845 1.87301E-05 4.93499E-06 0.00000E+00
 -1       846 1.83987E-05 5.76490E-06-2.06795E-25
 -1       847 1.80496E-05 6.64178E-06 0.00000E+00
 -1       848 1.76874E-05 7.55338E-06-2.06795E-25
 -1       849 1.73169E-05 8.48712E-06 4.13590E-25
 -1       850 1.69428E-05 9.43037E-06 2.06795E-25
 -1       851 1.65699E-05 1.03704E-05 0.00000E+00
 -1       852 1.62029E-05 1.12946E-05 0.00000E+00
 -1       853 1.58467E-05 1.21902E-05 8.27181E-25
 -1       854 1.55057E-05 1.30449E-05 0.00000E+00
 -1       855 1.51847E-05 1.38465E-05 8.27181E-25
 -1       856 1.86930E-05 1.55002E-05 8.27181E-25
 -1       857 1.86061E-05 1.65285E-05 8.27181E-25
 -1       858 1.85192E-05 1.76931E-05 0.00000E+00
 -1       859 1.84315E-05 1.89735E-05 0.00000E+00
 -1       860 1.83436E-05 2.03491E-05 0.00000E+00
 -1       861 1.82555E-05 2.17993E-05 0.00000E+00
 -1       862 1.81673E-05 2.33034E-05 0.00000E+00
 -1       863 1.80790E-05 2.48406E-05 1.65436E-24
 -1       864 1.79907E-05 2.63903E-05 0.00000E+00
 -1       865 1.79024E-05 2.79315E-05 0.00000E+00
 -1       866 1.78142E-05 2.94435E-05 0.00000E+00
 -1       867 1.77261E-05 3.09056E-05-1.65436E-24
 -1       868 1.76381E-05 3.22971E-05 0.00000E+00
 -1       869 1.75507E-05 3.35972E-05-8.27181E-25
 -1       870 1.74634E-05 3.47855E-05 0.00000E+00
 -1       871 1.80700E-05 1.46219E-05 0.00000E+00
 -1       872 1.74089E-05 1.46147E-05-4.13590E-25
 -1       873 1.67765E-05 1.46074E-05 0.00000E+00
 -1       874 1.61563E-05 1.45998E-05 2.06795E-25
 -1       875 1.55320E-05 1.45919E-05 8.27181E-25
 -1       876 1.85643E-05 1.55288E-05 1.65436E-24
 -1       877 1.83070E-05 1.65652E-05 0.00000E+00
 -1       878 1.80055E-05 1.77186E-05-3.30872E-24
 -1       879 1.76673E-05 1.89718E-05-1.65436E-24
 -1       880 1.72981E-05 2.03075E-05 0.00000E+00
 -1       881 1.69044E-05 2.17085E-05 0.00000E+00
 -1       882 1.64926E-05 2.31578E-05 0.00000E+00
 -1       883 1.60690E-05 2.46385E-05 1.65436E-24
 -1       884 1.56399E-05 2.61336E-05 0.00000E+00
 -1       885 1.52118E-05 2.76261E-05 0.00000E+00
 -1       886 1.47910E-05 2.90993E-05-3.30872E-24
 -1       887 1.43837E-05 3.05361E-05 0.00000E+00
 -1       888 1.39963E-05 3.19196E-05 3.30872E-24
 -1       889 1.36346E-05 3.32324E-05-1.65436E-24
 -1       890 1.33060E-05 3.44578E-05 1.65436E-24
 -1       891 1.65244E-05 3.57975E-05 0.00000E+00
 -1       892 1.58343E-05 3.57530E-05 0.00000E+00
 -1       893 1.52231E-05 3.57086E-05 0.00000E+00
 -1       894 1.46057E-05 3.56643E-05 0.00000E+00
 -1       895 1.38967E-05 3.56199E-05-8.27181E-25
 -1       896 1.82431E-07 6.70140E-07 0.00000E+00
 -1       897 3.66465E-07 1.11052E-06-3.30872E-24
 -1       898 5.50471E-07 1.36744E-06 0.00000E+00
 -1       899 7.34781E-07 1.48581E-06-3.30872E-24
 -1       900 9.19104E-07 1.49681E-06 0.00000E+00
 -1       901 1.10348E-06 1.43080E-06 0.00000E+00
 -1       902 1.28786E-06 1.31047E-06 0.00000E+00
 -1       903 1.47223E-06 1.15815E-06-3.30872E-24
 -1       904 1.65659E-06 9.92948E-07 6.61744E-24
 -1       905 1.84091E-06 8.33896E-07 0.00000E+00
 -1       906 2.02521E-06 7.00634E-07-6.61744E-24
 -1       907 2.20928E-06 6.12994E-07 3.30872E-24
 -1       908 2.39332E-06 5.95336E-07 0.00000E+00
 -1       909 2.57623E-06 6.72551E-07 0.00000E+00
 -1       910 2.75950E-06 8.78929E-07 3.30872E-24
 -1       911 2.99186E-06 1.59954E-06 0.00000E+00
 -1       912 3.04781E-06 1.74221E-06 8.27181E-25
 -1       913 3.10373E-06 1.70953E-06 0.00000E+00
 -1       914 3.15977E-06 1.53288E-06 0.00000E+00
 -1       915 3.21580E-06 1.23936E-06 1.65436E-24
 -1       916 3.27182E-06 8.55849E-07 0.00000E+00
 -1       917 3.32782E-06 4.06534E-07-1.65436E-24
 -1       918 3.38380E-06-8.45455E-08 0.00000E+00
 -1       919 3.43975E-06-5.94575E-07 0.00000E+00
 -1       920 3.49566E-06-1.10078E-06-8.27181E-25
 -1       921 3.55155E-06-1.58030E-06-1.65436E-24
 -1       922 3.60722E-06-2.01017E-06 0.00000E+00
 -1       923 3.66289E-06-2.36600E-06 0.00000E+00
 -1       924 3.71738E-06-2.62321E-06 0.00000E+00
 -1       925 3.77230E-06-2.75433E-06-8.27181E-25
 -1       926 3.58834E-06-2.61965E-06 6.61744E-24
 -1       927 3.35014E-06-2.48581E-06 0.00000E+00
 -1       928 3.11229E-06-2.33064E-06 0.00000E+00
 -1       929 2.87337E-06-2.15492E-06 0.00000E+00
 -1       930 2.63442E-06-1.96193E-06 6.61744E-24
 -1       931 2.39525E-06-1.75508E-06 0.00000E+00
 -1       932 2.15605E-06-1.53946E-06 0.00000E+00
 -1       933 1.91680E-06-1.32024E-06 3.30872E-24
 -1       934 1.67755E-06-1.10304E-06-6.61744E-24
 -1       935 1.43826E-06-8.93436E-07 0.00000E+00
 -1       936 1.19898E-06-6.96102E-07-6.61744E-24
 -1       937 9.59631E-07-5.15596E-07 0.00000E+00
 -1       938 7.20277E-07-3.54448E-07 0.00000E+00
 -1       939 4.80633E-07-2.15007E-07 0.00000E+00
 -1       940 2.41091E-07-9.70145E-08 0.00000E+00
 -1       941 9.32998E-07 1.01530E-07 0.00000E+00
 -1       942 1.91731E-06 2.31172E-07 0.00000E+00
 -1       943 2.89842E-06 3.79190E-07 0.00000E+00
 -1       944 3.88924E-06 5.36628E-07 1.32349E-23
 -1       945 4.88036E-06 7.00351E-07-2.64698E-23
 -1       946 5.87342E-06 8.67490E-07 0.00000E+00
 -1       947 6.86671E-06 1.03730E-06-2.64698E-23
 -1       948 7.86033E-06 1.20913E-06 0.00000E+00
 -1       949 8.85397E-06 1.38361E-06 0.00000E+00
 -1       950 9.84737E-06 1.56147E-06-1.32349E-23
 -1       951 1.08406E-05 1.74555E-06 0.00000E+00
 -1       952 1.18323E-05 1.93893E-06-1.32349E-23
 -1       953 1.28237E-05 2.15048E-06 0.00000E+00
 -1       954 1.38072E-05 2.38984E-06 0.00000E+00
 -1       955 1.47933E-05 2.68385E-06-1.32349E-23
 -1       956 1.56858E-05 3.53531E-06-1.24077E-24
 -1       957 1.56328E-05 4.07102E-06 5.16988E-26
 -1       958 1.55797E-05 4.66290E-06 6.20385E-25
 -1       959 1.55265E-05 5.30465E-06-4.13590E-25
 -1       960 1.54732E-05 5.98996E-06-1.24077E-24
 -1       961 1.54199E-05 6.71247E-06 4.13590E-25
 -1       962 1.53665E-05 7.46581E-06 1.65436E-24
 -1       963 1.53131E-05 8.24362E-06-8.27181E-25
 -1       964 1.52597E-05 9.03952E-06 0.00000E+00
 -1       965 1.52063E-05 9.84714E-06-8.27181E-25
 -1       966 1.51529E-05 1.06601E-05-1.65436E-24
 -1       967 1.50995E-05 1.14720E-05 0.00000E+00
 -1       968 1.50462E-05 1.22766E-05 0.00000E+00
 -1       969 1.49929E-05 1.30674E-05-8.27181E-25
 -1       970 1.49398E-05 1.38381E-05 0.00000E+00
 -1       971 1.47738E-05 1.53852E-05-3.30872E-24
 -1       972 1.46567E-05 1.63523E-05 0.00000E+00
 -1       973 1.45396E-05 1.74638E-05-3.30872E-24
 -1       974 1.44218E-05 1.86990E-05 1.65436E-24
 -1       975 1.43039E-05 2.00372E-05 3.30872E-24
 -1       976 1.41857E-05 2.14577E-05 0.00000E+00
 -1       977 1.40675E-05 2.29396E-05 3.30872E-24
 -1       978 1.39491E-05 2.44619E-05 1.65436E-24
 -1       979 1.38307E-05 2.60036E-05 0.00000E+00
 -1       980 1.37124E-05 2.75437E-05 0.00000E+00
 -1       981 1.35941E-05 2.90612E-05 3.30872E-24
 -1       982 1.34760E-05 3.05350E-05 1.65436E-24
 -1       983 1.33581E-05 3.19443E-05 3.30872E-24
 -1       984 1.32410E-05 3.32682E-05 1.65436E-24
 -1       985 1.31239E-05 3.44857E-05 1.65436E-24
 -3
    1PSTEP                        10           5           1          
  100CL  105 4.21875E-01         841                     0    5           1
 -4  STRESS      6    1
 -5  SXX         1    4    1    1
 -5  SYY         1    4    2    2
 -5  SZZ         1    4    3    3
 -5  SXY         1    4    1    2
 -5  SYZ         1    4    2    3
 -5  SZX         1    4    3    1
 -1         1-1.70360E+06-5.44055E+05-3.47018E+05-4.89049E+05-1.50370E-10-1.69287E-09
 -1         2-1.08178E+06-5.05069E+04 1.67661E+03-1.10028E+05-6.68251E-10-2.15596E-09
 -1         3-5.59772E+05-2.02104E+05-9.60055E+03-4.68418E+04-5.22164E-10-1.19451E-09
 -1         4-2.75492E+05-5.63764E+04 4.13733E+02-2.81473E+04 1.58380E-10-1.54662E-09
 -1         5-1.33650E+05 9.84089E+04-7.29442E+04-5.44444E+03 3.05226E-09 1.54131E-09
 -1         8-9.17440E+05-3.67706E+05-1.39546E+05-3.52465E+05-3.63798E-12 1.38971E-09
 -1         9-9.87761E+05-2.16513E+05-1.25381E+05-2.28362E+05 1.01257E-10 9.74978E-10
 -1        10-5.03959E+05-2.91541E+05-1.49950E+04-1.26055E+05-9.75585E-10 1.78261E-10
 -1        11-2.86810E+05-8.71684E+04 3.18458E+02-6.57099E+04 1.05085E-09 5.61120E-10
 -1        12-1.74450E+05 7.97799E+04-8.35987E+04-2.98145E+04 3.56283E-09 2.19607E-10
 -1        15 7.37627E+03-3.57010E+04 1.92820E+03-7.90477E+04 6.57565E-10-3.47427E-10
 -1        16-5.47319E+05-1.05549E+05 6.90971E+03-2.51955E+05 9.63458E-10 1.05380E-09
 -1        17-3.42906E+05-2.37303E+05-3.97334E+04-1.89551E+05-7.23351E-10 7.44573E-10
 -1        18-1.62834E+05-8.75626E+04-6.21331E+04-1.01533E+05-6.06481E-10 6.06330E-10
 -1        19-3.43301E+04 4.87265E+04-3.48323E+04-3.17145E+04 4.93704E-10-8.49165E-10
 -1        20 6.30586E+04-4.56056E+04-7.27693E+03 3.32011E+04 7.54108E-09-1.15233E-09
 -1        21-9.34138E+02-9.43643E+04 2.10770E+04 4.80293E+02 1.12299E-08 6.48772E-11
 -1        22 1.81601E+04 1.04282E+05 6.62925E+02-2.25034E+04 3.63798E-12 5.09317E-11
 -1        23-2.02747E+05-1.64115E+03 2.26752E+03-1.03561E+05 1.33847E-10-3.94114E-11
 -1        24-1.23395E+05 1.30274E+04 1.34733E+05-2.49268E+05-2.66785E-09-3.68649E-10
 -1        25 3.10047E+05 1.13040E+05 9.96229E+04-1.61437E+05 7.16227E-10-5.13258E-10
 -1        26 2.29167E+03 1.10101E+05 6.21055E+03-2.21330E+04-4.41181E-10 2.18582E-10
 -1        27-2.68659E+04-3.96963E+04-1.72013E+04 4.33198E+04 5.49759E-09-9.31626E-10
 -1        28-8.30575E+03-7.25819E+04-4.50270E+02 3.46521E+04 3.46517E-09 3.86239E-10
 -1        29 2.52872E+05 1.73466E+05 7.13985E+02-4.24260E+03-1.52858E-10 1.15233E-09
 -1        30 8.52211E+04 2.48908E+04 1.05227E+03-2.68360E+04 3.07734E-10 4.92946E-10
 -1        31-2.98867E+05 2.45870E+04 2.41097E+03-6.31612E+04-7.00374E-10 1.52431E-09
 -1        32 3.92553E+05 2.42078E+05 2.85039E+05-2.41541E+05 2.79445E-09 2.12094E-09
 -1        33 6.88169E+05 3.14118E+05 2.20609E+05-3.15661E+04-6.66106E-09-2.72394E-10
 -1        34-1.28188E+05-1.99123E+04-7.68445E+03 2.07191E+04-4.78590E-10-5.17957E-10
 -1        35-1.96197E+04-2.39102E+04-4.48945E+02 5.10242E+04 5.65380E-09 2.23736E-09
 -1        36-2.33211E+06 6.98447E+04-1.63444E+05 1.13785E-07-4.75845E-10-2.81580E-09
 -1        37-2.40254E+06-8.09143E+04-1.15353E+05 6.05201E-08-4.40871E-10-4.41651E-09
 -1        38-2.35936E+06 1.08185E+04-4.23019E+04 9.83852E-09-8.59521E-10 2.59206E-09
 -1        39-2.37076E+06-1.25270E+04-2.64876E+04-4.95918E-08-9.77394E-11-2.16460E-09
 -1        40-2.36379E+06 1.67217E+03-1.08633E+04-1.24363E-07-7.18070E-10 2.59479E-09
 -1        41-2.36556E+06-1.95802E+03-6.45294E+03 5.65335E-08-1.69226E-09 4.83215E-09
 -1        42-2.36452E+06 2.81121E+02-3.15665E+03-2.88705E-08-1.88023E-09 2.02988E-09
 -1        43-2.36479E+06-4.90009E+02-2.47400E+03 1.62299E-08 3.34602E-10 2.32144E-09
 -1        44-2.36456E+06 2.08069E+02-2.47280E+03 2.43318E-09 1.96680E-10 1.08622E-09
 -1        45-2.36521E+06-1.32321E+03-4.48077E+03-1.63167E-08 2.00275E-10 2.32291E-09
 -1        46-2.36409E+06 1.11199E+03-7.29787E+03-1.09312E-07 3.66165E-10 3.33330E-09
 -1        47-2.36864E+06-8.30998E+03-1.76126E+04-2.38909E-08-8.82532E-10 2.36264E-09
 -1        48-2.36115E+06 7.17379E+03-2.80741E+04 5.59521E-08-5.47610E-10-3.31056E-10
 -1        49-2.38972E+06-5.36529E+04-7.65001E+04-2.63133E-08-1.74490E-09-1.64437E-09
 -1        50-2.34310E+06 4.63096E+04-1.08406E+05 1.15599E-07-2.09036E-09 2.29920E-09
 -1        51 1.98205E+04-2.22671E+05 3.22835E+04-6.02473E+05-8.73115E-11 7.28323E-09
 -1        52 8.44234E+03-2.19132E+05 1.92934E+04-6.65783E+05 3.01952E-10 8.44011E-10
 -1        53 4.94921E+03-2.24671E+05 1.51025E+04-6.00877E+05 2.21917E-10-4.99858E-09
 -1        54 1.17110E+04-2.21910E+05 2.24077E+04-6.67508E+05 1.52795E-10-8.01811E-09
 -1        55 2.79437E+04-2.28905E+05 4.02125E+04-6.00618E+05 1.89175E-10-1.05683E-09
 -1        56-2.56026E+06-2.89829E+05-2.08178E+05-9.89891E+05 4.43833E-10 2.66300E-09
 -1        57-2.65532E+06-4.62114E+05-1.39662E+05-9.68645E+05 1.45883E-09 4.05089E-09
 -1        58-2.60067E+06-3.55558E+05-4.90270E+04-9.78564E+05 5.94810E-10 7.27596E-11
 -1        59-2.60877E+06-3.84598E+05-2.90672E+04-9.82152E+05-9.34051E-10-7.14726E-09
 -1        60-2.60629E+06-3.64736E+05-1.14634E+04-9.77296E+05 2.44881E-10-3.74621E-09
 -1        61-2.60261E+06-3.73487E+05-6.49054E+03-9.83247E+05-1.41557E-09 9.00940E-09
 -1        62-2.60673E+06-3.66344E+05-3.17308E+03-9.77570E+05 1.24146E-10 2.18114E-09
 -1        63-2.60273E+06-3.71256E+05-2.66883E+03-9.82306E+05-6.20787E-10 5.45981E-11
 -1        64-2.60615E+06-3.66937E+05-3.12598E+03-9.78241E+05 1.10890E-09 1.52966E-09
 -1        65-2.60485E+06-3.71164E+05-6.34551E+03-9.80626E+05 1.78886E-10 1.67915E-09
 -1        66-2.60462E+06-3.66474E+05-1.11954E+04-9.79236E+05-3.39696E-10 3.29237E-10
 -1        67-2.61285E+06-3.80002E+05-2.83627E+04-9.77261E+05-7.05768E-10 3.08182E-09
 -1        68-2.59823E+06-3.58420E+05-4.78455E+04-9.81504E+05-3.94721E-10 2.18643E-09
 -1        69-2.65978E+06-4.54136E+05-1.36276E+05-9.62365E+05 1.40062E-10 9.49512E-10
 -1        70-2.55820E+06-2.94884E+05-2.03144E+05-9.93241E+05-1.03319E-09 1.72440E-09
 -1        71-1.10428E+06-1.41671E+03 3.31793E+03-8.91081E-08-3.46909E-10-1.14892E-09
 -1        72-1.10275E+06 1.64134E+03 2.33706E+03-6.48268E-08 8.50115E-10-3.01713E-09
 -1        73-1.10373E+06-2.19291E+02 8.49995E+02-1.53149E-07-8.92730E-11 1.56342E-09
 -1        74-1.10340E+06 2.52681E+02 5.18262E+02 2.29908E-08 4.63807E-11 5.32540E-09
 -1        75-1.10364E+06-3.26383E+01 1.82783E+02 1.28548E-07-5.97766E-10 8.04619E-10
 -1        76-1.10351E+06 2.97604E+01 5.00370E+01 1.38030E-07 3.46845E-11 2.36686E-09
 -1        77-1.10362E+06 2.97167E+00-8.82990E+01 2.57539E-08 3.80381E-10 9.95385E-10
 -1        78-1.10356E+06-5.61639E+01-2.84287E+02 1.31140E-08 1.92402E-10-3.09126E-09
 -1        79-1.10359E+06 5.30984E+01-5.58607E+02-5.02546E-08 1.87839E-13-2.03875E-09
 -1        80-1.10375E+06-4.05846E+02-1.30563E+03-9.25114E-08 3.37784E-10-1.39224E-09
 -1        81-1.10343E+06 3.51743E+02-2.26817E+03 2.83227E-09 3.73573E-10 1.00272E-09
 -1        82-1.10485E+06-2.64088E+03-5.57877E+03 7.99242E-08 1.16802E-09 2.45154E-09
 -1        83-1.10250E+06 2.28138E+03-8.92584E+03 2.20410E-08 7.78775E-10-2.03954E-09
 -1        84-1.11155E+06-1.70640E+04-2.43382E+04 1.09496E-08 2.65362E-10 4.54747E-11
 -1        85-1.09675E+06 1.47277E+04-3.45019E+04 4.45582E-08-7.40567E-10 2.28465E-09
 -1        86-5.41028E+04 2.48864E+05 1.28959E+05 1.09732E+03 7.20320E-10-5.57918E-10
 -1        87 6.75475E+04 3.06243E+05 9.96753E+04-5.04833E+03 1.20781E-09 2.67511E-09
 -1        88-1.32211E+04 2.67708E+05 5.11477E+04 6.86973E+02 1.40608E-09-1.93725E-09
 -1        89 4.66454E+04 2.96438E+05 7.22155E+04-4.42119E+03 2.10275E-09-1.55211E-09
 -1        90-3.32678E+04 2.58651E+05 8.15961E+04 4.70354E+02 1.78625E-09-1.22436E-09
 -1        91-1.18048E+06-1.55694E+05-1.75075E+04-4.40463E+05 5.09363E-09-6.74208E-09
 -1        92-1.17194E+06-1.85514E+05-1.15774E+04-4.53728E+05 1.42077E-07-5.56829E-08
 -1        93-1.18754E+06-1.56929E+05-4.07911E+03-4.33668E+05 1.31711E-05-4.87351E-06
 -1        94-1.16427E+06-1.83441E+05-2.46201E+03-4.60992E+05 2.60580E-05-9.63178E-06
 -1        95-1.18823E+06-1.57679E+05-9.93171E+02-4.33270E+05 1.31649E-05-4.87532E-06
 -1        96-1.16680E+06-1.78058E+05-3.44248E+02-4.56019E+05 1.53199E-07-4.93955E-08
 -1        97-1.18493E+06-1.62370E+05-6.26637E+02-4.38582E+05 7.52232E-09-1.37595E-09
 -1        98-1.17636E+06-1.66963E+05 6.15358E+01-4.43135E+05-1.88447E-09 2.72757E-09
 -1        99-1.17857E+06-1.68847E+05-1.00477E+03-4.46080E+05 1.76942E-09-2.86889E-10
 -1       100-1.18909E+06-1.56042E+05-1.31904E+03-4.30190E+05-1.17235E-08 5.34692E-09
 -1       101-1.17227E+06-1.73238E+05-2.92049E+03-4.51580E+05 1.68303E-09-1.52522E-09
 -1       102-1.19825E+06-1.53713E+05-7.58196E+03-4.23395E+05-1.43586E-10 5.99903E-09
 -1       103-1.16952E+06-1.71107E+05-1.23024E+04-4.52952E+05-4.65252E-09 3.78850E-09
 -1       104-1.20676E+06-1.78280E+05-3.60625E+04-4.22569E+05-5.09112E-09 4.75438E-09
 -1       105-1.16374E+06-1.48777E+05-5.27128E+04-4.52346E+05-5.66615E-09 5.85715E-10
 -1       106-5.85206E+05-4.95278E+03 1.16063E+04 4.91035E-09-7.46918E-10 2.29193E-10
 -1       107-5.80142E+05 5.73866E+03 8.18436E+03-1.08428E-07 1.93059E-10 6.10271E-10
 -1       108-5.83272E+05-7.67125E+02 2.99802E+03-5.80881E-08-3.79650E-11 1.26158E-09
 -1       109-5.82396E+05 8.87317E+02 1.86581E+03 1.33399E-08-2.14489E-10 3.73944E-10
 -1       110-5.82956E+05-1.17563E+02 7.41673E+02 7.60709E-08-3.81998E-10 1.39184E-09
 -1       111-5.82769E+05 1.30813E+02 3.93140E+02 1.89038E-08-2.59847E-10 1.79068E-09
 -1       112-5.82900E+05-1.29149E+01 1.01046E+02 1.71053E-08-1.08758E-10 1.94879E-09
 -1       113-5.82852E+05-1.87772E+01-9.51446E+01 2.20824E-08 3.25641E-10 2.18538E-09
 -1       114-5.82873E+05 3.16610E+01-3.17551E+02-5.76603E-09-3.49488E-10-2.71712E-11
 -1       115-5.82980E+05-2.56547E+02-8.13244E+02-5.63371E-08-3.78630E-10-4.13520E-09
 -1       116-5.82771E+05 2.24246E+02-1.43939E+03-6.28574E-09-2.86550E-10-1.22833E-09
 -1       117-5.83683E+05-1.68575E+03-3.55844E+03 1.01103E-10-3.27184E-10-1.72139E-09
 -1       118-5.82171E+05 1.45653E+03-5.69911E+03-8.82825E-09-3.98093E-10-3.90037E-09
 -1       119-5.87961E+05-1.08947E+04-1.55413E+04 2.35377E-08-3.84700E-10 9.39508E-10
 -1       120-5.78498E+05 9.40301E+03-2.20323E+04 3.84887E-08-1.15158E-10 2.59115E-09
 -1       121-7.31833E+02-6.82329E+05 3.11498E+03 6.34592E+03-1.98042E-10 9.86893E-09
 -1       122 1.06245E+03-6.81074E+05 2.38059E+03 2.77977E+04-1.32786E-10 1.31795E-08
 -1       123-1.82488E+02-6.81938E+05 1.65343E+03 6.43194E+03-9.22171E-10 7.26686E-09
 -1       124 1.22054E+03-6.80902E+05 2.69474E+03 2.75123E+04-5.47061E-10-2.01021E-09
 -1       125-9.18370E+02-6.82415E+05 3.68429E+03 6.63141E+03-2.37515E-09-4.04725E-11
 -1       126-5.59063E+05-8.10055E+04 6.56458E+03-2.08322E+05 2.81830E-10 1.04228E-09
 -1       127-5.54874E+05-7.57080E+04 4.54485E+03-2.10207E+05 1.59162E-10 2.48446E-09
 -1       128-5.57821E+05-7.85692E+04 1.53553E+03-2.08652E+05 3.18948E-10 5.98732E-10
 -1       129-5.56318E+05-7.85321E+04 9.49761E+02-2.09827E+05-1.31450E-10-3.63053E-09
 -1       130-5.57622E+05-7.81888E+04 3.42184E+02-2.08699E+05-5.70147E-10-5.08254E-09
 -1       131-5.56623E+05-7.89066E+04 1.72842E+02-2.09691E+05 2.55087E-10-1.46230E-09
 -1       132-5.57517E+05-7.81959E+04 1.94715E+01-2.08787E+05 1.27860E-10-3.97200E-10
 -1       133-5.56887E+05-7.88012E+04-1.02918E+02-2.09440E+05-1.90781E-10 1.69990E-10
 -1       134-5.57357E+05-7.82947E+04-2.53851E+02-2.08950E+05 1.56953E-10-3.76005E-10
 -1       135-5.57327E+05-7.87279E+04-6.70612E+02-2.09058E+05 9.93960E-10-1.36657E-09
 -1       136-5.57077E+05-7.82698E+04-1.18030E+03-2.09169E+05 9.91207E-11-2.24259E-09
 -1       137-5.58468E+05-7.98195E+04-3.17515E+03-2.08452E+05-1.09225E-09 2.47650E-09
 -1       138-5.56217E+05-7.72067E+04-5.11123E+03-2.09555E+05-1.29262E-10 6.70525E-10
 -1       139-5.63865E+05-8.85883E+04-1.50990E+04-2.06492E+05 7.31006E-10 1.40790E-09
 -1       140-5.51688E+05-6.95254E+04-2.18081E+04-2.11122E+05-2.95586E-11 1.83445E-09
 -1       141-2.52647E+05-3.12653E+03 7.32552E+03 1.17877E-08 3.28453E-10 2.15550E-10
 -1       142-2.49460E+05 3.62241E+03 5.16258E+03 2.78990E-08-7.00805E-11 1.56530E-09
 -1       143-2.51424E+05-4.84079E+02 1.88355E+03-5.45365E-08 6.80411E-11 2.10525E-09
 -1       144-2.50884E+05 5.58644E+02 1.15796E+03-1.70620E-08-1.47698E-10-1.40533E-09
 -1       145-2.51224E+05-7.29004E+01 4.29510E+02 1.82418E-08 5.15262E-11 1.06951E-10
 -1       146-2.51125E+05 7.24091E+01 1.65309E+02-8.66315E-09-2.59188E-10-3.74222E-10
 -1       147-2.51183E+05 7.00144E-01-9.21420E+01-4.01474E-08 3.26755E-11-1.84082E-09
 -1       148-2.51212E+05-7.93155E+01-4.02154E+02-3.73352E-08 1.58239E-10 2.24901E-10
 -1       149-2.51137E+05 7.84825E+01-8.22993E+02 1.37823E-08-2.90667E-10 7.02016E-11
 -1       150-2.51494E+05-6.03510E+02-1.94072E+03 1.29698E-08-3.01390E-10-1.15512E-09
 -1       151-2.50902E+05 5.23540E+02-3.37799E+03 7.19862E-08-8.99909E-11 1.32718E-09
 -1       152-2.53129E+05-3.93115E+03-8.30977E+03 6.37411E-08 9.84962E-11-1.38800E-09
 -1       153-2.49502E+05 3.39606E+03-1.32962E+04-4.45838E-08 8.80407E-10-2.18279E-11
 -1       154-2.63101E+05-2.54015E+04-3.62419E+04 3.49138E-08 1.44545E-10-4.09273E-12
 -1       155-2.40931E+05 2.19238E+04-5.13687E+04-4.15881E-08 1.89520E-09 1.41881E-09
 -1       156-7.47705E+03-1.44209E+05 1.81185E+04-6.32335E+02-4.54747E-12 7.61096E-10
 -1       157 1.00049E+04-1.35943E+05 1.52067E+04 2.77536E+03 3.17186E-11-8.74438E-10
 -1       158-2.49568E+03-1.41940E+05 9.65362E+03-6.12356E+02 1.90994E-11 2.19055E-09
 -1       159 1.15516E+04-1.35205E+05 1.72400E+04 2.67699E+03 2.68074E-10 2.35567E-09
 -1       160-9.01982E+03-1.44944E+05 2.16169E+04-5.33948E+02 2.67391E-10 3.03203E-10
 -1       161-3.10738E+05-4.29526E+04-1.75205E+03-1.16736E+05 7.15829E-10-6.99401E-10
 -1       162-3.11328E+05-4.48431E+04-1.21592E+03-1.16772E+05 8.69214E-10 2.35730E-10
 -1       163-3.11105E+05-4.35648E+04-4.18653E+02-1.16605E+05 3.43569E-10-9.49939E-10
 -1       164-3.10911E+05-4.41268E+04-2.73937E+02-1.16912E+05 7.66676E-12 1.52814E-09
 -1       165-3.11154E+05-4.36670E+04-1.31982E+02-1.16596E+05 5.02512E-10 2.33383E-09
 -1       166-3.10883E+05-4.39993E+04-1.39736E+02-1.16898E+05-3.48521E-12-2.11315E-11
 -1       167-3.11133E+05-4.36921E+04-1.84006E+02-1.16620E+05 1.77597E-10 1.81985E-09
 -1       168-3.10985E+05-4.40146E+04-3.98585E+02-1.16825E+05 9.39675E-11 2.30813E-10
 -1       169-3.11052E+05-4.36518E+04-7.14349E+02-1.16669E+05 2.34266E-11-7.96376E-11
 -1       170-3.11408E+05-4.45035E+04-1.77984E+03-1.16646E+05-2.21092E-10-2.10429E-09
 -1       171-3.10710E+05-4.32045E+04-3.08779E+03-1.16799E+05 2.68471E-10-2.25782E-10
 -1       172-3.13650E+05-4.80706E+04-8.28623E+03-1.15898E+05-6.14449E-10 1.34150E-10
 -1       173-3.08813E+05-4.00939E+04-1.33261E+04-1.17413E+05 4.19959E-10 3.03771E-10
 -1       174-3.27154E+05-7.14736E+04-3.93581E+04-1.11418E+05 3.32852E-09 2.47928E-09
 -1       175-2.97217E+05-1.98638E+04-5.68340E+04-1.21257E+05 6.30280E-09-1.04046E-09
 -1       191 1.17719E+03 3.46723E+05 1.93881E+03-1.02561E+04-6.36646E-11-7.03949E-10
 -1       192 4.25342E+02 3.47012E+05 1.16216E+03-1.10468E+04-5.51609E-10 2.39561E-09
 -1       193 1.93448E+02 3.46816E+05 9.35973E+02-1.00970E+04-5.56497E-11 3.58341E-09
 -1       194 5.64620E+02 3.47050E+05 1.41683E+03-1.13418E+04-1.16552E-09-1.69530E-09
 -1       195 1.60966E+03 3.46659E+05 2.57175E+03-9.95983E+03 1.27329E-11-9.84983E-10
 -1       251-1.40225E+06 3.13055E+04-7.33485E+04-5.94890E+03-4.95135E-10-2.13186E-09
 -1       252-1.43377E+06-3.62499E+04-5.17387E+04 9.88265E+03-8.63416E-10 1.89175E-10
 -1       253-1.41457E+06 4.83828E+03-1.90145E+04-4.64915E+03-1.29296E-09-1.28875E-09
 -1       254-1.41924E+06-5.59804E+03-1.18366E+04 5.04299E+03 2.18890E-10-4.09273E-10
 -1       255-1.41671E+06 7.31319E+02-4.95660E+03-1.10923E+03 3.03658E-10-2.48292E-10
 -1       256-1.41683E+06-8.70039E+02-2.87278E+03-2.47934E+03 1.48702E-09-5.39728E-10
 -1       257-1.41697E+06 1.18025E+02-1.56091E+03 2.87327E+03-1.04762E-10-5.84009E-10
 -1       258-1.41677E+06-2.46067E+02-1.31079E+03-8.84579E+03 6.75243E-10 2.30714E-09
 -1       259-1.41680E+06 1.29003E+02-1.53684E+03 5.25733E+03-1.01494E-10-9.78218E-10
 -1       260-1.41723E+06-8.72233E+02-2.97829E+03-1.07947E+04 3.12994E-10-2.88111E-09
 -1       261-1.41651E+06 7.53278E+02-4.97215E+03 4.82225E+03 1.09668E-09-3.49701E-10
 -1       262-1.41936E+06-5.66811E+03-1.19968E+04-7.32434E+03-1.83647E-10-1.80535E-10
 -1       263-1.41467E+06 4.89271E+03-1.92733E+04 1.78685E+03 4.97948E-11 1.49794E-09
 -1       264-1.43359E+06-3.67049E+04-5.23015E+04-1.79846E+02-1.88862E-09 1.88811E-09
 -1       265-1.40229E+06 3.16750E+04-7.42964E+04-2.32230E+03-2.07143E-09 1.81171E-09
 -1       266-1.33879E+04-2.39229E+05 3.05256E+04 4.82767E+03-3.27418E-11-3.06966E-09
 -1       267 1.44544E+04-2.25427E+05 1.96484E+04-1.84304E+04 9.09495E-12 2.85070E-10
 -1       268-9.69459E+02-2.33010E+05 3.64258E+03 5.48654E+03-2.45564E-11-1.95817E-09
 -1       269-5.98565E+03-2.35376E+05-7.25623E+03-1.90184E+04 1.46429E-10 2.31067E-09
 -1       270 7.01462E+03-2.29326E+05-1.56485E+04 5.41572E+03 2.91038E-11 5.55576E-09
 -1       271-2.26752E+06-2.83204E+05-1.76850E+05-8.78012E+05-9.11314E-10-6.11180E-10
 -1       272-2.32735E+06-4.06340E+05-1.12362E+05-8.81090E+05-1.34378E-10-3.36331E-09
 -1       273-2.29928E+06-3.24584E+05-4.17367E+04-8.72067E+05-1.48020E-10-2.50111E-09
 -1       274-2.29043E+06-3.53853E+05-2.30963E+04-8.90811E+05 2.90129E-10-2.50566E-10
 -1       275-2.30350E+06-3.28639E+05-9.71986E+03-8.70978E+05 2.99451E-10-1.32786E-10
 -1       276-2.28543E+06-3.48905E+05-5.18248E+03-8.92609E+05 3.11957E-10 1.28603E-09
 -1       277-2.30428E+06-3.28810E+05-2.66155E+03-8.70582E+05-2.40334E-10 2.35968E-09
 -1       278-2.28462E+06-3.48726E+05-2.12861E+03-8.93137E+05 4.16776E-10 9.42279E-10
 -1       279-2.30435E+06-3.28738E+05-2.57691E+03-8.70503E+05 1.96323E-11 1.31524E-09
 -1       280-2.28516E+06-3.49144E+05-4.95547E+03-8.92950E+05 7.76936E-10-2.48360E-09
 -1       281-2.30373E+06-3.28447E+05-9.25003E+03-8.70743E+05 2.93312E-10 4.54293E-10
 -1       282-2.28972E+06-3.54066E+05-2.19803E+04-8.91506E+05 5.70253E-10 1.05047E-09
 -1       283-2.29983E+06-3.24487E+05-3.96968E+04-8.71669E+05-8.07631E-10-1.34605E-09
 -1       284-2.32466E+06-4.04183E+05-1.06891E+05-8.82481E+05-4.05407E-10-3.17050E-09
 -1       285-2.26970E+06-2.85034E+05-1.68228E+05-8.77225E+05 5.76620E-10-2.13913E-09
 -1       286-3.99620E+05-6.88583E+03 1.60972E+04-3.45681E+02 1.29137E-09-1.80898E-09
 -1       287-3.92381E+05 7.97288E+03 1.14017E+04-1.38480E+03 2.24475E-10-2.84422E-09
 -1       288-3.96917E+05-1.06919E+03 4.16326E+03 3.27740E+02 3.52287E-10 5.36375E-10
 -1       289-3.95561E+05 1.23541E+03 2.64315E+03-2.61566E+03 1.26292E-10 2.30366E-09
 -1       290-3.96448E+05-1.67071E+02 1.08387E+03 8.85208E+02 2.90186E-11-3.81760E-10
 -1       291-3.96135E+05 2.00361E+02 6.85585E+02-3.52531E+03 3.53481E-10-2.36653E-10
 -1       292-3.96350E+05-3.26946E+01 3.85615E+02 1.23741E+03 1.14019E-09 2.82161E-09
 -1       293-3.96236E+05 8.49521E+01 4.10202E+02-3.97034E+03 3.28519E-10 4.12635E-10
 -1       294-3.96352E+05-4.91528E+01 5.44366E+02 1.33025E+03 1.04770E-09 1.39153E-09
 -1       295-3.96088E+05 3.46846E+02 1.13201E+03-3.88232E+03 4.65263E-10 4.48269E-09
 -1       296-3.96496E+05-2.94477E+02 1.90589E+03 1.14939E+03 8.83361E-10 3.31931E-09
 -1       297-3.95124E+05 2.20120E+03 4.66814E+03-3.27520E+03 1.74873E-09-1.55256E-09
 -1       298-3.97310E+05-1.90153E+03 7.42778E+03 7.23112E+02 3.26594E-10-3.15140E-10
 -1       299-3.89482E+05 1.42066E+04 2.02884E+04-2.24861E+03-1.04880E-09 3.01407E-09
 -1       300-4.02126E+05-1.22644E+04 2.87096E+04 1.22763E+02-4.54094E-10 8.24002E-10
 -1       301 3.11005E+04 2.53434E+04 6.65216E+04-1.88139E+04-1.96087E-09 3.21108E-10
 -1       302 1.04733E+04 3.76649E+04 3.99322E+04-2.19992E+04-5.95719E-11-2.47846E-09
 -1       303 2.94163E+03 2.97782E+04 3.08190E+04-1.88421E+04-1.82672E-09-1.54375E-09
 -1       304 1.21985E+04 3.86507E+04 4.44450E+04-2.19794E+04-2.91038E-10-1.50021E-09
 -1       305 3.67161E+04 2.43637E+04 7.74922E+04-1.88251E+04-1.92085E-09 1.77351E-11
 -1       306-1.62580E+06-2.07642E+05-1.13135E+05-6.29704E+05 2.77396E-10 2.91766E-09
 -1       307-1.65562E+06-2.94603E+05-7.18421E+04-6.41179E+05 6.13227E-10 1.72531E-09
 -1       308-1.64620E+06-2.33963E+05-2.67118E+04-6.25815E+05-9.82482E-10-4.76575E-10
 -1       309-1.63198E+06-2.61173E+05-1.47792E+04-6.47576E+05 4.54293E-10-2.66482E-10
 -1       310-1.64894E+06-2.36509E+05-6.23637E+03-6.25090E+05 1.91449E-10-3.72438E-10
 -1       311-1.62880E+06-2.58026E+05-3.34644E+03-6.48775E+05 1.01318E-09-2.86127E-09
 -1       312-1.64943E+06-2.36620E+05-1.76621E+03-6.24850E+05 2.08502E-10 1.33912E-09
 -1       313-1.62835E+06-2.57869E+05-1.50048E+03-6.49062E+05 5.16735E-10 3.86524E-09
 -1       314-1.64943E+06-2.36609E+05-1.92814E+03-6.24844E+05-2.10207E-10 1.28080E-09
 -1       315-1.62885E+06-2.58112E+05-3.79869E+03-6.48797E+05 6.16183E-11 5.96060E-10
 -1       316-1.64890E+06-2.36435E+05-7.14366E+03-6.25076E+05 5.23414E-10-9.04947E-11
 -1       317-1.63242E+06-2.61836E+05-1.69836E+04-6.47555E+05 1.37868E-09 3.15595E-09
 -1       318-1.64582E+06-2.33434E+05-3.06978E+04-6.25833E+05 1.21076E-10 2.14823E-09
 -1       319-1.65946E+06-3.00443E+05-8.25978E+04-6.40416E+05-1.91449E-10 8.87667E-10
 -1       320-1.62247E+06-2.03055E+05-1.30044E+05-6.30185E+05-1.67347E-10 2.40107E-10
 -1       321-3.57132E+05-1.39855E+04 3.27717E+04-1.97079E+02-1.09588E-09-7.03949E-10
 -1       322-3.42888E+05 1.62035E+04 2.31253E+04-7.37059E+02-1.13434E-09-1.19007E-09
 -1       323-3.51665E+05-2.16707E+03 8.47895E+03 9.75436E+01-9.13758E-11 8.81300E-10
 -1       324-3.49261E+05 2.50761E+03 5.30894E+03-1.28280E+03 4.45446E-10 4.62933E-10
 -1       325-3.50766E+05-3.34528E+02 2.15949E+03 3.48705E+02-1.91591E-10-2.83876E-10
 -1       326-3.50319E+05 3.86921E+02 1.25533E+03-1.70081E+03-4.60929E-10-1.34906E-09
 -1       327-3.50610E+05-5.17487E+01 5.52986E+02 5.15556E+02-1.93083E-10-6.92808E-10
 -1       328-3.50503E+05 6.34805E+01 3.19741E+02-1.92739E+03-3.99893E-11-1.85375E-09
 -1       329-3.50583E+05-1.11713E+01 1.73286E+02 5.75292E+02-9.57512E-11 2.67760E-09
 -1       330-3.50522E+05 3.55396E+01 1.57340E+02-1.93150E+03-4.20357E-11 2.84288E-09
 -1       331-3.50591E+05-2.38308E+01 1.79584E+02 5.19668E+02 2.02263E-10 2.35999E-09
 -1       332-3.50446E+05 1.71274E+02 3.78708E+02-1.71254E+03 5.33745E-10 1.41124E-09
 -1       333-3.50658E+05-1.47216E+02 5.80095E+02 3.56325E+02-8.15561E-11-2.32609E-09
 -1       334-3.50000E+05 1.09741E+03 1.57347E+03-1.30036E+03 1.47907E-10-1.69996E-09
 -1       335-3.51035E+05-9.48009E+02 2.21457E+03 1.07481E+02-6.09731E-10-8.62428E-10
 -1       336-6.08118E+02-6.91055E+05 1.35358E+03-8.24762E+03-3.74621E-09-6.05723E-10
 -1       337 6.83229E+01-6.90741E+05-2.08730E+03-3.87981E+04-2.60310E-09-1.62515E-09
 -1       338 6.78700E+02-6.90141E+05-6.49008E+03-8.08474E+03-4.52383E-09-2.73212E-09
 -1       339-8.95469E+03-6.96064E+05-1.77359E+04-3.89623E+04-2.93312E-09 9.41100E-10
 -1       340 6.92099E+03-6.85807E+05-2.80295E+04-8.08517E+03-4.34738E-09 3.45460E-09
 -1       341-1.04696E+06-1.33598E+05-4.08524E+04-4.02480E+05 1.18416E-09-1.54614E-10
 -1       342-1.07399E+06-1.64987E+05-2.82764E+04-3.88881E+05 1.69518E-09 7.06677E-10
 -1       343-1.05470E+06-1.48667E+05-9.58454E+03-4.00322E+05 5.49335E-10-1.52204E-09
 -1       344-1.06422E+06-1.48223E+05-5.97576E+03-3.92151E+05 7.92284E-10-4.16549E-10
 -1       345-1.05670E+06-1.50316E+05-2.29589E+03-3.99220E+05-2.31907E-10-1.67756E-09
 -1       346-1.06050E+06-1.47682E+05-1.39931E+03-3.94943E+05 9.57428E-10-3.04681E-10
 -1       347-1.05841E+06-1.49207E+05-8.37148E+02-3.97525E+05 5.79462E-10-5.19861E-10
 -1       348-1.05734E+06-1.50432E+05-9.60895E+02-3.98409E+05 2.83194E-10-3.15229E-09
 -1       349-1.05985E+06-1.47566E+05-1.45610E+03-3.95753E+05 1.25908E-10-1.54569E-09
 -1       350-1.05565E+06-1.53867E+05-3.36721E+03-4.01061E+05-3.59012E-09-4.06288E-09
 -1       351-1.06011E+06-1.45769E+05-5.79320E+03-3.94879E+05-1.13926E-09-7.25322E-11
 -1       352-1.05908E+06-1.61344E+05-1.54969E+04-4.00608E+05 4.82305E-09-1.18030E-09
 -1       353-1.05644E+06-1.40105E+05-2.49183E+04-3.96206E+05 1.37970E-09-1.44519E-09
 -1       354-1.08557E+06-2.03787E+05-7.35778E+04-3.90682E+05 3.51793E-09-3.65617E-09
 -1       355-1.03366E+06-1.03449E+05-1.06290E+05-4.04768E+05 2.54840E-09-1.46974E-09
 -1       356-3.32015E+05-1.67751E+03 3.92555E+03-7.42433E+01 1.58167E-11 2.22371E-10
 -1       357-3.30270E+05 1.94284E+03 2.76709E+03-4.93287E+02-4.01432E-10 1.85943E-09
 -1       358-3.31357E+05-2.59704E+02 1.00131E+03 7.86765E+01-3.43107E-10-2.10377E-10
 -1       359-3.31039E+05 2.98312E+02 6.05991E+02-7.68677E+02 2.45421E-11-6.07542E-10
 -1       360-3.31247E+05-3.81031E+01 1.98292E+02 2.01154E+02-4.50378E-10-2.42238E-10
 -1       361-3.31178E+05 3.05888E+01 2.19689E+01-9.67271E+02-6.36851E-10-3.62530E-09
 -1       362-3.31219E+05 7.55939E+00-1.75876E+02 2.77274E+02 7.26601E-11-2.06457E-09
 -1       363-3.31256E+05-9.71218E+01-4.92751E+02-1.06321E+03 7.75338E-10 5.36239E-10
 -1       364-3.31170E+05 8.95255E+01-9.45637E+02 2.97095E+02 2.87467E-10 7.58519E-10
 -1       365-3.31568E+05-6.81448E+02-2.19698E+03-1.04414E+03-5.54319E-10-3.44869E-10
 -1       366-3.30907E+05 5.90332E+02-3.81236E+03 2.58199E+02 1.89793E-10 1.90630E-09
 -1       367-3.33408E+05-4.43184E+03-9.36861E+03-9.12011E+02 5.54518E-10-8.53788E-11
 -1       368-3.29331E+05 3.82833E+03-1.49897E+04 1.64968E+02 6.86342E-10-1.00044E-11
 -1       369-3.44645E+05-2.86354E+04-4.08536E+04-6.78459E+02-1.82084E-10-2.08320E-09
 -1       370-3.19672E+05 2.47147E+04-5.79076E+04 2.46664E+01 2.07886E-09 8.65839E-10
 -1       371-8.97497E+03-1.38658E+05 2.04675E+04 2.81020E+03 7.93079E-10-1.66966E-09
 -1       372 9.29156E+03-1.30014E+05 1.24036E+04-1.19476E+04 1.69598E-09-3.76437E-09
 -1       373-2.72950E+02-1.34527E+05 1.05598E+03 2.91780E+03 1.41245E-09-1.25951E-10
 -1       374-6.87859E+03-1.37495E+05-8.82064E+03-1.19003E+04 1.20258E-09 1.35213E-09
 -1       375 7.13926E+03-1.31176E+05-1.61709E+04 2.76281E+03 1.16233E-09 9.55481E-10
 -1       376-5.67206E+05-7.09627E+04-2.33161E+04-2.16982E+05 1.38380E-09 6.92125E-10
 -1       377-5.79429E+05-9.21268E+04-1.61452E+04-2.12929E+05 2.39402E-09 3.33807E-09
 -1       378-5.72116E+05-7.91036E+04-5.47583E+03-2.15226E+05 4.02338E-10 1.91358E-09
 -1       379-5.73613E+05-8.28109E+04-3.41966E+03-2.15089E+05-1.21986E-10 1.09253E-10
 -1       380-5.73014E+05-8.02523E+04-1.31181E+03-2.14831E+05 9.29106E-11 3.55385E-10
 -1       381-5.72523E+05-8.15506E+04-8.33772E+02-2.15607E+05 3.28308E-10-9.75668E-10
 -1       382-5.73204E+05-8.03599E+04-4.91976E+02-2.14708E+05-6.78797E-10 1.12449E-09
 -1       383-5.72383E+05-8.14978E+04-6.38546E+02-2.15712E+05-7.90781E-10 1.18163E-11
 -1       384-5.73155E+05-8.03047E+04-9.46969E+02-2.14727E+05 3.16462E-10 8.17863E-10
 -1       385-5.72896E+05-8.20625E+04-2.24108E+03-2.15482E+05 1.50706E-11 2.79678E-09
 -1       386-5.72691E+05-7.97969E+04-3.84741E+03-2.14937E+05 4.57590E-11 1.39653E-09
 -1       387-5.75818E+05-8.63447E+04-1.02954E+04-2.14390E+05-8.16669E-10-5.12739E-09
 -1       388-5.70238E+05-7.60343E+04-1.65508E+04-2.15816E+05 7.74662E-10-9.58607E-10
 -1       389-5.92814E+05-1.15188E+05-4.88795E+04-2.08568E+05 4.62387E-09-4.33238E-09
 -1       390-5.55714E+05-5.10318E+04-7.05817E+04-2.20734E+05 7.73070E-09-2.08820E-09
 -1       406 1.31001E+03 3.41456E+05 2.58625E+03-3.68857E+04 1.67347E-10 2.65482E-09
 -1       407 7.08964E+02 3.41904E+05 2.64652E+03-4.06870E+04-2.09639E-09 1.41972E-09
 -1       408 9.22652E+02 3.41433E+05 3.94931E+03-3.67640E+04 2.04636E-10 1.60935E-09
 -1       409 3.66272E+03 3.42926E+05 8.22121E+03-4.08465E+04-2.48019E-09-1.16324E-09
 -1       410 1.06105E+04 3.40380E+05 1.64305E+04-3.67184E+04-4.72937E-11-2.03681E-09
 -1       466 1.08543E+06-4.32385E+04 1.01117E+05 7.78982E+03 3.53225E-10-1.28784E-09
 -1       467 1.13086E+06 5.00326E+04 7.16406E+04-1.56525E+04 5.08152E-10 1.59889E-09
 -1       468 1.10292E+06-6.68159E+03 2.62304E+04 3.25239E+03 3.43505E-10-1.98634E-09
 -1       469 1.11043E+06 7.72731E+03 1.65201E+04-8.90652E+03 7.45999E-10-7.00311E-10
 -1       470 1.10582E+06-1.03207E+03 6.83947E+03 1.04417E+03 2.46899E-10-4.13820E-10
 -1       471 1.10705E+06 1.23084E+03 4.22137E+03-5.69982E+03 2.43261E-10-7.15431E-10
 -1       472 1.10629E+06-1.93504E+02 2.34761E+03 4.56439E+01-3.60643E-10 1.52278E-09
 -1       473 1.10662E+06 4.69930E+02 2.37916E+03-4.44039E+03 2.20373E-10-1.63158E-09
 -1       474 1.10625E+06-2.70477E+02 3.06634E+03-2.15282E+02-2.55693E-10 8.45944E-10
 -1       475 1.10737E+06 1.90006E+03 6.28222E+03-4.53475E+03 1.47879E-09-1.49919E-09
 -1       476 1.10553E+06-1.61993E+03 1.05823E+04 1.40009E+02 1.23778E-09-2.01862E-09
 -1       477 1.11246E+06 1.21464E+04 2.57775E+04-6.02983E+03 1.60128E-10 1.13141E-09
 -1       478 1.10116E+06-1.04886E+04 4.11477E+04 1.27983E+03 2.42125E-10 2.60115E-10
 -1       479 1.14349E+06 7.84694E+04 1.12090E+05-9.69563E+03 3.33429E-10-1.03682E-10
 -1       480 1.07449E+06-6.77272E+04 1.58830E+05 3.80544E+03 1.73162E-09-7.05768E-10
 -1       481-8.54126E+03 1.81529E+05 2.00290E+04-2.86190E+03-2.72848E-12 9.65827E-10
 -1       482 1.02269E+04 1.91199E+05 1.49468E+04 9.34782E+03-1.63709E-10 3.29511E-09
 -1       483-1.69057E+03 1.84917E+05 6.53497E+03-2.31209E+03-8.61746E-11 9.21432E-10
 -1       484 4.37478E+03 1.88107E+05 7.20624E+03 8.53898E+03 5.28644E-12-4.32422E-10
 -1       485-2.68469E+03 1.84587E+05 6.87859E+03-2.05301E+03 3.84262E-11-8.63281E-10
 -1       486-1.00871E+06-1.14374E+05-9.64449E+04-4.07397E+05 3.81988E-10-3.44517E-09
 -1       487-1.08445E+06-1.74356E+05-6.64238E+04-3.59828E+05 7.29415E-10 4.34557E-09
 -1       488-1.02476E+06-1.50873E+05-2.25379E+04-4.03445E+05-1.05410E-09 2.88037E-09
 -1       489-1.06137E+06-1.34969E+05-1.38479E+04-3.67514E+05-2.73599E-09 2.73576E-09
 -1       490-1.03174E+06-1.53661E+05-5.51238E+03-3.99734E+05-1.62620E-09 2.99792E-09
 -1       491-1.04578E+06-1.37870E+05-2.38260E+03-3.78335E+05-3.26327E-09 1.86287E-09
 -1       492-1.04015E+06-1.48099E+05-1.98010E+03-3.92476E+05-3.34808E-10 4.29736E-11
 -1       493-1.03078E+06-1.50834E+05-3.31742E+02-3.94107E+05-1.34810E-09-6.79620E-10
 -1       494-1.04669E+06-1.40730E+05-1.66276E+03-3.83927E+05 1.32150E-09-1.66320E-09
 -1       495-1.02205E+06-1.63344E+05-2.32257E+03-4.08136E+05 1.63254E-10-6.09515E-09
 -1       496-1.04907E+06-1.35455E+05-4.48839E+03-3.78587E+05 1.27216E-10-2.94040E-09
 -1       497-1.02285E+06-1.72257E+05-1.17912E+04-4.11789E+05-4.39559E-09-1.54023E-09
 -1       498-1.04600E+06-1.31759E+05-1.91640E+04-3.80345E+05-1.78238E-09 6.03541E-09
 -1       499-1.04616E+06-1.99286E+05-5.57578E+04-3.97660E+05-3.49246E-10 2.05728E-09
 -1       500-1.02564E+06-1.08633E+05-8.18221E+04-3.92575E+05 2.21007E-09 6.03904E-10
 -1       501-2.71162E+05-1.60569E+04 3.75733E+04 2.61294E+02 1.40614E-09 2.22462E-09
 -1       502-2.54537E+05 1.85964E+04 2.65682E+04-2.95998E+03 1.17909E-09 1.61890E-10
 -1       503-2.64844E+05-2.48973E+03 9.71609E+03 7.85122E+02 9.43317E-11-2.08502E-09
 -1       504-2.61945E+05 2.87991E+03 6.11255E+03-3.87654E+03-3.85327E-10-1.38880E-09
 -1       505-2.63770E+05-3.85407E+02 2.48123E+03 1.17792E+03 6.09759E-10-6.18343E-10
 -1       506-2.63229E+05 4.50924E+02 1.46211E+03-4.47820E+03 1.83902E-09-7.88987E-10
 -1       507-2.63569E+05-6.19614E+01 6.67939E+02 1.38679E+03 9.14596E-10 1.42094E-09
 -1       508-2.63455E+05 9.30789E+01 4.39823E+02-4.68950E+03-6.01989E-11-2.15251E-09
 -1       509-2.63547E+05-2.60888E+01 3.31036E+02 1.38922E+03 8.00028E-10 4.86315E-10
 -1       510-2.63400E+05 1.39336E+02 4.90787E+02-4.48764E+03 1.11896E-09 5.42713E-10
 -1       511-2.63621E+05-1.10375E+02 7.25831E+02 1.18492E+03 8.11099E-10 2.21701E-09
 -1       512-2.62982E+05 8.09826E+02 1.74665E+03-3.89354E+03 1.67688E-09 4.51564E-10
 -1       513-2.63957E+05-7.00657E+02 2.71661E+03 7.95110E+02 1.89232E-10 9.30982E-10
 -1       514-2.60829E+05 5.21414E+03 7.47613E+03-2.97075E+03-1.77813E-09-6.30394E-10
 -1       515-2.65763E+05-4.50758E+03 1.04994E+04 2.62115E+02-7.47207E-10-1.72167E-09
 -1       516-3.53537E+04 2.19930E+05 8.37135E+04 6.59072E+03 3.59069E-09 9.11257E-10
 -1       517 4.36203E+04 2.57591E+05 6.37923E+04-3.19918E+04 5.23869E-09 8.09595E-09
 -1       518-8.02571E+03 2.32905E+05 3.10772E+04 6.20792E+03 3.68300E-09 4.41209E-09
 -1       519 2.61145E+04 2.50002E+05 4.08819E+04-3.24513E+04 5.52063E-09 2.22826E-11
 -1       520-1.79434E+04 2.27567E+05 4.38594E+04 7.04986E+03 1.43154E-09-1.84173E-09
 -1       521-2.10507E+06-2.66000E+05-1.51691E+05-8.13859E+05-1.00408E-09 8.14907E-10
 -1       522-2.15154E+06-3.76342E+05-9.63568E+04-8.21985E+05 1.92813E-10 6.38465E-10
 -1       523-2.13237E+06-3.01398E+05-3.57994E+04-8.08693E+05 6.41450E-10 4.34738E-10
 -1       524-2.11985E+06-3.31408E+05-1.98088E+04-8.30434E+05 5.41149E-10 7.08496E-10
 -1       525-2.13600E+06-3.04855E+05-8.33549E+03-8.07746E+05-1.16165E-09-2.65936E-09
 -1       526-2.11560E+06-3.27139E+05-4.44399E+03-8.31960E+05 2.04727E-09 4.82032E-11
 -1       527-2.13664E+06-3.05036E+05-2.27899E+03-8.07448E+05 4.97153E-10-8.99661E-10
 -1       528-2.11500E+06-3.26875E+05-1.81971E+03-8.32280E+05-2.77108E-10 1.56149E-10
 -1       529-2.13662E+06-3.05056E+05-2.19946E+03-8.07465E+05-4.03702E-10-5.34328E-10
 -1       530-2.11563E+06-3.27047E+05-4.22233E+03-8.31887E+05 2.09070E-10-6.06178E-10
 -1       531-2.13597E+06-3.04932E+05-7.88864E+03-8.07795E+05 1.72577E-10 5.00222E-10
 -1       532-2.11974E+06-3.30983E+05-1.87252E+04-8.30322E+05 5.19549E-10 1.07639E-09
 -1       533-2.13248E+06-3.01726E+05-3.38357E+04-8.08753E+05 9.21887E-10 3.00315E-09
 -1       534-2.14980E+06-3.73318E+05-9.10597E+04-8.22183E+05 3.63684E-10 3.70346E-09
 -1       535-2.10661E+06-2.68351E+05-1.43359E+05-8.13716E+05-4.42014E-10 1.55705E-09
 -1       536 8.06612E+04-1.05853E+04 4.30017E+04-4.65158E+03-1.49157E-10-2.02272E-09
 -1       537 9.65142E+04 1.39259E+04 2.77387E+04-2.03853E+04-1.61435E-09-4.10682E-09
 -1       538 8.71905E+04-1.14425E+03 1.11402E+04-4.60901E+03 6.95763E-11-6.06178E-10
 -1       539 8.91344E+04 1.39814E+03 6.26079E+03-2.04128E+04 7.26459E-10-1.43336E-09
 -1       540 8.79416E+04-1.36995E+02 2.81377E+03-4.62107E+03 1.53705E-10-4.26098E-10
 -1       541 8.82196E+04 1.36782E+02 1.49601E+03-2.03877E+04-3.29237E-10-2.20030E-09
 -1       542 8.80347E+04-1.84807E+01 7.12987E+02-4.63422E+03 3.29692E-11 1.63027E-09
 -1       543 8.80718E+04 2.09120E+01 3.85597E+02-2.03677E+04-3.06159E-10 2.03556E-09
 -1       544 8.80459E+04-8.98345E-01 2.17531E+02-4.64113E+03 7.35554E-11-6.26869E-10
 -1       545 8.80475E+04 2.08106E+01 1.78450E+02-2.03599E+04-2.31218E-10 1.03640E-09
 -1       546 8.80426E+04-5.07000E+00 2.11254E+02-4.64193E+03 5.32054E-11 1.19059E-10
 -1       547 8.81030E+04 9.27626E+01 3.94277E+02-2.03619E+04-3.37536E-10 9.38172E-10
 -1       548 8.80008E+04-6.84629E+01 6.71012E+02-4.63922E+03-3.60387E-10 3.63013E-10
 -1       549 8.85649E+04 8.28256E+02 1.65326E+03-2.03374E+04-4.10409E-11 3.37110E-10
 -1       550 8.76179E+04-6.38788E+02 2.54877E+03-4.66648E+03-2.44199E-10 1.96496E-09
 -1       551 9.95531E+03-2.08924E+05 2.06979E+04-3.18593E+05-2.91038E-10-9.69521E-10
 -1       552 4.74381E+03-2.05479E+05 1.56915E+04-3.71334E+05-1.46611E-09 8.46740E-10
 -1       553 2.97211E+03-2.08441E+05 1.74964E+04-3.18066E+05-3.81988E-10-4.52019E-10
 -1       554 1.11363E+04-2.02012E+05 3.22224E+04-3.71432E+05-1.03319E-09 8.10360E-10
 -1       555 3.06513E+04-2.12743E+05 6.08880E+04-3.18451E+05-7.03949E-10-1.15324E-09
 -1       556-1.63442E+05-8.45770E+04 1.26136E+04-1.51567E+05 1.38061E-09-6.69388E-10
 -1       557-1.51308E+05-9.78965E+04 6.19134E+03-1.61228E+05-1.78443E-09-2.88765E-10
 -1       558-1.63769E+05-8.88520E+04 2.59858E+03-1.49024E+05-1.95723E-09 1.21781E-09
 -1       559-1.52464E+05-1.00007E+05 1.27603E+03-1.61696E+05-7.27596E-10 1.61879E-09
 -1       560-1.63940E+05-8.88843E+04 5.63858E+02-1.49004E+05-7.90897E-09-9.62473E-10
 -1       561-1.52722E+05-1.00039E+05 2.65262E+02-1.61887E+05-1.26038E-08-9.35364E-09
 -1       562-1.64069E+05-8.87950E+04 8.79668E+01-1.49089E+05-5.33873E-09 1.35105E-09
 -1       563-1.52854E+05-9.99824E+04-1.97693E+01-1.61982E+05-3.60251E-09 5.81531E-09
 -1       564-1.64139E+05-8.87408E+04-1.48950E+02-1.49141E+05-6.12727E-09-5.15001E-09
 -1       565-1.52928E+05-9.99551E+04-3.69682E+02-1.62026E+05-1.34332E-09 2.64663E-10
 -1       566-1.64134E+05-8.87190E+04-7.87128E+02-1.49151E+05-8.81869E-10-1.10049E-10
 -1       567-1.53067E+05-1.00042E+05-1.74084E+03-1.62007E+05-2.58069E-10-1.20053E-09
 -1       568-1.63992E+05-8.90105E+04-3.58143E+03-1.49001E+05-3.48336E-10-5.20231E-10
 -1       569-1.54994E+05-1.02270E+05-8.45031E+03-1.61413E+05-1.74623E-10 1.04592E-10
 -1       570-1.63262E+05-9.57841E+04-1.72896E+04-1.46143E+05 1.47338E-10 5.76847E-10
 -1       571 2.18230E+05 1.09593E+04 1.70183E+04-5.62324E+04-2.11003E-10-8.86075E-10
 -1       572 2.20853E+05 3.71246E+03 8.36792E+03-6.21107E+04-6.83940E-10-1.26602E-09
 -1       573 2.19290E+05 8.09850E+02 3.72486E+03-5.60729E+04-4.54747E-10-2.23145E-09
 -1       574 2.19593E+05 2.48016E+02 1.87200E+03-6.22848E+04-6.39602E-10-2.75577E-10
 -1       575 2.19401E+05 1.65246E+01 8.86975E+02-5.60530E+04-6.21185E-10 1.89084E-09
 -1       576 2.19429E+05-2.42711E+00 4.54279E+02-6.23071E+04 1.02273E-09 1.85310E-09
 -1       577 2.19416E+05-1.52980E+01 2.28523E+02-5.60505E+04 1.75078E-09 1.99452E-09
 -1       578 2.19413E+05-1.16028E+01 1.32959E+02-6.23098E+04 1.01454E-09 1.34014E-09
 -1       579 2.19433E+05-1.73976E+01 9.66933E+01-5.60503E+04-1.27329E-10-9.82254E-11
 -1       580 2.19439E+05-2.02860E+01 1.15275E+02-6.23069E+04-4.68845E-10 1.02136E-09
 -1       581 2.19462E+05-2.66004E+01 1.84406E+02-5.60534E+04-1.93904E-09 2.27374E-10
 -1       582 2.19512E+05 6.58639E+00 3.69814E+02-6.22740E+04-1.54296E-09-9.34961E-10
 -1       583 2.19486E+05 1.01475E+02 7.22467E+02-5.60833E+04-1.00590E-09-1.75464E-09
 -1       584 2.19814E+05 6.49807E+02 1.62072E+03-6.20139E+04-1.17143E-09-2.16573E-09
 -1       585 2.19333E+05 2.04208E+03 3.28842E+03-5.63153E+04 1.27875E-09 1.83718E-10
 -1       586 1.81289E+03 8.40409E+04 3.24710E+03-1.49349E+05 1.31695E-09 1.29603E-09
 -1       587 9.95524E+02 8.45688E+04 3.05104E+03-1.65452E+05 2.37378E-10-3.88354E-10
 -1       588 1.11955E+03 8.39970E+04 4.27871E+03-1.49161E+05 1.40608E-09-4.43038E-10
 -1       589 4.00060E+03 8.56105E+04 8.72385E+03-1.65489E+05 3.21961E-10 1.02796E-09
 -1       590 1.12762E+04 8.29485E+04 1.73354E+04-1.49308E+05 1.26101E-09-1.24419E-09
 -1       591-9.94164E+04-3.53299E+04-1.84819E+04-5.28174E+04 7.17364E-10 2.36469E-11
 -1       592-9.97733E+04-3.30570E+04-9.04004E+03-5.85313E+04-4.03134E-10 7.44876E-10
 -1       593-9.99222E+04-2.82951E+04-3.83451E+03-5.60006E+04 2.68255E-09 5.73050E-09
 -1       594-9.78091E+04-3.05291E+04-1.87486E+03-5.88991E+04-3.46859E-10 1.72479E-09
 -1       595-1.00012E+05-2.80228E+04-8.63298E+02-5.61483E+04-3.20597E-10 2.05853E-09
 -1       596-9.76599E+04-3.04261E+04-4.39173E+02-5.88902E+04-2.75122E-10-2.55818E-09
 -1       597-1.00029E+05-2.80340E+04-2.41873E+02-5.61500E+04 6.92637E-10-1.52181E-09
 -1       598-9.76453E+04-3.04271E+04-1.98711E+02-5.88842E+04 7.58803E-10-2.15437E-10
 -1       599-1.00027E+05-2.80340E+04-2.58731E+02-5.61493E+04 1.68257E-11-1.03682E-10
 -1       600-9.76597E+04-3.04271E+04-4.83851E+02-5.88889E+04-6.50289E-10-3.42538E-09
 -1       601-1.00003E+05-2.80223E+04-9.58069E+02-5.61455E+04-7.34417E-10-4.16094E-10
 -1       602-9.78246E+04-3.05416E+04-2.08521E+03-5.88953E+04 3.88582E-10-1.55751E-09
 -1       603-9.99010E+04-2.83285E+04-4.26600E+03-5.59813E+04-3.55158E-10 6.08452E-10
 -1       604-1.00019E+05-3.33420E+04-1.00576E+04-5.84699E+04-2.69210E-10 6.36646E-11
 -1       605-9.93232E+04-3.61637E+04-2.05615E+04-5.24500E+04-1.55978E-10-9.20409E-10
 -1       606 6.68338E+04-8.45877E+03-1.31106E+04 1.95864E+04-4.19641E-09 5.42968E-10
 -1       607 6.47794E+04-2.86594E+03-6.44445E+03 2.14271E+04-9.93168E-10 1.10447E-09
 -1       608 6.59780E+04-6.24561E+02-2.86885E+03 1.94514E+04 2.71029E-09 8.15248E-10
 -1       609 6.57088E+04-1.78131E+02-1.43923E+03 2.15749E+04-1.99543E-09 9.88621E-10
 -1       610 6.58645E+04 2.93300E+00-6.80073E+02 1.94343E+04-4.13638E-09 5.67752E-10
 -1       611 6.58119E+04 2.71578E+01-3.42816E+02 2.15934E+04-8.05812E-09 1.94450E-09
 -1       612 6.58392E+04 3.46306E+01-1.63631E+02 1.94323E+04-2.37469E-09 2.19325E-09
 -1       613 6.58192E+04 3.65221E+01-7.67649E+01 2.15957E+04-4.16844E-09 8.87439E-10
 -1       614 6.58279E+04 3.29118E+01-2.55332E+01 1.94319E+04-1.05547E-09-4.44288E-10
 -1       615 6.58161E+04 3.79138E+01 1.26361E+01 2.15960E+04 3.84648E-09 1.41381E-09
 -1       616 6.58197E+04 3.64026E+01 5.62442E+01 1.94321E+04-3.67163E-09-1.33150E-09
 -1       617 6.58226E+04 5.92309E+01 1.36044E+02 2.15954E+04-8.72660E-10-1.84878E-09
 -1       618 6.58056E+04 9.89051E+01 2.78862E+02 1.94324E+04-2.20098E-10-1.43154E-09
 -1       619 6.59121E+04 3.23741E+02 6.31156E+02 2.15930E+04-6.78142E-10-1.49976E-09
 -1       620 6.57208E+04 8.68184E+02 1.28585E+03 1.94334E+04 1.52068E-09-1.57570E-10
 -1       621 1.86130E+03 2.24371E+05 4.38886E+03-2.17421E+04 1.51203E-10 5.72300E-10
 -1       622 7.06546E+02 2.25193E+05 3.50470E+03-2.54468E+04-1.05933E-09 1.70098E-09
 -1       623 4.07815E+02 2.24565E+05 4.16661E+03-2.17661E+04 2.62844E-10-1.07775E-10
 -1       624 2.38412E+03 2.26162E+05 7.90336E+03-2.53360E+04-8.82665E-10-2.23031E-09
 -1       625 7.32530E+03 2.23427E+05 1.50771E+04-2.18514E+04 2.35559E-10-5.89807E-10
 -1       626 9.30341E+04 3.03671E+04-6.23307E+03 6.38061E+04-3.71074E-09-3.01043E-10
 -1       627 9.03113E+04 3.45689E+04-2.96059E+03 6.49329E+04-3.43152E-09-6.89852E-09
 -1       628 9.31532E+04 3.34011E+04-1.24479E+03 6.23360E+04 2.30466E-09-5.33748E-09
 -1       629 9.07882E+04 3.58047E+04-5.98268E+02 6.48192E+04 2.87037E-09-1.28196E-10
 -1       630 9.31387E+04 3.36039E+04-2.64879E+02 6.22193E+04 3.65344E-09 4.41673E-11
 -1       631 9.08214E+04 3.58933E+04-1.19890E+02 6.48186E+04-4.53997E-09-1.19127E-09
 -1       632 9.31254E+04 3.36105E+04-3.65195E+01 6.22086E+04-3.43471E-09 1.31968E-09
 -1       633 9.08218E+04 3.58977E+04 2.19772E+01 6.48189E+04 4.75166E-09 1.32218E-09
 -1       634 9.31159E+04 3.36055E+04 9.17343E+01 6.22065E+04 8.14680E-09 1.03023E-08
 -1       635 9.08319E+04 3.58999E+04 2.21875E+02 6.48211E+04-1.86174E-09-1.23600E-09
 -1       636 9.31051E+04 3.36137E+04 4.66421E+02 6.21996E+04-2.64038E-10 7.74980E-09
 -1       637 9.09412E+04 3.60198E+04 1.04346E+03 6.48038E+04 1.70004E-09-7.63066E-10
 -1       638 9.30784E+04 3.39773E+04 2.16216E+03 6.20399E+04 5.21538E-09-1.23464E-09
 -1       639 9.20430E+04 3.79092E+04 5.14278E+03 6.43483E+04-1.77715E-09-3.07864E-10
 -1       640 9.31098E+04 3.94594E+04 1.08266E+04 5.97543E+04-5.99584E-09 6.70298E-09
 -1       641 1.99444E+03 1.99009E+03-4.66769E+03-1.90831E+02-6.25020E-09-1.34196E-09
 -1       642-8.34537E+00-2.30468E+03-3.28827E+03 8.51621E+02 2.61391E-09-7.01675E-10
 -1       643 1.21888E+03 3.07774E+02-1.20426E+03-1.89742E+02-1.09953E-08-4.20727E-09
 -1       644 8.92394E+02-3.54224E+02-7.44912E+02 8.50191E+02 5.13630E-09-5.69102E-10
 -1       645 1.09315E+03 4.64491E+01-2.89287E+02-1.89408E+02-4.08049E-09-1.36039E-09
 -1       646 1.04067E+03-4.79029E+01-1.38063E+02 8.49659E+02-2.14539E-07 1.71795E-10
 -1       647 1.07030E+03 2.58759E+00-3.21235E+00-1.89212E+02-1.60784E-05 2.22032E-08
 -1       648 1.08113E+03 2.60386E+01 1.20445E+02 8.49456E+02-3.18000E-05 4.64402E-08
 -1       649 1.05259E+03-2.72490E+01 2.77258E+02-1.89206E+02-1.60780E-05 2.14147E-08
 -1       650 1.18188E+03 2.11370E+02 6.70077E+02 8.49466E+02-1.99857E-07 2.70930E-10
 -1       651 9.69657E+02-1.82336E+02 1.17176E+03-1.89222E+02-7.90029E-09-2.73843E-09
 -1       652 1.75364E+03 1.36801E+03 2.88766E+03 8.49262E+02 2.35592E-09 1.68609E-09
 -1       653 4.81151E+02-1.18057E+03 4.62008E+03-1.89006E+02-5.56433E-09-1.60207E-09
 -1       654 5.22366E+03 8.82840E+03 1.25960E+04 8.46767E+02 3.67075E-09 6.65523E-10
 -1       655-2.49944E+03-7.61832E+03 1.78539E+04-1.86749E+02 8.97010E-10 2.64754E-09
 -1       656 7.03809E+03-2.53542E+05-2.97889E+04 6.10062E+03-1.64619E-09 1.73031E-10
 -1       657-1.01542E+04-2.64556E+05-2.18345E+04 2.59713E+04-1.49328E-09-3.33023E-09
 -1       658 1.38492E+03-2.57432E+05-1.37735E+04 6.04827E+03-8.54158E-10 1.89641E-09
 -1       659-9.23014E+03-2.64034E+05-2.02435E+04 2.60048E+04-1.50317E-09 1.40491E-09
 -1       660 6.28308E+03-2.54081E+05-2.67956E+04 6.06754E+03-1.67256E-09-1.39300E-09
 -1       661 2.52862E+05 3.18324E+04 2.07835E+04 9.86898E+04 4.96152E-09-2.61934E-10
 -1       662 2.57913E+05 4.82897E+04 1.32046E+04 1.01357E+05 4.07704E-09 2.08092E-09
 -1       663 2.56491E+05 3.67930E+04 4.90976E+03 9.81139E+04 6.12923E-09-3.44789E-09
 -1       664 2.53745E+05 4.19576E+04 2.72333E+03 1.02279E+05 7.42304E-09 3.15003E-09
 -1       665 2.56909E+05 3.73494E+04 1.15217E+03 9.80725E+04 3.39793E-09-1.19815E-09
 -1       666 2.53266E+05 4.12620E+04 6.29060E+02 1.02344E+05-1.03981E-09 2.90044E-09
 -1       667 2.56956E+05 3.74152E+04 3.49481E+02 9.80747E+04 5.03144E-09 5.05082E-10
 -1       668 2.53221E+05 4.11956E+04 3.29114E+02 1.02343E+05-1.64329E-09 1.67722E-09
 -1       669 2.56951E+05 3.74111E+04 4.59422E+02 9.80746E+04-2.18432E-09-3.30391E-09
 -1       670 2.53306E+05 4.13075E+04 9.35191E+02 1.02342E+05 1.09074E-08 3.89812E-09
 -1       671 2.56874E+05 3.73107E+04 1.76828E+03 9.80736E+04 5.36323E-09 3.43221E-10
 -1       672 2.54058E+05 4.23811E+04 4.21485E+03 1.02233E+05-1.60892E-09-1.51886E-10
 -1       673 2.56220E+05 3.64523E+04 7.61056E+03 9.81423E+04 1.88727E-09-1.73259E-10
 -1       674 2.60527E+05 5.21964E+04 2.04782E+04 1.00795E+05 8.07177E-09 2.11116E-09
 -1       675 2.50588E+05 2.87619E+04 3.22346E+04 9.90375E+04 3.98677E-09-2.35741E-09
 -1       676 9.09280E+02-2.39028E+05-4.28569E+03 2.11907E+02-7.47264E-10-7.49329E-10
 -1       677-1.64205E+03-2.40678E+05-4.30766E+03 1.59158E+02 1.00139E-09-1.33658E-09
 -1       678 4.71774E+02-2.39305E+05-4.66629E+03 2.11340E+02-3.41061E-11 1.38187E-09
 -1       679-4.90063E+03-2.42577E+05-9.94827E+03 1.58882E+02-4.67026E-10-1.95775E-09
 -1       680 3.61204E+03-2.37130E+05-1.48834E+04 2.11662E+02-4.51018E-09-2.36749E-10
 -1       681 3.63346E+05-9.38442E+03 2.19978E+04 6.10244E+02 2.17142E-11 1.56433E-10
 -1       682 3.72848E+05 1.08725E+04 1.55278E+04-1.43138E+03-5.13900E-11-5.00449E-10
 -1       683 3.67023E+05-1.45384E+03 5.70740E+03 3.86574E+02 2.20339E-10-5.25233E-10
 -1       684 3.68570E+05 1.68425E+03 3.58998E+03-1.06620E+03-3.33923E-10-8.98126E-11
 -1       685 3.67625E+05-2.25933E+02 1.50371E+03 2.45078E+02 5.36765E-10-2.55113E-10
 -1       686 3.67874E+05 2.72926E+02 9.53424E+02-8.41300E+02-2.27514E-10-7.66804E-10
 -1       687 3.67720E+05-4.64900E+01 5.80895E+02 1.61669E+02 7.71323E-10 4.00384E-10
 -1       688 3.67802E+05 1.32503E+02 6.73077E+02-7.19748E+02 1.44522E-08 8.53447E-10
 -1       689 3.67697E+05-8.57781E+01 9.50421E+02 1.23524E+02 1.07122E-06-7.30438E-11
 -1       690 3.68056E+05 6.14462E+02 2.01716E+03-6.83184E+02 2.11866E-06 1.63550E-09
 -1       691 3.67465E+05-5.27124E+02 3.42821E+03 1.25104E+02 1.07148E-06-5.62522E-10
 -1       692 3.69695E+05 3.95167E+03 8.37154E+03-7.26367E+02 1.37756E-08 1.16643E-10
 -1       693 3.66057E+05-3.41280E+03 1.33776E+04 1.66709E+02 5.03263E-10-3.38332E-10
 -1       694 3.79715E+05 2.55264E+04 3.64351E+04-8.58286E+02 5.79998E-11-1.09867E-09
 -1       695 3.57442E+05-2.20294E+04 5.16552E+04 2.57012E+02 1.11336E-09-2.98314E-10
 -1       696-7.62764E+03 3.19547E+05 1.75969E+04 9.53369E+02 7.63976E-11-3.52344E-10
 -1       697 8.27014E+03 3.26971E+05 1.13526E+04-5.66286E+03 4.18368E-11-1.52063E-10
 -1       698-6.08854E+02 3.22830E+05 2.35309E+03 8.02049E+02-1.52340E-10 1.12617E-09
 -1       699-2.99527E+03 3.21729E+05-3.44047E+03-5.63278E+03-1.95087E-10 2.18915E-09
 -1       700 3.60084E+03 3.24792E+05-7.92251E+03 9.23255E+02-1.24146E-10 6.45841E-10
 -1       701-3.31345E+05-3.02282E+04-4.26662E+04-1.31737E+05 1.02773E-10-3.05590E-10
 -1       702-3.53612E+05-6.91333E+04-2.95427E+04-1.24536E+05-1.91790E-10-5.26597E-10
 -1       703-3.40163E+05-4.52960E+04-1.00102E+04-1.28718E+05 4.00178E-10 2.60115E-10
 -1       704-3.43275E+05-5.17738E+04-6.23050E+03-1.28135E+05 4.67253E-10-7.91715E-10
 -1       705-3.41672E+05-4.75406E+04-2.34477E+03-1.28155E+05 4.52843E-10-7.96945E-11
 -1       706-3.41466E+05-4.92459E+04-1.39483E+03-1.28856E+05 1.95573E-10-6.89937E-11
 -1       707-3.41971E+05-4.78167E+04-6.50915E+02-1.27999E+05 1.33770E-10-2.25583E-10
 -1       708-3.41138E+05-4.89976E+04-5.72256E+02-1.29048E+05 1.56028E-10-5.20660E-10
 -1       709-3.42001E+05-4.77878E+04-6.39074E+02-1.27963E+05-3.53069E-11-1.06695E-10
 -1       710-3.41350E+05-4.93464E+04-1.36044E+03-1.28991E+05-5.84919E-11-4.66116E-11
 -1       711-3.41759E+05-4.74687E+04-2.27956E+03-1.28056E+05 1.77323E-10 5.27848E-10
 -1       712-3.43024E+05-5.18893E+04-6.05817E+03-1.28389E+05 5.18696E-11-1.70530E-12
 -1       713-3.40329E+05-4.52519E+04-9.72889E+03-1.28563E+05 1.44610E-10 6.43922E-10
 -1       714-3.53015E+05-6.88152E+04-2.87150E+04-1.24952E+05 3.20597E-10-3.31966E-11
 -1       715-3.31777E+05-3.05889E+04-4.14691E+04-1.31477E+05-1.69166E-10 3.98359E-10
 -1       716 9.22576E+04-1.18503E+04 2.77632E+04 6.96246E+02-1.01380E-10-3.09228E-10
 -1       717 1.04336E+05 1.37307E+04 1.96078E+04-3.05108E+03-2.31786E-10 4.25644E-10
 -1       718 9.69138E+04-1.83645E+03 7.20485E+03 5.94977E+02-7.85718E-11 8.23547E-10
 -1       719 9.89088E+04 2.13053E+03 4.53901E+03-2.89706E+03 5.95207E-10 9.38087E-10
 -1       720 9.76809E+04-2.86141E+02 1.91111E+03 5.42234E+02 1.13943E-09 1.07991E-09
 -1       721 9.80229E+04 3.51776E+02 1.23126E+03-2.83537E+03 1.17464E-09 1.60881E-09
 -1       722 9.77984E+04-6.20762E+01 7.87004E+02 5.33279E+02 1.07112E-09 1.28619E-09
 -1       723 9.79534E+04 1.93547E+02 9.68513E+02-2.86063E+03 3.37081E-11 5.49328E-10
 -1       724 9.77509E+04-1.28851E+02 1.41258E+03 5.67490E+02 1.05548E-09 1.00653E-09
 -1       725 9.83748E+04 9.29351E+02 3.04479E+03-2.97401E+03 1.06437E-09 7.15318E-10
 -1       726 9.73798E+04-7.97937E+02 5.17316E+03 6.46667E+02 4.70465E-10 6.43468E-10
 -1       727 1.00913E+05 5.97737E+03 1.26759E+04-3.18272E+03-1.64846E-10-9.32232E-12
 -1       728 9.52180E+04-5.16530E+03 2.02200E+04 7.76208E+02 6.49493E-10-6.78483E-10
 -1       729 1.16170E+05 3.86222E+04 5.51515E+04-3.52582E+03-2.62403E-10-5.31145E-10
 -1       730 8.21379E+04-3.33387E+04 7.81242E+04 9.89619E+02 7.73412E-10-1.30240E-09
 -1       731-1.33657E+04 1.30730E+05 3.13338E+04 2.43793E+03 9.60426E-10-4.41588E-10
 -1       732 1.56701E+04 1.44501E+05 2.24266E+04-1.11381E+04 1.70508E-09-6.31076E-10
 -1       733-2.24463E+03 1.35967E+05 8.68691E+03 2.28627E+03 1.31786E-09 5.16476E-10
 -1       734 3.76609E+03 1.38925E+05 6.79048E+03-1.10798E+04 2.05728E-09 1.89251E-09
 -1       735-1.49865E+03 1.36302E+05 4.37723E+03 2.37963E+03 7.97684E-10 9.65741E-10
 -1       736-7.76689E+05-8.71159E+04-5.75259E+04-3.01309E+05-3.21961E-10 8.98581E-10
 -1       737-8.07288E+05-1.39007E+05-3.98367E+04-2.90929E+05-1.10322E-09 1.05956E-10
 -1       738-7.88545E+05-1.07470E+05-1.34911E+04-2.97273E+05-1.72804E-11 7.09406E-11
 -1       739-7.93345E+05-1.15587E+05-8.39949E+03-2.95774E+05 1.80648E-10-9.77138E-10
 -1       740-7.90609E+05-1.10471E+05-3.15608E+03-2.96482E+05-6.79847E-10 7.23048E-11
 -1       741-7.90840E+05-1.12234E+05-1.87412E+03-2.96811E+05-2.21178E-10 8.40288E-10
 -1       742-7.91045E+05-1.10814E+05-8.64457E+02-2.96238E+05-7.04148E-10-1.37314E-09
 -1       743-7.90356E+05-1.11925E+05-7.41835E+02-2.97108E+05-3.65095E-11-2.72447E-10
 -1       744-7.91093E+05-1.10778E+05-8.07338E+02-2.96186E+05-4.48011E-10-1.24516E-10
 -1       745-7.90641E+05-1.12326E+05-1.69892E+03-2.97007E+05 4.08818E-10 5.68804E-10
 -1       746-7.90760E+05-1.10415E+05-2.83864E+03-2.96339E+05-1.65926E-10 2.00089E-11
 -1       747-7.92821E+05-1.15398E+05-7.54064E+03-2.96152E+05-5.22846E-10-1.53057E-09
 -1       748-7.88918E+05-1.07715E+05-1.21063E+04-2.97040E+05 2.76486E-10 2.48747E-10
 -1       749-8.05364E+05-1.36375E+05-3.57440E+04-2.91763E+05 1.43018E-10-3.04681E-11
 -1       750-7.78238E+05-8.94959E+04-5.16165E+04-3.00711E+05-1.12232E-09-1.52795E-10
 -1       751 1.76866E+06-9.80132E+04 2.30110E+05 4.67397E+03-9.30811E-09-1.54250E-09
 -1       752 1.86804E+06 1.13580E+05 1.62271E+05-7.26116E+03-2.38830E-09-3.49246E-09
 -1       753 1.80712E+06-1.51826E+04 5.96280E+04 1.77141E+03 3.08205E-10-1.20053E-10
 -1       754 1.82336E+06 1.75815E+04 3.73429E+04-3.18425E+03 9.65066E-10 1.61526E-09
 -1       755 1.81342E+06-2.34698E+03 1.53590E+04 5.97768E+02-1.12092E-09-9.35870E-10
 -1       756 1.81606E+06 2.75153E+03 9.15009E+03-1.53874E+03-1.64860E-10-1.72759E-09
 -1       757 1.81445E+06-3.97921E+02 4.53138E+03 1.25906E+02-4.42100E-10-2.41471E-10
 -1       758 1.81499E+06 7.14376E+02 3.63867E+03-9.13966E+02 1.46671E-09-5.00641E-10
 -1       759 1.81450E+06-3.15185E+02 3.74921E+03-2.70190E+01-6.33803E-10 2.26578E-10
 -1       760 1.81567E+06 2.03226E+03 6.89744E+03-8.04201E+02 1.63047E-10 2.13993E-09
 -1       761 1.81377E+06-1.71204E+03 1.12873E+04 1.61397E+01 9.60035E-10-8.44921E-10
 -1       762 1.82094E+06 1.27993E+04 2.72241E+04-1.12184E+03 2.24112E-10 7.98991E-10
 -1       763 1.80920E+06-1.10486E+04 4.34087E+04 2.90631E+02 2.05779E-09 1.18780E-09
 -1       764 1.85335E+06 8.26357E+04 1.18048E+05-2.13657E+03 6.47443E-10 1.61890E-09
 -1       765 1.78128E+06-7.13069E+04 1.67391E+05 1.03076E+03-7.39306E-10-7.13044E-10
 -1       766-4.20530E+04 2.97204E+05 1.00093E+05-8.55834E+02 1.89902E-09-5.94042E-10
 -1       767 5.21586E+04 3.41595E+05 7.67523E+04 1.11980E+03-7.27596E-12-5.55303E-10
 -1       768-9.93698E+03 3.11992E+05 3.84454E+04-4.56426E+02 1.41335E-09-1.84784E-10
 -1       769 3.36606E+04 3.32974E+05 5.24570E+04 4.01247E+02-6.18456E-11 1.59162E-10
 -1       770-2.36175E+04 3.05818E+05 5.81630E+04-1.37490E+02 3.03771E-10 1.39887E-09
 -1       771-9.78511E+05-1.99031E+05-3.73792E+04-4.22230E+05 9.14952E-10-1.92085E-09
 -1       772-9.76711E+05-1.96795E+05-1.82665E+04-4.36492E+05-2.37742E-09 2.66664E-09
 -1       773-9.79859E+05-1.84558E+05-7.76441E+03-4.28488E+05-7.74889E-10 1.81899E-09
 -1       774-9.72632E+05-1.91906E+05-3.78729E+03-4.37642E+05 1.52613E-09-5.43650E-10
 -1       775-9.80184E+05-1.83906E+05-1.75140E+03-4.28822E+05-2.01908E-10 3.68345E-10
 -1       776-9.72411E+05-1.91692E+05-8.82648E+02-4.37762E+05-5.94810E-10 4.87262E-10
 -1       777-9.80332E+05-1.83865E+05-4.82562E+02-4.28875E+05 4.63842E-10 4.50427E-10
 -1       778-9.72456E+05-1.91669E+05-3.74026E+02-4.37838E+05 1.72804E-11 9.63126E-10
 -1       779-9.80410E+05-1.83820E+05-4.71045E+02-4.28912E+05 3.27418E-11 9.30640E-10
 -1       780-9.72539E+05-1.91653E+05-8.59573E+02-4.37907E+05 3.05590E-10-1.75078E-11
 -1       781-9.80420E+05-1.83767E+05-1.69718E+03-4.28930E+05 2.91948E-10 2.54204E-10
 -1       782-9.72863E+05-1.91849E+05-3.69060E+03-4.37959E+05 6.05041E-10 8.99036E-10
 -1       783-9.80267E+05-1.84291E+05-7.55196E+03-4.28648E+05-1.20190E-09-8.27640E-10
 -1       784-9.76723E+05-1.96852E+05-1.78149E+04-4.37266E+05-1.37470E-09-1.58980E-09
 -1       785-9.79286E+05-1.98135E+05-3.64260E+04-4.22356E+05-2.84871E-09-7.41056E-09
 -1       786 2.25579E+05-6.88152E+03 2.81187E+04-1.24961E+03 3.00020E-10-4.05635E-10
 -1       787 2.35842E+05 9.13195E+03 1.81260E+04-5.59569E+03-4.14275E-10-3.39037E-09
 -1       788 2.29855E+05-7.27721E+02 7.29277E+03-1.24794E+03 1.00272E-10 6.57110E-10
 -1       789 2.31066E+05 9.30575E+02 4.09584E+03-5.59005E+03 1.74396E-10 6.52733E-10
 -1       790 2.30352E+05-7.99978E+01 1.85562E+03-1.25480E+03 9.65770E-11 4.67480E-10
 -1       791 2.30503E+05 9.37297E+01 1.00142E+03-5.57997E+03 4.41148E-10-7.57154E-11
 -1       792 2.30416E+05-1.00758E+01 5.16324E+02-1.25801E+03-1.49214E-11-5.34470E-10
 -1       793 2.30432E+05 1.31500E+01 3.52385E+02-5.57769E+03-2.55511E-11 6.58815E-11
 -1       794 2.30421E+05-5.98955E+00 3.38115E+02-1.25709E+03-1.15904E-10-7.59869E-10
 -1       795 2.30458E+05 4.54549E+01 5.30391E+02-5.58390E+03 3.02805E-10 1.76065E-09
 -1       796 2.30392E+05-3.94281E+01 9.21491E+02-1.25179E+03-1.31877E-10 3.86933E-10
 -1       797 2.30731E+05 4.50008E+02 1.99734E+03-5.59733E+03-5.44787E-10-1.01409E-10
 -1       798 2.30151E+05-3.53964E+02 3.54141E+03-1.24367E+03-6.02540E-11 2.61252E-10
 -1       799 2.33049E+05 4.42626E+03 8.79259E+03-5.60419E+03-1.40290E-09 8.13088E-10
 -1       800 2.28078E+05-3.33912E+03 1.36351E+04-1.24519E+03 1.02091E-10-6.93944E-10
 -1       801-8.15765E+03 2.29481E+05 3.19935E+04-1.28057E+05 3.32875E-10-2.18643E-09
 -1       802 1.64466E+04 2.40290E+05 3.14859E+04-5.58363E+05 6.72298E-09-4.07090E-09
 -1       803-1.95253E+03 2.31094E+05 3.13850E+04-1.27745E+05 3.68345E-09-1.14824E-10
 -1       804 3.54757E+04 2.51764E+05 6.46327E+04-5.58338E+05 4.60204E-09-2.10002E-09
 -1       805-2.42013E+04 2.18427E+05 9.42022E+04-1.28086E+05 3.43061E-09-1.96451E-10
 -1       806-2.13855E+05-5.58037E+04-1.84270E+04-9.70315E+04 5.22391E-10-8.43102E-10
 -1       807-2.14081E+05-5.11183E+04-8.75292E+03-1.02524E+05 6.93490E-11-7.15318E-10
 -1       808-2.13780E+05-4.65032E+04-3.68233E+03-1.00970E+05 2.10389E-09 6.87805E-09
 -1       809-2.12262E+05-4.78544E+04-1.78104E+03-1.03259E+05 7.65340E-10 8.73391E-09
 -1       810-2.13827E+05-4.58834E+04-8.06668E+02-1.01250E+05-3.45108E-09-5.58714E-09
 -1       811-2.12085E+05-4.76432E+04-4.05646E+02-1.03286E+05 3.84262E-10-4.67026E-10
 -1       812-2.13842E+05-4.58670E+04-2.14759E+02-1.01263E+05-1.88663E-10 1.17689E-09
 -1       813-2.12067E+05-4.76377E+04-1.63267E+02-1.03281E+05 2.50679E-10 9.55538E-10
 -1       814-2.13841E+05-4.58690E+04-1.96322E+02-1.01262E+05 3.14128E-09 7.02062E-09
 -1       815-2.12080E+05-4.76446E+04-3.56785E+02-1.03282E+05-4.31555E-10-9.54969E-12
 -1       816-2.13823E+05-4.58859E+04-7.01394E+02-1.01249E+05 1.23418E-09 7.03858E-09
 -1       817-2.12232E+05-4.78257E+04-1.54511E+03-1.03251E+05 1.04410E-09 6.90716E-09
 -1       818-2.13776E+05-4.64292E+04-3.19261E+03-1.01007E+05-3.08364E-09-2.13004E-09
 -1       819-2.13836E+05-5.06250E+04-7.58717E+03-1.02576E+05-4.23825E-10-5.10227E-10
 -1       820-2.13808E+05-5.45161E+04-1.59718E+04-9.76212E+04 2.22917E-09 6.88533E-09
 -1       821-2.09588E+05 6.61111E+03-2.70223E+04 1.27640E+03-2.11662E-09 2.89037E-09
 -1       822-2.19441E+05-8.77685E+03-1.74196E+04 5.85355E+03-1.14153E-09 3.56067E-10
 -1       823-2.13698E+05 6.97609E+02-7.01067E+03 1.23674E+03 2.27851E-09-1.26420E-09
 -1       824-2.14861E+05-8.89333E+02-3.93905E+03 5.90826E+03-1.73088E-10-3.57318E-10
 -1       825-2.14176E+05 7.71017E+01-1.79166E+03 1.22125E+03-4.79952E-09-1.01181E-10
 -1       826-2.14327E+05-8.22077E+01-9.78785E+02 5.93360E+03-9.09671E-09 5.28416E-10
 -1       827-2.14238E+05 1.15593E+01-5.29744E+02 1.21129E+03-4.25962E-09-3.27361E-10
 -1       828-2.14267E+05-5.68492E+00-4.07890E+02 5.94939E+03-4.62208E-09-1.11372E-09
 -1       829-2.14241E+05 1.05343E+01-4.59931E+02 1.20544E+03-1.23322E-10-1.02938E-09
 -1       830-2.14314E+05-6.15148E+01-7.94994E+02 5.95633E+03 2.29136E-09 5.96010E-10
 -1       831-2.14193E+05 6.29558E+01-1.42618E+03 1.20436E+03-2.67643E-09-3.10308E-10
 -1       832-2.14739E+05-6.97917E+02-3.11968E+03 5.95368E+03-3.95744E-10 1.62800E-10
 -1       833-2.13815E+05 5.54362E+02-5.54432E+03 1.20818E+03 2.68795E-09 2.37605E-10
 -1       834-2.18363E+05-6.93288E+03-1.37738E+04 5.93279E+03 3.67118E-09-1.10776E-09
 -1       835-2.10567E+05 5.23052E+03-2.13638E+04 1.22603E+03 3.58477E-09-9.33142E-10
 -1       836-1.10623E+04 5.61290E+05 4.75629E+04-1.37498E+04-1.12959E-09-9.45874E-11
 -1       837 1.65801E+04 5.79018E+05 3.70608E+04-5.89416E+04 8.38554E-10-1.85548E-09
 -1       838-2.70733E+03 5.66955E+05 2.70346E+04-1.37515E+04-1.26352E-09-1.28867E-09
 -1       839 2.14607E+04 5.81854E+05 4.55089E+04-5.89343E+04 1.00817E-09-2.50111E-11
 -1       840-1.51026E+04 5.58444E+05 6.34454E+04-1.37566E+04-7.93079E-10-7.83984E-10
 -1       841-4.09604E+04-1.59480E+03-1.09917E+04-1.73533E+04-2.35309E-09 1.19917E-09
 -1       842-4.71029E+04-1.12068E+04-7.60828E+03-1.50332E+04-2.50387E-09-1.02773E-09
 -1       843-4.31808E+04-5.52552E+03-2.57693E+03-1.66332E+04 1.97008E-09-8.19000E-10
 -1       844-4.45335E+04-6.64459E+03-1.59992E+03-1.58567E+04 4.98289E-10-2.71115E-10
 -1       845-4.35284E+04-6.14471E+03-5.93979E+02-1.65345E+04-9.72278E-10 1.02781E-09
 -1       846-4.41345E+04-5.92125E+03-3.36022E+02-1.59648E+04-4.94040E-09-1.22316E-09
 -1       847-4.35797E+04-6.24698E+03-1.22919E+02-1.65259E+04-1.79103E-09-1.11903E-09
 -1       848-4.40726E+04-5.79420E+03-4.06489E+01-1.59733E+04 5.16478E-09-2.84359E-11
 -1       849-4.35903E+04-6.27143E+03 3.12939E+01-1.65263E+04 3.24428E-09 2.73779E-10
 -1       850-4.40330E+04-5.72471E+03 1.40533E+02-1.59811E+04 1.27591E-09 6.82432E-10
 -1       851-4.36193E+04-6.31631E+03 2.65422E+02-1.65181E+04-9.76719E-10-2.11278E-09
 -1       852-4.38349E+04-5.40424E+03 7.28289E+02-1.60438E+04 4.27659E-09 2.71314E-10
 -1       853-4.37883E+04-6.59113E+03 1.17490E+03-1.64639E+04 1.96390E-09-6.71434E-10
 -1       854-4.26356E+04-3.34254E+03 3.47483E+03-1.64443E+04-4.09386E-10-1.82331E-09
 -1       855-4.48176E+04-8.37251E+03 5.01819E+03-1.61196E+04 6.79847E-11-5.73209E-10
 -1       856-2.45128E+05 6.00869E+03-2.45810E+04 2.60825E+03-3.19824E-09 5.30235E-10
 -1       857-2.54083E+05-7.96579E+03-1.58414E+04 1.20983E+04-4.78042E-09-9.01309E-10
 -1       858-2.48868E+05 6.35538E+02-6.37702E+03 2.54032E+03-6.90852E-09-1.08912E-09
 -1       859-2.49933E+05-7.86557E+02-3.57993E+03 1.21929E+04-2.05296E-09-1.59389E-10
 -1       860-2.49305E+05 7.44251E+01-1.62605E+03 2.51285E+03 4.92264E-10-1.08241E-09
 -1       861-2.49456E+05-4.86094E+01-8.81954E+02 1.22337E+04-6.51289E-09-2.28675E-09
 -1       862-2.49363E+05 1.63075E+01-4.65993E+02 2.49926E+03 4.19413E-09-1.72116E-09
 -1       863-2.49403E+05 2.34611E+01-3.38549E+02 1.22504E+04 1.46699E-08-1.34776E-09
 -1       864-2.49366E+05 1.43236E+01-3.55481E+02 2.49609E+03 9.20080E-09-4.11120E-10
 -1       865-2.49433E+05-1.69540E+01-5.90536E+02 1.22458E+04 1.10780E-08-9.32634E-10
 -1       866-2.49331E+05 5.09231E+01-1.04718E+03 2.50394E+03 2.60229E-09 5.99329E-10
 -1       867-2.49734E+05-4.85388E+02-2.28097E+03 1.22182E+04-2.47860E-09 6.92694E-10
 -1       868-2.49053E+05 4.06669E+02-4.05339E+03 2.52375E+03 5.79917E-09 3.10365E-10
 -1       869-2.52366E+05-5.04585E+03-1.00620E+04 1.21417E+04-5.89023E-09-3.54521E-09
 -1       870-2.46678E+05 3.81754E+03-1.56123E+04 2.58120E+03 2.83853E-09-8.23093E-10
 -1       871-2.12363E+03-2.00602E+04-3.77141E+03 5.66248E+04 1.38425E-09-1.10249E-08
 -1       872-6.79587E+02-2.07206E+04-1.08442E+03 6.59499E+04-1.88084E-09-2.00405E-08
 -1       873 3.79042E+01-2.04777E+04 1.14367E+03 5.65171E+04 1.72940E-09-1.04542E-08
 -1       874 1.35397E+03-1.95763E+04 4.21612E+03 6.60016E+04-2.73485E-09-2.72586E-09
 -1       875 4.48174E+03-2.12355E+04 9.10971E+03 5.65793E+04 6.74390E-10-1.40835E-09
 -1       876 2.85271E+05 3.52485E+04 2.71054E+04 1.12015E+05 6.29484E-09 4.00178E-11
 -1       877 2.91621E+05 5.69654E+04 1.72222E+04 1.15785E+05 1.59756E-09 1.82990E-09
 -1       878 2.89999E+05 4.17248E+04 6.40134E+03 1.11269E+05 2.78919E-09 1.90630E-09
 -1       879 2.86192E+05 4.86964E+04 3.54929E+03 1.16971E+05 2.32308E-09 1.07889E-09
 -1       880 2.90537E+05 4.24576E+04 1.49609E+03 1.11221E+05-1.74668E-09 2.44029E-09
 -1       881 2.85574E+05 4.77785E+04 8.07203E+02 1.17041E+05-4.15821E-09 2.02343E-09
 -1       882 2.90594E+05 4.25497E+04 4.28386E+02 1.11230E+05 3.96619E-09 2.57808E-09
 -1       883 2.85518E+05 4.76797E+04 3.69162E+02 1.17028E+05-6.72523E-09 2.80363E-09
 -1       884 2.90588E+05 4.25520E+04 4.78980E+02 1.11234E+05-5.23367E-09 2.04562E-09
 -1       885 2.85604E+05 4.77853E+04 9.47501E+02 1.17022E+05 1.17770E-08 1.00573E-09
 -1       886 2.90509E+05 4.24523E+04 1.77924E+03 1.11234E+05 6.09251E-09-1.93938E-09
 -1       887 2.86358E+05 4.88636E+04 4.23320E+03 1.16913E+05-3.33171E-09-2.90720E-09
 -1       888 2.89855E+05 4.15883E+04 7.64072E+03 1.11301E+05-4.36123E-09-1.81171E-09
 -1       889 2.92852E+05 5.87201E+04 2.05577E+04 1.15476E+05 4.08482E-09 6.71207E-10
 -1       890 2.84204E+05 3.38651E+04 3.23579E+04 1.12197E+05 1.26965E-09 1.03137E-09
 -1       891 1.07448E+03-1.26399E+05-4.82689E+03 1.18967E+04 1.21281E-09 4.97039E-10
 -1       892-1.76432E+03-1.28145E+05-3.92323E+03 5.17842E+04 3.81738E-09-1.24436E-09
 -1       893 3.04361E+02-1.26941E+05-3.13407E+03 1.18402E+04 1.78488E-10 1.52691E-09
 -1       894-2.76299E+03-1.28721E+05-5.64899E+03 5.17797E+04 2.59672E-09 5.57463E-10
 -1       895 1.89863E+03-1.25817E+05-8.07095E+03 1.19010E+04 4.17049E-09 1.81853E-09
 -1       896 5.25882E+05-3.96241E+03 9.27996E+03 9.53552E+02 2.42977E-10 1.59844E-09
 -1       897 5.29908E+05 4.58886E+03 6.56101E+03-2.28611E+03 5.69820E-10 8.62201E-10
 -1       898 5.27448E+05-6.13627E+02 2.41166E+03 5.37025E+02 7.40670E-11 5.48084E-10
 -1       899 5.28084E+05 7.10928E+02 1.52528E+03-1.62676E+03-8.56065E-10 7.16511E-11
 -1       900 5.27707E+05-9.57993E+01 6.50675E+02 2.94200E+02 9.49356E-11-1.93552E-11
 -1       901 5.27785E+05 1.19323E+02 4.37430E+02-1.26128E+03-1.03647E-10-2.87375E-10
 -1       902 5.27746E+05-2.32524E+01 3.10341E+02 1.71536E+02 3.04983E-11-2.64752E-10
 -1       903 5.27768E+05 8.41163E+01 4.26887E+02-1.10949E+03 1.01739E-10-4.37609E-10
 -1       904 5.27724E+05-6.05309E+01 6.61011E+02 1.42411E+02-1.41446E-10-5.04883E-10
 -1       905 5.27959E+05 4.43354E+02 1.44697E+03-1.13868E+03-5.71862E-10-6.11152E-10
 -1       906 5.27554E+05-3.81576E+02 2.47692E+03 2.00724E+02-1.89818E-10-6.90420E-10
 -1       907 5.29151E+05 2.86222E+03 6.06259E+03-1.35534E+03-1.80330E-10-2.55909E-10
 -1       908 5.26531E+05-2.47228E+03 9.68969E+03 3.59074E+02-8.32756E-12 4.86580E-11
 -1       909 5.36421E+05 1.84919E+04 2.63980E+04-1.81058E+03 2.88455E-10 6.18456E-11
 -1       910 5.20280E+05-1.59597E+04 3.74164E+04 6.55943E+02 5.78808E-10 4.98403E-10
 -1       911 1.59547E+05-2.10590E+03 4.92812E+03 4.51783E+02 4.77939E-10 4.44970E-10
 -1       912 1.61715E+05 2.43895E+03 3.48954E+03-1.68015E+03 2.63881E-10-5.99130E-11
 -1       913 1.60380E+05-3.26502E+02 1.28458E+03 3.31059E+02-2.17710E-10-2.68983E-10
 -1       914 1.60741E+05 3.79201E+02 8.21992E+02-1.47908E+03-1.32161E-10-7.29145E-10
 -1       915 1.60520E+05-5.17928E+01 3.65424E+02 2.50715E+02 5.14461E-10-7.42276E-10
 -1       916 1.60581E+05 6.95226E+01 2.76372E+02-1.35353E+03 8.90969E-10-1.22871E-09
 -1       917 1.60539E+05-1.71340E+01 2.46625E+02 2.05504E+02 6.23469E-10-1.22535E-09
 -1       918 1.60587E+05 8.09901E+01 4.06480E+02-1.29532E+03 1.54877E-10-1.05187E-09
 -1       919 1.60513E+05-6.29950E+01 6.78098E+02 1.92505E+02 5.46717E-10-1.47057E-09
 -1       920 1.60794E+05 4.68336E+02 1.51837E+03-1.30061E+03 4.47177E-10-1.38118E-09
 -1       921 1.60332E+05-4.03482E+02 2.61261E+03 2.10792E+02 6.11909E-10-1.57797E-09
 -1       922 1.62056E+05 3.02725E+03 6.40581E+03-1.36974E+03 9.49246E-10-1.54125E-09
 -1       923 1.59251E+05-2.61443E+03 1.02412E+04 2.61646E+02-4.54747E-13-1.09139E-09
 -1       924 1.69741E+05 1.95540E+04 2.79078E+04-1.50950E+03-3.35422E-10-6.36192E-10
 -1       925 1.52648E+05-1.68757E+04 3.95603E+04 3.50546E+02 2.35431E-10-7.45786E-11
 -1       926-6.77150E+05 1.50251E+04-3.52026E+04-7.21761E+01 2.04666E-09 7.82165E-11
 -1       927-6.92293E+05-1.74087E+04-2.48331E+04-5.82446E+01-5.75191E-10 9.54969E-10
 -1       928-6.83020E+05 2.32738E+03-9.10792E+03-1.34004E+02-2.02455E-10 2.73303E-10
 -1       929-6.85458E+05-2.69394E+03-5.69017E+03 5.39316E+01 8.82626E-10-1.15733E-10
 -1       930-6.83978E+05 3.58587E+02-2.30883E+03-1.84359E+02 2.63507E-10 6.12317E-10
 -1       931-6.84336E+05-4.12263E+02-1.31885E+03 1.29841E+02-9.53094E-10 8.05102E-10
 -1       932-6.84139E+05 5.26297E+01-5.44119E+02-2.09916E+02-1.35718E-10 6.26471E-10
 -1       933-6.84139E+05-4.58591E+01-2.32728E+02 1.49528E+02-4.76507E-10 6.66184E-10
 -1       934-6.84174E+05-6.86891E+00 1.45203E+01-2.04045E+02-6.54337E-10 6.18016E-10
 -1       935-6.84054E+05 1.04776E+02 2.91219E+02 1.07824E+02 3.18710E-11 3.44642E-10
 -1       936-6.84224E+05-9.76594E+01 6.02017E+02-1.68212E+02-5.64334E-10 7.26715E-10
 -1       937-6.83740E+05 7.40577E+02 1.54946E+03 1.54733E+01-1.54348E-10-8.02629E-11
 -1       938-6.84488E+05-6.40765E+02 2.49982E+03-1.11693E+02-3.69074E-11-1.33696E-10
 -1       939-6.81856E+05 4.79365E+03 6.83449E+03-1.03734E+02-8.39790E-11 2.49429E-10
 -1       940-6.86104E+05-4.13733E+03 9.69401E+03-4.90034E+01-5.03277E-11 6.39830E-10
 -1       941 2.78461E+06-1.37209E+05 3.22466E+05 1.34325E+02 1.00378E-08 3.39060E-09
 -1       942 2.92334E+06 1.59033E+05 2.27273E+05 9.08052E+02 1.01359E-08-2.32831E-09
 -1       943 2.83834E+06-2.12618E+04 8.35851E+04 3.57943E+02 3.55961E-09-2.18279E-11
 -1       944 2.86100E+06 2.46263E+04 5.23463E+04 6.08313E+02-8.53688E-10-1.13869E-09
 -1       945 2.84715E+06-3.28866E+03 2.15661E+04 4.34112E+02 1.09380E-09 2.60843E-09
 -1       946 2.85083E+06 3.86222E+03 1.28903E+04 4.99590E+02 2.17837E-09 4.78849E-09
 -1       947 2.84859E+06-5.63771E+02 6.46904E+03 4.66689E+02-1.74931E-10 3.29283E-09
 -1       948 2.84936E+06 1.04839E+03 5.34840E+03 4.34454E+02 1.27581E-09 2.24885E-09
 -1       949 2.84864E+06-4.82637E+02 5.70271E+03 4.99252E+02 8.73773E-10-4.19402E-09
 -1       950 2.85045E+06 3.15726E+03 1.06847E+04 3.25283E+02 1.73875E-09 4.37615E-09
 -1       951 2.84749E+06-2.66669E+03 1.75780E+04 5.75859E+02 1.03123E-09-2.45564E-09
 -1       952 2.85866E+06 1.99441E+04 4.24452E+04 2.30733E+01-4.10772E-10-2.51339E-09
 -1       953 2.84036E+06-1.72165E+04 6.77037E+04 8.01441E+02-3.79389E-09 1.20781E-09
 -1       954 2.90914E+06 1.28770E+05 1.84034E+05-9.01833E+02-1.27635E-09-2.80124E-10
 -1       955 2.79682E+06-1.11105E+05 2.61038E+05 1.50051E+03-7.23935E-09 3.20142E-10
 -1       956-1.51418E+05-2.56760E+03-5.25765E+03 2.18816E+04-3.15322E-09-3.16959E-10
 -1       957-1.52369E+05-8.09051E+02-2.64762E+03 2.52841E+04-1.11322E-09-1.49271E-09
 -1       958-1.51847E+05-9.42999E+01-1.19037E+03 2.17485E+04 1.31968E-09-3.08012E-09
 -1       959-1.51937E+05-5.87923E+00-6.04992E+02 2.54302E+04-1.41927E-09 1.44701E-09
 -1       960-1.51898E+05 3.01457E+01-2.93599E+02 2.17345E+04-2.78487E-09-1.51431E-09
 -1       961-1.51908E+05 3.60970E+01-1.54705E+02 2.54458E+04-6.54768E-09 1.51203E-10
 -1       962-1.51913E+05 3.40006E+01-8.70409E+01 2.17328E+04-3.86171E-09-1.69189E-09
 -1       963-1.51912E+05 4.01904E+01-6.69612E+01 2.54480E+04-5.90671E-09 1.89266E-09
 -1       964-1.51919E+05 3.72316E+01-7.78981E+01 2.17322E+04-1.00090E-09-7.59655E-10
 -1       965-1.51921E+05 4.31752E+01-1.31801E+02 2.54480E+04 3.76127E-09-2.44654E-10
 -1       966-1.51917E+05 4.01080E+01-2.45965E+02 2.17328E+04-1.98555E-09-1.07866E-09
 -1       967-1.51956E+05 1.42723E+01-5.05851E+02 2.54409E+04 3.70903E-10 4.17458E-10
 -1       968-1.51883E+05-5.81397E+01-9.93832E+02 2.17394E+04 5.17957E-10-2.36469E-11
 -1       969-1.52327E+05-6.51710E+02-2.21197E+03 2.53717E+04-9.47693E-10 1.45883E-09
 -1       970-1.51532E+05-2.12145E+03-4.39155E+03 2.18038E+04-2.95358E-10-9.69976E-10
 -1       971-3.31832E+05 5.04322E+03-2.06447E+04 2.55386E+03-4.99904E-09 3.04681E-09
 -1       972-3.39335E+05-6.68818E+03-1.33040E+04 1.20574E+04-5.35908E-09 2.35104E-09
 -1       973-3.34973E+05 5.32568E+02-5.35925E+03 2.46923E+03-6.97810E-09 1.52454E-09
 -1       974-3.35855E+05-6.57406E+02-3.01288E+03 1.21801E+04 5.13523E-10 1.51385E-09
 -1       975-3.35340E+05 6.25689E+01-1.37975E+03 2.43051E+03 1.24601E-10 1.69746E-09
 -1       976-3.35460E+05-3.64991E+01-7.69015E+02 1.22395E+04-5.92331E-09 4.25371E-09
 -1       977-3.35388E+05 1.50752E+01-4.47552E+02 2.40966E+03 6.37260E-09 1.75862E-09
 -1       978-3.35424E+05 2.09297E+01-4.00370E+02 1.22669E+04 1.61397E-08 2.18179E-09
 -1       979-3.35386E+05 1.78256E+01-5.24001E+02 2.40302E+03 5.34038E-09 2.93159E-09
 -1       980-3.35487E+05-5.41960E+01-9.72411E+02 1.22655E+04 1.00049E-08 3.09867E-09
 -1       981-3.35324E+05 8.30378E+01-1.78146E+03 2.41112E+03-5.32395E-09 1.24771E-09
 -1       982-3.36015E+05-8.58728E+02-3.91869E+03 1.22338E+04-6.97133E-09 3.08989E-09
 -1       983-3.34848E+05 6.98896E+02-6.97556E+03 2.43492E+03 8.30823E-10 2.16323E-09
 -1       984-3.40564E+05-8.71111E+03-1.73325E+04 1.21480E+04-3.43334E-10 3.57977E-09
 -1       985-3.30757E+05 6.58032E+03-2.68899E+04 2.49813E+03 3.47632E-09 1.48975E-09
 -3
    1PSTEP                        11           6           1          
  100CL  106 4.57031E-01         841                     0    6           1
 -4  DISP        4    1
 -5  D1          1    2    1    0
 -5  D2          1    2    2    0
 -5  D3          1    2    3    0
 -5  ALL         1    2    0    0    1ALL
 -1         1 5.53199E-05 0.00000E+00 0.00000E+00
 -1         2 4.12145E-05 0.00000E+00 0.00000E+00
 -1         3 3.43947E-05 0.00000E+00 0.00000E+00
 -1         4 3.08171E-05 0.00000E+00 0.00000E+00
 -1         5 2.92843E-05 0.00000E+00 0.00000E+00
 -1         8 4.32199E-05-5.49362E-07 0.00000E+00
 -1         9 3.46303E-05 5.14378E-07 0.00000E+00
 -1        10 3.21256E-05-1.55772E-06 0.00000E+00
 -1        11 3.00494E-05-3.26693E-07 0.00000E+00
 -1        12 2.80608E-05 7.86458E-07 0.00000E+00
 -1        15 1.83819E-05-1.10270E-06 0.00000E+00
 -1        16 2.46921E-05 5.26584E-07 0.00000E+00
 -1        17 2.30124E-05-3.12564E-06 0.00000E+00
 -1        18 2.35263E-05-6.40397E-07 0.00000E+00
 -1        19 2.48499E-05 1.55536E-06 0.00000E+00
 -1        20 2.52463E-05 1.64279E-05 0.00000E+00
 -1        21 2.52332E-05 3.93835E-05 0.00000E+00
 -1        22 6.49671E-06-7.14217E-07 0.00000E+00
 -1        23 8.67909E-06 9.68842E-07 0.00000E+00
 -1        24 9.39816E-06-3.63715E-06 0.00000E+00
 -1        25 2.02606E-05-4.56540E-07 0.00000E+00
 -1        26 2.16436E-05 2.05890E-06 0.00000E+00
 -1        27 2.03547E-05 1.58548E-05 0.00000E+00
 -1        28 1.88400E-05 3.88411E-05 0.00000E+00
 -1        29 0.00000E+00 0.00000E+00 0.00000E+00
 -1        30 3.13194E-06 1.26029E-06 0.00000E+00
 -1        31 4.06153E-06-2.97891E-06 0.00000E+00
 -1        32 0.00000E+00 0.00000E+00 0.00000E+00
 -1        33 1.70624E-05 3.31824E-06 0.00000E+00
 -1        34 1.61404E-05 1.58049E-05 0.00000E+00
 -1        35 1.41066E-05 3.85540E-05 0.00000E+00
 -1        36 5.44663E-05-5.02487E-20-1.32349E-23
 -1        37 5.35848E-05-1.15393E-19 0.00000E+00
 -1        38 5.27050E-05-1.67516E-19 0.00000E+00
 -1        39 5.18200E-05-1.82524E-19 0.00000E+00
 -1        40 5.09348E-05-1.31234E-19 2.64698E-23
 -1        41 5.00485E-05-1.05592E-19 1.32349E-23
 -1        42 4.91621E-05-1.90290E-19 2.64698E-23
 -1        43 4.82755E-05-2.35317E-19 0.00000E+00
 -1        44 4.73890E-05-2.32084E-19 0.00000E+00
 -1        45 4.65025E-05-1.56709E-19 0.00000E+00
 -1        46 4.56160E-05-9.11412E-20 2.64698E-23
 -1        47 4.47303E-05-4.07982E-20 0.00000E+00
 -1        48 4.38447E-05-1.55915E-20 0.00000E+00
 -1        49 4.29626E-05 1.37031E-20 0.00000E+00
 -1        50 4.20793E-05 4.10786E-20 2.64698E-23
 -1        51 5.44139E-05-9.37432E-08 0.00000E+00
 -1        52 5.29037E-05-1.83080E-07 0.00000E+00
 -1        53 5.09063E-05-2.71776E-07 0.00000E+00
 -1        54 4.85444E-05-3.61104E-07 0.00000E+00
 -1        55 4.59411E-05-4.52236E-07 2.06795E-24
 -1        56 5.42504E-05-4.50240E-07 0.00000E+00
 -1        57 5.31684E-05-9.85089E-07 0.00000E+00
 -1        58 5.21020E-05-1.55531E-06-2.64698E-23
 -1        59 5.10296E-05-2.12927E-06 0.00000E+00
 -1        60 4.99443E-05-2.66961E-06 0.00000E+00
 -1        61 4.88324E-05-3.14252E-06 0.00000E+00
 -1        62 4.76832E-05-3.51659E-06-2.64698E-23
 -1        63 4.64860E-05-3.76322E-06 0.00000E+00
 -1        64 4.52323E-05-3.85929E-06 2.64698E-23
 -1        65 4.39150E-05-3.78533E-06 0.00000E+00
 -1        66 4.25295E-05-3.52943E-06-2.64698E-23
 -1        67 4.10740E-05-3.08373E-06 0.00000E+00
 -1        68 3.95478E-05-2.44938E-06 2.64698E-23
 -1        69 3.79591E-05-1.62949E-06-1.32349E-23
 -1        70 3.63044E-05-6.40684E-07-2.64698E-23
 -1        71 4.07875E-05-4.43241E-20-1.32349E-23
 -1        72 4.03606E-05-3.40678E-20 0.00000E+00
 -1        73 3.99337E-05 4.76741E-20 0.00000E+00
 -1        74 3.95067E-05 1.39002E-19-6.61744E-24
 -1        75 3.90798E-05 2.75596E-19 0.00000E+00
 -1        76 3.86529E-05 4.25028E-19 0.00000E+00
 -1        77 3.82260E-05 5.29688E-19 1.32349E-23
 -1        78 3.77991E-05 6.49493E-19 6.61744E-24
 -1        79 3.73722E-05 6.83979E-19-1.32349E-23
 -1        80 3.69453E-05 6.28297E-19 0.00000E+00
 -1        81 3.65185E-05 5.70710E-19 1.32349E-23
 -1        82 3.60919E-05 4.78375E-19 0.00000E+00
 -1        83 3.56654E-05 3.00116E-19 0.00000E+00
 -1        84 3.52400E-05 1.13082E-19 6.61744E-24
 -1        85 3.48142E-05 1.65399E-20 1.32349E-23
 -1        86 4.09672E-05 7.09796E-08 0.00000E+00
 -1        87 4.02364E-05 1.62363E-07 0.00000E+00
 -1        88 3.91331E-05 2.52010E-07-2.06795E-25
 -1        89 3.77669E-05 3.42952E-07-2.06795E-25
 -1        90 3.62341E-05 4.34628E-07 0.00000E+00
 -1        91 4.16238E-05-2.58486E-06 0.00000E+00
 -1        92 4.37907E-05-9.93028E-06 0.00000E+00
 -1        93 4.72090E-05-2.06977E-05 0.00000E+00
 -1        94 5.13553E-05-3.34758E-05 0.00000E+00
 -1        95 5.55215E-05-4.63090E-05 1.32349E-23
 -1        96 5.89986E-05-5.72401E-05-6.61744E-24
 -1        97 6.12541E-05-6.48277E-05 0.00000E+00
 -1        98 6.17683E-05-6.77030E-05 6.61744E-24
 -1        99 6.04791E-05-6.57651E-05 0.00000E+00
 -1       100 5.73600E-05-5.90116E-05-6.61744E-24
 -1       101 5.28848E-05-4.87289E-05 0.00000E+00
 -1       102 4.75667E-05-3.62714E-05 6.61744E-24
 -1       103 4.21553E-05-2.35741E-05-1.32349E-23
 -1       104 3.74054E-05-1.25755E-05-6.61744E-24
 -1       105 3.38821E-05-4.76267E-06 0.00000E+00
 -1       106 3.41685E-05 5.13534E-21 0.00000E+00
 -1       107 3.39444E-05-3.33633E-20 0.00000E+00
 -1       108 3.37200E-05-1.04562E-19 0.00000E+00
 -1       109 3.34961E-05-1.57442E-19 3.30872E-24
 -1       110 3.32722E-05-2.13999E-19 0.00000E+00
 -1       111 3.30483E-05-2.31414E-19-3.30872E-24
 -1       112 3.28245E-05-1.90301E-19 0.00000E+00
 -1       113 3.26007E-05-1.65025E-19 0.00000E+00
 -1       114 3.23769E-05-8.06050E-20-6.61744E-24
 -1       115 3.21531E-05 2.23450E-20 0.00000E+00
 -1       116 3.19294E-05 6.91837E-20-6.61744E-24
 -1       117 3.17058E-05 6.96945E-20 0.00000E+00
 -1       118 3.14822E-05 5.31896E-20 0.00000E+00
 -1       119 3.12593E-05 3.06177E-20 0.00000E+00
 -1       120 3.10363E-05 1.82129E-20 0.00000E+00
 -1       121 3.43772E-05-2.59877E-07 6.61744E-24
 -1       122 3.42772E-05-5.19199E-07-3.30872E-24
 -1       123 3.40479E-05-7.78571E-07 0.00000E+00
 -1       124 3.36434E-05-1.03799E-06 3.30872E-24
 -1       125 3.30176E-05-1.29750E-06 0.00000E+00
 -1       126 3.41656E-05-1.38563E-07 0.00000E+00
 -1       127 3.39717E-05-3.67624E-07 0.00000E+00
 -1       128 3.38027E-05-6.63234E-07 0.00000E+00
 -1       129 3.36494E-05-1.00022E-06 3.30872E-24
 -1       130 3.35000E-05-1.34748E-06-6.61744E-24
 -1       131 3.33427E-05-1.67371E-06-3.30872E-24
 -1       132 3.31672E-05-1.95109E-06 0.00000E+00
 -1       133 3.29630E-05-2.15230E-06 0.00000E+00
 -1       134 3.27241E-05-2.26046E-06 0.00000E+00
 -1       135 3.24442E-05-2.25966E-06 0.00000E+00
 -1       136 3.21233E-05-2.14924E-06-6.61744E-24
 -1       137 3.17616E-05-1.92960E-06-3.30872E-24
 -1       138 3.13648E-05-1.61662E-06 0.00000E+00
 -1       139 3.09400E-05-1.22679E-06 0.00000E+00
 -1       140 3.04965E-05-7.88037E-07 6.61744E-24
 -1       141 3.07189E-05-2.57432E-20-3.30872E-24
 -1       142 3.06220E-05-4.42263E-20 1.65436E-24
 -1       143 3.05250E-05-4.71146E-20-3.30872E-24
 -1       144 3.04283E-05-1.39486E-20 0.00000E+00
 -1       145 3.03316E-05-2.35014E-20 3.30872E-24
 -1       146 3.02349E-05-1.74245E-20 0.00000E+00
 -1       147 3.01383E-05 1.23821E-20 0.00000E+00
 -1       148 3.00416E-05 1.96314E-20 0.00000E+00
 -1       149 2.99450E-05 4.51261E-20 0.00000E+00
 -1       150 2.98485E-05 3.50719E-20-1.65436E-24
 -1       151 2.97520E-05 2.59338E-20-3.30872E-24
 -1       152 2.96558E-05 1.06581E-20-1.65436E-24
 -1       153 2.95597E-05-2.12246E-20 0.00000E+00
 -1       154 2.94653E-05-2.11167E-20 0.00000E+00
 -1       155 2.93704E-05-4.38923E-21 4.13590E-25
 -1       156 3.08296E-05-5.61252E-08 0.00000E+00
 -1       157 3.08621E-05-1.09370E-07 0.00000E+00
 -1       158 3.08569E-05-1.62834E-07-1.65436E-24
 -1       159 3.07563E-05-2.16414E-07-1.65436E-24
 -1       160 3.05054E-05-2.69771E-07 0.00000E+00
 -1       161 3.06857E-05-6.21945E-08 3.30872E-24
 -1       162 3.05623E-05-1.46528E-07 0.00000E+00
 -1       163 3.04436E-05-2.43547E-07-3.30872E-24
 -1       164 3.03261E-05-3.43882E-07 0.00000E+00
 -1       165 3.02062E-05-4.37722E-07-3.30872E-24
 -1       166 3.00802E-05-5.15330E-07 0.00000E+00
 -1       167 2.99451E-05-5.68459E-07 3.30872E-24
 -1       168 2.97977E-05-5.89002E-07 0.00000E+00
 -1       169 2.96360E-05-5.71359E-07 0.00000E+00
 -1       170 2.94580E-05-5.10121E-07 0.00000E+00
 -1       171 2.92630E-05-4.03380E-07-3.30872E-24
 -1       172 2.90507E-05-2.49347E-07-1.65436E-24
 -1       173 2.88214E-05-5.02041E-08 3.30872E-24
 -1       174 2.85780E-05 1.92458E-07 1.65436E-24
 -1       175 2.83200E-05 4.71918E-07 0.00000E+00
 -1       191 2.92410E-05 1.30932E-07 0.00000E+00
 -1       192 2.91310E-05 2.62131E-07 0.00000E+00
 -1       193 2.89559E-05 3.93385E-07 0.00000E+00
 -1       194 2.87177E-05 5.24612E-07 0.00000E+00
 -1       195 2.84184E-05 6.55731E-07 0.00000E+00
 -1       251 4.26948E-05 1.95241E-06-1.32349E-23
 -1       252 4.21552E-05 5.07984E-06-6.61744E-24
 -1       253 4.16160E-05 8.37846E-06 1.32349E-23
 -1       254 4.10752E-05 1.13898E-05 0.00000E+00
 -1       255 4.05360E-05 1.37293E-05 0.00000E+00
 -1       256 3.99982E-05 1.50275E-05 0.00000E+00
 -1       257 3.94611E-05 1.51823E-05-1.32349E-23
 -1       258 3.89234E-05 1.41167E-05 6.61744E-24
 -1       259 3.83843E-05 1.20676E-05-1.32349E-23
 -1       260 3.78435E-05 9.29332E-06 0.00000E+00
 -1       261 3.73021E-05 6.23858E-06 0.00000E+00
 -1       262 3.67616E-05 3.35428E-06-6.61744E-24
 -1       263 3.62226E-05 1.04757E-06 1.32349E-23
 -1       264 3.56877E-05-2.87098E-07 0.00000E+00
 -1       265 3.51528E-05-5.04882E-07 0.00000E+00
 -1       266 4.06851E-05-6.41835E-07 0.00000E+00
 -1       267 3.74289E-05-7.30517E-07 1.65436E-24
 -1       268 3.35044E-05-8.21827E-07-3.30872E-24
 -1       269 2.89671E-05-9.14006E-07 8.27181E-25
 -1       270 2.38985E-05-1.00875E-06 0.00000E+00
 -1       271 4.15443E-05 9.90816E-07 0.00000E+00
 -1       272 4.00216E-05 2.02586E-06 0.00000E+00
 -1       273 3.86650E-05 2.62215E-06 2.64698E-23
 -1       274 3.74465E-05 2.83628E-06 0.00000E+00
 -1       275 3.63467E-05 2.73262E-06 0.00000E+00
 -1       276 3.53405E-05 2.37725E-06-1.32349E-23
 -1       277 3.44025E-05 1.83926E-06-2.64698E-23
 -1       278 3.35062E-05 1.18951E-06 0.00000E+00
 -1       279 3.26248E-05 5.00079E-07 0.00000E+00
 -1       280 3.17312E-05-1.56520E-07 0.00000E+00
 -1       281 3.07985E-05-7.08191E-07 2.64698E-23
 -1       282 2.98007E-05-1.08380E-06 0.00000E+00
 -1       283 2.87115E-05-1.21435E-06 2.64698E-23
 -1       284 2.75101E-05-1.03184E-06 0.00000E+00
 -1       285 2.61670E-05-4.75150E-07 0.00000E+00
 -1       286 3.44707E-05 1.92520E-06-6.61744E-24
 -1       287 3.43143E-05 2.88756E-06 0.00000E+00
 -1       288 3.41581E-05 3.41734E-06-6.61744E-24
 -1       289 3.40025E-05 3.53319E-06-3.30872E-24
 -1       290 3.38468E-05 3.28648E-06 6.61744E-24
 -1       291 3.36912E-05 2.73090E-06 3.30872E-24
 -1       292 3.35354E-05 1.94455E-06 0.00000E+00
 -1       293 3.33795E-05 1.00697E-06 0.00000E+00
 -1       294 3.32236E-05 9.69185E-09 6.61744E-24
 -1       295 3.30676E-05-9.55394E-07-3.30872E-24
 -1       296 3.29117E-05-1.79895E-06 0.00000E+00
 -1       297 3.27558E-05-2.43241E-06-3.30872E-24
 -1       298 3.26000E-05-2.78378E-06 6.61744E-24
 -1       299 3.24434E-05-2.78291E-06 3.30872E-24
 -1       300 3.22870E-05-2.38749E-06 0.00000E+00
 -1       301 3.29719E-05 5.09889E-07 0.00000E+00
 -1       302 3.13066E-05 5.15174E-07 0.00000E+00
 -1       303 2.96401E-05 5.22206E-07 0.00000E+00
 -1       304 2.79783E-05 5.29025E-07 0.00000E+00
 -1       305 2.63270E-05 5.33627E-07 3.30872E-24
 -1       306 3.34312E-05 1.60651E-06-1.32349E-23
 -1       307 3.24021E-05 2.18337E-06 0.00000E+00
 -1       308 3.15402E-05 2.31720E-06 0.00000E+00
 -1       309 3.08159E-05 2.07465E-06-1.32349E-23
 -1       310 3.02054E-05 1.52752E-06 0.00000E+00
 -1       311 2.96811E-05 7.48928E-07 0.00000E+00
 -1       312 2.92151E-05-1.86045E-07 2.64698E-23
 -1       313 2.87791E-05-1.20126E-06 0.00000E+00
 -1       314 2.83443E-05-2.21988E-06 0.00000E+00
 -1       315 2.78823E-05-3.16507E-06 0.00000E+00
 -1       316 2.73643E-05-3.96063E-06 0.00000E+00
 -1       317 2.67628E-05-4.53132E-06 0.00000E+00
 -1       318 2.60499E-05-4.80389E-06 0.00000E+00
 -1       319 2.52023E-05-4.70611E-06-6.61744E-24
 -1       320 2.41896E-05-4.17130E-06 0.00000E+00
 -1       321 3.19893E-05-6.26794E-07-6.61744E-24
 -1       322 3.18590E-05 7.02854E-08 0.00000E+00
 -1       323 3.17285E-05 5.43229E-07-3.30872E-24
 -1       324 3.15991E-05 8.02937E-07 0.00000E+00
 -1       325 3.14698E-05 8.74364E-07 3.30872E-24
 -1       326 3.13407E-05 7.83457E-07 1.65436E-24
 -1       327 3.12116E-05 5.66854E-07 0.00000E+00
 -1       328 3.10826E-05 2.61864E-07 0.00000E+00
 -1       329 3.09535E-05-8.83837E-08-3.30872E-24
 -1       330 3.08244E-05-4.40530E-07 1.65436E-24
 -1       331 3.06954E-05-7.51082E-07 0.00000E+00
 -1       332 3.05664E-05-9.76764E-07 1.65436E-24
 -1       333 3.04373E-05-1.07990E-06 3.30872E-24
 -1       334 3.03082E-05-1.02345E-06-1.65436E-24
 -1       335 3.01791E-05-7.80897E-07 3.30872E-24
 -1       336 3.09372E-05-1.82038E-06-6.61744E-24
 -1       337 2.95316E-05-2.08271E-06 3.30872E-24
 -1       338 2.79723E-05-2.34515E-06 6.61744E-24
 -1       339 2.63232E-05-2.60689E-06 0.00000E+00
 -1       340 2.46485E-05-2.86875E-06-6.61744E-24
 -1       341 3.11490E-05-3.10066E-07 0.00000E+00
 -1       342 2.98943E-05 1.65296E-06 0.00000E+00
 -1       343 2.84802E-05 4.03989E-06 0.00000E+00
 -1       344 2.70188E-05 6.54772E-06 6.61744E-24
 -1       345 2.56371E-05 8.84446E-06 1.32349E-23
 -1       346 2.44589E-05 1.06014E-05 0.00000E+00
 -1       347 2.35570E-05 1.16250E-05 1.32349E-23
 -1       348 2.29983E-05 1.17350E-05-6.61744E-24
 -1       349 2.27638E-05 1.09802E-05 1.32349E-23
 -1       350 2.28284E-05 9.42580E-06-6.61744E-24
 -1       351 2.30928E-05 7.33645E-06 0.00000E+00
 -1       352 2.34547E-05 4.98723E-06 6.61744E-24
 -1       353 2.37868E-05 2.71821E-06 1.32349E-23
 -1       354 2.39662E-05 8.69535E-07 0.00000E+00
 -1       355 2.39002E-05-3.26427E-07 0.00000E+00
 -1       356 2.99231E-05 1.70536E-07 0.00000E+00
 -1       357 2.97976E-05 5.40796E-07 0.00000E+00
 -1       358 2.96721E-05 7.91155E-07 3.30872E-24
 -1       359 2.95468E-05 9.29287E-07 0.00000E+00
 -1       360 2.94214E-05 9.70055E-07 3.30872E-24
 -1       361 2.92961E-05 9.28821E-07 0.00000E+00
 -1       362 2.91708E-05 8.26198E-07 0.00000E+00
 -1       363 2.90455E-05 6.83112E-07 0.00000E+00
 -1       364 2.89203E-05 5.23078E-07 0.00000E+00
 -1       365 2.87951E-05 3.69699E-07 0.00000E+00
 -1       366 2.86700E-05 2.46154E-07 0.00000E+00
 -1       367 2.85452E-05 1.75466E-07 1.65436E-24
 -1       368 2.84205E-05 1.77278E-07 0.00000E+00
 -1       369 2.82977E-05 2.70861E-07-8.27181E-25
 -1       370 2.81743E-05 4.69633E-07 5.16988E-26
 -1       371 2.92559E-05-3.82822E-07-3.30872E-24
 -1       372 2.80187E-05-4.35569E-07 0.00000E+00
 -1       373 2.65824E-05-4.88767E-07 0.00000E+00
 -1       374 2.51924E-05-5.40627E-07 4.13590E-25
 -1       375 2.40926E-05-5.92310E-07-4.13590E-25
 -1       376 2.96140E-05 9.46812E-08-6.61744E-24
 -1       377 2.92109E-05 4.17142E-07 0.00000E+00
 -1       378 2.88456E-05 6.39878E-07 6.61744E-24
 -1       379 2.85175E-05 7.60980E-07 0.00000E+00
 -1       380 2.82226E-05 7.93618E-07-6.61744E-24
 -1       381 2.79556E-05 7.51522E-07-3.30872E-24
 -1       382 2.77073E-05 6.59199E-07 0.00000E+00
 -1       383 2.74686E-05 5.41621E-07 0.00000E+00
 -1       384 2.72286E-05 4.27507E-07 0.00000E+00
 -1       385 2.69765E-05 3.45572E-07-3.30872E-24
 -1       386 2.67036E-05 3.19479E-07-6.61744E-24
 -1       387 2.64015E-05 3.72471E-07 3.30872E-24
 -1       388 2.60653E-05 5.16564E-07 6.61744E-24
 -1       389 2.56930E-05 7.63876E-07 3.30872E-24
 -1       390 2.52827E-05 1.10985E-06 3.30872E-24
 -1       406 2.76231E-05 9.15277E-07-6.61744E-24
 -1       407 2.71367E-05 1.04430E-06 3.30872E-24
 -1       408 2.66086E-05 1.17327E-06 0.00000E+00
 -1       409 2.60464E-05 1.30193E-06 0.00000E+00
 -1       410 2.54576E-05 1.42988E-06 3.30872E-24
 -1       466 1.87516E-05 3.64900E-06-6.61744E-24
 -1       467 1.91450E-05 6.48910E-06 0.00000E+00
 -1       468 1.95404E-05 7.90771E-06-1.32349E-23
 -1       469 1.99399E-05 8.37111E-06 0.00000E+00
 -1       470 2.03395E-05 8.13237E-06-1.32349E-23
 -1       471 2.07395E-05 7.43294E-06 0.00000E+00
 -1       472 2.11394E-05 6.41117E-06-1.32349E-23
 -1       473 2.15391E-05 5.20007E-06 0.00000E+00
 -1       474 2.19387E-05 3.89023E-06 0.00000E+00
 -1       475 2.23381E-05 2.57066E-06 6.61744E-24
 -1       476 2.27375E-05 1.32817E-06 0.00000E+00
 -1       477 2.31361E-05 2.50815E-07-6.61744E-24
 -1       478 2.35347E-05-5.36378E-07 0.00000E+00
 -1       479 2.39285E-05-9.03565E-07 0.00000E+00
 -1       480 2.43240E-05-6.27342E-07 0.00000E+00
 -1       481 1.35313E-05-1.04897E-06 0.00000E+00
 -1       482 1.04110E-05-9.85340E-07-8.27181E-25
 -1       483 8.57613E-06-9.18759E-07 0.00000E+00
 -1       484 7.58559E-06-8.50599E-07-8.27181E-25
 -1       485 7.02887E-06-7.81991E-07 0.00000E+00
 -1       486 1.49413E-05 6.72886E-06 0.00000E+00
 -1       487 9.77998E-06 1.89657E-05 0.00000E+00
 -1       488 3.58963E-06 3.38458E-05-1.32349E-23
 -1       489-2.92910E-06 4.95548E-05 6.61744E-24
 -1       490-8.98726E-06 6.40866E-05 1.32349E-23
 -1       491-1.38129E-05 7.54527E-05 0.00000E+00
 -1       492-1.69426E-05 8.24132E-05-1.32349E-23
 -1       493-1.79563E-05 8.38019E-05 0.00000E+00
 -1       494-1.69455E-05 7.97744E-05 0.00000E+00
 -1       495-1.40352E-05 7.05844E-05 0.00000E+00
 -1       496-9.78865E-06 5.77189E-05-1.32349E-23
 -1       497-4.77917E-06 4.27353E-05 0.00000E+00
 -1       498 2.48928E-07 2.77003E-05 1.32349E-23
 -1       499 4.55382E-06 1.46828E-05 6.61744E-24
 -1       500 7.54970E-06 5.26563E-06-6.61744E-24
 -1       501 2.45800E-05 1.84713E-06 0.00000E+00
 -1       502 2.44748E-05 2.59829E-06 0.00000E+00
 -1       503 2.43694E-05 2.83286E-06-3.30872E-24
 -1       504 2.42653E-05 2.60581E-06 0.00000E+00
 -1       505 2.41611E-05 1.99670E-06 0.00000E+00
 -1       506 2.40569E-05 1.08672E-06 0.00000E+00
 -1       507 2.39525E-05-2.69131E-08 0.00000E+00
 -1       508 2.38480E-05-1.24617E-06 0.00000E+00
 -1       509 2.37436E-05-2.46737E-06-3.30872E-24
 -1       510 2.36393E-05-3.58682E-06 0.00000E+00
 -1       511 2.35351E-05-4.50625E-06 0.00000E+00
 -1       512 2.34312E-05-5.12825E-06-1.65436E-24
 -1       513 2.33273E-05-5.37119E-06-3.30872E-24
 -1       514 2.32232E-05-5.15509E-06 0.00000E+00
 -1       515 2.31189E-05-4.42437E-06 0.00000E+00
 -1       516 2.23342E-05 5.91439E-07 0.00000E+00
 -1       517 1.85631E-05 6.65867E-07-2.06795E-25
 -1       518 1.43415E-05 7.37722E-07-8.27181E-25
 -1       519 1.06302E-05 8.12964E-07-4.13590E-25
 -1       520 8.41312E-06 8.92690E-07 0.00000E+00
 -1       521 2.32976E-05 1.51745E-06-2.64698E-23
 -1       522 2.20636E-05 1.99612E-06 1.32349E-23
 -1       523 2.09952E-05 2.03666E-06-2.64698E-23
 -1       524 2.00615E-05 1.70524E-06-1.32349E-23
 -1       525 1.92394E-05 1.07481E-06 0.00000E+00
 -1       526 1.85006E-05 2.19887E-07 1.32349E-23
 -1       527 1.78168E-05-7.82506E-07 0.00000E+00
 -1       528 1.71588E-05-1.85408E-06 1.32349E-23
 -1       529 1.64971E-05-2.91579E-06 0.00000E+00
 -1       530 1.58022E-05-3.88871E-06-1.32349E-23
 -1       531 1.50451E-05-4.69484E-06 2.64698E-23
 -1       532 1.41976E-05-5.25766E-06-1.32349E-23
 -1       533 1.32316E-05-5.50332E-06 2.64698E-23
 -1       534 1.21242E-05-5.35978E-06 1.32349E-23
 -1       535 1.08450E-05-4.76183E-06 0.00000E+00
 -1       536 2.30356E-05-1.72751E-06 1.65436E-24
 -1       537 2.30666E-05-6.65043E-07 8.27181E-25
 -1       538 2.30978E-05 9.82044E-08 4.13590E-25
 -1       539 2.31303E-05 5.98858E-07-2.06795E-25
 -1       540 2.31630E-05 8.73393E-07 8.27181E-25
 -1       541 2.31960E-05 9.58234E-07-4.13590E-25
 -1       542 2.32291E-05 8.89751E-07 8.27181E-25
 -1       543 2.32622E-05 7.04261E-07 0.00000E+00
 -1       544 2.32953E-05 4.38051E-07 0.00000E+00
 -1       545 2.33284E-05 1.27373E-07 0.00000E+00
 -1       546 2.33614E-05-1.91524E-07-8.27181E-25
 -1       547 2.33945E-05-4.82397E-07 4.13590E-25
 -1       548 2.34276E-05-7.08999E-07-8.27181E-25
 -1       549 2.34607E-05-8.35065E-07 0.00000E+00
 -1       550 2.34937E-05-8.24272E-07 0.00000E+00
 -1       551 2.09776E-05-3.21024E-06-1.65436E-24
 -1       552 1.87170E-05-3.29254E-06 8.27181E-25
 -1       553 1.63287E-05-3.37482E-06 0.00000E+00
 -1       554 1.39130E-05-3.45795E-06 0.00000E+00
 -1       555 1.15700E-05-3.54295E-06-6.61744E-24
 -1       556 2.24093E-05-1.82110E-06 0.00000E+00
 -1       557 2.19203E-05-8.13297E-07 3.30872E-24
 -1       558 2.15327E-05-7.36352E-08 0.00000E+00
 -1       559 2.12343E-05 4.29276E-07 0.00000E+00
 -1       560 2.10132E-05 7.26893E-07 0.00000E+00
 -1       561 2.08572E-05 8.50956E-07 0.00000E+00
 -1       562 2.07545E-05 8.33231E-07 0.00000E+00
 -1       563 2.06930E-05 7.05522E-07 0.00000E+00
 -1       564 2.06609E-05 4.99651E-07 0.00000E+00
 -1       565 2.06461E-05 2.47449E-07 0.00000E+00
 -1       566 2.06368E-05-1.92441E-08 0.00000E+00
 -1       567 2.06210E-05-2.68584E-07 0.00000E+00
 -1       568 2.05869E-05-4.68735E-07-1.65436E-24
 -1       569 2.05228E-05-5.87897E-07-9.04729E-26
 -1       570 2.04171E-05-5.94297E-07-4.13590E-25
 -1       571 2.36056E-05-4.38756E-07 8.27181E-25
 -1       572 2.36875E-05-2.98840E-07-6.20385E-25
 -1       573 2.37701E-05-2.09782E-07 1.65436E-24
 -1       574 2.38531E-05-1.60158E-07-8.27181E-25
 -1       575 2.39362E-05-1.38496E-07 1.65436E-24
 -1       576 2.40194E-05-1.33254E-07-8.27181E-25
 -1       577 2.41026E-05-1.32885E-07-3.30872E-24
 -1       578 2.41858E-05-1.25833E-07 0.00000E+00
 -1       579 2.42690E-05-1.00541E-07-3.30872E-24
 -1       580 2.43522E-05-4.54502E-08-1.65436E-24
 -1       581 2.44354E-05 5.09954E-08-6.61744E-24
 -1       582 2.45185E-05 2.00343E-07 0.00000E+00
 -1       583 2.46017E-05 4.14131E-07 0.00000E+00
 -1       584 2.46847E-05 7.03788E-07 0.00000E+00
 -1       585 2.47676E-05 1.08069E-06 0.00000E+00
 -1       586 2.30530E-05-6.09158E-07 0.00000E+00
 -1       587 2.25111E-05-5.77623E-07 0.00000E+00
 -1       588 2.19306E-05-5.46116E-07 0.00000E+00
 -1       589 2.13418E-05-5.14920E-07-1.55096E-25
 -1       590 2.07752E-05-4.84433E-07 0.00000E+00
 -1       591 2.33887E-05-4.07936E-07 8.27181E-25
 -1       592 2.32627E-05-2.16200E-07 0.00000E+00
 -1       593 2.31486E-05-5.78139E-08-1.65436E-24
 -1       594 2.30440E-05 7.40506E-08 0.00000E+00
 -1       595 2.29467E-05 1.86216E-07 1.65436E-24
 -1       596 2.28542E-05 2.85466E-07 0.00000E+00
 -1       597 2.27640E-05 3.78579E-07 1.65436E-24
 -1       598 2.26735E-05 4.72324E-07-8.27181E-25
 -1       599 2.25802E-05 5.73477E-07 0.00000E+00
 -1       600 2.24816E-05 6.88805E-07 0.00000E+00
 -1       601 2.23752E-05 8.25081E-07 8.27181E-25
 -1       602 2.22585E-05 9.89082E-07 0.00000E+00
 -1       603 2.21290E-05 1.18759E-06 8.27181E-25
 -1       604 2.19843E-05 1.42742E-06 3.10193E-25
 -1       605 2.18224E-05 1.71540E-06 0.00000E+00
 -1       606 2.48776E-05 2.18356E-06 0.00000E+00
 -1       607 2.49033E-05 2.86990E-06 1.65436E-24
 -1       608 2.49284E-05 3.61097E-06 0.00000E+00
 -1       609 2.49532E-05 4.40290E-06 0.00000E+00
 -1       610 2.49779E-05 5.24177E-06 0.00000E+00
 -1       611 2.50025E-05 6.12361E-06 0.00000E+00
 -1       612 2.50270E-05 7.04442E-06 0.00000E+00
 -1       613 2.50515E-05 8.00024E-06 0.00000E+00
 -1       614 2.50760E-05 8.98706E-06 0.00000E+00
 -1       615 2.51004E-05 1.00009E-05 0.00000E+00
 -1       616 2.51249E-05 1.10378E-05 0.00000E+00
 -1       617 2.51492E-05 1.20937E-05 0.00000E+00
 -1       618 2.51736E-05 1.31646E-05 0.00000E+00
 -1       619 2.51979E-05 1.42466E-05 4.13590E-25
 -1       620 2.52222E-05 1.53357E-05 8.27181E-25
 -1       621 2.42546E-05 1.63945E-06 0.00000E+00
 -1       622 2.36746E-05 1.72408E-06-8.27181E-25
 -1       623 2.31168E-05 1.80876E-06-1.65436E-24
 -1       624 2.25878E-05 1.89324E-06 0.00000E+00
 -1       625 2.20946E-05 1.97724E-06 0.00000E+00
 -1       626 2.46599E-05 2.21177E-06 0.00000E+00
 -1       627 2.44460E-05 2.92879E-06 0.00000E+00
 -1       628 2.42111E-05 3.70093E-06 0.00000E+00
 -1       629 2.39577E-05 4.52189E-06 0.00000E+00
 -1       630 2.36883E-05 5.38538E-06 0.00000E+00
 -1       631 2.34052E-05 6.28498E-06 0.00000E+00
 -1       632 2.31110E-05 7.21428E-06 0.00000E+00
 -1       633 2.28081E-05 8.16686E-06 0.00000E+00
 -1       634 2.24988E-05 9.13631E-06 0.00000E+00
 -1       635 2.21855E-05 1.01162E-05 0.00000E+00
 -1       636 2.18708E-05 1.11001E-05 1.65436E-24
 -1       637 2.15569E-05 1.20816E-05 4.13590E-25
 -1       638 2.12462E-05 1.30543E-05 0.00000E+00
 -1       639 2.09411E-05 1.40117E-05 8.27181E-25
 -1       640 2.06435E-05 1.49474E-05 4.13590E-25
 -1       641 2.52471E-05 1.75631E-05 0.00000E+00
 -1       642 2.52469E-05 1.88188E-05 0.00000E+00
 -1       643 2.52466E-05 2.01777E-05-1.03398E-25
 -1       644 2.52461E-05 2.16226E-05 2.58494E-26
 -1       645 2.52455E-05 2.31362E-05-2.58494E-26
 -1       646 2.52448E-05 2.47011E-05 1.29247E-26
 -1       647 2.52440E-05 2.63003E-05 0.00000E+00
 -1       648 2.52432E-05 2.79163E-05-3.23117E-27
 -1       649 2.52424E-05 2.95320E-05 3.23117E-27
 -1       650 2.52415E-05 3.11302E-05-1.29247E-26
 -1       651 2.52408E-05 3.26935E-05 0.00000E+00
 -1       652 2.52399E-05 3.42047E-05 5.16988E-26
 -1       653 2.52392E-05 3.56466E-05 2.06795E-25
 -1       654 2.52380E-05 3.70019E-05 2.06795E-25
 -1       655 2.52371E-05 3.82533E-05-8.27181E-25
 -1       656 2.42603E-05 1.63355E-05 0.00000E+00
 -1       657 2.34040E-05 1.62384E-05 0.00000E+00
 -1       658 2.26313E-05 1.61416E-05 0.00000E+00
 -1       659 2.18963E-05 1.60447E-05 0.00000E+00
 -1       660 2.11528E-05 1.59476E-05 1.65436E-24
 -1       661 2.49296E-05 1.75958E-05-1.65436E-24
 -1       662 2.45812E-05 1.88597E-05 1.65436E-24
 -1       663 2.42023E-05 2.02041E-05-3.30872E-24
 -1       664 2.37987E-05 2.16157E-05-1.65436E-24
 -1       665 2.33752E-05 2.30807E-05 0.00000E+00
 -1       666 2.29368E-05 2.45855E-05 1.65436E-24
 -1       667 2.24885E-05 2.61164E-05 3.30872E-24
 -1       668 2.20355E-05 2.76601E-05 0.00000E+00
 -1       669 2.15828E-05 2.92030E-05 0.00000E+00
 -1       670 2.11354E-05 3.07317E-05-1.65436E-24
 -1       671 2.06984E-05 3.22325E-05-3.30872E-24
 -1       672 2.02768E-05 3.36920E-05 1.65436E-24
 -1       673 1.98758E-05 3.50967E-05 0.00000E+00
 -1       674 1.94997E-05 3.64324E-05-1.65436E-24
 -1       675 1.91548E-05 3.76859E-05 1.65436E-24
 -1       676 2.41649E-05 3.92929E-05 3.30872E-24
 -1       677 2.30975E-05 3.92019E-05 0.00000E+00
 -1       678 2.20312E-05 3.91108E-05 0.00000E+00
 -1       679 2.09661E-05 3.90201E-05 0.00000E+00
 -1       680 1.99023E-05 3.89294E-05 0.00000E+00
 -1       681 6.63004E-06-1.61239E-07 3.30872E-24
 -1       682 6.76713E-06 4.20334E-07 0.00000E+00
 -1       683 6.90397E-06 1.01535E-06 0.00000E+00
 -1       684 7.04153E-06 1.60871E-06-1.65436E-24
 -1       685 7.17912E-06 2.18521E-06-3.30872E-24
 -1       686 7.31686E-06 2.72955E-06 0.00000E+00
 -1       687 7.45465E-06 3.22405E-06 0.00000E+00
 -1       688 7.59248E-06 3.65076E-06-1.65436E-24
 -1       689 7.73033E-06 3.98672E-06-3.30872E-24
 -1       690 7.86815E-06 4.20847E-06-1.65436E-24
 -1       691 8.00595E-06 4.28413E-06 3.30872E-24
 -1       692 8.14343E-06 4.18101E-06 0.00000E+00
 -1       693 8.28080E-06 3.85324E-06-3.30872E-24
 -1       694 8.41641E-06 3.25368E-06 1.65436E-24
 -1       695 8.55231E-06 2.31523E-06 0.00000E+00
 -1       696 5.78377E-06-5.98018E-07-3.30872E-24
 -1       697 4.73445E-06-4.78980E-07 0.00000E+00
 -1       698 3.49120E-06-3.60327E-07 0.00000E+00
 -1       699 2.19552E-06-2.40867E-07 1.65436E-24
 -1       700 9.85598E-07-1.21377E-07-3.30872E-24
 -1       701 6.18845E-06-3.07168E-07 0.00000E+00
 -1       702 5.93193E-06-6.15089E-08 0.00000E+00
 -1       703 5.72896E-06 4.30165E-08 0.00000E+00
 -1       704 5.57084E-06 2.37011E-08 0.00000E+00
 -1       705 5.44829E-06-9.04689E-08 3.30872E-24
 -1       706 5.35015E-06-2.70559E-07 1.65436E-24
 -1       707 5.26367E-06-4.81820E-07-3.30872E-24
 -1       708 5.17577E-06-6.89417E-07-1.65436E-24
 -1       709 5.07356E-06-8.58845E-07 0.00000E+00
 -1       710 4.94423E-06-9.55822E-07-1.65436E-24
 -1       711 4.77722E-06-9.52237E-07 3.30872E-24
 -1       712 4.56242E-06-8.20501E-07-1.65436E-24
 -1       713 4.29330E-06-5.44026E-07 3.30872E-24
 -1       714 3.96529E-06-1.06502E-07-1.65436E-24
 -1       715 3.57564E-06 4.93540E-07-1.65436E-24
 -1       716 8.71956E-06-5.29850E-07 4.13590E-25
 -1       717 8.76520E-06-1.91757E-06 2.06795E-25
 -1       718 8.81067E-06-3.18896E-06 0.00000E+00
 -1       719 8.85723E-06-4.33845E-06-8.27181E-25
 -1       720 8.90395E-06-5.35746E-06 0.00000E+00
 -1       721 8.95099E-06-6.23712E-06-8.27181E-25
 -1       722 8.99816E-06-6.96509E-06-1.65436E-24
 -1       723 9.04545E-06-7.52877E-06-8.27181E-25
 -1       724 9.09280E-06-7.91141E-06 0.00000E+00
 -1       725 9.14010E-06-8.09592E-06 8.27181E-25
 -1       726 9.18735E-06-8.06028E-06 8.27181E-25
 -1       727 9.23405E-06-7.78203E-06 4.13590E-25
 -1       728 9.28054E-06-7.23267E-06 0.00000E+00
 -1       729 9.32420E-06-6.38314E-06 0.00000E+00
 -1       730 9.36840E-06-5.19701E-06 3.30872E-24
 -1       731 9.54355E-06 1.01331E-06 4.13590E-25
 -1       732 9.07225E-06 1.06318E-06 0.00000E+00
 -1       733 7.73338E-06 1.11205E-06 0.00000E+00
 -1       734 5.99323E-06 1.16121E-06 8.27181E-25
 -1       735 4.30751E-06 1.21053E-06 0.00000E+00
 -1       736 9.00630E-06-8.89800E-07 6.61744E-24
 -1       737 9.45466E-06-3.10565E-06-3.30872E-24
 -1       738 9.95765E-06-5.46588E-06-6.61744E-24
 -1       739 1.04341E-05-7.76078E-06-6.61744E-24
 -1       740 1.08121E-05-9.79164E-06 1.32349E-23
 -1       741 1.10187E-05-1.13642E-05 0.00000E+00
 -1       742 1.10137E-05-1.23708E-05-1.32349E-23
 -1       743 1.07594E-05-1.27115E-05-6.61744E-24
 -1       744 1.02649E-05-1.24122E-05 1.32349E-23
 -1       745 9.54313E-06-1.15077E-05 0.00000E+00
 -1       746 8.64963E-06-1.01469E-05-1.32349E-23
 -1       747 7.64308E-06-8.48510E-06-6.61744E-24
 -1       748 6.60303E-06-6.73446E-06 0.00000E+00
 -1       749 5.61159E-06-5.10757E-06 0.00000E+00
 -1       750 4.73787E-06-3.79515E-06 0.00000E+00
 -1       751 1.00366E-05-2.18194E-06 0.00000E+00
 -1       752 1.07154E-05-1.29085E-06 6.61744E-24
 -1       753 1.13919E-05-7.90109E-07 0.00000E+00
 -1       754 1.20761E-05-5.17215E-07 1.32349E-23
 -1       755 1.27605E-05-4.01430E-07 0.00000E+00
 -1       756 1.34465E-05-3.76483E-07 0.00000E+00
 -1       757 1.41326E-05-4.12830E-07 0.00000E+00
 -1       758 1.48190E-05-4.82669E-07-1.32349E-23
 -1       759 1.55054E-05-5.71745E-07-2.64698E-23
 -1       760 1.61917E-05-6.66356E-07 0.00000E+00
 -1       761 1.68778E-05-7.55034E-07 0.00000E+00
 -1       762 1.75628E-05-8.26143E-07 0.00000E+00
 -1       763 1.82477E-05-8.60946E-07 1.32349E-23
 -1       764 1.89271E-05-8.39670E-07 6.61744E-24
 -1       765 1.96083E-05-7.19940E-07 1.32349E-23
 -1       766 7.86666E-06-3.54062E-06 3.30872E-24
 -1       767 6.75717E-06-3.42720E-06 2.58494E-26
 -1       768 5.94292E-06-3.31460E-06 0.00000E+00
 -1       769 5.29868E-06-3.20041E-06 0.00000E+00
 -1       770 4.70971E-06-3.08549E-06 1.03398E-25
 -1       771 8.38039E-06-2.24371E-06-2.64698E-23
 -1       772 7.45256E-06-1.10837E-06 0.00000E+00
 -1       773 6.61233E-06-2.09524E-07-2.64698E-23
 -1       774 5.85205E-06 4.74699E-07-6.61744E-24
 -1       775 5.16396E-06 9.66228E-07 0.00000E+00
 -1       776 4.53987E-06 1.28712E-06 0.00000E+00
 -1       777 3.97150E-06 1.45947E-06 0.00000E+00
 -1       778 3.45055E-06 1.50547E-06-6.61744E-24
 -1       779 2.96869E-06 1.44731E-06 0.00000E+00
 -1       780 2.51757E-06 1.30727E-06-6.61744E-24
 -1       781 2.08884E-06 1.10764E-06 0.00000E+00
 -1       782 1.67421E-06 8.70753E-07 0.00000E+00
 -1       783 1.26541E-06 6.18962E-07 0.00000E+00
 -1       784 8.54532E-07 3.74728E-07 6.61744E-24
 -1       785 4.33778E-07 1.60526E-07 0.00000E+00
 -1       786 2.03419E-05-1.56373E-07 8.27181E-25
 -1       787 2.04282E-05 7.79483E-08 0.00000E+00
 -1       788 2.05143E-05 2.56503E-07 1.65436E-24
 -1       789 2.06013E-05 3.89365E-07 1.65436E-24
 -1       790 2.06883E-05 4.86565E-07 0.00000E+00
 -1       791 2.07755E-05 5.58109E-07 0.00000E+00
 -1       792 2.08627E-05 6.13981E-07 3.30872E-24
 -1       793 2.09499E-05 6.64149E-07 0.00000E+00
 -1       794 2.10372E-05 7.18582E-07 0.00000E+00
 -1       795 2.11244E-05 7.87249E-07 0.00000E+00
 -1       796 2.12116E-05 8.80130E-07 3.30872E-24
 -1       797 2.12987E-05 1.00723E-06-1.65436E-24
 -1       798 2.13858E-05 1.17857E-06 0.00000E+00
 -1       799 2.14725E-05 1.40422E-06 8.27181E-25
 -1       800 2.15593E-05 1.69429E-06-1.65436E-24
 -1       801 1.84404E-05-3.76285E-07 0.00000E+00
 -1       802 1.46711E-05-2.96233E-07 8.27181E-25
 -1       803 9.94711E-06-2.20048E-07 0.00000E+00
 -1       804 5.26381E-06-1.45458E-07 0.00000E+00
 -1       805 1.61661E-06-6.68650E-08 0.00000E+00
 -1       806 2.00528E-05-1.88519E-07 0.00000E+00
 -1       807 1.98520E-05 5.14141E-08-1.65436E-24
 -1       808 1.96589E-05 2.68776E-07 0.00000E+00
 -1       809 1.94719E-05 4.68630E-07 1.65436E-24
 -1       810 1.92894E-05 6.56004E-07 3.30872E-24
 -1       811 1.91097E-05 8.35892E-07 0.00000E+00
 -1       812 1.89310E-05 1.01327E-06-3.30872E-24
 -1       813 1.87513E-05 1.19312E-06 1.65436E-24
 -1       814 1.85687E-05 1.38041E-06 0.00000E+00
 -1       815 1.83816E-05 1.58011E-06 8.27181E-25
 -1       816 1.81879E-05 1.79721E-06 0.00000E+00
 -1       817 1.79859E-05 2.03667E-06 0.00000E+00
 -1       818 1.77738E-05 2.30347E-06 1.65436E-24
 -1       819 1.75498E-05 2.60261E-06 8.27181E-25
 -1       820 1.73126E-05 2.93912E-06 0.00000E+00
 -1       821 2.15681E-05 2.52296E-06 0.00000E+00
 -1       822 2.14877E-05 3.09050E-06 0.00000E+00
 -1       823 2.14074E-05 3.75092E-06 0.00000E+00
 -1       824 2.13264E-05 4.49351E-06 0.00000E+00
 -1       825 2.12451E-05 5.30750E-06-1.65436E-24
 -1       826 2.11637E-05 6.18206E-06 1.65436E-24
 -1       827 2.10823E-05 7.10631E-06 3.30872E-24
 -1       828 2.10007E-05 8.06935E-06-1.65436E-24
 -1       829 2.09191E-05 9.06024E-06 0.00000E+00
 -1       830 2.08376E-05 1.00680E-05 0.00000E+00
 -1       831 2.07560E-05 1.10817E-05 0.00000E+00
 -1       832 2.06746E-05 1.20903E-05 0.00000E+00
 -1       833 2.05932E-05 1.30828E-05 1.65436E-24
 -1       834 2.05125E-05 1.40484E-05-8.27181E-25
 -1       835 2.04317E-05 1.49760E-05 0.00000E+00
 -1       836 2.10747E-05 2.26485E-06-3.30872E-24
 -1       837 2.02888E-05 2.47806E-06 6.61744E-24
 -1       838 1.93903E-05 2.69079E-06 0.00000E+00
 -1       839 1.84835E-05 2.90306E-06 1.65436E-24
 -1       840 1.76728E-05 3.11579E-06 3.30872E-24
 -1       841 2.14533E-05 2.51613E-06 0.00000E+00
 -1       842 2.12188E-05 3.08463E-06-1.03398E-25
 -1       843 2.09466E-05 3.75384E-06-4.13590E-25
 -1       844 2.06406E-05 4.51211E-06 0.00000E+00
 -1       845 2.03057E-05 5.34717E-06 0.00000E+00
 -1       846 1.99465E-05 6.24648E-06 0.00000E+00
 -1       847 1.95682E-05 7.19681E-06 0.00000E+00
 -1       848 1.91756E-05 8.18493E-06-2.06795E-25
 -1       849 1.87740E-05 9.19714E-06 0.00000E+00
 -1       850 1.83684E-05 1.02197E-05 0.00000E+00
 -1       851 1.79642E-05 1.12389E-05 0.00000E+00
 -1       852 1.75664E-05 1.22408E-05 0.00000E+00
 -1       853 1.71802E-05 1.32117E-05-8.27181E-25
 -1       854 1.68106E-05 1.41382E-05-4.13590E-25
 -1       855 1.64627E-05 1.50071E-05 8.27181E-25
 -1       856 2.02649E-05 1.67994E-05-8.27181E-25
 -1       857 2.01708E-05 1.79137E-05 8.27181E-25
 -1       858 2.00765E-05 1.91755E-05 0.00000E+00
 -1       859 1.99815E-05 2.05629E-05 0.00000E+00
 -1       860 1.98862E-05 2.20535E-05-3.30872E-24
 -1       861 1.97906E-05 2.36248E-05 1.65436E-24
 -1       862 1.96950E-05 2.52547E-05 3.30872E-24
 -1       863 1.95992E-05 2.69204E-05 0.00000E+00
 -1       864 1.95035E-05 2.85996E-05 3.30872E-24
 -1       865 1.94078E-05 3.02697E-05 0.00000E+00
 -1       866 1.93121E-05 3.19081E-05 3.30872E-24
 -1       867 1.92166E-05 3.34925E-05-1.65436E-24
 -1       868 1.91212E-05 3.50003E-05 0.00000E+00
 -1       869 1.90265E-05 3.64091E-05 0.00000E+00
 -1       870 1.89318E-05 3.76968E-05 0.00000E+00
 -1       871 1.95898E-05 1.58476E-05 0.00000E+00
 -1       872 1.88734E-05 1.58398E-05 0.00000E+00
 -1       873 1.81879E-05 1.58318E-05 0.00000E+00
 -1       874 1.75157E-05 1.58236E-05-2.06795E-25
 -1       875 1.68391E-05 1.58150E-05-4.13590E-25
 -1       876 2.01254E-05 1.68305E-05 0.00000E+00
 -1       877 1.98465E-05 1.79537E-05 1.65436E-24
 -1       878 1.95197E-05 1.92036E-05 0.00000E+00
 -1       879 1.91530E-05 2.05617E-05-1.65436E-24
 -1       880 1.87528E-05 2.20090E-05 0.00000E+00
 -1       881 1.83261E-05 2.35271E-05 0.00000E+00
 -1       882 1.78798E-05 2.50976E-05 0.00000E+00
 -1       883 1.74207E-05 2.67019E-05 1.65436E-24
 -1       884 1.69557E-05 2.83218E-05 0.00000E+00
 -1       885 1.64917E-05 2.99391E-05-1.65436E-24
 -1       886 1.60356E-05 3.15353E-05 0.00000E+00
 -1       887 1.55941E-05 3.30921E-05 0.00000E+00
 -1       888 1.51743E-05 3.45912E-05 3.30872E-24
 -1       889 1.47823E-05 3.60138E-05 1.65436E-24
 -1       890 1.44261E-05 3.73417E-05 0.00000E+00
 -1       891 1.79142E-05 3.87935E-05 1.65436E-24
 -1       892 1.71662E-05 3.87453E-05 0.00000E+00
 -1       893 1.65037E-05 3.86971E-05 0.00000E+00
 -1       894 1.58345E-05 3.86491E-05 8.27181E-25
 -1       895 1.50662E-05 3.86009E-05-8.27181E-25
 -1       896 1.94555E-07 7.18533E-07 0.00000E+00
 -1       897 3.90856E-07 1.14691E-06 0.00000E+00
 -1       898 5.87131E-07 1.34633E-06-6.61744E-24
 -1       899 7.83723E-07 1.37612E-06 0.00000E+00
 -1       900 9.80320E-07 1.27763E-06 6.61744E-24
 -1       901 1.17696E-06 1.09117E-06-3.30872E-24
 -1       902 1.37360E-06 8.47716E-07 6.61744E-24
 -1       903 1.57023E-06 5.77801E-07 0.00000E+00
 -1       904 1.76686E-06 3.09128E-07-6.61744E-24
 -1       905 1.96344E-06 6.94217E-08 0.00000E+00
 -1       906 2.16000E-06-1.10520E-07 0.00000E+00
 -1       907 2.35634E-06-1.99422E-07 0.00000E+00
 -1       908 2.55263E-06-1.56352E-07 6.61744E-24
 -1       909 2.74770E-06 6.06894E-08 0.00000E+00
 -1       910 2.94310E-06 5.12127E-07-3.30872E-24
 -1       911 3.18980E-06 1.96771E-06 0.00000E+00
 -1       912 3.24867E-06 2.29619E-06 0.00000E+00
 -1       913 3.30754E-06 2.30722E-06 0.00000E+00
 -1       914 3.36653E-06 2.06151E-06 0.00000E+00
 -1       915 3.42547E-06 1.61177E-06-1.65436E-24
 -1       916 3.48435E-06 1.01025E-06 0.00000E+00
 -1       917 3.54317E-06 3.04470E-07-1.65436E-24
 -1       918 3.60194E-06-4.58330E-07 0.00000E+00
 -1       919 3.66070E-06-1.23266E-06 0.00000E+00
 -1       920 3.71943E-06-1.97304E-06 0.00000E+00
 -1       921 3.77818E-06-2.63300E-06 1.65436E-24
 -1       922 3.83675E-06-3.16579E-06-8.27181E-25
 -1       923 3.89535E-06-3.52078E-06 8.27181E-25
 -1       924 3.95274E-06-3.64686E-06 0.00000E+00
 -1       925 4.01054E-06-3.48586E-06-8.27181E-25
 -1       926 3.81416E-06-2.31020E-06 6.61744E-24
 -1       927 3.56084E-06-1.67188E-06-3.30872E-24
 -1       928 3.30793E-06-1.08810E-06-6.61744E-24
 -1       929 3.05393E-06-5.82437E-07-3.30872E-24
 -1       930 2.79992E-06-1.68554E-07 0.00000E+00
 -1       931 2.54574E-06 1.40844E-07 3.30872E-24
 -1       932 2.29154E-06 3.46351E-07 6.61744E-24
 -1       933 2.03731E-06 4.49633E-07 3.30872E-24
 -1       934 1.78307E-06 4.65358E-07-6.61744E-24
 -1       935 1.52881E-06 4.09109E-07 3.30872E-24
 -1       936 1.27453E-06 3.05622E-07 0.00000E+00
 -1       937 1.02017E-06 1.80123E-07 3.30872E-24
 -1       938 7.65803E-07 6.06369E-08-6.61744E-24
 -1       939 5.11081E-07-2.48722E-08 3.30872E-24
 -1       940 2.56482E-07-5.27644E-08-6.61744E-24
 -1       941 1.01153E-06 1.10661E-07 0.00000E+00
 -1       942 2.07868E-06 2.52870E-07-1.32349E-23
 -1       943 3.14236E-06 4.15400E-07-2.64698E-23
 -1       944 4.21657E-06 5.87959E-07-1.32349E-23
 -1       945 5.29111E-06 7.67090E-07 0.00000E+00
 -1       946 6.36775E-06 9.49638E-07 1.32349E-23
 -1       947 7.44464E-06 1.13478E-06 0.00000E+00
 -1       948 8.52188E-06 1.32182E-06 1.32349E-23
 -1       949 9.59914E-06 1.51135E-06-2.64698E-23
 -1       950 1.06762E-05 1.70409E-06 1.32349E-23
 -1       951 1.17530E-05 1.90293E-06 0.00000E+00
 -1       952 1.28281E-05 2.11106E-06 0.00000E+00
 -1       953 1.39029E-05 2.33801E-06 0.00000E+00
 -1       954 1.49692E-05 2.59419E-06-1.32349E-23
 -1       955 1.60384E-05 2.90992E-06 0.00000E+00
 -1       956 1.70059E-05 3.83157E-06-1.44757E-24
 -1       957 1.69486E-05 4.41213E-06 2.06795E-25
 -1       958 1.68910E-05 5.05358E-06 4.13590E-25
 -1       959 1.68333E-05 5.74910E-06-6.20385E-25
 -1       960 1.67755E-05 6.49184E-06 0.00000E+00
 -1       961 1.67177E-05 7.27492E-06 4.13590E-25
 -1       962 1.66599E-05 8.09141E-06 8.27181E-25
 -1       963 1.66020E-05 8.93444E-06 0.00000E+00
 -1       964 1.65441E-05 9.79707E-06-1.65436E-24
 -1       965 1.64862E-05 1.06724E-05-8.27181E-25
 -1       966 1.64283E-05 1.15535E-05 0.00000E+00
 -1       967 1.63704E-05 1.24336E-05-8.27181E-25
 -1       968 1.63126E-05 1.33056E-05-1.65436E-24
 -1       969 1.62549E-05 1.41627E-05-8.27181E-25
 -1       970 1.61973E-05 1.49980E-05 0.00000E+00
 -1       971 1.60173E-05 1.66747E-05 0.00000E+00
 -1       972 1.58905E-05 1.77226E-05 0.00000E+00
 -1       973 1.57636E-05 1.89270E-05 0.00000E+00
 -1       974 1.56359E-05 2.02653E-05 1.65436E-24
 -1       975 1.55080E-05 2.17154E-05 3.30872E-24
 -1       976 1.53799E-05 2.32547E-05 1.65436E-24
 -1       977 1.52517E-05 2.48604E-05 0.00000E+00
 -1       978 1.51234E-05 2.65100E-05 0.00000E+00
 -1       979 1.49950E-05 2.81806E-05 0.00000E+00
 -1       980 1.48667E-05 2.98495E-05 1.65436E-24
 -1       981 1.47385E-05 3.14939E-05 0.00000E+00
 -1       982 1.46104E-05 3.30909E-05 1.65436E-24
 -1       983 1.44826E-05 3.46181E-05 0.00000E+00
 -1       984 1.43556E-05 3.60526E-05-1.65436E-24
 -1       985 1.42287E-05 3.73720E-05-1.65436E-24
 -3
    1PSTEP                        12           6           1          
  100CL  106 4.57031E-01         841                     0    6           1
 -4  STRESS      6    1
 -5  SXX         1    4    1    1
 -5  SYY         1    4    2    2
 -5  SZZ         1    4    3    3
 -5  SXY         1    4    1    2
 -5  SYZ         1    4    2    3
 -5  SZX         1    4    3    1
 -1         1-1.83797E+06-5.87683E+05-3.74384E+05-5.30582E+05 6.06330E-11 1.30967E-10
 -1         2-1.15237E+06-5.85466E+04 2.68342E+03-1.17738E+05-4.20073E-10 1.08503E-09
 -1         3-6.17434E+05-2.21532E+05-1.17647E+04-5.21210E+04-2.87343E-10-5.34328E-11
 -1         4-3.02343E+05-6.09818E+04 4.52750E+02-3.08442E+04 2.64578E-10 2.00072E-09
 -1         5-1.47026E+05 1.06156E+05-7.95836E+04-5.99455E+03 3.32329E-09 3.84944E-09
 -1         8-9.93414E+05-3.94558E+05-1.50462E+05-3.76061E+05 4.03816E-10 1.23691E-10
 -1         9-1.07486E+06-2.39137E+05-1.37143E+05-2.48155E+05-8.18545E-11-3.97752E-10
 -1        10-5.35865E+05-3.09496E+05-1.37191E+04-1.29543E+05-2.50111E-12-2.41926E-10
 -1        11-3.10821E+05-9.45349E+04 3.57691E+02-7.16774E+04 1.20482E-09-9.22948E-10
 -1        12-1.89947E+05 8.61476E+04-9.08417E+04-3.27125E+04 3.81698E-09-2.17211E-09
 -1        15 7.97515E+03-2.82733E+04 3.08995E+03-7.09607E+04 7.93079E-10-2.26100E-09
 -1        16-6.05538E+05-1.19584E+05 4.74843E+03-2.76723E+05 8.94943E-10 9.77101E-10
 -1        17-3.73803E+05-2.57534E+05-4.35429E+04-2.04633E+05-9.25866E-10 7.04555E-10
 -1        18-1.74399E+05-9.46891E+04-6.69321E+04-1.09742E+05-6.04662E-10 6.66356E-10
 -1        19-3.72978E+04 5.27734E+04-3.77891E+04-3.44591E+04 4.28372E-10-1.86750E-10
 -1        20 6.83236E+04-4.94074E+04-7.88042E+03 3.59687E+04 8.75434E-09 4.45652E-11
 -1        21-9.60102E+02-1.02216E+05 2.28432E+04 5.26720E+02 1.42528E-08-8.62438E-10
 -1        22 2.00049E+04 1.10866E+05 6.95794E+02-2.07618E+04 2.68301E-11 3.18323E-11
 -1        23-1.98849E+05-3.31954E+03 3.27585E+03-1.15949E+05-8.05054E-10-1.33999E-10
 -1        24-1.30031E+05 1.39193E+04 1.46793E+05-2.69308E+05-2.66906E-09-6.34221E-10
 -1        25 3.36070E+05 1.22766E+05 1.07979E+05-1.75020E+05 8.87364E-10-9.09495E-11
 -1        26 2.52891E+03 1.19353E+05 6.73761E+03-2.39846E+04-3.65768E-10-8.20819E-10
 -1        27-2.90981E+04-4.30062E+04-1.86354E+04 4.69330E+04 5.06210E-09-6.31796E-10
 -1        28-9.00459E+03-7.86236E+04-4.88394E+02 3.75422E+04 4.78622E-09-1.83880E-09
 -1        29 2.69677E+05 1.84549E+05 7.60645E+02-5.82331E+03 2.98402E-10 1.35196E-09
 -1        30 9.03639E+04 2.65954E+04 1.11408E+03-3.24484E+04 6.45455E-10 1.33787E-09
 -1        31-3.18650E+05 2.70274E+04 2.60283E+03-6.46995E+04-1.26010E-09 2.33194E-09
 -1        32 4.29481E+05 2.63648E+05 3.09883E+05-2.62064E+05 3.35150E-09 2.26282E-09
 -1        33 7.46216E+05 3.40516E+05 2.39167E+05-3.42509E+04-6.90454E-09-7.96263E-10
 -1        34-1.38857E+05-2.15640E+04-8.31629E+03 2.24469E+04-2.78771E-10 7.36691E-11
 -1        35-2.12656E+04-2.58902E+04-4.87299E+02 5.52782E+04 8.89375E-09 1.91236E-09
 -1        36-2.49808E+06 7.46225E+04-1.74604E+05-1.44428E-09-2.42206E-10-6.76664E-10
 -1        37-2.57332E+06-8.64484E+04-1.23233E+05 4.45689E-08 2.12161E-10-6.29007E-09
 -1        38-2.52718E+06 1.15585E+04-4.51877E+04 2.41448E-08-8.55246E-10-8.42192E-10
 -1        39-2.53935E+06-1.33837E+04-2.82947E+04-9.79227E-08-4.67927E-10-1.05028E-08
 -1        40-2.53191E+06 1.78652E+03-1.16035E+04 1.22880E-08-4.77686E-10-2.34149E-09
 -1        41-2.53380E+06-2.09194E+03-6.89265E+03-4.80037E-08-1.11077E-09-4.16458E-09
 -1        42-2.53269E+06 3.00362E+02-3.37165E+03 4.74032E-08-6.58626E-10-2.78840E-09
 -1        43-2.53298E+06-5.23641E+02-2.64291E+03 1.84898E-07-1.23240E-09-4.18706E-09
 -1        44-2.53273E+06 2.22405E+02-2.64211E+03-4.27842E-08-1.23905E-09 9.55367E-10
 -1        45-2.53343E+06-1.41451E+03-4.78856E+03-1.53664E-07-2.85716E-10 1.03012E-09
 -1        46-2.53223E+06 1.18874E+03-7.79956E+03 5.56780E-08-2.48780E-11 4.60204E-10
 -1        47-2.53710E+06-8.88357E+03-1.88253E+04 1.29892E-07 1.38734E-09 2.46223E-09
 -1        48-2.52909E+06 7.66899E+03-3.00072E+04 1.90220E-07 5.92646E-10-4.54747E-10
 -1        49-2.55963E+06-5.73565E+04-8.17747E+04 1.98528E-07-1.05587E-09 4.57476E-10
 -1        50-2.50980E+06 4.95067E+04-1.15879E+05 4.61287E-08-2.12137E-09 2.27737E-09
 -1        51 2.13900E+04-2.40275E+05 3.48659E+04-6.52929E+05-1.16415E-10-3.31056E-09
 -1        52 9.22060E+03-2.36614E+05 2.08650E+04-7.21539E+05-2.94676E-10-2.56478E-09
 -1        53 5.49732E+03-2.42784E+05 1.63434E+04-6.51193E+05-2.91038E-11-1.56433E-09
 -1        54 1.29295E+04-2.39924E+05 2.42756E+04-7.23408E+05-5.16593E-10 2.02635E-09
 -1        55 3.05199E+04-2.47551E+05 4.35649E+04-6.50905E+05 1.45519E-11-2.68119E-09
 -1        56-2.77995E+06-3.14573E+05-2.26248E+05-1.07482E+06-5.45697E-11-1.41154E-09
 -1        57-2.88300E+06-5.02126E+05-1.51793E+05-1.05203E+06 5.48425E-10-9.58607E-10
 -1        58-2.82390E+06-3.85994E+05-5.32775E+04-1.06247E+06 6.85759E-10 4.78940E-09
 -1        59-2.83238E+06-4.17882E+05-3.15874E+04-1.06674E+06 8.36735E-10 1.68620E-09
 -1        60-2.82999E+06-3.95982E+05-1.24553E+04-1.06110E+06-6.75072E-10 1.80262E-09
 -1        61-2.82574E+06-4.05745E+05-7.05153E+03-1.06786E+06-8.13543E-10-5.75386E-09
 -1        62-2.83042E+06-3.97778E+05-3.44654E+03-1.06145E+06-4.79531E-10 3.31272E-09
 -1        63-2.82600E+06-4.03198E+05-2.89691E+03-1.06669E+06-6.90079E-10 1.52073E-09
 -1        64-2.82972E+06-3.98496E+05-3.39259E+03-1.06227E+06 2.13163E-11 7.42602E-10
 -1        65-2.82845E+06-4.02940E+05-6.88477E+03-1.06469E+06 7.70513E-10-6.16615E-09
 -1        66-2.82798E+06-3.98077E+05-1.21479E+04-1.06344E+06-4.36842E-10 5.38193E-09
 -1        67-2.83729E+06-4.12376E+05-3.07782E+04-1.06086E+06-7.82734E-10 1.37516E-09
 -1        68-2.82098E+06-3.89409E+05-5.19206E+04-1.06599E+06-2.20098E-10 1.47520E-09
 -1        69-2.88836E+06-4.92725E+05-1.47903E+05-1.04455E+06 1.72531E-09 3.31056E-10
 -1        70-2.77748E+06-3.20487E+05-2.20465E+05-1.07879E+06-1.22600E-09-1.83354E-09
 -1        71-1.22054E+06-1.73241E+02 4.04082E+02-7.93682E-08-3.00169E-10-9.48035E-10
 -1        72-1.22026E+06 2.00540E+02 2.81471E+02-1.97803E-07-6.91345E-10 2.71858E-09
 -1        73-1.22048E+06-2.66445E+01 9.51080E+01-6.72695E-08 2.99907E-10 2.20984E-09
 -1        74-1.22034E+06 2.95119E+01 4.46611E+01-7.19754E-08-2.92561E-10 4.11043E-09
 -1        75-1.22046E+06-2.77252E+00-1.36520E+01-3.18320E-08 4.54589E-10-1.16354E-09
 -1        76-1.22036E+06-5.79933E+00-7.07032E+01 2.72097E-08-3.05164E-10-4.17941E-10
 -1        77-1.22046E+06 8.58035E+00-1.55202E+02 9.19103E-08-6.26124E-10-5.11641E-10
 -1        78-1.22040E+06-6.94812E+01-3.51613E+02 8.14678E-08-1.54883E-10 2.60679E-09
 -1        79-1.22043E+06 6.07848E+01-6.44904E+02 5.48388E-08-1.46686E-11 1.75027E-09
 -1        80-1.22061E+06-4.59462E+02-1.48234E+03-6.22188E-08-9.85234E-10 3.02521E-09
 -1        81-1.22025E+06 3.97543E+02-2.56579E+03 1.17174E-07-2.09168E-11-6.15159E-10
 -1        82-1.22185E+06-2.98400E+03-6.30444E+03-9.25708E-08-2.09618E-10-1.07002E-09
 -1        83-1.21919E+06 2.57770E+03-1.00849E+04-6.97909E-08-2.18666E-10 9.89985E-10
 -1        84-1.22942E+06-1.92803E+04-2.74982E+04-6.99938E-08-1.49084E-09 1.39198E-09
 -1        85-1.21269E+06 1.66405E+04-3.89809E+04 6.10567E-09-1.24091E-09 3.20688E-09
 -1        86-5.73635E+04 2.48521E+05 1.36727E+05 1.34309E+03 8.51287E-10 1.45624E-09
 -1        87 7.16247E+04 3.09401E+05 1.05695E+05-6.17193E+03 1.37152E-09-5.01046E-09
 -1        88-1.40231E+04 2.68514E+05 5.42491E+04 8.80152E+02 1.59434E-09 7.84340E-10
 -1        89 4.94997E+04 2.98997E+05 7.66250E+04-5.48885E+03 2.44017E-09 2.78003E-09
 -1        90-3.53082E+04 2.58902E+05 8.65982E+04 6.60218E+02 1.97542E-09 2.47788E-09
 -1        91-1.24360E+06-1.59430E+05-1.71812E+04-4.53578E+05-9.08722E-09-1.56433E-10
 -1        92-1.18778E+06-2.09968E+05-7.53535E+03-4.93651E+05-7.79718E-09-1.98781E-09
 -1        93-1.25152E+06-1.48860E+05-3.73999E+03-4.34289E+05 5.22948E-09-3.09456E-10
 -1        94-1.17995E+06-2.19367E+05-1.61893E+03-5.13916E+05 6.78106E-10-8.74834E-10
 -1        95-1.25200E+06-1.49345E+05-1.04963E+03-4.33845E+05-6.02097E-09 4.83425E-10
 -1        96-1.18387E+06-2.04482E+05 1.79681E+03-4.95880E+05 1.38562E-09 3.69184E-09
 -1        97-1.24706E+06-1.64390E+05-2.54463E+03-4.51820E+05-1.87811E-09 3.99530E-09
 -1        98-1.20690E+06-1.70869E+05 3.86202E+03-4.55177E+05-2.52476E-09 1.94723E-09
 -1        99-1.22837E+06-1.83633E+05-3.03430E+03-4.73985E+05 8.59472E-09 2.50805E-09
 -1       100-1.24868E+06-1.39116E+05 9.17328E+02-4.20188E+05-1.30751E-08 1.85821E-09
 -1       101-1.20579E+06-1.95522E+05-3.18201E+03-4.87296E+05 9.42350E-10 1.45747E-09
 -1       102-1.27530E+06-1.28558E+05-7.07529E+03-4.06131E+05 4.48995E-09 5.31509E-09
 -1       103-1.20238E+06-1.93507E+05-1.24225E+04-4.88628E+05-1.27752E-08 2.08001E-09
 -1       104-1.26763E+06-1.60363E+05-3.37868E+04-4.12642E+05-1.29239E-08 6.97264E-09
 -1       105-1.21301E+06-1.64365E+05-5.46073E+04-4.80293E+05-1.09776E-08 2.39743E-09
 -1       106-6.42536E+05-5.29776E+03 1.24145E+04-8.08529E-09-4.89552E-10-4.17094E-09
 -1       107-6.37118E+05 6.13837E+03 8.75413E+03-2.32868E-07-8.24956E-11-1.67074E-09
 -1       108-6.40467E+05-8.20553E+02 3.20650E+03-6.43974E-09-1.08973E-11-1.69030E-09
 -1       109-6.39529E+05 9.49092E+02 1.99527E+03 4.50364E-08-4.70543E-10-1.50823E-09
 -1       110-6.40128E+05-1.25726E+02 7.92518E+02 6.46226E-08 4.10854E-10 3.04112E-10
 -1       111-6.39928E+05 1.39728E+02 4.18887E+02 1.37119E-07 3.64622E-10 1.51417E-09
 -1       112-6.40069E+05-1.36431E+01 1.05060E+02 4.92406E-08-7.28147E-11-1.25084E-10
 -1       113-6.40017E+05-2.13907E+01-1.08375E+02-5.03223E-08-1.05653E-10 2.60897E-09
 -1       114-6.40040E+05 3.49984E+01-3.51670E+02 5.00652E-08 7.82220E-11-8.35314E-11
 -1       115-6.40158E+05-2.82962E+02-8.97423E+02 1.55691E-07-2.10715E-10-2.26032E-09
 -1       116-6.39928E+05 2.47258E+02-1.58728E+03-2.89773E-08-1.97649E-10-1.04262E-09
 -1       117-6.40933E+05-1.85866E+03-3.92340E+03-1.09292E-07 2.24744E-11 2.58342E-09
 -1       118-6.39266E+05 1.60592E+03-6.28339E+03-2.12445E-08-4.10805E-10 1.26374E-09
 -1       119-6.45650E+05-1.20121E+04-1.71349E+04-3.27715E-08 1.98127E-10-2.56523E-09
 -1       120-6.35216E+05 1.03674E+04-2.42913E+04-6.26336E-08-1.68648E-10 2.02817E-09
 -1       121-8.88570E+02-7.41764E+05 3.73796E+03 6.46361E+03-2.68756E-10 6.45286E-10
 -1       122 1.25772E+03-7.40269E+05 2.75381E+03 2.82683E+04-2.71712E-11-1.03739E-09
 -1       123-1.95485E+02-7.41270E+05 1.74645E+03 6.57259E+03-1.16086E-09 1.46929E-09
 -1       124 1.14893E+03-7.40243E+05 2.61121E+03 2.79298E+04-7.66818E-10 1.85605E-09
 -1       125-8.60819E+02-7.41693E+05 3.44638E+03 6.80219E+03-2.68915E-09 1.85082E-10
 -1       126-6.16263E+05-8.90471E+04 6.65771E+03-2.29704E+05 4.03929E-10-8.70386E-10
 -1       127-6.11858E+05-8.38223E+04 4.60978E+03-2.31785E+05 1.25533E-09 4.37751E-10
 -1       128-6.15038E+05-8.65412E+04 1.55692E+03-2.29999E+05 7.48997E-10-1.61947E-10
 -1       129-6.13284E+05-8.67264E+04 9.62495E+02-2.31446E+05-8.49305E-10 2.88048E-09
 -1       130-6.14840E+05-8.61505E+04 3.45393E+02-2.30042E+05-1.06901E-10 8.17906E-10
 -1       131-6.13616E+05-8.70848E+04 1.71721E+02-2.31282E+05 2.89322E-10-8.08857E-10
 -1       132-6.14707E+05-8.61841E+04 1.24222E+01-2.30162E+05 5.15200E-10-7.60018E-10
 -1       133-6.13961E+05-8.69059E+04-1.20924E+02-2.30940E+05-1.26931E-10 3.07423E-10
 -1       134-6.14495E+05-8.63299E+04-2.89066E+02-2.30383E+05-2.29093E-10 2.09118E-09
 -1       135-6.14522E+05-8.67556E+04-7.57863E+02-2.30432E+05 4.43670E-10 8.04775E-10
 -1       136-6.14146E+05-8.63352E+04-1.33344E+03-2.30670E+05-1.78815E-10-6.73424E-10
 -1       137-6.15864E+05-8.79362E+04-3.58537E+03-2.29689E+05-2.39426E-09 1.19030E-09
 -1       138-6.13155E+05-8.51532E+04-5.77166E+03-2.31126E+05-1.05047E-10 5.85715E-10
 -1       139-6.21973E+05-9.78260E+04-1.70503E+04-2.27462E+05 7.56245E-10 1.49521E-09
 -1       140-6.08047E+05-7.64729E+04-2.46261E+04-2.32889E+05-1.25965E-10 4.20187E-10
 -1       141-2.78042E+05-3.36730E+03 7.88958E+03-3.77810E-08 1.78425E-10-5.18867E-10
 -1       142-2.74610E+05 3.90136E+03 5.56000E+03-6.73525E-09 4.74805E-10-1.58656E-09
 -1       143-2.76726E+05-5.21353E+02 2.02837E+03-1.18422E-07 2.60717E-11-3.69255E-10
 -1       144-2.76143E+05 6.01636E+02 1.24672E+03-4.63092E-08-1.07442E-10 1.15193E-09
 -1       145-2.76509E+05-7.84891E+01 4.61824E+02 2.20386E-08 1.16480E-10-7.46695E-10
 -1       146-2.76403E+05 7.77898E+01 1.76442E+02-4.64991E-08-1.95139E-10-1.05678E-09
 -1       147-2.76466E+05 9.24196E-01-1.02227E+02-3.10625E-09 5.02804E-11 3.98316E-10
 -1       148-2.76498E+05-8.67198E+01-4.39674E+02-6.97063E-08 8.75050E-11 6.80018E-10
 -1       149-2.76415E+05 8.56504E+01-8.98288E+02-3.23189E-08-4.99784E-11 1.29745E-09
 -1       150-2.76804E+05-6.58471E+02-2.11752E+03-4.53980E-08-2.66809E-10 1.62015E-09
 -1       151-2.76159E+05 5.71197E+02-3.68544E+03 3.76205E-08-8.95962E-11 7.70797E-10
 -1       152-2.78589E+05-4.28898E+03-9.06599E+03-1.98557E-08-2.17363E-10-2.38663E-09
 -1       153-2.74632E+05 3.70519E+03-1.45061E+04 1.15147E-08 9.55898E-10-1.57343E-10
 -1       154-2.89468E+05-2.77136E+04-3.95403E+04 5.35192E-09 2.10246E-10 4.83851E-10
 -1       155-2.65281E+05 2.39195E+04-5.60429E+04 1.62111E-08 2.11692E-09 1.83718E-09
 -1       156-8.33232E+03-1.54065E+05 2.01790E+04-6.96936E+02-1.54614E-11-1.63252E-09
 -1       157 1.11222E+04-1.44867E+05 1.68881E+04 3.05642E+03 3.93356E-11-1.09273E-09
 -1       158-2.75407E+03-1.51524E+05 1.06530E+04-6.72745E+02 2.24532E-11 1.76723E-09
 -1       159 1.26663E+04-1.44127E+05 1.89186E+04 2.93963E+03 3.15595E-10-2.69462E-09
 -1       160-9.87279E+03-1.54802E+05 2.36704E+04-5.80127E+02 3.18323E-10-2.34553E-09
 -1       161-3.40608E+05-4.70626E+04-1.95865E+03-1.27958E+05-2.64151E-10 7.82052E-10
 -1       162-3.41257E+05-4.91866E+04-1.35919E+03-1.28011E+05-9.64008E-10 2.51568E-09
 -1       163-3.41020E+05-4.77449E+04-4.67789E+02-1.27810E+05-6.92765E-10 1.49154E-09
 -1       164-3.40790E+05-4.83874E+04-3.05712E+02-1.28169E+05-2.35952E-10 1.99103E-09
 -1       165-3.41075E+05-4.78596E+04-1.46520E+02-1.27800E+05-1.34115E-12-4.34909E-10
 -1       166-3.40761E+05-4.82412E+04-1.53835E+02-1.28150E+05-5.89175E-10-2.55797E-09
 -1       167-3.41049E+05-4.78909E+04-2.01217E+02-1.27830E+05-5.16491E-10-3.61545E-09
 -1       168-3.40881E+05-4.82486E+04-4.34821E+02-1.28060E+05 7.58821E-10-2.05409E-09
 -1       169-3.40955E+05-4.78524E+04-7.78935E+02-1.27889E+05-6.96687E-10 8.03396E-10
 -1       170-3.41354E+05-4.87703E+04-1.94042E+03-1.27852E+05 8.59501E-10 9.72136E-10
 -1       171-3.40576E+05-4.73706E+04-3.36637E+03-1.28038E+05-1.99009E-10-7.34190E-10
 -1       172-3.43808E+05-5.26489E+04-9.03384E+03-1.27025E+05-3.89491E-10-5.37284E-10
 -1       173-3.38504E+05-4.39838E+04-1.45284E+04-1.28713E+05 9.67248E-10 1.19871E-09
 -1       174-3.58538E+05-7.81575E+04-4.29099E+04-1.22133E+05 3.61069E-09 3.11547E-09
 -1       175-3.25859E+05-2.19298E+04-6.19618E+04-1.32906E+05 7.13680E-09-3.43061E-09
 -1       191 1.28212E+03 3.75862E+05 2.11395E+03-1.12865E+04-8.73115E-11 8.02174E-10
 -1       192 4.62131E+02 3.76177E+05 1.26660E+03-1.21607E+04-5.91626E-10-3.27782E-09
 -1       193 2.08957E+02 3.75962E+05 1.01892E+03-1.11136E+04-4.55884E-11-2.03545E-09
 -1       194 6.12887E+02 3.76217E+05 1.54124E+03-1.24810E+04-1.28921E-09-1.69575E-09
 -1       195 1.74949E+03 3.75791E+05 2.79658E+03-1.09647E+04 1.45519E-11 3.13776E-10
 -1       251-1.51968E+06 3.39151E+04-7.96010E+04-9.04910E+03-4.62933E-10 1.60071E-10
 -1       252-1.55367E+06-3.92436E+04-5.60977E+04 1.86690E+04-1.11524E-09-3.63161E-09
 -1       253-1.53277E+06 5.23928E+03-2.06034E+04-1.01521E+04-2.01244E-09 1.92631E-09
 -1       254-1.53784E+06-6.01790E+03-1.28070E+04 1.53781E+04-2.94645E-09 1.26170E-09
 -1       255-1.53544E+06 7.66349E+02-5.42895E+03-5.75814E+03 3.16959E-10 4.78394E-10
 -1       256-1.53453E+06-9.09933E+02-2.95822E+03 3.51240E+03 1.24601E-10 3.31647E-09
 -1       257-1.53599E+06 8.55265E+01-1.80562E+03 1.71376E+03 8.23093E-11-6.98037E-11
 -1       258-1.53449E+06-2.33868E+02-1.26763E+03-1.03833E+04 8.34035E-10-6.68258E-10
 -1       259-1.53551E+06 1.16380E+02-1.70910E+03 8.13757E+03-6.49038E-10-1.36157E-09
 -1       260-1.53565E+06-8.94426E+02-3.18842E+03-1.86388E+04-2.79535E-10-7.73582E-10
 -1       261-1.53491E+06 8.07865E+02-5.35705E+03 9.96960E+03 2.09369E-09 1.06161E-09
 -1       262-1.53796E+06-6.07259E+03-1.29333E+04-1.66962E+04 6.71889E-11-1.36424E-11
 -1       263-1.53319E+06 5.26073E+03-2.08686E+04 6.19479E+03 1.18177E-10 1.19871E-09
 -1       264-1.55270E+06-3.96003E+04-5.63586E+04-5.57162E+03 1.63357E-09 4.10546E-09
 -1       265-1.52012E+06 3.41618E+04-8.03881E+04-1.15520E+03-1.72349E-09 2.72848E-09
 -1       266-1.50067E+04-2.43656E+05 3.45018E+04 1.10828E+03 0.00000E+00-2.68903E-09
 -1       267 1.62347E+04-2.28401E+05 2.23199E+04-2.05487E+03 1.22782E-11-3.96449E-09
 -1       268-1.19003E+03-2.37166E+05 4.48339E+03 1.79294E+03 9.09495E-12-1.05871E-09
 -1       269-6.05776E+03-2.38949E+05-6.98424E+03-3.29980E+03 1.47338E-10 2.21418E-09
 -1       270 7.22322E+03-2.33130E+05-1.59641E+04 2.35306E+03 1.44610E-10 5.45569E-09
 -1       271-2.45775E+06-3.07096E+05-1.91800E+05-9.51899E+05-4.47471E-10 3.12866E-10
 -1       272-2.52294E+06-4.40331E+05-1.21861E+05-9.54847E+05 6.72571E-10-6.28643E-09
 -1       273-2.49226E+06-3.51907E+05-4.52628E+04-9.45366E+05-7.84610E-10-1.64982E-09
 -1       274-2.48278E+06-3.83523E+05-2.50451E+04-9.65543E+05 5.94810E-10-2.75804E-09
 -1       275-2.49688E+06-3.56249E+05-1.05400E+04-9.44123E+05 7.19865E-10-5.53428E-10
 -1       276-2.47728E+06-3.78240E+05-5.61817E+03-9.67597E+05 1.23055E-09-4.45380E-09
 -1       277-2.49776E+06-3.56400E+05-2.88444E+03-9.43658E+05 9.16316E-10 3.70119E-09
 -1       278-2.47636E+06-3.78084E+05-2.30494E+03-9.68219E+05-4.28372E-10 2.10183E-09
 -1       279-2.49785E+06-3.56313E+05-2.78849E+03-9.43562E+05 1.05217E-10 6.49152E-10
 -1       280-2.47695E+06-3.78528E+05-5.36127E+03-9.68006E+05 6.90250E-10 2.62594E-09
 -1       281-2.49716E+06-3.56017E+05-1.00079E+04-9.43842E+05 9.55993E-10 5.69344E-10
 -1       282-2.48194E+06-3.83797E+05-2.37819E+04-9.66371E+05 7.30097E-10-1.87219E-09
 -1       283-2.49290E+06-3.51775E+05-4.29532E+04-9.44892E+05 3.16277E-10 1.03500E-09
 -1       284-2.51985E+06-4.37934E+05-1.15668E+05-9.56477E+05-2.88765E-11 1.74623E-09
 -1       285-2.46024E+06-3.09140E+05-1.82039E+05-9.50979E+05 7.58519E-10 3.63798E-11
 -1       286-4.47958E+05-6.99430E+03 1.63451E+04-5.21569E+02 1.73279E-09-3.30147E-10
 -1       287-4.40570E+05 8.09804E+03 1.15833E+04-1.23713E+03 6.90434E-10 2.13367E-09
 -1       288-4.45215E+05-1.08667E+03 4.22529E+03 2.93223E+02 2.01965E-10-5.00677E-10
 -1       289-4.43802E+05 1.25508E+03 2.68822E+03-2.73917E+03 3.31454E-10-2.36045E-09
 -1       290-4.44734E+05-1.70162E+02 1.09931E+03 9.80513E+02 2.71001E-10 1.15637E-09
 -1       291-4.44396E+05 2.04186E+02 6.98615E+02-3.86432E+03 6.38025E-10-6.82178E-10
 -1       292-4.44629E+05-3.34787E+01 3.92388E+02 1.41839E+03 7.18899E-10 2.56392E-10
 -1       293-4.44507E+05 8.76792E+01 4.19286E+02-4.41555E+03 9.59375E-11 9.05230E-10
 -1       294-4.44629E+05-5.04881E+01 5.57410E+02 1.53176E+03 8.63146E-10 1.19690E-09
 -1       295-4.44353E+05 3.56315E+02 1.16074E+03-4.29828E+03 3.17840E-10-3.76176E-10
 -1       296-4.44781E+05-3.02183E+02 1.95270E+03 1.30111E+03 6.62880E-10 4.46789E-11
 -1       297-4.43354E+05 2.25709E+03 4.78798E+03-3.53310E+03 1.08847E-09 2.02385E-09
 -1       298-4.45621E+05-1.95003E+03 7.61206E+03 7.66562E+02 9.59375E-10 8.36735E-11
 -1       299-4.37561E+05 1.45649E+04 2.08027E+04-2.25847E+03-5.11136E-10 1.62458E-09
 -1       300-4.50560E+05-1.25743E+04 2.94285E+04 2.64360E+01-2.52953E-11 8.91305E-10
 -1       301 3.37757E+04 2.60641E+04 7.22392E+04-2.02307E+04-2.09184E-09-6.70752E-12
 -1       302 1.13781E+04 3.94436E+04 4.33729E+04-2.36607E+04 3.31966E-11-3.04615E-09
 -1       303 3.20073E+03 3.08783E+04 3.34902E+04-2.02654E+04-2.04182E-09 3.28100E-10
 -1       304 1.32681E+04 4.05237E+04 4.83172E+04-2.36394E+04-1.80080E-10-5.89921E-10
 -1       305 3.99282E+04 2.49912E+04 8.42590E+04-2.02417E+04-1.88811E-09 2.17506E-09
 -1       306-1.76307E+06-2.25256E+05-1.22502E+05-6.82896E+05 1.12777E-10-1.09139E-09
 -1       307-1.79559E+06-3.19173E+05-7.77882E+04-6.95029E+05 8.81755E-10-1.12777E-09
 -1       308-1.78521E+06-2.53706E+05-2.89229E+04-6.78627E+05-5.14319E-10-2.82125E-09
 -1       309-1.76992E+06-2.83055E+05-1.60006E+04-7.02061E+05-5.64341E-10-8.50991E-09
 -1       310-1.78820E+06-2.56424E+05-6.75234E+03-6.77803E+05 4.50200E-10 3.27964E-09
 -1       311-1.76643E+06-2.79698E+05-3.62273E+03-7.03426E+05 9.54515E-10 3.70198E-09
 -1       312-1.78876E+06-2.56526E+05-1.91245E+03-6.77523E+05 1.45178E-10 1.05942E-09
 -1       313-1.76592E+06-2.79546E+05-1.62543E+03-7.03758E+05 2.54431E-10 8.19625E-10
 -1       314-1.78876E+06-2.56514E+05-2.08995E+03-6.77517E+05-1.35435E-09-1.95837E-09
 -1       315-1.76648E+06-2.79792E+05-4.11843E+03-7.03448E+05 1.11368E-09-7.00425E-10
 -1       316-1.78816E+06-2.56344E+05-7.74687E+03-6.77788E+05 6.39147E-10 9.76343E-10
 -1       317-1.77040E+06-2.83781E+05-1.84170E+04-7.02035E+05 1.43291E-09 5.67525E-10
 -1       318-1.78479E+06-2.53127E+05-3.32923E+04-6.78648E+05 1.68006E-09 2.96859E-09
 -1       319-1.79980E+06-3.25573E+05-8.95796E+04-6.94189E+05-1.06536E-09 3.19415E-09
 -1       320-1.75941E+06-2.20228E+05-1.41038E+05-6.83425E+05 1.43700E-10 5.09317E-10
 -1       321-3.76167E+05-1.54242E+04 3.61420E+04-2.53138E+02-1.20176E-09 2.30466E-09
 -1       322-3.60452E+05 1.78702E+04 2.55047E+04-7.63107E+02-1.39458E-09 2.12276E-09
 -1       323-3.70138E+05-2.39011E+03 9.35058E+03 9.04404E+01-3.69937E-10 1.56024E-09
 -1       324-3.67482E+05 2.76557E+03 5.85616E+03-1.40257E+03 2.85240E-10 1.76260E-09
 -1       325-3.69146E+05-3.69039E+02 2.38217E+03 3.86371E+02-1.47111E-10 5.41490E-10
 -1       326-3.68650E+05 4.27006E+02 1.38688E+03-1.89633E+03-1.12053E-11-1.77124E-10
 -1       327-3.68973E+05-5.73126E+01 6.13663E+02 5.84216E+02-3.48557E-10 7.68381E-10
 -1       328-3.68854E+05 7.17947E+01 3.61285E+02-2.16547E+03 1.49214E-11 4.64695E-11
 -1       329-3.68944E+05-1.37908E+01 2.06765E+02 6.55512E+02 7.96025E-11-2.12545E-10
 -1       330-3.68870E+05 5.03957E+01 2.09461E+02-2.17119E+03-2.59284E-10 1.41367E-11
 -1       331-3.68957E+05-3.59085E+01 2.60055E+02 5.89932E+02 6.14335E-11 2.09825E-09
 -1       332-3.68755E+05 2.61067E+02 5.70490E+02-1.91262E+03-1.01835E-10-8.82999E-10
 -1       333-3.69057E+05-2.24736E+02 8.83324E+02 3.96942E+02-6.01290E-10-6.79108E-10
 -1       334-3.68078E+05 1.67636E+03 2.40083E+03-1.42699E+03-1.24729E-10 2.67093E-09
 -1       335-3.69631E+05-1.44790E+03 3.38416E+03 1.04289E+02-9.70019E-10 1.51181E-09
 -1       336-5.85548E+02-7.48162E+05 1.17725E+03-7.86083E+03-4.05407E-09-2.97632E-09
 -1       337-2.30903E+01-7.47928E+05-2.44072E+03-3.75843E+04-3.05369E-09-2.43972E-09
 -1       338 7.39724E+02-7.47217E+05-7.08760E+03-7.68849E+03-4.94083E-09-1.12732E-09
 -1       339-9.69281E+03-7.53628E+05-1.92083E+04-3.77652E+04-3.27509E-09 7.44649E-10
 -1       340 7.48045E+03-7.42539E+05-3.03078E+04-7.68218E+03-4.42378E-09 1.20394E-09
 -1       341-1.12349E+06-1.44553E+05-4.36399E+04-4.33273E+05 8.44011E-10-1.91903E-09
 -1       342-1.15585E+06-1.74100E+05-3.01352E+04-4.14264E+05 8.57995E-10-9.01764E-10
 -1       343-1.13055E+06-1.61604E+05-1.02265E+04-4.32073E+05-5.57066E-11-2.12185E-09
 -1       344-1.14645E+06-1.55336E+05-6.36502E+03-4.16764E+05 1.38249E-09 1.54364E-09
 -1       345-1.13287E+06-1.63260E+05-2.46531E+03-4.30791E+05 1.64658E-10 6.96673E-10
 -1       346-1.14093E+06-1.55999E+05-1.42470E+03-4.21095E+05 2.78052E-09 5.63546E-10
 -1       347-1.13603E+06-1.60956E+05-9.54269E+02-4.27720E+05-1.12618E-09-1.04762E-10
 -1       348-1.13473E+06-1.61606E+05-9.30920E+02-4.27816E+05-1.59494E-09-3.61144E-10
 -1       349-1.13905E+06-1.57662E+05-1.60977E+03-4.24060E+05-1.73770E-10-5.09033E-10
 -1       350-1.13062E+06-1.67873E+05-3.57103E+03-4.33675E+05-7.83692E-09-3.43630E-09
 -1       351-1.14018E+06-1.54670E+05-6.22679E+03-4.21883E+05-2.19256E-09-6.08679E-10
 -1       352-1.13349E+06-1.76905E+05-1.66390E+04-4.34374E+05 7.75481E-09 3.40515E-09
 -1       353-1.13621E+06-1.48637E+05-2.67816E+04-4.23371E+05 2.10275E-09-1.21690E-09
 -1       354-1.16287E+06-2.21325E+05-7.89936E+04-4.22316E+05 1.96223E-09-3.34057E-09
 -1       355-1.11082E+06-1.10396E+05-1.14258E+05-4.33888E+05 1.69348E-09-2.31375E-09
 -1       356-3.59266E+05-1.84420E+03 4.31529E+03-1.11939E+02 6.60805E-11-9.82936E-10
 -1       357-3.57347E+05 2.13586E+03 3.04226E+03-4.96466E+02 5.91811E-11 1.99520E-11
 -1       358-3.58544E+05-2.85548E+02 1.10082E+03 7.09651E+01-4.54492E-10 9.39963E-10
 -1       359-3.58192E+05 3.27982E+02 6.66903E+02-8.28271E+02 2.27732E-10 1.47793E-10
 -1       360-3.58422E+05-4.19414E+01 2.18870E+02 2.19875E+02 4.04299E-12 6.63420E-10
 -1       361-3.58346E+05 3.38915E+01 2.63719E+01-1.07120E+03-2.16611E-10-3.94672E-09
 -1       362-3.58391E+05 8.08168E+00-1.89400E+02 3.13900E+02 3.51008E-12-4.39115E-10
 -1       363-3.58431E+05-1.05035E+02-5.32964E+02-1.19114E+03 4.55762E-10 1.52016E-09
 -1       364-3.58337E+05 9.69346E+01-1.02371E+03 3.39815E+02 8.12567E-10 1.56507E-09
 -1       365-3.58769E+05-7.37901E+02-2.37886E+03-1.17141E+03-5.06610E-10-1.58920E-09
 -1       366-3.58053E+05 6.39265E+02-4.12821E+03 2.94172E+02-3.67386E-11 4.70436E-10
 -1       367-3.60761E+05-4.79923E+03-1.01449E+04-1.01419E+03 2.67921E-10 2.04909E-09
 -1       368-3.56347E+05 4.14569E+03-1.62320E+04 1.82589E+02 8.24471E-10-9.47693E-10
 -1       369-3.72928E+05-3.10094E+04-4.42397E+04-7.34945E+02-1.37721E-10-3.35331E-09
 -1       370-3.45887E+05 2.67637E+04-6.27066E+04 1.49496E+01 2.47230E-09-1.40426E-09
 -1       371-9.67166E+03-1.51821E+05 2.20450E+04 3.02870E+03 8.54925E-10 9.20835E-10
 -1       372 9.99676E+03-1.42509E+05 1.33289E+04-1.28083E+04 1.77806E-09-2.34678E-10
 -1       373-2.76957E+02-1.47357E+05 1.07106E+03 3.15350E+03 1.55342E-09-1.96676E-09
 -1       374-7.54111E+03-1.50617E+05-9.68972E+03-1.27490E+04 1.31331E-09-5.90568E-10
 -1       375 7.80518E+03-1.43712E+05-1.76938E+04 2.96939E+03 1.18234E-09 1.93745E-09
 -1       376-6.15376E+05-7.70272E+04-2.53289E+04-2.35483E+05 1.87538E-09-1.28966E-09
 -1       377-6.28753E+05-9.99193E+04-1.75388E+04-2.30966E+05 2.32302E-09-1.64823E-09
 -1       378-6.20729E+05-8.58521E+04-5.94851E+03-2.33553E+05 2.70006E-10 1.42086E-09
 -1       379-6.22392E+05-8.98409E+04-3.71445E+03-2.33360E+05 4.53426E-10-1.26897E-09
 -1       380-6.21728E+05-8.70770E+04-1.42502E+03-2.33098E+05 1.32687E-10 4.03645E-10
 -1       381-6.21170E+05-8.85111E+04-9.05390E+02-2.33968E+05-2.21576E-10-2.35114E-09
 -1       382-6.21950E+05-8.71775E+04-5.34106E+02-2.32946E+05-3.96783E-10 5.72221E-10
 -1       383-6.20998E+05-8.84730E+04-6.92865E+02-2.34104E+05-3.04027E-10-1.14541E-09
 -1       384-6.21900E+05-8.71147E+04-1.02730E+03-2.32962E+05 1.36566E-10-7.23901E-10
 -1       385-6.21563E+05-8.90772E+04-2.43100E+03-2.33845E+05-1.32545E-10 3.10121E-09
 -1       386-6.21386E+05-8.65751E+04-4.17359E+03-2.33204E+05 1.11754E-10 6.78938E-10
 -1       387-6.24763E+05-9.36918E+04-1.11681E+04-2.32625E+05-2.87969E-10-3.54567E-09
 -1       388-6.18706E+05-8.25131E+04-1.79542E+04-2.34180E+05 1.22600E-09-2.10912E-09
 -1       389-6.43240E+05-1.24943E+05-5.30253E+04-2.26264E+05 5.54769E-09 4.47471E-10
 -1       390-6.02930E+05-5.54080E+04-7.65669E+04-2.39537E+05 8.30732E-09-3.92538E-09
 -1       406 1.42339E+03 3.70085E+05 2.80492E+03-4.02890E+04 3.72893E-11 6.54836E-11
 -1       407 7.71851E+02 3.70570E+05 2.86900E+03-4.44416E+04-2.44972E-09-6.77574E-11
 -1       408 1.00295E+03 3.70058E+05 4.27984E+03-4.01571E+04 1.68711E-10 2.14641E-10
 -1       409 3.97271E+03 3.71675E+05 8.90831E+03-4.46138E+04-2.75031E-09-1.21145E-09
 -1       410 1.15007E+04 3.68916E+05 1.78032E+04-4.01077E+04-7.82165E-11-8.91760E-10
 -1       466 1.12423E+06-4.47783E+04 1.04304E+05 1.22382E+04-4.57021E-10-4.64934E-09
 -1       467 1.17354E+06 5.17199E+04 7.43096E+04-2.40585E+04 1.10163E-10 1.54432E-09
 -1       468 1.14308E+06-6.89519E+03 2.70709E+04 5.07412E+03 6.80302E-10-1.61890E-09
 -1       469 1.15138E+06 7.95654E+03 1.71283E+04-1.34288E+04-4.36103E-10-2.25805E-09
 -1       470 1.14626E+06-1.06002E+03 7.06522E+03 1.60869E+03 1.12829E-09 1.47793E-10
 -1       471 1.14764E+06 1.26575E+03 4.38072E+03-8.37712E+03 1.22668E-10 8.44409E-10
 -1       472 1.14679E+06-1.98389E+02 2.44112E+03 2.23416E+01-2.47766E-10 1.13766E-09
 -1       473 1.14714E+06 4.94193E+02 2.49375E+03-6.30473E+03-7.61808E-11-8.79645E-10
 -1       474 1.14676E+06-2.84042E+02 3.23163E+03-4.63725E+02-8.55089E-10 6.34714E-10
 -1       475 1.14793E+06 2.01118E+03 6.63456E+03-6.19761E+03 1.68342E-10-7.39078E-10
 -1       476 1.14599E+06-1.71094E+03 1.11824E+04-8.47613E+01 9.86432E-10-2.73303E-10
 -1       477 1.15333E+06 1.28405E+04 2.72482E+04-8.00689E+03 3.26111E-10-1.51203E-09
 -1       478 1.14135E+06-1.10850E+04 4.34854E+04 1.34560E+03 1.46287E-10-4.16549E-10
 -1       479 1.18626E+06 8.29455E+04 1.18500E+05-1.26998E+04 6.72216E-10-5.30054E-09
 -1       480 1.11307E+06-7.15951E+04 1.67846E+05 4.60773E+03 1.73509E-09 7.27596E-11
 -1       481-9.03145E+03 1.92114E+05 2.06755E+04-6.42824E+03-3.36513E-11-6.98265E-10
 -1       482 1.06903E+04 2.04739E+05 1.58905E+04 2.32695E+04-4.11546E-11 4.30578E-09
 -1       483-1.75366E+03 1.96530E+05 6.79848E+03-5.31244E+03-6.52562E-11 2.12418E-09
 -1       484 4.55316E+03 2.00304E+05 7.59805E+03 2.17864E+04 4.36771E-11-3.37252E-10
 -1       485-2.81278E+03 1.96403E+05 7.24674E+03-4.94450E+03 1.07548E-10-6.66798E-10
 -1       486-1.04323E+06-1.29238E+05-1.02042E+05-4.34161E+05-4.01997E-10-7.87259E-09
 -1       487-1.14084E+06-1.54069E+05-6.72457E+04-3.43360E+05 1.37106E-09 7.44967E-09
 -1       488-1.04560E+06-1.71840E+05-2.33576E+04-4.35239E+05 2.22371E-10 4.78849E-09
 -1       489-1.12721E+06-1.08916E+05-1.38036E+04-3.46789E+05-8.10132E-10 8.10428E-09
 -1       490-1.05712E+06-1.73995E+05-6.38807E+03-4.31030E+05 6.44695E-09 6.78756E-09
 -1       491-1.08937E+06-1.20372E+05 5.99127E+02-3.64670E+05-5.85192E-09 4.43015E-09
 -1       492-1.08238E+06-1.61233E+05-4.63839E+03-4.16501E+05-5.80712E-10 7.18501E-11
 -1       493-1.04659E+06-1.52983E+05 4.25233E+03-4.01177E+05-3.11934E-09 2.67045E-09
 -1       494-1.09934E+06-1.41884E+05-4.00365E+03-3.94080E+05 2.73485E-09-6.17081E-09
 -1       495-1.02804E+06-1.86951E+05 6.90248E+00-4.42241E+05-1.66722E-09-1.29404E-08
 -1       496-1.10185E+06-1.26504E+05-4.96152E+03-3.76182E+05-3.83102E-09-6.31462E-09
 -1       497-1.02905E+06-2.06488E+05-1.18183E+04-4.60216E+05-1.07075E-08-2.55727E-09
 -1       498-1.09912E+06-1.21682E+05-2.01273E+04-3.76716E+05-4.02270E-09 1.96160E-08
 -1       499-1.05074E+06-2.27068E+05-5.56416E+04-4.35766E+05-1.29967E-09 2.97678E-09
 -1       500-1.07944E+06-1.06648E+05-8.74348E+04-4.00022E+05 6.54290E-09-1.48430E-09
 -1       501-3.04765E+05-1.71372E+04 4.00956E+04 1.83576E+02 1.12243E-09 3.23780E-10
 -1       502-2.86989E+05 1.98470E+04 2.83573E+04-3.01220E+03 4.14786E-10 4.94765E-10
 -1       503-2.98022E+05-2.65768E+03 1.03664E+04 8.20357E+02-2.61593E-10-1.99907E-09
 -1       504-2.94902E+05 3.07383E+03 6.52555E+03-4.13131E+03-3.56096E-10 1.40892E-09
 -1       505-2.96871E+05-4.11594E+02 2.64604E+03 1.30275E+03 8.73513E-10-9.69408E-10
 -1       506-2.96284E+05 4.81667E+02 1.55951E+03-4.87159E+03 1.42639E-09 1.25991E-09
 -1       507-2.96652E+05-6.60871E+01 7.09460E+02 1.56066E+03 1.37710E-09 2.55130E-09
 -1       508-2.96530E+05 9.87442E+01 4.62312E+02-5.13196E+03 3.11946E-10-8.81357E-11
 -1       509-2.96628E+05-2.67687E+01 3.40205E+02 1.56312E+03 1.51253E-09 1.61254E-09
 -1       510-2.96471E+05 1.40137E+02 4.94954E+02-4.88114E+03 2.09768E-09-1.21031E-09
 -1       511-2.96708E+05-1.10142E+02 7.22064E+02 1.30983E+03 5.09857E-10-7.73866E-10
 -1       512-2.96039E+05 8.04858E+02 1.74042E+03-4.14823E+03 5.21680E-11-1.38220E-09
 -1       513-2.97050E+05-6.96741E+02 2.69465E+03 8.30193E+02-5.35664E-10 1.10617E-10
 -1       514-2.93886E+05 5.17910E+03 7.43143E+03-3.02033E+03-1.18256E-09-1.42404E-09
 -1       515-2.98848E+05-4.47839E+03 1.04206E+04 1.81914E+02-5.38421E-10-8.48104E-10
 -1       516-3.79390E+04 2.22647E+05 8.94693E+04 1.10380E+04 4.54020E-09 1.32979E-09
 -1       517 4.67185E+04 2.63748E+05 6.81093E+04-5.24437E+04 6.77028E-09 8.73890E-09
 -1       518-8.42320E+03 2.37028E+05 3.27315E+04 1.05522E+04 4.48972E-09 4.18322E-09
 -1       519 2.71147E+04 2.56816E+05 4.26755E+04-5.35576E+04 6.64568E-09 8.74593E-10
 -1       520-1.85440E+04 2.29776E+05 4.43425E+04 1.21511E+04 1.74623E-10-7.19410E-10
 -1       521-2.28760E+06-2.89139E+05-1.64694E+05-8.84467E+05-1.28421E-09 2.78669E-09
 -1       522-2.33839E+06-4.08603E+05-1.04617E+05-8.92878E+05 5.13751E-10-1.37334E-09
 -1       523-2.31730E+06-3.27513E+05-3.88662E+04-8.78783E+05-6.01460E-10 4.18368E-10
 -1       524-2.30388E+06-3.59917E+05-2.15039E+04-9.02183E+05-1.01954E-09-8.51742E-10
 -1       525-2.32129E+06-3.31219E+05-9.04889E+03-8.77704E+05 2.76304E-09 4.09727E-09
 -1       526-2.29920E+06-3.55346E+05-4.82385E+03-9.03921E+05 1.91574E-09 4.71334E-09
 -1       527-2.32200E+06-3.31393E+05-2.47424E+03-8.77356E+05-3.86763E-10 5.64796E-10
 -1       528-2.29854E+06-3.55077E+05-1.97673E+03-9.04292E+05 1.03245E-10 1.13027E-09
 -1       529-2.32198E+06-3.31416E+05-2.39107E+03-8.77377E+05-6.11294E-10 1.36083E-09
 -1       530-2.29924E+06-3.55237E+05-4.59170E+03-9.03829E+05 7.71593E-10 9.98170E-10
 -1       531-2.32125E+06-3.31309E+05-8.58123E+03-8.77766E+05 5.94355E-10 9.39963E-10
 -1       532-2.30378E+06-3.59448E+05-2.03690E+04-9.02037E+05 1.14937E-09 2.07228E-09
 -1       533-2.31741E+06-3.27871E+05-3.68101E+04-8.78862E+05 2.40675E-10 5.98448E-10
 -1       534-2.33660E+06-4.05402E+05-9.90685E+04-8.93044E+05-7.16682E-10 7.09406E-11
 -1       535-2.28919E+06-2.91623E+05-1.55968E+05-8.84339E+05-4.29281E-10 1.20781E-09
 -1       536 8.68360E+04-1.14684E+04 4.65665E+04-5.03420E+03-1.27329E-11-2.85581E-10
 -1       537 1.04016E+05 1.50761E+04 3.00400E+04-2.20882E+04-1.21031E-09-7.20775E-10
 -1       538 9.39057E+04-1.24209E+03 1.20630E+04-4.99025E+03-3.15595E-10 9.99989E-10
 -1       539 9.60173E+04 1.51151E+03 6.78040E+03-2.21140E+04 1.21463E-09-3.04658E-09
 -1       540 9.47182E+04-1.49754E+02 3.04649E+03-5.00490E+03-5.27507E-11-1.61413E-09
 -1       541 9.50218E+04 1.47447E+02 1.62015E+03-2.20841E+04 2.75350E-10 1.26170E-09
 -1       542 9.48185E+04-2.03837E+01 7.71637E+02-5.02021E+03-1.97588E-10 2.22326E-09
 -1       543 9.48587E+04 2.31397E+01 4.17060E+02-2.20608E+04-4.92264E-11 1.19371E-12
 -1       544 9.48303E+04-7.84286E-01 2.34386E+02-5.02826E+03 2.12253E-10 1.38061E-09
 -1       545 9.48310E+04 2.32664E+01 1.90759E+02-2.20518E+04-7.40584E-10 2.77402E-09
 -1       546 9.48268E+04-5.06086E+00 2.23980E+02-5.02919E+03 5.77529E-11 6.28717E-10
 -1       547 9.48903E+04 9.87246E+01 4.16328E+02-2.20543E+04 2.15721E-10-5.19549E-11
 -1       548 9.47831E+04-7.24456E+01 7.07385E+02-5.02580E+03-6.90079E-10 1.16928E-09
 -1       549 9.53807E+04 8.72835E+02 1.74299E+03-2.20291E+04 3.63343E-10-3.64366E-11
 -1       550 9.43801E+04-6.74945E+02 2.68575E+03-5.05439E+03-4.81577E-10-2.63526E-10
 -1       551 1.09003E+04-2.26328E+05 2.24634E+04-3.45291E+05-2.89219E-10-7.23958E-10
 -1       552 5.28448E+03-2.22636E+05 1.70323E+04-4.02458E+05-8.69477E-10 1.71713E-09
 -1       553 3.34477E+03-2.25850E+05 1.89850E+04-3.44720E+05-4.36557E-10 2.54249E-09
 -1       554 1.22235E+04-2.18889E+05 3.49593E+04-4.02565E+05-6.25732E-10 5.80258E-10
 -1       555 3.33568E+04-2.30490E+05 6.60497E+04-3.45133E+05-2.76486E-10-1.59525E-09
 -1       556-1.77190E+05-9.16744E+04 1.36703E+04-1.64232E+05 9.82254E-10-1.90630E-09
 -1       557-1.64047E+05-1.06097E+05 6.71165E+03-1.74695E+05-1.16415E-10 2.65027E-09
 -1       558-1.77567E+05-9.62992E+04 2.81504E+03-1.61487E+05-2.71029E-09 3.91083E-10
 -1       559-1.65324E+05-1.08376E+05 1.38319E+03-1.75218E+05-7.63976E-10-3.68686E-10
 -1       560-1.77770E+05-9.63245E+04 6.10268E+02-1.61477E+05-4.09636E-09 2.11469E-09
 -1       561-1.65622E+05-1.08403E+05 2.87620E+02-1.75437E+05-1.03500E-08-3.61788E-09
 -1       562-1.77922E+05-9.62209E+04 9.50679E+01-1.61577E+05-2.25555E-10-1.69530E-09
 -1       563-1.65775E+05-1.08338E+05-2.12282E+01-1.75547E+05 1.20999E-08 1.63709E-09
 -1       564-1.78004E+05-9.61584E+04-1.61442E+02-1.61637E+05 1.63636E-08 1.67338E-08
 -1       565-1.65860E+05-1.08306E+05-4.00670E+02-1.75598E+05 6.53927E-10-1.58252E-10
 -1       566-1.78000E+05-9.61340E+04-8.53614E+02-1.61649E+05-1.19508E-09 1.06229E-09
 -1       567-1.66010E+05-1.08401E+05-1.88807E+03-1.75576E+05-5.55474E-10-4.54747E-10
 -1       568-1.77842E+05-9.64525E+04-3.88510E+03-1.61484E+05-5.66615E-10-2.55568E-10
 -1       569-1.68091E+05-1.10821E+05-9.16660E+03-1.74927E+05-4.03361E-10 3.52884E-10
 -1       570-1.77042E+05-1.03804E+05-1.87566E+04-1.58377E+05 2.35013E-09 5.25529E-09
 -1       571 2.36833E+05 1.18794E+04 1.84515E+04-6.09769E+04 2.51021E-10 7.51697E-10
 -1       572 2.39675E+05 4.02299E+03 9.07276E+03-6.73510E+04-2.57842E-10 2.58478E-09
 -1       573 2.37979E+05 8.76654E+02 4.03863E+03-6.08036E+04 0.00000E+00 1.05729E-09
 -1       574 2.38307E+05 2.68234E+02 2.02980E+03-6.75397E+04-3.07409E-10-1.54296E-09
 -1       575 2.38097E+05 1.76236E+01 9.61774E+02-6.07821E+04-3.50610E-10-1.45792E-09
 -1       576 2.38127E+05-2.63050E+00 4.92680E+02-6.75638E+04 3.09683E-10-2.50111E-10
 -1       577 2.38113E+05-1.66978E+01 2.47919E+02-6.07793E+04 5.46834E-11 9.34506E-10
 -1       578 2.38110E+05-1.28951E+01 1.44409E+02-6.75668E+04 2.80124E-10 2.82853E-10
 -1       579 2.38133E+05-1.97833E+01 1.05193E+02-6.07792E+04-3.26509E-10-2.53385E-09
 -1       580 2.38140E+05-2.36155E+01 1.25727E+02-6.75637E+04 5.54792E-11 9.94078E-10
 -1       581 2.38167E+05-3.14918E+01 2.01210E+02-6.07824E+04-1.68257E-10 4.85215E-10
 -1       582 2.38225E+05 3.61864E+00 4.03792E+02-6.75281E+04 4.42014E-10 5.13865E-11
 -1       583 2.38197E+05 1.05886E+02 7.88604E+02-6.08148E+04-1.05501E-10-1.56479E-09
 -1       584 2.38559E+05 7.03248E+02 1.76942E+03-6.72461E+04-1.98816E-09-6.97810E-10
 -1       585 2.38036E+05 2.22227E+03 3.58965E+03-6.10665E+04 1.63709E-10 8.00355E-11
 -1       586 1.96858E+03 9.12285E+04 3.50905E+03-1.61853E+05 1.33059E-09-3.46517E-10
 -1       587 1.09158E+03 9.17935E+04 3.30311E+03-1.79303E+05 5.45697E-12-1.27011E-09
 -1       588 1.22703E+03 9.11734E+04 4.63724E+03-1.61649E+05 1.49612E-09 9.33824E-10
 -1       589 4.35317E+03 9.29219E+04 9.45854E+03-1.79344E+05 4.36557E-10 1.62333E-09
 -1       590 1.22386E+04 9.00401E+04 1.87960E+04-1.61808E+05 1.45974E-09-4.36557E-11
 -1       591-1.07727E+05-3.82986E+04-2.00520E+04-5.72340E+04 3.71131E-10-2.47746E-09
 -1       592-1.08116E+05-3.58304E+04-9.80803E+03-6.34308E+04-8.21274E-10-1.00135E-09
 -1       593-1.08276E+05-3.06663E+04-4.16026E+03-6.06883E+04-2.99269E-09-8.05630E-09
 -1       594-1.05986E+05-3.30874E+04-2.03410E+03-6.38301E+04-6.69615E-10-1.31315E-10
 -1       595-1.08373E+05-3.03707E+04-9.36612E+02-6.08487E+04-7.34872E-10-8.43556E-11
 -1       596-1.05824E+05-3.29756E+04-4.76435E+02-6.38206E+04-4.33266E-09-6.55746E-09
 -1       597-1.08392E+05-3.03828E+04-2.62352E+02-6.08507E+04-8.39805E-10 2.59433E-09
 -1       598-1.05808E+05-3.29767E+04-2.15459E+02-6.38142E+04 2.06143E-10-9.55652E-10
 -1       599-1.08390E+05-3.03829E+04-2.80471E+02-6.08498E+04-1.79625E-11 3.10979E-09
 -1       600-1.05824E+05-3.29768E+04-5.24436E+02-6.38190E+04 2.36923E-10 3.20870E-09
 -1       601-1.08364E+05-3.03704E+04-1.03844E+03-6.08455E+04-7.54426E-10 5.95264E-10
 -1       602-1.06002E+05-3.31011E+04-2.26007E+03-6.38255E+04 7.27141E-10-4.46562E-10
 -1       603-1.08252E+05-3.07027E+04-4.62382E+03-6.06671E+04-2.24645E-10 1.84627E-10
 -1       604-1.08380E+05-3.61367E+04-1.09011E+04-6.33637E+04-2.34422E-10-1.50794E-09
 -1       605-1.07625E+05-3.91950E+04-2.22859E+04-5.68388E+04 2.59115E-09 6.82439E-09
 -1       606 7.24064E+04-9.17282E+03-1.42185E+04 2.12102E+04-4.74483E-09 1.16415E-10
 -1       607 7.01781E+04-3.10701E+03-6.98903E+03 2.32031E+04-7.15318E-10 2.42949E-10
 -1       608 7.14772E+04-6.76285E+02-3.11136E+03 2.10638E+04 3.10865E-09 8.00583E-10
 -1       609 7.11846E+04-1.91465E+02-1.56084E+03 2.33629E+04-1.35378E-09 1.82536E-09
 -1       610 7.13530E+04 4.86480E+00-7.37592E+02 2.10453E+04-4.57112E-09-3.93356E-11
 -1       611 7.12954E+04 3.17813E+01-3.71783E+02 2.33829E+04-9.13587E-09-8.11497E-10
 -1       612 7.13246E+04 3.97924E+01-1.77493E+02 2.10432E+04-4.02179E-09-1.50544E-09
 -1       613 7.13024E+04 4.24428E+01-8.32516E+01 2.33854E+04-7.66704E-09-6.53245E-10
 -1       614 7.13117E+04 3.83693E+01-2.77158E+01 2.10427E+04-3.17550E-09-1.05138E-09
 -1       615 7.12983E+04 4.43429E+01 1.36940E+01 2.33856E+04 2.97587E-09 9.67248E-10
 -1       616 7.13022E+04 4.24813E+01 6.09600E+01 2.10430E+04-5.75073E-09-2.49747E-09
 -1       617 7.13048E+04 6.77277E+01 1.47481E+02 2.33850E+04-7.83075E-10-2.24190E-10
 -1       618 7.12865E+04 1.10451E+02 3.02295E+02 2.10433E+04-1.88759E-08 1.07434E-09
 -1       619 7.14016E+04 3.54625E+02 6.84196E+02 2.33823E+04-3.79841E-08-5.43650E-10
 -1       620 7.11945E+04 9.44472E+02 1.39389E+03 2.10443E+04-1.77872E-08-4.67708E-10
 -1       621 2.01747E+03 2.43192E+05 4.75299E+03-2.35417E+04 2.54659E-10 2.94426E-09
 -1       622 7.67320E+02 2.44081E+05 3.79645E+03-2.75516E+04-1.25192E-09 4.53838E-10
 -1       623 4.43449E+02 2.43402E+05 4.51463E+03-2.35679E+04 1.48702E-10 3.34148E-09
 -1       624 2.58531E+03 2.45133E+05 8.56448E+03-2.74314E+04-7.38510E-10 3.46290E-10
 -1       625 7.93955E+03 2.42169E+05 1.63387E+04-2.36601E+04 3.02634E-10-1.30376E-09
 -1       626 1.00807E+05 3.28940E+04-6.76506E+03 6.91314E+04-3.74575E-09-7.20320E-10
 -1       627 9.78562E+04 3.74501E+04-3.21320E+03 7.03484E+04 1.68620E-09 5.93002E-09
 -1       628 1.00935E+05 3.61875E+04-1.35107E+03 6.75354E+04 4.98403E-09 4.34534E-09
 -1       629 9.83727E+04 3.87915E+04-6.49299E+02 7.02236E+04 3.58887E-09 3.35692E-09
 -1       630 1.00918E+05 3.64082E+04-2.87513E+02 6.74080E+04 4.26644E-09 1.18706E-09
 -1       631 9.84077E+04 3.88880E+04-1.30121E+02 7.02222E+04-2.99406E-09 4.74336E-09
 -1       632 1.00903E+05 3.64158E+04-3.96821E+01 6.73959E+04-3.37604E-09 3.10365E-10
 -1       633 9.84075E+04 3.88931E+04 2.37776E+01 7.02221E+04 4.87785E-09 4.11274E-09
 -1       634 1.00892E+05 3.64105E+04 9.93796E+01 6.73934E+04 7.96854E-09 1.57120E-08
 -1       635 9.84181E+04 3.88956E+04 2.40408E+02 7.02243E+04-3.88445E-09-2.58751E-10
 -1       636 1.00880E+05 3.64195E+04 5.05373E+02 6.73858E+04-3.38844E-09-8.52424E-10
 -1       637 9.85366E+04 3.90256E+04 1.13060E+03 7.02056E+04 4.34494E-09 1.65164E-09
 -1       638 1.00852E+05 3.68133E+04 2.34268E+03 6.72129E+04 2.45473E-09-9.70977E-09
 -1       639 9.97310E+04 4.10724E+04 5.57212E+03 6.97123E+04-2.03818E-09-7.81256E-10
 -1       640 1.00886E+05 4.27526E+04 1.17304E+04 6.47365E+04-1.30349E-08-8.58995E-09
 -1       641 2.26187E+03 2.15161E+03-5.04688E+03-2.06622E+02-6.10875E-09-1.95359E-09
 -1       642 9.76019E+01-2.49162E+03-3.55515E+03 9.22964E+02 3.02158E-09-1.29353E-09
 -1       643 1.42361E+03 3.32713E+02-1.30211E+03-2.05295E+02-9.05406E-09-7.86201E-10
 -1       644 1.07099E+03-3.82789E+02-8.05313E+02 9.21197E+02 5.86681E-09 2.02510E-09
 -1       645 1.28783E+03 5.01737E+01-3.12752E+02-2.04864E+02-7.28214E-09-1.22517E-09
 -1       646 1.23103E+03-5.15727E+01-1.49156E+02 9.20520E+02-2.45704E-07-1.92086E-09
 -1       647 1.26321E+03 2.74306E+00-3.28320E+00-2.04621E+02-1.82884E-05 2.72154E-08
 -1       648 1.27472E+03 2.84482E+01 1.30646E+02 9.20269E+02-3.61713E-05 5.91813E-08
 -1       649 1.24403E+03-2.95773E+01 3.00535E+02-2.04613E+02-1.82900E-05 2.42813E-08
 -1       650 1.38399E+03 2.29283E+02 7.26258E+02 9.20299E+02-2.26935E-07-4.02153E-10
 -1       651 1.15406E+03-1.97657E+02 1.26992E+03-2.04651E+02-8.77543E-09-1.10674E-09
 -1       652 2.00394E+03 1.48281E+03 3.12966E+03 9.20108E+02 3.24724E-09 2.57978E-09
 -1       653 6.24458E+02-1.27953E+03 5.00710E+03-2.04427E+02-3.81651E-09-5.69798E-10
 -1       654 5.76516E+03 9.56824E+03 1.36514E+04 9.17254E+02 8.84759E-09 1.47520E-09
 -1       655-2.60608E+03-8.25666E+03 1.93497E+04-2.01823E+02 2.70338E-09-3.05772E-09
 -1       656 7.62452E+03-2.74730E+05-3.22769E+04 6.62362E+03-1.23146E-09 3.52657E-10
 -1       657-1.10059E+04-2.86661E+05-2.36581E+04 2.81360E+04-7.53289E-10-5.95662E-10
 -1       658 1.49991E+03-2.78946E+05-1.49240E+04 6.56500E+03 1.43245E-11 2.00919E-09
 -1       659-1.00047E+04-2.86096E+05-2.19350E+04 2.81741E+04-4.09273E-10-1.17820E-09
 -1       660 6.80752E+03-2.75315E+05-2.90349E+04 6.58611E+03-2.21553E-09-2.09502E-09
 -1       661 2.73894E+05 3.45027E+04 2.25138E+04 1.06929E+05 7.45172E-09 4.55657E-10
 -1       662 2.79360E+05 5.23361E+04 1.43041E+04 1.09824E+05 1.34371E-09 1.16279E-09
 -1       663 2.77824E+05 3.98777E+04 5.31855E+03 1.06307E+05 1.90528E-09 1.23646E-09
 -1       664 2.74847E+05 4.54747E+04 2.95014E+03 1.10819E+05-3.15993E-09 5.62522E-10
 -1       665 2.78275E+05 4.04814E+04 1.24811E+03 1.06263E+05 8.47990E-10 1.42791E-10
 -1       666 2.74329E+05 4.47198E+04 6.81467E+02 1.10888E+05 4.82495E-09-9.75177E-10
 -1       667 2.78326E+05 4.05533E+04 3.78599E+02 1.06266E+05 6.80694E-09-1.39219E-09
 -1       668 2.74281E+05 4.46474E+04 3.56540E+02 1.10887E+05-4.14584E-09 1.63303E-09
 -1       669 2.78321E+05 4.05489E+04 4.97701E+02 1.06266E+05-1.27351E-09 6.23717E-09
 -1       670 2.74373E+05 4.47691E+04 1.01311E+03 1.10886E+05 9.42529E-09 8.38932E-09
 -1       671 2.78237E+05 4.04395E+04 1.91555E+03 1.06264E+05 2.17517E-09 1.11152E-09
 -1       672 2.75186E+05 4.59336E+04 4.56591E+03 1.10769E+05-6.90841E-09 2.55432E-09
 -1       673 2.77530E+05 3.95086E+04 8.24434E+03 1.06337E+05 2.58684E-09-3.86535E-10
 -1       674 2.82192E+05 5.65681E+04 2.21834E+04 1.09215E+05 1.00974E-08 1.01136E-09
 -1       675 2.71431E+05 3.11766E+04 3.49189E+04 1.07306E+05 2.06774E-09-3.79259E-09
 -1       676 9.85387E+02-2.58946E+05-4.64425E+03 2.49363E+02 4.46323E-09-1.50752E-09
 -1       677-1.77941E+03-2.60734E+05-4.66753E+03 1.89384E+02 2.62247E-09-3.35214E-09
 -1       678 5.11100E+02-2.59246E+05-5.05545E+03 2.48709E+02 2.76464E-09-5.93083E-10
 -1       679-5.30915E+03-2.62791E+05-1.07775E+04 1.89034E+02-3.39958E-09-1.25371E-09
 -1       680 3.91308E+03-2.56890E+05-1.61236E+04 2.49102E+02 2.94676E-10 1.02157E-09
 -1       681 3.90074E+05-1.00920E+04 2.36627E+04 2.77556E+01 1.08713E-12-4.71118E-10
 -1       682 4.00255E+05 1.16948E+04 1.66963E+04 1.03310E+03 1.66200E-10 3.44016E-10
 -1       683 3.94021E+05-1.56361E+03 6.13960E+03 4.83047E+01 5.02864E-12-3.67436E-10
 -1       684 3.95668E+05 1.81302E+03 3.85901E+03 1.04147E+03-1.81267E-10-3.34239E-11
 -1       685 3.94664E+05-2.42934E+02 1.61649E+03 1.94041E+01-3.16193E-10-1.55751E-10
 -1       686 3.94927E+05 2.94358E+02 1.02267E+03 1.15459E+03-2.25072E-10-9.38783E-10
 -1       687 3.94763E+05-4.96624E+01 6.19422E+02-6.48157E+01 2.89443E-10-9.16181E-10
 -1       688 3.94857E+05 1.40763E+02 7.14018E+02 1.39221E+03-1.74047E-11-6.96215E-10
 -1       689 3.94735E+05-9.02836E+01 1.00054E+03-2.18221E+02-2.14641E-10 3.75024E-10
 -1       690 3.95139E+05 6.45579E+02 2.12626E+03 1.79270E+03 5.46351E-10 7.74406E-10
 -1       691 3.94482E+05-5.54237E+02 3.60278E+03-4.65308E+02 3.81277E-10 3.88354E-10
 -1       692 3.96893E+05 4.15314E+03 8.81308E+03 2.42087E+03-4.18879E-10 4.40650E-10
 -1       693 3.92982E+05-3.58907E+03 1.40612E+04-8.46401E+02 4.79048E-10 2.93767E-10
 -1       694 4.07500E+05 2.68439E+04 3.83383E+04 3.39695E+03 1.67270E-09-1.14005E-09
 -1       695 3.83878E+05-2.31719E+04 5.43036E+04-1.44130E+03 1.94697E-09 7.49424E-10
 -1       696-8.08739E+03 3.39757E+05 1.86357E+04 1.50766E+03 8.82210E-11-2.15692E-10
 -1       697 8.76270E+03 3.47681E+05 1.20211E+04-8.00189E+03 6.18456E-11 1.91250E-10
 -1       698-6.38028E+02 3.43271E+05 2.46579E+03 1.22276E+03-1.05956E-10 1.35630E-09
 -1       699-3.22335E+03 3.42076E+05-3.72202E+03-7.84436E+03-1.93722E-10 2.12634E-09
 -1       700 3.86111E+03 3.45362E+05-8.50715E+03 1.35011E+03-1.36424E-10 9.29191E-10
 -1       701-3.53409E+05-3.20636E+04-4.55211E+04-1.40282E+05-1.27329E-11-2.29193E-10
 -1       702-3.76626E+05-7.41048E+04-3.15184E+04-1.33208E+05-3.45381E-10 1.34605E-10
 -1       703-3.62832E+05-4.81203E+04-1.06796E+04-1.37039E+05 4.75211E-11-7.73070E-12
 -1       704-3.65601E+05-5.55868E+04-6.64791E+03-1.37053E+05-3.25429E-11-7.44876E-10
 -1       705-3.64423E+05-5.05312E+04-2.50087E+03-1.36455E+05-5.04770E-11-1.48816E-10
 -1       706-3.63740E+05-5.28226E+04-1.48899E+03-1.37746E+05-2.29861E-11-3.59250E-10
 -1       707-3.64692E+05-5.08767E+04-6.93862E+02-1.36348E+05 1.33170E-10 2.52527E-10
 -1       708-3.63512E+05-5.24299E+04-6.10087E+02-1.37804E+05-1.97346E-10 1.77884E-11
 -1       709-3.64651E+05-5.09231E+04-6.81374E+02-1.36398E+05-2.03343E-10-6.21583E-11
 -1       710-3.63896E+05-5.26351E+04-1.44792E+03-1.37550E+05 2.15326E-10 1.86972E-10
 -1       711-3.64308E+05-5.06728E+04-2.42966E+03-1.36600E+05 2.43944E-10 8.27640E-11
 -1       712-3.65849E+05-5.51689E+04-6.45130E+03-1.36707E+05-2.47837E-11 3.03316E-10
 -1       713-3.62700E+05-4.83969E+04-1.03659E+04-1.37239E+05 4.58158E-10 1.13232E-10
 -1       714-3.76646E+05-7.30474E+04-3.05886E+04-1.32871E+05 1.00954E-09 4.09273E-12
 -1       715-3.53520E+05-3.28432E+04-4.41791E+04-1.40420E+05-2.64663E-10 5.47516E-10
 -1       716 1.29650E+05-1.33977E+04 3.14144E+04-1.52862E+02-1.75032E-09 1.76806E-09
 -1       717 1.43218E+05 1.55267E+04 2.21688E+04-4.51119E+02-9.91182E-10 2.22371E-10
 -1       718 1.34885E+05-2.07611E+03 8.15185E+03-7.54027E+01-3.33834E-10 1.04637E-09
 -1       719 1.37130E+05 2.40718E+03 5.13337E+03-6.05865E+02 6.63960E-10 1.58934E-09
 -1       720 1.35737E+05-3.23527E+02 2.15934E+03 1.82962E+00 1.02969E-09 1.16268E-09
 -1       721 1.36152E+05 3.94414E+02 1.39449E+03-7.71525E+02 1.06837E-09 8.28891E-10
 -1       722 1.35864E+05-7.00476E+01 8.83373E+02 9.02614E+01 5.15001E-11 7.16611E-10
 -1       723 1.36076E+05 2.14012E+02 1.09079E+03-9.64989E+02 3.00645E-10-1.85871E-10
 -1       724 1.35815E+05-1.44161E+02 1.57909E+03 1.95302E+02-4.19462E-10-3.17812E-10
 -1       725 1.36529E+05 1.03715E+03 3.40691E+03-1.19840E+03 3.43739E-10 4.68674E-10
 -1       726 1.35412E+05-8.91944E+02 5.78556E+03 3.23685E+02-6.51056E-10-2.35104E-10
 -1       727 1.39328E+05 6.68258E+03 1.41683E+04-1.48815E+03-7.48706E-10-1.05842E-09
 -1       728 1.33018E+05-5.77406E+03 2.26151E+04 4.85052E+02 4.55941E-10-1.29603E-09
 -1       729 1.56319E+05 4.31802E+04 6.16482E+04-1.88283E+03 3.67152E-10-1.03500E-09
 -1       730 1.18431E+05-3.72687E+04 8.73715E+04 7.18174E+02 1.01284E-09-9.93168E-10
 -1       731-1.39183E+04 1.38751E+05 3.22379E+04 5.82352E+03 3.40151E-10 5.04770E-10
 -1       732 1.62826E+04 1.54592E+05 2.33840E+04-2.51223E+04 1.09048E-09 1.64079E-10
 -1       733-2.32160E+03 1.44858E+05 9.00401E+03 5.25883E+03 1.87129E-09 1.59255E-09
 -1       734 3.98863E+03 1.48077E+05 7.12709E+03-2.45916E+04 3.01549E-09 2.87680E-09
 -1       735-1.61295E+03 1.45192E+05 4.63451E+03 5.29287E+03 1.46412E-09 1.39084E-09
 -1       736-8.27308E+05-8.94671E+04-6.19641E+04-3.16953E+05-1.54978E-09 1.63709E-10
 -1       737-8.52099E+05-1.53387E+05-4.28894E+04-3.15037E+05-2.69256E-09 1.19098E-09
 -1       738-8.40226E+05-1.11159E+05-1.45257E+04-3.12345E+05-2.25782E-10 1.71167E-09
 -1       739-8.37766E+05-1.27460E+05-9.02918E+03-3.19426E+05 8.74650E-10-2.85127E-10
 -1       740-8.41615E+05-1.15328E+05-3.41651E+03-3.12581E+05 2.38515E-10 9.88734E-10
 -1       741-8.37481E+05-1.21212E+05-1.95896E+03-3.17466E+05-1.11439E-09 1.45634E-09
 -1       742-8.40493E+05-1.17411E+05-9.71345E+02-3.14296E+05-5.10624E-10 5.10269E-10
 -1       743-8.40363E+05-1.17388E+05-7.18892E+02-3.13762E+05 6.76437E-12-1.80194E-11
 -1       744-8.38728E+05-1.19156E+05-8.94825E+02-3.16280E+05-2.99252E-10 3.18863E-10
 -1       745-8.43780E+05-1.14875E+05-1.76320E+03-3.10332E+05-2.19774E-09 3.37081E-11
 -1       746-8.37086E+05-1.19913E+05-3.01845E+03-3.17736E+05-2.70205E-10-1.77965E-09
 -1       747-8.47496E+05-1.16912E+05-7.99397E+03-3.08067E+05 3.85967E-10 7.18956E-10
 -1       748-8.35028E+05-1.17118E+05-1.28437E+04-3.18553E+05-1.61344E-09 6.59384E-10
 -1       749-8.59736E+05-1.40133E+05-3.78978E+04-3.04510E+05 1.21167E-09 1.16415E-10
 -1       750-8.24864E+05-9.67587E+04-5.47911E+04-3.21271E+05-8.54925E-10 8.25821E-10
 -1       751 1.91705E+06-1.06239E+05 2.49454E+05 5.40709E+03-1.04174E-08-1.46974E-09
 -1       752 2.02481E+06 1.23113E+05 1.75908E+05-8.23353E+03-2.35357E-09-2.10639E-09
 -1       753 1.95876E+06-1.64564E+04 6.46430E+04 1.97862E+03-3.50653E-10-2.76486E-10
 -1       754 1.97636E+06 1.90566E+04 4.04832E+04-3.46788E+03-4.18993E-10 2.16369E-09
 -1       755 1.96559E+06-2.54384E+03 1.66519E+04 6.42305E+02-9.05629E-10 2.90129E-10
 -1       756 1.96845E+06 2.98233E+03 9.92029E+03-1.61247E+03-5.65628E-11 1.34150E-10
 -1       757 1.96670E+06-4.31293E+02 4.91315E+03 1.23216E+02-9.46050E-10 1.02227E-09
 -1       758 1.96729E+06 7.74257E+02 3.94501E+03-9.30562E+02 1.91933E-10-5.57520E-10
 -1       759 1.96676E+06-3.41590E+02 4.06469E+03-3.96184E+01 3.28116E-10 1.22668E-10
 -1       760 1.96802E+06 2.20246E+03 7.47696E+03-8.17910E+02 1.14913E-10 2.13095E-09
 -1       761 1.96596E+06-1.85542E+03 1.22354E+04 1.05632E+01 8.88312E-11 1.55023E-09
 -1       762 1.97374E+06 1.38712E+04 2.95083E+04-1.17608E+03 1.86880E-09 3.41151E-09
 -1       763 1.96101E+06-1.19738E+04 4.70511E+04 3.18562E+02 3.04205E-09 1.52249E-09
 -1       764 2.00886E+06 8.95561E+04 1.27943E+05-2.33702E+03-9.58096E-11 2.56478E-10
 -1       765 1.93075E+06-7.72775E+04 1.81429E+05 1.17137E+03-2.31353E-10-8.00355E-11
 -1       766-4.53262E+04 3.15299E+05 1.07848E+05-2.12304E+03 2.20462E-09-3.67550E-10
 -1       767 5.61565E+04 3.63196E+05 8.26181E+04 6.51607E+03 1.60071E-10-7.23944E-10
 -1       768-1.06545E+04 3.31320E+05 4.12426E+04-1.65026E+03 1.06047E-09 6.27409E-11
 -1       769 3.58782E+04 3.53676E+05 5.59746E+04 5.96856E+03 9.64064E-11 6.48480E-10
 -1       770-2.51120E+04 3.24805E+05 6.19033E+04-1.57572E+03 5.45697E-10 1.71466E-09
 -1       771-1.06085E+06-2.15816E+05-4.05271E+04-4.57762E+05 8.53106E-10-1.93540E-09
 -1       772-1.05891E+06-2.13380E+05-1.98037E+04-4.73212E+05-2.93585E-09 3.53248E-09
 -1       773-1.06232E+06-2.00122E+05-8.41913E+03-4.64555E+05-8.98581E-10 2.02090E-09
 -1       774-1.05450E+06-2.08077E+05-4.10599E+03-4.74472E+05 1.69166E-09-9.56561E-10
 -1       775-1.06269E+06-1.99407E+05-1.89972E+03-4.64923E+05-3.96540E-10 5.27507E-11
 -1       776-1.05427E+06-2.07842E+05-9.57029E+02-4.74613E+05-7.68523E-10 3.00702E-10
 -1       777-1.06286E+06-1.99357E+05-5.23805E+02-4.64985E+05 3.54703E-10 2.56591E-10
 -1       778-1.05432E+06-2.07815E+05-4.05736E+02-4.74703E+05-9.36780E-11 6.32213E-10
 -1       779-1.06295E+06-1.99303E+05-5.11406E+02-4.65028E+05-1.72804E-10 9.67930E-10
 -1       780-1.05442E+06-2.07795E+05-9.33019E+02-4.74784E+05-2.36469E-11 1.18234E-10
 -1       781-1.06297E+06-1.99244E+05-1.84253E+03-4.65050E+05 1.28239E-10 2.06910E-10
 -1       782-1.05477E+06-2.08008E+05-4.00680E+03-4.74842E+05 3.37650E-10 8.50378E-10
 -1       783-1.06280E+06-1.99812E+05-8.19943E+03-4.64745E+05-1.22668E-09-1.09776E-09
 -1       784-1.05896E+06-2.13440E+05-1.93432E+04-4.74090E+05-1.46153E-09-1.74077E-09
 -1       785-1.06174E+06-2.14844E+05-3.95514E+04-4.57912E+05-2.91379E-10-1.76442E-10
 -1       786 2.44453E+05-7.45606E+03 3.04663E+04-1.35164E+03 4.89990E-11-1.78261E-10
 -1       787 2.55573E+05 9.89393E+03 1.96393E+04-6.06847E+03 1.83036E-10-2.08252E-09
 -1       788 2.49085E+05-7.88561E+02 7.90165E+03-1.35093E+03-5.11591E-12 2.86491E-10
 -1       789 2.50398E+05 1.00811E+03 4.43784E+03-6.06051E+03-3.98984E-10 2.09678E-09
 -1       790 2.49624E+05-8.67129E+01 2.01056E+03-1.35908E+03 4.87546E-10 5.85828E-10
 -1       791 2.49787E+05 1.01487E+02 1.08505E+03-6.04857E+03-9.97318E-11 1.48410E-09
 -1       792 2.49693E+05-1.09265E+01 5.59443E+02-1.36286E+03 2.94605E-10-1.27031E-09
 -1       793 2.49711E+05 1.41979E+01 3.81806E+02-6.04587E+03-5.68402E-10-7.87523E-10
 -1       794 2.49699E+05-6.50653E+00 3.66327E+02-1.36179E+03 1.34094E-10-3.26231E-10
 -1       795 2.49739E+05 4.91534E+01 5.74635E+02-6.05317E+03 2.39879E-10 4.93712E-10
 -1       796 2.49667E+05-4.27766E+01 9.98315E+02-1.35556E+03-2.07990E-10-9.47495E-10
 -1       797 2.50035E+05 4.87326E+02 2.16389E+03-6.06908E+03-3.76303E-10-1.22159E-09
 -1       798 2.49407E+05-3.83610E+02 3.83662E+03-1.34588E+03-2.31921E-10-1.10094E-09
 -1       799 2.52547E+05 4.79486E+03 9.52560E+03-6.07868E+03-1.06343E-09-1.13414E-09
 -1       800 2.47161E+05-3.61769E+03 1.47717E+04-1.34626E+03-7.59428E-11-1.62072E-09
 -1       801-8.94603E+03 2.49575E+05 3.46506E+04-1.38896E+05 4.14730E-10-1.14596E-09
 -1       802 1.82261E+04 2.61140E+05 3.42065E+04-6.05406E+05 7.21593E-09-2.20462E-09
 -1       803-2.00863E+03 2.51238E+05 3.40593E+04-1.38575E+05 3.77804E-09-3.84489E-10
 -1       804 3.88353E+04 2.73603E+05 7.01243E+04-6.05379E+05 4.71482E-09-2.56387E-09
 -1       805-2.63460E+04 2.37606E+05 1.02053E+05-1.38929E+05 3.56522E-09-2.87400E-10
 -1       806-2.31790E+05-6.04988E+04-1.99808E+04-1.05180E+05 3.02157E-09 7.65795E-09
 -1       807-2.32036E+05-5.54184E+04-9.49097E+03-1.11135E+05 1.45519E-11 1.44314E-09
 -1       808-2.31709E+05-5.04142E+04-3.99279E+03-1.09450E+05-1.52181E-09-7.02289E-09
 -1       809-2.30063E+05-5.18792E+04-1.93118E+03-1.11932E+05-1.65437E-09-7.69646E-09
 -1       810-2.31761E+05-4.97420E+04-8.74661E+02-1.09755E+05 8.14453E-10 9.54401E-10
 -1       811-2.29872E+05-5.16501E+04-4.39824E+02-1.11962E+05 2.89901E-10 1.26283E-09
 -1       812-2.31777E+05-4.97242E+04-2.32847E+02-1.09768E+05 8.64873E-11-3.24462E-10
 -1       813-2.29852E+05-5.16442E+04-1.77005E+02-1.11957E+05 3.09456E-10-1.32809E-09
 -1       814-2.31775E+05-4.97264E+04-2.12843E+02-1.09767E+05-2.05523E-09-9.93646E-09
 -1       815-2.29865E+05-5.16517E+04-3.86800E+02-1.11957E+05-1.52340E-11-1.36242E-09
 -1       816-2.31756E+05-4.97449E+04-7.60431E+02-1.09753E+05 1.08685E-10-1.81581E-09
 -1       817-2.30030E+05-5.18483E+04-1.67515E+03-1.11923E+05-9.32232E-10-8.58154E-09
 -1       818-2.31704E+05-5.03343E+04-3.46137E+03-1.09490E+05-1.42654E-09-4.44970E-09
 -1       819-2.31768E+05-5.48834E+04-8.22589E+03-1.11190E+05 3.72893E-11-1.00044E-11
 -1       820-2.31739E+05-5.91019E+04-1.73165E+04-1.05819E+05-3.76531E-10-6.15046E-10
 -1       821-2.27026E+05 7.16287E+03-2.92782E+04 1.37134E+03-2.25123E-09 4.89308E-10
 -1       822-2.37701E+05-9.50928E+03-1.88738E+04 6.32368E+03-1.22782E-09-5.43878E-10
 -1       823-2.31479E+05 7.55758E+02-7.59599E+03 1.32678E+03 2.69597E-09 1.07366E-09
 -1       824-2.32739E+05-9.62987E+02-4.26781E+03 6.38578E+03-1.07815E-09-8.21274E-10
 -1       825-2.31997E+05 8.35752E+01-1.94125E+03 1.30871E+03-4.37444E-09-2.67573E-09
 -1       826-2.32161E+05-8.82776E+01-1.06044E+03 6.41544E+03-8.55647E-09 2.21632E-10
 -1       827-2.32064E+05 1.26567E+01-5.73953E+02 1.29701E+03-4.48028E-09-7.18444E-10
 -1       828-2.32096E+05-5.23806E+00-4.41874E+02 6.43397E+03-6.32230E-09-1.27972E-09
 -1       829-2.32067E+05 1.15994E+01-4.98228E+02 1.29016E+03-7.82421E-10-8.95067E-10
 -1       830-2.32147E+05-6.56593E+01-8.61158E+02 6.44210E+03 4.22015E-09 2.50662E-09
 -1       831-2.32015E+05 6.83970E+01-1.54487E+03 1.28888E+03-3.24080E-09 1.06149E-09
 -1       832-2.32608E+05-7.55063E+02-3.37933E+03 6.43905E+03-1.85742E-09-2.21235E-10
 -1       833-2.31606E+05 6.00687E+02-6.00578E+03 1.29331E+03-3.95465E-09-1.27602E-09
 -1       834-2.36534E+05-7.50918E+03-1.49203E+04 6.41561E+03-7.25640E-09-2.19757E-09
 -1       835-2.28087E+05 5.66611E+03-2.31420E+04 1.31324E+03-2.99781E-09-1.68802E-09
 -1       836-1.19901E+04 6.08415E+05 5.15527E+04-1.49327E+04-9.45874E-10-1.48657E-09
 -1       837 1.79783E+04 6.27626E+05 4.01705E+04-6.39019E+04 7.97627E-10 1.20156E-09
 -1       838-2.93214E+03 6.14555E+05 2.93033E+04-1.49398E+04-1.07002E-09 4.67243E-09
 -1       839 2.32681E+04 6.30699E+05 4.93267E+04-6.38931E+04 1.29467E-09-6.09361E-11
 -1       840-1.63683E+04 6.05331E+05 6.87672E+04-1.49410E+04-1.07684E-09-1.65301E-09
 -1       841-4.42678E+04-1.71466E+03-1.19033E+04-1.87591E+04-2.63344E-09 6.04814E-10
 -1       842-5.09133E+04-1.21290E+04-8.23909E+03-1.62526E+04-2.08229E-09 1.19144E-09
 -1       843-4.66712E+04-5.97244E+03-2.79069E+03-1.79805E+04 3.34802E-09-8.81755E-10
 -1       844-4.81330E+04-7.18654E+03-1.73250E+03-1.71422E+04 1.74533E-09-1.99421E-09
 -1       845-4.70465E+04-6.64386E+03-6.43258E+02-1.78746E+04-1.17431E-09-1.01792E-09
 -1       846-4.77027E+04-6.40173E+03-3.63826E+02-1.72576E+04-4.97854E-09-2.87216E-09
 -1       847-4.71014E+04-6.75521E+03-1.33082E+02-1.78659E+04-1.13589E-09-1.95552E-09
 -1       848-4.76368E+04-6.26322E+03-4.39125E+01-1.72657E+04 6.57023E-09 2.50693E-09
 -1       849-4.71126E+04-6.78200E+03 3.40684E+01-1.78666E+04 3.18654E-09 3.17328E-11
 -1       850-4.75940E+04-6.18757E+03 1.52637E+02-1.72740E+04 1.36477E-09-1.21219E-11
 -1       851-4.71441E+04-6.83069E+03 2.88211E+02-1.78578E+04-2.79670E-10-1.39688E-09
 -1       852-4.73784E+04-5.84000E+03 7.90796E+02-1.73424E+04 4.41744E-09 4.21608E-10
 -1       853-4.73280E+04-7.12873E+03 1.27568E+03-1.77985E+04 3.09740E-09-1.78545E-10
 -1       854-4.60750E+04-3.60244E+03 3.77301E+03-1.77785E+04-1.50585E-09 4.83396E-10
 -1       855-4.84464E+04-9.06228E+03 5.44869E+03-1.74238E+04 7.90124E-10-1.38903E-09
 -1       856-2.65528E+05 6.50841E+03-2.66280E+04 2.80014E+03-7.37782E-09-4.27463E-10
 -1       857-2.75228E+05-8.62727E+03-1.71602E+04 1.30689E+04-8.28049E-09-1.03955E-09
 -1       858-2.69580E+05 6.88438E+02-6.90816E+03 2.72361E+03-9.27730E-09 1.44018E-09
 -1       859-2.70735E+05-8.49528E+02-3.87786E+03 1.31763E+04-7.44183E-09-4.27917E-10
 -1       860-2.70054E+05 8.10118E+01-1.76149E+03 2.69167E+03-2.78101E-09-8.89372E-10
 -1       861-2.70220E+05-4.96086E+01-9.55314E+02 1.32240E+04-9.20039E-09-7.98764E-10
 -1       862-2.70116E+05 1.82894E+01-5.04772E+02 2.67571E+03 1.31628E-08 5.79689E-10
 -1       863-2.70163E+05 2.87021E+01-3.66688E+02 1.32436E+04 2.66900E-08-2.15115E-09
 -1       864-2.70120E+05 1.61944E+01-3.85025E+02 2.67199E+03 1.79565E-08-3.35839E-09
 -1       865-2.70195E+05-1.51342E+01-6.39616E+02 1.32382E+04 1.42524E-08 5.91342E-10
 -1       866-2.70082E+05 5.57118E+01-1.13429E+03 2.68115E+03 3.45642E-09-2.27885E-10
 -1       867-2.70520E+05-5.22889E+02-2.47062E+03 1.32061E+04-1.12186E-09-1.65471E-09
 -1       868-2.69781E+05 4.40746E+02-4.39068E+03 2.70423E+03 6.22936E-09-1.50385E-09
 -1       869-2.73369E+05-5.46331E+03-1.08989E+04 1.31192E+04-2.23099E-09-1.89357E-09
 -1       870-2.67207E+05 4.13487E+03-1.69113E+04 2.76890E+03 4.37467E-09-1.22145E-09
 -1       871-2.30959E+03-2.17473E+04-4.08900E+03 6.13624E+04 2.98769E-09-2.94222E-10
 -1       872-7.44351E+02-2.24633E+04-1.17628E+03 7.14677E+04-2.93448E-09-3.01952E-09
 -1       873 3.46992E+01-2.22019E+04 1.23834E+03 6.12459E+04 1.94427E-09-1.28148E-09
 -1       874 1.45968E+03-2.12245E+04 4.56724E+03 7.15237E+04-1.92222E-09-2.35307E-09
 -1       875 4.84880E+03-2.30226E+04 9.86872E+03 6.13136E+04 1.51977E-09 1.45133E-09
 -1       876 3.09053E+05 3.82107E+04 2.93663E+04 1.21386E+05 6.75095E-09 8.53106E-10
 -1       877 3.15922E+05 6.17514E+04 1.86590E+04 1.25482E+05-6.48129E-10 5.83668E-10
 -1       878 3.14173E+05 4.52300E+04 6.93527E+03 1.20580E+05 3.58239E-09 3.11866E-09
 -1       879 3.10043E+05 5.27888E+04 3.84550E+03 1.26762E+05-1.33741E-09 1.28375E-09
 -1       880 3.14754E+05 4.60259E+04 1.62088E+03 1.20531E+05 2.38140E-09-1.55308E-09
 -1       881 3.09376E+05 5.17915E+04 8.74602E+02 1.26834E+05 8.32870E-10-2.71936E-09
 -1       882 3.14815E+05 4.61269E+04 4.64138E+02 1.20541E+05 5.67491E-09 2.68093E-09
 -1       883 3.09317E+05 5.16832E+04 3.99991E+02 1.26818E+05-4.17883E-09 3.02321E-09
 -1       884 3.14807E+05 4.61298E+04 5.18973E+02 1.20545E+05 8.49390E-10 3.67990E-09
 -1       885 3.09410E+05 5.17977E+04 1.02659E+03 1.26811E+05 1.58144E-08-1.82945E-09
 -1       886 3.14723E+05 4.60212E+04 1.92770E+03 1.20545E+05 8.50028E-09-4.90923E-09
 -1       887 3.10226E+05 5.29675E+04 4.58644E+03 1.26696E+05-6.61976E-09-8.85086E-09
 -1       888 3.14015E+05 4.50839E+04 8.27816E+03 1.20616E+05-3.19770E-09-2.20734E-09
 -1       889 3.17259E+05 6.36487E+04 2.22727E+04 1.25143E+05 4.98699E-09-3.69801E-09
 -1       890 3.07894E+05 3.67146E+04 3.50573E+04 1.21586E+05 3.51702E-09 1.13687E-09
 -1       891 1.16141E+03-1.36939E+05-5.23071E+03 1.28974E+04 1.58707E-09-1.91449E-10
 -1       892-1.91757E+03-1.38825E+05-4.25050E+03 5.61126E+04 2.29977E-09 1.76215E-10
 -1       893 3.28610E+02-1.37527E+05-3.39553E+03 1.28352E+04 4.29884E-09 3.07274E-09
 -1       894-2.99964E+03-1.39449E+05-6.12012E+03 5.61074E+04 3.67254E-09 5.42855E-10
 -1       895 2.05403E+03-1.36308E+05-8.74531E+03 1.29023E+04 4.49700E-09 1.59480E-09
 -1       896 5.60901E+05-4.24729E+03 9.94077E+03 1.19990E+03 1.67972E-10 1.61981E-09
 -1       897 5.65247E+05 4.91777E+03 7.03393E+03-3.08683E+03 5.79803E-12 6.35850E-10
 -1       898 5.62589E+05-6.57568E+02 2.58342E+03 6.45543E+02 8.87255E-10 4.09273E-10
 -1       899 5.63278E+05 7.61799E+02 1.63514E+03-2.22304E+03-6.83809E-10-1.09111E-10
 -1       900 5.62869E+05-1.02590E+02 6.97007E+02 3.36104E+02 8.85066E-10-4.22943E-10
 -1       901 5.62954E+05 1.28020E+02 4.68439E+02-1.77629E+03 1.55648E-08-6.43357E-10
 -1       902 5.62912E+05-2.48253E+01 3.32034E+02 1.98786E+02 1.17257E-06-3.21736E-10
 -1       903 5.62935E+05 9.00687E+01 4.56098E+02-1.64195E+03 2.31877E-06 3.11822E-11
 -1       904 5.62889E+05-6.45610E+01 7.05909E+02 2.01768E+02 1.17195E-06-5.66899E-10
 -1       905 5.63142E+05 4.73270E+02 1.54556E+03-1.78909E+03 1.51436E-08-5.62522E-10
 -1       906 5.62704E+05-4.07274E+02 2.64421E+03 3.45922E+02 7.05988E-10-6.13454E-10
 -1       907 5.64425E+05 3.05525E+03 6.47542E+03-2.25187E+03-2.13525E-10-8.69704E-11
 -1       908 5.61605E+05-2.63960E+03 1.03439E+04 6.64554E+02 3.13165E-10 2.71939E-10
 -1       909 5.72216E+05 1.97439E+04 2.81930E+04-3.14578E+03-7.88475E-10 6.11180E-10
 -1       910 5.54911E+05-1.70425E+04 3.99431E+04 1.23979E+03 1.43473E-10 1.42245E-09
 -1       911 1.67948E+05-2.18511E+03 5.09018E+03 8.84107E+02 7.32541E-10 1.73941E-09
 -1       912 1.70312E+05 2.52732E+03 3.62634E+03-3.24061E+03 3.83636E-10 3.39696E-10
 -1       913 1.68838E+05-3.38777E+02 1.32555E+03 6.53924E+02 3.23624E-10 1.80819E-10
 -1       914 1.69258E+05 3.93016E+02 8.56588E+02-2.86274E+03 5.54600E-10-7.29685E-10
 -1       915 1.68996E+05-5.37883E+01 3.77957E+02 5.06232E+02 9.23691E-10-1.60354E-09
 -1       916 1.69071E+05 7.34324E+01 2.89465E+02-2.63963E+03 1.17275E-09-2.16911E-09
 -1       917 1.69022E+05-1.79993E+01 2.59360E+02 4.30809E+02 8.72699E-10-1.92075E-09
 -1       918 1.69071E+05 8.71799E+01 4.29736E+02-2.55587E+03 2.26390E-10-2.19733E-09
 -1       919 1.68994E+05-6.67782E+01 7.18265E+02 4.22478E+02 9.80423E-10-2.02303E-09
 -1       920 1.69297E+05 4.97618E+02 1.61025E+03-2.60569E+03 9.50266E-10-1.70934E-09
 -1       921 1.68797E+05-4.27825E+02 2.76797E+03 4.80625E+02 7.24583E-10-1.94132E-09
 -1       922 1.70656E+05 3.20934E+03 6.79483E+03-2.79294E+03 6.34593E-10-1.07082E-09
 -1       923 1.67638E+05-2.77200E+03 1.08513E+04 6.09738E+02 3.25841E-10-5.72527E-10
 -1       924 1.78846E+05 2.07294E+04 2.95950E+04-3.13872E+03 1.04734E-10-4.82032E-11
 -1       925 1.60612E+05-1.78927E+04 4.19227E+04 8.26370E+02 8.44437E-10 4.45652E-10
 -1       926-7.19593E+05 1.59531E+04-3.73770E+04-7.87631E+02 1.44586E-09 1.67711E-09
 -1       927-7.35670E+05-1.84832E+04-2.63663E+04 8.28612E+02-1.27556E-09 1.73895E-09
 -1       928-7.25828E+05 2.47072E+03-9.67050E+03-6.13563E+02-7.01803E-10 1.33105E-09
 -1       929-7.28407E+05-2.85978E+03-6.03921E+03 3.69045E+02 7.27425E-10 7.13953E-10
 -1       930-7.26848E+05 3.80287E+02-2.45090E+03-3.28084E+02 5.20757E-11 9.60540E-10
 -1       931-7.27212E+05-4.37275E+02-1.39501E+03-2.38623E+02-5.24771E-10 8.54811E-10
 -1       932-7.27020E+05 5.53041E+01-5.72623E+02-5.88850E+00-2.67008E-10 4.10068E-10
 -1       933-7.27004E+05-4.61355E+01-2.32210E+02-8.32271E+02-2.00782E-10-1.59162E-12
 -1       934-7.27056E+05-9.59255E+00 3.93695E+01 2.65574E+02-3.13157E-10 5.41434E-12
 -1       935-7.26912E+05 1.28602E+02 3.65696E+02-1.25026E+03-5.28050E-10-4.38988E-10
 -1       936-7.27112E+05-1.18567E+02 7.36173E+02 4.12105E+02-8.13822E-10-2.25498E-10
 -1       937-7.26533E+05 8.99124E+02 1.88331E+03-1.37811E+03 2.49868E-10-8.29232E-10
 -1       938-7.27434E+05-7.77623E+02 3.03512E+03 3.93433E+02-4.39218E-10-8.60609E-10
 -1       939-7.24245E+05 5.81815E+03 8.29580E+03-1.18127E+03-3.95374E-10-2.96495E-10
 -1       940-7.29397E+05-5.02160E+03 1.17646E+04 2.15258E+02-2.97923E-10 4.61569E-10
 -1       941 3.01944E+06-1.48727E+05 3.49612E+05 1.61521E+02 1.14460E-08 3.66708E-09
 -1       942 3.16982E+06 1.72387E+05 2.46385E+05 1.06347E+03 1.15583E-08-2.55022E-09
 -1       943 3.07769E+06-2.30471E+04 9.06258E+04 4.30058E+02 4.08372E-09 1.09139E-10
 -1       944 3.10225E+06 2.66944E+04 5.67549E+04 7.08617E+02-7.08110E-11-1.46701E-09
 -1       945 3.08724E+06-3.56483E+03 2.33854E+04 5.16425E+02 3.46325E-09 2.89856E-09
 -1       946 3.09123E+06 4.18661E+03 1.39780E+04 5.87870E+02 2.27738E-10 4.74142E-09
 -1       947 3.08881E+06-6.11112E+02 7.01586E+03 5.50834E+02 7.82661E-10 3.90150E-09
 -1       948 3.08964E+06 1.13652E+03 5.80067E+03 5.20220E+02 1.62858E-09 3.55224E-09
 -1       949 3.08886E+06-5.23207E+02 6.18524E+03 5.84081E+02 9.16473E-10-4.09466E-09
 -1       950 3.09082E+06 3.42281E+03 1.15875E+04 4.05249E+02 2.77330E-09 3.93163E-09
 -1       951 3.08761E+06-2.89095E+03 1.90630E+04 6.65803E+02 2.03683E-10-3.26236E-09
 -1       952 3.09972E+06 2.16214E+04 4.60253E+04 6.98464E+01-1.35982E-09-2.08820E-09
 -1       953 3.07988E+06-1.86642E+04 7.34148E+04 9.19457E+02-3.37015E-09 1.77897E-09
 -1       954 3.15444E+06 1.39600E+05 1.99533E+05-1.01089E+03-1.60065E-09-1.44064E-09
 -1       955 3.03267E+06-1.20446E+05 2.83040E+05 1.74623E+03-9.10354E-09 1.60071E-10
 -1       956-1.64067E+05-2.78190E+03-5.69788E+03 2.37120E+04-2.51566E-09-4.54747E-10
 -1       957-1.65097E+05-8.75412E+02-2.86923E+03 2.74002E+04-8.85393E-10 4.12228E-10
 -1       958-1.64533E+05-1.00913E+02-1.29009E+03 2.35675E+04 1.68257E-09-1.11277E-09
 -1       959-1.64631E+05-4.16559E+00-6.55627E+02 2.75586E+04-2.79579E-09-1.22782E-10
 -1       960-1.64590E+05 3.47394E+01-3.18223E+02 2.35523E+04-4.61296E-09-6.32099E-10
 -1       961-1.64602E+05 4.20332E+01-1.67646E+02 2.75756E+04-8.45216E-09 1.19439E-09
 -1       962-1.64607E+05 3.94926E+01-9.43384E+01 2.35504E+04-3.99086E-09-1.30990E-09
 -1       963-1.64607E+05 4.69403E+01-7.25444E+01 2.75781E+04-5.06998E-09 1.44951E-09
 -1       964-1.64614E+05 4.33323E+01-8.43983E+01 2.35497E+04-1.05365E-09-1.14892E-09
 -1       965-1.64616E+05 5.04007E+01-1.42788E+02 2.75781E+04 4.13996E-09 2.16914E-10
 -1       966-1.64611E+05 4.65497E+01-2.66493E+02 2.35504E+04-1.53878E-09-2.81943E-11
 -1       967-1.64654E+05 1.90647E+01-5.48081E+02 2.75704E+04 8.20364E-10-2.30102E-10
 -1       968-1.64575E+05-6.00369E+01-1.07684E+03 2.35575E+04 6.08679E-10-1.41426E-10
 -1       969-1.65056E+05-7.02799E+02-2.39674E+03 2.74954E+04 7.49196E-11-2.76941E-10
 -1       970-1.64194E+05-2.29600E+03-4.75845E+03 2.36276E+04 2.63981E-09-1.33105E-09
 -1       971-3.59510E+05 5.46295E+03-2.23662E+04 2.73365E+03-4.16003E-09 1.91994E-09
 -1       972-3.67638E+05-7.24420E+03-1.44128E+04 1.30104E+04-2.12742E-09 2.18733E-09
 -1       973-3.62913E+05 5.76832E+02-5.80625E+03 2.63768E+03-5.05042E-09 1.38130E-09
 -1       974-3.63870E+05-7.09842E+02-3.26390E+03 1.31507E+04-1.88618E-09 2.39106E-09
 -1       975-3.63311E+05 6.80876E+01-1.49486E+03 2.59254E+03-4.59295E-10 2.75236E-10
 -1       976-3.63443E+05-3.65777E+01-8.33048E+02 1.32201E+04-6.82132E-09 5.37733E-09
 -1       977-3.63363E+05 1.69012E+01-4.84860E+02 2.56804E+03 6.14125E-09 1.83758E-09
 -1       978-3.63405E+05 2.59362E+01-4.33714E+02 1.32524E+04 1.38513E-08 1.50371E-09
 -1       979-3.63362E+05 1.99670E+01-5.67669E+02 2.56024E+03 5.80167E-09 1.08044E-09
 -1       980-3.63473E+05-5.54714E+01-1.05348E+03 1.32507E+04 6.48640E-09 2.86603E-09
 -1       981-3.63295E+05 9.05235E+01-1.93006E+03 2.56972E+03-4.35205E-09 1.65119E-09
 -1       982-3.64045E+05-9.27463E+02-4.24552E+03 1.32137E+04-2.63486E-09 4.14207E-09
 -1       983-3.62778E+05 7.57502E+02-7.55760E+03 2.59749E+03 4.37012E-09 1.65574E-09
 -1       984-3.68971E+05-9.43569E+03-1.87785E+04 1.31159E+04-7.52607E-11 3.65708E-09
 -1       985-3.58346E+05 7.12933E+03-2.91337E+04 2.66903E+03 5.36284E-09 1.28966E-09
 -3
    1PSTEP                        13           7           1          
  100CL  107 4.70215E-01         841                     0    7           1
 -4  DISP        4    1
 -5  D1          1    2    1    0
 -5  D2          1    2    2    0
 -5  D3          1    2    3    0
 -5  ALL         1    2    0    0    1ALL
 -1         1 5.69630E-05 0.00000E+00 0.00000E+00
 -1         2 4.25435E-05 0.00000E+00 0.00000E+00
 -1         3 3.54424E-05 0.00000E+00 0.00000E+00
 -1         4 3.17341E-05 0.00000E+00 0.00000E+00
 -1         5 3.01433E-05 0.00000E+00 0.00000E+00
 -1         8 4.45125E-05-5.65087E-07 0.00000E+00
 -1         9 3.56488E-05 5.08915E-07 0.00000E+00
 -1        10 3.30264E-05-1.60562E-06 0.00000E+00
 -1        11 3.09258E-05-3.33775E-07 0.00000E+00
 -1        12 2.88817E-05 8.09351E-07 0.00000E+00
 -1        15 1.91203E-05-1.11922E-06 0.00000E+00
 -1        16 2.54498E-05 5.19609E-07 0.00000E+00
 -1        17 2.36836E-05-3.21832E-06 0.00000E+00
 -1        18 2.42104E-05-6.58907E-07 0.00000E+00
 -1        19 2.55735E-05 1.60054E-06 0.00000E+00
 -1        20 2.59811E-05 1.69058E-05 0.00000E+00
 -1        21 2.59674E-05 4.05263E-05 0.00000E+00
 -1        22 6.61737E-06-7.27368E-07 0.00000E+00
 -1        23 8.84926E-06 9.54913E-07 0.00000E+00
 -1        24 9.67462E-06-3.74495E-06 0.00000E+00
 -1        25 2.08506E-05-4.69560E-07 0.00000E+00
 -1        26 2.22733E-05 2.11868E-06 0.00000E+00
 -1        27 2.09471E-05 1.63160E-05 0.00000E+00
 -1        28 1.93884E-05 3.99682E-05 0.00000E+00
 -1        29 0.00000E+00 0.00000E+00 0.00000E+00
 -1        30 3.19457E-06 1.25106E-06 0.00000E+00
 -1        31 4.13443E-06-3.07578E-06 0.00000E+00
 -1        32 0.00000E+00 0.00000E+00 0.00000E+00
 -1        33 1.75594E-05 3.41462E-06 0.00000E+00
 -1        34 1.66106E-05 1.62646E-05 0.00000E+00
 -1        35 1.45175E-05 3.96726E-05 0.00000E+00
 -1        36 5.60904E-05-1.12281E-19 1.32349E-23
 -1        37 5.51892E-05-3.23514E-19 1.32349E-23
 -1        38 5.42899E-05-5.67855E-19 0.00000E+00
 -1        39 5.33851E-05-8.18936E-19 0.00000E+00
 -1        40 5.24802E-05-9.32466E-19 2.64698E-23
 -1        41 5.15742E-05-9.09550E-19 0.00000E+00
 -1        42 5.06680E-05-8.52473E-19 2.64698E-23
 -1        43 4.97617E-05-6.57160E-19 0.00000E+00
 -1        44 4.88554E-05-3.77002E-19 2.64698E-23
 -1        45 4.79492E-05-1.21687E-19 0.00000E+00
 -1        46 4.70430E-05 1.18938E-19-2.64698E-23
 -1        47 4.61375E-05 2.40649E-19-1.32349E-23
 -1        48 4.52322E-05 2.43652E-19 2.64698E-23
 -1        49 4.43304E-05 1.46178E-19-1.32349E-23
 -1        50 4.34275E-05 6.12627E-20-2.64698E-23
 -1        51 5.60308E-05-9.64010E-08 0.00000E+00
 -1        52 5.44769E-05-1.88275E-07 0.00000E+00
 -1        53 5.24218E-05-2.79504E-07 0.00000E+00
 -1        54 4.99914E-05-3.71396E-07 0.00000E+00
 -1        55 4.73126E-05-4.65155E-07 2.06795E-24
 -1        56 5.58612E-05-4.64882E-07 2.64698E-23
 -1        57 5.47470E-05-1.01856E-06 0.00000E+00
 -1        58 5.36495E-05-1.60980E-06 2.64698E-23
 -1        59 5.25458E-05-2.20549E-06 0.00000E+00
 -1        60 5.14289E-05-2.76654E-06 0.00000E+00
 -1        61 5.02844E-05-3.25757E-06-1.32349E-23
 -1        62 4.91011E-05-3.64581E-06-2.64698E-23
 -1        63 4.78679E-05-3.90144E-06-1.32349E-23
 -1        64 4.65759E-05-4.00057E-06 2.64698E-23
 -1        65 4.52179E-05-3.92317E-06 0.00000E+00
 -1        66 4.37892E-05-3.65734E-06-2.64698E-23
 -1        67 4.22882E-05-3.19548E-06 0.00000E+00
 -1        68 4.07145E-05-2.53957E-06 0.00000E+00
 -1        69 3.90769E-05-1.69375E-06-1.32349E-23
 -1        70 3.73723E-05-6.76284E-07 0.00000E+00
 -1        71 4.20992E-05-8.22664E-20 0.00000E+00
 -1        72 4.16546E-05-2.48635E-19 0.00000E+00
 -1        73 4.12101E-05-4.36908E-19 0.00000E+00
 -1        74 4.07656E-05-6.42033E-19-6.61744E-24
 -1        75 4.03210E-05-8.14670E-19-1.32349E-23
 -1        76 3.98764E-05-9.20919E-19 0.00000E+00
 -1        77 3.94319E-05-9.39001E-19 0.00000E+00
 -1        78 3.89873E-05-8.83931E-19-6.61744E-24
 -1        79 3.85428E-05-8.95367E-19 1.32349E-23
 -1        80 3.80983E-05-8.44615E-19 6.61744E-24
 -1        81 3.76538E-05-6.69953E-19 0.00000E+00
 -1        82 3.72096E-05-4.60757E-19 0.00000E+00
 -1        83 3.67655E-05-3.01077E-19 0.00000E+00
 -1        84 3.63225E-05-1.75120E-19-6.61744E-24
 -1        85 3.58792E-05-4.73458E-20 1.32349E-23
 -1        86 4.22808E-05 6.98648E-08-6.61744E-24
 -1        87 4.15050E-05 1.60466E-07 0.00000E+00
 -1        88 4.03386E-05 2.49269E-07 2.06795E-25
 -1        89 3.89023E-05 3.39366E-07 0.00000E+00
 -1        90 3.73035E-05 4.30210E-07-1.65436E-24
 -1        91 4.31683E-05-3.17375E-06 1.32349E-23
 -1        92 4.59747E-05-1.22743E-05-6.61744E-24
 -1        93 5.03289E-05-2.56337E-05 0.00000E+00
 -1        94 5.55800E-05-4.14911E-05 0.00000E+00
 -1        95 6.08515E-05-5.74056E-05-1.32349E-23
 -1        96 6.52663E-05-7.09345E-05-6.61744E-24
 -1        97 6.81641E-05-8.02858E-05 1.32349E-23
 -1        98 6.88977E-05-8.37597E-05-6.61744E-24
 -1        99 6.73875E-05-8.12449E-05 1.32349E-23
 -1       100 6.35986E-05-7.27532E-05-6.61744E-24
 -1       101 5.81240E-05-5.99014E-05 0.00000E+00
 -1       102 5.16097E-05-4.43884E-05 0.00000E+00
 -1       103 4.49975E-05-2.86261E-05 1.32349E-23
 -1       104 3.92351E-05-1.50297E-05 6.61744E-24
 -1       105 3.50237E-05-5.43681E-06 0.00000E+00
 -1       106 3.52080E-05-2.91668E-20 0.00000E+00
 -1       107 3.49756E-05-4.74733E-20 3.30872E-24
 -1       108 3.47431E-05-9.14847E-20 6.61744E-24
 -1       109 3.45110E-05-1.42432E-19 0.00000E+00
 -1       110 3.42789E-05-1.36771E-19-6.61744E-24
 -1       111 3.40469E-05-7.20722E-20-3.30872E-24
 -1       112 3.38149E-05-3.92938E-20-6.61744E-24
 -1       113 3.35829E-05-5.11948E-20-3.30872E-24
 -1       114 3.33509E-05-4.93903E-20 6.61744E-24
 -1       115 3.31189E-05-5.37729E-20 0.00000E+00
 -1       116 3.28870E-05-8.29772E-20 0.00000E+00
 -1       117 3.26552E-05-5.78443E-20-3.30872E-24
 -1       118 3.24235E-05-4.80623E-20 0.00000E+00
 -1       119 3.21925E-05 1.08762E-20 3.30872E-24
 -1       120 3.19613E-05 8.63390E-21-6.61744E-24
 -1       121 3.54199E-05-2.67909E-07 0.00000E+00
 -1       122 3.53057E-05-5.35209E-07-3.30872E-24
 -1       123 3.50543E-05-8.02563E-07 0.00000E+00
 -1       124 3.46203E-05-1.06996E-06 3.30872E-24
 -1       125 3.39590E-05-1.33745E-06-6.61744E-24
 -1       126 3.52054E-05-1.46478E-07-6.61744E-24
 -1       127 3.50068E-05-3.92036E-07 3.30872E-24
 -1       128 3.48355E-05-7.10434E-07-6.61744E-24
 -1       129 3.46813E-05-1.07412E-06 3.30872E-24
 -1       130 3.45313E-05-1.44882E-06-6.61744E-24
 -1       131 3.43725E-05-1.80004E-06 0.00000E+00
 -1       132 3.41935E-05-2.09728E-06 0.00000E+00
 -1       133 3.39830E-05-2.31054E-06 0.00000E+00
 -1       134 3.37343E-05-2.42189E-06 0.00000E+00
 -1       135 3.34411E-05-2.41441E-06 0.00000E+00
 -1       136 3.31035E-05-2.28849E-06 0.00000E+00
 -1       137 3.27221E-05-2.04567E-06-3.30872E-24
 -1       138 3.23039E-05-1.70468E-06-6.61744E-24
 -1       139 3.18571E-05-1.28495E-06-3.30872E-24
 -1       140 3.13922E-05-8.18028E-07-6.61744E-24
 -1       141 3.16322E-05-3.70394E-20 0.00000E+00
 -1       142 3.15317E-05-7.86169E-20 1.65436E-24
 -1       143 3.14310E-05-3.33712E-20-3.30872E-24
 -1       144 3.13306E-05 4.22813E-20 1.65436E-24
 -1       145 3.12303E-05 8.04259E-20 0.00000E+00
 -1       146 3.11299E-05 1.34432E-19-1.65436E-24
 -1       147 3.10296E-05 1.66162E-19 3.30872E-24
 -1       148 3.09293E-05 1.67094E-19 0.00000E+00
 -1       149 3.08291E-05 1.79305E-19 0.00000E+00
 -1       150 3.07289E-05 2.09268E-19 1.65436E-24
 -1       151 3.06287E-05 1.94227E-19 0.00000E+00
 -1       152 3.05289E-05 1.38839E-19 0.00000E+00
 -1       153 3.04292E-05 7.98974E-20 1.65436E-24
 -1       154 3.03312E-05 4.00739E-20 8.27181E-25
 -1       155 3.02326E-05 6.96434E-21 4.13590E-25
 -1       156 3.17466E-05-5.73902E-08 0.00000E+00
 -1       157 3.17790E-05-1.11770E-07 1.65436E-24
 -1       158 3.17715E-05-1.66378E-07 0.00000E+00
 -1       159 3.16647E-05-2.21101E-07-1.65436E-24
 -1       160 3.14016E-05-2.75594E-07 3.30872E-24
 -1       161 3.15982E-05-6.47361E-08 0.00000E+00
 -1       162 3.14707E-05-1.53052E-07 0.00000E+00
 -1       163 3.13484E-05-2.54956E-07-3.30872E-24
 -1       164 3.12274E-05-3.60539E-07-1.65436E-24
 -1       165 3.11038E-05-4.59407E-07 0.00000E+00
 -1       166 3.09739E-05-5.41241E-07 1.65436E-24
 -1       167 3.08343E-05-5.97331E-07 0.00000E+00
 -1       168 3.06819E-05-6.19120E-07-1.65436E-24
 -1       169 3.05144E-05-6.00786E-07 0.00000E+00
 -1       170 3.03299E-05-5.36714E-07 0.00000E+00
 -1       171 3.01275E-05-4.25089E-07-3.30872E-24
 -1       172 2.99071E-05-2.64233E-07-1.65436E-24
 -1       173 2.96692E-05-5.67314E-08 3.30872E-24
 -1       174 2.94168E-05 1.95428E-07 1.65436E-24
 -1       175 2.91496E-05 4.84862E-07 0.00000E+00
 -1       191 3.00985E-05 1.34743E-07 6.61744E-24
 -1       192 2.99851E-05 2.69762E-07 3.30872E-24
 -1       193 2.98044E-05 4.04837E-07-6.61744E-24
 -1       194 2.95588E-05 5.39885E-07 6.61744E-24
 -1       195 2.92503E-05 6.74819E-07 0.00000E+00
 -1       251 4.39728E-05 2.35606E-06 0.00000E+00
 -1       252 4.34155E-05 6.60559E-06 0.00000E+00
 -1       253 4.28562E-05 1.15136E-05 0.00000E+00
 -1       254 4.22946E-05 1.63948E-05 6.61744E-24
 -1       255 4.17359E-05 2.05715E-05 1.32349E-23
 -1       256 4.11813E-05 2.33818E-05 6.61744E-24
 -1       257 4.06297E-05 2.45233E-05 0.00000E+00
 -1       258 4.00783E-05 2.37312E-05-6.61744E-24
 -1       259 3.95244E-05 2.12491E-05 0.00000E+00
 -1       260 3.89662E-05 1.73592E-05 0.00000E+00
 -1       261 3.84052E-05 1.27136E-05 0.00000E+00
 -1       262 3.78442E-05 7.98157E-06 6.61744E-24
 -1       263 3.72857E-05 3.85533E-06 0.00000E+00
 -1       264 3.67341E-05 1.01330E-06 0.00000E+00
 -1       265 3.61847E-05-2.03544E-07-1.32349E-23
 -1       266 4.19773E-05-6.57354E-07 3.30872E-24
 -1       267 3.88357E-05-7.45201E-07-1.65436E-24
 -1       268 3.50261E-05-8.35633E-07 0.00000E+00
 -1       269 3.04890E-05-9.27306E-07-8.27181E-25
 -1       270 2.51959E-05-1.02268E-06 0.00000E+00
 -1       271 4.27878E-05 1.02019E-06 2.64698E-23
 -1       272 4.12201E-05 2.08619E-06-1.32349E-23
 -1       273 3.98235E-05 2.70075E-06 2.64698E-23
 -1       274 3.85690E-05 2.92178E-06 1.32349E-23
 -1       275 3.74369E-05 2.81532E-06-2.64698E-23
 -1       276 3.64012E-05 2.44925E-06 1.32349E-23
 -1       277 3.54360E-05 1.89466E-06 2.64698E-23
 -1       278 3.45140E-05 1.22453E-06 1.32349E-23
 -1       279 3.36074E-05 5.13106E-07 2.64698E-23
 -1       280 3.26884E-05-1.64863E-07 0.00000E+00
 -1       281 3.17293E-05-7.35089E-07-2.64698E-23
 -1       282 3.07032E-05-1.12430E-06 0.00000E+00
 -1       283 2.95830E-05-1.26146E-06 0.00000E+00
 -1       284 2.83476E-05-1.07668E-06 0.00000E+00
 -1       285 2.69664E-05-5.07202E-07-2.64698E-23
 -1       286 3.54819E-05 1.95811E-06-6.61744E-24
 -1       287 3.53182E-05 2.94977E-06 0.00000E+00
 -1       288 3.51546E-05 3.49765E-06 0.00000E+00
 -1       289 3.49916E-05 3.61846E-06-3.30872E-24
 -1       290 3.48286E-05 3.36423E-06 0.00000E+00
 -1       291 3.46656E-05 2.78948E-06 0.00000E+00
 -1       292 3.45025E-05 1.97525E-06 6.61744E-24
 -1       293 3.43392E-05 1.00413E-06 0.00000E+00
 -1       294 3.41759E-05-2.82683E-08-6.61744E-24
 -1       295 3.40126E-05-1.02595E-06 3.30872E-24
 -1       296 3.38493E-05-1.89582E-06-6.61744E-24
 -1       297 3.36861E-05-2.54558E-06-3.30872E-24
 -1       298 3.35229E-05-2.90115E-06-6.61744E-24
 -1       299 3.33589E-05-2.89044E-06 0.00000E+00
 -1       300 3.31952E-05-2.47163E-06 6.61744E-24
 -1       301 3.39471E-05 5.03983E-07 3.30872E-24
 -1       302 3.22381E-05 5.09118E-07 0.00000E+00
 -1       303 3.05279E-05 5.16050E-07 0.00000E+00
 -1       304 2.88224E-05 5.22762E-07 0.00000E+00
 -1       305 2.71278E-05 5.27189E-07-3.30872E-24
 -1       306 3.44162E-05 1.62900E-06 0.00000E+00
 -1       307 3.33578E-05 2.22053E-06 1.32349E-23
 -1       308 3.24709E-05 2.35744E-06-2.64698E-23
 -1       309 3.17254E-05 2.10801E-06-1.32349E-23
 -1       310 3.10966E-05 1.54589E-06 0.00000E+00
 -1       311 3.05563E-05 7.46148E-07 1.32349E-23
 -1       312 3.00759E-05-2.14064E-07-2.64698E-23
 -1       313 2.96262E-05-1.25648E-06-1.32349E-23
 -1       314 2.91777E-05-2.30212E-06 0.00000E+00
 -1       315 2.87009E-05-3.27196E-06 0.00000E+00
 -1       316 2.81666E-05-4.08768E-06 2.64698E-23
 -1       317 2.75464E-05-4.67201E-06-1.32349E-23
 -1       318 2.68116E-05-4.94972E-06 2.64698E-23
 -1       319 2.59383E-05-4.84676E-06 0.00000E+00
 -1       320 2.48954E-05-4.29480E-06 1.32349E-23
 -1       321 3.28884E-05-6.36741E-07 6.61744E-24
 -1       322 3.27566E-05 8.90607E-08 3.30872E-24
 -1       323 3.26245E-05 5.81588E-07 3.30872E-24
 -1       324 3.24936E-05 8.51905E-07 0.00000E+00
 -1       325 3.23628E-05 9.25879E-07 0.00000E+00
 -1       326 3.22322E-05 8.30432E-07-1.65436E-24
 -1       327 3.21017E-05 6.03765E-07-3.30872E-24
 -1       328 3.19711E-05 2.84787E-07 0.00000E+00
 -1       329 3.18406E-05-8.14454E-08 0.00000E+00
 -1       330 3.17100E-05-4.49632E-07 0.00000E+00
 -1       331 3.15795E-05-7.74332E-07 0.00000E+00
 -1       332 3.14490E-05-1.01034E-06 0.00000E+00
 -1       333 3.13184E-05-1.11836E-06 0.00000E+00
 -1       334 3.11878E-05-1.05978E-06 1.65436E-24
 -1       335 3.10572E-05-8.07078E-07 0.00000E+00
 -1       336 3.17980E-05-1.87576E-06 0.00000E+00
 -1       337 3.03556E-05-2.14558E-06 0.00000E+00
 -1       338 2.87607E-05-2.41551E-06-6.61744E-24
 -1       339 2.70755E-05-2.68473E-06 0.00000E+00
 -1       340 2.53624E-05-2.95408E-06 0.00000E+00
 -1       341 3.19689E-05-1.73596E-07 1.32349E-23
 -1       342 3.05243E-05 2.26130E-06 6.61744E-24
 -1       343 2.88446E-05 5.31966E-06 1.32349E-23
 -1       344 2.70768E-05 8.60657E-06 0.00000E+00
 -1       345 2.53935E-05 1.16701E-05-1.32349E-23
 -1       346 2.39639E-05 1.40620E-05-6.61744E-24
 -1       347 2.28922E-05 1.55052E-05 0.00000E+00
 -1       348 2.22746E-05 1.57408E-05 6.61744E-24
 -1       349 2.20912E-05 1.48185E-05 0.00000E+00
 -1       350 2.23135E-05 1.28101E-05-6.61744E-24
 -1       351 2.28106E-05 1.00648E-05-1.32349E-23
 -1       352 2.34474E-05 6.94591E-06 0.00000E+00
 -1       353 2.40524E-05 3.91256E-06-1.32349E-23
 -1       354 2.44589E-05 1.42369E-06 0.00000E+00
 -1       355 2.45424E-05-2.03430E-07-6.61744E-24
 -1       356 3.07961E-05 1.84816E-07 3.30872E-24
 -1       357 3.06670E-05 5.71923E-07 1.65436E-24
 -1       358 3.05380E-05 8.34427E-07 3.30872E-24
 -1       359 3.04092E-05 9.79860E-07 1.65436E-24
 -1       360 3.02803E-05 1.02346E-06 0.00000E+00
 -1       361 3.01515E-05 9.80986E-07 0.00000E+00
 -1       362 3.00227E-05 8.73884E-07 0.00000E+00
 -1       363 2.98939E-05 7.23921E-07 0.00000E+00
 -1       364 2.97651E-05 5.55687E-07-3.30872E-24
 -1       365 2.96365E-05 3.93870E-07-1.65436E-24
 -1       366 2.95078E-05 2.62737E-07-3.30872E-24
 -1       367 2.93796E-05 1.86389E-07-1.65436E-24
 -1       368 2.92514E-05 1.85330E-07-3.30872E-24
 -1       369 2.91252E-05 2.79665E-07 0.00000E+00
 -1       370 2.89983E-05 4.83251E-07 0.00000E+00
 -1       371 3.01038E-05-3.91908E-07 3.30872E-24
 -1       372 2.88287E-05-4.46584E-07 8.27181E-25
 -1       373 2.73511E-05-5.01728E-07-1.65436E-24
 -1       374 2.59223E-05-5.55491E-07 0.00000E+00
 -1       375 2.47923E-05-6.09064E-07 0.00000E+00
 -1       376 3.04749E-05 1.07275E-07 0.00000E+00
 -1       377 3.00570E-05 4.46806E-07-3.30872E-24
 -1       378 2.96783E-05 6.82858E-07-6.61744E-24
 -1       379 2.93387E-05 8.12381E-07-3.30872E-24
 -1       380 2.90341E-05 8.48544E-07 0.00000E+00
 -1       381 2.87591E-05 8.05147E-07 3.30872E-24
 -1       382 2.85044E-05 7.07773E-07-6.61744E-24
 -1       383 2.82602E-05 5.82526E-07 0.00000E+00
 -1       384 2.80150E-05 4.59743E-07 6.61744E-24
 -1       385 2.77576E-05 3.69772E-07 3.30872E-24
 -1       386 2.74786E-05 3.37667E-07 0.00000E+00
 -1       387 2.71691E-05 3.88035E-07 0.00000E+00
 -1       388 2.68240E-05 5.33440E-07 6.61744E-24
 -1       389 2.64413E-05 7.86512E-07 0.00000E+00
 -1       390 2.60190E-05 1.14209E-06 3.30872E-24
 -1       406 2.84305E-05 9.41905E-07 0.00000E+00
 -1       407 2.79292E-05 1.07467E-06 0.00000E+00
 -1       408 2.73850E-05 1.20738E-06-6.61744E-24
 -1       409 2.68058E-05 1.33976E-06 0.00000E+00
 -1       410 2.61993E-05 1.47143E-06-3.30872E-24
 -1       466 1.94886E-05 4.24027E-06 6.61744E-24
 -1       467 1.98825E-05 7.44974E-06-3.30872E-24
 -1       468 2.02793E-05 9.06091E-06 1.32349E-23
 -1       469 2.06802E-05 9.59861E-06 0.00000E+00
 -1       470 2.10815E-05 9.34703E-06-1.32349E-23
 -1       471 2.14831E-05 8.57726E-06 6.61744E-24
 -1       472 2.18844E-05 7.44390E-06 0.00000E+00
 -1       473 2.22856E-05 6.09554E-06 6.61744E-24
 -1       474 2.26866E-05 4.63238E-06 0.00000E+00
 -1       475 2.30874E-05 3.15274E-06-6.61744E-24
 -1       476 2.34882E-05 1.75125E-06 0.00000E+00
 -1       477 2.38881E-05 5.23777E-07 6.61744E-24
 -1       478 2.42883E-05-3.94651E-07 0.00000E+00
 -1       479 2.46835E-05-8.63874E-07 0.00000E+00
 -1       480 2.50806E-05-6.43248E-07-1.65436E-24
 -1       481 1.36965E-05-1.06722E-06-8.27181E-25
 -1       482 1.03095E-05-1.00329E-06 8.27181E-25
 -1       483 8.42411E-06-9.35618E-07 1.65436E-24
 -1       484 7.50991E-06-8.66212E-07-8.27181E-25
 -1       485 7.07212E-06-7.96356E-07-1.65436E-24
 -1       486 1.51932E-05 7.97186E-06 0.00000E+00
 -1       487 9.13183E-06 2.25107E-05 0.00000E+00
 -1       488 1.76496E-06 4.03776E-05 0.00000E+00
 -1       489-6.05849E-06 5.93903E-05 0.00000E+00
 -1       490-1.33674E-05 7.70993E-05-1.32349E-23
 -1       491-1.92105E-05 9.10747E-05 6.61744E-24
 -1       492-2.30090E-05 9.97711E-05 0.00000E+00
 -1       493-2.42404E-05 1.01730E-04-6.61744E-24
 -1       494-2.30075E-05 9.70966E-05 0.00000E+00
 -1       495-1.94541E-05 8.61337E-05 0.00000E+00
 -1       496-1.42580E-05 7.06235E-05 1.32349E-23
 -1       497-8.10644E-06 5.24367E-05 0.00000E+00
 -1       498-1.89811E-06 3.40910E-05 1.32349E-23
 -1       499 3.47053E-06 1.81085E-05 0.00000E+00
 -1       500 7.28305E-06 6.43933E-06-6.61744E-24
 -1       501 2.53321E-05 1.87601E-06 0.00000E+00
 -1       502 2.52215E-05 2.64998E-06 0.00000E+00
 -1       503 2.51107E-05 2.89385E-06 0.00000E+00
 -1       504 2.50012E-05 2.66232E-06 1.65436E-24
 -1       505 2.48916E-05 2.03668E-06-3.30872E-24
 -1       506 2.47820E-05 1.10002E-06-1.65436E-24
 -1       507 2.46722E-05-4.72013E-08-3.30872E-24
 -1       508 2.45623E-05-1.30361E-06 0.00000E+00
 -1       509 2.44525E-05-2.56169E-06 0.00000E+00
 -1       510 2.43427E-05-3.71393E-06 1.65436E-24
 -1       511 2.42332E-05-4.65876E-06 0.00000E+00
 -1       512 2.41239E-05-5.29551E-06 0.00000E+00
 -1       513 2.40146E-05-5.54072E-06-3.30872E-24
 -1       514 2.39051E-05-5.31269E-06 0.00000E+00
 -1       515 2.37955E-05-4.55619E-06 0.00000E+00
 -1       516 2.29536E-05 5.83366E-07 0.00000E+00
 -1       517 1.88657E-05 6.56158E-07 2.06795E-25
 -1       518 1.42937E-05 7.26089E-07 0.00000E+00
 -1       519 1.03435E-05 8.00084E-07 0.00000E+00
 -1       520 8.14883E-06 8.79388E-07-1.03398E-25
 -1       521 2.40144E-05 1.53544E-06 2.64698E-23
 -1       522 2.27435E-05 2.02595E-06 0.00000E+00
 -1       523 2.16425E-05 2.06692E-06 2.64698E-23
 -1       524 2.06797E-05 1.72606E-06-1.32349E-23
 -1       525 1.98316E-05 1.07820E-06 0.00000E+00
 -1       526 1.90689E-05 1.99861E-07 1.32349E-23
 -1       527 1.83627E-05-8.29790E-07 0.00000E+00
 -1       528 1.76829E-05-1.93024E-06 0.00000E+00
 -1       529 1.69992E-05-3.02020E-06 2.64698E-23
 -1       530 1.62812E-05-4.01848E-06 0.00000E+00
 -1       531 1.54991E-05-4.84490E-06 0.00000E+00
 -1       532 1.46239E-05-5.42083E-06 0.00000E+00
 -1       533 1.36269E-05-5.67048E-06 0.00000E+00
 -1       534 1.24844E-05-5.52005E-06-1.32349E-23
 -1       535 1.11655E-05-4.90283E-06 0.00000E+00
 -1       536 2.37073E-05-1.77981E-06-1.65436E-24
 -1       537 2.37391E-05-6.86609E-07 4.13590E-25
 -1       538 2.37711E-05 9.87839E-08-3.10193E-25
 -1       539 2.38044E-05 6.14046E-07-2.06795E-25
 -1       540 2.38379E-05 8.96699E-07 0.00000E+00
 -1       541 2.38718E-05 9.84214E-07 0.00000E+00
 -1       542 2.39057E-05 9.14000E-07 0.00000E+00
 -1       543 2.39396E-05 7.23414E-07 4.13590E-25
 -1       544 2.39735E-05 4.49778E-07 8.27181E-25
 -1       545 2.40074E-05 1.30382E-07 0.00000E+00
 -1       546 2.40414E-05-1.97494E-07 8.27181E-25
 -1       547 2.40753E-05-4.96569E-07 0.00000E+00
 -1       548 2.41092E-05-7.29563E-07 0.00000E+00
 -1       549 2.41431E-05-8.59174E-07 4.13590E-25
 -1       550 2.41770E-05-8.48042E-07-8.27181E-25
 -1       551 2.15900E-05-3.30541E-06 2.11965E-24
 -1       552 1.92639E-05-3.39014E-06 0.00000E+00
 -1       553 1.68065E-05-3.47486E-06-3.30872E-24
 -1       554 1.43207E-05-3.56045E-06 0.00000E+00
 -1       555 1.19096E-05-3.64797E-06 0.00000E+00
 -1       556 2.30630E-05-1.87611E-06 0.00000E+00
 -1       557 2.25598E-05-8.39133E-07 0.00000E+00
 -1       558 2.21609E-05-7.79969E-08 0.00000E+00
 -1       559 2.18538E-05 4.39591E-07 0.00000E+00
 -1       560 2.16262E-05 7.45987E-07 0.00000E+00
 -1       561 2.14656E-05 8.73840E-07 0.00000E+00
 -1       562 2.13597E-05 8.55825E-07 6.61744E-24
 -1       563 2.12963E-05 7.24658E-07-6.61744E-24
 -1       564 2.12631E-05 5.13075E-07 0.00000E+00
 -1       565 2.12478E-05 2.53818E-07-1.65436E-24
 -1       566 2.12381E-05-2.03587E-08-3.30872E-24
 -1       567 2.12218E-05-2.76698E-07 0.00000E+00
 -1       568 2.11866E-05-4.82450E-07-8.27181E-25
 -1       569 2.11205E-05-6.04902E-07-1.80946E-25
 -1       570 2.10116E-05-6.11371E-07 4.13590E-25
 -1       571 2.42921E-05-4.51560E-07 8.27181E-25
 -1       572 2.43764E-05-3.07724E-07 4.13590E-25
 -1       573 2.44615E-05-2.16212E-07 1.65436E-24
 -1       574 2.45469E-05-1.65266E-07 1.65436E-24
 -1       575 2.46325E-05-1.43079E-07 0.00000E+00
 -1       576 2.47182E-05-1.37772E-07-1.65436E-24
 -1       577 2.48038E-05-1.37459E-07 0.00000E+00
 -1       578 2.48895E-05-1.30246E-07 0.00000E+00
 -1       579 2.49752E-05-1.04238E-07 0.00000E+00
 -1       580 2.50609E-05-4.75379E-08 1.65436E-24
 -1       581 2.51466E-05 5.17478E-08 0.00000E+00
 -1       582 2.52322E-05 2.05505E-07 0.00000E+00
 -1       583 2.53178E-05 4.25609E-07 0.00000E+00
 -1       584 2.54034E-05 7.23824E-07 6.61744E-24
 -1       585 2.54887E-05 1.11186E-06 0.00000E+00
 -1       586 2.37235E-05-6.26734E-07-1.65436E-24
 -1       587 2.31661E-05-5.94257E-07 0.00000E+00
 -1       588 2.25688E-05-5.61810E-07 0.00000E+00
 -1       589 2.19630E-05-5.29684E-07 0.00000E+00
 -1       590 2.13800E-05-4.98287E-07 0.00000E+00
 -1       591 2.40688E-05-4.19819E-07 1.65436E-24
 -1       592 2.39393E-05-2.22620E-07 0.00000E+00
 -1       593 2.38219E-05-5.97213E-08-1.65436E-24
 -1       594 2.37143E-05 7.59034E-08 8.27181E-25
 -1       595 2.36142E-05 1.91274E-07 0.00000E+00
 -1       596 2.35190E-05 2.93371E-07 8.27181E-25
 -1       597 2.34262E-05 3.89167E-07-1.65436E-24
 -1       598 2.33331E-05 4.85629E-07 0.00000E+00
 -1       599 2.32371E-05 5.89728E-07 8.27181E-25
 -1       600 2.31357E-05 7.08428E-07-4.13590E-25
 -1       601 2.30262E-05 8.48695E-07 8.27181E-25
 -1       602 2.29061E-05 1.01751E-06 8.27181E-25
 -1       603 2.27727E-05 1.22183E-06 6.20385E-25
 -1       604 2.26239E-05 1.46870E-06 3.61892E-25
 -1       605 2.24573E-05 1.76512E-06 0.00000E+00
 -1       606 2.56020E-05 2.24722E-06 0.00000E+00
 -1       607 2.56284E-05 2.95370E-06 0.00000E+00
 -1       608 2.56542E-05 3.71646E-06 0.00000E+00
 -1       609 2.56797E-05 4.53152E-06 0.00000E+00
 -1       610 2.57051E-05 5.39486E-06 0.00000E+00
 -1       611 2.57304E-05 6.30238E-06-1.65436E-24
 -1       612 2.57556E-05 7.24999E-06 0.00000E+00
 -1       613 2.57808E-05 8.23360E-06-8.27181E-25
 -1       614 2.58060E-05 9.24910E-06 0.00000E+00
 -1       615 2.58311E-05 1.02924E-05 0.00000E+00
 -1       616 2.58562E-05 1.13593E-05 0.00000E+00
 -1       617 2.58813E-05 1.24459E-05 0.00000E+00
 -1       618 2.59064E-05 1.35479E-05 0.00000E+00
 -1       619 2.59314E-05 1.46613E-05 1.24077E-24
 -1       620 2.59563E-05 1.57820E-05-8.27181E-25
 -1       621 2.49607E-05 1.68707E-06 1.65436E-24
 -1       622 2.43637E-05 1.77415E-06 0.00000E+00
 -1       623 2.37895E-05 1.86129E-06 0.00000E+00
 -1       624 2.32451E-05 1.94822E-06-8.27181E-25
 -1       625 2.27375E-05 2.03465E-06 0.00000E+00
 -1       626 2.53779E-05 2.27625E-06 0.00000E+00
 -1       627 2.51577E-05 3.01430E-06 3.30872E-24
 -1       628 2.49159E-05 3.80902E-06 0.00000E+00
 -1       629 2.46550E-05 4.65395E-06 0.00000E+00
 -1       630 2.43777E-05 5.54262E-06 0.00000E+00
 -1       631 2.40864E-05 6.46842E-06 1.65436E-24
 -1       632 2.37836E-05 7.42475E-06 0.00000E+00
 -1       633 2.34719E-05 8.40503E-06-8.27181E-25
 -1       634 2.31536E-05 9.40265E-06 1.65436E-24
 -1       635 2.28312E-05 1.04110E-05 8.27181E-25
 -1       636 2.25073E-05 1.14234E-05 0.00000E+00
 -1       637 2.21843E-05 1.24334E-05-4.13590E-25
 -1       638 2.18646E-05 1.34343E-05 0.00000E+00
 -1       639 2.15505E-05 1.44195E-05 6.20385E-25
 -1       640 2.12444E-05 1.53823E-05 8.27181E-25
 -1       641 2.59819E-05 1.80739E-05 4.13590E-25
 -1       642 2.59817E-05 1.93660E-05-1.03398E-25
 -1       643 2.59814E-05 2.07643E-05 0.00000E+00
 -1       644 2.59809E-05 2.22510E-05-2.58494E-26
 -1       645 2.59802E-05 2.38084E-05 0.00000E+00
 -1       646 2.59794E-05 2.54186E-05 0.00000E+00
 -1       647 2.59786E-05 2.70640E-05 1.29247E-26
 -1       648 2.59778E-05 2.87268E-05 0.00000E+00
 -1       649 2.59769E-05 3.03893E-05 0.00000E+00
 -1       650 2.59760E-05 3.20337E-05-1.29247E-26
 -1       651 2.59752E-05 3.36423E-05 5.16988E-26
 -1       652 2.59743E-05 3.51973E-05 5.16988E-26
 -1       653 2.59735E-05 3.66809E-05 0.00000E+00
 -1       654 2.59723E-05 3.80755E-05 0.00000E+00
 -1       655 2.59713E-05 3.93632E-05 0.00000E+00
 -1       656 2.49665E-05 1.68107E-05-1.65436E-24
 -1       657 2.40852E-05 1.67108E-05-8.27181E-25
 -1       658 2.32901E-05 1.66112E-05 1.65436E-24
 -1       659 2.25336E-05 1.65115E-05-8.27181E-25
 -1       660 2.17684E-05 1.64116E-05 1.65436E-24
 -1       661 2.56551E-05 1.81076E-05-1.65436E-24
 -1       662 2.52966E-05 1.94080E-05 0.00000E+00
 -1       663 2.49066E-05 2.07914E-05 3.30872E-24
 -1       664 2.44914E-05 2.22440E-05 1.65436E-24
 -1       665 2.40555E-05 2.37513E-05 3.30872E-24
 -1       666 2.36044E-05 2.52996E-05 1.65436E-24
 -1       667 2.31431E-05 2.68749E-05 0.00000E+00
 -1       668 2.26769E-05 2.84633E-05-1.65436E-24
 -1       669 2.22110E-05 3.00508E-05-3.30872E-24
 -1       670 2.17506E-05 3.16237E-05 0.00000E+00
 -1       671 2.13009E-05 3.31680E-05 0.00000E+00
 -1       672 2.08671E-05 3.46698E-05 0.00000E+00
 -1       673 2.04544E-05 3.61151E-05-3.30872E-24
 -1       674 2.00674E-05 3.74895E-05 1.65436E-24
 -1       675 1.97123E-05 3.87794E-05 0.00000E+00
 -1       676 2.48680E-05 4.04331E-05 0.00000E+00
 -1       677 2.37695E-05 4.03394E-05-1.65436E-24
 -1       678 2.26722E-05 4.02457E-05 3.30872E-24
 -1       679 2.15762E-05 4.01524E-05 8.27181E-25
 -1       680 2.04815E-05 4.00590E-05-1.65436E-24
 -1       681 6.75384E-06-1.91583E-07 0.00000E+00
 -1       682 6.89413E-06 4.42521E-07 0.00000E+00
 -1       683 7.03414E-06 1.14368E-06 0.00000E+00
 -1       684 7.17485E-06 1.88100E-06 1.65436E-24
 -1       685 7.31558E-06 2.62632E-06-3.30872E-24
 -1       686 7.45647E-06 3.35153E-06-1.65436E-24
 -1       687 7.59740E-06 4.02699E-06 0.00000E+00
 -1       688 7.73840E-06 4.62277E-06 1.65436E-24
 -1       689 7.87944E-06 5.10295E-06 0.00000E+00
 -1       690 8.02049E-06 5.43092E-06 0.00000E+00
 -1       691 8.16153E-06 5.55860E-06 0.00000E+00
 -1       692 8.30225E-06 5.43674E-06 0.00000E+00
 -1       693 8.44282E-06 4.99729E-06 3.30872E-24
 -1       694 8.58150E-06 4.17034E-06 1.65436E-24
 -1       695 8.72022E-06 2.85685E-06 8.27181E-25
 -1       696 5.93714E-06-6.08988E-07 3.30872E-24
 -1       697 4.88153E-06-4.87742E-07-1.65436E-24
 -1       698 3.60663E-06-3.66915E-07 3.30872E-24
 -1       699 2.26744E-06-2.45280E-07 0.00000E+00
 -1       700 1.01481E-06-1.23613E-07 0.00000E+00
 -1       701 6.32880E-06-3.81658E-07 1.65436E-24
 -1       702 6.09719E-06-2.11760E-07 0.00000E+00
 -1       703 5.92246E-06-1.91859E-07 3.30872E-24
 -1       704 5.79378E-06-2.99108E-07-1.65436E-24
 -1       705 5.69961E-06-4.98438E-07 0.00000E+00
 -1       706 5.62653E-06-7.54852E-07-1.65436E-24
 -1       707 5.55976E-06-1.02818E-06-3.30872E-24
 -1       708 5.48424E-06-1.27826E-06 0.00000E+00
 -1       709 5.38570E-06-1.46694E-06 0.00000E+00
 -1       710 5.25003E-06-1.55648E-06-1.65436E-24
 -1       711 5.06627E-06-1.51772E-06 0.00000E+00
 -1       712 4.82400E-06-1.32221E-06 0.00000E+00
 -1       713 4.51737E-06-9.55215E-07 0.00000E+00
 -1       714 4.14256E-06-4.02452E-07 0.00000E+00
 -1       715 3.69847E-06 3.33089E-07-1.65436E-24
 -1       716 8.89536E-06-1.11184E-06 0.00000E+00
 -1       717 8.94723E-06-2.91084E-06 0.00000E+00
 -1       718 8.99917E-06-4.45879E-06 0.00000E+00
 -1       719 9.05242E-06-5.77181E-06 8.27181E-25
 -1       720 9.10597E-06-6.85938E-06 0.00000E+00
 -1       721 9.15991E-06-7.73043E-06 0.00000E+00
 -1       722 9.21403E-06-8.38771E-06 0.00000E+00
 -1       723 9.26828E-06-8.83349E-06 0.00000E+00
 -1       724 9.32258E-06-9.06399E-06 1.65436E-24
 -1       725 9.37680E-06-9.07494E-06 0.00000E+00
 -1       726 9.43093E-06-8.85577E-06 0.00000E+00
 -1       727 9.48442E-06-8.39542E-06-4.13590E-25
 -1       728 9.53769E-06-7.67593E-06 4.13590E-25
 -1       729 9.58796E-06-6.67875E-06 4.13590E-25
 -1       730 9.63882E-06-5.37746E-06 0.00000E+00
 -1       731 1.01922E-05 9.99883E-07 0.00000E+00
 -1       732 9.87041E-06 1.05084E-06 4.13590E-25
 -1       733 8.45095E-06 1.10067E-06-8.27181E-25
 -1       734 6.49839E-06 1.15052E-06 0.00000E+00
 -1       735 4.56288E-06 1.20048E-06 0.00000E+00
 -1       736 9.44622E-06-1.64410E-06 6.61744E-24
 -1       737 1.02286E-05-4.77480E-06 0.00000E+00
 -1       738 1.10926E-05-8.12280E-06-1.32349E-23
 -1       739 1.19191E-05-1.13758E-05 0.00000E+00
 -1       740 1.26004E-05-1.42385E-05-1.32349E-23
 -1       741 1.30283E-05-1.64218E-05 0.00000E+00
 -1       742 1.31434E-05-1.77672E-05 0.00000E+00
 -1       743 1.28901E-05-1.81281E-05 6.61744E-24
 -1       744 1.22831E-05-1.75467E-05 0.00000E+00
 -1       745 1.13426E-05-1.60784E-05 0.00000E+00
 -1       746 1.01526E-05-1.39488E-05 1.32349E-23
 -1       747 8.80198E-06-1.13926E-05-6.61744E-24
 -1       748 7.40969E-06-8.72635E-06 1.32349E-23
 -1       749 6.09771E-06-6.26729E-06 0.00000E+00
 -1       750 4.96858E-06-4.29457E-06 0.00000E+00
 -1       751 1.03314E-05-2.24929E-06 0.00000E+00
 -1       752 1.10298E-05-1.33755E-06 6.61744E-24
 -1       753 1.17259E-05-8.28116E-07 0.00000E+00
 -1       754 1.24298E-05-5.51347E-07 0.00000E+00
 -1       755 1.31340E-05-4.34343E-07 0.00000E+00
 -1       756 1.38397E-05-4.08880E-07 1.32349E-23
 -1       757 1.45457E-05-4.44965E-07 0.00000E+00
 -1       758 1.52519E-05-5.14400E-07 1.32349E-23
 -1       759 1.59581E-05-6.02922E-07 0.00000E+00
 -1       760 1.66642E-05-6.96829E-07 0.00000E+00
 -1       761 1.73701E-05-7.84668E-07-2.64698E-23
 -1       762 1.80749E-05-8.54805E-07 0.00000E+00
 -1       763 1.87796E-05-8.88220E-07 1.32349E-23
 -1       764 1.94786E-05-8.64815E-07 6.61744E-24
 -1       765 2.01795E-05-7.40840E-07 0.00000E+00
 -1       766 8.12268E-06-3.64696E-06 0.00000E+00
 -1       767 7.04950E-06-3.53156E-06 2.58494E-26
 -1       768 6.28210E-06-3.41703E-06-1.65436E-24
 -1       769 5.64911E-06-3.30088E-06-4.13590E-25
 -1       770 4.98759E-06-3.18404E-06 0.00000E+00
 -1       771 8.62703E-06-2.31090E-06 0.00000E+00
 -1       772 7.67201E-06-1.14242E-06 6.61744E-24
 -1       773 6.80712E-06-2.17291E-07 0.00000E+00
 -1       774 6.02451E-06 4.86996E-07-6.61744E-24
 -1       775 5.31620E-06 9.92988E-07 1.32349E-23
 -1       776 4.67374E-06 1.32338E-06 6.61744E-24
 -1       777 4.08864E-06 1.50091E-06 0.00000E+00
 -1       778 3.55234E-06 1.54839E-06 6.61744E-24
 -1       779 3.05627E-06 1.48869E-06 1.32349E-23
 -1       780 2.59184E-06 1.34470E-06 0.00000E+00
 -1       781 2.15046E-06 1.13938E-06 1.32349E-23
 -1       782 1.72359E-06 8.95709E-07 0.00000E+00
 -1       783 1.30272E-06 6.36694E-07 0.00000E+00
 -1       784 8.79720E-07 3.85450E-07 0.00000E+00
 -1       785 4.46558E-07 1.65107E-07 0.00000E+00
 -1       786 2.09342E-05-1.60693E-07 0.00000E+00
 -1       787 2.10229E-05 8.04042E-08-8.27181E-25
 -1       788 2.11116E-05 2.64106E-07-1.65436E-24
 -1       789 2.12010E-05 4.00785E-07 0.00000E+00
 -1       790 2.12905E-05 5.00764E-07 0.00000E+00
 -1       791 2.13802E-05 5.74344E-07 0.00000E+00
 -1       792 2.14699E-05 6.31798E-07 0.00000E+00
 -1       793 2.15596E-05 6.83388E-07 1.65436E-24
 -1       794 2.16494E-05 7.39370E-07-3.30872E-24
 -1       795 2.17391E-05 8.10005E-07 1.65436E-24
 -1       796 2.18288E-05 9.05564E-07 0.00000E+00
 -1       797 2.19185E-05 1.03634E-06-1.65436E-24
 -1       798 2.20081E-05 1.21266E-06-3.30872E-24
 -1       799 2.20973E-05 1.44488E-06 8.27181E-25
 -1       800 2.21865E-05 1.74341E-06-1.65436E-24
 -1       801 1.89774E-05-3.86896E-07-3.30872E-24
 -1       802 1.50984E-05-3.04573E-07-8.27181E-25
 -1       803 1.02369E-05-2.26331E-07 0.00000E+00
 -1       804 5.41724E-06-1.49726E-07-8.27181E-25
 -1       805 1.66379E-06-6.88926E-08 0.00000E+00
 -1       806 2.06367E-05-1.93769E-07 0.00000E+00
 -1       807 2.04301E-05 5.31166E-08 0.00000E+00
 -1       808 2.02313E-05 2.76773E-07 0.00000E+00
 -1       809 2.00389E-05 4.82410E-07 1.65436E-24
 -1       810 1.98512E-05 6.75206E-07 3.30872E-24
 -1       811 1.96663E-05 8.60296E-07 0.00000E+00
 -1       812 1.94823E-05 1.04281E-06-3.30872E-24
 -1       813 1.92974E-05 1.22785E-06 1.65436E-24
 -1       814 1.91096E-05 1.42056E-06 3.30872E-24
 -1       815 1.89170E-05 1.62605E-06-1.65436E-24
 -1       816 1.87177E-05 1.84943E-06 0.00000E+00
 -1       817 1.85098E-05 2.09584E-06-1.65436E-24
 -1       818 1.82915E-05 2.37038E-06 0.00000E+00
 -1       819 1.80610E-05 2.67821E-06 8.27181E-25
 -1       820 1.78169E-05 3.02449E-06 8.27181E-25
 -1       821 2.21955E-05 2.59629E-06-8.27181E-25
 -1       822 2.21129E-05 3.18037E-06-8.27181E-25
 -1       823 2.20303E-05 3.86003E-06 0.00000E+00
 -1       824 2.19469E-05 4.62424E-06-8.27181E-25
 -1       825 2.18633E-05 5.46193E-06-3.30872E-24
 -1       826 2.17796E-05 6.36196E-06 0.00000E+00
 -1       827 2.16957E-05 7.31312E-06 0.00000E+00
 -1       828 2.16118E-05 8.30420E-06 0.00000E+00
 -1       829 2.15279E-05 9.32393E-06 3.30872E-24
 -1       830 2.14440E-05 1.03610E-05 0.00000E+00
 -1       831 2.13601E-05 1.14042E-05 0.00000E+00
 -1       832 2.12763E-05 1.24421E-05 0.00000E+00
 -1       833 2.11926E-05 1.34636E-05-1.65436E-24
 -1       834 2.11095E-05 1.44572E-05-8.27181E-25
 -1       835 2.10264E-05 1.54117E-05 0.00000E+00
 -1       836 2.16878E-05 2.33062E-06 0.00000E+00
 -1       837 2.08791E-05 2.55002E-06 0.00000E+00
 -1       838 1.99547E-05 2.76894E-06-6.61744E-24
 -1       839 1.90217E-05 2.98738E-06-1.65436E-24
 -1       840 1.81875E-05 3.20628E-06-3.30872E-24
 -1       841 2.20774E-05 2.58924E-06 0.00000E+00
 -1       842 2.18362E-05 3.17420E-06 1.03398E-25
 -1       843 2.15562E-05 3.86274E-06-4.13590E-25
 -1       844 2.12413E-05 4.64295E-06 0.00000E+00
 -1       845 2.08967E-05 5.50220E-06 4.13590E-25
 -1       846 2.05272E-05 6.42761E-06-2.06795E-25
 -1       847 2.01379E-05 7.40558E-06 4.13590E-25
 -1       848 1.97339E-05 8.42248E-06 2.06795E-25
 -1       849 1.93206E-05 9.46421E-06-8.27181E-25
 -1       850 1.89033E-05 1.05166E-05 4.13590E-25
 -1       851 1.84873E-05 1.15655E-05 8.27181E-25
 -1       852 1.80779E-05 1.25967E-05 4.13590E-25
 -1       853 1.76805E-05 1.35960E-05 8.27181E-25
 -1       854 1.73001E-05 1.45494E-05 4.13590E-25
 -1       855 1.69422E-05 1.54436E-05 8.27181E-25
 -1       856 2.08548E-05 1.72880E-05 0.00000E+00
 -1       857 2.07579E-05 1.84345E-05 0.00000E+00
 -1       858 2.06609E-05 1.97329E-05 0.00000E+00
 -1       859 2.05631E-05 2.11604E-05 1.65436E-24
 -1       860 2.04650E-05 2.26941E-05 0.00000E+00
 -1       861 2.03667E-05 2.43110E-05-1.65436E-24
 -1       862 2.02683E-05 2.59880E-05 3.30872E-24
 -1       863 2.01697E-05 2.77020E-05 0.00000E+00
 -1       864 2.00712E-05 2.94298E-05 3.30872E-24
 -1       865 1.99726E-05 3.11483E-05-1.65436E-24
 -1       866 1.98742E-05 3.28342E-05-3.30872E-24
 -1       867 1.97759E-05 3.44645E-05 1.65436E-24
 -1       868 1.96778E-05 3.60159E-05-3.30872E-24
 -1       869 1.95802E-05 3.74656E-05-1.65436E-24
 -1       870 1.94828E-05 3.87906E-05-1.65436E-24
 -1       871 2.01601E-05 1.63086E-05 0.00000E+00
 -1       872 1.94228E-05 1.63006E-05 4.13590E-25
 -1       873 1.87175E-05 1.62924E-05 8.27181E-25
 -1       874 1.80258E-05 1.62839E-05 0.00000E+00
 -1       875 1.73295E-05 1.62750E-05 0.00000E+00
 -1       876 2.07112E-05 1.73200E-05 0.00000E+00
 -1       877 2.04241E-05 1.84758E-05 1.65436E-24
 -1       878 2.00878E-05 1.97620E-05-3.30872E-24
 -1       879 1.97105E-05 2.11594E-05-1.65436E-24
 -1       880 1.92986E-05 2.26487E-05 3.30872E-24
 -1       881 1.88596E-05 2.42108E-05 0.00000E+00
 -1       882 1.84003E-05 2.58266E-05-3.30872E-24
 -1       883 1.79278E-05 2.74774E-05-1.65436E-24
 -1       884 1.74493E-05 2.91442E-05-3.30872E-24
 -1       885 1.69719E-05 3.08083E-05-1.65436E-24
 -1       886 1.65025E-05 3.24507E-05 0.00000E+00
 -1       887 1.60482E-05 3.40526E-05 0.00000E+00
 -1       888 1.56162E-05 3.55951E-05 0.00000E+00
 -1       889 1.52128E-05 3.70589E-05 1.65436E-24
 -1       890 1.48463E-05 3.84252E-05-1.65436E-24
 -1       891 1.84357E-05 3.99191E-05 0.00000E+00
 -1       892 1.76659E-05 3.98695E-05-8.27181E-25
 -1       893 1.69842E-05 3.98200E-05 1.65436E-24
 -1       894 1.62955E-05 3.97705E-05-8.27181E-25
 -1       895 1.55049E-05 3.97210E-05-8.27181E-25
 -1       896 1.98451E-07 7.30154E-07 0.00000E+00
 -1       897 3.98695E-07 1.15019E-06 0.00000E+00
 -1       898 5.98911E-07 1.32633E-06 0.00000E+00
 -1       899 7.99449E-07 1.32277E-06 0.00000E+00
 -1       900 9.99986E-07 1.18427E-06 0.00000E+00
 -1       901 1.20057E-06 9.54453E-07 0.00000E+00
 -1       902 1.40114E-06 6.67089E-07-6.61744E-24
 -1       903 1.60170E-06 3.55457E-07 0.00000E+00
 -1       904 1.80226E-06 5.02019E-08 6.61744E-24
 -1       905 2.00278E-06-2.17969E-07 3.30872E-24
 -1       906 2.20329E-06-4.14334E-07 6.61744E-24
 -1       907 2.40356E-06-5.03586E-07 3.30872E-24
 -1       908 2.60380E-06-4.38819E-07 0.00000E+00
 -1       909 2.80277E-06-1.71855E-07 0.00000E+00
 -1       910 3.00204E-06 3.67340E-07 0.00000E+00
 -1       911 3.25303E-06 2.08398E-06-1.65436E-24
 -1       912 3.31258E-06 2.47014E-06 0.00000E+00
 -1       913 3.37215E-06 2.48316E-06 1.65436E-24
 -1       914 3.43183E-06 2.19574E-06 0.00000E+00
 -1       915 3.49143E-06 1.67113E-06-1.65436E-24
 -1       916 3.55096E-06 9.72005E-07 0.00000E+00
 -1       917 3.61040E-06 1.55535E-07 0.00000E+00
 -1       918 3.66979E-06-7.21406E-07 0.00000E+00
 -1       919 3.72916E-06-1.60383E-06 0.00000E+00
 -1       920 3.78852E-06-2.43676E-06 8.27181E-25
 -1       921 3.84793E-06-3.16368E-06 1.65436E-24
 -1       922 3.90718E-06-3.72780E-06 0.00000E+00
 -1       923 3.96648E-06-4.06721E-06 0.00000E+00
 -1       924 4.02455E-06-4.11946E-06-2.06795E-25
 -1       925 4.08300E-06-3.81310E-06 8.27181E-25
 -1       926 3.88248E-06-2.14371E-06 6.61744E-24
 -1       927 3.62450E-06-1.26354E-06 0.00000E+00
 -1       928 3.36698E-06-4.71978E-07 6.61744E-24
 -1       929 3.10839E-06 1.95252E-07 3.30872E-24
 -1       930 2.84985E-06 7.18473E-07 0.00000E+00
 -1       931 2.59115E-06 1.07953E-06 0.00000E+00
 -1       932 2.33245E-06 1.28127E-06-6.61744E-24
 -1       933 2.07373E-06 1.32819E-06 0.00000E+00
 -1       934 1.81499E-06 1.24483E-06 0.00000E+00
 -1       935 1.55620E-06 1.05711E-06-3.30872E-24
 -1       936 1.29739E-06 8.04447E-07 0.00000E+00
 -1       937 1.03850E-06 5.26948E-07 0.00000E+00
 -1       938 7.79598E-07 2.67923E-07 0.00000E+00
 -1       939 5.20318E-07 7.04950E-08 0.00000E+00
 -1       940 2.61183E-07-3.01872E-08 0.00000E+00
 -1       941 1.04100E-06 1.14208E-07 0.00000E+00
 -1       942 2.13924E-06 2.61219E-07-1.32349E-23
 -1       943 3.23391E-06 4.29249E-07 0.00000E+00
 -1       944 4.33941E-06 6.07509E-07 0.00000E+00
 -1       945 5.44525E-06 7.92430E-07 2.64698E-23
 -1       946 6.55324E-06 9.80760E-07 1.32349E-23
 -1       947 7.66150E-06 1.17165E-06 0.00000E+00
 -1       948 8.77012E-06 1.36439E-06 0.00000E+00
 -1       949 9.87877E-06 1.55957E-06 2.64698E-23
 -1       950 1.09872E-05 1.75787E-06-1.32349E-23
 -1       951 1.20953E-05 1.96224E-06 0.00000E+00
 -1       952 1.32018E-05 2.17588E-06 0.00000E+00
 -1       953 1.43079E-05 2.40857E-06 0.00000E+00
 -1       954 1.54053E-05 2.67099E-06-1.32349E-23
 -1       955 1.65056E-05 2.99482E-06 0.00000E+00
 -1       956 1.75013E-05 3.94287E-06-1.03398E-24
 -1       957 1.74423E-05 4.54032E-06-1.55096E-25
 -1       958 1.73830E-05 5.20044E-06 4.13590E-25
 -1       959 1.73236E-05 5.91620E-06-2.06795E-25
 -1       960 1.72642E-05 6.68056E-06-8.27181E-25
 -1       961 1.72047E-05 7.48643E-06 4.13590E-25
 -1       962 1.71452E-05 8.32670E-06-1.65436E-24
 -1       963 1.70856E-05 9.19426E-06 8.27181E-25
 -1       964 1.70260E-05 1.00820E-05 0.00000E+00
 -1       965 1.69664E-05 1.09828E-05 8.27181E-25
 -1       966 1.69069E-05 1.18896E-05-1.65436E-24
 -1       967 1.68473E-05 1.27952E-05-8.27181E-25
 -1       968 1.67878E-05 1.36926E-05 0.00000E+00
 -1       969 1.67283E-05 1.45746E-05-8.27181E-25
 -1       970 1.66691E-05 1.54343E-05 0.00000E+00
 -1       971 1.64839E-05 1.71596E-05-3.30872E-24
 -1       972 1.63534E-05 1.82379E-05 0.00000E+00
 -1       973 1.62227E-05 1.94771E-05 0.00000E+00
 -1       974 1.60914E-05 2.08543E-05 0.00000E+00
 -1       975 1.59598E-05 2.23463E-05 0.00000E+00
 -1       976 1.58279E-05 2.39301E-05 1.65436E-24
 -1       977 1.56960E-05 2.55824E-05 3.30872E-24
 -1       978 1.55639E-05 2.72797E-05 1.65436E-24
 -1       979 1.54318E-05 2.89988E-05 3.30872E-24
 -1       980 1.52997E-05 3.07160E-05 0.00000E+00
 -1       981 1.51677E-05 3.24080E-05 0.00000E+00
 -1       982 1.50360E-05 3.40513E-05-1.65436E-24
 -1       983 1.49044E-05 3.56227E-05-3.30872E-24
 -1       984 1.47737E-05 3.70988E-05 0.00000E+00
 -1       985 1.46431E-05 3.84564E-05 0.00000E+00
 -3
    1PSTEP                        14           7           1          
  100CL  107 4.70215E-01         841                     0    7           1
 -4  STRESS      6    1
 -5  SXX         1    4    1    1
 -5  SYY         1    4    2    2
 -5  SZZ         1    4    3    3
 -5  SXY         1    4    1    2
 -5  SYZ         1    4    2    3
 -5  SZX         1    4    3    1
 -1         1-1.88690E+06-6.03762E+05-3.84305E+05-5.46367E+05-3.88051E-11-7.90654E-10
 -1         2-1.17475E+06-6.11444E+04 3.28836E+03-1.19416E+05 9.53264E-10-3.40333E-09
 -1         3-6.41807E+05-2.29443E+05-1.29272E+04-5.45014E+04-8.32131E-10-2.48565E-09
 -1         4-3.13297E+05-6.27132E+04 4.68219E+02-3.19386E+04 9.85381E-11-9.82254E-11
 -1         5-1.52545E+05 1.08947E+05-8.21957E+04-6.22253E+03 3.33966E-09 3.20995E-09
 -1         8-1.02026E+06-4.03499E+05-1.54041E+05-3.84097E+05-1.70985E-10 8.94943E-10
 -1         9-1.10736E+06-2.47997E+05-1.41510E+05-2.56289E+05 8.48862E-12-9.58001E-10
 -1        10-5.44422E+05-3.15010E+05-1.25425E+04-1.29701E+05-2.06493E-10 3.24083E-10
 -1        11-3.19814E+05-9.73642E+04 3.74873E+02-7.40389E+04 1.28910E-09-1.86068E-09
 -1        12-1.95956E+05 8.84632E+04-9.36124E+04-3.38954E+04 4.14764E-09-7.14440E-10
 -1        15 9.14948E+03-2.43392E+04 3.75212E+03-6.71085E+04 4.61114E-10-1.10958E-09
 -1        16-6.30155E+05-1.25907E+05 3.36427E+03-2.86153E+05 7.41238E-10 9.96806E-10
 -1        17-3.85936E+05-2.65217E+05-4.50903E+04-2.10152E+05-8.99793E-10 3.78350E-10
 -1        18-1.77969E+05-9.72870E+04-6.85798E+04-1.12723E+05-5.42968E-10-3.17717E-10
 -1        19-3.84249E+04 5.42825E+04-3.89069E+04-3.55082E+04 4.38831E-10 9.85892E-10
 -1        20 7.02945E+04-5.08368E+04-8.10710E+03 3.70037E+04 6.53313E-09 1.01591E-09
 -1        21-9.68211E+02-1.05160E+05 2.35058E+04 5.44200E+02 1.25808E-08 2.85662E-09
 -1        22 2.06064E+04 1.12830E+05 7.05345E+02-2.01528E+04 1.40972E-11-3.65617E-10
 -1        23-1.93875E+05-3.48892E+03 3.81524E+03-1.19723E+05-1.34681E-09 9.82254E-11
 -1        24-1.32039E+05 1.41187E+04 1.51434E+05-2.76851E+05-2.90189E-09-5.38421E-10
 -1        25 3.45771E+05 1.26441E+05 1.11105E+05-1.80113E+05 8.92063E-10 7.33659E-10
 -1        26 2.62612E+03 1.22833E+05 6.93688E+03-2.46705E+04-2.91645E-10 1.02045E-09
 -1        27-2.99275E+04-4.42489E+04-1.91728E+04 4.82897E+04 5.86654E-09-8.28853E-10
 -1        28-9.26681E+03-8.08902E+04-5.02712E+02 3.86254E+04 6.02699E-09-1.35708E-09
 -1        29 2.75066E+05 1.88020E+05 7.75693E+02-6.33872E+03 1.73702E-10 1.36015E-09
 -1        30 9.17327E+04 2.71545E+04 1.13172E+03-3.45310E+04 7.66317E-10 1.65892E-09
 -1        31-3.24709E+05 2.79311E+04 2.68487E+03-6.46986E+04-1.69594E-09 2.57569E-09
 -1        32 4.44139E+05 2.71999E+05 3.19428E+05-2.69801E+05 3.26644E-09 2.40107E-09
 -1        33 7.67998E+05 3.50429E+05 2.46135E+05-3.52562E+04-7.02766E-09-1.04319E-09
 -1        34-1.42847E+05-2.21782E+04-8.54829E+03 2.31022E+04-9.02787E-10-1.84855E-09
 -1        35-2.18837E+04-2.66329E+04-5.01737E+02 5.68746E+04 7.70305E-09 2.30163E-09
 -1        36-2.55368E+06 7.61591E+04-1.78193E+05-4.01656E-09-5.30593E-10 2.42289E-09
 -1        37-2.63047E+06-8.82282E+04-1.25767E+05 1.33110E-07-2.38491E-10 2.12458E-09
 -1        38-2.58337E+06 1.17964E+04-4.61156E+04 1.06764E-07-6.93113E-10 4.55475E-09
 -1        39-2.59580E+06-1.36593E+04-2.88758E+04-2.82986E-08-6.95480E-10-3.74257E-10
 -1        40-2.58821E+06 1.82331E+03-1.18415E+04-9.77663E-08-4.58888E-10-1.05410E-09
 -1        41-2.59014E+06-2.13503E+03-7.03419E+03 1.55063E-07-1.08331E-09 1.77420E-09
 -1        42-2.58900E+06 3.06572E+02-3.44114E+03 2.72285E-08-4.95953E-10-5.30406E-09
 -1        43-2.58929E+06-5.34626E+02-2.69805E+03-6.51724E-08-2.51075E-09 2.06832E-10
 -1        44-2.58904E+06 2.27162E+02-2.69808E+03-1.55977E-07-6.62298E-11-2.62207E-09
 -1        45-2.58976E+06-1.44498E+03-4.89105E+03-1.73931E-07-1.75109E-10 6.01574E-10
 -1        46-2.58853E+06 1.21438E+03-7.96699E+03-1.19330E-07 4.54285E-10 2.17642E-09
 -1        47-2.59351E+06-9.07521E+03-1.92303E+04 2.04593E-08-8.40388E-10-5.99584E-10
 -1        48-2.58533E+06 7.83445E+03-3.06530E+04 1.17625E-07-7.70133E-10 4.47835E-09
 -1        49-2.61652E+06-5.85940E+04-8.35369E+04 1.12213E-07-2.43423E-09 6.25096E-09
 -1        50-2.56561E+06 5.05750E+04-1.18376E+05 1.44228E-08-2.91970E-09-2.27737E-09
 -1        51 2.19805E+04-2.46786E+05 3.58379E+04-6.71779E+05-2.91038E-11-4.58385E-10
 -1        52 9.51668E+03-2.43085E+05 2.14560E+04-7.42369E+05-1.67347E-10-2.83399E-09
 -1        53 5.70773E+03-2.49498E+05 1.68077E+04-6.69991E+05-9.09495E-11 1.60071E-10
 -1        54 1.33935E+04-2.46607E+05 2.49721E+04-7.44293E+05-7.27596E-12-2.31375E-09
 -1        55 3.14890E+04-2.54472E+05 4.48127E+04-6.69691E+05 7.27596E-11 2.98314E-09
 -1        56-2.86473E+06-3.24107E+05-2.33263E+05-1.10760E+06 3.96540E-10-3.33239E-09
 -1        57-2.97088E+06-5.17581E+05-1.56502E+05-1.08421E+06 1.70985E-10-5.23141E-09
 -1        58-2.91005E+06-3.97736E+05-5.49274E+04-1.09485E+06-9.79526E-10-2.29193E-10
 -1        59-2.91868E+06-4.30725E+05-3.25657E+04-1.09937E+06 4.09045E-10 1.17871E-09
 -1        60-2.91633E+06-4.08040E+05-1.28403E+04-1.09344E+06 3.11275E-10-2.88446E-09
 -1        61-2.91187E+06-4.18186E+05-7.26919E+03-1.10050E+06-9.54969E-12-4.41048E-09
 -1        62-2.91675E+06-4.09911E+05-3.55257E+03-1.09383E+06-1.02841E-09-1.35532E-09
 -1        63-2.91217E+06-4.15513E+05-2.98520E+03-1.09925E+06 1.46201E-10 1.56587E-09
 -1        64-2.91600E+06-4.10680E+05-3.49568E+03-1.09470E+06-9.08472E-10-2.34081E-10
 -1        65-2.91476E+06-4.15185E+05-7.09316E+03-1.09711E+06-9.21546E-10 1.18234E-09
 -1        66-2.91417E+06-4.10281E+05-1.25159E+04-1.09595E+06-4.69640E-10 3.36831E-09
 -1        67-2.92393E+06-4.24851E+05-3.17116E+04-1.09310E+06-1.50078E-09 2.91766E-09
 -1        68-2.90693E+06-4.01375E+05-5.34953E+04-1.09860E+06 8.24002E-10 1.06229E-09
 -1        69-2.97660E+06-5.07604E+05-1.52398E+05-1.07625E+06 7.20320E-10 6.12999E-10
 -1        70-2.86210E+06-3.30369E+05-2.27160E+05-1.11181E+06-1.03319E-09 1.16415E-10
 -1        71-1.27056E+06 6.67489E+02-1.56582E+03-2.86736E-08-1.92440E-10-1.51203E-10
 -1        72-1.27112E+06-7.73603E+02-1.10813E+03-1.41754E-07-4.56029E-10 2.76350E-09
 -1        73-1.27082E+06 1.03602E+02-4.14971E+02-6.84579E-08-2.32407E-10 2.54408E-09
 -1        74-1.27082E+06-1.21340E+02-2.75008E+02 4.30663E-08 2.20768E-10 2.28246E-09
 -1        75-1.27086E+06 1.73882E+01-1.45493E+02 3.36900E-08 7.50371E-11-2.94501E-09
 -1        76-1.27078E+06-2.95951E+01-1.50315E+02-9.12328E-08-1.48044E-09 4.82681E-09
 -1        77-1.27087E+06 1.21576E+01-1.96659E+02 9.46571E-09 1.98143E-10 8.57369E-10
 -1        78-1.27081E+06-7.68491E+01-3.88860E+02-9.95334E-08 1.81448E-10 3.26505E-09
 -1        79-1.27083E+06 6.45630E+01-6.88201E+02 3.51309E-08-4.03569E-10 4.03531E-10
 -1        80-1.27103E+06-4.85003E+02-1.56728E+03-5.65531E-08 5.55292E-10 1.21167E-09
 -1        81-1.27065E+06 4.19244E+02-2.70727E+03-8.56550E-08-5.22528E-10-9.83960E-10
 -1        82-1.27234E+06-3.14645E+03-6.64826E+03-1.65452E-08 1.95570E-10-4.66264E-09
 -1        83-1.26953E+06 2.71797E+03-1.06336E+04-1.03468E-07-1.02193E-09-5.76165E-10
 -1        84-1.28032E+06-2.03294E+04-2.89941E+04 4.45924E-08-3.70683E-10 7.67614E-10
 -1        85-1.26268E+06 1.75461E+04-4.11011E+04 7.62634E-09-1.08645E-09 1.66074E-09
 -1        86-5.83717E+04 2.46128E+05 1.39129E+05 1.47934E+03 8.94943E-10 7.98650E-10
 -1        87 7.28942E+04 3.08106E+05 1.07574E+05-6.79243E+03 1.51249E-09-2.57101E-09
 -1        88-1.42798E+04 2.66477E+05 5.52412E+04 9.96202E+02 1.69166E-09 2.28380E-09
 -1        89 5.04498E+04 2.97537E+05 7.80829E+04-6.09476E+03 2.53340E-09 3.57396E-10
 -1        90-3.59971E+04 2.56672E+05 8.82803E+04 7.81896E+02 2.06273E-09 1.81704E-09
 -1        91-1.25709E+06-1.60022E+05-1.66813E+04-4.54331E+05-1.07459E-08-1.53887E-09
 -1        92-1.17850E+06-2.16432E+05-4.83228E+03-5.03352E+05-8.48041E-09 1.44121E-09
 -1        93-1.26338E+06-1.44297E+05-3.51026E+03-4.29794E+05 7.68068E-09 2.05068E-09
 -1        94-1.17296E+06-2.30988E+05-1.12144E+03-5.29152E+05 9.20863E-12 1.68109E-09
 -1        95-1.26372E+06-1.44617E+05-1.12815E+03-4.29350E+05-3.33716E-09-1.40687E-10
 -1        96-1.17540E+06-2.12263E+05 3.12584E+03-5.05426E+05 1.17944E-08 2.19060E-09
 -1        97-1.25987E+06-1.63826E+05-3.75937E+03-4.52735E+05-8.50378E-10 5.70674E-09
 -1        98-1.20150E+06-1.69789E+05 6.25534E+03-4.53426E+05-1.14694E-08 3.38582E-09
 -1        99-1.23651E+06-1.87928E+05-4.29359E+03-4.80483E+05-3.25599E-10-1.84968E-09
 -1       100-1.25629E+06-1.30467E+05 2.29550E+03-4.10832E+05-1.58307E-08 3.10280E-09
 -1       101-1.20609E+06-2.02377E+05-3.33210E+03-4.96091E+05 1.67006E-10-2.38651E-09
 -1       102-1.29148E+06-1.17084E+05-6.67708E+03-3.94847E+05 1.14655E-08 7.31973E-09
 -1       103-1.20247E+06-2.00465E+05-1.23173E+04-4.97367E+05-1.60044E-08 4.99767E-10
 -1       104-1.27537E+06-1.50701E+05-3.16257E+04-4.03509E+05-1.65974E-08 7.99992E-09
 -1       105-1.22128E+06-1.69536E+05-5.47516E+04-4.86657E+05-1.33095E-08 2.87764E-09
 -1       106-6.65974E+05-5.41501E+03 1.26892E+04 3.15426E-08-1.90752E-10-2.56387E-09
 -1       107-6.60435E+05 6.27423E+03 8.94775E+03-1.50049E-07 3.18331E-10-1.88845E-09
 -1       108-6.63859E+05-8.38712E+02 3.27730E+03-2.61234E-09-1.29453E-10 3.92674E-10
 -1       109-6.62899E+05 9.70081E+02 2.03917E+03-7.80694E-08-1.90472E-10 3.73035E-10
 -1       110-6.63513E+05-1.28494E+02 8.09614E+02 7.71456E-08 2.45923E-10-9.72534E-10
 -1       111-6.63307E+05 1.42711E+02 4.27253E+02 1.01404E-07 1.18940E-10-3.25445E-09
 -1       112-6.63452E+05-1.38498E+01 1.05706E+02 1.03358E-07-1.44275E-10 1.01622E-10
 -1       113-6.63398E+05-2.25896E+01-1.14444E+02-7.75054E-08 2.41615E-10 7.10656E-10
 -1       114-6.63422E+05 3.64020E+01-3.66125E+02 2.71162E-08-2.84307E-10-8.63537E-10
 -1       115-6.63545E+05-2.93973E+02-9.32591E+02 1.43611E-08-2.09738E-10-3.49698E-09
 -1       116-6.63305E+05 2.56838E+02-1.64889E+03-3.13761E-08-1.19488E-10-1.35094E-09
 -1       117-6.64350E+05-1.93063E+03-4.07532E+03 4.65273E-08 4.13839E-10 9.20295E-10
 -1       118-6.62618E+05 1.66809E+03-6.52656E+03-8.18524E-10-1.59605E-10 1.22782E-11
 -1       119-6.69250E+05-1.24772E+04-1.77981E+04 8.12551E-08-1.40324E-10-2.05091E-09
 -1       120-6.58412E+05 1.07688E+04-2.52315E+04 1.70789E-08-1.66068E-10-2.12094E-09
 -1       121-9.72014E+02-7.64591E+05 4.06473E+03 6.33881E+03-3.41515E-10-7.36236E-10
 -1       122 1.35856E+03-7.62973E+05 2.93819E+03 2.76929E+04-1.63027E-10-1.45337E-09
 -1       123-1.99304E+02-7.64041E+05 1.76909E+03 6.45920E+03-1.19377E-09 1.68257E-09
 -1       124 1.07759E+03-7.63046E+05 2.49838E+03 2.73322E+04-7.18615E-10-3.44176E-09
 -1       125-8.02558E+02-7.64421E+05 3.21429E+03 6.69961E+03-2.77169E-09 2.92994E-09
 -1       126-6.40183E+05-9.23663E+04 6.59047E+03-2.38660E+05 5.19549E-11-4.10000E-09
 -1       127-6.35733E+05-8.72782E+04 4.56351E+03-2.40816E+05 9.75888E-10-4.33255E-09
 -1       128-6.38989E+05-8.98659E+04 1.54096E+03-2.38930E+05 2.90726E-10 6.10612E-10
 -1       129-6.37124E+05-9.01752E+04 9.52328E+02-2.40506E+05-9.87797E-11-2.32806E-09
 -1       130-6.38795E+05-8.94765E+04 3.40902E+02-2.38969E+05-2.18343E-10 2.09653E-10
 -1       131-6.37464E+05-9.05175E+04 1.67801E+02-2.40329E+05 2.99204E-10 2.61441E-09
 -1       132-6.38648E+05-8.95249E+04 7.80474E+00-2.39106E+05 7.94820E-10 2.29317E-09
 -1       133-6.37849E+05-9.02998E+04-1.29850E+02-2.39941E+05-9.12635E-10-1.10857E-09
 -1       134-6.38410E+05-8.96948E+04-3.05526E+02-2.39357E+05 7.97815E-11-1.53236E-09
 -1       135-6.38471E+05-9.01097E+04-7.97892E+02-2.39370E+05-1.15458E-09-1.04802E-09
 -1       136-6.38027E+05-8.97158E+04-1.40359E+03-2.39676E+05 4.03176E-10-8.35996E-10
 -1       137-6.39907E+05-9.13293E+04-3.77308E+03-2.38562E+05-9.52767E-10 9.79014E-10
 -1       138-6.36976E+05-8.84794E+04-6.07381E+03-2.40165E+05 3.00474E-10-2.23713E-09
 -1       139-6.46338E+05-1.01734E+05-1.79430E+04-2.36216E+05 1.02648E-09-4.27463E-10
 -1       140-6.31606E+05-7.93396E+04-2.59153E+04-2.42014E+05 3.09683E-10 1.12050E-09
 -1       141-2.88542E+05-3.45442E+03 8.09365E+03-2.95566E-08 1.87866E-14-7.63976E-10
 -1       142-2.85021E+05 4.00229E+03 5.70377E+03 4.55752E-08 4.96330E-10 9.30640E-10
 -1       143-2.87192E+05-5.34839E+02 2.08073E+03-1.17548E-07 5.78623E-11 1.72599E-09
 -1       144-2.86594E+05 6.17185E+02 1.27875E+03-2.85823E-08-3.71925E-10-6.57508E-10
 -1       145-2.86970E+05-8.05061E+01 4.73362E+02-1.38304E-08-6.54640E-11 1.59645E-10
 -1       146-2.86861E+05 7.96965E+01 1.80143E+02 4.11675E-08-1.47542E-10-1.99947E-09
 -1       147-2.86925E+05 1.04019E+00-1.06490E+02-3.45605E-08-3.93900E-11 2.06518E-09
 -1       148-2.86958E+05-8.96650E+01-4.54597E+02-7.10510E-08-7.70895E-11 4.51550E-10
 -1       149-2.86873E+05 8.84747E+01-9.27982E+02 6.34199E-08-1.91210E-11 7.38737E-10
 -1       150-2.87275E+05-6.80099E+02-2.18711E+03 2.40390E-08 1.71240E-11-8.14765E-10
 -1       151-2.86609E+05 5.89948E+02-3.80641E+03-1.13368E-08-2.16766E-11 6.27551E-10
 -1       152-2.89118E+05-4.42977E+03-9.36351E+03-9.12520E-09-4.74229E-12 1.28477E-09
 -1       153-2.85032E+05 3.82681E+03-1.49820E+04-4.12056E-08 8.60026E-10 6.27551E-11
 -1       154-3.00355E+05-2.86233E+04-4.08379E+04-3.69804E-08 3.79281E-10-9.95897E-10
 -1       155-2.75374E+05 2.47046E+04-5.78818E+04-4.25088E-08 2.03320E-09 2.37196E-09
 -1       156-8.70194E+03-1.57393E+05 2.10674E+04-7.20701E+02-1.45519E-11-1.84404E-10
 -1       157 1.16004E+04-1.47795E+05 1.76049E+04 3.15987E+03 1.03455E-11 1.05332E-09
 -1       158-2.86114E+03-1.54732E+05 1.10671E+04-6.94629E+02 3.52429E-11 2.63533E-10
 -1       159 1.31129E+04-1.47068E+05 1.95941E+04 3.03564E+03 3.24007E-10-6.17401E-10
 -1       160-1.02110E+04-1.58117E+05 2.44867E+04-5.96456E+02 3.30147E-10 1.98739E-09
 -1       161-3.52712E+05-4.87257E+04-2.04765E+03-1.32506E+05-3.77781E-10 1.67711E-09
 -1       162-3.53387E+05-5.09499E+04-1.42090E+03-1.32565E+05-9.32666E-10 6.19153E-10
 -1       163-3.53143E+05-4.94382E+04-4.88926E+02-1.32350E+05 1.92138E-10 1.74617E-09
 -1       164-3.52898E+05-5.01150E+04-3.19334E+02-1.32732E+05-6.44363E-10 9.42642E-11
 -1       165-3.53200E+05-4.95583E+04-1.52654E+02-1.32340E+05 4.45262E-11-1.39284E-09
 -1       166-3.52869E+05-4.99606E+04-1.59608E+02-1.32710E+05 2.20920E-10 1.26759E-09
 -1       167-3.53172E+05-4.95923E+04-2.08063E+02-1.32373E+05-1.48756E-10 5.92458E-10
 -1       168-3.52996E+05-4.99641E+04-4.49072E+02-1.32613E+05 5.26012E-10-3.17918E-10
 -1       169-3.53073E+05-4.95550E+04-8.04269E+02-1.32437E+05-3.64935E-11 1.15875E-10
 -1       170-3.53489E+05-5.04979E+04-2.00335E+03-1.32392E+05-8.94147E-11-5.25176E-10
 -1       171-3.52679E+05-4.90601E+04-3.47555E+03-1.32593E+05-5.49448E-10-2.75850E-09
 -1       172-3.56028E+05-5.44979E+04-9.32683E+03-1.31534E+05-1.59162E-12-9.19158E-10
 -1       173-3.50538E+05-4.55654E+04-1.49996E+04-1.33292E+05 8.90850E-10-2.99224E-09
 -1       174-3.71238E+05-8.08315E+04-4.43019E+04-1.26479E+05 3.86603E-09-1.84855E-09
 -1       175-3.37482E+05-2.27964E+04-6.39713E+04-1.37622E+05 7.48423E-09-5.45333E-09
 -1       191 1.32333E+03 3.86812E+05 2.18273E+03-1.17124E+04-6.91216E-11 1.98088E-09
 -1       192 4.76532E+02 3.87138E+05 1.30748E+03-1.26219E+04-6.51767E-10-5.47061E-10
 -1       193 2.14939E+02 3.86916E+05 1.05113E+03-1.15341E+04-4.91127E-11-4.31100E-10
 -1       194 6.31464E+02 3.87178E+05 1.58928E+03-1.29519E+04-1.29558E-09 1.41745E-09
 -1       195 1.80332E+03 3.86739E+05 2.88318E+03-1.13808E+04 3.09228E-11-1.58434E-09
 -1       251-1.55927E+06 3.46102E+04-8.16447E+04-1.19004E+04 1.76442E-10-5.29690E-09
 -1       252-1.59295E+06-4.00116E+04-5.73075E+04 2.77536E+04 7.72900E-10-3.10138E-10
 -1       253-1.57193E+06 5.34475E+03-2.10716E+04-1.63106E+04-1.43132E-09 3.88354E-10
 -1       254-1.57710E+06-6.03409E+03-1.30621E+04 2.74385E+04-1.10029E-09-3.48564E-10
 -1       255-1.57507E+06 7.46150E+02-5.62606E+03-1.15852E+04 1.54057E-09-3.34239E-10
 -1       256-1.57245E+06-8.47595E+02-2.74725E+03 1.15291E+04 2.43006E-09 2.11412E-09
 -1       257-1.57637E+06 1.56792E+00-2.07653E+03-4.00634E+02 3.41333E-09 1.73702E-09
 -1       258-1.57202E+06-1.70739E+02-9.46982E+02-1.09769E+04 1.54859E-09-1.63964E-09
 -1       259-1.57549E+06 5.75698E+01-1.89162E+03 1.09200E+04-2.21019E-09-3.64139E-09
 -1       260-1.57445E+06-8.11700E+02-3.13618E+03-2.73575E+04 2.78845E-10-2.19075E-10
 -1       261-1.57414E+06 8.12928E+02-5.45709E+03 1.59805E+04 4.13615E-09 3.56727E-09
 -1       262-1.57723E+06-6.08099E+03-1.31672E+04-2.83618E+04-2.76258E-09-3.23348E-09
 -1       263-1.57274E+06 5.33401E+03-2.13855E+04 1.19240E+04 5.80712E-10 2.99497E-09
 -1       264-1.59106E+06-4.03204E+04-5.73025E+04-1.33441E+04 3.51770E-09 1.70257E-09
 -1       265-1.56016E+06 3.47705E+04-8.23778E+04 9.62274E+02-7.00311E-10-2.18279E-11
 -1       266-1.57225E+04-2.42426E+05 3.62441E+04-2.74634E+02 3.63798E-12 2.37264E-10
 -1       267 1.70374E+04-2.26455E+05 2.35299E+04 3.99639E+03 5.45697E-12-8.72120E-11
 -1       268-1.29701E+03-2.35796E+05 4.90478E+03 4.08424E+02-1.81899E-11-9.94078E-10
 -1       269-5.96835E+03-2.37041E+05-6.67054E+03 2.52565E+03 4.00178E-11 2.27772E-09
 -1       270 7.19807E+03-2.31835E+05-1.59347E+04 1.19572E+03 5.54792E-11 4.26803E-09
 -1       271-2.52962E+06-3.16118E+05-1.97476E+05-9.79822E+05-2.25555E-10-3.61615E-09
 -1       272-2.59688E+06-4.53156E+05-1.25468E+05-9.82683E+05 7.80346E-10 1.06229E-09
 -1       273-2.56518E+06-3.62230E+05-4.66015E+04-9.73062E+05-6.34259E-10-1.90630E-09
 -1       274-2.55549E+06-3.94712E+05-2.57849E+04-9.93754E+05 1.14960E-09 6.00267E-11
 -1       275-2.56996E+06-3.66679E+05-1.08514E+04-9.71759E+05 8.05358E-10-1.69121E-09
 -1       276-2.54979E+06-3.89304E+05-5.78340E+03-9.95909E+05-1.82808E-10-3.83125E-09
 -1       277-2.57088E+06-3.66821E+05-2.96879E+03-9.71266E+05-1.56069E-09-5.87988E-10
 -1       278-2.54883E+06-3.89160E+05-2.37127E+03-9.96570E+05-4.81464E-10 5.07595E-09
 -1       279-2.57098E+06-3.66728E+05-2.86762E+03-9.71164E+05-9.26477E-11-1.11436E-09
 -1       280-2.54944E+06-3.89613E+05-5.51267E+03-9.96347E+05 8.29800E-10-1.23691E-09
 -1       281-2.57026E+06-3.66430E+05-1.02905E+04-9.71458E+05 8.03993E-10 1.18871E-09
 -1       282-2.55459E+06-3.95010E+05-2.44536E+04-9.94639E+05 1.04592E-09-2.25555E-10
 -1       283-2.56586E+06-3.62085E+05-4.41673E+04-9.72555E+05 6.14364E-10-7.13044E-10
 -1       284-2.59361E+06-4.50644E+05-1.18941E+05-9.84417E+05-1.67711E-09 8.02174E-10
 -1       285-2.53225E+06-3.18265E+05-1.87189E+05-9.78844E+05 9.78616E-10 1.80444E-09
 -1       286-4.68934E+05-6.94262E+03 1.62217E+04-6.01491E+02 1.67947E-09 3.43243E-09
 -1       287-4.61585E+05 8.03802E+03 1.14987E+04-1.15507E+03 4.66173E-10 1.81626E-09
 -1       288-4.66214E+05-1.07896E+03 4.19237E+03 2.74185E+02 8.09166E-11-2.15095E-10
 -1       289-4.64793E+05 1.24593E+03 2.67005E+03-2.77525E+03-3.25755E-10 1.48600E-09
 -1       290-4.65734E+05-1.69137E+02 1.09039E+03 1.01872E+03 7.02357E-10 2.13197E-09
 -1       291-4.65389E+05 2.03017E+02 6.94554E+02-3.99561E+03 1.10303E-09-2.43546E-10
 -1       292-4.65627E+05-3.33677E+01 3.89852E+02 1.49456E+03 9.51232E-10 3.56864E-09
 -1       293-4.65502E+05 8.77246E+01 4.17500E+02-4.59330E+03-7.05711E-11 5.06617E-09
 -1       294-4.65626E+05-5.03981E+01 5.55530E+02 1.61643E+03 1.12049E-09-3.77597E-10
 -1       295-4.65348E+05 3.55682E+02 1.15765E+03-4.46113E+03 1.03193E-09 3.59013E-09
 -1       296-4.65780E+05-3.01492E+02 1.94667E+03 1.36239E+03 6.58446E-10 3.10934E-10
 -1       297-4.64345E+05 2.25104E+03 4.77583E+03-3.62329E+03 3.96398E-10-8.45830E-11
 -1       298-4.66620E+05-1.94492E+03 7.58954E+03 7.78576E+02 2.87059E-11 1.27011E-09
 -1       299-4.58564E+05 1.45247E+04 2.07465E+04-2.23745E+03 6.27409E-11 2.34945E-09
 -1       300-4.71546E+05-1.25398E+04 2.93447E+04-2.35050E+01 5.24437E-10 6.71207E-10
 -1       301 3.47874E+04 2.60487E+04 7.44035E+04-2.07728E+04-2.26646E-09 9.96465E-11
 -1       302 1.17207E+04 3.98288E+04 4.46797E+04-2.42964E+04-2.56705E-10-7.14255E-10
 -1       303 3.29987E+03 3.10060E+04 3.45119E+04-2.08100E+04-2.08865E-09-1.71121E-09
 -1       304 1.36809E+04 4.09490E+04 4.98076E+04-2.42748E+04 1.77351E-11-2.80193E-09
 -1       305 4.11685E+04 2.49360E+04 8.68699E+04-2.07835E+04-1.91358E-09 2.48156E-09
 -1       306-1.81461E+06-2.31872E+05-1.25981E+05-7.02856E+05-2.05728E-09-3.49246E-09
 -1       307-1.84815E+06-3.28353E+05-7.99968E+04-7.15209E+05-1.23651E-09 2.93767E-10
 -1       308-1.83739E+06-2.61112E+05-2.97440E+04-6.98445E+05-2.00362E-09-5.78439E-10
 -1       309-1.82172E+06-2.91239E+05-1.64542E+04-7.22480E+05-1.04228E-09-7.05313E-10
 -1       310-1.84049E+06-2.63894E+05-6.94396E+03-6.97582E+05 7.77618E-10 8.67203E-10
 -1       311-1.81811E+06-2.87806E+05-3.72538E+03-7.23907E+05 1.07775E-09 1.70530E-09
 -1       312-1.84106E+06-2.63991E+05-1.96685E+03-6.97287E+05 3.12184E-10 3.03146E-10
 -1       313-1.81759E+06-2.87655E+05-1.67207E+03-7.24257E+05 5.47118E-10 1.48117E-09
 -1       314-1.84106E+06-2.63979E+05-2.15052E+03-6.97281E+05-5.94810E-10-1.10595E-09
 -1       315-1.81817E+06-2.87901E+05-4.23826E+03-7.23929E+05 1.18484E-09-2.62173E-09
 -1       316-1.84044E+06-2.63812E+05-7.97307E+03-6.97567E+05 1.40381E-09 1.55387E-09
 -1       317-1.82222E+06-2.91988E+05-1.89545E+04-7.22450E+05 1.82695E-09 1.46019E-09
 -1       318-1.83696E+06-2.60515E+05-3.42653E+04-6.98468E+05-9.29276E-10-2.29375E-09
 -1       319-1.85251E+06-3.34973E+05-9.21983E+04-7.14336E+05 1.10958E-10-1.06593E-09
 -1       320-1.81082E+06-2.26672E+05-1.45162E+05-7.03406E+05 1.66983E-09 2.33558E-09
 -1       321-3.80675E+05-1.60226E+04 3.75440E+04-2.71135E+02-9.55339E-10 2.65572E-10
 -1       322-3.64348E+05 1.85635E+04 2.64945E+04-7.81912E+02-1.47064E-09 5.91763E-09
 -1       323-3.74413E+05-2.48289E+03 9.71321E+03 9.02756E+01 4.86864E-11-1.56388E-09
 -1       324-3.71651E+05 2.87288E+03 6.08393E+03-1.45537E+03 2.83137E-10 2.42267E-10
 -1       325-3.73382E+05-3.83401E+02 2.47501E+03 4.02377E+02-1.16714E-10 2.38299E-09
 -1       326-3.72867E+05 4.43733E+02 1.44204E+03-1.97637E+03-5.42855E-12 1.16222E-09
 -1       327-3.73202E+05-5.96724E+01 6.39711E+02 6.11281E+02-5.45988E-10-2.19396E-09
 -1       328-3.73078E+05 7.56038E+01 3.80332E+02-2.26056E+03 9.28111E-11 9.41931E-10
 -1       329-3.73171E+05-1.51823E+01 2.23904E+02 6.86573E+02-3.01164E-10-1.11136E-09
 -1       330-3.73092E+05 5.88561E+01 2.38509E+02-2.26650E+03-2.12827E-10-8.67291E-10
 -1       331-3.73188E+05-4.29043E+01 3.06265E+02 6.17227E+02-1.41377E-10 1.32275E-10
 -1       332-3.72954E+05 3.13215E+02 6.81565E+02-1.99331E+03-1.85807E-12-7.59570E-10
 -1       333-3.73308E+05-2.69766E+02 1.05949E+03 4.13372E+02-3.06869E-10 7.42830E-10
 -1       334-3.72144E+05 2.01280E+03 2.88143E+03-1.48083E+03-7.24967E-11 1.12848E-09
 -1       335-3.73996E+05-1.73837E+03 4.06403E+03 1.04738E+02-7.44748E-10 8.33552E-10
 -1       336-5.55135E+02-7.69439E+05 1.02328E+03-7.54798E+03-4.19141E-09-3.17641E-09
 -1       337-8.81485E+01-7.69265E+05-2.62840E+03-3.64019E+04-2.92539E-09-4.00962E-09
 -1       338 7.63897E+02-7.68495E+05-7.33031E+03-7.37425E+03-5.10499E-09-3.73802E-10
 -1       339-9.97016E+03-7.75088E+05-1.97625E+04-3.65880E+04-3.26963E-09 1.07832E-09
 -1       340 7.68600E+03-7.63692E+05-3.11505E+04-7.36421E+03-4.71482E-09 2.84257E-09
 -1       341-1.14844E+06-1.48584E+05-4.44640E+04-4.43802E+05 1.75532E-09-3.05590E-09
 -1       342-1.18365E+06-1.75859E+05-3.06175E+04-4.21279E+05 1.62129E-09 2.63526E-09
 -1       343-1.15466E+06-1.66645E+05-1.04083E+04-4.43386E+05-1.05251E-09-2.91811E-09
 -1       344-1.17496E+06-1.56087E+05-6.46511E+03-4.23065E+05 1.89223E-09-2.90936E-09
 -1       345-1.15713E+06-1.68290E+05-2.52253E+03-4.42043E+05-1.51741E-09-1.51658E-10
 -1       346-1.16819E+06-1.57602E+05-1.37959E+03-4.28368E+05-1.44496E-10 4.12840E-09
 -1       347-1.16138E+06-1.65161E+05-1.03506E+03-4.38045E+05 1.96286E-09 4.09159E-10
 -1       348-1.15976E+06-1.65231E+05-8.42662E+02-4.37365E+05 2.57796E-09-2.58234E-09
 -1       349-1.16553E+06-1.60681E+05-1.69840E+03-4.33026E+05 7.88987E-11 5.90319E-11
 -1       350-1.15395E+06-1.73536E+05-3.59963E+03-4.45586E+05-1.09417E-08-7.73935E-09
 -1       351-1.16724E+06-1.56821E+05-6.37382E+03-4.29860E+05-5.04281E-09-9.87711E-10
 -1       352-1.15635E+06-1.83538E+05-1.70091E+04-4.47224E+05 9.68021E-09-3.56977E-11
 -1       353-1.16318E+06-1.50675E+05-2.74059E+04-4.31410E+05 2.17915E-09-1.86992E-09
 -1       354-1.18697E+06-2.28123E+05-8.07416E+04-4.33873E+05-1.94632E-10-2.92857E-09
 -1       355-1.13663E+06-1.12400E+05-1.16944E+05-4.43144E+05 1.06229E-09-1.72440E-09
 -1       356-3.69321E+05-1.91569E+03 4.48244E+03-1.28240E+02 7.40243E-11-9.47239E-10
 -1       357-3.67327E+05 2.21865E+03 3.16032E+03-4.95860E+02-4.97636E-10 1.00448E-09
 -1       358-3.68571E+05-2.96634E+02 1.14356E+03 6.71343E+01-5.25020E-10 6.30394E-11
 -1       359-3.68205E+05 3.40718E+02 6.93182E+02-8.51326E+02 3.29177E-10-1.63028E-09
 -1       360-3.68444E+05-4.35985E+01 2.27974E+02 2.27235E+02-2.81936E-10 7.08141E-10
 -1       361-3.68365E+05 3.53828E+01 2.88713E+01-1.11318E+03-5.78494E-10-3.07409E-10
 -1       362-3.68412E+05 8.24044E+00-1.94065E+02 3.28990E+02-8.20481E-10 1.44239E-09
 -1       363-3.68452E+05-1.07935E+02-5.47714E+02-1.24365E+03-5.09704E-10 3.76986E-10
 -1       364-3.68357E+05 9.96852E+01-1.05265E+03 3.57709E+02-2.41074E-11-5.90489E-10
 -1       365-3.68801E+05-7.58888E+02-2.44646E+03-1.22412E+03-4.01109E-10-1.47622E-10
 -1       366-3.68064E+05 6.57464E+02-4.24566E+03 3.09456E+02-2.67573E-10-9.93623E-11
 -1       367-3.70849E+05-4.93588E+03-1.04336E+04-1.05676E+03 2.96154E-10-3.00497E-09
 -1       368-3.66310E+05 4.26373E+03-1.66941E+04 1.90352E+02 9.09459E-10 1.15415E-09
 -1       369-3.83363E+05-3.18923E+04-4.54991E+04-7.58697E+02-9.46301E-11 1.62436E-09
 -1       370-3.55552E+05 2.75258E+04-6.44916E+04 1.14140E+01 2.52136E-09 8.29459E-10
 -1       371-9.91458E+03-1.57290E+05 2.25922E+04 3.10808E+03 8.80391E-10 2.78987E-10
 -1       372 1.02365E+04-1.47748E+05 1.36380E+04-1.31132E+04 1.82990E-09-5.16906E-10
 -1       373-2.72110E+02-1.52706E+05 1.05208E+03 3.23968E+03 1.63845E-09-3.30168E-09
 -1       374-7.81973E+03-1.56093E+05-1.00605E+04-1.30484E+04 1.31718E-09-9.60299E-11
 -1       375 8.07863E+03-1.48943E+05-1.83218E+04 3.04327E+03 1.19144E-09 1.70007E-09
 -1       376-6.33598E+05-7.93246E+04-2.60938E+04-2.42488E+05 1.76124E-09-2.97223E-09
 -1       377-6.47423E+05-1.02863E+05-1.80683E+04-2.37783E+05 1.99634E-09 1.70985E-09
 -1       378-6.39121E+05-8.84083E+04-6.12813E+03-2.40491E+05 1.04308E-09-2.46018E-10
 -1       379-6.40852E+05-9.24981E+04-3.82642E+03-2.40270E+05-3.17641E-10-7.39192E-10
 -1       380-6.40160E+05-8.96601E+04-1.46805E+03-2.40010E+05 4.07795E-10 1.48526E-09
 -1       381-6.39575E+05-9.11460E+04-9.32560E+02-2.40917E+05-2.62213E-10-4.91440E-10
 -1       382-6.40396E+05-8.97559E+04-5.50083E+02-2.39845E+05-8.26208E-10-2.59175E-09
 -1       383-6.39389E+05-9.11165E+04-7.13418E+02-2.41068E+05-4.99654E-10-2.20091E-09
 -1       384-6.40346E+05-8.96891E+04-1.05766E+03-2.39860E+05 2.26350E-10-1.32286E-09
 -1       385-6.39973E+05-9.17365E+04-2.50278E+03-2.40799E+05-9.12479E-11-1.84571E-09
 -1       386-6.39813E+05-8.91378E+04-4.29687E+03-2.40113E+05-3.03999E-10 1.32945E-09
 -1       387-6.43279E+05-9.64749E+04-1.14979E+04-2.39528E+05-1.03381E-09-4.95675E-10
 -1       388-6.37046E+05-8.49640E+04-1.84846E+04-2.41127E+05 1.00181E-09-2.68938E-09
 -1       389-6.62320E+05-1.28634E+05-5.45921E+04-2.32961E+05 4.95788E-09 3.63798E-11
 -1       390-6.20795E+05-5.70658E+04-7.88289E+04-2.46653E+05 8.58563E-09-3.07045E-09
 -1       406 1.46644E+03 3.80830E+05 2.88743E+03-4.16367E+04 1.78261E-10 1.10322E-09
 -1       407 7.95770E+02 3.81328E+05 2.95255E+03-4.59288E+04-2.51543E-09 1.83718E-10
 -1       408 1.03324E+03 3.80801E+05 4.40360E+03-4.15009E+04 9.50422E-11 2.49020E-09
 -1       409 4.08892E+03 3.82464E+05 9.16529E+03-4.61056E+04-2.88310E-09-1.43746E-09
 -1       410 1.18338E+04 3.79625E+05 1.83164E+04-4.14502E+04-5.09317E-11 8.51287E-10
 -1       466 1.12831E+06-4.49313E+04 1.04461E+05 1.38140E+04 7.59428E-11-3.41242E-09
 -1       467 1.17885E+06 5.18506E+04 7.46166E+04-2.70585E+04 1.07366E-09 1.78170E-09
 -1       468 1.14758E+06-6.90728E+03 2.71182E+04 5.72790E+03-2.16914E-10-1.26784E-09
 -1       469 1.15614E+06 7.96188E+03 1.71960E+04-1.50613E+04-1.41443E-09-1.09230E-09
 -1       470 1.15085E+06-1.05950E+03 7.08097E+03 1.81683E+03-4.47386E-10-6.57565E-10
 -1       471 1.15228E+06 1.26586E+03 4.40068E+03-9.35385E+03 1.19121E-09-1.02187E-09
 -1       472 1.15140E+06-1.98283E+02 2.45551E+03 2.03259E+01 1.09070E-09-6.26642E-10
 -1       473 1.15175E+06 4.99969E+02 2.51968E+03-6.98990E+03 5.55957E-10-4.21601E-10
 -1       474 1.15136E+06-2.87575E+02 3.27515E+03-5.47150E+02-3.32243E-10 2.39913E-09
 -1       475 1.15256E+06 2.04280E+03 6.73192E+03-6.80809E+03 7.57197E-10-3.01725E-09
 -1       476 1.15059E+06-1.73644E+03 1.13502E+04-1.61477E+02 1.36103E-09-2.71120E-09
 -1       477 1.15805E+06 1.30361E+04 2.76618E+04-8.72297E+03-8.38270E-10-2.70848E-09
 -1       478 1.14586E+06-1.12528E+04 4.41413E+04 1.36779E+03-4.59437E-10 2.92857E-10
 -1       479 1.19153E+06 8.42058E+04 1.20306E+05-1.37633E+04 9.97147E-10-5.37329E-09
 -1       480 1.11711E+06-7.26848E+04 1.70377E+05 4.87836E+03 1.96371E-09-6.83940E-10
 -1       481-9.15858E+03 1.94935E+05 2.07107E+04-7.66535E+03-4.82032E-11-4.22460E-10
 -1       482 1.07821E+04 2.08923E+05 1.61532E+04 2.80424E+04-1.22100E-10 2.84371E-09
 -1       483-1.76166E+03 1.99834E+05 6.83889E+03-6.34197E+03-2.13731E-11 1.71832E-09
 -1       484 4.58665E+03 2.03853E+05 7.69509E+03 2.63090E+04-3.11005E-11 1.54827E-10
 -1       485-2.84219E+03 1.99804E+05 7.33564E+03-5.93103E+03 2.84217E-11-1.06631E-10
 -1       486-1.04820E+06-1.34124E+05-1.03690E+05-4.40718E+05 1.20599E-09-7.35963E-09
 -1       487-1.14972E+06-1.44523E+05-6.65399E+04-3.33509E+05 5.74437E-09 7.90988E-09
 -1       488-1.04378E+06-1.78209E+05-2.34962E+04-4.43090E+05-8.04903E-11 5.92536E-09
 -1       489-1.14121E+06-9.79343E+04-1.35861E+04-3.35814E+05 2.85331E-09 8.82847E-09
 -1       490-1.05723E+06-1.80184E+05-6.77762E+03-4.38897E+05 2.27374E-10 9.63655E-09
 -1       491-1.09317E+06-1.12142E+05 2.27357E+03-3.55249E+05-7.54767E-10 2.00100E-09
 -1       492-1.09021E+06-1.65162E+05-6.10661E+03-4.22402E+05-1.06975E-08 5.87988E-10
 -1       493-1.03851E+06-1.51582E+05 6.89243E+03-3.98510E+05-8.61291E-10 8.03311E-10
 -1       494-1.11094E+06-1.41460E+05-5.35379E+03-3.94942E+05 3.36422E-09-5.17650E-09
 -1       495-1.01830E+06-1.93585E+05 1.43030E+03-4.50102E+05-4.15503E-09-1.82465E-08
 -1       496-1.11181E+06-1.22125E+05-5.20874E+03-3.71889E+05-1.81262E-09-8.90896E-09
 -1       497-1.02157E+06-2.17250E+05-1.16555E+04-4.74161E+05-2.97968E-09-3.33603E-09
 -1       498-1.10895E+06-1.16855E+05-2.03641E+04-3.71811E+05-1.44155E-10 2.28129E-08
 -1       499-1.04087E+06-2.34997E+05-5.47122E+04-4.45622E+05-1.30308E-09 3.87354E-09
 -1       500-1.09141E+06-1.05328E+05-8.92753E+04-3.99570E+05 8.20455E-09-1.25146E-09
 -1       501-3.20289E+05-1.74676E+04 4.08664E+04 1.41486E+02 9.89985E-10-1.83718E-09
 -1       502-3.02158E+05 2.02295E+04 2.89047E+04-3.00502E+03 5.93730E-10-2.97177E-09
 -1       503-3.13417E+05-2.70914E+03 1.05648E+04 8.29317E+02 7.89555E-11-1.08912E-09
 -1       504-3.10226E+05 3.13319E+03 6.65206E+03-4.21618E+03-8.15490E-10-2.18654E-09
 -1       505-3.12242E+05-4.19649E+02 2.69598E+03 1.35272E+03 1.00394E-09-6.26869E-10
 -1       506-3.11638E+05 4.91103E+02 1.58884E+03-5.02001E+03 2.70964E-09-3.05192E-09
 -1       507-3.12016E+05-6.73139E+01 7.21046E+02 1.63316E+03 1.66433E-09 4.32379E-10
 -1       508-3.11892E+05 1.00133E+02 4.66807E+02-5.30269E+03 4.29979E-10-3.81362E-10
 -1       509-3.11992E+05-2.65953E+01 3.38630E+02 1.63541E+03 1.83918E-09-3.61730E-10
 -1       510-3.11832E+05 1.37390E+02 4.86408E+02-5.02868E+03 2.10583E-09-9.98547E-10
 -1       511-3.12072E+05-1.07457E+02 7.03445E+02 1.35914E+03 1.70408E-09 6.95252E-10
 -1       512-3.11403E+05 7.83333E+02 1.69653E+03-4.23132E+03 1.82617E-09 3.51770E-09
 -1       513-3.12410E+05-6.78313E+02 2.61970E+03 8.38032E+02 8.65441E-11 1.07332E-09
 -1       514-3.09300E+05 5.03883E+03 7.23324E+03-3.00971E+03-6.76877E-10-3.43437E-09
 -1       515-3.14162E+05-4.35769E+03 1.01339E+04 1.37514E+02-3.66470E-10-2.30557E-10
 -1       516-3.88498E+04 2.20976E+05 9.14400E+04 1.27533E+04 5.00222E-09 2.62287E-09
 -1       517 4.77808E+04 2.63405E+05 6.95596E+04-6.02904E+04 7.39874E-09 7.78157E-09
 -1       518-8.52305E+03 2.35920E+05 3.31817E+04 1.22292E+04 4.69299E-09 4.29310E-09
 -1       519 2.72503E+04 2.56923E+05 4.30337E+04-6.16394E+04 7.05040E-09 6.04189E-10
 -1       520-1.85882E+04 2.27737E+05 4.39341E+04 1.41012E+04-2.60115E-10-1.07798E-09
 -1       521-2.35792E+06-2.98050E+05-1.69672E+05-9.11651E+05-1.25692E-09-2.37196E-09
 -1       522-2.41039E+06-4.20969E+05-1.07779E+05-9.20126E+05 7.61588E-10-5.63887E-10
 -1       523-2.38854E+06-3.37562E+05-4.00401E+04-9.05768E+05 7.04148E-10-5.25688E-10
 -1       524-2.37480E+06-3.70847E+05-2.21528E+04-9.29760E+05 6.98947E-10 5.64341E-10
 -1       525-2.39266E+06-3.41363E+05-9.32194E+03-9.04637E+05-6.27097E-10-1.97133E-09
 -1       526-2.36996E+06-3.66160E+05-4.96932E+03-9.31580E+05 2.15869E-09-1.46326E-09
 -1       527-2.39340E+06-3.41534E+05-2.54914E+03-9.04270E+05 6.67342E-11-1.94387E-09
 -1       528-2.36928E+06-3.65890E+05-2.03722E+03-9.31972E+05-5.75614E-10-5.94014E-10
 -1       529-2.39338E+06-3.41560E+05-2.46522E+03-9.04293E+05-3.62661E-10 5.68207E-10
 -1       530-2.37001E+06-3.66045E+05-4.73492E+03-9.31480E+05 7.26118E-10-2.64208E-10
 -1       531-2.39262E+06-3.41460E+05-8.84993E+03-9.04705E+05-1.15097E-09-1.51431E-09
 -1       532-2.37472E+06-3.70361E+05-2.10069E+04-9.29598E+05 8.29914E-10 3.13730E-09
 -1       533-2.38864E+06-3.37932E+05-3.79643E+04-9.05856E+05 2.52766E-09 2.63753E-09
 -1       534-2.40861E+06-4.17718E+05-1.02177E+05-9.20272E+05-3.81988E-11 2.88128E-09
 -1       535-2.35951E+06-3.00569E+05-1.60862E+05-9.11534E+05-1.00408E-09 1.81171E-09
 -1       536 8.90047E+04-1.17976E+04 4.78944E+04-5.17664E+03 1.56433E-10-8.54925E-11
 -1       537 1.06680E+05 1.55043E+04 3.08973E+04-2.27227E+04-1.65710E-09 3.50610E-09
 -1       538 9.62756E+04-1.27865E+03 1.24067E+04-5.13223E+03-1.86901E-10-7.82165E-11
 -1       539 9.84499E+04 1.55364E+03 6.97397E+03-2.27478E+04 9.20636E-10-1.13141E-09
 -1       540 9.71109E+04-1.54563E+02 3.13314E+03-5.14787E+03-5.32054E-11 2.29875E-10
 -1       541 9.74241E+04 1.51389E+02 1.66636E+03-2.27161E+04 1.68484E-10 1.19894E-09
 -1       542 9.72138E+04-2.11078E+01 7.93395E+02-5.16400E+03-1.49385E-10-1.10151E-09
 -1       543 9.72552E+04 2.39801E+01 4.28613E+02-2.26915E+04-1.06184E-10-1.18877E-09
 -1       544 9.72259E+04-7.29417E-01 2.40331E+02-5.17249E+03 2.37264E-10 1.29154E-09
 -1       545 9.72262E+04 2.41492E+01 1.94641E+02-2.26821E+04 3.86962E-11 2.18949E-09
 -1       546 9.72224E+04-4.99136E+00 2.27387E+02-5.17347E+03-3.87672E-11 2.10426E-09
 -1       547 9.72866E+04 1.00296E+02 4.21581E+02-2.26847E+04-4.72937E-11-2.75739E-09
 -1       548 9.71784E+04-7.34101E+01 7.15643E+02-5.16983E+03-7.03267E-10 1.62610E-09
 -1       549 9.77841E+04 8.82811E+02 1.76327E+03-2.26593E+04 2.25100E-10-2.46246E-10
 -1       550 9.67710E+04-6.83472E+02 2.71636E+03-5.19888E+03-4.22460E-10-5.22277E-10
 -1       551 1.12626E+04-2.32821E+05 2.31356E+04-3.55280E+05-5.80258E-10-4.05635E-10
 -1       552 5.49404E+03-2.29036E+05 1.75429E+04-4.14104E+05-1.59707E-09 1.22236E-09
 -1       553 3.48995E+03-2.32346E+05 1.95519E+04-3.54692E+05-6.18456E-10-1.48702E-10
 -1       554 1.26414E+04-2.25184E+05 3.60015E+04-4.14213E+05-7.60338E-10 1.69530E-09
 -1       555 3.43899E+04-2.37115E+05 6.80151E+04-3.55116E+05-5.74801E-10-1.49521E-09
 -1       556-1.82397E+05-9.43319E+04 1.40666E+04-1.68983E+05 2.58842E-09-1.94268E-09
 -1       557-1.68877E+05-1.09166E+05 6.90686E+03-1.79744E+05-3.15049E-09-8.00378E-09
 -1       558-1.82793E+05-9.90877E+04 2.89618E+03-1.66163E+05-4.18004E-09-5.81531E-09
 -1       559-1.70201E+05-1.11508E+05 1.42339E+03-1.80288E+05 1.14596E-10-2.20848E-09
 -1       560-1.83008E+05-9.91101E+04 6.27645E+02-1.66157E+05 4.22006E-10-2.86263E-10
 -1       561-1.70514E+05-1.11533E+05 2.96006E+02-1.80518E+05 4.60022E-09 7.52559E-09
 -1       562-1.83170E+05-9.90008E+04 9.77123E+01-1.66263E+05-2.93221E-09 4.35648E-10
 -1       563-1.70676E+05-1.11464E+05-2.17889E+01-1.80635E+05-1.01754E-08-3.78054E-09
 -1       564-1.83256E+05-9.89350E+04-1.66169E+02-1.66326E+05-3.64435E-09-1.71440E-10
 -1       565-1.70765E+05-1.11430E+05-4.12382E+02-1.80688E+05-3.34694E-10 1.68893E-09
 -1       566-1.83253E+05-9.89096E+04-8.78754E+02-1.66339E+05-5.50358E-10-6.41194E-10
 -1       567-1.70919E+05-1.11529E+05-1.94374E+03-1.80665E+05 2.28283E-10 3.20142E-10
 -1       568-1.83088E+05-9.92384E+04-3.99995E+03-1.66168E+05 4.82032E-11-1.27693E-09
 -1       569-1.73058E+05-1.14021E+05-9.43750E+03-1.79995E+05-7.89896E-10 3.56158E-09
 -1       570-1.82262E+05-1.06808E+05-1.93114E+04-1.62967E+05 2.42471E-09 9.18726E-09
 -1       571 2.43905E+05 1.22255E+04 1.89908E+04-6.27614E+04 2.45564E-11-3.30147E-10
 -1       572 2.46830E+05 4.13976E+03 9.33799E+03-6.93220E+04 3.36058E-10 4.54747E-12
 -1       573 2.45083E+05 9.01747E+02 4.15670E+03-6.25828E+04 1.60071E-10-6.30735E-10
 -1       574 2.45420E+05 2.75824E+02 2.08918E+03-6.95161E+04-3.75621E-10 9.36780E-10
 -1       575 2.45203E+05 1.80300E+01 9.89930E+02-6.25607E+04-3.07864E-10 1.34787E-09
 -1       576 2.45235E+05-2.70593E+00 5.07146E+02-6.95409E+04 7.99787E-11 8.95852E-10
 -1       577 2.45220E+05-1.72322E+01 2.55243E+02-6.25579E+04 4.72937E-11 1.63482E-09
 -1       578 2.45217E+05-1.34011E+01 1.48769E+02-6.95440E+04 6.94854E-10 1.49657E-09
 -1       579 2.45241E+05-2.07305E+01 1.08487E+02-6.25577E+04-1.15506E-10 4.62023E-10
 -1       580 2.45250E+05-2.49449E+01 1.29858E+02-6.95408E+04 3.24235E-10 2.62571E-09
 -1       581 2.45278E+05-3.34447E+01 2.07915E+02-6.25610E+04-6.48470E-10-1.47747E-09
 -1       582 2.45338E+05 2.44002E+00 4.17394E+02-6.95042E+04-1.05865E-09 1.44428E-09
 -1       583 2.45310E+05 1.07670E+02 8.15101E+02-6.25944E+04-3.69255E-10-2.27260E-09
 -1       584 2.45686E+05 7.24688E+02 1.82901E+03-6.92141E+04-1.43336E-09-6.54836E-10
 -1       585 2.45145E+05 2.29451E+03 3.71037E+03-6.28536E+04 6.14818E-10 1.19871E-09
 -1       586 2.02453E+03 9.39618E+04 3.60307E+03-1.66523E+05 1.48248E-09-1.61890E-10
 -1       587 1.12725E+03 9.45398E+04 3.39595E+03-1.84476E+05 2.12822E-10-2.39197E-09
 -1       588 1.26784E+03 9.39019E+04 4.77165E+03-1.66314E+05 1.59434E-09 2.63753E-10
 -1       589 4.48681E+03 9.57014E+04 9.73562E+03-1.84519E+05 4.38376E-10-4.72482E-10
 -1       590 1.26026E+04 9.27366E+04 1.93477E+04-1.66477E+05 1.46792E-09-1.29467E-09
 -1       591-1.10827E+05-3.94107E+04-2.06467E+04-5.88815E+04 5.18867E-10-1.56433E-10
 -1       592-1.11230E+05-3.68677E+04-1.00989E+04-6.52602E+04 7.27596E-12 2.54840E-09
 -1       593-1.11393E+05-3.15521E+04-4.28362E+03-6.24385E+04-2.18643E-09-7.26072E-09
 -1       594-1.09037E+05-3.40432E+04-2.09441E+03-6.56714E+04-3.91083E-11 6.64450E-10
 -1       595-1.11493E+05-3.12476E+04-9.64372E+02-6.26038E+04 8.98126E-10 1.81302E-09
 -1       596-1.08870E+05-3.39279E+04-4.90537E+02-6.56617E+04-1.49521E-09-7.64271E-09
 -1       597-1.11513E+05-3.12601E+04-2.70090E+02-6.26059E+04 9.45704E-10-5.98448E-10
 -1       598-1.08854E+05-3.39291E+04-2.21764E+02-6.56550E+04 2.36014E-10-1.78034E-09
 -1       599-1.11510E+05-3.12603E+04-2.88627E+02-6.26049E+04 2.92175E-10 1.42086E-09
 -1       600-1.08870E+05-3.39293E+04-5.39642E+02-6.56600E+04 6.75072E-10 3.08819E-09
 -1       601-1.11483E+05-3.12475E+04-1.06854E+03-6.26004E+04-6.37556E-10 6.25278E-10
 -1       602-1.09053E+05-3.40573E+04-2.32556E+03-6.56665E+04 3.96540E-10 2.71029E-10
 -1       603-1.11368E+05-3.15895E+04-4.75782E+03-6.24167E+04-7.10315E-10-2.96041E-10
 -1       604-1.11500E+05-3.71810E+04-1.12170E+04-6.51911E+04 8.95852E-11-4.27463E-10
 -1       605-1.10723E+05-4.03280E+04-2.29317E+04-5.84771E+04-2.42017E-09-7.98536E-09
 -1       606 7.44934E+04-9.44230E+03-1.46367E+04 2.18150E+04-5.10408E-09 2.42744E-09
 -1       607 7.21994E+04-3.19796E+03-7.19458E+03 2.38645E+04-1.38789E-09-1.56251E-09
 -1       608 7.35364E+04-6.95765E+02-3.20289E+03 2.16644E+04 3.36240E-09-2.16573E-09
 -1       609 7.32351E+04-1.96434E+02-1.60674E+03 2.40289E+04-1.62072E-09 2.47496E-09
 -1       610 7.34082E+04 5.65587E+00-7.59304E+02 2.16453E+04-5.65251E-09-5.33191E-10
 -1       611 7.33487E+04 3.36088E+01-3.82716E+02 2.40493E+04-8.58836E-09 2.12231E-09
 -1       612 7.33787E+04 4.18190E+01-1.82726E+02 2.16432E+04-2.13822E-09-4.81577E-10
 -1       613 7.33556E+04 4.47750E+01-8.56999E+01 2.40519E+04-5.29735E-09-1.78306E-09
 -1       614 7.33651E+04 4.05206E+01-2.85401E+01 2.16427E+04-3.22098E-09 4.70664E-11
 -1       615 7.33511E+04 4.68786E+01 1.40936E+01 2.40522E+04 2.31739E-09 2.28738E-09
 -1       616 7.33551E+04 4.48769E+01 6.27400E+01 2.16429E+04-5.55428E-09-1.01136E-09
 -1       617 7.33576E+04 7.10522E+01 1.51799E+02 2.40515E+04 1.31195E-10 3.69255E-10
 -1       618 7.33388E+04 1.14917E+02 3.11140E+02 2.16432E+04-8.48377E-09-1.93018E-09
 -1       619 7.34571E+04 3.66405E+02 7.04218E+02 2.40488E+04-1.75063E-08 1.96906E-10
 -1       620 7.32441E+04 9.73380E+02 1.43468E+03 2.16443E+04-7.90527E-09 1.40608E-09
 -1       621 2.07520E+03 2.50254E+05 4.88767E+03-2.42058E+04 1.58479E-10 9.90894E-10
 -1       622 7.89890E+02 2.51169E+05 3.90486E+03-2.83284E+04-1.40517E-09 2.92312E-09
 -1       623 4.56813E+02 2.50470E+05 4.64459E+03-2.42328E+04 2.54204E-10-6.03904E-10
 -1       624 2.66071E+03 2.52252E+05 8.81192E+03-2.82046E+04-9.15861E-10-7.07132E-10
 -1       625 8.16965E+03 2.49203E+05 1.68112E+04-2.43277E+04 2.79897E-10 1.09821E-09
 -1       626 1.03730E+05 3.38403E+04-6.96604E+03 7.11296E+04-4.26644E-09-2.02908E-09
 -1       627 1.00694E+05 3.85297E+04-3.30863E+03 7.23799E+04-3.64025E-09-5.72294E-09
 -1       628 1.03861E+05 3.72319E+04-1.39122E+03 6.94860E+04 5.62613E-09-7.87395E-10
 -1       629 1.01225E+05 3.99109E+04-6.68577E+02 7.22509E+04 4.19641E-09 3.03686E-09
 -1       630 1.03844E+05 3.74594E+04-2.96066E+02 6.93546E+04 2.88492E-09 4.83283E-10
 -1       631 1.01261E+05 4.00105E+04-1.33988E+02 7.22491E+04-2.67573E-09 6.35725E-09
 -1       632 1.03828E+05 3.74674E+04-4.08815E+01 6.93419E+04-3.08773E-09 9.81117E-10
 -1       633 1.01261E+05 4.00158E+04 2.44485E+01 7.22488E+04 3.34580E-09-3.42146E-09
 -1       634 1.03816E+05 3.74621E+04 1.02248E+02 6.93392E+04 2.90424E-09 1.65574E-09
 -1       635 1.01271E+05 4.00184E+04 2.47366E+02 7.22510E+04-3.50246E-09-2.91948E-10
 -1       636 1.03804E+05 3.74713E+04 5.19997E+02 6.93314E+04-3.10865E-09 5.01359E-10
 -1       637 1.01393E+05 4.01521E+04 1.16332E+03 7.22318E+04 4.57931E-09 1.66892E-10
 -1       638 1.03775E+05 3.78764E+04 2.41045E+03 6.91535E+04 8.07222E-09 4.14184E-09
 -1       639 1.02623E+05 4.22581E+04 5.73332E+03 7.17243E+04-3.73200E-09 3.72438E-10
 -1       640 1.03811E+05 4.39874E+04 1.20698E+04 6.66055E+04-1.23750E-08-3.54385E-09
 -1       641 2.36522E+03 2.21185E+03-5.18831E+03-2.12530E+02-7.30371E-09 3.91992E-10
 -1       642 1.40777E+02-2.56133E+03-3.65467E+03 9.49711E+02 1.17949E-09 1.75254E-09
 -1       643 1.50358E+03 3.42013E+02-1.33860E+03-2.11106E+02-1.33922E-08 5.73209E-10
 -1       644 1.14124E+03-3.93435E+02-8.27836E+02 9.47807E+02 7.70040E-09 3.64759E-09
 -1       645 1.36407E+03 5.15609E+01-3.21501E+02-2.10636E+02-5.34619E-09-4.57661E-10
 -1       646 1.30565E+03-5.29316E+01-1.53285E+02 9.47071E+02-2.53934E-07 2.10611E-09
 -1       647 1.33880E+03 2.79843E+00-3.29596E+00-2.10373E+02-1.91117E-05 3.24654E-08
 -1       648 1.35055E+03 2.93619E+01 1.34480E+02 9.46799E+02-3.77981E-05 6.39176E-08
 -1       649 1.31906E+03-3.04527E+01 3.09271E+02-2.10365E+02-1.91114E-05 2.93919E-08
 -1       650 1.46302E+03 2.36012E+02 7.47338E+02 9.46838E+02-2.38113E-07 2.45433E-09
 -1       651 1.22645E+03-2.03406E+02 1.30675E+03-2.10412E+02-9.92873E-09 8.33268E-10
 -1       652 2.10105E+03 1.52589E+03 3.22045E+03 9.46655E+02 5.08835E-09 2.58586E-09
 -1       653 6.81423E+02-1.31666E+03 5.15229E+03-2.10186E+02-3.34708E-09-3.91992E-10
 -1       654 5.97155E+03 9.84582E+03 1.40474E+04 9.43663E+02 3.95871E-09 9.54969E-10
 -1       655-2.64289E+03-8.49614E+03 1.99109E+04-2.07447E+02 1.83153E-09-6.21185E-10
 -1       656 7.84462E+03-2.82691E+05-3.32109E+04 6.81936E+03-2.96313E-09-5.89353E-10
 -1       657-1.13258E+04-2.94966E+05-2.43428E+04 2.89434E+04 1.09503E-09 6.46139E-10
 -1       658 1.54307E+03-2.87029E+05-1.53561E+04 6.75831E+03 3.48308E-10 1.50771E-09
 -1       659-1.02959E+04-2.94386E+05-2.25706E+04 2.89832E+04-2.45336E-10 1.44784E-09
 -1       660 7.00460E+03-2.83292E+05-2.98764E+04 6.78012E+03-1.75351E-09 4.71800E-10
 -1       661 2.81769E+05 3.55035E+04 2.31621E+04 1.10016E+05 6.70275E-09-1.06502E-09
 -1       662 2.87391E+05 5.38527E+04 1.47160E+04 1.12996E+05 4.51037E-09 2.73212E-09
 -1       663 2.85812E+05 4.10338E+04 5.47170E+03 1.09376E+05 2.03508E-09 7.32143E-10
 -1       664 2.82749E+05 4.67929E+04 3.03512E+03 1.14019E+05-2.66800E-09 1.88311E-09
 -1       665 2.86276E+05 4.16553E+04 1.28405E+03 1.09331E+05 2.30335E-09-3.17175E-09
 -1       666 2.82217E+05 4.60158E+04 7.01103E+02 1.14089E+05 2.80338E-09 2.42619E-09
 -1       667 2.86328E+05 4.17294E+04 3.89509E+02 1.09334E+05 8.41681E-09 3.90382E-09
 -1       668 2.82167E+05 4.59411E+04 3.66815E+02 1.14087E+05-1.93372E-09 5.49267E-09
 -1       669 2.86323E+05 4.17249E+04 5.12043E+02 1.09334E+05-3.73930E-10 4.82203E-09
 -1       670 2.82261E+05 4.60665E+04 1.04230E+03 1.14087E+05 1.22161E-08 2.40337E-09
 -1       671 2.86237E+05 4.16122E+04 1.97072E+03 1.09332E+05 2.47366E-09-1.43586E-10
 -1       672 2.83097E+05 4.72651E+04 4.69743E+03 1.13967E+05-3.14910E-09-1.06093E-09
 -1       673 2.85510E+05 4.06541E+04 8.48177E+03 1.09407E+05 2.12466E-09-8.50378E-10
 -1       674 2.90305E+05 5.82066E+04 2.28223E+04 1.12369E+05 1.01666E-08-3.21961E-10
 -1       675 2.79236E+05 3.20816E+04 3.59246E+04 1.10403E+05 2.67210E-09-7.67614E-10
 -1       676 1.01394E+03-2.66415E+05-4.77875E+03 2.64129E+02-2.48303E-09 3.34341E-09
 -1       677-1.83092E+03-2.68255E+05-4.80249E+03 2.01047E+02-4.64752E-10 2.20010E-09
 -1       678 5.25844E+02-2.66724E+05-5.20137E+03 2.63441E+02-3.29919E-10 3.07097E-09
 -1       679-5.46231E+03-2.70372E+05-1.10883E+04 2.00669E+02 5.41377E-10-2.63486E-09
 -1       680 4.02595E+03-2.64300E+05-1.65886E+04 2.63860E+02 7.61247E-10 9.41906E-10
 -1       681 3.99259E+05-1.03491E+04 2.42628E+04-1.80456E+02-1.39444E-10-8.11269E-10
 -1       682 4.09707E+05 1.19933E+04 1.71213E+04 1.92818E+03-1.50768E-10-5.63887E-10
 -1       683 4.03310E+05-1.60350E+03 6.29526E+03-6.59492E+01-2.17423E-10-1.39175E-09
 -1       684 4.04998E+05 1.86000E+03 3.95661E+03 1.80028E+03 3.96313E-10-5.29269E-10
 -1       685 4.03970E+05-2.49208E+02 1.65687E+03-5.25430E+01 5.20787E-10-8.81130E-10
 -1       686 4.04238E+05 3.02391E+02 1.04697E+03 1.87295E+03-1.21853E-10-1.32206E-09
 -1       687 4.04070E+05-5.08498E+01 6.31973E+02-1.38614E+02-1.47352E-10-4.78366E-10
 -1       688 4.04171E+05 1.43359E+02 7.26305E+02 2.15906E+03-3.81039E-10-5.54962E-10
 -1       689 4.04039E+05-9.14177E+01 1.01295E+03-3.38655E+02 2.76444E-10-6.37215E-10
 -1       690 4.04470E+05 6.52661E+02 2.15569E+03 2.70585E+03 1.02153E-09-1.19513E-10
 -1       691 4.03774E+05-5.60673E+02 3.64348E+03-6.85419E+02 3.10891E-10 5.02268E-10
 -1       692 4.06278E+05 4.20028E+03 8.92792E+03 3.60402E+03-7.94273E-10-4.83851E-10
 -1       693 4.02234E+05-3.63237E+03 1.42221E+04-1.23684E+03 3.33841E-10 9.80435E-10
 -1       694 4.17093E+05 2.71652E+04 3.88218E+04 5.02910E+03 2.04665E-09 3.01497E-10
 -1       695 3.92968E+05-2.34576E+04 5.49331E+04-2.11037E+03 2.30125E-09 1.16415E-09
 -1       696-8.23285E+03 3.46044E+05 1.89625E+04 1.68394E+03 1.00954E-10-8.88946E-10
 -1       697 8.91760E+03 3.54130E+05 1.22309E+04-8.74607E+03 1.67120E-10 2.74838E-11
 -1       698-6.46364E+02 3.49633E+05 2.49811E+03 1.35536E+03-1.30058E-10 9.04471E-10
 -1       699-3.30148E+03 3.48406E+05-3.81972E+03-8.54842E+03-2.04182E-10 1.78895E-09
 -1       700 3.94863E+03 3.51767E+05-8.70460E+03 1.48627E+03-1.27329E-10 8.53845E-10
 -1       701-3.61031E+05-3.27067E+04-4.64782E+04-1.43226E+05-6.36646E-11-4.01997E-10
 -1       702-3.84544E+05-7.58192E+04-3.21804E+04-1.36218E+05-5.15001E-11-9.32232E-11
 -1       703-3.70662E+05-4.90899E+04-1.09041E+04-1.39901E+05 2.79897E-10-5.96174E-10
 -1       704-3.73283E+05-5.69195E+04-6.78773E+03-1.40152E+05-4.18225E-10-1.05729E-10
 -1       705-3.72282E+05-5.15547E+04-2.55325E+03-1.39309E+05 1.14596E-10-2.68528E-10
 -1       706-3.71403E+05-5.40766E+04-1.52038E+03-1.40837E+05-9.48503E-11 1.71951E-10
 -1       707-3.72540E+05-5.19248E+04-7.08373E+02-1.39219E+05-7.49054E-11-1.21418E-10
 -1       708-3.71213E+05-5.36300E+04-6.22329E+02-1.40842E+05-1.36144E-10 5.56486E-10
 -1       709-3.72472E+05-5.20005E+04-6.95721E+02-1.39304E+05-3.13645E-10-4.10409E-11
 -1       710-3.71664E+05-5.37773E+04-1.47640E+03-1.40512E+05 1.13403E-10 7.48287E-10
 -1       711-3.72089E+05-5.17791E+04-2.47986E+03-1.39549E+05 9.31664E-11-2.84899E-10
 -1       712-3.73721E+05-5.62961E+04-6.58129E+03-1.39575E+05-3.86905E-10-2.74440E-10
 -1       713-3.70416E+05-4.94897E+04-1.05778E+04-1.40238E+05-2.10093E-10 5.44787E-10
 -1       714-3.84798E+05-7.44804E+04-3.12105E+04-1.35594E+05 2.27374E-12 2.58751E-10
 -1       715-3.61022E+05-3.36447E+04-4.50794E+04-1.43513E+05-9.14042E-10 8.02174E-10
 -1       716 1.49071E+05-1.40722E+04 3.29828E+04-5.50816E+02-2.55011E-09 2.05546E-09
 -1       717 1.63401E+05 1.63033E+04 2.32898E+04 6.49661E+02-1.48934E-09 1.92586E-09
 -1       718 1.54580E+05-2.18046E+03 8.55656E+03-3.68071E+02-7.88219E-10 6.12090E-10
 -1       719 1.56990E+05 2.52553E+03 5.39659E+03 3.14729E+02-7.13719E-10 9.59460E-10
 -1       720 1.55481E+05-3.39728E+02 2.26465E+03-2.15971E+02 4.71076E-10 8.84484E-10
 -1       721 1.55951E+05 4.12488E+02 1.46738E+03 1.99553E+01 4.49653E-10 9.89871E-10
 -1       722 1.55620E+05-7.35573E+01 9.24367E+02-7.32971E+01 6.75485E-10-2.04324E-10
 -1       723 1.55860E+05 2.23051E+02 1.14383E+03-2.65837E+02 2.51305E-10 4.95262E-10
 -1       724 1.55572E+05-1.50917E+02 1.65073E+03 6.98295E+01-1.51687E-10 3.14571E-10
 -1       725 1.56324E+05 1.08392E+03 3.56238E+03-5.62676E+02-4.83681E-10-2.28965E-10
 -1       726 1.55156E+05-9.32578E+02 6.04891E+03 2.23551E+02-7.19879E-10-5.92081E-10
 -1       727 1.59237E+05 6.98622E+03 1.48102E+04-8.93118E+02 3.47029E-10-3.75621E-10
 -1       728 1.52660E+05-6.03606E+03 2.36444E+04 4.00268E+02 5.73522E-10-1.50430E-09
 -1       729 1.76982E+05 4.51407E+04 6.44434E+04-1.31147E+03-1.63425E-09-1.08230E-10
 -1       730 1.37420E+05-3.89592E+04 9.13459E+04 6.41700E+02-9.05231E-11-1.05138E-09
 -1       731-1.40203E+04 1.41343E+05 3.22333E+04 7.10684E+03 1.60071E-10 8.40146E-11
 -1       732 1.63771E+04 1.58257E+05 2.35817E+04-3.03978E+04 9.50422E-10-1.55640E-09
 -1       733-2.33088E+03 1.47890E+05 9.04830E+03 6.37713E+03 2.16414E-09 1.20423E-09
 -1       734 4.06637E+03 1.51248E+05 7.23323E+03-2.96785E+04 3.48763E-09 3.86336E-09
 -1       735-1.66645E+03 1.48233E+05 4.74412E+03 6.38774E+03 1.59184E-09 1.97758E-09
 -1       736-8.42500E+05-8.96962E+04-6.35180E+04-3.21129E+05-1.71167E-09 3.41970E-10
 -1       737-8.64364E+05-1.58588E+05-4.39400E+04-3.23106E+05-2.62480E-09 2.85581E-10
 -1       738-8.55865E+05-1.11710E+05-1.48852E+04-3.16160E+05-4.52246E-10 2.57387E-10
 -1       739-8.49786E+05-1.31874E+05-9.23363E+03-3.27415E+05-3.00133E-11 1.21781E-09
 -1       740-8.57047E+05-1.16344E+05-3.52456E+03-3.16834E+05 1.50897E-09 7.93762E-10
 -1       741-8.50337E+05-1.24360E+05-1.93686E+03-3.24070E+05 2.43955E-09 2.93950E-09
 -1       742-8.55273E+05-1.19239E+05-1.04529E+03-3.19481E+05-1.09941E-09-1.53953E-10
 -1       743-8.54772E+05-1.18868E+05-6.46862E+02-3.18452E+05 2.34488E-09 1.92728E-10
 -1       744-8.52598E+05-1.21843E+05-9.52266E+02-3.22444E+05-2.50452E-10-1.82018E-09
 -1       745-8.59854E+05-1.14932E+05-1.74862E+03-3.13429E+05-4.60828E-09-6.01545E-10
 -1       746-8.50220E+05-1.23156E+05-3.07622E+03-3.24525E+05-9.35614E-10-4.17197E-09
 -1       747-8.64441E+05-1.16394E+05-8.11980E+03-3.10477E+05 1.27153E-09 2.27010E-09
 -1       748-8.48043E+05-1.20371E+05-1.30577E+04-3.25414E+05-2.98223E-09 1.11368E-09
 -1       749-8.76347E+05-1.40391E+05-3.84896E+04-3.07302E+05 9.49058E-10-4.51109E-10
 -1       750-8.38323E+05-9.92311E+04-5.57309E+04-3.27673E+05-8.43102E-10 1.00772E-09
 -1       751 1.97244E+06-1.09323E+05 2.56708E+05 5.69361E+03-1.00364E-08-9.89530E-10
 -1       752 2.08334E+06 1.26687E+05 1.81021E+05-8.60858E+03-1.99005E-09-1.58070E-09
 -1       753 2.01537E+06-1.69339E+04 6.65236E+04 2.05713E+03 3.11886E-10-6.54836E-11
 -1       754 2.03348E+06 1.96096E+04 4.16607E+04-3.57272E+03 1.07281E-09 1.81899E-10
 -1       755 2.02240E+06-2.61764E+03 1.71368E+04 6.58678E+02-3.72879E-10 2.34650E-10
 -1       756 2.02535E+06 3.06885E+03 1.02091E+04-1.63787E+03-1.90880E-10 1.73134E-09
 -1       757 2.02355E+06-4.43799E+02 5.05625E+03 1.22282E+02-8.76099E-11 4.93628E-10
 -1       758 2.02415E+06 7.96666E+02 4.05971E+03-9.35227E+02 5.55969E-10 3.20256E-10
 -1       759 2.02360E+06-3.51456E+02 4.18265E+03-4.39745E+01-7.27467E-11 6.90306E-10
 -1       760 2.02490E+06 2.26601E+03 7.69346E+03-8.21800E+02-3.47095E-10 1.70212E-09
 -1       761 2.02278E+06-1.90896E+03 1.25895E+04 8.85357E+00 1.40784E-09 9.84073E-10
 -1       762 2.03078E+06 1.42714E+04 3.03613E+04-1.19522E+03 1.06825E-09 2.61389E-09
 -1       763 2.01769E+06-1.23193E+04 4.84112E+04 3.29454E+02 3.51483E-09 1.74805E-09
 -1       764 2.06692E+06 9.21398E+04 1.31638E+05-2.41256E+03 1.16308E-09 3.09228E-10
 -1       765 1.98655E+06-7.95065E+04 1.86671E+05 1.22606E+03-8.08754E-10-8.58563E-10
 -1       766-4.65011E+04 3.20505E+05 1.10623E+05-2.69802E+03 2.16096E-09-8.20933E-10
 -1       767 5.75769E+04 3.69671E+05 8.46961E+04 9.00967E+03 2.69210E-10-1.86446E-10
 -1       768-1.08977E+04 3.36983E+05 4.21961E+04-2.19822E+03 1.07048E-09 2.05077E-10
 -1       769 3.65746E+04 3.59805E+05 5.71005E+04 8.56225E+03 3.51520E-10 8.13259E-10
 -1       770-2.55649E+04 3.30356E+05 6.30387E+04-2.25077E+03 4.47471E-10 2.03266E-09
 -1       771-1.09197E+06-2.22143E+05-4.17107E+04-4.71171E+05 9.84983E-10-1.19326E-09
 -1       772-1.08997E+06-2.19630E+05-2.03816E+04-4.87066E+05-3.17414E-09 3.23780E-09
 -1       773-1.09349E+06-2.05990E+05-8.66531E+03-4.78166E+05-1.13869E-09 2.12094E-09
 -1       774-1.08544E+06-2.14171E+05-4.22581E+03-4.88367E+05 1.43882E-09-1.11413E-09
 -1       775-1.09387E+06-2.05251E+05-1.95552E+03-4.78547E+05-5.74801E-10 2.68301E-10
 -1       776-1.08521E+06-2.13928E+05-9.85011E+02-4.88517E+05-9.91349E-10 2.12367E-10
 -1       777-1.09405E+06-2.05197E+05-5.39365E+02-4.78612E+05 2.96495E-10 4.00064E-10
 -1       778-1.08527E+06-2.13899E+05-4.17736E+02-4.88612E+05-3.04681E-10 8.43983E-10
 -1       779-1.09415E+06-2.05140E+05-5.26750E+02-4.78658E+05-1.87356E-10 1.19530E-09
 -1       780-1.08537E+06-2.13879E+05-9.60984E+02-4.88698E+05-2.63753E-10 1.54614E-11
 -1       781-1.09416E+06-2.05078E+05-1.89790E+03-4.78681E+05 2.20098E-10 2.60570E-10
 -1       782-1.08573E+06-2.14098E+05-4.12729E+03-4.88758E+05 7.66704E-10 9.38599E-10
 -1       783-1.09399E+06-2.05663E+05-8.44617E+03-4.78367E+05-1.15028E-09-1.01318E-09
 -1       784-1.09005E+06-2.19693E+05-1.99256E+04-4.87984E+05-1.40770E-09-1.74668E-09
 -1       785-1.09290E+06-2.21148E+05-4.07426E+04-4.71328E+05-2.81830E-10-8.73115E-11
 -1       786 2.51470E+05-7.67016E+03 3.13411E+04-1.38987E+03 4.55884E-11-6.89397E-10
 -1       787 2.62909E+05 1.01779E+04 2.02032E+04-6.24621E+03-9.87370E-11-5.38421E-10
 -1       788 2.56235E+05-8.11236E+02 8.12854E+03-1.38956E+03-2.33854E-10-1.36424E-11
 -1       789 2.57586E+05 1.03699E+03 4.56528E+03-6.23730E+03-1.24686E-10-1.61708E-09
 -1       790 2.56789E+05-8.92168E+01 2.06830E+03-1.39822E+03 3.25940E-10 7.18615E-10
 -1       791 2.56958E+05 1.04374E+02 1.11620E+03-6.22463E+03 4.88498E-10 1.90923E-09
 -1       792 2.56861E+05-1.12437E+01 5.75495E+02-1.40222E+03-2.47269E-11 1.63215E-09
 -1       793 2.56879E+05 1.45846E+01 3.92738E+02-6.22177E+03-8.04121E-11-3.01554E-11
 -1       794 2.56867E+05-6.69879E+00 3.76777E+02-1.40109E+03 3.16902E-11 1.98526E-11
 -1       795 2.56908E+05 5.05142E+01 5.90989E+02-6.22950E+03 2.08246E-10 2.20030E-09
 -1       796 2.56834E+05-4.40166E+01 1.02669E+03-1.39449E+03-2.78476E-10 4.13280E-10
 -1       797 2.57213E+05 5.01095E+02 2.22539E+03-6.24639E+03-1.11186E-10-1.13309E-09
 -1       798 2.56566E+05-3.94564E+02 3.94562E+03-1.38420E+03-4.28486E-10-6.79165E-10
 -1       799 2.59796E+05 4.93095E+03 9.79627E+03-6.25710E+03-1.27875E-09-1.33969E-09
 -1       800 2.54257E+05-3.72056E+03 1.51914E+04-1.38411E+03 2.69210E-10-6.93035E-10
 -1       801-9.24965E+03 2.57304E+05 3.56622E+04-1.42966E+05 4.87489E-10-1.13869E-09
 -1       802 1.89152E+04 2.69153E+05 3.52429E+04-6.23057E+05 7.64339E-09-2.08820E-09
 -1       803-2.02629E+03 2.58985E+05 3.50737E+04-1.42643E+05 3.94903E-09 8.47763E-10
 -1       804 4.01188E+04 2.81988E+05 7.22036E+04-6.23029E+05 4.97494E-09-2.00089E-09
 -1       805-2.71605E+04 2.44991E+05 1.05019E+05-1.43000E+05 3.64525E-09-1.56433E-10
 -1       806-2.38532E+05-6.22630E+04-2.05653E+04-1.08241E+05 2.80909E-09 9.61518E-09
 -1       807-2.38785E+05-5.70339E+04-9.76861E+03-1.14371E+05-5.87079E-10 2.15891E-09
 -1       808-2.38448E+05-5.18834E+04-4.10958E+03-1.12637E+05-2.34718E-09-5.99471E-09
 -1       809-2.36755E+05-5.33911E+04-1.98766E+03-1.15191E+05-2.28874E-09-8.96804E-09
 -1       810-2.38502E+05-5.11916E+04-9.00237E+02-1.12950E+05-1.13005E-10-1.31934E-09
 -1       811-2.36558E+05-5.31552E+04-4.52679E+02-1.15222E+05 1.05615E-09-6.98719E-10
 -1       812-2.38519E+05-5.11732E+04-2.39648E+02-1.12964E+05 7.88714E-09 1.40283E-08
 -1       813-2.36537E+05-5.31492E+04-1.82168E+02-1.15217E+05 9.61620E-10-7.94898E-10
 -1       814-2.38517E+05-5.11755E+04-2.19049E+02-1.12963E+05-1.39448E-09-2.81489E-10
 -1       815-2.36551E+05-5.31570E+04-3.98073E+02-1.15217E+05-3.43425E-09 1.75623E-09
 -1       816-2.38497E+05-5.11946E+04-7.82604E+02-1.12948E+05-4.52428E-09 1.56751E-09
 -1       817-2.36721E+05-5.33593E+04-1.72399E+03-1.15182E+05 8.96534E-10 6.93581E-09
 -1       818-2.38443E+05-5.18013E+04-3.56232E+03-1.12678E+05-4.49427E-09 1.53595E-08
 -1       819-2.38509E+05-5.64831E+04-8.46578E+03-1.14427E+05-1.39714E-08 1.71053E-08
 -1       820-2.38479E+05-6.08246E+04-1.78215E+04-1.08899E+05-1.08685E-08 3.08728E-09
 -1       821-2.33543E+05 7.36951E+03-3.01231E+04 1.40663E+03-2.59070E-09 1.49157E-10
 -1       822-2.44526E+05-9.78358E+03-1.94184E+04 6.49994E+03-2.05512E-09 1.38220E-09
 -1       823-2.38124E+05 7.77532E+02-7.81520E+03 1.36018E+03 2.89015E-09-1.19871E-09
 -1       824-2.39421E+05-9.90546E+02-4.39093E+03 6.56493E+03-1.02500E-09-1.03432E-09
 -1       825-2.38658E+05 8.60011E+01-1.99728E+03 1.34108E+03-4.92264E-09 5.23642E-10
 -1       826-2.38827E+05-9.05165E+01-1.09102E+03 6.59629E+03-8.77338E-09 1.39642E-09
 -1       827-2.38727E+05 1.30731E+01-5.90507E+02 1.32870E+03-4.02110E-09-6.76806E-10
 -1       828-2.38760E+05-5.03072E+00-4.54594E+02 6.61590E+03-5.71285E-09 2.75065E-10
 -1       829-2.38730E+05 1.20057E+01-5.12557E+02 1.32145E+03-2.58837E-10 2.50845E-09
 -1       830-2.38813E+05-6.71668E+01-8.85909E+02 6.62451E+03 4.57396E-09 1.27869E-09
 -1       831-2.38677E+05 7.04406E+01-1.58926E+03 1.32009E+03-3.27660E-09-5.65024E-10
 -1       832-2.39286E+05-7.76398E+02-3.47645E+03 6.62130E+03-1.44402E-09 4.86580E-11
 -1       833-2.38256E+05 6.18022E+02-6.17839E+03 1.32476E+03-2.47695E-09 1.01795E-09
 -1       834-2.43325E+05-7.72471E+03-1.53492E+04 6.59686E+03-3.06522E-09-2.05932E-09
 -1       835-2.34636E+05 5.82906E+03-2.38072E+04 1.34550E+03-1.19769E-09-1.15506E-09
 -1       836-1.23387E+04 6.26129E+05 5.30519E+04-1.53744E+04-9.20409E-10-1.15369E-09
 -1       837 1.85039E+04 6.45897E+05 4.13391E+04-6.57494E+04 9.63382E-10-1.02091E-09
 -1       838-3.01655E+03 6.32447E+05 3.01560E+04-1.53838E+04-1.36879E-09 2.61302E-09
 -1       839 2.39477E+04 6.49058E+05 5.07618E+04-6.57400E+04 1.33286E-09-5.35351E-10
 -1       840-1.68441E+04 6.22955E+05 7.07678E+04-1.53834E+04-9.67702E-10-2.44381E-09
 -1       841-4.54457E+04-1.75287E+03-1.22399E+04-1.92619E+04-2.78214E-09 9.90440E-10
 -1       842-5.22768E+04-1.24634E+04-8.47200E+03-1.66865E+04-3.03947E-09 8.72888E-10
 -1       843-4.79165E+04-6.13145E+03-2.86962E+03-1.84618E+04 1.77886E-09-6.40057E-11
 -1       844-4.94188E+04-7.38046E+03-1.78145E+03-1.76004E+04 4.53497E-10-6.85503E-10
 -1       845-4.83021E+04-6.82218E+03-6.61449E+02-1.83533E+04-9.49001E-10-1.13999E-09
 -1       846-4.89770E+04-6.57290E+03-3.74076E+02-1.77185E+04-5.26250E-09-2.53262E-10
 -1       847-4.83582E+04-6.93691E+03-1.36808E+02-1.83446E+04-1.18563E-09 1.78709E-10
 -1       848-4.89095E+04-6.43013E+03-4.50535E+01-1.77265E+04 4.65472E-09 1.22809E-09
 -1       849-4.83696E+04-6.96457E+03 3.52096E+01-1.83454E+04 2.89955E-09 2.64343E-09
 -1       850-4.88656E+04-6.35210E+03 1.57399E+02-1.77350E+04-7.51363E-10 1.92528E-09
 -1       851-4.84021E+04-7.01475E+03 2.97133E+02-1.83363E+04-1.17263E-09-9.04421E-10
 -1       852-4.86432E+04-5.99393E+03 8.15240E+02-1.78056E+04 3.19003E-09 2.04705E-09
 -1       853-4.85918E+04-7.32188E+03 1.31509E+03-1.82750E+04 3.39745E-09 1.18916E-10
 -1       854-4.72991E+04-3.68762E+03 3.88958E+03-1.82555E+04-9.31095E-11-1.17274E-09
 -1       855-4.97450E+04-9.31492E+03 5.61700E+03-1.78886E+04-7.53744E-11-1.62800E-09
 -1       856-2.73166E+05 6.69560E+03-2.73949E+04 2.87111E+03-5.80167E-09-1.36970E-09
 -1       857-2.83145E+05-8.87501E+03-1.76542E+04 1.34315E+04-3.76099E-09-2.43472E-09
 -1       858-2.77335E+05 7.08254E+02-7.10715E+03 2.79125E+03-4.47699E-09 1.10958E-10
 -1       859-2.78523E+05-8.73019E+02-3.98947E+03 1.35439E+04-1.67211E-09-1.33946E-09
 -1       860-2.77822E+05 8.34934E+01-1.81223E+03 2.75755E+03-7.02357E-10 9.57243E-11
 -1       861-2.77994E+05-4.98600E+01-9.82793E+02 1.35943E+04-6.18991E-09 4.53156E-10
 -1       862-2.77887E+05 1.90554E+01-5.19296E+02 2.74065E+03 8.92300E-09-2.05154E-09
 -1       863-2.77936E+05 3.07988E+01-3.77222E+02 1.36151E+04 2.15199E-08 5.45413E-11
 -1       864-2.77891E+05 1.69209E+01-3.96080E+02 2.73671E+03 1.04633E-08-1.64967E-09
 -1       865-2.77968E+05-1.43194E+01-6.57976E+02 1.36094E+04 1.54941E-08-2.30738E-09
 -1       866-2.77851E+05 5.75246E+01-1.16688E+03 2.74640E+03 3.89230E-09-1.62501E-09
 -1       867-2.78303E+05-5.36798E+02-2.54156E+03 1.35755E+04-1.65301E-09-1.01909E-09
 -1       868-2.77542E+05 4.53502E+02-4.51685E+03 2.77076E+03 2.95586E-09-1.66438E-10
 -1       869-2.81233E+05-5.61937E+03-1.12119E+04 1.34846E+04-7.07075E-09-2.76737E-09
 -1       870-2.74894E+05 4.25356E+03-1.73972E+04 2.83824E+03 4.49518E-09-2.15005E-09
 -1       871-2.38011E+03-2.23848E+04-4.20904E+03 6.31477E+04 1.80171E-09-2.36014E-10
 -1       872-7.69104E+02-2.31219E+04-1.21116E+03 7.35471E+04-2.44518E-09 1.03068E-09
 -1       873 3.32218E+01-2.28534E+04 1.27372E+03 6.30279E+04 1.38652E-09-1.55751E-10
 -1       874 1.49909E+03-2.18474E+04 4.69901E+03 7.36047E+04-2.13231E-09-8.79531E-10
 -1       875 4.98637E+03-2.36977E+04 1.01537E+04 6.30978E+04 1.90812E-09-1.04797E-09
 -1       876 3.17981E+05 3.93237E+04 3.02149E+04 1.24905E+05 5.51518E-09 8.67658E-10
 -1       877 3.25045E+05 6.35494E+04 1.91983E+04 1.29124E+05 1.34310E-09 2.13981E-09
 -1       878 3.23248E+05 4.65469E+04 7.13567E+03 1.24077E+05 2.84808E-09-4.76575E-10
 -1       879 3.18997E+05 5.43262E+04 3.95668E+03 1.30439E+05-8.63395E-10 1.07963E-09
 -1       880 3.23845E+05 4.73666E+04 1.66771E+03 1.24027E+05 1.45997E-09-6.80529E-10
 -1       881 3.18312E+05 5.32991E+04 8.99901E+02 1.30512E+05-4.46198E-09-2.36469E-09
 -1       882 3.23907E+05 4.74710E+04 4.77558E+02 1.24038E+05 7.26544E-09-1.11257E-10
 -1       883 3.18251E+05 5.31872E+04 4.11566E+02 1.30495E+05-3.33617E-09 1.76231E-09
 -1       884 3.23900E+05 4.74741E+04 5.33988E+02 1.24043E+05 9.31784E-10 2.69597E-09
 -1       885 3.18347E+05 5.33050E+04 1.05629E+03 1.30487E+05 1.67053E-08-2.74753E-10
 -1       886 3.23813E+05 4.73622E+04 1.98345E+03 1.24042E+05 8.80127E-09-2.57592E-09
 -1       887 3.19186E+05 5.45092E+04 4.71906E+03 1.30370E+05-7.69901E-09-4.02076E-09
 -1       888 3.23085E+05 4.63973E+04 8.51747E+03 1.24115E+05-3.09738E-09-3.31056E-09
 -1       889 3.26421E+05 6.55001E+04 2.29166E+04 1.28773E+05 6.01662E-09-7.68523E-10
 -1       890 3.16788E+05 3.77854E+04 3.60708E+04 1.25111E+05 5.03678E-09 1.54978E-09
 -1       891 1.19397E+03-1.40896E+05-5.38248E+03 1.32731E+04 1.86105E-09 6.54381E-10
 -1       892-1.97538E+03-1.42834E+05-4.37344E+03 5.77367E+04-1.11368E-09 1.34855E-09
 -1       893 3.37672E+02-1.41501E+05-3.49372E+03 1.32088E+04 2.51134E-09 3.31070E-10
 -1       894-3.08874E+03-1.43476E+05-6.29701E+03 5.77314E+04 1.76442E-09-4.55543E-10
 -1       895 2.11226E+03-1.40247E+05-8.99854E+03 1.32782E+04-1.58798E-09 6.37556E-10
 -1       896 5.72151E+05-4.34279E+03 1.01619E+04 1.28103E+03-8.98694E-11 1.65301E-09
 -1       897 5.76605E+05 5.02801E+03 7.19247E+03-3.36041E+03 7.15374E-11 6.46537E-10
 -1       898 5.73880E+05-6.72296E+02 2.64091E+03 6.78694E+02-1.50990E-10 2.82739E-10
 -1       899 5.74587E+05 7.78866E+02 1.67194E+03-2.42602E+03 3.79590E-10-2.81773E-10
 -1       900 5.74167E+05-1.04872E+02 7.12512E+02 3.46642E+02 4.68958E-12-4.35080E-10
 -1       901 5.74254E+05 1.30959E+02 4.78787E+02-1.95252E+03 5.25020E-11-8.81304E-10
 -1       902 5.74212E+05-2.53540E+01 3.39252E+02 2.05177E+02 8.46432E-10-7.74139E-10
 -1       903 5.74234E+05 9.20568E+01 4.65790E+02-1.82673E+03 8.77997E-10-8.96151E-10
 -1       904 5.74187E+05-6.58881E+01 7.20736E+02 2.20852E+02 3.41768E-10-7.13698E-10
 -1       905 5.74448E+05 4.83121E+02 1.57825E+03-2.01908E+03 1.60355E-10-5.18099E-10
 -1       906 5.73998E+05-4.15742E+02 2.69940E+03 3.97532E+02 2.69999E-10-6.66773E-10
 -1       907 5.75762E+05 3.11890E+03 6.61225E+03-2.57511E+03-3.10663E-10-1.78602E-10
 -1       908 5.72872E+05-2.69488E+03 1.05597E+04 7.76890E+02-3.90912E-10 4.51564E-10
 -1       909 5.83730E+05 2.01577E+04 2.87876E+04-3.63615E+03-4.87347E-10 4.58840E-10
 -1       910 5.66029E+05-1.74009E+04 4.07770E+04 1.45853E+03 3.38900E-10 1.44428E-09
 -1       911 1.69931E+05-2.19490E+03 5.09975E+03 1.05766E+03 1.23288E-09 1.71849E-09
 -1       912 1.72369E+05 2.53672E+03 3.64548E+03-3.88091E+03 1.18222E-09 9.99421E-10
 -1       913 1.70839E+05-3.40266E+02 1.32740E+03 7.83893E+02 1.84684E-10 1.55751E-11
 -1       914 1.71286E+05 3.94555E+02 8.62286E+02-3.43340E+03-2.36376E-10-1.10055E-09
 -1       915 1.71006E+05-5.40504E+01 3.79032E+02 6.10144E+02 6.95437E-10-1.75062E-09
 -1       916 1.71086E+05 7.44823E+01 2.92099E+02-3.17377E+03 1.31281E-09-2.75507E-09
 -1       917 1.71035E+05-1.82162E+01 2.62439E+02 5.24252E+02 8.50289E-10-2.43501E-09
 -1       918 1.71084E+05 8.92511E+01 4.36007E+02-3.08386E+03 3.02766E-10-2.41308E-09
 -1       919 1.71006E+05-6.78641E+01 7.29433E+02 5.20236E+02 9.96881E-10-2.25290E-09
 -1       920 1.71318E+05 5.06106E+02 1.63677E+03-3.15741E+03 8.11117E-10-2.33049E-09
 -1       921 1.70802E+05-4.34756E+02 2.81134E+03 5.97803E+02 5.91058E-10-1.85787E-09
 -1       922 1.72713E+05 3.26081E+03 6.90713E+03-3.40019E+03 5.90205E-10-1.02750E-09
 -1       923 1.69615E+05-2.81690E+03 1.10222E+04 7.63026E+02 2.68244E-10-3.64707E-10
 -1       924 1.81063E+05 2.10630E+04 3.00783E+04-3.84014E+03-3.50212E-10 3.14230E-10
 -1       925 1.62460E+05-1.81827E+04 4.25873E+04 1.03771E+03 3.48166E-11 1.51522E-09
 -1       926-7.32325E+05 1.62277E+04-3.80221E+04-1.15224E+03 1.77137E-09 2.09911E-09
 -1       927-7.48675E+05-1.88011E+04-2.68203E+04 1.30929E+03-1.83496E-09 2.75395E-09
 -1       928-7.38671E+05 2.51271E+03-9.83803E+03-8.65532E+02-1.89452E-10 1.81490E-09
 -1       929-7.41278E+05-2.90852E+03-6.14064E+03 5.66840E+02 1.22285E-09 7.83530E-10
 -1       930-7.39711E+05 3.86280E+02-2.49380E+03-4.09819E+02 6.24283E-11 1.39573E-09
 -1       931-7.40061E+05-4.44382E+02-1.41446E+03-3.91674E+02-8.18353E-10 1.16262E-09
 -1       932-7.39885E+05 5.56917E+01-5.80236E+02 9.29961E+01-2.66596E-10 2.78646E-10
 -1       933-7.39853E+05-4.52003E+01-2.26577E+02-1.30552E+03 2.48686E-10-2.25164E-10
 -1       934-7.39919E+05-1.12783E+01 5.38754E+01 5.04041E+02 3.23581E-11-3.45153E-10
 -1       935-7.39762E+05 1.41355E+02 4.05390E+02-1.92155E+03-2.41384E-10-8.86367E-10
 -1       936-7.39977E+05-1.29508E+02 8.05909E+02 7.09035E+02 6.86420E-11-5.78780E-10
 -1       937-7.39351E+05 9.81342E+02 2.05600E+03-2.06819E+03-7.62071E-10-1.23501E-09
 -1       938-7.40329E+05-8.48447E+02 3.31125E+03 6.50685E+02-5.76506E-10-1.23055E-09
 -1       939-7.36848E+05 6.34740E+03 9.05094E+03-1.70529E+03 3.87928E-10-5.44674E-10
 -1       940-7.42475E+05-5.47844E+03 1.28323E+04 3.46130E+02-1.78048E-10 3.29237E-10
 -1       941 3.10757E+06-1.53051E+05 3.59806E+05 1.73146E+02 1.12844E-08 3.71074E-09
 -1       942 3.26233E+06 1.77401E+05 2.53562E+05 1.12366E+03 1.05481E-08-2.57933E-09
 -1       943 3.16753E+06-2.37173E+04 9.32700E+04 4.59148E+02 4.98419E-09-1.45519E-11
 -1       944 3.19280E+06 2.74709E+04 5.84106E+04 7.47629E+02 3.85086E-10-2.49202E-09
 -1       945 3.17736E+06-3.66851E+03 2.40688E+04 5.49239E+02 2.47526E-09 2.48019E-09
 -1       946 3.18146E+06 4.30839E+03 1.43865E+04 6.22577E+02 4.27420E-10 5.79189E-09
 -1       947 3.17897E+06-6.28884E+02 7.22129E+03 5.84230E+02 1.96608E-09 3.88263E-09
 -1       948 3.17982E+06 1.16960E+03 5.97055E+03 5.54179E+02 9.44990E-10 2.62717E-09
 -1       949 3.17902E+06-5.38432E+02 6.36646E+03 6.17644E+02 1.08131E-09-4.17776E-09
 -1       950 3.18104E+06 3.52247E+03 1.19265E+04 4.37246E+02 3.05127E-09 4.38808E-09
 -1       951 3.17774E+06-2.97511E+03 1.96205E+04 7.01161E+02 1.98391E-09-3.95903E-09
 -1       952 3.19020E+06 2.22509E+04 4.73692E+04 8.93865E+01-4.67740E-10-2.67028E-09
 -1       953 3.16978E+06-1.92075E+04 7.55587E+04 9.65475E+02-3.22489E-09 1.40790E-09
 -1       954 3.24651E+06 1.43663E+05 2.05350E+05-1.05295E+03-2.45586E-09-1.86265E-09
 -1       955 3.12119E+06-1.23951E+05 2.91298E+05 1.84316E+03-8.26276E-09 2.15368E-09
 -1       956-1.68826E+05-2.86250E+03-5.86350E+03 2.44016E+04-5.05042E-09-1.78079E-09
 -1       957-1.69887E+05-9.00320E+02-2.95259E+03 2.81974E+04-1.10640E-09-5.87306E-10
 -1       958-1.69306E+05-1.03347E+02-1.32762E+03 2.42528E+04 3.55612E-09-9.37007E-10
 -1       959-1.69408E+05-3.42955E+00-6.74676E+02 2.83606E+04-2.00771E-09 6.63476E-10
 -1       960-1.69365E+05 3.65533E+01-3.27489E+02 2.42371E+04-4.04361E-09-1.50067E-09
 -1       961-1.69378E+05 4.43864E+01-1.72515E+02 2.83781E+04-8.14794E-09-8.77435E-10
 -1       962-1.69383E+05 4.16674E+01-9.70851E+01 2.42352E+04-3.72302E-09-2.24418E-09
 -1       963-1.69383E+05 4.96184E+01-7.46460E+01 2.83807E+04-5.41172E-09 1.00181E-09
 -1       964-1.69390E+05 4.57496E+01-8.68469E+01 2.42345E+04-1.21918E-09-1.75896E-09
 -1       965-1.69393E+05 5.32663E+01-1.46929E+02 2.83806E+04 2.62048E-09-7.20775E-10
 -1       966-1.69388E+05 4.90987E+01-2.74230E+02 2.42352E+04-3.13673E-09-6.84850E-10
 -1       967-1.69432E+05 2.10115E+01-5.63998E+02 2.83728E+04-4.45596E-10 1.46019E-09
 -1       968-1.69350E+05-6.06372E+01-1.10813E+03 2.42425E+04 8.71751E-10-1.26443E-09
 -1       969-1.69846E+05-7.21927E+02-2.46638E+03 2.82955E+04 1.36424E-12-4.65434E-10
 -1       970-1.68958E+05-2.36169E+03-4.89675E+03 2.43147E+04 1.14460E-09-9.92713E-10
 -1       971-3.69901E+05 5.62037E+03-2.30120E+04 2.79975E+03-3.41379E-09 1.33241E-09
 -1       972-3.78263E+05-7.45273E+03-1.48288E+04 1.33657E+04-3.26418E-09 1.77533E-09
 -1       973-3.73402E+05 5.93430E+02-5.97394E+03 2.69935E+03-4.53724E-09 7.73070E-10
 -1       974-3.74387E+05-7.29421E+02-3.35806E+03 1.35129E+04 9.43714E-10 1.63396E-09
 -1       975-3.73812E+05 7.01674E+01-1.53804E+03 2.65168E+03-4.92946E-10 5.56611E-10
 -1       976-3.73949E+05-3.64912E+01-8.57067E+02 1.35863E+04-7.77834E-09 4.26030E-09
 -1       977-3.73866E+05 1.76062E+01-4.98858E+02 2.62573E+03 7.40738E-09 8.95085E-10
 -1       978-3.73910E+05 2.79424E+01-4.46227E+02 1.36205E+04 1.40985E-08 3.30701E-09
 -1       979-3.73864E+05 2.07940E+01-5.84059E+02 2.61748E+03 8.35345E-09 1.28011E-09
 -1       980-3.73980E+05-5.58243E+01-1.08391E+03 1.36187E+04 1.03767E-08 3.38709E-09
 -1       981-3.73795E+05 9.33532E+01-1.98585E+03 2.62749E+03-9.96238E-10 7.70115E-10
 -1       982-3.74568E+05-9.53156E+02-4.36823E+03 1.35796E+04 1.07093E-10 3.85933E-09
 -1       983-3.73263E+05 7.79514E+02-7.77612E+03 2.65684E+03 5.17389E-09 1.07912E-09
 -1       984-3.79636E+05-9.70764E+03-1.93214E+04 1.34771E+04-7.13112E-09 2.92971E-09
 -1       985-3.68703E+05 7.33544E+03-2.99760E+04 2.73163E+03 3.10843E-09 1.69166E-09
 -3
    1PSTEP                        15           8           1          
  100CL  108 4.83398E-01         841                     0    8           1
 -4  DISP        4    1
 -5  D1          1    2    1    0
 -5  D2          1    2    2    0
 -5  D3          1    2    3    0
 -5  ALL         1    2    0    0    1ALL
 -1         1 5.86162E-05 0.00000E+00 0.00000E+00
 -1         2 4.38851E-05 0.00000E+00 0.00000E+00
 -1         3 3.64930E-05 0.00000E+00 0.00000E+00
 -1         4 3.26502E-05 0.00000E+00 0.00000E+00
 -1         5 3.09994E-05 0.00000E+00 0.00000E+00
 -1         8 4.58207E-05-5.80944E-07 0.00000E+00
 -1         9 3.66549E-05 5.12263E-07 0.00000E+00
 -1        10 3.39230E-05-1.65318E-06 0.00000E+00
 -1        11 3.18000E-05-3.40852E-07 0.00000E+00
 -1        12 2.96992E-05 8.32208E-07 0.00000E+00
 -1        15 1.98747E-05-1.13489E-06 0.00000E+00
 -1        16 2.62127E-05 5.21382E-07 0.00000E+00
 -1        17 2.43505E-05-3.31040E-06 0.00000E+00
 -1        18 2.48901E-05-6.77793E-07 0.00000E+00
 -1        19 2.62929E-05 1.64564E-06 0.00000E+00
 -1        20 2.67117E-05 1.73838E-05 0.00000E+00
 -1        21 2.66974E-05 4.16687E-05 0.00000E+00
 -1        22 6.73700E-06-7.40097E-07 0.00000E+00
 -1        23 9.01629E-06 9.48548E-07 0.00000E+00
 -1        24 9.95152E-06-3.85199E-06 0.00000E+00
 -1        25 2.14367E-05-4.82910E-07 0.00000E+00
 -1        26 2.28986E-05 2.17833E-06 0.00000E+00
 -1        27 2.15354E-05 1.67773E-05 0.00000E+00
 -1        28 1.99326E-05 4.10949E-05 0.00000E+00
 -1        29 0.00000E+00 0.00000E+00 0.00000E+00
 -1        30 3.25472E-06 1.24904E-06 0.00000E+00
 -1        31 4.20367E-06-3.17262E-06 0.00000E+00
 -1        32 0.00000E+00 0.00000E+00 0.00000E+00
 -1        33 1.80527E-05 3.51081E-06 0.00000E+00
 -1        34 1.70768E-05 1.67244E-05 0.00000E+00
 -1        35 1.49244E-05 4.07910E-05 0.00000E+00
 -1        36 5.77246E-05-3.03327E-20 1.32349E-23
 -1        37 5.68040E-05-2.84691E-20 0.00000E+00
 -1        38 5.58852E-05 3.89437E-21 0.00000E+00
 -1        39 5.49609E-05 8.02555E-20 0.00000E+00
 -1        40 5.40364E-05 7.70138E-20 0.00000E+00
 -1        41 5.31108E-05 9.31654E-21-1.32349E-23
 -1        42 5.21851E-05-6.38368E-20 2.64698E-23
 -1        43 5.12592E-05-1.28735E-19 0.00000E+00
 -1        44 5.03333E-05-1.80545E-19 0.00000E+00
 -1        45 4.94075E-05-1.89022E-19 0.00000E+00
 -1        46 4.84818E-05-1.04482E-19 0.00000E+00
 -1        47 4.75568E-05-5.88448E-20-1.32349E-23
 -1        48 4.66319E-05-6.42579E-20 2.64698E-23
 -1        49 4.57106E-05-4.66604E-20 0.00000E+00
 -1        50 4.47882E-05-1.03910E-20-2.64698E-23
 -1        51 5.76582E-05-9.90852E-08 0.00000E+00
 -1        52 5.60614E-05-1.93521E-07 0.00000E+00
 -1        53 5.39493E-05-2.87303E-07 0.00000E+00
 -1        54 5.14516E-05-3.81781E-07 0.00000E+00
 -1        55 4.86985E-05-4.78189E-07 6.20385E-24
 -1        56 5.74809E-05-4.79656E-07 0.00000E+00
 -1        57 5.63333E-05-1.05183E-06 1.32349E-23
 -1        58 5.52030E-05-1.66333E-06-2.64698E-23
 -1        59 5.40665E-05-2.27958E-06-1.32349E-23
 -1        60 5.29162E-05-2.85987E-06-2.64698E-23
 -1        61 5.17372E-05-3.36730E-06-1.32349E-23
 -1        62 5.05179E-05-3.76782E-06-2.64698E-23
 -1        63 4.92467E-05-4.03054E-06-1.32349E-23
 -1        64 4.79146E-05-4.13089E-06 0.00000E+00
 -1        65 4.65140E-05-4.04845E-06-1.32349E-23
 -1        66 4.50406E-05-3.77146E-06-2.64698E-23
 -1        67 4.34927E-05-3.29276E-06 0.00000E+00
 -1        68 4.18703E-05-2.61531E-06 0.00000E+00
 -1        69 4.01829E-05-1.74443E-06-1.32349E-23
 -1        70 3.84277E-05-7.00146E-07 0.00000E+00
 -1        71 4.34230E-05-6.79219E-20 0.00000E+00
 -1        72 4.29602E-05-1.78051E-19 0.00000E+00
 -1        73 4.24975E-05-2.87578E-19 1.32349E-23
 -1        74 4.20347E-05-3.86379E-19 0.00000E+00
 -1        75 4.15719E-05-5.28037E-19 0.00000E+00
 -1        76 4.11091E-05-6.42683E-19 0.00000E+00
 -1        77 4.06463E-05-7.39628E-19 0.00000E+00
 -1        78 4.01835E-05-7.86408E-19 0.00000E+00
 -1        79 3.97206E-05-7.61938E-19-1.32349E-23
 -1        80 3.92579E-05-7.09429E-19-6.61744E-24
 -1        81 3.87952E-05-6.07805E-19 1.32349E-23
 -1        82 3.83327E-05-4.88939E-19 0.00000E+00
 -1        83 3.78703E-05-3.08636E-19-1.32349E-23
 -1        84 3.74092E-05-1.21301E-19-6.61744E-24
 -1        85 3.69476E-05-2.17416E-20 0.00000E+00
 -1        86 4.36051E-05 7.02043E-08 6.61744E-24
 -1        87 4.27786E-05 1.61509E-07-8.27181E-25
 -1        88 4.15417E-05 2.50948E-07-2.06795E-25
 -1        89 4.00286E-05 3.41673E-07-2.06795E-25
 -1        90 3.83598E-05 4.33167E-07 3.30872E-24
 -1        91 4.47033E-05-3.70182E-06-1.32349E-23
 -1        92 4.80815E-05-1.43772E-05 0.00000E+00
 -1        93 5.32701E-05-3.00630E-05 1.32349E-23
 -1        94 5.95051E-05-4.86849E-05 0.00000E+00
 -1        95 6.57610E-05-6.73657E-05 0.00000E+00
 -1        96 7.10119E-05-8.32265E-05 0.00000E+00
 -1        97 7.44838E-05-9.41605E-05 0.00000E+00
 -1        98 7.54146E-05-9.81713E-05 0.00000E+00
 -1        99 7.37065E-05-9.51392E-05 1.32349E-23
 -1       100 6.93149E-05-8.50896E-05-6.61744E-24
 -1       101 6.29391E-05-6.99348E-05 0.00000E+00
 -1       102 5.53443E-05-5.16827E-05-6.61744E-24
 -1       103 4.76471E-05-3.31718E-05 1.32349E-23
 -1       104 4.09703E-05-1.72440E-05 0.00000E+00
 -1       105 3.61381E-05-6.05121E-06 0.00000E+00
 -1       106 3.62502E-05-4.32202E-22 0.00000E+00
 -1       107 3.60094E-05 7.72183E-20 0.00000E+00
 -1       108 3.57684E-05 9.66205E-20-6.61744E-24
 -1       109 3.55279E-05 1.38839E-19 0.00000E+00
 -1       110 3.52874E-05 1.71186E-19 0.00000E+00
 -1       111 3.50469E-05 2.25070E-19-3.30872E-24
 -1       112 3.48065E-05 2.77100E-19 6.61744E-24
 -1       113 3.45661E-05 2.72253E-19 0.00000E+00
 -1       114 3.43257E-05 2.34204E-19 0.00000E+00
 -1       115 3.40853E-05 2.21483E-19 0.00000E+00
 -1       116 3.38449E-05 1.18035E-19-6.61744E-24
 -1       117 3.36048E-05 1.85367E-20 3.30872E-24
 -1       118 3.33646E-05-4.39508E-20-6.61744E-24
 -1       119 3.31252E-05-5.55059E-20 3.30872E-24
 -1       120 3.28856E-05-1.19079E-20-6.61744E-24
 -1       121 3.64651E-05-2.75890E-07 6.61744E-24
 -1       122 3.63359E-05-5.51110E-07 3.30872E-24
 -1       123 3.60608E-05-8.26388E-07-6.61744E-24
 -1       124 3.55959E-05-1.10170E-06 0.00000E+00
 -1       125 3.48976E-05-1.37712E-06 6.61744E-24
 -1       126 3.62481E-05-1.55120E-07-6.61744E-24
 -1       127 3.60452E-05-4.19133E-07 0.00000E+00
 -1       128 3.58722E-05-7.63180E-07 0.00000E+00
 -1       129 3.57181E-05-1.15700E-06 0.00000E+00
 -1       130 3.55685E-05-1.56266E-06 0.00000E+00
 -1       131 3.54090E-05-1.94200E-06 3.30872E-24
 -1       132 3.52271E-05-2.26144E-06-6.61744E-24
 -1       133 3.50104E-05-2.48799E-06 0.00000E+00
 -1       134 3.47517E-05-2.60247E-06-6.61744E-24
 -1       135 3.44443E-05-2.58694E-06 3.30872E-24
 -1       136 3.40887E-05-2.44303E-06 0.00000E+00
 -1       137 3.36862E-05-2.17369E-06-3.30872E-24
 -1       138 3.32449E-05-1.80102E-06-6.61744E-24
 -1       139 3.27743E-05-1.34783E-06 0.00000E+00
 -1       140 3.22866E-05-8.49814E-07 0.00000E+00
 -1       141 3.25445E-05-9.42541E-21 0.00000E+00
 -1       142 3.24402E-05-2.52185E-20-1.65436E-24
 -1       143 3.23357E-05 7.25510E-21 0.00000E+00
 -1       144 3.22316E-05 3.35783E-20 0.00000E+00
 -1       145 3.21274E-05 1.02799E-20-3.30872E-24
 -1       146 3.20233E-05 3.29563E-20 1.65436E-24
 -1       147 3.19192E-05 5.67036E-20 0.00000E+00
 -1       148 3.18152E-05 7.47788E-20-1.65436E-24
 -1       149 3.17111E-05 6.49638E-20 3.30872E-24
 -1       150 3.16071E-05 7.19485E-20-1.65436E-24
 -1       151 3.15032E-05 9.27888E-20 3.30872E-24
 -1       152 3.13997E-05 8.60121E-20 0.00000E+00
 -1       153 3.12962E-05 7.55453E-20 0.00000E+00
 -1       154 3.11945E-05 6.08857E-20-8.27181E-25
 -1       155 3.10922E-05 1.15487E-20 4.13590E-25
 -1       156 3.26628E-05-5.86577E-08 3.30872E-24
 -1       157 3.26952E-05-1.14170E-07 1.65436E-24
 -1       158 3.26856E-05-1.69920E-07 0.00000E+00
 -1       159 3.25722E-05-2.25783E-07 0.00000E+00
 -1       160 3.22965E-05-2.81409E-07 0.00000E+00
 -1       161 3.25096E-05-6.73761E-08 0.00000E+00
 -1       162 3.23781E-05-1.59871E-07 0.00000E+00
 -1       163 3.22520E-05-2.66921E-07 3.30872E-24
 -1       164 3.21274E-05-3.78048E-07 0.00000E+00
 -1       165 3.20002E-05-4.82234E-07 0.00000E+00
 -1       166 3.18663E-05-5.68544E-07 0.00000E+00
 -1       167 3.17222E-05-6.27777E-07 0.00000E+00
 -1       168 3.15646E-05-6.50896E-07 1.65436E-24
 -1       169 3.13912E-05-6.31852E-07-3.30872E-24
 -1       170 3.11999E-05-5.64819E-07 1.65436E-24
 -1       171 3.09900E-05-4.48094E-07 0.00000E+00
 -1       172 3.07613E-05-2.80128E-07-1.65436E-24
 -1       173 3.05145E-05-6.39550E-08 0.00000E+00
 -1       174 3.02528E-05 1.98002E-07 0.00000E+00
 -1       175 2.99762E-05 4.97647E-07-4.13590E-25
 -1       191 3.09532E-05 1.38549E-07 0.00000E+00
 -1       192 3.08362E-05 2.77381E-07 0.00000E+00
 -1       193 3.06501E-05 4.16271E-07 0.00000E+00
 -1       194 3.03969E-05 5.55134E-07 0.00000E+00
 -1       195 3.00790E-05 6.93879E-07 0.00000E+00
 -1       251 4.52700E-05 3.02740E-06 1.32349E-23
 -1       252 4.46941E-05 9.19824E-06-6.61744E-24
 -1       253 4.41093E-05 1.68975E-05 0.00000E+00
 -1       254 4.35184E-05 2.50556E-05 0.00000E+00
 -1       255 4.29328E-05 3.24809E-05-1.32349E-23
 -1       256 4.23585E-05 3.79989E-05 0.00000E+00
 -1       257 4.17944E-05 4.09439E-05 0.00000E+00
 -1       258 4.12343E-05 4.07093E-05 0.00000E+00
 -1       259 4.06695E-05 3.75366E-05 0.00000E+00
 -1       260 4.00935E-05 3.17348E-05 0.00000E+00
 -1       261 3.95076E-05 2.43146E-05 0.00000E+00
 -1       262 3.89180E-05 1.63232E-05 0.00000E+00
 -1       263 3.83329E-05 8.96093E-06 0.00000E+00
 -1       264 3.77616E-05 3.41341E-06 0.00000E+00
 -1       265 3.71995E-05 3.82544E-07 0.00000E+00
 -1       266 4.32779E-05-6.72827E-07 0.00000E+00
 -1       267 4.02292E-05-7.59712E-07 1.65436E-24
 -1       268 3.65112E-05-8.49160E-07 0.00000E+00
 -1       269 3.19632E-05-9.40173E-07 8.27181E-25
 -1       270 2.64587E-05-1.03595E-06 0.00000E+00
 -1       271 4.40466E-05 1.04888E-06 0.00000E+00
 -1       272 4.24335E-05 2.14603E-06-1.32349E-23
 -1       273 4.09960E-05 2.77966E-06-2.64698E-23
 -1       274 3.97047E-05 3.00886E-06 0.00000E+00
 -1       275 3.85392E-05 2.90119E-06 0.00000E+00
 -1       276 3.74730E-05 2.52623E-06 0.00000E+00
 -1       277 3.64794E-05 1.95694E-06 0.00000E+00
 -1       278 3.55305E-05 1.26828E-06 0.00000E+00
 -1       279 3.45976E-05 5.36582E-07 0.00000E+00
 -1       280 3.36522E-05-1.61318E-07 0.00000E+00
 -1       281 3.26658E-05-7.49038E-07 0.00000E+00
 -1       282 3.16108E-05-1.15127E-06 0.00000E+00
 -1       283 3.04593E-05-1.29509E-06 0.00000E+00
 -1       284 2.91896E-05-1.10877E-06 0.00000E+00
 -1       285 2.77705E-05-5.28047E-07 0.00000E+00
 -1       286 3.64812E-05 1.99673E-06 6.61744E-24
 -1       287 3.63106E-05 3.01468E-06 0.00000E+00
 -1       288 3.61401E-05 3.57787E-06-6.61744E-24
 -1       289 3.59703E-05 3.70117E-06 3.30872E-24
 -1       290 3.58005E-05 3.43736E-06 0.00000E+00
 -1       291 3.56307E-05 2.84187E-06 3.30872E-24
 -1       292 3.54607E-05 1.99869E-06 0.00000E+00
 -1       293 3.52906E-05 9.93508E-07 0.00000E+00
 -1       294 3.51204E-05-7.40293E-08 0.00000E+00
 -1       295 3.49502E-05-1.10385E-06 0.00000E+00
 -1       296 3.47801E-05-1.99914E-06-6.61744E-24
 -1       297 3.46100E-05-2.66400E-06-3.30872E-24
 -1       298 3.44400E-05-3.02237E-06 0.00000E+00
 -1       299 3.42692E-05-3.00032E-06 0.00000E+00
 -1       300 3.40986E-05-2.55668E-06 0.00000E+00
 -1       301 3.49128E-05 5.06888E-07 0.00000E+00
 -1       302 3.31633E-05 5.11864E-07 0.00000E+00
 -1       303 3.14123E-05 5.18687E-07 1.65436E-24
 -1       304 2.96661E-05 5.25281E-07 1.65436E-24
 -1       305 2.79309E-05 5.29519E-07 0.00000E+00
 -1       306 3.53900E-05 1.65758E-06 0.00000E+00
 -1       307 3.43034E-05 2.26159E-06 0.00000E+00
 -1       308 3.33926E-05 2.39990E-06 0.00000E+00
 -1       309 3.26266E-05 2.14233E-06 0.00000E+00
 -1       310 3.19802E-05 1.56436E-06 0.00000E+00
 -1       311 3.14245E-05 7.42944E-07 0.00000E+00
 -1       312 3.09300E-05-2.42748E-07 0.00000E+00
 -1       313 3.04669E-05-1.31238E-06 0.00000E+00
 -1       314 3.00049E-05-2.38486E-06 0.00000E+00
 -1       315 2.95137E-05-3.37907E-06 0.00000E+00
 -1       316 2.89633E-05-4.21462E-06 0.00000E+00
 -1       317 2.83245E-05-4.81224E-06 0.00000E+00
 -1       318 2.75680E-05-5.09480E-06 0.00000E+00
 -1       319 2.66692E-05-4.98648E-06 6.61744E-24
 -1       320 2.55965E-05-4.41740E-06 1.32349E-23
 -1       321 3.37833E-05-6.45370E-07-6.61744E-24
 -1       322 3.36501E-05 1.09739E-07 3.30872E-24
 -1       323 3.35166E-05 6.22086E-07 3.30872E-24
 -1       324 3.33843E-05 9.02928E-07 1.65436E-24
 -1       325 3.32521E-05 9.79109E-07 3.30872E-24
 -1       326 3.31202E-05 8.78578E-07 0.00000E+00
 -1       327 3.29883E-05 6.41171E-07-3.30872E-24
 -1       328 3.28564E-05 3.07469E-07 1.65436E-24
 -1       329 3.27245E-05-7.54674E-08 3.30872E-24
 -1       330 3.25925E-05-4.60322E-07 0.00000E+00
 -1       331 3.24606E-05-7.99639E-07-3.30872E-24
 -1       332 3.23287E-05-1.04621E-06 1.65436E-24
 -1       333 3.21969E-05-1.15907E-06 0.00000E+00
 -1       334 3.20648E-05-1.09798E-06 1.65436E-24
 -1       335 3.19328E-05-8.34386E-07-3.30872E-24
 -1       336 3.26537E-05-1.93075E-06 0.00000E+00
 -1       337 3.11741E-05-2.20802E-06 0.00000E+00
 -1       338 2.95436E-05-2.48539E-06-6.61744E-24
 -1       339 2.78226E-05-2.76205E-06 3.30872E-24
 -1       340 2.60714E-05-3.03884E-06-6.61744E-24
 -1       341 3.27568E-05 3.96848E-08 0.00000E+00
 -1       342 3.10384E-05 3.17103E-06 0.00000E+00
 -1       343 2.89685E-05 7.23103E-06 1.32349E-23
 -1       344 2.67462E-05 1.16882E-05 0.00000E+00
 -1       345 2.46134E-05 1.59096E-05 0.00000E+00
 -1       346 2.28086E-05 1.92657E-05-6.61744E-24
 -1       347 2.14839E-05 2.13520E-05 1.32349E-23
 -1       348 2.07805E-05 2.17882E-05 6.61744E-24
 -1       349 2.06774E-05 2.06230E-05 1.32349E-23
 -1       350 2.11419E-05 1.79368E-05 0.00000E+00
 -1       351 2.19952E-05 1.42051E-05 0.00000E+00
 -1       352 2.30527E-05 9.92463E-06-6.61744E-24
 -1       353 2.40765E-05 5.73505E-06 1.32349E-23
 -1       354 2.48336E-05 2.27587E-06 6.61744E-24
 -1       355 2.51510E-05-6.02015E-09 0.00000E+00
 -1       356 3.16666E-05 2.00347E-07-3.30872E-24
 -1       357 3.15340E-05 6.05371E-07 0.00000E+00
 -1       358 3.14014E-05 8.80872E-07 0.00000E+00
 -1       359 3.12690E-05 1.03419E-06 0.00000E+00
 -1       360 3.11366E-05 1.08093E-06 3.30872E-24
 -1       361 3.10042E-05 1.03727E-06 1.65436E-24
 -1       362 3.08718E-05 9.25491E-07 3.30872E-24
 -1       363 3.07395E-05 7.68248E-07 0.00000E+00
 -1       364 3.06072E-05 5.91262E-07 0.00000E+00
 -1       365 3.04749E-05 4.20365E-07 1.65436E-24
 -1       366 3.03427E-05 2.80980E-07-3.30872E-24
 -1       367 3.02109E-05 1.98352E-07 1.65436E-24
 -1       368 3.00792E-05 1.93899E-07 0.00000E+00
 -1       369 2.99495E-05 2.88616E-07 8.27181E-25
 -1       370 2.98191E-05 4.96822E-07 5.16988E-26
 -1       371 3.09483E-05-4.01052E-07-3.30872E-24
 -1       372 2.96345E-05-4.57723E-07 8.27181E-25
 -1       373 2.81153E-05-5.14879E-07-1.65436E-24
 -1       374 2.66477E-05-5.70608E-07 0.00000E+00
 -1       375 2.54876E-05-6.26134E-07 0.00000E+00
 -1       376 3.13328E-05 1.21235E-07 6.61744E-24
 -1       377 3.08995E-05 4.79313E-07-3.30872E-24
 -1       378 3.05068E-05 7.30090E-07-6.61744E-24
 -1       379 3.01551E-05 8.69187E-07 3.30872E-24
 -1       380 2.98403E-05 9.09670E-07 0.00000E+00
 -1       381 2.95573E-05 8.65310E-07-3.30872E-24
 -1       382 2.92960E-05 7.62782E-07 6.61744E-24
 -1       383 2.90463E-05 6.29342E-07 0.00000E+00
 -1       384 2.87962E-05 4.97056E-07 0.00000E+00
 -1       385 2.85337E-05 3.98009E-07 0.00000E+00
 -1       386 2.82488E-05 3.58788E-07 6.61744E-24
 -1       387 2.79322E-05 4.05494E-07 0.00000E+00
 -1       388 2.75785E-05 5.51334E-07 6.61744E-24
 -1       389 2.71854E-05 8.09536E-07-3.30872E-24
 -1       390 2.67513E-05 1.17434E-06 0.00000E+00
 -1       406 2.92345E-05 9.68490E-07 0.00000E+00
 -1       407 2.87181E-05 1.10499E-06 0.00000E+00
 -1       408 2.81577E-05 1.24143E-06-6.61744E-24
 -1       409 2.75613E-05 1.37754E-06 0.00000E+00
 -1       410 2.69370E-05 1.51290E-06 0.00000E+00
 -1       466 2.02409E-05 4.77473E-06 0.00000E+00
 -1       467 2.06346E-05 8.31897E-06-3.30872E-24
 -1       468 2.10320E-05 1.01051E-05 0.00000E+00
 -1       469 2.14339E-05 1.07106E-05 6.61744E-24
 -1       470 2.18360E-05 1.04480E-05 0.00000E+00
 -1       471 2.22385E-05 9.61500E-06-6.61744E-24
 -1       472 2.26407E-05 8.38103E-06 0.00000E+00
 -1       473 2.30426E-05 6.90877E-06 6.61744E-24
 -1       474 2.34444E-05 5.30715E-06 0.00000E+00
 -1       475 2.38459E-05 3.68297E-06-6.61744E-24
 -1       476 2.42474E-05 2.13798E-06-1.32349E-23
 -1       477 2.46481E-05 7.75191E-07 6.61744E-24
 -1       478 2.50490E-05-2.61323E-07 0.00000E+00
 -1       479 2.54451E-05-8.22025E-07 3.30872E-24
 -1       480 2.58430E-05-6.50693E-07 0.00000E+00
 -1       481 1.39284E-05-1.08468E-06 8.27181E-25
 -1       482 1.02885E-05-1.02052E-06 0.00000E+00
 -1       483 8.34151E-06-9.51837E-07-1.65436E-24
 -1       484 7.47893E-06-8.81262E-07 8.27181E-25
 -1       485 7.13287E-06-8.10234E-07 0.00000E+00
 -1       486 1.55098E-05 9.08671E-06 6.61744E-24
 -1       487 8.64043E-06 2.56808E-05 0.00000E+00
 -1       488 2.17152E-07 4.62099E-05 0.00000E+00
 -1       489-8.77804E-06 6.81650E-05 0.00000E+00
 -1       490-1.72097E-05 8.87036E-05 0.00000E+00
 -1       491-2.39652E-05 1.05004E-04 0.00000E+00
 -1       492-2.83629E-05 1.15250E-04 0.00000E+00
 -1       493-2.97900E-05 1.17722E-04 0.00000E+00
 -1       494-2.83613E-05 1.12554E-04 1.32349E-23
 -1       495-2.42393E-05 1.00017E-04 0.00000E+00
 -1       496-1.82043E-05 8.21546E-05 1.32349E-23
 -1       497-1.10439E-05 6.11140E-05 0.00000E+00
 -1       498-3.79230E-06 3.98156E-05-1.32349E-23
 -1       499 2.51889E-06 2.11854E-05-6.61744E-24
 -1       500 7.05791E-06 7.50138E-06 0.00000E+00
 -1       501 2.60888E-05 1.91124E-06 0.00000E+00
 -1       502 2.59722E-05 2.70642E-06 0.00000E+00
 -1       503 2.58555E-05 2.95847E-06-3.30872E-24
 -1       504 2.57400E-05 2.72149E-06 0.00000E+00
 -1       505 2.56244E-05 2.07843E-06 0.00000E+00
 -1       506 2.55088E-05 1.11415E-06 1.65436E-24
 -1       507 2.53930E-05-6.75735E-08 0.00000E+00
 -1       508 2.52771E-05-1.36194E-06-1.65436E-24
 -1       509 2.51612E-05-2.65752E-06 0.00000E+00
 -1       510 2.50455E-05-3.84285E-06 1.65436E-24
 -1       511 2.49300E-05-4.81300E-06 3.30872E-24
 -1       512 2.48146E-05-5.46403E-06 0.00000E+00
 -1       513 2.46995E-05-5.71078E-06 0.00000E+00
 -1       514 2.45840E-05-5.47002E-06 1.65436E-24
 -1       515 2.44684E-05-4.68722E-06-3.30872E-24
 -1       516 2.35862E-05 5.83885E-07 3.30872E-24
 -1       517 1.91984E-05 6.54860E-07 0.00000E+00
 -1       518 1.42928E-05 7.22673E-07-8.27181E-25
 -1       519 1.01105E-05 7.95239E-07-4.13590E-25
 -1       520 7.92499E-06 8.73933E-07 0.00000E+00
 -1       521 2.47369E-05 1.55950E-06 2.64698E-23
 -1       522 2.34294E-05 2.05976E-06 0.00000E+00
 -1       523 2.22959E-05 2.09956E-06-2.64698E-23
 -1       524 2.13041E-05 1.74810E-06 0.00000E+00
 -1       525 2.04297E-05 1.08204E-06-2.64698E-23
 -1       526 1.96429E-05 1.79844E-07 0.00000E+00
 -1       527 1.89138E-05-8.77236E-07 0.00000E+00
 -1       528 1.82117E-05-2.00652E-06 1.32349E-23
 -1       529 1.75053E-05-3.12452E-06 0.00000E+00
 -1       530 1.67637E-05-4.14784E-06 0.00000E+00
 -1       531 1.59559E-05-4.99418E-06 0.00000E+00
 -1       532 1.50524E-05-5.58288E-06 1.32349E-23
 -1       533 1.40238E-05-5.83629E-06-2.64698E-23
 -1       534 1.28457E-05-5.67887E-06 0.00000E+00
 -1       535 1.14867E-05-5.04256E-06 0.00000E+00
 -1       536 2.43747E-05-1.83200E-06 1.65436E-24
 -1       537 2.44073E-05-7.08439E-07 0.00000E+00
 -1       538 2.44400E-05 9.88202E-08 2.06795E-25
 -1       539 2.44741E-05 6.28499E-07 2.06795E-25
 -1       540 2.45085E-05 9.19156E-07 8.27181E-25
 -1       541 2.45432E-05 1.00929E-06 0.00000E+00
 -1       542 2.45779E-05 9.37354E-07 8.27181E-25
 -1       543 2.46126E-05 7.41717E-07 0.00000E+00
 -1       544 2.46474E-05 4.60733E-07-8.27181E-25
 -1       545 2.46821E-05 1.32713E-07-4.13590E-25
 -1       546 2.47169E-05-2.04039E-07 0.00000E+00
 -1       547 2.47516E-05-5.11219E-07 0.00000E+00
 -1       548 2.47864E-05-7.50525E-07 8.27181E-25
 -1       549 2.48211E-05-8.83630E-07 4.13590E-25
 -1       550 2.48558E-05-8.72148E-07-8.27181E-25
 -1       551 2.21988E-05-3.39995E-06-2.11965E-24
 -1       552 1.98081E-05-3.48709E-06 2.06795E-25
 -1       553 1.72823E-05-3.57421E-06-3.30872E-24
 -1       554 1.47273E-05-3.66224E-06-3.30872E-24
 -1       555 1.22489E-05-3.75225E-06 0.00000E+00
 -1       556 2.37126E-05-1.93098E-06 1.32349E-23
 -1       557 2.31954E-05-8.65203E-07 0.00000E+00
 -1       558 2.27853E-05-8.28713E-08 0.00000E+00
 -1       559 2.24695E-05 4.49195E-07 0.00000E+00
 -1       560 2.22354E-05 7.64244E-07 0.00000E+00
 -1       561 2.20702E-05 8.95821E-07 0.00000E+00
 -1       562 2.19613E-05 8.77502E-07 0.00000E+00
 -1       563 2.18960E-05 7.42907E-07 0.00000E+00
 -1       564 2.18617E-05 5.25672E-07 0.00000E+00
 -1       565 2.18458E-05 2.59443E-07-1.65436E-24
 -1       566 2.18357E-05-2.21223E-08-3.30872E-24
 -1       567 2.18187E-05-2.85362E-07 8.27181E-25
 -1       568 2.17824E-05-4.96624E-07 1.65436E-24
 -1       569 2.17144E-05-6.22293E-07 6.20385E-25
 -1       570 2.16024E-05-6.28785E-07-4.13590E-25
 -1       571 2.49741E-05-4.64801E-07-3.10193E-25
 -1       572 2.50609E-05-3.17090E-07 2.06795E-25
 -1       573 2.51485E-05-2.23157E-07 8.27181E-25
 -1       574 2.52364E-05-1.70910E-07-8.27181E-25
 -1       575 2.53245E-05-1.48206E-07 1.65436E-24
 -1       576 2.54127E-05-1.42830E-07 0.00000E+00
 -1       577 2.55008E-05-1.42559E-07-3.30872E-24
 -1       578 2.55890E-05-1.35162E-07 1.65436E-24
 -1       579 2.56772E-05-1.08406E-07 3.30872E-24
 -1       580 2.57654E-05-5.00578E-08 1.65436E-24
 -1       581 2.58536E-05 5.21144E-08 0.00000E+00
 -1       582 2.59417E-05 2.10333E-07 0.00000E+00
 -1       583 2.60299E-05 4.36811E-07 0.00000E+00
 -1       584 2.61179E-05 7.43645E-07 0.00000E+00
 -1       585 2.62057E-05 1.14287E-06 0.00000E+00
 -1       586 2.43896E-05-6.44678E-07 0.00000E+00
 -1       587 2.38168E-05-6.11251E-07 0.00000E+00
 -1       588 2.32029E-05-5.77857E-07 0.00000E+00
 -1       589 2.25802E-05-5.44793E-07 1.93870E-25
 -1       590 2.19810E-05-5.12479E-07 0.00000E+00
 -1       591 2.47446E-05-4.32133E-07 0.00000E+00
 -1       592 2.46115E-05-2.29512E-07 0.00000E+00
 -1       593 2.44908E-05-6.21257E-08 0.00000E+00
 -1       594 2.43803E-05 7.72469E-08 1.65436E-24
 -1       595 2.42774E-05 1.95822E-07 1.65436E-24
 -1       596 2.41795E-05 3.00775E-07 0.00000E+00
 -1       597 2.40841E-05 3.99273E-07-1.65436E-24
 -1       598 2.39884E-05 4.98479E-07 8.27181E-25
 -1       599 2.38897E-05 6.05557E-07 8.27181E-25
 -1       600 2.37855E-05 7.27666E-07 4.13590E-25
 -1       601 2.36729E-05 8.71967E-07 0.00000E+00
 -1       602 2.35493E-05 1.04563E-06 4.13590E-25
 -1       603 2.34122E-05 1.25583E-06-1.65436E-24
 -1       604 2.32592E-05 1.50977E-06 1.03398E-25
 -1       605 2.30878E-05 1.81467E-06 0.00000E+00
 -1       606 2.63222E-05 2.31086E-06 0.00000E+00
 -1       607 2.63494E-05 3.03752E-06 0.00000E+00
 -1       608 2.63759E-05 3.82201E-06-3.30872E-24
 -1       609 2.64021E-05 4.66023E-06 0.00000E+00
 -1       610 2.64282E-05 5.54806E-06 0.00000E+00
 -1       611 2.64542E-05 6.48130E-06 0.00000E+00
 -1       612 2.64801E-05 7.45572E-06 0.00000E+00
 -1       613 2.65060E-05 8.46712E-06 8.27181E-25
 -1       614 2.65319E-05 9.51130E-06 0.00000E+00
 -1       615 2.65577E-05 1.05840E-05 0.00000E+00
 -1       616 2.65835E-05 1.16811E-05 0.00000E+00
 -1       617 2.66092E-05 1.27982E-05 0.00000E+00
 -1       618 2.66350E-05 1.39313E-05 1.65436E-24
 -1       619 2.66607E-05 1.50761E-05 0.00000E+00
 -1       620 2.66863E-05 1.62283E-05 0.00000E+00
 -1       621 2.56626E-05 1.73460E-06 1.65436E-24
 -1       622 2.50485E-05 1.82413E-06 8.27181E-25
 -1       623 2.44579E-05 1.91371E-06-1.65436E-24
 -1       624 2.38980E-05 2.00308E-06 8.27181E-25
 -1       625 2.33760E-05 2.09194E-06 0.00000E+00
 -1       626 2.60917E-05 2.34071E-06 0.00000E+00
 -1       627 2.58652E-05 3.09983E-06 0.00000E+00
 -1       628 2.56164E-05 3.91718E-06 0.00000E+00
 -1       629 2.53482E-05 4.78612E-06 0.00000E+00
 -1       630 2.50630E-05 5.70000E-06 0.00000E+00
 -1       631 2.47634E-05 6.65202E-06-1.65436E-24
 -1       632 2.44521E-05 7.63540E-06 0.00000E+00
 -1       633 2.41314E-05 8.64338E-06 0.00000E+00
 -1       634 2.38041E-05 9.66916E-06 0.00000E+00
 -1       635 2.34727E-05 1.07059E-05 8.27181E-25
 -1       636 2.31396E-05 1.17470E-05 0.00000E+00
 -1       637 2.28075E-05 1.27854E-05 4.13590E-25
 -1       638 2.24787E-05 1.38145E-05-1.65436E-24
 -1       639 2.21559E-05 1.48274E-05-2.06795E-25
 -1       640 2.18411E-05 1.58173E-05-4.13590E-25
 -1       641 2.67125E-05 1.85848E-05 4.13590E-25
 -1       642 2.67123E-05 1.99133E-05 1.03398E-25
 -1       643 2.67120E-05 2.13509E-05-1.03398E-25
 -1       644 2.67115E-05 2.28794E-05 2.58494E-26
 -1       645 2.67108E-05 2.44805E-05 0.00000E+00
 -1       646 2.67100E-05 2.61360E-05 1.29247E-26
 -1       647 2.67091E-05 2.78277E-05 1.29247E-26
 -1       648 2.67082E-05 2.95372E-05 0.00000E+00
 -1       649 2.67072E-05 3.12464E-05 0.00000E+00
 -1       650 2.67063E-05 3.29370E-05 0.00000E+00
 -1       651 2.67055E-05 3.45908E-05 5.16988E-26
 -1       652 2.67045E-05 3.61896E-05-5.16988E-26
 -1       653 2.67037E-05 3.77150E-05 0.00000E+00
 -1       654 2.67024E-05 3.91488E-05 0.00000E+00
 -1       655 2.67014E-05 4.04728E-05 0.00000E+00
 -1       656 2.56685E-05 1.72860E-05 0.00000E+00
 -1       657 2.47623E-05 1.71833E-05 0.00000E+00
 -1       658 2.39446E-05 1.70808E-05 0.00000E+00
 -1       659 2.31667E-05 1.69783E-05 0.00000E+00
 -1       660 2.23799E-05 1.68755E-05 1.65436E-24
 -1       661 2.63765E-05 1.86194E-05 0.00000E+00
 -1       662 2.60078E-05 1.99565E-05-1.65436E-24
 -1       663 2.56069E-05 2.13788E-05-3.30872E-24
 -1       664 2.51799E-05 2.28722E-05 0.00000E+00
 -1       665 2.47317E-05 2.44220E-05 0.00000E+00
 -1       666 2.42678E-05 2.60138E-05 0.00000E+00
 -1       667 2.37935E-05 2.76333E-05 0.00000E+00
 -1       668 2.33142E-05 2.92663E-05 0.00000E+00
 -1       669 2.28351E-05 3.08985E-05 3.30872E-24
 -1       670 2.23617E-05 3.25156E-05-1.65436E-24
 -1       671 2.18993E-05 3.41033E-05 0.00000E+00
 -1       672 2.14532E-05 3.56473E-05 0.00000E+00
 -1       673 2.10289E-05 3.71333E-05-3.30872E-24
 -1       674 2.06309E-05 3.85465E-05-1.65436E-24
 -1       675 2.02658E-05 3.98727E-05 0.00000E+00
 -1       676 2.55669E-05 4.15729E-05 0.00000E+00
 -1       677 2.44375E-05 4.14766E-05 0.00000E+00
 -1       678 2.33092E-05 4.13803E-05 3.30872E-24
 -1       679 2.21822E-05 4.12843E-05 0.00000E+00
 -1       680 2.10566E-05 4.11883E-05 0.00000E+00
 -1       681 6.87651E-06-2.12371E-07-3.30872E-24
 -1       682 7.01989E-06 4.74467E-07 0.00000E+00
 -1       683 7.16295E-06 1.27492E-06 0.00000E+00
 -1       684 7.30670E-06 2.14414E-06 0.00000E+00
 -1       685 7.45044E-06 3.04260E-06-3.30872E-24
 -1       686 7.59434E-06 3.93093E-06 0.00000E+00
 -1       687 7.73830E-06 4.76900E-06 0.00000E+00
 -1       688 7.88235E-06 5.51635E-06 0.00000E+00
 -1       689 8.02647E-06 6.12554E-06 0.00000E+00
 -1       690 8.17062E-06 6.54832E-06 0.00000E+00
 -1       691 8.31480E-06 6.72203E-06 0.00000E+00
 -1       692 8.45865E-06 6.58256E-06 0.00000E+00
 -1       693 8.60231E-06 6.04165E-06 0.00000E+00
 -1       694 8.74392E-06 5.00864E-06 0.00000E+00
 -1       695 8.88527E-06 3.35501E-06 0.00000E+00
 -1       696 6.07935E-06-6.19614E-07 0.00000E+00
 -1       697 5.01421E-06-4.96233E-07 1.65436E-24
 -1       698 3.70919E-06-3.73300E-07 0.00000E+00
 -1       699 2.33070E-06-2.49558E-07 0.00000E+00
 -1       700 1.04031E-06-1.25779E-07 0.00000E+00
 -1       701 6.46306E-06-4.42052E-07 0.00000E+00
 -1       702 6.25134E-06-3.34359E-07 0.00000E+00
 -1       703 6.10009E-06-3.86213E-07 3.30872E-24
 -1       704 5.99655E-06-5.69765E-07 0.00000E+00
 -1       705 5.92710E-06-8.44304E-07 3.30872E-24
 -1       706 5.87621E-06-1.16920E-06 0.00000E+00
 -1       707 5.82718E-06-1.49914E-06 0.00000E+00
 -1       708 5.76305E-06-1.78888E-06 0.00000E+00
 -1       709 5.66823E-06-1.99676E-06 3.30872E-24
 -1       710 5.52734E-06-2.08164E-06 1.65436E-24
 -1       711 5.32899E-06-2.01323E-06-3.30872E-24
 -1       712 5.06240E-06-1.76216E-06 1.65436E-24
 -1       713 4.72231E-06-1.31532E-06 0.00000E+00
 -1       714 4.30561E-06-6.60196E-07 0.00000E+00
 -1       715 3.81267E-06 1.96101E-07 0.00000E+00
 -1       716 9.06810E-06-1.63303E-06-2.06795E-25
 -1       717 9.12636E-06-3.80198E-06 0.00000E+00
 -1       718 9.18500E-06-5.59662E-06 0.00000E+00
 -1       719 9.24520E-06-7.05431E-06 0.00000E+00
 -1       720 9.30583E-06-8.20154E-06 0.00000E+00
 -1       721 9.36693E-06-9.06401E-06 8.27181E-25
 -1       722 9.42824E-06-9.65817E-06 0.00000E+00
 -1       723 9.48968E-06-9.99981E-06 0.00000E+00
 -1       724 9.55115E-06-1.00965E-05 0.00000E+00
 -1       725 9.61251E-06-9.95530E-06 8.27181E-25
 -1       726 9.67373E-06-9.57536E-06 0.00000E+00
 -1       727 9.73427E-06-8.95537E-06-4.13590E-25
 -1       728 9.79454E-06-8.08620E-06 0.00000E+00
 -1       729 9.85168E-06-6.95809E-06 4.13590E-25
 -1       730 9.90943E-06-5.55295E-06 3.30872E-24
 -1       731 1.07930E-05 9.93857E-07 4.13590E-25
 -1       732 1.06046E-05 1.04584E-06 0.00000E+00
 -1       733 9.10882E-06 1.09661E-06 0.00000E+00
 -1       734 6.96065E-06 1.14712E-06 8.27181E-25
 -1       735 4.79701E-06 1.19768E-06 1.65436E-24
 -1       736 9.86493E-06-2.34278E-06 6.61744E-24
 -1       737 1.09713E-05-6.36276E-06-3.30872E-24
 -1       738 1.21938E-05-1.06935E-05-1.32349E-23
 -1       739 1.33745E-05-1.49177E-05 0.00000E+00
 -1       740 1.43683E-05-1.86378E-05-1.32349E-23
 -1       741 1.50295E-05-2.14643E-05 6.61744E-24
 -1       742 1.52775E-05-2.31818E-05 0.00000E+00
 -1       743 1.50361E-05-2.35911E-05 0.00000E+00
 -1       744 1.43245E-05-2.27477E-05 1.32349E-23
 -1       745 1.31687E-05-2.07250E-05 0.00000E+00
 -1       746 1.16818E-05-1.78258E-05 1.32349E-23
 -1       747 9.98264E-06-1.43651E-05-6.61744E-24
 -1       748 8.23150E-06-1.07672E-05-1.32349E-23
 -1       749 6.59161E-06-7.45750E-06 0.00000E+00
 -1       750 5.20035E-06-4.80700E-06 0.00000E+00
 -1       751 1.06265E-05-2.31639E-06-6.61744E-24
 -1       752 1.13441E-05-1.38442E-06 0.00000E+00
 -1       753 1.20595E-05-8.66593E-07 0.00000E+00
 -1       754 1.27829E-05-5.86104E-07 1.32349E-23
 -1       755 1.35066E-05-4.67935E-07 2.64698E-23
 -1       756 1.42319E-05-4.41952E-07-1.32349E-23
 -1       757 1.49573E-05-4.77733E-07 0.00000E+00
 -1       758 1.56831E-05-5.46706E-07-1.32349E-23
 -1       759 1.64088E-05-6.34609E-07-2.64698E-23
 -1       760 1.71344E-05-7.27749E-07 0.00000E+00
 -1       761 1.78599E-05-8.14688E-07 2.64698E-23
 -1       762 1.85842E-05-8.83805E-07-1.32349E-23
 -1       763 1.93084E-05-9.15798E-07 2.64698E-23
 -1       764 2.00268E-05-8.90251E-07 0.00000E+00
 -1       765 2.07470E-05-7.62040E-07 1.32349E-23
 -1       766 8.38041E-06-3.75264E-06-3.30872E-24
 -1       767 7.34609E-06-3.63539E-06 0.00000E+00
 -1       768 6.62785E-06-3.51904E-06 0.00000E+00
 -1       769 6.00670E-06-3.40104E-06 0.00000E+00
 -1       770 5.26979E-06-3.28240E-06 1.03398E-25
 -1       771 8.87426E-06-2.37785E-06 1.32349E-23
 -1       772 7.89214E-06-1.17665E-06 1.32349E-23
 -1       773 7.00267E-06-2.25545E-07 0.00000E+00
 -1       774 6.19778E-06 4.98564E-07 0.00000E+00
 -1       775 5.46926E-06 1.01886E-06 0.00000E+00
 -1       776 4.80844E-06 1.35865E-06 6.61744E-24
 -1       777 4.20657E-06 1.54131E-06 0.00000E+00
 -1       778 3.65487E-06 1.59029E-06 0.00000E+00
 -1       779 3.14453E-06 1.52909E-06 0.00000E+00
 -1       780 2.66671E-06 1.38125E-06 0.00000E+00
 -1       781 2.21258E-06 1.17036E-06 1.32349E-23
 -1       782 1.77338E-06 9.20047E-07 0.00000E+00
 -1       783 1.34034E-06 6.53961E-07 0.00000E+00
 -1       784 9.05111E-07 3.95865E-07 0.00000E+00
 -1       785 4.59437E-07 1.69539E-07 1.32349E-23
 -1       786 2.15227E-05-1.65377E-07 0.00000E+00
 -1       787 2.16138E-05 8.24712E-08 0.00000E+00
 -1       788 2.17049E-05 2.71306E-07 0.00000E+00
 -1       789 2.17968E-05 4.11795E-07 1.65436E-24
 -1       790 2.18888E-05 5.14556E-07 0.00000E+00
 -1       791 2.19809E-05 5.90179E-07 1.65436E-24
 -1       792 2.20731E-05 6.49231E-07 0.00000E+00
 -1       793 2.21653E-05 7.02260E-07 0.00000E+00
 -1       794 2.22575E-05 7.59815E-07-3.30872E-24
 -1       795 2.23498E-05 8.32446E-07 0.00000E+00
 -1       796 2.24419E-05 9.30712E-07 0.00000E+00
 -1       797 2.25341E-05 1.06520E-06 1.65436E-24
 -1       798 2.26261E-05 1.24653E-06-3.30872E-24
 -1       799 2.27178E-05 1.48535E-06 0.00000E+00
 -1       800 2.28095E-05 1.79238E-06-1.65436E-24
 -1       801 1.95109E-05-3.97779E-07 0.00000E+00
 -1       802 1.55229E-05-3.13129E-07 0.00000E+00
 -1       803 1.05249E-05-2.32779E-07 8.27181E-25
 -1       804 5.56980E-06-1.54107E-07-8.27181E-25
 -1       805 1.71078E-06-7.09782E-08 0.00000E+00
 -1       806 2.12168E-05-1.99380E-07 0.00000E+00
 -1       807 2.10044E-05 5.44335E-08 0.00000E+00
 -1       808 2.08001E-05 2.84368E-07 3.30872E-24
 -1       809 2.06022E-05 4.95781E-07 0.00000E+00
 -1       810 2.04092E-05 6.93995E-07-3.30872E-24
 -1       811 2.02191E-05 8.84291E-07-1.65436E-24
 -1       812 2.00299E-05 1.07194E-06 0.00000E+00
 -1       813 1.98397E-05 1.26220E-06 0.00000E+00
 -1       814 1.96466E-05 1.46035E-06 3.30872E-24
 -1       815 1.94486E-05 1.67164E-06-1.65436E-24
 -1       816 1.92437E-05 1.90134E-06 0.00000E+00
 -1       817 1.90299E-05 2.15471E-06 0.00000E+00
 -1       818 1.88054E-05 2.43702E-06 3.30872E-24
 -1       819 1.85685E-05 2.75356E-06-8.27181E-25
 -1       820 1.83175E-05 3.10964E-06 1.65436E-24
 -1       821 2.28187E-05 2.66953E-06 0.00000E+00
 -1       822 2.27338E-05 3.27018E-06-8.27181E-25
 -1       823 2.26489E-05 3.96910E-06 1.65436E-24
 -1       824 2.25631E-05 4.75496E-06 1.65436E-24
 -1       825 2.24772E-05 5.61638E-06 3.30872E-24
 -1       826 2.23911E-05 6.54189E-06-1.65436E-24
 -1       827 2.23050E-05 7.51998E-06-3.30872E-24
 -1       828 2.22187E-05 8.53912E-06 0.00000E+00
 -1       829 2.21324E-05 9.58772E-06 3.30872E-24
 -1       830 2.20462E-05 1.06542E-05 1.65436E-24
 -1       831 2.19599E-05 1.17268E-05 3.30872E-24
 -1       832 2.18738E-05 1.27941E-05 1.65436E-24
 -1       833 2.17877E-05 1.38444E-05 0.00000E+00
 -1       834 2.17023E-05 1.48661E-05 0.00000E+00
 -1       835 2.16169E-05 1.58475E-05 0.00000E+00
 -1       836 2.22966E-05 2.39625E-06 0.00000E+00
 -1       837 2.14653E-05 2.62184E-06 3.30872E-24
 -1       838 2.05150E-05 2.84692E-06 0.00000E+00
 -1       839 1.95560E-05 3.07152E-06 0.00000E+00
 -1       840 1.86985E-05 3.29660E-06 0.00000E+00
 -1       841 2.26973E-05 2.66225E-06 0.00000E+00
 -1       842 2.24493E-05 3.26371E-06-1.03398E-25
 -1       843 2.21615E-05 3.97162E-06 0.00000E+00
 -1       844 2.18379E-05 4.77379E-06 0.00000E+00
 -1       845 2.14836E-05 5.65726E-06 4.13590E-25
 -1       846 2.11037E-05 6.60879E-06 0.00000E+00
 -1       847 2.07035E-05 7.61442E-06 8.27181E-25
 -1       848 2.02882E-05 8.66011E-06 0.00000E+00
 -1       849 1.98632E-05 9.73137E-06 8.27181E-25
 -1       850 1.94341E-05 1.08136E-05 0.00000E+00
 -1       851 1.90063E-05 1.18923E-05 0.00000E+00
 -1       852 1.85854E-05 1.29527E-05 4.13590E-25
 -1       853 1.81768E-05 1.39803E-05 8.27181E-25
 -1       854 1.77858E-05 1.49607E-05 0.00000E+00
 -1       855 1.74177E-05 1.58801E-05 0.00000E+00
 -1       856 2.14405E-05 1.77767E-05 0.00000E+00
 -1       857 2.13409E-05 1.89554E-05-8.27181E-25
 -1       858 2.12412E-05 2.02903E-05 0.00000E+00
 -1       859 2.11406E-05 2.17579E-05 0.00000E+00
 -1       860 2.10398E-05 2.33348E-05 0.00000E+00
 -1       861 2.09387E-05 2.49971E-05 0.00000E+00
 -1       862 2.08374E-05 2.67213E-05 3.30872E-24
 -1       863 2.07361E-05 2.84835E-05 0.00000E+00
 -1       864 2.06348E-05 3.02599E-05 3.30872E-24
 -1       865 2.05334E-05 3.20267E-05 0.00000E+00
 -1       866 2.04322E-05 3.37601E-05 0.00000E+00
 -1       867 2.03311E-05 3.54362E-05 1.65436E-24
 -1       868 2.02302E-05 3.70314E-05 3.30872E-24
 -1       869 2.01299E-05 3.85219E-05 0.00000E+00
 -1       870 2.00298E-05 3.98842E-05 1.65436E-24
 -1       871 2.07263E-05 1.67697E-05 0.00000E+00
 -1       872 1.99683E-05 1.67614E-05 0.00000E+00
 -1       873 1.92431E-05 1.67529E-05 0.00000E+00
 -1       874 1.85319E-05 1.67442E-05 0.00000E+00
 -1       875 1.78161E-05 1.67351E-05-4.13590E-25
 -1       876 2.12928E-05 1.78096E-05 0.00000E+00
 -1       877 2.09976E-05 1.89979E-05 0.00000E+00
 -1       878 2.06518E-05 2.03203E-05 0.00000E+00
 -1       879 2.02638E-05 2.17571E-05 0.00000E+00
 -1       880 1.98404E-05 2.32883E-05 3.30872E-24
 -1       881 1.93889E-05 2.48943E-05 0.00000E+00
 -1       882 1.89167E-05 2.65556E-05 0.00000E+00
 -1       883 1.84309E-05 2.82528E-05 0.00000E+00
 -1       884 1.79389E-05 2.99664E-05 0.00000E+00
 -1       885 1.74480E-05 3.16773E-05 0.00000E+00
 -1       886 1.69654E-05 3.33658E-05 0.00000E+00
 -1       887 1.64983E-05 3.50128E-05 0.00000E+00
 -1       888 1.60541E-05 3.65987E-05-3.30872E-24
 -1       889 1.56393E-05 3.81036E-05 1.65436E-24
 -1       890 1.52624E-05 3.95085E-05 0.00000E+00
 -1       891 1.89531E-05 4.10445E-05-3.30872E-24
 -1       892 1.81616E-05 4.09934E-05 0.00000E+00
 -1       893 1.74607E-05 4.09425E-05 1.65436E-24
 -1       894 1.67526E-05 4.08917E-05-8.27181E-25
 -1       895 1.59396E-05 4.08407E-05-8.27181E-25
 -1       896 2.02196E-07 7.40033E-07 6.61744E-24
 -1       897 4.06228E-07 1.15247E-06 0.00000E+00
 -1       898 6.10232E-07 1.30799E-06 0.00000E+00
 -1       899 8.14559E-07 1.27512E-06 0.00000E+00
 -1       900 1.01888E-06 1.10157E-06-6.61744E-24
 -1       901 1.22324E-06 8.33901E-07 0.00000E+00
 -1       902 1.42760E-06 5.08262E-07 0.00000E+00
 -1       903 1.63194E-06 1.60327E-07 3.30872E-24
 -1       904 1.83628E-06-1.76704E-07-6.61744E-24
 -1       905 2.04059E-06-4.69529E-07 3.30872E-24
 -1       906 2.24488E-06-6.79966E-07-6.61744E-24
 -1       907 2.44894E-06-7.69151E-07 0.00000E+00
 -1       908 2.65296E-06-6.84830E-07 0.00000E+00
 -1       909 2.85567E-06-3.73291E-07 3.30872E-24
 -1       910 3.05867E-06 2.44221E-07 0.00000E+00
 -1       911 3.31373E-06 2.19200E-06 0.00000E+00
 -1       912 3.37389E-06 2.62341E-06 0.00000E+00
 -1       913 3.43410E-06 2.62873E-06-1.65436E-24
 -1       914 3.49440E-06 2.29235E-06 0.00000E+00
 -1       915 3.55460E-06 1.68779E-06 0.00000E+00
 -1       916 3.61469E-06 8.87926E-07 0.00000E+00
 -1       917 3.67467E-06-4.05995E-08 0.00000E+00
 -1       918 3.73459E-06-1.03147E-06 8.27181E-25
 -1       919 3.79451E-06-2.02034E-06 0.00000E+00
 -1       920 3.85443E-06-2.94285E-06-8.27181E-25
 -1       921 3.91442E-06-3.73255E-06-1.65436E-24
 -1       922 3.97429E-06-4.32266E-06-8.27181E-25
 -1       923 4.03423E-06-4.64002E-06 1.65436E-24
 -1       924 4.09291E-06-4.61083E-06 2.06795E-25
 -1       925 4.15192E-06-4.15033E-06 0.00000E+00
 -1       926 3.94731E-06-1.96599E-06 0.00000E+00
 -1       927 3.68486E-06-8.31803E-07 0.00000E+00
 -1       928 3.42292E-06 1.79438E-07-6.61744E-24
 -1       929 3.15997E-06 1.01857E-06-3.30872E-24
 -1       930 2.89712E-06 1.65900E-06 0.00000E+00
 -1       931 2.63415E-06 2.07629E-06-3.30872E-24
 -1       932 2.37122E-06 2.27532E-06-6.61744E-24
 -1       933 2.10825E-06 2.26331E-06 0.00000E+00
 -1       934 1.84525E-06 2.07521E-06 0.00000E+00
 -1       935 1.58218E-06 1.74787E-06 3.30872E-24
 -1       936 1.31908E-06 1.33642E-06 0.00000E+00
 -1       937 1.05587E-06 8.96910E-07 0.00000E+00
 -1       938 7.92667E-07 4.89058E-07 0.00000E+00
 -1       939 5.29068E-07 1.72258E-07 3.30872E-24
 -1       940 2.65644E-07-6.07081E-09 6.61744E-24
 -1       941 1.07024E-06 1.17863E-07 0.00000E+00
 -1       942 2.19933E-06 2.69731E-07 1.32349E-23
 -1       943 3.32475E-06 4.43278E-07 0.00000E+00
 -1       944 4.46130E-06 6.27231E-07-1.32349E-23
 -1       945 5.59821E-06 8.17921E-07 2.64698E-23
 -1       946 6.73733E-06 1.01200E-06 0.00000E+00
 -1       947 7.87672E-06 1.20861E-06 0.00000E+00
 -1       948 9.01648E-06 1.40702E-06 0.00000E+00
 -1       949 1.01563E-05 1.60780E-06 0.00000E+00
 -1       950 1.12958E-05 1.81165E-06 0.00000E+00
 -1       951 1.24351E-05 2.02151E-06-2.64698E-23
 -1       952 1.35726E-05 2.24063E-06 0.00000E+00
 -1       953 1.47099E-05 2.47902E-06-2.64698E-23
 -1       954 1.58380E-05 2.74764E-06-1.32349E-23
 -1       955 1.69692E-05 3.07954E-06-1.32349E-23
 -1       956 1.79929E-05 4.05402E-06 6.20385E-25
 -1       957 1.79322E-05 4.66839E-06-4.13590E-25
 -1       958 1.78713E-05 5.34720E-06 0.00000E+00
 -1       959 1.78102E-05 6.08323E-06-2.06795E-25
 -1       960 1.77491E-05 6.86924E-06-8.27181E-25
 -1       961 1.76879E-05 7.69794E-06-4.13590E-25
 -1       962 1.76266E-05 8.56199E-06 8.27181E-25
 -1       963 1.75654E-05 9.45412E-06 8.27181E-25
 -1       964 1.75041E-05 1.03670E-05 0.00000E+00
 -1       965 1.74428E-05 1.12933E-05 8.27181E-25
 -1       966 1.73816E-05 1.22257E-05 1.65436E-24
 -1       967 1.73203E-05 1.31570E-05 0.00000E+00
 -1       968 1.72591E-05 1.40797E-05 0.00000E+00
 -1       969 1.71979E-05 1.49867E-05 0.00000E+00
 -1       970 1.71370E-05 1.58706E-05 1.65436E-24
 -1       971 1.69466E-05 1.76446E-05-3.30872E-24
 -1       972 1.68124E-05 1.87532E-05-1.65436E-24
 -1       973 1.66781E-05 2.00272E-05 0.00000E+00
 -1       974 1.65430E-05 2.14431E-05 1.65436E-24
 -1       975 1.64076E-05 2.29771E-05-3.30872E-24
 -1       976 1.62720E-05 2.46055E-05 0.00000E+00
 -1       977 1.61363E-05 2.63042E-05 0.00000E+00
 -1       978 1.60005E-05 2.80493E-05 1.65436E-24
 -1       979 1.58646E-05 2.98167E-05-3.30872E-24
 -1       980 1.57288E-05 3.15823E-05 1.65436E-24
 -1       981 1.55931E-05 3.33219E-05 0.00000E+00
 -1       982 1.54576E-05 3.50115E-05 0.00000E+00
 -1       983 1.53222E-05 3.66271E-05 0.00000E+00
 -1       984 1.51879E-05 3.81447E-05 0.00000E+00
 -1       985 1.50535E-05 3.95405E-05 0.00000E+00
 -3
    1PSTEP                        16           8           1          
  100CL  108 4.83398E-01         841                     0    8           1
 -4  STRESS      6    1
 -5  SXX         1    4    1    1
 -5  SYY         1    4    2    2
 -5  SZZ         1    4    3    3
 -5  SXY         1    4    1    2
 -5  SYZ         1    4    2    3
 -5  SZX         1    4    3    1
 -1         1-1.93657E+06-6.20121E+05-3.94374E+05-5.62284E+05 1.79474E-10 5.82077E-11
 -1         2-1.19664E+06-6.25642E+04 3.94732E+03-1.20749E+05-2.53863E-10 5.84350E-11
 -1         3-6.66972E+05-2.37493E+05-1.42244E+04-5.69691E+04-8.36451E-10-1.81183E-09
 -1         4-3.24571E+05-6.44735E+04 4.84020E+02-3.30613E+04 1.80222E-10-5.90376E-10
 -1         5-1.58240E+05 1.11690E+05-8.48476E+04-6.45807E+03 3.35967E-09 5.03366E-09
 -1         8-1.04278E+06-4.11259E+05-1.56558E+05-3.91371E+05 1.54614E-10 1.27693E-09
 -1         9-1.13663E+06-2.55462E+05-1.45035E+05-2.65181E+05-2.51021E-10-6.45135E-10
 -1        10-5.51631E+05-3.20057E+05-1.11267E+04-1.29522E+05 1.76442E-10 9.67399E-10
 -1        11-3.28939E+05-1.00246E+05 3.92618E+02-7.64465E+04 1.39448E-09-2.27956E-10
 -1        12-2.02096E+05 9.07290E+04-9.64140E+04-3.51158E+04 4.12155E-09-2.00209E-09
 -1        15 1.06426E+04-2.03326E+04 4.45492E+03-6.34941E+04 7.26686E-10-2.76850E-09
 -1        16-6.55735E+05-1.32512E+05 1.82053E+03-2.95570E+05 9.64671E-10 1.83839E-09
 -1        17-3.98249E+05-2.72898E+05-4.66909E+04-2.15585E+05-1.00044E-09 5.14168E-10
 -1        18-1.80854E+05-9.97990E+04-7.00871E+04-1.15646E+05-4.35345E-10-2.05546E-10
 -1        19-3.95882E+04 5.57696E+04-4.00371E+04-3.65734E+04 4.34132E-10 6.71813E-10
 -1        20 7.22618E+04-5.22691E+04-8.33413E+03 3.80359E+04 7.63384E-09-8.68567E-11
 -1        21-9.75697E+02-1.08104E+05 2.41686E+04 5.61614E+02 1.64177E-08-1.04263E-09
 -1        22 2.11650E+04 1.14719E+05 7.14600E+02-1.96761E+04-2.09184E-11-1.85537E-10
 -1        23-1.88435E+05-3.45240E+03 4.38503E+03-1.23070E+05-1.48430E-09 6.29370E-10
 -1        24-1.34264E+05 1.42265E+04 1.56039E+05-2.84422E+05-2.90250E-09-2.11003E-10
 -1        25 3.55334E+05 1.30121E+05 1.14201E+05-1.85172E+05 9.53908E-10-1.09564E-09
 -1        26 2.72885E+03 1.26310E+05 7.13675E+03-2.53455E+04-4.76954E-10-3.26963E-10
 -1        27-3.07480E+04-4.54920E+04-1.97092E+04 4.96479E+04 6.44150E-09 6.36646E-11
 -1        28-9.52905E+03-8.31578E+04-5.17039E+02 3.97080E+04 6.68501E-09-1.38196E-10
 -1        29 2.80247E+05 1.91375E+05 7.90342E+02-6.78446E+03 3.09583E-11 1.40972E-09
 -1        30 9.29946E+04 2.76931E+04 1.14847E+03-3.64869E+04 1.00647E-09 1.94859E-09
 -1        31-3.30433E+05 2.88489E+04 2.77557E+03-6.45650E+04-1.91311E-09 2.91220E-09
 -1        32 4.58801E+05 2.80409E+05 3.28995E+05-2.77514E+05 3.30042E-09 2.38288E-09
 -1        33 7.89605E+05 3.60294E+05 2.53059E+05-3.62551E+04-7.65929E-09-1.04410E-09
 -1        34-1.46825E+05-2.27863E+04-8.77495E+03 2.37653E+04-2.36737E-09-5.77529E-10
 -1        35-2.25024E+04-2.73762E+04-5.16212E+02 5.84722E+04 8.00247E-09 3.42334E-09
 -1        36-2.60880E+06 7.76664E+04-1.81713E+05 1.94791E-09-8.51668E-10-1.58616E-09
 -1        37-2.68711E+06-8.99740E+04-1.28252E+05-3.29760E-09-2.37261E-10-3.20142E-09
 -1        38-2.63909E+06 1.20299E+04-4.70256E+04 3.62178E-08 1.01564E-09-4.91127E-11
 -1        39-2.65176E+06-1.39295E+04-2.94457E+04 4.32528E-08-1.20649E-09 5.22050E-09
 -1        40-2.64401E+06 1.85939E+03-1.20751E+04-3.87239E-08-1.85412E-09-1.47384E-09
 -1        41-2.64598E+06-2.17734E+03-7.17329E+03-6.91705E-08-1.49531E-09 3.82295E-09
 -1        42-2.64482E+06 3.12693E+02-3.50981E+03-2.23350E-08-5.75775E-10 2.68949E-09
 -1        43-2.64512E+06-5.45632E+02-2.75328E+03 8.78272E-08 8.39834E-10-6.16411E-09
 -1        44-2.64487E+06 2.32028E+02-2.75507E+03-3.26275E-08-6.25919E-10-4.17936E-09
 -1        45-2.64560E+06-1.47637E+03-4.99643E+03-1.81505E-07-1.95102E-09-2.98337E-09
 -1        46-2.64435E+06 1.24083E+03-8.13959E+03-1.86876E-07-9.23157E-10 1.60071E-10
 -1        47-2.64943E+06-9.27300E+03-1.96482E+04-7.57223E-08 1.43563E-09 5.67866E-09
 -1        48-2.64107E+06 8.00521E+03-3.13194E+04 1.17888E-08 1.00831E-09-1.95178E-09
 -1        49-2.67295E+06-5.98712E+04-8.53555E+04 1.38245E-07-2.83036E-10-2.93676E-09
 -1        50-2.62093E+06 5.16775E+04-1.20952E+05 6.34907E-08-1.81299E-09 4.22006E-10
 -1        51 2.25864E+04-2.53352E+05 3.68335E+04-6.90281E+05 1.01863E-10 5.47152E-09
 -1        52 9.81830E+03-2.49608E+05 2.20565E+04-7.62814E+05 3.89264E-10-2.80488E-09
 -1        53 5.91905E+03-2.56269E+05 1.72720E+04-6.88440E+05 2.21917E-10-7.95990E-09
 -1        54 1.38543E+04-2.53349E+05 2.56593E+04-7.64790E+05-2.47383E-10-1.82918E-08
 -1        55 3.24444E+04-2.61448E+05 4.60370E+04-6.88130E+05 4.29281E-10-1.00663E-08
 -1        56-2.95208E+06-3.33926E+05-2.40507E+05-1.14138E+06-9.82254E-11 2.51748E-09
 -1        57-3.06147E+06-5.33498E+05-1.61367E+05-1.11734E+06 1.22964E-09-2.96495E-10
 -1        58-2.99882E+06-4.09840E+05-5.66312E+04-1.12822E+06 1.90994E-10-2.63390E-09
 -1        59-3.00764E+06-4.43940E+05-3.35760E+04-1.13298E+06 8.39236E-10 1.63300E-09
 -1        60-3.00529E+06-4.20470E+05-1.32379E+04-1.12678E+06-2.37151E-10-1.14551E-09
 -1        61-3.00064E+06-4.30983E+05-7.49403E+03-1.13411E+06-1.01471E-09-7.07792E-09
 -1        62-3.00570E+06-4.22420E+05-3.66224E+03-1.12720E+06 5.25461E-10 2.84740E-09
 -1        63-3.00100E+06-4.28177E+05-3.07680E+03-1.13276E+06-6.46651E-10 5.11440E-09
 -1        64-3.00490E+06-4.23243E+05-3.60295E+03-1.12813E+06-1.20508E-11 1.98020E-09
 -1        65-3.00373E+06-4.27780E+05-7.31037E+03-1.13049E+06 1.71141E-09-7.31632E-09
 -1        66-3.00298E+06-4.22862E+05-1.28996E+04-1.12945E+06-1.16586E-09 1.57934E-09
 -1        67-3.01323E+06-4.37689E+05-3.26851E+04-1.12629E+06-3.03316E-10 1.06229E-09
 -1        68-2.99550E+06-4.13705E+05-5.51374E+04-1.13222E+06 1.34605E-10-1.72076E-09
 -1        69-3.06756E+06-5.22959E+05-1.57085E+05-1.10889E+06 1.63709E-09 8.58563E-10
 -1        70-2.94928E+06-3.40520E+05-2.34141E+05-1.14584E+06-7.82165E-10 2.96859E-09
 -1        71-1.32229E+06 1.62757E+03-3.81524E+03-4.72802E-08 6.04647E-11 3.47222E-09
 -1        72-1.32382E+06-1.88603E+03-2.69490E+03-1.74802E-07-1.05290E-09 4.41923E-09
 -1        73-1.32292E+06 2.52336E+02-9.97362E+02-6.44699E-08-3.19946E-10-7.37430E-10
 -1        74-1.32308E+06-2.93598E+02-6.39932E+02 1.22121E-07 1.50918E-10-3.37763E-09
 -1        75-1.32303E+06 4.04048E+01-2.95855E+02 2.56107E-08-1.60430E-09 2.04716E-09
 -1        76-1.32296E+06-5.67231E+01-2.40844E+02 3.18606E-08 7.84232E-10 3.57595E-09
 -1        77-1.32304E+06 1.62032E+01-2.43297E+02-4.66985E-08-6.74486E-10 2.14048E-09
 -1        78-1.32298E+06-8.49611E+01-4.29862E+02 4.07194E-08-7.25576E-11-1.14036E-09
 -1        79-1.32301E+06 6.86159E+01-7.34863E+02 1.85638E-08-4.20667E-10-5.10909E-10
 -1        80-1.32321E+06-5.12196E+02-1.65791E+03-4.80964E-08-6.27271E-10 1.97474E-09
 -1        81-1.32281E+06 4.42318E+02-2.85781E+03 1.06994E-07-4.42856E-10-4.55429E-10
 -1        82-1.32459E+06-3.31914E+03-7.01378E+03-1.08220E-07 1.69530E-09 5.66729E-10
 -1        83-1.32163E+06 2.86708E+03-1.12170E+04-1.27964E-07 3.26260E-10-1.50976E-09
 -1        84-1.33301E+06-2.14447E+04-3.05842E+04 1.98291E-08-6.86015E-10-3.63252E-09
 -1        85-1.31441E+06 1.85087E+04-4.33547E+04 3.40698E-08-4.08763E-10 2.21553E-09
 -1        86-5.94931E+04 2.47985E+05 1.41805E+05 1.64216E+03 9.16771E-10-2.42784E-09
 -1        87 7.43176E+04 3.11192E+05 1.09689E+05-7.53860E+03 1.58616E-09-2.81791E-09
 -1        88-1.45763E+04 2.68727E+05 5.63878E+04 1.12946E+03 1.73895E-09-5.48084E-10
 -1        89 5.15913E+04 3.00472E+05 7.98246E+04-6.81724E+03 2.64072E-09-2.41364E-09
 -1        90-3.68364E+04 2.58677E+05 9.03226E+04 9.21040E+02 2.07729E-09 3.16788E-10
 -1        91-1.26864E+06-1.60689E+05-1.61964E+04-4.54680E+05-1.36311E-08-1.57524E-09
 -1        92-1.16733E+06-2.21534E+05-1.92811E+03-5.11164E+05-1.13450E-08-2.37060E-09
 -1        93-1.27246E+06-1.39964E+05-3.23843E+03-4.25183E+05 5.06179E-09 3.23985E-09
 -1        94-1.16482E+06-2.40944E+05-5.40446E+02-5.42227E+05-6.68331E-09-2.31914E-09
 -1        95-1.27267E+06-1.40111E+05-1.18006E+03-4.24742E+05-1.63229E-08-7.71252E-10
 -1        96-1.16510E+06-2.18749E+05 4.58968E+03-5.13059E+05 1.20663E-08 3.05181E-09
 -1        97-1.27070E+06-1.63278E+05-5.06985E+03-4.53264E+05 2.21144E-09-2.22713E-09
 -1        98-1.19309E+06-1.68252E+05 8.84397E+03-4.50558E+05-1.50974E-08 1.14994E-09
 -1        99-1.24315E+06-1.91762E+05-5.64651E+03-4.86047E+05 8.33097E-10 8.98240E-09
 -1       100-1.26041E+06-1.22181E+05 3.80858E+03-4.01465E+05-1.24164E-08-1.96235E-09
 -1       101-1.20480E+06-2.08272E+05-3.45103E+03-5.03417E+05 1.23237E-09-3.25281E-09
 -1       102-1.30415E+06-1.06306E+05-6.18567E+03-3.84119E+05 1.31544E-08 6.63749E-09
 -1       103-1.20097E+06-2.06473E+05-1.21557E+04-5.04634E+05-1.79821E-08 6.76209E-10
 -1       104-1.27954E+06-1.41299E+05-2.92159E+04-3.94384E+05-1.97811E-08 8.63110E-09
 -1       105-1.22811E+06-1.74339E+05-5.48466E+04-4.92070E+05-1.58743E-08 2.35195E-09
 -1       106-6.90094E+05-5.51596E+03 1.29257E+04-4.62352E-08-2.77650E-10 1.27056E-09
 -1       107-6.84450E+05 6.39120E+03 9.11441E+03-1.42633E-08-4.71372E-10 2.39947E-09
 -1       108-6.87939E+05-8.54345E+02 3.33820E+03-7.28785E-08-5.56829E-10 2.41835E-09
 -1       109-6.86961E+05 9.88146E+02 2.07687E+03-1.92610E-07 2.40170E-11 1.58209E-09
 -1       110-6.87587E+05-1.30872E+02 8.24162E+02-2.82847E-09-7.32791E-11-2.37060E-09
 -1       111-6.87376E+05 1.45235E+02 4.34098E+02 1.36800E-07-1.39550E-10-1.36419E-09
 -1       112-6.87524E+05-1.39898E+01 1.05593E+02 5.56209E-08-9.31175E-11 2.27087E-09
 -1       113-6.87470E+05-2.39114E+01-1.21135E+02 4.86228E-08 3.53595E-11 1.60245E-09
 -1       114-6.87494E+05 3.78617E+01-3.81238E+02-6.30225E-08-4.95144E-10 2.54144E-09
 -1       115-6.87622E+05-3.05349E+02-9.68987E+02-5.48222E-08-9.95950E-11-9.36495E-10
 -1       116-6.87373E+05 2.66726E+02-1.71252E+03-5.27004E-08-7.52447E-11-2.10707E-09
 -1       117-6.88458E+05-2.00490E+03-4.23212E+03-1.65428E-07-8.72577E-10-1.09912E-09
 -1       118-6.86659E+05 1.73226E+03-6.77753E+03-7.47305E-08-5.31454E-10-7.09406E-11
 -1       119-6.93546E+05-1.29571E+04-1.84826E+04 1.22205E-07-2.26438E-10-1.22782E-11
 -1       120-6.82291E+05 1.11831E+04-2.62018E+04 3.62584E-09-6.59595E-11 1.77533E-09
 -1       121-1.06509E+03-7.87256E+05 4.42860E+03 6.18868E+03-3.51520E-10 2.30330E-09
 -1       122 1.47079E+03-7.85500E+05 3.14227E+03 2.70030E+04-1.93040E-10 9.13053E-09
 -1       123-2.03171E+02-7.86643E+05 1.79149E+03 6.32128E+03-1.30416E-09 4.45243E-09
 -1       124 9.94646E+02-7.85686E+05 2.36523E+03 2.66191E+04-7.57268E-10 1.80762E-09
 -1       125-7.34530E+02-7.86972E+05 2.94420E+03 6.57270E+03-2.92607E-09 3.28691E-09
 -1       126-6.64818E+05-9.57648E+04 6.47560E+03-2.47889E+05 8.06040E-11 1.52750E-09
 -1       127-6.60336E+05-9.08672E+04 4.48434E+03-2.50124E+05 2.50338E-10 1.30012E-09
 -1       128-6.63667E+05-9.32839E+04 1.51384E+03-2.48126E+05-9.53264E-11 6.10100E-10
 -1       129-6.61677E+05-9.37410E+04 9.35218E+02-2.49850E+05-3.21137E-10-1.29056E-09
 -1       130-6.63480E+05-9.28981E+04 3.33792E+02-2.48162E+05-7.05999E-10-1.36603E-09
 -1       131-6.62028E+05-9.40619E+04 1.62344E+02-2.49658E+05-1.62702E-10 2.54091E-09
 -1       132-6.63317E+05-9.29643E+04 2.41104E+00-2.48318E+05 6.43468E-11 2.04574E-09
 -1       133-6.62459E+05-9.37981E+04-1.39386E+02-2.49215E+05-1.72278E-10-3.08957E-09
 -1       134-6.63048E+05-9.31626E+04-3.22840E+02-2.48604E+05-4.91429E-11-7.26175E-11
 -1       135-6.63150E+05-9.35604E+04-8.39586E+02-2.48573E+05 3.11238E-10-6.27551E-10
 -1       136-6.62627E+05-9.32029E+04-1.47671E+03-2.48960E+05-5.51267E-10 7.15090E-11
 -1       137-6.64687E+05-9.48166E+04-3.96858E+03-2.47693E+05-1.75601E-09 2.09411E-10
 -1       138-6.61513E+05-9.19107E+04-6.38851E+03-2.49483E+05-6.80643E-10-1.17097E-09
 -1       139-6.71455E+05-1.05759E+05-1.88729E+04-2.45223E+05 7.04631E-10 1.98474E-09
 -1       140-6.55870E+05-8.22908E+04-2.72582E+04-2.51422E+05-4.74301E-10 1.74623E-09
 -1       141-2.99385E+05-3.54185E+03 8.29846E+03 1.98519E-08 2.56017E-10 1.80717E-09
 -1       142-2.95774E+05 4.10359E+03 5.84806E+03 2.15105E-08 7.31269E-11 8.70727E-10
 -1       143-2.98001E+05-5.48374E+02 2.13327E+03-9.40084E-08 2.42071E-10 1.90755E-09
 -1       144-2.97387E+05 6.32790E+02 1.31088E+03-3.21988E-08-2.67460E-10 2.12097E-09
 -1       145-2.97773E+05-8.25295E+01 4.84918E+02-6.70765E-08 7.82586E-11-1.19249E-09
 -1       146-2.97661E+05 8.16042E+01 1.83809E+02-2.03600E-08-4.70395E-10-1.33016E-09
 -1       147-2.97727E+05 1.16167E+00-1.10858E+02 1.30165E-08 3.51395E-11 2.35035E-09
 -1       148-2.97761E+05-9.26594E+01-4.69769E+02-4.02614E-08-3.66077E-10-3.53793E-10
 -1       149-2.97674E+05 9.13427E+01-9.58138E+02 2.51753E-08-2.71660E-10-1.92324E-09
 -1       150-2.98088E+05-7.02058E+02-2.25777E+03 6.72594E-09-4.48609E-10 9.64945E-10
 -1       151-2.97400E+05 6.08985E+02-3.92922E+03 1.46018E-08-1.59778E-10 3.95426E-09
 -1       152-2.99991E+05-4.57269E+03-9.66556E+03 1.15299E-08-2.36151E-10 2.70006E-10
 -1       153-2.95772E+05 3.95028E+03-1.54653E+04 1.24051E-09 8.49081E-10 1.54068E-09
 -1       154-3.11590E+05-2.95468E+04-4.21554E+04 8.64998E-09 4.09090E-10-1.48702E-10
 -1       155-2.85803E+05 2.55018E+04-5.97487E+04 2.10321E-09 1.99609E-09 1.10958E-09
 -1       156-9.08531E+03-1.60718E+05 2.19885E+04-7.46451E+02 4.54747E-12-9.05560E-10
 -1       157 1.20957E+04-1.50705E+05 1.83467E+04 3.27196E+03 4.17231E-11-2.09815E-09
 -1       158-2.97145E+03-1.57932E+05 1.14937E+04-7.18399E+02 3.94493E-11-7.68473E-10
 -1       159 1.35705E+04-1.49994E+05 2.02867E+04 3.13982E+03 3.20597E-10-1.79057E-10
 -1       160-1.05570E+04-1.61426E+05 2.53219E+04-6.14289E+02 3.21052E-10 2.49645E-09
 -1       161-3.65142E+05-5.04339E+04-2.13860E+03-1.37177E+05-2.69694E-10 3.43380E-09
 -1       162-3.65844E+05-5.27610E+04-1.48396E+03-1.37243E+05-1.06832E-09 1.21929E-09
 -1       163-3.65594E+05-5.11770E+04-5.10526E+02-1.37013E+05-5.38783E-10 3.44926E-10
 -1       164-3.65332E+05-5.18898E+04-3.33250E+02-1.37419E+05-1.42109E-11 2.67437E-09
 -1       165-3.65653E+05-5.13027E+04-1.58912E+02-1.37002E+05 7.78844E-11 3.05339E-09
 -1       166-3.65303E+05-5.17268E+04-1.65485E+02-1.37394E+05 7.88525E-12 5.53929E-09
 -1       167-3.65623E+05-5.13397E+04-2.15017E+02-1.37038E+05-1.09746E-10-2.58304E-10
 -1       168-3.65438E+05-5.17259E+04-4.63530E+02-1.37289E+05-1.31088E-10 1.70800E-09
 -1       169-3.65518E+05-5.13037E+04-8.29973E+02-1.37107E+05-4.99369E-11 3.00258E-09
 -1       170-3.65952E+05-5.22714E+04-2.06719E+03-1.37055E+05 3.38559E-10 2.56006E-09
 -1       171-3.65109E+05-5.07958E+04-3.58631E+03-1.37271E+05-2.08843E-10-7.95580E-10
 -1       172-3.68577E+05-5.63941E+04-9.62406E+03-1.36164E+05-6.19991E-10-1.13641E-09
 -1       173-3.62897E+05-4.71917E+04-1.54776E+04-1.37995E+05 8.00810E-10-5.89353E-10
 -1       174-3.84275E+05-8.35646E+04-4.57141E+04-1.30945E+05 3.78282E-09-3.52293E-09
 -1       175-3.49424E+05-2.36975E+04-6.60100E+04-1.42464E+05 7.62975E-09-2.19734E-09
 -1       191 1.36512E+03 3.97747E+05 2.25252E+03-1.21521E+04-8.18545E-11 1.09594E-09
 -1       192 4.91114E+02 3.98084E+05 1.34894E+03-1.30983E+04-6.92580E-10-2.28829E-09
 -1       193 2.20971E+02 3.97854E+05 1.08378E+03-1.19684E+04 3.97904E-12 1.60071E-10
 -1       194 6.50255E+02 3.98124E+05 1.63792E+03-1.34381E+04-1.36129E-09-4.07454E-10
 -1       195 1.85779E+03 3.97671E+05 2.97085E+03-1.18106E+04 9.82254E-11 1.57979E-09
 -1       251-1.58626E+06 3.45087E+04-8.28023E+04-1.65560E+04-8.02856E-10-2.41198E-09
 -1       252-1.61588E+06-3.98420E+04-5.72620E+04 4.31207E+04 7.59940E-10-7.67614E-10
 -1       253-1.59665E+06 5.29097E+03-2.12279E+04-2.69749E+04-7.21514E-10-5.65706E-10
 -1       254-1.60166E+06-5.72539E+03-1.30343E+04 4.85498E+04 4.20641E-11-1.30967E-10
 -1       255-1.60059E+06 6.30487E+02-5.82635E+03-2.19871E+04 2.98030E-09-9.77707E-10
 -1       256-1.59357E+06-6.02178E+02-2.01641E+03 2.60508E+04 2.69711E-09 2.05864E-09
 -1       257-1.60420E+06-2.51892E+02-2.74645E+03-4.47236E+03 6.80984E-10 4.37410E-10
 -1       258-1.59138E+06 3.63610E+01 1.22951E+02-1.14717E+04 3.69255E-09-1.27520E-09
 -1       259-1.60260E+06-1.50206E+02-2.40274E+03 1.55322E+04-2.50429E-09-2.31182E-09
 -1       260-1.59718E+06-5.31094E+02-2.69785E+03-4.24774E+04-1.89101E-09-9.80606E-10
 -1       261-1.59893E+06 7.44118E+02-5.49077E+03 2.65343E+04 5.60010E-09 2.36764E-09
 -1       262-1.60179E+06-5.76840E+03-1.31209E+04-4.92069E+04-1.93234E-09-1.18985E-09
 -1       263-1.59820E+06 5.23040E+03-2.16658E+04 2.22634E+04 9.78275E-10 4.85488E-09
 -1       264-1.61234E+06-4.01304E+04-5.68709E+04-2.77088E+04 8.40305E-09 6.27369E-09
 -1       265-1.58790E+06 3.45706E+04-8.35700E+04 5.03249E+03 9.95669E-10 4.39468E-09
 -1       266-1.64575E+04-2.40637E+05 3.80205E+04-1.49762E+03 3.09228E-11 8.75900E-10
 -1       267 1.78667E+04-2.23897E+05 2.47755E+04 9.34705E+03 5.45697E-11-7.64288E-10
 -1       268-1.40760E+03-2.33843E+05 5.34481E+03-8.16504E+02-5.36602E-11-7.14823E-09
 -1       269-5.85080E+03-2.34467E+05-6.31116E+03 7.68060E+03-3.59250E-11 4.06772E-10
 -1       270 7.14849E+03-2.30028E+05-1.58831E+04 1.68141E+02 9.18590E-11 6.49641E-09
 -1       271-2.60242E+06-3.25240E+05-2.03261E+05-1.00810E+06 5.20231E-10-8.73115E-10
 -1       272-2.67185E+06-4.66108E+05-1.29145E+05-1.01082E+06 0.00000E+00-2.76486E-10
 -1       273-2.63905E+06-3.72680E+05-4.79657E+04-1.00111E+06 5.84578E-10-5.27507E-11
 -1       274-2.62919E+06-4.05995E+05-2.65389E+04-1.02227E+06 1.36424E-11-2.80443E-09
 -1       275-2.64400E+06-3.77238E+05-1.11686E+04-9.99746E+05 3.86535E-10-1.16415E-10
 -1       276-2.62329E+06-4.00461E+05-5.95173E+03-1.02453E+06-5.14774E-10-9.00855E-10
 -1       277-2.64495E+06-3.77371E+05-3.05461E+03-9.99224E+05-4.98176E-10 2.11310E-09
 -1       278-2.62229E+06-4.00328E+05-2.43859E+03-1.02523E+06-2.06001E-10 1.16769E-09
 -1       279-2.64506E+06-3.77271E+05-2.94771E+03-9.99114E+05 1.67041E-10 2.77714E-09
 -1       280-2.62292E+06-4.00792E+05-5.66573E+03-1.02500E+06 1.18166E-09-4.35648E-10
 -1       281-2.64431E+06-3.76970E+05-1.05760E+04-9.99424E+05 1.38732E-09 2.96586E-09
 -1       282-2.62824E+06-4.06320E+05-2.51325E+04-1.02322E+06 7.41238E-10-1.27011E-09
 -1       283-2.63977E+06-3.72520E+05-4.53943E+04-1.00057E+06 2.29579E-09-2.37924E-09
 -1       284-2.66838E+06-4.63468E+05-1.22250E+05-1.01267E+06 5.50449E-09 3.27418E-10
 -1       285-2.60521E+06-3.27501E+05-1.92394E+05-1.00706E+06 2.94676E-09-4.51109E-10
 -1       286-4.88451E+05-6.93258E+03 1.61958E+04-6.77636E+02 1.16717E-09-1.00135E-09
 -1       287-4.81097E+05 8.02625E+03 1.14829E+04-1.07839E+03 7.85633E-10 1.81717E-09
 -1       288-4.85736E+05-1.07771E+03 4.18472E+03 2.57593E+02 1.95598E-10 1.36788E-09
 -1       289-4.84302E+05 1.24426E+03 2.66771E+03-2.81430E+03-2.44597E-10-3.24715E-09
 -1       290-4.85256E+05-1.69112E+02 1.08799E+03 1.05831E+03 5.52177E-10-1.01227E-09
 -1       291-4.84901E+05 2.03039E+02 6.94365E+02-4.12775E+03 8.10296E-10 1.49348E-09
 -1       292-4.85146E+05-3.34285E+01 3.89270E+02 1.57106E+03 1.03336E-09-1.12161E-09
 -1       293-4.85019E+05 8.81022E+01 4.17302E+02-4.76965E+03 1.16085E-10-3.60714E-10
 -1       294-4.85144E+05-5.04554E+01 5.55337E+02 1.70023E+03 1.42651E-09 3.59165E-10
 -1       295-4.84862E+05 3.55993E+02 1.15775E+03-4.62028E+03 1.55171E-09 2.55336E-09
 -1       296-4.85300E+05-3.01602E+02 1.94580E+03 1.42169E+03 1.15124E-09 5.28644E-11
 -1       297-4.83855E+05 2.25090E+03 4.77631E+03-3.70802E+03 8.62983E-10 1.18297E-09
 -1       298-4.86143E+05-1.94493E+03 7.58697E+03 7.87952E+02 4.45141E-10-1.75942E-09
 -1       299-4.78071E+05 1.45226E+04 2.07448E+04-2.21067E+03-1.17097E-10 3.37423E-09
 -1       300-4.91069E+05-1.25383E+04 2.93380E+04-7.57127E+01 2.74326E-10-5.22050E-10
 -1       301 3.57779E+04 2.59977E+04 7.65264E+04-2.13319E+04-2.03727E-09 2.20280E-09
 -1       302 1.20567E+04 4.01709E+04 4.59694E+04-2.49517E+04-2.20552E-11 1.43859E-09
 -1       303 3.39904E+03 3.10942E+04 3.55335E+04-2.13714E+04-2.08229E-09 6.90761E-10
 -1       304 1.41001E+04 4.13386E+04 5.13149E+04-2.49298E+04-2.40561E-10-3.36786E-09
 -1       305 4.24299E+04 2.48378E+04 8.95220E+04-2.13420E+04-1.99725E-09 4.65093E-09
 -1       306-1.86545E+06-2.38394E+05-1.29423E+05-7.22542E+05-2.44836E-09-9.82254E-10
 -1       307-1.90001E+06-3.37401E+05-8.21818E+04-7.35103E+05-9.10632E-10 7.22503E-09
 -1       308-1.88888E+06-2.68414E+05-3.05563E+04-7.17990E+05-2.32535E-09 3.96540E-10
 -1       309-1.87283E+06-2.99301E+05-1.69030E+04-7.42610E+05-8.51969E-10-1.04933E-09
 -1       310-1.89207E+06-2.71258E+05-7.13348E+03-7.17089E+05 5.85260E-10 1.23737E-09
 -1       311-1.86911E+06-2.95792E+05-3.82689E+03-7.44099E+05 9.31436E-10-5.23016E-10
 -1       312-1.89266E+06-2.71351E+05-2.02060E+03-7.16779E+05-1.49612E-10 2.07859E-09
 -1       313-1.86857E+06-2.95642E+05-1.71808E+03-7.44466E+05-2.82824E-10 5.04781E-09
 -1       314-1.89266E+06-2.71340E+05-2.21022E+03-7.16774E+05-1.04751E-09 1.29148E-09
 -1       315-1.86917E+06-2.95888E+05-4.35629E+03-7.44118E+05 1.00533E-09-7.62952E-10
 -1       316-1.89202E+06-2.71176E+05-8.19587E+03-7.17076E+05 1.65983E-09 9.94532E-10
 -1       317-1.87335E+06-3.00069E+05-1.94839E+04-7.42573E+05 5.80030E-10 4.35102E-09
 -1       318-1.88842E+06-2.67801E+05-3.52237E+04-7.18017E+05-7.67159E-10-2.22099E-09
 -1       319-1.90452E+06-3.44227E+05-9.47775E+04-7.34192E+05-2.97518E-10 1.70439E-09
 -1       320-1.86153E+06-2.33029E+05-1.49223E+05-7.23116E+05-4.78394E-10 2.83762E-10
 -1       321-3.84839E+05-1.66111E+04 3.89224E+04-2.89098E+02-1.80111E-09-2.51021E-10
 -1       322-3.67910E+05 1.92452E+04 2.74679E+04-8.02717E+02-1.44195E-09 9.02219E-10
 -1       323-3.78347E+05-2.57412E+03 1.00697E+04 9.06513E+01-4.08505E-10-7.59428E-11
 -1       324-3.75481E+05 2.97839E+03 6.30797E+03-1.51109E+03 2.91777E-10 7.27255E-10
 -1       325-3.77277E+05-3.97529E+02 2.56632E+03 4.19332E+02 5.07754E-11 8.34120E-10
 -1       326-3.76742E+05 4.60199E+02 1.49643E+03-2.05993E+03-8.31619E-11 7.52152E-10
 -1       327-3.77090E+05-6.20071E+01 6.65559E+02 6.39507E+02-3.30573E-10 1.03267E-09
 -1       328-3.76962E+05 7.94603E+01 3.99593E+02-2.35937E+03 4.31140E-11 2.52732E-09
 -1       329-3.77059E+05-1.66410E+01 2.41721E+02 7.18770E+02-2.45139E-10-3.18138E-10
 -1       330-3.76973E+05 6.78656E+01 2.69288E+02-2.36526E+03-1.88876E-10 7.84858E-10
 -1       331-3.77079E+05-5.03765E+01 3.55520E+02 6.45398E+02-7.49836E-11-2.35275E-09
 -1       332-3.76811E+05 3.68937E+02 8.00207E+02-2.07672E+03 3.77039E-10-9.11896E-10
 -1       333-3.77219E+05-3.17887E+02 1.24772E+03 4.30222E+02 9.47864E-12 8.38440E-10
 -1       334-3.75858E+05 2.37233E+03 3.39500E+03-1.53638E+03 5.86262E-10-4.22290E-10
 -1       335-3.78029E+05-2.04877E+03 4.79055E+03 1.05046E+02-7.47946E-10 5.15001E-10
 -1       336-5.13880E+02-7.90584E+05 8.25345E+02-7.22041E+03-4.18822E-09 1.51886E-09
 -1       337-1.67763E+02-7.90487E+05-2.84405E+03-3.51614E+04-3.34020E-09 3.06045E-10
 -1       338 7.89069E+02-7.89649E+05-7.58345E+03-7.04579E+03-5.25824E-09-5.11363E-10
 -1       339-1.02483E+04-7.96424E+05-2.03206E+04-3.53522E+04-3.18869E-09 1.27207E-09
 -1       340 7.89074E+03-7.84722E+05-3.19921E+04-7.03209E+03-4.73119E-09 3.36206E-09
 -1       341-1.17062E+06-1.52689E+05-4.51356E+04-4.53699E+05 1.54341E-09 1.74077E-09
 -1       342-1.20941E+06-1.76002E+05-3.08887E+04-4.26000E+05 6.75527E-10 4.36376E-09
 -1       343-1.17529E+06-1.72060E+05-1.05439E+04-4.54504E+05-3.05590E-10-4.68299E-09
 -1       344-1.20212E+06-1.54920E+05-6.52074E+03-4.26636E+05 2.17707E-09-1.03080E-09
 -1       345-1.17792E+06-1.73683E+05-2.57923E+03-4.53112E+05 5.27407E-10 8.46853E-10
 -1       346-1.19340E+06-1.57703E+05-1.25574E+03-4.33298E+05 2.15005E-09 2.40641E-09
 -1       347-1.18391E+06-1.69340E+05-1.17769E+03-4.47770E+05-2.43631E-10-1.17666E-09
 -1       348-1.18149E+06-1.68372E+05-6.33131E+02-4.45684E+05 3.28896E-10 1.08680E-09
 -1       349-1.18978E+06-1.63056E+05-1.84278E+03-4.40682E+05 1.50305E-09 1.79961E-09
 -1       350-1.17320E+06-1.79793E+05-3.55858E+03-4.57567E+05-1.18346E-08-5.95492E-09
 -1       351-1.19229E+06-1.57855E+05-6.51269E+03-4.35956E+05-3.41788E-09-1.06797E-09
 -1       352-1.17490E+06-1.91206E+05-1.73280E+04-4.60728E+05 1.60347E-08-2.54659E-10
 -1       353-1.18816E+06-1.51614E+05-2.79788E+04-4.37569E+05 2.46246E-09-1.36060E-09
 -1       354-1.20687E+06-2.35363E+05-8.22371E+04-4.45511E+05-2.89674E-09-3.64253E-09
 -1       355-1.16029E+06-1.13893E+05-1.19438E+05-4.51076E+05 1.47338E-10-1.72440E-09
 -1       356-3.79544E+05-1.98790E+03 4.65126E+03-1.46174E+02 3.17470E-10-1.15256E-09
 -1       357-3.77474E+05 2.30226E+03 3.27956E+03-4.93544E+02-6.85507E-10-2.69250E-09
 -1       358-3.78765E+05-3.07835E+02 1.18672E+03 6.25178E+01-2.31481E-10 1.67392E-09
 -1       359-3.78385E+05 3.53582E+02 7.19741E+02-8.74412E+02 6.21526E-10-3.66049E-09
 -1       360-3.78634E+05-4.52740E+01 2.37167E+02 2.34703E+02-7.09690E-11-2.75854E-09
 -1       361-3.78551E+05 3.68909E+01 3.14164E+01-1.15679E+03-7.58945E-10-5.14212E-09
 -1       362-3.78600E+05 8.39899E+00-1.98757E+02 3.44904E+02-5.48006E-11 6.14946E-10
 -1       363-3.78642E+05-1.10854E+02-5.62561E+02-1.29888E+03 7.96643E-10 2.75190E-09
 -1       364-3.78544E+05 1.02455E+02-1.08179E+03 3.76794E+02 7.64466E-10 1.36504E-09
 -1       365-3.79000E+05-7.80022E+02-2.51453E+03-1.27985E+03-7.27872E-10 8.82324E-10
 -1       366-3.78243E+05 6.75791E+02-4.36394E+03 3.25871E+02-2.25391E-10 3.14094E-09
 -1       367-3.81105E+05-5.07349E+03-1.07243E+04-1.10185E+03 1.92276E-10-6.83031E-10
 -1       368-3.76440E+05 4.38260E+03-1.71594E+04 1.98793E+02 8.62862E-10-8.16726E-10
 -1       369-3.93968E+05-3.27815E+04-4.67674E+04-7.83778E+02-2.14257E-10 4.82760E-09
 -1       370-3.65383E+05 2.82933E+04-6.62891E+04 7.82105E+00 2.48636E-09-3.20142E-09
 -1       371-1.01575E+04-1.62940E+05 2.31388E+04 3.18691E+03 9.69521E-10 7.52095E-10
 -1       372 1.04749E+04-1.53169E+05 1.39441E+04-1.34121E+04 1.90312E-09-2.76351E-09
 -1       373-2.65878E+02-1.58236E+05 1.02770E+03 3.32539E+03 1.68347E-09-1.38032E-09
 -1       374-8.10900E+03-1.61755E+05-1.04465E+04-1.33412E+04 1.46883E-09-1.43282E-09
 -1       375 8.36131E+03-1.54351E+05-1.89716E+04 3.11596E+03 1.23873E-09 2.88878E-10
 -1       376-6.52063E+05-8.16562E+04-2.68667E+04-2.49590E+05-7.18501E-11-3.94721E-09
 -1       377-6.66348E+05-1.05841E+05-1.86034E+04-2.44688E+05 8.40407E-09-3.27054E-09
 -1       378-6.57758E+05-9.10010E+04-6.30965E+03-2.47525E+05-5.09885E-09 1.38448E-09
 -1       379-6.59562E+05-9.51885E+04-3.93955E+03-2.47270E+05 4.02093E-09-3.70318E-09
 -1       380-6.58839E+05-9.22787E+04-1.51154E+03-2.47017E+05-5.68124E-09 4.30947E-09
 -1       381-6.58228E+05-9.38164E+04-9.60000E+02-2.47959E+05-1.93654E-07 7.26254E-08
 -1       382-6.59090E+05-9.23683E+04-5.66231E+02-2.46836E+05-1.71962E-05 6.44447E-06
 -1       383-6.58025E+05-9.37977E+04-7.34186E+02-2.48128E+05-3.40472E-05 1.27707E-05
 -1       384-6.59042E+05-9.22969E+04-1.08834E+03-2.46848E+05-1.71952E-05 6.44621E-06
 -1       385-6.58627E+05-9.44342E+04-2.57531E+03-2.47850E+05-1.94308E-07 7.51544E-08
 -1       386-6.58489E+05-9.17338E+04-4.42145E+03-2.47114E+05-5.46385E-09-8.68567E-11
 -1       387-6.62042E+05-9.92971E+04-1.18312E+04-2.46527E+05 2.86741E-09-3.41925E-09
 -1       388-6.55633E+05-8.74477E+04-1.90206E+04-2.48168E+05-4.40559E-09 2.97587E-09
 -1       389-6.81653E+05-1.32371E+05-5.61756E+04-2.39749E+05 1.11449E-08-1.76078E-09
 -1       390-6.38902E+05-5.87490E+04-8.11149E+04-2.53864E+05 7.33780E-09-1.89175E-09
 -1       406 1.50988E+03 3.91552E+05 2.97028E+03-4.30190E+04 1.00044E-11-5.91172E-10
 -1       407 8.19878E+02 3.92065E+05 3.03607E+03-4.74544E+04-2.48883E-09 1.69484E-09
 -1       408 1.06356E+03 3.91523E+05 4.52689E+03-4.28793E+04 5.91172E-11 4.56839E-09
 -1       409 4.20472E+03 3.93232E+05 9.42106E+03-4.76358E+04-2.81170E-09 6.13909E-10
 -1       410 1.21654E+04 3.90314E+05 1.88271E+04-4.28273E+04-1.63709E-11 1.22100E-09
 -1       466 1.13050E+06-4.50049E+04 1.04433E+05 1.52323E+04 5.54564E-10-4.48199E-09
 -1       467 1.18220E+06 5.18899E+04 7.47936E+04-2.97614E+04-2.18165E-10 2.88583E-09
 -1       468 1.15016E+06-6.90705E+03 2.71174E+04 6.31839E+03 1.03569E-09 2.07365E-10
 -1       469 1.15898E+06 7.95294E+03 1.72338E+04-1.65357E+04 6.85304E-10-4.98630E-10
 -1       470 1.15351E+06-1.05707E+03 7.08430E+03 2.00626E+03 2.76941E-10-2.96041E-10
 -1       471 1.15500E+06 1.26374E+03 4.41333E+03-1.02377E+04 4.50143E-10 8.14680E-10
 -1       472 1.15408E+06-1.97814E+02 2.46627E+03 2.03030E+01-1.71411E-10 2.34292E-09
 -1       473 1.15445E+06 5.05222E+02 2.54276E+03-7.61084E+03-1.93694E-11-3.86643E-09
 -1       474 1.15405E+06-2.90795E+02 3.31576E+03-6.20648E+02-8.49649E-11 4.20414E-10
 -1       475 1.15526E+06 2.07292E+03 6.82394E+03-7.36153E+03 1.01161E-09 5.12728E-11
 -1       476 1.15326E+06-1.76054E+03 1.15092E+04-2.28996E+02 1.29245E-09-3.03771E-10
 -1       477 1.16084E+06 1.32219E+04 2.80542E+04-9.37122E+03 4.51195E-11-1.25465E-09
 -1       478 1.14846E+06-1.14119E+04 4.47637E+04 1.38911E+03-4.97948E-11-4.29281E-10
 -1       479 1.19484E+06 8.54022E+04 1.22020E+05-1.47232E+04 1.08729E-09-3.03771E-09
 -1       480 1.11927E+06-7.37190E+04 1.72778E+05 5.12245E+03 2.12356E-09-1.22236E-09
 -1       481-9.27385E+03 1.97601E+05 2.07146E+04-8.75368E+03-7.82165E-11-6.58019E-10
 -1       482 1.08601E+04 2.12957E+05 1.63966E+04 3.21968E+04-2.03727E-10 2.50037E-09
 -1       483-1.76750E+03 2.02985E+05 6.87082E+03-7.24032E+03-4.72937E-11 1.47907E-09
 -1       484 4.61710E+03 2.07248E+05 7.78582E+03 3.02321E+04 1.65699E-11-5.48766E-10
 -1       485-2.87015E+03 2.03052E+05 7.41959E+03-6.78766E+03 7.82165E-11-2.08686E-10
 -1       486-1.05203E+06-1.38561E+05-1.05254E+05-4.46297E+05-1.08594E-09-7.54881E-09
 -1       487-1.15546E+06-1.35495E+05-6.56389E+04-3.24012E+05 2.80124E-09 1.11395E-08
 -1       488-1.04080E+06-1.83694E+05-2.35931E+04-4.49556E+05-3.72893E-11 6.08270E-09
 -1       489-1.15215E+06-8.78087E+04-1.33175E+04-3.25547E+05-8.08515E-09 1.02123E-08
 -1       490-1.05612E+06-1.85541E+05-7.15602E+03-4.45448E+05-7.48287E-10 1.03528E-08
 -1       491-1.09407E+06-1.04349E+05 4.03375E+03-3.45946E+05-3.75735E-09 7.50481E-09
 -1       492-1.09675E+06-1.68687E+05-7.64131E+03-4.27489E+05 1.60526E-09 2.87241E-09
 -1       493-1.02801E+06-1.49791E+05 9.67874E+03-3.94911E+05-6.49629E-09 3.67254E-09
 -1       494-1.12084E+06-1.41092E+05-6.78232E+03-3.95522E+05-1.07093E-09-3.92492E-09
 -1       495-1.00715E+06-1.99047E+05 2.96175E+03-4.56211E+05 1.04706E-09-1.55038E-08
 -1       496-1.11946E+06-1.18074E+05-5.45976E+03-3.67616E+05 3.15003E-09-1.01343E-08
 -1       497-1.01341E+06-2.26479E+05-1.14414E+04-4.86072E+05-1.49312E-08-4.71300E-09
 -1       498-1.11634E+06-1.12372E+05-2.05563E+04-3.66926E+05-4.51928E-09 2.71402E-08
 -1       499-1.02988E+06-2.41588E+05-5.36298E+04-4.53715E+05-3.96085E-09 4.86671E-09
 -1       500-1.10153E+06-1.04179E+05-9.10433E+04-3.98861E+05 9.43601E-09-1.93904E-09
 -1       501-3.37499E+05-1.77506E+04 4.15261E+04 9.20299E+01 1.35526E-09 4.25644E-10
 -1       502-3.19060E+05 2.05571E+04 2.93736E+04-2.98144E+03-6.59384E-12 3.10683E-09
 -1       503-3.30515E+05-2.75326E+03 1.07344E+04 8.36037E+02 1.68424E-09 5.81622E-10
 -1       504-3.27260E+05 3.18406E+03 6.76053E+03-4.29425E+03-6.08225E-12-2.52044E-09
 -1       505-3.29319E+05-4.26583E+02 2.73839E+03 1.40491E+03 2.07737E-09 1.55524E-10
 -1       506-3.28700E+05 4.99216E+02 1.61360E+03-5.16853E+03 4.15453E-08-1.33812E-09
 -1       507-3.29088E+05-6.83405E+01 7.30123E+02 1.71034E+03 3.09044E-06 6.38821E-09
 -1       508-3.28962E+05 1.01065E+02 4.68841E+02-5.47566E+03 6.09792E-06 2.98044E-09
 -1       509-3.29063E+05-2.61588E+01 3.33944E+02 1.71205E+03 3.09017E-06 7.32503E-09
 -1       510-3.28901E+05 1.32764E+02 4.71619E+02-5.17510E+03 4.01710E-08-1.51543E-09
 -1       511-3.29144E+05-1.03170E+02 6.74192E+02 1.40977E+03 1.68370E-09 3.15424E-10
 -1       512-3.28479E+05 7.49667E+02 1.62696E+03-4.30532E+03 2.26706E-10-2.96706E-09
 -1       513-3.29473E+05-6.49409E+02 2.50354E+03 8.42244E+02 1.84377E-09 1.18234E-09
 -1       514-3.26458E+05 4.82001E+03 6.92296E+03-2.97961E+03-2.18932E-09 2.43301E-09
 -1       515-3.31152E+05-4.16918E+03 9.68834E+03 8.40516E+01-5.47459E-10 4.67935E-10
 -1       516-3.97618E+04 2.18845E+05 9.34038E+04 1.43574E+04 5.27143E-09 4.34738E-10
 -1       517 4.88390E+04 2.62629E+05 7.10008E+04-6.76166E+04 7.86804E-09 9.43016E-09
 -1       518-8.61568E+03 2.34365E+05 3.36101E+04 1.37958E+04 5.03769E-09 5.81571E-09
 -1       519 2.73481E+04 2.56638E+05 4.33473E+04-6.91733E+04 7.50447E-09-1.08645E-09
 -1       520-1.86040E+04 2.25202E+05 4.34257E+04 1.59127E+04-7.27596E-10-2.12594E-10
 -1       521-2.42929E+06-3.07088E+05-1.74716E+05-9.39231E+05-1.74805E-09-2.31375E-09
 -1       522-2.48351E+06-4.33482E+05-1.10984E+05-9.47743E+05 3.65503E-10-7.17409E-09
 -1       523-2.46084E+06-3.47754E+05-4.12295E+04-9.33145E+05 8.06608E-11 3.60160E-10
 -1       524-2.44682E+06-3.81906E+05-2.28103E+04-9.57711E+05-8.94488E-10 5.45697E-11
 -1       525-2.46510E+06-3.51651E+05-9.59858E+03-9.31963E+05 2.62776E-09 5.08544E-09
 -1       526-2.44181E+06-3.77103E+05-5.11675E+03-9.59614E+05 2.01396E-09 2.12367E-10
 -1       527-2.46588E+06-3.51819E+05-2.62508E+03-9.31576E+05-2.54772E-10-8.31051E-10
 -1       528-2.44110E+06-3.76830E+05-2.09867E+03-9.60024E+05-1.74169E-09-1.24419E-09
 -1       529-2.46585E+06-3.51847E+05-2.54070E+03-9.31602E+05-1.03773E-09-1.36856E-09
 -1       530-2.44187E+06-3.76978E+05-4.88081E+03-9.59502E+05 1.45974E-10-6.80075E-10
 -1       531-2.46505E+06-3.51755E+05-9.12373E+03-9.32038E+05 2.89219E-10 4.36557E-11
 -1       532-2.44675E+06-3.81401E+05-2.16570E+04-9.57527E+05 1.54614E-10 6.00721E-10
 -1       533-2.46093E+06-3.48137E+05-3.91406E+04-9.33246E+05-1.50783E-09-1.48975E-09
 -1       534-2.48173E+06-4.30187E+05-1.05345E+05-9.47860E+05 3.39583E-10 6.03904E-10
 -1       535-2.43088E+06-3.09638E+05-1.65849E+05-9.39128E+05 7.07587E-10 3.60887E-09
 -1       536 9.11463E+04-1.21242E+04 4.92117E+04-5.31739E+03-4.63842E-11-1.09139E-10
 -1       537 1.09313E+05 1.59291E+04 3.17478E+04-2.33503E+04-1.55433E-09-4.29645E-09
 -1       538 9.86169E+04-1.31498E+03 1.27476E+04-5.27257E+03-3.20597E-10-2.23099E-09
 -1       539 1.00854E+05 1.59539E+03 7.16600E+03-2.33745E+04 1.18757E-09 2.90845E-09
 -1       540 9.94748E+04-1.59359E+02 3.21908E+03-5.28922E+03-1.55524E-10-7.49651E-10
 -1       541 9.97976E+04 1.55287E+02 1.71218E+03-2.33410E+04-1.52795E-10 1.13869E-09
 -1       542 9.95803E+04-2.18321E+01 8.14942E+02-5.30619E+03-2.62321E-09 1.87163E-09
 -1       543 9.96229E+04 2.48210E+01 4.40005E+02-2.33151E+04-5.54928E-09 1.42182E-09
 -1       544 9.95926E+04-6.69027E-01 2.46094E+02-5.31512E+03-2.40789E-09-1.94802E-10
 -1       545 9.95925E+04 2.50151E+01 1.98207E+02-2.33052E+04-4.01485E-10-1.19439E-09
 -1       546 9.95891E+04-4.89505E+00 2.30225E+02-5.31615E+03-2.13618E-10-6.42103E-10
 -1       547 9.96537E+04 1.01594E+02 4.25588E+02-2.33080E+04-1.23634E-10-3.35814E-09
 -1       548 9.95449E+04-7.41571E+01 7.21684E+02-5.31225E+03-3.98813E-10-1.00661E-09
 -1       549 1.00157E+05 8.90012E+02 1.77806E+03-2.32825E+04-1.38925E-10-3.05818E-11
 -1       550 9.91345E+04-6.89927E+02 2.73842E+03-5.34175E+03-1.00044E-11 1.25601E-09
 -1       551 1.16258E+04-2.39231E+05 2.38082E+04-3.65141E+05-1.32786E-10-9.27685E-11
 -1       552 5.70528E+03-2.35354E+05 1.80558E+04-4.25600E+05-9.27685E-10 1.30240E-09
 -1       553 3.63704E+03-2.38760E+05 2.01238E+04-3.64537E+05-4.65661E-10 9.91804E-10
 -1       554 1.30646E+04-2.31394E+05 3.70550E+04-4.25713E+05-1.32604E-09 1.12186E-09
 -1       555 3.54354E+04-2.43659E+05 7.00031E+04-3.64971E+05-1.01682E-09-1.64437E-09
 -1       556-1.87607E+05-9.69708E+04 1.44559E+04-1.73705E+05 1.12959E-09 9.34961E-10
 -1       557-1.73716E+05-1.12211E+05 7.09866E+03-1.84761E+05-1.36060E-09 2.21030E-09
 -1       558-1.88022E+05-1.01855E+05 2.97586E+03-1.70811E+05 9.13133E-10 4.44561E-09
 -1       559-1.75085E+05-1.14615E+05 1.46289E+03-1.85327E+05 8.16726E-10 1.66483E-09
 -1       560-1.88250E+05-1.01874E+05 6.44688E+02-1.70809E+05-3.79805E-09-4.62376E-09
 -1       561-1.75414E+05-1.14638E+05 3.04236E+02-1.85568E+05-5.54792E-10 2.79931E-09
 -1       562-1.88421E+05-1.01759E+05 1.00282E+02-1.70921E+05-4.62205E-09 3.87718E-09
 -1       563-1.75584E+05-1.14565E+05-2.23801E+01-1.85690E+05-1.07466E-08-2.83603E-09
 -1       564-1.88513E+05-1.01690E+05-1.70907E+02-1.70988E+05-3.81715E-09-1.50067E-09
 -1       565-1.75678E+05-1.14530E+05-4.24091E+02-1.85747E+05-8.94943E-10 1.19144E-10
 -1       566-1.88510E+05-1.01664E+05-9.03880E+02-1.71001E+05-7.49139E-10-7.27596E-10
 -1       567-1.75835E+05-1.14631E+05-1.99938E+03-1.85722E+05-1.53250E-10 4.92946E-10
 -1       568-1.88339E+05-1.02003E+05-4.11474E+03-1.70824E+05-2.58933E-09-4.92764E-09
 -1       569-1.78032E+05-1.17197E+05-9.70824E+03-1.85031E+05-2.10093E-10 1.91721E-09
 -1       570-1.87486E+05-1.09791E+05-1.98660E+04-1.67529E+05 2.36105E-09 8.10951E-09
 -1       571 2.51034E+05 1.25710E+04 1.95293E+04-6.45413E+04 3.09228E-10 8.59472E-11
 -1       572 2.54041E+05 4.25633E+03 9.60284E+03-7.12881E+04-1.40972E-10-1.49157E-10
 -1       573 2.52244E+05 9.26783E+02 4.27460E+03-6.43576E+04-4.45652E-11-5.87988E-10
 -1       574 2.52590E+05 2.83394E+02 2.14849E+03-7.14875E+04 2.47383E-10-4.79940E-09
 -1       575 2.52367E+05 1.84321E+01 1.01805E+03-6.43349E+04 1.76897E-10-3.41970E-10
 -1       576 2.52399E+05-2.78237E+00 5.21603E+02-7.15130E+04 4.48949E-10 1.00863E-09
 -1       577 2.52384E+05-1.77731E+01 2.62577E+02-6.43320E+04 5.57066E-11 8.68113E-10
 -1       578 2.52382E+05-1.39220E+01 1.53164E+02-7.15162E+04 1.63709E-11 8.56289E-10
 -1       579 2.52406E+05-2.17093E+01 1.11853E+02-6.43318E+04-1.25510E-10-1.06456E-09
 -1       580 2.52416E+05-2.63200E+01 1.34142E+02-7.15130E+04 2.81943E-11-9.54969E-10
 -1       581 2.52445E+05-3.54598E+01 2.14920E+02-6.43352E+04-9.68612E-10-1.77806E-09
 -1       582 2.52509E+05 1.25138E+00 4.31632E+02-7.14754E+04-1.03773E-09 4.36376E-09
 -1       583 2.52480E+05 1.09607E+02 8.42859E+02-6.43694E+04-2.18279E-11 1.40631E-09
 -1       584 2.52871E+05 7.47238E+02 1.89143E+03-7.11770E+04-1.50612E-09 2.13777E-09
 -1       585 2.52311E+05 2.37030E+03 3.83685E+03-6.46361E+04 5.78439E-10 1.32968E-09
 -1       586 2.07768E+03 9.67170E+04 3.69255E+03-1.71161E+05 1.51886E-09-1.39153E-10
 -1       587 1.16216E+03 9.73074E+04 3.48664E+03-1.89613E+05 1.76442E-10 4.36330E-10
 -1       588 1.30868E+03 9.66520E+04 4.90525E+03-1.70945E+05 1.56706E-09 6.61430E-10
 -1       589 4.62081E+03 9.85023E+04 1.00126E+04-1.89657E+05 4.51109E-10-1.67972E-09
 -1       590 1.29673E+04 9.54546E+04 1.99000E+04-1.71112E+05 1.50612E-09 1.65983E-10
 -1       591-1.13900E+05-4.05170E+04-2.12442E+04-6.05140E+04 8.51173E-10 1.50976E-10
 -1       592-1.14317E+05-3.78979E+04-1.03911E+04-6.70745E+04-9.64064E-11-2.62617E-10
 -1       593-1.14482E+05-3.24310E+04-4.40759E+03-6.41743E+04 2.34422E-09 5.71890E-09
 -1       594-1.12060E+05-3.49915E+04-2.15500E+03-6.74977E+04-4.58385E-10-1.20048E-09
 -1       595-1.14585E+05-3.21177E+04-9.92263E+02-6.43444E+04-1.69643E-09-7.34042E-09
 -1       596-1.11889E+05-3.48728E+04-5.04700E+02-6.74877E+04 4.35352E-09 6.52994E-09
 -1       597-1.14606E+05-3.21305E+04-2.77849E+02-6.43466E+04 1.19422E-09 4.29736E-11
 -1       598-1.11873E+05-3.48741E+04-2.28066E+02-6.74809E+04 5.47573E-10-7.58519E-10
 -1       599-1.14603E+05-3.21307E+04-2.96755E+02-6.43455E+04 2.68187E-10-1.61754E-09
 -1       600-1.11889E+05-3.48743E+04-5.54773E+02-6.74858E+04-4.59295E-11 2.27374E-10
 -1       601-1.14575E+05-3.21177E+04-1.09849E+03-6.43408E+04-9.24501E-10-9.56334E-10
 -1       602-1.12077E+05-3.50059E+04-2.39070E+03-6.74923E+04 1.16779E-09 1.68802E-09
 -1       603-1.14456E+05-3.24694E+04-4.89110E+03-6.41518E+04-3.06045E-10 3.08319E-10
 -1       604-1.14591E+05-3.82172E+04-1.15312E+04-6.70033E+04-6.18456E-11-3.07409E-10
 -1       605-1.13793E+05-4.14526E+04-2.35741E+04-6.01016E+04 2.22508E-09 8.05176E-09
 -1       606 7.65776E+04-9.71217E+03-1.50556E+04 2.24166E+04-5.00040E-09 9.04038E-10
 -1       607 7.42179E+04-3.28901E+03-7.40044E+03 2.45224E+04-5.38421E-10 1.21827E-09
 -1       608 7.55929E+04-7.15250E+02-3.29457E+03 2.22617E+04 3.50792E-09 5.14774E-10
 -1       609 7.52827E+04-2.01374E+02-1.65271E+03 2.46912E+04-2.26328E-09 4.82942E-10
 -1       610 7.54605E+04 6.48263E+00-7.81049E+02 2.22421E+04-5.37602E-09-1.78943E-09
 -1       611 7.53991E+04 3.54846E+01-3.93666E+02 2.47122E+04-7.86349E-09 5.72754E-10
 -1       612 7.54298E+04 4.38920E+01-1.87967E+02 2.22399E+04-1.32604E-09-8.40146E-10
 -1       613 7.54058E+04 4.71643E+01-8.81508E+01 2.47148E+04-5.17957E-09-2.45836E-09
 -1       614 7.54155E+04 4.27254E+01-2.93640E+01 2.22394E+04-2.38924E-09-1.70667E-09
 -1       615 7.54010E+04 4.94781E+01 1.44979E+01 2.47151E+04 3.12230E-09 9.14497E-10
 -1       616 7.54051E+04 4.73318E+01 6.45305E+01 2.22397E+04-5.12409E-09-9.75888E-10
 -1       617 7.54074E+04 7.44483E+01 1.56139E+02 2.47143E+04-4.72255E-10-2.76032E-10
 -1       618 7.53882E+04 1.19455E+02 3.20032E+02 2.22400E+04-1.10060E-08 1.29126E-09
 -1       619 7.55097E+04 3.78302E+02 7.24345E+02 2.47116E+04-2.17736E-08 3.02680E-09
 -1       620 7.52907E+04 1.00249E+03 1.47568E+03 2.22410E+04-1.02602E-08-2.18802E-09
 -1       621 2.13167E+03 2.57294E+05 5.01965E+03-2.48610E+04 7.13953E-11 2.08047E-10
 -1       622 8.12069E+02 2.58234E+05 4.01173E+03-2.90949E+04-1.42654E-09 1.78920E-09
 -1       623 4.70098E+02 2.57517E+05 4.77348E+03-2.48890E+04 2.96268E-10 2.85263E-09
 -1       624 2.73577E+03 2.59348E+05 9.05795E+03-2.89674E+04-9.13587E-10 1.62572E-10
 -1       625 8.39868E+03 2.56214E+05 1.72813E+04-2.49865E+04 5.97993E-11-2.49884E-09
 -1       626 1.06659E+05 3.47865E+04-7.16676E+03 7.31285E+04-4.28918E-09-4.98403E-10
 -1       627 1.03538E+05 3.96090E+04-3.40393E+03 7.44120E+04 1.36515E-09 6.75811E-09
 -1       628 1.06794E+05 3.82761E+04-1.43132E+03 7.14373E+04 5.55883E-09 1.52340E-09
 -1       629 1.04084E+05 4.10301E+04-6.87828E+02 7.42787E+04 4.14411E-09 2.24919E-09
 -1       630 1.06775E+05 3.85104E+04-3.04607E+02 7.13019E+04 3.98813E-09 6.79790E-10
 -1       631 1.04120E+05 4.11326E+04-1.37848E+02 7.42766E+04-3.32284E-09 7.60616E-09
 -1       632 1.06758E+05 3.85188E+04-4.20781E+01 7.12887E+04-2.58478E-09 1.11845E-09
 -1       633 1.04120E+05 4.11382E+04 2.51218E+01 7.42761E+04 8.19227E-09 6.07741E-09
 -1       634 1.06746E+05 3.85134E+04 1.05118E+02 7.12858E+04 3.50497E-09 9.15861E-10
 -1       635 1.04131E+05 4.11410E+04 2.54328E+02 7.42783E+04-2.84854E-09-1.52340E-10
 -1       636 1.06734E+05 3.85229E+04 5.34628E+02 7.12777E+04-2.32359E-09 1.76124E-09
 -1       637 1.04256E+05 4.12784E+04 1.19605E+03 7.42586E+04-7.87281E-12-7.89078E-09
 -1       638 1.06704E+05 3.89394E+04 2.47826E+03 7.10949E+04 5.54678E-09 1.53705E-10
 -1       639 1.05520E+05 4.34435E+04 5.89459E+03 7.37369E+04-7.34417E-10 2.25191E-09
 -1       640 1.06741E+05 4.52220E+04 1.24092E+04 6.84752E+04-1.12657E-08-7.48514E-10
 -1       641 2.46969E+03 2.27185E+03-5.32921E+03-2.18428E+02-8.02240E-09-1.63550E-09
 -1       642 1.85320E+02-2.63077E+03-3.75382E+03 9.76438E+02 3.86459E-09-9.20807E-10
 -1       643 1.58477E+03 3.51275E+02-1.37496E+03-2.16903E+02-1.05082E-08 8.35996E-10
 -1       644 1.21275E+03-4.04035E+02-8.50270E+02 9.74391E+02 6.58396E-09 1.55083E-09
 -1       645 1.44154E+03 5.29416E+01-3.30215E+02-2.16390E+02-4.91309E-09-3.31003E-09
 -1       646 1.38151E+03-5.42799E+01-1.57393E+02 9.73593E+02-2.66149E-07 2.08914E-09
 -1       647 1.41561E+03 2.85206E+00-3.29940E+00-2.16107E+02-1.99193E-05 3.22469E-08
 -1       648 1.42760E+03 3.02810E+01 1.38321E+02 9.73300E+02-3.93959E-05 6.41576E-08
 -1       649 1.39532E+03-3.13292E+01 3.18011E+02-2.16099E+02-1.99181E-05 3.12801E-08
 -1       650 1.54328E+03 2.42746E+02 7.68424E+02 9.73349E+02-2.51457E-07 1.37135E-09
 -1       651 1.30006E+03-2.09158E+02 1.34358E+03-2.16157E+02-7.25726E-09-1.39141E-09
 -1       652 2.19941E+03 1.56898E+03 3.31126E+03 9.73174E+02 7.73972E-09-1.52170E-10
 -1       653 7.39609E+02-1.35379E+03 5.29751E+03-2.15929E+02-5.64572E-09-1.38266E-09
 -1       654 6.17920E+03 1.01234E+04 1.44434E+04 9.70041E+02 4.49810E-09 2.85399E-09
 -1       655-2.67850E+03-8.73567E+03 2.04721E+04-2.13052E+02 2.63853E-10-5.04770E-10
 -1       656 8.06483E+03-2.90663E+05-3.41456E+04 7.01452E+03-1.07502E-09 2.17733E-09
 -1       657-1.16459E+04-3.03282E+05-2.50280E+04 2.97469E+04-1.54955E-09 6.78483E-10
 -1       658 1.58627E+03-2.95123E+05-1.57887E+04 6.95101E+03-3.30925E-09-2.56932E-10
 -1       659-1.05877E+04-3.02686E+05-2.32072E+04 2.97885E+04-1.02023E-09-6.16955E-10
 -1       660 7.20201E+03-2.91281E+05-3.07194E+04 6.97351E+03-1.26784E-09-1.09480E-10
 -1       661 2.89634E+05 3.65035E+04 2.38098E+04 1.13099E+05 7.04199E-09 7.13953E-10
 -1       662 2.95411E+05 5.53681E+04 1.51276E+04 1.16164E+05 2.30945E-09-1.31013E-09
 -1       663 2.93790E+05 4.21890E+04 5.62471E+03 1.12442E+05 4.11134E-09-3.04453E-10
 -1       664 2.90640E+05 4.81101E+04 3.12002E+03 1.17215E+05-6.31962E-09-4.96175E-09
 -1       665 2.94266E+05 4.28283E+04 1.31996E+03 1.12396E+05 2.86690E-09-2.96154E-09
 -1       666 2.90093E+05 4.73107E+04 7.20722E+02 1.17286E+05 5.32827E-09-1.10566E-09
 -1       667 2.94319E+05 4.29046E+04 4.00410E+02 1.12400E+05 4.04535E-09-4.97224E-10
 -1       668 2.90043E+05 4.72338E+04 3.77082E+02 1.17284E+05-7.43960E-09 1.65542E-09
 -1       669 2.94314E+05 4.29000E+04 5.26372E+02 1.12400E+05-3.47438E-09 6.83542E-10
 -1       670 2.90139E+05 4.73629E+04 1.07146E+03 1.17284E+05 1.06571E-08 3.10760E-09
 -1       671 2.94226E+05 4.27839E+04 2.02585E+03 1.12397E+05 5.86124E-09 8.85507E-10
 -1       672 2.90998E+05 4.85955E+04 4.82884E+03 1.17162E+05-3.65421E-09 1.87447E-09
 -1       673 2.93479E+05 4.17986E+04 8.71900E+03 1.12474E+05 2.29602E-09-1.50794E-09
 -1       674 2.98406E+05 5.98438E+04 2.34606E+04 1.15520E+05 3.50144E-09 2.54840E-09
 -1       675 2.87030E+05 3.29858E+04 3.69293E+04 1.13497E+05 2.28829E-09-3.95266E-09
 -1       676 1.04249E+03-2.73885E+05-4.91326E+03 2.79237E+02 1.15517E-09-6.68549E-09
 -1       677-1.88245E+03-2.75776E+05-4.93745E+03 2.12697E+02-6.03430E-09-8.67598E-09
 -1       678 5.40585E+02-2.74202E+05-5.34727E+03 2.78513E+02 3.21074E-09-6.77304E-10
 -1       679-5.61545E+03-2.77952E+05-1.13992E+04 2.12292E+02 1.00465E-09-2.75548E-10
 -1       680 4.13879E+03-2.71710E+05-1.70535E+04 2.78958E+02-2.02726E-09-7.89750E-10
 -1       681 4.08135E+05-1.05993E+04 2.48451E+04-3.61755E+02 1.12209E-10-9.24047E-10
 -1       682 4.18850E+05 1.22837E+04 1.75351E+04 2.72310E+03 1.43693E-10-1.39835E-10
 -1       683 4.12290E+05-1.64226E+03 6.44632E+03-1.61734E+02 5.36033E-11-1.56069E-09
 -1       684 4.14020E+05 1.90588E+03 4.05165E+03 2.47186E+03 2.06867E-10-2.16141E-09
 -1       685 4.12968E+05-2.55201E+02 1.69606E+03-1.10493E+02-1.56467E-10-1.02568E-09
 -1       686 4.13241E+05 3.10463E+02 1.07052E+03 2.50955E+03-9.14904E-10-1.28922E-09
 -1       687 4.13070E+05-5.18739E+01 6.43981E+02-1.99420E+02-2.44128E-10-1.48601E-09
 -1       688 4.13177E+05 1.45962E+02 7.37908E+02 2.84287E+03-2.45912E-10-7.05096E-10
 -1       689 4.13034E+05-9.23460E+01 1.02399E+03-4.43813E+02 3.92077E-10-1.01011E-10
 -1       690 4.13495E+05 6.58754E+02 2.18287E+03 3.52805E+03 1.39465E-09 8.82551E-10
 -1       691 4.12755E+05-5.66291E+02 3.67888E+03-8.84619E+02 2.66141E-10 4.00860E-10
 -1       692 4.15363E+05 4.24131E+03 9.03285E+03 4.68132E+03-6.23871E-10-7.59428E-11
 -1       693 4.11174E+05-3.67080E+03 1.43627E+04-1.59711E+03 4.00348E-10 7.37600E-10
 -1       694 4.26391E+05 2.74510E+04 3.92597E+04 6.53226E+03 1.94565E-09-3.69255E-10
 -1       695 4.01746E+05-2.37134E+04 5.54859E+04-2.73543E+03 2.77896E-09 1.55342E-09
 -1       696-8.37498E+03 3.52131E+05 1.92826E+04 1.83094E+03 1.81899E-11-1.05291E-09
 -1       697 9.06930E+03 3.60376E+05 1.24368E+04-9.37710E+03 8.04903E-11-1.26099E-09
 -1       698-6.54888E+02 3.55794E+05 2.53120E+03 1.46486E+03-1.35060E-10 8.42569E-10
 -1       699-3.37516E+03 3.54537E+05-3.91119E+03-9.14660E+03-2.15891E-10 2.26495E-09
 -1       700 4.03178E+03 3.57969E+05-8.89187E+03 1.60041E+03-1.27784E-10 8.96222E-10
 -1       701-3.68489E+05-3.33447E+04-4.74100E+04-1.46114E+05-1.62800E-10-2.47383E-10
 -1       702-3.92305E+05-7.74833E+04-3.28247E+04-1.39151E+05-2.13163E-10 2.60115E-10
 -1       703-3.78322E+05-5.00441E+04-1.11226E+04-1.42709E+05 2.52385E-11 1.54614E-11
 -1       704-3.80811E+05-5.82157E+04-6.92376E+03-1.43177E+05-2.56478E-10 2.76259E-11
 -1       705-3.79973E+05-5.25595E+04-2.60425E+03-1.42106E+05 2.07990E-10 1.76442E-10
 -1       706-3.78909E+05-5.52999E+04-1.55085E+03-1.43857E+05 5.22071E-10 1.48532E-10
 -1       707-3.80222E+05-5.29518E+04-7.22544E+02-1.42032E+05-2.48832E-11 2.29790E-10
 -1       708-3.78753E+05-5.48040E+04-6.34096E+02-1.43816E+05-8.05471E-11-2.34562E-10
 -1       709-3.80128E+05-5.30546E+04-7.09747E+02-1.42148E+05-1.64839E-10-3.98046E-10
 -1       710-3.79265E+05-5.48974E+04-1.50390E+03-1.43414E+05-4.25414E-10-4.84278E-10
 -1       711-3.79709E+05-5.28601E+04-2.52870E+03-1.42433E+05 2.60627E-11 2.77510E-10
 -1       712-3.81422E+05-5.74034E+04-6.70737E+03-1.42388E+05-8.89031E-11-3.63912E-10
 -1       713-3.77973E+05-5.05568E+04-1.07836E+04-1.43170E+05 4.57021E-11 6.18456E-10
 -1       714-3.92770E+05-7.58860E+04-3.18143E+04-1.38268E+05 3.22302E-10-4.40195E-10
 -1       715-3.68372E+05-3.44284E+04-4.59536E+04-1.46535E+05-7.43967E-10 7.02130E-10
 -1       716 1.69186E+05-1.47553E+04 3.45652E+04-9.59938E+02-2.82103E-09 3.59069E-09
 -1       717 1.84333E+05 1.70892E+04 2.44292E+04 1.71812E+03-1.46035E-09 2.48156E-09
 -1       718 1.74981E+05-2.28599E+03 8.96424E+03-6.56572E+02-1.18243E-09 1.15460E-09
 -1       719 1.77578E+05 2.64476E+03 5.66497E+03 1.17818E+03 5.42414E-10 1.60128E-09
 -1       720 1.75937E+05-3.56078E+02 2.37061E+03-4.20102E+02 6.05752E-10 1.07093E-09
 -1       721 1.76468E+05 4.30706E+02 1.54178E+03 7.39163E+02-1.31450E-10 1.26431E-09
 -1       722 1.76089E+05-7.70374E+01 9.65899E+02-2.17545E+02 8.55778E-11 1.62856E-11
 -1       723 1.76359E+05 2.32513E+02 1.19777E+03 3.52318E+02-9.65180E-10 1.49299E-10
 -1       724 1.76045E+05-1.57670E+02 1.72382E+03-3.32438E+01-3.95133E-10-3.70562E-10
 -1       725 1.76833E+05 1.13195E+03 3.72075E+03-1.24213E+01 1.87043E-10-1.68257E-10
 -1       726 1.75615E+05-9.73858E+02 6.31731E+03 1.47205E+02-1.37493E-09 5.70708E-11
 -1       727 1.79865E+05 7.29591E+03 1.54646E+04-3.85199E+02-1.53772E-09-9.97716E-10
 -1       728 1.73012E+05-6.30302E+03 2.46930E+04 3.39527E+02 8.86843E-10-9.40418E-10
 -1       729 1.98383E+05 4.71387E+04 6.72927E+04-8.27096E+02-3.90905E-10-1.48430E-09
 -1       730 1.57105E+05-4.06822E+04 9.53947E+04 5.88878E+02 1.03375E-09-1.87720E-09
 -1       731-1.41058E+04 1.43825E+05 3.21661E+04 8.28923E+03-2.36469E-11 8.27413E-10
 -1       732 1.64489E+04 1.61901E+05 2.37560E+04-3.52495E+04 6.54609E-10 7.89612E-10
 -1       733-2.33654E+03 1.50845E+05 9.07912E+03 7.40304E+03 2.25054E-09 2.28289E-09
 -1       734 4.14284E+03 1.54355E+05 7.33639E+03-3.43526E+04 3.66890E-09 4.28067E-09
 -1       735-1.72134E+03 1.51201E+05 4.85566E+03 7.39242E+03 1.89760E-09 1.73196E-09
 -1       736-8.56880E+05-8.98472E+04-6.50434E+04-3.25010E+05-3.03226E-09-1.49157E-10
 -1       737-8.75692E+05-1.63685E+05-4.49551E+04-3.30916E+05-5.04497E-09-5.27507E-11
 -1       738-8.70702E+05-1.12093E+05-1.52340E+04-3.19596E+05-2.21576E-09-1.25328E-09
 -1       739-8.60796E+05-1.36294E+05-9.42565E+03-3.35246E+05 7.67841E-10 1.19644E-09
 -1       740-8.71741E+05-1.17173E+05-3.63817E+03-3.20694E+05 1.83513E-09 2.61252E-09
 -1       741-8.62076E+05-1.27511E+05-1.88534E+03-3.30482E+05-2.70524E-09 2.08163E-09
 -1       742-8.69354E+05-1.20910E+05-1.14032E+03-3.24316E+05-1.87049E-09 9.07708E-10
 -1       743-8.68086E+05-1.20279E+05-5.36182E+02-3.22854E+05 1.22813E-09-1.50440E-09
 -1       744-8.65708E+05-1.24418E+05-1.02716E+03-3.28306E+05-1.12237E-09-1.08099E-09
 -1       745-8.75007E+05-1.14835E+05-1.71132E+03-3.16165E+05-3.69697E-09-2.75804E-10
 -1       746-8.62484E+05-1.26320E+05-3.13381E+03-3.31042E+05-9.00386E-10-6.89579E-09
 -1       747-8.80607E+05-1.15664E+05-8.23346E+03-3.12486E+05 2.90379E-09 4.55429E-10
 -1       748-8.60160E+05-1.23565E+05-1.32586E+04-3.32020E+05-3.11502E-09 5.89353E-10
 -1       749-8.92116E+05-1.40403E+05-3.90274E+04-3.09676E+05 9.12678E-10-3.62434E-10
 -1       750-8.50973E+05-1.01663E+05-5.66307E+04-3.33815E+05-8.05812E-10 1.19690E-09
 -1       751 2.02708E+06-1.12383E+05 2.63906E+05 5.98323E+03-1.10139E-08-1.30967E-09
 -1       752 2.14110E+06 1.30234E+05 1.86096E+05-8.98530E+03-2.33760E-09-2.54659E-09
 -1       753 2.07122E+06-1.74077E+04 6.83899E+04 2.13514E+03-1.28281E-09-9.82254E-11
 -1       754 2.08984E+06 2.01583E+04 4.28293E+04-3.67573E+03-2.34770E-10 1.63709E-09
 -1       755 2.07844E+06-2.69087E+03 1.76180E+04 6.74650E+02-7.62732E-10-2.84672E-10
 -1       756 2.08147E+06 3.15469E+03 1.04956E+04-1.66194E+03-9.90333E-10-1.20053E-10
 -1       757 2.07962E+06-4.56201E+02 5.19816E+03 1.21358E+02-1.99627E-10 3.53339E-10
 -1       758 2.08024E+06 8.18851E+02 4.17328E+03-9.39180E+02-5.48708E-11 9.47921E-10
 -1       759 2.07968E+06-3.61200E+02 4.29924E+03-4.81239E+01-1.20417E-09-3.95630E-11
 -1       760 2.08102E+06 2.32874E+03 7.90723E+03-8.25175E+02-1.26835E-09 7.91260E-11
 -1       761 2.07884E+06-1.96178E+03 1.29391E+04 7.35160E+00 5.33756E-10 9.48603E-10
 -1       762 2.08706E+06 1.46663E+04 3.12031E+04-1.21380E+03 1.07306E-09 2.37787E-09
 -1       763 2.07361E+06-1.26601E+04 4.97536E+04 3.40503E+02 3.57321E-09 1.89175E-10
 -1       764 2.12420E+06 9.46893E+04 1.35284E+05-2.48802E+03-4.76916E-10-8.00355E-11
 -1       765 2.04160E+06-8.17061E+04 1.91844E+05 1.28144E+03-1.41478E-09-1.36060E-09
 -1       766-4.76685E+04 3.25378E+05 1.13377E+05-3.29027E+03 2.19006E-09-7.44876E-10
 -1       767 5.89843E+04 3.75811E+05 8.67540E+04 1.15860E+04-2.72848E-10-1.33912E-09
 -1       768-1.11355E+04 3.42316E+05 4.31308E+04-2.76353E+03 8.27640E-10-4.51429E-10
 -1       769 3.72423E+04 3.65608E+05 5.81881E+04 1.12482E+04 5.72982E-10 5.08621E-10
 -1       770-2.59956E+04 3.35566E+05 6.41128E+04-2.95265E+03 8.51287E-10 1.77610E-09
 -1       771-1.12320E+06-2.28468E+05-4.28921E+04-4.84600E+05 9.54969E-10-1.63709E-09
 -1       772-1.12115E+06-2.25876E+05-2.09584E+04-5.00937E+05-3.09228E-09 3.69619E-09
 -1       773-1.12477E+06-2.11857E+05-8.91105E+03-4.91795E+05-7.42148E-10 1.40790E-09
 -1       774-1.11649E+06-2.20262E+05-4.34540E+03-5.02279E+05 1.56615E-09-9.61336E-10
 -1       775-1.12516E+06-2.11094E+05-2.01123E+03-4.92190E+05 2.61934E-10-1.03682E-10
 -1       776-1.11626E+06-2.20011E+05-1.01295E+03-5.02436E+05-1.87356E-09-7.69546E-09
 -1       777-1.12535E+06-2.11036E+05-5.54920E+02-4.92259E+05 1.40790E-09 3.57431E-10
 -1       778-1.11632E+06-2.19980E+05-4.29753E+02-5.02538E+05-3.63798E-12 7.70285E-10
 -1       779-1.12545E+06-2.10977E+05-5.42149E+02-4.92307E+05-7.27596E-12 7.65795E-10
 -1       780-1.11643E+06-2.19958E+05-9.89072E+02-5.02628E+05 3.16504E-10 3.23780E-10
 -1       781-1.12547E+06-2.10912E+05-1.95354E+03-4.92332E+05 2.28283E-10 3.41061E-10
 -1       782-1.11680E+06-2.20183E+05-4.24835E+03-5.02691E+05 4.83851E-10 8.54925E-10
 -1       783-1.12530E+06-2.11513E+05-8.69410E+03-4.92009E+05-1.42222E-09-1.04319E-09
 -1       784-1.12125E+06-2.25944E+05-2.05109E+04-5.01894E+05-1.60344E-09-1.78989E-09
 -1       785-1.12417E+06-2.27453E+05-4.19395E+04-4.84763E+05-2.96893E-09-7.37964E-09
 -1       786 2.58401E+05-7.88197E+03 3.22065E+04-1.42792E+03 3.96767E-10-1.23146E-09
 -1       787 2.70156E+05 1.04587E+04 2.07610E+04-6.42342E+03-1.30456E-10-2.23190E-09
 -1       788 2.63297E+05-8.33670E+02 8.35299E+03-1.42804E+03-2.95017E-10 7.47150E-10
 -1       789 2.64685E+05 1.06556E+03 4.69135E+03-6.41354E+03 4.63444E-10 2.75520E-09
 -1       790 2.63866E+05-9.16948E+01 2.12541E+03-1.43721E+03-1.13687E-10 1.54114E-09
 -1       791 2.64040E+05 1.07229E+02 1.14702E+03-6.40013E+03 3.35831E-10 7.26374E-10
 -1       792 2.63940E+05-1.15577E+01 5.91362E+02-1.44144E+03 2.48377E-10-1.25246E-09
 -1       793 2.63959E+05 1.49644E+01 4.03523E+02-6.39710E+03-2.59408E-10 7.75287E-10
 -1       794 2.63946E+05-6.88845E+00 3.87058E+02-1.44024E+03-1.36168E-10 7.45750E-10
 -1       795 2.63989E+05 5.18456E+01 6.07047E+02-6.40527E+03 3.70562E-10 9.25004E-10
 -1       796 2.63913E+05-4.52352E+01 1.05453E+03-1.43327E+03-7.90692E-11-6.93660E-10
 -1       797 2.64302E+05 5.14594E+02 2.28572E+03-6.42317E+03-3.74143E-10-6.72259E-10
 -1       798 2.63638E+05-4.05314E+02 4.05255E+03-1.42235E+03-1.55069E-10-1.69439E-09
 -1       799 2.66955E+05 5.06442E+03 1.00618E+04-6.43503E+03-1.25709E-09-6.61089E-10
 -1       800 2.61265E+05-3.82148E+03 1.56030E+04-1.42176E+03-9.84528E-11-1.67802E-09
 -1       801-9.55862E+03 2.65218E+05 3.66892E+04-1.47008E+05 4.09273E-10 1.07320E-09
 -1       802 1.96163E+04 2.77354E+05 3.62929E+04-6.40580E+05 7.75617E-09 3.75803E-09
 -1       803-2.04313E+03 2.66918E+05 3.60979E+04-1.46683E+05 4.10546E-09 2.79306E-09
 -1       804 4.14159E+04 2.90564E+05 7.42996E+04-6.40551E+05 5.08589E-09-2.72121E-09
 -1       805-2.79819E+04 2.52561E+05 1.08007E+05-1.47043E+05 3.75076E-09-5.09317E-11
 -1       806-2.45263E+05-6.40237E+04-2.11497E+04-1.11296E+05-2.55727E-09-6.93763E-09
 -1       807-2.45523E+05-5.86457E+04-1.00462E+04-1.17599E+05-6.11635E-10-1.23407E-09
 -1       808-2.45177E+05-5.33492E+04-4.22635E+03-1.15817E+05-3.54817E-09-6.70502E-09
 -1       809-2.43435E+05-5.48993E+04-2.04413E+03-1.18443E+05-4.69447E-09-6.34716E-09
 -1       810-2.45232E+05-5.26376E+04-9.25808E+02-1.16139E+05-5.91626E-10 3.54248E-10
 -1       811-2.43233E+05-5.46567E+04-4.65530E+02-1.18475E+05 1.23987E-09-1.28603E-09
 -1       812-2.45249E+05-5.26187E+04-2.46443E+02-1.16154E+05 5.71492E-09 9.43328E-09
 -1       813-2.43212E+05-5.46505E+04-1.87318E+02-1.18469E+05 1.36487E-09-3.55703E-09
 -1       814-2.45247E+05-5.26212E+04-2.25231E+02-1.16152E+05 4.18595E-10 4.36103E-10
 -1       815-2.43226E+05-5.46586E+04-4.09291E+02-1.18469E+05-5.39330E-10-3.14230E-10
 -1       816-2.45226E+05-5.26409E+04-8.04666E+02-1.16137E+05 2.35923E-09 8.64111E-09
 -1       817-2.43400E+05-5.48667E+04-1.77258E+03-1.18433E+05 1.85082E-09 5.35238E-10
 -1       818-2.45171E+05-5.32648E+04-3.66274E+03-1.15859E+05 8.40919E-09-2.57114E-09
 -1       819-2.45239E+05-5.80786E+04-8.70445E+03-1.17657E+05 1.19198E-08-1.85828E-08
 -1       820-2.45207E+05-6.25424E+04-1.83240E+04-1.11973E+05 1.00599E-08 4.03566E-09
 -1       821-2.40030E+05 7.57543E+03-3.09650E+04 1.44176E+03-2.20643E-09 1.94996E-09
 -1       822-2.51320E+05-1.00569E+04-1.99611E+04 6.67615E+03-1.01920E-09-1.37243E-09
 -1       823-2.44739E+05 7.99229E+02-8.03365E+03 1.39338E+03 2.66141E-09 6.26642E-10
 -1       824-2.46072E+05-1.01799E+03-4.51363E+03 6.74408E+03-9.47239E-10-2.25174E-09
 -1       825-2.45288E+05 8.84195E+01-2.05311E+03 1.37324E+03-4.19391E-09-1.34719E-10
 -1       826-2.45461E+05-9.27276E+01-1.12149E+03 6.77719E+03-7.74025E-09 1.02727E-09
 -1       827-2.45359E+05 1.34913E+01-6.07004E+02 1.36015E+03-4.63297E-09-9.87910E-10
 -1       828-2.45393E+05-4.80076E+00-4.67268E+02 6.79791E+03-5.71811E-09-3.16717E-10
 -1       829-2.45362E+05 1.24151E+01-5.26834E+02 1.35250E+03-4.10807E-10-1.92115E-09
 -1       830-2.45447E+05-6.86441E+01-9.10567E+02 6.80699E+03 4.59431E-09-2.55241E-09
 -1       831-2.45307E+05 7.24814E+01-1.63350E+03 1.35106E+03-2.33895E-09 1.74111E-10
 -1       832-2.45934E+05-7.97630E+02-3.57321E+03 6.80362E+03 4.87887E-10 5.87079E-10
 -1       833-2.44874E+05 6.35297E+02-6.35036E+03 1.35598E+03 2.28482E-09-4.52246E-10
 -1       834-2.50085E+05-7.93943E+03-1.57765E+04 6.77817E+03 3.45483E-09-2.07592E-10
 -1       835-2.41153E+05 5.99140E+03-2.44699E+04 1.37755E+03 3.07250E-09 2.00089E-10
 -1       836-1.26867E+04 6.43817E+05 5.45488E+04-1.58119E+04-9.71340E-10 4.70664E-10
 -1       837 1.90289E+04 6.64141E+05 4.25061E+04-6.75756E+04 9.65656E-10-3.28828E-09
 -1       838-3.10084E+03 6.50313E+05 3.10078E+04-1.58235E+04-1.24965E-09 1.22004E-09
 -1       839 2.46270E+04 6.67392E+05 5.21958E+04-6.75656E+04 1.50521E-09 1.52795E-09
 -1       840-1.73196E+04 6.40553E+05 7.27669E+04-1.58214E+04-1.13141E-09 2.41062E-09
 -1       841-4.65551E+04-1.78409E+03-1.25698E+04-1.97380E+04-2.71962E-09-1.27329E-11
 -1       842-5.35684E+04-1.27847E+04-8.70022E+03-1.70948E+04-2.64913E-09-3.65014E-09
 -1       843-4.90920E+04-6.28106E+03-2.94697E+03-1.89168E+04 1.85656E-09-2.60343E-11
 -1       844-5.06342E+04-7.56403E+03-1.82941E+03-1.80325E+04 6.00664E-10-2.85587E-09
 -1       845-4.94876E+04-6.99073E+03-6.79269E+02-1.88057E+04-1.88163E-09-1.02267E-09
 -1       846-5.01812E+04-6.73415E+03-3.84103E+02-1.81532E+04-6.14935E-09-1.69164E-09
 -1       847-4.95450E+04-7.10877E+03-1.40429E+02-1.87970E+04-1.32834E-09-3.33905E-10
 -1       848-5.01123E+04-6.58716E+03-4.60978E+01-1.81611E+04 5.23266E-09 1.43498E-09
 -1       849-4.95566E+04-7.13732E+03 3.64623E+01-1.87980E+04 2.93211E-09 2.71921E-10
 -1       850-5.00672E+04-6.50669E+03 1.62402E+02-1.81697E+04-8.77876E-12 2.14479E-09
 -1       851-4.95902E+04-7.18905E+03 3.06462E+02-1.87885E+04-1.13049E-09-6.50800E-10
 -1       852-4.98376E+04-6.13747E+03 8.40764E+02-1.82427E+04 5.22074E-09-1.20453E-09
 -1       853-4.97859E+04-7.50566E+03 1.35623E+03-1.87252E+04 3.15225E-09 7.12248E-10
 -1       854-4.84511E+04-3.75934E+03 4.01128E+03-1.87070E+04-2.03487E-09 7.30552E-10
 -1       855-5.09755E+04-9.56083E+03 5.79270E+03-1.83264E+04 7.11907E-10-5.09317E-11
 -1       856-2.80793E+05 6.88262E+03-2.81611E+04 2.94159E+03-2.31330E-09 2.20098E-09
 -1       857-2.91051E+05-9.12250E+03-1.81478E+04 1.37934E+04-5.00586E-09 2.27374E-10
 -1       858-2.85078E+05 7.28051E+02-7.30597E+03 2.85833E+03-8.91782E-09-1.34378E-09
 -1       859-2.86300E+05-8.96434E+02-4.10098E+03 1.39110E+04-4.67355E-09-1.68666E-09
 -1       860-2.85579E+05 8.59803E+01-1.86293E+03 2.82282E+03-2.13640E-09-1.00181E-09
 -1       861-2.85757E+05-5.00445E+01-1.01025E+03 1.39641E+04-9.30260E-09-1.61606E-10
 -1       862-2.85646E+05 1.98334E+01-5.33805E+02 2.80494E+03 2.79556E-09-7.79949E-10
 -1       863-2.85697E+05 3.29662E+01-3.87740E+02 1.39861E+04 1.44533E-08-3.03515E-09
 -1       864-2.85650E+05 1.76604E+01-4.07112E+02 2.80078E+03 2.38782E-09-9.29091E-10
 -1       865-2.85731E+05-1.34319E+01-6.76294E+02 1.39801E+04-2.53777E-10-1.88310E-09
 -1       866-2.85609E+05 5.93448E+01-1.19940E+03 2.81101E+03-5.13865E-10-8.06637E-10
 -1       867-2.86074E+05-5.50609E+02-2.61233E+03 1.39443E+04-1.31558E-09 4.42299E-10
 -1       868-2.85291E+05 4.66233E+02-4.64274E+03 2.83670E+03 5.66388E-09-2.55477E-09
 -1       869-2.89085E+05-5.77502E+03-1.15242E+04 1.38493E+04-3.18096E-09-1.33241E-09
 -1       870-2.82570E+05 4.37197E+03-1.78821E+04 2.90702E+03 2.69984E-09-9.09495E-11
 -1       871-2.45121E+03-2.30258E+04-4.32989E+03 6.49416E+04 3.17505E-09-3.54248E-10
 -1       872-7.94158E+02-2.37840E+04-1.24639E+03 7.56365E+04-1.10003E-09-1.30149E-09
 -1       873 3.15942E+01-2.35086E+04 1.30903E+03 6.48185E+04 1.19417E-09-5.13182E-10
 -1       874 1.53840E+03-2.24740E+04 4.83094E+03 7.56957E+04-2.77487E-09-1.70739E-09
 -1       875 5.12402E+03-2.43765E+04 1.04391E+04 6.48905E+04 2.24645E-09 6.85304E-10
 -1       876 3.26919E+05 4.04385E+04 3.10642E+04 1.28429E+05 8.50628E-09-2.92130E-09
 -1       877 3.34178E+05 6.53499E+04 1.97380E+04 1.32771E+05 7.21400E-09 1.77829E-09
 -1       878 3.32333E+05 4.78658E+04 7.33621E+03 1.27579E+05 4.65900E-09-2.27828E-10
 -1       879 3.27961E+05 5.58659E+04 4.06795E+03 1.34120E+05-4.11148E-10-1.63891E-09
 -1       880 3.32946E+05 4.87093E+04 1.71458E+03 1.27527E+05 2.20007E-09-1.58093E-09
 -1       881 3.27257E+05 5.48089E+04 9.25222E+02 1.34194E+05-4.68827E-09-2.21235E-09
 -1       882 3.33009E+05 4.88171E+04 4.90989E+02 1.27539E+05 7.31779E-09 2.07194E-11
 -1       883 3.27195E+05 5.46932E+04 4.23151E+02 1.34176E+05-3.38740E-09 1.94201E-09
 -1       884 3.33002E+05 4.88205E+04 5.49020E+02 1.27544E+05-8.28521E-10 1.84556E-09
 -1       885 3.27294E+05 5.48144E+04 1.08601E+03 1.34168E+05 1.40112E-08 1.49919E-09
 -1       886 3.32912E+05 4.87052E+04 2.03925E+03 1.27544E+05 7.13914E-09-5.86931E-09
 -1       887 3.28156E+05 5.60530E+04 4.85183E+03 1.34048E+05-7.75015E-09-5.35522E-09
 -1       888 3.32164E+05 4.77127E+04 8.75705E+03 1.27618E+05-3.89701E-09-2.18779E-09
 -1       889 3.35594E+05 6.73541E+04 2.35612E+04 1.32408E+05 7.09349E-09-1.55842E-09
 -1       890 3.25691E+05 3.88578E+04 3.70853E+04 1.28642E+05 2.38015E-09 3.11047E-10
 -1       891 1.22654E+03-1.44857E+05-5.53455E+03 1.36492E+04-1.65710E-09 2.07001E-09
 -1       892-2.03342E+03-1.46848E+05-4.49660E+03 5.93616E+04-1.87640E-09 1.78119E-09
 -1       893 3.46723E+02-1.45479E+05-3.59205E+03 1.35827E+04 2.22940E-10 3.42033E-09
 -1       894-3.17807E+03-1.47507E+05-6.47412E+03 5.93560E+04 3.06909E-09 2.52976E-09
 -1       895 2.17049E+03-1.44189E+05-9.25208E+03 1.36545E+04 3.37104E-09 3.06636E-09
 -1       896 5.82961E+05-4.43368E+03 1.03724E+04 1.35382E+03 3.37934E-11 1.71394E-09
 -1       897 5.87519E+05 5.13294E+03 7.34334E+03-3.60345E+03-2.17064E-10 5.90148E-10
 -1       898 5.84729E+05-6.86307E+02 2.69565E+03 7.07366E+02 2.88836E-10 1.60981E-10
 -1       899 5.85453E+05 7.95125E+02 1.70696E+03-2.60432E+03-1.22142E-11-3.80851E-10
 -1       900 5.85024E+05-1.07037E+02 7.27288E+02 3.54679E+02 3.24512E-10-5.30378E-10
 -1       901 5.85113E+05 1.33770E+02 4.88664E+02-2.10645E+03 4.12413E-10-8.22265E-10
 -1       902 5.85069E+05-2.58540E+01 3.46174E+02 2.09491E+02 2.76932E-10-8.99146E-10
 -1       903 5.85092E+05 9.39750E+01 4.75135E+02-1.98858E+03-2.70405E-10-1.00572E-09
 -1       904 5.85044E+05-6.71652E+01 7.35047E+02 2.36809E+02-2.57369E-10-1.01167E-09
 -1       905 5.85312E+05 4.92630E+02 1.60986E+03-2.22245E+03 3.49448E-10-8.79254E-10
 -1       906 5.84850E+05-4.23919E+02 2.75271E+03 4.43365E+02 4.07447E-10-5.29440E-10
 -1       907 5.86657E+05 3.18037E+03 6.74452E+03-2.86446E+03 5.23158E-10 2.51248E-11
 -1       908 5.83698E+05-2.74829E+03 1.07682E+04 8.78831E+02 1.12578E-10 4.35193E-10
 -1       909 5.94797E+05 2.05575E+04 2.93624E+04-4.08072E+03-1.82879E-10 9.05857E-10
 -1       910 5.76710E+05-1.77472E+04 4.15826E+04 1.65957E+03 2.93284E-10 1.75532E-09
 -1       911 1.71723E+05-2.20251E+03 5.10281E+03 1.22507E+03 1.15307E-09 2.13299E-09
 -1       912 1.74240E+05 2.54348E+03 3.66130E+03-4.50676E+03 1.06451E-09 5.01416E-10
 -1       913 1.72650E+05-3.41413E+02 1.32753E+03 9.09149E+02 2.67107E-10-8.77662E-11
 -1       914 1.73126E+05 3.95743E+02 8.67216E+02-3.99232E+03-4.17621E-10-1.61987E-09
 -1       915 1.72826E+05-5.42435E+01 3.79662E+02 7.10611E+02 7.07132E-10-1.69881E-09
 -1       916 1.72912E+05 7.55920E+01 2.94405E+02-3.69860E+03 1.56499E-09-2.56206E-09
 -1       917 1.72859E+05-1.83889E+01 2.65275E+02 6.15432E+02 1.06459E-09-2.43367E-09
 -1       918 1.72907E+05 9.13598E+01 4.41851E+02-3.60489E+03 4.49280E-10-2.72423E-09
 -1       919 1.72829E+05-6.88590E+01 7.39805E+02 6.16899E+02 1.20961E-09-2.64092E-09
 -1       920 1.73152E+05 5.14097E+02 1.66192E+03-3.70459E+03 5.99755E-10-2.37074E-09
 -1       921 1.72616E+05-4.41244E+02 2.85154E+03 7.15132E+02 1.04376E-09-2.03170E-09
 -1       922 1.74585E+05 3.30881E+03 7.01330E+03-4.00559E+03 1.24038E-09-9.24956E-10
 -1       923 1.71401E+05-2.85900E+03 1.11811E+04 9.17913E+02 4.64070E-10-1.25056E-10
 -1       924 1.83094E+05 2.13752E+04 3.05331E+04-4.54309E+03-2.11017E-10 1.09276E-09
 -1       925 1.64118E+05-1.84549E+04 4.32065E+04 1.25257E+03 1.99975E-10 1.98088E-09
 -1       926-7.44334E+05 1.64860E+04-3.86296E+04-1.54691E+03 1.97413E-09 3.18141E-09
 -1       927-7.60940E+05-1.90996E+04-2.72471E+04 1.84326E+03-2.09167E-09 3.27964E-09
 -1       928-7.50787E+05 2.55196E+03-9.99627E+03-1.14315E+03-4.87432E-11 2.29920E-09
 -1       929-7.53413E+05-2.95404E+03-6.23474E+03 8.00513E+02 1.14449E-09 1.17461E-09
 -1       930-7.51849E+05 3.91613E+02-2.53497E+03-5.04188E+02-4.65917E-10 1.70303E-09
 -1       931-7.52172E+05-4.50875E+02-1.43091E+03-5.38484E+02-8.98019E-10 7.34417E-10
 -1       932-7.52025E+05 5.57952E+01-5.87644E+02 1.95866E+02-5.40012E-13 1.46230E-10
 -1       933-7.51968E+05-4.38713E+01-2.19062E+02-1.80319E+03-3.61865E-10-5.34726E-10
 -1       934-7.52054E+05-1.31681E+01 6.94344E+01 7.60544E+02-4.88527E-10-5.74559E-10
 -1       935-7.51881E+05 1.55277E+02 4.48032E+02-2.63768E+03-3.74076E-10-1.21256E-09
 -1       936-7.52114E+05-1.41178E+02 8.80286E+02 1.03036E+03-2.75715E-10-1.02403E-09
 -1       937-7.51436E+05 1.06926E+03 2.24006E+03-2.80587E+03-1.07135E-09-1.69030E-09
 -1       938-7.52499E+05-9.23952E+02 3.60516E+03 9.28740E+02-4.54165E-10-1.68302E-09
 -1       939-7.48703E+05 6.91140E+03 9.85577E+03-2.26119E+03-8.89884E-11-7.80801E-10
 -1       940-7.54840E+05-5.96526E+03 1.39687E+04 4.85670E+02-6.23928E-10 1.90994E-10
 -1       941 3.19505E+06-1.57351E+05 3.69946E+05 1.85863E+02 1.17541E-08 3.94357E-09
 -1       942 3.35416E+06 1.82387E+05 2.60699E+05 1.18398E+03 1.23975E-08-2.55386E-09
 -1       943 3.25669E+06-2.43839E+04 9.59001E+04 4.89257E+02 4.83704E-09 3.92902E-10
 -1       944 3.28268E+06 2.82430E+04 6.00575E+04 7.86992E+02-1.25485E-09-1.55069E-09
 -1       945 3.26680E+06-3.77162E+03 2.47485E+04 5.82911E+02 1.65374E-09 2.80124E-09
 -1       946 3.27102E+06 4.42951E+03 1.47929E+04 6.57874E+02 8.03718E-10 5.52723E-09
 -1       947 3.26846E+06-6.46555E+02 7.42559E+03 6.18406E+02-1.28570E-10 4.77439E-09
 -1       948 3.26933E+06 1.20247E+03 6.13942E+03 5.88851E+02 6.29481E-10 3.79048E-09
 -1       949 3.26851E+06-5.53551E+02 6.54651E+03 6.51941E+02 3.63078E-10-3.60660E-09
 -1       950 3.27058E+06 3.62141E+03 1.22632E+04 4.70059E+02-1.51098E-09 4.22438E-09
 -1       951 3.26719E+06-3.05866E+03 2.01742E+04 7.37196E+02-4.60529E-10-4.17731E-09
 -1       952 3.28000E+06 2.28758E+04 4.87036E+04 1.09743E+02-5.88870E-10-2.33649E-09
 -1       953 3.25901E+06-1.97468E+04 7.76875E+04 1.01223E+03-5.16159E-09 1.73895E-09
 -1       954 3.33789E+06 1.47698E+05 2.11126E+05-1.09577E+03-1.77340E-09-1.62981E-09
 -1       955 3.20905E+06-1.27431E+05 2.99498E+05 1.94235E+03-9.38593E-09 1.06229E-09
 -1       956-1.73601E+05-2.94334E+03-6.02966E+03 2.50931E+04-2.22190E-09 2.89219E-10
 -1       957-1.74692E+05-9.25278E+02-3.03623E+03 2.89970E+04-9.69521E-10-1.47793E-10
 -1       958-1.74095E+05-1.05760E+02-1.36526E+03 2.49400E+04 1.90630E-09-6.15955E-10
 -1       959-1.74200E+05-2.64273E+00-6.93787E+02 2.91648E+04-2.90220E-09-5.04770E-11
 -1       960-1.74156E+05 3.84184E+01-3.36786E+02 2.49239E+04-4.94038E-09-2.37469E-09
 -1       961-1.74170E+05 4.68099E+01-1.77400E+02 2.91828E+04-8.64497E-09 2.22508E-09
 -1       962-1.74175E+05 4.39061E+01-9.98421E+01 2.49218E+04-3.56158E-09-1.12777E-09
 -1       963-1.74176E+05 5.23770E+01-7.67564E+01 2.91855E+04-6.43809E-09 6.70752E-10
 -1       964-1.74183E+05 4.82378E+01-8.93079E+01 2.49211E+04-8.89031E-10-1.23555E-09
 -1       965-1.74186E+05 5.62168E+01-1.51091E+02 2.91855E+04 4.47392E-09-8.66294E-10
 -1       966-1.74181E+05 5.17204E+01-2.82011E+02 2.49218E+04-2.82454E-09-9.48376E-10
 -1       967-1.74226E+05 2.30365E+01-5.80006E+02 2.91774E+04 4.15866E-10 9.04947E-11
 -1       968-1.74142E+05-6.11868E+01-1.13960E+03 2.49294E+04 9.22228E-10-1.60742E-09
 -1       969-1.74651E+05-7.41105E+02-2.53643E+03 2.90979E+04-3.19915E-10 3.43789E-10
 -1       970-1.73738E+05-2.42771E+03-5.03585E+03 2.50037E+04 1.47020E-09-2.20916E-09
 -1       971-3.80303E+05 5.77784E+03-2.36581E+04 2.86515E+03-4.48381E-09 2.55022E-09
 -1       972-3.88899E+05-7.66130E+03-1.52449E+04 1.37200E+04-3.94425E-09 1.50703E-09
 -1       973-3.83903E+05 6.10031E+02-6.14171E+03 2.76023E+03-5.89375E-09 2.72303E-09
 -1       974-3.84916E+05-7.48959E+02-3.45225E+03 1.38743E+04 8.96762E-10 4.19959E-09
 -1       975-3.84324E+05 7.22528E+01-1.58124E+03 2.70995E+03 7.80574E-10 9.06539E-10
 -1       976-3.84466E+05-3.63430E+01-8.81096E+02 1.39518E+04-7.17330E-09 4.67986E-09
 -1       977-3.84379E+05 1.83220E+01-5.12864E+02 2.68251E+03 6.52608E-09 1.27619E-09
 -1       978-3.84425E+05 3.00176E+01-4.58748E+02 1.39879E+04 1.15471E-08 1.25874E-09
 -1       979-3.84378E+05 2.16338E+01-6.00464E+02 2.67378E+03 4.36703E-09 1.07036E-09
 -1       980-3.84498E+05-5.61112E+01-1.11437E+03 1.39861E+04 1.29023E-08 2.87154E-09
 -1       981-3.84307E+05 9.61958E+01-2.04170E+03 2.68436E+03 1.29660E-09 1.33571E-09
 -1       982-3.85102E+05-9.78818E+02-4.49106E+03 1.39448E+04 2.10844E-09 4.43532E-09
 -1       983-3.83760E+05 8.01555E+02-7.99488E+03 2.71532E+03 3.37036E-09 1.36743E-09
 -1       984-3.90312E+05-9.97984E+03-1.98649E+04 1.38374E+04-6.38920E-09 3.38287E-09
 -1       985-3.79072E+05 7.54178E+03-3.08194E+04 2.79343E+03 7.85303E-09 1.88265E-09
 -3
    1PSTEP                        17           9           1          
  100CL  109 5.03174E-01         841                     0    9           1
 -4  DISP        4    1
 -5  D1          1    2    1    0
 -5  D2          1    2    2    0
 -5  D3          1    2    3    0
 -5  ALL         1    2    0    0    1ALL
 -1         1 6.11117E-05 0.00000E+00 0.00000E+00
 -1         2 4.59150E-05 0.00000E+00 0.00000E+00
 -1         3 3.80770E-05 0.00000E+00 0.00000E+00
 -1         4 3.40244E-05 0.00000E+00 0.00000E+00
 -1         5 3.22799E-05 0.00000E+00 0.00000E+00
 -1         8 4.78082E-05-6.05016E-07 0.00000E+00
 -1         9 3.81464E-05 5.31873E-07 0.00000E+00
 -1        10 3.52761E-05-1.72319E-06 0.00000E+00
 -1        11 3.31124E-05-3.52010E-07 0.00000E+00
 -1        12 3.09208E-05 8.66425E-07 0.00000E+00
 -1        15 2.10235E-05-1.15774E-06 0.00000E+00
 -1        16 2.73639E-05 5.38673E-07 0.00000E+00
 -1        17 2.53440E-05-3.44691E-06 0.00000E+00
 -1        18 2.59013E-05-7.07070E-07 0.00000E+00
 -1        19 2.73649E-05 1.71313E-06 0.00000E+00
 -1        20 2.78004E-05 1.81013E-05 0.00000E+00
 -1        21 2.77850E-05 4.33824E-05 0.00000E+00
 -1        22 6.91822E-06-7.58938E-07 0.00000E+00
 -1        23 9.26675E-06 9.52849E-07 0.00000E+00
 -1        24 1.03673E-05-4.01074E-06 0.00000E+00
 -1        25 2.23095E-05-5.03688E-07 0.00000E+00
 -1        26 2.38288E-05 2.26753E-06 0.00000E+00
 -1        27 2.24105E-05 1.74697E-05 0.00000E+00
 -1        28 2.07418E-05 4.27849E-05 0.00000E+00
 -1        29 0.00000E+00 0.00000E+00 0.00000E+00
 -1        30 3.34204E-06 1.25952E-06 0.00000E+00
 -1        31 4.30222E-06-3.31727E-06 0.00000E+00
 -1        32 0.00000E+00 0.00000E+00 0.00000E+00
 -1        33 1.87861E-05 3.65474E-06 0.00000E+00
 -1        34 1.77694E-05 1.74145E-05 0.00000E+00
 -1        35 1.55277E-05 4.24684E-05 0.00000E+00
 -1        36 6.01919E-05-9.75775E-20 0.00000E+00
 -1        37 5.92421E-05-2.98422E-19 0.00000E+00
 -1        38 5.82943E-05-5.93991E-19-2.64698E-23
 -1        39 5.73408E-05-8.05351E-19-1.32349E-23
 -1        40 5.63871E-05-7.89066E-19 0.00000E+00
 -1        41 5.54323E-05-5.55807E-19 0.00000E+00
 -1        42 5.44773E-05-2.79736E-19 2.64698E-23
 -1        43 5.35222E-05 6.22040E-20 0.00000E+00
 -1        44 5.25670E-05 4.22545E-19 2.64698E-23
 -1        45 5.16119E-05 6.88119E-19 0.00000E+00
 -1        46 5.06569E-05 7.72099E-19 0.00000E+00
 -1        47 4.97027E-05 7.00922E-19 1.32349E-23
 -1        48 4.87486E-05 4.88708E-19 0.00000E+00
 -1        49 4.77982E-05 2.83432E-19-1.32349E-23
 -1        50 4.68466E-05 9.76363E-20 2.64698E-23
 -1        51 6.01159E-05-1.03166E-07 0.00000E+00
 -1        52 5.84558E-05-2.01492E-07 0.00000E+00
 -1        53 5.62599E-05-2.99154E-07 0.00000E+00
 -1        54 5.36631E-05-3.97559E-07 0.00000E+00
 -1        55 5.08005E-05-4.97986E-07 8.27181E-25
 -1        56 5.99247E-05-5.02072E-07 2.64698E-23
 -1        57 5.87250E-05-1.10168E-06 0.00000E+00
 -1        58 5.75435E-05-1.74266E-06-2.64698E-23
 -1        59 5.63555E-05-2.38832E-06 0.00000E+00
 -1        60 5.51527E-05-2.99552E-06 0.00000E+00
 -1        61 5.39193E-05-3.52522E-06 0.00000E+00
 -1        62 5.26432E-05-3.94153E-06 5.29396E-23
 -1        63 5.13123E-05-4.21207E-06-2.64698E-23
 -1        64 4.99171E-05-4.31147E-06 5.29396E-23
 -1        65 4.84500E-05-4.21892E-06 0.00000E+00
 -1        66 4.69067E-05-3.92310E-06 0.00000E+00
 -1        67 4.52862E-05-3.41774E-06 1.32349E-23
 -1        68 4.35888E-05-2.70756E-06 0.00000E+00
 -1        69 4.18253E-05-1.79986E-06 0.00000E+00
 -1        70 3.99934E-05-7.17555E-07 0.00000E+00
 -1        71 4.54256E-05-9.28738E-20 1.32349E-23
 -1        72 4.49350E-05-2.30336E-19 0.00000E+00
 -1        73 4.44444E-05-3.67706E-19 1.32349E-23
 -1        74 4.39537E-05-5.15874E-19 6.61744E-24
 -1        75 4.34629E-05-6.20316E-19 0.00000E+00
 -1        76 4.29721E-05-7.02599E-19 0.00000E+00
 -1        77 4.24813E-05-8.03809E-19-1.32349E-23
 -1        78 4.19904E-05-8.06140E-19 0.00000E+00
 -1        79 4.14996E-05-7.79029E-19-1.32349E-23
 -1        80 4.10089E-05-7.40375E-19 6.61744E-24
 -1        81 4.05182E-05-6.44291E-19 0.00000E+00
 -1        82 4.00278E-05-5.17379E-19 0.00000E+00
 -1        83 3.95374E-05-3.20890E-19 0.00000E+00
 -1        84 3.90484E-05-1.38088E-19 6.61744E-24
 -1        85 3.85590E-05-4.35502E-20 1.32349E-23
 -1        86 4.56062E-05 7.31170E-08 0.00000E+00
 -1        87 4.46956E-05 1.67940E-07 0.00000E+00
 -1        88 4.33427E-05 2.60778E-07 4.13590E-25
 -1        89 4.17052E-05 3.54887E-07-2.06795E-25
 -1        90 3.99257E-05 4.49809E-07 0.00000E+00
 -1        91 4.69864E-05-4.39298E-06 1.32349E-23
 -1        92 5.11094E-05-1.71304E-05 0.00000E+00
 -1        93 5.73829E-05-3.58637E-05 0.00000E+00
 -1        94 6.48953E-05-5.81081E-05-6.61744E-24
 -1        95 7.24294E-05-8.04143E-05 0.00000E+00
 -1        96 7.87676E-05-9.93309E-05 0.00000E+00
 -1        97 8.29883E-05-1.12339E-04 0.00000E+00
 -1        98 8.41778E-05-1.17055E-04 0.00000E+00
 -1        99 8.22114E-05-1.13347E-04-1.32349E-23
 -1       100 7.70284E-05-1.01261E-04-6.61744E-24
 -1       101 6.94656E-05-8.30949E-05 0.00000E+00
 -1       102 6.04453E-05-6.12596E-05 0.00000E+00
 -1       103 5.13156E-05-3.91508E-05 1.32349E-23
 -1       104 4.34319E-05-2.01677E-05 0.00000E+00
 -1       105 3.77803E-05-6.87347E-06-1.32349E-23
 -1       106 3.78210E-05 3.56141E-20-6.61744E-24
 -1       107 3.75670E-05 9.16620E-20 0.00000E+00
 -1       108 3.73130E-05 9.41352E-20 6.61744E-24
 -1       109 3.70593E-05 1.17790E-19 0.00000E+00
 -1       110 3.68056E-05 1.46669E-19 0.00000E+00
 -1       111 3.65521E-05 2.41595E-19 3.30872E-24
 -1       112 3.62985E-05 2.70527E-19 6.61744E-24
 -1       113 3.60449E-05 2.80129E-19 3.30872E-24
 -1       114 3.57914E-05 2.70804E-19 0.00000E+00
 -1       115 3.55379E-05 2.42322E-19 0.00000E+00
 -1       116 3.52845E-05 1.81053E-19 0.00000E+00
 -1       117 3.50312E-05 1.03854E-19-3.30872E-24
 -1       118 3.47779E-05 9.34338E-20 6.61744E-24
 -1       119 3.45254E-05 1.17997E-19-3.30872E-24
 -1       120 3.42727E-05 5.20547E-20 6.61744E-24
 -1       121 3.80415E-05-2.87650E-07 0.00000E+00
 -1       122 3.78905E-05-5.74528E-07 0.00000E+00
 -1       123 3.75809E-05-8.61472E-07 0.00000E+00
 -1       124 3.70699E-05-1.14843E-06 3.30872E-24
 -1       125 3.63155E-05-1.43551E-06 6.61744E-24
 -1       126 3.78203E-05-1.69661E-07-6.61744E-24
 -1       127 3.76122E-05-4.65789E-07 0.00000E+00
 -1       128 3.74389E-05-8.54852E-07 0.00000E+00
 -1       129 3.72874E-05-1.30174E-06 0.00000E+00
 -1       130 3.71409E-05-1.76195E-06 0.00000E+00
 -1       131 3.69827E-05-2.19074E-06 3.30872E-24
 -1       132 3.67981E-05-2.54899E-06 0.00000E+00
 -1       133 3.65727E-05-2.79835E-06 3.30872E-24
 -1       134 3.62985E-05-2.91757E-06 0.00000E+00
 -1       135 3.59681E-05-2.88692E-06 0.00000E+00
 -1       136 3.55830E-05-2.71044E-06-6.61744E-24
 -1       137 3.51455E-05-2.39382E-06-3.30872E-24
 -1       138 3.46660E-05-1.96524E-06 6.61744E-24
 -1       139 3.41563E-05-1.45373E-06 3.30872E-24
 -1       140 3.36313E-05-9.02326E-07 0.00000E+00
 -1       141 3.39128E-05-3.55803E-20-3.30872E-24
 -1       142 3.38026E-05-8.07968E-20-1.65436E-24
 -1       143 3.36922E-05-7.99170E-20 0.00000E+00
 -1       144 3.35822E-05-3.42497E-20 0.00000E+00
 -1       145 3.34721E-05-3.25684E-20 0.00000E+00
 -1       146 3.33621E-05 2.12806E-20 1.65436E-24
 -1       147 3.32521E-05 7.55600E-20-3.30872E-24
 -1       148 3.31421E-05 1.25837E-19 0.00000E+00
 -1       149 3.30322E-05 1.62466E-19 0.00000E+00
 -1       150 3.29223E-05 1.69892E-19 0.00000E+00
 -1       151 3.28125E-05 1.72162E-19 0.00000E+00
 -1       152 3.27030E-05 1.31394E-19 0.00000E+00
 -1       153 3.25937E-05 6.77402E-20 3.30872E-24
 -1       154 3.24862E-05 4.09263E-21 0.00000E+00
 -1       155 3.23781E-05 4.14759E-21-4.13590E-25
 -1       156 3.40376E-05-6.06537E-08 3.30872E-24
 -1       157 3.40712E-05-1.17951E-07 1.65436E-24
 -1       158 3.40597E-05-1.75502E-07-3.30872E-24
 -1       159 3.39375E-05-2.33164E-07-1.65436E-24
 -1       160 3.36423E-05-2.90579E-07 0.00000E+00
 -1       161 3.38767E-05-7.15504E-08 0.00000E+00
 -1       162 3.37388E-05-1.70744E-07-1.65436E-24
 -1       163 3.36071E-05-2.86094E-07 0.00000E+00
 -1       164 3.34770E-05-4.06193E-07-1.65436E-24
 -1       165 3.33443E-05-5.19010E-07-3.30872E-24
 -1       166 3.32043E-05-6.12597E-07 0.00000E+00
 -1       167 3.30533E-05-6.76956E-07 0.00000E+00
 -1       168 3.28877E-05-7.02274E-07 0.00000E+00
 -1       169 3.27051E-05-6.82139E-07 0.00000E+00
 -1       170 3.25032E-05-6.10399E-07 1.65436E-24
 -1       171 3.22814E-05-4.85557E-07 0.00000E+00
 -1       172 3.20397E-05-3.06303E-07 1.65436E-24
 -1       173 3.17790E-05-7.64264E-08 0.00000E+00
 -1       174 3.15029E-05 2.00906E-07 1.65436E-24
 -1       175 3.12116E-05 5.16422E-07 4.13590E-25
 -1       191 3.22315E-05 1.44245E-07 0.00000E+00
 -1       192 3.21091E-05 2.88787E-07 0.00000E+00
 -1       193 3.19144E-05 4.33389E-07-6.61744E-24
 -1       194 3.16498E-05 5.77962E-07 0.00000E+00
 -1       195 3.13176E-05 7.22411E-07 0.00000E+00
 -1       251 4.72476E-05 4.05412E-06 1.32349E-23
 -1       252 4.66448E-05 1.31701E-05 0.00000E+00
 -1       253 4.60145E-05 2.51555E-05-1.32349E-23
 -1       254 4.53671E-05 3.83555E-05-6.61744E-24
 -1       255 4.47287E-05 5.07892E-05-1.32349E-23
 -1       256 4.41190E-05 6.04940E-05 0.00000E+00
 -1       257 4.35376E-05 6.62413E-05 0.00000E+00
 -1       258 4.29718E-05 6.68938E-05 0.00000E+00
 -1       259 4.23980E-05 6.26838E-05 1.32349E-23
 -1       260 4.17962E-05 5.39559E-05 0.00000E+00
 -1       261 4.11663E-05 4.22696E-05 1.32349E-23
 -1       262 4.05211E-05 2.92524E-05 0.00000E+00
 -1       263 3.98837E-05 1.68904E-05 0.00000E+00
 -1       264 3.92767E-05 7.15469E-06-6.61744E-24
 -1       265 3.86971E-05 1.31025E-06-1.32349E-23
 -1       266 4.52433E-05-6.96149E-07 0.00000E+00
 -1       267 4.23000E-05-7.81498E-07-1.65436E-24
 -1       268 3.86831E-05-8.69403E-07 0.00000E+00
 -1       269 3.40995E-05-9.59301E-07 0.00000E+00
 -1       270 2.82961E-05-1.05546E-06 0.00000E+00
 -1       271 4.59597E-05 1.09045E-06 0.00000E+00
 -1       272 4.42777E-05 2.23436E-06-1.32349E-23
 -1       273 4.27778E-05 2.89764E-06 0.00000E+00
 -1       274 4.14296E-05 3.14092E-06 1.32349E-23
 -1       275 4.02124E-05 3.03385E-06-2.64698E-23
 -1       276 3.90985E-05 2.64836E-06 0.00000E+00
 -1       277 3.80605E-05 2.05999E-06 2.64698E-23
 -1       278 3.70693E-05 1.34651E-06-1.32349E-23
 -1       279 3.60952E-05 5.87159E-07 0.00000E+00
 -1       280 3.51085E-05-1.38237E-07 0.00000E+00
 -1       281 3.40796E-05-7.50347E-07 2.64698E-23
 -1       282 3.29799E-05-1.17100E-06 1.32349E-23
 -1       283 3.17806E-05-1.32455E-06 2.64698E-23
 -1       284 3.04590E-05-1.13675E-06-1.32349E-23
 -1       285 2.89830E-05-5.41225E-07-2.64698E-23
 -1       286 3.79639E-05 2.06475E-06 6.61744E-24
 -1       287 3.77846E-05 3.11689E-06 0.00000E+00
 -1       288 3.76056E-05 3.69761E-06-6.61744E-24
 -1       289 3.74272E-05 3.81967E-06 3.30872E-24
 -1       290 3.72488E-05 3.53725E-06 6.61744E-24
 -1       291 3.70703E-05 2.90749E-06 0.00000E+00
 -1       292 3.68916E-05 2.01890E-06-6.61744E-24
 -1       293 3.67128E-05 9.61821E-07 0.00000E+00
 -1       294 3.65340E-05-1.58138E-07 6.61744E-24
 -1       295 3.63551E-05-1.23493E-06 0.00000E+00
 -1       296 3.61764E-05-2.16641E-06 6.61744E-24
 -1       297 3.59977E-05-2.85151E-06 0.00000E+00
 -1       298 3.58191E-05-3.21135E-06 0.00000E+00
 -1       299 3.56397E-05-3.16950E-06-3.30872E-24
 -1       300 3.54604E-05-2.68576E-06 6.61744E-24
 -1       301 3.63480E-05 5.25855E-07-3.30872E-24
 -1       302 3.45416E-05 5.30604E-07 0.00000E+00
 -1       303 3.27335E-05 5.37273E-07 1.65436E-24
 -1       304 3.09303E-05 5.43695E-07 1.65436E-24
 -1       305 2.91384E-05 5.47652E-07 0.00000E+00
 -1       306 3.68347E-05 1.71143E-06 0.00000E+00
 -1       307 3.57074E-05 2.33127E-06 0.00000E+00
 -1       308 3.47619E-05 2.46936E-06 2.64698E-23
 -1       309 3.39661E-05 2.19783E-06-1.32349E-23
 -1       310 3.32942E-05 1.59479E-06 0.00000E+00
 -1       311 3.27160E-05 7.40007E-07 1.32349E-23
 -1       312 3.22011E-05-2.84414E-07 2.64698E-23
 -1       313 3.17184E-05-1.39508E-06 0.00000E+00
 -1       314 3.12364E-05-2.50781E-06 2.64698E-23
 -1       315 3.07239E-05-3.53839E-06 0.00000E+00
 -1       316 3.01495E-05-4.40342E-06 0.00000E+00
 -1       317 2.94831E-05-5.02067E-06-1.32349E-23
 -1       318 2.86944E-05-5.31029E-06-2.64698E-23
 -1       319 2.77578E-05-5.19384E-06-1.32349E-23
 -1       320 2.66407E-05-4.59923E-06 0.00000E+00
 -1       321 3.51335E-05-6.54480E-07 0.00000E+00
 -1       322 3.49977E-05 1.46407E-07-3.30872E-24
 -1       323 3.48616E-05 6.89532E-07-3.30872E-24
 -1       324 3.47269E-05 9.86378E-07 0.00000E+00
 -1       325 3.45922E-05 1.06531E-06 0.00000E+00
 -1       326 3.44578E-05 9.55902E-07 0.00000E+00
 -1       327 3.43234E-05 7.00619E-07 0.00000E+00
 -1       328 3.41890E-05 3.42741E-07 0.00000E+00
 -1       329 3.40546E-05-6.74207E-08 3.30872E-24
 -1       330 3.39201E-05-4.79281E-07 1.65436E-24
 -1       331 3.37858E-05-8.42127E-07 0.00000E+00
 -1       332 3.36514E-05-1.10552E-06-1.65436E-24
 -1       333 3.35170E-05-1.22582E-06-3.30872E-24
 -1       334 3.33825E-05-1.16021E-06 0.00000E+00
 -1       335 3.32479E-05-8.78575E-07 0.00000E+00
 -1       336 3.39422E-05-2.01183E-06 6.61744E-24
 -1       337 3.24031E-05-2.30023E-06 0.00000E+00
 -1       338 3.07159E-05-2.58873E-06 6.61744E-24
 -1       339 2.89383E-05-2.87650E-06 0.00000E+00
 -1       340 2.71283E-05-3.16442E-06 6.61744E-24
 -1       341 3.38801E-05 5.47499E-07 0.00000E+00
 -1       342 3.15457E-05 5.27073E-06 0.00000E+00
 -1       343 2.85854E-05 1.16377E-05 0.00000E+00
 -1       344 2.53177E-05 1.88041E-05 6.61744E-24
 -1       345 2.21473E-05 2.57159E-05 1.32349E-23
 -1       346 1.94752E-05 3.13233E-05 0.00000E+00
 -1       347 1.75667E-05 3.49212E-05-1.32349E-23
 -1       348 1.66688E-05 3.58434E-05 0.00000E+00
 -1       349 1.67578E-05 3.41326E-05 0.00000E+00
 -1       350 1.77907E-05 2.98842E-05 0.00000E+00
 -1       351 1.94778E-05 2.38668E-05 0.00000E+00
 -1       352 2.15202E-05 1.68862E-05-6.61744E-24
 -1       353 2.35264E-05 1.00042E-05 1.32349E-23
 -1       354 2.51096E-05 4.28239E-06 0.00000E+00
 -1       355 2.59838E-05 4.71733E-07 6.61744E-24
 -1       356 3.29732E-05 2.26088E-07 0.00000E+00
 -1       357 3.28349E-05 6.60610E-07 1.65436E-24
 -1       358 3.26965E-05 9.57724E-07 0.00000E+00
 -1       359 3.25584E-05 1.12436E-06 0.00000E+00
 -1       360 3.24203E-05 1.17665E-06 0.00000E+00
 -1       361 3.22822E-05 1.13135E-06 0.00000E+00
 -1       362 3.21441E-05 1.01212E-06 0.00000E+00
 -1       363 3.20060E-05 8.43001E-07 0.00000E+00
 -1       364 3.18679E-05 6.51568E-07 0.00000E+00
 -1       365 3.17300E-05 4.65518E-07 1.65436E-24
 -1       366 3.15921E-05 3.12168E-07-3.30872E-24
 -1       367 3.14546E-05 2.18647E-07 0.00000E+00
 -1       368 3.13172E-05 2.07879E-07 0.00000E+00
 -1       369 3.11818E-05 3.02318E-07 0.00000E+00
 -1       370 3.10458E-05 5.17041E-07-5.16988E-26
 -1       371 3.22133E-05-4.15391E-07-3.30872E-24
 -1       372 3.08391E-05-4.75123E-07 0.00000E+00
 -1       373 2.92554E-05-5.35366E-07-1.65436E-24
 -1       374 2.77284E-05-5.94111E-07 0.00000E+00
 -1       375 2.65225E-05-6.52630E-07 0.00000E+00
 -1       376 3.26191E-05 1.44835E-07 0.00000E+00
 -1       377 3.21608E-05 5.34317E-07 0.00000E+00
 -1       378 3.17453E-05 8.10666E-07 0.00000E+00
 -1       379 3.13738E-05 9.67043E-07 0.00000E+00
 -1       380 3.10426E-05 1.01608E-06 6.61744E-24
 -1       381 3.07464E-05 9.71262E-07 0.00000E+00
 -1       382 3.04748E-05 8.60903E-07 0.00000E+00
 -1       383 3.02169E-05 7.14027E-07 0.00000E+00
 -1       384 2.99596E-05 5.65543E-07 6.61744E-24
 -1       385 2.96898E-05 4.50411E-07 0.00000E+00
 -1       386 2.93967E-05 3.97844E-07 0.00000E+00
 -1       387 2.90699E-05 4.36514E-07 3.30872E-24
 -1       388 2.87035E-05 5.80831E-07 0.00000E+00
 -1       389 2.82950E-05 8.45151E-07 3.30872E-24
 -1       390 2.78428E-05 1.22285E-06 0.00000E+00
 -1       406 3.04351E-05 1.00828E-06-6.61744E-24
 -1       407 2.98958E-05 1.15036E-06-3.30872E-24
 -1       408 2.93106E-05 1.29239E-06 0.00000E+00
 -1       409 2.86881E-05 1.43406E-06 3.30872E-24
 -1       410 2.80366E-05 1.57496E-06 3.30872E-24
 -1       466 2.13859E-05 5.49176E-06 0.00000E+00
 -1       467 2.17787E-05 9.48689E-06 0.00000E+00
 -1       468 2.21764E-05 1.15093E-05 1.32349E-23
 -1       469 2.25789E-05 1.22071E-05-6.61744E-24
 -1       470 2.29818E-05 1.19307E-05-1.32349E-23
 -1       471 2.33850E-05 1.10136E-05 0.00000E+00
 -1       472 2.37878E-05 9.64517E-06 1.32349E-23
 -1       473 2.41902E-05 8.00707E-06 6.61744E-24
 -1       474 2.45924E-05 6.22002E-06 0.00000E+00
 -1       475 2.49944E-05 4.40230E-06 6.61744E-24
 -1       476 2.53963E-05 2.66526E-06 0.00000E+00
 -1       477 2.57975E-05 1.12156E-06 0.00000E+00
 -1       478 2.61990E-05-7.24712E-08 1.32349E-23
 -1       479 2.65956E-05-7.54656E-07 3.30872E-24
 -1       480 2.69942E-05-6.47829E-07 1.65436E-24
 -1       481 1.43688E-05-1.11027E-06 0.00000E+00
 -1       482 1.03721E-05-1.04584E-06 0.00000E+00
 -1       483 8.31848E-06-9.75714E-07 1.65436E-24
 -1       484 7.49904E-06-9.03461E-07 0.00000E+00
 -1       485 7.25223E-06-8.30740E-07 0.00000E+00
 -1       486 1.60741E-05 1.05688E-05 0.00000E+00
 -1       487 8.12931E-06 2.98810E-05 0.00000E+00
 -1       488-1.69974E-06 5.39235E-05 1.32349E-23
 -1       489-1.22542E-05 7.97583E-05 0.00000E+00
 -1       490-2.21794E-05 1.04028E-04 1.32349E-23
 -1       491-3.01473E-05 1.23396E-04-6.61744E-24
 -1       492-3.53409E-05 1.35689E-04-1.32349E-23
 -1       493-3.70296E-05 1.38848E-04 6.61744E-24
 -1       494-3.53469E-05 1.32987E-04 0.00000E+00
 -1       495-3.04826E-05 1.18386E-04-6.61744E-24
 -1       496-2.33524E-05 9.74276E-05 0.00000E+00
 -1       497-1.48750E-05 7.26251E-05-6.61744E-24
 -1       498-6.25953E-06 4.74278E-05 1.32349E-23
 -1       499 1.28778E-06 2.52945E-05-6.61744E-24
 -1       500 6.78471E-06 8.93633E-06 6.61744E-24
 -1       501 2.72300E-05 1.97536E-06-6.61744E-24
 -1       502 2.71035E-05 2.80019E-06 3.30872E-24
 -1       503 2.69769E-05 3.06299E-06 3.30872E-24
 -1       504 2.68516E-05 2.81644E-06 0.00000E+00
 -1       505 2.67262E-05 2.14578E-06 0.00000E+00
 -1       506 2.66007E-05 1.13841E-06 1.65436E-24
 -1       507 2.64750E-05-9.67494E-08-3.30872E-24
 -1       508 2.63492E-05-1.44967E-06 1.65436E-24
 -1       509 2.62235E-05-2.80276E-06 0.00000E+00
 -1       510 2.60978E-05-4.03844E-06 1.65436E-24
 -1       511 2.59725E-05-5.04664E-06 3.30872E-24
 -1       512 2.58473E-05-5.71844E-06 0.00000E+00
 -1       513 2.57223E-05-5.96636E-06 0.00000E+00
 -1       514 2.55970E-05-5.70513E-06 1.65436E-24
 -1       515 2.54716E-05-4.88196E-06 3.30872E-24
 -1       516 2.45531E-05 5.99222E-07 3.30872E-24
 -1       517 1.97404E-05 6.67357E-07 0.00000E+00
 -1       518 1.43588E-05 7.31856E-07 0.00000E+00
 -1       519 9.83901E-06 8.02167E-07 4.13590E-25
 -1       520 7.64954E-06 8.79839E-07 0.00000E+00
 -1       521 2.58284E-05 1.60647E-06 2.64698E-23
 -1       522 2.44663E-05 2.11836E-06-1.32349E-23
 -1       523 2.32843E-05 2.15408E-06-2.64698E-23
 -1       524 2.22487E-05 1.78503E-06 1.32349E-23
 -1       525 2.13347E-05 1.09049E-06 0.00000E+00
 -1       526 2.05112E-05 1.51764E-07 0.00000E+00
 -1       527 1.97474E-05-9.46828E-07 0.00000E+00
 -1       528 1.90111E-05-2.11943E-06-1.32349E-23
 -1       529 1.82700E-05-3.27932E-06 0.00000E+00
 -1       530 1.74919E-05-4.33990E-06 1.32349E-23
 -1       531 1.66449E-05-5.21574E-06-2.64698E-23
 -1       532 1.56981E-05-5.82324E-06 0.00000E+00
 -1       533 1.46212E-05-6.08203E-06 0.00000E+00
 -1       534 1.33891E-05-5.91413E-06-1.32349E-23
 -1       535 1.19693E-05-5.24952E-06-2.64698E-23
 -1       536 2.53689E-05-1.90939E-06 0.00000E+00
 -1       537 2.54025E-05-7.40863E-07-8.27181E-25
 -1       538 2.54363E-05 9.87601E-08-2.06795E-25
 -1       539 2.54716E-05 6.49746E-07 2.06795E-25
 -1       540 2.55071E-05 9.52191E-07 8.27181E-25
 -1       541 2.55429E-05 1.04613E-06 0.00000E+00
 -1       542 2.55788E-05 9.71538E-07 0.00000E+00
 -1       543 2.56147E-05 7.68314E-07 0.00000E+00
 -1       544 2.56506E-05 4.76332E-07 0.00000E+00
 -1       545 2.56865E-05 1.35423E-07-4.13590E-25
 -1       546 2.57224E-05-2.14589E-07 8.27181E-25
 -1       547 2.57583E-05-5.33886E-07-4.13590E-25
 -1       548 2.57942E-05-7.82644E-07 8.27181E-25
 -1       549 2.58300E-05-9.21017E-07 0.00000E+00
 -1       550 2.58659E-05-9.09095E-07-8.27181E-25
 -1       551 2.31062E-05-3.54012E-06-8.27181E-25
 -1       552 2.06198E-05-3.63082E-06-4.13590E-25
 -1       553 1.79927E-05-3.72153E-06 0.00000E+00
 -1       554 1.53351E-05-3.81318E-06 0.00000E+00
 -1       555 1.27572E-05-3.90689E-06 0.00000E+00
 -1       556 2.46803E-05-2.01237E-06 1.32349E-23
 -1       557 2.41422E-05-9.03956E-07 0.00000E+00
 -1       558 2.37155E-05-9.02652E-08 1.32349E-23
 -1       559 2.33869E-05 4.63197E-07 0.00000E+00
 -1       560 2.31431E-05 7.90999E-07 0.00000E+00
 -1       561 2.29711E-05 9.28021E-07 0.00000E+00
 -1       562 2.28575E-05 9.09174E-07 6.61744E-24
 -1       563 2.27893E-05 7.69416E-07 0.00000E+00
 -1       564 2.27534E-05 5.43723E-07 0.00000E+00
 -1       565 2.27366E-05 2.67083E-07 1.65436E-24
 -1       566 2.27257E-05-2.55060E-08 0.00000E+00
 -1       567 2.27078E-05-2.99041E-07-8.27181E-25
 -1       568 2.26698E-05-5.18527E-07-2.48154E-24
 -1       569 2.25988E-05-6.49010E-07-1.29247E-25
 -1       570 2.24820E-05-6.55567E-07 4.13590E-25
 -1       571 2.59890E-05-4.85784E-07-4.13590E-25
 -1       572 2.60796E-05-3.32397E-07-2.06795E-25
 -1       573 2.61709E-05-2.34930E-07-8.27181E-25
 -1       574 2.62627E-05-1.80792E-07 0.00000E+00
 -1       575 2.63546E-05-1.57342E-07 0.00000E+00
 -1       576 2.64466E-05-1.51860E-07 0.00000E+00
 -1       577 2.65385E-05-1.51620E-07 0.00000E+00
 -1       578 2.66306E-05-1.43888E-07 0.00000E+00
 -1       579 2.67226E-05-1.15927E-07 3.30872E-24
 -1       580 2.68146E-05-5.50003E-08 3.30872E-24
 -1       581 2.69066E-05 5.16287E-08 0.00000E+00
 -1       582 2.69985E-05 2.16686E-07 0.00000E+00
 -1       583 2.70905E-05 4.52886E-07 0.00000E+00
 -1       584 2.71823E-05 7.72826E-07 0.00000E+00
 -1       585 2.72739E-05 1.18904E-06-6.61744E-24
 -1       586 2.53810E-05-6.72505E-07 0.00000E+00
 -1       587 2.47852E-05-6.37622E-07 0.00000E+00
 -1       588 2.41468E-05-6.02774E-07-8.27181E-25
 -1       589 2.34991E-05-5.68271E-07-5.16988E-26
 -1       590 2.28757E-05-5.34549E-07 0.00000E+00
 -1       591 2.57501E-05-4.51711E-07 0.00000E+00
 -1       592 2.56117E-05-2.41071E-07 0.00000E+00
 -1       593 2.54862E-05-6.70294E-08 0.00000E+00
 -1       594 2.53713E-05 7.79251E-08 0.00000E+00
 -1       595 2.52643E-05 2.01300E-07 0.00000E+00
 -1       596 2.51625E-05 3.10559E-07 8.27181E-25
 -1       597 2.50632E-05 4.13159E-07 1.65436E-24
 -1       598 2.49636E-05 5.16550E-07 0.00000E+00
 -1       599 2.48609E-05 6.28185E-07-1.65436E-24
 -1       600 2.47523E-05 7.55511E-07-8.27181E-25
 -1       601 2.46351E-05 9.05979E-07 1.65436E-24
 -1       602 2.45064E-05 1.08705E-06-4.13590E-25
 -1       603 2.43637E-05 1.30617E-06-1.65436E-24
 -1       604 2.42043E-05 1.57085E-06 0.00000E+00
 -1       605 2.40258E-05 1.88861E-06 0.00000E+00
 -1       606 2.73954E-05 2.40633E-06 0.00000E+00
 -1       607 2.74236E-05 3.16341E-06 0.00000E+00
 -1       608 2.74512E-05 3.98062E-06 0.00000E+00
 -1       609 2.74785E-05 4.85369E-06 0.00000E+00
 -1       610 2.75056E-05 5.77835E-06 0.00000E+00
 -1       611 2.75326E-05 6.75021E-06 0.00000E+00
 -1       612 2.75596E-05 7.76489E-06 0.00000E+00
 -1       613 2.75865E-05 8.81803E-06 0.00000E+00
 -1       614 2.76134E-05 9.90523E-06 0.00000E+00
 -1       615 2.76402E-05 1.10221E-05-8.27181E-25
 -1       616 2.76671E-05 1.21643E-05 1.65436E-24
 -1       617 2.76938E-05 1.33274E-05-8.27181E-25
 -1       618 2.77206E-05 1.45070E-05 0.00000E+00
 -1       619 2.77473E-05 1.56988E-05 0.00000E+00
 -1       620 2.77739E-05 1.68984E-05-8.27181E-25
 -1       621 2.67081E-05 1.80571E-06-1.65436E-24
 -1       622 2.60682E-05 1.89889E-06 8.27181E-25
 -1       623 2.54530E-05 1.99212E-06-1.65436E-24
 -1       624 2.48698E-05 2.08514E-06-8.27181E-25
 -1       625 2.43260E-05 2.17762E-06 8.27181E-25
 -1       626 2.71551E-05 2.43742E-06-3.30872E-24
 -1       627 2.69191E-05 3.22830E-06 0.00000E+00
 -1       628 2.66599E-05 4.07974E-06 0.00000E+00
 -1       629 2.63805E-05 4.98481E-06 0.00000E+00
 -1       630 2.60834E-05 5.93659E-06 0.00000E+00
 -1       631 2.57714E-05 6.92802E-06 0.00000E+00
 -1       632 2.54472E-05 7.95204E-06 0.00000E+00
 -1       633 2.51133E-05 9.00161E-06-8.27181E-25
 -1       634 2.47725E-05 1.00697E-05 1.65436E-24
 -1       635 2.44274E-05 1.11491E-05 8.27181E-25
 -1       636 2.40806E-05 1.22330E-05 1.65436E-24
 -1       637 2.37348E-05 1.33141E-05-4.13590E-25
 -1       638 2.33925E-05 1.43854E-05-1.65436E-24
 -1       639 2.30564E-05 1.54399E-05 8.27181E-25
 -1       640 2.27287E-05 1.64704E-05 2.06795E-25
 -1       641 2.78012E-05 1.93517E-05-4.13590E-25
 -1       642 2.78010E-05 2.07346E-05-1.03398E-25
 -1       643 2.78007E-05 2.22312E-05-1.03398E-25
 -1       644 2.78000E-05 2.38224E-05 0.00000E+00
 -1       645 2.77993E-05 2.54891E-05 0.00000E+00
 -1       646 2.77984E-05 2.72125E-05-1.29247E-26
 -1       647 2.77975E-05 2.89734E-05 1.29247E-26
 -1       648 2.77965E-05 3.07530E-05-3.23117E-27
 -1       649 2.77955E-05 3.25322E-05 0.00000E+00
 -1       650 2.77945E-05 3.42921E-05 0.00000E+00
 -1       651 2.77935E-05 3.60137E-05-5.16988E-26
 -1       652 2.77926E-05 3.76780E-05-5.16988E-26
 -1       653 2.77917E-05 3.92660E-05-4.13590E-25
 -1       654 2.77903E-05 4.07588E-05 0.00000E+00
 -1       655 2.77893E-05 4.21372E-05 0.00000E+00
 -1       656 2.67142E-05 1.79995E-05-1.65436E-24
 -1       657 2.57706E-05 1.78925E-05-8.27181E-25
 -1       658 2.49191E-05 1.77858E-05-3.30872E-24
 -1       659 2.41090E-05 1.76790E-05-8.27181E-25
 -1       660 2.32897E-05 1.75720E-05 1.65436E-24
 -1       661 2.74513E-05 1.93877E-05-3.30872E-24
 -1       662 2.70674E-05 2.07796E-05 0.00000E+00
 -1       663 2.66499E-05 2.22603E-05 3.30872E-24
 -1       664 2.62053E-05 2.38150E-05 0.00000E+00
 -1       665 2.57387E-05 2.54283E-05 0.00000E+00
 -1       666 2.52557E-05 2.70854E-05 1.65436E-24
 -1       667 2.47618E-05 2.87713E-05 0.00000E+00
 -1       668 2.42628E-05 3.04712E-05 0.00000E+00
 -1       669 2.37640E-05 3.21702E-05 0.00000E+00
 -1       670 2.32711E-05 3.38536E-05 0.00000E+00
 -1       671 2.27896E-05 3.55064E-05-3.30872E-24
 -1       672 2.23251E-05 3.71137E-05 0.00000E+00
 -1       673 2.18833E-05 3.86606E-05 0.00000E+00
 -1       674 2.14689E-05 4.01318E-05 1.65436E-24
 -1       675 2.10887E-05 4.15124E-05-1.65436E-24
 -1       676 2.66080E-05 4.32826E-05 0.00000E+00
 -1       677 2.54320E-05 4.31823E-05 0.00000E+00
 -1       678 2.42572E-05 4.30820E-05-3.30872E-24
 -1       679 2.30838E-05 4.29821E-05 1.65436E-24
 -1       680 2.19120E-05 4.28821E-05 1.65436E-24
 -1       681 7.06220E-06-2.29964E-07-3.30872E-24
 -1       682 7.21013E-06 5.36660E-07-1.65436E-24
 -1       683 7.35767E-06 1.47675E-06-3.30872E-24
 -1       684 7.50587E-06 2.52716E-06-1.65436E-24
 -1       685 7.65404E-06 3.63353E-06 0.00000E+00
 -1       686 7.80236E-06 4.74186E-06-1.65436E-24
 -1       687 7.95075E-06 5.79830E-06 0.00000E+00
 -1       688 8.09926E-06 6.74864E-06-1.65436E-24
 -1       689 8.24790E-06 7.53027E-06 0.00000E+00
 -1       690 8.39663E-06 8.07953E-06 0.00000E+00
 -1       691 8.54542E-06 8.31423E-06-3.30872E-24
 -1       692 8.69389E-06 8.15027E-06 1.65436E-24
 -1       693 8.84208E-06 7.47180E-06 3.30872E-24
 -1       694 8.98797E-06 6.15980E-06 0.00000E+00
 -1       695 9.13308E-06 4.04492E-06 0.00000E+00
 -1       696 6.27964E-06-6.35349E-07-3.30872E-24
 -1       697 5.19510E-06-5.08813E-07 0.00000E+00
 -1       698 3.84653E-06-3.82764E-07-3.30872E-24
 -1       699 2.41447E-06-2.55897E-07 0.00000E+00
 -1       700 1.07384E-06-1.28988E-07 3.30872E-24
 -1       701 6.65883E-06-5.12645E-07 1.65436E-24
 -1       702 6.46963E-06-4.78684E-07 1.65436E-24
 -1       703 6.34663E-06-6.19580E-07 3.30872E-24
 -1       704 6.27452E-06-9.00798E-07 1.65436E-24
 -1       705 6.23678E-06-1.27378E-06 3.30872E-24
 -1       706 6.21494E-06-1.69006E-06 0.00000E+00
 -1       707 6.18957E-06-2.09698E-06 0.00000E+00
 -1       708 6.14098E-06-2.44205E-06-1.65436E-24
 -1       709 6.05166E-06-2.67845E-06-3.30872E-24
 -1       710 5.90436E-06-2.76004E-06 0.00000E+00
 -1       711 5.68699E-06-2.65479E-06 0.00000E+00
 -1       712 5.38822E-06-2.33178E-06 1.65436E-24
 -1       713 5.00355E-06-1.78005E-06-3.30872E-24
 -1       714 4.53079E-06-9.89451E-07 0.00000E+00
 -1       715 3.97240E-06 2.71850E-08-1.65436E-24
 -1       716 9.32694E-06-2.32666E-06 3.23117E-27
 -1       717 9.39477E-06-4.99259E-06 0.00000E+00
 -1       718 9.46349E-06-7.11527E-06-1.65436E-24
 -1       719 9.53418E-06-8.76340E-06 8.27181E-25
 -1       720 9.60549E-06-9.98766E-06-1.65436E-24
 -1       721 9.67740E-06-1.08374E-05-8.27181E-25
 -1       722 9.74954E-06-1.13478E-05 0.00000E+00
 -1       723 9.82181E-06-1.15528E-05 0.00000E+00
 -1       724 9.89408E-06-1.14750E-05 0.00000E+00
 -1       725 9.96618E-06-1.11359E-05 0.00000E+00
 -1       726 1.00381E-05-1.05470E-05-1.65436E-24
 -1       727 1.01092E-05-9.71922E-06 0.00000E+00
 -1       728 1.01801E-05-8.65436E-06 8.27181E-25
 -1       729 1.02476E-05-7.35338E-06 4.13590E-25
 -1       730 1.03157E-05-5.80839E-06 3.30872E-24
 -1       731 1.16318E-05 9.98462E-07 2.06795E-25
 -1       732 1.16199E-05 1.05195E-06-4.13590E-25
 -1       733 1.00144E-05 1.10412E-06 8.27181E-25
 -1       734 7.59528E-06 1.15558E-06 0.00000E+00
 -1       735 5.11900E-06 1.20700E-06-1.65436E-24
 -1       736 1.04702E-05-3.31671E-06 6.61744E-24
 -1       737 1.20558E-05-8.65492E-06 0.00000E+00
 -1       738 1.38230E-05-1.44823E-05-1.32349E-23
 -1       739 1.55537E-05-2.02175E-05 0.00000E+00
 -1       740 1.70419E-05-2.52961E-05-1.32349E-23
 -1       741 1.80817E-05-2.91646E-05 0.00000E+00
 -1       742 1.85552E-05-3.15103E-05 0.00000E+00
 -1       743 1.83515E-05-3.20433E-05-6.61744E-24
 -1       744 1.74935E-05-3.08340E-05 1.32349E-23
 -1       745 1.60141E-05-2.79779E-05 0.00000E+00
 -1       746 1.40709E-05-2.38974E-05 0.00000E+00
 -1       747 1.18299E-05-1.90324E-05 0.00000E+00
 -1       748 9.51692E-06-1.39781E-05 0.00000E+00
 -1       749 7.36121E-06-9.33175E-06 0.00000E+00
 -1       750 5.55626E-06-5.61150E-06 0.00000E+00
 -1       751 1.10690E-05-2.41609E-06 6.61744E-24
 -1       752 1.18152E-05-1.45449E-06-6.61744E-24
 -1       753 1.25591E-05-9.24602E-07 2.64698E-23
 -1       754 1.33113E-05-6.38832E-07 1.32349E-23
 -1       755 1.40637E-05-5.19051E-07 0.00000E+00
 -1       756 1.48179E-05-4.92322E-07 0.00000E+00
 -1       757 1.55722E-05-5.27618E-07 0.00000E+00
 -1       758 1.63269E-05-5.95847E-07-1.32349E-23
 -1       759 1.70815E-05-6.82758E-07 0.00000E+00
 -1       760 1.78360E-05-7.74689E-07 0.00000E+00
 -1       761 1.85903E-05-8.60234E-07-2.64698E-23
 -1       762 1.93435E-05-9.27790E-07 1.32349E-23
 -1       763 2.00965E-05-9.57652E-07 0.00000E+00
 -1       764 2.08434E-05-9.28936E-07 0.00000E+00
 -1       765 2.15924E-05-7.94460E-07 0.00000E+00
 -1       766 8.77068E-06-3.90953E-06 0.00000E+00
 -1       767 7.80212E-06-3.78969E-06-2.58494E-26
 -1       768 7.16500E-06-3.67078E-06 0.00000E+00
 -1       769 6.56453E-06-3.55019E-06-8.27181E-25
 -1       770 5.70823E-06-3.42906E-06-1.03398E-25
 -1       771 9.24577E-06-2.47728E-06 0.00000E+00
 -1       772 8.22319E-06-1.22766E-06 0.00000E+00
 -1       773 7.29698E-06-2.38140E-07 0.00000E+00
 -1       774 6.45875E-06 5.15298E-07-1.32349E-23
 -1       775 5.69995E-06 1.05675E-06 0.00000E+00
 -1       776 5.01158E-06 1.41045E-06 0.00000E+00
 -1       777 4.38454E-06 1.60071E-06 1.32349E-23
 -1       778 3.80968E-06 1.65193E-06 6.61744E-24
 -1       779 3.27783E-06 1.58852E-06-1.32349E-23
 -1       780 2.77982E-06 1.43500E-06-6.61744E-24
 -1       781 2.30646E-06 1.21589E-06 0.00000E+00
 -1       782 1.84862E-06 9.55789E-07-6.61744E-24
 -1       783 1.39719E-06 6.79287E-07 0.00000E+00
 -1       784 9.43473E-07 4.11113E-07 0.00000E+00
 -1       785 4.78889E-07 1.76006E-07 0.00000E+00
 -1       786 2.23988E-05-1.73289E-07 8.27181E-25
 -1       787 2.24936E-05 8.45863E-08 0.00000E+00
 -1       788 2.25882E-05 2.81053E-07 0.00000E+00
 -1       789 2.26837E-05 4.27220E-07-1.65436E-24
 -1       790 2.27793E-05 5.34142E-07 0.00000E+00
 -1       791 2.28751E-05 6.12845E-07-1.65436E-24
 -1       792 2.29709E-05 6.74326E-07 0.00000E+00
 -1       793 2.30667E-05 7.29569E-07 1.65436E-24
 -1       794 2.31625E-05 7.89550E-07-3.30872E-24
 -1       795 2.32584E-05 8.65252E-07 0.00000E+00
 -1       796 2.33542E-05 9.67670E-07 0.00000E+00
 -1       797 2.34499E-05 1.10782E-06 0.00000E+00
 -1       798 2.35456E-05 1.29677E-06-3.30872E-24
 -1       799 2.36408E-05 1.54559E-06-1.65436E-24
 -1       800 2.37361E-05 1.86546E-06 0.00000E+00
 -1       801 2.03053E-05-4.14723E-07 3.30872E-24
 -1       802 1.61552E-05-3.26457E-07 0.00000E+00
 -1       803 1.09539E-05-2.42826E-07 8.27181E-25
 -1       804 5.79715E-06-1.60936E-07 0.00000E+00
 -1       805 1.78087E-06-7.42375E-08-6.61744E-24
 -1       806 2.20806E-05-2.08677E-07-3.30872E-24
 -1       807 2.18595E-05 5.54321E-08 0.00000E+00
 -1       808 2.16468E-05 2.94715E-07 0.00000E+00
 -1       809 2.14408E-05 5.14747E-07 1.65436E-24
 -1       810 2.12399E-05 7.21069E-07-3.30872E-24
 -1       811 2.10419E-05 9.19176E-07 0.00000E+00
 -1       812 2.08450E-05 1.11455E-06 0.00000E+00
 -1       813 2.06470E-05 1.31268E-06 1.65436E-24
 -1       814 2.04459E-05 1.51904E-06-3.30872E-24
 -1       815 2.02397E-05 1.73910E-06 1.65436E-24
 -1       816 2.00263E-05 1.97834E-06 0.00000E+00
 -1       817 1.98037E-05 2.24225E-06 8.27181E-25
 -1       818 1.95699E-05 2.53631E-06 3.30872E-24
 -1       819 1.93232E-05 2.86602E-06-1.65436E-24
 -1       820 1.90618E-05 3.23690E-06-1.65436E-24
 -1       821 2.37457E-05 2.77919E-06 0.00000E+00
 -1       822 2.36573E-05 3.40479E-06 0.00000E+00
 -1       823 2.35690E-05 4.13272E-06-1.65436E-24
 -1       824 2.34798E-05 4.95115E-06 1.65436E-24
 -1       825 2.33904E-05 5.84824E-06 0.00000E+00
 -1       826 2.33008E-05 6.81207E-06 1.65436E-24
 -1       827 2.32112E-05 7.83064E-06-3.30872E-24
 -1       828 2.31214E-05 8.89194E-06 1.65436E-24
 -1       829 2.30317E-05 9.98389E-06 0.00000E+00
 -1       830 2.29419E-05 1.10944E-05-1.65436E-24
 -1       831 2.28522E-05 1.22114E-05 0.00000E+00
 -1       832 2.27625E-05 1.33227E-05 0.00000E+00
 -1       833 2.26730E-05 1.44163E-05 3.30872E-24
 -1       834 2.25842E-05 1.54800E-05 8.27181E-25
 -1       835 2.24953E-05 1.65018E-05 1.65436E-24
 -1       836 2.32020E-05 2.49441E-06 3.30872E-24
 -1       837 2.23370E-05 2.72927E-06 0.00000E+00
 -1       838 2.13483E-05 2.96359E-06 0.00000E+00
 -1       839 2.03505E-05 3.19740E-06 3.30872E-24
 -1       840 1.94583E-05 3.43173E-06 0.00000E+00
 -1       841 2.36192E-05 2.77162E-06 0.00000E+00
 -1       842 2.33612E-05 3.39793E-06 0.00000E+00
 -1       843 2.30618E-05 4.13502E-06-4.13590E-25
 -1       844 2.27250E-05 4.97023E-06 2.06795E-25
 -1       845 2.23563E-05 5.89011E-06 4.13590E-25
 -1       846 2.19609E-05 6.88090E-06 0.00000E+00
 -1       847 2.15443E-05 7.92807E-06-8.27181E-25
 -1       848 2.11120E-05 9.01701E-06 0.00000E+00
 -1       849 2.06696E-05 1.01326E-05 0.00000E+00
 -1       850 2.02230E-05 1.12597E-05-4.13590E-25
 -1       851 1.97777E-05 1.23830E-05 0.00000E+00
 -1       852 1.93395E-05 1.34872E-05 0.00000E+00
 -1       853 1.89142E-05 1.45573E-05 8.27181E-25
 -1       854 1.85072E-05 1.55782E-05 0.00000E+00
 -1       855 1.81242E-05 1.65355E-05 0.00000E+00
 -1       856 2.23117E-05 1.85101E-05 0.00000E+00
 -1       857 2.22080E-05 1.97371E-05-8.27181E-25
 -1       858 2.21042E-05 2.11266E-05 0.00000E+00
 -1       859 2.19995E-05 2.26544E-05 0.00000E+00
 -1       860 2.18945E-05 2.42959E-05 0.00000E+00
 -1       861 2.17892E-05 2.60264E-05 0.00000E+00
 -1       862 2.16838E-05 2.78213E-05 3.30872E-24
 -1       863 2.15783E-05 2.96559E-05 0.00000E+00
 -1       864 2.14728E-05 3.15052E-05 3.30872E-24
 -1       865 2.13673E-05 3.33445E-05 1.65436E-24
 -1       866 2.12619E-05 3.51490E-05 3.30872E-24
 -1       867 2.11566E-05 3.68939E-05 1.65436E-24
 -1       868 2.10516E-05 3.85545E-05-3.30872E-24
 -1       869 2.09472E-05 4.01062E-05 0.00000E+00
 -1       870 2.08429E-05 4.15244E-05 1.65436E-24
 -1       871 2.15682E-05 1.74618E-05 0.00000E+00
 -1       872 2.07792E-05 1.74531E-05 4.13590E-25
 -1       873 2.00244E-05 1.74443E-05-8.27181E-25
 -1       874 1.92842E-05 1.74352E-05 0.00000E+00
 -1       875 1.85390E-05 1.74257E-05-8.27181E-25
 -1       876 2.21580E-05 1.85444E-05-3.30872E-24
 -1       877 2.18506E-05 1.97815E-05 1.65436E-24
 -1       878 2.14906E-05 2.11582E-05 3.30872E-24
 -1       879 2.10866E-05 2.26539E-05 1.65436E-24
 -1       880 2.06458E-05 2.42479E-05-3.30872E-24
 -1       881 2.01758E-05 2.59198E-05 1.65436E-24
 -1       882 1.96841E-05 2.76492E-05 3.30872E-24
 -1       883 1.91784E-05 2.94160E-05 0.00000E+00
 -1       884 1.86662E-05 3.11999E-05-3.30872E-24
 -1       885 1.81551E-05 3.29808E-05-1.65436E-24
 -1       886 1.76527E-05 3.47386E-05-3.30872E-24
 -1       887 1.71664E-05 3.64531E-05 1.65436E-24
 -1       888 1.67040E-05 3.81040E-05-3.30872E-24
 -1       889 1.62721E-05 3.96707E-05 0.00000E+00
 -1       890 1.58797E-05 4.11332E-05 0.00000E+00
 -1       891 1.97220E-05 4.27323E-05-1.65436E-24
 -1       892 1.88979E-05 4.26792E-05 8.27181E-25
 -1       893 1.81682E-05 4.26262E-05 1.65436E-24
 -1       894 1.74310E-05 4.25732E-05-8.27181E-25
 -1       895 1.65846E-05 4.25202E-05-8.27181E-25
 -1       896 2.07635E-07 7.52868E-07 6.61744E-24
 -1       897 4.17167E-07 1.15538E-06 3.30872E-24
 -1       898 6.26668E-07 1.28413E-06-6.61744E-24
 -1       899 8.36496E-07 1.21333E-06 0.00000E+00
 -1       900 1.04631E-06 9.94583E-07-6.61744E-24
 -1       901 1.25617E-06 6.78186E-07 0.00000E+00
 -1       902 1.46601E-06 3.03377E-07 6.61744E-24
 -1       903 1.67584E-06-9.11125E-08 3.30872E-24
 -1       904 1.88567E-06-4.68796E-07 0.00000E+00
 -1       905 2.09547E-06-7.93029E-07 0.00000E+00
 -1       906 2.30526E-06-1.02111E-06-6.61744E-24
 -1       907 2.51482E-06-1.10950E-06 3.30872E-24
 -1       908 2.72433E-06-9.98827E-07 0.00000E+00
 -1       909 2.93248E-06-6.27989E-07 0.00000E+00
 -1       910 3.14088E-06 9.35889E-08 3.30872E-24
 -1       911 3.40173E-06 2.34489E-06 0.00000E+00
 -1       912 3.46270E-06 2.82463E-06 0.00000E+00
 -1       913 3.52373E-06 2.80179E-06 0.00000E+00
 -1       914 3.58483E-06 2.37814E-06 0.00000E+00
 -1       915 3.64576E-06 1.64253E-06 0.00000E+00
 -1       916 3.70655E-06 6.83049E-07 0.00000E+00
 -1       917 3.76719E-06-4.19456E-07 0.00000E+00
 -1       918 3.82776E-06-1.58451E-06 0.00000E+00
 -1       919 3.88833E-06-2.73363E-06 1.65436E-24
 -1       920 3.94895E-06-3.78830E-06 0.00000E+00
 -1       921 4.00970E-06-4.66697E-06-1.65436E-24
 -1       922 4.07037E-06-5.28763E-06 0.00000E+00
 -1       923 4.13114E-06-5.55997E-06 1.65436E-24
 -1       924 4.19059E-06-5.39278E-06 2.06795E-25
 -1       925 4.25025E-06-4.68078E-06 8.27181E-25
 -1       926 4.03944E-06-1.67029E-06 0.00000E+00
 -1       927 3.77051E-06-1.25193E-07 0.00000E+00
 -1       928 3.50223E-06 1.24395E-06 0.00000E+00
 -1       929 3.23304E-06 2.36506E-06 0.00000E+00
 -1       930 2.96409E-06 3.19930E-06 6.61744E-24
 -1       931 2.69510E-06 3.71100E-06 0.00000E+00
 -1       932 2.42619E-06 3.90778E-06-6.61744E-24
 -1       933 2.15723E-06 3.80074E-06 0.00000E+00
 -1       934 1.88821E-06 3.44176E-06 6.61744E-24
 -1       935 1.61907E-06 2.88546E-06 0.00000E+00
 -1       936 1.34985E-06 2.21300E-06 0.00000E+00
 -1       937 1.08050E-06 1.50679E-06 3.30872E-24
 -1       938 8.11178E-07 8.53746E-07 6.61744E-24
 -1       939 5.41452E-07 3.40237E-07 3.30872E-24
 -1       940 2.71966E-07 3.38780E-08 6.61744E-24
 -1       941 1.11372E-06 1.23472E-07 0.00000E+00
 -1       942 2.28867E-06 2.82685E-07 0.00000E+00
 -1       943 3.45980E-06 4.64514E-07-2.64698E-23
 -1       944 4.64253E-06 6.56985E-07 0.00000E+00
 -1       945 5.82562E-06 8.56282E-07 0.00000E+00
 -1       946 7.01102E-06 1.05894E-06-1.32349E-23
 -1       947 8.19669E-06 1.26407E-06 0.00000E+00
 -1       948 9.38276E-06 1.47092E-06-1.32349E-23
 -1       949 1.05689E-05 1.68007E-06 2.64698E-23
 -1       950 1.17547E-05 1.89218E-06 0.00000E+00
 -1       951 1.29402E-05 2.11024E-06 0.00000E+00
 -1       952 1.41240E-05 2.33752E-06 0.00000E+00
 -1       953 1.53074E-05 2.58440E-06 0.00000E+00
 -1       954 1.64814E-05 2.86224E-06 1.32349E-23
 -1       955 1.76586E-05 3.20620E-06 0.00000E+00
 -1       956 1.87238E-05 4.22048E-06-1.65436E-24
 -1       957 1.86606E-05 4.86032E-06 2.06795E-25
 -1       958 1.85971E-05 5.56727E-06 2.06795E-25
 -1       959 1.85335E-05 6.33380E-06-4.13590E-25
 -1       960 1.84698E-05 7.15238E-06 8.27181E-25
 -1       961 1.84060E-05 8.01539E-06-8.27181E-25
 -1       962 1.83422E-05 8.91522E-06 8.27181E-25
 -1       963 1.82784E-05 9.84427E-06-8.27181E-25
 -1       964 1.82146E-05 1.07949E-05 0.00000E+00
 -1       965 1.81508E-05 1.17595E-05 0.00000E+00
 -1       966 1.80869E-05 1.27305E-05-1.65436E-24
 -1       967 1.80231E-05 1.37002E-05-8.27181E-25
 -1       968 1.79593E-05 1.46610E-05 1.65436E-24
 -1       969 1.78956E-05 1.56053E-05 8.27181E-25
 -1       970 1.78321E-05 1.65256E-05 1.65436E-24
 -1       971 1.76338E-05 1.83724E-05 3.30872E-24
 -1       972 1.74941E-05 1.95265E-05 0.00000E+00
 -1       973 1.73542E-05 2.08528E-05 0.00000E+00
 -1       974 1.72135E-05 2.23266E-05 0.00000E+00
 -1       975 1.70726E-05 2.39235E-05 0.00000E+00
 -1       976 1.69313E-05 2.56187E-05 0.00000E+00
 -1       977 1.67900E-05 2.73871E-05 0.00000E+00
 -1       978 1.66485E-05 2.92039E-05 1.65436E-24
 -1       979 1.65070E-05 3.10438E-05-3.30872E-24
 -1       980 1.63655E-05 3.28818E-05 1.65436E-24
 -1       981 1.62241E-05 3.46929E-05 3.30872E-24
 -1       982 1.60830E-05 3.64518E-05-1.65436E-24
 -1       983 1.59421E-05 3.81337E-05 0.00000E+00
 -1       984 1.58021E-05 3.97135E-05 0.00000E+00
 -1       985 1.56622E-05 4.11666E-05-3.30872E-24
 -3
    1PSTEP                        18           9           1          
  100CL  109 5.03174E-01         841                     0    9           1
 -4  STRESS      6    1
 -5  SXX         1    4    1    1
 -5  SYY         1    4    2    2
 -5  SZZ         1    4    3    3
 -5  SXY         1    4    1    2
 -5  SYZ         1    4    2    3
 -5  SZX         1    4    3    1
 -1         1-2.01231E+06-6.45115E+05-4.09724E+05-5.86349E+05-9.70128E-11 3.55067E-09
 -1         2-1.22909E+06-6.28724E+04 4.98031E+03-1.22351E+05-4.67708E-10-2.51930E-09
 -1         3-7.05739E+05-2.49695E+05-1.63893E+04-6.06759E+04-7.54198E-10 1.39335E-09
 -1         4-3.42151E+05-6.72292E+04 5.08736E+02-3.48019E+04 2.36312E-10 2.41641E-10
 -1         5-1.67134E+05 1.15706E+05-8.89055E+04-6.82654E+03 3.73439E-09 1.88413E-09
 -1         8-1.06936E+06-4.21053E+05-1.58589E+05-4.02487E+05 2.14641E-10 1.54978E-09
 -1         9-1.17492E+06-2.64273E+05-1.48876E+05-2.78787E+05-2.74667E-10-3.97752E-10
 -1        10-5.59705E+05-3.26564E+05-8.51543E+03-1.28438E+05 2.14489E-10 6.35964E-10
 -1        11-3.43329E+05-1.04726E+05 4.19821E+02-8.01675E+04 1.35449E-09 7.14105E-10
 -1        12-2.11765E+05 9.39777E+04-1.00726E+05-3.70329E+04 4.31550E-09-6.86157E-10
 -1        15 1.32533E+04-1.43359E+04 5.54333E+03-5.85192E+04 7.50333E-10-6.36646E-10
 -1        16-6.95391E+05-1.42726E+05-6.86367E+02-3.09684E+05 8.58563E-10 4.38680E-10
 -1        17-4.17057E+05-2.84440E+05-4.91751E+04-2.23680E+05-8.62807E-10 1.57403E-09
 -1        18-1.82995E+05-1.03123E+05-7.18672E+04-1.19751E+05-1.76745E-10 8.25215E-10
 -1        19-4.15100E+04 5.79128E+04-4.17880E+04-3.82394E+04 5.13107E-10-1.54826E-09
 -1        20 7.52026E+04-5.44255E+04-8.67564E+03 3.95770E+04 9.58721E-09-3.57431E-10
 -1        21-9.86217E+02-1.12520E+05 2.51629E+04 5.87421E+02 1.29098E-08 2.07704E-10
 -1        22 2.19499E+04 1.17499E+05 7.28435E+02-1.91633E+04 1.59162E-11 2.14641E-10
 -1        23-1.79848E+05-3.07860E+03 5.27346E+03-1.27537E+05-2.08199E-09 6.73026E-11
 -1        24-1.38086E+05 1.42095E+04 1.62857E+05-2.95790E+05-3.12442E-09 3.63798E-11
 -1        25 3.69427E+05 1.35667E+05 1.18797E+05-1.92707E+05 8.53864E-10 1.01439E-09
 -1        26 2.89756E+03 1.31521E+05 7.43791E+03-2.63286E+04-5.07346E-10 4.00329E-10
 -1        27-3.19544E+04-4.73576E+04-2.05117E+04 5.16899E+04 4.92203E-09-1.50127E-09
 -1        28-9.92237E+03-8.65622E+04-5.38546E+02 4.13299E+04 5.65126E-09-1.51304E-09
 -1        29 2.87778E+05 1.96327E+05 8.12112E+02-7.35597E+03 1.75906E-10 1.30876E-09
 -1        30 9.46960E+04 2.84798E+04 1.17309E+03-3.92655E+04 1.25723E-09 2.16323E-09
 -1        31-3.38507E+05 3.02776E+04 2.93085E+03-6.40951E+04-2.19488E-09 3.30692E-09
 -1        32 4.80770E+05 2.93137E+05 3.43375E+05-2.89050E+05 3.35768E-09 2.52112E-09
 -1        33 8.21703E+05 3.75011E+05 2.63372E+05-3.77366E+04-7.67205E-09-9.45874E-11
 -1        34-1.52759E+05-2.36820E+04-9.10050E+03 2.47811E+04-4.20329E-10-9.05402E-10
 -1        35-2.34320E+04-2.84926E+04-5.38012E+02 6.08718E+04 6.02881E-09 2.66058E-09
 -1        36-2.69120E+06 7.98981E+04-1.86924E+05 6.68792E-08-4.32273E-11 5.33328E-09
 -1        37-2.77176E+06-9.25589E+04-1.31932E+05 1.22180E-07-7.53540E-10-4.23461E-09
 -1        38-2.72236E+06 1.23755E+04-4.83729E+04 3.77723E-08 4.18453E-10-1.14051E-09
 -1        39-2.73539E+06-1.43297E+04-3.02895E+04-1.78788E-07 5.76945E-10-6.03950E-09
 -1        40-2.72742E+06 1.91282E+03-1.24210E+04-6.47224E-08-1.10749E-09-3.10683E-09
 -1        41-2.72945E+06-2.24003E+03-7.37962E+03-3.68907E-09-1.24673E-09-2.81796E-09
 -1        42-2.72825E+06 3.21804E+02-3.61228E+03 1.15076E-07-2.38838E-10 5.14888E-09
 -1        43-2.72856E+06-5.62285E+02-2.83684E+03 3.03655E-08-1.27444E-09-4.07976E-09
 -1        44-2.72830E+06 2.39542E+02-2.84272E+03-8.25974E-08-7.72309E-10 7.32427E-10
 -1        45-2.72906E+06-1.52519E+03-5.15994E+03-7.74089E-08 5.83936E-10 3.09274E-09
 -1        46-2.72776E+06 1.28202E+03-8.40813E+03 1.31808E-07 6.29683E-10-3.06636E-09
 -1        47-2.73301E+06-9.58103E+03-2.02989E+04 3.02130E-08 1.65433E-09-4.22710E-09
 -1        48-2.72438E+06 8.27117E+03-3.23571E+04 1.08694E-08 6.66375E-10 9.16771E-10
 -1        49-2.75732E+06-6.18603E+04-8.81880E+04-3.59994E-08-9.75534E-10 3.39787E-09
 -1        50-2.70357E+06 5.33946E+04-1.24965E+05-7.15017E-08-1.60680E-09 1.20053E-09
 -1        51 2.35183E+04-2.63324E+05 3.83617E+04-7.17505E+05 2.91038E-11 2.27737E-09
 -1        52 1.02796E+04-2.59514E+05 2.29717E+04-7.92896E+05-4.72937E-10 4.45289E-09
 -1        53 6.23822E+03-2.66550E+05 1.79685E+04-7.15588E+05-1.92813E-10-2.57569E-09
 -1        54 1.45420E+04-2.63593E+05 2.66760E+04-7.94952E+05 2.18279E-11-1.25729E-08
 -1        55 3.38578E+04-2.72040E+05 4.78382E+04-7.15260E+05 1.96451E-10-6.63204E-09
 -1        56-3.08690E+06-3.49073E+05-2.51708E+05-1.19351E+06 1.05865E-09 2.16824E-09
 -1        57-3.20130E+06-5.58056E+05-1.68887E+05-1.16846E+06 4.28372E-10 8.58563E-10
 -1        58-3.13582E+06-4.28522E+05-5.92652E+04-1.17973E+06-3.22871E-10 2.15005E-09
 -1        59-3.14495E+06-4.64313E+05-3.51378E+04-1.18482E+06-4.18368E-11-2.17915E-09
 -1        60-3.14258E+06-4.39662E+05-1.38525E+04-1.17823E+06 6.84395E-11 2.81943E-10
 -1        61-3.13767E+06-4.50705E+05-7.84172E+03-1.18596E+06-1.43808E-09 4.24006E-09
 -1        62-3.14298E+06-4.41736E+05-3.83207E+03-1.17871E+06 6.78256E-10 2.32268E-09
 -1        63-3.13813E+06-4.47689E+05-3.21910E+03-1.18445E+06 2.72621E-10-9.07761E-10
 -1        64-3.14209E+06-4.42643E+05-3.77013E+03-1.17974E+06 8.27299E-10 1.48327E-09
 -1        65-3.14107E+06-4.47183E+05-7.64947E+03-1.18197E+06-1.48728E-09-1.10504E-09
 -1        66-3.14004E+06-4.42289E+05-1.34987E+04-1.18117E+06-5.48539E-10 3.36331E-09
 -1        67-3.15110E+06-4.57479E+05-3.42057E+04-1.17749E+06 1.72918E-10-1.06456E-09
 -1        68-3.13218E+06-4.32735E+05-5.77024E+04-1.18410E+06-7.48514E-10 1.51340E-09
 -1        69-3.20800E+06-5.46694E+05-1.64408E+05-1.15924E+06 1.09139E-09-8.08541E-09
 -1        70-3.08380E+06-3.56138E+05-2.45047E+05-1.19837E+06-1.36424E-09 1.33878E-09
 -1        71-1.40152E+06 3.20706E+03-7.51561E+03 8.93924E-08-7.74867E-10-1.02455E-09
 -1        72-1.40464E+06-3.71614E+03-5.30521E+03-3.37323E-09-3.59109E-10-4.26371E-09
 -1        73-1.40277E+06 4.97026E+02-1.95532E+03 4.48074E-08-5.31515E-10-8.76071E-10
 -1        74-1.40318E+06-5.76981E+02-1.24012E+03 2.64131E-07-1.92905E-10 4.15839E-09
 -1        75-1.40297E+06 7.82643E+01-5.42991E+02 8.67420E-09-5.69257E-10-1.60830E-09
 -1        76-1.40295E+06-1.01304E+02-3.89353E+02 1.22119E-07-4.61071E-10 4.15545E-09
 -1        77-1.40300E+06 2.28160E+01-3.19257E+02 1.19791E-07-5.46649E-10 2.56342E-09
 -1        78-1.40295E+06-9.79819E+01-4.95661E+02 1.65576E-07-7.65122E-10 2.45438E-09
 -1        79-1.40297E+06 7.50020E+01-8.08629E+02 3.27391E-09-9.76334E-10-3.86507E-09
 -1        80-1.40320E+06-5.54806E+02-1.80013E+03-7.37296E-08-5.26500E-10-2.17526E-09
 -1        81-1.40276E+06 4.78440E+02-3.09358E+03-8.95764E-08-1.51345E-10-3.97984E-09
 -1        82-1.40469E+06-3.58944E+03-7.58594E+03 1.50071E-07-1.66878E-10-2.12367E-10
 -1        83-1.40149E+06 3.10048E+03-1.21300E+04-9.72284E-08-1.23474E-09 2.68210E-09
 -1        84-1.41380E+06-2.31903E+04-3.30730E+04 1.58534E-07-1.16625E-09-1.98224E-09
 -1        85-1.39367E+06 2.00153E+04-4.68820E+04-6.32250E-08-8.94552E-10-1.98270E-10
 -1        86-6.13756E+04 2.57805E+05 1.46303E+05 1.92351E+03 1.02591E-09 2.37264E-10
 -1        87 7.67215E+04 3.23083E+05 1.13270E+05-8.83689E+03 1.74259E-09 4.29145E-09
 -1        88-1.50884E+04 2.79201E+05 5.83690E+04 1.34910E+03 1.90812E-09 5.87590E-10
 -1        89 5.36188E+04 3.12155E+05 8.29065E+04-8.06306E+03 2.83671E-09-3.66941E-09
 -1        90-3.83418E+04 2.68702E+05 9.39765E+04 1.14994E+03 2.15732E-09-9.46372E-10
 -1        91-1.28395E+06-1.61907E+05-1.55270E+04-4.55027E+05-1.32823E-08-2.53749E-10
 -1        92-1.14968E+06-2.27436E+05 2.52361E+03-5.20477E+05-1.09702E-08-4.75313E-09
 -1        93-1.28320E+06-1.34194E+05-2.83567E+03-4.18679E+05 1.10113E-08 4.03134E-09
 -1        94-1.15260E+06-2.53595E+05 3.50571E+02-5.58858E+05-3.48024E-11 1.51898E-09
 -1        95-1.28322E+06-1.34080E+05-1.26631E+03-4.18245E+05-6.58520E-09-1.82280E-09
 -1        96-1.14875E+06-2.26754E+05 6.86414E+03-5.22091E+05 1.32154E-08 8.70364E-09
 -1        97-1.28493E+06-1.62651E+05-7.10880E+03-4.53893E+05-1.25692E-09 7.55472E-09
 -1        98-1.17793E+06-1.65567E+05 1.28651E+04-4.45315E+05-6.41239E-09 4.75450E-09
 -1        99-1.25186E+06-1.96907E+05-7.74667E+03-4.93312E+05-1.10331E-08-6.18479E-09
 -1       100-1.26296E+06-1.10790E+05 6.15544E+03-3.88168E+05-1.38834E-08 1.16961E-09
 -1       101-1.20195E+06-2.15869E+05-3.63378E+03-5.12562E+05-1.60207E-09 1.27307E-09
 -1       102-1.31920E+06-9.17964E+04-5.42110E+03-3.69562E+05 6.31282E-09 1.88711E-08
 -1       103-1.19783E+06-2.14248E+05-1.19073E+04-5.13691E+05-1.92767E-08 3.03135E-09
 -1       104-1.28212E+06-1.28170E+05-2.54658E+04-3.81449E+05-2.40348E-08 1.16074E-08
 -1       105-1.23713E+06-1.80996E+05-5.49961E+04-4.99110E+05-1.95651E-08 4.09091E-09
 -1       106-7.27669E+05-5.61585E+03 1.31595E+04-1.71754E-08-8.89619E-10-8.76753E-10
 -1       107-7.21921E+05 6.50693E+03 9.27918E+03-9.24214E-08 3.11622E-10-2.55068E-09
 -1       108-7.25476E+05-8.69811E+02 3.39827E+03-7.06906E-08-4.60209E-11-9.85210E-10
 -1       109-7.24477E+05 1.00600E+03 2.11385E+03-5.95609E-08-2.78933E-10-7.76026E-10
 -1       110-7.25117E+05-1.33205E+02 8.37967E+02 7.47345E-09-1.96358E-10 3.24707E-09
 -1       111-7.24901E+05 1.47583E+02 4.39642E+02-5.35883E-08 5.05650E-10 2.54066E-09
 -1       112-7.25053E+05-1.39979E+01 1.03185E+02-4.40392E-08 6.11508E-11 8.48416E-10
 -1       113-7.24997E+05-2.62125E+01-1.32782E+02-1.09313E-07 9.32598E-11-5.15342E-10
 -1       114-7.25021E+05 4.01670E+01-4.05333E+02-3.86710E-08-3.67234E-14-1.65451E-09
 -1       115-7.25157E+05-3.23105E+02-1.02597E+03-7.81974E-08 4.15096E-10-2.47246E-09
 -1       116-7.24893E+05 2.82134E+02-1.81176E+03 2.98536E-08-6.03256E-11-1.16074E-10
 -1       117-7.26041E+05-2.12060E+03-4.47642E+03 5.90008E-08 4.40104E-11-2.44887E-09
 -1       118-7.24139E+05 1.83221E+03-7.16846E+03 2.51728E-08-6.38349E-10-3.54066E-09
 -1       119-7.31423E+05-1.37047E+04-1.95487E+04-2.79534E-08-6.69530E-11-2.09548E-09
 -1       120-7.19518E+05 1.18284E+04-2.77131E+04 6.04623E-08 2.29677E-10 4.20187E-10
 -1       121-1.22027E+03-8.20622E+05 5.03485E+03 6.02716E+03-4.06089E-10-1.33105E-09
 -1       122 1.65768E+03-8.18639E+05 3.48059E+03 2.62462E+04-2.25953E-10 6.62749E-09
 -1       123-2.09151E+02-8.19904E+05 1.82489E+03 6.17858E+03-1.36129E-09 3.09092E-09
 -1       124 8.51175E+02-8.19014E+05 2.13308E+03 2.58253E+04-8.51855E-10-2.01067E-09
 -1       125-6.17464E+02-8.20146E+05 2.47789E+03 6.44802E+03-3.15231E-09 2.04636E-11
 -1       126-7.02723E+05-1.00957E+05 6.21506E+03-2.62097E+05-3.22188E-10 1.38721E-09
 -1       127-6.98215E+05-9.64486E+04 4.30472E+03-2.64462E+05 6.30848E-10 3.88877E-09
 -1       128-7.01663E+05-9.85289E+04 1.45248E+03-2.62272E+05-2.72280E-11 1.86799E-09
 -1       129-6.99454E+05-9.92593E+04 8.96732E+02-2.64259E+05-5.17844E-11-1.47230E-09
 -1       130-7.01488E+05-9.81526E+04 3.18328E+02-2.62298E+05-5.56842E-10 1.61758E-09
 -1       131-6.99820E+05-9.95373E+04 1.51455E+02-2.64039E+05 8.19549E-11 1.26533E-09
 -1       132-7.01296E+05-9.82521E+04-6.91495E+00-2.62491E+05 1.02851E-09 4.89891E-10
 -1       133-7.00336E+05-9.91875E+04-1.54224E+02-2.63496E+05-1.78474E-10 2.39265E-09
 -1       134-7.00972E+05-9.85032E+04-3.49445E+02-2.62840E+05 3.22427E-10 2.66900E-09
 -1       135-7.01149E+05-9.88593E+04-9.02690E+02-2.62724E+05 8.52745E-10-1.56427E-09
 -1       136-7.00484E+05-9.85813E+04-1.58762E+03-2.63263E+05 1.95143E-10 1.33389E-09
 -1       137-7.02854E+05-1.00159E+05-4.26474E+03-2.61722E+05-9.38030E-10 1.19729E-09
 -1       138-6.99270E+05-9.72082E+04-6.86533E+03-2.63843E+05-8.30937E-10 1.53887E-09
 -1       139-7.10131E+05-1.11915E+05-2.02818E+04-2.59064E+05 6.11635E-10 1.15506E-09
 -1       140-6.93219E+05-8.68573E+04-2.92929E+04-2.65911E+05 7.45786E-11-9.49512E-10
 -1       141-3.16337E+05-3.67687E+03 8.61475E+03 6.15151E-08 1.41313E-10 9.06311E-10
 -1       142-3.12588E+05 4.26002E+03 6.07088E+03 9.19275E-08 2.73557E-10 2.04943E-09
 -1       143-3.14900E+05-5.69275E+02 2.21442E+03 2.96793E-09-2.15168E-10-3.02748E-10
 -1       144-3.14263E+05 6.56889E+02 1.36052E+03-1.55705E-07-3.03930E-10-1.61913E-09
 -1       145-3.14664E+05-8.56552E+01 5.02791E+02-2.09352E-08-4.85596E-12-9.94362E-10
 -1       146-3.14548E+05 8.45576E+01 1.89529E+02-4.23573E-08-3.07888E-10-3.25286E-09
 -1       147-3.14616E+05 1.34302E+00-1.17492E+02 8.51694E-09-1.96933E-11 1.37705E-09
 -1       148-3.14652E+05-9.72361E+01-4.92955E+02-3.50536E-08-3.33902E-10 4.42512E-10
 -1       149-3.14560E+05 9.57304E+01-1.00427E+03-6.95903E-08 4.67006E-11 1.65312E-09
 -1       150-3.14994E+05-7.35657E+02-2.36587E+03 1.11803E-08-5.62249E-10-2.44191E-09
 -1       151-3.14274E+05 6.38114E+02-4.11713E+03 1.57686E-08 1.29995E-10 9.68612E-11
 -1       152-3.16988E+05-4.79140E+03-1.01277E+04-1.38367E-07-2.76252E-11-1.06411E-10
 -1       153-3.12568E+05 4.13922E+03-1.62047E+04-4.45663E-08 9.86628E-10-4.21096E-10
 -1       154-3.29142E+05-3.09600E+04-4.41712E+04-9.57397E-08 1.53158E-10 1.97360E-09
 -1       155-3.02122E+05 2.67216E+04-6.26053E+04-3.85971E-08 2.30111E-09 4.14730E-09
 -1       156-9.68142E+03-1.65959E+05 2.34212E+04-7.93111E+02-1.09139E-11 2.06847E-09
 -1       157 1.28665E+04-1.55301E+05 1.95019E+04 3.47501E+03 2.02363E-11 2.54781E-10
 -1       158-3.14370E+03-1.62980E+05 1.21599E+04-7.62006E+02 2.36469E-11-2.80212E-09
 -1       159 1.42876E+04-1.54612E+05 2.13718E+04 3.32967E+03 3.66526E-10-2.48420E-10
 -1       160-1.10997E+04-1.66645E+05 2.66318E+04-6.47746E+02 3.51974E-10 3.04897E-09
 -1       161-3.84481E+05-5.30930E+04-2.27511E+03-1.44442E+05-2.24702E-10 4.52246E-10
 -1       162-3.85219E+05-5.55769E+04-1.57860E+03-1.44522E+05-4.62364E-10 1.06137E-09
 -1       163-3.84963E+05-5.38817E+04-5.42949E+02-1.44266E+05-8.72021E-10 1.08855E-11
 -1       164-3.84674E+05-5.46516E+04-3.54153E+02-1.44710E+05 3.41560E-10 4.21936E-09
 -1       165-3.85026E+05-5.40158E+04-1.68343E+02-1.44255E+05 6.65864E-10 1.94059E-09
 -1       166-3.84645E+05-5.44752E+04-1.74391E+02-1.44681E+05 2.86414E-10-6.15418E-10
 -1       167-3.84992E+05-5.40577E+04-2.25624E+02-1.44295E+05 4.12534E-10 1.12458E-09
 -1       168-3.84794E+05-5.44667E+04-4.85626E+02-1.44563E+05-3.98535E-11 2.97183E-09
 -1       169-3.84878E+05-5.40245E+04-8.69291E+02-1.44373E+05 4.92406E-11 2.36787E-09
 -1       170-3.85341E+05-5.50288E+04-2.16485E+03-1.44308E+05-2.38742E-11-8.77179E-10
 -1       171-3.84445E+05-5.34972E+04-3.75575E+03-1.44550E+05-3.03373E-10 8.04675E-10
 -1       172-3.88098E+05-5.93385E+04-1.00788E+04-1.43365E+05-5.11818E-10-3.67220E-09
 -1       173-3.82125E+05-4.97261E+04-1.62089E+04-1.45312E+05 7.13044E-10-7.76708E-10
 -1       174-4.04543E+05-8.77890E+04-4.78746E+04-1.37895E+05 4.22074E-09-1.58207E-09
 -1       175-3.68014E+05-2.51222E+04-6.91289E+04-1.49994E+05 7.63248E-09 3.63798E-11
 -1       191 1.42896E+03 4.14118E+05 2.35931E+03-1.28395E+04-6.18456E-11 1.52704E-09
 -1       192 5.13364E+02 4.14471E+05 1.41245E+03-1.38433E+04-6.85418E-10-3.10047E-09
 -1       193 2.30172E+02 4.14229E+05 1.13389E+03-1.26475E+04-6.61657E-11-4.38376E-10
 -1       194 6.79134E+02 4.14512E+05 1.71270E+03-1.41981E+04-1.49817E-09 3.44653E-09
 -1       195 1.94161E+03 4.14037E+05 3.10572E+03-1.24829E+04 8.54925E-11 2.86400E-09
 -1       251-1.60628E+06 3.30380E+04-8.31279E+04-2.36005E+04-7.03039E-10 1.21508E-09
 -1       252-1.62287E+06-3.80435E+04-5.50260E+04 6.65265E+04-1.17990E-09 1.75532E-09
 -1       253-1.61029E+06 4.96313E+03-2.09892E+04-4.33160E+04-2.17085E-09 9.45874E-11
 -1       254-1.61434E+06-4.69529E+03-1.25119E+04 8.09858E+04-2.15701E-09 5.14660E-09
 -1       255-1.61544E+06 3.43574E+02-6.06963E+03-3.80704E+04 1.25442E-09 4.20187E-09
 -1       256-1.59819E+06 9.43468E+01-1.56108E+02 4.85948E+04 2.03602E-09 5.07163E-09
 -1       257-1.62509E+06-8.90656E+02-4.35262E+03-1.09098E+04-1.63482E-09-1.99168E-09
 -1       258-1.59061E+06 5.82663E+02 2.95047E+03-1.20233E+04 2.79420E-09-1.78267E-09
 -1       259-1.62231E+06-7.14582E+02-3.75106E+03 2.25344E+04 5.37239E-09-1.02176E-09
 -1       260-1.60442E+06 2.22297E+02-1.31582E+03-6.57243E+04-4.88035E-09-2.78146E-09
 -1       261-1.61261E+06 5.34399E+02-5.46661E+03 4.27903E+04 1.13379E-08 2.28920E-09
 -1       262-1.61447E+06-4.73673E+03-1.25779E+04-8.15015E+04-3.40884E-09-7.22321E-09
 -1       263-1.61301E+06 4.82500E+03-2.16452E+04 3.83221E+04 2.49111E-09 1.89175E-09
 -1       264-1.61667E+06-3.83287E+04-5.40488E+04-5.02022E+04 1.66514E-08 4.40195E-09
 -1       265-1.60915E+06 3.29659E+04-8.40109E+04 1.14755E+04 2.71666E-09 2.29920E-09
 -1       266-1.75790E+04-2.37384E+05 4.07148E+04-3.08779E+03-3.27418E-11 3.08461E-10
 -1       267 1.91379E+04-2.19432E+05 2.66784E+04 1.63061E+04 8.36735E-11 2.01590E-09
 -1       268-1.57703E+03-2.30315E+05 6.02329E+03-2.40876E+03 2.36469E-11-2.44745E-09
 -1       269-5.64357E+03-2.29919E+05-5.72401E+03 1.43913E+04-5.61613E-11 1.15426E-09
 -1       270 7.04741E+03-2.26804E+05-1.57845E+04-1.17421E+03 7.82165E-11 4.31430E-09
 -1       271-2.71334E+06-3.39112E+05-2.12130E+05-1.05118E+06-1.49157E-10-3.34694E-09
 -1       272-2.78616E+06-4.85778E+05-1.34782E+05-1.05359E+06-1.28534E-09 4.26735E-09
 -1       273-2.75162E+06-3.88589E+05-5.00572E+04-1.04384E+06-5.29212E-11 9.64064E-10
 -1       274-2.74157E+06-4.23105E+05-2.76949E+04-1.06562E+06-5.98675E-10 7.99901E-10
 -1       275-2.75680E+06-3.93314E+05-1.16548E+04-1.04237E+06-5.32509E-10 1.61617E-09
 -1       276-2.73537E+06-4.17378E+05-6.20970E+03-1.06804E+06 5.48425E-10-3.79805E-09
 -1       277-2.75782E+06-3.93433E+05-3.18603E+03-1.04181E+06-1.26829E-09-3.94414E-09
 -1       278-2.73430E+06-4.17264E+05-2.54145E+03-1.06880E+06-3.34239E-11 2.00234E-09
 -1       279-2.75794E+06-3.93322E+05-3.06979E+03-1.04169E+06-7.85789E-10-2.60775E-09
 -1       280-2.73496E+06-4.17746E+05-5.89885E+03-1.06856E+06 1.21281E-09 1.13789E-09
 -1       281-2.75716E+06-3.93017E+05-1.10107E+04-1.04202E+06 6.28120E-10 1.51340E-09
 -1       282-2.74051E+06-4.23475E+05-2.61663E+04-1.06667E+06 1.30888E-09-2.29920E-09
 -1       283-2.75241E+06-3.88404E+05-4.72623E+04-1.04323E+06 1.80626E-09-1.82808E-09
 -1       284-2.78236E+06-4.82930E+05-1.27287E+05-1.05562E+06 2.37742E-09-3.44880E-09
 -1       285-2.71639E+06-3.41559E+05-2.00319E+05-1.05003E+06 3.28873E-09-6.40284E-10
 -1       286-5.13134E+05-7.06675E+03 1.65066E+04-7.77037E+02 1.97400E-09-1.56069E-09
 -1       287-5.05622E+05 8.18147E+03 1.17061E+04-9.90211E+02 7.78641E-10-8.36508E-10
 -1       288-5.10368E+05-1.09893E+03 4.26380E+03 2.41763E+02 7.12589E-10 1.07275E-09
 -1       289-5.08889E+05 1.26853E+03 2.72092E+03-2.88801E+03 4.03361E-10 2.54897E-09
 -1       290-5.09876E+05-1.72646E+02 1.10777E+03 1.12080E+03 2.34877E-10-4.58044E-10
 -1       291-5.09506E+05 2.07301E+02 7.07989E+02-4.33000E+03 1.14611E-09-8.71268E-10
 -1       292-5.09761E+05-3.41325E+01 3.95463E+02 1.68378E+03 9.36609E-10-3.17712E-10
 -1       293-5.09630E+05 8.98519E+01 4.22860E+02-5.02983E+03 1.65727E-10 2.10015E-10
 -1       294-5.09758E+05-5.10878E+01 5.61378E+02 1.82064E+03 1.62395E-09 1.74037E-09
 -1       295-5.09470E+05 3.60026E+02 1.16995E+03-4.85061E+03 1.69572E-09 2.04894E-09
 -1       296-5.09919E+05-3.04791E+02 1.96418E+03 1.50456E+03 1.20696E-09-7.41807E-10
 -1       297-5.08444E+05 2.27319E+03 4.82493E+03-3.82793E+03 3.93030E-10 3.67754E-09
 -1       298-5.10774E+05-1.96439E+03 7.65926E+03 7.97951E+02 3.20227E-10-3.38468E-09
 -1       299-5.02599E+05 1.46649E+04 2.09499E+04-2.16996E+03-5.15456E-10-6.55746E-10
 -1       300-5.15748E+05-1.26615E+04 2.96222E+04-1.53467E+02 5.00791E-11 2.50111E-09
 -1       301 3.72275E+04 2.59362E+04 7.96402E+04-2.21327E+04-1.98997E-09 2.61480E-12
 -1       302 1.25496E+04 4.06864E+04 4.78743E+04-2.58902E+04 2.75122E-11 2.52230E-09
 -1       303 3.54754E+03 3.12354E+04 3.70646E+04-2.21755E+04-2.11071E-09 4.45306E-09
 -1       304 1.47389E+04 4.19375E+04 5.36017E+04-2.58681E+04-3.18323E-10 6.34486E-10
 -1       305 4.43551E+04 2.46936E+04 9.35646E+04-2.21416E+04-2.02272E-09 1.60662E-09
 -1       306-1.94090E+06-2.48058E+05-1.34566E+05-7.51755E+05 2.64117E-09 3.49974E-09
 -1       307-1.97701E+06-3.50822E+05-8.54470E+04-7.64604E+05 6.85498E-09 5.12046E-10
 -1       308-1.96528E+06-2.79244E+05-3.17701E+04-7.46990E+05 2.01658E-09-2.95768E-09
 -1       309-1.94870E+06-3.11251E+05-1.75735E+04-7.72465E+05-8.03993E-10-1.97178E-09
 -1       310-1.96862E+06-2.82182E+05-7.41661E+03-7.46033E+05 5.91172E-10 1.76851E-09
 -1       311-1.94481E+06-3.07629E+05-3.97850E+03-7.74049E+05 5.39330E-10-1.02773E-10
 -1       312-1.96925E+06-2.82269E+05-2.10074E+03-7.45700E+05-1.76897E-10 4.88853E-10
 -1       313-1.94424E+06-3.07481E+05-1.78650E+03-7.74439E+05-6.41933E-10 1.12175E-09
 -1       314-1.96924E+06-2.82258E+05-2.29876E+03-7.45696E+05-1.32059E-09 2.51498E-09
 -1       315-1.94488E+06-3.07725E+05-4.53112E+03-7.74062E+05 4.75666E-10 1.82899E-09
 -1       316-1.96856E+06-2.82101E+05-8.52591E+03-7.46024E+05 1.08912E-09-1.98725E-09
 -1       317-1.94926E+06-3.12043E+05-2.02680E+04-7.72414E+05 1.45224E-09-2.27328E-09
 -1       318-1.96480E+06-2.78611E+05-3.66433E+04-7.47026E+05-2.42073E-09-2.31012E-10
 -1       319-1.98172E+06-3.57935E+05-9.85979E+04-7.63633E+05-1.04137E-09 1.63345E-09
 -1       320-1.93680E+06-2.42466E+05-1.55239E+05-7.52364E+05 2.17551E-09 3.62343E-09
 -1       321-3.92303E+05-1.73954E+04 4.07593E+04-3.20216E+02-1.26337E-09 1.90994E-09
 -1       322-3.74569E+05 2.01538E+04 2.87653E+04-8.31639E+02-1.72409E-09 5.05133E-09
 -1       323-3.85504E+05-2.69576E+03 1.05447E+04 9.02557E+01-3.17741E-10 1.29285E-09
 -1       324-3.82499E+05 3.11901E+03 6.60679E+03-1.59855E+03 1.02240E-10 1.00317E-09
 -1       325-3.84383E+05-4.16378E+02 2.68802E+03 4.46758E+02 4.80611E-11 1.69609E-09
 -1       326-3.83821E+05 4.82179E+02 1.56919E+03-2.19410E+03-3.27788E-10 2.72885E-09
 -1       327-3.84186E+05-6.51436E+01 7.00340E+02 6.85814E+02-4.42625E-10 9.25183E-10
 -1       328-3.84052E+05 8.47820E+01 4.26061E+02-2.51891E+03-1.99076E-11 4.78040E-09
 -1       329-3.84154E+05-1.87195E+01 2.66900E+02 7.71570E+02 5.05516E-11 1.32349E-09
 -1       330-3.84059E+05 8.09149E+01 3.13607E+02-2.52420E+03-1.52804E-10 1.12289E-09
 -1       331-3.84180E+05-6.12197E+01 4.26808E+02 6.91113E+02 1.60298E-10-3.59053E-09
 -1       332-3.83861E+05 4.49809E+02 9.72374E+02-2.20918E+03 5.26711E-10 4.94538E-11
 -1       333-3.84350E+05-3.87740E+02 1.52076E+03 4.56542E+02-1.64917E-10 1.26136E-10
 -1       334-3.82700E+05 2.89412E+03 4.14046E+03-1.62140E+03 9.12621E-11 3.58517E-09
 -1       335-3.85337E+05-2.49929E+03 5.84478E+03 1.03318E+02-8.15675E-10 2.33695E-09
 -1       336-4.24960E+02-8.22148E+05 4.18538E+02-6.78921E+03-4.45857E-09-6.98037E-10
 -1       337-3.21983E+02-8.22206E+05-3.23736E+03-3.35831E+04-3.15768E-09-1.65073E-10
 -1       338 8.29724E+02-8.21242E+05-7.98935E+03-6.61339E+03-5.18867E-09-2.38765E-09
 -1       339-1.06658E+04-8.28294E+05-2.11680E+04-3.37796E+04-3.86717E-09 2.42360E-09
 -1       340 8.19640E+03-8.16133E+05-3.32526E+04-6.59532E+03-5.20231E-09 2.90026E-09
 -1       341-1.19544E+06-1.58932E+05-4.56617E+04-4.66321E+05 7.29415E-10-2.70302E-09
 -1       342-1.24043E+06-1.71748E+05-3.05213E+04-4.26577E+05-4.70209E-10-1.43609E-09
 -1       343-1.19564E+06-1.80823E+05-1.05965E+04-4.69915E+05-2.50634E-09-8.40464E-09
 -1       344-1.23741E+06-1.48124E+05-6.44242E+03-4.24539E+05 4.14789E-09-8.50036E-10
 -1       345-1.19858E+06-1.82386E+05-2.66368E+03-4.68494E+05-1.27471E-09 1.06411E-09
 -1       346-1.22368E+06-1.53776E+05-7.65946E+02-4.34022E+05 4.44453E-09 2.54613E-09
 -1       347-1.20913E+06-1.75344E+05-1.63819E+03-4.60247E+05 2.82898E-09-2.01806E-09
 -1       348-1.20307E+06-1.71451E+05 1.66090E+02-4.54065E+05 1.61981E-09-2.26638E-09
 -1       349-1.21902E+06-1.64842E+05-2.29011E+03-4.48318E+05-1.59389E-09-1.24214E-09
 -1       350-1.18954E+06-1.90227E+05-3.21772E+03-4.74766E+05-2.25768E-08-8.46293E-09
 -1       351-1.22289E+06-1.56398E+05-6.70158E+03-4.39723E+05-8.33870E-09 1.44155E-10
 -1       352-1.19004E+06-2.04875E+05-1.76308E+04-4.81797E+05 2.48393E-08-2.38106E-09
 -1       353-1.21872E+06-1.50071E+05-2.86791E+04-4.41426E+05 4.31373E-09-2.13186E-09
 -1       354-1.22387E+06-2.46792E+05-8.36139E+04-4.62260E+05-1.09299E-08-1.05229E-09
 -1       355-1.18890E+06-1.14783E+05-1.22616E+05-4.59060E+05-1.96087E-09-2.44472E-09
 -1       356-3.95954E+05-2.08808E+03 4.88535E+03-1.77579E+02-9.00968E-11 2.43062E-10
 -1       357-3.93778E+05 2.41825E+03 3.44499E+03-4.84996E+02-7.66530E-10 2.25998E-09
 -1       358-3.95137E+05-3.23382E+02 1.24646E+03 5.33659E+01-1.71809E-10-1.39340E-09
 -1       359-3.94736E+05 3.71415E+02 7.56485E+02-9.08645E+02 3.19218E-10-1.65483E-09
 -1       360-3.94998E+05-4.75945E+01 2.49584E+02 2.46081E+02 2.44512E-10-1.33014E-09
 -1       361-3.94911E+05 3.89054E+01 3.43332E+01-1.22613E+03 2.05031E-10 3.64906E-10
 -1       362-3.94963E+05 8.68632E+00-2.06492E+02 3.70861E+02-2.80458E-10-1.06422E-09
 -1       363-3.95006E+05-1.15423E+02-5.85820E+02-1.38852E+03-1.04687E-09-3.69103E-09
 -1       364-3.94904E+05 1.06755E+02-1.12707E+03 4.08464E+02-1.62817E-10 1.69683E-09
 -1       365-3.95379E+05-8.12783E+02-2.62009E+03-1.37099E+03-5.31482E-10 7.04460E-10
 -1       366-3.94590E+05 7.04200E+02-4.54730E+03 3.53339E+02 1.63883E-10 2.25646E-09
 -1       367-3.97572E+05-5.28679E+03-1.11749E+04-1.17557E+03 7.21144E-10 1.63232E-09
 -1       368-3.92712E+05 4.56685E+03-1.78807E+04 2.13030E+02 8.74365E-10-2.95586E-10
 -1       369-4.10975E+05-3.41599E+04-4.87332E+04-8.24184E+02-4.74813E-10-1.33878E-09
 -1       370-3.81190E+05 2.94830E+04-6.90753E+04 1.98439E+00 2.72017E-09-3.34694E-10
 -1       371-1.05476E+04-1.71603E+05 2.40178E+04 3.30692E+03 9.94987E-10 1.17706E-09
 -1       372 1.08600E+04-1.61464E+05 1.44409E+04-1.38614E+04 2.01908E-09 7.33948E-10
 -1       373-2.58315E+02-1.66708E+05 9.97955E+02 3.45580E+03 1.72986E-09-1.01844E-09
 -1       374-8.55500E+03-1.70430E+05-1.10399E+04-1.37799E+04 1.45087E-09-1.65453E-09
 -1       375 8.79919E+03-1.62635E+05-1.99773E+04 3.22538E+03 1.34514E-09 2.60911E-09
 -1       376-6.80882E+05-8.53052E+04-2.80624E+04-2.60680E+05 1.81808E-09-1.16597E-09
 -1       377-6.95893E+05-1.10475E+05-1.94312E+04-2.55454E+05 2.37708E-09-3.87217E-10
 -1       378-6.86843E+05-9.50530E+04-6.59050E+03-2.58508E+05 4.06658E-10 2.50111E-10
 -1       379-6.88772E+05-9.93806E+04-4.11453E+03-2.58188E+05-8.32756E-10-4.11546E-11
 -1       380-6.87992E+05-9.63682E+04-1.57885E+03-2.57955E+05-2.45933E-10 8.95341E-10
 -1       381-6.87344E+05-9.79833E+04-1.00242E+03-2.58950E+05-6.85160E-10-8.44821E-10
 -1       382-6.88270E+05-9.64453E+04-5.91229E+02-2.57748E+05-3.96811E-10 6.01666E-10
 -1       383-6.87109E+05-9.79863E+04-7.66323E+02-2.59153E+05-4.71104E-10 2.31478E-09
 -1       384-6.88226E+05-9.63646E+04-1.13583E+03-2.57753E+05 2.74085E-10 1.53079E-10
 -1       385-6.87737E+05-9.86506E+04-2.68759E+03-2.58862E+05 1.15921E-09-9.46443E-10
 -1       386-6.87643E+05-9.57832E+04-4.61430E+03-2.58038E+05 1.10344E-09-4.77030E-10
 -1       387-6.91322E+05-1.03705E+05-1.23471E+04-2.57457E+05-7.33507E-10-5.06134E-09
 -1       388-6.84648E+05-9.13248E+04-1.98504E+04-2.59154E+05 2.39834E-09-2.03454E-09
 -1       389-7.11819E+05-1.38193E+05-5.86269E+04-2.50349E+05 5.30986E-09 2.40107E-10
 -1       390-6.67171E+05-6.13887E+04-8.46538E+04-2.65117E+05 9.18590E-09-1.26238E-09
 -1       406 1.57660E+03 4.07593E+05 3.09639E+03-4.51932E+04 2.45564E-11 1.66347E-09
 -1       407 8.56710E+02 4.08126E+05 3.16173E+03-4.98543E+04-2.72189E-09-1.57343E-09
 -1       408 1.10915E+03 4.07562E+05 4.71096E+03-4.50477E+04 1.34150E-10 8.24366E-09
 -1       409 4.37749E+03 4.09339E+05 9.80193E+03-5.00425E+04-3.03316E-09 2.20516E-08
 -1       410 1.26592E+04 4.06303E+05 1.95871E+04-4.49939E+04-2.91038E-11 1.11881E-08
 -1       466 1.13198E+06-4.50380E+04 1.04212E+05 1.71288E+04 2.59206E-11-4.72210E-09
 -1       467 1.18532E+06 5.18597E+04 7.49309E+04-3.33788E+04 1.50357E-09 1.85537E-09
 -1       468 1.15217E+06-6.89484E+03 2.70695E+04 7.11094E+03 7.95012E-10-1.15506E-09
 -1       469 1.16137E+06 7.92581E+03 1.72611E+04-1.85133E+04 4.01627E-10 4.31783E-10
 -1       470 1.15565E+06-1.05162E+03 7.07730E+03 2.26254E+03-2.56080E-10-8.33552E-10
 -1       471 1.15722E+06 1.25838E+03 4.42520E+03-1.14254E+04-3.08660E-11-2.72667E-09
 -1       472 1.15625E+06-1.96809E+02 2.47895E+03 2.28284E+01-3.56167E-10 1.75748E-09
 -1       473 1.15663E+06 5.12553E+02 2.57478E+03-8.44629E+03-8.15028E-10-3.07946E-09
 -1       474 1.15623E+06-2.95412E+02 3.37410E+03-7.16588E+02-9.17524E-11 5.84350E-11
 -1       475 1.15746E+06 2.11677E+03 6.95746E+03-8.10658E+03 2.16722E-09-6.26528E-10
 -1       476 1.15542E+06-1.79560E+03 1.17405E+04-3.16868E+02 2.08580E-09 1.41972E-09
 -1       477 1.16317E+06 1.34924E+04 2.86251E+04-1.02433E+04-3.44230E-10-2.78305E-10
 -1       478 1.15051E+06-1.16435E+04 4.56694E+04 1.42021E+03-2.35730E-10 1.84264E-09
 -1       479 1.19793E+06 8.71433E+04 1.24515E+05-1.60122E+04 5.31031E-10-4.19277E-09
 -1       480 1.12067E+06-7.52242E+04 1.76272E+05 5.45147E+03 2.13856E-09-2.25555E-10
 -1       481-9.43464E+03 2.01490E+05 2.06953E+04-1.01731E+04-4.54747E-11 5.45015E-10
 -1       482 1.09641E+04 2.18871E+05 1.67414E+04 3.75414E+04-1.39153E-10 5.64199E-09
 -1       483-1.77456E+03 2.07591E+05 6.91169E+03-8.39976E+03-8.09450E-11 1.63436E-09
 -1       484 4.66064E+03 2.12217E+05 7.91680E+03 3.52567E+04-1.21645E-11-8.68567E-11
 -1       485-2.91144E+03 2.07801E+05 7.54244E+03-7.88641E+03 1.03000E-10-1.98938E-10
 -1       486-1.05685E+06-1.44609E+05-1.07512E+05-4.53521E+05-6.29370E-10-7.50515E-09
 -1       487-1.16062E+06-1.22978E+05-6.41146E+04-3.10680E+05 2.96313E-09 1.20081E-08
 -1       488-1.03557E+06-1.90772E+05-2.37102E+04-4.57555E+05-3.92220E-09 8.09450E-09
 -1       489-1.16504E+06-7.41039E+04-1.28819E+04-3.11545E+05-3.01202E-09 1.15715E-08
 -1       490-1.05359E+06-1.92495E+05-7.71548E+03-4.53662E+05 1.00470E-08 1.04546E-08
 -1       491-1.09233E+06-9.35194E+04 6.72880E+03-3.32606E+05-9.67520E-09 6.38374E-09
 -1       492-1.10537E+06-1.73464E+05-9.99192E+03-4.34187E+05 6.98628E-09-1.67506E-09
 -1       493-1.01007E+06-1.46731E+05 1.39749E+04-3.88635E+05-9.11314E-10-2.21007E-10
 -1       494-1.13392E+06-1.40719E+05-8.99351E+03-3.96256E+05 5.07134E-09-8.60086E-09
 -1       495-9.89510E+05-2.05704E+05 5.35340E+03-4.63199E+05-4.86580E-11-2.25303E-08
 -1       496-1.12845E+06-1.12640E+05-5.85272E+03-3.61581E+05-3.80851E-09-1.24961E-08
 -1       497-1.00116E+06-2.38261E+05-1.10853E+04-5.01266E+05-1.46005E-08-5.32486E-09
 -1       498-1.12476E+06-1.06319E+05-2.08084E+04-3.59978E+05-1.03709E-08 3.35949E-08
 -1       499-1.01290E+06-2.49759E+05-5.18958E+04-4.63649E+05-3.91844E-09 5.91172E-09
 -1       500-1.11470E+06-1.02764E+05-9.36152E+04-3.97705E+05 1.17507E-08-2.77942E-09
 -1       501-3.65764E+05-1.81053E+04 4.23523E+04 5.53881E+00 1.33764E-09-2.94858E-09
 -1       502-3.46936E+05 2.09677E+04 2.99616E+04-2.91898E+03-1.03313E-11 1.88265E-10
 -1       503-3.58643E+05-2.80869E+03 1.09462E+04 8.42450E+02-4.18027E-10-1.15961E-10
 -1       504-3.55303E+05 3.24791E+03 6.89678E+03-4.40074E+03 5.62750E-11-2.17256E-10
 -1       505-3.57419E+05-4.35345E+02 2.79096E+03 1.48737E+03 9.64974E-10-1.17609E-09
 -1       506-3.56780E+05 5.09460E+02 1.64407E+03-5.39292E+03 7.84030E-09 8.99092E-10
 -1       507-3.57180E+05-6.95914E+01 7.40087E+02 1.83465E+03 4.67915E-07 1.41662E-09
 -1       508-3.57051E+05 1.01828E+02 4.68360E+02-5.74046E+03 9.21394E-07-1.17950E-10
 -1       509-3.57154E+05-2.51384E+01 3.22484E+02 1.83493E+03 4.67711E-07 3.42289E-09
 -1       510-3.56990E+05 1.23178E+02 4.40620E+02-5.39394E+03 7.04167E-09-1.04212E-09
 -1       511-3.57235E+05-9.44840E+01 6.15239E+02 1.48812E+03 6.04672E-10 2.83649E-09
 -1       512-3.56586E+05 6.82004E+02 1.48634E+03-4.40130E+03 2.34849E-10 8.44011E-10
 -1       513-3.57545E+05-5.91250E+02 2.27099E+03 8.42260E+02-2.81943E-10-4.20982E-10
 -1       514-3.54732E+05 4.38071E+03 6.29900E+03-2.90162E+03-1.19704E-09 7.62839E-11
 -1       515-3.59075E+05-3.79050E+03 8.79530E+03-1.15716E+01-1.11856E-09 3.38332E-10
 -1       516-4.11500E+04 2.15438E+05 9.63812E+04 1.66044E+04 5.83168E-09 1.52977E-09
 -1       517 5.04450E+04 2.61320E+05 7.31869E+04-7.78668E+04 8.77480E-09 8.08577E-09
 -1       518-8.75052E+03 2.31850E+05 3.42457E+04 1.59874E+04 5.58521E-09 3.77452E-09
 -1       519 2.74724E+04 2.56134E+05 4.38007E+04-7.96979E+04 8.04357E-09 3.37423E-10
 -1       520-1.86126E+04 2.21127E+05 4.25750E+04 1.84337E+04-1.25692E-09 4.35193E-10
 -1       521-2.53787E+06-3.20827E+05-1.82380E+05-9.81175E+05-2.04818E-09-1.32422E-09
 -1       522-2.59477E+06-4.52468E+05-1.15853E+05-9.89701E+05 6.51085E-10 4.47471E-10
 -1       523-2.57085E+06-3.63247E+05-4.30363E+04-9.74781E+05-2.96751E-10-7.67614E-10
 -1       524-2.55642E+06-3.98682E+05-2.38093E+04-1.00018E+06-7.81256E-10-9.71340E-10
 -1       525-2.57532E+06-3.67290E+05-1.00188E+04-9.73519E+05 5.11591E-11 4.57476E-10
 -1       526-2.55116E+06-3.93702E+05-5.34076E+03-1.00221E+06 2.32944E-09 1.21190E-09
 -1       527-2.57613E+06-3.67454E+05-2.74053E+03-9.73102E+05 4.74643E-10-1.44212E-09
 -1       528-2.55041E+06-3.93425E+05-2.19225E+03-1.00264E+06-6.93163E-10-3.66072E-10
 -1       529-2.57611E+06-3.67487E+05-2.65582E+03-9.73133E+05-4.16208E-10-6.51198E-10
 -1       530-2.55123E+06-3.93561E+05-5.10348E+03-1.00207E+06-2.95586E-10 1.96746E-09
 -1       531-2.57526E+06-3.67407E+05-9.54171E+03-9.73608E+05 3.17868E-10-6.50289E-10
 -1       532-2.55637E+06-3.98144E+05-2.26494E+04-9.99954E+05 1.50339E-09-5.59339E-11
 -1       533-2.57091E+06-3.63652E+05-4.09364E+04-9.74903E+05-1.42154E-09-1.50067E-09
 -1       534-2.59302E+06-4.49110E+05-1.10182E+05-9.89765E+05 1.80080E-10 8.87667E-10
 -1       535-2.53945E+06-3.23419E+05-1.73464E+05-9.81100E+05-1.30967E-10 3.63798E-11
 -1       536 9.41257E+04-1.26079E+04 5.11609E+04-5.52634E+03-7.36691E-11 1.13869E-09
 -1       537 1.13019E+05 1.65575E+04 3.30064E+04-2.42819E+04-1.57843E-09-6.91671E-10
 -1       538 1.01892E+05-1.36886E+03 1.32521E+04-5.48090E+03-7.27596E-12-2.79942E-09
 -1       539 1.04221E+05 1.65706E+03 7.45016E+03-2.43049E+04 8.21274E-10-1.29785E-09
 -1       540 1.02783E+05-1.66513E+02 3.34619E+03-5.49907E+03 1.69166E-10 8.03539E-10
 -1       541 1.03120E+05 1.61031E+02 1.77992E+03-2.42686E+04-1.79170E-10-5.00336E-10
 -1       542 1.02892E+05-2.29166E+01 8.46654E+02-5.51728E+03 2.51498E-09 1.78545E-09
 -1       543 1.02937E+05 2.60780E+01 4.56529E+02-2.42409E+04 4.65388E-09-6.58247E-10
 -1       544 1.02905E+05-5.58472E-01 2.53964E+02-5.52687E+03 2.85183E-09 1.07264E-10
 -1       545 1.02904E+05 2.62068E+01 2.02096E+02-2.42302E+04 2.95188E-10 1.45849E-09
 -1       546 1.02902E+05-4.62882E+00 2.31792E+02-5.52797E+03-2.83649E-10 1.06650E-09
 -1       547 1.02966E+05 1.02214E+02 4.25677E+02-2.42334E+04 1.65471E-10-5.63546E-10
 -1       548 1.02858E+05-7.42319E+01 7.20196E+02-5.52368E+03-2.66709E-10-1.71939E-09
 -1       549 1.03471E+05 8.87606E+02 1.77404E+03-2.42076E+04 5.12955E-10-2.55011E-09
 -1       550 1.02449E+05-6.89695E+02 2.73086E+03-5.55384E+03-9.37689E-10 5.25006E-10
 -1       551 1.21760E+04-2.48731E+05 2.48250E+04-3.79720E+05-6.11180E-10-1.78989E-09
 -1       552 6.02657E+03-2.44714E+05 1.88322E+04-4.42596E+05-1.46611E-09 7.02130E-10
 -1       553 3.86135E+03-2.48267E+05 2.09908E+04-3.79091E+05-5.96629E-10 2.99679E-10
 -1       554 1.37083E+04-2.40591E+05 3.86537E+04-4.42713E+05-1.36424E-09 4.52928E-10
 -1       555 3.70234E+04-2.53362E+05 7.30203E+04-3.79540E+05-9.74978E-10-1.46429E-09
 -1       556-1.95506E+05-1.00915E+05 1.50279E+04-1.80774E+05 1.63345E-09-9.96806E-10
 -1       557-1.81063E+05-1.16756E+05 7.38054E+03-1.92270E+05-1.92085E-09 1.32923E-09
 -1       558-1.95951E+05-1.05987E+05 3.09285E+03-1.77772E+05 1.54978E-09 6.91580E-09
 -1       559-1.82502E+05-1.19250E+05 1.52093E+03-1.92867E+05 4.31646E-09 7.38146E-09
 -1       560-1.96199E+05-1.06001E+05 6.69675E+02-1.77776E+05-7.16682E-10-8.27640E-10
 -1       561-1.82854E+05-1.19270E+05 3.16308E+02-1.93125E+05-8.91305E-10-2.33328E-09
 -1       562-1.96384E+05-1.05877E+05 1.03988E+02-1.77898E+05-3.31056E-09 2.00544E-10
 -1       563-1.83038E+05-1.19191E+05-2.33612E+01-1.93257E+05-5.64432E-09 1.01854E-08
 -1       564-1.96483E+05-1.05803E+05-1.78120E+02-1.77970E+05-5.94810E-09-4.31646E-09
 -1       565-1.83137E+05-1.19153E+05-4.41837E+02-1.93318E+05-1.11686E-09 4.27644E-09
 -1       566-1.96480E+05-1.05775E+05-9.41934E+02-1.77984E+05-9.55765E-10-8.36735E-10
 -1       567-1.83301E+05-1.19259E+05-2.08363E+03-1.93292E+05-5.22050E-10-1.50249E-09
 -1       568-1.96301E+05-1.06130E+05-4.28857E+03-1.77799E+05 2.35013E-09 6.79029E-09
 -1       569-1.85585E+05-1.21936E+05-1.01182E+04-1.92569E+05 1.62345E-10 2.47655E-09
 -1       570-1.95407E+05-1.14249E+05-2.07058E+04-1.74360E+05-1.47338E-10 7.60565E-10
 -1       571 2.61909E+05 1.30876E+04 2.03343E+04-6.72000E+04 3.31056E-10 1.80285E-09
 -1       572 2.65040E+05 4.43055E+03 9.99877E+03-7.42249E+04 1.14596E-10 9.09495E-13
 -1       573 2.63168E+05 9.64181E+02 4.45086E+03-6.70086E+04-1.96451E-10-6.23004E-10
 -1       574 2.63527E+05 2.94702E+02 2.23716E+03-7.44324E+04-5.44787E-10-1.03591E-09
 -1       575 2.63295E+05 1.90293E+01 1.06011E+03-6.69850E+04-3.43789E-10 4.33829E-10
 -1       576 2.63328E+05-2.89937E+00 5.43249E+02-7.44589E+04-1.27784E-10 6.08452E-10
 -1       577 2.63312E+05-1.86007E+01 2.73603E+02-6.69820E+04 7.82165E-11 2.13731E-09
 -1       578 2.63310E+05-1.47394E+01 1.59857E+02-7.44621E+04 3.15595E-10 3.35331E-09
 -1       579 2.63336E+05-2.32505E+01 1.17121E+02-6.69818E+04 5.63887E-11-6.60293E-10
 -1       580 2.63347E+05-2.84801E+01 1.41035E+02-7.44588E+04 4.20187E-10-2.00089E-10
 -1       581 2.63379E+05-3.86032E+01 2.26348E+02-6.69853E+04-1.01863E-09-1.27920E-09
 -1       582 2.63447E+05-4.59243E-01 4.54952E+02-7.44197E+04-8.62201E-10 1.23691E-10
 -1       583 2.63418E+05 1.13123E+02 8.88391E+02-6.70209E+04 1.14596E-10-9.73159E-10
 -1       584 2.63831E+05 7.84666E+02 1.99384E+03-7.41090E+04-1.40881E-09 4.27008E-10
 -1       585 2.63242E+05 2.49516E+03 4.04439E+03-6.72988E+04 5.60249E-10 2.86127E-09
 -1       586 2.14979E+03 1.00944E+05 3.81491E+03-1.78034E+05 1.55705E-09 1.04592E-10
 -1       587 1.21233E+03 1.01551E+05 3.61758E+03-1.97227E+05 2.31012E-10-6.73026E-11
 -1       588 1.37009E+03 1.00870E+05 5.10484E+03-1.77810E+05 1.68257E-09-2.58751E-10
 -1       589 4.82385E+03 1.02797E+05 1.04310E+04-1.97273E+05 4.51109E-10-2.36469E-09
 -1       590 1.35201E+04 9.96241E+04 2.07364E+04-1.77984E+05 1.62254E-09-1.82990E-09
 -1       591-1.18428E+05-4.21612E+04-2.21510E+04-6.29200E+04 6.69388E-10-1.88993E-09
 -1       592-1.18869E+05-3.94242E+04-1.08347E+04-6.97536E+04-8.31278E-10 9.14497E-10
 -1       593-1.19035E+05-3.37303E+04-4.59571E+03-6.67370E+04 1.48884E-09 6.26187E-09
 -1       594-1.16517E+05-3.63934E+04-2.24696E+03-7.01948E+04-4.13911E-09-7.10509E-09
 -1       595-1.19143E+05-3.34035E+04-1.03458E+03-6.69146E+04 2.07547E-09 9.09910E-09
 -1       596-1.16339E+05-3.62696E+04-5.26169E+02-7.01845E+04-5.07384E-10 1.63834E-09
 -1       597-1.19164E+05-3.34169E+04-2.89576E+02-6.69169E+04 5.51381E-12-5.01132E-10
 -1       598-1.16321E+05-3.62709E+04-2.37523E+02-7.01773E+04 5.26143E-10-2.42562E-09
 -1       599-1.19161E+05-3.34172E+04-3.08872E+02-6.69157E+04 2.71712E-10 2.72848E-10
 -1       600-1.16337E+05-3.62713E+04-5.77269E+02-7.01823E+04-7.27596E-12-1.15165E-09
 -1       601-1.19132E+05-3.34038E+04-1.14297E+03-6.69106E+04-9.99535E-10-1.18553E-09
 -1       602-1.16533E+05-3.64084E+04-2.48745E+03-7.01888E+04 9.56106E-10 4.46562E-10
 -1       603-1.19008E+05-3.37700E+04-5.08906E+03-6.67137E+04-5.15229E-10 1.02500E-09
 -1       604-1.19149E+05-3.97498E+04-1.19978E+04-6.96796E+04 2.43062E-10-2.00271E-09
 -1       605-1.18317E+05-4.31167E+04-2.45281E+04-6.24992E+04-2.63208E-09-1.02846E-08
 -1       606 7.96962E+04-1.01185E+04-1.56862E+04 2.33102E+04-5.06952E-09 2.57842E-10
 -1       607 7.72375E+04-3.42606E+03-7.71040E+03 2.54995E+04-8.32642E-10 1.31183E-09
 -1       608 7.86695E+04-7.44541E+02-3.43260E+03 2.31490E+04 3.75076E-09-1.04569E-09
 -1       609 7.83460E+04-2.08749E+02-1.72193E+03 2.56750E+04-1.53659E-09-1.53159E-09
 -1       610 7.85310E+04 7.78834E+00-8.13791E+02 2.31286E+04-5.10408E-09 8.33325E-10
 -1       611 7.84667E+04 3.83873E+01-4.10151E+02 2.56968E+04-9.74796E-09 1.34742E-09
 -1       612 7.84985E+04 4.70867E+01-1.95858E+02 2.31263E+04-3.78259E-09 1.39721E-09
 -1       613 7.84731E+04 5.08517E+01-9.18387E+01 2.56995E+04-5.09090E-09 1.83513E-09
 -1       614 7.84832E+04 4.61287E+01-3.06006E+01 2.31258E+04-5.34783E-10-4.63160E-10
 -1       615 7.84677E+04 5.34911E+01 1.51155E+01 2.56997E+04 7.30688E-09-2.03522E-09
 -1       616 7.84720E+04 5.11199E+01 6.72434E+01 2.31260E+04-2.12731E-09-1.86583E-09
 -1       617 7.84741E+04 7.96720E+01 1.62712E+02 2.56990E+04 1.66233E-09 2.16187E-09
 -1       618 7.84542E+04 1.26402E+02 3.33493E+02 2.31264E+04 1.05056E-08-1.70212E-09
 -1       619 7.85805E+04 3.96398E+02 7.54812E+02 2.56961E+04 1.99828E-08 1.88356E-09
 -1       620 7.83525E+04 1.04663E+03 1.53774E+03 2.31274E+04 1.35600E-08 3.42516E-09
 -1       621 2.21300E+03 2.67802E+05 5.21033E+03-2.58216E+04 3.40606E-10-5.47061E-10
 -1       622 8.44254E+02 2.68778E+05 4.16785E+03-3.02187E+04-1.36083E-09 8.66066E-10
 -1       623 4.89791E+02 2.68033E+05 4.96391E+03-2.58510E+04 2.09639E-10 1.32968E-09
 -1       624 2.84741E+03 2.69938E+05 9.42325E+03-3.00858E+04-1.24419E-09 1.77147E-09
 -1       625 8.73933E+03 2.66678E+05 1.79802E+04-2.59524E+04 8.23093E-11-9.84528E-10
 -1       626 1.11069E+05 3.62055E+04-7.46774E+03 7.61289E+04-4.21642E-09-1.19417E-09
 -1       627 1.07819E+05 4.12273E+04-3.54684E+03 7.74620E+04-2.89947E-09-5.93491E-09
 -1       628 1.11208E+05 3.98420E+04-1.49145E+03 7.43665E+04 6.26915E-09-5.34556E-10
 -1       629 1.08388E+05 4.27080E+04-7.16696E+02 7.73222E+04 3.44698E-09 5.67439E-10
 -1       630 1.11187E+05 4.00865E+04-3.17415E+02 7.42250E+04 9.60426E-10-2.12935E-09
 -1       631 1.08425E+05 4.28151E+04-1.43635E+02 7.73195E+04-9.25593E-09-1.10950E-08
 -1       632 1.11169E+05 4.00954E+04-4.38710E+01 7.42109E+04-2.64481E-09-5.97652E-10
 -1       633 1.08424E+05 4.28211E+04 2.61348E+01 7.73188E+04 6.33031E-09 1.46360E-09
 -1       634 1.11157E+05 4.00900E+04 1.09429E+02 7.42078E+04 4.52974E-09 1.02318E-09
 -1       635 1.08435E+05 4.28240E+04 2.64779E+02 7.73209E+04-3.20051E-09 1.71326E-09
 -1       636 1.11144E+05 4.01000E+04 5.56592E+02 7.41993E+04-1.00107E-09 1.81262E-09
 -1       637 1.08566E+05 4.29671E+04 1.24518E+03 7.73004E+04 8.57796E-09-4.14275E-10
 -1       638 1.11113E+05 4.05334E+04 2.58004E+03 7.40091E+04 7.58268E-09-2.20962E-09
 -1       639 1.09882E+05 4.52209E+04 6.13667E+03 7.67574E+04-5.63159E-09-4.78849E-09
 -1       640 1.11152E+05 4.70738E+04 1.29188E+04 7.12818E+04-1.74109E-08-1.63091E-08
 -1       641 2.62748E+03 2.36130E+03-5.53926E+03-2.27247E+02-7.93798E-09-1.39789E-09
 -1       642 2.53835E+02-2.73429E+03-3.90161E+03 1.01646E+03 2.34500E-09 2.44427E-10
 -1       643 1.70787E+03 3.65082E+02-1.42916E+03-2.25566E+02-1.51450E-08 4.67708E-10
 -1       644 1.32143E+03-4.19828E+02-8.83709E+02 1.01419E+03 4.86481E-09 2.52976E-09
 -1       645 1.55911E+03 5.49978E+01-3.43201E+02-2.24987E+02-5.56807E-09 4.67466E-10
 -1       646 1.49667E+03-5.62793E+01-1.63506E+02 1.01329E+03-2.80085E-07-1.93853E-09
 -1       647 1.53220E+03 2.92885E+00-3.28258E+00-2.24672E+02-2.10945E-05 3.57698E-08
 -1       648 1.54456E+03 3.16703E+01 1.44094E+02 1.01297E+03-4.17218E-05 7.60928E-08
 -1       649 1.51108E+03-3.26460E+01 3.31129E+02-2.24662E+02-2.10943E-05 3.38222E-08
 -1       650 1.66504E+03 2.52857E+02 8.00060E+02 1.01303E+03-2.62618E-07-2.46273E-09
 -1       651 1.41186E+03-2.17788E+02 1.39884E+03-2.24736E+02-8.73349E-09-8.85848E-10
 -1       652 2.34832E+03 1.63363E+03 3.44750E+03 1.01287E+03 8.96901E-09-1.10504E-10
 -1       653 8.28251E+02-1.40951E+03 5.51536E+03-2.24508E+02-4.27652E-09-2.30921E-09
 -1       654 6.49210E+03 1.05399E+04 1.50376E+04 1.00952E+03 3.82083E-09-8.01492E-10
 -1       655-2.73059E+03-9.09502E+03 2.13141E+04-2.21419E+02 2.66608E-09-6.65750E-10
 -1       656 8.39548E+03-3.02650E+05-3.55492E+04 7.30541E+03-1.71349E-09-6.58929E-10
 -1       657-1.21270E+04-3.15785E+05-2.60573E+04 3.09413E+04-2.79579E-09 1.90005E-09
 -1       658 1.65117E+03-3.07293E+05-1.64390E+04 7.23814E+03-8.54499E-10-1.27329E-10
 -1       659-1.10267E+04-3.15167E+05-2.41646E+04 3.09857E+04-1.56865E-09-1.14197E-09
 -1       660 7.49901E+03-3.03292E+05-3.19876E+04 7.26167E+03-1.08230E-09 1.27693E-09
 -1       661 3.01404E+05 3.80005E+04 2.47797E+04 1.17714E+05 8.04994E-09-5.83896E-10
 -1       662 3.07412E+05 5.76374E+04 1.57438E+04 1.20907E+05 2.40415E-09 2.70643E-09
 -1       663 3.05727E+05 4.39185E+04 5.85384E+03 1.17031E+05 1.91568E-09 1.06547E-09
 -1       664 3.02448E+05 5.00825E+04 3.24716E+03 1.21999E+05-5.13421E-09 8.49184E-10
 -1       665 3.06223E+05 4.45845E+04 1.37374E+03 1.16984E+05-3.26639E-09 2.53044E-09
 -1       666 3.01879E+05 4.92497E+04 7.50102E+02 1.22072E+05 5.50841E-10 5.88346E-09
 -1       667 3.06278E+05 4.46643E+04 4.16734E+02 1.16988E+05 4.82075E-09 2.11759E-09
 -1       668 3.01827E+05 4.91693E+04 3.92458E+02 1.22070E+05-1.10257E-08-2.26805E-11
 -1       669 3.06272E+05 4.46595E+04 5.47831E+02 1.16988E+05 2.60798E-10 1.82433E-09
 -1       670 3.01927E+05 4.93040E+04 1.11514E+03 1.22070E+05 1.50400E-08 3.37565E-09
 -1       671 3.06181E+05 4.45383E+04 2.10840E+03 1.16985E+05 2.49543E-09 6.38579E-10
 -1       672 3.02820E+05 5.05877E+04 5.02562E+03 1.21944E+05-9.89940E-09 9.08472E-10
 -1       673 3.05404E+05 4.35122E+04 9.07424E+03 1.17064E+05-3.31630E-09 1.35060E-10
 -1       674 3.10529E+05 6.22955E+04 2.44164E+04 1.20237E+05 4.48728E-09 8.89486E-10
 -1       675 2.98693E+05 3.43396E+04 3.84339E+04 1.18128E+05 5.81758E-09-3.78895E-09
 -1       676 1.08532E+03-2.85088E+05-5.11503E+03 3.02462E+02 1.88061E-09 3.25287E-09
 -1       677-1.95973E+03-2.87058E+05-5.13986E+03 2.29797E+02 1.66833E-09 3.44713E-09
 -1       678 5.62689E+02-2.85419E+05-5.56605E+03 3.01681E+02 2.80306E-09 5.90585E-09
 -1       679-5.84506E+03-2.89322E+05-1.18652E+04 2.29356E+02 3.00133E-10 1.32448E-09
 -1       680 4.30799E+03-2.82825E+05-1.77506E+04 3.02162E+02-4.88581E-09 1.47662E-09
 -1       681 4.21208E+05-1.09700E+04 2.57056E+04-5.94994E+02 2.75264E-11-1.01318E-09
 -1       682 4.32326E+05 1.27138E+04 1.81484E+04 3.77430E+03-5.31024E-11-2.41016E-10
 -1       683 4.25518E+05-1.69964E+03 6.66955E+03-2.78518E+02-3.64722E-10-1.36697E-09
 -1       684 4.27312E+05 1.97396E+03 4.19243E+03 3.35619E+03-7.88276E-11-7.25208E-10
 -1       685 4.26223E+05-2.64035E+02 1.75397E+03-1.76871E+02-4.07517E-10-6.40512E-10
 -1       686 4.26503E+05 3.22605E+02 1.10524E+03 3.34934E+03-1.11889E-09-1.71933E-09
 -1       687 4.26327E+05-5.33341E+01 6.61499E+02-2.71659E+02 2.92751E-10-1.37771E-09
 -1       688 4.26445E+05 1.49819E+02 7.54680E+02 3.75216E+03 8.31619E-11-6.23309E-10
 -1       689 4.26284E+05-9.35606E+01 1.03917E+03-5.79696E+02-2.22911E-10-6.43354E-10
 -1       690 4.26795E+05 6.66814E+02 2.22160E+03 4.63479E+03-3.86535E-11-5.05906E-11
 -1       691 4.25983E+05-5.73862E+02 3.72662E+03-1.15430E+03-3.07551E-10 2.51248E-10
 -1       692 4.28761E+05 4.29653E+03 9.18110E+03 6.15173E+03-1.59332E-10 8.89486E-10
 -1       693 4.24333E+05-3.72367E+03 1.45531E+04-2.09668E+03 4.51109E-10 1.48066E-09
 -1       694 4.40120E+05 2.78446E+04 3.98740E+04 8.61278E+03 3.00878E-09 2.24463E-09
 -1       695 4.14657E+05-2.40690E+04 5.62373E+04-3.61524E+03 2.95984E-09 3.16504E-09
 -1       696-8.58749E+03 3.61147E+05 1.97630E+04 2.00986E+03 8.18545E-12-6.64073E-10
 -1       697 9.29723E+03 3.69624E+05 1.27469E+04-1.01655E+04 5.47971E-11-1.22215E-09
 -1       698-6.68771E+02 3.64916E+05 2.58511E+03 1.59624E+03-1.37788E-10 1.02141E-09
 -1       699-3.47719E+03 3.63620E+05-4.03602E+03-9.89613E+03-2.05546E-10 2.19115E-09
 -1       700 4.14894E+03 3.67150E+05-9.15492E+03 1.74048E+03-1.31422E-10 8.33921E-10
 -1       701-3.79619E+05-3.43115E+04-4.87942E+04-1.50440E+05 2.63753E-11-3.61979E-10
 -1       702-4.03915E+05-7.99445E+04-3.37816E+04-1.43509E+05-7.44649E-11 6.48470E-10
 -1       703-3.89756E+05-5.14780E+04-1.14473E+04-1.46912E+05 2.46700E-10 3.05135E-10
 -1       704-3.92068E+05-6.01358E+04-7.12572E+03-1.47678E+05 2.88679E-10 5.33873E-10
 -1       705-3.91455E+05-5.40656E+04-2.68006E+03-1.46290E+05 4.21778E-11 2.47837E-11
 -1       706-3.90129E+05-5.71176E+04-1.59598E+03-1.48358E+05-3.31191E-10 6.17320E-11
 -1       707-3.91694E+05-5.44879E+04-7.43629E+02-1.46235E+05 2.73658E-10 5.89438E-10
 -1       708-3.90016E+05-5.65543E+04-6.51357E+02-1.48254E+05 7.80602E-11-2.10678E-10
 -1       709-3.91566E+05-5.46284E+04-7.30561E+02-1.46394E+05-3.91562E-11-1.04080E-10
 -1       710-3.90615E+05-5.65724E+04-1.54424E+03-1.47750E+05-2.05327E-10 5.74119E-11
 -1       711-3.91094E+05-5.44718E+04-2.60084E+03-1.46737E+05-2.02135E-10-9.54742E-10
 -1       712-3.92916E+05-5.90627E+04-6.89310E+03-1.46597E+05 4.41389E-11-9.00059E-10
 -1       713-3.89266E+05-5.21465E+04-1.10871E+04-1.47544E+05 2.02363E-11 2.35559E-10
 -1       714-4.04662E+05-7.79877E+04-3.27046E+04-1.42276E+05 1.27329E-10-3.38332E-10
 -1       715-3.79360E+05-3.55990E+04-4.72426E+04-1.51041E+05-1.00590E-09 9.84073E-10
 -1       716 1.99521E+05-1.57679E+04 3.68986E+04-1.59639E+03-3.61081E-09 3.65253E-09
 -1       717 2.15952E+05 1.82515E+04 2.61226E+04 3.28603E+03-1.53452E-09 3.26327E-09
 -1       718 2.05759E+05-2.44207E+03 9.56469E+03-1.08517E+03-8.49298E-10 1.37334E-09
 -1       719 2.08660E+05 2.82016E+03 6.06490E+03 2.39590E+03 1.07239E-09 1.55421E-09
 -1       720 2.06804E+05-3.80141E+02 2.52666E+03-7.06359E+02-1.84457E-11 3.00702E-10
 -1       721 2.07433E+05 4.57462E+02 1.65284E+03 1.71602E+03-5.71347E-10 4.93174E-10
 -1       722 2.06980E+05-8.21413E+01 1.02775E+03-4.05264E+02 9.19584E-10 4.11191E-11
 -1       723 2.07292E+05 2.46916E+02 1.27863E+03 1.16465E+03 1.20224E-10-7.01043E-10
 -1       724 2.06940E+05-1.67801E+02 1.83405E+03-1.54965E+02-8.48530E-11-1.52721E-09
 -1       725 2.07782E+05 1.20469E+03 3.95949E+03 6.92452E+02-5.94909E-10-1.95223E-09
 -1       726 2.06488E+05-1.03612E+03 6.72224E+03 6.69449E+01 1.56021E-10-9.68612E-10
 -1       727 2.10996E+05 7.76339E+03 1.64524E+04 2.55309E+02-7.07360E-10-1.20258E-09
 -1       728 2.03724E+05-6.70588E+03 2.62748E+04 2.82165E+02-3.98131E-10-8.58563E-10
 -1       729 2.30685E+05 5.01538E+04 7.15932E+04-2.19694E+02-1.76800E-09-1.08412E-09
 -1       730 1.86807E+05-4.32824E+04 1.01503E+05 5.41696E+02 1.86191E-10-1.25874E-09
 -1       731-1.42200E+04 1.47455E+05 3.19967E+04 9.92698E+03-2.76486E-10 7.02130E-10
 -1       732 1.65353E+04 1.67415E+05 2.40005E+04-4.19557E+04 5.49335E-10-9.58607E-10
 -1       733-2.34177E+03 1.55239E+05 9.11393E+03 8.81649E+03 2.76486E-09 1.90323E-09
 -1       734 4.26185E+03 1.59000E+05 7.49657E+03-4.08058E+04 4.35045E-09 4.80966E-09
 -1       735-1.81018E+03 1.55618E+05 5.03577E+03 8.77726E+03 2.14396E-09 2.49082E-09
 -1       736-8.77228E+05-8.99435E+04-6.72761E+04-3.30342E+05-2.24009E-09-7.63976E-11
 -1       737-8.91082E+05-1.71220E+05-4.63992E+04-3.42303E+05-4.43220E-09 1.43245E-10
 -1       738-8.91732E+05-1.12357E+05-1.57356E+04-3.24087E+05-2.56455E-09 8.34007E-10
 -1       739-8.75609E+05-1.43023E+05-9.69097E+03-3.46853E+05-1.51522E-09 6.73595E-10
 -1       740-8.92662E+05-1.18074E+05-3.81873E+03-3.25803E+05 9.90440E-10 3.21859E-09
 -1       741-8.77785E+05-1.32297E+05-1.74797E+03-3.39852E+05 1.85395E-09 4.92496E-09
 -1       742-8.89431E+05-1.23157E+05-1.32798E+03-3.31001E+05-3.51952E-09 5.21524E-10
 -1       743-8.86206E+05-1.22271E+05-2.85742E+02-3.28965E+05 3.24690E-10-1.10406E-09
 -1       744-8.84195E+05-1.28131E+05-1.17978E+03-3.36656E+05 3.20824E-10-2.26976E-10
 -1       745-8.96271E+05-1.14368E+05-1.60543E+03-3.19595E+05-4.00735E-09-1.37123E-09
 -1       746-8.79463E+05-1.30992E+05-3.22365E+03-3.40443E+05-2.74306E-09-8.80891E-09
 -1       747-9.03712E+05-1.14125E+05-8.38287E+03-3.14739E+05 1.46730E-09 3.60797E-09
 -1       748-8.76851E+05-1.28318E+05-1.35395E+04-3.41580E+05-5.24346E-09-2.89219E-10
 -1       749-9.14491E+05-1.39925E+05-3.97397E+04-3.12461E+05 1.76101E-09-1.27329E-11
 -1       750-8.68657E+05-1.05293E+05-5.79237E+04-3.42664E+05-8.48559E-10 9.71340E-10
 -1       751 2.10782E+06-1.16934E+05 2.74613E+05 6.42389E+03-1.07514E-08-5.67525E-10
 -1       752 2.22648E+06 1.35508E+05 1.93643E+05-9.55445E+03-2.47226E-09-1.41517E-09
 -1       753 2.15376E+06-1.81124E+04 7.11660E+04 2.25134E+03-7.11154E-10-1.32059E-09
 -1       754 2.17313E+06 2.09743E+04 4.45675E+04-3.82732E+03 9.23308E-10 1.60071E-10
 -1       755 2.16127E+06-2.79977E+03 1.83338E+04 6.97851E+02-2.89020E-10-2.76486E-10
 -1       756 2.16443E+06 3.28234E+03 1.09218E+04-1.69589E+03 3.98572E-10 1.88390E-09
 -1       757 2.16251E+06-4.74637E+02 5.40908E+03 1.19913E+02 6.18977E-10-1.39312E-09
 -1       758 2.16315E+06 8.51764E+02 4.34182E+03-9.43975E+02 1.04929E-10-1.08930E-09
 -1       759 2.16257E+06-3.75623E+02 4.47194E+03-5.40739E+01-1.53757E-09-4.44174E-10
 -1       760 2.16396E+06 2.42149E+03 8.22348E+03-8.29418E+02-1.87535E-09 2.62980E-09
 -1       761 2.16169E+06-2.03988E+03 1.34560E+04 5.35539E+00 4.08340E-11 3.05590E-10
 -1       762 2.17024E+06 1.52501E+04 3.24479E+04-1.24071E+03 2.02045E-09 1.26784E-09
 -1       763 2.15625E+06-1.31641E+04 5.17385E+04 3.57220E+02 3.34950E-09 2.98314E-10
 -1       764 2.20885E+06 9.84587E+04 1.40675E+05-2.60113E+03 1.48146E-09 1.16415E-09
 -1       765 2.12297E+06-8.49580E+04 1.99492E+05 1.36563E+03-8.18076E-10-3.49246E-10
 -1       766-4.94078E+04 3.32156E+05 1.17473E+05-4.22943E+03 2.23372E-09-3.57886E-10
 -1       767 6.10749E+04 3.84493E+05 8.98100E+04 1.56895E+04 9.45874E-11-5.68413E-10
 -1       768-1.14833E+04 3.49788E+05 4.45034E+04-3.66185E+03 6.27551E-10 3.86642E-11
 -1       769 3.81996E+04 3.73810E+05 5.97628E+04 1.55378E+04 6.69388E-10 8.17913E-10
 -1       770-2.66086E+04 3.42828E+05 6.56254E+04-4.07786E+03 1.10595E-09 2.24986E-09
 -1       771-1.17022E+06-2.37952E+05-4.46598E+04-5.04773E+05 3.05590E-09 5.36238E-09
 -1       772-1.16810E+06-2.35239E+05-2.18215E+04-5.21766E+05-3.76895E-09 3.73620E-09
 -1       773-1.17185E+06-2.20655E+05-9.27877E+03-5.12270E+05-1.10595E-09 1.49339E-09
 -1       774-1.16325E+06-2.29391E+05-4.52434E+03-5.23170E+05 1.49703E-09-5.17048E-10
 -1       775-1.17227E+06-2.19857E+05-2.09462E+03-5.12684E+05-1.13505E-09 2.62844E-10
 -1       776-1.16301E+06-2.29128E+05-1.05477E+03-5.23340E+05-4.79849E-09-6.22435E-09
 -1       777-1.17247E+06-2.19794E+05-5.78241E+02-5.12758E+05-1.00772E-09 1.02295E-09
 -1       778-1.16308E+06-2.29095E+05-4.47807E+02-5.23451E+05-4.32647E-09-5.79558E-09
 -1       779-1.17258E+06-2.19729E+05-5.65347E+02-5.12811E+05-1.09139E-09 1.06547E-09
 -1       780-1.16320E+06-2.29071E+05-1.03143E+03-5.23548E+05-3.05590E-10 2.43631E-10
 -1       781-1.17261E+06-2.19660E+05-2.03747E+03-5.12837E+05 1.42791E-10 4.45652E-10
 -1       782-1.16359E+06-2.29306E+05-4.43100E+03-5.23615E+05 5.50699E-10 1.03728E-09
 -1       783-1.17242E+06-2.20287E+05-9.06817E+03-5.12501E+05-1.46269E-09-1.02045E-09
 -1       784-1.16823E+06-2.35315E+05-2.13939E+04-5.22784E+05-1.76806E-09-1.76624E-09
 -1       785-1.17125E+06-2.36913E+05-4.37454E+04-5.04942E+05-3.71529E-10-1.12777E-10
 -1       786 2.68548E+05-8.19371E+03 3.34803E+04-1.48453E+03 5.81167E-10-1.50794E-09
 -1       787 2.80769E+05 1.08721E+04 2.15821E+04-6.68751E+03-9.55879E-10-3.61433E-09
 -1       788 2.73639E+05-8.66694E+02 8.68335E+03-1.48530E+03 1.19257E-10-1.11368E-09
 -1       789 2.75082E+05 1.10760E+03 4.87690E+03-6.67614E+03-6.19480E-10 4.06885E-10
 -1       790 2.74230E+05-9.53434E+01 2.20946E+03-1.49526E+03 2.44938E-10 2.14015E-09
 -1       791 2.74410E+05 1.11425E+02 1.19235E+03-6.66159E+03 5.18185E-10 2.78936E-09
 -1       792 2.74307E+05-1.20199E+01 6.14667E+02-1.49984E+03 7.63833E-11 4.81236E-10
 -1       793 2.74327E+05 1.55158E+01 4.19299E+02-6.65832E+03 4.39400E-10-1.02914E-09
 -1       794 2.74314E+05-7.16516E+00 4.01997E+02-1.49853E+03-1.85224E-10 1.11753E-09
 -1       795 2.74357E+05 5.37592E+01 6.30275E+02-6.66718E+03 2.25839E-10 2.90232E-09
 -1       796 2.74278E+05-4.69999E+01 1.09473E+03-1.49099E+03 2.63753E-11-4.52076E-10
 -1       797 2.74682E+05 5.34059E+02 2.37281E+03-6.68662E+03-4.72255E-10-1.78284E-09
 -1       798 2.73993E+05-4.20842E+02 4.20686E+03-1.47909E+03-1.16302E-10-1.39153E-09
 -1       799 2.77437E+05 5.25702E+03 1.04449E+04-6.70026E+03-1.19343E-09-1.90721E-09
 -1       800 2.71530E+05-3.96715E+03 1.61971E+04-1.47772E+03-4.84306E-11-1.05047E-09
 -1       801-1.00339E+04 2.77501E+05 3.82655E+04-1.53027E+05 5.14774E-10 4.58385E-10
 -1       802 2.06928E+04 2.90077E+05 3.78985E+04-6.66663E+05 8.08905E-09 1.82445E-09
 -1       803-2.06702E+03 2.79229E+05 3.76552E+04-1.52701E+05 4.42378E-09 2.92744E-09
 -1       804 4.33884E+04 3.03849E+05 7.74778E+04-6.66633E+05 5.28235E-09-2.65663E-09
 -1       805-2.92278E+04 2.64325E+05 1.12530E+05-1.53065E+05 3.95084E-09 1.96451E-10
 -1       806-2.55356E+05-6.66571E+04-2.20267E+04-1.15867E+05 8.92896E-10 2.05546E-10
 -1       807-2.55628E+05-6.10549E+04-1.04628E+04-1.22430E+05 3.32125E-09 2.44370E-09
 -1       808-2.55266E+05-5.55401E+04-4.40158E+03-1.20576E+05 2.56159E-09 5.23073E-09
 -1       809-2.53453E+05-5.71531E+04-2.12886E+03-1.23309E+05-5.18867E-09-5.40939E-09
 -1       810-2.55323E+05-5.47990E+04-9.64176E+02-1.20911E+05-1.08480E-09 1.11800E-09
 -1       811-2.53243E+05-5.69004E+04-4.84807E+02-1.23342E+05 4.57931E-10-1.50544E-09
 -1       812-2.55341E+05-5.47793E+04-2.56629E+02-1.20926E+05 5.44179E-09 9.38780E-09
 -1       813-2.53221E+05-5.68939E+04-1.95024E+02-1.23336E+05 1.37760E-09-2.09980E-09
 -1       814-2.55339E+05-5.47819E+04-2.34461E+02-1.20925E+05 1.49612E-10 3.83807E-10
 -1       815-2.53235E+05-5.69024E+04-4.26028E+02-1.23336E+05-1.02796E-09 8.95852E-10
 -1       816-2.55317E+05-5.48025E+04-8.37570E+02-1.20909E+05-7.03494E-10 7.88987E-10
 -1       817-2.53417E+05-5.71191E+04-1.84504E+03-1.23298E+05 3.64707E-10 1.04683E-09
 -1       818-2.55259E+05-5.54521E+04-3.81252E+03-1.20619E+05 7.75526E-09-2.41789E-09
 -1       819-2.55330E+05-6.04625E+04-9.06039E+03-1.22491E+05 2.22599E-08 1.29307E-08
 -1       820-2.55297E+05-6.51091E+04-1.90733E+04-1.16574E+05 6.98310E-09-1.94018E-09
 -1       821-2.49677E+05 7.88250E+03-3.22206E+04 1.49425E+03-2.19461E-09 2.45382E-09
 -1       822-2.61425E+05-1.04645E+04-2.07705E+04 6.94077E+03-1.51579E-09 1.20963E-09
 -1       823-2.54578E+05 8.31581E+02-8.35944E+03 1.44292E+03 2.89515E-09 3.27418E-11
 -1       824-2.55965E+05-1.05890E+03-4.69660E+03 7.01322E+03-9.89644E-10 1.62436E-09
 -1       825-2.55148E+05 9.20284E+01-2.13637E+03 1.42116E+03-5.22152E-09 1.56717E-09
 -1       826-2.55329E+05-9.59842E+01-1.16693E+03 7.04901E+03-9.89962E-09 8.75502E-10
 -1       827-2.55222E+05 1.41218E+01-6.31601E+02 1.40698E+03-4.57271E-09-5.66160E-10
 -1       828-2.55258E+05-4.41071E+00-4.86161E+02 7.07144E+03-6.00838E-09-8.44167E-10
 -1       829-2.55225E+05 1.30345E+01-5.48109E+02 1.39871E+03-1.00090E-09-7.21368E-10
 -1       830-2.55315E+05-7.07953E+01-9.47311E+02 7.08126E+03 3.94771E-09-7.34246E-10
 -1       831-2.55168E+05 7.55318E+01-1.69940E+03 1.39716E+03-1.30912E-09-1.07457E-09
 -1       832-2.55821E+05-8.29218E+02-3.71739E+03 7.07763E+03 2.27820E-09-1.38243E-09
 -1       833-2.54719E+05 6.61045E+02-6.60661E+03 1.40247E+03 2.17847E-09-1.01636E-09
 -1       834-2.60140E+05-8.25933E+03-1.64131E+04 7.05061E+03 2.35826E-09-1.25033E-09
 -1       835-2.50847E+05 6.23331E+03-2.54573E+04 1.42530E+03 2.62810E-09-2.98496E-09
 -1       836-1.32077E+04 6.70309E+05 5.67900E+04-1.64556E+04-1.04046E-09 2.23235E-09
 -1       837 1.98152E+04 6.91465E+05 4.42538E+04-7.02568E+04 1.22259E-09-3.53157E-09
 -1       838-3.22709E+03 6.77071E+05 3.22842E+04-1.64709E+04-1.33377E-09-6.28077E-10
 -1       839 2.56456E+04 6.94851E+05 5.43456E+04-7.02458E+04 1.15688E-09-8.65157E-11
 -1       840-1.80324E+04 6.66909E+05 7.57646E+04-1.64661E+04-1.29148E-09 2.01908E-09
 -1       841-4.80335E+04-1.81174E+03-1.30467E+04-2.03794E+04-2.57705E-09 3.50155E-10
 -1       842-5.53107E+04-1.32310E+04-9.03017E+03-1.76374E+04-2.77242E-09 1.41154E-09
 -1       843-5.06660E+04-6.47989E+03-3.05879E+03-1.95277E+04 1.97417E-09-4.56453E-10
 -1       844-5.22666E+04-7.81118E+03-1.89873E+03-1.86095E+04 5.73436E-10-1.36649E-09
 -1       845-5.10760E+04-7.21695E+03-7.05016E+02-1.94129E+04-1.41740E-09-1.38874E-09
 -1       846-5.17972E+04-6.94901E+03-3.98553E+02-1.87339E+04-5.71299E-09 8.49312E-11
 -1       847-5.11352E+04-7.33980E+03-1.45580E+02-1.94043E+04-1.28473E-09 5.01529E-10
 -1       848-5.17262E+04-6.79587E+03-4.74059E+01-1.87416E+04 5.42116E-09 1.59069E-10
 -1       849-5.11471E+04-7.36967E+03 3.86428E+01-1.94054E+04 2.85821E-09 9.76101E-10
 -1       850-5.16792E+04-6.71158E+03 1.70561E+02-1.87504E+04-8.89372E-10 1.13080E-09
 -1       851-5.11823E+04-7.42389E+03 3.21555E+02-1.93955E+04-1.46533E-09-5.11378E-10
 -1       852-5.14382E+04-6.32446E+03 8.81980E+02-1.88272E+04 4.48600E-09-2.46473E-10
 -1       853-5.13878E+04-7.75586E+03 1.42264E+03-1.93289E+04 3.07611E-09-4.07510E-10
 -1       854-4.99833E+04-3.83033E+03 4.20771E+03-1.93148E+04-9.69749E-10-8.04448E-10
 -1       855-5.26359E+04-9.91138E+03 6.07630E+03-1.89103E+04-2.25327E-10-4.83396E-10
 -1       856-2.92202E+05 7.16267E+03-2.93086E+04 3.04639E+03-4.04589E-09-1.56433E-10
 -1       857-3.02878E+05-9.49308E+03-1.88870E+04 1.43351E+04-2.27021E-09 2.91948E-10
 -1       858-2.96662E+05 7.57697E+02-7.60375E+03 2.95792E+03-1.52818E-09-6.34827E-10
 -1       859-2.97935E+05-9.31399E+02-4.26797E+03 1.44606E+04 4.22096E-09-3.12298E-10
 -1       860-2.97184E+05 8.97187E+01-1.93886E+03 2.91961E+03 3.71642E-09 1.16870E-10
 -1       861-2.97370E+05-5.01937E+01-1.05135E+03 1.45180E+04-5.78245E-09 1.06900E-09
 -1       862-2.97253E+05 2.10224E+01-5.55525E+02 2.90023E+03 5.18958E-09-1.49953E-09
 -1       863-2.97308E+05 3.63507E+01-4.03474E+02 1.45418E+04 1.47974E-08-1.51869E-09
 -1       864-2.97257E+05 1.87937E+01-4.23602E+02 2.89572E+03 3.52441E-09-1.36063E-09
 -1       865-2.97343E+05-1.19607E+01-7.03657E+02 1.45353E+04 4.48949E-09-1.67129E-09
 -1       866-2.97215E+05 6.20865E+01-1.24796E+03 2.90678E+03-3.23348E-09-1.89885E-10
 -1       867-2.97700E+05-5.71106E+02-2.71803E+03 1.44967E+04 6.98151E-10 3.75167E-10
 -1       868-2.96884E+05 4.85256E+02-4.83075E+03 2.93451E+03 1.65574E-09 2.77851E-10
 -1       869-3.00832E+05-6.00738E+03-1.19906E+04 1.43953E+04-6.78767E-09-1.07616E-09
 -1       870-2.94052E+05 4.54881E+03-1.86061E+04 3.00922E+03 4.57794E-09-3.72893E-10
 -1       871-2.55926E+03-2.39964E+04-4.51332E+03 6.76555E+04 1.42882E-09-1.55069E-10
 -1       872-8.32412E+02-2.47867E+04-1.30021E+03 7.87974E+04-4.05589E-09 9.31323E-10
 -1       873 2.88581E+01-2.45007E+04 1.36179E+03 6.75274E+04 1.44473E-09 9.10404E-10
 -1       874 1.59725E+03-2.34230E+04 5.02926E+03 7.88590E+04-1.66619E-09 4.86523E-10
 -1       875 5.33087E+03-2.54042E+04 1.08685E+04 6.76027E+04 4.86125E-09-1.48043E-09
 -1       876 3.40353E+05 4.21150E+04 3.23398E+04 1.33725E+05 6.17433E-09-1.03137E-09
 -1       877 3.47903E+05 6.80567E+04 2.05487E+04 1.38253E+05 4.07709E-10 3.25713E-09
 -1       878 3.45987E+05 4.98490E+04 7.63744E+03 1.32842E+05 3.12446E-09 9.16316E-10
 -1       879 3.41433E+05 5.81808E+04 4.23510E+03 1.39655E+05 2.21689E-11-2.24793E-09
 -1       880 3.46625E+05 5.07284E+04 1.78498E+03 1.32790E+05 6.43013E-10-2.19597E-09
 -1       881 3.40702E+05 5.70787E+04 9.63259E+02 1.39729E+05-3.79805E-09-2.31955E-09
 -1       882 3.46689E+05 5.08414E+04 5.11167E+02 1.32803E+05 5.23897E-09 2.47985E-09
 -1       883 3.40638E+05 5.69575E+04 4.40561E+02 1.39709E+05-3.71017E-09 2.26459E-09
 -1       884 3.46681E+05 5.08451E+04 5.71611E+02 1.32809E+05 8.48495E-10 3.28998E-09
 -1       885 3.40740E+05 5.70837E+04 1.13070E+03 1.39701E+05 1.54652E-08 3.70983E-09
 -1       886 3.46589E+05 5.07249E+04 2.12312E+03 1.32808E+05 7.49264E-09-4.46539E-09
 -1       887 3.41637E+05 5.83742E+04 5.05138E+03 1.39577E+05-4.38078E-09-6.12670E-09
 -1       888 3.45811E+05 4.96907E+04 9.11713E+03 1.32884E+05-4.25261E-09-9.41327E-11
 -1       889 3.49380E+05 7.01414E+04 2.45300E+04 1.37872E+05 1.09902E-08 1.00363E-09
 -1       890 3.39073E+05 4.04707E+04 3.86102E+04 1.33949E+05 4.60386E-09 3.14685E-10
 -1       891 1.27546E+03-1.50809E+05-5.76349E+03 1.42140E+04 1.88038E-09-8.50378E-10
 -1       892-2.12099E+03-1.52878E+05-4.68191E+03 6.18007E+04 1.39732E-09-3.08410E-09
 -1       893 3.60293E+02-1.51457E+05-3.73993E+03 1.41442E+04-4.82373E-10-1.86202E-09
 -1       894-3.31259E+03-1.53564E+05-6.74036E+03 6.17948E+04-2.30966E-09-4.35921E-09
 -1       895 2.25790E+03-1.50114E+05-9.63323E+03 1.42196E+04 6.64841E-10-9.02673E-10
 -1       896 5.98658E+05-4.56230E+03 1.06704E+04 1.45171E+03-1.72548E-10 1.69302E-09
 -1       897 6.03361E+05 5.28147E+03 7.55683E+03-3.92522E+03-8.87326E-11 5.45811E-10
 -1       898 6.00482E+05-7.06136E+02 2.77316E+03 7.44320E+02-5.78524E-11 1.05274E-10
 -1       899 6.01230E+05 8.18149E+02 1.75653E+03-2.83688E+03-2.79556E-10-4.89081E-10
 -1       900 6.00786E+05-1.10101E+02 7.48254E+02 3.63363E+02 1.76890E-10-7.26516E-10
 -1       901 6.00877E+05 1.37765E+02 5.02731E+02-2.30568E+03 7.09717E-10-1.02213E-09
 -1       902 6.00833E+05-2.65693E+01 3.56141E+02 2.13113E+02-1.85269E-10-9.59812E-10
 -1       903 6.00856E+05 9.67607E+01 4.88743E+02-2.19868E+03-7.50318E-10-1.01279E-09
 -1       904 6.00806E+05-6.90324E+01 7.55976E+02 2.56363E+02-3.70076E-10-1.04836E-09
 -1       905 6.01084E+05 5.06548E+02 1.65617E+03-2.48951E+03 1.81402E-10-8.26731E-10
 -1       906 6.00605E+05-4.35896E+02 2.83085E+03 5.03947E+02 2.54389E-10-7.44649E-10
 -1       907 6.02475E+05 3.27044E+03 6.93844E+03-3.25020E+03 3.58661E-10 3.71756E-11
 -1       908 5.99416E+05-2.82656E+03 1.10739E+04 1.01707E+03-4.84590E-11 6.81212E-10
 -1       909 6.10868E+05 2.11436E+04 3.02051E+04-4.68265E+03-6.22663E-10 1.24237E-09
 -1       910 5.92214E+05-1.82548E+04 4.27633E+04 1.93634E+03 1.25624E-10 2.42107E-09
 -1       911 1.74040E+05-2.20871E+03 5.09217E+03 1.47061E+03 9.77025E-10 2.23213E-09
 -1       912 1.76683E+05 2.54730E+03 3.67683E+03-5.44042E+03-9.44880E-11-9.92486E-11
 -1       913 1.74998E+05-3.42314E+02 1.32369E+03 1.09294E+03 1.56092E-10-6.07713E-10
 -1       914 1.75519E+05 3.96690E+02 8.72706E+02-4.82866E+03-1.27372E-10-2.04113E-09
 -1       915 1.75189E+05-5.43945E+01 3.79594E+02 8.58833E+02 7.61148E-10-2.39694E-09
 -1       916 1.75282E+05 7.73530E+01 2.97131E+02-4.48730E+03 1.74737E-09-2.84071E-09
 -1       917 1.75227E+05-1.85997E+01 2.69047E+02 7.51580E+02 1.29258E-09-3.24006E-09
 -1       918 1.75274E+05 9.45950E+01 4.49878E+02-4.39196E+03 4.97353E-10-3.08798E-09
 -1       919 1.75194E+05-7.02258E+01 7.53959E+02 7.63491E+02 1.14684E-09-2.75315E-09
 -1       920 1.75537E+05 5.25226E+02 1.69749E+03-4.53586E+03 1.31264E-09-2.63492E-09
 -1       921 1.74967E+05-4.50243E+02 2.90636E+03 8.95488E+02 5.02325E-10-2.60741E-09
 -1       922 1.77033E+05 3.37491E+03 7.16276E+03-4.93052E+03 8.95838E-10-1.08332E-09
 -1       923 1.73706E+05-2.91752E+03 1.13989E+04 1.15816E+03 2.89077E-10-5.96629E-10
 -1       924 1.85781E+05 2.18077E+04 3.11687E+04-5.62287E+03-5.93616E-10 1.03319E-09
 -1       925 1.66237E+05-1.88335E+04 4.40582E+04 1.58776E+03 5.25404E-10 2.71029E-09
 -1       926-7.61244E+05 1.68481E+04-3.94831E+04-2.20601E+03 2.06056E-09 4.40923E-09
 -1       927-7.78203E+05-1.95173E+04-2.78454E+04 2.75960E+03-2.41787E-09 4.72801E-09
 -1       928-7.67853E+05 2.60635E+03-1.02197E+04-1.61575E+03 5.72300E-10 3.76485E-09
 -1       929-7.70484E+05-3.01711E+03-6.36368E+03 1.22601E+03 2.20942E-09 1.71292E-09
 -1       930-7.68949E+05 3.98352E+02-2.59473E+03-6.72454E+02-6.21895E-10 2.11492E-09
 -1       931-7.69206E+05-4.59531E+02-1.44975E+03-7.50205E+02-8.25267E-10 1.15574E-09
 -1       932-7.69126E+05 5.53216E+01-5.99067E+02 3.60489E+02-4.17884E-10 1.20821E-10
 -1       933-7.69014E+05-4.11300E+01-2.04128E+02-2.60937E+03-8.42846E-10-5.93694E-10
 -1       934-7.69144E+05-1.64471E+01 9.41073E+01 1.18674E+03-7.09164E-10-1.00715E-09
 -1       935-7.68942E+05 1.78150E+02 5.16620E+02-3.81670E+03-5.30036E-10-2.21168E-09
 -1       936-7.69203E+05-1.59887E+02 9.98850E+02 1.56784E+03 6.44320E-11-1.61009E-09
 -1       937-7.68443E+05 1.21000E+03 2.53338E+03-4.02326E+03-5.00805E-10-2.31313E-09
 -1       938-7.69642E+05-1.04441E+03 4.07265E+03 1.39330E+03-5.78211E-10-2.29488E-09
 -1       939-7.65336E+05 7.81020E+03 1.11386E+04-3.17093E+03-6.48377E-10-1.17188E-09
 -1       940-7.72300E+05-6.74105E+03 1.57760E+04 7.15493E+02-3.98700E-10-1.36424E-11
 -1       941 3.32512E+06-1.63759E+05 3.85059E+05 2.06622E+02 1.20817E-08 4.08909E-09
 -1       942 3.49072E+06 1.89817E+05 2.71337E+05 1.27517E+03 1.19385E-08-3.09956E-09
 -1       943 3.38928E+06-2.53772E+04 9.98203E+04 5.36201E+02 3.76954E-09 4.83851E-10
 -1       944 3.41633E+06 2.93937E+04 6.25120E+04 8.46885E+02 3.00659E-09-1.19326E-09
 -1       945 3.39980E+06-3.92527E+03 2.57618E+04 6.34979E+02 4.76699E-09 3.15686E-09
 -1       946 3.40419E+06 4.61000E+03 1.53987E+04 7.12002E+02 4.04377E-10 6.23822E-09
 -1       947 3.40153E+06-6.72882E+02 7.73009E+03 6.71120E+02 1.93529E-09 4.30282E-09
 -1       948 3.40244E+06 1.25143E+03 6.39099E+03 6.42221E+02-1.06479E-09 1.82837E-09
 -1       949 3.40158E+06-5.76047E+02 6.81458E+03 7.04768E+02-4.54177E-10-3.92879E-09
 -1       950 3.40374E+06 3.76861E+03 1.27642E+04 5.20802E+02 7.97484E-09 4.99540E-09
 -1       951 3.40021E+06-3.18294E+03 2.09982E+04 7.92536E+02 2.51622E-09-4.87398E-09
 -1       952 3.41354E+06 2.38054E+04 5.06891E+04 1.41757E+02-4.05205E-09-3.57977E-09
 -1       953 3.39169E+06-2.05491E+04 8.08548E+04 1.08378E+03-4.28672E-09 8.58563E-10
 -1       954 3.47378E+06 1.53699E+05 2.19718E+05-1.16165E+03-5.51157E-10-1.30967E-09
 -1       955 3.33970E+06-1.32607E+05 3.11697E+05 2.09555E+03-9.40672E-09-7.27596E-10
 -1       956-1.80807E+05-3.06516E+03-6.28012E+03 2.61352E+04-2.85308E-09 1.02500E-09
 -1       957-1.81943E+05-9.62836E+02-3.16230E+03 3.02020E+04-1.35697E-09 1.59139E-09
 -1       958-1.81322E+05-1.09338E+02-1.42201E+03 2.59757E+04 1.91449E-09-1.50385E-09
 -1       959-1.81432E+05-1.36210E+00-7.22593E+02 3.03768E+04-2.81534E-09 3.37650E-10
 -1       960-1.81387E+05 4.13180E+01-3.50802E+02 2.59589E+04-6.64659E-09 1.44610E-10
 -1       961-1.81401E+05 5.05839E+01-1.84764E+02 3.03956E+04-1.15754E-08-2.27374E-11
 -1       962-1.81407E+05 4.73898E+01-1.04002E+02 2.59567E+04-5.81349E-09-3.43857E-09
 -1       963-1.81408E+05 5.66725E+01-7.99446E+01 3.03985E+04-7.98832E-09 1.05911E-09
 -1       964-1.81415E+05 5.21090E+01-9.30325E+01 2.59559E+04-9.83232E-09-2.20780E-09
 -1       965-1.81419E+05 6.08080E+01-1.57397E+02 3.03985E+04-1.07029E-08 4.04725E-11
 -1       966-1.81413E+05 5.57939E+01-2.93801E+02 2.59567E+04-9.59277E-09 2.30102E-10
 -1       967-1.81461E+05 2.62206E+01-6.04266E+02 3.03900E+04-1.41489E-09 1.45519E-09
 -1       968-1.81372E+05-6.19278E+01-1.18730E+03 2.59646E+04-8.69704E-10-1.58013E-09
 -1       969-1.81903E+05-7.70067E+02-2.64259E+03 3.03072E+04-1.77374E-09 9.75660E-10
 -1       970-1.80952E+05-2.52769E+03-5.24667E+03 2.60421E+04 2.46928E-09-1.30058E-09
 -1       971-3.95936E+05 6.01420E+03-2.46280E+04 2.96195E+03-6.32417E-09 3.97449E-09
 -1       972-4.04884E+05-7.97436E+03-1.58696E+04 1.42496E+04-4.46903E-09 4.27826E-09
 -1       973-3.99684E+05 6.34942E+02-6.39356E+03 2.85007E+03-4.52019E-09 1.54250E-09
 -1       974-4.00739E+05-7.78200E+02-3.59364E+03 1.44148E+04 4.14730E-10 2.99315E-09
 -1       975-4.00122E+05 7.53918E+01-1.64610E+03 2.79575E+03 1.34310E-09 1.35879E-09
 -1       976-4.00271E+05-3.60061E+01-9.17167E+02 1.44987E+04-3.67868E-09 6.38215E-09
 -1       977-4.00180E+05 1.94157E+01-5.33895E+02 2.76599E+03 4.65718E-09 1.11777E-09
 -1       978-4.00229E+05 3.32596E+01-4.77556E+02 1.45378E+04 1.45910E-08 1.99262E-09
 -1       979-4.00178E+05 2.29175E+01-6.25114E+02 2.75653E+03 6.15197E-09 1.06364E-09
 -1       980-4.00305E+05-5.64201E+01-1.16015E+03 1.45359E+04 9.83741E-09 4.27632E-09
 -1       981-4.00104E+05 1.00486E+02-2.12563E+03 2.76798E+03 5.66502E-10 2.92158E-09
 -1       982-4.00933E+05-1.01728E+03-4.67567E+03 1.44912E+04-4.33556E-09 4.45129E-09
 -1       983-3.99535E+05 8.34688E+02-8.32367E+03 2.80144E+03-2.27374E-11 5.75255E-10
 -1       984-4.06357E+05-1.03889E+04-2.06817E+04 1.43764E+04-5.28007E-09 1.48680E-09
 -1       985-3.94654E+05 7.85189E+03-3.20868E+04 2.88465E+03 5.64569E-09 7.00311E-10
 -3
    1PSTEP                        19          10           1          
  100CL  110 5.32837E-01         841                     0   10           1
 -4  DISP        4    1
 -5  D1          1    2    1    0
 -5  D2          1    2    2    0
 -5  D3          1    2    3    0
 -5  ALL         1    2    0    0    1ALL
 -1         1 6.48717E-05 0.00000E+00 0.00000E+00
 -1         2 4.89854E-05 0.00000E+00 0.00000E+00
 -1         3 4.04757E-05 0.00000E+00 0.00000E+00
 -1         4 3.60948E-05 0.00000E+00 0.00000E+00
 -1         5 3.42032E-05 0.00000E+00 0.00000E+00
 -1         8 5.08107E-05-6.41423E-07 0.00000E+00
 -1         9 4.03833E-05 5.67507E-07 0.00000E+00
 -1        10 3.73530E-05-1.82583E-06 0.00000E+00
 -1        11 3.50981E-05-3.70515E-07 0.00000E+00
 -1        12 3.27531E-05 9.17693E-07 0.00000E+00
 -1        15 2.27660E-05-1.19161E-06 0.00000E+00
 -1        16 2.90989E-05 5.70974E-07 0.00000E+00
 -1        17 2.68317E-05-3.64991E-06 0.00000E+00
 -1        18 2.74107E-05-7.52737E-07 0.00000E+00
 -1        19 2.89677E-05 1.81421E-06 0.00000E+00
 -1        20 2.94281E-05 1.91799E-05 0.00000E+00
 -1        21 2.94111E-05 4.59545E-05 0.00000E+00
 -1        22 7.19651E-06-7.87505E-07 0.00000E+00
 -1        23 9.65179E-06 9.67178E-07 0.00000E+00
 -1        24 1.09919E-05-4.24722E-06 0.00000E+00
 -1        25 2.36148E-05-5.36055E-07 0.00000E+00
 -1        26 2.52173E-05 2.40101E-06 0.00000E+00
 -1        27 2.37172E-05 1.85104E-05 0.00000E+00
 -1        28 2.19499E-05 4.53216E-05 0.00000E+00
 -1        29 0.00000E+00 0.00000E+00 0.00000E+00
 -1        30 3.46952E-06 1.28328E-06 0.00000E+00
 -1        31 4.43737E-06-3.53607E-06 0.00000E+00
 -1        32 0.00000E+00 0.00000E+00 0.00000E+00
 -1        33 1.98816E-05 3.87029E-06 0.00000E+00
 -1        34 1.88034E-05 1.84518E-05 0.00000E+00
 -1        35 1.64273E-05 4.49861E-05 0.00000E+00
 -1        36 6.39100E-05-1.10068E-19-1.32349E-23
 -1        37 6.29171E-05-3.14867E-19 0.00000E+00
 -1        38 6.19262E-05-5.28060E-19 2.64698E-23
 -1        39 6.09295E-05-6.48556E-19 1.32349E-23
 -1        40 5.99325E-05-6.95581E-19 0.00000E+00
 -1        41 5.89344E-05-6.42312E-19 0.00000E+00
 -1        42 5.79361E-05-4.94441E-19 0.00000E+00
 -1        43 5.69376E-05-2.06541E-19-1.32349E-23
 -1        44 5.59391E-05 5.74907E-20-2.64698E-23
 -1        45 5.49407E-05 2.85316E-19 0.00000E+00
 -1        46 5.39424E-05 3.96713E-19-2.64698E-23
 -1        47 5.29449E-05 4.32529E-19 1.32349E-23
 -1        48 5.19474E-05 3.74154E-19 0.00000E+00
 -1        49 5.09540E-05 2.60350E-19 0.00000E+00
 -1        50 4.99592E-05 1.14849E-19 0.00000E+00
 -1        51 6.38194E-05-1.09335E-07 0.00000E+00
 -1        52 6.20649E-05-2.13544E-07 0.00000E+00
 -1        53 5.97441E-05-3.17075E-07 0.00000E+00
 -1        54 5.69994E-05-4.21420E-07 0.00000E+00
 -1        55 5.39737E-05-5.27927E-07 3.30872E-24
 -1        56 6.36063E-05-5.36209E-07-2.64698E-23
 -1        57 6.23280E-05-1.17785E-06 0.00000E+00
 -1        58 6.10692E-05-1.86414E-06 0.00000E+00
 -1        59 5.98033E-05-2.55498E-06 2.64698E-23
 -1        60 5.85211E-05-3.20341E-06-5.29396E-23
 -1        61 5.72054E-05-3.76694E-06 0.00000E+00
 -1        62 5.58433E-05-4.20684E-06-5.29396E-23
 -1        63 5.44214E-05-4.48845E-06 0.00000E+00
 -1        64 5.29302E-05-4.58515E-06 5.29396E-23
 -1        65 5.13618E-05-4.47566E-06 2.64698E-23
 -1        66 4.97122E-05-4.14950E-06 0.00000E+00
 -1        67 4.79808E-05-3.60201E-06 0.00000E+00
 -1        68 4.61694E-05-2.84079E-06-2.64698E-23
 -1        69 4.42903E-05-1.87651E-06-1.32349E-23
 -1        70 4.23421E-05-7.36702E-07 2.64698E-23
 -1        71 4.84549E-05 1.70135E-20-1.32349E-23
 -1        72 4.79223E-05 1.02174E-19 6.61744E-24
 -1        73 4.73898E-05 2.84185E-19-1.32349E-23
 -1        74 4.68569E-05 4.40746E-19-6.61744E-24
 -1        75 4.63240E-05 5.15184E-19-1.32349E-23
 -1        76 4.57910E-05 5.49834E-19 6.61744E-24
 -1        77 4.52580E-05 5.98916E-19-1.32349E-23
 -1        78 4.47250E-05 6.51835E-19 6.61744E-24
 -1        79 4.41920E-05 5.60838E-19 1.32349E-23
 -1        80 4.36591E-05 4.49943E-19-6.61744E-24
 -1        81 4.31262E-05 3.00503E-19-1.32349E-23
 -1        82 4.25937E-05 1.17602E-19 6.61744E-24
 -1        83 4.20612E-05-8.08983E-21-1.32349E-23
 -1        84 4.15302E-05-1.88080E-20-6.61744E-24
 -1        85 4.09988E-05-9.04605E-21-1.32349E-23
 -1        86 4.86316E-05 7.85344E-08-6.61744E-24
 -1        87 4.75894E-05 1.79687E-07-8.27181E-25
 -1        88 4.60557E-05 2.78659E-07 0.00000E+00
 -1        89 4.42250E-05 3.78868E-07 2.06795E-25
 -1        90 4.22751E-05 4.79970E-07 0.00000E+00
 -1        91 5.03701E-05-5.25037E-06 0.00000E+00
 -1        92 5.54115E-05-2.05470E-05 0.00000E+00
 -1        93 6.30187E-05-4.30645E-05 0.00000E+00
 -1        94 7.20990E-05-6.98092E-05 0.00000E+00
 -1        95 8.12022E-05-9.66203E-05 1.32349E-23
 -1        96 8.88784E-05-1.19334E-04 6.61744E-24
 -1        97 9.40237E-05-1.34921E-04 0.00000E+00
 -1        98 9.55354E-05-1.40516E-04-6.61744E-24
 -1        99 9.32502E-05-1.35976E-04-1.32349E-23
 -1       100 8.70815E-05-1.21369E-04 6.61744E-24
 -1       101 7.80352E-05-9.94733E-05 0.00000E+00
 -1       102 6.72282E-05-7.31963E-05 6.61744E-24
 -1       103 5.63015E-05-4.66234E-05 1.32349E-23
 -1       104 4.69037E-05-2.38430E-05 0.00000E+00
 -1       105 4.02238E-05-7.92816E-06 0.00000E+00
 -1       106 4.01990E-05 1.62113E-20 0.00000E+00
 -1       107 3.99245E-05 4.02862E-20 3.30872E-24
 -1       108 3.96499E-05 7.30944E-20-6.61744E-24
 -1       109 3.93757E-05 1.11896E-19-3.30872E-24
 -1       110 3.91015E-05 8.22437E-20 0.00000E+00
 -1       111 3.88273E-05 4.59317E-20-3.30872E-24
 -1       112 3.85532E-05 9.47513E-20 0.00000E+00
 -1       113 3.82791E-05 1.30464E-19 0.00000E+00
 -1       114 3.80050E-05 1.23090E-19 0.00000E+00
 -1       115 3.77310E-05 1.11167E-19 0.00000E+00
 -1       116 3.74570E-05 8.21128E-20 0.00000E+00
 -1       117 3.71831E-05 6.36925E-20 0.00000E+00
 -1       118 3.69093E-05 5.26955E-20-6.61744E-24
 -1       119 3.66364E-05 8.21787E-20 0.00000E+00
 -1       120 3.63632E-05 3.82025E-20 6.61744E-24
 -1       121 4.04310E-05-3.04910E-07 0.00000E+00
 -1       122 4.02528E-05-6.08884E-07 3.30872E-24
 -1       123 3.98980E-05-9.12933E-07 6.61744E-24
 -1       124 3.93242E-05-1.21697E-06 0.00000E+00
 -1       125 3.84895E-05-1.52116E-06 0.00000E+00
 -1       126 4.02026E-05-1.95791E-07 0.00000E+00
 -1       127 3.99910E-05-5.52745E-07 0.00000E+00
 -1       128 3.98238E-05-1.02817E-06 0.00000E+00
 -1       129 3.96844E-05-1.57742E-06 0.00000E+00
 -1       130 3.95511E-05-2.14296E-06 0.00000E+00
 -1       131 3.94023E-05-2.66699E-06-3.30872E-24
 -1       132 3.92192E-05-3.09945E-06 0.00000E+00
 -1       133 3.89835E-05-3.39144E-06 0.00000E+00
 -1       134 3.86857E-05-3.51786E-06 0.00000E+00
 -1       135 3.83173E-05-3.45573E-06-3.30872E-24
 -1       136 3.78815E-05-3.21434E-06 0.00000E+00
 -1       137 3.73830E-05-2.80515E-06 0.00000E+00
 -1       138 3.68367E-05-2.26860E-06 0.00000E+00
 -1       139 3.62593E-05-1.64628E-06-3.30872E-24
 -1       140 3.56706E-05-9.95331E-07 6.61744E-24
 -1       141 3.59739E-05-4.04437E-20-3.30872E-24
 -1       142 3.58543E-05-1.02241E-19-1.65436E-24
 -1       143 3.57347E-05-1.61044E-19-3.30872E-24
 -1       144 3.56154E-05-1.92182E-19 0.00000E+00
 -1       145 3.54960E-05-2.34453E-19 0.00000E+00
 -1       146 3.53767E-05-2.54176E-19 1.65436E-24
 -1       147 3.52575E-05-2.35586E-19 3.30872E-24
 -1       148 3.51383E-05-2.13773E-19 1.65436E-24
 -1       149 3.50190E-05-1.94796E-19 0.00000E+00
 -1       150 3.48999E-05-1.69800E-19 0.00000E+00
 -1       151 3.47808E-05-1.37930E-19 3.30872E-24
 -1       152 3.46622E-05-1.30125E-19-1.65436E-24
 -1       153 3.45436E-05-9.45465E-20 0.00000E+00
 -1       154 3.44270E-05-5.90075E-20 0.00000E+00
 -1       155 3.43098E-05-3.65067E-20 0.00000E+00
 -1       156 3.61103E-05-6.39437E-08-3.30872E-24
 -1       157 3.61502E-05-1.24208E-07 1.65436E-24
 -1       158 3.61408E-05-1.84749E-07 3.30872E-24
 -1       159 3.60087E-05-2.45398E-07 0.00000E+00
 -1       160 3.56842E-05-3.05787E-07 0.00000E+00
 -1       161 3.59359E-05-7.82678E-08 6.61744E-24
 -1       162 3.57884E-05-1.88500E-07 0.00000E+00
 -1       163 3.56481E-05-3.17659E-07 0.00000E+00
 -1       164 3.55099E-05-4.52776E-07 0.00000E+00
 -1       165 3.53688E-05-5.80092E-07 6.61744E-24
 -1       166 3.52196E-05-6.85946E-07 3.30872E-24
 -1       167 3.50581E-05-7.58986E-07 6.61744E-24
 -1       168 3.48802E-05-7.88086E-07 0.00000E+00
 -1       169 3.46831E-05-7.66254E-07-6.61744E-24
 -1       170 3.44646E-05-6.86812E-07 3.30872E-24
 -1       171 3.42241E-05-5.48673E-07-6.61744E-24
 -1       172 3.39617E-05-3.50990E-07 0.00000E+00
 -1       173 3.36789E-05-9.88959E-08 3.30872E-24
 -1       174 3.33800E-05 2.03113E-07-1.65436E-24
 -1       175 3.30656E-05 5.43752E-07 4.13590E-25
 -1       191 3.41513E-05 1.52780E-07 6.61744E-24
 -1       192 3.40206E-05 3.05878E-07 0.00000E+00
 -1       193 3.38128E-05 4.59039E-07 6.61744E-24
 -1       194 3.35304E-05 6.12167E-07 6.61744E-24
 -1       195 3.31761E-05 7.65163E-07 0.00000E+00
 -1       251 5.02399E-05 5.24446E-06-1.32349E-23
 -1       252 4.95985E-05 1.77401E-05 0.00000E+00
 -1       253 4.88978E-05 3.46267E-05-1.32349E-23
 -1       254 4.81592E-05 5.35825E-05 0.00000E+00
 -1       255 4.74344E-05 7.17275E-05-1.32349E-23
 -1       256 4.67667E-05 8.62006E-05 0.00000E+00
 -1       257 4.61593E-05 9.51333E-05 0.00000E+00
 -1       258 4.55890E-05 9.67853E-05 6.61744E-24
 -1       259 4.50063E-05 9.13793E-05-1.32349E-23
 -1       260 4.43675E-05 7.93022E-05-6.61744E-24
 -1       261 4.36692E-05 6.27408E-05 0.00000E+00
 -1       262 4.29340E-05 4.39848E-05 0.00000E+00
 -1       263 4.22107E-05 2.59184E-05 0.00000E+00
 -1       264 4.15455E-05 1.14096E-05-6.61744E-24
 -1       265 4.09394E-05 2.36591E-06 0.00000E+00
 -1       266 4.81946E-05-7.31295E-07 0.00000E+00
 -1       267 4.53563E-05-8.14315E-07 1.65436E-24
 -1       268 4.18345E-05-8.99921E-07 0.00000E+00
 -1       269 3.71701E-05-9.88082E-07 0.00000E+00
 -1       270 3.09501E-05-1.08461E-06 0.00000E+00
 -1       271 4.88503E-05 1.15179E-06 0.00000E+00
 -1       272 4.70642E-05 2.36580E-06 0.00000E+00
 -1       273 4.54698E-05 3.07404E-06 0.00000E+00
 -1       274 4.40354E-05 3.33929E-06 0.00000E+00
 -1       275 4.27394E-05 3.23421E-06 0.00000E+00
 -1       276 4.15530E-05 2.83410E-06-1.32349E-23
 -1       277 4.04473E-05 2.21834E-06-2.64698E-23
 -1       278 3.93914E-05 1.46882E-06 0.00000E+00
 -1       279 3.83544E-05 6.69102E-07 2.64698E-23
 -1       280 3.73048E-05-9.65811E-08 0.00000E+00
 -1       281 3.62113E-05-7.44516E-07 2.64698E-23
 -1       282 3.50438E-05-1.19228E-06 1.32349E-23
 -1       283 3.37719E-05-1.36024E-06 0.00000E+00
 -1       284 3.23720E-05-1.17040E-06 0.00000E+00
 -1       285 3.08101E-05-5.53357E-07 0.00000E+00
 -1       286 4.01905E-05 2.17089E-06 0.00000E+00
 -1       287 4.00012E-05 3.27033E-06 3.30872E-24
 -1       288 3.98122E-05 3.87255E-06 0.00000E+00
 -1       289 3.96239E-05 3.98810E-06-3.30872E-24
 -1       290 3.94355E-05 3.67385E-06 6.61744E-24
 -1       291 3.92471E-05 2.98999E-06 3.30872E-24
 -1       292 3.90585E-05 2.03188E-06 0.00000E+00
 -1       293 3.88697E-05 8.96961E-07 0.00000E+00
 -1       294 3.86808E-05-3.00477E-07 0.00000E+00
 -1       295 3.84920E-05-1.44566E-06-3.30872E-24
 -1       296 3.83033E-05-2.42881E-06 0.00000E+00
 -1       297 3.81146E-05-3.14138E-06 0.00000E+00
 -1       298 3.79261E-05-3.50057E-06-6.61744E-24
 -1       299 3.77367E-05-3.42630E-06 3.30872E-24
 -1       300 3.75475E-05-2.87978E-06 6.61744E-24
 -1       301 3.85015E-05 5.60557E-07 0.00000E+00
 -1       302 3.66113E-05 5.64992E-07 0.00000E+00
 -1       303 3.47192E-05 5.71455E-07 0.00000E+00
 -1       304 3.28319E-05 5.77643E-07 0.00000E+00
 -1       305 3.09563E-05 5.81202E-07 0.00000E+00
 -1       306 3.90017E-05 1.79738E-06 0.00000E+00
 -1       307 3.78133E-05 2.44011E-06 1.32349E-23
 -1       308 3.68157E-05 2.57720E-06-2.64698E-23
 -1       309 3.59754E-05 2.28419E-06 1.32349E-23
 -1       310 3.52651E-05 1.64310E-06 0.00000E+00
 -1       311 3.46530E-05 7.37877E-07-1.32349E-23
 -1       312 3.41073E-05-3.44940E-07 2.64698E-23
 -1       313 3.35950E-05-1.51740E-06 1.32349E-23
 -1       314 3.30830E-05-2.69065E-06 0.00000E+00
 -1       315 3.25382E-05-3.77586E-06 1.32349E-23
 -1       316 3.19276E-05-4.68508E-06 0.00000E+00
 -1       317 3.12196E-05-5.33171E-06-1.32349E-23
 -1       318 3.03822E-05-5.63180E-06 0.00000E+00
 -1       319 2.93886E-05-5.50305E-06 0.00000E+00
 -1       320 2.82046E-05-4.87010E-06 1.32349E-23
 -1       321 3.72043E-05-6.63273E-07-6.61744E-24
 -1       322 3.70627E-05 2.08105E-07-3.30872E-24
 -1       323 3.69209E-05 7.98124E-07-6.61744E-24
 -1       324 3.67805E-05 1.11822E-06 0.00000E+00
 -1       325 3.66402E-05 1.19911E-06 0.00000E+00
 -1       326 3.65002E-05 1.07286E-06-1.65436E-24
 -1       327 3.63601E-05 7.86311E-07 0.00000E+00
 -1       328 3.62201E-05 3.87244E-07-1.65436E-24
 -1       329 3.60800E-05-6.85485E-08-3.30872E-24
 -1       330 3.59400E-05-5.24955E-07 0.00000E+00
 -1       331 3.58000E-05-9.25811E-07 0.00000E+00
 -1       332 3.56600E-05-1.21527E-06 1.65436E-24
 -1       333 3.55200E-05-1.34543E-06-3.30872E-24
 -1       334 3.53797E-05-1.26932E-06 0.00000E+00
 -1       335 3.52396E-05-9.54648E-07-3.30872E-24
 -1       336 3.59163E-05-2.13115E-06 0.00000E+00
 -1       337 3.42782E-05-2.43635E-06 3.30872E-24
 -1       338 3.24943E-05-2.74166E-06 6.61744E-24
 -1       339 3.06209E-05-3.04621E-06 0.00000E+00
 -1       340 2.87145E-05-3.35092E-06 0.00000E+00
 -1       341 3.55629E-05 1.46289E-06 0.00000E+00
 -1       342 3.21408E-05 9.01194E-06-6.61744E-24
 -1       343 2.75948E-05 1.94822E-05 1.32349E-23
 -1       344 2.24573E-05 3.14754E-05-6.61744E-24
 -1       345 1.74285E-05 4.31879E-05 0.00000E+00
 -1       346 1.32042E-05 5.28208E-05 0.00000E+00
 -1       347 1.02548E-05 5.91309E-05 1.32349E-23
 -1       348 9.01493E-06 6.09385E-05-6.61744E-24
 -1       349 9.45243E-06 5.82701E-05 0.00000E+00
 -1       350 1.15022E-05 5.12435E-05-6.61744E-24
 -1       351 1.46752E-05 4.11492E-05 1.32349E-23
 -1       352 1.84705E-05 2.93441E-05 0.00000E+00
 -1       353 2.22266E-05 1.76474E-05-1.32349E-23
 -1       354 2.52863E-05 7.87809E-06 6.61744E-24
 -1       355 2.71627E-05 1.33266E-06 0.00000E+00
 -1       356 3.49492E-05 2.71508E-07 0.00000E+00
 -1       357 3.48012E-05 7.57898E-07 1.65436E-24
 -1       358 3.46532E-05 1.09368E-06-3.30872E-24
 -1       359 3.45054E-05 1.28477E-06 1.65436E-24
 -1       360 3.43576E-05 1.34798E-06 0.00000E+00
 -1       361 3.42098E-05 1.30090E-06 0.00000E+00
 -1       362 3.40621E-05 1.16940E-06 0.00000E+00
 -1       363 3.39143E-05 9.79862E-07 0.00000E+00
 -1       364 3.37666E-05 7.63042E-07 3.30872E-24
 -1       365 3.36190E-05 5.49856E-07 1.65436E-24
 -1       366 3.34714E-05 3.70949E-07 0.00000E+00
 -1       367 3.33243E-05 2.56752E-07 0.00000E+00
 -1       368 3.31773E-05 2.32840E-07 0.00000E+00
 -1       369 3.30325E-05 3.24238E-07 8.27181E-25
 -1       370 3.28869E-05 5.47332E-07-1.03398E-25
 -1       371 3.41197E-05-4.38696E-07 0.00000E+00
 -1       372 3.26485E-05-5.03022E-07 0.00000E+00
 -1       373 3.09634E-05-5.67898E-07 0.00000E+00
 -1       374 2.93439E-05-6.31159E-07 0.00000E+00
 -1       375 2.80675E-05-6.94153E-07-8.27181E-25
 -1       376 3.45609E-05 1.87850E-07 0.00000E+00
 -1       377 3.40596E-05 6.35295E-07 3.30872E-24
 -1       378 3.36044E-05 9.60869E-07 6.61744E-24
 -1       379 3.31984E-05 1.15258E-06 0.00000E+00
 -1       380 3.28385E-05 1.22148E-06 6.61744E-24
 -1       381 3.25199E-05 1.17970E-06 0.00000E+00
 -1       382 3.22313E-05 1.05797E-06 0.00000E+00
 -1       383 3.19608E-05 8.87946E-07 3.30872E-24
 -1       384 3.16934E-05 7.09516E-07 6.61744E-24
 -1       385 3.14143E-05 5.62699E-07 3.30872E-24
 -1       386 3.11106E-05 4.81686E-07 0.00000E+00
 -1       387 3.07702E-05 5.00053E-07 0.00000E+00
 -1       388 3.03861E-05 6.34843E-07 0.00000E+00
 -1       389 2.99552E-05 9.02906E-07 0.00000E+00
 -1       390 2.94759E-05 1.29657E-06 0.00000E+00
 -1       406 3.22353E-05 1.06789E-06-6.61744E-24
 -1       407 3.16605E-05 1.21834E-06 0.00000E+00
 -1       408 3.10373E-05 1.36871E-06-6.61744E-24
 -1       409 3.03746E-05 1.51872E-06-3.30872E-24
 -1       410 2.96816E-05 1.66791E-06 0.00000E+00
 -1       466 2.31221E-05 6.42837E-06 0.00000E+00
 -1       467 2.35128E-05 1.10151E-05-3.30872E-24
 -1       468 2.39103E-05 1.33475E-05-1.32349E-23
 -1       469 2.43131E-05 1.41664E-05 0.00000E+00
 -1       470 2.47165E-05 1.38712E-05 1.32349E-23
 -1       471 2.51200E-05 1.28431E-05-6.61744E-24
 -1       472 2.55229E-05 1.12974E-05 0.00000E+00
 -1       473 2.59254E-05 9.44073E-06 6.61744E-24
 -1       474 2.63276E-05 7.40956E-06-1.32349E-23
 -1       475 2.67295E-05 5.33733E-06 6.61744E-24
 -1       476 2.71314E-05 3.34825E-06 0.00000E+00
 -1       477 2.75326E-05 1.56786E-06 0.00000E+00
 -1       478 2.79342E-05 1.68908E-07-1.32349E-23
 -1       479 2.83309E-05-6.69482E-07-3.30872E-24
 -1       480 2.87298E-05-6.42134E-07 0.00000E+00
 -1       481 1.51725E-05-1.14832E-06 0.00000E+00
 -1       482 1.06790E-05-1.08363E-06-8.27181E-25
 -1       483 8.44497E-06-1.01149E-06-1.65436E-24
 -1       484 7.63735E-06-9.36850E-07 0.00000E+00
 -1       485 7.47941E-06-8.61703E-07 1.65436E-24
 -1       486 1.70562E-05 1.24842E-05 0.00000E+00
 -1       487 7.71822E-06 3.52883E-05-6.61744E-24
 -1       488-3.93166E-06 6.38325E-05 1.32349E-23
 -1       489-1.65061E-05 9.46331E-05 0.00000E+00
 -1       490-2.83652E-05 1.23678E-04 1.32349E-23
 -1       491-3.79020E-05 1.46978E-04-6.61744E-24
 -1       492-4.41256E-05 1.61906E-04-1.32349E-23
 -1       493-4.61573E-05 1.65964E-04 0.00000E+00
 -1       494-4.41586E-05 1.59240E-04 1.32349E-23
 -1       495-3.83586E-05 1.42018E-04 0.00000E+00
 -1       496-2.98462E-05 1.17113E-04 1.32349E-23
 -1       497-1.97052E-05 8.74975E-05 0.00000E+00
 -1       498-9.36303E-06 5.72979E-05 1.32349E-23
 -1       499-2.42639E-07 3.06535E-05 0.00000E+00
 -1       500 6.48373E-06 1.08327E-05-6.61744E-24
 -1       501 2.89493E-05 2.07706E-06 6.61744E-24
 -1       502 2.88074E-05 2.94657E-06 0.00000E+00
 -1       503 2.86653E-05 3.22592E-06 0.00000E+00
 -1       504 2.85246E-05 2.96491E-06-1.65436E-24
 -1       505 2.83837E-05 2.25202E-06 0.00000E+00
 -1       506 2.82427E-05 1.17834E-06 1.65436E-24
 -1       507 2.81015E-05-1.39240E-07 0.00000E+00
 -1       508 2.79602E-05-1.58246E-06 1.65436E-24
 -1       509 2.78189E-05-3.02405E-06 0.00000E+00
 -1       510 2.76778E-05-4.33674E-06 1.65436E-24
 -1       511 2.75370E-05-5.40250E-06 0.00000E+00
 -1       512 2.73964E-05-6.10471E-06 1.65436E-24
 -1       513 2.72560E-05-6.35273E-06-3.30872E-24
 -1       514 2.71154E-05-6.05854E-06 0.00000E+00
 -1       515 2.69745E-05-5.17288E-06 0.00000E+00
 -1       516 2.60258E-05 6.28938E-07 0.00000E+00
 -1       517 2.06128E-05 6.93075E-07 0.00000E+00
 -1       518 1.45563E-05 7.52814E-07 4.13590E-25
 -1       519 9.54983E-06 8.20032E-07 0.00000E+00
 -1       520 7.33221E-06 8.96499E-07-1.03398E-25
 -1       521 2.74736E-05 1.68191E-06-2.64698E-23
 -1       522 2.60296E-05 2.21022E-06 0.00000E+00
 -1       523 2.47745E-05 2.23908E-06 0.00000E+00
 -1       524 2.36730E-05 1.84306E-06 0.00000E+00
 -1       525 2.26991E-05 1.10535E-06 2.64698E-23
 -1       526 2.18202E-05 1.11503E-07 0.00000E+00
 -1       527 2.10036E-05-1.04958E-06 0.00000E+00
 -1       528 2.02156E-05-2.28730E-06 0.00000E+00
 -1       529 1.94220E-05-3.51006E-06 0.00000E+00
 -1       530 1.85887E-05-4.62646E-06 0.00000E+00
 -1       531 1.76821E-05-5.54642E-06 0.00000E+00
 -1       532 1.66698E-05-6.18192E-06 1.32349E-23
 -1       533 1.55198E-05-6.44861E-06 0.00000E+00
 -1       534 1.42060E-05-6.26489E-06 1.32349E-23
 -1       535 1.26945E-05-5.55792E-06 0.00000E+00
 -1       536 2.68574E-05-2.02386E-06 0.00000E+00
 -1       537 2.68922E-05-7.88016E-07 0.00000E+00
 -1       538 2.69273E-05 1.00009E-07-1.55096E-25
 -1       539 2.69639E-05 6.82805E-07 2.06795E-25
 -1       540 2.70008E-05 1.00277E-06-8.27181E-25
 -1       541 2.70380E-05 1.10225E-06 4.13590E-25
 -1       542 2.70753E-05 1.02349E-06 0.00000E+00
 -1       543 2.71127E-05 8.08693E-07 0.00000E+00
 -1       544 2.71500E-05 5.00004E-07 0.00000E+00
 -1       545 2.71873E-05 1.39533E-07-4.13590E-25
 -1       546 2.72246E-05-2.30618E-07-8.27181E-25
 -1       547 2.72619E-05-5.68355E-07-8.27181E-25
 -1       548 2.72993E-05-8.31578E-07-1.65436E-24
 -1       549 2.73366E-05-9.78161E-07 8.27181E-25
 -1       550 2.73739E-05-9.65910E-07 0.00000E+00
 -1       551 2.44652E-05-3.74863E-06 9.82277E-25
 -1       552 2.18357E-05-3.84471E-06 1.65436E-24
 -1       553 1.90573E-05-3.94080E-06 0.00000E+00
 -1       554 1.62465E-05-4.03791E-06 0.00000E+00
 -1       555 1.35198E-05-4.13718E-06 0.00000E+00
 -1       556 2.61293E-05-2.13286E-06 0.00000E+00
 -1       557 2.55597E-05-9.60635E-07 0.00000E+00
 -1       558 2.51079E-05-1.00036E-07 0.00000E+00
 -1       559 2.47599E-05 4.85401E-07 0.00000E+00
 -1       560 2.45016E-05 8.32218E-07 0.00000E+00
 -1       561 2.43191E-05 9.77292E-07 0.00000E+00
 -1       562 2.41985E-05 9.57534E-07 0.00000E+00
 -1       563 2.41259E-05 8.09903E-07 0.00000E+00
 -1       564 2.40874E-05 5.71382E-07 0.00000E+00
 -1       565 2.40691E-05 2.78963E-07 0.00000E+00
 -1       566 2.40572E-05-3.03465E-08 0.00000E+00
 -1       567 2.40378E-05-3.19536E-07 8.27181E-25
 -1       568 2.39971E-05-5.51604E-07-2.48154E-24
 -1       569 2.39215E-05-6.89592E-07 7.10858E-25
 -1       570 2.37976E-05-6.96573E-07-8.27181E-25
 -1       571 2.75040E-05-5.19337E-07-4.13590E-25
 -1       572 2.76004E-05-3.57691E-07-8.27181E-25
 -1       573 2.76976E-05-2.55114E-07-2.48154E-24
 -1       574 2.77952E-05-1.98267E-07-1.65436E-24
 -1       575 2.78930E-05-1.73763E-07-1.65436E-24
 -1       576 2.79908E-05-1.68130E-07-1.65436E-24
 -1       577 2.80887E-05-1.67889E-07-3.30872E-24
 -1       578 2.81865E-05-1.59554E-07 0.00000E+00
 -1       579 2.82844E-05-1.29633E-07-3.30872E-24
 -1       580 2.83823E-05-6.46369E-08-6.61744E-24
 -1       581 2.84802E-05 4.89228E-08 0.00000E+00
 -1       582 2.85780E-05 2.24525E-07 0.00000E+00
 -1       583 2.86758E-05 4.75638E-07 0.00000E+00
 -1       584 2.87734E-05 8.15603E-07 0.00000E+00
 -1       585 2.88709E-05 1.25770E-06-6.61744E-24
 -1       586 2.68611E-05-7.15901E-07 0.00000E+00
 -1       587 2.62316E-05-6.78739E-07 0.00000E+00
 -1       588 2.55569E-05-6.41618E-07-1.65436E-24
 -1       589 2.48724E-05-6.04865E-07 3.87741E-26
 -1       590 2.42134E-05-5.68941E-07 0.00000E+00
 -1       591 2.72511E-05-4.83116E-07 0.00000E+00
 -1       592 2.71049E-05-2.60659E-07 0.00000E+00
 -1       593 2.69724E-05-7.67747E-08 1.65436E-24
 -1       594 2.68509E-05 7.64793E-08-8.27181E-25
 -1       595 2.67378E-05 2.07040E-07 1.65436E-24
 -1       596 2.66302E-05 3.22800E-07 0.00000E+00
 -1       597 2.65251E-05 4.31643E-07 0.00000E+00
 -1       598 2.64197E-05 5.41444E-07-8.27181E-25
 -1       599 2.63110E-05 6.60083E-07 1.65436E-24
 -1       600 2.61960E-05 7.95436E-07 0.00000E+00
 -1       601 2.60718E-05 9.55377E-07 0.00000E+00
 -1       602 2.59355E-05 1.14779E-06-2.06795E-25
 -1       603 2.57842E-05 1.38057E-06 4.13590E-25
 -1       604 2.56153E-05 1.66163E-06 0.00000E+00
 -1       605 2.54261E-05 1.99892E-06 0.00000E+00
 -1       606 2.89999E-05 2.54978E-06 0.00000E+00
 -1       607 2.90298E-05 3.35284E-06 0.00000E+00
 -1       608 2.90590E-05 4.21943E-06 0.00000E+00
 -1       609 2.90879E-05 5.14505E-06 0.00000E+00
 -1       610 2.91165E-05 6.12516E-06 0.00000E+00
 -1       611 2.91451E-05 7.15515E-06 0.00000E+00
 -1       612 2.91736E-05 8.23038E-06-3.30872E-24
 -1       613 2.92021E-05 9.34624E-06 0.00000E+00
 -1       614 2.92305E-05 1.04981E-05-1.65436E-24
 -1       615 2.92589E-05 1.16813E-05 0.00000E+00
 -1       616 2.92872E-05 1.28912E-05 0.00000E+00
 -1       617 2.93155E-05 1.41233E-05 0.00000E+00
 -1       618 2.93438E-05 1.53728E-05 0.00000E+00
 -1       619 2.93720E-05 1.66351E-05 0.00000E+00
 -1       620 2.94002E-05 1.79057E-05 0.00000E+00
 -1       621 2.82707E-05 1.91220E-06-1.65436E-24
 -1       622 2.75920E-05 2.01082E-06-8.27181E-25
 -1       623 2.69395E-05 2.10950E-06-1.65436E-24
 -1       624 2.63211E-05 2.20795E-06 0.00000E+00
 -1       625 2.57445E-05 2.30584E-06 0.00000E+00
 -1       626 2.87450E-05 2.58273E-06 0.00000E+00
 -1       627 2.84945E-05 3.42164E-06 0.00000E+00
 -1       628 2.82197E-05 4.32452E-06 0.00000E+00
 -1       629 2.79233E-05 5.28407E-06 0.00000E+00
 -1       630 2.76084E-05 6.29295E-06 3.30872E-24
 -1       631 2.72777E-05 7.34370E-06 0.00000E+00
 -1       632 2.69340E-05 8.42885E-06 0.00000E+00
 -1       633 2.65802E-05 9.54095E-06 0.00000E+00
 -1       634 2.62191E-05 1.06725E-05 0.00000E+00
 -1       635 2.58534E-05 1.18161E-05 0.00000E+00
 -1       636 2.54861E-05 1.29642E-05-1.65436E-24
 -1       637 2.51198E-05 1.41093E-05 0.00000E+00
 -1       638 2.47573E-05 1.52440E-05 0.00000E+00
 -1       639 2.44013E-05 1.63608E-05-2.06795E-25
 -1       640 2.40542E-05 1.74522E-05 0.00000E+00
 -1       641 2.94290E-05 2.05042E-05 4.13590E-25
 -1       642 2.94287E-05 2.19690E-05-1.03398E-25
 -1       643 2.94283E-05 2.35539E-05-1.03398E-25
 -1       644 2.94276E-05 2.52390E-05-2.58494E-26
 -1       645 2.94268E-05 2.70042E-05 5.16988E-26
 -1       646 2.94258E-05 2.88292E-05-1.29247E-26
 -1       647 2.94247E-05 3.06940E-05 0.00000E+00
 -1       648 2.94236E-05 3.25785E-05 6.46235E-27
 -1       649 2.94225E-05 3.44627E-05 0.00000E+00
 -1       650 2.94214E-05 3.63265E-05 1.29247E-26
 -1       651 2.94203E-05 3.81497E-05 5.16988E-26
 -1       652 2.94192E-05 3.99123E-05-1.03398E-25
 -1       653 2.94182E-05 4.15942E-05-4.13590E-25
 -1       654 2.94167E-05 4.31753E-05 4.13590E-25
 -1       655 2.94156E-05 4.46355E-05 1.65436E-24
 -1       656 2.82774E-05 1.90719E-05 1.65436E-24
 -1       657 2.72775E-05 1.89585E-05 8.27181E-25
 -1       658 2.63751E-05 1.88454E-05 0.00000E+00
 -1       659 2.55166E-05 1.87323E-05 0.00000E+00
 -1       660 2.46485E-05 1.86189E-05 0.00000E+00
 -1       661 2.90583E-05 2.05424E-05 0.00000E+00
 -1       662 2.86515E-05 2.20167E-05 0.00000E+00
 -1       663 2.82091E-05 2.35849E-05 3.30872E-24
 -1       664 2.77381E-05 2.52314E-05 0.00000E+00
 -1       665 2.72437E-05 2.69400E-05 0.00000E+00
 -1       666 2.67320E-05 2.86949E-05 0.00000E+00
 -1       667 2.62089E-05 3.04803E-05 0.00000E+00
 -1       668 2.56801E-05 3.22805E-05 0.00000E+00
 -1       669 2.51517E-05 3.40798E-05 0.00000E+00
 -1       670 2.46296E-05 3.58625E-05 1.65436E-24
 -1       671 2.41196E-05 3.76129E-05 0.00000E+00
 -1       672 2.36275E-05 3.93151E-05 0.00000E+00
 -1       673 2.31594E-05 4.09534E-05 0.00000E+00
 -1       674 2.27203E-05 4.25115E-05 1.65436E-24
 -1       675 2.23175E-05 4.39738E-05 0.00000E+00
 -1       676 2.81641E-05 4.58488E-05-3.30872E-24
 -1       677 2.69183E-05 4.57425E-05-1.65436E-24
 -1       678 2.56738E-05 4.56363E-05 3.30872E-24
 -1       679 2.44307E-05 4.55305E-05 0.00000E+00
 -1       680 2.31894E-05 4.54245E-05 0.00000E+00
 -1       681 7.34741E-06-2.35375E-07-3.30872E-24
 -1       682 7.50239E-06 6.52428E-07 0.00000E+00
 -1       683 7.65686E-06 1.78781E-06 0.00000E+00
 -1       684 7.81197E-06 3.08427E-06 0.00000E+00
 -1       685 7.96698E-06 4.46872E-06 0.00000E+00
 -1       686 8.12214E-06 5.86869E-06-1.65436E-24
 -1       687 8.27738E-06 7.21298E-06 3.30872E-24
 -1       688 8.43280E-06 8.43002E-06 0.00000E+00
 -1       689 8.58844E-06 9.43762E-06 0.00000E+00
 -1       690 8.74425E-06 1.01522E-05 0.00000E+00
 -1       691 8.90020E-06 1.04658E-05 3.30872E-24
 -1       692 9.05584E-06 1.02677E-05-1.65436E-24
 -1       693 9.21106E-06 9.40462E-06 3.30872E-24
 -1       694 9.36355E-06 7.71881E-06-1.65436E-24
 -1       695 9.51434E-06 4.98402E-06 0.00000E+00
 -1       696 6.56284E-06-6.59222E-07 3.30872E-24
 -1       697 5.44047E-06-5.27909E-07 0.00000E+00
 -1       698 4.02824E-06-3.97132E-07-3.30872E-24
 -1       699 2.52347E-06-2.65521E-07-1.65436E-24
 -1       700 1.11696E-06-1.33856E-07 0.00000E+00
 -1       701 6.94697E-06-5.88046E-07 0.00000E+00
 -1       702 6.77994E-06-6.34895E-07 1.65436E-24
 -1       703 6.68857E-06-8.81801E-07-3.30872E-24
 -1       704 6.65412E-06-1.28540E-06-1.65436E-24
 -1       705 6.65606E-06-1.78614E-06 6.61744E-24
 -1       706 6.67174E-06-2.32450E-06 0.00000E+00
 -1       707 6.67777E-06-2.83715E-06 0.00000E+00
 -1       708 6.65050E-06-3.26105E-06-3.30872E-24
 -1       709 6.56953E-06-3.54160E-06 6.61744E-24
 -1       710 6.41477E-06-3.62518E-06-3.30872E-24
 -1       711 6.17306E-06-3.47693E-06 0.00000E+00
 -1       712 5.83212E-06-3.06342E-06-1.65436E-24
 -1       713 5.38850E-06-2.37660E-06 3.30872E-24
 -1       714 4.84128E-06-1.40960E-06 0.00000E+00
 -1       715 4.19589E-06-1.83420E-07 1.65436E-24
 -1       716 9.72368E-06-3.25079E-06-2.06795E-25
 -1       717 9.80522E-06-6.57636E-06 0.00000E+00
 -1       718 9.88856E-06-9.12802E-06 0.00000E+00
 -1       719 9.97451E-06-1.10214E-05 1.65436E-24
 -1       720 1.00614E-05-1.23416E-05 3.30872E-24
 -1       721 1.01490E-05-1.31715E-05-1.65436E-24
 -1       722 1.02369E-05-1.35715E-05 0.00000E+00
 -1       723 1.03249E-05-1.35999E-05 0.00000E+00
 -1       724 1.04129E-05-1.32982E-05 3.30872E-24
 -1       725 1.05006E-05-1.27064E-05 0.00000E+00
 -1       726 1.05880E-05-1.18510E-05 0.00000E+00
 -1       727 1.06745E-05-1.07576E-05 0.00000E+00
 -1       728 1.07607E-05-9.44085E-06-8.27181E-25
 -1       729 1.08432E-05-7.91432E-06 0.00000E+00
 -1       730 1.09266E-05-6.18203E-06-3.30872E-24
 -1       731 1.28078E-05 1.01303E-06 0.00000E+00
 -1       732 1.30245E-05 1.06883E-06-4.13590E-25
 -1       733 1.12589E-05 1.12320E-06 1.65436E-24
 -1       734 8.46348E-06 1.17617E-06 8.27181E-25
 -1       735 5.55988E-06 1.22894E-06 1.65436E-24
 -1       736 1.13608E-05-4.69845E-06 0.00000E+00
 -1       737 1.36730E-05-1.20400E-05 3.30872E-24
 -1       738 1.62931E-05-2.02181E-05-1.32349E-23
 -1       739 1.89068E-05-2.83857E-05 0.00000E+00
 -1       740 2.12063E-05-3.56969E-05 0.00000E+00
 -1       741 2.28840E-05-4.13201E-05 0.00000E+00
 -1       742 2.37564E-05-4.47685E-05-1.32349E-23
 -1       743 2.36492E-05-4.55897E-05 0.00000E+00
 -1       744 2.25864E-05-4.38666E-05 1.32349E-23
 -1       745 2.06067E-05-3.97204E-05 0.00000E+00
 -1       746 1.79385E-05-3.37648E-05 0.00000E+00
 -1       747 1.48236E-05-2.66398E-05 6.61744E-24
 -1       748 1.15970E-05-1.92232E-05 0.00000E+00
 -1       749 8.59816E-06-1.23957E-05-3.30872E-24
 -1       750 6.11473E-06-6.92045E-06-6.61744E-24
 -1       751 1.17335E-05-2.56465E-06 6.61744E-24
 -1       752 1.25223E-05-1.55954E-06-6.61744E-24
 -1       753 1.33085E-05-1.01241E-06 0.00000E+00
 -1       754 1.41035E-05-7.19205E-07 1.32349E-23
 -1       755 1.48989E-05-5.97209E-07 2.64698E-23
 -1       756 1.56961E-05-5.69366E-07 1.32349E-23
 -1       757 1.64934E-05-6.03817E-07 2.64698E-23
 -1       758 1.72911E-05-6.70759E-07 1.32349E-23
 -1       759 1.80887E-05-7.55993E-07 0.00000E+00
 -1       760 1.88862E-05-8.45929E-07 0.00000E+00
 -1       761 1.96836E-05-9.29233E-07 2.64698E-23
 -1       762 2.04797E-05-9.94352E-07-1.32349E-23
 -1       763 2.12756E-05-1.02101E-06 0.00000E+00
 -1       764 2.20651E-05-9.87637E-07 6.61744E-24
 -1       765 2.28568E-05-8.43977E-07 0.00000E+00
 -1       766 9.36439E-06-4.14373E-06-3.30872E-24
 -1       767 8.51454E-06-4.02051E-06 0.00000E+00
 -1       768 8.01967E-06-3.89831E-06-1.65436E-24
 -1       769 7.45913E-06-3.77435E-06 8.27181E-25
 -1       770 6.40768E-06-3.65005E-06 0.00000E+00
 -1       771 9.80403E-06-2.62522E-06 0.00000E+00
 -1       772 8.72079E-06-1.30332E-06-2.64698E-23
 -1       773 7.73948E-06-2.56462E-07 0.00000E+00
 -1       774 6.85122E-06 5.40744E-07 1.32349E-23
 -1       775 6.04698E-06 1.11376E-06 0.00000E+00
 -1       776 5.31723E-06 1.48820E-06 0.00000E+00
 -1       777 4.65235E-06 1.68978E-06 0.00000E+00
 -1       778 4.04268E-06 1.74428E-06-6.61744E-24
 -1       779 3.47850E-06 1.67755E-06 0.00000E+00
 -1       780 2.95012E-06 1.51550E-06 0.00000E+00
 -1       781 2.44780E-06 1.28408E-06 0.00000E+00
 -1       782 1.96190E-06 1.00930E-06-6.61744E-24
 -1       783 1.48276E-06 7.17206E-07 0.00000E+00
 -1       784 1.00122E-06 4.33942E-07 0.00000E+00
 -1       785 5.08165E-07 1.85690E-07 0.00000E+00
 -1       786 2.37090E-05-1.86675E-07 0.00000E+00
 -1       787 2.38089E-05 8.60002E-08 8.27181E-25
 -1       788 2.39088E-05 2.93747E-07-3.30872E-24
 -1       789 2.40095E-05 4.48328E-07 0.00000E+00
 -1       790 2.41103E-05 5.61448E-07 0.00000E+00
 -1       791 2.42113E-05 6.44781E-07 0.00000E+00
 -1       792 2.43124E-05 7.09965E-07 0.00000E+00
 -1       793 2.44135E-05 7.68626E-07 0.00000E+00
 -1       794 2.45146E-05 8.32383E-07 0.00000E+00
 -1       795 2.46157E-05 9.12858E-07-1.65436E-24
 -1       796 2.47167E-05 1.02169E-06-3.30872E-24
 -1       797 2.48177E-05 1.17054E-06 0.00000E+00
 -1       798 2.49186E-05 1.37113E-06 3.30872E-24
 -1       799 2.50191E-05 1.63518E-06 0.00000E+00
 -1       800 2.51196E-05 1.97453E-06 0.00000E+00
 -1       801 2.14937E-05-4.41119E-07 0.00000E+00
 -1       802 1.71011E-05-3.47228E-07 0.00000E+00
 -1       803 1.15957E-05-2.58499E-07-8.27181E-25
 -1       804 6.13737E-06-1.71604E-07 1.65436E-24
 -1       805 1.88580E-06-7.93478E-08-6.61744E-24
 -1       806 2.33725E-05-2.24130E-07 0.00000E+00
 -1       807 2.31385E-05 5.51849E-08 4.96308E-24
 -1       808 2.29133E-05 3.08320E-07 3.30872E-24
 -1       809 2.26952E-05 5.41173E-07 0.00000E+00
 -1       810 2.24823E-05 7.59605E-07 0.00000E+00
 -1       811 2.22726E-05 9.69429E-07 0.00000E+00
 -1       812 2.20640E-05 1.17645E-06-3.30872E-24
 -1       813 2.18542E-05 1.38646E-06 0.00000E+00
 -1       814 2.16411E-05 1.60525E-06-3.30872E-24
 -1       815 2.14225E-05 1.83863E-06 1.65436E-24
 -1       816 2.11963E-05 2.09238E-06 0.00000E+00
 -1       817 2.09604E-05 2.37231E-06 0.00000E+00
 -1       818 2.07126E-05 2.68420E-06-1.65436E-24
 -1       819 2.04510E-05 3.03389E-06 1.65436E-24
 -1       820 2.01739E-05 3.42721E-06 0.00000E+00
 -1       821 2.51294E-05 2.94358E-06-8.27181E-25
 -1       822 2.50360E-05 3.60684E-06 0.00000E+00
 -1       823 2.49426E-05 4.37848E-06-1.65436E-24
 -1       824 2.48483E-05 5.24599E-06 1.65436E-24
 -1       825 2.47537E-05 6.19684E-06-3.30872E-24
 -1       826 2.46590E-05 7.21837E-06 0.00000E+00
 -1       827 2.45642E-05 8.29787E-06 0.00000E+00
 -1       828 2.44692E-05 9.42261E-06 1.65436E-24
 -1       829 2.43743E-05 1.05798E-05-3.30872E-24
 -1       830 2.42793E-05 1.17566E-05 0.00000E+00
 -1       831 2.41844E-05 1.29401E-05 0.00000E+00
 -1       832 2.40896E-05 1.41176E-05 0.00000E+00
 -1       833 2.39949E-05 1.52762E-05 0.00000E+00
 -1       834 2.39009E-05 1.64030E-05 0.00000E+00
 -1       835 2.38069E-05 1.74854E-05 1.65436E-24
 -1       836 2.45535E-05 2.64132E-06-3.30872E-24
 -1       837 2.36383E-05 2.89007E-06 0.00000E+00
 -1       838 2.25927E-05 3.13825E-06-6.61744E-24
 -1       839 2.15374E-05 3.38589E-06 0.00000E+00
 -1       840 2.05934E-05 3.63408E-06 3.30872E-24
 -1       841 2.49956E-05 2.93561E-06-2.06795E-25
 -1       842 2.47225E-05 3.59949E-06 1.03398E-25
 -1       843 2.44056E-05 4.38059E-06 0.00000E+00
 -1       844 2.40492E-05 5.26562E-06 2.06795E-25
 -1       845 2.36590E-05 6.24034E-06 8.27181E-25
 -1       846 2.32405E-05 7.29025E-06-4.13590E-25
 -1       847 2.27994E-05 8.39992E-06 0.00000E+00
 -1       848 2.23417E-05 9.55388E-06 4.13590E-25
 -1       849 2.18734E-05 1.07361E-05 0.00000E+00
 -1       850 2.14004E-05 1.19305E-05 4.13590E-25
 -1       851 2.09290E-05 1.31208E-05 8.27181E-25
 -1       852 2.04652E-05 1.42909E-05 0.00000E+00
 -1       853 2.00149E-05 1.54248E-05 0.00000E+00
 -1       854 1.95841E-05 1.65064E-05 4.13590E-25
 -1       855 1.91788E-05 1.75206E-05 8.27181E-25
 -1       856 2.36127E-05 1.96121E-05 0.00000E+00
 -1       857 2.35029E-05 2.09115E-05 8.27181E-25
 -1       858 2.33930E-05 2.23831E-05 0.00000E+00
 -1       859 2.32821E-05 2.40010E-05-1.65436E-24
 -1       860 2.31709E-05 2.57394E-05 0.00000E+00
 -1       861 2.30594E-05 2.75722E-05 0.00000E+00
 -1       862 2.29477E-05 2.94731E-05 0.00000E+00
 -1       863 2.28359E-05 3.14161E-05 0.00000E+00
 -1       864 2.27241E-05 3.33747E-05 0.00000E+00
 -1       865 2.26123E-05 3.53228E-05 0.00000E+00
 -1       866 2.25007E-05 3.72340E-05 0.00000E+00
 -1       867 2.23892E-05 3.90821E-05 0.00000E+00
 -1       868 2.22779E-05 4.08410E-05 0.00000E+00
 -1       869 2.21674E-05 4.24844E-05 1.65436E-24
 -1       870 2.20569E-05 4.39865E-05 0.00000E+00
 -1       871 2.28254E-05 1.85020E-05 0.00000E+00
 -1       872 2.19901E-05 1.84928E-05 0.00000E+00
 -1       873 2.11909E-05 1.84834E-05 0.00000E+00
 -1       874 2.04073E-05 1.84737E-05 0.00000E+00
 -1       875 1.96183E-05 1.84636E-05 0.00000E+00
 -1       876 2.34498E-05 1.96486E-05 3.30872E-24
 -1       877 2.31243E-05 2.09589E-05 1.65436E-24
 -1       878 2.27429E-05 2.24169E-05-3.30872E-24
 -1       879 2.23151E-05 2.40011E-05-1.65436E-24
 -1       880 2.18482E-05 2.56893E-05-3.30872E-24
 -1       881 2.13503E-05 2.74600E-05 0.00000E+00
 -1       882 2.08296E-05 2.92915E-05 3.30872E-24
 -1       883 2.02940E-05 3.11626E-05-1.65436E-24
 -1       884 1.97515E-05 3.30518E-05 0.00000E+00
 -1       885 1.92102E-05 3.49379E-05 0.00000E+00
 -1       886 1.86780E-05 3.67995E-05 0.00000E+00
 -1       887 1.81630E-05 3.86153E-05 0.00000E+00
 -1       888 1.76732E-05 4.03637E-05 0.00000E+00
 -1       889 1.72158E-05 4.20231E-05-1.65436E-24
 -1       890 1.68001E-05 4.35720E-05-1.65436E-24
 -1       891 2.08697E-05 4.52659E-05 1.65436E-24
 -1       892 1.99969E-05 4.52095E-05 8.27181E-25
 -1       893 1.92239E-05 4.51534E-05-1.65436E-24
 -1       894 1.84431E-05 4.50973E-05 0.00000E+00
 -1       895 1.75467E-05 4.50410E-05 0.00000E+00
 -1       896 2.15583E-07 7.68833E-07 0.00000E+00
 -1       897 4.33147E-07 1.15818E-06 0.00000E+00
 -1       898 6.50674E-07 1.25237E-06 6.61744E-24
 -1       899 8.68534E-07 1.13307E-06-3.30872E-24
 -1       900 1.08637E-06 8.56765E-07 0.00000E+00
 -1       901 1.30425E-06 4.78548E-07 3.30872E-24
 -1       902 1.52210E-06 4.14817E-08 6.61744E-24
 -1       903 1.73995E-06-4.11894E-07 0.00000E+00
 -1       904 1.95780E-06-8.40978E-07 6.61744E-24
 -1       905 2.17562E-06-1.20494E-06 3.30872E-24
 -1       906 2.39344E-06-1.45526E-06 6.61744E-24
 -1       907 2.61102E-06-1.54241E-06 3.30872E-24
 -1       908 2.82855E-06-1.39763E-06 0.00000E+00
 -1       909 3.04464E-06-9.50048E-07-3.30872E-24
 -1       910 3.26091E-06-9.31498E-08 0.00000E+00
 -1       911 3.52974E-06 2.54673E-06 1.65436E-24
 -1       912 3.59140E-06 3.06529E-06 0.00000E+00
 -1       913 3.65315E-06 2.96878E-06 1.65436E-24
 -1       914 3.71490E-06 2.38540E-06-8.27181E-25
 -1       915 3.77638E-06 1.42752E-06 0.00000E+00
 -1       916 3.83761E-06 2.06523E-07 0.00000E+00
 -1       917 3.89864E-06-1.17476E-06 0.00000E+00
 -1       918 3.95959E-06-2.61397E-06-8.27181E-25
 -1       919 4.02059E-06-4.01056E-06 0.00000E+00
 -1       920 4.08171E-06-5.26393E-06 0.00000E+00
 -1       921 4.14307E-06-6.26878E-06 0.00000E+00
 -1       922 4.20443E-06-6.91920E-06 0.00000E+00
 -1       923 4.26592E-06-7.09768E-06-1.65436E-24
 -1       924 4.32599E-06-6.68554E-06 0.00000E+00
 -1       925 4.38594E-06-5.54493E-06 0.00000E+00
 -1       926 4.16539E-06-1.15273E-06 0.00000E+00
 -1       927 3.88724E-06 1.08685E-06-3.30872E-24
 -1       928 3.61001E-06 3.06637E-06 0.00000E+00
 -1       929 3.33220E-06 4.67250E-06 0.00000E+00
 -1       930 3.05493E-06 5.84342E-06 0.00000E+00
 -1       931 2.77785E-06 6.52222E-06-3.30872E-24
 -1       932 2.50094E-06 6.71997E-06 6.61744E-24
 -1       933 2.22395E-06 6.45314E-06 3.30872E-24
 -1       934 1.94679E-06 5.80238E-06 6.61744E-24
 -1       935 1.66936E-06 4.85264E-06 0.00000E+00
 -1       936 1.39175E-06 3.73018E-06 0.00000E+00
 -1       937 1.11397E-06 2.56323E-06 3.30872E-24
 -1       938 8.36264E-07 1.48609E-06 0.00000E+00
 -1       939 5.58199E-07 6.32122E-07 0.00000E+00
 -1       940 2.80534E-07 1.03822E-07 0.00000E+00
 -1       941 1.17865E-06 1.31916E-07 0.00000E+00
 -1       942 2.42213E-06 3.02174E-07 1.32349E-23
 -1       943 3.66156E-06 4.96439E-07 0.00000E+00
 -1       944 4.91326E-06 7.01667E-07 0.00000E+00
 -1       945 6.16535E-06 9.13843E-07-2.64698E-23
 -1       946 7.41988E-06 1.12933E-06 1.32349E-23
 -1       947 8.67470E-06 1.34720E-06 5.29396E-23
 -1       948 9.92994E-06 1.56669E-06-2.64698E-23
 -1       949 1.11852E-05 1.78834E-06 5.29396E-23
 -1       950 1.24402E-05 2.01282E-06-1.32349E-23
 -1       951 1.36949E-05 2.24314E-06 0.00000E+00
 -1       952 1.49477E-05 2.48262E-06-1.32349E-23
 -1       953 1.62001E-05 2.74216E-06-2.64698E-23
 -1       954 1.74426E-05 3.03374E-06 0.00000E+00
 -1       955 1.86884E-05 3.39574E-06 1.32349E-23
 -1       956 1.98156E-05 4.47005E-06 0.00000E+00
 -1       957 1.97486E-05 5.14833E-06 3.10193E-25
 -1       958 1.96812E-05 5.89773E-06 8.27181E-25
 -1       959 1.96138E-05 6.71024E-06 8.27181E-25
 -1       960 1.95462E-05 7.57789E-06 0.00000E+00
 -1       961 1.94786E-05 8.49261E-06-4.13590E-25
 -1       962 1.94110E-05 9.44630E-06 0.00000E+00
 -1       963 1.93433E-05 1.04309E-05 0.00000E+00
 -1       964 1.92756E-05 1.14384E-05 0.00000E+00
 -1       965 1.92078E-05 1.24606E-05 0.00000E+00
 -1       966 1.91401E-05 1.34894E-05-1.65436E-24
 -1       967 1.90724E-05 1.45169E-05-8.27181E-25
 -1       968 1.90048E-05 1.55349E-05 0.00000E+00
 -1       969 1.89372E-05 1.65353E-05 0.00000E+00
 -1       970 1.88699E-05 1.75102E-05 0.00000E+00
 -1       971 1.86597E-05 1.94662E-05-3.30872E-24
 -1       972 1.85116E-05 2.06884E-05-1.65436E-24
 -1       973 1.83634E-05 2.20929E-05 0.00000E+00
 -1       974 1.82143E-05 2.36538E-05 0.00000E+00
 -1       975 1.80649E-05 2.53450E-05 3.30872E-24
 -1       976 1.79152E-05 2.71403E-05 0.00000E+00
 -1       977 1.77653E-05 2.90132E-05 0.00000E+00
 -1       978 1.76154E-05 3.09374E-05 1.65436E-24
 -1       979 1.74654E-05 3.28861E-05 3.30872E-24
 -1       980 1.73154E-05 3.48329E-05 0.00000E+00
 -1       981 1.71655E-05 3.67510E-05 3.30872E-24
 -1       982 1.70159E-05 3.86139E-05 0.00000E+00
 -1       983 1.68665E-05 4.03952E-05 3.30872E-24
 -1       984 1.67181E-05 4.20685E-05-1.65436E-24
 -1       985 1.65699E-05 4.36074E-05-3.30872E-24
 -3
    1PSTEP                        20          10           1          
  100CL  110 5.32837E-01         841                     0   10           1
 -4  STRESS      6    1
 -5  SXX         1    4    1    1
 -5  SYY         1    4    2    2
 -5  SZZ         1    4    3    3
 -5  SXY         1    4    1    2
 -5  SYZ         1    4    2    3
 -5  SZX         1    4    3    1
 -1         1-2.12605E+06-6.82733E+05-4.32767E+05-6.22575E+05-1.91600E-10 7.95505E-10
 -1         2-1.27731E+06-6.22413E+04 6.52126E+03-1.24226E+05 2.20723E-10-2.73758E-09
 -1         3-7.64823E+05-2.68052E+05-1.98965E+04-6.60348E+04-3.68573E-10 1.90414E-09
 -1         4-3.69693E+05-7.16448E+04 5.48147E+02-3.75009E+04 4.12683E-10-1.62225E-09
 -1         5-1.81072E+05 1.21576E+05-9.51315E+04-7.40488E+03 3.84716E-09 3.62201E-09
 -1         8-1.10498E+06-4.34617E+05-1.60583E+05-4.20833E+05 1.40062E-10-3.99086E-09
 -1         9-1.22827E+06-2.76073E+05-1.53635E+05-2.98556E+05-4.44440E-10-2.03484E-09
 -1        10-5.66451E+05-3.34590E+05-3.64870E+03-1.25475E+05-1.53913E-10-2.32224E-10
 -1        11-3.66834E+05-1.11786E+05 4.60803E+02-8.59435E+04 1.68145E-09-2.14383E-09
 -1        12-2.27384E+05 9.85248E+04-1.07463E+05-4.00732E+04 4.69061E-09 1.09065E-09
 -1        15 1.76502E+04-5.55303E+03 7.20273E+03-5.18574E+04 7.02130E-10-6.02085E-10
 -1        16-7.55929E+05-1.58081E+05-4.57695E+03-3.30719E+05 1.06411E-09 1.79170E-10
 -1        17-4.45881E+05-3.01919E+05-5.29972E+04-2.36038E+05-1.10655E-09 1.75351E-09
 -1        18-1.81367E+05-1.06576E+05-7.33680E+04-1.24799E+05 4.32010E-10-1.74259E-09
 -1        19-4.48647E+04 6.09146E+04-4.45610E+04-4.09155E+04 4.86277E-10-5.27810E-10
 -1        20 7.95942E+04-5.76757E+04-9.18977E+03 4.18743E+04 9.29117E-09 3.49519E-09
 -1        21-9.99997E+02-1.19143E+05 2.66548E+04 6.25579E+02 1.48946E-08-5.00178E-10
 -1        22 2.30624E+04 1.21622E+05 7.50177E+02-1.87890E+04 2.91038E-11 5.58430E-10
 -1        23-1.66196E+05-1.72695E+03 6.66235E+03-1.33360E+05-2.58766E-09 1.96451E-10
 -1        24-1.44488E+05 1.37960E+04 1.72931E+05-3.12799E+05-3.57068E-09 4.85064E-12
 -1        25 3.90306E+05 1.44087E+05 1.25658E+05-2.03978E+05 9.44965E-10 1.12656E-09
 -1        26 3.17906E+03 1.39344E+05 7.89196E+03-2.77468E+04-3.16125E-10 1.27890E-09
 -1        27-3.37170E+04-5.01578E+04-2.17108E+04 5.47619E+04 6.65250E-09-2.68786E-09
 -1        28-1.05123E+04-9.16747E+04-5.70844E+02 4.37592E+04 4.80247E-09-1.48511E-09
 -1        29 2.98806E+05 2.03790E+05 8.45501E+02-8.06983E+03 1.10552E-10 1.42518E-09
 -1        30 9.65586E+04 2.96584E+04 1.21082E+03-4.33053E+04 1.52642E-09 2.69438E-09
 -1        31-3.49356E+05 3.25458E+04 3.21627E+03-6.26572E+04-3.09512E-09 4.04543E-09
 -1        32 5.14241E+05 3.12540E+05 3.65106E+05-3.06377E+05 4.21779E-09 2.82307E-09
 -1        33 8.69621E+05 3.97041E+05 2.78800E+05-3.99306E+04-7.84330E-09-1.43245E-10
 -1        34-1.61594E+05-2.49935E+04-9.56077E+03 2.63453E+04-2.51666E-09-1.08594E-09
 -1        35-2.48298E+04-3.01703E+04-5.70895E+02 6.44775E+04 9.41286E-09 4.37649E-09
 -1        36-2.81324E+06 8.31778E+04-1.94581E+05-1.04540E-07-4.03179E-10-1.45519E-10
 -1        37-2.89710E+06-9.63575E+04-1.37339E+05 8.59345E-08-2.21537E-10 1.47338E-09
 -1        38-2.84567E+06 1.28834E+04-5.03523E+04 5.33016E-08 1.25036E-09-1.78079E-09
 -1        39-2.85923E+06-1.49178E+04-3.15293E+04 4.06721E-08 3.11381E-10 1.74578E-09
 -1        40-2.85094E+06 1.99135E+03-1.29294E+04-2.48554E-08-3.73839E-10 2.17688E-09
 -1        41-2.85305E+06-2.33219E+03-7.68299E+03-1.45663E-07 2.03336E-09 8.36053E-10
 -1        42-2.85180E+06 3.35220E+02-3.76329E+03-4.61423E-08 1.09768E-09-5.01018E-09
 -1        43-2.85212E+06-5.86976E+02-2.96068E+03-2.25095E-08 1.37412E-09-6.10027E-09
 -1        44-2.85185E+06 2.50776E+02-2.97347E+03-1.26467E-07-1.41583E-09-5.93087E-09
 -1        45-2.85265E+06-1.59838E+03-5.40479E+03-1.30418E-07-1.92344E-09-2.86877E-09
 -1        46-2.85129E+06 1.34381E+03-8.81066E+03-6.37849E-08-9.95688E-10 3.40651E-09
 -1        47-2.85679E+06-1.00431E+04-2.12747E+04 1.06321E-08 2.01119E-09 4.36671E-09
 -1        48-2.84774E+06 8.67010E+03-3.39135E+04 2.07341E-08-1.36103E-09-2.76668E-09
 -1        49-2.88227E+06-6.48440E+04-9.24362E+04-1.93706E-07-4.06761E-09 2.75031E-09
 -1        50-2.82593E+06 5.59704E+04-1.30984E+05 2.83067E-08-2.58756E-09 8.87667E-10
 -1        51 2.49201E+04-2.78355E+05 4.06608E+04-7.58130E+05-1.45519E-11-5.79166E-09
 -1        52 1.09803E+04-2.74457E+05 2.43475E+04-8.37787E+05 2.11003E-10-9.41509E-09
 -1        53 6.72704E+03-2.82070E+05 1.90117E+04-7.56098E+05 2.87400E-10-6.97037E-09
 -1        54 1.55882E+04-2.79068E+05 2.81946E+04-8.39960E+05 3.63798E-11 2.93949E-09
 -1        55 3.59856E+04-2.88038E+05 5.05243E+04-7.55744E+05 2.69210E-10-1.61890E-09
 -1        56-3.29105E+06-3.72001E+05-2.68682E+05-1.27246E+06 1.60071E-10 8.36735E-09
 -1        57-3.41301E+06-5.95279E+05-1.80286E+05-1.24589E+06 8.47649E-10 1.54068E-09
 -1        58-3.34329E+06-4.56804E+05-6.32564E+04-1.25772E+06 8.89486E-10 1.85173E-09
 -1        59-3.35286E+06-4.95192E+05-3.75044E+04-1.26336E+06-6.98037E-10-4.90172E-09
 -1        60-3.35047E+06-4.68720E+05-1.47836E+04-1.25615E+06 4.30418E-10-5.85078E-09
 -1        61-3.34515E+06-4.80585E+05-8.36846E+03-1.26448E+06-1.23327E-09-3.95721E-09
 -1        62-3.35085E+06-4.70991E+05-4.08951E+03-1.25672E+06 8.17408E-11-2.32001E-09
 -1        63-3.34578E+06-4.77234E+05-3.43493E+03-1.26272E+06 3.73404E-10 5.05946E-09
 -1        64-3.34982E+06-4.72035E+05-4.02415E+03-1.25791E+06-4.57021E-11 7.34690E-09
 -1        65-3.34907E+06-4.76544E+05-8.16493E+03-1.25990E+06-2.39197E-09-3.42789E-09
 -1        66-3.34756E+06-4.71730E+05-1.44097E+04-1.25952E+06-1.24078E-09 9.75888E-10
 -1        67-3.35990E+06-4.87418E+05-3.65182E+04-1.25498E+06-1.10470E-09-1.36470E-09
 -1        68-3.33912E+06-4.61576E+05-6.16032E+04-1.26270E+06-3.20142E-10-9.85892E-10
 -1        69-3.42073E+06-5.82635E+05-1.75546E+05-1.23543E+06 1.23237E-09-3.51065E-10
 -1        70-3.28746E+06-3.79783E+05-2.61635E+05-1.27795E+06-8.11269E-10 4.07454E-10
 -1        71-1.52084E+06 5.65601E+03-1.32523E+04-1.18903E-08-7.06782E-10-8.42192E-10
 -1        72-1.52643E+06-6.55364E+03-9.35200E+03 1.51272E-08-9.94429E-10 6.01176E-09
 -1        73-1.52305E+06 8.76406E+02-3.44029E+03-2.52027E-08-6.50859E-10 3.04044E-09
 -1        74-1.52385E+06-1.01635E+03-2.17045E+03 1.53557E-07 6.07610E-10 2.94358E-09
 -1        75-1.52341E+06 1.36960E+02-9.25945E+02 1.10500E-07 3.52615E-10-4.53099E-10
 -1        76-1.52344E+06-1.70395E+02-6.19308E+02-9.30545E-08 1.17576E-09 3.97383E-09
 -1        77-1.52346E+06 3.30442E+01-4.36550E+02 2.35263E-08-5.14596E-10 4.57845E-09
 -1        78-1.52342E+06-1.17982E+02-5.96690E+02-9.80983E-09-1.13507E-09 1.76581E-09
 -1        79-1.52343E+06 8.47403E+01-9.21225E+02 9.02986E-08 9.07839E-11 1.91233E-09
 -1        80-1.52368E+06-6.19640E+02-2.01661E+03-8.06114E-08 8.69137E-10 3.47609E-09
 -1        81-1.52319E+06 5.33379E+02-3.45217E+03-5.77904E-08-5.58055E-10 1.32854E-09
 -1        82-1.52535E+06-4.00054E+03-8.45602E+03-1.03872E-07 2.28384E-10 3.19324E-09
 -1        83-1.52177E+06 3.45544E+03-1.35183E+04-7.09167E-08-3.90081E-10 2.84308E-09
 -1        84-1.53550E+06-2.58451E+04-3.68577E+04 1.76940E-07 1.82450E-10 2.47019E-09
 -1        85-1.51307E+06 2.23068E+04-5.22459E+04 7.70931E-08-8.10653E-10 5.89353E-10
 -1        86-6.42587E+04 2.75581E+05 1.53193E+05 2.36824E+03 1.14960E-09-6.63817E-10
 -1        87 8.04116E+04 3.44047E+05 1.18772E+05-1.08986E+04 2.02272E-09-2.51642E-09
 -1        88-1.58806E+04 2.97983E+05 6.14341E+04 1.68673E+03 2.13367E-09-9.53264E-10
 -1        89 5.67863E+04 3.32820E+05 8.77140E+04-1.00351E+04 3.20870E-09-1.78011E-09
 -1        90-4.07007E+04 2.86771E+05 9.96964E+04 1.50503E+03 2.36469E-09 2.39820E-09
 -1        91-1.30412E+06-1.64154E+05-1.44368E+04-4.55569E+05-1.72349E-08-2.18188E-09
 -1        92-1.12378E+06-2.33555E+05 9.21211E+03-5.30929E+05-1.35351E-08 1.09640E-09
 -1        93-1.29556E+06-1.27011E+05-2.21480E+03-4.10178E+05 1.07980E-08-6.01062E-10
 -1        94-1.13580E+06-2.68790E+05 1.69146E+03-5.79040E+05-2.23608E-09 2.50873E-09
 -1        95-1.29528E+06-1.26502E+05-1.39067E+03-4.09755E+05-1.21076E-08-5.14910E-09
 -1        96-1.12479E+06-2.36043E+05 1.02548E+04-5.32109E+05 2.18145E-08-7.82029E-09
 -1        97-1.30347E+06-1.62118E+05-1.01439E+04-4.54869E+05 4.14730E-10-8.52378E-09
 -1        98-1.15339E+06-1.61299E+05 1.88512E+04-4.36778E+05 1.25428E-08 6.03598E-09
 -1        99-1.26355E+06-2.03608E+05-1.08709E+04-5.02609E+05 5.88443E-09 2.10480E-09
 -1       100-1.26244E+06-9.59100E+04 9.64792E+03-3.70339E+05-2.06940E-08-1.19412E-08
 -1       101-1.19742E+06-2.25228E+05-3.90421E+03-5.23517E+05 1.36356E-09-3.87217E-09
 -1       102-1.33628E+06-7.32691E+04-4.27816E+03-3.50999E+05 1.46843E-08 1.59517E-08
 -1       103-1.19288E+06-2.23875E+05-1.15347E+04-5.24517E+05-2.31985E-08 1.25647E-09
 -1       104-1.28163E+06-1.10679E+05-1.98661E+04-3.64138E+05-2.68483E-08 1.86842E-08
 -1       105-1.24929E+06-1.89970E+05-5.51978E+04-5.08085E+05-2.09511E-08 1.14233E-09
 -1       106-7.86436E+05-5.66123E+03 1.32655E+04-5.54715E-09-9.21537E-10-7.76708E-10
 -1       107-7.80638E+05 6.55949E+03 9.35366E+03-1.78301E-07 5.48163E-10-3.86035E-09
 -1       108-7.84226E+05-8.76827E+02 3.42501E+03-9.24072E-08-1.51968E-10-3.66185E-09
 -1       109-7.83214E+05 1.01404E+03 2.12966E+03-1.74489E-07 5.63935E-11-1.54179E-09
 -1       110-7.83864E+05-1.34207E+02 8.42459E+02-5.28100E-08-1.29550E-10 1.77806E-09
 -1       111-7.83642E+05 1.48197E+02 4.38444E+02 9.93561E-08-5.78791E-11 4.85511E-09
 -1       112-7.83799E+05-1.36073E+01 9.51485E+01 7.40357E-08 2.01337E-10 3.63016E-10
 -1       113-7.83740E+05-3.02626E+01-1.53279E+02 4.68433E-08-5.53967E-10 3.24117E-09
 -1       114-7.83765E+05 4.38197E+01-4.43939E+02 6.47088E-08-2.28505E-10 3.81476E-10
 -1       115-7.83914E+05-3.50839E+02-1.11531E+03 3.61311E-08-4.00527E-10-5.26620E-09
 -1       116-7.83627E+05 3.06146E+02-1.96662E+03-7.73258E-08-8.07347E-11-2.58706E-09
 -1       117-7.84873E+05-2.30086E+03-4.85714E+03-4.84615E-08-1.16869E-09-3.50633E-09
 -1       118-7.82808E+05 1.98793E+03-7.77751E+03 1.53178E-08-6.51104E-10-3.58750E-09
 -1       119-7.90712E+05-1.48695E+04-2.12097E+04-5.43013E-08-9.25348E-10-3.67254E-09
 -1       120-7.77796E+05 1.28336E+04-3.00675E+04 4.15622E-09-1.44727E-10-1.51158E-09
 -1       121-1.47104E+03-8.69558E+05 6.01369E+03 6.02442E+03-4.88399E-10 9.18362E-10
 -1       122 1.95863E+03-8.67206E+05 4.02142E+03 2.61656E+04-2.21917E-10 1.10776E-09
 -1       123-2.17667E+02-8.68667E+05 1.86641E+03 6.20353E+03-1.64960E-09 2.77396E-10
 -1       124 6.02118E+02-8.67895E+05 1.72594E+03 2.56860E+04-1.06218E-09-2.41812E-09
 -1       125-4.17319E+02-8.68760E+05 1.67351E+03 6.50401E+03-3.39674E-09-2.76486E-10
 -1       126-7.60384E+05-1.08800E+05 5.72002E+03-2.83704E+05 2.65231E-10 1.77624E-09
 -1       127-7.55820E+05-1.05039E+05 3.96391E+03-2.86325E+05 9.34534E-10-6.33690E-10
 -1       128-7.59501E+05-1.06467E+05 1.33606E+03-2.83753E+05 8.94261E-10 2.26811E-09
 -1       129-7.56856E+05-1.07736E+05 8.23997E+02-2.86264E+05-4.08157E-10 1.53914E-09
 -1       130-7.59351E+05-1.06108E+05 2.89559E+02-2.83763E+05-2.21203E-10-3.87223E-09
 -1       131-7.57257E+05-1.07928E+05 1.32328E+02-2.85986E+05 1.99714E-09 6.80842E-10
 -1       132-7.59100E+05-1.06276E+05-2.21624E+01-2.84030E+05 2.96161E-10-2.69817E-09
 -1       133-7.57944E+05-1.07401E+05-1.75718E+02-2.85240E+05-1.02456E-09-5.35224E-09
 -1       134-7.58664E+05-1.06636E+05-3.88708E+02-2.84509E+05 3.62249E-10 4.53724E-10
 -1       135-7.58995E+05-1.06880E+05-9.93319E+02-2.84210E+05-5.60483E-10 2.22791E-09
 -1       136-7.58049E+05-1.06798E+05-1.74821E+03-2.85060E+05-3.01014E-10-2.71712E-11
 -1       137-7.60985E+05-1.08201E+05-4.69249E+03-2.82983E+05-2.45723E-09 3.89855E-09
 -1       138-7.56677E+05-1.05320E+05-7.55429E+03-2.85735E+05-4.21778E-10-1.49203E-09
 -1       139-7.68999E+05-1.21134E+05-2.23176E+04-2.80055E+05 6.39261E-10-1.71144E-09
 -1       140-7.50049E+05-9.39009E+04-3.22332E+04-2.87978E+05-2.09184E-11-2.83762E-10
 -1       141-3.42935E+05-3.89089E+03 9.11610E+03 5.23867E-08-3.79077E-11-1.59298E-09
 -1       142-3.38967E+05 4.50798E+03 6.42409E+03-5.02710E-09 5.00972E-10 2.25668E-10
 -1       143-3.41414E+05-6.02408E+02 2.34307E+03-4.58146E-08-1.56566E-10 6.37783E-10
 -1       144-3.40739E+05 6.95095E+02 1.43928E+03-4.05886E-08-2.03428E-10-2.47906E-09
 -1       145-3.41164E+05-9.06150E+01 5.31271E+02 9.48295E-09-3.42143E-11 1.34534E-09
 -1       146-3.41040E+05 8.92785E+01 1.98918E+02-5.09515E-08 2.48625E-11 1.81637E-09
 -1       147-3.41113E+05 1.59617E+00-1.27402E+02-8.92322E-08-6.67075E-11 1.89021E-09
 -1       148-3.41151E+05-1.04229E+02-5.28380E+02-1.32084E-08-5.21662E-10-7.16071E-10
 -1       149-3.41054E+05 1.02459E+02-1.07497E+03 9.22478E-08-4.92244E-10-4.66684E-10
 -1       150-3.41518E+05-7.87205E+02-2.53169E+03 1.31694E-08-2.11777E-10-2.61480E-09
 -1       151-3.40747E+05 6.82807E+02-4.40540E+03-3.76202E-08 3.80148E-11-1.32309E-09
 -1       152-3.43651E+05-5.12696E+03-1.08368E+04 3.74141E-08 2.99867E-10-1.13573E-09
 -1       153-3.38922E+05 4.42911E+03-1.73391E+04-2.11622E-08 1.16845E-09-1.31149E-09
 -1       154-3.56656E+05-3.31283E+04-4.72641E+04 3.63538E-08 3.38931E-10-5.01132E-10
 -1       155-3.27744E+05 2.85931E+04-6.69879E+04-7.45255E-08 2.41308E-09 1.54250E-09
 -1       156-1.06014E+04-1.74648E+05 2.56343E+04-8.89971E+02-8.18545E-12-1.73625E-09
 -1       157 1.40609E+04-1.62992E+05 2.12948E+04 3.89621E+03 4.54747E-12-8.11305E-10
 -1       158-3.41431E+03-1.71373E+05 1.32066E+04-8.54311E+02 1.58593E-11 2.61605E-09
 -1       159 1.54310E+04-1.62319E+05 2.30988E+04 3.72710E+03 3.84489E-10 3.15053E-09
 -1       160-1.19693E+04-1.75317E+05 2.87272E+04-7.20841E+02 3.63798E-10 1.06886E-09
 -1       161-4.14720E+05-5.72555E+04-2.47431E+03-1.55799E+05-5.85885E-10 1.39266E-10
 -1       162-4.15505E+05-5.99752E+04-1.71671E+03-1.55907E+05-5.72719E-10 5.42173E-10
 -1       163-4.15248E+05-5.81097E+04-5.90296E+02-1.55602E+05-1.63169E-10 5.68321E-10
 -1       164-4.14909E+05-5.89717E+04-3.84730E+02-1.56115E+05 2.80453E-10 1.01612E-09
 -1       165-4.15316E+05-5.82561E+04-1.82258E+02-1.55591E+05-4.68301E-10-6.36533E-10
 -1       166-4.14883E+05-5.87745E+04-1.87729E+02-1.56077E+05-1.05791E-10-1.65897E-10
 -1       167-4.15274E+05-5.83066E+04-2.41782E+02-1.55641E+05-6.58517E-10-7.39711E-10
 -1       168-4.15054E+05-5.87519E+04-5.19455E+02-1.55936E+05-2.18392E-10 3.41174E-09
 -1       169-4.15145E+05-5.82790E+04-9.29619E+02-1.55732E+05-4.60076E-10 1.72497E-09
 -1       170-4.15655E+05-5.93369E+04-2.31473E+03-1.55645E+05 5.39444E-10 2.28457E-09
 -1       171-4.14673E+05-5.77233E+04-4.01584E+03-1.55931E+05-4.88285E-10-8.89713E-10
 -1       172-4.18617E+05-6.39313E+04-1.07768E+04-1.54621E+05-1.20292E-09 2.79215E-10
 -1       173-4.12187E+05-5.36967E+04-1.73314E+04-1.56753E+05 7.98764E-10-1.83718E-10
 -1       174-4.36209E+05-9.43462E+04-5.11911E+04-1.48763E+05 4.29100E-09 1.38243E-10
 -1       175-3.97097E+05-2.73891E+04-7.39165E+04-1.61760E+05 8.37281E-09-1.87720E-09
 -1       191 1.52670E+03 4.38651E+05 2.52323E+03-1.39176E+04-1.00044E-10 1.41881E-09
 -1       192 5.47360E+02 4.39030E+05 1.51019E+03-1.50125E+04-7.21002E-10 1.49612E-09
 -1       193 2.44266E+02 4.38770E+05 1.21143E+03-1.37130E+04-2.91038E-11 1.12959E-09
 -1       194 7.24036E+02 4.39072E+05 1.82900E+03-1.53902E+04-1.41972E-09-4.19732E-09
 -1       195 2.07219E+03 4.38563E+05 3.31582E+03-1.35378E+04 5.82077E-11 3.84716E-10
 -1       251-1.62437E+06 3.00443E+04-8.28073E+04-3.17350E+04-5.00222E-12-3.06318E-09
 -1       252-1.61683E+06-3.44491E+04-5.03229E+04 9.33182E+04-1.73270E-09 2.30830E-09
 -1       253-1.61706E+06 4.31328E+03-2.03897E+04-6.19686E+04-6.62362E-09-3.45972E-09
 -1       254-1.61908E+06-2.82356E+03-1.14449E+04 1.17972E+05-7.21704E-09 3.36581E-09
 -1       255-1.62372E+06-1.43961E+02-6.36262E+03-5.64236E+04-9.24274E-10-4.86580E-10
 -1       256-1.58958E+06 1.33629E+03 3.00532E+03 7.43242E+04-6.60725E-09 6.06167E-09
 -1       257-1.64390E+06-1.98766E+03-7.07070E+03-1.82755E+04 7.61747E-09 3.50673E-09
 -1       258-1.57197E+06 1.53853E+03 7.89542E+03-1.27382E+04 2.93494E-09 2.16170E-09
 -1       259-1.63964E+06-1.71838E+03-6.14400E+03 3.06010E+04-7.48059E-10 3.84898E-09
 -1       260-1.59911E+06 1.53614E+03 1.24138E+03-9.23939E+04 1.72575E-08-3.10592E-09
 -1       261-1.61939E+06 1.45014E+02-5.42125E+03 6.13702E+04 1.74184E-08 5.52063E-10
 -1       262-1.61921E+06-2.86332E+03-1.14856E+04-1.18437E+05-1.00065E-08-7.34053E-09
 -1       263-1.62128E+06 4.07723E+03-2.13211E+04 5.66788E+04-1.76738E-09 2.00089E-09
 -1       264-1.60726E+06-3.47312E+04-4.86061E+04-7.59842E+04 2.54608E-08-2.44199E-09
 -1       265-1.62878E+06 2.98041E+04-8.38363E+04 1.88724E+04 5.82986E-09 4.18004E-09
 -1       266-1.92868E+04-2.31994E+05 4.47941E+04-5.08644E+03 4.18368E-11-2.62799E-09
 -1       267 2.10802E+04-2.12144E+05 2.95764E+04 2.50614E+04 6.68479E-11-3.48862E-09
 -1       268-1.83511E+03-2.24470E+05 7.06267E+03-4.40941E+03-1.63709E-11-6.95081E-10
 -1       269-5.29727E+03-2.22434E+05-4.78906E+03 2.28489E+04-2.27374E-12 5.22982E-09
 -1       270 6.86572E+03-2.21522E+05-1.56200E+04-2.87614E+03 9.00400E-11 6.86646E-09
 -1       271-2.88112E+06-3.60091E+05-2.25581E+05-1.11634E+06-4.14730E-10-3.88536E-09
 -1       272-2.95912E+06-5.15491E+05-1.43331E+05-1.11822E+06-4.45652E-10-3.83261E-09
 -1       273-2.92187E+06-4.12653E+05-5.32286E+04-1.10846E+06-7.75572E-10 8.73115E-11
 -1       274-2.91159E+06-4.48942E+05-2.94477E+04-1.13115E+06 1.50544E-09-2.61934E-10
 -1       275-2.92743E+06-4.17629E+05-1.23920E+04-1.10685E+06 1.38425E-09-1.63709E-09
 -1       276-2.90493E+06-4.42928E+05-6.60072E+03-1.13381E+06-2.93767E-10 5.61840E-10
 -1       277-2.92855E+06-4.17723E+05-3.38518E+03-1.10621E+06 2.06910E-11 3.60035E-09
 -1       278-2.90375E+06-4.42847E+05-2.69718E+03-1.13467E+06 3.86308E-10-2.42488E-09
 -1       279-2.92868E+06-4.17594E+05-3.25449E+03-1.10607E+06 5.48923E-10 3.44107E-09
 -1       280-2.90445E+06-4.43357E+05-6.25147E+03-1.13442E+06-3.22302E-11-9.09495E-12
 -1       281-2.92784E+06-4.17283E+05-1.16683E+04-1.10644E+06 5.50926E-10 3.64344E-09
 -1       282-2.91038E+06-4.49387E+05-2.77301E+04-1.13236E+06 6.05837E-10 1.09139E-10
 -1       283-2.92278E+06-4.12427E+05-5.00884E+04-1.10776E+06-1.51704E-09 6.07542E-10
 -1       284-2.95482E+06-5.12330E+05-1.34910E+05-1.12055E+06-5.86806E-09 3.66163E-09
 -1       285-2.88456E+06-3.62820E+05-2.12311E+05-1.11503E+06-1.60435E-09 2.27010E-09
 -1       286-5.41737E+05-7.57474E+03 1.76913E+04-9.02050E+02 2.00919E-09-2.01726E-09
 -1       287-5.33675E+05 8.76964E+03 1.25482E+04-9.04698E+02-2.25100E-11 2.28533E-09
 -1       288-5.38776E+05-1.17830E+03 4.56844E+03 2.32059E+02-3.20824E-10 2.84081E-09
 -1       289-5.37176E+05 1.35997E+03 2.91741E+03-3.02471E+03-4.71800E-12-5.09544E-10
 -1       290-5.38246E+05-1.85289E+02 1.18535E+03 1.21801E+03 8.18289E-10-8.85962E-10
 -1       291-5.37844E+05 2.22358E+02 7.56976E+02-4.64027E+03 1.75487E-09-1.08841E-10
 -1       292-5.38119E+05-3.64377E+01 4.19033E+02 1.84764E+03 5.61471E-10 3.34994E-09
 -1       293-5.37982E+05 9.48134E+01 4.42796E+02-5.41350E+03-5.11218E-11 2.62590E-09
 -1       294-5.38116E+05-5.30784E+01 5.82620E+02 1.99126E+03 9.85089E-10 3.19918E-09
 -1       295-5.37812E+05 3.72820E+02 1.21107E+03-5.18508E+03 1.01920E-10 5.00093E-09
 -1       296-5.38286E+05-3.15273E+02 2.02890E+03 1.61921E+03 3.61126E-10-6.42899E-10
 -1       297-5.36741E+05 2.34907E+03 4.98819E+03-4.00266E+03 1.04625E-09 8.30994E-10
 -1       298-5.39175E+05-2.03026E+03 7.91118E+03 8.08820E+02 8.07177E-10-1.35242E-09
 -1       299-5.30697E+05 1.51524E+04 2.16489E+04-2.11892E+03-7.19837E-10 3.93106E-09
 -1       300-5.44313E+05-1.30828E+04 3.06026E+04-2.64588E+02-2.57330E-10 3.63798E-12
 -1       301 3.93833E+04 2.59280E+04 8.42750E+04-2.32536E+04-2.41926E-09 1.55757E-09
 -1       302 1.32831E+04 4.15373E+04 5.07184E+04-2.72049E+04-8.36735E-11-3.47743E-09
 -1       303 3.77060E+03 3.15278E+04 3.93651E+04-2.33018E+04-2.37878E-09-3.46529E-09
 -1       304 1.57055E+04 4.29215E+04 5.70555E+04-2.71823E+04-6.20275E-10-1.07480E-09
 -1       305 4.72698E+04 2.45533E+04 9.96821E+04-2.32608E+04-2.02272E-09 5.92536E-10
 -1       306-2.05457E+06-2.62604E+05-1.42372E+05-7.95773E+05 3.52338E-09-4.80213E-10
 -1       307-2.09305E+06-3.71042E+05-9.04025E+04-8.09025E+05 3.35569E-09-6.45741E-10
 -1       308-2.08041E+06-2.95558E+05-3.36121E+04-7.90683E+05 2.18301E-09 2.07729E-09
 -1       309-2.06304E+06-3.29241E+05-1.85910E+04-8.17430E+05 1.17871E-09 2.07729E-09
 -1       310-2.08397E+06-2.98635E+05-7.84619E+03-7.89637E+05 9.79981E-10 3.19415E-09
 -1       311-2.05889E+06-3.25451E+05-4.20841E+03-8.19160E+05 2.67028E-09 2.71109E-09
 -1       312-2.08465E+06-2.98712E+05-2.22209E+03-7.89270E+05 1.10731E-10 8.91646E-10
 -1       313-2.05827E+06-3.25305E+05-1.88978E+03-8.19587E+05 4.13252E-10-1.45542E-09
 -1       314-2.08464E+06-2.98703E+05-2.43210E+03-7.89268E+05-1.00977E-09 6.57110E-11
 -1       315-2.05896E+06-3.25544E+05-4.79412E+03-8.19162E+05 1.83672E-09 1.31149E-09
 -1       316-2.08390E+06-2.98556E+05-9.02237E+03-7.89635E+05 4.86807E-10-2.75577E-10
 -1       317-2.06364E+06-3.30065E+05-2.14473E+04-8.17354E+05 1.30967E-10 3.87399E-09
 -1       318-2.07989E+06-2.94899E+05-3.87786E+04-7.90733E+05 1.67347E-09 4.53474E-09
 -1       319-2.09807E+06-3.78557E+05-1.04345E+05-8.07964E+05-5.13410E-10-1.62800E-09
 -1       320-2.05021E+06-2.56691E+05-1.64288E+05-7.96436E+05 1.80989E-09 2.46655E-09
 -1       321-4.08774E+05-1.82806E+04 4.28313E+04-3.81901E+02-1.70476E-09-2.40107E-10
 -1       322-3.90125E+05 2.11790E+04 3.02299E+04-8.59308E+02-1.98338E-09-9.44056E-10
 -1       323-4.01630E+05-2.83312E+03 1.10802E+04 8.47773E+01-3.22274E-10 1.04774E-09
 -1       324-3.98461E+05 3.27771E+03 6.94458E+03-1.73359E+03 4.35385E-10 3.84136E-09
 -1       325-4.00450E+05-4.37710E+02 2.82514E+03 4.92447E+02 1.30186E-10 1.06274E-09
 -1       326-3.99854E+05 5.07054E+02 1.65182E+03-2.41490E+03-2.68088E-10 3.00577E-09
 -1       327-4.00242E+05-6.87239E+01 7.39979E+02 7.66103E+02-4.18979E-10-5.27081E-10
 -1       328-4.00099E+05 9.10761E+01 4.56993E+02-2.78547E+03 1.53015E-10 5.89075E-10
 -1       329-4.00208E+05-2.12423E+01 2.97198E+02 8.63024E+02 2.65269E-10-9.15694E-10
 -1       330-4.00100E+05 9.70565E+01 3.68000E+02-2.78740E+03-1.70299E-10-8.34572E-10
 -1       331-4.00241E+05-7.46336E+01 5.14608E+02 7.68036E+02 4.59863E-11 1.50780E-09
 -1       332-3.99857E+05 5.49789E+02 1.18535E+03-2.42039E+03 1.23357E-10-2.01474E-09
 -1       333-4.00449E+05-4.74141E+02 1.85785E+03 4.96003E+02-3.84460E-10-3.70562E-09
 -1       334-3.98438E+05 3.53910E+03 5.06230E+03-1.74225E+03-8.73399E-11 1.62692E-09
 -1       335-4.01656E+05-3.05627E+03 7.14717E+03 8.98822E+01-1.04987E-09 1.70394E-09
 -1       336-2.34283E+02-8.69706E+05-4.25859E+02-6.43132E+03-4.91423E-09 1.66801E-09
 -1       337-6.24980E+02-8.70086E+05-3.97695E+03-3.25301E+04-3.43940E-09-4.21414E-09
 -1       338 8.97744E+02-8.68881E+05-8.65661E+03-6.25142E+03-5.31691E-09-4.04270E-10
 -1       339-1.12935E+04-8.76361E+05-2.24681E+04-3.27342E+04-3.54021E-09 3.21538E-09
 -1       340 8.65519E+03-8.63502E+05-3.51501E+04-6.23017E+03-5.46424E-09 2.59632E-09
 -1       341-1.21416E+06-1.67436E+05-4.53119E+04-4.78738E+05 3.88354E-10-1.43700E-09
 -1       342-1.26455E+06-1.58663E+05-2.79992E+04-4.16498E+05 1.94632E-10-3.07500E-09
 -1       343-1.20402E+06-1.92692E+05-1.03208E+04-4.86829E+05-5.93627E-09-1.23146E-08
 -1       344-1.27176E+06-1.31583E+05-5.91799E+03-4.10196E+05 8.08336E-09-3.80442E-09
 -1       345-1.20744E+06-1.94086E+05-2.78174E+03-4.85451E+05 1.30331E-09-4.27463E-10
 -1       346-1.24713E+06-1.42148E+05 7.29602E+02-4.23794E+05 9.01230E-09 7.47883E-09
 -1       347-1.22799E+06-1.82617E+05-2.95753E+03-4.72715E+05 6.06406E-10 1.35742E-09
 -1       348-1.20895E+06-1.72105E+05 2.61578E+03-4.56751E+05-4.88478E-09 1.88658E-09
 -1       349-1.24507E+06-1.64539E+05-3.56980E+03-4.52084E+05 1.37243E-09 3.23951E-10
 -1       350-1.18808E+06-2.04322E+05-1.97569E+03-4.94076E+05-3.58432E-08-1.35738E-08
 -1       351-1.24951E+06-1.49918E+05-6.95057E+03-4.35887E+05-1.35917E-08-1.84127E-09
 -1       352-1.18832E+06-2.24860E+05-1.76558E+04-5.08886E+05 4.37259E-08-4.57840E-09
 -1       353-1.24541E+06-1.43591E+05-2.93569E+04-4.37698E+05 8.13543E-09-7.39601E-09
 -1       354-1.22262E+06-2.61262E+05-8.35679E+04-4.81117E+05-2.23190E-08-6.62112E-10
 -1       355-1.21463E+06-1.14128E+05-1.26111E+05-4.63152E+05-5.50972E-09 0.00000E+00
 -1       356-4.23622E+05-2.20803E+03 5.16526E+03-2.38162E+02 5.87207E-10-1.68188E-09
 -1       357-4.21317E+05 2.55709E+03 3.64302E+03-4.56192E+02-1.70733E-10 1.07565E-09
 -1       358-4.22758E+05-3.42026E+02 1.31751E+03 3.26445E+01-3.09370E-10-1.11055E-09
 -1       359-4.22330E+05 3.92717E+02 8.00073E+02-9.57547E+02 3.08077E-10-5.00756E-09
 -1       360-4.22611E+05-5.03564E+01 2.63185E+02 2.63206E+02-4.90040E-10 1.03853E-10
 -1       361-4.22516E+05 4.10226E+01 3.54965E+01-1.34050E+03-1.47680E-09-4.14062E-10
 -1       362-4.22573E+05 9.28513E+00-2.20393E+02 4.15608E+02-4.35431E-10 4.04464E-09
 -1       363-4.22618E+05-1.22866E+02-6.23733E+02-1.54209E+03 6.36335E-11 1.84214E-09
 -1       364-4.22509E+05 1.13632E+02-1.19965E+03 4.64798E+02 9.18804E-10 6.11578E-10
 -1       365-4.23015E+05-8.65028E+02-2.78860E+03-1.52947E+03-1.13857E-09-4.86125E-10
 -1       366-4.22176E+05 7.49496E+02-4.83972E+03 4.02981E+02 1.51651E-10 3.96881E-09
 -1       367-4.25349E+05-5.62686E+03-1.18934E+04-1.30392E+03 4.88566E-10 1.97565E-09
 -1       368-4.20178E+05 4.86061E+03-1.90306E+04 2.39250E+02 1.27620E-09 2.20462E-09
 -1       369-4.39613E+05-3.63574E+04-5.18673E+04-8.93186E+02 3.63002E-10 4.03816E-10
 -1       370-4.07915E+05 3.13797E+04-7.35174E+04-7.72665E+00 3.31995E-09 2.43017E-09
 -1       371-1.12201E+04-1.84580E+05 2.55400E+04 3.48930E+03 1.03500E-09 1.44979E-09
 -1       372 1.15369E+04-1.73803E+05 1.53248E+04-1.45300E+04 2.10275E-09 1.95915E-09
 -1       373-2.58122E+02-1.79364E+05 9.96225E+02 3.65308E+03 1.79898E-09-2.80190E-09
 -1       374-9.22663E+03-1.83383E+05-1.19243E+04-1.44290E+04 1.55023E-09 7.32037E-10
 -1       375 9.46979E+03-1.74997E+05-2.15131E+04 3.38825E+03 1.36242E-09 2.91374E-09
 -1       376-7.27057E+05-9.11792E+04-2.99526E+04-2.78469E+05 1.87265E-09-3.10501E-09
 -1       377-7.43264E+05-1.17860E+05-2.07399E+04-2.72678E+05 2.12867E-09-1.48043E-09
 -1       378-7.33442E+05-1.01563E+05-7.03448E+03-2.76127E+05 1.13539E-09-4.75211E-10
 -1       379-7.35604E+05-1.06075E+05-4.39097E+03-2.75662E+05-1.21568E-09 6.78688E-09
 -1       380-7.34705E+05-1.02930E+05-1.68534E+03-2.75494E+05-3.48734E-10 3.59154E-09
 -1       381-7.34008E+05-1.04655E+05-1.06933E+03-2.76557E+05-3.45183E-10-2.02355E-09
 -1       382-7.35036E+05-1.02977E+05-6.30791E+02-2.75233E+05-3.59273E-10 1.28175E-10
 -1       383-7.33709E+05-1.04709E+05-8.17123E+02-2.76832E+05 6.95977E-10-5.40645E-10
 -1       384-7.35005E+05-1.02875E+05-1.21091E+03-2.75220E+05 6.39730E-10-6.61203E-10
 -1       385-7.34370E+05-1.05426E+05-2.86521E+03-2.76532E+05-4.35051E-10 1.12391E-09
 -1       386-7.34376E+05-1.02263E+05-4.91935E+03-2.75533E+05-2.50566E-10-6.82121E-13
 -1       387-7.38224E+05-1.10780E+05-1.31632E+04-2.74995E+05-1.23606E-09-1.74055E-09
 -1       388-7.31157E+05-9.75361E+04-2.11630E+04-2.76753E+05 1.73259E-09 2.62935E-09
 -1       389-7.60135E+05-1.47494E+05-6.25045E+04-2.67351E+05 5.41513E-09 2.64663E-10
 -1       390-7.12494E+05-6.56491E+04-9.02520E+04-2.83145E+05 9.66611E-09-1.33514E-09
 -1       406 1.68076E+03 4.31611E+05 3.29066E+03-4.86775E+04-6.36646E-11 4.91582E-09
 -1       407 9.13755E+02 4.32175E+05 3.35192E+03-5.37014E+04-2.89015E-09 5.14774E-09
 -1       408 1.17806E+03 4.31576E+05 4.98617E+03-4.85230E+04 6.86668E-11 9.60335E-09
 -1       409 4.63548E+03 4.33454E+05 1.03691E+04-5.38996E+04-3.02316E-09 2.13015E-08
 -1       410 1.33945E+04 4.30243E+05 2.07177E+04-4.84669E+04 8.18545E-11 1.01300E-08
 -1       466 1.13220E+06-4.50053E+04 1.03691E+05 1.96025E+04-2.48065E-10-6.92671E-09
 -1       467 1.18792E+06 5.17201E+04 7.49997E+04-3.81094E+04 6.34373E-10 1.17871E-09
 -1       468 1.15317E+06-6.86406E+03 2.69486E+04 8.14806E+03-4.96470E-10-9.24047E-10
 -1       469 1.16291E+06 7.87078E+03 1.72707E+04-2.11081E+04 3.18551E-10-1.90630E-09
 -1       470 1.15684E+06-1.04156E+03 7.05406E+03 2.59965E+03-1.44667E-10-2.13640E-09
 -1       471 1.15851E+06 1.24810E+03 4.43539E+03-1.29887E+04-8.54641E-11-1.27528E-09
 -1       472 1.15748E+06-1.94999E+02 2.49418E+03 2.84262E+01-1.13937E-09 1.56496E-09
 -1       473 1.15787E+06 5.22917E+02 2.61978E+03-9.55014E+03-7.09633E-10-2.05830E-09
 -1       474 1.15746E+06-3.02091E+02 3.45847E+03-8.38977E+02-1.47871E-09 8.11383E-10
 -1       475 1.15872E+06 2.18080E+03 7.15197E+03-9.09497E+03 1.33150E-09 1.39380E-09
 -1       476 1.15662E+06-1.84677E+03 1.20780E+04-4.26724E+02 1.70439E-09 1.80307E-09
 -1       477 1.16462E+06 1.38874E+04 2.94586E+04-1.14037E+04-1.08544E-09-1.50249E-09
 -1       478 1.15156E+06-1.19817E+04 4.69916E+04 1.46986E+03 4.17799E-11 3.37968E-09
 -1       479 1.20050E+06 8.96856E+04 1.28157E+05-1.77296E+04 1.74055E-09-5.49880E-09
 -1       480 1.12077E+06-7.74220E+04 1.81374E+05 5.89854E+03 2.60081E-09-1.01863E-09
 -1       481-9.65722E+03 2.07112E+05 2.06401E+04-1.19635E+04-8.27640E-11-7.23048E-11
 -1       482 1.11012E+04 2.27440E+05 1.72249E+04 4.41462E+04-2.28511E-10 5.41070E-09
 -1       483-1.78267E+03 2.14254E+05 6.96222E+03-9.83978E+03 2.63753E-11 2.72473E-09
 -1       484 4.71797E+03 2.19412E+05 8.09936E+03 4.14243E+04 1.28118E-10-3.33927E-10
 -1       485-2.96830E+03 2.14675E+05 7.71323E+03-9.23845E+03 9.66338E-11-6.72884E-11
 -1       486-1.06324E+06-1.52751E+05-1.10783E+05-4.62797E+05 8.80391E-10-9.37871E-09
 -1       487-1.16392E+06-1.06070E+05-6.16534E+04-2.92525E+05 5.55656E-09 1.38725E-08
 -1       488-1.02740E+06-1.99668E+05-2.38582E+04-4.67164E+05-1.94177E-09 8.15544E-09
 -1       489-1.17970E+06-5.60869E+04-1.22030E+04-2.93110E+05-5.02598E-09 1.17761E-08
 -1       490-1.04922E+06-2.01313E+05-8.53579E+03-4.63721E+05 4.35921E-09 1.25915E-08
 -1       491-1.08599E+06-7.88263E+04 1.07875E+04-3.14000E+05 5.25711E-09 5.95492E-09
 -1       492-1.11703E+06-1.79894E+05-1.35377E+04-4.42999E+05 1.01682E-08-1.63618E-09
 -1       493-9.81036E+05-1.41736E+05 2.04985E+04-3.78299E+05 1.53268E-08 3.72438E-09
 -1       494-1.15133E+06-1.40526E+05-1.23694E+04-3.97406E+05 1.06038E-08-1.12263E-08
 -1       495-9.62743E+05-2.13397E+05 9.03383E+03-4.70593E+05-6.82621E-09-2.61899E-08
 -1       496-1.13883E+06-1.05647E+05-6.47326E+03-3.53462E+05-3.49155E-09-1.39105E-08
 -1       497-9.83722E+05-2.52794E+05-1.05257E+04-5.20097E+05-2.64411E-08-4.54202E-09
 -1       498-1.13400E+06-9.84269E+04-2.11509E+04-3.50489E+05-1.03597E-08 3.99150E-08
 -1       499-9.87827E+05-2.59539E+05-4.92643E+04-4.75440E+05-7.40283E-09 6.41830E-09
 -1       500-1.13190E+06-1.01132E+05-9.73996E+04-3.96071E+05 1.35578E-08-3.20870E-09
 -1       501-4.10052E+05-1.85820E+04 4.34615E+04-1.43027E+02 1.04421E-09 1.45519E-11
 -1       502-3.90693E+05 2.15194E+04 3.07521E+04-2.78693E+03 1.04009E-10 3.76031E-09
 -1       503-4.02746E+05-2.88335E+03 1.12301E+04 8.46180E+02 1.81672E-10-1.45519E-10
 -1       504-3.99284E+05 3.33384E+03 7.08037E+03-4.54806E+03 2.53465E-10 2.69392E-09
 -1       505-4.01484E+05-4.47235E+02 2.86092E+03 1.61818E+03 6.22350E-10 2.51475E-10
 -1       506-4.00813E+05 5.23372E+02 1.68464E+03-5.73768E+03 2.15430E-09-1.06670E-09
 -1       507-4.01232E+05-7.12708E+01 7.52271E+02 2.03582E+03 9.16842E-10 1.56192E-09
 -1       508-4.01099E+05 1.02614E+02 4.65181E+02-6.15252E+03-3.18479E-10 1.14770E-09
 -1       509-4.01204E+05-2.33971E+01 3.02358E+02 2.03304E+03 1.11483E-09 1.96504E-09
 -1       510-4.01038E+05 1.07189E+02 3.88628E+02-5.72691E+03 9.29425E-10 2.26039E-09
 -1       511-4.01287E+05-8.00826E+01 5.17086E+02 1.61020E+03 4.52303E-10 1.48646E-09
 -1       512-4.00664E+05 5.69682E+02 1.25274E+03-4.52665E+03 1.19653E-09-2.41022E-09
 -1       513-4.01564E+05-4.94699E+02 1.88502E+03 8.32745E+02-1.85253E-10 2.44052E-09
 -1       514-3.99090E+05 3.65138E+03 5.26271E+03-2.73862E+03-6.60862E-10 3.90224E-09
 -1       515-4.02847E+05-3.16167E+03 7.31332E+03-1.77837E+02-5.70935E-10 1.98634E-09
 -1       516-4.32994E+04 2.11392E+05 1.00976E+05 1.97210E+04 6.43922E-09 4.80100E-09
 -1       517 5.29312E+04 2.60586E+05 7.65749E+04-9.20915E+04 9.91986E-09 1.01044E-08
 -1       518-8.95648E+03 2.29208E+05 3.52313E+04 1.90210E+04 6.08725E-09 4.99176E-09
 -1       519 2.76807E+04 2.56769E+05 4.45441E+04-9.42899E+04 9.03640E-09-4.81123E-10
 -1       520-1.86495E+04 2.15937E+05 4.12438E+04 2.19171E+04-1.95178E-09 3.41061E-10
 -1       521-2.70193E+06-3.41586E+05-1.93956E+05-1.04455E+06-1.76442E-09 7.27596E-11
 -1       522-2.76292E+06-4.81120E+05-1.23209E+05-1.05305E+06-3.00020E-10-6.53563E-09
 -1       523-2.73705E+06-3.86649E+05-4.57656E+04-1.03768E+06 5.12927E-10 2.71211E-09
 -1       524-2.72204E+06-4.24002E+05-2.53181E+04-1.06431E+06-2.91266E-10 1.13369E-09
 -1       525-2.74185E+06-3.90911E+05-1.06534E+04-1.03629E+06-1.02409E-09-4.69754E-10
 -1       526-2.71639E+06-4.18759E+05-5.67904E+03-1.06653E+06 2.51998E-09 2.35195E-09
 -1       527-2.74273E+06-3.91066E+05-2.91486E+03-1.03583E+06 3.67891E-10-3.11843E-10
 -1       528-2.71558E+06-4.18477E+05-2.33360E+03-1.06701E+06-2.54408E-10 3.29862E-10
 -1       529-2.74270E+06-3.91106E+05-2.82981E+03-1.03587E+06-7.57609E-10-1.59685E-09
 -1       530-2.71649E+06-4.18591E+05-5.44007E+03-1.06637E+06 8.82665E-10 1.09685E-09
 -1       531-2.74176E+06-3.91050E+05-1.01737E+04-1.03641E+06 2.91948E-10-6.11180E-10
 -1       532-2.72204E+06-4.23410E+05-2.41502E+04-1.06402E+06 6.74845E-10 1.40517E-10
 -1       533-2.73709E+06-3.87092E+05-4.36522E+04-1.03784E+06 2.48974E-11-8.00355E-10
 -1       534-2.76123E+06-4.77664E+05-1.17499E+05-1.05303E+06 2.61934E-10 2.49929E-09
 -1       535-2.70348E+06-3.44241E+05-1.84980E+05-1.04452E+06-1.15688E-09-1.38243E-09
 -1       536 9.77220E+04-1.33208E+04 5.40320E+04-5.83983E+03-3.36513E-11 3.63798E-11
 -1       537 1.17688E+05 1.74825E+04 3.48603E+04-2.56778E+04-1.61663E-09-3.32284E-09
 -1       538 1.05923E+05-1.44857E+03 1.39949E+04-5.79334E+03-5.62977E-10 2.92857E-10
 -1       539 1.08389E+05 1.74760E+03 7.86871E+03-2.56993E+04 1.02864E-09-2.09548E-09
 -1       540 1.06863E+05-1.77215E+02 3.53322E+03-5.81366E+03 1.22373E-09-1.77329E-09
 -1       541 1.07222E+05 1.69415E+02 1.87947E+03-2.56591E+04-1.11868E-10 1.72781E-09
 -1       542 1.06978E+05-2.45523E+01 8.92836E+02-5.83367E+03 1.87151E-09 1.39232E-09
 -1       543 1.07025E+05 2.79585E+01 4.79830E+02-2.56286E+04 5.50199E-09 1.65909E-09
 -1       544 1.06991E+05-3.33346E-01 2.63518E+02-5.84420E+03 2.66607E-09-1.01807E-10
 -1       545 1.06989E+05 2.76718E+01 2.03522E+02-2.56169E+04 1.23308E-10 1.25709E-09
 -1       546 1.06988E+05-3.85533E+00 2.25949E+02-5.84542E+03 6.41194E-11 8.39066E-10
 -1       547 1.07049E+05 9.90989E+01 4.07710E+02-2.56205E+04 2.29306E-10-1.63419E-09
 -1       548 1.06948E+05-7.11432E+01 6.85706E+02-5.84057E+03-7.49878E-10-1.48442E-09
 -1       549 1.07536E+05 8.43605E+02 1.68788E+03-2.55942E+04-2.06569E-10 6.37328E-10
 -1       550 1.06560E+05-6.59018E+02 2.59512E+03-5.87179E+03-9.54969E-12-2.02817E-10
 -1       551 1.30238E+04-2.62993E+05 2.63822E+04-4.01422E+05-5.05679E-10-1.12414E-09
 -1       552 6.52405E+03-2.58766E+05 2.00158E+04-4.67898E+05-1.65892E-09 5.74801E-10
 -1       553 4.20831E+03-2.62540E+05 2.23052E+04-4.00757E+05-7.74889E-10 4.30646E-10
 -1       554 1.46896E+04-2.54398E+05 4.10703E+04-4.68022E+05-1.06229E-09 6.32099E-11
 -1       555 3.94282E+04-2.67931E+05 7.75775E+04-4.01228E+05-6.23913E-10-2.67391E-09
 -1       556-2.07689E+05-1.06873E+05 1.58782E+04-1.91486E+05 4.19823E-09 8.03630E-09
 -1       557-1.92422E+05-1.23611E+05 7.79967E+03-2.03640E+05-2.41016E-09 1.52136E-09
 -1       558-2.08181E+05-1.12223E+05 3.26661E+03-1.88325E+05-1.96815E-09 2.98860E-09
 -1       559-1.93966E+05-1.26240E+05 1.60720E+03-2.04287E+05 1.90448E-09-1.92586E-09
 -1       560-2.08460E+05-1.12229E+05 7.06704E+02-1.88340E+05 7.27596E-10 1.61390E-09
 -1       561-1.94354E+05-1.26253E+05 3.34211E+02-2.04571E+05-1.52795E-10 1.67915E-09
 -1       562-2.08667E+05-1.12092E+05 1.09358E+02-1.88476E+05 1.40426E-09 8.55334E-09
 -1       563-1.94559E+05-1.26165E+05-2.50307E+01-2.04718E+05 1.73441E-09 8.09086E-09
 -1       564-2.08779E+05-1.12009E+05-1.89318E+02-1.88557E+05 3.05681E-09 4.44834E-09
 -1       565-1.94669E+05-1.26124E+05-4.69232E+02-2.04785E+05 2.61025E-10 1.54523E-09
 -1       566-2.08777E+05-1.11979E+05-1.00064E+03-1.88572E+05 2.19563E-09 7.99537E-09
 -1       567-1.94841E+05-1.26237E+05-2.21358E+03-2.04757E+05-2.15095E-10 1.27147E-09
 -1       568-2.08582E+05-1.12358E+05-4.55669E+03-1.88373E+05 2.52840E-10 2.01908E-09
 -1       569-1.97260E+05-1.29085E+05-1.07506E+04-2.03986E+05-1.66438E-10 1.34969E-09
 -1       570-2.07626E+05-1.20987E+05-2.20012E+04-1.84712E+05-5.91172E-10-8.82210E-10
 -1       571 2.78637E+05 1.38577E+04 2.15348E+04-7.11741E+04-1.26420E-10-1.31195E-10
 -1       572 2.81951E+05 4.69025E+03 1.05893E+04-7.86152E+04-4.40195E-10 2.68301E-10
 -1       573 2.79967E+05 1.01988E+03 4.71375E+03-7.09715E+04 3.21052E-10-6.10271E-10
 -1       574 2.80347E+05 3.11543E+02 2.36943E+03-7.88344E+04 8.53106E-10 8.93124E-10
 -1       575 2.80100E+05 1.99107E+01 1.12287E+03-7.09465E+04 3.91083E-11 2.86218E-09
 -1       576 2.80134E+05-3.07822E+00 5.75608E+02-7.88624E+04-3.80567E-10 1.25510E-10
 -1       577 2.80118E+05-1.98759E+01 2.90183E+02-7.09434E+04 2.60115E-10 3.10592E-09
 -1       578 2.80116E+05-1.60448E+01 1.70113E+02-7.88658E+04 3.16049E-11 2.27556E-09
 -1       579 2.80145E+05-2.57259E+01 1.25502E+02-7.09431E+04-6.32099E-10-2.28738E-09
 -1       580 2.80158E+05-3.19422E+01 1.52400E+02-7.88624E+04 2.22371E-10-3.74712E-10
 -1       581 2.80192E+05-4.35983E+01 2.45509E+02-7.09467E+04-5.82077E-10 7.48514E-10
 -1       582 2.80269E+05-2.89021E+00 4.94229E+02-7.88211E+04-2.35559E-10 1.16552E-09
 -1       583 2.80237E+05 1.19700E+02 9.65218E+02-7.09844E+04 5.91172E-10-1.11845E-09
 -1       584 2.80690E+05 8.48657E+02 2.16665E+03-7.84918E+04-1.79898E-09 4.23597E-10
 -1       585 2.80050E+05 2.70684E+03 4.39469E+03-7.12792E+04 3.20142E-10-9.54969E-10
 -1       586 2.24396E+03 1.07552E+05 3.97701E+03-1.88181E+05 1.72986E-09-2.21007E-09
 -1       587 1.28389E+03 1.08180E+05 3.80606E+03-2.08467E+05 2.41926E-10-8.34007E-10
 -1       588 1.46336E+03 1.07463E+05 5.40589E+03-1.87944E+05 1.75169E-09 1.83945E-09
 -1       589 5.13560E+03 1.09508E+05 1.10711E+04-2.08516E+05 3.52884E-10 9.46784E-10
 -1       590 1.43694E+04 1.06142E+05 2.20202E+04-1.88127E+05 1.68529E-09 2.48292E-09
 -1       591-1.25054E+05-4.46015E+04-2.35382E+04-6.64441E+04 9.14724E-10-6.34827E-10
 -1       592-1.25537E+05-4.16792E+04-1.15132E+04-7.36898E+04-1.30967E-10 2.39561E-09
 -1       593-1.25698E+05-3.56432E+04-4.88351E+03-7.05013E+04-4.18640E-09-8.88895E-09
 -1       594-1.23038E+05-3.84578E+04-2.38763E+03-7.41582E+04 1.09594E-09 8.83024E-09
 -1       595-1.25813E+05-3.52959E+04-1.09929E+03-7.06902E+04 9.65201E-10 8.16124E-09
 -1       596-1.22849E+05-3.83262E+04-5.58960E+02-7.41474E+04-1.15847E-09 6.98947E-10
 -1       597-1.25836E+05-3.53100E+04-3.07406E+02-7.06926E+04 2.20098E-10-8.23320E-10
 -1       598-1.22830E+05-3.83276E+04-2.51756E+02-7.41397E+04 1.33733E-09 1.01750E-10
 -1       599-1.25833E+05-3.53105E+04-3.26929E+02-7.06913E+04 1.64619E-10-1.18303E-09
 -1       600-1.22847E+05-3.83281E+04-6.10649E+02-7.41447E+04-4.56339E-10-2.83808E-09
 -1       601-1.25802E+05-3.52966E+04-1.20891E+03-7.06857E+04-9.44056E-10-1.50158E-09
 -1       602-1.23053E+05-3.84733E+04-2.63080E+03-7.41511E+04 5.23642E-10 9.14042E-10
 -1       603-1.25670E+05-3.56842E+04-5.38238E+03-7.04771E+04-5.78439E-10 1.19144E-10
 -1       604-1.25819E+05-4.20074E+04-1.26892E+04-7.36118E+04 3.96540E-10 4.76575E-10
 -1       605-1.24939E+05-4.55697E+04-2.59416E+04-6.60190E+04 2.30239E-09 8.05721E-09
 -1       606 8.43589E+04-1.07321E+04-1.66388E+04 2.46334E+04-5.34055E-09-2.70575E-10
 -1       607 8.17506E+04-3.63297E+03-8.17861E+03 2.69465E+04-8.40373E-10 1.66995E-09
 -1       608 8.32689E+04-7.88684E+02-3.64111E+03 2.44628E+04 3.69255E-09 4.22460E-10
 -1       609 8.29252E+04-2.19747E+02-1.82648E+03 2.71317E+04-2.55841E-09-2.03454E-09
 -1       610 8.31210E+04 9.89552E+00-8.63252E+02 2.44413E+04-5.72891E-09-1.45519E-10
 -1       611 8.30522E+04 4.29444E+01-4.35053E+02 2.71547E+04-1.04910E-08 1.99407E-10
 -1       612 8.30857E+04 5.20748E+01-2.07778E+02 2.44389E+04-5.01132E-09 2.21689E-09
 -1       613 8.30582E+04 5.66194E+01-9.74066E+01 2.71575E+04-7.58519E-09 4.08431E-09
 -1       614 8.30688E+04 5.14536E+01-3.24637E+01 2.44383E+04-1.71985E-09-7.28733E-10
 -1       615 8.30518E+04 5.97701E+01 1.60606E+01 2.71578E+04 4.53838E-09-1.81080E-09
 -1       616 8.30564E+04 5.70433E+01 7.13648E+01 2.44386E+04-2.45109E-09-6.06406E-10
 -1       617 8.30582E+04 8.78007E+01 1.72690E+02 2.71569E+04 5.54564E-10 2.55591E-09
 -1       618 8.30372E+04 1.37128E+02 3.53926E+02 2.44390E+04 1.12814E-08 6.76209E-10
 -1       619 8.31709E+04 4.24072E+02 8.01058E+02 2.71538E+04 2.21139E-08 1.18280E-09
 -1       620 8.29291E+04 1.11382E+03 1.63194E+03 2.44400E+04 1.08810E-08 6.43240E-10
 -1       621 2.32860E+03 2.83484E+05 5.48260E+03-2.72231E+04 1.87583E-10-9.86802E-10
 -1       622 8.90509E+02 2.84510E+05 4.39417E+03-3.18585E+04-1.16711E-09 7.35781E-10
 -1       623 5.18913E+02 2.83726E+05 5.24417E+03-2.72548E+04 1.20963E-10-3.65617E-10
 -1       624 3.01319E+03 2.85741E+05 9.96432E+03-3.17171E+04-1.27420E-09-5.40240E-10
 -1       625 9.24505E+03 2.82293E+05 1.90172E+04-2.73620E+04 2.38515E-10-9.66338E-10
 -1       626 1.17715E+05 3.83323E+04-7.92085E+03 8.06346E+04-2.19725E-08 6.63204E-09
 -1       627 1.14274E+05 4.36532E+04-3.76197E+03 8.20411E+04-3.24280E-08 2.05333E-08
 -1       628 1.17860E+05 4.21902E+04-1.58198E+03 7.87651E+04-1.14669E-08 9.63564E-09
 -1       629 1.14876E+05 4.52237E+04-7.60152E+02 8.18914E+04 4.62933E-09 1.46645E-09
 -1       630 1.17838E+05 4.24501E+04-3.36698E+02 7.86144E+04 1.09467E-08 1.50332E-08
 -1       631 1.14914E+05 4.53376E+04-1.52348E+02 8.18878E+04-6.68661E-09-2.32490E-10
 -1       632 1.17818E+05 4.24599E+04-4.65742E+01 7.85990E+04-5.14865E-09 3.29271E-09
 -1       633 1.14913E+05 4.53442E+04 2.76522E+01 8.18866E+04 6.41467E-09 7.89169E-09
 -1       634 1.17804E+05 4.24544E+04 1.15900E+02 7.85954E+04 1.76442E-09 1.37311E-09
 -1       635 1.14924E+05 4.53474E+04 2.80473E+02 8.18886E+04-5.32395E-09 3.13412E-09
 -1       636 1.17790E+05 4.24650E+04 5.89573E+02 7.85864E+04-3.65389E-09 4.36557E-10
 -1       637 1.15063E+05 4.54989E+04 1.31896E+03 8.18670E+04 5.12733E-09 3.08137E-09
 -1       638 1.17758E+05 4.29240E+04 2.73287E+03 7.83850E+04 6.06974E-09-1.50249E-09
 -1       639 1.16458E+05 4.78860E+04 6.50017E+03 8.12920E+04-1.56831E-09 3.40151E-10
 -1       640 1.17800E+05 4.98513E+04 1.36840E+04 7.54962E+04-1.27052E-08-7.36418E-09
 -1       641 2.86752E+03 2.49433E+03-5.85170E+03-2.40421E+02-1.04196E-08 1.44428E-09
 -1       642 3.61195E+02-2.88823E+03-4.12142E+03 1.07636E+03 1.70875E-10-1.60435E-09
 -1       643 1.89633E+03 3.85611E+02-1.50979E+03-2.38488E+02-1.79369E-08-5.23096E-09
 -1       644 1.48849E+03-4.43298E+02-9.33433E+02 1.07373E+03 7.38786E-09-2.76387E-10
 -1       645 1.73935E+03 5.80512E+01-3.62507E+02-2.37802E+02-5.70932E-09-1.59369E-09
 -1       646 1.67334E+03-5.92292E+01-1.72571E+02 1.07267E+03-3.02997E-07 1.20752E-09
 -1       647 1.71101E+03 3.03616E+00-3.21199E+00-2.37436E+02-2.27775E-05 4.00399E-08
 -1       648 1.72388E+03 3.37777E+01 1.52782E+02 1.07230E+03-4.50464E-05 8.17739E-08
 -1       649 1.68865E+03-3.46261E+01 3.50821E+02-2.37424E+02-2.27782E-05 4.03046E-08
 -1       650 1.85158E+03 2.68046E+02 8.47533E+02 1.07239E+03-2.82964E-07 9.37177E-10
 -1       651 1.58347E+03-2.30740E+02 1.48175E+03-2.37526E+02-8.70828E-09-2.42562E-09
 -1       652 2.57564E+03 1.73065E+03 3.65192E+03 1.07225E+03 9.60182E-09 1.83491E-09
 -1       653 9.65103E+02-1.49310E+03 5.84222E+03-2.37299E+02-3.20789E-09-1.78625E-09
 -1       654 6.96550E+03 1.11649E+04 1.59291E+04 1.06857E+03 5.73279E-09 5.64728E-09
 -1       655-2.80490E+03-9.63418E+03 2.25775E+04-2.33878E+02 2.46337E-09 3.96540E-10
 -1       656 8.89206E+03-3.20686E+05-3.76579E+04 7.73836E+03-2.53021E-09 3.78895E-09
 -1       657-1.28500E+04-3.34598E+05-2.76041E+04 3.27119E+04-4.26780E-10 2.77237E-09
 -1       658 1.74873E+03-3.25605E+05-1.74170E+04 7.66529E+03-2.14129E-10 1.16495E-09
 -1       659-1.16879E+04-3.33947E+05-2.56059E+04 3.27607E+04 3.87217E-10 2.42443E-09
 -1       660 7.94628E+03-3.21366E+05-3.38974E+04 7.69034E+03-5.63887E-11-1.57263E-09
 -1       661 3.19000E+05 4.02409E+04 2.62313E+04 1.24617E+05 5.96697E-09-7.03949E-10
 -1       662 3.25355E+05 6.10341E+04 1.66662E+04 1.28003E+05 1.22537E-09 6.28688E-10
 -1       663 3.23576E+05 4.65069E+04 6.19677E+03 1.23896E+05 7.61099E-09-1.56251E-09
 -1       664 3.20102E+05 5.30346E+04 3.43745E+03 1.29156E+05 3.73814E-09-3.64508E-09
 -1       665 3.24100E+05 4.72130E+04 1.45423E+03 1.23847E+05 1.13533E-09-2.53885E-09
 -1       666 3.19502E+05 5.21517E+04 7.94076E+02 1.29232E+05-2.58896E-09 3.51541E-09
 -1       667 3.24157E+05 4.72979E+04 4.41167E+02 1.23852E+05 3.34626E-09 3.69135E-09
 -1       668 3.19447E+05 5.20663E+04 4.15472E+02 1.29228E+05-6.08553E-09 2.21122E-09
 -1       669 3.24152E+05 4.72928E+04 5.79950E+02 1.23852E+05-1.58643E-09-3.72773E-09
 -1       670 3.19552E+05 5.22093E+04 1.18052E+03 1.29229E+05 1.37536E-08 3.09001E-10
 -1       671 3.24055E+05 4.71640E+04 2.23196E+03 1.23848E+05 5.92871E-09 2.51555E-09
 -1       672 3.20496E+05 5.35695E+04 5.32016E+03 1.29098E+05-7.08567E-09 2.34741E-09
 -1       673 3.23234E+05 4.60767E+04 9.60593E+03 1.23931E+05 8.50386E-09-8.45830E-10
 -1       674 3.28656E+05 6.59652E+04 2.58470E+04 1.27294E+05 1.11843E-08 2.35968E-09
 -1       675 3.16131E+05 3.63655E+04 4.06859E+04 1.25056E+05 4.09500E-09-2.20098E-09
 -1       676 1.14957E+03-3.01894E+05-5.41769E+03 3.38645E+02 7.71934E-10 4.08742E-09
 -1       677-2.07564E+03-3.03980E+05-5.44343E+03 2.54895E+02-9.75447E-10 3.82851E-09
 -1       678 5.95828E+02-3.02244E+05-5.89408E+03 3.37773E+02 2.08092E-09 2.42895E-09
 -1       679-6.18931E+03-3.06377E+05-1.25640E+04 2.54408E+02 3.51997E-09-3.76106E-09
 -1       680 4.56166E+03-2.99498E+05-1.87956E+04 3.38302E+02 3.23234E-09-1.34523E-09
 -1       681 4.41490E+05-1.15572E+04 2.70671E+04-8.83346E+02-2.17142E-10-8.03993E-10
 -1       682 4.53255E+05 1.33950E+04 1.91202E+04 5.13451E+03 8.71481E-11-8.89486E-10
 -1       683 4.46049E+05-1.79048E+03 7.02272E+03-4.08810E+02-2.08402E-10-1.73804E-09
 -1       684 4.47946E+05 2.08186E+03 4.41543E+03 4.49218E+03-9.17311E-11-1.97252E-09
 -1       685 4.46797E+05-2.77984E+02 1.84550E+03-2.40999E+02 4.11654E-10-1.35094E-09
 -1       686 4.47089E+05 3.41922E+02 1.15996E+03 4.43101E+03-7.92024E-11-1.07946E-09
 -1       687 4.46906E+05-5.55704E+01 6.88747E+02-3.47636E+02 1.32516E-10-1.70862E-09
 -1       688 4.47040E+05 1.55749E+02 7.80241E+02 4.93854E+03-9.92650E-10-1.07122E-09
 -1       689 4.46851E+05-9.52037E+01 1.06115E+03-7.48526E+02-5.05167E-10-7.47434E-10
 -1       690 4.47444E+05 6.77845E+02 2.27903E+03 6.10736E+03 6.59142E-10 2.71996E-11
 -1       691 4.46513E+05-5.84422E+02 3.79397E+03-1.51648E+03 5.94241E-10-2.12140E-10
 -1       692 4.49571E+05 4.37384E+03 9.39944E+03 8.15195E+03 3.98217E-10-2.05205E-10
 -1       693 4.44750E+05-3.79944E+03 1.48222E+04-2.79319E+03 2.18961E-10 2.13095E-09
 -1       694 4.61471E+05 2.84100E+04 4.07739E+04 1.15058E+04 4.07761E-09 1.06093E-09
 -1       695 4.34674E+05-2.45853E+04 5.73019E+04-4.87032E+03 3.71040E-09 3.49610E-09
 -1       696-8.91629E+03 3.74826E+05 2.05106E+04 2.21403E+03 4.18368E-11-3.14571E-10
 -1       697 9.65312E+03 3.83655E+05 1.32336E+04-1.11093E+04 6.91216E-11-6.36902E-10
 -1       698-6.93496E+02 3.78754E+05 2.68112E+03 1.74245E+03-1.61890E-10 1.10983E-09
 -1       699-3.61153E+03 3.77409E+05-4.19504E+03-1.07985E+04-2.19984E-10 2.73062E-09
 -1       700 4.30966E+03 3.81070E+05-9.51337E+03 1.90323E+03-1.52795E-10 7.14778E-10
 -1       701-3.97206E+05-3.58766E+04-5.09495E+04-1.57303E+05-3.01952E-10-4.22006E-10
 -1       702-4.22309E+05-8.37730E+04-3.52713E+04-1.50350E+05-6.32099E-11 6.36646E-10
 -1       703-4.07820E+05-5.37660E+04-1.19529E+04-1.53579E+05 5.68434E-11 4.92037E-10
 -1       704-4.09905E+05-6.31323E+04-7.43997E+03-1.54753E+05 2.09383E-10 7.09178E-10
 -1       705-4.09599E+05-5.64601E+04-2.79811E+03-1.52921E+05 1.53534E-10 2.22940E-10
 -1       706-4.07894E+05-5.99664E+04-1.66607E+03-1.55447E+05 2.50054E-10 5.54962E-10
 -1       707-4.09829E+05-5.69231E+04-7.76395E+02-1.52888E+05-1.47679E-10 5.07043E-11
 -1       708-4.07838E+05-5.93092E+04-6.77765E+02-1.55258E+05-6.53156E-10 6.54552E-10
 -1       709-4.09653E+05-5.71171E+04-7.62547E+02-1.53109E+05-5.03135E-10-1.60099E-10
 -1       710-4.08562E+05-5.92194E+04-1.60547E+03-1.54607E+05-1.28651E-10-1.54671E-10
 -1       711-4.09103E+05-5.70155E+04-2.71093E+03-1.53537E+05-3.17300E-10-4.77712E-10
 -1       712-4.11079E+05-6.16909E+04-7.17588E+03-1.53266E+05 2.80522E-11-2.42267E-10
 -1       713-4.07139E+05-5.46545E+04-1.15496E+04-1.54447E+05 1.56206E-10 3.93811E-10
 -1       714-4.23426E+05-8.12946E+04-3.40610E+04-1.48643E+05 3.80851E-11-7.38510E-10
 -1       715-3.96769E+05-3.74658E+04-4.92064E+04-1.58141E+05-1.12595E-09 1.38607E-09
 -1       716 2.43652E+05-1.71922E+04 4.01538E+04-2.60583E+03-4.19584E-09 4.15457E-09
 -1       717 2.62043E+05 1.98798E+04 2.85137E+04 5.61978E+03-1.32161E-09 4.34738E-09
 -1       718 2.50548E+05-2.66066E+03 1.04012E+04-1.72793E+03-3.81647E-10 2.08593E-09
 -1       719 2.53934E+05 3.06368E+03 6.63158E+03 4.11921E+03 7.39959E-10 2.13731E-09
 -1       720 2.51735E+05-4.13537E+02 2.74435E+03-1.10532E+03 9.75206E-10 5.70481E-10
 -1       721 2.52519E+05 4.94385E+02 1.81122E+03 3.03235E+03-9.55538E-10 5.02268E-10
 -1       722 2.51950E+05-8.92582E+01 1.11629E+03-6.41001E+02 1.18888E-10 1.11575E-09
 -1       723 2.52326E+05 2.68162E+02 1.39671E+03 2.21230E+03 6.23459E-10 7.05427E-11
 -1       724 2.51920E+05-1.82726E+02 1.99706E+03-2.85246E+02-1.30655E-10-1.72076E-09
 -1       725 2.52838E+05 1.31298E+03 4.31333E+03 1.57145E+03-6.24127E-10-1.98798E-09
 -1       726 2.51434E+05-1.12851E+03 7.32318E+03-1.27899E-01-2.43659E-09-8.33097E-10
 -1       727 2.56326E+05 8.45764E+03 1.79192E+04 1.03922E+03-2.60807E-09-9.73159E-10
 -1       728 2.48429E+05-7.30400E+03 2.86225E+04 2.46955E+02-6.61956E-10-1.05683E-09
 -1       729 2.77759E+05 5.46302E+04 7.79791E+04 5.21978E+02-1.40511E-09-1.95996E-09
 -1       730 2.30007E+05-4.71428E+04 1.10569E+05 5.16822E+02 5.38051E-10-6.83940E-10
 -1       731-1.43748E+04 1.53117E+05 3.16323E+04 1.22011E+04-6.47560E-10-1.81899E-12
 -1       732 1.66402E+04 1.76200E+05 2.43596E+04-5.12341E+04 2.78305E-10-9.38826E-10
 -1       733-2.34848E+03 1.62161E+05 9.16570E+03 1.07613E+04 3.02407E-09 2.94710E-09
 -1       734 4.48165E+03 1.66359E+05 7.79410E+03-4.97171E+04 4.99131E-09 6.63357E-09
 -1       735-1.98304E+03 1.62569E+05 5.39278E+03 1.06840E+04 2.65004E-09 3.69931E-09
 -1       736-9.04337E+05-8.96830E+04-7.04433E+04-3.36880E+05-2.64572E-09-4.25644E-10
 -1       737-9.09535E+05-1.82177E+05-4.83120E+04-3.58407E+05-6.09430E-09-2.35696E-09
 -1       738-9.19730E+05-1.11899E+05-1.64209E+04-3.28967E+05-2.14891E-09-1.96906E-09
 -1       739-8.93120E+05-1.53259E+05-1.00253E+04-3.63705E+05-1.92000E-09 1.51499E-09
 -1       740-9.20721E+05-1.18525E+05-4.10948E+03-3.31602E+05 3.63593E-09 3.52566E-09
 -1       741-8.96148E+05-1.39473E+05-1.38257E+03-3.53008E+05 2.17557E-09 6.77712E-09
 -1       742-9.16445E+05-1.25854E+05-1.73135E+03-3.39481E+05-8.66953E-09 3.41913E-10
 -1       743-9.08246E+05-1.24772E+05 3.25050E+02-3.36579E+05 4.33391E-09 4.27463E-11
 -1       744-9.08512E+05-1.33303E+05-1.52330E+03-3.47947E+05-2.65982E-09 1.71747E-09
 -1       745-9.24008E+05-1.12705E+05-1.30187E+03-3.22755E+05-8.73308E-09-1.95314E-10
 -1       746-9.00885E+05-1.37778E+05-3.36913E+03-3.53454E+05-1.14085E-10-1.27964E-08
 -1       747-9.35061E+05-1.10570E+05-8.54352E+03-3.15969E+05 3.85958E-09 5.52654E-09
 -1       748-8.97663E+05-1.35305E+05-1.38970E+04-3.54882E+05-7.02107E-09-8.82210E-11
 -1       749-9.44364E+05-1.37826E+05-4.05293E+04-3.14464E+05 8.17636E-10-1.04819E-09
 -1       750-8.91498E+05-1.10666E+05-5.96789E+04-3.54858E+05-1.32241E-09 1.59343E-09
 -1       751 2.22808E+06-1.23740E+05 2.90626E+05 7.10767E+03-1.20961E-08-3.92902E-10
 -1       752 2.35370E+06 1.43395E+05 2.04930E+05-1.04284E+04-3.37947E-09-9.31323E-10
 -1       753 2.27672E+06-1.91660E+04 7.53178E+04 2.42611E+03-7.09861E-10 6.18456E-11
 -1       754 2.29722E+06 2.21945E+04 4.71670E+04-4.05102E+03 8.46427E-10 1.16779E-09
 -1       755 2.28467E+06-2.96260E+03 1.94043E+04 7.31540E+02-1.75154E-09 9.64064E-11
 -1       756 2.28801E+06 3.47320E+03 1.15591E+04-1.74261E+03 8.80945E-10 1.70758E-09
 -1       757 2.28598E+06-5.02192E+02 5.72443E+03 1.17707E+02 1.10843E-09 1.21872E-09
 -1       758 2.28666E+06 9.00905E+02 4.59358E+03-9.48635E+02-9.82436E-10 7.63833E-11
 -1       759 2.28604E+06-3.97126E+02 4.72962E+03-6.24469E+01 1.52870E-10 5.47061E-10
 -1       760 2.28751E+06 2.55972E+03 8.69500E+03-8.33759E+02 5.49977E-10 2.35877E-09
 -1       761 2.28512E+06-2.15627E+03 1.42266E+04 2.83054E+00 4.55291E-10 9.93168E-10
 -1       762 2.29415E+06 1.61201E+04 3.43033E+04-1.27879E+03 1.31098E-09 2.49929E-09
 -1       763 2.27936E+06-1.39150E+04 5.46968E+04 3.82590E+02 3.01009E-09 1.00772E-09
 -1       764 2.33497E+06 1.04075E+05 1.48709E+05-2.77115E+03 1.35853E-09-1.98270E-10
 -1       765 2.24418E+06-8.98037E+04 2.10892E+05 1.49500E+03-1.01990E-09-9.31323E-10
 -1       766-5.19708E+04 3.40799E+05 1.23493E+05-5.78040E+03 2.11003E-09-4.32749E-10
 -1       767 6.41390E+04 3.95989E+05 9.42874E+04 2.25127E+04 2.94676E-10-1.44957E-09
 -1       768-1.19788E+04 3.59479E+05 4.64749E+04-5.15007E+03 8.16726E-10-5.68765E-10
 -1       769 3.95161E+04 3.84669E+05 6.19709E+04 2.26939E+04 8.64020E-10 1.04058E-09
 -1       770-2.74413E+04 3.52123E+05 6.76284E+04-5.96177E+03 1.18598E-09 1.86969E-09
 -1       771-1.24095E+06-2.52196E+05-4.73061E+04-5.35095E+05 3.29055E-09 4.51837E-09
 -1       772-1.23872E+06-2.49298E+05-2.31135E+04-5.53068E+05-3.64525E-09 3.76076E-09
 -1       773-1.24269E+06-2.33873E+05-9.82932E+03-5.43044E+05-1.16779E-09 2.39743E-09
 -1       774-1.23361E+06-2.43101E+05-4.79220E+03-5.54567E+05 1.89175E-09-1.03319E-09
 -1       775-1.24315E+06-2.33021E+05-2.21952E+03-5.43488E+05-1.27329E-09 4.92037E-10
 -1       776-1.23336E+06-2.42820E+05-1.11740E+03-5.54757E+05 2.25555E-10 7.85758E-09
 -1       777-1.24337E+06-2.32948E+05-6.13257E+02-5.43571E+05-9.38599E-10 1.28716E-09
 -1       778-1.23344E+06-2.42783E+05-4.74971E+02-5.54882E+05-9.40781E-09-2.02294E-08
 -1       779-1.24349E+06-2.32875E+05-6.00375E+02-5.43630E+05-8.18545E-10 9.32459E-10
 -1       780-1.23357E+06-2.42757E+05-1.09545E+03-5.54989E+05-1.10958E-10-4.72937E-11
 -1       781-1.24352E+06-2.32800E+05-2.16439E+03-5.43660E+05-2.47928E-09-6.69843E-09
 -1       782-1.23399E+06-2.43005E+05-4.70726E+03-5.55063E+05 5.90262E-10 1.00044E-09
 -1       783-1.24333E+06-2.33465E+05-9.63400E+03-5.43303E+05-1.51226E-09-1.05683E-09
 -1       784-1.23891E+06-2.49390E+05-2.27297E+04-5.54180E+05-1.91824E-09-1.85901E-09
 -1       785-1.24208E+06-2.51130E+05-4.64774E+04-5.35271E+05-4.24848E-10-1.01863E-10
 -1       786 2.83266E+05-8.65025E+03 3.53456E+04-1.56843E+03 6.11635E-11-5.60249E-10
 -1       787 2.96168E+05 1.14774E+04 2.27845E+04-7.07995E+03-2.28852E-10 4.74756E-10
 -1       788 2.88640E+05-9.15063E+02 9.16714E+03-1.57026E+03-2.39083E-10 5.62522E-10
 -1       789 2.90164E+05 1.16916E+03 5.14862E+03-7.06626E+03 4.17003E-10-6.55064E-10
 -1       790 2.89265E+05-1.00690E+02 2.33252E+03-1.58141E+03 2.82228E-10-5.85032E-10
 -1       791 2.89455E+05 1.17562E+02 1.25868E+03-7.04999E+03 7.52649E-10 1.50357E-09
 -1       792 2.89345E+05-1.26967E+01 6.48685E+02-1.58652E+03-1.90184E-10-9.97289E-10
 -1       793 2.89366E+05 1.63060E+01 4.42168E+02-7.04637E+03-1.86922E-10 1.42330E-09
 -1       794 2.89352E+05-7.56446E+00 4.23420E+02-1.58503E+03 1.51061E-10 5.90674E-10
 -1       795 2.89399E+05 5.64540E+01 6.63332E+02-7.05630E+03-1.13232E-10 2.23036E-09
 -1       796 2.89315E+05-4.95154E+01 1.15179E+03-1.57658E+03-1.33582E-10-1.67125E-09
 -1       797 2.89741E+05 5.61615E+02 2.49631E+03-7.07816E+03-4.87262E-10-8.72376E-10
 -1       798 2.89015E+05-4.42884E+02 4.42565E+03-1.56318E+03-2.97973E-10 3.61820E-09
 -1       799 2.92639E+05 5.53000E+03 1.09882E+04-7.09460E+03-1.28426E-09 1.32400E-09
 -1       800 2.86425E+05-4.17371E+03 1.70394E+04-1.56056E+03 1.36879E-10-1.77442E-09
 -1       801-1.07708E+04 2.96631E+05 4.06917E+04-1.62046E+05 5.32964E-10 3.68891E-09
 -1       802 2.23631E+04 3.09879E+05 4.03613E+04-7.05708E+05 8.20546E-09 7.27687E-09
 -1       803-2.09686E+03 2.98405E+05 4.00261E+04-1.61720E+05 4.51109E-09 5.19481E-09
 -1       804 4.64017E+04 3.24497E+05 8.22989E+04-7.05675E+05 5.96265E-09-2.76123E-09
 -1       805-3.11213E+04 2.82679E+05 1.19376E+05-1.62087E+05 4.28554E-09 1.52795E-10
 -1       806-2.70547E+05-7.05986E+04-2.33448E+04-1.22719E+05 6.98037E-10-8.24002E-10
 -1       807-2.70839E+05-6.46577E+04-1.10889E+04-1.29671E+05 3.89718E-10-2.29636E-09
 -1       808-2.70451E+05-5.88168E+04-4.66494E+03-1.27710E+05 8.22638E-10-4.22688E-10
 -1       809-2.68535E+05-6.05220E+04-2.25622E+03-1.30603E+05 2.91971E-09 3.94098E-09
 -1       810-2.70512E+05-5.80312E+04-1.02184E+03-1.28066E+05 5.22277E-10-5.70935E-10
 -1       811-2.68312E+05-6.02541E+04-5.13775E+02-1.30638E+05-1.76044E-09-1.01682E-09
 -1       812-2.70532E+05-5.80103E+04-2.71927E+02-1.28082E+05-5.93406E-09-6.83622E-09
 -1       813-2.68288E+05-6.02473E+04-2.06582E+02-1.30631E+05-1.28853E-09 1.57752E-09
 -1       814-2.70529E+05-5.80132E+04-2.48289E+02-1.28080E+05 3.67936E-09 5.84987E-09
 -1       815-2.68304E+05-6.02564E+04-4.51085E+02-1.30631E+05 5.72754E-10-1.79989E-09
 -1       816-2.70506E+05-5.80353E+04-8.86827E+02-1.28063E+05 3.57886E-10-5.25688E-10
 -1       817-2.68495E+05-6.04861E+04-1.95351E+03-1.30590E+05 2.37560E-09-6.29825E-10
 -1       818-2.70443E+05-5.87233E+04-4.03672E+03-1.27756E+05 1.86537E-09-1.43609E-09
 -1       819-2.70520E+05-6.40261E+04-9.59320E+03-1.29735E+05-1.92995E-09-1.05883E-08
 -1       820-2.70483E+05-6.89482E+04-2.01951E+04-1.23473E+05-4.92537E-09-1.19526E-08
 -1       821-2.63990E+05 8.34004E+03-3.40915E+04 1.57247E+03-2.41221E-09 2.63572E-09
 -1       822-2.76420E+05-1.10719E+04-2.19765E+04 7.33833E+03-1.45656E-09 2.21826E-09
 -1       823-2.69176E+05 8.79778E+02-8.84488E+03 1.51660E+03 2.81398E-09 1.71121E-09
 -1       824-2.70643E+05-1.11978E+03-4.96923E+03 7.41777E+03-9.89871E-10 3.33785E-10
 -1       825-2.69779E+05 9.74103E+01-2.26044E+03 1.49232E+03-4.87569E-09-6.84281E-10
 -1       826-2.69971E+05-1.00746E+02-1.23463E+03 7.45778E+03-9.43783E-09 1.20656E-09
 -1       827-2.69858E+05 1.50758E+01-6.68242E+02 1.47643E+03-5.02212E-09 2.35215E-09
 -1       828-2.69896E+05-3.72498E+00-5.14286E+02 7.48287E+03-6.61851E-09 2.08570E-09
 -1       829-2.69861E+05 1.39767E+01-5.79765E+02 1.46720E+03-9.24899E-10-9.05473E-10
 -1       830-2.69956E+05-7.38831E+01-1.00196E+03 7.49383E+03 5.18787E-09 1.04995E-09
 -1       831-2.69801E+05 8.00900E+01-1.79743E+03 1.46547E+03 1.02617E-10 1.21469E-09
 -1       832-2.70492E+05-8.76092E+02-3.93182E+03 7.48977E+03 2.22644E-09-7.56586E-11
 -1       833-2.69325E+05 6.99358E+02-6.98771E+03 1.47139E+03 3.43448E-09-6.66660E-10
 -1       834-2.75059E+05-8.73502E+03-1.73600E+04 7.46030E+03-9.98682E-10 3.74712E-10
 -1       835-2.65230E+05 6.59311E+03-2.69259E+04 1.49619E+03-9.23137E-11-9.84073E-10
 -1       836-1.39886E+04 7.10048E+05 6.01500E+04-1.73983E+04-8.14907E-10 9.69976E-10
 -1       837 2.09944E+04 7.32452E+05 4.68749E+04-7.41684E+04 1.24442E-09-1.45701E-09
 -1       838-3.41644E+03 7.17208E+05 3.42000E+04-1.74195E+04-1.48384E-09 1.58565E-09
 -1       839 2.71757E+04 7.36040E+05 5.75739E+04-7.41559E+04 1.38061E-09 1.36583E-09
 -1       840-1.91031E+04 7.06443E+05 8.02671E+04-1.74103E+04-1.04046E-09 7.13044E-10
 -1       841-4.98891E+04-1.81533E+03-1.37285E+04-2.12001E+04-2.91288E-09 4.76575E-10
 -1       842-5.75451E+04-1.38316E+04-9.50192E+03-1.83151E+04-2.98195E-09-3.27873E-10
 -1       843-5.26581E+04-6.72825E+03-3.21868E+03-2.03049E+04 3.45455E-09-1.27557E-10
 -1       844-5.43437E+04-8.12709E+03-1.99781E+03-1.93364E+04 2.38700E-10-1.37189E-09
 -1       845-5.30888E+04-7.50450E+03-7.41796E+02-2.01848E+04-1.79210E-09 1.61873E-09
 -1       846-5.38512E+04-7.21870E+03-4.19119E+02-1.94660E+04-7.61487E-09 8.43741E-10
 -1       847-5.31506E+04-7.63425E+03-1.52779E+02-2.01762E+04-2.34535E-09-2.14482E-09
 -1       848-5.37772E+04-7.05665E+03-4.88738E+01-1.94735E+04 5.91672E-09 7.46567E-10
 -1       849-5.31629E+04-7.66610E+03 4.24964E+01-2.01776E+04 2.76644E-09 4.99035E-10
 -1       850-5.37270E+04-6.96631E+03 1.84071E+02-1.94828E+04-2.41887E-09 8.93277E-10
 -1       851-5.32008E+04-7.72438E+03 3.46336E+02-2.01670E+04-1.28110E-09-7.45644E-11
 -1       852-5.34674E+04-6.54987E+03 9.49509E+02-1.95657E+04 4.56199E-09 1.08686E-09
 -1       853-5.34222E+04-8.08155E+03 1.53141E+03-2.00951E+04 1.51582E-09-7.52095E-10
 -1       854-5.19007E+04-3.86556E+03 4.52939E+03-2.00910E+04 1.23924E-09-7.12248E-11
 -1       855-5.47661E+04-1.04015E+04 6.54074E+03-1.96441E+04 5.71731E-10 5.48425E-10
 -1       856-3.09255E+05 7.58183E+03-3.10264E+04 3.20152E+03-6.04223E-09-9.56788E-10
 -1       857-3.20555E+05-1.00476E+04-1.99936E+04 1.51449E+04-6.93740E-09-1.18280E-09
 -1       858-3.13976E+05 8.02066E+02-8.04950E+03 3.10496E+03-8.70523E-09-1.65346E-09
 -1       859-3.15325E+05-9.83505E+02-4.51792E+03 1.52827E+04-5.85169E-09-2.37878E-09
 -1       860-3.14528E+05 9.53455E+01-2.05253E+03 3.06225E+03-7.36691E-10-1.15256E-09
 -1       861-3.14728E+05-5.01313E+01-1.11287E+03 1.53468E+04-9.76871E-09 3.85853E-10
 -1       862-3.14602E+05 2.28556E+01-5.88020E+02 3.04051E+03 7.07132E-09-2.73883E-09
 -1       863-3.14663E+05 4.17284E+01-4.26990E+02 1.53736E+04 2.15371E-08-2.47496E-09
 -1       864-3.14606E+05 2.05479E+01-4.48216E+02 3.03545E+03 1.31378E-08-2.73644E-09
 -1       865-3.14700E+05-9.44062E+00-7.44476E+02 1.53663E+04 1.67088E-08-2.86509E-09
 -1       866-3.14562E+05 6.62265E+01-1.32040E+03 3.04781E+03 2.43176E-09-1.03643E-09
 -1       867-3.15076E+05-6.01387E+02-2.87566E+03 1.53232E+04-2.66584E-09 2.72564E-10
 -1       868-3.14211E+05 5.13648E+02-5.11118E+03 3.07876E+03 6.41103E-09-3.61979E-10
 -1       869-3.18388E+05-6.35371E+03-1.26862E+04 1.52120E+04-5.76006E-09-4.09568E-09
 -1       870-3.11215E+05 4.81252E+03-1.96861E+04 3.16024E+03 4.55339E-09-2.89947E-09
 -1       871-2.72421E+03-2.54694E+04-4.79268E+03 7.17710E+04 3.47882E-09-1.47111E-09
 -1       872-8.91215E+02-2.63087E+04-1.38280E+03 8.35908E+04-2.27510E-09-5.09317E-10
 -1       873 2.40906E+01-2.60066E+04 1.44056E+03 7.16354E+04 1.10549E-09 1.09912E-09
 -1       874 1.68519E+03-2.48640E+04 5.32761E+03 8.36561E+04-2.28783E-09-1.82297E-10
 -1       875 5.64177E+03-2.69636E+04 1.15150E+04 7.17156E+04 2.13140E-09-2.52794E-09
 -1       876 3.60556E+05 4.46388E+04 3.42567E+04 1.41694E+05 7.60383E-09-7.23958E-10
 -1       877 3.68544E+05 7.21294E+04 2.17669E+04 1.46501E+05 5.35238E-10-2.16278E-09
 -1       878 3.66522E+05 5.28339E+04 8.09011E+03 1.40761E+05 1.98190E-09 1.85673E-09
 -1       879 3.61694E+05 6.16642E+04 4.48628E+03 1.47980E+05-2.20689E-09-5.44333E-10
 -1       880 3.67195E+05 5.37674E+04 1.89077E+03 1.40708E+05 2.17790E-09 8.02856E-10
 -1       881 3.60922E+05 6.04941E+04 1.02043E+03 1.48055E+05-3.11502E-11-4.26726E-09
 -1       882 3.67263E+05 5.38883E+04 5.41496E+02 1.40723E+05 6.48015E-09 3.66538E-09
 -1       883 3.60855E+05 6.03644E+04 4.66737E+02 1.48032E+05-8.14427E-09 6.58584E-09
 -1       884 3.67254E+05 5.38926E+04 6.05585E+02 1.40729E+05-4.21053E-09 4.12763E-09
 -1       885 3.60964E+05 6.04982E+04 1.19789E+03 1.48024E+05 1.79992E-08 7.62185E-09
 -1       886 3.67156E+05 5.37647E+04 2.24926E+03 1.40728E+05 7.30580E-09-3.31909E-09
 -1       887 3.61912E+05 6.18668E+04 5.35150E+03 1.47895E+05-8.68027E-09-6.50118E-09
 -1       888 3.66333E+05 5.26678E+04 9.65866E+03 1.40808E+05-6.54121E-09-5.73209E-09
 -1       889 3.70112E+05 7.43354E+04 2.59869E+04 1.46092E+05 4.46840E-09-1.88993E-09
 -1       890 3.59197E+05 4.28984E+04 4.09034E+04 1.41934E+05 3.92947E-09 3.40879E-09
 -1       891 1.34895E+03-1.59759E+05-6.10856E+03 1.50626E+04 2.79670E-11-1.43700E-10
 -1       892-2.25343E+03-1.61947E+05-4.96103E+03 6.54632E+04 4.33556E-09-1.77113E-09
 -1       893 3.80620E+02-1.60447E+05-3.96251E+03 1.49878E+04 5.41195E-09 3.30643E-09
 -1       894-3.51545E+03-1.62673E+05-7.14086E+03 6.54568E+04 2.13549E-09 2.79215E-09
 -1       895 2.38911E+03-1.59023E+05-1.02066E+04 1.50687E+04 1.38698E-10 4.39150E-09
 -1       896 6.21584E+05-4.74051E+03 1.10833E+04 1.58232E+03 1.54074E-10 1.69439E-09
 -1       897 6.26488E+05 5.48728E+03 7.85261E+03-4.34668E+03 3.32086E-10 4.44288E-10
 -1       898 6.23485E+05-7.33602E+02 2.88062E+03 7.90434E+02 6.47660E-10-6.82121E-13
 -1       899 6.24266E+05 8.50071E+02 1.82525E+03-3.13506E+03 7.70015E-11-6.12204E-10
 -1       900 6.23803E+05-1.14349E+02 7.77460E+02 3.70689E+02 5.34833E-10-8.67999E-10
 -1       901 6.23897E+05 1.43348E+02 5.22533E+02-2.55814E+03 3.52156E-10-1.18641E-09
 -1       902 6.23852E+05-2.75909E+01 3.70541E+02 2.13502E+02 6.45435E-10-1.15055E-09
 -1       903 6.23876E+05 1.00873E+02 5.08908E+02-2.46587E+03 1.06034E-09-1.26323E-09
 -1       904 6.23823E+05-7.18329E+01 7.87326E+02 2.78422E+02 6.82046E-10-1.10686E-09
 -1       905 6.24117E+05 5.27466E+02 1.72579E+03-2.83461E+03 5.31760E-10-1.01636E-09
 -1       906 6.23612E+05-4.53912E+02 2.94844E+03 5.82253E+02 6.11010E-10-5.23528E-10
 -1       907 6.25576E+05 3.40596E+03 7.23028E+03-3.75928E+03 5.06645E-10 3.05590E-10
 -1       908 6.22366E+05-2.94434E+03 1.15340E+04 1.20310E+03-1.51744E-10 5.73436E-10
 -1       909 6.34350E+05 2.20256E+04 3.14736E+04-5.49438E+03-8.81101E-10 1.49475E-09
 -1       910 6.14841E+05-1.90189E+04 4.45403E+04 2.31728E+03-6.50289E-11 2.95222E-09
 -1       911 1.76038E+05-2.19038E+03 5.00378E+03 1.83615E+03 1.18604E-09 2.85740E-09
 -1       912 1.78874E+05 2.52035E+03 3.65546E+03-6.86639E+03 2.23437E-10 2.64663E-10
 -1       913 1.77041E+05-3.39365E+02 1.29898E+03 1.36864E+03-6.67910E-12-9.49967E-10
 -1       914 1.77633E+05 3.93472E+02 8.70610E+02-6.11454E+03-1.80208E-10-2.30443E-09
 -1       915 1.77256E+05-5.39339E+01 3.74645E+02 1.08427E+03 1.13452E-09-2.70059E-09
 -1       916 1.77359E+05 7.98792E+01 2.97997E+02-5.70853E+03 2.14676E-09-3.92082E-09
 -1       917 1.77303E+05-1.87421E+01 2.72723E+02 9.62639E+02 1.45784E-09-4.26731E-09
 -1       918 1.77349E+05 9.95123E+01 4.59424E+02-5.61915E+03 3.99384E-10-3.78554E-09
 -1       919 1.77264E+05-7.18942E+01 7.70701E+02 9.94893E+02 1.45009E-09-3.56948E-09
 -1       920 1.77647E+05 5.39197E+02 1.74396E+03-5.84004E+03 9.01650E-10-2.98311E-09
 -1       921 1.77010E+05-4.61459E+02 2.97167E+03 1.18353E+03 6.30763E-10-2.59843E-09
 -1       922 1.79252E+05 3.45572E+03 7.35567E+03-6.38896E+03 1.53284E-09-9.08585E-10
 -1       923 1.75674E+05-2.99075E+03 1.16617E+04 1.54382E+03 4.66684E-11-3.13776E-11
 -1       924 1.88354E+05 2.23445E+04 3.19744E+04-7.33225E+03-3.19318E-10 2.35559E-09
 -1       925 1.67939E+05-1.93084E+04 4.50966E+04 2.12675E+03 1.41199E-10 4.30373E-09
 -1       926-7.83869E+05 1.73265E+04-4.06166E+04-3.36164E+03 2.38386E-09 6.10635E-09
 -1       927-8.01286E+05-2.00666E+04-2.86365E+04 4.41753E+03-4.45293E-09 6.40875E-09
 -1       928-7.90700E+05 2.67627E+03-1.05197E+04-2.46392E+03-4.80043E-11 5.26597E-09
 -1       929-7.93275E+05-3.09808E+03-6.52510E+03 2.04639E+03 2.54042E-09 3.12559E-09
 -1       930-7.91858E+05 4.04934E+02-2.68021E+03-9.90548E+02 7.91971E-10 2.69370E-09
 -1       931-7.91934E+05-4.69542E+02-1.46163E+03-1.05168E+03-9.12422E-10 1.05240E-09
 -1       932-7.92034E+05 5.27259E+01-6.17977E+02 6.34185E+02 1.17808E-10-1.69024E-10
 -1       933-7.91779E+05-3.49030E+01-1.71427E+02-3.97283E+03-1.85494E-10-1.47998E-09
 -1       934-7.92020E+05-2.26392E+01 1.33799E+02 1.93063E+03-9.41441E-10-1.91068E-09
 -1       935-7.91756E+05 2.17675E+02 6.30803E+02-5.85260E+03-1.32847E-09-3.10254E-09
 -1       936-7.92068E+05-1.90906E+02 1.19319E+03 2.51400E+03-4.94634E-10-2.80301E-09
 -1       937-7.91174E+05 1.44256E+03 3.01409E+03-6.13236E+03-2.47350E-09-3.63229E-09
 -1       938-7.92603E+05-1.24227E+03 4.83613E+03 2.21041E+03-1.82352E-09-3.36490E-09
 -1       939-7.87434E+05 9.28326E+03 1.32419E+04-4.73182E+03-1.25898E-09-2.00089E-09
 -1       940-7.95792E+05-8.01253E+03 1.87275E+04 1.11342E+03-5.37796E-10-4.22006E-10
 -1       941 3.51947E+06-1.73339E+05 4.07661E+05 2.40073E+02 1.32942E-08 4.48199E-09
 -1       942 3.69477E+06 2.00927E+05 2.87244E+05 1.41685E+03 1.14532E-08-2.73940E-09
 -1       943 3.58739E+06-2.68623E+04 1.05684E+05 6.10630E+02 5.24158E-09 5.82077E-11
 -1       944 3.61603E+06 3.11143E+04 6.61833E+04 9.40000E+02 1.65149E-09-2.33922E-09
 -1       945 3.59854E+06-4.15502E+03 2.72776E+04 7.17006E+02 3.62416E-09 2.95950E-09
 -1       946 3.60319E+06 4.87986E+03 1.63048E+04 7.96694E+02 2.20395E-09 6.83417E-09
 -1       947 3.60036E+06-7.12243E+02 8.18564E+03 7.53979E+02-3.19717E-10 4.79554E-09
 -1       948 3.60133E+06 1.32461E+03 6.76731E+03 7.26039E+02-7.43595E-10 2.87905E-09
 -1       949 3.60042E+06-6.09668E+02 7.21554E+03 7.87669E+02 3.27088E-10-4.13479E-09
 -1       950 3.60270E+06 3.98860E+03 1.35134E+04 6.01033E+02 9.58668E-10 3.27623E-09
 -1       951 3.59897E+06-3.36869E+03 2.22302E+04 8.78981E+02 7.34318E-10-4.94401E-09
 -1       952 3.61308E+06 2.51947E+04 5.36574E+04 1.93854E+02 3.51786E-10-2.09093E-09
 -1       953 3.58995E+06-2.17482E+04 8.55900E+04 1.19481E+03-1.97681E-09 1.05501E-10
 -1       954 3.67682E+06 1.62669E+05 2.32561E+05-1.26383E+03-3.47381E-09-4.62023E-10
 -1       955 3.53492E+06-1.40343E+05 3.29934E+05 2.33621E+03-9.83097E-09 8.29459E-10
 -1       956-1.91699E+05-3.24877E+03-6.65780E+03 2.77073E+04-5.42605E-09-7.81256E-10
 -1       957-1.92904E+05-1.01932E+03-3.35239E+03 3.20201E+04-1.56979E-09-1.60958E-09
 -1       958-1.92247E+05-1.14597E+02-1.50758E+03 2.75382E+04 4.71300E-09-2.81261E-09
 -1       959-1.92364E+05 7.90547E-01-7.66029E+02 3.22054E+04-1.22191E-09-1.87515E-09
 -1       960-1.92316E+05 4.58970E+01-3.71942E+02 2.75202E+04-3.28782E-09-2.44245E-09
 -1       961-1.92333E+05 5.65574E+01-1.95872E+02 3.22255E+04-7.65203E-09 1.47384E-09
 -1       962-1.92339E+05 5.28980E+01-1.10283E+02 2.75178E+04-2.02454E-09-1.07207E-09
 -1       963-1.92341E+05 6.34706E+01-8.47680E+01 3.22286E+04-4.45539E-09 1.14983E-09
 -1       964-1.92348E+05 5.82281E+01-9.86825E+01 2.75170E+04 7.00379E-09-2.55159E-09
 -1       965-1.92353E+05 6.80670E+01-1.66975E+02 3.22286E+04 1.97021E-08-4.95675E-11
 -1       966-1.92346E+05 6.22218E+01-3.11720E+02 2.75178E+04 5.45359E-09-1.34423E-09
 -1       967-1.92397E+05 3.13315E+01-6.41142E+02 3.22196E+04 3.62115E-09 4.18686E-09
 -1       968-1.92302E+05-6.28368E+01-1.25980E+03 2.75262E+04 2.21485E-09-7.88646E-10
 -1       969-1.92866E+05-8.13851E+02-2.80396E+03 3.21316E+04 5.98448E-10 1.57854E-10
 -1       970-1.91856E+05-2.67949E+03-5.56715E+03 2.76087E+04 2.45063E-09-1.12414E-09
 -1       971-4.19446E+05 6.36905E+03-2.60845E+04 3.10421E+03-3.85626E-09 3.21234E-09
 -1       972-4.28921E+05-8.44431E+03-1.68075E+04 1.50397E+04-2.46473E-09 5.49608E-09
 -1       973-4.23415E+05 6.72328E+02-6.77177E+03 2.98148E+03-5.87261E-09 1.88629E-09
 -1       974-4.24533E+05-8.21904E+02-3.80595E+03 1.52221E+04 2.80215E-09 2.26646E-09
 -1       975-4.23880E+05 8.01240E+01-1.74351E+03 2.92078E+03 1.22236E-09 2.91152E-09
 -1       976-4.24039E+05-3.52409E+01-9.71329E+02 1.53159E+04-9.76252E-09 3.62456E-09
 -1       977-4.23941E+05 2.11008E+01-5.65486E+02 2.88737E+03 6.15807E-09 1.76584E-09
 -1       978-4.23996E+05 3.84148E+01-5.05817E+02 1.53599E+04 1.70917E-08 2.90106E-09
 -1       979-4.23939E+05 2.48966E+01-6.62172E+02 2.87674E+03 5.48688E-09 4.21521E-09
 -1       980-4.24075E+05-5.66070E+01-1.22899E+03 1.53577E+04 1.14233E-08 5.80097E-09
 -1       981-4.23860E+05 1.06979E+02-2.25186E+03 2.88956E+03-1.87811E-10 3.38918E-09
 -1       982-4.24741E+05-1.07487E+03-4.95329E+03 1.53078E+04 9.66793E-10 1.98088E-09
 -1       983-4.23257E+05 8.84537E+02-8.81814E+03 2.92698E+03 1.61663E-10 3.52429E-10
 -1       984-4.30485E+05-1.10038E+04-2.19101E+04 1.51813E+04-8.53925E-09 3.74439E-09
 -1       985-4.18086E+05 8.31827E+03-3.39931E+04 3.01813E+03 2.86036E-09 2.11367E-09
 -3
    1PSTEP                        21          11           1          
  100CL  111 5.77332E-01         841                     0   11           1
 -4  DISP        4    1
 -5  D1          1    2    1    0
 -5  D2          1    2    2    0
 -5  D3          1    2    3    0
 -5  ALL         1    2    0    0    1ALL
 -1         1 7.05257E-05 0.00000E+00 0.00000E+00
 -1         2 5.36123E-05 0.00000E+00 0.00000E+00
 -1         3 4.40926E-05 0.00000E+00 0.00000E+00
 -1         4 3.92103E-05 0.00000E+00 0.00000E+00
 -1         5 3.70934E-05 0.00000E+00 0.00000E+00
 -1         8 5.53299E-05-6.96353E-07 0.00000E+00
 -1         9 4.37449E-05 6.27390E-07 0.00000E+00
 -1        10 4.05125E-05-1.97934E-06 0.00000E+00
 -1        11 3.80942E-05-3.99809E-07 0.00000E+00
 -1        12 3.55052E-05 9.94602E-07 0.00000E+00
 -1        15 2.53963E-05-1.24270E-06 0.00000E+00
 -1        16 3.17079E-05 6.26219E-07 0.00000E+00
 -1        17 2.90665E-05-3.95604E-06 0.00000E+00
 -1        18 2.96729E-05-8.22554E-07 0.00000E+00
 -1        19 3.13716E-05 1.96579E-06 0.00000E+00
 -1        20 3.18692E-05 2.07997E-05 0.00000E+00
 -1        21 3.18496E-05 4.98148E-05 0.00000E+00
 -1        22 7.63603E-06-8.31838E-07 0.00000E+00
 -1        23 1.02643E-05 1.00243E-06 0.00000E+00
 -1        24 1.19324E-05-4.60429E-06 0.00000E+00
 -1        25 2.55733E-05-5.85409E-07 0.00000E+00
 -1        26 2.72987E-05 2.60110E-06 0.00000E+00
 -1        27 2.56764E-05 2.00734E-05 0.00000E+00
 -1        28 2.37610E-05 4.91286E-05 0.00000E+00
 -1        29 0.00000E+00 0.00000E+00 0.00000E+00
 -1        30 3.65588E-06 1.33390E-06 0.00000E+00
 -1        31 4.61187E-06-3.87522E-06 0.00000E+00
 -1        32 0.00000E+00 0.00000E+00 0.00000E+00
 -1        33 2.15249E-05 4.19353E-06 0.00000E+00
 -1        34 2.03538E-05 2.00094E-05 0.00000E+00
 -1        35 1.77758E-05 4.87647E-05 0.00000E+00
 -1        36 6.95016E-05-9.24705E-20 0.00000E+00
 -1        37 6.84445E-05-4.08078E-19 0.00000E+00
 -1        38 6.73895E-05-8.98267E-19-2.64698E-23
 -1        39 6.63283E-05-1.21292E-18 0.00000E+00
 -1        40 6.52669E-05-1.21233E-18 0.00000E+00
 -1        41 6.42042E-05-8.76301E-19 1.32349E-23
 -1        42 6.31414E-05-3.75844E-19-2.64698E-23
 -1        43 6.20784E-05 2.52484E-19-1.32349E-23
 -1        44 6.10153E-05 8.76481E-19-2.64698E-23
 -1        45 5.99524E-05 1.33888E-18 1.32349E-23
 -1        46 5.88895E-05 1.47734E-18 2.64698E-23
 -1        47 5.78275E-05 1.29573E-18-1.32349E-23
 -1        48 5.67657E-05 9.19575E-19 0.00000E+00
 -1        49 5.57080E-05 5.00271E-19-1.32349E-23
 -1        50 5.46490E-05 1.39705E-19 0.00000E+00
 -1        51 6.93887E-05-1.18629E-07 0.00000E+00
 -1        52 6.74928E-05-2.31707E-07 0.00000E+00
 -1        53 6.49849E-05-3.44090E-07 0.00000E+00
 -1        54 6.20186E-05-4.57404E-07 0.00000E+00
 -1        55 5.87486E-05-5.73094E-07-3.72231E-24
 -1        56 6.91429E-05-5.88396E-07-2.64698E-23
 -1        57 6.77472E-05-1.29563E-06 0.00000E+00
 -1        58 6.63735E-05-2.05344E-06 0.00000E+00
 -1        59 6.49919E-05-2.81604E-06 2.64698E-23
 -1        60 6.35917E-05-3.53013E-06 5.29396E-23
 -1        61 6.21535E-05-4.14750E-06-2.64698E-23
 -1        62 6.06625E-05-4.62472E-06 0.00000E+00
 -1        63 5.91043E-05-4.92332E-06 0.00000E+00
 -1        64 5.74682E-05-5.01479E-06 0.00000E+00
 -1        65 5.57464E-05-4.87714E-06 0.00000E+00
 -1        66 5.39354E-05-4.50149E-06 0.00000E+00
 -1        67 5.20358E-05-3.88598E-06 0.00000E+00
 -1        68 5.00510E-05-3.04323E-06 5.29396E-23
 -1        69 4.79964E-05-1.98958E-06-1.32349E-23
 -1        70 4.58724E-05-7.60297E-07 0.00000E+00
 -1        71 5.30201E-05 3.58820E-19-1.32349E-23
 -1        72 5.24243E-05 1.42569E-18 0.00000E+00
 -1        73 5.18287E-05 2.98380E-18 1.32349E-23
 -1        74 5.12325E-05 4.75055E-18 0.00000E+00
 -1        75 5.06362E-05 6.46407E-18 1.32349E-23
 -1        76 5.00398E-05 7.92080E-18 0.00000E+00
 -1        77 4.94435E-05 8.81535E-18 1.32349E-23
 -1        78 4.88471E-05 9.05551E-18 0.00000E+00
 -1        79 4.82507E-05 8.56317E-18 1.32349E-23
 -1        80 4.76543E-05 7.45910E-18 0.00000E+00
 -1        81 4.70581E-05 5.99395E-18 1.32349E-23
 -1        82 4.64622E-05 4.33294E-18 0.00000E+00
 -1        83 4.58663E-05 2.63332E-18 0.00000E+00
 -1        84 4.52723E-05 1.24358E-18 0.00000E+00
 -1        85 4.46776E-05 3.13591E-19-1.32349E-23
 -1        86 5.31898E-05 8.77601E-08 0.00000E+00
 -1        87 5.19475E-05 1.99498E-07 8.27181E-25
 -1        88 5.01389E-05 3.08734E-07-2.06795E-25
 -1        89 4.80149E-05 4.19143E-07 0.00000E+00
 -1        90 4.58066E-05 5.30582E-07-3.30872E-24
 -1        91 5.53823E-05-6.30863E-06-1.32349E-23
 -1        92 6.15480E-05-2.47656E-05 0.00000E+00
 -1        93 7.07824E-05-5.19588E-05 1.32349E-23
 -1        94 8.17717E-05-8.42676E-05-6.61744E-24
 -1        95 9.27858E-05-1.16649E-04 1.32349E-23
 -1        96 1.02095E-04-1.44059E-04-6.61744E-24
 -1        97 1.08374E-04-1.62834E-04 0.00000E+00
 -1        98 1.10284E-04-1.69519E-04 0.00000E+00
 -1        99 1.07606E-04-1.63956E-04 0.00000E+00
 -1       100 1.00214E-04-1.46247E-04 0.00000E+00
 -1       101 8.93190E-05-1.19755E-04 1.32349E-23
 -1       102 7.62789E-05-8.80017E-05 0.00000E+00
 -1       103 6.31037E-05-5.59194E-05-1.32349E-23
 -1       104 5.18121E-05-2.84447E-05 0.00000E+00
 -1       105 4.38462E-05-9.27960E-06 1.32349E-23
 -1       106 4.37846E-05-4.63018E-20 0.00000E+00
 -1       107 4.34787E-05-1.17462E-19 6.61744E-24
 -1       108 4.31727E-05-1.46143E-19 0.00000E+00
 -1       109 4.28670E-05-1.53556E-19-3.30872E-24
 -1       110 4.25614E-05-1.20497E-19 6.61744E-24
 -1       111 4.22558E-05-9.55958E-20 0.00000E+00
 -1       112 4.19503E-05-1.17517E-19 0.00000E+00
 -1       113 4.16448E-05-1.12634E-19 3.30872E-24
 -1       114 4.13393E-05-9.19124E-20 0.00000E+00
 -1       115 4.10339E-05-4.67758E-20-3.30872E-24
 -1       116 4.07284E-05 1.71743E-21 0.00000E+00
 -1       117 4.04232E-05 1.19186E-20-3.30872E-24
 -1       118 4.01180E-05-1.56304E-20-6.61744E-24
 -1       119 3.98139E-05-8.31668E-21 0.00000E+00
 -1       120 3.95094E-05-1.13297E-20 0.00000E+00
 -1       121 4.40359E-05-3.30729E-07 1.32349E-23
 -1       122 4.38207E-05-6.60269E-07-6.61744E-24
 -1       123 4.34034E-05-9.89901E-07 1.32349E-23
 -1       124 4.27409E-05-1.31948E-06-6.61744E-24
 -1       125 4.17910E-05-1.64925E-06 1.32349E-23
 -1       126 4.38004E-05-2.49679E-07-1.32349E-23
 -1       127 4.36000E-05-7.41620E-07 0.00000E+00
 -1       128 4.34663E-05-1.41185E-06 1.32349E-23
 -1       129 4.33744E-05-2.19351E-06 6.61744E-24
 -1       130 4.32912E-05-2.99827E-06 0.00000E+00
 -1       131 4.31835E-05-3.73742E-06 0.00000E+00
 -1       132 4.30229E-05-4.33542E-06 0.00000E+00
 -1       133 4.27819E-05-4.71870E-06 0.00000E+00
 -1       134 4.24481E-05-4.85418E-06 1.32349E-23
 -1       135 4.20102E-05-4.71228E-06-6.61744E-24
 -1       136 4.14768E-05-4.31601E-06 1.32349E-23
 -1       137 4.08581E-05-3.69190E-06 0.00000E+00
 -1       138 4.01801E-05-2.90992E-06 0.00000E+00
 -1       139 3.94709E-05-2.04177E-06 0.00000E+00
 -1       140 3.87623E-05-1.17645E-06 6.61744E-24
 -1       141 3.90749E-05-2.61665E-20-3.30872E-24
 -1       142 3.89412E-05-2.31406E-20 0.00000E+00
 -1       143 3.88074E-05-7.26839E-20-3.30872E-24
 -1       144 3.86738E-05-1.02562E-19 0.00000E+00
 -1       145 3.85403E-05-9.46275E-20 0.00000E+00
 -1       146 3.84069E-05-4.64390E-20 1.65436E-24
 -1       147 3.82734E-05 1.77718E-20 0.00000E+00
 -1       148 3.81400E-05 2.11911E-20 0.00000E+00
 -1       149 3.80066E-05 3.88775E-22 0.00000E+00
 -1       150 3.78733E-05-1.55929E-20 0.00000E+00
 -1       151 3.77401E-05-4.59530E-20 0.00000E+00
 -1       152 3.76073E-05-4.72014E-20-1.65436E-24
 -1       153 3.74746E-05-3.72039E-20-3.30872E-24
 -1       154 3.73441E-05-1.23472E-21-8.27181E-25
 -1       155 3.72129E-05-4.03643E-21-4.13590E-25
 -1       156 3.92327E-05-6.91310E-08 3.30872E-24
 -1       157 3.92920E-05-1.34094E-07 0.00000E+00
 -1       158 3.92968E-05-1.99369E-07-3.30872E-24
 -1       159 3.91562E-05-2.64749E-07 1.65436E-24
 -1       160 3.87839E-05-3.29850E-07 0.00000E+00
 -1       161 3.90343E-05-8.90578E-08-6.61744E-24
 -1       162 3.88727E-05-2.17715E-07 0.00000E+00
 -1       163 3.87201E-05-3.70262E-07 0.00000E+00
 -1       164 3.85705E-05-5.31031E-07-3.30872E-24
 -1       165 3.84177E-05-6.83234E-07 0.00000E+00
 -1       166 3.82554E-05-8.10199E-07-3.30872E-24
 -1       167 3.80784E-05-8.98215E-07 6.61744E-24
 -1       168 3.78819E-05-9.33870E-07 0.00000E+00
 -1       169 3.76628E-05-9.09226E-07 0.00000E+00
 -1       170 3.74183E-05-8.16769E-07 0.00000E+00
 -1       171 3.71484E-05-6.56265E-07 0.00000E+00
 -1       172 3.68534E-05-4.27818E-07-3.30872E-24
 -1       173 3.65359E-05-1.39048E-07 0.00000E+00
 -1       174 3.62012E-05 2.03075E-07-1.65436E-24
 -1       175 3.58510E-05 5.83721E-07 0.00000E+00
 -1       191 3.70363E-05 1.65584E-07-6.61744E-24
 -1       192 3.68929E-05 3.31517E-07 0.00000E+00
 -1       193 3.66651E-05 4.97518E-07 0.00000E+00
 -1       194 3.63558E-05 6.63482E-07-3.30872E-24
 -1       195 3.59680E-05 8.29299E-07 0.00000E+00
 -1       251 5.47460E-05 6.61251E-06-1.32349E-23
 -1       252 5.40484E-05 2.29364E-05-6.61744E-24
 -1       253 5.32418E-05 4.53460E-05 0.00000E+00
 -1       254 5.23638E-05 7.07686E-05 6.61744E-24
 -1       255 5.15059E-05 9.53157E-05-1.32349E-23
 -1       256 5.07489E-05 1.15120E-04-6.61744E-24
 -1       257 5.01018E-05 1.27598E-04 0.00000E+00
 -1       258 4.95259E-05 1.30340E-04 6.61744E-24
 -1       259 4.89321E-05 1.23562E-04 0.00000E+00
 -1       260 4.82395E-05 1.07703E-04 0.00000E+00
 -1       261 4.74380E-05 8.56560E-05-1.32349E-23
 -1       262 4.65652E-05 6.04562E-05-6.61744E-24
 -1       263 4.57095E-05 3.59957E-05-1.32349E-23
 -1       264 4.49544E-05 1.61490E-05 0.00000E+00
 -1       265 4.43079E-05 3.54102E-06 0.00000E+00
 -1       266 5.26088E-05-7.84309E-07 0.00000E+00
 -1       267 4.98470E-05-8.63958E-07 0.00000E+00
 -1       268 4.63828E-05-9.46299E-07 0.00000E+00
 -1       269 4.15568E-05-1.03194E-06 0.00000E+00
 -1       270 3.47617E-05-1.12890E-06 0.00000E+00
 -1       271 5.32012E-05 1.24339E-06 0.00000E+00
 -1       272 5.12584E-05 2.56303E-06 1.32349E-23
 -1       273 4.95216E-05 3.33952E-06 0.00000E+00
 -1       274 4.79571E-05 3.63865E-06-1.32349E-23
 -1       275 4.65423E-05 3.53744E-06 0.00000E+00
 -1       276 4.52464E-05 3.11620E-06 2.64698E-23
 -1       277 4.40383E-05 2.46002E-06 5.29396E-23
 -1       278 4.28851E-05 1.65694E-06-2.64698E-23
 -1       279 4.17531E-05 7.97067E-07 5.29396E-23
 -1       280 4.06085E-05-2.87190E-08 2.64698E-23
 -1       281 3.94176E-05-7.30089E-07 0.00000E+00
 -1       282 3.81478E-05-1.21821E-06 0.00000E+00
 -1       283 3.67666E-05-1.40746E-06 0.00000E+00
 -1       284 3.52486E-05-1.21428E-06 1.32349E-23
 -1       285 3.35576E-05-5.64746E-07-2.64698E-23
 -1       286 4.35390E-05 2.33651E-06 0.00000E+00
 -1       287 4.33371E-05 3.50624E-06 0.00000E+00
 -1       288 4.31355E-05 4.13972E-06-6.61744E-24
 -1       289 4.29346E-05 4.24446E-06 0.00000E+00
 -1       290 4.27338E-05 3.88153E-06-6.61744E-24
 -1       291 4.25328E-05 3.11587E-06-3.30872E-24
 -1       292 4.23316E-05 2.05318E-06 0.00000E+00
 -1       293 4.21302E-05 8.01568E-07 3.30872E-24
 -1       294 4.19287E-05-5.11685E-07 0.00000E+00
 -1       295 4.17272E-05-1.75880E-06 0.00000E+00
 -1       296 4.15260E-05-2.81874E-06-6.61744E-24
 -1       297 4.13248E-05-3.57194E-06 3.30872E-24
 -1       298 4.11238E-05-3.92993E-06-6.61744E-24
 -1       299 4.09218E-05-3.80748E-06 3.30872E-24
 -1       300 4.07200E-05-3.16806E-06 0.00000E+00
 -1       301 4.17380E-05 6.19105E-07 0.00000E+00
 -1       302 3.97219E-05 6.23133E-07 8.27181E-25
 -1       303 3.77037E-05 6.29346E-07-1.65436E-24
 -1       304 3.56904E-05 6.35245E-07-1.65436E-24
 -1       305 3.36895E-05 6.38266E-07 0.00000E+00
 -1       306 4.22580E-05 1.93290E-06-2.64698E-23
 -1       307 4.09776E-05 2.61000E-06-1.32349E-23
 -1       308 3.99016E-05 2.74539E-06-2.64698E-23
 -1       309 3.89942E-05 2.41967E-06-1.32349E-23
 -1       310 3.82262E-05 1.72078E-06 0.00000E+00
 -1       311 3.75634E-05 7.38950E-07-1.32349E-23
 -1       312 3.69714E-05-4.32561E-07 2.64698E-23
 -1       313 3.64148E-05-1.69886E-06 1.32349E-23
 -1       314 3.58577E-05-2.96405E-06-2.64698E-23
 -1       315 3.52645E-05-4.13223E-06-1.32349E-23
 -1       316 3.45997E-05-5.10856E-06 2.64698E-23
 -1       317 3.38291E-05-5.79986E-06-1.32349E-23
 -1       318 3.29183E-05-6.11597E-06 0.00000E+00
 -1       319 3.18389E-05-5.96883E-06 1.32349E-23
 -1       320 3.05542E-05-5.27824E-06 0.00000E+00
 -1       321 4.03531E-05-6.79604E-07-6.61744E-24
 -1       322 4.02012E-05 2.92256E-07 0.00000E+00
 -1       323 4.00492E-05 9.45518E-07-6.61744E-24
 -1       324 3.98986E-05 1.29142E-06-3.30872E-24
 -1       325 3.97482E-05 1.36470E-06 6.61744E-24
 -1       326 3.95980E-05 1.20173E-06-1.65436E-24
 -1       327 3.94479E-05 8.56964E-07 3.30872E-24
 -1       328 3.92977E-05 3.85946E-07 0.00000E+00
 -1       329 3.91475E-05-1.46126E-07 0.00000E+00
 -1       330 3.89973E-05-6.73697E-07-1.65436E-24
 -1       331 3.88472E-05-1.13154E-06-3.30872E-24
 -1       332 3.86970E-05-1.45486E-06 1.65436E-24
 -1       333 3.85469E-05-1.58914E-06 3.30872E-24
 -1       334 3.83965E-05-1.48101E-06 3.30872E-24
 -1       335 3.82461E-05-1.09561E-06 0.00000E+00
 -1       336 3.89204E-05-2.30998E-06 0.00000E+00
 -1       337 3.71269E-05-2.64074E-06 6.61744E-24
 -1       338 3.51881E-05-2.97161E-06 6.61744E-24
 -1       339 3.31604E-05-3.30169E-06 3.30872E-24
 -1       340 3.11009E-05-3.63195E-06 0.00000E+00
 -1       341 3.82351E-05 2.57772E-06 0.00000E+00
 -1       342 3.34715E-05 1.35941E-05 0.00000E+00
 -1       343 2.69669E-05 2.90825E-05-1.32349E-23
 -1       344 1.95168E-05 4.69695E-05 0.00000E+00
 -1       345 1.21913E-05 6.45400E-05-1.32349E-23
 -1       346 6.05488E-06 7.90843E-05-6.61744E-24
 -1       347 1.82961E-06 8.87041E-05 0.00000E+00
 -1       348 1.76190E-07 9.15931E-05 0.00000E+00
 -1       349 1.04334E-06 8.77554E-05-1.32349E-23
 -1       350 4.32972E-06 7.73336E-05 0.00000E+00
 -1       351 9.30108E-06 6.22544E-05 0.00000E+00
 -1       352 1.52119E-05 4.45484E-05-6.61744E-24
 -1       353 2.10795E-05 2.69639E-05 1.32349E-23
 -1       354 2.59254E-05 1.22480E-05-6.61744E-24
 -1       355 2.90195E-05 2.36445E-06 0.00000E+00
 -1       356 3.79298E-05 3.64028E-07 0.00000E+00
 -1       357 3.77663E-05 9.51190E-07 0.00000E+00
 -1       358 3.76029E-05 1.36387E-06 0.00000E+00
 -1       359 3.74398E-05 1.60540E-06 0.00000E+00
 -1       360 3.72766E-05 1.69332E-06 6.61744E-24
 -1       361 3.71135E-05 1.64616E-06 3.30872E-24
 -1       362 3.69504E-05 1.49366E-06-6.61744E-24
 -1       363 3.67873E-05 1.26626E-06 0.00000E+00
 -1       364 3.66242E-05 1.00058E-06 0.00000E+00
 -1       365 3.64613E-05 7.33527E-07 0.00000E+00
 -1       366 3.62984E-05 5.02105E-07-3.30872E-24
 -1       367 3.61360E-05 3.43078E-07-1.65436E-24
 -1       368 3.59737E-05 2.87229E-07 0.00000E+00
 -1       369 3.58138E-05 3.64644E-07 0.00000E+00
 -1       370 3.56531E-05 5.94418E-07 2.06795E-25
 -1       371 3.69757E-05-4.75197E-07-3.30872E-24
 -1       372 3.53500E-05-5.46388E-07 0.00000E+00
 -1       373 3.35122E-05-6.18180E-07 0.00000E+00
 -1       374 3.17583E-05-6.88164E-07-8.27181E-25
 -1       375 3.03813E-05-7.57815E-07 0.00000E+00
 -1       376 3.74786E-05 2.81213E-07 6.61744E-24
 -1       377 3.68978E-05 8.52405E-07 3.30872E-24
 -1       378 3.63677E-05 1.29007E-06 6.61744E-24
 -1       379 3.58958E-05 1.56953E-06 0.00000E+00
 -1       380 3.54814E-05 1.69569E-06-1.32349E-23
 -1       381 3.51219E-05 1.67507E-06 0.00000E+00
 -1       382 3.48049E-05 1.54110E-06 1.32349E-23
 -1       383 3.45173E-05 1.32863E-06 0.00000E+00
 -1       384 3.42407E-05 1.08704E-06 0.00000E+00
 -1       385 3.39564E-05 8.66089E-07 6.61744E-24
 -1       386 3.36474E-05 7.11206E-07-1.32349E-23
 -1       387 3.32975E-05 6.67115E-07-3.30872E-24
 -1       388 3.28969E-05 7.58405E-07 6.61744E-24
 -1       389 3.24399E-05 1.00920E-06-3.30872E-24
 -1       390 3.19244E-05 1.41205E-06 0.00000E+00
 -1       406 3.49385E-05 1.15731E-06 0.00000E+00
 -1       407 3.43099E-05 1.32029E-06 0.00000E+00
 -1       408 3.36287E-05 1.48319E-06-6.61744E-24
 -1       409 3.29052E-05 1.64569E-06 0.00000E+00
 -1       410 3.21494E-05 1.80730E-06 0.00000E+00
 -1       466 2.57426E-05 7.61985E-06 6.61744E-24
 -1       467 2.61295E-05 1.29641E-05 0.00000E+00
 -1       468 2.65260E-05 1.56931E-05 0.00000E+00
 -1       469 2.69287E-05 1.66658E-05-6.61744E-24
 -1       470 2.73320E-05 1.63452E-05 1.32349E-23
 -1       471 2.77353E-05 1.51730E-05-6.61744E-24
 -1       472 2.81379E-05 1.33980E-05 1.32349E-23
 -1       473 2.85398E-05 1.12594E-05 0.00000E+00
 -1       474 2.89413E-05 8.91361E-06 1.32349E-23
 -1       475 2.93425E-05 6.51405E-06 0.00000E+00
 -1       476 2.97437E-05 4.20178E-06 0.00000E+00
 -1       477 3.01443E-05 2.11927E-06-6.61744E-24
 -1       478 3.05454E-05 4.60972E-07 1.32349E-23
 -1       479 3.09416E-05-5.71552E-07 0.00000E+00
 -1       480 3.13402E-05-6.36083E-07 0.00000E+00
 -1       481 1.65851E-05-1.20578E-06-8.27181E-25
 -1       482 1.14090E-05-1.14096E-06 8.27181E-25
 -1       483 8.87878E-06-1.06608E-06 0.00000E+00
 -1       484 8.01383E-06-9.88072E-07 0.00000E+00
 -1       485 7.90262E-06-9.09461E-07 0.00000E+00
 -1       486 1.87230E-05 1.48890E-05 6.61744E-24
 -1       487 7.63006E-06 4.20444E-05 0.00000E+00
 -1       488-6.31215E-06 7.61786E-05 1.32349E-23
 -1       489-2.14296E-05 1.13137E-04 6.61744E-24
 -1       490-3.57228E-05 1.48105E-04-1.32349E-23
 -1       491-4.72326E-05 1.76291E-04 0.00000E+00
 -1       492-5.47527E-05 1.94507E-04-1.32349E-23
 -1       493-5.72247E-05 1.99717E-04 6.61744E-24
 -1       494-5.48510E-05 1.91966E-04 1.32349E-23
 -1       495-4.79154E-05 1.71536E-04 0.00000E+00
 -1       496-3.77213E-05 1.41766E-04 1.32349E-23
 -1       497-2.55533E-05 1.06189E-04 0.00000E+00
 -1       498-1.30995E-05 6.97672E-05-1.32349E-23
 -1       499-2.04171E-06 3.74814E-05 0.00000E+00
 -1       500 6.21683E-06 1.32949E-05 0.00000E+00
 -1       501 3.15345E-05 2.23702E-06 0.00000E+00
 -1       502 3.13691E-05 3.17538E-06 0.00000E+00
 -1       503 3.12037E-05 3.48123E-06 6.61744E-24
 -1       504 3.10396E-05 3.19873E-06 0.00000E+00
 -1       505 3.08754E-05 2.42094E-06-6.61744E-24
 -1       506 3.07110E-05 1.24426E-06 0.00000E+00
 -1       507 3.05464E-05-2.01754E-07 0.00000E+00
 -1       508 3.03815E-05-1.78581E-06 0.00000E+00
 -1       509 3.02168E-05-3.36510E-06 6.61744E-24
 -1       510 3.00522E-05-4.79684E-06-3.30872E-24
 -1       511 2.98880E-05-5.95055E-06 0.00000E+00
 -1       512 2.97241E-05-6.69757E-06 0.00000E+00
 -1       513 2.95604E-05-6.94301E-06 0.00000E+00
 -1       514 2.93966E-05-6.59536E-06 0.00000E+00
 -1       515 2.92324E-05-5.61238E-06 6.61744E-24
 -1       516 2.82623E-05 6.81621E-07 0.00000E+00
 -1       517 2.20093E-05 7.40907E-07-4.13590E-25
 -1       518 1.50058E-05 7.94560E-07-4.13590E-25
 -1       519 9.30536E-06 8.58350E-07 4.13590E-25
 -1       520 7.01777E-06 9.34352E-07 0.00000E+00
 -1       521 2.99476E-05 1.80172E-06-2.64698E-23
 -1       522 2.83804E-05 2.35447E-06 1.32349E-23
 -1       523 2.70153E-05 2.37265E-06 0.00000E+00
 -1       524 2.58149E-05 1.93553E-06 0.00000E+00
 -1       525 2.47511E-05 1.13219E-06-2.64698E-23
 -1       526 2.37890E-05 5.45801E-08 0.00000E+00
 -1       527 2.28934E-05-1.20147E-06 0.00000E+00
 -1       528 2.20279E-05-2.53811E-06-1.32349E-23
 -1       529 2.11554E-05-3.85636E-06 2.64698E-23
 -1       530 2.02393E-05-5.05751E-06 0.00000E+00
 -1       531 1.92432E-05-6.04439E-06-2.64698E-23
 -1       532 1.81324E-05-6.72237E-06 0.00000E+00
 -1       533 1.68725E-05-7.00108E-06 0.00000E+00
 -1       534 1.54359E-05-6.79357E-06 0.00000E+00
 -1       535 1.37864E-05-6.02290E-06-2.64698E-23
 -1       536 2.90929E-05-2.19689E-06 0.00000E+00
 -1       537 2.91293E-05-8.59842E-07 4.13590E-25
 -1       538 2.91660E-05 1.00988E-07 1.55096E-25
 -1       539 2.92043E-05 7.31658E-07-2.06795E-25
 -1       540 2.92430E-05 1.07803E-06-8.27181E-25
 -1       541 2.92820E-05 1.18589E-06 0.00000E+00
 -1       542 2.93211E-05 1.10093E-06 0.00000E+00
 -1       543 2.93603E-05 8.68782E-07 0.00000E+00
 -1       544 2.93994E-05 5.35011E-07-8.27181E-25
 -1       545 2.94385E-05 1.45150E-07-4.13590E-25
 -1       546 2.94777E-05-2.55285E-07 0.00000E+00
 -1       547 2.95168E-05-6.20782E-07-8.27181E-25
 -1       548 2.95559E-05-9.05823E-07 0.00000E+00
 -1       549 2.95950E-05-1.06486E-06-8.27181E-25
 -1       550 2.96342E-05-1.05228E-06 1.65436E-24
 -1       551 2.65067E-05-4.06313E-06 2.94683E-24
 -1       552 2.36625E-05-4.16739E-06-4.13590E-25
 -1       553 2.06573E-05-4.27169E-06-3.30872E-24
 -1       554 1.76169E-05-4.37710E-06-3.30872E-24
 -1       555 1.46673E-05-4.48485E-06 1.32349E-23
 -1       556 2.83058E-05-2.31497E-06 0.00000E+00
 -1       557 2.76887E-05-1.04677E-06-1.32349E-23
 -1       558 2.71990E-05-1.15580E-07 0.00000E+00
 -1       559 2.68217E-05 5.18028E-07-1.32349E-23
 -1       560 2.65414E-05 8.93554E-07-6.61744E-24
 -1       561 2.63431E-05 1.05086E-06 0.00000E+00
 -1       562 2.62117E-05 1.02986E-06 0.00000E+00
 -1       563 2.61323E-05 8.70518E-07 0.00000E+00
 -1       564 2.60897E-05 6.12811E-07-6.61744E-24
 -1       565 2.60691E-05 2.96746E-07-1.65436E-24
 -1       566 2.60553E-05-3.76636E-08 0.00000E+00
 -1       567 2.60335E-05-3.50396E-07 8.27181E-25
 -1       568 2.59888E-05-6.01440E-07 2.48154E-24
 -1       569 2.59063E-05-7.50831E-07 3.26349E-25
 -1       570 2.57716E-05-7.58643E-07 4.13590E-25
 -1       571 2.97747E-05-5.71142E-07-1.03398E-24
 -1       572 2.98799E-05-3.97237E-07 1.44757E-24
 -1       573 2.99859E-05-2.87088E-07 0.00000E+00
 -1       574 3.00924E-05-2.26239E-07 0.00000E+00
 -1       575 3.01991E-05-2.00183E-07 1.65436E-24
 -1       576 3.03058E-05-1.94317E-07 0.00000E+00
 -1       577 3.04126E-05-1.94038E-07-3.30872E-24
 -1       578 3.05194E-05-1.84728E-07-4.96308E-24
 -1       579 3.06262E-05-1.51767E-07 0.00000E+00
 -1       580 3.07330E-05-8.05374E-08-6.61744E-24
 -1       581 3.08398E-05 4.35802E-08 0.00000E+00
 -1       582 3.09465E-05 2.35193E-07 0.00000E+00
 -1       583 3.10532E-05 5.08897E-07 0.00000E+00
 -1       584 3.11597E-05 8.79151E-07 0.00000E+00
 -1       585 3.12660E-05 1.36034E-06 0.00000E+00
 -1       586 2.90796E-05-7.82222E-07 3.30872E-24
 -1       587 2.84000E-05-7.41554E-07-1.65436E-24
 -1       588 2.76714E-05-7.00936E-07-1.65436E-24
 -1       589 2.69320E-05-6.60723E-07 1.97102E-25
 -1       590 2.62201E-05-6.21413E-07 0.00000E+00
 -1       591 2.95007E-05-5.31670E-07 0.00000E+00
 -1       592 2.93430E-05-2.91579E-07 8.27181E-25
 -1       593 2.92000E-05-9.29857E-08 0.00000E+00
 -1       594 2.90688E-05 7.26972E-08 0.00000E+00
 -1       595 2.89466E-05 2.14050E-07 0.00000E+00
 -1       596 2.88302E-05 3.39602E-07-8.27181E-25
 -1       597 2.87166E-05 4.57875E-07 0.00000E+00
 -1       598 2.86024E-05 5.77384E-07 0.00000E+00
 -1       599 2.84846E-05 7.06643E-07 1.65436E-24
 -1       600 2.83600E-05 8.54167E-07 0.00000E+00
 -1       601 2.82254E-05 1.02847E-06 0.00000E+00
 -1       602 2.80776E-05 1.23806E-06 6.20385E-25
 -1       603 2.79135E-05 1.49148E-06 1.44757E-24
 -1       604 2.77303E-05 1.79729E-06-3.10193E-25
 -1       605 2.75251E-05 2.16408E-06 0.00000E+00
 -1       606 3.14065E-05 2.76522E-06 0.00000E+00
 -1       607 3.14388E-05 3.63751E-06-1.65436E-24
 -1       608 3.14704E-05 4.57841E-06 3.30872E-24
 -1       609 3.15016E-05 5.58304E-06 0.00000E+00
 -1       610 3.15326E-05 6.64652E-06 0.00000E+00
 -1       611 3.15635E-05 7.76385E-06 0.00000E+00
 -1       612 3.15943E-05 8.93003E-06-3.30872E-24
 -1       613 3.16251E-05 1.01401E-05 0.00000E+00
 -1       614 3.16558E-05 1.13890E-05 0.00000E+00
 -1       615 3.16864E-05 1.26718E-05 0.00000E+00
 -1       616 3.17170E-05 1.39834E-05 0.00000E+00
 -1       617 3.17476E-05 1.53189E-05 0.00000E+00
 -1       618 3.17782E-05 1.66733E-05 1.65436E-24
 -1       619 3.18087E-05 1.80416E-05 0.00000E+00
 -1       620 3.18391E-05 1.94187E-05 0.00000E+00
 -1       621 3.06142E-05 2.07189E-06 3.30872E-24
 -1       622 2.98769E-05 2.17866E-06-8.27181E-25
 -1       623 2.91683E-05 2.28549E-06 0.00000E+00
 -1       624 2.84969E-05 2.39208E-06 0.00000E+00
 -1       625 2.78710E-05 2.49806E-06 0.00000E+00
 -1       626 3.11294E-05 2.80098E-06 0.00000E+00
 -1       627 3.08572E-05 3.71220E-06 0.00000E+00
 -1       628 3.05586E-05 4.69250E-06 0.00000E+00
 -1       629 3.02369E-05 5.73398E-06 0.00000E+00
 -1       630 2.98951E-05 6.82871E-06 0.00000E+00
 -1       631 2.95362E-05 7.96861E-06 0.00000E+00
 -1       632 2.91634E-05 9.14558E-06 0.00000E+00
 -1       633 2.87797E-05 1.03516E-05 0.00000E+00
 -1       634 2.83881E-05 1.15785E-05 1.65436E-24
 -1       635 2.79916E-05 1.28183E-05 0.00000E+00
 -1       636 2.75933E-05 1.40628E-05-1.65436E-24
 -1       637 2.71963E-05 1.53041E-05 0.00000E+00
 -1       638 2.68034E-05 1.65338E-05 1.65436E-24
 -1       639 2.64176E-05 1.77441E-05 4.13590E-25
 -1       640 2.60415E-05 1.89267E-05 4.13590E-25
 -1       641 3.18701E-05 2.22351E-05 0.00000E+00
 -1       642 3.18698E-05 2.38225E-05 0.00000E+00
 -1       643 3.18693E-05 2.55401E-05 0.00000E+00
 -1       644 3.18685E-05 2.73661E-05 2.58494E-26
 -1       645 3.18675E-05 2.92787E-05-5.16988E-26
 -1       646 3.18663E-05 3.12562E-05-1.29247E-26
 -1       647 3.18651E-05 3.32768E-05 0.00000E+00
 -1       648 3.18638E-05 3.53188E-05-6.46235E-27
 -1       649 3.18624E-05 3.73604E-05 2.01948E-28
 -1       650 3.18611E-05 3.93799E-05 0.00000E+00
 -1       651 3.18599E-05 4.13556E-05 5.16988E-26
 -1       652 3.18586E-05 4.32657E-05 1.03398E-25
 -1       653 3.18575E-05 4.50885E-05-4.13590E-25
 -1       654 3.18558E-05 4.68021E-05-4.13590E-25
 -1       655 3.18545E-05 4.83848E-05 0.00000E+00
 -1       656 3.06217E-05 2.06825E-05 0.00000E+00
 -1       657 2.95373E-05 2.05595E-05 0.00000E+00
 -1       658 2.85584E-05 2.04368E-05 3.30872E-24
 -1       659 2.76271E-05 2.03141E-05-1.65436E-24
 -1       660 2.66857E-05 2.01911E-05 0.00000E+00
 -1       661 3.14681E-05 2.22764E-05 0.00000E+00
 -1       662 3.10270E-05 2.38742E-05-1.65436E-24
 -1       663 3.05473E-05 2.55738E-05 0.00000E+00
 -1       664 3.00366E-05 2.73580E-05 0.00000E+00
 -1       665 2.95006E-05 2.92096E-05 0.00000E+00
 -1       666 2.89459E-05 3.11112E-05 0.00000E+00
 -1       667 2.83787E-05 3.30458E-05 0.00000E+00
 -1       668 2.78055E-05 3.49965E-05 1.65436E-24
 -1       669 2.72327E-05 3.69462E-05 0.00000E+00
 -1       670 2.66666E-05 3.88779E-05-1.65436E-24
 -1       671 2.61136E-05 4.07746E-05 0.00000E+00
 -1       672 2.55801E-05 4.26192E-05 1.65436E-24
 -1       673 2.50726E-05 4.43946E-05-3.30872E-24
 -1       674 2.45965E-05 4.60831E-05 0.00000E+00
 -1       675 2.41597E-05 4.76679E-05 0.00000E+00
 -1       676 3.04976E-05 4.97002E-05-3.30872E-24
 -1       677 2.91469E-05 4.95850E-05 1.65436E-24
 -1       678 2.77977E-05 4.94698E-05-3.30872E-24
 -1       679 2.64502E-05 4.93551E-05 1.65436E-24
 -1       680 2.51046E-05 4.92402E-05 0.00000E+00
 -1       681 7.79814E-06-2.14737E-07 0.00000E+00
 -1       682 7.96457E-06 8.55060E-07-1.65436E-24
 -1       683 8.13032E-06 2.25988E-06 3.30872E-24
 -1       684 8.29663E-06 3.88437E-06 0.00000E+00
 -1       685 8.46277E-06 5.63289E-06-6.61744E-24
 -1       686 8.62904E-06 7.41072E-06-3.30872E-24
 -1       687 8.79543E-06 9.12573E-06 0.00000E+00
 -1       688 8.96208E-06 1.06853E-05 0.00000E+00
 -1       689 9.12908E-06 1.19831E-05 6.61744E-24
 -1       690 9.29641E-06 1.29105E-05 0.00000E+00
 -1       691 9.46401E-06 1.33259E-05-6.61744E-24
 -1       692 9.63131E-06 1.30841E-05 1.65436E-24
 -1       693 9.79796E-06 1.19807E-05 0.00000E+00
 -1       694 9.96114E-06 9.80534E-06-1.65436E-24
 -1       695 1.01210E-05 6.25131E-06 0.00000E+00
 -1       696 6.97478E-06-6.96291E-07-3.30872E-24
 -1       697 5.78128E-06-5.57575E-07-1.65436E-24
 -1       698 4.27362E-06-4.19459E-07 0.00000E+00
 -1       699 2.66807E-06-2.80472E-07 1.65436E-24
 -1       700 1.17366E-06-1.41407E-07 6.61744E-24
 -1       701 7.38351E-06-6.58585E-07 0.00000E+00
 -1       702 7.23279E-06-7.84956E-07 1.65436E-24
 -1       703 7.17345E-06-1.15322E-06 0.00000E+00
 -1       704 7.18221E-06-1.70842E-06 0.00000E+00
 -1       705 7.23274E-06-2.37519E-06-6.61744E-24
 -1       706 7.29643E-06-3.07810E-06 0.00000E+00
 -1       707 7.34392E-06-3.73778E-06 0.00000E+00
 -1       708 7.34561E-06-4.27531E-06 0.00000E+00
 -1       709 7.27664E-06-4.62420E-06-6.61744E-24
 -1       710 7.11262E-06-4.71937E-06 0.00000E+00
 -1       711 6.83872E-06-4.52154E-06-6.61744E-24
 -1       712 6.44117E-06-3.99350E-06 0.00000E+00
 -1       713 5.91821E-06-3.13174E-06 0.00000E+00
 -1       714 5.27088E-06-1.93450E-06 0.00000E+00
 -1       715 4.50922E-06-4.35449E-07-1.65436E-24
 -1       716 1.03513E-05-4.46255E-06-8.27181E-25
 -1       717 1.04512E-05-8.65084E-06 0.00000E+00
 -1       718 1.05545E-05-1.17534E-05 3.30872E-24
 -1       719 1.06615E-05-1.39562E-05 0.00000E+00
 -1       720 1.07699E-05-1.53931E-05-3.30872E-24
 -1       721 1.08792E-05-1.61942E-05-1.65436E-24
 -1       722 1.09888E-05-1.64529E-05 0.00000E+00
 -1       723 1.10985E-05-1.62598E-05 0.00000E+00
 -1       724 1.12080E-05-1.56795E-05-3.30872E-24
 -1       725 1.13171E-05-1.47746E-05 1.65436E-24
 -1       726 1.14258E-05-1.35888E-05 3.30872E-24
 -1       727 1.15335E-05-1.21647E-05-1.65436E-24
 -1       728 1.16408E-05-1.05309E-05 0.00000E+00
 -1       729 1.17440E-05-8.71494E-06-2.06795E-25
 -1       730 1.18482E-05-6.73395E-06 3.30872E-24
 -1       731 1.44700E-05 1.04844E-06-5.16988E-26
 -1       732 1.49724E-05 1.10802E-06 0.00000E+00
 -1       733 1.29684E-05 1.16604E-06 0.00000E+00
 -1       734 9.64857E-06 1.22150E-06 0.00000E+00
 -1       735 6.16168E-06 1.27655E-06-1.65436E-24
 -1       736 1.26962E-05-6.66044E-06 0.00000E+00
 -1       737 1.61183E-05-1.70732E-05 3.30872E-24
 -1       738 2.00832E-05-2.89775E-05 0.00000E+00
 -1       739 2.41229E-05-4.10956E-05-6.61744E-24
 -1       740 2.77600E-05-5.21041E-05 0.00000E+00
 -1       741 3.05167E-05-6.06985E-05 0.00000E+00
 -1       742 3.20932E-05-6.60830E-05 1.32349E-23
 -1       743 3.22013E-05-6.75144E-05 0.00000E+00
 -1       744 3.08563E-05-6.50781E-05-1.32349E-23
 -1       745 2.80975E-05-5.89197E-05 6.61744E-24
 -1       746 2.42657E-05-4.99618E-05 0.00000E+00
 -1       747 1.97257E-05-3.91679E-05 6.61744E-24
 -1       748 1.49961E-05-2.78846E-05 0.00000E+00
 -1       749 1.06027E-05-1.74638E-05 0.00000E+00
 -1       750 6.99348E-06-9.08073E-06 0.00000E+00
 -1       751 1.27336E-05-2.79036E-06 0.00000E+00
 -1       752 1.35859E-05-1.72138E-06 6.61744E-24
 -1       753 1.44355E-05-1.14976E-06-2.64698E-23
 -1       754 1.52947E-05-8.46007E-07 0.00000E+00
 -1       755 1.61543E-05-7.20695E-07 2.64698E-23
 -1       756 1.70157E-05-6.90769E-07-1.32349E-23
 -1       757 1.78774E-05-7.23279E-07-2.64698E-23
 -1       758 1.87394E-05-7.87504E-07 0.00000E+00
 -1       759 1.96014E-05-8.69393E-07-2.64698E-23
 -1       760 2.04633E-05-9.55531E-07 1.32349E-23
 -1       761 2.13249E-05-1.03473E-06 2.64698E-23
 -1       762 2.21853E-05-1.09556E-06 0.00000E+00
 -1       763 2.30454E-05-1.11693E-06 2.64698E-23
 -1       764 2.38986E-05-1.07635E-06 0.00000E+00
 -1       765 2.47541E-05-9.18902E-07 1.32349E-23
 -1       766 1.02712E-05-4.49861E-06 3.30872E-24
 -1       767 9.63557E-06-4.37162E-06 0.00000E+00
 -1       768 9.39110E-06-4.24578E-06 1.65436E-24
 -1       769 8.90582E-06-4.11804E-06-8.27181E-25
 -1       770 7.53075E-06-3.99040E-06 0.00000E+00
 -1       771 1.06448E-05-2.84947E-06-2.64698E-23
 -1       772 9.47035E-06-1.41911E-06-1.32349E-23
 -1       773 8.40617E-06-2.86155E-07 0.00000E+00
 -1       774 7.44265E-06 5.76817E-07-1.32349E-23
 -1       775 6.57002E-06 1.19731E-06-2.64698E-23
 -1       776 5.77799E-06 1.60302E-06 0.00000E+00
 -1       777 5.05614E-06 1.82173E-06 2.64698E-23
 -1       778 4.39401E-06 1.88134E-06-1.32349E-23
 -1       779 3.78111E-06 1.80979E-06 0.00000E+00
 -1       780 3.20693E-06 1.63513E-06 1.32349E-23
 -1       781 2.66095E-06 1.38542E-06 0.00000E+00
 -1       782 2.13273E-06 1.08883E-06 6.61744E-24
 -1       783 1.61181E-06 7.73527E-07 1.32349E-23
 -1       784 1.08828E-06 4.67815E-07-6.61744E-24
 -1       785 5.52300E-07 2.00029E-07-1.32349E-23
 -1       786 2.56747E-05-2.07760E-07 8.27181E-25
 -1       787 2.57823E-05 8.69627E-08-8.27181E-25
 -1       788 2.58898E-05 3.11522E-07 0.00000E+00
 -1       789 2.59982E-05 4.78660E-07 0.00000E+00
 -1       790 2.61068E-05 6.01055E-07 0.00000E+00
 -1       791 2.62155E-05 6.91343E-07 0.00000E+00
 -1       792 2.63243E-05 7.62126E-07 3.30872E-24
 -1       793 2.64332E-05 8.25986E-07 0.00000E+00
 -1       794 2.65420E-05 8.95499E-07 3.30872E-24
 -1       795 2.66509E-05 9.83247E-07-1.65436E-24
 -1       796 2.67597E-05 1.10183E-06 0.00000E+00
 -1       797 2.68684E-05 1.26387E-06 0.00000E+00
 -1       798 2.69771E-05 1.48206E-06 0.00000E+00
 -1       799 2.70852E-05 1.76912E-06 0.00000E+00
 -1       800 2.71934E-05 2.13786E-06 0.00000E+00
 -1       801 2.32770E-05-4.81326E-07 3.30872E-24
 -1       802 1.85207E-05-3.78867E-07 0.00000E+00
 -1       803 1.25591E-05-2.82416E-07-8.27181E-25
 -1       804 6.64815E-06-1.87933E-07 0.00000E+00
 -1       805 2.04343E-06-8.72076E-08 0.00000E+00
 -1       806 2.53110E-05-2.48311E-07 3.30872E-24
 -1       807 2.50576E-05 5.36635E-08 0.00000E+00
 -1       808 2.48136E-05 3.27471E-07 0.00000E+00
 -1       809 2.45773E-05 5.79491E-07-1.65436E-24
 -1       810 2.43466E-05 8.16062E-07-3.30872E-24
 -1       811 2.41193E-05 1.04347E-06 0.00000E+00
 -1       812 2.38930E-05 1.26799E-06 0.00000E+00
 -1       813 2.36654E-05 1.49589E-06 0.00000E+00
 -1       814 2.34343E-05 1.73344E-06-3.30872E-24
 -1       815 2.31971E-05 1.98691E-06 0.00000E+00
 -1       816 2.29517E-05 2.26255E-06-3.30872E-24
 -1       817 2.26956E-05 2.56664E-06 8.27181E-25
 -1       818 2.24267E-05 2.90545E-06 1.65436E-24
 -1       819 2.21428E-05 3.28527E-06-8.27181E-25
 -1       820 2.18421E-05 3.71243E-06-1.65436E-24
 -1       821 2.72037E-05 3.19020E-06 8.27181E-25
 -1       822 2.71026E-05 3.91010E-06 0.00000E+00
 -1       823 2.70016E-05 4.74748E-06 0.00000E+00
 -1       824 2.68996E-05 5.68879E-06 1.65436E-24
 -1       825 2.67974E-05 6.72043E-06 3.30872E-24
 -1       826 2.66950E-05 7.82868E-06 0.00000E+00
 -1       827 2.65924E-05 8.99975E-06 0.00000E+00
 -1       828 2.64897E-05 1.02198E-05 1.65436E-24
 -1       829 2.63870E-05 1.14750E-05 0.00000E+00
 -1       830 2.62843E-05 1.27513E-05 1.65436E-24
 -1       831 2.61817E-05 1.40348E-05 3.30872E-24
 -1       832 2.60791E-05 1.53117E-05 0.00000E+00
 -1       833 2.59767E-05 1.65679E-05-3.30872E-24
 -1       834 2.58750E-05 1.77895E-05 0.00000E+00
 -1       835 2.57733E-05 1.89626E-05-1.65436E-24
 -1       836 2.65794E-05 2.86157E-06 0.00000E+00
 -1       837 2.55892E-05 3.13117E-06 3.30872E-24
 -1       838 2.44584E-05 3.40014E-06 0.00000E+00
 -1       839 2.33174E-05 3.66853E-06 3.30872E-24
 -1       840 2.22961E-05 3.93751E-06 3.30872E-24
 -1       841 2.70586E-05 3.18166E-06 0.00000E+00
 -1       842 2.67631E-05 3.90205E-06 1.03398E-25
 -1       843 2.64201E-05 4.74934E-06 4.13590E-25
 -1       844 2.60343E-05 5.70924E-06 2.06795E-25
 -1       845 2.56118E-05 6.76639E-06 0.00000E+00
 -1       846 2.51586E-05 7.90511E-06-4.13590E-25
 -1       847 2.46810E-05 9.10868E-06-8.27181E-25
 -1       848 2.41852E-05 1.03603E-05 0.00000E+00
 -1       849 2.36779E-05 1.16426E-05-8.27181E-25
 -1       850 2.31657E-05 1.29381E-05 0.00000E+00
 -1       851 2.26551E-05 1.42292E-05 0.00000E+00
 -1       852 2.21527E-05 1.54981E-05 0.00000E+00
 -1       853 2.16652E-05 1.67277E-05-8.27181E-25
 -1       854 2.11988E-05 1.79005E-05 0.00000E+00
 -1       855 2.07601E-05 1.90000E-05 0.00000E+00
 -1       856 2.55631E-05 2.12671E-05 0.00000E+00
 -1       857 2.54442E-05 2.26750E-05 1.65436E-24
 -1       858 2.53251E-05 2.42695E-05 3.30872E-24
 -1       859 2.52049E-05 2.60227E-05 1.65436E-24
 -1       860 2.50844E-05 2.79064E-05 3.30872E-24
 -1       861 2.49635E-05 2.98925E-05 1.65436E-24
 -1       862 2.48425E-05 3.19526E-05 0.00000E+00
 -1       863 2.47213E-05 3.40583E-05 0.00000E+00
 -1       864 2.46001E-05 3.61809E-05 0.00000E+00
 -1       865 2.44790E-05 3.82922E-05-1.65436E-24
 -1       866 2.43579E-05 4.03635E-05-3.30872E-24
 -1       867 2.42371E-05 4.23664E-05 0.00000E+00
 -1       868 2.41165E-05 4.42726E-05 0.00000E+00
 -1       869 2.39966E-05 4.60537E-05 0.00000E+00
 -1       870 2.38770E-05 4.76816E-05 0.00000E+00
 -1       871 2.47103E-05 2.00642E-05 0.00000E+00
 -1       872 2.38055E-05 2.00542E-05 0.00000E+00
 -1       873 2.29400E-05 2.00439E-05 0.00000E+00
 -1       874 2.20913E-05 2.00334E-05 0.00000E+00
 -1       875 2.12366E-05 2.00223E-05 4.13590E-25
 -1       876 2.53866E-05 2.13068E-05 0.00000E+00
 -1       877 2.50338E-05 2.27268E-05 0.00000E+00
 -1       878 2.46205E-05 2.43069E-05 0.00000E+00
 -1       879 2.41568E-05 2.60237E-05 0.00000E+00
 -1       880 2.36508E-05 2.78532E-05 0.00000E+00
 -1       881 2.31112E-05 2.97721E-05-3.30872E-24
 -1       882 2.25468E-05 3.17569E-05 6.61744E-24
 -1       883 2.19664E-05 3.37844E-05-3.30872E-24
 -1       884 2.13784E-05 3.58316E-05 6.61744E-24
 -1       885 2.07918E-05 3.78755E-05 0.00000E+00
 -1       886 2.02151E-05 3.98928E-05-3.30872E-24
 -1       887 1.96569E-05 4.18604E-05-1.65436E-24
 -1       888 1.91260E-05 4.37552E-05 0.00000E+00
 -1       889 1.86303E-05 4.55535E-05-1.65436E-24
 -1       890 1.81798E-05 4.72321E-05-1.65436E-24
 -1       891 2.25903E-05 4.90682E-05 1.65436E-24
 -1       892 2.16443E-05 4.90071E-05 0.00000E+00
 -1       893 2.08065E-05 4.89461E-05 0.00000E+00
 -1       894 1.99603E-05 4.88853E-05-8.27181E-25
 -1       895 1.89889E-05 4.88243E-05 1.65436E-24
 -1       896 2.27219E-07 7.89959E-07 6.61744E-24
 -1       897 4.56527E-07 1.16344E-06-3.30872E-24
 -1       898 6.85792E-07 1.21484E-06 6.61744E-24
 -1       899 9.15394E-07 1.03553E-06-3.30872E-24
 -1       900 1.14496E-06 6.88144E-07-6.61744E-24
 -1       901 1.37456E-06 2.33709E-07 3.30872E-24
 -1       902 1.60414E-06-2.80066E-07-6.61744E-24
 -1       903 1.83371E-06-8.06033E-07 0.00000E+00
 -1       904 2.06328E-06-1.29858E-06 6.61744E-24
 -1       905 2.29284E-06-1.71176E-06-3.30872E-24
 -1       906 2.52240E-06-1.98975E-06-6.61744E-24
 -1       907 2.75171E-06-2.07545E-06-3.30872E-24
 -1       908 2.98096E-06-1.88780E-06 0.00000E+00
 -1       909 3.20865E-06-1.34316E-06 0.00000E+00
 -1       910 3.43644E-06-3.13478E-07 0.00000E+00
 -1       911 3.71564E-06 2.81195E-06 0.00000E+00
 -1       912 3.77709E-06 3.33570E-06 0.00000E+00
 -1       913 3.83861E-06 3.07611E-06 0.00000E+00
 -1       914 3.89994E-06 2.20220E-06 0.00000E+00
 -1       915 3.96079E-06 8.62977E-07-1.65436E-24
 -1       916 4.02122E-06-7.93703E-07 0.00000E+00
 -1       917 4.08134E-06-2.63030E-06-1.65436E-24
 -1       918 4.14138E-06-4.50979E-06 0.00000E+00
 -1       919 4.20157E-06-6.29649E-06 1.65436E-24
 -1       920 4.26207E-06-7.85448E-06 8.27181E-25
 -1       921 4.32302E-06-9.04043E-06 0.00000E+00
 -1       922 4.38415E-06-9.71006E-06 0.00000E+00
 -1       923 4.44542E-06-9.70228E-06-1.65436E-24
 -1       924 4.50496E-06-8.85429E-06 0.00000E+00
 -1       925 4.56357E-06-6.97616E-06 0.00000E+00
 -1       926 4.32683E-06-2.44500E-07-6.61744E-24
 -1       927 4.03576E-06 3.18625E-06 3.30872E-24
 -1       928 3.74632E-06 6.22358E-06-6.61744E-24
 -1       929 3.45715E-06 8.67874E-06 3.30872E-24
 -1       930 3.16931E-06 1.04459E-05 0.00000E+00
 -1       931 2.88226E-06 1.14274E-05 3.30872E-24
 -1       932 2.59562E-06 1.16376E-05 6.61744E-24
 -1       933 2.30879E-06 1.10999E-05-3.30872E-24
 -1       934 2.02147E-06 9.94452E-06 6.61744E-24
 -1       935 1.73346E-06 8.30870E-06 0.00000E+00
 -1       936 1.44497E-06 6.39840E-06-6.61744E-24
 -1       937 1.15621E-06 4.42276E-06-3.30872E-24
 -1       938 8.67699E-07 2.60018E-06-6.61744E-24
 -1       939 5.79052E-07 1.14733E-06 3.30872E-24
 -1       940 2.91237E-07 2.28073E-07-1.32349E-23
 -1       941 1.27606E-06 1.44803E-07 0.00000E+00
 -1       942 2.62231E-06 3.31815E-07-1.32349E-23
 -1       943 3.96418E-06 5.44861E-07-2.64698E-23
 -1       944 5.31934E-06 7.69282E-07 0.00000E+00
 -1       945 6.67492E-06 1.00079E-06 5.29396E-23
 -1       946 8.03314E-06 1.23551E-06 0.00000E+00
 -1       947 9.39169E-06 1.47249E-06 0.00000E+00
 -1       948 1.07507E-05 1.71093E-06 0.00000E+00
 -1       949 1.21097E-05 1.95135E-06 0.00000E+00
 -1       950 1.34684E-05 2.19439E-06 2.64698E-23
 -1       951 1.48268E-05 2.44309E-06 5.29396E-23
 -1       952 1.61832E-05 2.70082E-06 2.64698E-23
 -1       953 1.75391E-05 2.97923E-06 0.00000E+00
 -1       954 1.88843E-05 3.29113E-06 0.00000E+00
 -1       955 2.02331E-05 3.67995E-06 0.00000E+00
 -1       956 2.14532E-05 4.84450E-06-4.13590E-25
 -1       957 2.13804E-05 5.58062E-06-5.16988E-25
 -1       958 2.13073E-05 6.39385E-06-4.13590E-25
 -1       959 2.12340E-05 7.27552E-06 4.13590E-25
 -1       960 2.11607E-05 8.21694E-06 1.65436E-24
 -1       961 2.10872E-05 9.20936E-06 0.00000E+00
 -1       962 2.10138E-05 1.02440E-05 0.00000E+00
 -1       963 2.09402E-05 1.13121E-05 0.00000E+00
 -1       964 2.08667E-05 1.24049E-05 1.65436E-24
 -1       965 2.07931E-05 1.35136E-05 0.00000E+00
 -1       966 2.07196E-05 1.46295E-05 0.00000E+00
 -1       967 2.06461E-05 1.57437E-05 0.00000E+00
 -1       968 2.05726E-05 1.68475E-05 3.30872E-24
 -1       969 2.04992E-05 1.79322E-05-1.65436E-24
 -1       970 2.04261E-05 1.89890E-05 3.30872E-24
 -1       971 2.01980E-05 2.11087E-05-3.30872E-24
 -1       972 2.00374E-05 2.24330E-05-1.65436E-24
 -1       973 1.98766E-05 2.39548E-05 0.00000E+00
 -1       974 1.97148E-05 2.56462E-05 0.00000E+00
 -1       975 1.95527E-05 2.74788E-05 3.30872E-24
 -1       976 1.93903E-05 2.94244E-05 0.00000E+00
 -1       977 1.92277E-05 3.14541E-05-6.61744E-24
 -1       978 1.90649E-05 3.35394E-05-3.30872E-24
 -1       979 1.89021E-05 3.56514E-05 0.00000E+00
 -1       980 1.87393E-05 3.77613E-05-3.30872E-24
 -1       981 1.85767E-05 3.98401E-05 0.00000E+00
 -1       982 1.84143E-05 4.18591E-05 1.65436E-24
 -1       983 1.82522E-05 4.37895E-05-3.30872E-24
 -1       984 1.80912E-05 4.56028E-05-1.65436E-24
 -1       985 1.79304E-05 4.72706E-05-3.30872E-24
 -3
    1PSTEP                        22          11           1          
  100CL  111 5.77332E-01         841                     0   11           1
 -4  STRESS      6    1
 -5  SXX         1    4    1    1
 -5  SYY         1    4    2    2
 -5  SZZ         1    4    3    3
 -5  SXY         1    4    1    2
 -5  SYZ         1    4    2    3
 -5  SZX         1    4    3    1
 -1         1-2.29642E+06-7.39147E+05-4.67299E+05-6.76990E+05 2.11003E-10-6.01479E-09
 -1         2-1.34943E+06-6.01048E+04 8.81823E+03-1.26438E+05-2.41300E-11 2.61491E-09
 -1         3-8.53964E+05-2.95687E+05-2.52641E+04-7.39816E+04-4.65093E-10-1.53523E-09
 -1         4-4.11812E+05-7.84936E+04 6.08935E+02-4.15583E+04 3.56948E-10-1.65528E-10
 -1         5-2.02391E+05 1.30283E+05-1.04569E+05-8.28998E+03 4.29281E-09-5.59169E-10
 -1         8-1.15660E+06-4.54451E+05-1.63114E+05-4.50434E+05 1.21872E-10 3.32511E-09
 -1         9-1.30604E+06-2.92717E+05-1.60190E+05-3.27326E+05-5.21444E-10-2.32831E-10
 -1        10-5.71554E+05-3.45958E+05 4.50753E+03-1.20746E+05 1.18045E-10-2.87969E-10
 -1        11-4.03666E+05-1.22584E+05 5.22181E+02-9.46129E+04 1.81452E-09-2.05970E-09
 -1        12-2.51676E+05 1.05109E+05-1.17779E+05-4.47535E+04 4.95970E-09-3.29637E-09
 -1        15 2.47237E+04 7.00205E+03 9.67052E+03-4.32101E+04 7.48514E-10-1.94632E-09
 -1        16-8.47244E+05-1.80517E+05-1.03827E+04-3.61935E+05 9.91956E-10 1.22448E-09
 -1        17-4.89569E+05-3.28397E+05-5.87861E+04-2.54842E+05-9.56182E-10 1.00408E-09
 -1        18-1.75383E+05-1.09941E+05-7.46333E+04-1.30829E+05 1.06365E-09 6.62718E-10
 -1        19-5.02655E+04 6.52536E+04-4.88358E+04-4.50731E+04 5.58127E-10-2.00089E-11
 -1        20 8.61711E+04-6.25598E+04-9.96155E+03 4.53118E+04 9.23910E-09 6.21185E-10
 -1        21-1.01174E+03-1.29075E+05 2.88944E+04 6.83426E+02 1.50460E-08-1.82793E-09
 -1        22 2.46633E+04 1.27790E+05 7.85984E+02-1.89270E+04 9.00400E-11 6.23913E-10
 -1        23-1.44374E+05 2.03554E+03 8.84346E+03-1.40638E+05-3.11062E-09 9.21015E-10
 -1        24-1.55427E+05 1.22782E+04 1.87692E+05-3.38191E+05-3.81624E-09 9.45874E-11
 -1        25 4.21450E+05 1.56842E+05 1.35934E+05-2.20880E+05 9.15558E-10 7.57912E-11
 -1        26 3.62193E+03 1.51089E+05 8.57408E+03-2.98384E+04-4.75666E-10-1.28587E-09
 -1        27-3.63292E+04-5.43582E+04-2.35066E+04 5.93761E+04 5.75346E-09-1.03804E-09
 -1        28-1.13982E+04-9.93461E+04-6.19404E+02 4.74011E+04 5.84635E-09 5.35370E-11
 -1        29 3.15005E+05 2.15267E+05 8.98247E+02-8.94877E+03 1.91720E-10 1.55751E-09
 -1        30 9.76629E+04 3.14688E+04 1.27129E+03-4.93075E+04 1.81554E-09 2.86855E-09
 -1        31-3.62529E+05 3.62262E+04 3.78722E+03-5.89176E+04-3.87590E-09 5.79712E-09
 -1        32 5.66136E+05 3.42251E+05 3.98148E+05-3.32461E+05 4.59637E-09 2.93221E-09
 -1        33 9.41491E+05 4.30097E+05 3.01950E+05-4.32103E+04-8.56729E-09-7.84894E-10
 -1        34-1.74802E+05-2.69384E+04-1.02320E+04 2.87174E+04-1.62613E-09-1.63391E-09
 -1        35-2.69301E+04-3.26868E+04-6.20475E+02 6.98904E+04 1.00916E-08 3.52399E-09
 -1        36-2.99499E+06 8.80485E+04-2.05951E+05-1.67338E-08 1.09592E-09-3.87081E-09
 -1        37-3.08375E+06-1.01999E+05-1.45367E+05-6.06196E-08-6.97488E-10 2.11003E-10
 -1        38-3.02931E+06 1.36377E+04-5.32911E+04 8.27414E-08 2.38694E-10-1.40426E-09
 -1        39-3.04367E+06-1.57912E+04-3.33701E+04 1.19999E-07 1.60022E-09 5.04770E-11
 -1        40-3.03489E+06 2.10797E+03-1.36840E+04-8.56344E-08-2.87460E-10 9.35597E-09
 -1        41-3.03712E+06-2.46909E+03-8.13354E+03 3.82028E-08-2.99915E-09 3.07045E-09
 -1        42-3.03580E+06 3.55170E+02-3.98784E+03 1.34484E-07-1.47156E-09 1.56092E-09
 -1        43-3.03614E+06-6.23836E+02-3.14543E+03 1.20019E-07 4.86053E-10-9.12003E-10
 -1        44-3.03585E+06 2.67624E+02-3.16927E+03-8.01625E-08 1.10676E-09-1.75612E-09
 -1        45-3.03670E+06-1.70832E+03-5.77225E+03-1.64534E-07-1.14809E-10-2.96694E-09
 -1        46-3.03525E+06 1.43664E+03-9.41511E+03-1.83643E-08-6.40152E-10 3.08410E-09
 -1        47-3.04113E+06-1.07373E+04-2.27405E+04 1.26352E-07 6.20783E-10 2.48474E-09
 -1        48-3.03146E+06 9.26954E+03-3.62514E+04 1.08880E-07 1.11344E-09-4.67480E-09
 -1        49-3.06837E+06-6.93273E+04-9.88189E+04 1.65685E-07 1.97506E-09-1.11504E-09
 -1        50-3.00815E+06 5.98407E+04-1.40026E+05 9.55529E-08-2.44460E-09 1.44064E-09
 -1        51 2.70096E+04-3.00881E+05 4.40923E+04-8.19035E+05-8.73115E-11 5.42059E-09
 -1        52 1.20459E+04-2.96881E+05 2.64056E+04-9.05087E+05-5.52973E-10 4.29281E-10
 -1        53 7.48541E+03-3.05392E+05 2.05729E+04-8.16830E+05 6.54836E-11 8.00355E-11
 -1        54 1.72016E+04-3.02347E+05 3.04708E+04-9.07435E+05 5.74801E-10-2.58296E-10
 -1        55 3.92206E+04-3.12109E+05 5.45495E+04-8.16436E+05 9.45874E-11 1.92085E-09
 -1        56-3.59787E+06-4.06436E+05-2.94205E+05-1.39110E+06-6.11180E-10 3.08501E-09
 -1        57-3.73111E+06-6.51321E+05-1.97427E+05-1.36237E+06 8.45830E-11-6.73026E-11
 -1        58-3.65511E+06-4.99285E+05-6.92562E+04-1.37490E+06 6.14818E-10-2.01908E-09
 -1        59-3.66522E+06-5.41696E+05-4.10623E+04-1.38150E+06-1.60071E-10 3.44335E-09
 -1        60-3.66294E+06-5.12374E+05-1.61829E+04-1.37322E+06-6.34827E-10-8.56744E-10
 -1        61-3.65692E+06-5.25560E+05-9.15997E+03-1.38256E+06-8.11838E-10-1.64164E-09
 -1        62-3.66325E+06-5.14961E+05-4.47649E+03-1.37397E+06-6.50743E-10-3.14469E-09
 -1        63-3.65783E+06-5.21656E+05-3.75920E+03-1.38037E+06 1.84059E-10-1.53918E-09
 -1        64-3.66199E+06-5.16239E+05-4.40637E+03-1.37542E+06 5.23983E-10 6.48151E-09
 -1        65-3.66170E+06-5.20639E+05-8.94032E+03-1.37699E+06 1.55660E-09-4.75393E-09
 -1        66-3.65939E+06-5.16032E+05-1.57806E+04-1.37733E+06 1.63709E-10-4.01178E-09
 -1        67-3.67379E+06-5.32346E+05-3.99992E+04-1.37136E+06-1.83888E-09 3.22734E-09
 -1        68-3.65006E+06-5.04985E+05-6.74747E+04-1.38091E+06-1.00954E-09-3.34330E-09
 -1        69-3.74053E+06-6.36599E+05-1.92319E+05-1.34985E+06 9.50422E-10-4.03998E-09
 -1        70-3.59346E+06-4.15360E+05-2.86610E+05-1.39763E+06-1.25874E-09 1.12050E-09
 -1        71-1.70016E+06 9.40045E+03-2.20221E+04-4.78364E-08-1.13243E-09-1.53159E-09
 -1        72-1.70951E+06-1.08921E+04-1.55386E+04 1.51379E-08 1.95797E-11 1.71190E-09
 -1        73-1.70383E+06 1.45647E+03-5.71011E+03-1.07026E-08-7.90400E-10-6.80848E-09
 -1        74-1.70524E+06-1.68812E+03-3.59243E+03 8.57912E-08 1.18621E-10-2.04227E-09
 -1        75-1.70442E+06 2.26698E+02-1.51108E+03 5.53557E-08-8.67929E-10 2.99792E-09
 -1        76-1.70455E+06-2.75997E+02-9.70462E+02-1.17385E-07 4.22576E-11 2.99488E-09
 -1        77-1.70451E+06 4.86523E+01-6.15248E+02-4.44029E-08-1.76731E-09 2.54917E-09
 -1        78-1.70449E+06-1.48330E+02-7.49905E+02-9.04917E-08-1.19500E-09 1.83951E-09
 -1        79-1.70448E+06 9.94299E+01-1.09116E+03-7.52985E-08-1.73555E-10-1.47753E-09
 -1        80-1.70479E+06-7.17261E+02-2.34260E+03-1.43481E-07 1.07007E-09 4.24609E-09
 -1        81-1.70421E+06 6.16076E+02-3.99180E+03 7.93476E-08-3.26214E-10 4.45425E-10
 -1        82-1.70671E+06-4.61930E+03-9.76533E+03 1.32464E-08 1.40375E-09-4.67480E-10
 -1        83-1.70258E+06 3.98971E+03-1.56074E+04-1.27520E-07 6.48226E-10 1.33969E-09
 -1        84-1.71843E+06-2.98410E+04-4.25537E+04-9.29991E-08 9.70470E-11 1.48657E-09
 -1        85-1.69253E+06 2.57558E+04-6.03182E+04 9.24962E-08-3.82332E-10 1.77170E-09
 -1        86-6.86546E+04 3.05448E+05 1.63694E+05 3.04750E+03 1.44064E-09-2.67175E-09
 -1        87 8.60465E+04 3.78803E+05 1.27177E+05-1.40692E+04 2.41016E-09-1.53972E-09
 -1        88-1.70957E+04 3.29392E+05 6.61373E+04 2.18013E+03 2.47110E-09-2.61920E-09
 -1        89 6.16778E+04 3.67137E+05 9.51302E+04-1.30531E+04 3.67436E-09 2.85794E-09
 -1        90-4.43504E+04 3.17067E+05 1.08538E+05 2.03184E+03 2.56841E-09 3.34370E-09
 -1        91-1.33172E+06-1.68151E+05-1.27281E+04-4.56734E+05-2.17769E-08 4.67253E-10
 -1        92-1.08660E+06-2.39440E+05 1.92222E+04-5.42516E+05-1.76217E-08-4.86477E-09
 -1        93-1.31024E+06-1.18226E+05-1.27232E+03-3.99360E+05 1.09212E-08-2.64356E-09
 -1        94-1.11344E+06-2.86925E+05 3.70180E+03-6.03623E+05-3.85316E-09 2.63509E-09
 -1        95-1.30954E+06-1.17124E+05-1.57280E+03-3.98955E+05-7.08178E-09-5.32157E-09
 -1        96-1.09050E+06-2.46675E+05 1.53062E+04-5.43025E+05 4.71300E-09 4.44788E-09
 -1        97-1.32863E+06-1.61953E+05-1.46609E+04-4.56702E+05-1.16052E-08 5.24756E-09
 -1        98-1.11529E+06-1.54720E+05 2.77616E+04-4.23475E+05 1.51513E-08-3.14367E-09
 -1        99-1.28019E+06-2.12511E+05-1.55187E+04-5.14878E+05 5.78439E-09-5.82031E-09
 -1       100-1.25713E+06-7.64952E+04 1.48490E+04-3.46601E+05-2.57401E-08-3.13537E-09
 -1       101-1.19121E+06-2.36820E+05-4.30420E+03-5.36799E+05 7.08496E-09 2.05728E-09
 -1       102-1.35586E+06-4.97035E+04-2.56285E+03-3.27644E+05 1.82930E-08 1.01313E-08
 -1       103-1.18605E+06-2.35862E+05-1.09638E+04-5.37600E+05-3.28232E-08-1.99952E-09
 -1       104-1.27634E+06-8.73454E+04-1.14793E+04-3.41184E+05-3.54646E-08 1.34041E-08
 -1       105-1.26664E+06-2.02293E+05-5.54209E+04-5.19874E+05-2.39124E-08-3.63798E-11
 -1       106-8.76213E+05-5.67011E+03 1.32858E+04-5.72840E-10-9.62547E-10-6.73026E-10
 -1       107-8.70398E+05 6.56977E+03 9.36754E+03-1.42307E-07-4.14607E-10 4.38945E-10
 -1       108-8.73999E+05-8.78184E+02 3.42921E+03-9.86561E-08-6.60384E-10 3.36286E-09
 -1       109-8.72979E+05 1.01549E+03 2.13092E+03-2.16372E-08 6.68634E-10 7.40451E-09
 -1       110-8.73637E+05-1.34293E+02 8.40006E+02 6.74170E-08-1.61392E-10 1.40932E-09
 -1       111-8.73407E+05 1.47468E+02 4.31250E+02-4.87940E-08 4.89452E-10-8.57007E-10
 -1       112-8.73572E+05-1.27918E+01 8.05679E+01 3.84194E-08 1.42741E-11-2.83323E-09
 -1       113-8.73509E+05-3.66865E+01-1.85783E+02-8.61662E-08 1.63640E-10 2.87202E-09
 -1       114-8.73535E+05 4.94174E+01-5.03320E+02-3.94872E-08-3.04103E-10-1.25158E-09
 -1       115-8.73702E+05-3.93125E+02-1.25168E+03 5.66299E-08-3.03208E-10-1.71872E-09
 -1       116-8.73380E+05 3.42730E+02-2.20262E+03-9.81833E-08-1.40539E-10-1.62402E-09
 -1       117-8.74775E+05-2.57546E+03-5.43709E+03-6.79921E-08 1.02673E-10 9.33142E-10
 -1       118-8.72464E+05 2.22514E+03-8.70522E+03 7.04908E-08-7.95363E-10-4.55202E-09
 -1       119-8.81311E+05-1.66438E+04-2.37398E+04-2.75560E-08-5.89646E-10 4.92582E-09
 -1       120-8.66854E+05 1.43651E+04-3.36538E+04 1.40341E-08 2.61759E-11 3.95084E-09
 -1       121-1.85429E+03-9.42737E+05 7.50566E+03 6.14548E+03-5.96629E-10-2.51475E-10
 -1       122 2.41580E+03-9.39826E+05 4.83705E+03 2.65880E+04-4.21551E-10-2.69665E-09
 -1       123-2.28987E+02-9.41583E+05 1.90917E+03 6.36754E+03-1.86844E-09 3.41061E-11
 -1       124 1.94664E+02-9.41005E+05 1.05214E+03 2.60147E+04-1.17666E-09 6.74845E-10
 -1       125-9.27210E+01-9.41436E+05 3.63349E+02 6.71855E+03-3.71188E-09 2.10093E-09
 -1       126-8.47104E+05-1.20532E+05 4.96663E+03-3.16118E+05 2.91834E-10 3.29237E-09
 -1       127-8.42199E+05-1.18138E+05 3.44879E+03-3.19394E+05 1.89507E-09 3.89718E-09
 -1       128-8.46557E+05-1.18267E+05 1.15904E+03-3.15888E+05 7.40698E-10-5.18753E-10
 -1       129-8.42854E+05-1.20749E+05 7.14033E+02-3.19648E+05-1.90018E-09-7.18789E-09
 -1       130-8.46453E+05-1.17926E+05 2.45943E+02-3.15864E+05-5.88488E-10-7.85292E-10
 -1       131-8.43357E+05-1.20755E+05 1.04929E+02-3.19218E+05-1.84695E-10 1.31444E-09
 -1       132-8.46053E+05-1.18263E+05-4.61512E+01-3.16318E+05 7.03366E-10-2.86188E-09
 -1       133-8.44459E+05-1.19792E+05-2.03780E+02-3.17969E+05-6.08296E-10-1.21179E-09
 -1       134-8.45348E+05-1.18891E+05-4.48090E+02-3.17110E+05-8.86331E-11 6.52420E-10
 -1       135-8.46065E+05-1.18784E+05-1.12210E+03-3.16328E+05 2.86615E-11-1.74055E-09
 -1       136-8.44448E+05-1.19271E+05-1.98289E+03-3.17959E+05 6.99174E-12-4.10262E-09
 -1       137-8.48612E+05-1.20006E+05-5.31387E+03-3.14629E+05-3.18690E-09 1.42012E-09
 -1       138-8.42807E+05-1.17673E+05-8.55633E+03-3.18810E+05-2.92403E-10 1.73168E-09
 -1       139-8.57686E+05-1.34666E+05-2.52787E+04-3.11326E+05 1.19883E-09-3.41356E-09
 -1       140-8.35392E+05-1.04652E+05-3.65114E+04-3.21252E+05-4.42014E-10-6.98492E-10
 -1       141-3.83635E+05-4.22100E+03 9.88940E+03-5.78183E-08 4.46714E-10-1.90084E-09
 -1       142-3.79329E+05 4.89045E+03 6.96889E+03 3.13261E-08-1.69753E-10 1.92904E-09
 -1       143-3.81985E+05-6.53513E+02 2.54153E+03-4.07411E-08-6.94085E-11-7.66249E-11
 -1       144-3.81252E+05 7.54030E+02 1.56082E+03 5.10389E-08-4.63900E-10-2.16210E-09
 -1       145-3.81714E+05-9.82691E+01 5.75318E+02-3.73923E-08-2.53882E-10-6.73964E-10
 -1       146-3.81579E+05 9.65916E+01 2.13657E+02-6.64255E-08-2.09542E-10-4.11607E-09
 -1       147-3.81658E+05 1.95913E+00-1.42201E+02-2.77501E-09-9.67211E-11 1.43700E-10
 -1       148-3.81700E+05-1.14806E+02-5.81950E+02 3.41000E-08 5.02111E-11 1.71946E-09
 -1       149-3.81593E+05 1.12655E+02-1.18207E+03 7.14083E-08-1.64016E-10-4.69981E-10
 -1       150-3.82103E+05-8.65341E+02-2.78299E+03 5.69218E-08-9.03655E-11-5.65586E-09
 -1       151-3.81256E+05 7.50555E+02-4.84232E+03-1.10006E-07-9.66697E-11-2.23508E-10
 -1       152-3.84447E+05-5.63563E+03-1.19116E+04-7.78935E-08-3.40893E-10 1.79648E-09
 -1       153-3.79250E+05 4.86855E+03-1.90586E+04-6.47444E-08 1.25861E-09 8.34916E-10
 -1       154-3.98743E+05-3.64151E+04-5.19524E+04 7.61518E-08 4.15861E-10 7.14863E-10
 -1       155-3.66963E+05 3.14302E+04-7.36310E+04-3.95585E-09 2.80761E-09 9.31323E-10
 -1       156-1.19948E+04-1.88393E+05 2.89883E+04-1.10373E+03-1.45519E-11-2.24384E-09
 -1       157 1.58743E+04-1.75220E+05 2.40199E+04 4.82492E+03 6.59384E-12-1.31362E-09
 -1       158-3.82838E+03-1.84672E+05 1.48083E+04-1.06119E+03-7.73070E-12 1.66135E-09
 -1       159 1.71958E+04-1.74554E+05 2.57623E+04 4.60947E+03 4.70436E-10 5.73825E-09
 -1       160-1.33154E+04-1.89054E+05 3.19660E+04-8.88248E+02 4.20187E-10-3.19176E-11
 -1       161-4.60933E+05-6.36188E+04-2.76744E+03-1.73149E+05-2.44427E-10 2.47201E-09
 -1       162-4.61773E+05-6.66987E+04-1.91992E+03-1.73314E+05-2.39773E-10 1.81603E-09
 -1       163-4.61531E+05-6.45669E+04-6.59987E+02-1.72921E+05-3.92973E-10-7.21315E-10
 -1       164-4.61100E+05-6.55825E+04-4.29784E+02-1.73553E+05 7.97471E-10 3.79459E-09
 -1       165-4.61606E+05-6.47318E+04-2.02871E+02-1.72910E+05 4.92122E-10 1.50239E-09
 -1       166-4.61080E+05-6.53516E+04-2.07650E+02-1.73500E+05-4.68816E-11-2.57070E-09
 -1       167-4.61551E+05-6.47974E+04-2.66181E+02-1.72975E+05 3.31264E-11 1.58676E-09
 -1       168-4.61292E+05-6.53015E+04-5.70634E+02-1.73316E+05 5.17045E-10 3.26583E-09
 -1       169-4.61394E+05-6.47822E+04-1.02107E+03-1.73093E+05 4.33147E-11-1.43928E-09
 -1       170-4.61983E+05-6.59139E+04-2.54188E+03-1.72962E+05-1.77920E-10-2.04551E-09
 -1       171-4.60861E+05-6.41869E+04-4.41015E+03-1.73329E+05-7.67216E-10-1.39539E-09
 -1       172-4.65261E+05-7.09349E+04-1.18350E+04-1.71809E+05 2.25953E-10 9.86347E-10
 -1       173-4.58121E+05-5.97745E+04-1.90332E+04-1.74243E+05 1.42973E-09 2.28556E-09
 -1       174-4.84593E+05-1.04327E+05-5.62195E+04-1.65364E+05 4.71482E-09-8.47649E-10
 -1       175-4.41547E+05-3.08828E+04-8.11750E+04-1.79743E+05 8.95488E-09-3.95084E-09
 -1       191 1.67431E+03 4.75461E+05 2.77160E+03-1.55673E+04-8.00355E-11-8.52197E-10
 -1       192 5.98480E+02 4.75878E+05 1.65856E+03-1.68016E+04-7.77732E-10-2.06455E-09
 -1       193 2.65340E+02 4.75590E+05 1.32947E+03-1.53433E+04-9.89075E-12-1.14960E-09
 -1       194 7.92413E+02 4.75922E+05 2.00655E+03-1.72141E+04-1.68006E-09-2.78578E-09
 -1       195 2.27167E+03 4.75362E+05 3.63688E+03-1.51523E+04 3.63798E-12 3.03589E-09
 -1       251-1.64650E+06 2.52085E+04-8.19999E+04-4.10989E+04 4.46562E-10 1.70621E-09
 -1       252-1.60050E+06-2.86796E+04-4.26523E+04 1.23676E+05 3.46017E-09 5.84896E-09
 -1       253-1.62149E+06 3.25761E+03-1.94109E+04-8.29608E+04 1.31877E-09-3.93993E-09
 -1       254-1.62010E+06 1.19953E+02-9.72335E+03 1.59501E+05 6.58142E-09 1.26038E-08
 -1       255-1.63007E+06-9.02025E+02-6.75500E+03-7.70121E+04 1.88720E-09 1.95814E-09
 -1       256-1.57023E+06 3.28624E+03 7.86772E+03 1.03176E+05 6.20093E-09-6.36817E-10
 -1       257-1.66668E+06-3.68800E+03-1.12601E+04-2.65260E+04-7.73980E-10 1.62345E-10
 -1       258-1.53653E+06 3.03109E+03 1.56127E+04-1.37676E+04 7.53130E-09 2.82293E-09
 -1       259-1.66050E+06-3.29885E+03-9.91199E+03 3.98434E+04-4.61750E-09 5.14206E-10
 -1       260-1.58405E+06 3.58000E+03 5.31908E+03-1.22607E+05-4.85943E-09-7.56563E-09
 -1       261-1.62379E+06-4.84181E+02-5.37270E+03 8.22806E+04 1.80578E-08 4.31510E-09
 -1       262-1.62023E+06 8.19372E+01-9.73139E+03-1.59961E+05-8.83335E-09-3.76349E-09
 -1       263-1.62766E+06 2.89376E+03-2.06989E+04 7.72858E+04 1.92904E-09 6.39739E-09
 -1       264-1.58655E+06-2.89573E+04-3.99719E+04-1.04985E+05 3.30456E-08-3.24508E-09
 -1       265-1.65293E+06 2.47492E+04-8.32143E+04 2.71959E+04 8.35098E-09 6.95582E-09
 -1       266-2.18691E+04-2.23632E+05 5.09336E+04-7.49838E+03-5.45697E-11 7.84127E-10
 -1       267 2.40246E+04-2.00853E+05 3.39562E+04 3.56458E+04 5.00222E-11-1.28955E-09
 -1       268-2.22482E+03-2.15371E+05 8.63904E+03-6.82226E+03-8.00355E-11-5.05645E-09
 -1       269-4.74422E+03-2.10791E+05-3.34127E+03 3.31028E+04-3.81988E-11-1.23487E-09
 -1       270 6.56612E+03-2.13374E+05-1.53627E+04-4.95927E+03 2.63753E-10 6.45855E-09
 -1       271-3.13350E+06-3.91677E+05-2.45836E+05-1.21442E+06-4.00178E-11-2.12458E-09
 -1       272-3.21942E+06-5.60155E+05-1.56207E+05-1.21540E+06 4.20641E-11 6.05723E-10
 -1       273-3.17802E+06-4.48876E+05-5.80041E+04-1.20571E+06 2.05546E-10-5.98811E-09
 -1       274-3.16744E+06-4.87789E+05-3.20868E+04-1.22970E+06-3.43789E-10-1.44200E-09
 -1       275-3.18416E+06-4.54219E+05-1.35019E+04-1.20387E+06 6.93490E-10 6.63022E-10
 -1       276-3.16005E+06-4.81360E+05-7.18922E+03-1.23276E+06 8.66748E-10-1.75896E-09
 -1       277-3.18543E+06-4.54268E+05-3.68490E+03-1.20312E+06-1.20099E-09-1.83422E-09
 -1       278-3.15871E+06-4.81338E+05-2.93149E+03-1.23378E+06 7.48173E-10 3.53171E-09
 -1       279-3.18559E+06-4.54109E+05-3.53241E+03-1.20294E+06 3.75309E-11-9.64974E-10
 -1       280-3.15947E+06-4.81891E+05-6.78225E+03-1.23350E+06 1.05240E-09-2.77328E-09
 -1       281-3.18466E+06-4.53791E+05-1.26582E+04-1.20336E+06 5.56952E-10 3.73257E-09
 -1       282-3.16597E+06-4.88366E+05-3.00850E+04-1.23119E+06-6.34373E-11 6.26551E-09
 -1       283-3.17911E+06-4.48576E+05-5.43442E+04-1.20486E+06-1.34992E-09 2.24463E-09
 -1       284-3.21433E+06-5.56547E+05-1.46391E+05-1.21821E+06-6.35737E-09 8.73115E-11
 -1       285-3.13756E+06-3.94816E+05-2.30372E+05-1.21284E+06-1.73168E-09 5.52973E-10
 -1       286-5.77903E+05-8.58208E+03 2.00428E+04-1.08105E+03 1.66341E-09-2.99315E-09
 -1       287-5.68765E+05 9.93615E+03 1.42174E+04-7.89835E+02-8.28024E-10 1.62891E-09
 -1       288-5.74552E+05-1.33543E+03 5.17392E+03 2.22479E+02-1.83832E-10 3.60251E-09
 -1       289-5.72729E+05 1.54119E+03 3.30581E+03-3.23710E+03-2.19416E-11 8.16726E-10
 -1       290-5.73950E+05-2.10191E+02 1.33993E+03 1.36627E+03 1.08798E-09-5.54280E-10
 -1       291-5.73492E+05 2.51963E+02 8.53559E+02-5.10793E+03 1.62137E-09-3.24104E-09
 -1       292-5.73802E+05-4.09342E+01 4.65953E+02 2.09334E+03 1.17434E-09 9.01380E-10
 -1       293-5.73653E+05 1.04302E+02 4.82395E+02-5.98594E+03 4.41105E-11-1.72738E-09
 -1       294-5.73797E+05-5.69896E+01 6.24919E+02 2.24431E+03 1.27940E-09 2.77302E-09
 -1       295-5.73466E+05 3.97998E+02 1.29273E+03-5.67868E+03-2.28020E-10 6.69365E-09
 -1       296-5.73986E+05-3.36044E+02 2.15838E+03 1.78607E+03-5.29013E-10 2.64345E-09
 -1       297-5.72312E+05 2.50017E+03 5.31249E+03-4.25417E+03 5.96174E-10-1.53887E-09
 -1       298-5.74938E+05-2.16129E+03 8.41463E+03 8.19770E+02 6.07031E-10-1.34833E-09
 -1       299-5.65874E+05 1.61239E+04 2.30406E+04-2.03526E+03-8.22382E-11 1.97542E-09
 -1       300-5.80404E+05-1.39222E+04 3.25591E+04-4.32916E+02-3.46517E-10-1.45519E-09
 -1       301 4.26096E+04 2.61276E+04 9.12130E+04-2.48529E+04-2.29920E-09-1.91505E-10
 -1       302 1.43816E+04 4.30228E+04 5.49800E+04-2.90824E+04 8.82210E-11-3.33839E-09
 -1       303 4.10587E+03 3.21768E+04 4.28191E+04-2.49102E+04-2.44745E-09-1.83445E-09
 -1       304 1.71606E+04 4.46107E+04 6.22500E+04-2.90585E+04-3.93811E-10-2.84558E-10
 -1       305 5.16577E+04 2.45509E+04 1.08889E+05-2.48576E+04-2.47019E-09 2.01862E-09
 -1       306-2.22584E+06-2.84515E+05-1.54193E+05-8.62114E+05 3.70346E-09-2.99042E-09
 -1       307-2.26795E+06-4.01508E+05-9.79068E+04-8.75933E+05 3.21779E-09-7.46513E-09
 -1       308-2.25390E+06-3.20139E+05-3.64015E+04-8.56522E+05 2.36105E-09-4.80577E-09
 -1       309-2.23534E+06-3.56346E+05-2.01314E+04-8.85179E+05-8.18545E-11 1.70212E-09
 -1       310-2.25780E+06-3.23420E+05-8.49655E+03-8.55335E+05 5.96174E-10 3.72756E-09
 -1       311-2.23078E+06-3.52308E+05-4.55626E+03-8.87139E+05 1.05092E-09 2.54181E-09
 -1       312-2.25856E+06-3.23479E+05-2.40549E+03-8.54911E+05 4.84306E-10 9.91122E-10
 -1       313-2.23010E+06-3.52169E+05-2.04552E+03-8.87627E+05 9.56675E-10-1.94450E-09
 -1       314-2.25855E+06-3.23473E+05-2.63282E+03-8.54913E+05-7.37145E-10-1.75373E-09
 -1       315-2.23088E+06-3.52395E+05-5.18970E+03-8.87124E+05 1.79080E-09 2.59433E-09
 -1       316-2.25772E+06-3.23346E+05-9.76933E+03-8.55344E+05 1.00908E-09 1.68166E-09
 -1       317-2.23602E+06-3.57210E+05-2.32212E+04-8.85061E+05 2.58842E-09-1.04637E-09
 -1       318-2.25332E+06-3.19444E+05-4.19915E+04-8.56595E+05 5.36761E-09 4.14730E-10
 -1       319-2.27342E+06-4.09601E+05-1.12991E+05-8.74733E+05 1.26681E-09-2.37378E-09
 -1       320-2.22110E+06-2.78142E+05-1.77903E+05-8.62858E+05 2.60115E-09 3.34694E-10
 -1       321-4.38192E+05-1.93750E+04 4.53913E+04-4.88973E+02-2.17574E-09 1.54432E-09
 -1       322-4.18402E+05 2.24465E+04 3.20412E+04-8.96761E+02-2.46032E-09 3.04135E-09
 -1       323-4.30621E+05-3.00310E+03 1.17412E+04 7.79500E+01-2.93113E-10 2.09684E-09
 -1       324-4.27240E+05 3.47392E+03 7.36300E+03-1.96175E+03 9.45469E-10 3.46915E-09
 -1       325-4.29367E+05-4.64166E+02 2.99427E+03 5.76096E+02 3.68772E-11 1.02318E-12
 -1       326-4.28724E+05 5.37925E+02 1.75446E+03-2.79265E+03-2.15323E-10 2.80835E-10
 -1       327-4.29143E+05-7.31825E+01 7.89223E+02 9.08870E+02-2.99259E-10 6.84935E-10
 -1       328-4.28988E+05 9.91488E+01 4.95918E+02-3.23727E+03 2.13454E-10 1.97203E-09
 -1       329-4.29107E+05-2.44790E+01 3.35911E+02 1.02072E+03 4.67235E-11 1.15443E-09
 -1       330-4.28981E+05 1.18023E+02 4.38298E+02-3.22130E+03-8.10147E-10 6.67949E-10
 -1       331-4.29149E+05-9.20385E+01 6.27848E+02 8.92899E+02 1.97815E-10-4.57533E-10
 -1       332-4.28677E+05 6.79212E+02 1.46161E+03-2.74739E+03 1.86844E-10 1.45906E-09
 -1       333-4.29408E+05-5.86108E+02 2.29338E+03 5.46803E+02-2.22741E-10-1.13266E-09
 -1       334-4.26920E+05 4.37391E+03 6.25636E+03-1.89558E+03 1.86517E-11 4.53485E-09
 -1       335-4.30900E+05-3.77741E+03 8.83157E+03 4.10654E+01-1.10481E-09 2.00043E-09
 -1       336 1.03381E+02-9.41944E+05-1.90630E+03-6.22347E+03-5.32941E-09-1.00272E-09
 -1       337-1.14446E+03-9.42888E+05-5.22798E+03-3.24700E+04-3.85316E-09-2.48792E-09
 -1       338 1.00764E+03-9.41272E+05-9.72277E+03-6.03328E+03-5.82486E-09-1.50794E-09
 -1       339-1.22507E+04-9.49418E+05-2.44759E+04-3.26866E+04-3.87763E-09-2.91834E-10
 -1       340 9.35616E+03-9.35486E+05-3.80518E+04-6.01028E+03-5.75528E-09 2.59820E-09
 -1       341-1.22831E+06-1.77972E+05-4.38016E+04-4.90149E+05-6.97582E-10-4.62023E-10
 -1       342-1.27643E+06-1.38626E+05-2.24911E+04-3.98165E+05 1.69439E-09-4.96584E-09
 -1       343-1.20177E+06-2.05689E+05-9.61093E+03-5.02710E+05-1.03150E-08-1.91717E-08
 -1       344-1.30012E+06-1.08908E+05-4.77785E+03-3.87827E+05 1.07593E-08-6.25892E-09
 -1       345-1.20579E+06-2.06750E+05-2.93899E+03-5.01448E+05 8.27640E-11 4.88853E-11
 -1       346-1.25861E+06-1.25144E+05 3.60075E+03-4.04984E+05 8.01720E-09 9.56277E-09
 -1       347-1.24183E+06-1.90537E+05-5.46018E+03-4.84401E+05 7.94716E-09 1.69916E-09
 -1       348-1.19545E+06-1.69730E+05 7.35169E+03-4.52437E+05 1.28230E-08-1.81899E-12
 -1       349-1.26768E+06-1.63128E+05-6.01510E+03-4.53049E+05 3.22871E-09 4.79531E-10
 -1       350-1.16921E+06-2.18865E+05 5.21370E+02-5.11508E+05-5.22605E-08-1.86266E-08
 -1       351-1.26949E+06-1.40331E+05-7.30084E+03-4.26441E+05-2.08729E-08-1.81763E-09
 -1       352-1.17265E+06-2.46912E+05-1.73282E+04-5.37147E+05 6.37619E-08-8.27890E-09
 -1       353-1.26557E+06-1.34101E+05-3.00571E+04-4.28379E+05 1.12154E-08-9.94623E-09
 -1       354-1.20350E+06-2.75461E+05-8.17184E+04-4.98113E+05-3.90580E-08 3.26963E-09
 -1       355-1.23729E+06-1.12994E+05-1.30286E+05-4.64396E+05-1.05483E-08 8.80391E-10
 -1       356-4.67589E+05-2.36185E+03 5.52344E+03-3.64372E+02 4.13081E-10 1.67347E-09
 -1       357-4.65115E+05 2.73507E+03 3.89704E+03-3.70893E+02-4.66351E-10-2.81887E-10
 -1       358-4.66666E+05-3.66017E+02 1.40785E+03-1.80812E+01-8.59643E-10 1.37243E-09
 -1       359-4.66197E+05 4.19982E+02 8.55819E+02-1.02287E+03 7.09562E-10 2.57296E-09
 -1       360-4.66508E+05-5.39196E+01 2.79097E+02 2.87623E+02-1.70942E-10-4.41304E-10
 -1       361-4.66399E+05 4.34333E+01 3.47041E+01-1.53845E+03-1.34641E-10-1.78584E-09
 -1       362-4.66465E+05 1.03087E+01-2.43243E+02 4.97503E+02-4.11916E-10-2.23196E-10
 -1       363-4.66513E+05-1.34482E+02-6.83042E+02-1.82449E+03 3.56465E-10 3.84476E-09
 -1       364-4.66395E+05 1.24296E+02-1.31232E+03 5.73670E+02 3.98843E-10 7.04119E-10
 -1       365-4.66948E+05-9.45889E+02-3.04965E+03-1.82974E+03-7.23228E-10-1.39875E-09
 -1       366-4.66031E+05 8.19629E+02-5.29254E+03 5.02755E+02-1.19840E-10 2.16914E-09
 -1       367-4.69498E+05-6.15340E+03-1.30058E+04-1.55239E+03 6.24230E-10-1.86083E-09
 -1       368-4.63847E+05 5.31545E+03-2.08112E+04 2.96314E+02 1.27179E-09 2.23736E-10
 -1       369-4.85095E+05-3.97601E+04-5.67198E+04-1.03110E+03 6.83272E-10 2.52840E-09
 -1       370-4.50437E+05 3.43166E+04-8.03954E+04-1.85064E+01 3.48183E-09 6.22094E-10
 -1       371-1.23019E+04-2.03902E+05 2.79967E+04 3.72691E+03 1.22782E-09 3.13463E-09
 -1       372 1.26359E+04-1.92106E+05 1.67685E+04-1.53313E+04 2.31194E-09-5.54550E-10
 -1       373-2.68195E+02-1.98182E+05 1.03278E+03 3.90690E+03 1.99088E-09-9.18675E-10
 -1       374-1.02305E+04-2.02638E+05-1.32374E+04-1.51900E+04 1.63755E-09-1.64896E-09
 -1       375 1.04822E+04-1.93366E+05-2.38270E+04 3.58560E+03 1.55887E-09 2.82898E-09
 -1       376-7.98585E+05-1.00352E+05-3.28632E+04-3.06111E+05 2.22872E-09-8.03993E-10
 -1       377-8.16810E+05-1.29184E+05-2.27551E+04-2.99251E+05 3.40503E-09-5.74801E-10
 -1       378-8.05626E+05-1.11715E+05-7.71832E+03-3.03506E+05 3.41061E-10-2.34286E-09
 -1       379-8.08288E+05-1.16365E+05-4.81608E+03-3.02651E+05 8.69576E-10-4.28031E-10
 -1       380-8.07093E+05-1.13134E+05-1.84973E+03-3.02721E+05 4.18027E-10-1.23009E-09
 -1       381-8.06370E+05-1.14975E+05-1.17173E+03-3.03826E+05 8.68461E-11-6.90932E-10
 -1       382-8.07541E+05-1.13099E+05-6.91953E+02-3.02333E+05-5.34897E-11 2.81567E-10
 -1       383-8.05904E+05-1.15176E+05-8.95210E+02-3.04291E+05 2.82689E-10-1.64306E-09
 -1       384-8.07560E+05-1.12932E+05-1.32649E+03-3.02256E+05 8.92882E-10-8.14282E-10
 -1       385-8.06576E+05-1.16015E+05-3.13892E+03-3.04024E+05 1.23613E-09 2.35997E-09
 -1       386-8.06870E+05-1.12263E+05-5.38928E+03-3.02600E+05 3.74939E-10 1.25851E-09
 -1       387-8.10848E+05-1.21829E+05-1.44203E+04-3.02280E+05-5.41206E-10-9.12223E-10
 -1       388-8.03296E+05-1.07135E+05-2.31856E+04-3.03996E+05 1.84309E-09-2.45018E-09
 -1       389-8.34974E+05-1.61932E+05-6.84787E+04-2.93765E+05 6.37260E-09 1.14960E-09
 -1       390-7.82776E+05-7.22693E+04-9.88775E+04-3.11082E+05 1.06756E-08-1.98634E-09
 -1       406 1.84071E+03 4.67630E+05 3.58619E+03-5.40724E+04-2.27374E-11 2.11276E-09
 -1       407 1.00140E+03 4.68243E+05 3.63885E+03-5.96586E+04-3.09183E-09-2.10821E-09
 -1       408 1.28257E+03 4.67590E+05 5.39883E+03-5.39043E+04 1.33241E-10 8.82210E-11
 -1       409 5.02285E+03 4.69620E+05 1.12177E+04-5.98715E+04-3.57886E-09 2.32285E-09
 -1       410 1.44955E+04 4.66146E+05 2.24086E+04-5.38449E+04-7.27596E-11 1.14551E-09
 -1       466 1.13071E+06-4.48841E+04 1.02750E+05 2.27501E+04 2.26009E-10-4.86034E-09
 -1       467 1.18985E+06 5.14293E+04 7.49803E+04-4.41500E+04 5.36375E-10 1.54978E-09
 -1       468 1.15280E+06-6.80739E+03 2.67256E+04 9.47234E+03 6.24595E-10-2.16278E-09
 -1       469 1.16333E+06 7.77647E+03 1.72573E+04-2.44353E+04 1.17188E-09-5.69571E-10
 -1       470 1.15673E+06-1.02499E+03 7.00831E+03 3.03220E+03 7.19808E-10 5.19776E-10
 -1       471 1.15857E+06 1.23088E+03 4.44390E+03-1.50017E+04-4.55685E-10 6.66262E-10
 -1       472 1.15743E+06-1.92056E+02 2.51362E+03 3.84243E+01 8.04988E-10 2.15823E-09
 -1       473 1.15785E+06 5.37830E+02 2.68434E+03-1.09790E+04-3.51321E-10-2.64811E-09
 -1       474 1.15741E+06-3.11852E+02 3.58166E+03-9.90601E+02-1.27191E-09 9.80776E-10
 -1       475 1.15873E+06 2.27482E+03 7.43730E+03-1.03824E+04 7.52433E-10 1.39198E-09
 -1       476 1.15654E+06-1.92191E+03 1.25735E+04-5.58057E+02 2.77795E-09 3.05135E-09
 -1       477 1.16490E+06 1.44676E+04 3.06829E+04-1.29238E+04 2.34195E-10-3.29965E-09
 -1       478 1.15124E+06-1.24785E+04 4.89338E+04 1.55085E+03-1.40801E-10 1.72986E-09
 -1       479 1.20242E+06 9.34200E+04 1.33507E+05-1.99877E+04 1.57451E-09 8.73115E-11
 -1       480 1.11907E+06-8.06503E+04 1.88869E+05 6.50519E+03 2.23201E-09-1.69530E-09
 -1       481-9.96258E+03 2.15209E+05 2.05422E+04-1.41464E+04-2.33740E-10-7.73980E-10
 -1       482 1.12806E+04 2.39715E+05 1.78953E+04 5.19541E+04-1.07320E-10 7.28716E-09
 -1       483-1.79165E+03 2.23815E+05 7.02295E+03-1.15559E+04-1.22782E-11 2.17960E-09
 -1       484 4.78553E+03 2.29737E+05 8.34394E+03 4.86396E+04 3.86677E-11-1.18825E-09
 -1       485-3.04025E+03 2.24546E+05 7.93716E+03-1.08269E+04 1.33241E-10-4.93145E-10
 -1       486-1.07223E+06-1.63557E+05-1.15486E+05-4.74653E+05-2.14277E-09-1.29949E-08
 -1       487-1.16377E+06-8.38671E+04-5.78704E+04-2.68616E+05 8.08450E-09 1.62108E-08
 -1       488-1.01576E+06-2.10547E+05-2.40547E+04-4.78391E+05-3.78714E-09 1.18716E-08
 -1       489-1.19579E+06-3.31283E+04-1.11856E+04-2.69763E+05 4.29293E-09 1.54550E-08
 -1       490-1.04286E+06-2.12230E+05-9.71684E+03-4.75778E+05-4.21096E-10 1.45487E-08
 -1       491-1.07260E+06-5.94163E+04 1.67512E+04-2.88846E+05 1.56683E-08-1.85514E-09
 -1       492-1.13316E+06-1.88472E+05-1.87585E+04-4.54594E+05-1.70967E-08-3.96267E-09
 -1       493-9.36436E+05-1.33967E+05 3.01687E+04-3.62193E+05-8.82392E-09-2.47974E-09
 -1       494-1.17479E+06-1.40844E+05-1.74069E+04-3.99459E+05 7.34781E-09-1.33559E-08
 -1       495-9.23768E+05-2.21749E+05 1.45686E+04-4.77612E+05 1.72424E-08-2.99462E-08
 -1       496-1.15079E+06-9.70459E+04-7.44816E+03-3.43107E+05 1.51026E-08-1.54298E-08
 -1       497-9.60147E+05-2.70074E+05-9.69262E+03-5.42762E+05-1.89365E-08-4.78849E-09
 -1       498-1.14379E+06-8.85108E+04-2.16353E+04-3.38084E+05-8.43693E-09 4.98922E-08
 -1       499-9.52553E+05-2.70855E+05-4.55182E+04-4.88997E+05-5.94457E-09 7.86713E-09
 -1       500-1.15438E+06-9.93698E+04-1.02998E+05-3.94043E+05 1.74268E-08-4.47471E-09
 -1       501-4.77011E+05-1.92801E+04 4.50851E+04-3.97650E+02 2.39834E-09 3.85626E-10
 -1       502-4.56873E+05 2.23274E+04 3.19100E+04-2.52478E+03 1.46703E-09 1.58298E-09
 -1       503-4.69439E+05-2.99292E+03 1.16450E+04 8.41479E+02 7.80403E-10 1.72440E-09
 -1       504-4.65790E+05 3.45987E+03 7.35011E+03-4.75058E+03 7.81483E-10 3.10774E-09
 -1       505-4.68120E+05-4.64834E+02 2.96282E+03 1.82823E+03 1.01269E-09 2.27374E-11
 -1       506-4.67399E+05 5.44041E+02 1.74431E+03-6.27499E+03 2.40103E-09 6.07969E-10
 -1       507-4.67848E+05-7.38151E+01 7.69828E+02 2.36592E+03 1.15001E-09 3.91782E-09
 -1       508-4.67709E+05 1.04024E+02 4.60042E+02-6.80315E+03 4.37802E-10 9.58003E-10
 -1       509-4.67818E+05-2.08625E+01 2.71802E+02 2.35641E+03 2.26555E-09 2.97710E-09
 -1       510-4.67645E+05 8.33455E+01 3.10759E+02-6.23860E+03 2.65749E-09 1.05254E-09
 -1       511-4.67904E+05-5.85921E+01 3.68813E+02 1.80135E+03 7.00737E-10 1.38316E-09
 -1       512-4.67314E+05 4.00759E+02 9.02007E+02-4.68246E+03-2.37605E-11-3.24610E-09
 -1       513-4.68133E+05-3.49576E+02 1.30337E+03 8.00241E+02-4.18368E-11-6.13795E-10
 -1       514-4.66164E+05 2.55353E+03 3.70299E+03-2.41409E+03-2.72905E-10-1.34901E-09
 -1       515-4.69039E+05-2.21495E+03 5.08225E+03-4.67027E+02-4.73335E-10 6.10498E-10
 -1       516-4.66985E+04 2.09311E+05 1.08230E+05 2.39832E+04 7.39237E-09 3.57841E-09
 -1       517 5.68747E+04 2.63828E+05 8.19642E+04-1.11618E+05 1.15697E-08 9.02713E-09
 -1       518-9.29015E+03 2.29370E+05 3.68399E+04 2.31516E+04 7.02948E-09 5.76529E-09
 -1       519 2.81253E+04 2.62390E+05 4.59106E+04-1.14334E+05 1.02600E-08 1.12857E-09
 -1       520-1.88217E+04 2.11847E+05 3.93077E+04 2.66964E+04-2.99406E-09 2.13595E-09
 -1       521-2.94878E+06-3.72825E+05-2.11394E+05-1.13991E+06-1.97178E-09-4.43833E-09
 -1       522-3.01595E+06-5.24210E+05-1.34289E+05-1.14834E+06 7.04858E-11-1.14778E-09
 -1       523-2.98714E+06-4.21862E+05-4.98763E+04-1.13232E+06 8.48161E-10 5.05679E-10
 -1       524-2.97125E+06-4.62094E+05-2.75902E+04-1.16079E+06-6.58702E-10-2.88719E-09
 -1       525-2.99243E+06-4.26442E+05-1.16090E+04-1.13074E+06 1.54478E-09 1.94586E-09
 -1       526-2.96501E+06-4.56467E+05-6.18822E+03-1.16333E+06 2.30455E-09 2.11628E-09
 -1       527-2.99342E+06-4.26581E+05-3.17712E+03-1.13020E+06-5.65478E-10-7.76822E-10
 -1       528-2.96411E+06-4.56179E+05-2.54608E+03-1.16387E+06-1.18354E-09 8.21274E-10
 -1       529-2.99338E+06-4.26634E+05-3.09127E+03-1.13026E+06-7.61815E-10 2.57614E-10
 -1       530-2.96515E+06-4.56253E+05-5.94573E+03-1.16311E+06-5.67752E-10 3.50155E-10
 -1       531-2.99231E+06-4.26618E+05-1.11236E+04-1.13089E+06 1.31240E-09 1.53614E-09
 -1       532-2.97132E+06-4.61409E+05-2.64055E+04-1.16040E+06 1.33787E-09 4.31555E-10
 -1       533-2.98712E+06-4.22367E+05-4.77344E+04-1.13254E+06-1.00908E-09-2.60479E-09
 -1       534-3.01435E+06-5.20583E+05-1.28497E+05-1.14817E+06-1.28421E-09 9.00400E-10
 -1       535-2.95027E+06-3.75593E+05-2.02293E+05-1.13996E+06-2.27737E-09-1.80444E-09
 -1       536 1.02190E+05-1.43805E+04 5.82936E+04-6.31046E+03 5.91172E-11-1.88811E-09
 -1       537 1.23752E+05 1.88547E+04 3.76126E+04-2.77730E+04-2.51339E-09-1.19871E-09
 -1       538 1.11036E+05-1.56756E+03 1.50974E+04-6.26235E+03-3.45608E-10 1.07957E-09
 -1       539 1.13708E+05 1.88143E+03 8.49006E+03-2.77921E+04 9.03583E-10-1.50362E-09
 -1       540 1.12050E+05-1.93421E+02 3.81060E+03-6.28586E+03 1.17598E-09 4.50882E-10
 -1       541 1.12440E+05 1.81702E+02 2.02703E+03-2.77461E+04-1.60435E-09-1.64619E-09
 -1       542 1.12173E+05-2.70626E+01 9.60847E+02-6.30853E+03-3.28987E-09-1.17802E-09
 -1       543 1.12223E+05 3.08257E+01 5.13408E+02-2.77116E+04-3.16220E-09-4.15457E-09
 -1       544 1.12186E+05 7.76023E-02 2.75697E+02-6.32047E+03-2.34377E-09 6.53813E-10
 -1       545 1.12181E+05 2.96602E+01 2.01411E+02-2.76982E+04-1.53102E-09 1.17456E-09
 -1       546 1.12184E+05-2.30863E+00 2.09255E+02-6.32185E+03 7.35554E-11 7.71252E-10
 -1       547 1.12236E+05 9.05809E+01 3.63233E+02-2.77025E+04-2.40561E-10-1.09515E-09
 -1       548 1.12150E+05-6.34321E+01 6.02697E+02-6.31620E+03-9.79753E-10-3.08091E-10
 -1       549 1.12676E+05 7.38449E+02 1.48100E+03-2.76754E+04 6.67342E-10 3.82670E-10
 -1       550 1.11813E+05-5.83756E+02 2.27092E+03-6.34903E+03-2.00544E-10 2.06728E-09
 -1       551 1.43245E+04-2.84623E+05 2.87412E+04-4.33846E+05-6.33008E-10 5.27507E-10
 -1       552 7.29975E+03-2.80083E+05 2.18064E+04-5.05702E+05-1.70985E-09 3.47154E-09
 -1       553 4.75250E+03-2.84193E+05 2.42886E+04-4.33127E+05-8.03993E-10 4.27917E-10
 -1       554 1.61931E+04-2.75350E+05 4.47130E+04-5.05835E+05-8.80391E-10-5.14319E-10
 -1       555 4.30697E+04-2.90024E+05 8.44431E+04-4.33630E+05-1.06229E-09-2.85218E-09
 -1       556-2.26279E+05-1.15854E+05 1.71594E+04-2.07665E+05 1.45155E-09-1.29512E-09
 -1       557-2.09777E+05-1.33937E+05 8.43161E+03-2.20803E+05-2.32649E-09-2.65345E-10
 -1       558-2.26845E+05-1.21622E+05 3.52825E+03-2.04264E+05-8.18545E-09-1.08666E-08
 -1       559-2.11483E+05-1.36765E+05 1.73726E+03-2.21527E+05 4.14730E-10 9.37689E-10
 -1       560-2.27173E+05-1.21613E+05 7.62337E+02-2.04298E+05-5.40604E-09-1.33418E-08
 -1       561-2.11930E+05-1.36769E+05 3.61184E+02-2.21853E+05 6.03904E-10 2.18296E-09
 -1       562-2.27417E+05-1.21454E+05 1.17342E+02-2.04458E+05 2.91038E-11 8.73570E-10
 -1       563-2.12168E+05-1.36666E+05-2.76298E+01-2.22024E+05-5.02041E-10 3.22302E-09
 -1       564-2.27549E+05-1.21359E+05-2.06437E+02-2.04552E+05 2.62298E-09 9.05675E-09
 -1       565-2.12295E+05-1.36618E+05-5.11036E+02-2.22102E+05-1.11731E-09 1.54159E-09
 -1       566-2.27548E+05-1.21325E+05-1.09026E+03-2.04570E+05 2.37242E-09 6.93672E-09
 -1       567-2.12479E+05-1.36743E+05-2.41199E+03-2.22070E+05 1.59162E-11 5.56611E-10
 -1       568-2.27331E+05-1.21741E+05-4.96616E+03-2.04348E+05 7.36691E-11-1.57706E-09
 -1       569-2.15101E+05-1.39854E+05-1.17163E+04-2.21225E+05 4.87489E-10 1.05138E-09
 -1       570-2.26279E+05-1.31148E+05-2.39797E+04-2.00348E+05-2.69210E-10 8.25366E-10
 -1       571 3.04037E+05 1.50071E+04 2.33275E+04-7.71334E+04 4.54747E-11-1.15961E-10
 -1       572 3.07625E+05 5.07764E+03 1.14710E+04-8.51986E+04-2.65572E-10-1.29239E-09
 -1       573 3.05473E+05 1.10282E+03 5.10630E+03-7.69138E+04 2.07365E-10-4.60204E-10
 -1       574 3.05883E+05 3.36585E+02 2.56696E+03-8.54353E+04-8.00355E-11-2.19006E-09
 -1       575 3.05614E+05 2.11823E+01 1.21663E+03-7.68869E+04-3.91083E-10-9.54060E-10
 -1       576 3.05651E+05-3.34961E+00 6.23997E+02-8.54655E+04 2.18506E-10 2.10002E-09
 -1       577 3.05634E+05-2.18332E+01 3.15052E+02-7.68835E+04-4.25189E-10 5.83896E-10
 -1       578 3.05633E+05-1.81165E+01 1.85644E+02-8.54693E+04-6.23913E-10 1.84446E-09
 -1       579 3.05665E+05-2.97046E+01 1.38412E+02-7.68831E+04-1.06684E-09 2.24645E-10
 -1       580 3.05683E+05-3.75526E+01 1.70192E+02-8.54657E+04-7.28051E-10 5.41149E-10
 -1       581 3.05722E+05-5.17067E+01 2.75696E+02-7.68870E+04-1.93904E-09-3.59250E-10
 -1       582 3.05812E+05-7.03449E+00 5.56248E+02-8.54211E+04-1.40153E-09 1.44792E-09
 -1       583 3.05777E+05 1.29699E+02 1.08657E+03-7.69278E+04-9.55151E-09-9.51559E-10
 -1       584 3.06290E+05 9.49276E+02 2.43966E+03-8.50639E+04-1.96233E-08-8.09450E-10
 -1       585 3.05570E+05 3.04074E+03 4.94810E+03-7.72481E+04-8.58745E-09 3.01225E-09
 -1       586 2.37782E+03 1.17718E+05 4.20712E+03-2.03251E+05 1.74441E-09 2.69119E-09
 -1       587 1.39095E+03 1.18375E+05 4.08486E+03-2.25160E+05 2.21917E-10-1.59389E-09
 -1       588 1.60617E+03 1.17603E+05 5.86056E+03-2.02994E+05 1.96451E-09 1.64550E-09
 -1       589 5.61174E+03 1.19826E+05 1.20437E+04-2.25213E+05 5.23869E-10-7.45104E-10
 -1       590 1.56636E+04 1.16168E+05 2.39736E+04-2.03191E+05 1.70530E-09-2.90765E-09
 -1       591-1.34868E+05-4.82479E+04-2.56422E+04-7.16717E+04 6.64204E-09 1.30913E-08
 -1       592-1.35418E+05-4.50409E+04-1.25424E+04-7.95383E+04-1.55774E-09 6.90989E-10
 -1       593-1.35570E+05-3.84897E+04-5.32000E+03-7.60933E+04-4.89672E-09-6.82508E-09
 -1       594-1.32698E+05-4.15304E+04-2.60097E+03-8.00481E+04-5.48994E-09-4.65404E-09
 -1       595-1.35696E+05-3.81111E+04-1.19741E+03-7.62994E+04-4.63638E-09-6.94490E-09
 -1       596-1.32492E+05-4.13868E+04-6.08650E+02-8.00364E+04 1.40381E-09 5.59476E-09
 -1       597-1.35721E+05-3.81265E+04-3.34362E+02-7.63021E+04 3.36883E-09 2.63822E-09
 -1       598-1.32471E+05-4.13883E+04-2.73161E+02-8.00279E+04 9.27855E-10-3.51656E-09
 -1       599-1.35717E+05-3.81272E+04-3.53945E+02-7.63005E+04-6.83258E-10 4.01997E-10
 -1       600-1.32489E+05-4.13891E+04-6.60475E+02-8.00329E+04-6.84850E-10 1.73077E-09
 -1       601-1.35682E+05-3.81126E+04-1.30728E+03-7.62940E+04-1.32877E-09 8.42647E-10
 -1       602-1.32711E+05-4.15465E+04-2.84463E+03-8.00391E+04-4.66343E-10 1.35356E-09
 -1       603-1.35539E+05-3.85324E+04-5.81989E+03-7.60678E+04-1.11004E-09 1.99361E-09
 -1       604-1.35701E+05-4.53681E+04-1.37205E+04-7.94547E+04 3.80624E-10-2.23872E-09
 -1       605-1.34747E+05-4.92214E+04-2.80499E+04-7.12464E+04 2.41971E-09 3.51974E-09
 -1       606 9.13438E+04-1.16560E+04-1.80733E+04 2.66073E+04-5.48698E-09-1.13869E-09
 -1       607 8.85102E+04-3.94431E+03-8.88368E+03 2.91047E+04-1.03410E-09-3.56260E-09
 -1       608 9.01583E+04-8.54928E+02-3.95511E+03 2.64226E+04 4.08181E-09-8.27640E-10
 -1       609 8.97842E+04-2.35963E+02-1.98393E+03 2.93044E+04-2.63026E-09 4.25348E-09
 -1       610 8.99962E+04 1.34025E+01-9.37743E+02 2.63993E+04-6.44559E-09 4.30532E-09
 -1       611 8.99205E+04 5.02524E+01-4.72551E+02 2.93292E+04-1.03169E-08 3.96722E-09
 -1       612 8.99565E+04 6.00102E+01-2.25733E+02 2.63967E+04-4.71664E-09-1.59162E-10
 -1       613 8.99258E+04 6.58328E+01-1.05789E+02 2.93322E+04-7.99855E-09 4.12228E-10
 -1       614 8.99371E+04 5.99680E+01-3.52694E+01 2.63961E+04-2.80761E-09-4.84533E-10
 -1       615 8.99178E+04 6.98175E+01 1.74907E+01 2.93324E+04 3.49382E-09-5.07043E-11
 -1       616 8.99228E+04 6.65129E+01 7.75817E+01 2.63965E+04-6.62021E-09-9.30413E-10
 -1       617 8.99240E+04 1.00682E+02 1.87741E+02 2.93315E+04-5.21823E-10 2.95813E-09
 -1       618 8.99015E+04 1.53876E+02 3.84745E+02 2.63968E+04-1.06177E-08-8.13998E-11
 -1       619 9.00460E+04 4.66458E+02 8.70810E+02 2.93282E+04-2.08297E-08-1.20235E-09
 -1       620 8.97837E+04 1.21575E+03 1.77402E+03 2.63978E+04-8.02436E-09-9.29049E-10
 -1       621 2.49794E+03 3.06963E+05 5.88171E+03-2.93041E+04 8.91305E-11 1.06611E-08
 -1       622 9.58812E+02 3.08064E+05 4.72837E+03-3.42931E+04-1.56592E-09 1.82490E-08
 -1       623 5.62521E+02 3.07222E+05 5.66094E+03-2.93393E+04 3.98359E-10 9.48012E-09
 -1       624 3.26094E+03 3.09401E+05 1.07713E+04-3.41391E+04-1.50180E-09-3.63798E-11
 -1       625 1.00003E+04 3.05673E+05 2.05651E+04-2.94553E+04 2.98314E-10 1.89175E-10
 -1       626 1.27704E+05 4.15219E+04-8.60276E+03 8.73976E+04-7.32234E-09-3.99723E-09
 -1       627 1.23975E+05 4.72920E+04-4.08572E+03 8.89134E+04-1.06775E-09-7.52152E-10
 -1       628 1.27860E+05 4.57131E+04-1.71822E+03 8.53668E+04-1.13505E-09 3.28532E-09
 -1       629 1.24628E+05 4.89975E+04-8.25546E+02 8.87484E+04-1.31959E-08 1.08807E-08
 -1       630 1.27833E+05 4.59962E+04-3.65722E+02 8.52021E+04-6.93672E-09-4.69055E-09
 -1       631 1.24669E+05 4.91218E+04-1.65458E+02 8.87433E+04-5.95583E-09-1.71696E-10
 -1       632 1.27811E+05 4.60075E+04-5.06494E+01 8.51847E+04-2.08856E-08 6.59202E-09
 -1       633 1.24666E+05 4.91294E+04 2.99242E+01 8.87413E+04-2.68735E-08 1.51435E-08
 -1       634 1.27795E+05 4.60018E+04 1.25609E+02 8.51804E+04-1.33550E-08 7.18182E-09
 -1       635 1.24678E+05 4.91330E+04 3.04027E+02 8.87432E+04-4.94856E-09 9.93782E-09
 -1       636 1.27780E+05 4.60134E+04 6.39068E+02 8.51706E+04-5.59385E-09 1.11199E-08
 -1       637 1.24828E+05 4.92971E+04 1.42969E+03 8.87199E+04 1.91127E-09 2.89538E-09
 -1       638 1.27745E+05 4.65106E+04 2.96222E+03 8.49526E+04 5.77324E-09-7.51697E-10
 -1       639 1.26341E+05 5.18840E+04 7.04566E+03 8.80970E+04-1.52897E-09 2.09002E-09
 -1       640 1.27792E+05 5.40185E+04 1.48322E+04 8.18214E+04-1.04128E-08 6.85395E-09
 -1       641 3.24468E+03 2.69255E+03-6.31729E+03-2.60110E+02-1.02237E-08-1.46656E-09
 -1       642 5.40885E+02-3.11758E+03-4.44893E+03 1.16623E+03 1.78650E-09-1.48407E-09
 -1       643 2.19669E+03 4.16191E+02-1.62993E+03-2.57760E+02-1.75979E-08-1.71713E-09
 -1       644 1.75704E+03-4.78228E+02-1.00751E+03 1.16300E+03 5.69079E-09-6.35254E-10
 -1       645 2.02750E+03 6.25911E+01-3.91264E+02-2.56892E+02-8.91941E-09-4.97380E-09
 -1       646 1.95614E+03-6.35765E+01-1.86044E+02 1.16167E+03-3.33464E-07 1.71522E-09
 -1       647 1.99703E+03 3.18366E+00-3.04933E+00-2.56439E+02-2.52042E-05 4.70955E-08
 -1       648 2.01065E+03 3.69885E+01 1.65854E+02 1.16120E+03-4.98489E-05 9.73203E-08
 -1       649 1.97281E+03-3.76074E+01 3.80395E+02-2.56424E+02-2.52070E-05 4.57227E-08
 -1       650 2.14919E+03 2.90887E+02 9.18805E+02 1.16134E+03-3.15777E-07-9.01437E-10
 -1       651 1.85867E+03-2.50192E+02 1.60620E+03-2.56575E+02-1.15542E-08-2.71598E-10
 -1       652 2.93451E+03 1.87632E+03 3.95878E+03 1.16127E+03 6.94945E-09 1.91204E-09
 -1       653 1.18810E+03-1.61859E+03 6.33286E+03-2.56358E+02-6.73922E-09-2.38924E-09
 -1       654 7.69385E+03 1.21030E+04 1.72673E+04 1.15707E+03 8.52537E-09 2.23554E-09
 -1       655-2.89892E+03-1.04435E+04 2.44738E+04-2.52418E+02-1.17467E-10-2.91038E-11
 -1       656 9.63723E+03-3.47782E+05-4.08235E+04 8.38803E+03-2.59934E-09 1.76533E-09
 -1       657-1.39361E+04-3.62858E+05-2.99264E+04 3.53553E+04-8.05812E-10 6.24254E-10
 -1       658 1.89511E+03-3.53114E+05-1.88858E+04 8.30587E+03-1.22446E-09 3.65003E-09
 -1       659-1.26821E+04-3.62158E+05-2.77714E+04 3.54110E+04-2.38424E-09 1.20477E-09
 -1       660 8.61833E+03-3.48515E+05-3.67674E+04 8.33321E+03-1.64073E-09 1.64732E-09
 -1       661 3.45354E+05 4.36007E+04 2.84063E+04 1.34962E+05 9.46920E-09 1.22418E-09
 -1       662 3.52228E+05 6.61279E+04 1.80483E+04 1.38638E+05 2.70131E-09-1.26670E-09
 -1       663 3.50307E+05 5.03885E+04 6.71062E+03 1.34183E+05 6.00471E-09-1.10958E-09
 -1       664 3.46542E+05 5.74618E+04 3.72259E+03 1.39881E+05-1.04137E-09-2.78862E-09
 -1       665 3.50873E+05 5.11547E+04 1.57484E+03 1.34133E+05 3.58182E-09-4.01940E-09
 -1       666 3.45893E+05 5.65035E+04 8.59973E+02 1.39961E+05 1.63865E-09 4.36646E-09
 -1       667 3.50934E+05 5.12476E+04 4.77782E+02 1.34138E+05 3.99456E-09 3.81878E-09
 -1       668 3.45834E+05 5.64103E+04 4.49962E+02 1.39956E+05-1.16173E-08 4.83780E-10
 -1       669 3.50928E+05 5.12420E+04 6.28084E+02 1.34138E+05-5.25986E-10 7.97274E-09
 -1       670 3.45948E+05 5.65660E+04 1.27849E+03 1.39958E+05 1.32551E-08 4.44842E-09
 -1       671 3.50825E+05 5.11017E+04 2.41711E+03 1.34134E+05-1.22151E-09-7.31234E-10
 -1       672 3.46968E+05 5.80412E+04 5.76153E+03 1.39819E+05-6.68092E-09 2.83978E-09
 -1       673 3.49936E+05 4.99225E+04 1.04027E+04 1.34222E+05 2.78422E-09-5.66615E-10
 -1       674 3.55801E+05 7.14680E+04 2.79907E+04 1.37869E+05 8.35820E-09-4.52928E-10
 -1       675 3.42247E+05 3.94038E+04 4.40604E+04 1.35437E+05 3.89946E-09-3.00315E-09
 -1       676 1.24600E+03-3.27102E+05-5.87191E+03 3.96709E+02-3.19210E-09-7.25770E-10
 -1       677-2.24959E+03-3.29363E+05-5.89888E+03 2.94678E+02-4.42192E-10-6.46605E-09
 -1       678 6.45523E+02-3.27482E+05-6.38609E+03 3.95687E+02-1.19189E-09-2.66222E-09
 -1       679-6.70560E+03-3.31960E+05-1.36119E+04 2.94125E+02 2.61025E-10-6.15932E-09
 -1       680 4.94209E+03-3.24507E+05-2.03629E+04 3.96287E+02 2.69665E-09-1.99026E-09
 -1       681 4.74463E+05-1.25405E+04 2.93475E+04-1.22040E+03 1.82837E-10-8.65839E-10
 -1       682 4.87308E+05 1.45358E+04 2.07474E+04 6.85037E+03-4.57590E-11-1.46497E-09
 -1       683 4.79437E+05-1.94251E+03 7.61424E+03-5.29366E+02 2.64905E-10-2.45382E-09
 -1       684 4.81507E+05 2.26238E+03 4.78876E+03 5.90492E+03-4.42668E-11-1.99105E-09
 -1       685 4.80258E+05-3.01262E+02 1.99855E+03-2.74935E+02 1.06493E-10-1.52284E-09
 -1       686 4.80570E+05 3.74039E+02 1.25119E+03 5.77986E+03-9.11626E-10-1.46478E-09
 -1       687 4.80374E+05-5.91847E+01 7.33595E+02-4.04293E+02-3.20952E-10-1.71239E-09
 -1       688 4.80535E+05 1.65135E+02 8.21018E+02 6.44817E+03-5.93587E-11-1.06541E-09
 -1       689 4.80300E+05-9.74774E+01 1.09495E+03-9.43245E+02 2.43858E-10-9.38883E-10
 -1       690 4.81027E+05 6.93535E+02 2.36722E+03 8.04099E+03 9.98185E-10-4.16179E-10
 -1       691 4.79901E+05-5.99651E+02 3.89415E+03-1.99713E+03 5.61045E-11 1.51886E-10
 -1       692 4.83424E+05 4.48686E+03 9.73387E+03 1.08724E+04-4.45056E-10 1.88606E-10
 -1       693 4.77949E+05-3.91255E+03 1.52212E+04-3.77477E+03 1.41188E-09 1.64073E-09
 -1       694 4.96233E+05 2.92596E+04 4.21516E+04 1.55784E+04 5.21351E-09 9.69521E-10
 -1       695 4.67203E+05-2.53693E+04 5.88808E+04-6.70348E+03 4.81555E-09 4.30373E-09
 -1       696-9.44089E+03 3.96078E+05 2.17117E+04 2.42971E+03 1.09139E-11-3.13094E-10
 -1       697 1.02283E+04 4.05454E+05 1.40254E+04-1.22007E+04 5.09317E-11-3.83181E-10
 -1       698-7.40256E+02 4.00248E+05 2.86256E+03 1.88934E+03-1.89175E-10 1.30399E-09
 -1       699-3.77230E+03 3.98853E+05-4.37157E+03-1.18524E+04-2.81943E-10 2.41094E-09
 -1       700 4.51943E+03 4.02676E+05-9.97540E+03 2.08134E+03-1.58252E-10 1.02719E-09
 -1       701-4.26341E+05-3.85404E+04-5.44464E+04-1.68716E+05 6.09361E-11 8.18545E-10
 -1       702-4.52859E+05-8.99993E+04-3.76873E+04-1.61602E+05-1.16415E-10 1.07320E-10
 -1       703-4.37738E+05-5.75937E+04-1.27734E+04-1.64664E+05 1.12550E-10-1.77351E-10
 -1       704-4.39534E+05-6.80271E+04-7.94941E+03-1.66405E+05 1.92330E-10 2.54659E-10
 -1       705-4.39656E+05-6.04507E+04-2.98961E+03-1.63935E+05 1.72236E-11 7.27596E-11
 -1       706-4.37390E+05-6.46401E+04-1.77950E+03-1.67142E+05-8.31335E-11 7.57069E-10
 -1       707-4.39879E+05-6.09713E+04-8.29287E+02-1.63930E+05 5.06574E-10-2.81261E-10
 -1       708-4.37410E+05-6.38457E+04-7.19657E+02-1.66833E+05 3.58106E-10-5.12321E-10
 -1       709-4.39633E+05-6.12455E+04-8.13259E+02-1.64243E+05 1.40560E-10-5.28075E-11
 -1       710-4.38324E+05-6.35913E+04-1.70108E+03-1.65957E+05 4.19035E-10-4.77485E-12
 -1       711-4.38963E+05-6.12290E+04-2.88384E+03-1.64803E+05-1.18916E-10-4.16890E-10
 -1       712-4.41175E+05-6.60359E+04-7.61874E+03-1.64324E+05 3.12411E-10 3.51065E-10
 -1       713-4.36783E+05-5.88106E+04-1.22745E+04-1.65872E+05 2.33285E-10 5.20686E-10
 -1       714-4.54462E+05-8.67090E+04-3.61872E+04-1.59237E+05 3.00133E-11-6.58929E-10
 -1       715-4.25690E+05-4.06127E+04-5.22839E+04-1.69871E+05-1.38061E-09 1.36788E-09
 -1       716 3.04450E+05-1.90346E+04 4.43062E+04-4.21025E+03-5.71788E-09 4.74392E-09
 -1       717 3.25719E+05 2.19714E+04 3.16276E+04 9.10018E+03-2.07669E-09 4.23825E-09
 -1       718 3.12289E+05-2.94097E+03 1.14666E+04-2.68771E+03-1.57615E-09 2.09729E-09
 -1       719 3.16421E+05 3.37129E+03 7.37327E+03 6.54220E+03-1.76755E-10 1.30137E-09
 -1       720 3.13692E+05-4.55623E+02 3.02268E+03-1.65214E+03 1.59787E-10 5.08066E-10
 -1       721 3.14711E+05 5.40379E+02 2.02155E+03 4.77696E+03 1.62836E-09 1.03947E-09
 -1       722 3.13970E+05-9.83975E+01 1.23576E+03-9.22316E+02 7.19439E-10-6.12175E-10
 -1       723 3.14435E+05 2.98183E+02 1.56286E+03 3.52698E+03-1.64322E-09-2.52228E-10
 -1       724 3.13953E+05-2.04126E+02 2.23171E+03-4.02105E+02-2.65902E-09-1.56251E-09
 -1       725 3.14981E+05 1.47046E+03 4.82568E+03 2.62812E+03-4.29296E-10-1.10725E-09
 -1       726 3.13417E+05-1.26256E+03 8.19510E+03-2.34378E+01-1.67884E-09-1.75123E-09
 -1       727 3.18870E+05 9.46583E+03 2.00492E+04 1.95988E+03-2.97347E-09-3.58978E-09
 -1       728 3.10058E+05-8.17238E+03 3.20305E+04 2.66095E+02-1.82706E-09-3.47609E-09
 -1       729 3.42843E+05 6.11296E+04 8.72524E+04 1.39255E+03-1.27017E-09-1.55342E-09
 -1       730 2.89450E+05-5.27480E+04 1.23732E+05 5.43525E+02 3.11246E-10-1.93540E-09
 -1       731-1.45876E+04 1.62452E+05 3.09036E+04 1.53645E+04-1.06411E-09 5.19321E-10
 -1       732 1.67692E+04 1.90792E+05 2.49113E+04-6.40586E+04-8.04903E-11-9.07562E-10
 -1       733-2.36215E+03 1.73614E+05 9.26761E+03 1.34235E+04 3.58114E-09 1.19940E-09
 -1       734 4.92721E+03 1.78591E+05 8.40152E+03-6.19901E+04 5.92718E-09 5.87693E-09
 -1       735-2.34818E+03 1.74032E+05 6.16279E+03 1.32958E+04 2.91038E-09 3.30067E-09
 -1       736-9.36850E+05-8.84325E+04-7.47561E+04-3.43272E+05-4.99131E-09-1.38243E-10
 -1       737-9.26088E+05-1.97367E+05-5.04869E+04-3.79748E+05-1.37782E-08-2.50384E-09
 -1       738-9.52900E+05-1.09393E+05-1.72817E+04-3.32065E+05-4.89831E-09-2.63390E-09
 -1       739-9.08527E+05-1.68394E+05-1.03674E+04-3.87014E+05-4.65343E-09 8.64475E-10
 -1       740-9.54443E+05-1.17279E+05-4.58534E+03-3.36073E+05 1.77897E-09 6.68217E-09
 -1       741-9.11463E+05-1.49748E+05-4.29469E+02-3.70010E+05 3.36127E-09 1.11954E-08
 -1       742-9.49388E+05-1.28439E+05-2.65639E+03-3.48653E+05-2.57637E-09 1.46872E-09
 -1       743-9.28720E+05-1.27131E+05 1.87314E+03-3.43948E+05 9.37439E-09 2.40379E-09
 -1       744-9.36895E+05-1.40102E+05-2.35619E+03-3.61910E+05 4.43424E-09 1.30126E-09
 -1       745-9.55108E+05-1.08008E+05-4.44256E+02-3.22802E+05-5.23528E-09-5.49949E-09
 -1       746-9.23445E+05-1.47242E+05-3.62714E+03-3.70128E+05 1.88095E-09-1.83788E-08
 -1       747-9.73628E+05-1.02576E+05-8.61904E+03-3.13037E+05 1.06450E-08 8.51901E-09
 -1       748-9.18853E+05-1.45205E+05-1.42748E+04-3.72037E+05-1.17152E-08-3.44698E-10
 -1       749-9.79814E+05-1.31628E+05-4.10154E+04-3.12572E+05 2.83671E-09-4.07454E-10
 -1       750-9.17044E+05-1.18432E+05-6.18795E+04-3.70387E+05-7.82165E-10 2.93585E-09
 -1       751 2.40798E+06-1.33946E+05 3.14646E+05 8.18986E+03-1.27256E-08-3.05590E-10
 -1       752 2.54402E+06 1.55224E+05 2.21861E+05-1.17888E+04-4.25946E-09-2.44472E-09
 -1       753 2.46066E+06-2.07459E+04 8.15465E+04 2.69086E+03-4.18225E-10 4.65661E-10
 -1       754 2.48286E+06 2.40242E+04 5.10667E+04-4.37819E+03 6.50616E-10 3.06591E-09
 -1       755 2.46927E+06-3.20677E+03 2.10105E+04 7.80755E+02-9.31465E-10-7.19410E-10
 -1       756 2.47289E+06 3.75940E+03 1.25153E+04-1.80271E+03-1.53073E-09 5.66843E-10
 -1       757 2.47069E+06-5.43505E+02 6.19749E+03 1.15406E+02 1.52663E-09 4.08136E-10
 -1       758 2.47142E+06 9.74521E+02 4.97098E+03-9.49243E+02 1.43374E-09 1.15087E-09
 -1       759 2.47076E+06-4.29308E+02 5.11558E+03-7.27328E+01 1.16578E-09 5.56724E-10
 -1       760 2.47235E+06 2.76650E+03 9.40082E+03-8.34962E+02-1.68466E-10 2.20984E-09
 -1       761 2.46976E+06-2.33037E+03 1.53799E+04 1.12411E+00 1.37669E-09-9.54969E-11
 -1       762 2.47952E+06 1.74215E+04 3.70794E+04-1.33010E+03 4.35209E-09 4.51155E-09
 -1       763 2.46353E+06-1.50383E+04 5.91234E+04 4.22413E+02 5.32486E-09 1.45519E-11
 -1       764 2.52363E+06 1.12477E+05 1.60728E+05-3.02696E+03 1.12372E-09-3.20142E-10
 -1       765 2.42550E+06-9.70519E+04 2.27947E+05 1.69776E+03-1.16275E-09-2.12458E-09
 -1       766-5.56956E+04 3.50051E+05 1.32199E+05-8.36846E+03 2.08820E-09 1.78943E-10
 -1       767 6.85520E+04 4.09515E+05 1.00733E+05 3.39836E+04 6.82121E-11 2.03158E-10
 -1       768-1.26565E+04 3.70316E+05 4.92154E+04-7.64257E+03 1.37334E-10 3.71855E-10
 -1       769 4.12047E+04 3.97504E+05 6.49230E+04 3.47651E+04 1.64619E-09 8.68454E-10
 -1       770-2.84879E+04 3.62116E+05 6.99790E+04-9.15013E+03 1.69530E-09 2.42017E-09
 -1       771-1.34739E+06-2.73608E+05-5.12664E+04-5.80700E+05-1.96542E-09-8.56380E-09
 -1       772-1.34500E+06-2.70432E+05-2.50468E+04-6.00139E+05-3.97813E-09 6.24277E-09
 -1       773-1.34929E+06-2.53749E+05-1.06534E+04-5.89327E+05-1.42609E-09 3.14503E-09
 -1       774-1.33948E+06-2.63712E+05-5.19301E+03-6.01781E+05 1.33878E-09-5.12046E-10
 -1       775-1.34980E+06-2.52815E+05-2.40664E+03-5.89817E+05-3.49246E-10 8.96307E-10
 -1       776-1.33923E+06-2.63403E+05-1.21119E+03-6.02003E+05 1.74805E-09-9.00172E-10
 -1       777-1.35006E+06-2.52726E+05-6.65868E+02-5.89914E+05 3.96540E-09 3.14731E-09
 -1       778-1.33932E+06-2.63360E+05-5.15857E+02-6.02150E+05-2.23463E-09 1.67529E-09
 -1       779-1.35020E+06-2.52641E+05-6.53328E+02-5.89983E+05-4.94765E-09-3.45676E-09
 -1       780-1.33947E+06-2.63330E+05-1.19233E+03-6.02275E+05-1.13687E-09 2.35559E-10
 -1       781-1.35024E+06-2.52555E+05-2.35656E+03-5.90018E+05 2.36923E-09 7.77709E-09
 -1       782-1.33993E+06-2.63599E+05-5.12560E+03-6.02359E+05 5.10681E-10 1.16324E-09
 -1       783-1.35003E+06-2.53279E+05-1.04909E+04-5.89630E+05-1.51408E-09-1.09958E-09
 -1       784-1.34529E+06-2.70554E+05-2.47529E+04-6.01398E+05-1.77064E-09-2.13731E-09
 -1       785-1.34867E+06-2.72515E+05-5.06155E+04-5.80882E+05-3.46859E-10-2.27374E-10
 -1       786 3.04983E+05-9.32716E+03 3.81113E+04-1.69322E+03 5.51154E-10-3.64707E-09
 -1       787 3.18894E+05 1.23749E+04 2.45672E+04-7.66634E+03-3.20597E-10-9.67248E-10
 -1       788 3.10777E+05-9.86797E+02 9.88443E+03-1.69679E+03-3.60956E-10 4.72937E-11
 -1       789 3.12420E+05 1.26038E+03 5.55149E+03-7.64889E+03 4.17799E-10-7.28733E-11
 -1       790 3.11450E+05-1.08623E+02 2.51496E+03-1.70983E+03-7.54881E-11-2.00089E-11
 -1       791 3.11656E+05 1.26645E+02 1.35699E+03-7.62990E+03 1.03717E-09 2.62526E-09
 -1       792 3.11538E+05-1.37015E+01 6.99040E+02-1.71577E+03-8.76668E-11 7.90862E-10
 -1       793 3.11560E+05 1.74572E+01 4.75900E+02-7.62575E+03 4.43428E-10-9.32801E-10
 -1       794 3.11545E+05-8.15470E+00 4.54839E+02-1.71399E+03-9.12337E-11-1.56533E-09
 -1       795 3.11595E+05 6.03545E+01 7.11617E+02-7.63741E+03 2.01908E-10 2.74095E-09
 -1       796 3.11506E+05-5.32014E+01 1.23500E+03-1.70411E+03-2.39311E-10-1.57650E-09
 -1       797 3.11962E+05 6.01722E+02 2.67636E+03-7.66312E+03-4.36842E-10-3.74979E-09
 -1       798 3.11184E+05-4.75053E+02 4.74455E+03-1.68828E+03-3.47200E-10 9.09495E-11
 -1       799 3.15070E+05 5.92778E+03 1.17800E+04-7.68413E+03-1.58161E-09-3.07182E-10
 -1       800 3.08407E+05-4.47487E+03 1.82670E+04-1.68357E+03-6.38920E-11 2.30102E-10
 -1       801-1.19100E+04 3.26024E+05 4.43794E+04-1.75596E+05 4.96584E-10 5.45697E-09
 -1       802 2.49671E+04 3.40269E+05 4.41119E+04-7.64314E+05 9.11859E-09 7.13044E-09
 -1       803-2.12255E+03 3.27854E+05 4.36176E+04-1.75276E+05 4.79486E-09 5.34328E-09
 -1       804 5.10181E+04 3.56160E+05 8.95863E+04-7.64278E+05 6.05723E-09-3.43698E-09
 -1       805-3.39972E+04 3.10908E+05 1.29692E+05-1.75642E+05 4.58385E-09 1.60071E-10
 -1       806-2.93391E+05-7.65105E+04-2.53264E+04-1.33003E+05 3.65389E-10-6.93035E-10
 -1       807-2.93714E+05-7.00589E+04-1.20301E+04-1.40538E+05 7.95808E-12-2.21803E-10
 -1       808-2.93287E+05-6.37292E+04-5.06084E+03-1.38419E+05 1.85582E-09 2.98041E-09
 -1       809-2.91215E+05-6.55716E+04-2.44766E+03-1.41548E+05 1.37879E-09 8.16260E-09
 -1       810-2.93353E+05-6.28769E+04-1.10851E+03-1.38806E+05-1.81899E-09 3.55453E-09
 -1       811-2.90974E+05-6.52808E+04-5.57314E+02-1.41586E+05 4.22801E-10 8.54220E-09
 -1       812-2.93374E+05-6.28542E+04-2.94916E+02-1.38823E+05-1.59196E-09 2.53408E-09
 -1       813-2.90948E+05-6.52735E+04-2.23942E+02-1.41579E+05 5.67866E-11 1.18052E-09
 -1       814-2.93371E+05-6.28575E+04-2.69047E+02-1.38821E+05-2.20530E-09-6.97401E-09
 -1       815-2.90964E+05-6.52835E+04-4.88690E+02-1.41579E+05-1.10958E-09-1.14073E-09
 -1       816-2.93345E+05-6.28818E+04-9.60753E+02-1.38802E+05-1.35788E-09 5.00222E-11
 -1       817-2.91170E+05-6.55326E+04-2.11630E+03-1.41534E+05 9.58607E-10-6.70298E-10
 -1       818-2.93277E+05-6.36277E+04-4.37321E+03-1.38469E+05-3.31966E-11 1.48975E-09
 -1       819-2.93364E+05-6.93680E+04-1.03929E+04-1.40606E+05-5.57066E-10 3.23780E-10
 -1       820-2.93319E+05-7.47049E+04-2.18786E+04-1.33827E+05 9.30413E-10 8.91851E-09
 -1       821-2.85350E+05 9.02436E+03-3.68899E+04 1.68780E+03-2.93835E-09 3.59978E-09
 -1       822-2.98799E+05-1.19802E+04-2.37803E+04 7.93231E+03-1.56570E-09-1.28784E-09
 -1       823-2.90961E+05 9.51848E+02-9.57099E+03 1.62479E+03 2.92903E-09 1.20508E-10
 -1       824-2.92549E+05-1.21071E+03-5.37700E+03 8.02279E+03-1.29239E-09-4.23825E-10
 -1       825-2.91614E+05 1.05467E+02-2.44602E+03 1.59647E+03-6.10385E-09-1.56831E-09
 -1       826-2.91822E+05-1.07693E+02-1.33588E+03 8.06954E+03-1.09557E-08 4.09358E-10
 -1       827-2.91699E+05 1.65296E+01-7.23040E+02 1.57786E+03-5.37102E-09 9.32459E-10
 -1       828-2.91742E+05-2.49364E+00-5.56330E+02 8.09889E+03-7.81793E-09-9.21574E-11
 -1       829-2.91703E+05 1.54234E+01-6.27070E+02 1.56709E+03 3.53623E-10 1.32709E-09
 -1       830-2.91807E+05-7.82772E+01-1.08362E+03 8.11167E+03 4.34228E-09-1.43346E-09
 -1       831-2.91638E+05 8.69409E+01-1.94387E+03 1.56508E+03 2.43617E-09 1.27193E-09
 -1       832-2.92386E+05-9.45910E+02-4.25217E+03 8.10692E+03 1.01092E-08 8.93067E-10
 -1       833-2.91123E+05 7.56632E+02-7.55709E+03 1.57200E+03 4.49148E-09 2.17369E-10
 -1       834-2.97326E+05-9.44553E+03-1.87747E+04 8.07358E+03 1.53483E-09 6.16637E-10
 -1       835-2.86694E+05 7.13069E+03-2.91201E+04 1.59989E+03 1.06422E-09-1.53523E-09
 -1       836-1.51600E+04 7.69695E+05 6.51914E+04-1.88019E+04-1.36424E-09 3.22916E-09
 -1       837 2.27650E+04 7.93971E+05 5.08084E+04-7.99677E+04 1.32627E-09 1.61879E-09
 -1       838-3.70030E+03 7.77454E+05 3.70760E+04-1.88329E+04-1.63527E-09 1.38905E-09
 -1       839 2.94745E+04 7.97865E+05 6.24216E+04-7.99527E+04 1.82717E-09 1.43973E-09
 -1       840-2.07106E+04 7.65783E+05 8.70286E+04-1.88163E+04-1.32422E-09 1.07138E-09
 -1       841-5.24233E+04-1.79434E+03-1.47291E+04-2.23341E+04-3.26077E-09-1.21418E-09
 -1       842-6.06353E+04-1.46861E+04-1.01941E+04-1.92385E+04-2.58086E-09-2.28283E-10
 -1       843-5.53926E+04-7.06653E+03-3.45331E+03-2.13750E+04 3.09080E-09-2.96950E-10
 -1       844-5.72034E+04-8.56360E+03-2.14317E+03-2.03317E+04 9.99421E-10 1.31413E-09
 -1       845-5.58534E+04-7.90037E+03-7.95747E+02-2.12473E+04-1.50152E-09-9.21574E-10
 -1       846-5.66772E+04-7.58723E+03-4.49225E+02-2.04690E+04-6.78918E-09-5.72717E-09
 -1       847-5.59188E+04-8.04031E+03-1.63225E+02-2.12388E+04-2.80707E-09-1.27279E-09
 -1       848-5.65988E+04-7.41197E+03-5.07395E+01-2.04759E+04 6.20027E-09 1.24260E-10
 -1       849-5.59319E+04-8.07514E+03 4.86758E+01-2.12406E+04 3.25209E-09 1.56753E-10
 -1       850-5.65438E+04-7.31231E+03 2.05209E+02-2.04860E+04-1.63686E-09-7.43412E-10
 -1       851-5.59739E+04-8.13973E+03 3.84982E+02-2.12288E+04-1.60102E-09-1.73912E-09
 -1       852-5.62553E+04-6.85017E+03 1.05473E+03-2.05783E+04 5.59832E-09 3.29351E-09
 -1       853-5.62201E+04-8.53618E+03 1.70088E+03-2.11487E+04 3.99100E-09-1.09787E-09
 -1       854-5.45143E+04-3.86957E+03 5.03053E+03-2.11624E+04-2.87565E-09 1.30967E-10
 -1       855-5.77132E+04-1.11124E+04 7.26428E+03-2.06474E+04 9.52241E-10-1.71121E-09
 -1       856-3.34791E+05 8.20984E+03-3.36008E+04 3.42917E+03-5.61568E-09-1.41881E-09
 -1       857-3.47027E+05-1.08784E+04-2.16518E+04 1.63523E+04-4.25484E-09-1.95269E-09
 -1       858-3.39904E+05 8.68538E+02-8.71754E+03 3.31988E+03-8.42601E-09 4.55657E-10
 -1       859-3.41366E+05-1.06108E+03-4.89247E+03 1.65096E+04-8.13998E-09 2.77487E-09
 -1       860-3.40503E+05 1.03843E+02-2.22288E+03 3.27015E+03-1.41836E-09-2.04977E-10
 -1       861-3.40722E+05-4.94152E+01-1.20504E+03 1.65845E+04-9.76024E-09-5.30690E-10
 -1       862-3.40582E+05 2.57169E+01-6.36703E+02 3.24460E+03 7.58519E-09-9.12735E-10
 -1       863-3.40652E+05 5.04635E+01-4.62198E+02 1.66159E+04 2.23757E-08-1.72790E-09
 -1       864-3.40587E+05 2.33019E+01-4.85052E+02 3.23865E+03 8.43457E-09-1.23629E-09
 -1       865-3.40692E+05-4.99204E+00-8.05543E+02 1.66075E+04 1.33668E-08 1.31680E-09
 -1       866-3.40539E+05 7.25232E+01-1.42878E+03 3.25310E+03-3.42152E-09-1.93035E-09
 -1       867-3.41098E+05-6.46090E+02-3.11148E+03 1.65572E+04-3.71256E-09-1.83030E-09
 -1       868-3.40159E+05 5.56163E+02-5.53074E+03 3.28919E+03 9.04674E-09 8.23093E-10
 -1       869-3.44679E+05-6.87137E+03-1.37269E+04 1.64303E+04-4.99324E-09-9.91349E-10
 -1       870-3.36917E+05 5.20698E+03-2.13019E+04 3.38134E+03 2.60115E-09-2.54749E-09
 -1       871-2.97474E+03-2.76900E+04-5.21475E+03 7.79746E+04 1.94814E-09-2.42835E-10
 -1       872-9.81536E+02-2.86034E+04-1.50802E+03 9.08165E+04-3.89400E-09-1.61890E-09
 -1       873 1.55552E+01-2.82773E+04 1.55845E+03 7.78278E+04 1.40699E-09 1.80717E-09
 -1       874 1.81584E+03-2.70369E+04 5.77569E+03 9.08872E+04-1.34241E-09 1.42443E-09
 -1       875 6.10758E+03-2.93146E+04 1.24864E+04 7.79156E+04 1.73577E-09 2.30330E-09
 -1       876 3.90895E+05 4.84337E+04 3.71344E+04 1.53667E+05 8.28504E-09-6.83940E-10
 -1       877 3.99540E+05 7.82521E+04 2.35959E+04 1.58896E+05 4.82240E-09 8.68567E-11
 -1       878 3.97358E+05 5.73217E+04 8.76967E+03 1.52660E+05 1.22341E-08 3.79305E-09
 -1       879 3.92120E+05 6.69014E+04 4.86340E+03 1.60490E+05 3.22302E-10-1.02659E-10
 -1       880 3.98085E+05 5.83369E+04 2.04960E+03 1.52606E+05 2.50623E-09-2.50077E-09
 -1       881 3.91286E+05 6.56286E+04 1.10627E+03 1.60565E+05-3.48007E-09-6.04859E-09
 -1       882 3.98157E+05 5.84699E+04 5.87035E+02 1.52624E+05 7.72809E-09 3.82218E-09
 -1       883 3.91215E+05 6.54859E+04 5.06050E+02 1.60538E+05-4.41526E-09 3.15030E-09
 -1       884 3.98147E+05 5.84751E+04 6.56613E+02 1.52631E+05-1.30651E-09 5.88579E-09
 -1       885 3.91333E+05 6.56311E+04 1.29882E+03 1.60529E+05 1.77967E-08 2.38333E-09
 -1       886 3.98041E+05 5.83357E+04 2.43870E+03 1.52629E+05 7.31330E-09 1.21349E-09
 -1       887 3.92359E+05 6.71173E+04 5.80225E+03 1.60392E+05-5.22007E-09-2.20950E-09
 -1       888 3.97151E+05 5.71444E+04 1.04720E+04 1.52714E+05-9.90288E-09-4.01496E-09
 -1       889 4.01246E+05 8.06398E+04 2.81751E+04 1.58443E+05 8.41078E-09-1.69393E-09
 -1       890 3.89416E+05 4.65495E+04 4.43474E+04 1.53931E+05 5.65797E-09-1.04410E-09
 -1       891 1.45887E+03-1.73199E+05-6.62743E+03 1.63379E+04 1.20053E-09 1.41426E-10
 -1       892-2.45370E+03-1.75564E+05-5.38048E+03 7.09612E+04 8.22843E-09-1.80080E-09
 -1       893 4.10926E+02-1.73947E+05-4.29689E+03 1.62553E+04 4.12047E-09 4.30443E-09
 -1       894-3.82140E+03-1.76350E+05-7.74241E+03 7.09541E+04-4.30555E-09 1.73168E-09
 -1       895 2.58556E+03-1.72402E+05-1.10680E+04 1.63446E+04 1.07775E-09 3.43516E-09
 -1       896 6.55123E+05-4.97779E+03 1.16328E+04 1.75790E+03-6.99174E-11 1.70576E-09
 -1       897 6.60296E+05 5.76130E+03 8.24652E+03-4.89672E+03 1.27940E-10 3.79259E-10
 -1       898 6.57128E+05-7.70151E+02 3.02377E+03 8.47204E+02 1.58252E-10-1.30967E-10
 -1       899 6.57951E+05 8.92594E+02 1.91693E+03-3.51237E+03 1.59957E-10-8.35058E-10
 -1       900 6.57463E+05-1.20007E+02 8.16739E+02 3.73542E+02 3.86642E-10-1.05720E-09
 -1       901 6.57562E+05 1.50898E+02 5.49718E+02-2.87165E+03-3.84233E-10-1.34084E-09
 -1       902 6.57515E+05-2.90303E+01 3.91264E+02 2.06473E+02 1.38916E-10-1.19833E-09
 -1       903 6.57541E+05 1.07015E+02 5.39176E+02-2.79873E+03 2.06763E-10-1.34742E-09
 -1       904 6.57484E+05-7.61227E+01 8.35245E+02 3.00622E+02-3.52941E-10-1.31169E-09
 -1       905 6.57801E+05 5.59621E+02 1.83275E+03-3.27387E+03-5.24452E-11-8.68084E-10
 -1       906 6.57256E+05-4.81632E+02 3.12948E+03 6.81625E+02 4.24606E-10-8.23661E-10
 -1       907 6.59365E+05 3.61458E+03 7.67945E+03-4.42616E+03 2.34763E-10 2.90129E-10
 -1       908 6.55924E+05-3.12563E+03 1.22426E+04 1.45293E+03-2.97007E-10 1.01318E-09
 -1       909 6.68726E+05 2.33838E+04 3.34268E+04-6.58959E+03-1.47216E-09 1.67756E-09
 -1       910 6.47902E+05-2.01955E+04 4.72768E+04 2.84497E+03-4.35421E-10 3.33057E-09
 -1       911 1.75330E+05-2.09054E+03 4.68286E+03 2.38255E+03 1.20440E-09 3.21779E-09
 -1       912 1.78463E+05 2.39466E+03 3.50616E+03-9.07157E+03 1.01522E-10-2.86946E-10
 -1       913 1.76393E+05-3.23724E+02 1.21264E+03 1.78962E+03-3.33785E-10-1.16665E-09
 -1       914 1.77102E+05 3.76636E+02 8.40390E+02-8.12656E+03-4.61341E-10-2.90488E-09
 -1       915 1.76651E+05-5.14774E+01 3.54619E+02 1.43749E+03 1.60892E-09-4.08311E-09
 -1       916 1.76764E+05 8.34018E+01 2.91043E+02-7.63834E+03 2.90085E-09-5.13041E-09
 -1       917 1.76712E+05-1.85357E+01 2.73132E+02 1.30141E+03 1.96878E-09-4.96871E-09
 -1       918 1.76757E+05 1.07083E+02 4.67823E+02-7.57230E+03 5.35039E-10-5.19645E-09
 -1       919 1.76657E+05-7.34842E+01 7.84538E+02 1.37145E+03 2.63579E-09-4.92938E-09
 -1       920 1.77134E+05 5.53386E+02 1.79749E+03-7.92388E+03 1.56297E-09-3.90139E-09
 -1       921 1.76348E+05-4.72742E+02 3.02762E+03 1.65298E+03 1.30726E-09-3.13105E-09
 -1       922 1.78940E+05 3.53178E+03 7.57006E+03-8.72104E+03-9.14895E-11-1.14608E-09
 -1       923 1.74881E+05-3.06517E+03 1.18987E+04 2.16863E+03-7.87850E-10 8.73570E-10
 -1       924 1.88571E+05 2.28760E+04 3.28248E+04-1.00609E+04-2.38222E-09 4.13638E-09
 -1       925 1.66777E+05-1.97941E+04 4.60669E+04 2.99285E+03-2.77396E-10 6.75755E-09
 -1       926-8.11355E+05 1.78911E+04-4.19724E+04-5.42015E+03 2.96176E-09 1.00154E-08
 -1       927-8.29291E+05-2.07065E+04-2.95724E+04 7.46760E+03-6.73417E-09 9.16907E-09
 -1       928-8.18502E+05 2.75269E+03-1.08885E+04-4.01508E+03 5.11648E-10 7.47741E-09
 -1       929-8.20819E+05-3.18573E+03-6.68781E+03 3.65221E+03 5.53396E-09 4.48745E-09
 -1       930-8.19786E+05 4.05196E+02-2.80216E+03-1.60477E+03 4.33147E-11 4.01496E-09
 -1       931-8.19350E+05-4.76630E+02-1.43427E+03-1.45436E+03-9.32715E-10 1.41995E-09
 -1       932-8.19956E+05 4.32010E+01-6.54217E+02 1.09151E+03 1.18177E-10-3.17812E-10
 -1       933-8.19308E+05-1.95248E+01-9.33101E+01-6.30955E+03 3.89321E-10-2.89852E-09
 -1       934-8.19847E+05-3.56233E+01 1.98100E+02 3.25044E+03-5.40894E-10-3.55780E-09
 -1       935-8.19441E+05 2.90903E+02 8.29895E+02-9.42775E+03-7.68694E-10-5.17331E-09
 -1       936-8.19850E+05-2.44758E+02 1.52356E+03 4.20979E+03 3.51463E-10-5.17815E-09
 -1       937-8.18727E+05 1.84376E+03 3.83148E+03-9.85165E+03-2.93883E-09-5.92581E-09
 -1       938-8.20564E+05-1.58008E+03 6.12667E+03 3.67437E+03-3.66239E-09-5.30213E-09
 -1       939-8.13848E+05 1.17885E+04 1.68212E+04-7.45694E+03-2.81102E-09-3.24872E-09
 -1       940-8.24697E+05-1.01750E+04 2.37161E+04 1.81500E+03-7.17421E-10-1.08230E-09
 -1       941 3.81108E+06-1.87707E+05 4.41574E+05 2.96496E+02 1.40554E-08 4.65661E-09
 -1       942 4.00092E+06 2.17588E+05 3.11108E+05 1.64039E+03 1.47158E-08-2.93949E-09
 -1       943 3.88465E+06-2.90897E+04 1.14482E+05 7.32058E+02 5.30823E-09 2.76486E-10
 -1       944 3.91566E+06 3.36947E+04 7.16919E+04 1.08749E+03 3.79323E-09-2.58751E-09
 -1       945 3.89672E+06-4.49958E+03 2.95525E+04 8.49490E+02 4.64639E-09 2.80124E-09
 -1       946 3.90176E+06 5.28461E+03 1.76648E+04 9.32217E+02 1.45197E-09 6.45309E-09
 -1       947 3.89870E+06-7.71271E+02 8.86959E+03 8.87381E+02 4.91525E-10 5.02246E-09
 -1       948 3.89974E+06 1.43438E+03 7.33232E+03 8.60892E+02-1.58554E-10 4.94873E-09
 -1       949 3.89877E+06-6.60094E+02 7.81760E+03 9.20826E+02 7.67403E-10-3.93948E-09
 -1       950 3.90123E+06 4.31860E+03 1.46382E+04 7.31455E+02 9.57931E-09 5.56361E-09
 -1       951 3.89719E+06-3.64731E+03 2.40796E+04 1.01681E+03 2.03030E-09-3.72438E-09
 -1       952 3.91246E+06 2.72787E+04 5.81120E+04 2.82605E+02-2.18401E-09-1.50976E-09
 -1       953 3.88741E+06-2.35468E+04 9.26965E+04 1.36963E+03-4.55487E-09-3.63798E-11
 -1       954 3.98147E+06 1.76123E+05 2.51831E+05-1.42203E+03-2.98344E-09-3.59432E-09
 -1       955 3.82782E+06-1.51946E+05 3.57299E+05 2.72088E+03-1.08373E-08 1.74623E-10
 -1       956-2.08095E+05-3.52468E+03-7.22567E+03 3.00701E+04-3.26690E-09 1.10322E-09
 -1       957-2.09403E+05-1.10394E+03-3.63819E+03 3.47530E+04-1.47747E-09 8.16613E-10
 -1       958-2.08691E+05-1.22212E+02-1.63626E+03 2.98865E+04 3.09865E-09-3.70483E-09
 -1       959-2.08820E+05 4.51245E+00-8.31335E+02 3.49542E+04-3.05363E-09-1.32104E-10
 -1       960-2.08769E+05 5.32356E+01-4.03736E+02 2.98669E+04-5.99721E-09 4.34056E-10
 -1       961-2.08788E+05 6.61693E+01-2.12575E+02 3.49761E+04-9.66247E-09 1.50749E-09
 -1       962-2.08794E+05 6.17506E+01-1.19735E+02 2.98643E+04-3.04408E-09-3.51383E-09
 -1       963-2.08798E+05 7.44166E+01-9.20284E+01 3.49796E+04-4.86307E-09 7.74435E-10
 -1       964-2.08806E+05 6.80651E+01-1.07199E+02 2.98633E+04 1.86385E-08-1.22304E-09
 -1       965-2.08812E+05 7.97469E+01-1.81420E+02 3.49797E+04 4.07348E-08-3.84944E-10
 -1       966-2.08803E+05 7.25375E+01-3.38755E+02 2.98642E+04 1.36767E-08-3.31738E-10
 -1       967-2.08860E+05 3.97575E+01-6.96781E+02 3.49698E+04-5.00563E-10 2.64481E-09
 -1       968-2.08755E+05-6.36282E+01-1.36920E+03 2.98733E+04 1.92881E-09-1.60901E-09
 -1       969-2.09368E+05-8.79269E+02-3.04748E+03 3.48741E+04 7.93079E-10 1.07093E-10
 -1       970-2.08269E+05-2.90805E+03-6.05078E+03 2.99634E+04 2.34058E-09-1.28148E-09
 -1       971-4.54751E+05 6.90145E+03-2.82704E+04 3.31083E+03-4.34693E-09 2.64845E-09
 -1       972-4.65018E+05-9.14932E+03-1.82152E+04 1.62145E+04-4.70413E-09 1.41267E-09
 -1       973-4.59053E+05 7.28391E+02-7.33942E+03 3.17092E+03-8.10678E-09 3.67118E-09
 -1       974-4.60266E+05-8.87036E+02-4.12454E+03 1.64241E+04-8.92328E-10 4.59113E-09
 -1       975-4.59557E+05 8.72667E+01-1.88971E+03 3.09998E+03 9.16543E-10 2.17165E-09
 -1       976-4.59733E+05-3.35041E+01-1.05260E+03 1.65340E+04-4.86148E-09 7.86196E-09
 -1       977-4.59623E+05 2.37244E+01-6.12904E+02 3.06067E+03 7.65408E-09 1.68745E-09
 -1       978-4.59687E+05 4.68051E+01-5.48239E+02 1.65857E+04 1.92389E-08 3.55095E-09
 -1       979-4.59621E+05 2.79798E+01-7.17812E+02 3.04817E+03 1.14641E-08 2.07748E-09
 -1       980-4.59774E+05-5.62427E+01-1.33236E+03 1.65832E+04 8.36124E-09 3.91709E-09
 -1       981-4.59536E+05 1.16822E+02-2.44142E+03 3.06320E+03-7.50958E-09 1.44382E-09
 -1       982-4.60494E+05-1.16080E+03-5.37022E+03 1.65248E+04-5.37136E-09 3.09802E-09
 -1       983-4.58882E+05 9.59441E+02-9.56078E+03 3.10696E+03-4.64070E-10 2.65345E-09
 -1       984-4.66719E+05-1.19270E+04-2.37550E+04 1.63798E+04-1.10742E-09 4.30373E-09
 -1       985-4.53275E+05 9.01868E+03-3.68559E+04 3.21068E+03 9.57743E-09 1.76988E-09
 -3
    1PSTEP                        23          12           1          
  100CL  112 6.44073E-01         841                     0   12           1
 -4  DISP        4    1
 -5  D1          1    2    1    0
 -5  D2          1    2    2    0
 -5  D3          1    2    3    0
 -5  ALL         1    2    0    0    1ALL
 -1         1 7.90202E-05 0.00000E+00 0.00000E+00
 -1         2 6.05696E-05 0.00000E+00 0.00000E+00
 -1         3 4.95313E-05 0.00000E+00 0.00000E+00
 -1         4 4.38928E-05 0.00000E+00 0.00000E+00
 -1         5 4.14355E-05 0.00000E+00 0.00000E+00
 -1         8 6.21225E-05-7.79285E-07 0.00000E+00
 -1         9 4.87914E-05 7.33173E-07 0.00000E+00
 -1        10 4.52745E-05-2.21239E-06 0.00000E+00
 -1        11 4.25990E-05-4.44403E-07 0.00000E+00
 -1        12 3.96394E-05 1.11004E-06 0.00000E+00
 -1        15 2.93486E-05-1.32125E-06 0.00000E+00
 -1        16 3.56243E-05 7.25805E-07 0.00000E+00
 -1        17 3.24272E-05-4.42200E-06 0.00000E+00
 -1        18 3.30704E-05-9.27495E-07 0.00000E+00
 -1        19 3.49822E-05 2.19329E-06 0.00000E+00
 -1        20 3.55355E-05 2.32304E-05 0.00000E+00
 -1        21 3.55116E-05 5.56070E-05 0.00000E+00
 -1        22 8.34437E-06-9.01909E-07 0.00000E+00
 -1        23 1.12603E-05 1.08803E-06 0.00000E+00
 -1        24 1.33506E-05-5.14824E-06 0.00000E+00
 -1        25 2.85157E-05-6.59366E-07 0.00000E+00
 -1        26 3.04250E-05 2.90135E-06 0.00000E+00
 -1        27 2.86193E-05 2.24188E-05 0.00000E+00
 -1        28 2.64814E-05 5.48408E-05 0.00000E+00
 -1        29 0.00000E+00 0.00000E+00 0.00000E+00
 -1        30 3.92949E-06 1.44578E-06 0.00000E+00
 -1        31 4.82519E-06-4.40880E-06 0.00000E+00
 -1        32 0.00000E+00 0.00000E+00 0.00000E+00
 -1        33 2.39941E-05 4.67862E-06 0.00000E+00
 -1        34 2.26836E-05 2.23468E-05 0.00000E+00
 -1        35 1.98018E-05 5.44341E-05 0.00000E+00
 -1        36 7.79027E-05-1.17643E-19-2.64698E-23
 -1        37 7.67495E-05-4.83737E-19 0.00000E+00
 -1        38 7.55986E-05-7.98330E-19 2.64698E-23
 -1        39 7.44409E-05-9.37439E-19 0.00000E+00
 -1        40 7.32830E-05-1.03379E-18 0.00000E+00
 -1        41 7.21238E-05-8.66212E-19-1.32349E-23
 -1        42 7.09644E-05-4.43755E-19-2.64698E-23
 -1        43 6.98047E-05 1.33217E-19-1.32349E-23
 -1        44 6.86450E-05 7.14117E-19 0.00000E+00
 -1        45 6.74855E-05 1.15414E-18-1.32349E-23
 -1        46 6.63261E-05 1.38645E-18 0.00000E+00
 -1        47 6.51676E-05 1.30440E-18-1.32349E-23
 -1        48 6.40092E-05 8.61557E-19 2.64698E-23
 -1        49 6.28555E-05 4.38099E-19 0.00000E+00
 -1        50 6.17002E-05 1.30804E-19 0.00000E+00
 -1        51 7.77562E-05-1.32630E-07 0.00000E+00
 -1        52 7.56482E-05-2.59079E-07 0.00000E+00
 -1        53 7.28595E-05-3.84823E-07 0.00000E+00
 -1        54 6.95610E-05-5.11688E-07 3.30872E-24
 -1        55 6.59245E-05-6.41264E-07 3.72231E-24
 -1        56 7.74619E-05-6.68925E-07 0.00000E+00
 -1        57 7.58922E-05-1.48068E-06 0.00000E+00
 -1        58 7.43492E-05-2.35451E-06 0.00000E+00
 -1        59 7.27976E-05-3.23464E-06 0.00000E+00
 -1        60 7.12238E-05-4.05675E-06 5.29396E-23
 -1        61 6.96045E-05-4.76259E-06 2.64698E-23
 -1        62 6.79219E-05-5.30058E-06 0.00000E+00
 -1        63 6.61592E-05-5.62569E-06-2.64698E-23
 -1        64 6.43047E-05-5.70634E-06 5.29396E-23
 -1        65 6.23500E-05-5.51959E-06 2.64698E-23
 -1        66 6.02929E-05-5.05978E-06 0.00000E+00
 -1        67 5.81362E-05-4.33035E-06 0.00000E+00
 -1        68 5.58866E-05-3.35299E-06-5.29396E-23
 -1        69 5.35643E-05-2.15430E-06 0.00000E+00
 -1        70 5.11734E-05-7.82902E-07-2.64698E-23
 -1        71 5.98845E-05 7.68658E-21-2.64698E-23
 -1        72 5.91937E-05 1.90010E-19 1.32349E-23
 -1        73 5.85033E-05 5.70225E-19 0.00000E+00
 -1        74 5.78119E-05 1.00602E-18 0.00000E+00
 -1        75 5.71204E-05 1.55673E-18-2.64698E-23
 -1        76 5.64287E-05 2.08519E-18 0.00000E+00
 -1        77 5.57370E-05 2.46643E-18 0.00000E+00
 -1        78 5.50452E-05 2.65665E-18 0.00000E+00
 -1        79 5.43535E-05 2.60796E-18-2.64698E-23
 -1        80 5.36618E-05 2.29786E-18-1.32349E-23
 -1        81 5.29702E-05 1.90237E-18 0.00000E+00
 -1        82 5.22790E-05 1.41600E-18 0.00000E+00
 -1        83 5.15879E-05 9.05139E-19-2.64698E-23
 -1        84 5.08990E-05 5.02925E-19 6.61744E-24
 -1        85 5.02094E-05 1.68446E-19-1.32349E-23
 -1        86 6.00431E-05 1.04300E-07 6.61744E-24
 -1        87 5.84977E-05 2.34627E-07 0.00000E+00
 -1        88 5.62735E-05 3.61898E-07-2.58494E-26
 -1        89 5.37069E-05 4.90226E-07 2.06795E-25
 -1        90 5.11091E-05 6.19829E-07 0.00000E+00
 -1        91 6.28149E-05-7.62098E-06 0.00000E+00
 -1        92 7.03604E-05-2.99990E-05-6.61744E-24
 -1        93 8.15829E-05-6.29981E-05-1.32349E-23
 -1        94 9.48988E-05-1.02220E-04-6.61744E-24
 -1        95 1.08242E-04-1.41525E-04 0.00000E+00
 -1        96 1.19548E-04-1.74768E-04 0.00000E+00
 -1        97 1.27220E-04-1.97504E-04 0.00000E+00
 -1        98 1.29624E-04-2.05547E-04 0.00000E+00
 -1        99 1.26460E-04-1.98723E-04 0.00000E+00
 -1       100 1.17540E-04-1.77175E-04-6.61744E-24
 -1       101 1.04323E-04-1.44997E-04 0.00000E+00
 -1       102 8.84706E-05-1.06461E-04 0.00000E+00
 -1       103 7.24603E-05-6.75489E-05 1.32349E-23
 -1       104 5.87824E-05-3.42446E-05 0.00000E+00
 -1       105 4.91969E-05-1.10288E-05-1.32349E-23
 -1       106 4.91759E-05-6.41632E-20 0.00000E+00
 -1       107 4.88227E-05-9.36482E-20 0.00000E+00
 -1       108 4.84693E-05-1.24427E-19 0.00000E+00
 -1       109 4.81163E-05-1.66328E-19-6.61744E-24
 -1       110 4.77633E-05-2.01533E-19 1.32349E-23
 -1       111 4.74104E-05-1.72894E-19-6.61744E-24
 -1       112 4.70575E-05-1.04209E-19 0.00000E+00
 -1       113 4.67046E-05-3.23688E-20 0.00000E+00
 -1       114 4.63518E-05-9.51903E-20 1.32349E-23
 -1       115 4.59990E-05-1.58718E-19 6.61744E-24
 -1       116 4.56462E-05-1.83547E-19 0.00000E+00
 -1       117 4.52937E-05-1.85971E-19 6.61744E-24
 -1       118 4.49412E-05-1.71991E-19 0.00000E+00
 -1       119 4.45899E-05-9.87544E-20 0.00000E+00
 -1       120 4.42382E-05-9.13125E-21 0.00000E+00
 -1       121 4.94563E-05-3.69908E-07 0.00000E+00
 -1       122 4.91855E-05-7.38256E-07-6.61744E-24
 -1       123 4.86747E-05-1.10672E-06 1.32349E-23
 -1       124 4.78806E-05-1.47507E-06 0.00000E+00
 -1       125 4.67609E-05-1.84370E-06-1.32349E-23
 -1       126 4.92436E-05-4.18120E-07 0.00000E+00
 -1       127 4.91579E-05-1.37390E-06 0.00000E+00
 -1       128 4.92204E-05-2.72612E-06-1.32349E-23
 -1       129 4.93758E-05-4.32686E-06 6.61744E-24
 -1       130 4.95485E-05-5.97379E-06 0.00000E+00
 -1       131 4.96627E-05-7.46381E-06 0.00000E+00
 -1       132 4.96553E-05-8.62872E-06 0.00000E+00
 -1       133 4.94654E-05-9.30554E-06 0.00000E+00
 -1       134 4.90711E-05-9.43699E-06 1.32349E-23
 -1       135 4.84539E-05-8.97458E-06 0.00000E+00
 -1       136 4.76437E-05-7.99862E-06 0.00000E+00
 -1       137 4.66738E-05-6.59759E-06-6.61744E-24
 -1       138 4.56119E-05-4.95237E-06 0.00000E+00
 -1       139 4.45289E-05-3.24718E-06 0.00000E+00
 -1       140 4.34974E-05-1.68037E-06 0.00000E+00
 -1       141 4.37358E-05-4.65175E-21 0.00000E+00
 -1       142 4.35806E-05-5.85391E-20 3.30872E-24
 -1       143 4.34253E-05-9.05945E-20 6.61744E-24
 -1       144 4.32703E-05-9.29319E-20 0.00000E+00
 -1       145 4.31153E-05-1.18574E-19 0.00000E+00
 -1       146 4.29605E-05-7.18169E-20 0.00000E+00
 -1       147 4.28056E-05-7.35723E-20-3.30872E-24
 -1       148 4.26507E-05-1.45471E-19 0.00000E+00
 -1       149 4.24959E-05-1.01078E-19 0.00000E+00
 -1       150 4.23412E-05-3.55752E-20 1.65436E-24
 -1       151 4.21866E-05 2.50067E-21 3.30872E-24
 -1       152 4.20324E-05-1.75562E-20 1.65436E-24
 -1       153 4.18784E-05-1.66180E-20 0.00000E+00
 -1       154 4.17269E-05-3.75593E-20 0.00000E+00
 -1       155 4.15745E-05-2.95626E-20 0.00000E+00
 -1       156 4.39431E-05-7.69991E-08 0.00000E+00
 -1       157 4.40809E-05-1.49099E-07 1.65436E-24
 -1       158 4.41592E-05-2.21561E-07 3.30872E-24
 -1       159 4.40310E-05-2.94118E-07 1.65436E-24
 -1       160 4.35571E-05-3.66393E-07 0.00000E+00
 -1       161 4.36918E-05-1.06791E-07 0.00000E+00
 -1       162 4.35105E-05-2.67559E-07 3.30872E-24
 -1       163 4.33417E-05-4.61724E-07 0.00000E+00
 -1       164 4.31776E-05-6.68669E-07-3.30872E-24
 -1       165 4.30099E-05-8.65941E-07 0.00000E+00
 -1       166 4.28302E-05-1.03123E-06 0.00000E+00
 -1       167 4.26317E-05-1.14644E-06-6.61744E-24
 -1       168 4.24078E-05-1.19392E-06 3.30872E-24
 -1       169 4.21550E-05-1.16416E-06 0.00000E+00
 -1       170 4.18700E-05-1.04830E-06 0.00000E+00
 -1       171 4.15534E-05-8.48037E-07-6.61744E-24
 -1       172 4.12065E-05-5.65617E-07 0.00000E+00
 -1       173 4.08335E-05-2.13615E-07 0.00000E+00
 -1       174 4.04422E-05 1.96036E-07 1.65436E-24
 -1       175 4.00360E-05 6.41917E-07-8.27181E-25
 -1       191 4.13706E-05 1.84804E-07-6.61744E-24
 -1       192 4.12080E-05 3.70004E-07 0.00000E+00
 -1       193 4.09502E-05 5.55279E-07 6.61744E-24
 -1       194 4.06004E-05 7.40510E-07-3.30872E-24
 -1       195 4.01621E-05 9.25570E-07 6.61744E-24
 -1       251 6.15199E-05 8.23713E-06 1.32349E-23
 -1       252 6.07389E-05 2.90327E-05 0.00000E+00
 -1       253 5.97730E-05 5.78531E-05 0.00000E+00
 -1       254 5.86841E-05 9.07555E-05 6.61744E-24
 -1       255 5.76243E-05 1.22687E-04-1.32349E-23
 -1       256 5.67313E-05 1.48618E-04 6.61744E-24
 -1       257 5.60237E-05 1.65150E-04 1.32349E-23
 -1       258 5.54401E-05 1.69105E-04 0.00000E+00
 -1       259 5.48310E-05 1.60700E-04 0.00000E+00
 -1       260 5.40584E-05 1.40441E-04 6.61744E-24
 -1       261 5.31017E-05 1.12039E-04 0.00000E+00
 -1       262 5.20207E-05 7.93942E-05 0.00000E+00
 -1       263 5.09641E-05 4.75619E-05 0.00000E+00
 -1       264 5.00722E-05 2.15793E-05 0.00000E+00
 -1       265 4.93643E-05 4.89331E-06 0.00000E+00
 -1       266 5.92042E-05-8.64549E-07 6.61744E-24
 -1       267 5.64437E-05-9.39498E-07 0.00000E+00
 -1       268 5.29463E-05-1.01739E-06 0.00000E+00
 -1       269 4.78194E-05-1.09963E-06-8.27181E-25
 -1       270 4.02292E-05-1.19739E-06 0.00000E+00
 -1       271 5.97409E-05 1.38081E-06 0.00000E+00
 -1       272 5.75621E-05 2.86058E-06 1.32349E-23
 -1       273 5.56105E-05 3.74163E-06-5.29396E-23
 -1       274 5.38498E-05 4.09387E-06 0.00000E+00
 -1       275 5.22557E-05 4.00056E-06 0.00000E+00
 -1       276 5.07945E-05 3.54936E-06 2.64698E-23
 -1       277 4.94322E-05 2.83383E-06 5.29396E-23
 -1       278 4.81322E-05 1.95137E-06 2.64698E-23
 -1       279 4.68574E-05 1.00191E-06-5.29396E-23
 -1       280 4.55699E-05 8.64578E-08 0.00000E+00
 -1       281 4.42324E-05-6.94606E-07 0.00000E+00
 -1       282 4.28089E-05-1.24274E-06-2.64698E-23
 -1       283 4.12631E-05-1.46329E-06 0.00000E+00
 -1       284 3.95675E-05-1.26437E-06 1.32349E-23
 -1       285 3.76822E-05-5.65449E-07-2.64698E-23
 -1       286 4.85670E-05 2.60217E-06 6.61744E-24
 -1       287 4.83474E-05 3.87994E-06 0.00000E+00
 -1       288 4.81280E-05 4.56307E-06 0.00000E+00
 -1       289 4.79096E-05 4.65345E-06 0.00000E+00
 -1       290 4.76911E-05 4.21808E-06-6.61744E-24
 -1       291 4.74725E-05 3.32867E-06 0.00000E+00
 -1       292 4.72536E-05 2.10678E-06 6.61744E-24
 -1       293 4.70344E-05 6.76883E-07 0.00000E+00
 -1       294 4.68151E-05-8.13649E-07-6.61744E-24
 -1       295 4.65959E-05-2.21692E-06-3.30872E-24
 -1       296 4.63770E-05-3.39464E-06 0.00000E+00
 -1       297 4.61582E-05-4.21051E-06-3.30872E-24
 -1       298 4.59396E-05-4.56796E-06 0.00000E+00
 -1       299 4.57200E-05-4.37451E-06 0.00000E+00
 -1       300 4.55004E-05-3.59825E-06-6.61744E-24
 -1       301 4.65965E-05 7.23015E-07 0.00000E+00
 -1       302 4.43914E-05 7.26558E-07 0.00000E+00
 -1       303 4.21837E-05 7.32524E-07-1.65436E-24
 -1       304 3.99814E-05 7.38115E-07 1.65436E-24
 -1       305 3.77923E-05 7.40454E-07 0.00000E+00
 -1       306 4.71462E-05 2.15252E-06 0.00000E+00
 -1       307 4.57275E-05 2.88111E-06-1.32349E-23
 -1       308 4.45340E-05 3.01329E-06 2.64698E-23
 -1       309 4.35262E-05 2.63719E-06 0.00000E+00
 -1       310 4.26721E-05 1.84961E-06 0.00000E+00
 -1       311 4.19339E-05 7.50370E-07 1.32349E-23
 -1       312 4.12734E-05-5.57062E-07 0.00000E+00
 -1       313 4.06511E-05-1.96718E-06 0.00000E+00
 -1       314 4.00273E-05-3.37325E-06 2.64698E-23
 -1       315 3.93623E-05-4.66862E-06 1.32349E-23
 -1       316 3.86167E-05-5.74791E-06 0.00000E+00
 -1       317 3.77525E-05-6.50789E-06-1.32349E-23
 -1       318 3.67319E-05-6.84906E-06 2.64698E-23
 -1       319 3.55236E-05-6.67475E-06 1.32349E-23
 -1       320 3.40875E-05-5.89758E-06 0.00000E+00
 -1       321 4.50982E-05-7.22656E-07-6.61744E-24
 -1       322 4.49303E-05 3.65478E-07-3.30872E-24
 -1       323 4.47621E-05 1.06373E-06 6.61744E-24
 -1       324 4.45957E-05 1.38645E-06 0.00000E+00
 -1       325 4.44293E-05 1.37967E-06-6.61744E-24
 -1       326 4.42632E-05 1.09163E-06 0.00000E+00
 -1       327 4.40971E-05 5.94274E-07-6.61744E-24
 -1       328 4.39309E-05-3.90357E-08 0.00000E+00
 -1       329 4.37647E-05-7.23478E-07-6.61744E-24
 -1       330 4.35986E-05-1.37391E-06 0.00000E+00
 -1       331 4.34325E-05-1.90803E-06 0.00000E+00
 -1       332 4.32664E-05-2.24432E-06-3.30872E-24
 -1       333 4.31004E-05-2.31795E-06 0.00000E+00
 -1       334 4.29340E-05-2.06585E-06 0.00000E+00
 -1       335 4.27675E-05-1.45239E-06 0.00000E+00
 -1       336 4.34525E-05-2.58166E-06 0.00000E+00
 -1       337 4.14248E-05-2.95141E-06 6.61744E-24
 -1       338 3.92494E-05-3.32130E-06-1.32349E-23
 -1       339 3.69853E-05-3.69036E-06 0.00000E+00
 -1       340 3.46915E-05-4.05962E-06-6.61744E-24
 -1       341 4.24320E-05 3.81320E-06 1.32349E-23
 -1       342 3.61383E-05 1.87473E-05-6.61744E-24
 -1       343 2.74014E-05 3.98741E-05 0.00000E+00
 -1       344 1.73165E-05 6.43643E-05 0.00000E+00
 -1       345 7.37859E-06 8.84875E-05 0.00000E+00
 -1       346-9.23724E-07 1.08519E-04-6.61744E-24
 -1       347-6.58552E-06 1.21832E-04 0.00000E+00
 -1       348-8.69809E-06 1.25922E-04-6.61744E-24
 -1       349-7.34663E-06 1.20766E-04 0.00000E+00
 -1       350-2.68533E-06 1.06533E-04 6.61744E-24
 -1       351 4.27387E-06 8.58613E-05 0.00000E+00
 -1       352 1.25151E-05 6.15369E-05-6.61744E-24
 -1       353 2.07077E-05 3.73519E-05 1.32349E-23
 -1       354 2.75245E-05 1.70973E-05 0.00000E+00
 -1       355 3.19670E-05 3.48271E-06 0.00000E+00
 -1       356 4.24109E-05 6.49038E-07 0.00000E+00
 -1       357 4.22239E-05 1.51583E-06 0.00000E+00
 -1       358 4.20371E-05 2.14881E-06 6.61744E-24
 -1       359 4.18506E-05 2.54256E-06 0.00000E+00
 -1       360 4.16642E-05 2.71425E-06-6.61744E-24
 -1       361 4.14778E-05 2.68273E-06 0.00000E+00
 -1       362 4.12914E-05 2.48600E-06-6.61744E-24
 -1       363 4.11050E-05 2.16334E-06 0.00000E+00
 -1       364 4.09186E-05 1.76586E-06 6.61744E-24
 -1       365 4.07323E-05 1.34530E-06 0.00000E+00
 -1       366 4.05462E-05 9.55528E-07 0.00000E+00
 -1       367 4.03605E-05 6.50198E-07 3.30872E-24
 -1       368 4.01750E-05 4.75010E-07-3.30872E-24
 -1       369 3.99923E-05 4.74665E-07 1.65436E-24
 -1       370 3.98086E-05 6.77445E-07 0.00000E+00
 -1       371 4.11569E-05-5.30695E-07 0.00000E+00
 -1       372 3.92680E-05-6.12180E-07 1.65436E-24
 -1       373 3.72245E-05-6.94244E-07 0.00000E+00
 -1       374 3.53192E-05-7.74150E-07 0.00000E+00
 -1       375 3.38392E-05-8.53633E-07 0.00000E+00
 -1       376 4.17970E-05 6.02306E-07 0.00000E+00
 -1       377 4.10097E-05 1.59093E-06-6.61744E-24
 -1       378 4.02725E-05 2.44775E-06 0.00000E+00
 -1       379 3.96116E-05 3.09786E-06 0.00000E+00
 -1       380 3.90403E-05 3.50964E-06 0.00000E+00
 -1       381 3.85689E-05 3.65458E-06 6.61744E-24
 -1       382 3.81878E-05 3.55907E-06-1.32349E-23
 -1       383 3.78855E-05 3.25306E-06 0.00000E+00
 -1       384 3.76347E-05 2.80988E-06-1.32349E-23
 -1       385 3.74071E-05 2.30501E-06 0.00000E+00
 -1       386 3.71699E-05 1.82588E-06 1.32349E-23
 -1       387 3.68911E-05 1.45973E-06 0.00000E+00
 -1       388 3.65460E-05 1.27070E-06 0.00000E+00
 -1       389 3.61147E-05 1.32173E-06 0.00000E+00
 -1       390 3.55878E-05 1.62376E-06 3.30872E-24
 -1       406 3.89992E-05 1.29153E-06 0.00000E+00
 -1       407 3.82895E-05 1.47331E-06-3.30872E-24
 -1       408 3.75213E-05 1.65501E-06 0.00000E+00
 -1       409 3.67063E-05 1.83625E-06 0.00000E+00
 -1       410 3.58560E-05 2.01651E-06 0.00000E+00
 -1       466 2.96800E-05 9.11043E-06 6.61744E-24
 -1       467 3.00611E-05 1.54107E-05 0.00000E+00
 -1       468 3.04559E-05 1.86395E-05-1.32349E-23
 -1       469 3.08580E-05 1.98047E-05-6.61744E-24
 -1       470 3.12611E-05 1.94498E-05 1.32349E-23
 -1       471 3.16639E-05 1.80929E-05-6.61744E-24
 -1       472 3.20656E-05 1.60258E-05-1.32349E-23
 -1       473 3.24665E-05 1.35285E-05 0.00000E+00
 -1       474 3.28667E-05 1.07835E-05-1.32349E-23
 -1       475 3.32665E-05 7.96954E-06 0.00000E+00
 -1       476 3.36665E-05 5.24960E-06-1.32349E-23
 -1       477 3.40658E-05 2.78818E-06 0.00000E+00
 -1       478 3.44660E-05 8.08214E-07 0.00000E+00
 -1       479 3.48613E-05-4.59301E-07 0.00000E+00
 -1       480 3.52592E-05-6.23414E-07 4.13590E-25
 -1       481 1.89751E-05-1.29403E-06 0.00000E+00
 -1       482 1.28657E-05-1.22948E-06 8.27181E-25
 -1       483 9.86132E-06-1.15090E-06 0.00000E+00
 -1       484 8.81379E-06-1.06811E-06 0.00000E+00
 -1       485 8.66111E-06-9.84486E-07 0.00000E+00
 -1       486 2.14739E-05 1.78482E-05 0.00000E+00
 -1       487 8.21232E-06 5.03088E-05 0.00000E+00
 -1       488-8.55809E-06 9.12240E-05 0.00000E+00
 -1       489-2.68105E-05 1.35634E-04 0.00000E+00
 -1       490-4.40996E-05 1.77763E-04-1.32349E-23
 -1       491-5.80318E-05 2.11858E-04 0.00000E+00
 -1       492-6.71408E-05 2.34063E-04 1.32349E-23
 -1       493-7.01571E-05 2.40691E-04 0.00000E+00
 -1       494-6.73434E-05 2.31730E-04 1.32349E-23
 -1       495-5.90611E-05 2.07455E-04 0.00000E+00
 -1       496-4.68743E-05 1.71823E-04 0.00000E+00
 -1       497-3.23056E-05 1.29039E-04-6.61744E-24
 -1       498-1.73462E-05 8.50728E-05 0.00000E+00
 -1       499-3.97608E-06 4.59227E-05 0.00000E+00
 -1       500 6.12924E-06 1.63950E-05 6.61744E-24
 -1       501 3.54156E-05 2.49512E-06 0.00000E+00
 -1       502 3.52155E-05 3.54051E-06 0.00000E+00
 -1       503 3.50154E-05 3.88927E-06-6.61744E-24
 -1       504 3.48167E-05 3.57432E-06 3.30872E-24
 -1       505 3.46177E-05 2.69505E-06 0.00000E+00
 -1       506 3.44186E-05 1.35543E-06 0.00000E+00
 -1       507 3.42191E-05-2.94492E-07-6.61744E-24
 -1       508 3.40193E-05-2.10221E-06 3.30872E-24
 -1       509 3.38196E-05-3.89937E-06 0.00000E+00
 -1       510 3.36202E-05-5.51773E-06-3.30872E-24
 -1       511 3.34212E-05-6.80695E-06 6.61744E-24
 -1       512 3.32227E-05-7.61932E-06 3.30872E-24
 -1       513 3.30245E-05-7.85486E-06 0.00000E+00
 -1       514 3.28262E-05-7.41826E-06-3.30872E-24
 -1       515 3.26274E-05-6.28143E-06 0.00000E+00
 -1       516 3.16610E-05 7.80219E-07 0.00000E+00
 -1       517 2.42651E-05 8.34863E-07 0.00000E+00
 -1       518 1.59688E-05 8.81868E-07 0.00000E+00
 -1       519 9.29975E-06 9.43198E-07 4.13590E-25
 -1       520 6.85850E-06 1.02142E-06 5.16988E-26
 -1       521 3.36613E-05 1.99816E-06 2.64698E-23
 -1       522 3.19090E-05 2.58720E-06 1.32349E-23
 -1       523 3.03792E-05 2.58838E-06 5.29396E-23
 -1       524 2.90306E-05 2.08791E-06 0.00000E+00
 -1       525 2.78327E-05 1.18368E-06 0.00000E+00
 -1       526 2.67466E-05-2.26163E-08 0.00000E+00
 -1       527 2.57336E-05-1.42452E-06-5.29396E-23
 -1       528 2.47527E-05-2.91305E-06 0.00000E+00
 -1       529 2.37630E-05-4.37788E-06 0.00000E+00
 -1       530 2.27234E-05-5.70904E-06 0.00000E+00
 -1       531 2.15937E-05-6.79857E-06 0.00000E+00
 -1       532 2.03353E-05-7.54171E-06-2.64698E-23
 -1       533 1.89104E-05-7.83910E-06-2.64698E-23
 -1       534 1.72892E-05-7.59586E-06 0.00000E+00
 -1       535 1.54322E-05-6.72918E-06-2.64698E-23
 -1       536 3.24544E-05-2.46275E-06-3.30872E-24
 -1       537 3.24929E-05-9.73383E-07 0.00000E+00
 -1       538 3.25317E-05 9.71635E-08-3.48967E-25
 -1       539 3.25723E-05 8.00169E-07-2.06795E-25
 -1       540 3.26134E-05 1.18668E-06 0.00000E+00
 -1       541 3.26549E-05 1.30764E-06 0.00000E+00
 -1       542 3.26964E-05 1.21390E-06-1.65436E-24
 -1       543 3.27380E-05 9.56220E-07-8.27181E-25
 -1       544 3.27796E-05 5.85306E-07-1.65436E-24
 -1       545 3.28212E-05 1.51805E-07-8.27181E-25
 -1       546 3.28627E-05-2.93649E-07 0.00000E+00
 -1       547 3.29043E-05-7.00427E-07 8.27181E-25
 -1       548 3.29459E-05-1.01789E-06 1.65436E-24
 -1       549 3.29875E-05-1.19538E-06 8.27181E-25
 -1       550 3.30291E-05-1.18212E-06 1.65436E-24
 -1       551 2.95773E-05-4.54191E-06 2.53324E-24
 -1       552 2.64109E-05-4.65870E-06-1.24077E-24
 -1       553 2.30653E-05-4.77558E-06 6.61744E-24
 -1       554 1.96804E-05-4.89370E-06 0.00000E+00
 -1       555 1.63962E-05-5.01444E-06 0.00000E+00
 -1       556 3.15787E-05-2.59443E-06 0.00000E+00
 -1       557 3.08901E-05-1.18177E-06 0.00000E+00
 -1       558 3.03434E-05-1.44139E-07 0.00000E+00
 -1       559 2.99217E-05 5.62285E-07 0.00000E+00
 -1       560 2.96080E-05 9.81437E-07 0.00000E+00
 -1       561 2.93857E-05 1.15766E-06 6.61744E-24
 -1       562 2.92379E-05 1.13535E-06 0.00000E+00
 -1       563 2.91480E-05 9.58955E-07 0.00000E+00
 -1       564 2.90991E-05 6.72969E-07-6.61744E-24
 -1       565 2.90747E-05 3.21895E-07 1.65436E-24
 -1       566 2.90580E-05-4.97459E-08 0.00000E+00
 -1       567 2.90325E-05-3.97424E-07 0.00000E+00
 -1       568 2.89814E-05-6.76623E-07-8.27181E-25
 -1       569 2.88884E-05-8.42877E-07-3.36042E-25
 -1       570 2.87374E-05-8.51764E-07-2.89513E-24
 -1       571 3.31851E-05-6.49038E-07-2.89513E-24
 -1       572 3.33034E-05-4.56727E-07-4.13590E-25
 -1       573 3.34228E-05-3.35209E-07 1.65436E-24
 -1       574 3.35427E-05-2.68354E-07 1.65436E-24
 -1       575 3.36627E-05-2.39967E-07 0.00000E+00
 -1       576 3.37829E-05-2.33756E-07 0.00000E+00
 -1       577 3.39031E-05-2.33420E-07 0.00000E+00
 -1       578 3.40232E-05-2.22648E-07 0.00000E+00
 -1       579 3.41434E-05-1.85125E-07 6.61744E-24
 -1       580 3.42636E-05-1.04536E-07-6.61744E-24
 -1       581 3.43838E-05 3.54336E-08-6.61744E-24
 -1       582 3.45039E-05 2.51086E-07-6.61744E-24
 -1       583 3.46240E-05 5.58711E-07 0.00000E+00
 -1       584 3.47439E-05 9.74446E-07 0.00000E+00
 -1       585 3.48635E-05 1.51435E-06 6.61744E-24
 -1       586 3.24117E-05-8.81869E-07 0.00000E+00
 -1       587 3.16569E-05-8.35893E-07 0.00000E+00
 -1       588 3.08475E-05-7.89983E-07-1.65436E-24
 -1       589 3.00260E-05-7.44530E-07 2.58494E-26
 -1       590 2.92348E-05-7.00093E-07 0.00000E+00
 -1       591 3.28795E-05-6.04678E-07 0.00000E+00
 -1       592 3.27044E-05-3.38106E-07-1.65436E-24
 -1       593 3.25456E-05-1.17424E-07 0.00000E+00
 -1       594 3.23999E-05 6.69204E-08 0.00000E+00
 -1       595 3.22640E-05 2.24474E-07-3.30872E-24
 -1       596 3.21345E-05 3.64726E-07-8.27181E-25
 -1       597 3.20080E-05 4.97155E-07 0.00000E+00
 -1       598 3.18808E-05 6.31232E-07 8.27181E-25
 -1       599 3.17494E-05 7.76432E-07 1.65436E-24
 -1       600 3.16104E-05 9.42222E-07-8.27181E-25
 -1       601 3.14601E-05 1.13807E-06 8.27181E-25
 -1       602 3.12950E-05 1.37346E-06 0.00000E+00
 -1       603 3.11117E-05 1.65787E-06 4.13590E-25
 -1       604 3.09071E-05 2.00084E-06-5.16988E-25
 -1       605 3.06780E-05 2.41190E-06 0.00000E+00
 -1       606 3.50211E-05 3.08859E-06 0.00000E+00
 -1       607 3.50571E-05 4.06483E-06 1.65436E-24
 -1       608 3.50922E-05 5.11727E-06 0.00000E+00
 -1       609 3.51269E-05 6.24050E-06 0.00000E+00
 -1       610 3.51614E-05 7.42910E-06-3.30872E-24
 -1       611 3.51957E-05 8.67751E-06 1.65436E-24
 -1       612 3.52300E-05 9.98018E-06 0.00000E+00
 -1       613 3.52642E-05 1.13316E-05 0.00000E+00
 -1       614 3.52983E-05 1.27262E-05 0.00000E+00
 -1       615 3.53324E-05 1.41583E-05-1.65436E-24
 -1       616 3.53664E-05 1.56226E-05 0.00000E+00
 -1       617 3.54004E-05 1.71133E-05 0.00000E+00
 -1       618 3.54343E-05 1.86250E-05-1.65436E-24
 -1       619 3.54682E-05 2.01522E-05 0.00000E+00
 -1       620 3.55020E-05 2.16891E-05 0.00000E+00
 -1       621 3.41340E-05 2.31154E-06 0.00000E+00
 -1       622 3.33088E-05 2.43053E-06 0.00000E+00
 -1       623 3.25160E-05 2.54959E-06-1.65436E-24
 -1       624 3.17649E-05 2.66838E-06-8.27181E-25
 -1       625 3.10650E-05 2.78650E-06-1.65436E-24
 -1       626 3.47107E-05 3.12857E-06 0.00000E+00
 -1       627 3.44059E-05 4.14833E-06 0.00000E+00
 -1       628 3.40718E-05 5.24485E-06 0.00000E+00
 -1       629 3.37119E-05 6.40931E-06 0.00000E+00
 -1       630 3.33297E-05 7.63287E-06 3.30872E-24
 -1       631 3.29286E-05 8.90654E-06 0.00000E+00
 -1       632 3.25120E-05 1.02213E-05 0.00000E+00
 -1       633 3.20833E-05 1.15682E-05 1.65436E-24
 -1       634 3.16460E-05 1.29383E-05 0.00000E+00
 -1       635 3.12033E-05 1.43224E-05 0.00000E+00
 -1       636 3.07586E-05 1.57117E-05 1.65436E-24
 -1       637 3.03154E-05 1.70970E-05 0.00000E+00
 -1       638 2.98769E-05 1.84695E-05-8.27181E-25
 -1       639 2.94463E-05 1.98200E-05 0.00000E+00
 -1       640 2.90267E-05 2.11395E-05-1.24077E-24
 -1       641 3.55364E-05 2.48324E-05 0.00000E+00
 -1       642 3.55360E-05 2.66039E-05 0.00000E+00
 -1       643 3.55354E-05 2.85205E-05-1.03398E-25
 -1       644 3.55343E-05 3.05579E-05 5.16988E-26
 -1       645 3.55330E-05 3.26918E-05 5.16988E-26
 -1       646 3.55316E-05 3.48981E-05 0.00000E+00
 -1       647 3.55300E-05 3.71524E-05-2.58494E-26
 -1       648 3.55284E-05 3.94305E-05 0.00000E+00
 -1       649 3.55267E-05 4.17083E-05 0.00000E+00
 -1       650 3.55251E-05 4.39615E-05 1.29247E-26
 -1       651 3.55236E-05 4.61659E-05 0.00000E+00
 -1       652 3.55220E-05 4.82973E-05 0.00000E+00
 -1       653 3.55206E-05 5.03313E-05-4.13590E-25
 -1       654 3.55186E-05 5.22439E-05 0.00000E+00
 -1       655 3.55172E-05 5.40105E-05-1.65436E-24
 -1       656 3.41426E-05 2.30995E-05 1.65436E-24
 -1       657 3.29313E-05 2.29620E-05 1.65436E-24
 -1       658 3.18376E-05 2.28249E-05 3.30872E-24
 -1       659 3.07972E-05 2.26878E-05 0.00000E+00
 -1       660 2.97459E-05 2.25503E-05 1.65436E-24
 -1       661 3.50874E-05 2.48785E-05 3.30872E-24
 -1       662 3.45947E-05 2.66617E-05 0.00000E+00
 -1       663 3.40590E-05 2.85583E-05 0.00000E+00
 -1       664 3.34887E-05 3.05493E-05 1.65436E-24
 -1       665 3.28902E-05 3.26152E-05-3.30872E-24
 -1       666 3.22708E-05 3.47369E-05-3.30872E-24
 -1       667 3.16376E-05 3.68955E-05-1.32349E-23
 -1       668 3.09976E-05 3.90718E-05 0.00000E+00
 -1       669 3.03581E-05 4.12470E-05 3.30872E-24
 -1       670 2.97261E-05 4.34023E-05 1.65436E-24
 -1       671 2.91087E-05 4.55185E-05-3.30872E-24
 -1       672 2.85130E-05 4.75767E-05 1.65436E-24
 -1       673 2.79462E-05 4.95578E-05 3.30872E-24
 -1       674 2.74145E-05 5.14420E-05 0.00000E+00
 -1       675 2.69267E-05 5.32106E-05-1.65436E-24
 -1       676 3.40021E-05 5.54791E-05 0.00000E+00
 -1       677 3.24940E-05 5.53504E-05 0.00000E+00
 -1       678 3.09876E-05 5.52218E-05 0.00000E+00
 -1       679 2.94831E-05 5.50937E-05 0.00000E+00
 -1       680 2.79810E-05 5.49654E-05 0.00000E+00
 -1       681 8.52505E-06-1.58054E-07 0.00000E+00
 -1       682 8.71045E-06 1.16602E-06 0.00000E+00
 -1       683 8.89490E-06 2.91870E-06 0.00000E+00
 -1       684 9.07985E-06 4.95170E-06-3.30872E-24
 -1       685 9.26451E-06 7.14490E-06 0.00000E+00
 -1       686 9.44927E-06 9.37948E-06 3.30872E-24
 -1       687 9.63421E-06 1.15407E-05 0.00000E+00
 -1       688 9.81955E-06 1.35134E-05-3.30872E-24
 -1       689 1.00054E-05 1.51632E-05 0.00000E+00
 -1       690 1.01919E-05 1.63534E-05-3.30872E-24
 -1       691 1.03788E-05 1.69009E-05-6.61744E-24
 -1       692 1.05654E-05 1.66177E-05 3.30872E-24
 -1       693 1.07511E-05 1.52321E-05-6.61744E-24
 -1       694 1.09321E-05 1.24637E-05 0.00000E+00
 -1       695 1.11073E-05 7.89343E-06 0.00000E+00
 -1       696 7.59962E-06-7.54900E-07 0.00000E+00
 -1       697 6.27998E-06-6.04493E-07 0.00000E+00
 -1       698 4.62540E-06-4.54773E-07 0.00000E+00
 -1       699 2.87373E-06-3.04114E-07 3.30872E-24
 -1       700 1.25500E-06-1.53333E-07-6.61744E-24
 -1       701 8.06568E-06-7.16531E-07-1.65436E-24
 -1       702 7.91895E-06-9.14187E-07 0.00000E+00
 -1       703 7.88925E-06-1.42203E-06 0.00000E+00
 -1       704 7.94719E-06-2.16966E-06 3.30872E-24
 -1       705 8.05782E-06-3.05812E-06 0.00000E+00
 -1       706 8.18358E-06-3.98809E-06-3.30872E-24
 -1       707 8.28583E-06-4.85530E-06 6.61744E-24
 -1       708 8.32575E-06-5.55610E-06 0.00000E+00
 -1       709 8.27160E-06-6.00571E-06-6.61744E-24
 -1       710 8.09236E-06-6.12137E-06-3.30872E-24
 -1       711 7.77097E-06-5.85809E-06 0.00000E+00
 -1       712 7.29185E-06-5.17383E-06 0.00000E+00
 -1       713 6.65656E-06-4.07428E-06 6.61744E-24
 -1       714 5.87005E-06-2.56770E-06 0.00000E+00
 -1       715 4.95034E-06-7.09763E-07 0.00000E+00
 -1       716 1.13650E-05-5.95199E-06 0.00000E+00
 -1       717 1.14880E-05-1.12104E-05 1.65436E-24
 -1       718 1.16171E-05-1.49829E-05 0.00000E+00
 -1       719 1.17514E-05-1.75567E-05 0.00000E+00
 -1       720 1.18877E-05-1.91308E-05 0.00000E+00
 -1       721 1.20252E-05-1.98988E-05 1.65436E-24
 -1       722 1.21630E-05-1.99948E-05-3.30872E-24
 -1       723 1.23008E-05-1.95491E-05 0.00000E+00
 -1       724 1.24382E-05-1.86523E-05 0.00000E+00
 -1       725 1.25751E-05-1.73922E-05 1.65436E-24
 -1       726 1.27115E-05-1.58298E-05 0.00000E+00
 -1       727 1.28466E-05-1.40248E-05-1.65436E-24
 -1       728 1.29813E-05-1.20185E-05-1.65436E-24
 -1       729 1.31113E-05-9.85132E-06 0.00000E+00
 -1       730 1.32424E-05-7.55195E-06 3.30872E-24
 -1       731 1.67868E-05 1.13445E-06 2.06795E-25
 -1       732 1.76157E-05 1.20035E-06 4.13590E-25
 -1       733 1.52622E-05 1.26452E-06-1.65436E-24
 -1       734 1.12322E-05 1.32427E-06-8.27181E-25
 -1       735 6.97263E-06 1.38331E-06 0.00000E+00
 -1       736 1.46674E-05-9.27285E-06-6.61744E-24
 -1       737 1.96624E-05-2.40686E-05 0.00000E+00
 -1       738 2.55753E-05-4.14245E-05 0.00000E+00
 -1       739 3.17151E-05-5.94260E-05 0.00000E+00
 -1       740 3.73523E-05-7.60186E-05 0.00000E+00
 -1       741 4.17547E-05-8.91730E-05 0.00000E+00
 -1       742 4.44394E-05-9.76041E-05 1.32349E-23
 -1       743 4.49357E-05-1.00108E-04 6.61744E-24
 -1       744 4.32318E-05-9.67540E-05-1.32349E-23
 -1       745 3.93522E-05-8.77041E-05 6.61744E-24
 -1       746 3.38006E-05-7.43360E-05 0.00000E+00
 -1       747 2.71229E-05-5.80905E-05 6.61744E-24
 -1       748 2.01210E-05-4.10209E-05 1.32349E-23
 -1       749 1.36090E-05-2.51904E-05-6.61744E-24
 -1       750 8.28410E-06-1.24018E-05 0.00000E+00
 -1       751 1.42410E-05-3.13809E-06 0.00000E+00
 -1       752 1.51886E-05-1.97597E-06-6.61744E-24
 -1       753 1.61331E-05-1.37014E-06 0.00000E+00
 -1       754 1.70883E-05-1.05146E-06-1.32349E-23
 -1       755 1.80440E-05-9.20804E-07-2.64698E-23
 -1       756 1.90017E-05-8.86541E-07 0.00000E+00
 -1       757 1.99597E-05-9.14419E-07 2.64698E-23
 -1       758 2.09180E-05-9.72653E-07 1.32349E-23
 -1       759 2.18764E-05-1.04754E-06-2.64698E-23
 -1       760 2.28346E-05-1.12604E-06-1.32349E-23
 -1       761 2.37925E-05-1.19726E-06 0.00000E+00
 -1       762 2.47490E-05-1.25004E-06-1.32349E-23
 -1       763 2.57053E-05-1.26220E-06 0.00000E+00
 -1       764 2.66539E-05-1.20997E-06 0.00000E+00
 -1       765 2.76050E-05-1.03138E-06 1.32349E-23
 -1       766 1.16414E-05-5.04159E-06 3.30872E-24
 -1       767 1.13344E-05-4.91144E-06 2.06795E-25
 -1       768 1.14708E-05-4.78266E-06 0.00000E+00
 -1       769 1.10947E-05-4.65162E-06-4.13590E-25
 -1       770 9.21338E-06-4.52166E-06 0.00000E+00
 -1       771 1.19130E-05-3.19387E-06 0.00000E+00
 -1       772 1.06014E-05-1.60043E-06 0.00000E+00
 -1       773 9.41242E-06-3.37881E-07 0.00000E+00
 -1       774 8.33554E-06 6.24228E-07-1.32349E-23
 -1       775 7.35987E-06 1.31646E-06-2.64698E-23
 -1       776 6.47393E-06 1.76960E-06 3.97047E-23
 -1       777 5.66614E-06 2.01456E-06 2.64698E-23
 -1       778 4.92485E-06 2.08238E-06 0.00000E+00
 -1       779 4.23839E-06 2.00416E-06 0.00000E+00
 -1       780 3.59504E-06 1.81113E-06 0.00000E+00
 -1       781 2.98308E-06 1.53456E-06 0.00000E+00
 -1       782 2.39089E-06 1.20581E-06 1.32349E-23
 -1       783 1.80683E-06 8.56259E-07 1.32349E-23
 -1       784 1.21984E-06 5.17449E-07-6.61744E-24
 -1       785 6.18980E-07 2.20945E-07-1.32349E-23
 -1       786 2.86279E-05-2.39277E-07 1.65436E-24
 -1       787 2.87470E-05 8.85383E-08-1.65436E-24
 -1       788 2.88659E-05 3.38327E-07 0.00000E+00
 -1       789 2.89859E-05 5.24305E-07-1.65436E-24
 -1       790 2.91060E-05 6.60609E-07 3.30872E-24
 -1       791 2.92264E-05 7.61325E-07 0.00000E+00
 -1       792 2.93468E-05 8.40499E-07-3.30872E-24
 -1       793 2.94672E-05 9.12147E-07 1.65436E-24
 -1       794 2.95877E-05 9.90284E-07-3.30872E-24
 -1       795 2.97081E-05 1.08893E-06 1.65436E-24
 -1       796 2.98285E-05 1.22212E-06 0.00000E+00
 -1       797 2.99489E-05 1.40395E-06-1.65436E-24
 -1       798 3.00691E-05 1.64854E-06-3.30872E-24
 -1       799 3.01888E-05 1.97009E-06 1.65436E-24
 -1       800 3.03085E-05 2.38292E-06-3.30872E-24
 -1       801 2.59562E-05-5.41435E-07 0.00000E+00
 -1       802 2.06537E-05-4.26152E-07 0.00000E+00
 -1       803 1.40071E-05-3.18265E-07 0.00000E+00
 -1       804 7.41617E-06-2.12545E-07 0.00000E+00
 -1       805 2.28073E-06-9.91310E-08 0.00000E+00
 -1       806 2.82234E-05-2.84474E-07-6.61744E-24
 -1       807 2.79408E-05 5.15164E-08-1.65436E-24
 -1       808 2.76687E-05 3.56354E-07-6.61744E-24
 -1       809 2.74050E-05 6.37141E-07 0.00000E+00
 -1       810 2.71476E-05 9.00931E-07 0.00000E+00
 -1       811 2.68938E-05 1.15472E-06 0.00000E+00
 -1       812 2.66411E-05 1.40550E-06 0.00000E+00
 -1       813 2.63868E-05 1.66024E-06 0.00000E+00
 -1       814 2.61285E-05 1.92592E-06 0.00000E+00
 -1       815 2.58635E-05 2.20952E-06 0.00000E+00
 -1       816 2.55891E-05 2.51800E-06 3.30872E-24
 -1       817 2.53029E-05 2.85834E-06 0.00000E+00
 -1       818 2.50022E-05 3.23753E-06 0.00000E+00
 -1       819 2.46849E-05 3.66256E-06 0.00000E+00
 -1       820 2.43487E-05 4.14047E-06 3.30872E-24
 -1       821 3.03193E-05 3.56027E-06-8.27181E-25
 -1       822 3.02069E-05 4.36517E-06 0.00000E+00
 -1       823 3.00945E-05 5.30119E-06-3.30872E-24
 -1       824 2.99810E-05 6.35323E-06-1.65436E-24
 -1       825 2.98673E-05 7.50610E-06-3.30872E-24
 -1       826 2.97532E-05 8.74447E-06-1.65436E-24
 -1       827 2.96390E-05 1.00529E-05 3.30872E-24
 -1       828 2.95248E-05 1.14161E-05 0.00000E+00
 -1       829 2.94104E-05 1.28183E-05-3.30872E-24
 -1       830 2.92961E-05 1.42440E-05 1.65436E-24
 -1       831 2.91818E-05 1.56776E-05 0.00000E+00
 -1       832 2.90676E-05 1.71036E-05 0.00000E+00
 -1       833 2.89536E-05 1.85062E-05 3.30872E-24
 -1       834 2.88404E-05 1.98700E-05-1.65436E-24
 -1       835 2.87272E-05 2.11793E-05 0.00000E+00
 -1       836 2.96224E-05 3.19208E-06 0.00000E+00
 -1       837 2.85197E-05 3.49297E-06 0.00000E+00
 -1       838 2.72614E-05 3.79315E-06-6.61744E-24
 -1       839 2.59916E-05 4.09267E-06 0.00000E+00
 -1       840 2.48544E-05 4.39287E-06-3.30872E-24
 -1       841 3.01575E-05 3.55086E-06 2.06795E-25
 -1       842 2.98283E-05 4.35598E-06 1.03398E-25
 -1       843 2.94462E-05 5.30248E-06 4.13590E-25
 -1       844 2.90163E-05 6.37463E-06 0.00000E+00
 -1       845 2.85454E-05 7.55539E-06 0.00000E+00
 -1       846 2.80402E-05 8.82733E-06 0.00000E+00
 -1       847 2.75077E-05 1.01718E-05 0.00000E+00
 -1       848 2.69548E-05 1.15701E-05 0.00000E+00
 -1       849 2.63891E-05 1.30026E-05 8.27181E-25
 -1       850 2.58178E-05 1.44499E-05 4.13590E-25
 -1       851 2.52484E-05 1.58921E-05 8.27181E-25
 -1       852 2.46883E-05 1.73096E-05 0.00000E+00
 -1       853 2.41448E-05 1.86828E-05 0.00000E+00
 -1       854 2.36250E-05 1.99924E-05 0.00000E+00
 -1       855 2.31361E-05 2.12201E-05 0.00000E+00
 -1       856 2.84930E-05 2.37505E-05 0.00000E+00
 -1       857 2.83604E-05 2.53212E-05-1.65436E-24
 -1       858 2.82275E-05 2.71001E-05 0.00000E+00
 -1       859 2.80934E-05 2.90561E-05 1.65436E-24
 -1       860 2.79588E-05 3.11580E-05 0.00000E+00
 -1       861 2.78239E-05 3.33741E-05-1.65436E-24
 -1       862 2.76887E-05 3.56729E-05 0.00000E+00
 -1       863 2.75534E-05 3.80227E-05-1.65436E-24
 -1       864 2.74181E-05 4.03915E-05 0.00000E+00
 -1       865 2.72827E-05 4.27476E-05 0.00000E+00
 -1       866 2.71476E-05 4.50591E-05-3.30872E-24
 -1       867 2.70126E-05 4.72943E-05-1.65436E-24
 -1       868 2.68780E-05 4.94215E-05 3.30872E-24
 -1       869 2.67443E-05 5.14092E-05-1.65436E-24
 -1       870 2.66108E-05 5.32259E-05-3.30872E-24
 -1       871 2.75419E-05 2.24085E-05 0.00000E+00
 -1       872 2.65329E-05 2.23972E-05 0.00000E+00
 -1       873 2.55678E-05 2.23856E-05 0.00000E+00
 -1       874 2.46214E-05 2.23737E-05 4.13590E-25
 -1       875 2.36683E-05 2.23614E-05 0.00000E+00
 -1       876 2.82960E-05 2.37951E-05 0.00000E+00
 -1       877 2.79023E-05 2.53797E-05 0.00000E+00
 -1       878 2.74410E-05 2.71431E-05 0.00000E+00
 -1       879 2.69235E-05 2.90589E-05 0.00000E+00
 -1       880 2.63586E-05 3.11005E-05 0.00000E+00
 -1       881 2.57565E-05 3.32416E-05 0.00000E+00
 -1       882 2.51266E-05 3.54562E-05 6.61744E-24
 -1       883 2.44788E-05 3.77186E-05 0.00000E+00
 -1       884 2.38227E-05 4.00028E-05 0.00000E+00
 -1       885 2.31680E-05 4.22832E-05 0.00000E+00
 -1       886 2.25243E-05 4.45341E-05-6.61744E-24
 -1       887 2.19014E-05 4.67296E-05-3.30872E-24
 -1       888 2.13089E-05 4.88440E-05 0.00000E+00
 -1       889 2.07556E-05 5.08506E-05 0.00000E+00
 -1       890 2.02528E-05 5.27239E-05-3.30872E-24
 -1       891 2.51747E-05 5.47732E-05 0.00000E+00
 -1       892 2.41189E-05 5.47050E-05 0.00000E+00
 -1       893 2.31840E-05 5.46369E-05 0.00000E+00
 -1       894 2.22397E-05 5.45689E-05 0.00000E+00
 -1       895 2.11556E-05 5.45007E-05 8.27181E-25
 -1       896 2.44321E-07 8.24134E-07 6.61744E-24
 -1       897 4.90877E-07 1.18418E-06-3.30872E-24
 -1       898 7.37379E-07 1.18790E-06-6.61744E-24
 -1       899 9.84225E-07 9.39440E-07 0.00000E+00
 -1       900 1.23102E-06 5.09064E-07 6.61744E-24
 -1       901 1.47784E-06-3.48145E-08 3.30872E-24
 -1       902 1.72463E-06-6.39019E-07 6.61744E-24
 -1       903 1.97141E-06-1.25099E-06 0.00000E+00
 -1       904 2.21821E-06-1.81922E-06 6.61744E-24
 -1       905 2.46500E-06-2.29175E-06 0.00000E+00
 -1       906 2.71180E-06-2.60375E-06 0.00000E+00
 -1       907 2.95834E-06-2.68880E-06 0.00000E+00
 -1       908 3.20480E-06-2.44994E-06-6.61744E-24
 -1       909 3.44951E-06-1.78696E-06 0.00000E+00
 -1       910 3.69420E-06-5.42740E-07 3.30872E-24
 -1       911 3.98637E-06 3.17607E-06 1.65436E-24
 -1       912 4.04523E-06 3.64977E-06-8.27181E-25
 -1       913 4.10406E-06 3.09774E-06-1.65436E-24
 -1       914 4.16228E-06 1.74830E-06-8.27181E-25
 -1       915 4.21959E-06-1.95059E-07 1.65436E-24
 -1       916 4.27611E-06-2.53024E-06-8.27181E-25
 -1       917 4.33217E-06-5.06735E-06 0.00000E+00
 -1       918 4.38818E-06-7.61706E-06-8.27181E-25
 -1       919 4.44460E-06-9.99036E-06 0.00000E+00
 -1       920 4.50173E-06-1.19978E-05 0.00000E+00
 -1       921 4.55974E-06-1.34387E-05 1.65436E-24
 -1       922 4.61825E-06-1.41107E-05-8.27181E-25
 -1       923 4.67683E-06-1.37877E-05 8.27181E-25
 -1       924 4.73291E-06-1.22413E-05 0.00000E+00
 -1       925 4.78610E-06-9.20505E-06-8.27181E-25
 -1       926 4.52147E-06 1.16485E-06 0.00000E+00
 -1       927 4.21219E-06 6.47740E-06 3.30872E-24
 -1       928 3.90613E-06 1.12058E-05-6.61744E-24
 -1       929 3.60245E-06 1.50343E-05 0.00000E+00
 -1       930 3.30211E-06 1.77798E-05 6.61744E-24
 -1       931 3.00405E-06 1.92721E-05 0.00000E+00
 -1       932 2.70701E-06 1.95265E-05 0.00000E+00
 -1       933 2.40949E-06 1.85727E-05 0.00000E+00
 -1       934 2.11060E-06 1.66191E-05-6.61744E-24
 -1       935 1.80990E-06 1.38862E-05 3.30872E-24
 -1       936 1.50793E-06 1.07093E-05 0.00000E+00
 -1       937 1.20546E-06 7.42932E-06 0.00000E+00
 -1       938 9.03694E-07 4.40228E-06 1.32349E-23
 -1       939 6.02538E-07 1.98117E-06 0.00000E+00
 -1       940 3.03325E-07 4.29439E-07 0.00000E+00
 -1       941 1.42242E-06 1.64762E-07-1.32349E-23
 -1       942 2.92310E-06 3.77391E-07-1.32349E-23
 -1       943 4.41890E-06 6.18929E-07 5.29396E-23
 -1       944 5.92952E-06 8.72301E-07 0.00000E+00
 -1       945 7.44060E-06 1.13288E-06 0.00000E+00
 -1       946 8.95464E-06 1.39648E-06-2.64698E-23
 -1       947 1.04690E-05 1.66216E-06 0.00000E+00
 -1       948 1.19839E-05 1.92908E-06-2.64698E-23
 -1       949 1.34988E-05 2.19772E-06 5.29396E-23
 -1       950 1.50134E-05 2.46868E-06-2.64698E-23
 -1       951 1.65277E-05 2.74499E-06 5.29396E-23
 -1       952 1.80396E-05 3.03004E-06 2.64698E-23
 -1       953 1.95511E-05 3.33648E-06 0.00000E+00
 -1       954 2.10506E-05 3.67828E-06 1.32349E-23
 -1       955 2.25541E-05 4.10672E-06 0.00000E+00
 -1       956 2.39139E-05 5.40642E-06 8.27181E-25
 -1       957 2.38325E-05 6.22933E-06 4.13590E-25
 -1       958 2.37507E-05 7.13835E-06 1.24077E-24
 -1       959 2.36687E-05 8.12377E-06 8.27181E-25
 -1       960 2.35866E-05 9.17591E-06 1.65436E-24
 -1       961 2.35044E-05 1.02849E-05 1.24077E-24
 -1       962 2.34222E-05 1.14411E-05 0.00000E+00
 -1       963 2.33399E-05 1.26345E-05-8.27181E-25
 -1       964 2.32576E-05 1.38554E-05 1.65436E-24
 -1       965 2.31753E-05 1.50939E-05 0.00000E+00
 -1       966 2.30929E-05 1.63403E-05 0.00000E+00
 -1       967 2.30106E-05 1.75846E-05 0.00000E+00
 -1       968 2.29284E-05 1.88172E-05 0.00000E+00
 -1       969 2.28462E-05 2.00283E-05-1.65436E-24
 -1       970 2.27644E-05 2.12079E-05-3.30872E-24
 -1       971 2.25095E-05 2.35733E-05 3.30872E-24
 -1       972 2.23300E-05 2.50507E-05 0.00000E+00
 -1       973 2.21504E-05 2.67486E-05-6.61744E-24
 -1       974 2.19696E-05 2.86357E-05-3.30872E-24
 -1       975 2.17884E-05 3.06805E-05 0.00000E+00
 -1       976 2.16068E-05 3.28514E-05-3.30872E-24
 -1       977 2.14250E-05 3.51165E-05 0.00000E+00
 -1       978 2.12430E-05 3.74436E-05 0.00000E+00
 -1       979 2.10609E-05 3.98005E-05 6.61744E-24
 -1       980 2.08789E-05 4.21551E-05 3.30872E-24
 -1       981 2.06970E-05 4.44750E-05 0.00000E+00
 -1       982 2.05155E-05 4.67282E-05 0.00000E+00
 -1       983 2.03343E-05 4.88824E-05 0.00000E+00
 -1       984 2.01544E-05 5.09059E-05 1.65436E-24
 -1       985 1.99746E-05 5.27669E-05 3.30872E-24
 -3
    1PSTEP                        24          12           1          
  100CL  112 6.44073E-01         841                     0   12           1
 -4  STRESS      6    1
 -5  SXX         1    4    1    1
 -5  SYY         1    4    2    2
 -5  SZZ         1    4    3    3
 -5  SXY         1    4    1    2
 -5  SYZ         1    4    2    3
 -5  SZX         1    4    3    1
 -1         1-2.55176E+06-8.23767E+05-5.19136E+05-7.58693E+05 1.94026E-11 6.25732E-09
 -1         2-1.45746E+06-5.46156E+04 1.22773E+04-1.29078E+05-2.94165E-10-7.57836E-10
 -1         3-9.87600E+05-3.37465E+05-3.31923E+04-8.61116E+04-1.25220E-09 2.80784E-09
 -1         4-4.75365E+05-8.88567E+04 7.00430E+02-4.73024E+04 2.44398E-10-2.42949E-10
 -1         5-2.34613E+05 1.43305E+05-1.18789E+05-9.62807E+03 5.04406E-09 3.23564E-09
 -1         8-1.23308E+06-4.83995E+05-1.66693E+05-4.97120E+05 3.61979E-10 2.86673E-09
 -1         9-1.42134E+06-3.16027E+05-1.69544E+05-3.69501E+05-7.71252E-10 1.29270E-09
 -1        10-5.76133E+05-3.63579E+05 1.73038E+04-1.14376E+05-3.92447E-10-1.33124E-09
 -1        11-4.59622E+05-1.38489E+05 6.17688E+02-1.06706E+05 1.69287E-09 5.83744E-10
 -1        12-2.88421E+05 1.14920E+05-1.33333E+05-5.18646E+04 5.65399E-09 8.05734E-10
 -1        15 3.56400E+04 2.46459E+04 1.32559E+04-3.23024E+04 8.34916E-10-3.51974E-09
 -1        16-9.83973E+05-2.12611E+05-1.88106E+04-4.08050E+05 9.85286E-10 8.18848E-10
 -1        17-5.55202E+05-3.68445E+05-6.74685E+04-2.83165E+05-1.28299E-09-4.98403E-10
 -1        18-1.65271E+05-1.13740E+05-7.60879E+04-1.38471E+05 1.80989E-09-2.20704E-10
 -1        19-5.84123E+04 7.16940E+04-5.52773E+04-5.13935E+04 7.61247E-10 1.14172E-09
 -1        20 9.60434E+04-6.98830E+04-1.11174E+04 5.04707E+04 1.26493E-08 5.95719E-10
 -1        21-1.00514E+03-1.43968E+05 3.22583E+04 7.73302E+02 1.86694E-08 1.38446E-09
 -1        22 2.70128E+04 1.37172E+05 8.46175E+02-2.02540E+04 1.27329E-11-9.82254E-11
 -1        23-1.09873E+05 1.08592E+04 1.22657E+04-1.48946E+05-3.84481E-09 8.39160E-10
 -1        24-1.74455E+05 8.29004E+03 2.09131E+05-3.76339E+05-4.58264E-09-4.48684E-10
 -1        25 4.68074E+05 1.76121E+05 1.51338E+05-2.46250E+05 1.19356E-09-1.60071E-10
 -1        26 4.29332E+03 1.68723E+05 9.59715E+03-3.29772E+04-5.92233E-10-7.35781E-10
 -1        27-4.02450E+04-6.06561E+04-2.62000E+04 6.62986E+04 6.70601E-09-1.97057E-09
 -1        28-1.27300E+04-1.10850E+05-6.92519E+02 5.28654E+04 4.38934E-09 1.07751E-09
 -1        29 3.38935E+05 2.33223E+05 9.83207E+02-1.00549E+04-2.65311E-10 1.90585E-09
 -1        30 9.63234E+04 3.43114E+04 1.37015E+03-5.81092E+04 2.19192E-09 3.42561E-09
 -1        31-3.76088E+05 4.20260E+04 4.93221E+03-5.12936E+04-5.70245E-09 7.97991E-09
 -1        32 6.47322E+05 3.87855E+05 4.48562E+05-3.71699E+05 5.20613E-09 3.25963E-09
 -1        33 1.04954E+06 4.79747E+05 3.36730E+05-4.81494E+04-9.57834E-09-1.46383E-09
 -1        34-1.94608E+05-2.98519E+04-1.12358E+04 3.22728E+04-3.00821E-09 1.52340E-10
 -1        35-3.00854E+04-3.64555E+04-6.95280E+02 7.80100E+04 1.11607E-08 2.91402E-09
 -1        36-3.26693E+06 9.53372E+04-2.22959E+05 8.31869E-08-4.22224E-10 8.87667E-10
 -1        37-3.36303E+06-1.10440E+05-1.57379E+05 1.34837E-08-1.03337E-09-5.47516E-10
 -1        38-3.30408E+06 1.47663E+04-5.76868E+04-2.20456E-07-5.99757E-10 3.08137E-09
 -1        39-3.31962E+06-1.70980E+04-3.61235E+04 3.16675E-09-3.82266E-10 9.12632E-09
 -1        40-3.31012E+06 2.28248E+03-1.48127E+04-2.07591E-08-2.35801E-10-1.15415E-09
 -1        41-3.31253E+06-2.67398E+03-8.80765E+03-1.54801E-07-3.61323E-09-2.25884E-09
 -1        42-3.31111E+06 3.85066E+02-4.32429E+03 5.10461E-08-1.78819E-09 2.22508E-09
 -1        43-3.31147E+06-6.79323E+02-3.42330E+03-3.93270E-08-2.09249E-09-4.53753E-11
 -1        44-3.31116E+06 2.93123E+02-3.46504E+03-1.06834E-07-1.68552E-09-1.81524E-09
 -1        45-3.31209E+06-1.87501E+03-6.32872E+03 6.29554E-08 1.73706E-09 1.31286E-09
 -1        46-3.31050E+06 1.57743E+03-1.03311E+04 5.40648E-08-2.49644E-10 6.10908E-09
 -1        47-3.31696E+06-1.17903E+04-2.49628E+04-1.04452E-07-2.58551E-09 1.06388E-08
 -1        48-3.30634E+06 1.01788E+04-3.97960E+04 1.11265E-07-2.63261E-09 2.34286E-09
 -1        49-3.34688E+06-7.61276E+04-1.08498E+05-1.43757E-08-1.74937E-09-1.23509E-09
 -1        50-3.28074E+06 6.57114E+04-1.53738E+05 2.01509E-07-2.04264E-09 1.84809E-09
 -1        51 3.01098E+04-3.34525E+05 4.91955E+04-9.10396E+05-1.01863E-10 2.38651E-09
 -1        52 1.36759E+04-3.30447E+05 2.94781E+04-1.00604E+06-1.16415E-10 3.10683E-09
 -1        53 8.68008E+03-3.40376E+05 2.29074E+04-9.07928E+05 6.54836E-11 4.03088E-09
 -1        54 1.97239E+04-3.37321E+05 3.38852E+04-1.00865E+06 4.65661E-10-3.37968E-09
 -1        55 4.41771E+04-3.48293E+05 6.05871E+04-9.07470E+05 2.18279E-10-3.87081E-09
 -1        56-4.05827E+06-4.58052E+05-3.32522E+05-1.56908E+06-1.23691E-10 2.93949E-09
 -1        57-4.20820E+06-7.35651E+05-2.23166E+05-1.53739E+06 2.47110E-09-1.85537E-09
 -1        58-4.12305E+06-5.62960E+05-7.82609E+04-1.55066E+06-1.30058E-09-7.17773E-09
 -1        59-4.13368E+06-6.11713E+05-4.64020E+04-1.55903E+06-2.48724E-09 4.92946E-09
 -1        60-4.13183E+06-5.77824E+05-1.82821E+04-1.54883E+06-1.93722E-10 2.48292E-09
 -1        61-4.12453E+06-5.93214E+05-1.03470E+04-1.55994E+06-1.65221E-09 1.27022E-09
 -1        62-4.13199E+06-5.80940E+05-5.05721E+03-1.54989E+06 2.59206E-11 9.05118E-09
 -1        63-4.12600E+06-5.88357E+05-4.24507E+03-1.55695E+06-1.03853E-09 2.69361E-09
 -1        64-4.13031E+06-5.82639E+05-4.98046E+03-1.55182E+06-1.01818E-09 1.99884E-09
 -1        65-4.13087E+06-5.86716E+05-1.01041E+04-1.55256E+06-1.43007E-09 1.41154E-09
 -1        66-4.12713E+06-5.82642E+05-1.78394E+04-1.55426E+06-1.02796E-09-4.68390E-10
 -1        67-4.14493E+06-5.99584E+05-4.52288E+04-1.54577E+06-5.34953E-09 3.22598E-09
 -1        68-4.11644E+06-5.70281E+05-7.62955E+04-1.55847E+06-1.81990E-09 1.94268E-09
 -1        69-4.22059E+06-7.17415E+05-2.17529E+05-1.52131E+06 2.92766E-09-9.09495E-10
 -1        70-4.05245E+06-4.68856E+05-3.24141E+05-1.57737E+06-1.39698E-09-3.20142E-10
 -1        71-1.96968E+06 1.51309E+04-3.54396E+04 2.01613E-08-7.88277E-10-1.01863E-09
 -1        72-1.98481E+06-1.75315E+04-2.50044E+04-9.07784E-09-1.21695E-09 3.68891E-09
 -1        73-1.97558E+06 2.34416E+03-9.18217E+03-1.27580E-07 1.73990E-10-1.23327E-09
 -1        74-1.97792E+06-2.71614E+03-5.76748E+03-8.90234E-08-1.67536E-09 4.59750E-10
 -1        75-1.97654E+06 3.64017E+02-2.40568E+03 7.64804E-08 1.02015E-10 3.74177E-09
 -1        76-1.97680E+06-4.37530E+02-1.50689E+03 4.14359E-08-9.19487E-10-8.27072E-10
 -1        77-1.97669E+06 7.24749E+01-8.87367E+02-2.26065E-08-7.09861E-10 1.68669E-10
 -1        78-1.97668E+06-1.94296E+02-9.81754E+02 2.07680E-08-2.14542E-09 5.36395E-09
 -1        79-1.97666E+06 1.21496E+02-1.34660E+03 3.92725E-08-1.32220E-09 4.04953E-09
 -1        80-1.97704E+06-8.63532E+02-2.83107E+03-1.22942E-07 8.51578E-10-1.79568E-10
 -1        81-1.97634E+06 7.39929E+02-4.79969E+03-1.35955E-08-3.07833E-10-7.24413E-10
 -1        82-1.97934E+06-5.54596E+03-1.17254E+04 1.30243E-07-5.68210E-10-9.54969E-10
 -1        83-1.97437E+06 4.78983E+03-1.87347E+04-2.65542E-08-9.67471E-10 1.18507E-09
 -1        84-1.99341E+06-3.58252E+04-5.10821E+04-9.06264E-08-4.82937E-10 2.62662E-09
 -1        85-1.96231E+06 3.09212E+04-7.24044E+04 1.24134E-07-2.16363E-09 8.51287E-10
 -1        86-7.54743E+04 3.58159E+05 1.79979E+05 4.07898E+03 1.73168E-09 5.73425E-09
 -1        87 9.48043E+04 4.39151E+05 1.40249E+05-1.89440E+04 2.96677E-09 1.69453E-09
 -1        88-1.89947E+04 3.84514E+05 7.34904E+04 2.86789E+03 2.99951E-09 1.12513E-09
 -1        89 6.93846E+04 4.26836E+05 1.06800E+05-1.76527E+04 4.40195E-09-7.10844E-09
 -1        90-5.01134E+04 3.70410E+05 1.22485E+05 2.78812E+03 2.85218E-09-3.16612E-09
 -1        91-1.37081E+06-1.74980E+05-1.02425E+04-4.59206E+05-2.54295E-08 1.11527E-09
 -1        92-1.03325E+06-2.44423E+05 3.41915E+04-5.55189E+05-2.04504E-08-2.70836E-09
 -1        93-1.32837E+06-1.07538E+05 1.19885E+02-3.85714E+05 1.84232E-08-2.55733E-09
 -1        94-1.08396E+06-3.08601E+05 6.71388E+03-6.33911E+05-1.04146E-09-3.88604E-09
 -1        95-1.32701E+06-1.05552E+05-1.85365E+03-3.85339E+05-1.85664E-08 1.22282E-09
 -1        96-1.04148E+06-2.58722E+05 2.28914E+04-5.54668E+05 1.11365E-08 3.98393E-09
 -1        97-1.36410E+06-1.62592E+05-2.14443E+04-4.60198E+05-1.13796E-08-4.36103E-10
 -1        98-1.05683E+06-1.44652E+05 4.11420E+04-4.03014E+05 5.55565E-09-3.81760E-10
 -1        99-1.30498E+06-2.24653E+05-2.24973E+04-5.31625E+05 2.18715E-08 2.95358E-09
 -1       100-1.24415E+06-5.08647E+04 2.26700E+04-3.14735E+05-3.47927E-08 4.96038E-09
 -1       101-1.18332E+06-2.51387E+05-4.90385E+03-5.53211E+05-2.45836E-09 2.60343E-09
 -1       102-1.37860E+06-1.94812E+04 3.99707E+01-2.98259E+05 2.16985E-08 1.42164E-08
 -1       103-1.17723E+06-2.51010E+05-1.00740E+04-5.53684E+05-4.17713E-08-4.61796E-10
 -1       104-1.26341E+06-5.57878E+04 1.20538E+03-3.10548E+05-3.52857E-08 2.31189E-08
 -1       105-1.29250E+06-2.19625E+05-5.56099E+04-5.35878E+05-3.00497E-08-5.99357E-10
 -1       106-1.01154E+06-5.69174E+03 1.33356E+04 6.94744E-08-1.31113E-09-4.41105E-10
 -1       107-1.00569E+06 6.59480E+03 9.40207E+03-6.65003E-09-6.34310E-10 7.16568E-10
 -1       108-1.00932E+06-8.81505E+02 3.44054E+03-1.01654E-07-4.48610E-11 2.66573E-09
 -1       109-1.00828E+06 1.01915E+03 2.13594E+03-2.89579E-08-6.79077E-10-5.82412E-09
 -1       110-1.00896E+06-1.34619E+02 8.37590E+02 2.90907E-09-6.21347E-10-3.79725E-09
 -1       111-1.00872E+06 1.46598E+02 4.21164E+02 1.80276E-07-4.27777E-10 1.79884E-09
 -1       112-1.00889E+06-1.15945E+01 5.89559E+01-2.92318E-08-2.87356E-10 9.44183E-10
 -1       113-1.00882E+06-4.63201E+01-2.34504E+02-1.12553E-07 3.72759E-10 1.59034E-09
 -1       114-1.00885E+06 5.78378E+01-5.92573E+02 1.08847E-07 5.76558E-10 1.65215E-10
 -1       115-1.00904E+06-4.56764E+02-1.45683E+03 6.74504E-08-2.46038E-10-4.32487E-09
 -1       116-1.00867E+06 3.97793E+02-2.55769E+03-4.63712E-08-5.84289E-10-2.06728E-09
 -1       117-1.01029E+06-2.98877E+03-6.30979E+03 7.28949E-08-2.70200E-11-2.17506E-09
 -1       118-1.00761E+06 2.58217E+03-1.01012E+04-5.42794E-08-7.49910E-10 8.82210E-11
 -1       119-1.01788E+06-1.93143E+04-2.75475E+04-4.34714E-08-3.94411E-10-2.14186E-09
 -1       120-1.00110E+06 1.66700E+04-3.90511E+04 4.80304E-08-1.79595E-10-4.63842E-10
 -1       121-2.42099E+03-1.05379E+06 9.70110E+03 6.27056E+03-7.34872E-10 6.54836E-11
 -1       122 3.08597E+03-1.05005E+06 6.02423E+03 2.69433E+04-4.32919E-10-1.01045E-09
 -1       123-2.43591E+02-1.05225E+06 1.94036E+03 6.56399E+03-2.08615E-09 5.46379E-09
 -1       124-4.46964E+02-1.05198E+06-2.12508E+01 2.62169E+04-1.54273E-09-3.20688E-09
 -1       125 4.15833E+02-1.05173E+06-1.69362E+03 6.99650E+03-4.41679E-09-1.61435E-09
 -1       126-9.76906E+05-1.37787E+05 3.95848E+03-3.64115E+05 9.22796E-10 1.99566E-09
 -1       127-9.69794E+05-1.38721E+05 2.79662E+03-3.70006E+05 2.70563E-09 2.84535E-09
 -1       128-9.77238E+05-1.35088E+05 9.23354E+02-3.62918E+05 1.09941E-09-7.70257E-10
 -1       129-9.69477E+05-1.41790E+05 5.73560E+02-3.71342E+05-1.29077E-09-9.59439E-10
 -1       130-9.77235E+05-1.34716E+05 1.87453E+02-3.62785E+05-7.72239E-10-2.48700E-09
 -1       131-9.70436E+05-1.41171E+05 8.30471E+01-3.70259E+05 2.16605E-09-1.10432E-09
 -1       132-9.76273E+05-1.35713E+05-9.49210E+01-3.63996E+05 9.46301E-10 4.88455E-10
 -1       133-9.73104E+05-1.38511E+05-2.10093E+02-3.67039E+05-9.18916E-10 4.07096E-09
 -1       134-9.74556E+05-1.37385E+05-5.56682E+02-3.65997E+05 7.35838E-10-1.55535E-09
 -1       135-9.76745E+05-1.35599E+05-1.28346E+03-3.63144E+05 2.33737E-09-1.40028E-09
 -1       136-9.72634E+05-1.38624E+05-2.33789E+03-3.67892E+05 7.01306E-11-5.25790E-09
 -1       137-9.80926E+05-1.35977E+05-6.22380E+03-3.59975E+05-9.06732E-09 1.00954E-10
 -1       138-9.70392E+05-1.37005E+05-1.00336E+04-3.69174E+05-3.53566E-10-2.57387E-09
 -1       139-9.91409E+05-1.53332E+05-2.96399E+04-3.56292E+05 3.86808E-09-2.84308E-09
 -1       140-9.62175E+05-1.21316E+05-4.28351E+04-3.71565E+05-2.79215E-10-3.74712E-10
 -1       141-4.45156E+05-4.71612E+03 1.10492E+04-3.78690E-08 3.77637E-10-5.11000E-09
 -1       142-4.40344E+05 5.46408E+03 7.78596E+03-5.38726E-08 3.09499E-10-1.48805E-09
 -1       143-4.43313E+05-7.30161E+02 2.83915E+03 7.50513E-09 2.87013E-10-1.58309E-09
 -1       144-4.42492E+05 8.42421E+02 1.74307E+03 6.84863E-08-3.31411E-11 2.18364E-10
 -1       145-4.43010E+05-1.09747E+02 6.41324E+02 3.83034E-08 1.24050E-11-1.70797E-09
 -1       146-4.42858E+05 1.07547E+02 2.35661E+02 1.52530E-07-1.47541E-10-2.93807E-09
 -1       147-4.42948E+05 2.51441E+00-1.64582E+02-5.42936E-08-6.19956E-11 3.06929E-09
 -1       148-4.42994E+05-1.30752E+02-6.62701E+02-1.29639E-07-1.61384E-10 2.00079E-09
 -1       149-4.42874E+05 1.28019E+02-1.34344E+03-5.95041E-09-8.16374E-11 5.46663E-10
 -1       150-4.43452E+05-9.83075E+02-3.16160E+03 8.75110E-08-5.10386E-10-5.12955E-10
 -1       151-4.42491E+05 8.52637E+02-5.50058E+03 2.16238E-08 9.34779E-11 2.49429E-09
 -1       152-4.46116E+05-6.40208E+03-1.35308E+04 9.62709E-08 1.35892E-10 1.35401E-09
 -1       153-4.40213E+05 5.53070E+03-2.16492E+04 8.39140E-08 1.14230E-09 9.75888E-10
 -1       154-4.62356E+05-4.13676E+04-5.90162E+04 3.29932E-08 2.50248E-10-1.65255E-09
 -1       155-4.26254E+05 3.57050E+04-8.36396E+04 3.29944E-08 3.06993E-09 1.57161E-09
 -1       156-1.40942E+04-2.09250E+05 3.40411E+04-1.78159E+03-3.81988E-11-1.82349E-09
 -1       157 1.86061E+04-1.93785E+05 2.81265E+04 7.76737E+03-7.45786E-11-1.54188E-10
 -1       158-4.45144E+03-2.04861E+05 1.72199E+04-1.72949E+03-8.98694E-11 1.39148E-09
 -1       159 1.98552E+04-1.93085E+05 2.97835E+04 7.42944E+03 5.75710E-10-4.16411E-09
 -1       160-1.53472E+04-2.09938E+05 3.68341E+04-1.44362E+03 5.25688E-10-2.50111E-12
 -1       161-5.30699E+05-7.32181E+04-3.21002E+03-1.99333E+05-7.45729E-10 3.19687E-10
 -1       162-5.31593E+05-7.68695E+04-2.22662E+03-1.99614E+05-2.93603E-10-2.35104E-10
 -1       163-5.31408E+05-7.43017E+04-7.65186E+02-1.99050E+05-2.20552E-10-1.61754E-09
 -1       164-5.30798E+05-7.55891E+04-4.97770E+02-1.99909E+05 1.11562E-10 4.94879E-10
 -1       165-5.31492E+05-7.44949E+04-2.33977E+02-1.99039E+05-5.98810E-11-8.24585E-11
 -1       166-5.30795E+05-7.53003E+04-2.37613E+02-1.99823E+05-3.54277E-10-9.68363E-10
 -1       167-5.31411E+05-7.45901E+04-3.02990E+02-1.99136E+05-7.51823E-10-1.49385E-09
 -1       168-5.31085E+05-7.51919E+04-6.47568E+02-1.99556E+05 9.02205E-10-2.07934E-09
 -1       169-5.31202E+05-7.46036E+04-1.15887E+03-1.99305E+05-4.18893E-10 2.24981E-09
 -1       170-5.31929E+05-7.58261E+04-2.88383E+03-1.99085E+05 8.45972E-11 1.31195E-09
 -1       171-5.30568E+05-7.39581E+04-5.00397E+03-1.99607E+05-6.98947E-10 2.13527E-09
 -1       172-5.35697E+05-8.14762E+04-1.34286E+04-1.97723E+05-8.36508E-10-1.59457E-09
 -1       173-5.27440E+05-6.89686E+04-2.15961E+04-2.00664E+05 8.32642E-10 1.50339E-09
 -1       174-5.57651E+05-1.19353E+05-6.37927E+04-1.90393E+05 5.11659E-09 2.61934E-10
 -1       175-5.08636E+05-3.61810E+04-9.21062E+04-2.06903E+05 1.10358E-08-2.26282E-09
 -1       191 1.89547E+03 5.30726E+05 3.14531E+03-1.80610E+04-1.05501E-10-1.98634E-09
 -1       192 6.74489E+02 5.31201E+05 1.88191E+03-1.95062E+04-9.30299E-10 2.23372E-09
 -1       193 2.96166E+02 5.30870E+05 1.50718E+03-1.78080E+04-8.67431E-11 2.93767E-09
 -1       194 8.94866E+02 5.31247E+05 2.27406E+03-1.99709E+04-1.90448E-09 1.02045E-09
 -1       195 2.57187E+03 5.30608E+05 4.12060E+03-1.75931E+04 3.63798E-12 5.65706E-10
 -1       251-1.67728E+06 1.77684E+04-8.06447E+04-5.23015E+04-1.46429E-09 1.96087E-09
 -1       252-1.57223E+06-1.98167E+04-3.08097E+04 1.59242E+05-3.91060E-09 9.98807E-09
 -1       253-1.62529E+06 1.62736E+03-1.79114E+04-1.07315E+05-4.41651E-09-6.46924E-09
 -1       254-1.61853E+06 4.62720E+03-7.07024E+03 2.07542E+05-1.64701E-09-9.07676E-10
 -1       255-1.63654E+06-2.05640E+03-7.31865E+03-1.00799E+05 1.35424E-09-3.81283E-09
 -1       256-1.53794E+06 6.27037E+03 1.52288E+04 1.36519E+05-3.75985E-09 5.54292E-09
 -1       257-1.69815E+06-6.26980E+03-1.76082E+04-3.60551E+04-1.45264E-08-1.31541E-09
 -1       258-1.47949E+06 5.30513E+03 2.73650E+04-1.52978E+04-3.10683E-09 2.92636E-09
 -1       259-1.68929E+06-5.71581E+03-1.56748E+04 5.08324E+04-6.45468E-09 7.69205E-10
 -1       260-1.55775E+06 6.69516E+03 1.15853E+04-1.57964E+05-4.81896E-09-6.59168E-09
 -1       261-1.62754E+06-1.45581E+03-5.32114E+03 1.06528E+05 1.89834E-08 5.32896E-09
 -1       262-1.61868E+06 4.58795E+03-7.03832E+03-2.08034E+05-1.32560E-08-7.64203E-09
 -1       263-1.63417E+06 1.08646E+03-1.97035E+04 1.01101E+05 4.24143E-09 5.92354E-09
 -1       264-1.55218E+06-2.01035E+04-2.68032E+04-1.38605E+05 4.32699E-08 4.58840E-10
 -1       265-1.68651E+06 1.70171E+04-8.21416E+04 3.68649E+04 1.08848E-08 6.13363E-09
 -1       266-2.57457E+04-2.11266E+05 6.01210E+04-1.03017E+04-7.27596E-12 1.74458E-09
 -1       267 2.84509E+04-1.84037E+05 4.05254E+04 4.79743E+04 7.63976E-11-7.45035E-09
 -1       268-2.80873E+03-2.01843E+05 1.10068E+04-9.62341E+03-1.20053E-10-4.74893E-09
 -1       269-3.89535E+03-1.93439E+05-1.15625E+03 4.50996E+04 6.59384E-11-1.08236E-09
 -1       270 6.10432E+03-2.01338E+05-1.49764E+04-7.43392E+03 1.40972E-10 5.14819E-09
 -1       271-3.51238E+06-4.39167E+05-2.76264E+05-1.36177E+06 3.41970E-10 2.96859E-09
 -1       272-3.61034E+06-6.27132E+05-1.75551E+05-1.36120E+06-1.43473E-10-9.38599E-10
 -1       273-3.56257E+06-5.03307E+05-6.51768E+04-1.35178E+06-1.40312E-09-2.36469E-10
 -1       274-3.55162E+06-5.46078E+05-3.60497E+04-1.37762E+06-2.46473E-10 5.77256E-09
 -1       275-3.56960E+06-5.09175E+05-1.51686E+04-1.34956E+06-7.08951E-10 6.21458E-09
 -1       276-3.54311E+06-5.39065E+05-8.07244E+03-1.38132E+06 2.64663E-10 1.86003E-09
 -1       277-3.57111E+06-5.09139E+05-4.13484E+03-1.34861E+06-9.40190E-10-4.51450E-10
 -1       278-3.54149E+06-5.39154E+05-3.28317E+03-1.38261E+06 8.57199E-11-4.80122E-09
 -1       279-3.57133E+06-5.08930E+05-3.94978E+03-1.34839E+06 3.99609E-10 1.36583E-09
 -1       280-3.54234E+06-5.39772E+05-7.57985E+03-1.38230E+06 1.50760E-09 6.04541E-09
 -1       281-3.57026E+06-5.08607E+05-1.41463E+04-1.34889E+06 1.15642E-09 4.31919E-09
 -1       282-3.54972E+06-5.46897E+05-3.36258E+04-1.37957E+06 1.49157E-10-4.04998E-09
 -1       283-3.56397E+06-5.02867E+05-6.07442E+04-1.35067E+06 4.16412E-09-1.58252E-09
 -1       284-3.60401E+06-6.22923E+05-1.63663E+05-1.36479E+06 5.49517E-09 3.29419E-09
 -1       285-3.51739E+06-4.42881E+05-2.57538E+05-1.35975E+06 2.70666E-09-3.27418E-09
 -1       286-6.28814E+05-1.01998E+04 2.38192E+04-1.37280E+03 2.04699E-09 4.54747E-12
 -1       287-6.17949E+05 1.18096E+04 1.68980E+04-5.65804E+02 6.56584E-10-5.04247E-09
 -1       288-6.24840E+05-1.58793E+03 6.14593E+03 1.97588E+02 6.78938E-10 2.28010E-09
 -1       289-6.22654E+05 1.83237E+03 3.93015E+03-3.53404E+03 3.69084E-10-2.03386E-10
 -1       290-6.24122E+05-2.50320E+02 1.58798E+03 1.59550E+03 1.19701E-09-1.18848E-09
 -1       291-6.23572E+05 2.99728E+02 1.00922E+03-5.81675E+03 1.69560E-09 4.02031E-09
 -1       292-6.23940E+05-4.82514E+01 5.41766E+02 2.48032E+03 1.20671E-09 1.35155E-09
 -1       293-6.23773E+05 1.19979E+02 5.47150E+02-6.86299E+03 2.79815E-10-5.54182E-10
 -1       294-6.23932E+05-6.35283E+01 6.94807E+02 2.64177E+03 1.80744E-09-4.96300E-10
 -1       295-6.23556E+05 4.40035E+02 1.42884E+03-6.42417E+03 1.75502E-09-2.30293E-09
 -1       296-6.24152E+05-3.70776E+02 2.37393E+03 2.04150E+03 3.45011E-10-3.98813E-10
 -1       297-6.22260E+05 2.75221E+03 5.85352E+03-4.60536E+03 1.04977E-09 4.49609E-09
 -1       298-6.25210E+05-2.37989E+03 9.25401E+03 8.22925E+02 7.55904E-10 2.28556E-09
 -1       299-6.15170E+05 1.77441E+04 2.53611E+04-1.85193E+03-6.77744E-10 1.57524E-09
 -1       300-6.31219E+05-1.53217E+04 3.58221E+04-7.12011E+02 3.05363E-10-2.03363E-09
 -1       301 4.74441E+04 2.68720E+04 1.01608E+05-2.71612E+04-2.44836E-09 1.22100E-09
 -1       302 1.60285E+04 4.56932E+04 6.13669E+04-3.17947E+04 2.00089E-11 3.83839E-09
 -1       303 4.60978E+03 3.35940E+04 4.79995E+04-2.72337E+04-2.47064E-09 1.46861E-09
 -1       304 1.93457E+04 4.75886E+04 7.00453E+04-3.17686E+04-2.11912E-10 6.75868E-10
 -1       305 5.82457E+04 2.49906E+04 1.22710E+05-2.71619E+04-2.60479E-09 4.61023E-09
 -1       306-2.48318E+06-3.17444E+05-1.72025E+05-9.61831E+05 2.57569E-09 1.44792E-09
 -1       307-2.53082E+06-4.47286E+05-1.09227E+05-9.76433E+05 7.28858E-09 7.43967E-09
 -1       308-2.51459E+06-3.57076E+05-4.06091E+04-9.55458E+05 2.10389E-09 2.20825E-09
 -1       309-2.49426E+06-3.97084E+05-2.24542E+04-9.86989E+05-1.45292E-10-4.57612E-09
 -1       310-2.51903E+06-3.60651E+05-9.47737E+03-9.54042E+05 6.37556E-10-2.10730E-09
 -1       311-2.48907E+06-3.92694E+05-5.08041E+03-9.89325E+05 2.91948E-10-2.47360E-09
 -1       312-2.51992E+06-3.60673E+05-2.68157E+03-9.53525E+05-2.81716E-10 4.56623E-10
 -1       313-2.48828E+06-3.92570E+05-2.27950E+03-9.89910E+05 8.01833E-10-1.07821E-09
 -1       314-2.51990E+06-3.60674E+05-2.93406E+03-9.53534E+05-1.62777E-09-2.67391E-10
 -1       315-2.48920E+06-3.92767E+05-5.78296E+03-9.89278E+05 1.90664E-09 1.52295E-09
 -1       316-2.51892E+06-3.60588E+05-1.08902E+04-9.54073E+05 1.44701E-09 2.63299E-09
 -1       317-2.49505E+06-3.97996E+05-2.58825E+04-9.86799E+05 7.49196E-10 3.37968E-09
 -1       318-2.51392E+06-3.56336E+05-4.68130E+04-9.55573E+05 2.16198E-09 4.67116E-09
 -1       319-2.53696E+06-4.56200E+05-1.25967E+05-9.75014E+05-7.51243E-10-1.19144E-09
 -1       320-2.47788E+06-3.10414E+05-1.98337E+05-9.62703E+05 1.16415E-10-1.99361E-09
 -1       321-4.84405E+05-2.09504E+04 4.90710E+04-6.27584E+02-1.33787E-09-4.14730E-10
 -1       322-4.62946E+05 2.42703E+04 3.46498E+04-1.12033E+03-1.95166E-09 9.44056E-10
 -1       323-4.76218E+05-3.24803E+03 1.26902E+04 1.40996E+02-5.32253E-10 1.09048E-09
 -1       324-4.72515E+05 3.75640E+03 7.96660E+03-2.55467E+03 2.80096E-10 4.76837E-09
 -1       325-4.74853E+05-5.02330E+02 3.23702E+03 8.06857E+02 1.75135E-10 2.12742E-09
 -1       326-4.74139E+05 5.82764E+02 1.90209E+03-3.64420E+03-3.37153E-11 3.82443E-10
 -1       327-4.74602E+05-7.95488E+01 8.60135E+02 1.23054E+03-3.23823E-10 5.39899E-10
 -1       328-4.74432E+05 1.11177E+02 5.51253E+02-4.17148E+03 5.52781E-10 6.85148E-10
 -1       329-4.74564E+05-2.90820E+01 3.90803E+02 1.33415E+03-3.21037E-10 1.40061E-09
 -1       330-4.74407E+05 1.47897E+02 5.38934E+02-4.03935E+03-4.05972E-10-8.18119E-11
 -1       331-4.74627E+05-1.16891E+02 7.86548E+02 1.09841E+03 2.64322E-12 2.34658E-09
 -1       332-4.74003E+05 8.62043E+02 1.85529E+03-3.27194E+03 6.94172E-10-3.82622E-09
 -1       333-4.74963E+05-7.44934E+02 2.90596E+03 5.66722E+02 4.73221E-11 1.26033E-09
 -1       334-4.71763E+05 5.55378E+03 7.94765E+03-2.01207E+03 3.72282E-10 2.85934E-09
 -1       335-4.76858E+05-4.79743E+03 1.12077E+04-1.61489E+02-1.18945E-09 4.13638E-09
 -1       336 6.42905E+02-1.05206E+06-4.26758E+03-6.09927E+03-5.82577E-09 3.83125E-09
 -1       337-1.96732E+03-1.05390E+06-7.20711E+03-3.33486E+04-4.16921E-09-6.29166E-09
 -1       338 1.17988E+03-1.05164E+06-1.13868E+04-5.88934E+03-6.94308E-09-9.26775E-10
 -1       339-1.37255E+04-1.06082E+06-2.75833E+04-3.35868E+04-4.78076E-09-7.65425E-10
 -1       340 1.04384E+04-1.04522E+06-4.25311E+04-5.86512E+03-6.53017E-09 2.82967E-10
 -1       341-1.24440E+06-1.91554E+05-4.09984E+04-5.02547E+05-1.89539E-09-2.21917E-09
 -1       342-1.27889E+06-1.12630E+05-1.33920E+04-3.74114E+05-1.46701E-09-2.58842E-09
 -1       343-1.19468E+06-2.19950E+05-8.39573E+03-5.18715E+05-5.00904E-09-2.61241E-08
 -1       344-1.32601E+06-8.19562E+04-2.89423E+03-3.60863E+05 2.44733E-08-6.01221E-09
 -1       345-1.19953E+06-2.20479E+05-3.15774E+03-5.17653E+05 8.70909E-09 7.03949E-10
 -1       346-1.26085E+06-1.04119E+05 8.17772E+03-3.80107E+05 1.88193E-08 1.19378E-08
 -1       347-1.25716E+06-1.99809E+05-9.43588E+03-4.97301E+05 1.35446E-08 2.44063E-09
 -1       348-1.16514E+06-1.64648E+05 1.49165E+04-4.42191E+05 5.85032E-09-2.35559E-10
 -1       349-1.29280E+06-1.61807E+05-9.91381E+03-4.53768E+05-5.52973E-09 2.20257E-09
 -1       350-1.13763E+06-2.33395E+05 4.54937E+03-5.27505E+05-6.74552E-08-2.25940E-08
 -1       351-1.28733E+06-1.29057E+05-7.81641E+03-4.14080E+05-2.41712E-08-9.63155E-10
 -1       352-1.14926E+06-2.70283E+05-1.66701E+04-5.66919E+05 8.21562E-08-1.00192E-08
 -1       353-1.28370E+06-1.23016E+05-3.09604E+04-4.16187E+05 1.41777E-08-1.19926E-08
 -1       354-1.17125E+06-2.89089E+05-7.81443E+04-5.13600E+05-5.58819E-08-8.82210E-11
 -1       355-1.26272E+06-1.12430E+05-1.36048E+05-4.65414E+05-1.56324E-08 1.65892E-09
 -1       356-5.34260E+05-2.58263E+03 6.03443E+03-7.20142E+02-3.05832E-10-5.90717E-09
 -1       357-5.31526E+05 2.99037E+03 4.26265E+03-5.56229E+01-1.10713E-09-4.23825E-10
 -1       358-5.33255E+05-4.00898E+02 1.53523E+03-1.89981E+02-4.17586E-10-2.04523E-10
 -1       359-5.32707E+05 4.59131E+02 9.38074E+02-1.09063E+03 6.54154E-10-2.89441E-09
 -1       360-5.33081E+05-5.93723E+01 2.99832E+02 3.14886E+02-2.04082E-10-8.42959E-10
 -1       361-5.32936E+05 4.68504E+01 3.43339E+01-1.97149E+03-8.88846E-10 1.43402E-09
 -1       362-5.33028E+05 1.17295E+01-2.78871E+02 6.90896E+02-1.03343E-09 4.06655E-09
 -1       363-5.33074E+05-1.51773E+02-7.72201E+02-2.51759E+03-5.31251E-10 2.60236E-09
 -1       364-5.32945E+05 1.40362E+02-1.48250E+03 8.60999E+02 6.03109E-10-2.82392E-09
 -1       365-5.33570E+05-1.06755E+03-3.44376E+03-2.61772E+03-1.45512E-09-4.27610E-09
 -1       366-5.32534E+05 9.25466E+02-5.97605E+03 7.91025E+02-1.18085E-10 2.01499E-09
 -1       367-5.36444E+05-6.94792E+03-1.46843E+04-2.25052E+03 1.12280E-09 1.63914E-09
 -1       368-5.30073E+05 6.00190E+03-2.34996E+04 4.93781E+02 1.68889E-09 2.22462E-09
 -1       369-5.54046E+05-4.48964E+04-6.40433E+04-1.47553E+03 6.32639E-10 2.48838E-09
 -1       370-5.14936E+05 3.87498E+04-9.07791E+04 1.60741E+01 3.84605E-09 2.05546E-09
 -1       371-1.39469E+04-2.32570E+05 3.17559E+04 3.79216E+03 1.52795E-09 5.66729E-10
 -1       372 1.43114E+04-2.19284E+05 1.89744E+04-1.50549E+04 2.56841E-09-1.38068E-09
 -1       373-2.89389E+02-2.26125E+05 1.10603E+03 3.94487E+03 2.19188E-09 3.62732E-10
 -1       374-1.17304E+04-2.31230E+05-1.51907E+04-1.47945E+04 1.87265E-09 4.86119E-09
 -1       375 1.19980E+04-2.20614E+05-2.72779E+04 3.53163E+03 1.62800E-09 1.73378E-09
 -1       376-9.06100E+05-1.14547E+05-3.72489E+04-3.48210E+05 2.73485E-09-2.17551E-09
 -1       377-9.28479E+05-1.45515E+05-2.57929E+04-3.38477E+05 5.40012E-09-4.77621E-09
 -1       378-9.14088E+05-1.27432E+05-8.74946E+03-3.45265E+05 1.15119E-09-9.86347E-10
 -1       379-9.18540E+05-1.31231E+05-5.45258E+03-3.42606E+05 4.27306E-10-2.29431E-09
 -1       380-9.16020E+05-1.28791E+05-2.10121E+03-3.44090E+05 4.22517E-10-2.78067E-09
 -1       381-9.15722E+05-1.30285E+05-1.31923E+03-3.44656E+05-1.29763E-09-3.85376E-09
 -1       382-9.16902E+05-1.28371E+05-7.87460E+02-3.43216E+05-7.02258E-10-3.86194E-10
 -1       383-9.14517E+05-1.31215E+05-1.00951E+03-3.45992E+05-6.08225E-11 4.09171E-09
 -1       384-9.17227E+05-1.27858E+05-1.50080E+03-3.42756E+05 2.07876E-10 1.75709E-09
 -1       385-9.14856E+05-1.32607E+05-3.55157E+03-3.46201E+05 1.25635E-09 7.08042E-10
 -1       386-9.16566E+05-1.26982E+05-6.09683E+03-3.43008E+05 7.18842E-10-4.98630E-10
 -1       387-9.19683E+05-1.39178E+05-1.63130E+04-3.44216E+05-1.67904E-09-3.58159E-09
 -1       388-9.12409E+05-1.21307E+05-2.62351E+04-3.44736E+05 2.33877E-09-2.65754E-09
 -1       389-9.47388E+05-1.84129E+05-7.74758E+04-3.34088E+05 7.32825E-09-4.28190E-09
 -1       390-8.88899E+05-8.21561E+04-1.11878E+05-3.53098E+05 1.25492E-08-7.48696E-09
 -1       406 2.08312E+03 5.21698E+05 4.03082E+03-6.22321E+04 1.65528E-10 1.03864E-09
 -1       407 1.13539E+03 5.22382E+05 4.07004E+03-6.86681E+04-3.46290E-09-5.85715E-10
 -1       408 1.44164E+03 5.21649E+05 6.01838E+03-6.20437E+04-4.18368E-11-9.27685E-11
 -1       409 5.60690E+03 5.23906E+05 1.24914E+04-6.89030E+04-3.73711E-09 2.84081E-09
 -1       410 1.61501E+04 5.20039E+05 2.49460E+04-6.19791E+04-1.56433E-10 3.48746E-09
 -1       466 1.12779E+06-4.46814E+04 1.01307E+05 2.67084E+04-4.40195E-10-4.46016E-09
 -1       467 1.19195E+06 5.09728E+04 7.49125E+04-5.17708E+04 5.13523E-10 4.84761E-09
 -1       468 1.15150E+06-6.72017E+03 2.63817E+04 1.11421E+04 1.92529E-09-1.10776E-09
 -1       469 1.16320E+06 7.63303E+03 1.72288E+04-2.86473E+04-1.56774E-09 2.94312E-09
 -1       470 1.15582E+06-9.99983E+02 6.93712E+03 3.57894E+03-3.76303E-10 4.62433E-09
 -1       471 1.15791E+06 1.20481E+03 4.45463E+03-1.75593E+04-5.58316E-10 1.30126E-09
 -1       472 1.15661E+06-1.87644E+02 2.54172E+03 5.34720E+01 1.58991E-10 1.98099E-10
 -1       473 1.15707E+06 5.59886E+02 2.77990E+03-1.28042E+04 8.68681E-10-2.06927E-09
 -1       474 1.15661E+06-3.26374E+02 3.76465E+03-1.17617E+03-8.92513E-11 2.75816E-09
 -1       475 1.15800E+06 2.41454E+03 7.86155E+03-1.20399E+04-1.29599E-10-1.88470E-09
 -1       476 1.15568E+06-2.03365E+03 1.33102E+04-7.10760E+02 2.37314E-09 1.68257E-09
 -1       477 1.16458E+06 1.53304E+04 3.25037E+04-1.48968E+04 8.71836E-11-1.96633E-09
 -1       478 1.15003E+06-1.32172E+04 5.18220E+04 1.68078E+03 6.85759E-10 1.57524E-09
 -1       479 1.20454E+06 9.89735E+04 1.41465E+05-2.29393E+04 2.23187E-09-4.75120E-09
 -1       480 1.11579E+06-8.54513E+04 2.00016E+05 7.33101E+03 2.76293E-09-3.91447E-09
 -1       481-1.03855E+04 2.27071E+05 2.04211E+04-1.67420E+04-2.54659E-10-2.80943E-09
 -1       482 1.15231E+04 2.57376E+05 1.88302E+04 6.07932E+04-1.60981E-10 7.05575E-09
 -1       483-1.80334E+03 2.37682E+05 7.10049E+03-1.35247E+04-1.11413E-11 2.58069E-09
 -1       484 4.85934E+03 2.44697E+05 8.67001E+03 5.66646E+04 7.24754E-13-1.13687E-10
 -1       485-3.12713E+03 2.38868E+05 8.22469E+03-1.26053E+04 1.44610E-10-6.86128E-10
 -1       486-1.08594E+06-1.77873E+05-1.22253E+05-4.90118E+05-1.54250E-09-1.43664E-08
 -1       487-1.15906E+06-5.53631E+04-5.23375E+04-2.38099E+05 3.40151E-09 1.97897E-08
 -1       488-1.00083E+06-2.23719E+05-2.43375E+04-4.91542E+05 4.83305E-09 1.38489E-08
 -1       489-1.21369E+06-4.59390E+03-9.70953E+03-2.41278E+05 7.22252E-10 2.13486E-08
 -1       490-1.03524E+06-2.25651E+05-1.14083E+04-4.90340E+05 1.32341E-08 1.96051E-08
 -1       491-1.04964E+06-3.43736E+04 2.53481E+04-2.55870E+05 7.12703E-09 6.71776E-09
 -1       492-1.15665E+06-1.99931E+05-2.62939E+04-4.70136E+05-1.06547E-08 3.01952E-10
 -1       493-8.71194E+05-1.22574E+05 4.41873E+04-3.38549E+05 5.67206E-09-5.31372E-10
 -1       494-1.20741E+06-1.42156E+05-2.47507E+04-4.03302E+05 6.05542E-09-1.57229E-08
 -1       495-8.69427E+05-2.30483E+05 2.26783E+04-4.83690E+05-7.56472E-09-3.74089E-08
 -1       496-1.16542E+06-8.68803E+04-8.94521E+03-3.30624E+05-5.46379E-09-2.02258E-08
 -1       497-9.30142E+05-2.90178E+05-8.51488E+03-5.69796E+05-2.72829E-08-8.57676E-09
 -1       498-1.15465E+06-7.65165E+04-2.23757E+04-3.22693E+05-1.05785E-08 5.66979E-08
 -1       499-9.05293E+05-2.83641E+05-4.04606E+04-5.04312E+05-9.50945E-09 1.09258E-08
 -1       500-1.18462E+06-9.77665E+04-1.11369E+05-3.92203E+05 2.08947E-08-5.22050E-09
 -1       501-5.76398E+05-2.03540E+04 4.75830E+04-8.44727E+02 1.55563E-09-1.42609E-09
 -1       502-5.55055E+05 2.35709E+04 3.36923E+04-1.99768E+03 1.53477E-10-8.72660E-10
 -1       503-5.68420E+05-3.16198E+03 1.22820E+04 8.12317E+02-2.05318E-10 3.18323E-11
 -1       504-5.64470E+05 3.65423E+03 7.76704E+03-5.01653E+03-6.55348E-10-1.04581E-09
 -1       505-5.67013E+05-4.92324E+02 3.11895E+03 2.17422E+03 6.56087E-10-4.19050E-10
 -1       506-5.66208E+05 5.76521E+02 1.83738E+03-7.12854E+03 2.05948E-09-9.82823E-11
 -1       507-5.66706E+05-7.79927E+01 7.97732E+02 2.92436E+03 1.87642E-09 9.09324E-10
 -1       508-5.66557E+05 1.07305E+02 4.54343E+02-7.85316E+03 1.89452E-10-2.83958E-09
 -1       509-5.66674E+05-1.75498E+01 2.28303E+02 2.89887E+03 1.71001E-09 2.09433E-09
 -1       510-5.66482E+05 4.98258E+01 2.00626E+02-7.03198E+03 1.64572E-09-4.54989E-10
 -1       511-5.66770E+05-2.82549E+01 1.54218E+02 2.10315E+03 1.16802E-09-5.28978E-10
 -1       512-5.66204E+05 1.58247E+02 4.00459E+02-4.84182E+03 2.13549E-09 1.71768E-09
 -1       513-5.66930E+05-1.41460E+02 4.64768E+02 7.08658E+02 1.41711E-10 1.68905E-09
 -1       514-5.65673E+05 9.74419E+02 1.46038E+03-1.75371E+03-1.35637E-09 1.80863E-09
 -1       515-5.67287E+05-8.52849E+02 1.87190E+03-9.84954E+02-1.14471E-09-1.33412E-09
 -1       516-5.21430E+04 2.14795E+05 1.19855E+05 2.95702E+04 8.76753E-09 4.59590E-09
 -1       517 6.32212E+04 2.77900E+05 9.06725E+04-1.37460E+05 1.36315E-08 1.57848E-08
 -1       518-9.85515E+03 2.38453E+05 3.95521E+04 2.85137E+04 8.21183E-09 7.49367E-09
 -1       519 2.91032E+04 2.80418E+05 4.84891E+04-1.40960E+05 1.21167E-08 9.30072E-10
 -1       520-1.93337E+04 2.13970E+05 3.67339E+04 3.30657E+04-4.10546E-09 1.94359E-09
 -1       521-3.31947E+06-4.19757E+05-2.37637E+05-1.28318E+06-1.44428E-09 7.56700E-10
 -1       522-3.39604E+06-5.88904E+05-1.50965E+05-1.29140E+06 3.23780E-10-4.16912E-09
 -1       523-3.36274E+06-4.74747E+05-5.60613E+04-1.27447E+06-2.00316E-10 2.99406E-09
 -1       524-3.34552E+06-5.19310E+05-3.10082E+04-1.30570E+06-1.40858E-09-3.59751E-09
 -1       525-3.36879E+06-4.79784E+05-1.30463E+04-1.27256E+06 1.32104E-09-7.50333E-10
 -1       526-3.33837E+06-5.13135E+05-6.95358E+03-1.30875E+06 2.49997E-09 3.31329E-09
 -1       527-3.36996E+06-4.79889E+05-3.57098E+03-1.27191E+06-1.62800E-10-8.36167E-10
 -1       528-3.33733E+06-5.12844E+05-2.86470E+03-1.30940E+06 6.42686E-11 3.80601E-09
 -1       529-3.36989E+06-4.79964E+05-3.48302E+03-1.27198E+06-1.15506E-09-1.52340E-10
 -1       530-3.33858E+06-5.12840E+05-6.70297E+03-1.30842E+06 3.65844E-10-1.17961E-09
 -1       531-3.36861E+06-4.80027E+05-1.25470E+04-1.27278E+06 4.71573E-10-3.52156E-09
 -1       532-3.34574E+06-5.18459E+05-2.97845E+04-1.30512E+06 2.22553E-09-7.27596E-11
 -1       533-3.36263E+06-4.75364E+05-5.38522E+04-1.27480E+06-1.20747E-09-1.27329E-09
 -1       534-3.39458E+06-5.84951E+05-1.44983E+05-1.29097E+06-4.14730E-10 1.58070E-09
 -1       535-3.32089E+06-4.22741E+05-2.28242E+05-1.28337E+06-1.20053E-10 1.78989E-09
 -1       536 1.08148E+05-1.59660E+04 6.46601E+04-7.01477E+03 7.13953E-10-9.56788E-10
 -1       537 1.32099E+05 2.09026E+04 4.17252E+04-3.09121E+04-3.06818E-09 3.60160E-10
 -1       538 1.17958E+05-1.74670E+03 1.67441E+04-6.96453E+03 4.22915E-10 1.71531E-09
 -1       539 1.20938E+05 2.08019E+03 9.41854E+03-3.09272E+04 1.87265E-09-3.54612E-09
 -1       540 1.19079E+05-2.18276E+02 4.22468E+03-6.99301E+03-1.08821E-09 2.02704E-09
 -1       541 1.19520E+05 1.99722E+02 2.24742E+03-3.08721E+04 3.41061E-12 2.25896E-10
 -1       542 1.19214E+05-3.09895E+01 1.06203E+03-7.01981E+03-2.37469E-09 9.42691E-10
 -1       543 1.19270E+05 3.52870E+01 5.62914E+02-3.08313E+04-5.41138E-09 3.60933E-09
 -1       544 1.19229E+05 7.85164E-01 2.92524E+02-7.03393E+03-2.48565E-09-1.97986E-10
 -1       545 1.19218E+05 3.27694E+01 1.95376E+02-3.08155E+04-7.78527E-10 1.48185E-09
 -1       546 1.19228E+05 3.37615E-01 1.78826E+02-7.03557E+03 1.57115E-10-2.18955E-09
 -1       547 1.19265E+05 7.53826E+01 2.84595E+02-3.08208E+04-4.91127E-11-3.85000E-09
 -1       548 1.19205E+05-4.98272E+01 4.56827E+02-7.02866E+03-9.35870E-10-1.71065E-09
 -1       549 1.19622E+05 5.53983E+02 1.11781E+03-3.07926E+04 4.07454E-10-2.29841E-09
 -1       550 1.18957E+05-4.51284E+02 1.70225E+03-7.06378E+03-3.31511E-10-1.20781E-09
 -1       551 1.63143E+04-3.17589E+05 3.22755E+04-4.82322E+05-3.60160E-10 6.47560E-10
 -1       552 8.52149E+03-3.12602E+05 2.44954E+04-5.62225E+05-1.08776E-09 3.67709E-09
 -1       553 5.62120E+03-3.17215E+05 2.72719E+04-4.81521E+05 1.41881E-10 1.39335E-09
 -1       554 1.85155E+04-3.07323E+05 5.01966E+04-5.62371E+05-1.54250E-09-2.94676E-10
 -1       555 4.85962E+04-3.23698E+05 9.47780E+04-4.82072E+05-1.10595E-09-3.88172E-09
 -1       556-2.54309E+05-1.29332E+05 1.91066E+04-2.31961E+05-7.41056E-09 5.67525E-10
 -1       557-2.35956E+05-1.49432E+05 9.39252E+03-2.46567E+05-2.36068E-08-4.79781E-09
 -1       558-2.54995E+05-1.35734E+05 3.92536E+03-2.28203E+05-8.73115E-09 1.10476E-08
 -1       559-2.37917E+05-1.52562E+05 1.93500E+03-2.47414E+05 9.74978E-10 5.84350E-11
 -1       560-2.55406E+05-1.35699E+05 8.46570E+02-2.28270E+05-1.44792E-09-1.21963E-09
 -1       561-2.38460E+05-1.52547E+05 4.02247E+02-2.47808E+05-7.27596E-11-7.63748E-10
 -1       562-2.55709E+05-1.35504E+05 1.29425E+02-2.28467E+05-5.49335E-10 6.68024E-10
 -1       563-2.38754E+05-1.52420E+05-3.13815E+01-2.48018E+05-6.83940E-10 1.67165E-09
 -1       564-2.55873E+05-1.35388E+05-2.32195E+02-2.28583E+05-2.41380E-09-7.30324E-09
 -1       565-2.38907E+05-1.52361E+05-5.73999E+02-2.48113E+05 4.51564E-10 3.09956E-09
 -1       566-2.55876E+05-1.35348E+05-1.22547E+03-2.28606E+05-2.24645E-10-7.93079E-10
 -1       567-2.39110E+05-1.52504E+05-2.71144E+03-2.48075E+05 4.09045E-10-2.43745E-09
 -1       568-2.55622E+05-1.35821E+05-5.58447E+03-2.28350E+05 1.04592E-09 5.87534E-10
 -1       569-2.42036E+05-1.56013E+05-1.31746E+04-2.47117E+05-1.39335E-09-4.07090E-09
 -1       570-2.54424E+05-1.46405E+05-2.69677E+04-2.23835E+05-6.00267E-11 1.38834E-09
 -1       571 3.42234E+05 1.67260E+04 2.60102E+04-8.60824E+04 3.91083E-10 2.29807E-09
 -1       572 3.46232E+05 5.65648E+03 1.27907E+04-9.50847E+04-1.92813E-10 1.66347E-09
 -1       573 3.43828E+05 1.22634E+03 5.69382E+03-8.58372E+04 7.00311E-11 1.81990E-09
 -1       574 3.44281E+05 3.73798E+02 2.86266E+03-9.53477E+04 3.00133E-11 4.04725E-10
 -1       575 3.43980E+05 2.29725E+01 1.35700E+03-8.58073E+04-4.07454E-10-1.77988E-09
 -1       576 3.44020E+05-3.75503E+00 6.96478E+02-9.53811E+04 6.93319E-10 7.69433E-10
 -1       577 3.44002E+05-2.48396E+01 3.52329E+02-8.58035E+04 4.83851E-10 1.41699E-09
 -1       578 3.44002E+05-2.14181E+01 2.08986E+02-9.53854E+04-6.63022E-10 2.91948E-10
 -1       579 3.44040E+05-3.61710E+01 1.57856E+02-8.58030E+04-2.47746E-09-8.00355E-11
 -1       580 3.44065E+05-4.68248E+01 1.97080E+02-9.53817E+04-1.39789E-09 2.76577E-09
 -1       581 3.44111E+05-6.52355E+01 3.21294E+02-8.58072E+04-1.47338E-09 1.54887E-09
 -1       582 3.44222E+05-1.51224E+01 6.50029E+02-9.53321E+04-1.12777E-10 1.84082E-09
 -1       583 3.44183E+05 1.42346E+02 1.26992E+03-8.58526E+04-9.84983E-09 9.98853E-10
 -1       584 3.44792E+05 1.09828E+03 2.85232E+03-9.49331E+04-2.28974E-08-1.05842E-09
 -1       585 3.43950E+05 3.54189E+03 5.78437E+03-8.62113E+04-9.77889E-09 3.43061E-09
 -1       586 2.58311E+03 1.33119E+05 4.55313E+03-2.25777E+05 1.94541E-09 1.25783E-09
 -1       587 1.55786E+03 1.33817E+05 4.50496E+03-2.50112E+05 2.69210E-10-2.35787E-09
 -1       588 1.82674E+03 1.32963E+05 6.54586E+03-2.25491E+05 2.19370E-09-1.15210E-09
 -1       589 6.33550E+03 1.35455E+05 1.35098E+04-2.50171E+05 5.43878E-10-1.72622E-09
 -1       590 1.76189E+04 1.31358E+05 2.69178E+04-2.25709E+05 1.95359E-09 7.07587E-10
 -1       591-1.49562E+05-5.37214E+04-2.88101E+04-7.95043E+04 6.07088E-11-6.87578E-10
 -1       592-1.50213E+05-5.00850E+04-1.40918E+04-8.83048E+04-1.03137E-09 1.52772E-09
 -1       593-1.50350E+05-4.27589E+04-5.97719E+03-8.44747E+04 2.49793E-09 5.26461E-09
 -1       594-1.47159E+05-4.61391E+04-2.92216E+03-8.88769E+04-2.26464E-10 5.74275E-10
 -1       595-1.50492E+05-4.23333E+04-1.34513E+03-8.47068E+04-1.48520E-09 2.09980E-09
 -1       596-1.46929E+05-4.59774E+04-6.83438E+02-8.88640E+04 8.64020E-10 6.89943E-09
 -1       597-1.50520E+05-4.23506E+04-3.74911E+02-8.47100E+04 2.54096E-09 4.34216E-09
 -1       598-1.46905E+05-4.59792E+04-3.05315E+02-8.88543E+04 1.32383E-09-2.37105E-09
 -1       599-1.50515E+05-4.23517E+04-3.94489E+02-8.47079E+04 1.19371E-10 2.67846E-09
 -1       600-1.46924E+05-4.59805E+04-7.35209E+02-8.88592E+04 1.11186E-10 2.20280E-09
 -1       601-1.50476E+05-4.23361E+04-1.45482E+03-8.47000E+04-1.20690E-09 1.15233E-09
 -1       602-1.47170E+05-4.61563E+04-3.16532E+03-8.88648E+04 8.52424E-10 3.47882E-09
 -1       603-1.50314E+05-4.28042E+04-6.47605E+03-8.44473E+04-1.00954E-10-1.88265E-09
 -1       604-1.50495E+05-5.04091E+04-1.52671E+04-8.82125E+04 7.33053E-10-2.18461E-09
 -1       605-1.49432E+05-5.46984E+04-3.12119E+04-7.90805E+04-7.73070E-11 2.12276E-09
 -1       606 1.01824E+05-1.30433E+04-2.02280E+04 2.95679E+04-6.80484E-09 2.21917E-09
 -1       607 9.86514E+04-4.41140E+03-9.94273E+03 3.23417E+04-1.42609E-09 1.88902E-09
 -1       608 1.00494E+05-9.53911E+02-4.42679E+03 2.93621E+04 3.91265E-09-1.99179E-10
 -1       609 1.00074E+05-2.59514E+02-2.22041E+03 3.25631E+04-3.89264E-09 2.66709E-10
 -1       610 1.00310E+05 1.94532E+01-1.04965E+03 2.93361E+04-6.85577E-09 4.56225E-09
 -1       611 1.00224E+05 6.22912E+01-5.28874E+02 3.25905E+04-1.17088E-08 4.03270E-09
 -1       612 1.00263E+05 7.29442E+01-2.52716E+02 2.93333E+04-5.84532E-09-2.22826E-09
 -1       613 1.00228E+05 8.09459E+01-1.18379E+02 3.25938E+04-8.77162E-09 1.49157E-10
 -1       614 1.00240E+05 7.39565E+01-3.94920E+01 2.93326E+04-1.74623E-10-3.20574E-09
 -1       615 1.00217E+05 8.63473E+01 1.96389E+01 3.25939E+04 8.79072E-09 2.54158E-09
 -1       616 1.00223E+05 8.20735E+01 8.69126E+01 2.93330E+04-3.55158E-09-2.29556E-09
 -1       617 1.00223E+05 1.21582E+02 2.10342E+02 3.25929E+04 2.31125E-09 1.14733E-09
 -1       618 1.00198E+05 1.80454E+02 4.31016E+02 2.93334E+04-2.41926E-10 9.41782E-10
 -1       619 1.00359E+05 5.31722E+02 9.75534E+02 3.25891E+04-3.52361E-09 1.71121E-09
 -1       620 1.00066E+05 1.37025E+03 1.98733E+03 2.93343E+04 2.57739E-09 5.24324E-10
 -1       621 2.75227E+03 3.42199E+05 6.47930E+03-3.24304E+04 3.05135E-10 2.73076E-09
 -1       622 1.06201E+03 3.43413E+05 5.22910E+03-3.79499E+04-1.74191E-09 6.38920E-11
 -1       623 6.28555E+02 3.42484E+05 6.28576E+03-3.24709E+04 3.01043E-10 4.93856E-10
 -1       624 3.63319E+03 3.44909E+05 1.19814E+04-3.77768E+04-1.31513E-09-1.28694E-10
 -1       625 1.11334E+04 3.40761E+05 2.28864E+04-3.25999E+04 2.15323E-10 1.24055E-09
 -1       626 1.42688E+05 4.63077E+04-9.62837E+03 9.75455E+04-4.02997E-09 9.65883E-10
 -1       627 1.38528E+05 5.27528E+04-4.57261E+03 9.92243E+04 1.00499E-09 1.70724E-09
 -1       628 1.42858E+05 5.10003E+04-1.92314E+03 9.52717E+04 1.67238E-08-1.13459E-09
 -1       629 1.39257E+05 5.46616E+04-9.23886E+02 9.90359E+04 1.71513E-08-1.51864E-08
 -1       630 1.42826E+05 5.13187E+04-4.09384E+02 9.50858E+04 1.21927E-08-4.79508E-09
 -1       631 1.39300E+05 5.48016E+04-1.85172E+02 9.90283E+04-4.90718E-09-4.66696E-09
 -1       632 1.42799E+05 5.13324E+04-5.67880E+01 9.50651E+04-1.01327E-08 2.01169E-09
 -1       633 1.39295E+05 5.48108E+04 3.33288E+01 9.90248E+04-7.96535E-09-8.75843E-10
 -1       634 1.42781E+05 5.13266E+04 1.40174E+02 9.50596E+04-2.58751E-09 2.67232E-09
 -1       635 1.39308E+05 5.48151E+04 3.39366E+02 9.90265E+04-5.98607E-09-1.50567E-09
 -1       636 1.42763E+05 5.13395E+04 7.13319E+02 9.50485E+04-6.15489E-09 2.42608E-09
 -1       637 1.39476E+05 5.49981E+04 1.59579E+03 9.90006E+04 2.97985E-09 2.65209E-09
 -1       638 1.42725E+05 5.18942E+04 3.30626E+03 9.48056E+04 7.26550E-09-1.07866E-09
 -1       639 1.41166E+05 5.78846E+04 7.86391E+03 9.83059E+04-2.94847E-09 6.07542E-10
 -1       640 1.42780E+05 6.02728E+04 1.65546E+04 9.13109E+04-1.52372E-08-5.15865E-09
 -1       641 3.85772E+03 2.98798E+03-7.01141E+03-2.89525E+02-1.20743E-08-5.32509E-09
 -1       642 8.60109E+02-3.45936E+03-4.93707E+03 1.30141E+03 1.74305E-09-1.72747E-09
 -1       643 2.69538E+03 4.61752E+02-1.80906E+03-2.86446E+02-1.94884E-08-6.04587E-10
 -1       644 2.20849E+03-5.30203E+02-1.11788E+03 1.29711E+03 6.47798E-09 5.95065E-09
 -1       645 2.50808E+03 6.93371E+01-4.34121E+02-2.85248E+02-8.47914E-09 1.62612E-09
 -1       646 2.42870E+03-6.99525E+01-2.06075E+02 1.29530E+03-3.78486E-07-1.79207E-09
 -1       647 2.47446E+03 3.37861E+00-2.71862E+00-2.84639E+02-2.86657E-05 6.31598E-08
 -1       648 2.48909E+03 4.19140E+01 1.85536E+02 1.29467E+03-5.66880E-05 1.26464E-07
 -1       649 2.44746E+03-4.21048E+01 4.24836E+02-2.84618E+02-2.86605E-05 6.15032E-08
 -1       650 2.64397E+03 3.25287E+02 1.02587E+03 1.29489E+03-3.59058E-07-2.06327E-10
 -1       651 2.31982E+03-2.79426E+02 1.79313E+03-2.84865E+02-4.47429E-09-2.01226E-09
 -1       652 3.52141E+03 2.09520E+03 4.41970E+03 1.29496E+03 1.60304E-08 1.15676E-10
 -1       653 1.57077E+03-1.80710E+03 7.06975E+03-2.84692E+02-1.21768E-08-3.37604E-09
 -1       654 8.83592E+03 1.35121E+04 1.92773E+04 1.28998E+03-1.52629E-09 1.42904E-09
 -1       655-2.99251E+03-1.16592E+04 2.73221E+04-2.79934E+02 2.37263E-09 2.02817E-09
 -1       656 1.07547E+04-3.88437E+05-4.55732E+04 9.37019E+03-7.67614E-10 2.41971E-09
 -1       657-1.55674E+04-4.05259E+05-3.34108E+04 3.93240E+04-1.22600E-09 3.67345E-09
 -1       658 2.11443E+03-3.94390E+05-2.10897E+04 9.27352E+03-1.37584E-09 5.04201E-10
 -1       659-1.41754E+04-4.04486E+05-3.10207E+04 3.93909E+04-1.53682E-09-5.33092E-10
 -1       660 9.62646E+03-3.89251E+05-4.10738E+04 9.30439E+03-2.21917E-09-3.85853E-09
 -1       661 3.84871E+05 4.86490E+04 3.16682E+04 1.50488E+05 8.97398E-09-1.76806E-09
 -1       662 3.92519E+05 7.37792E+04 2.01210E+04 1.54600E+05-5.80499E-10 1.38971E-09
 -1       663 3.90389E+05 5.62200E+04 7.48124E+03 1.49624E+05 6.53182E-09-1.04501E-09
 -1       664 3.86185E+05 6.41126E+04 4.15026E+03 1.55979E+05 8.76526E-10-1.25237E-09
 -1       665 3.91017E+05 5.70770E+04 1.75573E+03 1.49570E+05 1.92324E-09-3.84944E-10
 -1       666 3.85465E+05 6.30407E+04 9.58816E+02 1.56063E+05-3.31389E-09-1.53747E-10
 -1       667 3.91084E+05 5.71819E+04 5.32704E+02 1.49578E+05 6.72622E-09 1.82755E-09
 -1       668 3.85400E+05 6.29356E+04 5.01699E+02 1.56056E+05-8.76680E-09 2.49622E-09
 -1       669 3.91077E+05 5.71756E+04 7.00287E+02 1.49578E+05-5.16613E-09-1.53358E-09
 -1       670 3.85526E+05 6.31105E+04 1.42545E+03 1.56060E+05 1.80964E-08 2.14470E-09
 -1       671 3.90964E+05 5.70177E+04 2.69482E+03 1.49571E+05 5.00324E-09 3.56295E-10
 -1       672 3.86660E+05 6.47588E+04 6.42355E+03 1.55910E+05-9.21679E-09-3.71722E-09
 -1       673 3.89976E+05 5.57003E+04 1.15977E+04 1.49667E+05 1.33599E-09-1.11186E-09
 -1       674 3.96503E+05 7.97329E+04 3.12060E+04 1.53744E+05 1.16943E-08 2.56887E-09
 -1       675 3.81406E+05 4.39700E+04 4.91217E+04 1.51018E+05 5.88534E-09-3.55431E-09
 -1       676 1.39078E+03-3.64914E+05-6.55390E+03 4.93033E+02-6.70298E-10-3.24254E-09
 -1       677-2.51076E+03-3.67438E+05-6.58249E+03 3.62297E+02 3.31991E-09-4.78600E-09
 -1       678 7.20056E+02-3.65338E+05-7.12427E+03 4.91763E+02 2.89242E-09-7.09353E-10
 -1       679-7.48011E+03-3.70333E+05-1.51839E+04 3.61639E+02 4.90422E-09-1.21412E-09
 -1       680 5.51273E+03-3.62020E+05-2.27137E+04 4.92479E+02 3.16504E-10 6.64954E-10
 -1       681 5.29133E+05-1.42131E+04 3.32336E+04-1.56993E+03 3.20028E-11-7.93079E-10
 -1       682 5.43791E+05 1.64765E+04 2.35150E+04 8.88484E+03-3.83267E-10-7.50788E-10
 -1       683 5.34808E+05-2.20101E+03 8.62225E+03-5.83128E+02 7.51328E-10-2.64117E-09
 -1       684 5.37165E+05 2.56867E+03 5.42378E+03 7.53134E+03 1.02747E-09-2.25555E-09
 -1       685 5.35748E+05-3.40726E+02 2.25891E+03-2.16413E+02 8.36366E-10-2.49395E-09
 -1       686 5.36096E+05 4.27608E+02 1.40594E+03 7.33314E+03-8.65072E-10-2.80602E-09
 -1       687 5.35877E+05-6.51226E+01 8.09084E+02-3.84917E+02 1.16789E-09-2.64026E-09
 -1       688 5.36077E+05 1.79937E+02 8.86946E+02 8.24289E+03 5.47089E-10-2.72543E-09
 -1       689 5.35777E+05-1.00659E+02 1.14965E+03-1.12614E+03 6.83883E-10-1.67466E-09
 -1       690 5.36701E+05 7.16913E+02 2.50387E+03 1.04600E+04-1.31627E-09 1.13118E-10
 -1       691 5.35284E+05-6.22155E+02 4.05172E+03-2.60209E+03-9.90838E-10 1.45292E-10
 -1       692 5.39536E+05 4.65911E+03 1.02563E+04 1.44724E+04-3.66754E-09 5.23755E-10
 -1       693 5.33021E+05-4.08650E+03 1.58414E+04-5.13878E+03 1.25090E-09 2.70029E-09
 -1       694 5.53881E+05 3.05825E+04 4.43230E+04 2.12665E+04 6.65608E-09 1.07912E-09
 -1       695 5.21138E+05-2.65991E+04 6.13194E+04-9.39728E+03 5.83555E-09 5.26416E-09
 -1       696-1.02934E+04 4.29724E+05 2.36760E+04 2.64595E+03 8.54925E-11 1.37732E-10
 -1       697 1.11761E+04 4.39972E+05 1.53388E+04-1.34804E+04 1.01863E-10-3.72189E-10
 -1       698-8.29022E+02 4.34269E+05 3.20673E+03 2.02084E+03-1.83718E-10 1.11419E-09
 -1       699-3.93891E+03 4.32843E+05-4.52276E+03-1.31042E+04-3.33330E-10 2.83762E-09
 -1       700 4.77816E+03 4.36848E+05-1.05331E+04 2.26979E+03-1.99179E-10 1.29057E-09
 -1       701-4.75388E+05-4.31250E+04-6.02232E+04-1.87987E+05-2.70120E-10-1.49157E-10
 -1       702-5.04387E+05-1.00313E+05-4.16766E+04-1.80425E+05-2.69438E-10 2.48292E-10
 -1       703-4.88095E+05-6.40827E+04-1.41290E+04-1.83371E+05 2.96268E-10 8.11269E-10
 -1       704-4.89510E+05-7.61749E+04-8.79024E+03-1.85930E+05 4.21551E-10 8.25821E-10
 -1       705-4.90255E+05-6.71933E+04-3.30581E+03-1.82507E+05 2.28511E-11 5.24778E-10
 -1       706-4.87127E+05-7.24455E+04-1.96643E+03-1.86765E+05 5.00393E-10 1.74370E-09
 -1       707-4.90475E+05-6.78015E+04-9.16214E+02-1.82539E+05 1.56490E-10-1.04592E-10
 -1       708-4.87263E+05-7.14305E+04-7.86999E+02-1.86264E+05-1.02883E-09-8.07258E-10
 -1       709-4.90114E+05-6.82096E+04-8.95225E+02-1.83006E+05-5.10667E-10 2.33740E-10
 -1       710-4.88491E+05-7.08981E+04-1.85226E+03-1.85011E+05-9.86020E-11 9.74381E-10
 -1       711-4.89242E+05-6.83386E+04-3.15989E+03-1.83788E+05-2.95188E-10-2.97064E-10
 -1       712-4.91895E+05-7.32855E+04-8.32312E+03-1.82898E+05-6.34913E-10-8.79709E-10
 -1       713-4.86712E+05-6.58330E+04-1.34282E+04-1.85115E+05 8.08086E-10 8.94033E-10
 -1       714-5.06681E+05-9.56664E+04-3.95725E+04-1.77080E+05 1.32104E-10-3.41970E-10
 -1       715-4.74474E+05-4.60187E+04-5.71816E+04-1.89588E+05-1.43518E-09 2.37924E-09
 -1       716 3.83404E+05-2.11846E+04 4.90380E+04-6.66048E+03-7.51834E-09 5.44605E-09
 -1       717 4.08698E+05 2.43831E+04 3.53012E+04 1.40774E+04-2.63276E-09 4.38422E-09
 -1       718 3.92529E+05-3.26230E+03 1.26797E+04-4.05888E+03-2.20689E-09 2.82034E-09
 -1       719 3.97737E+05 3.71534E+03 8.25298E+03 9.77960E+03-1.04933E-09 3.57113E-09
 -1       720 3.94248E+05-5.02241E+02 3.34304E+03-2.36193E+03 1.46656E-09-9.57243E-11
 -1       721 3.95594E+05 5.90519E+02 2.27746E+03 6.94668E+03 5.54934E-10 7.06734E-10
 -1       722 3.94618E+05-1.08988E+02 1.38750E+03-1.22564E+03-5.57208E-10-4.79545E-10
 -1       723 3.95200E+05 3.38786E+02 1.78783E+03 5.04837E+03-1.55092E-09-1.08020E-09
 -1       724 3.94617E+05-2.34036E+02 2.56120E+03-4.63537E+02-1.62362E-09-1.52875E-09
 -1       725 3.95798E+05 1.69430E+03 5.55179E+03 3.77404E+03-2.16676E-09-1.05956E-10
 -1       726 3.94007E+05-1.45303E+03 9.43411E+03 4.87000E+01-2.42231E-09-1.56433E-09
 -1       727 4.00265E+05 1.08998E+04 2.30793E+04 2.91180E+03-3.61746E-09-3.03953E-09
 -1       728 3.90142E+05-9.40747E+03 3.68773E+04 3.98640E+02-1.35154E-09-2.41198E-09
 -1       729 4.27858E+05 7.03743E+04 1.00445E+05 2.26911E+03-1.06303E-09-2.69210E-09
 -1       730 3.66420E+05-6.07210E+04 1.42456E+05 6.90916E+02 3.05789E-10-1.48430E-09
 -1       731-1.48786E+04 1.78320E+05 2.95773E+04 1.96165E+04-1.69166E-09 9.22228E-10
 -1       732 1.69332E+04 2.15254E+05 2.57667E+04-8.10848E+04-6.09589E-10-9.40872E-10
 -1       733-2.39485E+03 1.92947E+05 9.48656E+03 1.68950E+04 4.32829E-09 2.74758E-09
 -1       734 5.81222E+03 1.99274E+05 9.61357E+03-7.81692E+04 7.36217E-09 5.94491E-09
 -1       735-3.09098E+03 1.93297E+05 7.75387E+03 1.66998E+04 3.83261E-09 4.12604E-09
 -1       736-9.70307E+05-8.55858E+04-8.04438E+04-3.47218E+05-5.23596E-09-1.55342E-09
 -1       737-9.31453E+05-2.16102E+05-5.23297E+04-4.04526E+05-1.31715E-08-3.92720E-09
 -1       738-9.85279E+05-1.03340E+05-1.82686E+04-3.30111E+05-1.07752E-09 3.98359E-10
 -1       739-9.13626E+05-1.88540E+05-1.05797E+04-4.15897E+05 8.27549E-09 7.01493E-09
 -1       740-9.88387E+05-1.12854E+05-5.35075E+03-3.36074E+05 2.32467E-09 9.90963E-09
 -1       741-9.13256E+05-1.62696E+05 1.75913E+03-3.88693E+05 3.72665E-09 1.71750E-08
 -1       742-9.84370E+05-1.30098E+05-4.66359E+03-3.56392E+05-5.24869E-09 2.20837E-09
 -1       743-9.35892E+05-1.27807E+05 5.45360E+03-3.47103E+05 7.85622E-09 2.20342E-09
 -1       744-9.65005E+05-1.48278E+05-4.25859E+03-3.77079E+05 6.02449E-09-1.87583E-09
 -1       745-9.80693E+05-9.79761E+04 1.67646E+03-3.15364E+05-1.28633E-08-6.75027E-09
 -1       746-9.40545E+05-1.59220E+05-4.11750E+03-3.88848E+05-7.18558E-09-2.87239E-08
 -1       747-1.01376E+06-8.75520E+04-8.40533E+03-3.01965E+05 4.95346E-09 8.23684E-09
 -1       748-9.33049E+05-1.57911E+05-1.45423E+04-3.91342E+05-1.98302E-08-1.71167E-09
 -1       749-1.01389E+06-1.18306E+05-4.04366E+04-3.02551E+05 7.44035E-09-1.25146E-09
 -1       750-9.39915E+05-1.28914E+05-6.44093E+04-3.87828E+05-7.73070E-10 4.42014E-09
 -1       751 2.67737E+06-1.49266E+05 3.50716E+05 9.94053E+03-1.41822E-08-2.53203E-09
 -1       752 2.82909E+06 1.72979E+05 2.47285E+05-1.39372E+04-3.18390E-09-2.18279E-09
 -1       753 2.73613E+06-2.31172E+04 9.09013E+04 3.09324E+03-2.38808E-09 8.36735E-11
 -1       754 2.76088E+06 2.67705E+04 5.69230E+04-4.84764E+03-6.28859E-10 1.46338E-09
 -1       755 2.74574E+06-3.57324E+03 2.34233E+04 8.52948E+02-8.39130E-10-8.74024E-10
 -1       756 2.74977E+06 4.18894E+03 1.39514E+04-1.87030E+03-1.48371E-09 1.31809E-09
 -1       757 2.74732E+06-6.05500E+02 6.90799E+03 1.15924E+02-6.95715E-10 5.53882E-10
 -1       758 2.74814E+06 1.08490E+03 5.53741E+03-9.35898E+02-7.69617E-10-5.05793E-10
 -1       759 2.74739E+06-4.77512E+02 5.69437E+03-8.14711E+01 8.49102E-10 6.26073E-10
 -1       760 2.74916E+06 3.07611E+03 1.04585E+04-8.24705E+02 2.43489E-09 5.71629E-09
 -1       761 2.74628E+06-2.59102E+03 1.71078E+04 4.72920E+00-3.87141E-10 1.15779E-09
 -1       762 2.75714E+06 1.93699E+04 4.12375E+04-1.39362E+03 8.71307E-10 2.82989E-09
 -1       763 2.73936E+06-1.67199E+04 6.57536E+04 4.87453E+02 3.99591E-09 2.69938E-09
 -1       764 2.80617E+06 1.25056E+05 1.78726E+05-3.41211E+03 1.68961E-09 2.99769E-09
 -1       765 2.69707E+06-1.07903E+05 2.53490E+05 2.02293E+03-9.54259E-10 6.98492E-10
 -1       766-6.10559E+04 3.57000E+05 1.44646E+05-1.23236E+04 1.89175E-09 4.57590E-10
 -1       767 7.48271E+04 4.22867E+05 1.09892E+05 5.15800E+04 1.45519E-10 6.43581E-10
 -1       768-1.35487E+04 3.79652E+05 5.29155E+04-1.14607E+04-5.90262E-10-8.91760E-10
 -1       769 4.32077E+04 4.10444E+05 6.87010E+04 5.33235E+04 2.12640E-09 9.12763E-10
 -1       770-2.96911E+04 3.69619E+05 7.22520E+04-1.40678E+04 2.80488E-09 3.45631E-09
 -1       771-1.50759E+06-3.05807E+05-5.71901E+04-6.49310E+05 3.65799E-09 4.98403E-09
 -1       772-1.50496E+06-3.02212E+05-2.79381E+04-6.70938E+05-4.50018E-09 5.32964E-09
 -1       773-1.50973E+06-2.83649E+05-1.18864E+04-6.58954E+05-1.57524E-09 2.08092E-09
 -1       774-1.49883E+06-2.94710E+05-5.79244E+03-6.72799E+05 1.91358E-09-5.47061E-10
 -1       775-1.51033E+06-2.82588E+05-2.68690E+03-6.59515E+05-1.18962E-09 9.17680E-10
 -1       776-1.49857E+06-2.94358E+05-1.35156E+03-6.73074E+05-1.78807E-09 8.70159E-10
 -1       777-1.51064E+06-2.82474E+05-7.44962E+02-6.59635E+05-2.67755E-09-6.35464E-09
 -1       778-1.49870E+06-2.94305E+05-5.77390E+02-6.73259E+05 1.32059E-09 7.18956E-10
 -1       779-1.51082E+06-2.82368E+05-7.33423E+02-6.59720E+05 9.21318E-09 1.57063E-08
 -1       780-1.49887E+06-2.94267E+05-1.33895E+03-6.73411E+05 8.14907E-10-6.91216E-11
 -1       781-1.51087E+06-2.82266E+05-2.64767E+03-6.59764E+05 1.70439E-09 8.04812E-09
 -1       782-1.49939E+06-2.94569E+05-5.75943E+03-6.73512E+05-2.91038E-10 1.61799E-09
 -1       783-1.51064E+06-2.83078E+05-1.17895E+04-6.59329E+05-2.28556E-09-1.09685E-09
 -1       784-1.50542E+06-3.02387E+05-2.78192E+04-6.72432E+05-2.24281E-09-2.29193E-09
 -1       785-1.50911E+06-3.04697E+05-5.68871E+04-6.49495E+05-4.85102E-10-2.36469E-10
 -1       786 3.37493E+05-1.03406E+04 4.22520E+04-1.87921E+03 4.06089E-10-1.02591E-09
 -1       787 3.52917E+05 1.37183E+04 2.72362E+04-8.54704E+03-2.52953E-10 6.76209E-10
 -1       788 3.43916E+05-1.09423E+03 1.09583E+04-1.88584E+03-4.12456E-10 5.65251E-10
 -1       789 3.45739E+05 1.39690E+03 6.15466E+03-8.52321E+03 3.44528E-10 3.76986E-10
 -1       790 3.44663E+05-1.20516E+02 2.78810E+03-1.90201E+03 3.69198E-10 7.27027E-10
 -1       791 3.44891E+05 1.40212E+02 1.50417E+03-8.49975E+03 4.49063E-12 3.00642E-09
 -1       792 3.44760E+05-1.52101E+01 7.74417E+02-1.90929E+03 1.89118E-10 5.25972E-10
 -1       793 3.44785E+05 1.91543E+01 5.26370E+02-8.49473E+03-5.28466E-10-1.63985E-09
 -1       794 3.44768E+05-9.04612E+00 5.01806E+02-1.90703E+03-2.61480E-12 1.38442E-09
 -1       795 3.44823E+05 6.61330E+01 7.83759E+02-8.50924E+03 5.11591E-10 2.47805E-10
 -1       796 3.44725E+05-5.87376E+01 1.35927E+03-1.89479E+03-2.74440E-10-1.31661E-09
 -1       797 3.45228E+05 6.61523E+02 2.94526E+03-8.54131E+03-2.49315E-10-8.85763E-10
 -1       798 3.44371E+05-5.23166E+02 5.22079E+03-1.87496E+03-4.52246E-10 5.32054E-11
 -1       799 3.48649E+05 6.52167E+03 1.29626E+04-8.57011E+03-1.03591E-09-3.77213E-10
 -1       800 3.41315E+05-4.92474E+03 2.01003E+04-1.86658E+03 9.16316E-11 5.47516E-10
 -1       801-1.36732E+04 3.70785E+05 4.99286E+04-1.95979E+05 5.07498E-10 4.99858E-09
 -1       802 2.90656E+04 3.86470E+05 4.97972E+04-8.52350E+05 9.80435E-09 7.47241E-09
 -1       803-2.11333E+03 3.72666E+05 4.90410E+04-1.95677E+05 5.34055E-09 5.13580E-09
 -1       804 5.81322E+04 4.04281E+05 1.00578E+05-8.52309E+05 6.89761E-09-2.21917E-09
 -1       805-3.83713E+04 3.53927E+05 1.45183E+05-1.96033E+05 5.10045E-09 6.98492E-10
 -1       806-3.27696E+05-8.53920E+04-2.83057E+04-1.48446E+05 6.10726E-10 2.89219E-10
 -1       807-3.28066E+05-7.81723E+04-1.34453E+04-1.56858E+05 2.08047E-10-1.62345E-09
 -1       808-3.27579E+05-7.11081E+04-5.65609E+03-1.54502E+05 5.57748E-09 6.91853E-09
 -1       809-3.25275E+05-7.31562E+04-2.73549E+03-1.57987E+05-9.09495E-12-1.48850E-09
 -1       810-3.27654E+05-7.01554E+04-1.23882E+03-1.54935E+05-1.65755E-10 3.41061E-11
 -1       811-3.25006E+05-7.28311E+04-6.22766E+02-1.58030E+05-1.72236E-10-2.70347E-10
 -1       812-3.27677E+05-7.01300E+04-3.29470E+02-1.54954E+05 1.96513E-09 7.84758E-09
 -1       813-3.24976E+05-7.28230E+04-2.50027E+02-1.58022E+05 8.98581E-09 2.09470E-08
 -1       814-3.27673E+05-7.01340E+04-3.00239E+02-1.54951E+05-1.75987E-09-8.30050E-09
 -1       815-3.24994E+05-7.28344E+04-5.45188E+02-1.58020E+05-1.06434E-09 2.64481E-09
 -1       816-3.27643E+05-7.01616E+04-1.07183E+03-1.54929E+05-1.44973E-09 2.84990E-09
 -1       817-3.25222E+05-7.31128E+04-2.36090E+03-1.57969E+05 1.40517E-09-9.86802E-11
 -1       818-3.27565E+05-7.09946E+04-4.87882E+03-1.54557E+05-1.45519E-09-5.97174E-09
 -1       819-3.27668E+05-7.73921E+04-1.15944E+04-1.56932E+05 1.02636E-09-1.27329E-09
 -1       820-3.27612E+05-8.33522E+04-2.44083E+04-1.49376E+05-9.00127E-09-2.57560E-08
 -1       821-3.17367E+05 1.00508E+04-4.10876E+04 1.85536E+03-3.15231E-09 3.33785E-09
 -1       822-3.32345E+05-1.33426E+04-2.64860E+04 8.81431E+03-2.44745E-09-2.47883E-09
 -1       823-3.23617E+05 1.05990E+03-1.06602E+04 1.78096E+03 3.88968E-09-2.28283E-10
 -1       824-3.25386E+05-1.34683E+03-5.98862E+03 8.92261E+03-1.05229E-09 3.46927E-09
 -1       825-3.24344E+05 1.17560E+02-2.72440E+03 1.74600E+03-6.36715E-09-5.34783E-10
 -1       826-3.24578E+05-1.17743E+02-1.48772E+03 8.98044E+03-1.25729E-08-3.95289E-10
 -1       827-3.24439E+05 1.87629E+01-8.05232E+02 1.72289E+03-5.88966E-09 5.14035E-10
 -1       828-3.24489E+05-2.14935E-01-6.19369E+02 9.01681E+03-8.28612E-09 1.58320E-09
 -1       829-3.24443E+05 1.76703E+01-6.97992E+02 1.70958E+03 1.04546E-09 1.35110E-10
 -1       830-3.24562E+05-8.44060E+01-1.20603E+03 9.03258E+03 5.86491E-09 1.62193E-09
 -1       831-3.24371E+05 9.72943E+01-2.16341E+03 1.70712E+03-3.28534E-09-1.27784E-10
 -1       832-3.25206E+05-1.05014E+03-4.73243E+03 9.02669E+03-1.38886E-09-2.70234E-09
 -1       833-3.23798E+05 8.42568E+02-8.41067E+03 1.71567E+03 2.19904E-09 1.09640E-09
 -1       834-3.30703E+05-1.05104E+04-2.08955E+04 8.98716E+03 7.71996E-09-9.79526E-10
 -1       835-3.18870E+05 7.93670E+03-3.24094E+04 1.74848E+03 6.45935E-09-3.61979E-10
 -1       836-1.69184E+04 8.59255E+05 7.27594E+04-2.09217E+04-1.21508E-09-2.34741E-09
 -1       837 2.54260E+04 8.86338E+05 5.67136E+04-8.86780E+04 1.23032E-09-2.04295E-09
 -1       838-4.12548E+03 8.67911E+05 4.13939E+04-2.09698E+04-1.96042E-09 2.74554E-11
 -1       839 3.29286E+04 8.90691E+05 6.96994E+04-8.86588E+04 1.87356E-09 8.80391E-10
 -1       840-2.31235E+04 8.54880E+05 9.71797E+04-2.09402E+04-1.73532E-09-7.09406E-11
 -1       841-5.61845E+04-1.75809E+03-1.62279E+04-2.40196E+04-3.40106E-09 2.47383E-10
 -1       842-6.52275E+04-1.59626E+04-1.12308E+04-2.06102E+04-3.74916E-09 1.36879E-09
 -1       843-5.94534E+04-7.56871E+03-3.80478E+03-2.29652E+04 3.38895E-09-2.14186E-09
 -1       844-6.14510E+04-9.21347E+03-2.36085E+03-2.18105E+04 1.09424E-12-4.83342E-09
 -1       845-5.99590E+04-8.48904E+03-8.76570E+02-2.28263E+04-1.58232E-09-1.67316E-09
 -1       846-6.08748E+04-8.13487E+03-4.94291E+02-2.19588E+04-7.74804E-09-3.88430E-09
 -1       847-6.00297E+04-8.64443E+03-1.78859E+02-2.28183E+04-2.56953E-09-7.80055E-10
 -1       848-6.07902E+04-7.93956E+03-5.34887E+01-2.19647E+04 7.43052E-09 4.78344E-10
 -1       849-6.00438E+04-8.68380E+03 5.80060E+01-2.28208E+04 3.64813E-09-1.15974E-09
 -1       850-6.07280E+04-7.82581E+03 2.37058E+02-2.19760E+04-4.45556E-10 8.20624E-10
 -1       851-6.00920E+04-8.75789E+03 4.43192E+02-2.28071E+04-1.95535E-09-6.64755E-10
 -1       852-6.03957E+04-7.29496E+03 1.21322E+03-2.20825E+04 6.84337E-09 2.19322E-09
 -1       853-6.03757E+04-9.21339E+03 1.95610E+03-2.27146E+04 1.59835E-09 1.07445E-09
 -1       854-5.83920E+04-3.86840E+03 5.78534E+03-2.27555E+04-3.43709E-09-3.70562E-10
 -1       855-6.20938E+04-1.21753E+04 8.35399E+03-2.21372E+04-2.77737E-10-6.72571E-10
 -1       856-3.73087E+05 9.15146E+03-3.74620E+04 3.75898E+03-4.57931E-09-2.43199E-09
 -1       857-3.86727E+05-1.21235E+04-2.41387E+04 1.81460E+04-4.62114E-09-1.50976E-09
 -1       858-3.78788E+05 9.68192E+02-9.71958E+03 3.62928E+03-4.13138E-09-2.02499E-09
 -1       859-3.80421E+05-1.17632E+03-5.45417E+03 1.83349E+04 3.26884E-09-7.27596E-10
 -1       860-3.79456E+05 1.16727E+02-2.47840E+03 3.56798E+03 4.07317E-09-9.19954E-10
 -1       861-3.79706E+05-4.69651E+01-1.34325E+03 1.84275E+04-4.04282E-09 1.64664E-09
 -1       862-3.79545E+05 3.02546E+01-7.09711E+02 3.53616E+03 8.69034E-09-5.29099E-10
 -1       863-3.79630E+05 6.50590E+01-5.14984E+02 1.84667E+04 2.14320E-08-2.46663E-09
 -1       864-3.79551E+05 2.77041E+01-5.40278E+02 3.52873E+03 9.13221E-09-9.26292E-10
 -1       865-3.79674E+05 3.14720E+00-8.97099E+02 1.84562E+04 1.40135E-08-1.67564E-09
 -1       866-3.79496E+05 8.21808E+01-1.59131E+03 3.54663E+03 7.84439E-10 1.10327E-09
 -1       867-3.80124E+05-7.11830E+02-3.46507E+03 1.83941E+04-3.83113E-09 1.08685E-10
 -1       868-3.79073E+05 6.19997E+02-6.15997E+03 3.59117E+03 5.13637E-09-9.56788E-10
 -1       869-3.84108E+05-7.64665E+03-1.52874E+04 1.82421E+04-9.72614E-09-1.09890E-09
 -1       870-3.75462E+05 5.79839E+03-2.37250E+04 3.70042E+03 1.21099E-09-1.01682E-09
 -1       871-3.35452E+03-3.10222E+04-5.84878E+03 8.72849E+04 2.17733E-09 3.53793E-09
 -1       872-1.12078E+03-3.20469E+04-1.69623E+03 1.01661E+05-3.88900E-09 2.58729E-09
 -1       873-2.56750E-01-3.16856E+04 1.73512E+03 8.71212E+04 3.25508E-09 1.57834E-08
 -1       874 2.00843E+03-3.02983E+04 6.44780E+03 1.01739E+05-3.18778E-09 3.21309E-08
 -1       875 6.80323E+03-3.28433E+04 1.39434E+04 8.72206E+04 3.03953E-09 2.11030E-08
 -1       876 4.36405E+05 5.41373E+04 4.14517E+04 1.71642E+05 1.06720E-08 2.18279E-09
 -1       877 4.46029E+05 8.74535E+04 2.63399E+04 1.77508E+05 3.86819E-11 7.49878E-10
 -1       878 4.43613E+05 6.40659E+04 9.78916E+03 1.70526E+05 3.56590E-09 4.63524E-09
 -1       879 4.37755E+05 7.47725E+04 5.42924E+03 1.79273E+05-5.13444E-09-2.60218E-09
 -1       880 4.44419E+05 6.52047E+04 2.28787E+03 1.70470E+05-1.73782E-09-1.02864E-09
 -1       881 4.36830E+05 7.33444E+04 1.23507E+03 1.79348E+05-3.87945E-09-3.65941E-09
 -1       882 4.44496E+05 6.53564E+04 6.55363E+02 1.70493E+05 8.09337E-09 2.60192E-09
 -1       883 4.36754E+05 7.31816E+04 5.65045E+02 1.79312E+05-8.80812E-09 3.59418E-09
 -1       884 4.44484E+05 6.53631E+04 7.33185E+02 1.70503E+05-3.54798E-09 3.90497E-09
 -1       885 4.36885E+05 7.33440E+04 1.45027E+03 1.79303E+05 1.69608E-08 3.88150E-09
 -1       886 4.44367E+05 6.52062E+04 2.72294E+03 1.70498E+05 7.16324E-09-3.92561E-09
 -1       887 4.38028E+05 7.50073E+04 6.47853E+03 1.79155E+05-7.47951E-09-1.02982E-08
 -1       888 4.43376E+05 6.38726E+04 1.16921E+04 1.70590E+05 1.62704E-09-5.69344E-10
 -1       889 4.47944E+05 9.01120E+04 3.14579E+04 1.76989E+05 9.99131E-09 1.80989E-09
 -1       890 4.34746E+05 5.20385E+04 4.95144E+04 1.71944E+05 4.28690E-09 2.11003E-10
 -1       891 1.62250E+03-1.93361E+05-7.40635E+03 1.82551E+04 1.56251E-09-1.00772E-09
 -1       892-2.75697E+03-1.95988E+05-6.00973E+03 7.92141E+04 9.92031E-10-2.27294E-09
 -1       893 4.55858E+02-1.94199E+05-4.79855E+03 1.81604E+04 2.35150E-09 2.81483E-09
 -1       894-4.28326E+03-1.96864E+05-8.64482E+03 7.92056E+04 6.56746E-09 6.36157E-09
 -1       895 2.87890E+03-1.92471E+05-1.23608E+04 1.82630E+04 1.12323E-09 5.37739E-09
 -1       896 7.04400E+05-5.28067E+03 1.23333E+04 2.00256E+03 2.92800E-10 1.76169E-09
 -1       897 7.09919E+05 6.11093E+03 8.74957E+03-5.62197E+03-2.96701E-10 2.87855E-10
 -1       898 7.06537E+05-8.16742E+02 3.20654E+03 9.19237E+02 1.20878E-10-3.21961E-10
 -1       899 7.07416E+05 9.46852E+02 2.03434E+03-3.98740E+03 2.13447E-11-1.13027E-09
 -1       900 7.06896E+05-1.27228E+02 8.67667E+02 3.67980E+02 3.94181E-10-1.42941E-09
 -1       901 7.07000E+05 1.60753E+02 5.86135E+02-3.25351E+03 1.30038E-10-1.71082E-09
 -1       902 7.06951E+05-3.10307E+01 4.20960E+02 1.85330E+02 4.14705E-10-1.40702E-09
 -1       903 7.06980E+05 1.16245E+02 5.84944E+02-3.20336E+03 4.31436E-10-1.55081E-09
 -1       904 7.06916E+05-8.27721E+01 9.09365E+02 3.17835E+02-3.84865E-10-1.45548E-09
 -1       905 7.07269E+05 6.09689E+02 1.99906E+03-3.82232E+03-1.40915E-10-1.11928E-09
 -1       906 7.06663E+05-5.24826E+02 3.41186E+03 8.04302E+02 4.86438E-10-9.61336E-10
 -1       907 7.08994E+05 3.93989E+03 8.37948E+03-5.29166E+03 6.42032E-10 2.58979E-10
 -1       908 7.05196E+05-3.40824E+03 1.33481E+04 1.78720E+03-4.40480E-10 1.33332E-09
 -1       909 7.19272E+05 2.55018E+04 3.64728E+04-8.06917E+03-1.34139E-09 2.17915E-09
 -1       910 6.96398E+05-2.20303E+04 5.15451E+04 3.58171E+03-1.31422E-10 3.91083E-09
 -1       911 1.67724E+05-1.81220E+03 3.86564E+03 3.15001E+03 1.26340E-09 3.56818E-09
 -1       912 1.71318E+05 2.05494E+03 3.07382E+03-1.22848E+04-6.45457E-11-8.13429E-10
 -1       913 1.68866E+05-2.80462E+02 9.95129E+02 2.40735E+03-4.04270E-10-2.26277E-09
 -1       914 1.69771E+05 3.30614E+02 7.46988E+02-1.11117E+04-5.91399E-10-4.57459E-09
 -1       915 1.69202E+05-4.47374E+01 3.02106E+02 1.97677E+03 2.11233E-09-5.59334E-09
 -1       916 1.69322E+05 8.87377E+01 2.65986E+02-1.05347E+04 3.73912E-09-6.69126E-09
 -1       917 1.69284E+05-1.75415E+01 2.64435E+02 1.83044E+03 2.94158E-09-6.77133E-09
 -1       918 1.69333E+05 1.19012E+02 4.70511E+02-1.05160E+04 1.82083E-09-6.94205E-09
 -1       919 1.69189E+05-7.43088E+01 7.84118E+02 1.95805E+03 2.05137E-09-6.56638E-09
 -1       920 1.69880E+05 5.62152E+02 1.85070E+03-1.10545E+04 1.62535E-09-4.62583E-09
 -1       921 1.68766E+05-4.79797E+02 3.03349E+03 2.36889E+03 1.24038E-09-2.98428E-09
 -1       922 1.72072E+05 3.56326E+03 7.75989E+03-1.21909E+04 3.31536E-09-3.97222E-10
 -1       923 1.67064E+05-3.11300E+03 1.19655E+04 3.09447E+03 3.70960E-10 2.31603E-09
 -1       924 1.82503E+05 2.31760E+04 3.34563E+04-1.40618E+04-3.04885E-09 6.64340E-09
 -1       925 1.58457E+05-2.01127E+04 4.64510E+04 4.24024E+03-1.41722E-09 1.00026E-08
 -1       926-8.40632E+05 1.84561E+04-4.33763E+04-8.79502E+03 3.56560E-09 1.48302E-08
 -1       927-8.59050E+05-2.13223E+04-3.05181E+04 1.26254E+04-9.97483E-09 1.37479E-08
 -1       928-8.48233E+05 2.81287E+03-1.12953E+04-6.63405E+03 1.65579E-09 1.17725E-08
 -1       929-8.49792E+05-3.25059E+03-6.77731E+03 6.53374E+03 9.23060E-09 7.50833E-09
 -1       930-8.49800E+05 3.84653E+02-2.98212E+03-2.70314E+03 1.12664E-09 6.06349E-09
 -1       931-8.48032E+05-4.70111E+02-1.29364E+03-1.88201E+03-2.70347E-10 1.94584E-09
 -1       932-8.49957E+05 1.53635E+01-7.32674E+02 1.78159E+03 1.46315E-10-9.10234E-10
 -1       933-8.48281E+05 1.74279E+01 9.02084E+01-9.98700E+03 6.24993E-11-4.52620E-09
 -1       934-8.49600E+05-6.38330E+01 2.99208E+02 5.40170E+03 1.08065E-09-5.95958E-09
 -1       935-8.48851E+05 4.30814E+02 1.18358E+03-1.52139E+04-4.47088E-10-8.65893E-09
 -1       936-8.49461E+05-3.40104E+02 2.09145E+03 7.00868E+03 1.18654E-10-8.72615E-09
 -1       937-8.47941E+05 2.54758E+03 5.23779E+03-1.59042E+04-4.84306E-09-9.24592E-09
 -1       938-8.50520E+05-2.16471E+03 8.32973E+03 6.09215E+03-4.32220E-09-8.28459E-09
 -1       939-8.40959E+05 1.61008E+04 2.29873E+04-1.18521E+04-2.08368E-09-5.30258E-09
 -1       940-8.56365E+05-1.38972E+04 3.22310E+04 2.95631E+03-8.64588E-10-2.19552E-09
 -1       941 4.24946E+06-2.09283E+05 4.92535E+05 3.96874E+02 1.58407E-08 4.97676E-09
 -1       942 4.46114E+06 2.42612E+05 3.46959E+05 1.99936E+03 1.61262E-08-3.67436E-09
 -1       943 4.33151E+06-3.24347E+04 1.27705E+05 9.36893E+02 7.45404E-09 4.36557E-10
 -1       944 4.36610E+06 3.75701E+04 7.99709E+04 1.32652E+03-4.32601E-11-8.42192E-10
 -1       945 4.34498E+06-5.01704E+03 3.29729E+04 1.06984E+03 3.49859E-09 3.92720E-09
 -1       946 4.35060E+06 5.89251E+03 1.97097E+04 1.15509E+03 3.26679E-09 6.30462E-09
 -1       947 4.34719E+06-8.59915E+02 9.89840E+03 1.10839E+03 1.23211E-09 4.33647E-09
 -1       948 4.34836E+06 1.59929E+03 8.18229E+03 1.08410E+03 1.80852E-09 3.45183E-09
 -1       949 4.34727E+06-7.35838E+02 8.72343E+03 1.14085E+03 1.73054E-09-4.66116E-09
 -1       950 4.35002E+06 4.81442E+03 1.63298E+04 9.50154E+02 5.46662E-09 8.03630E-09
 -1       951 4.34550E+06-4.06590E+03 2.68612E+04 1.24232E+03 2.22131E-09-5.67161E-09
 -1       952 4.36253E+06 3.04097E+04 6.48092E+04 4.40995E+02-1.07259E-09-1.16415E-09
 -1       953 4.33460E+06-2.62490E+04 1.03381E+05 1.64994E+03-3.63048E-09 3.25963E-09
 -1       954 4.43945E+06 1.96336E+05 2.80792E+05-1.66690E+03-3.89421E-09-2.67755E-09
 -1       955 4.26814E+06-1.69378E+05 3.98434E+05 3.34947E+03-1.20570E-08 2.47383E-09
 -1       956-2.32696E+05-3.93845E+03-8.07798E+03 3.36122E+04-6.33918E-09-2.04273E-09
 -1       957-2.34161E+05-1.23027E+03-4.06710E+03 3.88502E+04-2.34650E-09-5.34328E-10
 -1       958-2.33367E+05-1.33010E+02-1.82943E+03 3.34067E+04 4.91400E-09-1.37038E-09
 -1       959-2.33513E+05 1.11703E+01-9.29341E+02 3.90753E+04-1.73441E-09 4.61114E-10
 -1       960-2.33457E+05 6.52540E+01-4.51474E+02 3.33846E+04-4.80759E-09-2.03772E-09
 -1       961-2.33481E+05 8.20019E+01-2.37637E+02 3.91001E+04-9.72932E-09 5.51154E-10
 -1       962-2.33488E+05 7.63112E+01-1.33926E+02 3.33815E+04-3.36422E-09-2.87218E-09
 -1       963-2.33494E+05 9.24705E+01-1.02916E+02 3.91041E+04-7.86235E-09 2.84945E-09
 -1       964-2.33502E+05 8.42579E+01-1.19974E+02 3.33804E+04-4.33215E-09-1.02659E-09
 -1       965-2.33511E+05 9.90019E+01-2.03087E+02 3.91043E+04 2.95216E-09 1.05297E-09
 -1       966-2.33500E+05 8.94877E+01-3.79317E+02 3.33813E+04-4.01556E-09-5.24324E-10
 -1       967-2.33564E+05 5.41098E+01-7.80270E+02 3.90933E+04 3.21916E-09 2.78942E-09
 -1       968-2.33446E+05-6.34210E+01-1.53339E+03 3.33917E+04 1.11640E-09-6.57792E-10
 -1       969-2.34132E+05-9.75868E+02-3.41294E+03 3.89857E+04 8.30141E-10 3.09660E-09
 -1       970-2.32899E+05-3.24981E+03-6.77660E+03 3.34932E+04 2.57023E-09-1.34241E-09
 -1       971-5.07717E+05 7.69979E+03-3.15500E+04 3.60539E+03-3.91628E-09 5.54610E-09
 -1       972-5.19172E+05-1.02063E+04-2.03268E+04 1.79526E+04-2.33922E-09 3.46154E-09
 -1       973-5.12518E+05 8.12386E+02-8.19111E+03 3.43770E+03-7.39055E-09 3.04362E-09
 -1       974-5.13874E+05-9.83715E+02-4.60243E+03 1.82064E+04 1.85355E-09 6.01608E-09
 -1       975-5.13081E+05 9.80658E+01-2.10908E+03 3.34991E+03 4.39422E-09 1.75601E-09
 -1       976-5.13282E+05-2.95757E+01-1.17449E+03 1.83429E+04-4.73028E-09 5.03485E-09
 -1       977-5.13155E+05 2.78656E+01-6.84038E+02 3.30084E+03 7.47798E-09 2.05978E-09
 -1       978-5.13234E+05 6.08639E+01-6.11860E+02 1.84074E+04 1.94561E-08 2.04145E-09
 -1       979-5.13153E+05 3.28502E+01-8.01266E+02 3.28522E+03 1.03594E-08 3.10141E-09
 -1       980-5.13330E+05-5.42313E+01-1.48742E+03 1.84044E+04 1.43477E-08 3.89787E-09
 -1       981-5.13058E+05 1.31789E+02-2.72581E+03 3.30390E+03-3.16174E-09 8.93692E-10
 -1       982-5.14132E+05-1.28842E+03-5.99569E+03 1.83320E+04-1.98293E-09 6.57957E-09
 -1       983-5.12328E+05 1.07190E+03-1.06750E+04 3.35812E+03 5.20345E-09 1.48475E-09
 -1       984-5.21079E+05-1.33110E+04-2.65228E+04 1.81568E+04-3.20836E-09 3.91992E-09
 -1       985-5.06067E+05 1.00695E+04-4.11513E+04 3.48213E+03 1.12796E-08 3.30692E-09
 -3
    1PSTEP                        25          13           1          
  100CL  113 6.69102E-01         841                     0   13           1
 -4  DISP        4    1
 -5  D1          1    2    1    0
 -5  D2          1    2    2    0
 -5  D3          1    2    3    0
 -5  ALL         1    2    0    0    1ALL
 -1         1 8.22086E-05 0.00000E+00 0.00000E+00
 -1         2 6.31835E-05 0.00000E+00 0.00000E+00
 -1         3 5.15768E-05 0.00000E+00 0.00000E+00
 -1         4 4.56523E-05 0.00000E+00 0.00000E+00
 -1         5 4.30653E-05 0.00000E+00 0.00000E+00
 -1         8 6.46725E-05-8.10545E-07 0.00000E+00
 -1         9 5.06847E-05 7.76429E-07 0.00000E+00
 -1        10 4.70634E-05-2.30046E-06 0.00000E+00
 -1        11 4.42889E-05-4.61371E-07 0.00000E+00
 -1        12 4.11910E-05 1.15335E-06 0.00000E+00
 -1        15 3.08302E-05-1.35130E-06 0.00000E+00
 -1        16 3.70933E-05 7.66893E-07 0.00000E+00
 -1        17 3.36892E-05-4.59824E-06 0.00000E+00
 -1        18 3.43455E-05-9.66726E-07 0.00000E+00
 -1        19 3.63371E-05 2.27861E-06 0.00000E+00
 -1        20 3.69112E-05 2.41420E-05 0.00000E+00
 -1        21 3.68857E-05 5.77792E-05 0.00000E+00
 -1        22 8.62062E-06-9.29071E-07 0.00000E+00
 -1        23 1.16504E-05 1.12732E-06 0.00000E+00
 -1        24 1.38841E-05-5.35408E-06 0.00000E+00
 -1        25 2.96201E-05-6.86936E-07 0.00000E+00
 -1        26 3.15984E-05 3.01395E-06 0.00000E+00
 -1        27 2.97238E-05 2.32984E-05 0.00000E+00
 -1        28 2.75023E-05 5.69829E-05 0.00000E+00
 -1        29 0.00000E+00 0.00000E+00 0.00000E+00
 -1        30 4.03136E-06 1.49574E-06 0.00000E+00
 -1        31 4.89645E-06-4.61415E-06 0.00000E+00
 -1        32 0.00000E+00 0.00000E+00 0.00000E+00
 -1        33 2.49210E-05 4.86056E-06 0.00000E+00
 -1        34 2.35581E-05 2.32233E-05 0.00000E+00
 -1        35 2.05623E-05 5.65602E-05 0.00000E+00
 -1        36 8.10562E-05-3.38788E-19 0.00000E+00
 -1        37 7.98671E-05-9.71772E-19 0.00000E+00
 -1        38 7.86803E-05-1.68952E-18 2.64698E-23
 -1        39 7.74866E-05-2.12228E-18 0.00000E+00
 -1        40 7.62926E-05-2.32134E-18 2.64698E-23
 -1        41 7.50973E-05-2.05415E-18 0.00000E+00
 -1        42 7.39018E-05-1.35252E-18 0.00000E+00
 -1        43 7.27061E-05-2.15658E-19-1.32349E-23
 -1        44 7.15103E-05 8.94941E-19 0.00000E+00
 -1        45 7.03147E-05 1.76085E-18 0.00000E+00
 -1        46 6.91191E-05 2.20032E-18-2.64698E-23
 -1        47 6.79246E-05 2.14490E-18-1.32349E-23
 -1        48 6.67301E-05 1.61817E-18 0.00000E+00
 -1        49 6.55405E-05 9.02564E-19-1.32349E-23
 -1        50 6.43493E-05 2.39600E-19-2.64698E-23
 -1        51 8.08969E-05-1.37897E-07 0.00000E+00
 -1        52 7.87094E-05-2.69380E-07 0.00000E+00
 -1        53 7.58154E-05-4.00160E-07 0.00000E+00
 -1        54 7.23923E-05-5.32136E-07 3.30872E-24
 -1        55 6.86183E-05-6.66953E-07-1.24077E-24
 -1        56 8.05848E-05-6.99904E-07 0.00000E+00
 -1        57 7.89506E-05-1.55301E-06 0.00000E+00
 -1        58 7.73452E-05-2.47343E-06 0.00000E+00
 -1        59 7.57311E-05-3.40116E-06 0.00000E+00
 -1        60 7.40935E-05-4.26720E-06-5.29396E-23
 -1        61 7.24072E-05-5.00904E-06-2.64698E-23
 -1        62 7.06535E-05-5.57164E-06 0.00000E+00
 -1        63 6.88142E-05-5.90722E-06 0.00000E+00
 -1        64 6.68774E-05-5.98294E-06-5.29396E-23
 -1        65 6.48345E-05-5.77558E-06 0.00000E+00
 -1        66 6.26839E-05-5.28093E-06 0.00000E+00
 -1        67 6.04292E-05-4.50482E-06 0.00000E+00
 -1        68 5.80787E-05-3.47288E-06 0.00000E+00
 -1        69 5.56546E-05-2.21614E-06 0.00000E+00
 -1        70 5.31625E-05-7.88826E-07 0.00000E+00
 -1        71 6.24637E-05-5.85156E-20 0.00000E+00
 -1        72 6.17374E-05-1.22722E-19 0.00000E+00
 -1        73 6.10115E-05-1.75672E-19 2.64698E-23
 -1        74 6.02844E-05-2.31024E-19 0.00000E+00
 -1        75 5.95572E-05-1.78714E-19 0.00000E+00
 -1        76 5.88298E-05-3.12203E-20 1.32349E-23
 -1        77 5.81024E-05 1.08342E-19 0.00000E+00
 -1        78 5.73750E-05 2.82806E-19-1.32349E-23
 -1        79 5.66476E-05 3.78989E-19 2.64698E-23
 -1        80 5.59202E-05 4.05803E-19 0.00000E+00
 -1        81 5.51929E-05 3.81594E-19-2.64698E-23
 -1        82 5.44661E-05 3.01687E-19 1.32349E-23
 -1        83 5.37393E-05 2.18573E-19-2.64698E-23
 -1        84 5.30149E-05 1.40418E-19 0.00000E+00
 -1        85 5.22897E-05 6.39014E-20 0.00000E+00
 -1        86 6.26177E-05 1.11118E-07-6.61744E-24
 -1        87 6.09578E-05 2.49027E-07 0.00000E+00
 -1        88 5.85767E-05 3.83651E-07 0.00000E+00
 -1        89 5.58432E-05 5.19281E-07 0.00000E+00
 -1        90 5.30987E-05 6.56291E-07-3.30872E-24
 -1        91 6.55867E-05-8.05849E-06 0.00000E+00
 -1        92 7.35886E-05-3.17441E-05 0.00000E+00
 -1        93 8.54666E-05-6.66806E-05 1.32349E-23
 -1        94 9.95481E-05-1.08211E-04-6.61744E-24
 -1        95 1.13658E-04-1.49828E-04 1.32349E-23
 -1        96 1.25623E-04-1.85019E-04-6.61744E-24
 -1        97 1.33755E-04-2.09077E-04-1.32349E-23
 -1        98 1.36324E-04-2.17573E-04 0.00000E+00
 -1        99 1.32998E-04-2.10330E-04-1.32349E-23
 -1       100 1.23566E-04-1.87505E-04 0.00000E+00
 -1       101 1.09569E-04-1.53434E-04 0.00000E+00
 -1       102 9.27674E-05-1.12640E-04-6.61744E-24
 -1       103 7.58003E-05-7.14512E-05-1.32349E-23
 -1       104 6.13174E-05-3.62013E-05-6.61744E-24
 -1       105 5.11857E-05-1.16300E-05 1.32349E-23
 -1       106 5.12035E-05 2.10749E-20 1.32349E-23
 -1       107 5.08323E-05 6.69247E-20 6.61744E-24
 -1       108 5.04610E-05 7.78367E-20 0.00000E+00
 -1       109 5.00901E-05 1.00435E-19 0.00000E+00
 -1       110 4.97192E-05 5.54927E-20-1.32349E-23
 -1       111 4.93484E-05 2.13421E-20-6.61744E-24
 -1       112 4.89776E-05 6.43855E-20 0.00000E+00
 -1       113 4.86069E-05 7.37831E-20 0.00000E+00
 -1       114 4.82361E-05 8.48203E-20 1.32349E-23
 -1       115 4.78654E-05 3.04436E-20 0.00000E+00
 -1       116 4.74947E-05-1.08851E-20-1.32349E-23
 -1       117 4.71243E-05-5.06539E-20 6.61744E-24
 -1       118 4.67540E-05-3.16227E-20 1.32349E-23
 -1       119 4.63848E-05 1.34258E-20 6.61744E-24
 -1       120 4.60153E-05 3.65324E-21 0.00000E+00
 -1       121 5.14946E-05-3.84708E-07 0.00000E+00
 -1       122 5.12021E-05-7.67720E-07 0.00000E+00
 -1       123 5.06553E-05-1.15086E-06 0.00000E+00
 -1       124 4.98111E-05-1.53387E-06 0.00000E+00
 -1       125 4.86273E-05-1.91718E-06 0.00000E+00
 -1       126 5.13247E-05-5.70951E-07 1.32349E-23
 -1       127 5.13824E-05-1.96828E-06-6.61744E-24
 -1       128 5.16678E-05-3.97535E-06 0.00000E+00
 -1       129 5.20958E-05-6.36486E-06-6.61744E-24
 -1       130 5.25491E-05-8.82220E-06 0.00000E+00
 -1       131 5.29100E-05-1.10315E-05 0.00000E+00
 -1       132 5.30819E-05-1.27342E-05 0.00000E+00
 -1       133 5.29710E-05-1.36803E-05 0.00000E+00
 -1       134 5.25474E-05-1.37912E-05 0.00000E+00
 -1       135 5.17859E-05-1.30025E-05 6.61744E-24
 -1       136 5.07384E-05-1.14539E-05 1.32349E-23
 -1       137 4.94620E-05-9.29743E-06 0.00000E+00
 -1       138 4.80656E-05-6.82339E-06 0.00000E+00
 -1       139 4.66622E-05-4.32663E-06 6.61744E-24
 -1       140 4.53634E-05-2.10839E-06-1.32349E-23
 -1       141 4.54871E-05-3.16298E-20-6.61744E-24
 -1       142 4.53237E-05-8.01411E-20 3.30872E-24
 -1       143 4.51602E-05-1.20089E-19 0.00000E+00
 -1       144 4.49971E-05-1.36307E-19-3.30872E-24
 -1       145 4.48339E-05-1.91423E-19-6.61744E-24
 -1       146 4.46709E-05-1.71118E-19 0.00000E+00
 -1       147 4.45078E-05-1.08292E-19-6.61744E-24
 -1       148 4.43448E-05-4.31373E-20 0.00000E+00
 -1       149 4.41818E-05-9.49190E-21 6.61744E-24
 -1       150 4.40190E-05 3.93879E-20 0.00000E+00
 -1       151 4.38562E-05 5.15208E-20 0.00000E+00
 -1       152 4.36939E-05 3.03720E-20-1.65436E-24
 -1       153 4.35317E-05 1.01463E-20 0.00000E+00
 -1       154 4.33722E-05-5.42424E-21 8.27181E-25
 -1       155 4.32118E-05 5.87360E-21 2.06795E-25
 -1       156 4.57309E-05-7.99646E-08 0.00000E+00
 -1       157 4.59489E-05-1.54761E-07 0.00000E+00
 -1       158 4.61079E-05-2.29937E-07 3.30872E-24
 -1       159 4.60097E-05-3.05191E-07 0.00000E+00
 -1       160 4.54657E-05-3.80187E-07 0.00000E+00
 -1       161 4.54421E-05-1.14057E-07-6.61744E-24
 -1       162 4.52538E-05-2.88602E-07-3.30872E-24
 -1       163 4.50798E-05-5.00901E-07 0.00000E+00
 -1       164 4.49113E-05-7.28136E-07 0.00000E+00
 -1       165 4.47390E-05-9.45294E-07-6.61744E-24
 -1       166 4.45535E-05-1.12751E-06 0.00000E+00
 -1       167 4.43475E-05-1.25472E-06 0.00000E+00
 -1       168 4.41135E-05-1.30736E-06-3.30872E-24
 -1       169 4.38477E-05-1.27530E-06 0.00000E+00
 -1       170 4.35468E-05-1.14912E-06 3.30872E-24
 -1       171 4.32116E-05-9.31527E-07 0.00000E+00
 -1       172 4.28440E-05-6.25842E-07 3.30872E-24
 -1       173 4.24489E-05-2.46978E-07 0.00000E+00
 -1       174 4.20351E-05 1.90787E-07 1.65436E-24
 -1       175 4.16070E-05 6.63090E-07 0.00000E+00
 -1       191 4.29974E-05 1.92014E-07-6.61744E-24
 -1       192 4.28276E-05 3.84441E-07-3.30872E-24
 -1       193 4.25585E-05 5.76947E-07 0.00000E+00
 -1       194 4.21935E-05 7.69405E-07 0.00000E+00
 -1       195 4.17363E-05 9.61684E-07-6.61744E-24
 -1       251 6.40629E-05 8.77055E-06-1.32349E-23
 -1       252 6.32506E-05 3.10176E-05-6.61744E-24
 -1       253 6.22249E-05 6.19099E-05 0.00000E+00
 -1       254 6.10566E-05 9.72234E-05 6.61744E-24
 -1       255 5.99207E-05 1.31530E-04-1.32349E-23
 -1       256 5.89764E-05 1.59427E-04 0.00000E+00
 -1       257 5.82461E-05 1.77255E-04 0.00000E+00
 -1       258 5.76597E-05 1.81590E-04-6.61744E-24
 -1       259 5.70449E-05 1.72651E-04 0.00000E+00
 -1       260 5.62423E-05 1.50968E-04 6.61744E-24
 -1       261 5.52273E-05 1.20515E-04 0.00000E+00
 -1       262 5.40679E-05 8.54725E-05 6.61744E-24
 -1       263 5.29357E-05 5.12696E-05 1.32349E-23
 -1       264 5.19922E-05 2.33182E-05 0.00000E+00
 -1       265 5.12612E-05 5.32825E-06 0.00000E+00
 -1       266 6.16723E-05-8.94849E-07 6.61744E-24
 -1       267 5.88894E-05-9.68116E-07 0.00000E+00
 -1       268 5.53554E-05-1.04444E-06 3.30872E-24
 -1       269 5.01038E-05-1.12550E-06 8.27181E-25
 -1       270 4.22284E-05-1.22364E-06-1.65436E-24
 -1       271 6.21959E-05 1.43242E-06 0.00000E+00
 -1       272 5.99283E-05 2.97277E-06-2.64698E-23
 -1       273 5.78958E-05 3.89368E-06 0.00000E+00
 -1       274 5.60612E-05 4.26647E-06 2.64698E-23
 -1       275 5.43997E-05 4.17666E-06 0.00000E+00
 -1       276 5.28763E-05 3.71462E-06-2.64698E-23
 -1       277 5.14560E-05 2.97711E-06 0.00000E+00
 -1       278 5.01009E-05 2.06500E-06 2.64698E-23
 -1       279 4.87724E-05 1.08197E-06 0.00000E+00
 -1       280 4.74313E-05 1.32874E-07 0.00000E+00
 -1       281 4.60388E-05-6.78093E-07 0.00000E+00
 -1       282 4.45575E-05-1.24870E-06 0.00000E+00
 -1       283 4.29500E-05-1.48091E-06 0.00000E+00
 -1       284 4.11876E-05-1.27970E-06 0.00000E+00
 -1       285 3.92294E-05-5.62085E-07 0.00000E+00
 -1       286 5.04535E-05 2.70579E-06 0.00000E+00
 -1       287 5.02273E-05 4.02490E-06 0.00000E+00
 -1       288 5.00015E-05 4.72749E-06 0.00000E+00
 -1       289 4.97766E-05 4.81294E-06-3.30872E-24
 -1       290 4.95517E-05 4.35036E-06 0.00000E+00
 -1       291 4.93266E-05 3.41389E-06 3.30872E-24
 -1       292 4.91011E-05 2.13116E-06 0.00000E+00
 -1       293 4.88754E-05 6.32997E-07-3.30872E-24
 -1       294 4.86496E-05-9.25457E-07-6.61744E-24
 -1       295 4.84239E-05-2.38848E-06-3.30872E-24
 -1       296 4.81985E-05-3.61118E-06 0.00000E+00
 -1       297 4.79732E-05-4.45083E-06 0.00000E+00
 -1       298 4.77482E-05-4.80794E-06 6.61744E-24
 -1       299 4.75221E-05-4.58750E-06 0.00000E+00
 -1       300 4.72960E-05-3.75975E-06-6.61744E-24
 -1       301 4.84192E-05 7.65595E-07 3.30872E-24
 -1       302 4.61430E-05 7.68982E-07-1.65436E-24
 -1       303 4.38642E-05 7.74881E-07-3.30872E-24
 -1       304 4.15909E-05 7.80382E-07 1.65436E-24
 -1       305 3.93313E-05 7.82492E-07 6.61744E-24
 -1       306 4.89800E-05 2.23860E-06 0.00000E+00
 -1       307 4.75094E-05 2.98655E-06 0.00000E+00
 -1       308 4.62717E-05 3.11743E-06 2.64698E-23
 -1       309 4.52264E-05 2.72215E-06 0.00000E+00
 -1       310 4.43401E-05 1.90087E-06 2.64698E-23
 -1       311 4.35737E-05 7.57006E-07 0.00000E+00
 -1       312 4.28877E-05-6.02099E-07-2.64698E-23
 -1       313 4.22411E-05-2.06689E-06 1.32349E-23
 -1       314 4.15925E-05-3.52654E-06 0.00000E+00
 -1       315 4.09008E-05-4.87026E-06-1.32349E-23
 -1       316 4.01250E-05-5.98870E-06-2.64698E-23
 -1       317 3.92258E-05-6.77481E-06 0.00000E+00
 -1       318 3.81640E-05-7.12558E-06 0.00000E+00
 -1       319 3.69074E-05-6.94112E-06 0.00000E+00
 -1       320 3.54144E-05-6.13143E-06 2.64698E-23
 -1       321 4.68806E-05-7.51948E-07-6.61744E-24
 -1       322 4.67065E-05 3.44416E-07 3.30872E-24
 -1       323 4.65323E-05 1.00590E-06 0.00000E+00
 -1       324 4.63597E-05 1.25283E-06 3.30872E-24
 -1       325 4.61873E-05 1.14173E-06 0.00000E+00
 -1       326 4.60150E-05 7.31648E-07 0.00000E+00
 -1       327 4.58427E-05 1.07692E-07-6.61744E-24
 -1       328 4.56704E-05-6.43502E-07 3.30872E-24
 -1       329 4.54981E-05-1.42420E-06 0.00000E+00
 -1       330 4.53258E-05-2.13648E-06 0.00000E+00
 -1       331 4.51536E-05-2.68838E-06 0.00000E+00
 -1       332 4.49814E-05-2.98905E-06 0.00000E+00
 -1       333 4.48093E-05-2.96956E-06 0.00000E+00
 -1       334 4.46367E-05-2.56325E-06 0.00000E+00
 -1       335 4.44640E-05-1.73718E-06 0.00000E+00
 -1       336 4.51557E-05-2.68435E-06 0.00000E+00
 -1       337 4.30401E-05-3.06887E-06 0.00000E+00
 -1       338 4.07756E-05-3.45352E-06-1.32349E-23
 -1       339 3.84222E-05-3.83734E-06-6.61744E-24
 -1       340 3.60400E-05-4.22136E-06-6.61744E-24
 -1       341 4.40378E-05 4.19954E-06 0.00000E+00
 -1       342 3.72551E-05 2.03769E-05 0.00000E+00
 -1       343 2.78054E-05 4.32856E-05-1.32349E-23
 -1       344 1.68797E-05 6.98582E-05 0.00000E+00
 -1       345 6.10920E-06 9.60451E-05 0.00000E+00
 -1       346-2.88131E-06 1.17803E-04 6.61744E-24
 -1       347-8.99762E-06 1.32277E-04 1.32349E-23
 -1       348-1.12541E-05 1.36743E-04 0.00000E+00
 -1       349-9.74938E-06 1.31169E-04 0.00000E+00
 -1       350-4.65705E-06 1.15732E-04-6.61744E-24
 -1       351 2.92279E-06 9.32950E-05 0.00000E+00
 -1       352 1.18898E-05 6.68821E-05-6.61744E-24
 -1       353 2.08063E-05 4.06153E-05 1.32349E-23
 -1       354 2.82375E-05 1.86154E-05 0.00000E+00
 -1       355 3.31013E-05 3.82660E-06 0.00000E+00
 -1       356 4.40918E-05 9.08311E-07-6.61744E-24
 -1       357 4.38960E-05 2.01259E-06-3.30872E-24
 -1       358 4.37004E-05 2.83603E-06-6.61744E-24
 -1       359 4.35052E-05 3.36539E-06-3.30872E-24
 -1       360 4.33101E-05 3.61642E-06 0.00000E+00
 -1       361 4.31150E-05 3.60711E-06 0.00000E+00
 -1       362 4.29200E-05 3.38107E-06 6.61744E-24
 -1       363 4.27249E-05 2.98364E-06 3.30872E-24
 -1       364 4.25299E-05 2.47706E-06 6.61744E-24
 -1       365 4.23349E-05 1.92442E-06 0.00000E+00
 -1       366 4.21400E-05 1.39336E-06 0.00000E+00
 -1       367 4.19457E-05 9.51337E-07 0.00000E+00
 -1       368 4.17516E-05 6.57062E-07 3.30872E-24
 -1       369 4.15603E-05 5.68053E-07-1.65436E-24
 -1       370 4.13681E-05 7.21685E-07 2.06795E-25
 -1       371 4.26076E-05-5.51885E-07 3.30872E-24
 -1       372 4.05886E-05-6.37234E-07 0.00000E+00
 -1       373 3.84941E-05-7.23037E-07 0.00000E+00
 -1       374 3.65860E-05-8.06500E-07 0.00000E+00
 -1       375 3.51189E-05-8.89526E-07 8.27181E-25
 -1       376 4.33440E-05 9.16874E-07 6.61744E-24
 -1       377 4.23828E-05 2.31843E-06 6.61744E-24
 -1       378 4.14611E-05 3.61658E-06 0.00000E+00
 -1       379 4.06253E-05 4.68289E-06 6.61744E-24
 -1       380 3.99059E-05 5.43938E-06 1.32349E-23
 -1       381 3.93305E-05 5.81241E-06 0.00000E+00
 -1       382 3.88958E-05 5.81037E-06-1.32349E-23
 -1       383 3.85963E-05 5.44753E-06 6.61744E-24
 -1       384 3.83978E-05 4.81536E-06-1.32349E-23
 -1       385 3.82644E-05 4.00972E-06 0.00000E+00
 -1       386 3.81465E-05 3.16275E-06 0.00000E+00
 -1       387 3.79950E-05 2.40749E-06 0.00000E+00
 -1       388 3.77667E-05 1.85744E-06 0.00000E+00
 -1       389 3.74238E-05 1.62441E-06 0.00000E+00
 -1       390 3.69449E-05 1.74969E-06 3.30872E-24
 -1       406 4.05231E-05 1.34188E-06 0.00000E+00
 -1       407 3.97830E-05 1.53071E-06-3.30872E-24
 -1       408 3.89822E-05 1.71945E-06 0.00000E+00
 -1       409 3.81327E-05 1.90772E-06 3.30872E-24
 -1       410 3.72469E-05 2.09497E-06 0.00000E+00
 -1       466 3.11561E-05 9.61053E-06 6.61744E-24
 -1       467 3.15351E-05 1.62336E-05 0.00000E+00
 -1       468 3.19292E-05 1.96307E-05 0.00000E+00
 -1       469 3.23312E-05 2.08603E-05 0.00000E+00
 -1       470 3.27342E-05 2.04932E-05 0.00000E+00
 -1       471 3.31369E-05 1.90733E-05 0.00000E+00
 -1       472 3.35384E-05 1.69070E-05 0.00000E+00
 -1       473 3.39389E-05 1.42880E-05 0.00000E+00
 -1       474 3.43387E-05 1.14078E-05 0.00000E+00
 -1       475 3.47381E-05 8.45383E-06-6.61744E-24
 -1       476 3.51376E-05 5.59647E-06 1.32349E-23
 -1       477 3.55365E-05 3.00783E-06 6.61744E-24
 -1       478 3.59364E-05 9.20695E-07 6.61744E-24
 -1       479 3.63313E-05-4.23734E-07 0.00000E+00
 -1       480 3.67291E-05-6.17566E-07 1.03398E-25
 -1       481 1.99230E-05-1.32777E-06 0.00000E+00
 -1       482 1.34814E-05-1.26344E-06 0.00000E+00
 -1       483 1.02933E-05-1.18355E-06 0.00000E+00
 -1       484 9.15854E-06-1.09899E-06 0.00000E+00
 -1       485 8.96916E-06-1.01350E-06 0.00000E+00
 -1       486 2.25531E-05 1.88295E-05 0.00000E+00
 -1       487 8.57008E-06 5.30375E-05 6.61744E-24
 -1       488-9.13959E-06 9.61771E-05 0.00000E+00
 -1       489-2.84317E-05 1.43026E-04-6.61744E-24
 -1       490-4.67123E-05 1.87493E-04 1.32349E-23
 -1       491-6.14432E-05 2.23516E-04 0.00000E+00
 -1       492-7.10736E-05 2.47020E-04 0.00000E+00
 -1       493-7.42669E-05 2.54107E-04 6.61744E-24
 -1       494-7.13084E-05 2.44746E-04 0.00000E+00
 -1       495-6.25883E-05 2.19210E-04 0.00000E+00
 -1       496-4.97569E-05 1.81660E-04 1.32349E-23
 -1       497-3.44143E-05 1.36516E-04-6.61744E-24
 -1       498-1.86482E-05 9.00818E-05 0.00000E+00
 -1       499-4.53302E-06 4.86880E-05 0.00000E+00
 -1       500 6.16857E-06 1.74164E-05 6.61744E-24
 -1       501 3.68714E-05 2.59616E-06 0.00000E+00
 -1       502 3.66584E-05 3.68296E-06 3.30872E-24
 -1       503 3.64453E-05 4.04891E-06 0.00000E+00
 -1       504 3.62338E-05 3.72182E-06-3.30872E-24
 -1       505 3.60219E-05 2.80326E-06 0.00000E+00
 -1       506 3.58098E-05 1.39990E-06 0.00000E+00
 -1       507 3.55973E-05-3.30008E-07-6.61744E-24
 -1       508 3.53845E-05-2.22546E-06 3.30872E-24
 -1       509 3.51718E-05-4.10781E-06 0.00000E+00
 -1       510 3.49594E-05-5.79850E-06-3.30872E-24
 -1       511 3.47475E-05-7.13942E-06 0.00000E+00
 -1       512 3.45362E-05-7.97540E-06 0.00000E+00
 -1       513 3.43251E-05-8.20499E-06 0.00000E+00
 -1       514 3.41139E-05-7.73198E-06 3.30872E-24
 -1       515 3.39022E-05-6.53481E-06 6.61744E-24
 -1       516 3.29469E-05 8.21539E-07 0.00000E+00
 -1       517 2.51544E-05 8.75008E-07 0.00000E+00
 -1       518 1.64077E-05 9.20048E-07 0.00000E+00
 -1       519 9.39451E-06 9.81005E-07 4.13590E-25
 -1       520 6.88120E-06 1.06066E-06 2.06795E-25
 -1       521 3.50542E-05 2.07563E-06 2.64698E-23
 -1       522 3.32325E-05 2.67827E-06 1.32349E-23
 -1       523 3.16408E-05 2.67289E-06 5.29396E-23
 -1       524 3.02368E-05 2.14828E-06 0.00000E+00
 -1       525 2.89887E-05 1.20562E-06 0.00000E+00
 -1       526 2.78565E-05-4.96834E-08 2.64698E-23
 -1       527 2.67996E-05-1.50715E-06 0.00000E+00
 -1       528 2.57758E-05-3.05354E-06 0.00000E+00
 -1       529 2.47423E-05-4.57418E-06 0.00000E+00
 -1       530 2.36567E-05-5.95482E-06 0.00000E+00
 -1       531 2.24770E-05-7.08336E-06 0.00000E+00
 -1       532 2.11634E-05-7.85125E-06 0.00000E+00
 -1       533 1.96766E-05-8.15572E-06 0.00000E+00
 -1       534 1.79861E-05-7.89897E-06 0.00000E+00
 -1       535 1.60511E-05-6.99606E-06 0.00000E+00
 -1       536 3.37168E-05-2.56384E-06 3.30872E-24
 -1       537 3.37559E-05-1.01725E-06 4.13590E-25
 -1       538 3.37954E-05 9.45582E-08-7.75482E-26
 -1       539 3.38369E-05 8.24814E-07 2.06795E-25
 -1       540 3.38789E-05 1.22650E-06 0.00000E+00
 -1       541 3.39212E-05 1.35251E-06 0.00000E+00
 -1       542 3.39636E-05 1.25561E-06 1.65436E-24
 -1       543 3.40061E-05 9.88490E-07 4.13590E-25
 -1       544 3.40485E-05 6.03775E-07 0.00000E+00
 -1       545 3.40909E-05 1.54027E-07 0.00000E+00
 -1       546 3.41334E-05-3.08200E-07 1.65436E-24
 -1       547 3.41758E-05-7.30363E-07 8.27181E-25
 -1       548 3.42183E-05-1.05991E-06 1.65436E-24
 -1       549 3.42608E-05-1.24425E-06 8.27181E-25
 -1       550 3.43032E-05-1.23071E-06 0.00000E+00
 -1       551 3.07305E-05-4.72301E-06-4.20699E-24
 -1       552 2.74433E-05-4.84456E-06-1.65436E-24
 -1       553 2.39700E-05-4.96621E-06 3.30872E-24
 -1       554 2.04558E-05-5.08917E-06 0.00000E+00
 -1       555 1.70462E-05-5.21484E-06 0.00000E+00
 -1       556 3.28077E-05-2.70062E-06-1.32349E-23
 -1       557 3.20923E-05-1.23367E-06-6.61744E-24
 -1       558 3.15241E-05-1.56009E-07 0.00000E+00
 -1       559 3.10857E-05 5.77849E-07 0.00000E+00
 -1       560 3.07595E-05 1.01349E-06 0.00000E+00
 -1       561 3.05282E-05 1.19695E-06 0.00000E+00
 -1       562 3.03742E-05 1.17427E-06-6.61744E-24
 -1       563 3.02802E-05 9.91616E-07 0.00000E+00
 -1       564 3.02289E-05 6.95148E-07 6.61744E-24
 -1       565 3.02030E-05 3.31061E-07 0.00000E+00
 -1       566 3.01852E-05-5.44350E-08-3.30872E-24
 -1       567 3.01582E-05-4.15123E-07-1.65436E-24
 -1       568 3.01047E-05-7.04799E-07 1.65436E-24
 -1       569 3.00078E-05-8.77310E-07-8.53030E-25
 -1       570 2.98506E-05-8.86551E-07 4.13590E-25
 -1       571 3.44649E-05-6.78130E-07-2.06795E-25
 -1       572 3.45882E-05-4.78922E-07 1.65436E-24
 -1       573 3.47126E-05-3.53149E-07 0.00000E+00
 -1       574 3.48375E-05-2.84049E-07 8.27181E-25
 -1       575 3.49625E-05-2.54799E-07-3.30872E-24
 -1       576 3.50877E-05-2.48469E-07 0.00000E+00
 -1       577 3.52129E-05-2.48124E-07 3.30872E-24
 -1       578 3.53381E-05-2.36815E-07-3.30872E-24
 -1       579 3.54634E-05-1.97593E-07-6.61744E-24
 -1       580 3.55886E-05-1.13504E-07 0.00000E+00
 -1       581 3.57138E-05 3.24000E-08 0.00000E+00
 -1       582 3.58389E-05 2.57059E-07 6.61744E-24
 -1       583 3.59640E-05 5.77398E-07 6.61744E-24
 -1       584 3.60889E-05 1.01019E-06 0.00000E+00
 -1       585 3.62135E-05 1.57211E-06 0.00000E+00
 -1       586 3.36622E-05-9.19108E-07 0.00000E+00
 -1       587 3.28792E-05-8.71134E-07 0.00000E+00
 -1       588 3.20396E-05-8.23233E-07 0.00000E+00
 -1       589 3.11872E-05-7.75808E-07-2.32645E-25
 -1       590 3.03663E-05-7.29441E-07 0.00000E+00
 -1       591 3.41474E-05-6.31935E-07-1.65436E-24
 -1       592 3.39659E-05-3.55436E-07 0.00000E+00
 -1       593 3.38012E-05-1.26475E-07 0.00000E+00
 -1       594 3.36500E-05 6.48625E-08 0.00000E+00
 -1       595 3.35090E-05 2.28485E-07 0.00000E+00
 -1       596 3.33746E-05 3.74242E-07 0.00000E+00
 -1       597 3.32432E-05 5.11972E-07-1.65436E-24
 -1       598 3.31112E-05 6.51504E-07 0.00000E+00
 -1       599 3.29747E-05 8.02672E-07-1.65436E-24
 -1       600 3.28302E-05 9.75303E-07 8.27181E-25
 -1       601 3.26740E-05 1.17923E-06-1.65436E-24
 -1       602 3.25025E-05 1.42428E-06 0.00000E+00
 -1       603 3.23121E-05 1.72030E-06 0.00000E+00
 -1       604 3.20994E-05 2.07719E-06-7.23783E-25
 -1       605 3.18613E-05 2.50485E-06 0.00000E+00
 -1       606 3.63775E-05 3.20987E-06-3.30872E-24
 -1       607 3.64149E-05 4.22509E-06 0.00000E+00
 -1       608 3.64514E-05 5.31936E-06 0.00000E+00
 -1       609 3.64874E-05 6.48708E-06 0.00000E+00
 -1       610 3.65232E-05 7.72259E-06 0.00000E+00
 -1       611 3.65588E-05 9.02016E-06 0.00000E+00
 -1       612 3.65943E-05 1.03740E-05 0.00000E+00
 -1       613 3.66298E-05 1.17784E-05 0.00000E+00
 -1       614 3.66652E-05 1.32276E-05-3.30872E-24
 -1       615 3.67005E-05 1.47158E-05 0.00000E+00
 -1       616 3.67358E-05 1.62373E-05 0.00000E+00
 -1       617 3.67711E-05 1.77863E-05 0.00000E+00
 -1       618 3.68063E-05 1.93570E-05-1.65436E-24
 -1       619 3.68414E-05 2.09437E-05 8.27181E-25
 -1       620 3.68764E-05 2.25406E-05 0.00000E+00
 -1       621 3.54549E-05 2.40141E-06 0.00000E+00
 -1       622 3.45967E-05 2.52499E-06 0.00000E+00
 -1       623 3.37723E-05 2.64864E-06 3.30872E-24
 -1       624 3.29914E-05 2.77200E-06 0.00000E+00
 -1       625 3.22637E-05 2.89467E-06-1.65436E-24
 -1       626 3.60547E-05 3.25143E-06 0.00000E+00
 -1       627 3.57376E-05 4.31190E-06 0.00000E+00
 -1       628 3.53901E-05 5.45200E-06 0.00000E+00
 -1       629 3.50159E-05 6.66258E-06 0.00000E+00
 -1       630 3.46186E-05 7.93446E-06 0.00000E+00
 -1       631 3.42016E-05 9.25830E-06-1.65436E-24
 -1       632 3.37687E-05 1.06248E-05 0.00000E+00
 -1       633 3.33231E-05 1.20245E-05 0.00000E+00
 -1       634 3.28686E-05 1.34482E-05 0.00000E+00
 -1       635 3.24086E-05 1.48865E-05-8.27181E-25
 -1       636 3.19465E-05 1.63300E-05-1.65436E-24
 -1       637 3.14860E-05 1.77694E-05 8.27181E-25
 -1       638 3.10304E-05 1.91953E-05 0.00000E+00
 -1       639 3.05830E-05 2.05985E-05 8.27181E-25
 -1       640 3.01470E-05 2.19693E-05 0.00000E+00
 -1       641 3.69122E-05 2.58065E-05-4.13590E-25
 -1       642 3.69117E-05 2.76469E-05 0.00000E+00
 -1       643 3.69110E-05 2.96381E-05-1.03398E-25
 -1       644 3.69098E-05 3.17548E-05 0.00000E+00
 -1       645 3.69085E-05 3.39717E-05 5.16988E-26
 -1       646 3.69069E-05 3.62637E-05 0.00000E+00
 -1       647 3.69052E-05 3.86057E-05 0.00000E+00
 -1       648 3.69035E-05 4.09724E-05 0.00000E+00
 -1       649 3.69017E-05 4.33387E-05 0.00000E+00
 -1       650 3.68999E-05 4.56796E-05 0.00000E+00
 -1       651 3.68983E-05 4.79697E-05 0.00000E+00
 -1       652 3.68966E-05 5.01841E-05-1.03398E-25
 -1       653 3.68951E-05 5.22974E-05 4.13590E-25
 -1       654 3.68930E-05 5.42845E-05 0.00000E+00
 -1       655 3.68915E-05 5.61202E-05 0.00000E+00
 -1       656 3.54639E-05 2.40059E-05 0.00000E+00
 -1       657 3.42050E-05 2.38630E-05 0.00000E+00
 -1       658 3.30682E-05 2.37205E-05 0.00000E+00
 -1       659 3.19869E-05 2.35779E-05 1.65436E-24
 -1       660 3.08943E-05 2.34350E-05 0.00000E+00
 -1       661 3.64455E-05 2.58544E-05-3.30872E-24
 -1       662 3.59335E-05 2.77070E-05 0.00000E+00
 -1       663 3.53768E-05 2.96775E-05 0.00000E+00
 -1       664 3.47841E-05 3.17460E-05 0.00000E+00
 -1       665 3.41621E-05 3.38924E-05 6.61744E-24
 -1       666 3.35185E-05 3.60966E-05 3.30872E-24
 -1       667 3.28605E-05 3.83391E-05-6.61744E-24
 -1       668 3.21955E-05 4.06000E-05 0.00000E+00
 -1       669 3.15309E-05 4.28599E-05 0.00000E+00
 -1       670 3.08742E-05 4.50989E-05 3.30872E-24
 -1       671 3.02326E-05 4.72975E-05-6.61744E-24
 -1       672 2.96136E-05 4.94357E-05 0.00000E+00
 -1       673 2.90246E-05 5.14939E-05 3.30872E-24
 -1       674 2.84720E-05 5.34516E-05 1.65436E-24
 -1       675 2.79650E-05 5.52891E-05 1.65436E-24
 -1       676 3.53170E-05 5.76462E-05 0.00000E+00
 -1       677 3.37498E-05 5.75125E-05 0.00000E+00
 -1       678 3.21845E-05 5.73788E-05 0.00000E+00
 -1       679 3.06212E-05 5.72457E-05 0.00000E+00
 -1       680 2.90604E-05 5.71124E-05 0.00000E+00
 -1       681 8.80860E-06-1.35126E-07 3.30872E-24
 -1       682 9.00149E-06 1.27536E-06 0.00000E+00
 -1       683 9.19332E-06 3.14067E-06 0.00000E+00
 -1       684 9.38563E-06 5.30273E-06-3.30872E-24
 -1       685 9.57761E-06 7.63456E-06 6.61744E-24
 -1       686 9.76970E-06 1.00106E-05 0.00000E+00
 -1       687 9.96198E-06 1.23100E-05 0.00000E+00
 -1       688 1.01547E-05 1.44110E-05 0.00000E+00
 -1       689 1.03480E-05 1.61713E-05 6.61744E-24
 -1       690 1.05420E-05 1.74459E-05 0.00000E+00
 -1       691 1.07365E-05 1.80384E-05 0.00000E+00
 -1       692 1.09308E-05 1.77473E-05 3.30872E-24
 -1       693 1.11239E-05 1.62782E-05 0.00000E+00
 -1       694 1.13121E-05 1.33272E-05-1.65436E-24
 -1       695 1.14933E-05 8.43514E-06-1.65436E-24
 -1       696 7.83788E-06-7.77621E-07 0.00000E+00
 -1       697 6.46767E-06-6.22683E-07 0.00000E+00
 -1       698 4.75702E-06-4.68466E-07 3.30872E-24
 -1       699 2.95079E-06-3.13280E-07 0.00000E+00
 -1       700 1.28586E-06-1.57954E-07 6.61744E-24
 -1       701 8.32868E-06-7.31232E-07-3.30872E-24
 -1       702 8.18028E-06-9.48486E-07 0.00000E+00
 -1       703 8.15893E-06-1.50266E-06-6.61744E-24
 -1       704 8.23311E-06-2.31792E-06 0.00000E+00
 -1       705 8.36453E-06-3.28618E-06 0.00000E+00
 -1       706 8.51218E-06-4.29896E-06 0.00000E+00
 -1       707 8.63380E-06-5.24224E-06 0.00000E+00
 -1       708 8.68696E-06-6.00270E-06-3.30872E-24
 -1       709 8.63731E-06-6.48858E-06 0.00000E+00
 -1       710 8.45129E-06-6.61040E-06-3.30872E-24
 -1       711 8.11120E-06-6.32149E-06 6.61744E-24
 -1       712 7.60092E-06-5.57850E-06 3.30872E-24
 -1       713 6.92367E-06-4.39157E-06 6.61744E-24
 -1       714 6.08624E-06-2.77379E-06 0.00000E+00
 -1       715 5.11012E-06-7.90259E-07-3.30872E-24
 -1       716 1.17608E-05-6.42177E-06 1.65436E-24
 -1       717 1.18916E-05-1.20213E-05-1.65436E-24
 -1       718 1.20295E-05-1.60043E-05 0.00000E+00
 -1       719 1.21730E-05-1.86936E-05-1.65436E-24
 -1       720 1.23188E-05-2.03105E-05 3.30872E-24
 -1       721 1.24659E-05-2.10697E-05 1.65436E-24
 -1       722 1.26134E-05-2.11184E-05-3.30872E-24
 -1       723 1.27607E-05-2.05993E-05 0.00000E+00
 -1       724 1.29077E-05-1.96104E-05 0.00000E+00
 -1       725 1.30540E-05-1.82469E-05 0.00000E+00
 -1       726 1.31999E-05-1.65743E-05 0.00000E+00
 -1       727 1.33444E-05-1.46562E-05-1.65436E-24
 -1       728 1.34883E-05-1.25372E-05 0.00000E+00
 -1       729 1.36274E-05-1.02601E-05 0.00000E+00
 -1       730 1.37678E-05-7.85575E-06 0.00000E+00
 -1       731 1.76024E-05 1.17402E-06 0.00000E+00
 -1       732 1.85277E-05 1.24245E-06 8.27181E-25
 -1       733 1.60482E-05 1.30906E-06 1.65436E-24
 -1       734 1.17753E-05 1.37055E-06 8.27181E-25
 -1       735 7.25473E-06 1.43121E-06 0.00000E+00
 -1       736 1.53823E-05-1.01343E-05 0.00000E+00
 -1       737 2.09111E-05-2.64278E-05-6.61744E-24
 -1       738 2.74903E-05-4.56658E-05 1.32349E-23
 -1       739 3.43532E-05-6.57136E-05 6.61744E-24
 -1       740 4.06835E-05-8.42600E-05-1.32349E-23
 -1       741 4.56616E-05-9.90210E-05 0.00000E+00
 -1       742 4.87399E-05-1.08537E-04 0.00000E+00
 -1       743 4.93821E-05-1.11441E-04 0.00000E+00
 -1       744 4.75637E-05-1.07792E-04 0.00000E+00
 -1       745 4.33010E-05-9.77570E-05 6.61744E-24
 -1       746 3.71528E-05-8.28687E-05 1.32349E-23
 -1       747 2.97274E-05-6.47330E-05 6.61744E-24
 -1       748 2.19271E-05-4.56493E-05 0.00000E+00
 -1       749 1.46683E-05-2.79285E-05 6.61744E-24
 -1       750 8.73743E-06-1.35937E-05 0.00000E+00
 -1       751 1.48079E-05-3.27061E-06 0.00000E+00
 -1       752 1.57911E-05-2.07434E-06 0.00000E+00
 -1       753 1.67712E-05-1.45643E-06 2.64698E-23
 -1       754 1.77624E-05-1.13241E-06 0.00000E+00
 -1       755 1.87540E-05-9.99638E-07 2.64698E-23
 -1       756 1.97478E-05-9.63414E-07 1.32349E-23
 -1       757 2.07418E-05-9.89089E-07 0.00000E+00
 -1       758 2.17363E-05-1.04456E-06-1.32349E-23
 -1       759 2.27307E-05-1.11630E-06 2.64698E-23
 -1       760 2.37250E-05-1.19143E-06-1.32349E-23
 -1       761 2.47191E-05-1.25919E-06 2.64698E-23
 -1       762 2.57116E-05-1.30851E-06 0.00000E+00
 -1       763 2.67038E-05-1.31688E-06-2.64698E-23
 -1       764 2.76881E-05-1.26007E-06 0.00000E+00
 -1       765 2.86751E-05-1.07344E-06 0.00000E+00
 -1       766 1.21523E-05-5.24755E-06 6.61744E-24
 -1       767 1.19557E-05-5.11672E-06 0.00000E+00
 -1       768 1.22209E-05-4.98734E-06 0.00000E+00
 -1       769 1.18774E-05-4.85555E-06 0.00000E+00
 -1       770 9.81076E-06-4.72527E-06 2.06795E-25
 -1       771 1.23901E-05-3.32480E-06 0.00000E+00
 -1       772 1.10269E-05-1.67010E-06 0.00000E+00
 -1       773 9.79104E-06-3.58834E-07-2.64698E-23
 -1       774 8.67155E-06 6.40574E-07 0.00000E+00
 -1       775 7.65713E-06 1.35983E-06 0.00000E+00
 -1       776 6.73587E-06 1.83088E-06 1.32349E-23
 -1       777 5.89575E-06 2.08581E-06-2.64698E-23
 -1       778 5.12469E-06 2.15683E-06-1.32349E-23
 -1       779 4.41054E-06 2.07623E-06 2.64698E-23
 -1       780 3.74115E-06 1.87643E-06-1.32349E-23
 -1       781 3.10436E-06 1.58990E-06 2.64698E-23
 -1       782 2.48809E-06 1.24921E-06 1.32349E-23
 -1       783 1.88025E-06 8.86926E-07 0.00000E+00
 -1       784 1.26937E-06 5.35820E-07 0.00000E+00
 -1       785 6.44080E-07 2.28666E-07 0.00000E+00
 -1       786 2.97363E-05-2.50920E-07 0.00000E+00
 -1       787 2.98597E-05 8.93110E-08 1.65436E-24
 -1       788 2.99829E-05 3.48561E-07 0.00000E+00
 -1       789 3.01073E-05 5.41601E-07 0.00000E+00
 -1       790 3.02318E-05 6.83114E-07 0.00000E+00
 -1       791 3.03564E-05 7.87733E-07-1.65436E-24
 -1       792 3.04812E-05 8.70041E-07 0.00000E+00
 -1       793 3.06060E-05 9.44597E-07-1.65436E-24
 -1       794 3.07308E-05 1.02595E-06 3.30872E-24
 -1       795 3.08556E-05 1.12867E-06 0.00000E+00
 -1       796 3.09803E-05 1.26732E-06 0.00000E+00
 -1       797 3.11050E-05 1.45654E-06-1.65436E-24
 -1       798 3.12296E-05 1.71102E-06 0.00000E+00
 -1       799 3.13536E-05 2.04549E-06-1.65436E-24
 -1       800 3.14777E-05 2.47484E-06 0.00000E+00
 -1       801 2.69618E-05-5.63796E-07 0.00000E+00
 -1       802 2.14543E-05-4.43737E-07-1.65436E-24
 -1       803 1.45507E-05-3.31630E-07 0.00000E+00
 -1       804 7.70457E-06-2.21764E-07 0.00000E+00
 -1       805 2.36990E-06-1.03621E-07 6.61744E-24
 -1       806 2.93165E-05-2.97860E-07-3.30872E-24
 -1       807 2.90230E-05 5.08930E-08-3.30872E-24
 -1       808 2.87403E-05 3.67370E-07 0.00000E+00
 -1       809 2.84664E-05 6.58943E-07 3.30872E-24
 -1       810 2.81989E-05 9.32937E-07 0.00000E+00
 -1       811 2.79352E-05 1.19662E-06-1.65436E-24
 -1       812 2.76725E-05 1.45723E-06 0.00000E+00
 -1       813 2.74083E-05 1.72203E-06 0.00000E+00
 -1       814 2.71398E-05 1.99824E-06 0.00000E+00
 -1       815 2.68643E-05 2.29312E-06 0.00000E+00
 -1       816 2.65791E-05 2.61390E-06 3.30872E-24
 -1       817 2.62816E-05 2.96782E-06 0.00000E+00
 -1       818 2.59690E-05 3.36213E-06-1.65436E-24
 -1       819 2.56391E-05 3.80410E-06 1.65436E-24
 -1       820 2.52897E-05 4.30103E-06 1.65436E-24
 -1       821 3.14887E-05 3.69905E-06-8.27181E-25
 -1       822 3.13720E-05 4.53581E-06-8.27181E-25
 -1       823 3.12553E-05 5.50881E-06 0.00000E+00
 -1       824 3.11375E-05 6.60236E-06-1.65436E-24
 -1       825 3.10194E-05 7.80068E-06 0.00000E+00
 -1       826 3.09010E-05 9.08785E-06 1.65436E-24
 -1       827 3.07825E-05 1.04479E-05 0.00000E+00
 -1       828 3.06638E-05 1.18646E-05 0.00000E+00
 -1       829 3.05451E-05 1.33220E-05-3.30872E-24
 -1       830 3.04264E-05 1.48037E-05-1.65436E-24
 -1       831 3.03077E-05 1.62936E-05 3.30872E-24
 -1       832 3.01892E-05 1.77755E-05 0.00000E+00
 -1       833 3.00709E-05 1.92331E-05 0.00000E+00
 -1       834 2.99534E-05 2.06502E-05-1.65436E-24
 -1       835 2.98359E-05 2.20106E-05 0.00000E+00
 -1       836 3.07645E-05 3.31603E-06-6.61744E-24
 -1       837 2.96196E-05 3.62867E-06-3.30872E-24
 -1       838 2.83134E-05 3.94055E-06-6.61744E-24
 -1       839 2.69954E-05 4.25175E-06-3.30872E-24
 -1       840 2.58147E-05 4.56366E-06 0.00000E+00
 -1       841 3.13205E-05 3.68931E-06 2.06795E-25
 -1       842 3.09787E-05 4.52616E-06 0.00000E+00
 -1       843 3.05820E-05 5.50982E-06-4.13590E-25
 -1       844 3.01355E-05 6.62402E-06 0.00000E+00
 -1       845 2.96466E-05 7.85110E-06 8.27181E-25
 -1       846 2.91218E-05 9.17298E-06 0.00000E+00
 -1       847 2.85687E-05 1.05703E-05-8.27181E-25
 -1       848 2.79945E-05 1.20235E-05 0.00000E+00
 -1       849 2.74068E-05 1.35124E-05 0.00000E+00
 -1       850 2.68133E-05 1.50166E-05 4.13590E-25
 -1       851 2.62219E-05 1.65156E-05 8.27181E-25
 -1       852 2.56400E-05 1.79888E-05 0.00000E+00
 -1       853 2.50755E-05 1.94159E-05 0.00000E+00
 -1       854 2.45357E-05 2.07768E-05 4.13590E-25
 -1       855 2.40280E-05 2.20526E-05-1.65436E-24
 -1       856 2.95926E-05 2.46818E-05 0.00000E+00
 -1       857 2.94548E-05 2.63135E-05 0.00000E+00
 -1       858 2.93167E-05 2.81615E-05 3.30872E-24
 -1       859 2.91774E-05 3.01936E-05 0.00000E+00
 -1       860 2.90376E-05 3.23773E-05 3.30872E-24
 -1       861 2.88974E-05 3.46797E-05-1.65436E-24
 -1       862 2.87569E-05 3.70680E-05 0.00000E+00
 -1       863 2.86163E-05 3.95093E-05-1.65436E-24
 -1       864 2.84756E-05 4.19704E-05 0.00000E+00
 -1       865 2.83349E-05 4.44183E-05 0.00000E+00
 -1       866 2.81944E-05 4.68199E-05 0.00000E+00
 -1       867 2.80542E-05 4.91422E-05 0.00000E+00
 -1       868 2.79144E-05 5.13523E-05-3.30872E-24
 -1       869 2.77754E-05 5.34175E-05 1.65436E-24
 -1       870 2.76367E-05 5.53050E-05 0.00000E+00
 -1       871 2.86046E-05 2.32875E-05 0.00000E+00
 -1       872 2.75566E-05 2.32758E-05 0.00000E+00
 -1       873 2.65542E-05 2.32638E-05 0.00000E+00
 -1       874 2.55711E-05 2.32514E-05 0.00000E+00
 -1       875 2.45810E-05 2.32385E-05 0.00000E+00
 -1       876 2.93879E-05 2.47282E-05-3.30872E-24
 -1       877 2.89788E-05 2.63746E-05 0.00000E+00
 -1       878 2.84995E-05 2.82067E-05 0.00000E+00
 -1       879 2.79618E-05 3.01972E-05 3.30872E-24
 -1       880 2.73749E-05 3.23182E-05 6.61744E-24
 -1       881 2.67493E-05 3.45427E-05-3.30872E-24
 -1       882 2.60948E-05 3.68435E-05-6.61744E-24
 -1       883 2.54217E-05 3.91939E-05 0.00000E+00
 -1       884 2.47400E-05 4.15670E-05-6.61744E-24
 -1       885 2.40598E-05 4.39361E-05 0.00000E+00
 -1       886 2.33911E-05 4.62746E-05-6.61744E-24
 -1       887 2.27438E-05 4.85556E-05 3.30872E-24
 -1       888 2.21282E-05 5.07522E-05-6.61744E-24
 -1       889 2.15533E-05 5.28370E-05 0.00000E+00
 -1       890 2.10309E-05 5.47833E-05 0.00000E+00
 -1       891 2.61446E-05 5.69126E-05 0.00000E+00
 -1       892 2.50476E-05 5.68417E-05 0.00000E+00
 -1       893 2.40763E-05 5.67709E-05 0.00000E+00
 -1       894 2.30951E-05 5.67003E-05 0.00000E+00
 -1       895 2.19688E-05 5.66294E-05-8.27181E-25
 -1       896 2.50692E-07 8.38474E-07-6.61744E-24
 -1       897 5.03668E-07 1.19643E-06 3.30872E-24
 -1       898 7.56589E-07 1.18632E-06 6.61744E-24
 -1       899 1.00985E-06 9.16774E-07 0.00000E+00
 -1       900 1.26307E-06 4.60613E-07-6.61744E-24
 -1       901 1.51630E-06-1.11288E-07-3.30872E-24
 -1       902 1.76950E-06-7.44015E-07-6.61744E-24
 -1       903 2.02269E-06-1.38329E-06 3.30872E-24
 -1       904 2.27591E-06-1.97575E-06 0.00000E+00
 -1       905 2.52911E-06-2.46755E-06 3.30872E-24
 -1       906 2.78233E-06-2.79091E-06-6.61744E-24
 -1       907 3.03528E-06-2.87634E-06 0.00000E+00
 -1       908 3.28815E-06-2.62151E-06-6.61744E-24
 -1       909 3.53920E-06-1.92053E-06-3.30872E-24
 -1       910 3.79017E-06-6.06041E-07 0.00000E+00
 -1       911 4.08676E-06 3.30733E-06 0.00000E+00
 -1       912 4.14425E-06 3.75613E-06 0.00000E+00
 -1       913 4.20163E-06 3.09389E-06 1.65436E-24
 -1       914 4.25822E-06 1.56968E-06 0.00000E+00
 -1       915 4.31371E-06-5.93620E-07 1.65436E-24
 -1       916 4.36827E-06-3.17462E-06 0.00000E+00
 -1       917 4.42229E-06-5.96461E-06 1.65436E-24
 -1       918 4.47631E-06-8.75548E-06-8.27181E-25
 -1       919 4.53084E-06-1.13390E-05 0.00000E+00
 -1       920 4.58626E-06-1.35066E-05 0.00000E+00
 -1       921 4.64274E-06-1.50370E-05 0.00000E+00
 -1       922 4.69986E-06-1.57072E-05 0.00000E+00
 -1       923 4.75700E-06-1.52685E-05 8.27181E-25
 -1       924 4.81127E-06-1.34692E-05 0.00000E+00
 -1       925 4.86175E-06-1.00166E-05 8.27181E-25
 -1       926 4.58580E-06 1.65673E-06-6.61744E-24
 -1       927 4.26979E-06 7.65165E-06 3.30872E-24
 -1       928 3.95770E-06 1.29987E-05 0.00000E+00
 -1       929 3.64900E-06 1.73339E-05-3.30872E-24
 -1       930 3.34457E-06 2.04442E-05 0.00000E+00
 -1       931 3.04317E-06 2.21313E-05 3.30872E-24
 -1       932 2.74306E-06 2.24090E-05 6.61744E-24
 -1       933 2.44234E-06 2.13087E-05-3.30872E-24
 -1       934 2.13982E-06 1.90668E-05 0.00000E+00
 -1       935 1.83494E-06 1.59339E-05 0.00000E+00
 -1       936 1.52841E-06 1.22933E-05 0.00000E+00
 -1       937 1.22125E-06 8.53456E-06 0.00000E+00
 -1       938 9.15033E-07 5.06477E-06 0.00000E+00
 -1       939 6.09809E-07 2.28760E-06 6.61744E-24
 -1       940 3.07067E-07 5.03302E-07-1.32349E-23
 -1       941 1.47737E-06 1.72383E-07 0.00000E+00
 -1       942 3.03602E-06 3.94732E-07 1.32349E-23
 -1       943 4.58960E-06 6.47033E-07 0.00000E+00
 -1       944 6.15858E-06 9.11302E-07-2.64698E-23
 -1       945 7.72804E-06 1.18279E-06-5.29396E-23
 -1       946 9.30056E-06 1.45725E-06 0.00000E+00
 -1       947 1.08735E-05 1.73370E-06 0.00000E+00
 -1       948 1.24469E-05 2.01132E-06 0.00000E+00
 -1       949 1.40203E-05 2.29057E-06 0.00000E+00
 -1       950 1.55934E-05 2.57202E-06 0.00000E+00
 -1       951 1.71662E-05 2.85871E-06-5.29396E-23
 -1       952 1.87365E-05 3.15401E-06 2.64698E-23
 -1       953 2.03064E-05 3.47089E-06 0.00000E+00
 -1       954 2.18638E-05 3.82374E-06 0.00000E+00
 -1       955 2.34254E-05 4.26687E-06 0.00000E+00
 -1       956 2.48376E-05 5.61716E-06-1.24077E-24
 -1       957 2.47529E-05 6.47260E-06-3.10193E-25
 -1       958 2.46679E-05 7.41754E-06 1.65436E-24
 -1       959 2.45826E-05 8.44187E-06 1.24077E-24
 -1       960 2.44973E-05 9.53551E-06 3.30872E-24
 -1       961 2.44118E-05 1.06883E-05 0.00000E+00
 -1       962 2.43263E-05 1.18899E-05 1.65436E-24
 -1       963 2.42407E-05 1.31303E-05-1.65436E-24
 -1       964 2.41551E-05 1.43993E-05-1.65436E-24
 -1       965 2.40695E-05 1.56865E-05-1.65436E-24
 -1       966 2.39839E-05 1.69818E-05 0.00000E+00
 -1       967 2.38982E-05 1.82750E-05 1.65436E-24
 -1       968 2.38127E-05 1.95559E-05-3.30872E-24
 -1       969 2.37273E-05 2.08143E-05-1.65436E-24
 -1       970 2.36422E-05 2.20400E-05 0.00000E+00
 -1       971 2.33772E-05 2.44975E-05 0.00000E+00
 -1       972 2.31907E-05 2.60323E-05-1.65436E-24
 -1       973 2.30039E-05 2.77962E-05 6.61744E-24
 -1       974 2.28160E-05 2.97566E-05 0.00000E+00
 -1       975 2.26276E-05 3.18811E-05 0.00000E+00
 -1       976 2.24388E-05 3.41365E-05 3.30872E-24
 -1       977 2.22498E-05 3.64898E-05 0.00000E+00
 -1       978 2.20606E-05 3.89076E-05 3.30872E-24
 -1       979 2.18713E-05 4.13564E-05 0.00000E+00
 -1       980 2.16821E-05 4.38027E-05 0.00000E+00
 -1       981 2.14930E-05 4.62131E-05 0.00000E+00
 -1       982 2.13042E-05 4.85540E-05 0.00000E+00
 -1       983 2.11158E-05 5.07922E-05 0.00000E+00
 -1       984 2.09288E-05 5.28945E-05-1.65436E-24
 -1       985 2.07419E-05 5.48280E-05 3.30872E-24
 -3
    1PSTEP                        26          13           1          
  100CL  113 6.69102E-01         841                     0   13           1
 -4  STRESS      6    1
 -5  SXX         1    4    1    1
 -5  SYY         1    4    2    2
 -5  SZZ         1    4    3    3
 -5  SXY         1    4    1    2
 -5  SYZ         1    4    2    3
 -5  SZX         1    4    3    1
 -1         1-2.64738E+06-8.55483E+05-5.38572E+05-7.89360E+05-3.44395E-10 4.36557E-10
 -1         2-1.49781E+06-5.20454E+04 1.35808E+04-1.29939E+05 1.49953E-10 3.58114E-10
 -1         3-1.03728E+06-3.53254E+05-3.60859E+04-9.08056E+04-6.98833E-10-1.21133E-10
 -1         4-4.99458E+05-9.27748E+04 7.34554E+02-4.90871E+04 2.55540E-10-1.40699E-09
 -1         5-2.46886E+05 1.48145E+05-1.24168E+05-1.01381E+04 5.20231E-09-6.90079E-10
 -1         8-1.26166E+06-4.95062E+05-1.68017E+05-5.15044E+05-2.36469E-11-1.37516E-09
 -1         9-1.46440E+06-3.24416E+05-1.72971E+05-3.85137E+05-3.09228E-10-2.67028E-09
 -1        10-5.77478E+05-3.70357E+05 2.21756E+04-1.12198E+05-1.09098E-09-1.59639E-09
 -1        11-4.80690E+05-1.44040E+05 6.61962E+02-1.10225E+05 1.56153E-09 1.09715E-09
 -1        12-3.02222E+05 1.18588E+05-1.39173E+05-5.46118E+04 5.95321E-09-1.44446E-09
 -1        15 3.97675E+04 3.10216E+04 1.45707E+04-2.86458E+04 8.80391E-10-4.54202E-09
 -1        16-1.03513E+06-2.24299E+05-2.18995E+04-4.25150E+05 1.20175E-09-1.76381E-09
 -1        17-5.79820E+05-3.83523E+05-7.07224E+04-2.93784E+05-1.13141E-09-1.16658E-09
 -1        18-1.61433E+05-1.14983E+05-7.65905E+04-1.40911E+05 1.98694E-09 4.32919E-10
 -1        19-6.13288E+04 7.40881E+04-5.76709E+04-5.38047E+04 8.43102E-10 8.91608E-10
 -1        20 9.97482E+04-7.26279E+04-1.15502E+04 5.24065E+04 1.22466E-08 6.27551E-10
 -1        21-9.95105E+02-1.49551E+05 3.35211E+04 8.08008E+02 1.65369E-08-3.39536E-09
 -1        22 2.78872E+04 1.40757E+05 8.70049E+02-2.09883E+04 7.09406E-11 4.56566E-10
 -1        23-9.67102E+04 1.48345E+04 1.35766E+04-1.51425E+05-4.17731E-09 1.27875E-09
 -1        24-1.82151E+05 6.44491E+03 2.17020E+05-3.90737E+05-4.46137E-09-1.15203E-09
 -1        25 4.85544E+05 1.83385E+05 1.57112E+05-2.55770E+05 1.26086E-09-6.74239E-10
 -1        26 4.54506E+03 1.75339E+05 9.98082E+03-3.41562E+04-4.71497E-10-7.15772E-10
 -1        27-4.17146E+04-6.30172E+04-2.72102E+04 6.88946E+04 8.55016E-09-2.68847E-09
 -1        28-1.32305E+04-1.15162E+05-7.20024E+02 5.49150E+04 7.24742E-09 1.89694E-09
 -1        29 3.47876E+05 2.40148E+05 1.01643E+03-1.04367E+04 3.38360E-11 1.78534E-09
 -1        30 9.52697E+04 3.54114E+04 1.40888E+03-6.12877E+04 2.22783E-09 3.75712E-09
 -1        31-3.79831E+05 4.41933E+04 5.42117E+03-4.82532E+04-7.19731E-09 8.22547E-09
 -1        32 6.78454E+05 4.05175E+05 4.67638E+05-3.86420E+05 6.01741E-09 3.53612E-09
 -1        33 1.09011E+06 4.98381E+05 3.49786E+05-5.00083E+04-1.03857E-08-2.09411E-09
 -1        34-2.02036E+05-3.09443E+04-1.16123E+04 3.36039E+04-2.22415E-09 6.38465E-10
 -1        35-3.12701E+04-3.78667E+04-7.23463E+02 8.10549E+04 1.12159E-08-2.52233E-10
 -1        36-3.36854E+06 9.80594E+04-2.29309E+05 1.12904E-07-1.01783E-09 3.50701E-09
 -1        37-3.46737E+06-1.13593E+05-1.61864E+05 3.16182E-07-6.00159E-11 6.16637E-10
 -1        38-3.40674E+06 1.51879E+04-5.93278E+04 1.56985E-07-7.58480E-10 1.68802E-09
 -1        39-3.42273E+06-1.75861E+04-3.71514E+04 3.99150E-07-2.55822E-09-6.68160E-09
 -1        40-3.41296E+06 2.34765E+03-1.52340E+04-2.52363E-08-2.15296E-09-2.29102E-09
 -1        41-3.41543E+06-2.75051E+03-9.05936E+03-1.55150E-07-2.69433E-09 4.16935E-09
 -1        42-3.41397E+06 3.96242E+02-4.45004E+03-2.96057E-08 8.19157E-11 1.85150E-09
 -1        43-3.41435E+06-7.00129E+02-3.52742E+03 1.20908E-07-1.73897E-09-3.43012E-09
 -1        44-3.41402E+06 3.02718E+02-3.57617E+03-1.65789E-07-1.82352E-09-1.54375E-09
 -1        45-3.41499E+06-1.93781E+03-6.53819E+03-4.76672E-07-8.80419E-10 1.54421E-09
 -1        46-3.41334E+06 1.63048E+03-1.06761E+04-3.74502E-07-2.43428E-09 3.59250E-11
 -1        47-3.42002E+06-1.21872E+04-2.58000E+04-9.54298E-08-4.23406E-09-3.50610E-10
 -1        48-3.40904E+06 1.05214E+04-4.11313E+04-4.98422E-08-1.70057E-09 4.14002E-09
 -1        49-3.45095E+06-7.86903E+04-1.12145E+05 1.30839E-07-6.48350E-10 6.38283E-09
 -1        50-3.38259E+06 6.79239E+04-1.58905E+05 1.31214E-07-3.88124E-09 1.49157E-09
 -1        51 3.12613E+04-3.47094E+05 5.10948E+04-9.44667E+05 2.91038E-11-3.34694E-09
 -1        52 1.42968E+04-3.43009E+05 3.06255E+04-1.04391E+06 5.82077E-11 5.29690E-09
 -1        53 9.14584E+03-3.53491E+05 2.37807E+04-9.42101E+05-2.03727E-10 8.93488E-09
 -1        54 2.07017E+04-3.50451E+05 3.51659E+04-1.04662E+06-4.72937E-10 5.52973E-10
 -1        55 4.60687E+04-3.61883E+05 6.28521E+04-9.41617E+05 1.60071E-10-1.28421E-09
 -1        56-4.23095E+06-4.77392E+05-3.46899E+05-1.63581E+06-3.05590E-10-9.02219E-10
 -1        57-4.38706E+06-7.67359E+05-2.32825E+05-1.60311E+06 1.44883E-09 1.04774E-09
 -1        58-4.29856E+06-5.86815E+05-8.16386E+04-1.61655E+06 1.03500E-09-4.92219E-09
 -1        59-4.30928E+06-6.38054E+05-4.84050E+04-1.62571E+06 1.11322E-09-5.51427E-09
 -1        60-4.30770E+06-6.02350E+05-1.90693E+04-1.61467E+06 2.00998E-10-5.00222E-11
 -1        61-4.29984E+06-6.18645E+05-1.07920E+04-1.62653E+06-1.75805E-09-2.58433E-09
 -1        62-4.30778E+06-6.05683E+05-5.27505E+03-1.61586E+06-1.73168E-09 7.09292E-10
 -1        63-4.30156E+06-6.13387E+05-4.42701E+03-1.62319E+06-2.33831E-09 5.40095E-09
 -1        64-4.30592E+06-6.07565E+05-5.19591E+03-1.61800E+06 1.27534E-09-1.08116E-09
 -1        65-4.30686E+06-6.11466E+05-1.05404E+04-1.61837E+06 3.64986E-09-4.65525E-09
 -1        66-4.30251E+06-6.07668E+05-1.86118E+04-1.62066E+06 1.79239E-09-4.89217E-09
 -1        67-4.32169E+06-6.24739E+05-4.71912E+04-1.61111E+06-4.77712E-10 1.42973E-09
 -1        68-4.29130E+06-5.94823E+05-7.96056E+04-1.62512E+06 4.03816E-10-3.49974E-09
 -1        69-4.40070E+06-7.47669E+05-2.26994E+05-1.58554E+06-6.02995E-10-4.40923E-09
 -1        70-4.22454E+06-4.88959E+05-3.38228E+05-1.64484E+06-2.43017E-09 2.66300E-09
 -1        71-2.07054E+06 1.72973E+04-4.05111E+04-1.55051E-07-1.10852E-09 1.97542E-09
 -1        72-2.08785E+06-2.00414E+04-2.85823E+04-1.62546E-07-4.24902E-10-2.42562E-09
 -1        73-2.07728E+06 2.67975E+03-1.04943E+04-1.53160E-07-7.49731E-10-2.27874E-09
 -1        74-2.07998E+06-3.10477E+03-6.58943E+03 1.82317E-08 2.14487E-10 5.88102E-10
 -1        75-2.07838E+06 4.15927E+02-2.74364E+03-5.69965E-08-1.99041E-09-1.17939E-09
 -1        76-2.07870E+06-4.98579E+02-1.70944E+03 7.63633E-08-1.46000E-09 6.07508E-09
 -1        77-2.07855E+06 8.14663E+01-9.89908E+02 4.15769E-08-5.85482E-10 5.45180E-09
 -1        78-2.07855E+06-2.11563E+02-1.06878E+03-3.88522E-08-3.47106E-10 5.97925E-09
 -1        79-2.07853E+06 1.29742E+02-1.44208E+03 1.57954E-08-5.38900E-10-2.27374E-10
 -1        80-2.07893E+06-9.18107E+02-3.01330E+03 2.10628E-09 9.47550E-10 2.04477E-09
 -1        81-2.07818E+06 7.86126E+02-5.10092E+03 4.64745E-09-9.61121E-10 1.08253E-09
 -1        82-2.08137E+06-5.89159E+03-1.24563E+04 3.19168E-08 6.86839E-10-2.61662E-09
 -1        83-2.07610E+06 5.08826E+03-1.99007E+04-3.15116E-08-1.22758E-09 9.45874E-11
 -1        84-2.09632E+06-3.80572E+04-5.42625E+04-1.34001E-07-1.54246E-09-2.13640E-09
 -1        85-2.06329E+06 3.28478E+04-7.69114E+04-1.26003E-07-1.61215E-09-6.43922E-10
 -1        86-7.80794E+04 3.79727E+05 1.86197E+05 4.46963E+03 1.94996E-09 4.43731E-09
 -1        87 9.81540E+04 4.63654E+05 1.45251E+05-2.08101E+04 3.15049E-09 1.31568E-09
 -1        88-1.97235E+04 4.07011E+05 7.63137E+04 3.10902E+03 3.24417E-09 2.78919E-09
 -1        89 7.23594E+04 4.51099E+05 1.11300E+05-1.94019E+04 4.78758E-09-4.05668E-09
 -1        90-5.23410E+04 3.92212E+05 1.27872E+05 3.06197E+03 3.04135E-09 2.77340E-09
 -1        91-1.38511E+06-1.77710E+05-9.35434E+03-4.60307E+05-2.61753E-08 3.05590E-10
 -1        92-1.01376E+06-2.45548E+05 3.97888E+04-5.59032E+05-2.32412E-08 4.96402E-09
 -1        93-1.33446E+06-1.04033E+05 6.31311E+02-3.81135E+05 1.41968E-08-3.13389E-09
 -1        94-1.07377E+06-3.15643E+05 7.84184E+03-6.43994E+05-9.92259E-10-6.45832E-09
 -1        95-1.33286E+06-1.01717E+05-1.96249E+03-3.80770E+05-1.74937E-08-4.79122E-09
 -1        96-1.02361E+06-2.62477E+05 2.57435E+04-5.58122E+05 1.41849E-08-4.90866E-09
 -1        97-1.37704E+06-1.63017E+05-2.39962E+04-4.61686E+05-1.03691E-08 1.01227E-09
 -1        98-1.03466E+06-1.40837E+05 4.61752E+04-3.95248E+05 7.11225E-09-7.92897E-09
 -1        99-1.31434E+06-2.28987E+05-2.51230E+04-5.37619E+05 2.26919E-09-1.03864E-09
 -1       100-1.23832E+06-4.19388E+04 2.56159E+04-3.03531E+05-4.91009E-08-1.43145E-08
 -1       101-1.18072E+06-2.56306E+05-5.13073E+03-5.58700E+05-5.41877E-09-6.12135E-09
 -1       102-1.38588E+06-9.16421E+03 1.02457E+03-2.88382E+05 2.60883E-08 2.98217E-08
 -1       103-1.17428E+06-2.56142E+05-9.73328E+03-5.59041E+05-4.33929E-08 2.29215E-09
 -1       104-1.25762E+06-4.46272E+04 5.98977E+03-2.99823E+05-4.15214E-08 2.00935E-08
 -1       105-1.30225E+06-2.25920E+05-5.56556E+04-5.41587E+05-3.32311E-08-5.69526E-09
 -1       106-1.06270E+06-5.68750E+03 1.33253E+04-4.31538E-08-8.94102E-10 1.30694E-09
 -1       107-1.05686E+06 6.58987E+03 9.39460E+03 1.06417E-08 7.54227E-10 2.27203E-09
 -1       108-1.06048E+06-8.80837E+02 3.43729E+03 6.24166E-08-2.11561E-10-1.68711E-09
 -1       109-1.05944E+06 1.01830E+03 2.13313E+03 1.42459E-07-3.84089E-11 1.02781E-09
 -1       110-1.06012E+06-1.34446E+02 8.34767E+02 1.72153E-07 1.02256E-10-1.38004E-09
 -1       111-1.05988E+06 1.45928E+02 4.16256E+02 1.42696E-07 3.60942E-10-1.52444E-09
 -1       112-1.06005E+06-1.10976E+01 5.03262E+01 1.65676E-07-3.93338E-10 1.56091E-09
 -1       113-1.05999E+06-5.00060E+01-2.53138E+02 4.96315E-08-3.15672E-10 2.35153E-09
 -1       114-1.06001E+06 6.10206E+01-6.26345E+02 6.97638E-08-6.02052E-10-2.30969E-09
 -1       115-1.06022E+06-4.80774E+02-1.53424E+03 1.87507E-08-4.63417E-10-5.39470E-09
 -1       116-1.05982E+06 4.18561E+02-2.69160E+03-2.72010E-09-6.87226E-10 1.02375E-09
 -1       117-1.06153E+06-3.14466E+03-6.63890E+03 9.56302E-08 9.45979E-10 1.44541E-09
 -1       118-1.05871E+06 2.71684E+03-1.06277E+04 6.51924E-08-3.22139E-10-5.29644E-09
 -1       119-1.06951E+06-2.03215E+04-2.89835E+04-1.35171E-07-3.81489E-10-8.70841E-10
 -1       120-1.05186E+06 1.75394E+04-4.10866E+04 2.04599E-08 8.10918E-11 2.15368E-09
 -1       121-2.62902E+03-1.09575E+06 1.05034E+04 6.28234E+03-8.00355E-10 1.37106E-09
 -1       122 3.33017E+03-1.09171E+06 6.45469E+03 2.69111E+04-5.35465E-10-4.82760E-09
 -1       123-2.48491E+02-1.09406E+06 1.94328E+03 6.60511E+03-2.30534E-09-3.53612E-09
 -1       124-6.92520E+02-1.09391E+06-4.35237E+02 2.61230E+04-1.63277E-09-4.01315E-09
 -1       125 6.09927E+02-1.09340E+06-2.47958E+03 7.06986E+03-4.61472E-09-4.70209E-09
 -1       126-1.02509E+06-1.43866E+05 3.64839E+03-3.81398E+05 1.11572E-09 3.32420E-10
 -1       127-1.01532E+06-1.47366E+05 2.65983E+03-3.89902E+05 4.84499E-09 3.60964E-09
 -1       128-1.02610E+06-1.40460E+05 8.53040E+02-3.79260E+05 2.43227E-09 2.22934E-09
 -1       129-1.01427E+06-1.51202E+05 5.42018E+02-3.92289E+05-1.95666E-09-3.89321E-09
 -1       130-1.02616E+06-1.40018E+05 1.69589E+02-3.79027E+05-1.82781E-09-6.94621E-09
 -1       131-1.01568E+06-1.49982E+05 1.03535E+02-3.90511E+05 2.96529E-09-3.33483E-09
 -1       132-1.02468E+06-1.41692E+05-1.37532E+02-3.81027E+05 1.84616E-09-1.97642E-09
 -1       133-1.01984E+06-1.45605E+05-1.53492E+02-3.85276E+05 1.18976E-09 2.65175E-11
 -1       134-1.02197E+06-1.44415E+05-6.31625E+02-3.84242E+05 8.84199E-10 7.89896E-10
 -1       135-1.02551E+06-1.40785E+05-1.29591E+03-3.79183E+05 4.84651E-09-3.40813E-09
 -1       136-1.01903E+06-1.46508E+05-2.48025E+03-3.87125E+05-7.14161E-10 4.31896E-10
 -1       137-1.03117E+06-1.40159E+05-6.54437E+03-3.74724E+05-1.14701E-08 9.66338E-12
 -1       138-1.01634E+06-1.45027E+05-1.05695E+04-3.88723E+05-1.38584E-09-1.88948E-09
 -1       139-1.04197E+06-1.58656E+05-3.12097E+04-3.71093E+05 5.80451E-09-2.95040E-09
 -1       140-1.00825E+06-1.28061E+05-4.51564E+04-3.90744E+05-3.31966E-10-1.95541E-09
 -1       141-4.68594E+05-4.89887E+03 1.14772E+04-1.49082E-07 3.48312E-10-9.56788E-10
 -1       142-4.63595E+05 5.67581E+03 8.08752E+03-6.83162E-08 4.42269E-10 5.79803E-12
 -1       143-4.66680E+05-7.58451E+02 2.94897E+03-8.13199E-08 2.84105E-11 1.34537E-09
 -1       144-4.65826E+05 8.75042E+02 1.81028E+03-1.43586E-07-3.55874E-10 3.57505E-09
 -1       145-4.66365E+05-1.13981E+02 6.65589E+02-1.49961E-08 7.84738E-11-3.28680E-09
 -1       146-4.66206E+05 1.11566E+02 2.43579E+02-1.34452E-07-6.64028E-10-3.35903E-09
 -1       147-4.66300E+05 2.74105E+00-1.73222E+02-7.82092E-08 2.85740E-10 2.92368E-09
 -1       148-4.66349E+05-1.36803E+02-6.93338E+02-6.38882E-08-7.60319E-11-5.75399E-09
 -1       149-4.66223E+05 1.33834E+02-1.40451E+03 5.52675E-08-1.01342E-10-4.26076E-09
 -1       150-4.66827E+05-1.02761E+03-3.30482E+03-4.24556E-08-3.29266E-10-1.10111E-09
 -1       151-4.65823E+05 8.91251E+02-5.74955E+03 2.84889E-08-9.63039E-11 6.18002E-10
 -1       152-4.69611E+05-6.69200E+03-1.41433E+04 7.80710E-08 2.98628E-10 3.25508E-09
 -1       153-4.63442E+05 5.78116E+03-2.26291E+04 1.74338E-08 1.24537E-09 2.78487E-09
 -1       154-4.86588E+05-4.32409E+04-6.16881E+04-5.75616E-08 3.29014E-10 2.19734E-09
 -1       155-4.48851E+05 3.73221E+04-8.74252E+04-1.78559E-08 3.09052E-09 3.96540E-10
 -1       156-1.48917E+04-2.17104E+05 3.59574E+04-2.40437E+03-8.18545E-11-3.55770E-09
 -1       157 1.96405E+04-2.00756E+05 2.96809E+04 1.04698E+04-1.90084E-10-5.87353E-09
 -1       158-4.68397E+03-2.12463E+05 1.81222E+04-2.35031E+03-1.48503E-10-1.11515E-09
 -1       159 2.08435E+04-1.99997E+05 3.12892E+04 1.00337E+04 6.66660E-10 8.47692E-10
 -1       160-1.61044E+04-2.17844E+05 3.86210E+04-1.96819E+03 5.74801E-10-2.96308E-09
 -1       161-5.57178E+05-7.68575E+04-3.38185E+03-2.09268E+05 3.06272E-10 5.96174E-10
 -1       162-5.58084E+05-8.07394E+04-2.34565E+03-2.09605E+05 2.01993E-10 2.88443E-09
 -1       163-5.57932E+05-7.79914E+04-8.06007E+02-2.08961E+05 7.53047E-10 2.13279E-09
 -1       164-5.57240E+05-7.93974E+04-5.24118E+02-2.09923E+05-5.42570E-11 4.96841E-09
 -1       165-5.58021E+05-7.81955E+04-2.45981E+02-2.08951E+05-3.25191E-10 2.41641E-09
 -1       166-5.57246E+05-7.90837E+04-2.49046E+02-2.09822E+05-9.32127E-10 3.39521E-09
 -1       167-5.57926E+05-7.83047E+04-3.16976E+02-2.09063E+05-1.09117E-10-3.36556E-10
 -1       168-5.57572E+05-7.89466E+04-6.76601E+02-2.09516E+05 3.75033E-10-6.74092E-09
 -1       169-5.57695E+05-7.83331E+04-1.21097E+03-2.09256E+05-2.03670E-10 1.57263E-09
 -1       170-5.58481E+05-7.95817E+04-3.01295E+03-2.08993E+05-4.46633E-10 8.49019E-09
 -1       171-5.57018E+05-7.76719E+04-5.22831E+03-2.09586E+05-3.87558E-10 1.41586E-09
 -1       172-5.62439E+05-8.54647E+04-1.40306E+04-2.07546E+05-2.68574E-09-3.56795E-09
 -1       173-5.53743E+05-7.24658E+04-2.25642E+04-2.10698E+05 5.94810E-10-1.01772E-09
 -1       174-5.85383E+05-1.25037E+05-6.66538E+04-1.99882E+05 6.44786E-09 1.89175E-10
 -1       175-5.34098E+05-3.82044E+04-9.62357E+04-2.17215E+05 1.08357E-08-4.13638E-09
 -1       191 1.97874E+03 5.51461E+05 3.28646E+03-1.90110E+04-1.29148E-10-3.25417E-09
 -1       192 7.02928E+02 5.51958E+05 1.96622E+03-2.05368E+04-9.20863E-10 1.29239E-09
 -1       193 3.07511E+02 5.51611E+05 1.57412E+03-1.87471E+04 3.06954E-12 3.32147E-09
 -1       194 9.33225E+02 5.52004E+05 2.37471E+03-2.10211E+04-1.98497E-09 9.36780E-11
 -1       195 2.68464E+03 5.51335E+05 4.30248E+03-1.85232E+04-3.09228E-11 2.29738E-09
 -1       251-1.68856E+06 1.49566E+04-8.01213E+04-5.60093E+04 2.57387E-10-7.06859E-09
 -1       252-1.56122E+06-1.64661E+04-2.63315E+04 1.70827E+05 9.63155E-10 5.26188E-09
 -1       253-1.62641E+06 1.01052E+03-1.73451E+04-1.15186E+05-4.31419E-09-4.54020E-09
 -1       254-1.61761E+06 6.33294E+03-6.06533E+03 2.23037E+05 2.80738E-09 3.07682E-09
 -1       255-1.63865E+06-2.49241E+03-7.52904E+03-1.08465E+05 1.02177E-08 1.75442E-09
 -1       256-1.52547E+06 7.39865E+03 1.80010E+04 1.47273E+05 6.51744E-09 9.04890E-09
 -1       257-1.70968E+06-7.24226E+03-1.99981E+04-3.91299E+04 8.63747E-09 1.28182E-10
 -1       258-1.45766E+06 6.16254E+03 3.17947E+04-1.58726E+04 5.23869E-10-5.01308E-09
 -1       259-1.69983E+06-6.62808E+03-1.78493E+04 5.44531E+04 1.19326E-09-4.68788E-10
 -1       260-1.54748E+06 7.87179E+03 1.39528E+04-1.69470E+05 2.46678E-09-7.27232E-09
 -1       261-1.62864E+06-1.82345E+03-5.30432E+03 1.14361E+05 1.66006E-08 3.79509E-09
 -1       262-1.61777E+06 6.29210E+03-6.02035E+03-2.23546E+05-1.28946E-08-6.40352E-09
 -1       263-1.63629E+06 4.04679E+02-1.93258E+04 1.08777E+05-5.90717E-10 3.13776E-09
 -1       264-1.53892E+06-1.67614E+04-2.18413E+04-1.49472E+05 4.31828E-08-1.37743E-09
 -1       265-1.69882E+06 1.41020E+04-8.17309E+04 3.99985E+04 1.18816E-08 2.46291E-09
 -1       266-2.71988E+04-2.06686E+05 6.35606E+04-1.11912E+04-2.91038E-11 3.71500E-09
 -1       267 3.01106E+04-1.77781E+05 4.29868E+04 5.18898E+04 1.23691E-10-4.02088E-09
 -1       268-3.02735E+03-1.96819E+05 1.18942E+04-1.05116E+04 3.36513E-11-2.51134E-10
 -1       269-3.57587E+03-1.86987E+05-3.38005E+02 4.89254E+04-3.63798E-12 9.21273E-09
 -1       270 5.93103E+03-1.96877E+05-1.48320E+04-8.23494E+03 1.82808E-10 8.46376E-09
 -1       271-3.65451E+06-4.57005E+05-2.87683E+05-1.41707E+06-4.25644E-10 1.60071E-10
 -1       272-3.75704E+06-6.52236E+05-1.82812E+05-1.41587E+06 3.03316E-10-1.70439E-09
 -1       273-3.70683E+06-5.23742E+05-6.78682E+04-1.40660E+06 6.95195E-10-1.27329E-09
 -1       274-3.69576E+06-5.67937E+05-3.75364E+04-1.43311E+06 8.06040E-10 5.75710E-10
 -1       275-3.71421E+06-5.29800E+05-1.57939E+04-1.40422E+06-1.48248E-10-3.96903E-09
 -1       276-3.68682E+06-5.60718E+05-8.40364E+03-1.43706E+06 3.45608E-11 2.30102E-09
 -1       277-3.71582E+06-5.29727E+05-4.30360E+03-1.40320E+06 3.08319E-10-1.45542E-09
 -1       278-3.68509E+06-5.60855E+05-3.41505E+03-1.43846E+06 3.41288E-10 1.15642E-09
 -1       279-3.71605E+06-5.29496E+05-4.10636E+03-1.40295E+06-5.39302E-11 4.39354E-09
 -1       280-3.68598E+06-5.61498E+05-7.87922E+03-1.43814E+06 4.92776E-10 3.70164E-10
 -1       281-3.71493E+06-5.29173E+05-1.47050E+04-1.40348E+06-3.59250E-11 1.41699E-09
 -1       282-3.69370E+06-5.68861E+05-3.49555E+04-1.43524E+06 1.27875E-09 3.38332E-10
 -1       283-3.70836E+06-5.23241E+05-6.31479E+04-1.40538E+06-1.19849E-09 1.94996E-09
 -1       284-3.75023E+06-6.47824E+05-1.70151E+05-1.41977E+06-6.30280E-09 4.12547E-09
 -1       285-3.65988E+06-4.60922E+05-2.67743E+05-1.41489E+06-4.47471E-10 1.45519E-09
 -1       286-6.47490E+05-1.08181E+04 2.52625E+04-1.49130E+03 1.51698E-09-8.80391E-10
 -1       287-6.35963E+05 1.25258E+04 1.79228E+04-4.62829E+02 6.15614E-10 4.71141E-09
 -1       288-6.43279E+05-1.68453E+03 6.51723E+03 1.84321E+02 3.03658E-10-1.78488E-09
 -1       289-6.40952E+05 1.94374E+03 4.16915E+03-3.63838E+03-8.31051E-11-3.21000E-09
 -1       290-6.42516E+05-2.65728E+02 1.68265E+03 1.68432E+03 8.49582E-10 1.95848E-09
 -1       291-6.41929E+05 3.18091E+02 1.06894E+03-6.08687E+03 7.99218E-11-3.64057E-09
 -1       292-6.42320E+05-5.10877E+01 5.70842E+02 2.63284E+03 9.35913E-10 3.23497E-09
 -1       293-6.42146E+05 1.26141E+02 5.72187E+02-7.20058E+03 2.40249E-10 6.15067E-09
 -1       294-6.42311E+05-6.61038E+01 7.21974E+02 2.79807E+03 1.29296E-09-1.26170E-09
 -1       295-6.41917E+05 4.56535E+02 1.48212E+03-6.70741E+03 1.63666E-09-2.41153E-09
 -1       296-6.42544E+05-3.84412E+02 2.45802E+03 2.13966E+03 8.10786E-10 3.53407E-09
 -1       297-6.40565E+05 2.85079E+03 6.06531E+03-4.72870E+03 1.91118E-09 7.59519E-09
 -1       298-6.43644E+05-2.46542E+03 9.58196E+03 8.19314E+02 1.01687E-09 3.33921E-09
 -1       299-6.33220E+05 1.83775E+04 2.62684E+04-1.76217E+03-5.99456E-10-6.39830E-10
 -1       300-6.49864E+05-1.58688E+04 3.70978E+04-8.26946E+02 5.30349E-11-2.18824E-09
 -1       301 4.92568E+04 2.72506E+04 1.05505E+05-2.80074E+04-3.09228E-09-4.86108E-09
 -1       302 1.66462E+04 4.67937E+04 6.37614E+04-3.27899E+04-4.58385E-10-3.92927E-09
 -1       303 4.79909E+03 3.42246E+04 4.99420E+04-2.80863E+04-2.87309E-09 1.10344E-09
 -1       304 2.01656E+04 4.88046E+04 7.29686E+04-3.27629E+04-6.03904E-10 1.70598E-09
 -1       305 6.07171E+04 2.52548E+04 1.27893E+05-2.80065E+04-2.59024E-09 3.10501E-09
 -1       306-2.57977E+06-3.29808E+05-1.78733E+05-9.99269E+05 3.13412E-09-5.17321E-09
 -1       307-2.62951E+06-4.64463E+05-1.13485E+05-1.01414E+06 5.43935E-09 2.34468E-09
 -1       308-2.61245E+06-3.70940E+05-4.21918E+04-9.92594E+05 2.18120E-09-3.68345E-09
 -1       309-2.59145E+06-4.12375E+05-2.33277E+04-1.02520E+06 1.65073E-09-3.75303E-09
 -1       310-2.61709E+06-3.74620E+05-9.84624E+03-9.91088E+05 1.17325E-09 1.74259E-09
 -1       311-2.58602E+06-4.07859E+05-5.27740E+03-1.02769E+06 2.38470E-09-5.80144E-10
 -1       312-2.61803E+06-3.74627E+05-2.78528E+03-9.90533E+05-3.21961E-10-8.60894E-10
 -1       313-2.58518E+06-4.07743E+05-2.36729E+03-1.02831E+06 7.52550E-10-3.06090E-09
 -1       314-2.61801E+06-3.74630E+05-3.04704E+03-9.90546E+05-2.27158E-09-1.53318E-09
 -1       315-2.58615E+06-4.07925E+05-6.00539E+03-1.02763E+06 1.60617E-09 1.07320E-10
 -1       316-2.61697E+06-3.74564E+05-1.13107E+04-9.91128E+05 1.64709E-09 9.36780E-10
 -1       317-2.59229E+06-4.13303E+05-2.68805E+04-1.02498E+06 1.12072E-09 2.85127E-10
 -1       318-2.61174E+06-3.70186E+05-4.86218E+04-9.92727E+05-2.26100E-09-5.23141E-09
 -1       319-2.63589E+06-4.73675E+05-1.30835E+05-1.01264E+06-6.76323E-10 2.23736E-10
 -1       320-2.57426E+06-3.22537E+05-2.06003E+05-1.00019E+06 4.76575E-10-6.11180E-10
 -1       321-5.02104E+05-2.15352E+04 5.04313E+04-6.28878E+02-1.66960E-09 2.34650E-09
 -1       322-4.79996E+05 2.49465E+04 3.56196E+04-1.43398E+03-1.54014E-09 2.36241E-09
 -1       323-4.93683E+05-3.33910E+03 1.30403E+04 2.60988E+02-2.41585E-12 1.46338E-09
 -1       324-4.89848E+05 3.86132E+03 8.19149E+03-3.07385E+03 4.93245E-10-1.20781E-09
 -1       325-4.92271E+05-5.16501E+02 3.32675E+03 1.01110E+03 8.47251E-11 3.99245E-09
 -1       326-4.91533E+05 5.99887E+02 1.95638E+03-4.27271E+03-7.49623E-12 3.89832E-09
 -1       327-4.92008E+05-8.18408E+01 8.86599E+02 1.45986E+03-9.86915E-10 2.25583E-09
 -1       328-4.91836E+05 1.16049E+02 5.71174E+02-4.78347E+03 2.08282E-10 3.50335E-09
 -1       329-4.91973E+05-3.07758E+01 4.10115E+02 1.52187E+03 1.36751E-10 4.21243E-09
 -1       330-4.91794E+05 1.58591E+02 5.76183E+02-4.50853E+03-5.05594E-10 2.61053E-11
 -1       331-4.92049E+05-1.25973E+02 8.40695E+02 1.18491E+03-5.64654E-10 3.89247E-09
 -1       332-4.91342E+05 9.26252E+02 1.99765E+03-3.49984E+03 7.69660E-11 5.57714E-09
 -1       333-4.92417E+05-8.01482E+02 3.11834E+03 5.13163E+02 5.87193E-11-3.78009E-10
 -1       334-4.88928E+05 5.96900E+03 8.54668E+03-1.95159E+03 1.10057E-09 1.10958E-10
 -1       335-4.94453E+05-5.15721E+03 1.20392E+04-3.63367E+02-8.71353E-10-2.24463E-09
 -1       336 8.49387E+02-1.09370E+06-5.17101E+03-6.06540E+03-6.25562E-09-2.99133E-09
 -1       337-2.28145E+03-1.09589E+06-7.96328E+03-3.37787E+04-4.75400E-09-7.36190E-09
 -1       338 1.24563E+03-1.09337E+06-1.20212E+04-5.84738E+03-7.16000E-09-4.42651E-09
 -1       339-1.42861E+04-1.10294E+06-2.87662E+04-3.40254E+04-4.74347E-09 9.18590E-10
 -1       340 1.08504E+04-1.08672E+06-4.42355E+04-5.82288E+03-6.61748E-09 2.07041E-09
 -1       341-1.25011E+06-1.96310E+05-3.98860E+04-5.06605E+05-1.97724E-09 2.81943E-11
 -1       342-1.27793E+06-1.03745E+05-9.89822E+03-3.65984E+05 2.69210E-10-1.10572E-09
 -1       343-1.19206E+06-2.24468E+05-7.92403E+03-5.23599E+05-6.16092E-09-2.74504E-08
 -1       344-1.33350E+06-7.32050E+04-2.17091E+03-3.52169E+05 1.85043E-08-5.52495E-09
 -1       345-1.19721E+06-2.24796E+05-3.23925E+03-5.22618E+05-5.87806E-09 1.64391E-10
 -1       346-1.25983E+06-9.71383E+04 9.91930E+03-3.71651E+05 2.26248E-08 1.38001E-08
 -1       347-1.26257E+06-2.02909E+05-1.09469E+04-5.01556E+05 1.88948E-08 2.95427E-09
 -1       348-1.15287E+06-1.62605E+05 1.77945E+04-4.38008E+05 4.27144E-09-2.04682E-09
 -1       349-1.30128E+06-1.61528E+05-1.13963E+04-4.54136E+05 7.17682E-09-2.86491E-11
 -1       350-1.12599E+06-2.37686E+05 6.08444E+03-5.32014E+05-7.21784E-08-2.38360E-08
 -1       351-1.29257E+06-1.25471E+05-8.00951E+03-4.10018E+05-2.93790E-08-1.57002E-09
 -1       352-1.14122E+06-2.77454E+05-1.64088E+04-5.76122E+05 9.64963E-08-1.26238E-08
 -1       353-1.28905E+06-1.19504E+05-3.12870E+04-4.12188E+05 1.87772E-08-1.47375E-08
 -1       354-1.15934E+06-2.93009E+05-7.67319E+04-5.17934E+05-6.09230E-08-1.66619E-09
 -1       355-1.27135E+06-1.12463E+05-1.38163E+05-4.65881E+05-1.62636E-08 2.32831E-09
 -1       356-5.59026E+05-2.66484E+03 6.22109E+03-1.01260E+03 1.17979E-10 7.00311E-10
 -1       357-5.56177E+05 3.08529E+03 4.40002E+03 2.33906E+02-1.62942E-09-9.19272E-10
 -1       358-5.57994E+05-4.14430E+02 1.58014E+03-3.46343E+02-1.17882E-09 1.17825E-09
 -1       359-5.57390E+05 4.73789E+02 9.71769E+02-1.09439E+03 5.63034E-11-3.34138E-09
 -1       360-5.57814E+05-6.18574E+01 3.05589E+02 3.15729E+02-4.22816E-10-2.38074E-09
 -1       361-5.57634E+05 4.82479E+01 3.66478E+01-2.27256E+03-7.02705E-10 3.55676E-10
 -1       362-5.57754E+05 1.20175E+01-2.93149E+02 8.31835E+02-2.21547E-10 2.68827E-09
 -1       363-5.57790E+05-1.57846E+02-8.04527E+02-3.04837E+03 1.43061E-10-2.17294E-09
 -1       364-5.57662E+05 1.46277E+02-1.54607E+03 1.09156E+03 1.20599E-09 1.89220E-09
 -1       365-5.58313E+05-1.11237E+03-3.59073E+03-3.25686E+03-2.02528E-09 4.77712E-10
 -1       366-5.57233E+05 9.64881E+02-6.23093E+03 1.04032E+03 8.53440E-10 4.22028E-09
 -1       367-5.61305E+05-7.24374E+03-1.53098E+04-2.85276E+03 1.41176E-09 5.24869E-09
 -1       368-5.54672E+05 6.25769E+03-2.45030E+04 6.87443E+02 1.14672E-09-4.82032E-11
 -1       369-5.79647E+05-4.68115E+04-6.67727E+04-1.90419E+03-3.28519E-10 2.56387E-09
 -1       370-5.38894E+05 4.04025E+04-9.46537E+04 9.17889E+01 3.51551E-09 5.96629E-10
 -1       371-1.45562E+04-2.43085E+05 3.31666E+04 3.50429E+03 1.85537E-09 6.78881E-10
 -1       372 1.49308E+04-2.29294E+05 1.97943E+04-1.33965E+04 2.57251E-09 2.24564E-09
 -1       373-2.98745E+02-2.36408E+05 1.13439E+03 3.58734E+03 2.22190E-09 1.20650E-09
 -1       374-1.22916E+04-2.41756E+05-1.59155E+04-1.30325E+04 1.78306E-09 9.53222E-10
 -1       375 1.25632E+04-2.30611E+05-2.85503E+04 3.14015E+03 1.54432E-09 4.35477E-10
 -1       376-9.45627E+05-1.20202E+05-3.88779E+04-3.64277E+05 2.85672E-09-1.08048E-09
 -1       377-9.70774E+05-1.50737E+05-2.69212E+04-3.52084E+05 6.68604E-09 2.48019E-09
 -1       378-9.53882E+05-1.33738E+05-9.13263E+03-3.61304E+05 6.43809E-10 3.05590E-09
 -1       379-9.60228E+05-1.35960E+05-5.68324E+03-3.56534E+05-1.21702E-09 3.95687E-10
 -1       380-9.56150E+05-1.34939E+05-2.20052E+03-3.59834E+05 6.85759E-10 2.50657E-09
 -1       381-9.56610E+05-1.35609E+05-1.36140E+03-3.59392E+05-4.98844E-10-2.62008E-09
 -1       382-9.57493E+05-1.34084E+05-8.30329E+02-3.58445E+05 4.79758E-11-4.59590E-09
 -1       383-9.54548E+05-1.37411E+05-1.04299E+03-3.61744E+05 1.03324E-09 1.62760E-09
 -1       384-9.58216E+05-1.33133E+05-1.56780E+03-3.57486E+05 2.37208E-10 1.25829E-09
 -1       385-9.54326E+05-1.39486E+05-3.70380E+03-3.62685E+05 4.20528E-10-1.56933E-09
 -1       386-9.57721E+05-1.32008E+05-6.35927E+03-3.57507E+05 1.65869E-10-1.39357E-09
 -1       387-9.59234E+05-1.46462E+05-1.70150E+04-3.60750E+05-2.23395E-09-8.21819E-09
 -1       388-9.53318E+05-1.26179E+05-2.73724E+04-3.59416E+05 2.24873E-09-5.82077E-11
 -1       389-9.88519E+05-1.92924E+05-8.08128E+04-3.49682E+05 6.40694E-09-1.60799E-09
 -1       390-9.28474E+05-8.56779E+04-1.16722E+05-3.68533E+05 1.25074E-08-4.19095E-09
 -1       406 2.17442E+03 5.41976E+05 4.19733E+03-6.53109E+04 2.45564E-10 6.94854E-10
 -1       407 1.18628E+03 5.42687E+05 4.23163E+03-7.20675E+04-3.34921E-09-2.11139E-09
 -1       408 1.50195E+03 5.41924E+05 6.25061E+03-6.51149E+04 1.42791E-10-1.65710E-09
 -1       409 5.82669E+03 5.44266E+05 1.29689E+04-7.23105E+04-4.21369E-09 5.41604E-10
 -1       410 1.67712E+04 5.40251E+05 2.58972E+04-6.50483E+04 2.58296E-10 2.07274E-09
 -1       466 1.12683E+06-4.46127E+04 1.00784E+05 2.80460E+04-4.67935E-10-7.08678E-09
 -1       467 1.19289E+06 5.08101E+04 7.48991E+04-5.43496E+04 1.97474E-09 5.64978E-09
 -1       468 1.15116E+06-6.68860E+03 2.62573E+04 1.17065E+04 8.72433E-10-1.06957E-09
 -1       469 1.16329E+06 7.58059E+03 1.72209E+04-3.00741E+04 7.37145E-10 2.05046E-09
 -1       470 1.15563E+06-9.90784E+02 6.91159E+03 3.76348E+03 8.59302E-10 3.91992E-10
 -1       471 1.15780E+06 1.19524E+03 4.45931E+03-1.84267E+04 3.41430E-10 1.49930E-09
 -1       472 1.15646E+06-1.86018E+02 2.55257E+03 5.84530E+01 6.84366E-10-2.36298E-10
 -1       473 1.15693E+06 5.68194E+02 2.81593E+03-1.34250E+04-1.38812E-09-5.31095E-09
 -1       474 1.15645E+06-3.31828E+02 3.83342E+03-1.23820E+03-6.97682E-10 1.38766E-09
 -1       475 1.15787E+06 2.46698E+03 8.02087E+03-1.26066E+04 1.92382E-09-6.65636E-10
 -1       476 1.15551E+06-2.07560E+03 1.35869E+04-7.59890E+02 2.72875E-09 1.82445E-09
 -1       477 1.16460E+06 1.56542E+04 3.31873E+04-1.55757E+04 1.48930E-10-5.19867E-09
 -1       478 1.14972E+06-1.34945E+04 5.29062E+04 1.73091E+03 2.83364E-10 7.09406E-10
 -1       479 1.20548E+06 1.01058E+05 1.44452E+05-2.39614E+04 2.23952E-09-3.13048E-09
 -1       480 1.11471E+06-8.72537E+04 2.04201E+05 7.62500E+03 2.32740E-09-4.07454E-10
 -1       481-1.05391E+04 2.31555E+05 2.03903E+04-1.75828E+04-2.57387E-10-1.77170E-09
 -1       482 1.16118E+04 2.63930E+05 1.91708E+04 6.35294E+04-2.36469E-10 9.37769E-09
 -1       483-1.80830E+03 2.42873E+05 7.12953E+03-1.41419E+04-5.52518E-11 2.70325E-09
 -1       484 4.88360E+03 2.50290E+05 8.78806E+03 5.91053E+04 2.12083E-10-1.38087E-09
 -1       485-3.15710E+03 2.44228E+05 8.32707E+03-1.31492E+04 1.53022E-10-2.71456E-10
 -1       486-1.09132E+06-1.82893E+05-1.24746E+05-4.95559E+05-7.42148E-10-1.49703E-08
 -1       487-1.15677E+06-4.56677E+04-5.03240E+04-2.27810E+05 4.07817E-09 2.27437E-08
 -1       488-9.95979E+05-2.28081E+05-2.44444E+04-4.95856E+05 7.51879E-09 1.47202E-08
 -1       489-1.21945E+06 4.90904E+03-9.16832E+03-2.31973E+05 4.48418E-09 2.00253E-08
 -1       490-1.03305E+06-2.30144E+05-1.20316E+04-4.95215E+05-6.51198E-10 2.52467E-08
 -1       491-1.04074E+06-2.58406E+04 2.84995E+04-2.44559E+05 1.89175E-10 1.53989E-08
 -1       492-1.16558E+06-2.03970E+05-2.90547E+04-4.75678E+05-4.19732E-09-4.87080E-09
 -1       493-8.47389E+05-1.18451E+05 4.93250E+04-3.29973E+05-1.26602E-08-2.75395E-09
 -1       494-1.21937E+06-1.42808E+05-2.74457E+04-4.04939E+05 9.21409E-09-1.56729E-08
 -1       495-8.50197E+05-2.33117E+05 2.56561E+04-4.85291E+05 6.20912E-09-4.04641E-08
 -1       496-1.17051E+06-8.36182E+04-9.50551E+03-3.26613E+05-1.35396E-08-2.61603E-08
 -1       497-9.20212E+05-2.96632E+05-8.09284E+03-5.78683E+05-1.20917E-08-1.22893E-08
 -1       498-1.15825E+06-7.26301E+04-2.26659E+04-3.17671E+05-1.26183E-08 6.34518E-08
 -1       499-8.88958E+05-2.87630E+05-3.86823E+04-5.09114E+05-4.75609E-09 1.09067E-08
 -1       500-1.19552E+06-9.74264E+04-1.14523E+05-3.91889E+05 2.40079E-08-6.49379E-09
 -1       501-6.13379E+05-2.07642E+04 4.85371E+04-1.03316E+03 1.21196E-09-8.03993E-10
 -1       502-5.91575E+05 2.40460E+04 3.43734E+04-1.75684E+03-1.10106E-09 2.59161E-09
 -1       503-6.05248E+05-3.22673E+03 1.25250E+04 7.93977E+02-1.08633E-09-1.42518E-09
 -1       504-6.01178E+05 3.72862E+03 7.92695E+03-5.10392E+03-4.09727E-10-3.67845E-09
 -1       505-6.03807E+05-5.02971E+02 3.17833E+03 2.31402E+03 3.46773E-10-1.59525E-09
 -1       506-6.02967E+05 5.89160E+02 1.87334E+03-7.46449E+03 1.82473E-09-1.99225E-09
 -1       507-6.03485E+05-7.96764E+01 8.08613E+02 3.15459E+03 1.87650E-09 3.40322E-09
 -1       508-6.03333E+05 1.08909E+02 4.52744E+02-8.27128E+03 9.05656E-10-1.41267E-09
 -1       509-6.03452E+05-1.64592E+01 2.12549E+02 3.12085E+03 2.11719E-09 2.65288E-09
 -1       510-6.03251E+05 3.78725E+01 1.61130E+02-7.33719E+03 2.21097E-09-1.89520E-11
 -1       511-6.03555E+05-1.74053E+01 7.55379E+01 2.22045E+03 1.18075E-09 1.12073E-09
 -1       512-6.02991E+05 7.00339E+01 2.18670E+02-4.87583E+03 1.59821E-09-4.03007E-09
 -1       513-6.03690E+05-6.58279E+01 1.58535E+02 6.59446E+02-1.77977E-10 9.93587E-10
 -1       514-6.02687E+05 3.98987E+02 6.43333E+02-1.44916E+03-1.75780E-09 1.88879E-09
 -1       515-6.03844E+05-3.56338E+02 7.01709E+02-1.20622E+03-1.34838E-09 7.77050E-11
 -1       516-5.42566E+04 2.18680E+05 1.24373E+05 3.14430E+04 9.24047E-09 1.78557E-09
 -1       517 6.56920E+04 2.85118E+05 9.40691E+04-1.46203E+05 1.44237E-08 1.55172E-08
 -1       518-1.00822E+04 2.43736E+05 4.06360E+04 3.02931E+04 8.60200E-09 7.30722E-09
 -1       519 2.95390E+04 2.89152E+05 4.95640E+04-1.50004E+05 1.24915E-08 7.80346E-10
 -1       520-1.95783E+04 2.16565E+05 3.58627E+04 3.52387E+04-4.53110E-09 2.50748E-09
 -1       521-3.45852E+06-4.37369E+05-2.47495E+05-1.33694E+06-2.63390E-09-4.07454E-10
 -1       522-3.53865E+06-6.13164E+05-1.57229E+05-1.34505E+06-1.59389E-10-5.06407E-09
 -1       523-3.50365E+06-4.94587E+05-5.83842E+04-1.32779E+06-3.09541E-10 2.13186E-09
 -1       524-3.48593E+06-5.40775E+05-3.22916E+04-1.36007E+06 1.06866E-11-1.83627E-09
 -1       525-3.50999E+06-4.99789E+05-1.35860E+04-1.32576E+06 6.57110E-10-1.17961E-09
 -1       526-3.47843E+06-5.34403E+05-7.24079E+03-1.36331E+06 3.84330E-09 5.11295E-09
 -1       527-3.51123E+06-4.99877E+05-3.71869E+03-1.32505E+06 2.77396E-10 1.21389E-09
 -1       528-3.47733E+06-5.34113E+05-2.98409E+03-1.36401E+06 2.80586E-10 1.33048E-09
 -1       529-3.51115E+06-4.99962E+05-3.62976E+03-1.32514E+06-9.29731E-10-3.51974E-10
 -1       530-3.47866E+06-5.34074E+05-6.98652E+03-1.36295E+06 6.12772E-10 3.72870E-09
 -1       531-3.50979E+06-5.00059E+05-1.30803E+04-1.32601E+06 8.59472E-11 3.77986E-09
 -1       532-3.48620E+06-5.39854E+05-3.10504E+04-1.35940E+06 1.46247E-09 3.66890E-09
 -1       533-3.50350E+06-4.95251E+05-5.61447E+04-1.32817E+06 2.31717E-09 3.56158E-09
 -1       534-3.53724E+06-6.09071E+05-1.51161E+05-1.34451E+06 1.03455E-10 1.16415E-09
 -1       535-3.45991E+06-4.40445E+05-2.37966E+05-1.33718E+06-1.10595E-09 2.47383E-09
 -1       536 1.10235E+05-1.65600E+04 6.70418E+04-7.27831E+03 7.91260E-11 2.87400E-10
 -1       537 1.35082E+05 2.16682E+04 4.32640E+04-3.20880E+04-2.82489E-09-1.78898E-09
 -1       538 1.20405E+05-1.81412E+03 1.73601E+04-7.22738E+03 6.83940E-10-1.91812E-09
 -1       539 1.23503E+05 2.15419E+03 9.76597E+03-3.21014E+04 1.36242E-09-1.19144E-09
 -1       540 1.21567E+05-2.27772E+02 4.37951E+03-7.25779E+03-8.68113E-10-2.46132E-09
 -1       541 1.22027E+05 2.06360E+02 2.32988E+03-3.20428E+04 7.66249E-11 2.29704E-10
 -1       542 1.21707E+05-3.25132E+01 1.09980E+03-7.28619E+03 4.44288E-10 2.70279E-09
 -1       543 1.21765E+05 3.70132E+01 5.81322E+02-3.19996E+04-2.84444E-10-6.30791E-10
 -1       544 1.21722E+05 1.07480E+00 2.98574E+02-7.30115E+03 3.69255E-10-1.87276E-09
 -1       545 1.21709E+05 3.40098E+01 1.92605E+02-3.19829E+04-9.37675E-10 4.87069E-09
 -1       546 1.21722E+05 1.40015E+00 1.66459E+02-7.30289E+03 2.03499E-10 1.77977E-09
 -1       547 1.21752E+05 6.92920E+01 2.52991E+02-3.19885E+04-6.33008E-10 5.00791E-10
 -1       548 1.21703E+05-4.43739E+01 3.98321E+02-7.29549E+03-4.92037E-10-2.26621E-09
 -1       549 1.22075E+05 4.80050E+02 9.72230E+02-3.19600E+04 8.91305E-11 3.42538E-10
 -1       550 1.21490E+05-3.98193E+02 1.47432E+03-7.33143E+03-1.52795E-10-4.21551E-10
 -1       551 1.70721E+04-3.30059E+05 3.35989E+04-5.00463E+05-5.38421E-10-1.22600E-09
 -1       552 8.99754E+03-3.24910E+05 2.55041E+04-5.83378E+05-2.57933E-09 6.09725E-09
 -1       553 5.96308E+03-3.29712E+05 2.83921E+04-4.99632E+05-5.45697E-10 2.32922E-09
 -1       554 1.94064E+04-3.19428E+05 5.22566E+04-5.83529E+05-1.62981E-09-1.21508E-09
 -1       555 5.06863E+04-3.36436E+05 9.86603E+04-5.00199E+05-1.41881E-09-4.50018E-09
 -1       556-2.64838E+05-1.34387E+05 1.98418E+04-2.41072E+05 2.05182E-09 6.83940E-10
 -1       557-2.45791E+05-1.55242E+05 9.75553E+03-2.56225E+05-2.02999E-09-1.05933E-09
 -1       558-2.65571E+05-1.41027E+05 4.07515E+03-2.37179E+05-2.08820E-09-7.53062E-10
 -1       559-2.47852E+05-1.58484E+05 2.00969E+03-2.57121E+05 1.07684E-09-2.76259E-10
 -1       560-2.66016E+05-1.40981E+05 8.78274E+02-2.37260E+05-5.34783E-10 1.51340E-09
 -1       561-2.48432E+05-1.58462E+05 4.17774E+02-2.57541E+05 7.27596E-11-1.23458E-09
 -1       562-2.66343E+05-1.40772E+05 1.33968E+02-2.37473E+05-2.03727E-10-1.80125E-09
 -1       563-2.48749E+05-1.58326E+05-3.27416E+01-2.57767E+05-6.54836E-10-5.77529E-11
 -1       564-2.66520E+05-1.40648E+05-2.41854E+02-2.37598E+05-1.12959E-09 8.76298E-09
 -1       565-2.48912E+05-1.58263E+05-5.97624E+02-2.57869E+05-1.13723E-08 2.23827E-09
 -1       566-2.66525E+05-1.40605E+05-1.27628E+03-2.37623E+05-1.71576E-09 9.48603E-09
 -1       567-2.49123E+05-1.58412E+05-2.82399E+03-2.57829E+05-5.69798E-10-1.68984E-09
 -1       568-2.66256E+05-1.41099E+05-5.81698E+03-2.37354E+05 1.76442E-10 2.18279E-10
 -1       569-2.52162E+05-1.62071E+05-1.37229E+04-2.56828E+05-1.36060E-09-4.28736E-09
 -1       570-2.65002E+05-1.52127E+05-2.80914E+04-2.32643E+05-2.03181E-09-7.68932E-09
 -1       571 3.56562E+05 1.73695E+04 2.70152E+04-8.94406E+04-2.21007E-10-2.12367E-10
 -1       572 3.60712E+05 5.87304E+03 1.32850E+04-9.87944E+04-2.58296E-10 1.38425E-09
 -1       573 3.58213E+05 1.27243E+03 5.91393E+03-8.91856E+04 4.18368E-11 1.40335E-09
 -1       574 3.58684E+05 3.87658E+02 2.97346E+03-9.90672E+04-1.23691E-10-1.05683E-09
 -1       575 3.58370E+05 2.36105E+01 1.40960E+03-8.91546E+04 1.73259E-10 7.02130E-10
 -1       576 3.58411E+05-3.90426E+00 7.23645E+02-9.91019E+04 1.30990E-09 1.41608E-09
 -1       577 3.58392E+05-2.59868E+01 3.66303E+02-8.91507E+04 8.29914E-10-2.27374E-10
 -1       578 3.58393E+05-2.27132E+01 2.17742E+02-9.91064E+04 9.75433E-11 6.61203E-10
 -1       579 3.58434E+05-3.87459E+01 1.65142E+02-8.91502E+04-1.03955E-09-2.12549E-09
 -1       580 3.58461E+05-5.05638E+01 2.07161E+02-9.91026E+04 9.04947E-10 1.52431E-09
 -1       581 3.58511E+05-7.07315E+01 3.38362E+02-8.91544E+04 9.07676E-10-1.18052E-09
 -1       582 3.58630E+05-1.87688E+01 6.85153E+02-9.90513E+04 8.42192E-10-1.78170E-09
 -1       583 3.58590E+05 1.46242E+02 1.33854E+03-8.92016E+04 1.02991E-08-1.87538E-09
 -1       584 3.59235E+05 1.15301E+03 3.00681E+03-9.86366E+04 1.75787E-08-2.29943E-09
 -1       585 3.58348E+05 3.72828E+03 6.09735E+03-8.95746E+04 1.02737E-08 1.34605E-09
 -1       586 2.66229E+03 1.38919E+05 4.68429E+03-2.34215E+05 1.98543E-09-2.05546E-10
 -1       587 1.62267E+03 1.39632E+05 4.66343E+03-2.59458E+05 2.63753E-10-4.95129E-09
 -1       588 1.91139E+03 1.38747E+05 6.80362E+03-2.33918E+05 2.23008E-09 1.49885E-09
 -1       589 6.60939E+03 1.41339E+05 1.40607E+04-2.59520E+05 5.34783E-10-3.83625E-09
 -1       590 1.83551E+04 1.37079E+05 2.80239E+04-2.34144E+05 2.11730E-09-1.87902E-09
 -1       591-1.55074E+05-5.57754E+04-2.99994E+04-8.24425E+04-9.89075E-12 7.78527E-10
 -1       592-1.55764E+05-5.19777E+04-1.46736E+04-9.15937E+04 1.37516E-09-2.60798E-10
 -1       593-1.55894E+05-4.43608E+04-6.22392E+03-8.76191E+04 6.97264E-09 7.61429E-09
 -1       594-1.52584E+05-4.78683E+04-3.04274E+03-9.21892E+04 6.87351E-10 1.63928E-09
 -1       595-1.56042E+05-4.39174E+04-1.40059E+03-8.78611E+04-3.31511E-10 6.56541E-10
 -1       596-1.52344E+05-4.76998E+04-7.11513E+02-9.21759E+04-4.08363E-10-4.61910E-09
 -1       597-1.56072E+05-4.39354E+04-3.90130E+02-8.78644E+04-3.03925E-09-1.01068E-08
 -1       598-1.52320E+05-4.77018E+04-3.17381E+02-9.21657E+04 3.58199E-10-2.35195E-09
 -1       599-1.56067E+05-4.39368E+04-4.09702E+02-8.78621E+04-1.40699E-09-7.07587E-09
 -1       600-1.52340E+05-4.77032E+04-7.63247E+02-9.21705E+04 1.15620E-09 1.27966E-09
 -1       601-1.56025E+05-4.39208E+04-1.51018E+03-8.78536E+04-2.92857E-10 2.35877E-09
 -1       602-1.52593E+05-4.78859E+04-3.28563E+03-9.21759E+04 8.51514E-10 8.99490E-10
 -1       603-1.55857E+05-4.44071E+04-6.72225E+03-8.75909E+04 1.14596E-10-2.97678E-09
 -1       604-1.56044E+05-5.23006E+04-1.58474E+04-9.14980E+04 2.75122E-09 5.83350E-09
 -1       605-1.54941E+05-5.67534E+04-3.23982E+04-8.20194E+04-1.47793E-10 4.59113E-09
 -1       606 1.05755E+05-1.35638E+04-2.10365E+04 3.06785E+04-7.46059E-09 1.89812E-09
 -1       607 1.02455E+05-4.58651E+03-1.03402E+04 3.35558E+04-2.10639E-09-2.03556E-09
 -1       608 1.04371E+05-9.90896E+02-4.60381E+03 3.04647E+04 3.58705E-09 3.43061E-09
 -1       609 1.03934E+05-2.68102E+02-2.30916E+03 3.37853E+04-2.45655E-09 4.09727E-09
 -1       610 1.04179E+05 2.19667E+01-1.09166E+03 3.04377E+04-7.17591E-09-1.42495E-09
 -1       611 1.04089E+05 6.71384E+01-5.50010E+02 3.38137E+04-1.36120E-08 7.43739E-09
 -1       612 1.04129E+05 7.81128E+01-2.62846E+02 3.04348E+04-6.20548E-09 2.88469E-09
 -1       613 1.04091E+05 8.70130E+01-1.23103E+02 3.38171E+04-8.39373E-09-4.59295E-10
 -1       614 1.04104E+05 7.95785E+01-4.10791E+01 3.04341E+04 3.99268E-10-1.66915E-09
 -1       615 1.04080E+05 9.29971E+01 2.04453E+01 3.38172E+04 1.13228E-08-1.20872E-09
 -1       616 1.04086E+05 8.83282E+01 9.04125E+01 3.04345E+04 6.63931E-10-2.53976E-09
 -1       617 1.04085E+05 1.29908E+02 2.18821E+02 3.38161E+04 2.35536E-09 3.34921E-09
 -1       618 1.04060E+05 1.90871E+02 4.48376E+02 3.04350E+04 1.79884E-08-1.40585E-09
 -1       619 1.04227E+05 5.56713E+02 1.01482E+03 3.38122E+04 4.07708E-08-3.46517E-10
 -1       620 1.03922E+05 1.42867E+03 2.06736E+03 3.04357E+04 2.12357E-08-1.58434E-09
 -1       621 2.84795E+03 3.55419E+05 6.70352E+03-3.36022E+04 4.65207E-10 7.20775E-10
 -1       622 1.10100E+03 3.56675E+05 5.41697E+03-3.93203E+04-1.75942E-09-3.97222E-10
 -1       623 6.53527E+02 3.55714E+05 6.52017E+03-3.36447E+04 3.39242E-10 1.61435E-09
 -1       624 3.77306E+03 3.58231E+05 1.24354E+04-3.91401E+04-1.36060E-09-3.81988E-10
 -1       625 1.15586E+04 3.53926E+05 2.37572E+04-3.37786E+04 6.41649E-10 1.18052E-09
 -1       626 1.48308E+05 4.81030E+04-1.00135E+04 1.01352E+05-5.32054E-09 9.40418E-10
 -1       627 1.43986E+05 5.48015E+04-4.75545E+03 1.03092E+05 1.12323E-09-3.47313E-09
 -1       628 1.48483E+05 5.29840E+04-2.00010E+03 9.89869E+04 2.55932E-09 3.25440E-09
 -1       629 1.44742E+05 5.67866E+04-9.60813E+02 1.02894E+05-3.61251E-09 2.18432E-08
 -1       630 1.48448E+05 5.33157E+04-4.25783E+02 9.87929E+04-1.58980E-09 3.69232E-09
 -1       631 1.44786E+05 5.69327E+04-1.92573E+02 1.02886E+05-7.35872E-09-3.07284E-09
 -1       632 1.48419E+05 5.33303E+04-5.90951E+01 9.87709E+04-7.06677E-09-6.14614E-09
 -1       633 1.44780E+05 5.69425E+04 3.46061E+01 1.02882E+05 4.67412E-09 2.18415E-09
 -1       634 1.48400E+05 5.33245E+04 1.45637E+02 9.87649E+04 3.78031E-09-6.12317E-10
 -1       635 1.44794E+05 5.69470E+04 3.52622E+02 1.02883E+05-4.21142E-09 1.67984E-09
 -1       636 1.48382E+05 5.33380E+04 7.41169E+02 9.87534E+04-5.43787E-09-4.08363E-10
 -1       637 1.44968E+05 5.71371E+04 1.65809E+03 1.02856E+05 4.47915E-09-1.25056E-10
 -1       638 1.48342E+05 5.39141E+04 3.43529E+03 9.85011E+04 7.23003E-09-2.28465E-09
 -1       639 1.46725E+05 6.01360E+04 8.17080E+03 1.02135E+05-4.60568E-09 8.89486E-10
 -1       640 1.48400E+05 6.26192E+04 1.72006E+04 9.48701E+04-1.46383E-08 4.09273E-10
 -1       641 4.10242E+03 3.09821E+03-7.27044E+03-3.00517E+02-9.74650E-09 1.10504E-09
 -1       642 9.95340E+02-3.58686E+03-5.11919E+03 1.35222E+03 7.22854E-09 3.89690E-09
 -1       643 2.89745E+03 4.78745E+02-1.87590E+03-2.97130E+02-1.91575E-08-4.97505E-09
 -1       644 2.39299E+03-5.49567E+02-1.15906E+03 1.34748E+03 1.09915E-08-1.81558E-10
 -1       645 2.70341E+03 7.18477E+01-4.50109E+02-2.95790E+02-1.05456E-08-9.65713E-10
 -1       646 2.62104E+03-7.22992E+01-2.13532E+02 1.34546E+03-3.94369E-07-1.14599E-09
 -1       647 2.66863E+03 3.44371E+00-2.56851E+00-2.95113E+02-2.98784E-05 6.61053E-08
 -1       648 2.68362E+03 4.37948E+01 1.92939E+02 1.34475E+03-5.90934E-05 1.36586E-07
 -1       649 2.64059E+03-4.37992E+01 4.41525E+02-2.95090E+02-2.98776E-05 6.69370E-08
 -1       650 2.84464E+03 3.38229E+02 1.06607E+03 1.34502E+03-3.79980E-07 1.84821E-09
 -1       651 2.50787E+03-2.90407E+02 1.86330E+03-2.95380E+02-1.51146E-08 2.53169E-09
 -1       652 3.75669E+03 2.17739E+03 4.59274E+03 1.34516E+03 1.02778E-08 4.78713E-09
 -1       653 1.72933E+03-1.87787E+03 7.34638E+03-2.95234E+02-7.66870E-09-2.87037E-09
 -1       654 9.27969E+03 1.40411E+04 2.00319E+04 1.33988E+03 2.07359E-09 8.50150E-10
 -1       655-3.01276E+03-1.21155E+04 2.83913E+04-2.90159E+02 3.07290E-09 2.74667E-10
 -1       656 1.11737E+04-4.03686E+05-4.73548E+04 9.74101E+03-7.36691E-10 2.47701E-09
 -1       657-1.61798E+04-4.21162E+05-3.47177E+04 4.08140E+04-2.27033E-09 3.93243E-09
 -1       658 2.19659E+03-4.09872E+05-2.19163E+04 9.63863E+03-2.07450E-10 3.73223E-09
 -1       659-1.47359E+04-4.20362E+05-3.22395E+04 4.08853E+04 5.06589E-10 1.20304E-09
 -1       660 1.00045E+04-4.04530E+05-4.26890E+04 9.67085E+03-2.13731E-09-4.81805E-10
 -1       661 3.99687E+05 5.05449E+04 3.28914E+04 1.56314E+05 1.16311E-08 3.01952E-10
 -1       662 4.07625E+05 7.66521E+04 2.08983E+04 1.60590E+05 2.87531E-09 1.58616E-09
 -1       663 4.05416E+05 5.84099E+04 7.77020E+03 1.55418E+05 3.32221E-09-2.45836E-09
 -1       664 4.01048E+05 6.66100E+04 4.31063E+03 1.62019E+05 3.62604E-10 9.85665E-10
 -1       665 4.06068E+05 5.93011E+04 1.82356E+03 1.55363E+05 1.62743E-09 1.92335E-09
 -1       666 4.00301E+05 6.54953E+04 9.95884E+02 1.62104E+05-1.19624E-09 2.91848E-10
 -1       667 4.06137E+05 5.94105E+04 5.53302E+02 1.55372E+05 9.10336E-09 2.68977E-09
 -1       668 4.00235E+05 6.53857E+04 5.21103E+02 1.62097E+05-6.14124E-09 3.83488E-09
 -1       669 4.06130E+05 5.94040E+04 7.27366E+02 1.55371E+05-8.52435E-09-1.84792E-09
 -1       670 4.00364E+05 6.55678E+04 1.48056E+03 1.62102E+05 1.05108E-08-2.01453E-10
 -1       671 4.06012E+05 5.92394E+04 2.79897E+03 1.55364E+05 7.12919E-09 1.24510E-09
 -1       672 4.01542E+05 6.72812E+04 6.67181E+03 1.61948E+05-3.99803E-09-2.70302E-09
 -1       673 4.04987E+05 5.78700E+04 1.20458E+04 1.55462E+05 3.64912E-09 3.24872E-09
 -1       674 4.11763E+05 8.28359E+04 3.24117E+04 1.59701E+05 1.75805E-09-3.26645E-09
 -1       675 3.96088E+05 4.56852E+04 5.10196E+04 1.56864E+05 2.11639E-09-5.10408E-09
 -1       676 1.44511E+03-3.79093E+05-6.80986E+03 5.32022E+02 1.70212E-09 1.74249E-09
 -1       677-2.60878E+03-3.81715E+05-6.83897E+03 3.90176E+02 2.93369E-10 1.67304E-09
 -1       678 7.48003E+02-3.79534E+05-7.40113E+03 5.30651E+02 6.28779E-09 5.47241E-09
 -1       679-7.77059E+03-3.84723E+05-1.57734E+04 3.89477E+02 9.42373E-09 4.07706E-10
 -1       680 5.72673E+03-3.76087E+05-2.35953E+04 5.31413E+02 9.35870E-10 2.34929E-09
 -1       681 5.50673E+05-1.48777E+04 3.47800E+04-1.66293E+03-7.37828E-11-1.29512E-09
 -1       682 5.66042E+05 1.72476E+04 2.46144E+04 9.51186E+03-3.07196E-10-1.02273E-09
 -1       683 5.56623E+05-2.30368E+03 9.02336E+03-5.72969E+02-5.97595E-10-2.67437E-09
 -1       684 5.59093E+05 2.69010E+03 5.67611E+03 8.01738E+03-4.27519E-10-3.27543E-09
 -1       685 5.57610E+05-3.56368E+02 2.36241E+03-1.68448E+02-4.72546E-10-1.72327E-09
 -1       686 5.57972E+05 4.48543E+02 1.46740E+03 7.79642E+03 1.25791E-10-2.13298E-09
 -1       687 5.57744E+05-6.74314E+01 8.39020E+02-3.52002E+02-3.48408E-10-1.84667E-09
 -1       688 5.57957E+05 1.85533E+02 9.12419E+02 8.79416E+03 1.09657E-09-2.58822E-09
 -1       689 5.57636E+05-1.01794E+02 1.17129E+03-1.16617E+03-4.51365E-10-5.87363E-10
 -1       690 5.58628E+05 7.25770E+02 2.55543E+03 1.12385E+04 8.00014E-10-1.31050E-09
 -1       691 5.57108E+05-6.30511E+02 4.11337E+03-2.79634E+03-3.54078E-10 3.45608E-10
 -1       692 5.61628E+05 4.72487E+03 1.04556E+04 1.56893E+04 6.35396E-10-4.12683E-11
 -1       693 5.54727E+05-4.15269E+03 1.60814E+04-5.61734E+03 1.64846E-09 2.49929E-09
 -1       694 5.76581E+05 3.10915E+04 4.51607E+04 2.32788E+04 5.88579E-09 2.96313E-09
 -1       695 5.42389E+05-2.70732E+04 6.22562E+04-1.03873E+04 6.82007E-09 6.69024E-09
 -1       696-1.06280E+04 4.42781E+05 2.44489E+04 2.70882E+03 1.32786E-10-1.00584E-09
 -1       697 1.15506E+04 4.53369E+05 1.58595E+04-1.39054E+04 1.00044E-10-1.44137E-09
 -1       698-8.66319E+02 4.47471E+05 3.35130E+03 2.05417E+03-1.90994E-10 1.75847E-09
 -1       699-3.98590E+03 4.46043E+05-4.55584E+03-1.35234E+04-2.76486E-10 2.85135E-09
 -1       700 4.86376E+03 4.50103E+05-1.07146E+04 2.32679E+03-1.67347E-10 1.23794E-09
 -1       701-4.94842E+05-4.49599E+04-6.24989E+04-1.95641E+05-2.47383E-10-8.22183E-10
 -1       702-5.24841E+05-1.04376E+05-4.32474E+04-1.87871E+05-2.51475E-10-1.56433E-10
 -1       703-5.08069E+05-6.66613E+04-1.46631E+04-1.90796E+05 1.20508E-10-4.75666E-10
 -1       704-5.09344E+05-7.93955E+04-9.12124E+03-1.93664E+05 2.84047E-10 4.62933E-10
 -1       705-5.10328E+05-6.98678E+04-3.43033E+03-1.89874E+05-2.94335E-10 3.70164E-10
 -1       706-5.06864E+05-7.55348E+04-2.03995E+03-1.94542E+05 8.94005E-11 1.28432E-09
 -1       707-5.10547E+05-7.05109E+04-9.50418E+02-1.89922E+05-2.33086E-10 5.51381E-12
 -1       708-5.07048E+05-7.44289E+04-8.13007E+02-1.93960E+05-4.03631E-10-9.38915E-10
 -1       709-5.10138E+05-7.09756E+04-9.27356E+02-1.90454E+05-1.83078E-10-9.78645E-10
 -1       710-5.08407E+05-7.37785E+04-1.91034E+03-1.92550E+05 1.92657E-10-1.62004E-12
 -1       711-5.09182E+05-7.11666E+04-3.26709E+03-1.91327E+05-2.28653E-10-6.12090E-10
 -1       712-5.12035E+05-7.61352E+04-8.59576E+03-1.90242E+05 6.40767E-10-6.25391E-10
 -1       713-5.06512E+05-6.86299E+04-1.38749E+04-1.92757E+05 3.51520E-10 5.52973E-10
 -1       714-5.27405E+05-9.91781E+04-4.08841E+04-1.84141E+05-4.01315E-10-5.74346E-10
 -1       715-4.93833E+05-4.81861E+04-5.90782E+04-1.97410E+05-2.11003E-09 1.67347E-09
 -1       716 4.10312E+05-2.18609E+04 5.04989E+04-7.56599E+03-8.02811E-09 6.00267E-09
 -1       717 4.37034E+05 2.51344E+04 3.64663E+04 1.58350E+04-3.32579E-09 5.97129E-09
 -1       718 4.19892E+05-3.36165E+03 1.30548E+04-4.54349E+03-1.32252E-09 1.43518E-09
 -1       719 4.25479E+05 3.81983E+03 8.53212E+03 1.08665E+04 7.32001E-10 3.05772E-09
 -1       720 4.21725E+05-5.16186E+02 3.44333E+03-2.59654E+03-8.39520E-10 5.84237E-10
 -1       721 4.23181E+05 6.05442E+02 2.36008E+03 7.63465E+03-9.92003E-10 1.15304E-09
 -1       722 4.22126E+05-1.12288E+02 1.43879E+03-1.31123E+03-1.11174E-09-7.60281E-11
 -1       723 4.22747E+05 3.53002E+02 1.86673E+03 5.50048E+03 9.84684E-10-1.88788E-09
 -1       724 4.22131E+05-2.44763E+02 2.67986E+03-4.62278E+02-2.49992E-09-2.52101E-09
 -1       725 4.23367E+05 1.77534E+03 5.81466E+03 4.09102E+03-2.78908E-09-4.83283E-10
 -1       726 4.21493E+05-1.52208E+03 9.88341E+03 9.82502E+01-2.36351E-09-1.49021E-09
 -1       727 4.28045E+05 1.14198E+04 2.41789E+04 3.15613E+03-3.73285E-09-1.58570E-09
 -1       728 4.17443E+05-9.85556E+03 3.86359E+04 4.72542E+02-1.61670E-09-1.58252E-09
 -1       729 4.56952E+05 7.37285E+04 1.05233E+05 2.47681E+03-1.08602E-09-2.44654E-09
 -1       730 3.92591E+05-6.36139E+04 1.49250E+05 7.77056E+02 4.84448E-10-2.95404E-09
 -1       731-1.49809E+04 1.84689E+05 2.90504E+04 2.10594E+04-1.75896E-09 2.09320E-09
 -1       732 1.69904E+04 2.24904E+05 2.60888E+04-8.67929E+04-6.65977E-10 8.28550E-10
 -1       733-2.41015E+03 2.00641E+05 9.58406E+03 1.80384E+04 4.65843E-09 2.90038E-09
 -1       734 6.18541E+03 2.07498E+05 1.01252E+04-8.35544E+04 7.91836E-09 7.31268E-09
 -1       735-3.40661E+03 2.00947E+05 8.43428E+03 1.78194E+04 3.90992E-09 4.76075E-09
 -1       736-9.79734E+05-8.44789E+04-8.24279E+04-3.47756E+05-6.28825E-09-2.51021E-10
 -1       737-9.29933E+05-2.21915E+05-5.27195E+04-4.11908E+05-1.48716E-08-1.81262E-09
 -1       738-9.93743E+05-1.00871E+05-1.85807E+04-3.28366E+05-4.17936E-09-2.15914E-09
 -1       739-9.12470E+05-1.95094E+05-1.05998E+04-4.24965E+05 5.36477E-09 7.73343E-09
 -1       740-9.97565E+05-1.10919E+05-5.64253E+03-3.35007E+05 1.04383E-08 1.21997E-08
 -1       741-9.10094E+05-1.66727E+05 2.72548E+03-3.93973E+05 9.39508E-10 2.28913E-08
 -1       742-9.94532E+05-1.30380E+05-5.53896E+03-3.58216E+05-8.07722E-09 8.56255E-09
 -1       743-9.33907E+05-1.27465E+05 7.05334E+03-3.46683E+05 1.50567E-08-2.75975E-09
 -1       744-9.72795E+05-1.50870E+05-5.10961E+03-3.81543E+05 9.01946E-09-1.68598E-09
 -1       745-9.85758E+05-9.39104E+04 2.65013E+03-3.11406E+05-1.49427E-08-2.36832E-09
 -1       746-9.43887E+05-1.63056E+05-4.32756E+03-3.94376E+05-6.57747E-09-3.04444E-08
 -1       747-1.02482E+06-8.17855E+04-8.25706E+03-2.97029E+05 1.68521E-08 9.53901E-09
 -1       748-9.35137E+05-1.61996E+05-1.45824E+04-3.97014E+05-1.92567E-08 1.02136E-09
 -1       749-1.02250E+06-1.12916E+05-3.99643E+04-2.97839E+05 3.76895E-09-4.58385E-10
 -1       750-9.45585E+05-1.32460E+05-6.52082E+04-3.93033E+05-3.01952E-10 4.10728E-09
 -1       751 2.77831E+06-1.55013E+05 3.64251E+05 1.06360E+04-1.43262E-08-1.68802E-09
 -1       752 2.93591E+06 1.79640E+05 2.56824E+05-1.47753E+04-3.06967E-09-3.19051E-09
 -1       753 2.83935E+06-2.40066E+04 9.44119E+04 3.24533E+03-1.71480E-09-8.47649E-10
 -1       754 2.86506E+06 2.78005E+04 5.91206E+04-5.01677E+03-7.24327E-10 2.31648E-09
 -1       755 2.84934E+06-3.71069E+03 2.43289E+04 8.79648E+02 1.33902E-10-1.76442E-10
 -1       756 2.85352E+06 4.35004E+03 1.44905E+04-1.88896E+03-3.29464E-10-1.02045E-09
 -1       757 2.85097E+06-6.28751E+02 7.17467E+03 1.17551E+02 1.98947E-10-2.17483E-09
 -1       758 2.85183E+06 1.12628E+03 5.74993E+03-9.26802E+02 1.61289E-09-1.05842E-09
 -1       759 2.85105E+06-4.95574E+02 5.91144E+03-8.25258E+01-7.39224E-10 7.87622E-10
 -1       760 2.85289E+06 3.19209E+03 1.08550E+04-8.17359E+02 2.84025E-09 3.88275E-09
 -1       761 2.84990E+06-2.68866E+03 1.77554E+04 8.10788E+00 2.90051E-09 1.64255E-09
 -1       762 2.86116E+06 2.00998E+04 4.27956E+04-1.41342E+03 1.24919E-10 1.56706E-09
 -1       763 2.84271E+06-1.73499E+04 6.82382E+04 5.13540E+02 2.41369E-09 3.16504E-10
 -1       764 2.91205E+06 1.29768E+05 1.85469E+05-3.55702E+03-1.03118E-10 1.57161E-09
 -1       765 2.79882E+06-1.11967E+05 2.63061E+05 2.15139E+03-1.37589E-09-1.19326E-09
 -1       766-6.30206E+04 3.58226E+05 1.49191E+05-1.37232E+04 2.37924E-09 5.01018E-10
 -1       767 7.71113E+04 4.26494E+05 1.13225E+05 5.78019E+04 3.29237E-10 1.66130E-09
 -1       768-1.38581E+04 3.81771E+05 5.42200E+04-1.28121E+04-9.64064E-11 7.80176E-10
 -1       769 4.38530E+04 4.14065E+05 6.99914E+04 5.98890E+04 2.82125E-09 2.14436E-09
 -1       770-3.00705E+04 3.70920E+05 7.28471E+04-1.58113E+04 3.24508E-09 4.40059E-09
 -1       771-1.56776E+06-3.17898E+05-5.94083E+04-6.75077E+05-1.88084E-09-9.82982E-09
 -1       772-1.56505E+06-3.14147E+05-2.90206E+04-6.97523E+05-4.43106E-09 5.50062E-09
 -1       773-1.57000E+06-2.94880E+05-1.23482E+04-6.85102E+05-2.16824E-09 2.96495E-09
 -1       774-1.55869E+06-3.06350E+05-6.01687E+03-6.99468E+05-1.61708E-09-8.51242E-09
 -1       775-1.57063E+06-2.93771E+05-2.79197E+03-6.85690E+05-1.19690E-09 1.56524E-09
 -1       776-1.55843E+06-3.05983E+05-1.40414E+03-6.99764E+05-1.41699E-09 1.01522E-09
 -1       777-1.57097E+06-2.93647E+05-7.74682E+02-6.85820E+05 2.36105E-09 7.86713E-09
 -1       778-1.55857E+06-3.05925E+05-6.00503E+02-6.99964E+05-5.82077E-11 6.89539E-10
 -1       779-1.57116E+06-2.93532E+05-7.63597E+02-6.85911E+05 2.95040E-09 5.85806E-09
 -1       780-1.55875E+06-3.05885E+05-1.39419E+03-7.00128E+05 9.99535E-10-5.82077E-11
 -1       781-1.57122E+06-2.93423E+05-2.75739E+03-6.85959E+05-2.27647E-09-6.62294E-09
 -1       782-1.55930E+06-3.06198E+05-5.99836E+03-7.00235E+05 5.82077E-10 1.36606E-09
 -1       783-1.57098E+06-2.94268E+05-1.22791E+04-6.85506E+05-2.04818E-09-1.22418E-09
 -1       784-1.56557E+06-3.14342E+05-2.89755E+04-6.99111E+05-2.27658E-09-2.35377E-09
 -1       785-1.56938E+06-3.16786E+05-5.92520E+04-6.75263E+05-5.89807E-10-2.49202E-10
 -1       786 3.49682E+05-1.07205E+04 4.38041E+04-1.94859E+03 2.12594E-10-5.96629E-10
 -1       787 3.65674E+05 1.42218E+04 2.82366E+04-8.87769E+03-7.99787E-11-1.54159E-09
 -1       788 3.56342E+05-1.13451E+03 1.13609E+04-1.95651E+03-5.45697E-12-9.41327E-10
 -1       789 3.58232E+05 1.44805E+03 6.38076E+03-8.85124E+03-1.23333E-09 1.52750E-09
 -1       790 3.57116E+05-1.24979E+02 2.89049E+03-1.97394E+03 4.35193E-10 1.04251E-09
 -1       791 3.57352E+05 1.45287E+02 1.55934E+03-8.82597E+03 1.17757E-09 7.14522E-10
 -1       792 3.57216E+05-1.57769E+01 8.02672E+02-1.98177E+03-1.62999E-10 5.48312E-10
 -1       793 3.57242E+05 1.97829E+01 5.45288E+02-8.82061E+03 2.01226E-10-3.27645E-10
 -1       794 3.57225E+05-9.38295E+00 5.19409E+02-1.97931E+03-2.44427E-12 3.41842E-11
 -1       795 3.57282E+05 6.82848E+01 8.10797E+02-8.83626E+03 2.87145E-10 4.83790E-09
 -1       796 3.57180E+05-6.08215E+01 1.40584E+03-1.96611E+03 1.39607E-10-9.31152E-10
 -1       797 3.57701E+05 6.83904E+02 3.04604E+03-8.87090E+03-1.30734E-09-9.00968E-11
 -1       798 3.56814E+05-5.41216E+02 5.39925E+03-1.94467E+03-2.48065E-10 1.63868E-09
 -1       799 3.61239E+05 6.74417E+03 1.34057E+04-8.90290E+03-2.24918E-09-3.88354E-10
 -1       800 3.53654E+05-5.09336E+03 2.07873E+04-1.93474E+03 3.12184E-10-3.16049E-09
 -1       801-1.43496E+04 3.87710E+05 5.20083E+04-2.03639E+05 5.09317E-10-1.30967E-09
 -1       802 3.06598E+04 4.03915E+05 5.19426E+04-8.85394E+05 1.07866E-08-1.03319E-09
 -1       803-2.09477E+03 3.89598E+05 5.10825E+04-2.03347E+05 5.70799E-09 2.69824E-09
 -1       804 6.08560E+04 4.22449E+05 1.04714E+05-8.85351E+05 7.01402E-09-3.79077E-09
 -1       805-4.00286E+04 3.70199E+05 1.50990E+05-2.03696E+05 5.20959E-09-7.42148E-10
 -1       806-3.40567E+05-8.87263E+04-2.94246E+04-1.54243E+05-8.50378E-11 7.05768E-10
 -1       807-3.40955E+05-8.12182E+04-1.39767E+04-1.62983E+05-6.70980E-10 2.36446E-09
 -1       808-3.40445E+05-7.38782E+04-5.87962E+03-1.60538E+05-6.50743E-10-1.07025E-09
 -1       809-3.38054E+05-7.60035E+04-2.84357E+03-1.64156E+05-1.03319E-09-1.29273E-09
 -1       810-3.40523E+05-7.28877E+04-1.28776E+03-1.60988E+05-7.21457E-10 6.47674E-10
 -1       811-3.37774E+05-7.56655E+04-6.47342E+02-1.64201E+05-2.11458E-10 3.32648E-10
 -1       812-3.40548E+05-7.28613E+04-3.42444E+02-1.61008E+05-6.79648E-09 1.11668E-08
 -1       813-3.37744E+05-7.56571E+04-2.59819E+02-1.64193E+05-2.08440E-08 3.50246E-09
 -1       814-3.40544E+05-7.28656E+04-3.11949E+02-1.61005E+05-6.37056E-09 1.15201E-08
 -1       815-3.37761E+05-7.56691E+04-5.66396E+02-1.64191E+05-1.82081E-09 2.32376E-10
 -1       816-3.40512E+05-7.28945E+04-1.11353E+03-1.60982E+05-3.07091E-09 3.08228E-09
 -1       817-3.37999E+05-7.59585E+04-2.45272E+03-1.64137E+05-8.14907E-10 3.47609E-09
 -1       818-3.40430E+05-7.37601E+04-5.06863E+03-1.60595E+05-3.63707E-09-6.88397E-09
 -1       819-3.40538E+05-8.04044E+04-1.20455E+04-1.63060E+05-4.88853E-10-7.53062E-10
 -1       820-3.40478E+05-8.65985E+04-2.53580E+04-1.55212E+05 1.12996E-08 2.81680E-08
 -1       821-3.29375E+05 1.04358E+04-4.26622E+04 1.91650E+03-3.39787E-09 1.32786E-09
 -1       822-3.44927E+05-1.38536E+04-2.75009E+04 9.14224E+03-2.25270E-09-1.37788E-10
 -1       823-3.35864E+05 1.10042E+03-1.10688E+04 1.83761E+03 3.62161E-09 1.29285E-09
 -1       824-3.37702E+05-1.39781E+03-6.21804E+03 9.25761E+03-1.15153E-09 1.57434E-09
 -1       825-3.36620E+05 1.22099E+02-2.82883E+03 1.79999E+03-6.52653E-09 8.61746E-11
 -1       826-3.36863E+05-1.21400E+02-1.54467E+03 9.31991E+03-1.18503E-08 3.68345E-10
 -1       827-3.36719E+05 1.96161E+01-8.36063E+02 1.77506E+03-6.48254E-09 5.61045E-11
 -1       828-3.36771E+05 7.71955E-01-6.43011E+02 9.35911E+03-6.70286E-09 1.84491E-09
 -1       829-3.36723E+05 1.85363E+01-7.24590E+02 1.76073E+03-7.01164E-10 3.37327E-10
 -1       830-3.36847E+05-8.65643E+01-1.25194E+03 9.37608E+03 4.39806E-09 1.40673E-10
 -1       831-3.36648E+05 1.01202E+02-2.24574E+03 1.75809E+03-5.37308E-09-3.35638E-09
 -1       832-3.37516E+05-1.08909E+03-4.91255E+03 9.36973E+03 7.93733E-10-1.26329E-09
 -1       833-3.36053E+05 8.74820E+02-8.73081E+03 1.76730E+03 2.67448E-09-4.97039E-10
 -1       834-3.43222E+05-1.09096E+04-2.16909E+04 9.32775E+03 3.58705E-09-1.05229E-09
 -1       835-3.30937E+05 8.23903E+03-3.36431E+04 1.80203E+03 4.74006E-09-5.98448E-10
 -1       836-1.75781E+04 8.92861E+05 7.55990E+04-2.17220E+04-1.14233E-09 2.23099E-09
 -1       837 2.64254E+04 9.20997E+05 5.89294E+04-9.19516E+04 1.40449E-09 4.43902E-09
 -1       838-4.28471E+03 9.01854E+05 4.30142E+04-2.17771E+04-2.19052E-09 1.86742E-09
 -1       839 3.42254E+04 9.25522E+05 7.24300E+04-9.19306E+04 1.47975E-09-1.29148E-10
 -1       840-2.40286E+04 8.88312E+05 1.00988E+05-2.17421E+04-1.63709E-09 1.68257E-09
 -1       841-5.75953E+04-1.74444E+03-1.67903E+04-2.46518E+04-3.50337E-09 2.00089E-11
 -1       842-6.69493E+04-1.64420E+04-1.16198E+04-2.11252E+04-3.60984E-09 1.52227E-09
 -1       843-6.09765E+04-7.75717E+03-3.93665E+03-2.35618E+04 3.17470E-09 4.10182E-10
 -1       844-6.30438E+04-9.45756E+03-2.44251E+03-2.23656E+04 1.54027E-09-1.65528E-09
 -1       845-6.14988E+04-8.71003E+03-9.06898E+02-2.34188E+04-2.50986E-09-1.98099E-09
 -1       846-6.24489E+04-8.34049E+03-5.11193E+02-2.25178E+04-8.57568E-09-4.24274E-09
 -1       847-6.15714E+04-8.87126E+03-1.84727E+02-2.34110E+04-2.85870E-09 6.17682E-10
 -1       848-6.23622E+04-8.13756E+03-5.45200E+01-2.25232E+04 6.27300E-09 1.08043E-09
 -1       849-6.15858E+04-8.91236E+03 6.15043E+01-2.34138E+04 4.42632E-09 1.35508E-10
 -1       850-6.22973E+04-8.01851E+03 2.49002E+02-2.25350E+04-1.01640E-09 4.39346E-10
 -1       851-6.16363E+04-8.99002E+03 4.65021E+02-2.33994E+04-2.07968E-09-4.17540E-09
 -1       852-6.19486E+04-7.46193E+03 1.27265E+03-2.26469E+04 8.02507E-09-1.57922E-09
 -1       853-6.19341E+04-9.46762E+03 2.05182E+03-2.33022E+04 3.54041E-09-3.39242E-10
 -1       854-5.98462E+04-3.86823E+03 6.06841E+03-2.33533E+04-2.85178E-09-1.28767E-09
 -1       855-6.37367E+04-1.25742E+04 8.76265E+03-2.26963E+04 9.23478E-10 2.73621E-09
 -1       856-3.87447E+05 9.50448E+03-3.89100E+04 3.87906E+03-6.40784E-09-1.24237E-09
 -1       857-4.01614E+05-1.25902E+04-2.50713E+04 1.88133E+04-7.94716E-09-2.59206E-11
 -1       858-3.93369E+05 1.00555E+03-1.00954E+04 3.74128E+03-4.92309E-09 7.70797E-10
 -1       859-3.95066E+05-1.21919E+03-5.66479E+03 1.90147E+04 3.03135E-09-1.59969E-09
 -1       860-3.94063E+05 1.21599E+02-2.57422E+03 3.67534E+03 2.55454E-09-1.53750E-09
 -1       861-3.94325E+05-4.56233E+01-1.39507E+03 1.91144E+04-7.78493E-09 2.10844E-09
 -1       862-3.94155E+05 3.20301E+01-7.37087E+02 3.64097E+03 1.44864E-08-2.51333E-09
 -1       863-3.94247E+05 7.09920E+01-5.34773E+02 1.91567E+04 2.22135E-08-3.84847E-09
 -1       864-3.94162E+05 2.94368E+01-5.60983E+02 3.63295E+03 4.15241E-09-1.16071E-09
 -1       865-3.94292E+05 6.65047E+00-9.31425E+02 1.91455E+04 4.78542E-09 6.97746E-10
 -1       866-3.94105E+05 8.58665E+01-1.65226E+03 3.65224E+03-7.31166E-09 6.71037E-10
 -1       867-3.94758E+05-7.36085E+02-3.59765E+03 1.90786E+04-2.12083E-09 2.21644E-09
 -1       868-3.93665E+05 6.43956E+02-6.39594E+03 3.70018E+03 6.09361E-11-2.75691E-09
 -1       869-3.98893E+05-7.93707E+03-1.58726E+04 1.89166E+04-1.08785E-08-3.29442E-09
 -1       870-3.89916E+05 6.02013E+03-2.46338E+04 3.81620E+03 5.15774E-09-1.62800E-09
 -1       871-3.49810E+03-3.22717E+04-6.08671E+03 9.07764E+04 2.87037E-09-1.38334E-09
 -1       872-1.17414E+03-3.33381E+04-1.76687E+03 1.05727E+05-2.05728E-09-1.74100E-09
 -1       873-7.11297E+00-3.29639E+04 1.80133E+03 9.06065E+04 4.32101E-09 9.62041E-09
 -1       874 2.07960E+03-3.15213E+04 6.69982E+03 1.05809E+05-2.42562E-09 1.45412E-08
 -1       875 7.06312E+03-3.41667E+04 1.44897E+04 9.07103E+04 3.29692E-09 1.08505E-08
 -1       876 4.53469E+05 5.62794E+04 4.30708E+04 1.78387E+05 9.79662E-09-1.99725E-09
 -1       877 4.63460E+05 9.09092E+04 2.73690E+04 1.84494E+05 3.40867E-09 7.68978E-10
 -1       878 4.60956E+05 6.65987E+04 1.01715E+04 1.77230E+05 4.97778E-09 3.64435E-09
 -1       879 4.54865E+05 7.77287E+04 5.64147E+03 1.86322E+05-4.59158E-09-3.31283E-09
 -1       880 4.61792E+05 6.77841E+04 2.37722E+03 1.77174E+05 1.12914E-09-1.99327E-09
 -1       881 4.53906E+05 7.62420E+04 1.28339E+03 1.86395E+05-4.33806E-09-3.15535E-09
 -1       882 4.61871E+05 6.79429E+04 6.80990E+02 1.77199E+05 1.05427E-08 3.24076E-09
 -1       883 4.53829E+05 7.60715E+04 5.87174E+02 1.86357E+05 9.14042E-11 3.37798E-09
 -1       884 4.61858E+05 6.79503E+04 7.61906E+02 1.77209E+05-1.94366E-09 4.81680E-09
 -1       885 4.53965E+05 7.62403E+04 1.50707E+03 1.86347E+05 1.71002E-08 2.11651E-09
 -1       886 4.61737E+05 6.77868E+04 2.82954E+03 1.77204E+05 5.29525E-09-4.87648E-09
 -1       887 4.55151E+05 7.79702E+04 6.73217E+03 1.86196E+05-1.21877E-08-1.01190E-08
 -1       888 4.60709E+05 6.63996E+04 1.21497E+04 1.77298E+05-7.28599E-09-3.84898E-09
 -1       889 4.65453E+05 9.36687E+04 3.26890E+04 1.83949E+05 5.67479E-09 3.03771E-09
 -1       890 4.51742E+05 5.41006E+04 5.14521E+04 1.78703E+05 6.83713E-09-3.45608E-10
 -1       891 1.68346E+03-2.00922E+05-7.69860E+03 1.89753E+04-2.31057E-09 2.39288E-09
 -1       892-2.87156E+03-2.03647E+05-6.24569E+03 8.23106E+04-4.69117E-09-2.43745E-09
 -1       893 4.72543E+02-2.01793E+05-4.98667E+03 1.88759E+04-2.49929E-09 5.18361E-09
 -1       894-4.45735E+03-2.04556E+05-8.98322E+03 8.23017E+04 3.35990E-09 4.86955E-09
 -1       895 2.98848E+03-1.99997E+05-1.28458E+04 1.89837E+04 1.96997E-09 5.42605E-09
 -1       896 7.22752E+05-5.38352E+03 1.25709E+04 2.09237E+03 3.05135E-10 1.79807E-09
 -1       897 7.28390E+05 6.22960E+03 8.92047E+03-5.87581E+03 9.18135E-10 2.90584E-10
 -1       898 7.24935E+05-8.32544E+02 3.26861E+03 9.44216E+02 5.03675E-10-4.04725E-10
 -1       899 7.25833E+05 9.65260E+02 2.07431E+03-4.14742E+03 4.65946E-10-1.18348E-09
 -1       900 7.25302E+05-1.29677E+02 8.85148E+02 3.63970E+02 6.41769E-10-1.37459E-09
 -1       901 7.25408E+05 1.64146E+02 5.98914E+02-3.37822E+03 5.28381E-10-1.71747E-09
 -1       902 7.25358E+05-3.17484E+01 4.31823E+02 1.74997E+02 2.79805E-10-1.67337E-09
 -1       903 7.25388E+05 1.19710E+02 6.02193E+02-3.33476E+03 5.54159E-10-1.64516E-09
 -1       904 7.25321E+05-8.53107E+01 9.37647E+02 3.20510E+02 1.91200E-10-1.52102E-09
 -1       905 7.25688E+05 6.28854E+02 2.06267E+03-4.00400E+03 8.11539E-10-1.43518E-09
 -1       906 7.25059E+05-5.41364E+02 3.52007E+03 8.44257E+02 9.24814E-10-9.46329E-10
 -1       907 7.27474E+05 4.06451E+03 8.64755E+03-5.58727E+03 6.86370E-10 7.46923E-11
 -1       908 7.23541E+05-3.51648E+03 1.37718E+04 1.90381E+03-2.99167E-10 1.10413E-09
 -1       909 7.38104E+05 2.63133E+04 3.76398E+04-8.59074E+03-1.08963E-09 2.31739E-09
 -1       910 7.14445E+05-2.27333E+04 5.31806E+04 3.84761E+03-4.01030E-10 4.43470E-09
 -1       911 1.63693E+05-1.68500E+03 3.49856E+03 3.41217E+03 1.06616E-09 3.75007E-09
 -1       912 1.67466E+05 1.90074E+03 2.87482E+03-1.34074E+04-2.63753E-11-1.05226E-09
 -1       913 1.64864E+05-2.60769E+02 8.97621E+02 2.62709E+03-4.05180E-10-2.70950E-09
 -1       914 1.65846E+05 3.09856E+02 7.03487E+02-1.21699E+04-5.45867E-10-4.97966E-09
 -1       915 1.65230E+05-4.16920E+01 2.78364E+02 2.17459E+03 2.30719E-09-6.46754E-09
 -1       916 1.65353E+05 9.09610E+01 2.53963E+02-1.15694E+04 3.67444E-09-6.71700E-09
 -1       917 1.65321E+05-1.70634E+01 2.59435E+02 2.02665E+03 2.52977E-09-7.45130E-09
 -1       918 1.65375E+05 1.23706E+02 4.69866E+02-1.15679E+04 1.03142E-09-7.52522E-09
 -1       919 1.65208E+05-7.43548E+01 7.79733E+02 2.17314E+03 2.59172E-09-6.74072E-09
 -1       920 1.65998E+05 5.63032E+02 1.86616E+03-1.21657E+04 3.87740E-09-4.95425E-09
 -1       921 1.64734E+05-4.80639E+02 3.02027E+03 2.62438E+03-3.39014E-10-3.39344E-09
 -1       922 1.68353E+05 3.55919E+03 7.80725E+03-1.34066E+04-1.23919E-10-2.66482E-10
 -1       923 1.62935E+05-3.11895E+03 1.19345E+04 3.41414E+03-6.53358E-10 2.50566E-09
 -1       924 1.79088E+05 2.31938E+04 3.35721E+04-1.54386E+04-2.04955E-09 7.42784E-09
 -1       925 1.54148E+05-2.01544E+04 4.63894E+04 4.65705E+03-2.49202E-10 1.13359E-08
 -1       926-8.49212E+05 1.86117E+04-4.37783E+04-1.00489E+04 3.98374E-09 1.67056E-08
 -1       927-8.67756E+05-2.14832E+04-3.07825E+04 1.45796E+04-1.04280E-08 1.53359E-08
 -1       928-8.56982E+05 2.82408E+03-1.14193E+04-7.62765E+03 8.41283E-11 1.30144E-08
 -1       929-8.58173E+05-3.26039E+03-6.77816E+03 7.66747E+03 6.41194E-09 8.63156E-09
 -1       930-8.58682E+05 3.71919E+02-3.05117E+03-3.13644E+03 1.66835E-09 7.06257E-09
 -1       931-8.56270E+05-4.63524E+02-1.21675E+03-1.98133E+03 1.10083E-09 1.81694E-09
 -1       932-8.58836E+05 1.34613E+00-7.69517E+02 2.02098E+03-7.58405E-10-8.45318E-10
 -1       933-8.56657E+05 3.47822E+01 1.75798E+02-1.13147E+04-1.16322E-09-5.18402E-09
 -1       934-8.58359E+05-7.66856E+01 3.36849E+02 6.19665E+03-1.19570E-09-6.80316E-09
 -1       935-8.57445E+05 4.90414E+02 1.32825E+03-1.73463E+04-1.52426E-09-1.00631E-08
 -1       936-8.58144E+05-3.79033E+02 2.31895E+03 8.05294E+03 5.13715E-10-9.92611E-09
 -1       937-8.56464E+05 2.83324E+03 5.80165E+03-1.81447E+04-4.45797E-09-1.05359E-08
 -1       938-8.59352E+05-2.40001E+03 9.20878E+03 6.99516E+03-5.56452E-09-9.46238E-09
 -1       939-8.48605E+05 1.78305E+04 2.54618E+04-1.34708E+04-4.03247E-09-6.07497E-09
 -1       940-8.65906E+05-1.53902E+04 3.56283E+04 3.37867E+03 3.77213E-10-2.61571E-09
 -1       941 4.41409E+06-2.17379E+05 5.11668E+05 4.39227E+02 1.68051E-08 5.15138E-09
 -1       942 4.63397E+06 2.52002E+05 3.60416E+05 2.14159E+03 1.54352E-08-3.81624E-09
 -1       943 4.49932E+06-3.36899E+04 1.32670E+05 1.02068E+03 5.96230E-09 5.23869E-10
 -1       944 4.53526E+06 3.90244E+04 8.30794E+04 1.42182E+03 1.65081E-09-2.31103E-09
 -1       945 4.51332E+06-5.21122E+03 3.42575E+04 1.15913E+03 3.60960E-09 4.18004E-09
 -1       946 4.51916E+06 6.12064E+03 2.04778E+04 1.24483E+03 4.72241E-10 7.57859E-09
 -1       947 4.51562E+06-8.93176E+02 1.02850E+04 1.19775E+03 3.08125E-09 4.69436E-09
 -1       948 4.51683E+06 1.66118E+03 8.50168E+03 1.17429E+03-1.55546E-09 4.13048E-09
 -1       949 4.51570E+06-7.64263E+02 9.06384E+03 1.22968E+03 6.01716E-10-6.68501E-09
 -1       950 4.51855E+06 5.00052E+03 1.69654E+04 1.03927E+03 2.52372E-09 5.42718E-09
 -1       951 4.51386E+06-4.22300E+03 2.79061E+04 1.33276E+03 6.86615E-10-4.13820E-09
 -1       952 4.53155E+06 3.15849E+04 6.73244E+04 5.08336E+02 8.42845E-10-2.38742E-09
 -1       953 4.50254E+06-2.72631E+04 1.07393E+05 1.76054E+03-5.77376E-09 2.49565E-09
 -1       954 4.61144E+06 2.03922E+05 2.91665E+05-1.76060E+03-3.07870E-09-2.12458E-09
 -1       955 4.43350E+06-1.75920E+05 4.13880E+05 3.60087E+03-1.34577E-08 4.07454E-10
 -1       956-2.41922E+05-4.09357E+03-8.39772E+03 3.49395E+04-7.25595E-09-2.06364E-09
 -1       957-2.43445E+05-1.27745E+03-4.22800E+03 4.03857E+04-3.22871E-10 4.29281E-10
 -1       958-2.42621E+05-1.36868E+02-1.90190E+03 3.47257E+04 7.33780E-09-3.46722E-09
 -1       959-2.42774E+05 1.39978E+01-9.66105E+02 4.06198E+04-1.08548E-09-2.29375E-09
 -1       960-2.42716E+05 7.00717E+01-4.69388E+02 3.47027E+04-6.22367E-09-1.33741E-09
 -1       961-2.42741E+05 8.83746E+01-2.47037E+02 4.06456E+04-1.35310E-08 2.03545E-09
 -1       962-2.42749E+05 8.21661E+01-1.39250E+02 3.46995E+04-6.99947E-09-1.29103E-09
 -1       963-2.42756E+05 9.97445E+01-1.06997E+02 4.06499E+04-8.18341E-09 1.77670E-09
 -1       964-2.42764E+05 9.07732E+01-1.24763E+02 3.46983E+04-1.31322E-08-2.35286E-09
 -1       965-2.42774E+05 1.06757E+02-2.11208E+02 4.06501E+04-1.60465E-08 5.87988E-10
 -1       966-2.42762E+05 9.62992E+01-3.94525E+02 3.46992E+04-2.19813E-08-2.28283E-10
 -1       967-2.42829E+05 6.00210E+01-8.11572E+02 4.06386E+04-1.59289E-08 4.54497E-09
 -1       968-2.42705E+05-6.29105E+01-1.59496E+03 3.47101E+04-8.29596E-09-2.08047E-10
 -1       969-2.43420E+05-1.01160E+03-3.54997E+03 4.05267E+04-1.20963E-09 8.21046E-10
 -1       970-2.42136E+05-3.37758E+03-7.04878E+03 3.48159E+04 9.86802E-11-1.26420E-09
 -1       971-5.27579E+05 7.99908E+03-3.27800E+04 3.71109E+03-4.46607E-09 1.95178E-09
 -1       972-5.39480E+05-1.06025E+04-2.11187E+04 1.85969E+04-6.66478E-09 4.59113E-09
 -1       973-5.32568E+05 8.43850E+02-8.51054E+03 3.53236E+03-7.54426E-09 2.78123E-09
 -1       974-5.33977E+05-1.01966E+03-4.78162E+03 1.88684E+04 2.87400E-10 3.05204E-09
 -1       975-5.33153E+05 1.02139E+02-2.19136E+03 3.43779E+03-4.30350E-09-5.89125E-10
 -1       976-5.33364E+05-2.76959E+01-1.22019E+03 1.90155E+04-1.01023E-08 7.43432E-09
 -1       977-5.33231E+05 2.94793E+01-7.10714E+02 3.38478E+03 1.20205E-08 3.87786E-09
 -1       978-5.33315E+05 6.65895E+01-6.35713E+02 1.90852E+04 2.16778E-08 4.68577E-09
 -1       979-5.33228E+05 3.47496E+01-8.32557E+02 3.36791E+03 9.27323E-09 2.34661E-09
 -1       980-5.33415E+05-5.30258E+01-1.54557E+03 1.90820E+04 1.12755E-08 3.16977E-09
 -1       981-5.33130E+05 1.37462E+02-2.83247E+03 3.38805E+03-5.53007E-09 1.40608E-09
 -1       982-5.34247E+05-1.33588E+03-6.23025E+03 1.90040E+04-2.93414E-09 3.84114E-09
 -1       983-5.32370E+05 1.11410E+03-1.10929E+04 3.44648E+03 4.96584E-09 8.28095E-10
 -1       984-5.41465E+05-1.38298E+04-2.75609E+04 1.88168E+04-4.67753E-09 5.95492E-09
 -1       985-5.25864E+05 1.04635E+04-4.27622E+04 3.57855E+03 6.15319E-09 1.28966E-09
 -3
    1PSTEP                        27          14           1          
  100CL  114 6.94130E-01         841                     0   14           1
 -4  DISP        4    1
 -5  D1          1    2    1    0
 -5  D2          1    2    2    0
 -5  D3          1    2    3    0
 -5  ALL         1    2    0    0    1ALL
 -1         1 8.54001E-05 0.00000E+00 0.00000E+00
 -1         2 6.58078E-05 0.00000E+00 0.00000E+00
 -1         3 5.36397E-05 0.00000E+00 0.00000E+00
 -1         4 4.74200E-05 0.00000E+00 0.00000E+00
 -1         5 4.46967E-05 0.00000E+00 0.00000E+00
 -1         8 6.72249E-05-8.41909E-07 0.00000E+00
 -1         9 5.25791E-05 8.20923E-07 0.00000E+00
 -1        10 4.88554E-05-2.38869E-06 0.00000E+00
 -1        11 4.59766E-05-4.79170E-07 0.00000E+00
 -1        12 4.27431E-05 1.19662E-06 0.00000E+00
 -1        15 3.23119E-05-1.38164E-06 0.00000E+00
 -1        16 3.85630E-05 8.09272E-07 0.00000E+00
 -1        17 3.49515E-05-4.77480E-06 0.00000E+00
 -1        18 3.56200E-05-1.00594E-06 0.00000E+00
 -1        19 3.76915E-05 2.36382E-06 0.00000E+00
 -1        20 3.82863E-05 2.50533E-05 0.00000E+00
 -1        21 3.82591E-05 5.99506E-05 0.00000E+00
 -1        22 8.90062E-06-9.56614E-07 0.00000E+00
 -1        23 1.20462E-05 1.16909E-06 0.00000E+00
 -1        24 1.44180E-05-5.56041E-06 0.00000E+00
 -1        25 3.07243E-05-7.14444E-07 0.00000E+00
 -1        26 3.27712E-05 3.12645E-06 0.00000E+00
 -1        27 3.08278E-05 2.41777E-05 0.00000E+00
 -1        28 2.85225E-05 5.91242E-05 0.00000E+00
 -1        29 0.00000E+00 0.00000E+00 0.00000E+00
 -1        30 4.13313E-06 1.54849E-06 0.00000E+00
 -1        31 4.96513E-06-4.82116E-06 0.00000E+00
 -1        32 0.00000E+00 0.00000E+00 0.00000E+00
 -1        33 2.58478E-05 5.04240E-06 0.00000E+00
 -1        34 2.44324E-05 2.40996E-05 0.00000E+00
 -1        35 2.13225E-05 5.86854E-05 0.00000E+00
 -1        36 8.42133E-05 1.66791E-18-2.64698E-23
 -1        37 8.29887E-05 6.71181E-18 0.00000E+00
 -1        38 8.17665E-05 1.29177E-17-2.64698E-23
 -1        39 8.05372E-05 1.77387E-17 1.32349E-23
 -1        40 7.93076E-05 1.93580E-17 2.64698E-23
 -1        41 7.80766E-05 1.62202E-17-1.32349E-23
 -1        42 7.68455E-05 9.41563E-18 0.00000E+00
 -1        43 7.56141E-05 9.97671E-20 0.00000E+00
 -1        44 7.43827E-05-9.32025E-18 2.64698E-23
 -1        45 7.31514E-05-1.62572E-17 0.00000E+00
 -1        46 7.19203E-05-1.93286E-17 2.64698E-23
 -1        47 7.06901E-05-1.77336E-17 0.00000E+00
 -1        48 6.94601E-05-1.30430E-17 0.00000E+00
 -1        49 6.82350E-05-6.86480E-18 0.00000E+00
 -1        50 6.70083E-05-1.71183E-18 0.00000E+00
 -1        51 8.40407E-05-1.43176E-07 0.00000E+00
 -1        52 8.17736E-05-2.79707E-07 0.00000E+00
 -1        53 7.87741E-05-4.15538E-07 0.00000E+00
 -1        54 7.52262E-05-5.52644E-07 3.30872E-24
 -1        55 7.13146E-05-6.92723E-07 5.79026E-24
 -1        56 8.37109E-05-7.31379E-07 2.64698E-23
 -1        57 8.20125E-05-1.62717E-06-2.64698E-23
 -1        58 8.03454E-05-2.59611E-06 5.29396E-23
 -1        59 7.86696E-05-3.57362E-06-2.64698E-23
 -1        60 7.69688E-05-4.48574E-06 5.29396E-23
 -1        61 7.52162E-05-5.26536E-06 0.00000E+00
 -1        62 7.33916E-05-5.85376E-06 0.00000E+00
 -1        63 7.14759E-05-6.20020E-06 2.64698E-23
 -1        64 6.94565E-05-6.27056E-06 5.29396E-23
 -1        65 6.73249E-05-6.04131E-06 2.64698E-23
 -1        66 6.50798E-05-5.50990E-06-5.29396E-23
 -1        67 6.27262E-05-4.68478E-06 0.00000E+00
 -1        68 6.02737E-05-3.59583E-06 5.29396E-23
 -1        69 5.77470E-05-2.27889E-06-2.64698E-23
 -1        70 5.51531E-05-7.94110E-07 0.00000E+00
 -1        71 6.50537E-05-3.38036E-20-2.64698E-23
 -1        72 6.42923E-05-4.62708E-20 1.32349E-23
 -1        73 6.35313E-05 1.81081E-19 2.64698E-23
 -1        74 6.27690E-05 4.54366E-19-1.32349E-23
 -1        75 6.20066E-05 6.80791E-19-2.64698E-23
 -1        76 6.12440E-05 8.76830E-19 0.00000E+00
 -1        77 6.04814E-05 8.88951E-19-2.64698E-23
 -1        78 5.97187E-05 7.48721E-19 0.00000E+00
 -1        79 5.89560E-05 5.81951E-19 2.64698E-23
 -1        80 5.81934E-05 3.98505E-19-1.32349E-23
 -1        81 5.74308E-05 2.54341E-19 2.64698E-23
 -1        82 5.66688E-05 1.52061E-19-1.32349E-23
 -1        83 5.59068E-05 5.24921E-20 2.64698E-23
 -1        84 5.51473E-05 2.01290E-20 0.00000E+00
 -1        85 5.43870E-05-1.51316E-20 0.00000E+00
 -1        86 6.52021E-05 1.18165E-07 0.00000E+00
 -1        87 6.34258E-05 2.63867E-07 0.00000E+00
 -1        88 6.08856E-05 4.06042E-07 0.00000E+00
 -1        89 5.79829E-05 5.49166E-07 0.00000E+00
 -1        90 5.50900E-05 6.93784E-07 0.00000E+00
 -1        91 6.83616E-05-8.47642E-06 0.00000E+00
 -1        92 7.67977E-05-3.34114E-05 0.00000E+00
 -1        93 8.92984E-05-7.01995E-05 0.00000E+00
 -1        94 1.04107E-04-1.13937E-04-6.61744E-24
 -1        95 1.18944E-04-1.57764E-04 0.00000E+00
 -1        96 1.31535E-04-1.94817E-04 0.00000E+00
 -1        97 1.40107E-04-2.20140E-04-1.32349E-23
 -1        98 1.42833E-04-2.29070E-04-6.61744E-24
 -1        99 1.39352E-04-2.21429E-04 1.32349E-23
 -1       100 1.29429E-04-1.97385E-04-6.61744E-24
 -1       101 1.14683E-04-1.61507E-04 0.00000E+00
 -1       102 9.69710E-05-1.18556E-04-6.61744E-24
 -1       103 7.90843E-05-7.51926E-05-1.32349E-23
 -1       104 6.38277E-05-3.80826E-05 0.00000E+00
 -1       105 5.31709E-05-1.22130E-05-1.32349E-23
 -1       106 5.32479E-05 2.84186E-20 0.00000E+00
 -1       107 5.28583E-05 6.95680E-20 0.00000E+00
 -1       108 5.24685E-05 1.05441E-19-1.32349E-23
 -1       109 5.20791E-05 1.54538E-19 6.61744E-24
 -1       110 5.16897E-05 1.58284E-19 1.32349E-23
 -1       111 5.13004E-05 1.58706E-19-6.61744E-24
 -1       112 5.09111E-05 1.56273E-19-1.32349E-23
 -1       113 5.05218E-05 1.02081E-19 0.00000E+00
 -1       114 5.01326E-05 7.29611E-20 1.32349E-23
 -1       115 4.97434E-05 4.28757E-20-6.61744E-24
 -1       116 4.93543E-05 2.50768E-20-1.32349E-23
 -1       117 4.89654E-05-1.83096E-20 0.00000E+00
 -1       118 4.85765E-05 1.00205E-20-1.32349E-23
 -1       119 4.81890E-05 4.00711E-20 0.00000E+00
 -1       120 4.78010E-05 2.38720E-20 0.00000E+00
 -1       121 5.35493E-05-3.99522E-07-1.32349E-23
 -1       122 5.32331E-05-7.97222E-07 0.00000E+00
 -1       123 5.26473E-05-1.19507E-06 0.00000E+00
 -1       124 5.17498E-05-1.59276E-06-6.61744E-24
 -1       125 5.04990E-05-1.99078E-06-1.32349E-23
 -1       126 5.34964E-05-9.15543E-07-1.32349E-23
 -1       127 5.39125E-05-3.32726E-06 0.00000E+00
 -1       128 5.47395E-05-6.84384E-06 0.00000E+00
 -1       129 5.58239E-05-1.10539E-05 0.00000E+00
 -1       130 5.69519E-05-1.53814E-05 0.00000E+00
 -1       131 5.79092E-05-1.92485E-05 6.61744E-24
 -1       132 5.85214E-05-2.21868E-05 0.00000E+00
 -1       133 5.86192E-05-2.37448E-05 0.00000E+00
 -1       134 5.81533E-05-2.37967E-05 0.00000E+00
 -1       135 5.70838E-05-2.22433E-05 0.00000E+00
 -1       136 5.55137E-05-1.93639E-05-1.32349E-23
 -1       137 5.35560E-05-1.54606E-05 6.61744E-24
 -1       138 5.14159E-05-1.10770E-05 0.00000E+00
 -1       139 4.93044E-05-6.76409E-06 0.00000E+00
 -1       140 4.74224E-05-3.05774E-06 0.00000E+00
 -1       141 4.72461E-05-3.28248E-20 6.61744E-24
 -1       142 4.70741E-05-7.54389E-20 3.30872E-24
 -1       143 4.69020E-05-1.54774E-20-6.61744E-24
 -1       144 4.67303E-05 5.15640E-20 0.00000E+00
 -1       145 4.65586E-05 2.61770E-20-6.61744E-24
 -1       146 4.63869E-05 5.85187E-20-3.30872E-24
 -1       147 4.62153E-05 2.45901E-20 0.00000E+00
 -1       148 4.60437E-05 3.37244E-20 0.00000E+00
 -1       149 4.58721E-05 6.22390E-20 0.00000E+00
 -1       150 4.57007E-05 7.37813E-20 0.00000E+00
 -1       151 4.55293E-05 9.74890E-20 6.61744E-24
 -1       152 4.53585E-05 9.23755E-20 1.65436E-24
 -1       153 4.51878E-05 8.73808E-20 0.00000E+00
 -1       154 4.50198E-05 5.22524E-20 0.00000E+00
 -1       155 4.48510E-05 1.51130E-20 0.00000E+00
 -1       156 4.75658E-05-8.29917E-08 3.30872E-24
 -1       157 4.79753E-05-1.60570E-07 0.00000E+00
 -1       158 4.83316E-05-2.38542E-07 0.00000E+00
 -1       159 4.83183E-05-3.16528E-07 1.65436E-24
 -1       160 4.76332E-05-3.94348E-07-3.30872E-24
 -1       161 4.72002E-05-1.21930E-07-6.61744E-24
 -1       162 4.70052E-05-3.11757E-07-3.30872E-24
 -1       163 4.68262E-05-5.44316E-07 6.61744E-24
 -1       164 4.66536E-05-7.94311E-07 0.00000E+00
 -1       165 4.64772E-05-1.03381E-06-6.61744E-24
 -1       166 4.62863E-05-1.23504E-06 0.00000E+00
 -1       167 4.60728E-05-1.37570E-06-6.61744E-24
 -1       168 4.58284E-05-1.43407E-06 3.30872E-24
 -1       169 4.55491E-05-1.39935E-06 0.00000E+00
 -1       170 4.52313E-05-1.26156E-06 0.00000E+00
 -1       171 4.48763E-05-1.02462E-06 6.61744E-24
 -1       172 4.44865E-05-6.93167E-07 0.00000E+00
 -1       173 4.40679E-05-2.84848E-07-6.61744E-24
 -1       174 4.36303E-05 1.83327E-07-1.65436E-24
 -1       175 4.31793E-05 6.83665E-07-8.27181E-25
 -1       191 4.46257E-05 1.99219E-07 6.61744E-24
 -1       192 4.44486E-05 3.98869E-07 0.00000E+00
 -1       193 4.41680E-05 5.98600E-07 0.00000E+00
 -1       194 4.37876E-05 7.98281E-07 6.61744E-24
 -1       195 4.33112E-05 9.97772E-07 0.00000E+00
 -1       251 6.66084E-05 9.27549E-06 0.00000E+00
 -1       252 6.57647E-05 3.28893E-05 0.00000E+00
 -1       253 6.46790E-05 6.57284E-05 1.32349E-23
 -1       254 6.34310E-05 1.03305E-04 0.00000E+00
 -1       255 6.22189E-05 1.39839E-04 0.00000E+00
 -1       256 6.12233E-05 1.69577E-04 0.00000E+00
 -1       257 6.04702E-05 1.88616E-04 0.00000E+00
 -1       258 5.98809E-05 1.93303E-04 6.61744E-24
 -1       259 5.92605E-05 1.83858E-04 0.00000E+00
 -1       260 5.84279E-05 1.60835E-04 6.61744E-24
 -1       261 5.73545E-05 1.28458E-04 0.00000E+00
 -1       262 5.61166E-05 9.11650E-05 0.00000E+00
 -1       263 5.49085E-05 5.47400E-05-1.32349E-23
 -1       264 5.39134E-05 2.49450E-05-6.61744E-24
 -1       265 5.31592E-05 5.73587E-06 1.32349E-23
 -1       266 6.41395E-05-9.25269E-07-6.61744E-24
 -1       267 6.13254E-05-9.96877E-07-1.65436E-24
 -1       268 5.77453E-05-1.07166E-06 0.00000E+00
 -1       269 5.23643E-05-1.15159E-06 0.00000E+00
 -1       270 4.42085E-05-1.25014E-06-1.65436E-24
 -1       271 6.46531E-05 1.48412E-06 0.00000E+00
 -1       272 6.22965E-05 3.08536E-06 0.00000E+00
 -1       273 6.01830E-05 4.04649E-06 5.29396E-23
 -1       274 5.82744E-05 4.44016E-06 0.00000E+00
 -1       275 5.65451E-05 4.35412E-06 5.29396E-23
 -1       276 5.49595E-05 3.88140E-06 0.00000E+00
 -1       277 5.34811E-05 3.12195E-06 0.00000E+00
 -1       278 5.20708E-05 2.18017E-06 0.00000E+00
 -1       279 5.06886E-05 1.16349E-06 0.00000E+00
 -1       280 4.92938E-05 1.80647E-07 0.00000E+00
 -1       281 4.78463E-05-6.60327E-07-5.29396E-23
 -1       282 4.63072E-05-1.25349E-06 2.64698E-23
 -1       283 4.46378E-05-1.49738E-06-5.29396E-23
 -1       284 4.28086E-05-1.29385E-06 2.64698E-23
 -1       285 4.07773E-05-5.57487E-07 0.00000E+00
 -1       286 5.23412E-05 2.81069E-06 0.00000E+00
 -1       287 5.21086E-05 4.17109E-06 0.00000E+00
 -1       288 5.18764E-05 4.89285E-06 6.61744E-24
 -1       289 5.16452E-05 4.97273E-06 0.00000E+00
 -1       290 5.14140E-05 4.48197E-06-6.61744E-24
 -1       291 5.11825E-05 3.49718E-06-3.30872E-24
 -1       292 5.09507E-05 2.15227E-06 6.61744E-24
 -1       293 5.07186E-05 5.84526E-07 3.30872E-24
 -1       294 5.04864E-05-1.04291E-06 0.00000E+00
 -1       295 5.02543E-05-2.56631E-06 0.00000E+00
 -1       296 5.00226E-05-3.83408E-06 0.00000E+00
 -1       297 4.97910E-05-4.69696E-06-3.30872E-24
 -1       298 4.95596E-05-5.05268E-06-6.61744E-24
 -1       299 4.93272E-05-4.80377E-06 0.00000E+00
 -1       300 4.90947E-05-3.92289E-06 0.00000E+00
 -1       301 5.02428E-05 8.09422E-07 6.61744E-24
 -1       302 4.78955E-05 8.12662E-07-1.65436E-24
 -1       303 4.55455E-05 8.18503E-07 0.00000E+00
 -1       304 4.32012E-05 8.23923E-07 0.00000E+00
 -1       305 4.08710E-05 8.25813E-07 0.00000E+00
 -1       306 5.08148E-05 2.32601E-06 0.00000E+00
 -1       307 4.92921E-05 3.09339E-06 0.00000E+00
 -1       308 4.80103E-05 3.22299E-06 2.64698E-23
 -1       309 4.69272E-05 2.80850E-06 0.00000E+00
 -1       310 4.60088E-05 1.95338E-06 2.64698E-23
 -1       311 4.52143E-05 7.64686E-07-1.32349E-23
 -1       312 4.45028E-05-6.46341E-07 2.64698E-23
 -1       313 4.38317E-05-2.16609E-06 0.00000E+00
 -1       314 4.31584E-05-3.67958E-06 0.00000E+00
 -1       315 4.24399E-05-5.07190E-06-1.32349E-23
 -1       316 4.16339E-05-6.22968E-06 2.64698E-23
 -1       317 4.06997E-05-7.04205E-06-1.32349E-23
 -1       318 3.95967E-05-7.40247E-06 0.00000E+00
 -1       319 3.82916E-05-7.20787E-06 1.32349E-23
 -1       320 3.67417E-05-6.36561E-06 2.64698E-23
 -1       321 4.86660E-05-8.06843E-07 0.00000E+00
 -1       322 4.84856E-05 2.19323E-07 0.00000E+00
 -1       323 4.83051E-05 7.23720E-07 0.00000E+00
 -1       324 4.81262E-05 7.44058E-07 0.00000E+00
 -1       325 4.79473E-05 3.61829E-07 0.00000E+00
 -1       326 4.77686E-05-3.38536E-07 3.30872E-24
 -1       327 4.75897E-05-1.24388E-06 0.00000E+00
 -1       328 4.74109E-05-2.23953E-06 3.30872E-24
 -1       329 4.72321E-05-3.20264E-06 6.61744E-24
 -1       330 4.70534E-05-4.01064E-06 0.00000E+00
 -1       331 4.68748E-05-4.55496E-06 0.00000E+00
 -1       332 4.66963E-05-4.72892E-06 3.30872E-24
 -1       333 4.65178E-05-4.45934E-06 0.00000E+00
 -1       334 4.63387E-05-3.67624E-06 3.30872E-24
 -1       335 4.61591E-05-2.35607E-06 0.00000E+00
 -1       336 4.68608E-05-2.78723E-06 0.00000E+00
 -1       337 4.46565E-05-3.18654E-06-6.61744E-24
 -1       338 4.23024E-05-3.58599E-06 1.32349E-23
 -1       339 3.98595E-05-3.98459E-06 0.00000E+00
 -1       340 3.73888E-05-4.38341E-06-1.32349E-23
 -1       341 4.56559E-05 4.56140E-06 1.32349E-23
 -1       342 3.84122E-05 2.19067E-05 0.00000E+00
 -1       343 2.82915E-05 4.64853E-05 0.00000E+00
 -1       344 1.65743E-05 7.50069E-05 0.00000E+00
 -1       345 5.02091E-06 1.03124E-04-1.32349E-23
 -1       346-4.61579E-06 1.26495E-04 0.00000E+00
 -1       347-1.11579E-05 1.42053E-04-1.32349E-23
 -1       348-1.35485E-05 1.46869E-04 6.61744E-24
 -1       349-1.18999E-05 1.40902E-04 0.00000E+00
 -1       350-6.40521E-06 1.24338E-04 6.61744E-24
 -1       351 1.75286E-06 1.00248E-04-1.32349E-23
 -1       352 1.13953E-05 7.18797E-05-6.61744E-24
 -1       353 2.09851E-05 4.36644E-05 0.00000E+00
 -1       354 2.89883E-05 2.00315E-05 0.00000E+00
 -1       355 3.42447E-05 4.14492E-06 0.00000E+00
 -1       356 4.57702E-05 1.50370E-06-6.61744E-24
 -1       357 4.55653E-05 3.13771E-06 3.30872E-24
 -1       358 4.53610E-05 4.38897E-06 0.00000E+00
 -1       359 4.51572E-05 5.22671E-06-3.30872E-24
 -1       360 4.49537E-05 5.66262E-06 6.61744E-24
 -1       361 4.47504E-05 5.71171E-06 0.00000E+00
 -1       362 4.45470E-05 5.42869E-06 0.00000E+00
 -1       363 4.43435E-05 4.87103E-06 3.30872E-24
 -1       364 4.41400E-05 4.12432E-06 6.61744E-24
 -1       365 4.39365E-05 3.27579E-06 3.30872E-24
 -1       366 4.37331E-05 2.42309E-06 6.61744E-24
 -1       367 4.35303E-05 1.66389E-06-3.30872E-24
 -1       368 4.33277E-05 1.08629E-06 0.00000E+00
 -1       369 4.31283E-05 7.76891E-07 1.65436E-24
 -1       370 4.29279E-05 7.94870E-07 0.00000E+00
 -1       371 4.37956E-05-5.74285E-07 3.30872E-24
 -1       372 4.15776E-05-6.63480E-07-1.65436E-24
 -1       373 3.94898E-05-7.52730E-07-3.30872E-24
 -1       374 3.76987E-05-8.39364E-07 0.00000E+00
 -1       375 3.63581E-05-9.25600E-07-8.27181E-25
 -1       376 4.47245E-05 1.66809E-06 0.00000E+00
 -1       377 4.33674E-05 4.07277E-06-6.61744E-24
 -1       378 4.20114E-05 6.47564E-06-1.32349E-23
 -1       379 4.07539E-05 8.61400E-06 0.00000E+00
 -1       380 3.96728E-05 1.02847E-05 0.00000E+00
 -1       381 3.88414E-05 1.12917E-05 6.61744E-24
 -1       382 3.82780E-05 1.15859E-05 1.32349E-23
 -1       383 3.79958E-05 1.11300E-05 6.61744E-24
 -1       384 3.79462E-05 1.00529E-05 1.32349E-23
 -1       385 3.80769E-05 8.49392E-06-6.61744E-24
 -1       386 3.82959E-05 6.69838E-06 0.00000E+00
 -1       387 3.85109E-05 4.91577E-06 0.00000E+00
 -1       388 3.86290E-05 3.39281E-06 1.32349E-23
 -1       389 3.85631E-05 2.37352E-06 0.00000E+00
 -1       390 3.82585E-05 1.98748E-06-6.61744E-24
 -1       406 4.20474E-05 1.39218E-06 6.61744E-24
 -1       407 4.12766E-05 1.58805E-06 3.30872E-24
 -1       408 4.04429E-05 1.78382E-06-6.61744E-24
 -1       409 3.95589E-05 1.97911E-06 3.30872E-24
 -1       410 3.86374E-05 2.17334E-06 6.61744E-24
 -1       466 3.26323E-05 1.00880E-05-6.61744E-24
 -1       467 3.30092E-05 1.70200E-05 0.00000E+00
 -1       468 3.34028E-05 2.05781E-05 0.00000E+00
 -1       469 3.38047E-05 2.18692E-05 6.61744E-24
 -1       470 3.42077E-05 2.14900E-05 0.00000E+00
 -1       471 3.46102E-05 2.00095E-05-6.61744E-24
 -1       472 3.50115E-05 1.77478E-05 0.00000E+00
 -1       473 3.54117E-05 1.50121E-05 0.00000E+00
 -1       474 3.58111E-05 1.20024E-05 0.00000E+00
 -1       475 3.62101E-05 8.91426E-06 0.00000E+00
 -1       476 3.66092E-05 5.92543E-06 1.32349E-23
 -1       477 3.70078E-05 3.21529E-06 6.61744E-24
 -1       478 3.74074E-05 1.02617E-06 0.00000E+00
 -1       479 3.78020E-05-3.90856E-07 0.00000E+00
 -1       480 3.81996E-05-6.11466E-07 0.00000E+00
 -1       481 2.08909E-05-1.36185E-06 0.00000E+00
 -1       482 1.41236E-05-1.29777E-06-8.27181E-25
 -1       483 1.07493E-05-1.21659E-06 0.00000E+00
 -1       484 9.51978E-06-1.13027E-06 0.00000E+00
 -1       485 9.28555E-06-1.04290E-06-1.65436E-24
 -1       486 2.36509E-05 1.97614E-05 6.61744E-24
 -1       487 8.98151E-06 5.56237E-05 0.00000E+00
 -1       488-9.62079E-06 1.00865E-04-1.32349E-23
 -1       489-2.99001E-05 1.50014E-04 6.61744E-24
 -1       490-4.91210E-05 1.96686E-04 1.32349E-23
 -1       491-6.46077E-05 2.34523E-04 6.61744E-24
 -1       492-7.47298E-05 2.59247E-04 0.00000E+00
 -1       493-7.80883E-05 2.66762E-04-6.61744E-24
 -1       494-7.49916E-05 2.57019E-04-1.32349E-23
 -1       495-6.58587E-05 2.30290E-04 6.61744E-24
 -1       496-5.24218E-05 1.90925E-04 0.00000E+00
 -1       497-3.63540E-05 1.43555E-04-6.61744E-24
 -1       498-1.98330E-05 9.47930E-05 0.00000E+00
 -1       499-5.02124E-06 5.12863E-05 0.00000E+00
 -1       500 6.23758E-06 1.83761E-05 6.61744E-24
 -1       501 3.83279E-05 2.69883E-06 0.00000E+00
 -1       502 3.81019E-05 3.82787E-06 3.30872E-24
 -1       503 3.78759E-05 4.21176E-06 6.61744E-24
 -1       504 3.76515E-05 3.87265E-06 0.00000E+00
 -1       505 3.74267E-05 2.91417E-06 6.61744E-24
 -1       506 3.72016E-05 1.44560E-06 3.30872E-24
 -1       507 3.69761E-05-3.66300E-07 0.00000E+00
 -1       508 3.67502E-05-2.35170E-06 0.00000E+00
 -1       509 3.65245E-05-4.32119E-06 0.00000E+00
 -1       510 3.62991E-05-6.08550E-06-3.30872E-24
 -1       511 3.60742E-05-7.47849E-06 0.00000E+00
 -1       512 3.58500E-05-8.33740E-06 0.00000E+00
 -1       513 3.56260E-05-8.55958E-06-6.61744E-24
 -1       514 3.54020E-05-8.04822E-06-3.30872E-24
 -1       515 3.51773E-05-6.78909E-06 6.61744E-24
 -1       516 3.42385E-05 8.64355E-07 6.61744E-24
 -1       517 2.60637E-05 9.16836E-07 0.00000E+00
 -1       518 1.68822E-05 9.60078E-07 0.00000E+00
 -1       519 9.53311E-06 1.02083E-06 4.13590E-25
 -1       520 6.94053E-06 1.10213E-06 2.06795E-25
 -1       521 3.64476E-05 2.15446E-06 0.00000E+00
 -1       522 3.45565E-05 2.77075E-06 0.00000E+00
 -1       523 3.29030E-05 2.75881E-06-5.29396E-23
 -1       524 3.14435E-05 2.20994E-06 0.00000E+00
 -1       525 3.01453E-05 1.22866E-06 0.00000E+00
 -1       526 2.89669E-05-7.59422E-08 0.00000E+00
 -1       527 2.78663E-05-1.58931E-06 0.00000E+00
 -1       528 2.67996E-05-3.19392E-06-2.64698E-23
 -1       529 2.57225E-05-4.77071E-06 0.00000E+00
 -1       530 2.45909E-05-6.20110E-06-2.64698E-23
 -1       531 2.33612E-05-7.36885E-06-5.29396E-23
 -1       532 2.19923E-05-8.16155E-06 2.64698E-23
 -1       533 2.04436E-05-8.47308E-06 0.00000E+00
 -1       534 1.86837E-05-8.20272E-06 1.32349E-23
 -1       535 1.66706E-05-7.26348E-06 2.64698E-23
 -1       536 3.49793E-05-2.66527E-06 3.30872E-24
 -1       537 3.50191E-05-1.06144E-06 4.13590E-25
 -1       538 3.50593E-05 9.16602E-08 3.61892E-25
 -1       539 3.51016E-05 8.49201E-07-2.06795E-25
 -1       540 3.51443E-05 1.26611E-06 0.00000E+00
 -1       541 3.51875E-05 1.39721E-06-4.13590E-25
 -1       542 3.52307E-05 1.29720E-06-8.27181E-25
 -1       543 3.52740E-05 1.02069E-06 0.00000E+00
 -1       544 3.53172E-05 6.22218E-07 0.00000E+00
 -1       545 3.53605E-05 1.56266E-07 8.27181E-25
 -1       546 3.54037E-05-3.22702E-07 0.00000E+00
 -1       547 3.54470E-05-7.60227E-07 8.27181E-25
 -1       548 3.54903E-05-1.10184E-06 0.00000E+00
 -1       549 3.55336E-05-1.29305E-06-2.48154E-24
 -1       550 3.55769E-05-1.27924E-06 0.00000E+00
 -1       551 3.18840E-05-4.90446E-06 4.24576E-24
 -1       552 2.84760E-05-5.03079E-06 2.48154E-24
 -1       553 2.48751E-05-5.15725E-06 0.00000E+00
 -1       554 2.12318E-05-5.28507E-06 3.30872E-24
 -1       555 1.76967E-05-5.41570E-06-1.32349E-23
 -1       556 3.40370E-05-2.80715E-06 0.00000E+00
 -1       557 3.32947E-05-1.28590E-06 0.00000E+00
 -1       558 3.27050E-05-1.68177E-07 0.00000E+00
 -1       559 3.22499E-05 5.93149E-07 0.00000E+00
 -1       560 3.19112E-05 1.04533E-06 0.00000E+00
 -1       561 3.16707E-05 1.23605E-06 0.00000E+00
 -1       562 3.15104E-05 1.21306E-06 0.00000E+00
 -1       563 3.14124E-05 1.02419E-06 0.00000E+00
 -1       564 3.13587E-05 7.17283E-07-6.61744E-24
 -1       565 3.13313E-05 3.40225E-07 0.00000E+00
 -1       566 3.13123E-05-5.90917E-08 0.00000E+00
 -1       567 3.12838E-05-4.32762E-07 0.00000E+00
 -1       568 3.12278E-05-7.32895E-07 0.00000E+00
 -1       569 3.11270E-05-9.11656E-07 7.23783E-25
 -1       570 3.09636E-05-9.21257E-07-8.27181E-25
 -1       571 3.57442E-05-7.07252E-07 3.30872E-24
 -1       572 3.58725E-05-5.01191E-07-8.27181E-25
 -1       573 3.60018E-05-3.71201E-07 0.00000E+00
 -1       574 3.61317E-05-2.99891E-07 0.00000E+00
 -1       575 3.62618E-05-2.69806E-07 3.30872E-24
 -1       576 3.63920E-05-2.63380E-07 0.00000E+00
 -1       577 3.65223E-05-2.63043E-07-3.30872E-24
 -1       578 3.66525E-05-2.51209E-07 0.00000E+00
 -1       579 3.67827E-05-2.10293E-07 0.00000E+00
 -1       580 3.69130E-05-1.22705E-07 3.30872E-24
 -1       581 3.70432E-05 2.91396E-08 0.00000E+00
 -1       582 3.71734E-05 2.62817E-07 0.00000E+00
 -1       583 3.73035E-05 5.95889E-07 0.00000E+00
 -1       584 3.74334E-05 1.04575E-06 0.00000E+00
 -1       585 3.75629E-05 1.62972E-06 0.00000E+00
 -1       586 3.49123E-05-9.56320E-07-3.30872E-24
 -1       587 3.41012E-05-9.06342E-07-3.30872E-24
 -1       588 3.32313E-05-8.56441E-07 0.00000E+00
 -1       589 3.23482E-05-8.07038E-07-1.29247E-25
 -1       590 3.14976E-05-7.58734E-07 0.00000E+00
 -1       591 3.54149E-05-6.59215E-07 1.65436E-24
 -1       592 3.52269E-05-3.72822E-07 0.00000E+00
 -1       593 3.50562E-05-1.35607E-07 0.00000E+00
 -1       594 3.48996E-05 6.27059E-08 1.65436E-24
 -1       595 3.47535E-05 2.32387E-07 0.00000E+00
 -1       596 3.46142E-05 3.83643E-07 0.00000E+00
 -1       597 3.44780E-05 5.26672E-07-1.65436E-24
 -1       598 3.43411E-05 6.71661E-07 8.27181E-25
 -1       599 3.41995E-05 8.28802E-07 1.65436E-24
 -1       600 3.40496E-05 1.00828E-06-8.27181E-25
 -1       601 3.38876E-05 1.22028E-06-8.27181E-25
 -1       602 3.37096E-05 1.47500E-06 0.00000E+00
 -1       603 3.35119E-05 1.78264E-06-1.65436E-24
 -1       604 3.32912E-05 2.15345E-06 1.03398E-25
 -1       605 3.30441E-05 2.59770E-06 0.00000E+00
 -1       606 3.77334E-05 3.33107E-06 0.00000E+00
 -1       607 3.77721E-05 4.38531E-06 0.00000E+00
 -1       608 3.78099E-05 5.52144E-06 0.00000E+00
 -1       609 3.78472E-05 6.73364E-06-1.65436E-24
 -1       610 3.78843E-05 8.01609E-06-3.30872E-24
 -1       611 3.79213E-05 9.36282E-06 0.00000E+00
 -1       612 3.79581E-05 1.07679E-05 0.00000E+00
 -1       613 3.79948E-05 1.22253E-05 0.00000E+00
 -1       614 3.80315E-05 1.37291E-05 0.00000E+00
 -1       615 3.80681E-05 1.52733E-05 0.00000E+00
 -1       616 3.81047E-05 1.68519E-05 3.30872E-24
 -1       617 3.81412E-05 1.84591E-05 0.00000E+00
 -1       618 3.81776E-05 2.00888E-05 0.00000E+00
 -1       619 3.82140E-05 2.17350E-05 0.00000E+00
 -1       620 3.82503E-05 2.33919E-05 0.00000E+00
 -1       621 3.67752E-05 2.49118E-06-3.30872E-24
 -1       622 3.58840E-05 2.61934E-06 1.65436E-24
 -1       623 3.50281E-05 2.74757E-06 3.30872E-24
 -1       624 3.42174E-05 2.87552E-06-1.65436E-24
 -1       625 3.34619E-05 3.00274E-06 3.30872E-24
 -1       626 3.73981E-05 3.37422E-06 0.00000E+00
 -1       627 3.70687E-05 4.47543E-06-6.61744E-24
 -1       628 3.67079E-05 5.65914E-06 0.00000E+00
 -1       629 3.63194E-05 6.91585E-06 0.00000E+00
 -1       630 3.59069E-05 8.23605E-06 0.00000E+00
 -1       631 3.54741E-05 9.61006E-06 0.00000E+00
 -1       632 3.50247E-05 1.10282E-05 0.00000E+00
 -1       633 3.45623E-05 1.24808E-05 1.65436E-24
 -1       634 3.40906E-05 1.39581E-05 0.00000E+00
 -1       635 3.36133E-05 1.54505E-05 0.00000E+00
 -1       636 3.31338E-05 1.69483E-05 1.65436E-24
 -1       637 3.26560E-05 1.84417E-05 0.00000E+00
 -1       638 3.21833E-05 1.99211E-05-8.27181E-25
 -1       639 3.17191E-05 2.13768E-05 0.00000E+00
 -1       640 3.12668E-05 2.27989E-05 1.24077E-24
 -1       641 3.82873E-05 2.67803E-05 4.13590E-25
 -1       642 3.82868E-05 2.86897E-05-1.03398E-25
 -1       643 3.82860E-05 3.07555E-05 0.00000E+00
 -1       644 3.82848E-05 3.29514E-05 0.00000E+00
 -1       645 3.82833E-05 3.52513E-05 0.00000E+00
 -1       646 3.82816E-05 3.76290E-05 0.00000E+00
 -1       647 3.82798E-05 4.00586E-05 0.00000E+00
 -1       648 3.82779E-05 4.25138E-05 0.00000E+00
 -1       649 3.82760E-05 4.49687E-05 0.00000E+00
 -1       650 3.82741E-05 4.73971E-05-1.29247E-26
 -1       651 3.82723E-05 4.97730E-05 1.03398E-25
 -1       652 3.82705E-05 5.20703E-05 1.03398E-25
 -1       653 3.82689E-05 5.42628E-05 4.13590E-25
 -1       654 3.82667E-05 5.63245E-05 0.00000E+00
 -1       655 3.82651E-05 5.82292E-05 0.00000E+00
 -1       656 3.67845E-05 2.49121E-05 0.00000E+00
 -1       657 3.54781E-05 2.47637E-05 0.00000E+00
 -1       658 3.42983E-05 2.46158E-05 0.00000E+00
 -1       659 3.31760E-05 2.44678E-05 0.00000E+00
 -1       660 3.20422E-05 2.43195E-05 0.00000E+00
 -1       661 3.78030E-05 2.68300E-05 0.00000E+00
 -1       662 3.72716E-05 2.87521E-05-1.65436E-24
 -1       663 3.66939E-05 3.07965E-05-6.61744E-24
 -1       664 3.60789E-05 3.29425E-05 3.30872E-24
 -1       665 3.54335E-05 3.51691E-05 0.00000E+00
 -1       666 3.47656E-05 3.74559E-05 3.30872E-24
 -1       667 3.40828E-05 3.97823E-05 6.61744E-24
 -1       668 3.33928E-05 4.21278E-05 3.30872E-24
 -1       669 3.27032E-05 4.44722E-05-6.61744E-24
 -1       670 3.20217E-05 4.67950E-05 3.30872E-24
 -1       671 3.13560E-05 4.90759E-05 6.61744E-24
 -1       672 3.07136E-05 5.12942E-05 3.30872E-24
 -1       673 3.01024E-05 5.34295E-05 0.00000E+00
 -1       674 2.95290E-05 5.54605E-05 0.00000E+00
 -1       675 2.90028E-05 5.73669E-05 1.65436E-24
 -1       676 3.66313E-05 5.98126E-05 0.00000E+00
 -1       677 3.50051E-05 5.96738E-05 0.00000E+00
 -1       678 3.33808E-05 5.95352E-05 0.00000E+00
 -1       679 3.17587E-05 5.93969E-05 0.00000E+00
 -1       680 3.01392E-05 5.92586E-05 0.00000E+00
 -1       681 9.09602E-06-1.12485E-07 0.00000E+00
 -1       682 9.29649E-06 1.37953E-06-3.30872E-24
 -1       683 9.49583E-06 3.34876E-06 6.61744E-24
 -1       684 9.69563E-06 5.62850E-06 0.00000E+00
 -1       685 9.89506E-06 8.08594E-06 0.00000E+00
 -1       686 1.00946E-05 1.05898E-05 0.00000E+00
 -1       687 1.02944E-05 1.30139E-05 0.00000E+00
 -1       688 1.04946E-05 1.52312E-05 0.00000E+00
 -1       689 1.06955E-05 1.70924E-05 0.00000E+00
 -1       690 1.08971E-05 1.84448E-05 0.00000E+00
 -1       691 1.10994E-05 1.90804E-05 0.00000E+00
 -1       692 1.13014E-05 1.87850E-05-3.30872E-24
 -1       693 1.15022E-05 1.72429E-05 0.00000E+00
 -1       694 1.16975E-05 1.41277E-05-1.65436E-24
 -1       695 1.18850E-05 8.94147E-06 0.00000E+00
 -1       696 8.07779E-06-8.00661E-07 0.00000E+00
 -1       697 6.65598E-06-6.41130E-07 0.00000E+00
 -1       698 4.88894E-06-4.82351E-07 0.00000E+00
 -1       699 3.02815E-06-3.22575E-07-3.30872E-24
 -1       700 1.31704E-06-1.62639E-07 0.00000E+00
 -1       701 8.59438E-06-7.43967E-07 0.00000E+00
 -1       702 8.44346E-06-9.78976E-07 0.00000E+00
 -1       703 8.42985E-06-1.57825E-06-6.61744E-24
 -1       704 8.51987E-06-2.46052E-06-3.30872E-24
 -1       705 8.67185E-06-3.50845E-06-6.61744E-24
 -1       706 8.84125E-06-4.60410E-06 0.00000E+00
 -1       707 8.98207E-06-5.62342E-06 0.00000E+00
 -1       708 9.04816E-06-6.44316E-06-3.30872E-24
 -1       709 9.00253E-06-6.96447E-06 0.00000E+00
 -1       710 8.80907E-06-7.09111E-06 0.00000E+00
 -1       711 8.44951E-06-6.77502E-06 0.00000E+00
 -1       712 7.90738E-06-5.97187E-06 3.30872E-24
 -1       713 7.18774E-06-4.69689E-06 6.61744E-24
 -1       714 6.29949E-06-2.96861E-06 0.00000E+00
 -1       715 5.26785E-06-8.62321E-07-3.30872E-24
 -1       716 1.21621E-05-6.85118E-06 1.65436E-24
 -1       717 1.23004E-05-1.27642E-05-1.65436E-24
 -1       718 1.24467E-05-1.69389E-05 3.30872E-24
 -1       719 1.25992E-05-1.97331E-05-1.65436E-24
 -1       720 1.27542E-05-2.13889E-05 3.30872E-24
 -1       721 1.29106E-05-2.21412E-05 0.00000E+00
 -1       722 1.30673E-05-2.21488E-05 0.00000E+00
 -1       723 1.32239E-05-2.15658E-05 0.00000E+00
 -1       724 1.33800E-05-2.04969E-05-3.30872E-24
 -1       725 1.35355E-05-1.90435E-05-1.65436E-24
 -1       726 1.36904E-05-1.72745E-05-3.30872E-24
 -1       727 1.38439E-05-1.52571E-05 0.00000E+00
 -1       728 1.39969E-05-1.30374E-05 0.00000E+00
 -1       729 1.41448E-05-1.06604E-05-5.16988E-26
 -1       730 1.42940E-05-8.15778E-06-3.30872E-24
 -1       731 1.83914E-05 1.21614E-06-4.13590E-25
 -1       732 1.94017E-05 1.28714E-06 8.27181E-25
 -1       733 1.67994E-05 1.35625E-06 0.00000E+00
 -1       734 1.22951E-05 1.41951E-06 0.00000E+00
 -1       735 7.52730E-06 1.48185E-06-1.65436E-24
 -1       736 1.60819E-05-1.09361E-05 0.00000E+00
 -1       737 2.21125E-05-2.86426E-05-6.61744E-24
 -1       738 2.93193E-05-4.96622E-05 1.32349E-23
 -1       739 3.68646E-05-7.16520E-05 0.00000E+00
 -1       740 4.38506E-05-9.20562E-05 0.00000E+00
 -1       741 4.93753E-05-1.08349E-04 6.61744E-24
 -1       742 5.28294E-05-1.18903E-04 0.00000E+00
 -1       743 5.36138E-05-1.22196E-04 0.00000E+00
 -1       744 5.16905E-05-1.18278E-04 1.32349E-23
 -1       745 4.70669E-05-1.07315E-04 0.00000E+00
 -1       746 4.03530E-05-9.09906E-05 0.00000E+00
 -1       747 3.22161E-05-7.10646E-05 0.00000E+00
 -1       748 2.36545E-05-5.00699E-05 0.00000E+00
 -1       749 1.56827E-05-3.05523E-05 0.00000E+00
 -1       750 9.17233E-06-1.47445E-05-6.61744E-24
 -1       751 1.53752E-05-3.40377E-06 6.61744E-24
 -1       752 1.63940E-05-2.17379E-06 1.32349E-23
 -1       753 1.74096E-05-1.54421E-06 0.00000E+00
 -1       754 1.84368E-05-1.21498E-06 1.32349E-23
 -1       755 1.94643E-05-1.08006E-06 0.00000E+00
 -1       756 2.04941E-05-1.04173E-06-1.32349E-23
 -1       757 2.15242E-05-1.06499E-06 2.64698E-23
 -1       758 2.25547E-05-1.11748E-06 0.00000E+00
 -1       759 2.35852E-05-1.18584E-06-2.64698E-23
 -1       760 2.46155E-05-1.25737E-06 1.32349E-23
 -1       761 2.56456E-05-1.32146E-06 0.00000E+00
 -1       762 2.66741E-05-1.36716E-06 1.32349E-23
 -1       763 2.77023E-05-1.37159E-06 0.00000E+00
 -1       764 2.87224E-05-1.31011E-06 1.32349E-23
 -1       765 2.97451E-05-1.11542E-06-1.32349E-23
 -1       766 1.26606E-05-5.45415E-06-6.61744E-24
 -1       767 1.25656E-05-5.32281E-06 0.00000E+00
 -1       768 1.29499E-05-5.19301E-06 8.27181E-25
 -1       769 1.26338E-05-5.06063E-06 0.00000E+00
 -1       770 1.03862E-05-4.93022E-06-2.06795E-25
 -1       771 1.28677E-05-3.45621E-06-2.64698E-23
 -1       772 1.14528E-05-1.74023E-06-1.32349E-23
 -1       773 1.01701E-05-3.80228E-07 0.00000E+00
 -1       774 9.00795E-06 6.56505E-07 0.00000E+00
 -1       775 7.95475E-06 1.40281E-06 0.00000E+00
 -1       776 6.99814E-06 1.89182E-06 0.00000E+00
 -1       777 6.12567E-06 2.15675E-06 0.00000E+00
 -1       778 5.32478E-06 2.23100E-06 1.32349E-23
 -1       779 4.58292E-06 2.14805E-06 2.64698E-23
 -1       780 3.88746E-06 1.94152E-06 1.32349E-23
 -1       781 3.22580E-06 1.64507E-06 2.64698E-23
 -1       782 2.58541E-06 1.29246E-06 0.00000E+00
 -1       783 1.95377E-06 9.17486E-07-2.64698E-23
 -1       784 1.31896E-06 5.54120E-07-6.61744E-24
 -1       785 6.69213E-07 2.36350E-07 0.00000E+00
 -1       786 3.08446E-05-2.62526E-07 0.00000E+00
 -1       787 3.09722E-05 9.00985E-08 1.65436E-24
 -1       788 3.10997E-05 3.58793E-07-3.30872E-24
 -1       789 3.12284E-05 5.58881E-07 0.00000E+00
 -1       790 3.13572E-05 7.05594E-07 0.00000E+00
 -1       791 3.14862E-05 8.14107E-07 0.00000E+00
 -1       792 3.16153E-05 8.99545E-07 0.00000E+00
 -1       793 3.17444E-05 9.77005E-07-1.65436E-24
 -1       794 3.18736E-05 1.06158E-06 3.30872E-24
 -1       795 3.20027E-05 1.16836E-06 0.00000E+00
 -1       796 3.21318E-05 1.31247E-06-3.30872E-24
 -1       797 3.22608E-05 1.50908E-06-1.65436E-24
 -1       798 3.23897E-05 1.77343E-06 0.00000E+00
 -1       799 3.25180E-05 2.12081E-06 1.65436E-24
 -1       800 3.26464E-05 2.56667E-06 3.30872E-24
 -1       801 2.79673E-05-5.86083E-07 0.00000E+00
 -1       802 2.22549E-05-4.61259E-07 0.00000E+00
 -1       803 1.50942E-05-3.44966E-07 0.00000E+00
 -1       804 7.99298E-06-2.30986E-07 0.00000E+00
 -1       805 2.45909E-06-1.08125E-07 0.00000E+00
 -1       806 3.04095E-05-3.11211E-07-3.30872E-24
 -1       807 3.01051E-05 5.02815E-08 0.00000E+00
 -1       808 2.98118E-05 3.78377E-07 0.00000E+00
 -1       809 2.95277E-05 6.80719E-07 0.00000E+00
 -1       810 2.92501E-05 9.64901E-07 0.00000E+00
 -1       811 2.89764E-05 1.23846E-06-1.65436E-24
 -1       812 2.87039E-05 1.50890E-06 0.00000E+00
 -1       813 2.84297E-05 1.78374E-06 0.00000E+00
 -1       814 2.81510E-05 2.07048E-06 0.00000E+00
 -1       815 2.78650E-05 2.37664E-06 0.00000E+00
 -1       816 2.75690E-05 2.70971E-06-3.30872E-24
 -1       817 2.72601E-05 3.07721E-06-1.65436E-24
 -1       818 2.69357E-05 3.48664E-06 3.30872E-24
 -1       819 2.65932E-05 3.94555E-06 1.65436E-24
 -1       820 2.62304E-05 4.46149E-06-3.30872E-24
 -1       821 3.26575E-05 3.83771E-06 8.27181E-25
 -1       822 3.25366E-05 4.70631E-06 1.65436E-24
 -1       823 3.24157E-05 5.71628E-06 0.00000E+00
 -1       824 3.22935E-05 6.85133E-06 1.65436E-24
 -1       825 3.21711E-05 8.09511E-06 3.30872E-24
 -1       826 3.20483E-05 9.43108E-06 0.00000E+00
 -1       827 3.19255E-05 1.08426E-05 0.00000E+00
 -1       828 3.18024E-05 1.23130E-05-1.65436E-24
 -1       829 3.16794E-05 1.38255E-05 0.00000E+00
 -1       830 3.15563E-05 1.53633E-05 0.00000E+00
 -1       831 3.14332E-05 1.69095E-05 3.30872E-24
 -1       832 3.13103E-05 1.84473E-05-1.65436E-24
 -1       833 3.11876E-05 1.99598E-05 0.00000E+00
 -1       834 3.10658E-05 2.14302E-05-1.65436E-24
 -1       835 3.09440E-05 2.28417E-05 0.00000E+00
 -1       836 3.19061E-05 3.43988E-06-6.61744E-24
 -1       837 3.07192E-05 3.76426E-06 0.00000E+00
 -1       838 2.93652E-05 4.08784E-06 0.00000E+00
 -1       839 2.79989E-05 4.41072E-06 3.30872E-24
 -1       840 2.67749E-05 4.73434E-06 0.00000E+00
 -1       841 3.24831E-05 3.82763E-06-2.06795E-25
 -1       842 3.21288E-05 4.69619E-06 0.00000E+00
 -1       843 3.17174E-05 5.71699E-06 0.00000E+00
 -1       844 3.12544E-05 6.87323E-06 0.00000E+00
 -1       845 3.07473E-05 8.14661E-06 8.27181E-25
 -1       846 3.02031E-05 9.51843E-06 0.00000E+00
 -1       847 2.96294E-05 1.09686E-05 0.00000E+00
 -1       848 2.90337E-05 1.24768E-05 0.00000E+00
 -1       849 2.84241E-05 1.40221E-05-8.27181E-25
 -1       850 2.78085E-05 1.55832E-05-4.13590E-25
 -1       851 2.71950E-05 1.71389E-05 8.27181E-25
 -1       852 2.65915E-05 1.86678E-05 0.00000E+00
 -1       853 2.60060E-05 2.01488E-05 0.00000E+00
 -1       854 2.54461E-05 2.15611E-05-4.13590E-25
 -1       855 2.49197E-05 2.28848E-05 0.00000E+00
 -1       856 3.06917E-05 2.56128E-05 0.00000E+00
 -1       857 3.05487E-05 2.73055E-05 0.00000E+00
 -1       858 3.04055E-05 2.92226E-05-3.30872E-24
 -1       859 3.02609E-05 3.13307E-05 1.65436E-24
 -1       860 3.01158E-05 3.35961E-05 0.00000E+00
 -1       861 2.99703E-05 3.59848E-05 0.00000E+00
 -1       862 2.98245E-05 3.84626E-05 0.00000E+00
 -1       863 2.96786E-05 4.09954E-05 0.00000E+00
 -1       864 2.95326E-05 4.35488E-05 0.00000E+00
 -1       865 2.93866E-05 4.60885E-05 0.00000E+00
 -1       866 2.92408E-05 4.85802E-05 0.00000E+00
 -1       867 2.90953E-05 5.09896E-05 1.65436E-24
 -1       868 2.89501E-05 5.32825E-05 0.00000E+00
 -1       869 2.88059E-05 5.54251E-05 0.00000E+00
 -1       870 2.86620E-05 5.73835E-05 0.00000E+00
 -1       871 2.96668E-05 2.41664E-05 0.00000E+00
 -1       872 2.85798E-05 2.41542E-05 0.00000E+00
 -1       873 2.75401E-05 2.41416E-05 0.00000E+00
 -1       874 2.65204E-05 2.41288E-05-4.13590E-25
 -1       875 2.54935E-05 2.41153E-05-8.27181E-25
 -1       876 3.04793E-05 2.56610E-05 0.00000E+00
 -1       877 3.00549E-05 2.73691E-05 0.00000E+00
 -1       878 2.95576E-05 2.92699E-05-6.61744E-24
 -1       879 2.89997E-05 3.13351E-05 3.30872E-24
 -1       880 2.83907E-05 3.35356E-05 6.61744E-24
 -1       881 2.77416E-05 3.58434E-05 0.00000E+00
 -1       882 2.70626E-05 3.82304E-05 0.00000E+00
 -1       883 2.63642E-05 4.06687E-05 0.00000E+00
 -1       884 2.56570E-05 4.31306E-05 0.00000E+00
 -1       885 2.49512E-05 4.55885E-05 0.00000E+00
 -1       886 2.42574E-05 4.80145E-05 0.00000E+00
 -1       887 2.35858E-05 5.03809E-05 0.00000E+00
 -1       888 2.29471E-05 5.26598E-05 0.00000E+00
 -1       889 2.23506E-05 5.48227E-05 0.00000E+00
 -1       890 2.18086E-05 5.68419E-05-3.30872E-24
 -1       891 2.71139E-05 5.90513E-05 0.00000E+00
 -1       892 2.59758E-05 5.89777E-05-8.27181E-25
 -1       893 2.49680E-05 5.89042E-05-1.65436E-24
 -1       894 2.39502E-05 5.88309E-05-8.27181E-25
 -1       895 2.27817E-05 5.87573E-05 1.65436E-24
 -1       896 2.57057E-07 8.53571E-07 6.61744E-24
 -1       897 5.16448E-07 1.21071E-06 0.00000E+00
 -1       898 7.75782E-07 1.18848E-06-6.61744E-24
 -1       899 1.03546E-06 8.99847E-07 3.30872E-24
 -1       900 1.29508E-06 4.20094E-07 6.61744E-24
 -1       901 1.55472E-06-1.77570E-07 3.30872E-24
 -1       902 1.81433E-06-8.36624E-07-6.61744E-24
 -1       903 2.07393E-06-1.50120E-06-3.30872E-24
 -1       904 2.33355E-06-2.11623E-06 0.00000E+00
 -1       905 2.59316E-06-2.62611E-06 3.30872E-24
 -1       906 2.85279E-06-2.96033E-06 6.61744E-24
 -1       907 3.11215E-06-3.04651E-06 0.00000E+00
 -1       908 3.37142E-06-2.77713E-06 0.00000E+00
 -1       909 3.62880E-06-2.04089E-06 0.00000E+00
 -1       910 3.88606E-06-6.60441E-07 0.00000E+00
 -1       911 4.18694E-06 3.43645E-06 1.65436E-24
 -1       912 4.24293E-06 3.85954E-06 8.27181E-25
 -1       913 4.29875E-06 3.08946E-06-1.65436E-24
 -1       914 4.35357E-06 1.39517E-06 0.00000E+00
 -1       915 4.40709E-06-9.81775E-07 0.00000E+00
 -1       916 4.45953E-06-3.80134E-06 8.27181E-25
 -1       917 4.51136E-06-6.83657E-06 1.65436E-24
 -1       918 4.56322E-06-9.86113E-06 0.00000E+00
 -1       919 4.61572E-06-1.26482E-05-1.65436E-24
 -1       920 4.66930E-06-1.49706E-05 0.00000E+00
 -1       921 4.72414E-06-1.65872E-05 1.65436E-24
 -1       922 4.77975E-06-1.72554E-05-8.27181E-25
 -1       923 4.83531E-06-1.67044E-05 8.27181E-25
 -1       924 4.88761E-06-1.46607E-05 2.06795E-25
 -1       925 4.93515E-06-1.08069E-05-8.27181E-25
 -1       926 4.64754E-06 2.12188E-06-6.61744E-24
 -1       927 4.32478E-06 8.77817E-06 3.30872E-24
 -1       928 4.00668E-06 1.47274E-05 6.61744E-24
 -1       929 3.69304E-06 1.95583E-05 3.30872E-24
 -1       930 3.38472E-06 2.30274E-05 6.61744E-24
 -1       931 3.08021E-06 2.49080E-05 0.00000E+00
 -1       932 2.77733E-06 2.52125E-05 6.61744E-24
 -1       933 2.47368E-06 2.39725E-05-3.30872E-24
 -1       934 2.16777E-06 2.14520E-05 0.00000E+00
 -1       935 1.85888E-06 1.79305E-05 3.30872E-24
 -1       936 1.54793E-06 1.38384E-05 6.61744E-24
 -1       937 1.23620E-06 9.61288E-06 0.00000E+00
 -1       938 9.25664E-07 5.71112E-06-1.32349E-23
 -1       939 6.16564E-07 2.58647E-06-6.61744E-24
 -1       940 3.10538E-07 5.75243E-07 0.00000E+00
 -1       941 1.53231E-06 1.80049E-07-1.32349E-23
 -1       942 3.14892E-06 4.12156E-07 0.00000E+00
 -1       943 4.76028E-06 6.75245E-07 5.29396E-23
 -1       944 6.38760E-06 9.50420E-07 0.00000E+00
 -1       945 8.01542E-06 1.23283E-06 5.29396E-23
 -1       946 9.64643E-06 1.51813E-06 0.00000E+00
 -1       947 1.12778E-05 1.80536E-06 0.00000E+00
 -1       948 1.29097E-05 2.09368E-06 0.00000E+00
 -1       949 1.45417E-05 2.38354E-06 0.00000E+00
 -1       950 1.61733E-05 2.67550E-06 0.00000E+00
 -1       951 1.78045E-05 2.97257E-06 0.00000E+00
 -1       952 1.94333E-05 3.27811E-06 2.64698E-23
 -1       953 2.10616E-05 3.60541E-06-5.29396E-23
 -1       954 2.26769E-05 3.96924E-06-1.32349E-23
 -1       955 2.42965E-05 4.42696E-06 0.00000E+00
 -1       956 2.57612E-05 5.82780E-06 4.13590E-25
 -1       957 2.56733E-05 6.71578E-06 1.24077E-24
 -1       958 2.55850E-05 7.69663E-06-2.48154E-24
 -1       959 2.54964E-05 8.75986E-06 0.00000E+00
 -1       960 2.54078E-05 9.89502E-06 0.00000E+00
 -1       961 2.53190E-05 1.10915E-05-8.27181E-25
 -1       962 2.52302E-05 1.23387E-05 0.00000E+00
 -1       963 2.51413E-05 1.36261E-05-8.27181E-25
 -1       964 2.50524E-05 1.49430E-05 3.30872E-24
 -1       965 2.49635E-05 1.62789E-05 0.00000E+00
 -1       966 2.48746E-05 1.76232E-05 0.00000E+00
 -1       967 2.47857E-05 1.89652E-05 0.00000E+00
 -1       968 2.46968E-05 2.02943E-05 0.00000E+00
 -1       969 2.46081E-05 2.16001E-05-1.65436E-24
 -1       970 2.45197E-05 2.28719E-05 0.00000E+00
 -1       971 2.42447E-05 2.54214E-05 0.00000E+00
 -1       972 2.40511E-05 2.70136E-05-1.65436E-24
 -1       973 2.38572E-05 2.88434E-05 0.00000E+00
 -1       974 2.36621E-05 3.08772E-05 3.30872E-24
 -1       975 2.34666E-05 3.30812E-05 0.00000E+00
 -1       976 2.32706E-05 3.54211E-05 0.00000E+00
 -1       977 2.30743E-05 3.78626E-05 0.00000E+00
 -1       978 2.28779E-05 4.03710E-05 3.30872E-24
 -1       979 2.26814E-05 4.29117E-05 6.61744E-24
 -1       980 2.24849E-05 4.54498E-05 0.00000E+00
 -1       981 2.22886E-05 4.79506E-05 6.61744E-24
 -1       982 2.20926E-05 5.03793E-05 3.30872E-24
 -1       983 2.18970E-05 5.27014E-05 0.00000E+00
 -1       984 2.17029E-05 5.48825E-05-3.30872E-24
 -1       985 2.15089E-05 5.68884E-05 0.00000E+00
 -3
    1PSTEP                        28          14           1          
  100CL  114 6.94130E-01         841                     0   14           1
 -4  STRESS      6    1
 -5  SXX         1    4    1    1
 -5  SYY         1    4    2    2
 -5  SZZ         1    4    3    3
 -5  SXY         1    4    1    2
 -5  SYZ         1    4    2    3
 -5  SZX         1    4    3    1
 -1         1-2.74261E+06-8.87118E+05-5.57928E+05-8.20065E+05-3.88051E-11-2.23129E-09
 -1         2-1.53749E+06-4.92416E+04 1.48964E+04-1.30744E+05 9.74296E-11-1.44973E-09
 -1         3-1.08554E+06-3.69073E+05-3.87846E+04-9.56544E+04-3.74712E-10-4.09955E-09
 -1         4-5.24470E+05-9.68027E+04 7.68051E+02-5.00891E+04 4.35676E-10 3.81698E-09
 -1         5-2.59769E+05 1.52832E+05-1.29691E+05-1.06744E+04 5.40058E-09 4.44902E-09
 -1         8-1.29025E+06-5.06130E+05-1.69337E+05-5.33137E+05-2.31012E-10 5.67525E-09
 -1         9-1.50741E+06-3.32681E+05-1.76366E+05-4.00722E+05-7.97930E-10-1.30967E-09
 -1        10-5.78720E+05-3.77179E+05 2.70668E+04-1.10172E+05-7.83264E-10 4.88096E-11
 -1        11-5.01427E+05-1.48535E+05 7.45613E+02-1.11372E+05 1.19019E-09 4.16245E-10
 -1        12-3.16052E+05 1.22207E+05-1.45024E+05-5.75785E+04 6.32770E-09-1.02362E-09
 -1        15 4.39121E+04 3.73217E+04 1.58750E+04-2.51583E+04 1.31058E-09-3.51247E-09
 -1        16-1.08629E+06-2.35876E+05-2.49696E+04-4.42168E+05 1.14960E-09 2.22341E-09
 -1        17-6.04509E+05-3.98628E+05-7.39856E+04-3.04391E+05-1.14536E-09-1.04289E-10
 -1        18-1.57576E+05-1.16103E+05-7.70658E+04-1.42703E+05 2.12882E-09-9.87711E-10
 -1        19-6.37122E+04 7.64922E+04-5.99580E+04-5.62670E+04 7.87622E-10-3.66830E-10
 -1        20 1.03452E+05-7.53746E+04-1.19830E+04 5.43410E+04 1.28891E-08 2.13731E-10
 -1        21-9.81276E+02-1.55134E+05 3.47848E+04 8.43129E+02 1.38309E-08-2.30323E-09
 -1        22 2.87596E+04 1.44385E+05 8.94374E+02-2.18143E+04 1.68257E-11 1.63709E-11
 -1        23-8.35116E+04 1.90499E+04 1.48969E+04-1.53634E+05-3.96161E-09 1.49218E-09
 -1        24-1.90072E+05 4.47507E+03 2.24850E+05-4.05195E+05-4.54505E-09-8.36735E-10
 -1        25 5.02983E+05 1.90667E+05 1.62881E+05-2.65289E+05 1.38274E-09 7.26383E-10
 -1        26 4.79305E+03 1.81959E+05 1.03647E+04-3.53292E+04-6.33690E-10-4.79910E-10
 -1        27-4.31820E+04-6.53793E+04-2.82209E+04 7.14919E+04 7.85046E-09 2.48595E-11
 -1        28-1.37314E+04-1.19475E+05-7.47573E+02 5.69645E+04 7.02835E-09-1.06800E-09
 -1        29 3.56820E+05 2.47158E+05 1.05020E+03-1.08082E+04-2.09360E-10 1.72122E-09
 -1        30 9.40513E+04 3.65259E+04 1.44818E+03-6.43897E+04 2.47722E-09 3.94130E-09
 -1        31-3.83087E+05 4.63374E+04 5.93025E+03-4.52222E+04-7.57336E-09 9.09131E-09
 -1        32 7.09806E+05 4.22578E+05 4.86770E+05-4.01136E+05 5.24285E-09 3.71801E-09
 -1        33 1.13069E+06 5.17015E+05 3.62842E+05-5.18681E+04-1.02567E-08 1.97952E-09
 -1        34-2.09459E+05-3.20342E+04-1.19865E+04 3.49378E+04-3.36704E-09-1.41972E-09
 -1        35-3.24559E+04-3.92774E+04-7.51730E+02 8.41004E+04 1.08010E-08 2.62298E-09
 -1        36-3.46884E+06 1.00733E+05-2.35547E+05 5.88843E-08-7.43450E-10-5.64614E-09
 -1        37-3.57037E+06-1.16690E+05-1.66269E+05 3.17140E-07-1.61021E-09-7.48696E-09
 -1        38-3.50809E+06 1.56019E+04-6.09394E+04-2.11920E-08 6.29410E-12-2.12822E-09
 -1        39-3.52451E+06-1.80655E+04-3.81609E+04 2.29449E-07-6.54046E-10 1.93722E-09
 -1        40-3.51447E+06 2.41167E+03-1.56478E+04-3.23020E-08-9.29919E-10-1.53250E-09
 -1        41-3.51701E+06-2.82570E+03-9.30663E+03-1.13050E-07-5.30323E-10-5.30724E-09
 -1        42-3.51551E+06 4.07231E+02-4.57370E+03 9.03193E-08 2.23814E-10 4.93128E-09
 -1        43-3.51590E+06-7.20655E+02-3.63009E+03-3.70139E-07-2.19702E-09 4.53855E-09
 -1        44-3.51556E+06 3.12220E+02-3.68610E+03-8.72172E-08-1.38582E-09 3.27964E-09
 -1        45-3.51656E+06-2.00007E+03-6.74573E+03-4.43347E-07-2.23085E-10-8.47092E-09
 -1        46-3.51486E+06 1.68310E+03-1.10180E+04 1.51855E-07-5.19814E-10 4.43788E-09
 -1        47-3.52176E+06-1.25807E+04-2.66301E+04 2.13503E-07-2.12532E-09 1.48248E-09
 -1        48-3.51042E+06 1.08612E+04-4.24554E+04 4.54914E-08-3.88505E-10-3.56340E-09
 -1        49-3.55368E+06-8.12319E+04-1.15762E+05-1.55809E-07-2.99050E-09-1.09867E-09
 -1        50-3.48312E+06 7.01181E+04-1.64028E+05-2.18502E-07-2.48115E-09-2.86673E-09
 -1        51 3.24056E+04-3.59642E+05 5.29846E+04-9.78970E+05-7.27596E-11-1.60071E-10
 -1        52 1.49227E+04-3.55564E+05 3.17696E+04-1.08181E+06-3.27418E-10 6.65750E-09
 -1        53 9.62149E+03-3.66612E+05 2.46526E+04-9.76304E+05-8.73115E-11 5.35510E-09
 -1        54 2.16977E+04-3.63595E+05 3.64475E+04-1.08462E+06-9.31323E-10-2.61571E-09
 -1        55 4.79797E+04-3.75492E+05 6.51190E+04-9.75795E+05-2.32831E-10-3.04135E-09
 -1        56-4.40379E+06-4.96737E+05-3.61295E+05-1.70260E+06 7.42148E-10 3.36149E-09
 -1        57-4.56603E+06-7.99144E+05-2.42498E+05-1.66894E+06-7.17591E-10 1.93540E-09
 -1        58-4.47425E+06-6.10676E+05-8.50205E+04-1.68248E+06 1.15688E-09-5.57338E-09
 -1        59-4.48499E+06-6.64467E+05-5.04105E+04-1.69249E+06 2.75213E-09 3.44244E-09
 -1        60-4.48373E+06-6.26886E+05-1.98573E+04-1.68055E+06 1.71485E-09-2.24554E-09
 -1        61-4.47527E+06-6.44134E+05-1.12373E+04-1.69322E+06-3.24519E-09-5.07839E-09
 -1        62-4.48373E+06-6.30446E+05-5.49315E+03-1.68189E+06-1.62345E-09 2.47258E-09
 -1        63-4.47727E+06-6.38449E+05-4.60894E+03-1.68950E+06-1.79625E-09 2.08593E-09
 -1        64-4.48168E+06-6.32528E+05-5.41164E+03-1.68426E+06 1.19769E-09 1.01204E-09
 -1        65-4.48302E+06-6.36217E+05-1.09770E+04-1.68422E+06 9.22796E-10 3.81533E-10
 -1        66-4.47801E+06-6.32744E+05-1.93849E+04-1.68716E+06 3.12355E-09-7.59974E-09
 -1        67-4.49865E+06-6.49878E+05-4.91557E+04-1.67647E+06 5.36068E-09-6.93035E-09
 -1        68-4.46627E+06-6.19419E+05-8.29191E+04-1.69187E+06 2.34832E-09 3.11047E-09
 -1        69-4.58100E+06-7.77915E+05-2.36470E+05-1.64978E+06 1.45519E-11 3.31056E-09
 -1        70-4.39675E+06-5.09102E+05-3.52333E+05-1.71239E+06-2.31375E-09 2.29920E-09
 -1        71-2.17014E+06 1.94475E+04-4.55441E+04 6.03489E-08-1.08804E-09-1.82990E-09
 -1        72-2.18961E+06-2.25327E+04-3.21331E+04-2.21876E-07-1.40689E-09-3.31966E-11
 -1        73-2.17772E+06 3.01283E+03-1.17964E+04-6.03417E-08-2.18412E-10 3.21143E-09
 -1        74-2.18076E+06-3.49049E+03-7.40505E+03 2.27139E-08-1.83891E-09 4.99438E-09
 -1        75-2.17895E+06 4.67447E+02-3.07892E+03 6.50734E-08-1.40565E-09 2.96905E-09
 -1        76-2.17932E+06-5.59160E+02-1.91031E+03-1.11410E-07-5.59481E-10 7.51962E-09
 -1        77-2.17915E+06 9.03803E+01-1.09146E+03-2.21367E-09 2.17112E-10-1.53082E-09
 -1        78-2.17915E+06-2.28623E+02-1.15473E+03-1.09824E-07 9.75247E-10 5.27893E-09
 -1        79-2.17912E+06 1.37860E+02-1.53610E+03 2.53572E-09 1.52955E-09-2.02675E-09
 -1        80-2.17954E+06-9.71771E+02-3.19250E+03 1.48669E-07 1.34970E-09 4.29173E-09
 -1        81-2.17876E+06 8.31544E+02-5.39702E+03-7.66811E-08-6.88634E-10 5.27507E-10
 -1        82-2.18213E+06-6.23138E+03-1.31747E+04-2.23032E-08-9.06373E-11 2.67391E-09
 -1        83-2.17655E+06 5.38165E+03-2.10468E+04 3.40629E-09-1.14674E-09 4.81305E-09
 -1        84-2.19794E+06-4.02515E+04-5.73889E+04-9.51194E-08 2.65146E-10 8.19273E-09
 -1        85-2.16300E+06 3.47419E+04-8.13418E+04-4.03231E-08-1.55596E-09 7.85803E-10
 -1        86-8.06792E+04 4.01945E+05 1.92400E+05 4.86736E+03 1.94268E-09 1.65051E-09
 -1        87 1.01502E+05 4.88814E+05 1.50251E+05-2.27202E+04 3.36513E-09 8.10758E-10
 -1        88-2.04549E+04 4.30159E+05 7.91477E+04 3.34536E+03 3.42789E-09 8.56537E-09
 -1        89 7.53622E+04 4.76029E+05 1.15838E+05-2.11884E+04 5.10045E-09-1.93649E-09
 -1        90-5.45932E+04 4.14653E+05 1.33314E+05 3.33616E+03 3.13594E-09-6.96986E-10
 -1        91-1.39935E+06-1.80496E+05-8.55257E+03-4.61494E+05-2.64026E-08 1.29785E-09
 -1        92-9.94383E+05-2.46412E+05 4.53673E+04-5.62523E+05-2.11221E-08 5.02678E-09
 -1        93-1.34032E+06-1.00708E+05 1.12395E+03-3.76750E+05 1.04765E-08 4.86637E-09
 -1        94-1.06388E+06-3.22291E+05 8.96611E+03-6.53622E+05-1.66455E-08-5.59652E-09
 -1        95-1.33847E+06-9.80638E+04-2.07778E+03-3.76394E+05-1.98474E-08 1.57343E-09
 -1        96-1.00584E+06-2.65948E+05 2.86160E+04-5.61230E+05 1.61867E-08 1.15433E-08
 -1        97-1.38994E+06-1.63520E+05-2.65700E+04-4.63257E+05-4.94765E-09 1.40308E-08
 -1        98-1.01224E+06-1.36983E+05 5.12498E+04-3.87393E+05-2.87400E-09-3.23053E-09
 -1        99-1.32379E+06-2.33263E+05-2.77718E+04-5.43540E+05 1.77897E-09-6.38465E-10
 -1       100-1.23207E+06-3.32339E+04 2.85882E+04-2.92558E+05-3.91383E-08-1.37879E-08
 -1       101-1.17827E+06-2.61036E+05-5.36242E+03-5.63956E+05 4.37467E-09 1.18598E-09
 -1       102-1.39271E+06 8.02397E+02 2.01626E+03-2.78911E+05 3.04065E-08 2.43690E-08
 -1       103-1.17144E+06-2.61083E+05-9.39215E+03-5.64159E+05-4.20864E-08 2.63833E-09
 -1       104-1.25144E+06-3.36752E+04 1.08020E+04-2.89337E+05-4.67592E-08 2.60020E-08
 -1       105-1.31208E+06-2.32170E+05-5.57128E+04-5.47221E+05-3.38350E-08-6.49379E-10
 -1       106-1.11550E+06-5.60506E+03 1.31318E+04-2.22650E-09-9.30027E-10-5.54246E-09
 -1       107-1.10973E+06 6.49434E+03 9.25788E+03-8.14865E-08-9.05816E-10-8.39009E-10
 -1       108-1.11331E+06-8.68056E+02 3.38662E+03-6.97328E-08 8.74434E-11-5.32668E-09
 -1       109-1.11228E+06 1.00344E+03 2.10067E+03-4.12885E-08 1.60410E-10-2.65834E-09
 -1       110-1.11295E+06-1.32403E+02 8.19823E+02 5.06859E-08-3.00444E-10-1.77891E-09
 -1       111-1.11270E+06 1.43082E+02 4.04252E+02-5.29546E-08 4.02529E-10 7.20135E-11
 -1       112-1.11288E+06-1.03011E+01 3.84236E+01 2.40389E-09 5.21772E-10 1.93381E-09
 -1       113-1.11281E+06-5.41241E+01-2.73956E+02-9.65681E-08-8.05601E-10 2.28321E-09
 -1       114-1.11284E+06 6.43354E+01-6.61812E+02 2.25196E-08-5.52402E-10-4.74952E-09
 -1       115-1.11306E+06-5.05505E+02-1.61421E+03 3.64434E-08 3.50883E-10-4.65434E-10
 -1       116-1.11264E+06 4.39916E+02-2.82942E+03 8.54515E-08 2.03594E-10-3.33694E-09
 -1       117-1.11443E+06-3.30491E+03-6.97727E+03 1.34098E-08-1.05802E-09-7.11816E-09
 -1       118-1.11147E+06 2.85526E+03-1.11688E+04 6.15569E-08-1.26170E-09-2.41289E-09
 -1       119-1.12282E+06-2.13569E+04-3.04596E+04 1.42692E-07 4.78271E-10-3.84398E-09
 -1       120-1.10427E+06 1.84331E+04-4.31788E+04 1.94232E-08 5.19999E-10-1.82445E-09
 -1       121-2.82713E+03-1.13776E+06 1.12628E+04 6.22609E+03-7.90351E-10 1.42336E-10
 -1       122 3.56043E+03-1.13343E+06 6.85757E+03 2.65695E+04-6.07656E-10 4.02520E-09
 -1       123-2.52439E+02-1.13593E+06 1.93464E+03 6.58068E+03-2.49179E-09-3.30874E-09
 -1       124-9.39771E+02-1.13591E+06-8.56510E+02 2.57166E+04-1.77477E-09-8.54789E-09
 -1       125 8.05004E+02-1.13513E+06-3.26980E+03 7.07830E+03-4.81697E-09 1.65164E-09
 -1       126-1.07104E+06-1.49003E+05 3.51476E+03-3.96681E+05 2.33263E-09-2.93551E-09
 -1       127-1.05419E+06-1.57685E+05 2.87363E+03-4.11156E+05 6.02489E-09 1.14051E-09
 -1       128-1.07327E+06-1.43646E+05 8.32518E+02-3.92310E+05 2.68051E-09-9.96749E-11
 -1       129-1.05188E+06-1.63636E+05 5.78766E+02-4.16049E+05-2.30796E-09-5.76350E-09
 -1       130-1.07343E+06-1.42999E+05 1.62886E+02-3.91842E+05 1.03228E-10 1.79415E-09
 -1       131-1.05416E+06-1.61022E+05 2.31445E+02-4.12549E+05 5.14706E-09 9.45272E-09
 -1       132-1.07094E+06-1.46300E+05-2.74332E+02-3.95770E+05 3.46529E-09 3.32705E-10
 -1       133-1.06153E+06-1.52592E+05 1.24955E+02-4.02484E+05-1.71042E-09-3.98364E-09
 -1       134-1.06598E+06-1.51495E+05-8.34834E+02-4.01842E+05 1.41051E-09 1.04552E-09
 -1       135-1.07201E+06-1.43326E+05-1.13302E+03-3.91350E+05 6.65614E-09 2.43122E-09
 -1       136-1.06048E+06-1.55544E+05-2.65486E+03-4.06928E+05-2.19956E-09 6.41489E-09
 -1       137-1.08126E+06-1.40254E+05-6.79310E+03-3.84125E+05-2.00505E-08 9.32118E-10
 -1       138-1.05683E+06-1.54504E+05-1.10449E+04-4.09138E+05-2.34422E-09-7.36236E-10
 -1       139-1.09182E+06-1.60113E+05-3.25433E+04-3.80940E+05 9.61109E-09 6.54836E-10
 -1       140-1.04994E+06-1.35745E+05-4.73207E+04-4.10093E+05-1.10958E-10 1.54250E-09
 -1       141-4.93216E+05-5.07563E+03 1.18913E+04 1.90388E-07 5.28313E-10 4.18413E-09
 -1       142-4.88036E+05 5.88061E+03 8.37917E+03 1.72091E-07 5.51934E-10 1.78716E-10
 -1       143-4.91233E+05-7.85814E+02 3.05513E+03-8.08456E-09 9.49200E-11-8.40487E-10
 -1       144-4.90348E+05 9.06586E+02 1.87516E+03 1.37058E-07 2.98204E-10-2.10207E-09
 -1       145-4.90907E+05-1.18068E+02 6.88823E+02-6.62058E-08-1.15924E-10-2.61883E-09
 -1       146-4.90742E+05 1.15393E+02 2.50739E+02-1.38365E-07 2.20312E-11-4.49427E-09
 -1       147-4.90840E+05 3.01349E+00-1.82514E+02-5.77246E-08-3.24631E-10 2.85760E-09
 -1       148-4.90891E+05-1.43062E+02-7.25021E+02 2.37609E-08-4.15542E-10 5.61378E-09
 -1       149-4.90759E+05 1.39809E+02-1.46732E+03 2.94627E-10-6.01986E-10 1.60122E-09
 -1       150-4.91390E+05-1.07335E+03-3.45191E+03-9.98310E-08-4.28918E-11 3.21990E-09
 -1       151-4.90342E+05 9.30897E+02-6.00518E+03-1.03421E-07-9.24560E-11 3.90514E-09
 -1       152-4.94298E+05-6.98966E+03-1.47721E+04 7.12507E-08 2.04688E-10 5.56429E-09
 -1       153-4.87854E+05 6.03832E+03-2.36351E+04-4.12560E-08 1.57693E-09-7.87622E-10
 -1       154-5.12029E+05-4.51643E+04-6.44313E+04-3.66506E-08 6.03810E-10-4.51109E-09
 -1       155-4.72615E+05 3.89824E+04-9.13116E+04-6.87376E-08 3.27364E-09-1.12414E-09
 -1       156-1.57247E+04-2.25101E+05 3.79457E+04-3.83840E+03-1.85537E-10-2.49665E-09
 -1       157 2.07080E+04-2.07789E+05 3.12817E+04 1.66915E+04-4.50200E-10-2.49052E-09
 -1       158-4.91131E+03-2.20191E+05 1.90127E+04-3.78643E+03-3.69710E-10 2.27601E-10
 -1       159 2.17905E+04-2.06826E+05 3.27694E+04 1.60426E+04 8.21956E-10-1.42107E-09
 -1       160-1.68350E+04-2.26020E+05 4.02563E+04-3.18938E+03 7.47605E-10 7.89214E-10
 -1       161-5.84696E+05-8.06356E+04-3.56702E+03-2.19592E+05-2.29818E-10 5.26347E-09
 -1       162-5.85613E+05-8.47690E+04-2.47387E+03-2.19992E+05-7.93449E-10 9.28679E-10
 -1       163-5.85501E+05-8.18224E+04-8.49963E+02-2.19258E+05 6.46963E-10-7.15886E-10
 -1       164-5.84714E+05-8.33621E+04-5.52432E+02-2.20338E+05-9.16849E-11 1.19652E-09
 -1       165-5.85594E+05-8.20385E+04-2.58773E+02-2.19248E+05 7.36833E-10 3.91675E-09
 -1       166-5.84730E+05-8.30202E+04-2.61015E+02-2.20218E+05 1.22590E-10 2.26527E-09
 -1       167-5.85484E+05-8.21639E+04-3.31426E+02-2.19378E+05-3.82675E-10 1.28821E-10
 -1       168-5.85098E+05-8.28487E+04-7.06332E+02-2.19868E+05-3.12362E-10 4.58631E-09
 -1       169-5.85226E+05-8.22104E+04-1.26434E+03-2.19598E+05-1.10390E-10 2.17636E-09
 -1       170-5.86080E+05-8.34793E+04-3.14508E+03-2.19284E+05-2.73189E-10-6.48015E-11
 -1       171-5.84504E+05-8.15358E+04-5.45793E+03-2.19961E+05 1.83377E-10-8.35826E-10
 -1       172-5.90236E+05-8.95976E+04-1.46468E+04-2.17747E+05-4.99142E-10-1.22964E-09
 -1       173-5.81077E+05-7.61085E+04-2.35552E+04-2.21131E+05 1.38743E-09 2.15095E-09
 -1       174-6.14192E+05-1.30905E+05-6.95824E+04-2.09742E+05 7.02539E-09 1.72804E-09
 -1       175-5.60572E+05-4.03372E+04-1.00462E+05-2.27929E+05 1.19016E-08-7.22503E-09
 -1       191 2.06406E+03 5.72184E+05 3.43113E+03-2.00090E+04-1.00044E-10 1.11140E-09
 -1       192 7.31978E+02 5.72703E+05 2.05237E+03-2.16202E+04-9.97602E-10-9.92441E-09
 -1       193 3.18932E+02 5.72339E+05 1.64209E+03-1.97340E+04-6.49152E-11-3.00497E-09
 -1       194 9.71861E+02 5.72750E+05 2.47638E+03-2.21243E+04-2.12867E-09 1.27966E-09
 -1       195 2.79826E+03 5.72050E+05 4.48584E+03-1.95011E+04 2.72848E-11 1.50612E-09
 -1       251-1.69978E+06 1.21362E+04-7.95936E+04-5.95357E+04-7.33053E-10-5.09317E-11
 -1       252-1.55010E+06-1.31051E+04-2.18409E+04 1.81758E+05 7.72161E-10 8.78799E-09
 -1       253-1.62745E+06 3.89666E+02-1.67777E+04-1.22584E+05-3.19233E-10 1.58616E-09
 -1       254-1.61659E+06 8.04343E+03-5.05723E+03 2.37587E+05 6.92506E-09 1.05729E-08
 -1       255-1.64068E+06-2.93225E+03-7.74118E+03-1.15661E+05-3.29919E-09-2.58001E-09
 -1       256-1.51287E+06 8.52999E+03 2.07802E+04 1.57374E+05-1.16220E-08 5.56429E-09
 -1       257-1.72114E+06-8.21736E+03-2.23938E+04-4.20193E+04 1.73532E-09-2.46303E-09
 -1       258-1.43570E+06 7.02215E+03 3.62351E+04-1.64492E+04 5.40467E-09-3.45472E-09
 -1       259-1.71030E+06-7.54314E+03-2.00292E+04 5.78892E+04-2.54568E-09-2.38560E-09
 -1       260-1.53710E+06 9.05169E+03 1.63264E+04-1.80322E+05 1.72822E-08-1.09828E-08
 -1       261-1.62966E+06-2.19433E+03-5.28870E+03 1.21722E+05 2.36787E-08 5.53882E-09
 -1       262-1.61676E+06 8.00047E+03-4.99984E+03-2.38114E+05-7.14113E-09-6.10180E-09
 -1       263-1.63832E+06-2.81243E+02-1.89482E+04 1.15981E+05 2.99860E-09 2.32103E-09
 -1       264-1.52554E+06-1.34110E+04-1.68682E+04-1.59690E+05 5.09935E-08-2.26737E-09
 -1       265-1.71108E+06 1.11797E+04-8.13190E+04 4.29496E+04 1.40280E-08 8.66203E-09
 -1       266-2.86534E+04-2.02103E+05 6.70025E+04-1.20184E+04 1.45519E-11 1.08779E-08
 -1       267 3.17720E+04-1.71518E+05 4.54503E+04 5.55310E+04 6.45741E-11-3.39921E-09
 -1       268-3.24613E+03-1.91789E+05 1.27827E+04-1.13375E+04-3.27418E-11-4.12422E-09
 -1       269-3.25572E+03-1.80531E+05 4.80916E+02 5.24916E+04 2.45564E-11 3.22052E-09
 -1       270 5.75752E+03-1.92411E+05-1.46868E+04-8.98852E+03 1.48248E-10 1.00506E-08
 -1       271-3.79675E+06-4.74870E+05-2.99115E+05-1.47245E+06-1.25510E-09 4.78758E-09
 -1       272-3.90388E+06-6.77350E+05-1.90080E+05-1.47057E+06-8.45375E-10 3.77986E-09
 -1       273-3.85122E+06-5.44204E+05-7.05624E+04-1.46148E+06 1.07207E-10-5.03860E-09
 -1       274-3.84004E+06-5.89811E+05-3.90246E+04-1.48864E+06 1.36060E-09 4.46380E-09
 -1       275-3.85894E+06-5.50447E+05-1.64199E+04-1.45894E+06-2.43745E-10 6.48470E-10
 -1       276-3.83066E+06-5.82392E+05-8.73505E+03-1.49286E+06 1.66074E-09-1.97065E-09
 -1       277-3.86065E+06-5.50333E+05-4.47249E+03-1.45784E+06-5.62522E-10 2.81784E-09
 -1       278-3.82882E+06-5.82582E+05-3.54700E+03-1.49437E+06 1.10140E-09-1.39539E-09
 -1       279-3.86091E+06-5.50080E+05-4.26306E+03-1.45756E+06-1.94788E-10-1.63254E-10
 -1       280-3.82974E+06-5.83250E+05-8.17889E+03-1.49403E+06 1.62731E-09-2.22281E-09
 -1       281-3.85973E+06-5.49758E+05-1.52644E+04-1.45813E+06 1.76624E-09-1.91267E-09
 -1       282-3.83780E+06-5.90849E+05-3.62869E+04-1.49097E+06-5.46947E-10-1.73804E-09
 -1       283-3.85287E+06-5.43636E+05-6.55548E+04-1.46014E+06 3.30556E-09 1.71349E-09
 -1       284-3.89658E+06-6.72746E+05-1.76649E+05-1.47480E+06 2.25918E-09-3.25963E-09
 -1       285-3.80249E+06-4.78984E+05-2.77963E+05-1.47008E+06 3.99450E-09 2.34286E-09
 -1       286-6.65780E+05-1.14511E+04 2.67399E+04-1.61307E+03 1.82877E-09 4.85488E-09
 -1       287-6.53575E+05 1.32588E+04 1.89719E+04-3.54365E+02 6.88303E-10 3.14117E-09
 -1       288-6.61326E+05-1.78343E+03 6.89716E+03 1.70723E+02-3.54760E-10 8.92214E-10
 -1       289-6.58853E+05 2.05778E+03 4.41393E+03-3.74360E+03 2.16517E-10-2.64117E-09
 -1       290-6.60518E+05-2.81529E+02 1.77949E+03 1.77623E+03 5.93019E-10 1.09355E-09
 -1       291-6.59893E+05 3.36941E+02 1.13014E+03-6.36316E+03 2.01912E-09 1.28858E-09
 -1       292-6.60307E+05-5.40062E+01 6.00639E+02 2.79032E+03 1.23599E-09 4.11301E-09
 -1       293-6.60126E+05 1.32521E+02 5.97896E+02-7.54536E+03 2.32836E-10 7.96466E-09
 -1       294-6.60297E+05-6.87691E+01 7.49903E+02 2.95847E+03 1.41318E-09 4.38453E-09
 -1       295-6.59884E+05 4.73562E+02 1.53708E+03-6.99360E+03 6.18790E-10 3.34111E-09
 -1       296-6.60543E+05-3.98491E+02 2.54452E+03 2.23854E+03 1.16628E-09 2.93085E-10
 -1       297-6.58474E+05 2.95236E+03 6.28363E+03-4.84720E+03 1.17859E-09-5.39649E-09
 -1       298-6.61686E+05-2.55356E+03 9.91964E+03 8.12027E+02 5.55076E-10 8.45375E-10
 -1       299-6.50868E+05 1.90300E+04 2.72031E+04-1.66008E+03-8.90694E-10 1.77897E-09
 -1       300-6.68124E+05-1.64324E+04 3.84117E+04-9.48659E+02-1.04899E-09 7.49424E-10
 -1       301 5.10713E+04 2.76694E+04 1.09405E+05-2.88443E+04-2.88492E-09 4.33408E-09
 -1       302 1.72648E+04 4.79349E+04 6.61579E+04-3.37744E+04 0.00000E+00-4.33089E-09
 -1       303 4.98874E+03 3.48957E+04 5.18860E+04-2.89296E+04-3.02725E-09-2.72621E-10
 -1       304 2.09864E+04 5.00614E+04 7.58943E+04-3.37464E+04-2.76486E-10-1.96269E-09
 -1       305 6.31905E+04 2.55593E+04 1.33081E+05-2.88417E+04-3.00497E-09 2.71689E-09
 -1       306-2.67652E+06-3.42194E+05-1.85460E+05-1.03678E+06-1.72986E-09 3.09956E-09
 -1       307-2.72838E+06-4.81665E+05-1.17755E+05-1.05191E+06-1.68870E-09 8.14362E-09
 -1       308-2.71048E+06-3.84829E+05-4.37790E+04-1.02980E+06-2.65209E-09 2.99406E-09
 -1       309-2.68882E+06-4.27691E+05-2.42035E+04-1.06348E+06-2.60820E-09-2.36878E-09
 -1       310-2.71533E+06-3.88612E+05-1.02161E+04-1.02820E+06 1.11095E-09 3.77577E-09
 -1       311-2.68314E+06-4.23052E+05-5.47487E+03-1.06612E+06 1.22077E-09 1.71485E-09
 -1       312-2.71632E+06-3.88602E+05-2.88920E+03-1.02760E+06-3.27418E-10 5.41377E-10
 -1       313-2.68226E+06-4.22945E+05-2.45523E+03-1.06679E+06 8.21899E-10 3.97108E-10
 -1       314-2.71630E+06-3.88608E+05-3.16019E+03-1.02762E+06-1.91892E-09 2.25305E-09
 -1       315-2.68329E+06-4.23111E+05-6.22812E+03-1.06605E+06 2.37628E-09 5.25620E-09
 -1       316-2.71520E+06-3.88562E+05-1.17319E+04-1.02825E+06 1.44291E-09 4.91673E-09
 -1       317-2.68970E+06-4.28632E+05-2.78801E+04-1.06323E+06 1.98202E-09 2.85581E-09
 -1       318-2.70974E+06-3.84062E+05-5.04337E+04-1.02995E+06 2.74440E-10 5.59885E-09
 -1       319-2.73501E+06-4.91171E+05-1.35712E+05-1.05031E+06-1.57945E-09-8.84029E-10
 -1       320-2.67081E+06-3.34686E+05-2.13682E+05-1.03775E+06 7.71252E-10 2.99769E-09
 -1       321-5.20531E+05-2.20979E+04 5.17255E+04-5.01014E+02-1.34844E-09 1.97542E-09
 -1       322-4.97724E+05 2.55956E+04 3.65567E+04-2.29110E+03-2.35731E-09-1.74987E-09
 -1       323-5.11872E+05-3.42714E+03 1.33718E+04 6.08604E+02-5.47374E-10 2.46564E-09
 -1       324-5.07880E+05 3.96289E+03 8.40960E+03-4.27533E+03 3.35731E-10-2.36298E-09
 -1       325-5.10400E+05-5.30134E+02 3.41240E+03 1.48332E+03 4.19732E-10 2.31034E-09
 -1       326-5.09644E+05 6.17917E+02 2.00727E+03-5.59595E+03 2.12594E-11-4.25700E-10
 -1       327-5.10122E+05-8.39470E+01 9.12149E+02 1.92924E+03-1.29418E-09-1.48447E-09
 -1       328-5.09950E+05 1.21875E+02 5.89621E+02-5.97117E+03-3.21988E-10 5.28075E-11
 -1       329-5.10099E+05-3.25523E+01 4.24940E+02 1.85855E+03-5.55644E-11-2.09401E-09
 -1       330-5.09861E+05 1.67721E+02 6.12906E+02-5.32616E+03-6.87400E-10-1.23059E-10
 -1       331-5.10204E+05-1.34477E+02 8.78755E+02 1.28421E+03 5.44446E-10 3.64849E-09
 -1       332-5.09338E+05 9.77809E+02 2.12420E+03-3.78701E+03 1.20734E-09 5.06105E-10
 -1       333-5.10609E+05-8.49071E+02 3.28020E+03 3.19384E+02 3.87814E-10-9.09040E-10
 -1       334-5.06778E+05 6.30413E+03 9.04039E+03-1.66002E+03 1.29826E-09 4.88592E-09
 -1       335-5.12753E+05-5.44948E+03 1.26968E+04-8.42806E+02-2.30983E-09 3.35058E-09
 -1       336 1.05647E+03-1.13540E+06-6.07657E+03-6.01445E+03-6.40432E-09-1.23873E-09
 -1       337-2.59627E+03-1.13793E+06-8.72092E+03-3.41618E+04-4.27620E-09-2.74576E-09
 -1       338 1.31144E+03-1.13517E+06-1.26562E+04-5.78867E+03-7.12726E-09 1.07093E-09
 -1       339-1.48471E+04-1.14513E+06-2.99499E+04-3.44166E+04-5.19640E-09-6.81666E-10
 -1       340 1.12624E+04-1.12828E+06-4.59407E+04-5.76416E+03-6.98492E-09 2.68579E-09
 -1       341-1.25578E+06-2.00968E+05-3.87657E+04-5.10495E+05-1.86265E-09-3.27600E-09
 -1       342-1.27636E+06-9.51462E+04-6.37426E+03-3.58159E+05-2.02090E-09-4.03543E-09
 -1       343-1.18948E+06-2.28714E+05-7.44844E+03-5.28122E+05-1.31381E-08-3.10531E-08
 -1       344-1.34028E+06-6.49157E+04-1.44093E+03-3.43974E+05 1.29385E-08-5.35033E-09
 -1       345-1.19495E+06-2.28841E+05-3.32284E+03-5.27225E+05 9.87711E-10 4.32010E-11
 -1       346-1.25819E+06-9.04628E+04 1.16789E+04-3.63494E+05 2.86000E-08 1.45357E-08
 -1       347-1.26794E+06-2.05894E+05-1.24730E+04-5.05644E+05 1.27920E-08 3.56272E-09
 -1       348-1.14027E+06-1.60513E+05 2.07011E+04-4.33707E+05-2.74008E-09-1.54080E-09
 -1       349-1.30953E+06-1.61331E+05-1.28929E+04-4.54562E+05 2.63572E-09 3.47995E-09
 -1       350-1.11444E+06-2.41587E+05 7.63497E+03-5.36030E+05-8.41910E-08-2.68292E-08
 -1       351-1.29737E+06-1.22110E+05-8.20344E+03-4.06170E+05-2.63894E-08-7.89441E-10
 -1       352-1.13347E+06-2.84089E+05-1.61416E+04-5.84678E+05 1.02271E-07-1.35842E-08
 -1       353-1.29397E+06-1.16219E+05-3.16118E+04-4.08402E+05 2.25818E-08-1.55105E-08
 -1       354-1.14750E+06-2.96526E+05-7.52892E+04-5.21775E+05-6.59877E-08 9.99535E-10
 -1       355-1.27975E+06-1.12591E+05-1.40276E+05-4.66403E+05-1.78388E-08 3.81988E-09
 -1       356-5.82880E+05-2.74010E+03 6.38136E+03-1.64749E+03 2.67278E-10-2.16551E-09
 -1       357-5.79871E+05 3.17216E+03 4.52952E+03 8.87032E+02-2.90657E-09-2.48122E-09
 -1       358-5.81838E+05-4.28508E+02 1.61353E+03-7.00855E+02-1.73776E-09-1.66006E-09
 -1       359-5.81099E+05 4.87619E+02 1.01219E+03-1.05619E+03 9.15065E-10-6.12897E-09
 -1       360-5.81652E+05-6.56175E+01 3.04352E+02 2.95761E+02-6.24709E-11-3.21796E-09
 -1       361-5.81369E+05 4.99112E+01 4.64297E+01-2.87734E+03-8.05045E-11-4.57458E-09
 -1       362-5.81574E+05 1.14744E+01-3.10656E+02 1.12031E+03-1.59716E-09-3.93896E-10
 -1       363-5.81568E+05-1.62607E+02-8.32865E+02-4.17081E+03 7.35874E-10 7.12816E-11
 -1       364-5.81460E+05 1.51751E+02-1.60885E+03 1.58926E+03 1.68072E-09-2.74326E-09
 -1       365-5.82136E+05-1.15435E+03-3.73427E+03-4.65034E+03-2.73161E-09-6.53387E-09
 -1       366-5.81010E+05 1.00323E+03-6.48013E+03 1.59985E+03 1.00812E-09 6.87805E-09
 -1       367-5.85237E+05-7.53129E+03-1.59203E+04-4.20918E+03 2.30993E-09 3.31738E-09
 -1       368-5.78360E+05 6.50718E+03-2.54864E+04 1.14807E+03 1.20670E-09-8.20364E-10
 -1       369-6.04277E+05-4.86824E+04-6.94366E+04-2.92241E+03 9.73088E-11 1.27329E-09
 -1       370-5.61970E+05 4.20166E+04-9.84495E+04 3.13108E+02 3.51113E-09-2.31375E-09
 -1       371-1.51362E+04-2.53074E+05 3.45226E+04 2.52314E+03 2.32467E-09 1.04914E-09
 -1       372 1.55115E+04-2.38791E+05 2.05802E+04-8.30613E+03 2.46700E-09-2.13447E-09
 -1       373-3.07656E+02-2.46208E+05 1.15421E+03 2.40102E+03 2.22553E-09 7.40528E-10
 -1       374-1.28499E+04-2.51785E+05-1.66240E+04-7.70988E+03 1.73168E-09-3.19824E-09
 -1       375 1.31185E+04-2.40069E+05-2.97709E+04 1.92673E+03 1.50794E-09-1.75470E-09
 -1       376-9.82362E+05-1.26492E+05-4.04243E+04-3.80589E+05 2.37560E-09-1.93722E-09
 -1       377-1.01300E+06-1.53680E+05-2.79814E+04-3.62747E+05 1.13969E-08-4.75848E-09
 -1       378-9.90591E+05-1.40881E+05-9.49373E+03-3.77866E+05 2.10707E-09 1.74668E-09
 -1       379-1.00174E+06-1.38494E+05-5.88099E+03-3.67541E+05 1.17690E-09 1.35060E-10
 -1       380-9.93584E+05-1.41641E+05-2.31662E+03-3.75795E+05-1.33839E-09 3.46267E-09
 -1       381-9.96181E+05-1.39710E+05-1.34619E+03-3.72270E+05-1.94522E-09-6.58616E-10
 -1       382-9.96132E+05-1.39673E+05-9.06961E+02-3.73125E+05 6.00267E-10-2.00302E-09
 -1       383-9.91857E+05-1.43816E+05-1.02538E+03-3.77279E+05 1.01127E-09 1.03080E-09
 -1       384-9.97916E+05-1.37529E+05-1.64884E+03-3.70792E+05 2.50168E-10 1.08912E-10
 -1       385-9.90069E+05-1.47765E+05-3.83631E+03-3.80358E+05 7.21201E-10 2.41926E-10
 -1       386-9.97942E+05-1.35712E+05-6.60943E+03-3.70062E+05 5.84919E-10 2.01635E-09
 -1       387-9.94740E+05-1.55474E+05-1.76818E+04-3.78875E+05-3.64258E-09-2.74599E-09
 -1       388-9.93256E+05-1.29840E+05-2.84757E+04-3.72270E+05 1.51203E-09-2.07365E-10
 -1       389-1.02607E+06-2.02683E+05-8.39768E+04-3.66067E+05 7.13408E-09-3.76167E-09
 -1       390-9.66642E+05-8.86526E+04-1.21412E+05-3.82816E+05 1.29912E-08-1.94996E-09
 -1       406 2.26559E+03 5.62222E+05 4.36292E+03-6.84452E+04 4.54747E-11-1.55251E-09
 -1       407 1.23744E+03 5.62959E+05 4.39241E+03-7.55282E+04-3.88900E-09-3.83989E-09
 -1       408 1.56251E+03 5.62167E+05 6.48177E+03-6.82415E+04 1.23691E-10-2.61844E-09
 -1       409 6.04613E+03 5.64593E+05 1.34442E+04-7.57793E+04-4.44197E-09 1.21327E-09
 -1       410 1.73901E+04 5.60430E+05 2.68442E+04-6.81730E+04 1.78261E-10 4.45652E-11
 -1       466 1.12598E+06-4.45487E+04 1.00269E+05 2.93287E+04 1.10958E-10-7.29051E-09
 -1       467 1.19394E+06 5.06524E+04 7.48938E+04-5.68232E+04 9.87711E-10 4.91218E-09
 -1       468 1.15093E+06-6.65765E+03 2.61353E+04 1.22476E+04 6.10271E-10-2.70302E-09
 -1       469 1.16350E+06 7.52878E+03 1.72148E+04-3.14429E+04 2.57455E-09 1.40608E-09
 -1       470 1.15555E+06-9.81656E+02 6.88671E+03 3.94005E+03 8.31903E-10 1.65710E-09
 -1       471 1.15781E+06 1.18577E+03 4.46441E+03-1.92590E+04 1.64451E-09-2.34155E-09
 -1       472 1.15641E+06-1.84400E+02 2.56363E+03 6.29677E+01 4.40480E-10 4.35278E-09
 -1       473 1.15690E+06 5.76536E+02 2.85214E+03-1.40214E+04 3.03899E-10-2.79753E-09
 -1       474 1.15641E+06-3.37298E+02 3.90239E+03-1.29756E+03-5.44972E-10 2.06126E-09
 -1       475 1.15785E+06 2.51953E+03 8.18057E+03-1.31523E+04 8.13444E-10-1.12050E-09
 -1       476 1.15544E+06-2.11763E+03 1.38641E+04-8.06095E+02 2.81466E-09 3.06136E-09
 -1       477 1.16474E+06 1.59787E+04 3.38725E+04-1.62312E+04-1.47139E-10-3.58341E-09
 -1       478 1.14952E+06-1.37724E+04 5.39929E+04 1.78150E+03 3.12070E-11 2.11003E-09
 -1       479 1.20654E+06 1.03148E+05 1.47447E+05-2.49515E+04 2.32592E-09-3.11047E-10
 -1       480 1.11373E+06-8.90602E+04 2.08395E+05 7.91331E+03 2.87639E-09-2.06637E-09
 -1       481-1.06915E+04 2.36100E+05 2.03681E+04-1.83733E+04-1.64619E-10-2.10684E-09
 -1       482 1.17008E+04 2.70503E+05 1.95095E+04 6.60372E+04-1.10276E-10 1.05301E-08
 -1       483-1.81386E+03 2.48105E+05 7.15967E+03-1.47115E+04 1.50067E-11 3.84148E-09
 -1       484 4.90780E+03 2.55924E+05 8.90672E+03 6.13186E+04 2.16005E-11 1.14994E-10
 -1       485-3.18710E+03 2.49628E+05 8.42993E+03-1.36439E+04 4.82032E-11-2.43574E-10
 -1       486-1.09685E+06-1.87790E+05-1.27230E+05-5.00889E+05-3.49246E-10-1.57161E-08
 -1       487-1.15435E+06-3.63560E+04-4.83389E+04-2.17977E+05 8.92760E-09 2.27519E-08
 -1       488-9.91465E+05-2.32231E+05-2.45528E+04-4.99953E+05-1.38725E-08 1.60962E-08
 -1       489-1.22489E+06 1.39487E+04-8.63171E+03-2.23208E+05-1.07583E-08 2.08840E-08
 -1       490-1.03118E+06-2.34442E+05-1.26546E+04-4.99890E+05-4.73437E-09 2.96241E-08
 -1       491-1.03174E+06-1.76408E+04 3.16298E+04-2.33664E+05 9.31732E-09 6.55200E-09
 -1       492-1.17462E+06-2.07919E+05-3.17954E+04-4.81132E+05 1.19926E-08 2.88264E-09
 -1       493-8.23854E+05-1.14400E+05 5.44217E+04-3.21532E+05-3.05408E-09 8.38190E-09
 -1       494-1.23128E+06-1.43522E+05-3.01186E+04-4.06661E+05-7.17591E-09-1.31358E-08
 -1       495-8.31453E+05-2.35527E+05 2.86076E+04-4.86673E+05 3.09228E-10-4.48023E-08
 -1       496-1.17550E+06-8.05685E+04-1.00637E+04-3.22866E+05 7.14408E-09-2.35152E-08
 -1       497-9.10836E+05-3.02683E+05-7.67910E+03-5.87116E+05-3.34547E-08-1.15333E-08
 -1       498-1.16174E+06-6.89902E+04-2.29641E+04-3.12960E+05-6.09873E-09 6.53627E-08
 -1       499-8.73174E+05-2.91304E+05-3.69410E+04-5.13552E+05-8.10246E-09 1.14196E-08
 -1       500-1.20631E+06-9.72078E+04-1.17690E+05-3.91756E+05 2.43876E-08-5.86806E-09
 -1       501-6.50422E+05-2.11719E+04 4.94851E+04-1.23423E+03 1.24834E-09-1.67347E-10
 -1       502-6.28158E+05 2.45183E+04 3.50504E+04-1.48963E+03-1.10219E-10-1.82263E-09
 -1       503-6.42141E+05-3.29119E+03 1.27660E+04 7.70952E+02-2.87514E-10 4.20187E-10
 -1       504-6.37948E+05 3.80266E+03 8.08632E+03-5.18360E+03-3.13776E-10-3.61069E-10
 -1       505-6.40665E+05-5.13657E+02 3.23710E+03 2.45984E+03 8.67885E-10 4.20278E-09
 -1       506-6.39789E+05 6.01879E+02 1.90925E+03-7.81005E+03 2.48218E-09 2.02510E-09
 -1       507-6.40328E+05-8.14019E+01 8.19383E+02 3.39745E+03 2.20911E-09 2.42056E-09
 -1       508-6.40171E+05 1.10674E+02 4.51133E+02-8.70418E+03 7.22455E-10 9.80663E-10
 -1       509-6.40295E+05-1.54268E+01 1.96708E+02 3.35400E+03 1.99928E-09-8.77520E-11
 -1       510-6.40082E+05 2.60420E+01 1.21906E+02-7.64670E+03 1.17571E-09-6.92026E-10
 -1       511-6.40404E+05-6.66554E+00-3.46924E+00 2.33993E+03 4.92378E-10-1.00346E-09
 -1       512-6.39837E+05-1.81337E+01 3.72839E+01-4.89362E+03 1.33375E-09-1.50533E-09
 -1       513-6.40514E+05 9.73404E+00-1.48132E+02 6.00858E+02-1.14028E-10 6.28262E-11
 -1       514-6.39764E+05-1.76692E+02-1.74072E+02-1.10991E+03-1.05251E-09-9.22938E-10
 -1       515-6.40463E+05 1.40500E+02-4.69053E+02-1.44377E+03-1.34736E-09-1.10813E-09
 -1       516-5.63964E+04 2.23196E+05 1.28949E+05 3.32139E+04 9.67702E-09 7.68750E-10
 -1       517 6.81961E+04 2.93007E+05 9.75132E+04-1.54513E+05 1.51413E-08 1.45879E-08
 -1       518-1.03149E+04 2.49671E+05 4.17447E+04 3.19661E+04 9.06311E-09 7.96638E-09
 -1       519 3.00003E+04 2.98554E+05 5.06758E+04-1.58619E+05 1.30362E-08-3.56181E-10
 -1       520-1.98411E+04 2.19795E+05 3.50295E+04 3.73137E+04-4.85124E-09 2.02999E-09
 -1       521-3.59765E+06-4.54994E+05-2.57362E+05-1.39074E+06-2.11730E-09-2.43017E-09
 -1       522-3.68134E+06-6.37430E+05-1.63500E+05-1.39871E+06 1.56706E-09-7.16682E-09
 -1       523-3.64464E+06-5.14438E+05-6.07092E+04-1.38115E+06 4.49603E-10-1.44428E-09
 -1       524-3.62642E+06-5.62252E+05-3.35760E+04-1.41446E+06-2.73758E-10 2.17915E-09
 -1       525-3.65128E+06-5.19801E+05-1.41260E+04-1.37898E+06 2.00089E-10-6.30280E-10
 -1       526-3.61856E+06-5.55687E+05-7.52815E+03-1.41791E+06 2.77646E-09-1.11504E-09
 -1       527-3.65258E+06-5.19872E+05-3.86644E+03-1.37822E+06 3.06272E-10-1.20627E-09
 -1       528-3.61740E+06-5.55399E+05-3.10347E+03-1.41866E+06 5.56525E-10-1.63141E-10
 -1       529-3.65249E+06-5.19966E+05-3.77651E+03-1.37832E+06-1.55251E-09 5.92081E-10
 -1       530-3.61883E+06-5.55322E+05-7.27005E+03-1.41750E+06 7.90351E-10 1.03137E-09
 -1       531-3.65104E+06-5.20101E+05-1.36137E+04-1.37926E+06 6.88942E-10-8.19455E-10
 -1       532-3.62675E+06-5.61256E+05-3.23164E+04-1.41371E+06 1.64550E-09-9.45874E-11
 -1       533-3.64444E+06-5.15151E+05-5.84379E+04-1.38157E+06-1.34401E-09-1.54614E-09
 -1       534-3.68000E+06-6.33190E+05-1.57342E+05-1.39806E+06-4.34511E-10 3.21597E-09
 -1       535-3.59901E+06-4.58167E+05-2.47695E+05-1.39104E+06-2.03727E-10 1.89175E-09
 -1       536 1.12187E+05-1.71525E+04 6.94161E+04-7.54146E+03 3.01952E-10-2.33922E-09
 -1       537 1.37928E+05 2.24310E+04 4.47980E+04-3.32626E+04-3.16504E-09-3.30692E-09
 -1       538 1.22717E+05-1.88158E+03 1.79740E+04-7.48987E+03 2.81943E-10 1.33969E-09
 -1       539 1.25931E+05 2.22776E+03 1.01123E+04-3.32742E+04 1.52431E-09 1.96223E-10
 -1       540 1.23919E+05-2.37349E+02 4.53379E+03-7.52224E+03-4.73392E-10-3.67891E-10
 -1       541 1.24397E+05 2.12919E+02 2.41206E+03-3.32121E+04-5.75028E-10 5.97538E-10
 -1       542 1.24063E+05-3.40629E+01 1.13738E+03-7.55224E+03 4.83851E-10 2.85263E-09
 -1       543 1.24123E+05 3.87656E+01 5.99568E+02-3.31664E+04-6.02085E-10-2.92721E-09
 -1       544 1.24078E+05 1.37943E+00 3.04384E+02-7.56805E+03 2.82739E-10 1.31473E-09
 -1       545 1.24063E+05 3.52744E+01 1.89376E+02-3.31487E+04-3.22245E-10 6.29234E-09
 -1       546 1.24079E+05 2.51522E+00 1.53241E+02-7.56990E+03-1.38698E-11 2.24918E-09
 -1       547 1.24103E+05 6.28251E+01 2.19510E+02-3.31548E+04-3.15595E-10 4.10296E-10
 -1       548 1.24065E+05-3.85996E+01 3.36457E+02-7.56201E+03-6.54381E-10-1.89218E-09
 -1       549 1.24391E+05 4.01917E+02 8.18337E+02-3.31260E+04-3.72893E-10 9.29049E-10
 -1       550 1.23889E+05-3.42026E+02 1.23343E+03-7.59875E+03-2.80124E-10 1.53386E-09
 -1       551 1.78381E+04-3.42559E+05 3.49251E+04-5.18579E+05-6.18456E-10-1.78989E-09
 -1       552 9.48382E+03-3.37251E+05 2.65148E+04-6.04502E+05-2.42653E-09 2.70666E-09
 -1       553 6.31373E+03-3.42242E+05 2.95139E+04-5.17716E+05-4.25644E-10 2.86764E-09
 -1       554 2.03083E+04-3.31566E+05 5.43192E+04-6.04658E+05-1.60799E-09-5.09317E-10
 -1       555 5.27859E+04-3.49206E+05 1.02547E+05-5.18300E+05-1.28057E-09-3.38150E-09
 -1       556-2.75400E+05-1.39444E+05 2.05780E+04-2.50188E+05 1.72804E-09 4.72937E-10
 -1       557-2.55659E+05-1.61054E+05 1.01192E+04-2.65888E+05-2.79397E-09 3.29692E-09
 -1       558-2.76183E+05-1.46322E+05 4.22506E+03-2.46162E+05-2.75031E-09-8.57654E-10
 -1       559-2.57823E+05-1.64408E+05 2.08450E+03-2.66833E+05 2.47383E-10 1.84446E-09
 -1       560-2.76662E+05-1.46264E+05 9.09964E+02-2.46258E+05-1.30967E-10 2.26237E-10
 -1       561-2.58442E+05-1.64377E+05 4.33330E+02-2.67282E+05-9.22228E-10-1.63891E-09
 -1       562-2.77014E+05-1.46040E+05 1.38495E+02-2.46487E+05-3.28146E-09-7.58610E-09
 -1       563-2.58782E+05-1.64231E+05-3.40943E+01-2.67524E+05-8.52197E-10-2.30239E-09
 -1       564-2.77205E+05-1.45908E+05-2.51535E+02-2.46621E+05-1.74805E-09 7.85622E-09
 -1       565-2.58956E+05-1.64164E+05-6.21300E+02-2.67633E+05-1.08112E-08 3.38059E-09
 -1       566-2.77211E+05-1.45863E+05-1.32724E+03-2.46647E+05-7.06234E-09-5.95901E-09
 -1       567-2.59174E+05-1.64319E+05-2.93687E+03-2.67590E+05-2.03727E-10 1.18234E-10
 -1       568-2.76928E+05-1.46379E+05-6.05021E+03-2.46365E+05-1.29148E-09-8.47649E-10
 -1       569-2.62325E+05-1.68130E+05-1.42729E+04-2.66546E+05 1.30967E-09 8.15362E-09
 -1       570-2.75616E+05-1.57851E+05-2.92187E+04-2.41459E+05-3.84171E-09-8.32506E-09
 -1       571 3.70880E+05 1.80118E+04 2.80186E+04-9.27992E+04-3.54703E-11 1.52158E-09
 -1       572 3.75184E+05 6.08912E+03 1.37786E+04-1.02505E+05-4.32919E-10 8.73570E-10
 -1       573 3.72590E+05 1.31837E+03 6.13369E+03-9.25346E+04-2.16460E-10-2.39015E-09
 -1       574 3.73076E+05 4.01461E+02 3.08408E+03-1.02787E+05 1.75987E-10-4.53656E-09
 -1       575 3.72750E+05 2.42350E+01 1.46212E+03-9.25025E+04 6.36646E-12-1.17143E-09
 -1       576 3.72793E+05-4.04821E+00 7.50775E+02-1.02823E+05 3.16049E-10 4.24916E-09
 -1       577 3.72773E+05-2.71427E+01 3.80256E+02-9.24985E+04-2.57842E-10-2.71029E-10
 -1       578 3.72775E+05-2.40396E+01 2.26483E+02-1.02828E+05-5.55019E-10 1.21781E-09
 -1       579 3.72818E+05-4.14050E+01 1.72402E+02-9.24979E+04-2.71029E-10-6.87578E-10
 -1       580 3.72848E+05-5.44513E+01 2.17196E+02-1.02824E+05 3.60160E-10 1.87447E-09
 -1       581 3.72901E+05-7.64681E+01 3.55327E+02-9.25022E+04-1.68438E-09 3.24690E-10
 -1       582 3.73029E+05-2.27839E+01 7.20076E+02-1.02771E+05-5.03860E-10-1.44973E-09
 -1       583 3.72988E+05 1.49588E+02 1.40673E+03-9.25510E+04-4.29281E-10-4.04907E-09
 -1       584 3.73669E+05 1.20675E+03 3.16035E+03-1.02341E+05-2.17551E-09 5.29189E-09
 -1       585 3.72738E+05 3.91279E+03 6.40838E+03-9.29386E+04 1.26238E-09 5.82077E-10
 -1       586 2.74336E+03 1.44741E+05 4.81741E+03-2.42639E+05 2.07183E-09-5.57520E-10
 -1       587 1.68891E+03 1.45469E+05 4.82316E+03-2.68789E+05 2.83762E-10-1.56251E-09
 -1       588 1.99718E+03 1.44553E+05 7.06242E+03-2.42331E+05 2.22644E-09-2.07160E-09
 -1       589 6.88497E+03 1.47246E+05 1.46133E+04-2.68853E+05 5.51154E-10-7.49651E-10
 -1       590 1.90939E+04 1.42821E+05 2.91330E+04-2.42564E+05 2.18643E-09 1.34332E-09
 -1       591-1.60588E+05-5.78274E+04-3.11892E+04-8.53781E+04 2.51612E-09 5.87534E-09
 -1       592-1.61316E+05-5.38680E+04-1.52555E+04-9.48795E+04-4.76803E-10 2.07388E-09
 -1       593-1.61440E+05-4.59605E+04-6.47074E+03-9.07610E+04 2.82853E-10-4.15071E-09
 -1       594-1.58011E+05-4.95950E+04-3.16337E+03-9.54985E+04 1.61890E-10 2.58623E-09
 -1       595-1.61594E+05-4.54995E+04-1.45607E+03-9.10127E+04-5.89353E-10 3.84125E-09
 -1       596-1.57762E+05-4.94197E+04-7.39596E+02-9.54847E+04-1.90312E-10 3.52179E-09
 -1       597-1.61625E+05-4.55182E+04-4.05353E+02-9.10162E+04 4.32624E-09 5.31713E-09
 -1       598-1.57737E+05-4.94218E+04-3.29446E+02-9.54741E+04 4.91684E-09 8.40055E-09
 -1       599-1.61620E+05-4.55197E+04-4.24912E+02-9.10137E+04 3.61388E-09 9.42009E-09
 -1       600-1.57757E+05-4.94234E+04-7.91277E+02-9.54788E+04-7.99218E-10 5.68730E-09
 -1       601-1.61576E+05-4.55035E+04-1.56553E+03-9.10047E+04-1.05365E-09 5.63432E-10
 -1       602-1.58019E+05-4.96130E+04-3.40591E+03-9.54839E+04 1.23691E-09-2.56841E-09
 -1       603-1.61401E+05-4.60080E+04-6.96838E+03-9.07319E+04-1.12959E-09-1.07229E-09
 -1       604-1.61595E+05-5.41896E+04-1.64275E+04-9.47804E+04-3.46154E-09-1.11640E-08
 -1       605-1.60451E+05-5.88062E+04-3.35843E+04-8.49557E+04-3.37286E-09-7.88168E-09
 -1       606 1.09685E+05-1.40848E+04-2.18461E+04 3.17866E+04-6.72753E-09-4.57294E-09
 -1       607 1.06258E+05-4.76174E+03-1.07380E+04 3.47672E+04-4.32010E-10-4.81123E-10
 -1       608 1.08247E+05-1.02784E+03-4.78103E+03 3.15648E+04 5.57520E-09-1.44928E-09
 -1       609 1.07792E+05-2.76568E+02-2.39800E+03 3.50048E+04-3.47063E-09 4.71118E-10
 -1       610 1.08046E+05 2.46110E+01-1.13371E+03 3.15369E+04-8.29823E-09 2.99906E-10
 -1       611 1.07952E+05 7.21630E+01-5.71169E+02 3.50342E+04-1.31672E-08-8.08996E-10
 -1       612 1.07994E+05 8.34510E+01-2.72990E+02 3.15338E+04-3.86171E-09 9.12905E-10
 -1       613 1.07954E+05 9.32915E+01-1.27831E+02 3.50376E+04-7.76708E-09-2.46860E-09
 -1       614 1.07967E+05 8.53991E+01-4.26681E+01 3.15332E+04-2.28738E-09 1.31149E-09
 -1       615 1.07941E+05 9.98843E+01 2.12554E+01 3.50378E+04 5.52973E-09 4.60250E-09
 -1       616 1.07947E+05 9.48037E+01 9.39206E+01 3.15336E+04-5.40922E-09 3.95403E-10
 -1       617 1.07946E+05 1.38492E+02 2.27322E+02 3.50366E+04 2.63117E-09 1.54773E-09
 -1       618 1.07920E+05 2.01531E+02 4.65775E+02 3.15340E+04 1.64937E-09-4.37694E-10
 -1       619 1.08093E+05 5.82011E+02 1.05420E+03 3.50325E+04-1.23339E-09 2.53840E-09
 -1       620 1.07776E+05 1.48745E+03 2.14757E+03 3.15347E+04 2.98814E-09-5.27507E-10
 -1       621 2.94338E+03 3.68640E+05 6.92702E+03-3.47573E+04 1.64164E-10 2.82353E-09
 -1       622 1.14000E+03 3.69938E+05 5.60451E+03-4.06712E+04-1.88766E-09-1.41654E-09
 -1       623 6.78565E+02 3.68944E+05 6.75449E+03-3.48018E+04 2.60115E-10-1.76442E-10
 -1       624 3.91305E+03 3.71554E+05 1.28895E+04-4.04837E+04-1.44769E-09 2.53567E-09
 -1       625 1.19841E+04 3.67092E+05 2.46284E+04-3.49405E+04 1.96451E-10 7.03949E-10
 -1       626 1.53935E+05 4.98989E+04-1.03986E+04 1.05160E+05-3.93720E-09-1.20417E-09
 -1       627 1.49452E+05 5.68506E+04-4.93825E+03 1.06961E+05 1.69530E-09-3.31511E-10
 -1       628 1.54116E+05 5.49682E+04-2.07705E+03 1.02704E+05 1.61162E-08-9.44601E-09
 -1       629 1.50236E+05 5.89121E+04-9.97729E+02 1.06754E+05 1.46320E-08-2.20019E-08
 -1       630 1.54078E+05 5.53133E+04-4.42180E+02 1.02502E+05 1.17270E-08-7.39948E-09
 -1       631 1.50280E+05 5.90642E+04-1.99971E+02 1.06745E+05-5.68980E-09 2.53601E-09
 -1       632 1.54047E+05 5.53289E+04-6.14001E+01 1.02478E+05 5.19321E-10 1.02473E-08
 -1       633 1.50274E+05 5.90746E+04 3.58879E+01 1.06740E+05 1.24912E-08 6.62658E-09
 -1       634 1.54027E+05 5.53231E+04 1.51107E+02 1.02472E+05 4.74211E-09 1.89766E-09
 -1       635 1.50287E+05 5.90794E+04 3.65891E+02 1.06742E+05-2.29204E-09 7.75435E-09
 -1       636 1.54008E+05 5.53371E+04 7.69044E+02 1.02460E+05-4.96141E-09 5.50699E-10
 -1       637 1.50469E+05 5.92766E+04 1.72044E+03 1.06714E+05 4.26371E-09 4.56112E-09
 -1       638 1.53967E+05 5.59347E+04 3.56443E+03 1.02198E+05 9.92577E-09-9.11314E-10
 -1       639 1.52292E+05 6.23879E+04 8.47794E+03 1.05965E+05-9.64064E-10-3.42061E-09
 -1       640 1.54028E+05 6.49665E+04 1.78471E+04 9.84309E+04-1.65624E-08 2.81943E-10
 -1       641 4.35446E+03 3.20803E+03-7.52854E+03-3.11481E+02-1.04701E-08-6.15728E-10
 -1       642 1.13841E+03-3.71388E+03-5.30064E+03 1.40310E+03 5.43066E-09-2.52885E-09
 -1       643 3.10704E+03 4.95672E+02-1.94251E+03-3.07768E+02-1.95266E-08-3.06738E-09
 -1       644 2.58510E+03-5.68844E+02-1.20007E+03 1.39787E+03 1.09343E-08 4.46312E-09
 -1       645 2.90631E+03 7.43454E+01-4.66036E+02-3.06275E+02-1.25512E-08-1.75891E-09
 -1       646 2.82095E+03-7.46192E+01-2.20951E+02 1.39562E+03-4.09619E-07 4.51458E-10
 -1       647 2.87038E+03 3.50416E+00-2.40040E+00-3.05526E+02-3.10471E-05 6.97917E-08
 -1       648 2.88570E+03 4.56942E+01 2.00356E+02 1.39484E+03-6.14024E-05 1.46085E-07
 -1       649 2.84129E+03-4.54977E+01 4.58229E+02-3.05501E+02-3.10486E-05 7.07538E-08
 -1       650 3.05287E+03 3.51194E+02 1.10630E+03 1.39516E+03-3.81984E-07 4.64951E-10
 -1       651 2.70349E+03-3.01397E+02 1.93351E+03-3.05838E+02-7.40634E-09-6.70752E-11
 -1       652 3.99959E+03 2.25965E+03 4.76588E+03 1.39537E+03 6.18748E-09 4.01030E-09
 -1       653 1.89544E+03-1.94869E+03 7.62316E+03-3.05725E+02-1.04592E-08-3.29283E-09
 -1       654 9.73122E+03 1.45704E+04 2.07869E+04 1.38980E+03 1.12245E-08 1.72122E-09
 -1       655-3.02559E+03-1.25722E+04 2.94611E+04-3.00327E+02-2.19588E-09 4.00178E-10
 -1       656 1.15927E+04-4.18945E+05-4.91372E+04 1.01126E+04-2.39743E-09 5.25688E-10
 -1       657-1.67927E+04-4.37076E+05-3.60252E+04 4.23024E+04-3.56658E-09 1.14233E-09
 -1       658 2.27874E+03-4.25364E+05-2.27435E+04 1.00044E+04-2.17653E-09-2.51180E-09
 -1       659-1.52972E+04-4.36249E+05-3.34591E+04 4.23783E+04 2.12276E-09-8.62800E-09
 -1       660 1.03828E+04-4.19820E+05-4.43056E+04 1.00380E+04-2.91584E-09-6.36305E-09
 -1       661 4.14495E+05 5.24416E+04 3.41141E+04 1.62139E+05 1.07234E-08-3.58523E-09
 -1       662 4.22722E+05 7.95259E+04 2.16752E+04 1.66579E+05 4.74117E-09 2.32012E-09
 -1       663 4.20436E+05 6.06005E+04 8.05908E+03 1.61211E+05 4.69043E-09 6.66660E-10
 -1       664 4.15903E+05 6.91082E+04 4.47096E+03 1.68059E+05 1.45957E-09-2.27914E-09
 -1       665 4.21110E+05 6.15259E+04 1.89137E+03 1.61155E+05 3.09160E-09-1.46599E-09
 -1       666 4.15130E+05 6.79506E+04 1.03294E+03 1.68145E+05 5.54337E-10 7.17847E-10
 -1       667 4.21182E+05 6.16400E+04 5.73894E+02 1.61165E+05 6.83073E-09-1.43226E-09
 -1       668 4.15061E+05 6.78365E+04 5.40503E+02 1.68137E+05-9.75295E-09 3.00741E-09
 -1       669 4.21175E+05 6.16332E+04 7.54438E+02 1.61164E+05-8.58188E-09-5.54792E-10
 -1       670 4.15195E+05 6.80259E+04 1.53566E+03 1.68143E+05 1.23816E-08 1.05229E-08
 -1       671 4.21053E+05 6.14619E+04 2.90308E+03 1.61156E+05 5.48437E-09-3.47745E-09
 -1       672 4.16415E+05 6.98045E+04 6.92001E+03 1.67985E+05-6.11436E-10-1.38550E-09
 -1       673 4.19991E+05 6.00404E+04 1.24938E+04 1.61256E+05 2.30088E-09-1.80989E-10
 -1       674 4.27014E+05 8.59397E+04 3.36170E+04 1.65657E+05 7.03807E-09-8.47649E-10
 -1       675 4.10763E+05 4.74012E+04 5.29170E+04 1.62709E+05 4.28008E-09 1.62981E-09
 -1       676 1.49947E+03-3.93272E+05-7.06592E+03 5.72512E+02 6.27551E-11-2.28018E-09
 -1       677-2.70683E+03-3.95993E+05-7.09552E+03 4.19184E+02-3.84404E-09-3.08695E-09
 -1       678 7.75946E+02-3.93730E+05-7.67801E+03 5.71036E+02 2.22894E-09 4.71204E-10
 -1       679-8.06105E+03-3.99113E+05-1.63629E+04 4.18444E+02 1.03410E-09-8.10836E-11
 -1       680 5.94072E+03-3.90154E+05-2.44769E+04 5.71845E+02 5.51063E-09 3.64052E-09
 -1       681 5.72546E+05-1.55532E+04 3.63533E+04-1.73903E+03 3.45608E-11-2.19188E-09
 -1       682 5.88633E+05 1.80315E+04 2.57320E+04 1.00781E+04 6.14463E-10-1.64664E-09
 -1       683 5.78774E+05-2.40804E+03 9.43141E+03-5.49815E+02 2.08445E-10-2.56250E-09
 -1       684 5.81358E+05 2.81339E+03 5.93262E+03 8.44864E+03 9.37348E-10-3.16925E-09
 -1       685 5.79807E+05-3.72257E+02 2.46765E+03-1.09541E+02 7.53921E-11-3.04510E-09
 -1       686 5.80184E+05 4.69640E+02 1.52986E+03 8.20693E+03-1.51095E-09-3.16896E-09
 -1       687 5.79947E+05-6.97619E+01 8.69458E+02-3.08088E+02-8.37645E-10-2.47840E-09
 -1       688 5.80172E+05 1.91089E+02 9.38021E+02 9.29074E+03-1.00114E-09-2.53269E-09
 -1       689 5.79832E+05-1.02901E+02 1.19339E+03-1.19333E+03 1.46656E-10-5.53939E-10
 -1       690 5.80887E+05 7.34668E+02 2.60678E+03 1.19577E+04 2.81867E-09 3.39526E-10
 -1       691 5.79271E+05-6.38799E+02 4.17618E+03-2.97509E+03 1.18132E-09 3.50155E-11
 -1       692 5.84051E+05 4.79105E+03 1.06555E+04 1.68435E+04 1.86196E-09-4.60432E-11
 -1       693 5.76771E+05-4.21907E+03 1.63245E+04-6.07947E+03 3.14856E-09 2.46200E-09
 -1       694 5.99624E+05 3.16049E+04 4.60059E+04 2.52332E+04 6.31871E-09 2.57205E-09
 -1       695 5.63968E+05-2.75518E+04 6.32013E+04-1.13667E+04 5.83009E-09 7.58882E-09
 -1       696-1.09684E+04 4.56029E+05 2.52361E+04 2.76518E+03 6.18456E-11-5.29667E-10
 -1       697 1.19325E+04 4.66962E+05 1.63911E+04-1.43131E+04 8.02629E-11 4.53383E-10
 -1       698-9.05143E+02 4.60865E+05 3.50176E+03 2.08149E+03-1.63709E-10 2.28255E-09
 -1       699-4.02716E+03 4.59439E+05-4.58015E+03-1.39268E+04-3.05590E-10 2.62872E-09
 -1       700 4.94520E+03 4.63549E+05-1.08859E+04 2.37886E+03-1.86446E-10 1.26042E-09
 -1       701-5.14641E+05-4.68322E+04-6.48121E+04-2.03435E+05-5.54792E-11-3.31056E-10
 -1       702-5.45664E+05-1.08504E+05-4.48436E+04-1.95442E+05-2.67619E-10-1.35060E-10
 -1       703-5.28401E+05-6.92856E+04-1.52061E+04-1.98353E+05 3.41061E-12-1.47429E-09
 -1       704-5.29532E+05-8.26733E+04-9.45756E+03-2.01536E+05 2.45052E-10 1.22691E-09
 -1       705-5.30762E+05-7.25875E+04-3.55686E+03-1.97370E+05-5.51381E-12-1.02773E-10
 -1       706-5.26951E+05-7.86805E+04-2.11461E+03-2.02459E+05 7.46070E-10 1.75908E-09
 -1       707-5.30979E+05-7.32669E+04-9.85205E+02-1.97433E+05 5.28786E-10 3.12951E-10
 -1       708-5.27189E+05-7.74779E+04-8.39144E+02-2.01790E+05-5.68434E-13-1.30111E-09
 -1       709-5.30518E+05-7.37925E+04-9.60078E+02-1.98035E+05 1.15453E-09 6.31246E-10
 -1       710-5.28687E+05-7.67004E+04-1.96873E+03-2.00211E+05 2.70603E-10-1.73713E-10
 -1       711-5.29474E+05-7.40503E+04-3.37568E+03-1.99007E+05 1.66011E-10 6.03677E-10
 -1       712-5.32548E+05-7.90199E+04-8.87131E+03-1.97699E+05-3.89093E-11-3.37423E-10
 -1       713-5.26659E+05-7.14842E+04-1.43267E+04-2.00543E+05 6.90306E-10 1.10049E-10
 -1       714-5.48510E+05-1.02732E+05-4.22106E+04-1.91313E+05-1.18689E-10-2.90584E-10
 -1       715-5.13535E+05-5.04018E+04-6.09960E+04-2.05375E+05-1.87538E-09 1.36424E-09
 -1       716 4.36248E+05-2.24916E+04 5.18509E+04-8.46162E+03-8.53515E-09 7.70524E-09
 -1       717 4.64364E+05 2.58323E+04 3.75566E+04 1.75353E+04-5.14626E-09 7.15409E-09
 -1       718 4.46274E+05-3.45349E+03 1.34026E+04-5.01271E+03-2.96325E-09 4.44106E-09
 -1       719 4.52226E+05 3.91577E+03 8.79290E+03 1.18915E+04-1.67398E-09 3.51690E-09
 -1       720 4.48217E+05-5.28860E+02 3.53695E+03-2.81652E+03 1.54375E-09-1.90539E-10
 -1       721 4.49777E+05 6.19033E+02 2.43771E+03 8.26408E+03 1.56865E-09 1.01409E-09
 -1       722 4.48649E+05-1.15348E+02 1.48822E+03-1.38486E+03 2.03767E-09 3.30743E-10
 -1       723 4.49305E+05 3.66834E+02 1.94360E+03 5.89902E+03 2.43591E-09 6.66134E-10
 -1       724 4.48657E+05-2.55316E+02 2.79679E+03-4.51356E+02-1.94873E-09-1.23964E-09
 -1       725 4.49947E+05 1.85528E+03 6.07415E+03 4.35740E+03-3.12730E-09-1.95996E-09
 -1       726 4.47991E+05-1.59027E+03 1.03272E+04 1.56773E+02-2.21723E-09-2.12640E-09
 -1       727 4.54835E+05 1.19335E+04 2.52654E+04 3.34888E+03-3.40820E-09-2.39788E-09
 -1       728 4.43760E+05-1.02982E+04 4.03732E+04 5.57091E+02-1.92034E-09-3.05045E-09
 -1       729 4.85041E+05 7.70421E+04 1.09963E+05 2.62617E+03-1.25259E-09-2.24099E-09
 -1       730 4.17791E+05-6.64719E+04 1.55963E+05 8.78915E+02 1.29603E-10-3.41242E-09
 -1       731-1.50801E+04 1.91212E+05 2.85186E+04 2.24280E+04-1.89175E-09 8.62201E-10
 -1       732 1.70462E+04 2.34697E+05 2.64090E+04-9.21701E+04-7.82848E-10 9.50536E-10
 -1       733-2.42658E+03 2.08486E+05 9.68713E+03 1.91044E+04 4.80622E-09 4.01417E-09
 -1       734 6.57137E+03 2.15876E+05 1.06544E+04-8.86060E+04 8.33602E-09 8.13455E-09
 -1       735-3.73373E+03 2.08740E+05 9.14094E+03 1.88621E+04 4.22119E-09 5.40820E-09
 -1       736-9.88089E+05-8.34103E+04-8.43640E+04-3.48038E+05-7.38783E-09-6.65750E-10
 -1       737-9.27347E+05-2.27189E+05-5.30034E+04-4.18496E+05-1.96060E-08-1.18871E-09
 -1       738-1.00090E+06-9.84223E+04-1.88746E+04-3.26382E+05 1.40631E-09 4.77485E-10
 -1       739-9.10456E+05-2.01157E+05-1.06009E+04-4.33264E+05 1.45610E-09 4.77246E-09
 -1       740-1.00548E+06-1.08967E+05-5.93393E+03-3.33669E+05 4.81896E-09 1.53007E-08
 -1       741-9.05778E+05-1.70380E+05 3.73718E+03-3.98561E+05 9.02287E-09 2.86734E-08
 -1       742-1.00367E+06-1.30578E+05-6.45393E+03-3.59712E+05-1.09958E-08 1.03503E-08
 -1       743-9.30366E+05-1.26920E+05 8.73924E+03-3.45725E+05 5.81531E-09 1.53000E-09
 -1       744-9.79705E+05-1.53278E+05-6.00833E+03-3.85571E+05 7.01402E-09-6.64295E-09
 -1       745-9.89196E+05-8.98423E+04 3.68666E+03-3.07169E+05-2.99524E-08-1.50806E-09
 -1       746-9.46289E+05-1.66600E+05-4.54858E+03-3.99324E+05-4.78599E-09-3.22439E-08
 -1       747-1.03438E+06-7.61320E+04-8.08537E+03-2.92009E+05 4.31027E-09 1.33878E-08
 -1       748-9.36228E+05-1.65771E+05-1.46023E+04-4.02068E+05-1.87529E-08-8.54925E-11
 -1       749-1.02959E+06-1.07531E+05-3.94102E+04-2.92966E+05 6.18206E-09-1.24601E-09
 -1       750-9.50330E+05-1.35826E+05-6.59576E+04-3.97733E+05-9.45874E-10 4.30373E-09
 -1       751 2.87914E+06-1.60758E+05 3.77783E+05 1.13521E+04-1.55983E-08-1.06229E-09
 -1       752 3.04263E+06 1.86298E+05 2.66361E+05-1.56303E+04-3.28103E-09-1.86628E-09
 -1       753 2.94247E+06-2.48955E+04 9.79218E+04 3.39777E+03-9.53918E-10-4.51109E-10
 -1       754 2.96913E+06 2.88301E+04 6.13177E+04-5.18198E+03-1.63869E-09-5.89353E-10
 -1       755 2.95282E+06-3.84808E+03 2.52344E+04 9.06156E+02-2.04032E-10-9.97716E-10
 -1       756 2.95716E+06 4.51107E+03 1.50294E+04-1.90417E+03 5.04226E-10-1.18325E-09
 -1       757 2.95452E+06-6.51990E+02 7.44132E+03 1.19998E+02 1.96671E-10-7.34872E-10
 -1       758 2.95541E+06 1.16762E+03 5.96239E+03-9.15668E+02 8.81755E-10 2.10970E-09
 -1       759 2.95460E+06-5.13618E+02 6.12840E+03-8.23603E+01 5.10797E-10-1.82581E-09
 -1       760 2.95651E+06 3.30795E+03 1.12512E+04-8.08252E+02 1.14996E-09 1.38414E-09
 -1       761 2.95341E+06-2.78619E+03 1.84025E+04 1.25813E+01 1.36630E-09-1.39516E-09
 -1       762 2.96508E+06 2.08288E+04 4.43523E+04-1.43110E+03-8.44125E-12 1.09048E-09
 -1       763 2.94596E+06-1.79791E+04 7.07205E+04 5.40493E+02 4.94157E-09 6.69388E-10
 -1       764 3.01781E+06 1.34475E+05 1.92205E+05-3.70209E+03 5.03555E-10-8.76753E-10
 -1       765 2.90048E+06-1.16027E+05 2.72622E+05 2.28322E+03-1.36396E-09-7.27596E-11
 -1       766-6.49704E+04 3.58990E+05 1.53696E+05-1.50633E+04 2.75031E-09 2.03613E-10
 -1       767 7.93726E+04 4.29660E+05 1.16524E+05 6.37511E+04 5.09317E-11 5.42844E-10
 -1       768-1.41588E+04 3.83427E+05 5.54964E+04-1.41054E+04-1.02500E-09-1.97872E-09
 -1       769 4.44622E+04 4.17281E+05 7.12403E+04 6.61663E+04 2.86013E-09 1.50328E-09
 -1       770-3.04261E+04 3.71707E+05 7.33529E+04-1.74799E+04 3.01952E-09 3.67595E-09
 -1       771-1.62797E+06-3.29997E+05-6.16253E+04-7.00856E+05-1.01500E-09-8.92032E-09
 -1       772-1.62517E+06-3.26087E+05-3.01024E+04-7.24119E+05-4.55657E-09 6.22276E-09
 -1       773-1.63030E+06-3.06118E+05-1.28098E+04-7.11263E+05 1.84809E-09 9.74069E-09
 -1       774-1.61858E+06-3.17997E+05-6.24116E+03-7.26149E+05 6.24277E-09 5.15683E-09
 -1       775-1.63097E+06-3.04960E+05-2.89704E+03-7.11879E+05 6.25732E-10 3.81078E-10
 -1       776-1.61832E+06-3.17613E+05-1.45669E+03-7.26467E+05-3.03771E-09-7.09565E-09
 -1       777-1.63132E+06-3.04825E+05-8.04436E+02-7.12019E+05 3.18687E-09 7.45285E-09
 -1       778-1.61848E+06-3.17551E+05-6.23629E+02-7.26683E+05-9.16771E-10 1.76081E-09
 -1       779-1.63153E+06-3.04701E+05-7.93826E+02-7.12117E+05-3.21415E-09-3.62888E-09
 -1       780-1.61867E+06-3.17508E+05-1.44952E+03-7.26858E+05-2.72848E-12 7.29869E-11
 -1       781-1.63159E+06-3.04586E+05-2.86733E+03-7.12168E+05-1.56160E-09-6.48288E-09
 -1       782-1.61924E+06-3.17833E+05-6.23777E+03-7.26972E+05 1.38243E-09 1.32604E-09
 -1       783-1.63135E+06-3.05464E+05-1.27696E+04-7.11698E+05-1.52613E-09-1.84627E-09
 -1       784-1.62576E+06-3.26303E+05-3.01341E+04-7.25803E+05-2.03460E-09-2.81034E-09
 -1       785-1.62969E+06-3.28882E+05-6.16220E+04-7.01044E+05-3.84489E-10-2.94676E-10
 -1       786 3.61818E+05-1.10992E+04 4.53514E+04-2.01767E+03 8.74024E-10 2.05546E-10
 -1       787 3.78374E+05 1.47237E+04 2.92340E+04-9.20800E+03-4.86352E-10-3.70756E-09
 -1       788 3.68712E+05-1.17468E+03 1.17622E+04-2.02695E+03 2.25339E-09 6.27097E-10
 -1       789 3.70669E+05 1.49903E+03 6.60617E+03-9.17880E+03 5.61340E-09-7.67386E-11
 -1       790 3.69514E+05-1.29431E+02 2.99256E+03-2.04568E+03 2.74395E-09 6.38806E-10
 -1       791 3.69758E+05 1.50342E+02 1.61434E+03-9.15168E+03 8.39378E-10 6.18115E-10
 -1       792 3.69618E+05-1.63426E+01 8.30833E+02-2.05407E+03 9.07221E-11-4.03929E-10
 -1       793 3.69645E+05 2.04045E+01 5.64128E+02-9.14596E+03 5.28473E-10 2.42835E-09
 -1       794 3.69627E+05-9.71949E+00 5.36916E+02-2.05140E+03 2.04636E-12-6.40554E-11
 -1       795 3.69686E+05 7.04131E+01 8.37661E+02-9.16280E+03 5.62750E-10 4.06410E-09
 -1       796 3.69580E+05-6.28969E+01 1.45209E+03-2.03723E+03-2.42153E-10-4.33602E-10
 -1       797 3.70119E+05 7.06112E+02 3.14612E+03-9.20010E+03-5.01871E-10-2.20263E-09
 -1       798 3.69202E+05-5.59155E+02 5.57648E+03-2.01411E+03-2.99451E-10-1.12277E-09
 -1       799 3.73774E+05 6.96509E+03 1.38458E+04-9.23545E+03-1.88948E-09 4.40195E-10
 -1       800 3.65938E+05-5.26083E+03 2.14695E+04-2.00255E+03 7.91260E-11 6.53927E-10
 -1       801-1.50346E+04 4.04723E+05 5.40891E+04-2.11304E+05 5.63887E-10 4.36557E-09
 -1       802 3.22853E+04 4.21437E+05 5.40965E+04-9.18439E+05 1.07721E-08 7.92807E-09
 -1       803-2.06813E+03 4.06611E+05 5.31290E+04-2.11023E+05 6.08634E-09 5.75460E-09
 -1       804 6.36104E+04 4.40696E+05 1.08857E+05-9.18395E+05 7.72707E-09-3.62161E-09
 -1       805-4.16952E+04 3.86560E+05 1.56798E+05-2.11364E+05 5.60976E-09 5.16593E-10
 -1       806-3.53446E+05-9.20615E+04-3.05440E+04-1.60041E+05 1.16461E-09 1.48066E-09
 -1       807-3.53852E+05-8.42648E+04-1.45084E+04-1.69110E+05-4.28372E-10-1.78193E-09
 -1       808-3.53319E+05-7.66489E+04-6.10325E+03-1.66576E+05-3.27100E-09-6.12545E-09
 -1       809-3.50841E+05-7.88514E+04-2.95170E+03-1.70328E+05-1.81035E-09 1.25448E-09
 -1       810-3.53401E+05-7.56206E+04-1.33671E+03-1.67043E+05-1.15620E-09-1.22486E-09
 -1       811-3.50551E+05-7.85004E+04-6.71926E+02-1.70374E+05-3.51974E-10-2.59661E-10
 -1       812-3.53426E+05-7.55933E+04-3.55421E+02-1.67064E+05-9.02969E-09 5.30099E-09
 -1       813-3.50519E+05-7.84917E+04-2.69612E+02-1.70366E+05-1.27382E-08 1.66665E-08
 -1       814-3.53421E+05-7.55978E+04-3.23660E+02-1.67061E+05-7.88714E-09 3.56795E-09
 -1       815-3.50537E+05-7.85043E+04-5.87606E+02-1.70364E+05-2.61002E-09 1.66438E-10
 -1       816-3.53388E+05-7.56280E+04-1.15524E+03-1.67037E+05-3.11775E-09 6.91216E-11
 -1       817-3.50782E+05-7.88047E+04-2.54455E+03-1.70308E+05-2.40652E-09-6.50016E-09
 -1       818-3.53303E+05-7.65264E+04-5.25848E+03-1.66635E+05-1.72804E-10-1.62527E-09
 -1       819-3.53416E+05-8.34174E+04-1.24967E+04-1.69189E+05 7.03494E-10-6.15728E-10
 -1       820-3.53352E+05-8.98456E+04-2.63079E+04-1.61050E+05 3.96813E-09 1.10817E-08
 -1       821-3.41385E+05 1.08207E+04-4.42367E+04 1.97685E+03-3.67982E-09 4.63842E-10
 -1       822-3.57510E+05-1.43646E+04-2.85158E+04 9.46914E+03-1.85264E-09-2.36469E-10
 -1       823-3.48114E+05 1.14093E+03-1.14773E+04 1.89335E+03 4.83215E-09 1.28421E-09
 -1       824-3.50019E+05-1.44874E+03-6.44743E+03 9.59180E+03-1.00499E-09-5.97538E-10
 -1       825-3.48898E+05 1.26638E+02-2.93325E+03 1.85295E+03-4.94379E-09-2.03545E-09
 -1       826-3.49150E+05-1.24994E+02-1.60162E+03 9.65874E+03-7.04404E-09 9.22881E-10
 -1       827-3.49000E+05 2.04778E+01-8.66896E+02 1.82614E+03-4.38774E-09 2.54056E-09
 -1       828-3.49055E+05 1.83241E+00-6.66654E+02 9.70087E+03-8.52873E-09 1.06161E-09
 -1       829-3.49005E+05 1.94151E+01-7.51195E+02 1.81075E+03-1.48628E-09 9.99592E-11
 -1       830-3.49134E+05-8.86462E+01-1.29786E+03 9.71908E+03 5.67304E-09-3.38645E-11
 -1       831-3.48927E+05 1.05125E+02-2.32810E+03 1.80793E+03-3.93693E-09 2.08399E-09
 -1       832-3.49828E+05-1.12799E+03-5.09273E+03 9.71226E+03-3.58719E-09 5.68161E-09
 -1       833-3.48310E+05 9.07094E+02-9.05106E+03 1.81781E+03-3.58273E-09 2.29102E-09
 -1       834-3.55742E+05-1.13090E+04-2.24866E+04 9.66776E+03-5.21811E-09-7.59428E-11
 -1       835-3.43006E+05 8.54148E+03-3.48773E+04 1.85453E+03-6.93262E-10-9.31323E-10
 -1       836-1.82381E+04 9.26479E+05 7.84400E+04-2.25230E+04-1.47338E-09-2.47837E-09
 -1       837 2.74257E+04 9.55667E+05 6.11463E+04-9.52198E+04 1.55569E-09-6.17922E-09
 -1       838-4.44384E+03 9.35808E+05 4.46352E+04-2.25855E+04-2.03636E-09 1.12408E-09
 -1       839 3.55233E+04 9.60364E+05 7.51619E+04-9.51970E+04 1.71985E-09-1.02000E-09
 -1       840-2.49340E+04 9.21756E+05 1.04799E+05-2.25448E+04-1.68802E-09 2.79761E-09
 -1       841-5.89764E+04-1.72787E+03-1.73494E+04-2.52724E+04-3.91992E-09 1.38061E-09
 -1       842-6.86396E+04-1.69157E+04-1.20065E+04-2.16293E+04-4.53798E-09-1.90903E-09
 -1       843-6.24692E+04-7.94160E+03-4.06779E+03-2.41470E+04 3.00588E-09-1.91267E-09
 -1       844-6.46059E+04-9.69725E+03-2.52370E+03-2.29094E+04 1.04177E-09 1.80782E-09
 -1       845-6.30081E+04-8.92685E+03-9.37055E+02-2.40000E+04-2.26052E-09 1.09526E-09
 -1       846-6.39926E+04-8.54183E+03-5.27988E+02-2.30655E+04-8.25346E-09-1.56120E-10
 -1       847-6.30825E+04-9.09392E+03-1.90547E+02-2.39923E+04-2.19942E-09 2.80608E-10
 -1       848-6.39037E+04-8.33130E+03-5.55062E+01-2.30704E+04 7.06020E-09 3.30990E-09
 -1       849-6.30972E+04-9.13676E+03 6.50533E+01-2.39954E+04 3.93951E-09 6.38707E-11
 -1       850-6.38361E+04-8.20690E+03 2.61055E+02-2.30825E+04-5.13948E-10-8.77606E-10
 -1       851-6.31502E+04-9.21800E+03 4.87033E+02-2.39804E+04-1.00164E-09-3.50482E-09
 -1       852-6.34708E+04-7.62440E+03 1.33258E+03-2.32000E+04 8.46565E-09 6.62197E-10
 -1       853-6.34621E+04-9.71789E+03 2.14831E+03-2.38784E+04 2.81159E-09 2.44086E-09
 -1       854-6.12689E+04-3.86222E+03 6.35381E+03-2.39401E+04-4.20553E-09 2.26333E-09
 -1       855-6.53499E+04-1.29702E+04 9.17465E+03-2.32436E+04 1.02546E-10 3.78805E-10
 -1       856-4.01800E+05 9.85736E+03-4.03577E+04 3.99721E+03-6.12135E-09 2.34650E-10
 -1       857-4.16493E+05-1.30567E+04-2.60036E+04 1.94777E+04-8.19909E-09-1.27011E-09
 -1       858-4.07942E+05 1.04288E+03-1.04711E+04 3.85113E+03-8.77435E-09-8.34461E-10
 -1       859-4.09704E+05-1.26186E+03-5.87534E+03 1.96920E+04 7.16682E-10-1.97235E-09
 -1       860-4.08662E+05 1.26491E+02-2.67003E+03 3.78037E+03 1.14687E-09-3.88354E-10
 -1       861-4.08936E+05-4.40511E+01-1.44686E+03 1.97992E+04-9.74683E-09 2.60201E-09
 -1       862-4.08759E+05 3.38446E+01-7.64452E+02 3.74337E+03 1.04750E-08-2.52294E-09
 -1       863-4.08856E+05 7.71749E+01-5.54549E+02 1.98447E+04 2.07989E-08-4.14207E-09
 -1       864-4.08765E+05 3.12127E+01-5.81672E+02 3.73473E+03 1.18133E-08 1.11072E-10
 -1       865-4.08903E+05 1.04008E+01-9.65722E+02 1.98327E+04 1.81594E-08 1.80593E-09
 -1       866-4.08706E+05 8.95841E+01-1.71317E+03 3.75546E+03 1.15779E-09 1.02460E-09
 -1       867-4.09385E+05-7.60100E+02-3.73012E+03 1.97609E+04 7.45672E-10-2.03039E-09
 -1       868-4.08250E+05 6.67907E+02-6.63174E+03 3.80693E+03 1.02309E-08-1.20576E-09
 -1       869-4.13671E+05-8.22708E+03-1.64573E+04 1.95885E+04-1.28175E-08-2.80011E-09
 -1       870-4.04362E+05 6.24166E+03-2.55418E+04 3.92989E+03 3.03862E-09-2.62116E-09
 -1       871-3.64257E+03-3.35227E+04-6.32522E+03 9.42733E+04 3.11684E-09 4.52928E-09
 -1       872-1.22820E+03-3.46310E+04-1.83776E+03 1.09800E+05-8.20819E-10 1.04410E-09
 -1       873-1.44800E+01-3.42440E+04 1.86749E+03 9.40970E+04 2.52430E-09 1.49389E-08
 -1       874 2.15025E+03-3.27461E+04 6.95192E+03 1.09885E+05-2.84535E-09 2.88654E-08
 -1       875 7.32264E+03-3.54918E+04 1.50363E+04 9.42053E+04 8.64020E-11 1.84489E-08
 -1       876 4.70540E+05 5.84240E+04 4.46903E+04 1.85136E+05 7.00993E-09-2.55022E-09
 -1       877 4.80895E+05 9.43687E+04 2.83984E+04 1.91485E+05 2.50839E-09 2.76486E-10
 -1       878 4.78305E+05 6.91343E+04 1.05539E+04 1.83938E+05 4.72994E-09 3.46972E-09
 -1       879 4.71981E+05 8.06882E+04 5.85376E+03 1.93376E+05-5.74141E-09-1.27659E-09
 -1       880 4.79171E+05 7.03666E+04 2.46660E+03 1.83883E+05 4.09955E-10 2.00998E-10
 -1       881 4.70988E+05 7.91427E+04 1.33172E+03 1.93448E+05-7.66534E-10-2.28530E-09
 -1       882 4.79251E+05 7.05326E+04 7.06626E+02 1.83910E+05 1.05409E-08 2.88367E-09
 -1       883 4.70909E+05 7.89644E+04 6.09313E+02 1.93406E+05-4.22565E-09 4.68656E-09
 -1       884 4.79237E+05 7.05407E+04 7.90640E+02 1.83921E+05-4.31280E-09 6.18837E-09
 -1       885 4.71050E+05 7.91397E+04 1.56389E+03 1.93396E+05 2.07374E-08 4.12865E-09
 -1       886 4.79112E+05 7.03704E+04 2.93619E+03 1.83916E+05 8.01799E-09-7.80642E-09
 -1       887 4.72280E+05 8.09364E+04 6.98591E+03 1.93242E+05-9.81646E-09-1.03570E-08
 -1       888 4.78046E+05 6.89297E+04 1.26075E+04 1.84011E+05-3.85106E-09-1.22054E-09
 -1       889 4.82967E+05 9.72290E+04 3.39206E+04 1.90914E+05 3.24559E-09-2.93130E-09
 -1       890 4.68744E+05 5.61653E+04 5.33906E+04 1.85467E+05 9.17498E-09-4.22006E-10
 -1       891 1.74425E+03-2.08485E+05-7.99110E+03 1.96963E+04 1.67211E-09 3.39742E-09
 -1       892-2.98667E+03-2.11307E+05-6.48177E+03 8.54083E+04 1.82717E-09-7.52038E-10
 -1       893 4.89147E+02-2.09390E+05-5.17488E+03 1.95922E+04-1.29603E-11 3.14324E-09
 -1       894-4.63198E+03-2.12250E+05-9.32175E+03 8.53989E+04-7.74889E-10 6.22651E-09
 -1       895 3.09786E+03-2.07525E+05-1.33311E+04 1.97052E+04 5.15502E-09 4.41469E-09
 -1       896 7.41088E+05-5.48248E+03 1.27994E+04 2.18199E+03 1.43643E-10 1.80808E-09
 -1       897 7.46841E+05 6.34376E+03 9.08493E+03-6.12319E+03 6.53557E-11 1.10390E-10
 -1       898 7.43316E+05-8.47737E+02 3.32833E+03 9.68496E+02 2.96438E-11-4.01769E-10
 -1       899 7.44232E+05 9.82960E+02 2.11280E+03-4.30034E+03 1.02915E-10-1.14028E-09
 -1       900 7.43690E+05-1.32033E+02 9.02041E+02 3.59125E+02 5.36907E-10-1.55060E-09
 -1       901 7.43798E+05 1.67426E+02 6.11374E+02-3.49541E+03 4.26212E-10-1.94348E-09
 -1       902 7.43747E+05-3.24540E+01 4.42584E+02 1.63555E+02 3.71761E-10-1.71404E-09
 -1       903 7.43779E+05 1.23174E+02 6.19466E+02-3.45777E+03 2.76177E-10-1.57651E-09
 -1       904 7.43709E+05-8.78643E+01 9.66098E+02 3.21476E+02-9.27400E-11-1.63521E-09
 -1       905 7.44090E+05 6.48152E+02 2.12669E+03-4.17580E+03-5.62949E-10-1.18592E-09
 -1       906 7.43438E+05-5.58016E+02 3.62909E+03 8.81601E+02 3.18778E-10-8.10360E-10
 -1       907 7.45937E+05 4.19002E+03 8.91752E+03-5.87121E+03 9.32985E-10 4.60545E-10
 -1       908 7.41868E+05-3.62549E+03 1.41986E+04 2.01692E+03 3.03601E-10 1.24965E-09
 -1       909 7.56921E+05 2.71307E+04 3.88152E+04-9.09986E+03-1.05302E-09 2.24827E-09
 -1       910 7.32472E+05-2.34414E+04 5.48280E+04 4.11014E+03-4.24563E-10 4.43470E-09
 -1       911 1.59321E+05-1.55148E+03 3.11393E+03 3.66031E+03 1.63584E-09 3.55408E-09
 -1       912 1.63278E+05 1.73909E+03 2.66570E+03-1.44802E+04 2.44370E-10-1.02659E-09
 -1       913 1.60522E+05-2.40137E+02 7.95454E+02 2.83971E+03-7.48571E-10-2.79454E-09
 -1       914 1.61584E+05 2.88222E+02 6.57683E+02-1.31889E+04-5.96486E-10-5.85131E-09
 -1       915 1.60921E+05-3.85207E+01 2.53453E+02 2.36891E+03 2.56770E-09-7.00351E-09
 -1       916 1.61044E+05 9.33648E+01 2.41183E+02-1.25693E+04 4.51249E-09-8.07861E-09
 -1       917 1.61020E+05-1.65714E+01 2.53908E+02 2.22020E+03 3.98811E-09-8.20227E-09
 -1       918 1.61079E+05 1.28534E+02 4.68800E+02-1.25840E+04 2.36798E-09-7.74372E-09
 -1       919 1.60887E+05-7.43400E+01 7.73919E+02 2.38363E+03 1.69774E-09-6.94089E-09
 -1       920 1.61784E+05 5.63155E+02 1.88053E+03-1.32344E+04 1.69794E-09-5.30213E-09
 -1       921 1.60359E+05-4.80953E+02 3.00190E+03 2.87041E+03 2.91436E-10-3.65458E-09
 -1       922 1.64310E+05 3.55006E+03 7.84770E+03-1.45665E+04 7.24015E-10 3.94039E-10
 -1       923 1.58458E+05-3.12120E+03 1.18854E+04 3.71590E+03-1.22213E-10 2.97632E-09
 -1       924 1.75352E+05 2.31816E+04 3.36504E+04-1.67377E+04-1.19326E-09 7.84303E-09
 -1       925 1.49495E+05-2.01717E+04 4.62620E+04 5.04259E+03-1.68393E-09 1.25674E-08
 -1       926-8.56966E+05 1.87479E+04-4.41381E+04-1.12788E+04 3.90791E-09 1.86119E-08
 -1       927-8.75621E+05-2.16195E+04-3.10164E+04 1.65144E+04-1.22652E-08 1.72768E-08
 -1       928-8.64906E+05 2.83119E+03-1.15336E+04-8.61262E+03 1.44041E-09 1.47406E-08
 -1       929-8.65696E+05-3.26463E+03-6.76708E+03 8.81048E+03 9.12246E-09 9.38826E-09
 -1       930-8.66753E+05 3.57085E+02-3.12165E+03-3.57431E+03 4.61341E-10 7.41318E-09
 -1       931-8.63634E+05-4.55183E+02-1.12971E+03-2.04946E+03 1.38471E-10 2.10127E-09
 -1       932-8.66905E+05-1.42974E+01-8.10083E+02 2.24705E+03 1.26397E-09-9.88564E-10
 -1       933-8.64170E+05 5.36502E+01 2.68746E+02-1.25983E+04-1.03955E-09-5.81178E-09
 -1       934-8.66295E+05-9.05637E+01 3.73827E+02 6.97407E+03-1.84571E-10-7.67653E-09
 -1       935-8.65200E+05 5.52949E+02 1.47754E+03-1.94302E+04-3.30502E-09-1.12371E-08
 -1       936-8.65996E+05-4.19168E+02 2.55146E+03 9.07940E+03 3.37835E-10-1.12086E-08
 -1       937-8.64153E+05 3.12695E+03 6.37821E+03-2.03394E+04-5.51844E-09-1.17124E-08
 -1       938-8.67359E+05-2.64105E+03 1.01057E+04 7.88340E+03-5.25381E-09-1.06056E-08
 -1       939-8.55378E+05 1.95995E+04 2.79930E+04-1.50528E+04-2.60317E-09-6.97173E-09
 -1       940-8.74650E+05-1.69171E+04 3.90947E+04 3.79235E+03-8.27526E-10-3.03407E-09
 -1       941 4.57873E+06-2.25473E+05 5.30802E+05 4.84013E+02 1.70793E-08 5.61704E-09
 -1       942 4.80681E+06 2.61390E+05 3.73872E+05 2.28804E+03 1.73349E-08-4.01633E-09
 -1       943 4.66714E+06-3.49448E+04 1.37636E+05 1.10818E+03 7.86610E-09 6.54836E-11
 -1       944 4.70442E+06 4.04784E+04 8.61882E+04 1.52021E+03 1.43057E-09-1.63709E-09
 -1       945 4.68167E+06-5.40535E+03 3.55426E+04 1.25199E+03 4.03285E-09 4.43470E-09
 -1       946 4.68773E+06 6.34873E+03 2.12461E+04 1.33790E+03 3.69446E-09 8.49445E-09
 -1       947 4.68405E+06-9.26427E+02 1.06717E+04 1.29058E+03 1.61136E-09 5.85396E-09
 -1       948 4.68531E+06 1.72307E+03 8.82123E+03 1.26797E+03 1.58381E-09 2.67953E-09
 -1       949 4.68414E+06-7.92680E+02 9.40443E+03 1.32194E+03 1.11572E-09-6.38693E-09
 -1       950 4.68710E+06 5.18660E+03 1.76011E+04 1.13216E+03 3.83851E-09 7.38487E-09
 -1       951 4.68223E+06-4.38008E+03 2.89514E+04 1.42638E+03 8.43531E-10-4.67480E-09
 -1       952 4.70058E+06 3.27600E+04 6.98400E+04 5.79951E+02-4.34814E-09-3.51429E-09
 -1       953 4.67048E+06-2.82771E+04 1.11407E+05 1.87406E+03-7.58347E-09 2.27737E-09
 -1       954 4.78343E+06 2.11508E+05 3.02538E+05-1.85530E+03-3.34457E-09-3.67072E-09
 -1       955 4.59887E+06-1.82461E+05 4.29327E+05 3.86072E+03-1.33920E-08 1.19326E-09
 -1       956-2.51157E+05-4.24878E+03-8.71777E+03 3.62673E+04-8.02174E-09 2.25828E-09
 -1       957-2.52738E+05-1.32456E+03-4.38904E+03 4.19219E+04-2.82307E-09-1.50817E-09
 -1       958-2.51884E+05-1.40623E+02-1.97445E+03 3.60453E+04 6.45014E-09-4.20073E-09
 -1       959-2.52043E+05 1.70078E+01-1.00290E+03 4.21649E+04-1.68166E-09-7.93989E-10
 -1       960-2.51984E+05 7.50623E+01-4.87323E+02 3.60213E+04-6.10362E-09-9.27230E-10
 -1       961-2.52011E+05 9.49889E+01-2.56445E+02 4.21918E+04-1.30713E-08-3.78350E-10
 -1       962-2.52019E+05 8.82397E+01-1.44581E+02 3.60179E+04-5.93718E-09-1.13960E-09
 -1       963-2.52028E+05 1.07297E+02-1.11081E+02 4.21964E+04-9.70795E-09-3.03771E-10
 -1       964-2.52035E+05 9.75330E+01-1.29558E+02 3.60167E+04-1.52363E-08-3.24872E-09
 -1       965-2.52046E+05 1.14808E+02-2.19339E+02 4.21966E+04-1.59250E-08 1.99634E-10
 -1       966-2.52033E+05 1.03361E+02-4.09754E+02 3.60176E+04-1.93004E-08-2.45473E-09
 -1       967-2.52104E+05 6.62197E+01-8.42922E+02 4.21847E+04-1.39398E-08 1.07821E-09
 -1       968-2.51974E+05-6.21730E+01-1.65662E+03 3.60289E+04-6.50834E-09 2.52385E-11
 -1       969-2.52716E+05-1.04714E+03-3.68723E+03 4.20683E+04-4.08363E-10 1.28648E-09
 -1       970-2.51383E+05-3.50534E+03-7.32139E+03 3.61390E+04-2.55113E-10-3.09683E-09
 -1       971-5.47449E+05 8.29836E+03-3.40102E+04 3.81422E+03-5.88079E-09 2.28283E-09
 -1       972-5.59795E+05-1.09987E+04-2.19107E+04 1.92371E+04-4.88035E-09 6.22640E-09
 -1       973-5.52625E+05 8.75299E+02-8.83006E+03 3.62412E+03-7.40283E-09 5.52927E-09
 -1       974-5.54088E+05-1.05543E+03-4.96084E+03 1.95269E+04-4.63842E-10 5.56906E-09
 -1       975-5.53232E+05 1.06224E+02-2.27367E+03 3.52250E+03 1.08525E-09 9.62814E-10
 -1       976-5.53454E+05-2.55970E+01-1.26590E+03 1.96851E+04-6.98719E-09 6.40654E-09
 -1       977-5.53313E+05 3.11246E+01-7.37396E+02 3.46540E+03 8.28868E-09 2.37435E-09
 -1       978-5.53403E+05 7.25605E+01-6.59570E+02 1.97603E+04 2.26712E-08 1.28006E-09
 -1       979-5.53311E+05 3.66876E+01-8.63855E+02 3.44722E+03 2.75962E-09-2.45294E-10
 -1       980-5.53507E+05-5.15776E+01-1.60373E+03 1.97568E+04 1.08244E-08 4.45171E-09
 -1       981-5.53208E+05 1.43168E+02-2.93916E+03 3.46888E+03-8.28516E-09 3.95221E-09
 -1       982-5.54370E+05-1.38315E+03-6.46488E+03 1.96729E+04-4.95322E-09 6.59747E-09
 -1       983-5.52420E+05 1.15633E+03-1.15109E+04 3.53169E+03 2.98905E-09 1.53250E-09
 -1       984-5.61858E+05-1.43486E+04-2.85993E+04 1.94733E+04-7.87509E-09 3.64935E-09
 -1       985-5.45669E+05 1.08577E+04-4.43738E+04 3.67206E+03 9.82072E-09 2.31921E-09
 -3
    1PSTEP                        29          15           1          
  100CL  115 7.31672E-01         841                     0   15           1
 -4  DISP        4    1
 -5  D1          1    2    1    0
 -5  D2          1    2    2    0
 -5  D3          1    2    3    0
 -5  ALL         1    2    0    0    1ALL
 -1         1 9.02083E-05 0.00000E+00 0.00000E+00
 -1         2 6.98333E-05 0.00000E+00 0.00000E+00
 -1         3 5.68906E-05 0.00000E+00 0.00000E+00
 -1         4 5.01358E-05 0.00000E+00 0.00000E+00
 -1         5 4.71535E-05 0.00000E+00 0.00000E+00
 -1         8 7.10693E-05-8.89334E-07 0.00000E+00
 -1         9 5.54291E-05 8.88484E-07 0.00000E+00
 -1        10 5.15716E-05-2.52027E-06 0.00000E+00
 -1        11 4.84945E-05-5.11441E-07 0.00000E+00
 -1        12 4.50727E-05 1.26105E-06 0.00000E+00
 -1        15 3.45401E-05-1.42777E-06 0.00000E+00
 -1        16 4.07740E-05 8.73777E-07 0.00000E+00
 -1        17 3.68415E-05-5.03819E-06 0.00000E+00
 -1        18 3.75232E-05-1.06547E-06 0.00000E+00
 -1        19 3.97134E-05 2.49036E-06 0.00000E+00
 -1        20 4.03391E-05 2.64185E-05 0.00000E+00
 -1        21 4.03091E-05 6.32003E-05 0.00000E+00
 -1        22 9.32555E-06-9.98634E-07 0.00000E+00
 -1        23 1.26477E-05 1.23418E-06 0.00000E+00
 -1        24 1.52193E-05-5.86853E-06 0.00000E+00
 -1        25 3.23756E-05-7.56113E-07 0.00000E+00
 -1        26 3.45221E-05 3.29389E-06 0.00000E+00
 -1        27 3.24750E-05 2.54944E-05 0.00000E+00
 -1        28 3.00445E-05 6.23288E-05 0.00000E+00
 -1        29 0.00000E+00 0.00000E+00 0.00000E+00
 -1        30 4.28580E-06 1.63052E-06 0.00000E+00
 -1        31 5.06502E-06-5.13193E-06 0.00000E+00
 -1        32 0.00000E+00 0.00000E+00 0.00000E+00
 -1        33 2.72328E-05 5.31396E-06 0.00000E+00
 -1        34 2.57381E-05 2.54118E-05 0.00000E+00
 -1        35 2.24562E-05 6.18658E-05 0.00000E+00
 -1        36 8.89738E-05 8.37471E-20-2.64698E-23
 -1        37 8.77003E-05 5.82377E-19-1.32349E-23
 -1        38 8.64293E-05 1.31191E-18 0.00000E+00
 -1        39 8.51508E-05 1.98485E-18 0.00000E+00
 -1        40 8.38721E-05 2.37738E-18 0.00000E+00
 -1        41 8.25920E-05 2.17695E-18 0.00000E+00
 -1        42 8.13117E-05 1.35046E-18-5.29396E-23
 -1        43 8.00311E-05 2.10987E-19 0.00000E+00
 -1        44 7.87505E-05-9.82038E-19 5.29396E-23
 -1        45 7.74701E-05-1.78689E-18 2.64698E-23
 -1        46 7.61897E-05-2.01682E-18 0.00000E+00
 -1        47 7.49104E-05-1.71392E-18-1.32349E-23
 -1        48 7.36313E-05-1.19536E-18-2.64698E-23
 -1        49 7.23573E-05-5.10320E-19 1.32349E-23
 -1        50 7.10816E-05-4.15733E-20 0.00000E+00
 -1        51 8.87770E-05-1.51143E-07 0.00000E+00
 -1        52 8.63897E-05-2.95300E-07 0.00000E+00
 -1        53 8.32312E-05-4.38768E-07 0.00000E+00
 -1        54 7.94952E-05-5.83636E-07 0.00000E+00
 -1        55 7.53761E-05-7.31679E-07-5.79026E-24
 -1        56 8.84206E-05-7.79816E-07 2.64698E-23
 -1        57 8.66265E-05-1.74265E-06 0.00000E+00
 -1        58 8.48677E-05-2.78859E-06-5.29396E-23
 -1        59 8.31003E-05-3.84563E-06 0.00000E+00
 -1        60 8.13058E-05-4.83158E-06 5.29396E-23
 -1        61 7.94544E-05-5.67185E-06-2.64698E-23
 -1        62 7.75237E-05-6.30160E-06 0.00000E+00
 -1        63 7.54929E-05-6.66530E-06 0.00000E+00
 -1        64 7.33486E-05-6.72677E-06 0.00000E+00
 -1        65 7.10821E-05-6.46211E-06 0.00000E+00
 -1        66 6.86932E-05-5.87158E-06 5.29396E-23
 -1        67 6.61886E-05-4.96804E-06 0.00000E+00
 -1        68 6.35805E-05-3.78849E-06 0.00000E+00
 -1        69 6.08972E-05-2.37669E-06 0.00000E+00
 -1        70 5.81486E-05-8.02488E-07 0.00000E+00
 -1        71 6.90319E-05-7.13327E-20 0.00000E+00
 -1        72 6.82220E-05-3.33792E-20 1.32349E-23
 -1        73 6.74127E-05 8.03234E-20-2.64698E-23
 -1        74 6.66018E-05 2.45795E-19 0.00000E+00
 -1        75 6.57909E-05 3.75349E-19-2.64698E-23
 -1        76 6.49796E-05 4.78102E-19 0.00000E+00
 -1        77 6.41684E-05 5.56937E-19 0.00000E+00
 -1        78 6.33570E-05 5.23715E-19 0.00000E+00
 -1        79 6.25457E-05 3.36879E-19 0.00000E+00
 -1        80 6.17345E-05 1.42072E-19 0.00000E+00
 -1        81 6.09233E-05 9.65998E-20 0.00000E+00
 -1        82 6.01127E-05 7.96864E-20 0.00000E+00
 -1        83 5.93021E-05 8.28107E-20-2.64698E-23
 -1        84 5.84942E-05 1.06475E-19 0.00000E+00
 -1        85 5.76854E-05 2.73698E-20 2.64698E-23
 -1        86 6.91625E-05 1.29005E-07-6.61744E-24
 -1        87 6.71966E-05 2.86538E-07 0.00000E+00
 -1        88 6.43977E-05 4.40143E-07-2.06795E-25
 -1        89 6.12215E-05 5.94580E-07-1.03398E-25
 -1        90 5.80909E-05 7.50708E-07 3.30872E-24
 -1        91 7.26088E-05-9.09307E-06 0.00000E+00
 -1        92 8.16828E-05-3.58720E-05-6.61744E-24
 -1        93 9.50966E-05-7.53942E-05 0.00000E+00
 -1        94 1.10969E-04-1.22392E-04 0.00000E+00
 -1        95 1.26873E-04-1.69486E-04 0.00000E+00
 -1        96 1.40383E-04-2.09292E-04-6.61744E-24
 -1        97 1.49601E-04-2.36486E-04 0.00000E+00
 -1        98 1.52561E-04-2.46065E-04 0.00000E+00
 -1        99 1.48854E-04-2.37841E-04 1.32349E-23
 -1       100 1.38208E-04-2.12006E-04-6.61744E-24
 -1       101 1.22352E-04-1.73467E-04-1.32349E-23
 -1       102 1.03286E-04-1.27334E-04 0.00000E+00
 -1       103 8.40306E-05-8.07579E-05 0.00000E+00
 -1       104 6.76212E-05-4.08935E-05 6.61744E-24
 -1       105 5.61800E-05-1.30937E-05-1.32349E-23
 -1       106 5.64657E-05-8.32226E-20 1.32349E-23
 -1       107 5.60425E-05-1.23395E-19 6.61744E-24
 -1       108 5.56193E-05-1.13303E-19 0.00000E+00
 -1       109 5.51964E-05-5.21645E-20 0.00000E+00
 -1       110 5.47734E-05-7.96976E-20 0.00000E+00
 -1       111 5.43506E-05-1.04619E-19-6.61744E-24
 -1       112 5.39278E-05-1.22692E-19 0.00000E+00
 -1       113 5.35050E-05-1.41549E-19 0.00000E+00
 -1       114 5.30822E-05-1.53835E-19 0.00000E+00
 -1       115 5.26595E-05-1.91135E-19-6.61744E-24
 -1       116 5.22368E-05-1.98849E-19-1.32349E-23
 -1       117 5.18144E-05-1.84059E-19 6.61744E-24
 -1       118 5.13920E-05-7.39884E-20-1.32349E-23
 -1       119 5.09711E-05 2.47141E-20 6.61744E-24
 -1       120 5.05497E-05 2.19190E-20-1.32349E-23
 -1       121 5.67808E-05-4.21541E-07 1.32349E-23
 -1       122 5.64108E-05-8.41131E-07 0.00000E+00
 -1       123 5.57416E-05-1.26090E-06-1.32349E-23
 -1       124 5.47360E-05-1.68051E-06 0.00000E+00
 -1       125 5.33575E-05-2.10051E-06-1.32349E-23
 -1       126 5.71874E-05-2.13823E-06 0.00000E+00
 -1       127 5.89351E-05-8.18687E-06-6.61744E-24
 -1       128 6.17453E-05-1.71287E-05 1.32349E-23
 -1       129 6.52190E-05-2.78909E-05 0.00000E+00
 -1       130 6.88025E-05-3.89551E-05 1.32349E-23
 -1       131 7.19416E-05-4.87972E-05 6.61744E-24
 -1       132 7.41851E-05-5.61926E-05 0.00000E+00
 -1       133 7.50910E-05-5.99640E-05 6.61744E-24
 -1       134 7.45340E-05-5.98159E-05 1.32349E-23
 -1       135 7.24128E-05-5.55252E-05 0.00000E+00
 -1       136 6.90088E-05-4.78727E-05 0.00000E+00
 -1       137 6.46338E-05-3.76975E-05 0.00000E+00
 -1       138 5.98436E-05-2.64482E-05 0.00000E+00
 -1       139 5.52070E-05-1.55910E-05 6.61744E-24
 -1       140 5.12508E-05-6.49912E-06 1.32349E-23
 -1       141 4.99455E-05-7.74648E-20 0.00000E+00
 -1       142 4.97572E-05-1.31929E-19 0.00000E+00
 -1       143 4.95688E-05-1.07985E-19 0.00000E+00
 -1       144 4.93808E-05-6.06897E-20 0.00000E+00
 -1       145 4.91927E-05-4.12093E-20 0.00000E+00
 -1       146 4.90048E-05 3.52472E-21 0.00000E+00
 -1       147 4.88169E-05 4.67376E-20 0.00000E+00
 -1       148 4.86290E-05 2.89952E-20 3.30872E-24
 -1       149 4.84411E-05 1.48054E-20 0.00000E+00
 -1       150 4.82534E-05 1.60706E-20 3.30872E-24
 -1       151 4.80658E-05-1.38252E-20 0.00000E+00
 -1       152 4.78787E-05-4.30381E-20 0.00000E+00
 -1       153 4.76918E-05-7.73474E-20 0.00000E+00
 -1       154 4.75078E-05-7.55695E-20 0.00000E+00
 -1       155 4.73228E-05-2.86630E-20 1.03398E-25
 -1       156 5.05355E-05-8.78615E-08 6.61744E-24
 -1       157 5.16676E-05-1.70195E-07 1.65436E-24
 -1       158 5.27740E-05-2.52958E-07-3.30872E-24
 -1       159 5.30968E-05-3.35179E-07 0.00000E+00
 -1       160 5.19104E-05-4.17787E-07 6.61744E-24
 -1       161 4.98989E-05-1.36893E-07 6.61744E-24
 -1       162 4.96923E-05-3.56451E-07 0.00000E+00
 -1       163 4.95054E-05-6.28711E-07 6.61744E-24
 -1       164 4.93269E-05-9.23465E-07 0.00000E+00
 -1       165 4.91441E-05-1.20692E-06 0.00000E+00
 -1       166 4.89445E-05-1.44546E-06-3.30872E-24
 -1       167 4.87180E-05-1.61236E-06 6.61744E-24
 -1       168 4.84550E-05-1.68165E-06 3.30872E-24
 -1       169 4.81508E-05-1.64135E-06 0.00000E+00
 -1       170 4.78016E-05-1.48060E-06 0.00000E+00
 -1       171 4.74098E-05-1.20605E-06 6.61744E-24
 -1       172 4.69788E-05-8.25314E-07 0.00000E+00
 -1       173 4.65167E-05-3.61747E-07 6.61744E-24
 -1       174 4.60358E-05 1.61903E-07-1.65436E-24
 -1       175 4.55438E-05 7.11336E-07 0.00000E+00
 -1       191 4.70774E-05 2.09942E-07 0.00000E+00
 -1       192 4.68882E-05 4.20346E-07-1.32349E-23
 -1       193 4.65891E-05 6.30836E-07 0.00000E+00
 -1       194 4.61840E-05 8.41271E-07 0.00000E+00
 -1       195 4.56769E-05 1.05150E-06-6.61744E-24
 -1       251 7.04423E-05 9.99294E-06 0.00000E+00
 -1       252 6.95512E-05 3.55371E-05 0.00000E+00
 -1       253 6.83747E-05 7.11194E-05 0.00000E+00
 -1       254 6.70064E-05 1.11880E-04-6.61744E-24
 -1       255 6.56790E-05 1.51545E-04 0.00000E+00
 -1       256 6.46058E-05 1.83867E-04 6.61744E-24
 -1       257 6.38183E-05 2.04601E-04 1.32349E-23
 -1       258 6.32249E-05 2.09775E-04 0.00000E+00
 -1       259 6.25959E-05 1.99612E-04 1.32349E-23
 -1       260 6.17180E-05 1.74700E-04-6.61744E-24
 -1       261 6.05563E-05 1.39612E-04 1.32349E-23
 -1       262 5.91997E-05 9.91550E-05 6.61744E-24
 -1       263 5.78770E-05 5.96072E-05 0.00000E+00
 -1       264 5.68038E-05 2.72243E-05 0.00000E+00
 -1       265 5.60147E-05 6.30730E-06 0.00000E+00
 -1       266 6.78506E-05-9.71283E-07-6.61744E-24
 -1       267 6.49755E-05-1.04041E-06 0.00000E+00
 -1       268 6.13113E-05-1.11292E-06-3.30872E-24
 -1       269 5.57279E-05-1.19118E-06-8.27181E-25
 -1       270 4.71575E-05-1.29042E-06 0.00000E+00
 -1       271 6.83539E-05 1.56217E-06 0.00000E+00
 -1       272 6.58629E-05 3.25575E-06 0.00000E+00
 -1       273 6.36269E-05 4.27811E-06 5.29396E-23
 -1       274 6.16063E-05 4.70383E-06 0.00000E+00
 -1       275 5.97748E-05 4.62388E-06 5.29396E-23
 -1       276 5.80952E-05 4.13531E-06 0.00000E+00
 -1       277 5.65291E-05 3.34284E-06 0.00000E+00
 -1       278 5.50356E-05 2.35622E-06 0.00000E+00
 -1       279 5.35724E-05 1.28857E-06 0.00000E+00
 -1       280 5.20969E-05 2.54539E-07-2.64698E-23
 -1       281 5.05664E-05-6.31994E-07 5.29396E-23
 -1       282 4.89402E-05-1.25945E-06 0.00000E+00
 -1       283 4.71777E-05-1.52116E-06 5.29396E-23
 -1       284 4.52477E-05-1.31429E-06-2.64698E-23
 -1       285 4.31063E-05-5.49785E-07 0.00000E+00
 -1       286 5.51824E-05 2.96731E-06 0.00000E+00
 -1       287 5.49414E-05 4.38420E-06 0.00000E+00
 -1       288 5.47009E-05 5.12641E-06 0.00000E+00
 -1       289 5.44615E-05 5.18780E-06 0.00000E+00
 -1       290 5.42220E-05 4.64389E-06-6.61744E-24
 -1       291 5.39823E-05 3.57612E-06 3.30872E-24
 -1       292 5.37422E-05 2.12878E-06 0.00000E+00
 -1       293 5.35017E-05 4.49790E-07 0.00000E+00
 -1       294 5.32611E-05-1.28507E-06 0.00000E+00
 -1       295 5.30207E-05-2.89951E-06 3.30872E-24
 -1       296 5.27807E-05-4.23169E-06 6.61744E-24
 -1       297 5.25408E-05-5.12252E-06 0.00000E+00
 -1       298 5.23013E-05-5.46583E-06 0.00000E+00
 -1       299 5.20605E-05-5.16080E-06 3.30872E-24
 -1       300 5.18197E-05-4.18444E-06 0.00000E+00
 -1       301 5.29863E-05 8.75997E-07-6.61744E-24
 -1       302 5.05321E-05 8.79037E-07 1.65436E-24
 -1       303 4.80750E-05 8.84814E-07 0.00000E+00
 -1       304 4.56238E-05 8.90135E-07-1.65436E-24
 -1       305 4.31873E-05 8.91715E-07 0.00000E+00
 -1       306 5.35746E-05 2.45823E-06 0.00000E+00
 -1       307 5.19729E-05 3.25516E-06 0.00000E+00
 -1       308 5.06239E-05 3.38324E-06 0.00000E+00
 -1       309 4.94835E-05 2.94025E-06 0.00000E+00
 -1       310 4.85159E-05 2.03462E-06-2.64698E-23
 -1       311 4.76784E-05 7.78821E-07 0.00000E+00
 -1       312 4.69279E-05-7.10057E-07 2.64698E-23
 -1       313 4.62196E-05-2.31228E-06-1.32349E-23
 -1       314 4.55084E-05-3.90661E-06 0.00000E+00
 -1       315 4.47491E-05-5.37191E-06 0.00000E+00
 -1       316 4.38971E-05-6.58877E-06 0.00000E+00
 -1       317 4.29096E-05-7.44058E-06 0.00000E+00
 -1       318 4.17440E-05-7.81554E-06 0.00000E+00
 -1       319 4.03655E-05-7.60581E-06-1.32349E-23
 -1       320 3.87295E-05-6.71495E-06 2.64698E-23
 -1       321 5.13708E-05-9.81726E-07 0.00000E+00
 -1       322 5.11795E-05-3.74690E-07-3.30872E-24
 -1       323 5.09878E-05-5.94725E-07 6.61744E-24
 -1       324 5.07974E-05-1.53105E-06-3.30872E-24
 -1       325 5.06063E-05-3.00413E-06 6.61744E-24
 -1       326 5.04151E-05-4.83025E-06-3.30872E-24
 -1       327 5.02236E-05-6.79192E-06-6.61744E-24
 -1       328 5.00324E-05-8.67055E-06-3.30872E-24
 -1       329 4.98417E-05-1.02555E-05 0.00000E+00
 -1       330 4.96516E-05-1.13384E-05-3.30872E-24
 -1       331 4.94619E-05-1.17591E-05 0.00000E+00
 -1       332 4.92722E-05-1.13624E-05 0.00000E+00
 -1       333 4.90817E-05-1.00715E-05 0.00000E+00
 -1       334 4.88893E-05-7.81642E-06 3.30872E-24
 -1       335 4.86944E-05-4.61984E-06-6.61744E-24
 -1       336 4.94315E-05-2.94068E-06 0.00000E+00
 -1       337 4.70845E-05-3.36207E-06 0.00000E+00
 -1       338 4.45908E-05-3.78359E-06 0.00000E+00
 -1       339 4.20114E-05-4.20425E-06 0.00000E+00
 -1       340 3.94079E-05-4.62513E-06 0.00000E+00
 -1       341 4.81112E-05 5.10396E-06-1.32349E-23
 -1       342 4.01892E-05 2.41611E-05 6.61744E-24
 -1       343 2.90845E-05 5.11746E-05 1.32349E-23
 -1       344 1.62093E-05 8.25297E-05 6.61744E-24
 -1       345 3.51236E-06 1.13447E-04 1.32349E-23
 -1       346-7.06530E-06 1.39156E-04 0.00000E+00
 -1       347-1.42249E-05 1.56280E-04 1.32349E-23
 -1       348-1.68073E-05 1.61595E-04 0.00000E+00
 -1       349-1.49473E-05 1.55050E-04 0.00000E+00
 -1       350-8.86838E-06 1.36843E-04 6.61744E-24
 -1       351 1.26098E-07 1.10347E-04 1.32349E-23
 -1       352 1.07434E-05 7.91359E-05 6.61744E-24
 -1       353 2.13047E-05 4.80889E-05-1.32349E-23
 -1       354 3.01338E-05 2.20843E-05-6.61744E-24
 -1       355 3.59578E-05 4.60404E-06 6.61744E-24
 -1       356 4.82710E-05 3.73383E-06 0.00000E+00
 -1       357 4.80510E-05 7.33518E-06 3.30872E-24
 -1       358 4.78332E-05 1.01873E-05 6.61744E-24
 -1       359 4.76175E-05 1.21911E-05-3.30872E-24
 -1       360 4.74032E-05 1.33391E-05 6.61744E-24
 -1       361 4.71895E-05 1.36311E-05 0.00000E+00
 -1       362 4.69757E-05 1.31590E-05-6.61744E-24
 -1       363 4.67615E-05 1.20215E-05 3.30872E-24
 -1       364 4.65467E-05 1.03886E-05-6.61744E-24
 -1       365 4.63315E-05 8.43492E-06 0.00000E+00
 -1       366 4.61161E-05 6.36949E-06 6.61744E-24
 -1       367 4.59015E-05 4.40226E-06 3.30872E-24
 -1       368 4.56876E-05 2.73272E-06 0.00000E+00
 -1       369 4.54774E-05 1.55771E-06 0.00000E+00
 -1       370 4.52667E-05 1.02111E-06 0.00000E+00
 -1       371 4.45294E-05-6.15935E-07-6.61744E-24
 -1       372 4.17379E-05-7.10378E-07 1.65436E-24
 -1       373 3.98891E-05-8.03011E-07 0.00000E+00
 -1       374 3.87487E-05-8.92475E-07-8.27181E-25
 -1       375 3.80496E-05-9.81806E-07 8.27181E-25
 -1       376 4.61149E-05 4.56706E-06-1.32349E-23
 -1       377 4.32346E-05 1.09372E-05 0.00000E+00
 -1       378 4.01650E-05 1.78039E-05 1.32349E-23
 -1       379 3.72129E-05 2.43599E-05 0.00000E+00
 -1       380 3.46597E-05 2.98701E-05 0.00000E+00
 -1       381 3.27771E-05 3.36163E-05 0.00000E+00
 -1       382 3.16809E-05 3.52826E-05-1.32349E-23
 -1       383 3.14716E-05 3.45881E-05-6.61744E-24
 -1       384 3.20469E-05 3.17919E-05 1.32349E-23
 -1       385 3.32926E-05 2.71896E-05-6.61744E-24
 -1       386 3.49441E-05 2.14902E-05-1.32349E-23
 -1       387 3.67322E-05 1.54222E-05 0.00000E+00
 -1       388 3.83563E-05 9.79909E-06 0.00000E+00
 -1       389 3.95219E-05 5.42789E-06 3.30872E-24
 -1       390 4.00286E-05 2.82613E-06 0.00000E+00
 -1       406 4.43330E-05 1.46701E-06 0.00000E+00
 -1       407 4.35140E-05 1.67330E-06 0.00000E+00
 -1       408 4.26288E-05 1.87950E-06 0.00000E+00
 -1       409 4.16911E-05 2.08518E-06 3.30872E-24
 -1       410 4.07147E-05 2.28974E-06 0.00000E+00
 -1       466 3.48521E-05 1.07722E-05-6.61744E-24
 -1       467 3.52259E-05 1.81481E-05 0.00000E+00
 -1       468 3.56188E-05 2.19371E-05 0.00000E+00
 -1       469 3.60206E-05 2.33159E-05 0.00000E+00
 -1       470 3.64236E-05 2.29189E-05-1.32349E-23
 -1       471 3.68261E-05 2.13506E-05 0.00000E+00
 -1       472 3.72271E-05 1.89513E-05 0.00000E+00
 -1       473 3.76269E-05 1.60475E-05 0.00000E+00
 -1       474 3.80258E-05 1.28512E-05 0.00000E+00
 -1       475 3.84242E-05 9.57013E-06 6.61744E-24
 -1       476 3.88228E-05 6.39245E-06 1.32349E-23
 -1       477 3.92209E-05 3.50810E-06-6.61744E-24
 -1       478 3.96202E-05 1.17330E-06-6.61744E-24
 -1       479 4.00145E-05-3.46509E-07 0.00000E+00
 -1       480 4.04119E-05-6.03043E-07 0.00000E+00
 -1       481 2.23759E-05-1.41367E-06 0.00000E+00
 -1       482 1.51280E-05-1.35006E-06 0.00000E+00
 -1       483 1.14693E-05-1.26698E-06-1.65436E-24
 -1       484 1.00857E-05-1.17800E-06 0.00000E+00
 -1       485 9.77171E-06-1.08776E-06 0.00000E+00
 -1       486 2.53290E-05 2.10886E-05 6.61744E-24
 -1       487 9.68022E-06 5.92985E-05 0.00000E+00
 -1       488-1.01945E-05 1.07515E-04 0.00000E+00
 -1       489-3.18797E-05 1.59915E-04-6.61744E-24
 -1       490-5.24372E-05 2.09698E-04-1.32349E-23
 -1       491-6.89951E-05 2.50091E-04 6.61744E-24
 -1       492-7.98109E-05 2.76528E-04 0.00000E+00
 -1       493-8.33991E-05 2.84637E-04 0.00000E+00
 -1       494-8.01036E-05 2.74344E-04 1.32349E-23
 -1       495-7.03868E-05 2.45918E-04 0.00000E+00
 -1       496-5.60979E-05 2.03983E-04 0.00000E+00
 -1       497-3.90133E-05 1.53463E-04 0.00000E+00
 -1       498-2.14359E-05 1.01414E-04-1.32349E-23
 -1       499-5.65055E-06 5.49303E-05 6.61744E-24
 -1       500 6.38573E-06 1.97193E-05 6.61744E-24
 -1       501 4.05186E-05 2.85489E-06 0.00000E+00
 -1       502 4.02725E-05 4.04986E-06 0.00000E+00
 -1       503 4.00265E-05 4.46317E-06 0.00000E+00
 -1       504 3.97821E-05 4.10704E-06 0.00000E+00
 -1       505 3.95372E-05 3.08783E-06 0.00000E+00
 -1       506 3.92921E-05 1.51850E-06-3.30872E-24
 -1       507 3.90463E-05-4.20717E-07 0.00000E+00
 -1       508 3.88003E-05-2.54597E-06 0.00000E+00
 -1       509 3.85543E-05-4.65063E-06 0.00000E+00
 -1       510 3.83087E-05-6.52824E-06 3.30872E-24
 -1       511 3.80638E-05-8.00016E-06 0.00000E+00
 -1       512 3.78196E-05-8.89176E-06-3.30872E-24
 -1       513 3.75757E-05-9.09929E-06 6.61744E-24
 -1       514 3.73318E-05-8.52589E-06-3.30872E-24
 -1       515 3.70871E-05-7.17007E-06 0.00000E+00
 -1       516 3.61899E-05 9.29783E-07 0.00000E+00
 -1       517 2.74635E-05 9.81010E-07 0.00000E+00
 -1       518 1.76530E-05 1.02174E-06-4.13590E-25
 -1       519 9.81167E-06 1.08239E-06 0.00000E+00
 -1       520 7.08738E-06 1.16641E-06 2.06795E-25
 -1       521 3.85439E-05 2.27396E-06-2.64698E-23
 -1       522 3.65480E-05 2.91113E-06-2.64698E-23
 -1       523 3.48012E-05 2.88971E-06 0.00000E+00
 -1       524 3.32580E-05 2.30473E-06-2.64698E-23
 -1       525 3.18843E-05 1.26562E-06-5.29396E-23
 -1       526 3.06362E-05-1.12969E-07 0.00000E+00
 -1       527 2.94697E-05-1.71034E-06 0.00000E+00
 -1       528 2.83384E-05-3.40247E-06 2.64698E-23
 -1       529 2.71956E-05-5.06369E-06 0.00000E+00
 -1       530 2.59946E-05-6.56886E-06 0.00000E+00
 -1       531 2.46896E-05-7.79549E-06-5.29396E-23
 -1       532 2.32374E-05-8.62541E-06 0.00000E+00
 -1       533 2.15954E-05-8.94743E-06 5.29396E-23
 -1       534 1.97310E-05-8.65659E-06 0.00000E+00
 -1       535 1.76004E-05-7.66291E-06 0.00000E+00
 -1       536 3.68692E-05-2.81631E-06 3.30872E-24
 -1       537 3.69097E-05-1.12688E-06-4.13590E-25
 -1       538 3.69506E-05 8.79642E-08 2.06795E-25
 -1       539 3.69938E-05 8.86319E-07 2.06795E-25
 -1       540 3.70374E-05 1.32600E-06 0.00000E+00
 -1       541 3.70814E-05 1.46471E-06 4.13590E-25
 -1       542 3.71256E-05 1.36003E-06 0.00000E+00
 -1       543 3.71697E-05 1.06944E-06 8.27181E-25
 -1       544 3.72139E-05 6.50338E-07 0.00000E+00
 -1       545 3.72581E-05 1.60065E-07 0.00000E+00
 -1       546 3.73022E-05-3.44056E-07-1.65436E-24
 -1       547 3.73464E-05-8.04708E-07 8.27181E-25
 -1       548 3.73906E-05-1.16457E-06 1.65436E-24
 -1       549 3.74348E-05-1.36627E-06 8.27181E-25
 -1       550 3.74791E-05-1.35235E-06 1.65436E-24
 -1       551 3.36113E-05-5.17519E-06 3.23117E-24
 -1       552 3.00228E-05-5.30871E-06-8.27181E-25
 -1       553 2.62311E-05-5.44239E-06 0.00000E+00
 -1       554 2.23947E-05-5.57752E-06 0.00000E+00
 -1       555 1.86722E-05-5.71560E-06 0.00000E+00
 -1       556 3.58775E-05-2.96587E-06 0.00000E+00
 -1       557 3.50947E-05-1.36345E-06 6.61744E-24
 -1       558 3.44728E-05-1.85842E-07 0.00000E+00
 -1       559 3.39925E-05 6.16554E-07 0.00000E+00
 -1       560 3.36348E-05 1.09345E-06 0.00000E+00
 -1       561 3.33805E-05 1.29505E-06 0.00000E+00
 -1       562 3.32107E-05 1.27159E-06 0.00000E+00
 -1       563 3.31065E-05 1.07341E-06 0.00000E+00
 -1       564 3.30490E-05 7.50865E-07 0.00000E+00
 -1       565 3.30192E-05 3.54360E-07 0.00000E+00
 -1       566 3.29983E-05-6.56949E-08 3.30872E-24
 -1       567 3.29674E-05-4.58880E-07-1.65436E-24
 -1       568 3.29077E-05-7.74787E-07 3.30872E-24
 -1       569 3.28007E-05-9.63067E-07-8.27181E-25
 -1       570 3.26281E-05-9.73423E-07-8.27181E-25
 -1       571 3.76546E-05-7.52083E-07 8.27181E-25
 -1       572 3.77902E-05-5.36136E-07 8.27181E-25
 -1       573 3.79269E-05-4.00169E-07 0.00000E+00
 -1       574 3.80643E-05-3.25845E-07 8.27181E-25
 -1       575 3.82019E-05-2.94759E-07 0.00000E+00
 -1       576 3.83395E-05-2.88389E-07 1.65436E-24
 -1       577 3.84772E-05-2.88210E-07-3.30872E-24
 -1       578 3.86149E-05-2.75678E-07 0.00000E+00
 -1       579 3.87526E-05-2.32252E-07-6.61744E-24
 -1       580 3.88903E-05-1.39385E-07 0.00000E+00
 -1       581 3.90280E-05 2.14645E-08 6.61744E-24
 -1       582 3.91656E-05 2.68830E-07-6.61744E-24
 -1       583 3.93032E-05 6.21229E-07 6.61744E-24
 -1       584 3.94405E-05 1.09701E-06 0.00000E+00
 -1       585 3.95775E-05 1.71442E-06-6.61744E-24
 -1       586 3.67794E-05-1.01280E-06 0.00000E+00
 -1       587 3.59267E-05-9.59765E-07 0.00000E+00
 -1       588 3.50121E-05-9.06813E-07 0.00000E+00
 -1       589 3.40835E-05-8.54390E-07-1.03398E-25
 -1       590 3.31890E-05-8.03128E-07 0.00000E+00
 -1       591 3.73077E-05-7.01213E-07 0.00000E+00
 -1       592 3.71100E-05-4.00244E-07 0.00000E+00
 -1       593 3.69306E-05-1.50826E-07 0.00000E+00
 -1       594 3.67658E-05 5.78464E-08 0.00000E+00
 -1       595 3.66120E-05 2.36573E-07 0.00000E+00
 -1       596 3.64654E-05 3.96089E-07 0.00000E+00
 -1       597 3.63219E-05 5.47117E-07 0.00000E+00
 -1       598 3.61776E-05 7.00370E-07-8.27181E-25
 -1       599 3.60284E-05 8.66564E-07 0.00000E+00
 -1       600 3.58703E-05 1.05641E-06 8.27181E-25
 -1       601 3.56994E-05 1.28062E-06 8.27181E-25
 -1       602 3.55117E-05 1.54991E-06-4.13590E-25
 -1       603 3.53032E-05 1.87502E-06 1.03398E-24
 -1       604 3.50704E-05 2.26671E-06-1.03398E-25
 -1       605 3.48098E-05 2.73579E-06 0.00000E+00
 -1       606 3.97575E-05 3.51204E-06 6.61744E-24
 -1       607 3.97983E-05 4.62513E-06 0.00000E+00
 -1       608 3.98381E-05 5.82428E-06-3.30872E-24
 -1       609 3.98773E-05 7.10340E-06 0.00000E+00
 -1       610 3.99163E-05 8.45634E-06 0.00000E+00
 -1       611 3.99552E-05 9.87684E-06 0.00000E+00
 -1       612 3.99939E-05 1.13586E-05 0.00000E+00
 -1       613 4.00326E-05 1.28954E-05 0.00000E+00
 -1       614 4.00712E-05 1.44810E-05 3.30872E-24
 -1       615 4.01097E-05 1.61091E-05 0.00000E+00
 -1       616 4.01481E-05 1.77733E-05 0.00000E+00
 -1       617 4.01865E-05 1.94676E-05 8.27181E-25
 -1       618 4.02248E-05 2.11854E-05 0.00000E+00
 -1       619 4.02631E-05 2.29207E-05 0.00000E+00
 -1       620 4.03012E-05 2.46672E-05 0.00000E+00
 -1       621 3.87458E-05 2.62456E-06 3.30872E-24
 -1       622 3.78052E-05 2.75959E-06 0.00000E+00
 -1       623 3.69022E-05 2.89469E-06 3.30872E-24
 -1       624 3.60471E-05 3.02950E-06 1.65436E-24
 -1       625 3.52504E-05 3.16354E-06 1.65436E-24
 -1       626 3.94033E-05 3.55759E-06-6.61744E-24
 -1       627 3.90555E-05 4.72027E-06 0.00000E+00
 -1       628 3.86745E-05 5.96966E-06 0.00000E+00
 -1       629 3.82645E-05 7.29577E-06-6.61744E-24
 -1       630 3.78293E-05 8.68857E-06-3.30872E-24
 -1       631 3.73728E-05 1.01379E-05 0.00000E+00
 -1       632 3.68988E-05 1.16335E-05 0.00000E+00
 -1       633 3.64112E-05 1.31653E-05 0.00000E+00
 -1       634 3.59138E-05 1.47229E-05 3.30872E-24
 -1       635 3.54106E-05 1.62963E-05-1.65436E-24
 -1       636 3.49052E-05 1.78752E-05 0.00000E+00
 -1       637 3.44015E-05 1.94494E-05 8.27181E-25
 -1       638 3.39033E-05 2.10087E-05-1.65436E-24
 -1       639 3.34142E-05 2.25428E-05 4.13590E-25
 -1       640 3.29376E-05 2.40416E-05 1.24077E-24
 -1       641 4.03401E-05 2.82388E-05 4.13590E-25
 -1       642 4.03395E-05 3.02514E-05 0.00000E+00
 -1       643 4.03386E-05 3.24287E-05 0.00000E+00
 -1       644 4.03372E-05 3.47431E-05 5.16988E-26
 -1       645 4.03356E-05 3.71671E-05 5.16988E-26
 -1       646 4.03337E-05 3.96730E-05 2.58494E-26
 -1       647 4.03317E-05 4.22335E-05 2.58494E-26
 -1       648 4.03296E-05 4.48212E-05 0.00000E+00
 -1       649 4.03275E-05 4.74084E-05 6.46235E-27
 -1       650 4.03254E-05 4.99678E-05 0.00000E+00
 -1       651 4.03234E-05 5.24719E-05 1.03398E-25
 -1       652 4.03214E-05 5.48933E-05 0.00000E+00
 -1       653 4.03196E-05 5.72043E-05 0.00000E+00
 -1       654 4.03172E-05 5.93776E-05-4.13590E-25
 -1       655 4.03155E-05 6.13854E-05-1.65436E-24
 -1       656 3.87558E-05 2.62694E-05 0.00000E+00
 -1       657 3.73781E-05 2.61128E-05 0.00000E+00
 -1       658 3.61339E-05 2.59567E-05 3.30872E-24
 -1       659 3.49503E-05 2.58006E-05 0.00000E+00
 -1       660 3.37549E-05 2.56441E-05 0.00000E+00
 -1       661 3.98295E-05 2.82912E-05-3.30872E-24
 -1       662 3.92691E-05 3.03173E-05 0.00000E+00
 -1       663 3.86600E-05 3.24721E-05 6.61744E-24
 -1       664 3.80115E-05 3.47340E-05 0.00000E+00
 -1       665 3.73310E-05 3.70808E-05 0.00000E+00
 -1       666 3.66268E-05 3.94910E-05-3.30872E-24
 -1       667 3.59069E-05 4.19428E-05 0.00000E+00
 -1       668 3.51794E-05 4.44149E-05-3.30872E-24
 -1       669 3.44524E-05 4.68857E-05 0.00000E+00
 -1       670 3.37339E-05 4.93338E-05 0.00000E+00
 -1       671 3.30320E-05 5.17377E-05-6.61744E-24
 -1       672 3.23548E-05 5.40757E-05 0.00000E+00
 -1       673 3.17103E-05 5.63263E-05 3.30872E-24
 -1       674 3.11057E-05 5.84671E-05 0.00000E+00
 -1       675 3.05509E-05 6.04765E-05-1.65436E-24
 -1       676 3.85929E-05 6.30548E-05 0.00000E+00
 -1       677 3.68784E-05 6.29084E-05-1.65436E-24
 -1       678 3.51659E-05 6.27622E-05 0.00000E+00
 -1       679 3.34559E-05 6.26164E-05 1.65436E-24
 -1       680 3.17486E-05 6.24705E-05 0.00000E+00
 -1       681 9.53221E-06-7.98036E-08 0.00000E+00
 -1       682 9.74422E-06 1.52612E-06-3.30872E-24
 -1       683 9.95497E-06 3.63688E-06-6.61744E-24
 -1       684 1.01662E-05 6.07467E-06 0.00000E+00
 -1       685 1.03770E-05 8.69950E-06 0.00000E+00
 -1       686 1.05879E-05 1.13731E-05 0.00000E+00
 -1       687 1.07990E-05 1.39629E-05-6.61744E-24
 -1       688 1.10107E-05 1.63355E-05 0.00000E+00
 -1       689 1.12231E-05 1.83322E-05 6.61744E-24
 -1       690 1.14364E-05 1.97912E-05-3.30872E-24
 -1       691 1.16504E-05 2.04882E-05 6.61744E-24
 -1       692 1.18641E-05 2.01923E-05-3.30872E-24
 -1       693 1.20765E-05 1.85573E-05-6.61744E-24
 -1       694 1.22829E-05 1.52254E-05 1.65436E-24
 -1       695 1.24800E-05 9.64243E-06 0.00000E+00
 -1       696 8.43989E-06-8.35813E-07 0.00000E+00
 -1       697 6.93937E-06-6.69275E-07-1.65436E-24
 -1       698 5.08734E-06-5.03536E-07 0.00000E+00
 -1       699 3.14470E-06-3.36757E-07-3.30872E-24
 -1       700 1.36430E-06-1.69786E-07 6.61744E-24
 -1       701 8.99664E-06-7.61044E-07 0.00000E+00
 -1       702 8.84117E-06-1.02124E-06 3.30872E-24
 -1       703 8.83890E-06-1.68801E-06 0.00000E+00
 -1       704 8.95290E-06-2.67197E-06 0.00000E+00
 -1       705 9.13620E-06-3.84125E-06 0.00000E+00
 -1       706 9.33871E-06-5.06317E-06-3.30872E-24
 -1       707 9.50862E-06-6.19794E-06-6.61744E-24
 -1       708 9.59395E-06-7.10674E-06 0.00000E+00
 -1       709 9.55365E-06-7.67991E-06 0.00000E+00
 -1       710 9.34773E-06-7.81091E-06 0.00000E+00
 -1       711 8.95732E-06-7.45017E-06 0.00000E+00
 -1       712 8.36561E-06-6.55257E-06 0.00000E+00
 -1       713 7.58093E-06-5.14226E-06 6.61744E-24
 -1       714 6.61584E-06-3.24727E-06 0.00000E+00
 -1       715 5.50171E-06-9.59587E-07 3.30872E-24
 -1       716 1.27714E-05-7.43181E-06 1.65436E-24
 -1       717 1.29205E-05-1.37703E-05 0.00000E+00
 -1       718 1.30791E-05-1.82026E-05 0.00000E+00
 -1       719 1.32445E-05-2.11369E-05-3.30872E-24
 -1       720 1.34129E-05-2.28446E-05-6.61744E-24
 -1       721 1.35827E-05-2.35888E-05 0.00000E+00
 -1       722 1.37528E-05-2.35443E-05 6.61744E-24
 -1       723 1.39227E-05-2.28806E-05 0.00000E+00
 -1       724 1.40922E-05-2.17104E-05 0.00000E+00
 -1       725 1.42609E-05-2.01431E-05 0.00000E+00
 -1       726 1.44290E-05-1.82516E-05 0.00000E+00
 -1       727 1.45956E-05-1.61065E-05-1.65436E-24
 -1       728 1.47615E-05-1.37556E-05 3.30872E-24
 -1       729 1.49222E-05-1.12447E-05 0.00000E+00
 -1       730 1.50841E-05-8.60545E-06-6.61744E-24
 -1       731 1.95307E-05 1.28191E-06 0.00000E+00
 -1       732 2.06508E-05 1.35685E-06-8.27181E-25
 -1       733 1.78701E-05 1.42975E-06 0.00000E+00
 -1       734 1.30381E-05 1.49574E-06 0.00000E+00
 -1       735 7.92149E-06 1.56065E-06 0.00000E+00
 -1       736 1.71035E-05-1.20401E-05-6.61744E-24
 -1       737 2.38310E-05-3.17180E-05 0.00000E+00
 -1       738 3.19109E-05-5.52308E-05 0.00000E+00
 -1       739 4.04070E-05-7.99443E-05 6.61744E-24
 -1       740 4.83087E-05-1.02960E-04 0.00000E+00
 -1       741 5.45996E-05-1.21409E-04 0.00000E+00
 -1       742 5.85837E-05-1.33433E-04-1.32349E-23
 -1       743 5.95728E-05-1.37285E-04-6.61744E-24
 -1       744 5.75080E-05-1.33001E-04-1.32349E-23
 -1       745 5.23817E-05-1.20751E-04 0.00000E+00
 -1       746 4.48749E-05-1.02422E-04-1.32349E-23
 -1       747 3.57370E-05-7.99906E-05-6.61744E-24
 -1       748 2.61016E-05-5.63169E-05 1.32349E-23
 -1       749 1.71224E-05-3.42751E-05 6.61744E-24
 -1       750 9.79218E-06-1.63922E-05 0.00000E+00
 -1       751 1.62262E-05-3.60282E-06 0.00000E+00
 -1       752 1.72981E-05-2.32324E-06 0.00000E+00
 -1       753 1.83666E-05-1.67696E-06 0.00000E+00
 -1       754 1.94473E-05-1.34029E-06 0.00000E+00
 -1       755 2.05285E-05-1.20217E-06 0.00000E+00
 -1       756 2.16120E-05-1.16053E-06 1.32349E-23
 -1       757 2.26958E-05-1.17994E-06 0.00000E+00
 -1       758 2.37800E-05-1.22770E-06-1.32349E-23
 -1       759 2.48643E-05-1.29074E-06 2.64698E-23
 -1       760 2.59483E-05-1.35665E-06 0.00000E+00
 -1       761 2.70321E-05-1.41503E-06 0.00000E+00
 -1       762 2.81142E-05-1.45514E-06 0.00000E+00
 -1       763 2.91960E-05-1.45359E-06 2.64698E-23
 -1       764 3.02692E-05-1.38515E-06 1.32349E-23
 -1       765 3.13453E-05-1.17853E-06 1.32349E-23
 -1       766 1.34181E-05-5.76291E-06-6.61744E-24
 -1       767 1.34595E-05-5.63104E-06 0.00000E+00
 -1       768 1.40052E-05-5.50085E-06-8.27181E-25
 -1       769 1.37205E-05-5.36779E-06-4.13590E-25
 -1       770 1.12100E-05-5.23744E-06 0.00000E+00
 -1       771 1.35845E-05-3.65235E-06 0.00000E+00
 -1       772 1.20923E-05-1.84479E-06-1.32349E-23
 -1       773 1.07392E-05-4.11939E-07 0.00000E+00
 -1       774 9.51312E-06 6.80587E-07 0.00000E+00
 -1       775 8.40174E-06 1.46734E-06 2.64698E-23
 -1       776 7.39209E-06 1.98316E-06-1.32349E-23
 -1       777 6.47105E-06 2.26303E-06 0.00000E+00
 -1       778 5.62540E-06 2.34209E-06 1.32349E-23
 -1       779 4.84191E-06 2.25562E-06 2.64698E-23
 -1       780 4.10729E-06 2.03899E-06 0.00000E+00
 -1       781 3.40828E-06 1.72767E-06 2.64698E-23
 -1       782 2.73165E-06 1.35722E-06 0.00000E+00
 -1       783 2.06423E-06 9.63244E-07 0.00000E+00
 -1       784 1.39347E-06 5.81520E-07-1.32349E-23
 -1       785 7.06969E-07 2.47856E-07 0.00000E+00
 -1       786 3.25017E-05-2.80633E-07 0.00000E+00
 -1       787 3.26355E-05 9.03674E-08-1.65436E-24
 -1       788 3.27692E-05 3.73079E-07 0.00000E+00
 -1       789 3.29042E-05 5.83647E-07-1.65436E-24
 -1       790 3.30392E-05 7.38115E-07 0.00000E+00
 -1       791 3.31745E-05 8.52464E-07 1.65436E-24
 -1       792 3.33099E-05 9.42618E-07-3.30872E-24
 -1       793 3.34453E-05 1.02447E-06 1.65436E-24
 -1       794 3.35807E-05 1.11392E-06 0.00000E+00
 -1       795 3.37161E-05 1.22684E-06 1.65436E-24
 -1       796 3.38515E-05 1.37918E-06 0.00000E+00
 -1       797 3.39868E-05 1.58689E-06 0.00000E+00
 -1       798 3.41219E-05 1.86604E-06 3.30872E-24
 -1       799 3.42565E-05 2.23274E-06 0.00000E+00
 -1       800 3.43911E-05 2.70326E-06-3.30872E-24
 -1       801 2.94711E-05-6.19812E-07 0.00000E+00
 -1       802 2.34523E-05-4.87778E-07 0.00000E+00
 -1       803 1.59072E-05-3.65176E-07 0.00000E+00
 -1       804 8.42443E-06-2.44995E-07 0.00000E+00
 -1       805 2.59255E-06-1.14989E-07 6.61744E-24
 -1       806 3.20439E-05-3.31943E-07 0.00000E+00
 -1       807 3.17232E-05 4.84079E-08 0.00000E+00
 -1       808 3.14142E-05 3.93728E-07 0.00000E+00
 -1       809 3.11147E-05 7.12063E-07-3.30872E-24
 -1       810 3.08220E-05 1.01141E-06 6.61744E-24
 -1       811 3.05335E-05 1.29969E-06 3.30872E-24
 -1       812 3.02461E-05 1.58482E-06-3.30872E-24
 -1       813 2.99568E-05 1.87470E-06-1.65436E-24
 -1       814 2.96629E-05 2.17724E-06 0.00000E+00
 -1       815 2.93612E-05 2.50034E-06 0.00000E+00
 -1       816 2.90489E-05 2.85189E-06 0.00000E+00
 -1       817 2.87230E-05 3.23981E-06-1.65436E-24
 -1       818 2.83806E-05 3.67199E-06 3.30872E-24
 -1       819 2.80193E-05 4.15637E-06 0.00000E+00
 -1       820 2.76365E-05 4.70091E-06-3.30872E-24
 -1       821 3.44024E-05 4.04424E-06-1.65436E-24
 -1       822 3.42750E-05 4.96053E-06 0.00000E+00
 -1       823 3.41476E-05 6.02592E-06-3.30872E-24
 -1       824 3.40190E-05 7.22324E-06 0.00000E+00
 -1       825 3.38900E-05 8.53523E-06 3.30872E-24
 -1       826 3.37607E-05 9.94445E-06 1.65436E-24
 -1       827 3.36313E-05 1.14334E-05 0.00000E+00
 -1       828 3.35017E-05 1.29843E-05 1.65436E-24
 -1       829 3.33721E-05 1.45796E-05-3.30872E-24
 -1       830 3.32424E-05 1.62015E-05 1.65436E-24
 -1       831 3.31127E-05 1.78321E-05 0.00000E+00
 -1       832 3.29833E-05 1.94537E-05 0.00000E+00
 -1       833 3.28540E-05 2.10485E-05 0.00000E+00
 -1       834 3.27257E-05 2.25986E-05 0.00000E+00
 -1       835 3.25973E-05 2.40865E-05 0.00000E+00
 -1       836 3.36105E-05 3.62437E-06-6.61744E-24
 -1       837 3.23611E-05 3.96638E-06 3.30872E-24
 -1       838 3.09362E-05 4.30754E-06-6.61744E-24
 -1       839 2.94984E-05 4.64795E-06 0.00000E+00
 -1       840 2.82097E-05 4.98915E-06 3.30872E-24
 -1       841 3.42188E-05 4.03371E-06 4.13590E-25
 -1       842 3.38457E-05 4.94980E-06 0.00000E+00
 -1       843 3.34124E-05 6.02630E-06 0.00000E+00
 -1       844 3.29249E-05 7.24563E-06 4.13590E-25
 -1       845 3.23908E-05 8.58852E-06 8.27181E-25
 -1       846 3.18174E-05 1.00353E-05-4.13590E-25
 -1       847 3.12129E-05 1.15647E-05 0.00000E+00
 -1       848 3.05853E-05 1.31555E-05 0.00000E+00
 -1       849 2.99430E-05 1.47853E-05 0.00000E+00
 -1       850 2.92943E-05 1.64319E-05-4.13590E-25
 -1       851 2.86478E-05 1.80726E-05 0.00000E+00
 -1       852 2.80120E-05 1.96850E-05 0.00000E+00
 -1       853 2.73952E-05 2.12467E-05 0.00000E+00
 -1       854 2.68055E-05 2.27358E-05 4.13590E-25
 -1       855 2.62511E-05 2.41313E-05-1.65436E-24
 -1       856 3.23316E-05 2.70067E-05 1.65436E-24
 -1       857 3.21809E-05 2.87905E-05 1.65436E-24
 -1       858 3.20299E-05 3.08109E-05 0.00000E+00
 -1       859 3.18774E-05 3.30327E-05-1.65436E-24
 -1       860 3.17245E-05 3.54203E-05-3.30872E-24
 -1       861 3.15710E-05 3.79380E-05-1.65436E-24
 -1       862 3.14173E-05 4.05497E-05 0.00000E+00
 -1       863 3.12634E-05 4.32195E-05 0.00000E+00
 -1       864 3.11094E-05 4.59110E-05-3.30872E-24
 -1       865 3.09555E-05 4.85881E-05 1.65436E-24
 -1       866 3.08017E-05 5.12146E-05 0.00000E+00
 -1       867 3.06483E-05 5.37543E-05-1.65436E-24
 -1       868 3.04952E-05 5.61713E-05 3.30872E-24
 -1       869 3.03432E-05 5.84297E-05 0.00000E+00
 -1       870 3.01914E-05 6.04939E-05-3.30872E-24
 -1       871 3.12519E-05 2.54825E-05 0.00000E+00
 -1       872 3.01069E-05 2.54695E-05 0.00000E+00
 -1       873 2.90118E-05 2.54563E-05 0.00000E+00
 -1       874 2.79377E-05 2.54426E-05 0.00000E+00
 -1       875 2.68560E-05 2.54284E-05 8.27181E-25
 -1       876 3.21078E-05 2.70577E-05 3.30872E-24
 -1       877 3.16606E-05 2.88581E-05 0.00000E+00
 -1       878 3.11364E-05 3.08615E-05 0.00000E+00
 -1       879 3.05483E-05 3.30383E-05-3.30872E-24
 -1       880 2.99065E-05 3.53577E-05 0.00000E+00
 -1       881 2.92222E-05 3.77902E-05 0.00000E+00
 -1       882 2.85065E-05 4.03061E-05 0.00000E+00
 -1       883 2.77704E-05 4.28760E-05-3.30872E-24
 -1       884 2.70249E-05 4.54708E-05 0.00000E+00
 -1       885 2.62811E-05 4.80614E-05-3.30872E-24
 -1       886 2.55497E-05 5.06184E-05-6.61744E-24
 -1       887 2.48419E-05 5.31126E-05 3.30872E-24
 -1       888 2.41686E-05 5.55146E-05-6.61744E-24
 -1       889 2.35399E-05 5.77944E-05 0.00000E+00
 -1       890 2.29686E-05 5.99227E-05 0.00000E+00
 -1       891 2.85597E-05 6.22518E-05-1.65436E-24
 -1       892 2.73603E-05 6.21741E-05 8.27181E-25
 -1       893 2.62982E-05 6.20966E-05 0.00000E+00
 -1       894 2.52256E-05 6.20193E-05-8.27181E-25
 -1       895 2.39942E-05 6.19417E-05 1.65436E-24
 -1       896 2.66608E-07 8.77337E-07 0.00000E+00
 -1       897 5.35621E-07 1.23513E-06 0.00000E+00
 -1       898 8.04574E-07 1.19717E-06 0.00000E+00
 -1       899 1.07388E-06 8.82847E-07 3.30872E-24
 -1       900 1.34311E-06 3.70919E-07 6.61744E-24
 -1       901 1.61236E-06-2.62077E-07 0.00000E+00
 -1       902 1.88158E-06-9.57400E-07 6.61744E-24
 -1       903 2.15079E-06-1.65700E-06 0.00000E+00
 -1       904 2.42002E-06-2.30348E-06 6.61744E-24
 -1       905 2.68925E-06-2.83882E-06-3.30872E-24
 -1       906 2.95850E-06-3.18867E-06 0.00000E+00
 -1       907 3.22747E-06-3.27662E-06-3.30872E-24
 -1       908 3.49634E-06-2.98772E-06 0.00000E+00
 -1       909 3.76322E-06-2.20283E-06 0.00000E+00
 -1       910 4.02991E-06-7.29979E-07 6.61744E-24
 -1       911 4.33710E-06 3.62622E-06 0.00000E+00
 -1       912 4.39070E-06 4.01105E-06 0.00000E+00
 -1       913 4.44401E-06 3.08506E-06 0.00000E+00
 -1       914 4.49600E-06 1.14540E-06 0.00000E+00
 -1       915 4.54639E-06-1.53953E-06 0.00000E+00
 -1       916 4.59544E-06-4.70292E-06 8.27181E-25
 -1       917 4.64379E-06-8.09149E-06 0.00000E+00
 -1       918 4.69222E-06-1.14526E-05 8.27181E-25
 -1       919 4.74149E-06-1.45327E-05 0.00000E+00
 -1       920 4.79216E-06-1.70775E-05 0.00000E+00
 -1       921 4.84439E-06-1.88180E-05-1.65436E-24
 -1       922 4.89760E-06-1.94828E-05 8.27181E-25
 -1       923 4.95064E-06-1.87706E-05 8.27181E-25
 -1       924 4.99978E-06-1.63767E-05 0.00000E+00
 -1       925 5.04259E-06-1.19493E-05 0.00000E+00
 -1       926 4.73696E-06 2.77203E-06 6.61744E-24
 -1       927 4.40398E-06 1.03801E-05 3.30872E-24
 -1       928 4.07683E-06 1.72007E-05 6.61744E-24
 -1       929 3.75587E-06 2.27525E-05-3.30872E-24
 -1       930 3.44192E-06 2.67468E-05 0.00000E+00
 -1       931 3.13310E-06 2.89145E-05 0.00000E+00
 -1       932 2.82645E-06 2.92642E-05 6.61744E-24
 -1       933 2.51879E-06 2.78274E-05 0.00000E+00
 -1       934 2.20811E-06 2.49071E-05 0.00000E+00
 -1       935 1.89343E-06 2.08250E-05-3.30872E-24
 -1       936 1.57597E-06 1.60795E-05-1.32349E-23
 -1       937 1.25752E-06 1.11773E-05 0.00000E+00
 -1       938 9.40666E-07 6.64883E-06 0.00000E+00
 -1       939 6.25993E-07 3.01992E-06 0.00000E+00
 -1       940 3.15371E-07 6.79405E-07 1.32349E-23
 -1       941 1.61440E-06 1.91558E-07-2.64698E-23
 -1       942 3.31763E-06 4.38295E-07 0.00000E+00
 -1       943 5.01533E-06 7.17529E-07 5.29396E-23
 -1       944 6.72985E-06 1.00899E-06-2.64698E-23
 -1       945 8.44490E-06 1.30769E-06 5.29396E-23
 -1       946 1.01633E-05 1.60918E-06 0.00000E+00
 -1       947 1.18821E-05 1.91248E-06-5.29396E-23
 -1       948 1.36015E-05 2.21678E-06 0.00000E+00
 -1       949 1.53209E-05 2.52249E-06 5.29396E-23
 -1       950 1.70399E-05 2.83015E-06 0.00000E+00
 -1       951 1.87586E-05 3.14273E-06 5.29396E-23
 -1       952 2.04745E-05 3.46356E-06 2.64698E-23
 -1       953 2.21901E-05 3.80637E-06-5.29396E-23
 -1       954 2.38920E-05 4.18647E-06 2.64698E-23
 -1       955 2.55984E-05 4.66591E-06 0.00000E+00
 -1       956 2.71414E-05 6.14263E-06 0.00000E+00
 -1       957 2.70485E-05 7.07950E-06 1.44757E-24
 -1       958 2.69553E-05 8.11428E-06 1.65436E-24
 -1       959 2.68618E-05 9.23594E-06 1.65436E-24
 -1       960 2.67682E-05 1.04334E-05-3.30872E-24
 -1       961 2.66744E-05 1.16955E-05 8.27181E-25
 -1       962 2.65806E-05 1.30111E-05 0.00000E+00
 -1       963 2.64868E-05 1.43689E-05 0.00000E+00
 -1       964 2.63929E-05 1.57578E-05-1.65436E-24
 -1       965 2.62990E-05 1.71667E-05-1.65436E-24
 -1       966 2.62050E-05 1.85842E-05-3.30872E-24
 -1       967 2.61112E-05 1.99992E-05 0.00000E+00
 -1       968 2.60173E-05 2.14006E-05 0.00000E+00
 -1       969 2.59237E-05 2.27772E-05 0.00000E+00
 -1       970 2.58303E-05 2.41178E-05 0.00000E+00
 -1       971 2.55401E-05 2.68046E-05 0.00000E+00
 -1       972 2.53358E-05 2.84826E-05 3.30872E-24
 -1       973 2.51313E-05 3.04109E-05-6.61744E-24
 -1       974 2.49254E-05 3.25543E-05 0.00000E+00
 -1       975 2.47191E-05 3.48772E-05 0.00000E+00
 -1       976 2.45122E-05 3.73436E-05-3.30872E-24
 -1       977 2.43051E-05 3.99171E-05 0.00000E+00
 -1       978 2.40977E-05 4.25612E-05 0.00000E+00
 -1       979 2.38903E-05 4.52393E-05 6.61744E-24
 -1       980 2.36829E-05 4.79148E-05 3.30872E-24
 -1       981 2.34757E-05 5.05509E-05 6.61744E-24
 -1       982 2.32689E-05 5.31110E-05-3.30872E-24
 -1       983 2.30625E-05 5.55586E-05 6.61744E-24
 -1       984 2.28576E-05 5.78575E-05 3.30872E-24
 -1       985 2.26529E-05 5.99717E-05 0.00000E+00
 -3
    1PSTEP                        30          15           1          
  100CL  115 7.31672E-01         841                     0   15           1
 -4  STRESS      6    1
 -5  SXX         1    4    1    1
 -5  SYY         1    4    2    2
 -5  SZZ         1    4    3    3
 -5  SXY         1    4    1    2
 -5  SYZ         1    4    2    3
 -5  SZX         1    4    3    1
 -1         1-2.88179E+06-9.33780E+05-5.86114E+05-8.66400E+05-3.00740E-10 6.40284E-10
 -1         2-1.59084E+06-4.43804E+04 1.69663E+04-1.31785E+05 3.81419E-10-2.81489E-10
 -1         3-1.14696E+06-3.90974E+05-4.11565E+04-1.01909E+05-1.09054E-09-1.74703E-09
 -1         4-5.70254E+05-1.03652E+05 8.14231E+02-4.89347E+04 1.44780E-10 2.58729E-09
 -1         5-2.84115E+05 1.58553E+05-1.39143E+05-1.16961E+04 5.81349E-09 4.16549E-09
 -1         8-1.33332E+06-5.22794E+05-1.71320E+05-5.60651E+05 3.63798E-10 1.01136E-09
 -1         9-1.57177E+06-3.44957E+05-1.81355E+05-4.24207E+05-1.11807E-09 7.88229E-10
 -1        10-5.80198E+05-3.87179E+05 3.44559E+04-1.07546E+05-9.95897E-10-1.83589E-09
 -1        11-5.25002E+05-1.48812E+05 1.30726E+03-1.01701E+05-7.66856E-10-1.44989E-09
 -1        12-3.37397E+05 1.27086E+05-1.53963E+05-6.33829E+04 6.66000E-09 1.31945E-09
 -1        15 5.01853E+04 4.67200E+04 1.78238E+04-2.01659E+04 3.34694E-10-6.74845E-10
 -1        16-1.16357E+06-2.53209E+05-2.96248E+04-4.67644E+05 8.46436E-10 2.72727E-09
 -1        17-6.42294E+05-4.21384E+05-7.89861E+04-3.20220E+05-1.13869E-09 5.67525E-10
 -1        18-1.51594E+05-1.17049E+05-7.75896E+04-1.42924E+05 2.58266E-09-9.10707E-10
 -1        19-6.21800E+04 8.11381E+04-6.21767E+04-5.94585E+04 9.15255E-10-1.01863E-09
 -1        20 1.08980E+05-7.95247E+04-1.26359E+04 5.72213E+04 1.21208E-08 6.17547E-10
 -1        21-9.56651E+02-1.63506E+05 3.66810E+04 8.95297E+02 1.63266E-08 1.61457E-09
 -1        22 3.00687E+04 1.49928E+05 9.31612E+02-2.31891E+04-3.63798E-12 1.76442E-10
 -1        23-6.36810E+04 2.57194E+04 1.68949E+04-1.56530E+05-4.60553E-09 5.48728E-10
 -1        24-2.02530E+05 1.29571E+03 2.36468E+05-4.27004E+05-5.14046E-09-8.41586E-10
 -1        25 5.28833E+05 2.01625E+05 1.71491E+05-2.79535E+05 1.33150E-09 6.19063E-10
 -1        26 5.11345E+03 1.91903E+05 1.09436E+04-3.70129E+04-6.47939E-10 9.28291E-10
 -1        27-4.53567E+04-6.89408E+04-2.97425E+04 7.54018E+04 8.94791E-09-1.61344E-09
 -1        28-1.44828E+04-1.25951E+05-7.88961E+02 6.00339E+04 5.63102E-09 1.29004E-10
 -1        29 3.70259E+05 2.57833E+05 1.10181E+03-1.13529E+04-2.40695E-10 1.47566E-09
 -1        30 9.20219E+04 3.82214E+04 1.50793E+03-6.89043E+04 2.62109E-09 4.59295E-09
 -1        31-3.87276E+05 4.94996E+04 6.71969E+03-4.07548E+04-7.62549E-09 9.86893E-09
 -1        32 7.56917E+05 4.48822E+05 5.15508E+05-4.23169E+05 6.42350E-09 3.87081E-09
 -1        33 1.19129E+06 5.44925E+05 3.82379E+05-5.46374E+04-1.10117E-08-1.41517E-09
 -1        34-2.20549E+05-3.36413E+04-1.25221E+04 3.69808E+04-2.05791E-09 4.26553E-10
 -1        35-3.42390E+04-4.13970E+04-7.94398E+02 8.86770E+04 1.13346E-08 3.29965E-09
 -1        36-3.60729E+06 1.04286E+05-2.43832E+05 5.14688E-08 1.54821E-10 3.41970E-09
 -1        37-3.71239E+06-1.20804E+05-1.72121E+05 4.16326E-07 4.95998E-10 1.65892E-09
 -1        38-3.64791E+06 1.61520E+04-6.30798E+04 1.98222E-07-1.45945E-09 3.71074E-10
 -1        39-3.66491E+06-1.87025E+04-3.95018E+04-2.13491E-07-3.71264E-09-1.03751E-08
 -1        40-3.65452E+06 2.49674E+03-1.61976E+04-1.00202E-07 2.10009E-09-5.86078E-09
 -1        41-3.65715E+06-2.92569E+03-9.63574E+03-9.62812E-09-1.44350E-09 4.01224E-09
 -1        42-3.65559E+06 4.21915E+02-4.73933E+03 1.00215E-07-2.11396E-09 6.48606E-09
 -1        43-3.65600E+06-7.48566E+02-3.76962E+03 1.78718E-07-3.76616E-09-5.11326E-09
 -1        44-3.65565E+06 3.25401E+02-3.83792E+03-1.53176E-07 1.97835E-09-2.28829E-09
 -1        45-3.65669E+06-2.08700E+03-7.03482E+03-1.39612E-07-8.53963E-11-4.68049E-10
 -1        46-3.65491E+06 1.75664E+03-1.14955E+04 1.16489E-07-2.49505E-09 6.53381E-09
 -1        47-3.66212E+06-1.31309E+04-2.77900E+04 2.07901E-07-2.67307E-10 1.92176E-09
 -1        48-3.65028E+06 1.13363E+04-4.43059E+04 1.66073E-07-1.33439E-09-5.51518E-09
 -1        49-3.69544E+06-8.47849E+04-1.20818E+05 1.09450E-07-2.04458E-09 1.02791E-08
 -1        50-3.62179E+06 7.31856E+04-1.71189E+05-7.29167E-08-2.93180E-09 9.87347E-09
 -1        51 3.40981E+04-3.78501E+05 5.57860E+04-1.03070E+06-1.01863E-10-1.65892E-09
 -1        52 1.58692E+04-3.74461E+05 3.34734E+04-1.13897E+06-1.01863E-10 6.29370E-09
 -1        53 1.03553E+04-3.86382E+05 2.59578E+04-1.02788E+06 3.49246E-10 1.04337E-08
 -1        54 2.32318E+04-3.83419E+05 3.83765E+04-1.14192E+06-2.11003E-10-9.36416E-09
 -1        55 5.08945E+04-3.96023E+05 6.85358E+04-1.02733E+06-4.36557E-11-5.75892E-09
 -1        56-4.66459E+06-5.25895E+05-3.83056E+05-1.80336E+06-1.26602E-09-3.12866E-09
 -1        57-4.83600E+06-8.47208E+05-2.57120E+05-1.76837E+06 2.79215E-10 3.20870E-09
 -1        58-4.73937E+06-6.46646E+05-9.01311E+04-1.78192E+06-7.09406E-11-2.41926E-09
 -1        59-4.75003E+06-7.04422E+05-5.34412E+04-1.79338E+06-3.27282E-09 5.24778E-10
 -1        60-4.74938E+06-6.63881E+05-2.10478E+04-1.77993E+06-1.25101E-09-1.26693E-09
 -1        61-4.73991E+06-6.82664E+05-1.19098E+04-1.79392E+06-3.13821E-09-3.98848E-09
 -1        62-4.74923E+06-6.67809E+05-5.82271E+03-1.78153E+06-2.96950E-10 9.39951E-09
 -1        63-4.74238E+06-6.76280E+05-4.88324E+03-1.78957E+06 6.05723E-10 7.35588E-09
 -1        64-4.74685E+06-6.70221E+05-5.73740E+03-1.78427E+06-1.18234E-11-2.12663E-09
 -1        65-4.74886E+06-6.73524E+05-1.16354E+04-1.78353E+06-7.10372E-10-1.00608E-08
 -1        66-4.74277E+06-6.70635E+05-2.05514E+04-1.78755E+06 7.68978E-10-6.43922E-10
 -1        67-4.76573E+06-6.87733E+05-5.21203E+04-1.77499E+06-2.76486E-10-3.39878E-09
 -1        68-4.73023E+06-6.56595E+05-8.79194E+04-1.79266E+06 1.75896E-09-2.84490E-09
 -1        69-4.85315E+06-8.23484E+05-2.50776E+05-1.74663E+06 2.82398E-09-3.78714E-09
 -1        70-4.65655E+06-5.39542E+05-3.73621E+05-1.81439E+06-1.66619E-09-1.86265E-09
 -1        71-2.30750E+06 2.24535E+04-5.25790E+04 1.68328E-07-1.10716E-09-4.92946E-09
 -1        72-2.33000E+06-2.60153E+04-3.70964E+04-1.53454E-07-6.06180E-10-2.51021E-09
 -1        73-2.31625E+06 3.47846E+03-1.36161E+04-3.71599E-08-9.23157E-10-1.13869E-09
 -1        74-2.31978E+06-4.02971E+03-8.54488E+03 9.73115E-08-1.12629E-09-2.74849E-09
 -1        75-2.31768E+06 5.39461E+02-3.54722E+03 1.75381E-07 6.42119E-10-2.96268E-09
 -1        76-2.31812E+06-6.43782E+02-2.19049E+03 3.83496E-07-2.44430E-09-1.39039E-09
 -1        77-2.31790E+06 1.02784E+02-1.23236E+03-5.60731E-08 1.67218E-10-2.60448E-09
 -1        78-2.31792E+06-2.52035E+02-1.27263E+03-1.01854E-07 1.90870E-10 5.06997E-09
 -1        79-2.31788E+06 1.48830E+02-1.66346E+03 1.50748E-07-2.45842E-09 3.88059E-09
 -1        80-2.31834E+06-1.04393E+03-3.43370E+03 3.96492E-08-1.13551E-09 8.71546E-09
 -1        81-2.31749E+06 8.92558E+02-5.79484E+03-1.17572E-07-7.72985E-10 4.94379E-09
 -1        82-2.32111E+06-6.68778E+03-1.41395E+04-1.96473E-07 1.76730E-09-5.27962E-10
 -1        83-2.31512E+06 5.77573E+03-2.25859E+04-1.17009E-07-6.83580E-10-2.94222E-09
 -1        84-2.33808E+06-4.31989E+04-6.15878E+04-2.75666E-08-1.70230E-09 4.89672E-09
 -1        85-2.30059E+06 3.72861E+04-8.72919E+04-3.86100E-08-1.51910E-09-9.27685E-10
 -1        86-8.43637E+04 4.35872E+05 2.01190E+05 5.52248E+03 2.23372E-09 1.53705E-09
 -1        87 1.06279E+05 5.26978E+05 1.57406E+05-2.58794E+04 3.71256E-09 5.33805E-09
 -1        88-2.15224E+04 4.65417E+05 8.32858E+04 3.72924E+03 3.71620E-09-1.76320E-09
 -1        89 7.98661E+04 5.13946E+05 1.22618E+05-2.41514E+04 5.58521E-09-2.54283E-09
 -1        90-5.79982E+04 4.48815E+05 1.41520E+05 3.79517E+03 3.28873E-09-1.00781E-09
 -1        91-1.42118E+06-1.84662E+05-8.06071E+03-4.63509E+05-2.94185E-08-6.03632E-09
 -1        92-9.64506E+05-2.47594E+05 5.35925E+04-5.67265E+05-3.01111E-08-7.81642E-09
 -1        93-1.34891E+06-9.57958E+04 1.71501E+03-3.70242E+05 2.17560E-08 3.94823E-09
 -1        94-1.04895E+06-3.31993E+05 1.06202E+04-6.67782E+05-3.69747E-09 8.14975E-09
 -1        95-1.34669E+06-9.26733E+04-2.29910E+03-3.69883E+05-2.53699E-08 5.16752E-09
 -1        96-9.78286E+05-2.70871E+05 3.30949E+04-5.65463E+05 1.24824E-08-3.66879E-09
 -1        97-1.40985E+06-1.64414E+05-3.06157E+04-4.65799E+05-1.88038E-08 1.71262E-08
 -1        98-9.76833E+05-1.30930E+05 5.92079E+04-3.75015E+05 1.91976E-08 5.99994E-09
 -1        99-1.33861E+06-2.39796E+05-3.19382E+04-5.52590E+05 1.49512E-08 1.97542E-09
 -1       100-1.22147E+06-2.00733E+04 3.32579E+04-2.75858E+05-4.89836E-08-1.32197E-08
 -1       101-1.17463E+06-2.68056E+05-5.74552E+03-5.71704E+05-6.43922E-09-4.64001E-09
 -1       102-1.40248E+06 1.57031E+04 3.54539E+03-2.64845E+05 1.29287E-08 2.70148E-08
 -1       103-1.16715E+06-2.68421E+05-8.89740E+03-5.71682E+05-5.69835E-08 2.67084E-09
 -1       104-1.24118E+06-1.70565E+04 1.81999E+04-2.73386E+05-4.44306E-08 1.61932E-08
 -1       105-1.32735E+06-2.41739E+05-5.59929E+04-5.55856E+05-3.75167E-08 5.73527E-09
 -1       106-1.21091E+06-4.69230E+03 1.09924E+04-1.53963E-07-1.49102E-09-2.58751E-09
 -1       107-1.20606E+06 5.43669E+03 7.74859E+03-1.68760E-07-1.24094E-09 2.56807E-09
 -1       108-1.20908E+06-7.26640E+02 2.83212E+03-4.22686E-08 2.63269E-10 2.82273E-09
 -1       109-1.20819E+06 8.39593E+02 1.75259E+03 1.58639E-07 3.05302E-10-5.01018E-10
 -1       110-1.20878E+06-1.10461E+02 6.75000E+02 1.50213E-07-3.20773E-10 1.52852E-10
 -1       111-1.20855E+06 1.16838E+02 3.14424E+02 1.90716E-08-3.10322E-10 3.44539E-09
 -1       112-1.20872E+06-6.06129E+00-1.28644E+01 4.49898E-08-4.72830E-10-1.97359E-09
 -1       113-1.20865E+06-6.48348E+01-3.28106E+02-2.12603E-09 2.07130E-10-6.64635E-10
 -1       114-1.20868E+06 7.07884E+01-7.33743E+02 7.77647E-08 4.96907E-11-2.84092E-09
 -1       115-1.20891E+06-5.50981E+02-1.76362E+03 1.09416E-07 2.76964E-10-3.68530E-09
 -1       116-1.20846E+06 4.78830E+02-3.08196E+03 7.51389E-08-1.44997E-11-1.39858E-09
 -1       117-1.21041E+06-3.59651E+03-7.59373E+03-1.15000E-08-8.92295E-10-4.11546E-09
 -1       118-1.20719E+06 3.10710E+03-1.21536E+04-1.11796E-07-1.10587E-09-2.69210E-10
 -1       119-1.21954E+06-2.32405E+04-3.31450E+04 1.05848E-07-1.08334E-10 6.10271E-10
 -1       120-1.19935E+06 2.00589E+04-4.69849E+04-1.76024E-08-5.64258E-10 2.35559E-09
 -1       121-3.04046E+03-1.20032E+06 1.20452E+04 5.63330E+03-9.06766E-10 5.02041E-10
 -1       122 3.79054E+03-1.19568E+06 7.23456E+03 2.37660E+04-5.28985E-10 2.92675E-09
 -1       123-2.50185E+02-1.19834E+06 1.83175E+03 6.04922E+03-2.76646E-09 3.46063E-09
 -1       124-1.31650E+03-1.19852E+06-1.53342E+03 2.28026E+04-1.96633E-09 8.76753E-09
 -1       125 1.10007E+03-1.19734E+06-4.46570E+03 6.59577E+03-5.17184E-09 4.39923E-09
 -1       126-1.11520E+06-1.51907E+05 4.91776E+03-4.05579E+05 6.26460E-09 8.19682E-10
 -1       127-1.06462E+06-1.74903E+05 6.39979E+03-4.39807E+05 2.05509E-08 4.54128E-09
 -1       128-1.11863E+06-1.37894E+05 1.25097E+03-3.92488E+05 7.10679E-09 5.10431E-09
 -1       129-1.06168E+06-1.90193E+05 1.25289E+03-4.54702E+05-7.05668E-09-8.92851E-09
 -1       130-1.11865E+06-1.36246E+05 2.51227E+02-3.91060E+05-4.68265E-09-1.10009E-09
 -1       131-1.06492E+06-1.82514E+05 1.41239E+03-4.44139E+05 9.51962E-09 3.88442E-09
 -1       132-1.11502E+06-1.45844E+05-1.35348E+03-4.02782E+05 6.44832E-09-2.73883E-09
 -1       133-1.08021E+06-1.59076E+05 2.58278E+03-4.15330E+05-5.15297E-09-1.89442E-09
 -1       134-1.10279E+06-1.60111E+05-2.31363E+03-4.19431E+05 7.66340E-09 2.86491E-11
 -1       135-1.10969E+06-1.33955E+05 6.97120E+02-3.86709E+05 1.85538E-08 4.42265E-09
 -1       136-1.08579E+06-1.70780E+05-3.19991E+03-4.31584E+05-3.72779E-09 6.25960E-10
 -1       137-1.13543E+06-1.22168E+05-6.52753E+03-3.71145E+05-4.97197E-08 5.20890E-09
 -1       138-1.07767E+06-1.71449E+05-1.12220E+04-4.35473E+05-6.76141E-09-8.20364E-10
 -1       139-1.14251E+06-1.43933E+05-3.23747E+04-3.69708E+05 2.25371E-08 3.63661E-09
 -1       140-1.07862E+06-1.49157E+05-4.91896E+04-4.32915E+05-2.71939E-10-3.21961E-10
 -1       141-5.39921E+05-5.31356E+03 1.24484E+04-4.55771E-08 5.13503E-10-3.18960E-09
 -1       142-5.34496E+05 6.15626E+03 8.77149E+03 1.48257E-08 1.62707E-10-1.24430E-09
 -1       143-5.37845E+05-8.22638E+02 3.19761E+03-1.82601E-07-2.18824E-10-2.06410E-09
 -1       144-5.36917E+05 9.48989E+02 1.96170E+03-1.42540E-07-2.82245E-10 3.38355E-09
 -1       145-5.37504E+05-1.23519E+02 7.18607E+02 1.06692E-07 3.61708E-10-1.99464E-09
 -1       146-5.37330E+05 1.20157E+02 2.57227E+02-1.68580E-08-4.57226E-10-1.62419E-09
 -1       147-5.37433E+05 3.71622E+00-2.00926E+02 1.36188E-08 3.31929E-10 1.58138E-09
 -1       148-5.37487E+05-1.54046E+02-7.80616E+02-6.89775E-09-3.27609E-10-7.86329E-10
 -1       149-5.37347E+05 1.50073E+02-1.57541E+03-7.34231E-09 2.14438E-10-3.29953E-09
 -1       150-5.38022E+05-1.15166E+03-3.70395E+03-2.41510E-09-3.12390E-10-3.75189E-09
 -1       151-5.36899E+05 9.98760E+02-6.44277E+03 8.67001E-08-2.62441E-10-1.56842E-09
 -1       152-5.41143E+05-7.49914E+03-1.58483E+04-1.22887E-07-4.85134E-11-6.57201E-09
 -1       153-5.34230E+05 6.47846E+03-2.53567E+04-4.19300E-09 1.61875E-09-3.85626E-10
 -1       154-5.60167E+05-4.84563E+04-6.91262E+04 3.07076E-08 7.16384E-10 1.06957E-09
 -1       155-5.17881E+05 4.18241E+04-9.79630E+04 1.36275E-07 3.57896E-09 2.44472E-09
 -1       156-1.73164E+04-2.37716E+05 4.16117E+04-9.19153E+03-4.51109E-10-1.17262E-09
 -1       157 2.26345E+04-2.18193E+05 3.41268E+04 3.98943E+04-1.45337E-09 1.04141E-09
 -1       158-5.20719E+03-2.32217E+05 2.02502E+04-9.15759E+03-1.17927E-09-4.77786E-09
 -1       159 2.28287E+04-2.15771E+05 3.47202E+04 3.84410E+04 1.55569E-09 6.27779E-10
 -1       160-1.76700E+04-2.39918E+05 4.13328E+04-7.73843E+03 1.33878E-09 2.71166E-09
 -1       161-6.34672E+05-8.74881E+04-3.91789E+03-2.38340E+05-2.25384E-10-6.22549E-10
 -1       162-6.35602E+05-9.21036E+04-2.71672E+03-2.38866E+05 6.76366E-10-6.62797E-09
 -1       163-6.35574E+05-8.87720E+04-9.33120E+02-2.37951E+05 6.36049E-10-9.50024E-10
 -1       164-6.34597E+05-9.05764E+04-6.05782E+02-2.39266E+05 7.51019E-10 2.64890E-11
 -1       165-6.35675E+05-8.90108E+04-2.82453E+02-2.37941E+05 1.91363E-10-1.84885E-09
 -1       166-6.34636E+05-9.01774E+04-2.82347E+02-2.39109E+05 3.59648E-10 1.29661E-09
 -1       167-6.35535E+05-8.91706E+04-3.56382E+02-2.38108E+05-4.08376E-10-2.21159E-09
 -1       168-6.35089E+05-8.99318E+04-7.56679E+02-2.38663E+05 9.55254E-10 4.42397E-09
 -1       169-6.35222E+05-8.92570E+04-1.35473E+03-2.38386E+05 1.05061E-10 2.49599E-09
 -1       170-6.36210E+05-9.05378E+04-3.36832E+03-2.37959E+05-4.59281E-10-1.17370E-09
 -1       171-6.34415E+05-8.85671E+04-5.84603E+03-2.38812E+05-6.55064E-10-1.01068E-09
 -1       172-6.40711E+05-9.70443E+04-1.56881E+04-2.36259E+05-1.01983E-09-8.80618E-10
 -1       173-6.30729E+05-8.27680E+04-2.52299E+04-2.40082E+05 1.40835E-09 2.75668E-09
 -1       174-6.66376E+05-1.41289E+05-7.45322E+04-2.27682E+05 6.57246E-09 4.62660E-09
 -1       175-6.08778E+05-4.44389E+04-1.07606E+05-2.47350E+05 1.21909E-08-2.13913E-09
 -1       191 2.21001E+03 6.03049E+05 3.67737E+03-2.19003E+04-8.36735E-11-2.25009E-09
 -1       192 7.81592E+02 6.03606E+05 2.19706E+03-2.36809E+04-9.89417E-10-3.50974E-09
 -1       193 3.37720E+02 6.03213E+05 1.75297E+03-2.16077E+04-4.54747E-13-5.75164E-09
 -1       194 1.03306E+03 6.03650E+05 2.63810E+03-2.42159E+04-1.95814E-09-1.76806E-09
 -1       195 2.97716E+03 6.02903E+05 4.77468E+03-2.13610E+04 5.45697E-11 8.09450E-10
 -1       251-1.71661E+06 7.87370E+03-7.87952E+04-6.45771E+04 2.27374E-10-6.11180E-10
 -1       252-1.53318E+06-8.02195E+03-1.50564E+04 1.97241E+05 4.97676E-09 6.22549E-09
 -1       253-1.62889E+06-5.48540E+02-1.59196E+04-1.33012E+05 3.07273E-09-7.36145E-09
 -1       254-1.61493E+06 1.06354E+04-3.53085E+03 2.58074E+05 8.24127E-09 1.24983E-08
 -1       255-1.64363E+06-3.59808E+03-8.06365E+03-1.25791E+05-1.27911E-08-2.93562E-09
 -1       256-1.49371E+06 1.02430E+04 2.49833E+04 1.71605E+05-1.59371E-08 1.29085E-08
 -1       257-1.73834E+06-9.69100E+03-2.60147E+04-4.60935E+04 1.03046E-09-4.03406E-09
 -1       258-1.40238E+06 8.32147E+03 4.29456E+04-1.73213E+04 1.65505E-08 4.09761E-09
 -1       259-1.72601E+06-8.92641E+03-2.33233E+04 6.27894E+04-1.67838E-08 1.07599E-08
 -1       260-1.52130E+06 1.08384E+04 1.99138E+04-1.95681E+05-4.15639E-09-3.99052E-09
 -1       261-1.63108E+06-2.75482E+03-5.26497E+03 1.32096E+05 1.63118E-08 2.41494E-09
 -1       262-1.61510E+06 1.05889E+04-3.45493E+03-2.58631E+05-2.36898E-08-1.51958E-08
 -1       263-1.64129E+06-1.31832E+03-1.83787E+04 1.26123E+05 4.21278E-09 8.75207E-09
 -1       264-1.50520E+06-8.34485E+03-9.35187E+03-1.74102E+05 5.35310E-08-4.71800E-09
 -1       265-1.72947E+06 6.76378E+03-8.06967E+04 4.71225E+04 1.51049E-08 3.58705E-09
 -1       266-3.08481E+04-1.95149E+05 7.21949E+04-1.31682E+04-4.36557E-11 3.20830E-09
 -1       267 3.42788E+04-1.62026E+05 4.91675E+04 6.05894E+04 7.82165E-11-6.79009E-09
 -1       268-3.57630E+03-1.84156E+05 1.41240E+04-1.24859E+04 1.22782E-10-6.74277E-09
 -1       269-2.77160E+03-1.70753E+05 1.71739E+03 5.74622E+04 5.00222E-12 3.69181E-09
 -1       270 5.49521E+03-1.85628E+05-1.44644E+04-1.00525E+04 8.73115E-11 9.92304E-09
 -1       271-4.01121E+06-5.01832E+05-3.16356E+05-1.55597E+06-1.33878E-09 2.45927E-09
 -1       272-4.12533E+06-7.15195E+05-2.01043E+05-1.55302E+06-1.35697E-09 3.27418E-09
 -1       273-4.06892E+06-5.75073E+05-7.46254E+04-1.54424E+06-2.73235E-09 2.66300E-09
 -1       274-4.05761E+06-6.22784E+05-4.12685E+04-1.57235E+06-5.97424E-09-3.85262E-09
 -1       275-4.07718E+06-5.81587E+05-1.73637E+04-1.54146E+06-2.54840E-09 3.29237E-10
 -1       276-4.04755E+06-6.15079E+05-9.23461E+03-1.57699E+06 1.63095E-09 2.48770E-09
 -1       277-4.07904E+06-5.81406E+05-4.72711E+03-1.54023E+06-1.26738E-09 7.41466E-10
 -1       278-4.04554E+06-6.15356E+05-3.74589E+03-1.57868E+06 8.16726E-10 2.15300E-09
 -1       279-4.07934E+06-5.81116E+05-4.49931E+03-1.53991E+06 1.04336E-10 1.48725E-09
 -1       280-4.04650E+06-6.16063E+05-8.63084E+03-1.57833E+06 6.46196E-10-3.91447E-09
 -1       281-4.07807E+06-5.80797E+05-1.61081E+04-1.54054E+06 8.85848E-10 1.17507E-09
 -1       282-4.05508E+06-6.24010E+05-3.82955E+04-1.57500E+06 7.32143E-10 2.73485E-09
 -1       283-4.07078E+06-5.74394E+05-6.91863E+04-1.54272E+06 7.38510E-10-1.49157E-10
 -1       284-4.11727E+06-7.10325E+05-1.86455E+05-1.55776E+06-2.63753E-10 1.01136E-09
 -1       285-4.01751E+06-5.06229E+05-2.93384E+05-1.55332E+06 5.74801E-10-2.03727E-10
 -1       286-6.89724E+05-1.25453E+04 2.92939E+04-1.77969E+03 2.08922E-09-4.04543E-09
 -1       287-6.76347E+05 1.45261E+04 2.07855E+04-2.39025E+02 8.99718E-10 1.77738E-09
 -1       288-6.84849E+05-1.95434E+03 7.55427E+03 1.70525E+02-2.83762E-10 4.29509E-09
 -1       289-6.82128E+05 2.25489E+03 4.83656E+03-3.95239E+03-2.41300E-10 3.69380E-09
 -1       290-6.83960E+05-3.08748E+02 1.94725E+03 1.93374E+03 7.57097E-10-1.06297E-10
 -1       291-6.83275E+05 3.69508E+02 1.23545E+03-6.82228E+03 1.74727E-09-4.25501E-09
 -1       292-6.83725E+05-5.89942E+01 6.52256E+02 3.04046E+03 1.35950E-09-8.36977E-10
 -1       293-6.83534E+05 1.43437E+02 6.42138E+02-8.09194E+03 3.32030E-10 1.08113E-09
 -1       294-6.83715E+05-7.33448E+01 7.97860E+02 3.20344E+03 1.61690E-09 7.40329E-10
 -1       295-6.83267E+05 5.02683E+02 1.63173E+03-7.43197E+03 1.60335E-09 7.96007E-10
 -1       296-6.83984E+05-4.22678E+02 2.69297E+03 2.38047E+03 1.21625E-09 6.63817E-10
 -1       297-6.81758E+05 3.12669E+03 6.65870E+03-5.01454E+03 1.51856E-09-1.89584E-09
 -1       298-6.85201E+05-2.70490E+03 1.04996E+04 7.85965E+02 6.36021E-10 2.19461E-09
 -1       299-6.73705E+05 2.01504E+04 2.88079E+04-1.48423E+03-1.41245E-09-1.61253E-09
 -1       300-6.92010E+05-1.74001E+04 4.06685E+04-1.14993E+03-4.00860E-10-2.41016E-09
 -1       301 5.38118E+04 2.83893E+04 1.15295E+05-3.00800E+04-2.96859E-09 2.56580E-09
 -1       302 1.81991E+04 4.97456E+04 6.97757E+04-3.52290E+04-4.14730E-10-5.93556E-09
 -1       303 5.27517E+03 3.59967E+04 5.48191E+04-3.01758E+04-3.14139E-09-6.57678E-09
 -1       304 2.22242E+04 5.20455E+04 8.03063E+04-3.51996E+04-2.40107E-10-3.38332E-10
 -1       305 6.69202E+04 2.61077E+04 1.40903E+05-3.00748E+04-2.81580E-09 6.47447E-09
 -1       306-2.82322E+06-3.60967E+05-1.95686E+05-1.09365E+06 3.47791E-09-3.78350E-10
 -1       307-2.87833E+06-5.07713E+05-1.24247E+05-1.10911E+06 9.00491E-09-6.62112E-10
 -1       308-2.85912E+06-4.05881E+05-4.61916E+04-1.08620E+06 2.68574E-09 3.11593E-09
 -1       309-2.83647E+06-4.50882E+05-2.55347E+04-1.12148E+06-1.20349E-09-2.21689E-09
 -1       310-2.86429E+06-4.09817E+05-1.07783E+04-1.08445E+06 3.24235E-09 5.87397E-09
 -1       311-2.83041E+06-4.46061E+05-5.77489E+03-1.12437E+06 2.30102E-09 1.12368E-09
 -1       312-2.86536E+06-4.09778E+05-3.04704E+03-1.08379E+06 5.34101E-10 3.68118E-09
 -1       313-2.82946E+06-4.45969E+05-2.58867E+03-1.12510E+06 1.13724E-09 2.39368E-09
 -1       314-2.86533E+06-4.09789E+05-3.33182E+03-1.08381E+06-1.75487E-09 2.90811E-10
 -1       315-2.83058E+06-4.46108E+05-6.56587E+03-1.12427E+06 1.36424E-09 5.35510E-09
 -1       316-2.86414E+06-4.09777E+05-1.23708E+04-1.08451E+06 3.86717E-09 4.78394E-09
 -1       317-2.83742E+06-4.51840E+05-2.93962E+04-1.12118E+06-1.43700E-10 8.44011E-10
 -1       318-2.85832E+06-4.05095E+05-5.31820E+04-1.08638E+06 5.91740E-10 2.13186E-09
 -1       319-2.88534E+06-5.17656E+05-1.43109E+05-1.10738E+06-6.00267E-10 6.53017E-10
 -1       320-2.81718E+06-3.53106E+05-2.25331E+05-1.09470E+06 1.30967E-10 4.22006E-10
 -1       321-5.52976E+05-2.27760E+04 5.31769E+04 2.17078E+02-1.86901E-09 3.52520E-09
 -1       322-5.28831E+05 2.63689E+04 3.77066E+04-5.79656E+03-1.32673E-09 4.00178E-10
 -1       323-5.43925E+05-3.53651E+03 1.37349E+04 2.09578E+03-1.31348E-09 4.56566E-09
 -1       324-5.39572E+05 4.09372E+03 8.68012E+03-8.91521E+03-2.16862E-09 4.99494E-09
 -1       325-5.42288E+05-5.47718E+02 3.51064E+03 3.33582E+03 1.40005E-10 3.96767E-10
 -1       326-5.41536E+05 6.53358E+02 2.06213E+03-1.04685E+04 6.33246E-10-1.42157E-09
 -1       327-5.41991E+05-8.76488E+01 9.37252E+02 3.64912E+03-2.50261E-09 2.89725E-09
 -1       328-5.41741E+05 1.37358E+02 6.17285E+02-1.01031E+04-6.01517E-10 5.25262E-10
 -1       329-5.42077E+05-3.78805E+01 4.02046E+02 2.97042E+03 6.09987E-10-3.05111E-09
 -1       330-5.41374E+05 1.67913E+02 6.68684E+02-7.89192E+03-1.47008E-09-8.77129E-10
 -1       331-5.42324E+05-1.42954E+02 7.97705E+02 1.43787E+03 1.40972E-11 1.53457E-09
 -1       332-5.40637E+05 9.48240E+02 2.16491E+03-4.29242E+03 3.80311E-09 5.52888E-10
 -1       333-5.42778E+05-8.41290E+02 3.09708E+03-6.29035E+02 3.15845E-09-2.18893E-09
 -1       334-5.38176E+05 6.11216E+03 8.83952E+03-6.09091E+01 3.29783E-09 6.77574E-10
 -1       335-5.44775E+05-5.29592E+03 1.21932E+04-2.79357E+03-4.66565E-09-1.57343E-09
 -1       336 1.36555E+03-1.19753E+06-7.42269E+03-5.75206E+03-7.08437E-09 2.23736E-09
 -1       337-3.06584E+03-1.20058E+06-9.84283E+03-3.40103E+04-4.88828E-09 1.29455E-09
 -1       338 1.40766E+03-1.19744E+06-1.35889E+04-5.52120E+03-7.56017E-09 2.07001E-09
 -1       339-1.56692E+04-1.20798E+06-3.16800E+04-3.42680E+04-5.04997E-09 1.84664E-09
 -1       340 1.18629E+04-1.19020E+06-4.84294E+04-5.49925E+03-7.20866E-09 2.45916E-09
 -1       341-1.26439E+06-2.08005E+05-3.71937E+04-5.16296E+05-4.54384E-09-3.86535E-10
 -1       342-1.27295E+06-8.22392E+04-9.63006E+02-3.46362E+05-7.19638E-10 5.89807E-10
 -1       343-1.18543E+06-2.34880E+05-6.74034E+03-5.34575E+05-1.01090E-08-3.02582E-08
 -1       344-1.34964E+06-5.27095E+04-3.16278E+02-3.31941E+05 1.70798E-08-8.77793E-09
 -1       345-1.19145E+06-2.34699E+05-3.46968E+03-5.33810E+05-8.83665E-09-1.15256E-09
 -1       346-1.25449E+06-8.05250E+04 1.44574E+04-3.51209E+05 9.56197E-09 1.56160E-08
 -1       347-1.27620E+06-2.10353E+05-1.48862E+04-5.11719E+05 1.52395E-08 2.32990E-09
 -1       348-1.11996E+06-1.57173E+05 2.52870E+04-4.26784E+05 1.14851E-08-2.19541E-09
 -1       349-1.32193E+06-1.61137E+05-1.52516E+04-4.55275E+05 1.82099E-08 7.34872E-10
 -1       350-1.09645E+06-2.47049E+05 1.00810E+04-5.41490E+05-7.27805E-08-2.67900E-08
 -1       351-1.30406E+06-1.17205E+05-8.50350E+03-4.00464E+05-2.26605E-08-3.37855E-09
 -1       352-1.12174E+06-2.93565E+05-1.57075E+04-5.96967E+05 1.16383E-07-1.42918E-08
 -1       353-1.30084E+06-1.11444E+05-3.21073E+04-4.02800E+05 2.12432E-08-1.71858E-08
 -1       354-1.12901E+06-3.01335E+05-7.29590E+04-5.26949E+05-7.87629E-08 4.05453E-09
 -1       355-1.29242E+06-1.12946E+05-1.43536E+05-4.67272E+05-2.16496E-08 4.37285E-09
 -1       356-6.12315E+05-2.67342E+03 6.12509E+03-4.03090E+03 2.41585E-10-2.50839E-09
 -1       357-6.08892E+05 3.09577E+03 4.44986E+03 3.45730E+03-5.59942E-09-9.53435E-10
 -1       358-6.11439E+05-4.35417E+02 1.49849E+03-2.08430E+03-2.73735E-09 1.37948E-09
 -1       359-6.09912E+05 4.81188E+02 1.07930E+03-7.19251E+02 2.84194E-09-6.31455E-09
 -1       360-6.11280E+05-7.95142E+01 2.25535E+02 1.45703E+02-3.87786E-10-2.72561E-09
 -1       361-6.10265E+05 5.18601E+01 1.15024E+02-4.94218E+03 4.99767E-10 6.31182E-09
 -1       362-6.11100E+05 3.17504E+00-3.71828E+02 2.13856E+03-1.79858E-09 2.68253E-09
 -1       363-6.10729E+05-1.59481E+02-8.40672E+02-8.22570E+03 8.39009E-11 5.08368E-09
 -1       364-6.10849E+05 1.55318E+02-1.70206E+03 3.42925E+03 4.86827E-09 4.24632E-09
 -1       365-6.11520E+05-1.19456E+03-3.92349E+03-9.80829E+03-5.47771E-09-3.69045E-09
 -1       366-6.10332E+05 1.05204E+03-6.81414E+03 3.72121E+03 3.53783E-09 9.42691E-10
 -1       367-6.14739E+05-7.90041E+03-1.67308E+04-9.32404E+03 5.36062E-09 1.77715E-09
 -1       368-6.07628E+05 6.83563E+03-2.68212E+04 2.94495E+03 3.13798E-09 1.33878E-09
 -1       369-6.34518E+05-5.11730E+04-7.29678E+04-6.84650E+03 3.60238E-09 4.48927E-09
 -1       370-5.90531E+05 4.41630E+04-1.03591E+05 1.24363E+03 5.09817E-09 1.71713E-09
 -1       371-1.57921E+04-2.64824E+05 3.57094E+04-1.69202E+03 4.22551E-09 1.90960E-09
 -1       372 1.60594E+04-2.48328E+05 2.15125E+04 1.29339E+04 2.06865E-09 5.71546E-09
 -1       373-2.86317E+02-2.57207E+05 1.06371E+03-2.68269E+03 1.94996E-09-1.30154E-09
 -1       374-1.36150E+04-2.62827E+05-1.75421E+04 1.44036E+04 7.42148E-10-2.73127E-09
 -1       375 1.38331E+04-2.50399E+05-3.12745E+04-3.16160E+03 6.74845E-10-4.50029E-10
 -1       376-1.01255E+06-1.37106E+05-4.17641E+04-4.00905E+05 2.30739E-09-6.81575E-09
 -1       377-1.06167E+06-1.45858E+05-2.86454E+04-3.61057E+05 2.89143E-08 3.31556E-09
 -1       378-1.01861E+06-1.53359E+05-9.75069E+03-3.99778E+05 2.47292E-09 9.38144E-10
 -1       379-1.04933E+06-1.30547E+05-5.82570E+03-3.66095E+05 2.27156E-09-2.83353E-09
 -1       380-1.02481E+06-1.52408E+05-2.64665E+03-3.95838E+05-1.47196E-09 1.18450E-09
 -1       381-1.03469E+06-1.38063E+05-6.58906E+02-3.77527E+05-4.51632E-09-2.67164E-10
 -1       382-1.03306E+06-1.45982E+05-1.44527E+03-3.88195E+05 6.08907E-10-4.93515E-10
 -1       383-1.02053E+06-1.51838E+05-3.06149E+02-3.93556E+05-3.25423E-09 5.81883E-09
 -1       384-1.03896E+06-1.38637E+05-2.00720E+03-3.79806E+05-4.61716E-09 2.79124E-09
 -1       385-1.01319E+06-1.64037E+05-3.72515E+03-4.06574E+05 1.87600E-09-5.03314E-09
 -1       386-1.04060E+06-1.33640E+05-6.86562E+03-3.75326E+05 2.25612E-09 5.00972E-09
 -1       387-1.01659E+06-1.74395E+05-1.82919E+04-4.07930E+05-3.35513E-09 1.21395E-09
 -1       388-1.03563E+06-1.28255E+05-2.97324E+04-3.78493E+05 2.73258E-09-4.45652E-10
 -1       389-1.05147E+06-2.18685E+05-8.67622E+04-3.88770E+05 8.81528E-09-4.15730E-09
 -1       390-1.00559E+06-8.96205E+04-1.26752E+05-3.94311E+05 1.19162E-08-5.10772E-09
 -1       406 2.40140E+03 5.92217E+05 4.60566E+03-7.36591E+04 3.14685E-10 4.33192E-09
 -1       407 1.31469E+03 5.92991E+05 4.62699E+03-8.12881E+04-3.95175E-09-1.22327E-09
 -1       408 1.65290E+03 5.92155E+05 6.81777E+03-7.34440E+04 7.63976E-11 1.78443E-09
 -1       409 6.36742E+03 5.94702E+05 1.41342E+04-8.15502E+04-4.60068E-09 1.83900E-09
 -1       410 1.82908E+04 5.90327E+05 2.82184E+04-7.33737E+04 8.18545E-11-1.27329E-10
 -1       466 1.12489E+06-4.44599E+04 9.95075E+04 3.11764E+04 9.41782E-10-7.02858E-09
 -1       467 1.19575E+06 5.04227E+04 7.48996E+04-6.03876E+04-6.45286E-10 2.88856E-09
 -1       468 1.15078E+06-6.61192E+03 2.59553E+04 1.30265E+04 1.69393E-10-6.49379E-09
 -1       469 1.16402E+06 7.45161E+03 1.72086E+04-3.34152E+04-1.13550E-09 8.63110E-10
 -1       470 1.15562E+06-9.67988E+02 6.85021E+03 4.19356E+03-4.06885E-10-3.87445E-10
 -1       471 1.15803E+06 1.17160E+03 4.47280E+03-2.04583E+04 1.67893E-09-8.31790E-10
 -1       472 1.15653E+06-1.81963E+02 2.58060E+03 6.87938E+01 1.26079E-10 2.40180E-09
 -1       473 1.15704E+06 5.89176E+02 2.90697E+03-1.48816E+04 4.72710E-10-2.99769E-09
 -1       474 1.15654E+06-3.45545E+02 4.00661E+03-1.38313E+03-1.18050E-09 1.72781E-09
 -1       475 1.15802E+06 2.59891E+03 8.42176E+03-1.39413E+04 1.27268E-09-3.58750E-09
 -1       476 1.15554E+06-2.18109E+03 1.42827E+04-8.71461E+02 2.97145E-09-2.36469E-11
 -1       477 1.16515E+06 1.64688E+04 3.49072E+04-1.71824E+04-6.32937E-10-4.89854E-09
 -1       478 1.14942E+06-1.41921E+04 5.56337E+04 1.85814E+03-1.77238E-10 5.31509E-09
 -1       479 1.20834E+06 1.06303E+05 1.51969E+05-2.63936E+04 2.54695E-09-2.30830E-09
 -1       480 1.11246E+06-9.17882E+04 2.14728E+05 8.33868E+03 2.76680E-09-1.16415E-10
 -1       481-1.09203E+04 2.43099E+05 2.03513E+04-1.94880E+04-1.37334E-10-5.85260E-10
 -1       482 1.18368E+04 2.80490E+05 2.00194E+04 6.94570E+04-3.81988E-11 1.03764E-08
 -1       483-1.82370E+03 2.56106E+05 7.20841E+03-1.54957E+04 6.48015E-11 4.16526E-09
 -1       484 4.94630E+03 2.64533E+05 9.08990E+03 6.42933E+04 1.30754E-10-2.13731E-10
 -1       485-3.23409E+03 2.57883E+05 8.58981E+03-1.43113E+04 1.46883E-10-1.86105E-10
 -1       486-1.10542E+06-1.94985E+05-1.30960E+05-5.08757E+05 1.63345E-09-1.62290E-08
 -1       487-1.15052E+06-2.29178E+04-4.53952E+04-2.03874E+05 1.22127E-08 2.22863E-08
 -1       488-9.85195E+05-2.38158E+05-2.47174E+04-5.05799E+05 1.15506E-10 1.63673E-08
 -1       489-1.23260E+06 2.68567E+04-7.82731E+03-2.10847E+05 3.14571E-10 2.21580E-08
 -1       490-1.02888E+06-2.40621E+05-1.35946E+04-5.06636E+05 8.35507E-09 2.10125E-08
 -1       491-1.01803E+06-5.80011E+03 3.63197E+04-2.17889E+05 2.89365E-08 1.24746E-08
 -1       492-1.18846E+06-2.13733E+05-3.58968E+04-4.89224E+05 1.52804E-08-5.56611E-10
 -1       493-7.88823E+05-1.08422E+05 6.20389E+04-3.09044E+05-1.28543E-08 2.35741E-09
 -1       494-1.24918E+06-1.44686E+05-3.41099E+04-4.09384E+05 4.21824E-09-8.14862E-09
 -1       495-8.03997E+05-2.38828E+05 3.30100E+04-4.88449E+05 1.19007E-09-3.93994E-08
 -1       496-1.18287E+06-7.62959E+04-1.08967E+04-3.17632E+05-1.55433E-09-1.78738E-08
 -1       497-8.97587E+05-3.11177E+05-7.06581E+03-5.99135E+05-3.61256E-08-6.90852E-09
 -1       498-1.16685E+06-6.38909E+04-2.34250E+04-3.06357E+05-2.01958E-08 6.65868E-08
 -1       499-8.50232E+05-2.96338E+05-3.43589E+04-5.19667E+05-8.96387E-09 1.11941E-08
 -1       500-1.22247E+06-9.70836E+04-1.22477E+05-3.91857E+05 2.63635E-08-6.89761E-09
 -1       501-7.07729E+05-2.17270E+04 5.07750E+04-1.56902E+03 7.99218E-10-1.28784E-09
 -1       502-6.84831E+05 2.51614E+04 3.59730E+04-1.02027E+03 1.25425E-10 2.48292E-09
 -1       503-6.99247E+05-3.37940E+03 1.30927E+04 7.23606E+02-5.56440E-10 7.59428E-10
 -1       504-6.94871E+05 3.90384E+03 8.30489E+03-5.28178E+03-1.46343E-10-1.60708E-09
 -1       505-6.97723E+05-5.28568E+02 3.31592E+03 2.69260E+03 1.18098E-09-1.84605E-09
 -1       506-6.96790E+05 6.19698E+02 1.95826E+03-8.35063E+03 3.48956E-09 4.55429E-10
 -1       507-6.97361E+05-8.38709E+01 8.32793E+02 3.79251E+03 1.25347E-09 3.25383E-09
 -1       508-6.97199E+05 1.13238E+02 4.46460E+02-9.38924E+03-1.42998E-10 1.69450E-10
 -1       509-6.97328E+05-1.37872E+01 1.70171E+02 3.73125E+03 2.20854E-09 3.24128E-09
 -1       510-6.97095E+05 7.05400E+00 5.86278E+01-8.12160E+03 1.79877E-09-1.98033E-09
 -1       511-6.97450E+05 1.04787E+01-1.31127E+02 2.52482E+03 1.30115E-09 5.51523E-11
 -1       512-6.96876E+05-1.59913E+02-2.54356E+02-4.88070E+03 1.13431E-10-2.03639E-09
 -1       513-6.97519E+05 1.31248E+02-6.41652E+02 4.90280E+02-3.43618E-10 1.67432E-10
 -1       514-6.97178E+05-1.10299E+03-1.48989E+03-5.15575E+02-1.72733E-09 1.54830E-09
 -1       515-6.97134E+05 9.40229E+02-2.35219E+03-1.84028E+03-2.22354E-09-3.49769E-09
 -1       516-5.96539E+04 2.30829E+05 1.35914E+05 3.57106E+04 1.03319E-08 4.24734E-09
 -1       517 7.20126E+04 3.05772E+05 1.02763E+05-1.66302E+05 1.63145E-08 1.62123E-08
 -1       518-1.06734E+04 2.59468E+05 4.34492E+04 3.43072E+04 9.71340E-09 8.94943E-09
 -1       519 3.07318E+04 3.13574E+05 5.23990E+04-1.70871E+05 1.40403E-08-1.27613E-09
 -1       520-2.02616E+04 2.25511E+05 3.38354E+04 4.02737E+04-5.32509E-09 2.31194E-09
 -1       521-3.80707E+06-4.81532E+05-2.72216E+05-1.47173E+06-2.33558E-09 2.91038E-09
 -1       522-3.89619E+06-6.73929E+05-1.72940E+05-1.47946E+06-2.18961E-10-5.04406E-09
 -1       523-3.85687E+06-5.44319E+05-6.42089E+04-1.46146E+06-3.99041E-10 2.97587E-09
 -1       524-3.83792E+06-5.94565E+05-3.55092E+04-1.49632E+06-1.64437E-09 2.38970E-09
 -1       525-3.86397E+06-5.49919E+05-1.49388E+04-1.45909E+06 1.02045E-09 1.15688E-09
 -1       526-3.82951E+06-5.87721E+05-7.96051E+03-1.50010E+06 3.07273E-09 2.08911E-09
 -1       527-3.86538E+06-5.49958E+05-4.08873E+03-1.45825E+06 3.87672E-10-3.00736E-09
 -1       528-3.82827E+06-5.87438E+05-3.28309E+03-1.50091E+06-6.11351E-11 2.37605E-10
 -1       529-3.86528E+06-5.50069E+05-3.99741E+03-1.45836E+06-9.11768E-10 1.29148E-10
 -1       530-3.82983E+06-5.87297E+05-7.69690E+03-1.49961E+06 8.50150E-10-2.70575E-10
 -1       531-3.86369E+06-5.50266E+05-1.44172E+04-1.45942E+06-2.71439E-09-1.19508E-09
 -1       532-3.83835E+06-5.93451E+05-3.42232E+04-1.49543E+06 1.09958E-09-3.77440E-10
 -1       533-3.85661E+06-5.45111E+05-6.18922E+04-1.46196E+06 2.59774E-09 3.14321E-09
 -1       534-3.89494E+06-6.69462E+05-1.66654E+05-1.47863E+06-1.37084E-09-4.10910E-09
 -1       535-3.80839E+06-4.84853E+05-2.62350E+05-1.47212E+06-9.31323E-10 2.59024E-09
 -1       536 1.14219E+05-1.80291E+04 7.29248E+04-7.93486E+03 5.84805E-10-5.23869E-10
 -1       537 1.41283E+05 2.35576E+04 4.70654E+04-3.50151E+04-3.85853E-09-6.66932E-09
 -1       538 1.25279E+05-1.98177E+03 1.88811E+04-7.88202E+03-2.85581E-10-1.01863E-09
 -1       539 1.28667E+05 2.33604E+03 1.06243E+04-3.50245E+04 2.42471E-09-1.01613E-09
 -1       540 1.26541E+05-2.51748E+02 4.76163E+03-7.91709E+03 7.57609E-10-3.69482E-10
 -1       541 1.27048E+05 2.22490E+02 2.53339E+03-3.49575E+04-5.94810E-10-1.76760E-09
 -1       542 1.26690E+05-3.64187E+01 1.19254E+03-7.94934E+03-7.91260E-11-1.88948E-10
 -1       543 1.26754E+05 4.14139E+01 6.25825E+02-3.49084E+04-6.59384E-11 9.39622E-11
 -1       544 1.26706E+05 1.88421E+00 3.11564E+02-7.96634E+03 9.15179E-11-1.92949E-09
 -1       545 1.26687E+05 3.70277E+01 1.81639E+02-3.48894E+04-6.05667E-10 1.28171E-09
 -1       546 1.26708E+05 4.44745E+00 1.28082E+02-7.96834E+03 1.67802E-10 2.22724E-09
 -1       547 1.26720E+05 5.05548E+01 1.57541E+02-3.48960E+04-1.11777E-09 7.43910E-10
 -1       548 1.26703E+05-2.78692E+01 2.22717E+02-7.95979E+03-5.79348E-10-4.11984E-09
 -1       549 1.26942E+05 2.58517E+02 5.35511E+02-3.48665E+04 7.51470E-10-2.95847E-09
 -1       550 1.26596E+05-2.38170E+02 7.91371E+02-7.99785E+03-4.28372E-10 1.80228E-09
 -1       551 1.90172E+04-3.61285E+05 3.69523E+04-5.45626E+05-1.06957E-09-1.78261E-09
 -1       552 1.02362E+04-3.55739E+05 2.80524E+04-6.36042E+05-3.03407E-09 1.62072E-09
 -1       553 6.85584E+03-3.61017E+05 3.12099E+04-5.44718E+05-2.43745E-10 2.27101E-09
 -1       554 2.16824E+04-3.49753E+05 5.74281E+04-6.36205E+05-1.93540E-09 1.62254E-09
 -1       555 5.59591E+04-3.68340E+05 1.08399E+05-5.45326E+05-1.41881E-09-1.84991E-09
 -1       556-2.91572E+05-1.47052E+05 2.16790E+04-2.63945E+05 1.75351E-09-2.34286E-09
 -1       557-2.70797E+05-1.69788E+05 1.06632E+04-2.80460E+05-2.91038E-09-5.78893E-10
 -1       558-2.92431E+05-1.54286E+05 4.44908E+03-2.59722E+05-3.09228E-09-2.09729E-09
 -1       559-2.73115E+05-1.73309E+05 2.19641E+03-2.81481E+05-1.17871E-09-1.31695E-09
 -1       560-2.92964E+05-1.54209E+05 9.57220E+02-2.59840E+05-1.05501E-09 2.94131E-09
 -1       561-2.73796E+05-1.73264E+05 4.56573E+02-2.81973E+05 8.71296E-10-4.10807E-10
 -1       562-2.93355E+05-1.53962E+05 1.45152E+02-2.60095E+05 5.71163E-10 8.48104E-10
 -1       563-2.74171E+05-1.73103E+05-3.62490E+01-2.82240E+05 1.66438E-10-3.04999E-09
 -1       564-2.93567E+05-1.53816E+05-2.66337E+02-2.60243E+05 1.38971E-09-1.00235E-08
 -1       565-2.74363E+05-1.73028E+05-6.57395E+02-2.82361E+05 4.31282E-09-6.71389E-09
 -1       566-2.93576E+05-1.53767E+05-1.40491E+03-2.60272E+05 3.41481E-09-3.24690E-09
 -1       567-2.74591E+05-1.73194E+05-3.10895E+03-2.82314E+05 4.66116E-10-9.76797E-10
 -1       568-2.93271E+05-1.54317E+05-6.40581E+03-2.59970E+05 9.51331E-10 8.40373E-10
 -1       569-2.77913E+05-1.77235E+05-1.51115E+04-2.81204E+05 4.19277E-10 2.26646E-09
 -1       570-2.91872E+05-1.66466E+05-3.09376E+04-2.54764E+05 8.02538E-09 2.39165E-08
 -1       571 3.92160E+05 1.89628E+04 2.95048E+04-9.78499E+04 1.85537E-10-1.00749E-09
 -1       572 3.96689E+05 6.40892E+03 1.45098E+04-1.08085E+05-4.62023E-10 2.23417E-09
 -1       573 3.93955E+05 1.38627E+03 6.45920E+03-9.75708E+04-4.62933E-10 1.97360E-09
 -1       574 3.94465E+05 4.21884E+02 3.24796E+03-1.08382E+05-5.22959E-11-2.17460E-09
 -1       575 3.94121E+05 2.51769E+01 1.53990E+03-9.75371E+04-1.92813E-10-3.88354E-10
 -1       576 3.94165E+05-4.21661E+00 7.90943E+02-1.08420E+05-6.10271E-10 1.94086E-09
 -1       577 3.94145E+05-2.88647E+01 4.00866E+02-9.75328E+04-6.78938E-10 4.37467E-09
 -1       578 3.94147E+05-2.60831E+01 2.39304E+02-1.08425E+05-3.50155E-10 2.39470E-09
 -1       579 3.94195E+05-4.55664E+01 1.82880E+02-9.75322E+04-1.61162E-09-2.03090E-09
 -1       580 3.94229E+05-6.06192E+01 2.31501E+02-1.08421E+05-2.52749E-09-9.01309E-10
 -1       581 3.94288E+05-8.56442E+01 3.79314E+02-9.75366E+04-5.28053E-09 1.10958E-10
 -1       582 3.94429E+05-2.99824E+01 7.69426E+02-1.08365E+05-5.27234E-09-5.63887E-09
 -1       583 3.94386E+05 1.52247E+02 1.50292E+03-9.75880E+04-2.28683E-08-4.28918E-09
 -1       584 3.95121E+05 1.28002E+03 3.37705E+03-1.07911E+05-4.03670E-08-1.42609E-09
 -1       585 3.94126E+05 4.17023E+03 6.84711E+03-9.79974E+04-1.57142E-08-2.54659E-11
 -1       586 2.87841E+03 1.53631E+05 5.03737E+03-2.55142E+05 2.14641E-09 4.02906E-09
 -1       587 1.79423E+03 1.54384E+05 5.07484E+03-2.82639E+05 2.05546E-10-7.29415E-10
 -1       588 2.12930E+03 1.53418E+05 7.46015E+03-2.54818E+05 2.37014E-09-1.07207E-09
 -1       589 7.30558E+03 1.56265E+05 1.54563E+04-2.82706E+05 5.03860E-10-2.07365E-09
 -1       590 2.02192E+04 1.51590E+05 3.08220E+04-2.55063E+05 2.17187E-09 1.40699E-09
 -1       591-1.68896E+05-6.08844E+04-3.29731E+04-8.97609E+04-2.04852E-09-7.42875E-09
 -1       592-1.69686E+05-5.66783E+04-1.61281E+04-9.97828E+04-1.59889E-09 2.81375E-09
 -1       593-1.69797E+05-4.83395E+04-6.84082E+03-9.54532E+04-2.76350E-09-5.14683E-09
 -1       594-1.66194E+05-5.21599E+04-3.34423E+03-1.00437E+05 3.40901E-09 5.24331E-09
 -1       595-1.69960E+05-4.78519E+04-1.53925E+03-9.57197E+04 1.00499E-09 6.70525E-10
 -1       596-1.65931E+05-5.19744E+04-7.81698E+02-1.00422E+05-2.11094E-09-5.53268E-09
 -1       597-1.69993E+05-4.78716E+04-4.28170E+02-9.57235E+04 4.49376E-09 1.44855E-08
 -1       598-1.65904E+05-5.19767E+04-3.47521E+02-1.00411E+05-4.37467E-10-4.62023E-10
 -1       599-1.69987E+05-4.78735E+04-4.47691E+02-9.57206E+04 3.29237E-10-1.36970E-09
 -1       600-1.65924E+05-5.19786E+04-8.33244E+02-1.00415E+05 7.11225E-10-1.73077E-09
 -1       601-1.69940E+05-4.78568E+04-1.64839E+03-9.57106E+04-6.06178E-10-1.90903E-09
 -1       602-1.66200E+05-5.21787E+04-3.58599E+03-1.00420E+05 1.38743E-09 2.31921E-10
 -1       603-1.69755E+05-4.83886E+04-7.33687E+03-9.54228E+04-1.94450E-09-2.51930E-09
 -1       604-1.69964E+05-5.69976E+04-1.72960E+04-9.96784E+04 9.06311E-10 4.20050E-09
 -1       605-1.68753E+05-6.18635E+04-3.53599E+04-8.93400E+04-3.25417E-09-9.56334E-09
 -1       606 1.15559E+05-1.48716E+04-2.30687E+04 3.34170E+04-8.06904E-09-1.32604E-09
 -1       607 1.11941E+05-5.02620E+03-1.13390E+04 3.65495E+04-2.28465E-09 6.83940E-10
 -1       608 1.14039E+05-1.08347E+03-5.04870E+03 3.31834E+04 4.89308E-09 2.40539E-09
 -1       609 1.13558E+05-2.89148E+02-2.53219E+03 3.67989E+04-2.99042E-09 5.54519E-09
 -1       610 1.13826E+05 2.87982E+01-1.19723E+03 3.31540E+04-7.83439E-09 1.78852E-09
 -1       611 1.13725E+05 7.99889E+01-6.03125E+02 3.68297E+04-1.48366E-08 2.31557E-09
 -1       612 1.13769E+05 9.17338E+01-2.88308E+02 3.31508E+04-7.16500E-09 9.56788E-10
 -1       613 1.13726E+05 1.03036E+02-1.34965E+02 3.68333E+04-9.56970E-09-1.81353E-09
 -1       614 1.13740E+05 9.44316E+01-4.50538E+01 3.31501E+04-1.14069E-08-2.37719E-09
 -1       615 1.13712E+05 1.10568E+02 2.25099E+01 3.68334E+04-1.06502E-08-3.32375E-09
 -1       616 1.13718E+05 1.04843E+02 9.92795E+01 3.31506E+04-1.45756E-08-3.07909E-09
 -1       617 1.13717E+05 1.51769E+02 2.40288E+02 3.68321E+04-8.74707E-10 2.93312E-10
 -1       618 1.13689E+05 2.17956E+02 4.92310E+02 3.31510E+04 5.81167E-10 2.55704E-09
 -1       619 1.13871E+05 6.20777E+02 1.11426E+03 3.68277E+04-3.13776E-11 1.36879E-10
 -1       620 1.13537E+05 1.57726E+03 2.26988E+03 3.31516E+04-3.65503E-10 2.26237E-09
 -1       621 3.08311E+03 3.88465E+05 7.25584E+03-3.62841E+04 4.61114E-10-2.99633E-09
 -1       622 1.19726E+03 3.89826E+05 5.88299E+03-4.24578E+04-2.05137E-09-4.22301E-09
 -1       623 7.15868E+02 3.88784E+05 7.10553E+03-3.63322E+04-1.00044E-11-1.52522E-09
 -1       624 4.12351E+03 3.91532E+05 1.35723E+04-4.22592E+04-1.73554E-09 2.66073E-09
 -1       625 1.26244E+04 3.86834E+05 2.59395E+04-3.64781E+04 1.28239E-10 2.42380E-09
 -1       626 1.62477E+05 5.25953E+04-1.09719E+04 1.10891E+05-4.47017E-09-2.01908E-09
 -1       627 1.57752E+05 5.99241E+04-5.21038E+03 1.12782E+05 4.51109E-10 1.27454E-09
 -1       628 1.62665E+05 5.79452E+04-2.19161E+03 1.08298E+05 1.94923E-08-7.38282E-10
 -1       629 1.58578E+05 6.20993E+04-1.05268E+03 1.12562E+05 2.63899E-08-3.22893E-09
 -1       630 1.62624E+05 5.83101E+04-4.66584E+02 1.08084E+05 1.83436E-08 4.28832E-09
 -1       631 1.58624E+05 6.22603E+04-2.10965E+02 1.12550E+05-4.28645E-09 5.35510E-09
 -1       632 1.62590E+05 5.83272E+04-6.47997E+01 1.08059E+05-3.57522E-09-2.27305E-09
 -1       633 1.58616E+05 6.22717E+04 3.78653E+01 1.12544E+05 9.51331E-09-5.83327E-10
 -1       634 1.62568E+05 5.83214E+04 1.59387E+02 1.08051E+05 1.11995E-08 9.09858E-09
 -1       635 1.58630E+05 6.22770E+04 3.85941E+02 1.12546E+05-3.07580E-09 1.23691E-09
 -1       636 1.62548E+05 5.83362E+04 8.11145E+02 1.08039E+05-4.62603E-09 2.32239E-09
 -1       637 1.58821E+05 6.24849E+04 1.81461E+03 1.12517E+05 2.38776E-09-8.62929E-09
 -1       638 1.62505E+05 5.89663E+04 3.75945E+03 1.07763E+05 7.83007E-09-6.37101E-10
 -1       639 1.60745E+05 6.57658E+04 8.94176E+03 1.11727E+05-4.03088E-09 8.01265E-10
 -1       640 1.62571E+05 6.84914E+04 1.88234E+04 1.03789E+05-2.65045E-08-1.65937E-08
 -1       641 4.73929E+03 3.37096E+03-7.91152E+03-3.27836E+02-1.05203E-08-2.85399E-09
 -1       642 1.36173E+03-3.90231E+03-5.56984E+03 1.47927E+03 2.30938E-09 4.44783E-09
 -1       643 3.42892E+03 5.20779E+02-2.04135E+03-3.23604E+02-1.97749E-08-2.90038E-09
 -1       644 2.88112E+03-5.97414E+02-1.26091E+03 1.47328E+03 7.96675E-09 7.13271E-10
 -1       645 3.21828E+03 7.80437E+01-4.89653E+02-3.21865E+02-1.22972E-08-2.54008E-09
 -1       646 3.12847E+03-7.80225E+01-2.31916E+02 1.47067E+03-4.32502E-07-7.78144E-10
 -1       647 3.18066E+03 3.58283E+00-2.07648E+00-3.20998E+02-3.25591E-05 8.15524E-08
 -1       648 3.19645E+03 4.85796E+01 2.11526E+02 1.46977E+03-6.43858E-05 1.62518E-07
 -1       649 3.15001E+03-4.80528E+01 4.83311E+02-3.20970E+02-3.25567E-05 7.40809E-08
 -1       650 3.37286E+03 3.70678E+02 1.16667E+03 1.47016E+03-4.14709E-07-1.71029E-09
 -1       651 3.00456E+03-3.17894E+02 2.03886E+03-3.21384E+02-1.12971E-08-5.86817E-09
 -1       652 4.37163E+03 2.38310E+03 5.02571E+03 1.47050E+03 1.35991E-08-6.19593E-12
 -1       653 2.15220E+03-2.05496E+03 8.03847E+03-3.21329E+02-1.31683E-08-3.24735E-09
 -1       654 1.04164E+04 1.53648E+04 2.19198E+04 1.46449E+03 3.76187E-09 1.24146E-09
 -1       655-3.03737E+03-1.32574E+04 3.10665E+04-3.15436E+02-9.10916E-10 3.86353E-09
 -1       656 1.22229E+04-4.41950E+05-5.18185E+04 1.06659E+04-4.67844E-09-9.22228E-10
 -1       657-1.77153E+04-4.61065E+05-3.79930E+04 4.45071E+04-6.60748E-10 2.43244E-09
 -1       658 2.40243E+03-4.48719E+05-2.39895E+04 1.05486E+04-1.20036E-09 3.89116E-09
 -1       659-1.61441E+04-4.60198E+05-3.52985E+04 4.45902E+04-3.59432E-09 4.71189E-10
 -1       660 1.09536E+04-4.42869E+05-4.67446E+04 1.05842E+04-3.69255E-09 1.45997E-09
 -1       661 4.36631E+05 5.52799E+04 3.59443E+04 1.70851E+05 7.51743E-09 3.23780E-09
 -1       662 4.45291E+05 8.38274E+04 2.28382E+04 1.75539E+05 1.26562E-10 2.40129E-09
 -1       663 4.42889E+05 6.38789E+04 8.49146E+03 1.69876E+05 6.16819E-09-4.12911E-10
 -1       664 4.38108E+05 7.28473E+04 4.71095E+03 1.77093E+05-4.16304E-09-7.78516E-09
 -1       665 4.43597E+05 6.48557E+04 1.99286E+03 1.69819E+05 1.59218E-09 1.14039E-09
 -1       666 4.37296E+05 7.16254E+04 1.08842E+03 1.77181E+05-1.45587E-08 3.60345E-09
 -1       667 4.43672E+05 6.49768E+04 6.04718E+02 1.69830E+05 2.14203E-09 4.38617E-09
 -1       668 4.37224E+05 7.15044E+04 5.69540E+02 1.77171E+05-9.48219E-09 6.15069E-09
 -1       669 4.43665E+05 6.49696E+04 7.94956E+02 1.69829E+05-4.12302E-09-4.83794E-10
 -1       670 4.37365E+05 7.17048E+04 1.61813E+03 1.77178E+05 1.96139E-08 1.96837E-09
 -1       671 4.43537E+05 6.47882E+04 3.05889E+03 1.69820E+05 4.07971E-09-6.45650E-09
 -1       672 4.38648E+05 7.35812E+04 7.29145E+03 1.77015E+05-3.95542E-09 1.63141E-09
 -1       673 4.42420E+05 6.32886E+04 1.31642E+04 1.69924E+05-3.41259E-10 2.58296E-09
 -1       674 4.49813E+05 9.05854E+04 3.54208E+04 1.74567E+05 6.83985E-09 7.07450E-09
 -1       675 4.32699E+05 4.99690E+04 5.57565E+04 1.71451E+05-2.65572E-10-3.85626E-10
 -1       676 1.58102E+03-4.14541E+05-7.45006E+03 6.35462E+02 7.24413E-10 3.22409E-09
 -1       677-2.85392E+03-4.17410E+05-7.48029E+03 4.62445E+02-2.10775E-09-1.54105E-09
 -1       678 8.17835E+02-4.15024E+05-8.09316E+03 6.33817E+02 1.39380E-09 9.86866E-10
 -1       679-8.49653E+03-4.20698E+05-1.72467E+04 4.61659E+02 5.29235E-09 4.06844E-09
 -1       680 6.26153E+03-4.11255E+05-2.57984E+04 6.34684E+02-8.42192E-10 2.49293E-09
 -1       681 6.05785E+05-1.65786E+04 3.87434E+04-1.82597E+03-1.08685E-10-5.11136E-10
 -1       682 6.22955E+05 1.92214E+04 2.74282E+04 1.08308E+04 3.99041E-11-4.77485E-10
 -1       683 6.12433E+05-2.56642E+03 1.00513E+04-4.94687E+02 3.68203E-10-2.65027E-09
 -1       684 6.15189E+05 3.00028E+03 6.32203E+03 9.00909E+03 3.77099E-10-3.32693E-09
 -1       685 6.13536E+05-3.96339E+02 2.62747E+03-4.27286E+00-7.89871E-10-2.79624E-09
 -1       686 6.13936E+05 5.01364E+02 1.62470E+03 8.73948E+03-1.53910E-09-2.82716E-09
 -1       687 6.13685E+05-7.32590E+01 9.15710E+02-2.25057E+02 1.19229E-11-2.29493E-09
 -1       688 6.13926E+05 1.99322E+02 9.76450E+02 9.94866E+03 8.77947E-10-3.15826E-09
 -1       689 6.13560E+05-1.04504E+02 1.22724E+03-1.21344E+03 1.12271E-09-1.05945E-09
 -1       690 6.14703E+05 7.48073E+02 2.68312E+03 1.29413E+04 2.85627E-09 4.91809E-10
 -1       691 6.12953E+05-6.51084E+02 4.27225E+03-3.21773E+03-6.25221E-10 3.87217E-10
 -1       692 6.18107E+05 4.89084E+03 1.09551E+04 1.84729E+04-1.20906E-10-9.15861E-10
 -1       693 6.10275E+05-4.31867E+03 1.66940E+04-6.74549E+03 3.47859E-09 3.79896E-09
 -1       694 6.34626E+05 3.23808E+04 4.72831E+04 2.80723E+04 6.81422E-09 2.43745E-09
 -1       695 5.96758E+05-2.82751E+04 6.46301E+04-1.28196E+04 6.16046E-09 7.31598E-09
 -1       696-1.14888E+04 4.76253E+05 2.64406E+04 2.84025E+03 5.45697E-11-1.22839E-10
 -1       697 1.25180E+04 4.87714E+05 1.72068E+04-1.49022E+04 4.27463E-11-1.02193E-09
 -1       698-9.65936E+02 4.81312E+05 3.73736E+03 2.11331E+03-2.22371E-10 1.38169E-09
 -1       699-4.07935E+03 4.79893E+05-4.60183E+03-1.45118E+04-2.80124E-10 3.45116E-09
 -1       700 5.06029E+03 4.84071E+05-1.11259E+04 2.44980E+03-1.74623E-10 5.81110E-10
 -1       701-5.44792E+05-4.96886E+04-6.83353E+04-2.15312E+05-3.17414E-10-9.13133E-10
 -1       702-5.77378E+05-1.14786E+05-4.72739E+04-2.06967E+05-1.48248E-10 3.67891E-10
 -1       703-5.59371E+05-7.32787E+04-1.60331E+04-2.09857E+05 1.83718E-10 6.59384E-10
 -1       704-5.60270E+05-8.76721E+04-9.96953E+03-2.13533E+05 5.39785E-10 1.32002E-09
 -1       705-5.61890E+05-7.67216E+04-3.74953E+03-2.08776E+05 6.23572E-11 1.11186E-09
 -1       706-5.57536E+05-8.34795E+04-2.22819E+03-2.14526E+05-9.54969E-11 2.12074E-09
 -1       707-5.62102E+05-7.74589E+04-1.03827E+03-2.08868E+05 5.78467E-10 7.70854E-10
 -1       708-5.57861E+05-8.21192E+04-8.78304E+02-2.13712E+05 1.53179E-10-4.90306E-10
 -1       709-5.61557E+05-7.80851E+04-1.01017E+03-2.09586E+05-3.94621E-10 9.28821E-11
 -1       710-5.59587E+05-8.11317E+04-2.05641E+03-2.11858E+05 8.53092E-10-1.19655E-11
 -1       711-5.60369E+05-7.84535E+04-3.54064E+03-2.10716E+05-5.50529E-10-1.15551E-09
 -1       712-5.63819E+05-8.33812E+04-9.28854E+03-2.09022E+05-2.78419E-10-6.04018E-10
 -1       713-5.57327E+05-7.58471E+04-1.50111E+04-2.12418E+05 1.16279E-09-4.07454E-10
 -1       714-5.80682E+05-1.08108E+05-4.42212E+04-2.02204E+05 4.79986E-10-8.61746E-10
 -1       715-5.43532E+05-5.37928E+04-6.39017E+04-2.17516E+05-2.05637E-09 2.22644E-09
 -1       716 4.73767E+05-2.33741E+04 5.37271E+04-9.78871E+03-8.63110E-09 7.14499E-09
 -1       717 5.03923E+05 2.68045E+04 3.90871E+04 1.99921E+04-4.24018E-09 6.96718E-09
 -1       718 4.84451E+05-3.58059E+03 1.38865E+04-5.69106E+03 9.28594E-10 2.51293E-09
 -1       719 4.90925E+05 4.04778E+03 9.15781E+03 1.33282E+04-4.02451E-11 2.23702E-09
 -1       720 4.86556E+05-5.46057E+02 3.66836E+03-3.12296E+03-2.91038E-11 3.62434E-10
 -1       721 4.88258E+05 6.37592E+02 2.54688E+03 9.11458E+03 1.77374E-09-3.41061E-12
 -1       722 4.87031E+05-1.19591E+02 1.55988E+03-1.47688E+03-4.39798E-10-2.14460E-09
 -1       723 4.87734E+05 3.87043E+02 2.05599E+03 6.41242E+03 3.10287E-09-1.42508E-09
 -1       724 4.87044E+05-2.70897E+02 2.96991E+03-4.20685E+02-1.22483E-09-3.12070E-09
 -1       725 4.88412E+05 1.97366E+03 6.45883E+03 4.67780E+03-2.65875E-09-2.27158E-09
 -1       726 4.86335E+05-1.69140E+03 1.09856E+04 2.57759E+02-2.97014E-09-2.51248E-09
 -1       727 4.93612E+05 1.26953E+04 2.68775E+04 3.55650E+03-3.38818E-09-2.92130E-09
 -1       728 4.81832E+05-1.09549E+04 4.29510E+04 7.00520E+02-8.79496E-10-2.69029E-09
 -1       729 5.25746E+05 8.19582E+04 1.16982E+05 2.75531E+03-1.41560E-09-4.10728E-09
 -1       730 4.54207E+05-7.07122E+04 1.65924E+05 1.05832E+03-1.33070E-10-2.59752E-09
 -1       731-1.52238E+04 2.01216E+05 2.77190E+04 2.43588E+04-2.23372E-09 2.88674E-09
 -1       732 1.71279E+04 2.49561E+05 2.68843E+04-9.96894E+04-9.76570E-10-3.61979E-10
 -1       733-2.45281E+03 2.20458E+05 9.84944E+03 2.05754E+04 5.25620E-09 3.98438E-09
 -1       734 7.16635E+03 2.28645E+05 1.14697E+04-9.56318E+04 8.86897E-09 8.40203E-09
 -1       735-4.23882E+03 2.20623E+05 1.02344E+04 2.02987E+04 4.44425E-09 5.40501E-09
 -1       736-9.99130E+05-8.19027E+04-8.72015E+04-3.48169E+05-8.47558E-09-1.91358E-09
 -1       737-9.22147E+05-2.34250E+05-5.32841E+04-4.27162E+05-1.82818E-08-1.61526E-09
 -1       738-1.00981E+06-9.48532E+04-1.92912E+04-3.23175E+05-4.04953E-09-2.20916E-09
 -1       739-9.06434E+05-2.09436E+05-1.05774E+04-4.44501E+05-6.17092E-10 5.44696E-09
 -1       740-1.01555E+06-1.06085E+05-6.36758E+03-3.31375E+05 7.90260E-09 1.07329E-08
 -1       741-8.97879E+05-1.75251E+05 5.30886E+03-4.04407E+05 2.42221E-09 2.33519E-08
 -1       742-1.01596E+06-1.30786E+05-7.87477E+03-3.61543E+05-1.53495E-08 9.95487E-09
 -1       743-9.22990E+05-1.25832E+05 1.13776E+04-3.43568E+05 2.14122E-08 1.43666E-09
 -1       744-9.88897E+05-1.56615E+05-7.41860E+03-3.90991E+05 8.34234E-09-1.97906E-09
 -1       745-9.92068E+05-8.38329E+04 5.32559E+03-3.00545E+05-1.72333E-08-1.00113E-08
 -1       746-9.48698E+05-1.71456E+05-4.89582E+03-4.05887E+05-1.74207E-08-3.87531E-08
 -1       747-1.04655E+06-6.79536E+04-7.79555E+03-2.84538E+05 1.56703E-08 1.33077E-08
 -1       748-9.36595E+05-1.70932E+05-1.46043E+04-4.08719E+05-2.22940E-08-5.64796E-10
 -1       749-1.03808E+06-9.95917E+04-3.84747E+04-2.85591E+05 2.92857E-09-1.84627E-09
 -1       750-9.56229E+05-1.40579E+05-6.70117E+04-4.04042E+05 1.63709E-10 5.18776E-09
 -1       751 3.02942E+06-1.69343E+05 3.98010E+05 1.24603E+04-1.62624E-08-1.30967E-09
 -1       752 3.20172E+06 1.96248E+05 2.80617E+05-1.69399E+04-3.49547E-09-3.25963E-09
 -1       753 3.09618E+06-2.62240E+04 1.03169E+05 3.62589E+03-6.87947E-10 6.54836E-10
 -1       754 3.12426E+06 3.03687E+04 6.46021E+04-5.42217E+03-2.76743E-09 1.62618E-09
 -1       755 3.10709E+06-4.05339E+03 2.65882E+04 9.45250E+02-1.71736E-09 3.09228E-11
 -1       756 3.11166E+06 4.75172E+03 1.58351E+04-1.92120E+03 4.08019E-10 2.48360E-09
 -1       757 3.10888E+06-6.86713E+02 7.83994E+03 1.24966E+02-7.11644E-11 4.39286E-10
 -1       758 3.10981E+06 1.22937E+03 6.27982E+03-8.95844E+02 9.00508E-10-1.51701E-10
 -1       759 3.10897E+06-5.40540E+02 6.45233E+03-8.01276E+01-7.44688E-10 7.98991E-10
 -1       760 3.11097E+06 3.48076E+03 1.18424E+04-7.91855E+02 1.62551E-09 5.01223E-09
 -1       761 3.10771E+06-2.93166E+03 1.93681E+04 2.09762E+01-9.77312E-10 7.18501E-10
 -1       762 3.11999E+06 2.19161E+04 4.66747E+04-1.45393E+03 6.95179E-10 4.05271E-09
 -1       763 3.09987E+06-1.89175E+04 7.44237E+04 5.81950E+02 5.59314E-09 1.04410E-09
 -1       764 3.17547E+06 1.41494E+05 2.02253E+05-3.91911E+03 2.17661E-09 9.20409E-10
 -1       765 3.05200E+06-1.22082E+05 2.86885E+05 2.48575E+03-1.39852E-09 8.73115E-11
 -1       766-6.78778E+04 3.59509E+05 1.60406E+05-1.69630E+04 2.27010E-09-7.84439E-11
 -1       767 8.27366E+04 4.33785E+05 1.21433E+05 7.21679E+04 3.78350E-10 9.55595E-10
 -1       768-1.45984E+04 3.85282E+05 5.73741E+04-1.59376E+04-8.50378E-10 3.84262E-10
 -1       769 4.53271E+04 4.21565E+05 7.30586E+04 7.50456E+04 3.61342E-09 1.19417E-09
 -1       770-3.09269E+04 3.72186E+05 7.39881E+04-1.98429E+04 3.52884E-09 3.48064E-09
 -1       771-1.71839E+06-3.48150E+05-6.49470E+04-7.39550E+05 9.29504E-10-1.54250E-09
 -1       772-1.71545E+06-3.44000E+05-3.17232E+04-7.64034E+05-4.92037E-09 5.71890E-09
 -1       773-1.72085E+06-3.22981E+05-1.35016E+04-7.50530E+05-4.55839E-09-4.59659E-09
 -1       774-1.70853E+06-3.35470E+05-6.57718E+03-7.66193E+05-9.31323E-10-7.83621E-09
 -1       775-1.72158E+06-3.21749E+05-3.05458E+03-7.51189E+05-7.56700E-10 1.00135E-09
 -1       776-1.70828E+06-3.35061E+05-1.53545E+03-7.66545E+05 1.99361E-09 7.51334E-09
 -1       777-1.72197E+06-3.21597E+05-8.49110E+02-7.51343E+05 5.67525E-10 7.64430E-10
 -1       778-1.70845E+06-3.34993E+05-6.58340E+02-7.66786E+05 1.09139E-10 1.85017E-09
 -1       779-1.72221E+06-3.21460E+05-8.39279E+02-7.51452E+05 2.77396E-09 6.35305E-09
 -1       780-1.70866E+06-3.34945E+05-1.53272E+03-7.66979E+05 1.93722E-10 1.54387E-10
 -1       781-1.72228E+06-3.21334E+05-3.03267E+03-7.51509E+05 2.23736E-10 5.22050E-10
 -1       782-1.70927E+06-3.35288E+05-6.59787E+03-7.67103E+05 8.42192E-10 1.53523E-09
 -1       783-1.72202E+06-3.22262E+05-1.35076E+04-7.51013E+05-1.98179E-09-1.43700E-09
 -1       784-1.71617E+06-3.44249E+05-3.18772E+04-7.65867E+05-1.87373E-09-2.86855E-09
 -1       785-1.72026E+06-3.47034E+05-6.51873E+04-7.39740E+05-3.47882E-10-2.69210E-10
 -1       786 3.79423E+05-1.16554E+04 4.76238E+04-2.11974E+03 4.52701E-10-2.23190E-09
 -1       787 3.96810E+05 1.54608E+04 3.06987E+04-9.69766E+03-8.28095E-10-4.30737E-09
 -1       788 3.86663E+05-1.23367E+03 1.23515E+04-2.13113E+03-1.48020E-10-2.43062E-09
 -1       789 3.88718E+05 1.57387E+03 6.93718E+03-9.66424E+03 1.96394E-10-7.49765E-10
 -1       790 3.87505E+05-1.35974E+02 3.14244E+03-2.15185E+03 1.92131E-10-7.70569E-10
 -1       791 3.87762E+05 1.57752E+02 1.69505E+03-9.63427E+03 1.04762E-09-1.20144E-09
 -1       792 3.87614E+05-1.71740E+01 8.72071E+02-2.16109E+03 4.41105E-11-3.56164E-09
 -1       793 3.87642E+05 2.12967E+01 5.91550E+02-9.62802E+03-1.11839E-10-1.17006E-09
 -1       794 3.87623E+05-1.02081E+01 5.62148E+02-2.15811E+03-1.27386E-10-8.27548E-10
 -1       795 3.87685E+05 7.34217E+01 8.76104E+02-9.64669E+03 2.31466E-10-1.89647E-09
 -1       796 3.87575E+05-6.58745E+01 1.51810E+03-2.14242E+03-4.23256E-10-1.16967E-09
 -1       797 3.88138E+05 7.37719E+02 3.28886E+03-9.68807E+03-2.49258E-10-1.67802E-09
 -1       798 3.87180E+05-5.84770E+02 5.82916E+03-2.11673E+03-2.50793E-10-7.99446E-10
 -1       799 3.91959E+05 7.27996E+03 1.44733E+04-9.72862E+03-2.12015E-09-8.88576E-10
 -1       800 3.83768E+05-5.49967E+03 2.24422E+04-2.10261E+03 1.63936E-10-3.60160E-10
 -1       801-1.60848E+04 4.30642E+05 5.72428E+04-2.22785E+05 6.94854E-10 6.31553E-09
 -1       802 3.47891E+04 4.48115E+05 5.73645E+04-9.67891E+05 1.15215E-08 6.00267E-09
 -1       803-2.01535E+03 4.32526E+05 5.62213E+04-2.22525E+05 6.28279E-09 7.69990E-09
 -1       804 6.78051E+04 4.68463E+05 1.15108E+05-9.67843E+05 7.67614E-09-2.09366E-09
 -1       805-4.42178E+04 4.11504E+05 1.65537E+05-2.22850E+05 5.82804E-09-5.82077E-11
 -1       806-3.72822E+05-9.70593E+04-3.22210E+04-1.68744E+05 1.14294E-08 1.26784E-09
 -1       807-3.73256E+05-8.88290E+04-1.53050E+04-1.78304E+05 4.65502E-09-3.30547E-08
 -1       808-3.72689E+05-8.08010E+04-6.43829E+03-1.75639E+05 2.44518E-09-1.21511E-08
 -1       809-3.70081E+05-8.31179E+04-3.11370E+03-1.79590E+05 2.31103E-09 4.49921E-09
 -1       810-3.72774E+05-7.97161E+04-1.41005E+03-1.76132E+05 1.60640E-09 1.48020E-09
 -1       811-3.69774E+05-8.27475E+04-7.08756E+02-1.79638E+05-5.38762E-10 2.83990E-10
 -1       812-3.72801E+05-7.96873E+04-3.74861E+02-1.76154E+05-1.40238E-08-7.59337E-09
 -1       813-3.69741E+05-8.27384E+04-2.84280E+02-1.79629E+05-1.98583E-08 3.99450E-09
 -1       814-3.72796E+05-7.96923E+04-3.41200E+02-1.76151E+05-9.67702E-09-4.12410E-09
 -1       815-3.69759E+05-8.27519E+04-6.19370E+02-1.79627E+05-7.93307E-10-1.29694E-09
 -1       816-3.72760E+05-7.97245E+04-1.21770E+03-1.76125E+05-8.27640E-10 3.52429E-10
 -1       817-3.70017E+05-8.30689E+04-2.68208E+03-1.79567E+05 3.69710E-09 2.18461E-09
 -1       818-3.72669E+05-8.06720E+04-5.54281E+03-1.75701E+05 2.05000E-09-2.19734E-09
 -1       819-3.72793E+05-8.79312E+04-1.31724E+04-1.78387E+05 5.72982E-10-7.27141E-10
 -1       820-3.72721E+05-9.47112E+04-2.77306E+04-1.69812E+05-5.63068E-09-1.01718E-08
 -1       821-3.59446E+05 1.13980E+04-4.65978E+04 2.06718E+03-3.64207E-09 5.54792E-10
 -1       822-3.76431E+05-1.51308E+04-3.00377E+04 9.96328E+03-2.17494E-09-2.67573E-09
 -1       823-3.66534E+05 1.20165E+03-1.20900E+04 1.97649E+03 4.17322E-09 2.88128E-09
 -1       824-3.68541E+05-1.52501E+03-6.79143E+03 1.00973E+04-1.70826E-09-5.19549E-11
 -1       825-3.67360E+05 1.33449E+02-3.08986E+03 1.93173E+03-1.00188E-08-2.65277E-09
 -1       826-3.67626E+05-1.30248E+02-1.68703E+03 1.01716E+04-1.79159E-08 1.45857E-09
 -1       827-3.67467E+05 2.17905E+01-9.13165E+02 1.90196E+03-9.46864E-09 1.03046E-09
 -1       828-3.67527E+05 3.57822E+00-7.02173E+02 1.02183E+04-9.55129E-09 3.58619E-09
 -1       829-3.67472E+05 2.07642E+01-7.91217E+02 1.88492E+03 3.27964E-09 4.44661E-10
 -1       830-3.67610E+05-9.16287E+01-1.36699E+03 1.02385E+04 8.92813E-09-1.15898E-09
 -1       831-3.67390E+05 1.11058E+02-2.45212E+03 1.88181E+03-2.71891E-09 1.32604E-09
 -1       832-3.68340E+05-1.18642E+03-5.36406E+03 1.02308E+04-1.62842E-09-1.04859E-09
 -1       833-3.66741E+05 9.55719E+02-9.53334E+03 1.89280E+03-1.39039E-10 1.89402E-09
 -1       834-3.74570E+05-1.19102E+04-2.36850E+04 1.01824E+04-1.53761E-10-1.48020E-09
 -1       835-3.61154E+05 8.99697E+03-3.67359E+04 1.93264E+03 2.89447E-10-6.05542E-09
 -1       836-1.92303E+04 9.76960E+05 8.27117E+04-2.37075E+04-1.72440E-09 2.51021E-09
 -1       837 2.89303E+04 1.00773E+06 6.44796E+04-1.00033E+05 1.11868E-09 4.22813E-09
 -1       838-4.68290E+03 9.86796E+05 4.70724E+04-2.37818E+04-2.00453E-09 9.83178E-09
 -1       839 3.74750E+04 1.01269E+06 7.92688E+04-1.00007E+05 1.69894E-09 2.75668E-09
 -1       840-2.62949E+04 9.71977E+05 1.10527E+05-2.37320E+04-1.82627E-09 8.38554E-10
 -1       841-6.07239E+04-1.67152E+03-1.81521E+04-2.60757E+04-3.47518E-09-1.05683E-09
 -1       842-7.08325E+04-1.75611E+04-1.25616E+04-2.22632E+04-4.17219E-09-3.57102E-09
 -1       843-6.43768E+04-8.17381E+03-4.25602E+03-2.48996E+04 4.30771E-09-8.11724E-10
 -1       844-6.66149E+04-1.00067E+04-2.64018E+03-2.36002E+04 1.76875E-09-1.66187E-09
 -1       845-6.49394E+04-9.20558E+03-9.80307E+02-2.47468E+04-1.71940E-09-2.22389E-09
 -1       846-6.59753E+04-8.79618E+03-5.51990E+02-2.37618E+04-8.81104E-09-5.41205E-09
 -1       847-6.50165E+04-9.38106E+03-1.98723E+02-2.47395E+04-2.73648E-09-2.60553E-09
 -1       848-6.58833E+04-8.57459E+03-5.64896E+01-2.37660E+04 8.98666E-09 3.53950E-10
 -1       849-6.50317E+04-9.42650E+03 7.09359E+01-2.47430E+04 5.17302E-09 1.60211E-09
 -1       850-6.58115E+04-8.44190E+03 2.80331E+02-2.37788E+04-1.16345E-09-1.45286E-09
 -1       851-6.50884E+04-9.51342E+03 5.22058E+02-2.47268E+04-2.22233E-09-1.24436E-09
 -1       852-6.54199E+04-7.81816E+03 1.42781E+03-2.39048E+04 9.06037E-09 1.71673E-09
 -1       853-6.54229E+04-1.00488E+04 2.30161E+03-2.46174E+04 5.93622E-09 1.66028E-09
 -1       854-6.30602E+04-3.78815E+03 6.80719E+03-2.46984E+04-4.91164E-09 1.72440E-09
 -1       855-6.74458E+04-1.35327E+04 9.82916E+03-2.39369E+04 1.17689E-09 2.58024E-09
 -1       856-4.23247E+05 1.03855E+04-4.25249E+04 4.17128E+03-8.90122E-09 1.14778E-09
 -1       857-4.38728E+05-1.37548E+04-2.73992E+04 2.04701E+04-1.34264E-08 1.77806E-10
 -1       858-4.29720E+05 1.09875E+03-1.10335E+04 4.01233E+03-9.97670E-09 1.08685E-10
 -1       859-4.31578E+05-1.32539E+03-6.19051E+03 2.07045E+04-3.15435E-09-1.69928E-09
 -1       860-4.30479E+05 1.33853E+02-2.81347E+03 3.93404E+03 2.07069E-09-1.23691E-09
 -1       861-4.30772E+05-4.12573E+01-1.52439E+03 2.08233E+04-5.92354E-09 1.47054E-09
 -1       862-4.30580E+05 3.66357E+01-8.05396E+02 3.89291E+03 7.65579E-09-2.92630E-09
 -1       863-4.30688E+05 8.69136E+01-5.84103E+02 2.08739E+04 2.41379E-08-1.43075E-09
 -1       864-4.30587E+05 3.39536E+01-6.12547E+02 3.88330E+03 8.72126E-09-1.41762E-09
 -1       865-4.30737E+05 1.65059E+01-1.01687E+03 2.08606E+04 6.08588E-09-2.42118E-09
 -1       866-4.30525E+05 9.51991E+01-1.80398E+03 3.90627E+03-2.54067E-09-6.08225E-12
 -1       867-4.31243E+05-7.95453E+02-3.92761E+03 2.07811E+04-3.06613E-09 1.69894E-09
 -1       868-4.30045E+05 7.03639E+02-6.98332E+03 3.96326E+03 1.09612E-08-3.65912E-09
 -1       869-4.35753E+05-8.65912E+03-1.73290E+04 2.05927E+04-7.03312E-09-5.27052E-09
 -1       870-4.25951E+05 6.57189E+03-2.68956E+04 4.09698E+03 1.07857E-08-1.84627E-09
 -1       871-3.86336E+03-3.54185E+04-6.68880E+03 9.95780E+04 4.88308E-09 6.75755E-10
 -1       872-1.31137E+03-3.65907E+04-1.94667E+03 1.15979E+05-6.24823E-10 2.53522E-09
 -1       873-2.65481E+01-3.61844E+04 1.96622E+03 9.93924E+04 1.82899E-09-7.23230E-09
 -1       874 2.25565E+03-3.46030E+04 7.33126E+03 1.16069E+05-3.75576E-09-2.41186E-08
 -1       875 7.71266E+03-3.75000E+04 1.58594E+04 9.95074E+04 1.22054E-09-1.22834E-08
 -1       876 4.96215E+05 6.16535E+04 4.71237E+04 1.95292E+05 6.04450E-09-1.42973E-09
 -1       877 5.07118E+05 9.95753E+04 2.99451E+04 2.02005E+05-1.80648E-09 2.50839E-09
 -1       878 5.04399E+05 7.29517E+04 1.11285E+04 1.94033E+05 6.45207E-09 2.33103E-09
 -1       879 4.97724E+05 8.51431E+04 6.17276E+03 2.03990E+05-3.26611E-09 5.26961E-09
 -1       880 5.05309E+05 7.42546E+04 2.60089E+03 1.93978E+05 1.74168E-10-1.80989E-09
 -1       881 4.96681E+05 8.35087E+04 1.40436E+03 2.04060E+05-2.56796E-09-4.20934E-09
 -1       882 5.05391E+05 7.44318E+04 7.45157E+02 1.94009E+05 8.04630E-09 6.77437E-09
 -1       883 4.96599E+05 8.33185E+04 6.42603E+02 2.04013E+05-1.33534E-08 5.01925E-09
 -1       884 5.05376E+05 7.44409E+04 8.33858E+02 1.94021E+05-1.12621E-10 3.58364E-09
 -1       885 4.96748E+05 8.35035E+04 1.64937E+03 2.04002E+05 2.16041E-08 4.75438E-09
 -1       886 5.05245E+05 7.42605E+04 3.09660E+03 1.94015E+05 1.16988E-08-3.93288E-09
 -1       887 4.98043E+05 8.54008E+04 7.36758E+03 2.03843E+05-9.54111E-09-4.23336E-09
 -1       888 5.04123E+05 7.27388E+04 1.32960E+04 1.94113E+05-4.71503E-09 8.49468E-10
 -1       889 5.09310E+05 1.02587E+05 3.57731E+04 2.01394E+05 8.10405E-09 3.32420E-10
 -1       890 4.94316E+05 5.92743E+04 5.63063E+04 1.95645E+05 1.99816E-09 2.54659E-09
 -1       891 1.83552E+03-2.19859E+05-8.43207E+03 2.07800E+04 1.78261E-10 7.60338E-10
 -1       892-3.16089E+03-2.22827E+05-6.83742E+03 9.00601E+04 2.27647E-09-2.48383E-09
 -1       893 5.14000E+02-2.20815E+05-5.45820E+03 2.06686E+04 3.18005E-09-1.33221E-09
 -1       894-4.89550E+03-2.23820E+05-9.83107E+03 9.00499E+04 4.93674E-09-5.24437E-09
 -1       895 3.26201E+03-2.18847E+05-1.40612E+04 2.07895E+04 2.30102E-09-2.50020E-09
 -1       896 7.68599E+05-5.62434E+03 1.31267E+04 2.31673E+03-4.29452E-10 1.83991E-09
 -1       897 7.74518E+05 6.50737E+03 9.32078E+03-6.48572E+03 9.47864E-12 1.43586E-10
 -1       898 7.70890E+05-8.69500E+02 3.41393E+03 1.00387E+03 3.85370E-10-4.94083E-10
 -1       899 7.71832E+05 1.00832E+03 2.16805E+03-4.51940E+03 6.51639E-10-1.20667E-09
 -1       900 7.71276E+05-1.35406E+02 9.26384E+02 3.50400E+02 5.21261E-10-1.47861E-09
 -1       901 7.71386E+05 1.72157E+02 6.29514E+02-3.66000E+03 1.15364E-10-1.76547E-09
 -1       902 7.71334E+05-3.34904E+01 4.58538E+02 1.44459E+02 5.75024E-11-1.64679E-09
 -1       903 7.71367E+05 1.28361E+02 6.45380E+02-3.62970E+03 4.66315E-10-1.88513E-09
 -1       904 7.71294E+05-9.17129E+01 1.00899E+03 3.20094E+02-3.12333E-10-1.64971E-09
 -1       905 7.71695E+05 6.77275E+02 2.22328E+03-4.41878E+03-6.08509E-10-1.19363E-09
 -1       906 7.71009E+05-5.83145E+02 3.79373E+03 9.33555E+02 2.48406E-11-9.77934E-10
 -1       907 7.73635E+05 4.37950E+03 9.32505E+03-6.28033E+03 8.22467E-10-2.76259E-11
 -1       908 7.69361E+05-3.79003E+03 1.48431E+04 2.18168E+03-1.82013E-10 1.42973E-09
 -1       909 7.85155E+05 2.83648E+04 4.05901E+04-9.84754E+03-1.56490E-09 2.72848E-09
 -1       910 7.59511E+05-2.45105E+04 5.73153E+04 4.50064E+03-5.49562E-10 5.18048E-09
 -1       911 1.52361E+05-1.34405E+03 2.51610E+03 4.00845E+03 1.13948E-09 3.83864E-09
 -1       912 1.56604E+05 1.48816E+03 2.34077E+03-1.60017E+04-1.71156E-10-1.78062E-09
 -1       913 1.53607E+05-2.08163E+02 6.36591E+02 3.14625E+03-6.61316E-10-3.38241E-09
 -1       914 1.54793E+05 2.54905E+02 5.86466E+02-1.46475E+04-9.48603E-10-6.78648E-09
 -1       915 1.54057E+05-3.36353E+01 2.14697E+02 2.65408E+03 2.65052E-09-7.73322E-09
 -1       916 1.54181E+05 9.73480E+01 2.21133E+02-1.40065E+04 4.82243E-09-8.78823E-09
 -1       917 1.54169E+05-1.58242E+01 2.44969E+02 2.50537E+03 2.74183E-09-9.01592E-09
 -1       918 1.54238E+05 1.36044E+02 4.66780E+02-1.40430E+04-6.23942E-10-9.10139E-09
 -1       919 1.54003E+05-7.42598E+01 7.63252E+02 2.69062E+03 2.96086E-09-8.22820E-09
 -1       920 1.55073E+05 5.62387E+02 1.90104E+03-1.47597E+04 3.25574E-09-6.09805E-09
 -1       921 1.53389E+05-4.80801E+02 2.96738E+03 3.22191E+03 3.72734E-09-3.70096E-09
 -1       922 1.57870E+05 3.52981E+03 7.90017E+03-1.62048E+04 1.90221E-09 6.79961E-10
 -1       923 1.51331E+05-3.11995E+03 1.17875E+04 4.13598E+03-3.19687E-10 3.12230E-09
 -1       924 1.69376E+05 2.31247E+04 3.37200E+04-1.85462E+04-5.01933E-09 9.17817E-09
 -1       925 1.42106E+05-2.01664E+04 4.59851E+04 5.56483E+03-1.71622E-09 1.45828E-08
 -1       926-8.67450E+05 1.89253E+04-4.46198E+04-1.30737E+04 4.90045E-09 2.11294E-08
 -1       927-8.86253E+05-2.17891E+04-3.13257E+04 1.93691E+04-1.28557E-08 1.94341E-08
 -1       928-8.75646E+05 2.83596E+03-1.16918E+04-1.00683E+04 7.86599E-10 1.71208E-08
 -1       929-8.75787E+05-3.26261E+03-6.73320E+03 1.05323E+04 8.80527E-09 1.15688E-08
 -1       930-8.77736E+05 3.31510E+02-3.23031E+03-4.23587E+03 2.06080E-09 9.07949E-09
 -1       931-8.73456E+05-4.39848E+02-9.83020E+02-2.09825E+03-1.13118E-09 3.16629E-09
 -1       932-8.77892E+05-4.04690E+01-8.77407E+02 2.56180E+03 4.46471E-09-1.05393E-09
 -1       933-8.74232E+05 8.44153E+01 4.20233E+02-1.44398E+04 2.33626E-09-6.80541E-09
 -1       934-8.77062E+05-1.13082E+02 4.27748E+02 8.10493E+03-1.96019E-09-8.81460E-09
 -1       935-8.75667E+05 6.51396E+02 1.70853E+03-2.24590E+04-5.98220E-10-1.29816E-08
 -1       936-8.76620E+05-4.81187E+02 2.90737E+03 1.05817E+04 1.80584E-09-1.30439E-08
 -1       937-8.74524E+05 3.57949E+03 7.26124E+03-2.35383E+04-7.34747E-09-1.35733E-08
 -1       938-8.78228E+05-3.01093E+03 1.14763E+04 9.18447E+03-7.28954E-09-1.21895E-08
 -1       939-8.64321E+05 2.23095E+04 3.18717E+04-1.73527E+04-2.99906E-09-7.99946E-09
 -1       940-8.86663E+05-1.92563E+04 4.43912E+04 4.39536E+03-5.38421E-10-3.62343E-09
 -1       941 4.82483E+06-2.37578E+05 5.59429E+05 5.55430E+02 1.74986E-08 5.82077E-09
 -1       942 5.06517E+06 2.75431E+05 3.94002E+05 2.51461E+03 1.85469E-08-3.84171E-09
 -1       943 4.91801E+06-3.68217E+04 1.45066E+05 1.24579E+03 8.89464E-09 1.16415E-09
 -1       944 4.95730E+06 4.26531E+04 9.08398E+04 1.67293E+03-2.60733E-09-2.14641E-09
 -1       945 4.93332E+06-5.69571E+03 3.74657E+04 1.39728E+03 6.45354E-09 3.65799E-09
 -1       946 4.93971E+06 6.68987E+03 2.23959E+04 1.48311E+03 7.26601E-09 7.30051E-09
 -1       947 4.93584E+06-9.76153E+02 1.12506E+04 1.43571E+03 3.11858E-09 7.28369E-09
 -1       948 4.93716E+06 1.81562E+03 9.29947E+03 1.41431E+03 1.29679E-09 6.30652E-09
 -1       949 4.93592E+06-8.35162E+02 9.91409E+03 1.46609E+03 1.18924E-09-5.98948E-09
 -1       950 4.93904E+06 5.46480E+03 1.85522E+04 1.27779E+03 6.35120E-10 7.44444E-09
 -1       951 4.93392E+06-4.61491E+03 3.05151E+04 1.57221E+03 3.90522E-09-3.97631E-09
 -1       952 4.95324E+06 3.45166E+04 7.36022E+04 6.94476E+02 4.76837E-09-1.60071E-09
 -1       953 4.92153E+06-2.97930E+04 1.17409E+05 2.04932E+03-6.88864E-09 2.25555E-09
 -1       954 5.04053E+06 2.22848E+05 3.18796E+05-2.00047E+03-8.02583E-10-5.63523E-09
 -1       955 4.84606E+06-1.92239E+05 4.52427E+05 4.26611E+03-1.25096E-08-1.74623E-10
 -1       956-2.65112E+05-4.48288E+03-9.20076E+03 3.82705E+04-5.84077E-09 4.52019E-10
 -1       957-2.66782E+05-1.39543E+03-4.63205E+03 4.42399E+04-1.64073E-09 2.35968E-09
 -1       958-2.65882E+05-1.46077E+02-2.08393E+03 3.80362E+04 4.87125E-09 1.15278E-10
 -1       959-2.66051E+05 2.18922E+01-1.05843E+03 4.44964E+04-2.93949E-09 2.79488E-09
 -1       960-2.65989E+05 8.29135E+01-5.14394E+02 3.80108E+04-6.95218E-09-2.42653E-09
 -1       961-2.66020E+05 1.05407E+02-2.70645E+02 4.45250E+04-1.14651E-08 1.83127E-09
 -1       962-2.66028E+05 9.77995E+01-1.52635E+02 3.80071E+04-4.18277E-09-1.68438E-09
 -1       963-2.66038E+05 1.19188E+02-1.17259E+02 4.45299E+04-8.12361E-09 4.17049E-09
 -1       964-2.66046E+05 1.08166E+02-1.36825E+02 3.80057E+04 7.68932E-09-2.11276E-09
 -1       965-2.66058E+05 1.27470E+02-2.31677E+02 4.45302E+04 2.58065E-08-2.79624E-09
 -1       966-2.66044E+05 1.14451E+02-4.32872E+02 3.80067E+04 4.69885E-09-3.65026E-09
 -1       967-2.66119E+05 7.60514E+01-8.90515E+02 4.45175E+04-4.66116E-10 3.06818E-09
 -1       968-2.65981E+05-6.07198E+01-1.75024E+03 3.80187E+04 1.95450E-09 5.96401E-10
 -1       969-2.66766E+05-1.10072E+03-3.89561E+03 4.43944E+04 1.73259E-09-4.38831E-11
 -1       970-2.65355E+05-3.69905E+03-7.73530E+03 3.81355E+04 3.71529E-09-1.97451E-09
 -1       971-5.77334E+05 8.74773E+03-3.58579E+04 3.96427E+03-7.47195E-09 6.09361E-09
 -1       972-5.90348E+05-1.15936E+04-2.31002E+04 2.01905E+04-7.39647E-09 5.96629E-09
 -1       973-5.82791E+05 9.22487E+02-9.30996E+03 3.75643E+03-1.05233E-08 4.18777E-09
 -1       974-5.84335E+05-1.10887E+03-5.22998E+03 2.05088E+04-1.01750E-09 5.99084E-09
 -1       975-5.83432E+05 1.12374E+02-2.39729E+03 3.64375E+03 2.08911E-09 1.75214E-09
 -1       976-5.83669E+05-2.20545E+01-1.33453E+03 2.06845E+04-6.50482E-09 7.42102E-09
 -1       977-5.83517E+05 3.36493E+01-7.77482E+02 3.58021E+03 7.39146E-09 3.43368E-09
 -1       978-5.83616E+05 8.19655E+01-6.95422E+02 2.07681E+04 1.18641E-08 3.69630E-09
 -1       979-5.83515E+05 3.96654E+01-9.10914E+02 3.55997E+03 1.08184E-08 2.83619E-09
 -1       980-5.83726E+05-4.89780E+01-1.69120E+03 2.07643E+04 2.33326E-08 6.46425E-09
 -1       981-5.83406E+05 1.51799E+02-3.09963E+03 3.58403E+03 4.53088E-09 2.07422E-09
 -1       982-5.84635E+05-1.45387E+03-6.81779E+03 2.06712E+04 3.22780E-09 7.38862E-09
 -1       983-5.82575E+05 1.21986E+03-1.21397E+04 3.65371E+03 1.10294E-08 7.35326E-10
 -1       984-5.92530E+05-1.51287E+04-3.01612E+04 2.04522E+04 1.69052E-09 4.16730E-09
 -1       985-5.75455E+05 1.14506E+04-4.67978E+04 3.80700E+03 9.94896E-09 4.32192E-09
 -3
    1PSTEP                        31          16           1          
  100CL  116 7.87986E-01         841                     0   16           1
 -4  DISP        4    1
 -5  D1          1    2    1    0
 -5  D2          1    2    2    0
 -5  D3          1    2    3    0
 -5  ALL         1    2    0    0    1ALL
 -1         1 9.74528E-05 0.00000E+00 0.00000E+00
 -1         2 7.59999E-05 0.00000E+00 0.00000E+00
 -1         3 6.19907E-05 0.00000E+00 0.00000E+00
 -1         4 5.42939E-05 0.00000E+00 0.00000E+00
 -1         5 5.08534E-05 0.00000E+00 0.00000E+00
 -1         8 7.68602E-05-9.61147E-07 0.00000E+00
 -1         9 5.97201E-05 9.89373E-07 0.00000E+00
 -1        10 5.57026E-05-2.71653E-06 0.00000E+00
 -1        11 5.22878E-05-5.62329E-07 0.00000E+00
 -1        12 4.85695E-05 1.35672E-06 0.00000E+00
 -1        15 3.78914E-05-1.49806E-06 0.00000E+00
 -1        16 4.41010E-05 9.70219E-07 0.00000E+00
 -1        17 3.96723E-05-5.43134E-06 0.00000E+00
 -1        18 4.03653E-05-1.15527E-06 0.00000E+00
 -1        19 4.27309E-05 2.67787E-06 0.00000E+00
 -1        20 4.34026E-05 2.84623E-05 0.00000E+00
 -1        21 4.33683E-05 6.80611E-05 0.00000E+00
 -1        22 9.97018E-06-1.06296E-06 0.00000E+00
 -1        23 1.35614E-05 1.33351E-06 0.00000E+00
 -1        24 1.64220E-05-6.32906E-06 0.00000E+00
 -1        25 3.48451E-05-8.18680E-07 0.00000E+00
 -1        26 3.71357E-05 3.54279E-06 0.00000E+00
 -1        27 3.49322E-05 2.74653E-05 0.00000E+00
 -1        28 3.23142E-05 6.71218E-05 0.00000E+00
 -1        29 0.00000E+00 0.00000E+00 0.00000E+00
 -1        30 4.51537E-06 1.75605E-06 0.00000E+00
 -1        31 5.21145E-06-5.59891E-06 0.00000E+00
 -1        32 0.00000E+00 0.00000E+00 0.00000E+00
 -1        33 2.93030E-05 5.71924E-06 0.00000E+00
 -1        34 2.76883E-05 2.73756E-05 0.00000E+00
 -1        35 2.41474E-05 6.66224E-05 0.00000E+00
 -1        36 9.61527E-05 4.05583E-20 2.64698E-23
 -1        37 9.48117E-05 3.04984E-19 0.00000E+00
 -1        38 9.34734E-05 7.64892E-19 2.64698E-23
 -1        39 9.21273E-05 1.10950E-18 0.00000E+00
 -1        40 9.07810E-05 1.26484E-18 0.00000E+00
 -1        41 8.94331E-05 1.04296E-18 2.64698E-23
 -1        42 8.80851E-05 4.56207E-19 0.00000E+00
 -1        43 8.67368E-05-2.14021E-19 0.00000E+00
 -1        44 8.53885E-05-9.14338E-19 0.00000E+00
 -1        45 8.40403E-05-1.26097E-18 2.64698E-23
 -1        46 8.26923E-05-1.23345E-18-5.29396E-23
 -1        47 8.13453E-05-9.41274E-19 2.64698E-23
 -1        48 7.99985E-05-6.52006E-19 0.00000E+00
 -1        49 7.86572E-05-3.23369E-19 0.00000E+00
 -1        50 7.73140E-05-6.32562E-20-2.64698E-23
 -1        51 9.59130E-05-1.63176E-07 0.00000E+00
 -1        52 9.33446E-05-3.18866E-07 0.00000E+00
 -1        53 8.99463E-05-4.73896E-07 0.00000E+00
 -1        54 8.59266E-05-6.30526E-07 0.00000E+00
 -1        55 8.14944E-05-7.90649E-07-5.79026E-24
 -1        56 9.55175E-05-8.55287E-07 0.00000E+00
 -1        57 9.35816E-05-1.92606E-06 0.00000E+00
 -1        58 9.16880E-05-3.09807E-06 5.29396E-23
 -1        59 8.97868E-05-4.28654E-06-2.64698E-23
 -1        60 8.78553E-05-5.39528E-06 0.00000E+00
 -1        61 8.58585E-05-6.33668E-06 0.00000E+00
 -1        62 8.37704E-05-7.03548E-06 0.00000E+00
 -1        63 8.15671E-05-7.42790E-06-2.64698E-23
 -1        64 7.92337E-05-7.47433E-06 5.29396E-23
 -1        65 7.67615E-05-7.15046E-06 0.00000E+00
 -1        66 7.41522E-05-6.46161E-06 0.00000E+00
 -1        67 7.14156E-05-5.42853E-06 0.00000E+00
 -1        68 6.85683E-05-4.10059E-06-5.29396E-23
 -1        69 6.56449E-05-2.53531E-06 0.00000E+00
 -1        70 6.26601E-05-8.18871E-07 5.29396E-23
 -1        71 7.51334E-05-1.29768E-20 0.00000E+00
 -1        72 7.42569E-05 5.27890E-20 0.00000E+00
 -1        73 7.33810E-05 2.92782E-19 0.00000E+00
 -1        74 7.25032E-05 5.51040E-19-1.32349E-23
 -1        75 7.16254E-05 6.13852E-19 0.00000E+00
 -1        76 7.07472E-05 6.06667E-19 0.00000E+00
 -1        77 6.98689E-05 4.81771E-19 0.00000E+00
 -1        78 6.89906E-05 2.65878E-19-1.32349E-23
 -1        79 6.81123E-05 8.79673E-20 0.00000E+00
 -1        80 6.72342E-05-2.96825E-20 0.00000E+00
 -1        81 6.63560E-05-1.19953E-19 0.00000E+00
 -1        82 6.54785E-05-1.43227E-19 1.32349E-23
 -1        83 6.46011E-05-1.58394E-19 2.64698E-23
 -1        84 6.37265E-05-9.25756E-20-1.32349E-23
 -1        85 6.28510E-05-3.38623E-20-2.64698E-23
 -1        86 7.52242E-05 1.45419E-07 0.00000E+00
 -1        87 7.29530E-05 3.20631E-07 0.00000E+00
 -1        88 6.97383E-05 4.91231E-07 0.00000E+00
 -1        89 6.61243E-05 6.62439E-07-2.58494E-26
 -1        90 6.26163E-05 8.35687E-07-3.30872E-24
 -1        91 7.90911E-05-9.97302E-06 0.00000E+00
 -1        92 8.90691E-05-3.93842E-05 0.00000E+00
 -1        93 1.03774E-04-8.28119E-05 1.32349E-23
 -1        94 1.21148E-04-1.34471E-04 6.61744E-24
 -1        95 1.38558E-04-1.86237E-04 1.32349E-23
 -1        96 1.53369E-04-2.29984E-04 0.00000E+00
 -1        97 1.63507E-04-2.59860E-04 0.00000E+00
 -1        98 1.66805E-04-2.70375E-04-6.61744E-24
 -1        99 1.62780E-04-2.61332E-04 1.32349E-23
 -1       100 1.51098E-04-2.32953E-04 0.00000E+00
 -1       101 1.33648E-04-1.90626E-04-1.32349E-23
 -1       102 1.12631E-04-1.39955E-04 0.00000E+00
 -1       103 9.13996E-05-8.87873E-05 1.32349E-23
 -1       104 7.33229E-05-4.49754E-05 0.00000E+00
 -1       105 6.07440E-05-1.43940E-05-1.32349E-23
 -1       106 6.15078E-05 2.69797E-20 1.32349E-23
 -1       107 6.10257E-05 1.24540E-20-6.61744E-24
 -1       108 6.05436E-05-2.32607E-20 0.00000E+00
 -1       109 6.00616E-05-6.60078E-20 6.61744E-24
 -1       110 5.95797E-05-1.67721E-19 1.32349E-23
 -1       111 5.90978E-05-2.19410E-19 0.00000E+00
 -1       112 5.86158E-05-2.24721E-19 0.00000E+00
 -1       113 5.81339E-05-2.90054E-19 0.00000E+00
 -1       114 5.76521E-05-3.76778E-19 0.00000E+00
 -1       115 5.71703E-05-3.95021E-19 0.00000E+00
 -1       116 5.66885E-05-3.52397E-19 1.32349E-23
 -1       117 5.62071E-05-3.26557E-19 0.00000E+00
 -1       118 5.57257E-05-2.28116E-19 0.00000E+00
 -1       119 5.52459E-05-7.91186E-20 0.00000E+00
 -1       120 5.47656E-05-1.65631E-20 0.00000E+00
 -1       121 6.18428E-05-4.54270E-07-1.32349E-23
 -1       122 6.13697E-05-9.06487E-07 0.00000E+00
 -1       123 6.05441E-05-1.35895E-06 0.00000E+00
 -1       124 5.93402E-05-1.81128E-06 0.00000E+00
 -1       125 5.77338E-05-2.26412E-06-1.32349E-23
 -1       126 6.28629E-05-3.70042E-06 0.00000E+00
 -1       127 6.63128E-05-1.44100E-05 0.00000E+00
 -1       128 7.16398E-05-3.03180E-05 1.32349E-23
 -1       129 7.81362E-05-4.95090E-05-6.61744E-24
 -1       130 8.48302E-05-6.92572E-05 0.00000E+00
 -1       131 9.07507E-05-8.68249E-05 0.00000E+00
 -1       132 9.50996E-05-1.00014E-04 0.00000E+00
 -1       133 9.70845E-05-1.06715E-04-6.61744E-24
 -1       134 9.64632E-05-1.06406E-04-1.32349E-23
 -1       135 9.30334E-05-9.86983E-05 6.61744E-24
 -1       136 8.72861E-05-8.49968E-05 0.00000E+00
 -1       137 7.97768E-05-6.68091E-05 0.00000E+00
 -1       138 7.15174E-05-4.67260E-05 0.00000E+00
 -1       139 6.35477E-05-2.73681E-05 6.61744E-24
 -1       140 5.68282E-05-1.11829E-05 1.32349E-23
 -1       141 5.40747E-05-8.32282E-20 6.61744E-24
 -1       142 5.38575E-05-1.85524E-19-3.30872E-24
 -1       143 5.36403E-05-1.51662E-19-6.61744E-24
 -1       144 5.34234E-05-4.22923E-20 3.30872E-24
 -1       145 5.32065E-05 5.99706E-20 0.00000E+00
 -1       146 5.29898E-05 1.54306E-19 3.30872E-24
 -1       147 5.27730E-05 3.54153E-19 0.00000E+00
 -1       148 5.25563E-05 4.93374E-19 0.00000E+00
 -1       149 5.23397E-05 5.33993E-19 0.00000E+00
 -1       150 5.21232E-05 5.53567E-19 0.00000E+00
 -1       151 5.19067E-05 5.25885E-19-6.61744E-24
 -1       152 5.16910E-05 4.05509E-19 0.00000E+00
 -1       153 5.14753E-05 2.58302E-19-6.61744E-24
 -1       154 5.12629E-05 1.31399E-19-1.65436E-24
 -1       155 5.10494E-05 3.63550E-20 0.00000E+00
 -1       156 5.50452E-05-9.47145E-08-6.61744E-24
 -1       157 5.71779E-05-1.84176E-07 0.00000E+00
 -1       158 5.93176E-05-2.74187E-07 3.30872E-24
 -1       159 6.00900E-05-3.62071E-07 1.65436E-24
 -1       160 5.81815E-05-4.51624E-07 6.61744E-24
 -1       161 5.40289E-05-1.66382E-07 0.00000E+00
 -1       162 5.38063E-05-4.48159E-07-3.30872E-24
 -1       163 5.36119E-05-8.04992E-07-6.61744E-24
 -1       164 5.34301E-05-1.19600E-06-3.30872E-24
 -1       165 5.32436E-05-1.57435E-06 0.00000E+00
 -1       166 5.30349E-05-1.89341E-06 0.00000E+00
 -1       167 5.27902E-05-2.11670E-06 0.00000E+00
 -1       168 5.24964E-05-2.20887E-06 3.30872E-24
 -1       169 5.21482E-05-2.15585E-06-6.61744E-24
 -1       170 5.17410E-05-1.94528E-06 0.00000E+00
 -1       171 5.12798E-05-1.59063E-06 6.61744E-24
 -1       172 5.07709E-05-1.10682E-06-3.30872E-24
 -1       173 5.02271E-05-5.30296E-07 6.61744E-24
 -1       174 4.96663E-05 1.03039E-07 0.00000E+00
 -1       175 4.91006E-05 7.44837E-07 0.00000E+00
 -1       191 5.07688E-05 2.25862E-07 0.00000E+00
 -1       192 5.05603E-05 4.52236E-07 0.00000E+00
 -1       193 5.02314E-05 6.78705E-07 0.00000E+00
 -1       194 4.97866E-05 9.05112E-07 0.00000E+00
 -1       195 4.92308E-05 1.13129E-06 0.00000E+00
 -1       251 7.62174E-05 1.09943E-05 0.00000E+00
 -1       252 7.52545E-05 3.92104E-05 0.00000E+00
 -1       253 7.39408E-05 7.85768E-05 0.00000E+00
 -1       254 7.23909E-05 1.23721E-04 6.61744E-24
 -1       255 7.08896E-05 1.67690E-04 1.32349E-23
 -1       256 6.96995E-05 2.03555E-04 0.00000E+00
 -1       257 6.88604E-05 2.26607E-04 1.32349E-23
 -1       258 6.82607E-05 2.32435E-04 0.00000E+00
 -1       259 6.76188E-05 2.21269E-04 0.00000E+00
 -1       260 6.66725E-05 1.93748E-04-6.61744E-24
 -1       261 6.53776E-05 1.54923E-04-1.32349E-23
 -1       262 6.38418E-05 1.10113E-04 0.00000E+00
 -1       263 6.23462E-05 6.62736E-05 0.00000E+00
 -1       264 6.11555E-05 3.03409E-05 0.00000E+00
 -1       265 6.03139E-05 7.08759E-06 1.32349E-23
 -1       266 7.34319E-05-1.04097E-06 6.61744E-24
 -1       267 7.04404E-05-1.10637E-06 1.65436E-24
 -1       268 6.66239E-05-1.17548E-06-3.30872E-24
 -1       269 6.07230E-05-1.25132E-06 0.00000E+00
 -1       270 5.15415E-05-1.35171E-06 0.00000E+00
 -1       271 7.39279E-05 1.68003E-06-2.64698E-23
 -1       272 7.12338E-05 3.51383E-06-2.64698E-23
 -1       273 6.88127E-05 4.62967E-06-5.29396E-23
 -1       274 6.66228E-05 5.10466E-06 0.00000E+00
 -1       275 6.46369E-05 5.03451E-06 0.00000E+00
 -1       276 6.28153E-05 4.52223E-06 0.00000E+00
 -1       277 6.11171E-05 3.67972E-06 0.00000E+00
 -1       278 5.94983E-05 2.62486E-06 0.00000E+00
 -1       279 5.79134E-05 1.47951E-06-5.29396E-23
 -1       280 5.63162E-05 3.67324E-07 0.00000E+00
 -1       281 5.46610E-05-5.88816E-07 0.00000E+00
 -1       282 5.29038E-05-1.26871E-06-2.64698E-23
 -1       283 5.10008E-05-1.55777E-06-5.29396E-23
 -1       284 4.89190E-05-1.34605E-06 0.00000E+00
 -1       285 4.66113E-05-5.39090E-07 0.00000E+00
 -1       286 5.94626E-05 3.19935E-06-1.32349E-23
 -1       287 5.92117E-05 4.69177E-06 3.30872E-24
 -1       288 5.89612E-05 5.45063E-06-6.61744E-24
 -1       289 5.87121E-05 5.46737E-06-3.30872E-24
 -1       290 5.84628E-05 4.82595E-06-6.61744E-24
 -1       291 5.82132E-05 3.61702E-06 0.00000E+00
 -1       292 5.79631E-05 2.00193E-06-6.61744E-24
 -1       293 5.77127E-05 1.46147E-07 3.30872E-24
 -1       294 5.74621E-05-1.75486E-06-6.61744E-24
 -1       295 5.72118E-05-3.50515E-06 3.30872E-24
 -1       296 5.69619E-05-4.92760E-06-6.61744E-24
 -1       297 5.67123E-05-5.84839E-06-3.30872E-24
 -1       298 5.64630E-05-6.15619E-06 0.00000E+00
 -1       299 5.62124E-05-5.74594E-06 0.00000E+00
 -1       300 5.59616E-05-4.60209E-06 0.00000E+00
 -1       301 5.71166E-05 9.75425E-07-6.61744E-24
 -1       302 5.45010E-05 9.78190E-07 0.00000E+00
 -1       303 5.18823E-05 9.83896E-07-3.30872E-24
 -1       304 4.92700E-05 9.89095E-07 1.65436E-24
 -1       305 4.66732E-05 9.90235E-07-6.61744E-24
 -1       306 5.77288E-05 2.65696E-06 2.64698E-23
 -1       307 5.60071E-05 3.49919E-06 1.32349E-23
 -1       308 5.45558E-05 3.62590E-06 0.00000E+00
 -1       309 5.33279E-05 3.14086E-06 0.00000E+00
 -1       310 5.22852E-05 2.15987E-06 0.00000E+00
 -1       311 5.13820E-05 8.03538E-07 0.00000E+00
 -1       312 5.05719E-05-8.02217E-07 0.00000E+00
 -1       313 4.98065E-05-2.52840E-06 0.00000E+00
 -1       314 4.90374E-05-4.24430E-06 2.64698E-23
 -1       315 4.82158E-05-5.81936E-06 1.32349E-23
 -1       316 4.72937E-05-7.12503E-06 0.00000E+00
 -1       317 4.62251E-05-8.03604E-06 1.32349E-23
 -1       318 4.49644E-05-8.43275E-06 0.00000E+00
 -1       319 4.34746E-05-8.20027E-06 0.00000E+00
 -1       320 4.17083E-05-7.23657E-06 2.64698E-23
 -1       321 5.54841E-05-1.21768E-06-1.32349E-23
 -1       322 5.52756E-05-1.21915E-06 0.00000E+00
 -1       323 5.50657E-05-2.51264E-06 0.00000E+00
 -1       324 5.48556E-05-4.87906E-06-3.30872E-24
 -1       325 5.46437E-05-7.98721E-06 0.00000E+00
 -1       326 5.44308E-05-1.14996E-05 3.30872E-24
 -1       327 5.42179E-05-1.50367E-05-6.61744E-24
 -1       328 5.40061E-05-1.82186E-05 0.00000E+00
 -1       329 5.37963E-05-2.07024E-05 0.00000E+00
 -1       330 5.35884E-05-2.21514E-05 3.30872E-24
 -1       331 5.33815E-05-2.23365E-05 0.00000E+00
 -1       332 5.31737E-05-2.10394E-05-3.30872E-24
 -1       333 5.29628E-05-1.81963E-05-6.61744E-24
 -1       334 5.27460E-05-1.37564E-05-3.30872E-24
 -1       335 5.25220E-05-7.83572E-06 0.00000E+00
 -1       336 5.33208E-05-3.16963E-06-1.32349E-23
 -1       337 5.07429E-05-3.62402E-06-6.61744E-24
 -1       338 4.80286E-05-4.07853E-06 0.00000E+00
 -1       339 4.52383E-05-4.53212E-06 0.00000E+00
 -1       340 4.24327E-05-4.98593E-06-1.32349E-23
 -1       341 5.18558E-05 5.90432E-06 0.00000E+00
 -1       342 4.29497E-05 2.74304E-05 6.61744E-24
 -1       343 3.04230E-05 5.79341E-05-1.32349E-23
 -1       344 1.58776E-05 9.33371E-05 0.00000E+00
 -1       345 1.53553E-06 1.28247E-04 1.32349E-23
 -1       346-1.03910E-05 1.57279E-04 6.61744E-24
 -1       347-1.84312E-05 1.76625E-04 0.00000E+00
 -1       348-2.12829E-05 1.82640E-04 6.61744E-24
 -1       349-1.91174E-05 1.75259E-04 0.00000E+00
 -1       350-1.22065E-05 1.54696E-04 6.61744E-24
 -1       351-2.02622E-06 1.24760E-04 0.00000E+00
 -1       352 9.96965E-06 8.94860E-05 6.61744E-24
 -1       353 2.19039E-05 5.43948E-05-1.32349E-23
 -1       354 3.19011E-05 2.50055E-05-6.61744E-24
 -1       355 3.85298E-05 5.25284E-06 6.61744E-24
 -1       356 5.20326E-05 6.89109E-06 6.61744E-24
 -1       357 5.17847E-05 1.33440E-05 0.00000E+00
 -1       358 5.15437E-05 1.85646E-05 0.00000E+00
 -1       359 5.13090E-05 2.23324E-05-3.30872E-24
 -1       360 5.10787E-05 2.45932E-05 0.00000E+00
 -1       361 5.08507E-05 2.53069E-05-3.30872E-24
 -1       362 5.06227E-05 2.46102E-05 0.00000E+00
 -1       363 5.03932E-05 2.26531E-05-3.30872E-24
 -1       364 5.01614E-05 1.97297E-05 0.00000E+00
 -1       365 4.99278E-05 1.61432E-05-3.30872E-24
 -1       366 4.96932E-05 1.22724E-05-6.61744E-24
 -1       367 4.94597E-05 8.49911E-06 3.30872E-24
 -1       368 4.92278E-05 5.19378E-06 0.00000E+00
 -1       369 4.90016E-05 2.72260E-06-1.65436E-24
 -1       370 4.87762E-05 1.35672E-06 4.13590E-25
 -1       371 4.58105E-05-6.84057E-07 0.00000E+00
 -1       372 4.21962E-05-7.85480E-07-1.65436E-24
 -1       373 4.06612E-05-8.81788E-07 0.00000E+00
 -1       374 4.04141E-05-9.74770E-07-8.27181E-25
 -1       375 4.06007E-05-1.06796E-06 0.00000E+00
 -1       376 4.83046E-05 8.68631E-06-1.32349E-23
 -1       377 4.32131E-05 2.07787E-05-6.61744E-24
 -1       378 3.76290E-05 3.41392E-05-1.32349E-23
 -1       379 3.21729E-05 4.71678E-05 6.61744E-24
 -1       380 2.74363E-05 5.83426E-05 0.00000E+00
 -1       381 2.39902E-05 6.61705E-05 0.00000E+00
 -1       382 2.20962E-05 6.99286E-05 0.00000E+00
 -1       383 2.19820E-05 6.89621E-05 0.00000E+00
 -1       384 2.34624E-05 6.37077E-05 1.32349E-23
 -1       385 2.63297E-05 5.46785E-05 0.00000E+00
 -1       386 3.00662E-05 4.32639E-05 1.32349E-23
 -1       387 3.41481E-05 3.08979E-05 6.61744E-24
 -1       388 3.79747E-05 1.92365E-05 0.00000E+00
 -1       389 4.09513E-05 9.92447E-06 0.00000E+00
 -1       390 4.26615E-05 4.05739E-06-6.61744E-24
 -1       406 4.77603E-05 1.57807E-06 0.00000E+00
 -1       407 4.68656E-05 1.79977E-06 0.00000E+00
 -1       408 4.58999E-05 2.02136E-06-6.61744E-24
 -1       409 4.48787E-05 2.24240E-06 0.00000E+00
 -1       410 4.38172E-05 2.46224E-06 0.00000E+00
 -1       466 3.81909E-05 1.17407E-05 6.61744E-24
 -1       467 3.85601E-05 1.97472E-05 0.00000E+00
 -1       468 3.89519E-05 2.38634E-05 0.00000E+00
 -1       469 3.93537E-05 2.53655E-05 0.00000E+00
 -1       470 3.97568E-05 2.49415E-05-1.32349E-23
 -1       471 4.01593E-05 2.32471E-05 0.00000E+00
 -1       472 4.05600E-05 2.06511E-05-1.32349E-23
 -1       473 4.09593E-05 1.75072E-05 0.00000E+00
 -1       474 4.13576E-05 1.40450E-05 1.32349E-23
 -1       475 4.17553E-05 1.04892E-05 6.61744E-24
 -1       476 4.21531E-05 7.04318E-06-1.32349E-23
 -1       477 4.25507E-05 3.91191E-06-6.61744E-24
 -1       478 4.29495E-05 1.37171E-06 6.61744E-24
 -1       479 4.33434E-05-2.91262E-07-3.30872E-24
 -1       480 4.37407E-05-5.93941E-07 0.00000E+00
 -1       481 2.46619E-05-1.49274E-06-1.65436E-24
 -1       482 1.67075E-05-1.43000E-06 8.27181E-25
 -1       483 1.26123E-05-1.34413E-06 0.00000E+00
 -1       484 1.09756E-05-1.25111E-06-1.65436E-24
 -1       485 1.05194E-05-1.15646E-06-3.30872E-24
 -1       486 2.79020E-05 2.29523E-05 6.61744E-24
 -1       487 1.08736E-05 6.44429E-05 6.61744E-24
 -1       488-1.07907E-05 1.16803E-04 0.00000E+00
 -1       489-3.44499E-05 1.73720E-04 0.00000E+00
 -1       490-5.68798E-05 2.27817E-04 0.00000E+00
 -1       491-7.49316E-05 2.71746E-04-6.61744E-24
 -1       492-8.67086E-05 3.00543E-04 0.00000E+00
 -1       493-9.06080E-05 3.09453E-04 0.00000E+00
 -1       494-8.70288E-05 2.98371E-04 0.00000E+00
 -1       495-7.64990E-05 2.67568E-04 0.00000E+00
 -1       496-6.10329E-05 2.22047E-04-1.32349E-23
 -1       497-4.25505E-05 1.67142E-04 0.00000E+00
 -1       498-2.35255E-05 1.10530E-04-1.32349E-23
 -1       499-6.40918E-06 5.99297E-05 0.00000E+00
 -1       500 6.68722E-06 2.15533E-05 0.00000E+00
 -1       501 4.38142E-05 3.09121E-06 0.00000E+00
 -1       502 4.35371E-05 4.39056E-06 0.00000E+00
 -1       503 4.32602E-05 4.85312E-06 0.00000E+00
 -1       504 4.29849E-05 4.47308E-06 3.30872E-24
 -1       505 4.27091E-05 3.36012E-06 0.00000E+00
 -1       506 4.24329E-05 1.63220E-06-3.30872E-24
 -1       507 4.21559E-05-5.08504E-07-6.61744E-24
 -1       508 4.18785E-05-2.85520E-06 0.00000E+00
 -1       509 4.16013E-05-5.17284E-06 0.00000E+00
 -1       510 4.13246E-05-7.22670E-06 3.30872E-24
 -1       511 4.10487E-05-8.81825E-06 0.00000E+00
 -1       512 4.07736E-05-9.75408E-06-3.30872E-24
 -1       513 4.04989E-05-9.93060E-06 0.00000E+00
 -1       514 4.02242E-05-9.25279E-06 3.30872E-24
 -1       515 3.99486E-05-7.74259E-06 0.00000E+00
 -1       516 3.91411E-05 1.02798E-06 0.00000E+00
 -1       517 2.96278E-05 1.07760E-06 0.00000E+00
 -1       518 1.89171E-05 1.11475E-06 0.00000E+00
 -1       519 1.03589E-05 1.17543E-06 0.00000E+00
 -1       520 7.41283E-06 1.26390E-06 0.00000E+00
 -1       521 4.16979E-05 2.45379E-06-2.64698E-23
 -1       522 3.95439E-05 3.12328E-06 2.64698E-23
 -1       523 3.76564E-05 3.08849E-06 0.00000E+00
 -1       524 3.59869E-05 2.44986E-06 2.64698E-23
 -1       525 3.44991E-05 1.32417E-06-5.29396E-23
 -1       526 3.31461E-05-1.65585E-07-2.64698E-23
 -1       527 3.18804E-05-1.88940E-06 0.00000E+00
 -1       528 3.06518E-05-3.71340E-06 2.64698E-23
 -1       529 2.94100E-05-5.50183E-06 0.00000E+00
 -1       530 2.81045E-05-7.11959E-06 0.00000E+00
 -1       531 2.66861E-05-8.43471E-06 5.29396E-23
 -1       532 2.51083E-05-9.32033E-06 0.00000E+00
 -1       533 2.33258E-05-9.65777E-06 5.29396E-23
 -1       534 2.13038E-05-9.33575E-06 0.00000E+00
 -1       535 1.89964E-05-8.26013E-06 0.00000E+00
 -1       536 3.96995E-05-3.04127E-06-3.30872E-24
 -1       537 3.97404E-05-1.22368E-06 0.00000E+00
 -1       538 3.97819E-05 8.36603E-08 0.00000E+00
 -1       539 3.98258E-05 9.43169E-07-2.06795E-25
 -1       540 3.98702E-05 1.41699E-06 0.00000E+00
 -1       541 3.99150E-05 1.56714E-06-4.13590E-25
 -1       542 3.99600E-05 1.45548E-06 1.65436E-24
 -1       543 4.00050E-05 1.14379E-06 0.00000E+00
 -1       544 4.00500E-05 6.93743E-07 1.65436E-24
 -1       545 4.00950E-05 1.66960E-07 0.00000E+00
 -1       546 4.01400E-05-3.74967E-07 0.00000E+00
 -1       547 4.01850E-05-8.70450E-07 0.00000E+00
 -1       548 4.02301E-05-1.25789E-06 0.00000E+00
 -1       549 4.02752E-05-1.47566E-06-8.27181E-25
 -1       550 4.03203E-05-1.46199E-06 0.00000E+00
 -1       551 3.61989E-05-5.57940E-06-2.48154E-24
 -1       552 3.23403E-05-5.72375E-06 2.06795E-24
 -1       553 2.82634E-05-5.86831E-06-3.30872E-24
 -1       554 2.41383E-05-6.01444E-06 3.30872E-24
 -1       555 2.01353E-05-6.16375E-06 0.00000E+00
 -1       556 3.86339E-05-3.20238E-06 0.00000E+00
 -1       557 3.77904E-05-1.47847E-06 0.00000E+00
 -1       558 3.71198E-05-2.11188E-07 0.00000E+00
 -1       559 3.66016E-05 6.52741E-07 0.00000E+00
 -1       560 3.62151E-05 1.16672E-06 0.00000E+00
 -1       561 3.59399E-05 1.38465E-06 1.32349E-23
 -1       562 3.57556E-05 1.36054E-06-1.32349E-23
 -1       563 3.56418E-05 1.14845E-06-3.30872E-24
 -1       564 3.55783E-05 8.02511E-07 6.61744E-24
 -1       565 3.55446E-05 3.76863E-07-3.30872E-24
 -1       566 3.55206E-05-7.43198E-08 3.30872E-24
 -1       567 3.54859E-05-4.96857E-07-1.65436E-24
 -1       568 3.54204E-05-8.36583E-07 0.00000E+00
 -1       569 3.53042E-05-1.03940E-06 1.60266E-24
 -1       570 3.51176E-05-1.05125E-06 2.48154E-24
 -1       571 4.05073E-05-8.20478E-07 0.00000E+00
 -1       572 4.06538E-05-5.90315E-07 8.27181E-25
 -1       573 4.08015E-05-4.45960E-07 1.65436E-24
 -1       574 4.09499E-05-3.67646E-07 1.65436E-24
 -1       575 4.10984E-05-3.35532E-07 3.30872E-24
 -1       576 4.12471E-05-3.29656E-07-1.65436E-24
 -1       577 4.13958E-05-3.30049E-07 0.00000E+00
 -1       578 4.15446E-05-3.16724E-07-3.30872E-24
 -1       579 4.16933E-05-2.69694E-07 0.00000E+00
 -1       580 4.18420E-05-1.68970E-07 0.00000E+00
 -1       581 4.19907E-05 5.43569E-09 0.00000E+00
 -1       582 4.21394E-05 2.73500E-07-6.61744E-24
 -1       583 4.22879E-05 6.55185E-07 0.00000E+00
 -1       584 4.24362E-05 1.17027E-06 0.00000E+00
 -1       585 4.25842E-05 1.83842E-06 0.00000E+00
 -1       586 3.95682E-05-1.09796E-06 0.00000E+00
 -1       587 3.86542E-05-1.04026E-06 0.00000E+00
 -1       588 3.76735E-05-9.82655E-07-1.65436E-24
 -1       589 3.66776E-05-9.25625E-07 1.55096E-25
 -1       590 3.57179E-05-8.69853E-07 0.00000E+00
 -1       591 4.01344E-05-7.65222E-07 0.00000E+00
 -1       592 3.99224E-05-4.42762E-07 0.00000E+00
 -1       593 3.97298E-05-1.75296E-07 0.00000E+00
 -1       594 3.95528E-05 4.87598E-08 0.00000E+00
 -1       595 3.93875E-05 2.40983E-07 3.30872E-24
 -1       596 3.92298E-05 4.12881E-07-1.65436E-24
 -1       597 3.90753E-05 5.75946E-07 0.00000E+00
 -1       598 3.89199E-05 7.41663E-07 8.27181E-25
 -1       599 3.87591E-05 9.21519E-07-1.65436E-24
 -1       600 3.85887E-05 1.12699E-06 8.27181E-25
 -1       601 3.84044E-05 1.36957E-06-8.27181E-25
 -1       602 3.82021E-05 1.66073E-06-4.13590E-25
 -1       603 3.79773E-05 2.01199E-06-4.13590E-25
 -1       604 3.77265E-05 2.43488E-06-7.23783E-25
 -1       605 3.74457E-05 2.94099E-06 0.00000E+00
 -1       606 4.27783E-05 3.78188E-06 0.00000E+00
 -1       607 4.28222E-05 4.98382E-06 0.00000E+00
 -1       608 4.28649E-05 6.27794E-06 0.00000E+00
 -1       609 4.29071E-05 7.65770E-06 0.00000E+00
 -1       610 4.29490E-05 9.11653E-06 3.30872E-24
 -1       611 4.29907E-05 1.06477E-05 0.00000E+00
 -1       612 4.30323E-05 1.22445E-05 3.30872E-24
 -1       613 4.30738E-05 1.39003E-05 0.00000E+00
 -1       614 4.31152E-05 1.56083E-05 0.00000E+00
 -1       615 4.31565E-05 1.73618E-05 0.00000E+00
 -1       616 4.31977E-05 1.91541E-05 0.00000E+00
 -1       617 4.32389E-05 2.09785E-05 0.00000E+00
 -1       618 4.32800E-05 2.28282E-05-1.65436E-24
 -1       619 4.33211E-05 2.46965E-05 8.27181E-25
 -1       620 4.33620E-05 2.65768E-05 0.00000E+00
 -1       621 4.16862E-05 2.82232E-06 3.30872E-24
 -1       622 4.06716E-05 2.96766E-06 0.00000E+00
 -1       623 3.96983E-05 3.11308E-06 0.00000E+00
 -1       624 3.87774E-05 3.25818E-06 1.65436E-24
 -1       625 3.79197E-05 3.40247E-06-1.65436E-24
 -1       626 4.23957E-05 3.83108E-06 0.00000E+00
 -1       627 4.20200E-05 5.08657E-06 0.00000E+00
 -1       628 4.16088E-05 6.43495E-06 0.00000E+00
 -1       629 4.11664E-05 7.86548E-06 0.00000E+00
 -1       630 4.06971E-05 9.36740E-06 0.00000E+00
 -1       631 4.02050E-05 1.09297E-05 0.00000E+00
 -1       632 3.96942E-05 1.25416E-05 0.00000E+00
 -1       633 3.91689E-05 1.41919E-05 0.00000E+00
 -1       634 3.86332E-05 1.58698E-05-3.30872E-24
 -1       635 3.80913E-05 1.75643E-05 0.00000E+00
 -1       636 3.75472E-05 1.92645E-05-1.65436E-24
 -1       637 3.70050E-05 2.09593E-05 0.00000E+00
 -1       638 3.64688E-05 2.26378E-05 1.65436E-24
 -1       639 3.59426E-05 2.42890E-05 0.00000E+00
 -1       640 3.54298E-05 2.59020E-05 1.24077E-24
 -1       641 4.34036E-05 3.04223E-05 0.00000E+00
 -1       642 4.34029E-05 3.25891E-05 0.00000E+00
 -1       643 4.34019E-05 3.49331E-05 0.00000E+00
 -1       644 4.34003E-05 3.74246E-05 0.00000E+00
 -1       645 4.33983E-05 4.00339E-05 5.16988E-26
 -1       646 4.33962E-05 4.27315E-05-2.58494E-26
 -1       647 4.33938E-05 4.54878E-05 0.00000E+00
 -1       648 4.33913E-05 4.82732E-05 0.00000E+00
 -1       649 4.33889E-05 5.10583E-05-1.29247E-26
 -1       650 4.33865E-05 5.38135E-05 0.00000E+00
 -1       651 4.33842E-05 5.65093E-05 0.00000E+00
 -1       652 4.33819E-05 5.91161E-05-1.03398E-25
 -1       653 4.33799E-05 6.16043E-05-4.13590E-25
 -1       654 4.33772E-05 6.39443E-05-4.13590E-25
 -1       655 4.33752E-05 6.61065E-05-1.65436E-24
 -1       656 4.16974E-05 2.83014E-05 1.65436E-24
 -1       657 4.02132E-05 2.81325E-05 0.00000E+00
 -1       658 3.88725E-05 2.79641E-05 0.00000E+00
 -1       659 3.75973E-05 2.77956E-05 0.00000E+00
 -1       660 3.63099E-05 2.76268E-05 0.00000E+00
 -1       661 4.28536E-05 3.04787E-05 0.00000E+00
 -1       662 4.22499E-05 3.26601E-05 3.30872E-24
 -1       663 4.15937E-05 3.49800E-05 0.00000E+00
 -1       664 4.08952E-05 3.74152E-05 0.00000E+00
 -1       665 4.01623E-05 3.99417E-05-6.61744E-24
 -1       666 3.94038E-05 4.25363E-05 0.00000E+00
 -1       667 3.86285E-05 4.51757E-05 6.61744E-24
 -1       668 3.78450E-05 4.78368E-05-3.30872E-24
 -1       669 3.70619E-05 5.04966E-05 6.61744E-24
 -1       670 3.62881E-05 5.31319E-05 0.00000E+00
 -1       671 3.55322E-05 5.57197E-05-6.61744E-24
 -1       672 3.48027E-05 5.82367E-05 0.00000E+00
 -1       673 3.41085E-05 6.06596E-05 0.00000E+00
 -1       674 3.34573E-05 6.29643E-05-1.65436E-24
 -1       675 3.28596E-05 6.51276E-05 1.65436E-24
 -1       676 4.15198E-05 6.79042E-05 0.00000E+00
 -1       677 3.96732E-05 6.77465E-05 0.00000E+00
 -1       678 3.78290E-05 6.75889E-05 0.00000E+00
 -1       679 3.59874E-05 6.74318E-05 0.00000E+00
 -1       680 3.41490E-05 6.72746E-05 3.30872E-24
 -1       681 1.01939E-05-3.43659E-08 0.00000E+00
 -1       682 1.04235E-05 1.72594E-06-3.30872E-24
 -1       683 1.06516E-05 4.02173E-06 6.61744E-24
 -1       684 1.08801E-05 6.66190E-06 0.00000E+00
 -1       685 1.11082E-05 9.49866E-06 0.00000E+00
 -1       686 1.13364E-05 1.23861E-05 3.30872E-24
 -1       687 1.15648E-05 1.51848E-05 0.00000E+00
 -1       688 1.17939E-05 1.77544E-05 3.30872E-24
 -1       689 1.20239E-05 1.99255E-05 6.61744E-24
 -1       690 1.22548E-05 2.15252E-05 3.30872E-24
 -1       691 1.24866E-05 2.23084E-05-6.61744E-24
 -1       692 1.27183E-05 2.20222E-05-3.30872E-24
 -1       693 1.29483E-05 2.02789E-05 0.00000E+00
 -1       694 1.31715E-05 1.66771E-05 0.00000E+00
 -1       695 1.33835E-05 1.05817E-05-3.30872E-24
 -1       696 8.98638E-06-8.89620E-07-3.30872E-24
 -1       697 7.36595E-06-7.12358E-07-1.65436E-24
 -1       698 5.38588E-06-5.35967E-07 0.00000E+00
 -1       699 3.32052E-06-3.58466E-07-3.30872E-24
 -1       700 1.43607E-06-1.80724E-07 6.61744E-24
 -1       701 9.60590E-06-7.85022E-07 0.00000E+00
 -1       702 9.44370E-06-1.08403E-06 0.00000E+00
 -1       703 9.45988E-06-1.85673E-06 0.00000E+00
 -1       704 9.61248E-06-3.00113E-06 3.30872E-24
 -1       705 9.84591E-06-4.36177E-06-6.61744E-24
 -1       706 1.01011E-05-5.78200E-06 0.00000E+00
 -1       707 1.03168E-05-7.09654E-06 6.61744E-24
 -1       708 1.04315E-05-8.14132E-06 3.30872E-24
 -1       709 1.03980E-05-8.78988E-06 6.61744E-24
 -1       710 1.01703E-05-8.91977E-06 0.00000E+00
 -1       711 9.72901E-06-8.48072E-06 0.00000E+00
 -1       712 9.05755E-06-7.42806E-06 3.30872E-24
 -1       713 8.17039E-06-5.80260E-06 0.00000E+00
 -1       714 7.08684E-06-3.64998E-06 0.00000E+00
 -1       715 5.84882E-06-1.09078E-06 3.30872E-24
 -1       716 1.36964E-05-8.18702E-06 0.00000E+00
 -1       717 1.38612E-05-1.50804E-05 0.00000E+00
 -1       718 1.40376E-05-1.98432E-05 0.00000E+00
 -1       719 1.42219E-05-2.29555E-05 0.00000E+00
 -1       720 1.44094E-05-2.47292E-05 0.00000E+00
 -1       721 1.45986E-05-2.54657E-05 3.30872E-24
 -1       722 1.47881E-05-2.53608E-05 0.00000E+00
 -1       723 1.49773E-05-2.46034E-05 3.30872E-24
 -1       724 1.51660E-05-2.33160E-05 0.00000E+00
 -1       725 1.53538E-05-2.16168E-05 3.30872E-24
 -1       726 1.55410E-05-1.95820E-05 6.61744E-24
 -1       727 1.57265E-05-1.72853E-05-1.65436E-24
 -1       728 1.59113E-05-1.47736E-05 0.00000E+00
 -1       729 1.60903E-05-1.20918E-05 0.00000E+00
 -1       730 1.62707E-05-9.26806E-06 0.00000E+00
 -1       731 2.11547E-05 1.38255E-06 0.00000E+00
 -1       732 2.24070E-05 1.46352E-06 0.00000E+00
 -1       733 1.93711E-05 1.54220E-06 0.00000E+00
 -1       734 1.40846E-05 1.61238E-06 8.27181E-25
 -1       735 8.48676E-06 1.68126E-06 0.00000E+00
 -1       736 1.85798E-05-1.35115E-05 0.00000E+00
 -1       737 2.62453E-05-3.58597E-05-6.61744E-24
 -1       738 3.55024E-05-6.27625E-05-1.32349E-23
 -1       739 4.52829E-05-9.11903E-05 0.00000E+00
 -1       740 5.44253E-05-1.17775E-04-1.32349E-23
 -1       741 6.17594E-05-1.39182E-04 6.61744E-24
 -1       742 6.64707E-05-1.53230E-04 1.32349E-23
 -1       743 6.77482E-05-1.57870E-04 6.61744E-24
 -1       744 6.55006E-05-1.53114E-04 1.32349E-23
 -1       745 5.96958E-05-1.39132E-04 0.00000E+00
 -1       746 5.11090E-05-1.18089E-04-1.32349E-23
 -1       747 4.06001E-05-9.22536E-05 0.00000E+00
 -1       748 2.94895E-05-6.49297E-05 0.00000E+00
 -1       749 1.91227E-05-3.94382E-05-6.61744E-24
 -1       750 1.06604E-05-1.87083E-05 0.00000E+00
 -1       751 1.75029E-05-3.90079E-06 0.00000E+00
 -1       752 1.86539E-05-2.54867E-06-1.32349E-23
 -1       753 1.98013E-05-1.87899E-06-2.64698E-23
 -1       754 2.09619E-05-1.53176E-06 0.00000E+00
 -1       755 2.21229E-05-1.38880E-06 0.00000E+00
 -1       756 2.32864E-05-1.34179E-06 0.00000E+00
 -1       757 2.44503E-05-1.35483E-06 2.64698E-23
 -1       758 2.56146E-05-1.39489E-06 1.32349E-23
 -1       759 2.67790E-05-1.44934E-06-2.64698E-23
 -1       760 2.79431E-05-1.50625E-06 0.00000E+00
 -1       761 2.91069E-05-1.55557E-06 0.00000E+00
 -1       762 3.02690E-05-1.58686E-06 0.00000E+00
 -1       763 3.14307E-05-1.57607E-06 2.64698E-23
 -1       764 3.25832E-05-1.49715E-06-1.32349E-23
 -1       765 3.37387E-05-1.27282E-06 1.32349E-23
 -1       766 1.45443E-05-6.22471E-06 0.00000E+00
 -1       767 1.47588E-05-6.09240E-06 0.00000E+00
 -1       768 1.55127E-05-5.96194E-06 8.27181E-25
 -1       769 1.52574E-05-5.82819E-06 0.00000E+00
 -1       770 1.23698E-05-5.69834E-06 0.00000E+00
 -1       771 1.46604E-05-3.94537E-06-2.64698E-23
 -1       772 1.30523E-05-2.00077E-06-1.32349E-23
 -1       773 1.15937E-05-4.58925E-07 0.00000E+00
 -1       774 1.02716E-05 7.17090E-07 1.32349E-23
 -1       775 9.07298E-06 1.56436E-06 0.00000E+00
 -1       776 7.98372E-06 2.12030E-06 0.00000E+00
 -1       777 6.98977E-06 2.42251E-06 2.64698E-23
 -1       778 6.07692E-06 2.50876E-06 1.32349E-23
 -1       779 5.23092E-06 2.41697E-06 2.64698E-23
 -1       780 4.43749E-06 2.18520E-06-1.32349E-23
 -1       781 3.68236E-06 1.85158E-06 0.00000E+00
 -1       782 2.95130E-06 1.45438E-06 0.00000E+00
 -1       783 2.23013E-06 1.03190E-06 2.64698E-23
 -1       784 1.50537E-06 6.22641E-07 0.00000E+00
 -1       785 7.63668E-07 2.65132E-07 0.00000E+00
 -1       786 3.49797E-05-3.08322E-07 0.00000E+00
 -1       787 3.51225E-05 8.98951E-08-1.65436E-24
 -1       788 3.52652E-05 3.93388E-07-3.30872E-24
 -1       789 3.54092E-05 6.19518E-07 0.00000E+00
 -1       790 3.55533E-05 7.85531E-07-3.30872E-24
 -1       791 3.56977E-05 9.08599E-07 0.00000E+00
 -1       792 3.58422E-05 1.00583E-06-3.30872E-24
 -1       793 3.59867E-05 1.09431E-06-1.65436E-24
 -1       794 3.61312E-05 1.19109E-06 3.30872E-24
 -1       795 3.62757E-05 1.31326E-06-1.65436E-24
 -1       796 3.64201E-05 1.47793E-06 0.00000E+00
 -1       797 3.65645E-05 1.70226E-06 0.00000E+00
 -1       798 3.67087E-05 2.00350E-06-3.30872E-24
 -1       799 3.68523E-05 2.39899E-06-1.65436E-24
 -1       800 3.69960E-05 2.90624E-06-3.30872E-24
 -1       801 3.17203E-05-6.70370E-07 0.00000E+00
 -1       802 2.52435E-05-5.27518E-07 0.00000E+00
 -1       803 1.71235E-05-3.95532E-07 1.65436E-24
 -1       804 9.06995E-06-2.66125E-07 8.27181E-25
 -1       805 2.79226E-06-1.25393E-07-1.32349E-23
 -1       806 3.44884E-05-3.63593E-07 3.30872E-24
 -1       807 3.41433E-05 4.46308E-08 0.00000E+00
 -1       808 3.38108E-05 4.15440E-07-6.61744E-24
 -1       809 3.34883E-05 7.57478E-07 0.00000E+00
 -1       810 3.31731E-05 1.07934E-06-6.61744E-24
 -1       811 3.28623E-05 1.38953E-06 0.00000E+00
 -1       812 3.25525E-05 1.69656E-06 0.00000E+00
 -1       813 3.22408E-05 2.00892E-06 1.65436E-24
 -1       814 3.19239E-05 2.33510E-06 0.00000E+00
 -1       815 3.15986E-05 2.68359E-06 1.65436E-24
 -1       816 3.12617E-05 3.06287E-06-3.30872E-24
 -1       817 3.09103E-05 3.48144E-06-1.65436E-24
 -1       818 3.05410E-05 3.94778E-06 6.61744E-24
 -1       819 3.01513E-05 4.47043E-06-8.27181E-25
 -1       820 2.97385E-05 5.05793E-06 3.30872E-24
 -1       821 3.70069E-05 4.35141E-06 8.27181E-25
 -1       822 3.68698E-05 5.33898E-06-1.65436E-24
 -1       823 3.67328E-05 6.48736E-06 0.00000E+00
 -1       824 3.65943E-05 7.77803E-06 0.00000E+00
 -1       825 3.64555E-05 9.19237E-06 0.00000E+00
 -1       826 3.63164E-05 1.07116E-05 0.00000E+00
 -1       827 3.61770E-05 1.23166E-05 0.00000E+00
 -1       828 3.60375E-05 1.39885E-05 1.65436E-24
 -1       829 3.58979E-05 1.57081E-05 3.30872E-24
 -1       830 3.57583E-05 1.74562E-05 1.65436E-24
 -1       831 3.56188E-05 1.92134E-05 0.00000E+00
 -1       832 3.54794E-05 2.09607E-05 1.65436E-24
 -1       833 3.53402E-05 2.26787E-05 0.00000E+00
 -1       834 3.52021E-05 2.43482E-05 0.00000E+00
 -1       835 3.50639E-05 2.59501E-05-1.65436E-24
 -1       836 3.61553E-05 3.89887E-06 6.61744E-24
 -1       837 3.48131E-05 4.26736E-06 0.00000E+00
 -1       838 3.32832E-05 4.63491E-06 0.00000E+00
 -1       839 3.17391E-05 5.00166E-06-3.30872E-24
 -1       840 3.03545E-05 5.36928E-06 0.00000E+00
 -1       841 3.68099E-05 4.34026E-06 0.00000E+00
 -1       842 3.64090E-05 5.32747E-06-1.03398E-25
 -1       843 3.59433E-05 6.48746E-06 4.13590E-25
 -1       844 3.54190E-05 7.80139E-06-4.13590E-25
 -1       845 3.48446E-05 9.24857E-06 0.00000E+00
 -1       846 3.42278E-05 1.08078E-05 0.00000E+00
 -1       847 3.35774E-05 1.24562E-05 0.00000E+00
 -1       848 3.29020E-05 1.41708E-05-4.13590E-25
 -1       849 3.22108E-05 1.59275E-05 0.00000E+00
 -1       850 3.15127E-05 1.77022E-05 0.00000E+00
 -1       851 3.08171E-05 1.94704E-05 8.27181E-25
 -1       852 3.01331E-05 2.12078E-05 4.13590E-25
 -1       853 2.94696E-05 2.28904E-05 8.27181E-25
 -1       854 2.88355E-05 2.44943E-05 0.00000E+00
 -1       855 2.82395E-05 2.59971E-05 0.00000E+00
 -1       856 3.47778E-05 2.90926E-05 0.00000E+00
 -1       857 3.46156E-05 3.10122E-05 0.00000E+00
 -1       858 3.44530E-05 3.31868E-05 0.00000E+00
 -1       859 3.42888E-05 3.55785E-05 1.65436E-24
 -1       860 3.41241E-05 3.81489E-05-3.30872E-24
 -1       861 3.39587E-05 4.08595E-05 0.00000E+00
 -1       862 3.37931E-05 4.36715E-05 0.00000E+00
 -1       863 3.36272E-05 4.65462E-05 0.00000E+00
 -1       864 3.34613E-05 4.94443E-05 0.00000E+00
 -1       865 3.32954E-05 5.23270E-05 0.00000E+00
 -1       866 3.31297E-05 5.51551E-05 0.00000E+00
 -1       867 3.29644E-05 5.78898E-05 0.00000E+00
 -1       868 3.27995E-05 6.04923E-05-3.30872E-24
 -1       869 3.26358E-05 6.29239E-05 1.65436E-24
 -1       870 3.24724E-05 6.51463E-05 3.30872E-24
 -1       871 3.36168E-05 2.74523E-05 0.00000E+00
 -1       872 3.23857E-05 2.74382E-05-8.27181E-25
 -1       873 3.12084E-05 2.74239E-05 0.00000E+00
 -1       874 3.00537E-05 2.74091E-05 0.00000E+00
 -1       875 2.88907E-05 2.73937E-05-8.27181E-25
 -1       876 3.45373E-05 2.91478E-05 0.00000E+00
 -1       877 3.40560E-05 3.10858E-05 0.00000E+00
 -1       878 3.34919E-05 3.32427E-05 6.61744E-24
 -1       879 3.28588E-05 3.55862E-05 0.00000E+00
 -1       880 3.21679E-05 3.80834E-05-6.61744E-24
 -1       881 3.14313E-05 4.07022E-05 0.00000E+00
 -1       882 3.06608E-05 4.34109E-05-6.61744E-24
 -1       883 2.98683E-05 4.61777E-05-3.30872E-24
 -1       884 2.90657E-05 4.89713E-05 0.00000E+00
 -1       885 2.82649E-05 5.17602E-05 3.30872E-24
 -1       886 2.74776E-05 5.45131E-05 0.00000E+00
 -1       887 2.67155E-05 5.71984E-05 0.00000E+00
 -1       888 2.59907E-05 5.97845E-05 0.00000E+00
 -1       889 2.53139E-05 6.22391E-05 0.00000E+00
 -1       890 2.46989E-05 6.45305E-05 0.00000E+00
 -1       891 3.07159E-05 6.70388E-05 0.00000E+00
 -1       892 2.94249E-05 6.69549E-05 8.27181E-25
 -1       893 2.82822E-05 6.68714E-05 0.00000E+00
 -1       894 2.71280E-05 6.67880E-05 0.00000E+00
 -1       895 2.58028E-05 6.67042E-05 1.65436E-24
 -1       896 2.80970E-07 9.14877E-07 6.61744E-24
 -1       897 5.64452E-07 1.27675E-06 0.00000E+00
 -1       898 8.47871E-07 1.21932E-06-6.61744E-24
 -1       899 1.13164E-06 8.71405E-07 3.30872E-24
 -1       900 1.41534E-06 3.16651E-07 6.61744E-24
 -1       901 1.69904E-06-3.63707E-07 3.30872E-24
 -1       902 1.98271E-06-1.10795E-06-6.61744E-24
 -1       903 2.26637E-06-1.85512E-06-3.30872E-24
 -1       904 2.55006E-06-2.54470E-06 6.61744E-24
 -1       905 2.83374E-06-3.11551E-06 0.00000E+00
 -1       906 3.11747E-06-3.48790E-06 0.00000E+00
 -1       907 3.40089E-06-3.57990E-06 3.30872E-24
 -1       908 3.68420E-06-3.26597E-06 0.00000E+00
 -1       909 3.96536E-06-2.41582E-06-3.30872E-24
 -1       910 4.24622E-06-8.15918E-07-6.61744E-24
 -1       911 4.56276E-06 3.90225E-06 0.00000E+00
 -1       912 4.61264E-06 4.23208E-06-8.27181E-25
 -1       913 4.66201E-06 3.08502E-06 0.00000E+00
 -1       914 4.70955E-06 7.97495E-07 8.27181E-25
 -1       915 4.75499E-06-2.32417E-06-1.65436E-24
 -1       916 4.79870E-06-5.97528E-06 0.00000E+00
 -1       917 4.84156E-06-9.86507E-06 1.65436E-24
 -1       918 4.88461E-06-1.37034E-05 8.27181E-25
 -1       919 4.92883E-06-1.71987E-05 1.65436E-24
 -1       920 4.97493E-06-2.00585E-05 0.00000E+00
 -1       921 5.02310E-06-2.19740E-05 0.00000E+00
 -1       922 5.07256E-06-2.26341E-05 0.00000E+00
 -1       923 5.12164E-06-2.16948E-05 8.27181E-25
 -1       924 5.16576E-06-1.88087E-05 0.00000E+00
 -1       925 5.20104E-06-1.35778E-05 1.65436E-24
 -1       926 4.86746E-06 3.65229E-06-6.61744E-24
 -1       927 4.51883E-06 1.26076E-05-3.30872E-24
 -1       928 4.17784E-06 2.06714E-05-6.61744E-24
 -1       929 3.84587E-06 2.72598E-05 3.30872E-24
 -1       930 3.52370E-06 3.20163E-05-6.61744E-24
 -1       931 3.20890E-06 3.46079E-05 0.00000E+00
 -1       932 2.89721E-06 3.50359E-05-1.32349E-23
 -1       933 2.58412E-06 3.33289E-05 0.00000E+00
 -1       934 2.26672E-06 2.98455E-05 0.00000E+00
 -1       935 1.94361E-06 2.49666E-05 6.61744E-24
 -1       936 1.61651E-06 1.92886E-05 0.00000E+00
 -1       937 1.28803E-06 1.34184E-05-6.61744E-24
 -1       938 9.61834E-07 7.99214E-06 1.32349E-23
 -1       939 6.39095E-07 3.64060E-06-6.61744E-24
 -1       940 3.22051E-07 8.28232E-07 1.32349E-23
 -1       941 1.73711E-06 2.08821E-07-2.64698E-23
 -1       942 3.56982E-06 4.77497E-07 2.64698E-23
 -1       943 5.39658E-06 7.80903E-07 0.00000E+00
 -1       944 7.24143E-06 1.09669E-06 2.64698E-23
 -1       945 9.08686E-06 1.41970E-06 5.29396E-23
 -1       946 1.09359E-05 1.74533E-06 0.00000E+00
 -1       947 1.27854E-05 2.07262E-06-5.29396E-23
 -1       948 1.46355E-05 2.40078E-06-2.64698E-23
 -1       949 1.64856E-05 2.73018E-06 5.29396E-23
 -1       950 1.83353E-05 3.06131E-06-2.64698E-23
 -1       951 2.01846E-05 3.39707E-06 5.29396E-23
 -1       952 2.20310E-05 3.74074E-06 0.00000E+00
 -1       953 2.38770E-05 4.10662E-06 5.29396E-23
 -1       954 2.57083E-05 4.51075E-06 0.00000E+00
 -1       955 2.75444E-05 5.02240E-06-2.64698E-23
 -1       956 2.92043E-05 6.61290E-06 4.13590E-25
 -1       957 2.91040E-05 7.62316E-06-6.20385E-25
 -1       958 2.90033E-05 8.73893E-06-1.65436E-24
 -1       959 2.89023E-05 9.94827E-06 1.65436E-24
 -1       960 2.88012E-05 1.12392E-05 8.27181E-25
 -1       961 2.86999E-05 1.25998E-05 0.00000E+00
 -1       962 2.85986E-05 1.40178E-05-1.65436E-24
 -1       963 2.84972E-05 1.54813E-05 1.65436E-24
 -1       964 2.83958E-05 1.69781E-05 0.00000E+00
 -1       965 2.82943E-05 1.84962E-05-1.65436E-24
 -1       966 2.81928E-05 2.00235E-05-3.30872E-24
 -1       967 2.80914E-05 2.15479E-05 0.00000E+00
 -1       968 2.79900E-05 2.30572E-05-3.30872E-24
 -1       969 2.78888E-05 2.45396E-05 0.00000E+00
 -1       970 2.77879E-05 2.59829E-05-3.30872E-24
 -1       971 2.74748E-05 2.88744E-05-3.30872E-24
 -1       972 2.72545E-05 3.06802E-05-3.30872E-24
 -1       973 2.70339E-05 3.27557E-05-6.61744E-24
 -1       974 2.68118E-05 3.50630E-05 0.00000E+00
 -1       975 2.65892E-05 3.75637E-05-6.61744E-24
 -1       976 2.63660E-05 4.02190E-05 0.00000E+00
 -1       977 2.61425E-05 4.29899E-05 0.00000E+00
 -1       978 2.59187E-05 4.58370E-05-3.30872E-24
 -1       979 2.56948E-05 4.87208E-05 6.61744E-24
 -1       980 2.54710E-05 5.16017E-05 3.30872E-24
 -1       981 2.52474E-05 5.44403E-05-6.61744E-24
 -1       982 2.50242E-05 5.71968E-05 0.00000E+00
 -1       983 2.48015E-05 5.98322E-05 0.00000E+00
 -1       984 2.45804E-05 6.23074E-05 0.00000E+00
 -1       985 2.43596E-05 6.45834E-05 3.30872E-24
 -3
    1PSTEP                        32          16           1          
  100CL  116 7.87986E-01         841                     0   16           1
 -4  STRESS      6    1
 -5  SXX         1    4    1    1
 -5  SYY         1    4    2    2
 -5  SZZ         1    4    3    3
 -5  SXY         1    4    1    2
 -5  SYZ         1    4    2    3
 -5  SZX         1    4    3    1
 -1         1-3.08532E+06-1.00265E+06-6.27206E+05-9.36309E+05-9.21621E-11-3.88051E-10
 -1         2-1.66234E+06-3.62769E+04 2.01830E+04-1.33090E+05 4.46335E-10-1.43928E-09
 -1         3-1.22663E+06-4.19022E+05-4.24680E+04-1.07057E+05-1.90732E-09 4.23825E-09
 -1         4-6.50311E+05-1.14425E+05 8.83833E+02-4.88716E+04 1.10049E-10-2.55227E-09
 -1         5-3.27052E+05 1.65398E+05-1.54795E+05-1.35060E+04 6.00267E-09-1.31536E-09
 -1         8-1.39822E+06-5.47860E+05-1.74304E+05-6.02545E+05-1.81899E-10 2.92493E-09
 -1         9-1.66776E+06-3.63209E+05-1.88633E+05-4.59542E+05-5.72375E-10-1.75351E-09
 -1        10-5.80646E+05-4.01668E+05 4.57996E+04-1.03731E+05-1.23458E-09 1.56888E-09
 -1        11-5.43649E+05-1.43444E+05 2.87368E+03-8.32147E+04-4.10372E-09 3.36058E-10
 -1        12-3.71301E+05 1.33371E+05-1.67829E+05-7.32228E+04 7.15897E-09-2.97405E-09
 -1        15 5.97098E+04 6.07708E+04 2.07360E+04-1.30986E+04 6.01176E-10-1.69530E-09
 -1        16-1.28028E+06-2.79154E+05-3.66799E+04-5.05716E+05 1.25146E-09 2.48262E-09
 -1        17-7.00149E+05-4.55683E+05-8.66496E+04-3.43905E+05-1.22418E-09 3.11654E-09
 -1        18-1.42384E+05-1.17440E+05-7.80998E+04-1.43453E+05 3.02468E-09-1.19204E-09
 -1        19-5.14420E+04 9.11783E+04-6.32356E+04-6.20190E+04 8.80694E-10-1.95481E-09
 -1        20 1.17226E+05-8.58018E+04-1.36216E+04 6.15056E+04 1.20976E-08 1.11322E-09
 -1        21-9.08813E+02-1.76062E+05 3.95274E+04 9.73305E+02 1.93197E-08-3.58090E-09
 -1        22 3.20341E+04 1.58454E+05 9.88801E+02-2.54925E+04-1.54614E-11 3.83807E-10
 -1        23-3.39509E+04 3.62667E+04 1.99188E+04-1.60129E+05-4.96152E-09 9.60730E-10
 -1        24-2.22067E+05-3.80061E+03 2.53704E+05-4.59946E+05-5.51639E-09-4.51109E-10
 -1        25 5.67131E+05 2.18109E+05 1.84336E+05-3.00863E+05 1.40335E-09-2.46837E-09
 -1        26 5.49203E+03 2.06853E+05 1.18177E+04-3.94160E+04-5.90793E-10 1.95511E-09
 -1        27-4.85841E+04-7.43174E+04-3.20372E+04 8.12905E+04 9.81011E-09-2.33801E-09
 -1        28-1.56107E+04-1.35678E+05-8.51201E+02 6.46303E+04 9.70908E-09-2.37470E-10
 -1        29 3.90501E+05 2.74143E+05 1.18094E+03-1.21541E+04 2.03801E-10 1.79034E-09
 -1        30 8.87451E+04 4.08107E+04 1.59885E+03-7.53895E+04 2.89576E-09 4.58294E-09
 -1        31-3.92466E+05 5.41303E+04 7.94014E+03-3.42912E+04-9.53724E-09 1.12814E-08
 -1        32 8.27760E+05 4.88397E+05 5.58682E+05-4.56159E+05 6.96021E-09 4.27826E-09
 -1        33 1.28184E+06 5.86748E+05 4.11626E+05-5.87665E+04-1.20409E-08-7.03039E-10
 -1        34-2.37117E+05-3.60096E+04-1.32853E+04 4.01121E+04-2.19877E-09 1.27329E-10
 -1        35-3.69222E+04-4.45813E+04-8.58928E+02 9.55558E+04 1.36933E-08 2.34892E-09
 -1        36-3.79800E+06 1.08970E+05-2.54753E+05 3.54300E-07 6.78453E-11 1.39698E-09
 -1        37-3.90781E+06-1.26229E+05-1.79834E+05 6.96722E-07-8.25178E-10-1.02955E-09
 -1        38-3.84044E+06 1.68774E+04-6.59009E+04 3.00712E-07-1.30909E-09 6.81030E-09
 -1        39-3.85819E+06-1.95423E+04-4.12693E+04 6.18928E-09-2.82823E-09 3.06818E-09
 -1        40-3.84734E+06 2.60892E+03-1.69225E+04 1.35626E-07 2.60017E-10 2.78851E-09
 -1        41-3.85008E+06-3.05767E+03-1.00705E+04-2.17615E-07-1.05836E-09 3.32875E-09
 -1        42-3.84846E+06 4.41405E+02-4.95976E+03 1.18665E-07-9.06693E-10 2.57705E-09
 -1        43-3.84888E+06-7.86353E+02-3.95837E+03 2.14736E-07-3.12089E-09-2.20928E-09
 -1        44-3.84852E+06 3.43635E+02-4.04692E+03 2.74763E-07-1.75061E-09-3.34467E-10
 -1        45-3.84962E+06-2.20807E+03-7.43646E+03-1.90642E-08 1.98234E-09-6.24482E-10
 -1        46-3.84773E+06 1.85919E+03-1.21605E+04 2.81758E-08-2.49518E-09 8.86803E-09
 -1        47-3.85536E+06-1.38982E+04-2.94072E+04-2.62224E-07-2.40475E-10-2.00089E-11
 -1        48-3.84284E+06 1.19989E+04-4.68861E+04 4.21495E-08 2.43555E-10-1.65710E-09
 -1        49-3.89063E+06-8.97406E+04-1.27868E+05-6.66878E-08-1.78983E-09 5.04951E-09
 -1        50-3.81269E+06 7.74641E+04-1.81176E+05 2.21765E-07-3.56901E-09 8.20728E-09
 -1        51 3.65922E+04-4.06793E+05 5.99270E+04-1.10870E+06-3.20142E-10-2.95404E-09
 -1        52 1.73080E+04-4.02871E+05 3.60069E+04-1.22516E+06 1.81899E-10-2.56114E-09
 -1        53 1.15009E+04-4.16158E+05 2.79094E+04-1.10565E+06-6.54836E-11 1.09139E-09
 -1        54 2.56187E+04-4.13318E+05 4.12799E+04-1.22833E+06-2.18279E-10-3.56522E-09
 -1        55 5.53656E+04-4.27001E+05 7.36860E+04-1.10504E+06 5.09317E-10 3.37968E-09
 -1        56-5.05780E+06-5.69784E+05-4.15918E+05-1.95523E+06-2.16096E-09 1.48430E-09
 -1        57-5.24282E+06-9.19918E+05-2.79205E+05-1.91850E+06-3.41970E-09 1.87720E-09
 -1        58-5.13915E+06-7.00785E+05-9.78468E+04-1.93175E+06-1.00954E-09-4.91491E-09
 -1        59-5.14935E+06-7.64910E+05-5.80168E+04-1.94577E+06-2.34013E-09 1.01045E-09
 -1        60-5.14994E+06-7.19579E+05-2.28445E+04-1.92966E+06 2.05091E-10-1.00863E-09
 -1        61-5.13869E+06-7.40932E+05-1.29242E+04-1.94595E+06-3.00133E-09-1.92676E-09
 -1        62-5.14951E+06-7.24119E+05-6.32036E+03-1.93171E+06 2.54659E-10 7.09633E-10
 -1        63-5.14200E+06-7.33355E+05-5.29596E+03-1.94048E+06-1.70257E-09-8.84029E-10
 -1        64-5.14655E+06-7.27111E+05-6.22905E+03-1.93511E+06 5.88216E-10 5.20458E-09
 -1        65-5.14976E+06-7.29658E+05-1.26271E+04-1.93312E+06-8.84768E-10 7.31234E-09
 -1        66-5.14179E+06-7.27891E+05-2.23097E+04-1.93905E+06 5.38876E-11 1.66165E-09
 -1        67-5.16859E+06-7.44602E+05-5.65897E+04-1.92330E+06 1.73895E-09 2.38288E-09
 -1        68-5.12801E+06-7.12797E+05-9.54577E+04-1.94478E+06 8.69477E-10 1.84446E-09
 -1        69-5.26364E+06-8.92003E+05-2.72352E+05-1.89243E+06 2.73212E-09 1.64073E-09
 -1        70-5.04809E+06-5.85544E+05-4.05725E+05-1.96830E+06-2.88856E-09 4.94765E-10
 -1        71-2.49657E+06 2.66463E+04-6.23896E+04 4.37888E-09-4.41300E-10 1.87720E-09
 -1        72-2.52329E+06-3.08728E+04-4.40183E+04 1.59652E-07-2.11173E-10-2.76805E-09
 -1        73-2.50695E+06 4.12792E+03-1.61535E+04-2.21986E-07-1.43777E-09 9.82254E-10
 -1        74-2.51116E+06-4.78178E+03-1.01340E+04 9.92023E-08-2.77085E-09 2.46325E-09
 -1        75-2.50864E+06 6.39891E+02-4.19973E+03-4.72470E-08-1.81989E-09 5.27416E-09
 -1        76-2.50919E+06-7.61711E+02-2.58028E+03 4.10538E-08-1.58699E-09 3.77648E-09
 -1        77-2.50891E+06 1.19997E+02-1.42723E+03 1.23174E-07-1.49945E-09 2.89788E-10
 -1        78-2.50894E+06-2.84024E+02-1.43360E+03-1.37123E-08 2.20788E-10 1.90934E-09
 -1        79-2.50889E+06 1.63552E+02-1.83487E+03 4.15309E-08-1.70622E-09-6.96332E-10
 -1        80-2.50939E+06-1.14021E+03-3.75593E+03 2.58647E-07-6.05264E-10 6.92580E-09
 -1        81-2.50847E+06 9.73890E+02-6.32520E+03 1.09392E-07-1.75973E-09 2.69665E-09
 -1        82-2.51242E+06-7.29608E+03-1.54251E+04 1.10259E-07 2.78681E-09-6.31189E-10
 -1        83-2.50588E+06 6.30094E+03-2.46365E+04-2.95229E-08 1.34415E-10 4.66298E-09
 -1        84-2.53094E+06-4.71271E+04-6.71830E+04 1.88391E-07-3.32755E-09 7.29688E-09
 -1        85-2.49003E+06 4.06769E+04-9.52206E+04 2.53878E-07-2.55172E-09 7.99264E-09
 -1        86-8.95703E+04 4.86945E+05 2.13598E+05 6.58564E+03 2.48838E-09-4.88478E-09
 -1        87 1.13078E+05 5.84164E+05 1.67613E+05-3.10435E+04 4.37285E-09 2.91881E-09
 -1        88-2.30747E+04 5.18405E+05 8.93076E+04 4.32787E+03 4.23279E-09 1.20164E-09
 -1        89 8.65917E+04 5.70889E+05 1.32700E+05-2.90001E+04 6.40921E-09-9.67023E-09
 -1        90-6.31191E+04 5.00110E+05 1.53826E+05 4.54318E+03 3.61615E-09 4.10404E-09
 -1        91-1.45424E+06-1.90949E+05-8.25574E+03-4.66915E+05-3.32984E-08-7.74526E-09
 -1        92-9.19176E+05-2.48853E+05 6.56834E+04-5.73286E+05-3.04512E-08 8.49241E-10
 -1        93-1.36122E+06-8.88222E+04 2.40085E+03-3.60909E+05 2.12849E-08 6.20503E-10
 -1        94-1.02705E+06-3.45592E+05 1.30483E+04-6.87949E+05-1.40420E-09 1.57070E-09
 -1        95-1.35842E+06-8.49992E+04-2.69207E+03-3.60519E+05-5.13364E-09-1.20478E-08
 -1        96-9.36344E+05-2.77499E+05 3.99983E+04-5.70826E+05 1.38602E-08 3.32375E-09
 -1        97-1.44014E+06-1.66011E+05-3.68925E+04-4.69923E+05 3.09046E-09 3.38241E-09
 -1        98-9.21634E+05-1.21545E+05 7.15385E+04-3.55762E+05-2.61293E-08-1.75385E-08
 -1        99-1.36165E+06-2.49604E+05-3.84134E+04-5.66202E+05 8.86394E-09 8.08222E-09
 -1       100-1.20364E+06-6.34403E+02 4.05147E+04-2.50997E+05-3.93106E-08 1.47361E-09
 -1       101-1.16953E+06-2.78184E+05-6.37249E+03-5.82793E+05-7.75799E-10 2.45609E-09
 -1       102-1.41589E+06 3.73726E+04 5.88282E+03-2.44619E+05 3.59674E-08 1.92378E-08
 -1       103-1.16087E+06-2.79011E+05-8.17809E+03-5.82395E+05-5.36329E-08 1.59531E-09
 -1       104-1.22430E+06 7.65532E+03 2.94549E+04-2.49691E+05-4.99567E-08 2.91353E-08
 -1       105-1.35083E+06-2.56181E+05-5.66656E+04-5.68864E+05-4.24061E-08-6.87987E-09
 -1       106-1.37853E+06-2.15374E+03 5.04350E+03-4.77176E-08-6.43304E-10 2.23963E-10
 -1       107-1.37623E+06 2.49524E+03 3.55229E+03-4.17473E-08 1.33910E-09-2.87355E-09
 -1       108-1.37769E+06-3.33363E+02 1.29153E+03-1.14164E-07 7.09611E-10-7.09633E-10
 -1       109-1.37721E+06 3.84077E+02 7.86926E+02-6.09370E-09-1.05962E-11 1.68603E-09
 -1       110-1.37755E+06-4.95682E+01 2.76315E+02 1.23114E-07-6.76159E-10 2.49608E-09
 -1       111-1.37738E+06 4.48572E+01 7.29405E+01 2.42624E-07-3.94953E-10-9.28225E-10
 -1       112-1.37752E+06 4.85272E+00-1.40021E+02-4.44514E-08-5.72812E-10-1.49740E-09
 -1       113-1.37746E+06-8.79366E+01-4.44864E+02 1.51801E-07 1.01624E-09-5.53548E-10
 -1       114-1.37747E+06 8.29375E+01-8.72267E+02 5.77035E-08-6.08257E-10 3.25133E-09
 -1       115-1.37775E+06-6.33695E+02-2.03801E+03-3.68547E-08-1.26985E-09-7.96399E-09
 -1       116-1.37723E+06 5.49195E+02-3.54013E+03 2.11474E-08-1.36298E-09-1.51704E-09
 -1       117-1.37946E+06-4.12335E+03-8.70817E+03 5.86645E-09-1.04008E-09-2.43290E-11
 -1       118-1.37576E+06 3.56203E+03-1.39327E+04-4.42845E-08-1.99706E-09-1.97633E-09
 -1       119-1.38993E+06-2.66431E+04-3.79957E+04 3.36405E-08-2.78866E-10-1.03319E-09
 -1       120-1.36679E+06 2.29958E+04-5.38596E+04-3.73512E-08-3.50522E-10 4.58749E-09
 -1       121-3.24859E+03-1.29346E+06 1.27321E+04 4.17010E+03-1.26056E-09 5.88625E-09
 -1       122 3.97940E+03-1.28852E+06 7.48686E+03 1.69403E+04-9.71909E-10 6.97673E-09
 -1       123-2.35037E+02-1.29133E+06 1.54519E+03 4.70029E+03-3.26509E-09 1.20053E-09
 -1       124-1.89968E+03-1.29185E+06-2.63451E+03 1.57856E+04-2.03909E-09 5.47698E-09
 -1       125 1.55537E+03-1.29003E+06-6.31296E+03 5.32345E+03-5.96879E-09 7.21502E-09
 -1       126-1.14140E+06-1.54048E+05 9.40678E+03-4.04349E+05 1.35842E-08 2.79078E-09
 -1       127-1.02944E+06-1.87016E+05 1.61105E+04-4.59714E+05 3.42129E-08 1.64619E-09
 -1       128-1.13929E+06-1.25878E+05 2.52821E+03-3.78544E+05 1.63698E-08 4.35671E-09
 -1       129-1.03447E+06-2.17448E+05 3.12074E+03-4.89698E+05-1.50624E-08-1.73569E-08
 -1       130-1.13803E+06-1.22407E+05 5.39980E+02-3.75563E+05-3.45619E-09-7.14624E-09
 -1       131-1.03381E+06-2.03252E+05 4.47644E+03-4.68358E+05 2.27221E-08 1.61971E-08
 -1       132-1.13879E+06-1.40947E+05-4.10746E+03-3.99038E+05 1.39285E-08 1.24896E-09
 -1       133-1.05070E+06-1.59811E+05 8.95878E+03-4.12600E+05-2.15723E-08 3.84034E-09
 -1       134-1.11929E+06-1.67214E+05-6.08832E+03-4.29919E+05 6.57656E-09 1.99634E-09
 -1       135-1.10803E+06-1.14758E+05 5.56793E+03-3.62907E+05 3.48693E-08 6.82246E-09
 -1       136-1.08228E+06-1.85389E+05-4.41225E+03-4.49296E+05-5.67798E-09 9.40872E-09
 -1       137-1.16394E+06-9.25408E+04-5.26274E+03-3.39987E+05-9.60679E-08-6.51653E-10
 -1       138-1.06535E+06-1.87985E+05-1.07708E+04-4.54384E+05-1.23930E-08 8.94761E-09
 -1       139-1.16444E+06-1.14509E+05-2.92865E+04-3.39820E+05 4.51089E-08 8.18727E-09
 -1       140-1.08141E+06-1.63760E+05-5.01255E+04-4.49137E+05-2.09548E-09-9.09495E-10
 -1       141-6.22470E+05-5.64777E+03 1.32309E+04 1.46934E-07 1.82099E-10 5.84805E-10
 -1       142-6.16700E+05 6.54345E+03 9.32227E+03 7.44930E-08 4.57048E-11 3.54078E-09
 -1       143-6.20263E+05-8.74355E+02 3.39725E+03-5.95546E-08 7.86468E-10 1.11072E-09
 -1       144-6.19273E+05 1.00848E+03 2.08232E+03 7.07859E-08-1.63344E-10-2.37014E-09
 -1       145-6.19900E+05-1.31117E+02 7.58687E+02 8.61303E-08 3.23290E-11-5.05338E-10
 -1       146-6.19712E+05 1.26394E+02 2.62638E+02-2.89524E-08 1.77388E-11 1.89330E-09
 -1       147-6.19825E+05 5.09865E+00-2.33728E+02 4.75383E-08-2.84896E-10 7.72076E-10
 -1       148-6.19884E+05-1.72488E+02-8.73924E+02-2.13523E-08 9.44750E-10-2.45154E-09
 -1       149-6.19729E+05 1.67101E+02-1.75493E+03-1.31033E-07 2.00315E-10-2.31125E-10
 -1       150-6.20479E+05-1.28139E+03-4.12150E+03 1.58372E-08-3.05104E-10-3.17374E-09
 -1       151-6.19231E+05 1.11114E+03-7.16736E+03 2.55753E-07-9.67334E-11 3.48791E-10
 -1       152-6.23951E+05-8.34281E+03-1.76302E+04 1.08668E-07 1.81965E-10 1.60253E-09
 -1       153-6.16263E+05 7.20732E+03-2.82071E+04 8.25576E-08 1.32679E-09-2.48292E-09
 -1       154-6.45116E+05-5.39077E+04-7.69000E+04 3.00170E-08 5.33850E-10-4.63479E-09
 -1       155-5.98074E+05 4.65298E+04-1.08976E+05 2.96041E-08 3.59780E-09-2.61934E-09
 -1       156-2.02673E+04-2.54826E+05 4.82328E+04-1.66786E+04-8.22183E-10-3.05317E-09
 -1       157 2.60821E+04-2.30730E+05 3.91585E+04 7.22524E+04-2.72712E-09 6.63670E-09
 -1       158-5.59872E+03-2.48097E+05 2.20240E+04-1.66654E+04-2.29090E-09-1.81672E-10
 -1       159 2.39019E+04-2.24393E+05 3.73637E+04 6.95273E+04 2.50657E-09 2.34166E-09
 -1       160-1.85999E+04-2.60467E+05 4.10295E+04-1.39554E+04 2.13004E-09 6.36646E-10
 -1       161-7.20964E+05-9.93008E+04-4.53024E+03-2.70689E+05 3.54703E-11 3.08205E-09
 -1       162-7.21850E+05-1.04821E+05-3.14001E+03-2.71508E+05-3.38289E-10 3.70929E-09
 -1       163-7.22055E+05-1.00735E+05-1.07809E+03-2.70181E+05 2.59590E-10 1.95087E-10
 -1       164-7.20644E+05-1.03103E+05-6.98546E+02-2.72026E+05 1.35634E-09 5.14433E-11
 -1       165-7.22169E+05-1.01013E+05-3.23331E+02-2.70173E+05-3.69901E-10-3.86124E-09
 -1       166-7.20742E+05-1.02584E+05-3.18176E+02-2.71779E+05-2.57387E-10 9.58899E-10
 -1       167-7.21956E+05-1.01253E+05-3.98132E+02-2.70428E+05-4.36859E-10 2.05877E-09
 -1       168-7.21389E+05-1.02159E+05-8.39012E+02-2.71112E+05 3.77543E-10 2.50579E-09
 -1       169-7.21522E+05-1.01439E+05-1.50376E+03-2.70839E+05-5.78083E-10 2.90919E-09
 -1       170-7.22800E+05-1.02665E+05-3.73479E+03-2.70141E+05 7.46354E-10-3.23433E-09
 -1       171-7.20548E+05-1.00750E+05-6.48407E+03-2.71399E+05-3.45608E-10-2.91084E-09
 -1       172-7.27902E+05-1.09778E+05-1.73998E+04-2.68137E+05-6.75414E-10-5.23391E-09
 -1       173-7.16429E+05-9.43453E+04-2.79827E+04-2.72839E+05 2.20234E-09-5.07134E-09
 -1       174-7.56361E+05-1.58866E+05-8.26693E+04-2.58636E+05 7.84530E-09 2.89583E-09
 -1       175-6.92122E+05-5.17905E+04-1.19350E+05-2.80857E+05 1.35333E-08-6.87578E-09
 -1       191 2.45092E+03 6.48904E+05 4.08357E+03-2.52418E+04-1.78261E-10 2.02454E-09
 -1       192 8.63215E+02 6.49524E+05 2.43407E+03-2.73280E+04-1.16006E-09 3.60887E-09
 -1       193 3.67835E+02 6.49083E+05 1.93166E+03-2.49209E+04-2.09184E-11 3.43061E-09
 -1       194 1.12999E+03 6.49562E+05 2.89503E+03-2.79117E+04-2.34695E-09 3.33785E-10
 -1       195 3.25977E+03 6.48737E+05 5.23093E+03-2.46530E+04 8.73115E-11-1.66619E-09
 -1       251-1.74180E+06 1.44027E+03-7.75748E+04-7.16808E+04 1.56251E-09 2.71029E-10
 -1       252-1.50756E+06-3.42734E+02-4.82571E+03 2.18766E+05 4.20937E-09 5.84441E-09
 -1       253-1.63088E+06-1.96686E+03-1.46204E+04-1.47406E+05-6.27824E-09-7.93898E-09
 -1       254-1.61223E+06 1.45559E+04-1.22220E+03 2.86314E+05-1.04586E-09 5.19049E-09
 -1       255-1.64795E+06-4.60899E+03-8.55692E+03-1.39747E+05 2.00089E-09 1.18803E-09
 -1       256-1.46459E+06 1.28308E+04 3.13323E+04 1.91241E+05-4.21278E-09 7.88987E-09
 -1       257-1.76414E+06-1.19145E+04-3.14781E+04-5.17225E+04-1.70694E-08-2.83768E-09
 -1       258-1.35198E+06 1.02815E+04 5.30652E+04-1.86453E+04-2.62517E-08 6.68251E-09
 -1       259-1.74952E+06-1.10132E+04-2.82877E+04 6.96709E+04-9.64792E-09-2.46473E-10
 -1       260-1.49733E+06 1.35397E+04 2.53204E+04-2.17017E+05 3.06100E-08-1.55851E-08
 -1       261-1.63305E+06-3.60302E+03-5.22757E+03 1.46411E+05 4.48258E-08 4.65911E-09
 -1       262-1.61244E+06 1.45033E+04-1.11926E+03-2.86918E+05-1.66033E-08-1.06725E-08
 -1       263-1.64562E+06-2.88835E+03-1.75230E+04 1.40096E+05 6.43922E-09 1.06120E-08
 -1       264-1.47434E+06-6.95617E+02 1.99544E+03-1.94019E+05 5.89189E-08-2.13231E-09
 -1       265-1.75706E+06 9.93988E+01-7.97500E+04 5.29107E+04 1.63527E-08 1.20781E-09
 -1       266-3.41633E+04-1.84483E+05 8.00378E+04-1.47311E+04 8.36735E-11 1.60014E-10
 -1       267 3.80652E+04-1.47522E+05 5.47836E+04 6.74539E+04 2.32831E-10-1.78338E-09
 -1       268-4.07524E+03-1.72462E+05 1.61526E+04-1.40486E+04 0.00000E+00 2.68903E-09
 -1       269-2.03753E+03-1.55823E+05 3.58956E+03 6.42443E+04-4.86580E-11 2.37901E-09
 -1       270 5.09675E+03-1.75216E+05-1.41189E+04-1.15364E+04 1.13687E-10 4.46471E-09
 -1       271-4.33452E+06-5.42536E+05-3.42361E+05-1.68198E+06-7.42148E-10-1.20781E-09
 -1       272-4.45931E+06-7.72209E+05-2.17580E+05-1.67726E+06-5.84350E-10 1.45519E-09
 -1       273-4.39715E+06-6.21655E+05-8.07530E+04-1.66908E+06-1.98906E-09-1.65528E-09
 -1       274-4.38569E+06-6.72489E+05-4.46520E+04-1.69857E+06-2.50452E-09 1.82899E-09
 -1       275-4.40623E+06-6.28558E+05-1.87870E+04-1.66590E+06-1.55524E-09-7.09406E-11
 -1       276-4.37458E+06-6.64382E+05-9.98748E+03-1.70387E+06-1.36038E-09 5.74255E-09
 -1       277-4.40834E+06-6.28261E+05-5.11093E+03-1.66446E+06-8.91305E-10-8.43329E-10
 -1       278-4.37227E+06-6.64809E+05-4.04556E+03-1.70586E+06 1.63220E-09 9.58579E-10
 -1       279-4.40870E+06-6.27911E+05-4.85537E+03-1.66408E+06 1.44411E-10 6.93626E-09
 -1       280-4.37331E+06-6.65575E+05-9.31229E+03-1.70549E+06 2.08820E-09 3.73143E-09
 -1       281-4.40730E+06-6.27600E+05-1.73806E+04-1.66479E+06 2.64436E-09 7.62884E-09
 -1       282-4.38269E+06-6.74032E+05-4.13258E+04-1.70174E+06-2.71143E-10 4.51928E-09
 -1       283-4.39934E+06-6.20786E+05-7.46655E+04-1.66725E+06-1.78352E-09-6.26824E-09
 -1       284-4.45006E+06-7.66987E+05-2.01254E+05-1.68285E+06 1.16279E-09-6.07906E-09
 -1       285-4.34171E+06-5.47333E+05-3.16656E+05-1.67887E+06 1.81899E-09-3.05590E-10
 -1       286-7.18381E+05-1.44806E+04 3.38108E+04-1.99605E+03 2.02186E-09 5.48971E-09
 -1       287-7.02932E+05 1.67672E+04 2.39929E+04-1.57392E+02 9.76570E-10-1.98270E-09
 -1       288-7.12757E+05-2.25642E+03 8.71686E+03 2.08159E+02 2.46530E-10 8.66748E-10
 -1       289-7.09607E+05 2.60346E+03 5.58307E+03-4.35613E+03 2.97177E-10 1.87242E-10
 -1       290-7.11727E+05-3.56708E+02 2.24454E+03 2.20276E+03 1.29353E-09 2.56659E-09
 -1       291-7.10942E+05 4.27069E+02 1.42077E+03-7.58277E+03 1.46554E-09 1.97008E-09
 -1       292-7.11450E+05-6.77117E+01 7.43688E+02 3.43484E+03 1.76844E-09 6.68255E-09
 -1       293-7.11243E+05 1.62522E+02 7.19989E+02-8.95202E+03 1.53628E-10 3.58964E-09
 -1       294-7.11442E+05-8.13777E+01 8.81906E+02 3.57207E+03 1.73746E-09-5.05611E-09
 -1       295-7.10931E+05 5.53521E+02 1.79819E+03-8.09476E+03 1.22554E-09 3.09558E-09
 -1       296-7.11752E+05-4.65106E+02 2.95294E+03 2.57754E+03 4.52332E-10-3.52725E-09
 -1       297-7.09250E+05 3.43210E+03 7.31642E+03-5.24308E+03 1.71380E-09 1.01284E-09
 -1       298-7.13095E+05-2.97013E+03 1.15164E+04 7.20335E+02 3.48223E-10-5.31145E-10
 -1       299-7.00416E+05 2.21143E+04 3.16206E+04-1.18681E+03-1.34503E-09-3.76940E-09
 -1       300-7.20555E+05-1.90962E+04 4.46248E+04-1.47882E+03-4.07113E-10-6.87578E-10
 -1       301 5.79494E+04 2.96108E+04 1.24185E+05-3.18954E+04-3.03771E-09-9.63610E-10
 -1       302 1.96101E+04 5.26130E+04 7.52349E+04-3.73678E+04 3.52884E-10-5.89182E-11
 -1       303 5.70794E+03 3.77932E+04 5.92435E+04-3.20082E+04-3.03362E-09 1.78136E-09
 -1       304 2.40913E+04 5.51736E+04 8.69593E+04-3.73359E+04-2.90129E-10 4.75472E-09
 -1       305 7.25446E+04 2.70716E+04 1.52697E+05-3.18860E+04-2.66300E-09 1.99998E-09
 -1       306-3.04576E+06-3.89443E+05-2.11251E+05-1.17994E+06-2.60297E-09-3.30328E-09
 -1       307-3.10592E+06-5.47178E+05-1.34128E+05-1.19582E+06-3.55362E-09 2.91038E-10
 -1       308-3.08464E+06-4.37812E+05-4.98637E+04-1.17176E+06-3.01748E-09-1.32059E-09
 -1       309-3.06054E+06-4.86018E+05-2.75602E+04-1.20942E+06-6.62112E-10-3.21961E-09
 -1       310-3.09031E+06-4.41971E+05-1.16338E+04-1.16977E+06 2.70575E-10 3.53793E-10
 -1       311-3.05388E+06-4.80936E+05-6.23118E+03-1.21269E+06 1.56797E-09 1.00295E-09
 -1       312-3.09151E+06-4.41883E+05-3.28694E+03-1.16902E+06-2.03727E-10 4.12831E-09
 -1       313-3.05283E+06-4.80870E+05-2.79128E+03-1.21353E+06 1.42575E-09-8.61746E-11
 -1       314-3.09147E+06-4.41902E+05-3.59225E+03-1.16905E+06-1.57024E-09 3.01407E-09
 -1       315-3.05409E+06-4.80962E+05-7.07823E+03-1.21256E+06 3.21324E-09 5.31895E-09
 -1       316-3.09012E+06-4.41948E+05-1.33403E+04-1.16986E+06 1.71076E-09-1.19962E-09
 -1       317-3.06160E+06-4.86999E+05-3.16967E+04-1.20904E+06 1.45860E-09 2.26282E-09
 -1       318-3.08375E+06-4.37002E+05-5.73533E+04-1.17198E+06 2.42676E-09 3.86717E-09
 -1       319-3.11349E+06-5.57766E+05-1.54337E+05-1.19388E+06 1.72804E-10-5.31145E-10
 -1       320-3.03926E+06-3.81060E+05-2.43011E+05-1.18111E+06 3.09228E-10-9.60426E-10
 -1       321-6.03508E+05-2.37299E+04 5.50639E+04 1.23514E+03-1.05160E-09 2.54659E-11
 -1       322-5.76830E+05 2.74524E+04 3.93453E+04-1.09033E+04 4.75438E-10-3.62525E-09
 -1       323-5.93744E+05-3.69682E+03 1.41981E+04 4.44907E+03-1.61413E-09 2.70757E-09
 -1       324-5.88704E+05 4.30007E+03 9.06557E+03-1.59874E+04-5.16138E-09 1.10458E-09
 -1       325-5.91757E+05-5.76341E+02 3.64282E+03 6.31946E+03 1.30817E-09 2.20780E-09
 -1       326-5.91015E+05 7.29775E+02 2.13885E+03-1.79200E+04 1.64011E-09 2.51273E-09
 -1       327-5.91489E+05-9.86561E+01 9.53415E+02 6.38182E+03-3.77264E-09 1.52340E-09
 -1       328-5.90817E+05 1.74029E+02 6.93454E+02-1.62226E+04 3.86081E-10-4.45425E-10
 -1       329-5.91910E+05-5.64791E+01 2.89619E+02 4.62186E+03 1.80233E-09 1.80002E-09
 -1       330-5.89715E+05 1.55883E+02 7.96383E+02-1.12705E+04-1.52750E-09 8.79517E-10
 -1       331-5.92485E+05-1.58981E+02 4.83349E+02 1.42962E+03-8.36167E-10-1.49308E-09
 -1       332-5.88645E+05 7.82656E+02 2.06239E+03-4.17597E+03 6.02336E-09 4.07113E-09
 -1       333-5.92905E+05-7.37318E+02 2.29385E+03-2.47208E+03 3.37968E-09 1.64948E-09
 -1       334-5.86969E+05 4.97865E+03 7.34740E+03 3.44578E+03 4.85494E-09 5.45867E-09
 -1       335-5.94177E+05-4.32717E+03 9.61624E+03-6.19168E+03-8.11599E-09 2.25327E-09
 -1       336 1.83798E+03-1.29014E+06-9.46985E+03-5.16011E+03-7.75185E-09-6.20594E-09
 -1       337-3.77994E+03-1.29397E+06-1.15334E+04-3.31010E+04-5.22914E-09-7.12726E-09
 -1       338 1.54962E+03-1.29027E+06-1.49700E+04-4.93161E+03-7.76890E-09-1.71963E-09
 -1       339-1.68731E+04-1.30165E+06-3.42134E+04-3.33472E+04-5.59066E-09 4.40824E-09
 -1       340 1.27372E+04-1.28253E+06-5.20606E+04-4.91940E+03-7.56700E-09 8.16794E-09
 -1       341-1.27774E+06-2.18631E+05-3.50811E+04-5.24982E+05-2.87218E-09-4.28008E-09
 -1       342-1.26607E+06-6.30200E+04 7.34348E+03-3.28757E+05-1.84741E-09 6.53472E-10
 -1       343-1.17929E+06-2.43721E+05-5.69985E+03-5.43650E+05-1.33728E-08-3.39287E-08
 -1       344-1.36230E+06-3.49842E+04 1.41580E+03-3.14596E+05 2.13084E-08-1.03303E-08
 -1       345-1.18628E+06-2.43078E+05-3.73521E+03-5.43107E+05 2.43517E-09 2.33968E-10
 -1       346-1.24682E+06-6.58648E+04 1.88783E+04-3.32857E+05 1.10686E-08 1.77995E-08
 -1       347-1.28921E+06-2.17020E+05-1.87338E+04-5.20789E+05 1.96178E-09 5.22368E-09
 -1       348-1.08712E+06-1.51812E+05 3.25776E+04-4.15609E+05 1.57506E-08-2.45916E-09
 -1       349-1.34080E+06-1.61084E+05-1.89969E+04-4.56592E+05-1.03701E-08 2.69029E-09
 -1       350-1.06855E+06-2.54470E+05 1.39665E+04-5.48630E+05-1.02095E-07-3.09020E-08
 -1       351-1.31331E+06-1.10197E+05-8.97245E+03-3.92184E+05-3.80028E-08-2.98769E-09
 -1       352-1.10431E+06-3.06819E+05-1.49997E+04-6.14339E+05 1.25411E-07-1.51874E-08
 -1       353-1.31042E+06-1.04654E+05-3.28707E+04-3.94694E+05 2.52552E-08-1.82154E-08
 -1       354-1.10025E+06-3.07653E+05-6.91706E+04-5.33624E+05-8.16781E-08 3.41061E-09
 -1       355-1.31175E+06-1.13823E+05-1.48602E+05-4.68835E+05-2.33485E-08 5.52973E-09
 -1       356-6.52415E+05-2.04182E+03 4.41232E+03-7.93213E+03 2.84672E-10 7.39419E-10
 -1       357-6.48600E+05 2.38356E+03 3.46945E+03 8.19357E+03-1.05191E-08-5.40126E-10
 -1       358-6.52217E+05-3.86415E+02 9.28953E+02-4.51837E+03-3.27680E-09-4.37558E-09
 -1       359-6.48698E+05 3.93715E+02 1.09498E+03 5.93483E+02 4.61046E-09-6.68069E-09
 -1       360-6.52248E+05-1.11703E+02-5.83621E+01-3.31940E+02-4.64979E-11-1.19940E-11
 -1       361-6.49112E+05 5.09388E+01 2.98369E+02-7.51518E+03-1.02369E-09 1.42632E-09
 -1       362-6.51830E+05-2.46739E+01-5.43162E+02 3.58967E+03-3.99712E-09 9.70005E-10
 -1       363-6.50278E+05-1.37816E+02-7.88885E+02-1.41203E+04 8.90708E-10 5.04052E-09
 -1       364-6.51182E+05 1.51347E+02-1.85873E+03 6.27305E+03 6.30621E-09 2.47655E-09
 -1       365-6.51721E+05-1.22043E+03-4.18153E+03-1.75936E+04-1.03629E-08-1.04575E-09
 -1       366-6.50469E+05 1.11549E+03-7.28765E+03 7.06332E+03 6.51207E-09-8.06267E-10
 -1       367-6.55106E+05-8.39020E+03-1.78690E+04-1.70856E+04 9.52400E-09-2.71370E-09
 -1       368-6.47790E+05 7.28983E+03-2.87395E+04 5.76484E+03 2.99411E-09 6.67569E-10
 -1       369-6.75595E+05-5.46688E+04-7.79082E+04-1.26554E+04 5.79112E-09 5.68525E-09
 -1       370-6.29894E+05 4.71749E+04-1.10970E+05 2.63289E+03 5.32816E-09 5.66070E-09
 -1       371-1.65164E+04-2.80086E+05 3.57224E+04-7.47246E+03 6.89579E-09-4.58613E-10
 -1       372 1.64174E+04-2.55844E+05 2.26122E+04 4.24241E+04 1.31513E-09-1.36879E-09
 -1       373-1.58235E+02-2.69482E+05 6.72157E+02-9.78507E+03 1.63072E-09-2.45313E-09
 -1       374-1.46199E+04-2.74479E+05-1.87353E+04 4.52217E+04-4.45652E-10-6.41410E-09
 -1       375 1.47094E+04-2.61859E+05-3.32572E+04-1.02682E+04-1.38243E-10-1.60537E-09
 -1       376-1.01953E+06-1.48511E+05-4.18720E+04-4.15962E+05 1.26420E-10 9.89530E-10
 -1       377-1.09144E+06-1.27003E+05-2.76443E+04-3.43772E+05 5.30940E-08-1.41881E-10
 -1       378-1.01984E+06-1.66338E+05-9.54659E+03-4.16930E+05 6.57269E-09-3.06090E-09
 -1       379-1.07845E+06-1.12319E+05-5.07769E+03-3.48553E+05-1.00246E-09-2.66562E-09
 -1       380-1.03239E+06-1.63232E+05-3.40702E+03-4.11104E+05-9.88098E-09 4.09500E-10
 -1       381-1.04619E+06-1.28572E+05 1.70786E+03-3.67903E+05-1.37535E-08 4.57044E-09
 -1       382-1.05129E+06-1.50668E+05-3.15000E+03-3.96960E+05 2.54886E-09 1.12209E-09
 -1       383-1.01637E+06-1.56589E+05 2.30035E+03-3.99858E+05-5.60613E-09 3.96540E-09
 -1       384-1.06209E+06-1.35300E+05-3.12329E+03-3.79079E+05-3.10092E-09 3.97758E-09
 -1       385-1.00483E+06-1.81636E+05-2.83043E+03-4.29366E+05 5.47141E-09-2.98024E-09
 -1       386-1.06362E+06-1.25047E+05-7.05226E+03-3.68042E+05 4.52633E-09 9.58562E-09
 -1       387-1.00818E+06-1.96047E+05-1.84760E+04-4.35959E+05-7.12885E-09-6.76891E-10
 -1       388-1.05907E+06-1.20674E+05-3.08758E+04-3.72718E+05 2.91129E-09 2.65936E-09
 -1       389-1.04356E+06-2.33848E+05-8.72379E+04-4.06434E+05 9.67702E-09-4.92128E-09
 -1       390-1.02759E+06-8.79055E+04-1.31747E+05-3.97008E+05 1.22527E-08-3.18687E-09
 -1       406 2.60948E+03 6.36576E+05 4.96849E+03-8.23156E+04 1.90994E-10 2.05728E-09
 -1       407 1.43403E+03 6.37405E+05 4.97173E+03-9.08547E+04-4.39877E-09 2.09093E-09
 -1       408 1.78887E+03 6.36504E+05 7.30534E+03-8.20830E+04 3.60160E-10 1.41699E-09
 -1       409 6.83697E+03 6.39226E+05 1.51312E+04-9.11317E+04-4.72119E-09-1.87356E-10
 -1       410 1.95955E+04 6.34544E+05 3.02015E+04-8.20117E+04 2.60115E-10 8.99490E-10
 -1       466 1.12355E+06-4.43386E+04 9.83759E+04 3.38116E+04-2.31012E-10-8.69477E-09
 -1       467 1.19887E+06 5.00882E+04 7.49327E+04-6.54737E+04 1.42336E-09 4.94765E-09
 -1       468 1.15090E+06-6.54413E+03 2.56887E+04 1.41362E+04 2.92653E-09-3.18141E-09
 -1       469 1.16517E+06 7.33611E+03 1.72044E+04-3.62289E+04 3.21438E-09 2.00157E-09
 -1       470 1.15608E+06-9.47398E+02 6.79655E+03 4.55311E+03 8.24343E-10-2.80579E-10
 -1       471 1.15870E+06 1.15030E+03 4.48657E+03-2.21692E+04-4.33977E-09-2.34570E-09
 -1       472 1.15707E+06-1.78250E+02 2.60666E+03 7.54399E+01-2.70603E-10 6.39326E-09
 -1       473 1.15762E+06 6.08358E+02 2.99001E+03-1.61105E+04 6.01133E-10-5.06543E-09
 -1       474 1.15709E+06-3.57973E+02 4.16418E+03-1.50559E+03-2.13713E-09-1.11527E-09
 -1       475 1.15863E+06 2.71890E+03 8.78619E+03-1.50723E+04 4.60137E-10-4.14730E-10
 -1       476 1.15604E+06-2.27692E+03 1.49152E+04-9.62632E+02 3.25269E-09 1.22236E-09
 -1       477 1.16611E+06 1.72091E+04 3.64706E+04-1.85524E+04-9.58195E-10-3.88900E-09
 -1       478 1.14962E+06-1.48260E+04 5.81123E+04 1.97457E+03-3.49587E-10 2.38651E-09
 -1       479 1.21141E+06 1.11070E+05 1.58802E+05-2.84812E+04 2.98053E-09-5.02769E-09
 -1       480 1.11087E+06-9.59099E+04 2.24294E+05 8.96507E+03 2.82353E-09-1.16415E-09
 -1       481-1.12644E+04 2.54011E+05 2.03607E+04-2.10351E+04-1.81899E-10 3.54703E-10
 -1       482 1.20466E+04 2.95787E+05 2.07898E+04 7.39582E+04-1.11640E-10 1.00636E-08
 -1       483-1.84187E+03 2.68469E+05 7.28968E+03-1.65442E+04 9.70886E-11 3.65981E-09
 -1       484 5.01061E+03 2.77821E+05 9.37854E+03 6.81133E+04 1.09708E-10-6.41819E-10
 -1       485-3.31038E+03 2.70627E+05 8.84471E+03-1.51737E+04 1.16415E-10-1.11004E-09
 -1       486-1.11876E+06-2.05515E+05-1.36572E+05-5.20343E+05 4.51109E-10-1.83427E-08
 -1       487-1.14444E+06-3.69321E+03-4.10414E+04-1.83868E+05 2.46582E-08 2.38515E-08
 -1       488-9.76670E+05-2.46515E+05-2.49674E+04-5.14028E+05 2.23099E-09 2.03072E-08
 -1       489-1.24337E+06 4.50629E+04-6.61857E+03-1.93698E+05-2.20354E-09 1.88811E-08
 -1       490-1.02636E+06-2.49421E+05-1.50222E+04-5.16291E+05-1.03300E-08 3.14772E-08
 -1       491-9.97001E+05 1.11599E+04 4.33619E+04-1.95211E+05 2.11094E-09 2.69256E-08
 -1       492-1.20977E+06-2.22268E+05-4.20433E+04-5.01221E+05-8.65111E-09 2.00225E-09
 -1       493-7.36674E+05-9.96243E+04 7.34294E+04-2.90606E+05-2.94112E-08 9.53787E-09
 -1       494-1.27611E+06-1.46592E+05-4.00681E+04-4.13711E+05 2.38524E-08-8.86985E-09
 -1       495-7.63973E+05-2.43232E+05 3.95694E+04-4.90598E+05-8.62929E-09-4.58178E-08
 -1       496-1.19371E+06-7.04217E+04-1.21351E+04-3.10455E+05 9.61791E-09-3.00050E-08
 -1       497-8.79163E+05-3.22878E+05-6.15768E+03-6.16041E+05-2.12550E-08-1.13459E-08
 -1       498-1.17429E+06-5.68934E+04-2.41430E+04-2.97283E+05-1.36762E-08 7.48223E-08
 -1       499-8.17040E+05-3.03010E+05-3.05130E+04-5.27837E+05-7.74088E-09 1.17088E-08
 -1       500-1.24670E+06-9.72826E+04-1.29730E+05-3.92563E+05 2.81696E-08-8.33097E-09
 -1       501-7.96212E+05-2.24783E+04 5.25193E+04-2.14345E+03 1.77329E-09 3.67436E-10
 -1       502-7.72442E+05 2.60326E+04 3.72233E+04-1.66019E+02 4.14502E-10 9.65883E-10
 -1       503-7.87469E+05-3.49977E+03 1.35319E+04 6.23806E+02 8.38440E-11-8.50378E-10
 -1       504-7.82813E+05 4.04163E+03 8.60428E+03-5.38421E+03-1.94859E-10 1.09776E-09
 -1       505-7.85877E+05-5.49581E+02 3.42015E+03 3.07483E+03 1.37220E-09 2.54386E-09
 -1       506-7.84848E+05 6.44986E+02 2.02525E+03-9.21728E+03 3.03579E-09-1.54375E-09
 -1       507-7.85472E+05-8.75310E+01 8.48970E+02 4.45695E+03 2.48102E-09-1.24885E-09
 -1       508-7.85302E+05 1.17398E+02 4.36401E+02-1.05021E+04 3.37879E-10-1.52811E-09
 -1       509-7.85440E+05-1.13678E+01 1.26301E+02 4.35968E+03 1.87040E-09 3.76772E-09
 -1       510-7.85169E+05-2.28362E+01-4.16253E+01-8.85673E+03 1.31007E-09-1.57650E-09
 -1       511-7.85586E+05 3.73175E+01-3.36138E+02 2.81154E+03 5.65933E-10 5.50614E-10
 -1       512-7.84989E+05-3.85640E+02-7.17892E+02-4.76541E+03 3.82329E-10-6.89852E-10
 -1       513-7.85587E+05 3.24678E+02-1.42923E+03 2.68282E+02-2.22087E-10-1.85173E-09
 -1       514-7.85902E+05-2.57981E+03-3.58880E+03 5.71492E+02-1.36066E-09-1.48066E-09
 -1       515-7.84663E+05 2.21600E+03-5.35368E+03-2.52533E+03-1.01721E-09 2.53931E-09
 -1       516-6.46123E+04 2.43529E+05 1.46513E+05 3.91571E+04 1.12559E-08 6.22367E-09
 -1       517 7.78297E+04 3.26287E+05 1.10763E+05-1.82724E+05 1.76660E-08 1.98000E-08
 -1       518-1.12254E+04 2.75487E+05 4.60693E+04 3.75021E+04 1.06684E-08 1.03169E-08
 -1       519 3.18921E+04 3.37429E+05 5.50642E+04-1.88005E+05 1.53795E-08 3.81533E-10
 -1       520-2.09322E+04 2.35377E+05 3.21322E+04 4.44303E+04-5.80621E-09 1.08957E-09
 -1       521-4.12229E+06-5.21495E+05-2.94578E+05-1.59366E+06-2.41562E-09-2.91038E-10
 -1       522-4.21964E+06-7.28812E+05-1.87152E+05-1.60093E+06-1.56342E-09-3.37968E-09
 -1       523-4.17634E+06-5.89296E+05-6.94767E+04-1.58236E+06-6.02540E-12 4.72573E-09
 -1       524-4.15631E+06-6.43180E+05-3.84185E+04-1.61951E+06-1.81717E-09-3.08046E-09
 -1       525-4.18413E+06-5.95236E+05-1.61619E+04-1.57966E+06 9.67702E-10-1.53705E-10
 -1       526-4.14705E+06-6.35936E+05-8.61088E+03-1.62380E+06 3.03226E-09 2.21837E-09
 -1       527-4.18572E+06-5.95221E+05-4.42302E+03-1.57869E+06 3.82897E-10 3.01270E-11
 -1       528-4.14567E+06-6.35667E+05-3.55322E+03-1.62473E+06-1.01828E-09 2.70802E-09
 -1       529-4.18559E+06-5.95359E+05-4.32984E+03-1.57883E+06-9.20409E-10-1.31149E-09
 -1       530-4.14745E+06-6.35418E+05-8.33934E+03-1.62320E+06 1.96815E-09 3.11275E-09
 -1       531-4.18378E+06-5.95660E+05-1.56272E+04-1.58007E+06-2.58115E-09-8.44011E-10
 -1       532-4.15689E+06-6.41875E+05-3.70947E+04-1.61840E+06-2.78760E-10 1.22054E-09
 -1       533-4.17597E+06-5.90216E+05-6.70953E+04-1.58298E+06-7.00652E-10 2.39379E-09
 -1       534-4.21857E+06-7.23992E+05-1.80682E+05-1.59981E+06-1.96746E-09 4.09273E-09
 -1       535-4.12351E+06-5.25044E+05-2.84428E+05-1.59420E+06-3.75076E-09 3.31784E-09
 -1       536 1.15754E+05-1.93240E+04 7.80986E+04-8.52377E+03-9.09495E-12-4.23097E-09
 -1       537 1.44775E+05 2.52173E+04 5.04096E+04-3.76323E+04-3.30601E-09-8.05085E-09
 -1       538 1.27596E+05-2.13066E+03 2.02184E+04-8.46854E+03-3.58341E-10 5.03860E-10
 -1       539 1.31243E+05 2.49476E+03 1.13793E+04-3.76393E+04 1.81171E-09 1.97360E-09
 -1       540 1.28945E+05-2.73519E+02 5.09726E+03-8.50724E+03 1.13414E-09-9.82254E-11
 -1       541 1.29495E+05 2.36335E+02 2.71210E+03-3.75656E+04-1.59071E-09-2.15164E-09
 -1       542 1.29103E+05-4.00383E+01 1.27323E+03-8.54259E+03-2.60115E-10-4.99426E-10
 -1       543 1.29172E+05 4.54606E+01 6.63420E+02-3.75118E+04 9.91349E-11-6.40057E-11
 -1       544 1.29120E+05 2.73104E+00 3.19895E+02-8.56124E+03 6.30280E-10-2.74213E-10
 -1       545 1.29095E+05 3.95236E+01 1.65473E+02-3.74909E+04-1.04990E-09 3.59250E-11
 -1       546 1.29124E+05 7.77598E+00 8.19511E+01-8.56346E+03-1.61435E-10 2.17869E-09
 -1       547 1.29115E+05 2.81766E+01 4.61072E+01-3.74982E+04-2.66255E-10-7.37487E-10
 -1       548 1.29134E+05-8.53511E+00 1.91441E+01-8.55403E+03-3.38378E-09 8.62485E-10
 -1       549 1.29216E+05 2.18575E+00 2.94948E+01-3.74673E+04-5.18776E-09 2.63685E-09
 -1       550 1.29149E+05-5.16499E+01 1.18732E+00-8.59431E+03-2.98678E-09 3.34489E-09
 -1       551 2.08435E+04-3.89345E+05 4.00559E+04-5.85994E+05-2.25555E-10 1.50976E-09
 -1       552 1.14136E+04-3.83441E+05 3.03944E+04-6.83117E+05-2.13549E-09 5.91535E-09
 -1       553 7.70537E+03-3.89157E+05 3.37752E+04-5.85018E+05-7.85803E-10 2.63844E-09
 -1       554 2.37896E+04-3.77009E+05 6.21146E+04-6.83291E+05-9.24047E-10 7.79437E-10
 -1       555 6.07646E+04-3.97011E+05 1.17210E+05-5.85661E+05-1.35333E-09-3.97267E-09
 -1       556-3.16383E+05-1.58517E+05 2.33226E+04-2.84729E+05 1.85173E-09 3.05590E-10
 -1       557-2.94064E+05-1.82929E+05 1.14758E+04-3.02460E+05-3.99086E-09 4.41150E-09
 -1       558-3.17363E+05-1.66277E+05 4.78308E+03-2.80214E+05-3.60160E-09 2.61934E-10
 -1       559-2.96622E+05-1.86697E+05 2.36352E+03-3.03599E+05-2.03727E-10-6.78938E-10
 -1       560-3.17982E+05-1.66170E+05 1.02746E+03-2.80371E+05-1.10231E-09 3.63002E-09
 -1       561-2.97398E+05-1.86630E+05 4.91240E+02-3.04160E+05 2.47383E-10 2.05262E-09
 -1       562-3.18434E+05-1.65886E+05 1.54864E+02-2.80666E+05-6.98492E-10 1.53887E-09
 -1       563-2.97831E+05-1.86444E+05-3.96792E+01-3.04468E+05-4.32919E-10 1.16597E-09
 -1       564-3.18680E+05-1.65719E+05-2.88998E+02-2.80837E+05-5.81713E-09-7.36691E-09
 -1       565-2.98050E+05-1.86358E+05-7.12475E+02-3.04606E+05-1.14142E-08-7.34872E-10
 -1       566-3.18693E+05-1.65664E+05-1.52347E+03-2.80870E+05-4.57351E-09 2.30284E-09
 -1       567-2.98293E+05-1.86540E+05-3.37162E+03-3.04554E+05 3.63798E-11 1.11868E-09
 -1       568-3.18353E+05-1.66264E+05-6.94873E+03-2.80536E+05 1.85537E-10 1.28784E-09
 -1       569-3.01875E+05-1.90935E+05-1.63918E+04-3.03342E+05-9.50422E-10 4.83851E-10
 -1       570-3.16821E+05-1.79448E+05-3.35621E+04-2.74871E+05 2.39379E-09 7.49560E-09
 -1       571 4.23603E+05 2.03650E+04 3.16975E+04-1.05473E+05 1.44064E-09 1.42745E-09
 -1       572 4.28466E+05 6.88015E+03 1.55885E+04-1.16507E+05 8.36735E-10 1.36879E-09
 -1       573 4.25523E+05 1.48610E+03 6.93949E+03-1.05172E+05 9.98443E-09 1.92631E-09
 -1       574 4.26068E+05 4.51950E+02 3.48977E+03-1.16826E+05 1.96274E-08 2.19552E-09
 -1       575 4.25696E+05 2.65960E+01 1.65467E+03-1.05136E+05 9.89621E-09 2.60388E-09
 -1       576 4.25743E+05-4.35655E+00 8.50168E+02-1.16867E+05-1.76897E-10 7.55790E-10
 -1       577 4.25722E+05-3.14094E+01 4.31137E+02-1.05132E+05 2.57160E-10 6.39375E-10
 -1       578 4.25726E+05-2.92441E+01 2.57924E+02-1.16872E+05 6.47105E-10 4.94765E-10
 -1       579 4.25780E+05-5.21695E+01 1.97689E+02-1.05131E+05 9.29504E-10 7.18501E-11
 -1       580 4.25823E+05-7.05973E+01 2.51283E+02-1.16868E+05 1.96451E-09 4.62023E-09
 -1       581 4.25890E+05-1.00670E+02 4.11994E+02-1.05136E+05 2.72848E-11-2.52112E-09
 -1       582 4.26051E+05-4.34119E+01 8.36587E+02-1.16808E+05 1.07866E-09-2.55113E-09
 -1       583 4.26008E+05 1.50918E+02 1.63341E+03-1.05191E+05 1.03319E-08-3.13048E-09
 -1       584 4.26819E+05 1.37334E+03 3.67126E+03-1.16318E+05 1.61381E-08 3.99518E-09
 -1       585 4.25740E+05 4.51264E+03 7.44229E+03-1.05633E+05 1.00426E-08 1.60799E-09
 -1       586 3.10864E+03 1.67191E+05 5.40808E+03-2.73678E+05 2.27465E-09-3.62161E-09
 -1       587 1.96473E+03 1.67987E+05 5.47588E+03-3.03169E+05 3.20142E-10-4.65388E-09
 -1       588 2.33443E+03 1.66943E+05 8.07395E+03-2.73329E+05 2.62298E-09 1.37265E-09
 -1       589 7.94943E+03 1.70024E+05 1.67447E+04-3.03242E+05 7.13044E-10 1.50749E-09
 -1       590 2.19359E+04 1.64968E+05 3.33970E+04-2.73591E+05 2.38833E-09-1.71894E-10
 -1       591-1.81485E+05-6.54469E+04-3.56456E+04-9.63304E+04 1.43568E-08 1.90812E-09
 -1       592-1.82374E+05-6.08655E+04-1.74353E+04-1.07125E+05 2.07656E-08 1.71440E-09
 -1       593-1.82459E+05-5.18866E+04-7.39523E+03-1.02487E+05 6.68479E-09 1.02000E-08
 -1       594-1.78601E+05-5.59792E+04-3.61517E+03-1.07832E+05-1.13196E-08 1.21794E-09
 -1       595-1.82635E+05-5.13592E+04-1.66385E+03-1.02775E+05-2.57342E-09 4.07385E-09
 -1       596-1.78317E+05-5.57784E+04-8.44770E+02-1.07816E+05 9.40190E-10 8.64020E-11
 -1       597-1.82671E+05-5.13805E+04-4.62358E+02-1.02779E+05 1.35583E-09-5.15251E-09
 -1       598-1.78288E+05-5.57809E+04-3.74617E+02-1.07804E+05 3.87786E-10-3.22780E-09
 -1       599-1.82664E+05-5.13828E+04-4.81858E+02-1.02776E+05-9.33142E-10-2.75668E-09
 -1       600-1.78309E+05-5.57834E+04-8.96204E+02-1.07808E+05-1.41699E-09 1.42995E-09
 -1       601-1.82613E+05-5.13655E+04-1.77273E+03-1.02765E+05-5.37329E-09 8.04903E-10
 -1       602-1.78604E+05-5.59991E+04-3.85617E+03-1.07812E+05-3.73029E-09 8.56198E-09
 -1       603-1.82412E+05-5.19383E+04-7.88977E+03-1.02454E+05-3.54339E-09 1.97360E-09
 -1       604-1.82649E+05-6.11820E+04-1.85992E+04-1.07013E+05 1.03364E-09 2.33649E-09
 -1       605-1.81334E+05-6.64282E+04-3.80241E+04-9.59107E+04-2.51475E-09-4.78121E-09
 -1       606 1.24338E+05-1.60608E+04-2.49173E+04 3.58072E+04-7.79437E-09-1.29148E-09
 -1       607 1.20429E+05-5.42566E+03-1.22475E+04 3.91620E+04-1.69621E-09-4.88399E-10
 -1       608 1.22694E+05-1.16721E+03-5.45341E+03 3.55562E+04 5.51336E-09 2.16482E-09
 -1       609 1.22173E+05-3.07686E+02-2.73506E+03 3.94287E+04-3.35785E-09 6.00267E-11
 -1       610 1.22461E+05 3.55811E+01-1.29327E+03 3.55246E+04-7.79801E-09-6.20275E-10
 -1       611 1.22351E+05 9.23837E+01-6.51437E+02 3.94616E+04-1.42027E-08 1.70257E-09
 -1       612 1.22398E+05 1.04782E+02-3.11466E+02 3.55213E+04-6.64659E-09 2.12049E-09
 -1       613 1.22350E+05 1.18398E+02-1.45738E+02 3.94653E+04-1.23287E-08 3.79259E-09
 -1       614 1.22365E+05 1.08671E+02-4.86372E+01 3.55205E+04-5.59157E-09 2.33285E-10
 -1       615 1.22333E+05 1.27402E+02 2.44613E+01 3.94654E+04 5.78348E-09-1.80262E-09
 -1       616 1.22340E+05 1.20653E+02 1.07487E+02 3.55210E+04-6.15273E-09 3.99268E-10
 -1       617 1.22337E+05 1.72593E+02 2.60118E+02 3.94640E+04 6.31644E-09 5.46197E-09
 -1       618 1.22307E+05 2.43546E+02 5.32875E+02 3.55215E+04 8.26321E-09-2.47292E-09
 -1       619 1.22503E+05 6.80577E+02 1.20605E+03 3.94592E+04 4.35796E-09 3.81533E-09
 -1       620 1.22143E+05 1.71503E+03 2.45684E+03 3.55219E+04 1.39175E-09 3.36968E-09
 -1       621 3.28874E+03 4.18237E+05 7.74224E+03-3.82002E+04 5.94810E-10 7.81120E-09
 -1       622 1.28165E+03 4.19689E+05 6.29846E+03-4.47021E+04-2.42790E-09 1.18439E-08
 -1       623 7.71495E+02 4.18576E+05 7.63342E+03-3.82547E+04 4.54747E-12 8.79118E-09
 -1       624 4.44076E+03 4.21534E+05 1.46023E+04-4.44858E+04-2.00089E-09 1.45883E-09
 -1       625 1.35911E+04 4.16477E+05 2.79192E+04-3.84111E+04 2.00089E-10-1.13050E-09
 -1       626 1.75472E+05 5.66453E+04-1.18237E+04 1.19519E+05-5.20686E-09-1.47702E-09
 -1       627 1.70389E+05 6.45346E+04-5.61470E+03 1.21544E+05 6.90306E-10 1.35378E-09
 -1       628 1.75671E+05 6.24122E+04-2.36182E+03 1.16724E+05 1.86319E-08-3.70846E-10
 -1       629 1.71277E+05 6.68787E+04-1.13431E+03 1.21303E+05 2.08202E-08-7.27954E-09
 -1       630 1.75623E+05 6.28069E+04-5.02831E+02 1.16492E+05 1.35224E-08-7.08133E-09
 -1       631 1.71323E+05 6.70531E+04-2.27264E+02 1.21289E+05-5.51381E-09-2.50304E-09
 -1       632 1.75585E+05 6.28263E+04-6.97906E+01 1.16463E+05-3.13048E-09-8.82210E-11
 -1       633 1.71313E+05 6.70660E+04 4.09348E+01 1.21282E+05 1.01518E-08 1.49566E-09
 -1       634 1.75560E+05 6.28206E+04 1.71952E+02 1.16455E+05 6.14136E-09 2.51384E-09
 -1       635 1.71328E+05 6.70719E+04 4.16292E+02 1.21283E+05-6.88919E-09 9.46329E-10
 -1       636 1.75539E+05 6.28366E+04 8.74840E+02 1.16441E+05-5.18025E-09-1.16461E-09
 -1       637 1.71535E+05 6.72960E+04 1.95707E+03 1.21251E+05 4.06453E-09-8.47558E-09
 -1       638 1.75494E+05 6.35156E+04 4.05445E+03 1.16144E+05 1.17943E-08-6.82212E-09
 -1       639 1.73611E+05 7.08335E+04 9.64337E+03 1.20401E+05-4.45061E-09 1.29648E-09
 -1       640 1.75567E+05 7.37868E+04 2.03001E+04 1.11859E+05-2.03004E-08-7.94444E-09
 -1       641 5.33643E+03 3.61197E+03-8.47819E+03-3.52185E+02-1.22579E-08 2.97860E-10
 -1       642 1.72034E+03-4.18101E+03-5.96806E+03 1.59343E+03 1.18044E-09 2.49963E-09
 -1       643 3.93303E+03 5.57906E+02-2.18759E+03-3.47100E+02-2.41323E-08-1.10720E-09
 -1       644 3.34710E+03-6.39609E+02-1.35088E+03 1.58616E+03 1.14755E-08 6.12968E-09
 -1       645 3.70780E+03 8.34985E+01-5.24565E+02-3.44950E+02-1.14157E-08 1.09395E-09
 -1       646 3.61139E+03-8.29727E+01-2.48057E+02 1.58294E+03-4.53504E-07 2.75513E-09
 -1       647 3.66770E+03 3.67622E+00-1.45332E+00-3.43889E+02-3.42582E-05 8.69829E-08
 -1       648 3.68415E+03 5.29880E+01 2.28367E+02 1.58185E+03-6.77577E-05 1.88691E-07
 -1       649 3.63470E+03-5.19019E+01 5.20995E+02-3.43854E+02-3.42642E-05 9.00390E-08
 -1       650 3.87444E+03 3.99987E+02 1.25731E+03 1.58236E+03-4.25442E-07-2.97950E-09
 -1       651 3.47776E+03-3.42670E+02 2.19701E+03-3.44401E+02-1.20037E-08-6.43354E-10
 -1       652 4.95141E+03 2.56848E+03 5.41574E+03 1.58295E+03 1.27227E-08 3.28328E-10
 -1       653 2.55884E+03-2.21450E+03 8.66187E+03-3.44455E+02-1.31499E-08-2.44108E-09
 -1       654 1.14663E+04 1.65571E+04 2.36205E+04 1.57627E+03 1.21193E-08-7.58519E-10
 -1       655-3.03388E+03-1.42859E+04 3.34762E+04-3.37797E+02-9.50351E-10-4.99858E-09
 -1       656 1.31710E+04-4.76663E+05-5.58548E+04 1.14904E+04-1.99725E-09-1.79398E-09
 -1       657-1.91053E+04-4.97258E+05-4.09564E+04 4.77682E+04-2.00998E-10-5.85715E-10
 -1       658 2.58872E+03-4.83959E+05-2.58681E+04 1.13589E+04-1.56393E-09 4.00132E-09
 -1       659-1.74239E+04-4.96335E+05-3.80753E+04 4.78628E+04 7.51243E-10-3.14728E-10
 -1       660 1.18158E+04-4.77647E+05-5.04283E+04 1.13974E+04-2.38833E-09-6.13909E-11
 -1       661 4.69706E+05 5.95274E+04 3.86830E+04 1.83879E+05 5.69617E-09 1.81899E-09
 -1       662 4.79011E+05 9.02665E+04 2.45786E+04 1.88938E+05 4.40167E-09 3.54476E-09
 -1       663 4.76437E+05 6.87854E+04 9.13849E+03 1.82833E+05 8.15373E-09-3.65708E-09
 -1       664 4.71287E+05 7.84441E+04 5.07009E+03 1.90603E+05-3.70227E-09-1.12030E-08
 -1       665 4.77197E+05 6.98395E+04 2.14475E+03 1.82775E+05 7.94785E-09-2.71029E-10
 -1       666 4.70415E+05 7.71255E+04 1.17144E+03 1.90693E+05 6.39358E-09 8.12972E-09
 -1       667 4.77276E+05 6.99712E+04 6.50848E+02 1.82788E+05 1.08131E-08 2.70096E-09
 -1       668 4.70339E+05 7.69942E+04 6.12992E+02 1.90681E+05-5.44477E-09 7.39254E-09
 -1       669 4.77268E+05 6.99634E+04 8.55583E+02 1.82788E+05 2.76603E-09 5.15848E-09
 -1       670 4.70489E+05 7.72111E+04 1.74151E+03 1.90690E+05 2.45643E-08 6.35254E-09
 -1       671 4.77133E+05 6.97667E+04 3.29200E+03 1.82776E+05 1.36201E-08 1.63595E-09
 -1       672 4.71867E+05 7.92342E+04 7.84718E+03 1.90519E+05-2.56387E-09 1.26056E-09
 -1       673 4.75933E+05 6.81500E+04 1.41672E+04 1.82885E+05 7.83265E-09 3.52247E-09
 -1       674 4.83878E+05 9.75391E+04 3.81194E+04 1.87893E+05 9.92310E-09 4.08909E-09
 -1       675 4.65475E+05 5.38122E+04 6.00046E+04 1.84525E+05 3.32784E-09-7.70524E-09
 -1       676 1.70338E+03-4.46444E+05-8.02649E+03 7.35249E+02 7.11680E-11-3.31675E-09
 -1       677-3.07461E+03-4.49534E+05-8.05746E+03 5.28415E+02-4.24136E-09-3.81805E-09
 -1       678 8.80624E+02-4.46964E+05-8.71562E+03 7.33325E+02-6.43695E-09 6.17587E-09
 -1       679-9.14938E+03-4.53075E+05-1.85717E+04 5.27592E+02 1.67756E-09-9.96252E-10
 -1       680 6.74244E+03-4.42906E+05-2.77796E+04 7.34261E+02 3.48518E-09-3.33273E-10
 -1       681 6.56227E+05-1.81296E+04 4.23635E+04-1.90501E+03 1.70814E-10-1.51704E-09
 -1       682 6.75018E+05 2.10216E+04 2.99940E+04 1.17804E+04 3.33401E-10-2.00089E-09
 -1       683 6.63504E+05-2.80597E+03 1.09902E+04-3.75132E+02-3.36797E-10-2.53658E-09
 -1       684 6.66517E+05 3.28252E+03 6.91122E+03 9.69215E+03-5.10923E-10-2.66937E-09
 -1       685 6.64711E+05-4.32709E+02 2.86941E+03 1.83255E+02-1.76549E-10-3.96881E-09
 -1       686 6.65146E+05 5.48740E+02 1.76823E+03 9.38713E+03 1.94888E-10-3.41305E-09
 -1       687 6.64874E+05-7.84802E+01 9.85811E+02-7.00944E+01-1.42450E-10-2.06984E-09
 -1       688 6.65136E+05 2.11379E+02 1.03379E+03 1.07759E+04-6.77446E-10-2.67960E-09
 -1       689 6.64737E+05-1.06802E+02 1.27921E+03-1.20543E+03 7.14806E-10-1.89436E-09
 -1       690 6.65994E+05 7.68261E+02 2.79570E+03 1.42384E+04 2.52112E-09-5.11591E-10
 -1       691 6.64067E+05-6.69160E+02 4.41966E+03-3.53266E+03-1.30893E-09-1.27875E-09
 -1       692 6.69746E+05 5.04111E+03 1.14020E+04 2.07236E+04-1.46019E-09-1.23873E-09
 -1       693 6.61129E+05-4.46749E+03 1.72562E+04-7.69120E+03 1.11993E-09 3.47609E-09
 -1       694 6.87709E+05 3.35520E+04 4.92096E+04 3.21569E+04 6.17280E-09 1.50976E-09
 -1       695 6.46513E+05-2.93673E+04 6.67885E+04-1.49696E+04 7.39169E-09 8.23275E-09
 -1       696-1.22865E+04 5.07239E+05 2.82886E+04 2.93653E+03 1.03682E-10-1.34054E-09
 -1       697 1.34178E+04 5.19507E+05 1.84621E+04-1.57540E+04 9.50422E-11-1.54984E-10
 -1       698-1.06138E+03 5.12636E+05 4.10727E+03 2.14457E+03-1.87811E-10 2.16946E-09
 -1       699-4.14209E+03 5.11239E+05-4.61060E+03-1.53616E+04-2.98087E-10 3.67669E-09
 -1       700 5.22186E+03 5.15505E+05-1.14592E+04 2.54416E+03-1.79170E-10 1.60361E-09
 -1       701-5.90659E+05-5.40392E+04-7.37018E+04-2.33388E+05-3.92902E-10 4.00178E-10
 -1       702-6.25618E+05-1.24343E+05-5.09730E+04-2.24496E+05 5.45697E-12 7.78982E-10
 -1       703-6.06504E+05-7.93377E+04-1.72932E+04-2.27342E+05 3.52884E-10-4.42014E-10
 -1       704-6.06997E+05-9.53084E+04-1.07486E+04-2.31819E+05 5.52632E-10 1.76840E-09
 -1       705-6.09270E+05-8.29853E+04-4.04284E+03-2.26100E+05 5.80258E-10 1.46611E-09
 -1       706-6.04029E+05-9.08130E+04-2.40079E+03-2.32922E+05-8.69278E-11 1.71713E-09
 -1       707-6.09469E+05-8.38193E+04-1.11943E+03-2.26244E+05 7.49765E-11 2.59632E-10
 -1       708-6.04513E+05-8.91816E+04-9.36170E+02-2.31850E+05 1.88078E-09-7.41647E-10
 -1       709-6.08776E+05-8.46216E+04-1.08750E+03-2.27165E+05-5.23244E-11 6.90079E-11
 -1       710-6.06628E+05-8.78276E+04-2.18704E+03-2.29523E+05 5.65251E-10-1.08074E-09
 -1       711-6.07344E+05-8.51822E+04-3.79184E+03-2.28564E+05-4.62478E-10-5.58884E-10
 -1       712-6.11466E+05-8.99347E+04-9.92025E+03-2.26156E+05 9.47466E-10-4.72482E-10
 -1       713-6.03942E+05-8.25261E+04-1.60486E+04-2.30529E+05 4.14275E-10-9.27685E-11
 -1       714-6.29704E+05-1.16198E+05-4.72704E+04-2.18685E+05 5.23869E-10-1.24601E-09
 -1       715-5.89137E+05-5.89869E+04-6.83063E+04-2.36018E+05-2.31739E-09 2.03727E-09
 -1       716 5.27954E+05-2.46025E+04 5.63169E+04-1.17497E+04-1.04289E-08 7.47968E-09
 -1       717 5.61083E+05 2.81515E+04 4.12255E+04 2.34996E+04-3.39060E-09 6.68115E-09
 -1       718 5.39611E+05-3.75499E+03 1.45579E+04-6.65984E+03-2.20871E-09 2.66391E-09
 -1       719 5.46816E+05 4.22809E+03 9.66433E+03 1.52913E+04-2.13100E-09 2.05364E-09
 -1       720 5.41949E+05-5.69051E+02 3.85275E+03-3.53873E+03 6.42899E-10 7.82165E-11
 -1       721 5.43837E+05 6.62772E+02 2.69897E+03 1.02144E+04-1.43331E-10 6.53216E-10
 -1       722 5.42482E+05-1.25426E+02 1.66395E+03-1.58216E+03 3.98529E-10-4.51038E-10
 -1       723 5.43245E+05 4.16489E+02 2.21994E+03 7.02635E+03-1.46105E-09-9.64206E-11
 -1       724 5.42498E+05-2.93891E+02 3.22618E+03-3.50570E+02-2.91399E-09-2.60980E-09
 -1       725 5.43983E+05 2.14875E+03 7.02889E+03 5.01251E+03-1.32758E-10-3.34023E-09
 -1       726 5.41725E+05-1.84131E+03 1.19619E+04 4.31692E+02-2.01521E-09-3.30874E-09
 -1       727 5.49647E+05 1.38246E+04 2.92691E+04 3.71504E+03-4.03355E-09-5.06952E-09
 -1       728 5.36820E+05-1.19289E+04 4.67746E+04 9.46793E+02-1.23352E-09-3.19233E-09
 -1       729 5.84643E+05 8.92491E+04 1.27393E+05 2.76296E+03-1.05189E-09-2.69938E-09
 -1       730 5.06737E+05-7.70013E+04 1.80701E+05 1.38303E+03 3.40776E-11-2.49565E-09
 -1       731-1.54284E+04 2.16575E+05 2.65278E+04 2.70218E+04-2.47201E-09 2.44927E-09
 -1       732 1.72465E+04 2.72064E+05 2.75816E+04-1.09923E+05-9.76797E-10-1.71917E-09
 -1       733-2.49459E+03 2.38716E+05 1.01042E+04 2.25357E+04 5.62886E-09 3.42175E-09
 -1       734 8.07863E+03 2.48083E+05 1.27187E+04-1.05112E+05 9.64715E-09 9.39434E-09
 -1       735-5.01438E+03 2.38731E+05 1.19174E+04 2.22080E+04 4.89990E-09 6.54677E-09
 -1       736-1.01347E+06-7.98780E+04-9.13641E+04-3.48058E+05-9.07767E-09-6.36646E-10
 -1       737-9.12660E+05-2.43359E+05-5.34871E+04-4.38106E+05-2.28854E-08-2.52476E-09
 -1       738-1.02039E+06-8.98122E+04-1.98837E+04-3.18219E+05-1.03933E-08-2.42107E-09
 -1       739-8.99269E+05-2.20382E+05-1.05086E+04-4.59274E+05 5.39285E-09 7.83416E-09
 -1       740-1.02791E+06-1.01965E+05-7.00721E+03-3.27674E+05 3.48427E-09 1.93338E-08
 -1       741-8.84228E+05-1.81498E+05 7.73226E+03-4.11483E+05 1.13505E-09 3.02384E-08
 -1       742-1.03225E+06-1.31017E+05-1.00688E+04-3.63743E+05-1.84209E-08 1.19628E-08
 -1       743-9.08972E+05-1.23817E+05 1.54873E+04-3.39311E+05 4.69299E-10 4.25916E-09
 -1       744-1.00106E+06-1.61168E+05-9.62487E+03-3.98164E+05 3.87990E-09 2.36105E-09
 -1       745-9.92858E+05-7.51459E+04 7.91084E+03-2.90436E+05-1.16779E-08-1.79157E-08
 -1       746-9.50752E+05-1.77938E+05-5.44472E+03-4.14338E+05 6.33122E-09-4.64649E-08
 -1       747-1.06138E+06-5.64208E+04-7.31250E+03-2.73753E+05 1.70946E-08 1.71026E-08
 -1       748-9.35470E+05-1.77792E+05-1.45665E+04-4.17177E+05-2.40516E-08-2.68483E-09
 -1       749-1.04752E+06-8.81417E+04-3.69345E+04-2.74739E+05 1.32763E-09 8.15362E-10
 -1       750-9.63383E+05-1.47181E+05-6.84899E+04-4.12323E+05-2.00089E-10 4.66025E-09
 -1       751 3.25349E+06-1.82175E+05 4.28253E+05 1.42015E+04-1.74272E-08-6.69388E-10
 -1       752 3.43897E+06 2.11121E+05 3.01931E+05-1.89673E+04-5.22368E-09-1.80444E-09
 -1       753 3.32537E+06-2.82093E+04 1.11015E+05 3.96720E+03-2.09593E-09-1.33878E-09
 -1       754 3.35558E+06 3.26681E+04 6.95130E+04-5.76544E+03 8.60680E-11 3.15413E-09
 -1       755 3.33711E+06-4.36022E+03 2.86129E+04 1.00301E+03-1.04212E-09 9.36780E-10
 -1       756 3.34203E+06 5.11134E+03 1.70400E+04-1.93403E+03 1.80776E-10-8.85848E-10
 -1       757 3.33903E+06-7.38600E+02 8.43604E+03 1.35845E+02-6.21961E-10-6.55746E-10
 -1       758 3.34004E+06 1.32158E+03 6.75428E+03-8.59117E+02 1.54388E-09-4.74074E-11
 -1       759 3.33913E+06-5.80718E+02 6.93624E+03-7.19226E+01 7.85972E-10 1.31877E-11
 -1       760 3.34128E+06 3.73859E+03 1.27251E+04-7.61025E+02 2.33415E-09 2.12162E-09
 -1       761 3.33778E+06-3.14868E+03 2.08095E+04 3.77521E+01 1.71165E-09-1.59343E-09
 -1       762 3.35097E+06 2.35383E+04 5.01408E+04-1.47982E+03 5.33227E-10 1.42609E-09
 -1       763 3.32935E+06-2.03176E+04 7.99506E+04 6.46876E+02 3.78453E-09 2.99042E-09
 -1       764 3.41055E+06 1.51967E+05 2.17247E+05-4.24355E+03 3.41920E-09 3.35058E-09
 -1       765 3.27794E+06-1.31116E+05 3.08170E+05 2.80100E+03-1.73145E-09-3.33239E-09
 -1       766-7.22140E+04 3.59377E+05 1.70404E+05-1.95968E+04 2.11003E-09 7.85349E-10
 -1       767 8.77411E+04 4.39076E+05 1.28737E+05 8.37980E+04 5.23869E-10 1.49001E-10
 -1       768-1.52404E+04 3.87153E+05 6.01359E+04-1.84746E+04-1.32241E-09-9.61563E-10
 -1       769 4.65508E+04 4.27230E+05 7.57070E+04 8.73089E+04 3.56340E-09 1.52295E-09
 -1       770-3.16308E+04 3.71872E+05 7.47526E+04-2.31113E+04 4.11092E-09 3.82670E-09
 -1       771-1.85415E+06-3.75394E+05-6.99248E+04-7.97625E+05 5.76983E-09-2.54659E-09
 -1       772-1.85103E+06-3.70878E+05-3.41517E+04-8.23934E+05 5.26779E-09 8.48922E-09
 -1       773-1.85683E+06-3.48292E+05-1.45384E+04-8.09467E+05 5.23141E-09 8.77117E-09
 -1       774-1.84361E+06-3.61689E+05-7.08064E+03-8.26289E+05 3.26327E-09-2.22053E-09
 -1       775-1.85765E+06-3.46946E+05-3.29090E+03-8.10191E+05-2.80124E-10 9.27685E-10
 -1       776-1.84336E+06-3.61242E+05-1.65349E+03-8.26696E+05 1.04956E-09 7.69751E-09
 -1       777-1.85810E+06-3.46767E+05-9.16242E+02-8.10369E+05 5.96629E-10 6.89397E-10
 -1       778-1.84356E+06-3.61163E+05-7.10429E+02-8.26976E+05-5.45697E-10 2.59178E-09
 -1       779-1.85836E+06-3.46608E+05-9.07617E+02-8.10495E+05 1.84809E-09 1.14851E-08
 -1       780-1.84380E+06-3.61108E+05-1.65774E+03-8.27198E+05-9.18590E-11 5.38421E-10
 -1       781-1.85845E+06-3.46466E+05-3.28125E+03-8.10562E+05 1.03137E-09 7.32143E-10
 -1       782-1.84446E+06-3.61478E+05-7.13931E+03-8.27338E+05 1.37288E-09 1.87538E-09
 -1       783-1.85817E+06-3.47468E+05-1.46174E+04-8.10025E+05-1.93131E-09-1.50794E-09
 -1       784-1.85193E+06-3.71178E+05-3.44987E+04-8.26002E+05-2.56119E-09-3.15595E-09
 -1       785-1.85627E+06-3.74278E+05-7.05498E+04-7.97824E+05-3.71529E-10-2.40107E-10
 -1       786 4.04882E+05-1.24715E+04 5.09578E+04-2.27003E+03 1.90084E-10-4.33647E-09
 -1       787 4.23487E+05 1.65421E+04 3.28477E+04-1.04224E+04-3.02521E-10-3.35240E-09
 -1       788 4.12629E+05-1.32026E+03 1.32162E+04-2.28479E+03-1.27329E-10-4.78394E-10
 -1       789 4.14828E+05 1.68363E+03 7.42283E+03-1.03824E+04 5.76620E-10 5.14319E-10
 -1       790 4.13529E+05-1.45585E+02 3.36228E+03-2.30859E+03 1.55751E-10 1.41199E-10
 -1       791 4.13804E+05 1.68598E+02 1.81338E+03-1.03480E+04 9.88820E-10 4.96584E-10
 -1       792 4.13646E+05-1.83954E+01 9.32386E+02-2.31914E+03 2.83251E-10 6.84508E-10
 -1       793 4.13676E+05 2.25686E+01 6.31390E+02-1.03409E+04 8.79425E-10-7.06052E-10
 -1       794 4.13656E+05-1.09175E+01 5.98398E+02-2.31565E+03-1.41910E-09-3.17650E-09
 -1       795 4.13722E+05 7.76399E+01 9.30883E+02-1.03625E+04 8.47024E-10 1.21453E-09
 -1       796 4.13605E+05-7.01352E+01 1.61186E+03-2.29760E+03 7.42375E-11 1.41313E-10
 -1       797 4.14204E+05 7.82455E+02 3.49143E+03-1.04102E+04-1.29057E-09 9.86347E-10
 -1       798 4.13186E+05-6.21190E+02 6.18766E+03-2.26789E+03-2.96723E-10 8.85166E-10
 -1       799 4.18261E+05 7.72651E+03 1.53636E+04-1.04590E+04-2.51157E-09 1.80171E-09
 -1       800 4.09564E+05-5.83867E+03 2.38221E+04-2.24971E+03 6.01176E-10-1.81899E-10
 -1       801-1.77015E+04 4.70024E+05 6.20047E+04-2.39995E+05 6.83940E-10 5.97356E-09
 -1       802 3.86802E+04 4.88603E+05 6.23201E+04-1.04192E+06 1.22673E-08 6.44650E-09
 -1       803-1.90470E+03 4.71878E+05 6.08911E+04-2.39773E+05 6.60657E-09 7.96172E-09
 -1       804 7.42272E+04 5.10589E+05 1.24532E+05-1.04187E+06 8.71660E-09-2.49565E-09
 -1       805-4.80440E+04 4.49426E+05 1.78666E+05-2.40068E+05 6.42467E-09 4.87489E-10
 -1       806-4.01989E+05-1.04551E+05-3.47321E+04-1.81815E+05-1.36356E-09-5.30781E-09
 -1       807-4.02466E+05-9.56710E+04-1.64978E+04-1.92111E+05-3.68641E-09-4.93992E-09
 -1       808-4.01845E+05-8.70271E+04-6.93994E+03-1.89250E+05 8.37053E-09-3.17505E-09
 -1       809-3.99045E+05-8.95138E+04-3.35625E+03-1.93496E+05 1.78243E-08-2.71706E-09
 -1       810-4.01938E+05-8.58576E+04-1.51985E+03-1.89782E+05 9.01127E-09 3.14685E-09
 -1       811-3.98715E+05-8.91145E+04-7.63897E+02-1.93549E+05-7.35326E-10-1.80398E-09
 -1       812-4.01967E+05-8.58265E+04-4.03968E+02-1.89806E+05 9.00337E-09-2.58979E-09
 -1       813-3.98678E+05-8.91047E+04-3.06245E+02-1.93539E+05 2.32609E-08 4.27326E-09
 -1       814-4.01961E+05-8.58322E+04-3.67476E+02-1.89802E+05 1.13373E-08-5.19321E-09
 -1       815-3.98697E+05-8.91195E+04-6.66957E+02-1.93535E+05-5.43423E-10 2.66482E-10
 -1       816-4.01920E+05-8.58675E+04-1.31130E+03-1.89773E+05 6.35328E-09 6.75755E-10
 -1       817-3.98974E+05-8.94614E+04-2.88815E+03-1.93470E+05 1.21172E-08-1.56660E-08
 -1       818-4.01822E+05-8.68886E+04-5.96886E+03-1.89315E+05 7.55244E-09-2.10639E-09
 -1       819-4.01961E+05-9.46979E+04-1.41849E+04-1.92197E+05 1.77624E-09-1.79170E-09
 -1       820-4.01876E+05-1.02007E+05-2.98624E+04-1.82973E+05 2.15095E-09 1.73895E-09
 -1       821-3.86674E+05 1.22647E+04-5.01434E+04 2.20159E+03-4.01815E-09 3.54157E-09
 -1       822-4.04950E+05-1.62812E+04-3.23230E+04 1.07103E+04-3.10411E-09 3.47427E-10
 -1       823-3.94302E+05 1.29280E+03-1.30100E+04 2.09952E+03 4.92469E-09 2.94949E-09
 -1       824-3.96462E+05-1.63934E+03-7.30796E+03 1.08625E+04-2.40573E-09 1.70610E-09
 -1       825-3.95190E+05 1.43681E+02-3.32506E+03 2.04777E+03-7.75140E-09-1.19780E-09
 -1       826-3.95479E+05-1.37841E+02-1.81530E+03 1.09485E+04-1.32351E-08 1.88084E-09
 -1       827-3.95307E+05 2.38045E+01-9.82707E+02 2.01324E+03-7.82950E-09-2.26049E-09
 -1       828-3.95372E+05 6.54113E+00-7.55627E+02 1.10026E+04-8.10502E-09-8.09052E-10
 -1       829-3.95312E+05 2.28562E+01-8.51558E+02 1.99355E+03 7.94330E-10-1.37348E-11
 -1       830-3.95462E+05-9.57944E+01-1.47132E+03 1.10258E+04 8.75110E-09-4.33161E-10
 -1       831-3.95224E+05 1.20073E+02-2.63934E+03 1.99003E+03-1.56655E-09 2.11480E-09
 -1       832-3.96248E+05-1.27432E+03-5.77371E+03 1.10169E+04 1.05132E-10 1.24783E-09
 -1       833-3.94525E+05 1.02917E+03-1.02615E+04 2.00281E+03 1.27216E-10-5.31145E-10
 -1       834-4.02953E+05-1.28178E+04-2.54942E+04 1.09620E+04-2.10702E-09 1.63482E-09
 -1       835-3.88511E+05 9.68471E+03-3.95419E+04 2.04764E+03 1.14323E-09 7.60338E-10
 -1       836-2.07237E+04 1.05281E+06 8.91414E+04-2.54633E+04-1.55342E-09 2.32831E-10
 -1       837 3.11962E+04 1.08597E+06 6.94963E+04-1.07127E+05 1.60981E-09-6.14637E-09
 -1       838-5.04210E+03 1.06341E+06 5.07397E+04-2.55568E+04-1.82126E-09-1.26090E-09
 -1       839 4.04123E+04 1.09131E+06 8.54472E+04-1.07097E+05 2.30648E-09-5.27598E-09
 -1       840-2.83415E+04 1.04744E+06 1.19144E+05-2.54924E+04-1.73168E-09-3.97358E-09
 -1       841-6.28433E+04-1.53889E+03-1.92985E+04-2.70829E+04-4.53110E-09 3.76167E-09
 -1       842-7.35906E+04-1.84275E+04-1.33542E+04-2.30246E+04-4.65042E-09-1.63868E-09
 -1       843-6.67247E+04-8.45339E+03-4.52489E+03-2.58343E+04 3.63104E-09-3.25758E-09
 -1       844-6.91107E+04-1.03931E+04-2.80647E+03-2.44427E+04 1.41245E-09-2.65973E-09
 -1       845-6.73210E+04-9.55167E+03-1.04203E+03-2.56734E+04-1.77570E-09 8.75048E-10
 -1       846-6.84338E+04-9.10370E+03-5.86093E+02-2.46121E+04-8.61456E-09-4.73467E-09
 -1       847-6.74018E+04-9.73925E+03-2.10108E+02-2.56665E+04-3.23345E-09-8.77193E-10
 -1       848-6.83375E+04-8.86610E+03-5.71810E+01-2.46152E+04 9.21433E-09 3.44428E-10
 -1       849-6.74177E+04-9.78854E+03 8.06381E+01-2.56707E+04 3.69567E-09 1.28019E-09
 -1       850-6.82590E+04-8.72052E+03 3.11121E+02-2.46292E+04-2.26649E-09 1.75919E-09
 -1       851-6.74803E+04-9.88446E+03 5.77737E+02-2.56528E+04-2.18021E-09-5.83148E-09
 -1       852-6.78257E+04-8.03128E+03 1.57901E+03-2.47687E+04 9.19630E-09 5.58856E-10
 -1       853-6.78505E+04-1.04762E+04 2.54498E+03-2.55316E+04 5.76370E-09-1.36652E-10
 -1       854-6.52156E+04-3.57589E+03 7.52689E+03-2.56468E+04-1.98929E-09 5.87420E-10
 -1       855-7.00878E+04-1.43280E+04 1.08681E+04-2.47788E+04-1.45224E-09 1.89675E-09
 -1       856-4.55281E+05 1.11758E+04-4.57689E+04 4.42510E+03-8.20182E-09 1.52795E-09
 -1       857-4.71940E+05-1.47991E+04-2.94881E+04 2.19486E+04-9.19317E-09-1.08002E-09
 -1       858-4.62248E+05 1.18231E+03-1.18755E+04 4.24592E+03-6.11817E-09-2.29056E-09
 -1       859-4.64250E+05-1.41969E+03-6.66220E+03 2.22149E+04 2.79260E-09-1.33923E-09
 -1       860-4.63065E+05 1.44953E+02-3.02816E+03 4.15562E+03 4.79213E-09 3.37650E-10
 -1       861-4.63386E+05-3.60978E+01-1.64037E+03 2.23521E+04-3.03248E-09 2.19643E-10
 -1       862-4.63175E+05 4.09758E+01-8.66634E+02 4.10789E+03 1.66098E-08-4.88217E-09
 -1       863-4.63298E+05 1.02562E+02-6.28244E+02 2.24108E+04 3.54348E-08-3.30056E-09
 -1       864-4.63182E+05 3.82359E+01-6.58594E+02 4.09672E+03 1.60644E-08-2.63341E-09
 -1       865-4.63350E+05 2.67244E+01-1.09308E+03 2.23955E+04 1.52573E-08-1.87602E-09
 -1       866-4.63115E+05 1.03718E+02-1.93928E+03 4.12328E+03-1.41836E-09 8.40771E-10
 -1       867-4.63892E+05-8.47134E+02-4.22180E+03 2.23037E+04 2.40448E-10 1.80023E-09
 -1       868-4.62599E+05 7.56916E+02-7.50713E+03 4.18904E+03 3.99359E-09-2.33285E-09
 -1       869-4.68735E+05-9.30200E+03-1.86275E+04 2.20900E+04-6.08816E-09-4.31055E-09
 -1       870-4.58197E+05 7.06373E+03-2.89127E+04 4.33968E+03 6.39329E-09-3.53066E-09
 -1       871-4.20213E+03-3.82946E+04-7.24410E+03 1.07635E+05 1.71258E-09-3.17505E-09
 -1       872-1.44032E+03-3.95644E+04-2.11444E+03 1.25364E+05-2.47746E-09-1.88993E-09
 -1       873-4.68989E+01-3.91288E+04 2.11340E+03 1.07435E+05 3.33330E-10-1.84136E-08
 -1       874 2.41219E+03-3.74214E+04 7.90222E+03 1.25460E+05-3.52065E-09-4.19838E-08
 -1       875 8.29834E+03-4.05465E+04 1.70998E+04 1.07561E+05 3.19869E-09-1.89234E-08
 -1       876 5.34845E+05 6.65205E+04 5.07808E+04 2.10581E+05 8.63884E-09 3.27418E-11
 -1       877 5.46568E+05 1.07417E+05 3.22698E+04 2.17846E+05 4.70322E-10 1.47475E-09
 -1       878 5.43658E+05 7.87033E+04 1.19921E+04 2.09232E+05 8.06460E-09 3.40333E-09
 -1       879 5.36454E+05 9.18541E+04 6.65225E+03 2.19970E+05 4.73722E-09-3.05363E-09
 -1       880 5.44632E+05 8.01130E+04 2.80273E+03 2.09179E+05 1.89402E-09-3.62206E-09
 -1       881 5.35336E+05 9.00853E+04 1.51356E+03 2.20034E+05-5.97174E-09-8.79700E-09
 -1       882 5.44719E+05 8.03072E+04 8.03084E+02 2.09215E+05 1.21174E-08 5.45003E-09
 -1       883 5.35251E+05 8.98766E+04 6.92675E+02 2.19979E+05-9.97218E-09 1.12010E-10
 -1       884 5.44701E+05 8.03180E+04 8.98883E+02 2.09229E+05-1.32061E-10 4.04441E-09
 -1       885 5.35411E+05 9.00764E+04 1.77799E+03 2.19968E+05 2.26929E-08 6.87692E-09
 -1       886 5.44562E+05 8.01223E+04 3.33797E+03 2.09220E+05 1.64159E-08-3.80851E-09
 -1       887 5.36803E+05 9.21256E+04 7.94187E+03 2.19802E+05-6.37897E-09-1.07407E-08
 -1       888 5.43355E+05 7.84785E+04 1.43321E+04 2.09323E+05 3.18963E-09-1.52068E-09
 -1       889 5.48943E+05 1.10658E+05 3.85603E+04 2.17172E+05 1.00711E-08 3.67800E-09
 -1       890 5.32789E+05 6.39599E+04 6.06932E+04 2.10969E+05 6.35009E-09 3.89264E-10
 -1       891 1.97234E+03-2.36968E+05-9.09733E+03 2.24096E+04-2.81943E-11-9.64064E-10
 -1       892-3.42528E+03-2.40154E+05-7.37343E+03 9.70473E+04 6.82667E-09 8.45489E-10
 -1       893 5.51097E+02-2.38002E+05-5.88488E+03 2.22870E+04 6.84190E-09-3.44585E-10
 -1       894-5.29390E+03-2.41223E+05-1.05976E+04 9.70359E+04 6.85759E-09-3.58102E-09
 -1       895 3.50808E+03-2.35878E+05-1.51603E+04 2.24203E+04 1.11413E-09 5.60249E-10
 -1       896 8.09973E+05-5.82694E+03 1.35937E+04 2.52096E+03 5.99812E-10 1.93631E-09
 -1       897 8.16131E+05 6.74092E+03 9.65773E+03-7.01736E+03 4.06274E-10 2.29647E-10
 -1       898 8.12357E+05-9.00539E+02 3.53616E+03 1.05510E+03 4.41617E-10-4.28827E-10
 -1       899 8.13336E+05 1.04448E+03 2.24705E+03-4.83067E+03-1.70530E-12-1.34887E-09
 -1       900 8.12758E+05-1.40215E+02 9.61350E+02 3.34254E+02 1.70246E-10-1.71514E-09
 -1       901 8.12871E+05 1.78955E+02 6.55874E+02-3.88735E+03 3.70077E-10-2.15510E-09
 -1       902 8.12819E+05-3.50095E+01 4.82181E+02 1.11769E+02-2.47637E-10-1.91839E-09
 -1       903 8.12854E+05 1.36127E+02 6.84262E+02-3.86551E+03 5.23158E-10-1.82837E-09
 -1       904 8.12775E+05-9.75125E+01 1.07370E+03 3.12405E+02 1.68043E-10-1.56211E-09
 -1       905 8.13206E+05 7.21234E+02 2.36905E+03-4.75773E+03 9.86951E-10-1.41551E-09
 -1       906 8.12470E+05-6.21070E+02 4.04246E+03 1.00401E+03 6.44860E-10-1.11959E-09
 -1       907 8.15286E+05 4.66562E+03 9.94048E+03-6.86631E+03-9.40332E-11 2.71712E-11
 -1       908 8.10704E+05-4.03846E+03 1.58168E+04 2.42103E+03-6.03677E-10 1.53068E-09
 -1       909 8.27617E+05 3.02288E+04 4.32714E+04-1.09476E+04-1.27488E-09 3.15913E-09
 -1       910 8.00165E+05-2.61255E+04 6.10722E+04 5.08512E+03-4.05294E-10 5.33328E-09
 -1       911 1.41496E+05-1.02655E+03 1.59652E+03 4.48520E+03 1.59935E-09 3.62434E-09
 -1       912 1.46196E+05 1.10405E+03 1.84401E+03-1.81152E+04-1.92017E-10-1.42327E-09
 -1       913 1.42815E+05-1.59402E+02 3.91947E+02 3.58283E+03-1.14437E-09-4.02966E-09
 -1       914 1.44198E+05 2.04587E+02 4.77718E+02-1.67002E+04-1.10936E-09-8.23613E-09
 -1       915 1.43347E+05-2.62610E+01 1.55063E+02 3.07005E+03 2.85374E-09-9.11574E-09
 -1       916 1.43472E+05 1.04269E+02 1.90150E+02-1.60405E+04 4.70092E-09-1.04480E-08
 -1       917 1.43478E+05-1.47468E+01 2.30796E+02 2.92327E+03 3.34068E-09-1.07647E-08
 -1       918 1.43566E+05 1.47961E+02 4.63541E+02-1.61043E+04 1.96235E-09-9.70903E-09
 -1       919 1.43259E+05-7.41423E+01 7.44347E+02 3.13384E+03 2.89674E-09-8.89685E-09
 -1       920 1.44614E+05 5.60048E+02 1.93164E+03-1.68956E+04 1.36220E-09-6.04336E-09
 -1       921 1.42507E+05-4.79927E+02 2.90534E+03 3.71433E+03 9.73273E-10-3.61683E-09
 -1       922 1.47838E+05 3.49066E+03 7.97039E+03-1.84630E+04-4.02906E-10 6.78483E-10
 -1       923 1.40201E+05-3.11231E+03 1.16069E+04 4.70169E+03 1.42563E-10 4.48063E-09
 -1       924 1.60049E+05 2.29883E+04 3.37643E+04-2.09839E+04-4.09170E-09 1.13482E-08
 -1       925 1.30588E+05-2.01176E+04 4.54537E+04 6.23783E+03-3.55112E-09 1.70694E-08
 -1       926-8.81414E+05 1.91497E+04-4.52543E+04-1.56647E+04 4.86030E-09 2.51239E-08
 -1       927-9.00417E+05-2.19874E+04-3.17272E+04 2.35535E+04-1.74498E-08 2.31721E-08
 -1       928-8.89997E+05 2.83338E+03-1.19091E+04-1.22078E+04 1.16052E-09 2.02303E-08
 -1       929-8.89081E+05-3.24471E+03-6.65380E+03 1.31286E+04 1.25958E-08 1.36386E-08
 -1       930-8.92498E+05 2.86828E+02-3.40057E+03-5.23814E+03 3.12252E-09 1.05805E-08
 -1       931-8.86277E+05-4.11365E+02-7.32157E+02-2.06464E+03 5.82475E-10 2.94611E-09
 -1       932-8.92674E+05-8.52159E+01-9.92233E+02 2.98464E+03 9.17453E-10-1.27284E-09
 -1       933-8.87443E+05 1.35376E+02 6.71420E+02-1.70344E+04 1.19803E-09-8.27949E-09
 -1       934-8.91474E+05-1.50296E+02 5.04293E+02 9.73028E+03-6.69274E-10-1.08873E-08
 -1       935-8.89568E+05 8.07788E+02 2.06759E+03-2.68089E+04-7.48287E-10-1.52151E-08
 -1       936-8.90781E+05-5.77380E+02 3.45228E+03 1.27601E+04 7.91033E-10-1.55014E-08
 -1       937-8.88299E+05 4.27865E+03 8.61438E+03-2.81521E+04-8.10915E-09-1.62188E-08
 -1       938-8.92779E+05-3.57924E+03 1.35700E+04 1.10738E+04-7.98127E-09-1.44119E-08
 -1       939-8.75849E+05 2.64638E+04 3.78193E+04-2.06585E+04-5.22238E-09-9.46329E-09
 -1       940-9.03005E+05-2.28421E+04 5.24818E+04 5.26536E+03-1.70257E-09-4.39104E-09
 -1       941 5.19285E+06-2.55684E+05 6.02274E+05 6.71789E+02 1.99547E-08 6.31553E-09
 -1       942 5.45152E+06 2.96434E+05 4.24122E+05 2.87116E+03 1.90596E-08-3.55067E-09
 -1       943 5.29315E+06-3.96292E+04 1.56188E+05 1.46670E+03 8.96643E-09 3.27418E-10
 -1       944 5.33544E+06 4.59062E+04 9.78021E+04 1.91412E+03 3.33493E-09-2.21917E-09
 -1       945 5.30964E+06-6.13003E+03 4.03451E+04 1.62903E+03 7.36170E-09 4.99676E-09
 -1       946 5.31652E+06 7.20021E+03 2.41176E+04 1.71399E+03 8.28479E-09 8.94079E-09
 -1       947 5.31235E+06-1.05052E+03 1.21176E+04 1.66695E+03 4.19649E-09 6.54927E-09
 -1       948 5.31378E+06 1.95406E+03 1.00156E+04 1.64733E+03-1.02306E-09 5.60090E-09
 -1       949 5.31244E+06-8.98679E+02 1.06773E+04 1.69572E+03 1.44873E-09-7.17728E-09
 -1       950 5.31580E+06 5.88082E+03 1.99758E+04 1.51076E+03 8.45574E-09 8.61564E-09
 -1       951 5.31028E+06-4.96604E+03 3.28555E+04 1.80351E+03 3.52732E-09-5.39512E-09
 -1       952 5.33108E+06 3.71433E+04 7.92312E+04 8.82931E+02 3.20240E-09-5.54064E-09
 -1       953 5.29694E+06-3.20597E+04 1.26390E+05 2.32343E+03-4.78728E-09 3.05590E-09
 -1       954 5.42499E+06 2.39804E+05 3.43113E+05-2.22378E+03-4.21164E-09-2.17187E-09
 -1       955 5.21571E+06-2.06860E+05 4.86985E+05 4.90894E+03-1.53094E-08 1.16415E-10
 -1       956-2.86214E+05-4.83622E+03-9.93030E+03 4.12950E+04-6.02813E-09 1.27784E-09
 -1       957-2.88018E+05-1.50198E+03-4.99910E+03 4.77403E+04-2.32831E-09-3.64480E-10
 -1       958-2.87049E+05-1.53841E+02-2.24933E+03 4.10420E+04 5.84987E-09-1.96951E-09
 -1       959-2.87235E+05 3.00439E+01-1.14230E+03 4.80170E+04-3.09228E-09 1.47747E-09
 -1       960-2.87169E+05 9.54965E+01-5.55295E+02 4.10144E+04-9.29504E-09-4.03634E-09
 -1       961-2.87204E+05 1.22137E+02-2.92094E+02 4.80481E+04-1.49371E-08-2.17642E-09
 -1       962-2.87213E+05 1.13136E+02-1.64811E+02 4.10103E+04-7.18046E-09-1.71349E-09
 -1       963-2.87226E+05 1.38278E+02-1.26608E+02 4.80535E+04-1.09510E-08 2.50338E-09
 -1       964-2.87234E+05 1.25213E+02-1.47848E+02 4.10088E+04-9.91304E-09-3.22416E-09
 -1       965-2.87249E+05 1.47771E+02-2.50408E+02 4.80539E+04-9.47773E-09-2.55659E-09
 -1       966-2.87232E+05 1.32191E+02-4.67991E+02 4.10098E+04-1.13495E-08-1.31831E-09
 -1       967-2.87314E+05 9.20107E+01-9.62826E+02 4.80402E+04 5.40695E-10 2.26964E-09
 -1       968-2.87163E+05-5.76992E+01-1.89250E+03 4.10229E+04 4.37012E-10-2.78169E-09
 -1       969-2.88012E+05-1.18123E+03-4.21227E+03 4.79068E+04-2.28579E-09 8.52879E-10
 -1       970-2.86485E+05-3.99271E+03-8.36430E+03 4.11499E+04 3.38787E-10-2.18188E-09
 -1       971-6.22293E+05 9.42245E+03-3.86335E+04 4.17877E+03-6.77210E-09 3.11775E-09
 -1       972-6.36311E+05-1.24867E+04-2.48868E+04 2.16042E+04-7.84166E-09 3.00179E-09
 -1       973-6.28173E+05 9.93264E+02-1.00309E+04 3.94287E+03-1.00008E-08 2.15596E-09
 -1       974-6.29839E+05-1.18847E+03-5.63420E+03 2.19680E+04 3.70710E-09 4.09989E-09
 -1       975-6.28864E+05 1.21644E+02-2.58302E+03 3.81248E+03 3.31511E-10 2.92721E-09
 -1       976-6.29125E+05-1.58537E+01-1.43761E+03 2.21716E+04-1.59341E-08 7.75196E-09
 -1       977-6.28956E+05 3.75580E+01-8.37716E+02 3.73859E+03 1.49355E-08 3.06954E-09
 -1       978-6.29071E+05 9.70801E+01-7.49310E+02 2.22688E+04 3.35800E-08 3.64679E-09
 -1       979-6.28954E+05 4.42845E+01-9.81685E+02 3.71505E+03 1.56077E-08 1.92767E-09
 -1       980-6.29189E+05-4.41079E+01-1.82277E+03 2.22645E+04 1.81654E-08 5.15626E-09
 -1       981-6.28837E+05 1.64896E+02-3.34105E+03 3.74295E+03 2.61707E-10 3.26406E-09
 -1       982-6.30166E+05-1.55944E+03-7.34874E+03 2.21567E+04-3.14685E-09 7.24094E-09
 -1       983-6.27941E+05 1.31548E+03-1.30858E+04 3.82362E+03 8.04903E-10-1.65073E-10
 -1       984-6.38672E+05-1.63019E+04-3.25112E+04 2.19069E+04-6.49015E-09 3.87990E-09
 -1       985-6.20265E+05 1.23427E+04-5.04452E+04 3.99736E+03 5.43923E-09 2.67755E-09
 -3
    1PSTEP                        33          17           1          
  100CL  117 8.72456E-01         841                     0   17           1
 -4  DISP        4    1
 -5  D1          1    2    1    0
 -5  D2          1    2    2    0
 -5  D3          1    2    3    0
 -5  ALL         1    2    0    0    1ALL
 -1         1 1.08335E-04 0.00000E+00 0.00000E+00
 -1         2 8.52846E-05 0.00000E+00 0.00000E+00
 -1         3 6.96945E-05 0.00000E+00 0.00000E+00
 -1         4 6.05470E-05 0.00000E+00 0.00000E+00
 -1         5 5.64067E-05 0.00000E+00 0.00000E+00
 -1         8 8.55587E-05-1.06969E-06 0.00000E+00
 -1         9 6.61685E-05 1.14093E-06 0.00000E+00
 -1        10 6.19383E-05-3.01155E-06 0.00000E+00
 -1        11 5.80228E-05-6.34175E-07 0.00000E+00
 -1        12 5.38153E-05 1.49977E-06 0.00000E+00
 -1        15 4.29217E-05-1.60498E-06 0.00000E+00
 -1        16 4.90967E-05 1.11508E-06 0.00000E+00
 -1        17 4.39222E-05-6.02271E-06 0.00000E+00
 -1        18 4.46269E-05-1.28833E-06 0.00000E+00
 -1        19 4.72537E-05 2.95813E-06 0.00000E+00
 -1        20 4.79939E-05 3.15242E-05 0.00000E+00
 -1        21 4.79526E-05 7.53427E-05 0.00000E+00
 -1        22 1.09477E-05-1.16151E-06 0.00000E+00
 -1        23 1.49476E-05 1.48459E-06 0.00000E+00
 -1        24 1.82280E-05-7.02241E-06 0.00000E+00
 -1        25 3.85498E-05-9.10741E-07 0.00000E+00
 -1        26 4.10549E-05 3.91517E-06 0.00000E+00
 -1        27 3.86158E-05 3.04174E-05 0.00000E+00
 -1        28 3.57158E-05 7.43016E-05 0.00000E+00
 -1        29 0.00000E+00 0.00000E+00 0.00000E+00
 -1        30 4.86179E-06 1.94761E-06 0.00000E+00
 -1        31 5.42978E-06-6.30534E-06 0.00000E+00
 -1        32 0.00000E+00 0.00000E+00 0.00000E+00
 -1        33 3.24093E-05 6.32627E-06 0.00000E+00
 -1        34 3.06140E-05 3.03171E-05 0.00000E+00
 -1        35 2.66835E-05 7.37474E-05 0.00000E+00
 -1        36 1.06938E-04 1.01042E-19 0.00000E+00
 -1        37 1.05497E-04 3.57730E-19-1.32349E-23
 -1        38 1.04059E-04 5.37145E-19 0.00000E+00
 -1        39 1.02612E-04 6.35941E-19 0.00000E+00
 -1        40 1.01166E-04 7.09141E-19 0.00000E+00
 -1        41 9.97175E-05 6.42196E-19 0.00000E+00
 -1        42 9.82691E-05 5.18191E-19 5.29396E-23
 -1        43 9.68204E-05 2.69952E-19 0.00000E+00
 -1        44 9.53717E-05-4.98740E-20-5.29396E-23
 -1        45 9.39232E-05-2.40479E-19 2.64698E-23
 -1        46 9.24748E-05-2.95818E-19 0.00000E+00
 -1        47 9.10275E-05-2.29955E-19 0.00000E+00
 -1        48 8.95805E-05-1.30039E-19 5.29396E-23
 -1        49 8.81394E-05 1.18725E-20-2.64698E-23
 -1        50 8.66963E-05 4.37827E-20-2.64698E-23
 -1        51 1.06632E-04-1.81311E-07 0.00000E+00
 -1        52 1.03792E-04-3.54401E-07 0.00000E+00
 -1        53 1.00033E-04-5.26899E-07 0.00000E+00
 -1        54 9.55872E-05-7.01327E-07 0.00000E+00
 -1        55 9.06848E-05-8.79742E-07-5.79026E-24
 -1        56 1.06181E-04-9.74997E-07-5.29396E-23
 -1        57 1.04039E-04-2.22599E-06-2.64698E-23
 -1        58 1.01953E-04-3.61381E-06-5.29396E-23
 -1        59 9.98624E-05-5.03047E-06 0.00000E+00
 -1        60 9.77366E-05-6.35421E-06 0.00000E+00
 -1        61 9.55314E-05-7.47350E-06 2.64698E-23
 -1        62 9.32138E-05-8.29387E-06 0.00000E+00
 -1        63 9.07541E-05-8.73648E-06 0.00000E+00
 -1        64 8.81352E-05-8.75579E-06 0.00000E+00
 -1        65 8.53483E-05-8.32715E-06-2.64698E-23
 -1        66 8.23988E-05-7.46585E-06-5.29396E-23
 -1        67 7.93023E-05-6.20775E-06-2.64698E-23
 -1        68 7.60839E-05-4.62527E-06 5.29396E-23
 -1        69 7.27895E-05-2.80134E-06 0.00000E+00
 -1        70 6.94424E-05-8.51301E-07 5.29396E-23
 -1        71 8.43216E-05-1.82681E-19 0.00000E+00
 -1        72 8.33462E-05-2.29577E-19 0.00000E+00
 -1        73 8.23716E-05-1.73452E-19 0.00000E+00
 -1        74 8.13947E-05-6.57145E-20-1.32349E-23
 -1        75 8.04178E-05 7.53388E-20-2.64698E-23
 -1        76 7.94403E-05 3.66560E-19 1.32349E-23
 -1        77 7.84628E-05 6.50664E-19-2.64698E-23
 -1        78 7.74853E-05 9.16319E-19 1.32349E-23
 -1        79 7.65077E-05 9.61721E-19 0.00000E+00
 -1        80 7.55303E-05 9.10201E-19 0.00000E+00
 -1        81 7.45530E-05 7.41371E-19 0.00000E+00
 -1        82 7.35763E-05 5.17412E-19 0.00000E+00
 -1        83 7.25997E-05 2.51569E-19 0.00000E+00
 -1        84 7.16263E-05 1.09103E-19-1.32349E-23
 -1        85 7.06518E-05-2.07291E-20 0.00000E+00
 -1        86 8.43498E-05 1.70280E-07 0.00000E+00
 -1        87 8.16162E-05 3.72080E-07 0.00000E+00
 -1        88 7.77725E-05 5.68095E-07 0.00000E+00
 -1        89 7.34968E-05 7.64344E-07 0.00000E+00
 -1        90 6.94184E-05 9.63247E-07 0.00000E+00
 -1        91 8.87990E-05-1.11585E-05 0.00000E+00
 -1        92 9.99833E-05-4.41169E-05 0.00000E+00
 -1        93 1.16403E-04-9.28124E-05 0.00000E+00
 -1        94 1.35770E-04-1.50763E-04 0.00000E+00
 -1        95 1.55177E-04-2.08840E-04 1.32349E-23
 -1        96 1.71719E-04-2.57908E-04-6.61744E-24
 -1        97 1.83088E-04-2.91408E-04-1.32349E-23
 -1        98 1.86843E-04-3.03196E-04-6.61744E-24
 -1        99 1.82391E-04-2.93061E-04 0.00000E+00
 -1       100 1.69308E-04-2.61268E-04 0.00000E+00
 -1       101 1.49691E-04-2.13850E-04 0.00000E+00
 -1       102 1.26010E-04-1.57071E-04-6.61744E-24
 -1       103 1.02076E-04-9.97156E-05-1.32349E-23
 -1       104 8.17180E-05-5.05707E-05-6.61744E-24
 -1       105 6.75807E-05-1.62147E-05 1.32349E-23
 -1       106 6.91224E-05 5.02813E-17-1.32349E-23
 -1       107 6.85496E-05 1.99875E-16 0.00000E+00
 -1       108 6.79768E-05 4.20541E-16-1.32349E-23
 -1       109 6.74039E-05 6.82347E-16 6.61744E-24
 -1       110 6.68310E-05 9.44227E-16-1.32349E-23
 -1       111 6.62581E-05 1.16494E-15 6.61744E-24
 -1       112 6.56852E-05 1.31449E-15 0.00000E+00
 -1       113 6.51122E-05 1.36470E-15 0.00000E+00
 -1       114 6.45393E-05 1.31431E-15-1.32349E-23
 -1       115 6.39665E-05 1.16468E-15 0.00000E+00
 -1       116 6.33938E-05 9.43994E-16 1.32349E-23
 -1       117 6.28214E-05 6.82116E-16 0.00000E+00
 -1       118 6.22491E-05 4.20376E-16 0.00000E+00
 -1       119 6.16787E-05 1.99791E-16 6.61744E-24
 -1       120 6.11077E-05 5.02670E-17 1.32349E-23
 -1       121 6.94891E-05-5.03403E-07 0.00000E+00
 -1       122 6.88603E-05-1.00463E-06 0.00000E+00
 -1       123 6.77978E-05-1.50622E-06-1.32349E-23
 -1       124 6.62936E-05-2.00776E-06-6.61744E-24
 -1       125 6.43417E-05-2.51001E-06-1.32349E-23
 -1       126 7.11331E-05-5.24221E-06 1.32349E-23
 -1       127 7.62437E-05-2.05567E-05 0.00000E+00
 -1       128 8.40133E-05-4.33601E-05-1.32349E-23
 -1       129 9.34360E-05-7.09128E-05 0.00000E+00
 -1       130 1.03147E-04-9.92978E-05-1.32349E-23
 -1       131 1.11784E-04-1.24580E-04-6.61744E-24
 -1       132 1.18215E-04-1.43595E-04 0.00000E+00
 -1       133 1.21303E-04-1.53310E-04 0.00000E+00
 -1       134 1.20668E-04-1.52968E-04-1.32349E-23
 -1       135 1.15981E-04-1.42004E-04 0.00000E+00
 -1       136 1.07918E-04-1.22418E-04 1.32349E-23
 -1       137 9.72590E-05-9.63499E-05 0.00000E+00
 -1       138 8.54724E-05-6.74971E-05-1.32349E-23
 -1       139 7.40754E-05-3.95980E-05 6.61744E-24
 -1       140 6.44767E-05-1.61637E-05 1.32349E-23
 -1       141 6.02835E-05-7.27770E-20 0.00000E+00
 -1       142 6.00224E-05-1.15746E-19 0.00000E+00
 -1       143 5.97610E-05-1.11455E-19 0.00000E+00
 -1       144 5.95001E-05-1.19588E-19 3.30872E-24
 -1       145 5.92393E-05-1.19790E-19 0.00000E+00
 -1       146 5.89785E-05-9.74231E-20 0.00000E+00
 -1       147 5.87177E-05-6.72173E-20-6.61744E-24
 -1       148 5.84570E-05-6.11528E-20 0.00000E+00
 -1       149 5.81963E-05-7.91839E-20 0.00000E+00
 -1       150 5.79358E-05-1.15987E-19 0.00000E+00
 -1       151 5.76754E-05-1.68020E-19 0.00000E+00
 -1       152 5.74158E-05-1.73360E-19-3.30872E-24
 -1       153 5.71563E-05-1.17516E-19 0.00000E+00
 -1       154 5.69005E-05-8.10444E-20 0.00000E+00
 -1       155 5.66436E-05-3.50307E-20-4.13590E-25
 -1       156 6.16787E-05-1.03738E-07 6.61744E-24
 -1       157 6.48932E-05-2.02917E-07 3.30872E-24
 -1       158 6.81426E-05-3.02860E-07 0.00000E+00
 -1       159 6.93790E-05-3.97907E-07 1.65436E-24
 -1       160 6.66512E-05-4.96781E-07 0.00000E+00
 -1       161 6.02453E-05-2.27647E-07 0.00000E+00
 -1       162 6.00167E-05-6.52877E-07 0.00000E+00
 -1       163 5.98375E-05-1.21027E-06 0.00000E+00
 -1       164 5.96827E-05-1.83296E-06 0.00000E+00
 -1       165 5.95224E-05-2.44113E-06 1.32349E-23
 -1       166 5.93269E-05-2.95527E-06 6.61744E-24
 -1       167 5.90732E-05-3.31437E-06 1.32349E-23
 -1       168 5.87395E-05-3.45962E-06 0.00000E+00
 -1       169 5.83188E-05-3.37301E-06 0.00000E+00
 -1       170 5.78057E-05-3.03975E-06 0.00000E+00
 -1       171 5.72122E-05-2.49236E-06 0.00000E+00
 -1       172 5.65524E-05-1.76610E-06-6.61744E-24
 -1       173 5.58517E-05-9.30923E-07 0.00000E+00
 -1       174 5.51411E-05-5.64198E-08-3.30872E-24
 -1       175 5.44442E-05 7.76666E-07-1.65436E-24
 -1       191 5.63092E-05 2.49668E-07 1.32349E-23
 -1       192 5.60713E-05 4.99925E-07 6.61744E-24
 -1       193 5.56973E-05 7.50289E-07-1.32349E-23
 -1       194 5.51927E-05 1.00058E-06 6.61744E-24
 -1       195 5.45632E-05 1.25060E-06 0.00000E+00
 -1       251 8.48918E-05 1.23627E-05 1.32349E-23
 -1       252 8.38206E-05 4.41896E-05-6.61744E-24
 -1       253 8.23008E-05 8.86464E-05-1.32349E-23
 -1       254 8.04781E-05 1.39672E-04 0.00000E+00
 -1       255 7.87160E-05 1.89401E-04 1.32349E-23
 -1       256 7.73510E-05 2.29996E-04 0.00000E+00
 -1       257 7.64349E-05 2.56126E-04-1.32349E-23
 -1       258 7.58259E-05 2.62800E-04 6.61744E-24
 -1       259 7.51646E-05 2.50264E-04 1.32349E-23
 -1       260 7.41153E-05 2.19224E-04 0.00000E+00
 -1       261 7.26202E-05 1.75382E-04-1.32349E-23
 -1       262 7.08157E-05 1.24735E-04-6.61744E-24
 -1       263 6.90610E-05 7.51531E-05 1.32349E-23
 -1       264 6.76943E-05 3.44825E-05 0.00000E+00
 -1       265 6.67742E-05 8.12347E-06 0.00000E+00
 -1       266 8.18013E-05-1.14625E-06 0.00000E+00
 -1       267 7.85943E-05-1.20601E-06 0.00000E+00
 -1       268 7.45064E-05-1.27004E-06-3.30872E-24
 -1       269 6.81082E-05-1.34234E-06 0.00000E+00
 -1       270 5.80329E-05-1.44471E-06 8.27181E-25
 -1       271 8.23001E-05 1.85743E-06 0.00000E+00
 -1       272 7.92999E-05 3.90409E-06 2.64698E-23
 -1       273 7.65994E-05 5.16284E-06-5.29396E-23
 -1       274 7.41545E-05 5.71399E-06 2.64698E-23
 -1       275 7.19360E-05 5.65990E-06-5.29396E-23
 -1       276 6.99009E-05 5.11235E-06 2.64698E-23
 -1       277 6.80045E-05 4.19408E-06 0.00000E+00
 -1       278 6.61979E-05 3.03530E-06 0.00000E+00
 -1       279 6.44307E-05 1.77129E-06 0.00000E+00
 -1       280 6.26517E-05 5.39604E-07 0.00000E+00
 -1       281 6.08097E-05-5.23027E-07-5.29396E-23
 -1       282 5.88560E-05-1.28314E-06 0.00000E+00
 -1       283 5.67424E-05-1.61407E-06 0.00000E+00
 -1       284 5.44324E-05-1.39512E-06 0.00000E+00
 -1       285 5.18748E-05-5.23826E-07 0.00000E+00
 -1       286 6.58963E-05 3.54793E-06 0.00000E+00
 -1       287 6.56322E-05 5.15166E-06 3.30872E-24
 -1       288 6.53687E-05 5.93134E-06 6.61744E-24
 -1       289 6.51067E-05 5.87495E-06-3.30872E-24
 -1       290 6.48445E-05 5.07984E-06-6.61744E-24
 -1       291 6.45818E-05 3.65127E-06 0.00000E+00
 -1       292 6.43184E-05 1.77730E-06 0.00000E+00
 -1       293 6.40546E-05-3.49275E-07-3.30872E-24
 -1       294 6.37908E-05-2.50259E-06 0.00000E+00
 -1       295 6.35273E-05-4.45652E-06 0.00000E+00
 -1       296 6.32644E-05-6.01101E-06-6.61744E-24
 -1       297 6.30019E-05-6.97028E-06 0.00000E+00
 -1       298 6.27398E-05-7.21634E-06 0.00000E+00
 -1       299 6.24760E-05-6.63884E-06 6.61744E-24
 -1       300 6.22119E-05-5.23518E-06 0.00000E+00
 -1       301 6.33226E-05 1.12478E-06 6.61744E-24
 -1       302 6.04637E-05 1.12713E-06 0.00000E+00
 -1       303 5.76016E-05 1.13273E-06 3.30872E-24
 -1       304 5.47464E-05 1.13774E-06 0.00000E+00
 -1       305 5.19082E-05 1.13822E-06 0.00000E+00
 -1       306 6.39708E-05 2.95671E-06-2.64698E-23
 -1       307 6.20680E-05 3.86830E-06-1.32349E-23
 -1       308 6.04623E-05 3.99393E-06-5.29396E-23
 -1       309 5.91026E-05 3.44615E-06 0.00000E+00
 -1       310 5.79469E-05 2.35173E-06 0.00000E+00
 -1       311 5.69449E-05 8.43558E-07 0.00000E+00
 -1       312 5.60453E-05-9.39034E-07-5.29396E-23
 -1       313 5.51945E-05-2.85292E-06 0.00000E+00
 -1       314 5.43385E-05-4.75291E-06-5.29396E-23
 -1       315 5.34234E-05-6.49404E-06 0.00000E+00
 -1       316 5.23959E-05-7.93382E-06 5.29396E-23
 -1       317 5.12053E-05-8.93394E-06 0.00000E+00
 -1       318 4.98013E-05-9.36291E-06 2.64698E-23
 -1       319 4.81437E-05-9.09543E-06 1.32349E-23
 -1       320 4.61810E-05-8.02141E-06-2.64698E-23
 -1       321 6.16952E-05-1.49430E-06 0.00000E+00
 -1       322 6.14625E-05-2.18682E-06 0.00000E+00
 -1       323 6.12263E-05-4.75797E-06 0.00000E+00
 -1       324 6.09871E-05-8.85917E-06 0.00000E+00
 -1       325 6.07435E-05-1.39642E-05-6.61744E-24
 -1       326 6.04979E-05-1.95376E-05 3.30872E-24
 -1       327 6.02530E-05-2.49894E-05 0.00000E+00
 -1       328 6.00116E-05-2.97310E-05 0.00000E+00
 -1       329 5.97749E-05-3.32559E-05 0.00000E+00
 -1       330 5.95427E-05-3.50691E-05-3.30872E-24
 -1       331 5.93119E-05-3.48738E-05 0.00000E+00
 -1       332 5.90781E-05-3.23922E-05 0.00000E+00
 -1       333 5.88363E-05-2.76109E-05 0.00000E+00
 -1       334 5.85813E-05-2.05385E-05 0.00000E+00
 -1       335 5.83108E-05-1.14487E-05 6.61744E-24
 -1       336 5.91879E-05-3.51387E-06-1.32349E-23
 -1       337 5.62565E-05-4.01794E-06 0.00000E+00
 -1       338 5.32037E-05-4.52210E-06 1.32349E-23
 -1       339 5.00899E-05-5.02527E-06 0.00000E+00
 -1       340 4.69759E-05-5.52864E-06 1.32349E-23
 -1       341 5.75557E-05 6.98533E-06 0.00000E+00
 -1       342 4.73074E-05 3.18509E-05-6.61744E-24
 -1       343 3.28454E-05 6.70511E-05-1.32349E-23
 -1       344 1.60297E-05 1.07886E-04 0.00000E+00
 -1       345-5.44566E-07 1.48143E-04-1.32349E-23
 -1       346-1.42945E-05 1.81621E-04 0.00000E+00
 -1       347-2.35192E-05 2.03932E-04 0.00000E+00
 -1       348-2.67285E-05 2.10875E-04-6.61744E-24
 -1       349-2.41513E-05 2.02362E-04 1.32349E-23
 -1       350-1.61313E-05 1.78632E-04-6.61744E-24
 -1       351-4.37800E-06 1.44075E-04 1.32349E-23
 -1       352 9.44146E-06 1.03345E-04 6.61744E-24
 -1       353 2.31909E-05 6.28266E-05 0.00000E+00
 -1       354 3.47353E-05 2.89000E-05 0.00000E+00
 -1       355 4.24324E-05 6.10485E-06 0.00000E+00
 -1       356 5.77144E-05 1.04217E-05 6.61744E-24
 -1       357 5.74189E-05 2.02249E-05 0.00000E+00
 -1       358 5.71376E-05 2.83429E-05 6.61744E-24
 -1       359 5.68707E-05 3.43597E-05 0.00000E+00
 -1       360 5.66143E-05 3.81218E-05 0.00000E+00
 -1       361 5.63638E-05 3.94988E-05-3.30872E-24
 -1       362 5.61139E-05 3.86579E-05 0.00000E+00
 -1       363 5.58605E-05 3.57891E-05 3.30872E-24
 -1       364 5.56017E-05 3.13352E-05-6.61744E-24
 -1       365 5.53376E-05 2.57555E-05 0.00000E+00
 -1       366 5.50707E-05 1.96499E-05 0.00000E+00
 -1       367 5.48050E-05 1.36233E-05 0.00000E+00
 -1       368 5.45430E-05 8.27115E-06 0.00000E+00
 -1       369 5.42905E-05 4.18183E-06-1.65436E-24
 -1       370 5.40418E-05 1.78680E-06 2.06795E-25
 -1       371 4.87544E-05-7.83664E-07 0.00000E+00
 -1       372 4.41562E-05-8.95404E-07 1.65436E-24
 -1       373 4.28630E-05-9.97275E-07 0.00000E+00
 -1       374 4.34963E-05-1.09623E-06 0.00000E+00
 -1       375 4.45777E-05-1.19572E-06 0.00000E+00
 -1       376 5.22801E-05 1.31449E-05-1.32349E-23
 -1       377 4.47847E-05 3.13670E-05-6.61744E-24
 -1       378 3.64805E-05 5.16325E-05-1.32349E-23
 -1       379 2.83303E-05 7.15074E-05-6.61744E-24
 -1       380 2.12600E-05 8.86489E-05 0.00000E+00
 -1       381 1.61601E-05 1.00755E-04 0.00000E+00
 -1       382 1.34382E-05 1.06682E-04-1.32349E-23
 -1       383 1.34440E-05 1.05388E-04 6.61744E-24
 -1       384 1.58920E-05 9.74985E-05 0.00000E+00
 -1       385 2.04654E-05 8.37608E-05 6.61744E-24
 -1       386 2.63798E-05 6.62849E-05-1.32349E-23
 -1       387 3.28477E-05 4.72530E-05 6.61744E-24
 -1       388 3.89629E-05 2.92133E-05 0.00000E+00
 -1       389 4.38234E-05 1.46966E-05 0.00000E+00
 -1       390 4.67872E-05 5.40665E-06 0.00000E+00
 -1       406 5.29011E-05 1.74411E-06 0.00000E+00
 -1       407 5.18920E-05 1.98883E-06 6.61744E-24
 -1       408 5.08049E-05 2.23343E-06-6.61744E-24
 -1       409 4.96575E-05 2.47741E-06 0.00000E+00
 -1       410 4.84678E-05 2.72009E-06 0.00000E+00
 -1       466 4.32020E-05 1.30903E-05 6.61744E-24
 -1       467 4.35643E-05 2.19794E-05 0.00000E+00
 -1       468 4.39546E-05 2.65518E-05 0.00000E+00
 -1       469 4.43565E-05 2.82242E-05-6.61744E-24
 -1       470 4.47601E-05 2.77599E-05 1.32349E-23
 -1       471 4.51627E-05 2.58864E-05 6.61744E-24
 -1       472 4.55632E-05 2.30126E-05 0.00000E+00
 -1       473 4.59619E-05 1.95305E-05 6.61744E-24
 -1       474 4.63593E-05 1.56945E-05-1.32349E-23
 -1       475 4.67560E-05 1.17533E-05 6.61744E-24
 -1       476 4.71530E-05 7.93149E-06 0.00000E+00
 -1       477 4.75498E-05 4.45570E-06 0.00000E+00
 -1       478 4.79482E-05 1.63084E-06 0.00000E+00
 -1       479 4.83417E-05-2.27208E-07-3.30872E-24
 -1       480 4.87389E-05-5.85459E-07 0.00000E+00
 -1       481 2.81833E-05-1.61335E-06 1.65436E-24
 -1       482 1.91953E-05-1.55231E-06 0.00000E+00
 -1       483 1.44295E-05-1.46241E-06-3.30872E-24
 -1       484 1.23754E-05-1.36325E-06 1.65436E-24
 -1       485 1.16680E-05-1.26179E-06-3.30872E-24
 -1       486 3.18475E-05 2.55221E-05 0.00000E+00
 -1       487 1.29083E-05 7.15077E-05 6.61744E-24
 -1       488-1.12295E-05 1.29520E-04 0.00000E+00
 -1       489-3.76115E-05 1.92580E-04 6.61744E-24
 -1       490-6.26157E-05 2.52528E-04 0.00000E+00
 -1       491-8.27094E-05 3.01232E-04 6.61744E-24
 -1       492-9.57882E-05 3.33200E-04 1.32349E-23
 -1       493-1.00096E-04 3.43157E-04-6.61744E-24
 -1       494-9.61176E-05 3.30961E-04 0.00000E+00
 -1       495-8.44802E-05 2.96889E-04 0.00000E+00
 -1       496-6.74263E-05 2.46463E-04 1.32349E-23
 -1       497-4.70715E-05 1.85584E-04 6.61744E-24
 -1       498-2.61154E-05 1.22776E-04 1.32349E-23
 -1       499-7.22862E-06 6.66114E-05-6.61744E-24
 -1       500 7.27288E-06 2.39884E-05-6.61744E-24
 -1       501 4.87626E-05 3.44969E-06 1.32349E-23
 -1       502 4.84390E-05 4.91414E-06 0.00000E+00
 -1       503 4.81156E-05 5.45729E-06-1.32349E-23
 -1       504 4.77940E-05 5.04003E-06 0.00000E+00
 -1       505 4.74718E-05 3.77593E-06 0.00000E+00
 -1       506 4.71488E-05 1.78968E-06 6.61744E-24
 -1       507 4.68248E-05-6.79280E-07-1.32349E-23
 -1       508 4.65003E-05-3.38524E-06 6.61744E-24
 -1       509 4.61760E-05-6.04476E-06 1.32349E-23
 -1       510 4.58524E-05-8.37503E-06 0.00000E+00
 -1       511 4.55300E-05-1.01456E-05 0.00000E+00
 -1       512 4.52086E-05-1.11333E-05 0.00000E+00
 -1       513 4.48877E-05-1.12393E-05 0.00000E+00
 -1       514 4.45668E-05-1.03765E-05 6.61744E-24
 -1       515 4.42446E-05-8.61143E-06-6.61744E-24
 -1       516 4.35975E-05 1.17587E-06 6.61744E-24
 -1       517 3.29759E-05 1.22325E-06 0.00000E+00
 -1       518 2.09918E-05 1.25502E-06-4.13590E-25
 -1       519 1.13976E-05 1.31574E-06 0.00000E+00
 -1       520 8.07853E-06 1.41121E-06 8.27181E-25
 -1       521 4.64333E-05 2.72505E-06 0.00000E+00
 -1       522 4.40413E-05 3.44433E-06 2.64698E-23
 -1       523 4.19422E-05 3.39023E-06-5.29396E-23
 -1       524 4.00831E-05 2.67107E-06-2.64698E-23
 -1       525 3.84244E-05 1.41453E-06 0.00000E+00
 -1       526 3.69144E-05-2.43729E-07-2.64698E-23
 -1       527 3.55003E-05-2.15948E-06 0.00000E+00
 -1       528 3.41265E-05-4.18372E-06 0.00000E+00
 -1       529 3.27367E-05-6.16518E-06-5.29396E-23
 -1       530 3.12750E-05-7.95345E-06 2.64698E-23
 -1       531 2.96865E-05-9.40208E-06 0.00000E+00
 -1       532 2.79200E-05-1.03711E-05-2.64698E-23
 -1       533 2.59259E-05-1.07305E-05 5.29396E-23
 -1       534 2.36667E-05-1.03600E-05 2.64698E-23
 -1       535 2.10930E-05-9.15962E-06-2.64698E-23
 -1       536 4.39483E-05-3.37986E-06 3.30872E-24
 -1       537 4.39895E-05-1.36952E-06 0.00000E+00
 -1       538 4.40314E-05 7.70041E-08 0.00000E+00
 -1       539 4.40761E-05 1.02866E-06 2.06795E-25
 -1       540 4.41213E-05 1.55407E-06 0.00000E+00
 -1       541 4.41671E-05 1.72170E-06 4.13590E-25
 -1       542 4.42130E-05 1.59987E-06-1.65436E-24
 -1       543 4.42589E-05 1.25678E-06 0.00000E+00
 -1       544 4.43048E-05 7.60523E-07 1.65436E-24
 -1       545 4.43507E-05 1.79127E-07 0.00000E+00
 -1       546 4.43966E-05-4.19407E-07 1.65436E-24
 -1       547 4.44425E-05-9.67084E-07 0.00000E+00
 -1       548 4.44885E-05-1.39590E-06-1.65436E-24
 -1       549 4.45346E-05-1.63781E-06 0.00000E+00
 -1       550 4.45807E-05-1.62463E-06 1.65436E-24
 -1       551 4.00835E-05-6.18750E-06-1.24077E-24
 -1       552 3.58196E-05-6.34825E-06 0.00000E+00
 -1       553 3.13146E-05-6.50929E-06 6.61744E-24
 -1       554 2.67562E-05-6.67210E-06 0.00000E+00
 -1       555 2.23324E-05-6.83839E-06 1.32349E-23
 -1       556 4.27719E-05-3.55832E-06 0.00000E+00
 -1       557 4.18369E-05-1.65169E-06 0.00000E+00
 -1       558 4.10930E-05-2.49429E-07-1.32349E-23
 -1       559 4.05175E-05 7.07239E-07 0.00000E+00
 -1       560 4.00877E-05 1.27723E-06 0.00000E+00
 -1       561 3.97808E-05 1.52005E-06 0.00000E+00
 -1       562 3.95744E-05 1.49529E-06 0.00000E+00
 -1       563 3.94461E-05 1.26262E-06 0.00000E+00
 -1       564 3.93733E-05 8.81807E-07-6.61744E-24
 -1       565 3.93337E-05 4.12618E-07 0.00000E+00
 -1       566 3.93049E-05-8.51385E-08 0.00000E+00
 -1       567 3.92645E-05-5.51645E-07 1.65436E-24
 -1       568 3.91901E-05-9.27099E-07 4.96308E-24
 -1       569 3.90599E-05-1.15177E-06 2.68834E-24
 -1       570 3.88521E-05-1.16600E-06 1.65436E-24
 -1       571 4.47846E-05-9.21652E-07-2.89513E-24
 -1       572 4.49473E-05-6.70410E-07 1.24077E-24
 -1       573 4.51113E-05-5.13726E-07 3.30872E-24
 -1       574 4.52761E-05-4.29684E-07 1.65436E-24
 -1       575 4.54410E-05-3.96287E-07 3.30872E-24
 -1       576 4.56061E-05-3.91404E-07 1.65436E-24
 -1       577 4.57713E-05-3.92896E-07-6.61744E-24
 -1       578 4.59365E-05-3.78607E-07 0.00000E+00
 -1       579 4.61016E-05-3.26379E-07-6.61744E-24
 -1       580 4.62668E-05-2.14051E-07 3.30872E-24
 -1       581 4.64319E-05-1.94627E-08-6.61744E-24
 -1       582 4.65970E-05 2.79534E-07 0.00000E+00
 -1       583 4.67619E-05 7.05070E-07-1.32349E-23
 -1       584 4.69266E-05 1.27907E-06-6.61744E-24
 -1       585 4.70908E-05 2.02337E-06 0.00000E+00
 -1       586 4.37501E-05-1.22403E-06 0.00000E+00
 -1       587 4.27443E-05-1.15931E-06 0.00000E+00
 -1       588 4.16648E-05-1.09470E-06 0.00000E+00
 -1       589 4.05683E-05-1.03074E-06 3.61892E-25
 -1       590 3.95114E-05-9.68173E-07 0.00000E+00
 -1       591 4.43727E-05-8.59770E-07 0.00000E+00
 -1       592 4.41392E-05-5.05229E-07 0.00000E+00
 -1       593 4.39269E-05-2.10826E-07-3.30872E-24
 -1       594 4.37317E-05 3.61867E-08-1.65436E-24
 -1       595 4.35491E-05 2.48548E-07 3.30872E-24
 -1       596 4.33748E-05 4.38916E-07-1.65436E-24
 -1       597 4.32038E-05 6.19937E-07 3.30872E-24
 -1       598 4.30317E-05 8.04246E-07 8.27181E-25
 -1       599 4.28535E-05 1.00448E-06-1.65436E-24
 -1       600 4.26647E-05 1.23327E-06 8.27181E-25
 -1       601 4.24604E-05 1.50324E-06 0.00000E+00
 -1       602 4.22361E-05 1.82705E-06 4.13590E-25
 -1       603 4.19870E-05 2.21732E-06 1.65436E-24
 -1       604 4.17091E-05 2.68678E-06 6.20385E-25
 -1       605 4.13980E-05 3.24816E-06 8.27181E-25
 -1       606 4.73061E-05 4.18576E-06 0.00000E+00
 -1       607 4.73545E-05 5.52101E-06 0.00000E+00
 -1       608 4.74016E-05 6.95756E-06 0.00000E+00
 -1       609 4.74481E-05 8.48822E-06 0.00000E+00
 -1       610 4.74943E-05 1.01058E-05 6.61744E-24
 -1       611 4.75403E-05 1.18029E-05 0.00000E+00
 -1       612 4.75862E-05 1.35721E-05 0.00000E+00
 -1       613 4.76319E-05 1.54061E-05 0.00000E+00
 -1       614 4.76775E-05 1.72975E-05 3.30872E-24
 -1       615 4.77230E-05 1.92389E-05 0.00000E+00
 -1       616 4.77684E-05 2.12229E-05 0.00000E+00
 -1       617 4.78138E-05 2.32422E-05 0.00000E+00
 -1       618 4.78590E-05 2.52894E-05 0.00000E+00
 -1       619 4.79042E-05 2.73570E-05-8.27181E-25
 -1       620 4.79493E-05 2.94377E-05 0.00000E+00
 -1       621 4.60933E-05 3.11797E-06 0.00000E+00
 -1       622 4.49680E-05 3.27878E-06 1.65436E-24
 -1       623 4.38898E-05 3.43969E-06-3.30872E-24
 -1       624 4.28705E-05 3.60024E-06 1.65436E-24
 -1       625 4.19218E-05 3.75990E-06 1.65436E-24
 -1       626 4.68807E-05 4.24043E-06 0.00000E+00
 -1       627 4.64631E-05 5.63520E-06-3.30872E-24
 -1       628 4.60065E-05 7.13206E-06 0.00000E+00
 -1       629 4.55157E-05 8.71917E-06-6.61744E-24
 -1       630 4.49953E-05 1.03846E-05 6.61744E-24
 -1       631 4.44498E-05 1.21164E-05 0.00000E+00
 -1       632 4.38839E-05 1.39023E-05-3.30872E-24
 -1       633 4.33022E-05 1.57303E-05-1.65436E-24
 -1       634 4.27091E-05 1.75884E-05 0.00000E+00
 -1       635 4.21093E-05 1.94643E-05-1.65436E-24
 -1       636 4.15072E-05 2.13460E-05-3.30872E-24
 -1       637 4.09074E-05 2.32215E-05 1.65436E-24
 -1       638 4.03145E-05 2.50785E-05 1.65436E-24
 -1       639 3.97325E-05 2.69050E-05-8.27181E-25
 -1       640 3.91657E-05 2.86888E-05 1.65436E-24
 -1       641 4.79950E-05 3.36932E-05 8.27181E-25
 -1       642 4.79941E-05 3.60910E-05-2.06795E-25
 -1       643 4.79928E-05 3.86847E-05 0.00000E+00
 -1       644 4.79908E-05 4.14414E-05-5.16988E-26
 -1       645 4.79884E-05 4.43285E-05-1.03398E-25
 -1       646 4.79857E-05 4.73130E-05 0.00000E+00
 -1       647 4.79828E-05 5.03626E-05 5.16988E-26
 -1       648 4.79798E-05 5.34444E-05-1.29247E-26
 -1       649 4.79768E-05 5.65258E-05-1.29247E-26
 -1       650 4.79738E-05 5.95743E-05 0.00000E+00
 -1       651 4.79710E-05 6.25572E-05 1.03398E-25
 -1       652 4.79683E-05 6.54418E-05-1.03398E-25
 -1       653 4.79658E-05 6.81955E-05 0.00000E+00
 -1       654 4.79627E-05 7.07854E-05 4.13590E-25
 -1       655 4.79604E-05 7.31788E-05-1.65436E-24
 -1       656 4.61063E-05 3.13455E-05-3.30872E-24
 -1       657 4.44624E-05 3.11580E-05 1.65436E-24
 -1       658 4.29772E-05 3.09710E-05 3.30872E-24
 -1       659 4.15649E-05 3.07841E-05 0.00000E+00
 -1       660 4.01397E-05 3.05967E-05 0.00000E+00
 -1       661 4.73859E-05 3.37557E-05 0.00000E+00
 -1       662 4.67174E-05 3.61697E-05 0.00000E+00
 -1       663 4.59907E-05 3.87370E-05 0.00000E+00
 -1       664 4.52172E-05 4.14317E-05-3.30872E-24
 -1       665 4.44056E-05 4.42273E-05 0.00000E+00
 -1       666 4.35658E-05 4.70982E-05 3.30872E-24
 -1       667 4.27073E-05 5.00185E-05 0.00000E+00
 -1       668 4.18399E-05 5.29628E-05 3.30872E-24
 -1       669 4.09729E-05 5.59056E-05 0.00000E+00
 -1       670 4.01161E-05 5.88214E-05 3.30872E-24
 -1       671 3.92791E-05 6.16847E-05-6.61744E-24
 -1       672 3.84714E-05 6.44697E-05 0.00000E+00
 -1       673 3.77028E-05 6.71507E-05 0.00000E+00
 -1       674 3.69816E-05 6.97010E-05-1.65436E-24
 -1       675 3.63198E-05 7.20949E-05 3.30872E-24
 -1       676 4.59060E-05 7.51689E-05 0.00000E+00
 -1       677 4.38615E-05 7.49940E-05 3.30872E-24
 -1       678 4.18197E-05 7.48193E-05 6.61744E-24
 -1       679 3.97811E-05 7.46452E-05 0.00000E+00
 -1       680 3.77463E-05 7.44709E-05 0.00000E+00
 -1       681 1.11973E-05 2.45378E-08 0.00000E+00
 -1       682 1.14533E-05 1.98590E-06 3.30872E-24
 -1       683 1.17076E-05 4.51121E-06 0.00000E+00
 -1       684 1.19625E-05 7.39510E-06 3.30872E-24
 -1       685 1.22168E-05 1.04828E-05 0.00000E+00
 -1       686 1.24712E-05 1.36218E-05-3.30872E-24
 -1       687 1.27260E-05 1.66666E-05 0.00000E+00
 -1       688 1.29815E-05 1.94711E-05 3.30872E-24
 -1       689 1.32380E-05 2.18547E-05 6.61744E-24
 -1       690 1.34956E-05 2.36328E-05 3.30872E-24
 -1       691 1.37543E-05 2.45348E-05 0.00000E+00
 -1       692 1.40129E-05 2.42810E-05 3.30872E-24
 -1       693 1.42696E-05 2.24283E-05 0.00000E+00
 -1       694 1.45186E-05 1.85166E-05-3.30872E-24
 -1       695 1.47535E-05 1.17955E-05 3.30872E-24
 -1       696 9.81287E-06-9.72061E-07-3.30872E-24
 -1       697 8.01056E-06-7.78369E-07 0.00000E+00
 -1       698 5.83747E-06-5.85662E-07 0.00000E+00
 -1       699 3.58732E-06-3.91736E-07 0.00000E+00
 -1       700 1.54575E-06-1.97487E-07 0.00000E+00
 -1       701 1.05309E-05-8.25163E-07 0.00000E+00
 -1       702 1.03641E-05-1.19811E-06-3.30872E-24
 -1       703 1.04178E-05-2.15684E-06-6.61744E-24
 -1       704 1.06414E-05-3.57791E-06 0.00000E+00
 -1       705 1.09642E-05-5.26445E-06 6.61744E-24
 -1       706 1.13113E-05-7.01772E-06 3.30872E-24
 -1       707 1.16050E-05-8.62824E-06-6.61744E-24
 -1       708 1.17678E-05-9.88835E-06 0.00000E+00
 -1       709 1.17422E-05-1.06447E-05 6.61744E-24
 -1       710 1.14726E-05-1.07495E-05 0.00000E+00
 -1       711 1.09408E-05-1.01560E-05 0.00000E+00
 -1       712 1.01321E-05-8.82491E-06-3.30872E-24
 -1       713 9.07363E-06-6.83117E-06 0.00000E+00
 -1       714 7.79832E-06-4.25615E-06-3.30872E-24
 -1       715 6.36761E-06-1.27281E-06 0.00000E+00
 -1       716 1.50993E-05-9.12046E-06-3.30872E-24
 -1       717 1.52872E-05-1.67026E-05 0.00000E+00
 -1       718 1.54895E-05-2.18654E-05-6.61744E-24
 -1       719 1.57012E-05-2.51905E-05 0.00000E+00
 -1       720 1.59166E-05-2.70437E-05 0.00000E+00
 -1       721 1.61338E-05-2.77776E-05-3.30872E-24
 -1       722 1.63513E-05-2.76132E-05 0.00000E+00
 -1       723 1.65685E-05-2.67633E-05 0.00000E+00
 -1       724 1.67851E-05-2.53598E-05 0.00000E+00
 -1       725 1.70008E-05-2.35298E-05 3.30872E-24
 -1       726 1.72157E-05-2.13502E-05 0.00000E+00
 -1       727 1.74287E-05-1.88947E-05 3.30872E-24
 -1       728 1.76409E-05-1.62044E-05 3.30872E-24
 -1       729 1.78465E-05-1.33184E-05 0.00000E+00
 -1       730 1.80536E-05-1.02529E-05 6.61744E-24
 -1       731 2.34399E-05 1.53617E-06-8.27181E-25
 -1       732 2.48374E-05 1.62638E-06 0.00000E+00
 -1       733 2.14430E-05 1.71379E-06 0.00000E+00
 -1       734 1.55414E-05 1.79038E-06 0.00000E+00
 -1       735 9.29421E-06 1.86535E-06-1.65436E-24
 -1       736 2.06928E-05-1.53990E-05 0.00000E+00
 -1       737 2.95792E-05-4.12542E-05 0.00000E+00
 -1       738 4.03726E-05-7.26331E-05-1.32349E-23
 -1       739 5.18342E-05-1.05985E-04 0.00000E+00
 -1       740 6.26069E-05-1.37318E-04 1.32349E-23
 -1       741 7.13212E-05-1.62678E-04-6.61744E-24
 -1       742 7.70050E-05-1.79450E-04 0.00000E+00
 -1       743 7.86818E-05-1.85181E-04-6.61744E-24
 -1       744 7.62107E-05-1.79850E-04-1.32349E-23
 -1       745 6.95199E-05-1.63616E-04 6.61744E-24
 -1       746 5.95045E-05-1.39013E-04 1.32349E-23
 -1       747 4.71682E-05-1.08689E-04-6.61744E-24
 -1       748 3.40820E-05-7.65318E-05 1.32349E-23
 -1       749 2.18500E-05-4.64529E-05-6.61744E-24
 -1       750 1.18602E-05-2.19156E-05 0.00000E+00
 -1       751 1.94198E-05-4.35137E-06 1.32349E-23
 -1       752 2.06894E-05-2.89371E-06 0.00000E+00
 -1       753 2.19551E-05-2.19192E-06 2.64698E-23
 -1       754 2.32352E-05-1.82977E-06 0.00000E+00
 -1       755 2.45159E-05-1.67900E-06 0.00000E+00
 -1       756 2.57994E-05-1.62271E-06 0.00000E+00
 -1       757 2.70833E-05-1.62459E-06 0.00000E+00
 -1       758 2.83677E-05-1.65144E-06 2.64698E-23
 -1       759 2.96521E-05-1.69139E-06 0.00000E+00
 -1       760 3.09362E-05-1.73327E-06 0.00000E+00
 -1       761 3.22201E-05-1.76755E-06 0.00000E+00
 -1       762 3.35019E-05-1.78431E-06 0.00000E+00
 -1       763 3.47835E-05-1.75865E-06 0.00000E+00
 -1       764 3.60547E-05-1.66343E-06 0.00000E+00
 -1       765 3.73294E-05-1.41237E-06-1.32349E-23
 -1       766 1.62164E-05-6.92042E-06 6.61744E-24
 -1       767 1.66362E-05-6.78785E-06 0.00000E+00
 -1       768 1.76447E-05-6.65741E-06 0.00000E+00
 -1       769 1.74035E-05-6.52301E-06-4.13590E-25
 -1       770 1.39817E-05-6.39446E-06 0.00000E+00
 -1       771 1.62761E-05-4.38703E-06 0.00000E+00
 -1       772 1.44937E-05-2.23646E-06 0.00000E+00
 -1       773 1.28766E-05-5.30697E-07 0.00000E+00
 -1       774 1.14104E-05 7.70929E-07 2.64698E-23
 -1       775 1.00806E-05 1.70930E-06 0.00000E+00
 -1       776 8.87180E-06 2.32571E-06 0.00000E+00
 -1       777 7.76835E-06 2.66164E-06-2.64698E-23
 -1       778 6.75458E-06 2.75883E-06 0.00000E+00
 -1       779 5.81473E-06 2.65916E-06 2.64698E-23
 -1       780 4.93302E-06 2.40472E-06 1.32349E-23
 -1       781 4.09364E-06 2.03766E-06 2.64698E-23
 -1       782 3.28089E-06 1.60031E-06 0.00000E+00
 -1       783 2.47907E-06 1.13504E-06 0.00000E+00
 -1       784 1.67328E-06 6.84423E-07 0.00000E+00
 -1       785 8.48748E-07 2.91091E-07-2.64698E-23
 -1       786 3.86970E-05-3.48257E-07-1.65436E-24
 -1       787 3.88531E-05 9.06143E-08 0.00000E+00
 -1       788 3.90092E-05 4.25132E-07 0.00000E+00
 -1       789 3.91666E-05 6.74478E-07-1.65436E-24
 -1       790 3.93242E-05 8.57696E-07-3.30872E-24
 -1       791 3.94822E-05 9.93741E-07 0.00000E+00
 -1       792 3.96401E-05 1.10150E-06 0.00000E+00
 -1       793 3.97982E-05 1.19980E-06 0.00000E+00
 -1       794 3.99562E-05 1.30748E-06-6.61744E-24
 -1       795 4.01142E-05 1.44339E-06-3.30872E-24
 -1       796 4.02722E-05 1.62639E-06 0.00000E+00
 -1       797 4.04301E-05 1.87545E-06 1.65436E-24
 -1       798 4.05879E-05 2.20961E-06-3.30872E-24
 -1       799 4.07449E-05 2.64804E-06-1.65436E-24
 -1       800 4.09020E-05 3.21009E-06 0.00000E+00
 -1       801 3.50946E-05-7.44491E-07 0.00000E+00
 -1       802 2.79306E-05-5.85738E-07 0.00000E+00
 -1       803 1.89482E-05-4.40190E-07 0.00000E+00
 -1       804 1.00384E-05-2.97450E-07 0.00000E+00
 -1       805 3.09192E-06-1.40939E-07 0.00000E+00
 -1       806 3.81556E-05-4.09487E-07 6.61744E-24
 -1       807 3.77740E-05 4.03464E-08 3.30872E-24
 -1       808 3.74061E-05 4.49195E-07 0.00000E+00
 -1       809 3.70492E-05 8.26603E-07 0.00000E+00
 -1       810 3.67003E-05 1.18205E-06-6.61744E-24
 -1       811 3.63560E-05 1.52494E-06 0.00000E+00
 -1       812 3.60129E-05 1.86465E-06 6.61744E-24
 -1       813 3.56674E-05 2.21056E-06 0.00000E+00
 -1       814 3.53161E-05 2.57204E-06-6.61744E-24
 -1       815 3.49554E-05 2.95846E-06-1.65436E-24
 -1       816 3.45818E-05 3.37918E-06-3.30872E-24
 -1       817 3.41920E-05 3.84358E-06-1.65436E-24
 -1       818 3.37825E-05 4.36103E-06-3.30872E-24
 -1       819 3.33501E-05 4.94092E-06-3.30872E-24
 -1       820 3.28922E-05 5.59271E-06-1.65436E-24
 -1       821 4.09123E-05 4.81088E-06-1.65436E-24
 -1       822 4.07607E-05 5.90507E-06-1.65436E-24
 -1       823 4.06091E-05 7.17766E-06 0.00000E+00
 -1       824 4.04558E-05 8.60813E-06 0.00000E+00
 -1       825 4.03022E-05 1.01758E-05 3.30872E-24
 -1       826 4.01482E-05 1.18598E-05-1.65436E-24
 -1       827 3.99939E-05 1.36389E-05 3.30872E-24
 -1       828 3.98395E-05 1.54922E-05 0.00000E+00
 -1       829 3.96849E-05 1.73981E-05 0.00000E+00
 -1       830 3.95304E-05 1.93353E-05 0.00000E+00
 -1       831 3.93758E-05 2.12824E-05 3.30872E-24
 -1       832 3.92215E-05 2.32180E-05 0.00000E+00
 -1       833 3.90674E-05 2.51207E-05 0.00000E+00
 -1       834 3.89145E-05 2.69689E-05-1.65436E-24
 -1       835 3.87615E-05 2.87416E-05-1.65436E-24
 -1       836 3.99714E-05 4.30969E-06-6.61744E-24
 -1       837 3.84906E-05 4.71790E-06-3.30872E-24
 -1       838 3.68035E-05 5.12506E-06 0.00000E+00
 -1       839 3.51006E-05 5.53132E-06 3.30872E-24
 -1       840 3.35723E-05 5.93856E-06-6.61744E-24
 -1       841 4.06954E-05 4.79879E-06-4.13590E-25
 -1       842 4.02530E-05 5.89233E-06 1.03398E-25
 -1       843 3.97388E-05 7.17719E-06 4.13590E-25
 -1       844 3.91596E-05 8.63273E-06-4.13590E-25
 -1       845 3.85248E-05 1.02361E-05 8.27181E-25
 -1       846 3.78429E-05 1.19638E-05 0.00000E+00
 -1       847 3.71237E-05 1.37906E-05 0.00000E+00
 -1       848 3.63768E-05 1.56908E-05 0.00000E+00
 -1       849 3.56122E-05 1.76377E-05-8.27181E-25
 -1       850 3.48402E-05 1.96044E-05-4.13590E-25
 -1       851 3.40708E-05 2.15638E-05-8.27181E-25
 -1       852 3.33145E-05 2.34887E-05 0.00000E+00
 -1       853 3.25812E-05 2.53525E-05 8.27181E-25
 -1       854 3.18805E-05 2.71285E-05 0.00000E+00
 -1       855 3.12224E-05 2.87919E-05-1.65436E-24
 -1       856 3.84450E-05 3.22167E-05-1.65436E-24
 -1       857 3.82654E-05 3.43398E-05-1.65436E-24
 -1       858 3.80854E-05 3.67453E-05 6.61744E-24
 -1       859 3.79036E-05 3.93913E-05-3.30872E-24
 -1       860 3.77211E-05 4.22354E-05 0.00000E+00
 -1       861 3.75379E-05 4.52351E-05 0.00000E+00
 -1       862 3.73543E-05 4.83473E-05 0.00000E+00
 -1       863 3.71705E-05 5.15289E-05 0.00000E+00
 -1       864 3.69865E-05 5.47367E-05 0.00000E+00
 -1       865 3.68027E-05 5.79274E-05 0.00000E+00
 -1       866 3.66191E-05 6.10578E-05 0.00000E+00
 -1       867 3.64359E-05 6.40846E-05 0.00000E+00
 -1       868 3.62532E-05 6.69650E-05 0.00000E+00
 -1       869 3.60718E-05 6.96561E-05 3.30872E-24
 -1       870 3.58909E-05 7.21156E-05-3.30872E-24
 -1       871 3.71624E-05 3.04029E-05 0.00000E+00
 -1       872 3.58025E-05 3.03871E-05 0.00000E+00
 -1       873 3.45024E-05 3.03710E-05 0.00000E+00
 -1       874 3.32272E-05 3.03545E-05-4.13590E-25
 -1       875 3.19426E-05 3.03372E-05-8.27181E-25
 -1       876 3.81794E-05 3.22784E-05 0.00000E+00
 -1       877 3.76472E-05 3.44226E-05-3.30872E-24
 -1       878 3.70232E-05 3.68093E-05 0.00000E+00
 -1       879 3.63228E-05 3.94027E-05 3.30872E-24
 -1       880 3.55583E-05 4.21661E-05 6.61744E-24
 -1       881 3.47432E-05 4.50642E-05 3.30872E-24
 -1       882 3.38905E-05 4.80616E-05-6.61744E-24
 -1       883 3.30136E-05 5.11233E-05 0.00000E+00
 -1       884 3.21255E-05 5.42146E-05 6.61744E-24
 -1       885 3.12393E-05 5.73009E-05 3.30872E-24
 -1       886 3.03681E-05 6.03472E-05 0.00000E+00
 -1       887 2.95248E-05 6.33188E-05 3.30872E-24
 -1       888 2.87228E-05 6.61807E-05 0.00000E+00
 -1       889 2.79739E-05 6.88969E-05 3.30872E-24
 -1       890 2.72935E-05 7.14326E-05 0.00000E+00
 -1       891 3.39474E-05 7.42094E-05 0.00000E+00
 -1       892 3.25197E-05 7.41164E-05 0.00000E+00
 -1       893 3.12562E-05 7.40237E-05-3.30872E-24
 -1       894 2.99801E-05 7.39312E-05 8.27181E-25
 -1       895 2.85146E-05 7.38383E-05 1.65436E-24
 -1       896 3.02643E-07 9.74468E-07 6.61744E-24
 -1       897 6.07956E-07 1.34725E-06-3.30872E-24
 -1       898 9.13204E-07 1.26682E-06 0.00000E+00
 -1       899 1.21881E-06 8.75914E-07 0.00000E+00
 -1       900 1.52433E-06 2.65128E-07 0.00000E+00
 -1       901 1.82984E-06-4.77735E-07-3.30872E-24
 -1       902 2.13532E-06-1.28705E-06 6.61744E-24
 -1       903 2.44078E-06-2.09803E-06 0.00000E+00
 -1       904 2.74628E-06-2.84619E-06-6.61744E-24
 -1       905 3.05179E-06-3.46624E-06 3.30872E-24
 -1       906 3.35734E-06-3.87134E-06 6.61744E-24
 -1       907 3.66257E-06-3.97198E-06 3.30872E-24
 -1       908 3.96767E-06-3.62745E-06 6.61744E-24
 -1       909 4.27038E-06-2.69147E-06-3.30872E-24
 -1       910 4.57264E-06-9.18489E-07 0.00000E+00
 -1       911 4.90328E-06 4.30494E-06 0.00000E+00
 -1       912 4.94755E-06 4.55964E-06 0.00000E+00
 -1       913 4.99095E-06 3.10511E-06 0.00000E+00
 -1       914 5.03169E-06 3.31636E-07 0.00000E+00
 -1       915 5.06950E-06-3.40137E-06 0.00000E+00
 -1       916 5.10497E-06-7.73616E-06 0.00000E+00
 -1       917 5.13936E-06-1.23290E-05 1.65436E-24
 -1       918 5.17411E-06-1.68369E-05 0.00000E+00
 -1       919 5.21058E-06-2.09146E-05-1.65436E-24
 -1       920 5.24975E-06-2.42160E-05-8.27181E-25
 -1       921 5.29179E-06-2.63772E-05 0.00000E+00
 -1       922 5.33561E-06-2.70319E-05 0.00000E+00
 -1       923 5.37867E-06-2.57788E-05 0.00000E+00
 -1       924 5.41503E-06-2.22131E-05-3.23117E-27
 -1       925 5.43843E-06-1.58765E-05 0.00000E+00
 -1       926 5.06125E-06 4.80346E-06-6.61744E-24
 -1       927 4.68821E-06 1.56421E-05 0.00000E+00
 -1       928 4.32558E-06 2.54630E-05 6.61744E-24
 -1       929 3.97662E-06 3.35322E-05 3.30872E-24
 -1       930 3.64220E-06 3.93914E-05 1.32349E-23
 -1       931 3.31901E-06 4.26109E-05 0.00000E+00
 -1       932 3.00060E-06 4.31769E-05 0.00000E+00
 -1       933 2.68021E-06 4.11097E-05 0.00000E+00
 -1       934 2.35331E-06 3.68447E-05 0.00000E+00
 -1       935 2.01774E-06 3.08455E-05 6.61744E-24
 -1       936 1.67605E-06 2.38490E-05 0.00000E+00
 -1       937 1.33226E-06 1.66051E-05 0.00000E+00
 -1       938 9.91948E-07 9.90243E-06 1.32349E-23
 -1       939 6.57341E-07 4.52282E-06 0.00000E+00
 -1       940 3.31263E-07 1.03920E-06 0.00000E+00
 -1       941 1.92124E-06 2.34799E-07 0.00000E+00
 -1       942 3.94821E-06 5.36566E-07 0.00000E+00
 -1       943 5.96861E-06 8.76388E-07 5.29396E-23
 -1       944 8.00903E-06 1.22873E-06 0.00000E+00
 -1       945 1.00501E-05 1.58821E-06 5.29396E-23
 -1       946 1.20951E-05 1.95006E-06-2.64698E-23
 -1       947 1.41407E-05 2.31338E-06 5.29396E-23
 -1       948 1.61869E-05 2.67738E-06 0.00000E+00
 -1       949 1.82331E-05 3.04240E-06 5.29396E-23
 -1       950 2.02789E-05 3.40886E-06 0.00000E+00
 -1       951 2.23243E-05 3.77952E-06-5.29396E-23
 -1       952 2.43665E-05 4.15750E-06 2.64698E-23
 -1       953 2.64081E-05 4.55782E-06 5.29396E-23
 -1       954 2.84335E-05 4.99741E-06 0.00000E+00
 -1       955 3.04643E-05 5.55664E-06 0.00000E+00
 -1       956 3.22996E-05 7.31728E-06 1.65436E-24
 -1       957 3.21881E-05 8.43748E-06 1.03398E-24
 -1       958 3.20762E-05 9.67457E-06-2.89513E-24
 -1       959 3.19639E-05 1.10153E-05-8.27181E-25
 -1       960 3.18515E-05 1.24464E-05-3.30872E-24
 -1       961 3.17389E-05 1.39544E-05-8.27181E-25
 -1       962 3.16262E-05 1.55260E-05-1.65436E-24
 -1       963 3.15135E-05 1.71478E-05 0.00000E+00
 -1       964 3.14007E-05 1.88063E-05 3.30872E-24
 -1       965 3.12878E-05 2.04880E-05 0.00000E+00
 -1       966 3.11750E-05 2.21797E-05 0.00000E+00
 -1       967 3.10622E-05 2.38677E-05 0.00000E+00
 -1       968 3.09494E-05 2.55388E-05 0.00000E+00
 -1       969 3.08369E-05 2.71796E-05 0.00000E+00
 -1       970 3.07247E-05 2.87766E-05 0.00000E+00
 -1       971 3.03772E-05 3.19744E-05 3.30872E-24
 -1       972 3.01328E-05 3.39715E-05 0.00000E+00
 -1       973 2.98880E-05 3.62673E-05 6.61744E-24
 -1       974 2.96416E-05 3.88199E-05-3.30872E-24
 -1       975 2.93944E-05 4.15869E-05-6.61744E-24
 -1       976 2.91466E-05 4.45254E-05 0.00000E+00
 -1       977 2.88984E-05 4.75921E-05 0.00000E+00
 -1       978 2.86499E-05 5.07434E-05-3.30872E-24
 -1       979 2.84013E-05 5.39354E-05 0.00000E+00
 -1       980 2.81527E-05 5.71243E-05-3.30872E-24
 -1       981 2.79044E-05 6.02661E-05 6.61744E-24
 -1       982 2.76566E-05 6.33172E-05 0.00000E+00
 -1       983 2.74093E-05 6.62339E-05 6.61744E-24
 -1       984 2.71639E-05 6.89730E-05 0.00000E+00
 -1       985 2.69189E-05 7.14915E-05-3.30872E-24
 -3
    1PSTEP                        34          17           1          
  100CL  117 8.72456E-01         841                     0   17           1
 -4  STRESS      6    1
 -5  SXX         1    4    1    1
 -5  SYY         1    4    2    2
 -5  SZZ         1    4    3    3
 -5  SXY         1    4    1    2
 -5  SYZ         1    4    2    3
 -5  SZX         1    4    3    1
 -1         1-3.38932E+06-1.10574E+06-6.88694E+05-1.04137E+06-2.18279E-10 3.38575E-09
 -1         2-1.76820E+06-2.36213E+04 2.49959E+04-1.34841E+05-1.00044E-10 4.08454E-09
 -1         3-1.34572E+06-4.58970E+05-4.40993E+04-1.12306E+05-2.72371E-09 2.13322E-09
 -1         4-7.72751E+05-1.29917E+05 9.99229E+02-5.22987E+04 3.79032E-10 2.98996E-09
 -1         5-3.92602E+05 1.75314E+05-1.78524E+05-1.62704E+04 7.16682E-09 6.76687E-09
 -1         8-1.49569E+06-5.85347E+05-1.78784E+05-6.66114E+05 1.63709E-10 3.34694E-10
 -1         9-1.81109E+06-3.90211E+05-1.99368E+05-5.12221E+05-1.40426E-09 1.11565E-10
 -1        10-5.78934E+05-4.23297E+05 6.31784E+04-9.80947E+04-2.39726E-09 2.16528E-09
 -1        11-5.63588E+05-1.35377E+05 5.45260E+03-6.13783E+04-7.79967E-09-1.62648E-09
 -1        12-4.22954E+05 1.42507E+05-1.88797E+05-8.77770E+04 8.10724E-09 7.53182E-10
 -1        15 7.41644E+04 8.18046E+04 2.50741E+04-3.23080E+03 1.14596E-09-8.82210E-10
 -1        16-1.45539E+06-3.17765E+05-4.72178E+04-5.62342E+05 1.43700E-09 2.12215E-10
 -1        17-7.87325E+05-5.07236E+05-9.81962E+04-3.79450E+05-1.75229E-09 1.47702E-09
 -1        18-1.28629E+05-1.17530E+05-7.87557E+04-1.46253E+05 3.67587E-09 1.47338E-10
 -1        19-3.23314E+04 1.08137E+05-6.38574E+04-6.42266E+04 6.57262E-10 6.96673E-10
 -1        20 1.29594E+05-9.52277E+04-1.50993E+04 6.79271E+04 1.51913E-08-2.51930E-10
 -1        21-8.00160E+02-1.94888E+05 4.38041E+04 1.09480E+03 2.66677E-08-3.87641E-09
 -1        22 3.49886E+04 1.71633E+05 1.07739E+03-2.93606E+04 5.09317E-11 8.54925E-11
 -1        23 1.04458E+04 5.28187E+04 2.44839E+04-1.64291E+05-5.60681E-09 1.22539E-09
 -1        24-2.52002E+05-1.17520E+04 2.79386E+05-5.09717E+05-5.96992E-09-1.16900E-09
 -1        25 6.24462E+05 2.42925E+05 2.03585E+05-3.32878E+05 1.58191E-09-1.40305E-09
 -1        26 6.00638E+03 2.29295E+05 1.31290E+04-4.29924E+04-9.34051E-10 2.58691E-09
 -1        27-5.34282E+04-8.23916E+04-3.54862E+04 9.01316E+04 1.01151E-08-6.52411E-10
 -1        28-1.73072E+04-1.50266E+05-9.44991E+02 7.15252E+04 1.03014E-08 2.77384E-10
 -1        29 4.21092E+05 2.99109E+05 1.30251E+03-1.33541E+04 3.26757E-10 2.17142E-09
 -1        30 8.37223E+04 4.47831E+04 1.73742E+03-8.45580E+04 3.26864E-09 5.10772E-09
 -1        31-3.98641E+05 6.08976E+04 9.81756E+03-2.51079E+04-1.09655E-08 1.40499E-08
 -1        32 9.34860E+05 5.48098E+05 6.23623E+05-5.05623E+05 7.29552E-09 4.66389E-09
 -1        33 1.41775E+06 6.49508E+05 4.55520E+05-6.49820E+04-1.32193E-08 1.73441E-09
 -1        34-2.61962E+05-3.95523E+04-1.44215E+04 4.48151E+04-2.09121E-09-1.91994E-09
 -1        35-4.09559E+04-4.93501E+04-9.56475E+02 1.05878E+05 1.41974E-08 4.13517E-09
 -1        36-4.08058E+06 1.15880E+05-2.70857E+05-1.43027E-07-4.28242E-10-2.18279E-10
 -1        37-4.19734E+06-1.34230E+05-1.91210E+05-1.72502E-07-1.47558E-09-7.89441E-09
 -1        38-4.12569E+06 1.79472E+04-7.00599E+04 8.49899E-08-7.65653E-10-2.23008E-09
 -1        39-4.14456E+06-2.07811E+04-4.38751E+04 1.00515E-07 4.72158E-10 1.69803E-09
 -1        40-4.13302E+06 2.77439E+03-1.79910E+04-7.63252E-08-1.23257E-09-5.54974E-09
 -1        41-4.13594E+06-3.25237E+03-1.07116E+04-1.52714E-07-1.17528E-09-7.29983E-10
 -1        42-4.13422E+06 4.70179E+02-5.28501E+03-3.80922E-08-4.40206E-10-5.75687E-09
 -1        43-4.13467E+06-8.42295E+02-4.23753E+03-1.58991E-07-8.47967E-10-6.88712E-09
 -1        44-4.13427E+06 3.70709E+02-4.35678E+03-2.88155E-07 2.07314E-11-3.93004E-09
 -1        45-4.13546E+06-2.38800E+03-8.03280E+03 7.18160E-08-1.40166E-09 1.11040E-08
 -1        46-4.13343E+06 2.01162E+03-1.31482E+04 5.04573E-08 5.73181E-10 1.03319E-09
 -1        47-4.14168E+06-1.50388E+04-3.18099E+04 7.65352E-08-4.50767E-10-1.55978E-10
 -1        48-4.12813E+06 1.29839E+04-5.07199E+04 1.80926E-07-9.52563E-10-2.40107E-10
 -1        49-4.17986E+06-9.71074E+04-1.38346E+05 5.88698E-07-2.57314E-09-1.36788E-09
 -1        50-4.09551E+06 8.38245E+04-1.96017E+05 2.22814E-07-5.77301E-09 3.28873E-09
 -1        51 4.02700E+04-4.48953E+05 6.60555E+04-1.22585E+06 2.91038E-11 2.09548E-09
 -1        52 1.95167E+04-4.45333E+05 3.97791E+04-1.35461E+06-2.18279E-11 1.93540E-09
 -1        53 1.33145E+04-4.60787E+05 3.08248E+04-1.22245E+06 6.03904E-10-7.85803E-10
 -1        54 2.93720E+04-4.58224E+05 4.56392E+04-1.35811E+06 2.91038E-10 3.83807E-09
 -1        55 6.22528E+04-4.73564E+05 8.14210E+04-1.22174E+06 4.51109E-10 8.56744E-09
 -1        56-5.64764E+06-6.35464E+05-4.65246E+05-2.18287E+06 8.80391E-10 2.82307E-09
 -1        57-5.85243E+06-1.02956E+06-3.12363E+05-2.14431E+06 1.05501E-09 1.59489E-08
 -1        58-5.73898E+06-7.81739E+05-1.09423E+05-2.15618E+06-1.12777E-09 3.07045E-09
 -1        59-5.74759E+06-8.56291E+05-6.48821E+04-2.17507E+06 5.46152E-10 1.00590E-09
 -1        60-5.75092E+06-8.02898E+05-2.55391E+04-2.15398E+06 1.24146E-10-5.85442E-09
 -1        61-5.73629E+06-8.28799E+05-1.44439E+04-2.17451E+06-3.06159E-09-5.89728E-09
 -1        62-5.74990E+06-8.08518E+05-7.06805E+03-2.15689E+06 1.38107E-09 1.90187E-09
 -1        63-5.74124E+06-8.19054E+05-5.91190E+03-2.16693E+06 1.05615E-10 6.31502E-09
 -1        64-5.74586E+06-8.12602E+05-6.96804E+03-2.16153E+06 8.01037E-10 6.14273E-09
 -1        65-5.75130E+06-8.13540E+05-1.41113E+04-2.15712E+06-1.49703E-09 6.61908E-09
 -1        66-5.73988E+06-8.14114E+05-2.49461E+04-2.16667E+06-1.02170E-09 5.86078E-09
 -1        67-5.77334E+06-8.29343E+05-6.32919E+04-2.14511E+06-1.60799E-09-2.06001E-09
 -1        68-5.72419E+06-7.97493E+05-1.06762E+05-2.17341E+06 2.38288E-10 4.13274E-09
 -1        69-5.87981E+06-9.94281E+05-3.04730E+05-2.11053E+06 4.56930E-09-2.11003E-09
 -1        70-5.63502E+06-6.54820E+05-4.53889E+05-2.19948E+06-2.86673E-09 6.40284E-10
 -1        71-2.77673E+06 3.28805E+04-7.69729E+04-6.50468E-08-8.04609E-10-2.79761E-09
 -1        72-2.80972E+06-3.80952E+04-5.43079E+04 2.79931E-09 2.39438E-10-5.68980E-09
 -1        73-2.78953E+06 5.09357E+03-1.99244E+04-1.94694E-07 7.92302E-10-1.38052E-08
 -1        74-2.79475E+06-5.89998E+03-1.24957E+04-1.24197E-08-5.13777E-10-1.00952E-08
 -1        75-2.79162E+06 7.89211E+02-5.16910E+03 6.91528E-08-7.85828E-10-2.18802E-09
 -1        76-2.79231E+06-9.37017E+02-3.15914E+03 9.66876E-08-3.55729E-10 1.05281E-08
 -1        77-2.79195E+06 1.45560E+02-1.71616E+03 1.31612E-07 1.21316E-09 1.71985E-09
 -1        78-2.79200E+06-3.31359E+02-1.67158E+03 1.97872E-07-1.47312E-09-3.43931E-10
 -1        79-2.79193E+06 1.85245E+02-2.08740E+03 1.59883E-07-2.26225E-09-5.78319E-09
 -1        80-2.79250E+06-1.28189E+03-4.22992E+03-7.75248E-08-4.13448E-10-2.62042E-09
 -1        81-2.79146E+06 1.09354E+03-7.10496E+03 1.10912E-07-1.65917E-10 5.94173E-09
 -1        82-2.79590E+06-8.19092E+03-1.73155E+04 2.26134E-07 1.85379E-09 6.40057E-10
 -1        83-2.78856E+06 7.07357E+03-2.76517E+04 2.55400E-07 6.61989E-11 3.47973E-09
 -1        84-2.81669E+06-5.29056E+04-7.54121E+04 1.70712E-07-1.69494E-09 5.46606E-10
 -1        85-2.77077E+06 4.56651E+04-1.06881E+05-9.43623E-09-2.28666E-09 8.65839E-09
 -1        86-9.73461E+04 5.64226E+05 2.32089E+05 8.19576E+03 3.17232E-09 1.72633E-09
 -1        87 1.23244E+05 6.70712E+05 1.82874E+05-3.89786E+04 5.22414E-09 7.28369E-09
 -1        88-2.53979E+04 5.98618E+05 9.83297E+04 5.13558E+03 5.04406E-09-5.50580E-09
 -1        89 9.67144E+04 6.57064E+05 1.47857E+05-3.64133E+04 7.47423E-09-6.60395E-09
 -1        90-7.08307E+04 5.77731E+05 1.72332E+05 5.63168E+03 4.09636E-09-7.18410E-09
 -1        91-1.50302E+06-2.00716E+05-8.65585E+03-4.72457E+05-3.62379E-08 2.13367E-09
 -1        92-8.52962E+05-2.49097E+05 8.36819E+04-5.80327E+05-3.68636E-08 1.60071E-09
 -1        93-1.37827E+06-7.96218E+04 3.38966E+03-3.48327E+05 2.65863E-08 2.70438E-09
 -1        94-9.96638E+05-3.63403E+05 1.66712E+04-7.15211E+05 2.64947E-09-2.58433E-09
 -1        95-1.37457E+06-7.47489E+04-3.28553E+03-3.47875E+05-1.19658E-08-3.99859E-09
 -1        96-8.75234E+05-2.85721E+05 5.03036E+04-5.76917E+05 4.86657E-08 1.33097E-08
 -1        97-1.48480E+06-1.68812E+05-4.62663E+04-4.76525E+05-7.18319E-09 6.75755E-09
 -1        98-8.38965E+05-1.07512E+05 8.99702E+04-3.26946E+05-2.00798E-08 1.30126E-09
 -1        99-1.39645E+06-2.63804E+05-4.81054E+04-5.85992E+05 1.29821E-08 6.44377E-10
 -1       100-1.17501E+06 2.68117E+04 5.13993E+04-2.15641E+05-1.18062E-08-1.26893E-08
 -1       101-1.16310E+06-2.92110E+05-7.33772E+03-5.97937E+05 1.05310E-08-1.21252E-08
 -1       102-1.43330E+06 6.73456E+04 9.38753E+03-2.17175E+05 1.91847E-08 3.82456E-08
 -1       103-1.15251E+06-2.93580E+05-7.08981E+03-5.96906E+05-6.19148E-08-1.34878E-09
 -1       104-1.19750E+06 4.29566E+04 4.62280E+04-2.16196E+05-5.49851E-08 3.03078E-08
 -1       105-1.38607E+06-2.77307E+05-5.76517E+04-5.87731E+05-4.46944E-08-6.69797E-09
 -1       106-1.63655E+06 1.94153E+03-4.55123E+03-1.52368E-07 3.53811E-10 2.11821E-09
 -1       107-1.63837E+06-2.24991E+03-3.21586E+03 8.67565E-07 7.63542E-10 1.94899E-09
 -1       108-1.63731E+06 3.01070E+02-1.19267E+03-7.10331E-07 9.83163E-10 2.79954E-10
 -1       109-1.63749E+06-3.50743E+02-7.70055E+02 1.68365E-06-9.25986E-10-2.82890E-09
 -1       110-1.63743E+06 4.86511E+01-3.66086E+02-9.01529E-07-2.09214E-10-3.58924E-10
 -1       111-1.63735E+06-7.11689E+01-3.15624E+02 1.28286E-06-3.46742E-10-4.23453E-10
 -1       112-1.63744E+06 2.23802E+01-3.43587E+02-3.32213E-07 5.07165E-11-2.12228E-09
 -1       113-1.63739E+06-1.24603E+02-6.30029E+02-1.41590E-07-7.81144E-10 3.44111E-09
 -1       114-1.63739E+06 1.02016E+02-1.09004E+03 3.22680E-07-1.04208E-09 3.80180E-09
 -1       115-1.63773E+06-7.63200E+02-2.46773E+03-1.22584E-06-1.10470E-09-9.70115E-09
 -1       116-1.63710E+06 6.59309E+02-4.25694E+03 9.25005E-07-9.96501E-11-6.08293E-09
 -1       117-1.63979E+06-4.94773E+03-1.04515E+04-1.66369E-06-1.48508E-09-4.64388E-09
 -1       118-1.63535E+06 4.27390E+03-1.67155E+04 8.10334E-07-1.80948E-09-3.83352E-09
 -1       119-1.65234E+06-3.19674E+04-4.55847E+04-1.16400E-06-1.88917E-09-5.84214E-09
 -1       120-1.62458E+06 2.75915E+04-6.46147E+04 3.68977E-07 2.40569E-10-1.05865E-09
 -1       121-3.54702E+03-1.43328E+06 1.36676E+04 2.01047E+03-1.63163E-09 2.76214E-09
 -1       122 4.23581E+03-1.42791E+06 7.80071E+03 6.75189E+03-1.27193E-09-5.15820E-09
 -1       123-2.09645E+02-1.43093E+06 1.07300E+03 2.73259E+03-4.16617E-09-2.74213E-09
 -1       124-2.79130E+03-1.43198E+06-4.34440E+03 5.27789E+03-2.89947E-09-1.01081E-08
 -1       125 2.25828E+03-1.42919E+06-9.16136E+03 3.48260E+03-7.01630E-09-5.48698E-09
 -1       126-1.16923E+06-1.59342E+05 1.68246E+04-4.02442E+05 1.77934E-08 5.62795E-09
 -1       127-9.76506E+05-1.93017E+05 3.14504E+04-4.74214E+05 4.62392E-08 7.77391E-10
 -1       128-1.15382E+06-1.13828E+05 4.62224E+03-3.62471E+05 2.15373E-08 5.84123E-09
 -1       129-9.99110E+05-2.41778E+05 6.11015E+03-5.21536E+05-3.00512E-08-8.78492E-09
 -1       130-1.14994E+06-1.07934E+05 1.06432E+03-3.57568E+05 4.52246E-10-7.51197E-09
 -1       131-9.89160E+05-2.21273E+05 9.17448E+03-4.87837E+05 3.20688E-08-3.55550E-09
 -1       132-1.16148E+06-1.36223E+05-8.29067E+03-3.94469E+05 1.67538E-08-7.59565E-09
 -1       133-9.98123E+05-1.57308E+05 1.87734E+04-4.02207E+05-1.87010E-08-1.09731E-09
 -1       134-1.13732E+06-1.74855E+05-1.19268E+04-4.40293E+05 1.39698E-09 5.94810E-10
 -1       135-1.08630E+06-9.28209E+04 1.32128E+04-3.32873E+05 3.94355E-08 2.86002E-09
 -1       136-1.07489E+06-1.99377E+05-6.33369E+03-4.64899E+05-5.41604E-09 7.51811E-09
 -1       137-1.18214E+06-6.11653E+04-3.16525E+03-3.06390E+05-1.32294E-07 3.81647E-10
 -1       138-1.04536E+06-2.03381E+05-9.95854E+03-4.69993E+05-1.84025E-08 6.42649E-09
 -1       139-1.17531E+06-8.16570E+04-2.44592E+04-3.06467E+05 6.46282E-08 1.40287E-08
 -1       140-1.08106E+06-1.79525E+05-5.11624E+04-4.64210E+05-2.23918E-09-4.11819E-09
 -1       141-7.48516E+05-6.13122E+03 1.43626E+04-2.83918E-08 6.04010E-10-8.23911E-09
 -1       142-7.42246E+05 7.10355E+03 1.01188E+04 8.31375E-08 3.83792E-11-5.15445E-09
 -1       143-7.46122E+05-9.49162E+02 3.68579E+03-6.00671E-08-4.63209E-10-9.41554E-10
 -1       144-7.45040E+05 1.09451E+03 2.25634E+03-2.00150E-07-6.87303E-11 2.61733E-09
 -1       145-7.45727E+05-1.42081E+02 8.15854E+02-7.66399E-08-3.13492E-10-3.70522E-09
 -1       146-7.45518E+05 1.35210E+02 2.68775E+02-3.17227E-08-2.74889E-10-6.78921E-09
 -1       147-7.45644E+05 7.27952E+00-2.84333E+02 1.90918E-08 5.69595E-11 8.29536E-09
 -1       148-7.45712E+05-2.00544E+02-1.01582E+03 2.26826E-08-2.67489E-10 6.67342E-10
 -1       149-7.45535E+05 1.92930E+02-2.02721E+03-7.29972E-09-9.75808E-11 1.02352E-09
 -1       150-7.46397E+05-1.47808E+03-4.75447E+03-1.95376E-08 5.53513E-10 1.24965E-09
 -1       151-7.44961E+05 1.28152E+03-8.26561E+03 5.13576E-08-1.57523E-10 4.00814E-09
 -1       152-7.50401E+05-9.62188E+03-2.03312E+04 2.37644E-07 8.56660E-11 4.28281E-09
 -1       153-7.41538E+05 8.31233E+03-3.25276E+04-3.79687E-08 2.04392E-09 5.34055E-09
 -1       154-7.74812E+05-6.21725E+04-8.86846E+04-1.05195E-07 5.17697E-10 2.11912E-09
 -1       155-7.20562E+05 5.36643E+04-1.25669E+05 1.55726E-08 4.27094E-09 2.28465E-09
 -1       156-2.49333E+04-2.76672E+05 5.86332E+04-2.48841E+04-1.27693E-09 1.24169E-09
 -1       157 3.15183E+04-2.45072E+05 4.70882E+04 1.07557E+05-4.17049E-09-1.34548E-10
 -1       158-6.18370E+03-2.67956E+05 2.47344E+04-2.48834E+04-3.46222E-09-1.18507E-09
 -1       159 2.55037E+04-2.31835E+05 4.15234E+04 1.03188E+05 3.59501E-09-1.56570E-09
 -1       160-2.00442E+04-2.88391E+05 4.00745E+04-2.05210E+04 3.08501E-09-3.82170E-09
 -1       161-8.52453E+05-1.17214E+05-5.49339E+03-3.19884E+05 1.07605E-09 3.49792E-09
 -1       162-8.52974E+05-1.24433E+05-3.80277E+03-3.21482E+05-1.10137E-09 3.80214E-09
 -1       163-8.53918E+05-1.18797E+05-1.30574E+03-3.19090E+05 9.26121E-11 1.64334E-10
 -1       164-8.51372E+05-1.22500E+05-8.43616E+02-3.22283E+05 9.17179E-10 2.04995E-09
 -1       165-8.54053E+05-1.19139E+05-3.87298E+02-3.19085E+05 1.14601E-09 4.13582E-09
 -1       166-8.51641E+05-1.21707E+05-3.71705E+02-3.21795E+05-6.39513E-10 2.92360E-09
 -1       167-8.53648E+05-1.19590E+05-4.63405E+02-3.19577E+05-5.01451E-10-3.54265E-09
 -1       168-8.52792E+05-1.20793E+05-9.60411E+02-3.20542E+05-1.09133E-09-6.02540E-11
 -1       169-8.52900E+05-1.20055E+05-1.73145E+03-3.20337E+05-1.50322E-10-6.95650E-10
 -1       170-8.54875E+05-1.20919E+05-4.28719E+03-3.18907E+05-6.63320E-10-3.02390E-09
 -1       171-8.51568E+05-1.19467E+05-7.45070E+03-3.21213E+05-1.56660E-10-4.56930E-09
 -1       172-8.61012E+05-1.28836E+05-1.99913E+04-3.16316E+05 3.41970E-10-3.83170E-09
 -1       173-8.46778E+05-1.12159E+05-3.21506E+04-3.22925E+05 1.50521E-09-3.56522E-10
 -1       174-8.93630E+05-1.85332E+05-9.49912E+04-3.05497E+05 8.77662E-09-3.28328E-09
 -1       175-8.18992E+05-6.31200E+04-1.37133E+05-3.31985E+05 1.63200E-08-2.43745E-09
 -1       191 2.81354E+03 7.17495E+05 4.69811E+03-3.03445E+04-1.27329E-10 9.69521E-10
 -1       192 9.85072E+02 7.18210E+05 2.79273E+03-3.28980E+04-1.36788E-09 1.37243E-09
 -1       193 4.11891E+02 7.17694E+05 2.20189E+03-2.99810E+04-1.27784E-10-2.93221E-09
 -1       194 1.27594E+03 7.18237E+05 3.28368E+03-3.35550E+04-2.50293E-09-4.21369E-09
 -1       195 3.68703E+03 7.17295E+05 5.92091E+03-2.96809E+04 7.63976E-11 2.96313E-09
 -1       251-1.77927E+06-8.21735E+03-7.56992E+04-8.15305E+04-2.27010E-09 1.30967E-10
 -1       252-1.46908E+06 1.12029E+04 1.05068E+04 2.48057E+05 3.01907E-09 1.01040E-08
 -1       253-1.63362E+06-4.10021E+03-1.26562E+04-1.66791E+05-9.97989E-09-1.06229E-08
 -1       254-1.60796E+06 2.04600E+04 2.25479E+03 3.24276E+05 9.78497E-09 3.54703E-09
 -1       255-1.65430E+06-6.14102E+03-9.31526E+03-1.58501E+05-7.19592E-09-1.33105E-09
 -1       256-1.42060E+06 1.67195E+04 4.08797E+04 2.17688E+05 1.70439E-09 9.72932E-09
 -1       257-1.80265E+06-1.52512E+04-3.96778E+04-5.93220E+04 2.73649E-08-1.36788E-09
 -1       258-1.27622E+06 1.32210E+04 6.82346E+04-2.06569E+04 2.47428E-08 2.64390E-09
 -1       259-1.78451E+06-1.41419E+04-3.57189E+04 7.91701E+04-2.30411E-08 7.20672E-09
 -1       260-1.46129E+06 1.76050E+04 3.34105E+04-2.46015E+05-1.14869E-08-1.07605E-09
 -1       261-1.63576E+06-4.88019E+03-5.16450E+03 1.65686E+05 2.55432E-08 9.59449E-09
 -1       262-1.60820E+06 2.03952E+04 2.39524E+03-3.24956E+05-3.26737E-08-1.46035E-08
 -1       263-1.65197E+06-5.25657E+03-1.62509E+04 1.58871E+05-1.94905E-09 3.74257E-09
 -1       264-1.42777E+06 1.07903E+04 1.90393E+04-2.20906E+05 7.44221E-08-3.38969E-09
 -1       265-1.79823E+06-9.90252E+03-7.83160E+04 6.07683E+04 2.10057E-08 1.01663E-08
 -1       266-3.91600E+04-1.67902E+05 9.18615E+04-1.67972E+04 8.00355E-11-4.20977E-09
 -1       267 4.37710E+04-1.25150E+05 6.32527E+04 7.64863E+04-1.81899E-12-1.06353E-08
 -1       268-4.82818E+03-1.54328E+05 1.92171E+04-1.61203E+04 5.45697E-12-6.18047E-09
 -1       269-9.23487E+02-1.32815E+05 6.42659E+03 7.32509E+04-3.41061E-11 3.50519E-09
 -1       270 4.48902E+03-1.59013E+05-1.35710E+04-1.35825E+04 2.50111E-10 1.31054E-08
 -1       271-4.81992E+06-6.03779E+05-3.81430E+05-1.87136E+06-1.22236E-09-1.52795E-09
 -1       272-4.96097E+06-8.57715E+05-2.42429E+05-1.86369E+06 5.16593E-10-3.02316E-09
 -1       273-4.88997E+06-6.91688E+05-8.99573E+04-1.85663E+06 4.17504E-09-2.53567E-09
 -1       274-4.87839E+06-7.47096E+05-4.97329E+04-1.88805E+06 5.42968E-09 6.58747E-09
 -1       275-4.90033E+06-6.99130E+05-2.09246E+04-1.85281E+06 3.20324E-09 1.66438E-10
 -1       276-4.86562E+06-7.38461E+05-1.11171E+04-1.89445E+06 1.05865E-09 1.18712E-09
 -1       277-4.90285E+06-6.98626E+05-5.68700E+03-1.85102E+06-2.61480E-10-2.71234E-09
 -1       278-4.86285E+06-7.39155E+05-4.49494E+03-1.89694E+06 3.80169E-10 5.69628E-09
 -1       279-4.90331E+06-6.98173E+05-5.38948E+03-1.85053E+06 2.43745E-10 7.78573E-09
 -1       280-4.86400E+06-7.40013E+05-1.03351E+04-1.89653E+06 2.89810E-09 4.52769E-09
 -1       281-4.90171E+06-6.97886E+05-1.92915E+04-1.85138E+06 1.56024E-09-5.80076E-09
 -1       282-4.87462E+06-7.49200E+05-4.58776E+04-1.89211E+06 3.96881E-10-4.51473E-09
 -1       283-4.89270E+06-6.90483E+05-8.28976E+04-1.85430E+06-9.80435E-10-2.69938E-09
 -1       284-4.94984E+06-8.52072E+05-2.23498E+05-1.87065E+06-6.73026E-11 5.77711E-09
 -1       285-4.82847E+06-6.09119E+05-3.51631E+05-1.86750E+06 8.40373E-10-1.25146E-09
 -1       286-7.56442E+05-1.75720E+04 4.10247E+04-2.32213E+03 2.66550E-09 1.06957E-09
 -1       287-7.37673E+05 2.03472E+04 2.91174E+04-3.96065E+01 1.20613E-09 5.81076E-09
 -1       288-7.49624E+05-2.73925E+03 1.05728E+04 2.77343E+02-3.65731E-10 2.92584E-09
 -1       289-7.45779E+05 3.16056E+03 6.77650E+03-4.99224E+03-6.00693E-10 2.34013E-09
 -1       290-7.48363E+05-4.33498E+02 2.71908E+03 2.63057E+03 1.52835E-09 1.58491E-09
 -1       291-7.47420E+05 5.19526E+02 1.71688E+03-8.76577E+03 3.15708E-09 1.56129E-09
 -1       292-7.48019E+05-8.17165E+01 8.89868E+02 4.05093E+03 2.10711E-09-5.10425E-10
 -1       293-7.47787E+05 1.93499E+02 8.44522E+02-1.02714E+04 7.55290E-10 7.35940E-09
 -1       294-7.48015E+05-9.43956E+01 1.01578E+03 4.13625E+03 1.75447E-09 2.40038E-09
 -1       295-7.47396E+05 6.35020E+02 2.06556E+03-9.08299E+03 5.67866E-10 2.49236E-09
 -1       296-7.48395E+05-5.33275E+02 3.36700E+03 2.86249E+03 9.29958E-11 2.26646E-09
 -1       297-7.45435E+05 3.92021E+03 8.36916E+03-5.53789E+03 2.03610E-09-9.99535E-10
 -1       298-7.49939E+05-3.39423E+03 1.31394E+04 5.91085E+02 2.00146E-10-1.07775E-09
 -1       299-7.35362E+05 2.52517E+04 3.61142E+04-6.66496E+02-2.04906E-09-2.44063E-09
 -1       300-7.58432E+05-2.18055E+04 5.09449E+04-2.00900E+03-4.82714E-10-5.23141E-09
 -1       301 6.41622E+04 3.15775E+04 1.37529E+05-3.45401E+04-3.64525E-09 1.99702E-09
 -1       302 2.17302E+04 5.70496E+04 8.34301E+04-4.04877E+04-2.13277E-10 5.11591E-10
 -1       303 6.35942E+03 4.06227E+04 6.58860E+04-3.46811E+04-3.56613E-09-7.74776E-10
 -1       304 2.68967E+04 6.00021E+04 9.69484E+04-4.04518E+04-2.46473E-10-2.12697E-09
 -1       305 8.09921E+04 2.86517E+04 1.70408E+05-3.45238E+04-3.20870E-09 2.44586E-09
 -1       306-3.38056E+06-4.32307E+05-2.34716E+05-1.30982E+06-6.29370E-10 3.78350E-09
 -1       307-3.44845E+06-6.06487E+05-1.49023E+05-1.32616E+06 4.80441E-10 1.33150E-09
 -1       308-3.42396E+06-4.85855E+05-5.53988E+04-1.30049E+06-2.66436E-09-3.92902E-10
 -1       309-3.39770E+06-5.38856E+05-3.06122E+04-1.34170E+06-1.65483E-09-4.94038E-09
 -1       310-3.43040E+06-4.90322E+05-1.29230E+04-1.29812E+06 3.11047E-10-2.41562E-09
 -1       311-3.39012E+06-5.33415E+05-6.91817E+03-1.34560E+06 1.84264E-09 5.54905E-10
 -1       312-3.43181E+06-4.90147E+05-3.64798E+03-1.29720E+06-1.27784E-10-1.40574E-10
 -1       313-3.38890E+06-5.33400E+05-3.09588E+03-1.34660E+06 2.25896E-10 3.84352E-09
 -1       314-3.43175E+06-4.90180E+05-3.98385E+03-1.29724E+06-1.88356E-09-3.17277E-09
 -1       315-3.39038E+06-5.33403E+05-7.84841E+03-1.34540E+06 7.80574E-10 1.65596E-09
 -1       316-3.43017E+06-4.90331E+05-1.47991E+04-1.29825E+06 2.10139E-09 2.80215E-09
 -1       317-3.39894E+06-5.39856E+05-3.51569E+04-1.34118E+06 2.98314E-10 2.93949E-09
 -1       318-3.42293E+06-4.85018E+05-6.36300E+04-1.30079E+06 1.38039E-09 2.80488E-09
 -1       319-3.45687E+06-6.18013E+05-1.71233E+05-1.32389E+06-6.28006E-10 2.16096E-09
 -1       320-3.37335E+06-4.23160E+05-2.69617E+05-1.31118E+06-3.92902E-10 1.76078E-09
 -1       321-6.73265E+05-2.54140E+04 5.83421E+04 2.33407E+03-9.41554E-10-4.03816E-10
 -1       322-6.41930E+05 2.93708E+04 4.22408E+04-1.68544E+04 1.20895E-09 1.90130E-09
 -1       323-6.62178E+05-3.98381E+03 1.50021E+04 7.55314E+03-2.28306E-09 4.67207E-09
 -1       324-6.55915E+05 4.68433E+03 9.74483E+03-2.48932E+04-8.40757E-09-4.19368E-09
 -1       325-6.59535E+05-6.28643E+02 3.87843E+03 1.03734E+04 1.48091E-09 2.88537E-10
 -1       326-6.58783E+05 8.83681E+02 2.28752E+03-2.73722E+04 4.14115E-09 4.07726E-09
 -1       327-6.59407E+05-1.24395E+02 9.68555E+02 1.00328E+04-4.38337E-09-5.23960E-09
 -1       328-6.57641E+05 2.50935E+02 8.88433E+02-2.36143E+04 2.85490E-09 1.34207E-09
 -1       329-6.60544E+05-1.04762E+02 5.88437E+01 6.61458E+03 2.15903E-09-1.89225E-10
 -1       330-6.55146E+05 1.53513E+02 1.11793E+03-1.45393E+04-3.23149E-09-4.26814E-09
 -1       331-6.61662E+05-2.10087E+02-6.56968E+01 9.57851E+02-2.96791E-09 4.05876E-10
 -1       332-6.53775E+05 5.65133E+02 1.99911E+03-2.40687E+03 1.10227E-08 5.76449E-09
 -1       333-6.61792E+05-5.99684E+02 1.05358E+03-5.51553E+03 7.48446E-09-1.95979E-09
 -1       334-6.53884E+05 3.31783E+03 5.07084E+03 9.72290E+03 8.80033E-09 4.35074E-09
 -1       335-6.61657E+05-2.85757E+03 5.75565E+03-1.11710E+04-1.27469E-08 3.96540E-10
 -1       336 2.56567E+03-1.42923E+06-1.26191E+04-4.33367E+03-8.50059E-09 4.50609E-09
 -1       337-4.87379E+03-1.43426E+06-1.41186E+04-3.23048E+04-5.80013E-09-8.23991E-09
 -1       338 1.76450E+03-1.42970E+06-1.70593E+04-4.11145E+03-9.14861E-09 9.19385E-10
 -1       339-1.86760E+04-1.44234E+06-3.80182E+04-3.25249E+04-6.09725E-09 9.48572E-09
 -1       340 1.40468E+04-1.42121E+06-5.75022E+04-4.12008E+03-8.96034E-09 7.05006E-09
 -1       341-1.29829E+06-2.34202E+05-3.20405E+04-5.37528E+05-4.63479E-09 3.26361E-09
 -1       342-1.25349E+06-3.56406E+04 1.98806E+04-3.03990E+05-1.08935E-09-3.19915E-09
 -1       343-1.17096E+06-2.55769E+05-4.14629E+03-5.55782E+05-7.68159E-09-4.18042E-08
 -1       344-1.37855E+06-1.06531E+04 4.04060E+03-2.91189E+05 3.24657E-08-1.24724E-08
 -1       345-1.17954E+06-2.54467E+05-4.16847E+03-5.55629E+05-8.55880E-09-7.77618E-10
 -1       346-1.23274E+06-4.53217E+04 2.56589E+04-3.06861E+05 1.88024E-08 1.86869E-08
 -1       347-1.30939E+06-2.26639E+05-2.46316E+04-5.33940E+05 1.51003E-08 5.36738E-09
 -1       348-1.03657E+06-1.43563E+05 4.37334E+04-3.98392E+05 1.75673E-08 2.13618E-10
 -1       349-1.36879E+06-1.61510E+05-2.47211E+04-4.59122E+05 1.67302E-08 2.78715E-09
 -1       350-1.02758E+06-2.63822E+05 1.99054E+04-5.57214E+05-1.15266E-07-3.56249E-08
 -1       351-1.32574E+06-1.00850E+05-9.68432E+03-3.81020E+05-5.90799E-08-2.01908E-09
 -1       352-1.08016E+06-3.24211E+05-1.39037E+04-6.37571E+05 1.41632E-07-1.83550E-08
 -1       353-1.32339E+06-9.56480E+04-3.40283E+04-3.83802E+05 2.70858E-08-2.33122E-08
 -1       354-1.05786E+06-3.15292E+05-6.33219E+04-5.41498E+05-9.57806E-08 4.64024E-09
 -1       355-1.34052E+06-1.15693E+05-1.56288E+05-4.71733E+05-2.78587E-08 3.72529E-09
 -1       356-7.13787E+05-7.83327E+02 1.13781E+03-1.35138E+04-9.65997E-10-7.70115E-10
 -1       357-7.10041E+05 1.01936E+03 1.46112E+03 1.60758E+04-1.72867E-08-2.06217E-09
 -1       358-7.14997E+05-2.85706E+02-1.37326E+02-8.39875E+03-6.78574E-09-3.38029E-09
 -1       359-7.08000E+05 2.48758E+02 1.09460E+03 4.10016E+03 7.03727E-09 2.34574E-09
 -1       360-7.15628E+05-1.83755E+02-6.15340E+02-1.53740E+03 4.37444E-09 1.51744E-09
 -1       361-7.08157E+05 6.18309E+01 6.98109E+02-9.52032E+03 1.47566E-09-2.19200E-09
 -1       362-7.14860E+05-9.17285E+01-8.94714E+02 5.21937E+03-5.66592E-09-3.15725E-09
 -1       363-7.10633E+05-8.23363E+01-6.14077E+02-2.10970E+04 5.99124E-09 3.59438E-09
 -1       364-7.13377E+05 1.32578E+02-2.12861E+03 1.00383E+04 1.19533E-08 2.63810E-09
 -1       365-7.13494E+05-1.22116E+03-4.54951E+03-2.75145E+04-1.51319E-08-2.43176E-09
 -1       366-7.12207E+05 1.20585E+03-8.00159E+03 1.16381E+04 1.14805E-08 1.84491E-09
 -1       367-7.17183E+05-9.08872E+03-1.95790E+04-2.70689E+04 1.26636E-08-1.11936E-09
 -1       368-7.09678E+05 7.96405E+03-3.16673E+04 9.59246E+03 4.99585E-09-3.37604E-09
 -1       369-7.38376E+05-5.99164E+04-8.53097E+04-1.97736E+04 1.05834E-08-8.36735E-10
 -1       370-6.90802E+05 5.16969E+04-1.22230E+05 4.34163E+03 6.90648E-09 5.39876E-09
 -1       371-1.75882E+04-3.03419E+05 3.48658E+04-1.33663E+04 9.79708E-09 1.98270E-09
 -1       372 1.68312E+04-2.64321E+05 2.42888E+04 7.34871E+04 7.49424E-10 2.09138E-09
 -1       373 8.81039E+01-2.86911E+05-3.55206E+01-1.73137E+04 1.34514E-09-7.62725E-10
 -1       374-1.60503E+04-2.90498E+05-2.04455E+04 7.79616E+04-1.66619E-09-2.44268E-09
 -1       375 1.59394E+04-2.78287E+05-3.62194E+04-1.78338E+04-9.74978E-10 3.78293E-09
 -1       376-1.01782E+06-1.60376E+05-4.12168E+04-4.28268E+05-2.44927E-09-2.16460E-10
 -1       377-1.10986E+06-1.03845E+05-2.52145E+04-3.21125E+05 7.92297E-08 1.86810E-09
 -1       378-1.00965E+06-1.78589E+05-8.97186E+03-4.30616E+05 1.02523E-08-2.40743E-09
 -1       379-1.09606E+06-9.07634E+04-3.62987E+03-3.25570E+05 1.27745E-08-5.66342E-09
 -1       380-1.03141E+06-1.73572E+05-4.68630E+03-4.23672E+05-3.92902E-09 2.06319E-09
 -1       381-1.03940E+06-1.15721E+05 5.93410E+03-3.51079E+05-8.93965E-09 7.28903E-09
 -1       382-1.06446E+06-1.55038E+05-6.16828E+03-4.03646E+05 1.07166E-08 3.51520E-10
 -1       383-9.91802E+05-1.58709E+05 6.99989E+03-3.99430E+05-6.56655E-10 2.39214E-09
 -1       384-1.07868E+06-1.30842E+05-5.10909E+03-3.75125E+05-1.65301E-08 2.83075E-09
 -1       385-9.81404E+05-1.97894E+05-1.10490E+03-4.48336E+05-3.23791E-09-8.66100E-09
 -1       386-1.07665E+06-1.14485E+05-7.25124E+03-3.56113E+05 6.21390E-09 1.10158E-08
 -1       387-9.87459E+05-2.16741E+05-1.84292E+04-4.61352E+05-1.71203E-08 5.59794E-10
 -1       388-1.07344E+06-1.11409E+05-3.22877E+04-3.62689E+05 4.83897E-09 1.17507E-08
 -1       389-1.01837E+06-2.46787E+05-8.63323E+04-4.19144E+05 9.03970E-09-1.65528E-09
 -1       390-1.04418E+06-8.58108E+04-1.38076E+05-3.97090E+05 1.11995E-08-2.64117E-09
 -1       406 2.92809E+03 7.02894E+05 5.51497E+03-9.55392E+04 1.29148E-10-1.17325E-09
 -1       407 1.61908E+03 7.03803E+05 5.48783E+03-1.05468E+05-5.03042E-09 4.39468E-09
 -1       408 1.99721E+03 7.02805E+05 8.03171E+03-9.52806E+04-1.44610E-10 4.20005E-09
 -1       409 7.54203E+03 7.05785E+05 1.66139E+04-1.05767E+05-5.45606E-09 4.95720E-09
 -1       410 2.15411E+04 7.00648E+05 3.31496E+04-9.52078E+04 1.00044E-10 4.60159E-09
 -1       466 1.12195E+06-4.41721E+04 9.66777E+04 3.75190E+04 2.51021E-10-1.02082E-08
 -1       467 1.20416E+06 4.95958E+04 7.50175E+04-7.26340E+04-5.11136E-10 3.01225E-09
 -1       468 1.15155E+06-6.44257E+03 2.52900E+04 1.56955E+04-1.05570E-09-5.92809E-09
 -1       469 1.16740E+06 7.16157E+03 1.72050E+04-4.01899E+04 8.26162E-10 2.34036E-09
 -1       470 1.15726E+06-9.16075E+02 6.71672E+03 5.05532E+03 7.03153E-10 1.68257E-10
 -1       471 1.16021E+06 1.11795E+03 4.50863E+03-2.45774E+04-2.65914E-10-4.50763E-09
 -1       472 1.15838E+06-1.72498E+02 2.64620E+03 8.16626E+01 1.35287E-09 1.49350E-09
 -1       473 1.15897E+06 6.37386E+02 3.11517E+03-1.78431E+04 6.05723E-10-6.70551E-09
 -1       474 1.15841E+06-3.76572E+02 4.40141E+03-1.67879E+03 4.77257E-10 5.04951E-09
 -1       475 1.16005E+06 2.89968E+03 9.33465E+03-1.66741E+04 2.23004E-09 3.88650E-09
 -1       476 1.15729E+06-2.42101E+03 1.58669E+04-1.08726E+03 2.64887E-09 4.90854E-09
 -1       477 1.16807E+06 1.83232E+04 3.88238E+04-2.05042E+04-7.50902E-10-5.18730E-09
 -1       478 1.15041E+06-1.57799E+04 6.18417E+04 2.15140E+03 1.07889E-10-4.32919E-09
 -1       479 1.21655E+06 1.18244E+05 1.69088E+05-3.14759E+04 2.72357E-09-4.35830E-09
 -1       480 1.10897E+06-1.02114E+05 2.38688E+05 9.88307E+03 3.22825E-09 2.02272E-09
 -1       481-1.17809E+04 2.71234E+05 2.04444E+04-2.31435E+04-1.80080E-10 1.71076E-09
 -1       482 1.23732E+04 3.19378E+05 2.19556E+04 7.95794E+04-1.89402E-10 1.53250E-08
 -1       483-1.87651E+03 2.87753E+05 7.42857E+03-1.78911E+04 7.00311E-11 4.36421E-09
 -1       484 5.12348E+03 2.98527E+05 9.84325E+03 7.26732E+04 1.09921E-10-1.50703E-09
 -1       485-3.43902E+03 2.90482E+05 9.26106E+03-1.62151E+04 5.59339E-11-1.36357E-09
 -1       486-1.13942E+06-2.20826E+05-1.44994E+05-5.37275E+05-4.29281E-10-1.86956E-08
 -1       487-1.13468E+06 2.35076E+04-3.46376E+04-1.55865E+05 1.23650E-08 2.61525E-08
 -1       488-9.65297E+05-2.58091E+05-2.53426E+04-5.25364E+05-1.32031E-08 1.84209E-08
 -1       489-1.25797E+06 7.03589E+04-4.79891E+03-1.70374E+05-6.46679E-09 2.97223E-08
 -1       490-1.02411E+06-2.61791E+05-1.71996E+04-5.29922E+05-8.63474E-09 3.02548E-08
 -1       491-9.64577E+05 3.52206E+04 5.39325E+04-1.62862E+05-3.90082E-09 1.40858E-08
 -1       492-1.24250E+06-2.34728E+05-5.12416E+04-5.18916E+05-1.98816E-09-5.79621E-09
 -1       493-6.59189E+05-8.67288E+04 9.04207E+04-2.63463E+05 2.92548E-08 1.45246E-08
 -1       494-1.31644E+06-1.49693E+05-4.89316E+04-4.20545E+05 8.87667E-10-1.56697E-08
 -1       495-7.05997E+05-2.48879E+05 4.93003E+04-4.92929E+05 2.82489E-09-3.94449E-08
 -1       496-1.20940E+06-6.25268E+04-1.39611E+04-3.00818E+05 5.54974E-09-3.37526E-08
 -1       497-8.53968E+05-3.38583E+05-4.81531E+03-6.39384E+05-3.11328E-08-1.46183E-08
 -1       498-1.18499E+06-4.75287E+04-2.52637E+04-2.85094E+05-2.23489E-08 8.65602E-08
 -1       499-7.69232E+05-3.11464E+05-2.47643E+04-5.38297E+05-2.17938E-09 1.33141E-08
 -1       500-1.28291E+06-9.82383E+04-1.40696E+05-3.94533E+05 3.14679E-08-8.38190E-09
 -1       501-9.29000E+05-2.36035E+04 5.51316E+04-3.14396E+03 3.18545E-09-1.89539E-09
 -1       502-9.03912E+05 2.73386E+04 3.90986E+04 1.40756E+03 3.63116E-10 4.48836E-09
 -1       503-9.19886E+05-3.68162E+03 1.41856E+04 4.19553E+02-7.50958E-10 6.73026E-10
 -1       504-9.14760E+05 4.24954E+03 9.05892E+03-5.46394E+03 8.74422E-10-7.55790E-10
 -1       505-9.18188E+05-5.82600E+02 3.57311E+03 3.72763E+03 1.57343E-09-2.28965E-09
 -1       506-9.16991E+05 6.85142E+02 2.12839E+03-1.06595E+04 3.46517E-09-3.57068E-09
 -1       507-9.17706E+05-9.37736E+01 8.73253E+02 5.61521E+03 3.10744E-09 1.27415E-09
 -1       508-9.17521E+05 1.26222E+02 4.22362E+02-1.23654E+04 7.53843E-10-2.06404E-09
 -1       509-9.17681E+05-8.76326E+00 5.97874E+01 5.43365E+03 2.57901E-09 5.00148E-09
 -1       510-9.17321E+05-6.55642E+01-1.86081E+02-9.99510E+03 1.23163E-09-2.68372E-09
 -1       511-9.17878E+05 7.55034E+01-6.46797E+02 3.24476E+03 2.26066E-10 1.18641E-09
 -1       512-9.17189E+05-7.21340E+02-1.40294E+03-4.35701E+03-2.18165E-10 4.30191E-10
 -1       513-9.17771E+05 6.12146E+02-2.60841E+03-2.04541E+02-1.15836E-09-1.20508E-10
 -1       514-9.19051E+05-4.78393E+03-6.72302E+03 2.63093E+03-2.79360E-09-3.71074E-10
 -1       515-9.16016E+05 4.12209E+03-9.83374E+03-3.74312E+03-2.00941E-09-3.53612E-09
 -1       516-7.21248E+04 2.64080E+05 1.62545E+05 4.38027E+04 1.25801E-08 7.94353E-09
 -1       517 8.66574E+04 3.58718E+05 1.22890E+05-2.05157E+05 1.97324E-08 1.89639E-08
 -1       518-1.20676E+04 3.01133E+05 5.00703E+04 4.17328E+04 1.19380E-08 1.38446E-08
 -1       519 3.37180E+04 3.74767E+05 5.91503E+04-2.11536E+05 1.72806E-08 1.15415E-09
 -1       520-2.19880E+04 2.51769E+05 2.96957E+04 5.01703E+04-6.53745E-09 3.50246E-09
 -1       521-4.59531E+06-5.81510E+05-3.28156E+05-1.77671E+06-2.18643E-09-6.69388E-10
 -1       522-4.70516E+06-8.11090E+05-2.08494E+05-1.78310E+06 2.07365E-10-7.45422E-09
 -1       523-4.65579E+06-6.56798E+05-7.73851E+04-1.76379E+06-3.10934E-11 2.97587E-09
 -1       524-4.63414E+06-7.16122E+05-4.27847E+04-1.80437E+06-2.15550E-09-2.61025E-10
 -1       525-4.66466E+06-6.63210E+05-1.79973E+04-1.76056E+06 6.15728E-10-1.08230E-10
 -1       526-4.62356E+06-7.08330E+05-9.58616E+03-1.80950E+06 3.40015E-09 2.17915E-09
 -1       527-4.66652E+06-6.63096E+05-4.92409E+03-1.75937E+06 2.06592E-09 2.03943E-09
 -1       528-4.62197E+06-7.08092E+05-3.95795E+03-1.81062E+06-8.78813E-10 3.52657E-09
 -1       529-4.66635E+06-6.63279E+05-4.82822E+03-1.75956E+06-1.17984E-09-3.74712E-10
 -1       530-4.62411E+06-7.07649E+05-9.30240E+03-1.80870E+06 6.92353E-10-8.67885E-10
 -1       531-4.66418E+06-6.63768E+05-1.74429E+04-1.76110E+06 1.83536E-09 2.47201E-09
 -1       532-4.63499E+06-7.14492E+05-4.14029E+04-1.80287E+06 1.34105E-09 8.14907E-10
 -1       533-4.65523E+06-6.57933E+05-7.49048E+04-1.76463E+06 3.86592E-10 7.38510E-10
 -1       534-4.70439E+06-8.05685E+05-2.01741E+05-1.78148E+06 2.81034E-10 3.87081E-09
 -1       535-4.59637E+06-5.85432E+05-3.17569E+05-1.77751E+06 4.00178E-10 5.93718E-09
 -1       536 1.17128E+05-2.12555E+04 8.57994E+04-9.40714E+03 3.80169E-10-2.29920E-09
 -1       537 1.49071E+05 2.76845E+04 5.53883E+04-4.15565E+04-3.26145E-09-1.02218E-08
 -1       538 1.30134E+05-2.35452E+03 2.22082E+04-9.34821E+03-5.65706E-10-5.79712E-09
 -1       539 1.34171E+05 2.72907E+03 1.25036E+04-4.15599E+04 1.96906E-09-1.27147E-09
 -1       540 1.31611E+05-3.07002E+02 5.59635E+03-9.39222E+03 5.58430E-10 1.50294E-09
 -1       541 1.32228E+05 2.56387E+02 2.97811E+03-4.14766E+04 4.14275E-10-2.55159E-09
 -1       542 1.31783E+05-4.57269E+01 1.39288E+03-9.43212E+03-8.71296E-10-2.89765E-09
 -1       543 1.31859E+05 5.18079E+01 7.18762E+02-4.14158E+04-1.74623E-10 6.29643E-09
 -1       544 1.31800E+05 4.12849E+00 3.30947E+02-9.45318E+03 8.08313E-10 3.90060E-10
 -1       545 1.31766E+05 4.36775E+01 1.38584E+02-4.13922E+04-1.17824E-09 2.73599E-09
 -1       546 1.31807E+05 1.31348E+01 7.87513E+00-9.45573E+03-2.71939E-10-2.14561E-09
 -1       547 1.31766E+05-7.33480E+00-1.31784E+02-4.14004E+04-9.42464E-11-7.58098E-09
 -1       548 1.31841E+05 2.22596E+01-3.05508E+02-9.44504E+03-3.67254E-09-2.29301E-09
 -1       549 1.31674E+05-4.06395E+02-7.77123E+02-4.13673E+04-4.97994E-09-1.60435E-09
 -1       550 1.32051E+05 2.45446E+02-1.25848E+03-9.48874E+03-3.35331E-09 8.85166E-10
 -1       551 2.36590E+04-4.31514E+05 4.47334E+04-6.46402E+05-9.24047E-10 8.36735E-11
 -1       552 1.32762E+04-4.25101E+05 3.39226E+04-7.53568E+05-2.28465E-09-4.78394E-10
 -1       553 9.06194E+03-4.31476E+05 3.76322E+04-6.45324E+05-1.25146E-09-1.10140E-09
 -1       554 2.70489E+04-4.18012E+05 6.91541E+04-7.53757E+05-2.52840E-09-2.18279E-11
 -1       555 6.80504E+04-4.40112E+05 1.30437E+05-6.46016E+05-1.82627E-09-2.52112E-09
 -1       556-3.53821E+05-1.75762E+05 2.57819E+04-3.15968E+05 2.49202E-09 2.69210E-10
 -1       557-3.29191E+05-2.02682E+05 1.26929E+04-3.35521E+05-3.60524E-09 3.08864E-09
 -1       558-3.54997E+05-1.84305E+05 5.28193E+03-3.11024E+05-3.40515E-09 1.77897E-09
 -1       559-3.32123E+05-2.06813E+05 2.61372E+03-3.36848E+05-1.15324E-09-6.09043E-09
 -1       560-3.55757E+05-1.84145E+05 1.13193E+03-3.11246E+05 1.89175E-10 1.96928E-09
 -1       561-3.33057E+05-2.06708E+05 5.43166E+02-3.37520E+05-1.09139E-11 1.16432E-09
 -1       562-3.56311E+05-1.83801E+05 1.69132E+02-3.11606E+05-5.45697E-11-1.61299E-09
 -1       563-3.33583E+05-2.06483E+05-4.47882E+01-3.37894E+05-6.65750E-10-2.98678E-09
 -1       564-3.56614E+05-1.83600E+05-3.23145E+02-3.11815E+05 4.92400E-09-1.31331E-09
 -1       565-3.33846E+05-2.06379E+05-7.95374E+02-3.38061E+05 1.05692E-08 6.53199E-09
 -1       566-3.56634E+05-1.83535E+05-1.70222E+03-3.11856E+05 3.71278E-09-4.82032E-10
 -1       567-3.34112E+05-2.06585E+05-3.76773E+03-3.38000E+05 4.09273E-10-4.10546E-09
 -1       568-3.56239E+05-1.84214E+05-7.76797E+03-3.11472E+05 3.92902E-10-1.49885E-09
 -1       569-3.38079E+05-2.11515E+05-1.83237E+04-3.36633E+05 2.74486E-09 6.85395E-09
 -1       570-3.54500E+05-1.98962E+05-3.75231E+04-3.05111E+05-3.38332E-10 7.42148E-10
 -1       571 4.70452E+05 2.24530E+04 3.49657E+04-1.16935E+05-1.17143E-09-4.16549E-09
 -1       572 4.75810E+05 7.58115E+03 1.71965E+04-1.29170E+05-6.42103E-10-3.14958E-09
 -1       573 4.72555E+05 1.63406E+03 7.65542E+03-1.16601E+05-7.99810E-09 2.22008E-09
 -1       574 4.73153E+05 4.96466E+02 3.85029E+03-1.29522E+05-1.74737E-08-2.26646E-09
 -1       575 4.72739E+05 2.86445E+01 1.82576E+03-1.16562E+05-8.75389E-09-5.75528E-09
 -1       576 4.72789E+05-4.44976E+00 9.38473E+02-1.29567E+05-9.96351E-10 2.01726E-09
 -1       577 4.72767E+05-3.52526E+01 4.76207E+02-1.16557E+05-9.75433E-10 5.19412E-09
 -1       578 4.72775E+05-3.42337E+01 2.85536E+02-1.29573E+05-1.34105E-09-5.74801E-10
 -1       579 4.72839E+05-6.28481E+01 2.19364E+02-1.16556E+05-1.44610E-09-7.56700E-10
 -1       580 4.72894E+05-8.69873E+01 2.79971E+02-1.29569E+05-6.20275E-10 2.93494E-09
 -1       581 4.72975E+05-1.25579E+02 4.58964E+02-1.16560E+05-1.82990E-09-8.42647E-09
 -1       582 4.73168E+05-6.74703E+01 9.33150E+02-1.29503E+05 1.45519E-11 4.89308E-10
 -1       583 4.73129E+05 1.42523E+02 1.82054E+03-1.16621E+05 1.06957E-09-3.56840E-09
 -1       584 4.74052E+05 1.49916E+03 4.09353E+03-1.28959E+05-2.61207E-09 2.70938E-09
 -1       585 4.72854E+05 4.99473E+03 8.29586E+03-1.17114E+05 3.09228E-10 7.34872E-10
 -1       586 3.47550E+03 1.87624E+05 5.98833E+03-3.01391E+05 2.40834E-09-2.09184E-10
 -1       587 2.23481E+03 1.88484E+05 6.09111E+03-3.33864E+05 3.89264E-10 2.70484E-09
 -1       588 2.65244E+03 1.87318E+05 9.00358E+03-3.01006E+05 2.83580E-09-6.79529E-09
 -1       589 8.92879E+03 1.90753E+05 1.86882E+04-3.33946E+05 6.14818E-10-1.82199E-08
 -1       590 2.45293E+04 1.85125E+05 3.72771E+04-3.01292E+05 2.61025E-09-1.06511E-08
 -1       591-2.00460E+05-7.22916E+04-3.96506E+04-1.06205E+05-3.59864E-09 1.36424E-09
 -1       592-2.01498E+05-6.71465E+04-1.93943E+04-1.18157E+05-1.08084E-08-2.51157E-09
 -1       593-2.01542E+05-5.72096E+04-8.22607E+03-1.13057E+05-1.02818E-09 4.61932E-09
 -1       594-1.97305E+05-6.17086E+04-4.02120E+03-1.18941E+05-2.84695E-09-1.09279E-09
 -1       595-2.01740E+05-5.66225E+04-1.85057E+03-1.13379E+05-9.24956E-10 9.29958E-11
 -1       596-1.96990E+05-6.14848E+04-9.39287E+02-1.18924E+05 2.35332E-10 2.21917E-09
 -1       597-2.01780E+05-5.66461E+04-5.13604E+02-1.13383E+05-5.19094E-09-1.25424E-08
 -1       598-1.96957E+05-6.14877E+04-4.15255E+02-1.18910E+05-7.22196E-10 9.54060E-10
 -1       599-2.01771E+05-5.66493E+04-5.33151E+02-1.13379E+05-3.09456E-10 1.71531E-09
 -1       600-1.96979E+05-6.14911E+04-9.90745E+02-1.18914E+05 1.44155E-10 3.41879E-09
 -1       601-2.01713E+05-5.66312E+04-1.95947E+03-1.13365E+05-6.05723E-09 1.65164E-09
 -1       602-1.97302E+05-6.17305E+04-4.26195E+03-1.18916E+05-1.34860E-08-3.53384E-09
 -1       603-2.01488E+05-5.72657E+04-8.72021E+03-1.13020E+05-5.92172E-09 4.85579E-09
 -1       604-2.01769E+05-6.74604E+04-2.05564E+04-1.18031E+05 7.62157E-10-4.00178E-10
 -1       605-2.00295E+05-7.32799E+04-4.20256E+04-1.05785E+05 2.16278E-09 8.82392E-09
 -1       606 1.37502E+05-1.78466E+04-2.76942E+04 3.93773E+04-8.90395E-09-1.05683E-09
 -1       607 1.33156E+05-6.02484E+03-1.36124E+04 4.30636E+04-1.28057E-09-4.04384E-09
 -1       608 1.35671E+05-1.29216E+03-6.06142E+03 3.90999E+04 6.46287E-09 4.59295E-11
 -1       609 1.35090E+05-3.34289E+02-3.03983E+03 4.33559E+04-2.84763E-09-2.40334E-09
 -1       610 1.35408E+05 4.69717E+01-1.43757E+03 3.90651E+04-1.02536E-08 8.98126E-10
 -1       611 1.35283E+05 1.12598E+02-7.24010E+02 4.33918E+04-1.81635E-08-1.56069E-09
 -1       612 1.35334E+05 1.25899E+02-3.46270E+02 3.90614E+04-6.77574E-09-5.56383E-09
 -1       613 1.35279E+05 1.43358E+02-1.61913E+02 4.33958E+04-1.17034E-08-5.91172E-12
 -1       614 1.35295E+05 1.31828E+02-5.40198E+01 3.90607E+04-3.24690E-09-1.75532E-10
 -1       615 1.35257E+05 1.54796E+02 2.74173E+01 4.33958E+04 8.78754E-09 8.39009E-10
 -1       616 1.35265E+05 1.46357E+02 1.19855E+02 3.90612E+04-3.75985E-09-5.91581E-09
 -1       617 1.35260E+05 2.06149E+02 2.90000E+02 4.33942E+04 1.34810E-09 3.10911E-09
 -1       618 1.35228E+05 2.84102E+02 5.93990E+02 3.90617E+04 2.45109E-10-9.79071E-10
 -1       619 1.35444E+05 7.72940E+02 1.34435E+03 4.33888E+04-3.64480E-10 4.45243E-09
 -1       620 1.35044E+05 1.92465E+03 2.73851E+03 3.90618E+04 2.70848E-09 6.77574E-11
 -1       621 3.59816E+03 4.62935E+05 8.47317E+03-4.09334E+04 7.77618E-10-1.25797E-08
 -1       622 1.40891E+03 4.64526E+05 6.92309E+03-4.79035E+04-2.67210E-09-1.78406E-08
 -1       623 8.55378E+02 4.63306E+05 8.42739E+03-4.09980E+04 1.63709E-11-4.94401E-09
 -1       624 4.91828E+03 4.66580E+05 1.61519E+04-4.76603E+04-2.04318E-09 3.77258E-09
 -1       625 1.50455E+04 4.60985E+05 3.08976E+04-4.11699E+04 5.36602E-10 3.01134E-09
 -1       626 1.95029E+05 6.27277E+04-1.30980E+04 1.32477E+05-7.66613E-09 9.27685E-10
 -1       627 1.89409E+05 7.14562E+04-6.21949E+03 1.34703E+05 1.16415E-09 9.17657E-09
 -1       628 1.95243E+05 6.91186E+04-2.61648E+03 1.29380E+05 1.05174E-08 7.28915E-09
 -1       629 1.90389E+05 7.40531E+04-1.25640E+03 1.34430E+05 9.67702E-09 1.13681E-08
 -1       630 1.95186E+05 6.95583E+04-5.57059E+02 1.29119E+05 7.25049E-09 5.30349E-11
 -1       631 1.90436E+05 7.42478E+04-2.51620E+02 1.34412E+05-5.00722E-09-4.59374E-09
 -1       632 1.95140E+05 6.95813E+04-7.72298E+01 1.29086E+05-6.81848E-09-9.16452E-09
 -1       633 1.90423E+05 7.42631E+04 4.55932E+01 1.34402E+05 9.69430E-09-2.00907E-09
 -1       634 1.95111E+05 6.95758E+04 1.90865E+02 1.29076E+05 5.13046E-09-2.53067E-09
 -1       635 1.90438E+05 7.42700E+04 4.61942E+02 1.34402E+05-5.12364E-09 2.62389E-09
 -1       636 1.95087E+05 6.95936E+04 9.70613E+02 1.29060E+05-4.01496E-09 1.13687E-10
 -1       637 1.90668E+05 7.45183E+04 2.17126E+03 1.34368E+05 3.85228E-09-7.59928E-09
 -1       638 1.95038E+05 7.03461E+04 4.49794E+03 1.28732E+05 9.51695E-09-4.72755E-09
 -1       639 1.92974E+05 7.84415E+04 1.06981E+04 1.33426E+05-6.48492E-09-1.61344E-09
 -1       640 1.95123E+05 8.17386E+04 2.25202E+04 1.23978E+05-1.67083E-08 8.74024E-10
 -1       641 6.30395E+03 3.97000E+03-9.32025E+03-3.88426E+02-1.29745E-08-2.03727E-09
 -1       642 2.33434E+03-4.59494E+03-6.55961E+03 1.76535E+03 6.72866E-09-3.62661E-11
 -1       643 4.76254E+03 6.13029E+02-2.40491E+03-3.81861E+02-2.06921E-08-2.92016E-09
 -1       644 4.12025E+03-7.02146E+02-1.48448E+03 1.75587E+03 6.57106E-09 2.65024E-09
 -1       645 4.51575E+03 9.15693E+01-5.76411E+02-3.78982E+02-1.16117E-08-6.72168E-09
 -1       646 4.40949E+03-9.01567E+01-2.71938E+02 1.75157E+03-4.74610E-07-8.07745E-11
 -1       647 4.47202E+03 3.77497E+00-3.62395E-01-3.77574E+02-3.58610E-05 1.00202E-07
 -1       648 4.48930E+03 5.97731E+01 2.53755E+02 1.75011E+03-7.09357E-05 2.16894E-07
 -1       649 4.43552E+03-5.77137E+01 5.77648E+02-3.77529E+02-3.58695E-05 1.00187E-07
 -1       650 4.70050E+03 4.44164E+02 1.39353E+03 1.75086E+03-4.50499E-07-8.52197E-09
 -1       651 4.26124E+03-3.79920E+02 2.43461E+03-3.78322E+02-1.52135E-08-6.46673E-09
 -1       652 5.89516E+03 2.84711E+03 6.00176E+03 1.75193E+03 1.64369E-08 1.86174E-09
 -1       653 3.24222E+03-2.45421E+03 9.59840E+03-3.78609E+02-8.40225E-09-5.71208E-09
 -1       654 1.31168E+04 1.83486E+04 2.61757E+04 1.74429E+03 4.01977E-09 4.35648E-10
 -1       655-2.95633E+03-1.58312E+04 3.70965E+04-3.70780E+02 4.56774E-09-3.70892E-09
 -1       656 1.45938E+04-5.28808E+05-6.19155E+04 1.27371E+04-9.42237E-10 3.86854E-09
 -1       657-2.11949E+04-5.51625E+05-4.54063E+04 5.26554E+04-2.37196E-09 7.02130E-09
 -1       658 2.86801E+03-5.36896E+05-2.86896E+04 1.25829E+04-2.27425E-09 4.33056E-09
 -1       659-1.93490E+04-5.50618E+05-4.22468E+04 5.27687E+04-1.33969E-09-7.12799E-09
 -1       660 1.31108E+04-5.29889E+05-5.59631E+04 1.26259E+04-5.72800E-09 1.13459E-09
 -1       661 5.19271E+05 6.59086E+04 4.27888E+04 2.03424E+05 1.82572E-08 4.72937E-10
 -1       662 5.29540E+05 9.99374E+04 2.71878E+04 2.09043E+05 8.66902E-09-4.02952E-09
 -1       663 5.26710E+05 7.61557E+04 1.01085E+04 2.02274E+05 1.13799E-08-9.44056E-10
 -1       664 5.21003E+05 8.68509E+04 5.60857E+03 2.10872E+05-9.33142E-10-1.05638E-08
 -1       665 5.27546E+05 7.73264E+04 2.37247E+03 2.02214E+05-2.13959E-10-5.45697E-10
 -1       666 5.20044E+05 8.53863E+04 1.29592E+03 2.10964E+05-9.69197E-09 3.16049E-10
 -1       667 5.27632E+05 7.74744E+04 7.20020E+02 2.02231E+05 1.26295E-09-1.55011E-09
 -1       668 5.19962E+05 8.52390E+04 6.78152E+02 2.10948E+05-7.29707E-09 1.23395E-08
 -1       669 5.27623E+05 7.74657E+04 9.46493E+02 2.02230E+05 1.68183E-09 3.62212E-09
 -1       670 5.20126E+05 8.54812E+04 1.92653E+03 2.10961E+05 2.44692E-08-4.83692E-09
 -1       671 5.27475E+05 7.72456E+04 3.64152E+03 2.02215E+05 9.98824E-09 1.92267E-09
 -1       672 5.21644E+05 8.77252E+04 8.68041E+03 2.10780E+05-1.19239E-08 5.03223E-09
 -1       673 5.26152E+05 7.54526E+04 1.56710E+04 2.02331E+05-5.98794E-09-2.67573E-09
 -1       674 5.34922E+05 1.07982E+05 4.21653E+04 2.07888E+05 7.36111E-09 1.12232E-09
 -1       675 5.14590E+05 5.95872E+04 6.63736E+04 2.04138E+05-1.81171E-09-1.05101E-08
 -1       676 1.88713E+03-4.94297E+05-8.89213E+03 8.99267E+02-9.21091E-10-1.09742E-09
 -1       677-3.40602E+03-4.97721E+05-8.92382E+03 6.38940E+02-1.72960E-10 5.08535E-09
 -1       678 9.74767E+02-4.94874E+05-9.64949E+03 8.96876E+02 4.58431E-09 8.87923E-10
 -1       679-1.01287E+04-5.01639E+05-2.05592E+04 6.38078E+02 1.04003E-08 6.96474E-11
 -1       680 7.46375E+03-4.90382E+05-3.07511E+04 8.97912E+02-5.72618E-09 4.83325E-10
 -1       681 7.32420E+05-2.04591E+04 4.78090E+04-1.93396E+03-5.22959E-12-1.61526E-09
 -1       682 7.53617E+05 2.37253E+04 3.38475E+04 1.29008E+04 4.16691E-10-1.28239E-09
 -1       683 7.40632E+05-3.16568E+03 1.24025E+04-1.35717E+02 6.48612E-10-3.66117E-09
 -1       684 7.44027E+05 3.70547E+03 7.79645E+03 1.04563E+04 1.19735E-09-2.49941E-09
 -1       685 7.41992E+05-4.87221E+02 3.23311E+03 5.10458E+02 5.29283E-11-2.91118E-09
 -1       686 7.42481E+05 6.18740E+02 1.98397E+03 1.01100E+04-1.34574E-09-3.19500E-09
 -1       687 7.42178E+05-8.62022E+01 1.09141E+03 2.10675E+02-1.87342E-10-3.85606E-09
 -1       688 7.42462E+05 2.28779E+02 1.11856E+03 1.17487E+04-1.42748E-10-2.86829E-09
 -1       689 7.42029E+05-1.10055E+02 1.35889E+03-1.12819E+03 3.45170E-09-2.28476E-09
 -1       690 7.43422E+05 7.98611E+02 2.95963E+03 1.58753E+04 3.08182E-09-1.19388E-09
 -1       691 7.41278E+05-6.95476E+02 4.64602E+03-3.91592E+03 1.95314E-10-2.45791E-10
 -1       692 7.47664E+05 5.26641E+03 1.20626E+04 2.37563E+04 1.34338E-09-2.93312E-10
 -1       693 7.37966E+05-4.68801E+03 1.81110E+04-9.01003E+03 4.21937E-09 3.21870E-09
 -1       694 7.67824E+05 3.53126E+04 5.21017E+04 3.79807E+04 8.10769E-09 3.33512E-09
 -1       695 7.21653E+05-3.10090E+04 7.00370E+04-1.81456E+04 8.06585E-09 9.25138E-09
 -1       696-1.35094E+04 5.54777E+05 3.11233E+04 3.05773E+03 1.41881E-10-5.57634E-10
 -1       697 1.48005E+04 5.68281E+05 2.03926E+04-1.70093E+04 3.95630E-11-6.84025E-10
 -1       698-1.21063E+03 5.60691E+05 4.68580E+03 2.16503E+03-2.78305E-10 2.40439E-09
 -1       699-4.21533E+03 5.59340E+05-4.59182E+03-1.66204E+04-3.65617E-10 3.63687E-09
 -1       700 5.44990E+03 5.63718E+05-1.19247E+04 2.66882E+03-2.00998E-10 1.83530E-09
 -1       701-6.60142E+05-6.06249E+04-8.18538E+04-2.60775E+05-3.29237E-10-3.16504E-10
 -1       702-6.98618E+05-1.38868E+05-5.65832E+04-2.51088E+05-3.65617E-10 1.01954E-09
 -1       703-6.77961E+05-8.84527E+04-1.92080E+04-2.53756E+05 2.82171E-10-1.64619E-10
 -1       704-6.77635E+05-1.07005E+05-1.19300E+04-2.59664E+05 7.60565E-10 1.87129E-09
 -1       705-6.81117E+05-9.23866E+04-4.48784E+03-2.52240E+05 4.20641E-11 1.32036E-09
 -1       706-6.74320E+05-1.02042E+05-2.66157E+03-2.60924E+05 1.57701E-09 2.40371E-09
 -1       707-6.81273E+05-9.33993E+04-1.24416E+03-2.52501E+05 5.46265E-10-1.47509E-10
 -1       708-6.75123E+05-9.98971E+04-1.01824E+03-2.59340E+05-3.32733E-10-2.47530E-09
 -1       709-6.80298E+05-9.45406E+04-1.20908E+03-2.53813E+05 6.07940E-11-6.72458E-11
 -1       710-6.77962E+05-9.78443E+04-2.37742E+03-2.56130E+05-9.98668E-11-5.52831E-10
 -1       711-6.78420E+05-9.54641E+04-4.17563E+03-2.55700E+05 4.51593E-10-4.97948E-10
 -1       712-6.83847E+05-9.96333E+04-1.08743E+04-2.51847E+05 9.12252E-10-1.73634E-09
 -1       713-6.74422E+05-9.27619E+04-1.76189E+04-2.58095E+05 1.23691E-09 1.95541E-10
 -1       714-7.04188E+05-1.28229E+05-5.18901E+04-2.43399E+05 4.95902E-10-6.19366E-10
 -1       715-6.58120E+05-6.69387E+04-7.49751E+04-2.64136E+05-2.65936E-09 2.84854E-09
 -1       716 6.06425E+05-2.63208E+04 5.99138E+04-1.46438E+04-1.07621E-08 9.29140E-09
 -1       717 6.43872E+05 3.00275E+04 4.42252E+04 2.84440E+04-6.65403E-09 7.58882E-09
 -1       718 6.19534E+05-3.99445E+03 1.54978E+04-8.02527E+03-2.15630E-09 3.72165E-09
 -1       719 6.27727E+05 4.47566E+03 1.03668E+04 1.78904E+04-1.13687E-09 2.39675E-09
 -1       720 6.22203E+05-5.99695E+02 4.11456E+03-4.08607E+03 2.64697E-09 1.36652E-10
 -1       721 6.24316E+05 6.97271E+02 2.90995E+03 1.15536E+04 8.48786E-10-2.58069E-10
 -1       722 6.22810E+05-1.33472E+02 1.81611E+03-1.68758E+03-3.03658E-10-2.42296E-09
 -1       723 6.23643E+05 4.59369E+02 2.45900E+03 7.67825E+03-1.34975E-10-1.45198E-09
 -1       724 6.22824E+05-3.27845E+02 3.60595E+03-2.10512E+02-6.96133E-10-2.95131E-09
 -1       725 6.24478E+05 2.40750E+03 7.87402E+03 5.26522E+03-2.70335E-09-4.54520E-10
 -1       726 6.21953E+05-2.06356E+03 1.34104E+04 7.25458E+02-2.91871E-09-1.29512E-09
 -1       727 6.30838E+05 1.54987E+04 3.28184E+04 3.68410E+03-4.62421E-09-3.06272E-09
 -1       728 6.16449E+05-1.33735E+04 5.24480E+04 1.37048E+03-7.44166E-10-3.43789E-09
 -1       729 6.70084E+05 1.00065E+05 1.42842E+05 2.42497E+03-2.19768E-09-2.80124E-09
 -1       730 5.82718E+05-8.63316E+04 2.02627E+05 1.98367E+03-4.05919E-10-2.56114E-09
 -1       731-1.57122E+04 2.40111E+05 2.47773E+04 3.06000E+04-2.79215E-09 1.19871E-09
 -1       732 1.74153E+04 3.05919E+05 2.85858E+04-1.23397E+05-1.27852E-09-1.61060E-09
 -1       733-2.56035E+03 2.66450E+05 1.04984E+04 2.50315E+04 6.43558E-09 4.94219E-09
 -1       734 9.45962E+03 2.77528E+05 1.46056E+04-1.17428E+05 1.07061E-08 1.16244E-08
 -1       735-6.18938E+03 2.66218E+05 1.44758E+04 2.46256E+04 5.44287E-09 7.06314E-09
 -1       736-1.03216E+06-7.73411E+04-9.75064E+04-3.47758E+05-1.04010E-08 7.38510E-10
 -1       737-8.96731E+05-2.54692E+05-5.34921E+04-4.51396E+05-2.46757E-08-4.17731E-09
 -1       738-1.03258E+06-8.29475E+04-2.07389E+04-3.10969E+05-4.45357E-09-5.59885E-09
 -1       739-8.87738E+05-2.34429E+05-1.03686E+04-4.78238E+05-2.46246E-09 1.00454E-08
 -1       740-1.04278E+06-9.62887E+04-7.93955E+03-3.22087E+05 6.62112E-09 2.19682E-08
 -1       741-8.61997E+05-1.89230E+05 1.14266E+04-4.19663E+05 1.56415E-08 3.42642E-08
 -1       742-1.05394E+06-1.31348E+05-1.34276E+04-3.66462E+05-1.17052E-08 1.01368E-08
 -1       743-8.84290E+05-1.20347E+05 2.18416E+04-3.31694E+05-1.30813E-08 4.11808E-09
 -1       744-1.01747E+06-1.67344E+05-1.30584E+04-4.07642E+05 6.96764E-09-3.34740E-09
 -1       745-9.89230E+05-6.28801E+04 1.19705E+04-2.75452E+05 1.18962E-09-6.72765E-09
 -1       746-9.52259E+05-1.86421E+05-6.31911E+03-4.25022E+05 3.00588E-10-5.28121E-08
 -1       747-1.07878E+06-4.05909E+04-6.52148E+03-2.58737E+05 2.02782E-08 1.85978E-08
 -1       748-9.32009E+05-1.86694E+05-1.44586E+04-4.27643E+05-3.32102E-08-3.26054E-10
 -1       749-1.05725E+06-7.20222E+04-3.44867E+04-2.59294E+05 3.38355E-09-2.22690E-09
 -1       750-9.72147E+05-1.56251E+05-7.05861E+04-4.23081E+05 4.11092E-10 5.51154E-09
 -1       751 3.58939E+06-2.01414E+05 4.73617E+05 1.70039E+04-1.82647E-08-6.40284E-10
 -1       752 3.79467E+06 2.33419E+05 3.33900E+05-2.21597E+04-4.52951E-09-4.35102E-09
 -1       753 3.66897E+06-3.11851E+04 1.22787E+05 4.47893E+03-1.09543E-09-1.05501E-09
 -1       754 3.70238E+06 3.61150E+04 7.68799E+04-6.24144E+03 1.23941E-09 2.00816E-09
 -1       755 3.68196E+06-4.82018E+03 3.16512E+04 1.09000E+03 2.55511E-11 2.08820E-09
 -1       756 3.68741E+06 5.65045E+03 1.88481E+04-1.92439E+03-1.04141E-09 4.00178E-11
 -1       757 3.68409E+06-8.16385E+02 9.33083E+03 1.61948E+02 1.51816E-09 2.08615E-09
 -1       758 3.68520E+06 1.45980E+03 7.46640E+03-7.87512E+02-1.33800E-09 2.08283E-09
 -1       759 3.68420E+06-6.40945E+02 7.66249E+03-4.68989E+01 5.63827E-10 4.46812E-09
 -1       760 3.68657E+06 4.12505E+03 1.40493E+04-6.99772E+02 1.50780E-09 4.66525E-09
 -1       761 3.68270E+06-3.47398E+03 2.29719E+04 7.42077E+01 2.30260E-09 1.32695E-09
 -1       762 3.69726E+06 2.59698E+04 5.53388E+04-1.49938E+03 2.43794E-09 1.95450E-09
 -1       763 3.67341E+06-2.24160E+04 8.82394E+04 7.52704E+02 6.48815E-09-9.53150E-10
 -1       764 3.76298E+06 1.67664E+05 2.39726E+05-4.73024E+03 1.80997E-09-7.96717E-10
 -1       765 3.61666E+06-1.44654E+05 3.40086E+05 3.30446E+03-1.84895E-09-3.81260E-09
 -1       766-7.86815E+04 3.58052E+05 1.85300E+05-2.31798E+04 2.77942E-09-1.00772E-09
 -1       767 9.51859E+04 4.45918E+05 1.39610E+05 9.95372E+04 7.78527E-10 1.62750E-09
 -1       768-1.61775E+04 3.88832E+05 6.42020E+04-2.19173E+04-1.47338E-09-1.39710E-09
 -1       769 4.82852E+04 4.34863E+05 7.95818E+04 1.03888E+05 5.26143E-09 7.98536E-10
 -1       770-3.26269E+04 3.70065E+05 7.56329E+04-2.75370E+04 5.14046E-09 3.67345E-09
 -1       771-2.05782E+06-4.16298E+05-7.73919E+04-8.84760E+05 1.75896E-09-2.03727E-09
 -1       772-2.05441E+06-4.11228E+05-3.77939E+04-9.13798E+05-5.95173E-09 3.84171E-09
 -1       773-2.06082E+06-3.86295E+05-1.60943E+04-8.97900E+05-4.26371E-09-2.96131E-09
 -1       774-2.04624E+06-4.01048E+05-7.83571E+03-9.16457E+05 3.21961E-09-7.88532E-10
 -1       775-2.06178E+06-3.84774E+05-3.64597E+03-8.98726E+05 6.25732E-10 7.30324E-10
 -1       776-2.04601E+06-4.00542E+05-1.83058E+03-9.16954E+05 3.78350E-10-9.09495E-11
 -1       777-2.06231E+06-3.84550E+05-1.01732E+03-8.98942E+05 1.34605E-09 4.67935E-10
 -1       778-2.04626E+06-4.00446E+05-7.88588E+02-9.17299E+05-4.43833E-10 1.20451E-09
 -1       779-2.06264E+06-3.84355E+05-1.01035E+03-8.99096E+05-3.75803E-09-3.60978E-09
 -1       780-2.04655E+06-4.00378E+05-1.84545E+03-9.17568E+05 1.15688E-09 8.52083E-09
 -1       781-2.06275E+06-3.84187E+05-3.65467E+03-8.99178E+05 1.49157E-10 7.29415E-10
 -1       782-2.04729E+06-4.00789E+05-7.95273E+03-9.17734E+05 1.29603E-09 1.73532E-09
 -1       783-2.06245E+06-3.85300E+05-1.62849E+04-8.98582E+05-2.13504E-09-1.90448E-09
 -1       784-2.05561E+06-4.11598E+05-3.84385E+04-9.16245E+05-2.81665E-09-3.40697E-09
 -1       785-2.06033E+06-4.15172E+05-7.86092E+04-8.84983E+05-5.99130E-10-3.45608E-10
 -1       786 4.42781E+05-1.36905E+04 5.59378E+04-2.49279E+03 5.88898E-10-1.55705E-09
 -1       787 4.63206E+05 1.81569E+04 3.60576E+04-1.15065E+04 2.16005E-11-2.93994E-09
 -1       788 4.51284E+05-1.44966E+03 1.45077E+04-2.51322E+03-3.52657E-10-9.75888E-10
 -1       789 4.53700E+05 1.84747E+03 8.14825E+03-1.14554E+04 6.00267E-11-1.83149E-09
 -1       790 4.52272E+05-1.59963E+02 3.69067E+03-2.54201E+03 3.35035E-10 3.56795E-09
 -1       791 4.52575E+05 1.84751E+02 1.99011E+03-1.14139E+04 7.70115E-10 2.42665E-09
 -1       792 4.52400E+05-2.02257E+01 1.02243E+03-2.55469E+03-3.05931E-10 2.33177E-09
 -1       793 4.52434E+05 2.44268E+01 6.90787E+02-1.14056E+04-3.74456E-11-2.45694E-09
 -1       794 4.52412E+05-1.19862E+01 6.52315E+02-2.55038E+03 4.82601E-10-9.71738E-10
 -1       795 4.52484E+05 8.38252E+01 1.01223E+03-1.14318E+04 1.09065E-09 5.40665E-09
 -1       796 4.52356E+05-7.65047E+01 1.75097E+03-2.52851E+03-1.03500E-09 2.74588E-09
 -1       797 4.53009E+05 8.48664E+02 3.79197E+03-1.14899E+04-4.90900E-10 5.90546E-10
 -1       798 4.51901E+05-6.75326E+02 6.71944E+03-2.49227E+03-4.04043E-10-8.26049E-10
 -1       799 4.57417E+05 8.38862E+03 1.66842E+04-1.15522E+04-2.14925E-09-5.91854E-10
 -1       800 4.47969E+05-6.34172E+03 2.58689E+04-2.46723E+03 5.34101E-10 4.62023E-10
 -1       801-2.01957E+04 5.29341E+05 6.91043E+04-2.65880E+05 5.89353E-10-4.22006E-10
 -1       802 4.47955E+04 5.49466E+05 6.97931E+04-1.15307E+06 1.37625E-08 1.61890E-09
 -1       803-1.65933E+03 5.31088E+05 6.79149E+04-2.65730E+05 7.41784E-09 5.34590E-09
 -1       804 8.41300E+04 5.73924E+05 1.38702E+05-1.15301E+06 9.06584E-09-2.86127E-09
 -1       805-5.38584E+04 5.06561E+05 1.98305E+05-2.65966E+05 6.81030E-09 3.49246E-10
 -1       806-4.45790E+05-1.15798E+05-3.84985E+04-2.01442E+05-3.63275E-09-2.07947E-08
 -1       807-4.46331E+05-1.05942E+05-1.82867E+04-2.12839E+05 1.16142E-09-9.09085E-09
 -1       808-4.45629E+05-9.63745E+04-7.69231E+03-2.09686E+05 1.92463E-08-6.15910E-09
 -1       809-4.42541E+05-9.91157E+04-3.72002E+03-2.14375E+05 3.72938E-08-1.57793E-08
 -1       810-4.45733E+05-9.50779E+04-1.68451E+03-2.10276E+05 2.53613E-08 2.55591E-09
 -1       811-4.42176E+05-9.86728E+04-8.46586E+02-2.14434E+05 2.90856E-09-2.74122E-09
 -1       812-4.45765E+05-9.50435E+04-4.47620E+02-2.10303E+05 3.20140E-08 2.24509E-09
 -1       813-4.42134E+05-9.86621E+04-3.39189E+02-2.14422E+05 5.35947E-08-1.32532E-08
 -1       814-4.45757E+05-9.50503E+04-4.06907E+02-2.10297E+05 2.54254E-08-6.74027E-09
 -1       815-4.42154E+05-9.86791E+04-7.38377E+02-2.14417E+05-1.81308E-09-2.87309E-09
 -1       816-4.45711E+05-9.50904E+04-1.45179E+03-2.10265E+05-4.94583E-09 1.71531E-09
 -1       817-4.42458E+05-9.90584E+04-3.19748E+03-2.14343E+05-4.08136E-09 1.82472E-08
 -1       818-4.45599E+05-9.62222E+04-6.60845E+03-2.09756E+05-1.93995E-09 1.15415E-09
 -1       819-4.45763E+05-1.04857E+05-1.57049E+04-2.12931E+05 4.18140E-09-9.14042E-09
 -1       820-4.45658E+05-1.12960E+05-3.30627E+04-2.02731E+05-1.07138E-08-2.74777E-08
 -1       821-4.27619E+05 1.35660E+04-5.54672E+04 2.39539E+03-4.72664E-09 2.76486E-10
 -1       822-4.47833E+05-1.80085E+04-3.57544E+04 1.18202E+04-4.17594E-09 6.36646E-10
 -1       823-4.36057E+05 1.42956E+03-1.43916E+04 2.27505E+03 5.08771E-09 1.55160E-09
 -1       824-4.38446E+05-1.81057E+03-8.08351E+03 1.20018E+04-2.01146E-09-5.94719E-09
 -1       825-4.37040E+05 1.59048E+02-3.67825E+03 2.21181E+03-9.35847E-09-3.82215E-10
 -1       826-4.37361E+05-1.48645E+02-2.00788E+03 1.21070E+04-1.50025E-08 5.69639E-09
 -1       827-4.37169E+05 2.69036E+01-1.08716E+03 2.16945E+03-8.66748E-09 2.05733E-09
 -1       828-4.37245E+05 1.16936E+01-8.35934E+02 1.21732E+04-1.19771E-08 3.14472E-09
 -1       829-4.37175E+05 2.61150E+01-9.42264E+02 2.14544E+03-4.07039E-09-1.30591E-10
 -1       830-4.37345E+05-1.01325E+02-1.62820E+03 1.22014E+04 3.28129E-10-2.00237E-09
 -1       831-4.37077E+05 1.33749E+02-2.92088E+03 2.14124E+03-6.57982E-09 8.62997E-10
 -1       832-4.38215E+05-1.40582E+03-6.38978E+03 1.21902E+04 7.33962E-10 5.00984E-09
 -1       833-4.36304E+05 1.13975E+03-1.13566E+04 2.15700E+03 3.77440E-11 1.26329E-09
 -1       834-4.45634E+05-1.41822E+04-2.82153E+04 1.21250E+04 2.79329E-09-1.14096E-09
 -1       835-4.29648E+05 1.07192E+04-4.37623E+04 2.20985E+03 4.03656E-09-2.47746E-09
 -1       836-2.29661E+04 1.16668E+06 9.87974E+04-2.81157E+04-1.80808E-09 1.05047E-09
 -1       837 3.46033E+04 1.20341E+06 7.70303E+04-1.17771E+05 2.18097E-09-4.93765E-09
 -1       838-5.57999E+03 1.17842E+06 5.62469E+04-2.82415E+04-2.06683E-09-1.16279E-09
 -1       839 4.48262E+04 1.20933E+06 9.47234E+04-1.17732E+05 2.89947E-09-1.67165E-09
 -1       840-3.14131E+04 1.16072E+06 1.32080E+05-2.81525E+04-2.47383E-09-1.95450E-09
 -1       841-6.59137E+04-1.33031E+03-2.10037E+04-2.85504E+04-5.07816E-09-2.52840E-10
 -1       842-7.76094E+04-1.97055E+04-1.45332E+04-2.41272E+04-5.12313E-09-1.44541E-09
 -1       843-7.01345E+04-8.85825E+03-4.92486E+03-2.71945E+04 4.61171E-09-7.11452E-10
 -1       844-7.27403E+04-1.09564E+04-3.05373E+03-2.56653E+04 1.48827E-09 1.75689E-09
 -1       845-7.07806E+04-1.00557E+04-1.13386E+03-2.70217E+04-3.45497E-09 7.85633E-10
 -1       846-7.20086E+04-9.54932E+03-6.36746E+02-2.58458E+04-1.20955E-08-3.40714E-09
 -1       847-7.08665E+04-1.02615E+04-2.26977E+02-2.70158E+04-4.09798E-09-2.12233E-09
 -1       848-7.19061E+04-9.28759E+03-5.80236E+01-2.58471E+04 9.36371E-09 3.89844E-09
 -1       849-7.08834E+04-1.03166E+04 9.53959E+01-2.70210E+04 4.99848E-09 3.38267E-09
 -1       850-7.18177E+04-9.12251E+03 3.57737E+02-2.58627E+04-3.65752E-09 3.65887E-09
 -1       851-7.09550E+04-1.04261E+04 6.61975E+02-2.70004E+04-1.31134E-09-5.29320E-09
 -1       852-7.13213E+04-8.33430E+03 1.80775E+03-2.60229E+04 1.07634E-08-7.88532E-10
 -1       853-7.13793E+04-1.11030E+04 2.91309E+03-2.68613E+04 4.50495E-09 2.61730E-09
 -1       854-6.83319E+04-3.23576E+03 8.61555E+03-2.70290E+04-3.97139E-09 7.26459E-11
 -1       855-7.39412E+04-1.55112E+04 1.24396E+04-2.59989E+04 1.53796E-09-5.50244E-11
 -1       856-5.03290E+05 1.23603E+04-5.06332E+04 4.78785E+03-4.75302E-09 3.81988E-11
 -1       857-5.21716E+05-1.63639E+04-3.26200E+04 2.41396E+04-6.95127E-09-7.37145E-10
 -1       858-5.10998E+05 1.30749E+03-1.31381E+04 4.57618E+03-8.78708E-09-3.32966E-09
 -1       859-5.13217E+05-1.55938E+03-7.36936E+03 2.44572E+04 4.35011E-09 6.28461E-10
 -1       860-5.11903E+05 1.61768E+02-3.35013E+03 4.46627E+03 5.43423E-10 1.22213E-09
 -1       861-5.12268E+05-2.62177E+01-1.81423E+03 2.46247E+04-1.66888E-08 2.59308E-09
 -1       862-5.12025E+05 4.78258E+01-9.58436E+02 4.40770E+03 1.23554E-08-2.08820E-09
 -1       863-5.12173E+05 1.28370E+02-6.94379E+02 2.46967E+04 3.09731E-08-1.25391E-09
 -1       864-5.12033E+05 4.50408E+01-7.27567E+02 4.39397E+03 1.37051E-08-2.96740E-09
 -1       865-5.12230E+05 4.43531E+01-1.20721E+03 2.46781E+04 1.87970E-08-3.79097E-09
 -1       866-5.11959E+05 1.16777E+02-2.14199E+03 4.42638E+03 2.81807E-09-6.39034E-10
 -1       867-5.12824E+05-9.22520E+02-4.66245E+03 2.45663E+04-2.45655E-09 9.10404E-10
 -1       868-5.11387E+05 8.36805E+02-8.29191E+03 4.50650E+03 5.05406E-09 1.44655E-09
 -1       869-5.18166E+05-1.02635E+04-2.05727E+04 2.43117E+04-1.38773E-08-2.56841E-09
 -1       870-5.06525E+05 7.80026E+03-3.19345E+04 4.68427E+03 2.16687E-09 2.43199E-09
 -1       871-4.71768E+03-4.26141E+04-8.08056E+03 1.19750E+05 5.51245E-09-4.04725E-10
 -1       872-1.64005E+03-4.40312E+04-2.36757E+03 1.39475E+05-1.72349E-09-2.89720E-09
 -1       873-8.22261E+01-4.35528E+04 2.33382E+03 1.19528E+05 3.59523E-09-1.40972E-09
 -1       874 2.64185E+03-4.16555E+04 8.75916E+03 1.39581E+05-4.86580E-09-2.17477E-09
 -1       875 9.17271E+03-4.51234E+04 1.89616E+04 1.19670E+05 1.33605E-09 1.09094E-09
 -1       876 5.92818E+05 7.38422E+04 5.62686E+04 2.33549E+05 1.11049E-08 3.93993E-09
 -1       877 6.05763E+05 1.19213E+05 3.57584E+04 2.41650E+05-1.69302E-09 1.47384E-09
 -1       878 6.02571E+05 8.73544E+04 1.32879E+04 2.32067E+05 6.88715E-09 2.97950E-09
 -1       879 5.94570E+05 1.01949E+05 7.37187E+03 2.43978E+05-1.60026E-09 1.37607E-09
 -1       880 6.03642E+05 8.89259E+04 3.10559E+03 2.32016E+05-3.35422E-09-4.41332E-09
 -1       881 5.93342E+05 9.99765E+04 1.67747E+03 2.44033E+05 1.17996E-09-3.30880E-09
 -1       882 6.03732E+05 8.91467E+04 8.90028E+02 2.32062E+05 9.19181E-09 4.46022E-09
 -1       883 5.93253E+05 9.97392E+04 7.67849E+02 2.43963E+05-1.00543E-08 5.55456E-09
 -1       884 6.03711E+05 8.91603E+04 9.96508E+02 2.32079E+05-1.07120E-09 3.56141E-09
 -1       885 5.93430E+05 9.99611E+04 1.97108E+03 2.43952E+05 3.07398E-08 6.69661E-09
 -1       886 6.03559E+05 8.89411E+04 3.70029E+03 2.32067E+05 1.32738E-08-4.73847E-09
 -1       887 5.94967E+05 1.02239E+05 8.80394E+03 2.43777E+05-1.28495E-08-1.11224E-08
 -1       888 6.02227E+05 8.71131E+04 1.58871E+04 2.32176E+05-6.04359E-10-4.20187E-10
 -1       889 6.08413E+05 1.22794E+05 4.27440E+04 2.40879E+05 1.49971E-08 1.28421E-09
 -1       890 5.90523E+05 7.10110E+04 6.72780E+04 2.33991E+05 9.75342E-09 3.63798E-10
 -1       891 2.17575E+03-2.62645E+05-1.00970E+04 2.48611E+04 2.09729E-09 2.58842E-09
 -1       892-3.82658E+03-2.66156E+05-8.17811E+03 1.07538E+05-1.47634E-09-9.50422E-10
 -1       893 6.05960E+02-2.63797E+05-6.52538E+03 2.47209E+04 7.44399E-09-4.42526E-10
 -1       894-5.89633E+03-2.67337E+05-1.17482E+04 1.07525E+05-1.84855E-10-9.00218E-09
 -1       895 3.87524E+03-2.61438E+05-1.68108E+04 2.48736E+04 4.66844E-09 5.52973E-10
 -1       896 8.72412E+05-6.11804E+03 1.42637E+04 2.83605E+03 3.07125E-10 2.00907E-09
 -1       897 8.78918E+05 7.07631E+03 1.01421E+04-7.80569E+03 2.55696E-10 3.04681E-11
 -1       898 8.74931E+05-9.45054E+02 3.71172E+03 1.12939E+03 4.26610E-10-5.57975E-10
 -1       899 8.75963E+05 1.09635E+03 2.36067E+03-5.27357E+03-2.71605E-10-1.44109E-09
 -1       900 8.75355E+05-1.47101E+02 1.01185E+03 3.03902E+02 3.19346E-10-1.73128E-09
 -1       901 8.75472E+05 1.88765E+02 6.94348E+02-4.19880E+03 6.18186E-10-2.13206E-09
 -1       902 8.75419E+05-3.72381E+01 5.17296E+02 5.46050E+01 9.26281E-11-2.22778E-09
 -1       903 8.75457E+05 1.47755E+02 7.42618E+02-4.18530E+03-1.21965E-10-2.08034E-09
 -1       904 8.75370E+05-1.06238E+02 1.17128E+03 2.90399E+02 1.62210E-10-1.87816E-09
 -1       905 8.75845E+05 7.87513E+02 2.58888E+03-5.22811E+03 1.55921E-10-1.29006E-09
 -1       906 8.75033E+05-6.78232E+02 4.41805E+03 1.09744E+03 9.62245E-10-1.01090E-09
 -1       907 8.78136E+05 5.09722E+03 1.08693E+04-7.70920E+03 7.38879E-10 7.17819E-10
 -1       908 8.73090E+05-4.41320E+03 1.72868E+04 2.77153E+03-1.10191E-09 2.18006E-09
 -1       909 8.91699E+05 3.30422E+04 4.73200E+04-1.25883E+04-2.14709E-09 2.93676E-09
 -1       910 8.61506E+05-2.85635E+04 6.67417E+04 5.97637E+03-6.65295E-10 5.59885E-09
 -1       911 1.25139E+05-5.54491E+02 2.10284E+02 5.12507E+03 1.46792E-09 4.08031E-09
 -1       912 1.30602E+05 5.31813E+02 1.10850E+03-2.10028E+04-5.48482E-10-2.53431E-09
 -1       913 1.26586E+05-8.73279E+01 2.21591E+01 4.20079E+03-1.45474E-09-5.08234E-09
 -1       914 1.28291E+05 1.31397E+02 3.17521E+02-1.95547E+04-1.28432E-09-9.35773E-09
 -1       915 1.27252E+05-1.55467E+01 6.52084E+01 3.67669E+03 3.47922E-09-1.08599E-08
 -1       916 1.27379E+05 1.17068E+02 1.43662E+02-1.88891E+04 5.91371E-09-1.21986E-08
 -1       917 1.27413E+05-1.33354E+01 2.09115E+02 3.53558E+03 4.92229E-09-1.22768E-08
 -1       918 1.27538E+05 1.67514E+02 4.59547E+02-1.89827E+04 3.15185E-09-1.19991E-08
 -1       919 1.27105E+05-7.42080E+01 7.12142E+02 3.77029E+03 5.00575E-09-1.02018E-08
 -1       920 1.28937E+05 5.55675E+02 1.98117E+03-1.98403E+04 3.56238E-09-7.07212E-09
 -1       921 1.26125E+05-4.78530E+02 2.79894E+03 4.39275E+03 1.03114E-09-4.01008E-09
 -1       922 1.32847E+05 3.42305E+03 8.07503E+03-2.15064E+04-2.40135E-09 1.74578E-09
 -1       923 1.23426E+05-3.09645E+03 1.12966E+04 5.43706E+03-2.21235E-10 5.78893E-09
 -1       924 1.46142E+05 2.27340E+04 3.37813E+04-2.41620E+04-4.99779E-09 1.40080E-08
 -1       925 1.13232E+05-2.00070E+04 4.45329E+04 7.05310E+03-4.91491E-09 2.09948E-08
 -1       926-8.99810E+05 1.94248E+04-4.60827E+04-1.93826E+04 6.71412E-09 3.00715E-08
 -1       927-9.19103E+05-2.21978E+04-3.22429E+04 2.96809E+04-1.94027E-08 2.82707E-08
 -1       928-9.08979E+05 2.81375E+03-1.22067E+04-1.53549E+04 7.03949E-10 2.49820E-08
 -1       929-9.06338E+05-3.19104E+03-6.48800E+03 1.70735E+04 1.30248E-08 1.74826E-08
 -1       930-9.12204E+05 2.07492E+02-3.67363E+03-6.77184E+03 4.30759E-09 1.30871E-08
 -1       931-9.02670E+05-3.57663E+02-2.95452E+02-1.81133E+03-2.02374E-09 3.96301E-09
 -1       932-9.12443E+05-1.63811E+02-1.19486E+03 3.52849E+03 4.97175E-09-1.39647E-09
 -1       933-9.04470E+05 2.21475E+02 1.09724E+03-2.06360E+04-5.63375E-10-9.71352E-09
 -1       934-9.10608E+05-2.13274E+02 6.07358E+02 1.20501E+04-2.86889E-09-1.30853E-08
 -1       935-9.07806E+05 1.05903E+03 2.62866E+03-3.30145E+04-2.27013E-09-1.88950E-08
 -1       936-9.09462E+05-7.27113E+02 4.28518E+03 1.59086E+04 3.77312E-10-1.91992E-08
 -1       937-9.06386E+05 5.36114E+03 1.06855E+04-3.47741E+04-1.03439E-08-1.96839E-08
 -1       938-9.12088E+05-4.45243E+03 1.67609E+04 1.38105E+04-9.01571E-09-1.77361E-08
 -1       939-8.90374E+05 3.28261E+04 4.69318E+04-2.53831E+04-4.31055E-09-1.17143E-08
 -1       940-9.25137E+05-2.83338E+04 6.48106E+04 6.51547E+03-3.44244E-10-5.58430E-09
 -1       941 5.74536E+06-2.82840E+05 6.66587E+05 8.67404E+02 2.19975E-08 6.98492E-09
 -1       942 6.03155E+06 3.27939E+05 4.69321E+05 3.44822E+03 2.25529E-08-5.14410E-09
 -1       943 5.85636E+06-4.38402E+04 1.72885E+05 1.83268E+03 6.08889E-09 2.91038E-10
 -1       944 5.90316E+06 5.07859E+04 1.08255E+05 2.30597E+03-1.30514E-09-2.08092E-09
 -1       945 5.87462E+06-6.78149E+03 4.46700E+04 2.00990E+03 3.57171E-09 5.64069E-09
 -1       946 5.88223E+06 7.96575E+03 2.67037E+04 2.09224E+03-9.09782E-10 9.28048E-09
 -1       947 5.87762E+06-1.16205E+03 1.34206E+04 2.04657E+03 2.46943E-09 8.33234E-09
 -1       948 5.87920E+06 2.16177E+03 1.10920E+04 2.02955E+03 2.81176E-10 6.91114E-09
 -1       949 5.87773E+06-9.93944E+02 1.18244E+04 2.07263E+03-4.54421E-10-6.73867E-09
 -1       950 5.88144E+06 6.50501E+03 2.21147E+04 1.89509E+03 5.77338E-09 7.15318E-09
 -1       951 5.87533E+06-5.49282E+03 3.63716E+04 2.18100E+03 1.13590E-09-6.94672E-09
 -1       952 5.89833E+06 4.10843E+04 8.76839E+04 1.20659E+03 3.09475E-10-2.46655E-09
 -1       953 5.86056E+06-3.54602E+04 1.39876E+05 2.76098E+03-8.91402E-09 2.61934E-09
 -1       954 6.00219E+06 2.65244E+05 3.79613E+05-2.56469E+03-5.83930E-09-5.65342E-09
 -1       955 5.77067E+06-2.28793E+05 5.38865E+05 5.95061E+03-1.84678E-08 1.94996E-09
 -1       956-3.17915E+05-5.36656E+03-1.10265E+04 4.58307E+04-7.84166E-09 2.16460E-10
 -1       957-3.19920E+05-1.66096E+03-5.55053E+03 5.29905E+04-2.64117E-09 1.88174E-09
 -1       958-3.18849E+05-1.64476E+02-2.49788E+03 4.55496E+04 4.35466E-09-3.69528E-09
 -1       959-3.19058E+05 4.40261E+01-1.26829E+03 5.32977E+04-4.49381E-09 2.14368E-09
 -1       960-3.18987E+05 1.16027E+02-6.16779E+02 4.55187E+04-7.59974E-09-4.43742E-09
 -1       961-3.19030E+05 1.49538E+02-3.24312E+02 5.33326E+04-1.68325E-08-1.12686E-09
 -1       962-3.19041E+05 1.38228E+02-1.83114E+02 4.55139E+04-1.08812E-08-2.91493E-10
 -1       963-3.19059E+05 1.69566E+02-1.40645E+02 5.33390E+04-1.19471E-08 1.55296E-09
 -1       964-3.19066E+05 1.53111E+02-1.64407E+02 4.55121E+04-2.01535E-08-3.19051E-09
 -1       965-3.19086E+05 1.81022E+02-2.78549E+02 5.33395E+04-2.73624E-08 4.86125E-10
 -1       966-3.19064E+05 1.61173E+02-5.20776E+02 4.55132E+04-2.34107E-08-2.19188E-10
 -1       967-3.19158E+05 1.18679E+02-1.07152E+03 5.33242E+04-5.01575E-09 5.55247E-10
 -1       968-3.18986E+05-5.09909E+01-2.10639E+03 4.55279E+04-1.76851E-09-4.48381E-10
 -1       969-3.19931E+05-1.29985E+03-4.68834E+03 5.31751E+04-4.75620E-09 1.21372E-09
 -1       970-3.18229E+05-4.43231E+03-9.31003E+03 4.56704E+04 1.18871E-09-2.46109E-09
 -1       971-6.89773E+05 1.04343E+04-4.27989E+04 4.47619E+03-1.03146E-08 1.99543E-09
 -1       972-7.05296E+05-1.38260E+04-2.75676E+04 2.36863E+04-1.02107E-08 2.09411E-09
 -1       973-6.96287E+05 1.09923E+03-1.11129E+04 4.19494E+03-8.66248E-09 5.75574E-09
 -1       974-6.98136E+05-1.30638E+03-6.24065E+03 2.41239E+04 1.13687E-09 8.05358E-09
 -1       975-6.97054E+05 1.35616E+02-2.86179E+03 4.03554E+03 5.19822E-09 3.71506E-09
 -1       976-6.97352E+05-4.52169E+00-1.59224E+03 2.43733E+04-6.05542E-09 8.21751E-09
 -1       977-6.97157E+05 4.36780E+01-9.28105E+02 3.94465E+03 1.28939E-08 6.90875E-09
 -1       978-6.97295E+05 1.22040E+02-8.30152E+02 2.44929E+04 2.49216E-08 3.68607E-09
 -1       979-6.97154E+05 5.15350E+01-1.08787E+03 3.91567E+03 1.05631E-08 4.95237E-09
 -1       980-6.97426E+05-3.45352E+01-2.02022E+03 2.44877E+04 1.02109E-08 9.10210E-09
 -1       981-6.97025E+05 1.84802E+02-3.70342E+03 3.94985E+03 4.77939E-10 3.39583E-09
 -1       982-6.98506E+05-1.71592E+03-8.14563E+03 2.43558E+04 3.88900E-09 7.00777E-09
 -1       983-6.96030E+05 1.45906E+03-1.45059E+04 4.04855E+03 7.41102E-09 3.03680E-09
 -1       984-7.07929E+05-1.80614E+04-3.60386E+04 2.40561E+04-3.67436E-10 6.61930E-09
 -1       985-6.87521E+05 1.36815E+04-5.59201E+04 4.25531E+03 4.81941E-09 4.63842E-09
 -3
    1PSTEP                        35          18           1          
  100CL  118 9.99161E-01         841                     0   18           1
 -4  DISP        4    1
 -5  D1          1    2    1    0
 -5  D2          1    2    2    0
 -5  D3          1    2    3    0
 -5  ALL         1    2    0    0    1ALL
 -1         1 1.24680E-04 0.00000E+00 0.00000E+00
 -1         2 9.92357E-05 0.00000E+00 0.00000E+00
 -1         3 8.12771E-05 0.00000E+00 0.00000E+00
 -1         4 6.99317E-05 0.00000E+00 0.00000E+00
 -1         5 6.47311E-05 0.00000E+00 0.00000E+00
 -1         8 9.86232E-05-1.23420E-06 0.00000E+00
 -1         9 7.58603E-05 1.36729E-06 0.00000E+00
 -1        10 7.13455E-05-3.45573E-06 0.00000E+00
 -1        11 6.66772E-05-7.37276E-07 0.00000E+00
 -1        12 6.16794E-05 1.71404E-06 0.00000E+00
 -1        15 5.04732E-05-1.76789E-06 0.00000E+00
 -1        16 5.65973E-05 1.33113E-06 0.00000E+00
 -1        17 5.03068E-05-6.91377E-06 0.00000E+00
 -1        18 5.10212E-05-1.48388E-06 0.00000E+00
 -1        19 5.40373E-05 3.37784E-06 0.00000E+00
 -1        20 5.48796E-05 3.61080E-05 0.00000E+00
 -1        21 5.48268E-05 8.62480E-05 0.00000E+00
 -1        22 1.24299E-05-1.31317E-06 0.00000E+00
 -1        23 1.70471E-05 1.70993E-06 0.00000E+00
 -1        24 2.09406E-05-8.06842E-06 0.00000E+00
 -1        25 4.41110E-05-1.04462E-06 0.00000E+00
 -1        26 4.69368E-05 4.47296E-06 0.00000E+00
 -1        27 4.41431E-05 3.48362E-05 0.00000E+00
 -1        28 4.08180E-05 8.50536E-05 0.00000E+00
 -1        29 0.00000E+00 0.00000E+00 0.00000E+00
 -1        30 5.38638E-06 2.23508E-06 0.00000E+00
 -1        31 5.76243E-06-7.37541E-06 0.00000E+00
 -1        32 0.00000E+00 0.00000E+00 0.00000E+00
 -1        33 3.70743E-05 7.23579E-06 0.00000E+00
 -1        34 3.50076E-05 3.47197E-05 0.00000E+00
 -1        35 3.04905E-05 8.44171E-05 0.00000E+00
 -1        36 1.23137E-04-3.32030E-21 0.00000E+00
 -1        37 1.21546E-04 1.69008E-19 0.00000E+00
 -1        38 1.19958E-04 4.22913E-19-5.29396E-23
 -1        39 1.18362E-04 7.63531E-19 0.00000E+00
 -1        40 1.16765E-04 9.34175E-19 0.00000E+00
 -1        41 1.15167E-04 7.86005E-19 2.64698E-23
 -1        42 1.13568E-04 4.28332E-19 0.00000E+00
 -1        43 1.11969E-04-8.67216E-20 0.00000E+00
 -1        44 1.10370E-04-4.70118E-19 0.00000E+00
 -1        45 1.08771E-04-6.08246E-19 0.00000E+00
 -1        46 1.07172E-04-4.68221E-19-5.29396E-23
 -1        47 1.05574E-04-2.07384E-19-2.64698E-23
 -1        48 1.03977E-04-1.26646E-19-5.29396E-23
 -1        49 1.02386E-04 5.95570E-23 2.64698E-23
 -1        50 1.00794E-04 5.74262E-20-2.64698E-23
 -1        51 1.22732E-04-2.08677E-07 0.00000E+00
 -1        52 1.19483E-04-4.08067E-07 0.00000E+00
 -1        53 1.15184E-04-6.07021E-07 0.00000E+00
 -1        54 1.10097E-04-8.08459E-07 0.00000E+00
 -1        55 1.04488E-04-1.01467E-06-5.79026E-24
 -1        56 1.22204E-04-1.17327E-06 5.29396E-23
 -1        57 1.19773E-04-2.74783E-06 2.64698E-23
 -1        58 1.17428E-04-4.53749E-06 0.00000E+00
 -1        59 1.15088E-04-6.38768E-06 0.00000E+00
 -1        60 1.12705E-04-8.12472E-06 0.00000E+00
 -1        61 1.10216E-04-9.58794E-06-5.29396E-23
 -1        62 1.07574E-04-1.06436E-05 1.05879E-22
 -1        63 1.04737E-04-1.11820E-05 0.00000E+00
 -1        64 1.01685E-04-1.11465E-05 1.05879E-22
 -1        65 9.84076E-05-1.05130E-05 0.00000E+00
 -1        66 9.49197E-05-9.31897E-06 0.00000E+00
 -1        67 9.12490E-05-7.63292E-06 0.00000E+00
 -1        68 8.74385E-05-5.57528E-06 0.00000E+00
 -1        69 8.35561E-05-3.28129E-06 2.64698E-23
 -1        70 7.96437E-05-9.23088E-07 0.00000E+00
 -1        71 9.81281E-05-1.85015E-19 2.64698E-23
 -1        72 9.70047E-05-4.90090E-19 0.00000E+00
 -1        73 9.58822E-05-6.92513E-19 0.00000E+00
 -1        74 9.47568E-05-7.98992E-19 0.00000E+00
 -1        75 9.36313E-05-7.18429E-19-2.64698E-23
 -1        76 9.25052E-05-4.44925E-19 0.00000E+00
 -1        77 9.13791E-05-2.51944E-19-2.64698E-23
 -1        78 9.02528E-05-3.24602E-20 0.00000E+00
 -1        79 8.91266E-05 1.32287E-19 2.64698E-23
 -1        80 8.80005E-05 1.65334E-19 1.32349E-23
 -1        81 8.68744E-05 7.95417E-21 0.00000E+00
 -1        82 8.57491E-05-6.81498E-20 0.00000E+00
 -1        83 8.46240E-05-2.77155E-20-2.64698E-23
 -1        84 8.35026E-05 6.11874E-20-1.32349E-23
 -1        85 8.23799E-05 2.43936E-21-2.64698E-23
 -1        86 9.80616E-05 2.07813E-07 0.00000E+00
 -1        87 9.46331E-05 4.49397E-07-4.13590E-25
 -1        88 8.98451E-05 6.83130E-07-1.65436E-24
 -1        89 8.45772E-05 9.16463E-07 2.06795E-25
 -1        90 7.96430E-05 1.15356E-06 0.00000E+00
 -1        91 1.03303E-04-1.27161E-05 0.00000E+00
 -1        92 1.16051E-04-5.03376E-05 6.61744E-24
 -1        93 1.34684E-04-1.05965E-04-1.32349E-23
 -1        94 1.56613E-04-1.72206E-04 0.00000E+00
 -1        95 1.78589E-04-2.38601E-04 1.32349E-23
 -1        96 1.97369E-04-2.94682E-04 0.00000E+00
 -1        97 2.10339E-04-3.32962E-04 0.00000E+00
 -1        98 2.14697E-04-3.46438E-04 6.61744E-24
 -1        99 2.09688E-04-3.34886E-04-1.32349E-23
 -1       100 1.94753E-04-2.98630E-04 6.61744E-24
 -1       101 1.72249E-04-2.44542E-04-1.32349E-23
 -1       102 1.45006E-04-1.79749E-04-6.61744E-24
 -1       103 1.17451E-04-1.14259E-04 0.00000E+00
 -1       104 9.40359E-05-5.80843E-05 0.00000E+00
 -1       105 7.78070E-05-1.87253E-05 1.32349E-23
 -1       106 8.05699E-05-3.57144E-20-2.64698E-23
 -1       107 7.98596E-05-8.05401E-20-1.32349E-23
 -1       108 7.91495E-05-8.77055E-20 0.00000E+00
 -1       109 7.84388E-05-1.59327E-20-1.32349E-23
 -1       110 7.77281E-05 5.32626E-20-2.64698E-23
 -1       111 7.70173E-05 1.49686E-19-1.32349E-23
 -1       112 7.63065E-05 3.10942E-19 0.00000E+00
 -1       113 7.55957E-05 3.87913E-19 1.32349E-23
 -1       114 7.48848E-05 3.51627E-19 0.00000E+00
 -1       115 7.41741E-05 3.32000E-19 0.00000E+00
 -1       116 7.34635E-05 3.31335E-19 2.64698E-23
 -1       117 7.27533E-05 3.07174E-19-1.32349E-23
 -1       118 7.20432E-05 2.60207E-19 2.64698E-23
 -1       119 7.13356E-05 1.80500E-19 0.00000E+00
 -1       120 7.06272E-05 8.18313E-20 1.32349E-23
 -1       121 8.09876E-05-5.77269E-07 1.32349E-23
 -1       122 8.01299E-05-1.15221E-06-6.61744E-24
 -1       123 7.87181E-05-1.72775E-06 0.00000E+00
 -1       124 7.67695E-05-2.30340E-06 6.61744E-24
 -1       125 7.43042E-05-2.88011E-06 0.00000E+00
 -1       126 8.33187E-05-6.89440E-06 0.00000E+00
 -1       127 9.01851E-05-2.71471E-05-6.61744E-24
 -1       128 1.00524E-04-5.73614E-05 1.32349E-23
 -1       129 1.13018E-04-9.39258E-05 0.00000E+00
 -1       130 1.25903E-04-1.31651E-04-1.32349E-23
 -1       131 1.37422E-04-1.65320E-04 0.00000E+00
 -1       132 1.46098E-04-1.90728E-04-1.32349E-23
 -1       133 1.50421E-04-2.03848E-04-6.61744E-24
 -1       134 1.49839E-04-2.03653E-04 0.00000E+00
 -1       135 1.43860E-04-1.89372E-04-6.61744E-24
 -1       136 1.33324E-04-1.63605E-04-1.32349E-23
 -1       137 1.19229E-04-1.29134E-04 6.61744E-24
 -1       138 1.03539E-04-9.08135E-05 1.32349E-23
 -1       139 8.82908E-05-5.35502E-05 0.00000E+00
 -1       140 7.53994E-05-2.20002E-05 1.32349E-23
 -1       141 6.96012E-05-4.48241E-20 0.00000E+00
 -1       142 6.92733E-05-1.79651E-19 0.00000E+00
 -1       143 6.89452E-05-2.30288E-19-1.32349E-23
 -1       144 6.86176E-05-2.43569E-19 0.00000E+00
 -1       145 6.82901E-05-3.18426E-19-1.32349E-23
 -1       146 6.79626E-05-3.17230E-19 6.61744E-24
 -1       147 6.76352E-05-2.51052E-19 0.00000E+00
 -1       148 6.73078E-05-2.05232E-19 6.61744E-24
 -1       149 6.69805E-05-2.34360E-19 0.00000E+00
 -1       150 6.66533E-05-2.32377E-19 0.00000E+00
 -1       151 6.63263E-05-2.70227E-19-6.61744E-24
 -1       152 6.60002E-05-2.88888E-19 0.00000E+00
 -1       153 6.56742E-05-3.17657E-19 6.61744E-24
 -1       154 6.53528E-05-2.15769E-19 3.30872E-24
 -1       155 6.50299E-05-8.25526E-20-8.27181E-25
 -1       156 7.15213E-05-1.15538E-07 0.00000E+00
 -1       157 7.60376E-05-2.28049E-07 0.00000E+00
 -1       158 8.06155E-05-3.41676E-07 3.30872E-24
 -1       159 8.23897E-05-4.45649E-07 3.30872E-24
 -1       160 7.86422E-05-5.57191E-07 0.00000E+00
 -1       161 6.96166E-05-4.30887E-07 0.00000E+00
 -1       162 6.95028E-05-1.40296E-06 0.00000E+00
 -1       163 6.95294E-05-2.75028E-06 0.00000E+00
 -1       164 6.96317E-05-4.30087E-06 0.00000E+00
 -1       165 6.97278E-05-5.83487E-06 0.00000E+00
 -1       166 6.97357E-05-7.13289E-06-6.61744E-24
 -1       167 6.95940E-05-8.03102E-06-1.32349E-23
 -1       168 6.92439E-05-8.37240E-06 0.00000E+00
 -1       169 6.86746E-05-8.12950E-06 0.00000E+00
 -1       170 6.78795E-05-7.28492E-06 0.00000E+00
 -1       171 6.69041E-05-5.96127E-06 1.32349E-23
 -1       172 6.57985E-05-4.28908E-06-6.61744E-24
 -1       173 6.46415E-05-2.48043E-06 1.32349E-23
 -1       174 6.35188E-05-7.47476E-07 0.00000E+00
 -1       175 6.24975E-05 7.10778E-07 0.00000E+00
 -1       191 6.46143E-05 2.85328E-07 0.00000E+00
 -1       192 6.43323E-05 5.71362E-07-6.61744E-24
 -1       193 6.38907E-05 8.57518E-07 0.00000E+00
 -1       194 6.32965E-05 1.14358E-06 6.61744E-24
 -1       195 6.25566E-05 1.42932E-06 0.00000E+00
 -1       251 9.79195E-05 1.42054E-05-1.32349E-23
 -1       252 9.66846E-05 5.08260E-05 0.00000E+00
 -1       253 9.48543E-05 1.02000E-04 0.00000E+00
 -1       254 9.26220E-05 1.60760E-04 0.00000E+00
 -1       255 9.04695E-05 2.18039E-04 0.00000E+00
 -1       256 8.88436E-05 2.64809E-04 0.00000E+00
 -1       257 8.78132E-05 2.94933E-04 1.32349E-23
 -1       258 8.71907E-05 3.02666E-04 6.61744E-24
 -1       259 8.64998E-05 2.88281E-04 0.00000E+00
 -1       260 8.52954E-05 2.52586E-04 6.61744E-24
 -1       261 8.34997E-05 2.02134E-04 0.00000E+00
 -1       262 8.12921E-05 1.43820E-04 0.00000E+00
 -1       263 7.91495E-05 8.67137E-05 0.00000E+00
 -1       264 7.75204E-05 3.98566E-05 0.00000E+00
 -1       265 7.64838E-05 9.46454E-06 0.00000E+00
 -1       266 9.43487E-05-1.30561E-06 0.00000E+00
 -1       267 9.07538E-05-1.35664E-06 1.65436E-24
 -1       268 8.61911E-05-1.41289E-06 3.30872E-24
 -1       269 7.90147E-05-1.47998E-06 8.27181E-25
 -1       270 6.76359E-05-1.58577E-06 0.00000E+00
 -1       271 9.48731E-05 2.12481E-06-5.29396E-23
 -1       272 9.14110E-05 4.49632E-06 0.00000E+00
 -1       273 8.82887E-05 5.97556E-06 0.00000E+00
 -1       274 8.54585E-05 6.64608E-06 0.00000E+00
 -1       275 8.28895E-05 6.61928E-06 5.29396E-23
 -1       276 8.05334E-05 6.01962E-06 0.00000E+00
 -1       277 7.83396E-05 4.98610E-06 5.29396E-23
 -1       278 7.62521E-05 3.66790E-06 2.64698E-23
 -1       279 7.42128E-05 2.22106E-06 5.29396E-23
 -1       280 7.21623E-05 8.04838E-07-2.64698E-23
 -1       281 7.00415E-05-4.22418E-07 5.29396E-23
 -1       282 6.77941E-05-1.30662E-06-2.64698E-23
 -1       283 6.53646E-05-1.70246E-06 0.00000E+00
 -1       284 6.27120E-05-1.47300E-06-2.64698E-23
 -1       285 5.97785E-05-5.04057E-07 0.00000E+00
 -1       286 7.55682E-05 4.07169E-06 1.32349E-23
 -1       287 7.52866E-05 5.84245E-06 0.00000E+00
 -1       288 7.50056E-05 6.65070E-06 0.00000E+00
 -1       289 7.47266E-05 6.47845E-06-3.30872E-24
 -1       290 7.44471E-05 5.44393E-06 0.00000E+00
 -1       291 7.41669E-05 3.67520E-06 3.30872E-24
 -1       292 7.38858E-05 1.40224E-06 0.00000E+00
 -1       293 7.36041E-05-1.13927E-06-3.30872E-24
 -1       294 7.33224E-05-3.67633E-06-6.61744E-24
 -1       295 7.30413E-05-5.93598E-06 0.00000E+00
 -1       296 7.27612E-05-7.68383E-06 0.00000E+00
 -1       297 7.24816E-05-8.69126E-06 0.00000E+00
 -1       298 7.22024E-05-8.83244E-06 0.00000E+00
 -1       299 7.19211E-05-7.99143E-06 0.00000E+00
 -1       300 7.16392E-05-6.18873E-06 1.32349E-23
 -1       301 7.26484E-05 1.34780E-06 0.00000E+00
 -1       302 6.94224E-05 1.34948E-06 1.65436E-24
 -1       303 6.61931E-05 1.35487E-06 0.00000E+00
 -1       304 6.29717E-05 1.35955E-06 6.61744E-24
 -1       305 5.97695E-05 1.35899E-06 1.32349E-23
 -1       306 7.33512E-05 3.40836E-06 2.64698E-23
 -1       307 7.11751E-05 4.42698E-06 2.64698E-23
 -1       308 6.93364E-05 4.55308E-06 5.29396E-23
 -1       309 6.77779E-05 3.91182E-06-2.64698E-23
 -1       310 6.64524E-05 2.64630E-06-5.29396E-23
 -1       311 6.53025E-05 9.07975E-07 0.00000E+00
 -1       312 6.42693E-05-1.14331E-06 5.29396E-23
 -1       313 6.32911E-05-3.34267E-06 0.00000E+00
 -1       314 6.23057E-05-5.52261E-06-5.29396E-23
 -1       315 6.12508E-05-7.51592E-06 0.00000E+00
 -1       316 6.00653E-05-9.15877E-06 0.00000E+00
 -1       317 5.86910E-05-1.02929E-05 0.00000E+00
 -1       318 5.70710E-05-1.07692E-05-5.29396E-23
 -1       319 5.51602E-05-1.04469E-05-2.64698E-23
 -1       320 5.29011E-05-9.20469E-06-2.64698E-23
 -1       321 7.10694E-05-1.88496E-06 0.00000E+00
 -1       322 7.08036E-05-3.53550E-06-6.61744E-24
 -1       323 7.05296E-05-7.90568E-06 0.00000E+00
 -1       324 7.02461E-05-1.44651E-05 0.00000E+00
 -1       325 6.99533E-05-2.23960E-05 0.00000E+00
 -1       326 6.96566E-05-3.08658E-05 0.00000E+00
 -1       327 6.93629E-05-3.89718E-05 0.00000E+00
 -1       328 6.90783E-05-4.58147E-05 0.00000E+00
 -1       329 6.88046E-05-5.06606E-05-6.61744E-24
 -1       330 6.85401E-05-5.27974E-05 0.00000E+00
 -1       331 6.82771E-05-5.18673E-05-6.61744E-24
 -1       332 6.80056E-05-4.75458E-05-3.30872E-24
 -1       333 6.77154E-05-3.99517E-05-6.61744E-24
 -1       334 6.73978E-05-2.92394E-05 0.00000E+00
 -1       335 6.70511E-05-1.59714E-05-6.61744E-24
 -1       336 6.80400E-05-4.03228E-06-1.32349E-23
 -1       337 6.45708E-05-4.61128E-06 0.00000E+00
 -1       338 6.09999E-05-5.19035E-06 0.00000E+00
 -1       339 5.73902E-05-5.76827E-06 6.61744E-24
 -1       340 5.38049E-05-6.34636E-06 0.00000E+00
 -1       341 6.62330E-05 8.40520E-06 0.00000E+00
 -1       342 5.41901E-05 3.76864E-05 6.61744E-24
 -1       343 3.71470E-05 7.90576E-05-1.32349E-23
 -1       344 1.73068E-05 1.27005E-04 6.61744E-24
 -1       345-2.23429E-06 1.74251E-04 0.00000E+00
 -1       346-1.83965E-05 2.13527E-04-6.61744E-24
 -1       347-2.91782E-05 2.39698E-04-1.32349E-23
 -1       348-3.28513E-05 2.47837E-04 0.00000E+00
 -1       349-2.97325E-05 2.37829E-04 0.00000E+00
 -1       350-2.02736E-05 2.09943E-04 0.00000E+00
 -1       351-6.49196E-06 1.69326E-04-1.32349E-23
 -1       352 9.67037E-06 1.21445E-04 0.00000E+00
 -1       353 2.57506E-05 7.38183E-05 0.00000E+00
 -1       354 3.92859E-05 3.39564E-05 6.61744E-24
 -1       355 4.83625E-05 7.18870E-06 6.61744E-24
 -1       356 6.62814E-05 1.48419E-05 6.61744E-24
 -1       357 6.59036E-05 2.91310E-05 3.30872E-24
 -1       358 6.55520E-05 4.13398E-05 0.00000E+00
 -1       359 6.52297E-05 5.07020E-05 0.00000E+00
 -1       360 6.49312E-05 5.68476E-05 0.00000E+00
 -1       361 6.46476E-05 5.94441E-05-3.30872E-24
 -1       362 6.43670E-05 5.86534E-05 6.61744E-24
 -1       363 6.40792E-05 5.46761E-05 0.00000E+00
 -1       364 6.37789E-05 4.81570E-05 0.00000E+00
 -1       365 6.34654E-05 3.97702E-05-3.30872E-24
 -1       366 6.31442E-05 3.04503E-05 0.00000E+00
 -1       367 6.28240E-05 2.11423E-05 0.00000E+00
 -1       368 6.25119E-05 1.27898E-05 0.00000E+00
 -1       369 6.22173E-05 6.32568E-06 0.00000E+00
 -1       370 6.19338E-05 2.42028E-06 0.00000E+00
 -1       371 5.39818E-05-9.31916E-07 0.00000E+00
 -1       372 4.80991E-05-1.05882E-06 0.00000E+00
 -1       373 4.69863E-05-1.16818E-06 3.30872E-24
 -1       374 4.85797E-05-1.27576E-06 8.27181E-25
 -1       375 5.06638E-05-1.38429E-06 0.00000E+00
 -1       376 5.88283E-05 1.83967E-05 1.32349E-23
 -1       377 4.85398E-05 4.36164E-05 0.00000E+00
 -1       378 3.71286E-05 7.16156E-05 1.32349E-23
 -1       379 2.59479E-05 9.90449E-05 6.61744E-24
 -1       380 1.62925E-05 1.22687E-04 0.00000E+00
 -1       381 9.40056E-06 1.39377E-04-6.61744E-24
 -1       382 5.82172E-06 1.47541E-04-1.32349E-23
 -1       383 6.01708E-06 1.45737E-04 0.00000E+00
 -1       384 9.57072E-06 1.34819E-04 1.32349E-23
 -1       385 1.60300E-05 1.15805E-04 0.00000E+00
 -1       386 2.43186E-05 9.16005E-05-1.32349E-23
 -1       387 3.33667E-05 6.52140E-05 0.00000E+00
 -1       388 4.19482E-05 4.01684E-05 0.00000E+00
 -1       389 4.88379E-05 1.99613E-05 0.00000E+00
 -1       390 5.31510E-05 6.95414E-06 0.00000E+00
 -1       406 6.06082E-05 1.99280E-06 1.32349E-23
 -1       407 5.94281E-05 2.27199E-06-6.61744E-24
 -1       408 5.81595E-05 2.55104E-06 0.00000E+00
 -1       409 5.68238E-05 2.82938E-06 6.61744E-24
 -1       410 5.54426E-05 3.10623E-06 0.00000E+00
 -1       466 5.07237E-05 1.49507E-05 0.00000E+00
 -1       467 5.10753E-05 2.50630E-05 3.30872E-24
 -1       468 5.14635E-05 3.02648E-05 1.32349E-23
 -1       469 5.18659E-05 3.21690E-05 0.00000E+00
 -1       470 5.22704E-05 3.16440E-05 0.00000E+00
 -1       471 5.26734E-05 2.95175E-05 0.00000E+00
 -1       472 5.30736E-05 2.62542E-05 0.00000E+00
 -1       473 5.34715E-05 2.22998E-05 0.00000E+00
 -1       474 5.38677E-05 1.79428E-05-1.32349E-23
 -1       475 5.42632E-05 1.34655E-05 0.00000E+00
 -1       476 5.46590E-05 9.12264E-06-1.32349E-23
 -1       477 5.50548E-05 5.17109E-06 0.00000E+00
 -1       478 5.54528E-05 1.95655E-06 0.00000E+00
 -1       479 5.58457E-05-1.62877E-07 0.00000E+00
 -1       480 5.62432E-05-5.82715E-07 3.30872E-24
 -1       481 3.36110E-05-1.79798E-06-1.65436E-24
 -1       482 2.31084E-05-1.74041E-06-1.65436E-24
 -1       483 1.73046E-05-1.64483E-06-3.30872E-24
 -1       484 1.45604E-05-1.53631E-06 0.00000E+00
 -1       485 1.34187E-05-1.42418E-06 0.00000E+00
 -1       486 3.79032E-05 2.90164E-05 0.00000E+00
 -1       487 1.63500E-05 8.10622E-05 0.00000E+00
 -1       488-1.11622E-05 1.46649E-04 0.00000E+00
 -1       489-4.12482E-05 2.17909E-04 0.00000E+00
 -1       490-6.97392E-05 2.85638E-04-1.32349E-23
 -1       491-9.25769E-05 3.40664E-04 0.00000E+00
 -1       492-1.07384E-04 3.76796E-04-1.32349E-23
 -1       493-1.12212E-04 3.88079E-04 6.61744E-24
 -1       494-1.07677E-04 3.74323E-04 0.00000E+00
 -1       495-9.45591E-05 3.35824E-04 0.00000E+00
 -1       496-7.54104E-05 2.78804E-04 1.32349E-23
 -1       497-5.26072E-05 2.09927E-04-6.61744E-24
 -1       498-2.91393E-05 1.38861E-04 0.00000E+00
 -1       499-7.95761E-06 7.53293E-05-6.61744E-24
 -1       500 8.35743E-06 2.71356E-05-6.61744E-24
 -1       501 5.61926E-05 3.99159E-06 0.00000E+00
 -1       502 5.57994E-05 5.71445E-06 0.00000E+00
 -1       503 5.54067E-05 6.38008E-06 1.32349E-23
 -1       504 5.50159E-05 5.88565E-06 0.00000E+00
 -1       505 5.46242E-05 4.34995E-06 1.32349E-23
 -1       506 5.42311E-05 1.90840E-06 6.61744E-24
 -1       507 5.38366E-05-1.13058E-06 1.32349E-23
 -1       508 5.34412E-05-4.44913E-06 6.61744E-24
 -1       509 5.30462E-05-7.67592E-06 0.00000E+00
 -1       510 5.26525E-05-1.04411E-05 0.00000E+00
 -1       511 5.22605E-05-1.24630E-05-1.32349E-23
 -1       512 5.18701E-05-1.34717E-05 6.61744E-24
 -1       513 5.14802E-05-1.33909E-05 1.32349E-23
 -1       514 5.10900E-05-1.21615E-05-6.61744E-24
 -1       515 5.06981E-05-9.94376E-06-1.32349E-23
 -1       516 5.03273E-05 1.39668E-06-6.61744E-24
 -1       517 3.81559E-05 1.44035E-06-8.27181E-25
 -1       518 2.43823E-05 1.46329E-06 4.13590E-25
 -1       519 1.32951E-05 1.52335E-06 0.00000E+00
 -1       520 9.35231E-06 1.62939E-06-8.27181E-25
 -1       521 5.35421E-05 3.13327E-06 0.00000E+00
 -1       522 5.07919E-05 3.92990E-06 2.64698E-23
 -1       523 4.83744E-05 3.84837E-06 5.29396E-23
 -1       524 4.62307E-05 3.00807E-06 2.64698E-23
 -1       525 4.43163E-05 1.55292E-06 0.00000E+00
 -1       526 4.25720E-05-3.62158E-07 0.00000E+00
 -1       527 4.09371E-05-2.57100E-06 0.00000E+00
 -1       528 3.93471E-05-4.90109E-06 0.00000E+00
 -1       529 3.77370E-05-7.17697E-06-5.29396E-23
 -1       530 3.60418E-05-9.22448E-06 2.64698E-23
 -1       531 3.41984E-05-1.08748E-05 0.00000E+00
 -1       532 3.21483E-05-1.19680E-05 2.64698E-23
 -1       533 2.98353E-05-1.23575E-05 5.29396E-23
 -1       534 2.72183E-05-1.19098E-05 0.00000E+00
 -1       535 2.42432E-05-1.05177E-05-5.29396E-23
 -1       536 5.03304E-05-3.89046E-06 0.00000E+00
 -1       537 5.03716E-05-1.58984E-06 0.00000E+00
 -1       538 5.04137E-05 6.65237E-08 0.00000E+00
 -1       539 5.04590E-05 1.15735E-06-1.03398E-25
 -1       540 5.05051E-05 1.76097E-06 0.00000E+00
 -1       541 5.05517E-05 1.95555E-06 0.00000E+00
 -1       542 5.05985E-05 1.81908E-06 0.00000E+00
 -1       543 5.06454E-05 1.42940E-06 8.27181E-25
 -1       544 5.06922E-05 8.64236E-07 0.00000E+00
 -1       545 5.07390E-05 2.01242E-07 0.00000E+00
 -1       546 5.07858E-05-4.81970E-07 0.00000E+00
 -1       547 5.08326E-05-1.10779E-06 0.00000E+00
 -1       548 5.08795E-05-1.59861E-06 1.65436E-24
 -1       549 5.09266E-05-1.87675E-06 0.00000E+00
 -1       550 5.09737E-05-1.86439E-06 1.65436E-24
 -1       551 4.59190E-05-7.10393E-06-5.58347E-24
 -1       552 4.10461E-05-7.28960E-06 1.65436E-24
 -1       553 3.58979E-05-7.47573E-06 6.61744E-24
 -1       554 3.06887E-05-7.66390E-06-6.61744E-24
 -1       555 2.56326E-05-7.85603E-06 0.00000E+00
 -1       556 4.89877E-05-4.09499E-06 0.00000E+00
 -1       557 4.79149E-05-1.91312E-06 0.00000E+00
 -1       558 4.70605E-05-3.07296E-07 0.00000E+00
 -1       559 4.63986E-05 7.89474E-07 6.61744E-24
 -1       560 4.59031E-05 1.44439E-06-1.32349E-23
 -1       561 4.55483E-05 1.72531E-06 0.00000E+00
 -1       562 4.53085E-05 1.70024E-06 0.00000E+00
 -1       563 4.51580E-05 1.43727E-06 0.00000E+00
 -1       564 4.50711E-05 1.00460E-06-6.61744E-24
 -1       565 4.50223E-05 4.70441E-07-3.30872E-24
 -1       566 4.49860E-05-9.69338E-08 6.61744E-24
 -1       567 4.49367E-05-6.29250E-07 1.65436E-24
 -1       568 4.48489E-05-1.05825E-06-3.30872E-24
 -1       569 4.46977E-05-1.31576E-06-2.89513E-24
 -1       570 4.44581E-05-1.33368E-06-1.65436E-24
 -1       571 5.12023E-05-1.06957E-06 3.30872E-24
 -1       572 5.13891E-05-7.86894E-07 4.13590E-25
 -1       573 5.15775E-05-6.11907E-07-3.30872E-24
 -1       574 5.17667E-05-5.19469E-07 3.30872E-24
 -1       575 5.19561E-05-4.84351E-07 0.00000E+00
 -1       576 5.21457E-05-4.81175E-07-3.30872E-24
 -1       577 5.23354E-05-4.84550E-07-6.61744E-24
 -1       578 5.25250E-05-4.69067E-07 0.00000E+00
 -1       579 5.27147E-05-4.09317E-07 6.61744E-24
 -1       580 5.29043E-05-2.79883E-07-1.32349E-23
 -1       581 5.30939E-05-5.53498E-08-1.32349E-23
 -1       582 5.32834E-05 2.89684E-07 0.00000E+00
 -1       583 5.34728E-05 7.80604E-07-1.32349E-23
 -1       584 5.36619E-05 1.44256E-06 0.00000E+00
 -1       585 5.38504E-05 2.30059E-06-1.32349E-23
 -1       586 5.00253E-05-1.40907E-06 0.00000E+00
 -1       587 4.88821E-05-1.33379E-06 0.00000E+00
 -1       588 4.76548E-05-1.25864E-06 0.00000E+00
 -1       589 4.64077E-05-1.18425E-06 5.16988E-25
 -1       590 4.52053E-05-1.11147E-06 0.00000E+00
 -1       591 5.07323E-05-9.97758E-07 1.65436E-24
 -1       592 5.04666E-05-5.95293E-07 3.30872E-24
 -1       593 5.02247E-05-2.60683E-07 0.00000E+00
 -1       594 5.00021E-05 2.05599E-08 0.00000E+00
 -1       595 4.97937E-05 2.62913E-07 0.00000E+00
 -1       596 4.95944E-05 4.80763E-07-1.65436E-24
 -1       597 4.93989E-05 6.88478E-07 0.00000E+00
 -1       598 4.92017E-05 9.00416E-07-1.65436E-24
 -1       599 4.89976E-05 1.13094E-06 1.65436E-24
 -1       600 4.87811E-05 1.39440E-06-8.27181E-25
 -1       601 4.85470E-05 1.70514E-06 0.00000E+00
 -1       602 4.82898E-05 2.07754E-06-1.24077E-24
 -1       603 4.80044E-05 2.52596E-06-1.65436E-24
 -1       604 4.76859E-05 3.06483E-06 4.13590E-25
 -1       605 4.73297E-05 3.70863E-06 0.00000E+00
 -1       606 5.40971E-05 4.79037E-06 0.00000E+00
 -1       607 5.41523E-05 6.32504E-06 0.00000E+00
 -1       608 5.42061E-05 7.97472E-06 0.00000E+00
 -1       609 5.42591E-05 9.73123E-06 0.00000E+00
 -1       610 5.43117E-05 1.15864E-05 0.00000E+00
 -1       611 5.43640E-05 1.35318E-05 0.00000E+00
 -1       612 5.44162E-05 1.55591E-05 0.00000E+00
 -1       613 5.44682E-05 1.76599E-05 0.00000E+00
 -1       614 5.45201E-05 1.98259E-05 3.30872E-24
 -1       615 5.45718E-05 2.20486E-05 0.00000E+00
 -1       616 5.46234E-05 2.43197E-05 0.00000E+00
 -1       617 5.46750E-05 2.66309E-05 0.00000E+00
 -1       618 5.47264E-05 2.89736E-05 0.00000E+00
 -1       619 5.47777E-05 3.13396E-05-8.27181E-25
 -1       620 5.48289E-05 3.37206E-05-1.65436E-24
 -1       621 5.27040E-05 3.56073E-06-3.30872E-24
 -1       622 5.14133E-05 3.74473E-06 1.65436E-24
 -1       623 5.01785E-05 3.92884E-06-3.30872E-24
 -1       624 4.90123E-05 4.11256E-06 3.30872E-24
 -1       625 4.79277E-05 4.29527E-06-3.30872E-24
 -1       626 5.36078E-05 4.85323E-06-6.61744E-24
 -1       627 5.31276E-05 6.45637E-06 0.00000E+00
 -1       628 5.26032E-05 8.17543E-06 0.00000E+00
 -1       629 5.20398E-05 9.99686E-06 0.00000E+00
 -1       630 5.14428E-05 1.19071E-05 0.00000E+00
 -1       631 5.08175E-05 1.38924E-05 0.00000E+00
 -1       632 5.01691E-05 1.59390E-05-6.61744E-24
 -1       633 4.95028E-05 1.80330E-05-1.65436E-24
 -1       634 4.88238E-05 2.01606E-05 3.30872E-24
 -1       635 4.81373E-05 2.23081E-05 0.00000E+00
 -1       636 4.74484E-05 2.44617E-05 0.00000E+00
 -1       637 4.67624E-05 2.66075E-05 1.65436E-24
 -1       638 4.60844E-05 2.87317E-05-1.65436E-24
 -1       639 4.54191E-05 3.08206E-05 0.00000E+00
 -1       640 4.47714E-05 3.28601E-05-1.65436E-24
 -1       641 5.48807E-05 3.85901E-05 0.00000E+00
 -1       642 5.48794E-05 4.13338E-05 2.06795E-25
 -1       643 5.48777E-05 4.43015E-05 0.00000E+00
 -1       644 5.48750E-05 4.74555E-05 0.00000E+00
 -1       645 5.48719E-05 5.07585E-05-1.03398E-25
 -1       646 5.48684E-05 5.41731E-05 5.16988E-26
 -1       647 5.48646E-05 5.76618E-05 0.00000E+00
 -1       648 5.48607E-05 6.11876E-05-2.58494E-26
 -1       649 5.48567E-05 6.47130E-05 2.58494E-26
 -1       650 5.48529E-05 6.82008E-05 0.00000E+00
 -1       651 5.48492E-05 7.16139E-05 0.00000E+00
 -1       652 5.48456E-05 7.49148E-05-1.03398E-25
 -1       653 5.48425E-05 7.80662E-05-4.13590E-25
 -1       654 5.48386E-05 8.10306E-05 0.00000E+00
 -1       655 5.48358E-05 8.37704E-05-3.30872E-24
 -1       656 5.27187E-05 3.59025E-05-3.30872E-24
 -1       657 5.08360E-05 3.56870E-05-1.65436E-24
 -1       658 4.91346E-05 3.54723E-05 6.61744E-24
 -1       659 4.75171E-05 3.52575E-05 0.00000E+00
 -1       660 4.58857E-05 3.50422E-05 0.00000E+00
 -1       661 5.41832E-05 3.86616E-05 3.30872E-24
 -1       662 5.34174E-05 4.14242E-05 0.00000E+00
 -1       663 5.25850E-05 4.43620E-05 0.00000E+00
 -1       664 5.16991E-05 4.74454E-05 0.00000E+00
 -1       665 5.07696E-05 5.06442E-05-6.61744E-24
 -1       666 4.98079E-05 5.39288E-05 0.00000E+00
 -1       667 4.88248E-05 5.72699E-05 0.00000E+00
 -1       668 4.78315E-05 6.06384E-05 3.30872E-24
 -1       669 4.68387E-05 6.40051E-05 0.00000E+00
 -1       670 4.58576E-05 6.73411E-05 3.30872E-24
 -1       671 4.48991E-05 7.06170E-05 6.61744E-24
 -1       672 4.39741E-05 7.38035E-05-3.30872E-24
 -1       673 4.30938E-05 7.68711E-05-6.61744E-24
 -1       674 4.22678E-05 7.97893E-05 0.00000E+00
 -1       675 4.15098E-05 8.25287E-05 0.00000E+00
 -1       676 5.24833E-05 8.60486E-05 6.61744E-24
 -1       677 5.01423E-05 8.58480E-05 0.00000E+00
 -1       678 4.78045E-05 8.56476E-05-6.61744E-24
 -1       679 4.54708E-05 8.54478E-05 3.30872E-24
 -1       680 4.31417E-05 8.52480E-05 3.30872E-24
 -1       681 1.27182E-05 8.09549E-08 6.61744E-24
 -1       682 1.30139E-05 2.28551E-06 0.00000E+00
 -1       683 1.33078E-05 5.07439E-06 0.00000E+00
 -1       684 1.36023E-05 8.22871E-06 0.00000E+00
 -1       685 1.38962E-05 1.15896E-05-6.61744E-24
 -1       686 1.41902E-05 1.50008E-05 0.00000E+00
 -1       687 1.44847E-05 1.83144E-05 6.61744E-24
 -1       688 1.47799E-05 2.13810E-05 0.00000E+00
 -1       689 1.50763E-05 2.40108E-05 0.00000E+00
 -1       690 1.53740E-05 2.60086E-05 0.00000E+00
 -1       691 1.56730E-05 2.70750E-05 6.61744E-24
 -1       692 1.59720E-05 2.68993E-05-3.30872E-24
 -1       693 1.62691E-05 2.49663E-05-6.61744E-24
 -1       694 1.65570E-05 2.07392E-05 0.00000E+00
 -1       695 1.68272E-05 1.33048E-05-3.30872E-24
 -1       696 1.10772E-05-1.09891E-06 0.00000E+00
 -1       697 9.00365E-06-8.79929E-07 0.00000E+00
 -1       698 6.53742E-06-6.62123E-07-6.61744E-24
 -1       699 4.00326E-06-4.42938E-07 0.00000E+00
 -1       700 1.71784E-06-2.23291E-07 0.00000E+00
 -1       701 1.19500E-05-9.31706E-07 3.30872E-24
 -1       702 1.18145E-05-1.51762E-06 0.00000E+00
 -1       703 1.19794E-05-2.90304E-06 0.00000E+00
 -1       704 1.23756E-05-4.91723E-06-3.30872E-24
 -1       705 1.29001E-05-7.27558E-06 6.61744E-24
 -1       706 1.34450E-05-9.69023E-06-3.30872E-24
 -1       707 1.38996E-05-1.18629E-05 1.32349E-23
 -1       708 1.41539E-05-1.34986E-05 0.00000E+00
 -1       709 1.41329E-05-1.43980E-05 1.32349E-23
 -1       710 1.37651E-05-1.43715E-05-3.30872E-24
 -1       711 1.30401E-05-1.33940E-05-6.61744E-24
 -1       712 1.19525E-05-1.14524E-05 0.00000E+00
 -1       713 1.05606E-05-8.70532E-06 0.00000E+00
 -1       714 8.93026E-06-5.32020E-06 0.00000E+00
 -1       715 7.16421E-06-1.57997E-06-3.30872E-24
 -1       716 1.72241E-05-1.02121E-05-3.30872E-24
 -1       717 1.74463E-05-1.86036E-05 0.00000E+00
 -1       718 1.76868E-05-2.42181E-05 6.61744E-24
 -1       719 1.79384E-05-2.77796E-05 0.00000E+00
 -1       720 1.81944E-05-2.97236E-05 0.00000E+00
 -1       721 1.84523E-05-3.04684E-05 0.00000E+00
 -1       722 1.87106E-05-3.02636E-05-6.61744E-24
 -1       723 1.89685E-05-2.93486E-05 0.00000E+00
 -1       724 1.92257E-05-2.78627E-05 0.00000E+00
 -1       725 1.94819E-05-2.59391E-05 3.30872E-24
 -1       726 1.97372E-05-2.36495E-05 6.61744E-24
 -1       727 1.99904E-05-2.10616E-05 3.30872E-24
 -1       728 2.02426E-05-1.82010E-05 0.00000E+00
 -1       729 2.04871E-05-1.50906E-05-4.13590E-25
 -1       730 2.07330E-05-1.17180E-05 0.00000E+00
 -1       731 2.66300E-05 1.76641E-06 0.00000E+00
 -1       732 2.81716E-05 1.87064E-06 1.65436E-24
 -1       733 2.42895E-05 1.97119E-06-3.30872E-24
 -1       734 1.75766E-05 2.05752E-06 1.65436E-24
 -1       735 1.04654E-05 2.14170E-06 0.00000E+00
 -1       736 2.36979E-05-1.77300E-05-6.61744E-24
 -1       737 3.41220E-05-4.80557E-05 3.30872E-24
 -1       738 4.68578E-05-8.51818E-05 0.00000E+00
 -1       739 6.04528E-05-1.24892E-04 0.00000E+00
 -1       740 7.33053E-05-1.62383E-04 0.00000E+00
 -1       741 8.37958E-05-1.92899E-04 0.00000E+00
 -1       742 9.07490E-05-2.13260E-04-1.32349E-23
 -1       743 9.29704E-05-2.20483E-04 0.00000E+00
 -1       744 9.02433E-05-2.14493E-04 0.00000E+00
 -1       745 8.24329E-05-1.95435E-04-6.61744E-24
 -1       746 7.05798E-05-1.66302E-04 0.00000E+00
 -1       747 5.58686E-05-1.30224E-04 6.61744E-24
 -1       748 4.01984E-05-9.18393E-05 0.00000E+00
 -1       749 2.55139E-05-5.58135E-05 6.61744E-24
 -1       750 1.35047E-05-2.63025E-05 0.00000E+00
 -1       751 2.22987E-05-5.03507E-06 0.00000E+00
 -1       752 2.37462E-05-3.42557E-06 0.00000E+00
 -1       753 2.51893E-05-2.68146E-06-2.64698E-23
 -1       754 2.66490E-05-2.29832E-06 0.00000E+00
 -1       755 2.81092E-05-2.13444E-06 0.00000E+00
 -1       756 2.95727E-05-2.06155E-06 0.00000E+00
 -1       757 3.10366E-05-2.04344E-06 0.00000E+00
 -1       758 3.25011E-05-2.04725E-06 0.00000E+00
 -1       759 3.39656E-05-2.06231E-06-5.29396E-23
 -1       760 3.54297E-05-2.07864E-06 0.00000E+00
 -1       761 3.68937E-05-2.08758E-06 5.29396E-23
 -1       762 3.83553E-05-2.07997E-06 0.00000E+00
 -1       763 3.98165E-05-2.02995E-06 0.00000E+00
 -1       764 4.12660E-05-1.90906E-06 0.00000E+00
 -1       765 4.27194E-05-1.61743E-06-2.64698E-23
 -1       766 1.86973E-05-7.97046E-06-6.61744E-24
 -1       767 1.93400E-05-7.83797E-06 8.27181E-25
 -1       768 2.06400E-05-7.70798E-06 0.00000E+00
 -1       769 2.03741E-05-7.57304E-06-4.13590E-25
 -1       770 1.62024E-05-7.44721E-06 0.00000E+00
 -1       771 1.87025E-05-5.05424E-06-2.64698E-23
 -1       772 1.66581E-05-2.59351E-06 0.00000E+00
 -1       773 1.48027E-05-6.40766E-07 0.00000E+00
 -1       774 1.31198E-05 8.50252E-07 2.64698E-23
 -1       775 1.15930E-05 1.92610E-06 0.00000E+00
 -1       776 1.02044E-05 2.63386E-06 2.64698E-23
 -1       777 8.93649E-06 3.02087E-06 0.00000E+00
 -1       778 7.77115E-06 3.13479E-06-1.32349E-23
 -1       779 6.69041E-06 3.02349E-06-2.64698E-23
 -1       780 5.67619E-06 2.73509E-06 0.00000E+00
 -1       781 4.71043E-06 2.31782E-06 2.64698E-23
 -1       782 3.77515E-06 1.82010E-06 1.32349E-23
 -1       783 2.85238E-06 1.29042E-06 2.64698E-23
 -1       784 1.92507E-06 7.77541E-07-1.32349E-23
 -1       785 9.76334E-07 3.30238E-07-2.64698E-23
 -1       786 4.42769E-05-4.04176E-07 0.00000E+00
 -1       787 4.44530E-05 9.54462E-08 1.65436E-24
 -1       788 4.46290E-05 4.76275E-07 0.00000E+00
 -1       789 4.48066E-05 7.60225E-07 0.00000E+00
 -1       790 4.49845E-05 9.69035E-07-6.61744E-24
 -1       791 4.51626E-05 1.12433E-06 0.00000E+00
 -1       792 4.53409E-05 1.24765E-06 6.61744E-24
 -1       793 4.55191E-05 1.36045E-06 3.30872E-24
 -1       794 4.56974E-05 1.48422E-06 6.61744E-24
 -1       795 4.58757E-05 1.64043E-06-3.30872E-24
 -1       796 4.60539E-05 1.85060E-06 6.61744E-24
 -1       797 4.62320E-05 2.13637E-06 0.00000E+00
 -1       798 4.64100E-05 2.51949E-06 6.61744E-24
 -1       799 4.65872E-05 3.02185E-06 1.65436E-24
 -1       800 4.67644E-05 3.66560E-06 3.30872E-24
 -1       801 4.01599E-05-8.51649E-07 0.00000E+00
 -1       802 3.19642E-05-6.69809E-07 1.65436E-24
 -1       803 2.16875E-05-5.05112E-07-3.30872E-24
 -1       804 1.14924E-05-3.43548E-07 0.00000E+00
 -1       805 3.54180E-06-1.64093E-07 1.32349E-23
 -1       806 4.36604E-05-4.74355E-07 0.00000E+00
 -1       807 4.32241E-05 3.76355E-08 0.00000E+00
 -1       808 4.28034E-05 5.03277E-07 0.00000E+00
 -1       809 4.23950E-05 9.33459E-07-3.30872E-24
 -1       810 4.19956E-05 1.33900E-06 0.00000E+00
 -1       811 4.16012E-05 1.73063E-06-3.30872E-24
 -1       812 4.12080E-05 2.11906E-06-6.61744E-24
 -1       813 4.08120E-05 2.51497E-06 0.00000E+00
 -1       814 4.04092E-05 2.92907E-06 0.00000E+00
 -1       815 3.99955E-05 3.37204E-06 3.30872E-24
 -1       816 3.95670E-05 3.85456E-06 0.00000E+00
 -1       817 3.91198E-05 4.38734E-06 1.65436E-24
 -1       818 3.86498E-05 4.98106E-06-6.61744E-24
 -1       819 3.81538E-05 5.64644E-06 3.30872E-24
 -1       820 3.76284E-05 6.39426E-06-3.30872E-24
 -1       821 4.67737E-05 5.49869E-06 0.00000E+00
 -1       822 4.66002E-05 6.75217E-06 1.65436E-24
 -1       823 4.64266E-05 8.21043E-06 0.00000E+00
 -1       824 4.62511E-05 9.84996E-06 0.00000E+00
 -1       825 4.60752E-05 1.16470E-05 0.00000E+00
 -1       826 4.58988E-05 1.35776E-05-3.30872E-24
 -1       827 4.57220E-05 1.56174E-05 6.61744E-24
 -1       828 4.55451E-05 1.77420E-05-3.30872E-24
 -1       829 4.53680E-05 1.99270E-05 6.61744E-24
 -1       830 4.51909E-05 2.21475E-05-3.30872E-24
 -1       831 4.50138E-05 2.43790E-05 0.00000E+00
 -1       832 4.48370E-05 2.65967E-05 3.30872E-24
 -1       833 4.46604E-05 2.87758E-05 3.30872E-24
 -1       834 4.44852E-05 3.08917E-05 0.00000E+00
 -1       835 4.43100E-05 3.29200E-05 0.00000E+00
 -1       836 4.56993E-05 4.92508E-06-6.61744E-24
 -1       837 4.40111E-05 5.39285E-06 0.00000E+00
 -1       838 4.20886E-05 5.85936E-06 1.32349E-23
 -1       839 4.01478E-05 6.32484E-06 3.30872E-24
 -1       840 3.84042E-05 6.79148E-06-6.61744E-24
 -1       841 4.65272E-05 5.48513E-06 0.00000E+00
 -1       842 4.60227E-05 6.73734E-06-1.03398E-25
 -1       843 4.54360E-05 8.20861E-06 8.27181E-25
 -1       844 4.47748E-05 9.87570E-06 0.00000E+00
 -1       845 4.40495E-05 1.17125E-05 0.00000E+00
 -1       846 4.32702E-05 1.36924E-05 4.13590E-25
 -1       847 4.24478E-05 1.57861E-05 8.27181E-25
 -1       848 4.15936E-05 1.79643E-05-4.13590E-25
 -1       849 4.07191E-05 2.01962E-05 8.27181E-25
 -1       850 3.98360E-05 2.24507E-05 0.00000E+00
 -1       851 3.89562E-05 2.46966E-05 0.00000E+00
 -1       852 3.80914E-05 2.69024E-05 4.13590E-25
 -1       853 3.72533E-05 2.90375E-05-8.27181E-25
 -1       854 3.64529E-05 3.10712E-05 0.00000E+00
 -1       855 3.57016E-05 3.29752E-05 0.00000E+00
 -1       856 4.39476E-05 3.68930E-05 3.30872E-24
 -1       857 4.37419E-05 3.93205E-05 0.00000E+00
 -1       858 4.35357E-05 4.20717E-05 0.00000E+00
 -1       859 4.33273E-05 4.50986E-05-3.30872E-24
 -1       860 4.31180E-05 4.83529E-05 0.00000E+00
 -1       861 4.29078E-05 5.17855E-05 0.00000E+00
 -1       862 4.26972E-05 5.53475E-05 0.00000E+00
 -1       863 4.24862E-05 5.89892E-05 0.00000E+00
 -1       864 4.22752E-05 6.26610E-05-6.61744E-24
 -1       865 4.20642E-05 6.63134E-05 0.00000E+00
 -1       866 4.18535E-05 6.98966E-05 0.00000E+00
 -1       867 4.16433E-05 7.33612E-05 3.30872E-24
 -1       868 4.14338E-05 7.66580E-05-6.61744E-24
 -1       869 4.12259E-05 7.97379E-05 3.30872E-24
 -1       870 4.10186E-05 8.25523E-05 0.00000E+00
 -1       871 4.24831E-05 3.48193E-05 0.00000E+00
 -1       872 4.09307E-05 3.48009E-05 8.27181E-25
 -1       873 3.94468E-05 3.47823E-05 0.00000E+00
 -1       874 3.79915E-05 3.47631E-05-4.13590E-25
 -1       875 3.65249E-05 3.47431E-05-1.65436E-24
 -1       876 4.36446E-05 3.69644E-05 0.00000E+00
 -1       877 4.30361E-05 3.94176E-05 0.00000E+00
 -1       878 4.23222E-05 4.21487E-05 0.00000E+00
 -1       879 4.15208E-05 4.51164E-05-3.30872E-24
 -1       880 4.06460E-05 4.82788E-05 0.00000E+00
 -1       881 3.97132E-05 5.15952E-05 3.30872E-24
 -1       882 3.87375E-05 5.50251E-05-6.61744E-24
 -1       883 3.77339E-05 5.85286E-05 3.30872E-24
 -1       884 3.67176E-05 6.20659E-05 6.61744E-24
 -1       885 3.57035E-05 6.55974E-05 0.00000E+00
 -1       886 3.47064E-05 6.90832E-05-6.61744E-24
 -1       887 3.37414E-05 7.24836E-05 0.00000E+00
 -1       888 3.28237E-05 7.57586E-05-6.61744E-24
 -1       889 3.19667E-05 7.88669E-05-3.30872E-24
 -1       890 3.11883E-05 8.17686E-05 0.00000E+00
 -1       891 3.87951E-05 8.49477E-05 3.30872E-24
 -1       892 3.71627E-05 8.48409E-05 0.00000E+00
 -1       893 3.57186E-05 8.47345E-05 0.00000E+00
 -1       894 3.42601E-05 8.46283E-05 1.65436E-24
 -1       895 3.25848E-05 8.45216E-05-1.65436E-24
 -1       896 3.35470E-07 1.07036E-06 0.00000E+00
 -1       897 6.73850E-07 1.46487E-06 0.00000E+00
 -1       898 1.01217E-06 1.35506E-06-1.32349E-23
 -1       899 1.35085E-06 9.05381E-07-6.61744E-24
 -1       900 1.68942E-06 2.16641E-07 0.00000E+00
 -1       901 2.02797E-06-6.13702E-07 0.00000E+00
 -1       902 2.36647E-06-1.51471E-06 0.00000E+00
 -1       903 2.70497E-06-2.41641E-06-6.61744E-24
 -1       904 3.04351E-06-3.24903E-06 1.32349E-23
 -1       905 3.38206E-06-3.94177E-06 6.61744E-24
 -1       906 3.72067E-06-4.39762E-06-1.32349E-23
 -1       907 4.05893E-06-4.51632E-06-6.61744E-24
 -1       908 4.39704E-06-4.13440E-06 0.00000E+00
 -1       909 4.73240E-06-3.08141E-06-3.30872E-24
 -1       910 5.06704E-06-1.06142E-06 0.00000E+00
 -1       911 5.41932E-06 4.91348E-06 0.00000E+00
 -1       912 5.45554E-06 5.08705E-06 4.13590E-25
 -1       913 5.49030E-06 3.22285E-06 8.27181E-25
 -1       914 5.52101E-06-2.15123E-07 0.00000E+00
 -1       915 5.54743E-06-4.79301E-06 8.27181E-25
 -1       916 5.57048E-06-1.00786E-05-4.13590E-25
 -1       917 5.59205E-06-1.56530E-05 8.27181E-25
 -1       918 5.61429E-06-2.10983E-05 4.13590E-25
 -1       919 5.63920E-06-2.59935E-05 8.27181E-25
 -1       920 5.66817E-06-2.99171E-05 0.00000E+00
 -1       921 5.70134E-06-3.24291E-05 0.00000E+00
 -1       922 5.73708E-06-3.30872E-05 4.13590E-25
 -1       923 5.77141E-06-3.14137E-05 0.00000E+00
 -1       924 5.79610E-06-2.69275E-05 1.03398E-25
 -1       925 5.80112E-06-1.90946E-05 0.00000E+00
 -1       926 5.35558E-06 6.26158E-06 0.00000E+00
 -1       927 4.94366E-06 1.97115E-05 0.00000E+00
 -1       928 4.54628E-06 3.20045E-05-6.61744E-24
 -1       929 4.17028E-06 4.21866E-05-6.61744E-24
 -1       930 3.81698E-06 4.96443E-05 0.00000E+00
 -1       931 3.48182E-06 5.38005E-05 0.00000E+00
 -1       932 3.15458E-06 5.46112E-05 1.32349E-23
 -1       933 2.82447E-06 5.20768E-05-6.61744E-24
 -1       934 2.48405E-06 4.67379E-05 1.32349E-23
 -1       935 2.12967E-06 3.91725E-05-6.61744E-24
 -1       936 1.76531E-06 3.03181E-05 0.00000E+00
 -1       937 1.39754E-06 2.11296E-05 0.00000E+00
 -1       938 1.03528E-06 1.26154E-05-1.32349E-23
 -1       939 6.82818E-07 5.77528E-06 0.00000E+00
 -1       940 3.43897E-07 1.33787E-06 0.00000E+00
 -1       941 2.19777E-06 2.73868E-07 0.00000E+00
 -1       942 4.51650E-06 6.25645E-07 0.00000E+00
 -1       943 6.82771E-06 1.02045E-06 0.00000E+00
 -1       944 9.16183E-06 1.42777E-06 0.00000E+00
 -1       945 1.14967E-05 1.84201E-06 0.00000E+00
 -1       946 1.38361E-05 2.25829E-06 0.00000E+00
 -1       947 1.61761E-05 2.67576E-06 5.29396E-23
 -1       948 1.85168E-05 3.09371E-06-2.64698E-23
 -1       949 2.08576E-05 3.51241E-06 0.00000E+00
 -1       950 2.31979E-05 3.93217E-06 0.00000E+00
 -1       951 2.55377E-05 4.35548E-06 0.00000E+00
 -1       952 2.78738E-05 4.78519E-06-2.64698E-23
 -1       953 3.02093E-05 5.23696E-06 0.00000E+00
 -1       954 3.25263E-05 5.72865E-06 0.00000E+00
 -1       955 3.48493E-05 6.35783E-06-2.64698E-23
 -1       956 3.69481E-05 8.37237E-06 1.24077E-24
 -1       957 3.68199E-05 9.65704E-06-8.27181E-25
 -1       958 3.66910E-05 1.10756E-05 1.65436E-24
 -1       959 3.65618E-05 1.26129E-05-1.65436E-24
 -1       960 3.64324E-05 1.42537E-05 1.65436E-24
 -1       961 3.63028E-05 1.59825E-05 8.27181E-25
 -1       962 3.61731E-05 1.77839E-05-1.65436E-24
 -1       963 3.60433E-05 1.96425E-05 1.65436E-24
 -1       964 3.59134E-05 2.15429E-05 0.00000E+00
 -1       965 3.57834E-05 2.34696E-05-1.65436E-24
 -1       966 3.56535E-05 2.54072E-05-3.30872E-24
 -1       967 3.55236E-05 2.73403E-05 1.65436E-24
 -1       968 3.53938E-05 2.92534E-05-3.30872E-24
 -1       969 3.52642E-05 3.11311E-05 0.00000E+00
 -1       970 3.51351E-05 3.29582E-05-3.30872E-24
 -1       971 3.47357E-05 3.66142E-05-6.61744E-24
 -1       972 3.44552E-05 3.88975E-05-3.30872E-24
 -1       973 3.41741E-05 4.15230E-05 6.61744E-24
 -1       974 3.38910E-05 4.44429E-05 0.00000E+00
 -1       975 3.36069E-05 4.76089E-05 6.61744E-24
 -1       976 3.33221E-05 5.09716E-05 0.00000E+00
 -1       977 3.30367E-05 5.44815E-05 6.61744E-24
 -1       978 3.27509E-05 5.80886E-05 0.00000E+00
 -1       979 3.24650E-05 6.17426E-05 0.00000E+00
 -1       980 3.21791E-05 6.53930E-05 0.00000E+00
 -1       981 3.18936E-05 6.89896E-05 6.61744E-24
 -1       982 3.16086E-05 7.24819E-05-3.30872E-24
 -1       983 3.13244E-05 7.58202E-05-6.61744E-24
 -1       984 3.10424E-05 7.89547E-05-3.30872E-24
 -1       985 3.07609E-05 8.18363E-05 6.61744E-24
 -3
    1PSTEP                        36          18           1          
  100CL  118 9.99161E-01         841                     0   18           1
 -4  STRESS      6    1
 -5  SXX         1    4    1    1
 -5  SYY         1    4    2    2
 -5  SZZ         1    4    3    3
 -5  SXY         1    4    1    2
 -5  SYZ         1    4    2    3
 -5  SZX         1    4    3    1
 -1         1-3.84452E+06-1.26044E+06-7.81120E+05-1.19931E+06 2.91038E-11 4.87004E-09
 -1         2-1.92727E+06-4.10440E+03 3.21539E+04-1.37259E+05 7.88532E-10 4.85761E-09
 -1         3-1.52623E+06-5.17891E+05-4.66496E+04-1.18583E+05-4.77166E-09-3.47154E-09
 -1         4-9.57228E+05-1.52177E+05 1.20357E+03-6.02432E+04-6.04246E-11-3.31158E-09
 -1         5-4.91879E+05 1.89914E+05-2.14333E+05-2.04584E+04 8.62565E-09 4.22381E-09
 -1         8-1.64209E+06-6.41200E+05-1.85503E+05-7.62496E+05 1.23691E-10 2.31375E-09
 -1         9-2.02521E+06-4.30074E+05-2.15235E+05-5.90529E+05-9.10707E-10-3.57492E-09
 -1        10-5.72758E+05-4.55687E+05 8.98033E+04-9.00480E+04-2.91857E-09 6.43316E-10
 -1        11-5.87520E+05-1.22532E+05 9.42332E+03-3.36706E+04-1.20919E-08-2.47883E-09
 -1        12-4.98735E+05 1.56890E+05-2.19777E+05-1.09085E+05 9.64246E-09-8.95696E-10
 -1        15 9.61586E+04 1.13597E+05 3.15358E+04 1.04156E+04 5.81167E-10-5.59703E-09
 -1        16-1.71790E+06-3.75251E+05-6.29498E+04-6.46391E+05 1.86143E-09 6.20579E-10
 -1        17-9.18403E+05-5.84672E+05-1.15560E+05-4.32718E+05-1.49885E-09 1.10837E-09
 -1        18-1.08121E+05-1.16725E+05-7.95536E+04-1.51857E+05 4.78849E-09 1.24176E-09
 -1        19-2.62687E+03 1.34727E+05-6.43487E+04-6.64050E+04 3.59554E-10-7.17288E-10
 -1        20 1.48183E+05-1.09347E+05-1.73080E+04 7.75775E+04 1.86769E-08-6.37556E-10
 -1        21-5.50062E+02-2.23107E+05 5.02355E+04 1.28896E+03 2.64272E-08-3.09390E-10
 -1        22 3.95090E+04 1.92234E+05 1.22186E+03-3.59039E+04 2.54659E-11-1.83718E-10
 -1        23 7.65358E+04 7.85314E+04 3.13700E+04-1.68619E+05-6.35479E-09 9.54969E-10
 -1        24-2.97575E+05-2.39874E+04 3.17708E+05-5.84930E+05-6.69752E-09-1.96936E-09
 -1        25 7.10469E+05 2.80388E+05 2.32451E+05-3.80969E+05 1.84688E-09 4.20793E-10
 -1        26 6.71786E+03 2.62950E+05 1.50886E+04-4.83736E+04-5.75407E-10 2.28374E-09
 -1        27-6.07232E+04-9.44933E+04-4.06654E+04 1.03395E+05 1.19568E-08-3.03165E-10
 -1        28-1.98631E+04-1.72132E+05-1.08668E+03 8.18744E+04 2.00037E-08 7.03873E-10
 -1        29 4.67517E+05 3.37512E+05 1.49072E+03-1.52803E+04 3.73106E-11 2.36014E-09
 -1        30 7.64887E+04 5.09381E+04 1.94988E+03-9.72547E+04 3.61200E-09 5.70344E-09
 -1        31-4.05551E+05 7.08055E+04 1.26857E+04-1.22735E+04-1.33962E-08 1.63645E-08
 -1        32 1.09707E+06 6.38304E+05 7.21342E+05-5.79826E+05 9.43130E-09 5.43514E-09
 -1        33 1.62205E+06 7.43700E+05 5.21432E+05-7.43709E+04-1.52857E-08-1.84809E-09
 -1        34-2.99251E+05-4.48707E+04-1.61335E+04 5.18328E+04-2.58247E-09-3.00133E-11
 -1        35-4.70224E+04-5.64794E+04-1.10433E+03 1.21359E+05 3.32293E-08 1.34120E-09
 -1        36-4.50379E+06 1.26257E+05-2.95033E+05 7.79141E-08 2.28807E-10 8.65839E-09
 -1        37-4.63098E+06-1.46247E+05-2.08288E+05 3.26593E-07-1.48455E-09-9.77525E-09
 -1        38-4.55292E+06 1.95540E+04-7.63016E+04-1.94992E-07-2.99084E-09 1.40062E-08
 -1        39-4.57347E+06-2.26414E+04-4.77859E+04-2.09653E-07 2.92267E-09 1.03455E-08
 -1        40-4.56090E+06 3.02289E+03-1.95941E+04-9.00947E-08 4.88329E-10-1.07584E-08
 -1        41-4.56407E+06-3.54476E+03-1.16732E+04-2.78451E-07-1.76216E-09 4.09204E-09
 -1        42-4.56220E+06 5.13384E+02-5.77266E+03 6.60843E-08-2.95026E-09 6.25914E-09
 -1        43-4.56269E+06-9.26264E+02-4.65596E+03 2.49689E-07-5.18237E-09-5.88201E-10
 -1        44-4.56226E+06 4.11332E+02-4.82105E+03-1.21202E-07-2.07723E-09 5.57156E-09
 -1        45-4.56358E+06-2.65794E+03-8.92650E+03-1.05785E-07 2.39613E-10-6.72526E-09
 -1        46-4.56132E+06 2.24030E+03-1.46285E+04-1.39165E-07-3.13715E-09 3.29055E-09
 -1        47-4.57051E+06-1.67499E+04-3.54121E+04-2.86490E-08-2.43720E-09-1.27875E-09
 -1        48-4.55542E+06 1.44616E+04-5.64677E+04-2.11066E-08-3.77692E-09 1.54250E-09
 -1        49-4.61304E+06-1.08160E+05-1.54061E+05 4.58446E-07-1.79808E-09-4.17640E-09
 -1        50-4.51911E+06 9.33670E+04-2.18274E+05 1.67893E-07-2.27324E-09 7.75617E-09
 -1        51 4.56513E+04-5.11490E+05 7.50736E+04-1.40174E+06 2.61934E-10 1.38680E-08
 -1        52 2.29450E+04-5.08598E+05 4.53790E+04-1.54895E+06 5.09317E-11 1.04774E-08
 -1        53 1.62480E+04-5.27570E+05 3.51710E+04-1.39780E+06 8.00355E-11 2.40107E-09
 -1        54 3.53872E+04-5.25631E+05 5.21835E+04-1.55295E+06 2.03727E-10-1.64146E-08
 -1        55 7.29817E+04-5.43537E+05 9.30351E+04-1.39692E+06 1.74623E-10-9.72068E-09
 -1        56-6.53169E+06-7.33463E+05-5.39233E+05-2.52356E+06 6.91216E-10 5.26779E-09
 -1        57-6.76423E+06-1.19545E+06-3.62109E+05-2.48440E+06 1.04956E-09 3.19778E-09
 -1        58-6.63839E+06-9.02260E+05-1.26775E+05-2.49156E+06-7.73070E-10 6.01722E-09
 -1        59-6.64198E+06-9.95113E+05-7.51715E+04-2.52081E+06-2.48110E-09-5.51881E-09
 -1        60-6.65201E+06-9.27027E+05-2.95752E+04-2.48926E+06 1.07502E-09-3.86535E-09
 -1        61-6.63021E+06-9.61818E+05-1.67143E+04-2.51851E+06-1.65505E-09-6.25664E-09
 -1        62-6.64965E+06-9.34749E+05-8.19392E+03-2.49399E+06-1.07184E-09-5.03292E-09
 -1        63-6.63872E+06-9.47677E+05-6.82463E+03-2.50643E+06-1.37675E-09 1.29988E-08
 -1        64-6.64331E+06-9.41145E+05-8.08211E+03-2.50127E+06 9.21773E-10 7.50197E-09
 -1        65-6.65349E+06-9.38215E+05-1.63257E+04-2.49159E+06-4.60318E-10 7.47332E-09
 -1        66-6.63496E+06-9.44296E+05-2.88946E+04-2.50883E+06-3.30374E-10 6.09361E-09
 -1        67-6.68108E+06-9.54611E+05-7.33298E+04-2.47552E+06-2.45882E-09 2.58387E-09
 -1        68-6.61624E+06-9.25523E+05-1.23692E+05-2.51723E+06-4.56566E-10 2.25555E-10
 -1        69-6.80448E+06-1.14608E+06-3.53274E+05-2.43563E+06 8.60382E-10 6.49379E-09
 -1        70-6.51358E+06-7.59350E+05-5.26079E+05-2.54674E+06-2.88128E-09 4.48199E-09
 -1        71-3.19625E+06 4.22316E+04-9.88376E+04 1.86726E-08-1.50303E-09-6.15546E-09
 -1        72-3.23865E+06-4.89282E+04-6.97363E+04-4.03899E-08-1.05703E-09 3.24872E-09
 -1        73-3.21269E+06 6.54194E+03-2.55766E+04 5.25202E-08-1.12935E-09-7.91806E-09
 -1        74-3.21942E+06-7.57714E+03-1.60356E+04-1.87921E-07-7.61105E-10-2.42721E-09
 -1        75-3.21537E+06 1.01316E+03-6.62144E+03-2.51964E-08 3.32424E-10-1.79057E-09
 -1        76-3.21629E+06-1.19993E+03-4.02623E+03 1.71711E-07-1.54344E-09 6.74731E-09
 -1        77-3.21580E+06 1.83880E+02-2.14855E+03 5.75706E-08-4.19027E-10 5.14598E-09
 -1        78-3.21588E+06-4.02204E+02-2.02723E+03-1.55980E-07-2.54270E-10 1.19590E-08
 -1        79-3.21578E+06 2.17651E+02-2.46422E+03-2.70588E-07-1.63692E-09 5.29337E-09
 -1        80-3.21645E+06-1.49340E+03-4.93689E+03 2.09159E-07-1.67251E-09-2.98132E-09
 -1        81-3.21523E+06 1.27214E+03-8.26782E+03 3.12238E-07 5.90871E-10 8.75389E-10
 -1        82-3.22040E+06-9.52666E+03-2.01355E+04 1.45499E-07 3.19658E-09 6.72435E-09
 -1        83-3.21186E+06 8.22689E+03-3.21496E+04-2.35513E-07-1.97089E-10 2.25191E-09
 -1        84-3.24458E+06-6.15315E+04-8.76920E+04-2.17768E-07-1.10585E-09 3.08592E-09
 -1        85-3.19118E+06 5.31114E+04-1.24281E+05 1.63704E-07-2.46760E-09 4.48927E-09
 -1        86-1.09050E+05 6.80886E+05 2.59830E+05 1.06119E+04 3.91447E-09 1.43477E-08
 -1        87 1.38551E+05 8.01595E+05 2.05834E+05-5.11506E+04 6.46105E-09 3.32585E-09
 -1        88-2.88843E+04 7.19844E+05 1.11891E+05 6.11738E+03 6.19821E-09 1.40841E-09
 -1        89 1.11961E+05 7.87300E+05 1.70658E+05-4.76937E+04 9.19408E-09 6.84570E-09
 -1        90-8.24380E+04 6.94980E+05 2.00140E+05 7.15700E+03 4.81668E-09 2.06512E-09
 -1        91-1.57475E+06-2.15907E+05-9.13188E+03-4.81372E+05-3.99705E-08 4.67298E-09
 -1        92-7.56977E+05-2.46822E+05 1.10509E+05-5.87869E+05-2.90802E-08-5.86078E-09
 -1        93-1.40167E+06-6.78974E+04 4.86317E+03-3.31801E+05 1.38580E-08 4.60659E-09
 -1        94-9.55142E+05-3.85933E+05 2.20930E+04-7.51290E+05-7.44251E-09 1.09399E-08
 -1        95-1.39656E+06-6.14439E+04-4.16364E+03-3.31236E+05-3.52647E-08 8.12952E-09
 -1        96-7.86998E+05-2.95356E+05 6.56022E+04-5.83066E+05 9.92986E-09 2.66270E-08
 -1        97-1.55033E+06-1.73609E+05-6.01746E+04-4.87024E+05-1.14960E-09 8.61382E-09
 -1        98-7.16012E+05-8.66628E+04 1.17361E+05-2.84109E+05 6.79938E-09-1.09792E-08
 -1        99-1.44884E+06-2.84239E+05-6.25295E+04-6.14625E+05-9.38417E-09 1.37516E-09
 -1       100-1.12953E+06 6.51402E+04 6.76493E+04-1.65888E+05-5.41527E-08-1.68211E-08
 -1       101-1.15557E+06-3.10963E+05-8.82410E+03-6.18283E+05 2.83126E-09-2.28965E-09
 -1       102-1.45517E+06 1.08137E+05 1.46319E+04-1.80784E+05 4.96484E-08 2.96955E-08
 -1       103-1.14180E+06-3.13290E+05-5.42993E+03-6.16160E+05-5.65351E-08-8.68977E-09
 -1       104-1.15548E+06 9.29186E+04 7.11135E+04-1.69478E+05-7.17155E-08 3.22798E-08
 -1       105-1.43873E+06-3.08058E+05-5.89957E+04-6.14922E+05-5.33164E-08-3.61979E-10
 -1       106-2.02732E+06 8.21758E+03-1.92502E+04 7.04432E-08-7.48854E-10-1.12323E-09
 -1       107-2.03545E+06-9.52171E+03-1.35848E+04-7.19886E-08 6.64208E-10 3.46699E-09
 -1       108-2.03052E+06 1.27332E+03-4.99728E+03 7.81426E-08 3.43762E-10-2.18961E-09
 -1       109-2.03171E+06-1.47681E+03-3.15459E+03-2.21565E-07-8.19489E-10 1.10731E-09
 -1       110-2.03104E+06 1.99165E+02-1.34959E+03 1.46138E-08-3.29673E-10 3.15794E-09
 -1       111-2.03111E+06-2.48970E+02-9.10473E+02 1.28208E-07 2.65480E-10 3.82327E-09
 -1       112-2.03112E+06 4.92382E+01-6.55106E+02-5.55751E-09-7.40382E-10 4.58413E-09
 -1       113-2.03108E+06-1.80786E+02-9.13378E+02-5.31030E-08-4.45081E-10 1.69766E-09
 -1       114-2.03107E+06 1.31246E+02-1.42325E+03-1.98799E-08-1.59549E-09-1.67046E-09
 -1       115-2.03150E+06-9.61612E+02-3.12547E+03-4.59923E-08-6.22939E-10-4.76120E-10
 -1       116-2.03070E+06 8.28014E+02-5.35414E+03 1.19383E-07-1.63451E-09 5.33419E-10
 -1       117-2.03408E+06-6.21078E+03-1.31209E+04-2.57465E-07-1.65849E-09-1.29694E-09
 -1       118-2.02850E+06 5.36457E+03-2.09767E+04-2.70653E-08-1.92734E-09 6.89397E-10
 -1       119-2.04984E+06-4.01249E+04-5.72086E+04-1.45900E-07-5.39619E-10-1.17598E-09
 -1       120-2.01500E+06 3.46329E+04-8.10875E+04-3.13862E-08-4.37328E-10 6.82485E-09
 -1       121-4.00963E+03-1.64339E+06 1.50549E+04-9.83789E+02-2.14550E-09-4.76484E-09
 -1       122 4.62356E+03-1.63736E+06 8.25706E+03-7.66366E+03-1.53534E-09 1.75351E-09
 -1       123-1.71786E+02-1.64073E+06 3.31044E+02 6.69115E+01-5.37739E-09 1.59616E-09
 -1       124-4.14812E+03-1.64260E+06-6.98407E+03-9.68438E+03-4.00291E-09-1.37697E-09
 -1       125 3.34431E+03-1.63829E+06-1.35528E+04 1.03408E+03-8.99718E-09 7.33780E-09
 -1       126-1.20616E+06-1.69293E+05 2.83392E+04-4.01344E+05 2.20080E-08-1.83354E-09
 -1       127-9.04424E+05-1.93621E+05 5.43851E+04-4.85950E+05 6.67119E-08 1.16052E-09
 -1       128-1.16804E+06-1.01664E+05 7.73539E+03-3.44544E+05 2.84035E-08 4.32010E-11
 -1       129-9.56993E+05-2.65962E+05 1.04883E+04-5.54464E+05-2.73862E-08-9.55106E-09
 -1       130-1.15968E+06-9.24543E+04 1.82912E+03-3.37085E+05-3.32352E-09-4.25416E-10
 -1       131-9.31261E+05-2.38909E+05 1.58953E+04-5.05926E+05 6.12647E-08-9.56379E-09
 -1       132-1.18963E+06-1.31858E+05-1.43414E+04-3.90189E+05 3.94593E-08 5.95810E-09
 -1       133-9.20679E+05-1.51974E+05 3.31330E+04-3.84673E+05-1.96542E-08 2.25778E-08
 -1       134-1.16357E+06-1.84381E+05-2.05571E+04-4.53212E+05 1.17352E-08-1.17525E-08
 -1       135-1.04489E+06-6.68136E+04 2.46413E+04-2.95113E+05 8.75052E-08-2.47201E-08
 -1       136-1.06824E+06-2.14861E+05-9.43655E+03-4.81507E+05 7.72661E-09 1.04983E-08
 -1       137-1.19525E+06-2.62144E+04-6.10613E+01-2.68966E+05-1.71683E-07-5.23823E-09
 -1       138-1.02028E+06-2.19755E+05-8.87749E+03-4.85088E+05-2.54215E-08 1.17707E-08
 -1       139-1.18135E+06-4.33959E+04-1.79441E+04-2.68498E+05 7.97163E-08 5.97811E-09
 -1       140-1.08110E+06-1.98503E+05-5.26967E+04-4.81068E+05-4.23825E-09-7.79801E-09
 -1       141-9.39393E+05-6.78784E+03 1.58993E+04 3.05718E-08 2.87041E-10-3.07955E-09
 -1       142-9.32442E+05 7.86424E+03 1.12002E+04 1.65520E-09-1.60342E-11 5.63011E-09
 -1       143-9.36742E+05-1.05075E+03 4.07686E+03-2.12594E-07 4.42799E-10 2.58638E-09
 -1       144-9.35536E+05 1.21125E+03 2.49123E+03-3.34426E-07-4.18326E-10 2.78118E-09
 -1       145-9.36306E+05-1.56884E+02 8.90839E+02-5.08101E-08 1.68273E-10-1.56490E-09
 -1       146-9.36068E+05 1.46497E+02 2.71542E+02-9.94089E-08-9.85679E-11-3.98562E-09
 -1       147-9.36212E+05 1.08378E+01-3.63477E+02-1.02321E-07 3.41573E-10 3.67032E-09
 -1       148-9.36293E+05-2.43195E+02-1.23138E+03-1.88056E-07-3.33965E-10 6.03407E-09
 -1       149-9.36082E+05 2.31951E+02-2.43858E+03-1.06723E-07-1.37828E-10 5.41024E-09
 -1       150-9.37115E+05-1.77496E+03-5.70967E+03-1.12638E-07-2.41758E-10-3.88775E-09
 -1       151-9.35394E+05 1.53866E+03-9.92247E+03 4.84006E-08-1.42043E-10 4.40650E-10
 -1       152-9.41922E+05-1.15522E+04-2.44063E+04 7.57992E-08 1.06976E-10-3.16959E-10
 -1       153-9.31286E+05 9.98001E+03-3.90460E+04 1.01690E-08 2.44722E-09-1.39153E-09
 -1       154-9.71233E+05-7.46456E+04-1.06467E+05-4.55566E-08 2.62007E-10 1.16415E-10
 -1       155-9.06104E+05 6.44321E+04-1.50855E+05-1.13075E-07 5.11100E-09 1.42609E-09
 -1       156-3.21763E+04-3.04230E+05 7.46702E+04-3.48749E+04-1.78989E-09-1.33718E-09
 -1       157 3.99499E+04-2.60462E+05 5.94137E+04 1.50327E+05-5.89353E-09-1.56118E-09
 -1       158-7.05919E+03-2.92398E+05 2.88748E+04-3.48744E+04-4.91900E-09 7.99446E-10
 -1       159 2.80366E+04-2.34981E+05 4.82854E+04 1.43607E+05 4.95697E-09 1.21771E-08
 -1       160-2.24496E+04-3.26771E+05 3.81373E+04-2.81741E+04 4.15093E-09 4.77758E-09
 -1       161-1.05035E+06-1.43667E+05-6.97201E+03-3.93231E+05 4.31214E-10-1.80398E-09
 -1       162-1.04812E+06-1.55401E+05-4.77928E+03-3.98238E+05-3.12988E-09 7.45786E-11
 -1       163-1.05292E+06-1.44830E+05-1.65205E+03-3.91263E+05 7.40940E-10-3.78236E-09
 -1       164-1.04539E+06-1.53785E+05-1.05800E+03-4.00213E+05 2.41965E-09 1.60095E-09
 -1       165-1.05309E+06-1.45268E+05-4.86671E+02-3.91265E+05 1.55342E-09 3.26823E-09
 -1       166-1.04645E+06-1.51945E+05-4.28999E+02-3.98614E+05 1.07876E-09 4.62894E-09
 -1       167-1.05185E+06-1.46676E+05-5.83383E+02-3.92855E+05-1.61776E-09 4.58107E-09
 -1       168-1.04978E+06-1.48764E+05-1.09846E+03-3.94704E+05-1.82031E-09 4.83692E-09
 -1       169-1.04975E+06-1.48458E+05-2.09761E+03-3.95167E+05-2.43677E-09 1.44928E-09
 -1       170-1.05450E+06-1.46777E+05-5.08745E+03-3.90325E+05-4.85230E-10-8.06534E-09
 -1       171-1.04714E+06-1.48662E+05-8.90622E+03-3.97239E+05-4.09500E-10-2.90584E-09
 -1       172-1.06299E+06-1.55222E+05-2.38749E+04-3.86101E+05 1.21656E-09-1.00567E-09
 -1       173-1.04128E+06-1.40031E+05-3.84034E+04-3.99396E+05 1.99179E-09-5.04770E-09
 -1       174-1.10120E+06-2.23410E+05-1.13463E+05-3.73958E+05 9.74114E-09-7.28869E-09
 -1       175-1.00898E+06-8.06532E+04-1.63836E+05-4.09326E+05 1.90048E-08-8.11269E-09
 -1       191 3.35490E+03 8.20282E+05 5.62196E+03-3.80731E+04-2.21917E-10 1.35697E-08
 -1       192 1.16463E+03 8.21142E+05 3.33108E+03-4.13350E+04-1.55910E-09 1.90339E-08
 -1       193 4.74259E+02 8.20509E+05 2.60526E+03-3.76459E+04 2.72848E-11 1.35951E-08
 -1       194 1.49113E+03 8.21145E+05 3.86170E+03-4.21011E+04-3.11775E-09-6.75209E-09
 -1       195 4.32059E+03 8.20024E+05 6.94498E+03-3.72980E+04 7.27596E-11 3.29601E-09
 -1       251-1.83496E+06-2.26935E+04-7.28021E+04-9.50906E+04-2.10093E-09 1.65892E-09
 -1       252-1.41166E+06 2.85519E+04 3.34244E+04 2.87361E+05-6.30826E-09 7.72093E-09
 -1       253-1.63737E+06-7.30662E+03-9.67914E+03-1.92425E+05-9.43692E-09-6.17388E-09
 -1       254-1.60127E+06 2.93553E+04 7.49228E+03 3.74365E+05 1.46672E-08 1.17931E-08
 -1       255-1.66382E+06-8.47264E+03-1.04987E+04-1.83243E+05 1.37197E-08-7.34190E-09
 -1       256-1.35417E+06 2.25595E+04 5.52439E+04 2.52714E+05 3.49291E-09 1.23646E-08
 -1       257-1.86020E+06-2.02539E+04-5.19765E+04-6.94279E+04-1.21145E-08-2.98621E-09
 -1       258-1.16265E+06 1.76232E+04 9.09362E+04-2.37312E+04-3.06682E-09-5.98334E-09
 -1       259-1.83653E+06-1.88251E+04-4.68121E+04 9.21736E+04 9.98989E-09-1.42103E-09
 -1       260-1.40740E+06 2.37264E+04 4.54768E+04-2.84867E+05 9.86256E-09-1.31715E-08
 -1       261-1.63951E+06-6.80281E+03-5.05007E+03 1.91169E+05 5.46161E-08 1.17577E-08
 -1       262-1.60159E+06 2.92670E+04 7.68379E+03-3.75164E+05-2.21341E-08-1.05790E-08
 -1       263-1.66143E+06-8.83503E+03-1.43779E+04 1.83633E+05 3.55794E-09 2.09320E-09
 -1       264-1.35759E+06 2.80193E+04 4.46271E+04-2.56617E+05 7.59060E-08-7.93011E-09
 -1       265-1.85972E+06-2.48960E+04-7.61485E+04 7.12972E+04 2.32048E-08 9.25957E-09
 -1       266-4.67124E+04-1.41407E+05 1.09745E+05-1.94617E+04-5.09317E-11-2.81932E-09
 -1       267 5.23928E+04-8.98995E+04 7.60663E+04 8.80026E+04 5.82077E-11 8.30445E-09
 -1       268-5.96924E+03-1.25490E+05 2.38689E+04-1.88108E+04-1.23691E-10-1.39289E-09
 -1       269 7.81563E+02-9.66106E+04 1.07582E+04 8.49259E+04-5.45697E-11-3.99268E-10
 -1       270 3.55028E+03-1.33085E+05-1.26671E+04-1.64154E+04 1.39153E-10 6.62203E-09
 -1       271-5.54821E+06-6.95972E+05-4.40115E+05-2.15597E+06-2.25555E-09 1.83354E-09
 -1       272-5.71430E+06-9.85799E+05-2.79762E+05-2.14316E+06 1.03819E-09-2.79033E-09
 -1       273-5.62954E+06-7.96998E+05-1.03780E+05-2.13837E+06-7.45786E-11-1.08412E-09
 -1       274-5.61802E+06-8.59005E+05-5.73595E+04-2.17236E+06 1.31740E-09-8.79390E-09
 -1       275-5.64192E+06-8.05146E+05-2.41341E+04-2.13347E+06 1.73804E-09 3.52884E-10
 -1       276-5.60260E+06-8.49746E+05-1.28106E+04-2.18061E+06-7.89441E-10-3.62934E-09
 -1       277-5.64513E+06-8.04254E+05-6.55111E+03-2.13107E+06 3.05590E-10 3.30601E-10
 -1       278-5.59904E+06-8.50941E+05-5.16796E+03-2.18398E+06 1.41608E-09 2.52862E-09
 -1       279-5.64577E+06-8.03615E+05-6.18974E+03-2.13038E+06-2.15874E-09 3.64571E-09
 -1       280-5.60034E+06-8.51944E+05-1.18690E+04-2.18352E+06 2.06137E-09-4.28736E-09
 -1       281-5.64383E+06-8.03385E+05-2.21591E+04-2.13146E+06 1.07480E-09 2.29011E-09
 -1       282-5.61290E+06-8.62145E+05-5.27114E+04-2.17799E+06 1.75532E-09 4.29009E-09
 -1       283-5.63320E+06-7.95167E+05-9.52608E+04-2.13515E+06 7.91260E-10 9.53150E-10
 -1       284-5.70009E+06-9.79772E+05-2.56922E+05-2.15246E+06 1.10958E-10 3.13958E-09
 -1       285-5.55896E+06-7.02000E+05-4.04178E+05-2.15083E+06 1.36788E-09 2.18279E-10
 -1       286-8.07235E+05-2.24465E+04 5.23950E+04-2.83529E+03 2.23008E-09-4.48199E-09
 -1       287-7.83200E+05 2.59919E+04 3.72002E+04 1.77388E+02 1.80367E-09-1.14869E-09
 -1       288-7.98538E+05-3.50149E+03 1.34954E+04 3.90475E+02 5.58998E-10-7.95808E-10
 -1       289-7.93566E+05 4.03986E+03 8.66162E+03-5.97196E+03-9.00400E-10 9.52241E-10
 -1       290-7.96907E+05-5.55218E+02 3.46581E+03 3.31412E+03 1.71934E-09-7.42830E-10
 -1       291-7.95705E+05 6.66774E+02 2.18456E+03-1.06073E+04 2.84814E-09-6.70499E-09
 -1       292-7.96449E+05-1.04096E+02 1.12056E+03 5.02585E+03 2.29537E-09-4.48208E-09
 -1       293-7.96180E+05 2.43863E+02 1.04151E+03-1.23038E+04 2.03647E-09 5.52060E-09
 -1       294-7.96458E+05-1.15479E+02 1.22601E+03 5.01073E+03 2.40823E-09-5.25517E-10
 -1       295-7.95644E+05 7.64608E+02 2.49130E+03-1.05513E+04 2.97291E-10 8.76554E-10
 -1       296-7.96958E+05-6.41965E+02 4.01695E+03 3.27331E+03 9.08699E-10 4.09955E-09
 -1       297-7.93233E+05 4.69119E+03 1.00360E+04-5.87758E+03 3.76673E-10-1.85730E-09
 -1       298-7.98818E+05-4.06461E+03 1.56970E+04 3.36910E+02-2.83478E-10-1.50158E-09
 -1       299-7.81222E+05 3.02034E+04 4.32069E+04 2.74109E+02-1.87089E-09 5.72072E-10
 -1       300-8.08928E+05-2.60807E+04 6.09171E+04-2.87847E+03-9.98170E-10 2.35013E-09
 -1       301 7.34859E+04 3.47105E+04 1.57549E+05-3.83171E+04-4.23461E-09-2.67164E-10
 -1       302 2.49144E+04 6.38858E+04 9.57243E+04-4.49530E+04-3.48336E-10 6.47619E-09
 -1       303 7.34060E+03 4.50488E+04 7.58532E+04-3.85067E+04-4.05453E-09 8.49354E-10
 -1       304 3.11111E+04 6.74277E+04 1.11940E+05-4.49103E+04-5.12955E-10 9.45420E-10
 -1       305 9.36764E+04 3.12044E+04 1.96993E+05-3.82890E+04-4.14730E-09 6.21867E-09
 -1       306-3.88375E+06-4.96797E+05-2.70055E+05-1.50513E+06 3.15777E-09-4.20550E-09
 -1       307-3.96351E+06-6.95479E+05-1.71454E+05-1.52185E+06 7.14113E-09-2.05546E-10
 -1       308-3.93402E+06-5.58070E+05-6.37344E+04-1.49398E+06 3.41242E-09-2.08820E-09
 -1       309-3.90456E+06-6.18229E+05-3.52052E+04-1.54047E+06-2.82898E-09-5.56474E-09
 -1       310-3.94169E+06-5.62940E+05-1.48639E+04-1.49097E+06 5.62068E-10-4.19823E-09
 -1       311-3.89551E+06-6.12332E+05-7.95095E+03-1.54543E+06 1.19144E-09 4.73301E-09
 -1       312-3.94344E+06-5.62603E+05-4.19044E+03-1.48978E+06 5.50926E-10 4.06197E-09
 -1       313-3.89402E+06-6.12416E+05-3.55302E+03-1.54672E+06 1.84696E-09 4.37558E-09
 -1       314-3.94336E+06-5.62660E+05-4.57186E+03-1.48985E+06-3.27918E-09-3.89537E-09
 -1       315-3.89587E+06-6.12247E+05-9.00450E+03-1.54511E+06 3.09228E-09-2.99588E-09
 -1       316-3.94137E+06-5.63010E+05-1.69921E+04-1.49119E+06 2.34832E-09-4.20187E-10
 -1       317-3.90609E+06-6.19226E+05-4.03557E+04-1.53970E+06 1.29876E-09 1.28603E-09
 -1       318-3.93277E+06-5.57214E+05-7.30670E+04-1.49443E+06 3.51270E-09 2.40107E-10
 -1       319-3.97325E+06-7.08356E+05-1.96636E+05-1.51903E+06 1.37902E-09 1.05247E-08
 -1       320-3.87545E+06-4.86537E+05-3.09619E+05-1.50680E+06-3.63798E-11-2.18279E-10
 -1       321-7.67131E+05-2.84479E+04 6.40487E+04 3.76676E+03-2.71257E-10 4.99858E-09
 -1       322-7.26602E+05 3.28238E+04 4.74802E+04-2.49428E+04 2.52874E-09 7.92170E-10
 -1       323-7.53452E+05-4.51974E+03 1.63893E+04 1.23645E+04-3.27600E-09 1.12504E-09
 -1       324-7.44816E+05 5.41307E+03 1.09686E+04-3.79117E+04-1.41943E-08 7.06359E-09
 -1       325-7.49460E+05-7.38630E+02 4.30195E+03 1.67376E+04 2.18500E-09 1.11265E-08
 -1       326-7.48637E+05 1.19951E+03 2.58043E+03-4.11253E+04 3.95623E-09 3.37832E-09
 -1       327-7.49800E+05-1.95392E+02 9.59966E+02 1.55798E+04-9.64747E-09 2.06933E-09
 -1       328-7.45186E+05 4.19510E+02 1.39097E+03-3.35978E+04 1.73935E-09-3.54177E-09
 -1       329-7.52550E+05-2.34124E+02-4.40294E+02 9.20687E+03 9.15634E-10 2.55635E-09
 -1       330-7.39942E+05 2.01275E+02 1.94136E+03-1.73976E+04-8.96023E-09 4.92227E-09
 -1       331-7.54536E+05-3.61645E+02-1.03421E+03-6.19080E+02 2.53249E-09-1.03626E-10
 -1       332-7.38770E+05 3.60074E+02 2.18616E+03 2.91275E+03 1.63265E-08 1.30980E-09
 -1       333-7.53599E+05-4.84361E+02-7.23393E+02-1.10962E+04 1.01713E-08-5.12013E-09
 -1       334-7.42877E+05 1.19339E+03 1.94361E+03 2.15355E+04 1.09699E-08 1.00246E-08
 -1       335-7.50820E+05-8.95900E+02 5.41073E+02-1.92422E+04-1.68943E-08 5.11824E-09
 -1       336 3.68700E+03-1.63829E+06-1.74673E+04-3.23187E+03-1.02832E-08 2.81352E-09
 -1       337-6.54707E+03-1.64517E+06-1.80768E+04-3.23579E+04-7.46422E-09 4.93174E-09
 -1       338 2.09084E+03-1.63929E+06-2.02275E+04-3.02120E+03-1.06593E-08 2.55977E-09
 -1       339-2.13807E+04-1.65384E+06-4.37503E+04-3.25247E+04-7.13544E-09 7.20206E-11
 -1       340 1.60154E+04-1.62967E+06-6.56837E+04-3.07309E+03-1.01936E-08 5.88261E-09
 -1       341-1.32994E+06-2.56939E+05-2.76263E+04-5.55587E+05-5.33055E-09 5.24778E-10
 -1       342-1.23154E+06 2.98896E+03 3.87310E+04-2.69670E+05-6.83031E-10 1.92813E-09
 -1       343-1.16012E+06-2.71912E+05-1.81957E+03-5.71681E+05-1.70630E-08-4.88080E-08
 -1       344-1.39879E+06 2.21658E+04 8.01020E+03-2.60365E+05 2.13775E-08-1.05832E-08
 -1       345-1.17131E+06-2.69702E+05-4.87451E+03-5.72234E+05 1.55796E-08-1.49066E-09
 -1       346-1.20801E+06-1.68820E+04 3.60171E+04-2.70464E+05 2.47824E-08 2.75184E-08
 -1       347-1.34077E+06-2.40462E+05-3.36268E+04-5.52984E+05-4.09364E-09 5.22232E-09
 -1       348-9.59452E+05-1.30966E+05 6.07118E+04-3.72090E+05-4.55702E-09 3.04476E-09
 -1       349-1.41031E+06-1.62937E+05-3.34196E+04-4.63811E+05-6.93035E-10 4.64343E-09
 -1       350-9.68028E+05-2.75094E+05 2.89285E+04-5.66882E+05-1.46332E-07-4.15200E-08
 -1       351-1.34230E+06-8.87274E+04-1.07608E+04-3.66378E+05-4.44957E-08-2.53840E-09
 -1       352-1.04743E+06-3.46368E+05-1.22189E+04-6.67982E+05 1.74121E-07-2.12831E-08
 -1       353-1.34085E+06-8.40519E+04-3.57876E+04-3.69585E+05 3.37545E-08-2.45109E-08
 -1       354-9.95977E+05-3.23943E+05-5.43664E+04-5.50079E+05-1.16577E-07 4.66389E-09
 -1       355-1.38332E+06-1.19334E+05-1.67925E+05-4.76972E+05-3.32184E-08 4.85306E-09
 -1       356-7.99731E+05 1.07056E+03-3.73944E+03-2.25205E+04-1.21020E-09-1.33468E-09
 -1       357-7.97096E+05-8.76929E+02-1.65395E+03 3.05042E+04-2.59129E-08-8.07859E-10
 -1       358-8.03540E+05-1.95009E+02-1.76907E+03-1.54395E+04-1.09408E-08-2.68381E-09
 -1       359-7.90335E+05 1.45979E+02 1.28944E+03 1.24427E+04 7.08087E-09 3.92930E-09
 -1       360-8.05929E+05-3.75699E+02-1.65459E+03-4.45375E+03 2.86354E-09-3.32503E-09
 -1       361-7.88985E+05 1.41450E+02 1.70028E+03-1.01440E+04 1.02046E-08 1.33029E-09
 -1       362-8.04784E+05-2.70404E+02-1.65119E+03 7.14033E+03-1.95701E-09 4.91522E-09
 -1       363-7.93963E+05 6.52193E+01-4.62623E+01-3.04142E+04 7.46786E-09 2.83046E-09
 -1       364-8.01421E+05 5.60532E+01-2.62058E+03 1.58123E+04 2.14925E-08 2.71621E-09
 -1       365-8.00187E+05-1.11959E+03-5.00823E+03-4.22600E+04-2.35314E-08-8.16726E-09
 -1       366-7.99086E+05 1.30764E+03-9.03150E+03 1.89902E+04 1.74548E-08 2.88901E-09
 -1       367-8.04506E+05-9.98554E+03-2.20210E+04-4.21941E+04 2.05252E-08-3.83443E-09
 -1       368-7.97107E+05 8.89251E+03-3.59889E+04 1.57460E+04 8.48581E-09-3.31420E-09
 -1       369-8.25570E+05-6.73963E+04-9.58037E+04-3.00626E+04 1.58057E-08 1.62800E-09
 -1       370-7.77508E+05 5.81369E+04-1.38826E+05 6.85450E+03 8.50355E-09 2.76486E-09
 -1       371-1.93410E+04-3.37092E+05 3.28784E+04-1.99556E+04 1.35806E-08 4.26780E-09
 -1       372 1.74680E+04-2.71419E+05 2.71423E+04 1.09716E+05 1.74168E-10-2.75463E-09
 -1       373 4.83699E+02-3.09977E+05-1.12367E+03-2.61777E+04 1.14051E-09-7.79892E-10
 -1       374-1.80294E+04-3.10734E+05-2.27466E+04 1.16561E+05-2.97587E-09 5.46834E-11
 -1       375 1.76242E+04-2.99961E+05-4.04323E+04-2.67803E+04-2.11730E-09-1.81012E-09
 -1       376-1.01096E+06-1.74047E+05-4.00371E+04-4.40128E+05-1.01772E-09-5.61522E-09
 -1       377-1.12216E+06-7.58229E+04-2.14566E+04-2.93591E+05 1.15456E-07-1.40790E-09
 -1       378-9.91657E+05-1.91220E+05-8.08389E+03-4.42821E+05 3.37354E-09-4.11819E-09
 -1       379-1.10576E+06-6.56572E+04-1.26600E+03-2.97740E+05 4.84079E-09-3.83397E-09
 -1       380-1.02695E+06-1.84472E+05-6.79193E+03-4.35658E+05-7.12498E-09 3.39014E-09
 -1       381-1.01529E+06-9.96110E+04 1.26919E+04-3.27551E+05-1.62927E-08 1.03408E-08
 -1       382-1.07856E+06-1.59877E+05-1.09406E+04-4.10209E+05 1.00681E-08-9.62473E-10
 -1       383-9.47453E+05-1.58943E+05 1.44053E+04-3.93554E+05 4.05521E-09 4.16094E-09
 -1       384-1.09413E+06-1.25643E+05-8.20712E+03-3.69308E+05-2.24763E-08 4.98039E-09
 -1       385-9.45341E+05-2.14101E+05 1.60066E+03-4.65825E+05 4.47653E-09-1.39389E-08
 -1       386-1.08414E+06-1.02162E+05-7.52028E+03-3.40548E+05 1.02273E-08 1.61590E-08
 -1       387-9.57531E+05-2.37810E+05-1.82294E+04-4.86566E+05-1.86747E-08 5.98993E-09
 -1       388-1.08352E+06-1.00793E+05-3.43031E+04-3.49676E+05 5.70549E-09 1.36297E-08
 -1       389-9.77664E+05-2.58615E+05-8.42163E+04-4.28346E+05 9.15475E-09 4.51382E-09
 -1       390-1.06095E+06-8.38054E+04-1.47070E+05-3.96492E+05 9.90076E-09-3.13594E-09
 -1       406 3.40818E+03 8.02265E+05 6.32464E+03-1.15228E+05 1.05501E-10-1.79170E-09
 -1       407 1.90539E+03 8.03290E+05 6.25677E+03-1.27224E+05-5.99630E-09 3.58341E-09
 -1       408 2.31952E+03 8.02145E+05 9.11791E+03-1.14931E+05 3.91992E-10 1.20417E-09
 -1       409 8.61068E+03 8.05510E+05 1.88338E+04-1.27555E+05-6.01904E-09 6.14727E-09
 -1       410 2.44667E+04 7.99691E+05 3.75647E+04-1.14855E+05 1.12777E-10 5.39831E-09
 -1       466 1.11996E+06-4.39337E+04 9.40679E+04 4.26903E+04 3.51065E-10-1.04337E-08
 -1       467 1.21300E+06 4.88502E+04 7.51865E+04-8.26316E+04 1.47293E-09 3.81260E-09
 -1       468 1.15310E+06-6.28656E+03 2.46792E+04 1.78681E+04 1.87788E-09-8.68204E-09
 -1       469 1.17142E+06 6.89203E+03 1.72129E+04-4.57204E+04-6.73936E-10-4.45243E-09
 -1       470 1.15965E+06-8.67418E+02 6.59447E+03 5.74937E+03-1.76976E-09-2.25828E-09
 -1       471 1.16310E+06 1.06773E+03 4.54265E+03-2.79386E+04-8.37474E-10-1.12351E-09
 -1       472 1.16095E+06-1.63324E+02 2.70532E+03 8.43564E+01 6.38408E-10 3.00193E-09
 -1       473 1.16162E+06 6.81335E+02 3.30323E+03-2.02664E+04 1.39572E-09-2.56918E-09
 -1       474 1.16101E+06-4.04263E+02 4.75815E+03-1.92262E+03-1.28026E-09 3.42607E-09
 -1       475 1.16278E+06 3.17205E+03 1.01593E+04-1.89264E+04 2.96126E-10-1.21281E-09
 -1       476 1.15977E+06-2.63737E+03 1.72978E+04-1.25548E+03 4.00064E-09-5.45697E-11
 -1       477 1.17162E+06 1.99984E+04 4.23634E+04-2.32692E+04-1.32445E-10 1.55569E-09
 -1       478 1.15220E+06-1.72139E+04 6.74479E+04 2.42011E+03 4.42071E-10 3.25599E-09
 -1       479 1.22494E+06 1.29034E+05 1.84563E+05-3.57547E+04 3.80851E-09-6.63567E-09
 -1       480 1.10668E+06-1.11446E+05 2.60325E+05 1.12284E+04 3.37764E-09 9.60426E-10
 -1       481-1.25596E+04 2.99092E+05 2.07178E+04-2.59760E+04-1.72804E-10 5.70708E-10
 -1       482 1.28945E+04 3.56388E+05 2.37366E+04 8.60240E+04-1.55524E-10 1.40024E-08
 -1       483-1.94649E+03 3.18462E+05 7.67504E+03-1.95267E+04 1.45747E-10 4.95879E-09
 -1       484 5.34001E+03 3.31481E+05 1.06241E+04 7.73990E+04 2.54403E-10-6.69559E-10
 -1       485-3.67091E+03 3.22043E+05 9.97054E+03-1.73191E+04 2.35104E-10-7.76609E-10
 -1       486-1.17117E+06-2.43033E+05-1.57638E+05-5.61911E+05 1.05501E-09-2.41016E-08
 -1       487-1.11896E+06 6.17736E+04-2.52521E+04-1.16990E+05 7.44330E-09 3.26218E-08
 -1       488-9.50251E+05-2.73884E+05-2.58981E+04-5.40660E+05 4.29645E-09 1.99234E-08
 -1       489-1.27712E+06 1.05165E+05-2.04007E+03-1.39112E+05-6.61642E-09 2.73158E-08
 -1       490-1.02308E+06-2.79048E+05-2.05543E+04-5.48992E+05-6.56837E-09 2.96877E-08
 -1       491-9.14105E+05 6.92435E+04 6.98607E+04-1.16772E+05-3.15781E-08 2.59856E-08
 -1       492-1.29273E+06-2.52896E+05-6.50383E+04-5.44975E+05-1.41335E-08 8.25275E-09
 -1       493-5.43783E+05-6.78119E+04 1.15790E+05-2.23444E+05 2.28920E-08 9.52650E-09
 -1       494-1.37664E+06-1.54681E+05-6.21104E+04-4.31239E+05 1.08812E-08-2.29829E-08
 -1       495-6.22148E+05-2.55817E+05 6.37147E+04-4.94992E+05-1.79461E-08-6.91568E-08
 -1       496-1.23180E+06-5.21110E+04-1.66337E+04-2.88057E+05-1.39225E-08-3.79291E-08
 -1       497-8.19865E+05-3.59149E+05-2.82220E+03-6.71125E+05-2.91091E-08-9.83687E-09
 -1       498-1.20015E+06-3.52743E+04-2.70175E+04-2.69013E+05-1.92599E-08 9.60517E-08
 -1       499-7.00162E+05-3.21599E+05-1.60772E+04-5.51020E+05-1.63018E-08 1.46383E-08
 -1       500-1.33706E+06-1.00724E+05-1.57270E+05-3.98873E+05 3.64328E-08-8.81846E-09
 -1       501-1.12721E+06-2.53269E+04 5.91322E+04-4.95655E+03 1.72474E-09-3.69255E-09
 -1       502-1.10006E+06 2.93427E+04 4.19786E+04 4.41243E+03-4.34937E-10 1.92813E-09
 -1       503-1.11758E+06-3.96445E+03 1.51761E+04 1.72998E+01-4.54747E-12 6.77574E-10
 -1       504-1.11160E+06 4.57246E+03 9.77221E+03-5.50169E+03-1.10094E-09 4.58306E-09
 -1       505-1.11571E+06-6.37557E+02 3.79938E+03 4.95762E+03 1.64420E-09-8.96307E-10
 -1       506-1.11419E+06 7.53498E+02 2.29380E+03-1.32786E+04 4.92997E-09-4.54406E-10
 -1       507-1.11506E+06-1.05454E+02 9.12071E+02 7.79440E+03 2.80028E-09 2.67715E-09
 -1       508-1.11485E+06 1.47523E+02 4.06464E+02-1.56795E+04 4.38344E-10 1.02409E-09
 -1       509-1.11507E+06-8.37701E+00-4.19935E+01 7.35868E+03 3.15163E-09 1.52721E-09
 -1       510-1.11447E+06-1.22908E+02-3.80519E+02-1.17142E+04 2.60047E-09 1.58116E-09
 -1       511-1.11540E+06 1.25652E+02-1.11955E+03 3.82887E+03 4.26382E-10-1.62896E-09
 -1       512-1.11440E+06-1.21205E+03-2.39163E+03-3.00759E+03 1.83127E-09-4.77058E-09
 -1       513-1.11509E+06 1.03238E+03-4.35405E+03-1.34807E+03-5.58771E-10 2.70575E-09
 -1       514-1.11778E+06-8.02845E+03-1.13448E+04 6.87949E+03-2.70575E-09 2.79101E-09
 -1       515-1.11204E+06 6.93458E+03-1.64303E+04-6.05813E+03-2.39612E-09-2.93949E-09
 -1       516-8.34827E+04 2.96340E+05 1.86707E+05 4.99411E+04 1.45010E-08 9.49422E-09
 -1       517 1.00030E+05 4.09070E+05 1.41219E+05-2.35378E+05 2.25846E-08 2.47219E-08
 -1       518-1.33429E+04 3.41266E+05 5.61539E+04 4.71693E+04 1.35733E-08 1.25851E-08
 -1       519 3.65826E+04 4.32298E+05 6.53775E+04-2.43466E+05 1.99570E-08 5.18412E-11
 -1       520-2.36385E+04 2.77950E+05 2.61741E+04 5.80124E+04-7.32689E-09 2.38833E-09
 -1       521-5.30471E+06-6.71625E+05-3.78557E+05-2.05141E+06-3.67436E-09-1.57161E-09
 -1       522-5.43366E+06-9.34303E+05-2.40532E+05-2.05606E+06 9.84528E-10-4.07454E-10
 -1       523-5.37494E+06-7.58055E+05-8.92520E+04-2.03593E+06 7.88987E-11 9.60426E-10
 -1       524-5.35090E+06-8.25499E+05-4.93331E+04-2.08160E+06 4.92946E-10-3.05135E-09
 -1       525-5.38553E+06-7.65088E+05-2.07498E+04-2.03180E+06-5.07953E-10-1.58161E-09
 -1       526-5.33823E+06-8.17003E+05-1.10471E+04-2.08815E+06 6.06178E-09 2.71871E-09
 -1       527-5.38784E+06-7.64782E+05-5.67413E+03-2.03024E+06 1.35492E-09 2.61127E-09
 -1       528-5.33630E+06-8.16835E+05-4.56342E+03-2.08957E+06-6.21554E-10-2.12719E-09
 -1       529-5.38759E+06-7.65048E+05-5.57468E+03-2.03052E+06-2.60002E-09-1.58889E-09
 -1       530-5.33904E+06-8.16026E+05-1.07445E+04-2.08698E+06-7.00538E-10-1.23600E-09
 -1       531-5.38482E+06-7.65886E+05-2.01666E+04-2.03260E+06 1.45246E-09 4.86580E-09
 -1       532-5.35226E+06-8.23288E+05-4.78624E+04-2.07942E+06 4.56566E-10 2.63390E-09
 -1       533-5.37405E+06-7.59571E+05-8.66215E+04-2.03716E+06 9.70658E-10 3.44517E-09
 -1       534-5.43347E+06-9.27896E+05-2.33347E+05-2.05356E+06-5.77529E-11 2.14641E-10
 -1       535-5.30547E+06-6.76174E+05-3.67303E+05-2.05268E+06 6.91216E-10 4.36557E-11
 -1       536 1.17868E+05-2.41385E+04 9.72554E+04-1.07330E+04-1.14596E-10-4.03816E-09
 -1       537 1.54179E+05 3.13477E+04 6.27981E+04-4.74440E+04-3.18096E-09-5.48789E-09
 -1       538 1.32603E+05-2.69260E+03 2.51671E+04-1.06684E+04 2.75577E-10 3.33057E-09
 -1       539 1.37233E+05 3.07332E+03 1.41771E+04-4.74423E+04 2.39834E-09-7.75572E-10
 -1       540 1.34271E+05-3.59220E+02 6.33787E+03-1.07201E+04-7.63976E-10-5.32964E-10
 -1       541 1.34991E+05 2.84974E+02 3.37402E+03-4.73448E+04 4.06544E-10-3.12025E-09
 -1       542 1.34461E+05-5.48668E+01 1.57006E+03-1.07667E+04-3.55612E-10 2.66255E-09
 -1       543 1.34548E+05 6.19764E+01 8.00228E+02-4.72739E+04 5.89353E-10-1.90585E-09
 -1       544 1.34478E+05 6.48858E+00 3.45366E+02-1.07913E+04 1.02546E-10 2.83740E-09
 -1       545 1.34428E+05 5.10197E+01 9.43480E+01-4.72462E+04-1.36356E-09 4.62666E-09
 -1       546 1.34490E+05 2.18361E+01-1.10468E+02-1.07943E+04 8.17522E-10 1.85059E-09
 -1       547 1.34396E+05-6.31011E+01-4.14528E+02-4.72557E+04-6.16524E-10-1.90073E-09
 -1       548 1.34563E+05 7.10210E+01-8.21203E+02-1.07819E+04-6.43468E-10-1.25658E-09
 -1       549 1.34002E+05-1.05507E+03-2.05763E+03-4.72191E+04-4.68390E-11 3.42470E-09
 -1       550 1.35083E+05 7.16183E+02-3.25875E+03-1.08308E+04-3.52884E-10 2.21843E-09
 -1       551 2.80390E+04-4.94901E+05 5.17682E+04-7.36784E+05-1.81899E-11-2.17915E-09
 -1       552 1.62828E+04-4.87793E+05 3.92319E+04-8.58989E+05-2.88128E-09 5.87897E-09
 -1       553 1.12818E+04-4.95157E+05 4.34266E+04-7.35552E+05-8.14907E-10 5.71163E-09
 -1       554 3.21576E+04-4.79739E+05 7.97225E+04-8.59199E+05-1.52068E-09 2.56205E-09
 -1       555 7.91450E+04-5.04925E+05 1.50281E+05-7.36315E+05-1.26602E-09-3.79077E-09
 -1       556-4.10167E+05-2.01718E+05 2.94570E+04-3.62876E+05 2.88128E-09-2.18279E-09
 -1       557-3.82076E+05-2.32382E+05 1.45142E+04-3.85157E+05-2.95404E-09-2.62344E-09
 -1       558-4.11671E+05-2.11417E+05 6.02531E+03-3.57307E+05-4.27826E-09 1.37152E-09
 -1       559-3.85606E+05-2.37046E+05 2.98799E+03-3.86792E+05-1.48430E-09 7.37828E-10
 -1       560-4.12670E+05-2.11163E+05 1.28663E+03-3.57644E+05-3.97995E-09-3.56431E-09
 -1       561-3.86800E+05-2.36872E+05 6.20909E+02-3.87650E+05-1.38243E-10-8.81448E-09
 -1       562-4.13395E+05-2.10718E+05 1.89901E+02-3.58115E+05 7.78891E-09 7.38146E-09
 -1       563-3.87484E+05-2.36579E+05-5.22588E+01-3.88135E+05 1.79170E-09-5.02587E-09
 -1       564-4.13793E+05-2.10458E+05-3.74490E+02-3.58386E+05 4.45652E-09-2.25737E-09
 -1       565-3.87821E+05-2.36445E+05-9.19863E+02-3.88352E+05 4.13957E-09-2.43745E-09
 -1       566-4.13826E+05-2.10378E+05-1.97136E+03-3.58441E+05 3.18141E-09-5.21322E-09
 -1       567-3.88119E+05-2.36688E+05-4.36447E+03-3.88275E+05-2.38288E-09-7.17773E-09
 -1       568-4.13344E+05-2.11179E+05-9.00327E+03-3.57978E+05 1.30967E-09-3.67072E-09
 -1       569-3.92656E+05-2.42432E+05-2.12364E+04-3.86667E+05 2.05728E-09-3.78714E-09
 -1       570-4.11281E+05-2.28288E+05-4.34974E+04-3.50558E+05-4.04543E-09-8.18545E-09
 -1       571 5.40308E+05 2.55602E+04 3.98362E+04-1.34113E+05-3.81988E-10 1.01682E-09
 -1       572 5.46403E+05 8.62278E+03 1.95931E+04-1.48148E+05-1.50339E-09 3.50155E-09
 -1       573 5.42680E+05 1.85266E+03 8.72245E+03-1.33730E+05 1.00608E-08 1.24965E-09
 -1       574 5.43353E+05 5.62092E+02 4.38779E+03-1.48549E+05 2.24150E-08-1.52795E-09
 -1       575 5.42876E+05 3.14946E+01 2.08086E+03-1.33684E+05 1.14387E-08 1.70076E-09
 -1       576 5.42930E+05-4.38965E+00 1.07020E+03-1.48599E+05 1.03836E-09 4.62023E-09
 -1       577 5.42907E+05-4.11222E+01 5.43383E+02-1.33679E+05 4.83851E-10-8.18545E-11
 -1       578 5.42922E+05-4.22913E+01 3.26619E+02-1.48607E+05 1.03182E-09 3.00679E-09
 -1       579 5.43003E+05-8.05767E+01 2.51279E+02-1.33677E+05 1.45883E-09-3.70164E-10
 -1       580 5.43080E+05-1.14653E+02 3.21969E+02-1.48603E+05 3.58978E-09 4.54747E-11
 -1       581 5.43185E+05-1.68012E+02 5.27107E+02-1.33682E+05 8.80391E-10-8.21274E-10
 -1       582 5.43430E+05-1.11407E+02 1.07342E+03-1.48528E+05-1.40972E-09 3.45972E-09
 -1       583 5.43399E+05 1.18067E+02 2.09152E+03-1.33752E+05-4.41651E-09-3.06818E-09
 -1       584 5.44495E+05 1.66620E+03 4.70570E+03-1.47904E+05-5.07134E-09 1.36424E-09
 -1       585 5.43128E+05 5.67588E+03 9.53210E+03-1.34319E+05 1.10231E-09 1.01099E-08
 -1       586 4.05877E+03 2.18408E+05 6.88819E+03-3.42863E+05 2.87764E-09 1.32441E-08
 -1       587 2.66689E+03 2.19363E+05 7.03083E+03-3.79799E+05 3.41970E-10 1.18625E-08
 -1       588 3.15075E+03 2.18008E+05 1.04086E+04-3.42425E+05 3.21961E-09 8.37781E-09
 -1       589 1.04238E+04 2.21976E+05 2.16157E+04-3.79893E+05 8.36735E-10 5.32054E-10
 -1       590 2.84474E+04 2.15492E+05 4.31157E+04-3.42747E+05 3.11047E-09-3.04681E-09
 -1       591-2.28981E+05-8.25590E+04-4.56504E+04-1.21031E+05-4.25098E-09 5.42059E-09
 -1       592-2.30244E+05-7.65693E+04-2.23291E+04-1.34716E+05-1.14001E-08 4.81259E-09
 -1       593-2.30227E+05-6.51975E+04-9.47072E+03-1.28926E+05-8.82028E-09-1.30553E-08
 -1       594-2.25421E+05-7.03049E+04-4.62942E+03-1.35619E+05 1.34787E-09-1.34460E-09
 -1       595-2.30456E+05-6.45207E+04-2.13028E+03-1.29298E+05 2.55977E-09 6.32872E-09
 -1       596-2.25060E+05-7.00465E+04-1.08086E+03-1.35600E+05-1.28580E-09-2.86946E-09
 -1       597-2.30502E+05-6.45478E+04-5.90377E+02-1.29304E+05 5.77876E-09 1.03987E-08
 -1       598-2.25022E+05-7.00500E+04-4.76160E+02-1.35583E+05 3.16561E-10-1.80535E-09
 -1       599-2.30491E+05-6.45523E+04-6.10092E+02-1.29298E+05-1.59071E-09 7.74435E-10
 -1       600-2.25044E+05-7.00549E+04-1.13258E+03-1.35586E+05-3.53930E-09-3.62070E-09
 -1       601-2.30422E+05-6.45334E+04-2.23971E+03-1.29281E+05-6.93490E-09 2.47019E-09
 -1       602-2.25409E+05-7.03303E+04-4.87085E+03-1.35585E+05-7.65294E-09 4.84033E-09
 -1       603-2.30160E+05-6.52612E+04-9.96643E+03-1.28883E+05-5.25233E-09 2.63663E-09
 -1       604-2.30508E+05-7.68814E+04-2.34934E+04-1.34569E+05 2.10321E-09 6.43922E-09
 -1       605-2.28793E+05-8.35626E+04-4.80303E+04-1.20608E+05-3.56067E-09-3.68891E-09
 -1       606 1.57264E+05-2.05200E+04-3.18538E+04 4.47412E+04-1.04665E-08 5.02951E-10
 -1       607 1.52263E+05-6.92032E+03-1.56569E+04 4.89247E+04-3.18869E-09 1.90062E-09
 -1       608 1.55151E+05-1.47743E+03-6.97225E+03 4.44240E+04 5.48062E-09 1.90403E-09
 -1       609 1.54478E+05-3.71257E+02-3.49631E+03 4.92553E+04-4.08090E-09 1.90039E-09
 -1       610 1.54841E+05 6.68221E+01-1.65378E+03 4.43843E+04-1.16379E-08 3.53202E-09
 -1       611 1.54694E+05 1.46618E+02-8.32709E+02 4.92957E+04-2.11148E-08 9.32323E-09
 -1       612 1.54751E+05 1.61097E+02-3.98448E+02 4.43801E+04-1.76096E-08-2.70938E-09
 -1       613 1.54683E+05 1.85199E+02-1.86132E+02 4.93000E+04-3.17741E-08 3.08955E-09
 -1       614 1.54700E+05 1.70702E+02-6.20975E+01 4.43793E+04-1.75905E-08 1.36424E-11
 -1       615 1.54653E+05 2.00835E+02 3.18725E+01 4.92998E+04-8.09860E-09-4.77485E-11
 -1       616 1.54663E+05 1.89510E+02 1.38411E+02 4.43800E+04-1.83509E-08 2.06546E-09
 -1       617 1.54654E+05 2.61818E+02 3.34848E+02 4.92978E+04-1.60071E-09 8.74979E-09
 -1       618 1.54618E+05 3.49839E+02 6.85691E+02 4.43805E+04-1.99907E-09 2.27828E-10
 -1       619 1.54865E+05 9.17065E+02 1.55187E+03 4.92916E+04 1.37356E-09 3.19915E-09
 -1       620 1.54404E+05 2.24418E+03 3.16112E+03 4.43799E+04 4.63285E-09 3.67800E-09
 -1       621 4.06651E+03 5.29991E+05 9.57507E+03-4.49886E+04 4.47926E-10 6.94854E-10
 -1       622 1.60238E+03 5.31790E+05 7.86325E+03-5.26508E+04-2.71484E-09 3.88354E-09
 -1       623 9.82471E+02 5.30409E+05 9.62053E+03-4.50684E+04 3.00133E-11 1.05929E-08
 -1       624 5.63646E+03 5.34158E+05 1.84792E+04-5.23675E+04-2.09957E-09 9.49512E-09
 -1       625 1.72301E+04 5.27755E+05 3.53698E+04-4.52631E+04 4.88399E-10 2.04000E-09
 -1       626 2.24370E+05 7.18693E+04-1.50038E+04 1.51930E+05-7.98536E-09-7.82165E-10
 -1       627 2.17945E+05 8.18555E+04-7.12390E+03 1.54457E+05 2.86946E-09 7.47525E-09
 -1       628 2.24604E+05 7.91940E+04-2.99738E+03 1.48378E+05 1.36424E-08 2.08956E-09
 -1       629 2.19059E+05 8.48313E+04-1.43894E+03 1.54136E+05 2.33922E-09-1.33951E-08
 -1       630 2.24531E+05 7.97016E+04-6.38175E+02 1.48075E+05 9.63701E-09-3.54748E-09
 -1       631 2.19106E+05 8.50570E+04-2.87999E+02 1.54109E+05-7.37055E-09-6.27551E-10
 -1       632 2.24474E+05 7.97307E+04-8.83254E+01 1.48033E+05-5.19867E-09 9.58107E-09
 -1       633 2.19087E+05 8.50763E+04 5.26470E+01 1.54095E+05 1.04210E-08-3.86308E-09
 -1       634 2.24437E+05 7.97258E+04 2.19282E+02 1.48020E+05 6.28188E-09-2.04454E-09
 -1       635 2.19102E+05 8.50849E+04 5.30490E+02 1.54094E+05-8.84165E-09 4.95220E-10
 -1       636 2.24410E+05 7.97464E+04 1.11437E+03 1.48002E+05-4.11774E-09 3.29601E-09
 -1       637 2.19368E+05 8.53694E+04 2.49272E+03 1.54056E+05 9.31004E-09-6.45741E-09
 -1       638 2.24356E+05 8.06089E+04 5.16349E+03 1.47626E+05 1.47966E-08-1.06229E-09
 -1       639 2.22020E+05 8.98709E+04 1.22810E+04 1.52976E+05-5.26916E-09 6.73481E-10
 -1       640 2.24460E+05 9.36831E+04 2.58517E+04 1.42169E+05-1.95905E-08-2.55523E-09
 -1       641 7.92587E+03 4.50079E+03-1.05692E+04-4.42124E+02-1.32249E-08-2.45700E-09
 -1       642 3.43398E+03-5.20840E+03-7.43659E+03 2.02533E+03-2.42025E-09 1.22236E-09
 -1       643 6.18027E+03 6.94689E+02-2.72729E+03-4.32841E+02-2.52005E-08-3.12582E-09
 -1       644 5.45506E+03-7.94539E+02-1.68245E+03 2.01173E+03 1.15311E-08 7.52809E-09
 -1       645 5.90181E+03 1.03465E+02-6.53255E+02-4.28576E+02-1.24832E-08-5.62204E-09
 -1       646 5.78083E+03-1.00432E+02-3.07157E+02 2.00539E+03-4.79651E-07-8.60808E-10
 -1       647 5.85283E+03 3.83747E+00 1.56557E+00-4.26508E+02-3.59899E-05 1.19364E-07
 -1       648 5.87102E+03 7.03352E+01 2.92090E+02 2.00325E+03-7.11687E-05 2.49936E-07
 -1       649 5.81107E+03-6.65157E+01 6.62908E+02-4.26445E+02-3.59945E-05 1.17732E-07
 -1       650 6.11378E+03 5.10920E+02 1.59841E+03 2.00447E+03-4.49799E-07 1.03955E-09
 -1       651 5.61062E+03-4.35996E+02 2.79186E+03-4.27729E+02-9.97227E-09 3.23303E-09
 -1       652 7.48583E+03 3.26640E+03 6.88305E+03 2.00657E+03 1.70476E-08 5.22459E-09
 -1       653 4.44080E+03-2.81473E+03 1.10066E+04-4.28558E+02-4.12443E-09-1.63436E-09
 -1       654 1.57709E+04 2.10428E+04 3.00181E+04 1.99769E+03 7.73532E-09 6.08270E-09
 -1       655-2.66910E+03-1.81550E+04 4.25402E+04-4.18968E+02 8.45915E-09 1.40062E-09
 -1       656 1.67266E+04-6.07041E+05-7.10099E+04 1.46380E+04-5.65342E-09-1.75442E-09
 -1       657-2.43360E+04-6.33185E+05-5.20833E+04 6.00138E+04 1.19235E-09 1.36242E-09
 -1       658 3.28591E+03-6.16317E+05-3.29230E+04 1.44465E+04-2.68813E-09 1.35788E-09
 -1       659-2.22423E+04-6.32055E+05-4.85058E+04 6.01580E+04-3.35331E-09-4.40579E-09
 -1       660 1.50527E+04-6.08268E+05-6.42672E+04 1.44966E+04-4.16185E-09-3.10001E-09
 -1       661 5.93595E+05 7.55145E+04 4.89470E+04 2.32781E+05 1.71030E-08-6.91216E-10
 -1       662 6.05301E+05 1.14486E+05 3.11014E+04 2.39249E+05 4.09631E-09-2.15323E-09
 -1       663 6.02094E+05 8.72474E+04 1.15634E+04 2.31478E+05 5.90893E-09-4.29281E-09
 -1       664 5.95550E+05 9.95006E+04 6.41632E+03 2.41319E+05-4.36404E-09-5.30781E-09
 -1       665 6.03043E+05 8.85946E+04 2.71405E+03 2.31417E+05 5.40581E-10 1.68541E-09
 -1       666 5.94462E+05 9.78149E+04 1.48269E+03 2.41410E+05-5.26302E-09 1.29713E-08
 -1       667 6.03137E+05 8.87679E+04 8.23805E+02 2.31440E+05 1.14300E-08 1.76379E-09
 -1       668 5.94370E+05 9.76431E+04 7.75927E+02 2.41388E+05-1.54872E-08 5.26310E-09
 -1       669 6.03127E+05 8.87578E+04 1.08290E+03 2.31439E+05-4.54293E-09 1.10549E-09
 -1       670 5.94555E+05 9.79239E+04 2.20413E+03 2.41408E+05 2.97166E-08 2.79681E-09
 -1       671 6.02962E+05 8.85018E+04 4.16586E+03 2.31418E+05 9.90372E-09-3.74257E-09
 -1       672 5.96283E+05 1.00501E+05 9.93047E+03 2.41215E+05-6.93075E-09 2.32671E-09
 -1       673 6.01457E+05 8.64425E+04 1.79268E+04 2.31542E+05 2.20768E-09 5.19685E-09
 -1       674 6.11457E+05 1.23688E+05 4.82346E+04 2.37928E+05 1.45245E-08-2.07820E-09
 -1       675 5.88241E+05 6.82836E+04 7.59277E+04 2.33598E+05 2.51021E-09-1.38243E-09
 -1       676 2.16320E+03-5.66075E+05-1.01930E+04 1.17827E+03-2.09388E-09 2.71201E-09
 -1       677-3.90406E+03-5.70000E+05-1.02249E+04 8.33871E+02-2.34434E-09-2.34447E-10
 -1       678 1.11590E+03-5.66738E+05-1.10509E+04 1.17507E+03-3.61524E-10 4.45593E-09
 -1       679-1.15981E+04-5.74484E+05-2.35409E+04 8.32978E+02 7.46059E-09-1.01952E-09
 -1       680 8.54576E+03-5.61595E+05-3.52087E+04 1.17626E+03 3.42516E-09-1.93845E-09
 -1       681 8.46760E+05-2.39180E+04 5.59072E+04-1.85374E+03 2.31978E-10-1.36060E-09
 -1       682 8.71490E+05 2.77398E+04 3.95695E+04 1.41579E+04 1.53534E-10-1.40062E-09
 -1       683 8.56348E+05-3.69966E+03 1.45026E+04 3.00055E+02-2.22343E-10-3.76349E-09
 -1       684 8.60304E+05 4.33183E+03 9.11157E+03 1.12468E+04-1.84421E-10-2.66425E-09
 -1       685 8.57930E+05-5.67961E+02 3.77370E+03 1.05728E+03 7.28978E-10-3.83898E-09
 -1       686 8.58501E+05 7.20805E+02 2.30461E+03 1.08498E+04 4.05890E-10-4.04930E-09
 -1       687 8.58152E+05-9.74748E+01 1.24885E+03 6.97168E+02 1.64704E-11-2.59845E-09
 -1       688 8.58456E+05 2.53583E+02 1.24239E+03 1.28175E+04-2.01553E-10-4.18056E-09
 -1       689 8.57995E+05-1.14636E+02 1.48037E+03-9.10410E+02 6.51426E-10-2.05182E-09
 -1       690 8.59528E+05 8.44171E+02 3.19511E+03 1.78531E+04 2.80318E-09 5.63602E-10
 -1       691 8.57149E+05-7.33356E+02 4.99258E+03-4.33840E+03-1.95882E-10 1.37516E-09
 -1       692 8.64435E+05 5.60184E+03 1.30281E+04 2.77545E+04-4.21608E-10 2.02363E-09
 -1       693 8.53311E+05-5.01116E+03 1.94059E+04-1.08128E+04 1.59002E-09 4.37467E-09
 -1       694 8.87934E+05 3.79425E+04 5.64146E+04 4.62542E+04 8.13145E-09 8.21274E-10
 -1       695 8.34377E+05-3.34613E+04 7.48946E+04-2.28463E+04 9.12678E-09 1.05574E-08
 -1       696-1.53888E+04 6.28076E+05 3.54786E+04 3.24413E+03 8.00355E-11-1.10504E-09
 -1       697 1.69311E+04 6.43492E+05 2.33695E+04-1.90446E+04 1.56433E-10-2.58669E-09
 -1       698-1.44431E+03 6.34786E+05 5.59237E+03 2.17420E+03-3.74712E-10 1.00266E-09
 -1       699-4.29090E+03 6.33527E+05-4.51233E+03-1.86549E+04-4.34511E-10 3.70534E-09
 -1       700 5.76917E+03 6.38043E+05-1.25695E+04 2.85436E+03-2.78305E-10 1.72957E-09
 -1       701-7.64840E+05-7.04512E+04-9.42055E+04-3.01931E+05-6.42103E-10-8.51287E-10
 -1       702-8.08053E+05-1.61071E+05-6.50472E+04-2.91448E+05-4.54975E-10 4.44743E-10
 -1       703-7.85809E+05-1.01881E+05-2.21112E+04-2.93182E+05-3.97904E-10-6.64841E-10
 -1       704-7.83318E+05-1.25207E+05-1.37124E+04-3.02255E+05 5.81167E-10 2.69006E-09
 -1       705-7.89576E+05-1.06189E+05-5.15978E+03-2.91180E+05 6.22663E-10 1.93450E-09
 -1       706-7.79558E+05-1.19448E+05-3.04938E+03-3.03648E+05 1.20548E-09 3.42430E-09
 -1       707-7.89565E+05-1.07622E+05-1.44128E+03-2.91795E+05 1.12112E-09 6.48612E-10
 -1       708-7.81162E+05-1.16100E+05-1.11539E+03-3.00779E+05-4.57874E-11-6.47837E-10
 -1       709-7.87940E+05-1.09556E+05-1.41277E+03-2.94026E+05-6.78710E-10-6.04814E-11
 -1       710-7.85604E+05-1.12459E+05-2.63364E+03-2.95621E+05 9.57982E-10-5.71617E-10
 -1       711-7.85101E+05-1.11281E+05-4.76860E+03-2.96936E+05 4.98019E-10-9.68384E-10
 -1       712-7.93529E+05-1.13424E+05-1.23061E+04-2.89590E+05-2.62958E-10-8.81300E-10
 -1       713-7.80039E+05-1.08594E+05-1.99886E+04-3.00066E+05 8.74934E-10-4.20187E-10
 -1       714-8.17066E+05-1.45597E+05-5.88741E+04-2.79744E+05-5.45697E-10-3.53793E-10
 -1       715-7.61626E+05-7.91790E+04-8.50499E+04-3.06779E+05-3.53066E-09 3.11047E-09
 -1       716 7.20439E+05-2.87430E+04 6.49619E+04-1.89210E+04-1.13309E-08 9.89530E-09
 -1       717 7.64123E+05 3.26632E+04 4.84618E+04 3.53427E+04-4.53701E-09 7.42511E-09
 -1       718 7.35727E+05-4.32451E+03 1.68320E+04-9.92502E+03-3.35399E-09 3.47336E-09
 -1       719 7.45198E+05 4.81913E+03 1.13425E+04 2.12134E+04 7.93705E-10 3.64525E-09
 -1       720 7.38853E+05-6.40721E+02 4.49185E+03-4.78527E+03 3.28021E-09 1.61776E-09
 -1       721 7.41207E+05 7.45430E+02 3.20234E+03 1.30635E+04-3.12411E-10 2.20962E-09
 -1       722 7.39546E+05-1.44746E+02 2.04021E+03-1.77386E+03-2.23969E-09-5.39117E-10
 -1       723 7.40453E+05 5.21928E+02 2.80813E+03 8.24257E+03-1.65332E-09-2.51185E-09
 -1       724 7.39548E+05-3.78107E+02 4.16966E+03 3.58324E+01-2.18679E-09-2.48315E-09
 -1       725 7.41450E+05 2.78997E+03 9.12832E+03 5.26906E+03 4.48409E-10-3.61888E-09
 -1       726 7.38526E+05-2.39335E+03 1.55616E+04 1.19966E+03-2.79411E-09-4.19186E-09
 -1       727 7.48852E+05 1.79819E+04 3.80912E+04 3.21703E+03-5.73993E-09-5.00950E-09
 -1       728 7.32128E+05-1.55184E+04 6.08742E+04 2.08771E+03-6.29257E-11-3.17959E-09
 -1       729 7.94423E+05 1.16123E+05 1.65793E+05 1.31240E+03-4.92150E-10-1.54796E-09
 -1       730 6.92970E+05-1.00187E+05 2.35197E+05 3.10306E+03-2.33229E-10-2.24099E-09
 -1       731-1.60883E+04 2.76045E+05 2.22499E+04 3.52515E+04-2.93585E-09 2.97314E-09
 -1       732 1.76463E+04 3.56420E+05 2.99932E+04-1.40356E+05-1.21895E-09 2.05227E-09
 -1       733-2.66416E+03 3.08304E+05 1.10922E+04 2.79975E+04 7.14124E-09 6.45696E-09
 -1       734 1.15119E+04 3.21805E+05 1.74004E+04-1.32568E+05 1.22143E-08 1.17053E-08
 -1       735-7.93419E+03 3.07727E+05 1.83048E+04 2.74559E+04 6.09180E-09 7.00470E-09
 -1       736-1.05693E+06-7.44243E+04-1.06620E+05-3.47560E+05-9.97716E-09-1.40790E-09
 -1       737-8.71575E+05-2.68294E+05-5.31127E+04-4.66900E+05-2.93188E-08-4.92764E-09
 -1       738-1.04639E+06-7.39384E+04-2.19966E+04-3.00907E+05-1.44369E-08-3.14139E-09
 -1       739-8.70598E+05-2.51955E+05-1.01281E+04-5.02121E+05 4.39377E-09 1.40799E-08
 -1       740-1.06048E+06-8.87451E+04-9.27747E+03-3.14132E+05 2.64313E-08 2.60442E-08
 -1       741-8.27604E+05-1.98486E+05 1.69737E+04-4.28706E+05 2.34650E-08 4.82597E-08
 -1       742-1.08320E+06-1.31948E+05-1.85072E+04-3.70027E+05-8.53652E-09 1.59955E-08
 -1       743-8.43323E+05-1.14704E+05 3.15613E+04-3.19000E+05 1.03173E-08 7.85315E-09
 -1       744-1.04033E+06-1.75721E+05-1.83577E+04-4.20269E+05 1.16834E-08-1.19007E-09
 -1       745-9.77701E+05-4.59215E+04 1.82999E+04-2.53816E+05-1.29746E-08-1.08541E-08
 -1       746-9.53380E+05-1.97371E+05-7.72037E+03-4.38400E+05-5.12955E-09-6.09366E-08
 -1       747-1.09857E+06-1.94041E+04-5.24921E+03-2.38549E+05 1.78611E-08 2.41628E-08
 -1       748-9.25344E+05-1.98009E+05-1.42406E+04-4.40319E+05-3.58700E-08 2.56478E-10
 -1       749-1.06646E+06-4.98450E+04-3.07452E+04-2.38029E+05 6.60702E-09-1.96087E-09
 -1       750-9.83254E+05-1.68607E+05-7.36033E+04-4.37024E+05-1.63891E-09 5.82440E-09
 -1       751 4.09357E+06-2.30274E+05 5.41714E+05 2.16330E+04-2.19263E-08-1.39698E-09
 -1       752 4.32866E+06 2.66868E+05 3.81887E+05-2.72779E+04-4.68913E-09-3.89264E-09
 -1       753 4.18476E+06-3.56473E+04 1.40462E+05 5.24187E+03-3.05252E-09 1.89175E-10
 -1       754 4.22297E+06 4.12838E+04 8.79397E+04-6.86392E+03 2.63562E-10 1.23691E-09
 -1       755 4.19963E+06-5.50993E+03 3.62150E+04 1.22505E+03 1.82844E-09-2.13913E-09
 -1       756 4.20585E+06 6.45894E+03 2.15640E+04-1.84836E+03-4.44174E-10-2.68528E-10
 -1       757 4.20207E+06-9.33045E+02 1.06755E+04 2.26433E+02 1.23877E-09-1.64164E-09
 -1       758 4.20334E+06 1.66713E+03 8.53655E+03-6.44770E+02 9.92847E-10-6.31729E-10
 -1       759 4.20219E+06-7.31291E+02 8.75394E+03 2.14415E+01 3.55727E-09-1.23669E-09
 -1       760 4.20490E+06 4.70481E+03 1.60386E+04-5.74699E+02 2.93479E-09 5.41968E-09
 -1       761 4.20048E+06-3.96198E+03 2.62199E+04 1.56361E+02 3.28287E-09 1.62800E-09
 -1       762 4.21708E+06 2.96174E+04 6.31430E+04-1.48512E+03-7.43004E-10 1.90630E-09
 -1       763 4.18987E+06-2.55639E+04 1.00684E+05 9.31857E+02 3.09637E-09 2.50293E-09
 -1       764 4.29202E+06 1.91212E+05 2.73461E+05-5.45850E+03-1.10035E-10-4.60568E-09
 -1       765 4.12512E+06-1.64963E+05 3.87995E+05 4.12887E+03-1.87495E-09-6.05360E-09
 -1       766-8.83406E+04 3.54803E+05 2.07525E+05-2.79786E+04 2.79397E-09 3.76076E-10
 -1       767 1.06273E+05 4.55009E+05 1.55824E+05 1.20461E+05-2.78305E-10 9.89040E-10
 -1       768-1.75466E+04 3.90104E+05 7.02032E+04-2.65096E+04-2.57569E-09-2.50418E-09
 -1       769 5.07509E+04 4.45507E+05 8.52816E+04 1.25889E+05 6.49561E-09 4.84170E-09
 -1       770-3.40482E+04 3.65763E+05 7.65837E+04-3.34190E+04 5.68980E-09 5.44287E-09
 -1       771-2.36319E+06-4.77730E+05-8.86004E+04-1.01547E+06 1.61890E-09-9.60426E-10
 -1       772-2.35936E+06-4.71814E+05-4.32593E+04-1.04859E+06-6.43195E-09 7.16500E-09
 -1       773-2.36670E+06-4.43371E+05-1.84312E+04-1.03057E+06 2.16096E-09 6.85031E-09
 -1       774-2.35010E+06-4.60145E+05-8.96873E+03-1.05172E+06 7.97445E-09 3.67527E-09
 -1       775-2.36788E+06-4.41576E+05-4.18026E+03-1.03155E+06-5.09317E-11 1.66801E-09
 -1       776-2.34990E+06-4.59547E+05-2.09642E+03-1.05237E+06-2.54659E-09-1.32422E-09
 -1       777-2.36857E+06-4.41274E+05-1.16985E+03-1.03184E+06 3.01952E-10 1.61435E-10
 -1       778-2.35024E+06-4.59421E+05-9.05878E+02-1.05282E+06 2.16460E-10 1.40443E-09
 -1       779-2.36900E+06-4.41019E+05-1.16489E+03-1.03204E+06 2.99769E-09 6.49061E-09
 -1       780-2.35060E+06-4.59333E+05-2.12722E+03-1.05317E+06 2.97405E-10 6.57565E-10
 -1       781-2.36916E+06-4.40807E+05-4.21559E+03-1.03214E+06 2.21917E-10 1.02136E-09
 -1       782-2.35148E+06-4.59802E+05-9.17480E+03-1.05338E+06 7.65795E-10 2.64845E-09
 -1       783-2.36882E+06-4.42087E+05-1.87909E+04-1.03146E+06-2.92766E-09-1.94814E-09
 -1       784-2.36108E+06-4.72281E+05-4.43609E+04-1.05166E+06-3.53140E-09-3.50337E-09
 -1       785-2.36636E+06-4.76563E+05-9.07256E+04-1.01576E+06-6.99174E-10-2.94676E-10
 -1       786 4.99493E+05-1.55166E+04 6.33974E+04-2.82184E+03 1.23168E-09-5.20231E-09
 -1       787 5.22646E+05 2.05753E+04 4.08658E+04-1.31302E+04-9.37689E-10-6.99765E-09
 -1       788 5.09130E+05-1.64360E+03 1.64424E+04-2.85220E+03-7.63066E-10 4.63842E-11
 -1       789 5.11870E+05 2.09266E+03 9.23492E+03-1.30603E+04-6.88942E-10-7.09406E-10
 -1       790 5.10250E+05-1.81550E+02 4.18258E+03-2.88937E+03 5.51381E-10 2.89219E-10
 -1       791 5.10594E+05 2.08847E+02 2.25486E+03-1.30069E+04 4.41787E-10 2.84587E-09
 -1       792 5.10395E+05-2.29810E+01 1.15732E+03-2.90559E+03-2.41386E-10-1.14659E-09
 -1       793 5.10434E+05 2.71298E+01 7.79740E+02-1.29964E+04 2.28624E-10-4.50001E-09
 -1       794 5.10408E+05-1.36148E+01 7.33014E+02-2.89990E+03 5.61556E-10-5.50824E-09
 -1       795 5.10490E+05 9.29277E+01 1.13393E+03-1.30303E+04 6.26073E-10 2.64047E-09
 -1       796 5.10347E+05-8.61310E+01 1.95902E+03-2.87165E+03-7.15772E-10 4.25359E-10
 -1       797 5.11079E+05 9.47371E+02 4.24150E+03-1.31058E+04-5.86965E-10 1.74282E-09
 -1       798 5.09838E+05-7.56515E+02 7.51471E+03-2.82442E+03-8.64020E-11 3.68073E-09
 -1       799 5.16012E+05 9.37826E+03 1.86593E+04-1.31914E+04-2.58615E-09 1.21895E-09
 -1       800 5.05441E+05-7.09445E+03 2.89300E+04-2.78737E+03 2.52840E-10 4.32556E-09
 -1       801-2.40880E+04 6.18792E+05 7.96369E+04-3.04889E+05 7.60338E-10 1.60071E-09
 -1       802 5.45933E+04 6.40965E+05 8.10787E+04-1.32012E+06 1.57524E-08 3.08501E-09
 -1       803-1.11031E+03 6.20229E+05 7.84857E+04-3.04881E+05 8.39282E-09 7.69398E-09
 -1       804 9.95895E+04 6.69166E+05 1.60025E+05-1.32005E+06 1.04264E-08-3.79623E-09
 -1       805-6.27463E+04 5.92754E+05 2.27621E+05-3.04995E+05 7.79983E-09-2.18279E-10
 -1       806-5.11528E+05-1.32680E+05-4.41508E+04-2.30901E+05 7.62611E-10 2.51021E-09
 -1       807-5.12166E+05-1.21361E+05-2.09715E+04-2.43953E+05 3.49610E-09 8.01447E-09
 -1       808-5.11342E+05-1.10408E+05-8.82139E+03-2.40361E+05-7.19638E-09 5.06679E-09
 -1       809-5.07821E+05-1.13531E+05-4.26588E+03-2.45714E+05-1.23714E-09 4.18769E-08
 -1       810-5.11463E+05-1.08920E+05-1.93160E+03-2.41038E+05-7.71706E-09 1.00044E-09
 -1       811-5.07404E+05-1.13022E+05-9.70647E+02-2.45782E+05-2.44063E-09 3.13366E-09
 -1       812-5.11499E+05-1.08881E+05-5.13112E+02-2.41069E+05 3.18863E-10-1.76856E-08
 -1       813-5.07356E+05-1.13010E+05-3.88618E+02-2.45768E+05 1.96314E-08-2.36787E-09
 -1       814-5.11489E+05-1.08890E+05-4.66104E+02-2.41062E+05 5.26597E-09-8.98490E-09
 -1       815-5.07376E+05-1.13031E+05-8.45601E+02-2.45760E+05-2.86263E-09-9.83164E-10
 -1       816-5.11433E+05-1.08937E+05-1.66279E+03-2.41023E+05-3.18323E-10-4.42924E-10
 -1       817-5.07721E+05-1.13467E+05-3.66200E+03-2.45672E+05 2.41926E-10-1.14942E-08
 -1       818-5.11300E+05-1.10236E+05-7.56904E+03-2.40438E+05 2.89219E-09 7.78527E-10
 -1       819-5.11501E+05-1.20109E+05-1.79878E+04-2.44051E+05 1.56251E-09 9.44056E-10
 -1       820-5.11365E+05-1.29406E+05-3.78694E+04-2.32385E+05-8.51287E-10-1.93540E-09
 -1       821-4.89136E+05 1.55191E+04-6.34589E+04 2.66621E+03-5.68070E-09 4.14366E-09
 -1       822-5.12259E+05-2.06009E+04-4.09052E+04 1.34506E+04-2.21735E-09 2.36105E-09
 -1       823-4.98790E+05 1.63463E+03-1.64655E+04 2.51581E+03 6.24732E-09 1.23873E-09
 -1       824-5.01524E+05-2.06668E+03-9.24756E+03 1.36811E+04-3.30988E-09-4.39741E-10
 -1       825-4.99916E+05 1.82101E+02-4.20848E+03 2.43316E+03-1.12111E-08 8.84256E-10
 -1       826-5.00287E+05-1.63558E+02-2.29691E+03 1.38188E+04-1.67572E-08 3.69323E-09
 -1       827-5.00064E+05 3.17025E+01-1.24399E+03 2.37755E+03-1.11409E-08 2.06603E-09
 -1       828-5.00157E+05 2.09708E+01-9.56484E+02 1.39056E+04-9.56152E-09-6.91216E-11
 -1       829-5.00070E+05 3.12454E+01-1.07848E+03 2.34622E+03 1.17615E-09-6.24627E-09
 -1       830-5.00272E+05-1.08004E+02-1.86381E+03 1.39422E+04 1.32732E-08-8.59406E-09
 -1       831-4.99959E+05 1.54544E+02-3.34378E+03 2.34090E+03-2.15226E-09-2.44768E-10
 -1       832-5.01268E+05-1.60181E+03-7.31522E+03 1.39272E+04 1.51374E-10 1.60651E-09
 -1       833-4.99073E+05 1.30606E+03-1.30016E+04 2.36170E+03-7.79096E-10-1.83127E-09
 -1       834-5.09760E+05-1.62307E+04-3.23031E+04 1.38448E+04-4.08056E-09 1.66892E-09
 -1       835-4.91453E+05 1.22735E+04-5.01023E+04 2.42770E+03 7.91260E-10-5.41331E-09
 -1       836-2.63296E+04 1.33749E+06 1.13284E+05-3.21530E+04-2.20462E-09 1.75805E-09
 -1       837 3.97251E+04 1.37957E+06 8.83343E+04-1.33812E+05 2.02544E-09-1.88288E-09
 -1       838-6.38347E+03 1.35095E+06 6.45097E+04-3.23350E+04-2.71484E-09 4.08915E-09
 -1       839 5.14572E+04 1.38636E+06 1.08639E+05-1.33760E+05 2.69938E-09 3.47063E-09
 -1       840-3.60183E+04 1.33065E+06 1.51485E+05-3.22029E+04-2.00089E-09 6.01540E-09
 -1       841-7.06040E+04-1.02761E+03-2.35665E+04-3.07843E+04-5.18594E-09 4.73483E-09
 -1       842-8.37188E+04-2.16409E+04-1.63046E+04-2.58172E+04-4.80259E-09 7.31916E-10
 -1       843-7.53339E+04-9.47817E+03-5.52603E+03-2.92680E+04 5.24972E-09-5.77620E-09
 -1       844-7.82667E+04-1.18165E+04-3.42516E+03-2.75342E+04 8.71751E-10-4.49108E-09
 -1       845-7.60539E+04-1.08254E+04-1.27192E+03-2.90780E+04-3.93851E-09-3.47882E-11
 -1       846-7.74540E+04-1.02313E+04-7.12815E+02-2.77302E+04-1.14913E-08-6.74365E-09
 -1       847-7.61470E+04-1.10589E+04-2.52384E+02-2.90740E+04-4.01243E-09-6.27858E-09
 -1       848-7.73435E+04-9.93269E+03-5.93613E+01-2.77281E+04 9.47068E-09 6.67313E-10
 -1       849-7.61650E+04-1.11230E+04 1.17411E+02-2.90808E+04 5.69068E-09-3.20192E-09
 -1       850-7.72404E+04-9.73826E+03 4.27386E+02-2.77460E+04-1.49785E-09 6.31267E-10
 -1       851-7.62501E+04-1.12528E+04 7.87855E+02-2.90564E+04-3.21270E-09-5.70253E-09
 -1       852-7.66490E+04-8.80250E+03 2.14963E+03-2.79373E+04 8.97137E-09 3.11184E-09
 -1       853-7.67557E+04-1.20566E+04 3.46320E+03-2.88902E+04 8.12145E-09-1.66210E-10
 -1       854-7.30916E+04-2.74368E+03 1.02427E+04-2.91358E+04-4.27951E-09 1.34253E-09
 -1       855-7.98036E+04-1.72956E+04 1.47882E+04-2.78632E+04 1.24373E-09 3.10320E-09
 -1       856-5.75306E+05 1.41361E+04-5.79312E+04 5.29098E+03-8.96671E-09-6.91216E-11
 -1       857-5.96380E+05-1.87088E+04-3.73182E+04 2.73641E+04-5.17593E-09-5.52927E-09
 -1       858-5.84126E+05 1.49498E+03-1.50325E+04 5.02576E+03-1.13987E-08-2.90765E-09
 -1       859-5.86674E+05-1.76515E+03-8.43001E+03 2.77670E+04-2.07592E-09-3.70892E-09
 -1       860-5.85163E+05 1.87327E+02-3.83327E+03 4.88279E+03 1.84900E-09-3.99041E-10
 -1       861-5.85598E+05-6.64160E+00-2.07493E+03 2.79855E+04-1.29388E-08 2.29272E-09
 -1       862-5.85304E+05 5.88202E+01-1.09614E+03 4.80586E+03 1.35894E-08-3.38787E-09
 -1       863-5.85494E+05 1.72291E+02-7.93532E+02 2.80802E+04 3.22440E-08-9.46045E-10
 -1       864-5.85314E+05 5.60617E+01-8.30991E+02 4.78777E+03 1.84515E-08-5.73581E-09
 -1       865-5.85558E+05 7.59004E+01-1.37838E+03 2.80561E+04 1.78850E-08-4.30712E-09
 -1       866-5.85228E+05 1.36979E+02-2.44613E+03 4.83007E+03-1.83650E-09 2.42477E-09
 -1       867-5.86229E+05-1.03117E+03-5.32341E+03 2.79104E+04 3.87399E-09 6.59384E-11
 -1       868-5.84574E+05 9.56788E+02-9.46954E+03 4.93439E+03 1.73386E-08-3.94948E-09
 -1       869-5.92316E+05-1.17027E+04-2.34909E+04 2.75880E+04-1.10022E-08-5.15001E-09
 -1       870-5.79021E+05 8.90470E+03-3.64688E+04 5.15686E+03 6.42467E-09 1.61890E-10
 -1       871-5.50389E+03-4.90768E+04-9.33593E+03 1.37916E+05 4.56748E-09-1.84355E-09
 -1       872-1.95260E+03-5.07150E+04-2.74732E+03 1.60634E+05-3.11502E-09-4.19686E-09
 -1       873-1.45851E+02-5.01759E+04 2.66435E+03 1.37663E+05 2.83580E-09 4.38376E-10
 -1       874 2.97429E+03-4.79924E+04 1.00445E+04 1.60756E+05-2.25555E-09-7.78414E-10
 -1       875 1.04730E+04-5.19753E+04 2.17538E+04 1.37829E+05 5.02314E-09 3.17823E-09
 -1       876 6.79751E+05 8.48611E+04 6.45003E+04 2.68044E+05 9.19499E-09-6.98492E-10
 -1       877 6.94512E+05 1.36964E+05 4.09918E+04 2.77421E+05 8.20228E-09 2.90856E-09
 -1       878 6.90911E+05 1.00372E+05 1.52316E+04 2.66367E+05 1.21740E-08-8.57654E-10
 -1       879 6.81708E+05 1.17142E+05 8.45156E+03 2.80046E+05-1.09503E-09 2.19552E-09
 -1       880 6.92123E+05 1.02190E+05 3.55987E+03 2.66325E+05 2.63958E-09-1.70212E-09
 -1       881 6.80318E+05 1.14860E+05 1.92345E+03 2.80080E+05-7.04040E-09-3.36570E-10
 -1       882 6.92218E+05 1.02452E+05 1.02048E+03 2.66387E+05 1.20242E-08 8.30056E-09
 -1       883 6.80224E+05 1.14577E+05 8.80670E+02 2.79986E+05-1.47313E-08-7.51959E-09
 -1       884 6.92191E+05 1.02471E+05 1.14301E+03 2.66408E+05-6.17915E-09 3.26679E-09
 -1       885 6.80426E+05 1.14832E+05 2.26080E+03 2.79974E+05 3.09663E-08 4.85034E-09
 -1       886 6.92020E+05 1.02216E+05 4.24386E+03 2.66392E+05 8.86882E-09-6.83212E-09
 -1       887 6.82179E+05 1.17457E+05 1.00973E+04 2.79789E+05-2.36141E-08-1.61137E-08
 -1       888 6.90502E+05 1.00109E+05 1.82198E+04 2.66506E+05-1.02915E-08-7.54426E-09
 -1       889 6.97582E+05 1.41049E+05 4.90197E+04 2.76495E+05 7.46377E-09-6.28461E-10
 -1       890 6.77094E+05 8.16287E+04 7.71554E+04 2.68572E+05 2.11003E-09 3.60160E-09
 -1       891 2.47618E+03-3.01155E+05-1.15978E+04 2.85532E+04 2.65845E-09 1.59343E-09
 -1       892-4.43828E+03-3.05143E+05-9.38479E+03 1.23294E+05 7.14522E-09 4.29350E-09
 -1       893 6.86370E+02-3.02484E+05-7.48601E+03 2.83850E+04-6.24823E-10 7.60787E-09
 -1       894-6.81004E+03-3.06493E+05-1.34737E+04 1.23277E+05 8.45830E-11 4.38990E-09
 -1       895 4.42100E+03-2.99771E+05-1.92883E+04 2.85686E+04 5.69889E-09 2.58842E-09
 -1       896 9.67007E+05-6.53515E+03 1.52205E+04 3.34515E+03-3.90571E-10 2.16460E-09
 -1       897 9.74026E+05 7.55633E+03 1.08367E+04-9.03593E+03-1.23379E-10-3.91083E-11
 -1       898 9.69725E+05-1.00861E+03 3.96286E+03 1.23993E+03-2.24645E-10-6.26642E-10
 -1       899 9.70835E+05 1.17045E+03 2.52360E+03-5.93574E+03 2.66027E-10-1.60492E-09
 -1       900 9.70183E+05-1.56895E+02 1.08457E+03 2.44935E+02 3.82514E-10-2.08729E-09
 -1       901 9.70305E+05 2.02913E+02 7.50367E+02-4.64687E+03 3.15261E-10-2.44096E-09
 -1       902 9.70251E+05-4.04768E+01 5.69376E+02-4.89667E+01-6.06699E-11-2.34284E-09
 -1       903 9.70293E+05 1.65153E+02 8.30068E+02-4.64050E+03-4.49724E-10-2.19185E-09
 -1       904 9.70195E+05-1.19301E+02 1.31820E+03 2.38564E+02 3.04965E-10-1.94120E-09
 -1       905 9.70736E+05 8.87143E+02 2.91999E+03-5.91402E+03-1.84912E-10-1.47082E-09
 -1       906 9.69812E+05-7.64110E+02 4.98422E+03 1.22458E+03 4.99796E-10-1.50817E-09
 -1       907 9.73348E+05 5.74663E+03 1.22694E+04-8.98739E+03 1.15659E-09 5.09772E-10
 -1       908 9.67597E+05-4.97726E+03 1.95018E+04 3.31200E+03 5.63546E-10 2.49292E-09
 -1       909 9.88800E+05 3.72819E+04 5.34281E+04-1.51815E+04-1.05356E-09 3.51247E-09
 -1       910 9.54411E+05-3.22396E+04 7.52803E+04 7.41853E+03-6.28575E-10 6.89761E-09
 -1       911 1.01647E+05 1.18275E+02-1.82866E+03 5.98006E+03 1.57502E-09 4.87870E-09
 -1       912 1.08483E+05-2.89170E+02 7.16666E+01-2.49334E+04-2.72962E-10-3.51714E-09
 -1       913 1.03342E+05 1.43937E+01-5.25008E+02 5.08282E+03-1.61720E-09-6.77856E-09
 -1       914 1.05607E+05 3.05289E+01 9.50242E+01-2.35254E+04-1.32522E-09-1.13687E-08
 -1       915 1.04240E+05-8.57870E-01-6.69472E+01 4.57176E+03 4.58289E-09-1.35182E-08
 -1       916 1.04374E+05 1.42093E+02 7.68776E+01-2.28838E+04 7.99376E-09-1.47979E-08
 -1       917 1.04454E+05-1.17919E+01 1.77485E+02 4.44188E+03 5.59847E-09-1.50187E-08
 -1       918 1.04645E+05 2.01138E+02 4.56874E+02-2.30006E+04 3.89491E-09-1.44080E-08
 -1       919 1.03991E+05-7.51399E+01 6.59159E+02 4.68840E+03 4.49307E-09-1.27231E-08
 -1       920 1.06635E+05 5.49987E+02 2.06833E+03-2.38796E+04 3.47183E-09-8.70281E-09
 -1       921 1.02632E+05-4.78078E+02 2.62295E+03 5.32021E+03 6.97582E-10-4.63695E-09
 -1       922 1.11668E+05 3.31670E+03 8.25474E+03-2.55526E+04 4.87364E-09 2.01169E-09
 -1       923 9.92991E+04-3.07432E+03 1.07926E+04 6.36271E+03 3.05818E-10 7.23685E-09
 -1       924 1.26656E+05 2.23298E+04 3.38126E+04-2.81917E+04-3.87445E-09 1.77183E-08
 -1       925 8.82162E+04-1.98306E+04 4.30604E+04 7.96809E+03-4.01269E-09 2.56550E-08
 -1       926-9.23604E+05 1.97423E+04-4.71483E+04-2.47064E+04 6.72708E-09 3.71128E-08
 -1       927-9.43347E+05-2.23696E+04-3.28932E+04 3.86818E+04-2.82657E-08 3.51943E-08
 -1       928-9.33654E+05 2.75749E+03-1.26106E+04-2.00088E+04 1.01454E-09 3.09847E-08
 -1       929-9.28184E+05-3.05924E+03-6.16047E+03 2.31337E+04 1.72909E-08 2.14905E-08
 -1       930-9.38189E+05 6.38211E+01-4.12298E+03-9.15115E+03 9.36780E-10 1.63659E-08
 -1       931-9.22868E+05-2.54175E+02 4.81360E+02-1.06790E+03-7.57484E-09 5.14891E-09
 -1       932-9.38616E+05-3.06232E+02-1.56552E+03 4.19010E+03-1.40994E-09-1.62152E-09
 -1       933-9.25700E+05 3.70624E+02 1.83952E+03-2.55806E+04 5.19731E-09-1.21867E-08
 -1       934-9.35664E+05-3.23131E+02 7.32710E+02 1.53558E+04 4.01678E-09-1.63822E-08
 -1       935-9.31222E+05 1.46914E+03 3.51365E+03-4.18573E+04-6.05183E-09-2.33382E-08
 -1       936-9.33667E+05-9.61724E+02 5.55737E+03 2.04699E+04-1.35088E-09-2.41996E-08
 -1       937-9.29675E+05 7.04490E+03 1.38554E+04-4.42881E+04-1.09312E-08-2.49638E-08
 -1       938-9.37315E+05-5.79614E+03 2.16155E+04 1.77881E+04-1.16220E-08-2.23672E-08
 -1       939-9.07941E+05 4.25728E+04 6.08993E+04-3.21390E+04-6.91512E-09-1.50321E-08
 -1       940-9.54865E+05-3.67467E+04 8.35633E+04 8.31665E+03-6.39830E-10-7.22503E-09
 -1       941 6.57589E+06-3.23587E+05 7.63216E+05 1.20802E+03 2.59550E-08 8.11997E-09
 -1       942 6.90337E+06 3.75219E+05 5.37197E+05 4.41073E+03 2.51231E-08-5.42786E-09
 -1       943 6.70294E+06-5.01596E+04 1.97979E+05 2.46036E+03 7.68017E-09 3.20142E-10
 -1       944 6.75653E+06 5.81093E+04 1.23962E+05 2.96256E+03 1.78551E-09-3.24144E-09
 -1       945 6.72387E+06-7.75911E+03 5.11740E+04 2.65654E+03 7.43029E-09 6.81939E-09
 -1       946 6.73259E+06 9.11479E+03 3.05932E+04 2.73266E+03 8.11997E-10 1.22109E-08
 -1       947 6.72732E+06-1.32937E+03 1.53819E+04 2.69050E+03 3.37929E-09 8.31096E-09
 -1       948 6.72913E+06 2.47366E+03 1.27124E+04 2.67704E+03 6.27030E-09 6.18854E-09
 -1       949 6.72744E+06-1.13690E+03 1.35516E+04 2.71221E+03 4.33062E-09-7.46877E-09
 -1       950 6.73169E+06 7.44230E+03 2.53330E+04 2.54979E+03 1.52945E-09 8.82665E-09
 -1       951 6.72469E+06-6.28367E+03 4.16615E+04 2.81772E+03 6.14700E-09-7.62157E-09
 -1       952 6.75100E+06 4.70014E+04 1.00392E+05 1.78544E+03-3.44220E-09-4.16549E-09
 -1       953 6.70776E+06-4.05655E+04 1.60152E+05 3.47633E+03-1.04463E-08 3.14321E-09
 -1       954 6.86978E+06 3.03439E+05 4.34448E+05-3.08367E+03-5.49588E-09-4.51109E-09
 -1       955 6.60485E+06-2.61718E+05 6.16836E+05 7.68441E+03-1.87781E-08 1.25146E-09
 -1       956-3.65450E+05-6.16096E+03-1.26710E+04 5.26105E+04-8.03811E-09 2.40289E-09
 -1       957-3.67758E+05-1.89703E+03-6.37768E+03 6.08402E+04-1.62709E-09-4.09273E-10
 -1       958-3.66534E+05-1.78148E+02-2.87086E+03 5.22871E+04 7.03221E-09-3.73529E-09
 -1       959-3.66782E+05 6.88730E+01-1.45728E+03 6.11933E+04-4.25553E-09-2.27374E-11
 -1       960-3.66704E+05 1.50453E+02-7.09080E+02 5.22510E+04-1.02227E-08-2.64208E-10
 -1       961-3.66760E+05 1.95716E+02-3.72624E+02 6.12342E+04-1.51158E-08 1.46747E-09
 -1       962-3.66772E+05 1.80460E+02-2.10583E+02 5.22452E+04-4.24825E-09-1.16779E-09
 -1       963-3.66799E+05 2.22347E+02-1.61664E+02 6.12419E+04-1.14360E-08 2.23099E-09
 -1       964-3.66805E+05 2.00086E+02-1.89215E+02 5.22429E+04 1.43991E-08-9.98170E-10
 -1       965-3.66833E+05 2.37080E+02-3.20702E+02 6.12427E+04 4.28008E-08 7.66249E-10
 -1       966-3.66803E+05 2.09886E+02-5.99890E+02 5.22442E+04 1.55797E-08-2.14277E-09
 -1       967-3.66915E+05 1.64761E+02-1.23446E+03 6.12250E+04 2.15186E-09 2.30011E-09
 -1       968-3.66712E+05-3.59852E+01-2.42708E+03 5.22613E+04 1.01181E-09 1.19371E-10
 -1       969-3.67802E+05-1.47213E+03-5.40216E+03 6.10525E+04 5.52518E-10-6.69843E-10
 -1       970-3.65834E+05-5.08709E+03-1.07282E+04 5.24273E+04 5.77438E-09-5.27507E-10
 -1       971-7.90990E+05 1.19510E+04-4.90490E+04 4.86759E+03-7.87986E-09 4.39286E-09
 -1       972-8.08769E+05-1.58334E+04-3.15892E+04 2.67225E+04-4.63024E-09 6.73754E-09
 -1       973-7.98456E+05 1.25763E+03-1.27365E+04 4.51103E+03-1.20208E-08 2.75304E-09
 -1       974-8.00580E+05-1.47986E+03-7.15025E+03 2.72833E+04-9.59744E-10 4.13593E-09
 -1       975-7.99336E+05 1.56661E+02-3.28018E+03 4.30260E+03-2.56614E-09 4.28327E-09
 -1       976-7.99694E+05 1.69999E+01-1.82409E+03 2.76103E+04-1.50289E-08 1.27576E-08
 -1       977-7.99456E+05 5.33722E+01-1.06370E+03 4.18284E+03 1.50885E-08 5.58737E-09
 -1       978-7.99635E+05 1.64587E+02-9.51348E+02 2.77679E+04 3.65677E-08 5.37517E-09
 -1       979-7.99453E+05 6.30686E+01-1.24709E+03 4.14461E+03 1.61612E-08-1.18234E-09
 -1       980-7.99785E+05-1.50900E+01-2.31631E+03 2.77614E+04 2.50525E-08 6.13608E-09
 -1       981-7.99304E+05 2.15166E+02-4.24697E+03 4.18944E+03-7.93079E-10 5.41763E-09
 -1       982-8.01017E+05-1.94622E+03-9.34089E+03 2.75887E+04-9.50536E-09 7.76208E-09
 -1       983-7.98163E+05 1.67455E+03-1.66364E+04 4.31862E+03 5.58157E-09 2.27737E-09
 -1       984-8.11812E+05-2.06978E+04-4.13301E+04 2.72055E+04-1.83045E-08 9.07039E-09
 -1       985-7.88403E+05 1.56897E+04-6.41336E+04 4.58017E+03 8.86757E-09 3.57613E-09
 -3
    1PSTEP                        37          19           1          
  100CL  119 1.000000000         841                     0   19           1
 -4  DISP        4    1
 -5  D1          1    2    1    0
 -5  D2          1    2    2    0
 -5  D3          1    2    3    0
 -5  ALL         1    2    0    0    1ALL
 -1         1 1.24788E-04 0.00000E+00 0.00000E+00
 -1         2 9.93281E-05 0.00000E+00 0.00000E+00
 -1         3 8.13539E-05 0.00000E+00 0.00000E+00
 -1         4 6.99938E-05 0.00000E+00 0.00000E+00
 -1         5 6.47862E-05 0.00000E+00 0.00000E+00
 -1         8 9.87097E-05-1.23529E-06 0.00000E+00
 -1         9 7.59245E-05 1.36878E-06 0.00000E+00
 -1        10 7.14079E-05-3.45867E-06 0.00000E+00
 -1        11 6.67347E-05-7.37943E-07 0.00000E+00
 -1        12 6.17314E-05 1.71545E-06 0.00000E+00
 -1        15 5.05232E-05-1.76898E-06 0.00000E+00
 -1        16 5.66470E-05 1.33254E-06 0.00000E+00
 -1        17 5.03491E-05-6.91968E-06 0.00000E+00
 -1        18 5.10635E-05-1.48515E-06 0.00000E+00
 -1        19 5.40822E-05 3.38062E-06 0.00000E+00
 -1        20 5.49252E-05 3.61383E-05 0.00000E+00
 -1        21 5.48723E-05 8.63201E-05 0.00000E+00
 -1        22 1.24398E-05-1.31419E-06 0.00000E+00
 -1        23 1.70610E-05 1.71140E-06 0.00000E+00
 -1        24 2.09585E-05-8.07537E-06 0.00000E+00
 -1        25 4.41478E-05-1.04548E-06 0.00000E+00
 -1        26 4.69758E-05 4.47665E-06 0.00000E+00
 -1        27 4.41797E-05 3.48654E-05 0.00000E+00
 -1        28 4.08518E-05 8.51247E-05 0.00000E+00
 -1        29 0.00000E+00 0.00000E+00 0.00000E+00
 -1        30 5.38987E-06 2.23697E-06 0.00000E+00
 -1        31 5.76466E-06-7.38252E-06 0.00000E+00
 -1        32 0.00000E+00 0.00000E+00 0.00000E+00
 -1        33 3.71052E-05 7.24181E-06 0.00000E+00
 -1        34 3.50367E-05 3.47488E-05 0.00000E+00
 -1        35 3.05157E-05 8.44876E-05 0.00000E+00
 -1        36 1.23244E-04 1.21892E-19 0.00000E+00
 -1        37 1.21652E-04 3.50524E-19 0.00000E+00
 -1        38 1.20064E-04 6.43118E-19-5.29396E-23
 -1        39 1.18466E-04 9.47754E-19 2.64698E-23
 -1        40 1.16868E-04 1.08732E-18 5.29396E-23
 -1        41 1.15269E-04 9.60790E-19-2.64698E-23
 -1        42 1.13669E-04 6.17214E-19 0.00000E+00
 -1        43 1.12069E-04 1.96330E-19-2.64698E-23
 -1        44 1.10469E-04-1.71288E-19 0.00000E+00
 -1        45 1.08869E-04-3.96574E-19 0.00000E+00
 -1        46 1.07269E-04-5.05427E-19 0.00000E+00
 -1        47 1.05671E-04-3.81312E-19 0.00000E+00
 -1        48 1.04072E-04-1.97987E-19 5.29396E-23
 -1        49 1.02481E-04 4.87846E-20 2.64698E-23
 -1        50 1.00887E-04 1.01421E-19 0.00000E+00
 -1        51 1.22839E-04-2.08858E-07 0.00000E+00
 -1        52 1.19587E-04-4.08424E-07 0.00000E+00
 -1        53 1.15284E-04-6.07554E-07 0.00000E+00
 -1        54 1.10193E-04-8.09172E-07 0.00000E+00
 -1        55 1.04580E-04-1.01557E-06 6.61744E-24
 -1        56 1.22310E-04-1.17468E-06 0.00000E+00
 -1        57 1.19877E-04-2.75164E-06-2.64698E-23
 -1        58 1.17531E-04-4.54435E-06-5.29396E-23
 -1        59 1.15189E-04-6.39786E-06 0.00000E+00
 -1        60 1.12804E-04-8.13809E-06 0.00000E+00
 -1        61 1.10314E-04-9.60398E-06 0.00000E+00
 -1        62 1.07670E-04-1.06614E-05-1.05879E-22
 -1        63 1.04830E-04-1.12006E-05 0.00000E+00
 -1        64 1.01775E-04-1.11646E-05-1.05879E-22
 -1        65 9.84949E-05-1.05295E-05 5.29396E-23
 -1        66 9.50033E-05-9.33296E-06-1.05879E-22
 -1        67 9.13286E-05-7.64362E-06 0.00000E+00
 -1        68 8.75141E-05-5.58237E-06 0.00000E+00
 -1        69 8.36276E-05-3.28487E-06 0.00000E+00
 -1        70 7.97113E-05-9.23681E-07 0.00000E+00
 -1        71 9.82195E-05-5.81682E-20 0.00000E+00
 -1        72 9.70951E-05 7.43470E-20 1.32349E-23
 -1        73 9.59717E-05 2.39293E-19 0.00000E+00
 -1        74 9.48453E-05 4.26082E-19-1.32349E-23
 -1        75 9.37188E-05 5.66773E-19 0.00000E+00
 -1        76 9.25917E-05 7.31611E-19 0.00000E+00
 -1        77 9.14646E-05 7.17645E-19 2.64698E-23
 -1        78 9.03374E-05 6.94801E-19 0.00000E+00
 -1        79 8.92101E-05 6.12322E-19 0.00000E+00
 -1        80 8.80830E-05 4.43915E-19 0.00000E+00
 -1        81 8.69560E-05 3.88641E-19-2.64698E-23
 -1        82 8.58297E-05 3.19824E-19-1.32349E-23
 -1        83 8.47036E-05 1.92015E-19 0.00000E+00
 -1        84 8.35812E-05 9.24242E-20 0.00000E+00
 -1        85 8.24576E-05 7.67872E-21-2.64698E-23
 -1        86 9.81524E-05 2.08061E-07 0.00000E+00
 -1        87 9.47193E-05 4.49907E-07 4.13590E-25
 -1        88 8.99251E-05 6.83887E-07-1.65436E-24
 -1        89 8.46506E-05 9.17462E-07 0.00000E+00
 -1        90 7.97108E-05 1.15481E-06 0.00000E+00
 -1        91 1.03398E-04-1.27257E-05-2.64698E-23
 -1        92 1.16157E-04-5.03759E-05-6.61744E-24
 -1        93 1.34803E-04-1.06046E-04 0.00000E+00
 -1        94 1.56748E-04-1.72339E-04-6.61744E-24
 -1        95 1.78739E-04-2.38785E-04 0.00000E+00
 -1        96 1.97533E-04-2.94910E-04-6.61744E-24
 -1        97 2.10513E-04-3.33219E-04 0.00000E+00
 -1        98 2.14874E-04-3.46706E-04 0.00000E+00
 -1        99 2.09862E-04-3.35144E-04 0.00000E+00
 -1       100 1.94915E-04-2.98861E-04 0.00000E+00
 -1       101 1.72394E-04-2.44732E-04 0.00000E+00
 -1       102 1.45129E-04-1.79890E-04 0.00000E+00
 -1       103 1.17551E-04-1.14349E-04 0.00000E+00
 -1       104 9.41165E-05-5.81312E-05 0.00000E+00
 -1       105 7.78747E-05-1.87412E-05 0.00000E+00
 -1       106 8.06457E-05-6.37831E-20 0.00000E+00
 -1       107 7.99345E-05-4.90787E-20 1.32349E-23
 -1       108 7.92235E-05 3.65527E-20 0.00000E+00
 -1       109 7.85119E-05 2.16160E-19-1.32349E-23
 -1       110 7.78003E-05 3.66485E-19 0.00000E+00
 -1       111 7.70886E-05 5.80509E-19-1.32349E-23
 -1       112 7.63768E-05 6.95761E-19-2.64698E-23
 -1       113 7.56651E-05 7.37030E-19 1.32349E-23
 -1       114 7.49534E-05 6.49890E-19 2.64698E-23
 -1       115 7.42417E-05 6.16280E-19-1.32349E-23
 -1       116 7.35302E-05 5.39289E-19-2.64698E-23
 -1       117 7.28191E-05 3.88326E-19-1.32349E-23
 -1       118 7.21081E-05 2.72231E-19-2.64698E-23
 -1       119 7.13995E-05 1.37383E-19-1.32349E-23
 -1       120 7.06902E-05 4.82767E-20 0.00000E+00
 -1       121 8.10637E-05-5.77759E-07 1.32349E-23
 -1       122 8.02046E-05-1.15319E-06 0.00000E+00
 -1       123 7.87905E-05-1.72921E-06 0.00000E+00
 -1       124 7.68390E-05-2.30536E-06-6.61744E-24
 -1       125 7.43703E-05-2.88256E-06-1.32349E-23
 -1       126 8.33988E-05-6.90378E-06 0.00000E+00
 -1       127 9.02751E-05-2.71845E-05 6.61744E-24
 -1       128 1.00629E-04-5.74410E-05-1.32349E-23
 -1       129 1.13140E-04-9.40567E-05 0.00000E+00
 -1       130 1.26042E-04-1.31835E-04 0.00000E+00
 -1       131 1.37578E-04-1.65552E-04-6.61744E-24
 -1       132 1.46267E-04-1.90997E-04 1.32349E-23
 -1       133 1.50597E-04-2.04137E-04 0.00000E+00
 -1       134 1.50016E-04-2.03944E-04 0.00000E+00
 -1       135 1.44029E-04-1.89645E-04-6.61744E-24
 -1       136 1.33479E-04-1.63843E-04-1.32349E-23
 -1       137 1.19365E-04-1.29324E-04 0.00000E+00
 -1       138 1.03652E-04-9.09498E-05 0.00000E+00
 -1       139 8.83815E-05-5.36327E-05-6.61744E-24
 -1       140 7.54706E-05-2.20352E-05-1.32349E-23
 -1       141 6.96629E-05-2.61927E-20 0.00000E+00
 -1       142 6.93346E-05-1.17626E-19 0.00000E+00
 -1       143 6.90060E-05-1.00381E-19 1.32349E-23
 -1       144 6.86780E-05-7.18206E-20 0.00000E+00
 -1       145 6.83500E-05 1.42993E-20 0.00000E+00
 -1       146 6.80221E-05 9.61963E-20 6.61744E-24
 -1       147 6.76942E-05 1.56512E-19-1.32349E-23
 -1       148 6.73664E-05 9.57319E-20-6.61744E-24
 -1       149 6.70386E-05 1.24496E-19 0.00000E+00
 -1       150 6.67110E-05 1.12485E-19 0.00000E+00
 -1       151 6.63835E-05 8.31891E-20 0.00000E+00
 -1       152 6.60570E-05 8.00618E-20-3.30872E-24
 -1       153 6.57306E-05 2.14579E-20-6.61744E-24
 -1       154 6.54088E-05-3.23612E-20 0.00000E+00
 -1       155 6.50854E-05-3.08092E-20 0.00000E+00
 -1       156 7.15862E-05-1.15609E-07 0.00000E+00
 -1       157 7.61105E-05-2.28204E-07 0.00000E+00
 -1       158 8.06965E-05-3.41918E-07 3.30872E-24
 -1       159 8.24740E-05-4.45943E-07-3.30872E-24
 -1       160 7.87201E-05-5.57564E-07 0.00000E+00
 -1       161 6.96791E-05-4.33371E-07 0.00000E+00
 -1       162 6.95673E-05-1.41246E-06 6.61744E-24
 -1       163 6.95971E-05-2.77002E-06 0.00000E+00
 -1       164 6.97033E-05-4.33269E-06 6.61744E-24
 -1       165 6.98034E-05-5.87878E-06-1.32349E-23
 -1       166 6.98145E-05-7.18701E-06 6.61744E-24
 -1       167 6.96749E-05-8.09212E-06 0.00000E+00
 -1       168 6.93251E-05-8.43596E-06 0.00000E+00
 -1       169 6.87544E-05-8.19091E-06-1.32349E-23
 -1       170 6.79561E-05-7.33957E-06 0.00000E+00
 -1       171 6.69763E-05-6.00578E-06 0.00000E+00
 -1       172 6.58655E-05-4.32138E-06 0.00000E+00
 -1       173 6.47032E-05-2.50031E-06 0.00000E+00
 -1       174 6.35759E-05-7.56629E-07-3.30872E-24
 -1       175 6.25512E-05 7.09191E-07-3.30872E-24
 -1       191 6.46692E-05 2.85564E-07 0.00000E+00
 -1       192 6.43870E-05 5.71835E-07 0.00000E+00
 -1       193 6.39449E-05 8.58227E-07 1.32349E-23
 -1       194 6.33501E-05 1.14452E-06 0.00000E+00
 -1       195 6.26095E-05 1.43050E-06 0.00000E+00
 -1       251 9.80057E-05 1.42170E-05 1.32349E-23
 -1       252 9.67698E-05 5.08674E-05-6.61744E-24
 -1       253 9.49374E-05 1.02083E-04 1.32349E-23
 -1       254 9.27024E-05 1.60890E-04 0.00000E+00
 -1       255 9.05473E-05 2.18217E-04 0.00000E+00
 -1       256 8.89197E-05 2.65025E-04 0.00000E+00
 -1       257 8.78886E-05 2.95173E-04 0.00000E+00
 -1       258 8.72659E-05 3.02913E-04 0.00000E+00
 -1       259 8.65749E-05 2.88516E-04 1.32349E-23
 -1       260 8.53695E-05 2.52792E-04 6.61744E-24
 -1       261 8.35717E-05 2.02299E-04 1.32349E-23
 -1       262 8.13615E-05 1.43938E-04 6.61744E-24
 -1       263 7.92163E-05 8.67847E-05 0.00000E+00
 -1       264 7.75855E-05 3.98895E-05 6.61744E-24
 -1       265 7.65481E-05 9.47274E-06 0.00000E+00
 -1       266 9.44317E-05-1.30667E-06 6.61744E-24
 -1       267 9.08341E-05-1.35764E-06 0.00000E+00
 -1       268 8.62680E-05-1.41384E-06 3.30872E-24
 -1       269 7.90864E-05-1.48089E-06-8.27181E-25
 -1       270 6.76991E-05-1.58671E-06 0.00000E+00
 -1       271 9.49564E-05 2.12659E-06 5.29396E-23
 -1       272 9.14912E-05 4.50026E-06 0.00000E+00
 -1       273 8.83661E-05 5.98099E-06-5.29396E-23
 -1       274 8.55334E-05 6.65233E-06 0.00000E+00
 -1       275 8.29620E-05 6.62572E-06 0.00000E+00
 -1       276 8.06038E-05 6.02572E-06 0.00000E+00
 -1       277 7.84080E-05 4.99143E-06 0.00000E+00
 -1       278 7.63187E-05 3.67215E-06 2.64698E-23
 -1       279 7.42776E-05 2.22408E-06 0.00000E+00
 -1       280 7.22253E-05 8.06617E-07-2.64698E-23
 -1       281 7.01026E-05-4.21749E-07 0.00000E+00
 -1       282 6.78533E-05-1.30678E-06-2.64698E-23
 -1       283 6.54217E-05-1.70307E-06 5.29396E-23
 -1       284 6.27668E-05-1.47354E-06 2.64698E-23
 -1       285 5.98308E-05-5.03946E-07 0.00000E+00
 -1       286 7.56323E-05 4.07515E-06 0.00000E+00
 -1       287 7.53506E-05 5.84702E-06 0.00000E+00
 -1       288 7.50695E-05 6.65545E-06 0.00000E+00
 -1       289 7.47903E-05 6.48241E-06 0.00000E+00
 -1       290 7.45107E-05 5.44628E-06 6.61744E-24
 -1       291 7.42304E-05 3.67526E-06-3.30872E-24
 -1       292 7.39492E-05 1.39962E-06 0.00000E+00
 -1       293 7.36674E-05-1.14466E-06 0.00000E+00
 -1       294 7.33857E-05-3.68428E-06-6.61744E-24
 -1       295 7.31045E-05-5.94595E-06 0.00000E+00
 -1       296 7.28242E-05-7.69506E-06 0.00000E+00
 -1       297 7.25445E-05-8.70277E-06 0.00000E+00
 -1       298 7.22653E-05-8.84322E-06 0.00000E+00
 -1       299 7.19838E-05-8.00042E-06 0.00000E+00
 -1       300 7.17018E-05-6.19505E-06-1.32349E-23
 -1       301 7.27102E-05 1.34927E-06 0.00000E+00
 -1       302 6.94817E-05 1.35094E-06 1.65436E-24
 -1       303 6.62500E-05 1.35633E-06-3.30872E-24
 -1       304 6.30262E-05 1.36101E-06-3.30872E-24
 -1       305 5.98216E-05 1.36044E-06 0.00000E+00
 -1       306 7.34134E-05 3.41135E-06 0.00000E+00
 -1       307 7.12354E-05 4.43069E-06 0.00000E+00
 -1       308 6.93952E-05 4.55680E-06 0.00000E+00
 -1       309 6.78353E-05 3.91493E-06 0.00000E+00
 -1       310 6.65088E-05 2.64828E-06 0.00000E+00
 -1       311 6.53579E-05 9.08416E-07 2.64698E-23
 -1       312 6.43238E-05-1.14466E-06 5.29396E-23
 -1       313 6.33447E-05-3.34593E-06-2.64698E-23
 -1       314 6.23585E-05-5.52773E-06-5.29396E-23
 -1       315 6.13027E-05-7.52272E-06-2.64698E-23
 -1       316 6.01161E-05-9.16692E-06-5.29396E-23
 -1       317 5.87406E-05-1.03020E-05 2.64698E-23
 -1       318 5.71192E-05-1.07785E-05 0.00000E+00
 -1       319 5.52067E-05-1.04559E-05 0.00000E+00
 -1       320 5.29456E-05-9.21254E-06 0.00000E+00
 -1       321 7.11316E-05-1.88758E-06 0.00000E+00
 -1       322 7.08657E-05-3.54456E-06 0.00000E+00
 -1       323 7.05914E-05-7.92678E-06-6.61744E-24
 -1       324 7.03076E-05-1.45026E-05 3.30872E-24
 -1       325 7.00145E-05-2.24524E-05 0.00000E+00
 -1       326 6.97175E-05-3.09414E-05 0.00000E+00
 -1       327 6.94234E-05-3.90649E-05-6.61744E-24
 -1       328 6.91385E-05-4.59213E-05 0.00000E+00
 -1       329 6.88646E-05-5.07754E-05 6.61744E-24
 -1       330 6.85999E-05-5.29136E-05 3.30872E-24
 -1       331 6.83367E-05-5.19780E-05 6.61744E-24
 -1       332 6.80649E-05-4.76436E-05-3.30872E-24
 -1       333 6.77744E-05-4.00306E-05 6.61744E-24
 -1       334 6.74564E-05-2.92944E-05-3.30872E-24
 -1       335 6.71091E-05-1.59996E-05 0.00000E+00
 -1       336 6.80988E-05-4.03571E-06-1.32349E-23
 -1       337 6.46260E-05-4.61522E-06-6.61744E-24
 -1       338 6.10516E-05-5.19478E-06-1.32349E-23
 -1       339 5.74386E-05-5.77320E-06 0.00000E+00
 -1       340 5.38502E-05-6.35179E-06-1.32349E-23
 -1       341 6.62909E-05 8.41399E-06-1.32349E-23
 -1       342 5.42367E-05 3.77226E-05 0.00000E+00
 -1       343 3.71775E-05 7.91320E-05 0.00000E+00
 -1       344 1.73184E-05 1.27124E-04 0.00000E+00
 -1       345-2.24116E-06 1.74413E-04-1.32349E-23
 -1       346-1.84183E-05 2.13724E-04-6.61744E-24
 -1       347-2.92098E-05 2.39919E-04 0.00000E+00
 -1       348-3.28857E-05 2.48066E-04-6.61744E-24
 -1       349-2.97635E-05 2.38048E-04-1.32349E-23
 -1       350-2.02958E-05 2.10137E-04 0.00000E+00
 -1       351-6.50170E-06 1.69482E-04 0.00000E+00
 -1       352 9.67495E-06 1.21557E-04-6.61744E-24
 -1       353 2.57695E-05 7.38861E-05 0.00000E+00
 -1       354 3.93169E-05 3.39875E-05 6.61744E-24
 -1       355 4.84020E-05 7.19530E-06 0.00000E+00
 -1       356 6.63383E-05 1.48695E-05 6.61744E-24
 -1       357 6.59599E-05 2.91876E-05-3.30872E-24
 -1       358 6.56077E-05 4.14238E-05-6.61744E-24
 -1       359 6.52851E-05 5.08088E-05 3.30872E-24
 -1       360 6.49863E-05 5.69712E-05 0.00000E+00
 -1       361 6.47024E-05 5.95768E-05 3.30872E-24
 -1       362 6.44217E-05 5.87873E-05 0.00000E+00
 -1       363 6.41336E-05 5.48033E-05 3.30872E-24
 -1       364 6.38331E-05 4.82708E-05-6.61744E-24
 -1       365 6.35192E-05 3.98653E-05 0.00000E+00
 -1       366 6.31977E-05 3.05238E-05 0.00000E+00
 -1       367 6.28771E-05 2.11935E-05-3.30872E-24
 -1       368 6.25646E-05 1.28206E-05 6.61744E-24
 -1       369 6.22698E-05 6.34029E-06 1.65436E-24
 -1       370 6.19860E-05 2.42458E-06 0.00000E+00
 -1       371 5.40181E-05-9.32896E-07 0.00000E+00
 -1       372 4.81273E-05-1.05989E-06-1.65436E-24
 -1       373 4.70153E-05-1.16930E-06 3.30872E-24
 -1       374 4.86144E-05-1.27693E-06 0.00000E+00
 -1       375 5.07044E-05-1.38553E-06-8.27181E-25
 -1       376 5.88730E-05 1.84284E-05 1.32349E-23
 -1       377 4.85678E-05 4.36895E-05 0.00000E+00
 -1       378 3.71383E-05 7.17338E-05 0.00000E+00
 -1       379 2.59398E-05 9.92068E-05-6.61744E-24
 -1       380 1.62694E-05 1.22886E-04 0.00000E+00
 -1       381 9.36725E-06 1.39603E-04 0.00000E+00
 -1       382 5.78366E-06 1.47778E-04 0.00000E+00
 -1       383 5.98033E-06 1.45971E-04-6.61744E-24
 -1       384 9.54050E-06 1.35035E-04-1.32349E-23
 -1       385 1.60107E-05 1.15990E-04-6.61744E-24
 -1       386 2.43130E-05 9.17467E-05 0.00000E+00
 -1       387 3.33758E-05 6.53176E-05-6.61744E-24
 -1       388 4.19715E-05 4.02316E-05 0.00000E+00
 -1       389 4.88727E-05 1.99917E-05 0.00000E+00
 -1       390 5.31935E-05 6.96328E-06 0.00000E+00
 -1       406 6.06592E-05 1.99444E-06 0.00000E+00
 -1       407 5.94779E-05 2.27387E-06 0.00000E+00
 -1       408 5.82082E-05 2.55314E-06 0.00000E+00
 -1       409 5.68712E-05 2.83171E-06 6.61744E-24
 -1       410 5.54887E-05 3.10879E-06 0.00000E+00
 -1       466 5.07735E-05 1.49625E-05-6.61744E-24
 -1       467 5.11250E-05 2.50826E-05 3.30872E-24
 -1       468 5.15132E-05 3.02884E-05 0.00000E+00
 -1       469 5.19156E-05 3.21941E-05 0.00000E+00
 -1       470 5.23201E-05 3.16687E-05 0.00000E+00
 -1       471 5.27231E-05 2.95406E-05 0.00000E+00
 -1       472 5.31233E-05 2.62748E-05-1.32349E-23
 -1       473 5.35212E-05 2.23173E-05 0.00000E+00
 -1       474 5.39174E-05 1.79570E-05 0.00000E+00
 -1       475 5.43129E-05 1.34763E-05 0.00000E+00
 -1       476 5.47087E-05 9.13007E-06 0.00000E+00
 -1       477 5.51045E-05 5.17550E-06 0.00000E+00
 -1       478 5.55025E-05 1.95850E-06-6.61744E-24
 -1       479 5.58954E-05-1.62559E-07 0.00000E+00
 -1       480 5.62929E-05-5.82738E-07 0.00000E+00
 -1       481 3.36473E-05-1.79922E-06 1.65436E-24
 -1       482 2.31349E-05-1.74167E-06 1.65436E-24
 -1       483 1.73241E-05-1.64605E-06 3.30872E-24
 -1       484 1.45751E-05-1.53748E-06 0.00000E+00
 -1       485 1.34303E-05-1.42527E-06-3.30872E-24
 -1       486 3.79437E-05 2.90384E-05 0.00000E+00
 -1       487 1.63740E-05 8.11221E-05-6.61744E-24
 -1       488-1.11594E-05 1.46757E-04 0.00000E+00
 -1       489-4.12688E-05 2.18067E-04 6.61744E-24
 -1       490-6.97817E-05 2.85845E-04 1.32349E-23
 -1       491-9.26365E-05 3.40910E-04-6.61744E-24
 -1       492-1.07454E-04 3.77067E-04 0.00000E+00
 -1       493-1.12286E-04 3.88358E-04 0.00000E+00
 -1       494-1.07747E-04 3.74593E-04 0.00000E+00
 -1       495-9.46198E-05 3.36066E-04-6.61744E-24
 -1       496-7.54582E-05 2.79005E-04-1.32349E-23
 -1       497-5.26400E-05 2.10078E-04 0.00000E+00
 -1       498-2.91566E-05 1.38960E-04 0.00000E+00
 -1       499-7.96088E-06 7.53829E-05 0.00000E+00
 -1       500 8.36524E-06 2.71548E-05 6.61744E-24
 -1       501 5.62418E-05 3.99517E-06 1.32349E-23
 -1       502 5.58481E-05 5.71973E-06-6.61744E-24
 -1       503 5.54550E-05 6.38609E-06 0.00000E+00
 -1       504 5.50638E-05 5.89095E-06 0.00000E+00
 -1       505 5.46716E-05 4.35316E-06-1.32349E-23
 -1       506 5.42780E-05 1.90820E-06 0.00000E+00
 -1       507 5.38830E-05-1.13496E-06-1.32349E-23
 -1       508 5.34872E-05-4.45792E-06 6.61744E-24
 -1       509 5.30917E-05-7.68869E-06 0.00000E+00
 -1       510 5.26976E-05-1.04568E-05 0.00000E+00
 -1       511 5.23051E-05-1.24801E-05 0.00000E+00
 -1       512 5.19142E-05-1.34886E-05-6.61744E-24
 -1       513 5.15239E-05-1.34061E-05-1.32349E-23
 -1       514 5.11333E-05-1.21738E-05 0.00000E+00
 -1       515 5.07409E-05-9.95272E-06 1.32349E-23
 -1       516 5.03720E-05 1.39813E-06 0.00000E+00
 -1       517 3.81907E-05 1.44177E-06 0.00000E+00
 -1       518 2.44055E-05 1.46465E-06 0.00000E+00
 -1       519 1.33087E-05 1.52470E-06 0.00000E+00
 -1       520 9.36158E-06 1.63081E-06-8.27181E-25
 -1       521 5.35891E-05 3.13597E-06-5.29396E-23
 -1       522 5.08366E-05 3.93313E-06 2.64698E-23
 -1       523 4.84170E-05 3.85142E-06-5.29396E-23
 -1       524 4.62714E-05 3.01032E-06 2.64698E-23
 -1       525 4.43553E-05 1.55384E-06 0.00000E+00
 -1       526 4.26094E-05-3.62952E-07 0.00000E+00
 -1       527 4.09731E-05-2.57375E-06-5.29396E-23
 -1       528 3.93817E-05-4.90588E-06 0.00000E+00
 -1       529 3.77701E-05-7.18373E-06-5.29396E-23
 -1       530 3.60734E-05-9.23298E-06 0.00000E+00
 -1       531 3.42283E-05-1.08847E-05 0.00000E+00
 -1       532 3.21763E-05-1.19787E-05-2.64698E-23
 -1       533 2.98612E-05-1.23683E-05-5.29396E-23
 -1       534 2.72418E-05-1.19201E-05 2.64698E-23
 -1       535 2.42641E-05-1.05268E-05-5.29396E-23
 -1       536 5.03727E-05-3.89385E-06-6.61744E-24
 -1       537 5.04139E-05-1.59130E-06 8.27181E-25
 -1       538 5.04560E-05 6.64542E-08 0.00000E+00
 -1       539 5.05013E-05 1.15820E-06 1.03398E-25
 -1       540 5.05473E-05 1.76235E-06 8.27181E-25
 -1       541 5.05940E-05 1.95711E-06-8.27181E-25
 -1       542 5.06408E-05 1.82054E-06 0.00000E+00
 -1       543 5.06877E-05 1.43055E-06 8.27181E-25
 -1       544 5.07345E-05 8.64939E-07 0.00000E+00
 -1       545 5.07813E-05 2.01406E-07 0.00000E+00
 -1       546 5.08281E-05-4.82366E-07 0.00000E+00
 -1       547 5.08749E-05-1.10871E-06 8.27181E-25
 -1       548 5.09218E-05-1.59994E-06-1.65436E-24
 -1       549 5.09689E-05-1.87832E-06 0.00000E+00
 -1       550 5.10160E-05-1.86596E-06 0.00000E+00
 -1       551 4.59576E-05-7.11001E-06 3.10193E-24
 -1       552 4.10807E-05-7.29585E-06 2.48154E-24
 -1       553 3.59283E-05-7.48214E-06-6.61744E-24
 -1       554 3.07147E-05-7.67049E-06 6.61744E-24
 -1       555 2.56545E-05-7.86279E-06 0.00000E+00
 -1       556 4.90289E-05-4.09856E-06 0.00000E+00
 -1       557 4.79551E-05-1.91485E-06 0.00000E+00
 -1       558 4.71000E-05-3.07679E-07 0.00000E+00
 -1       559 4.64375E-05 7.90022E-07 0.00000E+00
 -1       560 4.59416E-05 1.44550E-06 0.00000E+00
 -1       561 4.55865E-05 1.72668E-06 1.32349E-23
 -1       562 4.53465E-05 1.70161E-06 1.32349E-23
 -1       563 4.51958E-05 1.43844E-06 0.00000E+00
 -1       564 4.51088E-05 1.00543E-06 6.61744E-24
 -1       565 4.50600E-05 4.70841E-07 0.00000E+00
 -1       566 4.50236E-05-9.69927E-08 0.00000E+00
 -1       567 4.49743E-05-6.29744E-07 1.65436E-24
 -1       568 4.48864E-05-1.05910E-06 0.00000E+00
 -1       569 4.47350E-05-1.31683E-06-2.06795E-24
 -1       570 4.44952E-05-1.33477E-06 8.27181E-25
 -1       571 5.12448E-05-1.07053E-06-4.13590E-25
 -1       572 5.14318E-05-7.87649E-07 0.00000E+00
 -1       573 5.16203E-05-6.12541E-07-4.96308E-24
 -1       574 5.18096E-05-5.20048E-07 3.30872E-24
 -1       575 5.19993E-05-4.84920E-07 6.61744E-24
 -1       576 5.21890E-05-4.81755E-07-3.30872E-24
 -1       577 5.23788E-05-4.85143E-07 0.00000E+00
 -1       578 5.25686E-05-4.69654E-07 0.00000E+00
 -1       579 5.27584E-05-4.09855E-07 0.00000E+00
 -1       580 5.29483E-05-2.80308E-07 0.00000E+00
 -1       581 5.31380E-05-5.55786E-08 0.00000E+00
 -1       582 5.33277E-05 2.89758E-07 0.00000E+00
 -1       583 5.35172E-05 7.81109E-07 0.00000E+00
 -1       584 5.37065E-05 1.44365E-06 0.00000E+00
 -1       585 5.38951E-05 2.30242E-06 0.00000E+00
 -1       586 5.00668E-05-1.41028E-06 0.00000E+00
 -1       587 4.89228E-05-1.33492E-06 0.00000E+00
 -1       588 4.76945E-05-1.25971E-06 0.00000E+00
 -1       589 4.64464E-05-1.18524E-06 1.03398E-25
 -1       590 4.52430E-05-1.11240E-06 0.00000E+00
 -1       591 5.07744E-05-9.98654E-07 0.00000E+00
 -1       592 5.05084E-05-5.95874E-07-3.30872E-24
 -1       593 5.02664E-05-2.60998E-07 0.00000E+00
 -1       594 5.00436E-05 2.04704E-08 1.65436E-24
 -1       595 4.98350E-05 2.63021E-07 3.30872E-24
 -1       596 4.96356E-05 4.81052E-07 0.00000E+00
 -1       597 4.94399E-05 6.88942E-07 0.00000E+00
 -1       598 4.92426E-05 9.01062E-07-1.65436E-24
 -1       599 4.90383E-05 1.13178E-06 0.00000E+00
 -1       600 4.88216E-05 1.39547E-06 1.65436E-24
 -1       601 4.85873E-05 1.70648E-06 0.00000E+00
 -1       602 4.83299E-05 2.07920E-06 8.27181E-25
 -1       603 4.80442E-05 2.52800E-06-1.65436E-24
 -1       604 4.77255E-05 3.06734E-06 6.20385E-25
 -1       605 4.73690E-05 3.71168E-06 0.00000E+00
 -1       606 5.41421E-05 4.79436E-06 6.61744E-24
 -1       607 5.41973E-05 6.33036E-06 0.00000E+00
 -1       608 5.42511E-05 7.98144E-06 0.00000E+00
 -1       609 5.43041E-05 9.73944E-06 0.00000E+00
 -1       610 5.43568E-05 1.15962E-05 0.00000E+00
 -1       611 5.44092E-05 1.35432E-05 0.00000E+00
 -1       612 5.44614E-05 1.55722E-05 0.00000E+00
 -1       613 5.45134E-05 1.76748E-05 0.00000E+00
 -1       614 5.45653E-05 1.98426E-05 0.00000E+00
 -1       615 5.46171E-05 2.20672E-05 0.00000E+00
 -1       616 5.46688E-05 2.43402E-05 0.00000E+00
 -1       617 5.47204E-05 2.66533E-05 0.00000E+00
 -1       618 5.47718E-05 2.89980E-05 0.00000E+00
 -1       619 5.48232E-05 3.13660E-05 8.27181E-25
 -1       620 5.48744E-05 3.37489E-05 1.65436E-24
 -1       621 5.27477E-05 3.56366E-06 0.00000E+00
 -1       622 5.14560E-05 3.74781E-06-1.65436E-24
 -1       623 5.02201E-05 3.93208E-06 0.00000E+00
 -1       624 4.90529E-05 4.11595E-06 1.65436E-24
 -1       625 4.79674E-05 4.29881E-06 3.30872E-24
 -1       626 5.36523E-05 4.85728E-06 0.00000E+00
 -1       627 5.31718E-05 6.46180E-06 0.00000E+00
 -1       628 5.26468E-05 8.18232E-06 0.00000E+00
 -1       629 5.20830E-05 1.00053E-05 0.00000E+00
 -1       630 5.14855E-05 1.19172E-05 0.00000E+00
 -1       631 5.08597E-05 1.39042E-05 0.00000E+00
 -1       632 5.02107E-05 1.59524E-05 0.00000E+00
 -1       633 4.95439E-05 1.80482E-05 0.00000E+00
 -1       634 4.88643E-05 2.01776E-05 0.00000E+00
 -1       635 4.81772E-05 2.23269E-05-1.65436E-24
 -1       636 4.74877E-05 2.44823E-05 3.30872E-24
 -1       637 4.68012E-05 2.66299E-05-8.27181E-25
 -1       638 4.61226E-05 2.87559E-05-1.65436E-24
 -1       639 4.54568E-05 3.08464E-05 4.13590E-25
 -1       640 4.48085E-05 3.28877E-05 8.27181E-25
 -1       641 5.49263E-05 3.86224E-05-8.27181E-25
 -1       642 5.49250E-05 4.13684E-05 0.00000E+00
 -1       643 5.49232E-05 4.43386E-05 0.00000E+00
 -1       644 5.49206E-05 4.74953E-05-5.16988E-26
 -1       645 5.49175E-05 5.08010E-05-1.03398E-25
 -1       646 5.49140E-05 5.42184E-05 5.16988E-26
 -1       647 5.49102E-05 5.77101E-05 0.00000E+00
 -1       648 5.49062E-05 6.12387E-05 0.00000E+00
 -1       649 5.49023E-05 6.47671E-05-2.58494E-26
 -1       650 5.48984E-05 6.82579E-05-6.46235E-27
 -1       651 5.48947E-05 7.16738E-05 1.03398E-25
 -1       652 5.48911E-05 7.49774E-05-1.03398E-25
 -1       653 5.48880E-05 7.81314E-05 4.13590E-25
 -1       654 5.48841E-05 8.10983E-05 0.00000E+00
 -1       655 5.48813E-05 8.38404E-05 0.00000E+00
 -1       656 5.27624E-05 3.59327E-05 3.30872E-24
 -1       657 5.08782E-05 3.57170E-05 1.65436E-24
 -1       658 4.91754E-05 3.55020E-05 0.00000E+00
 -1       659 4.75565E-05 3.52870E-05 0.00000E+00
 -1       660 4.59238E-05 3.50716E-05 0.00000E+00
 -1       661 5.42282E-05 3.86940E-05-3.30872E-24
 -1       662 5.34617E-05 4.14589E-05 0.00000E+00
 -1       663 5.26287E-05 4.43991E-05 0.00000E+00
 -1       664 5.17420E-05 4.74851E-05-3.30872E-24
 -1       665 5.08117E-05 5.06866E-05 6.61744E-24
 -1       666 4.98492E-05 5.39739E-05 0.00000E+00
 -1       667 4.88653E-05 5.73178E-05 0.00000E+00
 -1       668 4.78711E-05 6.06891E-05 3.30872E-24
 -1       669 4.68775E-05 6.40587E-05 0.00000E+00
 -1       670 4.58956E-05 6.73974E-05-3.30872E-24
 -1       671 4.49363E-05 7.06760E-05 0.00000E+00
 -1       672 4.40105E-05 7.38652E-05-3.30872E-24
 -1       673 4.31295E-05 7.69354E-05 6.61744E-24
 -1       674 4.23028E-05 7.98560E-05 3.30872E-24
 -1       675 4.15442E-05 8.25977E-05 0.00000E+00
 -1       676 5.25268E-05 8.61205E-05 0.00000E+00
 -1       677 5.01838E-05 8.59198E-05-3.30872E-24
 -1       678 4.78441E-05 8.57192E-05 6.61744E-24
 -1       679 4.55084E-05 8.55193E-05-3.30872E-24
 -1       680 4.31774E-05 8.53192E-05-3.30872E-24
 -1       681 1.27283E-05 8.11323E-08-6.61744E-24
 -1       682 1.30243E-05 2.28706E-06 3.30872E-24
 -1       683 1.33184E-05 5.07741E-06 6.61744E-24
 -1       684 1.36132E-05 8.23322E-06 0.00000E+00
 -1       685 1.39073E-05 1.15956E-05 6.61744E-24
 -1       686 1.42017E-05 1.50083E-05-3.30872E-24
 -1       687 1.44963E-05 1.83234E-05 6.61744E-24
 -1       688 1.47918E-05 2.13915E-05-3.30872E-24
 -1       689 1.50885E-05 2.40227E-05 0.00000E+00
 -1       690 1.53865E-05 2.60218E-05 3.30872E-24
 -1       691 1.56857E-05 2.70893E-05 6.61744E-24
 -1       692 1.59851E-05 2.69142E-05 3.30872E-24
 -1       693 1.62823E-05 2.49810E-05 0.00000E+00
 -1       694 1.65706E-05 2.07523E-05-3.30872E-24
 -1       695 1.68410E-05 1.33138E-05-3.30872E-24
 -1       696 1.10858E-05-1.09976E-06-3.30872E-24
 -1       697 9.01042E-06-8.80610E-07 0.00000E+00
 -1       698 6.54223E-06-6.62636E-07 0.00000E+00
 -1       699 4.00613E-06-4.43281E-07-3.30872E-24
 -1       700 1.71903E-06-2.23464E-07-6.61744E-24
 -1       701 1.19595E-05-9.32777E-07 3.30872E-24
 -1       702 1.18246E-05-1.52085E-06-3.30872E-24
 -1       703 1.19906E-05-2.91013E-06 0.00000E+00
 -1       704 1.23884E-05-4.92946E-06 0.00000E+00
 -1       705 1.29147E-05-7.29347E-06 0.00000E+00
 -1       706 1.34613E-05-9.71356E-06-3.30872E-24
 -1       707 1.39173E-05-1.18907E-05 0.00000E+00
 -1       708 1.41722E-05-1.35292E-05 6.61744E-24
 -1       709 1.41513E-05-1.44295E-05 1.32349E-23
 -1       710 1.37826E-05-1.44015E-05 3.30872E-24
 -1       711 1.30559E-05-1.34204E-05 0.00000E+00
 -1       712 1.19660E-05-1.14736E-05 0.00000E+00
 -1       713 1.05714E-05-8.72018E-06-6.61744E-24
 -1       714 8.93825E-06-5.32852E-06 0.00000E+00
 -1       715 7.16965E-06-1.58241E-06 0.00000E+00
 -1       716 1.72383E-05-1.02184E-05-3.30872E-24
 -1       717 1.74606E-05-1.86146E-05 0.00000E+00
 -1       718 1.77014E-05-2.42317E-05 0.00000E+00
 -1       719 1.79532E-05-2.77945E-05 3.30872E-24
 -1       720 1.82095E-05-2.97390E-05 6.61744E-24
 -1       721 1.84677E-05-3.04839E-05 0.00000E+00
 -1       722 1.87262E-05-3.02790E-05 0.00000E+00
 -1       723 1.89844E-05-2.93638E-05-3.30872E-24
 -1       724 1.92419E-05-2.78776E-05-6.61744E-24
 -1       725 1.94984E-05-2.59537E-05-3.30872E-24
 -1       726 1.97539E-05-2.36637E-05 0.00000E+00
 -1       727 2.00074E-05-2.10752E-05 0.00000E+00
 -1       728 2.02599E-05-1.82138E-05 0.00000E+00
 -1       729 2.05046E-05-1.51021E-05-4.13590E-25
 -1       730 2.07508E-05-1.17277E-05 0.00000E+00
 -1       731 2.66504E-05 1.76792E-06 1.65436E-24
 -1       732 2.81928E-05 1.87224E-06 4.96308E-24
 -1       733 2.43076E-05 1.97288E-06-3.30872E-24
 -1       734 1.75897E-05 2.05927E-06 1.65436E-24
 -1       735 1.04731E-05 2.14351E-06 1.65436E-24
 -1       736 2.37172E-05-1.77439E-05 6.61744E-24
 -1       737 3.41507E-05-4.80967E-05-3.30872E-24
 -1       738 4.68983E-05-8.52580E-05 0.00000E+00
 -1       739 6.05061E-05-1.25007E-04 6.61744E-24
 -1       740 7.33713E-05-1.62536E-04 1.32349E-23
 -1       741 8.38726E-05-1.93083E-04-6.61744E-24
 -1       742 9.08336E-05-2.13467E-04 0.00000E+00
 -1       743 9.30585E-05-2.20699E-04 6.61744E-24
 -1       744 9.03299E-05-2.14705E-04 0.00000E+00
 -1       745 8.25127E-05-1.95631E-04 0.00000E+00
 -1       746 7.06485E-05-1.66470E-04 1.32349E-23
 -1       747 5.59227E-05-1.30357E-04 6.61744E-24
 -1       748 4.02365E-05-9.19341E-05 0.00000E+00
 -1       749 2.55368E-05-5.58719E-05 6.61744E-24
 -1       750 1.35151E-05-2.63302E-05 0.00000E+00
 -1       751 2.23178E-05-5.03962E-06 0.00000E+00
 -1       752 2.37664E-05-3.42914E-06 0.00000E+00
 -1       753 2.52108E-05-2.68478E-06 0.00000E+00
 -1       754 2.66716E-05-2.30149E-06-2.64698E-23
 -1       755 2.81330E-05-2.13752E-06 5.29396E-23
 -1       756 2.95977E-05-2.06451E-06 2.64698E-23
 -1       757 3.10628E-05-2.04626E-06 0.00000E+00
 -1       758 3.25284E-05-2.04990E-06 0.00000E+00
 -1       759 3.39941E-05-2.06479E-06-5.29396E-23
 -1       760 3.54595E-05-2.08094E-06-2.64698E-23
 -1       761 3.69246E-05-2.08970E-06 0.00000E+00
 -1       762 3.83874E-05-2.08192E-06-2.64698E-23
 -1       763 3.98498E-05-2.03174E-06 0.00000E+00
 -1       764 4.13005E-05-1.91067E-06 0.00000E+00
 -1       765 4.27551E-05-1.61877E-06-2.64698E-23
 -1       766 1.87137E-05-7.97744E-06 0.00000E+00
 -1       767 1.93575E-05-7.84494E-06 8.27181E-25
 -1       768 2.06592E-05-7.71496E-06 2.06795E-25
 -1       769 2.03929E-05-7.58001E-06 0.00000E+00
 -1       770 1.62165E-05-7.45421E-06-4.13590E-25
 -1       771 1.87186E-05-5.05867E-06 2.64698E-23
 -1       772 1.66725E-05-2.59588E-06 0.00000E+00
 -1       773 1.48154E-05-6.41502E-07-5.29396E-23
 -1       774 1.31311E-05 8.50773E-07 2.64698E-23
 -1       775 1.16030E-05 1.92753E-06 0.00000E+00
 -1       776 1.02133E-05 2.63590E-06-2.64698E-23
 -1       777 8.94422E-06 3.02325E-06 2.64698E-23
 -1       778 7.77788E-06 3.13729E-06 1.32349E-23
 -1       779 6.69620E-06 3.02591E-06 2.64698E-23
 -1       780 5.68111E-06 2.73728E-06 0.00000E+00
 -1       781 4.71451E-06 2.31968E-06 0.00000E+00
 -1       782 3.77842E-06 1.82156E-06 1.32349E-23
 -1       783 2.85485E-06 1.29145E-06 0.00000E+00
 -1       784 1.92674E-06 7.78159E-07 0.00000E+00
 -1       785 9.77178E-07 3.30498E-07-2.64698E-23
 -1       786 4.43138E-05-4.04529E-07-1.65436E-24
 -1       787 4.44901E-05 9.54941E-08 1.65436E-24
 -1       788 4.46662E-05 4.76629E-07 3.30872E-24
 -1       789 4.48440E-05 7.60806E-07 0.00000E+00
 -1       790 4.50220E-05 9.69785E-07 0.00000E+00
 -1       791 4.52002E-05 1.12521E-06 0.00000E+00
 -1       792 4.53786E-05 1.24862E-06 0.00000E+00
 -1       793 4.55570E-05 1.36153E-06-3.30872E-24
 -1       794 4.57354E-05 1.48540E-06 0.00000E+00
 -1       795 4.59139E-05 1.64174E-06 0.00000E+00
 -1       796 4.60922E-05 1.85209E-06 6.61744E-24
 -1       797 4.62704E-05 2.13811E-06-3.30872E-24
 -1       798 4.64485E-05 2.52154E-06 0.00000E+00
 -1       799 4.66259E-05 3.02433E-06-1.65436E-24
 -1       800 4.68032E-05 3.66861E-06 0.00000E+00
 -1       801 4.01934E-05-8.52341E-07 0.00000E+00
 -1       802 3.19910E-05-6.70351E-07 0.00000E+00
 -1       803 2.17056E-05-5.05533E-07 3.30872E-24
 -1       804 1.15020E-05-3.43849E-07 0.00000E+00
 -1       805 3.54478E-06-1.64245E-07 0.00000E+00
 -1       806 4.36969E-05-4.74768E-07-6.61744E-24
 -1       807 4.32602E-05 3.76333E-08 0.00000E+00
 -1       808 4.28391E-05 5.03650E-07-6.61744E-24
 -1       809 4.24304E-05 9.34180E-07-3.30872E-24
 -1       810 4.20306E-05 1.34005E-06-6.61744E-24
 -1       811 4.16360E-05 1.73200E-06 0.00000E+00
 -1       812 4.12424E-05 2.12075E-06 0.00000E+00
 -1       813 4.08461E-05 2.51699E-06 3.30872E-24
 -1       814 4.04429E-05 2.93144E-06 0.00000E+00
 -1       815 4.00289E-05 3.37478E-06 0.00000E+00
 -1       816 3.96000E-05 3.85771E-06-3.30872E-24
 -1       817 3.91524E-05 4.39094E-06-1.65436E-24
 -1       818 3.86821E-05 4.98517E-06 6.61744E-24
 -1       819 3.81856E-05 5.65111E-06-1.65436E-24
 -1       820 3.76598E-05 6.39957E-06 6.61744E-24
 -1       821 4.68125E-05 5.50323E-06 1.65436E-24
 -1       822 4.66389E-05 6.75777E-06 1.65436E-24
 -1       823 4.64651E-05 8.21726E-06 0.00000E+00
 -1       824 4.62895E-05 9.85816E-06 0.00000E+00
 -1       825 4.61134E-05 1.16567E-05 6.61744E-24
 -1       826 4.59368E-05 1.35889E-05 0.00000E+00
 -1       827 4.57600E-05 1.56304E-05 0.00000E+00
 -1       828 4.55829E-05 1.77569E-05 3.30872E-24
 -1       829 4.54056E-05 1.99437E-05 6.61744E-24
 -1       830 4.52284E-05 2.21661E-05 0.00000E+00
 -1       831 4.50511E-05 2.43995E-05 0.00000E+00
 -1       832 4.48742E-05 2.66190E-05 0.00000E+00
 -1       833 4.46974E-05 2.87999E-05 0.00000E+00
 -1       834 4.45221E-05 3.09177E-05 0.00000E+00
 -1       835 4.43467E-05 3.29476E-05 0.00000E+00
 -1       836 4.57372E-05 4.92915E-06 0.00000E+00
 -1       837 4.40476E-05 5.39731E-06 6.61744E-24
 -1       838 4.21236E-05 5.86422E-06 0.00000E+00
 -1       839 4.01812E-05 6.33009E-06 0.00000E+00
 -1       840 3.84362E-05 6.79712E-06 6.61744E-24
 -1       841 4.65658E-05 5.48967E-06 0.00000E+00
 -1       842 4.60609E-05 6.74293E-06-1.03398E-25
 -1       843 4.54737E-05 8.21542E-06-8.27181E-25
 -1       844 4.48119E-05 9.88391E-06-4.13590E-25
 -1       845 4.40861E-05 1.17223E-05 0.00000E+00
 -1       846 4.33061E-05 1.37038E-05 0.00000E+00
 -1       847 4.24831E-05 1.57992E-05-8.27181E-25
 -1       848 4.16281E-05 1.79793E-05 4.13590E-25
 -1       849 4.07529E-05 2.02131E-05 0.00000E+00
 -1       850 3.98691E-05 2.24695E-05-4.13590E-25
 -1       851 3.89885E-05 2.47173E-05 0.00000E+00
 -1       852 3.81230E-05 2.69249E-05-4.13590E-25
 -1       853 3.72842E-05 2.90618E-05 8.27181E-25
 -1       854 3.64832E-05 3.10973E-05 0.00000E+00
 -1       855 3.57313E-05 3.30028E-05 1.65436E-24
 -1       856 4.39840E-05 3.69239E-05 0.00000E+00
 -1       857 4.37782E-05 3.93534E-05 0.00000E+00
 -1       858 4.35718E-05 4.21069E-05 6.61744E-24
 -1       859 4.33632E-05 4.51363E-05-3.30872E-24
 -1       860 4.31537E-05 4.83933E-05-6.61744E-24
 -1       861 4.29434E-05 5.18288E-05 3.30872E-24
 -1       862 4.27326E-05 5.53937E-05 0.00000E+00
 -1       863 4.25214E-05 5.90385E-05-3.30872E-24
 -1       864 4.23102E-05 6.27134E-05-6.61744E-24
 -1       865 4.20990E-05 6.63688E-05 0.00000E+00
 -1       866 4.18881E-05 6.99551E-05 6.61744E-24
 -1       867 4.16778E-05 7.34225E-05 0.00000E+00
 -1       868 4.14681E-05 7.67220E-05 0.00000E+00
 -1       869 4.12600E-05 7.98045E-05 3.30872E-24
 -1       870 4.10526E-05 8.26213E-05 3.30872E-24
 -1       871 4.25184E-05 3.48484E-05 0.00000E+00
 -1       872 4.09647E-05 3.48301E-05 0.00000E+00
 -1       873 3.94795E-05 3.48114E-05 1.65436E-24
 -1       874 3.80230E-05 3.47922E-05 0.00000E+00
 -1       875 3.65553E-05 3.47722E-05-1.65436E-24
 -1       876 4.36808E-05 3.69954E-05 0.00000E+00
 -1       877 4.30718E-05 3.94506E-05 0.00000E+00
 -1       878 4.23573E-05 4.21840E-05-6.61744E-24
 -1       879 4.15552E-05 4.51542E-05 3.30872E-24
 -1       880 4.06796E-05 4.83192E-05 0.00000E+00
 -1       881 3.97461E-05 5.16384E-05 0.00000E+00
 -1       882 3.87695E-05 5.50712E-05 0.00000E+00
 -1       883 3.77652E-05 5.85776E-05 3.30872E-24
 -1       884 3.67480E-05 6.21178E-05 0.00000E+00
 -1       885 3.57330E-05 6.56522E-05 0.00000E+00
 -1       886 3.47352E-05 6.91410E-05-6.61744E-24
 -1       887 3.37694E-05 7.25442E-05 3.30872E-24
 -1       888 3.28508E-05 7.58219E-05 0.00000E+00
 -1       889 3.19931E-05 7.89328E-05 0.00000E+00
 -1       890 3.12141E-05 8.18369E-05 3.30872E-24
 -1       891 3.88272E-05 8.50187E-05-3.30872E-24
 -1       892 3.71934E-05 8.49118E-05 0.00000E+00
 -1       893 3.57481E-05 8.48053E-05 3.30872E-24
 -1       894 3.42885E-05 8.46990E-05 0.00000E+00
 -1       895 3.26118E-05 8.45922E-05-1.65436E-24
 -1       896 3.35689E-07 1.07102E-06 0.00000E+00
 -1       897 6.74289E-07 1.46569E-06 0.00000E+00
 -1       898 1.01282E-06 1.35568E-06 0.00000E+00
 -1       899 1.35173E-06 9.05595E-07 0.00000E+00
 -1       900 1.69051E-06 2.16322E-07-1.32349E-23
 -1       901 2.02929E-06-6.14620E-07 0.00000E+00
 -1       902 2.36801E-06-1.51625E-06 0.00000E+00
 -1       903 2.70673E-06-2.41858E-06 0.00000E+00
 -1       904 3.04549E-06-3.25178E-06-1.32349E-23
 -1       905 3.38426E-06-3.94503E-06-6.61744E-24
 -1       906 3.72309E-06-4.40125E-06 0.00000E+00
 -1       907 4.06157E-06-4.52008E-06 0.00000E+00
 -1       908 4.39989E-06-4.13793E-06 0.00000E+00
 -1       909 4.73547E-06-3.08416E-06 3.30872E-24
 -1       910 5.07033E-06-1.06249E-06 6.61744E-24
 -1       911 5.42275E-06 4.91765E-06 0.00000E+00
 -1       912 5.45893E-06 5.09090E-06-4.13590E-25
 -1       913 5.49363E-06 3.22422E-06-8.27181E-25
 -1       914 5.52427E-06-2.17907E-07 4.13590E-25
 -1       915 5.55062E-06-4.80114E-06 0.00000E+00
 -1       916 5.57359E-06-1.00928E-05 0.00000E+00
 -1       917 5.59507E-06-1.56735E-05 8.27181E-25
 -1       918 5.61723E-06-2.11248E-05 0.00000E+00
 -1       919 5.64206E-06-2.60253E-05 8.27181E-25
 -1       920 5.67097E-06-2.99530E-05 0.00000E+00
 -1       921 5.70408E-06-3.24673E-05 0.00000E+00
 -1       922 5.73977E-06-3.31254E-05-4.13590E-25
 -1       923 5.77405E-06-3.14493E-05-4.13590E-25
 -1       924 5.79866E-06-2.69575E-05 1.03398E-25
 -1       925 5.80355E-06-1.91151E-05-1.65436E-24
 -1       926 5.35755E-06 6.27039E-06 0.00000E+00
 -1       927 4.94537E-06 1.97369E-05 3.30872E-24
 -1       928 4.54774E-06 3.20458E-05-6.61744E-24
 -1       929 4.17156E-06 4.22416E-05-6.61744E-24
 -1       930 3.81813E-06 4.97097E-05 0.00000E+00
 -1       931 3.48290E-06 5.38721E-05 0.00000E+00
 -1       932 3.15560E-06 5.46845E-05 0.00000E+00
 -1       933 2.82543E-06 5.21472E-05-6.61744E-24
 -1       934 2.48492E-06 4.68016E-05 0.00000E+00
 -1       935 2.13042E-06 3.92261E-05 0.00000E+00
 -1       936 1.76591E-06 3.03598E-05-1.32349E-23
 -1       937 1.39797E-06 2.11588E-05 6.61744E-24
 -1       938 1.03556E-06 1.26329E-05 0.00000E+00
 -1       939 6.82981E-07 5.78336E-06-6.61744E-24
 -1       940 3.43977E-07 1.33979E-06 1.32349E-23
 -1       941 2.19960E-06 2.74127E-07 0.00000E+00
 -1       942 4.52027E-06 6.26236E-07 0.00000E+00
 -1       943 6.83340E-06 1.02140E-06 5.29396E-23
 -1       944 9.16947E-06 1.42909E-06-2.64698E-23
 -1       945 1.15063E-05 1.84370E-06 0.00000E+00
 -1       946 1.38476E-05 2.26034E-06 2.64698E-23
 -1       947 1.61896E-05 2.67817E-06-5.29396E-23
 -1       948 1.85323E-05 3.09647E-06 0.00000E+00
 -1       949 2.08750E-05 3.51552E-06 5.29396E-23
 -1       950 2.32172E-05 3.93564E-06 0.00000E+00
 -1       951 2.55589E-05 4.35930E-06 0.00000E+00
 -1       952 2.78970E-05 4.78935E-06-2.64698E-23
 -1       953 3.02345E-05 5.24146E-06-5.29396E-23
 -1       954 3.25534E-05 5.73349E-06-2.64698E-23
 -1       955 3.48784E-05 6.36313E-06-2.64698E-23
 -1       956 3.69789E-05 8.37935E-06 4.13590E-25
 -1       957 3.68505E-05 9.66511E-06-8.27181E-25
 -1       958 3.67216E-05 1.10849E-05-2.48154E-24
 -1       959 3.65923E-05 1.26235E-05 1.24077E-24
 -1       960 3.64628E-05 1.42656E-05-3.30872E-24
 -1       961 3.63331E-05 1.59959E-05 0.00000E+00
 -1       962 3.62032E-05 1.77988E-05 0.00000E+00
 -1       963 3.60733E-05 1.96590E-05 0.00000E+00
 -1       964 3.59433E-05 2.15610E-05 0.00000E+00
 -1       965 3.58132E-05 2.34893E-05-1.65436E-24
 -1       966 3.56831E-05 2.54286E-05 0.00000E+00
 -1       967 3.55531E-05 2.73633E-05 0.00000E+00
 -1       968 3.54232E-05 2.92779E-05 0.00000E+00
 -1       969 3.52935E-05 3.11573E-05 3.30872E-24
 -1       970 3.51643E-05 3.29858E-05 0.00000E+00
 -1       971 3.47646E-05 3.66449E-05 6.61744E-24
 -1       972 3.44839E-05 3.89301E-05 3.30872E-24
 -1       973 3.42025E-05 4.15577E-05-6.61744E-24
 -1       974 3.39191E-05 4.44801E-05 0.00000E+00
 -1       975 3.36348E-05 4.76487E-05 0.00000E+00
 -1       976 3.33497E-05 5.10142E-05-3.30872E-24
 -1       977 3.30641E-05 5.45270E-05 6.61744E-24
 -1       978 3.27781E-05 5.81372E-05 0.00000E+00
 -1       979 3.24919E-05 6.17942E-05-6.61744E-24
 -1       980 3.22058E-05 6.54477E-05 0.00000E+00
 -1       981 3.19200E-05 6.90473E-05 0.00000E+00
 -1       982 3.16348E-05 7.25425E-05 0.00000E+00
 -1       983 3.13503E-05 7.58835E-05-6.61744E-24
 -1       984 3.10681E-05 7.90207E-05 0.00000E+00
 -1       985 3.07863E-05 8.19047E-05-6.61744E-24
 -3
    1PSTEP                        38          19           1          
  100CL  119 1.000000000         841                     0   19           1
 -4  STRESS      6    1
 -5  SXX         1    4    1    1
 -5  SYY         1    4    2    2
 -5  SZZ         1    4    3    3
 -5  SXY         1    4    1    2
 -5  SYZ         1    4    2    3
 -5  SZX         1    4    3    1
 -1         1-3.84753E+06-1.26147E+06-7.81733E+05-1.20036E+06 5.82077E-11 1.94026E-09
 -1         2-1.92833E+06-3.97435E+03 3.22010E+04-1.37275E+05-2.95586E-10-5.30235E-10
 -1         3-1.52743E+06-5.18280E+05-4.66675E+04-1.18622E+05-4.07408E-09-3.98995E-09
 -1         4-9.58447E+05-1.52322E+05 1.20516E+03-6.03028E+04-3.24746E-10-7.19194E-09
 -1         5-4.92542E+05 1.90009E+05-2.14572E+05-2.04864E+04 9.01491E-09 1.00647E-09
 -1         8-1.64306E+06-6.41568E+05-1.85548E+05-7.63137E+05 5.60249E-10 1.81899E-09
 -1         9-2.02662E+06-4.30336E+05-2.15339E+05-5.91045E+05-8.34310E-10-1.65892E-09
 -1        10-5.72703E+05-4.55901E+05 8.99818E+04-8.99963E+04-3.17774E-09 3.43637E-10
 -1        11-5.87664E+05-1.22443E+05 9.44940E+03-3.34985E+04-1.20569E-08-2.10700E-09
 -1        12-4.99225E+05 1.56991E+05-2.19978E+05-1.09222E+05 9.62427E-09-3.37585E-09
 -1        15 9.63052E+04 1.13809E+05 3.15784E+04 1.05022E+04 2.13731E-10-8.17818E-09
 -1        16-1.71964E+06-3.75631E+05-6.30537E+04-6.46944E+05 1.67468E-09-4.34132E-10
 -1        17-9.19271E+05-5.85185E+05-1.15675E+05-4.33071E+05-1.65892E-09 8.48862E-10
 -1        18-1.07985E+05-1.16716E+05-7.95582E+04-1.51897E+05 4.94159E-09-1.40062E-09
 -1        19-2.43012E+03 1.34905E+05-6.43515E+04-6.64172E+04 3.63495E-10 1.58980E-09
 -1        20 1.48307E+05-1.09440E+05-1.73226E+04 7.76414E+04 1.93995E-08 3.78895E-09
 -1        21-5.48057E+02-2.23294E+05 5.02781E+04 1.29030E+03 2.40107E-08 2.89223E-10
 -1        22 3.95396E+04 1.92373E+05 1.22289E+03-3.59502E+04 2.81943E-11-1.05683E-09
 -1        23 7.69711E+04 7.87037E+04 3.14156E+04-1.68641E+05-6.09521E-09 1.02470E-09
 -1        24-2.97878E+05-2.40691E+04 3.17961E+05-5.85429E+05-7.23594E-09-1.01378E-09
 -1        25 7.11039E+05 2.80636E+05 2.32642E+05-3.81288E+05 1.69075E-09 5.27507E-10
 -1        26 6.72235E+03 2.63173E+05 1.51015E+04-4.84093E+04-9.74372E-10 2.92342E-09
 -1        27-6.07716E+04-9.45733E+04-4.06997E+04 1.03482E+05 1.21175E-08-4.34132E-10
 -1        28-1.98801E+04-1.72277E+05-1.08762E+03 8.19429E+04 1.36399E-08-6.10797E-10
 -1        29 4.67826E+05 3.37770E+05 1.49199E+03-1.52941E+04-3.44741E-10 2.08911E-09
 -1        30 7.64428E+04 5.09798E+04 1.95131E+03-9.73348E+04 3.99038E-09 5.95082E-09
 -1        31-4.05590E+05 7.08705E+04 1.27048E+04-1.21918E+04-1.32535E-08 1.68320E-08
 -1        32 1.09815E+06 6.38903E+05 7.21990E+05-5.80318E+05 8.32472E-09 5.42786E-09
 -1        33 1.62341E+06 7.44324E+05 5.21869E+05-7.44333E+04-1.58106E-08 2.51111E-09
 -1        34-2.99498E+05-4.49059E+04-1.61448E+04 5.18790E+04 7.08454E-10-3.22234E-09
 -1        35-4.70626E+04-5.65264E+04-1.10531E+03 1.21461E+05 1.32399E-08 3.10441E-09
 -1        36-4.50659E+06 1.26326E+05-2.95194E+05 4.42942E-08-8.28905E-10 7.97445E-09
 -1        37-4.63385E+06-1.46327E+05-2.08401E+05-5.39335E-08-2.03990E-09 1.50649E-08
 -1        38-4.55575E+06 1.95646E+04-7.63430E+04-5.91251E-08-2.05174E-09 5.88989E-09
 -1        39-4.57631E+06-2.26538E+04-4.78118E+04 1.78665E-07-4.27530E-09-3.65253E-09
 -1        40-4.56373E+06 3.02454E+03-1.96047E+04 1.80211E-08-5.94527E-11 2.23827E-09
 -1        41-4.56690E+06-3.54670E+03-1.16796E+04-3.39295E-07-1.81240E-10 9.91645E-09
 -1        42-4.56503E+06 5.13671E+02-5.77589E+03 5.44127E-08-1.59230E-09-3.84375E-09
 -1        43-4.56552E+06-9.26820E+02-4.65873E+03 2.15214E-07-3.66041E-09-1.82886E-08
 -1        44-4.56509E+06 4.11601E+02-4.82412E+03-1.30620E-07-2.50291E-09-7.86486E-09
 -1        45-4.56642E+06-2.65973E+03-8.93242E+03-4.25500E-07 1.03896E-09-3.68345E-10
 -1        46-4.56415E+06 2.24182E+03-1.46383E+04-1.57448E-07-1.73181E-09 6.59929E-09
 -1        47-4.57335E+06-1.67613E+04-3.54360E+04 4.00329E-07-2.41028E-09 1.74623E-10
 -1        48-4.55825E+06 1.44713E+04-5.65058E+04 6.19046E-08 6.53334E-11-4.32192E-09
 -1        49-4.61591E+06-1.08233E+05-1.54165E+05 2.68296E-08-6.63500E-10-3.42880E-09
 -1        50-4.52191E+06 9.34302E+04-2.18422E+05 1.33963E-07-3.35625E-09 7.58155E-09
 -1        51 4.56864E+04-5.11901E+05 7.51325E+04-1.40290E+06-1.74623E-10-6.05360E-09
 -1        52 2.29681E+04-5.09015E+05 4.54158E+04-1.55024E+06-2.91038E-10-1.86919E-08
 -1        53 1.62683E+04-5.28011E+05 3.51997E+04-1.39896E+06-3.05590E-10-6.31553E-09
 -1        54 3.54285E+04-5.26077E+05 5.22268E+04-1.55424E+06 0.00000E+00 1.20417E-08
 -1        55 7.30543E+04-5.44001E+05 9.31120E+04-1.39808E+06 3.05590E-10 4.80213E-09
 -1        56-6.53754E+06-7.34109E+05-5.39723E+05-2.52581E+06 2.69210E-10 1.30967E-09
 -1        57-6.77025E+06-1.19655E+06-3.62438E+05-2.48666E+06 7.80346E-10 1.62181E-08
 -1        58-6.64435E+06-9.03053E+05-1.26889E+05-2.49378E+06 2.96495E-10 1.92813E-09
 -1        59-6.64788E+06-9.96040E+05-7.52395E+04-2.52311E+06-1.37697E-09-4.47471E-10
 -1        60-6.65797E+06-9.27844E+05-2.96019E+04-2.49147E+06 3.19960E-09-4.33829E-10
 -1        61-6.63611E+06-9.62704E+05-1.67293E+04-2.52079E+06 6.18456E-11 1.56405E-08
 -1        62-6.65560E+06-9.35582E+05-8.20140E+03-2.49622E+06-3.32420E-10 2.62867E-09
 -1        63-6.64466E+06-9.48528E+05-6.83061E+03-2.50868E+06-3.43607E-09-2.18267E-09
 -1        64-6.64925E+06-9.41997E+05-8.08952E+03-2.50352E+06 1.08321E-09 3.84489E-09
 -1        65-6.65946E+06-9.39034E+05-1.63403E+04-2.49380E+06-2.63378E-09-1.72554E-09
 -1        66-6.64087E+06-9.45161E+05-2.89208E+04-2.51110E+06-2.09184E-10 7.94898E-10
 -1        67-6.68709E+06-9.55431E+05-7.33961E+04-2.47770E+06-1.93631E-09-9.56970E-09
 -1        68-6.62214E+06-9.26375E+05-1.23804E+05-2.51950E+06 4.60204E-10-7.83621E-09
 -1        69-6.81060E+06-1.14708E+06-3.53595E+05-2.43777E+06 2.41744E-09 1.48430E-09
 -1        70-6.51938E+06-7.60045E+05-5.26556E+05-2.54904E+06-2.27010E-09-9.02219E-10
 -1        71-3.19903E+06 4.22935E+04-9.89823E+04-1.05445E-08-6.71088E-10-2.36469E-09
 -1        72-3.24149E+06-4.89999E+04-6.98384E+04 1.25147E-07-2.13279E-09-1.70985E-10
 -1        73-3.21549E+06 6.55153E+03-2.56140E+04 2.18175E-07-1.43775E-09 5.10045E-09
 -1        74-3.22223E+06-7.58825E+03-1.60590E+04-4.39454E-09 4.68405E-11 3.16777E-09
 -1        75-3.21817E+06 1.01465E+03-6.63105E+03 1.74937E-07 1.20441E-09 3.36217E-09
 -1        76-3.21910E+06-1.20167E+03-4.03197E+03 8.59636E-09 7.84866E-10 2.23467E-08
 -1        77-3.21860E+06 1.84134E+02-2.15141E+03 1.43760E-07-6.40375E-10 5.59567E-09
 -1        78-3.21868E+06-4.02673E+02-2.02958E+03-1.78914E-07-3.17700E-09 4.88057E-09
 -1        79-3.21858E+06 2.17865E+02-2.46671E+03-1.57750E-07-9.72398E-10-5.16593E-10
 -1        80-3.21926E+06-1.49480E+03-4.94156E+03-2.20012E-07-1.95278E-09 6.02319E-09
 -1        81-3.21803E+06 1.27332E+03-8.27550E+03 9.88055E-08-1.62673E-09 4.37876E-09
 -1        82-3.22321E+06-9.53550E+03-2.01541E+04-1.39618E-08 1.80099E-09 5.40786E-09
 -1        83-3.21467E+06 8.23451E+03-3.21793E+04-1.69124E-07-5.63547E-10 3.74348E-09
 -1        84-3.24741E+06-6.15885E+04-8.77732E+04 8.69090E-08-2.93887E-09 1.03246E-08
 -1        85-3.19396E+06 5.31607E+04-1.24396E+05 8.48875E-08-1.69622E-09 3.92174E-09
 -1        86-1.09128E+05 6.81658E+05 2.60014E+05 1.06279E+04 3.82715E-09-5.37193E-09
 -1        87 1.38652E+05 8.02462E+05 2.05986E+05-5.12321E+04 6.53927E-09-2.97234E-10
 -1        88-2.89074E+04 7.20647E+05 1.11981E+05 6.12296E+03 6.21731E-09-9.80569E-09
 -1        89 1.12062E+05 7.88162E+05 1.70809E+05-4.77689E+04 9.08767E-09-1.18507E-08
 -1        90-8.25148E+04 6.95756E+05 2.00324E+05 7.16665E+03 4.83124E-09 7.81648E-09
 -1        91-1.57522E+06-2.16009E+05-9.13425E+03-4.81432E+05-3.84680E-08-1.30021E-08
 -1        92-7.56353E+05-2.46799E+05 1.10686E+05-5.87910E+05-3.66540E-08 2.68938E-09
 -1        93-1.40181E+06-6.78264E+04 4.87293E+03-3.31700E+05 3.37759E-08-2.15186E-09
 -1        94-9.54881E+05-3.86069E+05 2.21289E+04-7.51513E+05-1.29351E-08-6.68115E-09
 -1        95-1.39670E+06-6.13624E+04-4.16940E+03-3.31133E+05-1.38734E-08-1.25146E-09
 -1        96-7.86426E+05-2.95411E+05 6.57027E+04-5.83098E+05 1.71754E-08 2.86818E-08
 -1        97-1.55076E+06-1.73642E+05-6.02660E+04-4.87095E+05 8.30914E-09-1.13960E-08
 -1        98-7.15204E+05-8.65258E+04 1.17541E+05-2.83828E+05-8.69477E-10-1.82649E-09
 -1        99-1.44918E+06-2.84372E+05-6.26244E+04-6.14811E+05-1.61926E-08 1.21408E-08
 -1       100-1.12922E+06 6.53848E+04 6.77565E+04-1.65570E+05-3.69932E-08 5.74346E-10
 -1       101-1.15552E+06-3.11082E+05-8.83409E+03-6.18410E+05 8.68840E-09-1.05138E-09
 -1       102-1.45531E+06 1.08394E+05 1.46665E+04-1.80558E+05 3.12691E-08 2.87084E-08
 -1       103-1.14173E+06-3.13414E+05-5.41886E+03-6.16280E+05-6.48374E-08-3.59523E-09
 -1       104-1.15520E+06 9.32395E+04 7.12770E+04-1.69180E+05-5.78402E-08 3.29242E-08
 -1       105-1.43908E+06-3.08259E+05-5.90041E+04-6.15098E+05-5.15083E-08 4.59659E-09
 -1       106-2.02991E+06 8.25921E+03-1.93477E+04-2.64286E-07 1.17523E-09-4.10637E-09
 -1       107-2.03808E+06-9.56995E+03-1.36536E+04 5.17909E-08 6.41599E-10 5.23437E-09
 -1       108-2.03313E+06 1.27976E+03-5.02251E+03-1.19089E-07 1.13854E-10 5.25756E-09
 -1       109-2.03432E+06-1.48428E+03-3.17040E+03 8.94313E-08-1.45979E-09 1.59162E-09
 -1       110-2.03365E+06 2.00164E+02-1.35611E+03-7.94900E-08-1.87542E-10-5.37403E-09
 -1       111-2.03372E+06-2.50149E+02-9.14417E+02 1.08871E-07-2.59820E-11-6.36273E-09
 -1       112-2.03373E+06 4.94165E+01-6.57173E+02 1.84489E-07-4.86577E-10-2.55688E-09
 -1       113-2.03369E+06-1.81159E+02-9.15261E+02-1.34422E-08 9.57382E-10 9.78915E-09
 -1       114-2.03368E+06 1.31440E+02-1.42547E+03 1.72302E-07 2.54094E-10 5.43872E-09
 -1       115-2.03411E+06-9.62935E+02-3.12985E+03 3.06980E-07-4.79773E-10-3.63048E-09
 -1       116-2.03331E+06 8.29138E+02-5.36146E+03 2.76939E-08 1.42844E-10 3.14230E-09
 -1       117-2.03669E+06-6.21920E+03-1.31387E+04-5.34666E-09-1.25807E-09 6.60543E-09
 -1       118-2.03111E+06 5.37185E+03-2.10051E+04-1.85671E-07-8.14114E-10-2.20189E-09
 -1       119-2.05248E+06-4.01793E+04-5.72861E+04-3.03577E-07-9.02496E-10 2.14641E-09
 -1       120-2.01758E+06 3.46799E+04-8.11973E+04-1.85568E-07-6.44278E-10 3.21597E-09
 -1       121-4.01279E+03-1.64478E+06 1.50641E+04-1.00240E+03-2.26191E-09-3.76440E-09
 -1       122 4.62618E+03-1.63875E+06 8.26011E+03-7.75456E+03-1.82627E-09 3.65389E-09
 -1       123-1.71544E+02-1.64212E+06 3.26034E+02 5.06304E+01-5.52564E-09 2.96677E-09
 -1       124-4.15719E+03-1.64399E+06-7.00183E+03-9.77917E+03-4.04157E-09-2.67164E-09
 -1       125 3.35161E+03-1.63968E+06-1.35824E+04 1.01935E+03-9.06857E-09-4.71482E-09
 -1       126-1.20640E+06-1.69365E+05 2.84155E+04-4.01345E+05 2.46382E-08-7.94898E-10
 -1       127-9.03986E+05-1.93614E+05 5.45330E+04-4.86010E+05 6.48638E-08 4.40605E-09
 -1       128-1.16814E+06-1.01607E+05 7.75237E+03-3.44444E+05 2.61807E-08 9.88166E-09
 -1       129-9.56766E+05-2.66107E+05 1.05119E+04-5.54651E+05-3.46599E-08-8.36269E-09
 -1       130-1.15975E+06-9.23776E+04 1.83044E+03-3.36970E+05-2.59183E-09-1.23575E-08
 -1       131-9.30922E+05-2.39013E+05 1.59354E+04-5.06026E+05 4.56419E-08-2.58387E-09
 -1       132-1.18982E+06-1.31838E+05-1.43811E+04-3.90170E+05 3.48982E-08-1.11881E-08
 -1       133-9.20188E+05-1.51939E+05 3.32258E+04-3.84560E+05 5.34237E-09 1.51203E-10
 -1       134-1.16376E+06-1.84441E+05-2.06135E+04-4.53295E+05 3.41597E-08-4.18959E-09
 -1       135-1.04461E+06-6.66645E+04 2.47146E+04-2.94886E+05 5.40463E-08-1.51977E-08
 -1       136-1.06823E+06-2.14960E+05-9.46071E+03-4.81606E+05-7.22275E-09 4.88171E-09
 -1       137-1.19533E+06-2.60262E+04-4.54762E+01-2.68754E+05-1.83877E-07-1.00695E-08
 -1       138-1.02015E+06-2.19860E+05-8.87514E+03-4.85173E+05-2.90236E-08 6.09180E-09
 -1       139-1.18139E+06-4.31810E+04-1.79083E+04-2.68281E+05 8.36083E-08 1.73404E-08
 -1       140-1.08111E+06-1.98622E+05-5.27091E+04-4.81170E+05-2.52294E-09-1.00827E-08
 -1       141-9.40667E+05-6.79162E+03 1.59082E+04-1.24602E-07 3.90315E-10-5.95264E-09
 -1       142-9.33712E+05 7.86862E+03 1.12064E+04 5.38975E-08 4.11739E-10-3.67834E-09
 -1       143-9.38015E+05-1.05134E+03 4.07910E+03-1.01910E-07 1.11770E-10-5.64569E-10
 -1       144-9.36808E+05 1.21193E+03 2.49257E+03-1.78460E-07-6.63498E-11 4.23944E-09
 -1       145-9.37578E+05-1.56969E+02 8.91247E+02-3.28337E-08 2.56724E-10-1.85111E-09
 -1       146-9.37340E+05 1.46555E+02 2.71508E+02 9.79420E-08-1.85852E-10-6.62209E-09
 -1       147-9.37485E+05 1.08636E+01-3.64026E+02-3.43681E-08 3.54656E-10 3.93754E-09
 -1       148-9.37565E+05-2.43481E+02-1.23283E+03-1.80963E-07 1.00985E-10 9.71858E-09
 -1       149-9.37354E+05 2.32211E+02-2.44132E+03-2.19591E-08-1.59699E-10 4.67912E-09
 -1       150-9.38388E+05-1.77693E+03-5.71602E+03-9.13511E-09-6.33294E-11 6.52335E-10
 -1       151-9.36665E+05 1.54037E+03-9.93349E+03 7.39927E-08 1.19372E-10-4.75075E-09
 -1       152-9.43201E+05-1.15651E+04-2.44334E+04-2.21595E-07-5.64737E-11-1.19144E-09
 -1       153-9.32553E+05 9.99111E+03-3.90893E+04-5.63140E-08 2.35995E-09 6.67023E-09
 -1       154-9.72544E+05-7.47286E+04-1.06585E+05-1.40402E-07 9.22611E-10 1.64073E-09
 -1       155-9.07342E+05 6.45038E+04-1.51023E+05-1.75904E-07 5.40968E-09-6.91216E-10
 -1       156-3.22250E+04-3.04393E+05 7.47776E+04-3.49364E+04-1.77533E-09-3.47745E-09
 -1       157 4.00064E+04-2.60542E+05 5.94966E+04 1.50589E+05-5.90080E-09-7.54056E-10
 -1       158-7.06500E+03-2.92540E+05 2.89024E+04-3.49357E+04-4.90400E-09-6.11658E-09
 -1       159 2.80540E+04-2.34972E+05 4.83324E+04 1.43854E+05 4.93469E-09-4.11103E-09
 -1       160-2.24668E+04-3.27013E+05 3.81227E+04-2.82201E+04 4.20187E-09-3.22689E-09
 -1       161-1.05165E+06-1.43837E+05-6.98161E+03-3.93708E+05-3.05477E-10-2.22462E-09
 -1       162-1.04939E+06-1.55619E+05-4.78499E+03-3.98760E+05-2.79790E-09 1.16097E-09
 -1       163-1.05424E+06-1.44989E+05-1.65425E+03-3.91725E+05 6.98506E-10-1.61549E-09
 -1       164-1.04664E+06-1.54013E+05-1.05926E+03-4.00751E+05 3.64309E-09 6.66807E-09
 -1       165-1.05441E+06-1.45429E+05-4.87342E+02-3.91726E+05 1.61174E-09 2.81884E-09
 -1       166-1.04771E+06-1.52159E+05-4.29012E+02-3.99137E+05-6.43468E-11 5.23123E-10
 -1       167-1.05316E+06-1.46850E+05-5.84498E+02-3.93331E+05-1.64505E-10-1.74461E-09
 -1       168-1.05107E+06-1.48947E+05-1.09871E+03-3.95190E+05 1.95882E-10-4.59389E-09
 -1       169-1.05104E+06-1.48649E+05-2.10038E+03-3.95664E+05-1.87384E-09 5.02723E-10
 -1       170-1.05582E+06-1.46931E+05-5.09231E+03-3.90775E+05-1.10765E-09 5.27962E-10
 -1       171-1.04842E+06-1.48866E+05-8.91587E+03-3.97752E+05-4.46335E-10-3.28055E-09
 -1       172-1.06434E+06-1.55373E+05-2.39004E+04-3.86534E+05 2.77851E-09 4.28417E-09
 -1       173-1.04255E+06-1.40225E+05-3.84446E+04-3.99912E+05 2.40743E-09-1.96087E-09
 -1       174-1.10258E+06-2.23644E+05-1.13584E+05-3.74389E+05 9.00400E-09 1.92813E-10
 -1       175-1.01023E+06-8.07734E+04-1.64012E+05-4.09841E+05 1.97761E-08-8.26549E-09
 -1       191 3.35848E+03 8.20962E+05 5.62809E+03-3.81247E+04-2.11003E-10-7.15227E-09
 -1       192 1.16581E+03 8.21822E+05 3.33465E+03-4.13913E+04-1.54159E-09-1.93177E-08
 -1       193 4.74656E+02 8.21189E+05 2.60792E+03-3.76971E+04-6.16183E-11-1.21909E-08
 -1       194 1.49253E+03 8.21826E+05 3.86548E+03-4.21582E+04-3.19596E-09 4.13274E-09
 -1       195 4.32473E+03 8.20704E+05 6.95168E+03-3.73489E+04 1.09139E-10 4.72755E-09
 -1       251-1.83532E+06-2.27892E+04-7.27826E+04-9.51767E+04-1.20963E-09-2.95768E-09
 -1       252-1.41128E+06 2.86668E+04 3.35757E+04 2.87607E+05 2.66436E-09 1.08139E-09
 -1       253-1.63740E+06-7.32786E+03-9.65932E+03-1.92584E+05-5.45424E-09-8.17704E-09
 -1       254-1.60122E+06 2.94143E+04 7.52701E+03 3.74676E+05-4.60005E-09 1.36947E-08
 -1       255-1.66389E+06-8.48820E+03-1.05067E+04-1.83397E+05 7.65522E-09-4.22551E-09
 -1       256-1.35373E+06 2.25981E+04 5.53391E+04 2.52931E+05-3.20870E-09 1.94132E-08
 -1       257-1.86058E+06-2.02870E+04-5.20579E+04-6.94909E+04 8.73115E-10 5.70435E-09
 -1       258-1.16190E+06 1.76523E+04 9.10862E+04-2.37518E+04 5.39876E-09 9.03583E-10
 -1       259-1.83687E+06-1.88560E+04-4.68853E+04 9.22559E+04-3.11702E-08-3.85791E-09
 -1       260-1.40704E+06 2.37670E+04 4.55564E+04-2.85110E+05 2.45891E-08-9.15884E-09
 -1       261-1.63954E+06-6.81555E+03-5.04923E+03 1.91327E+05 4.33756E-08 7.63657E-09
 -1       262-1.60154E+06 2.93258E+04 7.71885E+03-3.75475E+05-2.05786E-08-1.89305E-08
 -1       263-1.66149E+06-8.85881E+03-1.43657E+04 1.83787E+05 1.66974E-08 7.50538E-09
 -1       264-1.35713E+06 2.81332E+04 4.47965E+04-2.56839E+05 8.02643E-08-2.30352E-09
 -1       265-1.86013E+06-2.49951E+04-7.61341E+04 7.13631E+04 2.58715E-08 7.33598E-09
 -1       266-4.67627E+04-1.41224E+05 1.09864E+05-1.94780E+04-1.45519E-11 5.37636E-09
 -1       267 5.24501E+04-8.96587E+04 7.61516E+04 8.80724E+04 3.63798E-12 1.06951E-10
 -1       268-5.97684E+03-1.25292E+05 2.39000E+04-1.88274E+04-1.63709E-11-8.35189E-09
 -1       269 7.93000E+02-9.63634E+04 1.07872E+04 8.49975E+04-1.81899E-12 8.97523E-09
 -1       270 3.54395E+03-1.32906E+05-1.26607E+04-1.64336E+04 3.77440E-10 9.65338E-09
 -1       271-5.55303E+06-6.96584E+05-4.40504E+05-2.15786E+06-5.09317E-10 2.91038E-10
 -1       272-5.71929E+06-9.86646E+05-2.80009E+05-2.14501E+06-1.44428E-09-5.14774E-09
 -1       273-5.63444E+06-7.97696E+05-1.03871E+05-2.14023E+06 1.04615E-09-1.20199E-08
 -1       274-5.62292E+06-8.59745E+05-5.74100E+04-2.17424E+06-1.16461E-09-6.11635E-09
 -1       275-5.64682E+06-8.05848E+05-2.41554E+04-2.13533E+06 1.83354E-09-6.89215E-09
 -1       276-5.60748E+06-8.50483E+05-1.28218E+04-2.18251E+06 2.45564E-10 2.36787E-09
 -1       277-5.65004E+06-8.04954E+05-6.55683E+03-2.13292E+06 6.43013E-10-2.02817E-10
 -1       278-5.60391E+06-8.51682E+05-5.17241E+03-2.18588E+06 8.46285E-10-4.90803E-09
 -1       279-5.65068E+06-8.04313E+05-6.19503E+03-2.13223E+06-9.10688E-10 2.81125E-09
 -1       280-5.60522E+06-8.52686E+05-1.18792E+04-2.18543E+06 2.90129E-10-1.09117E-09
 -1       281-5.64874E+06-8.04084E+05-2.21781E+04-2.13332E+06 2.29102E-09 4.72210E-09
 -1       282-5.61779E+06-8.62894E+05-5.27567E+04-2.17988E+06 3.11138E-09 5.33510E-09
 -1       283-5.63810E+06-7.95860E+05-9.53427E+04-2.13701E+06 1.17143E-09-3.87809E-09
 -1       284-5.70506E+06-9.80617E+05-2.57143E+05-2.15433E+06 1.49157E-10 7.34872E-09
 -1       285-5.56380E+06-7.02615E+05-4.04527E+05-2.15271E+06 2.20462E-09-2.76486E-09
 -1       286-8.07547E+05-2.24797E+04 5.24723E+04-2.83876E+03 1.58400E-09-2.28101E-09
 -1       287-7.83476E+05 2.60303E+04 3.72552E+04 1.78943E+02-5.02610E-10 3.48655E-09
 -1       288-7.98837E+05-3.50668E+03 1.35153E+04 3.91262E+02-5.02439E-10 3.09410E-09
 -1       289-7.93857E+05 4.04585E+03 8.67446E+03-5.97854E+03 7.08610E-10 4.08966E-09
 -1       290-7.97204E+05-5.56049E+02 3.47089E+03 3.31880E+03 1.13232E-09 1.19007E-09
 -1       291-7.96000E+05 6.67782E+02 2.18774E+03-1.06197E+04 4.20476E-09-2.88765E-09
 -1       292-7.96744E+05-1.04249E+02 1.12213E+03 5.03248E+03 1.86230E-09 2.36699E-09
 -1       293-7.96475E+05 2.44212E+02 1.04286E+03-1.23174E+04 1.02735E-09 9.80414E-09
 -1       294-7.96754E+05-1.15625E+02 1.22743E+03 5.01660E+03 1.89459E-09 2.19183E-09
 -1       295-7.95939E+05 7.65493E+02 2.49421E+03-1.05610E+04 1.51442E-09 8.23206E-10
 -1       296-7.97255E+05-6.42710E+02 4.02136E+03 3.27596E+03-1.05445E-10 1.99611E-09
 -1       297-7.93524E+05 4.69644E+03 1.00474E+04-5.87946E+03 2.30833E-09-2.19632E-09
 -1       298-7.99117E+05-4.06918E+03 1.57144E+04 3.35015E+02 7.12589E-10-6.34464E-09
 -1       299-7.81500E+05 3.02371E+04 4.32552E+04 2.80876E+02-2.31796E-09-2.05546E-10
 -1       300-8.09238E+05-2.61098E+04 6.09850E+04-2.88447E+03-1.68450E-09 1.41881E-09
 -1       301 7.35476E+04 3.47318E+04 1.57681E+05-3.83413E+04-3.63798E-09-1.03262E-09
 -1       302 2.49355E+04 6.39316E+04 9.58056E+04-4.49816E+04-3.49246E-10 3.82818E-09
 -1       303 7.34711E+03 4.50787E+04 7.59191E+04-3.85312E+04-4.21005E-09 3.96199E-09
 -1       304 3.11390E+04 6.74774E+04 1.12039E+05-4.49388E+04-4.65661E-10-3.63059E-09
 -1       305 9.37604E+04 3.12218E+04 1.97169E+05-3.83131E+04-3.89264E-09 3.19164E-09
 -1       306-3.88708E+06-4.97225E+05-2.70289E+05-1.50642E+06 3.60160E-09-1.49885E-09
 -1       307-3.96693E+06-6.96068E+05-1.71603E+05-1.52314E+06 5.31122E-09-6.33008E-10
 -1       308-3.93740E+06-5.58549E+05-6.37897E+04-1.49527E+06 3.86399E-09-3.67436E-09
 -1       309-3.90792E+06-6.18755E+05-3.52356E+04-1.54178E+06-6.58474E-10-7.37145E-09
 -1       310-3.94508E+06-5.63421E+05-1.48768E+04-1.49225E+06 2.64845E-09 2.05000E-09
 -1       311-3.89886E+06-6.12855E+05-7.95779E+03-1.54675E+06 2.29011E-09 4.21846E-09
 -1       312-3.94683E+06-5.63082E+05-4.19404E+03-1.49105E+06-5.16138E-11-3.86871E-09
 -1       313-3.89736E+06-6.12940E+05-3.55605E+03-1.54804E+06-4.19234E-10-5.38080E-09
 -1       314-3.94674E+06-5.63140E+05-4.57575E+03-1.49112E+06-9.17908E-10 3.29101E-09
 -1       315-3.89922E+06-6.12769E+05-9.01215E+03-1.54643E+06 1.40426E-09 7.13953E-09
 -1       316-3.94475E+06-5.63491E+05-1.70066E+04-1.49246E+06 2.32740E-09 3.35604E-09
 -1       317-3.90945E+06-6.19752E+05-4.03901E+04-1.54101E+06 3.67072E-09-2.75304E-09
 -1       318-3.93614E+06-5.57692E+05-7.31296E+04-1.49571E+06 3.10001E-09 6.43922E-10
 -1       319-3.97667E+06-7.08954E+05-1.96804E+05-1.52033E+06-7.34417E-10 2.34650E-09
 -1       320-3.87878E+06-4.86958E+05-3.09885E+05-1.50810E+06-9.16771E-10 2.91038E-11
 -1       321-7.67706E+05-2.84702E+04 6.40897E+04 3.77620E+03-6.20048E-10 3.12866E-10
 -1       322-7.27107E+05 3.28490E+04 4.75187E+04-2.49961E+04 2.46155E-09-1.19417E-09
 -1       323-7.54008E+05-4.52397E+03 1.63991E+04 1.23980E+04-2.43426E-09 1.88538E-09
 -1       324-7.45354E+05 5.41824E+03 1.09774E+04-3.79999E+04-1.40212E-08 1.02348E-08
 -1       325-7.50006E+05-7.39834E+02 4.30492E+03 1.67819E+04 2.48087E-09 6.74777E-09
 -1       326-7.49182E+05 1.20165E+03 2.58256E+03-4.12178E+04 2.61474E-09-1.00590E-09
 -1       327-7.50350E+05-1.96234E+02 9.59656E+02 1.56177E+04-7.00084E-09 1.07013E-09
 -1       328-7.45712E+05 4.20747E+02 1.39525E+03-3.36622E+04 4.40264E-09-2.70950E-09
 -1       329-7.53113E+05-2.35274E+02-4.44315E+02 9.22302E+03 1.90312E-10-1.28060E-09
 -1       330-7.40446E+05 2.01836E+02 1.94837E+03-1.74104E+04-3.39116E-09-4.68248E-10
 -1       331-7.55104E+05-3.63054E+02-1.04124E+03-6.32762E+02 2.46428E-09 5.96478E-10
 -1       332-7.39279E+05 3.59083E+02 2.18859E+03 2.95714E+03 1.67502E-08 1.56229E-09
 -1       333-7.54158E+05-4.84446E+02-7.34771E+02-1.11372E+04 1.25829E-08 5.28217E-11
 -1       334-7.43418E+05 1.18055E+03 1.92430E+03 2.16223E+04 1.11964E-08 5.15284E-09
 -1       335-7.51360E+05-8.85050E+02 5.09254E+02-1.92983E+04-1.72154E-08 4.55736E-09
 -1       336 3.69454E+03-1.63967E+06-1.74999E+04-3.22518E+03-1.05833E-08-2.80215E-09
 -1       337-6.55826E+03-1.64657E+06-1.81033E+04-3.23634E+04-7.22662E-09-8.78549E-09
 -1       338 2.09302E+03-1.64068E+06-2.02486E+04-3.01458E+03-1.02605E-08-9.83778E-09
 -1       339-2.13986E+04-1.65525E+06-4.37884E+04-3.25299E+04-6.56382E-09 4.65309E-09
 -1       340 1.60285E+04-1.63105E+06-6.57379E+04-3.06681E+03-1.00845E-08 7.24754E-09
 -1       341-1.33016E+06-2.57088E+05-2.75978E+04-5.55704E+05-5.65433E-09 6.71207E-10
 -1       342-1.23139E+06 3.23739E+03 3.88559E+04-2.69451E+05-1.03591E-09-9.55652E-10
 -1       343-1.16005E+06-2.72013E+05-1.80423E+03-5.71780E+05-6.89715E-09-4.84047E-08
 -1       344-1.39891E+06 2.23721E+04 8.03657E+03-2.60174E+05 2.95001E-08-8.84188E-09
 -1       345-1.17126E+06-2.69798E+05-4.87942E+03-5.72338E+05-3.21734E-09-1.04069E-09
 -1       346-1.20783E+06-1.67007E+04 3.60863E+04-2.70230E+05 2.69774E-08 2.42962E-08
 -1       347-1.34098E+06-2.40552E+05-3.36869E+04-5.53108E+05 6.15364E-09 5.21459E-09
 -1       348-9.58938E+05-1.30882E+05 6.08251E+04-3.71914E+05 9.05538E-09-8.06949E-10
 -1       349-1.41058E+06-1.62949E+05-3.34776E+04-4.63845E+05-9.95442E-09 2.29784E-09
 -1       350-9.67640E+05-2.75160E+05 2.89886E+04-5.66937E+05-1.50922E-07-4.20910E-08
 -1       351-1.34241E+06-8.86529E+04-1.07680E+04-3.66288E+05-6.33513E-08-1.81467E-09
 -1       352-1.04722E+06-3.46503E+05-1.22076E+04-6.68170E+05 1.66538E-07-2.05839E-08
 -1       353-1.34096E+06-8.39809E+04-3.57994E+04-3.69497E+05 2.71521E-08-2.55095E-08
 -1       354-9.95573E+05-3.23992E+05-5.43065E+04-5.50126E+05-1.17261E-07 3.09956E-09
 -1       355-1.38360E+06-1.19361E+05-1.68002E+05-4.77010E+05-3.47472E-08 3.14321E-09
 -1       356-8.00266E+05 1.08128E+03-3.77044E+03-2.25834E+04-1.85196E-09-1.40790E-09
 -1       357-7.97641E+05-8.88535E+02-1.67416E+03 3.06101E+04-2.76273E-08 7.36497E-09
 -1       358-8.04092E+05-1.95067E+02-1.77969E+03-1.54915E+04-1.26024E-08-1.32673E-09
 -1       359-7.90842E+05 1.45835E+02 1.29174E+03 1.25095E+04 1.11855E-08 8.21174E-10
 -1       360-8.06497E+05-3.77405E+02-1.66230E+03-4.47752E+03 3.84034E-10 2.79248E-09
 -1       361-7.89477E+05 1.42309E+02 1.70885E+03-1.01403E+04 2.37378E-09 1.23815E-09
 -1       362-8.05350E+05-2.71997E+02-1.65729E+03 7.15153E+03-3.54726E-09 9.38027E-09
 -1       363-7.94473E+05 6.64148E+01-4.10151E+01-3.04742E+04 1.52077E-08 1.07438E-08
 -1       364-8.01973E+05 5.51482E+01-2.62433E+03 1.58521E+04 1.80453E-08 5.61886E-09
 -1       365-8.00725E+05-1.11865E+03-5.01085E+03-4.23608E+04-2.26868E-08-1.87936E-09
 -1       366-7.99627E+05 1.30792E+03-9.03818E+03 1.90422E+04 1.77607E-08-1.62981E-09
 -1       367-8.05050E+05-9.99092E+03-2.20365E+04-4.22987E+04 2.12741E-08-1.07830E-08
 -1       368-7.97653E+05 8.89807E+03-3.60171E+04 1.57897E+04 7.45422E-09 9.82254E-10
 -1       369-8.26107E+05-6.74437E+04-9.58699E+04-3.01325E+04 1.59334E-08 4.70209E-09
 -1       370-7.78054E+05 5.81776E+04-1.38934E+05 6.87178E+03 8.17636E-09-2.24827E-09
 -1       371-1.93535E+04-3.37308E+05 3.28632E+04-1.99943E+04 1.35660E-08-1.02636E-09
 -1       372 1.74724E+04-2.71443E+05 2.71628E+04 1.09934E+05 1.49612E-10-8.40782E-09
 -1       373 4.86295E+02-3.10116E+05-1.13083E+03-2.62313E+04 1.11140E-09 1.20235E-09
 -1       374-1.80420E+04-3.10852E+05-2.27607E+04 1.16794E+05-2.88810E-09 4.09392E-09
 -1       375 1.76347E+04-3.00091E+05-4.04590E+04-2.68345E+04-2.17187E-09 1.38016E-09
 -1       376-1.01092E+06-1.74131E+05-4.00306E+04-4.40195E+05-3.40333E-09-4.18549E-09
 -1       377-1.12223E+06-7.56584E+04-2.14339E+04-2.93428E+05 1.10962E-07 2.91266E-10
 -1       378-9.91546E+05-1.91295E+05-8.07941E+03-4.42886E+05 7.12930E-09-7.06359E-09
 -1       379-1.10580E+06-6.55122E+04-1.25095E+03-2.97576E+05 5.39148E-09-3.49792E-09
 -1       380-1.02692E+06-1.84536E+05-6.80708E+03-4.35726E+05-3.58659E-09 1.15392E-09
 -1       381-1.01511E+06-9.95142E+04 1.27374E+04-3.27404E+05-2.04375E-08 1.03745E-08
 -1       382-1.07865E+06-1.59906E+05-1.09726E+04-4.10248E+05 1.31176E-08 1.76260E-09
 -1       383-9.47155E+05-1.58940E+05 1.44547E+04-3.93509E+05 3.15140E-09 3.22160E-09
 -1       384-1.09422E+06-1.25614E+05-8.22798E+03-3.69274E+05-1.88106E-08 4.85670E-09
 -1       385-9.45114E+05-2.14193E+05 1.61780E+03-4.65920E+05 1.51297E-08-1.12885E-08
 -1       386-1.08418E+06-1.02092E+05-7.52293E+03-3.40454E+05 1.78557E-08 1.46019E-08
 -1       387-9.57350E+05-2.37931E+05-1.82290E+04-4.86707E+05-1.95414E-08 4.42969E-09
 -1       388-1.08357E+06-1.00734E+05-3.43172E+04-3.49599E+05 1.99907E-09 1.44573E-08
 -1       389-9.77401E+05-2.58679E+05-8.42019E+04-4.28388E+05 1.06329E-08 1.97178E-09
 -1       390-1.06105E+06-8.37960E+04-1.47129E+05-3.96490E+05 8.75480E-09-1.30967E-09
 -1       406 3.41134E+03 8.02922E+05 6.32993E+03-1.15357E+05 3.23780E-10-5.80258E-09
 -1       407 1.90732E+03 8.03948E+05 6.26183E+03-1.27367E+05-5.67297E-09-7.47423E-09
 -1       408 2.32169E+03 8.02802E+05 9.12508E+03-1.15060E+05 3.78350E-10-5.90808E-09
 -1       409 8.61781E+03 8.06170E+05 1.88485E+04-1.27698E+05-5.92627E-09-2.14554E-08
 -1       410 2.44861E+04 8.00346E+05 3.75939E+04-1.14984E+05 4.54747E-10-1.03887E-08
 -1       466 1.11995E+06-4.39321E+04 9.40502E+04 4.27233E+04-6.73026E-11-1.27984E-08
 -1       467 1.21306E+06 4.88452E+04 7.51877E+04-8.26955E+04 1.89289E-09 8.31096E-09
 -1       468 1.15311E+06-6.28550E+03 2.46751E+04 1.78820E+04 2.42153E-10-2.37560E-09
 -1       469 1.17145E+06 6.89021E+03 1.72129E+04-4.57558E+04-1.30944E-09 2.75577E-09
 -1       470 1.15966E+06-8.67088E+02 6.59364E+03 5.75378E+03-1.53454E-09-4.32260E-09
 -1       471 1.16312E+06 1.06739E+03 4.54288E+03-2.79601E+04-1.77550E-09-8.00071E-10
 -1       472 1.16097E+06-1.63261E+02 2.70571E+03 8.43512E+01 2.10355E-09 3.84307E-09
 -1       473 1.16164E+06 6.81627E+02 3.30447E+03-2.02819E+04-1.65777E-09-6.89300E-09
 -1       474 1.16102E+06-4.04445E+02 4.76052E+03-1.92419E+03-3.77051E-09 2.99838E-09
 -1       475 1.16280E+06 3.17386E+03 1.01647E+04-1.89409E+04 1.13261E-09 3.67879E-09
 -1       476 1.15979E+06-2.63880E+03 1.73072E+04-1.25654E+03 3.61450E-09 2.29738E-09
 -1       477 1.17164E+06 2.00095E+04 4.23868E+04-2.32870E+04-6.59384E-11-6.22549E-10
 -1       478 1.15222E+06-1.72234E+04 6.74850E+04 2.42190E+03 4.67821E-11 1.77170E-09
 -1       479 1.22499E+06 1.29105E+05 1.84666E+05-3.57824E+04 3.49291E-09-3.87081E-09
 -1       480 1.10667E+06-1.11507E+05 2.60468E+05 1.12372E+04 3.45517E-09 1.96451E-09
 -1       481-1.25647E+04 2.99285E+05 2.07202E+04-2.59937E+04-2.47383E-10 1.39198E-09
 -1       482 1.28981E+04 3.56640E+05 2.37486E+04 8.60595E+04-5.43423E-11 1.40517E-08
 -1       483-1.94704E+03 3.18672E+05 7.67682E+03-1.95361E+04-5.50244E-11 6.47265E-09
 -1       484 5.34167E+03 3.31707E+05 1.06297E+04 7.74224E+04 1.12720E-10-1.33929E-09
 -1       485-3.67262E+03 3.22260E+05 9.97559E+03-1.73247E+04 1.92358E-10-6.47206E-10
 -1       486-1.17138E+06-2.43178E+05-1.57722E+05-5.62071E+05 3.60160E-10-2.53494E-08
 -1       487-1.11886E+06 6.20191E+04-2.51908E+04-1.16743E+05 2.51539E-08 3.15240E-08
 -1       488-9.50157E+05-2.73984E+05-2.59018E+04-5.40755E+05 1.65246E-08 2.23499E-08
 -1       489-1.27724E+06 1.05386E+05-2.02167E+03-1.38916E+05 3.04596E-08 2.16760E-08
 -1       490-1.02308E+06-2.79158E+05-2.05769E+04-5.49113E+05-3.74985E-09 3.50256E-08
 -1       491-9.13764E+05 6.94625E+04 6.99665E+04-1.16474E+05-1.87720E-08 2.04295E-08
 -1       492-1.29307E+06-2.53015E+05-6.51296E+04-5.45146E+05-3.62816E-08-2.47474E-09
 -1       493-5.43021E+05-6.76879E+04 1.15957E+05-2.23181E+05-2.71029E-09 1.01882E-08
 -1       494-1.37703E+06-1.54715E+05-6.21972E+04-4.31311E+05 4.54747E-10-1.22618E-08
 -1       495-6.21602E+05-2.55858E+05 6.38095E+04-4.95002E+05-4.69449E-08-5.63966E-08
 -1       496-1.23195E+06-5.20465E+04-1.66511E+04-2.87978E+05-1.46838E-08-3.63234E-08
 -1       497-8.19650E+05-3.59275E+05-2.80904E+03-6.71324E+05-4.53110E-08-1.30194E-08
 -1       498-1.20025E+06-3.51988E+04-2.70294E+04-2.68913E+05-3.62470E-08 9.60590E-08
 -1       499-6.99712E+05-3.21658E+05-1.60193E+04-5.51095E+05-6.61373E-10 1.39280E-08
 -1       500-1.33742E+06-1.00744E+05-1.57380E+05-3.98906E+05 3.62793E-08-9.46602E-09
 -1       501-1.12852E+06-2.53385E+04 5.91591E+04-4.96975E+03 1.99532E-09 1.16779E-09
 -1       502-1.10136E+06 2.93562E+04 4.19980E+04 4.43468E+03 4.23455E-10-4.16048E-09
 -1       503-1.11888E+06-3.96637E+03 1.51827E+04 1.44902E+01 3.19233E-10 1.79807E-09
 -1       504-1.11290E+06 4.57465E+03 9.77708E+03-5.50220E+03 1.77351E-11 6.22424E-09
 -1       505-1.11701E+06-6.37947E+02 3.80086E+03 4.96718E+03 4.75723E-10 2.30375E-09
 -1       506-1.11549E+06 7.53993E+02 2.29494E+03-1.32985E+04 2.21439E-09-4.34477E-09
 -1       507-1.11637E+06-1.05542E+02 9.12342E+02 7.81095E+03 2.94978E-09 3.69823E-09
 -1       508-1.11616E+06 1.47705E+02 4.06387E+02-1.57038E+04 1.13447E-09-2.97590E-10
 -1       509-1.11637E+06-8.39388E+00-4.26855E+01 7.37269E+03 3.14006E-09 7.69927E-09
 -1       510-1.11577E+06-1.23256E+02-3.81686E+02-1.17252E+04 1.38581E-09 4.60243E-09
 -1       511-1.11670E+06 1.25948E+02-1.12272E+03 3.83206E+03 7.97229E-10 1.19292E-09
 -1       512-1.11570E+06-1.21524E+03-2.39799E+03-2.99465E+03-6.11067E-12-6.93490E-10
 -1       513-1.11640E+06 1.03512E+03-4.36550E+03-1.35797E+03 5.14092E-10 3.73984E-09
 -1       514-1.11909E+06-8.04965E+03-1.13751E+04 6.91319E+03-4.17435E-09-1.23168E-09
 -1       515-1.11334E+06 6.95299E+03-1.64734E+04-6.07570E+03-3.10501E-09 6.02995E-10
 -1       516-8.35581E+04 2.96556E+05 1.86868E+05 4.99792E+04 1.44501E-08 4.68935E-09
 -1       517 1.00119E+05 4.09406E+05 1.41341E+05-2.35567E+05 2.24318E-08 2.45598E-08
 -1       518-1.33514E+04 3.41535E+05 5.61944E+04 4.72024E+04 1.38170E-08 1.22618E-08
 -1       519 3.66020E+04 4.32682E+05 6.54190E+04-2.43667E+05 1.99506E-08 7.85576E-10
 -1       520-2.36497E+04 2.78126E+05 2.61511E+04 5.80619E+04-7.21866E-09 3.16504E-09
 -1       521-5.30940E+06-6.72222E+05-3.78890E+05-2.05323E+06-2.61207E-09-2.70666E-09
 -1       522-5.43848E+06-9.35117E+05-2.40744E+05-2.05787E+06 3.04226E-10-6.58474E-10
 -1       523-5.37970E+06-7.58725E+05-8.93306E+04-2.03773E+06-1.25806E-09-2.14641E-09
 -1       524-5.35565E+06-8.26223E+05-4.93765E+04-2.08343E+06-5.30690E-10-7.00402E-09
 -1       525-5.39030E+06-7.65762E+05-2.07680E+04-2.03360E+06 1.94450E-09-7.70342E-10
 -1       526-5.34296E+06-8.17722E+05-1.10568E+04-2.08999E+06 5.55428E-09 6.53108E-09
 -1       527-5.39261E+06-7.65454E+05-5.67909E+03-2.03204E+06 1.86128E-09 2.82625E-09
 -1       528-5.34102E+06-8.17555E+05-4.56742E+03-2.09142E+06-9.55424E-10 4.21494E-09
 -1       529-5.39236E+06-7.65721E+05-5.57962E+03-2.03231E+06-9.62700E-10 2.56796E-09
 -1       530-5.34377E+06-8.16743E+05-1.07541E+04-2.08882E+06 1.88197E-09 1.70985E-09
 -1       531-5.38959E+06-7.66561E+05-2.01846E+04-2.03439E+06-1.44610E-09-2.86127E-09
 -1       532-5.35700E+06-8.24007E+05-4.79052E+04-2.08125E+06 1.14005E-09-2.64390E-09
 -1       533-5.37881E+06-7.60244E+05-8.66990E+04-2.03896E+06 1.20536E-09 3.91083E-09
 -1       534-5.43830E+06-9.28704E+05-2.33557E+05-2.05536E+06 6.54836E-11 2.86309E-09
 -1       535-5.31016E+06-6.76775E+05-3.67632E+05-2.05450E+06-8.00355E-10 2.66300E-09
 -1       536 1.17868E+05-2.41575E+04 9.73309E+04-1.07417E+04 4.83851E-10-3.30328E-09
 -1       537 1.54208E+05 3.13718E+04 6.28469E+04-4.74829E+04-3.58705E-09 2.30648E-09
 -1       538 1.32614E+05-2.69485E+03 2.51866E+04-1.06771E+04-5.44787E-10-1.36242E-09
 -1       539 1.37248E+05 3.07557E+03 1.41881E+04-4.74812E+04 3.11729E-09-1.92949E-09
 -1       540 1.34284E+05-3.59573E+02 6.34275E+03-1.07289E+04-8.30369E-10-4.43924E-09
 -1       541 1.35004E+05 2.85157E+02 3.37663E+03-4.73836E+04 4.78394E-10-1.38562E-09
 -1       542 1.34473E+05-5.49297E+01 1.57122E+03-1.07755E+04 1.68257E-10 3.73439E-09
 -1       543 1.34561E+05 6.20462E+01 8.00761E+02-4.73127E+04-2.49884E-10 1.18644E-09
 -1       544 1.34490E+05 6.50523E+00 3.45453E+02-1.08002E+04 6.02995E-10 5.93332E-10
 -1       545 1.34440E+05 5.10728E+01 9.40401E+01-4.72850E+04-6.59185E-10 7.73241E-10
 -1       546 1.34502E+05 2.18963E+01-1.11280E+02-1.08032E+04-4.51223E-10-2.03431E-09
 -1       547 1.34408E+05-6.34797E+01-4.16461E+02-4.72945E+04 4.80213E-10-1.45064E-10
 -1       548 1.34576E+05 7.13537E+01-8.24728E+02-1.07907E+04-1.75442E-09 2.66027E-10
 -1       549 1.34013E+05-1.05950E+03-2.06638E+03-4.72579E+04 1.97360E-10-1.71053E-09
 -1       550 1.35097E+05 7.19396E+02-3.27242E+03-1.08397E+04 2.99224E-10 1.22321E-09
 -1       551 2.80686E+04-4.95321E+05 5.18148E+04-7.37382E+05-9.85892E-10-4.83851E-10
 -1       552 1.63035E+04-4.88208E+05 3.92671E+04-8.59685E+05-3.09228E-09 2.05182E-09
 -1       553 1.12973E+04-4.95579E+05 4.34650E+04-7.36149E+05-1.26602E-09 2.41835E-09
 -1       554 3.21923E+04-4.80149E+05 7.97925E+04-8.59896E+05-1.83354E-09 1.64437E-09
 -1       555 7.92191E+04-5.05355E+05 1.50412E+05-7.36911E+05-1.67711E-09-3.39787E-09
 -1       556-4.10541E+05-2.01890E+05 2.94813E+04-3.63187E+05 3.81624E-09 5.60249E-10
 -1       557-3.82427E+05-2.32579E+05 1.45262E+04-3.85486E+05-3.41970E-09 3.66708E-09
 -1       558-4.12047E+05-2.11597E+05 6.03021E+03-3.57613E+05-7.26141E-09-4.19823E-09
 -1       559-3.85960E+05-2.37246E+05 2.99046E+03-3.87123E+05 4.51109E-10-4.02702E-09
 -1       560-4.13048E+05-2.11342E+05 1.28764E+03-3.57952E+05 1.80444E-09 5.62886E-09
 -1       561-3.87157E+05-2.37072E+05 6.21423E+02-3.87982E+05-3.26327E-09-7.17341E-09
 -1       562-4.13773E+05-2.10896E+05 1.90036E+02-3.58423E+05-2.37560E-09-6.67114E-10
 -1       563-3.87841E+05-2.36778E+05-5.23074E+01-3.88468E+05-2.29193E-09 1.16461E-09
 -1       564-4.14172E+05-2.10636E+05-3.74830E+02-3.58695E+05-3.68709E-09 4.85215E-09
 -1       565-3.88180E+05-2.36644E+05-9.20687E+02-3.88686E+05-5.75801E-09 1.51176E-08
 -1       566-4.14206E+05-2.10556E+05-1.97314E+03-3.58749E+05-9.84278E-09-3.71983E-09
 -1       567-3.88477E+05-2.36888E+05-4.36843E+03-3.88608E+05-5.38057E-09 9.38962E-09
 -1       568-4.13723E+05-2.11357E+05-9.01146E+03-3.58287E+05-4.45834E-09-1.25146E-09
 -1       569-3.93018E+05-2.42636E+05-2.12557E+04-3.86999E+05-3.07409E-10-5.31145E-10
 -1       570-4.11658E+05-2.28483E+05-4.35371E+04-3.50859E+05-5.23869E-10 1.90084E-10
 -1       571 5.40769E+05 2.55807E+04 3.98683E+04-1.34227E+05 2.61934E-10 4.64297E-10
 -1       572 5.46869E+05 8.62964E+03 1.96089E+04-1.48273E+05-8.85848E-10-1.25328E-09
 -1       573 5.43143E+05 1.85410E+03 8.72949E+03-1.33843E+05-1.06320E-08-7.19410E-10
 -1       574 5.43816E+05 5.62521E+02 4.39133E+03-1.48675E+05-2.09984E-08-1.09321E-09
 -1       575 5.43338E+05 3.15125E+01 2.08254E+03-1.33798E+05-9.43510E-09 3.66526E-09
 -1       576 5.43393E+05-4.38847E+00 1.07107E+03-1.48725E+05 1.52966E-09 2.95040E-09
 -1       577 5.43370E+05-4.11614E+01 5.43826E+02-1.33792E+05-5.95719E-10-6.00267E-10
 -1       578 5.43384E+05-4.23468E+01 3.26889E+02-1.48732E+05-8.01720E-10-4.34375E-09
 -1       579 5.43466E+05-8.07007E+01 2.51489E+02-1.33790E+05 5.63887E-10-2.04545E-09
 -1       580 5.43543E+05-1.14848E+02 3.22243E+02-1.48729E+05 1.41972E-09 9.95351E-09
 -1       581 5.43648E+05-1.68313E+02 5.27550E+02-1.33795E+05-4.91127E-10 1.10595E-09
 -1       582 5.43894E+05-1.11728E+02 1.07434E+03-1.48654E+05-6.69388E-10 8.67658E-09
 -1       583 5.43862E+05 1.17860E+02 2.09328E+03-1.33865E+05-1.00408E-09-4.13547E-09
 -1       584 5.44960E+05 1.66722E+03 4.70968E+03-1.48029E+05-4.67298E-09-3.21961E-09
 -1       585 5.43592E+05 5.68024E+03 9.54013E+03-1.34433E+05-4.43833E-10-2.65936E-09
 -1       586 4.06275E+03 2.18613E+05 6.89424E+03-3.43137E+05 2.90311E-09-8.88394E-09
 -1       587 2.66985E+03 2.19567E+05 7.03710E+03-3.80103E+05 4.87489E-10-2.17833E-08
 -1       588 3.15413E+03 2.18212E+05 1.04179E+04-3.42698E+05 3.26872E-09-9.80708E-09
 -1       589 1.04338E+04 2.22183E+05 2.16351E+04-3.80197E+05 8.20364E-10-2.63935E-09
 -1       590 2.84735E+04 2.15693E+05 4.31544E+04-3.43021E+05 2.91584E-09 7.48514E-10
 -1       591-2.29170E+05-8.26270E+04-4.56900E+04-1.21129E+05-3.48814E-09-1.36788E-09
 -1       592-2.30434E+05-7.66316E+04-2.23485E+04-1.34826E+05-8.47422E-09 1.77033E-09
 -1       593-2.30417E+05-6.52503E+04-9.47895E+03-1.29031E+05-3.80987E-09 7.93989E-10
 -1       594-2.25607E+05-7.03618E+04-4.63344E+03-1.35729E+05-7.61247E-10 6.09077E-11
 -1       595-2.30646E+05-6.45730E+04-2.13213E+03-1.29403E+05-3.80942E-09-3.63798E-09
 -1       596-2.25246E+05-7.01031E+04-1.08180E+03-1.35711E+05-1.15460E-09 4.11001E-09
 -1       597-2.30692E+05-6.46001E+04-5.90884E+02-1.29409E+05-6.67694E-09-1.01372E-08
 -1       598-2.25207E+05-7.01067E+04-4.76562E+02-1.35694E+05-6.92125E-10 4.04270E-09
 -1       599-2.30682E+05-6.46046E+04-6.10601E+02-1.29403E+05 1.15324E-09 2.04955E-09
 -1       600-2.25230E+05-7.01116E+04-1.13352E+03-1.35696E+05 6.24368E-10-2.23190E-09
 -1       601-2.30612E+05-6.45857E+04-2.24156E+03-1.29386E+05 1.63072E-09-2.11912E-09
 -1       602-2.25595E+05-7.03872E+04-4.87488E+03-1.35695E+05 1.80125E-09-1.60226E-08
 -1       603-2.30350E+05-6.53141E+04-9.97468E+03-1.28988E+05 1.31240E-09-2.66118E-09
 -1       604-2.30698E+05-7.69438E+04-2.35129E+04-1.34679E+05-1.42063E-09-6.13272E-09
 -1       605-2.28982E+05-8.36307E+04-4.80700E+04-1.20706E+05-1.70712E-09-1.27220E-08
 -1       606 1.57395E+05-2.05377E+04-3.18813E+04 4.47768E+04-1.10977E-08-2.35013E-09
 -1       607 1.52389E+05-6.92623E+03-1.56704E+04 4.89636E+04-3.04408E-09 7.66022E-10
 -1       608 1.55280E+05-1.47865E+03-6.97826E+03 4.44593E+04 6.71207E-09 2.85354E-09
 -1       609 1.54607E+05-3.71490E+02-3.49933E+03 4.92944E+04-3.26872E-09 2.10889E-09
 -1       610 1.54970E+05 6.69645E+01-1.65521E+03 4.44195E+04-9.95715E-09 3.99996E-09
 -1       611 1.54822E+05 1.46858E+02-8.33428E+02 4.93348E+04-1.82226E-08 4.52474E-10
 -1       612 1.54879E+05 1.61344E+02-3.98793E+02 4.44154E+04-1.73259E-08-2.17369E-10
 -1       613 1.54811E+05 1.85494E+02-1.86292E+02 4.93391E+04-3.39296E-08-9.65429E-10
 -1       614 1.54829E+05 1.70976E+02-6.21510E+01 4.44146E+04-3.36331E-09-3.00588E-10
 -1       615 1.54782E+05 2.01159E+02 3.19020E+01 4.93389E+04 2.78924E-08 1.41745E-09
 -1       616 1.54792E+05 1.89815E+02 1.38534E+02 4.44153E+04 2.47837E-09-1.84764E-09
 -1       617 1.54782E+05 2.62208E+02 3.35145E+02 4.93370E+04 7.79892E-10 4.41833E-09
 -1       618 1.54746E+05 3.50294E+02 6.86298E+02 4.44158E+04-1.04660E-08-8.29914E-10
 -1       619 1.54994E+05 9.18041E+02 1.55324E+03 4.93307E+04-2.08786E-08-4.37421E-09
 -1       620 1.54532E+05 2.24632E+03 3.16392E+03 4.44152E+04-7.33610E-09 7.91533E-09
 -1       621 4.06963E+03 5.30434E+05 9.58239E+03-4.50155E+04 3.32875E-10-4.60659E-10
 -1       622 1.60368E+03 5.32235E+05 7.86948E+03-5.26822E+04-2.68938E-09-5.04224E-09
 -1       623 9.83317E+02 5.30853E+05 9.62843E+03-4.50953E+04-1.04137E-10 1.26220E-08
 -1       624 5.64122E+03 5.34605E+05 1.84946E+04-5.23986E+04-1.91631E-09 2.06001E-08
 -1       625 1.72445E+04 5.28197E+05 3.53994E+04-4.52902E+04 6.57565E-10 8.32642E-09
 -1       626 2.24564E+05 7.19299E+04-1.50164E+04 1.52059E+05-6.83212E-09 8.71296E-10
 -1       627 2.18134E+05 8.19244E+04-7.12988E+03 1.54588E+05 1.89266E-09 4.43038E-09
 -1       628 2.24799E+05 7.92607E+04-2.99990E+03 1.48504E+05 2.25464E-08 4.01360E-09
 -1       629 2.19249E+05 8.49027E+04-1.44015E+03 1.54266E+05 2.49993E-08-1.05182E-08
 -1       630 2.24725E+05 7.97688E+04-6.38711E+02 1.48201E+05 1.75860E-08-2.10343E-09
 -1       631 2.19296E+05 8.51286E+04-2.88239E+02 1.54239E+05-1.12896E-08-1.22075E-08
 -1       632 2.24668E+05 7.97980E+04-8.83985E+01 1.48159E+05-4.01269E-09 7.69887E-10
 -1       633 2.19276E+05 8.51479E+04 5.26939E+01 1.54225E+05 1.75478E-08 9.30459E-09
 -1       634 2.24631E+05 7.97931E+04 2.19470E+02 1.48145E+05 8.14589E-09 1.18143E-09
 -1       635 2.19292E+05 8.51565E+04 5.30944E+02 1.54224E+05-6.75482E-09-3.33876E-09
 -1       636 2.24604E+05 7.98136E+04 1.11532E+03 1.48127E+05-8.94329E-09-1.49066E-09
 -1       637 2.19558E+05 8.54413E+04 2.49484E+03 1.54186E+05 2.93403E-09 6.69570E-09
 -1       638 2.24550E+05 8.06769E+04 5.16790E+03 1.47751E+05 2.21007E-10 4.69936E-09
 -1       639 2.22212E+05 8.99466E+04 1.22915E+04 1.53105E+05-2.80365E-08-1.19871E-08
 -1       640 2.24654E+05 9.37622E+04 2.58737E+04 1.42290E+05-2.99483E-08 3.39969E-09
 -1       641 7.93729E+03 4.50428E+03-1.05775E+04-4.42477E+02-1.32349E-08-5.89353E-09
 -1       642 3.44197E+03-5.21243E+03-7.44235E+03 2.02706E+03 3.85170E-09 1.98315E-09
 -1       643 6.19035E+03 6.95225E+02-2.72941E+03-4.33173E+02-2.49632E-08-2.53067E-10
 -1       644 5.46459E+03-7.95145E+02-1.68375E+03 2.01343E+03 1.49201E-08 6.99652E-09
 -1       645 5.91168E+03 1.03543E+02-6.53760E+02-4.28898E+02-1.47512E-08 1.82035E-09
 -1       646 5.79061E+03-1.00498E+02-3.07388E+02 2.00707E+03-4.83867E-07 2.55886E-09
 -1       647 5.86267E+03 3.83755E+00 1.57944E+00-4.26825E+02-3.59844E-05 1.19242E-07
 -1       648 5.88086E+03 7.04066E+01 2.92344E+02 2.00493E+03-7.11700E-05 2.39979E-07
 -1       649 5.82088E+03-6.65743E+01 6.63473E+02-4.26762E+02-3.59881E-05 1.12846E-07
 -1       650 6.12384E+03 5.11364E+02 1.59977E+03 2.00615E+03-4.45249E-07 2.58655E-09
 -1       651 5.62025E+03-4.36368E+02 2.79423E+03-4.28049E+02-1.02259E-08-4.58988E-09
 -1       652 7.49706E+03 3.26918E+03 6.88890E+03 2.00826E+03 1.65033E-08 3.31715E-09
 -1       653 4.44943E+03-2.81712E+03 1.10159E+04-4.28883E+02-4.96840E-09-9.05857E-10
 -1       654 1.57891E+04 2.10607E+04 3.00436E+04 1.99937E+03-2.12901E-09-9.42237E-10
 -1       655-2.66651E+03-1.81704E+04 4.25763E+04-4.19282E+02-6.41634E-10 6.54836E-10
 -1       656 1.67407E+04-6.07558E+05-7.10701E+04 1.46507E+04-3.53248E-09-2.17187E-09
 -1       657-2.43569E+04-6.33725E+05-5.21275E+04 6.00626E+04-1.67347E-09-1.17234E-09
 -1       658 3.28867E+03-6.16843E+05-3.29510E+04 1.44590E+04-2.15783E-09-1.75987E-09
 -1       659-2.22615E+04-6.32594E+05-4.85472E+04 6.02070E+04-2.09911E-09 8.08463E-10
 -1       660 1.50656E+04-6.08786E+05-6.43222E+04 1.45091E+04-5.09681E-09-3.79828E-09
 -1       661 5.94087E+05 7.55782E+04 4.89877E+04 2.32976E+05 1.79912E-08 4.48927E-09
 -1       662 6.05803E+05 1.14583E+05 3.11273E+04 2.39449E+05 5.79266E-09 2.44881E-09
 -1       663 6.02593E+05 8.73210E+04 1.15731E+04 2.31671E+05 6.15597E-09-3.44880E-09
 -1       664 5.96043E+05 9.95844E+04 6.42167E+03 2.41521E+05-4.92446E-09-1.11261E-08
 -1       665 6.03543E+05 8.86693E+04 2.71631E+03 2.31610E+05 2.85411E-09-3.78941E-09
 -1       666 5.94955E+05 9.78973E+04 1.48393E+03 2.41612E+05-3.53788E-09-3.60524E-09
 -1       667 6.03637E+05 8.88428E+04 8.24492E+02 2.31634E+05 1.92854E-08 6.27539E-09
 -1       668 5.94863E+05 9.77253E+04 7.76574E+02 2.41590E+05-9.05247E-09 7.85937E-09
 -1       669 6.03627E+05 8.88327E+04 1.08380E+03 2.31633E+05-4.15531E-09-4.95436E-09
 -1       670 5.95048E+05 9.80064E+04 2.20597E+03 2.41610E+05 2.62956E-08-1.95359E-09
 -1       671 6.03462E+05 8.85765E+04 4.16933E+03 2.31611E+05 1.72406E-09-5.92627E-09
 -1       672 5.96777E+05 1.00586E+05 9.93874E+03 2.41417E+05-2.10709E-08-3.16072E-09
 -1       673 6.01955E+05 8.65154E+04 1.79417E+04 2.31735E+05-2.16301E-09-3.07136E-09
 -1       674 6.11964E+05 1.23793E+05 4.82748E+04 2.38127E+05 1.09764E-08 7.23139E-09
 -1       675 5.88728E+05 6.83413E+04 7.59910E+04 2.33793E+05-3.61615E-09-3.04135E-09
 -1       676 2.16503E+03-5.66550E+05-1.02016E+04 1.18024E+03-3.87672E-10-1.81324E-09
 -1       677-3.90736E+03-5.70479E+05-1.02335E+04 8.35280E+02-1.37760E-10-6.70689E-09
 -1       678 1.11683E+03-5.67214E+05-1.10602E+04 1.17705E+03 5.50244E-10 5.75799E-09
 -1       679-1.16078E+04-5.74966E+05-2.35606E+04 8.34386E+02 2.61070E-09 8.33887E-09
 -1       680 8.55293E+03-5.62067E+05-3.52382E+04 1.17823E+03 3.19051E-09 6.20997E-09
 -1       681 8.47515E+05-2.39406E+04 5.59603E+04-1.85300E+03-2.40959E-10-1.40790E-09
 -1       682 8.72268E+05 2.77661E+04 3.96070E+04 1.41653E+04-8.36451E-10-5.78439E-10
 -1       683 8.57112E+05-3.70316E+03 1.45163E+04 3.03070E+02-7.56017E-10-3.44789E-09
 -1       684 8.61072E+05 4.33593E+03 9.12020E+03 1.12513E+04-6.52562E-11-2.70666E-09
 -1       685 8.58695E+05-5.68489E+02 3.77724E+03 1.06101E+03 1.92237E-11-2.76850E-09
 -1       686 8.59267E+05 7.21469E+02 2.30671E+03 1.08538E+04-3.19452E-09-3.83946E-09
 -1       687 8.58918E+05-9.75480E+01 1.24988E+03 7.00554E+02-1.45454E-09-3.36323E-09
 -1       688 8.59221E+05 2.53743E+02 1.24320E+03 1.28235E+04-7.93065E-10-3.66363E-09
 -1       689 8.58761E+05-1.14666E+02 1.48118E+03-9.08656E+02 2.19762E-09-2.32029E-09
 -1       690 8.60294E+05 8.44472E+02 3.19663E+03 1.78648E+04 1.51681E-09-1.48520E-09
 -1       691 8.57914E+05-7.33600E+02 4.99489E+03-4.34070E+03-1.11481E-09 8.46740E-10
 -1       692 8.65206E+05 5.60405E+03 1.30344E+04 2.77793E+04-3.98148E-09 5.28871E-10
 -1       693 8.54073E+05-5.01327E+03 1.94145E+04-1.08241E+04 2.53112E-09 2.86218E-09
 -1       694 8.88727E+05 3.79599E+04 5.64430E+04 4.63077E+04 1.03500E-08 3.18687E-09
 -1       695 8.35121E+05-3.34775E+04 7.49266E+04-2.28772E+04 9.23455E-09 1.21581E-08
 -1       696-1.54014E+04 6.28568E+05 3.55078E+04 3.24565E+03 1.63709E-11-8.00071E-10
 -1       697 1.69454E+04 6.43997E+05 2.33895E+04-1.90596E+04 1.10958E-10-1.43404E-09
 -1       698-1.44589E+03 6.35284E+05 5.59850E+03 2.17434E+03-2.51930E-10 1.31181E-09
 -1       699-4.29127E+03 6.34025E+05-4.51162E+03-1.86698E+04-3.83807E-10 4.24267E-09
 -1       700 5.77120E+03 6.38542E+05-1.25736E+04 2.85574E+03-2.95586E-10 1.96422E-09
 -1       701-7.65533E+05-7.05154E+04-9.42875E+04-3.02202E+05-2.91038E-10 1.26965E-09
 -1       702-8.08773E+05-1.61220E+05-6.51032E+04-2.91718E+05-4.08818E-10 1.71349E-09
 -1       703-7.86524E+05-1.01968E+05-2.21305E+04-2.93440E+05-2.27374E-11-3.34694E-10
 -1       704-7.84013E+05-1.25331E+05-1.37242E+04-3.02541E+05 1.71218E-09 1.65278E-09
 -1       705-7.90295E+05-1.06278E+05-5.16423E+03-2.91434E+05 9.56447E-10 1.55705E-09
 -1       706-7.80251E+05-1.19566E+05-3.05190E+03-3.03934E+05 2.08433E-09 4.55600E-09
 -1       707-7.90282E+05-1.07715E+05-1.44266E+03-2.92054E+05 3.34410E-10 1.09594E-09
 -1       708-7.81861E+05-1.16208E+05-1.11584E+03-3.01053E+05-1.53364E-10-1.61833E-09
 -1       709-7.88652E+05-1.09656E+05-1.41426E+03-2.94292E+05 1.00829E-09-1.43984E-10
 -1       710-7.86317E+05-1.12552E+05-2.63513E+03-2.95879E+05 7.62128E-10 1.26010E-09
 -1       711-7.85804E+05-1.11388E+05-4.77261E+03-2.97211E+05 6.85276E-10 2.57387E-10
 -1       712-7.94258E+05-1.13511E+05-1.23155E+04-2.89834E+05 6.56968E-10 9.59290E-10
 -1       713-7.80734E+05-1.08701E+05-2.00043E+04-3.00346E+05 1.54751E-09 1.19508E-09
 -1       714-8.17817E+05-1.45708E+05-5.89204E+04-2.79979E+05-1.67802E-10-5.45697E-10
 -1       715-7.62308E+05-7.92615E+04-8.51168E+04-3.07062E+05-3.65617E-09 3.08864E-09
 -1       716 7.21182E+05-2.87586E+04 6.49944E+04-1.89491E+04-1.10390E-08 9.04402E-09
 -1       717 7.64907E+05 3.26801E+04 4.84891E+04 3.53867E+04-5.69435E-09 9.68521E-09
 -1       718 7.36485E+05-4.32661E+03 1.68407E+04-9.93710E+03-1.03569E-09 3.91719E-09
 -1       719 7.45964E+05 4.82133E+03 1.13487E+04 2.12335E+04 2.82125E-09 5.10875E-09
 -1       720 7.39614E+05-6.40979E+02 4.49430E+03-4.78952E+03 2.47633E-09 2.08956E-09
 -1       721 7.41970E+05 7.45740E+02 3.20421E+03 1.30719E+04 1.68370E-09 2.91294E-10
 -1       722 7.40308E+05-1.44819E+02 2.04168E+03-1.77424E+03 3.24349E-10-1.12712E-09
 -1       723 7.41215E+05 5.22337E+02 2.81041E+03 8.24507E+03-2.31671E-09-7.36264E-10
 -1       724 7.40310E+05-3.78438E+02 4.17337E+03 3.75176E+01-3.32258E-09-4.86580E-11
 -1       725 7.42212E+05 2.79248E+03 9.13658E+03 5.26800E+03-3.81633E-10-2.72996E-09
 -1       726 7.39286E+05-2.39552E+03 1.55758E+04 1.20285E+03-1.80171E-09-3.17141E-09
 -1       727 7.49622E+05 1.79983E+04 3.81259E+04 3.21267E+03-5.30406E-09-3.68573E-09
 -1       728 7.32882E+05-1.55325E+04 6.09298E+04 2.09269E+03-8.65441E-10-2.99769E-09
 -1       729 7.95235E+05 1.16229E+05 1.65944E+05 1.30304E+03-1.08493E-09-4.03270E-09
 -1       730 6.93688E+05-1.00278E+05 2.35411E+05 3.11125E+03 5.22391E-11-2.44472E-09
 -1       731-1.60906E+04 2.76284E+05 2.22336E+04 3.52797E+04-3.00315E-09 2.58115E-09
 -1       732 1.76477E+04 3.56752E+05 3.00021E+04-1.40457E+05-1.29694E-09 2.64163E-09
 -1       733-2.66487E+03 3.08581E+05 1.10960E+04 2.80144E+04 7.34053E-09 3.52361E-09
 -1       734 1.15253E+04 3.22098E+05 1.74186E+04-1.32656E+05 1.22345E-08 8.89850E-09
 -1       735-7.94558E+03 3.08002E+05 1.83300E+04 2.74717E+04 6.08452E-09 6.32508E-09
 -1       736-1.05709E+06-7.44079E+04-1.06680E+05-3.47560E+05-1.03937E-08-3.72165E-09
 -1       737-8.71407E+05-2.68374E+05-5.31091E+04-4.66990E+05-3.00678E-08-6.64022E-09
 -1       738-1.04647E+06-7.38830E+04-2.20049E+04-3.00844E+05 1.55183E-09-9.31323E-10
 -1       739-8.70487E+05-2.52061E+05-1.01264E+04-5.02265E+05-4.24006E-09 1.16166E-08
 -1       740-1.06058E+06-8.86984E+04-9.28610E+03-3.14081E+05-1.46883E-10 2.60032E-08
 -1       741-8.27376E+05-1.98540E+05 1.70103E+04-4.28757E+05 3.01243E-08 4.47498E-08
 -1       742-1.08339E+06-1.31952E+05-1.85408E+04-3.70050E+05 2.65209E-09 1.63802E-08
 -1       743-8.43043E+05-1.14666E+05 3.16260E+04-3.18913E+05 3.76349E-09-8.98240E-10
 -1       744-1.04048E+06-1.75774E+05-1.83932E+04-4.20348E+05-2.46564E-09-8.15862E-09
 -1       745-9.77608E+05-4.58140E+04 1.83425E+04-2.53676E+05-2.36043E-08-1.72881E-08
 -1       746-9.53386E+05-1.97438E+05-7.72995E+03-4.38481E+05-3.56022E-09-6.14295E-08
 -1       747-1.09868E+06-1.92721E+04-5.24056E+03-2.38423E+05 2.07322E-08 2.22099E-08
 -1       748-9.25297E+05-1.98078E+05-1.42390E+04-4.40395E+05-3.69155E-08-4.06544E-10
 -1       749-1.06651E+06-4.97049E+04-3.07205E+04-2.37895E+05 1.12159E-08-9.62245E-10
 -1       750-9.83322E+05-1.68685E+05-7.36230E+04-4.37110E+05-2.81761E-09 8.82210E-09
 -1       751 4.09691E+06-2.30465E+05 5.42165E+05 2.16653E+04-2.23069E-08-4.80213E-09
 -1       752 4.33220E+06 2.67090E+05 3.82204E+05-2.73131E+04-5.96256E-09-6.13363E-09
 -1       753 4.18818E+06-3.56768E+04 1.40579E+05 5.24689E+03-7.01334E-10-2.11003E-10
 -1       754 4.22642E+06 4.13180E+04 8.80129E+04-6.86766E+03 3.31957E-09 3.84352E-09
 -1       755 4.20306E+06-5.51449E+03 3.62453E+04 1.22597E+03-7.36058E-10-7.73070E-10
 -1       756 4.20929E+06 6.46429E+03 2.15820E+04-1.84762E+03-2.42000E-10-3.17414E-10
 -1       757 4.20550E+06-9.33817E+02 1.06844E+04 2.26971E+02-1.32265E-09 1.04410E-09
 -1       758 4.20677E+06 1.66851E+03 8.54364E+03-6.43688E+02-5.01713E-10 4.59733E-09
 -1       759 4.20562E+06-7.31889E+02 8.76117E+03 2.20229E+01 1.35140E-09-8.02856E-10
 -1       760 4.20833E+06 4.70865E+03 1.60518E+04-5.73739E+02 1.28530E-09 3.92106E-09
 -1       761 4.20391E+06-3.96521E+03 2.62414E+04 1.57021E+02-6.78029E-10 1.72895E-09
 -1       762 4.22052E+06 2.96416E+04 6.31947E+04-1.48485E+03 3.04515E-09 4.68572E-09
 -1       763 4.19329E+06-2.55848E+04 1.00767E+05 9.33128E+02 5.52686E-09 1.78989E-09
 -1       764 4.29553E+06 1.91368E+05 2.73684E+05-5.46331E+03 4.00462E-10-8.62201E-10
 -1       765 4.12849E+06-1.65097E+05 3.88313E+05 4.13460E+03-6.27608E-10-2.32831E-09
 -1       766-8.84044E+04 3.54778E+05 2.07672E+05-2.80086E+04 2.13913E-09 2.02363E-11
 -1       767 1.06346E+05 4.55066E+05 1.55931E+05 1.20591E+05 4.36557E-10 1.77047E-09
 -1       768-1.75555E+04 3.90110E+05 7.02426E+04-2.65382E+04-2.25009E-09-2.41243E-10
 -1       769 5.07668E+04 4.45576E+05 8.53191E+04 1.26026E+05 5.46197E-09 6.68888E-09
 -1       770-3.40574E+04 3.65731E+05 7.65889E+04-3.34556E+04 5.68980E-09 6.58429E-09
 -1       771-2.36521E+06-4.78137E+05-8.86746E+04-1.01633E+06-2.67391E-10-9.57516E-09
 -1       772-2.36138E+06-4.72215E+05-4.32955E+04-1.04948E+06-4.80577E-09 1.33023E-08
 -1       773-2.36872E+06-4.43749E+05-1.84467E+04-1.03144E+06-2.37196E-09 3.05590E-09
 -1       774-2.35211E+06-4.60536E+05-8.97623E+03-1.05261E+06 3.59432E-09-2.22644E-09
 -1       775-2.36991E+06-4.41952E+05-4.18380E+03-1.03243E+06-4.65661E-10 2.01908E-09
 -1       776-2.35191E+06-4.59937E+05-2.09818E+03-1.05326E+06-1.51340E-09 1.45064E-09
 -1       777-2.37060E+06-4.41650E+05-1.17086E+03-1.03272E+06 4.76575E-10 6.62112E-10
 -1       778-2.35225E+06-4.59811E+05-9.06654E+02-1.05372E+06 1.65528E-10 1.71468E-09
 -1       779-2.37102E+06-4.41394E+05-1.16592E+03-1.03292E+06 2.69574E-09 6.87169E-09
 -1       780-2.35262E+06-4.59723E+05-2.12909E+03-1.05407E+06-2.12822E-09-6.92444E-09
 -1       781-2.37118E+06-4.41182E+05-4.21930E+03-1.03302E+06 2.09184E-10 7.24867E-10
 -1       782-2.35349E+06-4.60193E+05-9.18289E+03-1.05428E+06 5.80258E-10 1.99361E-09
 -1       783-2.37084E+06-4.42463E+05-1.88075E+04-1.03234E+06-3.23416E-09-1.86083E-09
 -1       784-2.36310E+06-4.72683E+05-4.44001E+04-1.05256E+06-3.63616E-09-3.47791E-09
 -1       785-2.36839E+06-4.76970E+05-9.08058E+04-1.01663E+06-8.22183E-10-3.09228E-10
 -1       786 4.99868E+05-1.55286E+04 6.34468E+04-2.82400E+03 3.10138E-10-3.87809E-09
 -1       787 5.23039E+05 2.05913E+04 4.08976E+04-1.31409E+04-9.35870E-10-4.98085E-09
 -1       788 5.09513E+05-1.64489E+03 1.64552E+04-2.85443E+03 1.97360E-10-4.36376E-09
 -1       789 5.12255E+05 2.09428E+03 9.24211E+03-1.30709E+04-1.57115E-10-1.91267E-09
 -1       790 5.10634E+05-1.81693E+02 4.18584E+03-2.89165E+03 6.56200E-10-3.64935E-10
 -1       791 5.10977E+05 2.09006E+02 2.25661E+03-1.30174E+04 3.18323E-11 2.71348E-09
 -1       792 5.10779E+05-2.29992E+01 1.15821E+03-2.90790E+03 1.09623E-09 1.00272E-10
 -1       793 5.10817E+05 2.71473E+01 7.80328E+02-1.30069E+04-1.81103E-10 4.88257E-10
 -1       794 5.10792E+05-1.36256E+01 7.33547E+02-2.90221E+03-1.04694E-09-3.57313E-09
 -1       795 5.10874E+05 9.29873E+01 1.13474E+03-1.30408E+04-1.81217E-10 5.50392E-09
 -1       796 5.10730E+05-8.61951E+01 1.96040E+03-2.87391E+03 1.95314E-10-2.21348E-10
 -1       797 5.11463E+05 9.48022E+02 4.24447E+03-1.31165E+04-1.47793E-12 2.90311E-09
 -1       798 5.10221E+05-7.57053E+02 7.51997E+03-2.82660E+03-3.84716E-10 3.25144E-10
 -1       799 5.16399E+05 9.38480E+03 1.86724E+04-1.32022E+04-2.79397E-09-3.25872E-09
 -1       800 5.05821E+05-7.09943E+03 2.89502E+04-2.78946E+03 2.49202E-10 1.58252E-10
 -1       801-2.41144E+04 6.19385E+05 7.97061E+04-3.05148E+05 7.67614E-10 2.40107E-09
 -1       802 5.46606E+04 6.41571E+05 8.11537E+04-1.32123E+06 1.57670E-08 1.04046E-09
 -1       803-1.10595E+03 6.20820E+05 7.85558E+04-3.05141E+05 8.35280E-09 1.18257E-09
 -1       804 9.96942E+04 6.69797E+05 1.60166E+05-1.32116E+06 1.05210E-08-6.39011E-09
 -1       805-6.28057E+04 5.93326E+05 2.27814E+05-3.05254E+05 7.74162E-09-2.83762E-10
 -1       806-5.11963E+05-1.32792E+05-4.41882E+04-2.31096E+05 1.60298E-09-8.62201E-10
 -1       807-5.12601E+05-1.21463E+05-2.09892E+04-2.44159E+05-1.75169E-09-7.31279E-09
 -1       808-5.11778E+05-1.10501E+05-8.82886E+03-2.40564E+05-5.92536E-10 1.09321E-09
 -1       809-5.08253E+05-1.13626E+05-4.26949E+03-2.45922E+05-1.44826E-08-2.63398E-08
 -1       810-5.11898E+05-1.09012E+05-1.93323E+03-2.41242E+05 1.60799E-09 9.42146E-09
 -1       811-5.07835E+05-1.13117E+05-9.71468E+02-2.45989E+05 7.81256E-10-1.11413E-09
 -1       812-5.11934E+05-1.08973E+05-5.13546E+02-2.41272E+05-4.92327E-09 1.03360E-08
 -1       813-5.07787E+05-1.13105E+05-3.88945E+02-2.45975E+05-2.19679E-08-2.05000E-09
 -1       814-5.11924E+05-1.08981E+05-4.66496E+02-2.41265E+05-1.00190E-08-2.26464E-10
 -1       815-5.07808E+05-1.13126E+05-8.46311E+02-2.45968E+05-2.39379E-09 1.48702E-09
 -1       816-5.11868E+05-1.09029E+05-1.66419E+03-2.41227E+05-2.98041E-09 3.03953E-09
 -1       817-5.08153E+05-1.13562E+05-3.66508E+03-2.45880E+05 1.86992E-09 5.11136E-09
 -1       818-5.11735E+05-1.10329E+05-7.57541E+03-2.40641E+05 1.10140E-09 1.43700E-09
 -1       819-5.11936E+05-1.20210E+05-1.80029E+04-2.44257E+05 1.39698E-09 7.79437E-10
 -1       820-5.11800E+05-1.29515E+05-3.79013E+04-2.32582E+05-1.71531E-09-9.32232E-11
 -1       821-4.89544E+05 1.55320E+04-6.35118E+04 2.66792E+03-4.54202E-09 6.07542E-10
 -1       822-5.12685E+05-2.06181E+04-4.09393E+04 1.34613E+04-2.59138E-09-2.97950E-09
 -1       823-4.99206E+05 1.63599E+03-1.64793E+04 2.51732E+03 6.24459E-09-1.23146E-09
 -1       824-5.01942E+05-2.06837E+03-9.25527E+03 1.36921E+04-2.49929E-09-3.36513E-11
 -1       825-5.00332E+05 1.82254E+02-4.21199E+03 2.43453E+03-9.16930E-09 3.28509E-09
 -1       826-5.00704E+05-1.63652E+02-2.29882E+03 1.38300E+04-1.81266E-08 5.25017E-09
 -1       827-5.00480E+05 3.17348E+01-1.24503E+03 2.37882E+03-9.81095E-09 2.90009E-09
 -1       828-5.00573E+05 2.10383E+01-9.57282E+02 1.39169E+04-1.31214E-08 2.34957E-09
 -1       829-5.00487E+05 3.12802E+01-1.07938E+03 2.34744E+03 2.83376E-09 1.12214E-09
 -1       830-5.00689E+05-1.08042E+02-1.86537E+03 1.39536E+04 9.51304E-09 4.64834E-09
 -1       831-5.00375E+05 1.54682E+02-3.34658E+03 2.34211E+03-2.99849E-09 4.11364E-09
 -1       832-5.01685E+05-1.60311E+03-7.32134E+03 1.39386E+04-3.75593E-09 3.15731E-09
 -1       833-4.99489E+05 1.30716E+03-1.30125E+04 2.36295E+03 1.20076E-09-5.99357E-10
 -1       834-5.10185E+05-1.62443E+04-3.23302E+04 1.38561E+04-3.26884E-09-2.92812E-09
 -1       835-4.91863E+05 1.22838E+04-5.01442E+04 2.42904E+03 1.01772E-09 1.42245E-09
 -1       836-2.63518E+04 1.33862E+06 1.13380E+05-3.21800E+04-1.69530E-09-5.37511E-10
 -1       837 3.97590E+04 1.38074E+06 8.84091E+04-1.33919E+05 2.48792E-09-4.02429E-09
 -1       838-6.38878E+03 1.35209E+06 6.45644E+04-3.23624E+04-2.55386E-09 3.88644E-09
 -1       839 5.15011E+04 1.38754E+06 1.08731E+05-1.33867E+05 3.42334E-09 1.13596E-09
 -1       840-3.60488E+04 1.33177E+06 1.51614E+05-3.22300E+04-2.06637E-09-1.55524E-10
 -1       841-7.06356E+04-1.02568E+03-2.35835E+04-3.07993E+04-5.65160E-09-1.55524E-09
 -1       842-8.37598E+04-2.16538E+04-1.63163E+04-2.58286E+04-4.40809E-09-5.11432E-09
 -1       843-7.53689E+04-9.48235E+03-5.53002E+03-2.92819E+04 5.77938E-09-4.47449E-09
 -1       844-7.83038E+04-1.18223E+04-3.42763E+03-2.75468E+04 1.84139E-09-5.53382E-09
 -1       845-7.60894E+04-1.08306E+04-1.27283E+03-2.90918E+04-2.54497E-09 9.48262E-10
 -1       846-7.74907E+04-1.02359E+04-7.13319E+02-2.77429E+04-1.17242E-08-3.92220E-09
 -1       847-7.61825E+04-1.10642E+04-2.52553E+02-2.90879E+04-4.68377E-09-4.19718E-09
 -1       848-7.73800E+04-9.93705E+03-5.93708E+01-2.77407E+04 1.06269E-08-1.40293E-10
 -1       849-7.62005E+04-1.11284E+04 1.17556E+02-2.90947E+04 5.86164E-09-5.64995E-10
 -1       850-7.72769E+04-9.74242E+03 4.27845E+02-2.77587E+04-4.56861E-10 1.55019E-10
 -1       851-7.62857E+04-1.12583E+04 7.88685E+02-2.90702E+04-2.57937E-09-5.30940E-09
 -1       852-7.66849E+04-8.80569E+03 2.15188E+03-2.79502E+04 9.95550E-09 2.45134E-09
 -1       853-7.67918E+04-1.20630E+04 3.46682E+03-2.89038E+04 4.41457E-09 2.07160E-09
 -1       854-7.31237E+04-2.74054E+03 1.02534E+04-2.91500E+04-3.70551E-09 1.21645E-09
 -1       855-7.98430E+04-1.73074E+04 1.48037E+04-2.78758E+04-8.04903E-11 4.32919E-09
 -1       856-5.75782E+05 1.41479E+04-5.79795E+04 5.29414E+03-7.96808E-09 9.05857E-10
 -1       857-5.96875E+05-1.87244E+04-3.73493E+04 2.73852E+04-9.46943E-09 1.67074E-09
 -1       858-5.84610E+05 1.49622E+03-1.50451E+04 5.02855E+03-1.32677E-08 5.73891E-10
 -1       859-5.87160E+05-1.76649E+03-8.43703E+03 2.77887E+04-2.79215E-10 4.15184E-09
 -1       860-5.85648E+05 1.87497E+02-3.83647E+03 4.88534E+03 4.02633E-09 3.52657E-10
 -1       861-5.86083E+05-6.49321E+00-2.07666E+03 2.80076E+04-1.31023E-08-4.95515E-09
 -1       862-5.85789E+05 5.88957E+01-1.09705E+03 4.80828E+03 1.66460E-08-8.18432E-10
 -1       863-5.85979E+05 1.72603E+02-7.94188E+02 2.81024E+04 4.32119E-08-1.51772E-09
 -1       864-5.85799E+05 5.61377E+01-8.31675E+02 4.79017E+03 1.70010E-08-2.82009E-09
 -1       865-5.86043E+05 7.61294E+01-1.37951E+03 2.80782E+04 2.41430E-08-4.02314E-09
 -1       866-5.85713E+05 1.37115E+02-2.44814E+03 4.83254E+03-3.46358E-09 2.69785E-09
 -1       867-5.86715E+05-1.03187E+03-5.32778E+03 2.79323E+04-4.05271E-09 1.59014E-09
 -1       868-5.85059E+05 9.57583E+02-9.47733E+03 4.93703E+03 1.17152E-08-2.25418E-09
 -1       869-5.92807E+05-1.17122E+04-2.35103E+04 2.76094E+04-8.60905E-09-2.95199E-09
 -1       870-5.79500E+05 8.91200E+03-3.64988E+04 5.15981E+03 1.22409E-08-1.38971E-09
 -1       871-5.50914E+03-4.91195E+04-9.34423E+03 1.38036E+05 6.23550E-09-2.77487E-09
 -1       872-1.95472E+03-5.07591E+04-2.74983E+03 1.60774E+05 2.20462E-09-4.84624E-09
 -1       873-1.46314E+02-5.02197E+04 2.66654E+03 1.37783E+05 5.47880E-09-7.52152E-10
 -1       874 2.97644E+03-4.80343E+04 1.00530E+04 1.60896E+05-6.62294E-09 2.19552E-09
 -1       875 1.04816E+04-5.20205E+04 2.17723E+04 1.37949E+05 2.84854E-09 7.78527E-10
 -1       876 6.80326E+05 8.49342E+04 6.45547E+04 2.68273E+05 1.29817E-08 2.48838E-09
 -1       877 6.95099E+05 1.37081E+05 4.10264E+04 2.77658E+05 2.43517E-10 7.33780E-09
 -1       878 6.91495E+05 1.00458E+05 1.52445E+04 2.66595E+05 3.59091E-09 4.94856E-09
 -1       879 6.82284E+05 1.17243E+05 8.45871E+03 2.80285E+05-1.04137E-08 4.47017E-09
 -1       880 6.92709E+05 1.02278E+05 3.56288E+03 2.66552E+05 5.99857E-09-2.38128E-09
 -1       881 6.80893E+05 1.14958E+05 1.92508E+03 2.80319E+05-6.23493E-09-9.26730E-09
 -1       882 6.92804E+05 1.02541E+05 1.02134E+03 2.66614E+05 1.31977E-08 6.59691E-09
 -1       883 6.80799E+05 1.14675E+05 8.81417E+02 2.80224E+05-8.61104E-09 5.47659E-09
 -1       884 6.92777E+05 1.02559E+05 1.14398E+03 2.66636E+05-4.20225E-09 6.73026E-09
 -1       885 6.81001E+05 1.14931E+05 2.26272E+03 2.80213E+05 2.63395E-08 5.69611E-09
 -1       886 6.92605E+05 1.02304E+05 4.24745E+03 2.66619E+05 9.91622E-09-5.53837E-09
 -1       887 6.82756E+05 1.17558E+05 1.01058E+04 2.80027E+05-1.25083E-08-1.06247E-08
 -1       888 6.91086E+05 1.00195E+05 1.82352E+04 2.66733E+05-8.12420E-09-2.04636E-09
 -1       889 6.98171E+05 1.41170E+05 4.90612E+04 2.76731E+05 9.41986E-09-4.43833E-10
 -1       890 6.77667E+05 8.16991E+04 7.72208E+04 2.68801E+05-1.37516E-09 1.20053E-09
 -1       891 2.47815E+03-3.01410E+05-1.16078E+04 2.85777E+04 1.71531E-09-1.63709E-09
 -1       892-4.44237E+03-3.05401E+05-9.39277E+03 1.23398E+05 5.43514E-09-2.33172E-09
 -1       893 6.86895E+02-3.02740E+05-7.49237E+03 2.84093E+04-2.60729E-09 1.99711E-09
 -1       894-6.81613E+03-3.06752E+05-1.34851E+04 1.23382E+05-5.81440E-09 3.28873E-09
 -1       895 4.42459E+03-3.00025E+05-1.93048E+04 2.85931E+04-9.91349E-10 5.54155E-09
 -1       896 9.67636E+05-6.53784E+03 1.52267E+04 3.34874E+03-1.08571E-10 2.20371E-09
 -1       897 9.74659E+05 7.55942E+03 1.08412E+04-9.04454E+03 1.07586E-09 7.01448E-11
 -1       898 9.70356E+05-1.00902E+03 3.96448E+03 1.24067E+03 1.18442E-09-8.23093E-10
 -1       899 9.71466E+05 1.17092E+03 2.52465E+03-5.94032E+03 1.16179E-09-1.87563E-09
 -1       900 9.70814E+05-1.56958E+02 1.08504E+03 2.44485E+02 4.54449E-10-2.00657E-09
 -1       901 9.70936E+05 2.03005E+02 7.50731E+02-4.64993E+03 5.38009E-10-2.46411E-09
 -1       902 9.70882E+05-4.04977E+01 5.69718E+02-4.97311E+01 3.94265E-10-2.32271E-09
 -1       903 9.70924E+05 1.65268E+02 8.30645E+02-4.64360E+03 5.59055E-11-2.54364E-09
 -1       904 9.70826E+05-1.19387E+02 1.31917E+03 2.38155E+02-6.04203E-10-2.21024E-09
 -1       905 9.71367E+05 8.87801E+02 2.92218E+03-5.91873E+03 3.07409E-10-1.56768E-09
 -1       906 9.70442E+05-7.64678E+02 4.98797E+03 1.22542E+03 1.49612E-10-1.31081E-09
 -1       907 9.73982E+05 5.75093E+03 1.22787E+04-8.99629E+03 2.93696E-10 4.40878E-10
 -1       908 9.68225E+05-4.98100E+03 1.95165E+04 3.31577E+03 7.44649E-12 1.92995E-09
 -1       909 9.89446E+05 3.73100E+04 5.34686E+04-1.51999E+04-1.55293E-09 3.55794E-09
 -1       910 9.55029E+05-3.22640E+04 7.53368E+04 7.42882E+03-5.79121E-10 6.38829E-09
 -1       911 1.01497E+05 1.22537E+02-1.84191E+03 5.98546E+03 1.84400E-09 4.41287E-09
 -1       912 1.08344E+05-2.94406E+02 6.51632E+01-2.49585E+04 1.03114E-10-3.85712E-09
 -1       913 1.03195E+05 1.50338E+01-5.28584E+02 5.08858E+03-1.25021E-09-6.49348E-09
 -1       914 1.05464E+05 2.99022E+01 9.36489E+01-2.35509E+04-1.67296E-09-1.14170E-08
 -1       915 1.04094E+05-7.67207E-01-6.78076E+01 4.57769E+03 4.39883E-09-1.30260E-08
 -1       916 1.04228E+05 1.42283E+02 7.64536E+01-2.29096E+04 7.99207E-09-1.50422E-08
 -1       917 1.04309E+05-1.17840E+01 1.77283E+02 4.44788E+03 4.97847E-09-1.52179E-08
 -1       918 1.04500E+05 2.01380E+02 4.56869E+02-2.30264E+04 2.20462E-09-1.42159E-08
 -1       919 1.03845E+05-7.51496E+01 6.58797E+02 4.69440E+03 2.60178E-09-1.29145E-08
 -1       920 1.06494E+05 5.49959E+02 2.06896E+03-2.39053E+04 2.56205E-09-7.73781E-09
 -1       921 1.02482E+05-4.78084E+02 2.62174E+03 5.32611E+03-2.24372E-09-4.28588E-09
 -1       922 1.11535E+05 3.31600E+03 8.25605E+03-2.55779E+04-5.98561E-10 1.29467E-09
 -1       923 9.91454E+04-3.07420E+03 1.07892E+04 6.36832E+03-9.54742E-10 7.40147E-09
 -1       924 1.26534E+05 2.23271E+04 3.38130E+04-2.82163E+04-4.50382E-09 1.79657E-08
 -1       925 8.80566E+04-1.98295E+04 4.30506E+04 7.97323E+03-4.94265E-09 2.61443E-08
 -1       926-9.23750E+05 1.97441E+04-4.71548E+04-2.47408E+04 5.96947E-09 3.74712E-08
 -1       927-9.43495E+05-2.23703E+04-3.28971E+04 3.87408E+04-2.49690E-08 3.52102E-08
 -1       928-9.33805E+05 2.75702E+03-1.26131E+04-2.00395E+04 3.31511E-09 3.09888E-08
 -1       929-9.28316E+05-3.05818E+03-6.15804E+03 2.31743E+04 1.51522E-08 2.20562E-08
 -1       930-9.38349E+05 6.27779E+01-4.12610E+03-9.16720E+03 4.82714E-09 1.71819E-08
 -1       931-9.22987E+05-2.53402E+02 4.86958E+02-1.06176E+03-7.50333E-10 5.36477E-09
 -1       932-9.38778E+05-3.07270E+02-1.56823E+03 4.19397E+03-6.45059E-10-1.63851E-09
 -1       933-9.25826E+05 3.71687E+02 1.84483E+03-2.56119E+04-8.22229E-09-1.25929E-08
 -1       934-9.35818E+05-3.23918E+02 7.33419E+02 1.53771E+04 2.86900E-09-1.62997E-08
 -1       935-9.31364E+05 1.47198E+03 3.51967E+03-4.19144E+04-4.73676E-10-2.34385E-08
 -1       936-9.33815E+05-9.63313E+02 5.56586E+03 2.04996E+04 3.31988E-09-2.44779E-08
 -1       937-9.29816E+05 7.05626E+03 1.38766E+04-4.43499E+04-9.77640E-09-2.51239E-08
 -1       938-9.37470E+05-5.80515E+03 2.16479E+04 1.78141E+04-1.22312E-08-2.24518E-08
 -1       939-9.08044E+05 4.26379E+04 6.09928E+04-3.21828E+04-7.30165E-09-1.49375E-08
 -1       940-9.55050E+05-3.68030E+04 8.36882E+04 8.32836E+03-1.65483E-09-7.23230E-09
 -1       941 6.58139E+06-3.23857E+05 7.63856E+05 1.21046E+03 2.59436E-08 8.09086E-09
 -1       942 6.90915E+06 3.75532E+05 5.37647E+05 4.41748E+03 3.02792E-08-5.64614E-09
 -1       943 6.70855E+06-5.02014E+04 1.98145E+05 2.46483E+03 9.72266E-09 5.60249E-10
 -1       944 6.76218E+06 5.81578E+04 1.24066E+05 2.96718E+03 6.20574E-10-1.32422E-09
 -1       945 6.72950E+06-7.76558E+03 5.12171E+04 2.66112E+03 6.37406E-09 4.96402E-09
 -1       946 6.73823E+06 9.12240E+03 3.06190E+04 2.73719E+03 3.49994E-09 1.11454E-08
 -1       947 6.73295E+06-1.33048E+03 1.53949E+04 2.69506E+03 2.60916E-09 9.40281E-09
 -1       948 6.73476E+06 2.47573E+03 1.27231E+04 2.68162E+03-3.71173E-09 5.44489E-09
 -1       949 6.73307E+06-1.13784E+03 1.35631E+04 2.71674E+03-2.57683E-11-7.93170E-09
 -1       950 6.73732E+06 7.44851E+03 2.53544E+04 2.55443E+03 5.25098E-10 1.10381E-08
 -1       951 6.73032E+06-6.28891E+03 4.16966E+04 2.82222E+03 5.16658E-09-7.41784E-09
 -1       952 6.75665E+06 4.70406E+04 1.00476E+05 1.78965E+03-4.73072E-10-4.42560E-09
 -1       953 6.71337E+06-4.05993E+04 1.60286E+05 3.48129E+03-5.72766E-09 5.04951E-09
 -1       954 6.87552E+06 3.03692E+05 4.34811E+05-3.08712E+03-9.40234E-09 1.16415E-10
 -1       955 6.61038E+06-2.61936E+05 6.17353E+05 7.69656E+03-1.96323E-08 3.11411E-09
 -1       956-3.65765E+05-6.16621E+03-1.26819E+04 5.26552E+04-7.45786E-09 1.27329E-10
 -1       957-3.68075E+05-1.89858E+03-6.38315E+03 6.08921E+04-1.49521E-09-1.58138E-09
 -1       958-3.66850E+05-1.78229E+02-2.87333E+03 5.23316E+04 5.49335E-09-4.41742E-09
 -1       959-3.67098E+05 6.90527E+01-1.45853E+03 6.12454E+04-3.60160E-09-2.81625E-09
 -1       960-3.67019E+05 1.50695E+02-7.09691E+02 5.22955E+04-6.77574E-09-2.02226E-09
 -1       961-3.67075E+05 1.96041E+02-3.72943E+02 6.12863E+04-1.57356E-08 6.14318E-09
 -1       962-3.67088E+05 1.80757E+02-2.10765E+02 5.22896E+04-5.93627E-09-1.23191E-09
 -1       963-3.67115E+05 2.22719E+02-1.61803E+02 6.12941E+04-9.91713E-09 1.26374E-09
 -1       964-3.67121E+05 2.00418E+02-1.89379E+02 5.22873E+04 4.62978E-09-2.30602E-09
 -1       965-3.67149E+05 2.37476E+02-3.20980E+02 6.12949E+04 2.19740E-08 3.28691E-09
 -1       966-3.67119E+05 2.10229E+02-6.00413E+02 5.22886E+04 4.18339E-09-2.21007E-10
 -1       967-3.67231E+05 1.65090E+02-1.23554E+03 6.12771E+04 3.78350E-09 5.84214E-09
 -1       968-3.67028E+05-3.58662E+01-2.42920E+03 5.23057E+04 3.59751E-09-1.64005E-09
 -1       969-3.68119E+05-1.47324E+03-5.40688E+03 6.11045E+04-6.56200E-10 8.14453E-10
 -1       970-3.66149E+05-5.09141E+03-1.07376E+04 5.24719E+04 3.54339E-09-3.70801E-09
 -1       971-7.91660E+05 1.19611E+04-4.90903E+04 4.86996E+03-7.41784E-09 4.81668E-09
 -1       972-8.09454E+05-1.58467E+04-3.16159E+04 2.67422E+04-5.19276E-09 6.54336E-09
 -1       973-7.99132E+05 1.25868E+03-1.27473E+04 4.51288E+03-1.31545E-08 7.71433E-09
 -1       974-8.01258E+05-1.48100E+03-7.15627E+03 2.73039E+04 5.22436E-09 6.72435E-09
 -1       975-8.00013E+05 1.56800E+02-3.28295E+03 4.30410E+03 2.62844E-09 1.80921E-09
 -1       976-8.00371E+05 1.71602E+01-1.82562E+03 2.76315E+04-1.27525E-08 1.20100E-08
 -1       977-8.00132E+05 5.34382E+01-1.06460E+03 4.18414E+03 1.82563E-08 5.98880E-09
 -1       978-8.00312E+05 1.64889E+02-9.52150E+02 2.77893E+04 3.31398E-08 5.61363E-09
 -1       979-8.00130E+05 6.31474E+01-1.24815E+03 4.14584E+03 1.46722E-08 5.95887E-09
 -1       980-8.00462E+05-1.49411E+01-2.31827E+03 2.77828E+04 1.93186E-08 1.07052E-08
 -1       981-7.99981E+05 2.15369E+02-4.25057E+03 4.19074E+03-5.04110E-09 4.78394E-09
 -1       982-8.01696E+05-1.94772E+03-9.34879E+03 2.76098E+04-3.20142E-09 9.38189E-09
 -1       983-7.98839E+05 1.67597E+03-1.66505E+04 4.32014E+03 9.69294E-09-2.04636E-10
 -1       984-8.12500E+05-2.07152E+04-4.13651E+04 2.72260E+04-8.94033E-09 5.76483E-09
 -1       985-7.89071E+05 1.57030E+04-6.41880E+04 4.58207E+03 1.51231E-08 8.58563E-10
 -3
 9999
