
 stresses (elem, integ.pnt.,sxx,syy,szz,sxy,sxz,syz) for set ELALL and time  0.1000000E+01

         1   1  3.484600E+06  1.285740E+07  3.322232E+06 -2.187935E+06  1.674399E+05  1.150524E+06
         1   2  2.822778E+06  1.094853E+07  2.299271E+06 -1.976138E+06  5.591755E+05  5.106835E+05
         1   3  2.346363E+06  9.180327E+06  1.736116E+06 -2.106285E+06  6.410694E+05 -1.267440E+05
         1   4  1.272771E+05 -8.405053E+05  1.358309E+05 -2.059331E+06  1.720433E+05  8.916239E+04
         1   5  3.076761E+04 -8.508856E+05  6.967994E+04 -1.888691E+06  5.626731E+05  5.658845E+04
         1   6  1.711120E+04 -8.266560E+05  4.716726E+04 -2.060033E+06  6.408357E+05  2.431607E+04
         1   7 -3.242604E+06 -1.436507E+07 -3.059085E+06 -1.933117E+06  1.762946E+05 -9.493157E+05
         1   8 -2.769211E+06 -1.251692E+07 -2.165331E+06 -1.802565E+06  5.660925E+05 -3.892042E+05
         1   9 -2.317382E+06 -1.073583E+07 -1.644919E+06 -2.014219E+06  6.406213E+05  1.730444E+05
         1  10  3.484222E+06  1.285599E+07  3.319737E+06 -2.188090E+06 -2.183476E-09  8.609631E-10
         1  11  2.822373E+06  1.094817E+07  2.298197E+06 -1.976366E+06 -5.180816E-10  4.642293E-09
         1  12  2.345918E+06  9.180199E+06  1.735315E+06 -2.106220E+06  5.615937E-09  8.195006E-09
         1  13  1.272431E+05 -8.405219E+05  1.357602E+05 -2.059343E+06  8.638514E-09  1.930264E-11
         1  14  3.042679E+04 -8.509741E+05  6.907877E+04 -1.888717E+06 -7.124316E-09  9.996929E-12
         1  15  1.667017E+04 -8.267668E+05  4.639448E+04 -2.060046E+06  8.825205E-09 -1.500651E-10
         1  16 -3.242885E+06 -1.436606E+07 -3.060874E+06 -1.932982E+06  2.112562E-09 -1.114149E-09
         1  17 -2.769595E+06 -1.251717E+07 -2.166220E+06 -1.802387E+06  6.957300E-09 -4.705966E-09
         1  18 -2.317831E+06 -1.073597E+07 -1.645749E+06 -2.014309E+06  1.277639E-09 -7.736860E-09
         1  19  3.484600E+06  1.285740E+07  3.322232E+06 -2.187935E+06 -1.674399E+05 -1.150524E+06
         1  20  2.822778E+06  1.094853E+07  2.299271E+06 -1.976138E+06 -5.591755E+05 -5.106835E+05
         1  21  2.346363E+06  9.180327E+06  1.736116E+06 -2.106285E+06 -6.410694E+05  1.267440E+05
         1  22  1.272771E+05 -8.405053E+05  1.358309E+05 -2.059331E+06 -1.720433E+05 -8.916239E+04
         1  23  3.076761E+04 -8.508856E+05  6.967994E+04 -1.888691E+06 -5.626731E+05 -5.658845E+04
         1  24  1.711120E+04 -8.266560E+05  4.716726E+04 -2.060033E+06 -6.408357E+05 -2.431607E+04
         1  25 -3.242604E+06 -1.436507E+07 -3.059085E+06 -1.933117E+06 -1.762946E+05  9.493157E+05
         1  26 -2.769211E+06 -1.251692E+07 -2.165331E+06 -1.802565E+06 -5.660925E+05  3.892042E+05
         1  27 -2.317382E+06 -1.073583E+07 -1.644919E+06 -2.014219E+06 -6.406213E+05 -1.730444E+05
         2   1  2.071171E+06  7.987789E+06  1.504384E+06 -2.119008E+06  5.862058E+05 -1.189165E+05
         2   2  1.637181E+06  6.141992E+06  1.152419E+06 -1.925646E+06  5.008007E+05 -2.012143E+05
         2   3  1.231520E+06  4.316179E+06  8.603837E+05 -2.095864E+06  3.831698E+05 -2.839580E+05
         2   4  2.247572E+04 -8.289041E+05  4.124784E+04 -2.064844E+06  5.857971E+05  1.676914E+04
         2   5  2.483599E+04 -8.276290E+05  3.918682E+04 -1.882883E+06  4.994292E+05 -2.984723E+03
         2   6  4.497206E+04 -8.203998E+05  5.399695E+04 -2.064742E+06  3.806477E+05 -2.341441E+04
         2   7 -2.030227E+06 -9.569358E+06 -1.424179E+06 -2.011199E+06  5.854077E+05  1.506097E+05
         2   8 -1.589915E+06 -7.749160E+06 -1.075177E+06 -1.840440E+06  4.980743E+05  1.931160E+05
         2   9 -1.142838E+06 -5.930636E+06 -7.527810E+05 -2.033781E+06  3.781374E+05  2.350651E+05
         2  10  2.070799E+06  7.987681E+06  1.503713E+06 -2.118952E+06  1.083153E-08 -4.347891E-08
         2  11  1.636901E+06  6.141882E+06  1.151874E+06 -1.925566E+06  1.553108E-08  6.349146E-09
         2  12  1.231341E+06  4.316054E+06  8.599591E+05 -2.095777E+06 -8.365054E-09  5.628758E-08
         2  13  2.210727E+04 -8.289964E+05  4.060257E+04 -2.064852E+06  8.871509E-09 -2.942571E-11
         2  14  2.456828E+04 -8.276959E+05  3.871829E+04 -1.882882E+06  5.113797E-09 -1.510567E-10
         2  15  4.481645E+04 -8.204392E+05  5.372391E+04 -2.064735E+06  2.535194E-09 -1.659183E-10
         2  16 -2.030602E+06 -9.569475E+06 -1.424867E+06 -2.011270E+06 -9.292084E-09  4.289317E-08
         2  17 -1.590192E+06 -7.749267E+06 -1.075715E+06 -1.840518E+06 -6.077937E-09 -6.377968E-09
         2  18 -1.143007E+06 -5.930735E+06 -7.531558E+05 -2.033853E+06 -6.801342E-09 -5.605037E-08
         2  19  2.071171E+06  7.987789E+06  1.504384E+06 -2.119008E+06 -5.862058E+05  1.189165E+05
         2  20  1.637181E+06  6.141992E+06  1.152419E+06 -1.925646E+06 -5.008007E+05  2.012143E+05
         2  21  1.231520E+06  4.316179E+06  8.603837E+05 -2.095864E+06 -3.831698E+05  2.839580E+05
         2  22  2.247572E+04 -8.289041E+05  4.124784E+04 -2.064844E+06 -5.857971E+05 -1.676914E+04
         2  23  2.483599E+04 -8.276290E+05  3.918682E+04 -1.882883E+06 -4.994292E+05  2.984723E+03
         2  24  4.497206E+04 -8.203998E+05  5.399695E+04 -2.064742E+06 -3.806477E+05  2.341441E+04
         2  25 -2.030227E+06 -9.569358E+06 -1.424179E+06 -2.011199E+06 -5.854077E+05 -1.506097E+05
         2  26 -1.589915E+06 -7.749160E+06 -1.075177E+06 -1.840440E+06 -4.980743E+05 -1.931160E+05
         2  27 -1.142838E+06 -5.930636E+06 -7.527810E+05 -2.033781E+06 -3.781374E+05 -2.350651E+05
         3   1  9.644065E+05  3.152878E+06  6.812292E+05 -2.099751E+06  3.034786E+05 -2.923810E+05
         3   2  5.815842E+05  1.307073E+06  4.365391E+05 -1.833795E+06  1.711651E+05 -3.450743E+05
         3   3  3.094834E+05 -5.070534E+05  2.519615E+05 -1.933290E+06  4.194432E+04 -3.978040E+05
         3   4  4.895334E+04 -8.132215E+05  6.620985E+04 -2.065247E+06  3.007413E+05 -3.331261E+04
         3   5  9.176154E+04 -8.264652E+05  1.124774E+05 -1.881672E+06  1.683571E+05 -9.220638E+04
         3   6  2.465703E+05 -8.105039E+05  2.229787E+05 -2.063384E+06  3.908179E+04 -1.512681E+05
         3   7 -8.672295E+05 -4.763510E+06 -5.489222E+05 -2.030906E+06  2.980208E+05  2.241701E+05
         3   8 -3.982327E+05 -2.955300E+06 -2.114375E+05 -1.929361E+06  1.655036E+05  1.598282E+05
         3   9  1.837519E+05 -1.113689E+06  1.942359E+05 -2.193410E+06  3.611481E+04  9.515462E+04
         3  10  9.642853E+05  3.152762E+06  6.808977E+05 -2.099680E+06 -6.808931E-09 -4.776840E-08
         3  11  5.815212E+05  1.306937E+06  4.362615E+05 -1.833747E+06 -7.114541E-09 -1.258700E-08
         3  12  3.094391E+05 -5.072238E+05  2.516608E+05 -1.933277E+06 -3.195304E-09  2.273482E-08
         3  13  4.885602E+04 -8.132469E+05  6.603804E+04 -2.065239E+06 -7.676828E-09 -1.301994E-10
         3  14  9.172891E+04 -8.264818E+05  1.124084E+05 -1.881660E+06 -6.809541E-09  2.053319E-10
         3  15  2.465625E+05 -8.105289E+05  2.229329E+05 -2.063379E+06  2.810743E-09 -2.815871E-11
         3  16 -8.673388E+05 -4.763588E+06 -5.491852E+05 -2.030960E+06 -6.388973E-09  4.774292E-08
         3  17 -3.982691E+05 -2.955335E+06 -2.115376E+05 -1.929383E+06 -7.311970E-09  1.294086E-08
         3  18  1.837481E+05 -1.113699E+06  1.942163E+05 -2.193413E+06 -1.177828E-09 -2.253197E-08
         3  19  9.644065E+05  3.152878E+06  6.812292E+05 -2.099751E+06 -3.034786E+05  2.923810E+05
         3  20  5.815842E+05  1.307073E+06  4.365391E+05 -1.833795E+06 -1.711651E+05  3.450743E+05
         3  21  3.094834E+05 -5.070534E+05  2.519615E+05 -1.933290E+06 -4.194432E+04  3.978040E+05
         3  22  4.895334E+04 -8.132215E+05  6.620985E+04 -2.065247E+06 -3.007413E+05  3.331261E+04
         3  23  9.176154E+04 -8.264652E+05  1.124774E+05 -1.881672E+06 -1.683571E+05  9.220638E+04
         3  24  2.465703E+05 -8.105039E+05  2.229787E+05 -2.063384E+06 -3.908179E+04  1.512681E+05
         3  25 -8.672295E+05 -4.763510E+06 -5.489222E+05 -2.030906E+06 -2.980208E+05 -2.241701E+05
         3  26 -3.982327E+05 -2.955300E+06 -2.114375E+05 -1.929361E+06 -1.655036E+05 -1.598282E+05
         3  27  1.837519E+05 -1.113689E+06  1.942359E+05 -2.193410E+06 -3.611481E+04 -9.515462E+04
         4   1 -6.570012E+06 -1.995300E+06 -1.275930E+06 -2.292051E+06 -6.667192E+05 -2.414091E+05
         4   2 -6.351464E+06 -9.720627E+05 -6.376506E+05 -2.401874E+06 -4.306531E+05 -1.377419E+05
         4   3 -6.474300E+06 -1.014251E+06 -4.537471E+05 -2.327748E+06 -1.878699E+05 -5.193679E+04
         4   4 -5.832115E+06 -1.553005E+06 -1.040030E+06 -1.924646E+06 -6.597946E+05 -2.390376E+05
         4   5 -5.608778E+06 -6.481546E+05 -4.278637E+05 -2.155749E+06 -4.294658E+05 -1.373382E+05
         4   6 -5.725202E+06 -8.068986E+05 -2.650599E+05 -2.203050E+06 -1.924225E+05 -5.360769E+04
         4   7 -5.093617E+06 -1.110372E+06 -8.041816E+05 -1.556761E+06 -6.528605E+05 -2.366577E+05
         4   8 -4.865550E+06 -3.241599E+05 -2.181297E+05 -1.909337E+06 -4.282767E+05 -1.369336E+05
         4   9 -4.975551E+06 -5.995617E+05 -7.641205E+04 -2.078243E+06 -1.969811E+05 -5.527944E+04
         4  10 -6.570510E+06 -1.995484E+06 -1.276886E+06 -2.292182E+06  6.394285E-09  8.974667E-10
         4  11 -6.351670E+06 -9.721338E+05 -6.380394E+05 -2.401922E+06  1.047187E-08  4.633630E-09
         4  12 -6.474339E+06 -1.014264E+06 -4.538194E+05 -2.327756E+06  5.974929E-09  1.183271E-09
         4  13 -5.832602E+06 -1.553185E+06 -1.040966E+06 -1.924774E+06  3.937088E-09  1.616373E-09
         4  14 -5.608983E+06 -6.482252E+05 -4.282498E+05 -2.155797E+06  2.969591E-09  4.288034E-09
         4  15 -5.725243E+06 -8.069118E+05 -2.651356E+05 -2.203058E+06 -1.347480E-10  4.652725E-10
         4  16 -5.094093E+06 -1.110549E+06 -8.050961E+05 -1.556886E+06 -5.511398E-09  2.372889E-09
         4  17 -4.865753E+06 -3.242300E+05 -2.185131E+05 -1.909385E+06 -1.145183E-08  3.614067E-09
         4  18 -4.975594E+06 -5.995755E+05 -7.649144E+04 -2.078252E+06 -5.096841E-09 -1.238540E-10
         4  19 -6.570012E+06 -1.995300E+06 -1.275930E+06 -2.292051E+06  6.667192E+05  2.414091E+05
         4  20 -6.351464E+06 -9.720627E+05 -6.376506E+05 -2.401874E+06  4.306531E+05  1.377419E+05
         4  21 -6.474300E+06 -1.014251E+06 -4.537471E+05 -2.327748E+06  1.878699E+05  5.193679E+04
         4  22 -5.832115E+06 -1.553005E+06 -1.040030E+06 -1.924646E+06  6.597946E+05  2.390376E+05
         4  23 -5.608778E+06 -6.481546E+05 -4.278637E+05 -2.155749E+06  4.294658E+05  1.373382E+05
         4  24 -5.725202E+06 -8.068986E+05 -2.650599E+05 -2.203050E+06  1.924225E+05  5.360769E+04
         4  25 -5.093617E+06 -1.110372E+06 -8.041816E+05 -1.556761E+06  6.528605E+05  2.366577E+05
         4  26 -4.865550E+06 -3.241599E+05 -2.181297E+05 -1.909337E+06  4.282767E+05  1.369336E+05
         4  27 -4.975551E+06 -5.995617E+05 -7.641205E+04 -2.078243E+06  1.969811E+05  5.527944E+04
         5   1 -6.140979E+06 -1.119861E+06 -3.445712E+05 -2.286933E+06 -1.513870E+05 -4.374994E+04
         5   2 -6.052016E+06 -9.099448E+05 -1.982232E+05 -2.228329E+06 -9.685008E+04 -2.599363E+04
         5   3 -5.930806E+06 -9.188264E+05 -1.277350E+05 -2.238879E+06 -4.144828E+04 -1.053575E+04
         5   4 -5.686269E+06 -9.287914E+05 -2.172806E+05 -2.143720E+06 -1.518254E+05 -4.391994E+04
         5   5 -5.695543E+06 -7.709046E+05 -1.006387E+05 -2.127149E+06 -9.801926E+04 -2.643006E+04
         5   6 -5.672397E+06 -8.316153E+05 -5.922423E+04 -2.179740E+06 -4.335795E+04 -1.124474E+04
         5   7 -5.231357E+06 -7.376959E+05 -9.000975E+04 -2.000406E+06 -1.522641E+05 -4.409008E+04
         5   8 -5.338948E+06 -6.318550E+05 -3.065988E+03 -2.025915E+06 -9.918916E+04 -2.686678E+04
         5   9 -5.413925E+06 -7.444039E+05  9.280670E+03 -2.120580E+06 -4.526848E+04 -1.195398E+04
         5  10 -6.141005E+06 -1.119869E+06 -3.446184E+05 -2.286939E+06 -3.407972E-09 -2.712590E-09
         5  11 -6.052026E+06 -9.099481E+05 -1.982423E+05 -2.228331E+06 -2.794358E-09 -2.470321E-09
         5  12 -5.930808E+06 -9.188270E+05 -1.277385E+05 -2.238879E+06  1.545283E-08 -1.859317E-09
         5  13 -5.686295E+06 -9.287998E+05 -2.173281E+05 -2.143725E+06 -8.094267E-09 -1.868491E-09
         5  14 -5.695554E+06 -7.709080E+05 -1.006583E+05 -2.127151E+06  3.869678E-09 -2.151580E-09
         5  15 -5.672399E+06 -8.316160E+05 -5.922804E+04 -2.179740E+06  2.129813E-09 -2.615649E-09
         5  16 -5.231382E+06 -7.377043E+05 -9.005742E+04 -2.000412E+06  2.024778E-09 -1.865135E-09
         5  17 -5.338959E+06 -6.318584E+05 -3.086028E+03 -2.025918E+06  1.022143E-08 -3.159197E-09
         5  18 -5.413927E+06 -7.444047E+05  9.276509E+03 -2.120580E+06 -1.016875E-08 -9.406840E-10
         5  19 -6.140979E+06 -1.119861E+06 -3.445712E+05 -2.286933E+06  1.513870E+05  4.374994E+04
         5  20 -6.052016E+06 -9.099448E+05 -1.982232E+05 -2.228329E+06  9.685008E+04  2.599363E+04
         5  21 -5.930806E+06 -9.188264E+05 -1.277350E+05 -2.238879E+06  4.144828E+04  1.053575E+04
         5  22 -5.686269E+06 -9.287914E+05 -2.172806E+05 -2.143720E+06  1.518254E+05  4.391994E+04
         5  23 -5.695543E+06 -7.709046E+05 -1.006387E+05 -2.127149E+06  9.801926E+04  2.643006E+04
         5  24 -5.672397E+06 -8.316153E+05 -5.922423E+04 -2.179740E+06  4.335795E+04  1.124474E+04
         5  25 -5.231357E+06 -7.376959E+05 -9.000975E+04 -2.000406E+06  1.522641E+05  4.409008E+04
         5  26 -5.338948E+06 -6.318550E+05 -3.065988E+03 -2.025915E+06  9.918916E+04  2.686678E+04
         5  27 -5.413925E+06 -7.444039E+05  9.280670E+03 -2.120580E+06  4.526848E+04  1.195398E+04
         6   1 -5.650348E+06 -8.437951E+05 -4.250891E+04 -2.170443E+06 -3.216213E+04 -1.050196E+04
         6   2 -5.578261E+06 -7.383686E+05  1.158262E+04 -2.088690E+06 -1.849605E+04 -1.037324E+04
         6   3 -5.421680E+06 -7.425750E+05  5.199416E+04 -2.110022E+06 -4.810458E+03 -1.028397E+04
         6   4 -5.666444E+06 -8.475971E+05 -4.681644E+04 -2.172343E+06 -3.360692E+04 -1.103890E+04
         6   5 -5.707799E+06 -7.865946E+05 -2.343726E+04 -2.123080E+06 -1.995449E+04 -1.091550E+04
         6   6 -5.664664E+06 -8.352251E+05 -1.372388E+04 -2.176910E+06 -6.285002E+03 -1.083250E+04
         6   7 -5.682540E+06 -8.513991E+05 -5.112401E+04 -2.174242E+06 -3.505167E+04 -1.157585E+04
         6   8 -5.837321E+06 -8.348199E+05 -5.845875E+04 -2.157464E+06 -2.141261E+04 -1.145764E+04
         6   9 -5.907592E+06 -9.278716E+05 -7.944736E+04 -2.243773E+06 -7.758911E+03 -1.138078E+04
         6  10 -5.650349E+06 -8.437955E+05 -4.251108E+04 -2.170444E+06  9.347772E-09 -9.869230E-10
         6  11 -5.578261E+06 -7.383688E+05  1.158177E+04 -2.088690E+06 -1.095116E-09  2.174157E-09
         6  12 -5.421680E+06 -7.425752E+05  5.199391E+04 -2.110022E+06 -1.459062E-09  1.590948E-09
         6  13 -5.666445E+06 -8.475975E+05 -4.681882E+04 -2.172343E+06 -1.278911E-08 -1.748806E-09
         6  14 -5.707799E+06 -7.865948E+05 -2.343824E+04 -2.123080E+06 -9.342868E-09  2.147976E-09
         6  15 -5.664665E+06 -8.352253E+05 -1.372417E+04 -2.176910E+06  4.310536E-09  1.750591E-09
         6  16 -5.682541E+06 -8.513996E+05 -5.112659E+04 -2.174242E+06 -6.884608E-09 -1.020408E-09
         6  17 -5.837322E+06 -8.348201E+05 -5.845987E+04 -2.157464E+06  6.109141E-09  5.446075E-10
         6  18 -5.907592E+06 -9.278718E+05 -7.944772E+04 -2.243773E+06  2.289111E-09  1.547425E-09
         6  19 -5.650348E+06 -8.437951E+05 -4.250891E+04 -2.170443E+06  3.216213E+04  1.050196E+04
         6  20 -5.578261E+06 -7.383686E+05  1.158262E+04 -2.088690E+06  1.849605E+04  1.037324E+04
         6  21 -5.421680E+06 -7.425750E+05  5.199416E+04 -2.110022E+06  4.810458E+03  1.028397E+04
         6  22 -5.666444E+06 -8.475971E+05 -4.681644E+04 -2.172343E+06  3.360692E+04  1.103890E+04
         6  23 -5.707799E+06 -7.865946E+05 -2.343726E+04 -2.123080E+06  1.995449E+04  1.091550E+04
         6  24 -5.664664E+06 -8.352251E+05 -1.372388E+04 -2.176910E+06  6.285002E+03  1.083250E+04
         6  25 -5.682540E+06 -8.513991E+05 -5.112401E+04 -2.174242E+06  3.505167E+04  1.157585E+04
         6  26 -5.837321E+06 -8.348199E+05 -5.845875E+04 -2.157464E+06  2.141261E+04  1.145764E+04
         6  27 -5.907592E+06 -9.278716E+05 -7.944736E+04 -2.243773E+06  7.758911E+03  1.138078E+04
         7   1 -5.171838E+06 -6.478026E+05  1.237682E+05 -2.038984E+06 -1.831193E+03 -1.214438E+04
         7   2 -5.114081E+06 -5.701613E+05  1.539043E+05 -1.967769E+06  2.727182E+03 -1.511433E+04
         7   3 -4.978426E+06 -5.730885E+05  1.813322E+05 -1.986057E+06  7.037928E+03 -1.739688E+04
         7   4 -5.666898E+06 -8.337628E+05 -1.077509E+04 -2.172068E+06 -3.312619E+03 -1.269628E+04
         7   5 -5.705743E+06 -7.929292E+05 -6.477218E+03 -2.127504E+06  1.472755E+03 -1.558313E+04
         7   6 -5.666743E+06 -8.327169E+05 -5.069427E+03 -2.172452E+06  6.009864E+03 -1.778242E+04
         7   7 -6.161719E+06 -1.019709E+06 -1.453400E+05 -2.305055E+06 -4.792728E+03 -1.324770E+04
         7   8 -6.297065E+06 -1.015677E+06 -1.668900E+05 -2.287101E+06  2.196570E+02 -1.605144E+04
         7   9 -6.354601E+06 -1.092319E+06 -1.915138E+05 -2.358660E+06  4.983063E+03 -1.816749E+04
         7  10 -5.171838E+06 -6.478028E+05  1.237679E+05 -2.038984E+06  4.010128E-09  1.012737E-09
         7  11 -5.114081E+06 -5.701615E+05  1.539038E+05 -1.967769E+06  2.667319E-09  2.437068E-10
         7  12 -4.978426E+06 -5.730888E+05  1.813315E+05 -1.986057E+06 -4.233451E-09 -1.918456E-10
         7  13 -5.666898E+06 -8.337630E+05 -1.077541E+04 -2.172068E+06 -1.365890E-09 -2.951814E-10
         7  14 -5.705743E+06 -7.929295E+05 -6.477678E+03 -2.127504E+06 -9.877989E-09  1.537822E-09
         7  15 -5.666743E+06 -8.327173E+05 -5.070087E+03 -2.172452E+06  3.473772E-09 -1.868431E-10
         7  16 -6.161719E+06 -1.019709E+06 -1.453404E+05 -2.305055E+06  2.831403E-09  5.359749E-10
         7  17 -6.297065E+06 -1.015677E+06 -1.668905E+05 -2.287101E+06  1.826072E-08 -5.358676E-10
         7  18 -6.354601E+06 -1.092319E+06 -1.915145E+05 -2.358660E+06  4.729255E-09 -8.297055E-10
         7  19 -5.171838E+06 -6.478026E+05  1.237682E+05 -2.038984E+06  1.831193E+03  1.214438E+04
         7  20 -5.114081E+06 -5.701613E+05  1.539043E+05 -1.967769E+06 -2.727182E+03  1.511433E+04
         7  21 -4.978426E+06 -5.730885E+05  1.813322E+05 -1.986057E+06 -7.037928E+03  1.739688E+04
         7  22 -5.666898E+06 -8.337628E+05 -1.077509E+04 -2.172068E+06  3.312619E+03  1.269628E+04
         7  23 -5.705743E+06 -7.929292E+05 -6.477218E+03 -2.127504E+06 -1.472755E+03  1.558313E+04
         7  24 -5.666743E+06 -8.327169E+05 -5.069427E+03 -2.172452E+06 -6.009864E+03  1.778242E+04
         7  25 -6.161719E+06 -1.019709E+06 -1.453400E+05 -2.305055E+06  4.792728E+03  1.324770E+04
         7  26 -6.297065E+06 -1.015677E+06 -1.668900E+05 -2.287101E+06 -2.196570E+02  1.605144E+04
         7  27 -6.354601E+06 -1.092319E+06 -1.915138E+05 -2.358660E+06 -4.983063E+03  1.816749E+04
         8   1 -4.799414E+06 -4.963543E+05  2.323409E+05 -1.928287E+06  8.667254E+03 -1.896090E+04
         8   2 -4.765499E+06 -4.491667E+05  2.466605E+05 -1.884139E+06  1.251245E+04 -2.077575E+04
         8   3 -4.682246E+06 -4.518470E+05  2.588971E+05 -1.893870E+06  1.594372E+04 -2.146557E+04
         8   4 -5.673171E+06 -8.257888E+05 -4.905416E+03 -2.164619E+06  7.524121E+03 -1.939068E+04
         8   5 -5.697920E+06 -8.016226E+05 -6.316311E+03 -2.137375E+06  1.174124E+04 -2.106780E+04
         8   6 -5.673409E+06 -8.274073E+05 -1.010967E+04 -2.164015E+06  1.554384E+04 -2.161915E+04
         8   7 -6.546186E+06 -1.155179E+06 -2.422201E+05 -2.400649E+06  6.382774E+03 -1.981979E+04
         8   8 -6.629499E+06 -1.154028E+06 -2.593715E+05 -2.390265E+06  1.097131E+04 -2.135936E+04
         8   9 -6.663623E+06 -1.202910E+06 -2.792056E+05 -2.433769E+06  1.514466E+04 -2.177248E+04
         8  10 -4.799415E+06 -4.963547E+05  2.323400E+05 -1.928286E+06  4.612840E-09 -1.727306E-09
         8  11 -4.765500E+06 -4.491672E+05  2.466594E+05 -1.884139E+06 -3.101322E-09  2.113486E-10
         8  12 -4.682246E+06 -4.518475E+05  2.588958E+05 -1.893870E+06 -4.449813E-09  6.192133E-11
         8  13 -5.673171E+06 -8.257892E+05 -4.906226E+03 -2.164619E+06  2.543185E-10  6.331089E-11
         8  14 -5.697921E+06 -8.016231E+05 -6.317402E+03 -2.137375E+06  1.682705E-09 -4.530488E-10
         8  15 -5.673410E+06 -8.274079E+05 -1.011100E+04 -2.164015E+06 -1.656333E-08 -1.534121E-09
         8  16 -6.546186E+06 -1.155180E+06 -2.422209E+05 -2.400649E+06 -1.164556E-08  9.564240E-10
         8  17 -6.629499E+06 -1.154029E+06 -2.593725E+05 -2.390264E+06 -4.890190E-09  2.951270E-10
         8  18 -6.663623E+06 -1.202911E+06 -2.792069E+05 -2.433768E+06 -5.211685E-09 -9.281390E-10
         8  19 -4.799414E+06 -4.963543E+05  2.323409E+05 -1.928287E+06 -8.667254E+03  1.896090E+04
         8  20 -4.765499E+06 -4.491667E+05  2.466605E+05 -1.884139E+06 -1.251245E+04  2.077575E+04
         8  21 -4.682246E+06 -4.518470E+05  2.588971E+05 -1.893870E+06 -1.594372E+04  2.146557E+04
         8  22 -5.673171E+06 -8.257888E+05 -4.905416E+03 -2.164619E+06 -7.524121E+03  1.939068E+04
         8  23 -5.697920E+06 -8.016226E+05 -6.316311E+03 -2.137375E+06 -1.174124E+04  2.106780E+04
         8  24 -5.673409E+06 -8.274073E+05 -1.010967E+04 -2.164015E+06 -1.554384E+04  2.161915E+04
         8  25 -6.546186E+06 -1.155179E+06 -2.422201E+05 -2.400649E+06 -6.382774E+03  1.981979E+04
         8  26 -6.629499E+06 -1.154028E+06 -2.593715E+05 -2.390265E+06 -1.097131E+04  2.135936E+04
         8  27 -6.663623E+06 -1.202910E+06 -2.792056E+05 -2.433769E+06 -1.514466E+04  2.177248E+04
         9   1 -4.609231E+06 -4.108861E+05  2.787421E+05 -1.863338E+06  1.828607E+04 -2.155610E+04
         9   2 -4.604307E+06 -3.997224E+05  2.717108E+05 -1.854286E+06  2.948581E+04 -1.847776E+04
         9   3 -4.595643E+06 -4.113394E+05  2.531282E+05 -1.849324E+06  4.014815E+04 -1.397454E+04
         9   4 -5.682910E+06 -8.165976E+05 -1.269857E+04 -2.154784E+06  1.770254E+04 -2.177953E+04
         9   5 -5.685594E+06 -8.109554E+05 -2.212325E+04 -2.150553E+06  2.936059E+04 -1.852885E+04
         9   6 -5.684643E+06 -8.282075E+05 -4.348177E+04 -2.150413E+06  4.048063E+04 -1.385227E+04
         9   7 -6.755472E+06 -1.222243E+06 -3.042432E+05 -2.445772E+06  1.712012E+04 -2.200255E+04
         9   8 -6.765745E+06 -1.222117E+06 -3.160628E+05 -2.446351E+06  2.923560E+04 -1.857987E+04
         9   9 -6.772491E+06 -1.244999E+06 -3.401988E+05 -2.451019E+06  4.081241E+04 -1.373027E+04
         9  10 -4.609231E+06 -4.108867E+05  2.787406E+05 -1.863337E+06 -1.722520E-09 -1.626486E-09
         9  11 -4.604308E+06 -3.997230E+05  2.717086E+05 -1.854285E+06  7.024333E-10 -7.345103E-09
         9  12 -4.595645E+06 -4.113400E+05  2.531248E+05 -1.849324E+06 -1.730025E-09 -2.458998E-09
         9  13 -5.682910E+06 -8.165982E+05 -1.270005E+04 -2.154784E+06 -8.089573E-09 -2.166272E-09
         9  14 -5.685595E+06 -8.109560E+05 -2.212552E+04 -2.150553E+06 -1.649736E-08 -2.953133E-09
         9  15 -5.684645E+06 -8.282081E+05 -4.348523E+04 -2.150413E+06 -7.535557E-09  7.877641E-10
         9  16 -6.755472E+06 -1.222243E+06 -3.042447E+05 -2.445772E+06 -4.491906E-09 -3.098070E-09
         9  17 -6.765746E+06 -1.222118E+06 -3.160650E+05 -2.446350E+06  9.199366E-09  1.429190E-11
         9  18 -6.772493E+06 -1.245000E+06 -3.402024E+05 -2.451018E+06  6.330112E-09  4.121208E-10
         9  19 -4.609231E+06 -4.108861E+05  2.787421E+05 -1.863338E+06 -1.828607E+04  2.155610E+04
         9  20 -4.604307E+06 -3.997224E+05  2.717108E+05 -1.854286E+06 -2.948581E+04  1.847776E+04
         9  21 -4.595643E+06 -4.113394E+05  2.531282E+05 -1.849324E+06 -4.014815E+04  1.397454E+04
         9  22 -5.682910E+06 -8.165976E+05 -1.269857E+04 -2.154784E+06 -1.770254E+04  2.177953E+04
         9  23 -5.685594E+06 -8.109554E+05 -2.212325E+04 -2.150553E+06 -2.936059E+04  1.852885E+04
         9  24 -5.684643E+06 -8.282075E+05 -4.348177E+04 -2.150413E+06 -4.048063E+04  1.385227E+04
         9  25 -6.755472E+06 -1.222243E+06 -3.042432E+05 -2.445772E+06 -1.712012E+04  2.200255E+04
         9  26 -6.765745E+06 -1.222117E+06 -3.160628E+05 -2.446351E+06 -2.923560E+04  1.857987E+04
         9  27 -6.772491E+06 -1.244999E+06 -3.401988E+05 -2.451019E+06 -4.081241E+04  1.373027E+04
        10   1 -4.639782E+06 -4.109397E+05  2.309713E+05 -1.866525E+06  4.844922E+04 -1.053241E+04
        10   2 -4.657328E+06 -4.179303E+05  1.806953E+05 -1.884154E+06  9.658412E+04  8.981085E+03
        10   3 -4.758900E+06 -5.104891E+05  6.166509E+04 -1.831298E+06  1.438057E+05  3.085973E+04
        10   4 -5.698687E+06 -8.050690E+05 -5.508261E+04 -2.147945E+06  4.836136E+04 -1.056861E+04
        10   5 -5.663270E+06 -8.068603E+05 -9.390608E+04 -2.166199E+06  9.721113E+04  9.216009E+03
        10   6 -5.712105E+06 -8.944826E+05 -2.021383E+05 -2.113942E+06  1.451513E+05  3.136640E+04
        10   7 -6.756508E+06 -1.199143E+06 -3.412372E+05 -2.428934E+06  4.827360E+04 -1.060477E+04
        10   8 -6.668232E+06 -1.195721E+06 -3.686000E+05 -2.447825E+06  9.783689E+04  9.450442E+03
        10   9 -6.664427E+06 -1.278392E+06 -4.660267E+05 -2.396181E+06  1.464945E+05  3.187202E+04
        10  10 -4.639784E+06 -4.109405E+05  2.309666E+05 -1.866525E+06 -1.002010E-09  2.807213E-09
        10  11 -4.657338E+06 -4.179329E+05  1.806775E+05 -1.884155E+06  7.958598E-10 -5.064445E-09
        10  12 -4.758923E+06 -5.104957E+05  6.162408E+04 -1.831301E+06 -2.953122E-09 -9.850661E-10
        10  13 -5.698689E+06 -8.050697E+05 -5.508724E+04 -2.147945E+06 -3.788986E-09 -4.851973E-10
        10  14 -5.663281E+06 -8.068630E+05 -9.392417E+04 -2.166200E+06  3.352681E-09 -3.813491E-09
        10  15 -5.712128E+06 -8.944894E+05 -2.021802E+05 -2.113946E+06 -7.228684E-09 -9.822684E-10
        10  16 -6.756510E+06 -1.199144E+06 -3.412419E+05 -2.428933E+06 -2.096785E-09 -1.047495E-09
        10  17 -6.668242E+06 -1.195723E+06 -3.686184E+05 -2.447825E+06 -1.175302E-08  8.658008E-10
        10  18 -6.664450E+06 -1.278398E+06 -4.660694E+05 -2.396184E+06 -2.968164E-10 -2.227379E-09
        10  19 -4.639782E+06 -4.109397E+05  2.309713E+05 -1.866525E+06 -4.844922E+04  1.053241E+04
        10  20 -4.657328E+06 -4.179303E+05  1.806953E+05 -1.884154E+06 -9.658412E+04 -8.981085E+03
        10  21 -4.758900E+06 -5.104891E+05  6.166509E+04 -1.831298E+06 -1.438057E+05 -3.085973E+04
        10  22 -5.698687E+06 -8.050690E+05 -5.508261E+04 -2.147945E+06 -4.836136E+04  1.056861E+04
        10  23 -5.663270E+06 -8.068603E+05 -9.390608E+04 -2.166199E+06 -9.721113E+04 -9.216009E+03
        10  24 -5.712105E+06 -8.944826E+05 -2.021383E+05 -2.113942E+06 -1.451513E+05 -3.136640E+04
        10  25 -6.756508E+06 -1.199143E+06 -3.412372E+05 -2.428934E+06 -4.827360E+04  1.060477E+04
        10  26 -6.668232E+06 -1.195721E+06 -3.686000E+05 -2.447825E+06 -9.783689E+04 -9.450442E+03
        10  27 -6.664427E+06 -1.278392E+06 -4.660267E+05 -2.396181E+06 -1.464945E+05 -3.187202E+04
        11   1 -4.882428E+06 -5.179817E+05 -2.465100E+04 -1.998602E+06  1.821739E+05  4.571570E+04
        11   2 -4.876150E+06 -3.857814E+05 -1.993557E+05 -1.960761E+06  3.962663E+05  1.308307E+05
        11   3 -5.320651E+06 -1.107109E+06 -7.894061E+05 -1.599047E+06  6.061393E+05  2.268419E+05
        11   4 -5.751034E+06 -7.792275E+05 -2.468240E+05 -2.167137E+06  1.810854E+05  4.532158E+04
        11   5 -5.577097E+06 -6.964739E+05 -3.983249E+05 -2.197121E+06  3.985727E+05  1.316815E+05
        11   6 -5.855045E+06 -1.468587E+06 -9.682243E+05 -1.903060E+06  6.119009E+05  2.288691E+05
        11   7 -6.618900E+06 -1.040485E+06 -4.690542E+05 -2.335489E+06  1.799984E+05  4.492778E+04
        11   8 -6.277557E+06 -1.007084E+06 -5.973408E+05 -2.433220E+06  4.008760E+05  1.325306E+05
        11   9 -6.389096E+06 -1.829804E+06 -1.147065E+06 -2.206771E+06  6.176567E+05  2.308904E+05
        11  10 -4.882465E+06 -5.179930E+05 -2.471789E+04 -1.998609E+06  4.170679E-09 -1.854040E-09
        11  11 -4.876324E+06 -3.858426E+05 -1.996860E+05 -1.960803E+06  4.513647E-09 -3.988107E-09
        11  12 -5.321062E+06 -1.107265E+06 -7.902007E+05 -1.599158E+06 -1.944255E-09 -4.605803E-09
        11  13 -5.751070E+06 -7.792386E+05 -2.468902E+05 -2.167144E+06  4.804923E-09 -1.051396E-09
        11  14 -5.577273E+06 -6.965359E+05 -3.986595E+05 -2.197164E+06 -3.845879E-10 -3.558067E-09
        11  15 -5.855465E+06 -1.468745E+06 -9.690349E+05 -1.903173E+06  7.099675E-10  2.768815E-09
        11  16 -6.618936E+06 -1.040496E+06 -4.691196E+05 -2.335496E+06  3.260802E-09 -4.328254E-09
        11  17 -6.277736E+06 -1.007147E+06 -5.976798E+05 -2.433263E+06 -5.918384E-09 -4.391868E-09
        11  18 -6.389524E+06 -1.829966E+06 -1.147892E+06 -2.206887E+06 -3.629897E-09  4.545935E-10
        11  19 -4.882428E+06 -5.179817E+05 -2.465100E+04 -1.998602E+06 -1.821739E+05 -4.571570E+04
        11  20 -4.876150E+06 -3.857814E+05 -1.993557E+05 -1.960761E+06 -3.962663E+05 -1.308307E+05
        11  21 -5.320651E+06 -1.107109E+06 -7.894061E+05 -1.599047E+06 -6.061393E+05 -2.268419E+05
        11  22 -5.751034E+06 -7.792275E+05 -2.468240E+05 -2.167137E+06 -1.810854E+05 -4.532158E+04
        11  23 -5.577097E+06 -6.964739E+05 -3.983249E+05 -2.197121E+06 -3.985727E+05 -1.316815E+05
        11  24 -5.855045E+06 -1.468587E+06 -9.682243E+05 -1.903060E+06 -6.119009E+05 -2.288691E+05
        11  25 -6.618900E+06 -1.040485E+06 -4.690542E+05 -2.335489E+06 -1.799984E+05 -4.492778E+04
        11  26 -6.277557E+06 -1.007084E+06 -5.973408E+05 -2.433220E+06 -4.008760E+05 -1.325306E+05
        11  27 -6.389096E+06 -1.829804E+06 -1.147065E+06 -2.206771E+06 -6.176567E+05 -2.308904E+05
        12   1  1.284699E+05  1.628923E+06  1.454427E+05  1.109670E+03  5.562586E+03 -1.719122E+03
        12   2  1.254834E+05  1.628639E+06  1.492890E+05 -2.672796E+03  5.576523E+03 -1.269862E+04
        12   3  1.395477E+05  1.636719E+06  1.650706E+05  2.237673E+03  5.806619E+03 -2.367793E+04
        12   4  1.153459E+03  1.118384E+06  1.861419E+04  1.925964E+03  5.562866E+03 -1.701814E+03
        12   5 -2.807669E+03  1.114196E+06  2.148585E+04 -2.410175E+03  5.576829E+03 -1.270974E+04
        12   6  1.029378E+04  1.118380E+06  3.631877E+04  1.947069E+03  5.807046E+03 -2.371740E+04
        12   7 -1.261825E+05  6.080803E+05 -1.082338E+05  2.741604E+03  5.563147E+03 -1.684520E+03
        12   8 -1.311186E+05  5.999916E+05 -1.063371E+05 -2.147699E+03  5.577135E+03 -1.272084E+04
        12   9 -1.189803E+05  6.002838E+05 -9.245311E+04  1.656835E+03  5.807473E+03 -2.375683E+04
        12  10  1.284699E+05  1.628923E+06  1.454426E+05  1.109678E+03  2.134671E-09  1.638304E-09
        12  11  1.254834E+05  1.628639E+06  1.492886E+05 -2.672739E+03  7.406492E-09 -4.601212E-09
        12  12  1.395475E+05  1.636719E+06  1.650695E+05  2.237784E+03  1.578866E-08 -9.473411E-10
        12  13  1.153425E+03  1.118384E+06  1.861412E+04  1.925972E+03  6.696201E-09 -8.819815E-11
        12  14 -2.807746E+03  1.114195E+06  2.148549E+04 -2.410118E+03 -2.244048E-08  2.508884E-11
        12  15  1.029359E+04  1.118379E+06  3.631765E+04  1.947180E+03  3.813290E-09  9.066139E-10
        12  16 -1.261826E+05  6.080803E+05 -1.082338E+05  2.741612E+03  2.437168E-10 -1.587371E-09
        12  17 -1.311187E+05  5.999914E+05 -1.063374E+05 -2.147642E+03 -5.217547E-09  3.794552E-09
        12  18 -1.189805E+05  6.002832E+05 -9.245423E+04  1.656946E+03 -1.096140E-08  1.533152E-09
        12  19  1.284699E+05  1.628923E+06  1.454427E+05  1.109670E+03 -5.562586E+03  1.719122E+03
        12  20  1.254834E+05  1.628639E+06  1.492890E+05 -2.672796E+03 -5.576523E+03  1.269862E+04
        12  21  1.395477E+05  1.636719E+06  1.650706E+05  2.237673E+03 -5.806619E+03  2.367793E+04
        12  22  1.153459E+03  1.118384E+06  1.861419E+04  1.925964E+03 -5.562866E+03  1.701814E+03
        12  23 -2.807669E+03  1.114196E+06  2.148585E+04 -2.410175E+03 -5.576829E+03  1.270974E+04
        12  24  1.029378E+04  1.118380E+06  3.631877E+04  1.947069E+03 -5.807046E+03  2.371740E+04
        12  25 -1.261825E+05  6.080803E+05 -1.082338E+05  2.741604E+03 -5.563147E+03  1.684520E+03
        12  26 -1.311186E+05  5.999916E+05 -1.063371E+05 -2.147699E+03 -5.577135E+03  1.272084E+04
        12  27 -1.189803E+05  6.002838E+05 -9.245311E+04  1.656835E+03 -5.807473E+03  2.375683E+04
        13   1  1.418106E+05  1.701279E+06  1.876613E+05  8.477502E+02  6.199217E+03 -3.092245E+04
        13   2  1.308021E+05  1.696825E+06  2.151793E+05 -7.437688E+03  6.776121E+03 -6.714033E+04
        13   3  2.200580E+05  1.725864E+06  2.920507E+05  1.196061E+04  6.644619E+03 -1.033620E+05
        13   4 -2.189834E+03  1.123948E+06  4.422351E+04  6.047297E+03  6.199694E+03 -3.104275E+04
        13   5 -1.622359E+04  1.107186E+06  6.872212E+04 -7.625866E+03  6.776600E+03 -6.711141E+04
        13   6  7.003121E+04  1.123917E+06  1.425029E+05  6.386274E+03  6.645422E+03 -1.031831E+05
        13   7 -1.462151E+05  5.469190E+05 -9.923916E+04  1.124222E+04  6.200169E+03 -3.116293E+04
        13   8 -1.632753E+05  5.178619E+05 -7.776106E+04 -7.813570E+03  6.777080E+03 -6.708250E+04
        13   9 -8.002259E+04  5.222985E+05 -7.071945E+03  8.177251E+02  6.646222E+03 -1.030044E+05
        13  10  1.418103E+05  1.701278E+06  1.876594E+05  8.479045E+02  1.192469E-08 -1.280166E-09
        13  11  1.308008E+05  1.696820E+06  2.151708E+05 -7.437322E+03 -2.673571E-09 -3.783662E-09
        13  12  2.200551E+05  1.725853E+06  2.920306E+05  1.196116E+04  2.915601E-09  2.891820E-09
        13  13 -2.190134E+03  1.123947E+06  4.422163E+04  6.047452E+03  8.450057E-09 -1.417511E-09
        13  14 -1.622485E+04  1.107181E+06  6.871359E+04 -7.625500E+03 -3.348096E-09 -1.008404E-10
        13  15  7.002831E+04  1.123906E+06  1.424829E+05  6.386826E+03  8.058425E-09  1.916319E-09
        13  16 -1.462154E+05  5.469179E+05 -9.924106E+04  1.124237E+04 -1.970607E-08  2.017377E-09
        13  17 -1.632765E+05  5.178570E+05 -7.776959E+04 -7.813203E+03 -1.331022E-08  1.104504E-09
        13  18 -8.002548E+04  5.222871E+05 -7.091949E+03  8.182764E+02  1.128835E-09 -1.471367E-09
        13  19  1.418106E+05  1.701279E+06  1.876613E+05  8.477502E+02 -6.199217E+03  3.092245E+04
        13  20  1.308021E+05  1.696825E+06  2.151793E+05 -7.437688E+03 -6.776121E+03  6.714033E+04
        13  21  2.200580E+05  1.725864E+06  2.920507E+05  1.196061E+04 -6.644619E+03  1.033620E+05
        13  22 -2.189834E+03  1.123948E+06  4.422351E+04  6.047297E+03 -6.199694E+03  3.104275E+04
        13  23 -1.622359E+04  1.107186E+06  6.872212E+04 -7.625866E+03 -6.776600E+03  6.711141E+04
        13  24  7.003121E+04  1.123917E+06  1.425029E+05  6.386274E+03 -6.645422E+03  1.031831E+05
        13  25 -1.462151E+05  5.469190E+05 -9.923916E+04  1.124222E+04 -6.200169E+03  3.116293E+04
        13  26 -1.632753E+05  5.178619E+05 -7.776106E+04 -7.813570E+03 -6.777080E+03  6.708250E+04
        13  27 -8.002259E+04  5.222985E+05 -7.071945E+03  8.177251E+02 -6.646222E+03  1.030044E+05
        14   1  1.655204E+05  1.886907E+06  3.529645E+05 -1.875947E+04  8.494401E+03 -1.308525E+05
        14   2  7.933913E+04  1.813967E+06  4.479733E+05 -4.316794E+03  1.117952E+04 -2.752245E+05
        14   3  6.613630E+05  1.933242E+06  8.051865E+05  6.453819E+04  6.597244E+03 -4.196493E+05
        14   4 -1.631437E+04  1.159184E+06  1.721328E+05  1.084989E+04  8.493875E+03 -1.316752E+05
        14   5 -1.076933E+05  1.063014E+06  2.616189E+05 -1.440318E+04  1.118263E+04 -2.746746E+05
        14   6  4.693159E+05  1.159035E+06  6.125824E+05  1.475519E+04  6.618509E+03 -4.177210E+05
        14   7 -1.981859E+05  4.319421E+05 -8.738089E+03  4.042527E+04  8.493267E+03 -1.324968E+05
        14   8 -2.947673E+05  3.125716E+05  7.522250E+04 -2.447651E+04  1.118573E+04 -2.741251E+05
        14   9  2.772339E+05  3.853760E+05  4.199351E+05 -3.496480E+04  6.639493E+03 -4.157949E+05
        14  10  1.655158E+05  1.886889E+06  3.529323E+05 -1.875858E+04  3.851096E-09  4.937568E-10
        14  11  7.931874E+04  1.813886E+06  4.478312E+05 -4.314319E+03 -2.380263E-09 -6.320373E-09
        14  12  6.613159E+05  1.933054E+06  8.048565E+05  6.454042E+04 -1.727749E-09  6.161487E-10
        14  13 -1.631909E+04  1.159166E+06  1.721002E+05  1.085080E+04  1.229193E-08 -3.015801E-09
        14  14 -1.077136E+05  1.062933E+06  2.614771E+05 -1.440071E+04  1.527081E-10 -4.948184E-11
        14  15  4.692691E+05  1.158848E+06  6.122551E+05  1.475742E+04  3.463764E-09  3.277151E-09
        14  16 -1.981907E+05  4.319233E+05 -8.771190E+03  4.042617E+04  1.199857E-08  8.870077E-10
        14  17 -2.947876E+05  3.124909E+05  7.508114E+04 -2.447404E+04  5.409347E-09  1.671117E-09
        14  18  2.771875E+05  3.851905E+05  4.196104E+05 -3.496258E+04  5.040042E-09  1.824972E-09
        14  19  1.655204E+05  1.886907E+06  3.529645E+05 -1.875947E+04 -8.494401E+03  1.308525E+05
        14  20  7.933913E+04  1.813967E+06  4.479733E+05 -4.316794E+03 -1.117952E+04  2.752245E+05
        14  21  6.613630E+05  1.933242E+06  8.051865E+05  6.453819E+04 -6.597244E+03  4.196493E+05
        14  22 -1.631437E+04  1.159184E+06  1.721328E+05  1.084989E+04 -8.493875E+03  1.316752E+05
        14  23 -1.076933E+05  1.063014E+06  2.616189E+05 -1.440318E+04 -1.118263E+04  2.746746E+05
        14  24  4.693159E+05  1.159035E+06  6.125824E+05  1.475519E+04 -6.618509E+03  4.177210E+05
        14  25 -1.981859E+05  4.319421E+05 -8.738089E+03  4.042527E+04 -8.493267E+03  1.324968E+05
        14  26 -2.947673E+05  3.125716E+05  7.522250E+04 -2.447651E+04 -1.118573E+04  2.741251E+05
        14  27  2.772339E+05  3.853760E+05  4.199351E+05 -3.496480E+04 -6.639493E+03  4.157949E+05
        15   1  5.012557E+05  4.853898E+05  4.713871E+05 -8.092769E+02  8.532470E+04 -3.652173E+01
        15   2  5.001101E+05  4.801080E+05  4.702442E+05 -1.150327E+03  8.518937E+04 -2.979253E+02
        15   3  4.993921E+05  4.774171E+05  4.699152E+05 -3.680832E+03  8.479263E+04 -5.604036E+02
        15   4 -7.165838E+02 -1.552409E+06  3.451179E+02 -4.867318E+02  8.534411E+04 -3.308180E+01
        15   5 -8.767959E+02 -1.553684E+06  1.403874E+02  6.086238E+02  8.520850E+04 -1.119205E+02
        15   6 -6.438699E+02 -1.552404E+06  6.228436E+02 -4.858745E+02  8.481109E+04 -1.918335E+02
        15   7 -5.029808E+05 -3.586365E+06 -4.709743E+05 -1.650049E+02  8.536357E+04 -2.965283E+01
        15   8 -5.021545E+05 -3.583649E+06 -4.702398E+05  2.362855E+03  8.522768E+04  7.348077E+01
        15   9 -5.009696E+05 -3.578414E+06 -4.689450E+05  2.700483E+03  8.482960E+04  1.755428E+02
        15  10  5.012479E+05  4.853878E+05  4.713734E+05 -8.092744E+02  3.663493E-09 -6.092236E-09
        15  11  5.001023E+05  4.801061E+05  4.702306E+05 -1.150307E+03 -1.126053E-08 -9.421086E-09
        15  12  4.993844E+05  4.774151E+05  4.699017E+05 -3.680794E+03 -6.751590E-09 -5.834148E-09
        15  13 -7.243995E+02 -1.552411E+06  3.314405E+02 -4.867296E+02 -1.567319E-08  3.814346E-10
        15  14 -8.845867E+02 -1.553686E+06  1.267535E+02  6.086315E+02 -4.889344E-09  6.121422E-10
        15  15 -6.515882E+02 -1.552406E+06  6.093365E+02 -4.858614E+02  4.417596E-09  1.220314E-09
        15  16 -5.029887E+05 -3.586367E+06 -4.709880E+05 -1.650029E+02 -5.073789E-09  5.844354E-09
        15  17 -5.021623E+05 -3.583651E+06 -4.702535E+05  2.362850E+03  5.850857E-09  8.926275E-09
        15  18 -5.009773E+05 -3.578416E+06 -4.689585E+05  2.700471E+03  7.835565E-09  4.516696E-09
        15  19  5.012557E+05  4.853898E+05  4.713871E+05 -8.092769E+02 -8.532470E+04  3.652173E+01
        15  20  5.001101E+05  4.801080E+05  4.702442E+05 -1.150327E+03 -8.518937E+04  2.979253E+02
        15  21  4.993921E+05  4.774171E+05  4.699152E+05 -3.680832E+03 -8.479263E+04  5.604036E+02
        15  22 -7.165838E+02 -1.552409E+06  3.451179E+02 -4.867318E+02 -8.534411E+04  3.308180E+01
        15  23 -8.767959E+02 -1.553684E+06  1.403874E+02  6.086238E+02 -8.520850E+04  1.119205E+02
        15  24 -6.438699E+02 -1.552404E+06  6.228436E+02 -4.858745E+02 -8.481109E+04  1.918335E+02
        15  25 -5.029808E+05 -3.586365E+06 -4.709743E+05 -1.650049E+02 -8.536357E+04  2.965283E+01
        15  26 -5.021545E+05 -3.583649E+06 -4.702398E+05  2.362855E+03 -8.522768E+04 -7.348077E+01
        15  27 -5.009696E+05 -3.578414E+06 -4.689450E+05  2.700483E+03 -8.482960E+04 -1.755428E+02
        16   1  4.973427E+05  4.696210E+05  4.680733E+05 -5.381642E+03  8.485235E+04 -3.391560E+01
        16   2  4.942419E+05  4.562125E+05  4.656558E+05 -3.307999E+03  8.401708E+04 -2.287362E+03
        16   3  4.926015E+05  4.458049E+05  4.655826E+05 -7.784235E+03  8.067862E+04 -4.553895E+03
        16   4 -7.348251E+02 -1.552365E+06  7.649101E+02 -1.456077E+03  8.487224E+04 -3.185139E+02
        16   5 -9.070138E+02 -1.553706E+06  9.776880E+02  1.821383E+03  8.403091E+04 -8.260222E+02
        16   6  7.689522E+01 -1.552352E+06  2.323590E+03 -1.452374E+03  8.068271E+04 -1.346668E+03
        16   7 -4.990997E+05 -3.570569E+06 -4.668166E+05  2.459001E+03  8.489217E+04 -6.021901E+02
        16   8 -4.963400E+05 -3.559887E+06 -4.639705E+05  6.937202E+03  8.404480E+04  6.306288E+02
        16   9 -4.927291E+05 -3.546817E+06 -4.612036E+05  4.862904E+03  8.068688E+04  1.850321E+03
        16  10  4.973350E+05  4.696191E+05  4.680598E+05 -5.381639E+03 -9.599356E-09 -6.720718E-09
        16  11  4.942343E+05  4.562106E+05  4.656425E+05 -3.307844E+03 -5.487866E-09 -5.409534E-09
        16  12  4.925945E+05  4.458031E+05  4.655704E+05 -7.783939E+03 -4.902510E-09 -1.621497E-09
        16  13 -7.425546E+02 -1.552367E+06  7.513834E+02 -1.456055E+03  1.012455E-08  2.819546E-09
        16  14 -9.145910E+02 -1.553708E+06  9.644270E+02  1.821439E+03  1.428328E-08  1.904638E-09
        16  15  6.990957E+01 -1.552354E+06  2.311362E+03 -1.452286E+03  8.019828E-10  2.465455E-09
        16  16 -4.991075E+05 -3.570571E+06 -4.668301E+05  2.459042E+03 -1.041589E-09  4.875808E-09
        16  17 -4.963475E+05 -3.559889E+06 -4.639837E+05  6.937159E+03 -5.496411E-09  4.198563E-09
        16  18 -4.927361E+05 -3.546819E+06 -4.612158E+05  4.862784E+03 -8.271924E-09 -1.611294E-09
        16  19  4.973427E+05  4.696210E+05  4.680733E+05 -5.381642E+03 -8.485235E+04  3.391560E+01
        16  20  4.942419E+05  4.562125E+05  4.656558E+05 -3.307999E+03 -8.401708E+04  2.287362E+03
        16  21  4.926015E+05  4.458049E+05  4.655826E+05 -7.784235E+03 -8.067862E+04  4.553895E+03
        16  22 -7.348251E+02 -1.552365E+06  7.649101E+02 -1.456077E+03 -8.487224E+04  3.185139E+02
        16  23 -9.070138E+02 -1.553706E+06  9.776880E+02  1.821383E+03 -8.403091E+04  8.260222E+02
        16  24  7.689522E+01 -1.552352E+06  2.323590E+03 -1.452374E+03 -8.068271E+04  1.346668E+03
        16  25 -4.990997E+05 -3.570569E+06 -4.668166E+05  2.459001E+03 -8.489217E+04  6.021901E+02
        16  26 -4.963400E+05 -3.559887E+06 -4.639705E+05  6.937202E+03 -8.404480E+04 -6.306288E+02
        16  27 -4.927291E+05 -3.546817E+06 -4.612036E+05  4.862904E+03 -8.068688E+04 -1.850321E+03
        17   1  4.872139E+05  4.313705E+05  4.600393E+05 -1.120817E+04  8.576019E+04  9.284973E+03
        17   2  4.819879E+05  4.068168E+05  4.594231E+05 -3.772531E+03  7.855062E+04 -2.550932E+04
        17   3  4.928416E+05  3.929152E+05  4.859137E+05 -8.632820E+03  2.484401E+04 -6.061976E+04
        17   4 -1.130510E+03 -1.551819E+06  2.846323E+03 -2.748138E+03  8.583258E+04 -1.762367E+03
        17   5 -1.502830E+03 -1.554320E+06  4.388322E+03  3.431533E+03  7.844649E+04 -4.151815E+03
        17   6  8.596988E+03 -1.551789E+06  1.054106E+04 -2.689462E+03  2.449764E+04 -6.858577E+03
        17   7 -4.897506E+05 -3.531366E+06 -4.546079E+05  5.689006E+03  8.590480E+04 -1.277469E+04
        17   8 -4.852646E+05 -3.511901E+06 -4.509034E+05  1.061766E+04  7.834269E+04  1.713875E+04
        17   9 -4.759261E+05 -3.493037E+06 -4.650972E+05  3.240830E+03  2.415177E+04  4.673464E+04
        17  10  4.872060E+05  4.313684E+05  4.600254E+05 -1.120881E+04 -1.557345E-09  7.981667E-09
        17  11  4.819811E+05  4.068144E+05  4.594103E+05 -3.770918E+03  2.607193E-09 -4.701038E-09
        17  12  4.928399E+05  3.929110E+05  4.859056E+05 -8.631608E+03 -1.999429E-08 -1.144620E-08
        17  13 -1.138416E+03 -1.551821E+06  2.832483E+03 -2.748016E+03  7.047223E-09  5.111235E-09
        17  14 -1.509438E+03 -1.554322E+06  4.376734E+03  3.431795E+03  1.985972E-09  3.024335E-09
        17  15  8.596331E+03 -1.551790E+06  1.053985E+04 -2.689327E+03 -2.011748E-08  3.881410E-09
        17  16 -4.897586E+05 -3.531368E+06 -4.546220E+05  5.689892E+03 -1.697136E-08 -1.195870E-08
        17  17 -4.852713E+05 -3.511903E+06 -4.509155E+05  1.061657E+04 -3.658156E-09  2.429857E-09
        17  18 -4.759273E+05 -3.493040E+06 -4.651024E+05  3.239920E+03 -1.281853E-08  7.164378E-09
        17  19  4.872139E+05  4.313705E+05  4.600393E+05 -1.120817E+04 -8.576019E+04 -9.284973E+03
        17  20  4.819879E+05  4.068168E+05  4.594231E+05 -3.772531E+03 -7.855062E+04  2.550932E+04
        17  21  4.928416E+05  3.929152E+05  4.859137E+05 -8.632820E+03 -2.484401E+04  6.061976E+04
        17  22 -1.130510E+03 -1.551819E+06  2.846323E+03 -2.748138E+03 -8.583258E+04  1.762367E+03
        17  23 -1.502830E+03 -1.554320E+06  4.388322E+03  3.431533E+03 -7.844649E+04  4.151815E+03
        17  24  8.596988E+03 -1.551789E+06  1.054106E+04 -2.689462E+03 -2.449764E+04  6.858577E+03
        17  25 -4.897506E+05 -3.531366E+06 -4.546079E+05  5.689006E+03 -8.590480E+04  1.277469E+04
        17  26 -4.852646E+05 -3.511901E+06 -4.509034E+05  1.061766E+04 -7.834269E+04 -1.713875E+04
        17  27 -4.759261E+05 -3.493037E+06 -4.650972E+05  3.240830E+03 -2.415177E+04 -4.673464E+04
        18   1  6.725428E+04  8.273175E+05  3.777763E+04 -2.278774E+00  2.360605E+04  6.644970E-03
        18   2  6.725798E+04  8.273344E+05  3.778377E+04 -1.385059E+01  2.360689E+04 -5.049891E+00
        18   3  6.726225E+04  8.273569E+05  3.779488E+04 -2.334180E+01  2.360857E+04 -1.010628E+01
        18   4 -1.843426E+01  5.284820E+05  1.230911E+01  4.625103E-01  2.360725E+04 -1.006089E+00
        18   5 -1.943193E+01  5.284790E+05  1.480265E+01 -5.777153E-01  2.360809E+04 -8.070993E+00
        18   6 -1.951723E+01  5.284819E+05  2.365274E+01  4.630786E-01  2.360977E+04 -1.513578E+01
        18   7 -6.729478E+04  2.297380E+05 -3.775330E+04  3.202655E+00  2.360845E+04 -2.018360E+00
        18   8 -6.730048E+04  2.297152E+05 -3.775445E+04  1.268954E+01  2.360929E+04 -1.109071E+01
        18   9 -6.730491E+04  2.296987E+05 -3.774786E+04  2.425786E+01  2.361097E+04 -2.016298E+01
        18  10  6.725368E+04  8.273174E+05  3.777658E+04 -2.278774E+00  1.135501E-09  1.062526E-08
        18  11  6.725738E+04  8.273342E+05  3.778273E+04 -1.385049E+01  1.075094E-08 -6.260658E-11
        18  12  6.726165E+04  8.273567E+05  3.779383E+04 -2.334161E+01 -4.229731E-10 -1.034701E-08
        18  13 -1.903286E+01  5.284818E+05  1.126157E+01  4.625294E-01  4.300380E-09 -8.033702E-12
        18  14 -2.003057E+01  5.284788E+05  1.375504E+01 -5.775618E-01  6.439331E-09 -1.179957E-10
        18  15 -2.011595E+01  5.284818E+05  2.260498E+01  4.633664E-01  2.933013E-09  1.307758E-10
        18  16 -6.729538E+04  2.297379E+05 -3.775434E+04  3.202693E+00 -7.481165E-09 -1.065774E-08
        18  17 -6.730108E+04  2.297150E+05 -3.775550E+04  1.268975E+01  9.301250E-10  2.330302E-11
        18  18 -6.730551E+04  2.296985E+05 -3.774890E+04  2.425825E+01 -1.329669E-09  1.029918E-08
        18  19  6.725428E+04  8.273175E+05  3.777763E+04 -2.278774E+00 -2.360605E+04 -6.644949E-03
        18  20  6.725798E+04  8.273344E+05  3.778377E+04 -1.385059E+01 -2.360689E+04  5.049891E+00
        18  21  6.726225E+04  8.273569E+05  3.779488E+04 -2.334180E+01 -2.360857E+04  1.010628E+01
        18  22 -1.843426E+01  5.284820E+05  1.230911E+01  4.625103E-01 -2.360725E+04  1.006089E+00
        18  23 -1.943193E+01  5.284790E+05  1.480265E+01 -5.777152E-01 -2.360809E+04  8.070993E+00
        18  24 -1.951723E+01  5.284819E+05  2.365274E+01  4.630786E-01 -2.360977E+04  1.513578E+01
        18  25 -6.729478E+04  2.297380E+05 -3.775330E+04  3.202655E+00 -2.360845E+04  2.018360E+00
        18  26 -6.730048E+04  2.297152E+05 -3.775445E+04  1.268954E+01 -2.360929E+04  1.109071E+01
        18  27 -6.730491E+04  2.296987E+05 -3.774786E+04  2.425786E+01 -2.361097E+04  2.016298E+01
        19   1  6.726728E+04  8.273816E+05  3.780530E+04 -2.772804E+01  2.361009E+04 -1.290379E+01
        19   2  6.727853E+04  8.274361E+05  3.783686E+04 -4.529515E+01  2.361256E+04 -3.995020E+01
        19   3  6.729154E+04  8.274993E+05  3.788798E+04 -5.354465E+01  2.361420E+04 -6.699622E+01
        19   4 -2.005779E+01  5.284825E+05  3.039405E+01  2.071339E+00  2.361129E+04 -1.982751E+01
        19   5 -2.268702E+01  5.284783E+05  5.116084E+01 -2.587522E+00  2.361376E+04 -4.486168E+01
        19   6 -2.391267E+01  5.284825E+05  9.009992E+01  2.071481E+00  2.361540E+04 -6.989546E+01
        19   7 -6.731103E+04  2.296750E+05 -3.774479E+04  3.185809E+01  2.361249E+04 -2.674808E+01
        19   8 -6.732755E+04  2.296122E+05 -3.773482E+04  4.010179E+01  2.361496E+04 -4.977091E+01
        19   9 -6.734300E+04  2.295574E+05 -3.770806E+04  5.766362E+01  2.361660E+04 -7.279336E+01
        19  10  6.726668E+04  8.273815E+05  3.780425E+04 -2.772780E+01  3.914590E-09 -7.154325E-08
        19  11  6.727794E+04  8.274359E+05  3.783581E+04 -4.529439E+01  5.676121E-09  2.885667E-08
        19  12  6.729094E+04  8.274991E+05  3.788693E+04 -5.354338E+01  1.379775E-09  1.283710E-07
        19  13 -2.065659E+01  5.284823E+05  2.934615E+01  2.071717E+00 -3.711014E-09  9.841303E-11
        19  14 -2.328594E+01  5.284781E+05  5.011272E+01 -2.586669E+00  7.842324E-09 -3.487144E-10
        19  15 -2.451168E+01  5.284823E+05  8.905165E+01  2.072810E+00  6.361063E-09  2.398691E-10
        19  16 -6.731163E+04  2.296748E+05 -3.774584E+04  3.185860E+01 -2.606110E-09  7.125577E-08
        19  17 -6.732814E+04  2.296120E+05 -3.773587E+04  4.010274E+01 -6.292430E-09 -2.902365E-08
        19  18 -6.734360E+04  2.295572E+05 -3.770911E+04  5.766500E+01 -8.318402E-10 -1.282699E-07
        19  19  6.726728E+04  8.273816E+05  3.780530E+04 -2.772804E+01 -2.361009E+04  1.290379E+01
        19  20  6.727853E+04  8.274361E+05  3.783686E+04 -4.529515E+01 -2.361256E+04  3.995020E+01
        19  21  6.729154E+04  8.274993E+05  3.788798E+04 -5.354465E+01 -2.361420E+04  6.699622E+01
        19  22 -2.005779E+01  5.284825E+05  3.039405E+01  2.071340E+00 -2.361129E+04  1.982751E+01
        19  23 -2.268702E+01  5.284783E+05  5.116084E+01 -2.587522E+00 -2.361376E+04  4.486168E+01
        19  24 -2.391267E+01  5.284825E+05  9.009992E+01  2.071481E+00 -2.361540E+04  6.989546E+01
        19  25 -6.731103E+04  2.296750E+05 -3.774479E+04  3.185809E+01 -2.361249E+04  2.674808E+01
        19  26 -6.732755E+04  2.296122E+05 -3.773482E+04  4.010179E+01 -2.361496E+04  4.977091E+01
        19  27 -6.734300E+04  2.295574E+05 -3.770806E+04  5.766361E+01 -2.361660E+04  7.279336E+01
        20   1  6.730203E+04  8.275515E+05  3.792698E+04 -6.094045E+01  2.361555E+04 -8.476566E+01
        20   2  6.732386E+04  8.276363E+05  3.804656E+04 -8.514594E+01  2.361046E+04 -2.190733E+02
        20   3  6.736220E+04  8.277475E+05  3.825916E+04 -9.373645E+01  2.359195E+04 -3.533827E+02
        20   4 -2.537121E+01  5.284852E+05  1.188431E+02  3.470203E+00  2.361675E+04 -8.855129E+01
        20   5 -2.893650E+01  5.284748E+05  2.066301E+02 -4.336682E+00  2.361165E+04 -1.905763E+02
        20   6 -2.159336E+01  5.284852E+05  3.650591E+02  3.471392E+00  2.359313E+04 -2.926036E+02
        20   7 -6.735641E+04  2.295107E+05 -3.768958E+04  6.785290E+01  2.361795E+04 -9.233518E+01
        20   8 -6.738538E+04  2.294051E+05 -3.763359E+04  7.643718E+01  2.361285E+04 -1.620924E+02
        20   9 -6.740904E+04  2.293147E+05 -3.752934E+04  1.006364E+02  2.359431E+04 -2.318522E+02
        20  10  6.730143E+04  8.275514E+05  3.792593E+04 -6.093884E+01  9.231360E-09 -3.805518E-08
        20  11  6.732327E+04  8.276362E+05  3.804551E+04 -8.514178E+01  1.151155E-08 -1.974733E-08
        20  12  6.736161E+04  8.277474E+05  3.825812E+04 -9.372974E+01  8.802003E-09  3.369938E-09
        20  13 -2.597029E+01  5.284851E+05  1.177947E+02  3.471887E+00  5.949961E-09  2.370458E-10
        20  14 -2.953533E+01  5.284746E+05  2.055821E+02 -4.333059E+00  1.152797E-08 -5.724025E-10
        20  15 -2.219126E+01  5.284850E+05  3.640127E+02  3.476951E+00  4.568072E-10  2.959616E-10
        20  16 -6.735701E+04  2.295105E+05 -3.769062E+04  6.785466E+01  3.835815E-09  3.773821E-08
        20  17 -6.738598E+04  2.294049E+05 -3.763464E+04  7.644026E+01  5.961352E-10  1.954983E-08
        20  18 -6.740964E+04  2.293145E+05 -3.753039E+04  1.006408E+02 -2.994773E-09 -3.281964E-09
        20  19  6.730203E+04  8.275515E+05  3.792698E+04 -6.094045E+01 -2.361555E+04  8.476566E+01
        20  20  6.732386E+04  8.276363E+05  3.804656E+04 -8.514594E+01 -2.361046E+04  2.190733E+02
        20  21  6.736220E+04  8.277475E+05  3.825916E+04 -9.373645E+01 -2.359195E+04  3.533827E+02
        20  22 -2.537121E+01  5.284852E+05  1.188431E+02  3.470203E+00 -2.361675E+04  8.855129E+01
        20  23 -2.893650E+01  5.284748E+05  2.066301E+02 -4.336682E+00 -2.361165E+04  1.905763E+02
        20  24 -2.159336E+01  5.284852E+05  3.650591E+02  3.471392E+00 -2.359313E+04  2.926036E+02
        20  25 -6.735641E+04  2.295107E+05 -3.768958E+04  6.785290E+01 -2.361795E+04  9.233518E+01
        20  26 -6.738538E+04  2.294051E+05 -3.763359E+04  7.643718E+01 -2.361285E+04  1.620924E+02
        20  27 -6.740904E+04  2.293147E+05 -3.752934E+04  1.006364E+02 -2.359431E+04  2.318522E+02
        21   1 -5.239099E+05  8.489462E+04  2.098347E+05 -2.386642E+03  3.605328E+05  8.343374E+03
        21   2 -5.613107E+05 -4.057808E+05 -8.328736E+04  2.581125E+04  2.385657E+05  1.696334E+04
        21   3 -4.195264E+05 -3.129454E+05 -1.475174E+05 -6.490824E+04  1.166696E+05  1.266428E+04
        21   4  7.763345E+05  4.088969E+05  5.340332E+05 -4.206697E+04  3.637447E+05  8.340412E+03
        21   5  6.866702E+05 -9.425163E+04  2.269437E+05  1.900921E+04  2.393768E+05  1.696131E+04
        21   6  7.762926E+05 -1.409045E+04  1.500775E+05 -3.881674E+04  1.150905E+05  1.266179E+04
        21   7  2.078117E+06  7.327790E+05  8.581059E+05 -8.183342E+04  3.669627E+05  8.337060E+03
        21   8  1.936065E+06  2.171610E+05  5.370583E+05  1.219144E+04  2.401892E+05  1.695926E+04
        21   9  1.973410E+06  2.846594E+05  4.475655E+05 -1.267599E+04  1.135082E+05  1.265916E+04
        21  10 -5.240496E+05  8.485962E+04  2.095901E+05 -2.389064E+03  9.597320E-09  1.776672E-11
        21  11 -5.613719E+05 -4.057964E+05 -8.339493E+04  2.580799E+04  6.428900E-09 -1.835027E-09
        21  12 -4.195411E+05 -3.129492E+05 -1.475433E+05 -6.490943E+04  3.022478E-09  1.032419E-09
        21  13  7.761926E+05  4.088614E+05  5.337847E+05 -4.206941E+04  5.374876E-09 -8.577477E-10
        21  14  6.866086E+05 -9.426730E+04  2.268356E+05  1.900594E+04 -2.142284E-09 -1.549310E-09
        21  15  7.762784E+05 -1.409417E+04  1.500523E+05 -3.881791E+04  1.634130E-08  1.167481E-09
        21  16  2.077972E+06  7.327429E+05  8.578535E+05 -8.183588E+04 -4.219368E-09 -6.998343E-10
        21  17  1.936003E+06  2.171453E+05  5.369496E+05  1.218817E+04 -8.470977E-09 -1.814573E-09
        21  18  1.973396E+06  2.846557E+05  4.475410E+05 -1.267714E+04 -6.085015E-09  6.562187E-10
        21  19 -5.239099E+05  8.489462E+04  2.098347E+05 -2.386642E+03 -3.605328E+05 -8.343374E+03
        21  20 -5.613107E+05 -4.057808E+05 -8.328736E+04  2.581125E+04 -2.385657E+05 -1.696334E+04
        21  21 -4.195264E+05 -3.129454E+05 -1.475174E+05 -6.490824E+04 -1.166696E+05 -1.266428E+04
        21  22  7.763345E+05  4.088969E+05  5.340332E+05 -4.206697E+04 -3.637447E+05 -8.340412E+03
        21  23  6.866702E+05 -9.425163E+04  2.269437E+05  1.900921E+04 -2.393768E+05 -1.696131E+04
        21  24  7.762926E+05 -1.409045E+04  1.500775E+05 -3.881674E+04 -1.150905E+05 -1.266179E+04
        21  25  2.078117E+06  7.327790E+05  8.581059E+05 -8.183342E+04 -3.669627E+05 -8.337060E+03
        21  26  1.936065E+06  2.171610E+05  5.370583E+05  1.219144E+04 -2.401892E+05 -1.695926E+04
        21  27  1.973410E+06  2.846594E+05  4.475655E+05 -1.267599E+04 -1.135082E+05 -1.265916E+04
        22   1 -1.124640E+05 -1.532707E+05 -8.934510E+04 -2.877397E+04  9.001289E+04  9.316881E+03
        22   2 -8.768665E+04 -2.177167E+05 -1.439921E+05  1.317025E+04  5.940762E+04  9.183245E+03
        22   3 -3.027446E+04 -1.951145E+05 -1.555560E+05 -3.688119E+04  2.879873E+04  7.412603E+03
        22   4  7.439209E+05  6.052096E+04  1.236718E+05 -3.392050E+04  9.022380E+04  9.315620E+03
        22   5  7.275717E+05 -1.416745E+04  5.875458E+04  1.214265E+04  5.930572E+04  9.182248E+03
        22   6  7.438796E+05 -1.812188E+03  3.709704E+04 -3.378208E+04  2.838605E+04  7.412430E+03
        22   7  1.600971E+06  2.742577E+05  3.366338E+05 -3.907450E+04  9.043493E+04  9.314357E+03
        22   8  1.543433E+06  1.893319E+05  2.614515E+05  1.111356E+04  5.920364E+04  9.181254E+03
        22   9  1.518577E+06  1.914452E+05  2.297052E+05 -3.067901E+04  2.797283E+04  7.412254E+03
        22  10 -1.124727E+05 -1.532730E+05 -8.936049E+04 -2.877464E+04 -1.485854E-09  1.264492E-09
        22  11 -8.769046E+04 -2.177177E+05 -1.439989E+05  1.316981E+04 -1.714747E-08 -1.038699E-10
        22  12 -3.027537E+04 -1.951148E+05 -1.555577E+05 -3.688136E+04 -3.373949E-09 -7.314206E-10
        22  13  7.439121E+05  6.051868E+04  1.236563E+05 -3.392117E+04 -3.994825E-09  1.284927E-09
        22  14  7.275679E+05 -1.416848E+04  5.874782E+04  1.214221E+04 -4.362421E-09 -6.822693E-10
        22  15  7.438788E+05 -1.812463E+03  3.709543E+04 -3.378225E+04 -1.040373E-08 -9.689914E-10
        22  16  1.600962E+06  2.742554E+05  3.366183E+05 -3.907517E+04  1.824329E-09  1.194538E-09
        22  17  1.543429E+06  1.893309E+05  2.614448E+05  1.111312E+04  5.719509E-11 -5.261952E-10
        22  18  1.518576E+06  1.914449E+05  2.297036E+05 -3.067917E+04  4.963435E-10 -4.802433E-10
        22  19 -1.124640E+05 -1.532707E+05 -8.934510E+04 -2.877397E+04 -9.001289E+04 -9.316881E+03
        22  20 -8.768665E+04 -2.177167E+05 -1.439921E+05  1.317025E+04 -5.940762E+04 -9.183245E+03
        22  21 -3.027446E+04 -1.951145E+05 -1.555560E+05 -3.688119E+04 -2.879873E+04 -7.412603E+03
        22  22  7.439209E+05  6.052096E+04  1.236718E+05 -3.392050E+04 -9.022380E+04 -9.315620E+03
        22  23  7.275717E+05 -1.416745E+04  5.875458E+04  1.214265E+04 -5.930572E+04 -9.182248E+03
        22  24  7.438796E+05 -1.812188E+03  3.709704E+04 -3.378208E+04 -2.838605E+04 -7.412430E+03
        22  25  1.600971E+06  2.742577E+05  3.366338E+05 -3.907450E+04 -9.043493E+04 -9.314357E+03
        22  26  1.543433E+06  1.893319E+05  2.614515E+05  1.111356E+04 -5.920364E+04 -9.181254E+03
        22  27  1.518577E+06  1.914452E+05  2.297052E+05 -3.067901E+04 -2.797283E+04 -7.412254E+03
        23   1  2.431968E+05 -1.147170E+05 -9.350755E+04 -2.926963E+04  2.250318E+04  6.236686E+03
        23   2  2.748911E+05 -1.170135E+05 -9.925471E+04  9.042739E+03  1.472696E+04  4.988617E+03
        23   3  3.125964E+05 -1.062250E+05 -9.632251E+04 -3.018597E+04  6.947600E+03  3.667968E+03
        23   4  7.380780E+05  8.805117E+03  2.946253E+04 -3.059953E+04  2.230973E+04  6.236585E+03
        23   5  7.350592E+05 -2.140162E+03  1.517655E+04  8.163557E+03  1.451579E+04  4.988814E+03
        23   6  7.380514E+05 -1.801052E+00  9.577777E+03 -3.061083E+04  6.719125E+03  3.668481E+03
        23   7  1.233181E+06  1.323088E+05  1.524143E+05 -3.193042E+04  2.211612E+04  6.236485E+03
        23   8  1.195419E+06  1.127173E+05  1.295920E+05  7.283821E+03  1.430445E+04  4.989011E+03
        23   9  1.163670E+06  1.062078E+05  1.154645E+05 -3.103585E+04  6.490491E+03  3.668994E+03
        23  10  2.431963E+05 -1.147171E+05 -9.350857E+04 -2.926974E+04 -3.419521E-09 -7.038773E-10
        23  11  2.748909E+05 -1.170136E+05 -9.925516E+04  9.042680E+03 -1.191490E-10 -2.950551E-10
        23  12  3.125963E+05 -1.062250E+05 -9.632262E+04 -3.018599E+04  1.419963E-09  3.226011E-10
        23  13  7.380774E+05  8.804942E+03  2.946152E+04 -3.059964E+04 -8.809978E-09 -3.716797E-10
        23  14  7.350590E+05 -2.140245E+03  1.517611E+04  8.163499E+03  4.297026E-09  1.932024E-10
        23  15  7.380513E+05 -1.827612E+00  9.577667E+03 -3.061085E+04 -1.010428E-09 -4.219440E-10
        23  16  1.233181E+06  1.323087E+05  1.524133E+05 -3.193053E+04 -7.547078E-09  3.711184E-10
        23  17  1.195419E+06  1.127172E+05  1.295915E+05  7.283763E+03  7.990868E-10  6.726096E-10
        23  18  1.163670E+06  1.062078E+05  1.154644E+05 -3.103587E+04 -5.006936E-09 -8.903723E-10
        23  19  2.431968E+05 -1.147170E+05 -9.350755E+04 -2.926963E+04 -2.250318E+04 -6.236686E+03
        23  20  2.748911E+05 -1.170135E+05 -9.925471E+04  9.042739E+03 -1.472696E+04 -4.988617E+03
        23  21  3.125964E+05 -1.062250E+05 -9.632251E+04 -3.018597E+04 -6.947600E+03 -3.667968E+03
        23  22  7.380780E+05  8.805117E+03  2.946253E+04 -3.059953E+04 -2.230973E+04 -6.236585E+03
        23  23  7.350592E+05 -2.140162E+03  1.517655E+04  8.163557E+03 -1.451579E+04 -4.988814E+03
        23  24  7.380514E+05 -1.801052E+00  9.577777E+03 -3.061083E+04 -6.719125E+03 -3.668481E+03
        23  25  1.233181E+06  1.323088E+05  1.524143E+05 -3.193042E+04 -2.211612E+04 -6.236485E+03
        23  26  1.195419E+06  1.127173E+05  1.295920E+05  7.283821E+03 -1.430445E+04 -4.989011E+03
        23  27  1.163670E+06  1.062078E+05  1.154645E+05 -3.103585E+04 -6.490491E+03 -3.668994E+03
        24   1  5.562014E+05 -4.373196E+04 -3.721700E+04 -2.855320E+04  5.364811E+03  2.886147E+03
        24   2  5.876005E+05 -3.756426E+04 -3.230490E+04  6.674948E+03  2.967520E+03  1.605175E+03
        24   3  6.195301E+05 -2.896688E+04 -2.530623E+04 -2.884692E+04  5.693403E+02  3.613826E+02
        24   4  7.368846E+05  1.345984E+03  7.604687E+03 -2.909534E+04  5.145990E+03  2.886799E+03
        24   5  7.366164E+05 -3.708779E+02  4.745639E+03  6.277564E+03  2.754337E+03  1.605890E+03
        24   6  7.368761E+05  3.406150E+02  3.968759E+03 -2.909848E+04  3.619164E+02  3.621587E+02
        24   7  9.175975E+05  4.642149E+04  5.242394E+04 -2.963762E+04  4.927106E+03  2.887451E+03
        24   8  8.856524E+05  3.682084E+04  4.179452E+04  5.880103E+03  2.541103E+03  1.606604E+03
        24   9  8.542345E+05  2.964707E+04  3.324271E+04 -2.935008E+04  1.544533E+02  3.629348E+02
        24  10  5.562014E+05 -4.373198E+04 -3.721707E+04 -2.855322E+04  7.714550E-09  1.609322E-09
        24  11  5.876005E+05 -3.756426E+04 -3.230492E+04  6.674944E+03  1.135685E-08  1.987382E-09
        24  12  6.195301E+05 -2.896688E+04 -2.530623E+04 -2.884692E+04  1.057650E-09 -1.114070E-09
        24  13  7.368846E+05  1.345968E+03  7.604621E+03 -2.909536E+04 -4.708845E-09  1.996397E-10
        24  14  7.366164E+05 -3.708827E+02  4.745620E+03  6.277561E+03 -2.178376E-09  2.808939E-09
        24  15  7.368761E+05  3.406148E+02  3.968758E+03 -2.909848E+04  1.908831E-09 -5.079699E-10
        24  16  9.175974E+05  4.642147E+04  5.242388E+04 -2.963763E+04  2.656502E-09 -4.138303E-10
        24  17  8.856524E+05  3.682083E+04  4.179450E+04  5.880100E+03 -2.260743E-09  1.504279E-09
        24  18  8.542345E+05  2.964707E+04  3.324271E+04 -2.935008E+04  1.306262E-08 -1.377825E-09
        24  19  5.562014E+05 -4.373196E+04 -3.721700E+04 -2.855320E+04 -5.364811E+03 -2.886147E+03
        24  20  5.876005E+05 -3.756426E+04 -3.230490E+04  6.674948E+03 -2.967520E+03 -1.605175E+03
        24  21  6.195301E+05 -2.896688E+04 -2.530623E+04 -2.884692E+04 -5.693403E+02 -3.613826E+02
        24  22  7.368846E+05  1.345984E+03  7.604687E+03 -2.909534E+04 -5.145990E+03 -2.886799E+03
        24  23  7.366164E+05 -3.708779E+02  4.745639E+03  6.277564E+03 -2.754337E+03 -1.605890E+03
        24  24  7.368761E+05  3.406150E+02  3.968759E+03 -2.909848E+04 -3.619164E+02 -3.621587E+02
        24  25  9.175975E+05  4.642149E+04  5.242394E+04 -2.963762E+04 -4.927106E+03 -2.887451E+03
        24  26  8.856524E+05  3.682084E+04  4.179452E+04  5.880103E+03 -2.541103E+03 -1.606604E+03
        24  27  8.542345E+05  2.964707E+04  3.324271E+04 -2.935008E+04 -1.544533E+02 -3.629348E+02
        25   1  8.531428E+05  2.937424E+04  3.297149E+04 -2.934386E+04 -1.557333E+02 -3.510453E+02
        25   2  8.845588E+05  3.654765E+04  4.152393E+04  5.878710E+03 -2.543139E+03 -1.594757E+03
        25   3  9.164994E+05  4.614921E+04  5.215418E+04 -2.963257E+04 -4.929938E+03 -2.875206E+03
        25   4  7.368754E+05  3.400456E+02  3.968751E+03 -2.909536E+04 -3.632387E+02 -3.502687E+02
        25   5  7.366173E+05 -3.709698E+02  4.747112E+03  6.273658E+03 -2.756346E+03 -1.594042E+03
        25   6  7.368839E+05  1.347508E+03  7.607655E+03 -2.909221E+04 -5.148727E+03 -2.874552E+03
        25   7  6.206204E+05 -2.869516E+04 -2.503501E+04 -2.884690E+04 -5.707052E+02 -3.494921E+02
        25   8  5.886956E+05 -3.729123E+04 -3.203135E+04  6.668529E+03 -2.969503E+03 -1.593327E+03
        25   9  5.572977E+05 -4.345661E+04 -3.694127E+04 -2.855198E+04 -5.367451E+03 -2.873899E+03
        25  10  8.531428E+05  2.937424E+04  3.297149E+04 -2.934386E+04 -2.995616E-09 -1.506993E-09
        25  11  8.845588E+05  3.654764E+04  4.152392E+04  5.878707E+03  3.416505E-09  7.952759E-10
        25  12  9.164993E+05  4.614919E+04  5.215412E+04 -2.963258E+04 -3.855970E-10  1.469987E-09
        25  13  7.368754E+05  3.400455E+02  3.968750E+03 -2.909536E+04  1.234916E-08 -8.875331E-10
        25  14  7.366173E+05 -3.709746E+02  4.747093E+03  6.273654E+03  1.074230E-08  9.726729E-10
        25  15  7.368839E+05  1.347492E+03  7.607590E+03 -2.909222E+04  3.121436E-09  1.324920E-09
        25  16  6.206204E+05 -2.869516E+04 -2.503501E+04 -2.884690E+04  6.826411E-09 -2.395420E-09
        25  17  5.886956E+05 -3.729123E+04 -3.203137E+04  6.668525E+03 -6.262474E-09  6.767026E-10
        25  18  5.572977E+05 -4.345663E+04 -3.694134E+04 -2.855200E+04  5.223694E-09 -2.236670E-10
        25  19  8.531428E+05  2.937424E+04  3.297149E+04 -2.934386E+04  1.557333E+02  3.510453E+02
        25  20  8.845588E+05  3.654765E+04  4.152393E+04  5.878710E+03  2.543139E+03  1.594757E+03
        25  21  9.164994E+05  4.614921E+04  5.215418E+04 -2.963257E+04  4.929938E+03  2.875206E+03
        25  22  7.368754E+05  3.400456E+02  3.968751E+03 -2.909536E+04  3.632387E+02  3.502687E+02
        25  23  7.366173E+05 -3.709698E+02  4.747112E+03  6.273658E+03  2.756346E+03  1.594042E+03
        25  24  7.368839E+05  1.347508E+03  7.607655E+03 -2.909221E+04  5.148727E+03  2.874552E+03
        25  25  6.206204E+05 -2.869516E+04 -2.503501E+04 -2.884690E+04  5.707052E+02  3.494921E+02
        25  26  5.886956E+05 -3.729123E+04 -3.203135E+04  6.668529E+03  2.969503E+03  1.593327E+03
        25  27  5.572977E+05 -4.345661E+04 -3.694127E+04 -2.855198E+04  5.367451E+03  2.873899E+03
        26   1  1.162498E+06  1.059155E+05  1.151769E+05 -3.102907E+04 -6.493658E+03 -3.656439E+03
        26   2  1.194220E+06  1.124166E+05  1.293005E+05  7.275821E+03 -1.431135E+04 -4.975850E+03
        26   3  1.231944E+06  1.320067E+05  1.521206E+05 -3.192789E+04 -2.212654E+04 -6.222424E+03
        26   4  7.380494E+05 -2.072424E+00  9.581092E+03 -3.060523E+04 -6.722234E+03 -3.655924E+03
        26   5  7.350622E+05 -2.141081E+03  1.518379E+04  8.156543E+03 -1.452259E+04 -4.975650E+03
        26   6  7.380759E+05  8.810856E+03  2.947551E+04 -3.059384E+04 -2.232000E+04 -6.222521E+03
        26   7  3.137643E+05 -1.059331E+05 -9.602817E+04 -3.018156E+04 -6.950652E+03 -3.655409E+03
        26   8  2.760953E+05 -1.167145E+05 -9.894867E+04  9.036712E+03 -1.473367E+04 -4.975451E+03
        26   9  2.444282E+05 -1.144033E+05 -9.318780E+04 -2.926077E+04 -2.251331E+04 -6.222619E+03
        26  10  1.162497E+06  1.059154E+05  1.151767E+05 -3.102909E+04 -8.621832E-09 -5.073323E-10
        26  11  1.194220E+06  1.124165E+05  1.293001E+05  7.275763E+03 -8.087039E-09 -1.270674E-09
        26  12  1.231944E+06  1.320065E+05  1.521196E+05 -3.192800E+04 -9.075198E-09  2.374175E-09
        26  13  7.380493E+05 -2.098897E+00  9.580982E+03 -3.060525E+04 -4.628420E-09 -8.206642E-10
        26  14  7.350620E+05 -2.141164E+03  1.518335E+04  8.156485E+03 -1.501748E-08 -7.238868E-10
        26  15  7.380753E+05  8.810680E+03  2.947450E+04 -3.059395E+04  1.479599E-10  1.505220E-09
        26  16  3.137643E+05 -1.059332E+05 -9.602828E+04 -3.018158E+04  3.923732E-09 -2.373976E-10
        26  17  2.760950E+05 -1.167146E+05 -9.894913E+04  9.036653E+03  2.333158E-09 -4.836822E-10
        26  18  2.444276E+05 -1.144035E+05 -9.318882E+04 -2.926088E+04  2.790788E-09  1.338019E-09
        26  19  1.162498E+06  1.059155E+05  1.151769E+05 -3.102907E+04  6.493658E+03  3.656439E+03
        26  20  1.194220E+06  1.124166E+05  1.293005E+05  7.275821E+03  1.431135E+04  4.975850E+03
        26  21  1.231944E+06  1.320067E+05  1.521206E+05 -3.192789E+04  2.212654E+04  6.222424E+03
        26  22  7.380494E+05 -2.072424E+00  9.581092E+03 -3.060523E+04  6.722234E+03  3.655924E+03
        26  23  7.350622E+05 -2.141081E+03  1.518379E+04  8.156543E+03  1.452259E+04  4.975650E+03
        26  24  7.380759E+05  8.810856E+03  2.947551E+04 -3.059384E+04  2.232000E+04  6.222521E+03
        26  25  3.137643E+05 -1.059331E+05 -9.602817E+04 -3.018156E+04  6.950652E+03  3.655409E+03
        26  26  2.760953E+05 -1.167145E+05 -9.894867E+04  9.036712E+03  1.473367E+04  4.975451E+03
        26  27  2.444282E+05 -1.144033E+05 -9.318780E+04 -2.926077E+04  2.251331E+04  6.222619E+03
        27   1  1.517172E+06  1.910945E+05  2.293723E+05 -3.066568E+04 -2.798616E+04 -7.397191E+03
        27   2  1.542017E+06  1.889718E+05  2.611272E+05  1.108139E+04 -5.923061E+04 -9.164746E+03
        27   3  1.599531E+06  2.739304E+05  3.363320E+05 -3.907289E+04 -9.047598E+04 -9.298152E+03
        27   4  7.438769E+05 -1.813004E+03  3.711261E+04 -3.376475E+04 -2.839908E+04 -7.397361E+03
        27   5  7.275761E+05 -1.417362E+04  5.878289E+04  1.212078E+04 -5.933273E+04 -9.165737E+03
        27   6  7.439179E+05  6.055165E+04  1.237268E+05 -3.390222E+04 -9.026523E+04 -9.299417E+03
        27   7 -2.887660E+04 -1.947654E+05 -1.551918E+05 -3.685987E+04 -2.881147E+04 -7.397526E+03
        27   8 -8.626446E+04 -2.173687E+05 -1.436110E+05  1.315867E+04 -5.943467E+04 -9.166729E+03
        27   9 -1.110326E+05 -1.528819E+05 -8.893306E+04 -2.873903E+04 -9.005470E+04 -9.300681E+03
        27  10  1.517171E+06  1.910943E+05  2.293708E+05 -3.066585E+04 -1.269819E-09  1.720405E-09
        27  11  1.542014E+06  1.889708E+05  2.611205E+05  1.108095E+04 -1.574306E-08 -1.191836E-09
        27  12  1.599523E+06  2.739282E+05  3.363165E+05 -3.907356E+04  2.654759E-10 -3.166949E-10
        27  13  7.438760E+05 -1.813279E+03  3.711100E+04 -3.376492E+04  1.279127E-08  1.034213E-09
        27  14  7.275723E+05 -1.417465E+04  5.877612E+04  1.212034E+04  4.343488E-09 -7.668144E-10
        27  15  7.439092E+05  6.054937E+04  1.237114E+05 -3.390290E+04 -1.326943E-09  6.393342E-10
        27  16 -2.887750E+04 -1.947656E+05 -1.551935E+05 -3.686004E+04  5.520169E-09  2.409949E-10
        27  17 -8.626828E+04 -2.173698E+05 -1.436178E+05  1.315823E+04  2.154249E-09 -1.577940E-09
        27  18 -1.110413E+05 -1.528842E+05 -8.894847E+04 -2.873971E+04 -4.155417E-09 -2.852533E-10
        27  19  1.517172E+06  1.910945E+05  2.293723E+05 -3.066568E+04  2.798616E+04  7.397191E+03
        27  20  1.542017E+06  1.889718E+05  2.611272E+05  1.108139E+04  5.923061E+04  9.164746E+03
        27  21  1.599531E+06  2.739304E+05  3.363320E+05 -3.907289E+04  9.047598E+04  9.298152E+03
        27  22  7.438769E+05 -1.813004E+03  3.711261E+04 -3.376475E+04  2.839908E+04  7.397361E+03
        27  23  7.275761E+05 -1.417362E+04  5.878289E+04  1.212078E+04  5.933273E+04  9.165737E+03
        27  24  7.439179E+05  6.055165E+04  1.237268E+05 -3.390222E+04  9.026523E+04  9.299417E+03
        27  25 -2.887660E+04 -1.947654E+05 -1.551918E+05 -3.685987E+04  2.881147E+04  7.397526E+03
        27  26 -8.626446E+04 -2.173687E+05 -1.436110E+05  1.315867E+04  5.943467E+04  9.166729E+03
        27  27 -1.110326E+05 -1.528819E+05 -8.893306E+04 -2.873903E+04  9.005470E+04  9.300681E+03
        28   1  1.971667E+06  2.842176E+05  4.471966E+05 -1.266030E+04 -1.135624E+05 -1.263873E+04
        28   2  1.934283E+06  2.166775E+05  5.367249E+05  1.212436E+04 -2.402973E+05 -1.693275E+04
        28   3  2.076318E+06  7.325180E+05  8.578985E+05 -8.185536E+04 -3.671261E+05 -8.321789E+03
        28   4  7.762980E+05 -1.409537E+04  1.501429E+05 -3.879105E+04 -1.151427E+05 -1.264132E+04
        28   5  6.866654E+05 -9.429270E+04  2.270509E+05  1.897507E+04 -2.394861E+05 -1.693482E+04
        28   6  7.763394E+05  4.090837E+05  5.342744E+05 -4.203253E+04 -3.639124E+05 -8.325277E+03
        28   7 -4.177764E+05 -3.125132E+05 -1.470174E+05 -6.487265E+04 -1.167198E+05 -1.264377E+04
        28   8 -5.595432E+05 -4.053792E+05 -8.273919E+04  2.581002E+04 -2.386761E+05 -1.693688E+04
        28   9 -5.221055E+05  8.552952E+04  2.105248E+05 -2.295810E+03 -3.607047E+05 -8.328375E+03
        28  10  1.971653E+06  2.842140E+05  4.471722E+05 -1.266146E+04  2.881982E-09  1.910825E-09
        28  11  1.934221E+06  2.166618E+05  5.366162E+05  1.212109E+04 -8.509108E-09  4.624967E-10
        28  12  2.076173E+06  7.324819E+05  8.576459E+05 -8.185782E+04  1.004500E-09 -4.693031E-10
        28  13  7.762837E+05 -1.409910E+04  1.501177E+05 -3.879223E+04  4.796248E-09  1.662826E-09
        28  14  6.866038E+05 -9.430838E+04  2.269427E+05  1.897180E+04 -6.498660E-09 -2.932564E-10
        28  15  7.761973E+05  4.090481E+05  5.340257E+05 -4.203497E+04 -9.560897E-10  3.320302E-10
        28  16 -4.177911E+05 -3.125170E+05 -1.470433E+05 -6.487384E+04 -2.267670E-10  7.999489E-10
        28  17 -5.596044E+05 -4.053948E+05 -8.284686E+04  2.580676E+04 -2.409872E-09  2.250906E-09
        28  18 -5.222453E+05  8.549449E+04  2.102800E+05 -2.298230E+03 -6.217040E-09  2.390944E-10
        28  19  1.971667E+06  2.842176E+05  4.471966E+05 -1.266030E+04  1.135624E+05  1.263873E+04
        28  20  1.934283E+06  2.166775E+05  5.367249E+05  1.212436E+04  2.402973E+05  1.693275E+04
        28  21  2.076318E+06  7.325180E+05  8.578985E+05 -8.185536E+04  3.671261E+05  8.321789E+03
        28  22  7.762980E+05 -1.409537E+04  1.501429E+05 -3.879105E+04  1.151427E+05  1.264132E+04
        28  23  6.866654E+05 -9.429270E+04  2.270509E+05  1.897507E+04  2.394861E+05  1.693482E+04
        28  24  7.763394E+05  4.090837E+05  5.342744E+05 -4.203253E+04  3.639124E+05  8.325277E+03
        28  25 -4.177764E+05 -3.125132E+05 -1.470174E+05 -6.487265E+04  1.167198E+05  1.264377E+04
        28  26 -5.595432E+05 -4.053792E+05 -8.273919E+04  2.581002E+04  2.386761E+05  1.693688E+04
        28  27 -5.221055E+05  8.552952E+04  2.105248E+05 -2.295810E+03  3.607047E+05  8.328375E+03
        29   1  2.921245E+05  2.510374E+04  3.803142E+05 -3.152765E+04 -2.251234E+03  2.593497E+05
        29   2 -6.669304E+04 -3.218599E+04  1.626795E+05 -8.939922E+03 -1.473170E+03  1.705111E+05
        29   3 -1.034529E+04  2.592481E+04  1.067162E+05  1.623212E+04 -7.022806E+02  8.166846E+04
        29   4  2.915389E+05  2.568603E+04  3.803139E+05  2.293368E+03 -2.237103E+03  2.593498E+05
        29   5 -6.684224E+04 -3.203701E+04  1.626795E+05 -3.002458E+02 -1.470797E+03  1.705111E+05
        29   6 -1.006044E+04  2.563915E+04  1.067161E+05 -3.079609E+02 -7.044567E+02  8.166844E+04
        29   7  2.909575E+05  2.627077E+04  3.803142E+05  3.611440E+04 -2.222972E+03  2.593499E+05
        29   8 -6.699116E+04 -3.188787E+04  1.626795E+05  8.339431E+03 -1.468423E+03  1.705111E+05
        29   9 -9.774559E+03  2.535408E+04  1.067162E+05 -1.684804E+04 -7.066327E+02  8.166842E+04
        29  10  2.921065E+05  2.503154E+04  3.801878E+05 -3.152718E+04 -3.841419E-09 -1.588612E-10
        29  11 -6.670085E+04 -3.221720E+04  1.626249E+05 -8.939719E+03 -7.160239E-09 -1.946307E-09
        29  12 -1.034708E+04  2.591765E+04  1.067036E+05  1.623217E+04 -4.732002E-09 -1.448736E-09
        29  13  2.915208E+05  2.561382E+04  3.801875E+05  2.293835E+03 -7.431102E-11 -3.160831E-11
        29  14 -6.685005E+04 -3.206822E+04  1.626249E+05 -3.000438E+02  8.193026E-09 -2.143026E-11
        29  15 -1.006223E+04  2.563199E+04  1.067036E+05 -3.079146E+02 -8.431885E-09  2.784133E-11
        29  16  2.909395E+05  2.619856E+04  3.801878E+05  3.611487E+04  6.403107E-09  2.508170E-10
        29  17 -6.699897E+04 -3.191908E+04  1.626249E+05  8.339633E+03  1.010707E-08  1.852731E-09
        29  18 -9.776350E+03  2.534692E+04  1.067036E+05 -1.684799E+04 -6.200475E-09  1.240467E-09
        29  19  2.921245E+05  2.510374E+04  3.803142E+05 -3.152765E+04  2.251234E+03 -2.593497E+05
        29  20 -6.669304E+04 -3.218599E+04  1.626795E+05 -8.939922E+03  1.473170E+03 -1.705111E+05
        29  21 -1.034529E+04  2.592481E+04  1.067162E+05  1.623212E+04  7.022806E+02 -8.166846E+04
        29  22  2.915389E+05  2.568603E+04  3.803139E+05  2.293368E+03  2.237103E+03 -2.593498E+05
        29  23 -6.684224E+04 -3.203701E+04  1.626795E+05 -3.002458E+02  1.470797E+03 -1.705111E+05
        29  24 -1.006044E+04  2.563915E+04  1.067161E+05 -3.079609E+02  7.044567E+02 -8.166844E+04
        29  25  2.909575E+05  2.627077E+04  3.803142E+05  3.611440E+04  2.222972E+03 -2.593499E+05
        29  26 -6.699116E+04 -3.188787E+04  1.626795E+05  8.339431E+03  1.468423E+03 -1.705111E+05
        29  27 -9.774559E+03  2.535408E+04  1.067162E+05 -1.684804E+04  7.066327E+02 -8.166842E+04
        30   1  4.372309E+04  4.038216E+03  8.840213E+04 -4.493152E+03 -5.529559E+02  6.404696E+04
        30   2 -1.004040E+04 -5.165337E+03  4.277504E+04 -1.189042E+03 -3.592548E+02  4.163989E+04
        30   3 -1.377500E+03  4.160435E+03  2.734640E+04  2.493736E+03 -1.658219E+02  1.923304E+04
        30   4  4.363965E+04  4.121593E+03  8.840212E+04  3.409007E+02 -5.524571E+02  6.404696E+04
        30   5 -1.006019E+04 -5.145555E+03  4.277504E+04 -4.239588E+01 -3.591779E+02  4.163989E+04
        30   6 -1.333677E+03  4.116593E+03  2.734640E+04 -4.701650E+01 -1.659006E+02  1.923304E+04
        30   7  4.355629E+04  4.205019E+03  8.840213E+04  5.174954E+03 -5.519584E+02  6.404697E+04
        30   8 -1.007997E+04 -5.125771E+03  4.277504E+04  1.104250E+03 -3.591010E+02  4.163989E+04
        30   9 -1.289830E+03  4.072764E+03  2.734640E+04 -2.587769E+03 -1.659793E+02  1.923304E+04
        30  10  4.372199E+04  4.033812E+03  8.839442E+04 -4.493124E+03 -3.902330E-09  4.106604E-09
        30  11 -1.004087E+04 -5.167198E+03  4.277178E+04 -1.189030E+03  4.799627E-09  1.412630E-09
        30  12 -1.377600E+03  4.160038E+03  2.734570E+04  2.493739E+03  1.031971E-08 -1.438576E-09
        30  13  4.363855E+04  4.117188E+03  8.839441E+04  3.409292E+02  6.868781E-09  1.383032E-11
        30  14 -1.006066E+04 -5.147417E+03  4.277178E+04 -4.238383E+01  3.880634E-09  1.376743E-10
        30  15 -1.333776E+03  4.116195E+03  2.734570E+04 -4.701393E+01  2.288231E-09  1.120410E-10
        30  16  4.355519E+04  4.200615E+03  8.839442E+04  5.174982E+03 -6.720471E-09 -4.142451E-09
        30  17 -1.008044E+04 -5.127633E+03  4.277178E+04  1.104262E+03  1.809437E-08 -1.299323E-09
        30  18 -1.289929E+03  4.072367E+03  2.734570E+04 -2.587766E+03  4.955822E-09  1.532315E-09
        30  19  4.372309E+04  4.038216E+03  8.840213E+04 -4.493152E+03  5.529559E+02 -6.404696E+04
        30  20 -1.004040E+04 -5.165337E+03  4.277504E+04 -1.189042E+03  3.592548E+02 -4.163989E+04
        30  21 -1.377500E+03  4.160435E+03  2.734640E+04  2.493736E+03  1.658219E+02 -1.923304E+04
        30  22  4.363965E+04  4.121593E+03  8.840212E+04  3.409007E+02  5.524571E+02 -6.404696E+04
        30  23 -1.006019E+04 -5.145555E+03  4.277504E+04 -4.239588E+01  3.591779E+02 -4.163989E+04
        30  24 -1.333677E+03  4.116593E+03  2.734640E+04 -4.701650E+01  1.659006E+02 -1.923304E+04
        30  25  4.355629E+04  4.205019E+03  8.840213E+04  5.174954E+03  5.519584E+02 -6.404697E+04
        30  26 -1.007997E+04 -5.125771E+03  4.277504E+04  1.104250E+03  3.591010E+02 -4.163989E+04
        30  27 -1.289830E+03  4.072764E+03  2.734640E+04 -2.587769E+03  1.659793E+02 -1.923304E+04
        31   1  6.480165E+03  7.782117E+02  2.247615E+04 -6.706574E+02 -1.270592E+02  1.472814E+04
        31   2 -1.718249E+03 -9.897814E+02  1.341624E+04 -1.295291E+02 -6.800135E+01  7.883290E+03
        31   3  7.395186E+02  7.982664E+02  1.147709E+04  4.728400E+02 -8.957721E+00  1.038570E+03
        31   4  6.467748E+03  7.906269E+02  2.247615E+04  4.897343E+01 -1.270422E+02  1.472814E+04
        31   5 -1.720375E+03 -9.876557E+02  1.341624E+04 -6.320770E+00 -6.799978E+01  7.883290E+03
        31   6  7.476823E+02  7.901020E+02  1.147708E+04 -3.659316E-01 -8.958513E+00  1.038570E+03
        31   7  6.455334E+03  8.030432E+02  2.247615E+04  7.686042E+02 -1.270251E+02  1.472814E+04
        31   8 -1.722501E+03 -9.855300E+02  1.341624E+04  1.168876E+02 -6.799822E+01  7.883290E+03
        31   9  7.558469E+02  7.819381E+02  1.147709E+04 -4.735719E+02 -8.959305E+00  1.038570E+03
        31  10  6.480107E+03  7.779788E+02  2.247574E+04 -6.706559E+02 -2.242175E-09 -4.066659E-10
        31  11 -1.718266E+03 -9.898482E+02  1.341612E+04 -1.295287E+02 -8.453551E-12  3.350161E-10
        31  12  7.395183E+02  7.982653E+02  1.147708E+04  4.728400E+02 -5.913267E-09 -1.039694E-09
        31  13  6.467690E+03  7.903940E+02  2.247574E+04  4.897494E+01 -1.745262E-09  9.773312E-11
        31  14 -1.720392E+03 -9.877225E+02  1.341612E+04 -6.320338E+00 -8.229569E-09 -2.200782E-11
        31  15  7.476820E+02  7.901009E+02  1.147708E+04 -3.659241E-01 -3.240271E-10 -1.503765E-10
        31  16  6.455275E+03  8.028103E+02  2.247574E+04  7.686057E+02 -6.607419E-11  4.888147E-10
        31  17 -1.722517E+03 -9.855968E+02  1.341612E+04  1.168880E+02 -3.324727E-09 -3.687539E-10
        31  18  7.558466E+02  7.819369E+02  1.147708E+04 -4.735719E+02  1.121542E-09  1.003527E-09
        31  19  6.480165E+03  7.782117E+02  2.247615E+04 -6.706574E+02  1.270592E+02 -1.472814E+04
        31  20 -1.718249E+03 -9.897814E+02  1.341624E+04 -1.295291E+02  6.800135E+01 -7.883290E+03
        31  21  7.395186E+02  7.982664E+02  1.147709E+04  4.728400E+02  8.957721E+00 -1.038570E+03
        31  22  6.467748E+03  7.906269E+02  2.247615E+04  4.897343E+01  1.270422E+02 -1.472814E+04
        31  23 -1.720375E+03 -9.876557E+02  1.341624E+04 -6.320770E+00  6.799978E+01 -7.883290E+03
        31  24  7.476823E+02  7.901020E+02  1.147708E+04 -3.659316E-01  8.958513E+00 -1.038570E+03
        31  25  6.455334E+03  8.030432E+02  2.247615E+04  7.686042E+02  1.270251E+02 -1.472814E+04
        31  26 -1.722501E+03 -9.855300E+02  1.341624E+04  1.168876E+02  6.799822E+01 -7.883290E+03
        31  27  7.558469E+02  7.819381E+02  1.147709E+04 -4.735719E+02  8.959305E+00 -1.038570E+03
        32   1 -9.479857E+06 -3.188056E+06 -1.999898E+06 -3.329787E+06 -8.255564E+05 -2.790396E+05
        32   2 -9.241490E+06 -1.969745E+06 -1.233598E+06 -3.405626E+06 -5.409465E+05 -9.214680E+04
        32   3 -9.382725E+06 -1.902754E+06 -9.978482E+05 -3.270034E+06 -2.286882E+05  2.296745E+04
        32   4 -6.810577E+06 -1.876645E+06 -1.208902E+06 -2.306598E+06 -7.750524E+05 -2.601189E+05
        32   5 -6.558466E+06 -8.626440E+05 -5.060093E+05 -2.581215E+06 -5.259800E+05 -8.655046E+04
        32   6 -6.677004E+06 -9.900694E+05 -3.034323E+05 -2.644940E+06 -2.493304E+05  1.513505E+04
        32   7 -4.134106E+06 -5.633053E+05 -4.186112E+05 -1.278898E+06 -7.242991E+05 -2.410426E+05
        32   8 -3.868324E+06  2.452812E+05  2.209276E+05 -1.753395E+06 -5.109370E+05 -8.091942E+04
        32   9 -3.964079E+06 -7.727907E+04  3.903980E+05 -2.017508E+06 -2.700713E+05  7.275015E+03
        32  10 -9.480620E+06 -3.188328E+06 -2.001350E+06 -3.329975E+06 -9.112155E-10  6.771292E-10
        32  11 -9.241811E+06 -1.969834E+06 -1.234173E+06 -3.405667E+06  1.071246E-09  1.212406E-09
        32  12 -9.382782E+06 -1.902769E+06 -9.979488E+05 -3.270029E+06 -2.149529E-09 -7.466456E-10
        32  13 -6.811247E+06 -1.876882E+06 -1.210174E+06 -2.306762E+06 -5.515566E-09  4.968831E-10
        32  14 -6.558767E+06 -8.627275E+05 -5.065495E+05 -2.581252E+06  1.080579E-08  1.109515E-09
        32  15 -6.677072E+06 -9.900865E+05 -3.035507E+05 -2.644937E+06 -1.457614E-09 -2.902002E-10
        32  16 -4.134688E+06 -5.635102E+05 -4.197144E+05 -1.279039E+06  2.115454E-09  7.761647E-10
        32  17 -3.868607E+06  2.452034E+05  2.204211E+05 -1.753429E+06  6.558353E-09  1.251286E-09
        32  18 -3.964158E+06 -7.729884E+04  3.902600E+05 -2.017507E+06  1.930788E-09  2.645359E-11
        32  19 -9.479857E+06 -3.188056E+06 -1.999898E+06 -3.329787E+06  8.255564E+05  2.790396E+05
        32  20 -9.241490E+06 -1.969745E+06 -1.233598E+06 -3.405626E+06  5.409465E+05  9.214680E+04
        32  21 -9.382725E+06 -1.902754E+06 -9.978482E+05 -3.270034E+06  2.286882E+05 -2.296745E+04
        32  22 -6.810577E+06 -1.876645E+06 -1.208902E+06 -2.306598E+06  7.750524E+05  2.601189E+05
        32  23 -6.558466E+06 -8.626440E+05 -5.060093E+05 -2.581215E+06  5.259800E+05  8.655046E+04
        32  24 -6.677004E+06 -9.900694E+05 -3.034323E+05 -2.644940E+06  2.493304E+05 -1.513505E+04
        32  25 -4.134106E+06 -5.633053E+05 -4.186112E+05 -1.278898E+06  7.242991E+05  2.410426E+05
        32  26 -3.868324E+06  2.452812E+05  2.209276E+05 -1.753395E+06  5.109370E+05  8.091942E+04
        32  27 -3.964079E+06 -7.727907E+04  3.903980E+05 -2.017508E+06  2.700713E+05 -7.275015E+03
        33   1 -9.006190E+06 -2.052450E+06 -8.830384E+05 -3.263371E+06 -2.011905E+05  1.724873E+04
        33   2 -8.840300E+06 -1.799482E+06 -6.992579E+05 -3.158002E+06 -1.351737E+05  3.834019E+04
        33   3 -8.609235E+06 -1.769796E+06 -5.937523E+05 -3.148972E+06 -6.671986E+04  5.293610E+04
        33   4 -6.629534E+06 -1.122713E+06 -2.464285E+05 -2.584749E+06 -2.017567E+05  1.699781E+04
        33   5 -6.655492E+06 -9.648509E+05 -1.193016E+05 -2.554070E+06 -1.388188E+05  3.693979E+04
        33   6 -6.615511E+06 -1.029360E+06 -6.773835E+04 -2.619756E+06 -7.347011E+04  5.038354E+04
        33   7 -4.247331E+06 -1.925251E+05  3.896783E+05 -1.903705E+06 -2.023242E+05  1.674647E+04
        33   8 -4.465994E+06 -1.298980E+05  4.602381E+05 -1.948177E+06 -1.424776E+05  3.553420E+04
        33   9 -4.617885E+06 -2.887123E+05  4.579349E+05 -2.088993E+06 -8.024428E+04  4.782238E+04
        33  10 -9.006234E+06 -2.052461E+06 -8.831160E+05 -3.263368E+06 -5.189718E-10 -1.214574E-09
        33  11 -8.840320E+06 -1.799488E+06 -6.992954E+05 -3.157998E+06 -8.414950E-09  7.980149E-10
        33  12 -8.609240E+06 -1.769800E+06 -5.937660E+05 -3.148969E+06  8.018354E-09 -7.977333E-10
        33  13 -6.629578E+06 -1.122724E+06 -2.465062E+05 -2.584747E+06 -4.341435E-09 -5.329387E-10
        33  14 -6.655513E+06 -9.648575E+05 -1.193406E+05 -2.554066E+06 -1.521421E-09  2.496260E-10
        33  15 -6.615518E+06 -1.029364E+06 -6.775329E+04 -2.619753E+06 -3.382217E-09 -1.837626E-09
        33  16 -4.247376E+06 -1.925364E+05  3.896003E+05 -1.903702E+06  4.592260E-09  1.139615E-09
        33  17 -4.466017E+06 -1.299048E+05  4.601974E+05 -1.948173E+06  5.969349E-09  6.861403E-10
        33  18 -4.617893E+06 -2.887165E+05  4.579185E+05 -2.088990E+06 -1.877911E-10 -2.206807E-09
        33  19 -9.006190E+06 -2.052450E+06 -8.830384E+05 -3.263371E+06  2.011905E+05 -1.724873E+04
        33  20 -8.840300E+06 -1.799482E+06 -6.992579E+05 -3.158002E+06  1.351737E+05 -3.834019E+04
        33  21 -8.609235E+06 -1.769796E+06 -5.937523E+05 -3.148972E+06  6.671986E+04 -5.293610E+04
        33  22 -6.629534E+06 -1.122713E+06 -2.464285E+05 -2.584749E+06  2.017567E+05 -1.699781E+04
        33  23 -6.655492E+06 -9.648509E+05 -1.193016E+05 -2.554070E+06  1.388188E+05 -3.693979E+04
        33  24 -6.615511E+06 -1.029360E+06 -6.773835E+04 -2.619756E+06  7.347011E+04 -5.038354E+04
        33  25 -4.247331E+06 -1.925251E+05  3.896783E+05 -1.903705E+06  2.023242E+05 -1.674647E+04
        33  26 -4.465994E+06 -1.298980E+05  4.602381E+05 -1.948177E+06  1.424776E+05 -3.553420E+04
        33  27 -4.617885E+06 -2.887123E+05  4.579349E+05 -2.088993E+06  8.024428E+04 -4.782238E+04
        34   1 -8.271087E+06 -1.679560E+06 -4.933521E+05 -3.075001E+06 -5.568171E+04  4.897795E+04
        34   2 -8.075342E+06 -1.496315E+06 -3.985889E+05 -2.923498E+06 -3.691772E+04  4.316973E+04
        34   3 -7.742943E+06 -1.465290E+06 -3.174096E+05 -2.930387E+06 -1.773475E+04  3.614383E+04
        34   4 -6.604524E+06 -1.048942E+06 -5.289037E+04 -2.620145E+06 -6.119475E+04  4.689787E+04
        34   5 -6.672010E+06 -9.675816E+05 -2.762832E+04 -2.542890E+06 -4.301332E+04  4.088180E+04
        34   6 -6.602791E+06 -1.038283E+06 -1.544811E+04 -2.624029E+06 -2.442032E+04  3.364700E+04
        34   7 -4.935236E+06 -4.181488E+05  3.873309E+05 -2.164167E+06 -6.672413E+04  4.481164E+04
        34   8 -5.266750E+06 -4.387299E+05  3.431612E+05 -2.161493E+06 -4.912416E+04  3.858819E+04
        34   9 -5.461370E+06 -6.112026E+05  2.863998E+05 -2.317157E+06 -3.111947E+04  3.114514E+04
        34  10 -8.271091E+06 -1.679563E+06 -4.933625E+05 -3.074998E+06  1.743954E-09 -2.137069E-09
        34  11 -8.075344E+06 -1.496317E+06 -3.985949E+05 -2.923497E+06  1.424569E-09 -1.017040E-09
        34  12 -7.742944E+06 -1.465291E+06 -3.174127E+05 -2.930387E+06  4.285692E-09  1.000531E-09
        34  13 -6.604529E+06 -1.048945E+06 -5.290155E+04 -2.620142E+06  1.286821E-08 -1.868471E-09
        34  14 -6.672013E+06 -9.675839E+05 -2.763494E+04 -2.542888E+06  4.123089E-09 -4.670867E-10
        34  15 -6.602792E+06 -1.038284E+06 -1.545135E+04 -2.624028E+06 -1.393493E-08 -1.987221E-09
        34  16 -4.935241E+06 -4.181521E+05  3.873188E+05 -2.164164E+06  2.231187E-09 -1.727638E-09
        34  17 -5.266753E+06 -4.387321E+05  3.431539E+05 -2.161491E+06  1.614376E-09 -1.023198E-10
        34  18 -5.461371E+06 -6.112039E+05  2.863962E+05 -2.317156E+06 -5.332270E-09 -2.652723E-09
        34  19 -8.271087E+06 -1.679560E+06 -4.933521E+05 -3.075001E+06  5.568171E+04 -4.897795E+04
        34  20 -8.075342E+06 -1.496315E+06 -3.985889E+05 -2.923498E+06  3.691772E+04 -4.316973E+04
        34  21 -7.742943E+06 -1.465290E+06 -3.174096E+05 -2.930387E+06  1.773475E+04 -3.614383E+04
        34  22 -6.604524E+06 -1.048942E+06 -5.289037E+04 -2.620145E+06  6.119475E+04 -4.689787E+04
        34  23 -6.672010E+06 -9.675816E+05 -2.762832E+04 -2.542890E+06  4.301332E+04 -4.088180E+04
        34  24 -6.602791E+06 -1.038283E+06 -1.544811E+04 -2.624029E+06  2.442032E+04 -3.364700E+04
        34  25 -4.935236E+06 -4.181488E+05  3.873309E+05 -2.164167E+06  6.672413E+04 -4.481164E+04
        34  26 -5.266750E+06 -4.387299E+05  3.431612E+05 -2.161493E+06  4.912416E+04 -3.858819E+04
        34  27 -5.461370E+06 -6.112026E+05  2.863998E+05 -2.317157E+06  3.111947E+04 -3.114514E+04
        35   1 -7.361854E+06 -1.329539E+06 -2.124607E+05 -2.833504E+06 -1.263012E+04  2.933056E+04
        35   2 -7.143885E+06 -1.139177E+06 -1.304274E+05 -2.663644E+06 -3.991482E+03  1.744409E+04
        35   3 -6.770746E+06 -1.106288E+06 -5.154959E+04 -2.673859E+06  4.745840E+03  5.254137E+03
        35   4 -6.599025E+06 -1.043215E+06 -1.210138E+04 -2.627369E+06 -1.934521E+04  2.682828E+04
        35   5 -6.676445E+06 -9.638196E+05 -7.071704E+03 -2.537554E+06 -1.085801E+04  1.488918E+04
        35   6 -6.598766E+06 -1.041865E+06 -5.069526E+03 -2.627840E+06 -2.274276E+03  2.646375E+03
        35   7 -5.835622E+06 -7.568545E+05  1.882093E+05 -2.421001E+06 -2.606948E+04  2.432257E+04
        35   8 -6.208792E+06 -7.884500E+05  1.162651E+05 -2.411377E+06 -1.773026E+04  1.233214E+04
        35   9 -6.426758E+06 -9.774418E+05  4.140770E+04 -2.581809E+06 -9.296489E+03  3.783941E+01
        35  10 -7.361855E+06 -1.329540E+06 -2.124626E+05 -2.833504E+06  6.608414E-09 -1.192734E-09
        35  11 -7.143885E+06 -1.139177E+06 -1.304280E+05 -2.663644E+06  9.604707E-09 -6.504738E-10
        35  12 -6.770747E+06 -1.106288E+06 -5.154968E+04 -2.673859E+06  1.100773E-09 -4.450289E-10
        35  13 -6.599026E+06 -1.043216E+06 -1.210343E+04 -2.627369E+06 -8.589725E-09 -2.060065E-09
        35  14 -6.676445E+06 -9.638199E+05 -7.072341E+03 -2.537554E+06 -6.966746E-09 -3.060694E-09
        35  15 -6.598766E+06 -1.041865E+06 -5.069548E+03 -2.627840E+06 -6.950873E-09  2.646749E-10
        35  16 -5.835623E+06 -7.568553E+05  1.882069E+05 -2.421001E+06 -3.201843E-09 -2.255988E-09
        35  17 -6.208793E+06 -7.884502E+05  1.162643E+05 -2.411377E+06  1.656411E-09  8.209231E-10
        35  18 -6.426758E+06 -9.774418E+05  4.140753E+04 -2.581809E+06 -4.526862E-09 -1.414871E-09
        35  19 -7.361854E+06 -1.329539E+06 -2.124607E+05 -2.833504E+06  1.263012E+04 -2.933056E+04
        35  20 -7.143885E+06 -1.139177E+06 -1.304274E+05 -2.663644E+06  3.991482E+03 -1.744409E+04
        35  21 -6.770746E+06 -1.106288E+06 -5.154959E+04 -2.673859E+06 -4.745840E+03 -5.254137E+03
        35  22 -6.599025E+06 -1.043215E+06 -1.210138E+04 -2.627369E+06  1.934521E+04 -2.682828E+04
        35  23 -6.676445E+06 -9.638196E+05 -7.071704E+03 -2.537554E+06  1.085801E+04 -1.488918E+04
        35  24 -6.598766E+06 -1.041865E+06 -5.069526E+03 -2.627840E+06  2.274276E+03 -2.646375E+03
        35  25 -5.835622E+06 -7.568545E+05  1.882093E+05 -2.421001E+06  2.606948E+04 -2.432257E+04
        35  26 -6.208792E+06 -7.884500E+05  1.162651E+05 -2.411377E+06  1.773026E+04 -1.233214E+04
        35  27 -6.426758E+06 -9.774418E+05  4.140770E+04 -2.581809E+06  9.296489E+03 -3.783941E+01
        36   1 -6.374088E+06 -9.575518E+05  5.561212E+04 -2.567391E+06  8.515670E+03 -2.454616E+03
        36   2 -6.156837E+06 -7.691244E+05  1.315626E+05 -2.397456E+06  1.612071E+04 -1.503273E+04
        36   3 -5.784480E+06 -7.372884E+05  2.053315E+05 -2.407108E+06  2.361968E+04 -2.727235E+04
        36   4 -6.598810E+06 -1.041796E+06 -4.780866E+03 -2.627698E+06  1.495825E+03 -5.062421E+03
        36   5 -6.676418E+06 -9.640126E+05 -5.474114E+03 -2.537697E+06  9.268973E+03 -1.758272E+04
        36   6 -6.599027E+06 -1.042869E+06 -8.477084E+03 -2.627328E+06  1.693455E+04 -2.976456E+04
        36   7 -6.823484E+06 -1.126038E+06 -6.517836E+04 -2.687986E+06 -5.521231E+03 -7.669193E+03
        36   8 -7.195737E+06 -1.158886E+06 -1.425349E+05 -2.677831E+06  2.423537E+03 -2.013037E+04
        36   9 -7.412932E+06 -1.348413E+06 -2.223445E+05 -2.847286E+06  1.025905E+04 -3.225318E+04
        36  10 -6.374089E+06 -9.575518E+05  5.561197E+04 -2.567391E+06 -1.909070E-09  1.940504E-10
        36  11 -6.156838E+06 -7.691247E+05  1.315617E+05 -2.397456E+06 -6.840062E-10 -5.624312E-10
        36  12 -5.784480E+06 -7.372893E+05  2.053291E+05 -2.407108E+06 -1.088403E-09  1.126206E-09
        36  13 -6.598810E+06 -1.041796E+06 -4.780918E+03 -2.627698E+06 -4.087165E-09 -4.327158E-10
        36  14 -6.676418E+06 -9.640130E+05 -5.474854E+03 -2.537697E+06 -1.004651E-08 -6.410397E-10
        36  15 -6.599027E+06 -1.042870E+06 -8.479280E+03 -2.627328E+06 -1.087314E-09 -1.299737E-09
        36  16 -6.823484E+06 -1.126039E+06 -6.517853E+04 -2.687986E+06  3.919349E-09 -2.561574E-09
        36  17 -7.195737E+06 -1.158887E+06 -1.425357E+05 -2.677831E+06 -4.040708E-09 -6.612386E-10
        36  18 -7.412933E+06 -1.348414E+06 -2.223466E+05 -2.847286E+06 -6.675110E-09 -2.741267E-09
        36  19 -6.374088E+06 -9.575518E+05  5.561212E+04 -2.567391E+06 -8.515670E+03  2.454616E+03
        36  20 -6.156837E+06 -7.691244E+05  1.315626E+05 -2.397456E+06 -1.612071E+04  1.503273E+04
        36  21 -5.784480E+06 -7.372884E+05  2.053315E+05 -2.407108E+06 -2.361968E+04  2.727235E+04
        36  22 -6.598810E+06 -1.041796E+06 -4.780866E+03 -2.627698E+06 -1.495825E+03  5.062421E+03
        36  23 -6.676418E+06 -9.640126E+05 -5.474114E+03 -2.537697E+06 -9.268973E+03  1.758272E+04
        36  24 -6.599027E+06 -1.042869E+06 -8.477084E+03 -2.627328E+06 -1.693455E+04  2.976456E+04
        36  25 -6.823484E+06 -1.126038E+06 -6.517836E+04 -2.687986E+06  5.521231E+03  7.669193E+03
        36  26 -7.195737E+06 -1.158886E+06 -1.425349E+05 -2.677831E+06 -2.423537E+03  2.013037E+04
        36  27 -7.412932E+06 -1.348413E+06 -2.223445E+05 -2.847286E+06 -1.025905E+04  3.225318E+04
        37   1 -5.412978E+06 -5.923580E+05  3.041552E+05 -2.302964E+06  2.794974E+04 -3.431102E+04
        37   2 -5.220625E+06 -4.221948E+05  3.643821E+05 -2.149277E+06  4.133798E+04 -4.336880E+04
        37   3 -4.890467E+06 -3.987323E+05  4.165271E+05 -2.153261E+06  5.431192E+04 -5.118734E+04
        37   4 -6.602750E+06 -1.038150E+06 -1.053750E+04 -2.623505E+06  2.129826E+04 -3.679648E+04
        37   5 -6.672198E+06 -9.684946E+05 -1.862033E+04 -2.543278E+06  3.529512E+04 -4.563852E+04
        37   6 -6.604023E+06 -1.045703E+06 -3.528120E+04 -2.620772E+06  4.887304E+04 -5.324125E+04
        37   7 -7.791128E+06 -1.483857E+06 -3.253497E+05 -2.943484E+06  1.466093E+04 -3.927671E+04
        37   8 -8.121703E+06 -1.514664E+06 -4.018026E+05 -2.936435E+06  2.926789E+04 -4.790241E+04
        37   9 -8.314704E+06 -1.692489E+06 -4.873422E+05 -3.087102E+06  4.345069E+04 -5.528895E+04
        37  10 -5.412980E+06 -5.923595E+05  3.041515E+05 -2.302963E+06  4.402690E-09  2.026496E-09
        37  11 -5.220628E+06 -4.221972E+05  3.643754E+05 -2.149276E+06  2.207502E-09  3.074779E-09
        37  12 -4.890471E+06 -3.987359E+05  4.165167E+05 -2.153259E+06  3.577427E-09  2.299275E-09
        37  13 -6.602750E+06 -1.038152E+06 -1.054088E+04 -2.623505E+06 -4.375287E-09  1.268705E-09
        37  14 -6.672200E+06 -9.684972E+05 -1.862657E+04 -2.543277E+06 -1.931483E-10  3.791895E-09
        37  15 -6.604026E+06 -1.045706E+06 -3.529100E+04 -2.620770E+06  3.922882E-09  1.934476E-09
        37  16 -7.791129E+06 -1.483858E+06 -3.253530E+05 -2.943483E+06 -4.421686E-09 -5.925580E-10
        37  17 -8.121704E+06 -1.514667E+06 -4.018085E+05 -2.936434E+06  6.850514E-09  1.211837E-09
        37  18 -8.314707E+06 -1.692493E+06 -4.873515E+05 -3.087100E+06 -4.915360E-09  2.029350E-10
        37  19 -5.412978E+06 -5.923580E+05  3.041552E+05 -2.302964E+06 -2.794974E+04  3.431102E+04
        37  20 -5.220625E+06 -4.221948E+05  3.643821E+05 -2.149277E+06 -4.133798E+04  4.336880E+04
        37  21 -4.890467E+06 -3.987323E+05  4.165271E+05 -2.153261E+06 -5.431192E+04  5.118734E+04
        37  22 -6.602750E+06 -1.038150E+06 -1.053750E+04 -2.623505E+06 -2.129826E+04  3.679648E+04
        37  23 -6.672198E+06 -9.684946E+05 -1.862033E+04 -2.543278E+06 -3.529512E+04  4.563852E+04
        37  24 -6.604023E+06 -1.045703E+06 -3.528120E+04 -2.620772E+06 -4.887304E+04  5.324125E+04
        37  25 -7.791128E+06 -1.483857E+06 -3.253497E+05 -2.943484E+06 -1.466093E+04  3.927671E+04
        37  26 -8.121703E+06 -1.514664E+06 -4.018026E+05 -2.936435E+06 -2.926789E+04  4.790241E+04
        37  27 -8.314704E+06 -1.692489E+06 -4.873422E+05 -3.087102E+06 -4.345069E+04  5.528895E+04
        38   1 -4.579352E+06 -2.711743E+05  4.911177E+05 -2.072285E+06  6.457493E+04 -5.533777E+04
        38   2 -4.431795E+06 -1.229529E+05  5.094564E+05 -1.940133E+06  1.061317E+05 -5.068314E+04
        38   3 -4.202406E+06 -1.563359E+05  4.807012E+05 -1.911185E+06  1.452969E+05 -3.953641E+04
        38   4 -6.613539E+06 -1.030112E+06 -4.504097E+04 -2.617660E+06  5.789970E+04 -5.786463E+04
        38   5 -6.658798E+06 -9.701607E+05 -7.960131E+04 -2.554318E+06  1.026403E+05 -5.202632E+04
        38   6 -6.623014E+06 -1.092674E+06 -1.639407E+05 -2.594215E+06  1.449719E+05 -3.969157E+04
        38   7 -8.643691E+06 -1.788822E+06 -5.815576E+05 -3.161415E+06  5.124852E+04 -6.038273E+04
        38   8 -8.880954E+06 -1.817044E+06 -6.690905E+05 -3.166486E+06  9.916228E+04 -5.336442E+04
        38   9 -9.037890E+06 -2.028577E+06 -8.090976E+05 -3.274787E+06  1.446475E+05 -3.984657E+04
        38  10 -4.579357E+06 -2.711787E+05  4.911042E+05 -2.072282E+06 -1.449340E-09 -1.163679E-10
        38  11 -4.431808E+06 -1.229586E+05  5.094303E+05 -1.940128E+06  8.853069E-09 -1.467114E-09
        38  12 -4.202429E+06 -1.563433E+05  4.806584E+05 -1.911180E+06  3.215903E-09  1.087535E-10
        38  13 -6.613544E+06 -1.030116E+06 -4.505355E+04 -2.617657E+06  8.376664E-09  4.692424E-10
        38  14 -6.658810E+06 -9.701664E+05 -7.962628E+04 -2.554314E+06  7.053406E-10  2.040375E-10
        38  15 -6.623037E+06 -1.092682E+06 -1.639834E+05 -2.594210E+06  1.451160E-09 -6.970659E-10
        38  16 -8.643695E+06 -1.788826E+06 -5.815693E+05 -3.161412E+06  7.335853E-09 -1.016756E-09
        38  17 -8.880965E+06 -1.817049E+06 -6.691144E+05 -3.166482E+06  2.086040E-09 -5.494935E-10
        38  18 -9.037913E+06 -2.028585E+06 -8.091403E+05 -3.274782E+06 -3.725675E-09  4.131613E-10
        38  19 -4.579352E+06 -2.711743E+05  4.911177E+05 -2.072285E+06 -6.457493E+04  5.533777E+04
        38  20 -4.431795E+06 -1.229529E+05  5.094564E+05 -1.940133E+06 -1.061317E+05  5.068314E+04
        38  21 -4.202406E+06 -1.563359E+05  4.807012E+05 -1.911185E+06 -1.452969E+05  3.953641E+04
        38  22 -6.613539E+06 -1.030112E+06 -4.504097E+04 -2.617660E+06 -5.789970E+04  5.786463E+04
        38  23 -6.658798E+06 -9.701607E+05 -7.960131E+04 -2.554318E+06 -1.026403E+05  5.202632E+04
        38  24 -6.623014E+06 -1.092674E+06 -1.639407E+05 -2.594215E+06 -1.449719E+05  3.969157E+04
        38  25 -8.643691E+06 -1.788822E+06 -5.815576E+05 -3.161415E+06 -5.124852E+04  6.038273E+04
        38  26 -8.880954E+06 -1.817044E+06 -6.690905E+05 -3.166486E+06 -9.916228E+04  5.336442E+04
        38  27 -9.037890E+06 -2.028577E+06 -8.090976E+05 -3.274787E+06 -1.446475E+05  3.984657E+04
        39   1 -3.947434E+06 -4.943749E+04  4.988914E+05 -1.963122E+06  1.989023E+05 -3.534958E+04
        39   2 -3.858901E+06  1.899707E+05  3.956549E+05 -1.765203E+06  3.473223E+05  1.760648E+04
        39   3 -3.984968E+06 -3.393269E+05 -9.597670E+03 -1.448900E+06  4.682414E+05  1.423303E+05
        39   4 -6.657722E+06 -1.001076E+06 -2.018031E+05 -2.630406E+06  1.783874E+05 -4.316008E+04
        39   5 -6.590687E+06 -9.068195E+05 -3.371066E+05 -2.577207E+06  3.629376E+05  2.350441E+04
        39   6 -6.746755E+06 -1.590568E+06 -8.044039E+05 -2.405319E+06  5.199045E+05  1.620046E+05
        39   7 -9.360830E+06 -1.952500E+06 -9.031010E+05 -3.295140E+06  1.579704E+05 -5.093985E+04
        39   8 -9.315135E+06 -2.002882E+06 -1.070528E+06 -3.385850E+06  3.784736E+05  2.936834E+04
        39   9 -9.500990E+06 -2.840396E+06 -1.599941E+06 -3.357532E+06  5.713070E+05  1.815387E+05
        39  10 -3.947477E+06 -4.944949E+04  4.988143E+05 -1.963116E+06  6.136367E-09  2.185701E-09
        39  11 -3.859031E+06  1.899377E+05  3.954262E+05 -1.765208E+06  5.012249E-09 -5.809839E-11
        39  12 -3.985210E+06 -3.394082E+05 -1.005104E+04 -1.448954E+06 -3.083762E-09 -8.578222E-10
        39  13 -6.657757E+06 -1.001086E+06 -2.018669E+05 -2.630399E+06  7.911358E-09  9.036206E-10
        39  14 -6.590830E+06 -9.068559E+05 -3.373579E+05 -2.577214E+06 -2.782363E-09  6.792474E-09
        39  15 -6.747055E+06 -1.590671E+06 -8.049681E+05 -2.405387E+06  3.977786E-10 -2.106287E-09
        39  16 -9.360857E+06 -1.952509E+06 -9.031533E+05 -3.295133E+06 -4.989663E-09 -1.814070E-10
        39  17 -9.315291E+06 -2.002922E+06 -1.070803E+06 -3.385860E+06 -5.083998E-09 -1.677729E-09
        39  18 -9.501354E+06 -2.840522E+06 -1.600628E+06 -3.357617E+06  5.944505E-09  1.075880E-10
        39  19 -3.947434E+06 -4.943749E+04  4.988914E+05 -1.963122E+06 -1.989023E+05  3.534958E+04
        39  20 -3.858901E+06  1.899707E+05  3.956549E+05 -1.765203E+06 -3.473223E+05 -1.760648E+04
        39  21 -3.984968E+06 -3.393269E+05 -9.597670E+03 -1.448900E+06 -4.682414E+05 -1.423303E+05
        39  22 -6.657722E+06 -1.001076E+06 -2.018031E+05 -2.630406E+06 -1.783874E+05  4.316008E+04
        39  23 -6.590687E+06 -9.068195E+05 -3.371066E+05 -2.577207E+06 -3.629376E+05 -2.350441E+04
        39  24 -6.746755E+06 -1.590568E+06 -8.044039E+05 -2.405319E+06 -5.199045E+05 -1.620046E+05
        39  25 -9.360830E+06 -1.952500E+06 -9.031010E+05 -3.295140E+06 -1.579704E+05  5.093985E+04
        39  26 -9.315135E+06 -2.002882E+06 -1.070528E+06 -3.385850E+06 -3.784736E+05 -2.936834E+04
        39  27 -9.500990E+06 -2.840396E+06 -1.599941E+06 -3.357532E+06 -5.713070E+05 -1.815387E+05
        40   1  3.582724E+05  1.377787E+05  4.143463E+05 -1.652840E+05 -1.704648E+03  2.672083E+05
        40   2  4.645217E+04  1.358247E+05  2.185437E+05 -5.560088E+04  1.634495E+03  1.583498E+05
        40   3  1.087090E+04  2.174131E+05  1.627784E+05  6.747501E+04  5.029368E+03  4.948206E+04
        40   4  3.527213E+05  1.322477E+05  4.126458E+05  3.152442E+04 -1.595880E+03  2.643926E+05
        40   5  3.389852E+04  9.047603E+04  2.092687E+05  2.327250E+04  1.679696E+03  1.554154E+05
        40   6 -8.709843E+03  1.322320E+05  1.460015E+05  2.841835E+04  5.052403E+03  4.643536E+04
        40   7  3.473158E+05  1.267999E+05  4.109661E+05  2.283305E+05 -1.488896E+03  2.615769E+05
        40   8  2.136804E+04  4.514261E+04  1.999970E+05  1.021399E+05  1.724153E+03  1.524813E+05
        40   9 -2.828522E+04  4.706109E+04  1.292252E+05 -1.063286E+04  5.075824E+03  4.338907E+04
        40  10  3.582532E+05  1.377021E+05  4.142122E+05 -1.652836E+05  4.422810E-09  2.350107E-09
        40  11  4.644544E+04  1.357978E+05  2.184966E+05 -5.560109E+04  4.881270E-09  7.805787E-10
        40  12  1.087022E+04  2.174105E+05  1.627737E+05  6.747481E+04  5.204980E-09 -9.992962E-11
        40  13  3.527026E+05  1.321727E+05  4.125145E+05  3.152476E+04 -4.868547E-09 -2.281486E-09
        40  14  3.389203E+04  9.045010E+04  2.092233E+05  2.327229E+04  2.169614E-10  1.145449E-10
        40  15 -8.710449E+03  1.322296E+05  1.459974E+05  2.841816E+04 -1.396935E-09 -2.745344E-09
        40  16  3.472974E+05  1.267265E+05  4.108376E+05  2.283308E+05  5.076056E-12 -2.267060E-09
        40  17  2.136179E+04  4.511765E+04  1.999533E+05  1.021397E+05  7.261324E-11 -8.337157E-10
        40  18 -2.828575E+04  4.705906E+04  1.292216E+05 -1.063304E+04 -1.311248E-08 -1.899441E-09
        40  19  3.582724E+05  1.377787E+05  4.143463E+05 -1.652840E+05  1.704648E+03 -2.672083E+05
        40  20  4.645217E+04  1.358247E+05  2.185437E+05 -5.560088E+04 -1.634495E+03 -1.583498E+05
        40  21  1.087090E+04  2.174131E+05  1.627784E+05  6.747501E+04 -5.029368E+03 -4.948206E+04
        40  22  3.527213E+05  1.322477E+05  4.126458E+05  3.152442E+04  1.595880E+03 -2.643926E+05
        40  23  3.389852E+04  9.047603E+04  2.092687E+05  2.327250E+04 -1.679696E+03 -1.554154E+05
        40  24 -8.709843E+03  1.322320E+05  1.460015E+05  2.841835E+04 -5.052403E+03 -4.643536E+04
        40  25  3.473158E+05  1.267999E+05  4.109661E+05  2.283305E+05  1.488896E+03 -2.615769E+05
        40  26  2.136804E+04  4.514261E+04  1.999970E+05  1.021399E+05 -1.724153E+03 -1.524813E+05
        40  27 -2.828522E+04  4.706109E+04  1.292252E+05 -1.063286E+04 -5.075824E+03 -4.338907E+04
        41   1  3.877419E+04  2.290218E+05  1.578078E+05  1.757967E+04  6.703358E+03  2.713825E+04
        41   2  3.694545E+04  2.578832E+05  1.679957E+05  2.254686E+04  9.633207E+03 -4.230155E+04
        41   3  7.114434E+04  3.050616E+05  2.324759E+05  3.939580E+04  1.213715E+04 -1.117510E+05
        41   4  1.182801E+04  1.177198E+05  1.354708E+05  2.871751E+04  6.730699E+03  2.401993E+04
        41   5  1.115377E+03  1.086062E+05  1.380738E+05  2.283918E+04  9.655757E+03 -4.488774E+04
        41   6  2.634326E+04  1.177209E+05  1.946079E+05  2.884230E+04  1.215730E+04 -1.138010E+05
        41   7 -1.511850E+04  6.429786E+03  1.131332E+05  3.985334E+04  6.757931E+03  2.090215E+04
        41   8 -3.471606E+04 -4.064951E+04  1.081507E+05  2.313147E+04  9.678308E+03 -4.747332E+04
        41   9 -1.845953E+04 -6.958614E+04  1.567381E+05  1.829210E+04  1.217753E+04 -1.158503E+05
        41  10  3.877395E+04  2.290210E+05  1.578063E+05  1.757953E+04 -1.260176E-09  1.823011E-08
        41  11  3.694487E+04  2.578813E+05  1.679922E+05  2.254719E+04 -4.538577E-09  1.420491E-08
        41  12  7.114083E+04  3.050482E+05  2.324521E+05  3.939690E+04  1.921551E-09  3.649283E-09
        41  13  1.182780E+04  1.177191E+05  1.354696E+05  2.871738E+04  1.195961E-08 -2.155243E-09
        41  14  1.114737E+03  1.086040E+05  1.380698E+05  2.283953E+04 -5.454465E-09  1.419891E-10
        41  15  2.633963E+04  1.177069E+05  1.945833E+05  2.884341E+04 -1.383860E-08 -3.380730E-09
        41  16 -1.511867E+04  6.429305E+03  1.131323E+05  3.985323E+04 -5.962403E-09 -1.789884E-08
        41  17 -3.471677E+04 -4.065195E+04  1.081462E+05  2.313184E+04 -1.270025E-08 -1.444081E-08
        41  18 -1.846329E+04 -6.960059E+04  1.567126E+05  1.829324E+04 -6.542292E-09 -5.993667E-09
        41  19  3.877419E+04  2.290218E+05  1.578078E+05  1.757967E+04 -6.703358E+03 -2.713825E+04
        41  20  3.694545E+04  2.578832E+05  1.679957E+05  2.254686E+04 -9.633207E+03  4.230155E+04
        41  21  7.114434E+04  3.050616E+05  2.324759E+05  3.939580E+04 -1.213715E+04  1.117510E+05
        41  22  1.182801E+04  1.177198E+05  1.354708E+05  2.871751E+04 -6.730699E+03 -2.401993E+04
        41  23  1.115377E+03  1.086062E+05  1.380738E+05  2.283918E+04 -9.655757E+03  4.488774E+04
        41  24  2.634326E+04  1.177209E+05  1.946079E+05  2.884230E+04 -1.215730E+04  1.138010E+05
        41  25 -1.511850E+04  6.429786E+03  1.131332E+05  3.985334E+04 -6.757931E+03 -2.090215E+04
        41  26 -3.471606E+04 -4.064951E+04  1.081507E+05  2.313147E+04 -9.678308E+03  4.747332E+04
        41  27 -1.845953E+04 -6.958614E+04  1.567381E+05  1.829210E+04 -1.217753E+04  1.158503E+05
        42   1  3.529125E+04  3.633097E+05  2.795170E+05 -5.544001E+04  1.413872E+04 -1.432016E+05
        42   2  1.270470E+05  3.220476E+05  4.464825E+05  1.772629E+05  1.522975E+04 -3.580340E+05
        42   3  7.727552E+05  4.476135E+05  8.919515E+05  4.247969E+05  8.550175E+03 -5.729448E+05
        42   4 -1.768894E+04  1.503724E+05  2.362048E+05  2.808995E+04  1.415312E+04 -1.469967E+05
        42   5  6.878986E+04  6.782102E+04  3.933320E+05  2.388493E+04  1.527056E+04 -3.524431E+05
        42   6  7.075068E+05  1.504200E+05  8.224842E+05  3.444924E+04  8.779945E+03 -5.579493E+05
        42   7 -7.064612E+04 -6.250709E+04  1.928939E+05  1.115907E+05  1.416650E+04 -1.507906E+05
        42   8  1.061784E+04 -1.862930E+05  3.401909E+05 -1.294295E+05  1.530863E+04 -3.468543E+05
        42   9  6.428274E+05 -1.463623E+05  7.530944E+05 -3.557130E+05  8.990984E+03 -5.429610E+05
        42  10  3.528554E+04  3.632877E+05  2.794781E+05 -5.543838E+04 -3.602010E-09 -4.200732E-08
        42  11  1.270124E+05  3.219100E+05  4.462413E+05  1.772673E+05  7.718080E-09 -1.185297E-08
        42  12  7.726671E+05  4.472613E+05  8.913349E+05  4.248009E+05  4.532421E-09  1.967085E-08
        42  13 -1.769495E+04  1.503492E+05  2.361638E+05  2.809162E+04 -1.862133E-08 -2.633433E-09
        42  14  6.875628E+04  6.768764E+04  3.930981E+05  2.388926E+04 -4.887120E-09 -3.317502E-10
        42  15  7.074232E+05  1.500860E+05  8.218991E+05  3.445318E+04  1.125936E-10 -3.169547E-09
        42  16 -7.065244E+04 -6.253156E+04  1.928508E+05  1.115924E+05 -1.070635E-08  4.169607E-08
        42  17  1.058529E+04 -1.864223E+05  3.399643E+05 -1.294252E+05 -2.171073E-09  1.153886E-08
        42  18  6.427482E+05 -1.466787E+05  7.525401E+05 -3.557091E+05  6.946991E-10 -2.206508E-08
        42  19  3.529125E+04  3.633097E+05  2.795170E+05 -5.544001E+04 -1.413872E+04  1.432016E+05
        42  20  1.270470E+05  3.220476E+05  4.464825E+05  1.772629E+05 -1.522975E+04  3.580340E+05
        42  21  7.727552E+05  4.476135E+05  8.919515E+05  4.247969E+05 -8.550175E+03  5.729448E+05
        42  22 -1.768894E+04  1.503724E+05  2.362048E+05  2.808995E+04 -1.415312E+04  1.469967E+05
        42  23  6.878986E+04  6.782102E+04  3.933320E+05  2.388493E+04 -1.527056E+04  3.524431E+05
        42  24  7.075068E+05  1.504200E+05  8.224842E+05  3.444924E+04 -8.779945E+03  5.579493E+05
        42  25 -7.064612E+04 -6.250709E+04  1.928939E+05  1.115907E+05 -1.416650E+04  1.507906E+05
        42  26  1.061784E+04 -1.862930E+05  3.401909E+05 -1.294295E+05 -1.530863E+04  3.468543E+05
        42  27  6.428274E+05 -1.463623E+05  7.530944E+05 -3.557130E+05 -8.990984E+03  5.429610E+05
        43   1 -7.436419E+06 -1.724404E+06 -1.227784E+06 -2.432913E+06 -1.100622E+06 -4.383651E+05
        43   2 -7.207988E+06 -5.769058E+05 -2.983431E+05 -3.228285E+06 -7.032887E+05 -3.054026E+05
        43   3 -8.255779E+06 -6.094329E+05 -1.408987E+05 -2.927588E+06 -3.213640E+05 -1.339246E+05
        43   4 -9.500853E+06 -2.348883E+06 -1.768699E+06 -2.833380E+06 -1.105449E+06 -4.406238E+05
        43   5 -8.765618E+06 -1.136868E+06 -7.215284E+05 -3.620089E+06 -7.017918E+05 -3.048906E+05
        43   6 -9.310354E+06 -1.109037E+06 -4.535379E+05 -3.310263E+06 -3.131975E+05 -1.306643E+05
        43   7 -1.156111E+07 -2.973433E+06 -2.309948E+06 -3.232806E+06 -1.110253E+06 -4.428778E+05
        43   8 -1.032088E+07 -1.696753E+06 -1.144930E+06 -4.011026E+06 -7.002968E+05 -3.043794E+05
        43   9 -1.036382E+07 -1.608398E+06 -7.662910E+05 -3.692284E+06 -3.050462E+05 -1.274126E+05
        43  10 -7.437787E+06 -1.724943E+06 -1.230457E+06 -2.433305E+06  6.102719E-09 -1.686788E-09
        43  11 -7.208550E+06 -5.771421E+05 -2.994637E+05 -3.228459E+06 -2.724834E-09 -3.789533E-10
        43  12 -8.255896E+06 -6.094806E+05 -1.411299E+05 -2.927623E+06 -1.179464E-09  5.424154E-10
        43  13 -9.502236E+06 -2.349429E+06 -1.771405E+06 -2.833776E+06  9.494707E-09 -6.498973E-09
        43  14 -8.766179E+06 -1.137104E+06 -7.226473E+05 -3.620263E+06 -1.307988E-09 -1.472839E-08
        43  15 -9.310466E+06 -1.109083E+06 -4.537581E+05 -3.310297E+06  5.677535E-09  6.713810E-10
        43  16 -1.156251E+07 -2.973986E+06 -2.312688E+06 -3.233207E+06 -4.629258E-09 -3.172713E-09
        43  17 -1.032144E+07 -1.696989E+06 -1.146047E+06 -4.011199E+06 -2.640912E-09 -9.760910E-09
        43  18 -1.036393E+07 -1.608441E+06 -7.665003E+05 -3.692315E+06  6.631204E-09 -1.326178E-09
        43  19 -7.436419E+06 -1.724404E+06 -1.227784E+06 -2.432913E+06  1.100622E+06  4.383651E+05
        43  20 -7.207988E+06 -5.769058E+05 -2.983431E+05 -3.228285E+06  7.032887E+05  3.054026E+05
        43  21 -8.255779E+06 -6.094329E+05 -1.408987E+05 -2.927588E+06  3.213640E+05  1.339246E+05
        43  22 -9.500853E+06 -2.348883E+06 -1.768699E+06 -2.833380E+06  1.105449E+06  4.406238E+05
        43  23 -8.765618E+06 -1.136868E+06 -7.215284E+05 -3.620089E+06  7.017918E+05  3.048906E+05
        43  24 -9.310354E+06 -1.109037E+06 -4.535379E+05 -3.310263E+06  3.131975E+05  1.306643E+05
        43  25 -1.156111E+07 -2.973433E+06 -2.309948E+06 -3.232806E+06  1.110253E+06  4.428778E+05
        43  26 -1.032088E+07 -1.696753E+06 -1.144930E+06 -4.011026E+06  7.002968E+05  3.043794E+05
        43  27 -1.036382E+07 -1.608398E+06 -7.662910E+05 -3.692284E+06  3.050462E+05  1.274126E+05
        44   1 -1.051879E+07 -1.835593E+06 -7.323885E+05 -3.576733E+06 -2.560077E+05 -8.768841E+04
        44   2 -1.059418E+07 -2.036783E+06 -6.388545E+05 -4.046742E+06 -1.718088E+05 -3.786481E+04
        44   3 -1.131949E+07 -1.938983E+06 -6.807378E+05 -3.829792E+06 -8.595842E+04  7.828267E+03
        44   4 -9.252764E+06 -1.314013E+06 -3.728515E+05 -3.194333E+06 -2.531434E+05 -8.657923E+04
        44   5 -8.913755E+06 -1.377425E+06 -1.697251E+05 -3.571058E+06 -1.696007E+05 -3.701405E+04
        44   6 -9.224354E+06 -1.141385E+06 -1.012765E+05 -3.261081E+06 -8.434161E+04  8.444027E+03
        44   7 -7.985172E+06 -7.922722E+05 -1.347073E+04 -2.811193E+06 -2.502719E+05 -8.546692E+04
        44   8 -7.230574E+06 -7.178633E+05  2.991370E+05 -3.094179E+06 -1.673852E+05 -3.616036E+04
        44   9 -7.124937E+06 -3.435408E+05  4.777763E+05 -2.690614E+06 -8.271825E+04  9.062243E+03
        44  10 -1.051886E+07 -1.835619E+06 -7.325288E+05 -3.576751E+06 -2.939087E-09  8.557261E-09
        44  11 -1.059421E+07 -2.036792E+06 -6.389138E+05 -4.046748E+06 -1.532915E-09 -3.028616E-09
        44  12 -1.131949E+07 -1.938985E+06 -6.807521E+05 -3.829791E+06 -4.932988E-09 -2.645342E-09
        44  13 -9.252836E+06 -1.314039E+06 -3.729883E+05 -3.194351E+06  3.312823E-09 -2.321631E-09
        44  14 -8.913787E+06 -1.377434E+06 -1.697826E+05 -3.571063E+06 -3.852901E-09  5.681148E-09
        44  15 -9.224362E+06 -1.141387E+06 -1.012901E+05 -3.261081E+06 -3.476922E-09 -3.752158E-09
        44  16 -7.985242E+06 -7.922973E+05 -1.360408E+04 -2.811210E+06  5.648095E-09  4.821657E-09
        44  17 -7.230605E+06 -7.178724E+05  2.990811E+05 -3.094184E+06  3.289827E-09 -5.531368E-09
        44  18 -7.124944E+06 -3.435427E+05  4.777632E+05 -2.690614E+06 -1.936178E-09 -3.567868E-09
        44  19 -1.051879E+07 -1.835593E+06 -7.323885E+05 -3.576733E+06  2.560077E+05  8.768841E+04
        44  20 -1.059418E+07 -2.036783E+06 -6.388545E+05 -4.046742E+06  1.718088E+05  3.786481E+04
        44  21 -1.131949E+07 -1.938983E+06 -6.807378E+05 -3.829792E+06  8.595842E+04 -7.828267E+03
        44  22 -9.252764E+06 -1.314013E+06 -3.728515E+05 -3.194333E+06  2.531434E+05  8.657923E+04
        44  23 -8.913755E+06 -1.377425E+06 -1.697251E+05 -3.571058E+06  1.696007E+05  3.701405E+04
        44  24 -9.224354E+06 -1.141385E+06 -1.012765E+05 -3.261081E+06  8.434161E+04 -8.444027E+03
        44  25 -7.985172E+06 -7.922722E+05 -1.347073E+04 -2.811193E+06  2.502719E+05  8.546692E+04
        44  26 -7.230574E+06 -7.178633E+05  2.991370E+05 -3.094179E+06  1.673852E+05  3.616036E+04
        44  27 -7.124937E+06 -3.435408E+05  4.777763E+05 -2.690614E+06  8.271825E+04 -9.062243E+03
        45   1 -1.254207E+07 -2.599573E+06 -1.035891E+06 -4.309648E+06 -7.714627E+04  2.079230E+04
        45   2 -1.261313E+07 -2.630983E+06 -1.021896E+06 -4.381074E+06 -5.601337E+04  4.017923E+04
        45   3 -1.268511E+07 -2.593166E+06 -1.011730E+06 -4.319152E+06 -2.886502E+04  4.362555E+04
        45   4 -9.093885E+06 -1.267551E+06 -7.547928E+04 -3.355984E+06 -7.384361E+04  2.203430E+04
        45   5 -9.092010E+06 -1.290627E+06 -4.637556E+04 -3.427104E+06 -5.575074E+04  4.025274E+04
        45   6 -9.089972E+06 -1.243492E+06 -1.851586E+04 -3.364898E+06 -3.165582E+04  4.257409E+04
        45   7 -5.634092E+06  6.522653E+04  8.838100E+05 -2.397424E+06 -7.051946E+04  2.328466E+04
        45   8 -5.558797E+06  5.043837E+04  9.279880E+05 -2.468152E+06 -5.548595E+04  4.032718E+04
        45   9 -5.482248E+06  1.068401E+05  9.735006E+05 -2.405578E+06 -3.446455E+04  4.151616E+04
        45  10 -1.254208E+07 -2.599575E+06 -1.035903E+06 -4.309646E+06 -2.644696E-09 -3.176669E-10
        45  11 -1.261313E+07 -2.630986E+06 -1.021905E+06 -4.381072E+06  4.565979E-10 -2.969312E-09
        45  12 -1.268511E+07 -2.593168E+06 -1.011735E+06 -4.319151E+06  1.017441E-08 -6.815764E-09
        45  13 -9.093892E+06 -1.267553E+06 -7.549054E+04 -3.355983E+06 -7.835869E-11 -1.668944E-09
        45  14 -9.092014E+06 -1.290630E+06 -4.638446E+04 -3.427102E+06 -5.889784E-09  1.903981E-09
        45  15 -9.089974E+06 -1.243494E+06 -1.852113E+04 -3.364897E+06  7.032927E-10 -4.699465E-09
        45  16 -5.634098E+06  6.522461E+04  8.837996E+05 -2.397423E+06  1.220059E-09 -2.224195E-09
        45  17 -5.558801E+06  5.043581E+04  9.279792E+05 -2.468150E+06  1.156583E-08  3.828797E-10
        45  18 -5.482249E+06  1.068380E+05  9.734952E+05 -2.405577E+06 -5.376595E-09 -7.040778E-09
        45  19 -1.254207E+07 -2.599573E+06 -1.035891E+06 -4.309648E+06  7.714627E+04 -2.079230E+04
        45  20 -1.261313E+07 -2.630983E+06 -1.021896E+06 -4.381074E+06  5.601337E+04 -4.017923E+04
        45  21 -1.268511E+07 -2.593166E+06 -1.011730E+06 -4.319152E+06  2.886502E+04 -4.362555E+04
        45  22 -9.093885E+06 -1.267551E+06 -7.547928E+04 -3.355984E+06  7.384361E+04 -2.203430E+04
        45  23 -9.092010E+06 -1.290627E+06 -4.637556E+04 -3.427104E+06  5.575074E+04 -4.025274E+04
        45  24 -9.089972E+06 -1.243492E+06 -1.851586E+04 -3.364898E+06  3.165582E+04 -4.257409E+04
        45  25 -5.634092E+06  6.522653E+04  8.838100E+05 -2.397424E+06  7.051946E+04 -2.328466E+04
        45  26 -5.558797E+06  5.043837E+04  9.279880E+05 -2.468152E+06  5.548595E+04 -4.032718E+04
        45  27 -5.482248E+06  1.068401E+05  9.735006E+05 -2.405578E+06  3.446455E+04 -4.151616E+04
        46   1 -1.177575E+07 -2.412440E+06 -7.865274E+05 -4.238829E+06 -2.793442E+04  3.909080E+04
        46   2 -1.168806E+07 -2.059974E+06 -6.917960E+05 -3.893707E+06 -1.717525E+04  3.618670E+04
        46   3 -1.112352E+07 -2.142131E+06 -5.945794E+05 -4.055466E+06 -2.452890E+03  2.188835E+04
        46   4 -8.984200E+06 -1.368685E+06 -1.741837E+04 -3.501586E+06 -2.804084E+04  3.903604E+04
        46   5 -9.222516E+06 -1.145761E+06 -1.402146E+04 -3.250552E+06 -1.951313E+04  3.533209E+04
        46   6 -8.983609E+06 -1.356776E+06 -6.309715E+03 -3.506287E+06 -7.035270E+03  2.025421E+04
        46   7 -6.185073E+06 -3.245408E+05  7.509717E+05 -2.761306E+06 -2.814772E+04  3.898118E+04
        46   8 -6.751067E+06 -2.312698E+05  6.631930E+05 -2.605066E+06 -2.186133E+04  3.447379E+04
        46   9 -6.839270E+06 -5.712359E+05  5.815370E+05 -2.955388E+06 -1.163518E+04  1.861388E+04
        46  10 -1.177575E+07 -2.412442E+06 -7.865318E+05 -4.238828E+06 -6.700884E-10 -5.948766E-09
        46  11 -1.168807E+07 -2.059975E+06 -6.917990E+05 -3.893706E+06  3.811175E-09 -9.882596E-09
        46  12 -1.112352E+07 -2.142132E+06 -5.945803E+05 -4.055466E+06 -5.794514E-09 -1.799919E-08
        46  13 -8.984201E+06 -1.368687E+06 -1.742269E+04 -3.501585E+06 -9.043937E-09 -3.930719E-09
        46  14 -9.222517E+06 -1.145762E+06 -1.402451E+04 -3.250551E+06  5.399562E-09  1.406588E-08
        46  15 -8.983610E+06 -1.356777E+06 -6.310575E+03 -3.506287E+06  5.635865E-09  1.558010E-08
        46  16 -6.185074E+06 -3.245427E+05  7.509673E+05 -2.761305E+06  1.150987E-09 -6.317068E-09
        46  17 -6.751068E+06 -2.312712E+05  6.631898E+05 -2.605066E+06 -7.942226E-10 -1.371680E-09
        46  18 -6.839270E+06 -5.712363E+05  5.815361E+05 -2.955388E+06 -1.928338E-09 -1.465643E-08
        46  19 -1.177575E+07 -2.412440E+06 -7.865274E+05 -4.238829E+06  2.793442E+04 -3.909080E+04
        46  20 -1.168806E+07 -2.059974E+06 -6.917960E+05 -3.893707E+06  1.717525E+04 -3.618670E+04
        46  21 -1.112352E+07 -2.142131E+06 -5.945794E+05 -4.055466E+06  2.452890E+03 -2.188835E+04
        46  22 -8.984200E+06 -1.368685E+06 -1.741837E+04 -3.501586E+06  2.804084E+04 -3.903604E+04
        46  23 -9.222516E+06 -1.145761E+06 -1.402146E+04 -3.250552E+06  1.951313E+04 -3.533209E+04
        46  24 -8.983609E+06 -1.356776E+06 -6.309715E+03 -3.506287E+06  7.035270E+03 -2.025421E+04
        46  25 -6.185073E+06 -3.245408E+05  7.509717E+05 -2.761306E+06  2.814772E+04 -3.898118E+04
        46  26 -6.751067E+06 -2.312698E+05  6.631930E+05 -2.605066E+06  2.186133E+04 -3.447379E+04
        46  27 -6.839270E+06 -5.712359E+05  5.815370E+05 -2.955388E+06  1.163518E+04 -1.861388E+04
        47   1 -8.758347E+06 -1.322542E+06  4.686211E+04 -3.500204E+06  2.134890E+03  9.119373E+03
        47   2 -8.597255E+06 -8.586495E+05  1.677105E+05 -3.025389E+06  1.348748E+04 -6.357161E+03
        47   3 -7.855929E+06 -9.948757E+05  2.807357E+05 -3.261128E+06  2.382872E+04 -1.882887E+04
        47   4 -8.959590E+06 -1.395337E+06 -9.511358E+03 -3.550451E+06 -1.626828E+03  7.787097E+03
        47   5 -9.249828E+06 -1.098528E+06 -1.095831E+04 -3.193844E+06  1.031842E+04 -7.485821E+03
        47   6 -8.960118E+06 -1.402027E+06 -2.069193E+04 -3.547924E+06  2.124737E+04 -1.975316E+04
        47   7 -9.160795E+06 -1.468131E+06 -6.588878E+04 -3.600683E+06 -5.387209E+03  6.455275E+03
        47   8 -9.901990E+06 -1.338390E+06 -1.896665E+05 -3.362138E+06  7.153033E+03 -8.613172E+03
        47   9 -1.006313E+07 -1.809124E+06 -3.222312E+05 -3.834257E+06  1.867108E+04 -2.067565E+04
        47  10 -8.758347E+06 -1.322542E+06  4.686194E+04 -3.500204E+06 -7.415535E-09 -3.427157E-09
        47  11 -8.597256E+06 -8.586496E+05  1.677100E+05 -3.025389E+06 -3.605226E-09  1.691031E-09
        47  12 -7.855929E+06 -9.948762E+05  2.807339E+05 -3.261128E+06 -5.260563E-10  1.389529E-08
        47  13 -8.959590E+06 -1.395337E+06 -9.511477E+03 -3.550451E+06  5.334212E-10 -1.619460E-08
        47  14 -9.249828E+06 -1.098528E+06 -1.095862E+04 -3.193844E+06  3.738766E-09  2.095111E-08
        47  15 -8.960119E+06 -1.402027E+06 -2.069351E+04 -3.547924E+06  9.749144E-10 -4.581472E-09
        47  16 -9.160795E+06 -1.468131E+06 -6.588892E+04 -3.600683E+06  9.038332E-09 -8.789225E-09
        47  17 -9.901990E+06 -1.338390E+06 -1.896667E+05 -3.362138E+06 -4.845354E-09 -2.572537E-08
        47  18 -1.006313E+07 -1.809124E+06 -3.222326E+05 -3.834257E+06  3.431857E-10 -6.819997E-09
        47  19 -8.758347E+06 -1.322542E+06  4.686211E+04 -3.500204E+06 -2.134890E+03 -9.119373E+03
        47  20 -8.597255E+06 -8.586495E+05  1.677105E+05 -3.025389E+06 -1.348748E+04  6.357161E+03
        47  21 -7.855929E+06 -9.948757E+05  2.807357E+05 -3.261128E+06 -2.382872E+04  1.882887E+04
        47  22 -8.959590E+06 -1.395337E+06 -9.511358E+03 -3.550451E+06  1.626828E+03 -7.787097E+03
        47  23 -9.249828E+06 -1.098528E+06 -1.095831E+04 -3.193844E+06 -1.031842E+04  7.485821E+03
        47  24 -8.960118E+06 -1.402027E+06 -2.069193E+04 -3.547924E+06 -2.124737E+04  1.975316E+04
        47  25 -9.160795E+06 -1.468131E+06 -6.588878E+04 -3.600683E+06  5.387209E+03 -6.455275E+03
        47  26 -9.901990E+06 -1.338390E+06 -1.896665E+05 -3.362138E+06 -7.153033E+03  8.613172E+03
        47  27 -1.006313E+07 -1.809124E+06 -3.222312E+05 -3.834257E+06 -1.867108E+04  2.067565E+04
        48   1 -5.973808E+06 -1.954996E+05  8.140171E+05 -2.668436E+06  3.215781E+04 -2.767696E+04
        48   2 -5.952060E+06  1.292062E+04  8.391192E+05 -2.458473E+06  5.744088E+04 -3.452980E+04
        48   3 -5.605507E+06 -5.947643E+04  8.588693E+05 -2.522352E+06  7.743245E+04 -2.656072E+04
        48   4 -9.017457E+06 -1.316145E+06 -2.022775E+04 -3.457395E+06  2.778572E+04 -2.926101E+04
        48   5 -9.181520E+06 -1.192734E+06 -4.759717E+04 -3.313844E+06  5.593084E+04 -3.510246E+04
        48   6 -9.021654E+06 -1.351144E+06 -8.271734E+04 -3.444266E+06  7.876414E+04 -2.608826E+04
        48   7 -1.205215E+07 -2.436383E+06 -8.553160E+05 -4.242850E+06  2.343717E+04 -3.083671E+04
        48   8 -1.240089E+07 -2.397868E+06 -9.352707E+05 -4.165168E+06  5.442906E+04 -3.567218E+04
        48   9 -1.242651E+07 -2.642168E+06 -1.025386E+06 -4.361552E+06  8.008684E+04 -2.561926E+04
        48  10 -5.973810E+06 -1.955007E+05  8.140137E+05 -2.668435E+06  7.096509E-09  6.717345E-09
        48  11 -5.952064E+06  1.291846E+04  8.391108E+05 -2.458471E+06  1.657839E-09  1.667762E-09
        48  12 -5.605514E+06 -5.947880E+04  8.588566E+05 -2.522350E+06 -2.402338E-09 -1.485219E-09
        48  13 -9.017458E+06 -1.316146E+06 -2.023081E+04 -3.457395E+06 -2.643891E-09 -5.412208E-09
        48  14 -9.181524E+06 -1.192736E+06 -4.760539E+04 -3.313842E+06 -3.353588E-09 -5.181780E-09
        48  15 -9.021661E+06 -1.351146E+06 -8.273038E+04 -3.444265E+06  2.777395E-09  4.273952E-10
        48  16 -1.205215E+07 -2.436384E+06 -8.553188E+05 -4.242850E+06 -1.214461E-09 -5.666897E-09
        48  17 -1.240089E+07 -2.397870E+06 -9.352787E+05 -4.165167E+06  1.425966E-08  8.174404E-09
        48  18 -1.242652E+07 -2.642170E+06 -1.025400E+06 -4.361551E+06  2.235511E-09  2.046471E-09
        48  19 -5.973808E+06 -1.954996E+05  8.140171E+05 -2.668436E+06 -3.215781E+04  2.767696E+04
        48  20 -5.952060E+06  1.292062E+04  8.391192E+05 -2.458473E+06 -5.744088E+04  3.452980E+04
        48  21 -5.605507E+06 -5.947643E+04  8.588693E+05 -2.522352E+06 -7.743245E+04  2.656072E+04
        48  22 -9.017457E+06 -1.316145E+06 -2.022775E+04 -3.457395E+06 -2.778572E+04  2.926101E+04
        48  23 -9.181520E+06 -1.192734E+06 -4.759717E+04 -3.313844E+06 -5.593084E+04  3.510246E+04
        48  24 -9.021654E+06 -1.351144E+06 -8.271734E+04 -3.444266E+06 -7.876414E+04  2.608826E+04
        48  25 -1.205215E+07 -2.436383E+06 -8.553160E+05 -4.242850E+06 -2.343717E+04  3.083671E+04
        48  26 -1.240089E+07 -2.397868E+06 -9.352707E+05 -4.165168E+06 -5.442906E+04  3.567218E+04
        48  27 -1.242651E+07 -2.642168E+06 -1.025386E+06 -4.361552E+06 -8.008684E+04  2.561926E+04
        49   1 -5.794832E+06  6.706593E+04  8.200667E+05 -2.421110E+06  9.426511E+04 -1.930805E+04
        49   2 -5.881478E+06 -1.073042E+05  6.788067E+05 -2.634548E+06  1.881941E+05  1.763340E+04
        49   3 -6.307720E+06 -2.370076E+05  4.110244E+05 -2.416912E+06  2.767700E+05  6.819702E+04
        49   4 -9.156888E+06 -1.195242E+06 -1.048501E+05 -3.319256E+06  9.289507E+04 -1.984174E+04
        49   5 -9.001285E+06 -1.309633E+06 -1.854232E+05 -3.499491E+06  1.890961E+05  1.795594E+04
        49   6 -9.186635E+06 -1.380737E+06 -3.948887E+05 -3.248412E+06  2.799719E+05  6.941144E+04
        49   7 -1.250799E+07 -2.456974E+06 -1.030809E+06 -4.212990E+06  9.153225E+04 -2.037287E+04
        49   8 -1.211164E+07 -2.511338E+06 -1.050563E+06 -4.360442E+06  1.899910E+05  1.827561E+04
        49   9 -1.205748E+07 -2.523807E+06 -1.201591E+06 -4.076327E+06  2.831543E+05  7.061784E+04
        49  10 -5.794841E+06  6.706313E+04  8.200492E+05 -2.421108E+06 -9.982665E-09  5.966041E-09
        49  11 -5.881517E+06 -1.073141E+05  6.787389E+05 -2.634551E+06  1.999145E-09  1.333063E-08
        49  12 -6.307804E+06 -2.370335E+05  4.108700E+05 -2.416927E+06 -1.242262E-09  7.109219E-09
        49  13 -9.156897E+06 -1.195245E+06 -1.048673E+05 -3.319255E+06 -1.167268E-08  7.468165E-09
        49  14 -9.001324E+06 -1.309643E+06 -1.854921E+05 -3.499493E+06 -2.601123E-09  6.186438E-09
        49  15 -9.186722E+06 -1.380764E+06 -3.950477E+05 -3.248428E+06  7.705598E-09  2.404641E-09
        49  16 -1.250800E+07 -2.456976E+06 -1.030826E+06 -4.212989E+06 -1.596611E-09  3.277384E-09
        49  17 -1.211168E+07 -2.511348E+06 -1.050633E+06 -4.360445E+06  1.007320E-09  6.381919E-09
        49  18 -1.205757E+07 -2.523835E+06 -1.201755E+06 -4.076343E+06 -1.106177E-08 -6.376758E-09
        49  19 -5.794832E+06  6.706593E+04  8.200667E+05 -2.421110E+06 -9.426511E+04  1.930805E+04
        49  20 -5.881478E+06 -1.073042E+05  6.788067E+05 -2.634548E+06 -1.881941E+05 -1.763340E+04
        49  21 -6.307720E+06 -2.370076E+05  4.110244E+05 -2.416912E+06 -2.767700E+05 -6.819702E+04
        49  22 -9.156888E+06 -1.195242E+06 -1.048501E+05 -3.319256E+06 -9.289507E+04  1.984174E+04
        49  23 -9.001285E+06 -1.309633E+06 -1.854232E+05 -3.499491E+06 -1.890961E+05 -1.795594E+04
        49  24 -9.186635E+06 -1.380737E+06 -3.948887E+05 -3.248412E+06 -2.799719E+05 -6.941144E+04
        49  25 -1.250799E+07 -2.456974E+06 -1.030809E+06 -4.212990E+06 -9.153225E+04  2.037287E+04
        49  26 -1.211164E+07 -2.511338E+06 -1.050563E+06 -4.360442E+06 -1.899910E+05 -1.827561E+04
        49  27 -1.205748E+07 -2.523807E+06 -1.201591E+06 -4.076327E+06 -2.831543E+05 -7.061784E+04
        50   1 -8.353049E+06 -8.088998E+05 -2.324870E+05 -3.114104E+06  3.422061E+05  1.089767E+05
        50   2 -8.301159E+06 -9.162907E+05 -6.390090E+05 -3.471600E+06  7.606825E+05  2.911521E+05
        50   3 -9.661882E+06 -2.267121E+06 -1.883824E+06 -2.637798E+06  1.182295E+06  4.643233E+05
        50   4 -9.334194E+06 -1.099010E+06 -4.859920E+05 -3.299242E+06  3.461242E+05  1.105646E+05
        50   5 -8.731604E+06 -1.132469E+06 -7.687555E+05 -3.640077E+06  7.625407E+05  2.918045E+05
        50   6 -9.541635E+06 -2.409527E+06 -1.888281E+06 -2.789240E+06  1.182519E+06  4.639638E+05
        50   7 -1.031439E+07 -1.389139E+06 -7.395707E+05 -3.484156E+06  3.500349E+05  1.121512E+05
        50   8 -9.161860E+06 -1.348593E+06 -8.985209E+05 -3.808434E+06  7.643974E+05  2.924559E+05
        50   9 -9.421296E+06 -2.551783E+06 -1.892717E+06 -2.940700E+06  1.182744E+06  4.636043E+05
        50  10 -8.353180E+06 -8.089447E+05 -2.327331E+05 -3.114134E+06 -5.553237E-09 -9.455846E-10
        50  11 -8.301811E+06 -9.165414E+05 -6.402759E+05 -3.471780E+06 -4.267961E-09  8.904727E-09
        50  12 -9.663463E+06 -2.267739E+06 -1.886908E+06 -2.638245E+06 -5.319752E-11  5.918352E-09
        50  13 -9.334328E+06 -1.099056E+06 -4.862444E+05 -3.299273E+06  2.867251E-09 -8.906887E-09
        50  14 -8.732259E+06 -1.132721E+06 -7.700295E+05 -3.640258E+06  3.512780E-09 -8.590449E-09
        50  15 -9.543216E+06 -2.410144E+06 -1.891365E+06 -2.789687E+06 -4.640284E-09  9.874153E-09
        50  16 -1.031453E+07 -1.389186E+06 -7.398293E+05 -3.484188E+06  7.419383E-09  3.249162E-09
        50  17 -9.162519E+06 -1.348846E+06 -8.998021E+05 -3.808616E+06  4.916331E-09  1.050541E-08
        50  18 -9.422878E+06 -2.552401E+06 -1.895801E+06 -2.941147E+06  3.014881E-09  3.492480E-09
        50  19 -8.353049E+06 -8.088998E+05 -2.324870E+05 -3.114104E+06 -3.422061E+05 -1.089767E+05
        50  20 -8.301159E+06 -9.162907E+05 -6.390090E+05 -3.471600E+06 -7.606825E+05 -2.911521E+05
        50  21 -9.661882E+06 -2.267121E+06 -1.883824E+06 -2.637798E+06 -1.182295E+06 -4.643233E+05
        50  22 -9.334194E+06 -1.099010E+06 -4.859920E+05 -3.299242E+06 -3.461242E+05 -1.105646E+05
        50  23 -8.731604E+06 -1.132469E+06 -7.687555E+05 -3.640077E+06 -7.625407E+05 -2.918045E+05
        50  24 -9.541635E+06 -2.409527E+06 -1.888281E+06 -2.789240E+06 -1.182519E+06 -4.639638E+05
        50  25 -1.031439E+07 -1.389139E+06 -7.395707E+05 -3.484156E+06 -3.500349E+05 -1.121512E+05
        50  26 -9.161860E+06 -1.348593E+06 -8.985209E+05 -3.808434E+06 -7.643974E+05 -2.924559E+05
        50  27 -9.421296E+06 -2.551783E+06 -1.892717E+06 -2.940700E+06 -1.182744E+06 -4.636043E+05
        51   1  5.413418E+05  5.479344E+05  5.293331E+05 -1.152666E+04  2.610755E+04  4.662469E+04
        51   2  5.386111E+05  5.127843E+05  5.020692E+05 -7.423295E+03  8.317179E+04  1.728058E+04
        51   3  5.304673E+05  4.830664E+05  4.934450E+05 -2.016529E+04  8.765724E+04 -1.242662E+04
        51   4 -1.079382E+04 -1.668255E+06 -1.385809E+04 -3.797244E+03  2.649560E+04 -7.269501E+03
        51   5  4.332075E+01 -1.667983E+06 -8.296304E+03  4.665872E+03  8.335227E+04 -2.509752E+03
        51   6 -4.744033E+02 -1.668214E+06 -7.788863E+03 -3.717691E+03  8.754721E+04  1.884870E+03
        51   7 -5.632925E+05 -3.879959E+06 -5.573989E+05  3.912406E+03  2.688302E+04 -6.097172E+04
        51   8 -5.388623E+05 -3.844362E+06 -5.189848E+05  1.672108E+04  8.353231E+04 -2.223101E+04
        51   9 -5.317434E+05 -3.815220E+06 -5.093354E+05  1.268220E+04  8.743776E+04  1.614712E+04
        51  10  5.413405E+05  5.479319E+05  5.293277E+05 -1.152764E+04 -1.190205E-08  1.108381E-08
        51  11  5.386036E+05  5.127821E+05  5.020557E+05 -7.424451E+03  5.162691E-09 -8.464798E-09
        51  12  5.304590E+05  4.830642E+05  4.934303E+05 -2.016441E+04 -3.525291E-09 -1.009912E-08
        51  13 -1.079459E+04 -1.668255E+06 -1.385951E+04 -3.797089E+03 -1.261486E-08 -1.001659E-10
        51  14  3.586432E+01 -1.667985E+06 -8.309361E+03  4.666041E+03  2.543108E-09  4.847060E-09
        51  15 -4.826283E+02 -1.668216E+06 -7.803261E+03 -3.717824E+03 -1.009693E-08  2.816143E-10
        51  16 -5.632943E+05 -3.879964E+06 -5.574073E+05  3.913729E+03 -9.887669E-09 -7.511678E-09
        51  17 -5.388699E+05 -3.844365E+06 -5.189988E+05  1.672258E+04 -9.288443E-09 -4.298044E-09
        51  18 -5.317516E+05 -3.815222E+06 -5.093503E+05  1.268106E+04 -5.349891E-09  7.624091E-09
        51  19  5.413418E+05  5.479344E+05  5.293331E+05 -1.152666E+04 -2.610755E+04 -4.662469E+04
        51  20  5.386111E+05  5.127843E+05  5.020692E+05 -7.423295E+03 -8.317179E+04 -1.728058E+04
        51  21  5.304673E+05  4.830664E+05  4.934450E+05 -2.016529E+04 -8.765724E+04  1.242662E+04
        51  22 -1.079382E+04 -1.668255E+06 -1.385809E+04 -3.797244E+03 -2.649560E+04  7.269501E+03
        51  23  4.332075E+01 -1.667983E+06 -8.296304E+03  4.665872E+03 -8.335227E+04  2.509752E+03
        51  24 -4.744033E+02 -1.668214E+06 -7.788863E+03 -3.717691E+03 -8.754721E+04 -1.884870E+03
        51  25 -5.632925E+05 -3.879959E+06 -5.573989E+05  3.912406E+03 -2.688302E+04  6.097172E+04
        51  26 -5.388623E+05 -3.844362E+06 -5.189848E+05  1.672108E+04 -8.353231E+04  2.223101E+04
        51  27 -5.317434E+05 -3.815220E+06 -5.093354E+05  1.268220E+04 -8.743776E+04 -1.614712E+04
        52   1  5.206206E+05  4.438375E+05  4.859999E+05 -1.954373E+04  8.016956E+04  5.656377E+03
        52   2  5.109242E+05  4.016031E+05  4.718582E+05 -1.025522E+04  8.121972E+04  8.023018E+03
        52   3  4.949997E+05  3.597870E+05  4.551304E+05 -2.542629E+04  7.681829E+04  1.032511E+04
        52   4 -1.060251E+03 -1.668107E+06 -8.484033E+03 -5.419721E+03  8.021220E+04  3.188304E+03
        52   5 -1.610251E+02 -1.667986E+06 -1.160467E+04  6.784547E+03  8.122704E+04  9.074483E+03
        52   6 -6.118154E+03 -1.668072E+06 -1.976773E+04 -5.476064E+03  7.678213E+04  1.489616E+04
        52   7 -5.230582E+05 -3.775938E+06 -5.032725E+05  8.665847E+03  8.025481E+04  7.285623E+02
        52   8 -5.115499E+05 -3.733621E+06 -4.953588E+05  2.377756E+04  8.123446E+04  1.012243E+04
        52   9 -5.075280E+05 -3.692138E+06 -4.949467E+05  1.441955E+04  7.674622E+04  1.945231E+04
        52  10  5.206137E+05  4.438358E+05  4.859878E+05 -1.954409E+04 -1.323099E-09  5.425092E-09
        52  11  5.109171E+05  4.016012E+05  4.718456E+05 -1.025574E+04  1.670754E-10 -2.450140E-08
        52  12  4.949934E+05  3.597853E+05  4.551192E+05 -2.542693E+04 -1.159661E-08 -2.613394E-08
        52  13 -1.067158E+03 -1.668109E+06 -8.496134E+03 -5.419928E+03 -2.822374E-09  1.941892E-10
        52  14 -1.681268E+02 -1.667988E+06 -1.161721E+04  6.783953E+03 -1.725945E-09  5.919613E-09
        52  15 -6.124540E+03 -1.668074E+06 -1.977922E+04 -5.476985E+03  4.374635E-10  5.991936E-10
        52  16 -5.230651E+05 -3.775939E+06 -5.032846E+05  8.665800E+03 -4.155779E-09 -5.525337E-10
        52  17 -5.115570E+05 -3.733623E+06 -4.953714E+05  2.377690E+04 -3.990140E-09  7.799982E-09
        52  18 -5.075345E+05 -3.692140E+06 -4.949585E+05  1.441834E+04 -2.889337E-09  2.246807E-08
        52  19  5.206206E+05  4.438375E+05  4.859999E+05 -1.954373E+04 -8.016956E+04 -5.656377E+03
        52  20  5.109242E+05  4.016031E+05  4.718582E+05 -1.025522E+04 -8.121972E+04 -8.023018E+03
        52  21  4.949997E+05  3.597870E+05  4.551304E+05 -2.542629E+04 -7.681829E+04 -1.032511E+04
        52  22 -1.060251E+03 -1.668107E+06 -8.484033E+03 -5.419721E+03 -8.021220E+04 -3.188304E+03
        52  23 -1.610251E+02 -1.667986E+06 -1.160467E+04  6.784547E+03 -8.122704E+04 -9.074483E+03
        52  24 -6.118154E+03 -1.668072E+06 -1.976773E+04 -5.476064E+03 -7.678213E+04 -1.489616E+04
        52  25 -5.230582E+05 -3.775938E+06 -5.032725E+05  8.665847E+03 -8.025481E+04 -7.285623E+02
        52  26 -5.115499E+05 -3.733621E+06 -4.953588E+05  2.377756E+04 -8.123446E+04 -1.012243E+04
        52  27 -5.075280E+05 -3.692138E+06 -4.949467E+05  1.441955E+04 -7.674622E+04 -1.945231E+04
        53   1  4.918400E+05  3.070900E+05  4.370476E+05 -1.489090E+04  8.045658E+04  2.817597E+04
        53   2  4.819364E+05  2.633879E+05  4.116457E+05 -1.843245E+04  7.346923E+04  2.074794E+04
        53   3  3.993042E+05  2.039688E+05  3.731876E+05 -5.416221E+04  2.280033E+04  1.269567E+04
        53   4  3.447752E+03 -1.672559E+06 -2.411016E+04 -6.868566E+03  8.059129E+04  1.856657E+04
        53   5  5.845584E+03 -1.662222E+06 -3.910439E+04  8.739712E+03  7.324030E+04  3.941525E+04
        53   6 -6.952500E+04 -1.672581E+06 -8.686140E+04 -7.851551E+03  2.214662E+04  5.963673E+04
        53   7 -4.852219E+05 -3.648587E+06 -4.855328E+05  1.138955E+03  8.072599E+04  8.987521E+03
        53   8 -4.705074E+05 -3.584410E+06 -4.901062E+05  3.583810E+04  7.301265E+04  5.802489E+04
        53   9 -5.386092E+05 -3.545913E+06 -5.471604E+05  3.832996E+04  2.149892E+04  1.064360E+05
        53  10  4.918329E+05  3.070874E+05  4.370339E+05 -1.489272E+04 -1.638215E-08  1.396359E-08
        53  11  4.819305E+05  2.633860E+05  4.116347E+05 -1.843367E+04 -3.728074E-09 -7.576144E-09
        53  12  3.993036E+05  2.039685E+05  3.731863E+05 -5.416244E+04 -2.695194E-09 -5.306158E-09
        53  13  3.440690E+03 -1.672561E+06 -2.412301E+04 -6.869772E+03 -1.737814E-09 -1.757015E-10
        53  14  5.839410E+03 -1.662225E+06 -3.911739E+04  8.737385E+03 -7.281408E-09  6.975612E-09
        53  15 -6.952648E+04 -1.672585E+06 -8.686903E+04 -7.852616E+03  7.715678E-09  7.936585E-10
        53  16 -4.852289E+05 -3.648589E+06 -4.855452E+05  1.138370E+03 -3.216814E-09 -7.930849E-09
        53  17 -4.705140E+05 -3.584415E+06 -4.901226E+05  3.583468E+04 -4.229050E-09 -1.323142E-08
        53  18 -5.386127E+05 -3.545925E+06 -5.471827E+05  3.832811E+04  1.138939E-08  2.042425E-09
        53  19  4.918400E+05  3.070900E+05  4.370476E+05 -1.489090E+04 -8.045658E+04 -2.817597E+04
        53  20  4.819364E+05  2.633879E+05  4.116457E+05 -1.843245E+04 -7.346923E+04 -2.074794E+04
        53  21  3.993042E+05  2.039688E+05  3.731876E+05 -5.416221E+04 -2.280033E+04 -1.269567E+04
        53  22  3.447752E+03 -1.672559E+06 -2.411016E+04 -6.868566E+03 -8.059129E+04 -1.856657E+04
        53  23  5.845584E+03 -1.662222E+06 -3.910439E+04  8.739712E+03 -7.324030E+04 -3.941525E+04
        53  24 -6.952500E+04 -1.672581E+06 -8.686140E+04 -7.851551E+03 -2.214662E+04 -5.963673E+04
        53  25 -4.852219E+05 -3.648587E+06 -4.855328E+05  1.138955E+03 -8.072599E+04 -8.987521E+03
        53  26 -4.705074E+05 -3.584410E+06 -4.901062E+05  3.583810E+04 -7.301265E+04 -5.802489E+04
        53  27 -5.386092E+05 -3.545913E+06 -5.471604E+05  3.832996E+04 -2.149892E+04 -1.064360E+05
        54   1  6.738811E+04  8.278432E+05  3.841489E+04 -1.161192E+02  2.358043E+04 -4.346812E+02
        54   2  6.748151E+04  8.279139E+05  3.893532E+04 -8.791927E+01  2.349941E+04 -1.111476E+03
        54   3  6.774151E+04  8.281191E+05  3.993910E+04 -4.796347E+01  2.331190E+04 -1.788328E+03
        54   4 -1.937041E+01  5.285006E+05  4.826843E+02  2.605436E+00  2.358160E+04 -3.673418E+02
        54   5  1.970323E+01  5.284554E+05  8.471981E+02 -3.242485E+00  2.350049E+04 -7.880718E+02
        54   6  1.809989E+02  5.285004E+05  1.517515E+03  2.665360E+00  2.331286E+04 -1.208856E+03
        54   7 -6.743050E+04  2.292498E+05 -3.744983E+04  1.212769E+02  2.358278E+04 -3.000331E+02
        54   8 -6.744577E+04  2.290888E+05 -3.724126E+04  8.139910E+01  2.350157E+04 -4.648162E+02
        54   9 -6.738321E+04  2.289735E+05 -3.690448E+04  5.327704E+01  2.331381E+04 -6.296491E+02
        54  10  6.738751E+04  8.278430E+05  3.841385E+04 -1.161110E+02  2.646649E-09  2.261204E-08
        54  11  6.748092E+04  8.279138E+05  3.893428E+04 -8.789825E+01  6.448779E-09  5.487697E-08
        54  12  6.774092E+04  8.281190E+05  3.993807E+04 -4.792991E+01  8.073986E-09  8.335587E-08
        54  13 -1.996774E+01  5.285004E+05  4.816388E+02  2.612411E+00 -3.915552E-09  3.349775E-10
        54  14  1.910987E+01  5.284553E+05  8.461589E+02 -3.227572E+00 -1.926077E-08 -8.596926E-10
        54  15  1.804148E+02  5.285002E+05  1.516491E+03  2.688052E+00 -1.995169E-08  3.934428E-10
        54  16 -6.743110E+04  2.292497E+05 -3.745088E+04  1.212826E+02 -5.939582E-10 -2.296582E-08
        54  17 -6.744637E+04  2.290886E+05 -3.724230E+04  8.140790E+01  2.077628E-09 -5.502861E-08
        54  18 -6.738379E+04  2.289734E+05 -3.690550E+04  5.328886E+01  1.063666E-08 -8.321000E-08
        54  19  6.738811E+04  8.278432E+05  3.841489E+04 -1.161192E+02 -2.358043E+04  4.346812E+02
        54  20  6.748151E+04  8.279139E+05  3.893532E+04 -8.791927E+01 -2.349941E+04  1.111476E+03
        54  21  6.774151E+04  8.281191E+05  3.993910E+04 -4.796347E+01 -2.331190E+04  1.788328E+03
        54  22 -1.937041E+01  5.285006E+05  4.826843E+02  2.605436E+00 -2.358160E+04  3.673418E+02
        54  23  1.970323E+01  5.284554E+05  8.471981E+02 -3.242485E+00 -2.350049E+04  7.880718E+02
        54  24  1.809989E+02  5.285004E+05  1.517515E+03  2.665359E+00 -2.331286E+04  1.208856E+03
        54  25 -6.743050E+04  2.292498E+05 -3.744983E+04  1.212769E+02 -2.358278E+04  3.000331E+02
        54  26 -6.744577E+04  2.290888E+05 -3.724126E+04  8.139910E+01 -2.350157E+04  4.648162E+02
        54  27 -6.738321E+04  2.289735E+05 -3.690448E+04  5.327704E+01 -2.331381E+04  6.296491E+02
        55   1  6.790249E+04  8.283764E+05  4.066073E+04 -1.458542E+02  2.319347E+04 -2.146180E+03
        55   2  6.876209E+04  8.281147E+05  4.328633E+04  7.240455E+02  2.253098E+04 -5.860249E+03
        55   3  7.121969E+04  8.287401E+05  4.872844E+04  1.553686E+03  2.107371E+04 -9.574778E+03
        55   4  2.664165E+02  5.286039E+05  2.015402E+03 -8.984676E+00  2.319438E+04 -1.505069E+03
        55   5  9.151186E+02  5.283254E+05  3.599059E+03  1.165905E+01  2.253096E+04 -3.308771E+03
        55   6  2.830848E+03  5.286029E+05  6.674301E+03 -7.961040E+00  2.107258E+04 -5.112919E+03
        55   7 -6.737337E+04  2.289233E+05 -3.663038E+04  1.278246E+02  2.319529E+04 -8.642528E+02
        55   8 -6.693566E+04  2.286277E+05 -3.608886E+04 -7.003579E+02  2.253094E+04 -7.584654E+02
        55   9 -6.556199E+04  2.285570E+05 -3.538093E+04 -1.568810E+03  2.107142E+04 -6.531193E+02
        55  10  6.790191E+04  8.283763E+05  4.065971E+04 -1.458141E+02  1.044089E-08  9.676205E-09
        55  11  6.876154E+04  8.281146E+05  4.328531E+04  7.241518E+02  1.119460E-08 -6.568404E-08
        55  12  7.121919E+04  8.287399E+05  4.872743E+04  1.553849E+03  1.106392E-08 -1.344251E-07
        55  13  2.658381E+02  5.286037E+05  2.014386E+03 -8.956567E+00 -2.618609E-08  3.169225E-10
        55  14  9.145704E+02  5.283252E+05  3.598085E+03  1.171908E+01 -2.430153E-08 -9.940374E-10
        55  15  2.830364E+03  5.286028E+05  6.673417E+03 -7.874283E+00 -2.557703E-08  5.230521E-10
        55  16 -6.737395E+04  2.289232E+05 -3.663139E+04  1.278407E+02  6.024396E-09 -1.047572E-08
        55  17 -6.693620E+04  2.286275E+05 -3.608982E+04 -7.003441E+02  2.410830E-09  6.529125E-08
        55  18 -6.556246E+04  2.285569E+05 -3.538176E+04 -1.568799E+03  6.936996E-09  1.345188E-07
        55  19  6.790249E+04  8.283764E+05  4.066073E+04 -1.458542E+02 -2.319347E+04  2.146180E+03
        55  20  6.876209E+04  8.281147E+05  4.328633E+04  7.240455E+02 -2.253098E+04  5.860249E+03
        55  21  7.121969E+04  8.287401E+05  4.872844E+04  1.553686E+03 -2.107371E+04  9.574778E+03
        55  22  2.664165E+02  5.286039E+05  2.015402E+03 -8.984676E+00 -2.319438E+04  1.505069E+03
        55  23  9.151186E+02  5.283254E+05  3.599059E+03  1.165905E+01 -2.253096E+04  3.308771E+03
        55  24  2.830848E+03  5.286029E+05  6.674301E+03 -7.961040E+00 -2.107258E+04  5.112919E+03
        55  25 -6.737337E+04  2.289233E+05 -3.663038E+04  1.278246E+02 -2.319529E+04  8.642528E+02
        55  26 -6.693566E+04  2.286277E+05 -3.608886E+04 -7.003579E+02 -2.253094E+04  7.584654E+02
        55  27 -6.556199E+04  2.285570E+05 -3.538093E+04 -1.568810E+03 -2.107142E+04  6.531193E+02
        56   1  7.271378E+04  8.300999E+05  5.258081E+04  9.778067E+02  2.015292E+04 -1.120849E+04
        56   2  8.129318E+04  8.270198E+05  6.773484E+04  1.117448E+04  1.517064E+04 -3.377870E+04
        56   3  1.048461E+05  8.306215E+05  1.013141E+05  2.090123E+04  4.303287E+03 -5.635301E+04
        56   4  3.900698E+03  5.294197E+05  8.950581E+03 -1.044281E+02  2.015138E+04 -6.278093E+03
        56   5  1.117250E+04  5.273007E+05  1.654165E+04  1.373929E+02  1.516140E+04 -1.470745E+04
        56   6  3.096819E+04  5.294126E+05  3.274786E+04 -9.082982E+01  4.285767E+03 -2.314057E+04
        56   7 -6.491652E+04  2.288305E+05 -3.468104E+04 -1.186106E+03  2.014982E+04 -1.349978E+03
        56   8 -5.895229E+04  2.276709E+05 -3.465310E+04 -1.089419E+04  1.515148E+04  4.354895E+03
        56   9 -4.291372E+04  2.282912E+05 -3.581989E+04 -2.107261E+04  4.265998E+03  1.005593E+04
        56  10  7.271331E+04  8.300997E+05  5.257981E+04  9.779885E+02  1.084618E-08 -1.073498E-07
        56  11  8.129262E+04  8.270185E+05  6.773226E+04  1.117489E+04  5.184012E-09 -5.637613E-10
        56  12  1.048452E+05  8.306181E+05  1.013081E+05  2.090142E+04  1.079419E-09  1.092622E-07
        56  13  3.900251E+03  5.294195E+05  8.949744E+03 -1.043263E+02 -1.845653E-08  6.215590E-10
        56  14  1.117220E+04  5.273005E+05  1.654081E+04  1.375725E+02 -3.532965E-09 -1.061708E-09
        56  15  3.096803E+04  5.294121E+05  3.274682E+04 -9.074997E+01 -3.488805E-09  7.494826E-10
        56  16 -6.491696E+04  2.288304E+05 -3.468181E+04 -1.186084E+03  2.118757E-09  1.065360E-07
        56  17 -5.895254E+04  2.276708E+05 -3.465356E+04 -1.089425E+04  7.140708E-10  3.061230E-11
        56  18 -4.291376E+04  2.282911E+05 -3.582011E+04 -2.107265E+04 -9.095103E-10 -1.090577E-07
        56  19  7.271378E+04  8.300999E+05  5.258081E+04  9.778067E+02 -2.015292E+04  1.120849E+04
        56  20  8.129318E+04  8.270198E+05  6.773484E+04  1.117448E+04 -1.517064E+04  3.377870E+04
        56  21  1.048461E+05  8.306215E+05  1.013141E+05  2.090123E+04 -4.303287E+03  5.635301E+04
        56  22  3.900698E+03  5.294197E+05  8.950581E+03 -1.044281E+02 -2.015138E+04  6.278093E+03
        56  23  1.117250E+04  5.273007E+05  1.654165E+04  1.373929E+02 -1.516140E+04  1.470745E+04
        56  24  3.096819E+04  5.294126E+05  3.274786E+04 -9.082982E+01 -4.285767E+03  2.314057E+04
        56  25 -6.491652E+04  2.288305E+05 -3.468104E+04 -1.186106E+03 -2.014982E+04  1.349978E+03
        56  26 -5.895229E+04  2.276709E+05 -3.465310E+04 -1.089419E+04 -1.515148E+04 -4.354895E+03
        56  27 -4.291372E+04  2.282912E+05 -3.581989E+04 -2.107261E+04 -4.265998E+03 -1.005593E+04
        57   1  1.909386E+06  3.857745E+06  2.289876E+06  1.057341E+06 -1.671857E+06 -7.978689E+05
        57   2  5.700285E+05  3.415877E+06  2.954814E+06 -2.294107E+06 -9.999618E+05 -7.658660E+05
        57   3 -4.160259E+06  4.479763E+06  2.826248E+06 -7.301519E+05 -4.862711E+05 -3.741452E+05
        57   4 -1.634602E+07 -3.018229E+06 -2.750532E+06 -3.856422E+06 -1.720440E+06 -8.185866E+05
        57   5 -1.444563E+07 -2.673558E+06 -1.252762E+06 -6.753420E+06 -9.858592E+05 -7.607143E+05
        57   6 -1.601932E+07 -8.905794E+05 -6.289065E+05 -4.725673E+06 -4.078299E+05 -3.386042E+05
        57   7 -3.427882E+07 -9.878058E+06 -7.821962E+06 -8.641045E+06 -1.766643E+06 -8.384604E+05
        57   8 -2.924025E+07 -8.743499E+06 -5.482090E+06 -1.111255E+07 -9.717906E+05 -7.555893E+05
        57   9 -2.773880E+07 -6.240178E+06 -4.098629E+06 -8.647377E+06 -3.310224E+05 -3.038598E+05
        57  10  1.906227E+06  3.856320E+06  2.283456E+06  1.056273E+06 -6.734619E-09  7.133499E-09
        57  11  5.687968E+05  3.414979E+06  2.951826E+06 -2.294722E+06 -1.478540E-08  1.188916E-08
        57  12 -4.160551E+06  4.479550E+06  2.825539E+06 -7.302981E+05  1.531588E-09 -7.633639E-09
        57  13 -1.634946E+07 -3.019782E+06 -2.757541E+06 -3.857574E+06  1.616990E-10 -2.022208E-09
        57  14 -1.444686E+07 -2.674460E+06 -1.255756E+06 -6.754033E+06 -4.974782E-09 -7.112105E-09
        57  15 -1.601953E+07 -8.907496E+05 -6.294467E+05 -4.725785E+06  4.496067E-09 -1.125040E-08
        57  16 -3.428254E+07 -9.879745E+06 -7.829586E+06 -8.642282E+06  4.825509E-09  2.666343E-09
        57  17 -2.924147E+07 -8.744403E+06 -5.485091E+06 -1.111316E+07  2.013875E-08 -8.172416E-09
        57  18 -2.773895E+07 -6.240311E+06 -4.099025E+06 -8.647460E+06 -7.210065E-09  1.365828E-08
        57  19  1.909386E+06  3.857745E+06  2.289876E+06  1.057341E+06  1.671857E+06  7.978689E+05
        57  20  5.700285E+05  3.415877E+06  2.954814E+06 -2.294107E+06  9.999618E+05  7.658660E+05
        57  21 -4.160259E+06  4.479763E+06  2.826248E+06 -7.301519E+05  4.862711E+05  3.741452E+05
        57  22 -1.634602E+07 -3.018229E+06 -2.750532E+06 -3.856422E+06  1.720440E+06  8.185866E+05
        57  23 -1.444563E+07 -2.673558E+06 -1.252762E+06 -6.753420E+06  9.858592E+05  7.607143E+05
        57  24 -1.601932E+07 -8.905794E+05 -6.289065E+05 -4.725673E+06  4.078299E+05  3.386042E+05
        57  25 -3.427882E+07 -9.878058E+06 -7.821962E+06 -8.641045E+06  1.766643E+06  8.384604E+05
        57  26 -2.924025E+07 -8.743499E+06 -5.482090E+06 -1.111255E+07  9.717906E+05  7.555893E+05
        57  27 -2.773880E+07 -6.240178E+06 -4.098629E+06 -8.647377E+06  3.310224E+05  3.038598E+05
        58   1 -2.050684E+07 -2.929077E+06 -1.783479E+06 -5.782667E+06 -4.195207E+05 -1.717951E+05
        58   2 -2.161377E+07 -6.454321E+06 -2.474226E+06 -9.214511E+06 -3.295405E+05  7.607799E+03
        58   3 -2.757239E+07 -5.627282E+06 -3.375691E+06 -7.757825E+06 -2.286355E+05  1.698002E+05
        58   4 -1.643260E+07 -1.034300E+06 -5.710953E+05 -4.385407E+06 -3.954328E+05 -1.608264E+05
        58   5 -1.398556E+07 -3.185509E+06 -2.718375E+05 -6.832244E+06 -3.085835E+05  1.669607E+04
        58   6 -1.639220E+07 -9.812716E+05 -1.774856E+05 -4.400666E+06 -2.099259E+05  1.774800E+05
        58   7 -1.234161E+07  8.631892E+05  6.395121E+05 -2.979025E+06 -3.711483E+05 -1.497592E+05
        58   8 -6.298789E+06  8.990880E+04  1.924646E+06 -4.421532E+06 -2.873029E+05  2.592848E+04
        58   9 -5.085821E+06  3.676497E+06  3.008266E+06 -9.854500E+05 -1.908033E+05  1.853376E+05
        58  10 -2.050704E+07 -2.929158E+06 -1.783880E+06 -5.782726E+06 -1.180127E-08  1.077970E-09
        58  11 -2.161389E+07 -6.454351E+06 -2.474437E+06 -9.214509E+06  1.784943E-08  3.796198E-08
        58  12 -2.757245E+07 -5.627327E+06 -3.375845E+06 -7.757794E+06  1.991027E-08 -4.196816E-08
        58  13 -1.643278E+07 -1.034372E+06 -5.714475E+05 -4.385459E+06  1.566186E-11  2.480159E-08
        58  14 -1.398567E+07 -3.185536E+06 -2.720206E+05 -6.832240E+06  9.382285E-09 -3.333170E-08
        58  15 -1.639225E+07 -9.813170E+05 -1.776281E+05 -4.400636E+06 -1.882286E-08  2.338679E-08
        58  16 -1.234177E+07  8.631269E+05  6.392048E+05 -2.979070E+06  3.807411E-09 -1.715124E-08
        58  17 -6.298878E+06  8.988578E+04  1.924488E+06 -4.421526E+06 -2.179951E-08 -6.629794E-08
        58  18 -5.085869E+06  3.676451E+06  3.008134E+06 -9.854216E+05  1.536659E-10  2.007313E-08
        58  19 -2.050684E+07 -2.929077E+06 -1.783479E+06 -5.782667E+06  4.195207E+05  1.717951E+05
        58  20 -2.161377E+07 -6.454321E+06 -2.474226E+06 -9.214511E+06  3.295405E+05 -7.607799E+03
        58  21 -2.757239E+07 -5.627282E+06 -3.375691E+06 -7.757825E+06  2.286355E+05 -1.698002E+05
        58  22 -1.643260E+07 -1.034300E+06 -5.710953E+05 -4.385407E+06  3.954328E+05  1.608264E+05
        58  23 -1.398556E+07 -3.185509E+06 -2.718375E+05 -6.832244E+06  3.085835E+05 -1.669607E+04
        58  24 -1.639220E+07 -9.812716E+05 -1.774856E+05 -4.400666E+06  2.099259E+05 -1.774800E+05
        58  25 -1.234161E+07  8.631892E+05  6.395121E+05 -2.979025E+06  3.711483E+05  1.497592E+05
        58  26 -6.298789E+06  8.990880E+04  1.924646E+06 -4.421532E+06  2.873029E+05 -2.592848E+04
        58  27 -5.085821E+06  3.676497E+06  3.008266E+06 -9.854500E+05  1.908033E+05 -1.853376E+05
        59   1 -3.619175E+07 -1.043008E+07 -6.087006E+06 -1.137881E+07 -2.828366E+05  2.361107E+05
        59   2 -3.838884E+07 -1.089909E+07 -6.561479E+06 -1.181643E+07 -2.015082E+05  3.630469E+05
        59   3 -3.798207E+07 -9.958888E+06 -6.272664E+06 -1.058599E+07 -6.790230E+04  3.517332E+05
        59   4 -1.482638E+07 -1.687882E+06  4.959279E+04 -5.137318E+06 -2.543867E+05  2.468053E+05
        59   5 -1.617137E+07 -2.437819E+06 -3.071286E+05 -5.959405E+06 -1.993081E+05  3.626802E+05
        59   6 -1.483213E+07 -1.718214E+06  1.264679E+05 -5.106975E+06 -9.267006E+04  3.425401E+05
        59   7  7.001095E+06  7.094150E+06  6.140585E+06  1.312757E+06 -2.247154E+05  2.580290E+05
        59   8  6.542905E+06  6.049535E+06  5.899782E+06  9.805844E+04 -1.970037E+05  3.623865E+05
        59   9  8.851222E+06  6.535290E+06  6.476028E+06  5.631936E+05 -1.185265E+05  3.330215E+05
        59  10 -3.619185E+07 -1.043016E+07 -6.087264E+06 -1.137876E+07  1.212489E-08 -2.315391E-08
        59  11 -3.838892E+07 -1.089924E+07 -6.561801E+06 -1.181637E+07  4.437524E-09  4.297422E-08
        59  12 -3.798211E+07 -9.959021E+06 -6.272903E+06 -1.058597E+07 -1.905360E-09  4.403259E-08
        59  13 -1.482646E+07 -1.687964E+06  4.935690E+04 -5.137268E+06 -5.916453E-09  2.201133E-08
        59  14 -1.617144E+07 -2.437970E+06 -3.074480E+05 -5.959346E+06 -1.443117E-08 -7.762969E-09
        59  15 -1.483217E+07 -1.718341E+06  1.262331E+05 -5.106950E+06  2.745793E-09  1.851815E-09
        59  16  7.001024E+06  7.094066E+06  6.140367E+06  1.312803E+06 -4.271076E-09  3.710977E-08
        59  17  6.542829E+06  6.049385E+06  5.899465E+06  9.811532E+04 -4.342469E-09 -1.423495E-08
        59  18  8.851178E+06  6.535168E+06  6.475796E+06  5.632250E+05  8.892919E-09 -6.198258E-08
        59  19 -3.619175E+07 -1.043008E+07 -6.087006E+06 -1.137881E+07  2.828366E+05 -2.361107E+05
        59  20 -3.838884E+07 -1.089909E+07 -6.561479E+06 -1.181643E+07  2.015082E+05 -3.630469E+05
        59  21 -3.798207E+07 -9.958888E+06 -6.272664E+06 -1.058599E+07  6.790230E+04 -3.517332E+05
        59  22 -1.482638E+07 -1.687882E+06  4.959279E+04 -5.137318E+06  2.543867E+05 -2.468053E+05
        59  23 -1.617137E+07 -2.437819E+06 -3.071286E+05 -5.959405E+06  1.993081E+05 -3.626802E+05
        59  24 -1.483213E+07 -1.718214E+06  1.264679E+05 -5.106975E+06  9.267006E+04 -3.425401E+05
        59  25  7.001095E+06  7.094150E+06  6.140585E+06  1.312757E+06  2.247154E+05 -2.580290E+05
        59  26  6.542905E+06  6.049535E+06  5.899782E+06  9.805844E+04  1.970037E+05 -3.623865E+05
        59  27  8.851222E+06  6.535290E+06  6.476028E+06  5.631936E+05  1.185265E+05 -3.330215E+05
        60   1 -3.079054E+07 -8.450569E+06 -4.477033E+06 -1.014209E+07 -1.075894E+05  2.886675E+05
        60   2 -2.976897E+07 -5.497672E+06 -3.659277E+06 -6.996648E+06 -4.460233E+04  2.322761E+05
        60   3 -2.459454E+07 -5.716785E+06 -2.669084E+06 -8.488735E+06  3.604750E+04  9.274001E+04
        60   4 -1.442425E+07 -2.810495E+06 -1.451182E+04 -6.466044E+06 -1.140346E+05  2.860696E+05
        60   5 -1.650822E+07 -1.075351E+06 -7.621897E+04 -4.201215E+06 -6.821090E+04  2.250965E+05
        60   6 -1.443362E+07 -2.491167E+06  5.148593E+04 -6.570510E+06 -5.185294E+03  8.175078E+04
        60   7  2.205759E+06  2.833278E+06  4.423813E+06 -2.700107E+06 -1.206712E+05  2.834250E+05
        60   8 -3.075213E+06  3.347031E+06  3.491223E+06 -1.351340E+06 -9.238119E+04  2.177604E+05
        60   9 -4.172805E+06  7.327490E+05  2.763076E+06 -4.624077E+06 -4.715728E+04  7.057276E+04
        60  10 -3.079057E+07 -8.450661E+06 -4.477210E+06 -1.014207E+07  2.125602E-08  3.760114E-08
        60  11 -2.976898E+07 -5.497730E+06 -3.659381E+06 -6.996640E+06  1.213270E-08  5.597944E-09
        60  12 -2.459455E+07 -5.716795E+06 -2.669102E+06 -8.488738E+06 -2.923384E-08 -5.093342E-08
        60  13 -1.442428E+07 -2.810586E+06 -1.468857E+04 -6.466018E+06  1.976155E-09 -4.059157E-08
        60  14 -1.650824E+07 -1.075406E+06 -7.632207E+04 -4.201203E+06  2.727149E-08  3.464409E-08
        60  15 -1.443363E+07 -2.491174E+06  5.147338E+04 -6.570510E+06  1.407862E-08 -1.722646E-08
        60  16  2.205722E+06  2.833188E+06  4.423636E+06 -2.700080E+06 -5.535425E-09 -3.534038E-08
        60  17 -3.075235E+06  3.346978E+06  3.491118E+06 -1.351324E+06 -6.497828E-08 -2.473426E-09
        60  18 -4.172809E+06  7.327431E+05  2.763063E+06 -4.624075E+06 -5.957619E-09  2.331752E-08
        60  19 -3.079054E+07 -8.450569E+06 -4.477033E+06 -1.014209E+07  1.075894E+05 -2.886675E+05
        60  20 -2.976897E+07 -5.497672E+06 -3.659277E+06 -6.996648E+06  4.460233E+04 -2.322761E+05
        60  21 -2.459454E+07 -5.716785E+06 -2.669084E+06 -8.488735E+06 -3.604750E+04 -9.274001E+04
        60  22 -1.442425E+07 -2.810495E+06 -1.451182E+04 -6.466044E+06  1.140346E+05 -2.860696E+05
        60  23 -1.650822E+07 -1.075351E+06 -7.621897E+04 -4.201215E+06  6.821090E+04 -2.250965E+05
        60  24 -1.443362E+07 -2.491167E+06  5.148593E+04 -6.570510E+06  5.185294E+03 -8.175078E+04
        60  25  2.205759E+06  2.833278E+06  4.423813E+06 -2.700107E+06  1.206712E+05 -2.834250E+05
        60  26 -3.075213E+06  3.347031E+06  3.491223E+06 -1.351340E+06  9.238119E+04 -2.177604E+05
        60  27 -4.172805E+06  7.327490E+05  2.763076E+06 -4.624077E+06  4.715728E+04 -7.057276E+04
        61   1 -6.807208E+06 -1.714720E+05  2.055805E+06 -5.237357E+06  4.079817E+04 -2.901546E+04
        61   2 -5.335008E+06  2.655121E+06  2.901608E+06 -1.752003E+06  8.235262E+04 -1.783708E+05
        61   3  1.269330E+05  2.034548E+06  3.850468E+06 -3.362353E+06  1.105915E+05 -2.602918E+05
        61   4 -1.446310E+07 -2.568199E+06  2.829796E+04 -6.669557E+06  1.386818E+02 -3.972958E+04
        61   5 -1.644355E+07 -9.778570E+05 -4.690920E+04 -4.069778E+06  5.640809E+04 -1.859723E+05
        61   6 -1.445461E+07 -2.851526E+06 -3.123802E+04 -6.577193E+06  9.919032E+04 -2.641788E+05
        61   7 -2.206328E+07 -4.965994E+06 -2.004218E+06 -8.086262E+06 -3.998587E+04 -5.030891E+04
        61   8 -2.743417E+07 -4.611122E+06 -3.006085E+06 -6.350916E+06  3.096144E+04 -1.934353E+05
        61   9 -2.883334E+07 -7.735771E+06 -3.931445E+06 -9.724734E+06  8.807688E+04 -2.679872E+05
        61  10 -6.807210E+06 -1.714733E+05  2.055801E+06 -5.237357E+06  2.887243E-08  5.814502E-09
        61  11 -5.335024E+06  2.655085E+06  2.901536E+06 -1.751991E+06 -1.496486E-08  3.930492E-08
        61  12  1.269021E+05  2.034473E+06  3.850319E+06 -3.362330E+06 -7.126683E-09 -2.068774E-08
        61  13 -1.446310E+07 -2.568200E+06  2.829500E+04 -6.669557E+06  1.232530E-08  1.699610E-08
        61  14 -1.644357E+07 -9.778947E+05 -4.697959E+04 -4.069770E+06  1.999008E-08  5.212057E-08
        61  15 -1.445464E+07 -2.851603E+06 -3.138642E+04 -6.577172E+06  9.660147E-09  7.260821E-08
        61  16 -2.206329E+07 -4.965997E+06 -2.004226E+06 -8.086263E+06 -4.072630E-08  6.376680E-08
        61  17 -2.743418E+07 -4.611162E+06 -3.006156E+06 -6.350911E+06 -2.653722E-08 -5.011152E-08
        61  18 -2.883337E+07 -7.735849E+06 -3.931593E+06 -9.724715E+06  1.739397E-09  1.777120E-08
        61  19 -6.807208E+06 -1.714720E+05  2.055805E+06 -5.237357E+06 -4.079817E+04  2.901546E+04
        61  20 -5.335008E+06  2.655121E+06  2.901608E+06 -1.752003E+06 -8.235262E+04  1.783708E+05
        61  21  1.269330E+05  2.034548E+06  3.850468E+06 -3.362353E+06 -1.105915E+05  2.602918E+05
        61  22 -1.446310E+07 -2.568199E+06  2.829796E+04 -6.669557E+06 -1.386818E+02  3.972958E+04
        61  23 -1.644355E+07 -9.778570E+05 -4.690920E+04 -4.069778E+06 -5.640809E+04  1.859723E+05
        61  24 -1.445461E+07 -2.851526E+06 -3.123802E+04 -6.577193E+06 -9.919032E+04  2.641788E+05
        61  25 -2.206328E+07 -4.965994E+06 -2.004218E+06 -8.086262E+06  3.998587E+04  5.030891E+04
        61  26 -2.743417E+07 -4.611122E+06 -3.006085E+06 -6.350916E+06 -3.096144E+04  1.934353E+05
        61  27 -2.883334E+07 -7.735771E+06 -3.931445E+06 -9.724734E+06 -8.807688E+04  2.679872E+05
        62   1  8.804631E+06  6.250593E+06  6.412346E+06  1.948149E+05  1.120779E+05 -3.213245E+05
        62   2  6.651120E+06  6.156356E+06  5.944308E+06  1.971651E+05  1.948400E+05 -3.670468E+05
        62   3  7.865349E+06  7.066125E+06  6.308407E+06  1.247848E+06  2.290834E+05 -2.769285E+05
        62   4 -1.470055E+07 -1.800206E+06  1.364070E+05 -5.261388E+06  8.254417E+04 -3.316968E+05
        62   5 -1.634103E+07 -2.291354E+06 -3.095194E+05 -5.782460E+06  1.938789E+05 -3.685474E+05
        62   6 -1.469579E+07 -1.842104E+06  4.971903E+04 -5.262518E+06  2.558635E+05 -2.672362E+05
        62   7 -3.768148E+07 -9.841905E+06 -6.187949E+06 -1.053569E+07  5.423504E+04 -3.417098E+05
        62   8 -3.882534E+07 -1.071606E+07 -6.611510E+06 -1.156275E+07  1.929459E+05 -3.700733E+05
        62   9 -3.676481E+07 -1.071210E+07 -6.257137E+06 -1.155649E+07  2.815058E+05 -2.580297E+05
        62  10  8.804590E+06  6.250480E+06  6.412131E+06  1.948435E+05  8.465160E-09  1.034616E-08
        62  11  6.651044E+06  6.156202E+06  5.943986E+06  1.972221E+05  1.138814E-08 -1.128735E-08
        62  12  7.865273E+06  7.066029E+06  6.308166E+06  1.247898E+06 -1.662338E-08  4.679704E-09
        62  13 -1.470058E+07 -1.800325E+06  1.361891E+05 -5.261366E+06  1.190833E-08  7.769067E-09
        62  14 -1.634110E+07 -2.291509E+06 -3.098428E+05 -5.782402E+06  3.550064E-09 -7.275952E-09
        62  15 -1.469588E+07 -1.842198E+06  4.946233E+04 -5.262462E+06  5.928764E-10  7.350398E-09
        62  16 -3.768152E+07 -9.842031E+06 -6.188173E+06 -1.053568E+07 -1.109480E-08  1.225198E-08
        62  17 -3.882542E+07 -1.071622E+07 -6.611835E+06 -1.156269E+07  9.053593E-09  3.508157E-08
        62  18 -3.676492E+07 -1.071219E+07 -6.257414E+06 -1.155643E+07  1.900478E-08 -3.263566E-08
        62  19  8.804631E+06  6.250593E+06  6.412346E+06  1.948149E+05 -1.120779E+05  3.213245E+05
        62  20  6.651120E+06  6.156356E+06  5.944308E+06  1.971651E+05 -1.948400E+05  3.670468E+05
        62  21  7.865349E+06  7.066125E+06  6.308407E+06  1.247848E+06 -2.290834E+05  2.769285E+05
        62  22 -1.470055E+07 -1.800206E+06  1.364070E+05 -5.261388E+06 -8.254417E+04  3.316968E+05
        62  23 -1.634103E+07 -2.291354E+06 -3.095194E+05 -5.782460E+06 -1.938789E+05  3.685474E+05
        62  24 -1.469579E+07 -1.842104E+06  4.971903E+04 -5.262518E+06 -2.558635E+05  2.672362E+05
        62  25 -3.768148E+07 -9.841905E+06 -6.187949E+06 -1.053569E+07 -5.423504E+04  3.417098E+05
        62  26 -3.882534E+07 -1.071606E+07 -6.611510E+06 -1.156275E+07 -1.929459E+05  3.700733E+05
        62  27 -3.676481E+07 -1.071210E+07 -6.257137E+06 -1.155649E+07 -2.815058E+05  2.580297E+05
        63   1 -2.721555E+06  4.461976E+06  3.641941E+06 -3.808026E+05  1.994416E+05 -2.147221E+05
        63   2 -4.100868E+06  1.090241E+06  2.572607E+06 -3.678313E+06  3.007185E+05 -6.908211E+04
        63   3 -9.734633E+06  1.944113E+06  1.393218E+06 -2.209235E+06  3.814370E+05  1.090275E+05
        63   4 -1.627729E+07 -1.047535E+06 -1.604924E+05 -4.413119E+06  2.138611E+05 -2.091296E+05
        63   5 -1.415314E+07 -3.155213E+06 -2.885095E+05 -6.802792E+06  3.204383E+05 -6.072058E+04
        63   6 -1.631278E+07 -1.045244E+06 -5.336539E+05 -4.424464E+06  4.071864E+05  1.207285E+05
        63   7 -2.965246E+07 -6.541270E+06 -3.980676E+06 -8.363738E+06  2.279039E+05 -2.037005E+05
        63   8 -2.410557E+07 -7.389829E+06 -3.159657E+06 -9.879314E+06  3.397601E+05 -5.253604E+04
        63   9 -2.284773E+07 -4.028214E+06 -2.465048E+06 -6.616866E+06  4.325942E+05  1.322638E+05
        63  10 -2.721610E+06  4.461916E+06  3.641780E+06 -3.807683E+05 -1.360871E-08  2.897778E-09
        63  11 -4.100967E+06  1.090211E+06  2.572427E+06 -3.678296E+06 -3.062967E-08  2.915883E-08
        63  12 -9.734794E+06  1.944060E+06  1.392917E+06 -2.209269E+06 -2.315236E-09 -1.967739E-08
        63  13 -1.627735E+07 -1.047594E+06 -1.606607E+05 -4.413083E+06 -2.888578E-09 -1.398223E-08
        63  14 -1.415326E+07 -3.155245E+06 -2.887125E+05 -6.802776E+06  7.270190E-09  1.402987E-08
        63  15 -1.631296E+07 -1.045306E+06 -5.340027E+05 -4.424504E+06  6.580078E-10  5.525983E-08
        63  16 -2.965253E+07 -6.541328E+06 -3.980853E+06 -8.363701E+06  2.291503E-08  3.188744E-09
        63  17 -2.410570E+07 -7.389864E+06 -3.159886E+06 -9.879300E+06  1.555646E-08  3.023623E-08
        63  18 -2.284794E+07 -4.028286E+06 -2.465449E+06 -6.616913E+06 -1.715604E-08  2.686252E-08
        63  19 -2.721555E+06  4.461976E+06  3.641941E+06 -3.808026E+05 -1.994416E+05  2.147221E+05
        63  20 -4.100868E+06  1.090241E+06  2.572607E+06 -3.678313E+06 -3.007185E+05  6.908211E+04
        63  21 -9.734633E+06  1.944113E+06  1.393218E+06 -2.209235E+06 -3.814370E+05 -1.090275E+05
        63  22 -1.627729E+07 -1.047535E+06 -1.604924E+05 -4.413119E+06 -2.138611E+05  2.091296E+05
        63  23 -1.415314E+07 -3.155213E+06 -2.885095E+05 -6.802792E+06 -3.204383E+05  6.072058E+04
        63  24 -1.631278E+07 -1.045244E+06 -5.336539E+05 -4.424464E+06 -4.071864E+05 -1.207285E+05
        63  25 -2.965246E+07 -6.541270E+06 -3.980676E+06 -8.363738E+06 -2.279039E+05  2.037005E+05
        63  26 -2.410557E+07 -7.389829E+06 -3.159657E+06 -9.879314E+06 -3.397601E+05  5.253604E+04
        63  27 -2.284773E+07 -4.028214E+06 -2.465048E+06 -6.616866E+06 -4.325942E+05 -1.322638E+05
        64   1 -2.567787E+07 -5.221557E+06 -3.454347E+06 -7.899430E+06  3.425615E+05  2.648808E+05
        64   2 -2.700797E+07 -8.041129E+06 -4.850745E+06 -1.062773E+07  9.523022E+05  7.118155E+05
        64   3 -3.264647E+07 -9.126611E+06 -7.268907E+06 -8.215117E+06  1.706010E+06  8.190771E+05
        64   4 -1.618120E+07 -8.300664E+05 -6.324261E+05 -4.671788E+06  4.163877E+05  2.985983E+05
        64   5 -1.421561E+07 -2.747395E+06 -1.189767E+06 -6.810441E+06  9.667721E+05  7.173668E+05
        64   6 -1.650904E+07 -2.873839E+06 -2.693004E+06 -3.820362E+06  1.664017E+06  8.005586E+05
        64   7 -6.592957E+06  3.575858E+06  2.179873E+06 -1.394790E+06  4.914983E+05  3.329543E+05
        64   8 -1.258128E+06  2.561640E+06  2.454892E+06 -2.917330E+06  9.813316E+05  7.229638E+05
        64   9 -1.102087E+05  3.393440E+06  1.857602E+06  6.811948E+05  1.620099E+06  7.813440E+05
        64  10 -2.567802E+07 -5.221667E+06 -3.454714E+06 -7.899505E+06  5.433344E-09  2.061499E-08
        64  11 -2.700914E+07 -8.041949E+06 -4.853536E+06 -1.062829E+07 -4.046641E-10 -5.529698E-08
        64  12 -3.264994E+07 -9.128197E+06 -7.276025E+06 -8.216282E+06 -4.871392E-09 -2.361398E-08
        64  13 -1.618142E+07 -8.302112E+05 -6.329317E+05 -4.671890E+06  4.505373E-08 -4.457556E-08
        64  14 -1.421678E+07 -2.748216E+06 -1.192566E+06 -6.811008E+06  1.134229E-08  2.133235E-08
        64  15 -1.651225E+07 -2.875308E+06 -2.699589E+06 -3.821451E+06  1.172138E-08 -8.215416E-09
        64  16 -6.593248E+06  3.575673E+06  2.179206E+06 -1.394921E+06 -1.627383E-08 -4.050471E-08
        64  17 -1.259306E+06  2.560818E+06  2.452085E+06 -2.917901E+06  2.216476E-08 -4.653060E-08
        64  18 -1.131863E+05  3.392084E+06  1.851530E+06  6.801795E+05  2.539644E-08 -2.244853E-08
        64  19 -2.567787E+07 -5.221557E+06 -3.454347E+06 -7.899430E+06 -3.425615E+05 -2.648808E+05
        64  20 -2.700797E+07 -8.041129E+06 -4.850745E+06 -1.062773E+07 -9.523022E+05 -7.118155E+05
        64  21 -3.264647E+07 -9.126611E+06 -7.268907E+06 -8.215117E+06 -1.706010E+06 -8.190771E+05
        64  22 -1.618120E+07 -8.300664E+05 -6.324261E+05 -4.671788E+06 -4.163877E+05 -2.985983E+05
        64  23 -1.421561E+07 -2.747395E+06 -1.189767E+06 -6.810441E+06 -9.667721E+05 -7.173668E+05
        64  24 -1.650904E+07 -2.873839E+06 -2.693004E+06 -3.820362E+06 -1.664017E+06 -8.005586E+05
        64  25 -6.592957E+06  3.575858E+06  2.179873E+06 -1.394790E+06 -4.914983E+05 -3.329543E+05
        64  26 -1.258128E+06  2.561640E+06  2.454892E+06 -2.917330E+06 -9.813316E+05 -7.229638E+05
        64  27 -1.102087E+05  3.393440E+06  1.857602E+06  6.811948E+05 -1.620099E+06 -7.813440E+05
        65   1 -1.141280E+06 -6.015155E+04 -1.487091E+04 -4.677912E+03  1.307047E+05  4.310237E+03
        65   2 -1.175159E+06 -2.438569E+05 -1.263860E+05 -6.333255E+03  8.643004E+04  8.427282E+03
        65   3 -1.135622E+06 -2.129510E+05 -1.525987E+05 -1.821341E+04  4.222860E+04  6.877663E+03
        65   4 -3.046321E+05  1.488615E+05  1.941994E+05 -8.420184E+03  1.317321E+05  4.321425E+03
        65   5 -3.414053E+05 -3.533452E+04  8.165161E+04 -2.274220E+03  8.672528E+04  8.429617E+03
        65   6 -3.047012E+05 -4.936936E+03  5.483720E+04 -6.351857E+03  4.179191E+04  6.873415E+03
        65   7  5.326511E+05  3.578220E+05  4.032170E+05 -1.216967E+04  1.327608E+05  4.332593E+03
        65   8  4.929794E+05  1.731355E+05  2.896369E+05  1.788459E+03  8.702085E+04  8.431954E+03
        65   9  5.268461E+05  2.030253E+05  2.622210E+05  5.524125E+03  4.135461E+04  6.869152E+03
        65  10 -1.141298E+06 -6.015617E+04 -1.490311E+04 -4.678366E+03  4.031471E-10  5.263366E-09
        65  11 -1.175167E+06 -2.438590E+05 -1.264002E+05 -6.333841E+03  1.835258E-09 -4.042035E-09
        65  12 -1.135624E+06 -2.129515E+05 -1.526021E+05 -1.821364E+04  1.298082E-09 -1.451364E-09
        65  13 -3.046507E+05  1.488569E+05  1.941668E+05 -8.420642E+03 -6.818934E-10  1.919760E-09
        65  14 -3.414134E+05 -3.533661E+04  8.163734E+04 -2.274808E+03 -4.984812E-09 -1.497025E-08
        65  15 -3.047031E+05 -4.937456E+03  5.483383E+04 -6.352088E+03  7.774859E-09 -4.561626E-10
        65  16  5.326322E+05  3.578173E+05  4.031839E+05 -1.217013E+04  4.629133E-09 -1.584971E-09
        65  17  4.929712E+05  1.731334E+05  2.896226E+05  1.787869E+03  8.117167E-09 -2.664143E-09
        65  18  5.268442E+05  2.030248E+05  2.622177E+05  5.523897E+03 -3.225357E-09 -4.543796E-09
        65  19 -1.141280E+06 -6.015155E+04 -1.487091E+04 -4.677912E+03 -1.307047E+05 -4.310237E+03
        65  20 -1.175159E+06 -2.438569E+05 -1.263860E+05 -6.333255E+03 -8.643004E+04 -8.427282E+03
        65  21 -1.135622E+06 -2.129510E+05 -1.525987E+05 -1.821341E+04 -4.222860E+04 -6.877663E+03
        65  22 -3.046321E+05  1.488615E+05  1.941994E+05 -8.420184E+03 -1.317321E+05 -4.321425E+03
        65  23 -3.414053E+05 -3.533452E+04  8.165161E+04 -2.274220E+03 -8.672528E+04 -8.429617E+03
        65  24 -3.047012E+05 -4.936936E+03  5.483720E+04 -6.351857E+03 -4.179191E+04 -6.873415E+03
        65  25  5.326511E+05  3.578220E+05  4.032170E+05 -1.216967E+04 -1.327608E+05 -4.332593E+03
        65  26  4.929794E+05  1.731355E+05  2.896369E+05  1.788459E+03 -8.702085E+04 -8.431954E+03
        65  27  5.268461E+05  2.030253E+05  2.622210E+05  5.524125E+03 -4.135461E+04 -6.869152E+03
        66   1 -1.083553E+06 -1.694055E+05 -1.461910E+05 -1.251157E+04  3.240167E+04  5.770967E+03
        66   2 -1.087672E+06 -1.957941E+05 -1.691714E+05 -2.235064E+03  2.146231E+04  6.255422E+03
        66   3 -1.070420E+06 -1.892928E+05 -1.744454E+05 -1.260806E+04  1.053028E+04  5.608029E+03
        66   4 -3.162236E+05  2.250932E+04  4.536686E+04 -9.462467E+03  3.256599E+04  5.771805E+03
        66   5 -3.269354E+05 -5.526609E+03  2.069402E+04  9.556705E+02  2.147899E+04  6.255042E+03
        66   6 -3.162531E+05 -6.627060E+02  1.381755E+04 -9.274041E+03  1.039942E+04  5.607042E+03
        66   7  4.516399E+05  2.143797E+05  2.368804E+05 -6.410685E+03  3.273050E+04  5.772645E+03
        66   8  4.343271E+05  1.846972E+05  2.105158E+05  4.149489E+03  2.149567E+04  6.254662E+03
        66   9  4.384303E+05  1.879245E+05  2.020376E+05 -5.936528E+03  1.026839E+04  5.606055E+03
        66  10 -1.083554E+06 -1.694058E+05 -1.461931E+05 -1.251172E+04 -2.931153E-10 -5.954081E-09
        66  11 -1.087673E+06 -1.957942E+05 -1.691723E+05 -2.235172E+03 -2.582142E-09  3.231002E-09
        66  12 -1.070420E+06 -1.892928E+05 -1.744457E+05 -1.260811E+04  1.196035E-09 -4.261730E-09
        66  13 -3.162248E+05  2.250900E+04  4.536480E+04 -9.462619E+03  2.243410E-09 -4.311929E-09
        66  14 -3.269359E+05 -5.526775E+03  2.069308E+04  9.555623E+02 -1.699782E-09 -2.208879E-09
        66  15 -3.162532E+05 -6.627688E+02  1.381729E+04 -9.274088E+03  8.064950E-09 -5.308222E-09
        66  16  4.516388E+05  2.143794E+05  2.368783E+05 -6.410837E+03 -5.259409E-10  1.455909E-09
        66  17  4.343266E+05  1.846970E+05  2.105149E+05  4.149381E+03  7.771697E-09 -7.821916E-09
        66  18  4.384302E+05  1.879244E+05  2.020374E+05 -5.936574E+03  1.695480E-09  7.779267E-11
        66  19 -1.083553E+06 -1.694055E+05 -1.461910E+05 -1.251157E+04 -3.240167E+04 -5.770967E+03
        66  20 -1.087672E+06 -1.957941E+05 -1.691714E+05 -2.235064E+03 -2.146231E+04 -6.255422E+03
        66  21 -1.070420E+06 -1.892928E+05 -1.744454E+05 -1.260806E+04 -1.053028E+04 -5.608029E+03
        66  22 -3.162236E+05  2.250932E+04  4.536686E+04 -9.462467E+03 -3.256599E+04 -5.771805E+03
        66  23 -3.269354E+05 -5.526609E+03  2.069402E+04  9.556705E+02 -2.147899E+04 -6.255042E+03
        66  24 -3.162531E+05 -6.627060E+02  1.381755E+04 -9.274041E+03 -1.039942E+04 -5.607042E+03
        66  25  4.516399E+05  2.143797E+05  2.368804E+05 -6.410685E+03 -3.273050E+04 -5.772645E+03
        66  26  4.343271E+05  1.846972E+05  2.105158E+05  4.149489E+03 -2.149567E+04 -6.254662E+03
        66  27  4.384303E+05  1.879245E+05  2.020376E+05 -5.936528E+03 -1.026839E+04 -5.606055E+03
        67   1 -9.557344E+05 -1.561390E+05 -1.480199E+05 -1.319393E+04  8.045292E+03  5.208324E+03
        67   2 -9.504524E+05 -1.576558E+05 -1.514843E+05  3.175731E+03  5.415068E+03  4.957849E+03
        67   3 -9.357044E+05 -1.541919E+05 -1.504064E+05 -1.190203E+04  2.783885E+03  4.342268E+03
        67   4 -3.188428E+05  3.125814E+03  1.091622E+04 -1.173954E+04  8.043867E+03  5.207984E+03
        67   5 -3.235960E+05 -9.016000E+02  4.958867E+03  3.988641E+03  5.367468E+03  4.957449E+03
        67   6 -3.188726E+05  6.033288E+01  3.574134E+03 -1.172865E+04  2.690152E+03  4.341976E+03
        67   7  3.184170E+05  1.623600E+05  1.698218E+05 -1.028397E+04  8.042437E+03  5.207643E+03
        67   8  3.036170E+05  1.558230E+05  1.613725E+05  4.802211E+03  5.319818E+03  4.957049E+03
        67   9  2.983044E+05  1.542838E+05  1.575260E+05 -1.155511E+04  2.596323E+03  4.341685E+03
        67  10 -9.557345E+05 -1.561391E+05 -1.480201E+05 -1.319397E+04 -3.569278E-10  1.640642E-10
        67  11 -9.504525E+05 -1.576559E+05 -1.514844E+05  3.175709E+03 -1.060874E-09  2.226720E-09
        67  12 -9.357044E+05 -1.541919E+05 -1.504065E+05 -1.190204E+04 -4.108922E-09 -4.468953E-10
        67  13 -3.188429E+05  3.125768E+03  1.091605E+04 -1.173958E+04  9.205514E-10 -4.440589E-10
        67  14 -3.235961E+05 -9.016341E+02  4.958767E+03  3.988620E+03 -4.858501E-09  1.507616E-09
        67  15 -3.188726E+05  6.031069E+01  3.574085E+03 -1.172866E+04 -4.139689E-09  7.596013E-10
        67  16  3.184169E+05  1.623600E+05  1.698216E+05 -1.028400E+04 -3.634824E-09 -1.215334E-09
        67  17  3.036170E+05  1.558229E+05  1.613724E+05  4.802190E+03  3.143327E-09 -1.132695E-09
        67  18  2.983044E+05  1.542838E+05  1.575260E+05 -1.155512E+04  1.043082E-09 -1.304664E-09
        67  19 -9.557344E+05 -1.561390E+05 -1.480199E+05 -1.319393E+04 -8.045292E+03 -5.208324E+03
        67  20 -9.504524E+05 -1.576558E+05 -1.514843E+05  3.175731E+03 -5.415068E+03 -4.957849E+03
        67  21 -9.357044E+05 -1.541919E+05 -1.504064E+05 -1.190203E+04 -2.783885E+03 -4.342268E+03
        67  22 -3.188428E+05  3.125814E+03  1.091622E+04 -1.173954E+04 -8.043867E+03 -5.207984E+03
        67  23 -3.235960E+05 -9.016000E+02  4.958867E+03  3.988641E+03 -5.367468E+03 -4.957449E+03
        67  24 -3.188726E+05  6.033288E+01  3.574134E+03 -1.172865E+04 -2.690152E+03 -4.341976E+03
        67  25  3.184170E+05  1.623600E+05  1.698218E+05 -1.028397E+04 -8.042437E+03 -5.207643E+03
        67  26  3.036170E+05  1.558230E+05  1.613725E+05  4.802211E+03 -5.319818E+03 -4.957049E+03
        67  27  2.983044E+05  1.542838E+05  1.575260E+05 -1.155511E+04 -2.596323E+03 -4.341685E+03
        68   1 -7.756674E+05 -1.136512E+05 -1.110941E+05 -1.343785E+04  2.111202E+03  3.982374E+03
        68   2 -7.649143E+05 -1.108985E+05 -1.095418E+05  6.881763E+03  1.576486E+03  3.480054E+03
        68   3 -7.502112E+05 -1.074023E+05 -1.067134E+05 -1.268221E+04  1.039920E+03  2.796225E+03
        68   4 -3.200389E+05  2.655149E+02  2.573479E+03 -1.360650E+04  2.062850E+03  3.982218E+03
        68   5 -3.220295E+05 -1.613726E+02  9.766900E+02  6.334581E+03  1.506011E+03  3.480016E+03
        68   6 -3.200649E+05  1.599970E+02  6.712585E+02 -1.360615E+04  9.473328E+02  2.796363E+03
        68   7  1.357780E+05  1.141666E+05  1.162254E+05 -1.377525E+04  2.014463E+03  3.982062E+03
        68   8  1.210334E+05  1.105609E+05  1.114804E+05  5.787081E+03  1.435486E+03  3.479977E+03
        68   9  1.102493E+05  1.077083E+05  1.080419E+05 -1.453062E+04  8.546816E+02  2.796500E+03
        68  10 -7.756674E+05 -1.136513E+05 -1.110942E+05 -1.343786E+04  4.561258E-09  7.588013E-10
        68  11 -7.649144E+05 -1.108985E+05 -1.095418E+05  6.881758E+03  1.290869E-08  3.028558E-09
        68  12 -7.502112E+05 -1.074023E+05 -1.067134E+05 -1.268221E+04 -3.486456E-09  1.386467E-09
        68  13 -3.200389E+05  2.654967E+02  2.573441E+03 -1.360651E+04 -2.309040E-11 -5.549037E-10
        68  14 -3.220295E+05 -1.613862E+02  9.766629E+02  6.334577E+03  2.530581E-09 -2.302042E-09
        68  15 -3.200649E+05  1.599884E+02  6.712421E+02 -1.360616E+04 -2.535101E-09 -2.554250E-09
        68  16  1.357780E+05  1.141666E+05  1.162254E+05 -1.377526E+04 -2.387679E-09 -2.168431E-09
        68  17  1.210334E+05  1.105609E+05  1.114804E+05  5.787077E+03 -5.077216E-09 -1.290519E-09
        68  18  1.102493E+05  1.077083E+05  1.080419E+05 -1.453062E+04 -2.549648E-09 -1.054804E-09
        68  19 -7.756674E+05 -1.136512E+05 -1.110941E+05 -1.343785E+04 -2.111202E+03 -3.982374E+03
        68  20 -7.649143E+05 -1.108985E+05 -1.095418E+05  6.881763E+03 -1.576486E+03 -3.480054E+03
        68  21 -7.502112E+05 -1.074023E+05 -1.067134E+05 -1.268221E+04 -1.039920E+03 -2.796225E+03
        68  22 -3.200389E+05  2.655149E+02  2.573479E+03 -1.360650E+04 -2.062850E+03 -3.982218E+03
        68  23 -3.220295E+05 -1.613726E+02  9.766900E+02  6.334581E+03 -1.506011E+03 -3.480016E+03
        68  24 -3.200649E+05  1.599970E+02  6.712585E+02 -1.360615E+04 -9.473328E+02 -2.796363E+03
        68  25  1.357780E+05  1.141666E+05  1.162254E+05 -1.377525E+04 -2.014463E+03 -3.982062E+03
        68  26  1.210334E+05  1.105609E+05  1.114804E+05  5.787081E+03 -1.435486E+03 -3.479977E+03
        68  27  1.102493E+05  1.077083E+05  1.080419E+05 -1.453062E+04 -8.546816E+02 -2.796500E+03
        69   1 -5.587386E+05 -5.949540E+04 -5.914058E+04 -1.422055E+04  9.107776E+02  2.390071E+03
        69   2 -5.445598E+05 -5.586567E+04 -5.621021E+04  8.432375E+03  1.128752E+03  1.749657E+03
        69   3 -5.298990E+05 -5.239474E+04 -5.335221E+04 -1.405000E+04  1.345574E+03  1.038866E+03
        69   4 -3.207913E+05 -1.412415E+01  1.894178E+02 -1.477352E+04  8.384964E+02  2.390251E+03
        69   5 -3.210406E+05  1.720205E+01 -4.393868E+02  7.793377E+03  1.048092E+03  1.749927E+03
        69   6 -3.208062E+05 -1.085120E+02 -1.134596E+03 -1.477401E+04  1.256531E+03  1.039238E+03
        69   7 -8.279259E+04  5.946289E+04  5.951516E+04 -1.532666E+04  7.661874E+02  2.390432E+03
        69   8 -9.747611E+04  5.589631E+04  5.532768E+04  7.154193E+03  9.674040E+02  1.750197E+03
        69   9 -1.116737E+05  5.217442E+04  5.107972E+04 -1.549822E+04  1.167459E+03  1.039609E+03
        69  10 -5.587386E+05 -5.949541E+04 -5.914059E+04 -1.422055E+04  4.701022E-09 -6.659323E-10
        69  11 -5.445598E+05 -5.586567E+04 -5.621022E+04  8.432373E+03  3.158609E-09 -1.110451E-09
        69  12 -5.298990E+05 -5.239475E+04 -5.335222E+04 -1.405000E+04 -3.196268E-09  4.119425E-10
        69  13 -3.207913E+05 -1.413047E+01  1.894057E+02 -1.477352E+04 -7.556450E-10  2.720525E-09
        69  14 -3.210406E+05  1.719847E+01 -4.393946E+02  7.793376E+03 -3.162909E-09  4.184130E-09
        69  15 -3.208062E+05 -1.085136E+02 -1.134601E+03 -1.477401E+04 -4.920588E-09 -5.086797E-09
        69  16 -8.279259E+04  5.946288E+04  5.951514E+04 -1.532666E+04  1.386873E-09  1.439002E-09
        69  17 -9.747612E+04  5.589630E+04  5.532767E+04  7.154191E+03  5.609391E-09  2.583869E-09
        69  18 -1.116737E+05  5.217442E+04  5.107972E+04 -1.549822E+04  4.908140E-10  1.699720E-09
        69  19 -5.587386E+05 -5.949540E+04 -5.914058E+04 -1.422055E+04 -9.107776E+02 -2.390071E+03
        69  20 -5.445598E+05 -5.586567E+04 -5.621021E+04  8.432375E+03 -1.128752E+03 -1.749657E+03
        69  21 -5.298990E+05 -5.239474E+04 -5.335221E+04 -1.405000E+04 -1.345574E+03 -1.038866E+03
        69  22 -3.207913E+05 -1.412415E+01  1.894178E+02 -1.477352E+04 -8.384964E+02 -2.390251E+03
        69  23 -3.210406E+05  1.720205E+01 -4.393868E+02  7.793377E+03 -1.048092E+03 -1.749927E+03
        69  24 -3.208062E+05 -1.085120E+02 -1.134596E+03 -1.477401E+04 -1.256531E+03 -1.039238E+03
        69  25 -8.279259E+04  5.946289E+04  5.951516E+04 -1.532666E+04 -7.661874E+02 -2.390432E+03
        69  26 -9.747611E+04  5.589631E+04  5.532768E+04  7.154193E+03 -9.674040E+02 -1.750197E+03
        69  27 -1.116737E+05  5.217442E+04  5.107972E+04 -1.549822E+04 -1.167459E+03 -1.039609E+03
        70   1 -3.224125E+05 -1.598090E+02 -1.888385E+03 -1.522698E+04  1.591007E+03  5.897317E+02
        70   2 -3.067894E+05  3.842372E+03  5.923892E+02  8.234667E+03  3.034814E+03 -1.366630E+02
        70   3 -2.925003E+05  5.360607E+03  1.404675E+03 -1.509771E+04  4.479181E+03 -7.632421E+02
        70   4 -3.211953E+05  1.342505E+02 -1.630818E+03 -1.513946E+04  1.498662E+03  5.901541E+02
        70   5 -3.205268E+05  4.088035E+02 -2.833543E+03  8.253235E+03  2.954409E+03 -1.363000E+02
        70   6 -3.211949E+05 -1.802750E+03 -5.713143E+03 -1.514816E+04  4.410679E+03 -7.629368E+02
        70   7 -3.199781E+05  4.283100E+02 -1.373252E+03 -1.505194E+04  1.406318E+03  5.905765E+02
        70   8 -3.342641E+05 -3.024779E+03 -6.259489E+03  8.271803E+03  2.874005E+03 -1.359369E+02
        70   9 -3.498888E+05 -8.966168E+03 -1.283102E+04 -1.519861E+04  4.342181E+03 -7.626315E+02
        70  10 -3.224125E+05 -1.598101E+02 -1.888390E+03 -1.522698E+04  5.460669E-10  5.002391E-09
        70  11 -3.067895E+05  3.842369E+03  5.923719E+02  8.234667E+03  1.336153E-11 -3.381555E-09
        70  12 -2.925004E+05  5.360601E+03  1.404636E+03 -1.509771E+04 -3.682307E-09  1.175083E-09
        70  13 -3.211953E+05  1.342495E+02 -1.630823E+03 -1.513946E+04 -9.946545E-09 -2.971310E-09
        70  14 -3.205269E+05  4.088011E+02 -2.833559E+03  8.253235E+03 -3.289189E-09 -9.441836E-09
        70  15 -3.211949E+05 -1.802756E+03 -5.713181E+03 -1.514816E+04 -6.858238E-09  2.640106E-09
        70  16 -3.199781E+05  4.283091E+02 -1.373256E+03 -1.505194E+04  5.465587E-09  5.536957E-09
        70  17 -3.342641E+05 -3.024781E+03 -6.259505E+03  8.271803E+03  4.879277E-09 -8.657494E-09
        70  18 -3.498888E+05 -8.966174E+03 -1.283106E+04 -1.519860E+04  5.016285E-09 -2.088374E-09
        70  19 -3.224125E+05 -1.598090E+02 -1.888385E+03 -1.522698E+04 -1.591007E+03 -5.897317E+02
        70  20 -3.067894E+05  3.842372E+03  5.923892E+02  8.234667E+03 -3.034814E+03  1.366630E+02
        70  21 -2.925003E+05  5.360607E+03  1.404675E+03 -1.509771E+04 -4.479181E+03  7.632421E+02
        70  22 -3.211953E+05  1.342505E+02 -1.630818E+03 -1.513946E+04 -1.498662E+03 -5.901541E+02
        70  23 -3.205268E+05  4.088035E+02 -2.833543E+03  8.253235E+03 -2.954409E+03  1.363000E+02
        70  24 -3.211949E+05 -1.802750E+03 -5.713143E+03 -1.514816E+04 -4.410679E+03  7.629368E+02
        70  25 -3.199781E+05  4.283100E+02 -1.373252E+03 -1.505194E+04 -1.406318E+03 -5.905765E+02
        70  26 -3.342641E+05 -3.024779E+03 -6.259489E+03  8.271803E+03 -2.874005E+03  1.359369E+02
        70  27 -3.498888E+05 -8.966168E+03 -1.283102E+04 -1.519861E+04 -4.342181E+03  7.626315E+02
        71   1 -8.621503E+04  5.948972E+04  5.176280E+04 -1.596263E+04  5.695837E+03 -1.288570E+03
        71   2 -6.976338E+04  6.530085E+04  5.078691E+04  7.226889E+03  1.166098E+04 -2.099764E+03
        71   3 -5.760131E+04  5.377917E+04  4.175688E+04 -1.431944E+04  1.762949E+04 -2.219767E+03
        71   4 -3.218735E+05  5.724510E+02 -7.067800E+03 -1.467054E+04  5.558596E+03 -1.288004E+03
        71   5 -3.197134E+05  2.831858E+03 -1.155309E+04  7.678079E+03  1.160453E+04 -2.099614E+03
        71   6 -3.218597E+05 -1.225964E+04 -2.415110E+04 -1.471031E+04  1.765369E+04 -2.219927E+03
        71   7 -5.574815E+05 -5.834900E+04 -6.590258E+04 -1.337887E+04  5.421407E+03 -1.287438E+03
        71   8 -5.696068E+05 -5.964184E+04 -7.389779E+04  8.129138E+03  1.154810E+04 -2.099464E+03
        71   9 -5.860547E+05 -7.830371E+04 -9.006433E+04 -1.510096E+04  1.767788E+04 -2.220087E+03
        71  10 -8.621507E+04  5.948971E+04  5.176273E+04 -1.596263E+04  9.246208E-10 -3.531819E-09
        71  11 -6.976353E+04  6.530081E+04  5.078665E+04  7.226908E+03 -5.205204E-09  7.166845E-10
        71  12 -5.760165E+04  5.377908E+04  4.175628E+04 -1.431941E+04 -5.220187E-10  1.585747E-09
        71  13 -3.218735E+05  5.724409E+02 -7.067861E+03 -1.467053E+04  3.159999E-09  2.293014E-09
        71  14 -3.197136E+05  2.831817E+03 -1.155335E+04  7.678098E+03 -3.378599E-09  9.789327E-10
        71  15 -3.218600E+05 -1.225973E+04 -2.415169E+04 -1.471028E+04 -4.592849E-10  1.329263E-09
        71  16 -5.574816E+05 -5.834901E+04 -6.590264E+04 -1.337887E+04 -5.083855E-10  3.130080E-09
        71  17 -5.696070E+05 -5.964188E+04 -7.389805E+04  8.129158E+03  6.411269E-09  4.638918E-09
        71  18 -5.860551E+05 -7.830380E+04 -9.006493E+04 -1.510093E+04 -2.923031E-09 -1.589304E-09
        71  19 -8.621503E+04  5.948972E+04  5.176280E+04 -1.596263E+04 -5.695837E+03  1.288570E+03
        71  20 -6.976338E+04  6.530085E+04  5.078691E+04  7.226889E+03 -1.166098E+04  2.099764E+03
        71  21 -5.760131E+04  5.377917E+04  4.175688E+04 -1.431944E+04 -1.762949E+04  2.219767E+03
        71  22 -3.218735E+05  5.724510E+02 -7.067800E+03 -1.467054E+04 -5.558596E+03  1.288004E+03
        71  23 -3.197134E+05  2.831858E+03 -1.155309E+04  7.678079E+03 -1.160453E+04  2.099614E+03
        71  24 -3.218597E+05 -1.225964E+04 -2.415110E+04 -1.471031E+04 -1.765369E+04  2.219927E+03
        71  25 -5.574815E+05 -5.834900E+04 -6.590258E+04 -1.337887E+04 -5.421407E+03  1.287438E+03
        71  26 -5.696068E+05 -5.964184E+04 -7.389779E+04  8.129138E+03 -1.154810E+04  2.099464E+03
        71  27 -5.860547E+05 -7.830371E+04 -9.006433E+04 -1.510096E+04 -1.767788E+04  2.220087E+03
        72   1  1.268041E+05  1.162627E+05  8.424988E+04 -1.754977E+04  2.280785E+04 -3.178508E+03
        72   2  1.529882E+05  1.351117E+05  7.152967E+04  7.301715E+03  4.671536E+04 -4.308784E+03
        72   3  1.517845E+05  4.023661E+04  1.565306E+04 -6.797315E+03  7.062684E+04 -1.529302E+03
        72   4 -3.270561E+05  2.812994E+03 -2.898739E+04 -1.337984E+04  2.243325E+04 -3.177585E+03
        72   5 -3.133028E+05  1.860333E+04 -4.472007E+04  6.085438E+03  4.679396E+04 -4.309215E+03
        72   6 -3.270412E+05 -7.945595E+04 -1.039479E+05 -1.340158E+04  7.115813E+04 -1.530225E+03
        72   7 -7.807295E+05 -1.106522E+05 -1.422402E+05 -9.212836E+03  2.205893E+04 -3.176667E+03
        72   8 -7.793967E+05 -9.792138E+04 -1.609862E+05  4.870139E+03  4.687249E+04 -4.309647E+03
        72   9 -8.056590E+05 -1.991656E+05 -2.235661E+05 -2.000074E+04  7.168899E+04 -1.531160E+03
        72  10  1.268036E+05  1.162626E+05  8.424888E+04 -1.754971E+04  1.008014E-09  1.207937E-09
        72  11  1.529858E+05  1.351111E+05  7.152554E+04  7.301877E+03  1.016565E-09 -2.331184E-10
        72  12  1.517792E+05  4.023527E+04  1.564368E+04 -6.797228E+03 -5.966403E-09 -3.406305E-10
        72  13 -3.270566E+05  2.812848E+03 -2.898835E+04 -1.337978E+04 -4.476687E-10  4.023847E-09
        72  14 -3.133052E+05  1.860272E+04 -4.472422E+04  6.085601E+03 -3.956350E-09 -5.929222E-10
        72  15 -3.270466E+05 -7.945731E+04 -1.039574E+05 -1.340149E+04  4.262863E-09 -6.346665E-11
        72  16 -7.807300E+05 -1.106523E+05 -1.422411E+05 -9.212779E+03  2.938901E-09 -1.801043E-09
        72  17 -7.793991E+05 -9.792199E+04 -1.609903E+05  4.870302E+03  3.781967E-09  1.943870E-10
        72  18 -8.056645E+05 -1.991670E+05 -2.235758E+05 -2.000065E+04  5.805692E-09 -2.081342E-11
        72  19  1.268041E+05  1.162627E+05  8.424988E+04 -1.754977E+04 -2.280785E+04  3.178508E+03
        72  20  1.529882E+05  1.351117E+05  7.152967E+04  7.301715E+03 -4.671536E+04  4.308784E+03
        72  21  1.517845E+05  4.023661E+04  1.565306E+04 -6.797315E+03 -7.062684E+04  1.529302E+03
        72  22 -3.270561E+05  2.812994E+03 -2.898739E+04 -1.337984E+04 -2.243325E+04  3.177585E+03
        72  23 -3.133028E+05  1.860333E+04 -4.472007E+04  6.085438E+03 -4.679396E+04  4.309215E+03
        72  24 -3.270412E+05 -7.945595E+04 -1.039479E+05 -1.340158E+04 -7.115813E+04  1.530225E+03
        72  25 -7.807295E+05 -1.106522E+05 -1.422402E+05 -9.212836E+03 -2.205893E+04  3.176667E+03
        72  26 -7.793967E+05 -9.792138E+04 -1.609862E+05  4.870139E+03 -4.687249E+04  4.309647E+03
        72  27 -8.056590E+05 -1.991656E+05 -2.235661E+05 -2.000074E+04 -7.168899E+04  1.531160E+03
        73   1  2.681942E+06  9.414831E+06  2.552456E+06 -1.948958E+06  1.159972E+05  5.330443E+05
        73   2  2.013598E+06  7.136704E+06  1.755959E+06 -1.581582E+06  3.740820E+05  1.581240E+05
        73   3  1.485130E+06  4.932085E+06  1.235217E+06 -1.864238E+06  3.550329E+05 -2.196518E+05
        73   4  1.096594E+05 -9.936480E+05  6.658075E+04 -1.775599E+06  1.251185E+05  3.163839E+04
        73   5  4.826879E+04 -9.919530E+05  4.320987E+04 -1.450916E+06  3.772680E+05  1.438615E+04
        73   6  6.616553E+04 -9.823452E+05  4.987406E+04 -1.776608E+06  3.506772E+05 -7.140520E+03
        73   7 -2.470261E+06 -1.130314E+07 -2.425999E+06 -1.604569E+06  1.340496E+05 -4.614936E+05
        73   8 -1.921274E+06 -9.058586E+06 -1.673192E+06 -1.321612E+06  3.804186E+05 -1.275150E+05
        73   9 -1.354915E+06 -6.863441E+06 -1.137077E+06 -1.689606E+06  3.463572E+05  2.033981E+05
        73  10  2.681853E+06  9.414525E+06  2.551903E+06 -1.949008E+06  4.877189E-09  8.222609E-11
        73  11  2.013441E+06  7.136640E+06  1.755649E+06 -1.581630E+06 -2.793374E-09 -1.555830E-08
        73  12  1.484983E+06  4.932000E+06  1.234891E+06 -1.864176E+06  1.695791E-09  1.614546E-08
        73  13  1.096423E+05 -9.936533E+05  6.654942E+04 -1.775603E+06  9.852503E-09  7.960416E-09
        73  14  4.811597E+04 -9.919914E+05  4.294210E+04 -1.450920E+06  3.212147E-10 -1.045733E-08
        73  15  6.603355E+04 -9.823783E+05  4.964304E+04 -1.776606E+06 -3.367106E-09  4.616169E-09
        73  16 -2.470338E+06 -1.130338E+07 -2.426439E+06 -1.604519E+06  3.922512E-09 -1.091641E-10
        73  17 -1.921434E+06 -9.058642E+06 -1.673495E+06 -1.321573E+06  2.202641E-08  2.381856E-09
        73  18 -1.355056E+06 -6.863518E+06 -1.137382E+06 -1.689663E+06 -8.511112E-09 -1.467587E-08
        73  19  2.681942E+06  9.414831E+06  2.552456E+06 -1.948958E+06 -1.159972E+05 -5.330443E+05
        73  20  2.013598E+06  7.136704E+06  1.755959E+06 -1.581582E+06 -3.740820E+05 -1.581240E+05
        73  21  1.485130E+06  4.932085E+06  1.235217E+06 -1.864238E+06 -3.550329E+05  2.196518E+05
        73  22  1.096594E+05 -9.936480E+05  6.658075E+04 -1.775599E+06 -1.251185E+05 -3.163839E+04
        73  23  4.826879E+04 -9.919530E+05  4.320987E+04 -1.450916E+06 -3.772680E+05 -1.438615E+04
        73  24  6.616553E+04 -9.823452E+05  4.987406E+04 -1.776608E+06 -3.506772E+05  7.140520E+03
        73  25 -2.470261E+06 -1.130314E+07 -2.425999E+06 -1.604569E+06 -1.340496E+05  4.614936E+05
        73  26 -1.921274E+06 -9.058586E+06 -1.673192E+06 -1.321612E+06 -3.804186E+05  1.275150E+05
        73  27 -1.354915E+06 -6.863441E+06 -1.137077E+06 -1.689606E+06 -3.463572E+05 -2.033981E+05
        74   1  1.111744E+06  3.341686E+06  9.254286E+05 -1.855215E+06  2.592826E+05 -1.718720E+05
        74   2  5.630025E+05  1.110486E+06  4.968571E+05 -1.479480E+06  1.373130E+05 -2.243009E+05
        74   3  6.329365E+04 -1.128550E+06  1.063927E+05 -1.770039E+06  9.203066E+03 -2.769412E+05
        74   4  7.220732E+04 -9.839277E+05  5.676093E+04 -1.779984E+06  2.559780E+05 -1.863387E+04
        74   5  6.269496E+04 -9.754002E+05  8.474583E+04 -1.446538E+06  1.336932E+05 -6.336512E+04
        74   6  1.011512E+05 -9.809212E+05  1.455525E+05 -1.779400E+06  5.247713E+03 -1.084823E+05
        74   7 -9.684613E+05 -5.291688E+06 -8.127732E+05 -1.705165E+06  2.526971E+05  1.335619E+05
        74   8 -4.378615E+05 -3.057068E+06 -3.274821E+05 -1.413681E+06  1.300834E+05  9.704204E+04
        74   9  1.390227E+05 -8.332117E+05  1.848174E+05 -1.788764E+06  1.287772E+03  6.001699E+04
        74  10  1.111664E+06  3.341636E+06  9.252478E+05 -1.855180E+06 -1.932403E-10 -5.576568E-08
        74  11  5.629689E+05  1.110427E+06  4.967277E+05 -1.479455E+06  1.105560E-08 -5.815421E-08
        74  12  6.327294E+04 -1.128632E+06  1.062482E+05 -1.770037E+06  8.244149E-10  7.578445E-09
        74  13  7.213693E+04 -9.839456E+05  5.663728E+04 -1.779980E+06 -4.881624E-10  8.984061E-09
        74  14  6.267473E+04 -9.754093E+05  8.470480E+04 -1.446531E+06 -1.842197E-08 -1.242386E-08
        74  15  1.011481E+05 -9.809338E+05  1.455303E+05 -1.779399E+06  2.510210E-10  6.607757E-09
        74  16 -9.685348E+05 -5.291724E+06 -8.129274E+05 -1.705192E+06 -6.429800E-09  5.362961E-08
        74  17 -4.378823E+05 -3.057082E+06 -3.275318E+05 -1.413692E+06 -3.583757E-09  3.786345E-08
        74  18  1.390217E+05 -8.332156E+05  1.848107E+05 -1.788764E+06  8.498644E-09 -3.626160E-09
        74  19  1.111744E+06  3.341686E+06  9.254286E+05 -1.855215E+06 -2.592826E+05  1.718720E+05
        74  20  5.630025E+05  1.110486E+06  4.968571E+05 -1.479480E+06 -1.373130E+05  2.243009E+05
        74  21  6.329365E+04 -1.128550E+06  1.063927E+05 -1.770039E+06 -9.203066E+03  2.769412E+05
        74  22  7.220732E+04 -9.839277E+05  5.676093E+04 -1.779984E+06 -2.559780E+05  1.863387E+04
        74  23  6.269496E+04 -9.754002E+05  8.474583E+04 -1.446538E+06 -1.336932E+05  6.336512E+04
        74  24  1.011512E+05 -9.809212E+05  1.455525E+05 -1.779400E+06 -5.247713E+03  1.084823E+05
        74  25 -9.684613E+05 -5.291688E+06 -8.127732E+05 -1.705165E+06 -2.526971E+05 -1.335619E+05
        74  26 -4.378615E+05 -3.057068E+06 -3.274821E+05 -1.413681E+06 -1.300834E+05 -9.704204E+04
        74  27  1.390227E+05 -8.332117E+05  1.848174E+05 -1.788764E+06 -1.287772E+03 -6.001699E+04
        75   1 -3.486997E+05 -2.680426E+06 -1.723653E+05 -1.815149E+06 -8.213256E+04 -3.385621E+05
        75   2 -8.423571E+05 -4.939465E+06 -5.297295E+05 -1.250385E+06 -1.568040E+05 -2.864247E+05
        75   3 -8.957634E+05 -7.117798E+06 -8.179185E+05 -1.338657E+06 -5.727949E+04 -2.311489E+05
        75   4  6.611174E+04 -9.533339E+05  1.850032E+05 -1.778853E+06 -8.688264E+04 -1.359883E+05
        75   5  1.246465E+05 -1.012400E+06  3.219322E+05 -1.446528E+06 -1.562539E+05 -3.050880E+05
        75   6  6.604213E+05 -9.583154E+05  6.812838E+05 -1.766196E+06 -5.197026E+04 -4.708997E+05
        75   7  4.807659E+05  7.766931E+05  5.423671E+05 -1.742435E+06 -9.160126E+04  6.714188E+04
        75   8  1.090732E+06  2.929275E+06  1.172687E+06 -1.643843E+06 -1.556942E+05 -3.238639E+05
        75   9  2.214388E+06  5.236496E+06  2.178006E+06 -2.197804E+06 -4.635847E+04 -7.130254E+05
        75  10 -3.487380E+05 -2.680551E+06 -1.725946E+05 -1.815172E+06  5.206050E-09  5.714204E-09
        75  11 -8.424058E+05 -4.939560E+06 -5.299314E+05 -1.250421E+06  1.743390E-08 -3.294294E-08
        75  12 -8.957815E+05 -7.117857E+06 -8.180264E+05 -1.338668E+06  4.195318E-09 -1.285591E-08
        75  13  6.609861E+04 -9.533559E+05  1.849540E+05 -1.778862E+06  9.214286E-09  1.076855E-08
        75  14  1.245951E+05 -1.012507E+06  3.217107E+05 -1.446567E+06 -1.209646E-08 -1.151548E-08
        75  15  6.603587E+05 -9.585545E+05  6.808610E+05 -1.766216E+06  8.289042E-09  6.169102E-09
        75  16  4.807557E+05  7.766861E+05  5.423430E+05 -1.742430E+06 -2.420676E-09 -5.356254E-09
        75  17  1.090678E+06  2.929156E+06  1.172444E+06 -1.643884E+06  1.823554E-08  1.375753E-08
        75  18  2.214250E+06  5.235953E+06  2.177054E+06 -2.197831E+06  9.646209E-09  1.590744E-08
        75  19 -3.486997E+05 -2.680426E+06 -1.723653E+05 -1.815149E+06  8.213256E+04  3.385621E+05
        75  20 -8.423571E+05 -4.939465E+06 -5.297295E+05 -1.250385E+06  1.568040E+05  2.864247E+05
        75  21 -8.957634E+05 -7.117798E+06 -8.179185E+05 -1.338657E+06  5.727949E+04  2.311489E+05
        75  22  6.611174E+04 -9.533339E+05  1.850032E+05 -1.778853E+06  8.688264E+04  1.359883E+05
        75  23  1.246465E+05 -1.012400E+06  3.219322E+05 -1.446528E+06  1.562539E+05  3.050880E+05
        75  24  6.604213E+05 -9.583154E+05  6.812838E+05 -1.766196E+06  5.197026E+04  4.708997E+05
        75  25  4.807659E+05  7.766931E+05  5.423671E+05 -1.742435E+06  9.160126E+04 -6.714188E+04
        75  26  1.090732E+06  2.929275E+06  1.172687E+06 -1.643843E+06  1.556942E+05  3.238639E+05
        75  27  2.214388E+06  5.236496E+06  2.178006E+06 -2.197804E+06  4.635847E+04  7.130254E+05
        76   1 -8.562155E+06 -3.492201E+06 -2.083378E+06 -2.873655E+06 -4.358947E+05 -1.487173E+04
        76   2 -8.016636E+06 -3.340161E+06 -1.755266E+06 -2.639989E+06 -3.045605E+05  3.872441E+05
        76   3 -7.328284E+06 -3.223449E+06 -1.586195E+06 -2.577303E+06 -7.662179E+04  5.435048E+05
        76   4  2.166019E+05 -2.068532E+05  2.215894E+05 -5.015519E+05  8.794899E+04  1.891213E+05
        76   5  1.037978E+05 -3.061204E+05  9.707622E+04 -3.816970E+05 -8.066036E+04  4.733473E+05
        76   6  1.934333E+05 -3.812674E+05  5.409942E+04 -4.326913E+05 -1.535962E+05  5.132836E+05
        76   7  9.071198E+06  3.083057E+06  2.521153E+06  1.900945E+06  6.200510E+05  3.961172E+05
        76   8  8.291215E+06  2.733156E+06  1.945288E+06  1.903882E+06  1.464558E+05  5.606665E+05
        76   9  7.773290E+06  2.466212E+06  1.691076E+06  1.736262E+06 -2.316008E+05  4.826648E+05
        76  10 -8.562361E+06 -3.492253E+06 -2.083740E+06 -2.873660E+06 -1.608300E-08 -7.846987E-09
        76  11 -8.016776E+06 -3.340347E+06 -1.755722E+06 -2.639894E+06  4.369479E-09 -1.113099E-08
        76  12 -7.328369E+06 -3.223769E+06 -1.586761E+06 -2.577270E+06  2.801980E-08 -4.355876E-09
        76  13  2.165840E+05 -2.068937E+05  2.215076E+05 -5.015653E+05  1.699371E-09 -1.074351E-09
        76  14  1.037306E+05 -3.063628E+05  9.664285E+04 -3.816663E+05  4.840380E-09 -2.517318E-08
        76  15  1.933372E+05 -3.815567E+05  5.355995E+04 -4.326279E+05  8.656330E-09  3.325354E-09
        76  16  9.070749E+06  3.082788E+06  2.520150E+06  1.900749E+06  1.748547E-08  8.756997E-09
        76  17  8.291108E+06  2.732814E+06  1.944659E+06  1.903817E+06  3.151274E-09  1.422553E-08
        76  18  7.773170E+06  2.465947E+06  1.690537E+06  1.736351E+06 -2.987526E-08 -8.535747E-11
        76  19 -8.562155E+06 -3.492201E+06 -2.083378E+06 -2.873655E+06  4.358947E+05  1.487173E+04
        76  20 -8.016636E+06 -3.340161E+06 -1.755266E+06 -2.639989E+06  3.045605E+05 -3.872441E+05
        76  21 -7.328284E+06 -3.223449E+06 -1.586195E+06 -2.577303E+06  7.662179E+04 -5.435048E+05
        76  22  2.166019E+05 -2.068532E+05  2.215894E+05 -5.015519E+05 -8.794899E+04 -1.891213E+05
        76  23  1.037978E+05 -3.061204E+05  9.707622E+04 -3.816970E+05  8.066036E+04 -4.733473E+05
        76  24  1.934333E+05 -3.812674E+05  5.409942E+04 -4.326913E+05  1.535962E+05 -5.132836E+05
        76  25  9.071198E+06  3.083057E+06  2.521153E+06  1.900945E+06 -6.200510E+05 -3.961172E+05
        76  26  8.291215E+06  2.733156E+06  1.945288E+06  1.903882E+06 -1.464558E+05 -5.606665E+05
        76  27  7.773290E+06  2.466212E+06  1.691076E+06  1.736262E+06  2.316008E+05 -4.826648E+05
        77   1 -6.928989E+06 -3.033567E+06 -1.510066E+06 -2.443658E+06 -1.278756E+05  4.859452E+05
        77   2 -6.416540E+06 -2.742614E+06 -1.387418E+06 -2.198912E+06 -1.119567E+05  4.653583E+05
        77   3 -5.759463E+06 -2.579816E+06 -1.266008E+06 -2.102417E+06 -9.098189E+04  4.308157E+05
        77   4  1.888997E+05 -3.723819E+05  4.146449E+04 -4.432917E+05 -1.473831E+05  4.779146E+05
        77   5  1.163899E+05 -3.099320E+05  2.068609E+04 -3.686134E+05 -1.485779E+05  4.509121E+05
        77   6  1.915035E+05 -3.721606E+05  1.225692E+04 -4.422162E+05 -1.447533E+05  4.100305E+05
        77   7  7.358672E+06  2.293209E+06  1.589982E+06  1.578414E+06 -1.671414E+05  4.697928E+05
        77   8  6.693058E+06  2.126436E+06  1.426314E+06  1.479590E+06 -1.856241E+05  4.363077E+05
        77   9  6.178716E+06  1.838502E+06  1.288484E+06  1.232755E+06 -1.990888E+05  3.890338E+05
        77  10 -6.929070E+06 -3.033825E+06 -1.510541E+06 -2.443608E+06  6.475713E-09  1.148263E-09
        77  11 -6.416611E+06 -2.742850E+06 -1.387849E+06 -2.198870E+06  1.847771E-09  4.645267E-09
        77  12 -5.759522E+06 -2.580018E+06 -1.266373E+06 -2.102385E+06 -5.703872E-09  1.536586E-09
        77  13  1.888151E+05 -3.726331E+05  4.099443E+04 -4.432350E+05 -1.027243E-08 -5.679537E-09
        77  14  1.163117E+05 -3.101563E+05  2.026252E+04 -3.685595E+05 -7.626526E-09 -3.438331E-09
        77  15  1.914359E+05 -3.723467E+05  1.190162E+04 -4.421685E+05 -1.487946E-09  4.227756E-09
        77  16  7.358583E+06  2.292964E+06  1.589514E+06  1.578477E+06 -1.668671E-08  7.040758E-09
        77  17  6.692969E+06  2.126222E+06  1.425892E+06  1.479655E+06 -1.350802E-08  3.426422E-09
        77  18  6.178633E+06  1.838329E+06  1.288125E+06  1.232818E+06 -3.729521E-09  7.855105E-09
        77  19 -6.928989E+06 -3.033567E+06 -1.510066E+06 -2.443658E+06  1.278756E+05 -4.859452E+05
        77  20 -6.416540E+06 -2.742614E+06 -1.387418E+06 -2.198912E+06  1.119567E+05 -4.653583E+05
        77  21 -5.759463E+06 -2.579816E+06 -1.266008E+06 -2.102417E+06  9.098189E+04 -4.308157E+05
        77  22  1.888997E+05 -3.723819E+05  4.146449E+04 -4.432917E+05  1.473831E+05 -4.779146E+05
        77  23  1.163899E+05 -3.099320E+05  2.068609E+04 -3.686134E+05  1.485779E+05 -4.509121E+05
        77  24  1.915035E+05 -3.721606E+05  1.225692E+04 -4.422162E+05  1.447533E+05 -4.100305E+05
        77  25  7.358672E+06  2.293209E+06  1.589982E+06  1.578414E+06  1.671414E+05 -4.697928E+05
        77  26  6.693058E+06  2.126436E+06  1.426314E+06  1.479590E+06  1.856241E+05 -4.363077E+05
        77  27  6.178716E+06  1.838502E+06  1.288484E+06  1.232755E+06  1.990888E+05 -3.890338E+05
        78   1 -5.342921E+06 -2.418857E+06 -1.175611E+06 -1.983118E+06 -8.613514E+04  4.035661E+05
        78   2 -4.823850E+06 -2.127675E+06 -1.054158E+06 -1.740280E+06 -7.124408E+04  3.614001E+05
        78   3 -4.164885E+06 -1.968498E+06 -9.301845E+05 -1.647658E+06 -5.627902E+04  3.183523E+05
        78   4  1.911612E+05 -3.710093E+05  8.975549E+03 -4.432415E+05 -1.367491E+05  3.840826E+05
        78   5  1.227030E+05 -3.023469E+05  4.298686E+03 -3.687117E+05 -1.229297E+05  3.416603E+05
        78   6  1.939169E+05 -3.654432E+05  2.938248E+03 -4.444681E+05 -1.090367E+05  2.983611E+05
        78   7  5.756665E+06  1.679446E+06  1.191836E+06  1.109386E+06 -1.878567E+05  3.644144E+05
        78   8  5.094320E+06  1.525026E+06  1.061375E+06  1.012988E+06 -1.750646E+05  3.217526E+05
        78   9  4.572139E+06  1.239165E+06  9.349866E+05  7.665361E+05 -1.621974E+05  2.782197E+05
        78  10 -5.342973E+06 -2.419034E+06 -1.175932E+06 -1.983090E+06 -8.094976E-09  7.357745E-10
        78  11 -4.823890E+06 -2.127817E+06 -1.054413E+06 -1.740259E+06 -8.769941E-09  2.017524E-09
        78  12 -4.164916E+06 -1.968608E+06 -9.303810E+05 -1.647643E+06 -5.187539E-09  4.356088E-09
        78  13  1.911015E+05 -3.711728E+05  8.663198E+03 -4.431993E+05 -1.520426E-08 -4.564414E-10
        78  14  1.226555E+05 -3.024763E+05  4.050938E+03 -3.686779E+05 -2.654507E-09 -1.092114E-08
        78  15  1.938803E+05 -3.655420E+05  2.748632E+03 -4.444420E+05  2.265662E-09 -1.338193E-08
        78  16  5.756591E+06  1.679293E+06  1.191520E+06  1.109441E+06  1.762543E-09  7.480110E-09
        78  17  5.094259E+06  1.524907E+06  1.061123E+06  1.013033E+06 -6.133544E-10  1.630475E-10
        78  18  4.572090E+06  1.239074E+06  9.347918E+05  7.665724E+05 -1.310363E-08  1.339098E-09
        78  19 -5.342921E+06 -2.418857E+06 -1.175611E+06 -1.983118E+06  8.613514E+04 -4.035661E+05
        78  20 -4.823850E+06 -2.127675E+06 -1.054158E+06 -1.740280E+06  7.124408E+04 -3.614001E+05
        78  21 -4.164885E+06 -1.968498E+06 -9.301845E+05 -1.647658E+06  5.627902E+04 -3.183523E+05
        78  22  1.911612E+05 -3.710093E+05  8.975549E+03 -4.432415E+05  1.367491E+05 -3.840826E+05
        78  23  1.227030E+05 -3.023469E+05  4.298686E+03 -3.687117E+05  1.229297E+05 -3.416603E+05
        78  24  1.939169E+05 -3.654432E+05  2.938248E+03 -4.444681E+05  1.090367E+05 -2.983611E+05
        78  25  5.756665E+06  1.679446E+06  1.191836E+06  1.109386E+06  1.878567E+05 -3.644144E+05
        78  26  5.094320E+06  1.525026E+06  1.061375E+06  1.012988E+06  1.750646E+05 -3.217526E+05
        78  27  4.572139E+06  1.239165E+06  9.349866E+05  7.665361E+05  1.621974E+05 -2.782197E+05
        79   1 -3.744512E+06 -1.810759E+06 -8.370790E+05 -1.530635E+06 -4.739771E+04  2.931212E+05
        79   2 -3.219272E+06 -1.523159E+06 -7.129977E+05 -1.289607E+06 -3.157405E+04  2.501176E+05
        79   3 -2.558011E+06 -1.367841E+06 -5.879165E+05 -1.200623E+06 -1.588421E+04  2.070008E+05
        79   4  1.938963E+05 -3.647868E+05  2.044874E+03 -4.448316E+05 -1.000372E+05  2.732512E+05
        79   5  1.270060E+05 -2.967054E+05  8.964851E+02 -3.692065E+05 -8.434524E+04  2.303004E+05
        79   6  1.957553E+05 -3.608725E+05  8.220479E+02 -4.457213E+05 -6.878700E+04  1.872374E+05
        79   7  4.148136E+06  1.082441E+06  8.402956E+05  6.473342E+05 -1.530391E+05  2.532461E+05
        79   8  3.484720E+06  9.306506E+05  7.141670E+05  5.557750E+05 -1.374248E+05  2.103682E+05
        79   9  2.957275E+06  6.467053E+05  5.891451E+05  3.122735E+05 -1.219441E+05  1.673795E+05
        79  10 -3.744537E+06 -1.810852E+06 -8.372448E+05 -1.530624E+06 -9.059785E-09 -1.704073E-09
        79  11 -3.219290E+06 -1.523227E+06 -7.131172E+05 -1.289601E+06  5.368885E-09 -2.318669E-09
        79  12 -2.558022E+06 -1.367887E+06 -5.879976E+05 -1.200621E+06  2.019510E-08 -8.549701E-10
        79  13  1.938656E+05 -3.648696E+05  1.885765E+03 -4.448096E+05 -1.331249E-09 -1.422398E-08
        79  14  1.269841E+05 -2.967643E+05  7.834541E+02 -3.691908E+05  2.600865E-09 -1.187943E-08
        79  15  1.957408E+05 -3.609114E+05  7.472805E+02 -4.457110E+05  3.606858E-09 -9.922440E-09
        79  16  4.148093E+06  1.082365E+06  8.401311E+05  6.473653E+05  5.895403E-09  8.440962E-09
        79  17  3.484688E+06  9.305980E+05  7.140484E+05  5.557983E+05 -1.589533E-08 -4.877894E-09
        79  18  2.957251E+06  6.466712E+05  5.890646E+05  3.122899E+05 -3.034172E-08 -1.814269E-08
        79  19 -3.744512E+06 -1.810759E+06 -8.370790E+05 -1.530635E+06  4.739771E+04 -2.931212E+05
        79  20 -3.219272E+06 -1.523159E+06 -7.129977E+05 -1.289607E+06  3.157405E+04 -2.501176E+05
        79  21 -2.558011E+06 -1.367841E+06 -5.879165E+05 -1.200623E+06  1.588421E+04 -2.070008E+05
        79  22  1.938963E+05 -3.647868E+05  2.044874E+03 -4.448316E+05  1.000372E+05 -2.732512E+05
        79  23  1.270060E+05 -2.967054E+05  8.964851E+02 -3.692065E+05  8.434524E+04 -2.303004E+05
        79  24  1.957553E+05 -3.608725E+05  8.220479E+02 -4.457213E+05  6.878700E+04 -1.872374E+05
        79  25  4.148136E+06  1.082441E+06  8.402956E+05  6.473342E+05  1.530391E+05 -2.532461E+05
        79  26  3.484720E+06  9.306506E+05  7.141670E+05  5.557750E+05  1.374248E+05 -2.103682E+05
        79  27  2.957275E+06  6.467053E+05  5.891451E+05  3.122735E+05  1.219441E+05 -1.673795E+05
        80   1 -2.135163E+06 -1.211628E+06 -4.941589E+05 -1.084724E+06 -6.651084E+03  1.819361E+05
        80   2 -1.605974E+06 -9.266197E+05 -3.692364E+05 -8.446104E+05  9.263499E+03  1.389252E+05
        80   3 -9.431103E+05 -7.739720E+05 -2.440495E+05 -7.576387E+05  2.509409E+04  9.589353E+04
        80   4  1.957655E+05 -3.604736E+05  5.329432E+02 -4.459223E+05 -5.959415E+04  1.622047E+05
        80   5  1.296059E+05 -2.932792E+05  2.590428E+02 -3.695215E+05 -4.371218E+04  1.192343E+05
        80   6  1.967341E+05 -3.584485E+05  2.599646E+02 -4.463773E+05 -2.791444E+04  7.624412E+04
        80   7  2.532242E+06  4.911137E+05  4.949318E+05  1.950912E+05 -1.127520E+05  1.423935E+05
        80   8  1.868254E+06  3.402980E+05  3.695943E+05  1.067896E+05 -9.684753E+04  9.948393E+04
        80   9  1.337896E+06  5.717447E+04  2.445044E+05 -1.345916E+05 -8.102755E+04  5.655591E+04
        80  10 -2.135172E+06 -1.211663E+06 -4.942212E+05 -1.084723E+06 -3.893354E-09 -8.364635E-09
        80  11 -1.605979E+06 -9.266405E+05 -3.692728E+05 -8.446115E+05  4.647169E-09  4.593958E-10
        80  12 -9.431135E+05 -7.739820E+05 -2.440680E+05 -7.576406E+05  5.576970E-09  2.742235E-09
        80  13  1.957546E+05 -3.605028E+05  4.768306E+02 -4.459145E+05 -1.334143E-09 -6.423366E-09
        80  14  1.296000E+05 -2.932950E+05  2.287380E+02 -3.695173E+05 -1.104104E-08 -2.997822E-09
        80  15  1.967317E+05 -3.584550E+05  2.475770E+02 -4.463756E+05  7.029390E-09  1.592781E-09
        80  16  2.532223E+06  4.910885E+05  4.948698E+05  1.951041E+05 -4.303798E-09 -6.115086E-09
        80  17  1.868241E+06  3.402849E+05  3.695581E+05  1.067974E+05 -1.059217E-09 -7.819605E-10
        80  18  1.337888E+06  5.716928E+04  2.444861E+05 -1.345879E+05 -6.783774E-09 -6.639779E-09
        80  19 -2.135163E+06 -1.211628E+06 -4.941589E+05 -1.084724E+06  6.651084E+03 -1.819361E+05
        80  20 -1.605974E+06 -9.266197E+05 -3.692364E+05 -8.446104E+05 -9.263499E+03 -1.389252E+05
        80  21 -9.431103E+05 -7.739720E+05 -2.440495E+05 -7.576387E+05 -2.509409E+04 -9.589353E+04
        80  22  1.957655E+05 -3.604736E+05  5.329432E+02 -4.459223E+05  5.959415E+04 -1.622047E+05
        80  23  1.296059E+05 -2.932792E+05  2.590428E+02 -3.695215E+05  4.371218E+04 -1.192343E+05
        80  24  1.967341E+05 -3.584485E+05  2.599646E+02 -4.463773E+05  2.791444E+04 -7.624412E+04
        80  25  2.532242E+06  4.911137E+05  4.949318E+05  1.950912E+05  1.127520E+05 -1.423935E+05
        80  26  1.868254E+06  3.402980E+05  3.695943E+05  1.067896E+05  9.684753E+04 -9.948393E+04
        80  27  1.337896E+06  5.717447E+04  2.445044E+05 -1.345916E+05  8.102755E+04 -5.655591E+04
        81   1 -5.186538E+05 -6.186032E+05 -1.501180E+05 -6.421127E+05  3.442799E+04  7.087372E+04
        81   2  1.230671E+04 -3.350839E+05 -2.499971E+04 -4.019853E+05  4.993115E+04  2.789362E+04
        81   3  6.761257E+05 -1.838650E+05  1.003942E+05 -3.153725E+05  6.530262E+04 -1.475127E+04
        81   4  1.967246E+05 -3.583037E+05  1.449359E+02 -4.464533E+05 -1.868870E+04  5.120138E+04
        81   5  1.305601E+05 -2.920275E+05 -1.149240E+01 -3.696374E+05 -2.796008E+03  8.368360E+03
        81   6  1.967932E+05 -3.581665E+05 -2.076369E+02 -4.464829E+05  1.296502E+04 -3.412816E+04
        81   7  9.126365E+05 -9.795934E+04  1.503934E+05 -2.505835E+05 -7.187164E+04  3.150444E+04
        81   8  2.488343E+05 -2.489675E+05  2.498795E+04 -3.372821E+05 -5.553417E+04 -1.116098E+04
        81   9 -2.822993E+05 -5.324477E+05 -1.008104E+05 -5.774986E+05 -3.932919E+04 -5.348893E+04
        81  10 -5.186564E+05 -6.186089E+05 -1.501297E+05 -6.421147E+05  8.175189E-09  3.450099E-09
        81  11  1.230383E+04 -3.350854E+05 -2.500586E+04 -4.019864E+05  2.739755E-08  1.437889E-08
        81  12  6.761210E+05 -1.838664E+05  1.003858E+05 -3.153717E+05  5.004308E-08  1.797311E-08
        81  13  1.967235E+05 -3.583066E+05  1.393534E+02 -4.464526E+05  8.926963E-09 -6.236121E-10
        81  14  1.305601E+05 -2.920276E+05 -1.163868E+01 -3.696374E+05  5.012511E-10  6.228449E-09
        81  15  1.967927E+05 -3.581678E+05 -2.101413E+02 -4.464825E+05  2.027427E-08  1.023409E-08
        81  16  9.126307E+05 -9.796179E+04  1.503818E+05 -2.505816E+05 -7.571513E-10 -5.823622E-09
        81  17  2.488310E+05 -2.489685E+05  2.498193E+04 -3.372826E+05 -2.182498E-08 -1.986937E-08
        81  18 -2.823018E+05 -5.324512E+05 -1.008187E+05 -5.775003E+05 -2.465354E-08 -1.227959E-08
        81  19 -5.186538E+05 -6.186032E+05 -1.501180E+05 -6.421127E+05 -3.442799E+04 -7.087372E+04
        81  20  1.230671E+04 -3.350839E+05 -2.499971E+04 -4.019853E+05 -4.993115E+04 -2.789362E+04
        81  21  6.761257E+05 -1.838650E+05  1.003942E+05 -3.153725E+05 -6.530262E+04  1.475127E+04
        81  22  1.967246E+05 -3.583037E+05  1.449359E+02 -4.464533E+05  1.868870E+04 -5.120138E+04
        81  23  1.305601E+05 -2.920275E+05 -1.149240E+01 -3.696374E+05  2.796008E+03 -8.368360E+03
        81  24  1.967932E+05 -3.581665E+05 -2.076369E+02 -4.464829E+05 -1.296502E+04  3.412816E+04
        81  25  9.126365E+05 -9.795934E+04  1.503934E+05 -2.505835E+05  7.187164E+04 -3.150444E+04
        81  26  2.488343E+05 -2.489675E+05  2.498795E+04 -3.372821E+05  5.553417E+04  1.116098E+04
        81  27 -2.822993E+05 -5.324477E+05 -1.008104E+05 -5.774986E+05  3.932919E+04  5.348893E+04
        82   1  1.101474E+06 -2.866116E+04  1.941726E+05 -1.994094E+05  7.611134E+04 -3.941003E+04
        82   2  1.631689E+06  2.545123E+05  3.208009E+05  4.134502E+04  8.411209E+04 -8.242340E+04
        82   3  2.296353E+06  4.068765E+05  4.530282E+05  1.292078E+05  8.992406E+04 -1.193859E+05
        82   4  1.967065E+05 -3.582130E+05 -3.184877E+02 -4.463813E+05  2.233048E+04 -5.933394E+04
        82   5  1.299620E+05 -2.930155E+05 -9.000482E+02 -3.696185E+05  3.779279E+04 -9.962607E+04
        82   6  1.958515E+05 -3.601514E+05 -1.765658E+03 -4.459152E+05  5.107023E+04 -1.338559E+05
        82   7 -7.072192E+05 -6.876975E+05 -1.948428E+05 -6.930202E+05 -3.136568E+04 -7.922646E+04
        82   8 -1.369475E+06 -8.403669E+05 -3.227215E+05 -7.796704E+05 -8.406039E+03 -1.167840E+05
        82   9 -1.900204E+06 -1.126845E+06 -4.568172E+05 -1.019262E+06  1.235755E+04 -1.482735E+05
        82  10  1.101468E+06 -2.866438E+04  1.941588E+05 -1.994070E+05 -4.007261E-08 -1.000661E-08
        82  11  1.631680E+06  2.545031E+05  3.207749E+05  4.135060E+04 -1.607213E-08 -9.714197E-09
        82  12  2.296341E+06  4.068590E+05  4.529862E+05  1.292164E+05  1.915485E-08 -2.865801E-09
        82  13  1.967050E+05 -3.582170E+05 -3.260399E+02 -4.463803E+05  1.909837E-08  1.955600E-08
        82  14  1.299578E+05 -2.930266E+05 -9.213821E+02 -3.696155E+05  2.552197E-09  9.825143E-09
        82  15  1.958439E+05 -3.601714E+05 -1.804226E+03 -4.459097E+05  5.825715E-09  1.180097E-09
        82  16 -7.072219E+05 -6.877045E+05 -1.948565E+05 -6.930222E+05  7.097680E-08  3.339734E-08
        82  17 -1.369479E+06 -8.403816E+05 -3.227473E+05 -7.796712E+05  2.427377E-08  1.846637E-08
        82  18 -1.900210E+06 -1.126868E+06 -4.568589E+05 -1.019260E+06 -1.286719E-08  1.151307E-09
        82  19  1.101474E+06 -2.866116E+04  1.941726E+05 -1.994094E+05 -7.611134E+04  3.941003E+04
        82  20  1.631689E+06  2.545123E+05  3.208009E+05  4.134502E+04 -8.411209E+04  8.242340E+04
        82  21  2.296353E+06  4.068765E+05  4.530282E+05  1.292078E+05 -8.992406E+04  1.193859E+05
        82  22  1.967065E+05 -3.582130E+05 -3.184877E+02 -4.463813E+05 -2.233048E+04  5.933394E+04
        82  23  1.299620E+05 -2.930155E+05 -9.000482E+02 -3.696185E+05 -3.779279E+04  9.962607E+04
        82  24  1.958515E+05 -3.601514E+05 -1.765658E+03 -4.459152E+05 -5.107023E+04  1.338559E+05
        82  25 -7.072192E+05 -6.876975E+05 -1.948428E+05 -6.930202E+05  3.136568E+04  7.922646E+04
        82  26 -1.369475E+06 -8.403669E+05 -3.227215E+05 -7.796704E+05  8.406039E+03  1.167840E+05
        82  27 -1.900204E+06 -1.126845E+06 -4.568172E+05 -1.019262E+06 -1.235755E+04  1.482735E+05
        83   1  2.724606E+06  5.639968E+05  5.443471E+05  2.477420E+05  1.262318E+05 -1.383460E+05
        83   2  3.244402E+06  8.493016E+05  7.047307E+05  4.844977E+05 -4.776717E+03 -1.851120E+05
        83   3  3.919243E+06  1.028828E+06  9.674650E+05  5.753059E+05 -1.760208E+05 -1.248839E+05
        83   4  1.946298E+05 -3.592836E+05 -2.214130E+03 -4.448594E+05  6.189453E+04 -1.623248E+05
        83   5  1.291252E+05 -2.977053E+05 -4.718471E+03 -3.704042E+05  6.391964E+04 -1.595863E+05
        83   6  1.921497E+05 -3.681911E+05 -9.858068E+03 -4.420773E+05  2.575482E+04 -4.952951E+04
        83   7 -2.328881E+06 -1.282073E+06 -5.491360E+05 -1.134882E+06 -2.161100E+03 -1.861991E+05
        83   8 -2.976416E+06 -1.443979E+06 -7.147760E+05 -1.221389E+06  1.322436E+05 -1.342005E+05
        83   9 -3.521380E+06 -1.764291E+06 -9.881604E+05 -1.453925E+06  2.262034E+05  2.532538E+04
        83  10  2.724584E+06  5.639720E+05  5.442812E+05  2.477560E+05  1.015509E-08 -6.862254E-09
        83  11  3.244393E+06  8.492648E+05  7.046663E+05  4.844970E+05  6.169129E-09 -6.063568E-09
        83  12  3.919206E+06  1.028803E+06  9.673779E+05  5.752883E+05 -6.374537E-09 -3.019523E-09
        83  13  1.946186E+05 -3.593129E+05 -2.270839E+03 -4.448514E+05  1.439943E-08 -1.341669E-09
        83  14  1.291140E+05 -2.977337E+05 -4.774002E+03 -3.703960E+05 -5.366754E-10 -2.622484E-09
        83  15  1.921483E+05 -3.681939E+05 -9.863923E+03 -4.420763E+05 -8.067479E-09 -1.515201E-09
        83  16 -2.328890E+06 -1.282111E+06 -5.492013E+05 -1.134882E+06  4.003391E-09 -4.086365E-10
        83  17 -2.976440E+06 -1.444003E+06 -7.148427E+05 -1.221374E+06 -7.069931E-10 -4.372902E-09
        83  18 -3.521436E+06 -1.764306E+06 -9.882583E+05 -1.453929E+06  1.282720E-09 -9.123418E-10
        83  19  2.724606E+06  5.639968E+05  5.443471E+05  2.477420E+05 -1.262318E+05  1.383460E+05
        83  20  3.244402E+06  8.493016E+05  7.047307E+05  4.844977E+05  4.776717E+03  1.851120E+05
        83  21  3.919243E+06  1.028828E+06  9.674650E+05  5.753059E+05  1.760208E+05  1.248839E+05
        83  22  1.946298E+05 -3.592836E+05 -2.214130E+03 -4.448594E+05 -6.189453E+04  1.623248E+05
        83  23  1.291252E+05 -2.977053E+05 -4.718471E+03 -3.704042E+05 -6.391964E+04  1.595863E+05
        83  24  1.921497E+05 -3.681911E+05 -9.858068E+03 -4.420773E+05 -2.575482E+04  4.952951E+04
        83  25 -2.328881E+06 -1.282073E+06 -5.491360E+05 -1.134882E+06  2.161100E+03  1.861991E+05
        83  26 -2.976416E+06 -1.443979E+06 -7.147760E+05 -1.221389E+06 -1.322436E+05  1.342005E+05
        83  27 -3.521380E+06 -1.764291E+06 -9.881604E+05 -1.453925E+06 -2.262034E+05 -2.532538E+04
        84   1 -2.048629E+05 -1.045889E+05 -9.345440E+04 -7.284861E+04 -2.313693E+04  7.010195E+03
        84   2 -1.323405E+05 -1.067528E+05 -7.043681E+04 -8.060581E+04 -5.484040E+03  2.337085E+04
        84   3 -5.920643E+04 -9.737383E+04 -5.602605E+04 -9.907440E+04  1.217438E+04  2.774419E+04
        84   4  3.855769E+05  4.081215E+04  4.318481E+04 -1.006731E+05  3.051467E+04  7.011701E+03
        84   5  3.827950E+05  1.471160E+04  2.181301E+04 -9.531900E+04  1.940420E+04  2.336818E+04
        84   6  3.856084E+05  5.140544E+03  1.180511E+04 -1.006748E+05  8.296882E+03  2.774268E+04
        84   7  9.763466E+05  1.861932E+05  1.798119E+05 -1.285242E+05  8.421692E+04  7.008400E+03
        84   8  8.981910E+05  1.361624E+05  1.140551E+05 -1.100447E+05  4.431250E+04  2.336434E+04
        84   9  8.306213E+05  1.076454E+05  7.963209E+04 -1.022765E+05  4.416711E+03  2.774120E+04
        84  10 -2.048635E+05 -1.045891E+05 -9.345550E+04 -7.284848E+04  4.934092E-09 -3.120767E-11
        84  11 -1.323407E+05 -1.067534E+05 -7.043790E+04 -8.060571E+04  9.078346E-09 -7.711094E-10
        84  12 -5.920680E+04 -9.737470E+04 -5.602777E+04 -9.907467E+04  5.944602E-09 -1.922210E-09
        84  13  3.855759E+05  4.081184E+04  4.318297E+04 -1.006733E+05  1.419980E-10  1.115157E-10
        84  14  3.827944E+05  1.471091E+04  2.181127E+04 -9.531936E+04  8.764454E-09 -5.135010E-10
        84  15  3.856081E+05  5.139699E+03  1.180353E+04 -1.006750E+05  5.782002E-09 -1.863807E-09
        84  16  9.763390E+05  1.861912E+05  1.797985E+05 -1.285247E+05 -4.554517E-09  1.357232E-10
        84  17  8.981888E+05  1.361613E+05  1.140504E+05 -1.100456E+05 -1.383285E-09 -2.741934E-10
        84  18  8.306210E+05  1.076446E+05  7.963061E+04 -1.022766E+05 -4.210246E-09 -1.682501E-09
        84  19 -2.048629E+05 -1.045889E+05 -9.345440E+04 -7.284861E+04  2.313693E+04 -7.010195E+03
        84  20 -1.323405E+05 -1.067528E+05 -7.043681E+04 -8.060581E+04  5.484040E+03 -2.337085E+04
        84  21 -5.920643E+04 -9.737383E+04 -5.602605E+04 -9.907440E+04 -1.217438E+04 -2.774419E+04
        84  22  3.855769E+05  4.081215E+04  4.318481E+04 -1.006731E+05 -3.051467E+04 -7.011701E+03
        84  23  3.827950E+05  1.471160E+04  2.181301E+04 -9.531900E+04 -1.940420E+04 -2.336818E+04
        84  24  3.856084E+05  5.140544E+03  1.180511E+04 -1.006748E+05 -8.296882E+03 -2.774268E+04
        84  25  9.763466E+05  1.861932E+05  1.798119E+05 -1.285242E+05 -8.421692E+04 -7.008400E+03
        84  26  8.981910E+05  1.361624E+05  1.140551E+05 -1.100447E+05 -4.431250E+04 -2.336434E+04
        84  27  8.306213E+05  1.076454E+05  7.963209E+04 -1.022765E+05 -4.416711E+03 -2.774120E+04
        85   1 -1.457919E+04 -8.781580E+04 -4.993954E+04 -9.863986E+04  1.159248E+04  2.624831E+04
        85   2  5.810931E+04 -7.294752E+04 -4.014627E+04 -9.396818E+04  1.310325E+04  2.342309E+04
        85   3  1.308626E+05 -5.708099E+04 -3.108507E+04 -1.008957E+05  1.461353E+04  1.897782E+04
        85   4  3.845349E+05  3.740355E+03  8.802765E+03 -1.008728E+05  6.760005E+03  2.624732E+04
        85   5  3.841764E+05  1.229330E+03  4.747673E+03 -9.507384E+04  4.381159E+03  2.342343E+04
        85   6  3.845520E+05  3.913922E+02  2.660266E+03 -1.008735E+05  2.001663E+03  1.897993E+04
        85   7  7.838093E+05  9.528913E+04  6.754233E+04 -1.031073E+05  1.924553E+03  2.624636E+04
        85   8  7.103516E+05  7.540156E+04  4.964071E+04 -9.618010E+04 -4.345304E+03  2.342379E+04
        85   9  6.383073E+05  5.786112E+04  3.640569E+04 -1.008512E+05 -1.061511E+04  1.898205E+04
        85  10 -1.457952E+04 -8.781658E+04 -4.994109E+04 -9.864010E+04 -3.312417E-09 -1.256191E-09
        85  11  5.810898E+04 -7.294816E+04 -4.014763E+04 -9.396842E+04  6.993753E-09  3.518175E-10
        85  12  1.308622E+05 -5.708144E+04 -3.108615E+04 -1.008959E+05  1.022978E-08 -1.624777E-09
        85  13  3.845347E+05  3.739603E+03  8.801384E+03 -1.008730E+05  1.259013E-10 -1.420097E-09
        85  14  3.841762E+05  1.228735E+03  4.746605E+03 -9.507392E+04 -4.104147E-09  1.182498E-10
        85  15  3.845519E+05  3.910042E+02  2.659581E+03 -1.008735E+05 -1.768932E-09 -5.989777E-10
        85  16  7.838091E+05  9.528839E+04  6.754103E+04 -1.031073E+05  4.389823E-09 -1.395695E-09
        85  17  7.103515E+05  7.540096E+04  4.963965E+04 -9.618002E+04 -4.669008E-09  2.225556E-10
        85  18  6.383071E+05  5.786070E+04  3.640480E+04 -1.008511E+05 -6.414979E-09  3.044184E-10
        85  19 -1.457919E+04 -8.781580E+04 -4.993954E+04 -9.863986E+04 -1.159248E+04 -2.624831E+04
        85  20  5.810931E+04 -7.294752E+04 -4.014627E+04 -9.396818E+04 -1.310325E+04 -2.342309E+04
        85  21  1.308626E+05 -5.708099E+04 -3.108507E+04 -1.008957E+05 -1.461353E+04 -1.897782E+04
        85  22  3.845349E+05  3.740355E+03  8.802765E+03 -1.008728E+05 -6.760005E+03 -2.624732E+04
        85  23  3.841764E+05  1.229330E+03  4.747673E+03 -9.507384E+04 -4.381159E+03 -2.342343E+04
        85  24  3.845520E+05  3.913922E+02  2.660266E+03 -1.008735E+05 -2.001663E+03 -1.897993E+04
        85  25  7.838093E+05  9.528913E+04  6.754233E+04 -1.031073E+05 -1.924553E+03 -2.624636E+04
        85  26  7.103516E+05  7.540156E+04  4.964071E+04 -9.618010E+04  4.345304E+03 -2.342379E+04
        85  27  6.383073E+05  5.786112E+04  3.640569E+04 -1.008512E+05  1.061511E+04 -1.898205E+04
        86   1  1.756743E+05 -4.693162E+04 -2.540197E+04 -1.008186E+05  1.435036E+04  1.584492E+04
        86   2  2.483592E+05 -3.065021E+04 -1.656800E+04 -9.502605E+04  1.431710E+04  1.042838E+04
        86   3  3.210700E+05 -1.429733E+04 -7.694863E+03 -1.009497E+05  1.428344E+04  4.793780E+03
        86   4  3.844177E+05  2.850985E+02  2.003633E+03 -1.008996E+05  1.609800E+03  1.584753E+04
        86   5  3.843649E+05  7.892667E+01  1.120586E+03 -9.504158E+04  1.052253E+03  1.043161E+04
        86   6  3.844247E+05  3.555548E+01  6.404166E+02 -1.008996E+05  4.943176E+02  4.797646E+03
        86   7  5.932060E+05  4.750007E+04  2.940956E+04 -1.009806E+05 -1.113484E+04  1.585015E+04
        86   8  5.203900E+05  3.080739E+04  1.880973E+04 -9.505710E+04 -1.221536E+04  1.043484E+04
        86   9  4.477838E+05  1.436838E+04  8.976382E+03 -1.008495E+05 -1.329615E+04  4.801510E+03
        86  10  1.756740E+05 -4.693195E+04 -2.540283E+04 -1.008188E+05  2.092783E-09 -1.972122E-09
        86  11  2.483589E+05 -3.065038E+04 -1.656859E+04 -9.502617E+04  9.028602E-09 -1.960913E-11
        86  12  3.210698E+05 -1.429741E+04 -7.695289E+03 -1.009498E+05  5.034923E-09 -3.692668E-10
        86  13  3.844176E+05  2.848281E+02  2.003156E+03 -1.008996E+05 -1.345936E-10 -8.780566E-10
        86  14  3.843649E+05  7.880950E+01  1.120380E+03 -9.504159E+04  2.136507E-09 -4.547780E-10
        86  15  3.844247E+05  3.553070E+01  6.403729E+02 -1.008996E+05  7.245731E-09 -3.948772E-11
        86  16  5.932058E+05  4.749977E+04  2.940885E+04 -1.009804E+05  8.763554E-10  4.436697E-11
        86  17  5.203898E+05  3.080723E+04  1.880924E+04 -9.505700E+04 -3.999773E-09 -9.373231E-11
        86  18  4.477836E+05  1.436830E+04  8.976007E+03 -1.008495E+05 -5.765459E-09 -5.949625E-10
        86  19  1.756743E+05 -4.693162E+04 -2.540197E+04 -1.008186E+05 -1.435036E+04 -1.584492E+04
        86  20  2.483592E+05 -3.065021E+04 -1.656800E+04 -9.502605E+04 -1.431710E+04 -1.042838E+04
        86  21  3.210700E+05 -1.429733E+04 -7.694863E+03 -1.009497E+05 -1.428344E+04 -4.793780E+03
        86  22  3.844177E+05  2.850985E+02  2.003633E+03 -1.008996E+05 -1.609800E+03 -1.584753E+04
        86  23  3.843649E+05  7.892667E+01  1.120586E+03 -9.504158E+04 -1.052253E+03 -1.043161E+04
        86  24  3.844247E+05  3.555548E+01  6.404166E+02 -1.008996E+05 -4.943176E+02 -4.797646E+03
        86  25  5.932060E+05  4.750007E+04  2.940956E+04 -1.009806E+05  1.113484E+04 -1.585015E+04
        86  26  5.203900E+05  3.080739E+04  1.880973E+04 -9.505710E+04  1.221536E+04 -1.043484E+04
        86  27  4.477838E+05  1.436838E+04  8.976382E+03 -1.008495E+05  1.329615E+04 -4.801510E+03
        87   1  3.658982E+05 -4.139338E+03 -1.880668E+03 -1.009398E+05  1.420030E+04  1.441016E+03
        87   2  4.385918E+05  1.221413E+04  7.076706E+03 -9.507513E+04  1.411932E+04 -4.320783E+03
        87   3  5.113022E+05  2.857379E+04  1.608796E+04 -1.009421E+05  1.403849E+04 -1.010637E+04
        87   4  3.844048E+05  3.371038E+01  4.857091E+02 -1.009031E+05  3.938728E+02  1.444976E+03
        87   5  3.843934E+05  2.002069E+01  2.784064E+02 -9.503726E+04  2.548675E+02 -4.317005E+03
        87   6  3.844021E+05  2.236835E+01  1.643734E+02 -1.009031E+05  1.160222E+02 -1.010278E+04
        87   7  4.029123E+05  4.206847E+03  2.852801E+03 -1.008664E+05 -1.341295E+04  1.448934E+03
        87   8  3.301985E+05 -1.217411E+04 -6.519178E+03 -9.499941E+04 -1.360844E+04 -4.313229E+03
        87   9  2.575190E+05 -2.852961E+04 -1.575853E+04 -1.008642E+05 -1.380374E+04 -1.009920E+04
        87  10  3.658979E+05 -4.139395E+03 -1.881051E+03 -1.009399E+05  3.042567E-08 -1.432923E-09
        87  11  4.385916E+05  1.221406E+04  7.076296E+03 -9.507508E+04 -4.563886E-09 -4.427707E-09
        87  12  5.113020E+05  2.857363E+04  1.608740E+04 -1.009420E+05 -4.243604E-08 -7.824861E-09
        87  13  3.844048E+05  3.370810E+01  4.857049E+02 -1.009031E+05  8.633383E-09  1.141174E-09
        87  14  3.843934E+05  2.000066E+01  2.783712E+02 -9.503726E+04  4.222323E-09  7.488660E-09
        87  15  3.844021E+05  2.225873E+01  1.641815E+02 -1.009031E+05  1.780428E-09  1.231226E-08
        87  16  4.029121E+05  4.206797E+03  2.852459E+03 -1.008664E+05 -2.608637E-08 -6.686221E-10
        87  17  3.301983E+05 -1.217418E+04 -6.519561E+03 -9.499945E+04  1.204641E-08 -4.219051E-10
        87  18  2.575188E+05 -2.852977E+04 -1.575908E+04 -1.008643E+05  4.976851E-08 -1.959132E-09
        87  19  3.658982E+05 -4.139338E+03 -1.880668E+03 -1.009398E+05 -1.420030E+04 -1.441016E+03
        87  20  4.385918E+05  1.221413E+04  7.076706E+03 -9.507513E+04 -1.411932E+04  4.320783E+03
        87  21  5.113022E+05  2.857379E+04  1.608796E+04 -1.009421E+05 -1.403849E+04  1.010637E+04
        87  22  3.844048E+05  3.371038E+01  4.857091E+02 -1.009031E+05 -3.938728E+02 -1.444976E+03
        87  23  3.843934E+05  2.002069E+01  2.784064E+02 -9.503726E+04 -2.548675E+02  4.317005E+03
        87  24  3.844021E+05  2.236835E+01  1.643734E+02 -1.009031E+05 -1.160222E+02  1.010278E+04
        87  25  4.029123E+05  4.206847E+03  2.852801E+03 -1.008664E+05  1.341295E+04 -1.448934E+03
        87  26  3.301985E+05 -1.217411E+04 -6.519178E+03 -9.499941E+04  1.360844E+04  4.313229E+03
        87  27  2.575190E+05 -2.852961E+04 -1.575853E+04 -1.008642E+05  1.380374E+04  1.009920E+04
        88   1  5.561447E+05  3.872108E+04  2.198067E+04 -1.009438E+05  1.401135E+04 -1.348288E+04
        88   2  6.288555E+05  5.507049E+04  3.107443E+04 -9.507433E+04  1.387600E+04 -1.925982E+04
        88   3  7.015970E+05  7.143982E+04  4.026185E+04 -1.009378E+05  1.374136E+04 -2.499732E+04
        88   4  3.843971E+05  2.001509E+01  1.282570E+02 -1.009035E+05  8.883782E+01 -1.347963E+04
        88   5  3.843866E+05  7.272619E+00  8.166418E+01 -9.503685E+04  4.742374E+01 -1.925750E+04
        88   6  3.843849E+05 -1.765164E+00  6.301642E+01 -1.009035E+05  6.738919E+00 -2.499594E+04
        88   7  2.126802E+05 -3.868215E+04 -2.172354E+04 -1.008631E+05 -1.383002E+04 -1.347638E+04
        88   8  1.399794E+05 -5.505828E+04 -3.091059E+04 -9.499938E+04 -1.377598E+04 -1.925519E+04
        88   9  6.727648E+04 -7.144736E+04 -4.013546E+04 -1.008692E+05 -1.372121E+04 -2.499457E+04
        88  10  5.561445E+05  3.872083E+04  2.197996E+04 -1.009437E+05  4.175498E-08 -7.923059E-09
        88  11  6.288552E+05  5.507004E+04  3.107337E+04 -9.507411E+04  6.795089E-09 -4.666403E-09
        88  12  7.015966E+05  7.143910E+04  4.026033E+04 -1.009375E+05 -2.730822E-08 -3.373985E-10
        88  13  3.843971E+05  1.981994E+01  1.279155E+02 -1.009035E+05  8.881731E-09  1.201752E-08
        88  14  3.843865E+05  6.874317E+00  8.096715E+01 -9.503685E+04  1.104372E-08  6.903150E-09
        88  15  3.843847E+05 -2.436208E+00  6.184209E+01 -1.009035E+05 -1.125928E-08  2.114043E-09
        88  16  2.126800E+05 -3.868240E+04 -2.172424E+04 -1.008633E+05 -3.759173E-08 -2.283639E-09
        88  17  1.399791E+05 -5.505873E+04 -3.091165E+04 -9.499959E+04 -5.594211E-09 -7.383092E-10
        88  18  6.727611E+04 -7.144808E+04 -4.013698E+04 -1.008694E+05  3.305023E-08  2.613371E-10
        88  19  5.561447E+05  3.872108E+04  2.198067E+04 -1.009438E+05 -1.401135E+04  1.348288E+04
        88  20  6.288555E+05  5.507049E+04  3.107443E+04 -9.507433E+04 -1.387600E+04  1.925982E+04
        88  21  7.015970E+05  7.143982E+04  4.026185E+04 -1.009378E+05 -1.374136E+04  2.499732E+04
        88  22  3.843971E+05  2.001509E+01  1.282570E+02 -1.009035E+05 -8.883782E+01  1.347963E+04
        88  23  3.843866E+05  7.272619E+00  8.166418E+01 -9.503685E+04 -4.742374E+01  1.925750E+04
        88  24  3.843849E+05 -1.765164E+00  6.301642E+01 -1.009035E+05 -6.738918E+00  2.499594E+04
        88  25  2.126802E+05 -3.868215E+04 -2.172354E+04 -1.008631E+05  1.383002E+04  1.347638E+04
        88  26  1.399794E+05 -5.505828E+04 -3.091059E+04 -9.499938E+04  1.377598E+04  1.925519E+04
        88  27  6.727648E+04 -7.144736E+04 -4.013546E+04 -1.008692E+05  1.372121E+04  2.499457E+04
        89   1  7.464829E+05  8.160111E+04  4.625877E+04 -1.009301E+05  1.370645E+04 -2.833395E+04
        89   2  8.191726E+05  9.800765E+04  5.576262E+04 -9.505700E+04  1.289294E+04 -3.387867E+04
        89   3  8.920215E+05  1.145585E+05  6.583504E+04 -1.008991E+05  1.208055E+04 -3.909896E+04
        89   4  3.843817E+05 -1.033640E+01  6.126478E+01 -1.008996E+05 -4.647904E+00 -2.833332E+04
        89   5  3.843609E+05 -3.147394E+01  6.942055E+01 -9.504172E+04 -3.928845E+01 -3.387972E+04
        89   6  3.843599E+05 -4.297449E+01  1.056532E+02 -1.008996E+05 -7.272239E+01 -3.910158E+04
        89   7  2.241520E+04 -8.162706E+04 -4.613607E+04 -1.008690E+05 -1.370815E+04 -2.833270E+04
        89   8 -5.025674E+04 -9.807829E+04 -5.562399E+04 -9.502644E+04 -1.296291E+04 -3.388077E+04
        89   9 -1.230377E+05 -1.146551E+05 -6.562458E+04 -1.009000E+05 -1.221655E+04 -3.910420E+04
        89  10  7.464825E+05  8.160019E+04  4.625691E+04 -1.009298E+05  1.484525E-09  1.151502E-09
        89  11  8.191721E+05  9.800637E+04  5.576015E+04 -9.505665E+04  5.240574E-09  1.433007E-09
        89  12  8.920209E+05  1.145568E+05  6.583190E+04 -1.008987E+05 -3.176817E-09  3.186064E-10
        89  13  3.843814E+05 -1.119859E+01  5.975593E+01 -1.008996E+05  1.681275E-11  2.646166E-10
        89  14  3.843606E+05 -3.270674E+01  6.726315E+01 -9.504172E+04 -1.279570E-10 -6.123619E-10
        89  15  3.843595E+05 -4.461660E+01  1.027795E+02 -1.008996E+05  5.332523E-09 -4.733891E-10
        89  16  2.241478E+04 -8.162797E+04 -4.613793E+04 -1.008693E+05 -2.367665E-10 -5.714272E-10
        89  17 -5.025723E+04 -9.807957E+04 -5.562646E+04 -9.502679E+04 -6.041305E-10 -2.578698E-09
        89  18 -1.230383E+05 -1.146568E+05 -6.562773E+04 -1.009004E+05  7.840150E-09 -1.216118E-09
        89  19  7.464829E+05  8.160111E+04  4.625877E+04 -1.009301E+05 -1.370645E+04  2.833395E+04
        89  20  8.191726E+05  9.800765E+04  5.576262E+04 -9.505700E+04 -1.289294E+04  3.387867E+04
        89  21  8.920215E+05  1.145585E+05  6.583504E+04 -1.008991E+05 -1.208055E+04  3.909896E+04
        89  22  3.843817E+05 -1.033640E+01  6.126478E+01 -1.008996E+05  4.647904E+00  2.833332E+04
        89  23  3.843609E+05 -3.147394E+01  6.942055E+01 -9.504172E+04  3.928845E+01  3.387972E+04
        89  24  3.843599E+05 -4.297449E+01  1.056532E+02 -1.008996E+05  7.272239E+01  3.910158E+04
        89  25  2.241520E+04 -8.162706E+04 -4.613607E+04 -1.008690E+05  1.370815E+04  2.833270E+04
        89  26 -5.025674E+04 -9.807829E+04 -5.562399E+04 -9.502644E+04  1.296291E+04  3.388077E+04
        89  27 -1.230377E+05 -1.146551E+05 -6.562458E+04 -1.009000E+05  1.221655E+04  3.910420E+04
        90   1  9.370970E+05  1.248657E+05  7.241907E+04 -1.008383E+05  1.187131E+04 -4.210790E+04
        90   2  1.009402E+06  1.417637E+05  8.468303E+04 -9.508032E+04  5.966367E+03 -4.588127E+04
        90   3  1.082782E+06  1.597512E+05  1.010672E+05 -1.008605E+05  6.120407E+01 -4.724450E+04
        90   4  3.843610E+05 -5.169208E+01  1.354682E+02 -1.008603E+05 -9.252159E+01 -4.211157E+04
        90   5  3.843133E+05 -4.171716E+01  2.290131E+02 -9.509082E+04 -2.052075E+02 -4.588641E+04
        90   6  3.843302E+05  5.341044E+01  4.244327E+02 -1.008603E+05 -3.173617E+02 -4.724983E+04
        90   7 -1.680626E+05 -1.249818E+05 -7.214953E+04 -1.008822E+05 -1.204622E+04 -4.211524E+04
        90   8 -2.403781E+05 -1.418640E+05 -8.422855E+04 -9.510130E+04 -6.370861E+03 -4.589156E+04
        90   9 -3.136301E+05 -1.596666E+05 -1.002260E+05 -1.008600E+05 -6.955200E+02 -4.725517E+04
        90  10  9.370964E+05  1.248638E+05  7.241547E+04 -1.008379E+05  3.534494E-09 -8.537550E-10
        90  11  1.009402E+06  1.417614E+05  8.467901E+04 -9.508010E+04  5.861812E-09 -2.462220E-09
        90  12  1.082782E+06  1.597488E+05  1.010630E+05 -1.008605E+05 -4.296281E-10 -3.279051E-09
        90  13  3.843606E+05 -5.359674E+01  1.321350E+02 -1.008603E+05  1.295109E-08 -8.351524E-10
        90  14  3.843128E+05 -4.397859E+01  2.250556E+02 -9.509083E+04  8.643980E-09 -2.152887E-09
        90  15  3.843296E+05  5.101261E+01  4.202363E+02 -1.008603E+05  2.260005E-09 -2.216043E-09
        90  16 -1.680633E+05 -1.249838E+05 -7.215314E+04 -1.008826E+05  2.065168E-09 -7.928997E-10
        90  17 -2.403787E+05 -1.418662E+05 -8.423258E+04 -9.510153E+04  3.788919E-09 -1.476325E-09
        90  18 -3.136307E+05 -1.596690E+05 -1.002302E+05 -1.008601E+05  3.531056E-09 -1.069380E-09
        90  19  9.370970E+05  1.248657E+05  7.241907E+04 -1.008383E+05 -1.187131E+04  4.210790E+04
        90  20  1.009402E+06  1.417637E+05  8.468303E+04 -9.508032E+04 -5.966367E+03  4.588127E+04
        90  21  1.082782E+06  1.597512E+05  1.010672E+05 -1.008605E+05 -6.120407E+01  4.724450E+04
        90  22  3.843610E+05 -5.169208E+01  1.354682E+02 -1.008603E+05  9.252159E+01  4.211157E+04
        90  23  3.843133E+05 -4.171716E+01  2.290131E+02 -9.509082E+04  2.052075E+02  4.588641E+04
        90  24  3.843302E+05  5.341044E+01  4.244327E+02 -1.008603E+05  3.173617E+02  4.724983E+04
        90  25 -1.680626E+05 -1.249818E+05 -7.214953E+04 -1.008822E+05  1.204622E+04  4.211524E+04
        90  26 -2.403781E+05 -1.418640E+05 -8.422855E+04 -9.510130E+04  6.370861E+03  4.589156E+04
        90  27 -3.136301E+05 -1.596666E+05 -1.002260E+05 -1.008600E+05  6.955200E+02  4.725517E+04
        91   1  1.129054E+06  1.711664E+05  1.118589E+05 -1.004984E+05 -1.433628E+03 -4.781763E+04
        91   2  1.198194E+06  1.918429E+05  1.442579E+05 -9.598025E+04 -4.482760E+04 -3.847641E+04
        91   3  1.275091E+06  2.207863E+05  2.069519E+05 -1.016754E+05 -8.824106E+04 -1.130146E+04
        91   4  3.843759E+05  1.060823E+02  5.696409E+02 -1.005654E+05 -3.919067E+02 -4.782301E+04
        91   5  3.841951E+05  5.526328E+02  1.042073E+03 -9.545944E+04 -9.117446E+02 -3.846749E+04
        91   6  3.843376E+05  1.834927E+03  2.069286E+03 -1.005659E+05 -1.444485E+03 -1.126757E+04
        91   7 -3.597464E+05 -1.709804E+05 -1.107304E+05 -1.006324E+05  6.486172E+02 -4.782841E+04
        91   8 -4.291522E+05 -1.907728E+05 -1.421907E+05 -9.493934E+04  4.294832E+04 -3.845850E+04
        91   9 -5.056672E+05 -2.171678E+05 -2.028375E+05 -9.945803E+04  8.522875E+04 -1.123334E+04
        91  10  1.129054E+06  1.711639E+05  1.118546E+05 -1.004985E+05  6.508094E-09 -2.156405E-09
        91  11  1.198191E+06  1.918408E+05  1.442514E+05 -9.598164E+04  5.597393E-09 -1.125604E-10
        91  12  1.275083E+06  2.207840E+05  2.069370E+05 -1.016762E+05 -1.671637E-09  3.223800E-10
        91  13  3.843753E+05  1.036259E+02  5.653420E+02 -1.005655E+05  3.906038E-09 -2.598967E-09
        91  14  3.841947E+05  5.510433E+02  1.039291E+03 -9.545947E+04  6.941625E-09  6.251524E-10
        91  15  3.843375E+05  1.834790E+03  2.069043E+03 -1.005659E+05 -4.505264E-10  1.146228E-10
        91  16 -3.597470E+05 -1.709828E+05 -1.107347E+05 -1.006323E+05  3.297293E-09 -1.117063E-09
        91  17 -4.291546E+05 -1.907749E+05 -1.421969E+05 -9.493801E+04 -1.391681E-09 -8.770638E-10
        91  18 -5.056750E+05 -2.171698E+05 -2.028514E+05 -9.945726E+04 -1.410227E-09 -9.730472E-10
        91  19  1.129054E+06  1.711664E+05  1.118589E+05 -1.004984E+05  1.433628E+03  4.781763E+04
        91  20  1.198194E+06  1.918429E+05  1.442579E+05 -9.598025E+04  4.482760E+04  3.847641E+04
        91  21  1.275091E+06  2.207863E+05  2.069519E+05 -1.016754E+05  8.824106E+04  1.130146E+04
        91  22  3.843759E+05  1.060823E+02  5.696409E+02 -1.005654E+05  3.919067E+02  4.782301E+04
        91  23  3.841951E+05  5.526328E+02  1.042073E+03 -9.545944E+04  9.117446E+02  3.846749E+04
        91  24  3.843376E+05  1.834927E+03  2.069286E+03 -1.005659E+05  1.444485E+03  1.126757E+04
        91  25 -3.597464E+05 -1.709804E+05 -1.107304E+05 -1.006324E+05 -6.486172E+02  4.782841E+04
        91  26 -4.291522E+05 -1.907728E+05 -1.421907E+05 -9.493934E+04 -4.294832E+04  3.845850E+04
        91  27 -5.056672E+05 -2.171678E+05 -2.028375E+05 -9.945803E+04 -8.522875E+04  1.123334E+04
        92   1  1.380493E+05  7.266883E+05  1.325579E+05 -3.409783E+05  3.792727E+03  1.819673E+04
        92   2  7.982664E+04  4.737870E+05  6.788320E+04 -3.244294E+05  8.647450E+03 -1.022497E+04
        92   3  2.301618E+04  2.249893E+05  2.204349E+04 -3.471629E+05  7.241755E+02 -3.863635E+04
        92   4 -9.905786E+03  1.297653E+05 -1.064970E+04 -3.475481E+05  3.813904E+03 -8.752045E+03
        92   5 -3.275615E+03  1.304325E+05 -4.426023E+03 -3.279023E+05  8.644834E+03 -6.481756E+03
        92   6 -5.543351E+02  1.298218E+05 -6.669605E+02 -3.475424E+05  6.942017E+02 -4.211967E+03
        92   7 -1.578862E+05 -4.668299E+05 -1.538798E+05 -3.541113E+05  3.835666E+03 -3.567504E+04
        92   8 -8.638540E+04 -2.128106E+05 -7.674182E+04 -3.313732E+05  8.642176E+03 -2.740576E+03
        92   9 -2.412487E+04  3.466515E+04 -2.337360E+04 -3.479219E+05  6.641825E+02  3.020716E+04
        92  10  1.380492E+05  7.266879E+05  1.325573E+05 -3.409784E+05  1.219618E-09 -7.279783E-08
        92  11  7.982653E+04  4.737868E+05  6.788286E+04 -3.244293E+05  8.812524E-09  8.255083E-08
        92  12  2.301578E+04  2.249877E+05  2.204069E+04 -3.471629E+05  6.251502E-09  2.314908E-07
        92  13 -9.905822E+03  1.297653E+05 -1.064987E+04 -3.475481E+05  5.622968E-09 -9.811941E-12
        92  14 -3.275707E+03  1.304325E+05 -4.426242E+03 -3.279023E+05  1.513169E-09  2.128014E-10
        92  15 -5.543403E+02  1.298218E+05 -6.669948E+02 -3.475424E+05 -9.479423E-09  1.026379E-10
        92  16 -1.578866E+05 -4.668313E+05 -1.538822E+05 -3.541112E+05 -1.039791E-09  7.250474E-08
        92  17 -8.638549E+04 -2.128106E+05 -7.674197E+04 -3.313732E+05  9.643252E-09 -8.226264E-08
        92  18 -2.412511E+04  3.466417E+04 -2.337531E+04 -3.479219E+05  4.126565E-09 -2.310951E-07
        92  19  1.380493E+05  7.266883E+05  1.325579E+05 -3.409783E+05 -3.792727E+03 -1.819673E+04
        92  20  7.982664E+04  4.737870E+05  6.788320E+04 -3.244294E+05 -8.647450E+03  1.022497E+04
        92  21  2.301618E+04  2.249893E+05  2.204349E+04 -3.471629E+05 -7.241755E+02  3.863635E+04
        92  22 -9.905786E+03  1.297653E+05 -1.064970E+04 -3.475481E+05 -3.813904E+03  8.752045E+03
        92  23 -3.275615E+03  1.304325E+05 -4.426023E+03 -3.279023E+05 -8.644834E+03  6.481756E+03
        92  24 -5.543351E+02  1.298218E+05 -6.669605E+02 -3.475424E+05 -6.942017E+02  4.211967E+03
        92  25 -1.578862E+05 -4.668299E+05 -1.538798E+05 -3.541113E+05 -3.835666E+03  3.567504E+04
        92  26 -8.638540E+04 -2.128106E+05 -7.674182E+04 -3.313732E+05 -8.642176E+03  2.740576E+03
        92  27 -2.412487E+04  3.466515E+04 -2.337360E+04 -3.479219E+05 -6.641825E+02 -3.020716E+04
        93   1 -1.261119E+04  6.962606E+04 -1.147276E+03 -3.472091E+05 -8.326237E+03 -3.949175E+04
        93   2 -6.926614E+04 -1.811015E+05 -3.845228E+04 -3.259744E+05 -2.217343E+04 -3.784896E+04
        93   3 -1.249333E+05 -4.317379E+05 -7.658534E+04 -3.447629E+05 -3.437499E+04 -3.620433E+04
        93   4 -6.501012E+01  1.302652E+05  9.446882E+02 -3.477061E+05 -8.356831E+03 -4.291801E+03
        93   5  1.546825E+03  1.298817E+05  4.600129E+03 -3.276938E+05 -2.219773E+04 -6.605488E+03
        93   6  4.834665E+03  1.302117E+05  1.017088E+04 -3.477028E+05 -3.439348E+04 -8.916714E+03
        93   7  1.248178E+04  1.909111E+05  3.041579E+03 -3.482031E+05 -8.387479E+03  3.091129E+04
        93   8  7.235605E+04  4.409653E+05  4.765508E+04 -3.294141E+05 -2.222219E+04  2.465293E+04
        93   9  1.345877E+05  6.924787E+05  9.692277E+04 -3.506454E+05 -3.441222E+04  1.839467E+04
        93  10 -1.261169E+04  6.962437E+04 -1.150338E+03 -3.472094E+05  1.161935E-08 -1.683773E-07
        93  11 -6.926705E+04 -1.811032E+05 -3.845590E+04 -3.259751E+05  1.388029E-08 -8.598965E-08
        93  12 -1.249349E+05 -4.317396E+05 -7.659003E+04 -3.447639E+05  4.118997E-09  2.861784E-09
        93  13 -6.509010E+01  1.302651E+05  9.445222E+02 -3.477061E+05 -1.645311E-08  1.743504E-11
        93  14  1.546284E+03  1.298816E+05  4.599121E+03 -3.276940E+05 -1.100107E-08  2.468064E-10
        93  15  4.833374E+03  1.302113E+05  1.016851E+04 -3.477031E+05 -4.765594E-09 -1.223951E-11
        93  16  1.248145E+04  1.909100E+05  3.039652E+03 -3.482029E+05  5.948334E-09  1.683084E-07
        93  17  7.235536E+04  4.409645E+05  4.765301E+04 -3.294136E+05  4.688427E-09  8.623040E-08
        93  18  1.345863E+05  6.924780E+05  9.691991E+04 -3.506449E+05 -6.057340E-10 -2.534341E-09
        93  19 -1.261119E+04  6.962606E+04 -1.147276E+03 -3.472091E+05  8.326237E+03  3.949175E+04
        93  20 -6.926614E+04 -1.811015E+05 -3.845228E+04 -3.259744E+05  2.217343E+04  3.784896E+04
        93  21 -1.249333E+05 -4.317379E+05 -7.658534E+04 -3.447629E+05  3.437499E+04  3.620433E+04
        93  22 -6.501012E+01  1.302652E+05  9.446882E+02 -3.477061E+05  8.356831E+03  4.291801E+03
        93  23  1.546825E+03  1.298817E+05  4.600129E+03 -3.276938E+05  2.219773E+04  6.605488E+03
        93  24  4.834665E+03  1.302117E+05  1.017088E+04 -3.477028E+05  3.439348E+04  8.916714E+03
        93  25  1.248178E+04  1.909111E+05  3.041579E+03 -3.482031E+05  8.387479E+03 -3.091129E+04
        93  26  7.235605E+04  4.409653E+05  4.765508E+04 -3.294141E+05  2.222219E+04 -2.465293E+04
        93  27  1.345877E+05  6.924787E+05  9.692277E+04 -3.506454E+05  3.441222E+04 -1.839467E+04
        94   1 -1.600532E+05 -5.868607E+05 -1.002928E+05 -3.450644E+05 -4.176622E+04 -3.612361E+04
        94   2 -2.103847E+05 -8.358545E+05 -1.522476E+05 -3.097299E+05 -3.980673E+04  1.071824E+04
        94   3 -2.507867E+05 -1.088346E+06 -2.322284E+05 -3.126626E+05 -1.265965E+04  5.753358E+04
        94   4  6.544819E+03  1.315551E+05  1.405758E+04 -3.473107E+05 -4.178045E+04 -1.072185E+04
        94   5  1.827128E+04  1.280126E+05  2.663511E+04 -3.281709E+05 -3.978061E+04 -2.426621E+04
        94   6  5.040541E+04  1.313922E+05  5.313521E+04 -3.472892E+05 -1.261372E+04 -3.781705E+04
        94   7  1.731175E+05  8.504860E+05  1.283971E+05 -3.495595E+05 -4.179485E+04  1.470827E+04
        94   8  2.468758E+05  1.092784E+06  2.054835E+05 -3.466409E+05 -3.975245E+04 -5.930360E+04
        94   9  3.515012E+05  1.352525E+06  3.384323E+05 -3.819837E+05 -1.255723E+04 -1.333540E+05
        94  10 -1.600555E+05 -5.868625E+05 -1.002985E+05 -3.450656E+05  4.360792E-09 -6.093826E-08
        94  11 -2.103864E+05 -8.358551E+05 -1.522508E+05 -3.097295E+05  1.027519E-08 -3.458181E-09
        94  12 -2.507877E+05 -1.088350E+06 -2.322349E+05 -3.126621E+05  2.920480E-09  5.353989E-08
        94  13  6.542913E+03  1.315545E+05  1.405408E+04 -3.473111E+05  1.046281E-09 -1.140234E-11
        94  14  1.826942E+04  1.280116E+05  2.663102E+04 -3.281717E+05  4.779618E-09  8.364424E-11
        94  15  5.040486E+04  1.313906E+05  5.313222E+04 -3.472895E+05  6.493341E-09  3.505410E-11
        94  16  1.731155E+05  8.504853E+05  1.283934E+05 -3.495590E+05 -2.460001E-09  6.112980E-08
        94  17  2.468732E+05  1.092780E+06  2.054739E+05 -3.466428E+05  1.258280E-09  3.912725E-09
        94  18  3.514963E+05  1.352506E+06  3.383987E+05 -3.819851E+05 -6.187303E-10 -5.370350E-08
        94  19 -1.600532E+05 -5.868607E+05 -1.002928E+05 -3.450644E+05  4.176622E+04  3.612361E+04
        94  20 -2.103847E+05 -8.358545E+05 -1.522476E+05 -3.097299E+05  3.980673E+04 -1.071824E+04
        94  21 -2.507867E+05 -1.088346E+06 -2.322284E+05 -3.126626E+05  1.265965E+04 -5.753358E+04
        94  22  6.544819E+03  1.315551E+05  1.405758E+04 -3.473107E+05  4.178045E+04  1.072185E+04
        94  23  1.827128E+04  1.280126E+05  2.663511E+04 -3.281709E+05  3.978061E+04  2.426621E+04
        94  24  5.040541E+04  1.313922E+05  5.313521E+04 -3.472892E+05  1.261372E+04  3.781705E+04
        94  25  1.731175E+05  8.504860E+05  1.283971E+05 -3.495595E+05  4.179485E+04 -1.470827E+04
        94  26  2.468758E+05  1.092784E+06  2.054835E+05 -3.466409E+05  3.975245E+04  5.930360E+04
        94  27  3.515012E+05  1.352525E+06  3.384323E+05 -3.819837E+05  1.255723E+04  1.333540E+05
        95   1 -2.960968E+05 -1.740523E+05 -1.186288E+05 -1.179820E+05 -5.398783E+04 -1.692712E+04
        95   2 -2.752441E+05 -1.023881E+05 -7.031269E+04 -1.100553E+05 -3.418068E+04 -2.287856E+03
        95   3 -2.685970E+05 -7.989475E+04 -5.048831E+04 -9.724164E+04 -1.222188E+04  6.621163E+03
        95   4 -1.163090E+05 -7.903315E+04 -6.603644E+04 -4.059713E+04 -4.347254E+04 -1.298501E+04
        95   5 -1.062310E+05 -2.934007E+04 -2.943436E+04 -5.270209E+04 -3.022718E+04 -8.057220E+02
        95   6 -1.090539E+05 -2.751216E+04 -1.611991E+04 -5.992231E+04 -1.483105E+04  5.642435E+03
        95   7  6.351051E+04  1.599777E+04 -1.344715E+04  3.681032E+04 -3.295405E+04 -9.040533E+03
        95   8  6.281060E+04  4.371285E+04  1.144180E+04  4.666264E+03 -2.627252E+04  6.770134E+02
        95   9  5.051557E+04  2.487140E+04  1.824725E+04 -2.259458E+04 -1.744096E+04  4.663499E+03
        95  10 -2.961000E+05 -1.740534E+05 -1.186349E+05 -1.179827E+05 -1.306133E-09  6.783541E-10
        95  11 -2.752454E+05 -1.023884E+05 -7.031490E+04 -1.100554E+05 -3.089892E-11  3.744634E-09
        95  12 -2.685972E+05 -7.989484E+04 -5.048868E+04 -9.724158E+04  2.037363E-10  2.814279E-09
        95  13 -1.163110E+05 -7.903384E+04 -6.604031E+04 -4.059758E+04 -1.624442E-10  5.937311E-10
        95  14 -1.062319E+05 -2.934032E+04 -2.943608E+04 -5.270211E+04  3.481849E-09  2.389451E-09
        95  15 -1.090541E+05 -2.751225E+04 -1.612038E+04 -5.992224E+04  6.359034E-10  3.149601E-09
        95  16  6.350932E+04  1.599739E+04 -1.344934E+04  3.681008E+04  7.332566E-09  5.594782E-10
        95  17  6.280986E+04  4.371266E+04  1.144050E+04  4.666278E+03  4.845217E-09  7.795915E-10
        95  18  5.051524E+04  2.487129E+04  1.824663E+04 -2.259452E+04  3.182679E-10  3.579928E-09
        95  19 -2.960968E+05 -1.740523E+05 -1.186288E+05 -1.179820E+05  5.398783E+04  1.692712E+04
        95  20 -2.752441E+05 -1.023881E+05 -7.031269E+04 -1.100553E+05  3.418068E+04  2.287856E+03
        95  21 -2.685970E+05 -7.989475E+04 -5.048831E+04 -9.724164E+04  1.222188E+04 -6.621163E+03
        95  22 -1.163090E+05 -7.903315E+04 -6.603644E+04 -4.059713E+04  4.347254E+04  1.298501E+04
        95  23 -1.062310E+05 -2.934007E+04 -2.943436E+04 -5.270209E+04  3.022718E+04  8.057220E+02
        95  24 -1.090539E+05 -2.751216E+04 -1.611991E+04 -5.992231E+04  1.483105E+04 -5.642435E+03
        95  25  6.351051E+04  1.599777E+04 -1.344715E+04  3.681032E+04  3.295405E+04  9.040533E+03
        95  26  6.281060E+04  4.371285E+04  1.144180E+04  4.666264E+03  2.627252E+04 -6.770134E+02
        95  27  5.051557E+04  2.487140E+04  1.824725E+04 -2.259458E+04  1.744096E+04 -4.663499E+03
        96   1 -2.448151E+05 -8.237783E+04 -4.334111E+04 -9.637265E+04 -1.130667E+04  5.615224E+03
        96   2 -2.248126E+05 -6.893163E+04 -3.220152E+04 -8.726117E+04 -7.220692E+03  5.840103E+03
        96   3 -2.006610E+05 -6.289520E+04 -2.432123E+04 -8.393803E+04 -3.023990E+03  5.769596E+03
        96   4 -1.069881E+05 -3.086400E+04 -1.252456E+04 -5.765828E+04 -1.245208E+04  5.185458E+03
        96   5 -1.089434E+05 -2.611285E+04 -6.580639E+03 -5.516857E+04 -8.703813E+03  5.283801E+03
        96   6 -1.066828E+05 -2.870430E+04 -3.627863E+03 -5.846744E+04 -4.844952E+03  5.086732E+03
        96   7  3.085718E+04  2.065108E+04  1.829054E+04 -1.893624E+04 -1.359775E+04  4.755589E+03
        96   8  6.939337E+03  1.670700E+04  1.903942E+04 -2.307048E+04 -1.018723E+04  4.727386E+03
        96   9 -1.269503E+04  5.487454E+03  1.706515E+04 -3.299317E+04 -6.666224E+03  4.403755E+03
        96  10 -2.448152E+05 -8.237789E+04 -4.334141E+04 -9.637260E+04 -2.906225E-09  2.307108E-09
        96  11 -2.248127E+05 -6.893168E+04 -3.220168E+04 -8.726114E+04 -6.006142E-10  8.039953E-10
        96  12 -2.006610E+05 -6.289523E+04 -2.432131E+04 -8.393802E+04 -2.679944E-09  7.429347E-10
        96  13 -1.069882E+05 -3.086407E+04 -1.252490E+04 -5.765823E+04 -9.460791E-09  2.412926E-09
        96  14 -1.089435E+05 -2.611290E+04 -6.580834E+03 -5.516854E+04 -8.383311E-09 -2.905968E-10
        96  15 -1.066828E+05 -2.870434E+04 -3.627956E+03 -5.846742E+04  8.631833E-10 -2.414794E-09
        96  16  3.085697E+04  2.065101E+04  1.829015E+04 -1.893619E+04 -5.134159E-09  2.346858E-09
        96  17  6.939219E+03  1.670695E+04  1.903918E+04 -2.307044E+04  1.997981E-09 -1.457895E-09
        96  18 -1.269508E+04  5.487421E+03  1.706503E+04 -3.299314E+04  6.041910E-09 -5.571320E-09
        96  19 -2.448151E+05 -8.237783E+04 -4.334111E+04 -9.637265E+04  1.130667E+04 -5.615224E+03
        96  20 -2.248126E+05 -6.893163E+04 -3.220152E+04 -8.726117E+04  7.220692E+03 -5.840103E+03
        96  21 -2.006610E+05 -6.289520E+04 -2.432123E+04 -8.393803E+04  3.023990E+03 -5.769596E+03
        96  22 -1.069881E+05 -3.086400E+04 -1.252456E+04 -5.765828E+04  1.245208E+04 -5.185458E+03
        96  23 -1.089434E+05 -2.611285E+04 -6.580639E+03 -5.516857E+04  8.703813E+03 -5.283801E+03
        96  24 -1.066828E+05 -2.870430E+04 -3.627863E+03 -5.846744E+04  4.844952E+03 -5.086732E+03
        96  25  3.085718E+04  2.065108E+04  1.829054E+04 -1.893624E+04  1.359775E+04 -4.755589E+03
        96  26  6.939337E+03  1.670700E+04  1.903942E+04 -2.307048E+04  1.018723E+04 -4.727386E+03
        96  27 -1.269503E+04  5.487454E+03  1.706515E+04 -3.299317E+04  6.666224E+03 -4.403755E+03
        97   1 -1.839110E+05 -5.723105E+04 -1.970218E+04 -7.959530E+04 -2.243324E+03  5.015646E+03
        97   2 -1.641728E+05 -4.625616E+04 -1.360575E+04 -7.037047E+04 -9.004917E+02  3.772523E+03
        97   3 -1.391877E+05 -4.076651E+04 -8.105157E+03 -6.732272E+04  4.480028E+02  2.514001E+03
        97   4 -1.065296E+05 -2.884107E+04 -2.739596E+03 -5.834706E+04 -3.989228E+03  4.360979E+03
        97   5 -1.091496E+05 -2.606818E+04 -1.505326E+03 -5.527031E+04 -2.663943E+03  3.111336E+03
        97   6 -1.065197E+05 -2.877696E+04 -8.528960E+02 -5.837071E+04 -1.333029E+03  1.846289E+03
        97   7 -2.914205E+04 -4.506334E+02  1.422263E+04 -3.709640E+04 -5.735367E+03  3.706224E+03
        97   8 -5.412350E+04 -5.880041E+03  1.059487E+04 -4.016897E+04 -4.427557E+03  2.450090E+03
        97   9 -7.385080E+04 -1.678742E+04  6.399250E+03 -4.941833E+04 -3.114151E+03  1.178544E+03
        97  10 -1.839111E+05 -5.723107E+04 -1.970224E+04 -7.959529E+04  6.441654E-09 -1.343114E-09
        97  11 -1.641728E+05 -4.625617E+04 -1.360577E+04 -7.037047E+04  9.781396E-09 -2.643627E-09
        97  12 -1.391877E+05 -4.076651E+04 -8.105169E+03 -6.732272E+04  3.754707E-09  7.944923E-10
        97  13 -1.065296E+05 -2.884109E+04 -2.739661E+03 -5.834705E+04  5.100751E-09 -2.335101E-09
        97  14 -1.091496E+05 -2.606819E+04 -1.505358E+03 -5.527030E+04  1.347916E-10 -4.330237E-10
        97  15 -1.065197E+05 -2.877697E+04 -8.529058E+02 -5.837071E+04  3.871220E-10  1.983012E-09
        97  16 -2.914209E+04 -4.506570E+02  1.422255E+04 -3.709638E+04  8.057631E-09 -3.385937E-09
        97  17 -5.412352E+04 -5.880053E+03  1.059482E+04 -4.016896E+04  2.614752E-10  2.007611E-09
        97  18 -7.385081E+04 -1.678742E+04  6.399229E+03 -4.941833E+04  3.348250E-10  3.205513E-09
        97  19 -1.839110E+05 -5.723105E+04 -1.970218E+04 -7.959530E+04  2.243324E+03 -5.015646E+03
        97  20 -1.641728E+05 -4.625616E+04 -1.360575E+04 -7.037047E+04  9.004917E+02 -3.772523E+03
        97  21 -1.391877E+05 -4.076651E+04 -8.105157E+03 -6.732272E+04 -4.480028E+02 -2.514001E+03
        97  22 -1.065296E+05 -2.884107E+04 -2.739596E+03 -5.834706E+04  3.989228E+03 -4.360979E+03
        97  23 -1.091496E+05 -2.606818E+04 -1.505326E+03 -5.527031E+04  2.663943E+03 -3.111336E+03
        97  24 -1.065197E+05 -2.877696E+04 -8.528960E+02 -5.837071E+04  1.333029E+03 -1.846289E+03
        97  25 -2.914205E+04 -4.506334E+02  1.422263E+04 -3.709640E+04  5.735367E+03 -3.706224E+03
        97  26 -5.412350E+04 -5.880041E+03  1.059487E+04 -4.016897E+04  4.427557E+03 -2.450090E+03
        97  27 -7.385080E+04 -1.678742E+04  6.399250E+03 -4.941833E+04  3.114151E+03 -1.178544E+03
        98   1 -1.228007E+05 -3.473947E+04 -4.169741E+03 -6.283057E+04  9.086890E+02  1.655342E+03
        98   2 -1.031197E+05 -2.384319E+04  9.159218E+02 -5.358794E+04  1.699603E+03  1.824412E+02
        98   3 -7.808604E+04 -1.833659E+04  5.844806E+03 -5.052080E+04  2.490785E+03 -1.291144E+03
        98   4 -1.065003E+05 -2.878027E+04 -6.589616E+02 -5.836148E+04 -8.685752E+02  9.890584E+02
        98   5 -1.091765E+05 -2.608708E+04 -4.186741E+02 -5.527292E+04 -7.848994E+01 -4.841648E+02
        98   6 -1.065008E+05 -2.878364E+04 -3.346425E+02 -5.836021E+04  7.118538E+02 -1.958071E+03
        98   7 -9.019949E+04 -2.282101E+04  2.851846E+03 -5.389225E+04 -2.645902E+03  3.227518E+02
        98   8 -1.152332E+05 -2.833097E+04 -1.753265E+03 -5.695789E+04 -1.856570E+03 -1.150766E+03
        98   9 -1.349147E+05 -3.923064E+04 -6.514127E+03 -6.619929E+04 -1.066990E+03 -2.624966E+03
        98  10 -1.228007E+05 -3.473947E+04 -4.169747E+03 -6.283057E+04  2.726636E-09  3.094251E-09
        98  11 -1.031197E+05 -2.384319E+04  9.159163E+02 -5.358794E+04  8.893998E-09  1.757291E-10
        98  12 -7.808605E+04 -1.833659E+04  5.844791E+03 -5.052080E+04  2.018088E-08 -1.952248E-09
        98  13 -1.065003E+05 -2.878028E+04 -6.589649E+02 -5.836148E+04 -8.087720E-10  2.425848E-09
        98  14 -1.091765E+05 -2.608708E+04 -4.186746E+02 -5.527292E+04  2.428098E-11  1.667430E-10
        98  15 -1.065008E+05 -2.878365E+04 -3.346506E+02 -5.836021E+04  2.059948E-09 -4.325081E-09
        98  16 -9.019950E+04 -2.282102E+04  2.851833E+03 -5.389225E+04 -4.330428E-09  1.854111E-09
        98  17 -1.152332E+05 -2.833097E+04 -1.753274E+03 -5.695789E+04 -3.539170E-09 -2.780138E-10
        98  18 -1.349147E+05 -3.923065E+04 -6.514142E+03 -6.619929E+04 -7.978123E-09 -6.721371E-09
        98  19 -1.228007E+05 -3.473947E+04 -4.169741E+03 -6.283057E+04 -9.086890E+02 -1.655342E+03
        98  20 -1.031197E+05 -2.384319E+04  9.159218E+02 -5.358794E+04 -1.699603E+03 -1.824412E+02
        98  21 -7.808604E+04 -1.833659E+04  5.844806E+03 -5.052080E+04 -2.490785E+03  1.291144E+03
        98  22 -1.065003E+05 -2.878027E+04 -6.589616E+02 -5.836148E+04  8.685752E+02 -9.890584E+02
        98  23 -1.091765E+05 -2.608708E+04 -4.186741E+02 -5.527292E+04  7.848994E+01  4.841648E+02
        98  24 -1.065008E+05 -2.878364E+04 -3.346425E+02 -5.836021E+04 -7.118538E+02  1.958071E+03
        98  25 -9.019949E+04 -2.282101E+04  2.851846E+03 -5.389225E+04  2.645902E+03 -3.227518E+02
        98  26 -1.152332E+05 -2.833097E+04 -1.753265E+03 -5.695789E+04  1.856570E+03  1.150766E+03
        98  27 -1.349147E+05 -3.923064E+04 -6.514127E+03 -6.619929E+04  1.066990E+03  2.624966E+03
        99   1 -6.173133E+04 -1.229601E+04  9.582825E+03 -4.602541E+04  2.885633E+03 -2.173646E+03
        99   2 -4.205363E+04 -1.399017E+03  1.432676E+04 -3.678436E+04  3.684008E+03 -3.644126E+03
        99   3 -1.702515E+04  4.108908E+03  1.890847E+04 -3.371754E+04  4.482023E+03 -5.113324E+03
        99   4 -1.065016E+05 -2.878369E+04 -3.380339E+02 -5.836002E+04  1.106731E+03 -2.840585E+03
        99   5 -1.091769E+05 -2.608869E+04 -4.377328E+02 -5.527310E+04  1.906492E+03 -4.310616E+03
        99   6 -1.065023E+05 -2.878306E+04 -7.007358E+02 -5.836058E+04  2.705890E+03 -5.779371E+03
        99   7 -1.512695E+05 -4.527109E+04 -1.025892E+04 -7.069373E+04 -6.720218E+02 -3.507468E+03
        99   8 -1.762957E+05 -5.077802E+04 -1.520249E+04 -7.376000E+04  1.291848E+02 -4.977029E+03
        99   9 -1.959719E+05 -6.167463E+04 -2.031058E+04 -8.300053E+04  9.300213E+02 -6.445319E+03
        99  10 -6.173134E+04 -1.229602E+04  9.582801E+03 -4.602541E+04  8.528153E-09 -4.608706E-09
        99  11 -4.205365E+04 -1.399035E+03  1.432671E+04 -3.678435E+04  2.159558E-08  7.386503E-09
        99  12 -1.702518E+04  4.108875E+03  1.890839E+04 -3.371752E+04  2.823205E-08  1.290158E-08
        99  13 -1.065016E+05 -2.878369E+04 -3.380513E+02 -5.836002E+04  1.410504E-08 -2.919254E-09
        99  14 -1.091769E+05 -2.608871E+04 -4.377746E+02 -5.527309E+04  9.339272E-09  6.195515E-09
        99  15 -1.065023E+05 -2.878310E+04 -7.008123E+02 -5.836057E+04  1.239978E-08  1.339723E-08
        99  16 -1.512695E+05 -4.527110E+04 -1.025895E+04 -7.069373E+04  2.411832E-09 -3.631626E-09
        99  17 -1.762957E+05 -5.077804E+04 -1.520253E+04 -7.376000E+04 -9.522918E-09 -4.895746E-09
        99  18 -1.959719E+05 -6.167468E+04 -2.031066E+04 -8.300053E+04 -1.133399E-08 -3.782256E-09
        99  19 -6.173133E+04 -1.229601E+04  9.582825E+03 -4.602541E+04 -2.885633E+03  2.173646E+03
        99  20 -4.205363E+04 -1.399017E+03  1.432676E+04 -3.678436E+04 -3.684008E+03  3.644126E+03
        99  21 -1.702515E+04  4.108908E+03  1.890847E+04 -3.371754E+04 -4.482023E+03  5.113324E+03
        99  22 -1.065016E+05 -2.878369E+04 -3.380339E+02 -5.836002E+04 -1.106731E+03  2.840585E+03
        99  23 -1.091769E+05 -2.608869E+04 -4.377328E+02 -5.527310E+04 -1.906492E+03  4.310616E+03
        99  24 -1.065023E+05 -2.878306E+04 -7.007358E+02 -5.836058E+04 -2.705890E+03  5.779371E+03
        99  25 -1.512695E+05 -4.527109E+04 -1.025892E+04 -7.069373E+04  6.720218E+02  3.507468E+03
        99  26 -1.762957E+05 -5.077802E+04 -1.520249E+04 -7.376000E+04 -1.291848E+02  4.977029E+03
        99  27 -1.959719E+05 -6.167463E+04 -2.031058E+04 -8.300053E+04 -9.300213E+02  6.445319E+03
       100   1 -6.860769E+02  1.014016E+04  2.243806E+04 -2.924501E+04  4.959668E+03 -5.965346E+03
       100   2  1.902973E+04  2.104327E+04  2.658210E+04 -1.999782E+04  6.319324E+03 -7.216048E+03
       100   3  4.398926E+04  2.646432E+04  3.012180E+04 -1.692333E+04  7.671352E+03 -8.445733E+03
       100   4 -1.065243E+05 -2.877967E+04 -9.104015E+02 -5.837003E+04  3.178625E+03 -6.633301E+03
       100   5 -1.091498E+05 -2.607204E+04 -1.612553E+03 -5.527059E+04  4.562131E+03 -7.875198E+03
       100   6 -1.065366E+05 -2.885133E+04 -2.937982E+03 -5.834414E+04  5.937975E+03 -9.096083E+03
       100   7 -2.123512E+05 -6.769862E+04 -2.425953E+04 -8.749050E+04  1.397910E+03 -7.301133E+03
       100   8 -2.373122E+05 -7.318591E+04 -2.980807E+04 -9.053656E+04  2.805336E+03 -8.534198E+03
       100   9 -2.570386E+05 -8.416485E+04 -3.599884E+04 -9.975548E+04  4.205064E+03 -9.746259E+03
       100  10 -6.861129E+02  1.014011E+04  2.243795E+04 -2.924498E+04 -5.293912E-09 -3.340207E-09
       100  11  1.902968E+04  2.104320E+04  2.658193E+04 -1.999779E+04 -7.526374E-09 -7.763410E-09
       100  12  4.398918E+04  2.646423E+04  3.012155E+04 -1.692328E+04 -1.714568E-09 -5.333792E-09
       100  13 -1.065243E+05 -2.877972E+04 -9.105032E+02 -5.837001E+04  1.318451E-08  1.225367E-08
       100  14 -1.091498E+05 -2.607212E+04 -1.612708E+03 -5.527056E+04 -5.115209E-09  4.135873E-09
       100  15 -1.065367E+05 -2.885143E+04 -2.938204E+03 -5.834410E+04  2.019518E-09 -2.389455E-09
       100  16 -2.123512E+05 -6.769868E+04 -2.425963E+04 -8.749049E+04  1.561257E-08  1.050130E-08
       100  17 -2.373123E+05 -7.318599E+04 -2.980822E+04 -9.053654E+04  1.674565E-08  6.276663E-09
       100  18 -2.570386E+05 -8.416495E+04 -3.599905E+04 -9.975545E+04  1.392917E-09 -1.563262E-09
       100  19 -6.860769E+02  1.014016E+04  2.243806E+04 -2.924501E+04 -4.959668E+03  5.965346E+03
       100  20  1.902973E+04  2.104327E+04  2.658210E+04 -1.999782E+04 -6.319324E+03  7.216048E+03
       100  21  4.398926E+04  2.646432E+04  3.012180E+04 -1.692333E+04 -7.671352E+03  8.445733E+03
       100  22 -1.065243E+05 -2.877967E+04 -9.104015E+02 -5.837003E+04 -3.178625E+03  6.633301E+03
       100  23 -1.091498E+05 -2.607204E+04 -1.612553E+03 -5.527059E+04 -4.562131E+03  7.875198E+03
       100  24 -1.065366E+05 -2.885133E+04 -2.937982E+03 -5.834414E+04 -5.937975E+03  9.096083E+03
       100  25 -2.123512E+05 -6.769862E+04 -2.425953E+04 -8.749050E+04 -1.397910E+03  7.301133E+03
       100  26 -2.373122E+05 -7.318591E+04 -2.980807E+04 -9.053656E+04 -2.805336E+03  8.534198E+03
       100  27 -2.570386E+05 -8.416485E+04 -3.599884E+04 -9.975548E+04 -4.205064E+03  9.746259E+03
       101   1  6.042864E+04  3.239363E+04  3.289263E+04 -1.284591E+04  8.667424E+03 -9.123533E+03
       101   2  8.002863E+04  4.362790E+04  3.467560E+04 -2.885312E+03  1.229608E+04 -9.360172E+03
       101   3  1.038453E+05  4.747877E+04  3.361340E+04  1.329302E+03  1.577536E+04 -9.197280E+03
       101   4 -1.067017E+05 -2.870339E+04 -3.890957E+03 -5.847086E+04  6.832636E+03 -9.812021E+03
       101   5 -1.089290E+05 -2.612555E+04 -7.059657E+03 -5.516330E+04  1.091800E+04 -9.877543E+03
       101   6 -1.070314E+05 -3.102252E+04 -1.343618E+04 -5.760231E+04  1.485383E+04 -9.543518E+03
       101   7 -2.738049E+05 -8.979877E+04 -4.067655E+04 -1.040849E+05  4.998371E+03 -1.050032E+04
       101   8 -2.978513E+05 -9.587644E+04 -4.879729E+04 -1.074269E+05  9.540364E+03 -1.039474E+04
       101   9 -3.178633E+05 -1.095202E+05 -6.048857E+04 -1.165155E+05  1.393264E+04 -9.889627E+03
       101  10  6.042854E+04  3.239352E+04  3.289233E+04 -1.284585E+04  4.454360E-11 -4.402634E-09
       101  11  8.002844E+04  4.362777E+04  3.467515E+04 -2.885220E+03 -1.290884E-09 -4.515441E-09
       101  12  1.038451E+05  4.747861E+04  3.361277E+04  1.329419E+03 -1.418707E-08 -6.007758E-09
       101  13 -1.067017E+05 -2.870351E+04 -3.891225E+03 -5.847080E+04  1.455197E-09 -2.881134E-09
       101  14 -1.089292E+05 -2.612569E+04 -7.060064E+03 -5.516321E+04  1.093469E-08 -2.199599E-10
       101  15 -1.070316E+05 -3.102268E+04 -1.343677E+04 -5.760219E+04 -1.900148E-09 -5.697810E-10
       101  16 -2.738049E+05 -8.979889E+04 -4.067680E+04 -1.040849E+05  6.042168E-09 -1.030950E-09
       101  17 -2.978514E+05 -9.587658E+04 -4.879766E+04 -1.074268E+05  1.001006E-08  4.256688E-09
       101  18 -3.178635E+05 -1.095203E+05 -6.048912E+04 -1.165154E+05  1.187667E-08  4.917623E-09
       101  19  6.042864E+04  3.239363E+04  3.289263E+04 -1.284591E+04 -8.667424E+03  9.123533E+03
       101  20  8.002863E+04  4.362790E+04  3.467560E+04 -2.885312E+03 -1.229608E+04  9.360172E+03
       101  21  1.038453E+05  4.747877E+04  3.361340E+04  1.329302E+03 -1.577536E+04  9.197280E+03
       101  22 -1.067017E+05 -2.870339E+04 -3.890957E+03 -5.847086E+04 -6.832636E+03  9.812021E+03
       101  23 -1.089290E+05 -2.612555E+04 -7.059657E+03 -5.516330E+04 -1.091800E+04  9.877543E+03
       101  24 -1.070314E+05 -3.102252E+04 -1.343618E+04 -5.760231E+04 -1.485383E+04  9.543518E+03
       101  25 -2.738049E+05 -8.979877E+04 -4.067655E+04 -1.040849E+05 -4.998371E+03  1.050032E+04
       101  26 -2.978513E+05 -9.587644E+04 -4.879729E+04 -1.074269E+05 -9.540364E+03  1.039474E+04
       101  27 -3.178633E+05 -1.095202E+05 -6.048857E+04 -1.165155E+05 -1.393264E+04  9.889627E+03
       102   1  1.237597E+05  5.158088E+04  3.323749E+04 -2.887513E+03  2.031126E+04 -8.955701E+03
       102   2  1.353730E+05  7.099758E+04  2.604297E+04  2.556124E+04  2.768732E+04 -4.652234E+03
       102   3  1.344477E+05  4.130772E+04  9.022180E+02  5.979057E+04  3.215593E+04  7.397078E+03
       102   4 -1.092607E+05 -2.741414E+04 -1.729323E+04 -6.001540E+04  1.741039E+04 -1.004460E+04
       102   5 -1.060054E+05 -2.960643E+04 -3.157768E+04 -5.253711E+04  3.365950E+04 -2.411661E+03
       102   6 -1.170539E+05 -8.267548E+04 -7.084344E+04 -3.927745E+04  4.700013E+04  1.296783E+04
       102   7 -3.422261E+05 -1.064069E+05 -6.782702E+04 -1.171245E+05  1.451070E+04 -1.113314E+04
       102   8 -3.473225E+05 -1.302006E+05 -8.920165E+04 -1.306053E+05  3.962910E+04 -1.723280E+02
       102   9 -3.684865E+05 -2.066375E+05 -1.425926E+05 -1.383027E+05  6.183748E+04  1.853423E+04
       102  10  1.237592E+05  5.158069E+04  3.323656E+04 -2.887367E+03  1.095509E-08  6.583225E-09
       102  11  1.353722E+05  7.099736E+04  2.604149E+04  2.556135E+04  5.350237E-09  6.657501E-09
       102  12  1.344465E+05  4.130738E+04  9.001726E+02  5.979038E+04 -3.897827E-09  1.323921E-09
       102  13 -1.092611E+05 -2.741433E+04 -1.729399E+04 -6.001526E+04  9.080095E-09 -9.081674E-11
       102  14 -1.060066E+05 -2.960675E+04 -3.157982E+04 -5.253705E+04 -3.377717E-09  2.497990E-09
       102  15 -1.170564E+05 -8.267626E+04 -7.084791E+04 -3.927794E+04 -5.252491E-09  1.520137E-09
       102  16 -3.422264E+05 -1.064071E+05 -6.782764E+04 -1.171244E+05 -1.236043E-08 -6.207738E-09
       102  17 -3.473242E+05 -1.302010E+05 -8.920460E+04 -1.306053E+05 -1.160051E-08 -1.088850E-09
       102  18 -3.684907E+05 -2.066389E+05 -1.426004E+05 -1.383036E+05 -1.823370E-09  5.306355E-10
       102  19  1.237597E+05  5.158088E+04  3.323749E+04 -2.887513E+03 -2.031126E+04  8.955701E+03
       102  20  1.353730E+05  7.099758E+04  2.604297E+04  2.556124E+04 -2.768732E+04  4.652234E+03
       102  21  1.344477E+05  4.130772E+04  9.022180E+02  5.979057E+04 -3.215593E+04 -7.397078E+03
       102  22 -1.092607E+05 -2.741414E+04 -1.729323E+04 -6.001540E+04 -1.741039E+04  1.004460E+04
       102  23 -1.060054E+05 -2.960643E+04 -3.157768E+04 -5.253711E+04 -3.365950E+04  2.411661E+03
       102  24 -1.170539E+05 -8.267548E+04 -7.084344E+04 -3.927745E+04 -4.700013E+04 -1.296783E+04
       102  25 -3.422261E+05 -1.064069E+05 -6.782702E+04 -1.171245E+05 -1.451070E+04  1.113314E+04
       102  26 -3.473225E+05 -1.302006E+05 -8.920165E+04 -1.306053E+05 -3.962910E+04  1.723280E+02
       102  27 -3.684865E+05 -2.066375E+05 -1.425926E+05 -1.383027E+05 -6.183748E+04 -1.853423E+04
       103   1  9.933216E+05  1.685951E+05  1.500333E+05  1.315525E+04  3.711604E+04 -1.307539E+04
       103   2  9.495343E+05  1.912511E+05  1.300849E+05  2.970244E+04  1.332393E+04 -4.488329E+04
       103   3  9.031392E+05  1.908786E+05  1.198796E+05  5.343278E+04 -1.047618E+04 -5.621102E+04
       103   4  6.494647E+04 -5.993372E+04 -6.512143E+04  5.173264E+04 -4.566262E+04 -1.313451E+04
       103   5  6.976731E+04 -1.701400E+04 -3.219661E+04  4.811484E+04 -2.910528E+04 -4.492482E+04
       103   6  6.496902E+04 -4.144083E+03 -1.753719E+04  5.167988E+04 -1.255789E+04 -5.622010E+04
       103   7 -8.626155E+05 -2.885138E+05 -2.803074E+05  9.025184E+04 -1.283185E+05 -1.320395E+04
       103   8 -8.092453E+05 -2.253210E+05 -1.945033E+05  6.650032E+04 -7.147599E+04 -4.496889E+04
       103   9 -7.725063E+05 -1.992027E+05 -1.549743E+05  4.992923E+04 -1.463687E+04 -5.622918E+04
       103  10  9.933200E+05  1.685946E+05  1.500304E+05  1.315564E+04  5.266759E-09 -1.611484E-09
       103  11  9.495336E+05  1.912489E+05  1.300808E+05  2.970293E+04  3.299480E-10 -4.659191E-09
       103  12  9.031382E+05  1.908751E+05  1.198735E+05  5.343230E+04  7.732390E-10 -1.669077E-09
       103  13  6.494418E+04 -5.993446E+04 -6.512567E+04  5.173216E+04 -4.283209E-09 -8.453752E-11
       103  14  6.976586E+04 -1.701640E+04 -3.220200E+04  4.811379E+04 -4.306525E-09 -2.567308E-09
       103  15  6.496800E+04 -4.147519E+03 -1.754343E+04  5.167931E+04  1.241419E-11 -4.563526E-11
       103  16 -8.626332E+05 -2.885185E+05 -2.803387E+05  9.025048E+04 -5.511866E-09  1.841080E-10
       103  17 -8.092513E+05 -2.253245E+05 -1.945167E+05  6.649773E+04 -4.465299E-09 -2.317214E-09
       103  18 -7.725074E+05 -1.992062E+05 -1.549806E+05  4.992857E+04 -5.913413E-09 -2.596591E-09
       103  19  9.933216E+05  1.685951E+05  1.500333E+05  1.315525E+04 -3.711604E+04  1.307539E+04
       103  20  9.495343E+05  1.912511E+05  1.300849E+05  2.970244E+04 -1.332393E+04  4.488329E+04
       103  21  9.031392E+05  1.908786E+05  1.198796E+05  5.343278E+04  1.047618E+04  5.621102E+04
       103  22  6.494647E+04 -5.993372E+04 -6.512143E+04  5.173264E+04  4.566262E+04  1.313451E+04
       103  23  6.976731E+04 -1.701400E+04 -3.219661E+04  4.811484E+04  2.910528E+04  4.492482E+04
       103  24  6.496902E+04 -4.144083E+03 -1.753719E+04  5.167988E+04  1.255789E+04  5.622010E+04
       103  25 -8.626155E+05 -2.885138E+05 -2.803074E+05  9.025184E+04  1.283185E+05  1.320395E+04
       103  26 -8.092453E+05 -2.253210E+05 -1.945033E+05  6.650032E+04  7.147599E+04  4.496889E+04
       103  27 -7.725063E+05 -1.992027E+05 -1.549743E+05  4.992923E+04  1.463687E+04  5.622918E+04
       104   1  8.754369E+05  1.839884E+05  1.168534E+05  5.087994E+04 -7.460847E+03 -5.616311E+04
       104   2  8.306447E+05  1.754067E+05  1.111281E+05  4.768034E+04 -8.247928E+03 -5.648514E+04
       104   3  7.856578E+05  1.655414E+05  1.056024E+05  5.308458E+04 -9.038339E+03 -5.457127E+04
       104   4  6.690188E+04 -3.637138E+03 -1.321831E+04  5.199988E+04 -1.028625E+04 -5.617301E+04
       104   5  6.739331E+04 -8.299665E+02 -7.223872E+03  4.769532E+04 -6.671607E+03 -5.648991E+04
       104   6  6.692431E+04 -7.114412E+01 -4.086154E+03  5.199529E+04 -3.060263E+03 -5.456949E+04
       104   7 -7.409846E+05 -1.912956E+05 -1.433075E+05  5.311812E+04 -1.310811E+04 -5.618294E+04
       104   8 -6.952768E+05 -1.770951E+05 -1.255893E+05  4.771009E+04 -5.097144E+03 -5.649468E+04
       104   9 -6.512924E+05 -1.657085E+05 -1.137857E+05  5.090713E+04  2.911170E+03 -5.456773E+04
       104  10  8.754360E+05  1.839850E+05  1.168474E+05  5.087960E+04  8.095619E-08 -6.981084E-10
       104  11  8.306437E+05  1.754033E+05  1.111220E+05  4.767997E+04 -6.159557E-09  6.271552E-10
       104  12  7.856569E+05  1.655382E+05  1.055967E+05  5.308418E+04 -1.000578E-07 -1.345492E-09
       104  13  6.690092E+04 -3.640555E+03 -1.322444E+04  5.199941E+04 -8.595473E-09  1.689595E-09
       104  14  6.739241E+04 -8.334053E+02 -7.229953E+03  4.769501E+04  3.555861E-11  9.531200E-09
       104  15  6.692350E+04 -7.434439E+01 -4.091768E+03  5.199515E+04  5.332148E-09  1.203650E-08
       104  16 -7.409856E+05 -1.912991E+05 -1.433138E+05  5.311753E+04 -8.884660E-08  2.311920E-10
       104  17 -6.952776E+05 -1.770985E+05 -1.255953E+05  4.770986E+04  3.012243E-09 -1.869343E-10
       104  18 -6.512932E+05 -1.657117E+05 -1.137913E+05  5.090725E+04  1.022130E-07 -5.505594E-09
       104  19  8.754369E+05  1.839884E+05  1.168534E+05  5.087994E+04  7.460847E+03  5.616311E+04
       104  20  8.306447E+05  1.754067E+05  1.111281E+05  4.768034E+04  8.247928E+03  5.648514E+04
       104  21  7.856578E+05  1.655414E+05  1.056024E+05  5.308458E+04  9.038339E+03  5.457127E+04
       104  22  6.690188E+04 -3.637138E+03 -1.321831E+04  5.199988E+04  1.028625E+04  5.617301E+04
       104  23  6.739331E+04 -8.299665E+02 -7.223872E+03  4.769532E+04  6.671607E+03  5.648991E+04
       104  24  6.692431E+04 -7.114412E+01 -4.086154E+03  5.199529E+04  3.060263E+03  5.456949E+04
       104  25 -7.409846E+05 -1.912956E+05 -1.433075E+05  5.311812E+04  1.310811E+04  5.618294E+04
       104  26 -6.952768E+05 -1.770951E+05 -1.255893E+05  4.771009E+04  5.097144E+03  5.649468E+04
       104  27 -6.512924E+05 -1.657085E+05 -1.137857E+05  5.090713E+04 -2.911170E+03  5.456773E+04
       105   1  7.573004E+05  1.588946E+05  1.018192E+05  5.286519E+04 -8.338625E+03 -5.273283E+04
       105   2  7.124753E+05  1.486234E+05  9.593609E+04  4.848020E+04 -7.952069E+03 -4.961865E+04
       105   3  6.675988E+05  1.383313E+05  8.979747E+04  5.284756E+04 -7.567226E+03 -4.626074E+04
       105   4  6.711497E+04 -5.780737E+01 -3.093624E+03  5.202872E+04 -2.442874E+03 -5.273035E+04
       105   5  6.719302E+04  8.872848E+01 -1.751075E+03  4.765213E+04 -1.577199E+03 -4.961422E+04
       105   6  6.713442E+04  1.310677E+02 -9.970574E+02  5.202842E+04 -7.132108E+02 -4.625422E+04
       105   7 -6.225936E+05 -1.590330E+05 -1.080164E+05  5.119303E+04  3.446587E+03 -5.272789E+04
       105   8 -5.776721E+05 -1.484658E+05 -9.944667E+04  4.682479E+04  4.791313E+03 -4.960980E+04
       105   9 -5.329687E+05 -1.380863E+05 -9.179880E+04  5.120996E+04  6.134443E+03 -4.624771E+04
       105  10  7.572996E+05  1.588916E+05  1.018139E+05  5.286484E+04 -2.332479E-08 -2.748581E-09
       105  11  7.124745E+05  1.486208E+05  9.593134E+04  4.847988E+04  1.072948E-08 -4.197925E-09
       105  12  6.675982E+05  1.383290E+05  8.979334E+04  5.284728E+04  3.680438E-08 -2.648496E-09
       105  13  6.711422E+04 -6.079482E+01 -3.098861E+03  5.202861E+04 -5.499419E-11  9.004591E-09
       105  14  6.719236E+04  8.608444E+01 -1.755705E+03  4.765206E+04  6.432553E-09  4.926865E-09
       105  15  6.713385E+04  1.287701E+02 -1.001079E+03  5.202840E+04  5.040956E-10  2.049842E-09
       105  16 -6.225944E+05 -1.590360E+05 -1.080216E+05  5.119318E+04  2.749006E-08 -7.257442E-09
       105  17 -5.776728E+05 -1.484685E+05 -9.945134E+04  4.682498E+04 -1.080271E-08 -5.949826E-09
       105  18 -5.329693E+05 -1.380886E+05 -9.180289E+04  5.121019E+04 -4.170374E-08 -4.395799E-09
       105  19  7.573004E+05  1.588946E+05  1.018192E+05  5.286519E+04  8.338625E+03  5.273283E+04
       105  20  7.124753E+05  1.486234E+05  9.593609E+04  4.848020E+04  7.952069E+03  4.961865E+04
       105  21  6.675988E+05  1.383313E+05  8.979747E+04  5.284756E+04  7.567226E+03  4.626074E+04
       105  22  6.711497E+04 -5.780737E+01 -3.093624E+03  5.202872E+04  2.442874E+03  5.273035E+04
       105  23  6.719302E+04  8.872848E+01 -1.751075E+03  4.765213E+04  1.577199E+03  4.961422E+04
       105  24  6.713442E+04  1.310677E+02 -9.970574E+02  5.202842E+04  7.132108E+02  4.625422E+04
       105  25 -6.225936E+05 -1.590330E+05 -1.080164E+05  5.119303E+04 -3.446587E+03  5.272789E+04
       105  26 -5.776721E+05 -1.484658E+05 -9.944667E+04  4.682479E+04 -4.791313E+03  4.960980E+04
       105  27 -5.329687E+05 -1.380863E+05 -9.179880E+04  5.120996E+04 -6.134443E+03  4.624771E+04
       106   1  6.392108E+05  1.317548E+05  8.554761E+04  5.280718E+04 -7.402254E+03 -4.422776E+04
       106   2  5.943910E+05  1.214426E+05  7.914404E+04  4.837997E+04 -7.248559E+03 -4.073975E+04
       106   3  5.495488E+05  1.111660E+05  7.264563E+04  5.271705E+04 -7.096077E+03 -3.722544E+04
       106   4  6.716350E+04  1.324042E+02 -7.530690E+02  5.203110E+04 -5.579516E+02 -4.422051E+04
       106   5  6.718859E+04  1.291475E+02 -4.231256E+02  4.764874E+04 -3.529128E+02 -4.073126E+04
       106   6  6.717945E+04  1.525448E+02 -2.240835E+02  5.203108E+04 -1.490756E+02 -3.721571E+04
       106   7 -5.045557E+05 -1.315056E+05 -8.706021E+04  5.125562E+04  6.280299E+03 -4.421327E+04
       106   8 -4.597352E+05 -1.211975E+05 -7.999575E+04  4.691802E+04  6.537114E+03 -4.072279E+04
       106   9 -4.149566E+05 -1.108720E+05 -7.309836E+04  5.134556E+04  6.792745E+03 -3.720600E+04
       106  10  6.392102E+05  1.317527E+05  8.554383E+04  5.280691E+04 -7.749747E-09  1.290615E-09
       106  11  5.943905E+05  1.214408E+05  7.914082E+04  4.837973E+04  3.614737E-09  9.138984E-09
       106  12  5.495484E+05  1.111645E+05  7.264293E+04  5.271684E+04  5.175732E-09  6.161846E-09
       106  13  6.716298E+04  1.303042E+02 -7.567444E+02  5.203108E+04 -4.305983E-09  3.268285E-10
       106  14  6.718815E+04  1.273659E+02 -4.262435E+02  4.764872E+04  4.232992E-11  6.361173E-09
       106  15  6.717908E+04  1.510575E+02 -2.266864E+02  5.203108E+04 -2.755200E-09  1.509033E-09
       106  16 -5.045563E+05 -1.315077E+05 -8.706395E+04  5.125585E+04  5.254625E-09 -1.878719E-09
       106  17 -4.597357E+05 -1.211993E+05 -7.999895E+04  4.691824E+04 -2.559057E-09  1.111515E-10
       106  18 -4.149571E+05 -1.108735E+05 -7.310105E+04  5.134576E+04 -4.355903E-09 -5.281111E-10
       106  19  6.392108E+05  1.317548E+05  8.554761E+04  5.280718E+04  7.402254E+03  4.422776E+04
       106  20  5.943910E+05  1.214426E+05  7.914404E+04  4.837997E+04  7.248559E+03  4.073975E+04
       106  21  5.495488E+05  1.111660E+05  7.264563E+04  5.271705E+04  7.096077E+03  3.722544E+04
       106  22  6.716350E+04  1.324042E+02 -7.530690E+02  5.203110E+04  5.579516E+02  4.422051E+04
       106  23  6.718859E+04  1.291475E+02 -4.231256E+02  4.764874E+04  3.529128E+02  4.073126E+04
       106  24  6.717945E+04  1.525448E+02 -2.240835E+02  5.203108E+04  1.490756E+02  3.721571E+04
       106  25 -5.045557E+05 -1.315056E+05 -8.706021E+04  5.125562E+04 -6.280299E+03  4.421327E+04
       106  26 -4.597352E+05 -1.211975E+05 -7.999575E+04  4.691802E+04 -6.537114E+03  4.072279E+04
       106  27 -4.149566E+05 -1.108720E+05 -7.309836E+04  5.134556E+04 -6.792745E+03  3.720600E+04
       107   1  5.211629E+05  1.046030E+05  6.825158E+04  5.268822E+04 -7.062803E+03 -3.517173E+04
       107   2  4.763568E+05  9.429956E+04  6.167863E+04  4.825646E+04 -7.048007E+03 -3.164376E+04
       107   3  4.315323E+05  8.403288E+04  5.509717E+04  5.259268E+04 -7.034119E+03 -2.811329E+04
       107   4  6.718751E+04  1.571681E+02 -1.557989E+02  5.203189E+04 -1.174627E+02 -3.516141E+04
       107   5  6.720404E+04  1.485237E+02 -5.051239E+01  4.764772E+04 -9.796397E+01 -3.163252E+04
       107   6  6.719989E+04  1.760798E+02  4.306920E+01  5.203187E+04 -7.937099E+01 -2.810115E+04
       107   7 -3.865812E+05 -1.042985E+05 -6.856715E+04  5.137595E+04  6.823004E+03 -3.515109E+04
       107   8 -3.417809E+05 -9.401045E+04 -6.178286E+04  4.703932E+04  6.847683E+03 -3.162130E+04
       107   9 -2.969994E+05 -8.368702E+04 -5.501356E+04  5.147133E+04  6.871459E+03 -2.808902E+04
       107  10  5.211625E+05  1.046017E+05  6.824916E+04  5.268802E+04  6.223188E-09  1.732037E-09
       107  11  4.763565E+05  9.429847E+04  6.167665E+04  4.825628E+04  4.018408E-09  2.226248E-10
       107  12  4.315320E+05  8.403202E+04  5.509559E+04  5.259253E+04 -5.559593E-09 -1.732593E-09
       107  13  6.718718E+04  1.558404E+02 -1.581222E+02  5.203188E+04  4.224211E-11  4.198663E-09
       107  14  6.720377E+04  1.474492E+02 -5.239282E+01  4.764772E+04 -1.074712E-08 -3.254736E-10
       107  15  6.719968E+04  1.752318E+02  4.158519E+01  5.203187E+04  3.171068E-09 -1.324159E-09
       107  16 -3.865816E+05 -1.042998E+05 -6.856956E+04  5.137614E+04 -3.427023E-09  4.254403E-10
       107  17 -3.417812E+05 -9.401154E+04 -6.178483E+04  4.703949E+04 -4.192114E-09 -2.407411E-09
       107  18 -2.969996E+05 -8.368788E+04 -5.501513E+04  5.147149E+04  5.547123E-09 -9.386439E-10
       107  19  5.211629E+05  1.046030E+05  6.825158E+04  5.268822E+04  7.062803E+03  3.517173E+04
       107  20  4.763568E+05  9.429956E+04  6.167863E+04  4.825646E+04  7.048007E+03  3.164376E+04
       107  21  4.315323E+05  8.403288E+04  5.509717E+04  5.259268E+04  7.034119E+03  2.811329E+04
       107  22  6.718751E+04  1.571681E+02 -1.557989E+02  5.203189E+04  1.174627E+02  3.516141E+04
       107  23  6.720404E+04  1.485237E+02 -5.051239E+01  4.764772E+04  9.796397E+01  3.163252E+04
       107  24  6.719989E+04  1.760798E+02  4.306920E+01  5.203187E+04  7.937099E+01  2.810115E+04
       107  25 -3.865812E+05 -1.042985E+05 -6.856715E+04  5.137595E+04 -6.823004E+03  3.515109E+04
       107  26 -3.417809E+05 -9.401045E+04 -6.178286E+04  4.703932E+04 -6.847683E+03  3.162130E+04
       107  27 -2.969994E+05 -8.368702E+04 -5.501356E+04  5.147133E+04 -6.871459E+03  2.808902E+04
       108   1  4.031566E+05  7.747152E+04  5.068765E+04  5.256017E+04 -7.049107E+03 -2.605776E+04
       108   2  3.583564E+05  6.717090E+04  4.413892E+04  4.811835E+04 -7.160216E+03 -2.252666E+04
       108   3  3.135496E+05  5.692512E+04  3.766534E+04  5.244137E+04 -7.271959E+03 -1.899643E+04
       108   4  6.720640E+04  1.799472E+02  9.157733E+01  5.203116E+04 -9.496302E+01 -2.604517E+04
       108   5  6.721498E+04  1.715175E+02  2.150704E+02  4.764859E+04 -2.079944E+02 -2.251343E+04
       108   6  6.721521E+04  2.183212E+02  4.149307E+02  5.203110E+04 -3.216659E+02 -1.898257E+04
       108   7 -2.686306E+05 -7.711697E+04 -5.050658E+04  5.150239E+04  6.855569E+03 -2.603258E+04
       108   8 -2.238414E+05 -6.683187E+04 -4.371031E+04  4.717901E+04  6.741098E+03 -2.250021E+04
       108   9 -1.790583E+05 -5.649134E+04 -3.683654E+04  5.162096E+04  6.625979E+03 -1.896871E+04
       108  10  4.031564E+05  7.747078E+04  5.068628E+04  5.256002E+04 -1.810867E-09  3.380453E-10
       108  11  3.583562E+05  6.717034E+04  4.413787E+04  4.811822E+04 -2.599647E-09 -1.170810E-09
       108  12  3.135494E+05  5.692472E+04  3.766456E+04  5.244126E+04 -5.832777E-09  1.618796E-09
       108  13  6.720622E+04  1.792187E+02  9.030252E+01  5.203116E+04  1.120708E-11  4.678803E-10
       108  14  6.721484E+04  1.709732E+02  2.141178E+02  4.764858E+04 -3.502201E-13  9.990508E-10
       108  15  6.721511E+04  2.179342E+02  4.142533E+02  5.203109E+04  4.245621E-09  2.813489E-09
       108  16 -2.686308E+05 -7.711771E+04 -5.050794E+04  5.150253E+04  4.525982E-10  2.770766E-09
       108  17 -2.238416E+05 -6.683243E+04 -4.371135E+04  4.717913E+04  9.002969E-09 -3.938231E-09
       108  18 -1.790584E+05 -5.649174E+04 -3.683730E+04  5.162106E+04 -1.328789E-09  7.642827E-10
       108  19  4.031566E+05  7.747152E+04  5.068765E+04  5.256017E+04  7.049107E+03  2.605776E+04
       108  20  3.583564E+05  6.717090E+04  4.413892E+04  4.811835E+04  7.160216E+03  2.252666E+04
       108  21  3.135496E+05  5.692512E+04  3.766534E+04  5.244137E+04  7.271959E+03  1.899643E+04
       108  22  6.720640E+04  1.799472E+02  9.157733E+01  5.203116E+04  9.496302E+01  2.604517E+04
       108  23  6.721498E+04  1.715175E+02  2.150704E+02  4.764859E+04  2.079944E+02  2.251343E+04
       108  24  6.721521E+04  2.183212E+02  4.149307E+02  5.203110E+04  3.216659E+02  1.898257E+04
       108  25 -2.686306E+05 -7.711697E+04 -5.050658E+04  5.150239E+04 -6.855569E+03  2.603258E+04
       108  26 -2.238414E+05 -6.683187E+04 -4.371031E+04  4.717901E+04 -6.741098E+03  2.250021E+04
       108  27 -1.790583E+05 -5.649134E+04 -3.683654E+04  5.162096E+04 -6.625979E+03  1.896871E+04
       109   1  2.852027E+05  5.036460E+04  3.334894E+04  5.243422E+04 -7.359547E+03 -1.694176E+04
       109   2  2.403572E+05  4.015919E+04  2.711127E+04  4.783375E+04 -7.847026E+03 -1.341702E+04
       109   3  1.956155E+05  3.027719E+04  2.125907E+04  5.199536E+04 -8.334829E+03 -9.901329E+03
       109   4  6.724271E+04  2.221841E+02  5.566200E+02  5.203058E+04 -4.093160E+02 -1.692760E+04
       109   5  6.719324E+04  3.096716E+02  9.969953E+02  4.764896E+04 -9.147811E+02 -1.340252E+04
       109   6  6.724792E+04  7.236104E+02  1.835034E+03  5.202954E+04 -1.420602E+03 -9.886491E+03
       109   7 -1.506695E+05 -4.992246E+04 -3.223647E+04  5.162706E+04  6.538573E+03 -1.691344E+04
       109   8 -1.059406E+05 -3.954124E+04 -2.511771E+04  4.746420E+04  6.015607E+03 -1.338802E+04
       109   9 -6.110306E+04 -2.883073E+04 -1.758916E+04  5.206370E+04  5.492253E+03 -9.871650E+03
       109  10  2.852025E+05  5.036428E+04  3.334830E+04  5.243412E+04  4.624626E-10  4.922738E-09
       109  11  2.403571E+05  4.015898E+04  2.711082E+04  4.783367E+04  6.886830E-10 -1.404654E-09
       109  12  1.956154E+05  3.027706E+04  2.125875E+04  5.199529E+04  4.011473E-09  1.347735E-09
       109  13  6.724263E+04  2.218764E+02  5.560812E+02  5.203057E+04 -7.452515E-12  3.780352E-09
       109  14  6.719319E+04  3.094785E+02  9.966562E+02  4.764895E+04 -2.153879E-09  1.801389E-10
       109  15  6.724789E+04  7.235049E+02  1.834847E+03  5.202953E+04  7.991951E-09 -2.502005E-09
       109  16 -1.506696E+05 -4.992278E+04 -3.223709E+04  5.162715E+04 -1.776995E-09  2.960511E-09
       109  17 -1.059406E+05 -3.954145E+04 -2.511811E+04  4.746427E+04  3.435899E-09 -4.797294E-10
       109  18 -6.110311E+04 -2.883084E+04 -1.758940E+04  5.206374E+04  6.884237E-11 -6.860301E-09
       109  19  2.852027E+05  5.036460E+04  3.334894E+04  5.243422E+04  7.359547E+03  1.694176E+04
       109  20  2.403572E+05  4.015919E+04  2.711127E+04  4.783375E+04  7.847026E+03  1.341702E+04
       109  21  1.956155E+05  3.027719E+04  2.125907E+04  5.199536E+04  8.334829E+03  9.901329E+03
       109  22  6.724271E+04  2.221841E+02  5.566200E+02  5.203058E+04  4.093160E+02  1.692760E+04
       109  23  6.719324E+04  3.096716E+02  9.969953E+02  4.764896E+04  9.147811E+02  1.340252E+04
       109  24  6.724792E+04  7.236104E+02  1.835034E+03  5.202954E+04  1.420602E+03  9.886491E+03
       109  25 -1.506695E+05 -4.992246E+04 -3.223647E+04  5.162706E+04 -6.538573E+03  1.691344E+04
       109  26 -1.059406E+05 -3.954124E+04 -2.511771E+04  4.746420E+04 -6.015607E+03  1.338802E+04
       109  27 -6.110306E+04 -2.883073E+04 -1.758916E+04  5.206370E+04 -5.492253E+03  9.871650E+03
       110   1  1.675097E+05  2.378232E+04  1.739270E+04  5.235136E+04 -8.657272E+03 -7.854367E+03
       110   2  1.220911E+05  1.523943E+04  1.268951E+04  4.509405E+04 -1.079987E+04 -4.386061E+03
       110   3  7.795673E+04  1.089695E+04  1.041731E+04  4.658807E+04 -1.294232E+04 -9.997909E+02
       110   4  6.751729E+04  7.942237E+02  2.436864E+03  5.202880E+04 -1.740373E+03 -7.839370E+03
       110   5  6.686264E+04  2.565840E+03  4.475903E+03  4.764487E+04 -4.044539E+03 -4.371345E+03
       110   6  6.751874E+04  8.566247E+03  9.058187E+03  5.201215E+04 -6.348692E+03 -9.853799E+02
       110   7 -3.246493E+04 -2.219431E+04 -1.251898E+04  5.170629E+04  5.175456E+03 -7.824379E+03
       110   8  1.163737E+04 -1.010784E+04 -3.737586E+03  5.019546E+04  2.710214E+03 -4.356573E+03
       110   9  5.708102E+04  6.235671E+03  7.699239E+03  5.743613E+04  2.448321E+02 -9.708535E+02
       110  10  1.675096E+05  2.378223E+04  1.739244E+04  5.235130E+04 -3.357557E-09  1.645302E-09
       110  11  1.220910E+05  1.523938E+04  1.268925E+04  4.509401E+04 -6.200387E-10 -2.185232E-09
       110  12  7.795655E+04  1.089691E+04  1.041700E+04  4.658806E+04  7.131783E-10 -9.830532E-10
       110  13  6.751727E+04  7.941568E+02  2.436743E+03  5.202879E+04  4.353741E-09  3.165272E-09
       110  14  6.686262E+04  2.565815E+03  4.475836E+03  4.764486E+04 -2.195203E-09 -5.391725E-09
       110  15  6.751869E+04  8.566235E+03  9.058109E+03  5.201215E+04 -4.891794E-09  3.592371E-09
       110  16 -3.246498E+04 -2.219439E+04 -1.251915E+04  5.170633E+04  4.204515E-09 -7.602980E-10
       110  17  1.163736E+04 -1.010787E+04 -3.737636E+03  5.019547E+04 -2.770687E-09  2.426849E-09
       110  18  5.708102E+04  6.235670E+03  7.699237E+03  5.743613E+04 -3.651370E-09 -1.429675E-10
       110  19  1.675097E+05  2.378232E+04  1.739270E+04  5.235136E+04  8.657272E+03  7.854367E+03
       110  20  1.220911E+05  1.523943E+04  1.268951E+04  4.509405E+04  1.079987E+04  4.386061E+03
       110  21  7.795673E+04  1.089695E+04  1.041731E+04  4.658807E+04  1.294232E+04  9.997909E+02
       110  22  6.751729E+04  7.942237E+02  2.436864E+03  5.202880E+04  1.740373E+03  7.839370E+03
       110  23  6.686264E+04  2.565840E+03  4.475903E+03  4.764487E+04  4.044539E+03  4.371345E+03
       110  24  6.751874E+04  8.566247E+03  9.058187E+03  5.201215E+04  6.348692E+03  9.853799E+02
       110  25 -3.246493E+04 -2.219431E+04 -1.251898E+04  5.170629E+04 -5.175456E+03  7.824379E+03
       110  26  1.163737E+04 -1.010784E+04 -3.737586E+03  5.019546E+04 -2.710214E+03  4.356573E+03
       110  27  5.708102E+04  6.235671E+03  7.699239E+03  5.743613E+04 -2.448321E+02  9.708535E+02
       111   1 -1.625334E+04  3.179369E+05 -1.425515E+04 -3.989136E+03 -1.368812E+03 -1.493397E+03
       111   2 -2.125165E+04  3.170119E+05 -1.469849E+04 -1.843388E+03 -4.611062E+03 -8.833203E+02
       111   3 -2.196623E+04  3.170793E+05 -1.446888E+04  3.566629E+01 -5.583542E+03 -2.718483E+02
       111   4  6.039791E+03  4.080391E+05  7.168862E+03 -6.129454E+02 -1.371997E+03  3.866153E+03
       111   5  5.749195E+02  4.073024E+05  4.189738E+03 -4.813438E+02 -4.612489E+03  1.696815E+03
       111   6 -1.242541E+02  4.080401E+05  3.812747E+03 -6.164405E+02 -5.583367E+03 -4.711628E+02
       111   7  2.833240E+04  4.981488E+05  2.859242E+04  2.763739E+03 -1.375123E+03  9.226477E+03
       111   8  2.240097E+04  4.976005E+05  2.307754E+04  8.809028E+02 -4.613906E+03  4.277319E+03
       111   9  2.171721E+04  4.990088E+05  2.209395E+04 -1.268644E+03 -5.583191E+03 -6.705060E+02
       111  10 -1.625335E+04  3.179369E+05 -1.425516E+04 -3.989138E+03  1.311165E-09  4.072188E-09
       111  11 -2.125167E+04  3.170119E+05 -1.469854E+04 -1.843391E+03 -9.605946E-10 -8.532562E-09
       111  12 -2.196626E+04  3.170793E+05 -1.446894E+04  3.566507E+01 -3.345215E-09 -1.769803E-08
       111  13  6.039785E+03  4.080391E+05  7.168830E+03 -6.129412E+02  5.827310E-09 -6.046118E-10
       111  14  5.748959E+02  4.073023E+05  4.189693E+03 -4.813374E+02 -3.010350E-09  5.278165E-11
       111  15 -1.242876E+02  4.080401E+05  3.812688E+03 -6.164426E+02 -5.038242E-09  5.214969E-11
       111  16  2.833237E+04  4.981487E+05  2.859226E+04  2.763749E+03 -2.960266E-09 -3.763687E-09
       111  17  2.240095E+04  4.976005E+05  2.307747E+04  8.809187E+02 -3.586801E-09  7.395313E-09
       111  18  2.171718E+04  4.990088E+05  2.209389E+04 -1.268647E+03 -1.433865E-09  1.728445E-08
       111  19 -1.625334E+04  3.179369E+05 -1.425515E+04 -3.989136E+03  1.368812E+03  1.493397E+03
       111  20 -2.125165E+04  3.170119E+05 -1.469849E+04 -1.843388E+03  4.611062E+03  8.833203E+02
       111  21 -2.196623E+04  3.170793E+05 -1.446888E+04  3.566629E+01  5.583542E+03  2.718483E+02
       111  22  6.039791E+03  4.080391E+05  7.168862E+03 -6.129454E+02  1.371997E+03 -3.866153E+03
       111  23  5.749195E+02  4.073024E+05  4.189738E+03 -4.813438E+02  4.612489E+03 -1.696815E+03
       111  24 -1.242541E+02  4.080401E+05  3.812747E+03 -6.164405E+02  5.583367E+03  4.711628E+02
       111  25  2.833240E+04  4.981488E+05  2.859242E+04  2.763739E+03  1.375123E+03 -9.226477E+03
       111  26  2.240097E+04  4.976005E+05  2.307754E+04  8.809028E+02  4.613906E+03 -4.277319E+03
       111  27  2.171721E+04  4.990088E+05  2.209395E+04 -1.268644E+03  5.583191E+03  6.705060E+02
       112   1 -2.175359E+04  3.166524E+05 -1.427534E+04 -9.423080E+02 -5.534715E+03 -1.482853E+03
       112   2 -2.194285E+04  3.158291E+05 -1.278118E+04 -4.186163E+02 -5.691703E+03 -3.954115E+03
       112   3 -2.072333E+04  3.156810E+05 -9.326213E+03 -4.517091E+01 -5.586709E+03 -6.425245E+03
       112   4  1.600531E+02  4.078747E+05  4.109764E+03 -5.899698E+02 -5.534841E+03 -1.128722E+03
       112   5  6.052369E+01  4.075089E+05  5.592280E+03 -5.145168E+02 -5.691653E+03 -3.921135E+03
       112   6  1.425362E+03  4.078740E+05  9.258332E+03 -5.893076E+02 -5.586497E+03 -6.713419E+03
       112   7  2.207318E+04  4.991049E+05  2.249444E+04 -2.375779E+02 -5.534967E+03 -7.745394E+02
       112   8  2.206338E+04  4.991968E+05  2.396531E+04 -6.104307E+02 -5.691603E+03 -3.888150E+03
       112   9  2.357353E+04  5.000750E+05  2.784244E+04 -1.133526E+03 -5.586283E+03 -7.001634E+03
       112  10 -2.175363E+04  3.166523E+05 -1.427540E+04 -9.423146E+02 -3.127400E-10  5.318275E-09
       112  11 -2.194289E+04  3.158290E+05 -1.278127E+04 -4.186345E+02  2.788670E-09 -1.560329E-08
       112  12 -2.072338E+04  3.156809E+05 -9.326349E+03 -4.519982E+01 -5.778791E-09 -2.785511E-08
       112  13  1.600198E+02  4.078747E+05  4.109704E+03 -5.899748E+02 -5.721768E-09 -5.848265E-10
       112  14  6.048477E+01  4.075089E+05  5.592190E+03 -5.145348E+02  8.591426E-09 -7.978225E-11
       112  15  1.425316E+03  4.078739E+05  9.258188E+03 -5.893378E+02  4.436930E-09 -6.373804E-11
       112  16  2.207315E+04  4.991049E+05  2.249438E+04 -2.375813E+02 -4.409076E-10 -5.006087E-09
       112  17  2.206334E+04  4.991967E+05  2.396522E+04 -6.104485E+02 -9.654403E-10  1.474842E-08
       112  18  2.357349E+04  5.000750E+05  2.784229E+04 -1.133557E+03 -8.771618E-09  2.746763E-08
       112  19 -2.175359E+04  3.166524E+05 -1.427534E+04 -9.423080E+02  5.534715E+03  1.482853E+03
       112  20 -2.194285E+04  3.158291E+05 -1.278118E+04 -4.186163E+02  5.691703E+03  3.954115E+03
       112  21 -2.072333E+04  3.156810E+05 -9.326213E+03 -4.517091E+01  5.586709E+03  6.425245E+03
       112  22  1.600531E+02  4.078747E+05  4.109764E+03 -5.899698E+02  5.534841E+03  1.128722E+03
       112  23  6.052369E+01  4.075089E+05  5.592280E+03 -5.145168E+02  5.691653E+03  3.921135E+03
       112  24  1.425362E+03  4.078740E+05  9.258332E+03 -5.893076E+02  5.586497E+03  6.713419E+03
       112  25  2.207318E+04  4.991049E+05  2.249444E+04 -2.375779E+02  5.534967E+03  7.745394E+02
       112  26  2.206338E+04  4.991968E+05  2.396531E+04 -6.104307E+02  5.691603E+03  3.888150E+03
       112  27  2.357353E+04  5.000750E+05  2.784244E+04 -1.133526E+03  5.586283E+03  7.001634E+03
       113   1 -2.314467E+04  3.169850E+05 -6.957417E+03 -4.846961E+03 -5.674814E+03 -8.595891E+03
       113   2 -1.885629E+04  3.124149E+05  7.518269E+02  7.551325E+03 -4.722109E+03 -1.626556E+04
       113   3  1.373085E+04  3.159188E+05  2.052811E+04  1.993046E+04 -1.401177E+03 -2.393405E+04
       113   4 -9.059621E+02  4.096183E+05  1.166490E+04 -5.640412E+02 -5.674943E+03 -8.309119E+03
       113   5  3.617677E+03  4.053265E+05  2.020357E+04 -5.457894E+02 -4.720655E+03 -1.888021E+04
       113   6  3.694073E+04  4.096109E+05  4.282210E+04 -5.466574E+02 -1.397996E+03 -2.945015E+04
       113   7  2.133228E+04  5.022599E+05  3.028678E+04  3.719531E+03 -5.675068E+03 -8.022305E+03
       113   8  2.609134E+04  4.982465E+05  3.965489E+04 -8.644134E+03 -4.719134E+03 -2.149524E+04
       113   9  6.015157E+04  5.033119E+05  6.511582E+04 -2.102688E+04 -1.394451E+03 -3.496708E+04
       113  10 -2.314472E+04  3.169849E+05 -6.957617E+03 -4.847000E+03 -7.656553E-09  3.813417E-08
       113  11 -1.885638E+04  3.124146E+05  7.512881E+02  7.551263E+03 -8.376335E-09  1.237816E-08
       113  12  1.373069E+04  3.159182E+05  2.052703E+04  1.993044E+04 -3.874573E-09 -1.478736E-08
       113  13 -9.060152E+02  4.096183E+05  1.166471E+04 -5.640791E+02  4.189577E-09 -6.866336E-10
       113  14  3.617557E+03  4.053261E+05  2.020286E+04 -5.458612E+02  1.695903E-09  8.026516E-11
       113  15  3.694050E+04  4.096099E+05  4.282047E+04 -5.466906E+02  6.279038E-09  2.084193E-11
       113  16  2.133223E+04  5.022598E+05  3.028660E+04  3.719494E+03 -5.819948E-09 -3.783882E-08
       113  17  2.609119E+04  4.982460E+05  3.965398E+04 -8.644216E+03  1.242224E-10 -1.308574E-08
       113  18  6.015124E+04  5.033106E+05  6.511352E+04 -2.102692E+04 -4.026794E-09  1.423390E-08
       113  19 -2.314467E+04  3.169850E+05 -6.957417E+03 -4.846961E+03  5.674814E+03  8.595891E+03
       113  20 -1.885629E+04  3.124149E+05  7.518269E+02  7.551325E+03  4.722109E+03  1.626556E+04
       113  21  1.373085E+04  3.159188E+05  2.052811E+04  1.993046E+04  1.401177E+03  2.393405E+04
       113  22 -9.059621E+02  4.096183E+05  1.166490E+04 -5.640412E+02  5.674943E+03  8.309119E+03
       113  23  3.617677E+03  4.053265E+05  2.020357E+04 -5.457894E+02  4.720655E+03  1.888021E+04
       113  24  3.694073E+04  4.096109E+05  4.282210E+04 -5.466574E+02  1.397996E+03  2.945015E+04
       113  25  2.133228E+04  5.022599E+05  3.028678E+04  3.719531E+03  5.675068E+03  8.022305E+03
       113  26  2.609134E+04  4.982465E+05  3.965489E+04 -8.644134E+03  4.719134E+03  2.149524E+04
       113  27  6.015157E+04  5.033119E+05  6.511582E+04 -2.102688E+04  1.394451E+03  3.496708E+04
       114   1  1.122145E+06  4.092927E+05  2.137355E+05  4.134537E+05  8.301289E+04  1.808290E+04
       114   2  1.066807E+06  3.642857E+05  1.516639E+05  3.952810E+05  5.384169E+04 -2.391781E+04
       114   3  1.014436E+06  3.406031E+05  1.225031E+05  3.836828E+05  1.751851E+04 -4.685803E+04
       114   4  3.507632E+05  1.122397E+05  1.550332E+04  1.936102E+05  1.440423E+04 -7.707315E+03
       114   5  3.519810E+05  9.917186E+04  7.294876E+03  1.925600E+05  2.084917E+04 -3.632817E+04
       114   6  3.491246E+05  1.003910E+05  3.821054E+03  1.980826E+05  2.013206E+04 -4.588085E+04
       114   7 -4.199973E+05 -1.847498E+05 -1.827491E+05 -2.597161E+04 -5.410856E+04 -3.345919E+04
       114   8 -3.623008E+05 -1.658867E+05 -1.370904E+05 -9.939165E+03 -1.210191E+04 -4.872243E+04
       114   9 -3.157197E+05 -1.397785E+05 -1.148753E+05  1.266770E+04  2.274261E+04 -4.490479E+04
       114  10  1.122138E+06  4.092905E+05  2.137219E+05  4.134524E+05 -1.356515E-08 -1.141962E-09
       114  11  1.066804E+06  3.642843E+05  1.516574E+05  3.952820E+05  3.464263E-09  5.187599E-09
       114  12  1.014435E+06  3.406006E+05  1.224984E+05  3.836835E+05  5.942679E-09  3.652143E-09
       114  13  3.507630E+05  1.122396E+05  1.550282E+04  1.936103E+05  8.489569E-09  3.155692E-09
       114  14  3.519802E+05  9.917033E+04  7.291578E+03  1.925606E+05 -8.938416E-09  3.582942E-09
       114  15  3.491236E+05  1.003886E+05  3.816335E+03  1.980834E+05 -2.388044E-09  1.844653E-10
       114  16 -4.200008E+05 -1.847518E+05 -1.827567E+05 -2.597306E+04  6.187202E-09  2.828954E-09
       114  17 -3.623016E+05 -1.658893E+05 -1.370952E+05 -9.939640E+03  3.159330E-09  1.460894E-09
       114  18 -3.157208E+05 -1.397808E+05 -1.148801E+05  1.266852E+04 -4.613147E-09 -1.225441E-09
       114  19  1.122145E+06  4.092927E+05  2.137355E+05  4.134537E+05 -8.301289E+04 -1.808290E+04
       114  20  1.066807E+06  3.642857E+05  1.516639E+05  3.952810E+05 -5.384169E+04  2.391781E+04
       114  21  1.014436E+06  3.406031E+05  1.225031E+05  3.836828E+05 -1.751851E+04  4.685803E+04
       114  22  3.507632E+05  1.122397E+05  1.550332E+04  1.936102E+05 -1.440423E+04  7.707315E+03
       114  23  3.519810E+05  9.917186E+04  7.294876E+03  1.925600E+05 -2.084917E+04  3.632817E+04
       114  24  3.491246E+05  1.003910E+05  3.821054E+03  1.980826E+05 -2.013206E+04  4.588085E+04
       114  25 -4.199973E+05 -1.847498E+05 -1.827491E+05 -2.597161E+04  5.410856E+04  3.345919E+04
       114  26 -3.623008E+05 -1.658867E+05 -1.370904E+05 -9.939165E+03  1.210191E+04  4.872243E+04
       114  27 -3.157197E+05 -1.397785E+05 -1.148753E+05  1.266770E+04 -2.274261E+04  4.490479E+04
       115   1  9.767746E+05  3.278633E+05  1.132773E+05  3.743465E+05  1.825704E+04 -4.511289E+04
       115   2  9.252449E+05  3.024487E+05  9.859614E+04  3.544011E+05  1.351430E+04 -4.525643E+04
       115   3  8.665008E+05  2.863645E+05  8.733334E+04  3.437296E+05  8.075660E+03 -4.355322E+04
       115   4  3.484853E+05  1.005513E+05  2.858821E+03  1.981563E+05  1.921744E+04 -4.475703E+04
       115   5  3.524013E+05  9.591963E+04  1.494797E+03  1.936397E+05  1.792562E+04 -4.360117E+04
       115   6  3.484185E+05  9.993637E+04  8.186759E+02  1.983967E+05  1.593724E+04 -4.059771E+04
       115   7 -2.793944E+05 -1.267247E+05 -1.075740E+05  2.213034E+04  2.017681E+04 -4.440157E+04
       115   8 -2.200971E+05 -1.105779E+05 -9.561619E+04  3.301605E+04  2.233266E+04 -4.194754E+04
       115   9 -1.693780E+05 -8.646477E+04 -8.570248E+04  5.317707E+04  2.379186E+04 -3.764481E+04
       115  10  9.767737E+05  3.278610E+05  1.132729E+05  3.743472E+05  4.140209E-09  1.150611E-10
       115  11  9.252442E+05  3.024465E+05  9.859195E+04  3.544016E+05 -3.160860E-09 -5.375132E-10
       115  12  8.665002E+05  2.863624E+05  8.732965E+04  3.437299E+05 -3.278651E-09 -1.220045E-09
       115  13  3.484844E+05  1.005491E+05  2.854361E+03  1.981570E+05 -4.420829E-09 -1.337427E-10
       115  14  3.524004E+05  9.591750E+04  1.490620E+03  1.936404E+05  8.945783E-11 -3.200395E-09
       115  15  3.484178E+05  9.993453E+04  8.151005E+02  1.983972E+05 -5.793272E-09 -2.598777E-09
       115  16 -2.793954E+05 -1.267269E+05 -1.075785E+05  2.213106E+04 -9.047026E-09 -1.898920E-09
       115  17 -2.200981E+05 -1.105799E+05 -9.562043E+04  3.301680E+04 -2.146517E-09 -4.626837E-09
       115  18 -1.693790E+05 -8.646644E+04 -8.570621E+04  5.317779E+04  8.625616E-10 -2.934789E-09
       115  19  9.767746E+05  3.278633E+05  1.132773E+05  3.743465E+05 -1.825704E+04  4.511289E+04
       115  20  9.252449E+05  3.024487E+05  9.859614E+04  3.544011E+05 -1.351430E+04  4.525643E+04
       115  21  8.665008E+05  2.863645E+05  8.733334E+04  3.437296E+05 -8.075660E+03  4.355322E+04
       115  22  3.484853E+05  1.005513E+05  2.858821E+03  1.981563E+05 -1.921744E+04  4.475703E+04
       115  23  3.524013E+05  9.591963E+04  1.494797E+03  1.936397E+05 -1.792562E+04  4.360117E+04
       115  24  3.484185E+05  9.993637E+04  8.186759E+02  1.983967E+05 -1.593724E+04  4.059771E+04
       115  25 -2.793944E+05 -1.267247E+05 -1.075740E+05  2.213034E+04 -2.017681E+04  4.440157E+04
       115  26 -2.200971E+05 -1.105779E+05 -9.561619E+04  3.301605E+04 -2.233266E+04  4.194754E+04
       115  27 -1.693780E+05 -8.646477E+04 -8.570248E+04  5.317707E+04 -2.379186E+04  3.764481E+04
       116   1  8.310755E+05  2.736696E+05  8.083842E+04  3.339066E+05  7.189166E+03 -4.103875E+04
       116   2  7.801034E+05  2.496899E+05  7.119247E+04  3.137626E+05  5.104993E+03 -3.701689E+04
       116   3  7.209751E+05  2.340829E+05  6.194684E+04  3.030558E+05  2.952832E+03 -3.281823E+04
       116   4  3.483663E+05  9.996445E+04  6.146140E+02  1.983964E+05  1.488632E+04 -3.814417E+04
       116   5  3.524902E+05  9.581986E+04  3.400627E+02  1.936788E+05  1.313251E+04 -3.399648E+04
       116   6  3.483880E+05  9.998279E+04  2.037118E+02  1.983979E+05  1.131063E+04 -2.967193E+04
       116   7 -1.340891E+05 -7.371512E+04 -7.961317E+04  6.298626E+04  2.257705E+04 -3.525200E+04
       116   8 -7.492792E+04 -5.803154E+04 -7.051645E+04  7.367250E+04  2.115416E+04 -3.097828E+04
       116   9 -2.405495E+04 -3.410467E+04 -6.154357E+04  9.379770E+04  1.966319E+04 -2.652760E+04
       116  10  8.310750E+05  2.736678E+05  8.083516E+04  3.339068E+05  1.386750E-09 -2.106787E-09
       116  11  7.801030E+05  2.496884E+05  7.118985E+04  3.137628E+05  2.924844E-09 -2.318063E-09
       116  12  7.209748E+05  2.340817E+05  6.194480E+04  3.030559E+05 -7.337268E-09 -3.422400E-10
       116  13  3.483657E+05  9.996283E+04  6.114627E+02  1.983969E+05 -3.090874E-09 -2.151184E-09
       116  14  3.524897E+05  9.581858E+04  3.375662E+02  1.936792E+05 -6.195138E-09 -6.521239E-09
       116  15  3.483876E+05  9.998181E+04  2.018166E+02  1.983982E+05 -5.088546E-09  1.899252E-09
       116  16 -1.340900E+05 -7.371659E+04 -7.961646E+04  6.298690E+04 -1.215739E-08 -2.598328E-09
       116  17 -7.492866E+04 -5.803269E+04 -7.051910E+04  7.367303E+04 -5.564211E-09 -1.178270E-09
       116  18 -2.405555E+04 -3.410553E+04 -6.154562E+04  9.379812E+04  3.865514E-09  5.641767E-10
       116  19  8.310755E+05  2.736696E+05  8.083842E+04  3.339066E+05 -7.189166E+03  4.103875E+04
       116  20  7.801034E+05  2.496899E+05  7.119247E+04  3.137626E+05 -5.104993E+03  3.701689E+04
       116  21  7.209751E+05  2.340829E+05  6.194684E+04  3.030558E+05 -2.952832E+03  3.281823E+04
       116  22  3.483663E+05  9.996445E+04  6.146140E+02  1.983964E+05 -1.488632E+04  3.814417E+04
       116  23  3.524902E+05  9.581986E+04  3.400627E+02  1.936788E+05 -1.313251E+04  3.399648E+04
       116  24  3.483880E+05  9.998279E+04  2.037118E+02  1.983979E+05 -1.131063E+04  2.967193E+04
       116  25 -1.340891E+05 -7.371512E+04 -7.961317E+04  6.298626E+04 -2.257705E+04  3.525200E+04
       116  26 -7.492792E+04 -5.803154E+04 -7.051645E+04  7.367250E+04 -2.115416E+04  3.097828E+04
       116  27 -2.405495E+04 -3.410467E+04 -6.154357E+04  9.379770E+04 -1.966319E+04  2.652760E+04
       117   1  6.858042E+05  2.214034E+05  5.581488E+04  2.932048E+05  1.958766E+03 -3.021369E+04
       117   2  6.349742E+05  1.975300E+05  4.679631E+04  2.730502E+05  1.840115E+02 -2.577370E+04
       117   3  5.758923E+05  1.819412E+05  3.784834E+04  2.623271E+05 -1.597298E+03 -2.131884E+04
       117   4  3.483860E+05  9.999064E+04  1.641066E+02  1.983928E+05  1.029781E+04 -2.707371E+04
       117   5  3.525236E+05  9.586489E+04  1.249689E+02  1.936748E+05  8.550696E+03 -2.262232E+04
       117   6  3.484003E+05  1.000178E+05  1.340010E+02  1.983871E+05  6.797024E+03 -1.815606E+04
       117   7  1.108952E+04 -2.141039E+04 -5.548899E+04  1.036291E+05  1.863204E+04 -2.393553E+04
       117   8  7.015995E+04 -5.791395E+03 -4.654750E+04  1.143337E+05  1.691330E+04 -1.947247E+04
       117   9  1.209662E+05  1.810080E+04 -3.758057E+04  1.344698E+05  1.518799E+04 -1.499455E+04
       117  10  6.858040E+05  2.214024E+05  5.581315E+04  2.932048E+05  4.853477E-09  2.861717E-09
       117  11  6.349740E+05  1.975293E+05  4.679506E+04  2.730502E+05  3.293895E-09  3.665757E-09
       117  12  5.758922E+05  1.819407E+05  3.784748E+04  2.623271E+05  1.125939E-09 -6.275090E-10
       117  13  3.483856E+05  9.998982E+04  1.625296E+02  1.983930E+05 -4.595467E-09  2.298544E-09
       117  14  3.525234E+05  9.586432E+04  1.238696E+02  1.936749E+05 -4.378332E-10 -2.894809E-09
       117  15  3.484002E+05  1.000175E+05  1.332945E+02  1.983872E+05 -7.557170E-09  9.036781E-11
       117  16  1.108899E+04 -2.141110E+04 -5.549072E+04  1.036294E+05 -1.104398E-09  1.430009E-09
       117  17  7.015954E+04 -5.791879E+03 -4.654875E+04  1.143340E+05  8.217644E-10  2.348653E-09
       117  18  1.209659E+05  1.810049E+04 -3.758142E+04  1.344700E+05 -5.027101E-09 -2.006009E-09
       117  19  6.858042E+05  2.214034E+05  5.581488E+04  2.932048E+05 -1.958766E+03  3.021369E+04
       117  20  6.349742E+05  1.975300E+05  4.679631E+04  2.730502E+05 -1.840115E+02  2.577370E+04
       117  21  5.758923E+05  1.819412E+05  3.784834E+04  2.623271E+05  1.597298E+03  2.131884E+04
       117  22  3.483860E+05  9.999064E+04  1.641066E+02  1.983928E+05 -1.029781E+04  2.707371E+04
       117  23  3.525236E+05  9.586489E+04  1.249689E+02  1.936748E+05 -8.550696E+03  2.262232E+04
       117  24  3.484003E+05  1.000178E+05  1.340010E+02  1.983871E+05 -6.797024E+03  1.815606E+04
       117  25  1.108952E+04 -2.141039E+04 -5.548899E+04  1.036291E+05 -1.863204E+04  2.393553E+04
       117  26  7.015995E+04 -5.791395E+03 -4.654750E+04  1.143337E+05 -1.691330E+04  1.947247E+04
       117  27  1.209662E+05  1.810080E+04 -3.758057E+04  1.344698E+05 -1.518799E+04  1.499455E+04
       118   1  5.407801E+05  1.692635E+05  3.179779E+04  2.524804E+05 -2.604910E+03 -1.870937E+04
       118   2  4.899995E+05  1.453953E+05  2.294022E+04  2.323387E+05 -4.402995E+03 -1.425733E+04
       118   3  4.309642E+05  1.298031E+05  1.416162E+04  2.216225E+05 -6.198762E+03 -9.812674E+03
       118   4  3.484065E+05  1.000214E+05  1.545206E+02  1.983864E+05  5.786429E+03 -1.554728E+04
       118   5  3.525363E+05  9.588478E+04  2.400179E+02  1.936740E+05  3.974390E+03 -1.109999E+04
       118   6  3.484119E+05  1.000271E+05  4.156054E+02  1.983862E+05  2.164664E+03 -6.660107E+03
       118   7  1.560705E+05  3.078225E+04 -3.148990E+04  1.443076E+05  1.417510E+04 -1.238620E+04
       118   8  2.150926E+05  4.637593E+04 -2.246055E+04  1.550171E+05  1.234985E+04 -7.943382E+03
       118   9  2.658671E+05  7.025187E+04 -1.333029E+04  1.751529E+05  1.052691E+04 -3.507985E+03
       118  10  5.407800E+05  1.692631E+05  3.179711E+04  2.524803E+05 -1.829729E-09 -1.239134E-09
       118  11  4.899994E+05  1.453951E+05  2.293980E+04  2.323386E+05 -8.323047E-09 -2.517156E-10
       118  12  4.309641E+05  1.298030E+05  1.416137E+04  2.216225E+05 -1.753167E-09 -1.301260E-09
       118  13  3.484064E+05  1.000211E+05  1.540033E+02  1.983865E+05  4.324785E-09 -1.666186E-09
       118  14  3.525362E+05  9.588465E+04  2.397566E+02  1.936740E+05 -1.032560E-08  2.771960E-10
       118  15  3.484119E+05  1.000271E+05  4.155132E+02  1.983863E+05 -3.814617E-09  2.985440E-09
       118  16  1.560702E+05  3.078203E+04 -3.149056E+04  1.443077E+05  1.746808E-09 -2.729402E-09
       118  17  2.150924E+05  4.637582E+04 -2.246095E+04  1.550172E+05  4.789432E-09 -1.734387E-10
       118  18  2.658670E+05  7.025183E+04 -1.333052E+04  1.751529E+05 -2.164087E-09  7.970257E-10
       118  19  5.407801E+05  1.692635E+05  3.179779E+04  2.524804E+05  2.604910E+03  1.870937E+04
       118  20  4.899995E+05  1.453953E+05  2.294022E+04  2.323387E+05  4.402995E+03  1.425733E+04
       118  21  4.309642E+05  1.298031E+05  1.416162E+04  2.216225E+05  6.198762E+03  9.812674E+03
       118  22  3.484065E+05  1.000214E+05  1.545206E+02  1.983864E+05 -5.786429E+03  1.554728E+04
       118  23  3.525363E+05  9.588478E+04  2.400179E+02  1.936740E+05 -3.974390E+03  1.109999E+04
       118  24  3.484119E+05  1.000271E+05  4.156054E+02  1.983862E+05 -2.164664E+03  6.660107E+03
       118  25  1.560705E+05  3.078225E+04 -3.148990E+04  1.443076E+05 -1.417510E+04  1.238620E+04
       118  26  2.150926E+05  4.637593E+04 -2.246055E+04  1.550171E+05 -1.234985E+04  7.943382E+03
       118  27  2.658671E+05  7.025187E+04 -1.333029E+04  1.751529E+05 -1.052691E+04  3.507985E+03
       119   1  3.958779E+05  1.171317E+05  8.220881E+03  2.117969E+05 -7.269380E+03 -7.232890E+03
       119   2  3.450928E+05  9.325081E+04 -3.461175E+02  1.916553E+05 -9.279867E+03 -2.916499E+03
       119   3  2.861060E+05  7.768957E+04 -8.650614E+03  1.809309E+05 -1.125866E+04  1.316101E+03
       119   4  3.484280E+05  1.000244E+05  5.488056E+02  1.983916E+05  1.100389E+03 -4.077805E+03
       119   5  3.525197E+05  9.588290E+04  9.871307E+02  1.936710E+05 -1.066903E+03  1.794393E+02
       119   6  3.484371E+05  1.000915E+05  1.811796E+03  1.983662E+05 -3.202539E+03  4.352903E+03
       119   7  3.009812E+05  8.291772E+04 -7.122874E+03  1.849876E+05  9.469391E+03 -9.230103E+02
       119   8  3.599468E+05  9.851506E+04  2.320666E+03  1.956868E+05  7.146167E+03  3.275416E+03
       119   9  4.107731E+05  1.224941E+05  1.227457E+04  2.158033E+05  4.854522E+03  7.390059E+03
       119  10  3.958779E+05  1.171316E+05  8.220684E+03  2.117968E+05 -2.449189E-09  1.468584E-09
       119  11  3.450927E+05  9.325077E+04 -3.462952E+02  1.916553E+05  1.446215E-09 -1.832665E-09
       119  12  2.861059E+05  7.768953E+04 -8.650856E+03  1.809309E+05 -2.962075E-09 -2.609064E-09
       119  13  3.484280E+05  1.000244E+05  5.487721E+02  1.983916E+05 -5.692429E-10  2.308304E-09
       119  14  3.525197E+05  9.588290E+04  9.871285E+02  1.936710E+05 -2.854607E-09  6.006291E-10
       119  15  3.484371E+05  1.000915E+05  1.811741E+03  1.983662E+05  5.822140E-09 -3.239984E-09
       119  16  3.009811E+05  8.291769E+04 -7.123044E+03  1.849876E+05 -5.536225E-09 -1.567324E-10
       119  17  3.599467E+05  9.851503E+04  2.320550E+03  1.956868E+05 -9.158842E-09 -9.472678E-10
       119  18  4.107731E+05  1.224940E+05  1.227442E+04  2.158033E+05 -7.859036E-09  7.042819E-10
       119  19  3.958779E+05  1.171317E+05  8.220881E+03  2.117969E+05  7.269380E+03  7.232890E+03
       119  20  3.450928E+05  9.325081E+04 -3.461175E+02  1.916553E+05  9.279867E+03  2.916499E+03
       119  21  2.861060E+05  7.768957E+04 -8.650614E+03  1.809309E+05  1.125866E+04 -1.316101E+03
       119  22  3.484280E+05  1.000244E+05  5.488056E+02  1.983916E+05 -1.100389E+03  4.077805E+03
       119  23  3.525197E+05  9.588290E+04  9.871307E+02  1.936710E+05  1.066903E+03 -1.794393E+02
       119  24  3.484371E+05  1.000915E+05  1.811796E+03  1.983662E+05  3.202539E+03 -4.352903E+03
       119  25  3.009812E+05  8.291772E+04 -7.122874E+03  1.849876E+05 -9.469391E+03  9.230103E+02
       119  26  3.599468E+05  9.851506E+04  2.320666E+03  1.956868E+05 -7.146167E+03 -3.275416E+03
       119  27  4.107731E+05  1.224941E+05  1.227457E+04  2.158033E+05 -4.854522E+03 -7.390059E+03
       120   1  2.509708E+05  6.508973E+04 -1.420791E+04  1.712598E+05 -1.262894E+04  3.720452E+03
       120   2  2.005014E+05  4.103068E+04 -2.187562E+04  1.504770E+05 -1.473380E+04  7.410885E+03
       120   3  1.422675E+05  2.619139E+04 -2.880687E+04  1.388250E+05 -1.651256E+04  1.023733E+04
       120   4  3.485581E+05  1.000803E+05  2.417616E+03  1.984057E+05 -4.497737E+03  6.785409E+03
       120   5  3.524185E+05  9.628981E+04  4.442147E+03  1.934709E+05 -8.215639E+03  9.867344E+03
       120   6  3.488303E+05  1.020378E+05  8.480553E+03  1.976653E+05 -1.160752E+04  1.208539E+04
       120   7  4.461557E+05  1.350718E+05  1.904315E+04  2.255557E+05  3.634818E+03  9.850869E+03
       120   8  5.043593E+05  1.515510E+05  3.075917E+04  2.364744E+05 -1.695816E+03  1.232444E+04
       120   9  5.554358E+05  1.778877E+05  4.576597E+04  2.565234E+05 -6.700789E+03  1.393411E+04
       120  10  2.509706E+05  6.508968E+04 -1.420823E+04  1.712598E+05 -5.058232E-08 -2.657090E-08
       120  11  2.005011E+05  4.103056E+04 -2.187613E+04  1.504770E+05 -8.394300E-09 -5.315328E-09
       120  12  1.422672E+05  2.619121E+04 -2.880758E+04  1.388251E+05  4.237073E-08  1.598510E-08
       120  13  3.485581E+05  1.000802E+05  2.417492E+03  1.984058E+05 -2.633579E-09 -3.311466E-09
       120  14  3.524184E+05  9.628969E+04  4.441837E+03  1.934709E+05 -3.374783E-09 -2.687081E-09
       120  15  3.488301E+05  1.020376E+05  8.480025E+03  1.976654E+05 -8.351576E-09 -4.662472E-09
       120  16  4.461557E+05  1.350716E+05  1.904294E+04  2.255557E+05  4.617382E-08  1.485137E-08
       120  17  5.043592E+05  1.515508E+05  3.075888E+04  2.364745E+05 -1.417010E-08 -7.311739E-09
       120  18  5.554357E+05  1.778874E+05  4.576552E+04  2.565235E+05 -5.243937E-08 -2.812790E-08
       120  19  2.509708E+05  6.508973E+04 -1.420791E+04  1.712598E+05  1.262894E+04 -3.720452E+03
       120  20  2.005014E+05  4.103068E+04 -2.187562E+04  1.504770E+05  1.473380E+04 -7.410885E+03
       120  21  1.422675E+05  2.619139E+04 -2.880687E+04  1.388250E+05  1.651256E+04 -1.023733E+04
       120  22  3.485581E+05  1.000803E+05  2.417616E+03  1.984057E+05  4.497737E+03 -6.785409E+03
       120  23  3.524185E+05  9.628981E+04  4.442147E+03  1.934709E+05  8.215639E+03 -9.867344E+03
       120  24  3.488303E+05  1.020378E+05  8.480553E+03  1.976653E+05  1.160752E+04 -1.208539E+04
       120  25  4.461557E+05  1.350718E+05  1.904315E+04  2.255557E+05 -3.634818E+03 -9.850869E+03
       120  26  5.043593E+05  1.515510E+05  3.075917E+04  2.364744E+05  1.695816E+03 -1.232444E+04
       120  27  5.554358E+05  1.778877E+05  4.576597E+04  2.565234E+05  6.700789E+03 -1.393411E+04
       121   1  1.063944E+05  1.487527E+04 -3.303681E+04  1.311256E+05 -1.931046E+04  1.145711E+04
       121   2  6.384621E+04 -1.190576E+04 -3.945360E+04  9.738087E+04 -1.339924E+04  1.207451E+04
       121   3  1.946821E+04 -1.346484E+04 -4.502951E+04  6.745359E+04 -4.133243E+03  3.782665E+03
       121   4  3.502188E+05  1.021229E+05  1.133215E+04  1.980387E+05 -1.363526E+04  1.359516E+04
       121   5  3.519715E+05  1.054013E+05  2.166292E+04  1.895208E+05 -2.434478E+04  7.949330E+03
       121   6  3.551810E+05  1.371874E+05  4.600100E+04  1.848203E+05 -3.170058E+04 -6.603272E+03
       121   7  5.941096E+05  1.893772E+05  5.570018E+04  2.649772E+05 -7.957584E+03  1.573411E+04
       121   8  6.401822E+05  2.227207E+05  8.277520E+04  2.817019E+05 -3.529574E+04  3.821593E+03
       121   9  6.910000E+05  2.878589E+05  1.370227E+05  3.022472E+05 -5.928360E+04 -1.699787E+04
       121  10  1.063939E+05  1.487503E+04 -3.303776E+04  1.311258E+05  5.804800E-08  2.276611E-08
       121  11  6.384598E+04 -1.190596E+04 -3.945421E+04  9.738100E+04  5.676690E-09  9.525290E-09
       121  12  1.946819E+04 -1.346486E+04 -4.502957E+04  6.745360E+04 -4.678857E-08 -1.718235E-08
       121  13  3.502186E+05  1.021227E+05  1.133145E+04  1.980389E+05 -3.457696E-09  1.861343E-09
       121  14  3.519709E+05  1.054010E+05  2.166169E+04  1.895209E+05  1.053927E-08  4.253431E-09
       121  15  3.551799E+05  1.371871E+05  4.599903E+04  1.848201E+05  8.714624E-09  5.346571E-09
       121  16  5.941095E+05  1.893770E+05  5.569960E+04  2.649773E+05 -3.938893E-08 -2.075347E-08
       121  17  6.401808E+05  2.227203E+05  8.277283E+04  2.817020E+05  1.206999E-08  2.974486E-09
       121  18  6.909962E+05  2.878576E+05  1.370156E+05  3.022464E+05  4.651983E-08  2.007485E-08
       121  19  1.063944E+05  1.487527E+04 -3.303681E+04  1.311256E+05  1.931046E+04 -1.145711E+04
       121  20  6.384621E+04 -1.190576E+04 -3.945360E+04  9.738087E+04  1.339924E+04 -1.207451E+04
       121  21  1.946821E+04 -1.346484E+04 -4.502951E+04  6.745359E+04  4.133243E+03 -3.782665E+03
       121  22  3.502188E+05  1.021229E+05  1.133215E+04  1.980387E+05  1.363526E+04 -1.359516E+04
       121  23  3.519715E+05  1.054013E+05  2.166292E+04  1.895208E+05  2.434478E+04 -7.949330E+03
       121  24  3.551810E+05  1.371874E+05  4.600100E+04  1.848203E+05  3.170058E+04  6.603272E+03
       121  25  5.941096E+05  1.893772E+05  5.570018E+04  2.649772E+05  7.957584E+03 -1.573411E+04
       121  26  6.401822E+05  2.227207E+05  8.277520E+04  2.817019E+05  3.529574E+04 -3.821593E+03
       121  27  6.910000E+05  2.878589E+05  1.370227E+05  3.022472E+05  5.928360E+04  1.699787E+04
       122   1 -3.114568E+05 -1.796518E+06 -3.869981E+05  4.709900E+04 -8.383430E+02 -2.074695E+05
       122   2 -8.642219E+03 -1.727994E+06 -2.072955E+05  4.088342E+03 -3.153810E+03 -1.294552E+05
       122   3 -5.814427E+04 -1.756950E+06 -1.663878E+05  4.747385E+03 -2.115024E+03 -5.143384E+04
       122   4 -2.410105E+05 -1.515724E+06 -3.167676E+05  1.837120E+04 -8.299527E+02 -2.068863E+05
       122   5  5.668171E+04 -1.466973E+06 -1.422803E+05 -3.229395E+03 -3.152328E+03 -1.294040E+05
       122   6  2.228209E+03 -1.515567E+06 -1.061735E+05  1.884104E+04 -2.115672E+03 -5.191723E+04
       122   7 -1.705671E+05 -1.234856E+06 -2.465427E+05 -1.036960E+04 -8.216200E+02 -2.063029E+05
       122   8  1.220007E+05 -1.205889E+06 -7.727022E+04 -1.055020E+04 -3.150849E+03 -1.293529E+05
       122   9  6.259704E+04 -1.274131E+06 -4.596342E+04  3.294021E+04 -2.116342E+03 -5.240081E+04
       122  10 -3.114684E+05 -1.796564E+06 -3.870793E+05  4.709886E+04  9.783730E-10  2.020226E-09
       122  11 -8.646745E+03 -1.728012E+06 -2.073271E+05  4.088013E+03 -9.617563E-10 -5.763840E-09
       122  12 -5.814498E+04 -1.756953E+06 -1.663928E+05  4.747297E+03 -6.871646E-09 -6.139539E-09
       122  13 -2.410220E+05 -1.515770E+06 -3.168483E+05  1.837106E+04  2.439984E-09  1.366748E-10
       122  14  5.667719E+04 -1.466991E+06 -1.423118E+05 -3.229724E+03  4.811197E-09 -2.483003E-09
       122  15  2.227478E+03 -1.515570E+06 -1.061785E+05  1.884095E+04 -1.692820E-09  1.085632E-10
       122  16 -1.705786E+05 -1.234902E+06 -2.466228E+05 -1.036974E+04  4.202747E-09  4.525586E-10
       122  17  1.219962E+05 -1.205907E+06 -7.730174E+04 -1.055052E+04  1.390346E-08  4.075729E-09
       122  18  6.259630E+04 -1.274134E+06 -4.596859E+04  3.294012E+04 -4.156112E-09  3.874903E-09
       122  19 -3.114568E+05 -1.796518E+06 -3.869981E+05  4.709900E+04  8.383430E+02  2.074695E+05
       122  20 -8.642219E+03 -1.727994E+06 -2.072955E+05  4.088342E+03  3.153810E+03  1.294552E+05
       122  21 -5.814427E+04 -1.756950E+06 -1.663878E+05  4.747385E+03  2.115024E+03  5.143384E+04
       122  22 -2.410105E+05 -1.515724E+06 -3.167676E+05  1.837120E+04  8.299527E+02  2.068863E+05
       122  23  5.668171E+04 -1.466973E+06 -1.422803E+05 -3.229395E+03  3.152328E+03  1.294040E+05
       122  24  2.228209E+03 -1.515567E+06 -1.061735E+05  1.884104E+04  2.115672E+03  5.191723E+04
       122  25 -1.705671E+05 -1.234856E+06 -2.465427E+05 -1.036960E+04  8.216200E+02  2.063029E+05
       122  26  1.220007E+05 -1.205889E+06 -7.727022E+04 -1.055020E+04  3.150849E+03  1.293529E+05
       122  27  6.259704E+04 -1.274131E+06 -4.596342E+04  3.294021E+04  2.116342E+03  5.240081E+04
       123   1 -5.438790E+04 -1.579465E+06 -1.156240E+05  2.683790E+04 -1.074005E+03 -3.360763E+04
       123   2  3.910351E+03 -1.540220E+06 -8.711836E+04 -5.407674E+03 -6.323847E+02  4.887509E+03
       123   3 -4.788648E+04 -1.533410E+06 -1.112145E+05  1.381252E+04 -1.202074E+01  4.338401E+04
       123   4 -3.478959E+04 -1.501164E+06 -9.613214E+04  2.041924E+04 -1.073595E+03 -3.367467E+04
       123   5  1.773611E+04 -1.484954E+06 -7.334693E+04 -5.311966E+03 -6.323098E+02  4.794025E+03
       123   6 -3.982345E+04 -1.501172E+06 -1.031415E+05  2.042256E+04 -1.148001E+01  4.326265E+04
       123   7 -1.519158E+04 -1.422858E+06 -7.664073E+04  1.399977E+04 -1.073183E+03 -3.374172E+04
       123   8  3.156164E+04 -1.429685E+06 -5.957573E+04 -5.216248E+03 -6.322349E+02  4.700533E+03
       123   9 -3.176032E+04 -1.468932E+06 -9.506849E+04  2.703293E+04 -1.094189E+01  4.314129E+04
       123  10 -5.438821E+04 -1.579467E+06 -1.156261E+05  2.683787E+04 -8.425111E-10  3.520647E-09
       123  11  3.910345E+03 -1.540220E+06 -8.711840E+04 -5.407672E+03  9.866247E-09 -1.238227E-09
       123  12 -4.788699E+04 -1.533412E+06 -1.112181E+05  1.381252E+04  3.579287E-09 -4.943294E-09
       123  13 -3.478990E+04 -1.501166E+06 -9.613428E+04  2.041921E+04 -7.968421E-09 -5.246037E-10
       123  14  1.773610E+04 -1.484954E+06 -7.334698E+04 -5.311963E+03  1.109526E-08  4.246362E-11
       123  15 -3.982395E+04 -1.501174E+06 -1.031450E+05  2.042256E+04 -1.364678E-09 -1.609012E-09
       123  16 -1.519189E+04 -1.422859E+06 -7.664288E+04  1.399974E+04 -2.275503E-09 -1.291977E-09
       123  17  3.156163E+04 -1.429685E+06 -5.957578E+04 -5.216246E+03  7.467825E-09  9.022648E-10
       123  18 -3.176082E+04 -1.468934E+06 -9.507199E+04  2.703293E+04 -1.637831E-09  2.696285E-09
       123  19 -5.438790E+04 -1.579465E+06 -1.156240E+05  2.683790E+04  1.074005E+03  3.360763E+04
       123  20  3.910351E+03 -1.540220E+06 -8.711836E+04 -5.407674E+03  6.323847E+02 -4.887509E+03
       123  21 -4.788648E+04 -1.533410E+06 -1.112145E+05  1.381252E+04  1.202074E+01 -4.338401E+04
       123  22 -3.478959E+04 -1.501164E+06 -9.613214E+04  2.041924E+04  1.073595E+03  3.367467E+04
       123  23  1.773611E+04 -1.484954E+06 -7.334693E+04 -5.311966E+03  6.323098E+02 -4.794025E+03
       123  24 -3.982345E+04 -1.501172E+06 -1.031415E+05  2.042256E+04  1.148001E+01 -4.326265E+04
       123  25 -1.519158E+04 -1.422858E+06 -7.664073E+04  1.399977E+04  1.073183E+03  3.374172E+04
       123  26  3.156164E+04 -1.429685E+06 -5.957573E+04 -5.216248E+03  6.322349E+02 -4.700533E+03
       123  27 -3.176032E+04 -1.468932E+06 -9.506849E+04  2.703293E+04  1.094189E+01 -4.314129E+04
       124   1  3.883996E+04 -1.379441E+06 -8.120614E+04  3.589954E+04  9.670374E+02  6.341001E+04
       124   2  1.042911E+05 -1.302461E+06 -1.194443E+05 -1.271867E+04  1.966002E+03  1.499589E+05
       124   3 -2.278976E+05 -1.335835E+06 -3.134188E+05 -1.268519E+04  5.136216E+02  2.365097E+05
       124   4  4.076863E+03 -1.518469E+06 -1.159044E+05  1.991291E+04  9.656799E+02  6.301573E+04
       124   5  6.403902E+04 -1.463332E+06 -1.594985E+05 -4.588742E+03  1.967979E+03  1.499548E+05
       124   6 -2.737646E+05 -1.518650E+06 -3.591313E+05  1.956075E+04  5.253936E+02  2.368926E+05
       124   7 -3.068672E+04 -1.657479E+06 -1.506039E+05  3.929861E+03  9.643424E+02  6.262153E+04
       124   8  2.378524E+04 -1.624179E+06 -1.995547E+05  3.539085E+03  1.969957E+03  1.499507E+05
       124   9 -3.196301E+05 -1.701433E+06 -4.048459E+05  5.179717E+04  5.372086E+02  2.372754E+05
       124  10  3.883887E+04 -1.379445E+06 -8.121371E+04  3.589949E+04  2.110717E-09  1.615739E-09
       124  11  1.042850E+05 -1.302485E+06 -1.194867E+05 -1.271891E+04  1.077538E-08 -3.685867E-09
       124  12 -2.279127E+05 -1.335896E+06 -3.135241E+05 -1.268529E+04 -2.102937E-09 -4.278458E-09
       124  13  4.075792E+03 -1.518473E+06 -1.159119E+05  1.991286E+04 -1.890461E-09  6.839791E-10
       124  14  6.403296E+04 -1.463356E+06 -1.595409E+05 -4.588980E+03  1.799794E-09 -2.894404E-10
       124  15 -2.737797E+05 -1.518711E+06 -3.592371E+05  1.956065E+04  2.727965E-09 -4.026819E-10
       124  16 -3.068778E+04 -1.657483E+06 -1.506113E+05  3.929812E+03 -2.539315E-09  2.284759E-10
       124  17  2.377918E+04 -1.624203E+06 -1.995970E+05  3.538847E+03  5.354151E-09  2.618545E-09
       124  18 -3.196453E+05 -1.701493E+06 -4.049520E+05  5.179707E+04  3.003023E-09  1.914079E-09
       124  19  3.883996E+04 -1.379441E+06 -8.120614E+04  3.589954E+04 -9.670374E+02 -6.341001E+04
       124  20  1.042911E+05 -1.302461E+06 -1.194443E+05 -1.271867E+04 -1.966002E+03 -1.499589E+05
       124  21 -2.278976E+05 -1.335835E+06 -3.134188E+05 -1.268519E+04 -5.136216E+02 -2.365097E+05
       124  22  4.076863E+03 -1.518469E+06 -1.159044E+05  1.991291E+04 -9.656799E+02 -6.301573E+04
       124  23  6.403902E+04 -1.463332E+06 -1.594985E+05 -4.588742E+03 -1.967979E+03 -1.499548E+05
       124  24 -2.737646E+05 -1.518650E+06 -3.591313E+05  1.956075E+04 -5.253936E+02 -2.368926E+05
       124  25 -3.068672E+04 -1.657479E+06 -1.506039E+05  3.929861E+03 -9.643424E+02 -6.262153E+04
       124  26  2.378524E+04 -1.624179E+06 -1.995547E+05  3.539085E+03 -1.969957E+03 -1.499507E+05
       124  27 -3.196301E+05 -1.701433E+06 -4.048459E+05  5.179717E+04 -5.372086E+02 -2.372754E+05
       125   1  3.091397E+05  9.693311E+04  6.591725E+04  1.118190E+05  4.728060E+04  1.817325E+04
       125   2  2.962640E+05  2.680538E+04  2.152592E+04  1.232679E+05  3.019809E+04  1.241700E+04
       125   3  3.117623E+05  2.965189E+04  9.425973E+03  1.170700E+05  1.333624E+04  6.075978E+03
       125   4  3.517880E+05  1.011398E+05  7.521603E+04  1.112797E+05  4.758587E+04  1.828733E+04
       125   5  3.337590E+05  3.775912E+04  3.099749E+04  1.302480E+05  3.030481E+04  1.245707E+04
       125   6  3.441417E+05  4.738891E+04  1.922610E+04  1.315698E+05  1.324449E+04  6.041507E+03
       125   7  3.944380E+05  1.053466E+05  8.451474E+04  1.107402E+05  4.789117E+04  1.840139E+04
       125   8  3.712552E+05  4.871282E+04  4.046894E+04  1.372284E+05  3.041154E+04  1.249714E+04
       125   9  3.765223E+05  6.512646E+04  2.902616E+04  1.460705E+05  1.315274E+04  6.007031E+03
       125  10  3.091372E+05  9.693216E+04  6.591243E+04  1.118183E+05  3.257469E-09  2.361271E-09
       125  11  2.962630E+05  2.680497E+04  2.152392E+04  1.232676E+05 -5.879643E-09  2.880918E-09
       125  12  3.117621E+05  2.965180E+04  9.425569E+03  1.170699E+05 -2.057709E-09 -5.030954E-10
       125  13  3.517855E+05  1.011388E+05  7.521115E+04  1.112790E+05  3.521369E-09 -2.075332E-09
       125  14  3.337579E+05  3.775871E+04  3.099548E+04  1.302477E+05  1.877916E-09 -3.249365E-09
       125  15  3.441415E+05  4.738883E+04  1.922570E+04  1.315697E+05  6.233227E-09 -1.078959E-09
       125  16  3.944355E+05  1.053456E+05  8.450979E+04  1.107395E+05  4.117566E-09  2.501755E-09
       125  17  3.712542E+05  4.871241E+04  4.046691E+04  1.372280E+05  4.522673E-09  3.476218E-09
       125  18  3.765221E+05  6.512637E+04  2.902577E+04  1.460704E+05  1.061511E-10 -2.568836E-09
       125  19  3.091397E+05  9.693311E+04  6.591725E+04  1.118190E+05 -4.728060E+04 -1.817325E+04
       125  20  2.962640E+05  2.680538E+04  2.152592E+04  1.232679E+05 -3.019809E+04 -1.241700E+04
       125  21  3.117623E+05  2.965189E+04  9.425973E+03  1.170700E+05 -1.333624E+04 -6.075978E+03
       125  22  3.517880E+05  1.011398E+05  7.521603E+04  1.112797E+05 -4.758587E+04 -1.828733E+04
       125  23  3.337590E+05  3.775912E+04  3.099749E+04  1.302480E+05 -3.030481E+04 -1.245707E+04
       125  24  3.441417E+05  4.738891E+04  1.922610E+04  1.315698E+05 -1.324449E+04 -6.041507E+03
       125  25  3.944380E+05  1.053466E+05  8.451474E+04  1.107402E+05 -4.789117E+04 -1.840139E+04
       125  26  3.712552E+05  4.871282E+04  4.046894E+04  1.372284E+05 -3.041154E+04 -1.249714E+04
       125  27  3.765223E+05  6.512646E+04  2.902616E+04  1.460705E+05 -1.315274E+04 -6.007031E+03
       126   1  3.013593E+05  4.201945E+04  5.151635E+03  1.172838E+05  1.038565E+04  4.894035E+03
       126   2  2.988640E+05  3.201196E+04 -3.618962E+03  1.179118E+05  6.511448E+03  3.560106E+03
       126   3  2.993449E+05  3.247314E+04 -6.967692E+03  1.173894E+05  2.660702E+03  2.164172E+03
       126   4  3.416630E+05  5.578909E+04  1.575738E+04  1.268201E+05  1.043440E+04  4.912391E+03
       126   5  3.396775E+05  4.706692E+04  7.318772E+03  1.287108E+05  6.539025E+03  3.570500E+03
       126   6  3.406723E+05  4.881722E+04  4.318531E+03  1.294513E+05  2.667110E+03  2.166588E+03
       126   7  3.819682E+05  6.955876E+04  2.636300E+04  1.363568E+05  1.048314E+04  4.930747E+03
       126   8  3.804927E+05  6.212195E+04  1.825635E+04  1.395105E+05  6.566603E+03  3.580894E+03
       126   9  3.820012E+05  6.516142E+04  1.560458E+04  1.415139E+05  2.673518E+03  2.169004E+03
       126  10  3.013592E+05  4.201939E+04  5.151387E+03  1.172838E+05 -3.246671E-09  2.907232E-09
       126  11  2.988639E+05  3.201193E+04 -3.619066E+03  1.179117E+05  5.412692E-09  1.271033E-08
       126  12  2.993449E+05  3.247313E+04 -6.967714E+03  1.173893E+05 -3.485076E-09  7.204827E-09
       126  13  3.416629E+05  5.578904E+04  1.575713E+04  1.268200E+05 -5.019489E-09  5.285544E-10
       126  14  3.396775E+05  4.706690E+04  7.318667E+03  1.287108E+05  2.766395E-09 -6.887443E-09
       126  15  3.406723E+05  4.881721E+04  4.318509E+03  1.294513E+05 -1.614902E-09  3.947411E-09
       126  16  3.819681E+05  6.955871E+04  2.636275E+04  1.363568E+05  1.284917E-09 -2.060046E-09
       126  17  3.804926E+05  6.212193E+04  1.825624E+04  1.395105E+05 -7.653495E-10 -2.226744E-10
       126  18  3.820012E+05  6.516141E+04  1.560455E+04  1.415139E+05 -5.116564E-09  6.332595E-10
       126  19  3.013593E+05  4.201945E+04  5.151635E+03  1.172838E+05 -1.038565E+04 -4.894035E+03
       126  20  2.988640E+05  3.201196E+04 -3.618962E+03  1.179118E+05 -6.511448E+03 -3.560106E+03
       126  21  2.993449E+05  3.247314E+04 -6.967692E+03  1.173894E+05 -2.660702E+03 -2.164172E+03
       126  22  3.416630E+05  5.578909E+04  1.575738E+04  1.268201E+05 -1.043440E+04 -4.912391E+03
       126  23  3.396775E+05  4.706692E+04  7.318772E+03  1.287108E+05 -6.539025E+03 -3.570500E+03
       126  24  3.406723E+05  4.881722E+04  4.318531E+03  1.294513E+05 -2.667110E+03 -2.166588E+03
       126  25  3.819682E+05  6.955876E+04  2.636300E+04  1.363568E+05 -1.048314E+04 -4.930747E+03
       126  26  3.804927E+05  6.212195E+04  1.825635E+04  1.395105E+05 -6.566603E+03 -3.580894E+03
       126  27  3.820012E+05  6.516142E+04  1.560458E+04  1.415139E+05 -2.673518E+03 -2.169004E+03
       127   1  2.951678E+05  3.303318E+04 -8.730474E+03  1.166731E+05  2.003920E+03  1.940933E+03
       127   2  2.940571E+05  3.075223E+04 -1.080145E+04  1.158205E+05  1.096238E+03  1.669020E+03
       127   3  2.923629E+05  3.086549E+04 -1.187953E+04  1.160069E+05  1.900214E+02  1.393205E+03
       127   4  3.402910E+05  4.991008E+04  3.416048E+03  1.288481E+05  2.025514E+03  1.949071E+03
       127   5  3.405191E+05  4.826557E+04  1.725177E+03  1.284973E+05  1.116454E+03  1.676638E+03
       127   6  3.401640E+05  4.901552E+04  1.028249E+03  1.291856E+05  2.088600E+02  1.400301E+03
       127   7  3.854162E+05  6.678711E+04  1.556241E+04  1.410238E+05  2.047109E+03  1.957209E+03
       127   8  3.869833E+05  6.577905E+04  1.425162E+04  1.411750E+05  1.136673E+03  1.684256E+03
       127   9  3.879674E+05  6.716568E+04  1.393582E+04  1.423653E+05  2.277002E+02  1.407398E+03
       127  10  2.951678E+05  3.303318E+04 -8.730488E+03  1.166731E+05  2.874775E-09  5.639403E-09
       127  11  2.940571E+05  3.075223E+04 -1.080146E+04  1.158205E+05 -1.212134E-09 -9.917522E-11
       127  12  2.923629E+05  3.086549E+04 -1.187953E+04  1.160069E+05 -1.070290E-08  4.086791E-09
       127  13  3.402910E+05  4.991007E+04  3.416033E+03  1.288481E+05 -8.230049E-09  1.658376E-09
       127  14  3.405191E+05  4.826557E+04  1.725169E+03  1.284973E+05 -6.644066E-09  4.191132E-09
       127  15  3.401640E+05  4.901551E+04  1.028245E+03  1.291856E+05  4.516279E-09  4.617410E-09
       127  16  3.854162E+05  6.678711E+04  1.556240E+04  1.410238E+05 -7.306032E-09  3.613792E-09
       127  17  3.869833E+05  6.577905E+04  1.425162E+04  1.411750E+05  3.524888E-09  3.818419E-09
       127  18  3.879674E+05  6.716568E+04  1.393582E+04  1.423653E+05  3.822578E-09  3.802169E-09
       127  19  2.951678E+05  3.303318E+04 -8.730474E+03  1.166731E+05 -2.003920E+03 -1.940933E+03
       127  20  2.940571E+05  3.075223E+04 -1.080145E+04  1.158205E+05 -1.096238E+03 -1.669020E+03
       127  21  2.923629E+05  3.086549E+04 -1.187953E+04  1.160069E+05 -1.900214E+02 -1.393205E+03
       127  22  3.402910E+05  4.991008E+04  3.416048E+03  1.288481E+05 -2.025514E+03 -1.949071E+03
       127  23  3.405191E+05  4.826557E+04  1.725177E+03  1.284973E+05 -1.116454E+03 -1.676638E+03
       127  24  3.401640E+05  4.901552E+04  1.028249E+03  1.291856E+05 -2.088600E+02 -1.400301E+03
       127  25  3.854162E+05  6.678711E+04  1.556241E+04  1.410238E+05 -2.047109E+03 -1.957209E+03
       127  26  3.869833E+05  6.577905E+04  1.425162E+04  1.411750E+05 -1.136673E+03 -1.684256E+03
       127  27  3.879674E+05  6.716568E+04  1.393582E+04  1.423653E+05 -2.277002E+02 -1.407398E+03
       128   1  2.887553E+05  2.980784E+04 -1.302159E+04  1.151140E+05  2.307353E+01  1.368271E+03
       128   2  2.877636E+05  2.841749E+04 -1.373841E+04  1.139735E+05 -2.690204E+02  1.327828E+03
       128   3  2.856043E+05  2.850308E+04 -1.420163E+04  1.142582E+05 -5.621595E+02  1.290192E+03
       128   4  3.400855E+05  4.917318E+04  8.267739E+02  1.291349E+05  4.321013E+01  1.375855E+03
       128   5  3.406629E+05  4.838952E+04  5.303031E+02  1.284396E+05 -2.479594E+02  1.335759E+03
       128   6  3.400725E+05  4.908158E+04  4.866896E+02  1.291694E+05 -5.401754E+02  1.298469E+03
       128   7  3.914181E+05  6.853863E+04  1.467488E+04  1.431569E+05  6.334853E+01  1.383440E+03
       128   8  3.935648E+05  6.836173E+04  1.479877E+04  1.429068E+05 -2.268965E+02  1.343691E+03
       128   9  3.945435E+05  6.966030E+04  1.517478E+04  1.440818E+05 -5.181892E+02  1.306747E+03
       128  10  2.887553E+05  2.980784E+04 -1.302159E+04  1.151140E+05 -2.120316E-09  3.540741E-09
       128  11  2.877636E+05  2.841749E+04 -1.373841E+04  1.139735E+05 -8.054385E-09  1.254636E-09
       128  12  2.856043E+05  2.850308E+04 -1.420164E+04  1.142582E+05 -7.727766E-09  3.969929E-09
       128  13  3.400855E+05  4.917317E+04  8.267704E+02  1.291349E+05  2.540099E-09  2.985720E-10
       128  14  3.406629E+05  4.838952E+04  5.302996E+02  1.284396E+05  8.393998E-09  6.741374E-09
       128  15  3.400725E+05  4.908158E+04  4.866859E+02  1.291694E+05 -1.057581E-09 -3.955728E-09
       128  16  3.914181E+05  6.853863E+04  1.467487E+04  1.431569E+05  2.069161E-09  2.015944E-09
       128  17  3.935648E+05  6.836172E+04  1.479877E+04  1.429068E+05  7.476539E-09  4.629721E-09
       128  18  3.945435E+05  6.966029E+04  1.517477E+04  1.440818E+05  8.965215E-09  1.771916E-09
       128  19  2.887553E+05  2.980784E+04 -1.302159E+04  1.151140E+05 -2.307353E+01 -1.368271E+03
       128  20  2.877636E+05  2.841749E+04 -1.373841E+04  1.139735E+05  2.690204E+02 -1.327828E+03
       128  21  2.856043E+05  2.850308E+04 -1.420163E+04  1.142582E+05  5.621595E+02 -1.290192E+03
       128  22  3.400855E+05  4.917318E+04  8.267739E+02  1.291349E+05 -4.321013E+01 -1.375855E+03
       128  23  3.406629E+05  4.838952E+04  5.303031E+02  1.284396E+05  2.479594E+02 -1.335759E+03
       128  24  3.400725E+05  4.908158E+04  4.866896E+02  1.291694E+05  5.401754E+02 -1.298469E+03
       128  25  3.914181E+05  6.853863E+04  1.467488E+04  1.431569E+05 -6.334853E+01 -1.383440E+03
       128  26  3.935648E+05  6.836173E+04  1.479877E+04  1.429068E+05  2.268965E+02 -1.343691E+03
       128  27  3.945435E+05  6.966030E+04  1.517478E+04  1.440818E+05  5.181892E+02 -1.306747E+03
       129   1  2.817590E+05  2.711639E+04 -1.520567E+04  1.132940E+05 -6.600178E+02  1.296799E+03
       129   2  2.806721E+05  2.568151E+04 -1.547373E+04  1.119876E+05 -1.047461E+03  1.226839E+03
       129   3  2.783333E+05  2.593939E+04 -1.539519E+04  1.122395E+05 -1.435671E+03  1.158970E+03
       129   4  3.400496E+05  4.910137E+04  5.189976E+02  1.292097E+05 -6.379154E+02  1.305119E+03
       129   5  3.406876E+05  4.833940E+04  7.143405E+02  1.283987E+05 -1.024689E+03  1.235409E+03
       129   6  3.400735E+05  4.927004E+04  1.255735E+03  1.291461E+05 -1.412231E+03  1.167789E+03
       129   7  3.983435E+05  7.108655E+04  1.624336E+04  1.451268E+05 -6.158106E+02  1.313439E+03
       129   8  4.007064E+05  7.099747E+04  1.690208E+04  1.448113E+05 -1.001915E+03  1.243980E+03
       129   9  4.018172E+05  7.260087E+04  1.790628E+04  1.460542E+05 -1.388788E+03  1.176609E+03
       129  10  2.817590E+05  2.711639E+04 -1.520567E+04  1.132940E+05 -3.309060E-09  4.737680E-09
       129  11  2.806721E+05  2.568151E+04 -1.547374E+04  1.119876E+05  2.833496E-09 -5.611986E-09
       129  12  2.783333E+05  2.593939E+04 -1.539519E+04  1.122395E+05 -6.646370E-10 -7.200507E-09
       129  13  3.400496E+05  4.910137E+04  5.189936E+02  1.292097E+05  6.567598E-09  1.189764E-08
       129  14  3.406876E+05  4.833940E+04  7.143357E+02  1.283987E+05 -3.160291E-09  4.659537E-09
       129  15  3.400735E+05  4.927004E+04  1.255729E+03  1.291461E+05  4.447773E-09  3.927167E-10
       129  16  3.983435E+05  7.108655E+04  1.624336E+04  1.451268E+05  5.821521E-11  5.876300E-09
       129  17  4.007064E+05  7.099747E+04  1.690207E+04  1.448113E+05 -3.417097E-09 -2.588889E-09
       129  18  4.018172E+05  7.260087E+04  1.790628E+04  1.460542E+05  2.660383E-09 -3.172944E-09
       129  19  2.817590E+05  2.711639E+04 -1.520567E+04  1.132940E+05  6.600178E+02 -1.296799E+03
       129  20  2.806721E+05  2.568151E+04 -1.547373E+04  1.119876E+05  1.047461E+03 -1.226839E+03
       129  21  2.783333E+05  2.593939E+04 -1.539519E+04  1.122395E+05  1.435671E+03 -1.158970E+03
       129  22  3.400496E+05  4.910137E+04  5.189976E+02  1.292097E+05  6.379154E+02 -1.305119E+03
       129  23  3.406876E+05  4.833940E+04  7.143405E+02  1.283987E+05  1.024689E+03 -1.235409E+03
       129  24  3.400735E+05  4.927004E+04  1.255735E+03  1.291461E+05  1.412231E+03 -1.167789E+03
       129  25  3.983435E+05  7.108655E+04  1.624336E+04  1.451268E+05  6.158106E+02 -1.313439E+03
       129  26  4.007064E+05  7.099747E+04  1.690208E+04  1.448113E+05  1.001915E+03 -1.243980E+03
       129  27  4.018172E+05  7.260087E+04  1.790628E+04  1.460542E+05  1.388788E+03 -1.176609E+03
       130   1  2.740531E+05  2.430942E+04 -1.619567E+04  1.114203E+05 -1.692578E+03  1.113516E+03
       130   2  2.726941E+05  2.237998E+04 -1.555582E+04  1.097854E+05 -3.129849E+03  6.572700E+02
       130   3  2.707095E+05  2.399479E+04 -1.332737E+04  1.094710E+05 -4.561376E+03  1.857462E+02
       130   4  3.401287E+05  4.908898E+04  1.600981E+03  1.293165E+05 -1.664930E+03  1.123918E+03
       130   5  3.405432E+05  4.803938E+04  2.753477E+03  1.283838E+05 -3.107501E+03  6.656725E+02
       130   6  3.403333E+05  5.053499E+04  5.498657E+03  1.287717E+05 -4.544331E+03  1.921472E+02
       130   7  4.062085E+05  7.386883E+04  1.939728E+04  1.472144E+05 -1.637279E+03  1.134322E+03
       130   8  4.083969E+05  7.369909E+04  2.106239E+04  1.469840E+05 -3.085151E+03  6.740760E+02
       130   9  4.099616E+05  7.707549E+04  2.432425E+04  1.480744E+05 -4.527284E+03  1.985491E+02
       130  10  2.740531E+05  2.430942E+04 -1.619568E+04  1.114203E+05 -5.083128E-09 -9.410388E-10
       130  11  2.726941E+05  2.237998E+04 -1.555584E+04  1.097854E+05 -6.363817E-09 -6.178440E-09
       130  12  2.707095E+05  2.399479E+04 -1.332741E+04  1.094710E+05  2.859659E-09 -6.137649E-09
       130  13  3.401286E+05  4.908898E+04  1.600973E+03  1.293165E+05  3.547855E-10  2.279189E-09
       130  14  3.405432E+05  4.803938E+04  2.753458E+03  1.283838E+05 -7.749974E-10  5.943828E-09
       130  15  3.403332E+05  5.053498E+04  5.498618E+03  1.287717E+05  1.238872E-09 -8.200584E-10
       130  16  4.062085E+05  7.386883E+04  1.939728E+04  1.472144E+05  3.598825E-10  2.742124E-09
       130  17  4.083969E+05  7.369909E+04  2.106237E+04  1.469840E+05 -3.466861E-09  4.607363E-09
       130  18  4.099616E+05  7.707549E+04  2.432421E+04  1.480744E+05  2.672615E-10  5.268413E-09
       130  19  2.740531E+05  2.430942E+04 -1.619567E+04  1.114203E+05  1.692578E+03 -1.113516E+03
       130  20  2.726941E+05  2.237998E+04 -1.555582E+04  1.097854E+05  3.129849E+03 -6.572700E+02
       130  21  2.707095E+05  2.399479E+04 -1.332737E+04  1.094710E+05  4.561376E+03 -1.857462E+02
       130  22  3.401287E+05  4.908898E+04  1.600981E+03  1.293165E+05  1.664930E+03 -1.123918E+03
       130  23  3.405432E+05  4.803938E+04  2.753477E+03  1.283838E+05  3.107501E+03 -6.656725E+02
       130  24  3.403333E+05  5.053499E+04  5.498657E+03  1.287717E+05  4.544331E+03 -1.921472E+02
       130  25  4.062085E+05  7.386883E+04  1.939728E+04  1.472144E+05  1.637279E+03 -1.134322E+03
       130  26  4.083969E+05  7.369909E+04  2.106239E+04  1.469840E+05  3.085151E+03 -6.740760E+02
       130  27  4.099616E+05  7.707549E+04  2.432425E+04  1.480744E+05  4.527284E+03 -1.985491E+02
       131   1  2.655552E+05  2.160795E+04 -1.312579E+04  1.104660E+05 -5.652929E+03 -1.407693E+02
       131   2  2.630965E+05  1.668950E+04 -8.841559E+03  1.072156E+05 -1.184709E+04 -2.368997E+03
       131   3  2.654277E+05  2.869238E+04  4.177295E+03  1.021381E+05 -1.797480E+04 -4.773770E+03
       131   4  3.408781E+05  4.884344E+04  6.960987E+03  1.298289E+05 -5.592925E+03 -1.181819E+02
       131   5  3.392739E+05  4.600953E+04  1.181119E+04  1.286222E+05 -1.184736E+04 -2.369129E+03
       131   6  3.424708E+05  6.010763E+04  2.544294E+04  1.255883E+05 -1.803537E+04 -4.796663E+03
       131   7  4.162062E+05  7.607909E+04  2.704723E+04  1.491939E+05 -5.532913E+03 -9.559175E+01
       131   8  4.154568E+05  7.532995E+04  3.246342E+04  1.500311E+05 -1.184762E+04 -2.369261E+03
       131   9  4.195198E+05  9.152357E+04  4.670807E+04  1.490413E+05 -1.809594E+04 -4.819561E+03
       131  10  2.655552E+05  2.160794E+04 -1.312585E+04  1.104660E+05 -1.651303E-09 -4.627877E-09
       131  11  2.630964E+05  1.668946E+04 -8.841834E+03  1.072156E+05 -4.170172E-10  3.085158E-09
       131  12  2.654274E+05  2.869227E+04  4.176645E+03  1.021380E+05  2.268781E-09  5.342532E-09
       131  13  3.408780E+05  4.884343E+04  6.960928E+03  1.298289E+05 -9.396094E-10 -3.970549E-09
       131  14  3.392737E+05  4.600948E+04  1.181092E+04  1.286222E+05 -9.302922E-11 -1.196859E-09
       131  15  3.424705E+05  6.010752E+04  2.544228E+04  1.255882E+05 -4.311841E-09  3.662294E-09
       131  16  4.162062E+05  7.607908E+04  2.704718E+04  1.491939E+05  5.125457E-09  4.527021E-09
       131  17  4.154567E+05  7.532991E+04  3.246315E+04  1.500311E+05  4.726817E-09 -8.327560E-09
       131  18  4.195195E+05  9.152346E+04  4.670741E+04  1.490412E+05 -8.594928E-10 -3.470549E-12
       131  19  2.655552E+05  2.160795E+04 -1.312579E+04  1.104660E+05  5.652929E+03  1.407693E+02
       131  20  2.630965E+05  1.668950E+04 -8.841559E+03  1.072156E+05  1.184709E+04  2.368997E+03
       131  21  2.654277E+05  2.869238E+04  4.177295E+03  1.021381E+05  1.797480E+04  4.773770E+03
       131  22  3.408781E+05  4.884344E+04  6.960987E+03  1.298289E+05  5.592925E+03  1.181819E+02
       131  23  3.392739E+05  4.600953E+04  1.181119E+04  1.286222E+05  1.184736E+04  2.369129E+03
       131  24  3.424708E+05  6.010763E+04  2.544294E+04  1.255883E+05  1.803537E+04  4.796663E+03
       131  25  4.162062E+05  7.607909E+04  2.704723E+04  1.491939E+05  5.532913E+03  9.559175E+01
       131  26  4.154568E+05  7.532995E+04  3.246342E+04  1.500311E+05  1.184762E+04  2.369261E+03
       131  27  4.195198E+05  9.152357E+04  4.670807E+04  1.490413E+05  1.809594E+04  4.819561E+03
       132   1  2.560863E+05  2.139884E+04  8.438370E+03  1.177573E+05 -2.305732E+04 -6.343912E+03
       132   2  2.473103E+05 -5.381484E+03  2.684418E+04  1.031719E+05 -5.011326E+04 -1.632517E+04
       132   3  2.839436E+05  8.603467E+04  9.721813E+04  6.054184E+04 -7.655261E+04 -2.794458E+04
       132   4  3.464220E+05  4.659729E+04  3.104655E+04  1.333205E+05 -2.272458E+04 -6.218324E+03
       132   5  3.298029E+05  3.088711E+04  5.005697E+04  1.310012E+05 -5.033686E+04 -1.640983E+04
       132   6  3.586963E+05  1.334729E+05  1.214707E+05  1.006396E+05 -7.733211E+04 -2.824071E+04
       132   7  4.367658E+05  7.179557E+04  5.365418E+04  1.488853E+05 -2.239177E+04 -6.092728E+03
       132   8  4.123018E+05  6.715671E+04  7.326904E+04  1.588340E+05 -5.056048E+04 -1.649450E+04
       132   9  4.334548E+05  1.809150E+05  1.457227E+05  1.407424E+05 -7.811171E+04 -2.853694E+04
       132  10  2.560858E+05  2.139865E+04  8.437296E+03  1.177572E+05  7.252151E-09  4.473845E-09
       132  11  2.473076E+05 -5.382444E+03  2.683897E+04  1.031712E+05  2.134907E-09 -2.549515E-09
       132  12  2.839371E+05  8.603226E+04  9.720565E+04  6.054012E+04 -3.805091E-09 -3.793824E-09
       132  13  3.464215E+05  4.659711E+04  3.104551E+04  1.333204E+05  7.379416E-10  1.732791E-09
       132  14  3.298001E+05  3.088614E+04  5.005171E+04  1.310005E+05 -3.273716E-09 -7.859560E-09
       132  15  3.586897E+05  1.334704E+05  1.214580E+05  1.006378E+05 -6.585945E-09 -1.083639E-09
       132  16  4.367652E+05  7.179540E+04  5.365317E+04  1.488852E+05 -8.126349E-09 -3.933427E-09
       132  17  4.122990E+05  6.715573E+04  7.326373E+04  1.588333E+05  3.118955E-09 -5.263773E-09
       132  18  4.334480E+05  1.809125E+05  1.457097E+05  1.407406E+05  3.336422E-09 -2.252075E-09
       132  19  2.560863E+05  2.139884E+04  8.438370E+03  1.177573E+05  2.305732E+04  6.343912E+03
       132  20  2.473103E+05 -5.381484E+03  2.684418E+04  1.031719E+05  5.011326E+04  1.632517E+04
       132  21  2.839436E+05  8.603467E+04  9.721813E+04  6.054184E+04  7.655261E+04  2.794458E+04
       132  22  3.464220E+05  4.659729E+04  3.104655E+04  1.333205E+05  2.272458E+04  6.218324E+03
       132  23  3.298029E+05  3.088711E+04  5.005697E+04  1.310012E+05  5.033686E+04  1.640983E+04
       132  24  3.586963E+05  1.334729E+05  1.214707E+05  1.006396E+05  7.733211E+04  2.824071E+04
       132  25  4.367658E+05  7.179557E+04  5.365418E+04  1.488853E+05  2.239177E+04  6.092728E+03
       132  26  4.123018E+05  6.715671E+04  7.326904E+04  1.588340E+05  5.056048E+04  1.649450E+04
       132  27  4.334548E+05  1.809150E+05  1.457227E+05  1.407424E+05  7.811171E+04  2.853694E+04
       133   1 -8.805114E+01 -4.036154E+05 -1.323645E+03 -5.841264E+01 -2.894159E+01  9.785863E+01
       133   2 -2.647386E+02 -4.043469E+05 -1.801324E+03  1.229420E+02 -5.477160E+01  8.487483E+02
       133   3 -6.564102E+02 -4.052310E+05 -2.822054E+03 -1.050143E+02 -9.343522E+01  1.599636E+03
       133   4  3.491140E+00 -4.032385E+05 -1.243342E+03 -9.090935E+01 -2.895469E+01  1.117693E+02
       133   5  2.654135E+01 -4.031615E+05 -1.530975E+03  1.136658E+02 -5.479367E+01  8.722038E+02
       133   6 -1.670469E+02 -4.032387E+05 -2.368285E+03 -9.106976E+01 -9.346621E+01  1.632637E+03
       133   7  9.503341E+01 -4.028617E+05 -1.163040E+03 -1.234061E+02 -2.896780E+01  1.256801E+02
       133   8  3.178212E+02 -4.019761E+05 -1.260626E+03  1.043895E+02 -5.481575E+01  8.956593E+02
       133   9  3.223161E+02 -4.012464E+05 -1.914517E+03 -7.712514E+01 -9.349719E+01  1.665638E+03
       133  10 -8.805114E+01 -4.036154E+05 -1.323645E+03 -5.841264E+01  2.999067E-09  3.218004E-09
       133  11 -2.647388E+02 -4.043469E+05 -1.801325E+03  1.229420E+02  7.975122E-09  3.710703E-09
       133  12 -6.564109E+02 -4.052310E+05 -2.822059E+03 -1.050142E+02 -1.153089E-09  4.442916E-10
       133  13  3.491135E+00 -4.032385E+05 -1.243343E+03 -9.090935E+01  4.708492E-11  6.576571E-11
       133  14  2.654115E+01 -4.031615E+05 -1.530976E+03  1.136658E+02  9.374393E-09 -1.094226E-09
       133  15 -1.670476E+02 -4.032387E+05 -2.368290E+03 -9.106964E+01  1.288798E-08 -1.309867E-09
       133  16  9.503341E+01 -4.028617E+05 -1.163040E+03 -1.234061E+02 -3.404400E-09 -2.156308E-09
       133  17  3.178210E+02 -4.019761E+05 -1.260627E+03  1.043895E+02  5.673087E-10 -5.345343E-09
       133  18  3.223153E+02 -4.012464E+05 -1.914522E+03 -7.712501E+01  4.858926E-09 -2.836721E-09
       133  19 -8.805114E+01 -4.036154E+05 -1.323645E+03 -5.841264E+01  2.894159E+01 -9.785863E+01
       133  20 -2.647386E+02 -4.043469E+05 -1.801324E+03  1.229420E+02  5.477160E+01 -8.487483E+02
       133  21 -6.564102E+02 -4.052310E+05 -2.822054E+03 -1.050143E+02  9.343522E+01 -1.599636E+03
       133  22  3.491140E+00 -4.032385E+05 -1.243342E+03 -9.090935E+01  2.895469E+01 -1.117693E+02
       133  23  2.654135E+01 -4.031615E+05 -1.530975E+03  1.136658E+02  5.479367E+01 -8.722038E+02
       133  24 -1.670469E+02 -4.032387E+05 -2.368285E+03 -9.106976E+01  9.346621E+01 -1.632637E+03
       133  25  9.503341E+01 -4.028617E+05 -1.163040E+03 -1.234061E+02  2.896780E+01 -1.256801E+02
       133  26  3.178212E+02 -4.019761E+05 -1.260626E+03  1.043895E+02  5.481575E+01 -8.956593E+02
       133  27  3.223161E+02 -4.012464E+05 -1.914517E+03 -7.712514E+01  9.349719E+01 -1.665638E+03
       134   1 -5.318152E+02 -4.061750E+05 -3.607441E+03  3.390578E+02 -1.199744E+02  2.071994E+03
       134   2 -6.816318E+02 -4.064755E+05 -5.779404E+03 -9.868184E+01 -1.607664E+02  4.586745E+03
       134   3 -3.569897E+03 -4.077893E+05 -1.027417E+04 -9.463942E+02 -1.937968E+02  7.101494E+03
       134   4  1.444947E+02 -4.034293E+05 -2.977671E+03 -9.039889E+01 -1.200053E+02  2.103464E+03
       134   5  1.910850E+02 -4.029236E+05 -4.966912E+03  1.133476E+02 -1.607889E+02  4.612452E+03
       134   6 -2.499763E+03 -4.034303E+05 -9.274947E+03 -9.287862E+01 -1.938056E+02  7.121442E+03
       134   7  8.208049E+02 -4.006836E+05 -2.347902E+03 -5.198575E+02 -1.200364E+02  2.134933E+03
       134   8  1.063801E+03 -3.993717E+05 -4.154421E+03  3.253782E+02 -1.608114E+02  4.638160E+03
       134   9 -1.429629E+03 -3.990711E+05 -8.275720E+03  7.606430E+02 -1.938143E+02  7.141390E+03
       134  10 -5.318164E+02 -4.061750E+05 -3.607450E+03  3.390580E+02 -5.943108E-09 -9.564000E-09
       134  11 -6.816375E+02 -4.064755E+05 -5.779443E+03 -9.868124E+01  3.689019E-11  2.984320E-09
       134  12 -3.569910E+03 -4.077894E+05 -1.027427E+04 -9.463931E+02 -4.812126E-09  1.350391E-08
       134  13  1.444935E+02 -4.034293E+05 -2.977680E+03 -9.039869E+01  6.048710E-09 -1.083415E-09
       134  14  1.910793E+02 -4.029236E+05 -4.966952E+03  1.133482E+02  4.253624E-09 -5.326346E-10
       134  15 -2.499777E+03 -4.034303E+05 -9.275042E+03 -9.287751E+01 -5.295172E-09 -2.143941E-09
       134  16  8.208036E+02 -4.006836E+05 -2.347910E+03 -5.198573E+02  3.757941E-09  9.550085E-09
       134  17  1.063795E+03 -3.993717E+05 -4.154462E+03  3.253788E+02  2.406471E-09 -1.092484E-09
       134  18 -1.429643E+03 -3.990712E+05 -8.275816E+03  7.606441E+02 -8.778763E-10 -1.453930E-08
       134  19 -5.318152E+02 -4.061750E+05 -3.607441E+03  3.390578E+02  1.199744E+02 -2.071994E+03
       134  20 -6.816318E+02 -4.064755E+05 -5.779404E+03 -9.868184E+01  1.607664E+02 -4.586745E+03
       134  21 -3.569897E+03 -4.077893E+05 -1.027417E+04 -9.463942E+02  1.937968E+02 -7.101494E+03
       134  22  1.444947E+02 -4.034293E+05 -2.977671E+03 -9.039889E+01  1.200053E+02 -2.103464E+03
       134  23  1.910850E+02 -4.029236E+05 -4.966912E+03  1.133476E+02  1.607889E+02 -4.612452E+03
       134  24 -2.499763E+03 -4.034303E+05 -9.274947E+03 -9.287862E+01  1.938056E+02 -7.121442E+03
       134  25  8.208049E+02 -4.006836E+05 -2.347902E+03 -5.198575E+02  1.200364E+02 -2.134933E+03
       134  26  1.063801E+03 -3.993717E+05 -4.154421E+03  3.253782E+02  1.608114E+02 -4.638160E+03
       134  27 -1.429629E+03 -3.990711E+05 -8.275720E+03  7.606430E+02  1.938143E+02 -7.141390E+03
       135   1  6.338191E+02 -4.106622E+05 -1.268432E+04  5.051472E+03 -2.386007E+02  8.742204E+03
       135   2  6.663816E+02 -4.061733E+05 -2.047594E+04 -4.602526E+03 -2.598052E+02  1.907470E+04
       135   3 -3.641535E+04 -4.123117E+05 -4.427623E+04 -1.468085E+04 -1.078288E+02  2.940720E+04
       135   4  1.899457E+03 -4.055605E+05 -1.151755E+04 -8.489204E+01 -2.387412E+02  8.815189E+03
       135   5  2.110499E+03 -4.002617E+05 -1.911669E+04  1.103053E+02 -2.596078E+02  1.901874E+04
       135   6 -3.477053E+04 -4.055677E+05 -4.263485E+04 -1.190841E+02 -1.069661E+02  2.922232E+04
       135   7  3.165192E+03 -4.004588E+05 -1.035078E+04 -5.221299E+03 -2.388830E+02  8.888175E+03
       135   8  3.554698E+03 -3.943499E+05 -1.775743E+04  4.823182E+03 -2.594112E+02  1.896278E+04
       135   9 -3.312491E+04 -3.988232E+05 -4.099337E+04  1.444284E+04 -1.061121E+02  2.903744E+04
       135  10  6.337985E+02 -4.106623E+05 -1.268446E+04  5.051474E+03  2.288393E-09  4.290863E-09
       135  11  6.662838E+02 -4.061737E+05 -2.047662E+04 -4.602522E+03  1.659962E-09  2.809112E-10
       135  12 -3.641558E+04 -4.123126E+05 -4.427786E+04 -1.468085E+04  1.158104E-09  5.905902E-10
       135  13  1.899436E+03 -4.055606E+05 -1.151770E+04 -8.489035E+01 -8.585715E-09 -1.036810E-09
       135  14  2.110402E+03 -4.002620E+05 -1.911737E+04  1.103093E+02  5.686859E-09  2.546257E-09
       135  15 -3.477076E+04 -4.055686E+05 -4.263646E+04 -1.190816E+02 -4.485679E-09 -1.301646E-09
       135  16  3.165171E+03 -4.004589E+05 -1.035093E+04 -5.221297E+03 -4.896455E-09 -2.136243E-09
       135  17  3.554601E+03 -3.943503E+05 -1.775810E+04  4.823186E+03 -5.983399E-09 -2.429241E-09
       135  18 -3.312514E+04 -3.988241E+05 -4.099495E+04  1.444284E+04  9.979808E-10 -1.137372E-09
       135  19  6.338191E+02 -4.106622E+05 -1.268432E+04  5.051472E+03  2.386007E+02 -8.742204E+03
       135  20  6.663816E+02 -4.061733E+05 -2.047594E+04 -4.602526E+03  2.598052E+02 -1.907470E+04
       135  21 -3.641535E+04 -4.123117E+05 -4.427623E+04 -1.468085E+04  1.078288E+02 -2.940720E+04
       135  22  1.899457E+03 -4.055605E+05 -1.151755E+04 -8.489204E+01  2.387412E+02 -8.815189E+03
       135  23  2.110499E+03 -4.002617E+05 -1.911669E+04  1.103053E+02  2.596078E+02 -1.901874E+04
       135  24 -3.477053E+04 -4.055677E+05 -4.263485E+04 -1.190841E+02  1.069661E+02 -2.922232E+04
       135  25  3.165192E+03 -4.004588E+05 -1.035078E+04 -5.221299E+03  2.388830E+02 -8.888175E+03
       135  26  3.554698E+03 -3.943499E+05 -1.775743E+04  4.823182E+03  2.594112E+02 -1.896278E+04
       135  27 -3.312491E+04 -3.988232E+05 -4.099337E+04  1.444284E+04  1.061121E+02 -2.903744E+04
       136   1 -1.193718E+07 -4.047239E+06 -2.253000E+06 -4.108864E+06 -6.342175E+05 -1.122299E+05
       136   2 -1.169354E+07 -3.647525E+06 -1.805372E+06 -4.016964E+06 -4.423246E+05  2.797966E+05
       136   3 -1.149795E+07 -3.500978E+06 -1.635757E+06 -3.939734E+06 -1.654922E+05  4.581543E+05
       136   4 -4.518906E+06 -1.044223E+06 -2.487665E+05 -1.895764E+06 -2.065022E+05  5.633745E+04
       136   5 -4.504517E+06 -8.490176E+05 -1.130500E+05 -1.924600E+06 -2.541362E+05  3.531217E+05
       136   6 -4.488626E+06 -8.571963E+05 -6.072711E+04 -1.968346E+06 -2.175170E+05  4.373488E+05
       136   7  2.954052E+06  1.964278E+06  1.751281E+06  3.423953E+05  2.269737E+05  2.273579E+05
       136   8  2.737340E+06  1.954523E+06  1.575789E+06  1.906968E+05 -6.352021E+04  4.274335E+05
       136   9  2.571316E+06  1.790821E+06  1.511204E+06  2.391803E+04 -2.701947E+05  4.162986E+05
       136  10 -1.193762E+07 -4.047364E+06 -2.253796E+06 -4.108923E+06 -2.057050E-08 -4.310934E-09
       136  11 -1.169377E+07 -3.647662E+06 -1.805890E+06 -4.016864E+06 -2.862771E-10 -1.000390E-08
       136  12 -1.149804E+07 -3.501210E+06 -1.636201E+06 -3.939673E+06  2.882538E-08  1.178823E-08
       136  13 -4.518953E+06 -1.044238E+06 -2.488529E+05 -1.895754E+06  5.336443E-09  1.009985E-08
       136  14 -4.504620E+06 -8.491684E+05 -1.134051E+05 -1.924528E+06 -1.010389E-08 -2.827102E-08
       136  15 -4.488728E+06 -8.574138E+05 -6.117435E+04 -1.968270E+06 -8.413045E-09  4.903425E-09
       136  16  2.953983E+06  1.964209E+06  1.751087E+06  3.423539E+05  1.637317E-08  1.142268E-09
       136  17  2.737287E+06  1.954326E+06  1.575439E+06  1.907186E+05 -1.607699E-08 -5.299718E-09
       136  18  2.571192E+06  1.790616E+06  1.510742E+06  2.400833E+04 -2.977024E-08 -1.498753E-08
       136  19 -1.193718E+07 -4.047239E+06 -2.253000E+06 -4.108864E+06  6.342175E+05  1.122299E+05
       136  20 -1.169354E+07 -3.647525E+06 -1.805372E+06 -4.016964E+06  4.423246E+05 -2.797966E+05
       136  21 -1.149795E+07 -3.500978E+06 -1.635757E+06 -3.939734E+06  1.654922E+05 -4.581543E+05
       136  22 -4.518906E+06 -1.044223E+06 -2.487665E+05 -1.895764E+06  2.065022E+05 -5.633745E+04
       136  23 -4.504517E+06 -8.490176E+05 -1.130500E+05 -1.924600E+06  2.541362E+05 -3.531217E+05
       136  24 -4.488626E+06 -8.571963E+05 -6.072711E+04 -1.968346E+06  2.175170E+05 -4.373488E+05
       136  25  2.954052E+06  1.964278E+06  1.751281E+06  3.423953E+05 -2.269737E+05 -2.273579E+05
       136  26  2.737340E+06  1.954523E+06  1.575789E+06  1.906968E+05  6.352021E+04 -4.274335E+05
       136  27  2.571316E+06  1.790821E+06  1.511204E+06  2.391803E+04  2.701947E+05 -4.162986E+05
       137   1 -1.126594E+07 -3.453745E+06 -1.582760E+06 -3.892947E+06 -2.027058E+05  4.187154E+05
       137   2 -1.102087E+07 -3.288553E+06 -1.483968E+06 -3.766287E+06 -1.741160E+05  4.239498E+05
       137   3 -1.069953E+07 -3.201817E+06 -1.404327E+06 -3.714374E+06 -1.410509E+05  4.173050E+05
       137   4 -4.477534E+06 -8.724148E+05 -4.735346E+04 -1.964291E+06 -2.018869E+05  4.185429E+05
       137   5 -4.515488E+06 -8.288211E+05 -2.628127E+04 -1.928851E+06 -1.864968E+05  4.187040E+05
       137   6 -4.474509E+06 -8.608627E+05 -1.361517E+04 -1.968131E+06 -1.666702E+05  4.070456E+05
       137   7  2.358220E+06  1.713048E+06  1.485075E+06 -1.579586E+04 -2.010597E+05  4.183780E+05
       137   8  2.033394E+06  1.634630E+06  1.428720E+06 -7.333122E+04 -1.990229E+05  4.134057E+05
       137   9  1.790297E+06  1.483398E+06  1.374649E+06 -2.054774E+05 -1.925751E+05  3.966801E+05
       137  10 -1.126603E+07 -3.453944E+06 -1.583166E+06 -3.892879E+06 -1.406169E-09  4.681984E-09
       137  11 -1.102095E+07 -3.288754E+06 -1.484362E+06 -3.766228E+06 -2.390284E-09  9.735714E-09
       137  12 -1.069959E+07 -3.202009E+06 -1.404691E+06 -3.714327E+06  3.819779E-09  3.160692E-09
       137  13 -4.477624E+06 -8.726133E+05 -4.775824E+04 -1.964223E+06  9.756620E-10 -9.757170E-09
       137  14 -4.515572E+06 -8.290181E+05 -2.667509E+04 -1.928788E+06 -5.957492E-09 -1.608097E-09
       137  15 -4.474583E+06 -8.610476E+05 -1.397782E+04 -1.968076E+06  4.104085E-10 -5.762726E-10
       137  16  2.358130E+06  1.712850E+06  1.484672E+06 -1.572832E+04  2.622138E-09  2.264788E-09
       137  17  2.033306E+06  1.634437E+06  1.428326E+06 -7.326515E+04 -5.790876E-09  5.539460E-10
       137  18  1.790215E+06  1.483220E+06  1.374285E+06 -2.054161E+05 -5.251722E-09 -1.027385E-08
       137  19 -1.126594E+07 -3.453745E+06 -1.582760E+06 -3.892947E+06  2.027058E+05 -4.187154E+05
       137  20 -1.102087E+07 -3.288553E+06 -1.483968E+06 -3.766287E+06  1.741160E+05 -4.239498E+05
       137  21 -1.069953E+07 -3.201817E+06 -1.404327E+06 -3.714374E+06  1.410509E+05 -4.173050E+05
       137  22 -4.477534E+06 -8.724148E+05 -4.735346E+04 -1.964291E+06  2.018869E+05 -4.185429E+05
       137  23 -4.515488E+06 -8.288211E+05 -2.628127E+04 -1.928851E+06  1.864968E+05 -4.187040E+05
       137  24 -4.474509E+06 -8.608627E+05 -1.361517E+04 -1.968131E+06  1.666702E+05 -4.070456E+05
       137  25  2.358220E+06  1.713048E+06  1.485075E+06 -1.579586E+04  2.010597E+05 -4.183780E+05
       137  26  2.033394E+06  1.634630E+06  1.428720E+06 -7.333122E+04  1.990229E+05 -4.134057E+05
       137  27  1.790297E+06  1.483398E+06  1.374649E+06 -2.054774E+05  1.925751E+05 -3.966801E+05
       138   1 -1.047291E+07 -3.115828E+06 -1.348826E+06 -3.650439E+06 -1.358561E+05  4.041490E+05
       138   2 -1.019679E+07 -2.947581E+06 -1.272568E+06 -3.510588E+06 -1.225189E+05  3.843327E+05
       138   3 -9.832830E+06 -2.857510E+06 -1.197539E+06 -3.458124E+06 -1.088247E+05  3.631427E+05
       138   4 -4.472112E+06 -8.628263E+05 -1.047001E+04 -1.970101E+06 -1.595662E+05  3.946802E+05
       138   5 -4.515209E+06 -8.219313E+05 -6.761690E+03 -1.926888E+06 -1.477226E+05  3.743830E+05
       138   6 -4.470291E+06 -8.588444E+05 -3.085775E+03 -1.971047E+06 -1.355272E+05  3.527177E+05
       138   7  1.565737E+06  1.393261E+06  1.325642E+06 -2.745245E+05 -1.835312E+05  3.851169E+05
       138   8  1.199536E+06  1.306426E+06  1.257034E+06 -3.296122E+05 -1.731822E+05  3.643384E+05
       138   9  9.217441E+05  1.142175E+06  1.189572E+06 -4.719614E+05 -1.624849E+05  3.421982E+05
       138  10 -1.047298E+07 -3.116008E+06 -1.349166E+06 -3.650395E+06 -3.834603E-10  2.927391E-10
       138  11 -1.019684E+07 -2.947743E+06 -1.272873E+06 -3.510551E+06 -5.080449E-09 -8.295911E-10
       138  12 -9.832878E+06 -2.857654E+06 -1.197809E+06 -3.458092E+06 -3.136779E-10 -2.955392E-10
       138  13 -4.472180E+06 -8.630000E+05 -1.080973E+04 -1.970051E+06 -1.369568E-09 -7.262998E-09
       138  14 -4.515270E+06 -8.220872E+05 -7.065328E+03 -1.926843E+06 -7.657108E-10  1.780722E-09
       138  15 -4.470343E+06 -8.589826E+05 -3.353410E+03 -1.971009E+06  2.664788E-09  4.065936E-09
       138  16  1.565661E+06  1.393094E+06  1.325301E+06 -2.744677E+05  2.699942E-09 -5.483046E-09
       138  17  1.199468E+06  1.306276E+06  1.256728E+06 -3.295615E+05 -8.226383E-10  4.013123E-10
       138  18  9.216845E+05  1.142043E+06  1.189303E+06 -4.719168E+05  3.206386E-09 -2.179888E-09
       138  19 -1.047291E+07 -3.115828E+06 -1.348826E+06 -3.650439E+06  1.358561E+05 -4.041490E+05
       138  20 -1.019679E+07 -2.947581E+06 -1.272568E+06 -3.510588E+06  1.225189E+05 -3.843327E+05
       138  21 -9.832830E+06 -2.857510E+06 -1.197539E+06 -3.458124E+06  1.088247E+05 -3.631427E+05
       138  22 -4.472112E+06 -8.628263E+05 -1.047001E+04 -1.970101E+06  1.595662E+05 -3.946802E+05
       138  23 -4.515209E+06 -8.219313E+05 -6.761690E+03 -1.926888E+06  1.477226E+05 -3.743830E+05
       138  24 -4.470291E+06 -8.588444E+05 -3.085775E+03 -1.971047E+06  1.355272E+05 -3.527177E+05
       138  25  1.565737E+06  1.393261E+06  1.325642E+06 -2.745245E+05  1.835312E+05 -3.851169E+05
       138  26  1.199536E+06  1.306426E+06  1.257034E+06 -3.296122E+05  1.731822E+05 -3.643384E+05
       138  27  9.217441E+05  1.142175E+06  1.189572E+06 -4.719614E+05  1.624849E+05 -3.421982E+05
       139   1 -9.583801E+06 -2.762826E+06 -1.138999E+06 -3.388585E+06 -1.023789E+05  3.495923E+05
       139   2 -9.278577E+06 -2.583385E+06 -1.060512E+06 -3.238579E+06 -9.113787E+04  3.257674E+05
       139   3 -8.881169E+06 -2.488683E+06 -9.816295E+05 -3.185278E+06 -7.978486E+04  3.012338E+05
       139   4 -4.468712E+06 -8.599712E+05 -2.505405E+03 -1.972999E+06 -1.296861E+05  3.389934E+05
       139   5 -4.514013E+06 -8.159904E+05 -2.156064E+03 -1.925039E+06 -1.192168E+05  3.149611E+05
       139   6 -4.467122E+06 -8.565513E+05 -8.096332E+02 -1.973791E+06 -1.086377E+05  2.902226E+05
       139   7  6.731754E+05  1.044998E+06  1.132354E+06 -5.465229E+05 -1.572416E+05  3.283024E+05
       139   8  2.738104E+05  9.532189E+05  1.054791E+06 -6.020920E+05 -1.475333E+05  3.040668E+05
       139   9 -3.310367E+04  7.771181E+05  9.788084E+05 -7.542687E+05 -1.377165E+05  2.791279E+05
       139  10 -9.583845E+06 -2.762960E+06 -1.139248E+06 -3.388556E+06 -2.222113E-09 -3.236376E-10
       139  11 -9.278614E+06 -2.583501E+06 -1.060726E+06 -3.238555E+06 -5.537748E-09 -1.448479E-09
       139  12 -8.881200E+06 -2.488782E+06 -9.818116E+05 -3.185259E+06 -1.467060E-09  5.051027E-10
       139  13 -4.468761E+06 -8.600988E+05 -2.752342E+03 -1.972963E+06  2.358058E-09 -1.913986E-09
       139  14 -4.514055E+06 -8.161005E+05 -2.368657E+03 -1.925009E+06 -9.868375E-10  7.762927E-10
       139  15 -4.467157E+06 -8.566447E+05 -9.896440E+02 -1.973765E+06 -1.935856E-09 -1.787368E-09
       139  16  6.731201E+05  1.044876E+06  1.132106E+06 -5.464814E+05  1.802115E-10  6.028386E-10
       139  17  2.737624E+05  9.531141E+05  1.054576E+06 -6.020560E+05 -2.467329E-09 -7.902369E-10
       139  18 -3.314480E+04  7.770296E+05  9.786268E+05 -7.542378E+05 -1.563853E-09 -2.245324E-09
       139  19 -9.583801E+06 -2.762826E+06 -1.138999E+06 -3.388585E+06  1.023789E+05 -3.495923E+05
       139  20 -9.278577E+06 -2.583385E+06 -1.060512E+06 -3.238579E+06  9.113787E+04 -3.257674E+05
       139  21 -8.881169E+06 -2.488683E+06 -9.816295E+05 -3.185278E+06  7.978486E+04 -3.012338E+05
       139  22 -4.468712E+06 -8.599712E+05 -2.505405E+03 -1.972999E+06  1.296861E+05 -3.389934E+05
       139  23 -4.514013E+06 -8.159904E+05 -2.156064E+03 -1.925039E+06  1.192168E+05 -3.149611E+05
       139  24 -4.467122E+06 -8.565513E+05 -8.096332E+02 -1.973791E+06  1.086377E+05 -2.902226E+05
       139  25  6.731754E+05  1.044998E+06  1.132354E+06 -5.465229E+05  1.572416E+05 -3.283024E+05
       139  26  2.738104E+05  9.532189E+05  1.054791E+06 -6.020920E+05  1.475333E+05 -3.040668E+05
       139  27 -3.310367E+04  7.771181E+05  9.788084E+05 -7.542687E+05  1.377165E+05 -2.791279E+05
       140   1 -8.611862E+06 -2.387888E+06 -9.192803E+05 -3.111522E+06 -7.336378E+04  2.864916E+05
       140   2 -8.282369E+06 -2.199361E+06 -8.364864E+05 -2.953425E+06 -6.226198E+04  2.606355E+05
       140   3 -7.857787E+06 -2.101201E+06 -7.534732E+05 -2.899736E+06 -5.108928E+04  2.342388E+05
       140   4 -4.465908E+06 -8.574160E+05 -8.497846E+02 -1.975423E+06 -1.028231E+05  2.753014E+05
       140   5 -4.512748E+06 -8.108628E+05 -1.195504E+03 -1.923542E+06 -9.231399E+04  2.492945E+05
       140   6 -4.464554E+06 -8.545258E+05 -8.627887E+02 -1.976083E+06 -8.173550E+04  2.227489E+05
       140   7 -3.023613E+05  6.743965E+05  9.165207E+05 -8.322569E+05 -1.324985E+05  2.640314E+05
       140   8 -7.286076E+05  5.787239E+05  8.332156E+05 -8.878451E+05 -1.225660E+05  2.378798E+05
       140   9 -1.059583E+06  3.930107E+05  7.510305E+05 -1.047745E+06 -1.125649E+05  2.111916E+05
       140  10 -8.611890E+06 -2.387977E+06 -9.194442E+05 -3.111505E+06 -7.831069E-10  7.059961E-10
       140  11 -8.282391E+06 -2.199435E+06 -8.366210E+05 -2.953412E+06  5.238155E-09  2.755790E-09
       140  12 -7.857804E+06 -2.101260E+06 -7.535810E+05 -2.899726E+06  1.064754E-08  7.280402E-09
       140  13 -4.465940E+06 -8.575000E+05 -1.011673E+03 -1.975400E+06 -4.756918E-10 -1.066748E-09
       140  14 -4.512773E+06 -8.109316E+05 -1.327975E+03 -1.923524E+06 -1.191291E-10 -5.824684E-09
       140  15 -4.464574E+06 -8.545808E+05 -9.683193E+02 -1.976068E+06  1.920486E-09 -5.943868E-09
       140  16 -3.023987E+05  6.743172E+05  9.163571E+05 -8.322288E+05  8.728156E-10 -6.882083E-10
       140  17 -7.286388E+05  5.786593E+05  8.330813E+05 -8.878217E+05 -5.564031E-09 -4.626227E-10
       140  18 -1.059609E+06  3.929596E+05  7.509231E+05 -1.047726E+06 -9.289645E-09 -5.079394E-09
       140  19 -8.611862E+06 -2.387888E+06 -9.192803E+05 -3.111522E+06  7.336378E+04 -2.864916E+05
       140  20 -8.282369E+06 -2.199361E+06 -8.364864E+05 -2.953425E+06  6.226198E+04 -2.606355E+05
       140  21 -7.857787E+06 -2.101201E+06 -7.534732E+05 -2.899736E+06  5.108928E+04 -2.342388E+05
       140  22 -4.465908E+06 -8.574160E+05 -8.497846E+02 -1.975423E+06  1.028231E+05 -2.753014E+05
       140  23 -4.512748E+06 -8.108628E+05 -1.195504E+03 -1.923542E+06  9.231399E+04 -2.492945E+05
       140  24 -4.464554E+06 -8.545258E+05 -8.627887E+02 -1.976083E+06  8.173550E+04 -2.227489E+05
       140  25 -3.023613E+05  6.743965E+05  9.165207E+05 -8.322569E+05  1.324985E+05 -2.640314E+05
       140  26 -7.286076E+05  5.787239E+05  8.332156E+05 -8.878451E+05  1.225660E+05 -2.378798E+05
       140  27 -1.059583E+06  3.930107E+05  7.510305E+05 -1.047745E+06  1.125649E+05 -2.111916E+05
       141   1 -7.572224E+06 -1.995644E+06 -6.879455E+05 -2.822651E+06 -4.453452E+04  2.185965E+05
       141   2 -7.223975E+06 -1.800452E+06 -6.020144E+05 -2.658424E+06 -3.271852E+04  1.915254E+05
       141   3 -6.778753E+06 -1.700044E+06 -5.167015E+05 -2.604562E+06 -2.085847E+04  1.640719E+05
       141   4 -4.463696E+06 -8.551661E+05 -1.222583E+03 -1.977368E+06 -7.565049E+04  2.069708E+05
       141   5 -4.511623E+06 -8.067761E+05 -2.221630E+03 -1.922401E+06 -6.425540E+04  1.797967E+05
       141   6 -4.462691E+06 -8.530753E+05 -3.516003E+03 -1.977832E+06 -5.281775E+04  1.522412E+05
       141   7 -1.345271E+06  2.860501E+05  6.849158E+05 -1.128148E+06 -1.069370E+05  1.952822E+05
       141   8 -1.791749E+06  1.874532E+05  5.971243E+05 -1.183391E+06 -9.594284E+04  1.680126E+05
       141   9 -2.141158E+06 -5.711286E+03  5.093416E+05 -1.348935E+06 -8.490707E+04  1.403627E+05
       141  10 -7.572239E+06 -1.995696E+06 -6.880388E+05 -2.822643E+06 -4.573245E-09  3.647580E-09
       141  11 -7.223986E+06 -1.800492E+06 -6.020853E+05 -2.658419E+06  1.054104E-09  8.612004E-09
       141  12 -6.778761E+06 -1.700073E+06 -5.167529E+05 -2.604559E+06  7.295401E-09  3.059458E-09
       141  13 -4.463713E+06 -8.552135E+05 -1.313609E+03 -1.977356E+06  1.059905E-09 -3.339336E-09
       141  14 -4.511636E+06 -8.068118E+05 -2.289967E+03 -1.922392E+06 -5.025952E-09 -6.057330E-09
       141  15 -4.462700E+06 -8.531009E+05 -3.564680E+03 -1.977825E+06 -6.709090E-10  1.047352E-08
       141  16 -1.345294E+06  2.860062E+05  6.848228E+05 -1.128131E+06  2.806732E-09 -5.016334E-10
       141  17 -1.791767E+06  1.874205E+05  5.970541E+05 -1.183378E+06 -5.800372E-09 -1.375806E-08
       141  18 -2.141171E+06 -5.734309E+03  5.092912E+05 -1.348925E+06 -5.623861E-09 -9.675259E-09
       141  19 -7.572224E+06 -1.995644E+06 -6.879455E+05 -2.822651E+06  4.453452E+04 -2.185965E+05
       141  20 -7.223975E+06 -1.800452E+06 -6.020144E+05 -2.658424E+06  3.271852E+04 -1.915254E+05
       141  21 -6.778753E+06 -1.700044E+06 -5.167015E+05 -2.604562E+06  2.085847E+04 -1.640719E+05
       141  22 -4.463696E+06 -8.551661E+05 -1.222583E+03 -1.977368E+06  7.565049E+04 -2.069708E+05
       141  23 -4.511623E+06 -8.067761E+05 -2.221630E+03 -1.922401E+06  6.425540E+04 -1.797967E+05
       141  24 -4.462691E+06 -8.530753E+05 -3.516003E+03 -1.977832E+06  5.281775E+04 -1.522412E+05
       141  25 -1.345271E+06  2.860501E+05  6.849158E+05 -1.128148E+06  1.069370E+05 -1.952822E+05
       141  26 -1.791749E+06  1.874532E+05  5.971243E+05 -1.183391E+06  9.594284E+04 -1.680126E+05
       141  27 -2.141158E+06 -5.711286E+03  5.093416E+05 -1.348935E+06  8.490707E+04 -1.403627E+05
       142   1 -6.481381E+06 -1.591188E+06 -4.495963E+05 -2.525440E+06 -1.376708E+04  1.479439E+05
       142   2 -6.120551E+06 -1.391405E+06 -3.640685E+05 -2.356189E+06  1.251918E+03  1.210957E+05
       142   3 -5.662827E+06 -1.291656E+06 -2.824141E+05 -2.300768E+06  1.625330E+04  9.414099E+04
       142   4 -4.462300E+06 -8.533035E+05 -4.766858E+03 -1.978833E+06 -4.607488E+04  1.360114E+05
       142   5 -4.510560E+06 -8.040687E+05 -8.704052E+03 -1.921521E+06 -3.116663E+04  1.091545E+05
       142   6 -4.462093E+06 -8.548423E+05 -1.642854E+04 -1.978091E+06 -1.627928E+04  8.219054E+04
       142   7 -2.439070E+06 -1.151215E+05  4.398139E+05 -1.430581E+06 -7.849693E+04  1.240368E+05
       142   8 -2.897926E+06 -2.165423E+05  3.465055E+05 -1.485810E+06 -6.367669E+04  9.717970E+04
       142   9 -3.259883E+06 -4.179221E+05  2.494744E+05 -1.654835E+06 -4.888051E+04  7.021501E+04
       142  10 -6.481387E+06 -1.591211E+06 -4.496378E+05 -2.525438E+06 -1.789265E-09  5.961868E-09
       142  11 -6.120555E+06 -1.391421E+06 -3.640960E+05 -2.356189E+06 -5.017180E-11  1.337494E-09
       142  12 -5.662830E+06 -1.291666E+06 -2.824312E+05 -2.300769E+06 -1.270371E-09  4.524163E-11
       142  13 -4.462307E+06 -8.533239E+05 -4.805515E+03 -1.978828E+06  7.045572E-11  1.183480E-08
       142  14 -4.510564E+06 -8.040817E+05 -8.728210E+03 -1.921519E+06 -5.645306E-09 -1.398314E-08
       142  15 -4.462096E+06 -8.548496E+05 -1.644170E+04 -1.978090E+06 -1.227752E-10  2.806173E-09
       142  16 -2.439081E+06 -1.151397E+05  4.397735E+05 -1.430573E+06  8.964965E-09  3.615308E-09
       142  17 -2.897933E+06 -2.165535E+05  3.464802E+05 -1.485805E+06  3.790801E-09  4.880879E-09
       142  18 -3.259887E+06 -4.179280E+05  2.494606E+05 -1.654832E+06 -1.946992E-09  2.317520E-09
       142  19 -6.481381E+06 -1.591188E+06 -4.495963E+05 -2.525440E+06  1.376708E+04 -1.479439E+05
       142  20 -6.120551E+06 -1.391405E+06 -3.640685E+05 -2.356189E+06 -1.251918E+03 -1.210957E+05
       142  21 -5.662827E+06 -1.291656E+06 -2.824141E+05 -2.300768E+06 -1.625330E+04 -9.414099E+04
       142  22 -4.462300E+06 -8.533035E+05 -4.766858E+03 -1.978833E+06  4.607488E+04 -1.360114E+05
       142  23 -4.510560E+06 -8.040687E+05 -8.704052E+03 -1.921521E+06  3.116663E+04 -1.091545E+05
       142  24 -4.462093E+06 -8.548423E+05 -1.642854E+04 -1.978091E+06  1.627928E+04 -8.219054E+04
       142  25 -2.439070E+06 -1.151215E+05  4.398139E+05 -1.430581E+06  7.849693E+04 -1.240368E+05
       142  26 -2.897926E+06 -2.165423E+05  3.465055E+05 -1.485810E+06  6.367669E+04 -9.717970E+04
       142  27 -3.259883E+06 -4.179221E+05  2.494744E+05 -1.654835E+06  4.888051E+04 -7.021501E+04
       143   1 -5.354460E+06 -1.182840E+06 -2.174656E+05 -2.230316E+06  2.580046E+04  7.838402E+04
       143   2 -4.996347E+06 -9.716391E+05 -1.437762E+05 -2.035677E+06  5.398704E+04  5.684540E+04
       143   3 -4.562518E+06 -9.153069E+05 -9.874857E+04 -1.943111E+06  8.127883E+04  3.772963E+04
       143   4 -4.464523E+06 -8.505895E+05 -2.122161E+04 -1.981495E+06 -7.526943E+03  6.615597E+04
       143   5 -4.506619E+06 -8.069221E+05 -3.883621E+04 -1.917937E+06  2.341714E+04  4.563496E+04
       143   6 -4.473732E+06 -9.186771E+05 -8.730498E+04 -1.956537E+06  5.345481E+04  2.753062E+04
       143   7 -3.573772E+06 -5.182683E+05  1.749796E+05 -1.732339E+06 -4.090634E+04  5.390766E+04
       143   8 -4.016650E+06 -6.421972E+05  6.609257E+04 -1.800114E+06 -7.178628E+03  3.441675E+04
       143   9 -4.384936E+06 -9.220435E+05 -7.585779E+04 -1.969964E+06  2.562717E+04  1.733439E+04
       143  10 -5.354462E+06 -1.182846E+06 -2.174784E+05 -2.230317E+06  1.930344E-09 -1.855443E-09
       143  11 -4.996351E+06 -9.716434E+05 -1.437878E+05 -2.035680E+06 -1.179274E-09 -7.598793E-09
       143  12 -4.562526E+06 -9.153103E+05 -9.876379E+04 -1.943114E+06 -4.839186E-09  1.405770E-09
       143  13 -4.464525E+06 -8.505942E+05 -2.122993E+04 -1.981495E+06 -6.585803E-10  5.457911E-09
       143  14 -4.506620E+06 -8.069245E+05 -3.884117E+04 -1.917937E+06  9.251706E-09  1.607777E-08
       143  15 -4.473736E+06 -9.186787E+05 -8.731183E+04 -1.956538E+06  6.110108E-10 -5.204458E-09
       143  16 -3.573775E+06 -5.182718E+05  1.749710E+05 -1.732337E+06 -1.079446E-09 -3.346482E-09
       143  17 -4.016651E+06 -6.421985E+05  6.609025E+04 -1.800114E+06  3.474424E-09 -3.218428E-09
       143  18 -4.384937E+06 -9.220440E+05 -7.585960E+04 -1.969964E+06  8.976787E-09  1.817104E-09
       143  19 -5.354460E+06 -1.182840E+06 -2.174656E+05 -2.230316E+06 -2.580046E+04 -7.838402E+04
       143  20 -4.996347E+06 -9.716391E+05 -1.437762E+05 -2.035677E+06 -5.398704E+04 -5.684540E+04
       143  21 -4.562518E+06 -9.153069E+05 -9.874857E+04 -1.943111E+06 -8.127883E+04 -3.772963E+04
       143  22 -4.464523E+06 -8.505895E+05 -2.122161E+04 -1.981495E+06  7.526943E+03 -6.615597E+04
       143  23 -4.506619E+06 -8.069221E+05 -3.883621E+04 -1.917937E+06 -2.341714E+04 -4.563496E+04
       143  24 -4.473732E+06 -9.186771E+05 -8.730498E+04 -1.956537E+06 -5.345481E+04 -2.753062E+04
       143  25 -3.573772E+06 -5.182683E+05  1.749796E+05 -1.732339E+06  4.090634E+04 -5.390766E+04
       143  26 -4.016650E+06 -6.421972E+05  6.609257E+04 -1.800114E+06  7.178628E+03 -3.441675E+04
       143  27 -4.384936E+06 -9.220435E+05 -7.585779E+04 -1.969964E+06 -2.562717E+04 -1.733439E+04
       144   1  3.540084E+05  7.408874E+04  9.697007E+04  6.012201E+03  6.649578E+04 -3.614134E-01
       144   2  3.392973E+05 -1.795372E+04  4.117044E+04  1.606949E+03  4.376376E+04  1.058749E+01
       144   3  3.543402E+05 -2.802163E+03  2.696513E+04 -3.292532E+03  2.103123E+04  2.765473E+00
       144   4  3.557599E+05  7.452796E+04  9.740758E+04 -2.105897E+02  6.649813E+04 -1.027799E+00
       144   5  3.408888E+05 -1.755579E+04  4.156704E+04  3.229407E+01  4.376376E+04  1.047658E+01
       144   6  3.557720E+05 -2.445352E+03  2.732234E+04 -2.190725E+02  2.102888E+04  2.869813E+00
       144   7  3.575114E+05  7.496733E+04  9.784512E+04 -6.433398E+03  6.650048E+04 -1.694228E+00
       144   8  3.424803E+05 -1.715785E+04  4.196364E+04 -1.542365E+03  4.376376E+04  1.036567E+01
       144   9  3.572039E+05 -2.088504E+03  2.767956E+04  2.854394E+03  2.102653E+04  2.974146E+00
       144  10  3.540037E+05  7.408755E+04  9.696176E+04  6.012197E+03 -4.529904E-05 -9.151197E-06
       144  11  3.392953E+05 -1.795423E+04  4.116684E+04  1.606930E+03 -1.985086E-04 -2.178155E-05
       144  12  3.543397E+05 -2.802283E+03  2.696430E+04 -3.292565E+03 -3.505316E-04 -5.263639E-06
       144  13  3.557551E+05  7.452677E+04  9.739928E+04 -2.105896E+02 -1.110571E-04 -5.344134E-07
       144  14  3.408868E+05 -1.755630E+04  4.156344E+04  3.229371E+01 -4.926969E-04 -2.473508E-06
       144  15  3.557715E+05 -2.445470E+03  2.732151E+04 -2.190725E+02 -8.743184E-04 -4.571594E-06
       144  16  3.575066E+05  7.496614E+04  9.783682E+04 -6.433393E+03 -4.355085E-05  1.013888E-05
       144  17  3.424783E+05 -1.715836E+04  4.196004E+04 -1.542346E+03 -1.956453E-04  2.595655E-05
       144  18  3.572034E+05 -2.088621E+03  2.767873E+04  2.854427E+03 -3.489270E-04  1.230744E-05
       144  19  3.540084E+05  7.408874E+04  9.697007E+04  6.012192E+03 -6.649578E+04  3.613956E-01
       144  20  3.392973E+05 -1.795371E+04  4.117044E+04  1.606911E+03 -4.376376E+04 -1.058753E+01
       144  21  3.543402E+05 -2.802165E+03  2.696513E+04 -3.292599E+03 -2.103123E+04 -2.765483E+00
       144  22  3.557599E+05  7.452796E+04  9.740758E+04 -2.105897E+02 -6.649813E+04  1.027798E+00
       144  23  3.408888E+05 -1.755579E+04  4.156704E+04  3.229409E+01 -4.376376E+04 -1.047658E+01
       144  24  3.557720E+05 -2.445352E+03  2.732234E+04 -2.190725E+02 -2.102888E+04 -2.869823E+00
       144  25  3.575114E+05  7.496733E+04  9.784512E+04 -6.433389E+03 -6.650048E+04  1.694248E+00
       144  26  3.424803E+05 -1.715785E+04  4.196364E+04 -1.542327E+03 -4.376376E+04 -1.036562E+01
       144  27  3.572039E+05 -2.088501E+03  2.767956E+04  2.854461E+03 -2.102653E+04 -2.974123E+00
       145   1  3.510277E+05  1.162530E+04  2.281694E+04  6.962985E+02  1.650009E+04 -3.885431E+00
       145   2  3.487633E+05 -2.457934E+03  1.100541E+04  2.468548E+02  1.084341E+04 -8.099568E+00
       145   3  3.513477E+05 -8.772820E+01  6.988551E+03 -6.981439E+02  5.186748E+03 -1.594673E+01
       145   4  3.502340E+05  1.142724E+04  2.261879E+04 -2.155063E+02  1.649971E+04 -3.909626E+00
       145   5  3.478108E+05 -2.695807E+03  1.076791E+04  3.157461E+01  1.084260E+04 -8.103262E+00
       145   6  3.502365E+05 -3.653311E+02  6.712018E+03 -2.168998E+02  5.185505E+03 -1.594259E+01
       145   7  3.494403E+05  1.122918E+04  2.242064E+04 -1.127310E+03  1.649933E+04 -3.933803E+00
       145   8  3.468582E+05 -2.933681E+03  1.053042E+04 -1.837053E+02  1.084179E+04 -8.106945E+00
       145   9  3.491252E+05 -6.429335E+02  6.435485E+03  2.643434E+02  5.184263E+03 -1.593844E+01
       145  10  3.510275E+05  1.162522E+04  2.281643E+04  6.962651E+02 -3.489064E-04  1.277918E-05
       145  11  3.487632E+05 -2.457968E+03  1.100519E+04  2.468360E+02 -1.956968E-04  2.483164E-05
       145  12  3.513477E+05 -8.773637E+01  6.988500E+03 -6.981482E+02 -4.337800E-05  1.422797E-05
       145  13  3.502337E+05  1.142716E+04  2.261828E+04 -2.155062E+02 -8.743226E-04 -4.589392E-06
       145  14  3.478107E+05 -2.695840E+03  1.076769E+04  3.157467E+01 -4.926852E-04 -2.496716E-06
       145  15  3.502365E+05 -3.653385E+02  6.711968E+03 -2.168997E+02 -1.110523E-04 -4.798079E-07
       145  16  3.494400E+05  1.122911E+04  2.242013E+04 -1.127276E+03 -3.505446E-04 -5.769913E-06
       145  17  3.468581E+05 -2.933713E+03  1.053020E+04 -1.836863E+02 -1.984526E-04 -2.070293E-05
       145  18  3.491252E+05 -6.429413E+02  6.435434E+03  2.643478E+02 -4.546026E-05 -1.313158E-05
       145  19  3.510277E+05  1.162529E+04  2.281694E+04  6.962316E+02 -1.650009E+04  3.885458E+00
       145  20  3.487633E+05 -2.457938E+03  1.100541E+04  2.468170E+02 -1.084341E+04  8.099618E+00
       145  21  3.513477E+05 -8.773011E+01  6.988551E+03 -6.981526E+02 -5.186748E+03  1.594676E+01
       145  22  3.502340E+05  1.142724E+04  2.261879E+04 -2.155063E+02 -1.649971E+04  3.909617E+00
       145  23  3.478108E+05 -2.695809E+03  1.076791E+04  3.157460E+01 -1.084260E+04  8.103257E+00
       145  24  3.502365E+05 -3.653315E+02  6.712019E+03 -2.168998E+02 -5.185505E+03  1.594259E+01
       145  25  3.494403E+05  1.122918E+04  2.242064E+04 -1.127243E+03 -1.649933E+04  3.933791E+00
       145  26  3.468582E+05 -2.933683E+03  1.053042E+04 -1.836675E+02 -1.084179E+04  8.106904E+00
       145  27  3.491252E+05 -6.429347E+02  6.435485E+03  2.643521E+02 -5.184263E+03  1.593842E+01
       146   1  3.527498E+05  2.594911E+03  6.231214E+03 -9.687171E+01  4.089910E+03 -2.071256E+01
       146   2  3.525148E+05  4.821220E+02  3.647558E+03  6.858838E+01  2.677786E+03 -2.785718E+01
       146   3  3.530928E+05  8.856880E+02  2.611961E+03 -3.015361E+02  1.265685E+03 -3.703376E+01
       146   4  3.493391E+05  1.742920E+03  5.380462E+03 -2.251922E+02  4.089139E+03 -2.071333E+01
       146   5  3.489329E+05 -4.125790E+02  2.754577E+03  4.250251E+01  2.676779E+03 -2.785720E+01
       146   6  3.493396E+05 -5.167268E+01  1.676922E+03 -2.253889E+02  1.264441E+03 -3.703351E+01
       146   7  3.459284E+05  8.909273E+02  4.529709E+03 -3.535120E+02  4.088369E+03 -2.071411E+01
       146   8  3.453510E+05 -1.307281E+03  1.861595E+03  1.641679E+01  2.675771E+03 -2.785722E+01
       146   9  3.455865E+05 -9.890344E+02  7.418825E+02 -1.492422E+02  1.263196E+03 -3.703325E+01
       146  10  3.527498E+05  2.594907E+03  6.231183E+03 -9.687168E+01  1.942979E-07  4.248379E-06
       146  11  3.525148E+05  4.821201E+02  3.647545E+03  6.858843E+01 -2.900977E-08 -9.644702E-07
       146  12  3.530928E+05  8.856876E+02  2.611958E+03 -3.015360E+02 -8.525388E-09 -2.073546E-07
       146  13  3.493391E+05  1.742915E+03  5.380430E+03 -2.251922E+02  4.117972E-09  6.613518E-08
       146  14  3.489329E+05 -4.125808E+02  2.754564E+03  4.250257E+01 -2.099430E-09  5.565368E-09
       146  15  3.493396E+05 -5.167309E+01  1.676919E+03 -2.253889E+02 -1.883108E-09 -7.221095E-09
       146  16  3.459284E+05  8.909224E+02  4.529677E+03 -3.535119E+02 -1.944194E-07 -4.116607E-06
       146  17  3.453510E+05 -1.307283E+03  1.861582E+03  1.641686E+01  2.648283E-08  9.744632E-07
       146  18  3.455865E+05 -9.890348E+02  7.418795E+02 -1.492422E+02  9.547301E-09  1.904219E-07
       146  19  3.527498E+05  2.594911E+03  6.231214E+03 -9.687178E+01 -4.089910E+03  2.071257E+01
       146  20  3.525148E+05  4.821222E+02  3.647558E+03  6.858836E+01 -2.677786E+03  2.785718E+01
       146  21  3.530928E+05  8.856881E+02  2.611961E+03 -3.015360E+02 -1.265685E+03  3.703376E+01
       146  22  3.493391E+05  1.742919E+03  5.380462E+03 -2.251922E+02 -4.089139E+03  2.071333E+01
       146  23  3.489329E+05 -4.125788E+02  2.754577E+03  4.250251E+01 -2.676779E+03  2.785720E+01
       146  24  3.493396E+05 -5.167265E+01  1.676922E+03 -2.253889E+02 -1.264441E+03  3.703351E+01
       146  25  3.459284E+05  8.909265E+02  4.529708E+03 -3.535120E+02 -4.088369E+03  2.071410E+01
       146  26  3.453510E+05 -1.307281E+03  1.861595E+03  1.641681E+01 -2.675771E+03  2.785722E+01
       146  27  3.455865E+05 -9.890344E+02  7.418825E+02 -1.492423E+02 -1.263196E+03  3.703325E+01
       147   1  3.555234E+05  1.844830E+03  2.906527E+03 -2.275852E+02  9.929171E+02 -4.205441E+01
       147   2  3.556478E+05  1.565700E+03  2.372602E+03  6.854297E+01  6.172475E+02 -5.048961E+01
       147   3  3.559216E+05  1.685307E+03  2.182986E+03 -2.574708E+02  2.415727E+02 -6.162809E+01
       147   4  3.491921E+05  2.632887E+02  1.327607E+03 -2.445434E+02  9.920558E+02 -4.205439E+01
       147   5  3.491175E+05 -6.547066E+01  7.445850E+02  6.651662E+01  6.160651E+02 -5.048956E+01
       147   6  3.491922E+05  4.564713E+00  5.060962E+02 -2.445654E+02  2.400691E+02 -6.162804E+01
       147   7  3.428608E+05 -1.318256E+03 -2.513168E+02 -2.615015E+02  9.911945E+02 -4.205437E+01
       147   8  3.425871E+05 -1.696644E+03 -8.834354E+02  6.449029E+01  6.148826E+02 -5.048952E+01
       147   9  3.424628E+05 -1.676181E+03 -1.170797E+03 -2.316602E+02  2.385656E+02 -6.162800E+01
       147  10  3.555234E+05  1.844830E+03  2.906526E+03 -2.275851E+02  2.835368E-08  6.992861E-07
       147  11  3.556478E+05  1.565700E+03  2.372602E+03  6.854300E+01 -1.538228E-08 -1.601431E-07
       147  12  3.559216E+05  1.685307E+03  2.182985E+03 -2.574708E+02 -1.822444E-09 -3.304967E-08
       147  13  3.491921E+05  2.632884E+02  1.327605E+03 -2.445434E+02 -5.010276E-11 -9.501927E-11
       147  14  3.491175E+05 -6.547075E+01  7.445843E+02  6.651665E+01 -2.176425E-09  2.919610E-09
       147  15  3.491922E+05  4.564696E+00  5.060961E+02 -2.445654E+02 -5.255682E-09  2.853432E-10
       147  16  3.428608E+05 -1.318256E+03 -2.513187E+02 -2.615014E+02 -3.362598E-08 -7.017558E-07
       147  17  3.425871E+05 -1.696644E+03 -8.834361E+02  6.449032E+01  1.275307E-09  1.647194E-07
       147  18  3.424628E+05 -1.676181E+03 -1.170797E+03 -2.316602E+02 -5.361772E-09  3.289194E-08
       147  19  3.555234E+05  1.844830E+03  2.906527E+03 -2.275852E+02 -9.929171E+02  4.205441E+01
       147  20  3.556478E+05  1.565700E+03  2.372602E+03  6.854297E+01 -6.172475E+02  5.048961E+01
       147  21  3.559216E+05  1.685307E+03  2.182986E+03 -2.574708E+02 -2.415727E+02  6.162809E+01
       147  22  3.491921E+05  2.632886E+02  1.327607E+03 -2.445434E+02 -9.920558E+02  4.205439E+01
       147  23  3.491175E+05 -6.547063E+01  7.445850E+02  6.651662E+01 -6.160651E+02  5.048956E+01
       147  24  3.491922E+05  4.564719E+00  5.060962E+02 -2.445654E+02 -2.400691E+02  6.162804E+01
       147  25  3.428608E+05 -1.318256E+03 -2.513168E+02 -2.615015E+02 -9.911945E+02  4.205437E+01
       147  26  3.425871E+05 -1.696644E+03 -8.834354E+02  6.449029E+01 -6.148826E+02  5.048952E+01
       147  27  3.424628E+05 -1.676181E+03 -1.170797E+03 -2.316602E+02 -2.385656E+02  6.162800E+01
       148   1  3.589907E+05  2.488987E+03  2.889969E+03 -2.708753E+02  1.551131E+02 -6.770368E+01
       148   2  3.591996E+05  2.484161E+03  2.894501E+03  1.050610E+02 -3.901883E+01 -7.784421E+01
       148   3  3.594793E+05  2.653927E+03  3.069408E+03 -2.831381E+02 -2.331501E+02 -9.132757E+01
       148   4  3.491747E+05  3.702892E+01  4.422424E+02 -2.761118E+02  1.540937E+02 -6.770371E+01
       148   5  3.491393E+05 -2.870773E+01  3.864977E+02  1.059551E+02 -4.043677E+01 -7.784427E+01
       148   6  3.491747E+05  8.021781E+01  5.014063E+02 -2.761141E+02 -2.349666E+02 -9.132769E+01
       148   7  3.393589E+05 -2.414936E+03 -2.005492E+03 -2.813482E+02  1.530744E+02 -6.770373E+01
       148   8  3.390791E+05 -2.541584E+03 -2.121513E+03  1.068493E+02 -4.185469E+01 -7.784433E+01
       148   9  3.388702E+05 -2.493500E+03 -2.066603E+03 -2.690902E+02 -2.367830E+02 -9.132781E+01
       148  10  3.589907E+05  2.488987E+03  2.889969E+03 -2.708753E+02  1.040069E-08  1.162771E-07
       148  11  3.591996E+05  2.484161E+03  2.894501E+03  1.050610E+02 -3.251169E-09 -2.768111E-08
       148  12  3.594793E+05  2.653927E+03  3.069408E+03 -2.831381E+02  8.009939E-09 -4.563853E-09
       148  13  3.491747E+05  3.702890E+01  4.422423E+02 -2.761118E+02  4.526837E-09 -1.346779E-09
       148  14  3.491393E+05 -2.870773E+01  3.864977E+02  1.059551E+02  2.557420E-10 -7.435368E-10
       148  15  3.491747E+05  8.021778E+01  5.014062E+02 -2.761141E+02  5.972243E-09 -3.332130E-10
       148  16  3.393589E+05 -2.414936E+03 -2.005492E+03 -2.813482E+02 -1.248712E-08 -1.185329E-07
       148  17  3.390791E+05 -2.541584E+03 -2.121513E+03  1.068493E+02 -9.608546E-09  2.751607E-08
       148  18  3.388702E+05 -2.493500E+03 -2.066603E+03 -2.690902E+02 -6.039597E-09  6.324397E-09
       148  19  3.589907E+05  2.488987E+03  2.889969E+03 -2.708753E+02 -1.551131E+02  6.770368E+01
       148  20  3.591996E+05  2.484161E+03  2.894501E+03  1.050610E+02  3.901883E+01  7.784421E+01
       148  21  3.594793E+05  2.653927E+03  3.069408E+03 -2.831381E+02  2.331501E+02  9.132757E+01
       148  22  3.491747E+05  3.702890E+01  4.422424E+02 -2.761118E+02 -1.540937E+02  6.770371E+01
       148  23  3.491393E+05 -2.870772E+01  3.864977E+02  1.059551E+02  4.043677E+01  7.784427E+01
       148  24  3.491747E+05  8.021781E+01  5.014063E+02 -2.761141E+02  2.349666E+02  9.132769E+01
       148  25  3.393589E+05 -2.414936E+03 -2.005492E+03 -2.813482E+02 -1.530744E+02  6.770373E+01
       148  26  3.390791E+05 -2.541584E+03 -2.121513E+03  1.068493E+02  4.185469E+01  7.784433E+01
       148  27  3.388702E+05 -2.493500E+03 -2.066603E+03 -2.690902E+02  2.367830E+02  9.132781E+01
       149   1  3.633914E+05  3.530018E+03  4.122587E+03 -2.990321E+02 -3.322080E+02 -9.964719E+01
       149   2  3.635728E+05  3.489669E+03  4.500594E+03  1.567943E+02 -7.876575E+02 -1.128474E+02
       149   3  3.640137E+05  4.233519E+03  5.371899E+03 -3.616697E+02 -1.243099E+03 -1.264268E+02
       149   4  3.492166E+05 -1.070913E+01  5.880888E+02 -3.227984E+02 -3.337631E+02 -9.964736E+01
       149   5  3.490868E+05 -1.286312E+02  8.893443E+02  1.643206E+02 -7.892488E+02 -1.128477E+02
       149   6  3.492165E+05  5.376645E+02  1.683931E+03 -3.228528E+02 -1.244727E+03 -1.264273E+02
       149   7  3.350421E+05 -3.551452E+03 -2.946424E+03 -3.465641E+02 -3.353181E+02 -9.964754E+01
       149   8  3.346010E+05 -3.746947E+03 -2.721921E+03  1.718467E+02 -7.908401E+02 -1.128480E+02
       149   9  3.344195E+05 -3.158207E+03 -2.004052E+03 -2.840368E+02 -1.246354E+03 -1.264277E+02
       149  10  3.633914E+05  3.530018E+03  4.122587E+03 -2.990322E+02  2.063455E-09  2.091943E-08
       149  11  3.635728E+05  3.489669E+03  4.500593E+03  1.567943E+02  7.095730E-09 -4.085223E-09
       149  12  3.640137E+05  4.233519E+03  5.371896E+03 -3.616699E+02  1.151287E-09 -7.700872E-10
       149  13  3.492166E+05 -1.070917E+01  5.880886E+02 -3.227984E+02  8.657909E-09 -1.146503E-10
       149  14  3.490868E+05 -1.286313E+02  8.893431E+02  1.643205E+02  6.301317E-09 -6.543179E-11
       149  15  3.492165E+05  5.376640E+02  1.683928E+03 -3.228529E+02  7.479320E-09  2.591702E-11
       149  16  3.350421E+05 -3.551452E+03 -2.946424E+03 -3.465641E+02 -5.385349E-09 -1.918572E-08
       149  17  3.346010E+05 -3.746947E+03 -2.721922E+03  1.718466E+02  3.265680E-09  4.998974E-09
       149  18  3.344195E+05 -3.158207E+03 -2.004055E+03 -2.840369E+02  8.046725E-10  9.032686E-10
       149  19  3.633914E+05  3.530018E+03  4.122587E+03 -2.990321E+02  3.322080E+02  9.964719E+01
       149  20  3.635728E+05  3.489669E+03  4.500594E+03  1.567943E+02  7.876575E+02  1.128474E+02
       149  21  3.640137E+05  4.233519E+03  5.371899E+03 -3.616697E+02  1.243099E+03  1.264268E+02
       149  22  3.492166E+05 -1.070913E+01  5.880888E+02 -3.227984E+02  3.337631E+02  9.964736E+01
       149  23  3.490868E+05 -1.286312E+02  8.893443E+02  1.643206E+02  7.892488E+02  1.128477E+02
       149  24  3.492165E+05  5.376645E+02  1.683931E+03 -3.228528E+02  1.244727E+03  1.264273E+02
       149  25  3.350421E+05 -3.551452E+03 -2.946424E+03 -3.465641E+02  3.353181E+02  9.964754E+01
       149  26  3.346010E+05 -3.746947E+03 -2.721921E+03  1.718467E+02  7.908401E+02  1.128480E+02
       149  27  3.344195E+05 -3.158207E+03 -2.004052E+03 -2.840368E+02  1.246354E+03  1.264277E+02
       150   1  3.692883E+05  4.832486E+03  7.025560E+03 -2.382696E+02 -1.582916E+03 -1.415464E+02
       150   2  3.689415E+05  4.213257E+03  8.369390E+03  1.828787E+02 -3.337502E+03 -1.622978E+02
       150   3  3.701017E+05  8.675241E+03  1.212705E+04 -6.673888E+02 -5.092120E+03 -1.559359E+02
       150   4  3.494937E+05 -1.120272E+02  2.089923E+03 -3.885871E+02 -1.586973E+03 -1.415468E+02
       150   5  3.487401E+05 -8.325282E+02  3.333697E+03  2.467125E+02 -3.338254E+03 -1.622987E+02
       150   6  3.494929E+05  3.527697E+03  6.989055E+03 -3.894030E+02 -5.089565E+03 -1.559379E+02
       150   7  3.296995E+05 -5.056570E+03 -2.845743E+03 -5.388997E+02 -1.591030E+03 -1.415473E+02
       150   8  3.285390E+05 -5.878344E+03 -1.702028E+03  3.105441E+02 -3.339005E+03 -1.622995E+02
       150   9  3.288846E+05 -1.619879E+03  1.851032E+03 -1.114266E+02 -5.087011E+03 -1.559400E+02
       150  10  3.692883E+05  4.832485E+03  7.025555E+03 -2.382698E+02  3.445776E-10  3.287242E-09
       150  11  3.689415E+05  4.213254E+03  8.369369E+03  1.828783E+02 -2.060390E-09 -1.118959E-09
       150  12  3.701017E+05  8.675234E+03  1.212700E+04 -6.673894E+02 -2.815309E-09 -6.414421E-10
       150  13  3.494937E+05 -1.120279E+02  2.089919E+03 -3.885872E+02  5.162283E-11 -1.262790E-10
       150  14  3.487401E+05 -8.325312E+02  3.333676E+03  2.467120E+02 -9.591288E-11 -2.519948E-10
       150  15  3.494929E+05  3.527690E+03  6.989006E+03 -3.894037E+02 -1.537496E-09 -4.960764E-10
       150  16  3.296995E+05 -5.056570E+03 -2.845748E+03 -5.388999E+02  3.980149E-09 -3.309209E-09
       150  17  3.285390E+05 -5.878347E+03 -1.702049E+03  3.105437E+02  1.541790E-10  1.235913E-09
       150  18  3.288846E+05 -1.619886E+03  1.850984E+03 -1.114272E+02  3.435931E-09 -1.230088E-10
       150  19  3.692883E+05  4.832486E+03  7.025560E+03 -2.382696E+02  1.582916E+03  1.415464E+02
       150  20  3.689415E+05  4.213257E+03  8.369390E+03  1.828787E+02  3.337502E+03  1.622978E+02
       150  21  3.701017E+05  8.675241E+03  1.212705E+04 -6.673888E+02  5.092120E+03  1.559359E+02
       150  22  3.494937E+05 -1.120272E+02  2.089923E+03 -3.885871E+02  1.586973E+03  1.415468E+02
       150  23  3.487401E+05 -8.325282E+02  3.333697E+03  2.467125E+02  3.338254E+03  1.622987E+02
       150  24  3.494929E+05  3.527697E+03  6.989055E+03 -3.894030E+02  5.089565E+03  1.559379E+02
       150  25  3.296995E+05 -5.056570E+03 -2.845743E+03 -5.388997E+02  1.591030E+03  1.415473E+02
       150  26  3.285390E+05 -5.878344E+03 -1.702028E+03  3.105441E+02  3.339005E+03  1.622995E+02
       150  27  3.288846E+05 -1.619879E+03  1.851032E+03 -1.114265E+02  5.087011E+03  1.559400E+02
       151   1  3.783801E+05  6.033724E+03  1.521575E+04  4.750821E+02 -6.470654E+03 -2.029049E+02
       151   2  3.743148E+05  1.500740E+03  1.973996E+04 -1.174791E+02 -1.351629E+04 -2.538058E+02
       151   3  3.794569E+05  3.006910E+04  3.712789E+04 -2.401331E+03 -2.056200E+04 -9.504478E+01
       151   4  3.512043E+05 -7.549465E+02  8.440179E+03 -4.791405E+02 -6.488930E+03 -2.029004E+02
       151   5  3.466006E+05 -5.420742E+03  1.283379E+04  3.617855E+02 -1.350913E+04 -2.538147E+02
       151   6  3.512003E+05  2.301116E+04  3.007387E+04 -4.885743E+02 -2.052938E+04 -9.509551E+01
       151   7  3.240292E+05 -7.543669E+03  1.664555E+03 -1.433321E+03 -6.507205E+03 -2.028958E+02
       151   8  3.188871E+05 -1.234228E+04  5.927561E+03  8.410288E+02 -1.350196E+04 -2.538236E+02
       151   9  3.229445E+05  1.595318E+04  2.301979E+04  1.424096E+03 -2.049677E+04 -9.514604E+01
       151  10  3.783800E+05  6.033713E+03  1.521567E+04  4.750810E+02 -8.738249E-10 -2.239785E-10
       151  11  3.743146E+05  1.500691E+03  1.973962E+04 -1.174819E+02 -4.484870E-09 -1.055128E-09
       151  12  3.794564E+05  3.006898E+04  3.712710E+04 -2.401333E+03  3.300322E-09 -2.127315E-10
       151  13  3.512043E+05 -7.549579E+02  8.440100E+03 -4.791416E+02 -8.848973E-09 -1.638703E-09
       151  14  3.466004E+05 -5.420791E+03  1.283345E+04  3.617828E+02 -4.114187E-09  6.357298E-10
       151  15  3.511998E+05  2.301105E+04  3.007308E+04 -4.885759E+02 -8.534663E-09 -1.262503E-11
       151  16  3.240292E+05 -7.543681E+03  1.664476E+03 -1.433322E+03  1.872521E-09 -1.312252E-09
       151  17  3.188869E+05 -1.234233E+04  5.927218E+03  8.410260E+02  2.313732E-09  3.527702E-10
       151  18  3.229440E+05  1.595307E+04  2.301900E+04  1.424094E+03 -9.294341E-10 -3.032951E-10
       151  19  3.783801E+05  6.033724E+03  1.521575E+04  4.750821E+02  6.470654E+03  2.029049E+02
       151  20  3.743148E+05  1.500740E+03  1.973996E+04 -1.174791E+02  1.351629E+04  2.538058E+02
       151  21  3.794569E+05  3.006910E+04  3.712789E+04 -2.401331E+03  2.056200E+04  9.504478E+01
       151  22  3.512043E+05 -7.549465E+02  8.440179E+03 -4.791405E+02  6.488930E+03  2.029004E+02
       151  23  3.466006E+05 -5.420742E+03  1.283379E+04  3.617855E+02  1.350913E+04  2.538147E+02
       151  24  3.512003E+05  2.301116E+04  3.007387E+04 -4.885743E+02  2.052938E+04  9.509551E+01
       151  25  3.240292E+05 -7.543669E+03  1.664555E+03 -1.433321E+03  6.507205E+03  2.028958E+02
       151  26  3.188871E+05 -1.234228E+04  5.927561E+03  8.410288E+02  1.350196E+04  2.538236E+02
       151  27  3.229445E+05  1.595318E+04  2.301979E+04  1.424096E+03  2.049677E+04  9.514604E+01
       152   1  1.727144E+06  6.875103E+06  1.737999E+06 -4.923393E+05  2.220549E+04  1.347601E+03
       152   2  1.509331E+06  6.068925E+06  1.539750E+06  9.404199E+04  5.871630E+04 -1.680077E+04
       152   3  1.535287E+06  6.024350E+06  1.553174E+06 -6.251539E+05  3.357906E+04 -3.614807E+04
       152   4  6.931661E+04  2.148192E+05  8.173684E+04 -4.635351E+05  2.226513E+04 -6.738484E+03
       152   5 -4.626292E+04 -1.691632E+05 -1.017587E+04  1.908966E+05  5.876346E+04 -1.731075E+04
       152   6  7.829292E+04  2.031190E+05  1.043854E+05 -4.610791E+05  3.333784E+04 -2.910022E+04
       152   7 -1.591833E+06 -6.405514E+06 -1.577847E+06 -4.349682E+05  2.232441E+04 -1.473826E+04
       152   8 -1.604757E+06 -6.372149E+06 -1.563014E+06  2.869601E+05  5.881077E+04 -1.781488E+04
       152   9 -1.381200E+06 -5.587548E+06 -1.346946E+06 -2.982418E+05  3.309918E+04 -2.211694E+04
       152  10  1.727143E+06  6.875103E+06  1.737998E+06 -4.923393E+05 -2.212949E-09 -6.786602E-09
       152  11  1.509327E+06  6.068924E+06  1.539743E+06  9.404278E+04 -1.844477E-08  2.022924E-09
       152  12  1.535286E+06  6.024348E+06  1.553170E+06 -6.251529E+05  1.986332E-08  3.005207E-09
       152  13  6.931607E+04  2.148190E+05  8.173583E+04 -4.635349E+05 -7.017445E-09 -5.337694E-09
       152  14 -4.626671E+04 -1.691644E+05 -1.018292E+04  1.908974E+05 -3.539206E-08 -4.474988E-10
       152  15  7.829150E+04  2.031178E+05  1.043817E+05 -4.610783E+05  1.541200E-08 -1.014621E-07
       152  16 -1.591834E+06 -6.405515E+06 -1.577849E+06 -4.349679E+05 -1.081379E-08  4.004830E-09
       152  17 -1.604761E+06 -6.372150E+06 -1.563021E+06  2.869610E+05 -9.896584E-09 -1.366954E-08
       152  18 -1.381201E+06 -5.587549E+06 -1.346949E+06 -2.982412E+05  7.585748E-09 -2.017080E-08
       152  19  1.727144E+06  6.875103E+06  1.737999E+06 -4.923393E+05 -2.220549E+04 -1.347601E+03
       152  20  1.509331E+06  6.068925E+06  1.539750E+06  9.404199E+04 -5.871630E+04  1.680077E+04
       152  21  1.535287E+06  6.024350E+06  1.553174E+06 -6.251539E+05 -3.357906E+04  3.614807E+04
       152  22  6.931661E+04  2.148192E+05  8.173684E+04 -4.635351E+05 -2.226513E+04  6.738484E+03
       152  23 -4.626292E+04 -1.691632E+05 -1.017587E+04  1.908966E+05 -5.876346E+04  1.731075E+04
       152  24  7.829292E+04  2.031190E+05  1.043854E+05 -4.610791E+05 -3.333784E+04  2.910022E+04
       152  25 -1.591833E+06 -6.405514E+06 -1.577847E+06 -4.349682E+05 -2.232441E+04  1.473826E+04
       152  26 -1.604757E+06 -6.372149E+06 -1.563014E+06  2.869601E+05 -5.881077E+04  1.781488E+04
       152  27 -1.381200E+06 -5.587548E+06 -1.346946E+06 -2.982418E+05 -3.309918E+04  2.211694E+04
       153   1  1.799951E+04  8.131493E+04  8.076424E+04 -4.607039E+05  1.138325E+04 -5.217947E+04
       153   2 -1.172661E+05 -2.920890E+05  3.107580E+04  1.964176E+05  1.574501E+03 -1.137334E+05
       153   3 -7.822937E+04 -7.386510E+05  3.971023E+04 -4.266935E+05 -7.372910E+03 -1.751890E+05
       153   4  5.331370E+03  3.063830E+04  6.878873E+04 -4.585148E+05  1.132093E+04 -5.066627E+04
       153   5 -2.661314E+04  6.773789E+04  1.209576E+05  1.837389E+05  1.520308E+03 -1.123585E+05
       153   6  1.157391E+05  3.149574E+04  2.315055E+05 -4.541845E+05 -7.417572E+03 -1.739927E+05
       153   7 -7.336940E+03 -2.003596E+04  5.681304E+04 -4.563258E+05  1.125862E+04 -4.915320E+04
       153   8  6.403034E+04  4.276823E+05  2.108297E+05  1.710540E+05  1.466074E+03 -1.109828E+05
       153   9  3.096642E+05  8.021816E+05  4.232563E+05 -4.817041E+05 -7.462319E+03 -1.727948E+05
       153  10  1.799864E+04  8.131197E+04  8.075888E+04 -4.607034E+05  6.185798E-09 -1.329693E-08
       153  11 -1.172696E+05 -2.921029E+05  3.105148E+04  1.964177E+05 -1.179629E-09 -8.531752E-09
       153  12 -7.823768E+04 -7.386840E+05  3.965239E+04 -4.266946E+05 -9.096758E-09  2.904784E-09
       153  13  5.330544E+03  3.063551E+04  6.878366E+04 -4.585143E+05  6.764993E-09 -4.306522E-08
       153  14 -2.661653E+04  6.772433E+04  1.209339E+05  1.837390E+05  1.411936E-08 -7.810969E-11
       153  15  1.157309E+05  3.146322E+04  2.314485E+05 -4.541855E+05  3.907700E-08 -1.082890E-07
       153  16 -7.337724E+03 -2.003858E+04  5.680827E+04 -4.563253E+05  3.897514E-09 -7.897177E-09
       153  17  6.402703E+04  4.276691E+05  2.108066E+05  1.710541E+05 -3.543727E-08 -1.460736E-08
       153  18  3.096562E+05  8.021495E+05  4.232001E+05 -4.817052E+05 -1.461116E-09 -2.111630E-08
       153  19  1.799951E+04  8.131493E+04  8.076424E+04 -4.607039E+05 -1.138325E+04  5.217947E+04
       153  20 -1.172661E+05 -2.920890E+05  3.107580E+04  1.964176E+05 -1.574501E+03  1.137334E+05
       153  21 -7.822937E+04 -7.386510E+05  3.971023E+04 -4.266935E+05  7.372910E+03  1.751890E+05
       153  22  5.331370E+03  3.063830E+04  6.878873E+04 -4.585148E+05 -1.132093E+04  5.066627E+04
       153  23 -2.661314E+04  6.773789E+04  1.209576E+05  1.837389E+05 -1.520308E+03  1.123585E+05
       153  24  1.157391E+05  3.149574E+04  2.315055E+05 -4.541845E+05  7.417572E+03  1.739927E+05
       153  25 -7.336940E+03 -2.003596E+04  5.681304E+04 -4.563258E+05 -1.125862E+04  4.915320E+04
       153  26  6.403034E+04  4.276823E+05  2.108297E+05  1.710540E+05 -1.466074E+03  1.109828E+05
       153  27  3.096642E+05  8.021816E+05  4.232563E+05 -4.817041E+05  7.462319E+03  1.727948E+05
       154   1 -1.589971E+06 -6.178151E+06 -1.283836E+06 -3.285878E+05 -2.968428E+04 -2.390797E+05
       154   2 -1.964005E+06 -7.216916E+06 -1.348540E+06  2.938400E+05 -5.728001E+04 -4.600747E+05
       154   3 -1.000781E+06 -7.002772E+06 -7.538338E+05 -4.117208E+05 -2.502344E+04 -6.803094E+05
       154   4  4.255231E+04  3.119765E+05  3.422646E+05 -4.676996E+05 -2.987363E+04 -2.330918E+05
       154   5 -2.278445E+05 -3.095737E+05  3.813078E+05  1.947086E+05 -5.716791E+04 -4.634544E+05
       154   6  8.375615E+05  3.252493E+05  1.082938E+06 -4.701093E+05 -2.494771E+04 -6.932143E+05
       154   7  1.671912E+06  6.840515E+06  1.965175E+06 -6.079361E+05 -3.006505E+04 -2.270305E+05
       154   8  1.504713E+06  6.641336E+06  2.107543E+06  9.463230E+04 -5.705589E+04 -4.668485E+05
       154   9  2.671846E+06  7.702289E+06  2.915645E+06 -5.291865E+05 -2.487035E+04 -7.062332E+05
       154  10 -1.589988E+06 -6.178213E+06 -1.283946E+06 -3.285935E+05  7.960104E-09  3.323140E-09
       154  11 -1.964066E+06 -7.217146E+06 -1.348948E+06  2.938187E+05 -1.746229E-09 -8.895445E-09
       154  12 -1.000908E+06 -7.003273E+06 -7.547145E+05 -4.117347E+05 -2.914036E-09 -6.832143E-09
       154  13  4.253677E+04  3.119180E+05  3.421609E+05 -4.677052E+05 -1.117563E-08 -3.578569E-08
       154  14 -2.279057E+05 -3.098051E+05  3.808980E+05  1.946873E+05 -2.235628E-09  1.307052E-10
       154  15  8.374320E+05  3.247337E+05  1.082034E+06 -4.701233E+05 -5.827024E-09  4.588095E-09
       154  16  1.671897E+06  6.840460E+06  1.965077E+06 -6.079416E+05  2.233900E-08 -2.045858E-08
       154  17  1.504652E+06  6.641104E+06  2.107132E+06  9.461097E+04 -9.842534E-09 -5.173206E-10
       154  18  2.671713E+06  7.701759E+06  2.914717E+06 -5.292006E+05 -9.462446E-09  7.698133E-09
       154  19 -1.589971E+06 -6.178151E+06 -1.283836E+06 -3.285878E+05  2.968428E+04  2.390797E+05
       154  20 -1.964005E+06 -7.216916E+06 -1.348540E+06  2.938400E+05  5.728001E+04  4.600747E+05
       154  21 -1.000781E+06 -7.002772E+06 -7.538338E+05 -4.117208E+05  2.502344E+04  6.803094E+05
       154  22  4.255231E+04  3.119765E+05  3.422646E+05 -4.676996E+05  2.987363E+04  2.330918E+05
       154  23 -2.278445E+05 -3.095737E+05  3.813078E+05  1.947086E+05  5.716791E+04  4.634544E+05
       154  24  8.375615E+05  3.252493E+05  1.082938E+06 -4.701093E+05  2.494771E+04  6.932143E+05
       154  25  1.671912E+06  6.840515E+06  1.965175E+06 -6.079361E+05  3.006505E+04  2.270305E+05
       154  26  1.504713E+06  6.641336E+06  2.107543E+06  9.463230E+04  5.705589E+04  4.668485E+05
       154  27  2.671846E+06  7.702289E+06  2.915645E+06 -5.291865E+05  2.487035E+04  7.062332E+05
       155   1 -3.849029E+05 -1.643377E+05 -7.575083E+04 -1.861031E+05 -4.573493E+04 -1.745473E+04
       155   2 -3.681224E+05 -9.436865E+04 -3.230271E+04 -1.757694E+05 -2.680159E+04 -1.170832E+04
       155   3 -3.632750E+05 -6.240214E+04 -1.202852E+04 -1.609344E+05 -7.733437E+03 -6.319098E+03
       155   4 -4.051153E+05 -1.335870E+05 -7.329079E+04 -1.521662E+05 -4.751210E+04 -1.812444E+04
       155   5 -3.952502E+05 -8.650189E+04 -3.431055E+04 -1.649646E+05 -2.921608E+04 -1.261435E+04
       155   6 -3.971923E+05 -7.729580E+04 -1.799970E+04 -1.732624E+05 -1.078515E+04 -7.462962E+03
       155   7 -4.253235E+05 -1.028301E+05 -7.082982E+04 -1.182304E+05 -4.928917E+04 -1.879439E+04
       155   8 -4.223764E+05 -7.863412E+04 -3.631814E+04 -1.541603E+05 -3.163044E+04 -1.352050E+04
       155   9 -4.311086E+05 -9.218928E+04 -2.397094E+04 -1.855898E+05 -1.383671E+04 -8.606733E+03
       155  10 -3.849053E+05 -1.643386E+05 -7.575534E+04 -1.861037E+05  5.801479E-10 -3.383479E-10
       155  11 -3.681232E+05 -9.436899E+04 -3.230432E+04 -1.757697E+05  7.228395E-09 -3.005469E-09
       155  12 -3.632751E+05 -6.240219E+04 -1.202871E+04 -1.609344E+05 -6.505787E-09 -3.940014E-09
       155  13 -4.051179E+05 -1.335879E+05 -7.329566E+04 -1.521669E+05  4.444688E-09 -6.666856E-10
       155  14 -3.952512E+05 -8.650229E+04 -3.431246E+04 -1.649649E+05 -3.654243E-09 -1.766974E-09
       155  15 -3.971925E+05 -7.729589E+04 -1.800003E+04 -1.732624E+05 -3.932181E-09 -1.663114E-09
       155  16 -4.253262E+05 -1.028311E+05 -7.083506E+04 -1.182312E+05 -2.530547E-09 -1.049899E-09
       155  17 -4.223775E+05 -7.863458E+04 -3.632036E+04 -1.541606E+05 -2.881213E-09 -6.062433E-10
       155  18 -4.311089E+05 -9.218941E+04 -2.397144E+04 -1.855899E+05 -3.787487E-09 -2.852324E-10
       155  19 -3.849029E+05 -1.643377E+05 -7.575083E+04 -1.861031E+05  4.573493E+04  1.745473E+04
       155  20 -3.681224E+05 -9.436865E+04 -3.230271E+04 -1.757694E+05  2.680159E+04  1.170832E+04
       155  21 -3.632750E+05 -6.240214E+04 -1.202852E+04 -1.609344E+05  7.733437E+03  6.319098E+03
       155  22 -4.051153E+05 -1.335870E+05 -7.329079E+04 -1.521662E+05  4.751210E+04  1.812444E+04
       155  23 -3.952502E+05 -8.650189E+04 -3.431055E+04 -1.649646E+05  2.921608E+04  1.261435E+04
       155  24 -3.971923E+05 -7.729580E+04 -1.799970E+04 -1.732624E+05  1.078515E+04  7.462962E+03
       155  25 -4.253235E+05 -1.028301E+05 -7.082982E+04 -1.182304E+05  4.928917E+04  1.879439E+04
       155  26 -4.223764E+05 -7.863412E+04 -3.631814E+04 -1.541603E+05  3.163044E+04  1.352050E+04
       155  27 -4.311086E+05 -9.218928E+04 -2.397094E+04 -1.855898E+05  1.383671E+04  8.606733E+03
       156   1 -3.441847E+05 -6.039922E+04 -4.993689E+03 -1.594509E+05 -5.363562E+03 -6.580899E+03
       156   2 -3.239723E+05 -4.778656E+04  5.174654E+03 -1.514206E+05 -1.087886E+03 -6.933243E+03
       156   3 -3.015483E+05 -4.061130E+04  1.210659E+04 -1.469584E+05  3.200050E+03 -7.317677E+03
       156   4 -3.951072E+05 -7.742175E+04 -1.351687E+04 -1.723053E+05 -8.375913E+03 -7.710110E+03
       156   5 -3.960155E+05 -7.326631E+04 -7.097070E+03 -1.710618E+05 -4.157659E+03 -8.084054E+03
       156   6 -3.947012E+05 -7.453700E+04 -3.868250E+03 -1.733865E+05  7.277001E+01 -8.490145E+03
       156   7 -4.460264E+05 -9.444392E+04 -2.203994E+04 -1.851587E+05 -1.138797E+04 -8.839227E+03
       156   8 -4.680531E+05 -9.874560E+04 -1.936890E+04 -1.907009E+05 -7.227055E+03 -9.234729E+03
       156   9 -4.878457E+05 -1.084621E+05 -1.984356E+04 -1.998111E+05 -3.054043E+03 -9.662433E+03
       156  10 -3.441848E+05 -6.039927E+04 -4.993824E+03 -1.594509E+05  4.803781E-09  1.460998E-09
       156  11 -3.239723E+05 -4.778661E+04  5.174562E+03 -1.514206E+05 -1.005234E-08 -2.128422E-09
       156  12 -3.015483E+05 -4.061136E+04  1.210647E+04 -1.469584E+05 -1.420871E-08 -4.734259E-09
       156  13 -3.951073E+05 -7.742183E+04 -1.351711E+04 -1.723054E+05 -1.561297E-08 -1.526432E-09
       156  14 -3.960155E+05 -7.326639E+04 -7.097226E+03 -1.710618E+05 -2.621088E-08  2.609567E-09
       156  15 -3.947012E+05 -7.453707E+04 -3.868385E+03 -1.733865E+05 -1.415143E-08  1.183075E-08
       156  16 -4.460266E+05 -9.444404E+04 -2.204033E+04 -1.851588E+05 -2.212291E-08 -9.349870E-09
       156  17 -4.680532E+05 -9.874570E+04 -1.936916E+04 -1.907009E+05 -1.976370E-08 -1.223421E-08
       156  18 -4.878457E+05 -1.084622E+05 -1.984375E+04 -1.998111E+05  5.455595E-09 -6.555847E-09
       156  19 -3.441847E+05 -6.039922E+04 -4.993689E+03 -1.594509E+05  5.363562E+03  6.580899E+03
       156  20 -3.239723E+05 -4.778656E+04  5.174654E+03 -1.514206E+05  1.087886E+03  6.933243E+03
       156  21 -3.015483E+05 -4.061130E+04  1.210659E+04 -1.469584E+05 -3.200050E+03  7.317677E+03
       156  22 -3.951072E+05 -7.742175E+04 -1.351687E+04 -1.723053E+05  8.375913E+03  7.710110E+03
       156  23 -3.960155E+05 -7.326631E+04 -7.097070E+03 -1.710618E+05  4.157659E+03  8.084054E+03
       156  24 -3.947012E+05 -7.453700E+04 -3.868250E+03 -1.733865E+05 -7.277001E+01  8.490145E+03
       156  25 -4.460264E+05 -9.444392E+04 -2.203994E+04 -1.851587E+05  1.138797E+04  8.839227E+03
       156  26 -4.680531E+05 -9.874560E+04 -1.936890E+04 -1.907009E+05  7.227055E+03  9.234729E+03
       156  27 -4.878457E+05 -1.084621E+05 -1.984356E+04 -1.998111E+05  3.054043E+03  9.662433E+03
       157   1 -2.871529E+05 -3.576574E+04  1.559455E+04 -1.431952E+05  4.113675E+03 -8.145716E+03
       157   2 -2.670513E+05 -2.616306E+04  2.059190E+04 -1.351974E+05  5.567927E+03 -9.609079E+03
       157   3 -2.436723E+05 -2.009873E+04  2.497075E+04 -1.311280E+05  7.023143E+03 -1.107450E+04
       157   4 -3.945296E+05 -7.455954E+04 -2.901091E+03 -1.733011E+05  9.907781E+02 -9.316625E+03
       157   5 -3.961641E+05 -7.275177E+04 -1.583032E+03 -1.713519E+05  2.441150E+03 -1.078162E+04
       157   6 -3.945209E+05 -7.448169E+04 -8.804141E+02 -1.733313E+05  3.892453E+03 -1.224867E+04
       157   7 -5.018940E+05 -1.133522E+05 -2.139701E+04 -2.034022E+05 -2.131543E+03 -1.048732E+04
       157   8 -5.252585E+05 -1.193385E+05 -2.375820E+04 -2.074991E+05 -6.849182E+02 -1.195389E+04
       157   9 -5.453436E+05 -1.288618E+05 -2.673173E+04 -2.155245E+05  7.626035E+02 -1.342253E+04
       157  10 -2.871529E+05 -3.576582E+04  1.559439E+04 -1.431951E+05 -2.094047E-08 -1.214172E-08
       157  11 -2.670513E+05 -2.616317E+04  2.059167E+04 -1.351974E+05 -2.699507E-08 -8.963488E-09
       157  12 -2.436724E+05 -2.009888E+04  2.497043E+04 -1.311279E+05 -1.503388E-08  1.027592E-09
       157  13 -3.945296E+05 -7.455963E+04 -2.901256E+03 -1.733011E+05 -8.528810E-09  1.004138E-08
       157  14 -3.961641E+05 -7.275190E+04 -1.583261E+03 -1.713519E+05 -1.403898E-08 -3.686803E-09
       157  15 -3.945209E+05 -7.448186E+04 -8.807245E+02 -1.733312E+05  1.385446E-08 -9.793067E-09
       157  16 -5.018941E+05 -1.133523E+05 -2.139722E+04 -2.034022E+05  2.745372E-08  1.809182E-09
       157  17 -5.252585E+05 -1.193387E+05 -2.375847E+04 -2.074992E+05  1.212270E-08  1.878912E-09
       157  18 -5.453437E+05 -1.288620E+05 -2.673207E+04 -2.155245E+05  2.531148E-08  1.002252E-08
       157  19 -2.871529E+05 -3.576574E+04  1.559455E+04 -1.431952E+05 -4.113675E+03  8.145716E+03
       157  20 -2.670513E+05 -2.616306E+04  2.059190E+04 -1.351974E+05 -5.567927E+03  9.609079E+03
       157  21 -2.436723E+05 -2.009873E+04  2.497075E+04 -1.311280E+05 -7.023143E+03  1.107450E+04
       157  22 -3.945296E+05 -7.455954E+04 -2.901091E+03 -1.733011E+05 -9.907781E+02  9.316625E+03
       157  23 -3.961641E+05 -7.275177E+04 -1.583032E+03 -1.713519E+05 -2.441150E+03  1.078162E+04
       157  24 -3.945209E+05 -7.448169E+04 -8.804141E+02 -1.733313E+05 -3.892453E+03  1.224867E+04
       157  25 -5.018940E+05 -1.133522E+05 -2.139701E+04 -2.034022E+05  2.131543E+03  1.048732E+04
       157  26 -5.252585E+05 -1.193385E+05 -2.375820E+04 -2.074991E+05  6.849182E+02  1.195389E+04
       157  27 -5.453436E+05 -1.288618E+05 -2.673173E+04 -2.155245E+05 -7.626035E+02  1.342253E+04
       158   1 -2.296295E+05 -1.505910E+04  2.769950E+04 -1.272313E+05  7.534587E+03 -1.205370E+04
       158   2 -2.096307E+05 -5.570589E+03  3.164646E+04 -1.192215E+05  8.385763E+03 -1.374476E+04
       158   3 -1.862401E+05  4.988818E+02  3.545248E+04 -1.151297E+05  9.236570E+03 -1.543408E+04
       158   4 -3.945001E+05 -7.448606E+04 -6.665578E+02 -1.733176E+05  4.405532E+03 -1.322739E+04
       158   5 -3.961983E+05 -7.278601E+04 -3.875333E+02 -1.713553E+05  5.259577E+03 -1.491764E+04
       158   6 -3.945061E+05 -7.450597E+04 -2.518744E+02 -1.733115E+05  6.113242E+03 -1.660614E+04
       158   7 -5.593436E+05 -1.339110E+05 -2.903384E+04 -2.193929E+05  1.277329E+03 -1.440076E+04
       158   8 -5.827300E+05 -1.399984E+05 -3.242276E+04 -2.234747E+05  2.134372E+03 -1.609014E+04
       158   9 -6.027261E+05 -1.495066E+05 -3.595743E+04 -2.314751E+05  2.991028E+03 -1.777778E+04
       158  10 -2.296296E+05 -1.505927E+04  2.769912E+04 -1.272312E+05 -2.896655E-09  5.312310E-09
       158  11 -2.096308E+05 -5.570810E+03  3.164597E+04 -1.192214E+05 -1.386873E-08  2.800291E-09
       158  12 -1.862402E+05  4.986031E+02  3.545187E+04 -1.151295E+05 -2.782842E-09  7.299786E-09
       158  13 -3.945002E+05 -7.448625E+04 -6.669230E+02 -1.733175E+05  6.621621E-09 -1.119859E-08
       158  14 -3.961984E+05 -7.278626E+04 -3.880034E+02 -1.713552E+05 -3.873969E-09 -9.276477E-09
       158  15 -3.945062E+05 -7.450628E+04 -2.524627E+02 -1.733114E+05 -3.925797E-09 -8.460427E-11
       158  16 -5.593437E+05 -1.339112E+05 -2.903423E+04 -2.193929E+05  1.393364E-08  7.459709E-09
       158  17 -5.827301E+05 -1.399987E+05 -3.242325E+04 -2.234747E+05 -1.124358E-08 -2.230231E-09
       158  18 -6.027262E+05 -1.495069E+05 -3.595804E+04 -2.314750E+05 -6.788886E-10 -3.119185E-09
       158  19 -2.296295E+05 -1.505910E+04  2.769950E+04 -1.272313E+05 -7.534587E+03  1.205370E+04
       158  20 -2.096307E+05 -5.570589E+03  3.164646E+04 -1.192215E+05 -8.385763E+03  1.374476E+04
       158  21 -1.862401E+05  4.988818E+02  3.545248E+04 -1.151297E+05 -9.236570E+03  1.543408E+04
       158  22 -3.945001E+05 -7.448606E+04 -6.665578E+02 -1.733176E+05 -4.405532E+03  1.322739E+04
       158  23 -3.961983E+05 -7.278601E+04 -3.875333E+02 -1.713553E+05 -5.259577E+03  1.491764E+04
       158  24 -3.945061E+05 -7.450597E+04 -2.518744E+02 -1.733115E+05 -6.113242E+03  1.660614E+04
       158  25 -5.593436E+05 -1.339110E+05 -2.903384E+04 -2.193929E+05 -1.277329E+03  1.440076E+04
       158  26 -5.827300E+05 -1.399984E+05 -3.242276E+04 -2.234747E+05 -2.134372E+03  1.609014E+04
       158  27 -6.027261E+05 -1.495066E+05 -3.595743E+04 -2.314751E+05 -2.991028E+03  1.777778E+04
       159   1 -1.722587E+05  5.549965E+03  3.799465E+04 -1.112305E+05  9.659602E+03 -1.644394E+04
       159   2 -1.523185E+05  1.503300E+04  4.166667E+04 -1.032300E+05  1.040726E+04 -1.816477E+04
       159   3 -1.289761E+05  2.110991E+04  4.527442E+04 -9.913522E+04  1.115157E+04 -1.987572E+04
       159   4 -3.945068E+05 -7.450713E+04 -2.207323E+02 -1.733082E+05  6.537260E+03 -1.761580E+04
       159   5 -3.962078E+05 -7.280706E+04 -2.139992E+02 -1.713541E+05  7.302243E+03 -1.933046E+04
       159   6 -3.945105E+05 -7.451644E+04 -2.851909E+02 -1.733058E+05  8.063872E+03 -2.103525E+04
       159   7 -6.167001E+05 -1.545585E+05 -3.843685E+04 -2.353645E+05  3.416139E+03 -1.878721E+04
       159   8 -6.400339E+05 -1.606413E+05 -4.209632E+04 -2.394531E+05  4.198519E+03 -2.049567E+04
       159   9 -6.599727E+05 -1.701369E+05 -4.584752E+04 -2.474474E+05  4.977544E+03 -2.219427E+04
       159  10 -1.722589E+05  5.549650E+03  3.799397E+04 -1.112304E+05  1.597648E-08  1.223903E-08
       159  11 -1.523187E+05  1.503262E+04  4.166585E+04 -1.032298E+05 -2.599050E-09  1.413735E-09
       159  12 -1.289764E+05  2.110945E+04  4.527345E+04 -9.913504E+04 -2.405756E-08 -9.904376E-09
       159  13 -3.945069E+05 -7.450748E+04 -2.213956E+02 -1.733081E+05  8.261686E-09  3.931516E-09
       159  14 -3.962079E+05 -7.280748E+04 -2.148015E+02 -1.713540E+05 -2.191209E-09  3.261085E-09
       159  15 -3.945107E+05 -7.451694E+04 -2.861444E+02 -1.733056E+05 -2.147533E-09  3.486763E-09
       159  16 -6.167002E+05 -1.545589E+05 -3.843754E+04 -2.353644E+05 -8.886699E-09 -6.771805E-09
       159  17 -6.400340E+05 -1.606417E+05 -4.209714E+04 -2.394531E+05  5.415481E-09 -4.237865E-09
       159  18 -6.599728E+05 -1.701374E+05 -4.584849E+04 -2.474473E+05  1.586979E-08 -5.474444E-10
       159  19 -1.722587E+05  5.549965E+03  3.799465E+04 -1.112305E+05 -9.659602E+03  1.644394E+04
       159  20 -1.523185E+05  1.503300E+04  4.166667E+04 -1.032300E+05 -1.040726E+04  1.816477E+04
       159  21 -1.289761E+05  2.110991E+04  4.527442E+04 -9.913522E+04 -1.115157E+04  1.987572E+04
       159  22 -3.945068E+05 -7.450713E+04 -2.207323E+02 -1.733082E+05 -6.537260E+03  1.761580E+04
       159  23 -3.962078E+05 -7.280706E+04 -2.139992E+02 -1.713541E+05 -7.302243E+03  1.933046E+04
       159  24 -3.945105E+05 -7.451644E+04 -2.851909E+02 -1.733058E+05 -8.063872E+03  2.103525E+04
       159  25 -6.167001E+05 -1.545585E+05 -3.843685E+04 -2.353645E+05 -3.416139E+03  1.878721E+04
       159  26 -6.400339E+05 -1.606413E+05 -4.209632E+04 -2.394531E+05 -4.198519E+03  2.049567E+04
       159  27 -6.599727E+05 -1.701369E+05 -4.584752E+04 -2.474474E+05 -4.977544E+03  2.219427E+04
       160   1 -1.150319E+05  2.615414E+04  4.771804E+04 -9.524864E+04  1.159415E+04 -2.087009E+04
       160   2 -9.514254E+04  3.562756E+04  5.119204E+04 -8.726716E+04  1.236723E+04 -2.251652E+04
       160   3 -7.187080E+04  4.169593E+04  5.456510E+04 -8.317422E+04  1.310589E+04 -2.407011E+04
       160   4 -3.945224E+05 -7.451463E+04 -3.542227E+02 -1.733060E+05  8.498968E+03 -2.203265E+04
       160   5 -3.962030E+05 -7.281740E+04 -6.014397E+02 -1.713546E+05  9.436578E+03 -2.361774E+04
       160   6 -3.945341E+05 -7.455804E+04 -1.079952E+03 -1.732922E+05  1.033974E+04 -2.510996E+04
       160   7 -6.739298E+05 -1.751757E+05 -4.842865E+04 -2.513305E+05  5.405273E+03 -2.319465E+04
       160   8 -6.971656E+05 -1.812528E+05 -5.239702E+04 -2.554035E+05  6.507448E+03 -2.471838E+04
       160   9 -7.170835E+05 -1.908005E+05 -5.672703E+04 -2.633654E+05  7.575140E+03 -2.614922E+04
       160  10 -1.150322E+05  2.615364E+04  4.771697E+04 -9.524845E+04  9.872897E-09 -8.664480E-10
       160  11 -9.514284E+04  3.562697E+04  5.119080E+04 -8.726693E+04  1.132064E-08 -2.146295E-09
       160  12 -7.187114E+04  4.169526E+04  5.456369E+04 -8.317397E+04 -5.820566E-10 -4.238832E-09
       160  13 -3.945226E+05 -7.451517E+04 -3.552705E+02 -1.733059E+05 -4.791743E-09  4.311047E-09
       160  14 -3.962032E+05 -7.281802E+04 -6.026550E+02 -1.713544E+05  9.276521E-10  5.130437E-09
       160  15 -3.945344E+05 -7.455874E+04 -1.081338E+03 -1.732920E+05 -1.611541E-09  1.768724E-09
       160  16 -6.739300E+05 -1.751763E+05 -4.842971E+04 -2.513304E+05 -1.608006E-08 -7.955807E-09
       160  17 -6.971658E+05 -1.812535E+05 -5.239824E+04 -2.554034E+05 -6.251935E-09  9.341427E-10
       160  18 -7.170837E+05 -1.908013E+05 -5.672842E+04 -2.633653E+05  3.913409E-10  6.000401E-09
       160  19 -1.150319E+05  2.615414E+04  4.771804E+04 -9.524864E+04 -1.159415E+04  2.087009E+04
       160  20 -9.514254E+04  3.562756E+04  5.119204E+04 -8.726716E+04 -1.236723E+04  2.251652E+04
       160  21 -7.187080E+04  4.169593E+04  5.456510E+04 -8.317422E+04 -1.310589E+04  2.407011E+04
       160  22 -3.945224E+05 -7.451463E+04 -3.542227E+02 -1.733060E+05 -8.498968E+03  2.203265E+04
       160  23 -3.962030E+05 -7.281740E+04 -6.014397E+02 -1.713546E+05 -9.436578E+03  2.361774E+04
       160  24 -3.945341E+05 -7.455804E+04 -1.079952E+03 -1.732922E+05 -1.033974E+04  2.510996E+04
       160  25 -6.739298E+05 -1.751757E+05 -4.842865E+04 -2.513305E+05 -5.405273E+03  2.319465E+04
       160  26 -6.971656E+05 -1.812528E+05 -5.239702E+04 -2.554035E+05 -6.507448E+03  2.471838E+04
       160  27 -7.170835E+05 -1.908005E+05 -5.672703E+04 -2.633654E+05 -7.575140E+03  2.614922E+04
       161   1 -5.791839E+04  4.670930E+04  5.679766E+04 -7.937667E+04  1.377148E+04 -2.491851E+04
       161   2 -3.831037E+04  5.628150E+04  6.003545E+04 -7.113176E+04  1.374175E+04 -2.620583E+04
       161   3 -1.544405E+04  6.213647E+04  6.350311E+04 -6.656794E+04  1.333734E+04 -2.649458E+04
       161   4 -3.946100E+05 -7.453858E+04 -1.433597E+03 -1.733061E+05  1.089969E+04 -2.599826E+04
       161   5 -3.961425E+05 -7.304251E+04 -2.623396E+03 -1.712646E+05  1.264195E+04 -2.662066E+04
       161   6 -3.947685E+05 -7.561549E+04 -4.987924E+03 -1.729048E+05  1.400944E+04 -2.624416E+04
       161   7 -7.311851E+05 -1.957768E+05 -5.966914E+04 -2.671890E+05  8.029529E+03 -2.707740E+04
       161   8 -7.538410E+05 -2.023548E+05 -6.528674E+04 -2.713440E+05  1.154281E+04 -2.703525E+04
       161   9 -7.739416E+05 -2.133536E+05 -7.348399E+04 -2.791810E+05  1.468111E+04 -2.599390E+04
       161  10 -5.791876E+04  4.670858E+04  5.679614E+04 -7.937640E+04 -4.878170E-09 -1.475361E-09
       161  11 -3.831075E+04  5.628071E+04  6.003380E+04 -7.113147E+04 -9.488855E-09  2.015202E-09
       161  12 -1.544443E+04  6.213566E+04  6.350145E+04 -6.656765E+04 -1.069362E-08  3.764143E-09
       161  13 -3.946103E+05 -7.453934E+04 -1.435090E+03 -1.733059E+05 -6.155821E-10  1.485941E-09
       161  14 -3.961428E+05 -7.304332E+04 -2.625028E+03 -1.712643E+05 -8.035827E-09  3.018322E-09
       161  15 -3.947689E+05 -7.561628E+04 -4.989586E+03 -1.729045E+05 -8.489508E-10  1.747702E-09
       161  16 -7.311854E+05 -1.957776E+05 -5.967064E+04 -2.671888E+05  4.784348E-10  4.905164E-09
       161  17 -7.538414E+05 -2.023556E+05 -6.528836E+04 -2.713437E+05 -6.715007E-10  5.198242E-09
       161  18 -7.739421E+05 -2.133544E+05 -7.348566E+04 -2.791807E+05  4.552232E-09  1.278757E-09
       161  19 -5.791839E+04  4.670930E+04  5.679766E+04 -7.937667E+04 -1.377148E+04  2.491851E+04
       161  20 -3.831037E+04  5.628150E+04  6.003545E+04 -7.113176E+04 -1.374175E+04  2.620583E+04
       161  21 -1.544405E+04  6.213647E+04  6.350311E+04 -6.656794E+04 -1.333734E+04  2.649458E+04
       161  22 -3.946100E+05 -7.453858E+04 -1.433597E+03 -1.733061E+05 -1.089969E+04  2.599826E+04
       161  23 -3.961425E+05 -7.304251E+04 -2.623396E+03 -1.712646E+05 -1.264195E+04  2.662066E+04
       161  24 -3.947685E+05 -7.561549E+04 -4.987924E+03 -1.729048E+05 -1.400944E+04  2.624416E+04
       161  25 -7.311851E+05 -1.957768E+05 -5.966914E+04 -2.671890E+05 -8.029529E+03  2.707740E+04
       161  26 -7.538410E+05 -2.023548E+05 -6.528674E+04 -2.713440E+05 -1.154281E+04  2.703525E+04
       161  27 -7.739416E+05 -2.133536E+05 -7.348399E+04 -2.791810E+05 -1.468111E+04  2.599390E+04
       162   1 -7.724980E+02  6.660278E+04  6.532518E+04 -6.404080E+04  1.542113E+04 -2.616142E+04
       162   2  1.365271E+04  7.818401E+04  7.159469E+04 -4.884713E+04  6.803270E+02 -2.579674E+04
       162   3  2.911511E+04  7.813365E+04  8.487282E+04 -3.373429E+04 -1.816586E+04 -1.451267E+04
       162   4 -3.956592E+05 -7.545213E+04 -6.640340E+03 -1.731193E+05  1.490683E+04 -2.635665E+04
       162   5 -3.957257E+05 -7.808271E+04 -1.265852E+04 -1.691869E+05  1.955181E+04 -1.870851E+04
       162   6 -3.985989E+05 -9.619048E+04 -2.703293E+04 -1.653354E+05  2.009069E+04 -1.368699E+02
       162   7 -7.903814E+05 -2.174927E+05 -7.861127E+04 -2.821333E+05  1.439288E+04 -2.655175E+04
       162   8 -8.049242E+05 -2.343283E+05 -9.691710E+04 -2.894498E+05  3.840964E+04 -1.162590E+04
       162   9 -8.261184E+05 -2.704873E+05 -1.389445E+05 -2.968464E+05  5.831734E+04  1.422551E+04
       162  10 -7.729370E+02  6.660198E+04  6.532345E+04 -6.404048E+04  5.996282E-09  2.782424E-09
       162  11  1.365254E+04  7.818330E+04  7.159344E+04 -4.884711E+04  2.881218E-09 -1.308584E-09
       162  12  2.911470E+04  7.813333E+04  8.487180E+04 -3.373450E+04 -6.054877E-09 -2.795895E-09
       162  13 -3.956596E+05 -7.545293E+04 -6.642062E+03 -1.731190E+05  4.727537E-09 -2.163614E-10
       162  14 -3.957262E+05 -7.808319E+04 -1.265989E+04 -1.691866E+05  6.339023E-09 -5.214602E-10
       162  15 -3.985994E+05 -9.619059E+04 -2.703369E+04 -1.653354E+05  6.370624E-09 -1.485561E-09
       162  16 -7.903818E+05 -2.174935E+05 -7.861299E+04 -2.821330E+05  3.104335E-09 -1.357648E-09
       162  17 -8.049258E+05 -2.343288E+05 -9.692012E+04 -2.894495E+05  8.656938E-09 -1.785962E-09
       162  18 -8.261221E+05 -2.704884E+05 -1.389513E+05 -2.968471E+05  4.707657E-09  8.190619E-10
       162  19 -7.724980E+02  6.660278E+04  6.532518E+04 -6.404080E+04 -1.542113E+04  2.616142E+04
       162  20  1.365271E+04  7.818401E+04  7.159469E+04 -4.884713E+04 -6.803270E+02  2.579674E+04
       162  21  2.911511E+04  7.813365E+04  8.487282E+04 -3.373429E+04  1.816586E+04  1.451267E+04
       162  22 -3.956592E+05 -7.545213E+04 -6.640340E+03 -1.731193E+05 -1.490683E+04  2.635665E+04
       162  23 -3.957257E+05 -7.808271E+04 -1.265852E+04 -1.691869E+05 -1.955181E+04  1.870851E+04
       162  24 -3.985989E+05 -9.619048E+04 -2.703293E+04 -1.653354E+05 -2.009069E+04  1.368699E+02
       162  25 -7.903814E+05 -2.174927E+05 -7.861127E+04 -2.821333E+05 -1.439288E+04  2.655175E+04
       162  26 -8.049242E+05 -2.343283E+05 -9.691710E+04 -2.894498E+05 -3.840964E+04  1.162590E+04
       162  27 -8.261184E+05 -2.704873E+05 -1.389445E+05 -2.968464E+05 -5.831734E+04 -1.422551E+04
       163   1 -5.239003E+05 -1.089467E+05 -1.465500E+05 -1.088903E+04 -1.092797E+05 -2.121147E+02
       163   2 -4.990933E+05  4.265626E+04 -5.462395E+04 -2.751420E+03 -7.192912E+04 -5.309260E+02
       163   3 -5.231901E+05  1.789173E+04 -3.110214E+04  4.344114E+03 -3.457973E+04 -4.716770E+02
       163   4 -5.786580E+05 -1.226309E+05 -1.602334E+05 -6.790114E+02 -1.093358E+05 -2.139436E+02
       163   5 -5.541840E+05  2.888724E+04 -6.836612E+04 -1.880050E+02 -7.194287E+04 -5.312371E+02
       163   6 -5.786254E+05  4.022042E+03 -4.493670E+04 -7.392211E+02 -3.455115E+04 -4.713767E+02
       163   7 -6.334127E+05 -1.363150E+05 -1.739171E+05  9.530109E+03 -1.093919E+05 -2.157744E+02
       163   8 -6.092719E+05  1.511801E+04 -8.210850E+04  2.375182E+03 -7.195661E+04 -5.315483E+02
       163   9 -6.340578E+05 -9.847782E+03 -5.877147E+04 -5.822103E+03 -3.452257E+04 -4.710768E+02
       163  10 -5.239131E+05 -1.089500E+05 -1.465724E+05 -1.088905E+04  3.136005E-09 -4.164954E-11
       163  11 -4.990989E+05  4.265487E+04 -5.463369E+04 -2.751451E+03 -2.110912E-09 -7.277095E-10
       163  12 -5.231914E+05  1.789141E+04 -3.110439E+04  4.344101E+03  3.301549E-09 -4.357294E-10
       163  13 -5.786708E+05 -1.226342E+05 -1.602559E+05 -6.790303E+02  5.855267E-11  5.288310E-10
       163  14 -5.541896E+05  2.888585E+04 -6.837585E+04 -1.880358E+02  3.984086E-09 -5.387847E-11
       163  15 -5.786267E+05  4.021721E+03 -4.493894E+04 -7.392342E+02  8.342533E-09  6.693534E-10
       163  16 -6.334256E+05 -1.363182E+05 -1.739396E+05  9.530090E+03  8.170648E-10  4.161458E-10
       163  17 -6.092775E+05  1.511662E+04 -8.211824E+04  2.375151E+03  2.418757E-09 -7.431075E-10
       163  18 -6.340591E+05 -9.848103E+03 -5.877371E+04 -5.822116E+03 -2.860232E-09 -1.138727E-09
       163  19 -5.239003E+05 -1.089467E+05 -1.465500E+05 -1.088903E+04  1.092797E+05  2.121147E+02
       163  20 -4.990933E+05  4.265626E+04 -5.462395E+04 -2.751420E+03  7.192912E+04  5.309260E+02
       163  21 -5.231901E+05  1.789173E+04 -3.110214E+04  4.344114E+03  3.457973E+04  4.716770E+02
       163  22 -5.786580E+05 -1.226309E+05 -1.602334E+05 -6.790114E+02  1.093358E+05  2.139436E+02
       163  23 -5.541840E+05  2.888724E+04 -6.836612E+04 -1.880050E+02  7.194287E+04  5.312371E+02
       163  24 -5.786254E+05  4.022042E+03 -4.493670E+04 -7.392211E+02  3.455115E+04  4.713767E+02
       163  25 -6.334127E+05 -1.363150E+05 -1.739171E+05  9.530109E+03  1.093919E+05  2.157744E+02
       163  26 -6.092719E+05  1.511801E+04 -8.210850E+04  2.375182E+03  7.195661E+04  5.315483E+02
       163  27 -6.340578E+05 -9.847782E+03 -5.877147E+04 -5.822103E+03  3.452257E+04  4.710768E+02
       164   1 -5.127435E+05 -4.607977E+03 -2.303005E+04 -1.828873E+03 -2.709788E+04 -4.204090E+02
       164   2 -5.089363E+05  1.859111E+04 -3.590234E+03 -9.333194E+02 -1.780261E+04 -4.729455E+02
       164   3 -5.130466E+05  1.472236E+04  3.040111E+03  4.578329E+02 -8.507244E+03 -4.335941E+02
       164   4 -5.695248E+05 -1.880260E+04 -3.720233E+04 -3.643542E+02 -2.710890E+04 -4.204859E+02
       164   5 -5.655614E+05  4.434384E+03 -1.771925E+04 -6.202515E+02 -1.780335E+04 -4.729590E+02
       164   6 -5.695181E+05  6.004083E+02 -1.105359E+04 -3.805653E+02 -8.497719E+03 -4.335751E+02
       164   7 -6.263031E+05 -3.299745E+04 -5.137485E+04  1.100030E+03 -2.711991E+04 -4.205628E+02
       164   8 -6.221837E+05 -9.722582E+03 -3.184850E+04 -3.072129E+02 -1.780410E+04 -4.729725E+02
       164   9 -6.259868E+05 -1.352178E+04 -2.514752E+04 -1.218888E+03 -8.488194E+03 -4.335561E+02
       164  10 -5.127443E+05 -4.608175E+03 -2.303143E+04 -1.828882E+03  2.770406E-10 -1.644138E-09
       164  11 -5.089366E+05  1.859102E+04 -3.590831E+03 -9.333261E+02 -6.404114E-10 -5.048190E-10
       164  12 -5.130467E+05  1.472234E+04  3.039975E+03  4.578299E+02  6.313042E-09  2.130939E-09
       164  13 -5.695255E+05 -1.880279E+04 -3.720371E+04 -3.643633E+02  4.764161E-09 -1.621776E-09
       164  14 -5.655618E+05  4.434299E+03 -1.771984E+04 -6.202583E+02 -5.186390E-10 -1.660762E-09
       164  15 -5.695182E+05  6.003887E+02 -1.105372E+04 -3.805682E+02 -3.925955E-09  4.033877E-11
       164  16 -6.263038E+05 -3.299765E+04 -5.137624E+04  1.100021E+03 -5.217154E-09 -6.806404E-10
       164  17 -6.221840E+05 -9.722667E+03 -3.184910E+04 -3.072197E+02 -2.087565E-09 -1.675276E-09
       164  18 -6.259869E+05 -1.352180E+04 -2.514766E+04 -1.218891E+03 -5.428274E-09  1.744520E-09
       164  19 -5.127435E+05 -4.607977E+03 -2.303005E+04 -1.828873E+03  2.709788E+04  4.204090E+02
       164  20 -5.089363E+05  1.859111E+04 -3.590234E+03 -9.333194E+02  1.780261E+04  4.729455E+02
       164  21 -5.130466E+05  1.472236E+04  3.040111E+03  4.578329E+02  8.507244E+03  4.335941E+02
       164  22 -5.695248E+05 -1.880260E+04 -3.720233E+04 -3.643542E+02  2.710890E+04  4.204859E+02
       164  23 -5.655614E+05  4.434384E+03 -1.771925E+04 -6.202515E+02  1.780335E+04  4.729590E+02
       164  24 -5.695181E+05  6.004083E+02 -1.105359E+04 -3.805653E+02  8.497719E+03  4.335751E+02
       164  25 -6.263031E+05 -3.299745E+04 -5.137485E+04  1.100030E+03  2.711991E+04  4.205628E+02
       164  26 -6.221837E+05 -9.722582E+03 -3.184850E+04 -3.072129E+02  1.780410E+04  4.729725E+02
       164  27 -6.259868E+05 -1.352178E+04 -2.514752E+04 -1.218888E+03  8.488194E+03  4.335561E+02
       165   1 -5.171728E+05  9.851603E+03  3.822341E+03 -2.097396E+02 -6.691818E+03 -4.120178E+02
       165   2 -5.171552E+05  1.323991E+04  7.956321E+03 -1.028036E+03 -4.350131E+03 -4.039272E+02
       165   3 -5.184354E+05  1.248556E+04  9.537846E+03  1.327124E+02 -2.008503E+03 -3.549092E+02
       165   4 -5.680479E+05 -2.867927E+03 -8.872417E+03 -4.273727E+01 -6.693260E+03 -4.120239E+02
       165   5 -5.673979E+05  6.780088E+02 -4.580772E+03 -1.034030E+03 -4.346834E+03 -4.039252E+02
       165   6 -5.680466E+05  8.026881E+01 -2.845020E+03 -4.626756E+01 -2.000464E+03 -3.548990E+02
       165   7 -6.189206E+05 -1.558765E+04 -2.156737E+04  1.242506E+02 -6.694702E+03 -4.120300E+02
       165   8 -6.176383E+05 -1.188409E+04 -1.711806E+04 -1.040024E+03 -4.343537E+03 -4.039232E+02
       165   9 -6.176556E+05 -1.232521E+04 -1.522807E+04 -2.252340E+02 -1.992426E+03 -3.548888E+02
       165  10 -5.171728E+05  9.851591E+03  3.822257E+03 -2.097418E+02  4.598533E-09  3.521649E-09
       165  11 -5.171552E+05  1.323991E+04  7.956285E+03 -1.028037E+03 -6.659381E-09  1.596085E-09
       165  12 -5.184354E+05  1.248556E+04  9.537838E+03  1.327118E+02  3.997369E-09  3.435432E-11
       165  13 -5.680479E+05 -2.867940E+03 -8.872501E+03 -4.273949E+01 -3.211099E-09  5.285034E-10
       165  14 -5.673979E+05  6.780036E+02 -4.580808E+03 -1.034031E+03 -9.331739E-09  1.332648E-09
       165  15 -5.680467E+05  8.026760E+01 -2.845028E+03 -4.626813E+01  5.262756E-09  4.101409E-09
       165  16 -6.189207E+05 -1.558767E+04 -2.156745E+04  1.242484E+02 -4.259607E-09  3.158865E-09
       165  17 -6.176383E+05 -1.188409E+04 -1.711809E+04 -1.040025E+03 -4.601789E-09  2.114544E-09
       165  18 -6.176556E+05 -1.232521E+04 -1.522808E+04 -2.252345E+02 -3.774446E-09  3.592384E-09
       165  19 -5.171728E+05  9.851603E+03  3.822341E+03 -2.097396E+02  6.691818E+03  4.120178E+02
       165  20 -5.171552E+05  1.323991E+04  7.956321E+03 -1.028036E+03  4.350131E+03  4.039272E+02
       165  21 -5.184354E+05  1.248556E+04  9.537846E+03  1.327124E+02  2.008503E+03  3.549092E+02
       165  22 -5.680479E+05 -2.867927E+03 -8.872417E+03 -4.273727E+01  6.693260E+03  4.120239E+02
       165  23 -5.673979E+05  6.780088E+02 -4.580772E+03 -1.034030E+03  4.346834E+03  4.039252E+02
       165  24 -5.680466E+05  8.026881E+01 -2.845020E+03 -4.626756E+01  2.000464E+03  3.548990E+02
       165  25 -6.189206E+05 -1.558765E+04 -2.156737E+04  1.242506E+02  6.694702E+03  4.120300E+02
       165  26 -6.176383E+05 -1.188409E+04 -1.711806E+04 -1.040024E+03  4.343537E+03  4.039232E+02
       165  27 -6.176556E+05 -1.232521E+04 -1.522807E+04 -2.252340E+02  1.992426E+03  3.548888E+02
       166   1 -5.299640E+05  9.031888E+03  7.142605E+03  2.367003E+02 -1.537594E+03 -3.278789E+02
       166   2 -5.308561E+05  9.324285E+03  7.759956E+03 -1.331577E+03 -8.198023E+02 -2.924063E+02
       166   3 -5.320063E+05  8.903192E+03  7.734111E+03  2.933309E+02 -1.020711E+02 -2.323174E+02
       166   4 -5.678153E+05 -4.315650E+02 -2.300538E+03  2.251925E+02 -1.534882E+03 -3.278762E+02
       166   5 -5.676860E+05  1.156966E+02 -1.430387E+03 -1.371688E+03 -8.141767E+02 -2.923984E+02
       166   6 -5.678153E+05 -5.106705E+01 -1.205488E+03  2.246282E+02 -9.353077E+01 -2.323037E+02
       166   7 -6.056654E+05 -9.895126E+03 -1.174379E+04  2.136849E+02 -1.532171E+03 -3.278734E+02
       166   8 -6.045147E+05 -9.092994E+03 -1.062083E+04 -1.411798E+03 -8.085514E+02 -2.923905E+02
       166   9 -6.036231E+05 -9.005423E+03 -1.014518E+04  1.559290E+02 -8.499093E+01 -2.322901E+02
       166  10 -5.299640E+05  9.031887E+03  7.142600E+03  2.366999E+02  8.144200E-09 -6.713785E-11
       166  11 -5.308561E+05  9.324285E+03  7.759955E+03 -1.331577E+03  4.907479E-09  3.176985E-09
       166  12 -5.320063E+05  8.903192E+03  7.734111E+03  2.933309E+02 -4.085780E-09  3.074882E-09
       166  13 -5.678153E+05 -4.315658E+02 -2.300542E+03  2.251921E+02  8.076227E-10  1.676697E-09
       166  14 -5.676860E+05  1.156964E+02 -1.430388E+03 -1.371688E+03 -9.874950E-09  2.864724E-09
       166  15 -5.678153E+05 -5.106711E+01 -1.205488E+03  2.246282E+02 -1.220865E-08  1.268393E-09
       166  16 -6.056654E+05 -9.895127E+03 -1.174379E+04  2.136845E+02 -8.852371E-09  2.350050E-09
       166  17 -6.045147E+05 -9.092994E+03 -1.062083E+04 -1.411798E+03 -2.668961E-09 -3.416573E-09
       166  18 -6.036231E+05 -9.005423E+03 -1.014518E+04  1.559290E+02 -1.126011E-09 -9.240442E-10
       166  19 -5.299640E+05  9.031888E+03  7.142605E+03  2.367003E+02  1.537594E+03  3.278789E+02
       166  20 -5.308561E+05  9.324285E+03  7.759956E+03 -1.331577E+03  8.198023E+02  2.924063E+02
       166  21 -5.320063E+05  8.903192E+03  7.734111E+03  2.933309E+02  1.020711E+02  2.323174E+02
       166  22 -5.678153E+05 -4.315650E+02 -2.300538E+03  2.251925E+02  1.534882E+03  3.278762E+02
       166  23 -5.676860E+05  1.156966E+02 -1.430387E+03 -1.371688E+03  8.141767E+02  2.923984E+02
       166  24 -5.678153E+05 -5.106705E+01 -1.205488E+03  2.246282E+02  9.353077E+01  2.323037E+02
       166  25 -6.056654E+05 -9.895126E+03 -1.174379E+04  2.136849E+02  1.532171E+03  3.278734E+02
       166  26 -6.045147E+05 -9.092994E+03 -1.062083E+04 -1.411798E+03  8.085514E+02  2.923905E+02
       166  27 -6.036231E+05 -9.005423E+03 -1.014518E+04  1.559290E+02  8.499093E+01  2.322901E+02
       167   1 -5.482928E+05  4.831976E+03  3.657998E+03  3.975379E+02  1.194500E+02 -1.967665E+02
       167   2 -5.494147E+05  4.684395E+03  3.100139E+03 -1.557342E+03  8.527599E+02 -1.425695E+02
       167   3 -5.508255E+05  3.808057E+03  1.880092E+03  4.516485E+02  1.586054E+03 -7.780130E+01
       167   4 -5.678217E+05 -5.014632E+01 -1.211854E+03  3.958454E+02  1.251607E+02 -1.967570E+02
       167   5 -5.676774E+05  1.180879E+02 -1.457108E+03 -1.585733E+03  8.597192E+02 -1.425574E+02
       167   6 -5.678221E+05 -4.426594E+02 -2.365426E+03  3.965653E+02  1.594263E+03 -7.778654E+01
       167   7 -5.873503E+05 -4.932297E+03 -6.081734E+03  3.941528E+02  1.308712E+02 -1.967475E+02
       167   8 -5.859397E+05 -4.448245E+03 -6.014381E+03 -1.614123E+03  8.666783E+02 -1.425453E+02
       167   9 -5.848184E+05 -4.693398E+03 -6.610966E+03  3.414836E+02  1.602472E+03 -7.777177E+01
       167  10 -5.482928E+05  4.831976E+03  3.657998E+03  3.975379E+02 -6.244787E-09  1.543955E-09
       167  11 -5.494147E+05  4.684395E+03  3.100137E+03 -1.557342E+03 -6.584069E-09  2.318671E-10
       167  12 -5.508255E+05  3.808057E+03  1.880087E+03  4.516486E+02 -1.406258E-09 -2.811190E-09
       167  13 -5.678217E+05 -5.014637E+01 -1.211854E+03  3.958454E+02  5.250178E-10  6.659928E-09
       167  14 -5.676774E+05  1.180877E+02 -1.457110E+03 -1.585733E+03 -9.773984E-09  1.584013E-09
       167  15 -5.678221E+05 -4.426600E+02 -2.365431E+03  3.965654E+02 -7.331765E-09 -3.246303E-09
       167  16 -5.873503E+05 -4.932298E+03 -6.081734E+03  3.941528E+02 -2.339081E-09  3.213385E-09
       167  17 -5.859397E+05 -4.448245E+03 -6.014382E+03 -1.614123E+03 -5.747598E-10 -8.336625E-10
       167  18 -5.848184E+05 -4.693399E+03 -6.610971E+03  3.414837E+02 -7.978144E-09 -3.803564E-09
       167  19 -5.482928E+05  4.831976E+03  3.657998E+03  3.975379E+02 -1.194500E+02  1.967665E+02
       167  20 -5.494147E+05  4.684395E+03  3.100139E+03 -1.557342E+03 -8.527599E+02  1.425695E+02
       167  21 -5.508255E+05  3.808057E+03  1.880092E+03  4.516485E+02 -1.586054E+03  7.780130E+01
       167  22 -5.678217E+05 -5.014632E+01 -1.211854E+03  3.958454E+02 -1.251607E+02  1.967570E+02
       167  23 -5.676774E+05  1.180879E+02 -1.457108E+03 -1.585733E+03 -8.597192E+02  1.425574E+02
       167  24 -5.678221E+05 -4.426594E+02 -2.365426E+03  3.965653E+02 -1.594263E+03  7.778654E+01
       167  25 -5.873503E+05 -4.932297E+03 -6.081734E+03  3.941528E+02 -1.308712E+02  1.967475E+02
       167  26 -5.859397E+05 -4.448245E+03 -6.014381E+03 -1.614123E+03 -8.666783E+02  1.425453E+02
       167  27 -5.848184E+05 -4.693398E+03 -6.610966E+03  3.414836E+02 -1.602472E+03  7.777177E+01
       168   1 -5.695937E+05 -2.981733E+02 -3.317011E+03  3.118259E+02  2.065789E+03 -3.610350E+01
       168   2 -5.702288E+05 -1.608687E+01 -5.436840E+03 -1.604969E+03  4.487255E+03  3.205348E+01
       168   3 -5.722668E+05 -4.006307E+03 -1.020615E+04  6.615124E+02  6.908729E+03  9.044681E+01
       168   4 -5.680692E+05  8.440930E+01 -2.932412E+03  4.429197E+02  2.074020E+03 -3.608794E+01
       168   5 -5.673686E+05  6.988489E+02 -4.723237E+03 -1.645947E+03  4.494325E+03  3.206607E+01
       168   6 -5.680706E+05 -2.958804E+03 -9.162725E+03  4.484613E+02  6.914644E+03  9.045512E+01
       168   7 -5.665448E+05  4.669918E+02 -2.547813E+03  5.740137E+02  2.082251E+03 -3.607238E+01
       168   8 -5.645084E+05  1.413784E+03 -4.009634E+03 -1.686925E+03  4.501396E+03  3.207866E+01
       168   9 -5.638745E+05 -1.911302E+03 -8.119300E+03  2.354087E+02  6.920559E+03  9.046343E+01
       168  10 -5.695937E+05 -2.981745E+02 -3.317019E+03  3.118260E+02 -2.144536E-09  6.476290E-10
       168  11 -5.702289E+05 -1.609229E+01 -5.436878E+03 -1.604969E+03 -6.836044E-09  2.812648E-09
       168  12 -5.722668E+05 -4.006320E+03 -1.020624E+04  6.615119E+02 -4.835524E-09  4.366027E-10
       168  13 -5.680693E+05  8.440814E+01 -2.932420E+03  4.429197E+02  9.813697E-10 -1.269006E-09
       168  14 -5.673686E+05  6.988435E+02 -4.723275E+03 -1.645947E+03 -3.140457E-09  3.224746E-09
       168  15 -5.680707E+05 -2.958817E+03 -9.162815E+03  4.484608E+02 -3.639752E-09  7.840779E-10
       168  16 -5.665448E+05  4.669907E+02 -2.547821E+03  5.740138E+02 -1.325103E-09 -6.445545E-10
       168  17 -5.645084E+05  1.413779E+03 -4.009672E+03 -1.686925E+03  3.715978E-10 -4.586375E-09
       168  18 -5.638745E+05 -1.911315E+03 -8.119390E+03  2.354082E+02  3.733164E-09 -8.377088E-11
       168  19 -5.695937E+05 -2.981733E+02 -3.317011E+03  3.118259E+02 -2.065789E+03  3.610350E+01
       168  20 -5.702288E+05 -1.608687E+01 -5.436840E+03 -1.604969E+03 -4.487255E+03 -3.205348E+01
       168  21 -5.722668E+05 -4.006307E+03 -1.020615E+04  6.615124E+02 -6.908729E+03 -9.044681E+01
       168  22 -5.680692E+05  8.440930E+01 -2.932412E+03  4.429197E+02 -2.074020E+03  3.608794E+01
       168  23 -5.673686E+05  6.988489E+02 -4.723237E+03 -1.645947E+03 -4.494325E+03 -3.206607E+01
       168  24 -5.680706E+05 -2.958804E+03 -9.162725E+03  4.484613E+02 -6.914644E+03 -9.045512E+01
       168  25 -5.665448E+05  4.669918E+02 -2.547813E+03  5.740137E+02 -2.082251E+03  3.607238E+01
       168  26 -5.645084E+05  1.413784E+03 -4.009634E+03 -1.686925E+03 -4.501396E+03 -3.207866E+01
       168  27 -5.638745E+05 -1.911302E+03 -8.119300E+03  2.354087E+02 -6.920559E+03 -9.046343E+01
       169   1 -5.919545E+05 -4.972938E+03 -1.700195E+04 -4.901357E+02  8.766392E+03  1.399952E+02
       169   2 -5.890542E+05 -1.317249E+03 -2.418010E+04 -1.211424E+03  1.838333E+04  2.261833E+02
       169   3 -5.944025E+05 -2.561310E+04 -4.461245E+04  1.907590E+03  2.800019E+04  2.468484E+02
       169   4 -5.695904E+05  6.234933E+02 -1.141626E+04  3.569060E+02  8.778804E+03  1.400288E+02
       169   5 -5.654703E+05  4.577938E+03 -1.829577E+04 -1.546347E+03  1.838820E+04  2.261805E+02
       169   6 -5.695972E+05 -1.941727E+04 -3.842389E+04  3.907145E+02  2.799754E+04  2.467736E+02
       169   7 -5.472258E+05  6.219889E+03 -5.830597E+03  1.203978E+03  8.791216E+03  1.400625E+02
       169   8 -5.418858E+05  1.047308E+04 -1.241149E+04 -1.881283E+03  1.839307E+04  2.261776E+02
       169   9 -5.447912E+05 -1.322149E+04 -3.223538E+04 -1.126222E+03  2.799489E+04  2.466987E+02
       169  10 -5.919545E+05 -4.972958E+03 -1.700210E+04 -4.901367E+02 -4.406124E-09  2.737770E-09
       169  11 -5.890545E+05 -1.317340E+03 -2.418074E+04 -1.211427E+03 -8.724590E-09  2.111726E-09
       169  12 -5.944034E+05 -2.561331E+04 -4.461393E+04  1.907585E+03 -3.635482E-09  3.209056E-09
       169  13 -5.695905E+05  6.234725E+02 -1.141640E+04  3.569050E+02  5.288403E-09  1.710094E-09
       169  14 -5.654706E+05  4.577847E+03 -1.829641E+04 -1.546350E+03 -7.406725E-09  2.323715E-09
       169  15 -5.695980E+05 -1.941748E+04 -3.842537E+04  3.907090E+02 -1.385465E-09  1.476956E-10
       169  16 -5.472259E+05  6.219868E+03 -5.830743E+03  1.203977E+03  2.258556E-09  1.003923E-09
       169  17 -5.418862E+05  1.047299E+04 -1.241212E+04 -1.881286E+03  2.070321E-09  2.291167E-11
       169  18 -5.447921E+05 -1.322170E+04 -3.223686E+04 -1.126228E+03  3.128573E-09 -2.518103E-09
       169  19 -5.919545E+05 -4.972938E+03 -1.700195E+04 -4.901357E+02 -8.766392E+03 -1.399952E+02
       169  20 -5.890542E+05 -1.317249E+03 -2.418010E+04 -1.211424E+03 -1.838333E+04 -2.261833E+02
       169  21 -5.944025E+05 -2.561310E+04 -4.461245E+04  1.907590E+03 -2.800019E+04 -2.468484E+02
       169  22 -5.695904E+05  6.234933E+02 -1.141626E+04  3.569060E+02 -8.778804E+03 -1.400288E+02
       169  23 -5.654703E+05  4.577938E+03 -1.829577E+04 -1.546347E+03 -1.838820E+04 -2.261805E+02
       169  24 -5.695972E+05 -1.941727E+04 -3.842389E+04  3.907145E+02 -2.799754E+04 -2.467736E+02
       169  25 -5.472258E+05  6.219889E+03 -5.830597E+03  1.203978E+03 -8.791216E+03 -1.400625E+02
       169  26 -5.418858E+05  1.047308E+04 -1.241149E+04 -1.881283E+03 -1.839307E+04 -2.261776E+02
       169  27 -5.447912E+05 -1.322149E+04 -3.223538E+04 -1.126222E+03 -2.799489E+04 -2.466987E+02
       170   1 -6.190631E+05 -5.883548E+03 -5.641770E+04 -5.133787E+03  3.565192E+04  3.371728E+02
       170   2 -5.947460E+05  1.958734E+04 -8.083520E+04  1.314838E+03  7.430761E+04  4.870285E+02
       170   3 -6.209973E+05 -1.371126E+05 -1.759704E+05  1.083917E+04  1.129648E+05  2.959972E+02
       170   4 -5.789902E+05  4.158351E+03 -4.641015E+04  1.328387E+02  3.568434E+04  3.375246E+02
       170   5 -5.537277E+05  2.983236E+04 -7.060495E+04 -1.311133E+03  7.430128E+04  4.866970E+02
       170   6 -5.790237E+05 -1.266515E+05 -1.654872E+05  3.207423E+02  1.129198E+05  2.940084E+02
       170   7 -5.389159E+05  1.420023E+04 -3.640270E+04  5.399804E+03  3.571677E+04  3.378769E+02
       170   8 -5.127079E+05  4.007727E+04 -6.037483E+04 -3.937278E+03  7.429495E+04  4.863656E+02
       170   9 -5.370483E+05 -1.161902E+05 -1.550041E+05 -1.019839E+04  1.128748E+05  2.920213E+02
       170  10 -6.190644E+05 -5.883890E+03 -5.642009E+04 -5.133797E+03 -6.996891E-09  6.856440E-10
       170  11 -5.947520E+05  1.958586E+04 -8.084559E+04  1.314809E+03 -3.469648E-09 -1.151792E-09
       170  12 -6.210111E+05 -1.371160E+05 -1.759944E+05  1.083914E+04 -1.093933E-09 -1.254352E-09
       170  13 -5.789916E+05  4.158009E+03 -4.641254E+04  1.328290E+02 -3.831911E-09  2.792489E-09
       170  14 -5.537337E+05  2.983087E+04 -7.061534E+04 -1.311162E+03 -4.227938E-10 -2.882089E-09
       170  15 -5.790374E+05 -1.266550E+05 -1.655112E+05  3.207156E+02 -3.920437E-09  1.170520E-09
       170  16 -5.389172E+05  1.419989E+04 -3.640510E+04  5.399795E+03  1.426056E-09  2.034424E-09
       170  17 -5.127138E+05  4.007579E+04 -6.038521E+04 -3.937307E+03  5.123354E-09  1.843855E-09
       170  18 -5.370620E+05 -1.161937E+05 -1.550280E+05 -1.019842E+04  1.290360E-09  3.865135E-10
       170  19 -6.190631E+05 -5.883548E+03 -5.641770E+04 -5.133787E+03 -3.565192E+04 -3.371728E+02
       170  20 -5.947460E+05  1.958734E+04 -8.083520E+04  1.314838E+03 -7.430761E+04 -4.870285E+02
       170  21 -6.209973E+05 -1.371126E+05 -1.759704E+05  1.083917E+04 -1.129648E+05 -2.959972E+02
       170  22 -5.789902E+05  4.158351E+03 -4.641015E+04  1.328387E+02 -3.568434E+04 -3.375246E+02
       170  23 -5.537277E+05  2.983236E+04 -7.060495E+04 -1.311133E+03 -7.430128E+04 -4.866970E+02
       170  24 -5.790237E+05 -1.266515E+05 -1.654872E+05  3.207423E+02 -1.129198E+05 -2.940084E+02
       170  25 -5.389159E+05  1.420023E+04 -3.640270E+04  5.399804E+03 -3.571677E+04 -3.378769E+02
       170  26 -5.127079E+05  4.007727E+04 -6.037483E+04 -3.937278E+03 -7.429495E+04 -4.863656E+02
       170  27 -5.370483E+05 -1.161902E+05 -1.550041E+05 -1.019839E+04 -1.128748E+05 -2.920213E+02
       171   1  1.942549E+05  1.103841E+06  2.067006E+05 -9.045036E+04  5.874787E+03  6.125381E+04
       171   2  9.994407E+04  9.835920E+05  1.351785E+05 -4.530084E+04  1.702669E+04  3.048783E+04
       171   3  7.434072E+04  8.845217E+05  1.008401E+05 -5.512671E+04  1.395808E+04 -2.817921E+02
       171   4  6.178209E+04  5.712919E+05  7.654998E+04 -6.401939E+04  5.885743E+03  4.763948E+04
       171   5 -3.815622E+03  5.616391E+05  3.804026E+04 -3.655308E+04  1.703014E+04  2.748295E+04
       171   6 -2.519167E+03  5.713330E+05  2.937341E+04 -6.406121E+04  1.395147E+04  7.317208E+03
       171   7 -7.070891E+04  3.900262E+04 -5.362022E+04 -3.761105E+04  5.895547E+03  3.403677E+04
       171   8 -1.075875E+05  1.398509E+05 -5.910970E+04 -2.781127E+04  1.703350E+04  2.448009E+04
       171   9 -7.938551E+04  2.582354E+05 -4.209946E+04 -7.299113E+04  1.394464E+04  1.491241E+04
       171  10  1.942538E+05  1.103837E+06  2.066935E+05 -9.045065E+04  4.755117E-09  4.409517E-10
       171  11  9.994351E+04  9.835909E+05  1.351762E+05 -4.530125E+04  5.209523E-09 -1.774684E-09
       171  12  7.434051E+04  8.845216E+05  1.008398E+05 -5.512671E+04  7.683192E-10 -1.163849E-09
       171  13  6.178145E+04  5.712894E+05  7.654566E+04 -6.401961E+04 -3.454927E-09 -3.448484E-11
       171  14 -3.816137E+03  5.616382E+05  3.803829E+04 -3.655346E+04 -1.889277E-09  9.579167E-11
       171  15 -2.519391E+03  5.713329E+05  2.937295E+04 -6.406129E+04 -2.086864E-09 -1.297719E-09
       171  16 -7.070926E+04  3.900136E+04 -5.362246E+04 -3.761121E+04  1.542484E-09 -1.735542E-10
       171  17 -1.075879E+05  1.398501E+05 -5.911137E+04 -2.781161E+04 -5.130125E-09  4.368489E-12
       171  18 -7.938578E+04  2.582351E+05 -4.210025E+04 -7.299130E+04  1.498211E-09  5.885965E-10
       171  19  1.942549E+05  1.103841E+06  2.067006E+05 -9.045036E+04 -5.874787E+03 -6.125381E+04
       171  20  9.994407E+04  9.835920E+05  1.351785E+05 -4.530084E+04 -1.702669E+04 -3.048783E+04
       171  21  7.434072E+04  8.845217E+05  1.008401E+05 -5.512671E+04 -1.395808E+04  2.817921E+02
       171  22  6.178209E+04  5.712919E+05  7.654998E+04 -6.401939E+04 -5.885743E+03 -4.763948E+04
       171  23 -3.815622E+03  5.616391E+05  3.804026E+04 -3.655308E+04 -1.703014E+04 -2.748295E+04
       171  24 -2.519167E+03  5.713330E+05  2.937341E+04 -6.406121E+04 -1.395147E+04 -7.317208E+03
       171  25 -7.070891E+04  3.900262E+04 -5.362022E+04 -3.761105E+04 -5.895547E+03 -3.403677E+04
       171  26 -1.075875E+05  1.398509E+05 -5.910970E+04 -2.781127E+04 -1.703350E+04 -2.448009E+04
       171  27 -7.938551E+04  2.582354E+05 -4.209946E+04 -7.299113E+04 -1.394464E+04 -1.491241E+04
       172   1  5.571671E+04  7.792666E+05  7.670628E+04 -6.773616E+04  9.087688E+03 -8.816436E+02
       172   2  2.385037E+04  6.669784E+05  5.324641E+04 -3.598044E+04  4.486584E+03 -1.624279E+04
       172   3  9.132809E+03  5.608640E+05  4.403908E+04 -5.954109E+04 -3.504300E+02 -3.160241E+04
       172   4  3.913439E+03  5.684062E+05  2.843183E+04 -6.412561E+04  9.084558E+03  2.467364E+03
       172   5 -1.106913E+03  5.653416E+05  3.002043E+04 -3.646385E+04  4.483064E+03 -1.271574E+04
       172   6  1.099266E+04  5.684088E+05  4.573977E+04 -6.411828E+04 -3.541968E+02 -2.789996E+04
       172   7 -4.789287E+04  3.575870E+05 -1.984550E+04 -6.051629E+04  9.081466E+03  5.815245E+03
       172   8 -2.606491E+04  4.637144E+05  6.793824E+03 -3.694717E+04  4.479539E+03 -9.189265E+03
       172   9  1.285260E+04  5.759537E+05  4.744052E+04 -6.869551E+04 -3.580182E+02 -2.419746E+04
       172  10  5.571662E+04  7.792666E+05  7.670612E+04 -6.773616E+04  4.472209E-09  3.524638E-09
       172  11  2.385028E+04  6.669781E+05  5.324588E+04 -3.598038E+04  5.517282E-09 -6.176774E-09
       172  12  9.132541E+03  5.608629E+05  4.403721E+04 -5.954110E+04 -9.964564E-10 -7.951374E-09
       172  13  3.913349E+03  5.684062E+05  2.843166E+04 -6.412563E+04  1.382441E-09  5.375394E-12
       172  14 -1.106978E+03  5.653414E+05  3.002009E+04 -3.646380E+04  8.432551E-09 -2.493292E-10
       172  15  1.099246E+04  5.684080E+05  4.573831E+04 -6.411828E+04  6.559492E-09 -1.774125E-09
       172  16 -4.789297E+04  3.575869E+05 -1.984571E+04 -6.051633E+04  1.380073E-09 -3.043044E-09
       172  17 -2.606495E+04  4.637143E+05  6.793628E+03 -3.694714E+04 -7.350108E-09  3.500811E-09
       172  18  1.285244E+04  5.759531E+05  4.743942E+04 -6.869552E+04  4.135530E-09  7.438369E-09
       172  19  5.571671E+04  7.792666E+05  7.670628E+04 -6.773616E+04 -9.087688E+03  8.816436E+02
       172  20  2.385037E+04  6.669784E+05  5.324641E+04 -3.598044E+04 -4.486584E+03  1.624279E+04
       172  21  9.132809E+03  5.608640E+05  4.403908E+04 -5.954109E+04  3.504300E+02  3.160241E+04
       172  22  3.913439E+03  5.684062E+05  2.843183E+04 -6.412561E+04 -9.084558E+03 -2.467364E+03
       172  23 -1.106913E+03  5.653416E+05  3.002043E+04 -3.646385E+04 -4.483064E+03  1.271574E+04
       172  24  1.099266E+04  5.684088E+05  4.573977E+04 -6.411828E+04  3.541968E+02  2.789996E+04
       172  25 -4.789287E+04  3.575870E+05 -1.984550E+04 -6.051629E+04 -9.081466E+03 -5.815245E+03
       172  26 -2.606491E+04  4.637144E+05  6.793824E+03 -3.694717E+04 -4.479539E+03  9.189265E+03
       172  27  1.285260E+04  5.759537E+05  4.744052E+04 -6.869551E+04  3.580182E+02  2.419746E+04
       173   1 -3.489981E+04  4.678814E+05  2.947679E+04 -8.685982E+04 -4.664167E+03 -4.247121E+04
       173   2 -6.311934E+04  3.355568E+05  3.619139E+04 -1.533814E+04 -8.538176E+03 -8.175496E+04
       173   3  7.291063E+04  2.493368E+05  1.095233E+05  1.214058E+03 -3.190343E+03 -1.210222E+05
       173   4 -8.014441E+03  5.775534E+05  5.458452E+04 -6.408644E+04 -4.672430E+03 -3.613344E+04
       173   5 -9.345519E+03  5.538986E+05  8.658554E+04 -3.653283E+04 -8.534677E+03 -8.230009E+04
       173   6  1.547261E+05  5.774995E+05  1.899588E+05 -6.394121E+04 -3.170975E+03 -1.284573E+05
       173   7  1.887206E+04  6.872377E+05  7.969189E+04 -4.130900E+04 -4.680227E+03 -2.979456E+04
       173   8  4.442664E+04  7.722853E+05  1.369767E+05 -5.773502E+04 -8.531143E+03 -8.284542E+04
       173   9  2.365495E+05  9.057694E+05  2.703888E+05 -1.291310E+05 -3.150055E+03 -1.358964E+05
       173  10 -3.490031E+04  4.678795E+05  2.947336E+04 -8.685998E+04  2.081340E-09  4.928906E-09
       173  11 -6.312121E+04  3.355496E+05  3.617870E+04 -1.533870E+04 -7.913311E-11 -1.417113E-09
       173  12  7.290669E+04  2.493211E+05  1.094958E+05  1.213747E+03 -8.468041E-10 -2.504368E-09
       173  13 -8.014815E+03  5.775520E+05  5.458203E+04 -6.408658E+04  4.568285E-09  8.500101E-11
       173  14 -9.347413E+03  5.538913E+05  8.657268E+04 -3.653340E+04  5.666077E-09 -1.006805E-10
       173  15  1.547217E+05  5.774818E+05  1.899278E+05 -6.394154E+04 -2.605268E-09 -8.905082E-10
       173  16  1.887180E+04  6.872367E+05  7.969018E+04 -4.130912E+04 -3.298873E-09 -4.547651E-09
       173  17  4.442472E+04  7.722779E+05  1.369637E+05 -5.773559E+04 -5.202395E-09 -1.332731E-09
       173  18  2.365446E+05  9.057496E+05  2.703541E+05 -1.291313E+05 -1.128037E-09  2.177250E-09
       173  19 -3.489981E+04  4.678814E+05  2.947679E+04 -8.685982E+04  4.664167E+03  4.247121E+04
       173  20 -6.311934E+04  3.355568E+05  3.619139E+04 -1.533814E+04  8.538176E+03  8.175496E+04
       173  21  7.291063E+04  2.493368E+05  1.095233E+05  1.214058E+03  3.190343E+03  1.210222E+05
       173  22 -8.014441E+03  5.775534E+05  5.458452E+04 -6.408644E+04  4.672430E+03  3.613344E+04
       173  23 -9.345519E+03  5.538986E+05  8.658554E+04 -3.653283E+04  8.534677E+03  8.230009E+04
       173  24  1.547261E+05  5.774995E+05  1.899588E+05 -6.394121E+04  3.170975E+03  1.284573E+05
       173  25  1.887206E+04  6.872377E+05  7.969189E+04 -4.130900E+04  4.680227E+03  2.979456E+04
       173  26  4.442664E+04  7.722853E+05  1.369767E+05 -5.773502E+04  8.531143E+03  8.284542E+04
       173  27  2.365495E+05  9.057694E+05  2.703888E+05 -1.291310E+05  3.150055E+03  1.358964E+05
       174   1 -5.081439E+04 -2.815451E+04 -4.956471E+04 -9.428752E+03 -6.355905E+04 -1.464958E+03
       174   2 -4.983797E+04  5.675071E+04  6.979068E+02 -4.585445E+03 -4.231728E+04 -4.070449E+03
       174   3 -7.637912E+04  4.257376E+04  1.236931E+04  1.452172E+04 -2.108111E+04 -3.425404E+03
       174   4 -2.342317E+05 -7.389783E+04 -9.511490E+04  6.833690E+03 -6.497746E+04 -1.468735E+03
       174   5 -2.203706E+05  1.430425E+04 -4.106288E+04 -3.556598E+02 -4.264972E+04 -4.071356E+03
       174   6 -2.342240E+05  3.220332E+03 -2.636452E+04  6.719098E+03 -2.032709E+04 -3.423872E+03
       174   7 -4.176178E+05 -1.196427E+05 -1.406675E+05  2.309131E+04 -6.639544E+04 -1.472587E+03
       174   8 -3.908766E+05 -2.814431E+04 -8.282578E+04  3.872950E+03 -4.298206E+04 -4.072267E+03
       174   9 -3.920461E+05 -3.613472E+04 -6.510014E+04 -1.081547E+03 -1.957326E+04 -3.422358E+03
       174  10 -5.081873E+04 -2.815559E+04 -4.957230E+04 -9.428827E+03 -2.858833E-09  2.500264E-09
       174  11 -4.983990E+04  5.675021E+04  6.945101E+02 -4.585583E+03 -2.373422E-09  7.939438E-09
       174  12 -7.637960E+04  4.257363E+04  1.236846E+04  1.452166E+04  5.350571E-09  3.193961E-09
       174  13 -2.342362E+05 -7.389897E+04 -9.512284E+04  6.833613E+03  9.261840E-10 -2.614571E-10
       174  14 -2.203725E+05  1.430374E+04 -4.106633E+04 -3.557996E+02  8.159688E-10  3.474981E-10
       174  15 -2.342245E+05  3.220209E+03 -2.636531E+04  6.719042E+03  6.656137E-09  8.489951E-10
       174  16 -4.176225E+05 -1.196439E+05 -1.406758E+05  2.309123E+04  2.679966E-09  1.305932E-09
       174  17 -3.908786E+05 -2.814482E+04 -8.282929E+04  3.872809E+03 -4.677076E-09  7.186653E-09
       174  18 -3.920465E+05 -3.613484E+04 -6.510088E+04 -1.081601E+03  2.242712E-09 -5.138597E-10
       174  19 -5.081439E+04 -2.815451E+04 -4.956471E+04 -9.428752E+03  6.355905E+04  1.464958E+03
       174  20 -4.983797E+04  5.675071E+04  6.979068E+02 -4.585445E+03  4.231728E+04  4.070449E+03
       174  21 -7.637912E+04  4.257376E+04  1.236931E+04  1.452172E+04  2.108111E+04  3.425404E+03
       174  22 -2.342317E+05 -7.389783E+04 -9.511490E+04  6.833690E+03  6.497746E+04  1.468735E+03
       174  23 -2.203706E+05  1.430425E+04 -4.106288E+04 -3.556598E+02  4.264972E+04  4.071356E+03
       174  24 -2.342240E+05  3.220332E+03 -2.636452E+04  6.719098E+03  2.032709E+04  3.423872E+03
       174  25 -4.176178E+05 -1.196427E+05 -1.406675E+05  2.309131E+04  6.639544E+04  1.472587E+03
       174  26 -3.908766E+05 -2.814431E+04 -8.282578E+04  3.872950E+03  4.298206E+04  4.072267E+03
       174  27 -3.920461E+05 -3.613472E+04 -6.510014E+04 -1.081547E+03  1.957326E+04  3.422358E+03
       175   1 -1.006558E+05  2.236040E+04  9.811394E+03  4.998605E+03 -1.606954E+04 -2.662762E+03
       175   2 -1.116447E+05  3.059627E+04  1.761628E+04 -7.590022E+02 -1.065702E+04 -2.534531E+03
       175   3 -1.265959E+05  2.594674E+04  1.866872E+04  7.986644E+03 -5.245504E+03 -2.041827E+03
       175   4 -2.289503E+05 -9.595027E+03 -2.169041E+04  6.823568E+03 -1.608881E+04 -2.662884E+03
       175   5 -2.269573E+05  1.874854E+03 -1.066693E+04 -4.374882E+02 -1.055489E+04 -2.534372E+03
       175   6 -2.289488E+05  4.368383E+02 -6.481304E+03  6.804933E+03 -5.021849E+03 -2.041382E+03
       175   7 -3.572298E+05 -4.155166E+04 -5.319341E+04  8.648145E+03 -1.610808E+04 -2.663006E+03
       175   8 -3.422577E+05 -2.684755E+04 -3.895112E+04 -1.160400E+02 -1.045277E+04 -2.534212E+03
       175   9 -3.312921E+05 -2.507384E+04 -3.163210E+04  5.623411E+03 -4.798231E+03 -2.040938E+03
       175  10 -1.006560E+05  2.236032E+04  9.810895E+03  4.998571E+03  2.598282E-09 -2.212327E-09
       175  11 -1.116448E+05  3.059624E+04  1.761605E+04 -7.590239E+02 -2.695746E-10  2.039447E-10
       175  12 -1.265960E+05  2.594673E+04  1.866866E+04  7.986635E+03 -2.864802E-09  3.960259E-09
       175  13 -2.289506E+05 -9.595104E+03 -2.169091E+04  6.823533E+03  9.431263E-09  4.506492E-09
       175  14 -2.269574E+05  1.874818E+03 -1.066716E+04 -4.375098E+02  3.171556E-09 -1.232329E-08
       175  15 -2.289488E+05  4.368271E+02 -6.481359E+03  6.804924E+03  4.892942E-10  6.813005E-09
       175  16 -3.572301E+05 -4.155174E+04 -5.319391E+04  8.648111E+03  1.864543E-09 -6.491724E-09
       175  17 -3.422578E+05 -2.684759E+04 -3.895134E+04 -1.160613E+02 -2.150872E-09 -2.697178E-09
       175  18 -3.312921E+05 -2.507385E+04 -3.163215E+04  5.623404E+03 -4.362196E-09  2.896821E-09
       175  19 -1.006558E+05  2.236040E+04  9.811394E+03  4.998605E+03  1.606954E+04  2.662762E+03
       175  20 -1.116447E+05  3.059627E+04  1.761628E+04 -7.590022E+02  1.065702E+04  2.534531E+03
       175  21 -1.265959E+05  2.594674E+04  1.866872E+04  7.986644E+03  5.245504E+03  2.041827E+03
       175  22 -2.289503E+05 -9.595027E+03 -2.169041E+04  6.823568E+03  1.608881E+04  2.662884E+03
       175  23 -2.269573E+05  1.874854E+03 -1.066693E+04 -4.374882E+02  1.055489E+04  2.534372E+03
       175  24 -2.289488E+05  4.368383E+02 -6.481304E+03  6.804933E+03  5.021849E+03  2.041382E+03
       175  25 -3.572298E+05 -4.155166E+04 -5.319341E+04  8.648145E+03  1.610808E+04  2.663006E+03
       175  26 -3.422577E+05 -2.684755E+04 -3.895112E+04 -1.160400E+02  1.045277E+04  2.534212E+03
       175  27 -3.312921E+05 -2.507384E+04 -3.163210E+04  5.623411E+03  4.798231E+03  2.040938E+03
       176   1 -1.558761E+05  1.679750E+04  1.258020E+04  6.738861E+03 -4.122512E+03 -1.713886E+03
       176   2 -1.686595E+05  1.499761E+04  1.181739E+04 -4.309442E+02 -2.763630E+03 -1.281757E+03
       176   3 -1.820942E+05  1.157843E+04  9.750420E+03  7.063549E+03 -1.404922E+03 -8.074756E+02
       176   4 -2.282073E+05 -1.213601E+03 -5.133211E+03  6.848733E+03 -3.985086E+03 -1.713613E+03
       176   5 -2.278802E+05  2.450067E+02 -2.711934E+03 -4.848206E+02 -2.612191E+03 -1.281441E+03
       176   6 -2.282070E+05  8.184217E+01 -1.604619E+03  6.846011E+03 -1.239441E+03 -8.071152E+02
       176   7 -3.005336E+05 -1.922509E+04 -2.284701E+04  6.958591E+03 -3.847677E+03 -1.713339E+03
       176   8 -2.870977E+05 -1.450786E+04 -1.724152E+04 -5.386936E+02 -2.460766E+03 -1.281125E+03
       176   9 -2.743178E+05 -1.141490E+04 -1.295981E+04  6.628489E+03 -1.073972E+03 -8.067549E+02
       176  10 -1.558762E+05  1.679750E+04  1.258016E+04  6.738855E+03  5.764545E-10 -1.856450E-09
       176  11 -1.686595E+05  1.499761E+04  1.181738E+04 -4.309470E+02 -7.701184E-09 -4.132398E-09
       176  12 -1.820942E+05  1.157843E+04  9.750415E+03  7.063548E+03 -2.732526E-10 -4.766232E-09
       176  13 -2.282073E+05 -1.213608E+03 -5.133246E+03  6.848728E+03  5.429436E-09 -1.453699E-09
       176  14 -2.278802E+05  2.450031E+02 -2.711950E+03 -4.848233E+02 -3.643821E-09 -5.471674E-09
       176  15 -2.282070E+05  8.184106E+01 -1.604623E+03  6.846011E+03 -4.050836E-09 -2.415503E-09
       176  16 -3.005336E+05 -1.922510E+04 -2.284704E+04  6.958585E+03 -2.843071E-09 -2.404567E-09
       176  17 -2.870977E+05 -1.450786E+04 -1.724153E+04 -5.386961E+02 -2.494432E-09  1.523038E-09
       176  18 -2.743178E+05 -1.141490E+04 -1.295982E+04  6.628489E+03 -4.058623E-09  6.037997E-09
       176  19 -1.558761E+05  1.679750E+04  1.258020E+04  6.738861E+03  4.122512E+03  1.713886E+03
       176  20 -1.686595E+05  1.499761E+04  1.181739E+04 -4.309442E+02  2.763630E+03  1.281757E+03
       176  21 -1.820942E+05  1.157843E+04  9.750420E+03  7.063549E+03  1.404922E+03  8.074756E+02
       176  22 -2.282073E+05 -1.213601E+03 -5.133211E+03  6.848733E+03  3.985086E+03  1.713613E+03
       176  23 -2.278802E+05  2.450067E+02 -2.711934E+03 -4.848206E+02  2.612191E+03  1.281441E+03
       176  24 -2.282070E+05  8.184217E+01 -1.604619E+03  6.846011E+03  1.239441E+03  8.071152E+02
       176  25 -3.005336E+05 -1.922509E+04 -2.284701E+04  6.958591E+03  3.847677E+03  1.713339E+03
       176  26 -2.870977E+05 -1.450786E+04 -1.724152E+04 -5.386936E+02  2.460766E+03  1.281125E+03
       176  27 -2.743178E+05 -1.141490E+04 -1.295981E+04  6.628489E+03  1.073972E+03  8.067549E+02
       177   1 -2.122415E+05  3.815305E+03  2.603575E+03  6.866288E+03 -1.139602E+03 -5.269206E+02
       177   2 -2.253199E+05  7.033089E+02 -2.962960E+01 -4.962455E+02 -7.962164E+02 -6.004086E+01
       177   3 -2.385629E+05 -2.563602E+03 -2.942123E+03  6.862485E+03 -4.528499E+02  4.107393E+02
       177   4 -2.280978E+05 -1.267540E+02 -1.246748E+03  6.859795E+03 -9.836727E+02 -5.265761E+02
       177   5 -2.280152E+05  3.184005E+01 -6.908888E+02 -5.010187E+02 -6.389875E+02 -5.969314E+01
       177   6 -2.280977E+05  3.530315E+01 -4.152212E+02  6.859436E+03 -2.943143E+02  4.110908E+02
       177   7 -2.439538E+05 -4.068832E+03 -5.097088E+03  6.853302E+03 -8.277474E+02 -5.262316E+02
       177   8 -2.307106E+05 -6.396293E+02 -1.352148E+03 -5.057920E+02 -4.817593E+02 -5.934541E+01
       177   9 -2.176324E+05  2.634200E+03  2.111673E+03  6.856386E+03 -1.357760E+02  4.114424E+02
       177  10 -2.122415E+05  3.815305E+03  2.603572E+03  6.866288E+03  5.160272E-09 -5.763880E-09
       177  11 -2.253199E+05  7.033087E+02 -2.963080E+01 -4.962455E+02  1.877649E-09  1.424383E-09
       177  12 -2.385629E+05 -2.563602E+03 -2.942124E+03  6.862486E+03 -8.782423E-09  5.035968E-10
       177  13 -2.280978E+05 -1.267545E+02 -1.246750E+03  6.859795E+03  1.193020E-09  9.087421E-10
       177  14 -2.280152E+05  3.183994E+01 -6.908896E+02 -5.010188E+02  7.702235E-10 -2.214439E-09
       177  15 -2.280977E+05  3.530294E+01 -4.152217E+02  6.859436E+03 -1.896783E-09  5.397611E-10
       177  16 -2.439538E+05 -4.068832E+03 -5.097090E+03  6.853302E+03 -1.067087E-08  3.077016E-09
       177  17 -2.307106E+05 -6.396293E+02 -1.352149E+03 -5.057920E+02 -9.023554E-09  6.793825E-09
       177  18 -2.176324E+05  2.634200E+03  2.111673E+03  6.856386E+03  9.197096E-09  1.847129E-09
       177  19 -2.122415E+05  3.815305E+03  2.603575E+03  6.866288E+03  1.139602E+03  5.269206E+02
       177  20 -2.253199E+05  7.033089E+02 -2.962960E+01 -4.962455E+02  7.962164E+02  6.004086E+01
       177  21 -2.385629E+05 -2.563602E+03 -2.942123E+03  6.862485E+03  4.528499E+02 -4.107393E+02
       177  22 -2.280978E+05 -1.267540E+02 -1.246748E+03  6.859795E+03  9.836727E+02  5.265761E+02
       177  23 -2.280152E+05  3.184005E+01 -6.908888E+02 -5.010187E+02  6.389875E+02  5.969314E+01
       177  24 -2.280977E+05  3.530315E+01 -4.152212E+02  6.859436E+03  2.943143E+02 -4.110908E+02
       177  25 -2.439538E+05 -4.068832E+03 -5.097088E+03  6.853302E+03  8.277474E+02  5.262316E+02
       177  26 -2.307106E+05 -6.396293E+02 -1.352148E+03 -5.057920E+02  4.817593E+02  5.934541E+01
       177  27 -2.176324E+05  2.634200E+03  2.111673E+03  6.856386E+03  1.357760E+02 -4.114424E+02
       178   1 -2.688106E+05 -1.014312E+04 -1.036320E+04  6.779596E+03 -3.868417E+02  6.863911E+02
       178   2 -2.818863E+05 -1.341029E+04 -1.342551E+04 -5.728892E+02 -2.795684E+02  1.156262E+03
       178   3 -2.950424E+05 -1.665760E+04 -1.656767E+04  6.747685E+03 -1.722112E+02  1.619020E+03
       178   4 -2.280794E+05  1.264106E+01 -3.278637E+02  6.848841E+03 -2.279136E+02  6.867389E+02
       178   5 -2.280392E+05  4.942974E+00 -2.129139E+02 -4.876551E+02 -1.230260E+02  1.156593E+03
       178   6 -2.280793E+05  1.747459E+01 -1.761825E+02  6.848829E+03 -1.805226E+01  1.619334E+03
       178   7 -1.873466E+05  1.016828E+04  9.707351E+03  6.918089E+03 -6.897513E+01  6.870868E+02
       178   8 -1.741895E+05  1.341996E+04  1.299947E+04 -4.024150E+02  3.352990E+01  1.156923E+03
       178   9 -1.611122E+05  1.669222E+04  1.621498E+04  6.949982E+03  1.361233E+02  1.619648E+03
       178  10 -2.688106E+05 -1.014312E+04 -1.036320E+04  6.779596E+03 -7.641175E-09  3.144079E-10
       178  11 -2.818863E+05 -1.341029E+04 -1.342552E+04 -5.728890E+02  6.064915E-10 -4.069521E-09
       178  12 -2.950424E+05 -1.665761E+04 -1.656767E+04  6.747685E+03 -2.302177E-09 -4.021737E-09
       178  13 -2.280794E+05  1.264054E+01 -3.278647E+02  6.848841E+03  1.018265E-09  6.561029E-09
       178  14 -2.280392E+05  4.941534E+00 -2.129164E+02 -4.876550E+02  2.728926E-09 -3.568720E-09
       178  15 -2.280793E+05  1.747177E+01 -1.761874E+02  6.848829E+03 -2.505383E-09 -4.555109E-09
       178  16 -1.873466E+05  1.016828E+04  9.707350E+03  6.918089E+03  4.039048E-09  1.535924E-09
       178  17 -1.741895E+05  1.341996E+04  1.299947E+04 -4.024150E+02 -4.017326E-09 -1.188002E-08
       178  18 -1.611122E+05  1.669222E+04  1.621497E+04  6.949981E+03  5.459030E-10 -4.493406E-09
       178  19 -2.688106E+05 -1.014312E+04 -1.036320E+04  6.779596E+03  3.868417E+02 -6.863911E+02
       178  20 -2.818863E+05 -1.341029E+04 -1.342551E+04 -5.728892E+02  2.795684E+02 -1.156262E+03
       178  21 -2.950424E+05 -1.665760E+04 -1.656767E+04  6.747685E+03  1.722112E+02 -1.619020E+03
       178  22 -2.280794E+05  1.264106E+01 -3.278637E+02  6.848841E+03  2.279136E+02 -6.867389E+02
       178  23 -2.280392E+05  4.942974E+00 -2.129139E+02 -4.876551E+02  1.230260E+02 -1.156593E+03
       178  24 -2.280793E+05  1.747459E+01 -1.761825E+02  6.848829E+03  1.805226E+01 -1.619334E+03
       178  25 -1.873466E+05  1.016828E+04  9.707351E+03  6.918089E+03  6.897513E+01 -6.870868E+02
       178  26 -1.741895E+05  1.341996E+04  1.299947E+04 -4.024150E+02 -3.352990E+01 -1.156923E+03
       178  27 -1.611122E+05  1.669222E+04  1.621498E+04  6.949982E+03 -1.361233E+02 -1.619648E+03
       179   1 -3.250940E+05 -2.414834E+04 -2.401985E+04  6.653672E+03 -1.536204E+02  1.898695E+03
       179   2 -3.380361E+05 -2.739075E+04 -2.720333E+04 -6.016277E+02 -2.884430E+01  2.367246E+03
       179   3 -3.510491E+05 -3.068915E+04 -3.049075E+04  6.656859E+03  9.617868E+01  2.782013E+03
       179   4 -2.280781E+05  3.055186E+01 -1.736280E+02  6.813358E+03  1.269503E+01  1.899020E+03
       179   5 -2.280442E+05  1.280896E+01 -2.143464E+02 -4.433719E+02  1.194238E+02  2.367510E+03
       179   6 -2.280781E+05 -5.771610E+01 -3.464020E+02  6.813525E+03  2.264019E+02  2.782221E+03
       179   7 -1.310536E+05  2.420874E+04  2.367190E+04  6.973064E+03  1.790364E+02  1.899344E+03
       179   8 -1.180414E+05  2.741547E+04  2.677374E+04 -2.850935E+02  2.677182E+02  2.367774E+03
       179   9 -1.050934E+05  3.057259E+04  2.979684E+04  6.970215E+03  3.566508E+02  2.782429E+03
       179  10 -3.250940E+05 -2.414834E+04 -2.401985E+04  6.653672E+03 -4.849272E-09 -1.327416E-09
       179  11 -3.380361E+05 -2.739075E+04 -2.720334E+04 -6.016276E+02 -6.001299E-09 -5.559923E-09
       179  12 -3.510491E+05 -3.068915E+04 -3.049077E+04  6.656859E+03 -1.031269E-08 -4.084268E-09
       179  13 -2.280781E+05  3.054799E+01 -1.736348E+02  6.813358E+03 -3.196249E-09 -1.329293E-09
       179  14 -2.280442E+05  1.280294E+01 -2.143569E+02 -4.433722E+02  2.673510E-09 -2.452158E-09
       179  15 -2.280781E+05 -5.772443E+01 -3.464167E+02  6.813524E+03 -4.198955E-10  3.467932E-09
       179  16 -1.310536E+05  2.420874E+04  2.367189E+04  6.973064E+03  3.410182E-09  3.457312E-09
       179  17 -1.180414E+05  2.741546E+04  2.677373E+04 -2.850940E+02 -4.771811E-09 -2.614918E-09
       179  18 -1.050934E+05  3.057258E+04  2.979682E+04  6.970214E+03  1.635807E-09  5.646744E-09
       179  19 -3.250940E+05 -2.414834E+04 -2.401985E+04  6.653672E+03  1.536204E+02 -1.898695E+03
       179  20 -3.380361E+05 -2.739075E+04 -2.720333E+04 -6.016277E+02  2.884430E+01 -2.367246E+03
       179  21 -3.510491E+05 -3.068915E+04 -3.049075E+04  6.656859E+03 -9.617868E+01 -2.782013E+03
       179  22 -2.280781E+05  3.055186E+01 -1.736280E+02  6.813358E+03 -1.269503E+01 -1.899020E+03
       179  23 -2.280442E+05  1.280896E+01 -2.143464E+02 -4.433719E+02 -1.194238E+02 -2.367510E+03
       179  24 -2.280781E+05 -5.771610E+01 -3.464020E+02  6.813525E+03 -2.264019E+02 -2.782221E+03
       179  25 -1.310536E+05  2.420874E+04  2.367190E+04  6.973064E+03 -1.790364E+02 -1.899344E+03
       179  26 -1.180414E+05  2.741547E+04  2.677374E+04 -2.850935E+02 -2.677182E+02 -2.367774E+03
       179  27 -1.050934E+05  3.057259E+04  2.979684E+04  6.970215E+03 -3.566508E+02 -2.782429E+03
       180   1 -3.807059E+05 -3.797506E+04 -3.790145E+04  6.482225E+03  5.659126E+01  3.117314E+03
       180   2 -3.933250E+05 -4.107665E+04 -4.124369E+04 -5.411236E+02  5.621008E+02  3.598393E+03
       180   3 -4.061972E+05 -4.496947E+04 -4.511119E+04  6.682237E+03  1.068497E+03  3.626324E+03
       180   4 -2.281160E+05  4.995633E+01 -4.225422E+02  6.753717E+03  2.939989E+02  3.117691E+03
       180   5 -2.280027E+05  1.114142E+02 -6.854013E+02 -3.690294E+02  6.474120E+02  3.598472E+03
       180   6 -2.281161E+05 -5.918121E+02 -1.367760E+03  6.754700E+03  1.001722E+03  3.626157E+03
       180   7 -7.550496E+04  3.807324E+04  3.705465E+04  7.025266E+03  5.314647E+02  3.118068E+03
       180   8 -6.265546E+04  4.129745E+04  3.987088E+04 -1.968994E+02  7.327458E+02  3.598550E+03
       180   9 -5.000614E+04  4.378349E+04  4.237334E+04  6.827172E+03  9.349276E+02  3.625990E+03
       180  10 -3.807059E+05 -3.797507E+04 -3.790147E+04  6.482225E+03 -1.790560E-09 -2.970206E-09
       180  11 -3.933250E+05 -4.107666E+04 -4.124371E+04 -5.411252E+02  3.171799E-09  1.804135E-09
       180  12 -4.061972E+05 -4.496949E+04 -4.511122E+04  6.682234E+03  3.232085E-09 -2.797040E-09
       180  13 -2.281160E+05  4.994587E+01 -4.225606E+02  6.753716E+03  1.118822E-09 -6.256907E-10
       180  14 -2.280027E+05  1.114002E+02 -6.854264E+02 -3.690313E+02  8.809386E-09  2.436201E-09
       180  15 -2.281161E+05 -5.918265E+02 -1.367786E+03  6.754697E+03 -4.201151E-09  3.164956E-09
       180  16 -7.550496E+04  3.807323E+04  3.705463E+04  7.025265E+03 -7.040801E-09 -1.552310E-09
       180  17 -6.265547E+04  4.129743E+04  3.987085E+04 -1.969015E+02 -5.911152E-09 -8.062286E-09
       180  18 -5.000614E+04  4.378348E+04  4.237331E+04  6.827169E+03 -2.328873E-09  1.448515E-10
       180  19 -3.807059E+05 -3.797506E+04 -3.790145E+04  6.482225E+03 -5.659126E+01 -3.117314E+03
       180  20 -3.933250E+05 -4.107665E+04 -4.124369E+04 -5.411236E+02 -5.621008E+02 -3.598393E+03
       180  21 -4.061972E+05 -4.496947E+04 -4.511119E+04  6.682237E+03 -1.068497E+03 -3.626324E+03
       180  22 -2.281160E+05  4.995633E+01 -4.225422E+02  6.753717E+03 -2.939989E+02 -3.117691E+03
       180  23 -2.280027E+05  1.114142E+02 -6.854013E+02 -3.690294E+02 -6.474120E+02 -3.598472E+03
       180  24 -2.281161E+05 -5.918121E+02 -1.367760E+03  6.754700E+03 -1.001722E+03 -3.626157E+03
       180  25 -7.550496E+04  3.807324E+04  3.705465E+04  7.025266E+03 -5.314647E+02 -3.118068E+03
       180  26 -6.265546E+04  4.129745E+04  3.987088E+04 -1.968994E+02 -7.327458E+02 -3.598550E+03
       180  27 -5.000614E+04  4.378349E+04  4.237334E+04  6.827172E+03 -9.349276E+02 -3.625990E+03
       181   1 -4.354877E+05 -5.137107E+04 -5.245707E+04  5.962377E+03  3.726013E+02  4.493079E+03
       181   2 -4.469992E+05 -5.375709E+04 -5.633775E+04 -1.686627E+02  3.133550E+03  5.139539E+03
       181   3 -4.603960E+05 -6.256511E+04 -6.360642E+04  7.523296E+03  5.898744E+03  1.750533E+03
       181   4 -2.284357E+05  2.170364E+02 -1.656766E+03  6.658125E+03  1.266313E+03  4.494231E+03
       181   5 -2.276111E+05  8.858060E+02 -2.593107E+03 -2.507097E+02  2.672587E+03  5.138870E+03
       181   6 -2.284363E+05 -4.630943E+03 -5.975651E+03  6.663182E+03  4.083185E+03  1.748663E+03
       181   7 -2.134459E+04  5.180196E+04  4.914040E+04  7.354091E+03  2.160322E+03  4.495386E+03
       181   8 -8.179178E+03  5.552514E+04  5.114801E+04 -3.327988E+02  2.211460E+03  5.138202E+03
       181   9  3.572394E+03  5.329919E+04  5.165110E+04  5.802734E+03  2.266947E+03  1.746798E+03
       181  10 -4.354877E+05 -5.137109E+04 -5.245711E+04  5.962376E+03  1.422332E-09 -2.225966E-09
       181  11 -4.469992E+05 -5.375712E+04 -5.633782E+04 -1.686756E+02 -5.407714E-09 -9.591309E-10
       181  12 -4.603961E+05 -6.256512E+04 -6.360649E+04  7.523287E+03  2.936902E-09  2.097538E-09
       181  13 -2.284357E+05  2.170143E+02 -1.656807E+03  6.658120E+03  7.267145E-10  9.981472E-10
       181  14 -2.276111E+05  8.857757E+02 -2.593170E+03 -2.507207E+02 -6.145407E-09  1.163686E-09
       181  15 -2.284363E+05 -4.630951E+03 -5.975688E+03  6.663176E+03 -5.773122E-10  1.572942E-09
       181  16 -2.134460E+04  5.180194E+04  4.914035E+04  7.354083E+03  1.638596E-09  2.970038E-09
       181  17 -8.179190E+03  5.552511E+04  5.114795E+04 -3.328079E+02 -3.462561E-09  2.898915E-09
       181  18  3.572388E+03  5.329919E+04  5.165109E+04  5.802731E+03 -3.816772E-09  8.481753E-10
       181  19 -4.354877E+05 -5.137107E+04 -5.245707E+04  5.962377E+03 -3.726013E+02 -4.493079E+03
       181  20 -4.469992E+05 -5.375709E+04 -5.633775E+04 -1.686627E+02 -3.133550E+03 -5.139539E+03
       181  21 -4.603960E+05 -6.256511E+04 -6.360642E+04  7.523296E+03 -5.898744E+03 -1.750533E+03
       181  22 -2.284357E+05  2.170364E+02 -1.656766E+03  6.658125E+03 -1.266313E+03 -4.494231E+03
       181  23 -2.276111E+05  8.858060E+02 -2.593107E+03 -2.507097E+02 -2.672587E+03 -5.138870E+03
       181  24 -2.284363E+05 -4.630943E+03 -5.975651E+03  6.663182E+03 -4.083185E+03 -1.748663E+03
       181  25 -2.134459E+04  5.180196E+04  4.914040E+04  7.354091E+03 -2.160322E+03 -4.495386E+03
       181  26 -8.179178E+03  5.552514E+04  5.114801E+04 -3.327988E+02 -2.211460E+03 -5.138202E+03
       181  27  3.572394E+03  5.329919E+04  5.165110E+04  5.802734E+03 -2.266947E+03 -1.746798E+03
       182   1 -3.031460E+05 -1.058090E+06 -3.007305E+05  2.374840E+05 -1.191135E+04 -8.926219E+04
       182   2 -1.944444E+05 -8.003106E+05 -1.870807E+05  1.866167E+05 -3.541332E+04 -3.963784E+04
       182   3 -1.264839E+05 -5.588322E+05 -1.159287E+05  2.047782E+05 -3.136553E+04  1.004428E+04
       182   4 -4.808255E+04 -3.041884E+04 -5.412716E+04  2.095018E+05 -1.195553E+04 -3.932083E+04
       182   5 -6.797450E+03 -2.539905E+04 -2.426447E+04  1.750088E+05 -3.542014E+04 -2.665119E+04
       182   6  2.005094E+02 -3.029591E+04 -1.118840E+04  2.095466E+05 -3.134800E+04 -1.394556E+04
       182   7  2.069083E+05  9.982276E+05  1.924111E+05  1.814731E+05 -1.200418E+04  1.070302E+04
       182   8  1.808115E+05  7.500810E+05  1.385189E+05  1.633862E+05 -3.542745E+04 -1.364856E+04
       182   9  1.268683E+05  4.985090E+05  9.354026E+04  2.143192E+05 -3.133085E+04 -3.795540E+04
       182  10 -3.031483E+05 -1.058099E+06 -3.007458E+05  2.374831E+05 -3.703539E-11  8.574597E-09
       182  11 -1.944462E+05 -8.003127E+05 -1.870861E+05  1.866156E+05  3.590044E-09  6.430698E-09
       182  12 -1.264849E+05 -5.588326E+05 -1.159307E+05  2.047784E+05 -1.441987E-10 -8.639794E-10
       182  13 -4.808311E+04 -3.042054E+04 -5.413033E+04  2.095014E+05  1.570398E-09  2.362807E-09
       182  14 -6.798987E+03 -2.540015E+04 -2.426816E+04  1.750081E+05 -1.341397E-08  1.526348E-09
       182  15  1.994022E+02 -3.029638E+04 -1.119061E+04  2.095462E+05 -5.169676E-09  1.402332E-10
       182  16  2.069081E+05  9.982275E+05  1.924106E+05  1.814732E+05 -2.174948E-09 -3.236092E-09
       182  17  1.808101E+05  7.500804E+05  1.385162E+05  1.633858E+05 -1.196750E-08 -2.792923E-09
       182  18  1.268668E+05  4.985072E+05  9.353571E+04  2.143182E+05 -2.746182E-09 -2.163711E-11
       182  19 -3.031460E+05 -1.058090E+06 -3.007305E+05  2.374840E+05  1.191135E+04  8.926219E+04
       182  20 -1.944444E+05 -8.003106E+05 -1.870807E+05  1.866167E+05  3.541332E+04  3.963784E+04
       182  21 -1.264839E+05 -5.588322E+05 -1.159287E+05  2.047782E+05  3.136553E+04 -1.004428E+04
       182  22 -4.808255E+04 -3.041884E+04 -5.412716E+04  2.095018E+05  1.195553E+04  3.932083E+04
       182  23 -6.797450E+03 -2.539905E+04 -2.426447E+04  1.750088E+05  3.542014E+04  2.665119E+04
       182  24  2.005094E+02 -3.029591E+04 -1.118840E+04  2.095466E+05  3.134800E+04  1.394556E+04
       182  25  2.069083E+05  9.982276E+05  1.924111E+05  1.814731E+05  1.200418E+04 -1.070302E+04
       182  26  1.808115E+05  7.500810E+05  1.385189E+05  1.633862E+05  3.542745E+04  1.364856E+04
       182  27  1.268683E+05  4.985090E+05  9.354026E+04  2.143192E+05  3.133085E+04  3.795540E+04
       183   1 -8.736566E+04 -3.830411E+05 -7.718878E+04  2.101386E+05 -2.096310E+04  6.012199E+03
       183   2 -2.540736E+04 -1.336775E+05 -1.853175E+04  1.748645E+05 -6.870072E+03  5.559282E+03
       183   3  3.678851E+04  1.160381E+05  4.051401E+04  2.101517E+05  7.560046E+03  5.105071E+03
       183   4 -2.245715E+03 -2.797859E+04 -6.740372E+03  2.098761E+05 -2.095132E+04 -1.269820E+04
       183   5 -2.259643E+02 -2.815682E+04  1.842796E+03  1.745970E+05 -6.858815E+03 -1.360605E+04
       183   6  2.114570E+03 -2.796153E+04  1.113414E+04  2.098785E+05  7.570579E+03 -1.451503E+04
       183   7  8.286673E+04  3.272053E+05  6.370310E+04  2.096134E+05 -2.093953E+04 -3.141908E+04
       183   8  2.495497E+04  7.737539E+04  2.221821E+04  1.743295E+05 -6.847542E+03 -3.277457E+04
       183   9 -3.256046E+04 -1.719406E+05 -1.824538E+04  2.096054E+05  7.581130E+03 -3.413066E+04
       183  10 -8.736614E+04 -3.830413E+05 -7.718968E+04  2.101387E+05  7.600449E-09  7.908480E-09
       183  11 -2.540742E+04 -1.336776E+05 -1.853190E+04  1.748645E+05  7.399854E-09  1.812931E-08
       183  12  3.678844E+04  1.160380E+05  4.051386E+04  2.101516E+05 -1.904254E-10  2.057962E-08
       183  13 -2.246229E+03 -2.797888E+04 -6.741499E+03  2.098758E+05  1.578983E-10  2.015566E-09
       183  14 -2.260644E+02 -2.815703E+04  1.842360E+03  1.745969E+05 -3.859382E-09  1.529373E-09
       183  15  2.114451E+03 -2.796177E+04  1.113364E+04  2.098786E+05 -9.976593E-09  1.036742E-09
       183  16  8.286600E+04  3.272041E+05  6.370043E+04  2.096129E+05  4.464649E-09 -3.314450E-09
       183  17  2.495463E+04  7.737422E+04  2.221610E+04  1.743293E+05  9.491828E-10 -1.410298E-08
       183  18 -3.256084E+04 -1.719418E+05 -1.824768E+04  2.096056E+05  3.154264E-09 -2.182737E-08
       183  19 -8.736566E+04 -3.830411E+05 -7.718878E+04  2.101386E+05  2.096310E+04 -6.012199E+03
       183  20 -2.540736E+04 -1.336775E+05 -1.853175E+04  1.748645E+05  6.870072E+03 -5.559282E+03
       183  21  3.678851E+04  1.160381E+05  4.051401E+04  2.101517E+05 -7.560046E+03 -5.105071E+03
       183  22 -2.245715E+03 -2.797859E+04 -6.740372E+03  2.098761E+05  2.095132E+04  1.269820E+04
       183  23 -2.259643E+02 -2.815682E+04  1.842796E+03  1.745970E+05  6.858815E+03  1.360605E+04
       183  24  2.114570E+03 -2.796153E+04  1.113414E+04  2.098785E+05 -7.570579E+03  1.451503E+04
       183  25  8.286673E+04  3.272053E+05  6.370310E+04  2.096134E+05  2.093953E+04  3.141908E+04
       183  26  2.495497E+04  7.737539E+04  2.221821E+04  1.743295E+05  6.847542E+03  3.277457E+04
       183  27 -3.256046E+04 -1.719406E+05 -1.824538E+04  2.096054E+05 -7.581130E+03  3.413066E+04
       184   1  7.513652E+04  2.923262E+05  7.996068E+04  2.029321E+05  1.791047E+04  7.278794E+03
       184   2  1.446997E+05  5.327616E+05  1.520323E+05  1.890746E+05  2.449591E+04 -3.954075E+04
       184   3  2.639665E+05  7.920024E+05  2.670386E+05  2.446444E+05  8.821146E+03 -8.640434E+04
       184   4 -1.068439E+03 -2.504377E+04  1.630455E+04  2.096136E+05  1.792461E+04 -1.649602E+04
       184   5  7.893180E+03 -3.187561E+04  3.233456E+04  1.749279E+05  2.449409E+04 -3.336814E+04
       184   6  6.139100E+04 -2.513182E+04  7.052916E+04  2.096652E+05  8.797294E+03 -5.026507E+04
       184   7 -7.727913E+04 -3.423164E+05 -4.735455E+04  2.162917E+05  1.793825E+04 -4.025892E+04
       184   8 -1.289332E+05 -5.962118E+05 -8.738112E+04  1.607944E+05  2.449198E+04 -2.720105E+04
       184   9 -1.412278E+05 -8.416499E+05 -1.260223E+05  1.747322E+05  8.769365E+03 -1.417312E+04
       184  10  7.513616E+04  2.923261E+05  7.995998E+04  2.029320E+05 -5.416746E-09 -1.971256E-08
       184  11  1.446987E+05  5.327598E+05  1.520283E+05  1.890754E+05 -5.596847E-09 -9.149340E-09
       184  12  2.639645E+05  7.919944E+05  2.670245E+05  2.446450E+05 -5.036169E-09  2.360182E-09
       184  13 -1.068857E+03 -2.504415E+04  1.630343E+04  2.096139E+05 -1.257965E-08  1.982566E-09
       184  14  7.892237E+03 -3.187697E+04  3.233134E+04  1.749286E+05 -6.336665E-09  1.409780E-09
       184  15  6.139024E+04 -2.513455E+04  7.052426E+04  2.096655E+05 -4.862954E-09  4.284368E-10
       184  16 -7.727991E+04 -3.423182E+05 -4.735820E+04  2.162923E+05  2.105002E-09  2.319118E-08
       184  17 -1.289341E+05 -5.962128E+05 -8.738364E+04  1.607949E+05  1.952889E-11  1.270866E-08
       184  18 -1.412279E+05 -8.416501E+05 -1.260228E+05  1.747323E+05 -5.016752E-11 -3.625155E-09
       184  19  7.513652E+04  2.923262E+05  7.996068E+04  2.029321E+05 -1.791047E+04 -7.278794E+03
       184  20  1.446997E+05  5.327616E+05  1.520323E+05  1.890746E+05 -2.449591E+04  3.954075E+04
       184  21  2.639665E+05  7.920024E+05  2.670386E+05  2.446444E+05 -8.821146E+03  8.640434E+04
       184  22 -1.068439E+03 -2.504377E+04  1.630455E+04  2.096136E+05 -1.792461E+04  1.649602E+04
       184  23  7.893180E+03 -3.187561E+04  3.233456E+04  1.749279E+05 -2.449409E+04  3.336814E+04
       184  24  6.139100E+04 -2.513182E+04  7.052916E+04  2.096652E+05 -8.797294E+03  5.026507E+04
       184  25 -7.727913E+04 -3.423164E+05 -4.735455E+04  2.162917E+05 -1.793825E+04  4.025892E+04
       184  26 -1.289332E+05 -5.962118E+05 -8.738112E+04  1.607944E+05 -2.449198E+04  2.720105E+04
       184  27 -1.412278E+05 -8.416499E+05 -1.260223E+05  1.747322E+05 -8.769365E+03  1.417312E+04
       185   1  6.716484E+05  2.265110E+05  1.227671E+05  2.501377E+05  5.085535E+04  1.495438E+04
       185   2  6.525974E+05  1.629369E+05  7.852862E+04  2.435246E+05  3.274037E+04 -1.123561E+03
       185   3  6.465354E+05  1.442640E+05  6.095475E+04  2.325831E+05  1.197687E+04 -1.016532E+04
       185   4  4.413385E+05  1.166202E+05  5.759827E+04  1.632456E+05  3.829891E+04  1.022251E+04
       185   5  4.324228E+05  7.252169E+04  2.551458E+04  1.738511E+05  2.778452E+04 -2.991457E+03
       185   6  4.349968E+05  7.182760E+04  1.408229E+04  1.801269E+05  1.462027E+04 -9.169601E+03
       185   7  2.110864E+05  6.745086E+03 -7.573458E+03  7.638759E+04  2.574780E+04  5.493820E+03
       185   8  2.122981E+05 -1.788632E+04 -2.750255E+04  1.042016E+05  2.283060E+04 -4.858451E+03
       185   9  2.235012E+05 -6.076222E+02 -3.279341E+04  1.276859E+05  1.726271E+04 -8.174178E+03
       185  10  6.716456E+05  2.265101E+05  1.227618E+05  2.501371E+05  1.486456E-10 -7.803215E-10
       185  11  6.525962E+05  1.629366E+05  7.852661E+04  2.435246E+05 -4.231061E-09 -2.657340E-09
       185  12  6.465352E+05  1.442639E+05  6.095428E+04  2.325832E+05  2.898656E-09  2.592534E-09
       185  13  4.413369E+05  1.166197E+05  5.759532E+04  1.632453E+05  5.378354E-10 -4.010821E-09
       185  14  4.324220E+05  7.252148E+04  2.551312E+04  1.738512E+05 -2.659243E-09 -4.907336E-09
       185  15  4.349966E+05  7.182745E+04  1.408173E+04  1.801270E+05 -9.435307E-10 -3.696912E-09
       185  16  2.110857E+05  6.744875E+03 -7.574760E+03  7.638748E+04 -2.480114E-10 -1.930523E-09
       185  17  2.122975E+05 -1.788648E+04 -2.750357E+04  1.042017E+05 -3.714569E-09 -6.199387E-09
       185  18  2.235008E+05 -6.077740E+02 -3.279409E+04  1.276860E+05 -2.400802E-09 -6.133077E-09
       185  19  6.716484E+05  2.265110E+05  1.227671E+05  2.501377E+05 -5.085535E+04 -1.495438E+04
       185  20  6.525974E+05  1.629369E+05  7.852862E+04  2.435246E+05 -3.274037E+04  1.123561E+03
       185  21  6.465354E+05  1.442640E+05  6.095475E+04  2.325831E+05 -1.197687E+04  1.016532E+04
       185  22  4.413385E+05  1.166202E+05  5.759827E+04  1.632456E+05 -3.829891E+04 -1.022251E+04
       185  23  4.324228E+05  7.252169E+04  2.551458E+04  1.738511E+05 -2.778452E+04  2.991457E+03
       185  24  4.349968E+05  7.182760E+04  1.408229E+04  1.801269E+05 -1.462027E+04  9.169601E+03
       185  25  2.110864E+05  6.745086E+03 -7.573458E+03  7.638759E+04 -2.574780E+04 -5.493820E+03
       185  26  2.122981E+05 -1.788632E+04 -2.750255E+04  1.042016E+05 -2.283060E+04  4.858451E+03
       185  27  2.235012E+05 -6.076222E+02 -3.279341E+04  1.276859E+05 -1.726271E+04  8.174178E+03
       186   1  6.249491E+05  1.467838E+05  5.468816E+04  2.317231E+05  1.170448E+04 -8.898091E+03
       186   2  6.074696E+05  1.346223E+05  4.471719E+04  2.235540E+05  8.105691E+03 -9.264620E+03
       186   3  5.861078E+05  1.294387E+05  3.769781E+04  2.207551E+05  4.378953E+03 -9.291912E+03
       186   4  4.331779E+05  7.508955E+04  1.099184E+04  1.779975E+05  1.245525E+04 -8.615527E+03
       186   5  4.350159E+05  7.064411E+04  5.757273E+03  1.756873E+05  9.223576E+03 -8.843575E+03
       186   6  4.328990E+05  7.310421E+04  3.184177E+03  1.787471E+05  5.863837E+03 -8.732384E+03
       186   7  2.414436E+05  3.398346E+03 -3.270688E+04  1.242871E+05  1.320576E+04 -8.333060E+03
       186   8  2.625928E+05  6.668490E+03 -3.320441E+04  1.278329E+05  1.034112E+04 -8.422659E+03
       186   9  2.797147E+05  1.677185E+04 -3.133068E+04  1.367489E+05  7.348315E+03 -8.173007E+03
       186  10  6.249489E+05  1.467836E+05  5.468776E+04  2.317232E+05  2.408350E-08  1.319824E-08
       186  11  6.074695E+05  1.346222E+05  4.471691E+04  2.235540E+05 -1.226874E-09  4.245350E-09
       186  12  5.861077E+05  1.294386E+05  3.769761E+04  2.207551E+05 -2.926374E-08  1.133448E-10
       186  13  4.331777E+05  7.508943E+04  1.099141E+04  1.779976E+05 -1.615611E-09 -2.813241E-09
       186  14  4.350158E+05  7.064400E+04  5.756966E+03  1.756874E+05  6.610199E-09  7.754968E-09
       186  15  4.328989E+05  7.310412E+04  3.183969E+03  1.787472E+05  6.938304E-09  3.633479E-09
       186  16  2.414434E+05  3.398225E+03 -3.270733E+04  1.242872E+05 -1.823160E-08 -1.223866E-08
       186  17  2.625926E+05  6.668385E+03 -3.320474E+04  1.278330E+05  3.379886E-09 -6.740605E-09
       186  18  2.797146E+05  1.677177E+04 -3.133091E+04  1.367489E+05  2.250547E-08  8.257149E-09
       186  19  6.249491E+05  1.467838E+05  5.468816E+04  2.317231E+05 -1.170448E+04  8.898091E+03
       186  20  6.074696E+05  1.346223E+05  4.471719E+04  2.235540E+05 -8.105691E+03  9.264620E+03
       186  21  5.861078E+05  1.294387E+05  3.769781E+04  2.207551E+05 -4.378953E+03  9.291912E+03
       186  22  4.331779E+05  7.508955E+04  1.099184E+04  1.779975E+05 -1.245525E+04  8.615527E+03
       186  23  4.350159E+05  7.064411E+04  5.757273E+03  1.756873E+05 -9.223576E+03  8.843575E+03
       186  24  4.328990E+05  7.310421E+04  3.184177E+03  1.787471E+05 -5.863837E+03  8.732384E+03
       186  25  2.414436E+05  3.398346E+03 -3.270688E+04  1.242871E+05 -1.320576E+04  8.333060E+03
       186  26  2.625928E+05  6.668490E+03 -3.320441E+04  1.278329E+05 -1.034112E+04  8.422659E+03
       186  27  2.797147E+05  1.677185E+04 -3.133068E+04  1.367489E+05 -7.348315E+03  8.173007E+03
       187   1  5.710153E+05  1.243387E+05  3.349541E+04  2.168301E+05  3.725684E+03 -8.636876E+03
       187   2  5.538837E+05  1.145237E+05  2.805905E+04  2.085744E+05  2.555282E+03 -7.597455E+03
       187   3  5.318570E+05  1.098354E+05  2.315498E+04  2.060411E+05  1.379072E+03 -6.543142E+03
       187   4  4.327664E+05  7.324065E+04  2.411307E+03  1.786254E+05  5.116872E+03 -8.112589E+03
       187   5  4.352119E+05  7.064771E+04  1.334002E+03  1.757762E+05  3.962716E+03 -7.066932E+03
       187   6  4.327590E+05  7.317853E+04  7.763300E+02  1.786495E+05  2.802733E+03 -6.006390E+03
       187   7  2.945358E+05  2.214369E+04 -2.867426E+04  1.404283E+05  6.507732E+03 -7.588424E+03
       187   8  3.165537E+05  2.677269E+04 -2.539205E+04  1.429836E+05  5.369864E+03 -6.536517E+03
       187   9  3.336708E+05  3.652243E+04 -2.160295E+04  1.512618E+05  4.226148E+03 -5.469731E+03
       187  10  5.710153E+05  1.243387E+05  3.349524E+04  2.168302E+05  9.328862E-09  8.164873E-09
       187  11  5.538837E+05  1.145236E+05  2.805892E+04  2.085744E+05  3.218408E-09  1.601052E-09
       187  12  5.318569E+05  1.098353E+05  2.315489E+04  2.060411E+05  7.097243E-09  1.826026E-09
       187  13  4.327663E+05  7.324057E+04  2.411134E+03  1.786255E+05  7.697218E-09 -4.247278E-11
       187  14  4.352118E+05  7.064765E+04  1.333879E+03  1.757762E+05  5.977949E-09  4.127590E-09
       187  15  4.327589E+05  7.317848E+04  7.762474E+02  1.786495E+05 -1.195680E-09  6.149784E-09
       187  16  2.945357E+05  2.214362E+04 -2.867444E+04  1.404283E+05 -7.392579E-09 -3.034222E-09
       187  17  3.165537E+05  2.677264E+04 -2.539218E+04  1.429837E+05 -9.736832E-09  1.434562E-09
       187  18  3.336708E+05  3.652239E+04 -2.160304E+04  1.512619E+05  3.596745E-09 -1.086917E-09
       187  19  5.710153E+05  1.243387E+05  3.349541E+04  2.168301E+05 -3.725684E+03  8.636876E+03
       187  20  5.538837E+05  1.145237E+05  2.805905E+04  2.085744E+05 -2.555282E+03  7.597455E+03
       187  21  5.318570E+05  1.098354E+05  2.315498E+04  2.060411E+05 -1.379072E+03  6.543142E+03
       187  22  4.327664E+05  7.324065E+04  2.411307E+03  1.786254E+05 -5.116872E+03  8.112589E+03
       187  23  4.352119E+05  7.064771E+04  1.334002E+03  1.757762E+05 -3.962716E+03  7.066932E+03
       187  24  4.327590E+05  7.317853E+04  7.763300E+02  1.786495E+05 -2.802733E+03  6.006390E+03
       187  25  2.945358E+05  2.214369E+04 -2.867426E+04  1.404283E+05 -6.507732E+03  7.588424E+03
       187  26  3.165537E+05  2.677269E+04 -2.539205E+04  1.429836E+05 -5.369864E+03  6.536517E+03
       187  27  3.336708E+05  3.652243E+04 -2.160295E+04  1.512618E+05 -4.226148E+03  5.469731E+03
       188   1  5.171699E+05  1.044013E+05  1.956500E+04  2.019938E+05  9.801534E+02 -5.817862E+03
       188   2  5.001388E+05  9.469161E+04  1.505453E+04  1.937457E+05  2.679005E+02 -4.586021E+03
       188   3  4.781297E+05  9.000067E+04  1.070677E+04  1.912041E+05 -4.443949E+02 -3.354305E+03
       188   4  4.327452E+05  7.317960E+04  6.158249E+02  1.786370E+05  2.398157E+03 -5.283194E+03
       188   5  4.352351E+05  7.067140E+04  4.361281E+02  1.757835E+05  1.685791E+03 -4.051339E+03
       188   6  4.327465E+05  7.318199E+04  4.192268E+02  1.786365E+05  9.733708E+02 -2.819608E+03
       188   7  3.483281E+05  4.195867E+04 -1.833365E+04  1.552832E+05  3.815944E+03 -4.748607E+03
       188   8  3.703356E+05  4.665151E+04 -1.418254E+04  1.578230E+05  3.103520E+03 -3.516718E+03
       188   9  3.873652E+05  5.636338E+04 -9.868524E+03  1.660697E+05  2.391033E+03 -2.284950E+03
       188  10  5.171699E+05  1.044012E+05  1.956493E+04  2.019938E+05 -1.393007E-08 -8.940800E-09
       188  11  5.001388E+05  9.469158E+04  1.505450E+04  1.937457E+05 -6.947300E-09 -6.029764E-09
       188  12  4.781297E+05  9.000066E+04  1.070675E+04  1.912041E+05  2.862676E-09  2.662164E-09
       188  13  4.327451E+05  7.317956E+04  6.157616E+02  1.786370E+05  1.754726E-09  8.199254E-09
       188  14  4.352351E+05  7.067138E+04  4.360919E+02  1.757835E+05 -8.734322E-09  9.745178E-09
       188  15  4.327465E+05  7.318199E+04  4.192101E+02  1.786365E+05 -3.939235E-10 -2.638069E-09
       188  16  3.483281E+05  4.195864E+04 -1.833372E+04  1.552832E+05  1.168728E-08  1.046295E-08
       188  17  3.703356E+05  4.665150E+04 -1.418258E+04  1.578230E+05  5.674655E-09  1.166606E-08
       188  18  3.873652E+05  5.636337E+04 -9.868544E+03  1.660697E+05  4.262689E-09 -6.017637E-09
       188  19  5.171699E+05  1.044013E+05  1.956500E+04  2.019938E+05 -9.801534E+02  5.817862E+03
       188  20  5.001388E+05  9.469161E+04  1.505453E+04  1.937457E+05 -2.679005E+02  4.586021E+03
       188  21  4.781297E+05  9.000067E+04  1.070677E+04  1.912041E+05  4.443949E+02  3.354305E+03
       188  22  4.327452E+05  7.317960E+04  6.158249E+02  1.786370E+05 -2.398157E+03  5.283194E+03
       188  23  4.352351E+05  7.067140E+04  4.361281E+02  1.757835E+05 -1.685791E+03  4.051339E+03
       188  24  4.327465E+05  7.318199E+04  4.192268E+02  1.786365E+05 -9.733708E+02  2.819608E+03
       188  25  3.483281E+05  4.195867E+04 -1.833365E+04  1.552832E+05 -3.815944E+03  4.748607E+03
       188  26  3.703356E+05  4.665151E+04 -1.418254E+04  1.578230E+05 -3.103520E+03  3.516718E+03
       188  27  3.873652E+05  5.636338E+04 -9.868524E+03  1.660697E+05 -2.391033E+03  2.284950E+03
       189   1  4.635019E+05  8.456494E+04  7.328378E+03  1.871652E+05 -8.057177E+02 -2.617571E+03
       189   2  4.464785E+05  7.486405E+04  3.227036E+03  1.789311E+05 -1.642559E+03 -1.433861E+03
       189   3  4.245003E+05  7.018304E+04 -6.177313E+02  1.764011E+05 -2.479138E+03 -2.507901E+02
       189   4  4.327517E+05  7.318149E+04  4.643433E+02  1.786363E+05  6.114081E+02 -2.083092E+03
       189   5  4.352290E+05  7.066913E+04  6.881954E+02  1.757852E+05 -2.261563E+02 -8.996463E+02
       189   6  4.327512E+05  7.317670E+04  1.169164E+03  1.786381E+05 -1.063468E+03  2.831554E+02
       189   7  4.020026E+05  6.179812E+04 -6.399740E+03  1.701077E+05  2.028458E+03 -1.548642E+03
       189   8  4.239797E+05  6.647424E+04 -1.850635E+03  1.726395E+05  1.190214E+03 -3.654442E+02
       189   9  4.410020E+05  7.617035E+04  2.956050E+03  1.808752E+05  3.522119E+02  8.171048E+02
       189  10  4.635019E+05  8.456494E+04  7.328363E+03  1.871652E+05 -2.402269E-08 -1.424436E-08
       189  11  4.464785E+05  7.486405E+04  3.227027E+03  1.789311E+05 -1.254863E-08 -1.056486E-08
       189  12  4.245003E+05  7.018304E+04 -6.177429E+02  1.764011E+05  5.729124E-09  2.992723E-09
       189  13  4.327517E+05  7.318149E+04  4.643345E+02  1.786363E+05 -8.435989E-09  5.040127E-10
       189  14  4.352290E+05  7.066913E+04  6.881938E+02  1.757852E+05 -4.107839E-09 -8.943691E-09
       189  15  4.327512E+05  7.317670E+04  1.169162E+03  1.786381E+05  1.647737E-09 -3.912473E-09
       189  16  4.020026E+05  6.179812E+04 -6.399752E+03  1.701077E+05  2.167534E-08 -2.043433E-10
       189  17  4.239797E+05  6.647424E+04 -1.850637E+03  1.726395E+05  5.839441E-09 -2.804682E-09
       189  18  4.410020E+05  7.617035E+04  2.956049E+03  1.808752E+05  2.033547E-09 -1.120328E-08
       189  19  4.635019E+05  8.456494E+04  7.328378E+03  1.871652E+05  8.057177E+02  2.617571E+03
       189  20  4.464785E+05  7.486405E+04  3.227036E+03  1.789311E+05  1.642559E+03  1.433861E+03
       189  21  4.245003E+05  7.018304E+04 -6.177313E+02  1.764011E+05  2.479138E+03  2.507901E+02
       189  22  4.327517E+05  7.318149E+04  4.643433E+02  1.786363E+05 -6.114081E+02  2.083092E+03
       189  23  4.352290E+05  7.066913E+04  6.881954E+02  1.757852E+05  2.261563E+02  8.996463E+02
       189  24  4.327512E+05  7.317670E+04  1.169164E+03  1.786381E+05  1.063468E+03 -2.831554E+02
       189  25  4.020026E+05  6.179812E+04 -6.399740E+03  1.701077E+05 -2.028458E+03  1.548642E+03
       189  26  4.239797E+05  6.647424E+04 -1.850635E+03  1.726395E+05 -1.190214E+03  3.654442E+02
       189  27  4.410020E+05  7.617035E+04  2.956050E+03  1.808752E+05 -3.522119E+02 -8.171048E+02
       190   1  4.098840E+05  6.476467E+04 -3.671478E+03  1.724091E+05 -2.995280E+03  4.280367E+02
       190   2  3.927600E+05  5.503633E+04 -6.784939E+03  1.641475E+05 -4.851480E+03  1.223451E+03
       190   3  3.708788E+05  5.052230E+04 -8.835662E+03  1.615947E+05 -6.703425E+03  2.007859E+03
       190   4  4.327883E+05  7.317004E+04  1.538231E+03  1.786581E+05 -1.576346E+03  9.632049E+02
       190   5  4.351751E+05  7.063045E+04  2.754939E+03  1.757776E+05 -3.444557E+03  1.754055E+03
       190   6  4.328070E+05  7.330766E+04  5.043953E+03  1.786058E+05 -5.308553E+03  2.533881E+03
       190   7  4.556933E+05  8.157550E+04  6.747954E+03  1.849074E+05 -1.573466E+02  1.498397E+03
       190   8  4.775921E+05  8.622476E+04  1.229475E+04  1.874084E+05 -2.037524E+03  2.284698E+03
       190   9  4.947390E+05  9.609332E+04  1.892334E+04  1.956184E+05 -3.913530E+03  3.059960E+03
       190  10  4.098840E+05  6.476467E+04 -3.671495E+03  1.724091E+05  6.181146E-09  6.601054E-09
       190  11  3.927600E+05  5.503632E+04 -6.784986E+03  1.641475E+05  2.718248E-09  5.924688E-10
       190  12  3.708788E+05  5.052228E+04 -8.835754E+03  1.615947E+05  6.276298E-10  5.984323E-10
       190  13  4.327883E+05  7.317004E+04  1.538225E+03  1.786581E+05  2.775957E-09  1.545791E-09
       190  14  4.351751E+05  7.063044E+04  2.754911E+03  1.757776E+05  4.315936E-09 -9.651179E-10
       190  15  4.328069E+05  7.330765E+04  5.043888E+03  1.786058E+05 -3.628535E-09 -1.338441E-09
       190  16  4.556933E+05  8.157550E+04  6.747950E+03  1.849074E+05  2.240292E-09 -6.075073E-09
       190  17  4.775921E+05  8.622475E+04  1.229473E+04  1.874085E+05 -5.628618E-09  5.478813E-09
       190  18  4.947390E+05  9.609330E+04  1.892329E+04  1.956185E+05 -6.527975E-10  2.063931E-09
       190  19  4.098840E+05  6.476467E+04 -3.671478E+03  1.724091E+05  2.995280E+03 -4.280367E+02
       190  20  3.927600E+05  5.503633E+04 -6.784939E+03  1.641475E+05  4.851480E+03 -1.223451E+03
       190  21  3.708788E+05  5.052230E+04 -8.835662E+03  1.615947E+05  6.703425E+03 -2.007859E+03
       190  22  4.327883E+05  7.317004E+04  1.538231E+03  1.786581E+05  1.576346E+03 -9.632049E+02
       190  23  4.351751E+05  7.063045E+04  2.754939E+03  1.757776E+05  3.444557E+03 -1.754055E+03
       190  24  4.328070E+05  7.330766E+04  5.043953E+03  1.786058E+05  5.308553E+03 -2.533881E+03
       190  25  4.556933E+05  8.157550E+04  6.747954E+03  1.849074E+05  1.573466E+02 -1.498397E+03
       190  26  4.775921E+05  8.622476E+04  1.229475E+04  1.874084E+05  2.037524E+03 -2.284698E+03
       190  27  4.947390E+05  9.609332E+04  1.892334E+04  1.956184E+05  3.913530E+03 -3.059960E+03
       191   1  3.560276E+05  4.527650E+04 -1.061992E+04  1.583532E+05 -8.003470E+03  2.407848E+03
       191   2  3.389916E+05  3.486318E+04 -9.592285E+03  1.487710E+05 -1.431878E+04  1.436593E+03
       191   3  3.191484E+05  3.335253E+04 -3.174146E+03  1.441379E+05 -2.054459E+04  2.289241E+02
       191   4  4.330916E+05  7.301909E+04  6.677008E+03  1.788587E+05 -6.543856E+03  2.958255E+03
       191   5  4.347659E+05  7.063549E+04  1.210075E+04  1.755943E+05 -1.311535E+04  1.890287E+03
       191   6  4.336829E+05  7.720459E+04  2.311720E+04  1.772787E+05 -1.959758E+04  5.858183E+02
       191   7  5.101610E+05  1.007619E+05  2.397343E+04  1.993663E+05 -5.084056E+03  3.508727E+03
       191   8  5.305494E+05  1.064086E+05  3.379320E+04  2.024215E+05 -1.191172E+04  2.344058E+03
       191   9  5.482313E+05  1.210582E+05  4.940787E+04  2.104253E+05 -1.865038E+04  9.427917E+02
       191  10  3.560276E+05  4.527648E+04 -1.062005E+04  1.583532E+05  1.380390E-09  4.478760E-10
       191  11  3.389914E+05  3.486312E+04 -9.592674E+03  1.487710E+05 -1.169217E-09  9.736666E-09
       191  12  3.191479E+05  3.335241E+04 -3.174939E+03  1.441379E+05 -1.147436E-08 -5.109186E-09
       191  13  4.330915E+05  7.301907E+04  6.676911E+03  1.788587E+05  4.981206E-09 -9.683135E-10
       191  14  4.347657E+05  7.063544E+04  1.210042E+04  1.755943E+05 -3.052675E-09  9.430025E-09
       191  15  4.336825E+05  7.720449E+04  2.311648E+04  1.772787E+05 -7.213973E-09  7.256224E-09
       191  16  5.101610E+05  1.007619E+05  2.397336E+04  1.993664E+05 -6.193034E-09  9.912842E-10
       191  17  5.305492E+05  1.064085E+05  3.379292E+04  2.024215E+05 -1.681542E-09  3.483353E-09
       191  18  5.482309E+05  1.210581E+05  4.940721E+04  2.104254E+05  1.148431E-10  1.001905E-09
       191  19  3.560276E+05  4.527650E+04 -1.061992E+04  1.583532E+05  8.003470E+03 -2.407848E+03
       191  20  3.389916E+05  3.486318E+04 -9.592285E+03  1.487710E+05  1.431878E+04 -1.436593E+03
       191  21  3.191484E+05  3.335253E+04 -3.174146E+03  1.441379E+05  2.054459E+04 -2.289241E+02
       191  22  4.330916E+05  7.301909E+04  6.677008E+03  1.788587E+05  6.543856E+03 -2.958255E+03
       191  23  4.347659E+05  7.063549E+04  1.210075E+04  1.755943E+05  1.311535E+04 -1.890287E+03
       191  24  4.336829E+05  7.720459E+04  2.311720E+04  1.772787E+05  1.959758E+04 -5.858183E+02
       191  25  5.101610E+05  1.007619E+05  2.397343E+04  1.993663E+05  5.084056E+03 -3.508727E+03
       191  26  5.305494E+05  1.064086E+05  3.379320E+04  2.024215E+05  1.191172E+04 -2.344058E+03
       191  27  5.482313E+05  1.210582E+05  4.940787E+04  2.104253E+05  1.865038E+04 -9.427917E+02
       192   1  2.980436E+05  3.112574E+04  8.931894E+01  1.559983E+05 -2.586516E+04 -5.617856E+02
       192   2  2.930562E+05  5.645159E+03  1.857121E+04  1.152484E+05 -4.898064E+04 -9.671452E+03
       192   3  3.164413E+05  6.516261E+04  7.630610E+04  5.939131E+04 -7.025032E+04 -2.367546E+04
       192   4  4.374354E+05  7.041802E+04  2.961958E+04  1.818385E+05 -2.360166E+04  2.920281E+02
       192   5  4.294127E+05  7.450707E+04  5.367630E+04  1.716299E+05 -5.200730E+04 -1.081430E+04
       192   6  4.507988E+05  1.646250E+05  1.211701E+05  1.463170E+05 -7.856722E+04 -2.681713E+04
       192   7  5.768473E+05  1.097103E+05  5.914898E+04  2.076831E+05 -2.133761E+04  1.145940E+03
       192   8  5.657873E+05  1.433749E+05  8.877965E+04  2.280237E+05 -5.503465E+04 -1.195763E+04
       192   9  5.851770E+05  2.641079E+05  1.660322E+05  2.332627E+05 -8.688588E+04 -2.996109E+04
       192  10  2.980429E+05  3.112556E+04  8.806175E+01  1.559983E+05  1.210286E-08  4.705992E-09
       192  11  2.930536E+05  5.644415E+03  1.856653E+04  1.152480E+05  2.035449E-08  3.839820E-09
       192  12  3.164358E+05  6.516069E+04  7.629578E+04  5.938997E+04 -1.717757E-10  1.166971E-09
       192  13  4.374348E+05  7.041787E+04  2.961853E+04  1.818385E+05 -1.716235E-09  6.588061E-09
       192  14  4.294097E+05  7.450622E+04  5.367100E+04  1.716295E+05  1.072781E-08  7.974244E-09
       192  15  4.507920E+05  1.646226E+05  1.211571E+05  1.463153E+05  4.073068E-09 -4.186952E-09
       192  16  5.768468E+05  1.097102E+05  5.914813E+04  2.076831E+05 -2.007453E-08 -4.909500E-09
       192  17  5.657841E+05  1.433740E+05  8.877369E+04  2.280232E+05 -4.180979E-09  1.983228E-09
       192  18  5.851687E+05  2.641049E+05  1.660164E+05  2.332606E+05  6.213007E-09  5.895721E-09
       192  19  2.980436E+05  3.112574E+04  8.931894E+01  1.559983E+05  2.586516E+04  5.617856E+02
       192  20  2.930562E+05  5.645159E+03  1.857121E+04  1.152484E+05  4.898064E+04  9.671452E+03
       192  21  3.164413E+05  6.516261E+04  7.630610E+04  5.939131E+04  7.025032E+04  2.367546E+04
       192  22  4.374354E+05  7.041802E+04  2.961958E+04  1.818385E+05  2.360166E+04 -2.920281E+02
       192  23  4.294127E+05  7.450707E+04  5.367630E+04  1.716299E+05  5.200730E+04  1.081430E+04
       192  24  4.507988E+05  1.646250E+05  1.211701E+05  1.463170E+05  7.856722E+04  2.681713E+04
       192  25  5.768473E+05  1.097103E+05  5.914898E+04  2.076831E+05  2.133761E+04 -1.145940E+03
       192  26  5.657873E+05  1.433749E+05  8.877965E+04  2.280237E+05  5.503465E+04  1.195763E+04
       192  27  5.851770E+05  2.641079E+05  1.660322E+05  2.332627E+05  8.688588E+04  2.996109E+04
       193   1 -1.005804E+04 -2.512121E+05 -1.194990E+04  6.350869E+04  9.057774E+02 -1.946235E+03
       193   2  1.805992E+04 -1.647242E+05  1.107127E+04  4.537753E+04  4.678117E+03  1.646464E+03
       193   3  3.925677E+04 -8.034875E+04  3.003937E+04  5.856901E+04  9.485411E+03  5.241146E+03
       193   4 -7.586489E+03 -2.418472E+05 -8.998729E+03  5.963976E+04  9.085860E+02 -5.307316E+03
       193   5 -3.516979E+02 -2.408813E+05 -4.827597E+03  4.398166E+04  4.681999E+03 -2.782742E+03
       193   6  1.472687E+02 -2.418504E+05 -3.967588E+03  5.964680E+04  9.490431E+03 -2.566693E+02
       193   7 -5.114880E+03 -2.324822E+05 -6.047512E+03  5.577078E+04  9.114366E+02 -8.668448E+03
       193   8 -1.876367E+04 -3.170328E+05 -2.072671E+04  4.258597E+04  4.685902E+03 -7.211413E+03
       193   9 -3.896389E+04 -4.033273E+05 -3.797590E+04  6.072432E+04  9.495432E+03 -5.753077E+03
       193  10 -1.005805E+04 -2.512121E+05 -1.194991E+04  6.350869E+04 -2.843712E-09  1.229132E-09
       193  11  1.805989E+04 -1.647242E+05  1.107122E+04  4.537752E+04 -3.858458E-09  1.496539E-09
       193  12  3.925666E+04 -8.034881E+04  3.003915E+04  5.856897E+04  1.041988E-09 -3.688787E-09
       193  13 -7.586497E+03 -2.418473E+05 -8.998783E+03  5.963977E+04 -3.448466E-09 -5.201397E-09
       193  14 -3.517235E+02 -2.408813E+05 -4.827653E+03  4.398167E+04 -6.813876E-09  1.034310E-09
       193  15  1.471719E+02 -2.418504E+05 -3.967757E+03  5.964681E+04  3.960586E-09  7.093649E-12
       193  16 -5.114901E+03 -2.324823E+05 -6.047655E+03  5.577079E+04 -6.877639E-10 -3.784769E-09
       193  17 -1.876370E+04 -3.170329E+05 -2.072685E+04  4.258600E+04 -5.527327E-10 -1.308024E-10
       193  18 -3.896400E+04 -4.033273E+05 -3.797613E+04  6.072436E+04 -5.545958E-09  1.839067E-09
       193  19 -1.005804E+04 -2.512121E+05 -1.194990E+04  6.350869E+04 -9.057774E+02  1.946235E+03
       193  20  1.805992E+04 -1.647242E+05  1.107127E+04  4.537753E+04 -4.678117E+03 -1.646464E+03
       193  21  3.925677E+04 -8.034875E+04  3.003937E+04  5.856901E+04 -9.485411E+03 -5.241146E+03
       193  22 -7.586489E+03 -2.418472E+05 -8.998729E+03  5.963976E+04 -9.085860E+02  5.307316E+03
       193  23 -3.516979E+02 -2.408813E+05 -4.827597E+03  4.398166E+04 -4.681999E+03  2.782742E+03
       193  24  1.472687E+02 -2.418504E+05 -3.967588E+03  5.964680E+04 -9.490431E+03  2.566693E+02
       193  25 -5.114880E+03 -2.324822E+05 -6.047512E+03  5.577078E+04 -9.114366E+02  8.668448E+03
       193  26 -1.876367E+04 -3.170328E+05 -2.072671E+04  4.258597E+04 -4.685902E+03  7.211413E+03
       193  27 -3.896389E+04 -4.033273E+05 -3.797590E+04  6.072432E+04 -9.495432E+03  5.753077E+03
       194   1  5.466060E+04 -1.458828E+04  4.421302E+04  5.987995E+04  1.264038E+04  5.830706E+03
       194   2  7.562094E+04  7.104304E+04  6.136589E+04  4.366590E+04  1.751640E+04  7.531375E+03
       194   3  9.502394E+04  1.561856E+05  7.704819E+04  5.876957E+04  2.163701E+04  9.233113E+03
       194   4 -3.915154E+02 -2.415663E+05 -4.042789E+03  5.964429E+04  1.264566E+04  4.067710E+02
       194   5 -1.066556E+02 -2.412589E+05 -4.942438E+03  4.398435E+04  1.752179E+04  2.885757E+03
       194   6 -1.514388E+03 -2.415828E+05 -7.853715E+03  5.964318E+04  2.164230E+04  5.365588E+03
       194   7 -5.544696E+04 -4.684957E+05 -5.230145E+04  5.940872E+04  1.265095E+04 -5.015211E+03
       194   8 -7.584057E+04 -5.534688E+05 -7.125626E+04  4.430266E+04  1.752717E+04 -1.757558E+03
       194   9 -9.806303E+04 -6.392022E+05 -9.276471E+04  6.051625E+04  2.164758E+04  1.500503E+03
       194  10  5.466042E+04 -1.458836E+04  4.421266E+04  5.987989E+04  7.320900E-10  4.136180E-09
       194  11  7.562060E+04  7.104290E+04  6.136520E+04  4.366579E+04 -8.323247E-10  2.833260E-09
       194  12  9.502341E+04  1.561854E+05  7.704715E+04  5.876941E+04 -2.838485E-09 -4.869565E-09
       194  13 -3.916871E+02 -2.415663E+05 -4.043090E+03  5.964428E+04 -2.148383E-10 -3.256513E-09
       194  14 -1.069874E+02 -2.412590E+05 -4.943031E+03  4.398431E+04 -1.584713E-09 -2.737664E-09
       194  15 -1.514899E+03 -2.415830E+05 -7.854649E+03  5.964308E+04 -9.685741E-09 -3.844171E-09
       194  16 -5.544714E+04 -4.684958E+05 -5.230179E+04  5.940877E+04 -8.810821E-09 -6.873066E-09
       194  17 -7.584090E+04 -5.534689E+05 -7.125684E+04  4.430268E+04 -3.488727E-09 -4.284407E-09
       194  18 -9.806353E+04 -6.392023E+05 -9.276559E+04  6.051623E+04 -1.977978E-09 -7.251223E-10
       194  19  5.466060E+04 -1.458828E+04  4.421302E+04  5.987995E+04 -1.264038E+04 -5.830706E+03
       194  20  7.562094E+04  7.104304E+04  6.136589E+04  4.366590E+04 -1.751640E+04 -7.531375E+03
       194  21  9.502394E+04  1.561856E+05  7.704819E+04  5.876957E+04 -2.163701E+04 -9.233113E+03
       194  22 -3.915154E+02 -2.415663E+05 -4.042789E+03  5.964429E+04 -1.264566E+04 -4.067710E+02
       194  23 -1.066556E+02 -2.412589E+05 -4.942438E+03  4.398435E+04 -1.752179E+04 -2.885757E+03
       194  24 -1.514388E+03 -2.415828E+05 -7.853715E+03  5.964318E+04 -2.164230E+04 -5.365588E+03
       194  25 -5.544696E+04 -4.684957E+05 -5.230145E+04  5.940872E+04 -1.265095E+04  5.015211E+03
       194  26 -7.584057E+04 -5.534688E+05 -7.125626E+04  4.430266E+04 -1.752717E+04  1.757558E+03
       194  27 -9.806303E+04 -6.392022E+05 -9.276471E+04  6.051625E+04 -2.164758E+04 -1.500503E+03
       195   1  1.134591E+05  2.205112E+05  8.888405E+04  6.302531E+04  2.579093E+04  1.519839E+04
       195   2  1.321738E+05  3.081069E+05  1.034639E+05  3.814089E+04  2.549994E+04  6.243113E+03
       195   3  1.278667E+05  3.913126E+05  1.181568E+05  4.369191E+04  8.225177E+03 -2.739704E+03
       195   4  1.034279E+03 -2.431086E+05 -9.678450E+03  5.945831E+04  2.580219E+04  6.738606E+03
       195   5 -1.286910E+03 -2.394018E+05 -1.627117E+04  4.421822E+04  2.548946E+04  1.531338E+04
       195   6 -2.968413E+04 -2.431402E+05 -3.492851E+04  5.941595E+04  8.185941E+03  2.386139E+04
       195   7 -1.114044E+05 -7.065257E+05 -1.082530E+05  5.589406E+04  2.581354E+04 -1.714959E+03
       195   8 -1.347674E+05 -7.866296E+05 -1.360241E+05  5.029021E+04  2.547915E+04  2.437574E+04
       195   9 -1.872631E+05 -8.772229E+05 -1.880398E+05  7.512400E+04  8.148034E+03  5.043540E+04
       195  10  1.134583E+05  2.205107E+05  8.888237E+04  6.302500E+04 -2.639041E-09 -6.412323E-09
       195  11  1.321731E+05  3.081067E+05  1.034626E+05  3.814076E+04  6.100764E-10 -7.305669E-09
       195  12  1.278666E+05  3.913125E+05  1.181566E+05  4.369193E+04  6.203876E-09 -3.529990E-09
       195  13  1.033552E+03 -2.431089E+05 -9.679786E+03  5.945817E+04 -1.562018E-08 -4.935926E-09
       195  14 -1.287670E+03 -2.394023E+05 -1.627283E+04  4.421790E+04 -9.998492E-10 -3.651251E-09
       195  15 -2.968436E+04 -2.431408E+05 -3.492971E+04  5.941580E+04  3.152053E-09 -8.953982E-10
       195  16 -1.114051E+05 -7.065259E+05 -1.082543E+05  5.589409E+04  5.784518E-10  3.188838E-09
       195  17 -1.347683E+05 -7.866305E+05 -1.360264E+05  5.028971E+04  9.776171E-10  1.552255E-09
       195  18 -1.872639E+05 -8.772256E+05 -1.880447E+05  7.512367E+04 -4.388722E-09  1.363422E-09
       195  19  1.134591E+05  2.205112E+05  8.888405E+04  6.302531E+04 -2.579093E+04 -1.519839E+04
       195  20  1.321738E+05  3.081069E+05  1.034639E+05  3.814089E+04 -2.549994E+04 -6.243113E+03
       195  21  1.278667E+05  3.913126E+05  1.181568E+05  4.369191E+04 -8.225177E+03  2.739704E+03
       195  22  1.034279E+03 -2.431086E+05 -9.678450E+03  5.945831E+04 -2.580219E+04 -6.738606E+03
       195  23 -1.286910E+03 -2.394018E+05 -1.627117E+04  4.421822E+04 -2.548946E+04 -1.531338E+04
       195  24 -2.968413E+04 -2.431402E+05 -3.492851E+04  5.941595E+04 -8.185941E+03 -2.386139E+04
       195  25 -1.114044E+05 -7.065257E+05 -1.082530E+05  5.589406E+04 -2.581354E+04  1.714959E+03
       195  26 -1.347674E+05 -7.866296E+05 -1.360241E+05  5.029021E+04 -2.547915E+04 -2.437574E+04
       195  27 -1.872631E+05 -8.772229E+05 -1.880398E+05  7.512400E+04 -8.148034E+03 -5.043540E+04
       196   1  6.204392E+04  1.115251E+05  1.000083E+05  2.177200E+04  1.359263E+04 -8.496060E+03
       196   2  1.652619E+04  1.254095E+05  8.917514E+04  2.945118E+04  8.609730E+02 -2.825473E+04
       196   3 -3.216224E+04  1.199003E+05  8.179736E+04  4.747675E+04 -1.188007E+04 -3.331930E+04
       196   4 -5.415288E+05 -3.760464E+04 -4.214032E+04  4.440767E+04 -2.931165E+04 -8.532646E+03
       196   5 -5.379053E+05 -7.385307E+03 -2.032830E+04  3.921590E+04 -1.876914E+04 -2.827549E+04
       196   6 -5.415026E+05 -6.118525E+02 -1.123183E+04  4.437137E+04 -8.237100E+03 -3.331772E+04
       196   7 -1.144761E+06 -1.867575E+05 -1.843069E+05  6.702113E+04 -7.217446E+04 -8.572380E+03
       196   8 -1.092041E+06 -1.401982E+05 -1.298453E+05  4.897164E+04 -3.838209E+04 -2.829689E+04
       196   9 -1.050591E+06 -1.211386E+05 -1.042714E+05  4.126853E+04 -4.597034E+03 -3.331617E+04
       196  10  6.204370E+04  1.115250E+05  1.000079E+05  2.177210E+04 -3.548205E-09 -7.743695E-10
       196  11  1.652597E+04  1.254086E+05  8.917364E+04  2.945120E+04 -4.480241E-09 -3.157664E-09
       196  12 -3.216269E+04  1.198991E+05  8.179500E+04  4.747643E+04 -4.654086E-09 -2.527390E-09
       196  13 -5.415298E+05 -3.760495E+04 -4.214207E+04  4.440747E+04 -2.011498E-10  7.592886E-10
       196  14 -5.379059E+05 -7.386260E+03 -2.033047E+04  3.921547E+04 -5.983793E-09 -9.782911E-10
       196  15 -5.415030E+05 -6.130624E+02 -1.123404E+04  4.437115E+04  1.254383E-09 -1.490039E-09
       196  16 -1.144767E+06 -1.867590E+05 -1.843168E+05  6.702063E+04 -1.789072E-09  8.635044E-10
       196  17 -1.092043E+06 -1.401995E+05 -1.298496E+05  4.897076E+04  2.516498E-09 -1.556410E-09
       196  18 -1.050591E+06 -1.211398E+05 -1.042736E+05  4.126840E+04 -5.688055E-10 -4.498496E-09
       196  19  6.204392E+04  1.115251E+05  1.000083E+05  2.177200E+04 -1.359263E+04  8.496060E+03
       196  20  1.652619E+04  1.254095E+05  8.917514E+04  2.945118E+04 -8.609730E+02  2.825473E+04
       196  21 -3.216224E+04  1.199003E+05  8.179736E+04  4.747675E+04  1.188007E+04  3.331930E+04
       196  22 -5.415288E+05 -3.760464E+04 -4.214032E+04  4.440767E+04  2.931165E+04  8.532646E+03
       196  23 -5.379053E+05 -7.385307E+03 -2.032830E+04  3.921590E+04  1.876914E+04  2.827549E+04
       196  24 -5.415026E+05 -6.118525E+02 -1.123183E+04  4.437137E+04  8.237100E+03  3.331772E+04
       196  25 -1.144761E+06 -1.867575E+05 -1.843069E+05  6.702113E+04  7.217446E+04  8.572380E+03
       196  26 -1.092041E+06 -1.401982E+05 -1.298453E+05  4.897164E+04  3.838209E+04  2.829689E+04
       196  27 -1.050591E+06 -1.211386E+05 -1.042714E+05  4.126853E+04  4.597034E+03  3.331617E+04
       197   1 -6.245241E+04  1.113636E+05  7.807472E+04  4.440861E+04 -8.362419E+03 -3.178403E+04
       197   2 -1.094286E+05  1.012520E+05  7.176260E+04  3.917826E+04 -7.908999E+03 -3.017744E+04
       197   3 -1.566667E+05  9.036110E+04  6.495887E+04  4.524742E+04 -7.457846E+03 -2.736445E+04
       197   4 -5.400252E+05 -1.513634E+03 -8.590046E+03  4.458843E+04 -6.770235E+03 -3.178436E+04
       197   5 -5.397203E+05 -1.368691E+02 -4.738101E+03  3.893741E+04 -4.407526E+03 -3.017508E+04
       197   6 -5.400108E+05  1.289237E+02 -2.704728E+03  4.458639E+04 -2.047017E+03 -2.735896E+04
       197   7 -1.017376E+06 -1.144037E+05 -9.526386E+04  4.476804E+04 -5.179240E+03 -3.178470E+04
       197   8 -9.698311E+05 -1.015359E+05 -8.124570E+04  3.869666E+04 -9.084094E+02 -3.017271E+04
       197   9 -9.232112E+05 -9.011129E+04 -7.037361E+04  4.392573E+04  3.360567E+03 -2.735348E+04
       197  10 -6.245276E+04  1.113625E+05  7.807269E+04  4.440839E+04 -8.000418E-09 -2.280029E-09
       197  11 -1.094289E+05  1.012510E+05  7.176077E+04  3.917807E+04 -3.655341E-09  1.642236E-09
       197  12 -1.566669E+05  9.036028E+04  6.495736E+04  4.524726E+04 -2.401202E-09  2.081065E-09
       197  13 -5.400255E+05 -1.514731E+03 -8.592030E+03  4.458826E+04 -1.455055E-11 -2.519362E-09
       197  14 -5.397206E+05 -1.378518E+02 -4.739848E+03  3.893730E+04 -1.536337E-09 -3.001934E-10
       197  15 -5.400110E+05  1.281191E+02 -2.706142E+03  4.458634E+04  7.165921E-10 -2.462950E-09
       197  16 -1.017376E+06 -1.144048E+05 -9.526581E+04  4.476791E+04  6.857733E-09 -2.274774E-09
       197  17 -9.698313E+05 -1.015369E+05 -8.124741E+04  3.869664E+04  1.037090E-08 -6.440868E-10
       197  18 -9.232114E+05 -9.011210E+04 -7.037504E+04  4.392580E+04 -4.219166E-09 -2.957453E-09
       197  19 -6.245241E+04  1.113636E+05  7.807472E+04  4.440861E+04  8.362419E+03  3.178403E+04
       197  20 -1.094286E+05  1.012520E+05  7.176260E+04  3.917826E+04  7.908999E+03  3.017744E+04
       197  21 -1.566667E+05  9.036110E+04  6.495887E+04  4.524742E+04  7.457846E+03  2.736445E+04
       197  22 -5.400252E+05 -1.513634E+03 -8.590046E+03  4.458843E+04  6.770235E+03  3.178436E+04
       197  23 -5.397203E+05 -1.368691E+02 -4.738101E+03  3.893741E+04  4.407526E+03  3.017508E+04
       197  24 -5.400108E+05  1.289237E+02 -2.704728E+03  4.458639E+04  2.047017E+03  2.735896E+04
       197  25 -1.017376E+06 -1.144037E+05 -9.526386E+04  4.476804E+04  5.179240E+03  3.178470E+04
       197  26 -9.698311E+05 -1.015359E+05 -8.124570E+04  3.869666E+04  9.084094E+02  3.017271E+04
       197  27 -9.232112E+05 -9.011129E+04 -7.037361E+04  4.392573E+04 -3.360567E+03  2.735348E+04
       198   1 -1.877763E+05  8.291970E+04  5.986609E+04  4.506491E+04 -6.877814E+03 -2.535913E+04
       198   2 -2.349405E+05  7.184424E+04  5.240279E+04  3.930339E+04 -6.456513E+03 -2.199596E+04
       198   3 -2.821825E+05  6.077333E+04  4.465918E+04  4.494094E+04 -6.036179E+03 -1.853191E+04
       198   4 -5.398980E+05  8.154379E+01 -2.057898E+03  4.460881E+04 -1.631761E+03 -2.535342E+04
       198   5 -5.398392E+05  1.208651E+02 -1.180875E+03  3.890908E+04 -1.051195E+03 -2.198942E+04
       198   6 -5.398883E+05  1.371081E+02 -6.950415E+02  4.460873E+04 -4.715666E+02 -1.852452E+04
       198   7 -8.918983E+05 -8.276338E+04 -6.398628E+04  4.415294E+04  3.611405E+03 -2.534772E+04
       198   8 -8.446469E+05 -7.160758E+04 -5.476780E+04  3.851493E+04  4.351546E+03 -2.198289E+04
       198   9 -7.975290E+05 -6.050273E+04 -4.605156E+04  4.427665E+04  5.090804E+03 -1.851714E+04
       198  10 -1.877765E+05  8.291900E+04  5.986479E+04  4.506477E+04 -2.306669E-08  1.164234E-09
       198  11 -2.349406E+05  7.184371E+04  5.240180E+04  3.930328E+04  1.907916E-08 -2.081231E-10
       198  12 -2.821827E+05  6.077295E+04  4.465846E+04  4.494085E+04  5.757074E-08  2.148229E-09
       198  13 -5.398982E+05  8.085300E+01 -2.059110E+03  4.460878E+04  3.769378E-10 -2.984487E-09
       198  14 -5.398394E+05  1.203457E+02 -1.181786E+03  3.890906E+04 -5.766624E-09  4.191152E-09
       198  15 -5.398884E+05  1.367397E+02 -6.956866E+02  4.460873E+04 -2.431303E-09  1.230551E-08
       198  16 -8.918984E+05 -8.276407E+04 -6.398751E+04  4.415301E+04  2.444057E-08 -2.733985E-09
       198  17 -8.446470E+05 -7.160810E+04 -5.476874E+04  3.851501E+04 -1.929112E-08 -7.335780E-10
       198  18 -7.975292E+05 -6.050311E+04 -4.605225E+04  4.427672E+04 -5.830556E-08  1.738084E-10
       198  19 -1.877763E+05  8.291970E+04  5.986609E+04  4.506491E+04  6.877814E+03  2.535913E+04
       198  20 -2.349405E+05  7.184424E+04  5.240279E+04  3.930339E+04  6.456513E+03  2.199596E+04
       198  21 -2.821825E+05  6.077333E+04  4.465918E+04  4.494094E+04  6.036179E+03  1.853191E+04
       198  22 -5.398980E+05  8.154379E+01 -2.057898E+03  4.460881E+04  1.631761E+03  2.535342E+04
       198  23 -5.398392E+05  1.208651E+02 -1.180875E+03  3.890908E+04  1.051195E+03  2.198942E+04
       198  24 -5.398883E+05  1.371081E+02 -6.950415E+02  4.460873E+04  4.715666E+02  1.852452E+04
       198  25 -8.918983E+05 -8.276338E+04 -6.398628E+04  4.415294E+04 -3.611405E+03  2.534772E+04
       198  26 -8.446469E+05 -7.160758E+04 -5.476780E+04  3.851493E+04 -4.351546E+03  2.198289E+04
       198  27 -7.975290E+05 -6.050273E+04 -4.605156E+04  4.427665E+04 -5.090804E+03  1.851714E+04
       199   1 -3.133943E+05  5.338527E+04  3.911327E+04  4.490016E+04 -5.915658E+03 -1.648480E+04
       199   2 -3.606419E+05  4.227389E+04  3.110099E+04  3.912454E+04 -5.760144E+03 -1.297297E+04
       199   3 -4.079358E+05  3.119588E+04  2.298563E+04  4.477072E+04 -5.605141E+03 -9.452064E+03
       199   4 -5.398729E+05  1.362221E+02 -5.426924E+02  4.461378E+04 -3.624055E+02 -1.647713E+04
       199   5 -5.398442E+05  1.241100E+02 -3.530034E+02  3.890278E+04 -1.928113E+02 -1.296491E+04
       199   6 -5.398673E+05  1.428051E+02 -2.764874E+02  4.461377E+04 -2.371592E+01 -9.443605E+03
       199   7 -7.663011E+05 -5.311560E+04 -4.020037E+04  4.432749E+04  5.188881E+03 -1.646946E+04
       199   8 -7.190150E+05 -4.202741E+04 -3.180804E+04  3.868107E+04  5.372962E+03 -1.295685E+04
       199   9 -6.717816E+05 -3.091121E+04 -2.353912E+04  4.445685E+04  5.556557E+03 -9.435147E+03
       199  10 -3.133944E+05  5.338497E+04  3.911269E+04  4.490008E+04  3.882562E-09  3.688027E-09
       199  11 -3.606420E+05  4.227370E+04  3.110061E+04  3.912447E+04 -1.321998E-08  6.056853E-09
       199  12 -4.079359E+05  3.119578E+04  2.298540E+04  4.477068E+04 -3.547321E-08  2.398606E-09
       199  13 -5.398730E+05  1.359306E+02 -5.432027E+02  4.461377E+04  8.161308E-12  1.213828E-08
       199  14 -5.398442E+05  1.239295E+02 -3.533192E+02  3.890277E+04 -6.058553E-09  1.126838E-08
       199  15 -5.398673E+05  1.427093E+02 -2.766549E+02  4.461377E+04 -3.803651E-09  8.895531E-10
       199  16 -7.663012E+05 -5.311590E+04 -4.020093E+04  4.432756E+04 -6.602025E-09  2.031232E-09
       199  17 -7.190150E+05 -4.202760E+04 -3.180841E+04  3.868113E+04  1.475021E-08  2.991866E-09
       199  18 -6.717816E+05 -3.091131E+04 -2.353935E+04  4.445689E+04  3.033098E-08 -2.841108E-10
       199  19 -3.133943E+05  5.338527E+04  3.911327E+04  4.490016E+04  5.915658E+03  1.648480E+04
       199  20 -3.606419E+05  4.227389E+04  3.110099E+04  3.912454E+04  5.760144E+03  1.297297E+04
       199  21 -4.079358E+05  3.119588E+04  2.298563E+04  4.477072E+04  5.605141E+03  9.452064E+03
       199  22 -5.398729E+05  1.362221E+02 -5.426924E+02  4.461378E+04  3.624055E+02  1.647713E+04
       199  23 -5.398442E+05  1.241100E+02 -3.530034E+02  3.890278E+04  1.928113E+02  1.296491E+04
       199  24 -5.398673E+05  1.428051E+02 -2.764874E+02  4.461377E+04  2.371592E+01  9.443605E+03
       199  25 -7.663011E+05 -5.311560E+04 -4.020037E+04  4.432749E+04 -5.188881E+03  1.646946E+04
       199  26 -7.190150E+05 -4.202741E+04 -3.180804E+04  3.868107E+04 -5.372962E+03  1.295685E+04
       199  27 -6.717816E+05 -3.091121E+04 -2.353912E+04  4.445685E+04 -5.556557E+03  9.435147E+03
       200   1 -4.391910E+05  2.380319E+04  1.728921E+04  4.473262E+04 -5.559052E+03 -7.399587E+03
       200   2 -4.864652E+05  1.268701E+04  9.037059E+03  3.894658E+04 -5.396713E+03 -3.875355E+03
       200   3 -5.337940E+05  1.601157E+03  6.747133E+02  4.459229E+04 -5.234522E+03 -3.551071E+02
       200   4 -5.398666E+05  1.445230E+02 -2.718497E+02  4.461595E+04  2.300894E+01 -7.390983E+03
       200   5 -5.398382E+05  1.334730E+02 -3.262980E+02  3.890004E+04  1.788667E+02 -3.866651E+03
       200   6 -5.398649E+05  1.541441E+02 -4.862961E+02  4.461594E+04  3.345884E+02 -3.463011E+02
       200   7 -6.405321E+05 -2.351468E+04 -1.783315E+04  4.449930E+04  5.604192E+03 -7.382380E+03
       200   8 -5.932084E+05 -1.242021E+04 -9.689641E+03  3.885351E+04  5.753981E+03 -3.857948E+03
       200   9 -5.459357E+05 -1.292854E+03 -1.647190E+03  4.463960E+04  5.903646E+03 -3.374946E+02
       200  10 -4.391910E+05  2.380313E+04  1.728905E+04  4.473259E+04 -3.449505E-08 -1.327262E-09
       200  11 -4.864652E+05  1.268699E+04  9.036976E+03  3.894656E+04 -6.372970E-09 -1.422408E-09
       200  12 -5.337940E+05  1.601149E+03  6.746615E+02  4.459229E+04  1.594165E-08  1.191848E-09
       200  13 -5.398666E+05  1.444643E+02 -2.719523E+02  4.461595E+04 -4.074982E-10  2.307894E-09
       200  14 -5.398382E+05  1.334569E+02 -3.263261E+02  3.890005E+04  4.906600E-09 -1.940309E-09
       200  15 -5.398649E+05  1.541439E+02 -4.862965E+02  4.461594E+04 -8.493050E-11 -1.258194E-09
       200  16 -6.405322E+05 -2.351475E+04 -1.783331E+04  4.449933E+04  3.046225E-08 -2.624547E-10
       200  17 -5.932085E+05 -1.242023E+04 -9.689731E+03  3.885353E+04  5.426608E-09 -3.849328E-09
       200  18 -5.459358E+05 -1.292864E+03 -1.647256E+03  4.463960E+04 -1.657639E-08 -3.532037E-09
       200  19 -4.391910E+05  2.380319E+04  1.728921E+04  4.473262E+04  5.559052E+03  7.399587E+03
       200  20 -4.864652E+05  1.268701E+04  9.037059E+03  3.894658E+04  5.396713E+03  3.875355E+03
       200  21 -5.337940E+05  1.601157E+03  6.747133E+02  4.459229E+04  5.234522E+03  3.551071E+02
       200  22 -5.398666E+05  1.445230E+02 -2.718497E+02  4.461595E+04 -2.300894E+01  7.390983E+03
       200  23 -5.398382E+05  1.334730E+02 -3.262980E+02  3.890004E+04 -1.788667E+02  3.866651E+03
       200  24 -5.398649E+05  1.541441E+02 -4.862961E+02  4.461594E+04 -3.345884E+02  3.463011E+02
       200  25 -6.405321E+05 -2.351468E+04 -1.783315E+04  4.449930E+04 -5.604192E+03  7.382380E+03
       200  26 -5.932084E+05 -1.242021E+04 -9.689641E+03  3.885351E+04 -5.753981E+03  3.857948E+03
       200  27 -5.459357E+05 -1.292854E+03 -1.647190E+03  4.463960E+04 -5.903646E+03  3.374946E+02
       201   1 -5.650708E+05 -5.792795E+03 -5.162684E+03  4.453964E+04 -5.146143E+03  1.696566E+03
       201   2 -6.123027E+05 -1.691214E+04 -1.381394E+04  3.874747E+04 -4.537713E+03  5.190049E+03
       201   3 -6.596619E+05 -2.806336E+04 -2.288141E+04  4.438248E+04 -3.929044E+03  8.621359E+03
       201   4 -5.398778E+05  1.580504E+02 -6.184427E+02  4.461488E+04  4.312568E+02  1.705374E+03
       201   5 -5.398229E+05  1.482824E+02 -1.041514E+03  3.890136E+04  9.411393E+02  5.198550E+03
       201   6 -5.398802E+05  1.238633E+02 -1.812327E+03  4.461494E+04  1.451305E+03  8.629561E+03
       201   7 -5.146841E+05  6.108877E+03  3.925891E+03  4.469011E+04  6.008877E+03  1.714182E+03
       201   8 -4.673378E+05  1.720843E+04  1.173083E+04  3.905526E+04  6.420613E+03  5.207053E+03
       201   9 -4.200844E+05  2.831032E+04  1.925634E+04  4.484743E+04  6.832662E+03  8.637766E+03
       201  10 -5.650708E+05 -5.792805E+03 -5.162739E+03  4.453965E+04 -2.343752E-08  3.363790E-09
       201  11 -6.123028E+05 -1.691217E+04 -1.381403E+04  3.874749E+04 -3.813149E-09 -1.846041E-09
       201  12 -6.596620E+05 -2.806344E+04 -2.288158E+04  4.438251E+04  2.782669E-08 -2.582599E-09
       201  13 -5.398778E+05  1.580472E+02 -6.184485E+02  4.461488E+04  4.299059E-09  9.576068E-10
       201  14 -5.398229E+05  1.482532E+02 -1.041567E+03  3.890135E+04 -3.522611E-09 -1.650028E-09
       201  15 -5.398802E+05  1.237828E+02 -1.812471E+03  4.461493E+04 -1.181293E-09 -3.195612E-09
       201  16 -5.146842E+05  6.108864E+03  3.925817E+03  4.469010E+04  2.353040E-08 -1.272213E-09
       201  17 -4.673378E+05  1.720839E+04  1.173070E+04  3.905523E+04  5.681697E-09 -8.139756E-09
       201  18 -4.200844E+05  2.831022E+04  1.925612E+04  4.484739E+04 -2.538609E-08 -4.690439E-09
       201  19 -5.650708E+05 -5.792795E+03 -5.162684E+03  4.453964E+04  5.146143E+03 -1.696566E+03
       201  20 -6.123027E+05 -1.691214E+04 -1.381394E+04  3.874747E+04  4.537713E+03 -5.190049E+03
       201  21 -6.596619E+05 -2.806336E+04 -2.288141E+04  4.438248E+04  3.929044E+03 -8.621359E+03
       201  22 -5.398778E+05  1.580504E+02 -6.184427E+02  4.461488E+04 -4.312568E+02 -1.705374E+03
       201  23 -5.398229E+05  1.482824E+02 -1.041514E+03  3.890136E+04 -9.411393E+02 -5.198550E+03
       201  24 -5.398802E+05  1.238633E+02 -1.812327E+03  4.461494E+04 -1.451305E+03 -8.629561E+03
       201  25 -5.146841E+05  6.108877E+03  3.925891E+03  4.469011E+04 -6.008877E+03 -1.714182E+03
       201  26 -4.673378E+05  1.720843E+04  1.173083E+04  3.905526E+04 -6.420613E+03 -5.207053E+03
       201  27 -4.200844E+05  2.831032E+04  1.925634E+04  4.484743E+04 -6.832662E+03 -8.637766E+03
       202   1 -6.910384E+05 -3.542690E+04 -2.918597E+04  4.417194E+04 -3.668388E+03  1.064857E+04
       202   2 -7.379203E+05 -4.681731E+04 -3.958613E+04  3.882273E+04 -4.000984E+02  1.374121E+04
       202   3 -7.855562E+05 -5.938709E+04 -5.242061E+04  4.484538E+04  2.869404E+03  1.607904E+04
       202   4 -5.399790E+05  1.684971E+02 -2.381294E+03  4.460225E+04  1.815782E+03  1.065677E+04
       202   5 -5.397079E+05 -6.216256E+01 -4.167774E+03  3.891749E+04  3.889982E+03  1.374723E+04
       202   6 -5.399861E+05 -1.264534E+03 -7.558441E+03  4.460441E+04  5.965654E+03  1.608301E+04
       202   7 -3.888971E+05  3.576265E+04  2.442264E+04  4.503265E+04  7.301248E+03  1.066497E+04
       202   8 -3.414571E+05  4.669082E+04  3.124916E+04  3.901227E+04  8.181394E+03  1.375326E+04
       202   9 -2.943572E+05  5.685462E+04  3.730133E+04  4.436331E+04  9.063095E+03  1.608698E+04
       202  10 -6.910385E+05 -3.542703E+04 -2.918620E+04  4.417197E+04  1.976198E-08  9.501002E-10
       202  11 -7.379203E+05 -4.681752E+04 -3.958648E+04  3.882273E+04  1.714701E-09  4.003032E-09
       202  12 -7.855563E+05 -5.938737E+04 -5.242112E+04  4.484535E+04 -2.455996E-08  7.070305E-09
       202  13 -5.399790E+05  1.683743E+02 -2.381514E+03  4.460223E+04 -8.323930E-12  1.193389E-10
       202  14 -5.397080E+05 -6.236951E+01 -4.168158E+03  3.891745E+04  2.934604E-09  3.955473E-09
       202  15 -5.399862E+05 -1.264821E+03 -7.558994E+03  4.460433E+04  3.246603E-09  3.493448E-09
       202  16 -3.888972E+05  3.576252E+04  2.442233E+04  4.503259E+04 -1.730630E-08 -2.361568E-09
       202  17 -3.414573E+05  4.669060E+04  3.124867E+04  3.901218E+04  9.217698E-11  2.027174E-09
       202  18 -2.943573E+05  5.685432E+04  3.730069E+04  4.436319E+04  2.342521E-08  3.114304E-10
       202  19 -6.910384E+05 -3.542690E+04 -2.918597E+04  4.417194E+04  3.668388E+03 -1.064857E+04
       202  20 -7.379203E+05 -4.681731E+04 -3.958613E+04  3.882273E+04  4.000984E+02 -1.374121E+04
       202  21 -7.855562E+05 -5.938709E+04 -5.242061E+04  4.484538E+04 -2.869404E+03 -1.607904E+04
       202  22 -5.399790E+05  1.684971E+02 -2.381294E+03  4.460225E+04 -1.815782E+03 -1.065677E+04
       202  23 -5.397079E+05 -6.216256E+01 -4.167774E+03  3.891749E+04 -3.889982E+03 -1.374723E+04
       202  24 -5.399861E+05 -1.264534E+03 -7.558441E+03  4.460441E+04 -5.965654E+03 -1.608301E+04
       202  25 -3.888971E+05  3.576265E+04  2.442264E+04  4.503265E+04 -7.301248E+03 -1.066497E+04
       202  26 -3.414571E+05  4.669082E+04  3.124916E+04  3.901227E+04 -8.181394E+03 -1.375326E+04
       202  27 -2.943572E+05  5.685462E+04  3.730133E+04  4.436331E+04 -9.063095E+03 -1.608698E+04
       203   1 -8.184799E+05 -6.615670E+04 -6.087510E+04  4.179471E+04  2.875923E+03  1.781066E+04
       203   2 -8.613069E+05 -8.397325E+04 -8.227348E+04  4.770530E+04  2.669395E+04  1.600943E+04
       203   3 -9.130561E+05 -1.249650E+05 -1.249892E+05  6.440406E+04  5.052116E+04  5.006282E+03
       203   4 -5.412863E+05 -4.677655E+02 -9.883331E+03  4.446808E+04  7.255230E+03  1.781625E+04
       203   5 -5.381008E+05 -6.430763E+03 -1.788459E+04  3.909590E+04  1.651650E+04  1.599450E+04
       203   6 -5.413048E+05 -3.303312E+04 -3.708156E+04  4.451249E+04  2.578895E+04  4.972166E+03
       203   7 -2.640181E+05  6.521682E+04  4.110535E+04  4.714264E+04  1.163644E+04  1.782187E+04
       203   8 -2.147943E+05  7.110567E+04  4.649951E+04  3.048189E+04  6.333849E+03  1.597987E+04
       203   9 -1.694240E+05  5.889073E+04  5.081902E+04  2.460888E+04  1.041991E+03  4.939648E+03
       203  10 -8.184800E+05 -6.615704E+04 -6.087572E+04  4.179467E+04  6.770938E-09  4.124124E-09
       203  11 -8.613077E+05 -8.397371E+04 -8.227530E+04  4.770495E+04 -7.599530E-10 -3.053289E-09
       203  12 -9.130589E+05 -1.249657E+05 -1.249940E+05  6.440386E+04 -1.919143E-09 -1.514344E-09
       203  13 -5.412865E+05 -4.681204E+02 -9.884026E+03  4.446797E+04 -4.236349E-10  5.550978E-09
       203  14 -5.381011E+05 -6.431111E+03 -1.788558E+04  3.909569E+04  9.695827E-09 -2.782858E-09
       203  15 -5.413055E+05 -3.303332E+04 -3.708285E+04  4.451238E+04 -4.589420E-09  1.217840E-09
       203  16 -2.640183E+05  6.521645E+04  4.110450E+04  4.714247E+04  7.237675E-10  3.541470E-09
       203  17 -2.147944E+05  7.110538E+04  4.649895E+04  3.048181E+04  2.864423E-09  3.230074E-09
       203  18 -1.694240E+05  5.889070E+04  5.081897E+04  2.460887E+04  2.437392E-09  3.055403E-10
       203  19 -8.184799E+05 -6.615670E+04 -6.087510E+04  4.179471E+04 -2.875923E+03 -1.781066E+04
       203  20 -8.613069E+05 -8.397325E+04 -8.227348E+04  4.770530E+04 -2.669395E+04 -1.600943E+04
       203  21 -9.130561E+05 -1.249650E+05 -1.249892E+05  6.440406E+04 -5.052116E+04 -5.006282E+03
       203  22 -5.412863E+05 -4.677655E+02 -9.883331E+03  4.446808E+04 -7.255230E+03 -1.781625E+04
       203  23 -5.381008E+05 -6.430763E+03 -1.788459E+04  3.909590E+04 -1.651650E+04 -1.599450E+04
       203  24 -5.413048E+05 -3.303312E+04 -3.708156E+04  4.451249E+04 -2.578895E+04 -4.972166E+03
       203  25 -2.640181E+05  6.521682E+04  4.110535E+04  4.714264E+04 -1.163644E+04 -1.782187E+04
       203  26 -2.147943E+05  7.110567E+04  4.649951E+04  3.048189E+04 -6.333849E+03 -1.597987E+04
       203  27 -1.694240E+05  5.889073E+04  5.081902E+04  2.460888E+04 -1.041991E+03 -4.939648E+03
       204   1 -3.415120E+04  9.254459E+04  8.391532E+04  1.342674E+04  2.555881E+03 -6.726001E+03
       204   2 -7.019851E+04  1.056457E+05  7.983527E+04  1.651172E+04 -4.148027E+03 -2.172707E+04
       204   3 -1.102821E+05  9.907844E+04  7.521778E+04  3.143334E+04 -1.086697E+04 -2.412939E+04
       204   4 -5.172187E+05 -2.720243E+04 -3.183058E+04  2.760398E+04 -2.195983E+04 -6.758001E+03
       204   5 -5.139290E+05 -2.044201E+03 -1.483751E+04  2.166560E+04 -1.415361E+04 -2.174235E+04
       204   6 -5.172014E+05  9.175679E+02 -8.465058E+03  2.756453E+04 -6.362685E+03 -2.412368E+04
       204   7 -1.000071E+06 -1.469653E+05 -1.475906E+05  4.177007E+04 -4.645654E+04 -6.791134E+03
       204   8 -9.574738E+05 -1.097468E+05 -1.095213E+05  2.681567E+04 -2.415214E+04 -2.175780E+04
       204   9 -9.239634E+05 -9.725369E+04 -9.215669E+04  2.369823E+04 -1.861296E+03 -2.411802E+04
       204  10 -3.415122E+04  9.254454E+04  8.391522E+04  1.342675E+04 -1.564082E-08  2.173742E-09
       204  11 -7.019865E+04  1.056452E+05  7.983435E+04  1.651165E+04  6.257745E-09  9.465531E-09
       204  12 -1.102823E+05  9.907779E+04  7.521646E+04  3.143313E+04  1.002932E-08  4.205622E-09
       204  13 -5.172192E+05 -2.720261E+04 -3.183157E+04  2.760386E+04 -8.256470E-09 -9.326910E-10
       204  14 -5.139294E+05 -2.044763E+03 -1.483878E+04  2.166535E+04  9.148414E-10 -4.865355E-09
       204  15 -5.172016E+05  9.169322E+02 -8.466227E+03  2.756440E+04 -3.695375E-09 -6.293958E-09
       204  16 -1.000073E+06 -1.469659E+05 -1.475948E+05  4.176982E+04  1.023403E-08  1.247414E-09
       204  17 -9.574745E+05 -1.097475E+05 -1.095233E+05  2.681524E+04 -6.340671E-09  6.550621E-09
       204  18 -9.239635E+05 -9.725431E+04 -9.215779E+04  2.369819E+04 -1.423654E-08  4.031865E-09
       204  19 -3.415120E+04  9.254459E+04  8.391532E+04  1.342674E+04 -2.555881E+03  6.726001E+03
       204  20 -7.019851E+04  1.056457E+05  7.983527E+04  1.651172E+04  4.148027E+03  2.172707E+04
       204  21 -1.102821E+05  9.907844E+04  7.521778E+04  3.143334E+04  1.086697E+04  2.412939E+04
       204  22 -5.172187E+05 -2.720243E+04 -3.183058E+04  2.760398E+04  2.195983E+04  6.758001E+03
       204  23 -5.139290E+05 -2.044201E+03 -1.483751E+04  2.166560E+04  1.415361E+04  2.174235E+04
       204  24 -5.172014E+05  9.175679E+02 -8.465058E+03  2.756453E+04  6.362685E+03  2.412368E+04
       204  25 -1.000071E+06 -1.469653E+05 -1.475906E+05  4.177007E+04  4.645654E+04  6.791134E+03
       204  26 -9.574738E+05 -1.097468E+05 -1.095213E+05  2.681567E+04  2.415214E+04  2.175780E+04
       204  27 -9.239634E+05 -9.725369E+04 -9.215669E+04  2.369823E+04  1.861296E+03  2.411802E+04
       205   1 -1.370916E+05  9.035282E+04  7.150808E+04  2.781737E+04 -6.612433E+03 -2.212732E+04
       205   2 -1.750400E+05  8.211222E+04  6.609463E+04  2.182292E+04 -5.559397E+03 -2.057883E+04
       205   3 -2.133555E+05  7.304592E+04  5.978374E+04  2.836306E+04 -4.508267E+03 -1.836269E+04
       205   4 -5.158513E+05 -1.052321E+03 -6.627793E+03  2.772901E+04 -5.213058E+03 -2.212615E+04
       205   5 -5.155954E+05  2.629689E+01 -3.649351E+03  2.146049E+04 -3.392032E+03 -2.057608E+04
       205   6 -5.158424E+05  1.454013E+02 -2.102577E+03  2.772699E+04 -1.572859E+03 -1.835819E+04
       205   7 -8.944748E+05 -9.246653E+04 -8.477139E+04  2.764066E+04 -3.814522E+03 -2.212498E+04
       205   8 -8.560406E+05 -8.206691E+04 -7.339947E+04  2.109821E+04 -1.225834E+03 -2.057334E+04
       205   9 -8.182423E+05 -7.276085E+04 -6.399372E+04  2.709121E+04  1.361144E+03 -1.835370E+04
       205  10 -1.370918E+05  9.035228E+04  7.150707E+04  2.781725E+04 -2.502820E-08  1.203042E-09
       205  11 -1.750401E+05  8.211176E+04  6.609377E+04  2.182282E+04  9.081382E-10  5.840484E-09
       205  12 -2.133556E+05  7.304555E+04  5.978307E+04  2.836299E+04  1.312459E-08  2.075167E-09
       205  13 -5.158514E+05 -1.052854E+03 -6.628764E+03  2.772892E+04  8.223834E-09 -2.825426E-10
       205  14 -5.155956E+05  2.583928E+01 -3.650169E+03  2.146043E+04  5.422117E-09 -1.464308E-08
       205  15 -5.158425E+05  1.450388E+02 -2.103215E+03  2.772697E+04 -3.762047E-09  9.817284E-10
       205  16 -8.944749E+05 -9.246706E+04 -8.477234E+04  2.764059E+04  2.372178E-08 -7.693855E-10
       205  17 -8.560407E+05 -8.206736E+04 -7.340027E+04  2.109819E+04 -2.538932E-09 -2.042165E-10
       205  18 -8.182424E+05 -7.276121E+04 -6.399435E+04  2.709123E+04 -1.156394E-08 -2.893191E-11
       205  19 -1.370916E+05  9.035282E+04  7.150808E+04  2.781737E+04  6.612433E+03  2.212732E+04
       205  20 -1.750400E+05  8.211222E+04  6.609463E+04  2.182292E+04  5.559397E+03  2.057883E+04
       205  21 -2.133555E+05  7.304592E+04  5.978374E+04  2.836306E+04  4.508267E+03  1.836269E+04
       205  22 -5.158513E+05 -1.052321E+03 -6.627793E+03  2.772901E+04  5.213058E+03  2.212615E+04
       205  23 -5.155954E+05  2.629689E+01 -3.649351E+03  2.146049E+04  3.392032E+03  2.057608E+04
       205  24 -5.158424E+05  1.454013E+02 -2.102577E+03  2.772699E+04  1.572859E+03  1.835819E+04
       205  25 -8.944748E+05 -9.246653E+04 -8.477139E+04  2.764066E+04  3.814522E+03  2.212498E+04
       205  26 -8.560406E+05 -8.206691E+04 -7.339947E+04  2.109821E+04  1.225834E+03  2.057334E+04
       205  27 -8.182423E+05 -7.276085E+04 -6.399372E+04  2.709121E+04 -1.361144E+03  1.835370E+04
       206   1 -2.411781E+05  6.620252E+04  5.439551E+04  2.817620E+04 -4.022351E+03 -1.689261E+04
       206   2 -2.794018E+05  5.701867E+04  4.731295E+04  2.180876E+04 -3.602525E+03 -1.446381E+04
       206   3 -3.177230E+05  4.784250E+04  3.994747E+04  2.806322E+04 -3.183386E+03 -1.199731E+04
       206   4 -5.157508E+05  6.257649E+01 -1.612499E+03  2.774686E+04 -1.247398E+03 -1.688816E+04
       206   5 -5.156950E+05  8.710403E+01 -9.436852E+02  2.143572E+04 -7.843923E+02 -1.445897E+04
       206   6 -5.157450E+05  1.120171E+02 -5.877256E+02  2.774677E+04 -3.220489E+02 -1.199206E+04
       206   7 -7.902518E+05 -6.608208E+04 -5.762445E+04  2.731769E+04  1.526351E+03 -1.688371E+04
       206   8 -7.519350E+05 -5.684795E+04 -4.920324E+04  2.106281E+04  2.032687E+03 -1.445412E+04
       206   9 -7.137298E+05 -4.762093E+04 -4.112498E+04  2.743041E+04  2.538392E+03 -1.198681E+04
       206  10 -2.411782E+05  6.620221E+04  5.439495E+04  2.817614E+04 -2.204450E-08 -6.051741E-09
       206  11 -2.794018E+05  5.701844E+04  4.731254E+04  2.180871E+04  9.107946E-09 -4.912296E-09
       206  12 -3.177230E+05  4.784235E+04  3.994718E+04  2.806319E+04  2.335115E-08 -2.701336E-09
       206  13 -5.157509E+05  6.226988E+01 -1.613038E+03  2.774685E+04  4.341785E-09 -4.568250E-09
       206  14 -5.156950E+05  8.687943E+01 -9.440791E+02  2.143571E+04  1.092930E-08 -4.385954E-09
       206  15 -5.157451E+05  1.118626E+02 -5.879960E+02  2.774677E+04  9.801280E-09 -1.273757E-09
       206  16 -7.902519E+05 -6.608239E+04 -5.762499E+04  2.731771E+04  2.236310E-08 -2.776229E-09
       206  17 -7.519351E+05 -5.684818E+04 -4.920364E+04  2.106283E+04 -1.948888E-09  5.203149E-09
       206  18 -7.137298E+05 -4.762108E+04 -4.112526E+04  2.743043E+04 -1.896726E-08  7.855651E-09
       206  19 -2.411781E+05  6.620252E+04  5.439551E+04  2.817620E+04  4.022351E+03  1.689261E+04
       206  20 -2.794018E+05  5.701867E+04  4.731295E+04  2.180876E+04  3.602525E+03  1.446381E+04
       206  21 -3.177230E+05  4.784250E+04  3.994747E+04  2.806322E+04  3.183386E+03  1.199731E+04
       206  22 -5.157508E+05  6.257649E+01 -1.612499E+03  2.774686E+04  1.247398E+03  1.688816E+04
       206  23 -5.156950E+05  8.710403E+01 -9.436852E+02  2.143572E+04  7.843923E+02  1.445897E+04
       206  24 -5.157450E+05  1.120171E+02 -5.877256E+02  2.774677E+04  3.220489E+02  1.199206E+04
       206  25 -7.902518E+05 -6.608208E+04 -5.762445E+04  2.731769E+04 -1.526351E+03  1.688371E+04
       206  26 -7.519350E+05 -5.684795E+04 -4.920324E+04  2.106281E+04 -2.032687E+03  1.445412E+04
       206  27 -7.137298E+05 -4.762093E+04 -4.112498E+04  2.743041E+04 -2.538392E+03  1.198681E+04
       207   1 -3.456945E+05  4.105986E+04  3.413616E+04  2.802147E+04 -3.082592E+03 -1.055124E+04
       207   2 -3.840261E+05  3.181743E+04  2.649992E+04  2.162778E+04 -2.899992E+03 -8.070008E+03
       207   3 -4.224268E+05  2.262180E+04  1.874186E+04  2.788809E+04 -2.717748E+03 -5.585473E+03
       207   4 -5.157351E+05  1.104553E+02 -4.856316E+02  2.775390E+04 -2.276983E+02 -1.054585E+04
       207   5 -5.156980E+05  9.209088E+01 -3.865255E+02  2.142682E+04 -4.141878E+01 -8.064427E+03
       207   6 -5.157320E+05  1.199532E+02 -4.118049E+02  2.775389E+04  1.445164E+02 -5.579701E+03
       207   7 -6.857482E+05 -4.084075E+04 -3.510891E+04  2.748640E+04  2.626428E+03 -1.054045E+04
       207   8 -6.473533E+05 -3.163433E+04 -2.727386E+04  2.122589E+04  2.816559E+03 -8.058848E+03
       207   9 -6.090288E+05 -2.238244E+04 -1.956590E+04  2.761971E+04  3.006358E+03 -5.573931E+03
       207  10 -3.456945E+05  4.105974E+04  3.413594E+04  2.802144E+04  1.320872E-08 -3.970536E-09
       207  11 -3.840261E+05  3.181736E+04  2.649978E+04  2.162776E+04 -1.986209E-09 -1.035142E-09
       207  12 -4.224268E+05  2.262176E+04  1.874179E+04  2.788807E+04 -3.154457E-08 -2.933887E-09
       207  13 -5.157352E+05  1.103359E+02 -4.858406E+02  2.775390E+04  4.333274E-09  1.630797E-09
       207  14 -5.156980E+05  9.202106E+01 -3.866477E+02  2.142682E+04  9.005306E-09 -4.126953E-09
       207  15 -5.157320E+05  1.199197E+02 -4.118634E+02  2.775389E+04  2.774701E-09  5.730677E-09
       207  16 -6.857483E+05 -4.084087E+04 -3.510914E+04  2.748642E+04 -1.174800E-08  2.977075E-09
       207  17 -6.473534E+05 -3.163440E+04 -2.727399E+04  2.122591E+04  3.193643E-10  6.056759E-09
       207  18 -6.090289E+05 -2.238247E+04 -1.956598E+04  2.761972E+04  2.314825E-08  5.140684E-09
       207  19 -3.456945E+05  4.105986E+04  3.413616E+04  2.802147E+04  3.082592E+03  1.055124E+04
       207  20 -3.840261E+05  3.181743E+04  2.649992E+04  2.162778E+04  2.899992E+03  8.070008E+03
       207  21 -4.224268E+05  2.262180E+04  1.874186E+04  2.788809E+04  2.717748E+03  5.585473E+03
       207  22 -5.157351E+05  1.104553E+02 -4.856316E+02  2.775390E+04  2.276983E+02  1.054585E+04
       207  23 -5.156980E+05  9.209088E+01 -3.865255E+02  2.142682E+04  4.141878E+01  8.064427E+03
       207  24 -5.157320E+05  1.199532E+02 -4.118049E+02  2.775389E+04 -1.445164E+02  5.579701E+03
       207  25 -6.857482E+05 -4.084075E+04 -3.510891E+04  2.748640E+04 -2.626428E+03  1.054045E+04
       207  26 -6.473533E+05 -3.163433E+04 -2.727386E+04  2.122589E+04 -2.816559E+03  8.058848E+03
       207  27 -6.090288E+05 -2.238244E+04 -1.956590E+04  2.761971E+04 -3.006358E+03  5.573931E+03
       208   1 -4.504594E+05  1.582916E+04  1.275708E+04  2.784407E+04 -2.641291E+03 -4.138181E+03
       208   2 -4.888160E+05  6.579612E+03  4.779147E+03  2.142868E+04 -2.295624E+03 -1.651225E+03
       208   3 -5.272691E+05 -2.627884E+03 -3.429368E+03  2.768077E+04 -1.950051E+03  8.349067E+02
       208   4 -5.157371E+05  1.206289E+02 -4.716678E+02  2.775685E+04  2.217474E+02 -4.132341E+03
       208   5 -5.156877E+05  1.049660E+02 -7.076684E+02  2.142309E+04  5.663497E+02 -1.645353E+03
       208   6 -5.157365E+05  1.314730E+02 -1.173651E+03  2.775684E+04  9.108791E+02  8.408158E+02
       208   7 -5.810107E+05 -1.558816E+04 -1.370061E+04  2.766965E+04  3.084490E+03 -4.126502E+03
       208   8 -5.425586E+05 -6.369721E+03 -6.194492E+03  2.141751E+04  3.428202E+03 -1.639481E+03
       208   9 -5.042038E+05  2.890826E+03  1.082091E+03  2.783290E+04  3.771861E+03  8.467256E+02
       208  10 -4.504594E+05  1.582914E+04  1.275704E+04  2.784406E+04  1.050298E-08 -2.776741E-09
       208  11 -4.888160E+05  6.579607E+03  4.779132E+03  2.142868E+04  4.475900E-09 -4.215919E-09
       208  12 -5.272691E+05 -2.627886E+03 -3.429376E+03  2.768077E+04 -2.051518E-08 -2.307940E-09
       208  13 -5.157371E+05  1.206106E+02 -4.716999E+02  2.775685E+04  3.906047E-09  1.125793E-08
       208  14 -5.156877E+05  1.049630E+02 -7.076741E+02  2.142309E+04  1.545184E-11 -1.227687E-10
       208  15 -5.157365E+05  1.314720E+02 -1.173654E+03  2.775684E+04  6.451620E-09 -4.090942E-10
       208  16 -5.810107E+05 -1.558818E+04 -1.370066E+04  2.766966E+04 -1.612645E-08  2.018676E-09
       208  17 -5.425586E+05 -6.369727E+03 -6.194519E+03  2.141751E+04 -2.257145E-09 -1.146945E-08
       208  18 -5.042038E+05  2.890822E+03  1.082063E+03  2.783290E+04  1.772197E-08 -6.415791E-09
       208  19 -4.504594E+05  1.582916E+04  1.275708E+04  2.784407E+04  2.641291E+03  4.138181E+03
       208  20 -4.888160E+05  6.579612E+03  4.779147E+03  2.142868E+04  2.295624E+03  1.651225E+03
       208  21 -5.272691E+05 -2.627884E+03 -3.429368E+03  2.768077E+04  1.950051E+03 -8.349067E+02
       208  22 -5.157371E+05  1.206289E+02 -4.716678E+02  2.775685E+04 -2.217474E+02  4.132341E+03
       208  23 -5.156877E+05  1.049660E+02 -7.076684E+02  2.142309E+04 -5.663497E+02  1.645353E+03
       208  24 -5.157365E+05  1.314730E+02 -1.173651E+03  2.775684E+04 -9.108791E+02 -8.408158E+02
       208  25 -5.810107E+05 -1.558816E+04 -1.370061E+04  2.766965E+04 -3.084490E+03  4.126502E+03
       208  26 -5.425586E+05 -6.369721E+03 -6.194492E+03  2.141751E+04 -3.428202E+03  1.639481E+03
       208  27 -5.042038E+05  2.890826E+03  1.082091E+03  2.783290E+04 -3.771861E+03 -8.467256E+02
       209   1 -5.553403E+05 -9.415264E+03 -9.712741E+03  2.760572E+04 -1.714134E+03  2.284093E+03
       209   2 -5.936007E+05 -1.865248E+04 -1.856490E+04  2.117965E+04 -3.855299E+02  4.764356E+03
       209   3 -6.321191E+05 -2.798323E+04 -2.832185E+04  2.741514E+04  9.432599E+02  7.219809E+03
       209   4 -5.157714E+05  1.404071E+02 -1.530127E+03  2.775542E+04  1.152321E+03  2.289992E+03
       209   5 -5.156457E+05  1.346934E+02 -2.637520E+03  2.142479E+04  2.452460E+03  4.770087E+03
       209   6 -5.157737E+05  4.065355E+01 -4.629623E+03  2.775564E+04  3.752864E+03  7.225380E+03
       209   7 -4.762010E+05  9.695983E+03  6.652433E+03  2.790513E+04  4.018956E+03  2.295892E+03
       209   8 -4.376849E+05  1.892149E+04  1.328957E+04  2.166997E+04  5.290800E+03  4.775821E+03
       209   9 -3.994154E+05  2.806369E+04  1.906192E+04  2.809620E+04  6.562985E+03  7.230953E+03
       209  10 -5.553403E+05 -9.415270E+03 -9.712756E+03  2.760573E+04 -5.731996E-09 -1.530434E-09
       209  11 -5.936007E+05 -1.865250E+04 -1.856494E+04  2.117965E+04  1.296413E-08 -7.318332E-09
       209  12 -6.321191E+05 -2.798328E+04 -2.832195E+04  2.741514E+04 -6.253151E-10 -2.414668E-09
       209  13 -5.157714E+05  1.404011E+02 -1.530140E+03  2.775542E+04  8.311945E-12  1.138688E-09
       209  14 -5.156457E+05  1.346674E+02 -2.637574E+03  2.142478E+04  8.606608E-09  5.650834E-10
       209  15 -5.157737E+05  4.059372E+01 -4.629748E+03  2.775562E+04  4.174470E-09  2.394157E-09
       209  16 -4.762010E+05  9.695973E+03  6.652392E+03  2.790512E+04  4.344567E-09  5.487252E-09
       209  17 -4.376849E+05  1.892146E+04  1.328947E+04  2.166995E+04 -1.882244E-09 -3.774024E-09
       209  18 -3.994154E+05  2.806362E+04  1.906174E+04  2.809616E+04  1.606835E-09  1.504676E-09
       209  19 -5.553403E+05 -9.415264E+03 -9.712741E+03  2.760572E+04  1.714134E+03 -2.284093E+03
       209  20 -5.936007E+05 -1.865248E+04 -1.856490E+04  2.117965E+04  3.855299E+02 -4.764356E+03
       209  21 -6.321191E+05 -2.798323E+04 -2.832185E+04  2.741514E+04 -9.432599E+02 -7.219809E+03
       209  22 -5.157714E+05  1.404071E+02 -1.530127E+03  2.775542E+04 -1.152321E+03 -2.289992E+03
       209  23 -5.156457E+05  1.346934E+02 -2.637520E+03  2.142479E+04 -2.452460E+03 -4.770087E+03
       209  24 -5.157737E+05  4.065355E+01 -4.629623E+03  2.775564E+04 -3.752864E+03 -7.225380E+03
       209  25 -4.762010E+05  9.695983E+03  6.652433E+03  2.790513E+04 -4.018956E+03 -2.295892E+03
       209  26 -4.376849E+05  1.892149E+04  1.328957E+04  2.166997E+04 -5.290800E+03 -4.775821E+03
       209  27 -3.994154E+05  2.806369E+04  1.906192E+04  2.809620E+04 -6.562985E+03 -7.230953E+03
       210   1 -6.604037E+05 -3.452718E+04 -3.567332E+04  2.684782E+04  1.773913E+03  8.687906E+03
       210   2 -6.979562E+05 -4.403173E+04 -4.802652E+04  2.135921E+04  7.577487E+03  1.100753E+04
       210   3 -7.370593E+05 -5.650439E+04 -6.491659E+04  2.848992E+04  1.338196E+04  1.287083E+04
       210   4 -5.160433E+05  2.883010E+02 -6.071434E+03  2.774456E+04  4.694046E+03  8.693591E+03
       210   5 -5.153165E+05  1.056378E+01 -1.057933E+04  2.143834E+04  9.973738E+03  1.101194E+04
       210   6 -5.160499E+05 -3.143558E+03 -1.925895E+04  2.775127E+04  1.525468E+04  1.287401E+04
       210   7 -3.716631E+05  3.510248E+04  2.352937E+04  2.864150E+04  7.614845E+03  8.699284E+03
       210   8 -3.326451E+05  4.405076E+04  2.686610E+04  2.151748E+04  1.237068E+04  1.101635E+04
       210   9 -2.949941E+05  5.021419E+04  2.639606E+04  2.701232E+04  1.712805E+04  1.287719E+04
       210  10 -6.604037E+05 -3.452726E+04 -3.567346E+04  2.684781E+04  1.760512E-08 -1.233576E-10
       210  11 -6.979563E+05 -4.403187E+04 -4.802685E+04  2.135915E+04 -1.330905E-09  6.463132E-09
       210  12 -7.370595E+05 -5.650462E+04 -6.491724E+04  2.848978E+04 -3.126503E-08 -9.612001E-10
       210  13 -5.160434E+05  2.882139E+02 -6.071617E+03  2.774452E+04  3.688780E-10 -4.337708E-09
       210  14 -5.153166E+05  1.040687E+01 -1.057975E+04  2.143826E+04  1.618511E-09  4.309838E-09
       210  15 -5.160502E+05 -3.143799E+03 -1.925970E+04  2.775111E+04  5.277330E-09  2.048888E-09
       210  16 -3.716632E+05  3.510238E+04  2.352912E+04  2.864144E+04 -1.853933E-08 -2.299295E-09
       210  17 -3.326453E+05  4.405059E+04  2.686558E+04  2.151737E+04  1.123606E-08 -4.417503E-09
       210  18 -2.949945E+05  5.021393E+04  2.639520E+04  2.701215E+04  2.408263E-08  3.404181E-09
       210  19 -6.604037E+05 -3.452718E+04 -3.567332E+04  2.684782E+04 -1.773913E+03 -8.687906E+03
       210  20 -6.979562E+05 -4.403173E+04 -4.802652E+04  2.135921E+04 -7.577487E+03 -1.100753E+04
       210  21 -7.370593E+05 -5.650439E+04 -6.491659E+04  2.848992E+04 -1.338196E+04 -1.287083E+04
       210  22 -5.160433E+05  2.883010E+02 -6.071434E+03  2.774456E+04 -4.694046E+03 -8.693591E+03
       210  23 -5.153165E+05  1.056378E+01 -1.057933E+04  2.143834E+04 -9.973738E+03 -1.101194E+04
       210  24 -5.160499E+05 -3.143558E+03 -1.925895E+04  2.775127E+04 -1.525468E+04 -1.287401E+04
       210  25 -3.716631E+05  3.510248E+04  2.352937E+04  2.864150E+04 -7.614845E+03 -8.699284E+03
       210  26 -3.326451E+05  4.405076E+04  2.686610E+04  2.151748E+04 -1.237068E+04 -1.101635E+04
       210  27 -2.949941E+05  5.021419E+04  2.639606E+04  2.701232E+04 -1.712805E+04 -1.287719E+04
       211   1 -7.691609E+05 -5.758523E+04 -7.595357E+04  1.738046E+04  1.460454E+04  1.470042E+04
       211   2 -7.970992E+05 -7.553061E+04 -1.044627E+05  3.756276E+04  4.715280E+04  1.391794E+04
       211   3 -8.459265E+05 -1.599018E+05 -1.707922E+05  6.995017E+04  7.971242E+04  4.513882E+03
       211   4 -5.199828E+05  2.600705E+03 -2.460794E+04  2.762518E+04  1.860149E+04  1.470766E+04
       211   5 -5.104168E+05 -5.953544E+03 -4.312643E+04  2.159413E+04  4.123375E+04  1.390565E+04
       211   6 -5.200099E+05 -7.919642E+04 -9.256471E+04  2.777050E+04  6.388005E+04  4.481103E+03
       211   7 -2.707454E+05  6.278311E+04  2.673447E+04  3.787406E+04  2.260002E+04  1.471502E+04
       211   8 -2.236562E+05  6.361914E+04  1.820537E+04  5.617972E+03  3.531199E+04  1.389366E+04
       211   9 -1.939914E+05  1.508118E+03 -1.434287E+04 -1.443148E+04  4.803938E+04  4.450487E+03
       211  10 -7.691612E+05 -5.758552E+04 -7.595437E+04  1.738029E+04 -2.216312E-09 -3.047117E-09
       211  11 -7.971017E+05 -7.553141E+04 -1.044673E+05  3.756223E+04  4.891244E-09 -3.597728E-09
       211  12 -8.459333E+05 -1.599035E+05 -1.708042E+05  6.994988E+04  1.733604E-09  9.596207E-10
       211  13 -5.199832E+05  2.600380E+03 -2.460899E+04  2.762496E+04  3.963876E-12  1.224713E-09
       211  14 -5.104186E+05 -5.954209E+03 -4.312999E+04  2.159367E+04 -6.459242E-09 -6.152154E-10
       211  15 -5.200143E+05 -7.919754E+04 -9.257243E+04  2.777026E+04 -5.172288E-09  3.159562E-09
       211  16 -2.707460E+05  6.278274E+04  2.673310E+04  3.787379E+04  3.389705E-09  3.103646E-09
       211  17 -2.236576E+05  6.361860E+04  1.820266E+04  5.617577E+03 -9.991477E-09  1.677997E-09
       211  18 -1.939939E+05  1.507476E+03 -1.434725E+04 -1.443165E+04  8.505194E-10 -5.395858E-10
       211  19 -7.691609E+05 -5.758523E+04 -7.595357E+04  1.738046E+04 -1.460454E+04 -1.470042E+04
       211  20 -7.970992E+05 -7.553061E+04 -1.044627E+05  3.756276E+04 -4.715280E+04 -1.391794E+04
       211  21 -8.459265E+05 -1.599018E+05 -1.707922E+05  6.995017E+04 -7.971242E+04 -4.513882E+03
       211  22 -5.199828E+05  2.600705E+03 -2.460794E+04  2.762518E+04 -1.860149E+04 -1.470766E+04
       211  23 -5.104168E+05 -5.953544E+03 -4.312643E+04  2.159413E+04 -4.123375E+04 -1.390565E+04
       211  24 -5.200099E+05 -7.919642E+04 -9.256471E+04  2.777050E+04 -6.388005E+04 -4.481103E+03
       211  25 -2.707454E+05  6.278311E+04  2.673447E+04  3.787406E+04 -2.260002E+04 -1.471502E+04
       211  26 -2.236562E+05  6.361914E+04  1.820537E+04  5.617972E+03 -3.531199E+04 -1.389366E+04
       211  27 -1.939914E+05  1.508118E+03 -1.434287E+04 -1.443148E+04 -4.803938E+04 -4.450487E+03
