    1C
    1UUSER                                                              
    1UDATE              11.october.2022                                 
    1UTIME              18:49:02                                        
    1UHOST                                                              
    1UPGM               CalculiX                                        
    1UVERSION           Version 2.20                             
    1UCOMPILETIME       Sun Jul 31 18:08:37 CEST 2022                    
    1UDIR                                                               
    1UDBN                                                               
    1UMAT    1MESH_MATERIAL                                             
    2C                           409                                     1
 -1         1 0.00000E+00 0.00000E+00 0.00000E+00
 -1         2 1.66667E-02 0.00000E+00 0.00000E+00
 -1         3 3.33333E-02 0.00000E+00 0.00000E+00
 -1         5 6.66667E-02 0.00000E+00 0.00000E+00
 -1         8 0.00000E+00 6.25000E-03 0.00000E+00
 -1         9 1.66667E-02 6.25000E-03 0.00000E+00
 -1        10 3.33333E-02 6.25000E-03 0.00000E+00
 -1        12 6.66667E-02 6.25000E-03 0.00000E+00
 -1        15 0.00000E+00 1.25000E-02 0.00000E+00
 -1        16 1.66667E-02 1.25000E-02 0.00000E+00
 -1        17 3.33333E-02 1.25000E-02 0.00000E+00
 -1        18 5.00000E-02 1.25000E-02 0.00000E+00
 -1        19 6.66667E-02 1.25000E-02 0.00000E+00
 -1        20 8.33333E-02 1.25000E-02 0.00000E+00
 -1        21 1.00000E-01 1.25000E-02 0.00000E+00
 -1        24 3.33333E-02 1.87500E-02 0.00000E+00
 -1        25 5.00000E-02 1.87500E-02 0.00000E+00
 -1        26 6.66667E-02 1.87500E-02 0.00000E+00
 -1        27 8.33333E-02 1.87500E-02 0.00000E+00
 -1        28 1.00000E-01 1.87500E-02 0.00000E+00
 -1        32 5.00000E-02 2.50000E-02 0.00000E+00
 -1        33 6.66667E-02 2.50000E-02 0.00000E+00
 -1        34 8.33333E-02 2.50000E-02 0.00000E+00
 -1        35 1.00000E-01 2.50000E-02 0.00000E+00
 -1        51 0.00000E+00 1.04167E-03 0.00000E+00
 -1        52 0.00000E+00 2.08333E-03 0.00000E+00
 -1        53 0.00000E+00 3.12500E-03 0.00000E+00
 -1        54 0.00000E+00 4.16667E-03 0.00000E+00
 -1        55 0.00000E+00 5.20833E-03 0.00000E+00
 -1        56 1.04167E-03 3.90630E-04 0.00000E+00
 -1        57 2.08333E-03 7.81250E-04 0.00000E+00
 -1        58 3.12500E-03 1.17188E-03 0.00000E+00
 -1        59 4.16667E-03 1.56250E-03 0.00000E+00
 -1        60 5.20833E-03 1.95312E-03 0.00000E+00
 -1        61 6.25000E-03 2.34375E-03 0.00000E+00
 -1        62 7.29167E-03 2.73438E-03 0.00000E+00
 -1        63 8.33333E-03 3.12500E-03 0.00000E+00
 -1        64 9.37500E-03 3.51563E-03 0.00000E+00
 -1        65 1.04167E-02 3.90625E-03 0.00000E+00
 -1        66 1.14583E-02 4.29688E-03 0.00000E+00
 -1        67 1.25000E-02 4.68750E-03 0.00000E+00
 -1        68 1.35417E-02 5.07813E-03 0.00000E+00
 -1        69 1.45833E-02 5.46875E-03 0.00000E+00
 -1        70 1.56250E-02 5.85938E-03 0.00000E+00
 -1        86 1.66667E-02 1.04167E-03 0.00000E+00
 -1        87 1.66667E-02 2.08333E-03 0.00000E+00
 -1        88 1.66667E-02 3.12500E-03 0.00000E+00
 -1        89 1.66667E-02 4.16667E-03 0.00000E+00
 -1        90 1.66667E-02 5.20833E-03 0.00000E+00
 -1       121 3.33333E-02 1.04167E-03 0.00000E+00
 -1       122 3.33333E-02 2.08333E-03 0.00000E+00
 -1       123 3.33333E-02 3.12500E-03 0.00000E+00
 -1       124 3.33333E-02 4.16667E-03 0.00000E+00
 -1       125 3.33333E-02 5.20833E-03 0.00000E+00
 -1       191 6.66667E-02 1.04167E-03 0.00000E+00
 -1       192 6.66667E-02 2.08333E-03 0.00000E+00
 -1       193 6.66667E-02 3.12500E-03 0.00000E+00
 -1       194 6.66667E-02 4.16667E-03 0.00000E+00
 -1       195 6.66667E-02 5.20833E-03 0.00000E+00
 -1       251 1.04167E-03 6.25000E-03 0.00000E+00
 -1       252 2.08333E-03 6.25000E-03 0.00000E+00
 -1       253 3.12500E-03 6.25000E-03 0.00000E+00
 -1       254 4.16667E-03 6.25000E-03 0.00000E+00
 -1       255 5.20833E-03 6.25000E-03 0.00000E+00
 -1       256 6.25000E-03 6.25000E-03 0.00000E+00
 -1       257 7.29167E-03 6.25000E-03 0.00000E+00
 -1       258 8.33333E-03 6.25000E-03 0.00000E+00
 -1       259 9.37500E-03 6.25000E-03 0.00000E+00
 -1       260 1.04167E-02 6.25000E-03 0.00000E+00
 -1       261 1.14583E-02 6.25000E-03 0.00000E+00
 -1       262 1.25000E-02 6.25000E-03 0.00000E+00
 -1       263 1.35417E-02 6.25000E-03 0.00000E+00
 -1       264 1.45833E-02 6.25000E-03 0.00000E+00
 -1       265 1.56250E-02 6.25000E-03 0.00000E+00
 -1       266 0.00000E+00 7.29167E-03 0.00000E+00
 -1       267 0.00000E+00 8.33333E-03 0.00000E+00
 -1       268 0.00000E+00 9.37500E-03 0.00000E+00
 -1       269 0.00000E+00 1.04167E-02 0.00000E+00
 -1       270 0.00000E+00 1.14583E-02 0.00000E+00
 -1       271 1.04167E-03 6.64063E-03 0.00000E+00
 -1       272 2.08333E-03 7.03125E-03 0.00000E+00
 -1       273 3.12500E-03 7.42188E-03 0.00000E+00
 -1       274 4.16667E-03 7.81250E-03 0.00000E+00
 -1       275 5.20833E-03 8.20313E-03 0.00000E+00
 -1       276 6.25000E-03 8.59375E-03 0.00000E+00
 -1       277 7.29167E-03 8.98438E-03 0.00000E+00
 -1       278 8.33333E-03 9.37500E-03 0.00000E+00
 -1       279 9.37500E-03 9.76562E-03 0.00000E+00
 -1       280 1.04167E-02 1.01562E-02 0.00000E+00
 -1       281 1.14583E-02 1.05469E-02 0.00000E+00
 -1       282 1.25000E-02 1.09375E-02 0.00000E+00
 -1       283 1.35417E-02 1.13281E-02 0.00000E+00
 -1       284 1.45833E-02 1.17188E-02 0.00000E+00
 -1       285 1.56250E-02 1.21094E-02 0.00000E+00
 -1       301 1.66667E-02 7.29167E-03 0.00000E+00
 -1       302 1.66667E-02 8.33333E-03 0.00000E+00
 -1       303 1.66667E-02 9.37500E-03 0.00000E+00
 -1       304 1.66667E-02 1.04167E-02 0.00000E+00
 -1       305 1.66667E-02 1.14583E-02 0.00000E+00
 -1       306 1.77083E-02 6.64063E-03 0.00000E+00
 -1       307 1.87500E-02 7.03125E-03 0.00000E+00
 -1       308 1.97917E-02 7.42188E-03 0.00000E+00
 -1       309 2.08333E-02 7.81250E-03 0.00000E+00
 -1       310 2.18750E-02 8.20313E-03 0.00000E+00
 -1       311 2.29167E-02 8.59375E-03 0.00000E+00
 -1       312 2.39583E-02 8.98438E-03 0.00000E+00
 -1       313 2.50000E-02 9.37500E-03 0.00000E+00
 -1       314 2.60417E-02 9.76562E-03 0.00000E+00
 -1       315 2.70833E-02 1.01562E-02 0.00000E+00
 -1       316 2.81250E-02 1.05469E-02 0.00000E+00
 -1       317 2.91667E-02 1.09375E-02 0.00000E+00
 -1       318 3.02083E-02 1.13281E-02 0.00000E+00
 -1       319 3.12500E-02 1.17188E-02 0.00000E+00
 -1       320 3.22917E-02 1.21094E-02 0.00000E+00
 -1       336 3.33333E-02 7.29167E-03 0.00000E+00
 -1       337 3.33333E-02 8.33333E-03 0.00000E+00
 -1       338 3.33333E-02 9.37500E-03 0.00000E+00
 -1       339 3.33333E-02 1.04167E-02 0.00000E+00
 -1       340 3.33333E-02 1.14583E-02 0.00000E+00
 -1       406 6.66667E-02 7.29167E-03 0.00000E+00
 -1       407 6.66667E-02 8.33333E-03 0.00000E+00
 -1       408 6.66667E-02 9.37500E-03 0.00000E+00
 -1       409 6.66667E-02 1.04167E-02 0.00000E+00
 -1       410 6.66667E-02 1.14583E-02 0.00000E+00
 -1       521 1.77083E-02 1.28906E-02 0.00000E+00
 -1       522 1.87500E-02 1.32813E-02 0.00000E+00
 -1       523 1.97917E-02 1.36719E-02 0.00000E+00
 -1       524 2.08333E-02 1.40625E-02 0.00000E+00
 -1       525 2.18750E-02 1.44531E-02 0.00000E+00
 -1       526 2.29167E-02 1.48437E-02 0.00000E+00
 -1       527 2.39583E-02 1.52344E-02 0.00000E+00
 -1       528 2.50000E-02 1.56250E-02 0.00000E+00
 -1       529 2.60417E-02 1.60156E-02 0.00000E+00
 -1       530 2.70833E-02 1.64062E-02 0.00000E+00
 -1       531 2.81250E-02 1.67969E-02 0.00000E+00
 -1       532 2.91667E-02 1.71875E-02 0.00000E+00
 -1       533 3.02083E-02 1.75781E-02 0.00000E+00
 -1       534 3.12500E-02 1.79687E-02 0.00000E+00
 -1       535 3.22917E-02 1.83594E-02 0.00000E+00
 -1       536 3.43750E-02 1.25000E-02 0.00000E+00
 -1       537 3.54167E-02 1.25000E-02 0.00000E+00
 -1       538 3.64583E-02 1.25000E-02 0.00000E+00
 -1       539 3.75000E-02 1.25000E-02 0.00000E+00
 -1       540 3.85417E-02 1.25000E-02 0.00000E+00
 -1       541 3.95833E-02 1.25000E-02 0.00000E+00
 -1       542 4.06250E-02 1.25000E-02 0.00000E+00
 -1       543 4.16667E-02 1.25000E-02 0.00000E+00
 -1       544 4.27083E-02 1.25000E-02 0.00000E+00
 -1       545 4.37500E-02 1.25000E-02 0.00000E+00
 -1       546 4.47917E-02 1.25000E-02 0.00000E+00
 -1       547 4.58333E-02 1.25000E-02 0.00000E+00
 -1       548 4.68750E-02 1.25000E-02 0.00000E+00
 -1       549 4.79167E-02 1.25000E-02 0.00000E+00
 -1       550 4.89583E-02 1.25000E-02 0.00000E+00
 -1       551 3.33333E-02 1.35417E-02 0.00000E+00
 -1       552 3.33333E-02 1.45833E-02 0.00000E+00
 -1       553 3.33333E-02 1.56250E-02 0.00000E+00
 -1       554 3.33333E-02 1.66667E-02 0.00000E+00
 -1       555 3.33333E-02 1.77083E-02 0.00000E+00
 -1       556 3.43750E-02 1.28906E-02 0.00000E+00
 -1       557 3.54167E-02 1.32813E-02 0.00000E+00
 -1       558 3.64583E-02 1.36719E-02 0.00000E+00
 -1       559 3.75000E-02 1.40625E-02 0.00000E+00
 -1       560 3.85417E-02 1.44531E-02 0.00000E+00
 -1       561 3.95833E-02 1.48437E-02 0.00000E+00
 -1       562 4.06250E-02 1.52344E-02 0.00000E+00
 -1       563 4.16667E-02 1.56250E-02 0.00000E+00
 -1       564 4.27083E-02 1.60156E-02 0.00000E+00
 -1       565 4.37500E-02 1.64062E-02 0.00000E+00
 -1       566 4.47917E-02 1.67969E-02 0.00000E+00
 -1       567 4.58333E-02 1.71875E-02 0.00000E+00
 -1       568 4.68750E-02 1.75781E-02 0.00000E+00
 -1       569 4.79167E-02 1.79687E-02 0.00000E+00
 -1       570 4.89583E-02 1.83594E-02 0.00000E+00
 -1       571 5.10417E-02 1.25000E-02 0.00000E+00
 -1       572 5.20833E-02 1.25000E-02 0.00000E+00
 -1       573 5.31250E-02 1.25000E-02 0.00000E+00
 -1       574 5.41667E-02 1.25000E-02 0.00000E+00
 -1       575 5.52083E-02 1.25000E-02 0.00000E+00
 -1       576 5.62500E-02 1.25000E-02 0.00000E+00
 -1       577 5.72917E-02 1.25000E-02 0.00000E+00
 -1       578 5.83333E-02 1.25000E-02 0.00000E+00
 -1       579 5.93750E-02 1.25000E-02 0.00000E+00
 -1       580 6.04167E-02 1.25000E-02 0.00000E+00
 -1       581 6.14583E-02 1.25000E-02 0.00000E+00
 -1       582 6.25000E-02 1.25000E-02 0.00000E+00
 -1       583 6.35417E-02 1.25000E-02 0.00000E+00
 -1       584 6.45833E-02 1.25000E-02 0.00000E+00
 -1       585 6.56250E-02 1.25000E-02 0.00000E+00
 -1       586 5.00000E-02 1.35417E-02 0.00000E+00
 -1       587 5.00000E-02 1.45833E-02 0.00000E+00
 -1       588 5.00000E-02 1.56250E-02 0.00000E+00
 -1       589 5.00000E-02 1.66667E-02 0.00000E+00
 -1       590 5.00000E-02 1.77083E-02 0.00000E+00
 -1       591 5.10417E-02 1.28906E-02 0.00000E+00
 -1       592 5.20833E-02 1.32813E-02 0.00000E+00
 -1       593 5.31250E-02 1.36719E-02 0.00000E+00
 -1       594 5.41667E-02 1.40625E-02 0.00000E+00
 -1       595 5.52083E-02 1.44531E-02 0.00000E+00
 -1       596 5.62500E-02 1.48437E-02 0.00000E+00
 -1       597 5.72917E-02 1.52344E-02 0.00000E+00
 -1       598 5.83333E-02 1.56250E-02 0.00000E+00
 -1       599 5.93750E-02 1.60156E-02 0.00000E+00
 -1       600 6.04167E-02 1.64062E-02 0.00000E+00
 -1       601 6.14583E-02 1.67969E-02 0.00000E+00
 -1       602 6.25000E-02 1.71875E-02 0.00000E+00
 -1       603 6.35417E-02 1.75781E-02 0.00000E+00
 -1       604 6.45833E-02 1.79687E-02 0.00000E+00
 -1       605 6.56250E-02 1.83594E-02 0.00000E+00
 -1       606 6.77083E-02 1.25000E-02 0.00000E+00
 -1       607 6.87500E-02 1.25000E-02 0.00000E+00
 -1       608 6.97917E-02 1.25000E-02 0.00000E+00
 -1       609 7.08333E-02 1.25000E-02 0.00000E+00
 -1       610 7.18750E-02 1.25000E-02 0.00000E+00
 -1       611 7.29167E-02 1.25000E-02 0.00000E+00
 -1       612 7.39583E-02 1.25000E-02 0.00000E+00
 -1       613 7.50000E-02 1.25000E-02 0.00000E+00
 -1       614 7.60417E-02 1.25000E-02 0.00000E+00
 -1       615 7.70833E-02 1.25000E-02 0.00000E+00
 -1       616 7.81250E-02 1.25000E-02 0.00000E+00
 -1       617 7.91667E-02 1.25000E-02 0.00000E+00
 -1       618 8.02083E-02 1.25000E-02 0.00000E+00
 -1       619 8.12500E-02 1.25000E-02 0.00000E+00
 -1       620 8.22917E-02 1.25000E-02 0.00000E+00
 -1       621 6.66667E-02 1.35417E-02 0.00000E+00
 -1       622 6.66667E-02 1.45833E-02 0.00000E+00
 -1       623 6.66667E-02 1.56250E-02 0.00000E+00
 -1       624 6.66667E-02 1.66667E-02 0.00000E+00
 -1       625 6.66667E-02 1.77083E-02 0.00000E+00
 -1       626 6.77083E-02 1.28906E-02 0.00000E+00
 -1       627 6.87500E-02 1.32813E-02 0.00000E+00
 -1       628 6.97917E-02 1.36719E-02 0.00000E+00
 -1       629 7.08333E-02 1.40625E-02 0.00000E+00
 -1       630 7.18750E-02 1.44531E-02 0.00000E+00
 -1       631 7.29167E-02 1.48437E-02 0.00000E+00
 -1       632 7.39583E-02 1.52344E-02 0.00000E+00
 -1       633 7.50000E-02 1.56250E-02 0.00000E+00
 -1       634 7.60417E-02 1.60156E-02 0.00000E+00
 -1       635 7.70833E-02 1.64062E-02 0.00000E+00
 -1       636 7.81250E-02 1.67969E-02 0.00000E+00
 -1       637 7.91667E-02 1.71875E-02 0.00000E+00
 -1       638 8.02083E-02 1.75781E-02 0.00000E+00
 -1       639 8.12500E-02 1.79687E-02 0.00000E+00
 -1       640 8.22917E-02 1.83594E-02 0.00000E+00
 -1       656 8.33333E-02 1.35417E-02 0.00000E+00
 -1       657 8.33333E-02 1.45833E-02 0.00000E+00
 -1       658 8.33333E-02 1.56250E-02 0.00000E+00
 -1       659 8.33333E-02 1.66667E-02 0.00000E+00
 -1       660 8.33333E-02 1.77083E-02 0.00000E+00
 -1       661 8.43750E-02 1.28906E-02 0.00000E+00
 -1       662 8.54167E-02 1.32813E-02 0.00000E+00
 -1       663 8.64583E-02 1.36719E-02 0.00000E+00
 -1       664 8.75000E-02 1.40625E-02 0.00000E+00
 -1       665 8.85417E-02 1.44531E-02 0.00000E+00
 -1       666 8.95833E-02 1.48437E-02 0.00000E+00
 -1       667 9.06250E-02 1.52344E-02 0.00000E+00
 -1       668 9.16667E-02 1.56250E-02 0.00000E+00
 -1       669 9.27083E-02 1.60156E-02 0.00000E+00
 -1       670 9.37500E-02 1.64062E-02 0.00000E+00
 -1       671 9.47917E-02 1.67969E-02 0.00000E+00
 -1       672 9.58333E-02 1.71875E-02 0.00000E+00
 -1       673 9.68750E-02 1.75781E-02 0.00000E+00
 -1       674 9.79167E-02 1.79687E-02 0.00000E+00
 -1       675 9.89583E-02 1.83594E-02 0.00000E+00
 -1       676 1.00000E-01 1.35417E-02 0.00000E+00
 -1       677 1.00000E-01 1.45833E-02 0.00000E+00
 -1       678 1.00000E-01 1.56250E-02 0.00000E+00
 -1       679 1.00000E-01 1.66667E-02 0.00000E+00
 -1       680 1.00000E-01 1.77083E-02 0.00000E+00
 -1       771 3.43750E-02 1.91406E-02 0.00000E+00
 -1       772 3.54167E-02 1.95312E-02 0.00000E+00
 -1       773 3.64583E-02 1.99219E-02 0.00000E+00
 -1       774 3.75000E-02 2.03125E-02 0.00000E+00
 -1       775 3.85417E-02 2.07031E-02 0.00000E+00
 -1       776 3.95833E-02 2.10938E-02 0.00000E+00
 -1       777 4.06250E-02 2.14844E-02 0.00000E+00
 -1       778 4.16667E-02 2.18750E-02 0.00000E+00
 -1       779 4.27083E-02 2.22656E-02 0.00000E+00
 -1       780 4.37500E-02 2.26563E-02 0.00000E+00
 -1       781 4.47917E-02 2.30469E-02 0.00000E+00
 -1       782 4.58333E-02 2.34375E-02 0.00000E+00
 -1       783 4.68750E-02 2.38281E-02 0.00000E+00
 -1       784 4.79167E-02 2.42187E-02 0.00000E+00
 -1       785 4.89583E-02 2.46094E-02 0.00000E+00
 -1       786 5.10417E-02 1.87500E-02 0.00000E+00
 -1       787 5.20833E-02 1.87500E-02 0.00000E+00
 -1       788 5.31250E-02 1.87500E-02 0.00000E+00
 -1       789 5.41667E-02 1.87500E-02 0.00000E+00
 -1       790 5.52083E-02 1.87500E-02 0.00000E+00
 -1       791 5.62500E-02 1.87500E-02 0.00000E+00
 -1       792 5.72917E-02 1.87500E-02 0.00000E+00
 -1       793 5.83333E-02 1.87500E-02 0.00000E+00
 -1       794 5.93750E-02 1.87500E-02 0.00000E+00
 -1       795 6.04167E-02 1.87500E-02 0.00000E+00
 -1       796 6.14583E-02 1.87500E-02 0.00000E+00
 -1       797 6.25000E-02 1.87500E-02 0.00000E+00
 -1       798 6.35417E-02 1.87500E-02 0.00000E+00
 -1       799 6.45833E-02 1.87500E-02 0.00000E+00
 -1       800 6.56250E-02 1.87500E-02 0.00000E+00
 -1       801 5.00000E-02 1.97917E-02 0.00000E+00
 -1       802 5.00000E-02 2.08333E-02 0.00000E+00
 -1       803 5.00000E-02 2.18750E-02 0.00000E+00
 -1       804 5.00000E-02 2.29167E-02 0.00000E+00
 -1       805 5.00000E-02 2.39583E-02 0.00000E+00
 -1       806 5.10417E-02 1.91406E-02 0.00000E+00
 -1       807 5.20833E-02 1.95312E-02 0.00000E+00
 -1       808 5.31250E-02 1.99219E-02 0.00000E+00
 -1       809 5.41667E-02 2.03125E-02 0.00000E+00
 -1       810 5.52083E-02 2.07031E-02 0.00000E+00
 -1       811 5.62500E-02 2.10938E-02 0.00000E+00
 -1       812 5.72917E-02 2.14844E-02 0.00000E+00
 -1       813 5.83333E-02 2.18750E-02 0.00000E+00
 -1       814 5.93750E-02 2.22656E-02 0.00000E+00
 -1       815 6.04167E-02 2.26563E-02 0.00000E+00
 -1       816 6.14583E-02 2.30469E-02 0.00000E+00
 -1       817 6.25000E-02 2.34375E-02 0.00000E+00
 -1       818 6.35417E-02 2.38281E-02 0.00000E+00
 -1       819 6.45833E-02 2.42187E-02 0.00000E+00
 -1       820 6.56250E-02 2.46094E-02 0.00000E+00
 -1       821 6.77083E-02 1.87500E-02 0.00000E+00
 -1       822 6.87500E-02 1.87500E-02 0.00000E+00
 -1       823 6.97917E-02 1.87500E-02 0.00000E+00
 -1       824 7.08333E-02 1.87500E-02 0.00000E+00
 -1       825 7.18750E-02 1.87500E-02 0.00000E+00
 -1       826 7.29167E-02 1.87500E-02 0.00000E+00
 -1       827 7.39583E-02 1.87500E-02 0.00000E+00
 -1       828 7.50000E-02 1.87500E-02 0.00000E+00
 -1       829 7.60417E-02 1.87500E-02 0.00000E+00
 -1       830 7.70833E-02 1.87500E-02 0.00000E+00
 -1       831 7.81250E-02 1.87500E-02 0.00000E+00
 -1       832 7.91667E-02 1.87500E-02 0.00000E+00
 -1       833 8.02083E-02 1.87500E-02 0.00000E+00
 -1       834 8.12500E-02 1.87500E-02 0.00000E+00
 -1       835 8.22917E-02 1.87500E-02 0.00000E+00
 -1       836 6.66667E-02 1.97917E-02 0.00000E+00
 -1       837 6.66667E-02 2.08333E-02 0.00000E+00
 -1       838 6.66667E-02 2.18750E-02 0.00000E+00
 -1       839 6.66667E-02 2.29167E-02 0.00000E+00
 -1       840 6.66667E-02 2.39583E-02 0.00000E+00
 -1       856 8.43750E-02 1.87500E-02 0.00000E+00
 -1       857 8.54167E-02 1.87500E-02 0.00000E+00
 -1       858 8.64583E-02 1.87500E-02 0.00000E+00
 -1       859 8.75000E-02 1.87500E-02 0.00000E+00
 -1       860 8.85417E-02 1.87500E-02 0.00000E+00
 -1       861 8.95833E-02 1.87500E-02 0.00000E+00
 -1       862 9.06250E-02 1.87500E-02 0.00000E+00
 -1       863 9.16667E-02 1.87500E-02 0.00000E+00
 -1       864 9.27083E-02 1.87500E-02 0.00000E+00
 -1       865 9.37500E-02 1.87500E-02 0.00000E+00
 -1       866 9.47917E-02 1.87500E-02 0.00000E+00
 -1       867 9.58333E-02 1.87500E-02 0.00000E+00
 -1       868 9.68750E-02 1.87500E-02 0.00000E+00
 -1       869 9.79167E-02 1.87500E-02 0.00000E+00
 -1       870 9.89583E-02 1.87500E-02 0.00000E+00
 -1       871 8.33333E-02 1.97917E-02 0.00000E+00
 -1       872 8.33333E-02 2.08333E-02 0.00000E+00
 -1       873 8.33333E-02 2.18750E-02 0.00000E+00
 -1       874 8.33333E-02 2.29167E-02 0.00000E+00
 -1       875 8.33333E-02 2.39583E-02 0.00000E+00
 -1       876 8.43750E-02 1.91406E-02 0.00000E+00
 -1       877 8.54167E-02 1.95312E-02 0.00000E+00
 -1       878 8.64583E-02 1.99219E-02 0.00000E+00
 -1       879 8.75000E-02 2.03125E-02 0.00000E+00
 -1       880 8.85417E-02 2.07031E-02 0.00000E+00
 -1       881 8.95833E-02 2.10938E-02 0.00000E+00
 -1       882 9.06250E-02 2.14844E-02 0.00000E+00
 -1       883 9.16667E-02 2.18750E-02 0.00000E+00
 -1       884 9.27083E-02 2.22656E-02 0.00000E+00
 -1       885 9.37500E-02 2.26563E-02 0.00000E+00
 -1       886 9.47917E-02 2.30469E-02 0.00000E+00
 -1       887 9.58333E-02 2.34375E-02 0.00000E+00
 -1       888 9.68750E-02 2.38281E-02 0.00000E+00
 -1       889 9.79167E-02 2.42187E-02 0.00000E+00
 -1       890 9.89583E-02 2.46094E-02 0.00000E+00
 -1       891 1.00000E-01 1.97917E-02 0.00000E+00
 -1       892 1.00000E-01 2.08333E-02 0.00000E+00
 -1       893 1.00000E-01 2.18750E-02 0.00000E+00
 -1       894 1.00000E-01 2.29167E-02 0.00000E+00
 -1       895 1.00000E-01 2.39583E-02 0.00000E+00
 -1       956 6.77083E-02 2.50000E-02 0.00000E+00
 -1       957 6.87500E-02 2.50000E-02 0.00000E+00
 -1       958 6.97917E-02 2.50000E-02 0.00000E+00
 -1       959 7.08333E-02 2.50000E-02 0.00000E+00
 -1       960 7.18750E-02 2.50000E-02 0.00000E+00
 -1       961 7.29167E-02 2.50000E-02 0.00000E+00
 -1       962 7.39583E-02 2.50000E-02 0.00000E+00
 -1       963 7.50000E-02 2.50000E-02 0.00000E+00
 -1       964 7.60417E-02 2.50000E-02 0.00000E+00
 -1       965 7.70833E-02 2.50000E-02 0.00000E+00
 -1       966 7.81250E-02 2.50000E-02 0.00000E+00
 -1       967 7.91667E-02 2.50000E-02 0.00000E+00
 -1       968 8.02083E-02 2.50000E-02 0.00000E+00
 -1       969 8.12500E-02 2.50000E-02 0.00000E+00
 -1       970 8.22917E-02 2.50000E-02 0.00000E+00
 -1       971 8.43750E-02 2.50000E-02 0.00000E+00
 -1       972 8.54167E-02 2.50000E-02 0.00000E+00
 -1       973 8.64583E-02 2.50000E-02 0.00000E+00
 -1       974 8.75000E-02 2.50000E-02 0.00000E+00
 -1       975 8.85417E-02 2.50000E-02 0.00000E+00
 -1       976 8.95833E-02 2.50000E-02 0.00000E+00
 -1       977 9.06250E-02 2.50000E-02 0.00000E+00
 -1       978 9.16667E-02 2.50000E-02 0.00000E+00
 -1       979 9.27083E-02 2.50000E-02 0.00000E+00
 -1       980 9.37500E-02 2.50000E-02 0.00000E+00
 -1       981 9.47917E-02 2.50000E-02 0.00000E+00
 -1       982 9.58333E-02 2.50000E-02 0.00000E+00
 -1       983 9.68750E-02 2.50000E-02 0.00000E+00
 -1       984 9.79167E-02 2.50000E-02 0.00000E+00
 -1       985 9.89583E-02 2.50000E-02 0.00000E+00
 -3
    3C                           211                                     1
 -1         1   12    0    1
 -2         1        52        51
 -1         2   12    0    1
 -2        52        54        53
 -1         3   12    0    1
 -2        54         8        55
 -1         4   12    0    1
 -2         1        57        56
 -1         5   12    0    1
 -2        57        59        58
 -1         6   12    0    1
 -2        59        61        60
 -1         7   12    0    1
 -2        61        63        62
 -1         8   12    0    1
 -2        63        65        64
 -1         9   12    0    1
 -2        65        67        66
 -1        10   12    0    1
 -2        67        69        68
 -1        11   12    0    1
 -2        69         9        70
 -1        12   12    0    1
 -2         2        87        86
 -1        13   12    0    1
 -2        87        89        88
 -1        14   12    0    1
 -2        89         9        90
 -1        15   12    0    1
 -2         3       122       121
 -1        16   12    0    1
 -2       122       124       123
 -1        17   12    0    1
 -2       124        10       125
 -1        18   12    0    1
 -2         5       192       191
 -1        19   12    0    1
 -2       192       194       193
 -1        20   12    0    1
 -2       194        12       195
 -1        21   12    0    1
 -2         8       252       251
 -1        22   12    0    1
 -2       252       254       253
 -1        23   12    0    1
 -2       254       256       255
 -1        24   12    0    1
 -2       256       258       257
 -1        25   12    0    1
 -2       258       260       259
 -1        26   12    0    1
 -2       260       262       261
 -1        27   12    0    1
 -2       262       264       263
 -1        28   12    0    1
 -2       264         9       265
 -1        29   12    0    1
 -2         8       267       266
 -1        30   12    0    1
 -2       267       269       268
 -1        31   12    0    1
 -2       269        15       270
 -1        32   12    0    1
 -2         8       272       271
 -1        33   12    0    1
 -2       272       274       273
 -1        34   12    0    1
 -2       274       276       275
 -1        35   12    0    1
 -2       276       278       277
 -1        36   12    0    1
 -2       278       280       279
 -1        37   12    0    1
 -2       280       282       281
 -1        38   12    0    1
 -2       282       284       283
 -1        39   12    0    1
 -2       284        16       285
 -1        40   12    0    1
 -2         9       302       301
 -1        41   12    0    1
 -2       302       304       303
 -1        42   12    0    1
 -2       304        16       305
 -1        43   12    0    1
 -2         9       307       306
 -1        44   12    0    1
 -2       307       309       308
 -1        45   12    0    1
 -2       309       311       310
 -1        46   12    0    1
 -2       311       313       312
 -1        47   12    0    1
 -2       313       315       314
 -1        48   12    0    1
 -2       315       317       316
 -1        49   12    0    1
 -2       317       319       318
 -1        50   12    0    1
 -2       319        17       320
 -1        51   12    0    1
 -2        10       337       336
 -1        52   12    0    1
 -2       337       339       338
 -1        53   12    0    1
 -2       339        17       340
 -1        54   12    0    1
 -2        12       407       406
 -1        55   12    0    1
 -2       407       409       408
 -1        56   12    0    1
 -2       409        19       410
 -1        57   12    0    1
 -2        16       522       521
 -1        58   12    0    1
 -2       522       524       523
 -1        59   12    0    1
 -2       524       526       525
 -1        60   12    0    1
 -2       526       528       527
 -1        61   12    0    1
 -2       528       530       529
 -1        62   12    0    1
 -2       530       532       531
 -1        63   12    0    1
 -2       532       534       533
 -1        64   12    0    1
 -2       534        24       535
 -1        65   12    0    1
 -2        17       537       536
 -1        66   12    0    1
 -2       537       539       538
 -1        67   12    0    1
 -2       539       541       540
 -1        68   12    0    1
 -2       541       543       542
 -1        69   12    0    1
 -2       543       545       544
 -1        70   12    0    1
 -2       545       547       546
 -1        71   12    0    1
 -2       547       549       548
 -1        72   12    0    1
 -2       549        18       550
 -1        73   12    0    1
 -2        17       552       551
 -1        74   12    0    1
 -2       552       554       553
 -1        75   12    0    1
 -2       554        24       555
 -1        76   12    0    1
 -2        17       557       556
 -1        77   12    0    1
 -2       557       559       558
 -1        78   12    0    1
 -2       559       561       560
 -1        79   12    0    1
 -2       561       563       562
 -1        80   12    0    1
 -2       563       565       564
 -1        81   12    0    1
 -2       565       567       566
 -1        82   12    0    1
 -2       567       569       568
 -1        83   12    0    1
 -2       569        25       570
 -1        84   12    0    1
 -2        18       572       571
 -1        85   12    0    1
 -2       572       574       573
 -1        86   12    0    1
 -2       574       576       575
 -1        87   12    0    1
 -2       576       578       577
 -1        88   12    0    1
 -2       578       580       579
 -1        89   12    0    1
 -2       580       582       581
 -1        90   12    0    1
 -2       582       584       583
 -1        91   12    0    1
 -2       584        19       585
 -1        92   12    0    1
 -2        18       587       586
 -1        93   12    0    1
 -2       587       589       588
 -1        94   12    0    1
 -2       589        25       590
 -1        95   12    0    1
 -2        18       592       591
 -1        96   12    0    1
 -2       592       594       593
 -1        97   12    0    1
 -2       594       596       595
 -1        98   12    0    1
 -2       596       598       597
 -1        99   12    0    1
 -2       598       600       599
 -1       100   12    0    1
 -2       600       602       601
 -1       101   12    0    1
 -2       602       604       603
 -1       102   12    0    1
 -2       604        26       605
 -1       103   12    0    1
 -2        19       607       606
 -1       104   12    0    1
 -2       607       609       608
 -1       105   12    0    1
 -2       609       611       610
 -1       106   12    0    1
 -2       611       613       612
 -1       107   12    0    1
 -2       613       615       614
 -1       108   12    0    1
 -2       615       617       616
 -1       109   12    0    1
 -2       617       619       618
 -1       110   12    0    1
 -2       619        20       620
 -1       111   12    0    1
 -2        19       622       621
 -1       112   12    0    1
 -2       622       624       623
 -1       113   12    0    1
 -2       624        26       625
 -1       114   12    0    1
 -2        19       627       626
 -1       115   12    0    1
 -2       627       629       628
 -1       116   12    0    1
 -2       629       631       630
 -1       117   12    0    1
 -2       631       633       632
 -1       118   12    0    1
 -2       633       635       634
 -1       119   12    0    1
 -2       635       637       636
 -1       120   12    0    1
 -2       637       639       638
 -1       121   12    0    1
 -2       639        27       640
 -1       122   12    0    1
 -2        20       657       656
 -1       123   12    0    1
 -2       657       659       658
 -1       124   12    0    1
 -2       659        27       660
 -1       125   12    0    1
 -2        20       662       661
 -1       126   12    0    1
 -2       662       664       663
 -1       127   12    0    1
 -2       664       666       665
 -1       128   12    0    1
 -2       666       668       667
 -1       129   12    0    1
 -2       668       670       669
 -1       130   12    0    1
 -2       670       672       671
 -1       131   12    0    1
 -2       672       674       673
 -1       132   12    0    1
 -2       674        28       675
 -1       133   12    0    1
 -2        21       677       676
 -1       134   12    0    1
 -2       677       679       678
 -1       135   12    0    1
 -2       679        28       680
 -1       136   12    0    1
 -2        24       772       771
 -1       137   12    0    1
 -2       772       774       773
 -1       138   12    0    1
 -2       774       776       775
 -1       139   12    0    1
 -2       776       778       777
 -1       140   12    0    1
 -2       778       780       779
 -1       141   12    0    1
 -2       780       782       781
 -1       142   12    0    1
 -2       782       784       783
 -1       143   12    0    1
 -2       784        32       785
 -1       144   12    0    1
 -2        25       787       786
 -1       145   12    0    1
 -2       787       789       788
 -1       146   12    0    1
 -2       789       791       790
 -1       147   12    0    1
 -2       791       793       792
 -1       148   12    0    1
 -2       793       795       794
 -1       149   12    0    1
 -2       795       797       796
 -1       150   12    0    1
 -2       797       799       798
 -1       151   12    0    1
 -2       799        26       800
 -1       152   12    0    1
 -2        25       802       801
 -1       153   12    0    1
 -2       802       804       803
 -1       154   12    0    1
 -2       804        32       805
 -1       155   12    0    1
 -2        25       807       806
 -1       156   12    0    1
 -2       807       809       808
 -1       157   12    0    1
 -2       809       811       810
 -1       158   12    0    1
 -2       811       813       812
 -1       159   12    0    1
 -2       813       815       814
 -1       160   12    0    1
 -2       815       817       816
 -1       161   12    0    1
 -2       817       819       818
 -1       162   12    0    1
 -2       819        33       820
 -1       163   12    0    1
 -2        26       822       821
 -1       164   12    0    1
 -2       822       824       823
 -1       165   12    0    1
 -2       824       826       825
 -1       166   12    0    1
 -2       826       828       827
 -1       167   12    0    1
 -2       828       830       829
 -1       168   12    0    1
 -2       830       832       831
 -1       169   12    0    1
 -2       832       834       833
 -1       170   12    0    1
 -2       834        27       835
 -1       171   12    0    1
 -2        26       837       836
 -1       172   12    0    1
 -2       837       839       838
 -1       173   12    0    1
 -2       839        33       840
 -1       174   12    0    1
 -2        27       857       856
 -1       175   12    0    1
 -2       857       859       858
 -1       176   12    0    1
 -2       859       861       860
 -1       177   12    0    1
 -2       861       863       862
 -1       178   12    0    1
 -2       863       865       864
 -1       179   12    0    1
 -2       865       867       866
 -1       180   12    0    1
 -2       867       869       868
 -1       181   12    0    1
 -2       869        28       870
 -1       182   12    0    1
 -2        27       872       871
 -1       183   12    0    1
 -2       872       874       873
 -1       184   12    0    1
 -2       874        34       875
 -1       185   12    0    1
 -2        27       877       876
 -1       186   12    0    1
 -2       877       879       878
 -1       187   12    0    1
 -2       879       881       880
 -1       188   12    0    1
 -2       881       883       882
 -1       189   12    0    1
 -2       883       885       884
 -1       190   12    0    1
 -2       885       887       886
 -1       191   12    0    1
 -2       887       889       888
 -1       192   12    0    1
 -2       889        35       890
 -1       193   12    0    1
 -2        28       892       891
 -1       194   12    0    1
 -2       892       894       893
 -1       195   12    0    1
 -2       894        35       895
 -1       196   12    0    1
 -2        33       957       956
 -1       197   12    0    1
 -2       957       959       958
 -1       198   12    0    1
 -2       959       961       960
 -1       199   12    0    1
 -2       961       963       962
 -1       200   12    0    1
 -2       963       965       964
 -1       201   12    0    1
 -2       965       967       966
 -1       202   12    0    1
 -2       967       969       968
 -1       203   12    0    1
 -2       969        34       970
 -1       204   12    0    1
 -2        34       972       971
 -1       205   12    0    1
 -2       972       974       973
 -1       206   12    0    1
 -2       974       976       975
 -1       207   12    0    1
 -2       976       978       977
 -1       208   12    0    1
 -2       978       980       979
 -1       209   12    0    1
 -2       980       982       981
 -1       210   12    0    1
 -2       982       984       983
 -1       211   12    0    1
 -2       984        35       985
 -3
    1PSTEP                         1           1           1          
  100CL  101 1.000000000         409                     0    1           1
 -4  DISP        4    1
 -5  D1          1    2    1    0
 -5  D2          1    2    2    0
 -5  D3          1    2    3    0
 -5  ALL         1    2    0    0    1ALL
 -1         1 2.71412E-04 0.00000E+00 0.00000E+00
 -1         2 2.53584E-04 1.72255E-28 0.00000E+00
 -1         3 2.53021E-04 4.08510E-26 1.32349E-23
 -1         5 1.69123E-04-1.08159E-25 0.00000E+00
 -1         8 2.25208E-04-1.93432E-06 0.00000E+00
 -1         9 2.29085E-04 2.19861E-06 0.00000E+00
 -1        10 2.31671E-04-3.30970E-06 0.00000E+00
 -1        12 1.68183E-04 1.10789E-06 3.30872E-24
 -1        15 1.71299E-04-2.21313E-06-8.27181E-25
 -1        16 1.74876E-04 2.03093E-06 0.00000E+00
 -1        17 1.65275E-04-7.16599E-06 0.00000E+00
 -1        18 1.63222E-04 2.45603E-06 0.00000E+00
 -1        19 1.65363E-04 2.20968E-06 0.00000E+00
 -1        20 1.65724E-04 2.97850E-05 0.00000E+00
 -1        21 1.63565E-04 5.84863E-05 0.00000E+00
 -1        24 3.85173E-05-1.04965E-05 0.00000E+00
 -1        25 1.60218E-04 2.72111E-06 0.00000E+00
 -1        26 1.62154E-04 3.05685E-06 0.00000E+00
 -1        27 1.58999E-04 2.67246E-05 0.00000E+00
 -1        28 1.57706E-04 5.76433E-05 0.00000E+00
 -1        32 0.00000E+00 0.00000E+00 0.00000E+00
 -1        33 1.56683E-04 4.20964E-06 0.00000E+00
 -1        34 1.53660E-04 2.66602E-05 0.00000E+00
 -1        35 1.50764E-04 5.71384E-05 0.00000E+00
 -1        51 2.68325E-04-3.11956E-07 0.00000E+00
 -1        52 2.62713E-04-6.18115E-07 0.00000E+00
 -1        53 2.55075E-04-9.30423E-07 0.00000E+00
 -1        54 2.45931E-04-1.25204E-06 0.00000E+00
 -1        55 2.35801E-04-1.58356E-06-1.27179E-23
 -1        56 2.69435E-04-1.40756E-06 0.00000E+00
 -1        57 2.67774E-04-3.88268E-06 0.00000E+00
 -1        58 2.66407E-04-7.13486E-06 5.29396E-23
 -1        59 2.65207E-04-1.08749E-05 2.64698E-23
 -1        60 2.64065E-04-1.47734E-05-5.29396E-23
 -1        61 2.62857E-04-1.84994E-05 0.00000E+00
 -1        62 2.61465E-04-2.17315E-05 0.00000E+00
 -1        63 2.59776E-04-2.41699E-05 2.64698E-23
 -1        64 2.57697E-04-2.55637E-05-5.29396E-23
 -1        65 2.55149E-04-2.57061E-05 0.00000E+00
 -1        66 2.52081E-04-2.44678E-05-5.29396E-23
 -1        67 2.48466E-04-2.17767E-05-2.64698E-23
 -1        68 2.44307E-04-1.76515E-05-5.29396E-23
 -1        69 2.39643E-04-1.21664E-05 2.64698E-23
 -1        70 2.34518E-04-5.48827E-06 0.00000E+00
 -1        86 2.52967E-04 3.88502E-07 1.32349E-23
 -1        87 2.51108E-04 7.74313E-07 0.00000E+00
 -1        88 2.47926E-04 1.15665E-06 6.61744E-24
 -1        89 2.43321E-04 1.52597E-06 1.65436E-24
 -1        90 2.37109E-04 1.88937E-06 3.30872E-24
 -1       121 2.52423E-04-5.43576E-07 0.00000E+00
 -1       122 2.50630E-04-1.08853E-06 6.61744E-24
 -1       123 2.47648E-04-1.63623E-06-1.32349E-23
 -1       124 2.43485E-04-2.18808E-06 6.61744E-24
 -1       125 2.38154E-04-2.74523E-06 0.00000E+00
 -1       191 1.69097E-04 1.84670E-07 6.61744E-24
 -1       192 1.69019E-04 3.69336E-07 0.00000E+00
 -1       193 1.68888E-04 5.53996E-07 6.61744E-24
 -1       194 1.68705E-04 7.38647E-07 0.00000E+00
 -1       195 1.68470E-04 9.23280E-07 0.00000E+00
 -1       251 2.25395E-04 5.47402E-06-6.61744E-24
 -1       252 2.25636E-04 9.86629E-06-4.13590E-25
 -1       253 2.25883E-04 1.17766E-05 0.00000E+00
 -1       254 2.26138E-04 1.17169E-05 3.30872E-24
 -1       255 2.26392E-04 1.01228E-05-6.61744E-24
 -1       256 2.26645E-04 7.41688E-06 3.30872E-24
 -1       257 2.26896E-04 3.97824E-06 6.61744E-24
 -1       258 2.27146E-04 1.79642E-07 0.00000E+00
 -1       259 2.27397E-04-3.62031E-06 0.00000E+00
 -1       260 2.27648E-04-7.06291E-06-3.30872E-24
 -1       261 2.27901E-04-9.77550E-06 0.00000E+00
 -1       262 2.28155E-04-1.13792E-05 0.00000E+00
 -1       263 2.28410E-04-1.14517E-05 3.30872E-24
 -1       264 2.28657E-04-9.55765E-06-4.13590E-25
 -1       265 2.28897E-04-5.18540E-06 0.00000E+00
 -1       266 2.16223E-04-2.00395E-06 0.00000E+00
 -1       267 2.07239E-04-2.04763E-06 0.00000E+00
 -1       268 1.98254E-04-2.09286E-06 0.00000E+00
 -1       269 1.89269E-04-2.13330E-06 8.27181E-25
 -1       270 1.80284E-04-2.17359E-06 0.00000E+00
 -1       271 2.19719E-04 4.76142E-06 0.00000E+00
 -1       272 2.15066E-04 9.00818E-06-2.64698E-23
 -1       273 2.11252E-04 1.10527E-05-1.05879E-22
 -1       274 2.08153E-04 1.11651E-05 5.29396E-23
 -1       275 2.05654E-04 9.67416E-06 1.05879E-22
 -1       276 2.03614E-04 6.94815E-06 5.29396E-23
 -1       277 2.01885E-04 3.38798E-06 0.00000E+00
 -1       278 2.00309E-04-5.83019E-07 0.00000E+00
 -1       279 1.98723E-04-4.53095E-06 1.05879E-22
 -1       280 1.96969E-04-8.02246E-06 5.29396E-23
 -1       281 1.94887E-04-1.06361E-05 1.05879E-22
 -1       282 1.92329E-04-1.19744E-05-5.29396E-23
 -1       283 1.89157E-04-1.16730E-05 5.29396E-23
 -1       284 1.85253E-04-9.40950E-06 2.64698E-23
 -1       285 1.80501E-04-4.91785E-06 0.00000E+00
 -1       301 2.20147E-04 2.16054E-06 1.32349E-23
 -1       302 2.11193E-04 2.15068E-06 0.00000E+00
 -1       303 2.02206E-04 2.14164E-06 6.61744E-24
 -1       304 1.93169E-04 2.12884E-06 6.61744E-24
 -1       305 1.84064E-04 2.10986E-06-1.32349E-23
 -1       306 2.21348E-04 1.20039E-05-5.29396E-23
 -1       307 2.12152E-04 2.51949E-05-5.29396E-23
 -1       308 2.03037E-04 3.81991E-05 1.05879E-22
 -1       309 1.95378E-04 4.73968E-05 0.00000E+00
 -1       310 1.90086E-04 5.04051E-05 1.05879E-22
 -1       311 1.87768E-04 4.54797E-05 5.29396E-23
 -1       312 1.88067E-04 3.34355E-05 1.05879E-22
 -1       313 1.90361E-04 1.58518E-05-5.29396E-23
 -1       314 1.93425E-04-3.88806E-06 0.00000E+00
 -1       315 1.95969E-04-2.21644E-05 5.29396E-23
 -1       316 1.96857E-04-3.58375E-05 0.00000E+00
 -1       317 1.95102E-04-4.22675E-05 0.00000E+00
 -1       318 1.90534E-04-4.11647E-05 0.00000E+00
 -1       319 1.83310E-04-3.30327E-05 0.00000E+00
 -1       320 1.74432E-04-2.06489E-05 5.29396E-23
 -1       336 2.23922E-04-3.92103E-06 0.00000E+00
 -1       337 2.14798E-04-4.54421E-06 6.61744E-24
 -1       338 2.04331E-04-5.17984E-06 1.32349E-23
 -1       339 1.92559E-04-5.82863E-06 0.00000E+00
 -1       340 1.79525E-04-6.49244E-06-1.32349E-23
 -1       406 1.67844E-04 1.29246E-06 0.00000E+00
 -1       407 1.67452E-04 1.47696E-06 0.00000E+00
 -1       408 1.67008E-04 1.66133E-06 6.61744E-24
 -1       409 1.66512E-04 1.84535E-06-3.30872E-24
 -1       410 1.65963E-04 2.02868E-06 6.61744E-24
 -1       521 1.58233E-04 2.72619E-05 1.05879E-22
 -1       522 1.28493E-04 8.29874E-05 1.05879E-22
 -1       523 9.52628E-05 1.46684E-04 0.00000E+00
 -1       524 6.89598E-05 1.94549E-04-1.05879E-22
 -1       525 5.62945E-05 2.09017E-04-2.11758E-22
 -1       526 6.05314E-05 1.77558E-04 1.05879E-22
 -1       527 7.77373E-05 1.06191E-04 2.11758E-22
 -1       528 1.02734E-04 7.82626E-06 0.00000E+00
 -1       529 1.28447E-04-9.31007E-05-2.11758E-22
 -1       530 1.47823E-04-1.71692E-04 0.00000E+00
 -1       531 1.55265E-04-2.12620E-04 0.00000E+00
 -1       532 1.46082E-04-2.07128E-04 1.05879E-22
 -1       533 1.22351E-04-1.65311E-04 2.11758E-22
 -1       534 8.96566E-05-1.02836E-04 0.00000E+00
 -1       535 5.83317E-05-4.34955E-05 0.00000E+00
 -1       536 1.65061E-04 6.24590E-06 0.00000E+00
 -1       537 1.64892E-04 1.68332E-05-3.30872E-24
 -1       538 1.64746E-04 2.47138E-05 3.30872E-24
 -1       539 1.64619E-04 3.00170E-05 0.00000E+00
 -1       540 1.64502E-04 3.29648E-05 3.30872E-24
 -1       541 1.64389E-04 3.37889E-05 0.00000E+00
 -1       542 1.64276E-04 3.27972E-05-3.30872E-24
 -1       543 1.64161E-04 3.03052E-05 1.65436E-24
 -1       544 1.64042E-04 2.66821E-05 0.00000E+00
 -1       545 1.63921E-04 2.23020E-05-1.65436E-24
 -1       546 1.63798E-04 1.75658E-05 3.30872E-24
 -1       547 1.63676E-04 1.28761E-05 0.00000E+00
 -1       548 1.63555E-04 8.63386E-06-3.30872E-24
 -1       549 1.63439E-04 5.23804E-06 8.27181E-25
 -1       550 1.63326E-04 3.05761E-06 8.27181E-25
 -1       551 1.47456E-04-7.65420E-06 6.61744E-24
 -1       552 1.27021E-04-8.18141E-06-3.30872E-24
 -1       553 1.04933E-04-8.74015E-06 6.61744E-24
 -1       554 8.21682E-05-9.31712E-06 0.00000E+00
 -1       555 5.97063E-05-9.89398E-06 2.64698E-23
 -1       556 1.60290E-04 5.61894E-06 0.00000E+00
 -1       557 1.56482E-04 1.54239E-05 0.00000E+00
 -1       558 1.53717E-04 2.25213E-05 0.00000E+00
 -1       559 1.51878E-04 2.72042E-05 0.00000E+00
 -1       560 1.50844E-04 2.97657E-05 0.00000E+00
 -1       561 1.50500E-04 3.05009E-05 0.00000E+00
 -1       562 1.50731E-04 2.97055E-05 0.00000E+00
 -1       563 1.51424E-04 2.76763E-05 0.00000E+00
 -1       564 1.52466E-04 2.47104E-05 0.00000E+00
 -1       565 1.53747E-04 2.11052E-05 0.00000E+00
 -1       566 1.55154E-04 1.71586E-05 0.00000E+00
 -1       567 1.56577E-04 1.31685E-05 0.00000E+00
 -1       568 1.57906E-04 9.43272E-06 0.00000E+00
 -1       569 1.59029E-04 6.24892E-06 0.00000E+00
 -1       570 1.59836E-04 3.91464E-06 0.00000E+00
 -1       571 1.63352E-04 2.53415E-06 8.27181E-25
 -1       572 1.63485E-04 2.52347E-06-8.27181E-25
 -1       573 1.63618E-04 2.43957E-06 1.65436E-24
 -1       574 1.63752E-04 2.29886E-06-1.65436E-24
 -1       575 1.63886E-04 2.11783E-06-3.30872E-24
 -1       576 1.64021E-04 1.91306E-06 1.65436E-24
 -1       577 1.64155E-04 1.70114E-06-3.30872E-24
 -1       578 1.64289E-04 1.49870E-06 0.00000E+00
 -1       579 1.64424E-04 1.32234E-06 0.00000E+00
 -1       580 1.64558E-04 1.18867E-06 0.00000E+00
 -1       581 1.64692E-04 1.11433E-06 0.00000E+00
 -1       582 1.64827E-04 1.11589E-06 0.00000E+00
 -1       583 1.64961E-04 1.20994E-06 6.61744E-24
 -1       584 1.65095E-04 1.41292E-06 0.00000E+00
 -1       585 1.65229E-04 1.74113E-06 0.00000E+00
 -1       586 1.62680E-04 2.50253E-06 3.30872E-24
 -1       587 1.62080E-04 2.54816E-06 0.00000E+00
 -1       588 1.61477E-04 2.59337E-06-8.27181E-25
 -1       589 1.60928E-04 2.63796E-06 0.00000E+00
 -1       590 1.60490E-04 2.68142E-06 0.00000E+00
 -1       591 1.63122E-04 2.59810E-06 0.00000E+00
 -1       592 1.63043E-04 2.66849E-06 0.00000E+00
 -1       593 1.62985E-04 2.68067E-06 0.00000E+00
 -1       594 1.62945E-04 2.64669E-06 0.00000E+00
 -1       595 1.62916E-04 2.57878E-06 1.65436E-24
 -1       596 1.62896E-04 2.48903E-06 0.00000E+00
 -1       597 1.62880E-04 2.38958E-06 0.00000E+00
 -1       598 1.62862E-04 2.29254E-06 0.00000E+00
 -1       599 1.62839E-04 2.20999E-06 0.00000E+00
 -1       600 1.62806E-04 2.15405E-06 4.13590E-25
 -1       601 1.62759E-04 2.13682E-06-1.65436E-24
 -1       602 1.62692E-04 2.17041E-06 8.27181E-25
 -1       603 1.62603E-04 2.26693E-06-4.13590E-25
 -1       604 1.62485E-04 2.43858E-06-2.58494E-25
 -1       605 1.62336E-04 2.69740E-06 0.00000E+00
 -1       606 1.65393E-04 2.97335E-06 0.00000E+00
 -1       607 1.65418E-04 3.92165E-06 0.00000E+00
 -1       608 1.65442E-04 5.04362E-06 0.00000E+00
 -1       609 1.65465E-04 6.32701E-06-3.30872E-24
 -1       610 1.65488E-04 7.75949E-06 0.00000E+00
 -1       611 1.65510E-04 9.32859E-06 0.00000E+00
 -1       612 1.65533E-04 1.10218E-05 0.00000E+00
 -1       613 1.65555E-04 1.28266E-05 1.65436E-24
 -1       614 1.65576E-04 1.47306E-05 0.00000E+00
 -1       615 1.65598E-04 1.67213E-05 0.00000E+00
 -1       616 1.65620E-04 1.87860E-05 0.00000E+00
 -1       617 1.65641E-04 2.09125E-05 0.00000E+00
 -1       618 1.65662E-04 2.30881E-05 0.00000E+00
 -1       619 1.65683E-04 2.53004E-05-1.65436E-24
 -1       620 1.65704E-04 2.75368E-05 0.00000E+00
 -1       621 1.64752E-04 2.35129E-06-3.30872E-24
 -1       622 1.64171E-04 2.49334E-06 0.00000E+00
 -1       623 1.63620E-04 2.63536E-06-3.30872E-24
 -1       624 1.63101E-04 2.77710E-06-1.65436E-24
 -1       625 1.62612E-04 2.91852E-06 0.00000E+00
 -1       626 1.65228E-04 3.04100E-06 0.00000E+00
 -1       627 1.65028E-04 4.04825E-06-3.30872E-24
 -1       628 1.64768E-04 5.21464E-06 0.00000E+00
 -1       629 1.64456E-04 6.52234E-06 0.00000E+00
 -1       630 1.64097E-04 7.95353E-06 0.00000E+00
 -1       631 1.63698E-04 9.49029E-06-3.30872E-24
 -1       632 1.63266E-04 1.11147E-05 0.00000E+00
 -1       633 1.62808E-04 1.28088E-05 6.61744E-24
 -1       634 1.62331E-04 1.45548E-05-6.61744E-24
 -1       635 1.61840E-04 1.63347E-05 6.61744E-24
 -1       636 1.61344E-04 1.81307E-05-3.30872E-24
 -1       637 1.60848E-04 1.99249E-05-1.65436E-24
 -1       638 1.60359E-04 2.16993E-05-3.30872E-24
 -1       639 1.59885E-04 2.34360E-05 0.00000E+00
 -1       640 1.59430E-04 2.51172E-05 3.30872E-24
 -1       656 1.63859E-04 2.92863E-05 6.61744E-24
 -1       657 1.62627E-04 2.87681E-05 0.00000E+00
 -1       658 1.61782E-04 2.82519E-05 0.00000E+00
 -1       659 1.61070E-04 2.77362E-05-6.61744E-24
 -1       660 1.60230E-04 2.72189E-05 6.61744E-24
 -1       661 1.65032E-04 3.20187E-05 0.00000E+00
 -1       662 1.64363E-04 3.42076E-05 0.00000E+00
 -1       663 1.63712E-04 3.63462E-05 0.00000E+00
 -1       664 1.63083E-04 3.84312E-05-1.65436E-24
 -1       665 1.62475E-04 4.04584E-05 0.00000E+00
 -1       666 1.61891E-04 4.24240E-05 0.00000E+00
 -1       667 1.61332E-04 4.43236E-05 3.30872E-24
 -1       668 1.60800E-04 4.61530E-05-1.65436E-24
 -1       669 1.60295E-04 4.79073E-05 3.30872E-24
 -1       670 1.59821E-04 4.95819E-05 0.00000E+00
 -1       671 1.59378E-04 5.11715E-05 3.30872E-24
 -1       672 1.58970E-04 5.26708E-05 0.00000E+00
 -1       673 1.58597E-04 5.40741E-05 0.00000E+00
 -1       674 1.58261E-04 5.53751E-05-1.65436E-24
 -1       675 1.57967E-04 5.65681E-05 8.27181E-25
 -1       676 1.62585E-04 5.83450E-05 3.30872E-24
 -1       677 1.61606E-04 5.82037E-05 0.00000E+00
 -1       678 1.60627E-04 5.80625E-05 0.00000E+00
 -1       679 1.59651E-04 5.79217E-05 1.65436E-24
 -1       680 1.58677E-04 5.77809E-05 3.30872E-24
 -1       771 3.00783E-05 5.95301E-06 0.00000E+00
 -1       772 2.27573E-05 1.95024E-05 0.00000E+00
 -1       773 1.65117E-05 3.02860E-05 1.05879E-22
 -1       774 1.12735E-05 3.84576E-05 0.00000E+00
 -1       775 6.97542E-06 4.41778E-05 0.00000E+00
 -1       776 3.54528E-06 4.76199E-05 1.05879E-22
 -1       777 9.09756E-07 4.89637E-05-5.29396E-23
 -1       778-1.00733E-06 4.83993E-05 0.00000E+00
 -1       779-2.28295E-06 4.61227E-05 0.00000E+00
 -1       780-2.99638E-06 4.23380E-05 0.00000E+00
 -1       781-3.22727E-06 3.72541E-05-5.29396E-23
 -1       782-3.05698E-06 3.10863E-05-2.64698E-23
 -1       783-2.56707E-06 2.40529E-05 0.00000E+00
 -1       784-1.83989E-06 1.63769E-05 2.64698E-23
 -1       785-9.58336E-07 8.28309E-06 5.29396E-23
 -1       786 1.60332E-04 2.60515E-06-1.65436E-24
 -1       787 1.60453E-04 2.48379E-06 0.00000E+00
 -1       788 1.60573E-04 2.36136E-06 0.00000E+00
 -1       789 1.60695E-04 2.24215E-06 1.65436E-24
 -1       790 1.60816E-04 2.13060E-06 0.00000E+00
 -1       791 1.60938E-04 2.03116E-06 0.00000E+00
 -1       792 1.61060E-04 1.94879E-06 0.00000E+00
 -1       793 1.61182E-04 1.88851E-06 0.00000E+00
 -1       794 1.61304E-04 1.85624E-06 3.30872E-24
 -1       795 1.61426E-04 1.85799E-06 1.65436E-24
 -1       796 1.61548E-04 1.90118E-06 3.30872E-24
 -1       797 1.61670E-04 1.99337E-06-1.65436E-24
 -1       798 1.61792E-04 2.14411E-06 0.00000E+00
 -1       799 1.61913E-04 2.36319E-06 1.65436E-24
 -1       800 1.62035E-04 2.66313E-06 0.00000E+00
 -1       801 1.49048E-04 2.65410E-06 0.00000E+00
 -1       802 1.16816E-04 2.15191E-06-1.65436E-24
 -1       803 7.46688E-05 1.31624E-06 0.00000E+00
 -1       804 3.37408E-05 5.16604E-07 6.61744E-24
 -1       805 5.13888E-06 1.05804E-07 0.00000E+00
 -1       806 1.60111E-04 2.52851E-06 0.00000E+00
 -1       807 1.59998E-04 2.33760E-06 0.00000E+00
 -1       808 1.59880E-04 2.15744E-06 3.30872E-24
 -1       809 1.59754E-04 1.99565E-06 1.65436E-24
 -1       810 1.59618E-04 1.85984E-06-3.30872E-24
 -1       811 1.59469E-04 1.75750E-06 0.00000E+00
 -1       812 1.59305E-04 1.69608E-06-3.30872E-24
 -1       813 1.59123E-04 1.68303E-06 1.65436E-24
 -1       814 1.58920E-04 1.72579E-06-3.30872E-24
 -1       815 1.58693E-04 1.83178E-06-1.65436E-24
 -1       816 1.58440E-04 2.00842E-06 0.00000E+00
 -1       817 1.58157E-04 2.26312E-06 1.65436E-24
 -1       818 1.57843E-04 2.60327E-06-6.61744E-24
 -1       819 1.57494E-04 3.03622E-06 8.27181E-25
 -1       820 1.57107E-04 3.56932E-06 3.30872E-24
 -1       821 1.61969E-04 3.59091E-06-1.65436E-24
 -1       822 1.61772E-04 4.31160E-06-1.65436E-24
 -1       823 1.61576E-04 5.22226E-06 0.00000E+00
 -1       824 1.61377E-04 6.32476E-06 0.00000E+00
 -1       825 1.61179E-04 7.60899E-06 0.00000E+00
 -1       826 1.60979E-04 9.06343E-06 0.00000E+00
 -1       827 1.60780E-04 1.06659E-05 0.00000E+00
 -1       828 1.60580E-04 1.23932E-05 0.00000E+00
 -1       829 1.60380E-04 1.42142E-05 6.61744E-24
 -1       830 1.60180E-04 1.60970E-05 3.30872E-24
 -1       831 1.59980E-04 1.80061E-05 0.00000E+00
 -1       832 1.59780E-04 1.99054E-05-3.30872E-24
 -1       833 1.59580E-04 2.17598E-05 0.00000E+00
 -1       834 1.59383E-04 2.35343E-05 1.65436E-24
 -1       835 1.59186E-04 2.51989E-05 1.65436E-24
 -1       836 1.61528E-04 3.24802E-06 0.00000E+00
 -1       837 1.60671E-04 3.44408E-06 0.00000E+00
 -1       838 1.59670E-04 3.63971E-06 3.30872E-24
 -1       839 1.58613E-04 3.83418E-06 0.00000E+00
 -1       840 1.57588E-04 4.02858E-06-8.27181E-25
 -1       856 1.58926E-04 2.82925E-05 0.00000E+00
 -1       857 1.58846E-04 3.00668E-05 0.00000E+00
 -1       858 1.58766E-04 3.20143E-05 0.00000E+00
 -1       859 1.58685E-04 3.41014E-05 0.00000E+00
 -1       860 1.58603E-04 3.62943E-05 0.00000E+00
 -1       861 1.58521E-04 3.85588E-05 8.27181E-25
 -1       862 1.58439E-04 4.08608E-05 0.00000E+00
 -1       863 1.58357E-04 4.31662E-05 1.65436E-24
 -1       864 1.58275E-04 4.54405E-05 0.00000E+00
 -1       865 1.58192E-04 4.76496E-05 0.00000E+00
 -1       866 1.58111E-04 4.97594E-05 0.00000E+00
 -1       867 1.58029E-04 5.17361E-05-1.65436E-24
 -1       868 1.57948E-04 5.35460E-05-3.30872E-24
 -1       869 1.57867E-04 5.51557E-05-1.65436E-24
 -1       870 1.57786E-04 5.65323E-05 1.65436E-24
 -1       871 1.57858E-04 2.67191E-05 0.00000E+00
 -1       872 1.56953E-04 2.67099E-05 0.00000E+00
 -1       873 1.56184E-04 2.67000E-05 0.00000E+00
 -1       874 1.55447E-04 2.66892E-05 4.13590E-25
 -1       875 1.54639E-04 2.66774E-05 8.27181E-25
 -1       876 1.58600E-04 2.83062E-05 0.00000E+00
 -1       877 1.58170E-04 2.99844E-05-3.30872E-24
 -1       878 1.57709E-04 3.17466E-05 0.00000E+00
 -1       879 1.57220E-04 3.35815E-05 3.30872E-24
 -1       880 1.56709E-04 3.54776E-05-6.61744E-24
 -1       881 1.56179E-04 3.74235E-05 0.00000E+00
 -1       882 1.55634E-04 3.94081E-05 0.00000E+00
 -1       883 1.55079E-04 4.14199E-05 0.00000E+00
 -1       884 1.54518E-04 4.34478E-05 6.61744E-24
 -1       885 1.53956E-04 4.54803E-05-3.30872E-24
 -1       886 1.53395E-04 4.75064E-05 6.61744E-24
 -1       887 1.52841E-04 4.95145E-05 0.00000E+00
 -1       888 1.52298E-04 5.14935E-05 0.00000E+00
 -1       889 1.51769E-04 5.34318E-05-1.65436E-24
 -1       890 1.51259E-04 5.53181E-05-3.30872E-24
 -1       891 1.56781E-04 5.75593E-05-1.65436E-24
 -1       892 1.55826E-04 5.74746E-05 0.00000E+00
 -1       893 1.54794E-04 5.73900E-05 0.00000E+00
 -1       894 1.53637E-04 5.73054E-05 0.00000E+00
 -1       895 1.52309E-04 5.72208E-05-8.27181E-25
 -1       956 1.56498E-04 5.09837E-06-3.30872E-24
 -1       957 1.56310E-04 6.13133E-06 3.30872E-24
 -1       958 1.56121E-04 7.29310E-06-3.30872E-24
 -1       959 1.55932E-04 8.56739E-06-3.30872E-24
 -1       960 1.55742E-04 9.93789E-06 6.61744E-24
 -1       961 1.55553E-04 1.13882E-05-1.65436E-24
 -1       962 1.55363E-04 1.29018E-05-6.61744E-24
 -1       963 1.55173E-04 1.44623E-05 0.00000E+00
 -1       964 1.54983E-04 1.60533E-05-6.61744E-24
 -1       965 1.54793E-04 1.76582E-05-3.30872E-24
 -1       966 1.54603E-04 1.92606E-05 0.00000E+00
 -1       967 1.54413E-04 2.08441E-05 0.00000E+00
 -1       968 1.54224E-04 2.23921E-05 0.00000E+00
 -1       969 1.54034E-04 2.38883E-05 3.30872E-24
 -1       970 1.53846E-04 2.53163E-05-6.61744E-24
 -1       971 1.53481E-04 2.80272E-05 0.00000E+00
 -1       972 1.53301E-04 2.95522E-05 0.00000E+00
 -1       973 1.53119E-04 3.12174E-05 0.00000E+00
 -1       974 1.52938E-04 3.30042E-05 1.65436E-24
 -1       975 1.52756E-04 3.48940E-05 3.30872E-24
 -1       976 1.52574E-04 3.68682E-05 3.30872E-24
 -1       977 1.52391E-04 3.89081E-05-6.61744E-24
 -1       978 1.52209E-04 4.09950E-05 0.00000E+00
 -1       979 1.52027E-04 4.31102E-05-6.61744E-24
 -1       980 1.51844E-04 4.52351E-05 0.00000E+00
 -1       981 1.51662E-04 4.73508E-05 0.00000E+00
 -1       982 1.51480E-04 4.94387E-05 3.30872E-24
 -1       983 1.51298E-04 5.14800E-05 6.61744E-24
 -1       984 1.51117E-04 5.34561E-05 0.00000E+00
 -1       985 1.50937E-04 5.53483E-05 3.30872E-24
 -3
    1PSTEP                         2           1           1          
  100CL  101 1.000000000         409                     0    1           1
 -4  STRESS      6    1
 -5  SXX         1    4    1    1
 -5  SYY         1    4    2    2
 -5  SZZ         1    4    3    3
 -5  SXY         1    4    1    2
 -5  SYZ         1    4    2    3
 -5  SZX         1    4    3    1
 -1         1-2.90014E+06-1.34638E+06-5.73143E+05-1.99881E+06 1.67347E-10-8.74570E-09
 -1         2 5.49474E+03 1.12133E+06 2.00079E+04 4.82000E+03 1.83149E-10 1.33161E-08
 -1         3-8.34440E+02-1.54829E+06 3.11411E+02-1.21654E+03-1.97915E-09 9.77161E-09
 -1         5-2.06005E+01 5.28539E+05 1.32394E+01 1.15625E+00 1.88373E-10 6.42103E-10
 -1         8-1.33068E+06-6.14216E+05-2.47241E+04-1.11158E+06 9.09495E-11 1.64437E-09
 -1         9-2.77446E+06-5.45633E+05-3.00210E+05-8.33116E+05 1.15251E-09-4.71482E-09
 -1        10-1.55732E+03-1.60589E+06-1.87104E+03-8.11431E+03 1.56379E-08-3.24658E-08
 -1        12-1.52381E+01 5.28567E+05 4.29669E+02 7.54914E+00 3.59755E-10-3.55476E-09
 -1        15 3.46739E+03 1.97532E+03 1.22496E+04 1.28713E+01-6.72458E-11 9.09793E-09
 -1        16-7.69555E+06-1.52080E+06-1.12585E+06-1.42053E+06 9.47815E-09-1.53668E-08
 -1        17-1.98778E+06-1.10395E+06-3.78361E+05-9.77030E+05 1.77737E-08 5.53555E-09
 -1        18-2.06305E+04-1.26814E+04-4.29592E+04-1.31852E+05 1.59093E-09-4.33647E-09
 -1        19 1.69054E+05 1.96476E+05-1.86705E+03 2.89086E+04-6.57747E-10-7.96281E-09
 -1        20 1.21791E+04-4.67879E+05-9.61430E+04 6.34039E+04 2.15277E-09 8.79542E-09
 -1        21-4.39067E+01-4.03274E+05-1.26282E+03-2.27322E+02-3.61822E-09-9.18521E-09
 -1        24-7.10241E+06-1.52766E+06-9.36155E+05-1.91468E+06-5.54671E-08-2.50681E-08
 -1        25 8.21954E+04 3.84764E+04 4.55324E+04-3.78574E+05-1.23577E-08 3.71405E-08
 -1        26-4.36205E+04 1.44082E+05-2.07732E+04-2.38552E+04 6.91944E-10 5.64647E-09
 -1        27-9.16755E+04-2.70566E+05-1.18425E+05 1.04121E+05 6.93702E-09-6.85880E-09
 -1        28 2.08220E+04-1.18356E+05 2.03443E+04 4.19053E+04 9.74697E-09 1.31567E-08
 -1        32-1.52744E+06-9.59468E+04 6.50743E+05-1.45014E+06-1.00117E-08 1.30256E-08
 -1        33-2.36618E+05 1.46058E+05 4.99265E+04-6.61926E+04 9.27268E-10 7.39419E-09
 -1        34-3.25739E+05-3.44669E+04 7.37450E+02 1.04165E+05 5.89959E-10-9.21257E-09
 -1        35-3.55353E+04-5.03070E+04-2.14262E+03 7.91677E+04 1.92656E-08 3.41727E-09
 -1        51 2.40053E+04-7.38890E+05 6.55053E+04-1.88991E+06-5.82077E-11 9.05129E-09
 -1        52 2.36187E+04-7.49459E+05 4.53196E+04-2.18034E+06 2.18279E-10-9.79344E-09
 -1        53 2.29318E+04-7.86478E+05 3.84923E+04-1.88325E+06 8.44011E-10-1.07684E-09
 -1        54 5.52010E+04-7.94809E+05 6.31573E+04-2.18670E+06 2.91038E-11-2.56696E-08
 -1        55 9.16126E+04-8.21451E+05 1.12664E+05-1.88170E+06-7.27596E-10 1.56651E-08
 -1        56-5.60842E+06-6.48036E+05-4.27594E+05-2.15557E+06 3.76167E-09-9.98261E-09
 -1        57-5.74966E+06-1.03432E+06-2.83765E+05-2.17176E+06-1.07502E-09-3.20142E-09
 -1        58-5.69571E+06-7.70933E+05-1.00638E+05-2.12721E+06-7.74889E-10-3.27054E-09
 -1        59-5.64881E+06-8.88110E+05-5.87448E+04-2.20695E+06 2.43017E-09-1.46065E-08
 -1        60-5.70807E+06-7.86634E+05-2.34394E+04-2.12318E+06 4.74756E-10-3.74621E-09
 -1        61-5.63827E+06-8.65339E+05-1.30261E+04-2.20676E+06-3.60887E-09-2.18375E-09
 -1        62-5.70574E+06-7.92953E+05-6.50363E+03-2.12749E+06-5.27507E-10 1.14678E-08
 -1        63-5.64802E+06-8.50759E+05-5.11811E+03-2.19222E+06 3.27418E-11-6.13227E-09
 -1        64-5.69750E+06-8.01621E+05-6.38138E+03-2.13719E+06-2.17096E-09-5.83077E-09
 -1        65-5.66814E+06-8.33332E+05-1.20094E+04-2.16889E+06 2.36469E-10 1.78206E-08
 -1        66-5.68493E+06-8.10936E+05-2.22107E+04-2.15027E+06-1.55433E-09 1.01245E-08
 -1        67-5.70308E+06-8.29012E+05-5.44659E+04-2.13980E+06 1.88857E-09 1.05683E-09
 -1        68-5.66273E+06-8.06841E+05-9.39732E+04-2.16596E+06-1.60117E-09 2.53531E-08
 -1        69-5.81343E+06-9.49946E+05-2.64074E+05-2.09120E+06-7.63976E-10 3.63798E-08
 -1        70-5.57680E+06-6.96378E+05-3.98093E+05-2.19698E+06-2.13186E-09-1.51340E-09
 -1        86-2.82409E+03 1.11445E+06 2.14710E+04-2.41037E+03-3.91083E-10 1.77056E-09
 -1        87 1.90022E+04 1.12832E+06 4.45951E+04 1.00347E+04-1.58207E-09 2.72428E-09
 -1        88-1.62440E+04 1.10751E+06 6.87117E+04-7.62578E+03-2.03363E-09 2.25509E-09
 -1        89 1.24865E+05 1.17946E+06 1.84175E+05 2.20237E+04-3.30510E-09 3.54930E-09
 -1        90-1.07708E+05 1.06356E+06 2.61720E+05-1.43930E+04-3.40515E-09 1.54264E-08
 -1       121-1.11403E+03-1.55057E+06-8.08972E+01 6.04697E+02 8.39705E-10 1.15906E-08
 -1       122-7.20334E+02-1.54828E+06 6.84461E+02-2.43608E+03-1.84242E-09 6.83940E-10
 -1       123-1.13898E+03-1.55067E+06 7.61105E+02 1.81008E+03 1.73816E-09-8.21819E-09
 -1       124 5.36757E+02-1.54767E+06 2.88575E+03-5.26374E+03-2.38424E-09-1.64000E-08
 -1       125-1.72776E+03-1.55144E+06 4.17787E+03 3.41653E+03 2.07910E-09-5.74073E-09
 -1       191-2.20623E+01 5.28582E+05 1.52659E+01-5.82507E-01 2.74410E-10 7.17682E-09
 -1       192-2.18287E+01 5.28540E+05 2.80543E+01 3.15753E+00 3.28178E-10-1.82408E-08
 -1       193-2.53197E+01 5.28581E+05 5.16254E+01-2.60339E+00 4.55376E-10-8.16635E-09
 -1       194-2.57772E+01 5.28544E+05 1.06161E+02 6.90391E+00 3.04020E-10-7.97627E-10
 -1       195-3.15761E+01 5.28578E+05 2.07096E+02-4.36866E+00 7.11907E-10 1.56106E-08
 -1       251 6.87938E+05-9.43333E+04 2.26952E+05 1.89962E+04-2.00544E-09-4.75848E-09
 -1       252 7.96209E+05 1.08634E+05 1.60741E+05-7.12640E+04 2.24827E-09 1.14524E-08
 -1       253 7.28114E+05-1.42080E+04 5.87221E+04 1.21413E+04-4.00178E-10 6.27188E-09
 -1       254 7.47708E+05 1.62639E+04 3.70578E+04-6.04315E+04-1.34605E-10 1.71603E-08
 -1       255 7.35257E+05-2.15334E+03 1.51645E+04 8.16276E+03 8.00355E-10 1.25310E-08
 -1       256 7.38605E+05 2.68333E+03 9.19707E+03-5.45675E+04 3.16504E-10-1.73986E-09
 -1       257 7.36670E+05-3.72280E+02 4.74451E+03 6.27711E+03 1.06888E-09-7.29415E-10
 -1       258 7.37029E+05 1.00283E+03 4.13265E+03-5.26773E+04-2.48339E-09 6.70147E-09
 -1       259 7.36671E+05-3.72352E+02 4.74600E+03 6.27320E+03-7.53857E-10-1.00397E-09
 -1       260 7.38601E+05 2.68512E+03 9.20007E+03-5.45565E+04 9.63155E-10-5.50392E-09
 -1       261 7.35259E+05-2.15419E+03 1.51718E+04 8.15575E+03 1.66938E-09 1.28084E-08
 -1       262 7.47700E+05 1.62728E+04 3.70726E+04-6.04026E+04 2.14663E-09 1.90303E-08
 -1       263 7.28117E+05-1.42141E+04 5.87506E+04 1.21194E+04-2.91084E-09 4.16549E-09
 -1       264 7.96209E+05 1.08686E+05 1.60809E+05-7.12080E+04-5.83941E-09 6.13363E-09
 -1       265 6.87930E+05-9.43741E+04 2.27059E+05 1.89620E+04-3.69528E-09-4.13274E-09
 -1       266-6.68338E+04-3.20104E+04 1.62736E+05-3.00402E+02-9.45874E-11-1.73111E-09
 -1       267 7.77166E+04 3.71972E+04 1.14067E+05 3.49539E+02-1.81899E-12-9.81143E-09
 -1       268-1.00596E+04-5.14401E+03 4.27803E+04-4.24045E+01 1.78261E-10-5.05219E-09
 -1       269 1.18915E+04 6.13402E+03 2.74879E+04 4.96667E+01 1.05501E-10 8.38931E-09
 -1       270-1.72033E+03-9.87591E+02 1.34171E+04-6.32098E+00-1.31877E-11-4.53661E-09
 -1       271-6.55259E+06-8.61862E+05-5.06117E+05-2.57844E+06 1.59343E-09-6.28643E-09
 -1       272-6.68968E+06-1.22581E+06-3.18510E+05-2.61584E+06-1.56797E-09-2.48365E-08
 -1       273-6.65189E+06-9.64625E+05-1.19626E+05-2.55256E+06 1.45519E-11-6.23550E-09
 -1       274-6.57233E+06-1.09534E+06-6.50457E+04-2.66348E+06-1.28057E-09 1.91285E-08
 -1       275-6.67071E+06-9.67529E+05-2.77695E+04-2.54235E+06-6.07542E-10 1.03228E-08
 -1       276-6.55118E+06-1.09157E+06-1.43083E+04-2.68197E+06-2.71666E-09-1.22286E-08
 -1       277-6.67657E+06-9.63857E+05-7.08941E+03-2.53760E+06-2.12822E-09-8.02925E-09
 -1       278-6.54684E+06-1.09396E+06-5.03176E+03-2.68770E+06-8.63906E-10 2.24813E-08
 -1       279-6.67650E+06-9.64048E+05-5.49623E+03-2.53773E+06-1.26511E-09 1.65201E-08
 -1       280-6.55098E+06-1.09053E+06-9.85863E+03-2.68139E+06-7.85803E-10-7.23685E-09
 -1       281-6.67078E+06-9.68433E+05-1.87689E+04-2.54270E+06 2.93767E-09-1.59434E-08
 -1       282-6.56860E+06-1.08858E+06-4.32828E+04-2.66296E+06-1.76260E-09-1.43609E-08
 -1       283-6.65507E+06-9.69934E+05-7.99486E+04-2.55276E+06-6.58474E-10-3.05590E-10
 -1       284-6.65253E+06-1.16837E+06-2.11775E+05-2.62228E+06 1.60799E-09 7.65431E-09
 -1       285-6.58478E+06-9.06200E+05-3.37469E+05-2.57451E+06-5.12591E-09 2.09548E-09
 -1       301 3.39462E+04 9.05304E+04 2.09331E+05 2.32713E+04-8.84756E-09 1.22484E-08
 -1       302 2.62252E+04 1.41926E+05 1.49352E+05 3.25471E+04-1.49430E-09-2.78296E-08
 -1       303 1.11605E+03 1.08635E+05 1.38089E+05 2.28403E+04-7.81802E-09-1.14187E-08
 -1       304 5.06273E+04 1.64607E+05 2.31338E+05 3.24289E+04-1.13505E-09 1.02964E-08
 -1       305 6.89699E+04 6.80796E+04 3.93581E+05 2.39422E+04-7.18865E-09-6.93126E-09
 -1       306-8.76351E+06-1.13667E+06-7.20779E+05-3.61940E+06 3.72529E-09-1.84809E-08
 -1       307-9.59027E+06-1.28112E+06-4.89740E+05-2.98431E+06 2.83908E-08-8.94943E-09
 -1       308-8.91182E+06-1.37731E+06-1.69913E+05-3.57021E+06 5.45151E-09 1.18234E-08
 -1       309-9.25848E+06-1.13157E+06-9.60643E+04-3.17311E+06-1.96223E-09 1.90739E-08
 -1       310-9.08238E+06-1.29010E+06-4.73376E+04-3.42312E+06 3.29237E-09 5.58430E-09
 -1       311-8.94826E+06-1.36533E+06-1.49364E+04-3.49219E+06 1.14642E-08 2.73462E-08
 -1       312-9.21802E+06-1.14559E+06-1.44908E+04-3.24876E+06-1.91358E-09 2.80315E-08
 -1       313-8.79335E+06-1.54696E+06-7.10458E+03-3.73105E+06-1.47556E-08 1.39281E-08
 -1       314-9.24988E+06-1.09857E+06-1.09974E+04-3.19385E+06-1.78957E-08-2.31585E-08
 -1       315-8.83336E+06-1.50381E+06-1.97884E+04-3.66579E+06-1.99361E-09-2.07365E-10
 -1       316-9.17355E+06-1.19236E+06-4.83938E+04-3.31063E+06 1.70021E-08 1.14924E-08
 -1       317-9.08030E+06-1.30143E+06-1.00915E+05-3.35572E+06 3.35558E-09 1.31513E-09
 -1       318-8.99381E+06-1.30917E+06-1.86135E+05-3.49633E+06-1.23409E-08 2.02199E-08
 -1       319-9.53579E+06-1.35779E+06-5.20900E+05-3.03362E+06 5.34783E-10-2.99842E-08
 -1       320-8.73122E+06-1.13227E+06-7.67708E+05-3.63999E+06 2.10130E-08-8.81846E-09
 -1       336-2.37692E+02-1.66441E+06-8.56282E+03 4.63770E+03-4.89581E-09 4.04543E-09
 -1       337-2.94543E+03-1.66471E+06-8.80215E+03-1.14806E+04 3.55340E-09 1.25292E-08
 -1       338-4.10033E+02-1.66477E+06-1.18407E+04 6.74613E+03-6.26096E-09-2.29920E-08
 -1       339-1.07299E+04-1.67063E+06-2.47122E+04-1.55707E+04 5.49380E-09-1.74041E-08
 -1       340 5.62821E+03-1.65945E+06-3.93111E+04 8.67970E+03-6.69024E-09 1.96414E-08
 -1       406 1.70390E+01 5.28558E+05 8.47647E+02-3.28176E+00 9.69635E-10 1.31504E-08
 -1       407 2.80553E+02 5.28716E+05 1.80264E+03-8.07880E+00 1.10617E-10 4.16148E-08
 -1       408 9.12345E+02 5.28428E+05 3.59931E+03 1.19286E+01 1.22009E-09 3.36750E-08
 -1       409 3.87823E+03 5.29865E+05 8.10352E+03-1.42228E+02 4.86580E-11 1.40299E-08
 -1       410 1.11700E+04 5.27402E+05 1.65421E+04 1.41891E+02 1.21327E-09-1.16052E-09
 -1       521-1.42576E+07-2.65721E+06-1.26879E+06-6.66937E+06 2.15950E-08-5.37257E-08
 -1       522-1.75446E+07 1.63702E+05-6.59523E+05-2.95519E+06 6.88815E-08 3.72529E-09
 -1       523-1.39331E+07-3.17987E+06-2.77013E+05-6.80711E+06 1.79452E-08 2.12167E-08
 -1       524-1.57190E+07-3.33859E+05 3.21579E+04-3.56474E+06-2.15441E-08 5.45479E-08
 -1       525-1.57578E+07-2.41604E+06-3.46563E+05-5.79286E+06-4.84579E-09 4.69299E-09
 -1       526-1.31401E+07-2.56424E+06 1.88299E+05-6.14988E+06 6.28643E-09-3.32802E-08
 -1       527-1.63623E+07-1.07504E+06-8.94953E+04-4.15458E+06 3.17668E-08-2.87655E-08
 -1       528-1.30478E+07-3.58987E+06 9.15861E+04-8.24608E+06 3.41242E-09 8.84684E-08
 -1       529-1.63423E+07-9.77931E+05-5.61075E+04-4.03792E+06-2.27519E-08 6.07833E-08
 -1       530-1.30534E+07-2.76087E+06 1.75302E+05-6.48497E+06-6.40284E-09-3.85699E-08
 -1       531-1.59185E+07-2.27200E+06-3.49548E+05-5.61671E+06 2.16241E-08 1.29221E-08
 -1       532-1.53623E+07-5.63368E+05 5.19907E+04-3.73876E+06 1.86992E-08-5.63741E-08
 -1       533-1.40666E+07-3.14618E+06-2.97080E+05-6.76168E+06 1.15142E-08-6.82194E-08
 -1       534-1.76109E+07 2.20782E+05-6.41842E+05-2.93803E+06 4.51109E-10 8.58054E-08
 -1       535-1.40738E+07-2.73450E+06-1.20145E+06-6.74639E+06-2.34286E-08 6.67060E-08
 -1       536-3.40889E+05-3.53760E+04 8.16249E+04-2.27118E+03 3.74712E-09-1.56469E-08
 -1       537-2.94157E+05 4.04910E+04 5.94700E+04-1.29068E+04-2.02522E-08-2.89119E-08
 -1       538-3.26513E+05-5.56280E+03 2.06597E+04 9.58148E+02-2.50611E-09-1.59416E-08
 -1       539-3.12021E+05 6.05292E+03 1.43027E+04-1.91738E+04 1.09358E-08-1.20071E-08
 -1       540-3.23315E+05-9.26277E+02 4.93456E+03 3.98909E+03 1.64209E-09 6.33690E-09
 -1       541-3.16982E+05 8.85377E+02 3.63680E+03-2.45544E+04-1.12107E-09 2.76984E-08
 -1       542-3.21897E+05-1.73697E+02 9.64453E+02 6.33424E+03-2.71166E-09 7.18717E-09
 -1       543-3.19585E+05 1.63116E+02 5.84880E+02-2.83592E+04 5.98845E-10 8.25946E-09
 -1       544-3.21019E+05 1.40597E+01-4.42544E+02 7.79316E+03 2.12856E-09-7.07149E-09
 -1       545-3.21115E+05-2.94909E+02-1.47382E+03-3.02773E+04-2.41926E-10 1.20294E-08
 -1       546-3.20543E+05 4.08784E+02-2.83370E+03 8.25318E+03 9.96273E-10 1.17222E-09
 -1       547-3.22442E+05-3.13034E+03-7.07762E+03-3.01622E+04-6.77065E-09 2.17436E-08
 -1       548-3.19682E+05 2.82793E+03-1.15575E+04 7.67790E+03-7.74537E-09 7.07860E-09
 -1       549-3.29641E+05-2.15467E+04-3.09673E+04-2.79959E+04-2.00805E-09-1.63391E-09
 -1       550-3.13152E+05 1.85900E+04-4.47329E+04 6.08616E+03 4.16549E-10-7.48696E-09
 -1       551 4.45975E+04-9.38891E+05 4.01446E+04-1.45217E+06 3.69619E-09-3.71074E-09
 -1       552 8.40971E+04-9.64837E+05 5.54484E+04-1.99816E+06 4.65661E-10 2.68847E-08
 -1       553 6.24130E+04-9.70337E+05 8.46192E+04-1.44673E+06 4.08909E-09 1.88229E-08
 -1       554 1.30145E+05-9.51528E+05 1.78381E+05-1.99934E+06 4.48199E-09 6.86487E-09
 -1       555 1.23831E+05-9.98668E+05 3.21261E+05-1.44784E+06 2.96859E-09-8.09086E-09
 -1       556 1.59694E+05-3.01753E+05 9.38263E+04-3.58960E+05-3.78350E-09 1.23400E-08
 -1       557 2.93408E+05-4.01900E+05 5.11595E+04-4.67211E+05-4.07454E-08 3.21052E-10
 -1       558 1.53006E+05-3.06724E+05 1.88828E+04-3.53697E+05-6.08270E-09 9.79344E-09
 -1       559 2.67233E+05-4.12262E+05 1.02157E+04-4.80960E+05 1.59052E-08 1.26929E-08
 -1       560 1.43749E+05-3.00560E+05 3.30995E+03-3.60261E+05 1.58034E-08 2.05910E-09
 -1       561 2.54342E+05-4.07777E+05 2.18517E+03-4.89263E+05 1.82772E-08 7.23958E-10
 -1       562 1.36678E+05-2.95919E+05 4.48504E+02-3.65371E+05 9.76434E-09 1.14851E-08
 -1       563 2.45977E+05-4.04186E+05 5.90922E+02-4.94619E+05-4.10000E-09-7.71126E-09
 -1       564 1.32297E+05-2.93076E+05 1.42805E+02-3.68477E+05 4.04543E-09-6.52562E-09
 -1       565 2.41622E+05-4.02311E+05 2.28760E+02-4.97364E+05-8.13088E-10-1.87283E-08
 -1       566 1.30708E+05-2.92029E+05-5.08851E+00-3.69603E+05-1.92613E-08-8.43647E-09
 -1       567 2.41217E+05-4.02130E+05-2.37608E+02-4.97480E+05-8.09086E-09 1.33768E-08
 -1       568 1.31999E+05-2.92868E+05-9.92949E+02-3.68833E+05 1.52068E-09-6.32645E-09
 -1       569 2.43237E+05-4.02908E+05-2.22460E+03-4.93679E+05-1.52977E-08 5.57702E-09
 -1       570 1.37348E+05-2.97107E+05-5.21588E+03-3.67115E+05-7.07951E-09-4.69117E-09
 -1       571 3.83033E+05 1.47012E+04 2.18093E+04-9.53347E+04-1.72804E-10 7.94444E-09
 -1       572 3.86259E+05 5.11616E+03 1.06874E+04-1.04488E+05-2.16460E-09-2.74486E-09
 -1       573 3.84288E+05 1.22581E+03 4.74775E+03-9.50792E+04 3.05590E-10-1.20417E-09
 -1       574 3.84655E+05 4.17256E+02 2.37992E+03-1.04768E+05-1.30922E-09 8.45830E-10
 -1       575 3.84402E+05 7.83947E+01 1.12130E+03-9.50464E+04-5.77074E-10-2.40016E-09
 -1       576 3.84421E+05 4.72230E+01 5.70525E+02-1.04805E+05-1.39460E-09-3.07409E-09
 -1       577 3.84417E+05 1.99805E+01 2.79118E+02-9.50421E+04-9.71204E-09 3.25326E-09
 -1       578 3.84407E+05 2.47480E+01 1.48588E+02-1.04810E+05-1.95541E-08-4.24825E-09
 -1       579 3.84459E+05 5.54781E+00 8.26335E+01-9.50417E+04-8.43011E-09-1.49157E-10
 -1       580 3.84470E+05-6.28264E+00 6.46488E+01-1.04806E+05 4.71118E-10 2.50566E-09
 -1       581 3.84544E+05-3.71354E+01 7.07077E+01-9.50466E+04-6.11180E-10 2.28556E-09
 -1       582 3.84597E+05-4.98373E+01 1.25934E+02-1.04752E+05-3.56522E-10 4.47471E-10
 -1       583 3.84666E+05-5.45342E+01 2.28276E+02-9.50957E+04-2.14095E-09-1.75146E-08
 -1       584 3.84839E+05 9.75223E+01 5.13804E+02-1.04334E+05-3.10229E-09-7.31507E-09
 -1       585 3.84758E+05 5.23213E+02 1.03054E+03-9.54649E+04 3.23780E-10 7.99628E-09
 -1       586-3.28374E+03 1.30551E+05-4.43221E+03-3.27917E+05 7.07132E-10 7.30051E-09
 -1       587-3.55467E+02 1.29925E+05 1.07960E+02-3.60829E+05 1.36788E-09 2.25841E-08
 -1       588 1.54315E+03 1.29993E+05 4.60280E+03-3.27711E+05 1.12595E-09 1.51003E-08
 -1       589 6.52279E+03 1.32474E+05 1.25791E+04-3.60539E+05 1.19326E-09 1.53159E-08
 -1       590 1.82275E+04 1.28791E+05 2.66104E+04-3.28214E+05 4.60204E-10-1.21618E-08
 -1       591-1.06212E+05-2.93372E+04-2.94364E+04-5.26918E+04 2.32876E-09-2.82489E-09
 -1       592-1.08940E+05-3.47965E+04-1.57180E+04-6.02798E+04 3.01975E-09 1.97360E-09
 -1       593-1.08937E+05-2.61133E+04-6.58156E+03-5.51668E+04-3.61297E-10 1.22527E-08
 -1       594-1.04996E+05-3.07559E+04-3.26927E+03-6.04540E+04-2.81409E-09 8.36610E-09
 -1       595-1.09152E+05-2.60694E+04-1.50557E+03-5.52721E+04-1.43473E-10 2.70880E-09
 -1       596-1.04738E+05-3.05845E+04-7.65257E+02-6.04244E+04 2.57489E-09-8.89779E-09
 -1       597-1.09182E+05-2.60884E+04-4.18691E+02-5.52757E+04-3.45835E-10-6.38283E-09
 -1       598-1.04712E+05-3.05792E+04-3.39591E+02-6.04157E+04-6.21327E-09-6.98856E-09
 -1       599-1.09178E+05-2.60897E+04-4.37965E+02-5.52743E+04-1.77602E-09 9.39281E-10
 -1       600-1.04736E+05-3.05872E+04-8.16001E+02-6.04198E+04-1.41813E-09 2.78744E-08
 -1       601-1.09141E+05-2.60721E+04-1.61325E+03-5.52677E+04-4.05771E-09 8.96080E-09
 -1       602-1.05010E+05-3.07714E+04-3.50700E+03-6.04448E+04-3.86126E-09 3.18323E-11
 -1       603-1.08905E+05-2.61247E+04-7.06175E+03-5.51541E+04 1.70076E-10-3.69801E-09
 -1       604-1.09253E+05-3.50890E+04-1.68629E+04-6.02321E+04-1.71622E-09 1.30799E-08
 -1       605-1.05959E+05-2.95992E+04-3.15805E+04-5.25142E+04 2.95563E-09 7.24140E-09
 -1       606 7.04010E+04-1.70491E+04-3.22150E+04 4.80949E+04-6.70479E-09-4.20732E-09
 -1       607 6.47303E+04-5.46634E+03-1.61115E+04 5.44698E+04-6.27551E-10 9.08130E-10
 -1       608 6.78821E+04-8.51650E+02-7.23181E+03 4.76978E+04-2.39379E-09 5.65478E-09
 -1       609 6.72480E+04-1.95103E+02-3.65681E+03 5.49036E+04-2.15205E-08 1.32234E-08
 -1       610 6.75451E+04 7.39056E+01-1.75514E+03 4.76552E+04-2.25009E-08 9.27821E-09
 -1       611 6.74045E+04 1.18976E+02-8.83970E+02 5.49479E+04-1.83509E-08 4.37922E-10
 -1       612 6.74251E+04 1.19313E+02-4.25616E+02 4.76516E+04-4.46926E-09 6.06997E-09
 -1       613 6.73543E+04 1.57718E+02-1.91586E+02 5.49520E+04-1.16634E-08-1.23227E-08
 -1       614 6.73482E+04 1.42608E+02-5.19253E+01 4.76505E+04-1.52249E-09 1.31195E-09
 -1       615 6.72975E+04 1.87549E+02 6.80453E+01 5.49519E+04 8.85757E-09 1.30285E-09
 -1       616 6.72900E+04 1.68528E+02 2.14450E+02 4.76512E+04-6.04541E-09-7.80165E-09
 -1       617 6.72867E+04 2.48318E+02 4.94923E+02 5.49502E+04 3.43834E-09-6.93035E-10
 -1       618 6.72225E+04 3.08631E+02 9.96934E+02 4.76515E+04-7.89441E-10-2.34727E-08
 -1       619 6.76260E+04 9.88691E+02 2.23731E+03 5.49472E+04 1.45201E-09 1.56342E-09
 -1       620 6.68694E+04 2.56594E+03 4.47631E+03 4.76472E+04 1.25146E-09 1.08121E-08
 -1       621 5.74582E+02 4.07329E+05 4.18965E+03-4.81204E+02 6.85304E-10-6.74640E-09
 -1       622 5.15303E+02 4.08315E+05 4.13960E+03-6.73021E+02-3.97506E-10 2.05455E-09
 -1       623 6.01362E+01 4.07536E+05 5.59229E+03-5.14544E+02 6.69161E-10-6.27097E-09
 -1       624 2.64163E+03 4.10288E+05 1.12790E+04-6.05604E+02-6.13682E-10-5.65774E-09
 -1       625 3.61817E+03 4.05354E+05 2.02050E+04-5.46817E+02 8.29459E-10-2.45936E-08
 -1       626 3.52453E+05 9.92232E+04 7.28401E+03 1.92755E+05-1.98997E-09 1.15433E-08
 -1       627 3.47045E+05 1.03506E+05 3.53305E+03 2.01204E+05 1.64437E-09 1.76838E-08
 -1       628 3.52708E+05 9.59522E+04 1.48928E+03 1.93764E+05 5.94628E-09 3.68573E-09
 -1       629 3.45909E+05 1.02750E+05 7.34174E+02 2.01613E+05 1.24055E-09-5.44492E-09
 -1       630 3.52672E+05 9.58413E+04 3.38371E+02 1.93753E+05 4.13274E-09-1.86628E-09
 -1       631 3.45734E+05 1.02757E+05 1.85554E+02 2.01576E+05-4.88944E-09 2.18122E-09
 -1       632 3.52615E+05 9.58776E+04 1.24763E+02 1.93713E+05-4.16003E-09 8.13395E-09
 -1       633 3.45676E+05 1.02781E+05 1.45956E+02 2.01536E+05 4.74392E-09-1.16379E-08
 -1       634 3.52571E+05 9.58912E+04 2.39896E+02 1.93691E+05 3.72529E-09-1.42122E-08
 -1       635 3.45670E+05 1.02789E+05 4.89002E+02 2.01524E+05 9.01218E-09 1.44792E-09
 -1       636 3.52539E+05 9.58880E+04 9.87500E+02 1.93681E+05 5.29099E-10-1.43054E-08
 -1       637 3.45865E+05 1.02926E+05 2.16573E+03 2.01523E+05 1.17006E-08-4.22460E-09
 -1       638 3.52457E+05 9.62966E+04 4.44191E+03 1.93489E+05-7.79391E-09-4.02906E-09
 -1       639 3.48216E+05 1.06012E+05 1.04942E+04 2.00926E+05-3.38014E-09 1.17361E-08
 -1       640 3.52061E+05 1.05418E+05 2.16615E+04 1.89565E+05 2.51566E-09 5.26143E-09
 -1       656 5.66815E+04-1.46698E+06-1.42264E+05-3.23182E+03 9.96806E-10 4.94822E-09
 -1       657-7.52582E+04-1.52990E+06-1.17150E+05 3.55228E+04 9.85892E-10-1.70478E-08
 -1       658 1.77360E+04-1.48502E+06-7.33494E+04-5.31178E+03 8.14225E-10-3.64378E-09
 -1       659-8.26676E+04-1.53356E+06-1.27108E+05 3.68818E+04-3.02771E-09-2.76307E-08
 -1       660 6.40429E+04-1.46336E+06-1.59472E+05-4.59047E+03-8.00355E-10-7.76390E-09
 -1       661 3.33778E+05 3.77622E+04 3.10010E+04 1.30255E+05-2.50429E-09 2.63572E-09
 -1       662 3.47637E+05 6.20976E+04 2.05636E+04 1.27342E+05-7.82757E-09-1.09649E-08
 -1       663 3.39696E+05 4.70695E+04 7.31915E+03 1.28718E+05-3.82215E-10 6.37874E-09
 -1       664 3.40806E+05 5.10641E+04 4.28051E+03 1.29293E+05-7.21639E-09 5.51148E-09
 -1       665 3.40538E+05 4.82681E+04 1.72513E+03 1.28504E+05-7.19513E-09 1.53318E-08
 -1       666 3.39813E+05 4.96791E+04 9.86090E+02 1.29589E+05-9.88877E-10 1.05912E-09
 -1       667 3.40682E+05 4.83921E+04 5.30128E+02 1.28447E+05-1.15159E-09 2.10159E-09
 -1       668 3.39644E+05 4.95988E+04 5.24078E+02 1.29690E+05-1.00849E-08-7.15319E-09
 -1       669 3.40707E+05 4.83420E+04 7.14102E+02 1.28406E+05-3.17527E-09 4.33772E-10
 -1       670 3.39765E+05 4.99578E+04 1.52114E+03 1.29742E+05 8.83153E-09 1.97966E-09
 -1       671 3.40564E+05 4.80421E+04 2.75332E+03 1.28392E+05-1.06300E-09 6.20082E-09
 -1       672 3.41191E+05 5.23860E+04 6.89707E+03 1.29481E+05 2.82647E-10 1.42427E-08
 -1       673 3.39296E+05 4.60124E+04 1.18117E+04 1.28631E+05 1.44269E-09 6.78801E-09
 -1       674 3.52047E+05 7.03872E+04 3.32059E+04 1.26542E+05 2.40743E-09 1.08421E-08
 -1       675 3.29828E+05 3.08918E+04 5.00640E+04 1.31011E+05 7.41784E-09 1.86446E-08
 -1       676 2.65407E+01-4.03182E+05-1.53106E+03 1.13667E+02-2.17540E-09-8.75026E-09
 -1       677-3.23644E+02-4.03512E+05-2.77462E+03-2.27113E+02-8.87599E-09 1.20268E-08
 -1       678 1.91072E+02-4.02944E+05-4.96715E+03 1.13350E+02 3.96267E-09 6.69701E-09
 -1       679-4.46281E+03-4.06415E+05-1.16297E+04-2.25698E+02-3.33057E-09-3.16811E-09
 -1       680 2.11051E+03-4.00281E+05-1.91172E+04 1.10347E+02-4.08909E-09 1.14308E-08
 -1       771-4.46070E+06-8.44840E+05-1.15797E+05-1.90560E+06-1.86847E-08-1.12341E-08
 -1       772-4.42642E+06-8.94895E+05-6.03035E+04-1.96932E+06-2.63826E-08 1.53705E-08
 -1       773-4.47938E+06-8.25636E+05-2.82736E+04-1.91391E+06-2.21189E-09 1.72440E-09
 -1       774-4.41315E+06-8.84053E+05-1.32432E+04-1.98312E+06 1.30967E-08 9.67702E-10
 -1       775-4.48772E+06-8.19608E+05-8.23840E+03-1.91569E+06 1.02300E-08-4.78030E-09
 -1       776-4.41582E+06-8.84450E+05-3.47821E+03-1.99314E+06-1.05938E-08-3.25781E-09
 -1       777-4.49478E+06-8.14442E+05-3.19080E+03-1.91730E+06 2.13913E-09 1.88084E-09
 -1       778-4.41949E+06-8.84785E+05-1.25046E+03-2.00181E+06 5.74801E-10 2.21553E-09
 -1       779-4.50081E+06-8.09947E+05-1.84228E+03-1.91879E+06 7.94535E-09 1.12777E-10
 -1       780-4.42299E+06-8.84879E+05-1.28621E+03-2.00891E+06 2.02272E-08 6.31462E-09
 -1       781-4.50552E+06-8.06327E+05-2.55047E+03-1.91999E+06 3.32511E-09-2.12094E-09
 -1       782-4.42608E+06-8.85047E+05-4.34777E+03-2.01418E+06 5.17684E-09-2.84967E-09
 -1       783-4.50852E+06-8.03938E+05-8.81964E+03-1.92073E+06-6.19184E-09-2.70575E-10
 -1       784-4.43297E+06-8.90342E+05-2.06788E+04-2.01714E+06-2.07001E-08-1.35005E-08
 -1       785-4.50658E+06-8.06945E+05-3.88453E+04-1.91794E+06-6.98856E-09-3.22689E-09
 -1       786 3.40908E+05-1.75551E+04 4.15726E+04 3.22870E+01 5.12904E-06 6.83231E-08
 -1       787 3.58757E+05 2.03566E+04 2.92593E+04-3.82762E+02 9.99270E-06-3.38378E-09
 -1       788 3.47828E+05-2.69575E+03 1.07687E+04 3.15714E+01 5.10551E-06-4.50523E-08
 -1       789 3.50718E+05 3.12303E+03 6.71531E+03-3.92985E+02 9.18781E-08-1.25833E-08
 -1       790 3.48950E+05-4.12574E+02 2.75474E+03 4.24994E+01 4.14207E-09 8.79277E-09
 -1       791 3.49412E+05 4.79928E+02 1.60797E+03-4.27928E+02-4.72767E-09-3.16092E-09
 -1       792 3.49135E+05-6.54725E+01 7.44624E+02 6.65137E+01 2.01164E-09 2.95913E-09
 -1       793 3.49206E+05 9.44024E+01 4.95934E+02-4.91381E+02-1.30284E-09 9.88717E-10
 -1       794 3.49157E+05-2.87138E+01 3.86512E+02 1.05953E+02 4.58357E-10 1.26892E-09
 -1       795 3.49237E+05 1.57803E+02 5.79954E+02-5.89184E+02 2.13323E-09 2.30789E-08
 -1       796 3.49104E+05-1.28643E+02 8.89382E+02 1.64319E+02 9.23954E-10-3.96653E-10
 -1       797 3.49636E+05 9.65374E+02 2.09427E+03-7.29940E+02-2.34650E-10 7.71902E-09
 -1       798 3.48758E+05-8.32542E+02 3.33388E+03 2.46711E+02-2.30791E-10 6.43399E-09
 -1       799 3.52120E+05 6.28508E+03 9.03971E+03-9.27399E+02-1.81001E-09-9.83630E-09
 -1       800 3.46619E+05-5.42069E+03 1.28348E+04 3.61769E+02-2.21902E-10 2.21798E-08
 -1       801-4.86827E+04-1.39859E+05-1.26062E+04 1.90251E+05 7.77663E-08-2.08056E-08
 -1       802 1.02515E+05 2.41925E+05 1.19525E+05-8.91595E+05 7.09761E-08 9.77343E-09
 -1       803-2.66217E+04 6.79013E+04 1.20973E+05 1.83728E+05 1.09409E-07 3.14867E-08
 -1       804 2.79733E+05 3.83621E+05 3.63676E+05-8.95512E+05 1.03435E-07 5.92420E-08
 -1       805-2.30799E+05-2.73029E+05 3.78654E+05 1.93937E+05 2.06346E-08 3.84352E-08
 -1       806-3.95268E+05-8.65047E+04-3.43105E+04-1.64973E+05-2.23827E-09-4.90763E-09
 -1       807-3.97183E+05-8.06876E+04-1.67471E+04-1.74077E+05-2.73826E-09-5.15683E-09
 -1       808-3.96031E+05-7.32696E+04-7.09744E+03-1.71069E+05-1.33837E-08-9.80874E-09
 -1       809-3.93646E+05-7.58344E+04-3.46422E+03-1.74660E+05-1.71165E-08 5.84942E-09
 -1       810-3.96168E+05-7.27537E+04-1.58314E+03-1.71354E+05-3.53248E-09-5.57884E-09
 -1       811-3.93360E+05-7.56313E+04-7.83419E+02-1.74619E+05 2.27174E-08 1.02768E-08
 -1       812-3.96188E+05-7.27870E+04-3.88255E+02-1.71352E+05 6.86668E-09-1.44646E-08
 -1       813-3.93317E+05-7.56381E+04-2.38589E+02-1.74590E+05 3.85626E-09 1.05842E-08
 -1       814-3.96175E+05-7.28056E+04-2.14868E+02-1.71342E+05-4.84033E-09 1.95901E-08
 -1       815-3.93311E+05-7.56455E+04-3.24615E+02-1.74574E+05-1.28930E-08 1.88345E-08
 -1       816-3.96141E+05-7.28127E+04-6.02405E+02-1.71331E+05-3.75258E-09 3.76258E-09
 -1       817-3.93407E+05-7.57120E+04-1.28685E+03-1.74544E+05 1.80898E-09-5.78893E-09
 -1       818-3.96051E+05-7.30359E+04-2.62629E+03-1.71229E+05 4.53110E-09-6.06360E-09
 -1       819-3.94847E+05-7.73462E+04-6.18055E+03-1.74118E+05 3.71983E-10-1.00786E-08
 -1       820-3.95595E+05-7.80689E+04-1.26627E+04-1.69131E+05-9.78616E-10 1.35378E-09
 -1       821-5.54205E+05 2.88880E+04-6.83621E+04-1.88203E+02-2.29056E-09-7.78527E-10
 -1       822-5.83521E+05-3.34964E+04-4.81250E+04-6.45861E+02-1.78983E-09-9.09131E-09
 -1       823-5.65587E+05 4.43421E+03-1.77200E+04-6.20298E+02 2.45760E-09 9.12587E-09
 -1       824-5.70294E+05-5.13919E+03-1.10611E+04 1.99921E+02 1.11902E-09 1.76192E-09
 -1       825-5.67424E+05 6.77847E+02-4.58115E+03-1.03406E+03-7.31441E-09 1.35708E-08
 -1       826-5.68166E+05-7.98571E+02-2.74746E+03 9.51310E+02-1.01335E-08-1.18227E-08
 -1       827-5.67713E+05 1.15610E+02-1.43055E+03-1.37172E+03-8.91356E-09 2.09616E-09
 -1       828-5.67886E+05-2.34918E+02-1.26312E+03 1.50300E+03-1.20318E-08 1.53168E-08
 -1       829-5.67706E+05 1.18066E+02-1.45721E+03-1.58577E+03-1.86659E-09 1.88964E-08
 -1       830-5.68205E+05-8.19791E+02-2.83141E+03 1.77726E+03 4.66424E-09 1.37608E-08
 -1       831-5.67397E+05 6.98845E+02-4.72347E+03-1.64599E+03-5.60473E-09-4.10660E-09
 -1       832-5.70416E+05-5.30129E+03-1.14270E+04 1.73792E+03-2.19710E-09-4.91559E-09
 -1       833-5.65498E+05 4.57793E+03-1.82963E+04-1.54640E+03-1.80177E-09 5.84896E-09
 -1       834-5.84069E+05-3.45883E+04-4.97066E+04 1.40345E+03-1.19121E-09-2.79297E-08
 -1       835-5.53750E+05 2.98333E+04-7.06005E+04-1.31130E+03 5.86849E-09-1.87356E-09
 -1       836-3.82504E+03 5.61809E+05 3.80339E+04-3.65613E+04-1.86083E-09 1.42327E-08
 -1       837 9.50271E+03 5.74144E+05 3.15352E+04-8.24736E+04 7.70797E-11 3.39423E-09
 -1       838-1.10754E+03 5.65382E+05 3.00218E+04-3.64664E+04-3.51520E-09-4.03043E-09
 -1       839 2.05845E+04 5.81857E+05 5.58195E+04-8.24859E+04 1.01591E-09-2.32625E-08
 -1       840-9.34204E+03 5.53976E+05 8.65993E+04-3.65439E+04-3.10683E-09-8.89759E-09
 -1       856-2.20358E+05 1.43028E+04-4.10642E+04-3.56552E+02-3.76372E-09-2.40470E-09
 -1       857-2.36845E+05-1.70066E+04-2.78310E+04 1.15599E+04-6.45883E-09-1.83190E-08
 -1       858-2.26958E+05 1.87403E+03-1.06682E+04-4.37416E+02-8.45660E-09 2.77396E-10
 -1       859-2.29336E+05-2.17483E+03-6.31629E+03 1.16869E+04 8.64020E-11-9.59642E-09
 -1       860-2.27889E+05 2.44784E+02-2.71229E+03-4.84694E+02-1.44365E-09-1.20009E-08
 -1       861-2.28279E+05-2.36207E+02-1.49515E+03 1.17502E+04-8.06182E-09-3.30624E-09
 -1       862-2.28027E+05 3.18357E+01-6.90930E+02-5.00896E+02 8.65303E-09 6.03109E-09
 -1       863-2.28120E+05 1.28845E+01-3.81840E+02 1.17530E+04 1.83116E-08 8.78714E-10
 -1       864-2.28048E+05 4.76099E+00-2.13105E+02-4.87528E+02 9.46000E-09 2.36379E-09
 -1       865-2.28089E+05 2.49452E+01-1.79961E+02 1.16954E+04 1.49893E-08-3.01810E-09
 -1       866-2.28046E+05 1.20606E+01-2.15095E+02-4.43230E+02 2.16414E-09 7.15949E-09
 -1       867-2.28123E+05-1.01024E+02-4.14547E+02 1.15768E+04 3.79657E-10-7.99298E-09
 -1       868-2.27993E+05 1.09725E+02-6.87102E+02-3.68875E+02 3.00747E-09 5.18185E-10
 -1       869-2.28551E+05-1.04200E+03-1.74660E+03 1.13843E+04-3.39514E-09 1.39128E-08
 -1       870-2.27586E+05 8.82812E+02-2.59619E+03-2.50621E+02 4.44811E-09-1.16279E-09
 -1       871-6.83136E+03-2.49078E+04-2.42927E+04 1.75004E+05-2.46473E-09 1.23910E-08
 -1       872-3.49457E+03-3.05900E+04-9.82336E+03 2.32977E+05-7.51788E-09-6.83212E-09
 -1       873-2.27415E+02-2.81286E+04 1.84318E+03 1.74606E+05-4.49700E-09 1.14769E-08
 -1       874 3.77181E+03-2.41543E+04 1.48877E+04 2.33061E+05-6.33918E-09 1.96605E-08
 -1       875 7.87637E+03-3.16064E+04 3.23223E+04 1.74951E+05-3.31602E-09 1.12004E-08
 -1       876 4.32487E+05 7.25324E+04 2.55147E+04 1.73880E+05 4.40764E-10-7.48696E-09
 -1       877 4.34918E+05 7.87271E+04 1.38217E+04 1.80414E+05-1.12618E-09-1.35149E-08
 -1       878 4.35063E+05 7.06499E+04 5.75632E+03 1.75706E+05-3.95130E-09-7.86531E-09
 -1       879 4.31338E+05 7.50359E+04 2.87772E+03 1.80588E+05-8.44830E-09-4.62592E-09
 -1       880 4.35245E+05 7.06521E+04 1.33331E+03 1.75790E+05-4.92355E-09 1.50403E-08
 -1       881 4.31095E+05 7.48626E+04 7.04833E+02 1.80546E+05-1.30603E-08 7.09898E-09
 -1       882 4.35260E+05 7.06753E+04 4.35964E+02 1.75794E+05-5.54951E-09-4.92328E-09
 -1       883 4.31077E+05 7.48525E+04 4.46070E+02 1.80531E+05-1.60480E-08-1.01329E-08
 -1       884 4.35251E+05 7.06727E+04 6.88232E+02 1.75794E+05-1.44962E-09 6.40205E-09
 -1       885 4.31133E+05 7.48662E+04 1.37144E+03 1.80547E+05 1.75450E-08 9.35756E-09
 -1       886 4.35199E+05 7.06342E+04 2.75504E+03 1.75787E+05 2.44239E-09-7.21207E-09
 -1       887 4.31642E+05 7.52277E+04 6.02968E+03 1.80614E+05-2.74298E-09-1.81626E-09
 -1       888 4.34796E+05 7.06398E+04 1.21012E+04 1.75606E+05-9.47534E-09-9.83255E-09
 -1       889 4.39069E+05 8.30884E+04 2.90731E+04 1.80332E+05-1.36951E-08-2.26682E-08
 -1       890 4.29453E+05 7.45189E+04 5.36828E+04 1.71649E+05 5.83987E-09 3.79077E-09
 -1       891-3.52191E+02-2.40886E+05-4.82813E+03 4.39842E+04 2.70927E-09 8.72387E-09
 -1       892-8.84193E+02-2.42099E+05-4.25019E+03 7.00842E+04 1.00408E-08-2.38308E-08
 -1       893-1.11883E+02-2.41192E+05-4.94702E+03 4.39868E+04 8.22183E-10 5.12955E-09
 -1       894-2.72403E+03-2.43538E+05-9.55947E+03 6.98464E+04 7.88441E-09 2.79333E-08
 -1       895-1.30381E+03-2.39178E+05-1.62864E+04 4.42160E+04-1.86992E-09 1.94213E-08
 -1       956-5.37685E+05-7.40070E+03-2.03393E+04 3.92103E+04-6.02085E-09 1.75487E-08
 -1       957-5.41847E+05-2.59389E+03-1.05188E+04 4.80862E+04-3.39787E-09 1.12959E-09
 -1       958-5.39596E+05-1.44840E+02-4.74306E+03 3.89396E+04 4.12547E-09 1.29876E-09
 -1       959-5.39940E+05 2.61129E+01-2.42352E+03 4.83793E+04-4.61387E-09-6.19366E-09
 -1       960-5.39790E+05 1.16963E+02-1.18306E+03 3.89113E+04-1.32131E-08 8.66521E-09
 -1       961-5.39838E+05 1.39128E+02-6.24369E+02 4.84132E+04-1.89370E-08 4.72119E-09
 -1       962-5.39844E+05 1.22759E+02-3.53685E+02 3.89049E+04-7.11134E-09-5.06452E-09
 -1       963-5.39853E+05 1.53356E+02-2.75838E+02 4.84221E+04-1.01318E-08 7.72707E-09
 -1       964-5.39862E+05 1.33345E+02-3.26289E+02 3.89021E+04-3.39128E-09 1.41495E-08
 -1       965-5.39878E+05 1.62182E+02-5.56515E+02 4.84235E+04 6.17851E-09 1.44050E-08
 -1       966-5.39845E+05 1.48051E+02-1.04161E+03 3.89034E+04-8.49832E-09 1.00163E-08
 -1       967-5.40004E+05 8.28590E+01-2.13254E+03 4.84066E+04-5.39762E-09-9.04106E-09
 -1       968-5.39702E+05-6.38981E+01-4.16897E+03 3.89196E+04 2.17005E-09 2.82375E-09
 -1       969-5.41716E+05-2.20575E+03-9.25346E+03 4.82262E+04 3.24280E-09 5.47618E-09
 -1       970-5.38043E+05-6.43619E+03-1.78889E+04 3.90939E+04 3.96813E-09 7.94716E-09
 -1       971-5.13799E+05-2.05495E+03-1.48468E+04 2.16635E+04-8.84938E-10 2.08211E-08
 -1       972-5.17561E+05-1.97545E+03-8.19008E+03 3.17070E+04 8.28095E-10 2.33254E-08
 -1       973-5.15529E+05 2.04778E+01-3.65417E+03 2.14618E+04 2.35104E-09 9.42032E-09
 -1       974-5.15812E+05 2.36042E+01-1.89673E+03 3.19288E+04-3.28237E-09 5.75801E-09
 -1       975-5.15676E+05 8.43199E+01-9.45923E+02 2.14370E+04 3.12866E-09-8.83369E-09
 -1       976-5.15723E+05 1.20272E+02-5.41618E+02 3.19621E+04-9.82254E-10-1.24749E-08
 -1       977-5.15710E+05 9.12152E+01-3.87218E+02 2.14280E+04 1.14960E-09-4.06385E-09
 -1       978-5.15738E+05 1.34652E+02-4.44527E+02 3.19746E+04 1.94053E-08 3.62161E-09
 -1       979-5.15712E+05 1.04914E+02-7.07724E+02 2.14243E+04 7.32155E-09 4.33647E-09
 -1       980-5.15792E+05 1.36299E+02-1.36315E+03 3.19766E+04 1.21431E-08 2.33953E-08
 -1       981-5.15666E+05 1.34377E+02-2.63788E+03 2.14260E+04 2.05955E-09 2.80306E-09
 -1       982-5.16160E+05-8.80095E+01-5.45968E+03 3.19622E+04 2.98860E-09 1.01127E-08
 -1       983-5.15315E+05 8.86532E+00-1.05811E+04 2.14396E+04 1.13560E-08 4.01542E-10
 -1       984-5.21388E+05-5.83346E+03-2.37986E+04 3.18182E+04-2.20098E-10-4.40195E-09
 -1       985-5.10375E+05-5.95692E+03-4.31296E+04 2.15887E+04 8.13452E-09 1.04519E-08
 -3
 9999
