
 stresses (elem, integ.pnt.,sxx,syy,szz,sxy,sxz,syz) for set ELALL and time  0.1000000E+01

         1   1  2.795618E+06  1.023388E+07  2.648367E+06 -1.972615E+06  1.277050E+05  1.016914E+06
         1   2  2.261359E+06  8.724356E+06  1.782947E+06 -1.820774E+06  4.311046E+05  4.657022E+05
         1   3  1.873751E+06  7.328755E+06  1.310537E+06 -1.899883E+06  5.046187E+05 -8.377816E+04
         1   4  1.118606E+05 -7.147844E+05  1.162780E+05 -1.866945E+06  1.312248E+05  7.569873E+04
         1   5  3.671556E+04 -7.219063E+05  6.214434E+04 -1.751719E+06  4.336434E+05  4.611596E+04
         1   6  1.955582E+04 -7.059396E+05  4.249734E+04 -1.867417E+06  5.046252E+05  1.680156E+04
         1   7 -2.579788E+06 -1.155190E+07 -2.420545E+06 -1.762888E+06  1.344786E+05 -8.492523E+05
         1   8 -2.192843E+06 -1.008181E+07 -1.661606E+06 -1.683531E+06  4.361186E+05 -3.673281E+05
         1   9 -1.837825E+06 -8.676781E+06 -1.227125E+06 -1.835206E+06  5.046419E+05  1.161379E+05
         1  10  2.795327E+06  1.023278E+07  2.646421E+06 -1.972719E+06 -6.835582E-10  3.118884E-08
         1  11  2.261101E+06  8.724074E+06  1.782193E+06 -1.820935E+06  1.384754E-08 -1.078629E-08
         1  12  1.873476E+06  7.328680E+06  1.310046E+06 -1.899849E+06  4.049657E-09 -5.327401E-08
         1  13  1.118405E+05 -7.147952E+05  1.162347E+05 -1.866953E+06  5.152796E-10 -4.913986E-11
         1  14  3.651306E+04 -7.219591E+05  6.178683E+04 -1.751736E+06 -1.363595E-09 -3.719565E-10
         1  15  1.928236E+04 -7.060083E+05  4.201833E+04 -1.867424E+06 -1.384520E-08 -1.360541E-10
         1  16 -2.580005E+06 -1.155269E+07 -2.421957E+06 -1.762796E+06  4.889569E-09 -3.083624E-08
         1  17 -2.193084E+06 -1.008200E+07 -1.662219E+06 -1.683401E+06 -1.388624E-09  1.026406E-08
         1  18 -1.838102E+06 -8.676864E+06 -1.227630E+06 -1.835253E+06  3.857404E-09  5.250813E-08
         1  19  2.795618E+06  1.023388E+07  2.648367E+06 -1.972615E+06 -1.277050E+05 -1.016914E+06
         1  20  2.261359E+06  8.724356E+06  1.782947E+06 -1.820774E+06 -4.311046E+05 -4.657022E+05
         1  21  1.873751E+06  7.328755E+06  1.310537E+06 -1.899883E+06 -5.046187E+05  8.377816E+04
         1  22  1.118606E+05 -7.147844E+05  1.162780E+05 -1.866945E+06 -1.312248E+05 -7.569873E+04
         1  23  3.671556E+04 -7.219063E+05  6.214434E+04 -1.751719E+06 -4.336434E+05 -4.611596E+04
         1  24  1.955582E+04 -7.059396E+05  4.249734E+04 -1.867417E+06 -5.046252E+05 -1.680156E+04
         1  25 -2.579788E+06 -1.155190E+07 -2.420545E+06 -1.762888E+06 -1.344786E+05  8.492523E+05
         1  26 -2.192843E+06 -1.008181E+07 -1.661606E+06 -1.683531E+06 -4.361186E+05  3.673281E+05
         1  27 -1.837825E+06 -8.676781E+06 -1.227125E+06 -1.835206E+06 -5.046419E+05 -1.161379E+05
         2   1  1.657049E+06  6.406639E+06  1.129659E+06 -1.907145E+06  4.691221E+05 -9.858558E+04
         2   2  1.314290E+06  4.946267E+06  8.592824E+05 -1.771404E+06  4.069649E+05 -1.829573E+05
         2   3  9.989845E+05  3.505488E+06  6.502745E+05 -1.883494E+06  3.160234E+05 -2.675128E+05
         2   4  2.072453E+04 -7.071405E+05  3.811353E+04 -1.871200E+06  4.689118E+05  1.014994E+04
         2   5  2.229709E+04 -7.075621E+05  3.887002E+04 -1.747187E+06  4.060573E+05 -9.389206E+03
         2   6  4.029337E+04 -7.016156E+05  5.626727E+04 -1.871135E+06  3.142823E+05 -2.929652E+04
         2   7 -1.618033E+06 -7.770591E+06 -1.054510E+06 -1.835534E+06  4.687120E+05  1.176966E+05
         2   8 -1.271147E+06 -6.329240E+06 -7.819574E+05 -1.723104E+06  4.051572E+05  1.626740E+05
         2   9 -9.191611E+05 -4.890734E+06 -5.377709E+05 -1.858805E+06  3.125422E+05  2.073828E+05
         2  10  1.656810E+06  6.406570E+06  1.129228E+06 -1.907108E+06  2.893801E-09  4.778380E-08
         2  11  1.314104E+06  4.946188E+06  8.589098E+05 -1.771344E+06  8.529832E-09  4.935096E-09
         2  12  9.988586E+05  3.505385E+06  6.499543E+05 -1.883426E+06  2.013026E-09 -3.699790E-08
         2  13  2.048846E+04 -7.071996E+05  3.770023E+04 -1.871204E+06 -1.689178E-08 -2.173439E-10
         2  14  2.212010E+04 -7.076064E+05  3.856018E+04 -1.747184E+06 -9.489323E-09  2.041024E-11
         2  15  4.018716E+04 -7.016430E+05  5.608025E+04 -1.871127E+06 -1.527784E-09  1.012945E-10
         2  16 -1.618273E+06 -7.770665E+06 -1.054950E+06 -1.835579E+06  6.735384E-09 -4.772171E-08
         2  17 -1.271331E+06 -6.329313E+06 -7.823168E+05 -1.723157E+06  1.173315E-08 -4.862754E-09
         2  18 -9.192779E+05 -4.890807E+06 -5.380367E+05 -1.858857E+06  2.343577E-09  3.707009E-08
         2  19  1.657049E+06  6.406639E+06  1.129659E+06 -1.907145E+06 -4.691221E+05  9.858558E+04
         2  20  1.314290E+06  4.946267E+06  8.592824E+05 -1.771404E+06 -4.069649E+05  1.829573E+05
         2  21  9.989845E+05  3.505488E+06  6.502745E+05 -1.883494E+06 -3.160234E+05  2.675128E+05
         2  22  2.072453E+04 -7.071405E+05  3.811353E+04 -1.871200E+06 -4.689118E+05 -1.014994E+04
         2  23  2.229709E+04 -7.075621E+05  3.887002E+04 -1.747187E+06 -4.060573E+05  9.389206E+03
         2  24  4.029337E+04 -7.016156E+05  5.626727E+04 -1.871135E+06 -3.142823E+05  2.929652E+04
         2  25 -1.618033E+06 -7.770591E+06 -1.054510E+06 -1.835534E+06 -4.687120E+05 -1.176966E+05
         2  26 -1.271147E+06 -6.329240E+06 -7.819574E+05 -1.723104E+06 -4.051572E+05 -1.626740E+05
         2  27 -9.191611E+05 -4.890734E+06 -5.377709E+05 -1.858805E+06 -3.125422E+05 -2.073828E+05
         3   1  7.996476E+05  2.607388E+06  5.311907E+05 -1.885974E+06  2.530774E+05 -2.783909E+05
         3   2  5.198801E+05  1.143667E+06  3.789821E+05 -1.678184E+06  1.457558E+05 -3.469110E+05
         3   3  3.437084E+05 -2.858090E+05  2.964642E+05 -1.720262E+06  3.618730E+04 -4.154191E+05
         3   4  4.789339E+04 -6.948533E+05  7.081713E+04 -1.871620E+06  2.511748E+05 -3.932858E+04
         3   5  9.975040E+04 -7.094512E+05  1.233882E+05 -1.746050E+06  1.437233E+05 -1.030064E+05
         3   6  2.544876E+05 -6.929478E+05  2.421188E+05 -1.870202E+06  3.404055E+04 -1.668073E+05
         3   7 -7.043140E+05 -3.985937E+06 -3.894784E+05 -1.857309E+06  2.492760E+05  1.985226E+05
         3   8 -3.204779E+05 -2.558943E+06 -1.320183E+05 -1.813694E+06  1.416333E+05  1.402040E+05
         3   9  1.653792E+05 -1.099735E+06  1.880168E+05 -2.020040E+06  3.177263E+04  8.164887E+04
         3  10  7.995585E+05  2.607288E+06  5.309263E+05 -1.885917E+06  1.608373E-09  1.156941E-08
         3  11  5.198253E+05  1.143532E+06  3.787171E+05 -1.678143E+06  1.698566E-09 -1.239706E-09
         3  12  3.436607E+05 -2.859946E+05  2.961375E+05 -1.720250E+06  1.625563E-09 -1.385216E-08
         3  13  4.782530E+04 -6.948718E+05  7.069586E+04 -1.871612E+06 -2.809396E-09  1.120508E-11
         3  14  9.972544E+04 -7.094681E+05  1.233296E+05 -1.746038E+06  6.968653E-09 -1.519122E-11
         3  15  2.544790E+05 -6.929779E+05  2.420643E+05 -1.870198E+06  9.623387E-10 -1.006073E-10
         3  16 -7.043916E+05 -3.985997E+06 -3.896703E+05 -1.857349E+06 -8.044484E-10 -1.137020E-08
         3  17 -3.205048E+05 -2.558969E+06 -1.320933E+05 -1.813710E+06  2.959394E-09  9.419768E-10
         3  18  1.653763E+05 -1.099742E+06  1.880023E+05 -2.020042E+06 -8.616068E-10  1.420752E-08
         3  19  7.996476E+05  2.607388E+06  5.311907E+05 -1.885974E+06 -2.530774E+05  2.783909E+05
         3  20  5.198801E+05  1.143667E+06  3.789821E+05 -1.678184E+06 -1.457558E+05  3.469110E+05
         3  21  3.437084E+05 -2.858090E+05  2.964642E+05 -1.720262E+06 -3.618730E+04  4.154191E+05
         3  22  4.789339E+04 -6.948533E+05  7.081713E+04 -1.871620E+06 -2.511748E+05  3.932858E+04
         3  23  9.975040E+04 -7.094512E+05  1.233882E+05 -1.746050E+06 -1.437233E+05  1.030064E+05
         3  24  2.544876E+05 -6.929478E+05  2.421188E+05 -1.870202E+06 -3.404055E+04  1.668073E+05
         3  25 -7.043140E+05 -3.985937E+06 -3.894784E+05 -1.857309E+06 -2.492760E+05 -1.985226E+05
         3  26 -3.204779E+05 -2.558943E+06 -1.320183E+05 -1.813694E+06 -1.416333E+05 -1.402040E+05
         3  27  1.653792E+05 -1.099735E+06  1.880168E+05 -2.020040E+06 -3.177263E+04 -8.164887E+04
         4   1 -1.086289E+07 -3.182541E+06 -2.251123E+06 -3.648234E+06 -1.448564E+06 -5.438139E+05
         4   2 -1.036308E+07 -1.085548E+06 -8.753300E+05 -4.109531E+06 -9.301361E+05 -3.524682E+05
         4   3 -1.075921E+07 -1.356994E+06 -5.248431E+05 -4.022597E+06 -4.126948E+05 -1.585428E+05
         4   4 -1.117901E+07 -3.129897E+06 -2.304332E+06 -3.556232E+06 -1.448574E+06 -5.443344E+05
         4   5 -1.061234E+07 -1.136301E+06 -9.356981E+05 -4.131865E+06 -9.300762E+05 -3.525304E+05
         4   6 -1.094191E+07 -1.511786E+06 -5.927905E+05 -4.159220E+06 -4.124990E+05 -1.583967E+05
         4   7 -1.149498E+07 -3.077163E+06 -2.357525E+06 -3.464284E+06 -1.448583E+06 -5.448551E+05
         4   8 -1.086154E+07 -1.187055E+06 -9.960694E+05 -4.154197E+06 -9.300163E+05 -3.525927E+05
         4   9 -1.112456E+07 -1.666515E+06 -6.607387E+05 -4.295793E+06 -4.123032E+05 -1.582507E+05
         4  10 -1.086526E+07 -3.183441E+06 -2.255712E+06 -3.648877E+06  1.363139E-09 -4.227377E-10
         4  11 -1.036406E+07 -1.085921E+06 -8.772264E+05 -4.109798E+06 -5.254457E-09 -1.604622E-09
         4  12 -1.075941E+07 -1.357068E+06 -5.252178E+05 -4.022650E+06 -3.899803E-09  1.121737E-09
         4  13 -1.118139E+07 -3.130798E+06 -2.308924E+06 -3.556875E+06 -3.297182E-10 -6.087979E-10
         4  14 -1.061332E+07 -1.136674E+06 -9.375951E+05 -4.132132E+06  7.070335E-09 -8.867091E-10
         4  15 -1.094210E+07 -1.511860E+06 -5.931650E+05 -4.159273E+06  3.451076E-09 -8.837816E-10
         4  16 -1.149735E+07 -3.078064E+06 -2.362119E+06 -3.464928E+06  1.209772E-09 -1.216718E-09
         4  17 -1.086252E+07 -1.187429E+06 -9.979670E+05 -4.154464E+06  5.270647E-09 -2.110767E-09
         4  18 -1.112475E+07 -1.666589E+06 -6.611130E+05 -4.295847E+06  8.958092E-09 -4.449608E-10
         4  19 -1.086289E+07 -3.182541E+06 -2.251123E+06 -3.648234E+06  1.448564E+06  5.438139E+05
         4  20 -1.036308E+07 -1.085548E+06 -8.753300E+05 -4.109531E+06  9.301361E+05  3.524682E+05
         4  21 -1.075921E+07 -1.356994E+06 -5.248431E+05 -4.022597E+06  4.126948E+05  1.585428E+05
         4  22 -1.117901E+07 -3.129897E+06 -2.304332E+06 -3.556232E+06  1.448574E+06  5.443344E+05
         4  23 -1.061234E+07 -1.136301E+06 -9.356981E+05 -4.131865E+06  9.300762E+05  3.525304E+05
         4  24 -1.094191E+07 -1.511786E+06 -5.927905E+05 -4.159220E+06  4.124990E+05  1.583967E+05
         4  25 -1.149498E+07 -3.077163E+06 -2.357525E+06 -3.464284E+06  1.448583E+06  5.448551E+05
         4  26 -1.086154E+07 -1.187055E+06 -9.960694E+05 -4.154197E+06  9.300163E+05  3.525927E+05
         4  27 -1.112456E+07 -1.666515E+06 -6.607387E+05 -4.295793E+06  4.123032E+05  1.582507E+05
         5   1 -1.057963E+07 -1.674808E+06 -4.087519E+05 -3.930459E+06 -3.232987E+05 -1.251357E+05
         5   2 -1.050444E+07 -1.387007E+06 -1.438207E+05 -4.027418E+06 -2.071475E+05 -8.197505E+04
         5   3 -1.060717E+07 -1.417574E+06 -6.188870E+04 -3.999367E+06 -9.175578E+04 -3.679401E+04
         5   4 -1.088504E+07 -1.766136E+06 -4.886517E+05 -3.987683E+06 -3.234134E+05 -1.251958E+05
         5   5 -1.077791E+07 -1.485324E+06 -2.186230E+05 -4.095597E+06 -2.070085E+05 -8.192535E+04
         5   6 -1.084881E+07 -1.523031E+06 -1.318692E+05 -4.078485E+06 -9.135659E+04 -3.664072E+04
         5   7 -1.119036E+07 -1.857466E+06 -5.685588E+05 -4.044885E+06 -3.235280E+05 -1.252559E+05
         5   8 -1.105131E+07 -1.583640E+06 -2.934319E+05 -4.163749E+06 -2.068696E+05 -8.187567E+04
         5   9 -1.109040E+07 -1.628479E+06 -2.018554E+05 -4.157573E+06 -9.095757E+04 -3.648752E+04
         5  10 -1.057975E+07 -1.674853E+06 -4.089822E+05 -3.930492E+06 -6.135193E-10  1.696898E-10
         5  11 -1.050449E+07 -1.387026E+06 -1.439158E+05 -4.027432E+06 -1.848043E-10  5.850265E-09
         5  12 -1.060718E+07 -1.417577E+06 -6.190743E+04 -3.999370E+06 -1.606083E-09  3.984532E-09
         5  13 -1.088516E+07 -1.766181E+06 -4.888823E+05 -3.987716E+06  4.637181E-09  3.569189E-10
         5  14 -1.077796E+07 -1.485343E+06 -2.187180E+05 -4.095611E+06 -2.663595E-09  1.369670E-09
         5  15 -1.084882E+07 -1.523034E+06 -1.318878E+05 -4.078488E+06 -2.216751E-09  2.358452E-09
         5  16 -1.119048E+07 -1.857512E+06 -5.687897E+05 -4.044918E+06 -7.619647E-10 -1.640950E-09
         5  17 -1.105136E+07 -1.583659E+06 -2.935269E+05 -4.163763E+06 -4.593232E-10 -1.081308E-09
         5  18 -1.109041E+07 -1.628483E+06 -2.018738E+05 -4.157576E+06  5.873881E-10  5.549656E-09
         5  19 -1.057963E+07 -1.674808E+06 -4.087519E+05 -3.930459E+06  3.232987E+05  1.251357E+05
         5  20 -1.050444E+07 -1.387007E+06 -1.438207E+05 -4.027418E+06  2.071475E+05  8.197505E+04
         5  21 -1.060717E+07 -1.417574E+06 -6.188870E+04 -3.999367E+06  9.175578E+04  3.679401E+04
         5  22 -1.088504E+07 -1.766136E+06 -4.886517E+05 -3.987683E+06  3.234134E+05  1.251958E+05
         5  23 -1.077791E+07 -1.485324E+06 -2.186230E+05 -4.095597E+06  2.070085E+05  8.192535E+04
         5  24 -1.084881E+07 -1.523031E+06 -1.318692E+05 -4.078485E+06  9.135659E+04  3.664072E+04
         5  25 -1.119036E+07 -1.857466E+06 -5.685588E+05 -4.044885E+06  3.235280E+05  1.252559E+05
         5  26 -1.105131E+07 -1.583640E+06 -2.934319E+05 -4.163749E+06  2.068696E+05  8.187567E+04
         5  27 -1.109040E+07 -1.628479E+06 -2.018554E+05 -4.157573E+06  9.095757E+04  3.648752E+04
         6   1 -1.087207E+07 -1.570415E+06 -1.141403E+05 -4.058409E+06 -7.256070E+04 -2.808425E+04
         6   2 -1.086410E+07 -1.569909E+06 -6.946988E+04 -4.115791E+06 -4.667080E+04 -1.668682E+04
         6   3 -1.094377E+07 -1.558108E+06 -5.918875E+04 -4.087289E+06 -2.060877E+04 -5.748300E+03
         6   4 -1.084421E+07 -1.556171E+06 -1.055618E+05 -4.047192E+06 -7.231118E+04 -2.799043E+04
         6   5 -1.079764E+07 -1.543732E+06 -5.082937E+04 -4.096901E+06 -4.649154E+04 -1.661916E+04
         6   6 -1.083871E+07 -1.519981E+06 -3.042971E+04 -4.060728E+06 -2.049795E+04 -5.706377E+03
         6   7 -1.081635E+07 -1.541927E+06 -9.698343E+04 -4.035974E+06 -7.206164E+04 -2.789660E+04
         6   8 -1.073118E+07 -1.517554E+06 -3.218925E+04 -4.078009E+06 -4.631225E+04 -1.655148E+04
         6   9 -1.073363E+07 -1.481853E+06 -1.671645E+03 -4.034162E+06 -2.038712E+04 -5.664447E+03
         6  10 -1.087208E+07 -1.570417E+06 -1.141519E+05 -4.058411E+06 -5.212165E-09  2.103815E-09
         6  11 -1.086410E+07 -1.569910E+06 -6.947459E+04 -4.115791E+06 -4.088670E-09 -2.113615E-10
         6  12 -1.094377E+07 -1.558109E+06 -5.918963E+04 -4.087289E+06  4.331073E-09 -3.051098E-10
         6  13 -1.084422E+07 -1.556173E+06 -1.055734E+05 -4.047194E+06 -1.083444E-09  4.267020E-10
         6  14 -1.079765E+07 -1.543733E+06 -5.083404E+04 -4.096901E+06 -3.562373E-09 -1.615148E-09
         6  15 -1.083871E+07 -1.519981E+06 -3.043058E+04 -4.060728E+06 -6.371996E-09 -2.389447E-10
         6  16 -1.081636E+07 -1.541930E+06 -9.699488E+04 -4.035976E+06  9.914886E-10  1.010563E-09
         6  17 -1.073118E+07 -1.517555E+06 -3.219389E+04 -4.078009E+06  7.260423E-09 -1.889282E-09
         6  18 -1.073363E+07 -1.481853E+06 -1.672503E+03 -4.034163E+06 -6.945839E-11  1.780044E-09
         6  19 -1.087207E+07 -1.570415E+06 -1.141403E+05 -4.058409E+06  7.256070E+04  2.808425E+04
         6  20 -1.086410E+07 -1.569909E+06 -6.946988E+04 -4.115791E+06  4.667080E+04  1.668682E+04
         6  21 -1.094377E+07 -1.558108E+06 -5.918875E+04 -4.087289E+06  2.060877E+04  5.748300E+03
         6  22 -1.084421E+07 -1.556171E+06 -1.055618E+05 -4.047192E+06  7.231118E+04  2.799043E+04
         6  23 -1.079764E+07 -1.543732E+06 -5.082937E+04 -4.096901E+06  4.649154E+04  1.661916E+04
         6  24 -1.083871E+07 -1.519981E+06 -3.042971E+04 -4.060728E+06  2.049795E+04  5.706377E+03
         6  25 -1.081635E+07 -1.541927E+06 -9.698343E+04 -4.035974E+06  7.206164E+04  2.789660E+04
         6  26 -1.073118E+07 -1.517554E+06 -3.218925E+04 -4.078009E+06  4.631225E+04  1.655148E+04
         6  27 -1.073363E+07 -1.481853E+06 -1.671645E+03 -4.034162E+06  2.038712E+04  5.664447E+03
         7   1 -1.112777E+07 -1.656014E+06 -1.092657E+05 -4.155850E+06 -1.668727E+04 -3.216089E+03
         7   2 -1.112658E+07 -1.651726E+06 -9.953907E+04 -4.160300E+06 -9.646320E+03  7.318269E+02
         7   3 -1.113246E+07 -1.652233E+06 -9.758755E+04 -4.157798E+06 -1.808934E+03  2.566170E+03
         7   4 -1.082308E+07 -1.539079E+06 -2.429019E+04 -4.072429E+06 -1.635449E+04 -3.090606E+03
         7   5 -1.081922E+07 -1.534404E+06 -1.407291E+04 -4.076765E+06 -9.637342E+03  7.350517E+02
         7   6 -1.082237E+07 -1.534456E+06 -1.136718E+04 -4.074151E+06 -2.123913E+03  2.447648E+03
         7   7 -1.051830E+07 -1.422139E+06  6.067641E+04 -3.988970E+06 -1.602153E+04 -2.965052E+03
         7   8 -1.051177E+07 -1.417077E+06  7.138431E+04 -3.993192E+06 -9.628358E+03  7.382788E+02
         7   9 -1.051219E+07 -1.416674E+06  7.484421E+04 -3.990465E+06 -2.439069E+03  2.329061E+03
         7  10 -1.112777E+07 -1.656014E+06 -1.092663E+05 -4.155850E+06  3.059499E-09  1.460134E-09
         7  11 -1.112658E+07 -1.651726E+06 -9.953925E+04 -4.160300E+06  1.747266E-09  9.946540E-10
         7  12 -1.113246E+07 -1.652233E+06 -9.758757E+04 -4.157798E+06  3.198330E-10  9.754095E-10
         7  13 -1.082308E+07 -1.539079E+06 -2.429072E+04 -4.072429E+06  1.978956E-10  7.620739E-10
         7  14 -1.081922E+07 -1.534404E+06 -1.407309E+04 -4.076765E+06 -5.847252E-09 -3.075620E-09
         7  15 -1.082237E+07 -1.534456E+06 -1.136720E+04 -4.074151E+06  1.404219E-09  1.404586E-10
         7  16 -1.051830E+07 -1.422139E+06  6.067590E+04 -3.988970E+06 -2.489043E-09 -3.322076E-09
         7  17 -1.051177E+07 -1.417077E+06  7.138414E+04 -3.993192E+06 -2.205018E-09  1.334518E-09
         7  18 -1.051219E+07 -1.416674E+06  7.484418E+04 -3.990465E+06 -3.863868E-10  2.987842E-09
         7  19 -1.112777E+07 -1.656014E+06 -1.092657E+05 -4.155850E+06  1.668727E+04  3.216089E+03
         7  20 -1.112658E+07 -1.651726E+06 -9.953907E+04 -4.160300E+06  9.646320E+03 -7.318269E+02
         7  21 -1.113246E+07 -1.652233E+06 -9.758755E+04 -4.157798E+06  1.808934E+03 -2.566170E+03
         7  22 -1.082308E+07 -1.539079E+06 -2.429019E+04 -4.072429E+06  1.635449E+04  3.090606E+03
         7  23 -1.081922E+07 -1.534404E+06 -1.407291E+04 -4.076765E+06  9.637342E+03 -7.350517E+02
         7  24 -1.082237E+07 -1.534456E+06 -1.136718E+04 -4.074151E+06  2.123913E+03 -2.447648E+03
         7  25 -1.051830E+07 -1.422139E+06  6.067641E+04 -3.988970E+06  1.602153E+04  2.965052E+03
         7  26 -1.051177E+07 -1.417077E+06  7.138431E+04 -3.993192E+06  9.628358E+03 -7.382788E+02
         7  27 -1.051219E+07 -1.416674E+06  7.484421E+04 -3.990465E+06  2.439069E+03 -2.329061E+03
         8   1 -1.094612E+07 -1.602171E+06 -4.981099E+04 -4.128703E+06  9.700342E+01  2.396676E+03
         8   2 -1.094020E+07 -1.555160E+06 -4.231043E+04 -4.083550E+06  7.490728E+03  4.272969E+03
         8   3 -1.087655E+07 -1.578947E+06 -4.255648E+04 -4.107123E+06  1.515247E+04  5.434476E+03
         8   4 -1.080797E+07 -1.549224E+06 -1.139467E+04 -4.090922E+06  3.016488E+01  2.371538E+03
         8   5 -1.083719E+07 -1.516033E+06 -1.370765E+04 -4.055747E+06  7.314352E+03  4.206751E+03
         8   6 -1.080865E+07 -1.553619E+06 -2.367827E+04 -4.089299E+06  1.486609E+04  5.327061E+03
         8   7 -1.066980E+07 -1.496275E+06  2.701982E+04 -4.053132E+06 -3.669029E+01  2.346393E+03
         8   8 -1.073416E+07 -1.476906E+06  1.489412E+04 -4.027941E+06  7.137942E+03  4.140520E+03
         8   9 -1.074074E+07 -1.528290E+06 -4.800473E+03 -4.071474E+06  1.457967E+04  5.219633E+03
         8  10 -1.094612E+07 -1.602171E+06 -4.981100E+04 -4.128703E+06  2.605390E-10  4.132860E-09
         8  11 -1.094020E+07 -1.555160E+06 -4.231057E+04 -4.083550E+06  3.137105E-09  3.538180E-09
         8  12 -1.087655E+07 -1.578947E+06 -4.255697E+04 -4.107123E+06 -1.878761E-11 -2.174395E-09
         8  13 -1.080797E+07 -1.549224E+06 -1.139468E+04 -4.090922E+06 -3.136883E-11  7.200223E-10
         8  14 -1.083719E+07 -1.516033E+06 -1.370779E+04 -4.055747E+06  6.097524E-09 -8.504680E-10
         8  15 -1.080865E+07 -1.553619E+06 -2.367874E+04 -4.089299E+06  1.078340E-09 -1.879225E-09
         8  16 -1.066980E+07 -1.496275E+06  2.701981E+04 -4.053132E+06  9.203361E-11  1.743713E-09
         8  17 -1.073416E+07 -1.476906E+06  1.489399E+04 -4.027941E+06 -5.695390E-09 -1.714050E-10
         8  18 -1.074074E+07 -1.528290E+06 -4.800933E+03 -4.071474E+06  1.634989E-09 -3.346593E-10
         8  19 -1.094612E+07 -1.602171E+06 -4.981099E+04 -4.128703E+06 -9.700342E+01 -2.396676E+03
         8  20 -1.094020E+07 -1.555160E+06 -4.231043E+04 -4.083550E+06 -7.490728E+03 -4.272969E+03
         8  21 -1.087655E+07 -1.578947E+06 -4.255648E+04 -4.107123E+06 -1.515247E+04 -5.434476E+03
         8  22 -1.080797E+07 -1.549224E+06 -1.139467E+04 -4.090922E+06 -3.016488E+01 -2.371538E+03
         8  23 -1.083719E+07 -1.516033E+06 -1.370765E+04 -4.055747E+06 -7.314352E+03 -4.206751E+03
         8  24 -1.080865E+07 -1.553619E+06 -2.367827E+04 -4.089299E+06 -1.486609E+04 -5.327061E+03
         8  25 -1.066980E+07 -1.496275E+06  2.701982E+04 -4.053132E+06  3.669029E+01 -2.346393E+03
         8  26 -1.073416E+07 -1.476906E+06  1.489412E+04 -4.027941E+06 -7.137942E+03 -4.140520E+03
         8  27 -1.074074E+07 -1.528290E+06 -4.800473E+03 -4.071474E+06 -1.457967E+04 -5.219633E+03
         9   1 -1.058549E+07 -1.457005E+06  3.420887E+04 -4.026250E+06  2.010767E+04  5.772138E+03
         9   2 -1.057649E+07 -1.419685E+06  2.029174E+04 -3.996042E+06  4.600087E+04  1.374147E+04
         9   3 -1.055110E+07 -1.471491E+06 -2.646638E+04 -3.996671E+06  7.125925E+04  2.340378E+04
         9   4 -1.081569E+07 -1.542650E+06 -2.948052E+04 -4.086526E+06  1.973345E+04  5.631776E+03
         9   5 -1.082650E+07 -1.515636E+06 -4.931207E+04 -4.064556E+06  4.587895E+04  1.369548E+04
         9   6 -1.082097E+07 -1.577815E+06 -1.021982E+05 -4.073424E+06  7.138856E+04  2.345185E+04
         9   7 -1.104583E+07 -1.628293E+06 -9.317484E+04 -4.146781E+06  1.935939E+04  5.491470E+03
         9   8 -1.107644E+07 -1.611584E+06 -1.189217E+05 -4.133045E+06  4.575707E+04  1.364950E+04
         9   9 -1.109078E+07 -1.684133E+06 -1.779370E+05 -4.150146E+06  7.151781E+04  2.349990E+04
         9  10 -1.058549E+07 -1.457005E+06  3.420803E+04 -4.026250E+06  2.144363E-09  1.627134E-09
         9  11 -1.057650E+07 -1.419685E+06  2.028732E+04 -3.996042E+06  2.926471E-09 -1.370817E-09
         9  12 -1.055111E+07 -1.471493E+06 -2.647716E+04 -3.996673E+06 -1.589843E-09 -2.462733E-09
         9  13 -1.081569E+07 -1.542650E+06 -2.948133E+04 -4.086526E+06 -2.085129E-09 -1.474812E-09
         9  14 -1.082650E+07 -1.515637E+06 -4.931646E+04 -4.064557E+06  5.241933E-09 -7.751190E-10
         9  15 -1.082098E+07 -1.577817E+06 -1.022091E+05 -4.073426E+06  4.370445E-09 -1.189920E-09
         9  16 -1.104583E+07 -1.628293E+06 -9.317561E+04 -4.146781E+06  1.344444E-09 -2.346542E-09
         9  17 -1.107644E+07 -1.611585E+06 -1.189261E+05 -4.133045E+06 -3.305863E-09  2.399184E-09
         9  18 -1.109078E+07 -1.684135E+06 -1.779479E+05 -4.150147E+06  1.477800E-09  3.345688E-09
         9  19 -1.058549E+07 -1.457005E+06  3.420887E+04 -4.026250E+06 -2.010767E+04 -5.772138E+03
         9  20 -1.057649E+07 -1.419685E+06  2.029174E+04 -3.996042E+06 -4.600087E+04 -1.374147E+04
         9  21 -1.055110E+07 -1.471491E+06 -2.646638E+04 -3.996671E+06 -7.125925E+04 -2.340378E+04
         9  22 -1.081569E+07 -1.542650E+06 -2.948052E+04 -4.086526E+06 -1.973345E+04 -5.631776E+03
         9  23 -1.082650E+07 -1.515636E+06 -4.931207E+04 -4.064556E+06 -4.587895E+04 -1.369548E+04
         9  24 -1.082097E+07 -1.577815E+06 -1.021982E+05 -4.073424E+06 -7.138856E+04 -2.345185E+04
         9  25 -1.104583E+07 -1.628293E+06 -9.317484E+04 -4.146781E+06 -1.935939E+04 -5.491470E+03
         9  26 -1.107644E+07 -1.611584E+06 -1.189217E+05 -4.133045E+06 -4.575707E+04 -1.364950E+04
         9  27 -1.109078E+07 -1.684133E+06 -1.779370E+05 -4.150146E+06 -7.151781E+04 -2.349990E+04
        10   1 -1.057577E+07 -1.429029E+06 -5.391743E+04 -4.014017E+06  9.040044E+04  3.073081E+04
        10   2 -1.053865E+07 -1.393161E+06 -1.444341E+05 -4.027599E+06  2.027209E+05  7.312795E+04
        10   3 -1.068471E+07 -1.654958E+06 -4.122641E+05 -3.908019E+06  3.144633E+05  1.170280E+05
        10   4 -1.085029E+07 -1.521140E+06 -1.277282E+05 -4.075711E+06  9.026499E+04  3.068198E+04
        10   5 -1.077632E+07 -1.489792E+06 -2.116986E+05 -4.098249E+06  2.027766E+05  7.314644E+04
        10   6 -1.088559E+07 -1.756225E+06 -4.731845E+05 -3.987609E+06  3.147175E+05  1.171083E+05
        10   7 -1.112475E+07 -1.613251E+06 -2.015455E+05 -4.137381E+06  9.012959E+04  3.063317E+04
        10   8 -1.101392E+07 -1.586416E+06 -2.789686E+05 -4.168873E+06  2.028322E+05  7.316492E+04
        10   9 -1.108643E+07 -1.857480E+06 -5.341090E+05 -4.067171E+06  3.149716E+05  1.171886E+05
        10  10 -1.057578E+07 -1.429032E+06 -5.393490E+04 -4.014020E+06 -3.006677E-09 -1.067808E-09
        10  11 -1.053870E+07 -1.393179E+06 -1.445231E+05 -4.027611E+06  6.925729E-09 -1.933096E-09
        10  12 -1.068482E+07 -1.655000E+06 -4.124799E+05 -3.908049E+06 -1.843436E-09  4.328267E-10
        10  13 -1.085030E+07 -1.521143E+06 -1.277456E+05 -4.075713E+06 -2.937252E-09 -1.175588E-09
        10  14 -1.077636E+07 -1.489809E+06 -2.117877E+05 -4.098261E+06 -4.050139E-09  1.214801E-09
        10  15 -1.088570E+07 -1.756267E+06 -4.734007E+05 -3.987639E+06  8.135842E-10  2.013118E-09
        10  16 -1.112476E+07 -1.613254E+06 -2.015629E+05 -4.137384E+06  5.086760E-09 -2.863327E-09
        10  17 -1.101397E+07 -1.586434E+06 -2.790577E+05 -4.168885E+06 -6.843909E-10 -2.216395E-09
        10  18 -1.108654E+07 -1.857522E+06 -5.343256E+05 -4.067201E+06 -6.562884E-10 -2.759836E-10
        10  19 -1.057577E+07 -1.429029E+06 -5.391743E+04 -4.014017E+06 -9.040044E+04 -3.073081E+04
        10  20 -1.053865E+07 -1.393161E+06 -1.444341E+05 -4.027599E+06 -2.027209E+05 -7.312795E+04
        10  21 -1.068471E+07 -1.654958E+06 -4.122641E+05 -3.908019E+06 -3.144633E+05 -1.170280E+05
        10  22 -1.085029E+07 -1.521140E+06 -1.277282E+05 -4.075711E+06 -9.026499E+04 -3.068198E+04
        10  23 -1.077632E+07 -1.489792E+06 -2.116986E+05 -4.098249E+06 -2.027766E+05 -7.314644E+04
        10  24 -1.088559E+07 -1.756225E+06 -4.731845E+05 -3.987609E+06 -3.147175E+05 -1.171083E+05
        10  25 -1.112475E+07 -1.613251E+06 -2.015455E+05 -4.137381E+06 -9.012959E+04 -3.063317E+04
        10  26 -1.101392E+07 -1.586416E+06 -2.789686E+05 -4.168873E+06 -2.028322E+05 -7.316492E+04
        10  27 -1.108643E+07 -1.857480E+06 -5.341090E+05 -4.067171E+06 -3.149716E+05 -1.171886E+05
        11   1 -1.098362E+07 -1.580501E+06 -5.970002E+05 -4.220333E+06  3.997162E+05  1.511094E+05
        11   2 -1.073665E+07 -1.192045E+06 -9.384676E+05 -4.160368E+06  9.001151E+05  3.421791E+05
        11   3 -1.146672E+07 -2.989537E+06 -2.273764E+06 -3.446028E+06  1.401539E+06  5.305911E+05
        11   4 -1.096149E+07 -1.489179E+06 -5.740483E+05 -4.130067E+06  4.002007E+05  1.513606E+05
        11   5 -1.058910E+07 -1.178622E+06 -9.061007E+05 -4.163890E+06  9.002957E+05  3.421679E+05
        11   6 -1.119357E+07 -3.053684E+06 -2.231533E+06 -3.543312E+06  1.401532E+06  5.301031E+05
        11   7 -1.093935E+07 -1.397818E+06 -5.510926E+05 -4.039793E+06  4.006852E+05  1.516120E+05
        11   8 -1.044153E+07 -1.165197E+06 -8.737339E+05 -4.167415E+06  9.004763E+05  3.421567E+05
        11   9 -1.092029E+07 -3.117739E+06 -2.189285E+06 -3.640643E+06  1.401525E+06  5.296153E+05
        11  10 -1.098380E+07 -1.580570E+06 -5.973504E+05 -4.220382E+06 -9.176632E-10  2.288733E-09
        11  11 -1.073756E+07 -1.192396E+06 -9.402461E+05 -4.160619E+06 -3.062348E-09  2.517150E-09
        11  12 -1.146894E+07 -2.990385E+06 -2.278072E+06 -3.446635E+06 -7.454302E-10 -2.985045E-10
        11  13 -1.096167E+07 -1.489248E+06 -5.743994E+05 -4.130117E+06  1.467979E-09  1.992026E-09
        11  14 -1.059002E+07 -1.178973E+06 -9.078794E+05 -4.164141E+06  1.504995E-09 -1.660540E-10
        11  15 -1.119580E+07 -3.054531E+06 -2.235838E+06 -3.543918E+06 -9.978614E-10 -7.496366E-10
        11  16 -1.093953E+07 -1.397887E+06 -5.514446E+05 -4.039843E+06 -1.355741E-09  2.492252E-10
        11  17 -1.044244E+07 -1.165548E+06 -8.755128E+05 -4.167666E+06 -2.269109E-09 -1.280758E-09
        11  18 -1.092251E+07 -3.118585E+06 -2.193588E+06 -3.641249E+06  2.348670E-10 -4.895040E-10
        11  19 -1.098362E+07 -1.580501E+06 -5.970002E+05 -4.220333E+06 -3.997162E+05 -1.511094E+05
        11  20 -1.073665E+07 -1.192045E+06 -9.384676E+05 -4.160368E+06 -9.001151E+05 -3.421791E+05
        11  21 -1.146672E+07 -2.989537E+06 -2.273764E+06 -3.446028E+06 -1.401539E+06 -5.305911E+05
        11  22 -1.096149E+07 -1.489179E+06 -5.740483E+05 -4.130067E+06 -4.002007E+05 -1.513606E+05
        11  23 -1.058910E+07 -1.178622E+06 -9.061007E+05 -4.163890E+06 -9.002957E+05 -3.421679E+05
        11  24 -1.119357E+07 -3.053684E+06 -2.231533E+06 -3.543312E+06 -1.401532E+06 -5.301031E+05
        11  25 -1.093935E+07 -1.397818E+06 -5.510926E+05 -4.039793E+06 -4.006852E+05 -1.516120E+05
        11  26 -1.044153E+07 -1.165197E+06 -8.737339E+05 -4.167415E+06 -9.004763E+05 -3.421567E+05
        11  27 -1.092029E+07 -3.117739E+06 -2.189285E+06 -3.640643E+06 -1.401525E+06 -5.296153E+05
        12   1  2.147876E+04 -1.835715E+05  2.933490E+04 -4.699672E+02  2.554764E+02 -7.760532E+02
        12   2  1.932660E+04 -1.855919E+05  3.055800E+04  4.254992E+02  2.742119E+02 -5.806505E+03
        12   3  2.601059E+04 -1.839023E+05  3.743527E+04 -2.506056E+02  2.332362E+02 -1.083710E+04
        12   4  6.582582E+02 -2.668393E+05  8.520879E+03 -3.509560E+02  2.554788E+02 -7.782766E+02
        12   5 -1.443810E+03 -2.686598E+05  9.794424E+03  4.378086E+02  2.742136E+02 -5.805274E+03
        12   6  5.290276E+03 -2.667705E+05  1.672023E+04 -3.450119E+02  2.332354E+02 -1.083242E+04
        12   7 -2.016277E+04 -3.501008E+05 -1.229366E+04 -2.319605E+02  2.554811E+02 -7.804998E+02
        12   8 -2.221474E+04 -3.517214E+05 -1.096967E+04  4.501173E+02  2.742153E+02 -5.804043E+03
        12   9 -1.543056E+04 -3.496325E+05 -3.995319E+03 -4.394037E+02  2.332346E+02 -1.082774E+04
        12  10  2.147876E+04 -1.835715E+05  2.933490E+04 -4.699670E+02 -4.212423E-09 -4.436364E-11
        12  11  1.932659E+04 -1.855920E+05  3.055793E+04  4.255005E+02 -1.126526E-09 -7.143416E-11
        12  12  2.601056E+04 -1.839024E+05  3.743505E+04 -2.506036E+02 -1.730555E-09  1.797906E-10
        12  13  6.582579E+02 -2.668393E+05  8.520878E+03 -3.509558E+02 -2.166941E-09 -1.048503E-10
        12  14 -1.443819E+03 -2.686598E+05  9.794361E+03  4.378099E+02 -1.469160E-10 -9.387320E-12
        12  15  5.290245E+03 -2.667706E+05  1.672001E+04 -3.450099E+02  2.870827E-09 -7.255630E-10
        12  16 -2.016277E+04 -3.501008E+05 -1.229366E+04 -2.319604E+02  3.054394E-09  4.342361E-11
        12  17 -2.221475E+04 -3.517214E+05 -1.096973E+04  4.501186E+02 -1.017065E-09  1.610706E-10
        12  18 -1.543059E+04 -3.496326E+05 -3.995539E+03 -4.394017E+02  1.017190E-09 -4.258903E-10
        12  19  2.147876E+04 -1.835715E+05  2.933490E+04 -4.699672E+02 -2.554764E+02  7.760532E+02
        12  20  1.932660E+04 -1.855919E+05  3.055800E+04  4.254992E+02 -2.742119E+02  5.806505E+03
        12  21  2.601059E+04 -1.839023E+05  3.743527E+04 -2.506056E+02 -2.332362E+02  1.083710E+04
        12  22  6.582582E+02 -2.668393E+05  8.520879E+03 -3.509560E+02 -2.554788E+02  7.782766E+02
        12  23 -1.443810E+03 -2.686598E+05  9.794424E+03  4.378086E+02 -2.742136E+02  5.805274E+03
        12  24  5.290276E+03 -2.667705E+05  1.672023E+04 -3.450119E+02 -2.332354E+02  1.083242E+04
        12  25 -2.016277E+04 -3.501008E+05 -1.229366E+04 -2.319605E+02 -2.554811E+02  7.804998E+02
        12  26 -2.221474E+04 -3.517214E+05 -1.096967E+04  4.501173E+02 -2.742153E+02  5.804043E+03
        12  27 -1.543056E+04 -3.496325E+05 -3.995319E+03 -4.394037E+02 -2.332346E+02  1.082774E+04
        13   1  1.188288E+04 -2.135012E+05  3.293935E+04 -1.546221E+03  2.110378E+02 -1.419168E+04
        13   2  4.551171E+03 -2.213404E+05  4.392933E+04  1.320065E+03  2.158333E+02 -3.066913E+04
        13   3  4.602125E+04 -2.145384E+05  7.791008E+04  1.519640E+02  2.024841E+02 -4.714674E+04
        13   4 -8.250662E+02 -2.643157E+05  2.023800E+04 -9.196609E+02  2.110238E+02 -1.419042E+04
        13   5 -8.023434E+03 -2.716329E+05  3.135819E+04  1.132917E+03  2.158408E+02 -3.066583E+04
        13   6  3.358174E+04 -2.643082E+05  6.546902E+04 -8.489117E+02  2.025555E+02 -4.714142E+04
        13   7 -1.353321E+04 -3.151279E+05  7.536461E+03 -2.931517E+02  2.110099E+02 -1.418915E+04
        13   8 -2.059823E+04 -3.219232E+05  1.878687E+04  9.457852E+02  2.158484E+02 -3.066253E+04
        13   9  2.114205E+04 -3.140758E+05  5.302778E+04 -1.849706E+03  2.026269E+02 -4.713609E+04
        13  10  1.188283E+04 -2.135014E+05  3.293897E+04 -1.546218E+03  5.085710E-09 -1.471490E-10
        13  11  4.550918E+03 -2.213414E+05  4.392756E+04  1.320070E+03  3.882292E-09 -6.720731E-10
        13  12  4.602066E+04 -2.145408E+05  7.790590E+04  1.519717E+02  4.096383E-10 -3.081024E-10
        13  13 -8.251203E+02 -2.643159E+05  2.023762E+04 -9.196585E+02 -3.211556E-10 -7.633881E-10
        13  14 -8.023686E+03 -2.716340E+05  3.135642E+04  1.132922E+03 -2.873151E-10  1.694025E-11
        13  15  3.358114E+04 -2.643106E+05  6.546485E+04 -8.489040E+02 -1.294142E-09 -1.252120E-09
        13  16 -1.353326E+04 -3.151282E+05  7.536083E+03 -2.931493E+02 -2.454540E-09  1.377594E-10
        13  17 -2.059848E+04 -3.219242E+05  1.878510E+04  9.457905E+02 -2.346273E-09  9.155755E-10
        13  18  2.114145E+04 -3.140782E+05  5.302360E+04 -1.849698E+03 -2.918858E-09 -1.002941E-10
        13  19  1.188288E+04 -2.135012E+05  3.293935E+04 -1.546221E+03 -2.110378E+02  1.419168E+04
        13  20  4.551171E+03 -2.213404E+05  4.392933E+04  1.320065E+03 -2.158333E+02  3.066913E+04
        13  21  4.602125E+04 -2.145384E+05  7.791008E+04  1.519640E+02 -2.024841E+02  4.714674E+04
        13  22 -8.250662E+02 -2.643157E+05  2.023800E+04 -9.196609E+02 -2.110238E+02  1.419042E+04
        13  23 -8.023434E+03 -2.716329E+05  3.135819E+04  1.132917E+03 -2.158408E+02  3.066583E+04
        13  24  3.358174E+04 -2.643082E+05  6.546902E+04 -8.489117E+02 -2.025555E+02  4.714142E+04
        13  25 -1.353321E+04 -3.151279E+05  7.536461E+03 -2.931517E+02 -2.110099E+02  1.418915E+04
        13  26 -2.059823E+04 -3.219232E+05  1.878687E+04  9.457852E+02 -2.158484E+02  3.066253E+04
        13  27  2.114205E+04 -3.140758E+05  5.302778E+04 -1.849706E+03 -2.026269E+02  4.713609E+04
        14   1 -6.972440E+03 -2.501093E+05  7.845001E+04 -4.749144E+03  1.800576E+02 -6.027370E+04
        14   2 -5.210950E+04 -2.937703E+05  1.188096E+05  3.142951E+03  2.506710E+02 -1.255765E+05
        14   3  2.129864E+05 -2.513761E+05  2.792687E+05  6.479746E+03  3.911571E+02 -1.908766E+05
        14   4 -6.581712E+03 -2.484705E+05  7.885747E+04 -1.174569E+03  1.796995E+02 -6.026877E+04
        14   5 -5.153486E+04 -2.915108E+05  1.193760E+05  1.338837E+03  2.510325E+02 -1.255752E+05
        14   6  2.137448E+05 -2.484957E+05  2.799961E+05 -7.032746E+02  3.933702E+02 -1.908790E+05
        14   7 -6.190935E+03 -2.468317E+05  7.926493E+04  2.400015E+03  1.793415E+02 -6.026385E+04
        14   8 -5.096021E+04 -2.892513E+05  1.199423E+05 -4.652831E+02  2.513941E+02 -1.255739E+05
        14   9  2.145035E+05 -2.456152E+05  2.807236E+05 -7.886329E+03  3.955833E+02 -1.908814E+05
        14  10 -6.973416E+03 -2.501132E+05  7.844318E+04 -4.749135E+03 -5.685885E-10  1.547235E-10
        14  11 -5.211373E+04 -2.937872E+05  1.187799E+05  3.142977E+03  4.085957E-09 -7.303356E-10
        14  12  2.129766E+05 -2.514152E+05  2.792002E+05  6.479806E+03  1.290371E-09 -8.147614E-10
        14  13 -6.582687E+03 -2.484745E+05  7.885064E+04 -1.174560E+03  1.419348E-09 -1.264252E-09
        14  14 -5.153909E+04 -2.915277E+05  1.193463E+05  1.338863E+03  2.258559E-09 -7.758668E-12
        14  15  2.137350E+05 -2.485348E+05  2.799276E+05 -7.032142E+02 -8.000058E-10 -1.327101E-09
        14  16 -6.191911E+03 -2.468356E+05  7.925811E+04  2.400023E+03 -1.789953E-09 -1.556861E-10
        14  17 -5.096444E+04 -2.892682E+05  1.199127E+05 -4.652577E+02  6.484235E-10  1.026729E-09
        14  18  2.144937E+05 -2.456543E+05  2.806551E+05 -7.886268E+03 -1.160758E-09  3.994107E-10
        14  19 -6.972440E+03 -2.501093E+05  7.845001E+04 -4.749144E+03 -1.800576E+02  6.027370E+04
        14  20 -5.210950E+04 -2.937703E+05  1.188096E+05  3.142951E+03 -2.506710E+02  1.255765E+05
        14  21  2.129864E+05 -2.513761E+05  2.792687E+05  6.479746E+03 -3.911571E+02  1.908766E+05
        14  22 -6.581712E+03 -2.484705E+05  7.885747E+04 -1.174569E+03 -1.796995E+02  6.026877E+04
        14  23 -5.153486E+04 -2.915108E+05  1.193760E+05  1.338837E+03 -2.510325E+02  1.255752E+05
        14  24  2.137448E+05 -2.484957E+05  2.799961E+05 -7.032746E+02 -3.933702E+02  1.908790E+05
        14  25 -6.190935E+03 -2.468317E+05  7.926493E+04  2.400015E+03 -1.793415E+02  6.026385E+04
        14  26 -5.096021E+04 -2.892513E+05  1.199423E+05 -4.652831E+02 -2.513941E+02  1.255739E+05
        14  27  2.145035E+05 -2.456152E+05  2.807236E+05 -7.886329E+03 -3.955833E+02  1.908814E+05
        15   1  1.586278E+05 -7.411274E+05  1.528811E+05 -3.181802E+02  2.101368E+04 -5.900762E+00
        15   2  1.581725E+05 -7.430952E+05  1.524001E+05  1.241640E+02  2.096956E+04  5.597257E+00
        15   3  1.577636E+05 -7.446367E+05  1.520113E+05 -6.952410E+02  2.086721E+04  1.697167E+01
        15   4 -6.879725E+01 -1.380956E+06 -3.675148E+01 -2.804100E+02  2.101513E+04  2.018478E+00
        15   5 -8.756790E+01 -1.381166E+06 -9.326570E+01  3.505194E+02  2.097098E+04  4.420681E+01
        15   6 -6.545162E+01 -1.380956E+06 -7.891338E+01 -2.803747E+02  2.086858E+04  8.627201E+01
        15   7 -1.587951E+05 -2.020409E+06 -1.529835E+05 -2.426687E+02  2.101657E+04  9.929583E+00
        15   8 -1.583772E+05 -2.018864E+06 -1.526154E+05  5.766848E+02  2.097240E+04  8.277681E+01
        15   9 -1.579239E+05 -2.016903E+06 -1.521977E+05  1.341418E+02  2.086995E+04  1.555015E+02
        15  10  1.586274E+05 -7.411275E+05  1.528803E+05 -3.181801E+02  2.820129E-09  6.887451E-09
        15  11  1.581720E+05 -7.430953E+05  1.523993E+05  1.241639E+02  2.042298E-09  2.674598E-09
        15  12  1.577631E+05 -7.446368E+05  1.520105E+05 -6.952413E+02  1.403600E-09 -3.259304E-09
        15  13 -6.927118E+01 -1.380956E+06 -3.758086E+01 -2.804100E+02  5.530546E-10 -2.109449E-11
        15  14 -8.803985E+01 -1.381167E+06 -9.409161E+01  3.505187E+02  3.286784E-10 -2.755313E-10
        15  15 -6.591896E+01 -1.380956E+06 -7.973125E+01 -2.803761E+02  5.729569E-09 -2.530797E-10
        15  16 -1.587956E+05 -2.020409E+06 -1.529843E+05 -2.426689E+02  1.640553E-09 -6.950518E-09
        15  17 -1.583777E+05 -2.018864E+06 -1.526162E+05  5.766834E+02  3.148059E-09 -2.801063E-09
        15  18 -1.579243E+05 -2.016903E+06 -1.521985E+05  1.341392E+02  6.300257E-09  3.404351E-09
        15  19  1.586278E+05 -7.411274E+05  1.528811E+05 -3.181802E+02 -2.101368E+04  5.900762E+00
        15  20  1.581725E+05 -7.430952E+05  1.524001E+05  1.241640E+02 -2.096956E+04 -5.597257E+00
        15  21  1.577636E+05 -7.446367E+05  1.520113E+05 -6.952410E+02 -2.086721E+04 -1.697167E+01
        15  22 -6.879725E+01 -1.380956E+06 -3.675148E+01 -2.804100E+02 -2.101513E+04 -2.018478E+00
        15  23 -8.756790E+01 -1.381166E+06 -9.326570E+01  3.505194E+02 -2.097098E+04 -4.420681E+01
        15  24 -6.545162E+01 -1.380956E+06 -7.891338E+01 -2.803747E+02 -2.086858E+04 -8.627201E+01
        15  25 -1.587951E+05 -2.020409E+06 -1.529835E+05 -2.426687E+02 -2.101657E+04 -9.929583E+00
        15  26 -1.583772E+05 -2.018864E+06 -1.526154E+05  5.766848E+02 -2.097240E+04 -8.277681E+01
        15  27 -1.579239E+05 -2.016903E+06 -1.521977E+05  1.341418E+02 -2.086995E+04 -1.555015E+02
        16   1  1.566444E+05 -7.491415E+05  1.508889E+05 -1.315588E+03  2.078197E+04  1.518757E+01
        16   2  1.553282E+05 -7.545781E+05  1.495192E+05  3.773571E+02  2.059184E+04  9.394272E+01
        16   3  1.540564E+05 -7.596243E+05  1.481919E+05 -1.668391E+03  2.034436E+04  1.723352E+02
        16   4 -6.519087E+01 -1.380962E+06 -1.051825E+02 -8.308515E+02  2.078329E+04  1.002673E+02
        16   5 -8.284453E+01 -1.381154E+06 -2.280819E+02  1.038630E+03  2.059306E+04  2.091889E+02
        16   6 -6.142367E+01 -1.380961E+06 -3.296878E+02 -8.308175E+02  2.034546E+04  3.177483E+02
        16   7 -1.568037E+05 -2.012416E+06 -1.511274E+05 -3.465146E+02  2.078461E+04  1.852607E+02
        16   8 -1.555223E+05 -2.007369E+06 -1.500031E+05  1.699359E+03  2.059429E+04  3.243190E+02
        16   9 -1.542073E+05 -2.001943E+06 -1.488786E+05  6.069951E+00  2.034656E+04  4.630163E+02
        16  10  1.566439E+05 -7.491416E+05  1.508881E+05 -1.315589E+03 -1.359053E-09 -1.533417E-08
        16  11  1.553277E+05 -7.545783E+05  1.495184E+05  3.773555E+02 -1.852838E-09 -3.767430E-09
        16  12  1.540560E+05 -7.596244E+05  1.481912E+05 -1.668394E+03 -2.194677E-09  9.122941E-09
        16  13 -6.565441E+01 -1.380962E+06 -1.059937E+02 -8.308532E+02 -2.508574E-09  4.990487E-11
        16  14 -8.329963E+01 -1.381154E+06 -2.288784E+02  1.038627E+03 -2.034384E-10 -7.038641E-10
        16  15 -6.186791E+01 -1.380961E+06 -3.304653E+02 -8.308227E+02  3.724481E-09 -7.392255E-10
        16  16 -1.568042E+05 -2.012416E+06 -1.511282E+05 -3.465177E+02  3.711544E-09  1.504118E-08
        16  17 -1.555228E+05 -2.007370E+06 -1.500039E+05  1.699353E+03  2.748006E-09  3.369021E-09
        16  18 -1.542077E+05 -2.001943E+06 -1.488793E+05  6.062357E+00  2.450328E-09 -8.586752E-09
        16  19  1.566444E+05 -7.491415E+05  1.508889E+05 -1.315588E+03 -2.078197E+04 -1.518757E+01
        16  20  1.553282E+05 -7.545781E+05  1.495192E+05  3.773571E+02 -2.059184E+04 -9.394272E+01
        16  21  1.540564E+05 -7.596243E+05  1.481919E+05 -1.668391E+03 -2.034436E+04 -1.723352E+02
        16  22 -6.519087E+01 -1.380962E+06 -1.051825E+02 -8.308515E+02 -2.078329E+04 -1.002673E+02
        16  23 -8.284453E+01 -1.381154E+06 -2.280819E+02  1.038630E+03 -2.059306E+04 -2.091889E+02
        16  24 -6.142367E+01 -1.380961E+06 -3.296878E+02 -8.308175E+02 -2.034546E+04 -3.177483E+02
        16  25 -1.568037E+05 -2.012416E+06 -1.511274E+05 -3.465146E+02 -2.078461E+04 -1.852607E+02
        16  26 -1.555223E+05 -2.007369E+06 -1.500031E+05  1.699359E+03 -2.059429E+04 -3.243190E+02
        16  27 -1.542073E+05 -2.001943E+06 -1.488786E+05  6.069951E+00 -2.034656E+04 -4.630163E+02
        17   1  1.518500E+05 -7.685523E+05  1.459128E+05 -2.247575E+03  2.017573E+04  2.244512E+02
        17   2  1.497006E+05 -7.773262E+05  1.434989E+05  6.632653E+02  1.984229E+04  5.897967E+02
        17   3  1.475120E+05 -7.858191E+05  1.409088E+05 -2.574698E+03  1.945016E+04  9.545483E+02
        17   4 -5.127544E+01 -1.380982E+06 -4.383853E+02 -1.366375E+03  2.017674E+04  3.842626E+02
        17   5 -6.339012E+01 -1.381119E+06 -8.057768E+02  1.708139E+03  1.984313E+04  7.802371E+02
        17   6 -1.203997E+02 -1.380981E+06 -1.370942E+03 -1.366529E+03  1.945081E+04  1.175622E+03
        17   7 -1.519797E+05 -1.993068E+06 -1.468160E+05 -4.858793E+02  2.017775E+04  5.439169E+02
        17   8 -1.498539E+05 -1.984577E+06 -1.451362E+05  2.752184E+03  1.984398E+04  9.704926E+02
        17   9 -1.477785E+05 -1.975817E+06 -1.436756E+05 -1.593086E+02  1.945146E+04  1.396484E+03
        17  10  1.518496E+05 -7.685525E+05  1.459120E+05 -2.247578E+03 -3.442882E-09  4.111216E-10
        17  11  1.497002E+05 -7.773263E+05  1.434982E+05  6.632559E+02  5.349448E-09  2.193061E-10
        17  12  1.475115E+05 -7.858193E+05  1.409080E+05 -2.574713E+03  2.914038E-09  3.195140E-09
        17  13 -5.171235E+01 -1.380983E+06 -4.391501E+02 -1.366381E+03  7.560808E-10  1.334410E-10
        17  14 -6.381283E+01 -1.381119E+06 -8.065174E+02  1.708127E+03  1.259084E-10 -1.317329E-09
        17  15 -1.208061E+02 -1.380981E+06 -1.371656E+03 -1.366548E+03  1.403590E-09 -8.544097E-10
        17  16 -1.519802E+05 -1.993068E+06 -1.468168E+05 -4.858881E+02  2.837683E-09 -8.311762E-10
        17  17 -1.498543E+05 -1.984577E+06 -1.451369E+05  2.752169E+03  7.797257E-09 -1.030482E-09
        17  18 -1.477789E+05 -1.975817E+06 -1.436764E+05 -1.593305E+02  2.373335E-09 -2.164108E-09
        17  19  1.518500E+05 -7.685523E+05  1.459128E+05 -2.247575E+03 -2.017573E+04 -2.244512E+02
        17  20  1.497006E+05 -7.773262E+05  1.434989E+05  6.632653E+02 -1.984229E+04 -5.897967E+02
        17  21  1.475120E+05 -7.858191E+05  1.409088E+05 -2.574698E+03 -1.945016E+04 -9.545483E+02
        17  22 -5.127544E+01 -1.380982E+06 -4.383853E+02 -1.366375E+03 -2.017674E+04 -3.842626E+02
        17  23 -6.339012E+01 -1.381119E+06 -8.057768E+02  1.708139E+03 -1.984313E+04 -7.802371E+02
        17  24 -1.203997E+02 -1.380981E+06 -1.370942E+03 -1.366529E+03 -1.945081E+04 -1.175622E+03
        17  25 -1.519797E+05 -1.993068E+06 -1.468160E+05 -4.858793E+02 -2.017775E+04 -5.439169E+02
        17  26 -1.498539E+05 -1.984577E+06 -1.451362E+05  2.752184E+03 -1.984398E+04 -9.704926E+02
        17  27 -1.477785E+05 -1.975817E+06 -1.436756E+05 -1.593086E+02 -1.945146E+04 -1.396484E+03
        18   1  9.100112E+04  9.762788E+05  5.112071E+04 -4.209749E+00  3.194397E+04  2.250249E-01
        18   2  9.100638E+04  9.763026E+05  5.112911E+04 -2.438193E+01  3.194521E+04 -5.822773E+00
        18   3  9.101288E+04  9.763364E+05  5.114456E+04 -4.138798E+01  3.194772E+04 -1.187022E+01
        18   4 -3.305038E+01  5.718448E+05  1.618562E+01  7.038986E-01  3.194616E+04 -1.259668E+00
        18   5 -3.467119E+01  5.718396E+05  1.926811E+01 -8.788603E-01  3.194741E+04 -1.032731E+01
        18   6 -3.451785E+01  5.718448E+05  3.149863E+01  7.052789E-01  3.194992E+04 -1.939464E+01
        18   7 -9.107387E+04  1.675787E+05 -5.108886E+04  5.614794E+00  3.194836E+04 -2.743442E+00
        18   8 -9.108237E+04  1.675444E+05 -5.109109E+04  2.261084E+01  3.194961E+04 -1.482906E+01
        18   9 -9.108857E+04  1.675211E+05 -5.108208E+04  4.277454E+01  3.195212E+04 -2.691442E+01
        18  10  9.100002E+04  9.762785E+05  5.111880E+04 -4.209755E+00 -7.385699E-09  2.370161E-07
        18  11  9.100528E+04  9.763024E+05  5.112719E+04 -2.438178E+01 -1.082170E-08  2.914243E-08
        18  12  9.101179E+04  9.763361E+05  5.114264E+04 -4.138767E+01 -3.372563E-09 -1.828048E-07
        18  13 -3.414657E+01  5.718446E+05  1.426728E+01  7.039305E-01  3.076309E-08  3.272332E-11
        18  14 -3.576747E+01  5.718394E+05  1.734962E+01 -8.785948E-01  1.286909E-08 -1.407525E-10
        18  15 -3.561431E+01  5.718446E+05  2.957984E+01  7.057781E-01  5.675300E-09  1.592279E-10
        18  16 -9.107497E+04  1.675784E+05 -5.109078E+04  5.614864E+00 -4.709314E-09 -2.369404E-07
        18  17 -9.108347E+04  1.675442E+05 -5.109301E+04  2.261122E+01 -6.110389E-09 -2.918070E-08
        18  18 -9.108967E+04  1.675208E+05 -5.108400E+04  4.277523E+01 -2.002063E-09  1.827521E-07
        18  19  9.100112E+04  9.762788E+05  5.112071E+04 -4.209749E+00 -3.194397E+04 -2.250244E-01
        18  20  9.100638E+04  9.763026E+05  5.112911E+04 -2.438193E+01 -3.194521E+04  5.822773E+00
        18  21  9.101288E+04  9.763364E+05  5.114456E+04 -4.138798E+01 -3.194772E+04  1.187022E+01
        18  22 -3.305038E+01  5.718448E+05  1.618562E+01  7.038978E-01 -3.194616E+04  1.259668E+00
        18  23 -3.467119E+01  5.718396E+05  1.926811E+01 -8.788604E-01 -3.194741E+04  1.032731E+01
        18  24 -3.451785E+01  5.718448E+05  3.149863E+01  7.052794E-01 -3.194992E+04  1.939464E+01
        18  25 -9.107387E+04  1.675787E+05 -5.108886E+04  5.614793E+00 -3.194836E+04  2.743442E+00
        18  26 -9.108237E+04  1.675444E+05 -5.109109E+04  2.261084E+01 -3.194961E+04  1.482906E+01
        18  27 -9.108857E+04  1.675211E+05 -5.108208E+04  4.277454E+01 -3.195212E+04  2.691442E+01
        19   1  9.102031E+04  9.763726E+05  5.115899E+04 -4.957619E+01  3.194998E+04 -1.521560E+01
        19   2  9.103676E+04  9.764516E+05  5.120227E+04 -7.821216E+01  3.195378E+04 -5.096862E+01
        19   3  9.105607E+04  9.765448E+05  5.127232E+04 -9.318694E+01  3.195659E+04 -8.672080E+01
        19   4 -3.525059E+01  5.718456E+05  4.059908E+01  3.037654E+00  3.195218E+04 -2.553118E+01
        19   5 -3.907869E+01  5.718387E+05  6.834850E+01 -3.792900E+00  3.195598E+04 -5.885575E+01
        19   6 -4.047031E+01  5.718455E+05  1.211962E+02  3.038254E+00  3.195879E+04 -9.217948E+01
        19   7 -9.109746E+04  1.674864E+05 -5.107831E+04  5.562152E+01  3.195438E+04 -3.584036E+01
        19   8 -9.112158E+04  1.673936E+05 -5.106609E+04  7.058357E+01  3.195819E+04 -6.673799E+01
        19   9 -9.114368E+04  1.673142E+05 -5.103045E+04  9.920782E+01  3.196099E+04 -9.763477E+01
        19  10  9.101921E+04  9.763723E+05  5.115707E+04 -4.957580E+01 -1.830497E-09 -9.130901E-08
        19  11  9.103566E+04  9.764514E+05  5.120035E+04 -7.821085E+01 -6.484134E-09  7.429386E-09
        19  12  9.105498E+04  9.765446E+05  5.127040E+04 -9.318471E+01 -6.604835E-09  1.085950E-07
        19  13 -3.634720E+01  5.718453E+05  3.868001E+01  3.038311E+00 -1.362568E-09  1.306689E-10
        19  14 -4.017556E+01  5.718384E+05  6.642897E+01 -3.791386E+00  2.664702E-09 -4.853293E-10
        19  15 -4.156737E+01  5.718453E+05  1.192764E+02  3.040626E+00  9.618407E-09  3.343085E-10
        19  16 -9.109856E+04  1.674861E+05 -5.108023E+04  5.562244E+01 -4.014562E-09  9.095886E-08
        19  17 -9.112267E+04  1.673934E+05 -5.106801E+04  7.058529E+01 -5.572769E-09 -7.654309E-09
        19  18 -9.114477E+04  1.673139E+05 -5.103237E+04  9.921033E+01 -5.508394E-09 -1.083919E-07
        19  19  9.102031E+04  9.763726E+05  5.115899E+04 -4.957619E+01 -3.194998E+04  1.521560E+01
        19  20  9.103676E+04  9.764516E+05  5.120227E+04 -7.821216E+01 -3.195378E+04  5.096862E+01
        19  21  9.105607E+04  9.765448E+05  5.127232E+04 -9.318694E+01 -3.195659E+04  8.672080E+01
        19  22 -3.525059E+01  5.718456E+05  4.059908E+01  3.037654E+00 -3.195218E+04  2.553118E+01
        19  23 -3.907869E+01  5.718387E+05  6.834850E+01 -3.792900E+00 -3.195598E+04  5.885575E+01
        19  24 -4.047031E+01  5.718455E+05  1.211962E+02  3.038254E+00 -3.195879E+04  9.217948E+01
        19  25 -9.109746E+04  1.674864E+05 -5.107831E+04  5.562152E+01 -3.195438E+04  3.584036E+01
        19  26 -9.112158E+04  1.673936E+05 -5.106609E+04  7.058357E+01 -3.195819E+04  6.673799E+01
        19  27 -9.114368E+04  1.673142E+05 -5.103045E+04  9.920782E+01 -3.196099E+04  9.763477E+01
        20   1  9.107148E+04  9.766209E+05  5.132570E+04 -1.054461E+02  3.195882E+04 -1.102848E+02
        20   2  9.110324E+04  9.767454E+05  5.148844E+04 -1.434162E+02  3.195274E+04 -2.909740E+02
        20   3  9.115780E+04  9.769079E+05  5.177718E+04 -1.585017E+02  3.192862E+04 -4.716672E+02
        20   4 -4.244484E+01  5.718492E+05  1.599971E+02  5.086710E+00  3.196102E+04 -1.171668E+02
        20   5 -4.753860E+01  5.718340E+05  2.782146E+02 -6.354376E+00  3.195493E+04 -2.544211E+02
        20   6 -3.736480E+01  5.718492E+05  4.923570E+02  5.089223E+00  3.193079E+04 -3.916800E+02
        20   7 -9.116304E+04  1.672456E+05 -5.100623E+04  1.155553E+02  3.196322E+04 -1.240445E+02
        20   8 -9.120500E+04  1.670906E+05 -5.093254E+04  1.306272E+02  3.195711E+04 -2.178909E+02
        20   9 -9.123922E+04  1.669586E+05 -5.079301E+04  1.685838E+02  3.193295E+04 -3.117424E+02
        20  10  9.107038E+04  9.766206E+05  5.132378E+04 -1.054433E+02 -5.518747E-09 -7.648893E-08
        20  11  9.110215E+04  9.767451E+05  5.148652E+04 -1.434087E+02 -2.062406E-09 -1.119424E-08
        20  12  9.115671E+04  9.769076E+05  5.177526E+04 -1.584896E+02  5.426782E-09  5.438010E-08
        20  13 -4.354206E+01  5.718490E+05  1.580770E+02  5.089725E+00  1.003163E-08  3.454962E-10
        20  14 -4.863541E+01  5.718337E+05  2.762951E+02 -6.347830E+00  1.186492E-09 -6.963522E-10
        20  15 -3.845998E+01  5.718489E+05  4.904402E+02  5.099294E+00 -8.009704E-09  5.023686E-10
        20  16 -9.116413E+04  1.672454E+05 -5.100815E+04  1.155585E+02 -6.076193E-09  7.607709E-08
        20  17 -9.120609E+04  1.670904E+05 -5.093446E+04  1.306328E+02  1.563441E-09  1.098243E-08
        20  18 -9.124031E+04  1.669584E+05 -5.079493E+04  1.685918E+02  7.010255E-09 -5.411267E-08
        20  19  9.107148E+04  9.766209E+05  5.132570E+04 -1.054461E+02 -3.195882E+04  1.102848E+02
        20  20  9.110324E+04  9.767454E+05  5.148844E+04 -1.434162E+02 -3.195274E+04  2.909740E+02
        20  21  9.115780E+04  9.769079E+05  5.177718E+04 -1.585017E+02 -3.192862E+04  4.716672E+02
        20  22 -4.244484E+01  5.718492E+05  1.599971E+02  5.086710E+00 -3.196102E+04  1.171668E+02
        20  23 -4.753860E+01  5.718340E+05  2.782146E+02 -6.354376E+00 -3.195493E+04  2.544211E+02
        20  24 -3.736480E+01  5.718492E+05  4.923570E+02  5.089223E+00 -3.193079E+04  3.916800E+02
        20  25 -9.116304E+04  1.672456E+05 -5.100623E+04  1.155553E+02 -3.196322E+04  1.240445E+02
        20  26 -9.120500E+04  1.670906E+05 -5.093254E+04  1.306272E+02 -3.195711E+04  2.178909E+02
        20  27 -9.123922E+04  1.669586E+05 -5.079301E+04  1.685838E+02 -3.193295E+04  3.117424E+02
        21   1  2.876503E+05  2.564992E+04  3.767239E+05 -8.079076E+03 -1.555124E+03  2.568453E+05
        21   2 -6.932894E+04 -3.217849E+04  1.606140E+05 -2.647835E+03 -1.021156E+03  1.689801E+05
        21   3 -8.989903E+03  2.578994E+04  1.060755E+05  4.603964E+03 -4.892131E+02  8.111100E+04
        21   4  2.875334E+05  2.576652E+04  3.767239E+05  1.580908E+03 -1.551128E+03  2.568454E+05
        21   5 -6.935819E+04 -3.214921E+04  1.606140E+05 -2.247195E+02 -1.020496E+03  1.689801E+05
        21   6 -8.931772E+03  2.573181E+04  1.060755E+05 -2.093450E+02 -4.898418E+02  8.111099E+04
        21   7  2.874169E+05  2.588332E+04  3.767239E+05  1.124089E+04 -1.547131E+03  2.568454E+05
        21   8 -6.938743E+04 -3.211991E+04  1.606141E+05  2.198396E+03 -1.019837E+03  1.689801E+05
        21   9 -8.873554E+03  2.567372E+04  1.060755E+05 -5.022654E+03 -4.904709E+02  8.111099E+04
        21  10  2.876325E+05  2.557910E+04  3.766000E+05 -8.078755E+03 -1.437761E-05 -1.123054E-05
        21  11 -6.933666E+04 -3.220916E+04  1.605604E+05 -2.647697E+03 -6.361193E-05 -2.047307E-05
        21  12 -8.991778E+03  2.578285E+04  1.060631E+05  4.603996E+03 -1.124362E-04 -1.589337E-05
        21  13  2.875157E+05  2.569571E+04  3.765999E+05  1.581229E+03  1.784259E-05 -1.051968E-06
        21  14 -6.936586E+04 -3.217986E+04  1.605604E+05 -2.245809E+02  7.954827E-05 -4.664074E-06
        21  15 -8.933538E+03  2.572474E+04  1.060632E+05 -2.093128E+02  1.418504E-04 -8.272527E-06
        21  16  2.873992E+05  2.581251E+04  3.766000E+05  1.124121E+04 -1.458720E-05  1.012795E-05
        21  17 -6.939503E+04 -3.215055E+04  1.605604E+05  2.198534E+03 -6.401894E-05  1.558660E-05
        21  18 -8.875211E+03  2.566668E+04  1.060632E+05 -5.022623E+03 -1.126737E-04  7.230640E-06
        21  19  2.876502E+05  2.564992E+04  3.767239E+05 -8.079076E+03  1.555124E+03 -2.568453E+05
        21  20 -6.932906E+04 -3.217852E+04  1.606140E+05 -2.647836E+03  1.021156E+03 -1.689801E+05
        21  21 -8.990120E+03  2.578989E+04  1.060755E+05  4.603965E+03  4.892129E+02 -8.111100E+04
        21  22  2.875334E+05  2.576652E+04  3.767239E+05  1.580909E+03  1.551128E+03 -2.568454E+05
        21  23 -6.935819E+04 -3.214921E+04  1.606140E+05 -2.247200E+02  1.020497E+03 -1.689801E+05
        21  24 -8.931772E+03  2.573181E+04  1.060755E+05 -2.093445E+02  4.898421E+02 -8.111099E+04
        21  25  2.874169E+05  2.588333E+04  3.767240E+05  1.124089E+04  1.547131E+03 -2.568454E+05
        21  26 -6.938731E+04 -3.211988E+04  1.606141E+05  2.198394E+03  1.019837E+03 -1.689801E+05
        21  27 -8.873337E+03  2.567377E+04  1.060756E+05 -5.022655E+03  4.904707E+02 -8.111099E+04
        22   1  4.504651E+04  4.275585E+03  8.802082E+04 -1.206944E+03 -3.833144E+02  6.344690E+04
        22   2 -1.090703E+04 -5.363989E+03  4.217206E+04 -3.741279E+02 -2.492652E+02  4.127105E+04
        22   3 -1.209503E+03  4.299758E+03  2.717663E+04  7.385963E+02 -1.152966E+02  1.909540E+04
        22   4  4.502899E+04  4.293135E+03  8.802083E+04  2.460190E+02 -3.831656E+02  6.344690E+04
        22   5 -1.091112E+04 -5.359874E+03  4.217206E+04 -3.352614E+01 -2.492423E+02  4.127105E+04
        22   6 -1.200161E+03  4.290435E+03  2.717663E+04 -3.315990E+01 -1.153201E+02  1.909540E+04
        22   7  4.501147E+04  4.310689E+03  8.802084E+04  1.698982E+03 -3.830174E+02  6.344690E+04
        22   8 -1.091521E+04 -5.355759E+03  4.217207E+04  3.070758E+02 -2.492199E+02  4.127105E+04
        22   9 -1.190818E+03  4.281113E+03  2.717663E+04 -8.049160E+02 -1.153441E+02  1.909540E+04
        22  10  4.504531E+04  4.271233E+03  8.801323E+04 -1.206924E+03 -1.205907E-04 -1.357851E-06
        22  11 -1.090759E+04 -5.365841E+03  4.216883E+04 -3.741190E+02 -9.983555E-05  3.527784E-06
        22  12 -1.209676E+03  4.299348E+03  2.717592E+04  7.385987E+02 -7.908707E-05  4.260929E-06
        22  13  4.502791E+04  4.288813E+03  8.801326E+04  2.460384E+02  1.522076E-04 -8.931925E-06
        22  14 -1.091158E+04 -5.361703E+03  4.216886E+04 -3.351777E+01  1.250475E-04 -7.593741E-06
        22  15 -1.200259E+03  4.290044E+03  2.717595E+04 -3.315804E+01  9.784752E-05 -6.255870E-06
        22  16  4.501051E+04  4.306396E+03  8.801330E+04  1.699002E+03 -1.205511E-04 -7.979300E-06
        22  17 -1.091557E+04 -5.357564E+03  4.216889E+04  3.070839E+02 -9.967472E-05 -1.141181E-05
        22  18 -1.190841E+03  4.280741E+03  2.717597E+04 -8.049143E+02 -7.891404E-05 -1.069249E-05
        22  19  4.504628E+04  4.275527E+03  8.802076E+04 -1.206944E+03  3.833142E+02 -6.344690E+04
        22  20 -1.090722E+04 -5.364036E+03  4.217201E+04 -3.741266E+02  2.492650E+02 -4.127105E+04
        22  21 -1.209654E+03  4.299721E+03  2.717659E+04  7.385975E+02  1.152964E+02 -1.909540E+04
        22  22  4.502899E+04  4.293135E+03  8.802083E+04  2.460186E+02  3.831659E+02 -6.344690E+04
        22  23 -1.091112E+04 -5.359874E+03  4.217206E+04 -3.352596E+01  2.492425E+02 -4.127105E+04
        22  24 -1.200161E+03  4.290435E+03  2.717663E+04 -3.315973E+01  1.153203E+02 -1.909540E+04
        22  25  4.501171E+04  4.310748E+03  8.802089E+04  1.698982E+03  3.830172E+02 -6.344690E+04
        22  26 -1.091502E+04 -5.355711E+03  4.217212E+04  3.070756E+02  2.492197E+02 -4.127105E+04
        22  27 -1.190667E+03  4.281151E+03  2.717667E+04 -8.049161E+02  1.153439E+02 -1.909540E+04
        23   1  6.992842E+03  8.500503E+02  2.240755E+04 -1.930485E+02 -8.812362E+01  1.459111E+04
        23   2 -1.957745E+03 -1.062768E+03  1.323297E+04 -4.450795E+01 -4.718850E+01  7.813643E+03
        23   3  8.807314E+02  8.545847E+02  1.141835E+04  1.520965E+02 -6.258299E+00  1.036300E+03
        23   4  6.990079E+03  8.528256E+02  2.240755E+04  3.706529E+01 -8.811806E+01  1.459111E+04
        23   5 -1.958203E+03 -1.062300E+03  1.323297E+04 -5.410751E+00 -4.718788E+01  7.813643E+03
        23   6  8.825762E+02  8.527438E+02  1.141835E+04  1.797840E-01 -6.258455E+00  1.036300E+03
        23   7  6.987317E+03  8.556010E+02  2.240755E+04  2.671792E+02 -8.811281E+01  1.459111E+04
        23   8 -1.958662E+03 -1.061833E+03  1.323297E+04  3.368651E+01 -4.718751E+01  7.813643E+03
        23   9  8.844210E+02  8.509030E+02  1.141835E+04 -1.517369E+02 -6.258806E+00  1.036300E+03
        23  10  6.992719E+03  8.498051E+02  2.240713E+04 -1.930471E+02 -6.881985E-05  9.207426E-07
        23  11 -1.957815E+03 -1.062847E+03  1.323284E+04 -4.450739E+01 -5.552470E-05  2.146658E-07
        23  12  8.806895E+02  8.545733E+02  1.141833E+04  1.520974E+02 -4.414048E-05  8.336415E-06
        23  13  6.990022E+03  8.525970E+02  2.240715E+04  3.706632E+01  8.578812E-05 -5.606378E-06
        23  14 -1.958220E+03 -1.062366E+03  1.323285E+04 -5.410549E+00  7.046902E-05 -4.719183E-06
        23  15  8.825758E+02  8.527427E+02  1.141834E+04  1.803135E-01  5.341293E-05 -3.842404E-06
        23  16  6.987325E+03  8.553889E+02  2.240717E+04  2.671800E+02 -6.874560E-05 -6.651048E-06
        23  17 -1.958625E+03 -1.061885E+03  1.323287E+04  3.368657E+01 -5.549213E-05 -5.000938E-06
        23  18  8.844622E+02  8.509121E+02  1.141836E+04 -1.517365E+02 -4.379353E-05 -1.219952E-05
        23  19  6.992710E+03  8.500172E+02  2.240752E+04 -1.930477E+02  8.812349E+01 -1.459111E+04
        23  20 -1.957852E+03 -1.062794E+03  1.323294E+04 -4.450742E+01  4.718838E+01 -7.813643E+03
        23  21  8.806483E+02  8.545642E+02  1.141833E+04  1.520982E+02  6.258211E+00 -1.036300E+03
        23  22  6.990079E+03  8.528256E+02  2.240755E+04  3.706527E+01  8.811823E+01 -1.459111E+04
        23  23 -1.958203E+03 -1.062300E+03  1.323297E+04 -5.410941E+00  4.718802E+01 -7.813643E+03
        23  24  8.825761E+02  8.527438E+02  1.141835E+04  1.808324E-01  6.258562E+00 -1.036300E+03
        23  25  6.987449E+03  8.556340E+02  2.240759E+04  2.671788E+02  8.811267E+01 -1.459111E+04
        23  26 -1.958555E+03 -1.061806E+03  1.323300E+04  3.368604E+01  4.718740E+01 -7.813643E+03
        23  27  8.845040E+02  8.509235E+02  1.141837E+04 -1.517361E+02  6.258718E+00 -1.036300E+03
        24   1 -8.818950E+06 -2.755773E+06 -1.750880E+06 -3.126473E+06 -9.614177E+05 -3.551263E+05
        24   2 -8.634001E+06 -1.380872E+06 -8.747128E+05 -3.353568E+06 -6.210466E+05 -2.011578E+05
        24   3 -9.038911E+06 -1.366461E+06 -6.397485E+05 -3.196667E+06 -2.729742E+05 -6.743542E+04
        24   4 -8.130911E+06 -2.182141E+06 -1.499402E+06 -2.624878E+06 -9.482453E+05 -3.507020E+05
        24   5 -7.755607E+06 -9.583623E+05 -6.221336E+05 -3.023555E+06 -6.166489E+05 -1.995949E+05
        24   6 -7.967781E+06 -1.092333E+06 -3.784895E+05 -3.038495E+06 -2.772403E+05 -6.898957E+04
        24   7 -7.442166E+06 -1.607684E+06 -1.247939E+06 -2.122596E+06 -9.350566E+05 -3.462543E+05
        24   8 -6.876432E+06 -5.356557E+05 -3.696286E+05 -2.693065E+06 -6.122437E+05 -1.980274E+05
        24   9 -6.895496E+06 -8.182390E+05 -1.173025E+05 -2.880142E+06 -2.815142E+05 -7.054449E+04
        24  10 -8.819990E+06 -2.756163E+06 -1.752886E+06 -3.126751E+06  1.140474E-09 -8.062795E-10
        24  11 -8.634432E+06 -1.381022E+06 -8.755267E+05 -3.353669E+06 -3.877295E-09 -2.479635E-09
        24  12 -9.038993E+06 -1.366486E+06 -6.398996E+05 -3.196682E+06 -6.985983E-09  6.418242E-11
        24  13 -8.131922E+06 -2.182520E+06 -1.501351E+06 -2.625149E+06 -3.871590E-10 -4.718319E-10
        24  14 -7.756031E+06 -9.585095E+05 -6.229346E+05 -3.023655E+06 -4.536282E-09 -1.516981E-09
        24  15 -7.967866E+06 -1.092359E+06 -3.786451E+05 -3.038511E+06 -4.798965E-09 -5.951850E-10
        24  16 -7.443148E+06 -1.608052E+06 -1.249832E+06 -2.122859E+06 -2.018981E-09 -1.101327E-10
        24  17 -6.876849E+06 -5.358006E+05 -3.704168E+05 -2.693164E+06  6.682405E-11 -1.010446E-11
        24  18 -6.895583E+06 -8.182661E+05 -1.174628E+05 -2.880158E+06 -1.621071E-09 -2.190658E-09
        24  19 -8.818950E+06 -2.755773E+06 -1.750880E+06 -3.126473E+06  9.614177E+05  3.551263E+05
        24  20 -8.634001E+06 -1.380872E+06 -8.747128E+05 -3.353568E+06  6.210466E+05  2.011578E+05
        24  21 -9.038911E+06 -1.366461E+06 -6.397485E+05 -3.196667E+06  2.729742E+05  6.743542E+04
        24  22 -8.130911E+06 -2.182141E+06 -1.499402E+06 -2.624878E+06  9.482453E+05  3.507020E+05
        24  23 -7.755607E+06 -9.583623E+05 -6.221336E+05 -3.023555E+06  6.166489E+05  1.995949E+05
        24  24 -7.967781E+06 -1.092333E+06 -3.784895E+05 -3.038495E+06  2.772403E+05  6.898957E+04
        24  25 -7.442166E+06 -1.607684E+06 -1.247939E+06 -2.122596E+06  9.350566E+05  3.462543E+05
        24  26 -6.876432E+06 -5.356557E+05 -3.696286E+05 -2.693065E+06  6.122437E+05  1.980274E+05
        24  27 -6.895496E+06 -8.182390E+05 -1.173025E+05 -2.880142E+06  2.815142E+05  7.054449E+04
        25   1 -8.877471E+06 -1.656687E+06 -5.740343E+05 -3.251278E+06 -2.237205E+05 -5.147301E+04
        25   2 -8.842026E+06 -1.488210E+06 -4.076370E+05 -3.265638E+06 -1.471646E+05 -2.062735E+04
        25   3 -8.866514E+06 -1.486376E+06 -3.422242E+05 -3.249993E+06 -6.961182E+04  7.605705E+03
        25   4 -7.913883E+06 -1.257033E+06 -3.083663E+05 -2.954068E+06 -2.226934E+05 -5.110115E+04
        25   5 -7.874795E+06 -1.111955E+06 -1.464482E+05 -2.992386E+06 -1.471846E+05 -2.064128E+04
        25   6 -7.895325E+06 -1.133154E+06 -8.455533E+04 -3.000723E+06 -7.067890E+04  7.200479E+03
        25   7 -6.949383E+06 -8.572734E+05 -4.278523E+04 -2.656417E+06 -2.216643E+05 -5.072836E+04
        25   8 -6.906645E+06 -7.356302E+05  1.146563E+05 -2.718738E+06 -1.472044E+05 -2.065516E+04
        25   9 -6.923210E+06 -7.798928E+05  1.730325E+05 -2.751101E+06 -7.174777E+04  6.794647E+03
        25  10 -8.877526E+06 -1.656703E+06 -5.741350E+05 -3.251287E+06 -2.072604E-09  1.970008E-09
        25  11 -8.842050E+06 -1.488216E+06 -4.076791E+05 -3.265640E+06  5.669679E-10  7.626319E-10
        25  12 -8.866519E+06 -1.486378E+06 -3.422336E+05 -3.249993E+06 -6.635435E-10  2.196143E-09
        25  13 -7.913938E+06 -1.257050E+06 -3.084658E+05 -2.954077E+06  6.322281E-10  1.001491E-09
        25  14 -7.874818E+06 -1.111962E+06 -1.464903E+05 -2.992389E+06 -4.255249E-09  2.045230E-09
        25  15 -7.895330E+06 -1.133156E+06 -8.456492E+04 -3.000722E+06 -7.037669E-10  5.511618E-10
        25  16 -6.949437E+06 -8.572896E+05 -4.288363E+04 -2.656426E+06 -1.212780E-09 -5.345903E-10
        25  17 -6.906669E+06 -7.356366E+05  1.146143E+05 -2.718741E+06 -6.834135E-10  2.361329E-09
        25  18 -6.923216E+06 -7.798942E+05  1.730227E+05 -2.751101E+06 -3.540924E-09  9.337544E-10
        25  19 -8.877471E+06 -1.656687E+06 -5.740343E+05 -3.251278E+06  2.237205E+05  5.147301E+04
        25  20 -8.842026E+06 -1.488210E+06 -4.076370E+05 -3.265638E+06  1.471646E+05  2.062735E+04
        25  21 -8.866514E+06 -1.486376E+06 -3.422242E+05 -3.249993E+06  6.961182E+04 -7.605705E+03
        25  22 -7.913883E+06 -1.257033E+06 -3.083663E+05 -2.954068E+06  2.226934E+05  5.110115E+04
        25  23 -7.874795E+06 -1.111955E+06 -1.464482E+05 -2.992386E+06  1.471846E+05  2.064128E+04
        25  24 -7.895325E+06 -1.133154E+06 -8.455533E+04 -3.000723E+06  7.067890E+04 -7.200479E+03
        25  25 -6.949383E+06 -8.572734E+05 -4.278523E+04 -2.656417E+06  2.216643E+05  5.072836E+04
        25  26 -6.906645E+06 -7.356302E+05  1.146563E+05 -2.718738E+06  1.472044E+05  2.065516E+04
        25  27 -6.923210E+06 -7.798928E+05  1.730325E+05 -2.751101E+06  7.174777E+04 -6.794647E+03
        26   1 -8.784553E+06 -1.501909E+06 -3.085041E+05 -3.245931E+06 -5.748790E+04  1.089140E+04
        26   2 -8.742355E+06 -1.445003E+06 -2.611986E+05 -3.213147E+06 -3.913214E+04  1.566944E+04
        26   3 -8.673386E+06 -1.440752E+06 -2.317909E+05 -3.215523E+06 -2.043120E+04  1.952139E+04
        26   4 -7.883186E+06 -1.156671E+06 -6.617385E+04 -2.996761E+06 -5.816817E+04  1.063085E+04
        26   5 -7.895541E+06 -1.123355E+06 -3.403392E+04 -2.981804E+06 -4.019842E+04  1.526468E+04
        26   6 -7.881039E+06 -1.142594E+06 -1.946135E+04 -3.002006E+06 -2.188546E+04  1.897219E+04
        26   7 -6.981023E+06 -8.113803E+05  1.760839E+05 -2.747257E+06 -5.884949E+04  1.036990E+04
        26   8 -7.048026E+06 -8.016636E+05  1.930668E+05 -2.750171E+06 -4.126629E+04  1.485933E+04
        26   9 -7.088081E+06 -8.444013E+05  1.928121E+05 -2.788240E+06 -2.334178E+04  1.842225E+04
        26  10 -8.784557E+06 -1.501910E+06 -3.085106E+05 -3.245930E+06  2.089642E-09  1.767440E-10
        26  11 -8.742356E+06 -1.445004E+06 -2.612020E+05 -3.213146E+06  1.515704E-09  1.274886E-11
        26  12 -8.673386E+06 -1.440752E+06 -2.317924E+05 -3.215523E+06  1.261232E-09  6.398273E-12
        26  13 -7.883190E+06 -1.156673E+06 -6.618049E+04 -2.996760E+06 -1.419929E-09  3.824556E-11
        26  14 -7.895543E+06 -1.123356E+06 -3.403741E+04 -2.981803E+06 -5.029400E-11 -2.038155E-10
        26  15 -7.881040E+06 -1.142594E+06 -1.946293E+04 -3.002006E+06 -2.923879E-09  5.196068E-10
        26  16 -6.981026E+06 -8.113814E+05  1.760772E+05 -2.747256E+06 -2.010676E-09 -4.621059E-10
        26  17 -7.048028E+06 -8.016643E+05  1.930631E+05 -2.750171E+06 -5.887032E-10  3.303962E-10
        26  18 -7.088082E+06 -8.444018E+05  1.928104E+05 -2.788240E+06 -1.804131E-09 -2.209865E-10
        26  19 -8.784553E+06 -1.501909E+06 -3.085041E+05 -3.245931E+06  5.748790E+04 -1.089140E+04
        26  20 -8.742355E+06 -1.445003E+06 -2.611986E+05 -3.213147E+06  3.913214E+04 -1.566944E+04
        26  21 -8.673386E+06 -1.440752E+06 -2.317909E+05 -3.215523E+06  2.043120E+04 -1.952139E+04
        26  22 -7.883186E+06 -1.156671E+06 -6.617385E+04 -2.996761E+06  5.816817E+04 -1.063085E+04
        26  23 -7.895541E+06 -1.123355E+06 -3.403392E+04 -2.981804E+06  4.019842E+04 -1.526468E+04
        26  24 -7.881039E+06 -1.142594E+06 -1.946135E+04 -3.002006E+06  2.188546E+04 -1.897219E+04
        26  25 -6.981023E+06 -8.113803E+05  1.760839E+05 -2.747257E+06  5.884949E+04 -1.036990E+04
        26  26 -7.048026E+06 -8.016636E+05  1.930668E+05 -2.750171E+06  4.126629E+04 -1.485933E+04
        26  27 -7.088081E+06 -8.444013E+05  1.928121E+05 -2.788240E+06  2.334178E+04 -1.842225E+04
        27   1 -8.549353E+06 -1.404219E+06 -1.955590E+05 -3.189354E+06 -1.687087E+04  1.866551E+04
        27   2 -8.486463E+06 -1.340402E+06 -1.654964E+05 -3.133505E+06 -1.072989E+04  1.689184E+04
        27   3 -8.369389E+06 -1.333895E+06 -1.395158E+05 -3.140220E+06 -4.390418E+03  1.457404E+04
        27   4 -7.875695E+06 -1.149110E+06 -1.524837E+04 -3.006018E+06 -1.834575E+04  1.810964E+04
        27   5 -7.902672E+06 -1.119678E+06 -9.109862E+03 -2.975029E+06 -1.244127E+04  1.624852E+04
        27   6 -7.875430E+06 -1.147505E+06 -6.860486E+03 -3.006603E+06 -6.339194E+03  1.384327E+04
        27   7 -7.201589E+06 -8.939721E+05  1.650229E+05 -2.822498E+06 -1.982242E+04  1.755309E+04
        27   8 -7.318548E+06 -8.989350E+05  1.472462E+05 -2.816417E+06 -1.415443E+04  1.560454E+04
        27   9 -7.381236E+06 -9.611016E+05  1.257721E+05 -2.872889E+06 -8.289680E+03  1.311186E+04
        27  10 -8.549354E+06 -1.404219E+06 -1.955601E+05 -3.189354E+06 -3.125017E-09  8.070835E-10
        27  11 -8.486463E+06 -1.340402E+06 -1.654971E+05 -3.133505E+06 -3.690072E-09 -2.542579E-09
        27  12 -8.369389E+06 -1.333896E+06 -1.395162E+05 -3.140220E+06 -6.622415E-09  1.194289E-09
        27  13 -7.875696E+06 -1.149110E+06 -1.524962E+04 -3.006017E+06  1.739107E-10 -8.806158E-10
        27  14 -7.902672E+06 -1.119679E+06 -9.110646E+03 -2.975029E+06 -4.677926E-09 -1.682033E-09
        27  15 -7.875430E+06 -1.147505E+06 -6.860919E+03 -3.006603E+06 -7.040188E-09  9.795425E-10
        27  16 -7.201590E+06 -8.939725E+05  1.650216E+05 -2.822497E+06 -3.357144E-09 -8.287666E-10
        27  17 -7.318548E+06 -8.989353E+05  1.472454E+05 -2.816417E+06 -1.527078E-10 -2.968155E-09
        27  18 -7.381236E+06 -9.611018E+05  1.257717E+05 -2.872889E+06  1.818530E-09  2.293567E-09
        27  19 -8.549353E+06 -1.404219E+06 -1.955590E+05 -3.189354E+06  1.687087E+04 -1.866551E+04
        27  20 -8.486463E+06 -1.340402E+06 -1.654964E+05 -3.133505E+06  1.072989E+04 -1.689184E+04
        27  21 -8.369389E+06 -1.333895E+06 -1.395158E+05 -3.140220E+06  4.390418E+03 -1.457404E+04
        27  22 -7.875695E+06 -1.149110E+06 -1.524837E+04 -3.006018E+06  1.834575E+04 -1.810964E+04
        27  23 -7.902672E+06 -1.119678E+06 -9.109862E+03 -2.975029E+06  1.244127E+04 -1.624852E+04
        27  24 -7.875430E+06 -1.147505E+06 -6.860486E+03 -3.006603E+06  6.339194E+03 -1.384327E+04
        27  25 -7.201589E+06 -8.939721E+05  1.650229E+05 -2.822498E+06  1.982242E+04 -1.755309E+04
        27  26 -7.318548E+06 -8.989350E+05  1.472462E+05 -2.816417E+06  1.415443E+04 -1.560454E+04
        27  27 -7.381236E+06 -9.611016E+05  1.257721E+05 -2.872889E+06  8.289680E+03 -1.311186E+04
        28   1 -8.207242E+06 -1.276515E+06 -9.588931E+04 -3.100364E+06 -2.274587E+03  1.241097E+04
        28   2 -8.130939E+06 -1.201404E+06 -6.833025E+04 -3.032306E+06  3.544144E+03  9.387010E+03
        28   3 -7.989257E+06 -1.194860E+06 -4.437459E+04 -3.040389E+06  9.431512E+03  6.173873E+03
        28   4 -7.872932E+06 -1.150162E+06 -6.716989E+03 -3.009549E+06 -4.260052E+03  1.166731E+04
        28   5 -7.905697E+06 -1.116387E+06 -8.031404E+03 -2.971291E+06  1.476111E+03  8.613061E+03
        28   6 -7.873078E+06 -1.151160E+06 -1.288138E+04 -3.009179E+06  7.280097E+03  5.369405E+03
        28   7 -7.538510E+06 -1.023802E+06  8.244583E+04 -2.918688E+06 -6.246711E+03  1.092321E+04
        28   8 -7.680404E+06 -1.031365E+06  5.226334E+04 -2.910256E+06 -5.927697E+02  7.838794E+03
        28   9 -7.756885E+06 -1.107459E+06  1.861091E+04 -2.977962E+06  5.128214E+03  4.564765E+03
        28  10 -8.207243E+06 -1.276515E+06 -9.588961E+04 -3.100364E+06 -1.571056E-09  1.603932E-09
        28  11 -8.130940E+06 -1.201404E+06 -6.833044E+04 -3.032306E+06 -4.486651E-10 -1.336241E-09
        28  12 -7.989257E+06 -1.194860E+06 -4.437483E+04 -3.040389E+06 -6.869559E-09  5.576577E-10
        28  13 -7.872932E+06 -1.150163E+06 -6.717277E+03 -3.009549E+06 -2.043116E-10  1.568171E-09
        28  14 -7.905697E+06 -1.116387E+06 -8.031548E+03 -2.971291E+06 -7.854811E-09 -1.584726E-09
        28  15 -7.873078E+06 -1.151160E+06 -1.288153E+04 -3.009179E+06 -2.700095E-09 -1.362790E-09
        28  16 -7.538510E+06 -1.023802E+06  8.244553E+04 -2.918688E+06 -5.852886E-09  9.601434E-10
        28  17 -7.680404E+06 -1.031366E+06  5.226323E+04 -2.910256E+06 -3.831479E-09  9.755483E-10
        28  18 -7.756885E+06 -1.107459E+06  1.861082E+04 -2.977962E+06  2.016074E-09  4.392286E-10
        28  19 -8.207242E+06 -1.276515E+06 -9.588931E+04 -3.100364E+06  2.274587E+03 -1.241097E+04
        28  20 -8.130939E+06 -1.201404E+06 -6.833025E+04 -3.032306E+06 -3.544144E+03 -9.387010E+03
        28  21 -7.989257E+06 -1.194860E+06 -4.437459E+04 -3.040389E+06 -9.431512E+03 -6.173873E+03
        28  22 -7.872932E+06 -1.150162E+06 -6.716989E+03 -3.009549E+06  4.260052E+03 -1.166731E+04
        28  23 -7.905697E+06 -1.116387E+06 -8.031404E+03 -2.971291E+06 -1.476111E+03 -8.613061E+03
        28  24 -7.873078E+06 -1.151160E+06 -1.288138E+04 -3.009179E+06 -7.280097E+03 -5.369405E+03
        28  25 -7.538510E+06 -1.023802E+06  8.244583E+04 -2.918688E+06  6.246711E+03 -1.092321E+04
        28  26 -7.680404E+06 -1.031365E+06  5.226334E+04 -2.910256E+06  5.927697E+02 -7.838794E+03
        28  27 -7.756885E+06 -1.107459E+06  1.861091E+04 -2.977962E+06 -5.128214E+03 -4.564765E+03
        29   1 -7.813408E+06 -1.128551E+06 -7.217104E+01 -2.995721E+06  1.292487E+04  4.212984E+03
        29   2 -7.735179E+06 -1.050035E+06  1.727059E+04 -2.924881E+06  2.887946E+04  4.723496E+03
        29   3 -7.597011E+06 -1.053854E+06  1.993186E+04 -2.928108E+06  4.472779E+04  5.531138E+03
        29   4 -7.873662E+06 -1.149780E+06 -1.632609E+04 -3.010378E+06  1.072937E+04  3.392143E+03
        29   5 -7.904476E+06 -1.114371E+06 -2.812375E+04 -2.971206E+06  2.681133E+04  3.949705E+03
        29   6 -7.875392E+06 -1.161329E+06 -5.470843E+04 -3.006106E+06  4.278430E+04  4.803347E+03
        29   7 -7.933912E+06 -1.171008E+06 -3.258019E+04 -3.025034E+06  8.534126E+03  2.571383E+03
        29   8 -8.073745E+06 -1.178705E+06 -7.352040E+04 -3.017519E+06  2.474383E+04  3.176154E+03
        29   9 -8.153696E+06 -1.268797E+06 -1.293555E+05 -3.084072E+06  4.084178E+04  4.075938E+03
        29  10 -7.813409E+06 -1.128551E+06 -7.252335E+01 -2.995721E+06 -1.809410E-09  3.002236E-09
        29  11 -7.735180E+06 -1.050035E+06  1.726896E+04 -2.924881E+06  3.097515E-09  2.620235E-09
        29  12 -7.597013E+06 -1.053855E+06  1.992799E+04 -2.928108E+06 -2.311830E-09 -2.932385E-10
        29  13 -7.873662E+06 -1.149780E+06 -1.632633E+04 -3.010378E+06 -4.619150E-09 -8.715427E-10
        29  14 -7.904477E+06 -1.114371E+06 -2.812515E+04 -2.971206E+06 -4.906856E-10  5.830162E-10
        29  15 -7.875394E+06 -1.161329E+06 -5.471196E+04 -3.006106E+06 -1.764348E-09 -5.299123E-10
        29  16 -7.933912E+06 -1.171008E+06 -3.258034E+04 -3.025034E+06  1.076363E-10 -2.335433E-10
        29  17 -8.073746E+06 -1.178705E+06 -7.352159E+04 -3.017519E+06  2.580748E-09 -1.484426E-09
        29  18 -8.153698E+06 -1.268798E+06 -1.293587E+05 -3.084072E+06  4.165209E-09  9.457556E-10
        29  19 -7.813408E+06 -1.128551E+06 -7.217104E+01 -2.995721E+06 -1.292487E+04 -4.212984E+03
        29  20 -7.735179E+06 -1.050035E+06  1.727059E+04 -2.924881E+06 -2.887946E+04 -4.723496E+03
        29  21 -7.597011E+06 -1.053854E+06  1.993186E+04 -2.928108E+06 -4.472779E+04 -5.531138E+03
        29  22 -7.873662E+06 -1.149780E+06 -1.632609E+04 -3.010378E+06 -1.072937E+04 -3.392143E+03
        29  23 -7.904476E+06 -1.114371E+06 -2.812375E+04 -2.971206E+06 -2.681133E+04 -3.949705E+03
        29  24 -7.875392E+06 -1.161329E+06 -5.470843E+04 -3.006106E+06 -4.278430E+04 -4.803347E+03
        29  25 -7.933912E+06 -1.171008E+06 -3.258019E+04 -3.025034E+06 -8.534126E+03 -2.571383E+03
        29  26 -8.073745E+06 -1.178705E+06 -7.352040E+04 -3.017519E+06 -2.474383E+04 -3.176154E+03
        29  27 -8.153696E+06 -1.268797E+06 -1.293555E+05 -3.084072E+06 -4.084178E+04 -4.075938E+03
        30   1 -7.429934E+06 -9.863355E+05  4.923993E+04 -2.902794E+06  5.626670E+04  6.550629E+03
        30   2 -7.358188E+06 -8.939307E+05  2.295937E+04 -2.824923E+06  1.198076E+05  2.555632E+04
        30   3 -7.285786E+06 -9.891837E+05 -8.528527E+04 -2.780486E+06  1.825229E+05  4.680441E+04
        30   4 -7.882878E+06 -1.144415E+06 -6.985476E+04 -3.012185E+06  5.387128E+04  5.654473E+03
        30   5 -7.890621E+06 -1.101785E+06 -1.208268E+05 -2.976344E+06  1.183525E+05  2.500802E+04
        30   6 -7.897960E+06 -1.247086E+06 -2.545770E+05 -2.973939E+06  1.819989E+05  4.659660E+04
        30   7 -8.335623E+06 -1.302489E+06 -1.889671E+05 -3.121506E+06  5.147778E+04  4.758911E+03
        30   8 -8.422778E+06 -1.309617E+06 -2.646387E+05 -3.127644E+06  1.168987E+05  2.446026E+04
        30   9 -8.509764E+06 -1.504940E+06 -4.239037E+05 -3.167209E+06  1.814754E+05  4.638902E+04
        30  10 -7.429938E+06 -9.863364E+05  4.923383E+04 -2.902795E+06 -2.577090E-09 -1.096345E-09
        30  11 -7.358204E+06 -8.939353E+05  2.293079E+04 -2.824926E+06 -1.600809E-09 -2.853543E-10
        30  12 -7.285823E+06 -9.891952E+05 -8.535288E+04 -2.780493E+06 -4.908418E-09  1.042014E-10
        30  13 -7.882881E+06 -1.144415E+06 -6.986035E+04 -3.012185E+06  2.986958E-11 -2.693527E-10
        30  14 -7.890637E+06 -1.101789E+06 -1.208547E+05 -2.976346E+06 -4.013969E-09  1.547967E-10
        30  15 -7.897996E+06 -1.247098E+06 -2.546443E+05 -2.973946E+06  1.997267E-09  2.670433E-10
        30  16 -8.335626E+06 -1.302490E+06 -1.889722E+05 -3.121506E+06  2.167325E-09 -5.998035E-10
        30  17 -8.422793E+06 -1.309621E+06 -2.646659E+05 -3.127646E+06  4.171051E-10 -7.116879E-11
        30  18 -8.509800E+06 -1.504952E+06 -4.239706E+05 -3.167216E+06 -1.977704E-09  1.364312E-10
        30  19 -7.429934E+06 -9.863355E+05  4.923993E+04 -2.902794E+06 -5.626670E+04 -6.550629E+03
        30  20 -7.358188E+06 -8.939307E+05  2.295937E+04 -2.824923E+06 -1.198076E+05 -2.555632E+04
        30  21 -7.285786E+06 -9.891837E+05 -8.528527E+04 -2.780486E+06 -1.825229E+05 -4.680441E+04
        30  22 -7.882878E+06 -1.144415E+06 -6.985476E+04 -3.012185E+06 -5.387128E+04 -5.654473E+03
        30  23 -7.890621E+06 -1.101785E+06 -1.208268E+05 -2.976344E+06 -1.183525E+05 -2.500802E+04
        30  24 -7.897960E+06 -1.247086E+06 -2.545770E+05 -2.973939E+06 -1.819989E+05 -4.659660E+04
        30  25 -8.335623E+06 -1.302489E+06 -1.889671E+05 -3.121506E+06 -5.147778E+04 -4.758911E+03
        30  26 -8.422778E+06 -1.309617E+06 -2.646387E+05 -3.127644E+06 -1.168987E+05 -2.446026E+04
        30  27 -8.509764E+06 -1.504940E+06 -4.239037E+05 -3.167209E+06 -1.814754E+05 -4.638902E+04
        31   1 -7.106010E+06 -9.048575E+05 -1.099391E+05 -2.929158E+06  2.342540E+05  6.059809E+04
        31   2 -7.028078E+06 -6.130028E+05 -2.951297E+05 -2.719384E+06  5.071336E+05  1.602455E+05
        31   3 -7.376446E+06 -1.495111E+06 -9.955936E+05 -2.256912E+06  7.720548E+05  2.811650E+05
        31   4 -7.942099E+06 -1.111295E+06 -3.124128E+05 -3.043747E+06  2.281625E+05  5.835799E+04
        31   5 -7.793715E+06 -9.741045E+05 -5.136137E+05 -3.000990E+06  5.101036E+05  1.612878E+05
        31   6 -8.074143E+06 -2.013742E+06 -1.237868E+06 -2.705344E+06  7.841122E+05  2.853129E+05
        31   7 -8.777484E+06 -1.317754E+06 -5.149284E+05 -3.158238E+06  2.220799E+05  5.611858E+04
        31   8 -8.558759E+06 -1.335067E+06 -7.321534E+05 -3.282244E+06  5.130691E+05  1.623276E+05
        31   9 -8.771196E+06 -2.531761E+06 -1.480173E+06 -3.153176E+06  7.961544E+05  2.894421E+05
        31  10 -7.106070E+06 -9.048764E+05 -1.100506E+05 -2.929169E+06  1.584270E-09  1.615220E-10
        31  11 -7.028364E+06 -6.131008E+05 -2.956683E+05 -2.719450E+06 -1.663731E-09  1.429997E-10
        31  12 -7.377114E+06 -1.495359E+06 -9.968790E+05 -2.257089E+06  7.083096E-10  4.141043E-10
        31  13 -7.942157E+06 -1.111313E+06 -3.125185E+05 -3.043758E+06 -1.108782E-09 -1.740839E-10
        31  14 -7.794004E+06 -9.742040E+05 -5.141595E+05 -3.001057E+06  7.545959E-10 -1.090226E-10
        31  15 -8.074833E+06 -2.013999E+06 -1.239196E+06 -2.705526E+06  4.596418E-09 -7.400876E-11
        31  16 -8.777538E+06 -1.317771E+06 -5.150286E+05 -3.158248E+06  3.205875E-09 -5.020142E-11
        31  17 -8.559053E+06 -1.335168E+06 -7.327064E+05 -3.282311E+06 -6.471985E-10 -6.941033E-11
        31  18 -8.771909E+06 -2.532026E+06 -1.481543E+06 -3.153364E+06 -1.273514E-09 -1.332136E-10
        31  19 -7.106010E+06 -9.048575E+05 -1.099391E+05 -2.929158E+06 -2.342540E+05 -6.059809E+04
        31  20 -7.028078E+06 -6.130028E+05 -2.951297E+05 -2.719384E+06 -5.071336E+05 -1.602455E+05
        31  21 -7.376446E+06 -1.495111E+06 -9.955936E+05 -2.256912E+06 -7.720548E+05 -2.811650E+05
        31  22 -7.942099E+06 -1.111295E+06 -3.124128E+05 -3.043747E+06 -2.281625E+05 -5.835799E+04
        31  23 -7.793715E+06 -9.741045E+05 -5.136137E+05 -3.000990E+06 -5.101036E+05 -1.612878E+05
        31  24 -8.074143E+06 -2.013742E+06 -1.237868E+06 -2.705344E+06 -7.841122E+05 -2.853129E+05
        31  25 -8.777484E+06 -1.317754E+06 -5.149284E+05 -3.158238E+06 -2.220799E+05 -5.611858E+04
        31  26 -8.558759E+06 -1.335067E+06 -7.321534E+05 -3.282244E+06 -5.130691E+05 -1.623276E+05
        31  27 -8.771196E+06 -2.531761E+06 -1.480173E+06 -3.153176E+06 -7.961544E+05 -2.894421E+05
        32   1  3.276443E+05  9.592373E+04  3.645697E+05 -2.223892E+05  2.851916E+02  2.255579E+05
        32   2  7.380790E+04  2.867444E+04  1.891009E+05 -1.149840E+05  1.818939E+03  1.303077E+05
        32   3  1.056836E+04  2.144732E+04  1.233081E+05 -1.623408E+04  7.853874E+02  3.505572E+04
        32   4  3.030104E+05  9.741602E+02  3.415089E+05 -3.546488E+04  3.619264E+02  2.215115E+05
        32   5  5.943850E+04 -2.868220E+04  1.768629E+05 -3.146853E+04  1.836500E+03  1.302906E+05
        32   6  5.736450E+03  9.721917E+02  1.191005E+05 -3.611298E+04  7.753860E+02  3.906201E+04
        32   7  2.785071E+05 -9.389222E+04  3.184662E+05  1.514307E+05  4.362344E+02  2.174658E+05
        32   8  4.509507E+04 -8.602079E+04  1.646284E+05  5.203909E+04  1.854057E+03  1.302735E+05
        32   9  9.060110E+02 -1.950165E+04  1.148932E+05 -5.599121E+04  7.651279E+02  4.306817E+04
        32  10  3.276307E+05  9.586912E+04  3.644741E+05 -2.223893E+05 -5.884116E-10 -1.841121E-09
        32  11  7.380334E+04  2.865621E+04  1.890690E+05 -1.149842E+05 -3.562764E-09 -2.272909E-09
        32  12  1.056803E+04  2.144600E+04  1.233058E+05 -1.623410E+04 -4.780400E-10 -1.541545E-09
        32  13  3.029973E+05  9.214834E+02  3.414167E+05 -3.546494E+04 -2.913997E-09 -8.880007E-11
        32  14  5.943394E+04 -2.870043E+04  1.768310E+05 -3.146873E+04 -3.312847E-09 -4.978301E-11
        32  15  5.736040E+03  9.705532E+02  1.190977E+05 -3.611300E+04 -6.027718E-09 -4.321266E-10
        32  16  2.784944E+05 -9.394300E+04  3.183773E+05  1.514306E+05 -2.769655E-09  1.809650E-09
        32  17  4.509051E+04 -8.603901E+04  1.645965E+05  5.203890E+04 -5.521157E-09  5.974033E-10
        32  18  9.055124E+02 -1.950364E+04  1.148898E+05 -5.599123E+04 -4.773168E-09  2.130404E-09
        32  19  3.276443E+05  9.592373E+04  3.645697E+05 -2.223892E+05 -2.851916E+02 -2.255579E+05
        32  20  7.380790E+04  2.867444E+04  1.891009E+05 -1.149840E+05 -1.818939E+03 -1.303077E+05
        32  21  1.056836E+04  2.144732E+04  1.233081E+05 -1.623408E+04 -7.853874E+02 -3.505572E+04
        32  22  3.030104E+05  9.741602E+02  3.415089E+05 -3.546488E+04 -3.619264E+02 -2.215115E+05
        32  23  5.943850E+04 -2.868220E+04  1.768629E+05 -3.146853E+04 -1.836500E+03 -1.302906E+05
        32  24  5.736450E+03  9.721917E+02  1.191005E+05 -3.611298E+04 -7.753860E+02 -3.906201E+04
        32  25  2.785071E+05 -9.389222E+04  3.184662E+05  1.514307E+05 -4.362344E+02 -2.174658E+05
        32  26  4.509507E+04 -8.602079E+04  1.646284E+05  5.203909E+04 -1.854057E+03 -1.302735E+05
        32  27  9.060110E+02 -1.950165E+04  1.148932E+05 -5.599121E+04 -7.651279E+02 -4.306817E+04
        33   1  1.124651E+04 -1.381799E+04  1.078992E+05 -4.537623E+04 -7.077774E+02  1.758917E+04
        33   2 -5.242870E+03 -5.827732E+04  1.016624E+05 -3.050781E+04 -2.842021E+03 -3.663543E+04
        33   3  5.028735E+03 -8.902591E+04  1.374220E+05 -2.466752E+04 -4.813802E+03 -9.085777E+04
        33   4  1.222338E+04 -9.153940E+03  1.083660E+05 -3.610656E+04 -7.157208E+02  2.129054E+04
        33   5  4.722497E+03 -1.602922E+04  1.092108E+05 -3.157979E+04 -2.849528E+03 -3.319679E+04
        33   6  2.402660E+04 -9.151363E+03  1.522326E+05 -3.608034E+04 -4.819079E+03 -8.768496E+04
        33   7  1.320059E+04 -4.489658E+03  1.088328E+05 -2.683680E+04 -7.235537E+02  2.499193E+04
        33   8  1.468778E+04  2.622065E+04  1.167592E+05 -3.265185E+04 -2.857046E+03 -2.975791E+04
        33   9  4.302459E+04  7.072966E+04  1.670431E+05 -4.749467E+04 -4.824473E+03 -8.451175E+04
        33  10  1.124642E+04 -1.381832E+04  1.078987E+05 -4.537622E+04 -7.678913E-10 -4.543138E-08
        33  11 -5.243239E+03 -5.827876E+04  1.016598E+05 -3.050790E+04  1.755233E-09  1.098782E-09
        33  12  5.026494E+03 -8.903478E+04  1.374065E+05 -2.466787E+04  2.110606E-09  4.942199E-08
        33  13  1.222326E+04 -9.154427E+03  1.083651E+05 -3.610654E+04 -3.513347E-09 -4.381287E-11
        33  14  4.722193E+03 -1.603040E+04  1.092087E+05 -3.157987E+04  2.070101E-09  9.050826E-12
        33  15  2.402451E+04 -9.159624E+03  1.522182E+05 -3.608068E+04 -3.442363E-10 -4.992001E-10
        33  16  1.320042E+04 -4.490329E+03  1.088317E+05 -2.683679E+04 -1.107510E-09  4.529765E-08
        33  17  1.468753E+04  2.621970E+04  1.167575E+05 -3.265192E+04 -1.904524E-09 -2.845428E-09
        33  18  4.302265E+04  7.072199E+04  1.670296E+05 -4.749500E+04 -5.292500E-10 -4.877322E-08
        33  19  1.124651E+04 -1.381799E+04  1.078992E+05 -4.537623E+04  7.077774E+02 -1.758917E+04
        33  20 -5.242870E+03 -5.827732E+04  1.016624E+05 -3.050781E+04  2.842021E+03  3.663543E+04
        33  21  5.028735E+03 -8.902591E+04  1.374220E+05 -2.466752E+04  4.813802E+03  9.085777E+04
        33  22  1.222338E+04 -9.153940E+03  1.083660E+05 -3.610656E+04  7.157208E+02 -2.129054E+04
        33  23  4.722497E+03 -1.602922E+04  1.092108E+05 -3.157979E+04  2.849528E+03  3.319679E+04
        33  24  2.402660E+04 -9.151363E+03  1.522326E+05 -3.608034E+04  4.819079E+03  8.768496E+04
        33  25  1.320059E+04 -4.489658E+03  1.088328E+05 -2.683680E+04  7.235537E+02 -2.499193E+04
        33  26  1.468778E+04  2.622065E+04  1.167592E+05 -3.265185E+04  2.857046E+03  2.975791E+04
        33  27  4.302459E+04  7.072966E+04  1.670431E+05 -4.749467E+04  4.824473E+03  8.451175E+04
        34   1 -1.426711E+04 -9.250093E+04  1.679582E+05 -7.655763E+04 -6.212897E+03 -1.171144E+05
        34   2  7.918017E+04 -1.846760E+05  2.908955E+05  1.260882E+05 -6.066123E+03 -2.750604E+05
        34   3  5.335201E+05 -1.659991E+05  6.069903E+05  3.204837E+05 -1.472346E+03 -4.329830E+05
        34   4  1.047163E+04  1.268642E+04  1.875293E+05 -3.609831E+04 -6.228737E+03 -1.133400E+05
        34   5  1.139731E+05 -4.330320E+04  3.196106E+05 -3.135290E+04 -5.988866E+03 -2.785189E+05
        34   6  5.794276E+05  1.269560E+04  6.498244E+05 -3.487638E+04 -1.201734E+03 -4.436856E+05
        34   7  3.521593E+04  1.178881E+05  2.071009E+05  4.368042E+03 -6.244083E+03 -1.095649E+05
        34   8  1.488579E+05  9.814177E+04  3.483381E+05 -1.888306E+05 -5.909868E+03 -2.819782E+05
        34   9  6.258073E+05  1.916908E+05  6.927245E+05 -3.903398E+05 -9.189324E+02 -4.543914E+05
        34  10 -1.427083E+04 -9.251567E+04  1.679323E+05 -7.655822E+04  4.948055E-09  5.359140E-09
        34  11  7.915981E+04 -1.847572E+05  2.907532E+05  1.260868E+05 -7.703162E-10  1.698453E-09
        34  12  5.334697E+05 -1.662004E+05  6.066379E+05  3.204832E+05  2.536629E-09  3.013925E-11
        34  13  1.046814E+04  1.267262E+04  1.875051E+05 -3.609888E+04 -3.556270E-10 -7.077619E-11
        34  14  1.139523E+05 -4.338648E+04  3.194648E+05 -3.135425E+04 -1.113298E-09  2.247750E-11
        34  15  5.793748E+05  1.248431E+04  6.494545E+05 -3.487681E+04  1.906750E-09 -4.533005E-10
        34  16  3.521266E+04  1.178752E+05  2.070782E+05  4.367491E+03 -3.165666E-09 -5.377874E-09
        34  17  1.488365E+05  9.805641E+04  3.481886E+05 -1.888320E+05 -2.646399E-09 -3.405688E-09
        34  18  6.257519E+05  1.914692E+05  6.923366E+05 -3.903402E+05 -7.105245E-10  5.550913E-10
        34  19 -1.426711E+04 -9.250093E+04  1.679582E+05 -7.655763E+04  6.212897E+03  1.171144E+05
        34  20  7.918017E+04 -1.846760E+05  2.908955E+05  1.260882E+05  6.066123E+03  2.750604E+05
        34  21  5.335201E+05 -1.659991E+05  6.069903E+05  3.204837E+05  1.472346E+03  4.329830E+05
        34  22  1.047163E+04  1.268642E+04  1.875293E+05 -3.609831E+04  6.228737E+03  1.133400E+05
        34  23  1.139731E+05 -4.330320E+04  3.196106E+05 -3.135290E+04  5.988866E+03  2.785189E+05
        34  24  5.794276E+05  1.269560E+04  6.498244E+05 -3.487638E+04  1.201734E+03  4.436856E+05
        34  25  3.521593E+04  1.178881E+05  2.071009E+05  4.368042E+03  6.244083E+03  1.095649E+05
        34  26  1.488579E+05  9.814177E+04  3.483381E+05 -1.888306E+05  5.909868E+03  2.819782E+05
        34  27  6.258073E+05  1.916908E+05  6.927245E+05 -3.903398E+05  9.189324E+02  4.543914E+05
        35   1 -4.719835E+06 -1.409535E+06 -8.272989E+05 -1.671174E+06 -3.604105E+05 -1.235961E+05
        35   2 -4.594746E+06 -8.540264E+05 -4.835361E+05 -1.697831E+06 -2.348133E+05 -5.201043E+04
        35   3 -4.628767E+06 -8.422248E+05 -3.761398E+05 -1.646630E+06 -9.995812E+04 -4.943523E+03
        35   4 -3.751270E+06 -9.313449E+05 -5.400791E+05 -1.293805E+06 -3.458331E+05 -1.181807E+05
        35   5 -3.644599E+06 -4.640957E+05 -2.245533E+05 -1.406639E+06 -2.310118E+05 -5.059833E+04
        35   6 -3.694591E+06 -5.379555E+05 -1.365241E+05 -1.441700E+06 -1.069457E+05 -7.561525E+03
        35   7 -2.781768E+06 -4.528912E+05 -2.529537E+05 -9.158381E+05 -3.312302E+05 -1.127490E+05
        35   8 -2.693573E+06 -7.406556E+04  3.434609E+04 -1.115025E+06 -2.272037E+05 -4.918322E+04
        35   9 -2.759566E+06 -2.336839E+05  1.030224E+05 -1.236514E+06 -1.139448E+05 -1.018250E+04
        35  10 -4.719979E+06 -1.409587E+06 -8.275740E+05 -1.671210E+06  3.275456E-10  3.727291E-10
        35  11 -4.594807E+06 -8.540443E+05 -4.836457E+05 -1.697841E+06  4.135650E-09  1.136994E-10
        35  12 -4.628778E+06 -8.422275E+05 -3.761588E+05 -1.646631E+06  6.918102E-10 -6.458744E-11
        35  13 -3.751402E+06 -9.313923E+05 -5.403318E+05 -1.293838E+06 -3.149294E-10 -1.256042E-10
        35  14 -3.644657E+06 -4.641129E+05 -2.246591E+05 -1.406648E+06  2.673100E-09  2.919164E-10
        35  15 -3.694603E+06 -5.379586E+05 -1.365458E+05 -1.441701E+06 -7.776087E-11 -3.752254E-11
        35  16 -2.781890E+06 -4.529345E+05 -2.531849E+05 -9.158683E+05 -5.470168E-09  9.045521E-11
        35  17 -2.693629E+06 -7.408212E+04  3.424403E+04 -1.115034E+06  2.966003E-09  4.932636E-10
        35  18 -2.759580E+06 -2.336875E+05  1.029977E+05 -1.236514E+06 -2.288011E-09  1.156524E-10
        35  19 -4.719835E+06 -1.409535E+06 -8.272989E+05 -1.671174E+06  3.604105E+05  1.235961E+05
        35  20 -4.594746E+06 -8.540264E+05 -4.835361E+05 -1.697831E+06  2.348133E+05  5.201043E+04
        35  21 -4.628767E+06 -8.422248E+05 -3.761398E+05 -1.646630E+06  9.995812E+04  4.943523E+03
        35  22 -3.751270E+06 -9.313449E+05 -5.400791E+05 -1.293805E+06  3.458331E+05  1.181807E+05
        35  23 -3.644599E+06 -4.640957E+05 -2.245533E+05 -1.406639E+06  2.310118E+05  5.059833E+04
        35  24 -3.694591E+06 -5.379555E+05 -1.365241E+05 -1.441700E+06  1.069457E+05  7.561525E+03
        35  25 -2.781768E+06 -4.528912E+05 -2.529537E+05 -9.158381E+05  3.312302E+05  1.127490E+05
        35  26 -2.693573E+06 -7.406556E+04  3.434609E+04 -1.115025E+06  2.272037E+05  4.918322E+04
        35  27 -2.759566E+06 -2.336839E+05  1.030224E+05 -1.236514E+06  1.139448E+05  1.018250E+04
        36   1 -4.434139E+06 -8.955686E+05 -3.162797E+05 -1.630344E+06 -8.506476E+04 -5.710501E+03
        36   2 -4.360595E+06 -7.751085E+05 -2.328239E+05 -1.580932E+06 -5.579676E+04  3.280043E+03
        36   3 -4.255140E+06 -7.679927E+05 -1.861658E+05 -1.581969E+06 -2.564882E+04  9.921276E+03
        36   4 -3.674695E+06 -5.977730E+05 -1.112917E+05 -1.411953E+06 -8.538429E+04 -5.834508E+03
        36   5 -3.687536E+06 -5.187900E+05 -5.296660E+04 -1.395104E+06 -5.713241E+04  2.777670E+03
        36   6 -3.668245E+06 -5.529052E+05 -3.059335E+04 -1.428707E+06 -2.800549E+04  9.039121E+03
        36   7 -2.914689E+06 -2.999294E+05  9.364524E+04 -1.193314E+06 -8.570420E+04 -5.958668E+03
        36   8 -3.014037E+06 -2.624415E+05  1.268511E+05 -1.209091E+06 -5.846964E+04  2.274693E+03
        36   9 -3.081017E+06 -3.378019E+05  1.249493E+05 -1.275316E+06 -3.036462E+04  8.156105E+03
        36  10 -4.434146E+06 -8.955706E+05 -3.162935E+05 -1.630344E+06  3.090979E-09  1.925303E-10
        36  11 -4.360598E+06 -7.751093E+05 -2.328298E+05 -1.580932E+06  5.302247E-09  2.362435E-09
        36  12 -4.255140E+06 -7.679929E+05 -1.861672E+05 -1.581969E+06  9.085988E-10  5.517949E-10
        36  13 -3.674703E+06 -5.977750E+05 -1.113055E+05 -1.411953E+06  4.308849E-10  5.298424E-10
        36  14 -3.687540E+06 -5.187909E+05 -5.297278E+04 -1.395104E+06  1.652057E-09  8.054024E-10
        36  15 -3.668246E+06 -5.529055E+05 -3.059498E+04 -1.428707E+06  4.013309E-09  1.479141E-09
        36  16 -2.914697E+06 -2.999314E+05  9.363130E+04 -1.193314E+06 -3.784966E-10  2.577399E-10
        36  17 -3.014040E+06 -2.624425E+05  1.268446E+05 -1.209091E+06 -1.154937E-09  7.690306E-10
        36  18 -3.081018E+06 -3.378022E+05  1.249475E+05 -1.275316E+06  2.810960E-09  1.865074E-09
        36  19 -4.434139E+06 -8.955686E+05 -3.162797E+05 -1.630344E+06  8.506476E+04  5.710501E+03
        36  20 -4.360595E+06 -7.751085E+05 -2.328239E+05 -1.580932E+06  5.579676E+04 -3.280043E+03
        36  21 -4.255140E+06 -7.679927E+05 -1.861658E+05 -1.581969E+06  2.564882E+04 -9.921276E+03
        36  22 -3.674695E+06 -5.977730E+05 -1.112917E+05 -1.411953E+06  8.538429E+04  5.834508E+03
        36  23 -3.687536E+06 -5.187900E+05 -5.296660E+04 -1.395104E+06  5.713241E+04 -2.777670E+03
        36  24 -3.668245E+06 -5.529052E+05 -3.059335E+04 -1.428707E+06  2.800549E+04 -9.039121E+03
        36  25 -2.914689E+06 -2.999294E+05  9.364524E+04 -1.193314E+06  8.570420E+04  5.958668E+03
        36  26 -3.014037E+06 -2.624415E+05  1.268511E+05 -1.209091E+06  5.846964E+04 -2.274693E+03
        36  27 -3.081017E+06 -3.378019E+05  1.249493E+05 -1.275316E+06  3.036462E+04 -8.156105E+03
        37   1 -4.092654E+06 -7.227498E+05 -1.378805E+05 -1.543807E+06 -2.076243E+04  8.580336E+03
        37   2 -4.019215E+06 -6.459293E+05 -9.897734E+04 -1.480433E+06 -1.277223E+04  6.809255E+03
        37   3 -3.886059E+06 -6.384943E+05 -6.661802E+04 -1.487943E+06 -4.667930E+03  4.725089E+03
        37   4 -3.664555E+06 -5.608064E+05 -2.398878E+04 -1.426637E+06 -2.256568E+04  7.905793E+03
        37   5 -3.694048E+06 -5.235624E+05 -1.237036E+04 -1.392146E+06 -1.471100E+04  6.084957E+03
        37   6 -3.663807E+06 -5.556729E+05 -7.183160E+03 -1.428541E+06 -6.743415E+03  3.950699E+03
        37   7 -3.236279E+06 -3.988520E+05  8.988663E+04 -1.309395E+06 -2.437030E+04  7.230732E+03
        37   8 -3.368778E+06 -4.011892E+05  7.422740E+04 -1.303817E+06 -1.665090E+04  5.360239E+03
        37   9 -3.441506E+06 -4.728486E+05  5.224753E+04 -1.369119E+06 -8.819727E+03  3.176006E+03
        37  10 -4.092654E+06 -7.227500E+05 -1.378814E+05 -1.543807E+06  1.491896E-09  2.736989E-10
        37  11 -4.019215E+06 -6.459294E+05 -9.897773E+04 -1.480433E+06  1.686951E-09  3.617870E-10
        37  12 -3.886059E+06 -6.384944E+05 -6.661810E+04 -1.487943E+06  5.062063E-10  2.523454E-09
        37  13 -3.664555E+06 -5.608066E+05 -2.398985E+04 -1.426637E+06  2.488297E-09  1.539638E-09
        37  14 -3.694048E+06 -5.235625E+05 -1.237083E+04 -1.392146E+06  2.245624E-09  1.304426E-09
        37  15 -3.663807E+06 -5.556729E+05 -7.183275E+03 -1.428541E+06 -3.366039E-09  5.044845E-10
        37  16 -3.236279E+06 -3.988522E+05  8.988541E+04 -1.309394E+06 -3.300690E-09 -1.290525E-10
        37  17 -3.368778E+06 -4.011893E+05  7.422682E+04 -1.303817E+06 -2.940655E-09 -6.402992E-10
        37  18 -3.441506E+06 -4.728486E+05  5.224737E+04 -1.369119E+06 -1.940574E-09  1.427135E-09
        37  19 -4.092654E+06 -7.227498E+05 -1.378805E+05 -1.543807E+06  2.076243E+04 -8.580336E+03
        37  20 -4.019215E+06 -6.459293E+05 -9.897734E+04 -1.480433E+06  1.277223E+04 -6.809255E+03
        37  21 -3.886059E+06 -6.384943E+05 -6.661802E+04 -1.487943E+06  4.667930E+03 -4.725089E+03
        37  22 -3.664555E+06 -5.608064E+05 -2.398878E+04 -1.426637E+06  2.256568E+04 -7.905793E+03
        37  23 -3.694048E+06 -5.235624E+05 -1.237036E+04 -1.392146E+06  1.471100E+04 -6.084957E+03
        37  24 -3.663807E+06 -5.556729E+05 -7.183160E+03 -1.428541E+06  6.743415E+03 -3.950699E+03
        37  25 -3.236279E+06 -3.988520E+05  8.988663E+04 -1.309395E+06  2.437030E+04 -7.230732E+03
        37  26 -3.368778E+06 -4.011892E+05  7.422740E+04 -1.303817E+06  1.665090E+04 -5.360239E+03
        37  27 -3.441506E+06 -4.728486E+05  5.224753E+04 -1.369119E+06  8.819727E+03 -3.176006E+03
        38   1 -3.719947E+06 -5.781323E+05 -2.043306E+04 -1.444079E+06 -2.657753E+03  2.415224E+03
        38   2 -3.645367E+06 -5.051314E+05  9.656007E+03 -1.378026E+06  8.321869E+02 -1.455526E+03
        38   3 -3.506762E+06 -4.976195E+05  3.816092E+04 -1.386310E+06  4.320655E+03 -5.319777E+03
        38   4 -3.663116E+06 -5.567708E+05 -5.692205E+03 -1.428573E+06 -4.689551E+03  1.657410E+03
        38   5 -3.695091E+06 -5.238002E+05 -3.577464E+03 -1.391486E+06 -1.196810E+03 -2.212456E+03
        38   6 -3.663053E+06 -5.563199E+05 -3.047916E+03 -1.428741E+06  2.294088E+03 -6.075895E+03
        38   7 -3.606281E+06 -5.354090E+05  9.048421E+03 -1.413065E+06 -6.721557E+03  8.995185E+02
        38   8 -3.744813E+06 -5.424688E+05 -1.681107E+04 -1.404945E+06 -3.225620E+03 -2.969316E+03
        38   9 -3.819318E+06 -6.150183E+05 -4.425840E+04 -1.471161E+06  2.681039E+02 -6.831796E+03
        38  10 -3.719947E+06 -5.781323E+05 -2.043308E+04 -1.444079E+06  2.346461E-09  2.152279E-09
        38  11 -3.645367E+06 -5.051314E+05  9.656002E+03 -1.378026E+06  9.986866E-10 -1.113414E-10
        38  12 -3.506762E+06 -4.976195E+05  3.816084E+04 -1.386310E+06 -7.241872E-10 -1.412589E-09
        38  13 -3.663116E+06 -5.567708E+05 -5.692252E+03 -1.428573E+06 -3.206584E-09 -6.364076E-10
        38  14 -3.695091E+06 -5.238002E+05 -3.577476E+03 -1.391486E+06  7.640559E-10  4.795870E-10
        38  15 -3.663053E+06 -5.563200E+05 -3.047995E+03 -1.428741E+06  5.819570E-09  1.252746E-10
        38  16 -3.606281E+06 -5.354090E+05  9.048334E+03 -1.413065E+06 -2.806677E-09 -2.455568E-10
        38  17 -3.744813E+06 -5.424688E+05 -1.681111E+04 -1.404945E+06 -1.827850E-10 -1.573675E-09
        38  18 -3.819318E+06 -6.150184E+05 -4.425849E+04 -1.471161E+06 -2.840178E-09 -3.612228E-10
        38  19 -3.719947E+06 -5.781323E+05 -2.043306E+04 -1.444079E+06  2.657753E+03 -2.415224E+03
        38  20 -3.645367E+06 -5.051314E+05  9.656007E+03 -1.378026E+06 -8.321869E+02  1.455526E+03
        38  21 -3.506762E+06 -4.976195E+05  3.816092E+04 -1.386310E+06 -4.320655E+03  5.319777E+03
        38  22 -3.663116E+06 -5.567708E+05 -5.692205E+03 -1.428573E+06  4.689551E+03 -1.657410E+03
        38  23 -3.695091E+06 -5.238002E+05 -3.577464E+03 -1.391486E+06  1.196810E+03  2.212456E+03
        38  24 -3.663053E+06 -5.563199E+05 -3.047916E+03 -1.428741E+06 -2.294088E+03  6.075895E+03
        38  25 -3.606281E+06 -5.354090E+05  9.048421E+03 -1.413065E+06  6.721557E+03 -8.995185E+02
        38  26 -3.744813E+06 -5.424688E+05 -1.681107E+04 -1.404945E+06  3.225620E+03  2.969316E+03
        38  27 -3.819318E+06 -6.150183E+05 -4.425840E+04 -1.471161E+06 -2.681039E+02  6.831796E+03
        39   1 -3.343853E+06 -4.355446E+05  8.236516E+04 -1.341509E+06  5.804753E+03 -7.773436E+03
        39   2 -3.273134E+06 -3.664384E+05  1.078765E+05 -1.278325E+06  9.484591E+03 -1.142937E+04
        39   3 -3.141216E+06 -3.598887E+05  1.316600E+05 -1.285726E+06  1.309604E+04 -1.488662E+04
        39   4 -3.663693E+06 -5.555781E+05 -3.132814E+03 -1.427953E+06  3.785637E+03 -8.527259E+03
        39   5 -3.694346E+06 -5.247036E+05 -4.222774E+03 -1.392505E+06  7.552380E+03 -1.215194E+04
        39   6 -3.663826E+06 -5.564081E+05 -7.110064E+03 -1.427650E+06  1.125033E+04 -1.557796E+04
        39   7 -3.983436E+06 -6.756068E+05 -8.864052E+04 -1.514358E+06  1.767651E+03 -9.280661E+03
        39   8 -4.115389E+06 -6.829596E+05 -1.163384E+05 -1.506615E+06  5.621601E+03 -1.287397E+04
        39   9 -4.186174E+06 -7.529125E+05 -1.459047E+05 -1.569467E+06  9.406320E+03 -1.626866E+04
        39  10 -3.343853E+06 -4.355447E+05  8.236498E+04 -1.341509E+06 -1.300519E-09 -5.221757E-10
        39  11 -3.273134E+06 -3.664386E+05  1.078761E+05 -1.278325E+06  7.297748E-10  2.835548E-09
        39  12 -3.141216E+06 -3.598890E+05  1.316593E+05 -1.285726E+06 -1.758630E-09  8.576944E-10
        39  13 -3.663693E+06 -5.555782E+05 -3.132978E+03 -1.427953E+06  3.618170E-09 -9.352740E-10
        39  14 -3.694346E+06 -5.247038E+05 -4.223158E+03 -1.392505E+06  2.402351E-09  2.170564E-09
        39  15 -3.663826E+06 -5.564084E+05 -7.110757E+03 -1.427650E+06  1.521621E-09  1.100369E-09
        39  16 -3.983436E+06 -6.756069E+05 -8.864068E+04 -1.514358E+06 -1.737596E-09  1.110514E-10
        39  17 -4.115390E+06 -6.829598E+05 -1.163388E+05 -1.506615E+06 -2.138566E-09 -7.678062E-10
        39  18 -4.186174E+06 -7.529128E+05 -1.459054E+05 -1.569467E+06  4.028086E-11  1.580933E-09
        39  19 -3.343853E+06 -4.355446E+05  8.236516E+04 -1.341509E+06 -5.804753E+03  7.773436E+03
        39  20 -3.273134E+06 -3.664384E+05  1.078765E+05 -1.278325E+06 -9.484591E+03  1.142937E+04
        39  21 -3.141216E+06 -3.598887E+05  1.316600E+05 -1.285726E+06 -1.309604E+04  1.488662E+04
        39  22 -3.663693E+06 -5.555781E+05 -3.132814E+03 -1.427953E+06 -3.785637E+03  8.527259E+03
        39  23 -3.694346E+06 -5.247036E+05 -4.222774E+03 -1.392505E+06 -7.552380E+03  1.215194E+04
        39  24 -3.663826E+06 -5.564081E+05 -7.110064E+03 -1.427650E+06 -1.125033E+04  1.557796E+04
        39  25 -3.983436E+06 -6.756068E+05 -8.864052E+04 -1.514358E+06 -1.767651E+03  9.280661E+03
        39  26 -4.115389E+06 -6.829596E+05 -1.163384E+05 -1.506615E+06 -5.621601E+03  1.287397E+04
        39  27 -4.186174E+06 -7.529125E+05 -1.459047E+05 -1.569467E+06 -9.406320E+03  1.626866E+04
        40   1 -2.993480E+06 -3.017084E+05  1.701157E+05 -1.244643E+06  1.536062E+04 -1.681363E+04
        40   2 -2.931657E+06 -2.395686E+05  1.864868E+05 -1.188152E+06  2.468598E+04 -1.780367E+04
        40   3 -2.819130E+06 -2.395444E+05  1.949612E+05 -1.191338E+06  3.382007E+04 -1.825815E+04
        40   4 -3.665856E+06 -5.537329E+05 -9.057265E+03 -1.426218E+06  1.347771E+04 -1.751998E+04
        40   5 -3.691676E+06 -5.260033E+05 -1.590920E+04 -1.395127E+06  2.303217E+04 -1.842608E+04
        40   6 -3.666849E+06 -5.604462E+05 -3.084740E+04 -1.423720E+06  3.239409E+04 -1.879677E+04
        40   7 -4.337788E+06 -8.057290E+05 -1.882679E+05 -1.607614E+06  1.159706E+04 -1.822550E+04
        40   8 -4.451132E+06 -8.124025E+05 -2.183551E+05 -1.601873E+06  2.138060E+04 -1.904766E+04
        40   9 -4.513873E+06 -8.813044E+05 -2.567199E+05 -1.655814E+06  3.097023E+04 -1.933459E+04
        40  10 -2.993480E+06 -3.017088E+05  1.701148E+05 -1.244642E+06 -2.233090E-09  7.586483E-10
        40  11 -2.931657E+06 -2.395691E+05  1.864851E+05 -1.188152E+06  1.052823E-09 -2.057762E-09
        40  12 -2.819132E+06 -2.395451E+05  1.949584E+05 -1.191338E+06  2.370054E-09 -2.661705E-09
        40  13 -3.665857E+06 -5.537332E+05 -9.058182E+03 -1.426218E+06 -3.433051E-09  5.173482E-11
        40  14 -3.691676E+06 -5.260038E+05 -1.591084E+04 -1.395127E+06 -3.217989E-09 -3.346289E-09
        40  15 -3.666850E+06 -5.604468E+05 -3.085004E+04 -1.423719E+06  2.277557E-09 -1.792103E-09
        40  16 -4.337789E+06 -8.057294E+05 -1.882688E+05 -1.607614E+06  8.394510E-10 -7.502633E-10
        40  17 -4.451133E+06 -8.124030E+05 -2.183566E+05 -1.601872E+06 -9.128393E-10 -1.328833E-09
        40  18 -4.513875E+06 -8.813050E+05 -2.567224E+05 -1.655813E+06  1.691077E-09 -1.090573E-09
        40  19 -2.993480E+06 -3.017084E+05  1.701157E+05 -1.244643E+06 -1.536062E+04  1.681363E+04
        40  20 -2.931657E+06 -2.395686E+05  1.864868E+05 -1.188152E+06 -2.468598E+04  1.780367E+04
        40  21 -2.819130E+06 -2.395444E+05  1.949612E+05 -1.191338E+06 -3.382007E+04  1.825815E+04
        40  22 -3.665856E+06 -5.537329E+05 -9.057265E+03 -1.426218E+06 -1.347771E+04  1.751998E+04
        40  23 -3.691676E+06 -5.260033E+05 -1.590920E+04 -1.395127E+06 -2.303217E+04  1.842608E+04
        40  24 -3.666849E+06 -5.604462E+05 -3.084740E+04 -1.423720E+06 -3.239409E+04  1.879677E+04
        40  25 -4.337788E+06 -8.057290E+05 -1.882679E+05 -1.607614E+06 -1.159706E+04  1.822550E+04
        40  26 -4.451132E+06 -8.124025E+05 -2.183551E+05 -1.601873E+06 -2.138060E+04  1.904766E+04
        40  27 -4.513873E+06 -8.813044E+05 -2.567199E+05 -1.655814E+06 -3.097023E+04  1.933459E+04
        41   1 -2.694558E+06 -1.880266E+05  2.199159E+05 -1.166510E+06  4.100584E+04 -1.823098E+04
        41   2 -2.644091E+06 -1.247725E+05  2.090363E+05 -1.112312E+06  7.648854E+04 -8.432477E+03
        41   3 -2.581651E+06 -1.762310E+05  1.530780E+05 -1.087510E+06  1.108778E+05  4.294105E+03
        41   4 -3.672333E+06 -5.495138E+05 -3.936500E+04 -1.425555E+06  3.892738E+04 -1.901580E+04
        41   5 -3.682368E+06 -5.208276E+05 -6.830027E+04 -1.400014E+06  7.566180E+04 -8.749140E+03
        41   6 -3.680734E+06 -6.071900E+05 -1.433711E+05 -1.403867E+06  1.112981E+05  4.444948E+03
        41   7 -4.649181E+06 -9.109532E+05 -2.987287E+05 -1.684235E+06  3.685251E+04 -1.979934E+04
        41   8 -4.719598E+06 -9.168108E+05 -3.457313E+05 -1.687277E+06  7.483651E+04 -9.065253E+03
        41   9 -4.778641E+06 -1.038049E+06 -4.399275E+05 -1.719705E+06  1.117175E+05  4.595387E+03
        41  10 -2.694560E+06 -1.880274E+05  2.199121E+05 -1.166509E+06  3.197855E-09  3.105430E-11
        41  11 -2.644097E+06 -1.247742E+05  2.090252E+05 -1.112311E+06  2.834662E-09  2.196923E-09
        41  12 -2.581664E+06 -1.762344E+05  1.530548E+05 -1.087510E+06  1.635605E-09 -2.659516E-09
        41  13 -3.672335E+06 -5.495146E+05 -3.936853E+04 -1.425555E+06  2.069999E-09  6.284025E-11
        41  14 -3.682374E+06 -5.208292E+05 -6.831122E+04 -1.400014E+06  2.591756E-10  9.403864E-10
        41  15 -3.680747E+06 -6.071933E+05 -1.433946E+05 -1.403867E+06 -7.981030E-10  2.874276E-09
        41  16 -4.649183E+06 -9.109540E+05 -2.987320E+05 -1.684234E+06 -7.244461E-10 -6.540333E-10
        41  17 -4.719604E+06 -9.168124E+05 -3.457420E+05 -1.687277E+06 -2.560374E-09 -2.298033E-09
        41  18 -4.778654E+06 -1.038053E+06 -4.399512E+05 -1.719706E+06 -4.566040E-09 -2.320191E-09
        41  19 -2.694558E+06 -1.880266E+05  2.199159E+05 -1.166510E+06 -4.100584E+04  1.823098E+04
        41  20 -2.644091E+06 -1.247725E+05  2.090363E+05 -1.112312E+06 -7.648854E+04  8.432477E+03
        41  21 -2.581651E+06 -1.762310E+05  1.530780E+05 -1.087510E+06 -1.108778E+05 -4.294105E+03
        41  22 -3.672333E+06 -5.495138E+05 -3.936500E+04 -1.425555E+06 -3.892738E+04  1.901580E+04
        41  23 -3.682368E+06 -5.208276E+05 -6.830027E+04 -1.400014E+06 -7.566180E+04  8.749140E+03
        41  24 -3.680734E+06 -6.071900E+05 -1.433711E+05 -1.403867E+06 -1.112981E+05 -4.444948E+03
        41  25 -4.649181E+06 -9.109532E+05 -2.987287E+05 -1.684235E+06 -3.685251E+04  1.979934E+04
        41  26 -4.719598E+06 -9.168108E+05 -3.457313E+05 -1.687277E+06 -7.483651E+04  9.065253E+03
        41  27 -4.778641E+06 -1.038049E+06 -4.399275E+05 -1.719705E+06 -1.117175E+05 -4.595387E+03
        42   1 -2.461983E+06 -1.212594E+05  1.434864E+05 -1.164483E+06  1.460059E+05  1.121676E+04
        42   2 -2.414128E+06  4.976006E+04  4.129844E+04 -1.040501E+06  2.920265E+05  6.450797E+04
        42   3 -2.597160E+06 -4.403968E+05 -3.432085E+05 -7.788539E+05  4.268766E+05  1.472493E+05
        42   4 -3.706471E+06 -5.301101E+05 -1.759095E+05 -1.442194E+06  1.384475E+05  8.367595E+03
        42   5 -3.626527E+06 -4.506468E+05 -2.893611E+05 -1.415223E+06  2.973476E+05  6.649739E+04
        42   6 -3.780548E+06 -1.035751E+06 -6.958264E+05 -1.250450E+06  4.450696E+05  1.540462E+05
        42   7 -4.949460E+06 -9.389536E+05 -4.954297E+05 -1.719443E+06  1.309056E+05  5.522774E+03
        42   8 -4.837488E+06 -9.508836E+05 -6.201541E+05 -1.789251E+06  3.026567E+05  6.848133E+04
        42   9 -4.962514E+06 -1.630673E+06 -1.048579E+06 -1.721121E+06  4.632234E+05  1.608174E+05
        42  10 -2.462006E+06 -1.212653E+05  1.434459E+05 -1.164484E+06  1.620198E-09 -3.663952E-09
        42  11 -2.414221E+06  4.973254E+04  4.112959E+04 -1.040516E+06  1.200900E-09 -2.077619E-09
        42  12 -2.597362E+06 -4.404693E+05 -3.435934E+05 -7.789047E+05 -2.568411E-09 -1.516198E-09
        42  13 -3.706492E+06 -5.301154E+05 -1.759459E+05 -1.442195E+06  3.016587E-10  6.198316E-10
        42  14 -3.626623E+06 -4.506755E+05 -2.895367E+05 -1.415239E+06  1.071376E-08 -5.730240E-09
        42  15 -3.780768E+06 -1.035830E+06 -6.962461E+05 -1.250505E+06  2.431877E-10 -1.171137E-09
        42  16 -4.949478E+06 -9.389583E+05 -4.954622E+05 -1.719444E+06  7.448504E-09 -3.873665E-09
        42  17 -4.837589E+06 -9.509135E+05 -6.203366E+05 -1.789268E+06  4.900913E-09 -6.255568E-09
        42  18 -4.962753E+06 -1.630759E+06 -1.049035E+06 -1.721181E+06  2.407894E-09 -2.381395E-09
        42  19 -2.461983E+06 -1.212594E+05  1.434864E+05 -1.164483E+06 -1.460059E+05 -1.121676E+04
        42  20 -2.414128E+06  4.976006E+04  4.129844E+04 -1.040501E+06 -2.920265E+05 -6.450797E+04
        42  21 -2.597160E+06 -4.403968E+05 -3.432085E+05 -7.788539E+05 -4.268766E+05 -1.472493E+05
        42  22 -3.706471E+06 -5.301101E+05 -1.759095E+05 -1.442194E+06 -1.384475E+05 -8.367595E+03
        42  23 -3.626527E+06 -4.506468E+05 -2.893611E+05 -1.415223E+06 -2.973476E+05 -6.649739E+04
        42  24 -3.780548E+06 -1.035751E+06 -6.958264E+05 -1.250450E+06 -4.450696E+05 -1.540462E+05
        42  25 -4.949460E+06 -9.389536E+05 -4.954297E+05 -1.719443E+06 -1.309056E+05 -5.522774E+03
        42  26 -4.837488E+06 -9.508836E+05 -6.201541E+05 -1.789251E+06 -3.026567E+05 -6.848133E+04
        42  27 -4.962514E+06 -1.630673E+06 -1.048579E+06 -1.721121E+06 -4.632234E+05 -1.608174E+05
        43   1  1.443607E+05 -7.990800E+05  1.372753E+05 -2.981736E+03  1.920615E+04  1.235000E+03
        43   2  1.414836E+05 -8.108521E+05  1.331342E+05  9.678806E+02  1.873008E+04  2.745719E+03
        43   3  1.376108E+05 -8.228045E+05  1.278157E+05 -3.555981E+03  1.815332E+04  4.255511E+03
        43   4  5.479859E+00 -1.381080E+06 -1.794651E+03 -1.882089E+03  1.920672E+04  1.456397E+03
        43   5  6.319409E+01 -1.380984E+06 -3.128809E+03  2.353391E+03  1.873035E+04  3.018976E+03
        43   6 -8.844591E+02 -1.381079E+06 -5.677035E+03 -1.885088E+03  1.815326E+04  4.580658E+03
        43   7 -1.443743E+05 -1.962768E+06 -1.408885E+05 -7.832567E+02  1.920728E+04  1.677586E+03
        43   8 -1.413808E+05 -1.950818E+06 -1.394147E+05  3.737859E+03  1.873063E+04  3.291982E+03
        43   9 -1.394024E+05 -1.939067E+06 -1.391918E+05 -2.154543E+02  1.815320E+04  4.905513E+03
        43  10  1.443603E+05 -7.990801E+05  1.372746E+05 -2.981755E+03  6.920835E-11  3.606529E-10
        43  11  1.414832E+05 -8.108522E+05  1.331335E+05  9.678392E+02  2.860457E-09 -2.637903E-09
        43  12  1.376105E+05 -8.228046E+05  1.278151E+05 -3.556043E+03  2.314997E-09 -2.689749E-09
        43  13  5.083413E+00 -1.381080E+06 -1.795348E+03 -1.882112E+03  6.658963E-10  6.398770E-11
        43  14  6.281515E+01 -1.380984E+06 -3.129485E+03  2.353346E+03  3.292614E-09 -1.565970E-09
        43  15 -8.848184E+02 -1.381079E+06 -5.677693E+03 -1.885155E+03 -1.497713E-09 -1.294167E-09
        43  16 -1.443747E+05 -1.962768E+06 -1.408892E+05 -7.832827E+02  4.151739E-09 -1.124742E-09
        43  17 -1.413812E+05 -1.950818E+06 -1.394154E+05  3.737809E+03 -6.554813E-10  1.643041E-09
        43  18 -1.394027E+05 -1.939067E+06 -1.391925E+05 -2.155261E+02 -3.298868E-09  3.870012E-09
        43  19  1.443607E+05 -7.990800E+05  1.372753E+05 -2.981736E+03 -1.920615E+04 -1.235000E+03
        43  20  1.414836E+05 -8.108521E+05  1.331342E+05  9.678806E+02 -1.873008E+04 -2.745719E+03
        43  21  1.376108E+05 -8.228045E+05  1.278157E+05 -3.555981E+03 -1.815332E+04 -4.255511E+03
        43  22  5.479859E+00 -1.381080E+06 -1.794651E+03 -1.882089E+03 -1.920672E+04 -1.456397E+03
        43  23  6.319409E+01 -1.380984E+06 -3.128809E+03  2.353391E+03 -1.873035E+04 -3.018976E+03
        43  24 -8.844591E+02 -1.381079E+06 -5.677035E+03 -1.885088E+03 -1.815326E+04 -4.580658E+03
        43  25 -1.443743E+05 -1.962768E+06 -1.408885E+05 -7.832567E+02 -1.920728E+04 -1.677586E+03
        43  26 -1.413808E+05 -1.950818E+06 -1.394147E+05  3.737859E+03 -1.873063E+04 -3.291982E+03
        43  27 -1.394024E+05 -1.939067E+06 -1.391918E+05 -2.154543E+02 -1.815320E+04 -4.905513E+03
        44   1  1.346389E+05 -8.406525E+05  1.219977E+05 -2.597270E+03  1.791584E+04  5.582356E+03
        44   2  1.316968E+05 -8.539345E+05  1.134504E+05  7.308407E+02  1.726170E+04  1.149569E+04
        44   3  1.182248E+05 -8.704435E+05  9.845415E+04 -6.608681E+03  1.588040E+04  1.740504E+04
        44   4  4.354586E+02 -1.381763E+06 -7.277530E+03 -2.359027E+03  1.791636E+04  5.720719E+03
        44   5  1.166244E+03 -1.380118E+06 -1.230984E+04  2.955999E+03  1.726061E+04  1.201292E+04
        44   6 -8.703767E+03 -1.381769E+06 -2.405818E+04 -2.397222E+03  1.587747E+04  1.830129E+04
        44   7 -1.337892E+05 -1.922604E+06 -1.365734E+05 -2.120744E+03  1.791687E+04  5.858961E+03
        44   8 -1.293844E+05 -1.906047E+06 -1.380896E+05  5.179513E+03  1.725953E+04  1.252972E+04
        44   9 -1.356513E+05 -1.892855E+06 -1.465890E+05  1.811006E+03  1.587455E+04  1.919679E+04
        44  10  1.346386E+05 -8.406526E+05  1.219970E+05 -2.597351E+03 -5.794714E-10 -5.285335E-09
        44  11  1.316964E+05 -8.539348E+05  1.134496E+05  7.306809E+02  7.692093E-10 -1.360193E-09
        44  12  1.182244E+05 -8.704439E+05  9.845311E+04 -6.608904E+03 -1.829785E-09  6.206750E-09
        44  13  4.351053E+02 -1.381763E+06 -7.278194E+03 -2.359110E+03  5.730305E-10  2.097097E-10
        44  14  1.165886E+03 -1.380118E+06 -1.231067E+04  2.955832E+03  6.593422E-10 -2.513916E-09
        44  15 -8.704128E+03 -1.381770E+06 -2.405929E+04 -2.397457E+03 -1.556435E-09 -1.341956E-09
        44  16 -1.337896E+05 -1.922604E+06 -1.365741E+05 -2.120829E+03 -1.979614E-09  4.062939E-09
        44  17 -1.293848E+05 -1.906047E+06 -1.380904E+05  5.179339E+03  4.115669E-09  2.943316E-10
        44  18 -1.356517E+05 -1.892855E+06 -1.465902E+05  1.810761E+03  6.696753E-10 -4.741062E-09
        44  19  1.346389E+05 -8.406525E+05  1.219977E+05 -2.597270E+03 -1.791584E+04 -5.582356E+03
        44  20  1.316968E+05 -8.539345E+05  1.134504E+05  7.308407E+02 -1.726170E+04 -1.149569E+04
        44  21  1.182248E+05 -8.704435E+05  9.845415E+04 -6.608681E+03 -1.588040E+04 -1.740504E+04
        44  22  4.354586E+02 -1.381763E+06 -7.277530E+03 -2.359027E+03 -1.791636E+04 -5.720719E+03
        44  23  1.166244E+03 -1.380118E+06 -1.230984E+04  2.955999E+03 -1.726061E+04 -1.201292E+04
        44  24 -8.703767E+03 -1.381769E+06 -2.405818E+04 -2.397222E+03 -1.587747E+04 -1.830129E+04
        44  25 -1.337892E+05 -1.922604E+06 -1.365734E+05 -2.120744E+03 -1.791687E+04 -5.858961E+03
        44  26 -1.293844E+05 -1.906047E+06 -1.380896E+05  5.179513E+03 -1.725953E+04 -1.252972E+04
        44  27 -1.356513E+05 -1.892855E+06 -1.465890E+05  1.811006E+03 -1.587455E+04 -1.919679E+04
        45   1  1.260305E+05 -8.968887E+05  8.745190E+04  7.149075E+03  1.678008E+04  2.478391E+04
        45   2  1.288608E+05 -9.004044E+05  6.543907E+04 -6.295919E+03  1.550436E+04  4.529491E+04
        45   3  2.820328E+04 -9.323990E+05  4.203471E+03 -3.296412E+04  4.606811E+03  6.575632E+04
        45   4  4.495539E+03 -1.387545E+06 -2.953683E+04 -2.805103E+03  1.678917E+04  2.285838E+04
        45   5  1.156737E+04 -1.372885E+06 -4.744771E+04  3.586180E+03  1.549084E+04  4.842732E+04
        45   6 -8.577102E+04 -1.387605E+06 -1.081192E+05 -3.247909E+03  4.568746E+03  7.394684E+04
        45   7 -1.170564E+05 -1.877980E+06 -1.465424E+05 -1.275112E+04  1.679832E+04  2.093437E+04
        45   8 -1.057419E+05 -1.845161E+06 -1.603502E+05  1.346095E+04  1.547742E+04  5.155734E+04
        45   9 -1.997576E+05 -1.842620E+06 -2.204566E+05  2.644668E+04  4.531454E+03  8.213133E+04
        45  10  1.260301E+05 -8.968895E+05  8.745021E+04  7.148740E+03 -2.772891E-09  1.264975E-09
        45  11  1.288600E+05 -9.004066E+05  6.543476E+04 -6.296484E+03  6.109478E-10 -5.423285E-10
        45  12  2.820210E+04 -9.324037E+05  4.195293E+03 -3.296436E+04 -2.182072E-10  2.138794E-09
        45  13  4.495096E+03 -1.387546E+06 -2.953835E+04 -2.805412E+03 -1.109293E-09 -1.185354E-10
        45  14  1.156648E+04 -1.372888E+06 -4.745258E+04  3.585576E+03 -3.071858E-09 -2.824437E-09
        45  15 -8.577252E+04 -1.387611E+06 -1.081296E+05 -3.248181E+03 -2.033511E-09 -1.684731E-09
        45  16 -1.170569E+05 -1.877981E+06 -1.465438E+05 -1.275140E+04 -7.060625E-10 -2.566097E-09
        45  17 -1.057429E+05 -1.845164E+06 -1.603556E+05  1.346031E+04  1.659774E-09 -8.802609E-10
        45  18 -1.997595E+05 -1.842628E+06 -2.204694E+05  2.644638E+04  1.776303E-09 -5.786945E-10
        45  19  1.260305E+05 -8.968887E+05  8.745190E+04  7.149075E+03 -1.678008E+04 -2.478391E+04
        45  20  1.288608E+05 -9.004044E+05  6.543907E+04 -6.295919E+03 -1.550436E+04 -4.529491E+04
        45  21  2.820328E+04 -9.323990E+05  4.203471E+03 -3.296412E+04 -4.606811E+03 -6.575632E+04
        45  22  4.495539E+03 -1.387545E+06 -2.953683E+04 -2.805103E+03 -1.678917E+04 -2.285838E+04
        45  23  1.156737E+04 -1.372885E+06 -4.744771E+04  3.586180E+03 -1.549084E+04 -4.842732E+04
        45  24 -8.577102E+04 -1.387605E+06 -1.081192E+05 -3.247909E+03 -4.568746E+03 -7.394684E+04
        45  25 -1.170564E+05 -1.877980E+06 -1.465424E+05 -1.275112E+04 -1.679832E+04 -2.093437E+04
        45  26 -1.057419E+05 -1.845161E+06 -1.603502E+05  1.346095E+04 -1.547742E+04 -5.155734E+04
        45  27 -1.997576E+05 -1.842620E+06 -2.204566E+05  2.644668E+04 -4.531454E+03 -8.213133E+04
        46   1  9.119468E+04  9.770454E+05  5.198861E+04 -1.910145E+02  3.191363E+04 -5.810386E+02
        46   2  9.132414E+04  9.771553E+05  5.269347E+04 -1.585592E+02  3.180519E+04 -1.495028E+03
        46   3  9.167916E+04  9.774493E+05  5.405186E+04 -1.077355E+02  3.155270E+04 -2.409119E+03
        46   4 -3.436870E+01  5.718699E+05  6.511361E+02  4.070450E+00  3.191579E+04 -4.923767E+02
        46   5  1.810763E+01  5.718078E+05  1.142887E+03 -5.058959E+00  3.180717E+04 -1.059844E+03
        46   6  2.361295E+02  5.718696E+05  2.047980E+03  4.180272E+00  3.155445E+04 -1.627406E+03
        46   7 -9.127011E+04  1.668628E+05 -5.068690E+04  1.990388E+02  3.191795E+04 -4.037697E+02
        46   8 -9.129465E+04  1.666286E+05 -5.040832E+04  1.483551E+02  3.180915E+04 -6.249291E+02
        46   9 -9.121368E+04  1.664584E+05 -4.995664E+04  1.160404E+02  3.155621E+04 -8.461784E+02
        46  10  9.119359E+04  9.770451E+05  5.198669E+04 -1.909996E+02  6.942505E-09  4.476827E-08
        46  11  9.132305E+04  9.771550E+05  5.269157E+04 -1.585209E+02  4.799877E-09  6.215667E-09
        46  12  9.167809E+04  9.774490E+05  5.404998E+04 -1.076743E+02  3.353678E-12 -2.916571E-08
        46  13 -3.546288E+01  5.718696E+05  6.492209E+02  4.083103E+00 -1.145756E-08  5.554001E-10
        46  14  1.702066E+01  5.718075E+05  1.140983E+03 -5.031814E+00 -7.683294E-09 -9.952798E-10
        46  15  2.350593E+02  5.718694E+05  2.046104E+03  4.221621E+00 -3.341449E-09  6.538606E-10
        46  16 -9.127120E+04  1.668625E+05 -5.068881E+04  1.990491E+02  4.257709E-09 -4.533934E-08
        46  17 -9.129573E+04  1.666283E+05 -5.041022E+04  1.483711E+02 -1.084211E-10 -6.545046E-09
        46  18 -9.121475E+04  1.664581E+05 -4.995852E+04  1.160619E+02 -1.831045E-09  2.937662E-08
        46  19  9.119468E+04  9.770454E+05  5.198861E+04 -1.910145E+02 -3.191363E+04  5.810386E+02
        46  20  9.132414E+04  9.771553E+05  5.269347E+04 -1.585592E+02 -3.180519E+04  1.495028E+03
        46  21  9.167916E+04  9.774493E+05  5.405186E+04 -1.077355E+02 -3.155270E+04  2.409119E+03
        46  22 -3.436870E+01  5.718699E+05  6.511361E+02  4.070450E+00 -3.191579E+04  4.923767E+02
        46  23  1.810763E+01  5.718078E+05  1.142887E+03 -5.058959E+00 -3.180717E+04  1.059844E+03
        46  24  2.361295E+02  5.718696E+05  2.047980E+03  4.180272E+00 -3.155445E+04  1.627406E+03
        46  25 -9.127011E+04  1.668628E+05 -5.068690E+04  1.990388E+02 -3.191795E+04  4.037697E+02
        46  26 -9.129465E+04  1.666286E+05 -5.040832E+04  1.483551E+02 -3.180915E+04  6.249291E+02
        46  27 -9.121368E+04  1.664584E+05 -4.995664E+04  1.160404E+02 -3.155621E+04  8.461784E+02
        47   1  9.189924E+04  9.778078E+05  5.502829E+04 -2.422343E+02  3.139322E+04 -2.892133E+03
        47   2  9.306433E+04  9.774731E+05  5.857890E+04  9.266302E+02  3.049853E+04 -7.913199E+03
        47   3  9.638831E+04  9.783393E+05  6.593689E+04  2.044318E+03  2.852805E+04 -1.293511E+04
        47   4  3.514550E+02  5.720094E+05  2.720043E+03 -1.144082E+01  3.139488E+04 -2.027097E+03
        47   5  1.226953E+03  5.716322E+05  4.857367E+03  1.508721E+01  3.049850E+04 -4.461379E+03
        47   6  3.813451E+03  5.720080E+05  9.008532E+03 -9.570343E+00  2.852597E+04 -6.896479E+03
        47   7 -9.120315E+04  1.663794E+05 -4.958902E+04  2.192169E+02  3.139655E+04 -1.162598E+03
        47   8 -9.061739E+04  1.659592E+05 -4.886535E+04 -8.958085E+02  3.049846E+04 -1.011706E+03
        47   9 -8.876873E+04  1.658438E+05 -4.792183E+04 -2.062031E+03  2.852385E+04 -8.616219E+02
        47  10  9.189818E+04  9.778076E+05  5.502642E+04 -2.421612E+02 -1.060855E-09  1.337389E-09
        47  11  9.306331E+04  9.774728E+05  5.857703E+04  9.268245E+02  2.792254E-09 -2.669783E-10
        47  12  9.638740E+04  9.783389E+05  6.593505E+04  2.044615E+03  9.339808E-12  1.073503E-09
        47  13  3.503952E+02  5.720091E+05  2.718182E+03 -1.138958E+01  1.088736E-09  5.576733E-10
        47  14  1.225949E+03  5.716319E+05  4.855582E+03  1.519677E+01 -1.154706E-09 -1.342067E-09
        47  15  3.812564E+03  5.720077E+05  9.006913E+03 -9.411936E+00 -1.628185E-09  8.317085E-10
        47  16 -9.120421E+04  1.663791E+05 -4.959088E+04  2.192463E+02 -3.363701E-09 -2.258793E-09
        47  17 -9.061839E+04  1.659589E+05 -4.886710E+04 -8.957837E+02 -1.608651E-09 -2.012689E-10
        47  18 -8.876960E+04  1.658435E+05 -4.792336E+04 -2.062011E+03 -2.710451E-10 -6.980643E-10
        47  19  9.189924E+04  9.778078E+05  5.502829E+04 -2.422343E+02 -3.139322E+04  2.892133E+03
        47  20  9.306433E+04  9.774731E+05  5.857890E+04  9.266302E+02 -3.049853E+04  7.913199E+03
        47  21  9.638831E+04  9.783393E+05  6.593689E+04  2.044318E+03 -2.852805E+04  1.293511E+04
        47  22  3.514550E+02  5.720094E+05  2.720043E+03 -1.144082E+01 -3.139488E+04  2.027097E+03
        47  23  1.226953E+03  5.716322E+05  4.857367E+03  1.508721E+01 -3.049850E+04  4.461379E+03
        47  24  3.813451E+03  5.720080E+05  9.008532E+03 -9.570343E+00 -2.852597E+04  6.896479E+03
        47  25 -9.120315E+04  1.663794E+05 -4.958902E+04  2.192169E+02 -3.139655E+04  1.162598E+03
        47  26 -9.061739E+04  1.659592E+05 -4.886535E+04 -8.958085E+02 -3.049846E+04  1.011706E+03
        47  27 -8.876873E+04  1.658438E+05 -4.792183E+04 -2.062031E+03 -2.852385E+04  8.616219E+02
        48   1  9.841022E+04  9.801899E+05  7.114505E+04  1.264401E+03  2.728279E+04 -1.514268E+04
        48   2  1.099969E+05  9.760549E+05  9.163374E+04  1.502824E+04  2.054505E+04 -4.566827E+04
        48   3  1.418053E+05  9.809504E+05  1.370322E+05  2.816236E+04  5.840436E+03 -7.620153E+04
        48   4  5.257861E+03  5.731104E+05  1.208104E+04 -1.399497E+02  2.727997E+04 -8.469393E+03
        48   5  1.507414E+04  5.702488E+05  2.232680E+04  1.874707E+02  2.052811E+04 -1.984728E+04
        48   6  4.179717E+04  5.731002E+05  4.420124E+04 -1.151060E+02  5.808316E+03 -3.123211E+04
        48   7 -8.790208E+04  1.661978E+05 -4.698552E+04 -1.543315E+03  2.727712E+04 -1.800294E+03
        48   8 -7.985619E+04  1.646063E+05 -4.698299E+04 -1.464327E+04  2.050993E+04  5.957393E+03
        48   9 -5.821839E+04  1.654102E+05 -4.863247E+04 -2.837383E+04  5.772096E+03  1.370807E+04
        48  10  9.840936E+04  9.801895E+05  7.114322E+04  1.264733E+03 -7.657780E-10  8.369933E-10
        48  11  1.099959E+05  9.760526E+05  9.162903E+04  1.502899E+04  8.185314E-10 -1.469001E-09
        48  12  1.418037E+05  9.809441E+05  1.370212E+05  2.816272E+04  3.214171E-10 -6.856901E-10
        48  13  5.257042E+03  5.731101E+05  1.207951E+04 -1.397637E+02  7.906316E-11  7.817700E-10
        48  14  1.507358E+04  5.702483E+05  2.232526E+04  1.877988E+02  1.473632E-09 -1.589975E-09
        48  15  4.179687E+04  5.730991E+05  4.419935E+04 -1.149599E+02  2.171195E-09  1.161282E-09
        48  16 -8.790288E+04  1.661976E+05 -4.698692E+04 -1.543275E+03 -7.854238E-10 -1.822379E-09
        48  17 -7.985665E+04  1.646062E+05 -4.698385E+04 -1.464337E+04  1.417293E-09  1.077152E-09
        48  18 -5.821847E+04  1.654099E+05 -4.863289E+04 -2.837389E+04  9.931494E-10  9.254721E-10
        48  19  9.841022E+04  9.801899E+05  7.114505E+04  1.264401E+03 -2.728279E+04  1.514268E+04
        48  20  1.099969E+05  9.760549E+05  9.163374E+04  1.502824E+04 -2.054505E+04  4.566827E+04
        48  21  1.418053E+05  9.809504E+05  1.370322E+05  2.816236E+04 -5.840436E+03  7.620153E+04
        48  22  5.257861E+03  5.731104E+05  1.208104E+04 -1.399497E+02 -2.727997E+04  8.469393E+03
        48  23  1.507414E+04  5.702488E+05  2.232680E+04  1.874707E+02 -2.052811E+04  1.984728E+04
        48  24  4.179717E+04  5.731002E+05  4.420124E+04 -1.151060E+02 -5.808316E+03  3.123211E+04
        48  25 -8.790208E+04  1.661978E+05 -4.698552E+04 -1.543315E+03 -2.727712E+04  1.800294E+03
        48  26 -7.985619E+04  1.646063E+05 -4.698299E+04 -1.464327E+04 -2.050993E+04 -5.957393E+03
        48  27 -5.821839E+04  1.654102E+05 -4.863247E+04 -2.837383E+04 -5.772096E+03 -1.370807E+04
        49   1 -8.947331E+06 -2.592183E+06 -1.524204E+06 -3.207277E+06 -8.130953E+05 -2.949382E+05
        49   2 -8.734351E+06 -1.374993E+06 -7.621904E+05 -3.342286E+06 -5.243541E+05 -1.637905E+05
        49   3 -8.964448E+06 -1.357706E+06 -5.420189E+05 -3.215270E+06 -2.271320E+05 -5.508256E+04
        49   4 -8.184481E+06 -2.044054E+06 -1.262750E+06 -2.736410E+06 -8.000509E+05 -2.904485E+05
        49   5 -7.896846E+06 -9.851806E+05 -5.239451E+05 -3.039903E+06 -5.210321E+05 -1.626205E+05
        49   6 -8.049752E+06 -1.123431E+06 -3.186696E+05 -3.081572E+06 -2.335022E+05 -5.742774E+04
        49   7 -7.420884E+06 -1.495263E+06 -1.001335E+06 -2.264859E+06 -7.869883E+05 -2.859376E+05
        49   8 -7.058634E+06 -5.952122E+05 -2.857668E+05 -2.737108E+06 -5.177048E+05 -1.614473E+05
        49   9 -7.134218E+06 -8.891821E+05 -9.537402E+04 -2.947743E+06 -2.398827E+05 -5.977390E+04
        49  10 -8.948074E+06 -2.592459E+06 -1.525634E+06 -3.207473E+06 -9.613996E-10 -3.501341E-10
        49  11 -8.734658E+06 -1.375098E+06 -7.627668E+05 -3.342356E+06  4.595266E-09 -1.184296E-09
        49  12 -8.964505E+06 -1.357723E+06 -5.421232E+05 -3.215280E+06 -1.771972E-09  9.772096E-10
        49  13 -8.185200E+06 -2.044321E+06 -1.264132E+06 -2.736599E+06  3.674771E-09 -3.665798E-10
        49  14 -7.897147E+06 -9.852835E+05 -5.245133E+05 -3.039972E+06 -1.906288E-09 -9.396585E-11
        49  15 -8.049812E+06 -1.123449E+06 -3.187799E+05 -3.081583E+06  1.206038E-09  1.070482E-09
        49  16 -7.421578E+06 -1.495521E+06 -1.002670E+06 -2.265042E+06 -3.321946E-10 -1.296833E-10
        49  17 -7.058932E+06 -5.953137E+05 -2.863268E+05 -2.737176E+06  2.113801E-09  1.670593E-11
        49  18 -7.134281E+06 -8.892016E+05 -9.549040E+04 -2.947755E+06 -1.232683E-09  8.903325E-10
        49  19 -8.947331E+06 -2.592183E+06 -1.524204E+06 -3.207277E+06  8.130953E+05  2.949382E+05
        49  20 -8.734351E+06 -1.374993E+06 -7.621904E+05 -3.342286E+06  5.243541E+05  1.637905E+05
        49  21 -8.964448E+06 -1.357706E+06 -5.420189E+05 -3.215270E+06  2.271320E+05  5.508256E+04
        49  22 -8.184481E+06 -2.044054E+06 -1.262750E+06 -2.736410E+06  8.000509E+05  2.904485E+05
        49  23 -7.896846E+06 -9.851806E+05 -5.239451E+05 -3.039903E+06  5.210321E+05  1.626205E+05
        49  24 -8.049752E+06 -1.123431E+06 -3.186696E+05 -3.081572E+06  2.335022E+05  5.742774E+04
        49  25 -7.420884E+06 -1.495263E+06 -1.001335E+06 -2.264859E+06  7.869883E+05  2.859376E+05
        49  26 -7.058634E+06 -5.952122E+05 -2.857668E+05 -2.737108E+06  5.177048E+05  1.614473E+05
        49  27 -7.134218E+06 -8.891821E+05 -9.537402E+04 -2.947743E+06  2.398827E+05  5.977390E+04
        50   1 -8.696482E+06 -1.551215E+06 -4.507224E+05 -3.226506E+06 -1.859758E+05 -4.531968E+04
        50   2 -8.609153E+06 -1.353216E+06 -2.887159E+05 -3.187285E+06 -1.201220E+05 -2.273379E+04
        50   3 -8.522667E+06 -1.346030E+06 -2.120023E+05 -3.180845E+06 -5.334499E+04 -2.581502E+03
        50   4 -8.004247E+06 -1.262466E+06 -2.596748E+05 -3.010949E+06 -1.863995E+05 -4.549056E+04
        50   5 -7.996262E+06 -1.114814E+06 -1.232451E+05 -3.014055E+06 -1.215583E+05 -2.327510E+04
        50   6 -7.988862E+06 -1.157685E+06 -7.121833E+04 -3.049954E+06 -5.580363E+04 -3.500937E+03
        50   7 -7.311538E+06 -9.736567E+05 -6.867112E+04 -2.795160E+06 -1.868236E+05 -4.566163E+04
        50   8 -7.383002E+06 -8.763840E+05  4.219210E+04 -2.840665E+06 -1.229961E+05 -2.381702E+04
        50   9 -7.454778E+06 -9.693317E+05  6.954136E+04 -2.918963E+06 -5.826460E+04 -4.421113E+03
        50  10 -8.696520E+06 -1.551227E+06 -4.507923E+05 -3.226513E+06 -3.777126E-09  3.008389E-09
        50  11 -8.609169E+06 -1.353220E+06 -2.887444E+05 -3.187287E+06 -2.030066E-09 -1.322800E-09
        50  12 -8.522670E+06 -1.346031E+06 -2.120077E+05 -3.180845E+06 -1.401386E-09 -3.174553E-09
        50  13 -8.004286E+06 -1.262477E+06 -2.597450E+05 -3.010956E+06  6.723309E-10  1.858383E-09
        50  14 -7.996278E+06 -1.114819E+06 -1.232743E+05 -3.014057E+06 -1.542507E-09 -2.311659E-09
        50  15 -7.988865E+06 -1.157686E+06 -7.122428E+04 -3.049954E+06  2.554584E-09 -1.009073E-09
        50  16 -7.311577E+06 -9.736685E+05 -6.874156E+04 -2.795167E+06  2.670736E-09  5.322134E-10
        50  17 -7.383019E+06 -8.763888E+05  4.216221E+04 -2.840668E+06  3.341557E-09  3.427448E-10
        50  18 -7.454782E+06 -9.693327E+05  6.953486E+04 -2.918964E+06  2.866036E-09 -6.033352E-10
        50  19 -8.696482E+06 -1.551215E+06 -4.507224E+05 -3.226506E+06  1.859758E+05  4.531968E+04
        50  20 -8.609153E+06 -1.353216E+06 -2.887159E+05 -3.187285E+06  1.201220E+05  2.273379E+04
        50  21 -8.522667E+06 -1.346030E+06 -2.120023E+05 -3.180845E+06  5.334499E+04  2.581502E+03
        50  22 -8.004247E+06 -1.262466E+06 -2.596748E+05 -3.010949E+06  1.863995E+05  4.549056E+04
        50  23 -7.996262E+06 -1.114814E+06 -1.232451E+05 -3.014055E+06  1.215583E+05  2.327510E+04
        50  24 -7.988862E+06 -1.157685E+06 -7.121833E+04 -3.049954E+06  5.580363E+04  3.500937E+03
        50  25 -7.311538E+06 -9.736567E+05 -6.867112E+04 -2.795160E+06  1.868236E+05  4.566163E+04
        50  26 -7.383002E+06 -8.763840E+05  4.219210E+04 -2.840665E+06  1.229961E+05  2.381702E+04
        50  27 -7.454778E+06 -9.693317E+05  6.954136E+04 -2.918963E+06  5.826460E+04  4.421113E+03
        51   1 -8.336811E+06 -1.312236E+06 -1.512414E+05 -3.143307E+06 -4.251929E+04 -1.907013E+03
        51   2 -8.254057E+06 -1.219179E+06 -9.378769E+04 -3.074350E+06 -2.608569E+04 -1.024338E+03
        51   3 -8.109167E+06 -1.211159E+06 -5.151747E+04 -3.082192E+06 -9.509858E+03 -5.216622E+02
        51   4 -7.980756E+06 -1.175440E+06 -5.576790E+04 -3.044321E+06 -4.450022E+04 -2.648316E+03
        51   5 -8.010951E+06 -1.127028E+06 -2.862572E+04 -3.008104E+06 -2.822728E+04 -1.824819E+03
        51   6 -7.978985E+06 -1.163615E+06 -1.652883E+04 -3.048689E+06 -1.181504E+04 -1.382417E+03
        51   7 -7.624578E+06 -1.038635E+06  3.969407E+04 -2.945282E+06 -4.648241E+04 -3.390107E+03
        51   8 -7.767786E+06 -1.034873E+06  3.653104E+04 -2.941834E+06 -3.036979E+04 -2.625651E+03
        51   9 -7.848787E+06 -1.116070E+06  1.845843E+04 -3.015180E+06 -1.412077E+04 -2.243359E+03
        51  10 -8.336813E+06 -1.312236E+06 -1.512448E+05 -3.143307E+06  2.561307E-09 -6.506785E-10
        51  11 -8.254058E+06 -1.219179E+06 -9.378899E+04 -3.074350E+06 -1.599430E-09 -1.318553E-09
        51  12 -8.109167E+06 -1.211159E+06 -5.151764E+04 -3.082192E+06  1.608276E-10  3.291393E-09
        51  13 -7.980758E+06 -1.175440E+06 -5.577168E+04 -3.044321E+06  2.431511E-09  2.149444E-10
        51  14 -8.010951E+06 -1.127028E+06 -2.862724E+04 -3.008104E+06  3.626749E-09  1.028620E-09
        51  15 -7.978985E+06 -1.163615E+06 -1.652910E+04 -3.048689E+06 -2.903770E-09  1.951418E-10
        51  16 -7.624580E+06 -1.038635E+06  3.968994E+04 -2.945282E+06 -1.574535E-09 -1.732976E-09
        51  17 -7.767787E+06 -1.034874E+06  3.652927E+04 -2.941834E+06 -5.329927E-10 -3.097369E-09
        51  18 -7.848787E+06 -1.116070E+06  1.845804E+04 -3.015180E+06 -5.464566E-10 -1.106995E-09
        51  19 -8.336811E+06 -1.312236E+06 -1.512414E+05 -3.143307E+06  4.251929E+04  1.907013E+03
        51  20 -8.254057E+06 -1.219179E+06 -9.378769E+04 -3.074350E+06  2.608569E+04  1.024338E+03
        51  21 -8.109167E+06 -1.211159E+06 -5.151747E+04 -3.082192E+06  9.509858E+03  5.216622E+02
        51  22 -7.980756E+06 -1.175440E+06 -5.576790E+04 -3.044321E+06  4.450022E+04  2.648316E+03
        51  23 -8.010951E+06 -1.127028E+06 -2.862572E+04 -3.008104E+06  2.822728E+04  1.824819E+03
        51  24 -7.978985E+06 -1.163615E+06 -1.652883E+04 -3.048689E+06  1.181504E+04  1.382417E+03
        51  25 -7.624578E+06 -1.038635E+06  3.969407E+04 -2.945282E+06  4.648241E+04  3.390107E+03
        51  26 -7.767786E+06 -1.034873E+06  3.653104E+04 -2.941834E+06  3.036979E+04  2.625651E+03
        51  27 -7.848787E+06 -1.116070E+06  1.845843E+04 -3.015180E+06  1.412077E+04  2.243359E+03
        52   1 -7.922731E+06 -1.144732E+06  2.222249E+03 -3.033227E+06 -6.024275E+03 -2.653064E+03
        52   2 -7.841377E+06 -1.063980E+06  3.793189E+04 -2.961266E+06 -2.466597E+02 -6.218689E+03
        52   3 -7.690527E+06 -1.055896E+06  7.019052E+04 -2.970341E+06  5.479736E+03 -9.638414E+03
        52   4 -7.978002E+06 -1.165439E+06 -1.298407E+04 -3.047929E+06 -8.288143E+03 -3.498338E+03
        52   5 -8.012658E+06 -1.128565E+06 -7.903723E+03 -3.007604E+06 -2.446520E+03 -7.040619E+03
        52   6 -7.977844E+06 -1.164374E+06 -6.324067E+03 -3.048322E+06  3.343044E+03 -1.043723E+04
        52   7 -8.033270E+06 -1.186146E+06 -2.819065E+04 -3.062629E+06 -1.055179E+04 -4.343530E+03
        52   8 -8.183911E+06 -1.193148E+06 -5.374184E+04 -3.053931E+06 -4.645703E+03 -7.862296E+03
        52   9 -8.265078E+06 -1.272846E+06 -8.284567E+04 -3.126270E+06  1.207457E+03 -1.123563E+04
        52  10 -7.922731E+06 -1.144732E+06  2.222167E+03 -3.033227E+06  3.082498E-09  4.482551E-09
        52  11 -7.841377E+06 -1.063980E+06  3.793182E+04 -2.961266E+06  5.479528E-09  1.807964E-09
        52  12 -7.690528E+06 -1.055896E+06  7.019029E+04 -2.970341E+06  7.434394E-10  5.233553E-10
        52  13 -7.978002E+06 -1.165439E+06 -1.298422E+04 -3.047929E+06 -3.062592E-09  3.702861E-10
        52  14 -8.012659E+06 -1.128565E+06 -7.903828E+03 -3.007604E+06  3.235908E-09  2.569973E-09
        52  15 -7.977844E+06 -1.164374E+06 -6.324291E+03 -3.048322E+06 -2.378302E-10 -5.591978E-10
        52  16 -8.033270E+06 -1.186146E+06 -2.819090E+04 -3.062629E+06 -2.558132E-09 -5.045927E-10
        52  17 -8.183911E+06 -1.193148E+06 -5.374200E+04 -3.053931E+06  3.477746E-09  4.440858E-10
        52  18 -8.265078E+06 -1.272846E+06 -8.284590E+04 -3.126270E+06  2.509204E-09  4.866824E-10
        52  19 -7.922731E+06 -1.144732E+06  2.222249E+03 -3.033227E+06  6.024275E+03  2.653064E+03
        52  20 -7.841377E+06 -1.063980E+06  3.793189E+04 -2.961266E+06  2.466597E+02  6.218689E+03
        52  21 -7.690527E+06 -1.055896E+06  7.019052E+04 -2.970341E+06 -5.479736E+03  9.638414E+03
        52  22 -7.978002E+06 -1.165439E+06 -1.298407E+04 -3.047929E+06  8.288143E+03  3.498338E+03
        52  23 -8.012658E+06 -1.128565E+06 -7.903723E+03 -3.007604E+06  2.446520E+03  7.040619E+03
        52  24 -7.977844E+06 -1.164374E+06 -6.324067E+03 -3.048322E+06 -3.343044E+03  1.043723E+04
        52  25 -8.033270E+06 -1.186146E+06 -2.819065E+04 -3.062629E+06  1.055179E+04  4.343530E+03
        52  26 -8.183911E+06 -1.193148E+06 -5.374184E+04 -3.053931E+06  4.645703E+03  7.862296E+03
        52  27 -8.265078E+06 -1.272846E+06 -8.284567E+04 -3.126270E+06 -1.207457E+03  1.123563E+04
        53   1 -7.520679E+06 -9.888394E+05  1.170389E+05 -2.921499E+06  7.523383E+03 -1.205627E+04
        53   2 -7.451963E+06 -9.209602E+05  1.413029E+05 -2.859754E+06  1.298657E+04 -1.510821E+04
        53   3 -7.323725E+06 -9.151595E+05  1.623269E+05 -2.866680E+06  1.825984E+04 -1.763244E+04
        53   4 -7.980097E+06 -1.161977E+06 -6.303664E+03 -3.045611E+06  5.418312E+03 -1.284409E+04
        53   5 -8.009946E+06 -1.131609E+06 -8.031926E+03 -3.011018E+06  1.111206E+04 -1.581135E+04
        53   6 -7.980328E+06 -1.163372E+06 -1.318671E+04 -3.045104E+06  1.661512E+04 -1.825087E+04
        53   7 -8.439310E+06 -1.335104E+06 -1.296653E+05 -3.169640E+06  3.314968E+03 -1.363127E+04
        53   8 -8.567625E+06 -1.342240E+06 -1.573945E+05 -3.162157E+06  9.239418E+03 -1.651379E+04
        53   9 -8.636510E+06 -1.411560E+06 -1.887384E+05 -3.223355E+06  1.497234E+04 -1.886857E+04
        53  10 -7.520679E+06 -9.888396E+05  1.170385E+05 -2.921499E+06  1.982672E-09 -1.138081E-09
        53  11 -7.451963E+06 -9.209605E+05  1.413022E+05 -2.859754E+06  3.455482E-09 -9.565784E-10
        53  12 -7.323725E+06 -9.151599E+05  1.623257E+05 -2.866679E+06 -7.550286E-10 -7.687310E-10
        53  13 -7.980097E+06 -1.161978E+06 -6.304028E+03 -3.045611E+06  1.220748E-09 -1.979104E-09
        53  14 -8.009946E+06 -1.131609E+06 -8.032626E+03 -3.011018E+06 -1.169077E-09 -5.614855E-09
        53  15 -7.980329E+06 -1.163373E+06 -1.318785E+04 -3.045104E+06  7.443026E-10  7.192919E-10
        53  16 -8.439310E+06 -1.335104E+06 -1.296656E+05 -3.169639E+06  2.427442E-09 -9.443826E-10
        53  17 -8.567626E+06 -1.342240E+06 -1.573952E+05 -3.162157E+06 -4.575606E-09 -3.124346E-09
        53  18 -8.636510E+06 -1.411560E+06 -1.887395E+05 -3.223355E+06  4.340165E-09 -1.246203E-10
        53  19 -7.520679E+06 -9.888394E+05  1.170389E+05 -2.921499E+06 -7.523383E+03  1.205627E+04
        53  20 -7.451963E+06 -9.209602E+05  1.413029E+05 -2.859754E+06 -1.298657E+04  1.510821E+04
        53  21 -7.323725E+06 -9.151595E+05  1.623269E+05 -2.866680E+06 -1.825984E+04  1.763244E+04
        53  22 -7.980097E+06 -1.161977E+06 -6.303664E+03 -3.045611E+06 -5.418312E+03  1.284409E+04
        53  23 -8.009946E+06 -1.131609E+06 -8.031926E+03 -3.011018E+06 -1.111206E+04  1.581135E+04
        53  24 -7.980328E+06 -1.163372E+06 -1.318671E+04 -3.045104E+06 -1.661512E+04  1.825087E+04
        53  25 -8.439310E+06 -1.335104E+06 -1.296653E+05 -3.169640E+06 -3.314968E+03  1.363127E+04
        53  26 -8.567625E+06 -1.342240E+06 -1.573945E+05 -3.162157E+06 -9.239418E+03  1.651379E+04
        53  27 -8.636510E+06 -1.411560E+06 -1.887384E+05 -3.223355E+06 -1.497234E+04  1.886857E+04
        54   1 -7.196566E+06 -8.605191E+05  1.944933E+05 -2.828351E+06  2.147752E+04 -1.887352E+04
        54   2 -7.150679E+06 -8.124651E+05  1.991540E+05 -2.785255E+06  3.708045E+04 -1.662393E+04
        54   3 -7.071331E+06 -8.195422E+05  1.891160E+05 -2.784005E+06  5.233574E+04 -1.342716E+04
        54   4 -7.985513E+06 -1.157145E+06 -1.675218E+04 -3.040928E+06  1.985060E+04 -1.948645E+04
        54   5 -8.003120E+06 -1.135589E+06 -2.920501E+04 -3.017750E+06  3.585425E+04 -1.708811E+04
        54   6 -7.987359E+06 -1.169264E+06 -5.669335E+04 -3.036422E+06  5.150840E+04 -1.374268E+04
        54   7 -8.773850E+06 -1.453735E+06 -2.280521E+05 -3.253256E+06  1.822599E+04 -2.009854E+04
        54   8 -8.854850E+06 -1.458669E+06 -2.576283E+05 -3.249951E+06  3.462989E+04 -1.755159E+04
        54   9 -8.902568E+06 -1.518933E+06 -3.025779E+05 -3.288496E+06  5.068237E+04 -1.405770E+04
        54  10 -7.196566E+06 -8.605196E+05  1.944917E+05 -2.828351E+06  2.056653E-09  2.408432E-09
        54  11 -7.150680E+06 -8.124658E+05  1.991508E+05 -2.785255E+06 -2.153327E-09  1.869293E-09
        54  12 -7.071334E+06 -8.195432E+05  1.891104E+05 -2.784005E+06  2.490117E-09 -2.702528E-09
        54  13 -7.985514E+06 -1.157146E+06 -1.675363E+04 -3.040927E+06 -1.311576E-09  1.670727E-09
        54  14 -8.003121E+06 -1.135590E+06 -2.920799E+04 -3.017749E+06 -2.471596E-09  8.742665E-10
        54  15 -7.987362E+06 -1.169265E+06 -5.669874E+04 -3.036421E+06  3.183475E-09 -2.608546E-09
        54  16 -8.773851E+06 -1.453735E+06 -2.280535E+05 -3.253256E+06  1.330062E-09  1.126040E-09
        54  17 -8.854851E+06 -1.458670E+06 -2.576312E+05 -3.249951E+06  2.110952E-09  7.050436E-10
        54  18 -8.902571E+06 -1.518933E+06 -3.025832E+05 -3.288496E+06 -2.058300E-09  9.260304E-11
        54  19 -7.196566E+06 -8.605191E+05  1.944933E+05 -2.828351E+06 -2.147752E+04  1.887352E+04
        54  20 -7.150679E+06 -8.124651E+05  1.991540E+05 -2.785255E+06 -3.708045E+04  1.662393E+04
        54  21 -7.071331E+06 -8.195422E+05  1.891160E+05 -2.784005E+06 -5.233574E+04  1.342716E+04
        54  22 -7.985513E+06 -1.157145E+06 -1.675218E+04 -3.040928E+06 -1.985060E+04  1.948645E+04
        54  23 -8.003120E+06 -1.135589E+06 -2.920501E+04 -3.017750E+06 -3.585425E+04  1.708811E+04
        54  24 -7.987359E+06 -1.169264E+06 -5.669335E+04 -3.036422E+06 -5.150840E+04  1.374268E+04
        54  25 -8.773850E+06 -1.453735E+06 -2.280521E+05 -3.253256E+06 -1.822599E+04  2.009854E+04
        54  26 -8.854850E+06 -1.458669E+06 -2.576283E+05 -3.249951E+06 -3.462989E+04  1.755159E+04
        54  27 -8.902568E+06 -1.518933E+06 -3.025779E+05 -3.288496E+06 -5.068237E+04  1.405770E+04
        55   1 -7.002149E+06 -7.836026E+05  1.921606E+05 -2.780422E+06  6.361142E+04 -1.072726E+04
        55   2 -6.981849E+06 -7.394471E+05  1.445207E+05 -2.746961E+06  1.282003E+05  1.218875E+04
        55   3 -7.006396E+06 -8.428786E+05  1.228439E+04 -2.694166E+06  1.917438E+05  3.786923E+04
        55   4 -7.998776E+06 -1.148059E+06 -7.241607E+04 -3.038600E+06  6.237011E+04 -1.119814E+04
        55   5 -7.984129E+06 -1.127163E+06 -1.254458E+05 -3.028321E+06  1.280845E+05  1.213889E+04
        55   6 -8.014646E+06 -1.254225E+06 -2.640798E+05 -2.998689E+06  1.927518E+05  3.823673E+04
        55   7 -8.994433E+06 -1.512473E+06 -3.370789E+05 -3.296406E+06  6.113095E+04 -1.166828E+04
        55   8 -8.985423E+06 -1.514807E+06 -3.955019E+05 -3.309260E+06  1.279687E+05  1.208905E+04
        55   9 -9.021895E+06 -1.665463E+06 -5.405370E+05 -3.302742E+06  1.937577E+05  3.860332E+04
        55  10 -7.002153E+06 -7.836038E+05  1.921527E+05 -2.780421E+06  5.700789E-10  9.308361E-10
        55  11 -6.981867E+06 -7.394517E+05  1.444891E+05 -2.746962E+06 -1.302180E-09  4.749089E-09
        55  12 -7.006436E+06 -8.428902E+05  1.221170E+04 -2.694172E+06  4.224323E-09 -1.458783E-11
        55  13 -7.998780E+06 -1.148061E+06 -7.242369E+04 -3.038599E+06 -3.055468E-09 -2.003802E-09
        55  14 -7.984147E+06 -1.127168E+06 -1.254774E+05 -3.028322E+06 -2.268257E-10 -2.591050E-10
        55  15 -8.014687E+06 -1.254237E+06 -2.641535E+05 -2.998695E+06 -2.769404E-09  2.599384E-09
        55  16 -8.994437E+06 -1.512474E+06 -3.370863E+05 -3.296405E+06 -7.872276E-11  6.283657E-10
        55  17 -8.985441E+06 -1.514811E+06 -3.955334E+05 -3.309261E+06 -4.450296E-09 -1.155614E-10
        55  18 -9.021936E+06 -1.665475E+06 -5.406116E+05 -3.302748E+06 -4.949878E-09  1.385622E-09
        55  19 -7.002149E+06 -7.836026E+05  1.921606E+05 -2.780422E+06 -6.361142E+04  1.072726E+04
        55  20 -6.981849E+06 -7.394471E+05  1.445207E+05 -2.746961E+06 -1.282003E+05 -1.218875E+04
        55  21 -7.006396E+06 -8.428786E+05  1.228439E+04 -2.694166E+06 -1.917438E+05 -3.786923E+04
        55  22 -7.998776E+06 -1.148059E+06 -7.241607E+04 -3.038600E+06 -6.237011E+04  1.119814E+04
        55  23 -7.984129E+06 -1.127163E+06 -1.254458E+05 -3.028321E+06 -1.280845E+05 -1.213889E+04
        55  24 -8.014646E+06 -1.254225E+06 -2.640798E+05 -2.998689E+06 -1.927518E+05 -3.823673E+04
        55  25 -8.994433E+06 -1.512473E+06 -3.370789E+05 -3.296406E+06 -6.113095E+04  1.166828E+04
        55  26 -8.985423E+06 -1.514807E+06 -3.955019E+05 -3.309260E+06 -1.279687E+05 -1.208905E+04
        55  27 -9.021895E+06 -1.665463E+06 -5.405370E+05 -3.302742E+06 -1.937577E+05 -3.860332E+04
        56   1 -6.954296E+06 -8.051165E+05 -4.969681E+04 -2.882189E+06  2.443932E+05  5.453891E+04
        56   2 -6.938144E+06 -5.633377E+05 -2.659774E+05 -2.721929E+06  5.258065E+05  1.627716E+05
        56   3 -7.421885E+06 -1.481278E+06 -1.016778E+06 -2.233435E+06  7.988471E+05  2.930101E+05
        56   4 -8.062119E+06 -1.111843E+06 -3.241400E+05 -3.069449E+06  2.397463E+05  5.282509E+04
        56   5 -7.880569E+06 -9.972147E+05 -5.329308E+05 -3.056808E+06  5.304625E+05  1.644602E+05
        56   6 -8.201587E+06 -2.045421E+06 -1.284321E+06 -2.715652E+06  8.128765E+05  2.979292E+05
        56   7 -9.168728E+06 -1.418601E+06 -5.986686E+05 -3.256467E+06  2.351082E+05  5.111254E+04
        56   8 -8.822102E+06 -1.430907E+06 -7.999684E+05 -3.391178E+06  5.351101E+05  1.661440E+05
        56   9 -8.980508E+06 -2.608868E+06 -1.551904E+06 -3.197152E+06  8.268859E+05  3.028250E+05
        56  10 -6.954361E+06 -8.051360E+05 -4.981616E+04 -2.882200E+06 -2.036001E-09  8.347935E-10
        56  11 -6.938451E+06 -5.634419E+05 -2.665543E+05 -2.721999E+06 -2.982337E-09 -6.599282E-10
        56  12 -7.422600E+06 -1.481546E+06 -1.018156E+06 -2.233625E+06 -2.407163E-09 -1.075595E-09
        56  13 -8.062183E+06 -1.111861E+06 -3.242549E+05 -3.069460E+06 -1.109663E-09 -1.222819E-09
        56  14 -7.880882E+06 -9.973211E+05 -5.335191E+05 -3.056879E+06 -5.519835E-09 -5.432246E-09
        56  15 -8.202329E+06 -2.045698E+06 -1.285751E+06 -2.715849E+06  6.591822E-09 -1.159529E-09
        56  16 -9.168789E+06 -1.418619E+06 -5.987792E+05 -3.256477E+06 -5.677170E-10 -2.685973E-09
        56  17 -8.822421E+06 -1.431015E+06 -8.005682E+05 -3.391250E+06  3.057085E-09 -7.227600E-09
        56  18 -8.981277E+06 -2.609155E+06 -1.553386E+06 -3.197356E+06  2.629794E-09 -2.668739E-09
        56  19 -6.954296E+06 -8.051165E+05 -4.969681E+04 -2.882189E+06 -2.443932E+05 -5.453891E+04
        56  20 -6.938144E+06 -5.633377E+05 -2.659774E+05 -2.721929E+06 -5.258065E+05 -1.627716E+05
        56  21 -7.421885E+06 -1.481278E+06 -1.016778E+06 -2.233435E+06 -7.988471E+05 -2.930101E+05
        56  22 -8.062119E+06 -1.111843E+06 -3.241400E+05 -3.069449E+06 -2.397463E+05 -5.282509E+04
        56  23 -7.880569E+06 -9.972147E+05 -5.329308E+05 -3.056808E+06 -5.304625E+05 -1.644602E+05
        56  24 -8.201587E+06 -2.045421E+06 -1.284321E+06 -2.715652E+06 -8.128765E+05 -2.979292E+05
        56  25 -9.168728E+06 -1.418601E+06 -5.986686E+05 -3.256467E+06 -2.351082E+05 -5.111254E+04
        56  26 -8.822102E+06 -1.430907E+06 -7.999684E+05 -3.391178E+06 -5.351101E+05 -1.661440E+05
        56  27 -8.980508E+06 -2.608868E+06 -1.551904E+06 -3.197152E+06 -8.268859E+05 -3.028250E+05
        57   1 -1.385798E+06 -2.084171E+05 -1.662244E+05 -4.513242E+03  1.045443E+05  1.423701E+04
        57   2 -1.329880E+06 -3.529125E+05 -2.404274E+05 -2.573014E+03  7.578749E+04  4.170018E+04
        57   3 -1.222643E+06 -3.186039E+05 -2.506535E+05 -6.407620E+04  4.716380E+04  3.898994E+04
        57   4  2.884919E+04  1.441618E+05  1.833197E+05 -4.319187E+04  1.251953E+05  1.432610E+04
        57   5  1.997959E+03 -2.236444E+04  7.984123E+04 -1.113478E+04  8.189586E+04  4.171693E+04
        57   6  2.887960E+04 -7.768029E+03  5.033829E+04 -4.251021E+04  3.873437E+04  3.896018E+04
        57   7  1.445323E+06  4.965977E+05  5.327179E+05 -8.196099E+04  1.458933E+05  1.441251E+04
        57   8  1.335502E+06  3.080548E+05  3.999838E+05 -1.971660E+04  8.801715E+04  4.173349E+04
        57   9  1.281838E+06  3.029553E+05  3.512190E+05 -2.090157E+04  3.028793E+04  3.892987E+04
        57  10 -1.385810E+06 -2.084203E+05 -1.662454E+05 -4.514441E+03 -5.177632E-10  2.111935E-09
        57  11 -1.329887E+06 -3.529159E+05 -2.404414E+05 -2.575561E+03  2.181178E-09 -5.880528E-10
        57  12 -1.222646E+06 -3.186062E+05 -2.506605E+05 -6.407768E+04  1.593205E-09 -6.530255E-10
        57  13  2.883231E+04  1.441573E+05  1.832899E+05 -4.319331E+04 -1.327378E-09  7.596226E-10
        57  14  1.990290E+03 -2.236811E+04  7.982536E+04 -1.113753E+04 -3.214290E-09 -4.806012E-09
        57  15  2.887758E+04 -7.770062E+03  5.033262E+04 -4.251143E+04  5.270691E-10 -2.627013E-10
        57  16  1.445300E+06  4.965918E+05  5.326776E+05 -8.196268E+04  1.136415E-09 -6.440158E-10
        57  17  1.335494E+06  3.080509E+05  3.999660E+05 -1.971956E+04 -1.049351E-09 -1.135830E-09
        57  18  1.281837E+06  3.029535E+05  3.512144E+05 -2.090251E+04 -5.968020E-10 -1.455975E-09
        57  19 -1.385798E+06 -2.084171E+05 -1.662244E+05 -4.513242E+03 -1.045443E+05 -1.423701E+04
        57  20 -1.329880E+06 -3.529125E+05 -2.404274E+05 -2.573014E+03 -7.578749E+04 -4.170018E+04
        57  21 -1.222643E+06 -3.186039E+05 -2.506535E+05 -6.407620E+04 -4.716380E+04 -3.898994E+04
        57  22  2.884919E+04  1.441618E+05  1.833197E+05 -4.319187E+04 -1.251953E+05 -1.432610E+04
        57  23  1.997959E+03 -2.236444E+04  7.984123E+04 -1.113478E+04 -8.189586E+04 -4.171693E+04
        57  24  2.887960E+04 -7.768029E+03  5.033829E+04 -4.251021E+04 -3.873437E+04 -3.896018E+04
        57  25  1.445323E+06  4.965977E+05  5.327179E+05 -8.196099E+04 -1.458933E+05 -1.441251E+04
        57  26  1.335502E+06  3.080548E+05  3.999838E+05 -1.971660E+04 -8.801715E+04 -4.173349E+04
        57  27  1.281838E+06  3.029553E+05  3.512190E+05 -2.090157E+04 -3.028793E+04 -3.892987E+04
        58   1 -1.117433E+06 -2.669467E+05 -2.329527E+05 -4.074844E+04  3.065454E+04  3.272689E+04
        58   2 -1.040381E+06 -2.646978E+05 -2.333382E+05 -1.154369E+04  2.118663E+04  3.189854E+04
        58   3 -9.555023E+05 -2.429353E+05 -2.223159E+05 -4.578937E+04  1.171679E+04  2.869455E+04
        58   4  1.879815E+04  1.523760E+04  4.108361E+04 -4.274229E+04  3.087709E+04  3.272334E+04
        58   5  1.480641E+04 -2.728890E+03  2.066505E+04 -1.100081E+04  2.025312E+04  3.189307E+04
        58   6  1.882729E+04 -9.982482E+02  1.244302E+04 -4.270272E+04  9.628472E+03  2.868888E+04
        58   7  1.156212E+06  2.973276E+05  3.150276E+05 -4.474056E+04  3.110002E+04  3.271980E+04
        58   8  1.071014E+06  2.591589E+05  2.745889E+05 -1.045749E+04  1.931801E+04  3.188760E+04
        58   9  9.940262E+05  2.408696E+05  2.471342E+05 -3.961147E+04  7.536879E+03  2.868320E+04
        58  10 -1.117435E+06 -2.669481E+05 -2.329565E+05 -4.074925E+04  5.969229E-10 -2.306807E-09
        58  11 -1.040382E+06 -2.646990E+05 -2.333409E+05 -1.154424E+04 -3.132291E-10  1.537088E-09
        58  12 -9.555026E+05 -2.429363E+05 -2.223177E+05 -4.578964E+04  1.366551E-09 -1.651794E-09
        58  13  1.879683E+04  1.523619E+04  4.107980E+04 -4.274311E+04 -2.882721E-09 -1.134536E-09
        58  14  1.480570E+04 -2.730092E+03  2.066237E+04 -1.100133E+04 -5.557640E-10 -3.381604E-10
        58  15  1.882697E+04 -9.991569E+02  1.244130E+04 -4.270295E+04 -2.926141E-09 -1.474946E-09
        58  16  1.156210E+06  2.973262E+05  3.150238E+05 -4.474138E+04  3.275182E-09  9.068877E-10
        58  17  1.071013E+06  2.591577E+05  2.745863E+05 -1.045799E+04 -2.459988E-09 -3.036917E-09
        58  18  9.940259E+05  2.408687E+05  2.471326E+05 -3.961165E+04 -2.353542E-10 -2.270739E-10
        58  19 -1.117433E+06 -2.669467E+05 -2.329527E+05 -4.074844E+04 -3.065454E+04 -3.272689E+04
        58  20 -1.040381E+06 -2.646978E+05 -2.333382E+05 -1.154369E+04 -2.118663E+04 -3.189854E+04
        58  21 -9.555023E+05 -2.429353E+05 -2.223159E+05 -4.578937E+04 -1.171679E+04 -2.869455E+04
        58  22  1.879815E+04  1.523760E+04  4.108361E+04 -4.274229E+04 -3.087709E+04 -3.272334E+04
        58  23  1.480641E+04 -2.728890E+03  2.066505E+04 -1.100081E+04 -2.025312E+04 -3.189307E+04
        58  24  1.882729E+04 -9.982482E+02  1.244302E+04 -4.270272E+04 -9.628472E+03 -2.868888E+04
        58  25  1.156212E+06  2.973276E+05  3.150276E+05 -4.474056E+04 -3.110002E+04 -3.271980E+04
        58  26  1.071014E+06  2.591589E+05  2.745889E+05 -1.045749E+04 -1.931801E+04 -3.188760E+04
        58  27  9.940262E+05  2.408696E+05  2.471342E+05 -3.961147E+04 -7.536879E+03 -2.868320E+04
        59   1 -8.415685E+05 -2.118057E+05 -1.968902E+05 -4.303713E+04  9.066021E+03  2.646687E+04
        59   2 -7.615534E+05 -1.935905E+05 -1.821238E+05 -1.127629E+04  6.546243E+03  2.342545E+04
        59   3 -6.798360E+05 -1.732661E+05 -1.650111E+05 -4.295196E+04  4.020757E+03  2.019834E+04
        59   4  1.748677E+04  1.411776E+03  9.711957E+03 -4.271258E+04  7.660413E+03  2.646308E+04
        59   5  1.664257E+04 -4.172936E+02  5.193236E+03 -1.099611E+04  5.048243E+03  2.342275E+04
        59   6  1.750845E+04 -1.222704E+02  3.082897E+03 -4.271123E+04  2.430689E+03  2.019685E+04
        59   7  8.772181E+05  2.145755E+05  2.162616E+05 -4.238773E+04  6.252860E+03  2.645929E+04
        59   8  7.953931E+05  1.927118E+05  1.924671E+05 -1.071564E+04  3.548368E+03  2.342005E+04
        59   9  7.152981E+05  1.729861E+05  1.711421E+05 -4.247021E+04  8.388393E+02  2.019537E+04
        59  10 -8.415688E+05 -2.118065E+05 -1.968917E+05 -4.303732E+04  6.060889E-10 -4.678468E-10
        59  11 -7.615536E+05 -1.935911E+05 -1.821249E+05 -1.127641E+04  1.917107E-09  9.433691E-10
        59  12 -6.798362E+05 -1.732665E+05 -1.650119E+05 -4.295203E+04  9.017345E-10  8.110011E-10
        59  13  1.748652E+04  1.411008E+03  9.710531E+03 -4.271275E+04 -2.856726E-10 -1.154214E-09
        59  14  1.664240E+04 -4.178896E+02  5.192157E+03 -1.099621E+04 -1.228205E-09  1.499836E-10
        59  15  1.750833E+04 -1.227101E+02  3.082120E+03 -4.271127E+04 -3.513950E-09  8.410533E-10
        59  16  8.772179E+05  2.145747E+05  2.162602E+05 -4.238786E+04 -2.202487E-09 -1.149810E-09
        59  17  7.953929E+05  1.927112E+05  1.924661E+05 -1.071571E+04 -4.162911E-09 -9.013925E-10
        59  18  7.152980E+05  1.729856E+05  1.711414E+05 -4.247022E+04 -3.799722E-09  1.121152E-09
        59  19 -8.415685E+05 -2.118057E+05 -1.968902E+05 -4.303713E+04 -9.066021E+03 -2.646687E+04
        59  20 -7.615534E+05 -1.935905E+05 -1.821238E+05 -1.127629E+04 -6.546243E+03 -2.342545E+04
        59  21 -6.798360E+05 -1.732661E+05 -1.650111E+05 -4.295196E+04 -4.020757E+03 -2.019834E+04
        59  22  1.748677E+04  1.411776E+03  9.711957E+03 -4.271258E+04 -7.660413E+03 -2.646308E+04
        59  23  1.664257E+04 -4.172936E+02  5.193236E+03 -1.099611E+04 -5.048243E+03 -2.342275E+04
        59  24  1.750845E+04 -1.222704E+02  3.082897E+03 -4.271123E+04 -2.430689E+03 -2.019685E+04
        59  25  8.772181E+05  2.145755E+05  2.162616E+05 -4.238773E+04 -6.252860E+03 -2.645929E+04
        59  26  7.953931E+05  1.927118E+05  1.924671E+05 -1.071564E+04 -3.548368E+03 -2.342005E+04
        59  27  7.152981E+05  1.729861E+05  1.711421E+05 -4.247021E+04 -8.388393E+02 -2.019537E+04
        60   1 -5.648668E+05 -1.443480E+05 -1.375300E+05 -4.261494E+04  3.476421E+03  1.829198E+04
        60   2 -4.842275E+05 -1.244888E+05 -1.193974E+05 -1.083932E+04  2.859174E+03  1.507962E+04
        60   3 -4.031961E+05 -1.043447E+05 -1.007428E+05 -4.245217E+04  2.238266E+03  1.185392E+04
        60   4  1.725635E+04  8.786584E+01  2.332496E+03 -4.270129E+04  1.939844E+03  1.829122E+04
        60   5  1.706972E+04 -7.137725E+01  1.249525E+03 -1.100863E+04  1.315574E+03  1.507963E+04
        60   6  1.727031E+04  5.579307E+01  6.935712E+02 -4.270128E+04  6.877231E+02  1.185474E+04
        60   7  5.996899E+05  1.444991E+05  1.421710E+05 -4.278770E+04  4.018314E+02  1.829045E+04
        60   8  5.185970E+05  1.243277E+05  1.218786E+05 -1.117805E+04 -2.292684E+02  1.507965E+04
        60   9  4.378985E+05  1.044434E+05  1.021173E+05 -4.295053E+04 -8.638670E+02  1.185556E+04
        60  10 -5.648669E+05 -1.443484E+05 -1.375307E+05 -4.261499E+04  1.244006E-09  5.480617E-10
        60  11 -4.842276E+05 -1.244890E+05 -1.193979E+05 -1.083935E+04 -3.970297E-11  1.208304E-09
        60  12 -4.031961E+05 -1.043449E+05 -1.007430E+05 -4.245219E+04 -4.214671E-10  8.070094E-11
        60  13  1.725626E+04  8.750556E+01  2.331861E+03 -4.270132E+04  3.508468E-11  1.234382E-09
        60  14  1.706966E+04 -7.162190E+01  1.249095E+03 -1.100865E+04  7.668332E-09 -5.342930E-10
        60  15  1.727027E+04  5.564203E+01  6.933062E+02 -4.270129E+04 -1.749128E-09 -1.186193E-09
        60  16  5.996898E+05  1.444988E+05  1.421703E+05 -4.278770E+04 -1.057139E-09  1.193930E-09
        60  17  5.185969E+05  1.243275E+05  1.218782E+05 -1.117805E+04  1.596989E-10 -2.744440E-10
        60  18  4.378984E+05  1.044433E+05  1.021170E+05 -4.295052E+04  6.138381E-10 -1.569701E-09
        60  19 -5.648668E+05 -1.443480E+05 -1.375300E+05 -4.261494E+04 -3.476421E+03 -1.829198E+04
        60  20 -4.842275E+05 -1.244888E+05 -1.193974E+05 -1.083932E+04 -2.859174E+03 -1.507962E+04
        60  21 -4.031961E+05 -1.043447E+05 -1.007428E+05 -4.245217E+04 -2.238266E+03 -1.185392E+04
        60  22  1.725635E+04  8.786584E+01  2.332496E+03 -4.270129E+04 -1.939844E+03 -1.829122E+04
        60  23  1.706972E+04 -7.137725E+01  1.249525E+03 -1.100863E+04 -1.315574E+03 -1.507963E+04
        60  24  1.727031E+04  5.579307E+01  6.935712E+02 -4.270128E+04 -6.877231E+02 -1.185474E+04
        60  25  5.996899E+05  1.444991E+05  1.421710E+05 -4.278770E+04 -4.018314E+02 -1.829045E+04
        60  26  5.185970E+05  1.243277E+05  1.218786E+05 -1.117805E+04  2.292684E+02 -1.507965E+04
        60  27  4.378985E+05  1.044434E+05  1.021173E+05 -4.295053E+04  8.638670E+02 -1.185556E+04
        61   1 -2.880870E+05 -7.565183E+04 -7.274918E+04 -4.248958E+04  2.127808E+03  9.973112E+03
        61   2 -2.072284E+05 -5.568161E+04 -5.388128E+04 -1.084196E+04  2.057744E+03  6.748830E+03
        61   3 -1.264387E+05 -3.560964E+04 -3.496654E+04 -4.255503E+04  1.986079E+03  3.531155E+03
        61   4  1.719151E+04  5.719101E+01  4.658245E+02 -4.269550E+04  5.791934E+02  9.974342E+03
        61   5  1.723173E+04  1.824668E+01  1.306077E+02 -1.101585E+04  5.121768E+02  6.750399E+03
        61   6  1.719776E+04  8.128382E+01 -1.592334E+02 -4.269549E+04  4.435672E+02  3.533087E+03
        61   7  3.225554E+05  7.575944E+04  7.367423E+04 -4.290149E+04 -9.701796E+02  9.975572E+03
        61   8  2.417380E+05  5.571443E+04  5.413891E+04 -1.118980E+04 -1.033947E+03  6.751970E+03
        61   9  1.608531E+05  3.577069E+04  3.464659E+04 -4.283597E+04 -1.099300E+03  3.535018E+03
        61  10 -2.880870E+05 -7.565194E+04 -7.274937E+04 -4.248960E+04 -1.252710E-09 -7.843764E-11
        61  11 -2.072285E+05 -5.568166E+04 -5.388137E+04 -1.084197E+04  1.130310E-09  2.736382E-10
        61  12 -1.264387E+05 -3.560965E+04 -3.496657E+04 -4.255504E+04 -2.376677E-09 -1.043818E-09
        61  13  1.719148E+04  5.708409E+01  4.656370E+02 -4.269550E+04 -1.912969E-09  6.837127E-10
        61  14  1.723172E+04  1.819768E+01  1.305216E+02 -1.101586E+04  1.356861E-09  2.011673E-09
        61  15  1.719775E+04  8.127036E+01 -1.592573E+02 -4.269549E+04  3.440573E-09 -2.440412E-09
        61  16  3.225554E+05  7.575934E+04  7.367404E+04 -4.290148E+04  6.280501E-10 -2.738847E-10
        61  17  2.417380E+05  5.571438E+04  5.413882E+04 -1.118979E+04  3.192116E-09  1.688308E-09
        61  18  1.608531E+05  3.577068E+04  3.464657E+04 -4.283596E+04  2.421688E-09 -4.308616E-10
        61  19 -2.880870E+05 -7.565183E+04 -7.274918E+04 -4.248958E+04 -2.127808E+03 -9.973112E+03
        61  20 -2.072284E+05 -5.568161E+04 -5.388128E+04 -1.084196E+04 -2.057744E+03 -6.748830E+03
        61  21 -1.264387E+05 -3.560964E+04 -3.496654E+04 -4.255503E+04 -1.986079E+03 -3.531155E+03
        61  22  1.719151E+04  5.719101E+01  4.658245E+02 -4.269550E+04 -5.791934E+02 -9.974342E+03
        61  23  1.723173E+04  1.824668E+01  1.306077E+02 -1.101585E+04 -5.121768E+02 -6.750399E+03
        61  24  1.719776E+04  8.128382E+01 -1.592334E+02 -4.269549E+04 -4.435672E+02 -3.533087E+03
        61  25  3.225554E+05  7.575944E+04  7.367423E+04 -4.290149E+04  9.701796E+02 -9.975572E+03
        61  26  2.417380E+05  5.571443E+04  5.413891E+04 -1.118980E+04  1.033947E+03 -6.751970E+03
        61  27  1.608531E+05  3.577069E+04  3.464659E+04 -4.283597E+04  1.099300E+03 -3.535018E+03
        62   1 -1.128612E+04 -6.892665E+03 -6.914033E+03 -4.271452E+04  2.052303E+03  1.640332E+03
        62   2  6.968276E+04  1.306895E+04  1.189337E+04 -1.106073E+04  2.359753E+03 -1.582564E+03
        62   3  1.503819E+05  3.284154E+04  3.041189E+04 -4.276067E+04  2.667731E+03 -4.710306E+03
        62   4  1.715656E+04  1.151895E+02 -3.168528E+02 -4.269421E+04  4.826176E+02  1.642396E+03
        62   5  1.729829E+04  7.216610E+01 -7.084857E+02 -1.101735E+04  8.356061E+02 -1.580653E+03
        62   6  1.715511E+04 -1.676781E+02 -1.420603E+03 -4.269457E+04  1.189083E+03 -4.708522E+03
        62   7  4.559999E+04  7.122988E+03  6.280283E+03 -4.267390E+04 -1.087139E+03  1.644460E+03
        62   8 -3.508367E+04 -1.292482E+04 -1.331053E+04 -1.097398E+04 -6.884130E+02 -1.578742E+03
        62   9 -1.160554E+05 -3.317818E+04 -3.325434E+04 -4.262847E+04 -2.892490E+02 -4.706738E+03
        62  10 -1.128613E+04 -6.892669E+03 -6.914046E+03 -4.271452E+04 -1.233324E-09  3.943569E-10
        62  11  6.968276E+04  1.306895E+04  1.189335E+04 -1.106072E+04  4.861695E-10 -2.010038E-10
        62  12  1.503819E+05  3.284151E+04  3.041184E+04 -4.276066E+04 -3.591436E-10 -2.142453E-10
        62  13  1.715656E+04  1.151866E+02 -3.168583E+02 -4.269421E+04  2.490709E-09 -1.763840E-09
        62  14  1.729829E+04  7.216323E+01 -7.084917E+02 -1.101735E+04  3.312363E-10 -1.530869E-09
        62  15  1.715510E+04 -1.677022E+02 -1.420648E+03 -4.269456E+04  2.347388E-09  2.625264E-10
        62  16  4.559999E+04  7.122985E+03  6.280275E+03 -4.267390E+04  5.901863E-09  4.933710E-10
        62  17 -3.508367E+04 -1.292482E+04 -1.331053E+04 -1.097398E+04  1.036294E-10 -1.547425E-09
        62  18 -1.160554E+05 -3.317820E+04 -3.325438E+04 -4.262847E+04  2.004602E-10 -6.298487E-10
        62  19 -1.128612E+04 -6.892665E+03 -6.914033E+03 -4.271452E+04 -2.052303E+03 -1.640332E+03
        62  20  6.968276E+04  1.306895E+04  1.189337E+04 -1.106073E+04 -2.359753E+03  1.582564E+03
        62  21  1.503819E+05  3.284154E+04  3.041189E+04 -4.276067E+04 -2.667731E+03  4.710306E+03
        62  22  1.715656E+04  1.151895E+02 -3.168528E+02 -4.269421E+04 -4.826176E+02 -1.642396E+03
        62  23  1.729829E+04  7.216610E+01 -7.084857E+02 -1.101735E+04 -8.356061E+02  1.580653E+03
        62  24  1.715511E+04 -1.676781E+02 -1.420603E+03 -4.269457E+04 -1.189083E+03  4.708522E+03
        62  25  4.559999E+04  7.122988E+03  6.280283E+03 -4.267390E+04  1.087139E+03 -1.644460E+03
        62  26 -3.508367E+04 -1.292482E+04 -1.331053E+04 -1.097398E+04  6.884130E+02  1.578742E+03
        62  27 -1.160554E+05 -3.317818E+04 -3.325434E+04 -4.262847E+04  2.892490E+02  4.706738E+03
        63   1  2.654574E+05  6.190162E+04  5.816507E+04 -4.324377E+04  3.298409E+03 -6.760380E+03
        63   2  3.467527E+05  8.205098E+04  7.606274E+04 -1.108523E+04  4.322437E+03 -9.958630E+03
        63   3  4.272148E+05  9.941387E+04  9.259305E+04 -4.226438E+04  5.349740E+03 -1.194936E+04
        63   4  1.699698E+04  2.179973E+02 -1.828452E+03 -4.269047E+04  1.472821E+03 -6.758397E+03
        63   5  1.746258E+04  3.687259E+02 -3.131130E+03 -1.102161E+04  3.075873E+03 -9.957796E+03
        63   6  1.698786E+04 -2.368014E+03 -6.203537E+03 -4.269259E+04  4.682069E+03 -1.194937E+04
        63   7 -2.314070E+05 -6.147013E+04 -6.182638E+04 -4.213738E+04 -3.520396E+02 -6.756417E+03
        63   8 -3.117283E+05 -8.132142E+04 -8.233271E+04 -1.095800E+04  1.829967E+03 -9.956962E+03
        63   9 -3.930852E+05 -1.041622E+05 -1.050121E+05 -4.312048E+04  4.014835E+03 -1.194938E+04
        63  10  2.654574E+05  6.190157E+04  5.816496E+04 -4.324375E+04 -4.235303E-09 -1.524530E-09
        63  11  3.467526E+05  8.205087E+04  7.606251E+04 -1.108520E+04  3.037848E-11  6.012723E-10
        63  12  4.272148E+05  9.941371E+04  9.259273E+04 -4.226433E+04  8.057557E-10 -5.008239E-11
        63  13  1.699697E+04  2.179476E+02 -1.828542E+03 -4.269046E+04  2.937457E-10  1.409309E-10
        63  14  1.746254E+04  3.686169E+02 -3.131334E+03 -1.102159E+04  2.422972E-10  6.507646E-10
        63  15  1.698780E+04 -2.368174E+03 -6.203846E+03 -4.269254E+04  2.535366E-09  7.851025E-11
        63  16 -2.314070E+05 -6.147018E+04 -6.182647E+04 -4.213738E+04  4.093442E-09  5.553412E-10
        63  17 -3.117283E+05 -8.132153E+04 -8.233290E+04 -1.095799E+04  9.115204E-10  1.767806E-09
        63  18 -3.930853E+05 -1.041623E+05 -1.050124E+05 -4.312044E+04 -1.639297E-09 -4.548414E-10
        63  19  2.654574E+05  6.190162E+04  5.816507E+04 -4.324377E+04 -3.298409E+03  6.760380E+03
        63  20  3.467527E+05  8.205098E+04  7.606274E+04 -1.108523E+04 -4.322437E+03  9.958630E+03
        63  21  4.272148E+05  9.941387E+04  9.259305E+04 -4.226438E+04 -5.349740E+03  1.194936E+04
        63  22  1.699698E+04  2.179973E+02 -1.828452E+03 -4.269047E+04 -1.472821E+03  6.758397E+03
        63  23  1.746258E+04  3.687259E+02 -3.131130E+03 -1.102161E+04 -3.075873E+03  9.957796E+03
        63  24  1.698786E+04 -2.368014E+03 -6.203537E+03 -4.269259E+04 -4.682069E+03  1.194937E+04
        63  25 -2.314070E+05 -6.147013E+04 -6.182638E+04 -4.213738E+04  3.520396E+02  6.756417E+03
        63  26 -3.117283E+05 -8.132142E+04 -8.233271E+04 -1.095800E+04 -1.829967E+03  9.956962E+03
        63  27 -3.930852E+05 -1.041622E+05 -1.050121E+05 -4.312048E+04 -4.014835E+03  1.194938E+04
        64   1  5.411713E+05  1.314958E+05  1.187796E+05 -4.568236E+04  1.091903E+04 -1.601590E+04
        64   2  6.252218E+05  1.534904E+05  1.333976E+05 -9.293687E+03  1.013797E+04 -1.889457E+04
        64   3  7.033296E+05  1.495462E+05  1.421282E+05 -3.590791E+04  9.356859E+03 -6.481636E+03
        64   4  1.555972E+04  1.133203E+03 -7.577766E+03 -4.261696E+04  5.859585E+03 -1.601373E+04
        64   5  1.916606E+04  3.216968E+03 -1.215427E+04 -1.111270E+04  1.241942E+04 -1.889625E+04
        64   6  1.554320E+04 -2.192551E+04 -2.772028E+04 -4.261560E+04  1.897913E+04 -6.480560E+03
        64   7 -5.097990E+05 -1.292494E+05 -1.339547E+05 -3.955413E+04  8.044037E+02 -1.601161E+04
        64   8 -5.865536E+05 -1.470832E+05 -1.577322E+05 -1.292991E+04  1.469866E+04 -1.889793E+04
        64   9 -6.718132E+05 -1.934323E+05 -1.976035E+05 -4.931587E+04  2.859076E+04 -6.479692E+03
        64  10  5.411711E+05  1.314955E+05  1.187789E+05 -4.568222E+04 -5.725322E-10 -3.930709E-10
        64  11  6.252216E+05  1.534900E+05  1.333968E+05 -9.293533E+03 -1.326967E-09  3.255978E-11
        64  12  7.033295E+05  1.495461E+05  1.421280E+05 -3.590786E+04  3.483122E-10  1.617979E-10
        64  13  1.555962E+04  1.132918E+03 -7.578313E+03 -4.261689E+04  1.200195E-10  4.326420E-10
        64  14  1.916580E+04  3.216544E+03 -1.215523E+04 -1.111251E+04 -1.042761E-09 -4.115563E-11
        64  15  1.554280E+04 -2.192565E+04 -2.772103E+04 -4.261550E+04  2.648214E-09 -8.734273E-12
        64  16 -5.097991E+05 -1.292497E+05 -1.339551E+05 -3.955412E+04  4.020846E-10 -8.187504E-10
        64  17 -5.865540E+05 -1.470836E+05 -1.577333E+05 -1.292968E+04 -2.109749E-10 -1.039137E-11
        64  18 -6.718141E+05 -1.934325E+05 -1.976051E+05 -4.931572E+04 -1.892569E-10  2.191867E-10
        64  19  5.411713E+05  1.314958E+05  1.187796E+05 -4.568236E+04 -1.091903E+04  1.601590E+04
        64  20  6.252218E+05  1.534904E+05  1.333976E+05 -9.293687E+03 -1.013797E+04  1.889457E+04
        64  21  7.033296E+05  1.495462E+05  1.421282E+05 -3.590791E+04 -9.356859E+03  6.481636E+03
        64  22  1.555972E+04  1.133203E+03 -7.577766E+03 -4.261696E+04 -5.859585E+03  1.601373E+04
        64  23  1.916606E+04  3.216968E+03 -1.215427E+04 -1.111270E+04 -1.241942E+04  1.889625E+04
        64  24  1.554320E+04 -2.192551E+04 -2.772028E+04 -4.261560E+04 -1.897913E+04  6.480560E+03
        64  25 -5.097990E+05 -1.292494E+05 -1.339547E+05 -3.955413E+04 -8.044037E+02  1.601161E+04
        64  26 -5.865536E+05 -1.470832E+05 -1.577322E+05 -1.292991E+04 -1.469866E+04  1.889793E+04
        64  27 -6.718132E+05 -1.934323E+05 -1.976035E+05 -4.931587E+04 -2.859076E+04  6.479692E+03
        65   1  1.095673E+06  3.586714E+06  1.054285E+06 -1.044881E+06  4.464566E+04  2.647270E+05
        65   2  7.656348E+05  2.531393E+06  6.722822E+05 -8.991342E+05  1.374887E+05  7.554226E+04
        65   3  5.069145E+05  1.517184E+06  4.305707E+05 -9.954102E+05  1.248462E+05 -1.138697E+05
        65   4  7.083102E+04 -5.557307E+05  6.836178E+04 -9.860060E+05  4.627250E+04  3.519502E+04
        65   5  2.169402E+04 -5.603079E+05  4.260838E+04 -8.651807E+05  1.380014E+05  1.407194E+04
        65   6  1.503250E+04 -5.536878E+05  4.095201E+04 -9.864085E+05  1.240184E+05 -7.602291E+03
        65   7 -9.552110E+05 -4.682363E+06 -9.185665E+05 -9.274861E+05  4.786245E+04 -1.928199E+05
        65   8 -7.228390E+05 -3.642929E+06 -5.875535E+05 -8.313768E+05  1.385089E+05 -4.709895E+04
        65   9 -4.770924E+05 -2.620397E+06 -3.488118E+05 -9.774265E+05  1.231919E+05  9.832011E+04
        65  10  1.095653E+06  3.586638E+06  1.054151E+06 -1.044890E+06  1.737585E-09  3.606515E-09
        65  11  7.656130E+05  2.531382E+06  6.722359E+05 -8.991426E+05 -2.052305E-11 -9.255860E-09
        65  12  5.068943E+05  1.517166E+06  4.305172E+05 -9.953988E+05 -1.520171E-09 -6.558688E-09
        65  13  7.082839E+04 -5.557326E+05  6.835542E+04 -9.860073E+05 -1.839110E-09 -5.579451E-12
        65  14  2.167352E+04 -5.603133E+05  4.257222E+04 -8.651823E+05  1.790998E-10 -1.565460E-10
        65  15  1.501597E+04 -5.536920E+05  4.092301E+04 -9.864078E+05 -5.143109E-10 -7.334674E-09
        65  16 -9.552235E+05 -4.682404E+06 -9.186411E+05 -9.274786E+05 -3.985487E-10 -2.153902E-09
        65  17 -7.228602E+05 -3.642937E+06 -5.875937E+05 -8.313715E+05  3.514583E-09 -1.043672E-09
        65  18 -4.771114E+05 -2.620411E+06 -3.488587E+05 -9.774363E+05 -3.975717E-09  6.056919E-09
        65  19  1.095673E+06  3.586714E+06  1.054285E+06 -1.044881E+06 -4.464566E+04 -2.647270E+05
        65  20  7.656348E+05  2.531393E+06  6.722822E+05 -8.991342E+05 -1.374887E+05 -7.554226E+04
        65  21  5.069145E+05  1.517184E+06  4.305707E+05 -9.954102E+05 -1.248462E+05  1.138697E+05
        65  22  7.083102E+04 -5.557307E+05  6.836178E+04 -9.860060E+05 -4.627250E+04 -3.519502E+04
        65  23  2.169402E+04 -5.603079E+05  4.260838E+04 -8.651807E+05 -1.380014E+05 -1.407194E+04
        65  24  1.503250E+04 -5.536878E+05  4.095201E+04 -9.864085E+05 -1.240184E+05  7.602291E+03
        65  25 -9.552110E+05 -4.682363E+06 -9.185665E+05 -9.274861E+05 -4.786245E+04  1.928199E+05
        65  26 -7.228390E+05 -3.642929E+06 -5.875535E+05 -8.313768E+05 -1.385089E+05  4.709895E+04
        65  27 -4.770924E+05 -2.620397E+06 -3.488118E+05 -9.774265E+05 -1.231919E+05 -9.832011E+04
        66   1  3.449192E+05  8.273166E+05  3.049131E+05 -1.000383E+06  8.395091E+04 -1.075095E+05
        66   2  9.775898E+04 -2.089154E+05  1.266067E+05 -8.640696E+05  2.527926E+04 -1.421040E+05
        66   3 -1.299021E+05 -1.238678E+06 -2.539941E+04 -9.762023E+05 -3.472225E+04 -1.766712E+05
        66   4  1.648172E+04 -5.545952E+05  4.512018E+04 -9.877903E+05  8.319695E+04 -1.511698E+04
        66   5  1.568583E+04 -5.569894E+05  6.438227E+04 -8.635011E+05  2.449792E+04 -4.766284E+04
        66   6  3.407664E+04 -5.543436E+05  1.084981E+05 -9.876485E+05 -3.553268E+04 -8.023548E+04
        66   7 -3.120618E+05 -1.934644E+06 -2.147240E+05 -9.752218E+05  8.244570E+04  7.707519E+04
        66   8 -6.638924E+04 -9.049259E+05  2.186762E+03 -8.629329E+05  2.371648E+04  4.672686E+04
        66   9  1.980325E+05  1.304608E+05  2.424082E+05 -9.991065E+05 -3.634612E+04  1.630442E+04
        66  10  3.449086E+05  8.273024E+05  3.048782E+05 -1.000375E+06 -3.154400E-09  6.320488E-09
        66  11  9.775288E+04 -2.089373E+05  1.265676E+05 -8.640667E+05  1.553189E-10 -8.908527E-09
        66  12 -1.299118E+05 -1.238712E+06 -2.546049E+04 -9.762073E+05 -3.675181E-10 -5.039552E-09
        66  13  1.647423E+04 -5.545972E+05  4.510675E+04 -9.877893E+05 -2.514861E-09 -2.600327E-10
        66  14  1.568458E+04 -5.569920E+05  6.437688E+04 -8.635002E+05 -8.779576E-09 -5.978132E-10
        66  15  3.407354E+04 -5.543509E+05  1.084836E+05 -9.876508E+05 -3.485251E-09 -7.309416E-09
        66  16 -3.120707E+05 -1.934652E+06 -2.147480E+05 -9.752269E+05 -2.409008E-09 -4.719863E-09
        66  17 -6.639043E+04 -9.049284E+05  2.181589E+03 -8.629337E+05 -5.398957E-09 -5.034071E-09
        66  18  1.980310E+05  1.304602E+05  2.424052E+05 -9.991060E+05 -6.057196E-10  4.529345E-09
        66  19  3.449192E+05  8.273166E+05  3.049131E+05 -1.000383E+06 -8.395091E+04  1.075095E+05
        66  20  9.775898E+04 -2.089154E+05  1.266067E+05 -8.640696E+05 -2.527926E+04  1.421040E+05
        66  21 -1.299021E+05 -1.238678E+06 -2.539941E+04 -9.762023E+05  3.472225E+04  1.766712E+05
        66  22  1.648172E+04 -5.545952E+05  4.512018E+04 -9.877903E+05 -8.319695E+04  1.511698E+04
        66  23  1.568583E+04 -5.569894E+05  6.438227E+04 -8.635011E+05 -2.449792E+04  4.766284E+04
        66  24  3.407664E+04 -5.543436E+05  1.084981E+05 -9.876485E+05  3.553268E+04  8.023548E+04
        66  25 -3.120618E+05 -1.934644E+06 -2.147240E+05 -9.752218E+05 -8.244570E+04 -7.707519E+04
        66  26 -6.638924E+04 -9.049259E+05  2.186762E+03 -8.629329E+05 -2.371648E+04 -4.672686E+04
        66  27  1.980325E+05  1.304608E+05  2.424082E+05 -9.991065E+05  3.634612E+04 -1.630442E+04
        67   1 -3.040429E+05 -1.907722E+06 -1.233101E+05 -1.011397E+06 -7.587947E+04 -2.066998E+05
        67   2 -4.781929E+05 -2.968721E+06 -2.454494E+05 -7.269204E+05 -9.975962E+04 -1.943487E+05
        67   3 -3.854616E+05 -3.966131E+06 -3.095876E+05 -6.850289E+05 -3.452811E+04 -1.814899E+05
        67   4  2.266093E+04 -5.365070E+05  1.397685E+05 -9.867572E+05 -7.677358E+04 -9.913046E+04
        67   5  1.016303E+05 -5.805156E+05  2.488291E+05 -8.639744E+05 -9.943046E+04 -2.278187E+05
        67   6  4.713422E+05 -5.379548E+05  5.136613E+05 -9.834725E+05 -3.313925E+04 -3.559972E+05
        67   7  3.492628E+05  8.365501E+05  4.028053E+05 -9.620563E+05 -7.765791E+04  8.671636E+03
        67   8  6.811561E+05  1.813153E+06  7.428104E+05 -1.001553E+06 -9.908730E+04 -2.614145E+05
        67   9  1.327622E+06  2.901276E+06  1.336232E+06 -1.283553E+06 -3.158661E+04 -5.314647E+05
        67  10 -3.040607E+05 -1.907770E+06 -1.234016E+05 -1.011410E+06  2.312475E-09  8.373965E-09
        67  11 -4.782138E+05 -2.968764E+06 -2.455395E+05 -7.269361E+05  5.577188E-09 -6.900740E-09
        67  12 -3.854718E+05 -3.966167E+06 -3.096521E+05 -6.850340E+05  1.116334E-09 -5.465111E-09
        67  13  2.265195E+04 -5.365191E+05  1.397389E+05 -9.867633E+05  1.721106E-09 -5.607330E-11
        67  14  1.016057E+05 -5.805741E+05  2.487127E+05 -8.639927E+05 -6.399267E-09 -3.054817E-10
        67  15  4.713069E+05 -5.380913E+05  5.134208E+05 -9.834821E+05  1.819054E-09 -6.548856E-09
        67  16  3.492563E+05  8.365484E+05  4.027938E+05 -9.620557E+05 -2.205691E-09 -5.890009E-09
        67  17  6.811273E+05  1.813077E+06  7.426637E+05 -1.001574E+06  3.645000E-09 -5.472442E-09
        67  18  1.327546E+06  2.900974E+06  1.335701E+06 -1.283567E+06  2.361236E-09  4.844069E-09
        67  19 -3.040429E+05 -1.907722E+06 -1.233101E+05 -1.011397E+06  7.587947E+04  2.066998E+05
        67  20 -4.781929E+05 -2.968721E+06 -2.454494E+05 -7.269204E+05  9.975962E+04  1.943487E+05
        67  21 -3.854616E+05 -3.966131E+06 -3.095876E+05 -6.850289E+05  3.452811E+04  1.814899E+05
        67  22  2.266093E+04 -5.365070E+05  1.397685E+05 -9.867572E+05  7.677358E+04  9.913046E+04
        67  23  1.016303E+05 -5.805156E+05  2.488291E+05 -8.639744E+05  9.943046E+04  2.278187E+05
        67  24  4.713422E+05 -5.379548E+05  5.136613E+05 -9.834725E+05  3.313925E+04  3.559972E+05
        67  25  3.492628E+05  8.365501E+05  4.028053E+05 -9.620563E+05  7.765791E+04 -8.671636E+03
        67  26  6.811561E+05  1.813153E+06  7.428104E+05 -1.001553E+06  9.908730E+04  2.614145E+05
        67  27  1.327622E+06  2.901276E+06  1.336232E+06 -1.283553E+06  3.158661E+04  5.314647E+05
        68   1 -3.853464E+06 -1.494024E+06 -8.535050E+05 -1.319979E+06 -2.223411E+05 -1.989182E+04
        68   2 -3.599656E+06 -1.430447E+06 -6.893919E+05 -1.230187E+06 -1.500011E+05  1.569018E+05
        68   3 -3.304640E+06 -1.383197E+06 -6.077244E+05 -1.203610E+06 -3.992724E+04  2.348732E+05
        68   4 -1.472016E+05 -1.407959E+05  1.008083E+05 -3.473677E+05  4.329282E+04  8.106085E+04
        68   5 -1.876668E+05 -1.864608E+05  4.591145E+04 -3.007222E+05 -3.008985E+04  2.022707E+05
        68   6 -1.579991E+05 -2.195620E+05  2.461530E+04 -3.172830E+05 -6.590887E+04  2.249232E+05
        68   7  3.572509E+06  1.213123E+06  1.054271E+06  6.304357E+05  3.106707E+05  1.826232E+05
        68   8  3.236199E+06  1.058401E+06  7.805933E+05  6.334265E+05  9.053633E+04  2.479010E+05
        68   9  2.998947E+06  9.450096E+05  6.564878E+05  5.732465E+05 -9.203365E+04  2.149187E+05
        68  10 -3.853518E+06 -1.494038E+06 -8.535992E+05 -1.319982E+06 -2.058440E-09 -1.315555E-09
        68  11 -3.599687E+06 -1.430479E+06 -6.894805E+05 -1.230168E+06 -4.386238E-09 -4.764327E-09
        68  12 -3.304657E+06 -1.383257E+06 -6.078311E+05 -1.203602E+06  4.048943E-09  5.500572E-10
        68  13 -1.472054E+05 -1.408035E+05  1.007924E+05 -3.473706E+05 -8.074742E-10  5.701551E-09
        68  14 -1.876788E+05 -1.865050E+05  4.583286E+04 -3.007173E+05 -7.380076E-09 -6.970080E-09
        68  15 -1.580173E+05 -2.196174E+05  2.451207E+04 -3.172711E+05 -7.373082E-10  2.761738E-09
        68  16  3.572397E+06  1.213062E+06  1.054028E+06  6.303901E+05  3.685332E-10  3.583800E-09
        68  17  3.236174E+06  1.058333E+06  7.804627E+05  6.334085E+05 -8.911562E-10  2.147853E-09
        68  18  2.998926E+06  9.449577E+05  6.563851E+05  5.732624E+05  4.745990E-09  4.172957E-10
        68  19 -3.853464E+06 -1.494024E+06 -8.535050E+05 -1.319979E+06  2.223411E+05  1.989182E+04
        68  20 -3.599656E+06 -1.430447E+06 -6.893919E+05 -1.230187E+06  1.500011E+05 -1.569018E+05
        68  21 -3.304640E+06 -1.383197E+06 -6.077244E+05 -1.203610E+06  3.992724E+04 -2.348732E+05
        68  22 -1.472016E+05 -1.407959E+05  1.008083E+05 -3.473677E+05 -4.329282E+04 -8.106085E+04
        68  23 -1.876668E+05 -1.864608E+05  4.591145E+04 -3.007222E+05  3.008985E+04 -2.022707E+05
        68  24 -1.579991E+05 -2.195620E+05  2.461530E+04 -3.172830E+05  6.590887E+04 -2.249232E+05
        68  25  3.572509E+06  1.213123E+06  1.054271E+06  6.304357E+05 -3.106707E+05 -1.826232E+05
        68  26  3.236199E+06  1.058401E+06  7.805933E+05  6.334265E+05 -9.053633E+04 -2.479010E+05
        68  27  2.998947E+06  9.450096E+05  6.564878E+05  5.732465E+05  9.203365E+04 -2.149187E+05
        69   1 -3.135782E+06 -1.309433E+06 -5.761790E+05 -1.150289E+06 -5.639321E+04  2.164396E+05
        69   2 -2.902471E+06 -1.190622E+06 -5.235078E+05 -1.050457E+06 -4.720007E+04  2.093436E+05
        69   3 -2.619951E+06 -1.119328E+06 -4.745057E+05 -1.005683E+06 -3.535626E+04  1.951196E+05
        69   4 -1.598885E+05 -2.179989E+05  1.869335E+04 -3.208520E+05 -6.470274E+04  2.131902E+05
        69   5 -1.853944E+05 -1.962706E+05  9.716469E+03 -2.928424E+05 -6.604006E+04  2.021413E+05
        69   6 -1.596843E+05 -2.199608E+05  5.428967E+03 -3.199002E+05 -6.473561E+04  1.839807E+05
        69   7  2.825184E+06  8.742223E+05  6.131410E+05  5.122798E+05 -7.305573E+04  2.099249E+05
        69   8  2.539347E+06  7.987428E+05  5.426027E+05  4.678538E+05 -8.496916E+04  1.949057E+05
        69   9  2.306861E+06  6.799469E+05  4.850905E+05  3.684067E+05 -9.424025E+04  1.727947E+05
        69  10 -3.135798E+06 -1.309484E+06 -5.762730E+05 -1.150279E+06  3.302834E-09  1.112869E-09
        69  11 -2.902485E+06 -1.190670E+06 -5.235943E+05 -1.050449E+06 -3.799079E-09  1.427810E-09
        69  12 -2.619963E+06 -1.119369E+06 -4.745796E+05 -1.005678E+06  4.105892E-09  3.031335E-09
        69  13 -1.599052E+05 -2.180489E+05  1.860008E+04 -3.208409E+05 -9.688214E-10 -4.207730E-10
        69  14 -1.854100E+05 -1.963157E+05  9.631499E+03 -2.928317E+05 -3.875823E-09 -1.044426E-09
        69  15 -1.596979E+05 -2.199983E+05  5.357494E+03 -3.198906E+05  9.106557E-09  1.567545E-09
        69  16  2.825166E+06  8.741736E+05  6.130482E+05  5.122922E+05  4.392552E-09 -8.914380E-12
        69  17  2.539329E+06  7.987001E+05  5.425178E+05  4.678672E+05  2.297532E-10 -3.719247E-09
        69  18  2.306844E+06  6.799125E+05  4.850177E+05  3.684198E+05  1.177551E-08  1.559173E-09
        69  19 -3.135782E+06 -1.309433E+06 -5.761790E+05 -1.150289E+06  5.639321E+04 -2.164396E+05
        69  20 -2.902471E+06 -1.190622E+06 -5.235078E+05 -1.050457E+06  4.720007E+04 -2.093436E+05
        69  21 -2.619951E+06 -1.119328E+06 -4.745057E+05 -1.005683E+06  3.535626E+04 -1.951196E+05
        69  22 -1.598885E+05 -2.179989E+05  1.869335E+04 -3.208520E+05  6.470274E+04 -2.131902E+05
        69  23 -1.853944E+05 -1.962706E+05  9.716469E+03 -2.928424E+05  6.604006E+04 -2.021413E+05
        69  24 -1.596843E+05 -2.199608E+05  5.428967E+03 -3.199002E+05  6.473561E+04 -1.839807E+05
        69  25  2.825184E+06  8.742223E+05  6.131410E+05  5.122798E+05  7.305573E+04 -2.099249E+05
        69  26  2.539347E+06  7.987428E+05  5.426027E+05  4.678538E+05  8.496916E+04 -1.949057E+05
        69  27  2.306861E+06  6.799469E+05  4.850905E+05  3.684067E+05  9.424025E+04 -1.727947E+05
        70   1 -2.446689E+06 -1.054597E+06 -4.404687E+05 -9.569387E+05 -3.296538E+04  1.827493E+05
        70   2 -2.212931E+06 -9.348951E+05 -3.919575E+05 -8.567489E+05 -2.593593E+04  1.633329E+05
        70   3 -1.929684E+06 -8.637114E+05 -3.430388E+05 -8.119338E+05 -1.874652E+04  1.433804E+05
        70   4 -1.597686E+05 -2.197473E+05  4.040312E+03 -3.202287E+05 -6.110425E+04  1.720978E+05
        70   5 -1.842984E+05 -1.951077E+05  2.119948E+03 -2.926248E+05 -5.486663E+04  1.524130E+05
        70   6 -1.592723E+05 -2.188293E+05  1.222002E+03 -3.204130E+05 -4.846937E+04  1.321933E+05
        70   7  2.132618E+06  6.155830E+05  4.483268E+05  3.186696E+05 -8.935503E+04  1.614043E+05
        70   8  1.848628E+06  5.450539E+05  3.960216E+05  2.732164E+05 -8.389922E+04  1.414550E+05
        70   9  1.614401E+06  4.263334E+05  3.453476E+05  1.724109E+05 -7.828337E+04  1.209721E+05
        70  10 -2.446699E+06 -1.054633E+06 -4.405335E+05 -9.569339E+05  1.429719E-08  5.471407E-09
        70  11 -2.212938E+06 -9.349239E+05 -3.920089E+05 -8.567455E+05  1.570777E-08  1.230755E-09
        70  12 -1.929690E+06 -8.637336E+05 -3.430781E+05 -8.119317E+05  1.215634E-08 -1.824327E-09
        70  13 -1.597805E+05 -2.197801E+05  3.977648E+03 -3.202203E+05  1.333958E-08  3.363506E-09
        70  14 -1.843078E+05 -1.951334E+05  2.070646E+03 -2.926181E+05  1.480501E-08  2.187607E-09
        70  15 -1.592795E+05 -2.188487E+05  1.184754E+03 -3.204079E+05  4.531155E-09 -6.821974E-10
        70  16  2.132603E+06  6.155529E+05  4.482628E+05  3.186812E+05  1.059702E-08  1.636797E-09
        70  17  1.848615E+06  5.450305E+05  3.959708E+05  2.732260E+05  1.694000E-09  2.340207E-09
        70  18  1.614391E+06  4.263160E+05  3.453086E+05  1.724185E+05 -4.896404E-09  5.342414E-10
        70  19 -2.446689E+06 -1.054597E+06 -4.404687E+05 -9.569387E+05  3.296538E+04 -1.827493E+05
        70  20 -2.212931E+06 -9.348951E+05 -3.919575E+05 -8.567489E+05  2.593593E+04 -1.633329E+05
        70  21 -1.929684E+06 -8.637114E+05 -3.430388E+05 -8.119338E+05  1.874652E+04 -1.433804E+05
        70  22 -1.597686E+05 -2.197473E+05  4.040312E+03 -3.202287E+05  6.110425E+04 -1.720978E+05
        70  23 -1.842984E+05 -1.951077E+05  2.119948E+03 -2.926248E+05  5.486663E+04 -1.524130E+05
        70  24 -1.592723E+05 -2.188293E+05  1.222002E+03 -3.204130E+05  4.846937E+04 -1.321933E+05
        70  25  2.132618E+06  6.155830E+05  4.483268E+05  3.186696E+05  8.935503E+04 -1.614043E+05
        70  26  1.848628E+06  5.450539E+05  3.960216E+05  2.732164E+05  8.389922E+04 -1.414550E+05
        70  27  1.614401E+06  4.263334E+05  3.453476E+05  1.724109E+05  7.828337E+04 -1.209721E+05
        71   1 -1.755600E+06 -7.996580E+05 -3.080550E+05 -7.635627E+05 -1.459216E+04  1.315806E+05
        71   2 -1.520672E+06 -6.804409E+05 -2.588319E+05 -6.635084E+05 -7.182233E+03  1.114581E+05
        71   3 -1.236663E+06 -6.098194E+05 -2.094177E+05 -6.191452E+05  2.195813E+02  9.128237E+04
        71   4 -1.592404E+05 -2.186951E+05  8.832417E+02 -3.204982E+05 -4.424754E+04  1.204339E+05
        71   5 -1.835870E+05 -1.940706E+05  4.159307E+02 -2.927162E+05 -3.691634E+04  1.003018E+05
        71   6 -1.589145E+05 -2.180286E+05  1.944206E+02 -3.206466E+05 -2.959322E+04  8.011666E+04
        71   7  1.439759E+06  3.624911E+05  3.097100E+05  1.236216E+05 -7.398460E+04  1.092566E+05
        71   8  1.155359E+06  2.924594E+05  2.595889E+05  7.881807E+04 -6.671921E+04  8.911980E+04
        71   9  9.200517E+05  1.738689E+05  2.097613E+05 -2.166407E+04 -5.946181E+04  6.893008E+04
        71  10 -1.755605E+06 -7.996767E+05 -3.080880E+05 -7.635611E+05  2.840084E-08  6.779186E-09
        71  11 -1.520675E+06 -6.804543E+05 -2.588554E+05 -6.635078E+05 -8.500424E-09 -4.196121E-09
        71  12 -1.236665E+06 -6.098284E+05 -2.094334E+05 -6.191452E+05 -3.667994E-08 -1.217533E-08
        71  13 -1.592464E+05 -2.187112E+05  8.523113E+02 -3.204939E+05 -4.595181E-09 -3.215527E-09
        71  14 -1.835911E+05 -1.940818E+05  3.944678E+02 -2.927132E+05 -7.525667E-09 -3.731373E-09
        71  15 -1.589172E+05 -2.180358E+05  1.807153E+02 -3.206446E+05 -4.790510E-09 -5.321828E-11
        71  16  1.439750E+06  3.624768E+05  3.096773E+05  1.236281E+05 -3.594234E-08 -1.249970E-08
        71  17  1.155352E+06  2.924496E+05  2.595656E+05  7.882286E+04 -9.515620E-09 -3.209283E-09
        71  18  9.200467E+05  1.738628E+05  2.097458E+05 -2.166077E+04  2.789727E-08  1.283273E-08
        71  19 -1.755600E+06 -7.996580E+05 -3.080550E+05 -7.635627E+05  1.459216E+04 -1.315806E+05
        71  20 -1.520672E+06 -6.804409E+05 -2.588319E+05 -6.635084E+05  7.182233E+03 -1.114581E+05
        71  21 -1.236663E+06 -6.098194E+05 -2.094177E+05 -6.191452E+05 -2.195813E+02 -9.128237E+04
        71  22 -1.592404E+05 -2.186951E+05  8.832417E+02 -3.204982E+05  4.424754E+04 -1.204339E+05
        71  23 -1.835870E+05 -1.940706E+05  4.159307E+02 -2.927162E+05  3.691634E+04 -1.003018E+05
        71  24 -1.589145E+05 -2.180286E+05  1.944206E+02 -3.206466E+05  2.959322E+04 -8.011666E+04
        71  25  1.439759E+06  3.624911E+05  3.097100E+05  1.236216E+05  7.398460E+04 -1.092566E+05
        71  26  1.155359E+06  2.924594E+05  2.595889E+05  7.881807E+04  6.671921E+04 -8.911980E+04
        71  27  9.200517E+05  1.738689E+05  2.097613E+05 -2.166407E+04  5.946181E+04 -6.893008E+04
        72   1 -1.062045E+06 -5.459641E+05 -1.741902E+05 -5.708819E+05  4.595123E+03  7.955035E+04
        72   2 -8.263683E+05 -4.270856E+05 -1.247410E+05 -4.708858E+05  1.220098E+04  5.943899E+04
        72   3 -5.418790E+05 -3.568431E+05 -7.531777E+04 -4.267592E+05  1.979095E+04  3.933343E+04
        72   4 -1.588889E+05 -2.179495E+05  7.274708E+01 -3.206883E+05 -2.522996E+04  6.838887E+04
        72   5 -1.831770E+05 -1.934660E+05 -1.512154E+02 -2.927778E+05 -1.761837E+04  4.828923E+04
        72   6 -1.587284E+05 -2.176237E+05 -4.103748E+02 -3.207602E+05 -1.002274E+04  2.819554E+04
        72   7  7.451169E+05  1.101383E+05  1.743041E+05 -7.015653E+04 -5.510156E+04  5.720998E+04
        72   8  4.604431E+05  4.018967E+04  1.244234E+05 -1.144989E+05 -4.747070E+04  3.712713E+04
        72   9  2.245729E+05 -7.839207E+04  7.449326E+04 -2.147010E+05 -3.985589E+04  1.705037E+04
        72  10 -1.062047E+06 -5.459709E+05 -1.742022E+05 -5.708822E+05  1.400062E-08  4.437212E-09
        72  11 -8.263694E+05 -4.270894E+05 -1.247479E+05 -4.708864E+05  4.658062E-09 -3.700824E-09
        72  12 -5.418799E+05 -3.568449E+05 -7.532142E+04 -4.267598E+05 -1.538731E-08 -1.176650E-08
        72  13 -1.588909E+05 -2.179547E+05  6.276353E+01 -3.206869E+05  4.526978E-10  1.557474E-09
        72  14 -1.831779E+05 -1.934686E+05 -1.561799E+02 -2.927771E+05 -3.217971E-09  2.636385E-09
        72  15 -1.587288E+05 -2.176246E+05 -4.120572E+02 -3.207600E+05 -1.406058E-08  3.597421E-09
        72  16  7.451128E+05  1.101340E+05  1.742922E+05 -7.015399E+04 -1.112117E-08 -1.736936E-09
        72  17  4.604404E+05  4.018759E+04  1.244166E+05 -1.144975E+05 -4.168697E-09  1.366504E-11
        72  18  2.245711E+05 -7.839281E+04  7.448973E+04 -2.147004E+05 -3.279272E-10 -3.151114E-09
        72  19 -1.062045E+06 -5.459641E+05 -1.741902E+05 -5.708819E+05 -4.595123E+03 -7.955035E+04
        72  20 -8.263683E+05 -4.270856E+05 -1.247410E+05 -4.708858E+05 -1.220098E+04 -5.943899E+04
        72  21 -5.418790E+05 -3.568431E+05 -7.531777E+04 -4.267592E+05 -1.979095E+04 -3.933343E+04
        72  22 -1.588889E+05 -2.179495E+05  7.274708E+01 -3.206883E+05  2.522996E+04 -6.838887E+04
        72  23 -1.831770E+05 -1.934660E+05 -1.512154E+02 -2.927778E+05  1.761837E+04 -4.828923E+04
        72  24 -1.587284E+05 -2.176237E+05 -4.103748E+02 -3.207602E+05  1.002274E+04 -2.819554E+04
        72  25  7.451169E+05  1.101383E+05  1.743041E+05 -7.015653E+04  5.510156E+04 -5.720998E+04
        72  26  4.604431E+05  4.018967E+04  1.244234E+05 -1.144989E+05  4.747070E+04 -3.712713E+04
        72  27  2.245729E+05 -7.839207E+04  7.449326E+04 -2.147010E+05  3.985589E+04 -1.705037E+04
        73   1 -3.669418E+05 -2.930910E+05 -4.013620E+04 -3.785125E+05  2.430490E+04  2.765348E+04
        73   2 -1.309403E+05 -1.744094E+05  9.079504E+03 -2.784787E+05  3.202488E+04  7.716206E+03
        73   3  1.537675E+05 -1.043649E+05  5.812354E+04 -2.343590E+05  3.965515E+04 -1.197872E+04
        73   4 -1.587416E+05 -2.175967E+05 -6.010424E+02 -3.207793E+05 -5.559449E+03  1.649931E+04
        73   5 -1.830291E+05 -1.932656E+05 -1.178046E+03 -2.927987E+05  2.512854E+03 -3.307279E+03
        73   6 -1.587574E+05 -2.176515E+05 -2.210088E+03 -3.207624E+05  1.049529E+04 -2.287139E+04
        73   7  4.950764E+04 -1.420971E+05  3.893666E+04 -2.630270E+05 -3.543477E+04  5.341024E+03
        73   8 -2.351133E+05 -2.121210E+05 -1.143206E+04 -3.071171E+05 -2.699665E+04 -1.432983E+04
        73   9 -4.711790E+05 -3.309289E+05 -6.254436E+04 -4.071251E+05 -1.864887E+04 -3.375819E+04
        73  10 -3.669426E+05 -2.930919E+05 -4.013875E+04 -3.785130E+05  2.077755E-09 -2.285588E-09
        73  11 -1.309415E+05 -1.744097E+05  9.077464E+03 -2.784789E+05 -4.070548E-09 -6.398584E-10
        73  12  1.537657E+05 -1.043654E+05  5.812032E+04 -2.343586E+05 -8.641693E-09 -5.689574E-09
        73  13 -1.587417E+05 -2.175970E+05 -6.016119E+02 -3.207792E+05 -1.322565E-08  2.492655E-10
        73  14 -1.830291E+05 -1.932656E+05 -1.178078E+03 -2.927987E+05 -3.171732E-09  3.397194E-09
        73  15 -1.587576E+05 -2.176521E+05 -2.211278E+03 -3.207623E+05  1.459940E-11  1.093909E-09
        73  16  4.950629E+04 -1.420974E+05  3.893425E+04 -2.630269E+05 -1.668367E-08 -1.098983E-08
        73  17 -2.351141E+05 -2.121214E+05 -1.143381E+04 -3.071174E+05  2.188011E-09 -4.984447E-09
        73  18 -4.711797E+05 -3.309302E+05 -6.254715E+04 -4.071256E+05  8.438886E-09  3.092954E-09
        73  19 -3.669418E+05 -2.930910E+05 -4.013620E+04 -3.785125E+05 -2.430490E+04 -2.765348E+04
        73  20 -1.309403E+05 -1.744094E+05  9.079504E+03 -2.784787E+05 -3.202488E+04 -7.716206E+03
        73  21  1.537675E+05 -1.043649E+05  5.812354E+04 -2.343590E+05 -3.965515E+04  1.197872E+04
        73  22 -1.587416E+05 -2.175967E+05 -6.010424E+02 -3.207793E+05  5.559449E+03 -1.649931E+04
        73  23 -1.830291E+05 -1.932656E+05 -1.178046E+03 -2.927987E+05 -2.512854E+03  3.307279E+03
        73  24 -1.587574E+05 -2.176515E+05 -2.210088E+03 -3.207624E+05 -1.049529E+04  2.287139E+04
        73  25  4.950764E+04 -1.420971E+05  3.893666E+04 -2.630270E+05  3.543477E+04 -5.341024E+03
        73  26 -2.351133E+05 -2.121210E+05 -1.143206E+04 -3.071171E+05  2.699665E+04  1.432983E+04
        73  27 -4.711790E+05 -3.309289E+05 -6.254436E+04 -4.071251E+05  1.864887E+04  3.375819E+04
        74   1  3.289431E+05 -4.066147E+04  9.281482E+04 -1.861984E+05  4.504444E+04 -2.328978E+04
        74   2  5.644400E+05  7.819172E+04  1.417744E+05 -8.569152E+04  4.965892E+04 -4.250309E+04
        74   3  8.487266E+05  1.481770E+05  1.923082E+05 -4.061423E+04  5.301997E+04 -5.833613E+04
        74   4 -1.589286E+05 -2.175949E+05 -2.954969E+03 -3.207857E+05  1.527578E+04 -3.441333E+04
        74   5 -1.830059E+05 -1.937082E+05 -5.457736E+03 -2.926915E+05  2.489667E+04 -5.176615E+04
        74   6 -1.593516E+05 -2.196912E+05 -1.035023E+04 -3.200588E+05  3.326426E+04 -6.573600E+04
        74   7 -6.465478E+05 -3.945056E+05 -9.873070E+04 -4.552735E+05 -1.446756E+04 -4.552745E+04
        74   8 -9.298729E+05 -4.655591E+05 -1.527130E+05 -4.994607E+05  1.663611E+02 -6.101724E+04
        74   9 -1.166391E+06 -5.874747E+05 -2.130591E+05 -5.990864E+05  1.354278E+04 -7.312303E+04
        74  10  3.289407E+05 -4.066260E+04  9.280999E+04 -1.861976E+05  2.738679E-09 -2.620717E-09
        74  11  5.644369E+05  7.818912E+04  1.417663E+05 -8.568982E+04 -3.176995E-09 -4.531050E-09
        74  12  8.487227E+05  1.481726E+05  1.922966E+05 -4.061174E+04 -1.047408E-08 -3.383835E-09
        74  13 -1.589291E+05 -2.175962E+05 -2.957633E+03 -3.207852E+05 -2.705601E-09 -9.974349E-10
        74  14 -1.830073E+05 -1.937113E+05 -5.463935E+03 -2.926905E+05 -8.224737E-09 -5.942335E-09
        74  15 -1.593539E+05 -2.196961E+05 -1.036043E+04 -3.200571E+05 -1.585764E-08 -3.596001E-09
        74  16 -6.465486E+05 -3.945079E+05 -9.873500E+04 -4.552740E+05 -7.198693E-09  1.215009E-09
        74  17 -9.298739E+05 -4.655631E+05 -1.527200E+05 -4.994607E+05 -1.100447E-08 -1.978326E-09
        74  18 -1.166393E+06 -5.874805E+05 -2.130695E+05 -5.990856E+05 -1.198371E-08 -6.314688E-09
        74  19  3.289431E+05 -4.066147E+04  9.281482E+04 -1.861984E+05 -4.504444E+04  2.328978E+04
        74  20  5.644400E+05  7.819172E+04  1.417744E+05 -8.569152E+04 -4.965892E+04  4.250309E+04
        74  21  8.487266E+05  1.481770E+05  1.923082E+05 -4.061423E+04 -5.301997E+04  5.833613E+04
        74  22 -1.589286E+05 -2.175949E+05 -2.954969E+03 -3.207857E+05 -1.527578E+04  3.441333E+04
        74  23 -1.830059E+05 -1.937082E+05 -5.457736E+03 -2.926915E+05 -2.489667E+04  5.176615E+04
        74  24 -1.593516E+05 -2.196912E+05 -1.035023E+04 -3.200588E+05 -3.326426E+04  6.573600E+04
        74  25 -6.465478E+05 -3.945056E+05 -9.873070E+04 -4.552735E+05  1.446756E+04  4.552745E+04
        74  26 -9.298729E+05 -4.655591E+05 -1.527130E+05 -4.994607E+05 -1.663611E+02  6.101724E+04
        74  27 -1.166391E+06 -5.874747E+05 -2.130591E+05 -5.990864E+05 -1.354278E+04  7.312303E+04
        75   1  1.026870E+06  2.113134E+05  2.254974E+05  4.068164E+03  6.725936E+04 -6.583289E+04
        75   2  1.250539E+06  3.358320E+05  2.885209E+05  1.168697E+05  9.288798E+03 -8.240565E+04
        75   3  1.521834E+06  3.979035E+05  3.886431E+05  1.840387E+05 -6.633846E+04 -5.203180E+04
        75   4 -1.614852E+05 -2.180742E+05 -1.358724E+04 -3.207236E+05  3.902691E+04 -7.641157E+04
        75   5 -1.815588E+05 -2.017551E+05 -2.562802E+04 -2.897732E+05  5.083181E+04 -6.686386E+04
        75   6 -1.678867E+05 -2.617373E+05 -5.580361E+04 -3.044896E+05  4.498559E+04 -1.030205E+04
        75   7 -1.348393E+06 -6.473499E+05 -2.527395E+05 -6.449457E+05  1.085229E+04 -8.696905E+04
        75   8 -1.611556E+06 -7.391476E+05 -3.398880E+05 -6.955407E+05  9.227089E+04 -5.136299E+04
        75   9 -1.854754E+06 -9.211037E+05 -5.004261E+05 -7.917714E+05  1.559745E+05  3.128992E+04
        75  10  1.026864E+06  2.113076E+05  2.254808E+05  4.071727E+03 -1.328237E-08 -2.522928E-09
        75  11  1.250537E+06  3.358247E+05  2.885079E+05  1.168704E+05 -1.844228E-09  1.027979E-09
        75  12  1.521828E+06  3.978994E+05  3.886298E+05  1.840359E+05  1.362942E-09  1.004864E-09
        75  13 -1.614884E+05 -2.180809E+05 -1.360107E+04 -3.207212E+05 -1.397965E-08 -2.329807E-09
        75  14 -1.815628E+05 -2.017606E+05 -2.564128E+04 -2.897705E+05  1.160490E-09 -1.453231E-10
        75  15 -1.678889E+05 -2.617380E+05 -5.580761E+04 -3.044892E+05  2.882666E-10  2.549798E-10
        75  16 -1.348396E+06 -6.473581E+05 -2.527539E+05 -6.449450E+05 -1.201891E-09 -3.162778E-09
        75  17 -1.611566E+06 -7.391528E+05 -3.399089E+05 -6.955369E+05  3.089355E-09 -8.005559E-10
        75  18 -1.854780E+06 -9.211113E+05 -5.004739E+05 -7.917753E+05  1.275073E-09 -7.828861E-10
        75  19  1.026870E+06  2.113134E+05  2.254974E+05  4.068164E+03 -6.725936E+04  6.583289E+04
        75  20  1.250539E+06  3.358320E+05  2.885209E+05  1.168697E+05 -9.288798E+03  8.240565E+04
        75  21  1.521834E+06  3.979035E+05  3.886431E+05  1.840387E+05  6.633846E+04  5.203180E+04
        75  22 -1.614852E+05 -2.180742E+05 -1.358724E+04 -3.207236E+05 -3.902691E+04  7.641157E+04
        75  23 -1.815588E+05 -2.017551E+05 -2.562802E+04 -2.897732E+05 -5.083181E+04  6.686386E+04
        75  24 -1.678867E+05 -2.617373E+05 -5.580361E+04 -3.044896E+05 -4.498559E+04  1.030205E+04
        75  25 -1.348393E+06 -6.473499E+05 -2.527395E+05 -6.449457E+05 -1.085229E+04  8.696905E+04
        75  26 -1.611556E+06 -7.391476E+05 -3.398880E+05 -6.955407E+05 -9.227089E+04  5.136299E+04
        75  27 -1.854754E+06 -9.211037E+05 -5.004261E+05 -7.917714E+05 -1.559745E+05 -3.128992E+04
        76   1 -1.861738E+05 -9.328370E+04 -8.244150E+04 -6.855801E+04 -1.717148E+04  6.589339E+03
        76   2 -1.153461E+05 -9.847425E+04 -6.332342E+04 -7.755811E+04 -1.999171E+03  2.191363E+04
        76   3 -4.314829E+04 -9.039114E+04 -5.076510E+04 -9.711290E+04  1.317989E+04  2.586896E+04
        76   4  3.730840E+05  4.443912E+04  4.705349E+04 -9.880226E+04  3.324757E+04  6.599154E+03
        76   5  3.700510E+05  1.600436E+04  2.376724E+04 -9.352325E+04  2.113856E+04  2.191515E+04
        76   6  3.731140E+05  5.571995E+03  1.286220E+04 -9.879733E+04  9.034356E+03  2.586699E+04
        76   7  9.326381E+05  1.821448E+05  1.765376E+05 -1.290740E+05  8.371171E+04  6.604055E+03
        76   8  8.556794E+05  1.304711E+05  1.108510E+05 -1.095012E+05  4.429387E+04  2.191549E+04
        76   9  7.895498E+05  1.015268E+05  7.648582E+04 -1.004829E+05  4.886149E+03  2.586505E+04
        76  10 -1.861742E+05 -9.328382E+04 -8.244213E+04 -6.855791E+04 -6.616869E-10 -1.146139E-10
        76  11 -1.153462E+05 -9.847477E+04 -6.332433E+04 -7.755807E+04  2.208089E-09  4.537837E-11
        76  12 -4.314866E+04 -9.039191E+04 -5.076668E+04 -9.711317E+04  2.415142E-10  1.031136E-09
        76  13  3.730828E+05  4.443878E+04  4.705133E+04 -9.880244E+04  1.202649E-10  2.896443E-10
        76  14  3.700504E+05  1.600373E+04  2.376550E+04 -9.352362E+04 -1.985086E-09  5.645724E-10
        76  15  3.731138E+05  5.571255E+03  1.286079E+04 -9.879752E+04  3.365043E-09  9.561279E-10
        76  16  9.326306E+05  1.821428E+05  1.765244E+05 -1.290744E+05  1.098408E-09  5.519954E-10
        76  17  8.556772E+05  1.304701E+05  1.108464E+05 -1.095020E+05 -3.867064E-11  1.214884E-09
        76  18  7.895496E+05  1.015261E+05  7.648452E+04 -1.004830E+05  2.861155E-09  1.423285E-09
        76  19 -1.861738E+05 -9.328370E+04 -8.244150E+04 -6.855801E+04  1.717148E+04 -6.589339E+03
        76  20 -1.153461E+05 -9.847425E+04 -6.332342E+04 -7.755811E+04  1.999171E+03 -2.191363E+04
        76  21 -4.314829E+04 -9.039114E+04 -5.076510E+04 -9.711290E+04 -1.317989E+04 -2.586896E+04
        76  22  3.730840E+05  4.443912E+04  4.705349E+04 -9.880226E+04 -3.324757E+04 -6.599154E+03
        76  23  3.700510E+05  1.600436E+04  2.376724E+04 -9.352325E+04 -2.113856E+04 -2.191515E+04
        76  24  3.731140E+05  5.571995E+03  1.286220E+04 -9.879733E+04 -9.034356E+03 -2.586699E+04
        76  25  9.326381E+05  1.821448E+05  1.765376E+05 -1.290740E+05 -8.371171E+04 -6.604055E+03
        76  26  8.556794E+05  1.304711E+05  1.108510E+05 -1.095012E+05 -4.429387E+04 -2.191549E+04
        76  27  7.895498E+05  1.015268E+05  7.648582E+04 -1.004829E+05 -4.886149E+03 -2.586505E+04
        77   1  5.278930E+02 -8.118511E+04 -4.521802E+04 -9.660730E+04  1.241171E+04  2.433656E+04
        77   2  7.185260E+04 -6.689069E+04 -3.619782E+04 -9.213031E+04  1.350946E+04  2.146215E+04
        77   3  1.433448E+05 -5.141830E+04 -2.759475E+04 -9.904792E+04  1.460702E+04  1.705121E+04
        77   4  3.719438E+05  4.044728E+03  9.591087E+03 -9.898510E+04  7.360235E+03  2.433492E+04
        77   5  3.715505E+05  1.308399E+03  5.172931E+03 -9.328805E+04  4.768679E+03  2.146110E+04
        77   6  3.719594E+05  3.900646E+02  2.898234E+03 -9.898509E+04  2.176811E+03  1.705113E+04
        77   7  7.434986E+05  8.926816E+04  6.439781E+04 -1.013644E+05  2.305865E+03  2.433332E+04
        77   8  6.713397E+05  6.950358E+04  4.654294E+04 -9.444637E+04 -3.976136E+03  2.146007E+04
        77   9  6.006275E+05  5.219629E+04  3.339137E+04 -9.892224E+04 -1.025776E+04  1.705105E+04
        77  10  5.275685E+02 -8.118579E+04 -4.521943E+04 -9.660754E+04  2.348279E-09  1.050529E-09
        77  11  7.185228E+04 -6.689123E+04 -3.619903E+04 -9.213054E+04 -1.468578E-09 -1.345168E-12
        77  12  1.433445E+05 -5.141867E+04 -2.759570E+04 -9.904812E+04 -2.020576E-09  1.332380E-10
        77  13  3.719436E+05  4.044077E+03  9.589873E+03 -9.898524E+04  1.293017E-10  1.343015E-09
        77  14  3.715503E+05  1.307898E+03  5.172023E+03 -9.328813E+04 -5.164219E-09  8.711428E-10
        77  15  3.719593E+05  3.897510E+02  2.897679E+03 -9.898512E+04 -5.789161E-09  7.464501E-10
        77  16  7.434984E+05  8.926753E+04  6.439669E+04 -1.013644E+05 -1.196014E-09  1.381441E-09
        77  17  6.713396E+05  6.950308E+04  4.654205E+04 -9.444630E+04 -1.246008E-10  1.606803E-09
        77  18  6.006273E+05  5.219595E+04  3.339063E+04 -9.892210E+04 -2.906851E-09  1.440733E-09
        77  19  5.278930E+02 -8.118511E+04 -4.521802E+04 -9.660730E+04 -1.241171E+04 -2.433656E+04
        77  20  7.185260E+04 -6.689069E+04 -3.619782E+04 -9.213031E+04 -1.350946E+04 -2.146215E+04
        77  21  1.433448E+05 -5.141830E+04 -2.759475E+04 -9.904792E+04 -1.460702E+04 -1.705121E+04
        77  22  3.719438E+05  4.044728E+03  9.591087E+03 -9.898510E+04 -7.360235E+03 -2.433492E+04
        77  23  3.715505E+05  1.308399E+03  5.172931E+03 -9.328805E+04 -4.768679E+03 -2.146110E+04
        77  24  3.719594E+05  3.900646E+02  2.898234E+03 -9.898509E+04 -2.176811E+03 -1.705113E+04
        77  25  7.434986E+05  8.926816E+04  6.439781E+04 -1.013644E+05 -2.305865E+03 -2.433332E+04
        77  26  6.713397E+05  6.950358E+04  4.654294E+04 -9.444637E+04  3.976136E+03 -2.146007E+04
        77  27  6.006275E+05  5.219629E+04  3.339137E+04 -9.892224E+04  1.025776E+04 -1.705105E+04
        78   1  1.873303E+05 -4.146836E+04 -2.209913E+04 -9.895418E+04  1.430291E+04  1.396622E+04
        78   2  2.586962E+05 -2.550679E+04 -1.354094E+04 -9.326188E+04  1.419393E+04  8.633786E+03
        78   3  3.301068E+05 -9.459223E+03 -4.889043E+03 -9.907536E+04  1.408465E+04  3.094530E+03
        78   4  3.718126E+05  2.729152E+02  2.182818E+03 -9.900993E+04  1.750521E+03  1.396656E+04
        78   5  3.717522E+05  4.864945E+01  1.220626E+03 -9.325713E+04  1.144238E+03  8.634554E+03
        78   6  3.718183E+05 -2.985731E+00  6.971179E+02 -9.900997E+04  5.376785E+02  3.095739E+03
        78   7  5.563301E+05  4.201284E+04  2.646512E+04 -9.906570E+04 -1.080542E+04  1.396690E+04
        78   8  4.848216E+05  2.560364E+04  1.598275E+04 -9.325237E+04 -1.190771E+04  8.635322E+03
        78   9  4.135321E+05  9.453276E+03  6.283953E+03 -9.894457E+04 -1.301016E+04  3.096945E+03
        78  10  1.873300E+05 -4.146863E+04 -2.209988E+04 -9.895434E+04 -6.389855E-10  1.655810E-09
        78  11  2.586960E+05 -2.550692E+04 -1.354146E+04 -9.326198E+04 -7.604572E-10  4.182274E-09
        78  12  3.301065E+05 -9.459287E+03 -4.889434E+03 -9.907540E+04 -4.740821E-09  4.108959E-09
        78  13  3.718126E+05  2.727049E+02  2.182445E+03 -9.900995E+04 -4.459833E-09  1.375254E-09
        78  14  3.717522E+05  4.856902E+01  1.220483E+03 -9.325714E+04 -1.065814E-09  2.442935E-09
        78  15  3.718183E+05 -2.996102E+00  6.970993E+02 -9.900997E+04 -2.790020E-10  2.414145E-09
        78  16  5.563299E+05  4.201260E+04  2.646453E+04 -9.906558E+04  2.605555E-09  1.122739E-09
        78  17  4.848215E+05  2.560352E+04  1.598235E+04 -9.325229E+04  2.954127E-09  6.680222E-10
        78  18  4.135319E+05  9.453220E+03  6.283617E+03 -9.894453E+04  3.801832E-09  6.733829E-10
        78  19  1.873303E+05 -4.146836E+04 -2.209913E+04 -9.895418E+04 -1.430291E+04 -1.396622E+04
        78  20  2.586962E+05 -2.550679E+04 -1.354094E+04 -9.326188E+04 -1.419393E+04 -8.633786E+03
        78  21  3.301068E+05 -9.459223E+03 -4.889043E+03 -9.907536E+04 -1.408465E+04 -3.094530E+03
        78  22  3.718126E+05  2.729152E+02  2.182818E+03 -9.900993E+04 -1.750521E+03 -1.396656E+04
        78  23  3.717522E+05  4.864945E+01  1.220626E+03 -9.325713E+04 -1.144238E+03 -8.634554E+03
        78  24  3.718183E+05 -2.985731E+00  6.971179E+02 -9.900997E+04 -5.376785E+02 -3.095739E+03
        78  25  5.563301E+05  4.201284E+04  2.646512E+04 -9.906570E+04  1.080542E+04 -1.396690E+04
        78  26  4.848216E+05  2.560364E+04  1.598275E+04 -9.325237E+04  1.190771E+04 -8.635322E+03
        78  27  4.135321E+05  9.453276E+03  6.283953E+03 -9.894457E+04  1.301016E+04 -3.096945E+03
        79   1  3.741255E+05  5.145389E+02  8.018482E+02 -9.905673E+04  1.399256E+04 -1.989909E+02
        79   2  4.455079E+05  1.657344E+04  9.572684E+03 -9.328547E+04  1.389729E+04 -5.858785E+03
        79   3  5.169140E+05  3.263580E+04  1.840788E+04 -9.903477E+04  1.380222E+04 -1.154086E+04
        79   4  3.717964E+05 -5.689932E+00  5.284375E+02 -9.901330E+04  4.290928E+02 -1.977394E+02
        79   5  3.717814E+05 -1.890918E+01  3.021485E+02 -9.325298E+04  2.794463E+02 -5.857796E+03
        79   6  3.717929E+05 -1.945276E+01  1.770997E+02 -9.901331E+04  1.300186E+02 -1.154014E+04
        79   7  3.694678E+05 -5.258202E+02  2.557178E+02 -9.896987E+04 -1.313433E+04 -1.964899E+02
        79   8  2.980608E+05 -1.661138E+04 -8.967705E+03 -9.322050E+04 -1.333686E+04 -5.856808E+03
        79   9  2.266938E+05 -3.267546E+04 -1.805304E+04 -9.899186E+04 -1.353915E+04 -1.153943E+04
        79  10  3.741253E+05  5.144863E+02  8.014804E+02 -9.905673E+04 -1.328922E-09  2.941761E-09
        79  11  4.455077E+05  1.657335E+04  9.572257E+03 -9.328540E+04 -3.287564E-09  5.107800E-10
        79  12  5.169137E+05  3.263561E+04  1.840728E+04 -9.903464E+04 -3.193262E-09 -2.105923E-09
        79  13  3.717964E+05 -5.690023E+00  5.284371E+02 -9.901330E+04  2.080102E-11  1.871491E-09
        79  14  3.717814E+05 -1.894606E+01  3.020839E+02 -9.325298E+04 -1.137805E-09  4.503171E-10
        79  15  3.717928E+05 -1.959579E+01  1.768494E+02 -9.901331E+04 -3.329498E-09 -1.623351E-09
        79  16  3.694676E+05 -5.258665E+02  2.553937E+02 -9.896988E+04  4.093941E-09  8.237327E-10
        79  17  2.980606E+05 -1.661146E+04 -8.968104E+03 -9.322057E+04  9.198471E-10  3.541213E-10
        79  18  2.266935E+05 -3.267565E+04 -1.805363E+04 -9.899198E+04  1.516528E-09 -1.149597E-09
        79  19  3.741255E+05  5.145389E+02  8.018482E+02 -9.905673E+04 -1.399256E+04  1.989909E+02
        79  20  4.455079E+05  1.657344E+04  9.572684E+03 -9.328547E+04 -1.389729E+04  5.858785E+03
        79  21  5.169140E+05  3.263580E+04  1.840788E+04 -9.903477E+04 -1.380222E+04  1.154086E+04
        79  22  3.717964E+05 -5.689932E+00  5.284375E+02 -9.901330E+04 -4.290928E+02  1.977394E+02
        79  23  3.717814E+05 -1.890918E+01  3.021485E+02 -9.325298E+04 -2.794463E+02  5.857796E+03
        79  24  3.717929E+05 -1.945276E+01  1.770997E+02 -9.901331E+04 -1.300186E+02  1.154014E+04
        79  25  3.694678E+05 -5.258202E+02  2.557178E+02 -9.896987E+04  1.313433E+04  1.964899E+02
        79  26  2.980608E+05 -1.661138E+04 -8.967705E+03 -9.322050E+04  1.333686E+04  5.856808E+03
        79  27  2.266938E+05 -3.267546E+04 -1.805304E+04 -9.899186E+04  1.353915E+04  1.153943E+04
        80   1  5.609500E+05  4.260040E+04  2.419024E+04 -9.902889E+04  1.377373E+04 -1.485664E+04
        80   2  6.323512E+05  5.865782E+04  3.311483E+04 -9.325237E+04  1.363707E+04 -2.052912E+04
        80   3  7.037883E+05  7.473067E+04  4.213483E+04 -9.899786E+04  1.350115E+04 -2.616179E+04
        80   4  3.717873E+05 -2.202888E+01  1.371885E+02 -9.901368E+04  1.015680E+02 -1.485629E+04
        80   5  3.717739E+05 -3.287530E+01  8.474153E+01 -9.325253E+04  5.980294E+01 -2.052973E+04
        80   6  3.717745E+05 -4.467240E+01  6.134179E+01 -9.901368E+04  1.879326E+01 -2.616336E+04
        80   7  1.826618E+05 -4.264583E+04 -2.391529E+04 -9.899846E+04 -1.356664E+04 -1.485594E+04
        80   8  1.112666E+05 -5.872624E+04 -3.294489E+04 -9.325269E+04 -1.351205E+04 -2.053034E+04
        80   9  3.987420E+04 -7.482441E+04 -4.201184E+04 -9.902948E+04 -1.345672E+04 -2.616494E+04
        80  10  5.609497E+05  4.260012E+04  2.418946E+04 -9.902873E+04 -1.884040E-08 -1.801027E-09
        80  11  6.323509E+05  5.865732E+04  3.311369E+04 -9.325215E+04 -1.655875E-08  1.273481E-09
        80  12  7.037879E+05  7.472988E+04  4.213320E+04 -9.899758E+04 -1.379002E-08  3.029223E-09
        80  13  3.717873E+05 -2.226593E+01  1.367736E+02 -9.901368E+04  2.419024E-09 -3.683998E-09
        80  14  3.717738E+05 -3.332796E+01  8.394936E+01 -9.325253E+04  3.518290E-09 -8.455590E-09
        80  15  3.717744E+05 -4.540758E+01  6.005522E+01 -9.901368E+04  3.833713E-09 -1.364179E-08
        80  16  1.826615E+05 -4.264611E+04 -2.391605E+04 -9.899863E+04  1.928298E-08 -1.165102E-09
        80  17  1.112663E+05 -5.872674E+04 -3.294603E+04 -9.325291E+04  1.839530E-08  1.294983E-09
        80  18  3.987382E+04 -7.482520E+04 -4.201346E+04 -9.902976E+04  1.458262E-08  4.563623E-09
        80  19  5.609500E+05  4.260040E+04  2.419024E+04 -9.902889E+04 -1.377373E+04  1.485664E+04
        80  20  6.323512E+05  5.865782E+04  3.311483E+04 -9.325237E+04 -1.363707E+04  2.052912E+04
        80  21  7.037883E+05  7.473067E+04  4.213483E+04 -9.899786E+04 -1.350115E+04  2.616179E+04
        80  22  3.717873E+05 -2.202888E+01  1.371885E+02 -9.901368E+04 -1.015680E+02  1.485629E+04
        80  23  3.717739E+05 -3.287530E+01  8.474153E+01 -9.325253E+04 -5.980294E+01  2.052973E+04
        80  24  3.717745E+05 -4.467240E+01  6.134179E+01 -9.901368E+04 -1.879326E+01  2.616336E+04
        80  25  1.826618E+05 -4.264583E+04 -2.391529E+04 -9.899846E+04  1.356664E+04  1.485594E+04
        80  26  1.112666E+05 -5.872624E+04 -3.294489E+04 -9.325269E+04  1.351205E+04  2.053034E+04
        80  27  3.987420E+04 -7.482441E+04 -4.201184E+04 -9.902948E+04  1.345672E+04  2.616494E+04
        81   1  7.478683E+05  8.470960E+04  4.802348E+04 -9.898266E+04  1.346732E+04 -2.943733E+04
        81   2  8.192486E+05  1.008243E+05  5.735993E+04 -9.320170E+04  1.265648E+04 -3.487638E+04
        81   3  8.907928E+05  1.170777E+05  6.726389E+04 -9.892497E+04  1.184671E+04 -3.998951E+04
        81   4  3.717709E+05 -5.342942E+01  5.712341E+01 -9.900977E+04  8.612808E+00 -2.943966E+04
        81   5  3.717480E+05 -7.298639E+01  5.903267E+01 -9.325742E+04 -1.970625E+01 -3.488025E+04
        81   6  3.717490E+05 -8.916244E+01  8.542965E+01 -9.900977E+04 -4.687304E+01 -3.999479E+04
        81   7 -4.181095E+03 -8.482216E+04 -4.790911E+04 -9.903686E+04 -1.344235E+04 -2.944199E+04
        81   8 -7.554723E+04 -1.009784E+05 -5.724214E+04 -9.331308E+04 -1.268721E+04 -3.488412E+04
        81   9 -1.470190E+05 -1.172671E+05 -6.709394E+04 -9.909449E+04 -1.193101E+04 -4.000007E+04
        81  10  7.478678E+05  8.470862E+04  4.802151E+04 -9.898234E+04  1.780281E-08  3.166984E-09
        81  11  8.192481E+05  1.008229E+05  5.735734E+04 -9.320134E+04  1.863884E-08  1.406970E-09
        81  12  8.907922E+05  1.170759E+05  6.726062E+04 -9.892458E+04  1.552659E-08  2.521393E-10
        81  13  3.717707E+05 -5.436026E+01  5.549444E+01 -9.900977E+04  4.294831E-09 -1.358092E-08
        81  14  3.717476E+05 -7.429307E+01  5.674598E+01 -9.325742E+04  4.203368E-09 -7.904400E-09
        81  15  3.717485E+05 -9.088041E+01  8.242319E+01 -9.900977E+04  2.930382E-09 -1.605196E-09
        81  16 -4.181522E+03 -8.482314E+04 -4.791108E+04 -9.903718E+04 -1.268775E-08  4.602065E-09
        81  17 -7.554773E+04 -1.009798E+05 -5.724473E+04 -9.331344E+04 -1.469436E-08  2.263566E-09
        81  18 -1.470196E+05 -1.172689E+05 -6.709722E+04 -9.909488E+04 -1.227624E-08  1.363535E-09
        81  19  7.478683E+05  8.470960E+04  4.802348E+04 -9.898266E+04 -1.346732E+04  2.943733E+04
        81  20  8.192486E+05  1.008243E+05  5.735993E+04 -9.320170E+04 -1.265648E+04  3.487638E+04
        81  21  8.907928E+05  1.170777E+05  6.726389E+04 -9.892497E+04 -1.184671E+04  3.998951E+04
        81  22  3.717709E+05 -5.342942E+01  5.712341E+01 -9.900977E+04 -8.612808E+00  2.943966E+04
        81  23  3.717480E+05 -7.298639E+01  5.903267E+01 -9.325742E+04  1.970625E+01  3.488025E+04
        81  24  3.717490E+05 -8.916244E+01  8.542965E+01 -9.900977E+04  4.687304E+01  3.999479E+04
        81  25 -4.181095E+03 -8.482216E+04 -4.790911E+04 -9.903686E+04  1.344235E+04  2.944199E+04
        81  26 -7.554723E+04 -1.009784E+05 -5.724214E+04 -9.331308E+04  1.268721E+04  3.488412E+04
        81  27 -1.470190E+05 -1.172671E+05 -6.709394E+04 -9.909449E+04  1.193101E+04  4.000007E+04
        82   1  9.350615E+05  1.272022E+05  7.373755E+04 -9.885724E+04  1.164119E+04 -4.293588E+04
        82   2  1.006058E+06  1.438021E+05  8.583022E+04 -9.318092E+04  5.735529E+03 -4.659657E+04
        82   3  1.078131E+06  1.614742E+05  1.020411E+05 -9.883080E+04 -1.708640E+02 -4.783616E+04
        82   4  3.717486E+05 -9.905243E+01  1.081647E+02 -9.897026E+04 -6.204491E+01 -4.294217E+04
        82   5  3.717021E+05 -9.560435E+01  1.795027E+02 -9.330680E+04 -1.491061E+02 -4.660309E+04
        82   6  3.717179E+05 -2.893176E+01  3.323987E+02 -9.897028E+04 -2.361572E+02 -4.784159E+04
        82   7 -1.912399E+05 -1.274135E+05 -7.352270E+04 -9.908316E+04 -1.175518E+04 -4.294846E+04
        82   8 -2.622442E+05 -1.440107E+05 -8.547486E+04 -9.343255E+04 -6.028012E+03 -4.660961E+04
        82   9 -3.341921E+05 -1.615548E+05 -1.013841E+05 -9.910961E+04 -3.013793E+02 -4.784703E+04
        82  10  9.350609E+05  1.272002E+05  7.373383E+04 -9.885684E+04  3.853707E-10  4.597708E-10
        82  11  1.006057E+06  1.437998E+05  8.582608E+04 -9.318070E+04  4.962012E-09  1.476197E-09
        82  12  1.078130E+06  1.614718E+05  1.020368E+05 -9.883080E+04  4.796204E-09  6.944797E-10
        82  13  3.717481E+05 -1.010329E+02  1.046988E+02 -9.897026E+04  1.232945E-11  8.913455E-10
        82  14  3.717015E+05 -9.793695E+01  1.754206E+02 -9.330681E+04 -2.096197E-09  1.601488E-09
        82  15  3.717173E+05 -3.139000E+01  3.280967E+02 -9.897029E+04 -1.850945E-10  9.505906E-10
        82  16 -1.912406E+05 -1.274155E+05 -7.352643E+04 -9.908357E+04 -2.251775E-09  1.515663E-09
        82  17 -2.622448E+05 -1.440130E+05 -8.547901E+04 -9.343278E+04 -4.920403E-09  2.684677E-09
        82  18 -3.341927E+05 -1.615573E+05 -1.013884E+05 -9.910962E+04 -2.170216E-09  1.453262E-09
        82  19  9.350615E+05  1.272022E+05  7.373755E+04 -9.885724E+04 -1.164119E+04  4.293588E+04
        82  20  1.006058E+06  1.438021E+05  8.583022E+04 -9.318092E+04 -5.735529E+03  4.659657E+04
        82  21  1.078131E+06  1.614742E+05  1.020411E+05 -9.883080E+04  1.708640E+02  4.783616E+04
        82  22  3.717486E+05 -9.905243E+01  1.081647E+02 -9.897026E+04  6.204491E+01  4.294217E+04
        82  23  3.717021E+05 -9.560435E+01  1.795027E+02 -9.330680E+04  1.491061E+02  4.660309E+04
        82  24  3.717179E+05 -2.893176E+01  3.323987E+02 -9.897028E+04  2.361572E+02  4.784159E+04
        82  25 -1.912399E+05 -1.274135E+05 -7.352270E+04 -9.908316E+04  1.175518E+04  4.294846E+04
        82  26 -2.622442E+05 -1.440107E+05 -8.547486E+04 -9.343255E+04  6.028012E+03  4.660961E+04
        82  27 -3.341921E+05 -1.615548E+05 -1.013841E+05 -9.910961E+04  3.013793E+02  4.784703E+04
        83   1  1.123590E+06  1.726981E+05  1.127165E+05 -9.846608E+04 -1.655936E+03 -4.833592E+04
        83   2  1.191431E+06  1.930002E+05  1.449510E+05 -9.390923E+04 -4.513004E+04 -3.883043E+04
        83   3  1.267009E+06  2.214267E+05  2.074970E+05 -9.934742E+04 -8.862745E+04 -1.141013E+04
        83   4  3.717523E+05  9.315864E+00  4.461423E+02 -9.867404E+04 -2.945141E+02 -4.834107E+04
        83   5  3.715986E+05  3.582591E+02  8.136775E+02 -9.367728E+04 -6.999148E+02 -3.881189E+04
        83   6  3.717145E+05  1.366651E+03  1.617269E+03 -9.867469E+04 -1.122107E+03 -1.135710E+04
        83   7 -3.795189E+05 -1.727061E+05 -1.118351E+05 -9.888174E+04  1.065328E+03 -4.834623E+04
        83   8 -4.475727E+05 -1.923193E+05 -1.433406E+05 -9.344569E+04  4.367336E+04 -3.879332E+04
        83   9 -5.228234E+05 -2.187452E+05 -2.042867E+05 -9.800298E+04  8.625826E+04 -1.130384E+04
        83  10  1.123590E+06  1.726956E+05  1.127121E+05 -9.846615E+04  3.311506E-09 -6.250333E-11
        83  11  1.191428E+06  1.929980E+05  1.449443E+05 -9.391064E+04 -1.705094E-09 -1.096189E-09
        83  12  1.267001E+06  2.214244E+05  2.074820E+05 -9.934823E+04  1.757907E-09 -2.737316E-10
        83  13  3.717516E+05  6.806021E+00  4.417500E+02 -9.867405E+04 -4.101662E-10 -1.542284E-09
        83  14  3.715982E+05  3.566411E+02  8.108453E+02 -9.367730E+04 -1.661124E-09  1.634467E-09
        83  15  3.717144E+05  1.366512E+03  1.617024E+03 -9.867470E+04 -1.042555E-09  7.561835E-11
        83  16 -3.795195E+05 -1.727086E+05 -1.118395E+05 -9.888170E+04  9.435118E-11  4.038844E-10
        83  17 -4.475751E+05 -1.923214E+05 -1.433470E+05 -9.344432E+04 -3.695514E-09  1.039777E-09
        83  18 -5.228315E+05 -2.187474E+05 -2.043010E+05 -9.800220E+04 -1.835478E-10 -6.674418E-10
        83  19  1.123590E+06  1.726981E+05  1.127165E+05 -9.846608E+04  1.655936E+03  4.833592E+04
        83  20  1.191431E+06  1.930002E+05  1.449510E+05 -9.390923E+04  4.513004E+04  3.883043E+04
        83  21  1.267009E+06  2.214267E+05  2.074970E+05 -9.934742E+04  8.862745E+04  1.141013E+04
        83  22  3.717523E+05  9.315864E+00  4.461423E+02 -9.867404E+04  2.945141E+02  4.834107E+04
        83  23  3.715986E+05  3.582591E+02  8.136775E+02 -9.367728E+04  6.999148E+02  3.881189E+04
        83  24  3.717145E+05  1.366651E+03  1.617269E+03 -9.867469E+04  1.122107E+03  1.135710E+04
        83  25 -3.795189E+05 -1.727061E+05 -1.118351E+05 -9.888174E+04 -1.065328E+03  4.834623E+04
        83  26 -4.475727E+05 -1.923193E+05 -1.433406E+05 -9.344569E+04 -4.367336E+04  3.879332E+04
        83  27 -5.228234E+05 -2.187452E+05 -2.042867E+05 -9.800298E+04 -8.625826E+04  1.130384E+04
        84   1  1.953051E+05  9.438993E+05  1.867527E+05 -2.611890E+05  7.488887E+03  5.426336E+04
        84   2  1.376569E+05  7.412581E+05  1.131044E+05 -2.431692E+05  2.256661E+04  1.501964E+04
        84   3  8.859122E+04  5.458890E+05  6.712195E+04 -2.581371E+05  2.085461E+04 -2.421633E+04
        84   4  4.470756E+03  1.713188E+05  4.676192E+03 -2.577816E+05  7.532351E+03  1.887638E+03
        84   5  1.725512E+03  1.709895E+05  3.424646E+03 -2.412884E+05  2.258140E+04  1.688528E+02
        84   6  1.060607E+03  1.713939E+05  3.807058E+03 -2.577842E+05  2.083377E+04 -1.554632E+03
        84   7 -1.864048E+05 -6.007075E+05 -1.774312E+05 -2.543783E+05  7.575277E+03 -5.042336E+04
        84   8 -1.342251E+05 -3.989660E+05 -1.062693E+05 -2.394092E+05  2.259611E+04 -1.466862E+04
        84   9 -8.647712E+04 -2.029621E+05 -5.951041E+04 -2.574316E+05  2.081296E+04  2.109384E+04
        84  10  1.953043E+05  9.438962E+05  1.867471E+05 -2.611893E+05  7.343479E-10  9.515509E-10
        84  11  1.376563E+05  7.412577E+05  1.131030E+05 -2.431695E+05  1.903927E-09 -1.432065E-09
        84  12  8.859060E+04  5.458883E+05  6.712004E+04 -2.581367E+05  5.449651E-10 -6.138834E-09
        84  13  4.470694E+03  1.713187E+05  4.676078E+03 -2.577816E+05  2.535299E-09 -1.042143E-12
        84  14  1.724964E+03  1.709894E+05  3.423688E+03 -2.412884E+05  3.501249E-09 -2.782277E-10
        84  15  1.060140E+03  1.713938E+05  3.806238E+03 -2.577842E+05  1.174421E-09  6.139383E-11
        84  16 -1.864055E+05 -6.007102E+05 -1.774361E+05 -2.543780E+05  7.251749E-10 -4.998882E-10
        84  17 -1.342257E+05 -3.989663E+05 -1.062706E+05 -2.394089E+05  4.414802E-09  1.753057E-09
        84  18 -8.647771E+04 -2.029627E+05 -5.951206E+04 -2.574319E+05  2.557299E-09  5.766811E-09
        84  19  1.953051E+05  9.438993E+05  1.867527E+05 -2.611890E+05 -7.488887E+03 -5.426336E+04
        84  20  1.376569E+05  7.412581E+05  1.131044E+05 -2.431692E+05 -2.256661E+04 -1.501964E+04
        84  21  8.859122E+04  5.458890E+05  6.712195E+04 -2.581371E+05 -2.085461E+04  2.421633E+04
        84  22  4.470756E+03  1.713188E+05  4.676192E+03 -2.577816E+05 -7.532351E+03 -1.887638E+03
        84  23  1.725512E+03  1.709895E+05  3.424646E+03 -2.412884E+05 -2.258140E+04 -1.688528E+02
        84  24  1.060607E+03  1.713939E+05  3.807058E+03 -2.577842E+05 -2.083377E+04  1.554632E+03
        84  25 -1.864048E+05 -6.007075E+05 -1.774312E+05 -2.543783E+05 -7.575277E+03  5.042336E+04
        84  26 -1.342251E+05 -3.989660E+05 -1.062693E+05 -2.394092E+05 -2.259611E+04  1.466862E+04
        84  27 -8.647712E+04 -2.029621E+05 -5.951041E+04 -2.574316E+05 -2.081296E+04 -2.109384E+04
        85   1  5.930739E+04  4.209993E+05  4.625711E+04 -2.586038E+05  1.418187E+04 -2.542998E+04
        85   2  1.336887E+04  2.215893E+05  1.437524E+04 -2.399858E+05  3.671107E+03 -2.952567E+04
        85   3 -3.008944E+04  2.333235E+04 -1.423412E+04 -2.554616E+05 -7.098853E+03 -3.362060E+04
        85   4  1.059933E+03  1.714702E+05  4.466655E+03 -2.580298E+05  1.415929E+04 -2.240180E+03
        85   5  1.776913E+03  1.709669E+05  7.013777E+03 -2.409814E+05  3.647697E+03 -5.760586E+03
        85   6  4.875541E+03  1.714765E+05  1.243223E+04 -2.580265E+05 -7.123135E+03 -9.281453E+03
        85   7 -5.719048E+04 -7.799631E+04 -3.732371E+04 -2.574559E+05  1.413676E+04  2.094062E+04
        85   8 -9.814852E+03  1.203483E+05 -3.456102E+02 -2.419769E+05  3.624209E+03  1.800264E+04
        85   9  3.983964E+04  3.196434E+05  3.909996E+04 -2.605921E+05 -7.147614E+03  1.506334E+04
        85  10  5.930700E+04  4.209986E+05  4.625552E+04 -2.586035E+05 -1.104966E-09 -1.766222E-08
        85  11  1.336862E+04  2.215883E+05  1.437358E+04 -2.399857E+05  4.508261E-10 -1.803123E-08
        85  12 -3.008980E+04  2.333112E+04 -1.423634E+04 -2.554618E+05 -4.504693E-09 -1.730738E-08
        85  13  1.059716E+03  1.714702E+05  4.466269E+03 -2.580297E+05 -1.504607E-10 -1.304792E-12
        85  14  1.776890E+03  1.709669E+05  7.013689E+03 -2.409814E+05  1.224938E-08 -3.849595E-10
        85  15  4.875463E+03  1.714764E+05  1.243197E+04 -2.580266E+05  9.485105E-09  1.288089E-10
        85  16 -5.719082E+04 -7.799684E+04 -3.732491E+04 -2.574562E+05  4.680540E-10  1.826546E-08
        85  17 -9.814953E+03  1.203480E+05 -3.462439E+02 -2.419770E+05 -5.579696E-09  1.814879E-08
        85  18  3.983953E+04  3.196431E+05  3.909943E+04 -2.605920E+05 -6.441658E-09  1.697028E-08
        85  19  5.930739E+04  4.209993E+05  4.625711E+04 -2.586038E+05 -1.418187E+04  2.542998E+04
        85  20  1.336887E+04  2.215893E+05  1.437524E+04 -2.399858E+05 -3.671107E+03  2.952567E+04
        85  21 -3.008944E+04  2.333235E+04 -1.423412E+04 -2.554616E+05  7.098853E+03  3.362060E+04
        85  22  1.059933E+03  1.714702E+05  4.466655E+03 -2.580298E+05 -1.415929E+04  2.240180E+03
        85  23  1.776913E+03  1.709669E+05  7.013777E+03 -2.409814E+05 -3.647697E+03  5.760586E+03
        85  24  4.875541E+03  1.714765E+05  1.243223E+04 -2.580265E+05  7.123135E+03  9.281453E+03
        85  25 -5.719048E+04 -7.799631E+04 -3.732371E+04 -2.574559E+05 -1.413676E+04 -2.094062E+04
        85  26 -9.814852E+03  1.203483E+05 -3.456102E+02 -2.419769E+05 -3.624209E+03 -1.800264E+04
        85  27  3.983964E+04  3.196434E+05  3.909996E+04 -2.605921E+05  7.147614E+03 -1.506334E+04
        86   1 -5.786258E+04 -9.986569E+04 -3.132254E+04 -2.566975E+05 -1.401875E+04 -3.532400E+04
        86   2 -9.316064E+04 -2.999665E+05 -6.177064E+04 -2.215691E+05 -1.739211E+04 -1.791767E+04
        86   3 -1.093881E+05 -4.975402E+05 -9.879170E+04 -2.196015E+05 -6.062385E+03 -5.118832E+02
        86   4  6.284185E+03  1.730586E+05  1.648242E+04 -2.578194E+05 -1.404184E+04 -1.143887E+04
        86   5  1.905677E+04  1.689383E+05  3.017480E+04 -2.412230E+05 -1.738232E+04 -2.684396E+04
        86   6  5.658680E+04  1.729924E+05  6.007460E+04 -2.577798E+05 -6.025892E+03 -4.224396E+04
        86   7  7.042721E+04  4.460570E+05  6.428686E+04 -2.589418E+05 -1.406501E+04  1.245644E+04
        86   8  1.312624E+05  6.380548E+05  1.221101E+05 -2.608920E+05 -1.737198E+04 -3.577684E+04
        86   9  2.225358E+05  8.439451E+05  2.189170E+05 -2.959994E+05 -5.984292E+03 -8.402088E+04
        86  10 -5.786313E+04 -9.986709E+04 -3.132526E+04 -2.566979E+05 -5.331233E-09  1.503140E-08
        86  11 -9.316106E+04 -2.999669E+05 -6.177181E+04 -2.215694E+05 -4.820524E-09  1.757282E-08
        86  12 -1.093882E+05 -4.975402E+05 -9.879177E+04 -2.196015E+05 -8.050708E-10  1.492426E-08
        86  13  6.283938E+03  1.730584E+05  1.648181E+04 -2.578195E+05  1.236571E-08  2.297203E-11
        86  14  1.905625E+04  1.689374E+05  3.017287E+04 -2.412234E+05  3.572577E-09 -2.331349E-10
        86  15  5.658628E+04  1.729905E+05  6.007118E+04 -2.577800E+05  9.346285E-10  7.093119E-11
        86  16  7.042696E+04  4.460567E+05  6.428620E+04 -2.589416E+05 -9.121524E-09 -1.429177E-08
        86  17  1.312617E+05  6.380533E+05  1.221071E+05 -2.608925E+05 -3.467027E-09 -1.725681E-08
        86  18  2.225339E+05  8.439375E+05  2.189036E+05 -2.959998E+05 -1.445788E-09 -1.517164E-08
        86  19 -5.786258E+04 -9.986569E+04 -3.132254E+04 -2.566975E+05  1.401875E+04  3.532400E+04
        86  20 -9.316064E+04 -2.999665E+05 -6.177064E+04 -2.215691E+05  1.739211E+04  1.791767E+04
        86  21 -1.093881E+05 -4.975402E+05 -9.879170E+04 -2.196015E+05  6.062385E+03  5.118832E+02
        86  22  6.284185E+03  1.730586E+05  1.648242E+04 -2.578194E+05  1.404184E+04  1.143887E+04
        86  23  1.905677E+04  1.689383E+05  3.017480E+04 -2.412230E+05  1.738232E+04  2.684396E+04
        86  24  5.658680E+04  1.729924E+05  6.007460E+04 -2.577798E+05  6.025892E+03  4.224396E+04
        86  25  7.042721E+04  4.460570E+05  6.428686E+04 -2.589418E+05  1.406501E+04 -1.245644E+04
        86  26  1.312624E+05  6.380548E+05  1.221101E+05 -2.608920E+05  1.737198E+04  3.577684E+04
        86  27  2.225358E+05  8.439451E+05  2.189170E+05 -2.959994E+05  5.984292E+03  8.402088E+04
        87   1 -3.869499E+05 -2.188459E+05 -1.366612E+05 -1.652062E+05 -6.741233E+04 -2.166248E+04
        87   2 -3.635085E+05 -1.362863E+05 -7.821776E+04 -1.542381E+05 -4.206849E+04 -4.081133E+03
        87   3 -3.557065E+05 -1.033492E+05 -5.279748E+04 -1.380133E+05 -1.446632E+04  7.490954E+03
        87   4 -1.942767E+05 -1.084383E+05 -7.939583E+04 -7.327233E+04 -5.247950E+04 -1.606257E+04
        87   5 -1.829841E+05 -5.360613E+04 -3.641021E+04 -8.749678E+04 -3.604148E+04 -1.820758E+03
        87   6 -1.855610E+05 -4.662603E+04 -1.938446E+04 -9.646730E+04 -1.734633E+04  6.410006E+03
        87   7 -1.565688E+03  1.987971E+03 -2.213358E+04  1.869102E+04 -3.754185E+04 -1.045855E+04
        87   8 -2.426388E+03  2.908190E+04  5.395201E+03 -2.073613E+04 -3.001262E+04  4.407146E+02
        87   9 -1.538472E+04  1.009875E+04  1.402752E+04 -5.491109E+04 -2.022721E+04  5.328797E+03
        87  10 -3.869549E+05 -2.188476E+05 -1.366706E+05 -1.652074E+05 -9.676454E-09 -3.181639E-09
        87  11 -3.635104E+05 -1.362868E+05 -7.822111E+04 -1.542382E+05 -5.305395E-09 -2.700721E-10
        87  12 -3.557067E+05 -1.033493E+05 -5.279797E+04 -1.380132E+05  1.052422E-08  6.358745E-09
        87  13 -1.942797E+05 -1.084393E+05 -7.940150E+04 -7.327301E+04 -2.676729E-09 -1.120999E-09
        87  14 -1.829855E+05 -5.360648E+04 -3.641265E+04 -8.749684E+04 -9.643869E-09 -5.097613E-09
        87  15 -1.855613E+05 -4.662616E+04 -1.938511E+04 -9.646721E+04 -1.581020E-09 -7.194288E-09
        87  16 -1.567231E+03  1.987476E+03 -2.213644E+04  1.869070E+04  4.854447E-09  2.868088E-09
        87  17 -2.427355E+03  2.908166E+04  5.393507E+03 -2.073612E+04 -7.571359E-09 -5.612734E-10
        87  18 -1.538517E+04  1.009861E+04  1.402670E+04 -5.491100E+04 -1.490272E-08 -2.465515E-09
        87  19 -3.869499E+05 -2.188459E+05 -1.366612E+05 -1.652062E+05  6.741233E+04  2.166248E+04
        87  20 -3.635085E+05 -1.362863E+05 -7.821776E+04 -1.542381E+05  4.206849E+04  4.081133E+03
        87  21 -3.557065E+05 -1.033492E+05 -5.279748E+04 -1.380133E+05  1.446632E+04 -7.490954E+03
        87  22 -1.942767E+05 -1.084383E+05 -7.939583E+04 -7.327233E+04  5.247950E+04  1.606257E+04
        87  23 -1.829841E+05 -5.360613E+04 -3.641021E+04 -8.749678E+04  3.604148E+04  1.820758E+03
        87  24 -1.855610E+05 -4.662603E+04 -1.938446E+04 -9.646730E+04  1.734633E+04 -6.410006E+03
        87  25 -1.565688E+03  1.987971E+03 -2.213358E+04  1.869102E+04  3.754185E+04  1.045855E+04
        87  26 -2.426388E+03  2.908190E+04  5.395201E+03 -2.073613E+04  3.001262E+04 -4.407146E+02
        87  27 -1.538472E+04  1.009875E+04  1.402752E+04 -5.491109E+04  2.022721E+04 -5.328797E+03
        88   1 -3.303523E+05 -1.030682E+05 -4.437277E+04 -1.364825E+05 -1.289063E+04  6.766380E+03
        88   2 -3.055659E+05 -8.787148E+04 -3.152884E+04 -1.262216E+05 -7.793383E+03  7.050752E+03
        88   3 -2.771143E+05 -7.982918E+04 -2.263640E+04 -1.213821E+05 -2.534083E+03  6.903287E+03
        88   4 -1.831718E+05 -4.846050E+04 -1.475806E+04 -9.474554E+04 -1.468811E+04  6.091634E+03
        88   5 -1.848901E+05 -4.369350E+04 -7.794494E+03 -9.250440E+04 -1.023021E+04  6.136270E+03
        88   6 -1.828166E+05 -4.595395E+04 -4.275028E+03 -9.568494E+04 -5.610434E+03  5.749033E+03
        88   7 -3.597020E+04  6.148780E+03  1.485526E+04 -5.299968E+04 -1.648604E+04  5.416716E+03
        88   8 -6.419915E+04  4.858059E+02  1.593921E+04 -5.878107E+04 -1.266754E+04  5.221596E+03
        88   9 -8.850898E+04 -1.207768E+04  1.408621E+04 -6.998395E+04 -8.687312E+03  4.594587E+03
        88  10 -3.303525E+05 -1.030683E+05 -4.437316E+04 -1.364825E+05 -1.223073E-08 -3.343185E-09
        88  11 -3.055660E+05 -8.787155E+04 -3.152904E+04 -1.262216E+05 -2.416717E-09  7.822080E-11
        88  12 -2.771143E+05 -7.982923E+04 -2.263650E+04 -1.213821E+05  8.691453E-09  4.393657E-09
        88  13 -1.831720E+05 -4.846060E+04 -1.475853E+04 -9.474547E+04  1.041402E-09 -6.524800E-09
        88  14 -1.848902E+05 -4.369357E+04 -7.794761E+03 -9.250435E+04 -2.189353E-09 -4.724029E-09
        88  15 -1.828167E+05 -4.595399E+04 -4.275149E+03 -9.568492E+04 -9.976789E-10 -1.771274E-09
        88  16 -3.597050E+04  6.148675E+03  1.485469E+04 -5.299961E+04  1.275465E-08  7.794483E-09
        88  17 -6.419933E+04  4.857335E+02  1.593885E+04 -5.878102E+04 -1.852149E-10  1.136299E-09
        88  18 -8.850907E+04 -1.207773E+04  1.408602E+04 -6.998392E+04 -1.105660E-08 -5.634586E-09
        88  19 -3.303523E+05 -1.030682E+05 -4.437277E+04 -1.364825E+05  1.289063E+04 -6.766380E+03
        88  20 -3.055659E+05 -8.787148E+04 -3.152884E+04 -1.262216E+05  7.793383E+03 -7.050752E+03
        88  21 -2.771143E+05 -7.982918E+04 -2.263640E+04 -1.213821E+05  2.534083E+03 -6.903287E+03
        88  22 -1.831718E+05 -4.846050E+04 -1.475806E+04 -9.474554E+04  1.468811E+04 -6.091634E+03
        88  23 -1.848901E+05 -4.369350E+04 -7.794494E+03 -9.250440E+04  1.023021E+04 -6.136270E+03
        88  24 -1.828166E+05 -4.595395E+04 -4.275028E+03 -9.568494E+04  5.610434E+03 -5.749033E+03
        88  25 -3.597020E+04  6.148780E+03  1.485526E+04 -5.299968E+04  1.648604E+04 -5.416716E+03
        88  26 -6.419915E+04  4.858059E+02  1.593921E+04 -5.878107E+04  1.266754E+04 -5.221596E+03
        88  27 -8.850898E+04 -1.207768E+04  1.408621E+04 -6.998395E+04  8.687312E+03 -4.594587E+03
        89   1 -2.585888E+05 -7.352476E+04 -1.790741E+04 -1.165219E+05 -1.558751E+03  5.889645E+03
        89   2 -2.340671E+05 -6.115574E+04 -1.126517E+04 -1.061797E+05  1.339512E+02  4.199514E+03
        89   3 -2.046518E+05 -5.394581E+04 -5.338020E+03 -1.016371E+05  1.838244E+03  2.478223E+03
        89   4 -1.826395E+05 -4.603768E+04 -3.216135E+03 -9.558058E+04 -4.557809E+03  4.764463E+03
        89   5 -1.850865E+05 -4.343818E+04 -1.768429E+03 -9.268967E+04 -2.911219E+03  3.057108E+03
        89   6 -1.826316E+05 -4.598858E+04 -9.991694E+02 -9.559855E+04 -1.253088E+03  1.318585E+03
        89   7 -1.066842E+05 -1.855010E+04  1.147492E+04 -7.463687E+04 -7.557259E+03  3.639135E+03
        89   8 -1.361038E+05 -2.572050E+04  7.728186E+03 -7.919872E+04 -5.956634E+03  1.914612E+03
        89   9 -1.606111E+05 -3.803138E+04  3.339646E+03 -8.955986E+04 -4.344510E+03  1.589135E+02
        89  10 -2.585888E+05 -7.352480E+04 -1.790748E+04 -1.165219E+05 -1.336558E-09  8.433028E-10
        89  11 -2.340671E+05 -6.115576E+04 -1.126521E+04 -1.061797E+05 -1.880037E-09  4.285280E-10
        89  12 -2.046518E+05 -5.394582E+04 -5.338038E+03 -1.016371E+05 -2.282418E-09  5.945189E-10
        89  13 -1.826395E+05 -4.603771E+04 -3.216217E+03 -9.558056E+04 -1.921534E-09 -5.800613E-10
        89  14 -1.850866E+05 -4.343820E+04 -1.768463E+03 -9.268967E+04  9.631592E-10  5.095554E-10
        89  15 -1.826316E+05 -4.598859E+04 -9.991756E+02 -9.559855E+04 -1.811027E-09  1.286517E-09
        89  16 -1.066843E+05 -1.855013E+04  1.147478E+04 -7.463685E+04  6.822365E-10 -2.213164E-09
        89  17 -1.361038E+05 -2.572051E+04  7.728112E+03 -7.919871E+04 -5.825673E-10  9.097992E-11
        89  18 -1.606111E+05 -3.803139E+04  3.339611E+03 -8.955986E+04  1.382385E-09  2.073924E-09
        89  19 -2.585888E+05 -7.352476E+04 -1.790741E+04 -1.165219E+05  1.558751E+03 -5.889645E+03
        89  20 -2.340671E+05 -6.115574E+04 -1.126517E+04 -1.061797E+05 -1.339512E+02 -4.199514E+03
        89  21 -2.046518E+05 -5.394581E+04 -5.338020E+03 -1.016371E+05 -1.838244E+03 -2.478223E+03
        89  22 -1.826395E+05 -4.603768E+04 -3.216135E+03 -9.558058E+04  4.557809E+03 -4.764463E+03
        89  23 -1.850865E+05 -4.343818E+04 -1.768429E+03 -9.268967E+04  2.911219E+03 -3.057108E+03
        89  24 -1.826316E+05 -4.598858E+04 -9.991694E+02 -9.559855E+04  1.253088E+03 -1.318585E+03
        89  25 -1.066842E+05 -1.855010E+04  1.147492E+04 -7.463687E+04  7.557259E+03 -3.639135E+03
        89  26 -1.361038E+05 -2.572050E+04  7.728186E+03 -7.919872E+04  5.956634E+03 -1.914612E+03
        89  27 -1.606111E+05 -3.803138E+04  3.339646E+03 -8.955986E+04  4.344510E+03 -1.589135E+02
        90   1 -1.865063E+05 -4.735186E+04 -1.446133E+03 -9.662708E+04  2.434935E+03  1.317711E+03
        90   2 -1.620617E+05 -3.505511E+04  3.985791E+03 -8.625932E+04  3.459213E+03 -6.731798E+02
        90   3 -1.325991E+05 -2.781640E+04  9.236113E+03 -8.168419E+04  4.484234E+03 -2.665919E+03
        90   4 -1.826094E+05 -4.599241E+04 -7.694231E+02 -9.558794E+04 -6.509423E+02  1.601312E+02
        90   5 -1.851189E+05 -4.346874E+04 -4.828097E+02 -9.268948E+04  3.704897E+02 -1.831872E+03
        90   6 -1.826112E+05 -4.600288E+04 -3.757441E+02 -9.558415E+04  1.392650E+03 -3.825722E+03
        90   7 -1.787124E+05 -4.463293E+04 -9.266346E+01 -9.454879E+04 -3.736867E+03 -9.974662E+02
        90   8 -2.081756E+05 -5.188234E+04 -4.951423E+03 -9.911944E+04 -2.718125E+03 -2.990523E+03
        90   9 -2.326207E+05 -6.418914E+04 -9.987672E+03 -1.094831E+05 -1.698669E+03 -4.985426E+03
        90  10 -1.865063E+05 -4.735186E+04 -1.446147E+03 -9.662708E+04  8.285631E-10  1.205517E-09
        90  11 -1.620617E+05 -3.505512E+04  3.985768E+03 -8.625932E+04  1.717091E-09 -5.007203E-10
        90  12 -1.325992E+05 -2.781641E+04  9.236062E+03 -8.168418E+04 -2.528977E-09 -1.641579E-09
        90  13 -1.826094E+05 -4.599241E+04 -7.694240E+02 -9.558794E+04 -2.569595E-09  1.442111E-09
        90  14 -1.851189E+05 -4.346874E+04 -4.828163E+02 -9.268948E+04 -6.472679E-09  7.640919E-11
        90  15 -1.826112E+05 -4.600290E+04 -3.757753E+02 -9.558414E+04 -7.436972E-09 -1.425021E-09
        90  16 -1.787125E+05 -4.463294E+04 -9.269158E+01 -9.454879E+04 -1.807963E-09  1.733634E-09
        90  17 -2.081756E+05 -5.188235E+04 -4.951453E+03 -9.911944E+04 -8.207361E-09  1.139973E-09
        90  18 -2.326207E+05 -6.418917E+04 -9.987724E+03 -1.094831E+05 -2.533385E-09 -1.334394E-09
        90  19 -1.865063E+05 -4.735186E+04 -1.446133E+03 -9.662708E+04 -2.434935E+03 -1.317711E+03
        90  20 -1.620617E+05 -3.505511E+04  3.985791E+03 -8.625932E+04 -3.459213E+03  6.731798E+02
        90  21 -1.325991E+05 -2.781640E+04  9.236113E+03 -8.168419E+04 -4.484234E+03  2.665919E+03
        90  22 -1.826094E+05 -4.599241E+04 -7.694231E+02 -9.558794E+04  6.509423E+02 -1.601312E+02
        90  23 -1.851189E+05 -4.346874E+04 -4.828097E+02 -9.268948E+04 -3.704897E+02  1.831872E+03
        90  24 -1.826112E+05 -4.600288E+04 -3.757441E+02 -9.558415E+04 -1.392650E+03  3.825722E+03
        90  25 -1.787124E+05 -4.463293E+04 -9.266346E+01 -9.454879E+04  3.736867E+03  9.974662E+02
        90  26 -2.081756E+05 -5.188234E+04 -4.951423E+03 -9.911944E+04  2.718125E+03  2.990523E+03
        90  27 -2.326207E+05 -6.418914E+04 -9.987672E+03 -1.094831E+05  1.698669E+03  4.985426E+03
        91   1 -1.144924E+05 -2.120802E+04  1.289904E+04 -7.667061E+04  5.002155E+03 -3.856012E+03
        91   2 -9.005629E+04 -8.906096E+03  1.794378E+04 -6.630620E+04  6.012667E+03 -5.853082E+03
        91   3 -6.060101E+04 -1.659468E+03  2.281784E+04 -6.173209E+04  7.021995E+03 -7.846505E+03
        91   4 -1.826119E+05 -4.600319E+04 -3.735214E+02 -9.558364E+04  1.910603E+03 -5.015854E+03
        91   5 -1.851210E+05 -4.347307E+04 -4.705037E+02 -9.268939E+04  2.926368E+03 -7.011096E+03
        91   6 -1.826127E+05 -4.599931E+04 -7.423051E+02 -9.558568E+04  3.940942E+03 -9.002703E+03
        91   7 -2.507260E+05 -7.079771E+04 -1.364609E+04 -1.144946E+05 -1.180558E+03 -6.175550E+03
        91   8 -2.801764E+05 -7.803924E+04 -1.888514E+04 -1.190688E+05 -1.594252E+02 -8.168921E+03
        91   9 -3.046100E+05 -9.033822E+04 -2.430335E+04 -1.294334E+05  8.605118E+02 -1.015867E+04
        91  10 -1.144924E+05 -2.120805E+04  1.289897E+04 -7.667059E+04 -3.115080E-08 -1.135061E-08
        91  11 -9.005633E+04 -8.906143E+03  1.794365E+04 -6.630617E+04 -3.552705E-09  3.257544E-10
        91  12 -6.060108E+04 -1.659548E+03  2.281763E+04 -6.173204E+04  2.170931E-08  1.041454E-08
        91  13 -1.826119E+05 -4.600322E+04 -3.735755E+02 -9.558363E+04 -5.947996E-09 -1.685099E-09
        91  14 -1.851210E+05 -4.347313E+04 -4.706121E+02 -9.268937E+04 -5.923470E-09 -1.275423E-09
        91  15 -1.826128E+05 -4.599940E+04 -7.424865E+02 -9.558565E+04 -1.567681E-09 -7.550560E-10
        91  16 -2.507260E+05 -7.079775E+04 -1.364617E+04 -1.144946E+05  2.534543E-08  7.868162E-09
        91  17 -2.801764E+05 -7.803931E+04 -1.888527E+04 -1.190688E+05  2.685581E-09 -2.137173E-09
        91  18 -3.046100E+05 -9.033834E+04 -2.430354E+04 -1.294334E+05 -2.447383E-08 -1.158581E-08
        91  19 -1.144924E+05 -2.120802E+04  1.289904E+04 -7.667061E+04 -5.002155E+03  3.856012E+03
        91  20 -9.005629E+04 -8.906096E+03  1.794378E+04 -6.630620E+04 -6.012667E+03  5.853082E+03
        91  21 -6.060101E+04 -1.659468E+03  2.281784E+04 -6.173209E+04 -7.021995E+03  7.846505E+03
        91  22 -1.826119E+05 -4.600319E+04 -3.735214E+02 -9.558364E+04 -1.910603E+03  5.015854E+03
        91  23 -1.851210E+05 -4.347307E+04 -4.705037E+02 -9.268939E+04 -2.926368E+03  7.011096E+03
        91  24 -1.826127E+05 -4.599931E+04 -7.423051E+02 -9.558568E+04 -3.940942E+03  9.002703E+03
        91  25 -2.507260E+05 -7.079771E+04 -1.364609E+04 -1.144946E+05  1.180558E+03  6.175550E+03
        91  26 -2.801764E+05 -7.803924E+04 -1.888514E+04 -1.190688E+05  1.594252E+02  8.168921E+03
        91  27 -3.046100E+05 -9.033822E+04 -2.430335E+04 -1.294334E+05 -8.605118E+02  1.015867E+04
        92   1 -4.251214E+04  4.940010E+03  2.625829E+04 -5.674106E+04  7.626413E+03 -9.002899E+03
        92   2 -1.803735E+04  1.724275E+04  3.068269E+04 -4.638379E+04  9.175987E+03 -1.077029E+04
        92   3  1.135707E+04  2.441777E+04  3.451154E+04 -4.181777E+04  1.070803E+04 -1.249006E+04
        92   4 -1.826357E+05 -4.599613E+04 -9.617086E+02 -9.559477E+04  4.537553E+03 -1.016215E+04
        92   5 -1.850939E+05 -4.345179E+04 -1.698625E+03 -9.268979E+04  6.157391E+03 -1.190343E+04
        92   6 -1.826469E+05 -4.604927E+04 -3.086846E+03 -9.557647E+04  7.759660E+03 -1.359709E+04
        92   7 -3.227389E+05 -9.693052E+04 -2.818252E+04 -1.344404E+05  1.449441E+03 -1.132112E+04
        92   8 -3.521207E+05 -1.041436E+05 -3.408092E+04 -1.389840E+05  3.139680E+03 -1.303623E+04
        92   9 -3.766101E+05 -1.165123E+05 -4.068638E+04 -1.493191E+05  4.812298E+03 -1.470374E+04
        92  10 -4.251222E+04  4.939907E+03  2.625802E+04 -5.674100E+04 -7.133776E-10  1.142470E-09
        92  11 -1.803748E+04  1.724260E+04  3.068231E+04 -4.638372E+04 -5.696048E-10  2.178498E-09
        92  12  1.135691E+04  2.441758E+04  3.451104E+04 -4.181766E+04  1.073052E-09  2.998476E-09
        92  13 -1.826358E+05 -4.599625E+04 -9.619413E+02 -9.559474E+04 -1.360949E-10  7.328543E-11
        92  14 -1.850940E+05 -4.345195E+04 -1.698962E+03 -9.268973E+04  3.675802E-09  1.812785E-09
        92  15 -1.826470E+05 -4.604949E+04 -3.087306E+03 -9.557638E+04  1.481458E-08  3.219615E-09
        92  16 -3.227389E+05 -9.693066E+04 -2.818276E+04 -1.344403E+05  3.010811E-10 -1.424579E-09
        92  17 -3.521207E+05 -1.041437E+05 -3.408126E+04 -1.389840E+05  4.055418E-09 -3.423541E-10
        92  18 -3.766102E+05 -1.165126E+05 -4.068683E+04 -1.493191E+05  7.536579E-09  2.964961E-09
        92  19 -4.251214E+04  4.940010E+03  2.625829E+04 -5.674106E+04 -7.626413E+03  9.002899E+03
        92  20 -1.803735E+04  1.724275E+04  3.068269E+04 -4.638379E+04 -9.175987E+03  1.077029E+04
        92  21  1.135707E+04  2.441777E+04  3.451154E+04 -4.181777E+04 -1.070803E+04  1.249006E+04
        92  22 -1.826357E+05 -4.599613E+04 -9.617086E+02 -9.559477E+04 -4.537553E+03  1.016215E+04
        92  23 -1.850939E+05 -4.345179E+04 -1.698625E+03 -9.268979E+04 -6.157391E+03  1.190343E+04
        92  24 -1.826469E+05 -4.604927E+04 -3.086846E+03 -9.557647E+04 -7.759660E+03  1.359709E+04
        92  25 -3.227389E+05 -9.693052E+04 -2.818252E+04 -1.344404E+05 -1.449441E+03  1.132112E+04
        92  26 -3.521207E+05 -1.041436E+05 -3.408092E+04 -1.389840E+05 -3.139680E+03  1.303623E+04
        92  27 -3.766101E+05 -1.165123E+05 -4.068638E+04 -1.493191E+05 -4.812298E+03  1.470374E+04
        93   1  2.951241E+04  3.089832E+04  3.716678E+04 -3.714341E+04  1.185238E+04 -1.343569E+04
        93   2  5.375771E+04  4.344404E+04  3.927434E+04 -2.600581E+04  1.529966E+04 -1.412580E+04
        93   3  8.202492E+04  4.925732E+04  3.884790E+04 -2.027667E+04  1.850179E+04 -1.416139E+04
        93   4 -1.828192E+05 -4.596641E+04 -4.101979E+03 -9.567165E+04  8.787141E+03 -1.458676E+04
        93   5 -1.849059E+05 -4.370858E+04 -7.478848E+03 -9.251591E+04  1.320356E+04 -1.491342E+04
        93   6 -1.831642E+05 -4.837630E+04 -1.415862E+04 -9.476942E+04  1.737466E+04 -1.458547E+04
        93   7 -3.951060E+05 -1.228280E+05 -4.537322E+04 -1.541819E+05  5.722995E+03 -1.573743E+04
        93   8 -4.235115E+05 -1.308565E+05 -5.423490E+04 -1.590026E+05  1.110831E+04 -1.570071E+04
        93   9 -4.482808E+05 -1.460035E+05 -6.716855E+04 -1.692327E+05  1.624804E+04 -1.500935E+04
        93  10  2.951221E+04  3.089809E+04  3.716617E+04 -3.714328E+04  7.834876E-09  3.699457E-09
        93  11  5.375740E+04  4.344376E+04  3.927352E+04 -2.600563E+04  9.102822E-09 -1.458734E-09
        93  12  8.202450E+04  4.925701E+04  3.884688E+04 -2.027646E+04  4.849217E-09 -2.767996E-09
        93  13 -1.828194E+05 -4.596666E+04 -4.102524E+03 -9.567155E+04  1.299240E-08  2.330169E-09
        93  14 -1.849061E+05 -4.370887E+04 -7.479594E+03 -9.251575E+04  1.174967E-08  1.536318E-09
        93  15 -1.831646E+05 -4.837661E+04 -1.415959E+04 -9.476922E+04  1.857833E-09 -2.753425E-10
        93  16 -3.951061E+05 -1.228283E+05 -4.537375E+04 -1.541818E+05  3.335536E-09  2.171569E-09
        93  17 -4.235117E+05 -1.308568E+05 -5.423560E+04 -1.590025E+05 -2.592741E-09  3.177298E-09
        93  18 -4.482811E+05 -1.460038E+05 -6.716947E+04 -1.692325E+05 -3.081332E-09  2.543417E-09
        93  19  2.951241E+04  3.089832E+04  3.716678E+04 -3.714341E+04 -1.185238E+04  1.343569E+04
        93  20  5.375771E+04  4.344404E+04  3.927434E+04 -2.600581E+04 -1.529966E+04  1.412580E+04
        93  21  8.202492E+04  4.925732E+04  3.884790E+04 -2.027667E+04 -1.850179E+04  1.416139E+04
        93  22 -1.828192E+05 -4.596641E+04 -4.101979E+03 -9.567165E+04 -8.787141E+03  1.458676E+04
        93  23 -1.849059E+05 -4.370858E+04 -7.478848E+03 -9.251591E+04 -1.320356E+04  1.491342E+04
        93  24 -1.831642E+05 -4.837630E+04 -1.415862E+04 -9.476942E+04 -1.737466E+04  1.458547E+04
        93  25 -3.951060E+05 -1.228280E+05 -4.537322E+04 -1.541819E+05 -5.722995E+03  1.573743E+04
        93  26 -4.235115E+05 -1.308565E+05 -5.423490E+04 -1.590026E+05 -1.110831E+04  1.570071E+04
        93  27 -4.482808E+05 -1.460035E+05 -6.716855E+04 -1.692327E+05 -1.624804E+04  1.500935E+04
        94   1  1.025908E+05  5.340217E+04  3.827347E+04 -2.182886E+04  2.269801E+04 -1.386435E+04
        94   2  1.156536E+05  7.220624E+04  3.199939E+04  1.102739E+04  2.650897E+04 -9.363707E+03
        94   3  1.181296E+05  4.777160E+04  1.152360E+04  4.889613E+04  2.690007E+04  4.240845E+03
        94   4 -1.854897E+05 -4.658429E+04 -1.859663E+04 -9.638227E+04  1.993036E+04 -1.490442E+04
        94   5 -1.830428E+05 -5.326351E+04 -3.493149E+04 -8.775946E+04  3.723889E+04 -5.335244E+03
        94   6 -1.938655E+05 -1.058697E+05 -7.616872E+04 -7.412343E+04  5.112617E+04  1.333937E+04
        94   7 -4.734843E+05 -1.465654E+05 -7.547043E+04 -1.709045E+05  1.716409E+04 -1.594404E+04
        94   8 -4.816434E+05 -1.787163E+05 -1.018663E+05 -1.864985E+05  4.796312E+04 -1.309606E+03
        94   9 -5.057530E+05 -2.594778E+05 -1.638650E+05 -1.970767E+05  7.533842E+04  2.242908E+04
        94  10  1.025902E+05  5.340182E+04  3.827214E+04 -2.182860E+04  2.462160E-09 -1.860147E-09
        94  11  1.156528E+05  7.220595E+04  3.199791E+04  1.102759E+04  2.282563E-09  4.022571E-10
        94  12  1.181288E+05  4.777139E+04  1.152220E+04  4.889604E+04  6.862032E-10  5.062126E-10
        94  13 -1.854902E+05 -4.658463E+04 -1.859779E+04 -9.638203E+04  4.001263E-10 -7.070433E-10
        94  14 -1.830443E+05 -5.326391E+04 -3.493415E+04 -8.775930E+04 -3.657160E-09  1.016851E-09
        94  15 -1.938683E+05 -1.058706E+05 -7.617397E+04 -7.412398E+04 -5.518505E-10  8.438161E-10
        94  16 -4.734847E+05 -1.465658E+05 -7.547147E+04 -1.709042E+05 -2.458525E-09  1.311656E-09
        94  17 -4.816458E+05 -1.787169E+05 -1.018706E+05 -1.864985E+05 -2.657724E-09  2.563466E-10
        94  18 -5.057592E+05 -2.594798E+05 -1.638767E+05 -1.970781E+05 -4.310737E-10 -3.826202E-10
        94  19  1.025908E+05  5.340217E+04  3.827347E+04 -2.182886E+04 -2.269801E+04  1.386435E+04
        94  20  1.156536E+05  7.220624E+04  3.199939E+04  1.102739E+04 -2.650897E+04  9.363707E+03
        94  21  1.181296E+05  4.777160E+04  1.152360E+04  4.889613E+04 -2.690007E+04 -4.240845E+03
        94  22 -1.854897E+05 -4.658429E+04 -1.859663E+04 -9.638227E+04 -1.993036E+04  1.490442E+04
        94  23 -1.830428E+05 -5.326351E+04 -3.493149E+04 -8.775946E+04 -3.723889E+04  5.335244E+03
        94  24 -1.938655E+05 -1.058697E+05 -7.616872E+04 -7.412343E+04 -5.112617E+04 -1.333937E+04
        94  25 -4.734843E+05 -1.465654E+05 -7.547043E+04 -1.709045E+05 -1.716409E+04  1.594404E+04
        94  26 -4.816434E+05 -1.787163E+05 -1.018663E+05 -1.864985E+05 -4.796312E+04  1.309606E+03
        94  27 -5.057530E+05 -2.594778E+05 -1.638650E+05 -1.970767E+05 -7.533842E+04 -2.242908E+04
        95   1  8.693699E+05  1.357708E+05  1.208336E+05  1.634131E+04  3.731095E+04 -1.008264E+04
        95   2  8.330469E+05  1.499479E+05  9.982991E+04  2.917990E+04  1.583882E+04 -3.493593E+04
        95   3  7.958969E+05  1.495471E+05  8.916767E+04  4.707268E+04 -5.642619E+03 -4.441968E+04
        95   4  1.262101E+05 -4.690423E+04 -5.013902E+04  4.734819E+04 -3.532520E+04 -1.014834E+04
        95   5  1.296120E+05 -1.561362E+04 -2.513322E+04  4.479839E+04 -2.245713E+04 -3.497782E+04
        95   6  1.262234E+05 -4.870009E+03 -1.362151E+04  4.730251E+04 -9.600049E+03 -4.442870E+04
        95   7 -6.164258E+05 -2.296113E+05 -2.211279E+05  7.831757E+04 -1.078752E+05 -1.022133E+04
        95   8 -5.733364E+05 -1.812007E+05 -1.501092E+05  6.039856E+04 -6.071098E+04 -3.502166E+04
        95   9 -5.430019E+05 -1.593087E+05 -1.164205E+05  4.753194E+04 -1.355338E+04 -4.443773E+04
        95  10  8.693684E+05  1.357703E+05  1.208308E+05  1.634161E+04  1.457863E-09 -6.318291E-10
        95  11  8.330463E+05  1.499465E+05  9.982715E+04  2.918034E+04 -1.507915E-09 -3.066147E-09
        95  12  7.958963E+05  1.495449E+05  8.916390E+04  4.707248E+04 -6.512309E-10 -2.603849E-09
        95  13  1.262087E+05 -4.690468E+04 -5.014155E+04  4.734790E+04  2.678728E-10  2.823172E-10
        95  14  1.296112E+05 -1.561507E+04 -2.513646E+04  4.479776E+04  2.540593E-10 -2.149014E-09
        95  15  1.262227E+05 -4.872153E+03 -1.362539E+04  4.730216E+04  1.908202E-10 -7.946649E-10
        95  16 -6.164384E+05 -2.296145E+05 -2.211500E+05  7.831668E+04 -1.642905E-09 -6.318174E-11
        95  17 -5.733407E+05 -1.812030E+05 -1.501185E+05  6.039685E+04 -3.414381E-09 -3.558783E-09
        95  18 -5.430027E+05 -1.593109E+05 -1.164246E+05  4.753146E+04 -1.916489E-09 -3.470570E-09
        95  19  8.693699E+05  1.357708E+05  1.208336E+05  1.634131E+04 -3.731095E+04  1.008264E+04
        95  20  8.330469E+05  1.499479E+05  9.982991E+04  2.917990E+04 -1.583882E+04  3.493593E+04
        95  21  7.958969E+05  1.495471E+05  8.916767E+04  4.707268E+04  5.642619E+03  4.441968E+04
        95  22  1.262101E+05 -4.690423E+04 -5.013902E+04  4.734819E+04  3.532520E+04  1.014834E+04
        95  23  1.296120E+05 -1.561362E+04 -2.513322E+04  4.479839E+04  2.245713E+04  3.497782E+04
        95  24  1.262234E+05 -4.870009E+03 -1.362151E+04  4.730251E+04  9.600049E+03  4.442870E+04
        95  25 -6.164258E+05 -2.296113E+05 -2.211279E+05  7.831757E+04  1.078752E+05  1.022133E+04
        95  26 -5.733364E+05 -1.812007E+05 -1.501092E+05  6.039856E+04  6.071098E+04  3.502166E+04
        95  27 -5.430019E+05 -1.593087E+05 -1.164205E+05  4.753194E+04  1.355338E+04  4.443773E+04
        96   1  7.734482E+05  1.446885E+05  8.608126E+04  4.606710E+04 -4.410890E+03 -4.481205E+04
        96   2  7.368932E+05  1.379197E+05  8.069128E+04  4.409939E+04 -5.956686E+03 -4.538191E+04
        96   3  7.002853E+05  1.301108E+05  7.605033E+04  4.830306E+04 -7.505136E+03 -4.401928E+04
        96   4  1.275595E+05 -3.669519E+03 -1.019421E+04  4.755327E+04 -7.832637E+03 -4.482061E+04
        96   5  1.279681E+05 -1.043703E+03 -5.527042E+03  4.446508E+04 -5.062791E+03 -4.538527E+04
        96   6  1.275740E+05 -2.073217E+02 -3.106769E+03  4.754869E+04 -2.295612E+03 -4.401644E+04
        96   7 -5.179105E+05 -1.520472E+05 -1.064776E+05  4.903770E+04 -1.125097E+04 -4.482919E+04
        96   8 -4.805820E+05 -1.400238E+05 -9.175054E+04  4.483027E+04 -4.169733E+03 -4.538863E+04
        96   9 -4.448046E+05 -1.305399E+05 -8.226757E+04  4.679492E+04  2.909326E+03 -4.401361E+04
        96  10  7.734477E+05  1.446864E+05  8.607745E+04  4.606694E+04 -4.845296E-09 -2.925181E-09
        96  11  7.368926E+05  1.379175E+05  8.068735E+04  4.409917E+04 -2.131463E-09  6.951686E-10
        96  12  7.002847E+05  1.301087E+05  7.604658E+04  4.830280E+04 -1.716570E-09  1.445244E-09
        96  13  1.275589E+05 -3.671693E+03 -1.019810E+04  4.755298E+04  3.089765E-10 -1.689224E-09
        96  14  1.279675E+05 -1.045922E+03 -5.530962E+03  4.446490E+04 -1.838789E-09  8.172531E-10
        96  15  1.275734E+05 -2.094037E+02 -3.110420E+03  4.754861E+04  6.303103E-11 -4.478713E-10
        96  16 -5.179112E+05 -1.520494E+05 -1.064816E+05  4.903729E+04  4.958476E-09  4.946546E-10
        96  17 -4.805826E+05 -1.400260E+05 -9.175444E+04  4.483012E+04  1.206367E-10  2.582079E-09
        96  18 -4.448051E+05 -1.305419E+05 -8.227122E+04  4.679502E+04  1.716075E-09  1.398714E-09
        96  19  7.734482E+05  1.446885E+05  8.608126E+04  4.606710E+04  4.410890E+03  4.481205E+04
        96  20  7.368932E+05  1.379197E+05  8.069128E+04  4.409939E+04  5.956686E+03  4.538191E+04
        96  21  7.002853E+05  1.301108E+05  7.605033E+04  4.830306E+04  7.505136E+03  4.401928E+04
        96  22  1.275595E+05 -3.669519E+03 -1.019421E+04  4.755327E+04  7.832637E+03  4.482061E+04
        96  23  1.279681E+05 -1.043703E+03 -5.527042E+03  4.446508E+04  5.062791E+03  4.538527E+04
        96  24  1.275740E+05 -2.073217E+02 -3.106769E+03  4.754869E+04  2.295612E+03  4.401644E+04
        96  25 -5.179105E+05 -1.520472E+05 -1.064776E+05  4.903770E+04  1.125097E+04  4.482919E+04
        96  26 -4.805820E+05 -1.400238E+05 -9.175054E+04  4.483027E+04  4.169733E+03  4.538863E+04
        96  27 -4.448046E+05 -1.305399E+05 -8.226757E+04  4.679492E+04 -2.909326E+03  4.401361E+04
        97   1  6.775704E+05  1.248957E+05  7.318743E+04  4.816839E+04 -7.110332E+03 -4.258184E+04
        97   2  6.410402E+05  1.166617E+05  6.867997E+04  4.503492E+04 -6.999784E+03 -4.009941E+04
        97   3  6.044829E+05  1.083927E+05  6.409063E+04  4.820775E+04 -6.890346E+03 -3.737441E+04
        97   4  1.277299E+05 -1.266264E+02 -2.344924E+03  4.757897E+04 -1.834614E+03 -4.257839E+04
        97   5  1.277976E+05  5.989646E+01 -1.317831E+03  4.442548E+04 -1.182821E+03 -4.009436E+04
        97   6  1.277426E+05  1.174240E+02 -7.486085E+02  4.757860E+04 -5.321321E+02 -3.736766E+04
        97   7 -4.218036E+05 -1.251622E+05 -7.788050E+04  4.698997E+04  3.436646E+03 -4.257495E+04
        97   8 -3.851773E+05 -1.165534E+05 -7.131822E+04  4.381646E+04  4.629556E+03 -4.008932E+04
        97   9 -3.487664E+05 -1.081677E+05 -6.558997E+04  4.694986E+04  5.821426E+03 -3.736091E+04
        97  10  6.775699E+05  1.248937E+05  7.318393E+04  4.816815E+04 -4.216909E-09  2.661328E-09
        97  11  6.410398E+05  1.166600E+05  6.867686E+04  4.503469E+04 -3.949437E-09  2.184254E-09
        97  12  6.044824E+05  1.083912E+05  6.408791E+04  4.820754E+04 -3.665945E-12 -4.616745E-10
        97  13  1.277294E+05 -1.285742E+02 -2.348337E+03  4.757890E+04 -1.889207E-09 -8.093679E-10
        97  14  1.277971E+05  5.816975E+01 -1.320855E+03  4.442544E+04  3.591531E-10  2.439346E-09
        97  15  1.277422E+05  1.159245E+02 -7.512332E+02  4.757858E+04 -1.705153E-09  2.366462E-09
        97  16 -4.218041E+05 -1.251641E+05 -7.788393E+04  4.699009E+04  6.295366E-09  2.300999E-09
        97  17 -3.851778E+05 -1.165551E+05 -7.132128E+04  4.381661E+04  4.859248E-10  3.629000E-09
        97  18 -3.487669E+05 -1.081692E+05 -6.559266E+04  4.695004E+04  1.772636E-10  1.194483E-09
        97  19  6.775704E+05  1.248957E+05  7.318743E+04  4.816839E+04  7.110332E+03  4.258184E+04
        97  20  6.410402E+05  1.166617E+05  6.867997E+04  4.503492E+04  6.999784E+03  4.009941E+04
        97  21  6.044829E+05  1.083927E+05  6.409063E+04  4.820775E+04  6.890346E+03  3.737441E+04
        97  22  1.277299E+05 -1.266264E+02 -2.344924E+03  4.757897E+04  1.834614E+03  4.257839E+04
        97  23  1.277976E+05  5.989646E+01 -1.317831E+03  4.442548E+04  1.182821E+03  4.009436E+04
        97  24  1.277426E+05  1.174240E+02 -7.486085E+02  4.757860E+04  5.321321E+02  3.736766E+04
        97  25 -4.218036E+05 -1.251622E+05 -7.788050E+04  4.698997E+04 -3.436646E+03  4.257495E+04
        97  26 -3.851773E+05 -1.165534E+05 -7.131822E+04  4.381646E+04 -4.629556E+03  4.008932E+04
        97  27 -3.487664E+05 -1.081677E+05 -6.558997E+04  4.694986E+04 -5.821426E+03  3.736091E+04
        98   1  5.817635E+05  1.031992E+05  6.101450E+04  4.817105E+04 -6.782728E+03 -3.570781E+04
        98   2  5.452495E+05  9.490748E+04  5.629945E+04  4.497159E+04 -6.697130E+03 -3.284294E+04
        98   3  5.087183E+05  8.663946E+04  5.153068E+04  4.809165E+04 -6.612254E+03 -2.994799E+04
        98   4  1.277670E+05  1.215375E+02 -5.646860E+02  4.758156E+04 -4.170219E+02 -3.570054E+04
        98   5  1.277876E+05  1.246487E+02 -3.155663E+02  4.442167E+04 -2.645610E+02 -3.283480E+04
        98   6  1.277774E+05  1.397168E+02 -1.669195E+02  4.758154E+04 -1.128172E+02 -2.993896E+04
        98   7 -3.260197E+05 -1.029650E+05 -6.214574E+04  4.699244E+04  5.944245E+03 -3.569328E+04
        98   8 -2.894970E+05 -9.466571E+04 -5.693213E+04  4.387207E+04  6.163884E+03 -3.282666E+04
        98   9 -2.530158E+05 -8.636629E+04 -5.186578E+04  4.707170E+04  6.382816E+03 -2.992994E+04
        98  10  5.817631E+05  1.031978E+05  6.101202E+04  4.817085E+04 -2.967212E-09 -1.075040E-09
        98  11  5.452491E+05  9.490631E+04  5.629734E+04  4.497142E+04 -3.607842E-08  4.525509E-09
        98  12  5.087181E+05  8.663848E+04  5.152891E+04  4.809150E+04 -6.424549E-08  6.154122E-09
        98  13  1.277667E+05  1.201688E+02 -5.670816E+02  4.758155E+04  2.558939E-09 -1.558891E-09
        98  14  1.277873E+05  1.234909E+02 -3.175925E+02  4.442167E+04  3.726390E-09 -4.911195E-09
        98  15  1.277772E+05  1.387542E+02 -1.686041E+02  4.758154E+04 -9.779809E-10 -1.343908E-08
        98  16 -3.260201E+05 -1.029664E+05 -6.214820E+04  4.699261E+04  1.590580E-09  9.266669E-10
        98  17 -2.894973E+05 -9.466688E+04 -5.693423E+04  4.387223E+04  3.451670E-08  2.858934E-09
        98  18 -2.530161E+05 -8.636727E+04 -5.186754E+04  4.707185E+04  6.770703E-08  4.523874E-09
        98  19  5.817635E+05  1.031992E+05  6.101450E+04  4.817105E+04  6.782728E+03  3.570781E+04
        98  20  5.452495E+05  9.490748E+04  5.629945E+04  4.497159E+04  6.697130E+03  3.284294E+04
        98  21  5.087183E+05  8.663946E+04  5.153068E+04  4.809165E+04  6.612254E+03  2.994799E+04
        98  22  1.277670E+05  1.215375E+02 -5.646860E+02  4.758156E+04  4.170219E+02  3.570054E+04
        98  23  1.277876E+05  1.246487E+02 -3.155663E+02  4.442167E+04  2.645610E+02  3.283480E+04
        98  24  1.277774E+05  1.397168E+02 -1.669195E+02  4.758154E+04  1.128172E+02  2.993896E+04
        98  25 -3.260197E+05 -1.029650E+05 -6.214574E+04  4.699244E+04 -5.944245E+03  3.569328E+04
        98  26 -2.894970E+05 -9.466571E+04 -5.693213E+04  4.387207E+04 -6.163884E+03  3.282666E+04
        98  27 -2.530158E+05 -8.636629E+04 -5.186578E+04  4.707170E+04 -6.382816E+03  2.992994E+04
        99   1  4.860059E+05  8.145803E+04  4.836874E+04  4.806657E+04 -6.589291E+03 -2.825321E+04
        99   2  4.495067E+05  7.317504E+04  4.355733E+04  4.486467E+04 -6.582584E+03 -2.534153E+04
        99   3  4.129935E+05  6.491717E+04  3.874149E+04  4.798502E+04 -6.576402E+03 -2.242690E+04
        99   4  1.277838E+05  1.420573E+02 -1.154680E+02  4.758214E+04 -8.961159E+01 -2.824378E+04
        99   5  1.277959E+05  1.355130E+02 -3.555721E+01  4.442092E+04 -7.646446E+01 -2.533149E+04
        99   6  1.277919E+05  1.531484E+02  3.549502E+01  4.758214E+04 -6.384123E+01 -2.241625E+04
        99   7 -2.303076E+05 -8.117944E+04 -4.860074E+04  4.709795E+04  6.406492E+03 -2.823435E+04
        99   8 -1.938096E+05 -7.290847E+04 -4.362929E+04  4.397737E+04  6.426440E+03 -2.532145E+04
        99   9 -1.573269E+05 -6.461437E+04 -3.867114E+04  4.717941E+04  6.445866E+03 -2.240560E+04
        99  10  4.860056E+05  8.145716E+04  4.836715E+04  4.806642E+04  1.044460E-07  2.473443E-09
        99  11  4.495065E+05  7.317434E+04  4.355605E+04  4.486454E+04  3.785091E-08 -3.418265E-09
        99  12  4.129933E+05  6.491662E+04  3.874047E+04  4.798490E+04 -4.192848E-08 -7.261814E-09
        99  13  1.277836E+05  1.412006E+02 -1.169672E+02  4.758214E+04  4.861229E-10 -8.823800E-09
        99  14  1.277957E+05  1.348239E+02 -3.676314E+01  4.442092E+04  1.578530E-09 -2.155852E-09
        99  15  1.277917E+05  1.526088E+02  3.455068E+01  4.758213E+04  2.309141E-09  8.334364E-09
        99  16 -2.303078E+05 -8.118031E+04 -4.860232E+04  4.709810E+04 -1.058974E-07  4.093419E-09
        99  17 -1.938098E+05 -7.290917E+04 -4.363057E+04  4.397750E+04 -3.792598E-08 -5.351678E-09
        99  18 -1.573271E+05 -6.461492E+04 -3.867217E+04  4.717952E+04  4.002638E-08 -7.041115E-09
        99  19  4.860059E+05  8.145803E+04  4.836874E+04  4.806657E+04  6.589291E+03  2.825321E+04
        99  20  4.495067E+05  7.317504E+04  4.355733E+04  4.486467E+04  6.582584E+03  2.534153E+04
        99  21  4.129935E+05  6.491717E+04  3.874149E+04  4.798502E+04  6.576402E+03  2.242690E+04
        99  22  1.277838E+05  1.420573E+02 -1.154680E+02  4.758214E+04  8.961159E+01  2.824378E+04
        99  23  1.277959E+05  1.355130E+02 -3.555721E+01  4.442092E+04  7.646446E+01  2.533149E+04
        99  24  1.277919E+05  1.531484E+02  3.549502E+01  4.758214E+04  6.384123E+01  2.241625E+04
        99  25 -2.303076E+05 -8.117944E+04 -4.860074E+04  4.709795E+04 -6.406492E+03  2.823435E+04
        99  26 -1.938096E+05 -7.290847E+04 -4.362929E+04  4.397737E+04 -6.426440E+03  2.532145E+04
        99  27 -1.573269E+05 -6.461437E+04 -3.867114E+04  4.717941E+04 -6.445866E+03  2.240560E+04
       100   1  3.902917E+05  5.973912E+04  3.557175E+04  4.796004E+04 -6.588075E+03 -2.072951E+04
       100   2  3.537989E+05  5.146417E+04  3.078289E+04  4.474859E+04 -6.668096E+03 -1.781558E+04
       100   3  3.173036E+05  4.323283E+04  2.604924E+04  4.785650E+04 -6.748471E+03 -1.490568E+04
       100   4  1.277972E+05  1.558353E+02  7.305627E+01  4.758149E+04 -7.614211E+01 -2.071855E+04
       100   5  1.278012E+05  1.541824E+02  1.696065E+02  4.442171E+04 -1.652931E+02 -1.780422E+04
       100   6  1.278029E+05  1.977498E+02  3.275946E+02  4.758142E+04 -2.548019E+02 -1.489392E+04
       100   7 -1.346270E+05 -5.943040E+04 -3.542613E+04  4.720307E+04  6.433165E+03 -2.070760E+04
       100   8 -9.814440E+04 -5.115800E+04 -3.044401E+04  4.409493E+04  6.335252E+03 -1.779287E+04
       100   9 -6.166118E+04 -4.283887E+04 -2.539424E+04  4.730641E+04  6.236977E+03 -1.488216E+04
       100  10  3.902916E+05  5.973865E+04  3.557086E+04  4.795993E+04  4.279980E-08 -2.443150E-09
       100  11  3.537988E+05  5.146382E+04  3.078221E+04  4.474850E+04  8.758342E-09 -9.317964E-11
       100  12  3.173035E+05  4.323258E+04  2.604873E+04  4.785642E+04 -2.706823E-08  3.627097E-09
       100  13  1.277971E+05  1.553743E+02  7.224956E+01  4.758149E+04  4.616619E-10  1.347819E-08
       100  14  1.278011E+05  1.538420E+02  1.690107E+02  4.442171E+04  4.864998E-10  1.085228E-08
       100  15  1.278028E+05  1.975115E+02  3.271776E+02  4.758142E+04 -2.248914E-09  7.028954E-09
       100  16 -1.346272E+05 -5.943088E+04 -3.542702E+04  4.720318E+04 -4.299829E-08 -2.808536E-09
       100  17 -9.814453E+04 -5.115835E+04 -3.044468E+04  4.409502E+04 -9.385737E-09 -5.010899E-09
       100  18 -6.166128E+04 -4.283912E+04 -2.539473E+04  4.730648E+04  2.449594E-08  2.587573E-09
       100  19  3.902917E+05  5.973912E+04  3.557175E+04  4.796004E+04  6.588075E+03  2.072951E+04
       100  20  3.537989E+05  5.146417E+04  3.078289E+04  4.474859E+04  6.668096E+03  1.781558E+04
       100  21  3.173036E+05  4.323283E+04  2.604924E+04  4.785650E+04  6.748471E+03  1.490568E+04
       100  22  1.277972E+05  1.558353E+02  7.305627E+01  4.758149E+04  7.614211E+01  2.071855E+04
       100  23  1.278012E+05  1.541824E+02  1.696065E+02  4.442171E+04  1.652931E+02  1.780422E+04
       100  24  1.278029E+05  1.977498E+02  3.275946E+02  4.758142E+04  2.548019E+02  1.489392E+04
       100  25 -1.346270E+05 -5.943040E+04 -3.542613E+04  4.720307E+04 -6.433165E+03  2.070760E+04
       100  26 -9.814440E+04 -5.115800E+04 -3.044401E+04  4.409493E+04 -6.335252E+03  1.779287E+04
       100  27 -6.166118E+04 -4.283887E+04 -2.539424E+04  4.730641E+04 -6.236977E+03  1.488216E+04
       101   1  2.946254E+05  3.806463E+04  2.295001E+04  4.784761E+04 -6.814937E+03 -1.321224E+04
       101   2  2.580985E+05  2.989562E+04  1.838648E+04  4.447672E+04 -7.141811E+03 -1.032228E+04
       101   3  2.216559E+05  2.199936E+04  1.409527E+04  4.742086E+04 -7.468812E+03 -7.466239E+03
       101   4  1.278261E+05  2.105743E+02  4.405677E+02  4.758052E+04 -3.228507E+02 -1.320029E+04
       101   5  1.277800E+05  3.195250E+02  7.938802E+02  4.442251E+04 -7.256085E+02 -1.031023E+04
       101   6  1.278293E+05  7.142912E+02  1.471924E+03  4.757959E+04 -1.128509E+03 -7.454095E+03
       101   7 -3.894468E+04 -3.764465E+04 -2.206897E+04  4.731350E+04  6.167572E+03 -1.318833E+04
       101   8 -2.521177E+03 -2.925728E+04 -1.679873E+04  4.436831E+04  5.689310E+03 -1.029818E+04
       101   9  3.401181E+04 -2.057113E+04 -1.115135E+04  4.773829E+04  5.210881E+03 -7.441947E+03
       101  10  2.946253E+05  3.806443E+04  2.294959E+04  4.784754E+04  6.473100E-08  5.955764E-09
       101  11  2.580984E+05  2.989549E+04  1.838619E+04  4.447666E+04 -9.628420E-10  1.161585E-09
       101  12  2.216559E+05  2.199929E+04  1.409506E+04  4.742082E+04 -6.235940E-08  2.887628E-09
       101  13  1.278261E+05  2.103872E+02  4.402400E+02  4.758052E+04 -3.798669E-09  4.822163E-09
       101  14  1.277799E+05  3.194107E+02  7.936794E+02  4.442251E+04  2.688917E-09  4.521720E-09
       101  15  1.278293E+05  7.142312E+02  1.471818E+03  4.757958E+04 -1.432816E-09 -6.501868E-10
       101  16 -3.894477E+04 -3.764485E+04 -2.206937E+04  4.731356E+04 -6.383461E-08  5.770862E-09
       101  17 -2.521241E+03 -2.925740E+04 -1.679899E+04  4.436835E+04 -4.801719E-09  3.835855E-09
       101  18  3.401176E+04 -2.057120E+04 -1.115150E+04  4.773832E+04  6.097379E-08 -3.991249E-09
       101  19  2.946254E+05  3.806463E+04  2.295001E+04  4.784761E+04  6.814937E+03  1.321224E+04
       101  20  2.580985E+05  2.989562E+04  1.838648E+04  4.447672E+04  7.141811E+03  1.032228E+04
       101  21  2.216559E+05  2.199936E+04  1.409527E+04  4.742086E+04  7.468812E+03  7.466239E+03
       101  22  1.278261E+05  2.105743E+02  4.405677E+02  4.758052E+04  3.228507E+02  1.320029E+04
       101  23  1.277800E+05  3.195250E+02  7.938802E+02  4.442251E+04  7.256085E+02  1.031023E+04
       101  24  1.278293E+05  7.142912E+02  1.471924E+03  4.757959E+04  1.128509E+03  7.454095E+03
       101  25 -3.894468E+04 -3.764465E+04 -2.206897E+04  4.731350E+04 -6.167572E+03  1.318833E+04
       101  26 -2.521177E+03 -2.925728E+04 -1.679873E+04  4.436831E+04 -5.689310E+03  1.029818E+04
       101  27  3.401181E+04 -2.057113E+04 -1.115135E+04  4.773829E+04 -5.210881E+03  7.441947E+03
       102   1  1.991361E+05  1.697981E+04  1.132947E+04  4.756597E+04 -7.717447E+03 -5.805272E+03
       102   2  1.622328E+05  1.019258E+04  7.814379E+03  4.213605E+04 -8.977823E+03 -3.106617E+03
       102   3  1.261894E+05  6.304033E+03  5.835260E+03  4.299826E+04 -1.023772E+04 -6.770656E+02
       102   4  1.280229E+05  8.880126E+02  1.968552E+03  4.757528E+04 -1.386842E+03 -5.793056E+03
       102   5  1.275415E+05  2.430167E+03  3.634077E+03  4.442348E+04 -3.248075E+03 -3.095536E+03
       102   6  1.280234E+05  6.975513E+03  7.252802E+03  4.756372E+04 -5.108900E+03 -6.671370E+02
       102   7  5.691494E+04 -1.520398E+04 -7.392252E+03  4.758459E+04  4.943074E+03 -5.780839E+03
       102   8  9.285148E+04 -5.332252E+03 -5.460983E+02  4.671078E+04  2.481370E+03 -3.084412E+03
       102   9  1.298575E+05  7.647085E+03  8.670454E+03  5.212918E+04  1.993833E+01 -6.571330E+02
       102  10  1.991361E+05  1.697976E+04  1.132930E+04  4.756594E+04 -1.831961E-09  3.120465E-09
       102  11  1.622327E+05  1.019254E+04  7.814210E+03  4.213603E+04 -3.705786E-09 -2.941765E-09
       102  12  1.261893E+05  6.304004E+03  5.835062E+03  4.299825E+04 -6.981669E-10 -6.544548E-10
       102  13  1.280229E+05  8.879760E+02  1.968485E+03  4.757528E+04  5.882094E-10  4.101757E-09
       102  14  1.275415E+05  2.430154E+03  3.634039E+03  4.442347E+04  2.569838E-09 -4.678144E-09
       102  15  1.280234E+05  6.975506E+03  7.252752E+03  4.756371E+04  3.205846E-09  2.367707E-09
       102  16  5.691490E+04 -1.520402E+04 -7.392361E+03  4.758462E+04  3.287301E-09  6.988286E-10
       102  17  9.285147E+04 -5.332264E+03 -5.461278E+02  4.671078E+04  8.941240E-10  2.200906E-09
       102  18  1.298575E+05  7.647085E+03  8.670453E+03  5.212918E+04  4.918427E-12 -2.709979E-11
       102  19  1.991361E+05  1.697981E+04  1.132947E+04  4.756597E+04  7.717447E+03  5.805272E+03
       102  20  1.622328E+05  1.019258E+04  7.814379E+03  4.213605E+04  8.977823E+03  3.106617E+03
       102  21  1.261894E+05  6.304033E+03  5.835260E+03  4.299826E+04  1.023772E+04  6.770656E+02
       102  22  1.280229E+05  8.880126E+02  1.968552E+03  4.757528E+04  1.386842E+03  5.793056E+03
       102  23  1.275415E+05  2.430167E+03  3.634077E+03  4.442348E+04  3.248075E+03  3.095536E+03
       102  24  1.280234E+05  6.975513E+03  7.252802E+03  4.756372E+04  5.108900E+03  6.671370E+02
       102  25  5.691494E+04 -1.520398E+04 -7.392252E+03  4.758459E+04 -4.943074E+03  5.780839E+03
       102  26  9.285148E+04 -5.332252E+03 -5.460983E+02  4.671078E+04 -2.481370E+03  3.084412E+03
       102  27  1.298575E+05  7.647085E+03  8.670454E+03  5.212918E+04 -1.993833E+01  6.571330E+02
       103   1  1.241774E+04  4.226372E+05  1.365590E+04 -3.964083E+04 -2.854389E+02  2.593500E+03
       103   2 -2.136659E+03  3.855573E+05  2.880307E+03 -3.284828E+04 -1.730325E+03 -1.147759E+03
       103   3 -1.194944E+04  3.501327E+05 -4.279856E+03 -3.475264E+04 -3.911257E+03 -4.889414E+03
       103   4  7.193069E+03  4.020015E+05  8.205516E+03 -3.513248E+04 -2.869114E+02  4.305248E+03
       103   5  1.429661E+03  4.012757E+05  5.021856E+03 -3.078699E+04 -1.732812E+03  1.730396E+03
       103   6  2.056419E+02  4.020022E+05  4.644237E+03 -3.513830E+04 -3.914722E+03 -8.450376E+02
       103   7  1.968440E+03  3.813662E+05  2.755116E+03 -3.062427E+04 -2.883590E+02  6.016939E+03
       103   8  4.995990E+03  4.169944E+05  7.163437E+03 -2.872565E+04 -1.735280E+03  4.608622E+03
       103   9  1.236059E+04  4.538745E+05  1.356830E+04 -3.552400E+04 -3.918192E+03  3.199666E+03
       103  10  1.241774E+04  4.226372E+05  1.365589E+04 -3.964083E+04  2.363485E-09 -1.356960E-09
       103  11 -2.136662E+03  3.855573E+05  2.880298E+03 -3.284828E+04  1.610489E-09 -1.025082E-09
       103  12 -1.194946E+04  3.501327E+05 -4.279930E+03 -3.475265E+04  6.371111E-10  1.972305E-09
       103  13  7.193064E+03  4.020015E+05  8.205481E+03 -3.513247E+04  2.096844E-09 -7.894968E-10
       103  14  1.429657E+03  4.012757E+05  5.021845E+03 -3.078699E+04  3.263349E-09 -8.883340E-10
       103  15  2.056252E+02  4.020022E+05  4.644207E+03 -3.513830E+04  2.680404E-09 -7.092779E-10
       103  16  1.968430E+03  3.813662E+05  2.755048E+03 -3.062427E+04  7.675200E-10  1.875937E-09
       103  17  4.995981E+03  4.169944E+05  7.163392E+03 -2.872565E+04  1.594896E-09  1.114371E-09
       103  18  1.236057E+04  4.538745E+05  1.356825E+04 -3.552399E+04 -1.434287E-10 -1.696042E-09
       103  19  1.241774E+04  4.226372E+05  1.365590E+04 -3.964083E+04  2.854389E+02 -2.593500E+03
       103  20 -2.136659E+03  3.855573E+05  2.880307E+03 -3.284828E+04  1.730325E+03  1.147759E+03
       103  21 -1.194944E+04  3.501327E+05 -4.279856E+03 -3.475264E+04  3.911257E+03  4.889414E+03
       103  22  7.193069E+03  4.020015E+05  8.205516E+03 -3.513248E+04  2.869114E+02 -4.305248E+03
       103  23  1.429661E+03  4.012757E+05  5.021856E+03 -3.078699E+04  1.732812E+03 -1.730396E+03
       103  24  2.056419E+02  4.020022E+05  4.644237E+03 -3.513830E+04  3.914722E+03  8.450376E+02
       103  25  1.968440E+03  3.813662E+05  2.755116E+03 -3.062427E+04  2.883590E+02 -6.016939E+03
       103  26  4.995990E+03  4.169944E+05  7.163437E+03 -2.872565E+04  1.735280E+03 -4.608622E+03
       103  27  1.236059E+04  4.538745E+05  1.356830E+04 -3.552400E+04  3.918192E+03 -3.199666E+03
       104   1 -1.753359E+04  3.259949E+05 -8.284119E+03 -3.560771E+04 -5.438595E+03 -5.651694E+03
       104   2 -2.606585E+04  2.893448E+05 -1.289572E+04 -3.055619E+04 -7.746505E+03 -8.514375E+03
       104   3 -3.295928E+04  2.534628E+05 -1.523868E+04 -3.422443E+04 -9.618515E+03 -1.137638E+04
       104   4  3.051020E+02  4.018758E+05  5.064457E+03 -3.514277E+04 -5.441976E+03 -1.645634E+03
       104   5  3.459905E+02  4.014307E+05  7.118889E+03 -3.078218E+04 -7.749139E+03 -5.199689E+03
       104   6  2.145508E+03  4.018723E+05  1.192146E+04 -3.514120E+04 -9.620437E+03 -8.753230E+03
       104   7  1.814349E+04  4.777624E+05  1.841288E+04 -3.467776E+04 -5.445351E+03  2.360901E+03
       104   8  2.675714E+04  5.135290E+05  2.713306E+04 -3.100820E+04 -7.751775E+03 -1.884422E+03
       104   9  3.724906E+04  5.503031E+05  3.908074E+04 -3.605820E+04 -9.622367E+03 -6.129469E+03
       104  10 -1.753363E+04  3.259949E+05 -8.284234E+03 -3.560774E+04  1.512289E-10  1.930355E-09
       104  11 -2.606593E+04  2.893447E+05 -1.289597E+04 -3.055625E+04  1.026259E-09 -2.332674E-10
       104  12 -3.295942E+04  2.534627E+05 -1.523910E+04 -3.422451E+04  1.763706E-09  4.764685E-10
       104  13  3.050695E+02  4.018758E+05  5.064396E+03 -3.514278E+04 -7.852262E-10 -9.497126E-10
       104  14  3.459187E+02  4.014307E+05  7.118725E+03 -3.078221E+04 -1.691650E-09 -8.221821E-10
       104  15  2.145388E+03  4.018722E+05  1.192114E+04 -3.514127E+04 -1.706733E-09 -3.869510E-10
       104  16  1.814345E+04  4.777624E+05  1.841282E+04 -3.467775E+04 -2.863258E-09 -1.611623E-09
       104  17  2.675707E+04  5.135289E+05  2.713294E+04 -3.100822E+04  1.451502E-09  5.717142E-10
       104  18  3.724895E+04  5.503030E+05  3.908049E+04 -3.605824E+04 -1.681571E-09 -6.101939E-11
       104  19 -1.753359E+04  3.259949E+05 -8.284119E+03 -3.560771E+04  5.438595E+03  5.651694E+03
       104  20 -2.606585E+04  2.893448E+05 -1.289572E+04 -3.055619E+04  7.746505E+03  8.514375E+03
       104  21 -3.295928E+04  2.534628E+05 -1.523868E+04 -3.422443E+04  9.618515E+03  1.137638E+04
       104  22  3.051020E+02  4.018758E+05  5.064457E+03 -3.514277E+04  5.441976E+03  1.645634E+03
       104  23  3.459905E+02  4.014307E+05  7.118889E+03 -3.078218E+04  7.749139E+03  5.199689E+03
       104  24  2.145508E+03  4.018723E+05  1.192146E+04 -3.514120E+04  9.620437E+03  8.753230E+03
       104  25  1.814349E+04  4.777624E+05  1.841288E+04 -3.467776E+04  5.445351E+03 -2.360901E+03
       104  26  2.675714E+04  5.135290E+05  2.713306E+04 -3.100820E+04  7.751775E+03  1.884422E+03
       104  27  3.724906E+04  5.503031E+05  3.908074E+04 -3.605820E+04  9.622367E+03  6.129469E+03
       105   1 -3.994092E+04  2.311595E+05 -1.648021E+04 -3.855319E+04 -1.097488E+04 -1.425242E+04
       105   2 -4.000954E+04  1.908254E+05 -1.425834E+04 -1.713862E+04 -1.011301E+04 -1.872987E+04
       105   3 -1.030866E+04  1.585103E+05 -1.680439E+03 -4.061878E+03 -3.154399E+03 -2.320286E+04
       105   4  9.380541E+02  4.038279E+05  1.534018E+04 -3.506170E+04 -1.097746E+04 -1.078576E+04
       105   5  9.947486E+03  3.989757E+05  2.732379E+04 -3.087479E+04 -1.010767E+04 -2.492647E+04
       105   6  5.039657E+04  4.038134E+05  5.636841E+04 -3.502464E+04 -3.141818E+03 -3.906307E+04
       105   7  4.181538E+04  5.765253E+05  4.715939E+04 -3.156920E+04 -1.098000E+04 -7.318159E+03
       105   8  5.990258E+04  6.071678E+05  6.890398E+04 -4.461564E+04 -1.010205E+04 -3.112511E+04
       105   9  1.111012E+05  6.491744E+05  1.144145E+05 -6.599969E+04 -3.127658E+03 -5.492951E+04
       105  10 -3.994110E+04  2.311592E+05 -1.648081E+04 -3.855331E+04 -1.750797E-09  9.641429E-10
       105  11 -4.000974E+04  1.908250E+05 -1.425919E+04 -1.713877E+04  2.756981E-09 -3.631101E-11
       105  12 -1.030881E+04  1.585097E+05 -1.681469E+03 -4.061937E+03 -1.628700E-09  9.812426E-10
       105  13  9.378934E+02  4.038278E+05  1.533974E+04 -3.506179E+04 -7.234300E-10 -7.798990E-10
       105  14  9.947210E+03  3.989750E+05  2.732243E+04 -3.087499E+04 -2.843522E-09 -6.799979E-10
       105  15  5.039615E+04  4.038118E+05  5.636553E+04 -3.502474E+04 -9.303868E-11 -3.886264E-10
       105  16  4.181524E+04  5.765252E+05  4.715906E+04 -3.156926E+04 -1.709280E-10 -3.907371E-10
       105  17  5.990221E+04  6.071668E+05  6.890197E+04 -4.461590E+04  1.923474E-09  6.437565E-10
       105  18  1.111004E+05  6.491712E+05  1.144089E+05 -6.599983E+04 -1.286107E-09 -5.521795E-10
       105  19 -3.994092E+04  2.311595E+05 -1.648021E+04 -3.855319E+04  1.097488E+04  1.425242E+04
       105  20 -4.000954E+04  1.908254E+05 -1.425834E+04 -1.713862E+04  1.011301E+04  1.872987E+04
       105  21 -1.030866E+04  1.585103E+05 -1.680439E+03 -4.061878E+03  3.154399E+03  2.320286E+04
       105  22  9.380541E+02  4.038279E+05  1.534018E+04 -3.506170E+04  1.097746E+04  1.078576E+04
       105  23  9.947486E+03  3.989757E+05  2.732379E+04 -3.087479E+04  1.010767E+04  2.492647E+04
       105  24  5.039657E+04  4.038134E+05  5.636841E+04 -3.502464E+04  3.141818E+03  3.906307E+04
       105  25  4.181538E+04  5.765253E+05  4.715939E+04 -3.156920E+04  1.098000E+04  7.318159E+03
       105  26  5.990258E+04  6.071678E+05  6.890398E+04 -4.461564E+04  1.010205E+04  3.112511E+04
       105  27  1.111012E+05  6.491744E+05  1.144145E+05 -6.599969E+04  3.127658E+03  5.492951E+04
       106   1  9.299522E+05  3.320567E+05  1.658717E+05  3.459965E+05  6.482558E+04  1.337766E+04
       106   2  8.790611E+05  3.070541E+05  1.183204E+05  3.310134E+05  4.199638E+04 -2.148239E+04
       106   3  8.280352E+05  2.922156E+05  9.520272E+04  3.230497E+05  1.329054E+04 -4.069309E+04
       106   4  2.531658E+05  8.161000E+04 -5.092773E+03  1.633670E+05  2.873920E+02 -1.089548E+04
       106   5  2.567575E+05  8.166984E+04 -2.432440E+03  1.591479E+05  1.021017E+04 -3.344386E+04
       106   6  2.537323E+05  8.541416E+04 -1.260882E+03  1.619478E+05  1.424892E+04 -4.033696E+04
       106   7 -4.231344E+05 -1.687946E+05 -1.760676E+05 -1.907319E+04 -6.417101E+04 -3.513935E+04
       106   8 -3.651275E+05 -1.436746E+05 -1.231939E+05 -1.255415E+04 -2.154117E+04 -4.539239E+04
       106   9 -3.202180E+05 -1.213535E+05 -9.773250E+04  9.856514E+02  1.520636E+04 -3.998118E+04
       106  10  9.299477E+05  3.320554E+05  1.658635E+05  3.459958E+05  4.321271E-09  1.552367E-09
       106  11  8.790591E+05  3.070532E+05  1.183162E+05  3.310142E+05 -6.886564E-09 -2.955677E-09
       106  12  8.280346E+05  2.922137E+05  9.519928E+04  3.230501E+05 -7.996619E-09  5.760181E-10
       106  13  2.531658E+05  8.160987E+04 -5.092996E+03  1.633670E+05 -2.002468E-09  1.103070E-09
       106  14  2.567571E+05  8.166861E+04 -2.434738E+03  1.591482E+05 -5.899774E-09 -2.423711E-09
       106  15  2.537317E+05  8.541235E+04 -1.264321E+03  1.619482E+05 -1.132807E-10 -3.995073E-11
       106  16 -4.231392E+05 -1.687971E+05 -1.760777E+05 -1.907501E+04 -7.511595E-09 -1.428940E-09
       106  17 -3.651286E+05 -1.436769E+05 -1.231986E+05 -1.255494E+04 -5.879444E-09 -4.076578E-09
       106  18 -3.202186E+05 -1.213553E+05 -9.773594E+04  9.861412E+02  3.195810E-09 -1.125755E-09
       106  19  9.299522E+05  3.320567E+05  1.658717E+05  3.459965E+05 -6.482558E+04 -1.337766E+04
       106  20  8.790611E+05  3.070541E+05  1.183204E+05  3.310134E+05 -4.199638E+04  2.148239E+04
       106  21  8.280352E+05  2.922156E+05  9.520272E+04  3.230497E+05 -1.329054E+04  4.069309E+04
       106  22  2.531658E+05  8.161000E+04 -5.092773E+03  1.633670E+05 -2.873920E+02  1.089548E+04
       106  23  2.567575E+05  8.166984E+04 -2.432440E+03  1.591479E+05 -1.021017E+04  3.344386E+04
       106  24  2.537323E+05  8.541416E+04 -1.260882E+03  1.619478E+05 -1.424892E+04  4.033696E+04
       106  25 -4.231344E+05 -1.687946E+05 -1.760676E+05 -1.907319E+04  6.417101E+04  3.513935E+04
       106  26 -3.651275E+05 -1.436746E+05 -1.231939E+05 -1.255415E+04  2.154117E+04  4.539239E+04
       106  27 -3.202180E+05 -1.213535E+05 -9.773250E+04  9.856514E+02 -1.520636E+04  3.998118E+04
       107   1  7.960675E+05  2.804853E+05  8.791977E+04  3.143376E+05  1.362748E+04 -3.966792E+04
       107   2  7.496141E+05  2.590196E+05  7.635757E+04  2.969553E+05  9.849575E+03 -3.984963E+04
       107   3  6.972669E+05  2.446574E+05  6.743902E+04  2.870656E+05  5.420472E+03 -3.830290E+04
       107   4  2.536968E+05  8.569252E+04 -9.366043E+02  1.621780E+05  1.409420E+04 -3.949649E+04
       107   5  2.570315E+05  8.265124E+04 -4.877471E+02  1.583777E+05  1.393319E+04 -3.831613E+04
       107   6  2.537552E+05  8.599805E+04 -2.585367E+02  1.620696E+05  1.312048E+04 -3.540659E+04
       107   7 -2.883665E+05 -1.090729E+05 -8.980153E+04  1.014097E+04  1.456051E+04 -3.932523E+04
       107   8 -2.352931E+05 -9.369275E+04 -7.733792E+04  1.990248E+04  1.801341E+04 -3.678390E+04
       107   9 -1.895441E+05 -7.264022E+04 -6.795865E+04  3.715759E+04  2.081469E+04 -3.251246E+04
       107  10  7.960669E+05  2.804835E+05  8.791647E+04  3.143381E+05  5.849477E-08  2.355191E-08
       107  11  7.496135E+05  2.590178E+05  7.635440E+04  2.969556E+05  4.330866E-09  1.967330E-09
       107  12  6.972665E+05  2.446558E+05  6.743620E+04  2.870658E+05 -5.475493E-08 -2.093305E-08
       107  13  2.536962E+05  8.569079E+04 -9.399096E+02  1.621785E+05 -1.601572E-09 -1.772867E-10
       107  14  2.570309E+05  8.264961E+04 -4.908713E+02  1.583781E+05  7.523018E-09  3.000518E-09
       107  15  2.537547E+05  8.599666E+04 -2.612165E+02  1.620700E+05 -2.390095E-09  6.148011E-11
       107  16 -2.883672E+05 -1.090746E+05 -8.980483E+04  1.014143E+04 -5.466338E-08 -2.131379E-08
       107  17 -2.352938E+05 -9.369429E+04 -7.734108E+04  1.990301E+04  3.288638E-09  7.051663E-09
       107  18 -1.895448E+05 -7.264147E+04 -6.796145E+04  3.715814E+04  5.818510E-08  2.469372E-08
       107  19  7.960675E+05  2.804853E+05  8.791977E+04  3.143376E+05 -1.362748E+04  3.966792E+04
       107  20  7.496141E+05  2.590196E+05  7.635757E+04  2.969553E+05 -9.849575E+03  3.984963E+04
       107  21  6.972669E+05  2.446574E+05  6.743902E+04  2.870656E+05 -5.420472E+03  3.830290E+04
       107  22  2.536968E+05  8.569252E+04 -9.366043E+02  1.621780E+05 -1.409420E+04  3.949649E+04
       107  23  2.570315E+05  8.265124E+04 -4.877471E+02  1.583777E+05 -1.393319E+04  3.831613E+04
       107  24  2.537552E+05  8.599805E+04 -2.585367E+02  1.620696E+05 -1.312048E+04  3.540659E+04
       107  25 -2.883665E+05 -1.090729E+05 -8.980153E+04  1.014097E+04 -1.456051E+04  3.932523E+04
       107  26 -2.352931E+05 -9.369275E+04 -7.733792E+04  1.990248E+04 -1.801341E+04  3.678390E+04
       107  27 -1.895441E+05 -7.264022E+04 -6.795865E+04  3.715759E+04 -2.081469E+04  3.251246E+04
       108   1  6.662498E+05  2.335231E+05  6.235521E+04  2.783744E+05  4.684025E+03 -3.606946E+04
       108   2  6.203133E+05  2.125900E+05  5.466702E+04  2.607469E+05  2.924002E+03 -3.245265E+04
       108   3  5.678321E+05  1.983524E+05  4.725829E+04  2.506735E+05  1.091590E+03 -2.864615E+04
       108   4  2.537530E+05  8.602955E+04 -1.910548E+02  1.620923E+05  1.232727E+04 -3.319377E+04
       108   5  2.570771E+05  8.274311E+04 -9.536679E+01  1.583105E+05  1.096403E+04 -2.942641E+04
       108   6  2.537743E+05  8.607359E+04 -3.506898E+01  1.620824E+05  9.528338E+03 -2.546930E+04
       108   7 -1.585546E+05 -6.144378E+04 -6.273792E+04  4.588438E+04  1.996507E+04 -3.032013E+04
       108   8 -1.060161E+05 -4.708953E+04 -5.485914E+04  5.593061E+04  1.899910E+04 -2.640205E+04
       108   9 -6.018036E+04 -2.619598E+04 -4.733041E+04  7.353236E+04  1.796068E+04 -2.229410E+04
       108  10  6.662494E+05  2.335217E+05  6.235272E+04  2.783745E+05 -2.571642E-09 -4.069965E-10
       108  11  6.203130E+05  2.125889E+05  5.466503E+04  2.607470E+05 -2.643532E-09 -1.045368E-09
       108  12  5.678319E+05  1.983515E+05  4.725675E+04  2.506736E+05  5.432351E-10  7.878467E-11
       108  13  2.537525E+05  8.602833E+04 -1.934113E+02  1.620927E+05 -1.860604E-09 -2.882031E-11
       108  14  2.570768E+05  8.274215E+04 -9.722020E+01  1.583108E+05  2.992466E-09 -3.753519E-09
       108  15  2.537741E+05  8.607287E+04 -3.645882E+01  1.620826E+05 -8.344838E-10 -4.883051E-10
       108  16 -1.585553E+05 -6.144487E+04 -6.274040E+04  4.588487E+04 -5.472438E-11 -5.031971E-11
       108  17 -1.060167E+05 -4.709038E+04 -5.486112E+04  5.593101E+04  5.301825E-10  4.122828E-11
       108  18 -6.018084E+04 -2.619660E+04 -4.733195E+04  7.353268E+04 -2.223930E-09 -3.452744E-09
       108  19  6.662498E+05  2.335231E+05  6.235521E+04  2.783744E+05 -4.684025E+03  3.606946E+04
       108  20  6.203133E+05  2.125900E+05  5.466702E+04  2.607469E+05 -2.924002E+03  3.245265E+04
       108  21  5.678321E+05  1.983524E+05  4.725829E+04  2.506735E+05 -1.091590E+03  2.864615E+04
       108  22  2.537530E+05  8.602955E+04 -1.910548E+02  1.620923E+05 -1.232727E+04  3.319377E+04
       108  23  2.570771E+05  8.274311E+04 -9.536679E+01  1.583105E+05 -1.096403E+04  2.942641E+04
       108  24  2.537743E+05  8.607359E+04 -3.506898E+01  1.620824E+05 -9.528338E+03  2.546930E+04
       108  25 -1.585546E+05 -6.144378E+04 -6.273792E+04  4.588438E+04 -1.996507E+04  3.032013E+04
       108  26 -1.060161E+05 -4.708953E+04 -5.485914E+04  5.593061E+04 -1.899910E+04  2.640205E+04
       108  27 -6.018036E+04 -2.619598E+04 -4.733041E+04  7.353236E+04 -1.796068E+04  2.229410E+04
       109   1  5.369526E+05  1.872863E+05  4.240309E+04  2.419841E+05  2.169774E+02 -2.628824E+04
       109   2  4.911092E+05  1.664269E+05  3.513491E+04  2.243392E+05 -1.359725E+03 -2.226967E+04
       109   3  4.386489E+05  1.522081E+05  2.791079E+04  2.142515E+05 -2.944219E+03 -1.823205E+04
       109   4  2.537770E+05  8.607995E+04 -1.333604E+01  1.620828E+05  8.645796E+03 -2.311379E+04
       109   5  2.570958E+05  8.277129E+04  3.124105E+01  1.583037E+05  7.108701E+03 -1.907953E+04
       109   6  2.537869E+05  8.609512E+04  8.802575E+01  1.620806E+05  5.563815E+03 -1.502625E+04
       109   7 -2.931146E+04 -1.511763E+04 -4.243036E+04  8.221605E+04  1.707056E+04 -1.994087E+04
       109   8  2.314344E+04 -8.777030E+02 -3.507235E+04  9.229203E+04  1.557371E+04 -1.589069E+04
       109   9  6.896453E+04  1.998677E+04 -2.773421E+04  1.099249E+05  1.406907E+04 -1.182149E+04
       109  10  5.369524E+05  1.872856E+05  4.240179E+04  2.419841E+05 -7.273900E-09 -3.031990E-09
       109  11  4.911091E+05  1.664263E+05  3.513397E+04  2.243392E+05  2.527025E-09  4.340036E-09
       109  12  4.386488E+05  1.522078E+05  2.791015E+04  2.142515E+05  6.168599E-09  2.059696E-09
       109  13  2.537768E+05  8.607936E+04 -1.448065E+01  1.620830E+05  2.682464E-09 -2.894649E-09
       109  14  2.570957E+05  8.277088E+04  3.046189E+01  1.583038E+05  2.306578E-09 -9.842654E-10
       109  15  2.537869E+05  8.609487E+04  8.754320E+01  1.620806E+05  2.995162E-09  4.947449E-09
       109  16 -2.931187E+04 -1.511814E+04 -4.243166E+04  8.221632E+04  5.354668E-09  2.647212E-09
       109  17  2.314311E+04 -8.780393E+02 -3.507328E+04  9.229223E+04  8.622888E-10  4.830312E-09
       109  18  6.896428E+04  1.998656E+04 -2.773484E+04  1.099251E+05 -4.917765E-09 -1.282072E-09
       109  19  5.369526E+05  1.872863E+05  4.240309E+04  2.419841E+05 -2.169774E+02  2.628824E+04
       109  20  4.911092E+05  1.664269E+05  3.513491E+04  2.243392E+05  1.359725E+03  2.226967E+04
       109  21  4.386489E+05  1.522081E+05  2.791079E+04  2.142515E+05  2.944219E+03  1.823205E+04
       109  22  2.537770E+05  8.607995E+04 -1.333604E+01  1.620828E+05 -8.645796E+03  2.311379E+04
       109  23  2.570958E+05  8.277129E+04  3.124105E+01  1.583037E+05 -7.108701E+03  1.907953E+04
       109  24  2.537869E+05  8.609512E+04  8.802575E+01  1.620806E+05 -5.563815E+03  1.502625E+04
       109  25 -2.931146E+04 -1.511763E+04 -4.243036E+04  8.221605E+04 -1.707056E+04  1.994087E+04
       109  26  2.314344E+04 -8.777030E+02 -3.507235E+04  9.229203E+04 -1.557371E+04  1.589069E+04
       109  27  6.896453E+04  1.998677E+04 -2.773421E+04  1.099249E+05 -1.406907E+04  1.182149E+04
       110   1  4.078006E+05  1.411485E+05  2.310027E+04  2.055667E+05 -3.853017E+03 -1.586951E+04
       110   2  3.619788E+05  1.202953E+05  1.594502E+04  1.879308E+05 -5.484511E+03 -1.184391E+04
       110   3  3.095415E+05  1.060793E+05  8.865300E+03  1.778518E+05 -7.112955E+03 -7.827138E+03
       110   4  2.537934E+05  8.609729E+04  1.253107E+02  1.620819E+05  4.653322E+03 -1.266402E+04
       110   5  2.571017E+05  8.277780E+04  2.389409E+02  1.583041E+05  3.003179E+03 -8.645082E+03
       110   6  2.537967E+05  8.609939E+04  4.429500E+02  1.620824E+05  1.356084E+03 -4.634985E+03
       110   7  9.981014E+04  3.104800E+04 -2.285015E+04  1.186068E+05  1.315754E+04 -9.459329E+03
       110   8  1.522360E+05  4.526132E+04 -1.546714E+04  1.286819E+05  1.148941E+04 -5.446800E+03
       110   9  1.980554E+05  6.611990E+04 -7.979139E+03  1.463144E+05  9.824323E+03 -1.443135E+03
       110  10  4.078005E+05  1.411482E+05  2.309977E+04  2.055666E+05 -6.445574E-09 -2.262267E-09
       110  11  3.619787E+05  1.202951E+05  1.594470E+04  1.879308E+05 -1.886282E-10 -2.059453E-09
       110  12  3.095415E+05  1.060792E+05  8.865090E+03  1.778518E+05  5.635970E-09 -1.376763E-09
       110  13  2.537933E+05  8.609711E+04  1.249686E+02  1.620820E+05  6.459426E-09 -2.252606E-10
       110  14  2.571016E+05  8.277772E+04  2.387835E+02  1.583041E+05  1.235511E-08  3.920375E-09
       110  15  2.537967E+05  8.609937E+04  4.429062E+02  1.620824E+05  9.192135E-09  4.066383E-09
       110  16  9.980993E+04  3.104786E+04 -2.285064E+04  1.186069E+05  1.126658E-08  5.076927E-09
       110  17  1.522358E+05  4.526125E+04 -1.546745E+04  1.286819E+05  1.180640E-08  5.912370E-09
       110  18  1.980553E+05  6.611987E+04 -7.979325E+03  1.463144E+05  8.549226E-09  5.228130E-09
       110  19  4.078006E+05  1.411485E+05  2.310027E+04  2.055667E+05  3.853017E+03  1.586951E+04
       110  20  3.619788E+05  1.202953E+05  1.594502E+04  1.879308E+05  5.484511E+03  1.184391E+04
       110  21  3.095415E+05  1.060793E+05  8.865300E+03  1.778518E+05  7.112955E+03  7.827138E+03
       110  22  2.537934E+05  8.609729E+04  1.253107E+02  1.620819E+05 -4.653322E+03  1.266402E+04
       110  23  2.571017E+05  8.277780E+04  2.389409E+02  1.583041E+05 -3.003179E+03  8.645082E+03
       110  24  2.537967E+05  8.609939E+04  4.429500E+02  1.620824E+05 -1.356084E+03  4.634985E+03
       110  25  9.981014E+04  3.104800E+04 -2.285015E+04  1.186068E+05 -1.315754E+04  9.459329E+03
       110  26  1.522360E+05  4.526132E+04 -1.546714E+04  1.286819E+05 -1.148941E+04  5.446800E+03
       110  27  1.980554E+05  6.611990E+04 -7.979139E+03  1.463144E+05 -9.824323E+03  1.443135E+03
       111   1  2.787061E+05  9.502787E+04  4.157998E+03  1.691894E+05 -8.090202E+03 -5.498618E+03
       111   2  2.328842E+05  7.415947E+04 -2.709674E+03  1.515262E+05 -9.938116E+03 -1.622606E+03
       111   3  1.805131E+05  6.000239E+04 -9.303537E+03  1.414048E+05 -1.174955E+04  2.157014E+03
       111   4  2.538160E+05  8.609756E+04  5.930857E+02  1.620891E+05  3.813560E+02 -2.305447E+03
       111   5  2.570814E+05  8.279126E+04  1.082365E+03  1.582925E+05 -1.668519E+03  1.494354E+03
       111   6  2.538346E+05  8.623576E+04  2.005067E+03  1.620365E+05 -3.681957E+03  5.197771E+03
       111   7  2.289272E+05  7.716749E+04 -2.971438E+03  1.549892E+05  8.852456E+03  8.875500E+02
       111   8  2.812794E+05  9.142316E+04  4.874688E+03  1.650591E+05  6.601419E+03  4.611440E+03
       111   9  3.271629E+05  1.124701E+05  1.331412E+04  1.826708E+05  4.386741E+03  8.238943E+03
       111  10  2.787060E+05  9.502782E+04  4.157818E+03  1.691894E+05  7.717463E-09  1.913586E-10
       111  11  2.328840E+05  7.415944E+04 -2.709865E+03  1.515262E+05  4.811041E-09 -5.499828E-09
       111  12  1.805129E+05  6.000235E+04 -9.303805E+03  1.414048E+05  5.002946E-09 -1.369243E-09
       111  13  2.538160E+05  8.609755E+04  5.930754E+02  1.620891E+05  4.740499E-09  4.945272E-09
       111  14  2.570814E+05  8.279125E+04  1.082356E+03  1.582925E+05 -2.368546E-09 -1.861801E-09
       111  15  2.538345E+05  8.623572E+04  2.004991E+03  1.620365E+05 -3.368356E-09 -7.532850E-09
       111  16  2.289271E+05  7.716747E+04 -2.971586E+03  1.549892E+05  5.305510E-10  3.169313E-09
       111  17  2.812794E+05  9.142313E+04  4.874567E+03  1.650591E+05 -6.709607E-09 -2.542164E-09
       111  18  3.271628E+05  1.124700E+05  1.331395E+04  1.826707E+05 -1.009415E-09 -5.973549E-10
       111  19  2.787061E+05  9.502787E+04  4.157998E+03  1.691894E+05  8.090202E+03  5.498618E+03
       111  20  2.328842E+05  7.415947E+04 -2.709674E+03  1.515262E+05  9.938116E+03  1.622606E+03
       111  21  1.805131E+05  6.000239E+04 -9.303537E+03  1.414048E+05  1.174955E+04 -2.157014E+03
       111  22  2.538160E+05  8.609756E+04  5.930857E+02  1.620891E+05 -3.813560E+02  2.305447E+03
       111  23  2.570814E+05  8.279126E+04  1.082365E+03  1.582925E+05  1.668519E+03 -1.494354E+03
       111  24  2.538346E+05  8.623576E+04  2.005067E+03  1.620365E+05  3.681957E+03 -5.197771E+03
       111  25  2.289272E+05  7.716749E+04 -2.971438E+03  1.549892E+05 -8.852456E+03 -8.875500E+02
       111  26  2.812794E+05  9.142316E+04  4.874688E+03  1.650591E+05 -6.601419E+03 -4.611440E+03
       111  27  3.271629E+05  1.124701E+05  1.331412E+04  1.826708E+05 -4.386741E+03 -8.238943E+03
       112   1  1.496486E+05  4.905459E+04 -1.361891E+04  1.328835E+05 -1.299815E+04  4.293539E+03
       112   2  1.043321E+05  2.799916E+04 -1.954153E+04  1.142771E+05 -1.497076E+04  7.473814E+03
       112   3  5.300894E+04  1.480723E+04 -2.460956E+04  1.028549E+05 -1.661363E+04  9.780073E+03
       112   4  2.539842E+05  8.627111E+04  2.684117E+03  1.620666E+05 -4.903056E+03  7.344511E+03
       112   5  2.569991E+05  8.352329E+04  4.965409E+03  1.579598E+05 -8.703636E+03  9.835384E+03
       112   6  2.543666E+05  8.900024E+04  9.549123E+03  1.610358E+05 -1.217456E+04  1.145235E+04
       112   7  3.583317E+05  1.234888E+05  1.898723E+04  1.912544E+05  3.193476E+03  1.039602E+04
       112   8  4.096903E+05  1.390496E+05  2.947178E+04  2.016523E+05 -2.434917E+03  1.219757E+04
       112   9  4.557649E+05  1.631969E+05  4.370611E+04  2.192339E+05 -7.734008E+03  1.312521E+04
       112  10  1.496484E+05  4.905452E+04 -1.361927E+04  1.328836E+05  8.564583E-09 -1.081646E-09
       112  11  1.043318E+05  2.799904E+04 -1.954206E+04  1.142772E+05 -9.676079E-09 -4.887160E-09
       112  12  5.300862E+04  1.480705E+04 -2.461026E+04  1.028550E+05 -1.243381E-08 -3.865351E-09
       112  13  2.539842E+05  8.627104E+04  2.683971E+03  1.620667E+05 -3.793180E-09 -3.559064E-09
       112  14  2.569990E+05  8.352316E+04  4.965085E+03  1.579599E+05 -8.763665E-09 -7.054505E-09
       112  15  2.543664E+05  8.900006E+04  9.548598E+03  1.610359E+05 -2.768987E-09  1.963745E-10
       112  16  3.583316E+05  1.234887E+05  1.898701E+04  1.912544E+05 -7.322588E-09 -6.186882E-09
       112  17  4.096902E+05  1.390495E+05  2.947149E+04  2.016524E+05 -7.488239E-09 -7.331905E-09
       112  18  4.557648E+05  1.631967E+05  4.370567E+04  2.192340E+05  7.192272E-09  2.718221E-09
       112  19  1.496486E+05  4.905459E+04 -1.361891E+04  1.328835E+05  1.299815E+04 -4.293539E+03
       112  20  1.043321E+05  2.799916E+04 -1.954153E+04  1.142771E+05  1.497076E+04 -7.473814E+03
       112  21  5.300894E+04  1.480723E+04 -2.460956E+04  1.028549E+05  1.661363E+04 -9.780073E+03
       112  22  2.539842E+05  8.627111E+04  2.684117E+03  1.620666E+05  4.903056E+03 -7.344511E+03
       112  23  2.569991E+05  8.352329E+04  4.965409E+03  1.579598E+05  8.703636E+03 -9.835384E+03
       112  24  2.543666E+05  8.900024E+04  9.549123E+03  1.610358E+05  1.217456E+04 -1.145235E+04
       112  25  3.583317E+05  1.234888E+05  1.898723E+04  1.912544E+05 -3.193476E+03 -1.039602E+04
       112  26  4.096903E+05  1.390496E+05  2.947178E+04  2.016523E+05  2.434917E+03 -1.219757E+04
       112  27  4.557649E+05  1.631969E+05  4.370611E+04  2.192339E+05  7.734008E+03 -1.312521E+04
       113   1  2.191215E+04  5.339197E+03 -2.753610E+04  9.564622E+04 -1.889836E+04  1.071057E+04
       113   2 -1.439857E+04 -1.801931E+04 -3.152611E+04  6.241885E+04 -1.449136E+04  1.041790E+04
       113   3 -5.058844E+04 -1.739974E+04 -3.338068E+04  3.115591E+04 -7.106171E+03  2.216117E+03
       113   4  2.558819E+05  8.978058E+04  1.285556E+04  1.611725E+05 -1.421288E+04  1.247548E+04
       113   5  2.569368E+05  9.557718E+04  2.472059E+04  1.528706E+05 -2.633723E+04  5.953734E+03
       113   6  2.613824E+05  1.286204E+05  5.181809E+04  1.465337E+05 -3.548451E+04 -8.475128E+03
       113   7  4.899139E+05  1.742290E+05  5.324689E+04  2.267229E+05 -9.525443E+03  1.424113E+04
       113   8  5.283488E+05  2.091867E+05  8.096395E+04  2.433611E+05 -3.818860E+04  1.486802E+03
       113   9  5.734451E+05  2.746610E+05  1.370095E+05  2.619672E+05 -6.387773E+04 -1.917531E+04
       113  10  2.191173E+04  5.338978E+03 -2.753699E+04  9.564638E+04  2.948465E-09  3.502924E-09
       113  11 -1.439883E+04 -1.801948E+04 -3.152671E+04  6.241897E+04 -2.274689E-09  1.724657E-09
       113  12 -5.058850E+04 -1.739976E+04 -3.338078E+04  3.115593E+04 -4.087547E-09 -2.571669E-09
       113  13  2.558816E+05  8.978036E+04  1.285488E+04  1.611726E+05 -3.600865E-09  4.835229E-09
       113  14  2.569361E+05  9.557695E+04  2.471922E+04  1.528708E+05 -6.737148E-09  3.847741E-09
       113  15  2.613810E+05  1.286200E+05  5.181559E+04  1.465335E+05 -9.009920E-10  8.809994E-10
       113  16  4.899138E+05  1.742287E+05  5.324634E+04  2.267231E+05 -8.328944E-09 -3.598706E-09
       113  17  5.283472E+05  2.091863E+05  8.096121E+04  2.433612E+05 -7.631829E-09  2.948953E-11
       113  18  5.734406E+05  2.746595E+05  1.370012E+05  2.619662E+05 -2.653591E-09 -1.606218E-09
       113  19  2.191215E+04  5.339197E+03 -2.753610E+04  9.564622E+04  1.889836E+04 -1.071057E+04
       113  20 -1.439857E+04 -1.801931E+04 -3.152611E+04  6.241885E+04  1.449136E+04 -1.041790E+04
       113  21 -5.058844E+04 -1.739974E+04 -3.338068E+04  3.115591E+04  7.106171E+03 -2.216117E+03
       113  22  2.558819E+05  8.978058E+04  1.285556E+04  1.611725E+05  1.421288E+04 -1.247548E+04
       113  23  2.569368E+05  9.557718E+04  2.472059E+04  1.528706E+05  2.633723E+04 -5.953734E+03
       113  24  2.613824E+05  1.286204E+05  5.181809E+04  1.465337E+05  3.548451E+04  8.475128E+03
       113  25  4.899139E+05  1.742290E+05  5.324689E+04  2.267229E+05  9.525443E+03 -1.424113E+04
       113  26  5.283488E+05  2.091867E+05  8.096395E+04  2.433611E+05  3.818860E+04 -1.486802E+03
       113  27  5.734451E+05  2.746610E+05  1.370095E+05  2.619672E+05  6.387773E+04  1.917531E+04
       114   1 -2.395160E+05 -1.122182E+06 -2.707539E+05  8.287732E+04 -4.226848E+03 -1.063554E+05
       114   2 -7.982535E+04 -1.014844E+06 -1.641285E+05  2.345609E+04 -1.227374E+04 -6.375391E+04
       114   3 -7.223685E+04 -9.506561E+05 -1.232213E+05  3.078337E+04 -9.202838E+03 -2.112864E+04
       114   4 -1.193311E+05 -6.414694E+05 -1.517933E+05  4.597405E+04 -4.231424E+03 -9.991415E+04
       114   5  1.815670E+04 -6.203437E+05 -6.926602E+04  1.270146E+04 -1.227386E+04 -6.261674E+04
       114   6  4.516242E+03 -6.414222E+05 -4.873531E+04  4.617972E+04 -9.198010E+03 -2.530186E+04
       114   7  8.415061E+02 -1.605440E+05 -3.284901E+04  9.042208E+03 -4.236767E+03 -9.346784E+04
       114   8  1.161278E+05 -2.257008E+05  2.558547E+04  1.940007E+03 -1.227401E+04 -6.147884E+04
       114   9  8.126327E+04 -3.321000E+05  2.574409E+04  6.158379E+04 -9.193390E+03 -2.947715E+04
       114  10 -2.395191E+05 -1.122194E+06 -2.707752E+05  8.287696E+04 -2.929844E-09  6.716000E-09
       114  11 -7.982661E+04 -1.014848E+06 -1.641365E+05  2.345546E+04 -3.838243E-09  5.103543E-09
       114  12 -7.223706E+04 -9.506567E+05 -1.232223E+05  3.078322E+04  1.367001E-09  3.110064E-09
       114  13 -1.193338E+05 -6.414801E+05 -1.518121E+05  4.597371E+04  3.118620E-10 -1.024488E-09
       114  14  1.815549E+04 -6.203480E+05 -6.927368E+04  1.270084E+04  9.435337E-10 -1.491613E-09
       114  15  4.515979E+03 -6.414229E+05 -4.873667E+04  4.617953E+04  2.412497E-09  1.342331E-09
       114  16  8.391408E+02 -1.605534E+05 -3.286546E+04  9.041889E+03  1.529910E-09 -2.834918E-10
       114  17  1.161267E+05 -2.257049E+05  2.557808E+04  1.939399E+03  3.206326E-09 -5.187374E-09
       114  18  8.126295E+04 -3.321009E+05  2.574230E+04  6.158357E+04 -1.005687E-09 -2.630823E-09
       114  19 -2.395160E+05 -1.122182E+06 -2.707539E+05  8.287732E+04  4.226848E+03  1.063554E+05
       114  20 -7.982535E+04 -1.014844E+06 -1.641285E+05  2.345609E+04  1.227374E+04  6.375391E+04
       114  21 -7.223685E+04 -9.506561E+05 -1.232213E+05  3.078337E+04  9.202838E+03  2.112864E+04
       114  22 -1.193311E+05 -6.414694E+05 -1.517933E+05  4.597405E+04  4.231424E+03  9.991415E+04
       114  23  1.815670E+04 -6.203437E+05 -6.926602E+04  1.270146E+04  1.227386E+04  6.261674E+04
       114  24  4.516242E+03 -6.414222E+05 -4.873531E+04  4.617972E+04  9.198010E+03  2.530186E+04
       114  25  8.415061E+02 -1.605440E+05 -3.284901E+04  9.042208E+03  4.236767E+03  9.346784E+04
       114  26  1.161278E+05 -2.257008E+05  2.558547E+04  1.940007E+03  1.227401E+04  6.147884E+04
       114  27  8.126327E+04 -3.321000E+05  2.574409E+04  6.158379E+04  9.193390E+03  2.947715E+04
       115   1 -5.869200E+04 -8.204740E+05 -8.832366E+04  5.183216E+04 -5.534608E+03 -1.619781E+04
       115   2 -2.075615E+04 -7.288759E+05 -5.774185E+04  1.254853E+04 -3.016671E+03  1.291548E+03
       115   3 -1.570937E+04 -6.475709E+05 -4.673678E+04  4.100015E+04 -1.719173E+02  1.878302E+04
       115   4 -1.244616E+04 -6.343170E+05 -4.347739E+04  4.633138E+04 -5.533079E+03 -1.733931E+04
       115   5  3.998443E+03 -6.291798E+05 -3.374076E+04  1.246425E+04 -3.015234E+03 -3.237990E+00
       115   6 -1.241588E+04 -6.343141E+05 -4.347094E+04  4.633245E+04 -1.703122E+02  1.733255E+04
       115   7  3.379726E+04 -4.481283E+05  1.366421E+03  4.082895E+04 -5.531530E+03 -1.848115E+04
       115   8  2.875231E+04 -5.294746E+05 -9.740380E+03  1.237996E+04 -3.013797E+03 -1.298231E+03
       115   9 -9.122297E+03 -6.210570E+05 -4.020508E+04  5.166486E+04 -1.687321E+02  1.588204E+04
       115  10 -5.869210E+04 -8.204742E+05 -8.832421E+04  5.183209E+04  1.702497E-09  4.435680E-09
       115  11 -2.075616E+04 -7.288759E+05 -5.774187E+04  1.254853E+04  1.259430E-09  1.989126E-09
       115  12 -1.570946E+04 -6.475712E+05 -4.673745E+04  4.100015E+04  1.612943E-09 -4.315231E-10
       115  13 -1.244627E+04 -6.343174E+05 -4.347801E+04  4.633130E+04 -3.779718E-10  1.070364E-09
       115  14  3.998434E+03 -6.291798E+05 -3.374078E+04  1.246425E+04 -1.177068E-09 -1.594379E-09
       115  15 -1.241596E+04 -6.343144E+05 -4.347150E+04  4.633245E+04  1.418859E-09  9.791068E-10
       115  16  3.379713E+04 -4.481287E+05  1.365721E+03  4.082887E+04  1.117111E-09 -5.778948E-10
       115  17  2.875230E+04 -5.294746E+05 -9.740401E+03  1.237996E+04  1.250206E-09 -9.660530E-10
       115  18 -9.122364E+03 -6.210573E+05 -4.020556E+04  5.166487E+04 -7.075381E-10  1.011203E-09
       115  19 -5.869200E+04 -8.204740E+05 -8.832366E+04  5.183216E+04  5.534608E+03  1.619781E+04
       115  20 -2.075615E+04 -7.288759E+05 -5.774185E+04  1.254853E+04  3.016671E+03 -1.291548E+03
       115  21 -1.570937E+04 -6.475709E+05 -4.673678E+04  4.100015E+04  1.719173E+02 -1.878302E+04
       115  22 -1.244616E+04 -6.343170E+05 -4.347739E+04  4.633138E+04  5.533079E+03  1.733931E+04
       115  23  3.998443E+03 -6.291798E+05 -3.374076E+04  1.246425E+04  3.015234E+03  3.237990E+00
       115  24 -1.241588E+04 -6.343141E+05 -4.347094E+04  4.633245E+04  1.703122E+02 -1.733255E+04
       115  25  3.379726E+04 -4.481283E+05  1.366421E+03  4.082895E+04  5.531530E+03  1.848115E+04
       115  26  2.875231E+04 -5.294746E+05 -9.740380E+03  1.237996E+04  3.013797E+03  1.298231E+03
       115  27 -9.122297E+03 -6.210570E+05 -4.020508E+04  5.166486E+04  1.687321E+02 -1.588204E+04
       116   1  3.188210E+04 -5.312193E+05 -2.210655E+04  6.190066E+04  2.967771E+03  2.852445E+04
       116   2  6.692927E+04 -4.240024E+05 -2.208355E+04  2.057955E+03  6.143113E+03  6.247124E+04
       116   3 -4.853076E+04 -3.585739E+05 -8.173957E+04  9.570510E+03  2.294524E+03  9.641461E+04
       116   4  4.534069E+03 -6.414485E+05 -4.873780E+04  4.630089E+04  2.970356E+03  2.529445E+04
       116   5  1.819270E+04 -6.202700E+05 -6.924337E+04  1.254357E+04  6.144132E+03  6.259906E+04
       116   6 -1.192683E+05 -6.414898E+05 -1.517775E+05  4.614512E+04  2.295848E+03  9.989537E+04
       116   7 -2.281392E+04 -7.516660E+05 -7.536975E+04  3.070390E+04  2.973104E+03  2.206501E+04
       116   8 -3.054626E+04 -8.165022E+05 -1.164059E+05  2.302586E+04  6.145157E+03  6.272684E+04
       116   9 -1.900068E+05 -9.243300E+05 -2.218206E+05  8.270306E+04  2.297583E+03  1.033745E+05
       116  10  3.188187E+04 -5.312202E+05 -2.210810E+04  6.190059E+04  6.611062E-10  3.307701E-09
       116  11  6.692818E+04 -4.240066E+05 -2.209096E+04  2.057646E+03 -8.587337E-11  3.487760E-09
       116  12 -4.853326E+04 -3.585839E+05 -8.175706E+04  9.570331E+03 -2.799491E-10  1.641580E-09
       116  13  4.533887E+03 -6.414492E+05 -4.873902E+04  4.630083E+04 -1.926461E-11  5.191295E-11
       116  14  1.819161E+04 -6.202743E+05 -6.925081E+04  1.254326E+04  4.332321E-09 -1.564071E-09
       116  15 -1.192710E+05 -6.415005E+05 -1.517963E+05  4.614494E+04  2.508270E-09  2.177050E-09
       116  16 -2.281406E+04 -7.516665E+05 -7.537068E+04  3.070385E+04 -1.337830E-09  6.962711E-10
       116  17 -3.054736E+04 -8.165064E+05 -1.164133E+05  2.302555E+04  1.159193E-09 -4.308500E-09
       116  18 -1.900097E+05 -9.243415E+05 -2.218408E+05  8.270287E+04 -1.186347E-09 -1.713615E-09
       116  19  3.188210E+04 -5.312193E+05 -2.210655E+04  6.190066E+04 -2.967771E+03 -2.852445E+04
       116  20  6.692927E+04 -4.240024E+05 -2.208355E+04  2.057955E+03 -6.143113E+03 -6.247124E+04
       116  21 -4.853076E+04 -3.585739E+05 -8.173957E+04  9.570510E+03 -2.294524E+03 -9.641461E+04
       116  22  4.534069E+03 -6.414485E+05 -4.873780E+04  4.630089E+04 -2.970356E+03 -2.529445E+04
       116  23  1.819270E+04 -6.202700E+05 -6.924337E+04  1.254357E+04 -6.144132E+03 -6.259906E+04
       116  24 -1.192683E+05 -6.414898E+05 -1.517775E+05  4.614512E+04 -2.295848E+03 -9.989537E+04
       116  25 -2.281392E+04 -7.516660E+05 -7.536975E+04  3.070390E+04 -2.973104E+03 -2.206501E+04
       116  26 -3.054626E+04 -8.165022E+05 -1.164059E+05  2.302586E+04 -6.145157E+03 -6.272684E+04
       116  27 -1.900068E+05 -9.243300E+05 -2.218206E+05  8.270306E+04 -2.297583E+03 -1.033745E+05
       117   1  4.814878E+05  1.655696E+05  1.002652E+05  1.779452E+05  4.774956E+04  1.648383E+04
       117   2  4.643322E+05  9.165969E+04  5.479023E+04  1.775339E+05  3.072638E+04  7.036207E+03
       117   3  4.661994E+05  8.335216E+04  3.909065E+04  1.684059E+05  1.256610E+04  6.048354E+02
       117   4  3.839116E+05  1.095041E+05  7.015170E+04  1.315782E+05  4.512747E+04  1.549298E+04
       117   5  3.708630E+05  5.067598E+04  2.970163E+04  1.458271E+05  3.000533E+04  6.763802E+03
       117   6  3.764641E+05  5.707850E+04  1.752451E+04  1.513585E+05  1.374567E+04  1.050005E+03
       117   7  2.863468E+05  5.344427E+04  4.003767E+04  8.521949E+04  4.250586E+04  1.450251E+04
       117   8  2.774027E+05  9.693904E+03  4.612359E+03  1.141251E+05  2.928439E+04  6.491459E+03
       117   9  2.867363E+05  3.080458E+04 -4.042287E+03  1.343129E+05  1.492506E+04  1.495142E+03
       117  10  4.814853E+05  1.655687E+05  1.002604E+05  1.779446E+05  7.937308E-10 -1.189886E-09
       117  11  4.643312E+05  9.165938E+04  5.478836E+04  1.775337E+05  4.387259E-09 -1.106402E-09
       117  12  4.661993E+05  8.335212E+04  3.909035E+04  1.684059E+05  5.983350E-09  4.720423E-09
       117  13  3.839094E+05  1.095033E+05  7.014743E+04  1.315776E+05  2.056862E-09  2.124511E-09
       117  14  3.708620E+05  5.067569E+04  2.969986E+04  1.458270E+05 -1.483662E-09  9.070328E-09
       117  15  3.764639E+05  5.707845E+04  1.752415E+04  1.513585E+05  2.141632E-09  2.832984E-09
       117  16  2.863448E+05  5.344356E+04  4.003389E+04  8.521899E+04  1.469604E-09  4.649626E-09
       117  17  2.774017E+05  9.693628E+03  4.610669E+03  1.141250E+05  1.517704E-09  3.492291E-09
       117  18  2.867360E+05  3.080452E+04 -4.042710E+03  1.343129E+05 -1.175543E-09 -8.279927E-10
       117  19  4.814878E+05  1.655696E+05  1.002652E+05  1.779452E+05 -4.774956E+04 -1.648383E+04
       117  20  4.643322E+05  9.165969E+04  5.479023E+04  1.775339E+05 -3.072638E+04 -7.036207E+03
       117  21  4.661994E+05  8.335216E+04  3.909065E+04  1.684059E+05 -1.256610E+04 -6.048354E+02
       117  22  3.839116E+05  1.095041E+05  7.015170E+04  1.315782E+05 -4.512747E+04 -1.549298E+04
       117  23  3.708630E+05  5.067598E+04  2.970163E+04  1.458271E+05 -3.000533E+04 -6.763802E+03
       117  24  3.764641E+05  5.707850E+04  1.752451E+04  1.513585E+05 -1.374567E+04 -1.050005E+03
       117  25  2.863468E+05  5.344427E+04  4.003767E+04  8.521949E+04 -4.250586E+04 -1.450251E+04
       117  26  2.774027E+05  9.693904E+03  4.612359E+03  1.141251E+05 -2.928439E+04 -6.491459E+03
       117  27  2.867363E+05  3.080458E+04 -4.042287E+03  1.343129E+05 -1.492506E+04 -1.495142E+03
       118   1  4.429953E+05  9.093915E+04  3.205627E+04  1.678753E+05  1.081590E+04  8.369412E+02
       118   2  4.317251E+05  7.726716E+04  2.144144E+04  1.614446E+05  6.931553E+03 -7.974570E+01
       118   3  4.170520E+05  7.474265E+04  1.501581E+04  1.604318E+05  2.982458E+03 -8.246309E+02
       118   4  3.742023E+05  6.364544E+04  1.412204E+04  1.474860E+05  1.106362E+04  9.303579E+02
       118   5  3.755919E+05  5.580992E+04  6.989033E+03  1.456350E+05  7.287810E+03  5.466511E+01
       118   6  3.735571E+05  5.910066E+04  3.959618E+03  1.492018E+05  3.447166E+03 -6.492631E+02
       118   7  3.054140E+05  3.635219E+04 -3.812597E+03  1.270989E+05  1.131132E+04  1.023762E+03
       118   8  3.194619E+05  3.435295E+04 -7.463607E+03  1.298268E+05  7.644031E+03  1.890618E+02
       118   9  3.300642E+05  4.345882E+04 -7.096678E+03  1.379724E+05  3.911837E+03 -4.739080E+02
       118  10  4.429952E+05  9.093912E+04  3.205605E+04  1.678753E+05  6.424166E-09  2.502665E-09
       118  11  4.317251E+05  7.726714E+04  2.144135E+04  1.614446E+05  1.411333E-09  1.014330E-08
       118  12  4.170520E+05  7.474265E+04  1.501579E+04  1.604318E+05 -1.254423E-09  2.115409E-09
       118  13  3.742022E+05  6.364541E+04  1.412180E+04  1.474860E+05  7.779638E-10  1.790504E-09
       118  14  3.755919E+05  5.580990E+04  6.988933E+03  1.456350E+05  1.479124E-09  1.130102E-08
       118  15  3.735571E+05  5.910066E+04  3.959595E+03  1.492018E+05  1.111759E-09  3.176309E-09
       118  16  3.054139E+05  3.635216E+04 -3.812839E+03  1.270989E+05 -2.836215E-09 -3.620518E-09
       118  17  3.194619E+05  3.435294E+04 -7.463716E+03  1.298268E+05 -1.969686E-09  6.628787E-09
       118  18  3.300642E+05  4.345881E+04 -7.096707E+03  1.379724E+05  3.012174E-09 -2.845556E-10
       118  19  4.429953E+05  9.093915E+04  3.205627E+04  1.678753E+05 -1.081590E+04 -8.369412E+02
       118  20  4.317251E+05  7.726716E+04  2.144144E+04  1.614446E+05 -6.931553E+03  7.974570E+01
       118  21  4.170520E+05  7.474265E+04  1.501581E+04  1.604318E+05 -2.982458E+03  8.246309E+02
       118  22  3.742023E+05  6.364544E+04  1.412204E+04  1.474860E+05 -1.106362E+04 -9.303579E+02
       118  23  3.755919E+05  5.580992E+04  6.989033E+03  1.456350E+05 -7.287810E+03 -5.466511E+01
       118  24  3.735571E+05  5.910066E+04  3.959618E+03  1.492018E+05 -3.447166E+03  6.492631E+02
       118  25  3.054140E+05  3.635219E+04 -3.812597E+03  1.270989E+05 -1.131132E+04 -1.023762E+03
       118  26  3.194619E+05  3.435295E+04 -7.463607E+03  1.298268E+05 -7.644031E+03 -1.890618E+02
       118  27  3.300642E+05  4.345882E+04 -7.096678E+03  1.379724E+05 -3.911837E+03  4.739080E+02
       119   1  4.018535E+05  7.043633E+04  1.033855E+04  1.567679E+05  2.318080E+03 -6.050182E+02
       119   2  3.912811E+05  6.201567E+04  5.532824E+03  1.498202E+05  1.240383E+03 -2.605020E+02
       119   3  3.751424E+05  5.991277E+04  1.468830E+03  1.494314E+05  1.590793E+02  9.353881E+01
       119   4  3.733114E+05  5.964965E+04  3.057491E+03  1.488450E+05  2.729005E+03 -4.499409E+02
       119   5  3.760680E+05  5.630006E+04  1.635056E+03  1.456377E+05  1.657344E+03 -1.031395E+02
       119   6  3.732572E+05  5.926715E+04  9.496987E+02  1.489895E+05  5.820577E+02  2.531799E+02
       119   7  3.447701E+05  4.886298E+04 -4.223666E+03  1.409224E+05  3.139911E+03 -2.948709E+02
       119   8  3.608552E+05  5.058445E+04 -2.262738E+03  1.414554E+05  2.074294E+03  5.421908E+01
       119   9  3.713721E+05  5.862153E+04  4.305678E+02  1.485475E+05  1.005035E+03  4.128206E+02
       119  10  4.018535E+05  7.043633E+04  1.033854E+04  1.567679E+05  1.866518E-09  1.826695E-09
       119  11  3.912811E+05  6.201567E+04  5.532821E+03  1.498202E+05 -2.661367E-09 -1.149443E-09
       119  12  3.751424E+05  5.991277E+04  1.468830E+03  1.494314E+05 -3.699537E-09 -4.966329E-09
       119  13  3.733114E+05  5.964964E+04  3.057477E+03  1.488450E+05  2.204796E-11 -8.493485E-11
       119  14  3.760680E+05  5.630006E+04  1.635051E+03  1.456377E+05 -4.110619E-09  2.736671E-09
       119  15  3.732572E+05  5.926715E+04  9.496979E+02  1.489895E+05  6.573333E-11 -3.066822E-09
       119  16  3.447701E+05  4.886298E+04 -4.223684E+03  1.409224E+05 -1.787640E-09 -4.769000E-09
       119  17  3.608551E+05  5.058445E+04 -2.262746E+03  1.414554E+05 -5.992911E-09  1.000380E-09
       119  18  3.713721E+05  5.862153E+04  4.305656E+02  1.485475E+05 -1.334609E-09  3.102406E-09
       119  19  4.018535E+05  7.043633E+04  1.033855E+04  1.567679E+05 -2.318080E+03  6.050182E+02
       119  20  3.912811E+05  6.201567E+04  5.532824E+03  1.498202E+05 -1.240383E+03  2.605020E+02
       119  21  3.751424E+05  5.991277E+04  1.468830E+03  1.494314E+05 -1.590793E+02 -9.353881E+01
       119  22  3.733114E+05  5.964965E+04  3.057491E+03  1.488450E+05 -2.729005E+03  4.499409E+02
       119  23  3.760680E+05  5.630006E+04  1.635056E+03  1.456377E+05 -1.657344E+03  1.031395E+02
       119  24  3.732572E+05  5.926715E+04  9.496987E+02  1.489895E+05 -5.820577E+02 -2.531799E+02
       119  25  3.447701E+05  4.886298E+04 -4.223666E+03  1.409224E+05 -3.139911E+03  2.948709E+02
       119  26  3.608552E+05  5.058445E+04 -2.262738E+03  1.414554E+05 -2.074294E+03 -5.421908E+01
       119  27  3.713721E+05  5.862153E+04  4.305678E+02  1.485475E+05 -1.005035E+03 -4.128206E+02
       120   1  3.606999E+05  5.459479E+04 -2.506571E+03  1.455157E+05 -1.250596E+02  4.318793E+02
       120   2  3.502081E+05  4.661091E+04 -6.133709E+03  1.385146E+05 -6.303551E+02  1.004062E+03
       120   3  3.339169E+05  4.452688E+04 -9.560213E+03  1.381614E+05 -1.136025E+03  1.577381E+03
       120   4  3.732251E+05  5.931094E+04  7.521319E+02  1.489577E+05  2.949737E+02  5.904068E+02
       120   5  3.761228E+05  5.634719E+04  5.058064E+02  1.456390E+05 -2.096222E+02  1.162841E+03
       120   6  3.732209E+05  5.928310E+04  4.595787E+02  1.489681E+05 -7.145996E+02  1.736412E+03
       120   7  3.857503E+05  6.402707E+04  4.010809E+03  1.523998E+05  7.150149E+02  7.489373E+02
       120   8  4.020382E+05  6.608350E+04  7.145267E+03  1.527637E+05  2.111300E+02  1.321628E+03
       120   9  4.125266E+05  7.403947E+04  1.047928E+04  1.597755E+05 -2.931439E+02  1.895454E+03
       120  10  3.606999E+05  5.459479E+04 -2.506571E+03  1.455157E+05 -6.564795E-09 -3.048889E-09
       120  11  3.502081E+05  4.661091E+04 -6.133711E+03  1.385146E+05 -3.725633E-09  1.655822E-09
       120  12  3.339169E+05  4.452688E+04 -9.560220E+03  1.381614E+05  4.584613E-09  5.280798E-09
       120  13  3.732251E+05  5.931093E+04  7.521310E+02  1.489577E+05  1.160863E-09 -3.398660E-09
       120  14  3.761228E+05  5.634718E+04  5.058038E+02  1.456390E+05  1.351915E-10  2.478702E-09
       120  15  3.732209E+05  5.928309E+04  4.595721E+02  1.489681E+05  1.098647E-09 -5.723128E-09
       120  16  3.857503E+05  6.402707E+04  4.010807E+03  1.523998E+05  6.188342E-09  7.737247E-10
       120  17  4.020382E+05  6.608350E+04  7.145264E+03  1.527637E+05  3.375565E-10  3.041424E-09
       120  18  4.125266E+05  7.403946E+04  1.047928E+04  1.597755E+05 -3.305241E-09  4.474498E-09
       120  19  3.606999E+05  5.459479E+04 -2.506571E+03  1.455157E+05  1.250596E+02 -4.318793E+02
       120  20  3.502081E+05  4.661091E+04 -6.133709E+03  1.385146E+05  6.303551E+02 -1.004062E+03
       120  21  3.339169E+05  4.452688E+04 -9.560213E+03  1.381614E+05  1.136025E+03 -1.577381E+03
       120  22  3.732251E+05  5.931094E+04  7.521319E+02  1.489577E+05 -2.949737E+02 -5.904068E+02
       120  23  3.761228E+05  5.634719E+04  5.058064E+02  1.456390E+05  2.096222E+02 -1.162841E+03
       120  24  3.732209E+05  5.928310E+04  4.595787E+02  1.489681E+05  7.145996E+02 -1.736412E+03
       120  25  3.857503E+05  6.402707E+04  4.010809E+03  1.523998E+05 -7.150149E+02 -7.489373E+02
       120  26  4.020382E+05  6.608350E+04  7.145267E+03  1.527637E+05 -2.111300E+02 -1.321628E+03
       120  27  4.125266E+05  7.403947E+04  1.047928E+04  1.597755E+05  2.931439E+02 -1.895454E+03
       121   1  3.195078E+05  3.911826E+04 -1.331238E+04  1.342342E+05 -1.362971E+03  1.937201E+03
       121   2  3.089617E+05  3.112317E+04 -1.649932E+04  1.271889E+05 -1.968210E+03  2.475114E+03
       121   3  2.926181E+05  2.908128E+04 -1.940404E+04  1.268212E+05 -2.573571E+03  3.013687E+03
       121   4  3.732199E+05  5.928759E+04  4.952729E+02  1.489773E+05 -9.409166E+02  2.096457E+03
       121   5  3.761219E+05  5.633409E+04  7.039666E+02  1.456298E+05 -1.545800E+03  2.634474E+03
       121   6  3.732260E+05  5.933364E+04  1.194575E+03  1.489598E+05 -2.150813E+03  3.173149E+03
       121   7  4.269348E+05  7.945710E+04  1.430269E+04  1.637217E+05 -5.188226E+02  2.255727E+03
       121   8  4.432863E+05  8.154526E+04  1.790685E+04  1.640725E+05 -1.123341E+03  2.793852E+03
       121   9  4.538400E+05  8.958631E+04  2.179258E+04  1.711009E+05 -1.727997E+03  3.332632E+03
       121  10  3.195078E+05  3.911825E+04 -1.331239E+04  1.342342E+05  3.093635E-10  8.900519E-10
       121  11  3.089617E+05  3.112316E+04 -1.649934E+04  1.271889E+05 -7.566577E-09 -3.151943E-09
       121  12  2.926180E+05  2.908127E+04 -1.940407E+04  1.268212E+05 -6.700647E-09 -1.828384E-09
       121  13  3.732199E+05  5.928758E+04  4.952630E+02  1.489774E+05  1.986289E-09 -2.435270E-09
       121  14  3.761219E+05  5.633408E+04  7.039491E+02  1.456298E+05 -2.271588E-09 -8.200575E-09
       121  15  3.732260E+05  5.933363E+04  1.194547E+03  1.489598E+05 -3.850865E-09 -1.030122E-08
       121  16  4.269348E+05  7.945709E+04  1.430268E+04  1.637217E+05  8.921159E-10  1.357868E-09
       121  17  4.432863E+05  8.154525E+04  1.790684E+04  1.640725E+05  5.325871E-09 -3.586647E-10
       121  18  4.538400E+05  8.958630E+04  2.179255E+04  1.711009E+05  5.320902E-09 -5.154417E-09
       121  19  3.195078E+05  3.911826E+04 -1.331238E+04  1.342342E+05  1.362971E+03 -1.937201E+03
       121  20  3.089617E+05  3.112317E+04 -1.649932E+04  1.271889E+05  1.968210E+03 -2.475114E+03
       121  21  2.926181E+05  2.908128E+04 -1.940404E+04  1.268212E+05  2.573571E+03 -3.013687E+03
       121  22  3.732199E+05  5.928759E+04  4.952729E+02  1.489773E+05  9.409166E+02 -2.096457E+03
       121  23  3.761219E+05  5.633409E+04  7.039666E+02  1.456298E+05  1.545800E+03 -2.634474E+03
       121  24  3.732260E+05  5.933364E+04  1.194575E+03  1.489598E+05  2.150813E+03 -3.173149E+03
       121  25  4.269348E+05  7.945710E+04  1.430269E+04  1.637217E+05  5.188226E+02 -2.255727E+03
       121  26  4.432863E+05  8.154526E+04  1.790685E+04  1.640725E+05  1.123341E+03 -2.793852E+03
       121  27  4.538400E+05  8.958631E+04  2.179258E+04  1.711009E+05  1.727997E+03 -3.332632E+03
       122   1  2.780865E+05  2.364376E+04 -2.285739E+04  1.230108E+05 -2.954798E+03  3.320696E+03
       122   2  2.673761E+05  1.543520E+04 -2.508704E+04  1.157650E+05 -4.584384E+03  3.476421E+03
       122   3  2.512263E+05  1.394919E+04 -2.607928E+04  1.151124E+05 -6.208011E+03  3.616803E+03
       122   4  3.732721E+05  5.927193E+04  1.553596E+03  1.490286E+05 -2.525512E+03  3.482595E+03
       122   5  3.760364E+05  5.623386E+04  2.749220E+03  1.456095E+05 -4.165014E+03  3.634533E+03
       122   6  3.733632E+05  5.992026E+04  5.190025E+03  1.487836E+05 -5.798589E+03  3.771117E+03
       122   7  4.684669E+05  9.490082E+04  2.596394E+04  1.750502E+05 -2.096151E+03  3.644523E+03
       122   8  4.847084E+05  9.703337E+04  3.058457E+04  1.754588E+05 -3.745564E+03  3.792676E+03
       122   9  4.955146E+05  1.058923E+05  3.645812E+04  1.824608E+05 -5.389078E+03  3.925464E+03
       122  10  2.780865E+05  2.364374E+04 -2.285743E+04  1.230108E+05  2.869727E-09  7.059190E-10
       122  11  2.673761E+05  1.543519E+04 -2.508710E+04  1.157650E+05  5.270305E-09  3.061116E-09
       122  12  2.512263E+05  1.394916E+04 -2.607938E+04  1.151125E+05 -6.789492E-09 -2.922648E-09
       122  13  3.732721E+05  5.927192E+04  1.553561E+03  1.490286E+05 -7.164157E-10 -1.247358E-09
       122  14  3.760364E+05  5.623384E+04  2.749162E+03  1.456095E+05  8.116024E-10 -8.486427E-10
       122  15  3.733632E+05  5.992023E+04  5.189935E+03  1.487836E+05 -4.095446E-09 -4.404673E-09
       122  16  4.684668E+05  9.490080E+04  2.596390E+04  1.750502E+05 -2.466676E-09  7.384719E-12
       122  17  4.847083E+05  9.703335E+04  3.058452E+04  1.754588E+05  1.086506E-09  6.227270E-09
       122  18  4.955146E+05  1.058923E+05  3.645803E+04  1.824608E+05  1.995959E-09  3.487034E-10
       122  19  2.780865E+05  2.364376E+04 -2.285739E+04  1.230108E+05  2.954798E+03 -3.320696E+03
       122  20  2.673761E+05  1.543520E+04 -2.508704E+04  1.157650E+05  4.584384E+03 -3.476421E+03
       122  21  2.512263E+05  1.394919E+04 -2.607928E+04  1.151124E+05  6.208011E+03 -3.616803E+03
       122  22  3.732721E+05  5.927193E+04  1.553596E+03  1.490286E+05  2.525512E+03 -3.482595E+03
       122  23  3.760364E+05  5.623386E+04  2.749220E+03  1.456095E+05  4.165014E+03 -3.634533E+03
       122  24  3.733632E+05  5.992026E+04  5.190025E+03  1.487836E+05  5.798589E+03 -3.771117E+03
       122  25  4.684669E+05  9.490082E+04  2.596394E+04  1.750502E+05  2.096151E+03 -3.644523E+03
       122  26  4.847084E+05  9.703337E+04  3.058457E+04  1.754588E+05  3.745564E+03 -3.792676E+03
       122  27  4.955146E+05  1.058923E+05  3.645812E+04  1.824608E+05  5.389078E+03 -3.925464E+03
       123   1  2.360326E+05  8.473227E+03 -2.837066E+04  1.128096E+05 -7.427069E+03  3.656173E+03
       123   2  2.250974E+05 -1.606373E+03 -2.668333E+04  1.037218E+05 -1.359768E+04  2.075258E+03
       123   3  2.123084E+05  3.240142E+03 -1.815596E+04  9.933505E+04 -1.965150E+04  1.853772E+02
       123   4  3.737756E+05  5.899435E+04  6.732775E+03  1.494021E+05 -6.919622E+03  3.847426E+03
       123   5  3.752318E+05  5.538442E+04  1.189869E+04  1.455914E+05 -1.328620E+04  2.192531E+03
       123   6  3.748720E+05  6.673772E+04  2.405860E+04  1.464816E+05 -1.953617E+04  2.286088E+02
       123   7  5.115366E+05  1.095163E+05  4.183454E+04  1.860017E+05 -6.412053E+03  4.038723E+03
       123   8  5.253882E+05  1.123768E+05  5.047886E+04  1.874702E+05 -1.297465E+04  2.309837E+03
       123   9  5.374620E+05  1.302378E+05  6.627110E+04  1.936397E+05 -1.942080E+04  2.718545E+02
       123  10  2.360326E+05  8.473198E+03 -2.837079E+04  1.128096E+05 -2.481325E-09 -2.091908E-09
       123  11  2.250972E+05 -1.606427E+03 -2.668368E+04  1.037218E+05 -9.811215E-10  4.487583E-09
       123  12  2.123079E+05  3.240038E+03 -1.815668E+04  9.933506E+04 -2.381953E-09 -2.672512E-10
       123  13  3.737756E+05  5.899432E+04  6.732657E+03  1.494021E+05 -3.740541E-09 -9.267201E-09
       123  14  3.752316E+05  5.538437E+04  1.189835E+04  1.455915E+05 -1.444309E-09  2.335946E-09
       123  15  3.748716E+05  6.673762E+04  2.405788E+04  1.464816E+05 -1.388488E-09  4.831768E-10
       123  16  5.115365E+05  1.095163E+05  4.183443E+04  1.860017E+05 -4.180080E-09 -2.557143E-09
       123  17  5.253880E+05  1.123768E+05  5.047853E+04  1.874703E+05 -8.499585E-11  2.054472E-09
       123  18  5.374616E+05  1.302377E+05  6.627039E+04  1.936397E+05  9.244760E-10  8.371830E-10
       123  19  2.360326E+05  8.473227E+03 -2.837066E+04  1.128096E+05  7.427069E+03 -3.656173E+03
       123  20  2.250974E+05 -1.606373E+03 -2.668333E+04  1.037218E+05  1.359768E+04 -2.075258E+03
       123  21  2.123084E+05  3.240142E+03 -1.815596E+04  9.933505E+04  1.965150E+04 -1.853772E+02
       123  22  3.737756E+05  5.899435E+04  6.732775E+03  1.494021E+05  6.919622E+03 -3.847426E+03
       123  23  3.752318E+05  5.538442E+04  1.189869E+04  1.455914E+05  1.328620E+04 -2.192531E+03
       123  24  3.748720E+05  6.673772E+04  2.405860E+04  1.464816E+05  1.953617E+04 -2.286088E+02
       123  25  5.115366E+05  1.095163E+05  4.183454E+04  1.860017E+05  6.412053E+03 -4.038723E+03
       123  26  5.253882E+05  1.123768E+05  5.047886E+04  1.874702E+05  1.297465E+04 -2.309837E+03
       123  27  5.374620E+05  1.302378E+05  6.627110E+04  1.936397E+05  1.942080E+04 -2.718545E+02
       124   1  1.902829E+05 -2.528350E+03 -1.595081E+04  1.143215E+05 -2.582245E+04 -8.762378E+02
       124   2  1.814522E+05 -3.306752E+04  1.079718E+03  8.469021E+04 -4.990683E+04 -9.787286E+03
       124   3  2.077192E+05  4.292902E+04  6.357773E+04  3.571837E+04 -7.193771E+04 -2.414823E+04
       124   4  3.787290E+05  5.554754E+04  2.985792E+04  1.530780E+05 -2.402182E+04 -1.972997E+02
       124   5  3.671763E+05  4.663009E+04  5.060619E+04  1.459137E+05 -5.154518E+04 -1.040564E+04
       124   6  3.913882E+05  1.449077E+05  1.195357E+05  1.194127E+05 -7.701525E+04 -2.606516E+04
       124   7  5.672103E+05  1.136234E+05  7.566426E+04  1.918439E+05 -2.222058E+04  4.817740E+02
       124   8  5.529332E+05  1.263326E+05  1.001294E+05  2.071544E+05 -5.318406E+04 -1.102426E+04
       124   9  5.750901E+05  2.469008E+05  1.754898E+05  2.031321E+05 -8.209435E+04 -2.798335E+04
       124  10  1.902822E+05 -2.528530E+03 -1.595207E+04  1.143215E+05  5.441370E-09  3.381023E-09
       124  11  1.814495E+05 -3.306829E+04  1.074859E+03  8.468982E+04  4.549448E-09  1.275959E-09
       124  12  2.077135E+05  4.292701E+04  6.356692E+04  3.571698E+04 -3.622877E-09 -1.778781E-09
       124  13  3.787284E+05  5.554739E+04  2.985684E+04  1.530780E+05  1.217098E-09  1.916199E-09
       124  14  3.671734E+05  4.662926E+04  5.060100E+04  1.459132E+05  2.229615E-09 -6.860518E-09
       124  15  3.913816E+05  1.449054E+05  1.195232E+05  1.194111E+05 -6.971975E-10  2.454902E-09
       124  16  5.672098E+05  1.136233E+05  7.566334E+04  1.918439E+05 -8.428799E-09  1.750205E-09
       124  17  5.529301E+05  1.263317E+05  1.001238E+05  2.071539E+05 -5.527188E-09 -5.676675E-09
       124  18  5.750827E+05  2.468982E+05  1.754756E+05  2.031303E+05  4.946307E-09  2.066052E-09
       124  19  1.902829E+05 -2.528350E+03 -1.595081E+04  1.143215E+05  2.582245E+04  8.762378E+02
       124  20  1.814522E+05 -3.306752E+04  1.079718E+03  8.469021E+04  4.990683E+04  9.787286E+03
       124  21  2.077192E+05  4.292902E+04  6.357773E+04  3.571837E+04  7.193771E+04  2.414823E+04
       124  22  3.787290E+05  5.554754E+04  2.985792E+04  1.530780E+05  2.402182E+04  1.972997E+02
       124  23  3.671763E+05  4.663009E+04  5.060619E+04  1.459137E+05  5.154518E+04  1.040564E+04
       124  24  3.913882E+05  1.449077E+05  1.195357E+05  1.194127E+05  7.701525E+04  2.606516E+04
       124  25  5.672103E+05  1.136234E+05  7.566426E+04  1.918439E+05  2.222058E+04 -4.817740E+02
       124  26  5.529332E+05  1.263326E+05  1.001294E+05  2.071544E+05  5.318406E+04  1.102426E+04
       124  27  5.750901E+05  2.469008E+05  1.754898E+05  2.031321E+05  8.209435E+04  2.798335E+04
       125   1 -2.204571E+02 -4.816768E+05 -2.256082E+03 -1.401729E+02 -4.987781E+01  1.635098E+02
       125   2 -5.473894E+02 -4.831350E+05 -3.103896E+03  2.682278E+02 -9.737549E+01  1.405497E+03
       125   3 -1.423871E+03 -4.848957E+05 -4.898864E+03 -2.947650E+02 -1.685245E+02  2.647467E+03
       125   4 -6.582875E+00 -4.808067E+05 -2.058552E+03 -2.157042E+02 -4.990719E+01  1.846828E+02
       125   5  6.535500E+01 -4.806543E+05 -2.522157E+03  2.697094E+02 -9.742522E+01  1.441424E+03
       125   6 -4.148114E+02 -4.808070E+05 -3.943157E+03 -2.162693E+02 -1.685942E+02  2.698150E+03
       125   7  2.072913E+02 -4.799366E+05 -1.861022E+03 -2.912356E+02 -4.993657E+01  2.058558E+02
       125   8  6.780990E+02 -4.781736E+05 -1.940419E+03  2.711910E+02 -9.747496E+01  1.477351E+03
       125   9  5.942474E+02 -4.767183E+05 -2.987452E+03 -1.377731E+02 -1.686639E+02  2.748835E+03
       125  10 -2.204571E+02 -4.816768E+05 -2.256082E+03 -1.401729E+02  1.440973E-09 -1.431163E-09
       125  11 -5.473900E+02 -4.831350E+05 -3.103900E+03  2.682279E+02 -2.103681E-10  4.309588E-09
       125  12 -1.423873E+03 -4.848957E+05 -4.898877E+03 -2.947646E+02  2.319114E-09  3.452582E-09
       125  13 -6.582887E+00 -4.808067E+05 -2.058552E+03 -2.157042E+02  2.232576E-09 -2.945335E-09
       125  14  6.535444E+01 -4.806543E+05 -2.522161E+03  2.697095E+02  2.046703E-09 -4.205386E-09
       125  15 -4.148134E+02 -4.808070E+05 -3.943171E+03 -2.162689E+02  1.554115E-09 -2.974193E-09
       125  16  2.072913E+02 -4.799366E+05 -1.861023E+03 -2.912356E+02  5.707699E-09  8.040711E-10
       125  17  6.780984E+02 -4.781736E+05 -1.940423E+03  2.711911E+02  1.995883E-09 -1.090791E-09
       125  18  5.942453E+02 -4.767183E+05 -2.987467E+03 -1.377727E+02  1.421558E-09 -1.099800E-09
       125  19 -2.204571E+02 -4.816768E+05 -2.256082E+03 -1.401729E+02  4.987781E+01 -1.635098E+02
       125  20 -5.473894E+02 -4.831350E+05 -3.103896E+03  2.682278E+02  9.737549E+01 -1.405497E+03
       125  21 -1.423871E+03 -4.848957E+05 -4.898864E+03 -2.947650E+02  1.685245E+02 -2.647467E+03
       125  22 -6.582875E+00 -4.808067E+05 -2.058552E+03 -2.157042E+02  4.990719E+01 -1.846828E+02
       125  23  6.535500E+01 -4.806543E+05 -2.522157E+03  2.697094E+02  9.742522E+01 -1.441424E+03
       125  24 -4.148114E+02 -4.808070E+05 -3.943157E+03 -2.162693E+02  1.685942E+02 -2.698150E+03
       125  25  2.072913E+02 -4.799366E+05 -1.861022E+03 -2.912356E+02  4.993657E+01 -2.058558E+02
       125  26  6.780990E+02 -4.781736E+05 -1.940419E+03  2.711910E+02  9.747496E+01 -1.477351E+03
       125  27  5.942474E+02 -4.767183E+05 -2.987452E+03 -1.377731E+02  1.686639E+02 -2.748835E+03
       126   1 -1.169809E+03 -4.870052E+05 -6.299377E+03  5.711141E+02 -2.179186E+02  3.431162E+03
       126   2 -1.281934E+03 -4.876181E+05 -9.888517E+03 -1.253645E+02 -2.930508E+02  7.583315E+03
       126   3 -7.160880E+03 -4.902173E+05 -1.762482E+04 -1.793911E+03 -3.496797E+02  1.173547E+04
       126   4  2.726770E+02 -4.811799E+05 -4.928332E+03 -2.138748E+02 -2.179907E+02  3.480231E+03
       126   5  5.520657E+02 -4.801888E+05 -8.145253E+03  2.685757E+02 -2.930975E+02  7.620881E+03
       126   6 -4.933331E+03 -4.811819E+05 -1.550130E+04 -2.210427E+02 -3.496853E+02  1.176154E+04
       126   7  1.715163E+03 -4.753546E+05 -3.557288E+03 -9.988710E+02 -2.180628E+02  3.529301E+03
       126   8  2.386062E+03 -4.727594E+05 -6.401992E+03  6.625207E+02 -2.931441E+02  7.658447E+03
       126   9 -2.705778E+03 -4.721465E+05 -1.337779E+04  1.351849E+03 -3.496908E+02  1.178761E+04
       126  10 -1.169812E+03 -4.870052E+05 -6.299400E+03  5.711147E+02  1.566974E-10 -8.366267E-10
       126  11 -1.281950E+03 -4.876182E+05 -9.888626E+03 -1.253627E+02  3.364615E-09  3.278648E-09
       126  12 -7.160917E+03 -4.902175E+05 -1.762508E+04 -1.793908E+03  3.781349E-10  1.703354E-09
       126  13  2.726737E+02 -4.811800E+05 -4.928355E+03 -2.138741E+02 -1.403769E-10 -2.991937E-09
       126  14  5.520500E+02 -4.801888E+05 -8.145362E+03  2.685775E+02 -2.350854E-09 -2.714055E-09
       126  15 -4.933368E+03 -4.811821E+05 -1.550156E+04 -2.210394E+02 -2.593482E-09 -4.097093E-09
       126  16  1.715160E+03 -4.753546E+05 -3.557312E+03 -9.988704E+02  2.868974E-10  1.224683E-09
       126  17  2.386046E+03 -4.727595E+05 -6.402102E+03  6.625226E+02  2.003178E-10 -2.064801E-09
       126  18 -2.705816E+03 -4.721466E+05 -1.337805E+04  1.351852E+03  5.521820E-10  8.354606E-11
       126  19 -1.169809E+03 -4.870052E+05 -6.299377E+03  5.711141E+02  2.179186E+02 -3.431162E+03
       126  20 -1.281934E+03 -4.876181E+05 -9.888517E+03 -1.253645E+02  2.930508E+02 -7.583315E+03
       126  21 -7.160880E+03 -4.902173E+05 -1.762482E+04 -1.793911E+03  3.496797E+02 -1.173547E+04
       126  22  2.726770E+02 -4.811799E+05 -4.928332E+03 -2.138748E+02  2.179907E+02 -3.480231E+03
       126  23  5.520657E+02 -4.801888E+05 -8.145253E+03  2.685757E+02  2.930975E+02 -7.620881E+03
       126  24 -4.933331E+03 -4.811819E+05 -1.550130E+04 -2.210427E+02  3.496853E+02 -1.176154E+04
       126  25  1.715163E+03 -4.753546E+05 -3.557288E+03 -9.988710E+02  2.180628E+02 -3.529301E+03
       126  26  2.386062E+03 -4.727594E+05 -6.401992E+03  6.625207E+02  2.931441E+02 -7.658447E+03
       126  27 -2.705778E+03 -4.721465E+05 -1.337779E+04  1.351849E+03  3.496908E+02 -1.178761E+04
       127   1  4.009823E+02 -4.955664E+05 -2.162289E+04  7.906516E+03 -4.400272E+02  1.451759E+04
       127   2  2.756991E+03 -4.879851E+05 -3.399803E+04 -6.121114E+03 -5.014403E+02  3.142370E+04
       127   3 -5.979694E+04 -4.988405E+05 -7.361360E+04 -2.115914E+04 -2.205616E+02  4.833004E+04
       127   4  3.080915E+03 -4.848268E+05 -1.910166E+04 -2.007646E+02 -4.403956E+02  1.464827E+04
       127   5  5.787336E+03 -4.756338E+05 -3.109901E+04  2.641498E+02 -5.010021E+02  3.134071E+04
       127   6 -5.637916E+04 -4.848405E+05 -7.018806E+04 -2.818242E+02 -2.185301E+02  4.803345E+04
       127   7  5.761087E+03 -4.740869E+05 -1.658040E+04 -8.308186E+03 -4.407674E+02  1.477895E+04
       127   8  8.817824E+03 -4.632823E+05 -2.819998E+04  6.649542E+03 -5.005657E+02  3.125773E+04
       127   9 -5.295975E+04 -4.708394E+05 -6.676231E+04  2.059596E+04 -2.165186E+02  4.773685E+04
       127  10  4.009255E+02 -4.955667E+05 -2.162328E+04  7.906521E+03 -8.090120E-10 -7.966026E-09
       127  11  2.756725E+03 -4.879862E+05 -3.399989E+04 -6.121102E+03  1.003597E-10  4.033343E-09
       127  12 -5.979757E+04 -4.988430E+05 -7.361799E+04 -2.115913E+04  2.191194E-09  8.911788E-09
       127  13  3.080857E+03 -4.848270E+05 -1.910206E+04 -2.007594E+02  5.476133E-10 -6.153364E-09
       127  14  5.787072E+03 -4.756349E+05 -3.110086E+04  2.641624E+02  2.368646E-09 -4.883889E-09
       127  15 -5.637978E+04 -4.848430E+05 -7.019240E+04 -2.818157E+02 -3.252886E-11 -1.089862E-09
       127  16  5.761028E+03 -4.740871E+05 -1.658081E+04 -8.308181E+03 -3.300952E-10  8.346159E-09
       127  17  8.817561E+03 -4.632834E+05 -2.820182E+04  6.649554E+03  3.125105E-09 -5.110767E-09
       127  18 -5.296037E+04 -4.708419E+05 -6.676659E+04  2.059597E+04  1.358024E-09 -6.498694E-09
       127  19  4.009823E+02 -4.955664E+05 -2.162289E+04  7.906516E+03  4.400272E+02 -1.451759E+04
       127  20  2.756991E+03 -4.879851E+05 -3.399803E+04 -6.121114E+03  5.014403E+02 -3.142370E+04
       127  21 -5.979694E+04 -4.988405E+05 -7.361360E+04 -2.115914E+04  2.205616E+02 -4.833004E+04
       127  22  3.080915E+03 -4.848268E+05 -1.910166E+04 -2.007646E+02  4.403956E+02 -1.464827E+04
       127  23  5.787336E+03 -4.756338E+05 -3.109901E+04  2.641498E+02  5.010021E+02 -3.134071E+04
       127  24 -5.637916E+04 -4.848405E+05 -7.018806E+04 -2.818242E+02  2.185301E+02 -4.803345E+04
       127  25  5.761087E+03 -4.740869E+05 -1.658040E+04 -8.308186E+03  4.407674E+02 -1.477895E+04
       127  26  8.817824E+03 -4.632823E+05 -2.819998E+04  6.649542E+03  5.005657E+02 -3.125773E+04
       127  27 -5.295975E+04 -4.708394E+05 -6.676231E+04  2.059596E+04  2.165186E+02 -4.773685E+04
       128   1 -6.458515E+06 -2.059154E+06 -1.034288E+06 -2.339059E+06 -3.768276E+05 -8.489021E+04
       128   2 -6.275187E+06 -1.785788E+06 -7.479102E+05 -2.271705E+06 -2.487879E+05  1.002190E+05
       128   3 -6.127674E+06 -1.668001E+06 -6.245800E+05 -2.214875E+06 -8.700973E+04  1.972050E+05
       128   4 -3.257825E+06 -7.554755E+05 -1.830278E+05 -1.365856E+06 -1.373459E+05  6.225120E+03
       128   5 -3.242461E+06 -6.199946E+05 -8.410117E+04 -1.387307E+06 -1.385436E+05  1.420140E+05
       128   6 -3.236795E+06 -6.139135E+05 -4.461226E+04 -1.419356E+06 -1.061605E+05  1.898394E+05
       128   7 -4.698846E+04  5.493425E+05  6.675627E+05 -3.878858E+05  1.034994E+05  9.794571E+04
       128   8 -2.002667E+05  5.467539E+05  5.792036E+05 -4.988160E+05 -2.771166E+04  1.840498E+05
       128   9 -3.371727E+05  4.408929E+05  5.349624E+05 -6.203772E+05 -1.254084E+05  1.824382E+05
       128  10 -6.458670E+06 -2.059201E+06 -1.034572E+06 -2.339085E+06 -2.636094E-09 -7.875654E-10
       128  11 -6.275256E+06 -1.785815E+06 -7.480461E+05 -2.271685E+06  8.489967E-10  6.420560E-10
       128  12 -6.127692E+06 -1.668044E+06 -6.246671E+05 -2.214861E+06  5.006239E-09 -3.126931E-10
       128  13 -3.257845E+06 -7.554807E+05 -1.830635E+05 -1.365856E+06  3.086212E-09  8.038482E-10
       128  14 -3.242487E+06 -6.200214E+05 -8.417509E+04 -1.387291E+06 -4.916969E-09  3.672582E-09
       128  15 -3.236817E+06 -6.139551E+05 -4.470101E+04 -1.419340E+06 -1.613704E-09 -2.709710E-10
       128  16 -4.700254E+04  5.493294E+05  6.675246E+05 -3.878939E+05  5.741960E-10  5.015063E-09
       128  17 -2.002766E+05  5.467174E+05  5.791386E+05 -4.988119E+05 -9.457474E-10  9.458827E-10
       128  18 -3.371984E+05  4.408530E+05  5.348705E+05 -6.203588E+05 -5.551284E-09  5.634486E-10
       128  19 -6.458515E+06 -2.059154E+06 -1.034288E+06 -2.339059E+06  3.768276E+05  8.489021E+04
       128  20 -6.275187E+06 -1.785788E+06 -7.479102E+05 -2.271705E+06  2.487879E+05 -1.002190E+05
       128  21 -6.127674E+06 -1.668001E+06 -6.245800E+05 -2.214875E+06  8.700973E+04 -1.972050E+05
       128  22 -3.257825E+06 -7.554755E+05 -1.830278E+05 -1.365856E+06  1.373459E+05 -6.225120E+03
       128  23 -3.242461E+06 -6.199946E+05 -8.410117E+04 -1.387307E+06  1.385436E+05 -1.420140E+05
       128  24 -3.236795E+06 -6.139135E+05 -4.461226E+04 -1.419356E+06  1.061605E+05 -1.898394E+05
       128  25 -4.698846E+04  5.493425E+05  6.675627E+05 -3.878858E+05 -1.034994E+05 -9.794571E+04
       128  26 -2.002667E+05  5.467539E+05  5.792036E+05 -4.988160E+05  2.771166E+04 -1.840498E+05
       128  27 -3.371727E+05  4.408929E+05  5.349624E+05 -6.203772E+05  1.254084E+05 -1.824382E+05
       129   1 -5.977634E+06 -1.633506E+06 -5.855005E+05 -2.186265E+06 -9.451134E+04  1.852960E+05
       129   2 -5.799521E+06 -1.533576E+06 -5.209667E+05 -2.110591E+06 -7.378560E+04  1.867180E+05
       129   3 -5.588178E+06 -1.476646E+06 -4.716937E+05 -2.075595E+06 -5.063036E+04  1.816605E+05
       129   4 -3.230267E+06 -6.189447E+05 -3.399464E+04 -1.416605E+06 -9.806633E+04  1.838541E+05
       129   5 -3.247155E+06 -5.950973E+05 -1.807607E+04 -1.397431E+06 -8.681687E+04  1.817037E+05
       129   6 -3.228947E+06 -6.123294E+05 -9.818330E+03 -1.418938E+06 -7.314987E+04  1.730860E+05
       129   7 -4.750287E+05  3.963077E+05  5.171458E+05 -6.437515E+05 -1.016384E+05  1.824061E+05
       129   8 -6.879851E+05  3.439749E+05  4.845130E+05 -6.815253E+05 -9.990622E+04  1.766677E+05
       129   9 -8.639092E+05  2.524839E+05  4.518024E+05 -7.599487E+05 -9.576191E+04  1.644768E+05
       129  10 -5.977652E+06 -1.633545E+06 -5.855816E+05 -2.186251E+06  9.467799E-11 -1.815173E-09
       129  11 -5.799536E+06 -1.533615E+06 -5.210423E+05 -2.110580E+06  6.668596E-10 -6.096888E-10
       129  12 -5.588189E+06 -1.476682E+06 -4.717604E+05 -2.075587E+06  8.788304E-10  7.530224E-10
       129  13 -3.230286E+06 -6.189835E+05 -3.407609E+04 -1.416591E+06 -3.235636E-09  1.170888E-10
       129  14 -3.247172E+06 -5.951347E+05 -1.815214E+04 -1.397419E+06  1.377817E-09 -9.740838E-10
       129  15 -3.228961E+06 -6.123629E+05 -9.884562E+03 -1.418928E+06 -4.312908E-10 -1.034137E-09
       129  16 -4.750487E+05  3.962693E+05  5.170640E+05 -6.437366E+05 -2.650577E-09  3.919153E-09
       129  17 -6.880041E+05  3.439387E+05  4.844358E+05 -6.815111E+05 -9.124627E-10 -1.149235E-09
       129  18 -8.639263E+05  2.524524E+05  4.517345E+05 -7.599360E+05 -1.704348E-09  7.311803E-11
       129  19 -5.977634E+06 -1.633506E+06 -5.855005E+05 -2.186265E+06  9.451134E+04 -1.852960E+05
       129  20 -5.799521E+06 -1.533576E+06 -5.209667E+05 -2.110591E+06  7.378560E+04 -1.867180E+05
       129  21 -5.588178E+06 -1.476646E+06 -4.716937E+05 -2.075595E+06  5.063036E+04 -1.816605E+05
       129  22 -3.230267E+06 -6.189447E+05 -3.399464E+04 -1.416605E+06  9.806633E+04 -1.838541E+05
       129  23 -3.247155E+06 -5.950973E+05 -1.807607E+04 -1.397431E+06  8.681687E+04 -1.817037E+05
       129  24 -3.228947E+06 -6.123294E+05 -9.818330E+03 -1.418938E+06  7.314987E+04 -1.730860E+05
       129  25 -4.750287E+05  3.963077E+05  5.171458E+05 -6.437515E+05  1.016384E+05 -1.824061E+05
       129  26 -6.879851E+05  3.439749E+05  4.845130E+05 -6.815253E+05  9.990622E+04 -1.766677E+05
       129  27 -8.639092E+05  2.524839E+05  4.518024E+05 -7.599487E+05  9.576191E+04 -1.644768E+05
       130   1 -5.453110E+06 -1.427712E+06 -4.418364E+05 -2.038648E+06 -4.679387E+04  1.728555E+05
       130   2 -5.270921E+06 -1.333794E+06 -3.989527E+05 -1.960504E+06 -3.819385E+04  1.590056E+05
       130   3 -5.050410E+06 -1.278186E+06 -3.581442E+05 -1.925588E+06 -2.940073E+04  1.445607E+05
       130   4 -3.228226E+06 -6.126553E+05 -7.414372E+03 -1.419083E+06 -6.837588E+04  1.646502E+05
       130   5 -3.247238E+06 -5.931520E+05 -4.154607E+03 -1.397565E+06 -6.064009E+04  1.504975E+05
       130   6 -3.227810E+06 -6.117836E+05 -2.283884E+03 -1.419282E+06 -5.271264E+04  1.357505E+05
       130   7 -9.981374E+05  2.028601E+05  4.267938E+05 -7.974303E+05 -9.004184E+04  1.564135E+05
       130   8 -1.219256E+06  1.478651E+05  3.904655E+05 -8.329028E+05 -8.316561E+04  1.419597E+05
       130   9 -1.401732E+06  5.491879E+04  3.534303E+05 -9.115835E+05 -7.609859E+04  1.269126E+05
       130  10 -5.453120E+06 -1.427745E+06 -4.418966E+05 -2.038642E+06 -3.427171E-09  9.470892E-10
       130  11 -5.270929E+06 -1.333821E+06 -3.990029E+05 -1.960499E+06 -9.350155E-10  4.079751E-10
       130  12 -5.050417E+06 -1.278209E+06 -3.581851E+05 -1.925584E+06  1.737709E-09  2.250472E-10
       130  13 -3.228238E+06 -6.126856E+05 -7.473993E+03 -1.419074E+06 -5.369698E-10 -1.251256E-10
       130  14 -3.247248E+06 -5.931773E+05 -4.203990E+03 -1.397557E+06 -2.081583E-09  2.153587E-10
       130  15 -3.227818E+06 -6.118041E+05 -2.323663E+03 -1.419276E+06 -2.649394E-10 -3.465987E-10
       130  16 -9.981526E+05  2.028317E+05  4.267326E+05 -7.974190E+05  2.305912E-09 -2.479911E-10
       130  17 -1.219269E+06  1.478416E+05  3.904147E+05 -8.328933E+05  9.680844E-10 -8.708186E-10
       130  18 -1.401742E+06  5.489998E+04  3.533892E+05 -9.115757E+05 -9.149106E-10 -2.275565E-10
       130  19 -5.453110E+06 -1.427712E+06 -4.418364E+05 -2.038648E+06  4.679387E+04 -1.728555E+05
       130  20 -5.270921E+06 -1.333794E+06 -3.989527E+05 -1.960504E+06  3.819385E+04 -1.590056E+05
       130  21 -5.050410E+06 -1.278186E+06 -3.581442E+05 -1.925588E+06  2.940073E+04 -1.445607E+05
       130  22 -3.228226E+06 -6.126553E+05 -7.414372E+03 -1.419083E+06  6.837588E+04 -1.646502E+05
       130  23 -3.247238E+06 -5.931520E+05 -4.154607E+03 -1.397565E+06  6.064009E+04 -1.504975E+05
       130  24 -3.227810E+06 -6.117836E+05 -2.283884E+03 -1.419282E+06  5.271264E+04 -1.357505E+05
       130  25 -9.981374E+05  2.028601E+05  4.267938E+05 -7.974303E+05  9.004184E+04 -1.564135E+05
       130  26 -1.219256E+06  1.478651E+05  3.904655E+05 -8.329028E+05  8.316561E+04 -1.419597E+05
       130  27 -1.401732E+06  5.491879E+04  3.534303E+05 -9.115835E+05  7.609859E+04 -1.269126E+05
       131   1 -4.912978E+06 -1.227651E+06 -3.296586E+05 -1.887568E+06 -2.550514E+04  1.354647E+05
       131   2 -4.726558E+06 -1.132509E+06 -2.893319E+05 -1.807969E+06 -1.872571E+04  1.198094E+05
       131   3 -4.500997E+06 -1.076149E+06 -2.494752E+05 -1.772670E+06 -1.191908E+04  1.040168E+05
       131   4 -3.227541E+06 -6.118482E+05 -1.775269E+03 -1.419501E+06 -4.888953E+04  1.266397E+05
       131   5 -3.246965E+06 -5.922008E+05 -1.152645E+03 -1.397404E+06 -4.230894E+04  1.109275E+05
       131   6 -3.227258E+06 -6.112967E+05 -8.463382E+02 -1.419618E+06 -3.570146E+04  9.507801E+04
       131   7 -1.539144E+06  4.205540E+03  3.259806E+05 -9.502489E+05 -7.234234E+04  1.177892E+05
       131   8 -1.765081E+06 -5.169582E+04  2.869317E+05 -9.859232E+05 -6.595287E+04  1.020228E+05
       131   9 -1.951810E+06 -1.462944E+05  2.477154E+05 -1.065886E+06 -5.953672E+04  8.611940E+04
       131  10 -4.912983E+06 -1.227671E+06 -3.296942E+05 -1.887565E+06 -7.904129E-11 -8.118960E-10
       131  11 -4.726563E+06 -1.132524E+06 -2.893595E+05 -1.807967E+06 -2.730567E-09  7.461084E-10
       131  12 -4.501000E+06 -1.076161E+06 -2.494958E+05 -1.772669E+06 -1.965981E-09  8.556053E-10
       131  13 -3.227548E+06 -6.118660E+05 -1.809836E+03 -1.419496E+06  2.110764E-10 -2.492834E-10
       131  14 -3.246971E+06 -5.922145E+05 -1.179084E+03 -1.397400E+06 -3.674621E-11  6.947287E-10
       131  15 -3.227261E+06 -6.113067E+05 -8.656860E+02 -1.419616E+06 -2.337929E-10  1.199414E-09
       131  16 -1.539153E+06  4.189270E+03  3.259447E+05 -9.502420E+05  2.839093E-10 -6.285427E-10
       131  17 -1.765088E+06 -5.170813E+04  2.869040E+05 -9.859178E+05 -8.862598E-12  1.242446E-09
       131  18 -1.951816E+06 -1.463033E+05  2.476948E+05 -1.065882E+06  2.620512E-09  9.888411E-10
       131  19 -4.912978E+06 -1.227651E+06 -3.296586E+05 -1.887568E+06  2.550514E+04 -1.354647E+05
       131  20 -4.726558E+06 -1.132509E+06 -2.893319E+05 -1.807969E+06  1.872571E+04 -1.198094E+05
       131  21 -4.500997E+06 -1.076149E+06 -2.494752E+05 -1.772670E+06  1.191908E+04 -1.040168E+05
       131  22 -3.227541E+06 -6.118482E+05 -1.775269E+03 -1.419501E+06  4.888953E+04 -1.266397E+05
       131  23 -3.246965E+06 -5.922008E+05 -1.152645E+03 -1.397404E+06  4.230894E+04 -1.109275E+05
       131  24 -3.227258E+06 -6.112967E+05 -8.463382E+02 -1.419618E+06  3.570146E+04 -9.507801E+04
       131  25 -1.539144E+06  4.205540E+03  3.259806E+05 -9.502489E+05  7.234234E+04 -1.177892E+05
       131  26 -1.765081E+06 -5.169582E+04  2.869317E+05 -9.859232E+05  6.595287E+04 -1.020228E+05
       131  27 -1.951810E+06 -1.462944E+05  2.477154E+05 -1.065886E+06  5.953672E+04 -8.611940E+04
       132   1 -4.361057E+06 -1.024853E+06 -2.210279E+05 -1.734075E+06 -8.141563E+03  9.469021E+04
       132   2 -4.171553E+06 -9.287256E+05 -1.810770E+05 -1.653531E+06 -1.420929E+03  7.869302E+04
       132   3 -3.942611E+06 -8.719069E+05 -1.415520E+05 -1.618024E+06  5.306196E+03  6.263698E+04
       132   4 -3.227110E+06 -6.113308E+05 -8.545190E+02 -1.419783E+06 -3.202626E+04  8.572173E+04
       132   5 -3.246719E+06 -5.914932E+05 -1.091334E+03 -1.397300E+06 -2.539188E+04  6.970346E+04
       132   6 -3.226922E+06 -6.109481E+05 -1.689176E+03 -1.419868E+06 -1.875127E+04  5.362639E+04
       132   7 -2.091817E+06 -1.976929E+05  2.192646E+05 -1.104954E+06 -5.595802E+04  7.673562E+04
       132   8 -2.320993E+06 -2.541856E+05  1.788577E+05 -1.140713E+06 -4.940122E+04  6.069951E+04
       132   9 -2.510704E+06 -3.499458E+05  1.381514E+05 -1.221500E+06 -4.283844E+04  4.460467E+04
       132  10 -4.361060E+06 -1.024863E+06 -2.210449E+05 -1.734075E+06  3.394354E-09  2.088716E-09
       132  11 -4.171555E+06 -9.287322E+05 -1.810887E+05 -1.653531E+06 -8.676401E-10 -1.581911E-09
       132  12 -3.942612E+06 -8.719111E+05 -1.415595E+05 -1.618025E+06 -1.542105E-08 -7.670255E-09
       132  13 -3.227113E+06 -6.113390E+05 -8.702268E+02 -1.419781E+06  1.666680E-09  1.096728E-09
       132  14 -3.246721E+06 -5.914986E+05 -1.101657E+03 -1.397299E+06  6.857195E-09  1.670376E-09
       132  15 -3.226923E+06 -6.109513E+05 -1.695230E+03 -1.419867E+06  1.111647E-09  4.384526E-10
       132  16 -2.091822E+06 -1.977001E+05  2.192476E+05 -1.104951E+06  3.831201E-09  1.556025E-09
       132  17 -2.320997E+06 -2.541902E+05  1.788462E+05 -1.140711E+06  1.531882E-08  6.246628E-09
       132  18 -2.510706E+06 -3.499484E+05  1.381442E+05 -1.221498E+06  1.337394E-08  4.762655E-09
       132  19 -4.361057E+06 -1.024853E+06 -2.210279E+05 -1.734075E+06  8.141563E+03 -9.469021E+04
       132  20 -4.171553E+06 -9.287256E+05 -1.810770E+05 -1.653531E+06  1.420929E+03 -7.869302E+04
       132  21 -3.942611E+06 -8.719069E+05 -1.415520E+05 -1.618024E+06 -5.306196E+03 -6.263698E+04
       132  22 -3.227110E+06 -6.113308E+05 -8.545190E+02 -1.419783E+06  3.202626E+04 -8.572173E+04
       132  23 -3.246719E+06 -5.914932E+05 -1.091334E+03 -1.397300E+06  2.539188E+04 -6.970346E+04
       132  24 -3.226922E+06 -6.109481E+05 -1.689176E+03 -1.419868E+06  1.875127E+04 -5.362639E+04
       132  25 -2.091817E+06 -1.976929E+05  2.192646E+05 -1.104954E+06  5.595802E+04 -7.673562E+04
       132  26 -2.320993E+06 -2.541856E+05  1.788577E+05 -1.140713E+06  4.940122E+04 -6.069951E+04
       132  27 -2.510704E+06 -3.499458E+05  1.381514E+05 -1.221500E+06  4.283844E+04 -4.460467E+04
       133   1 -3.801030E+06 -8.201545E+05 -1.132983E+05 -1.579082E+06  9.273320E+03  5.327016E+04
       133   2 -3.609698E+06 -7.235351E+05 -7.447585E+04 -1.498005E+06  1.715925E+04  3.762982E+04
       133   3 -3.378994E+06 -6.666786E+05 -3.701560E+04 -1.462380E+06  2.499671E+04  2.210414E+04
       133   4 -3.226899E+06 -6.109594E+05 -2.204642E+03 -1.419984E+06 -1.486737E+04  4.423314E+04
       133   5 -3.246514E+06 -5.910388E+05 -3.908969E+03 -1.397245E+06 -6.814471E+03  2.865961E+04
       133   6 -3.226843E+06 -6.109201E+05 -7.112539E+03 -1.419977E+06  1.189293E+03  1.320057E+04
       133   7 -2.652418E+06 -4.017323E+05  1.088786E+05 -1.260747E+06 -3.903231E+04  3.518703E+04
       133   8 -2.883189E+06 -4.585296E+05  6.665503E+04 -1.296430E+06 -3.080340E+04  1.968369E+04
       133   9 -3.074667E+06 -5.551589E+05  2.279192E+04 -1.377564E+06 -2.262441E+04  4.294619E+03
       133  10 -3.801031E+06 -8.201576E+05 -1.133038E+05 -1.579082E+06  1.591345E-08  4.662824E-09
       133  11 -3.609699E+06 -7.235367E+05 -7.447907E+04 -1.498006E+06  8.739948E-09  2.414757E-09
       133  12 -3.378995E+06 -6.666793E+05 -3.701770E+04 -1.462381E+06 -4.224565E-09 -3.094609E-09
       133  13 -3.226900E+06 -6.109616E+05 -2.208727E+03 -1.419984E+06 -4.672841E-09 -3.102657E-09
       133  14 -3.246514E+06 -5.910397E+05 -3.910597E+03 -1.397245E+06  1.279467E-09 -1.790273E-10
       133  15 -3.226843E+06 -6.109203E+05 -7.112870E+03 -1.419977E+06  1.260100E-09 -3.603567E-11
       133  16 -2.652420E+06 -4.017341E+05  1.088734E+05 -1.260746E+06 -2.179294E-08 -8.571005E-09
       133  17 -2.883190E+06 -4.585303E+05  6.665251E+04 -1.296429E+06 -8.263470E-09 -4.770700E-09
       133  18 -3.074668E+06 -5.551591E+05  2.279092E+04 -1.377564E+06  3.836593E-09 -7.056071E-11
       133  19 -3.801030E+06 -8.201545E+05 -1.132983E+05 -1.579082E+06 -9.273320E+03 -5.327016E+04
       133  20 -3.609698E+06 -7.235351E+05 -7.447585E+04 -1.498005E+06 -1.715925E+04 -3.762982E+04
       133  21 -3.378994E+06 -6.666786E+05 -3.701560E+04 -1.462380E+06 -2.499671E+04 -2.210414E+04
       133  22 -3.226899E+06 -6.109594E+05 -2.204642E+03 -1.419984E+06  1.486737E+04 -4.423314E+04
       133  23 -3.246514E+06 -5.910388E+05 -3.908969E+03 -1.397245E+06  6.814471E+03 -2.865961E+04
       133  24 -3.226843E+06 -6.109201E+05 -7.112539E+03 -1.419977E+06 -1.189293E+03 -1.320057E+04
       133  25 -2.652418E+06 -4.017323E+05  1.088786E+05 -1.260747E+06  3.903231E+04 -3.518703E+04
       133  26 -2.883189E+06 -4.585296E+05  6.665503E+04 -1.296430E+06  3.080340E+04 -1.968369E+04
       133  27 -3.074667E+06 -5.551589E+05  2.279192E+04 -1.377564E+06  2.262441E+04 -4.294619E+03
       134   1 -3.236573E+06 -6.149925E+05 -1.044579E+04 -1.423944E+06  3.025044E+04  1.319643E+04
       134   2 -3.045446E+06 -5.178101E+05  2.326113E+04 -1.340961E+06  4.177426E+04 -2.507458E+01
       134   3 -2.816909E+06 -4.640157E+05  5.163282E+04 -1.302597E+06  5.255919E+04 -1.126067E+04
       134   4 -3.227238E+06 -6.107248E+05 -9.463800E+03 -1.420211E+06  6.076044E+03  4.156301E+03
       134   5 -3.246049E+06 -5.915565E+05 -1.728789E+04 -1.396848E+06  2.052392E+04 -7.973997E+03
       134   6 -3.228082E+06 -6.163656E+05 -3.277751E+04 -1.418125E+06  3.423078E+04 -1.811878E+04
       134   7 -3.217902E+06 -6.064565E+05 -8.479315E+03 -1.416477E+06 -1.809853E+04 -4.883998E+03
       134   8 -3.446610E+06 -6.652990E+05 -5.783697E+04 -1.452718E+06 -7.190052E+02 -1.592011E+04
       134   9 -3.639082E+06 -7.687010E+05 -1.171961E+05 -1.533582E+06  1.591531E+04 -2.497190E+04
       134  10 -3.236574E+06 -6.149930E+05 -1.044785E+04 -1.423945E+06  7.612015E-12 -1.053789E-09
       134  11 -3.045448E+06 -5.178106E+05  2.325784E+04 -1.340961E+06  4.816101E-10 -3.021448E-11
       134  12 -2.816912E+06 -4.640166E+05  5.162738E+04 -1.302596E+06  1.938367E-09  1.138337E-09
       134  13 -3.227238E+06 -6.107248E+05 -9.463902E+03 -1.420211E+06  3.680332E-10 -7.392547E-10
       134  14 -3.246050E+06 -5.915567E+05 -1.728881E+04 -1.396848E+06 -3.115904E-09 -4.288976E-09
       134  15 -3.228083E+06 -6.163662E+05 -3.278033E+04 -1.418124E+06  7.443085E-10  7.018703E-11
       134  16 -3.217903E+06 -6.064566E+05 -8.479980E+03 -1.416477E+06  1.234501E-09  5.777702E-10
       134  17 -3.446610E+06 -6.652993E+05 -5.783744E+04 -1.452718E+06 -7.557853E-10 -1.426707E-09
       134  18 -3.639082E+06 -7.687017E+05 -1.171977E+05 -1.533582E+06 -3.478360E-09 -4.589495E-09
       134  19 -3.236573E+06 -6.149925E+05 -1.044579E+04 -1.423944E+06 -3.025044E+04 -1.319643E+04
       134  20 -3.045446E+06 -5.178101E+05  2.326113E+04 -1.340961E+06 -4.177426E+04  2.507458E+01
       134  21 -2.816909E+06 -4.640157E+05  5.163282E+04 -1.302597E+06 -5.255919E+04  1.126067E+04
       134  22 -3.227238E+06 -6.107248E+05 -9.463800E+03 -1.420211E+06 -6.076044E+03 -4.156301E+03
       134  23 -3.246049E+06 -5.915565E+05 -1.728789E+04 -1.396848E+06 -2.052392E+04  7.973997E+03
       134  24 -3.228082E+06 -6.163656E+05 -3.277751E+04 -1.418125E+06 -3.423078E+04  1.811878E+04
       134  25 -3.217902E+06 -6.064565E+05 -8.479315E+03 -1.416477E+06  1.809853E+04  4.883998E+03
       134  26 -3.446610E+06 -6.652990E+05 -5.783697E+04 -1.452718E+06  7.190052E+02  1.592011E+04
       134  27 -3.639082E+06 -7.687010E+05 -1.171961E+05 -1.533582E+06 -1.591531E+04  2.497190E+04
       135   1 -2.668979E+06 -4.175668E+05  7.078857E+04 -1.278422E+06  6.589806E+04 -1.684476E+04
       135   2 -2.505195E+06 -3.063785E+05  8.799098E+04 -1.146049E+06  6.829793E+04 -1.813790E+04
       135   3 -2.336548E+06 -3.210646E+05  7.978731E+04 -1.033533E+06  6.034915E+04  8.179612E+03
       135   4 -3.233590E+06 -6.120920E+05 -4.305754E+04 -1.421727E+06  4.261953E+04 -2.555644E+04
       135   5 -3.241772E+06 -6.139932E+05 -8.097325E+04 -1.386050E+06  8.579030E+04 -1.159816E+04
       135   6 -3.253298E+06 -7.499784E+05 -1.767577E+05 -1.370261E+06  1.186027E+05  2.998594E+04
       135   7 -3.797875E+06 -8.066001E+05 -1.569179E+05 -1.564915E+06  1.936376E+04 -3.426075E+04
       135   8 -3.977779E+06 -9.215155E+05 -2.499683E+05 -1.625769E+06  1.032599E+05 -5.069538E+03
       135   9 -4.169166E+06 -1.178677E+06 -4.333558E+05 -1.706475E+06  1.767597E+05  5.173596E+04
       135  10 -2.668984E+06 -4.175683E+05  7.077985E+04 -1.278421E+06  1.339596E-09  1.731882E-09
       135  11 -2.505200E+06 -3.063801E+05  8.798157E+04 -1.146048E+06  2.403230E-09  1.760140E-09
       135  12 -2.336552E+06 -3.210656E+05  7.978031E+04 -1.033534E+06  1.536943E-09  8.220985E-10
       135  13 -3.233593E+06 -6.120932E+05 -4.306219E+04 -1.421726E+06 -9.487867E-10 -1.543990E-09
       135  14 -3.241780E+06 -6.139953E+05 -8.098739E+04 -1.386049E+06  2.955486E-09  2.624432E-09
       135  15 -3.253313E+06 -7.499831E+05 -1.767859E+05 -1.370264E+06  6.571530E-11  2.139399E-10
       135  16 -3.797876E+06 -8.066014E+05 -1.569208E+05 -1.564914E+06 -2.828949E-10 -1.733725E-09
       135  17 -3.977790E+06 -9.215184E+05 -2.499885E+05 -1.625768E+06 -2.389104E-09 -1.108728E-09
       135  18 -4.169200E+06 -1.178689E+06 -4.334200E+05 -1.706483E+06 -2.442932E-09 -9.346427E-10
       135  19 -2.668979E+06 -4.175668E+05  7.078857E+04 -1.278422E+06 -6.589806E+04  1.684476E+04
       135  20 -2.505195E+06 -3.063785E+05  8.799098E+04 -1.146049E+06 -6.829793E+04  1.813790E+04
       135  21 -2.336548E+06 -3.210646E+05  7.978731E+04 -1.033533E+06 -6.034915E+04 -8.179612E+03
       135  22 -3.233590E+06 -6.120920E+05 -4.305754E+04 -1.421727E+06 -4.261953E+04  2.555644E+04
       135  23 -3.241772E+06 -6.139932E+05 -8.097325E+04 -1.386050E+06 -8.579030E+04  1.159816E+04
       135  24 -3.253298E+06 -7.499784E+05 -1.767577E+05 -1.370261E+06 -1.186027E+05 -2.998594E+04
       135  25 -3.797875E+06 -8.066001E+05 -1.569179E+05 -1.564915E+06 -1.936376E+04  3.426075E+04
       135  26 -3.977779E+06 -9.215155E+05 -2.499683E+05 -1.625769E+06 -1.032599E+05  5.069538E+03
       135  27 -4.169166E+06 -1.178677E+06 -4.333558E+05 -1.706475E+06 -1.767597E+05 -5.173596E+04
       136   1  1.893036E+05  3.807062E+04  5.671937E+04  1.508555E+04  5.783251E+04  1.200589E+03
       136   2  1.882938E+05 -3.815970E+04  1.115109E+04  4.525939E+03  3.855608E+04  3.498078E+03
       136   3  2.112718E+05 -2.856857E+04 -4.081216E+02 -1.456726E+04  1.927982E+04  3.115169E+03
       136   4  3.124141E+05  6.874455E+04  8.711619E+04 -5.686233E+03  5.959140E+04  1.199319E+03
       136   5  3.003162E+05 -1.038413E+04  3.805868E+04 -1.406345E+03  3.902400E+04  3.497817E+03
       136   6  3.124246E+05 -3.476577E+03  2.390158E+04 -5.659761E+03  1.845715E+04  3.115208E+03
       136   7  4.355393E+05  9.941897E+04  1.175121E+05 -2.646214E+04  6.135062E+04  1.197932E+03
       136   8  4.123501E+05  1.739067E+04  6.496540E+04 -7.339703E+03  3.949200E+04  3.497547E+03
       136   9  4.135869E+05  2.161497E+04  4.821061E+04  3.249193E+03  1.763435E+04  3.115224E+03
       136  10  1.893000E+05  3.806972E+04  5.671309E+04  1.508549E+04  6.620195E-10 -4.734142E-10
       136  11  1.882923E+05 -3.816012E+04  1.114828E+04  4.525830E+03  2.439558E-09 -2.511164E-10
       136  12  2.112714E+05 -2.856868E+04 -4.088381E+02 -1.456731E+04 -2.626281E-09 -7.633910E-10
       136  13  3.124103E+05  6.874359E+04  8.710952E+04 -5.686291E+03 -1.824986E-09  2.440182E-10
       136  14  3.003145E+05 -1.038455E+04  3.805580E+04 -1.406455E+03 -4.379281E-09 -2.193689E-10
       136  15  3.124242E+05 -3.476679E+03  2.390092E+04 -5.659807E+03  2.390955E-09 -7.570826E-10
       136  16  4.355353E+05  9.941796E+04  1.175051E+05 -2.646220E+04  9.425971E-10  2.853076E-10
       136  17  4.123484E+05  1.739024E+04  6.496244E+04 -7.339814E+03  1.289289E-09  3.511248E-11
       136  18  4.135866E+05  2.161488E+04  4.821000E+04  3.249149E+03  1.802165E-09  1.068788E-10
       136  19  1.893036E+05  3.807062E+04  5.671937E+04  1.508555E+04 -5.783251E+04 -1.200589E+03
       136  20  1.882938E+05 -3.815970E+04  1.115109E+04  4.525939E+03 -3.855608E+04 -3.498078E+03
       136  21  2.112718E+05 -2.856857E+04 -4.081216E+02 -1.456726E+04 -1.927982E+04 -3.115169E+03
       136  22  3.124141E+05  6.874455E+04  8.711619E+04 -5.686233E+03 -5.959140E+04 -1.199319E+03
       136  23  3.003162E+05 -1.038413E+04  3.805868E+04 -1.406345E+03 -3.902400E+04 -3.497817E+03
       136  24  3.124246E+05 -3.476577E+03  2.390158E+04 -5.659761E+03 -1.845715E+04 -3.115208E+03
       136  25  4.355393E+05  9.941897E+04  1.175121E+05 -2.646214E+04 -6.135062E+04 -1.197932E+03
       136  26  4.123501E+05  1.739067E+04  6.496540E+04 -7.339703E+03 -3.949200E+04 -3.497547E+03
       136  27  4.135869E+05  2.161497E+04  4.821061E+04  3.249193E+03 -1.763435E+04 -3.115224E+03
       137   1  2.220536E+05 -1.378259E+04 -1.109097E+03 -3.617826E+03  1.477616E+04  2.477690E+03
       137   2  2.313622E+05 -1.972548E+04 -8.115903E+03 -9.167717E+02  9.802408E+03  2.261030E+03
       137   3  2.436796E+05 -1.626573E+04 -9.532360E+03 -6.683493E+03  4.828568E+03  1.834393E+03
       137   4  3.077161E+05  7.470995E+03  1.952662E+04 -5.654105E+03  1.472441E+04  2.477608E+03
       137   5  3.062042E+05 -1.161942E+03  9.882874E+03 -1.419485E+03  9.649188E+03  2.260978E+03
       137   6  3.077180E+05 -3.752858E+02  5.899337E+03 -5.652548E+03  4.573968E+03  1.834359E+03
       137   7  3.933852E+05  2.872406E+04  4.016182E+04 -7.690667E+03  1.467264E+04  2.477526E+03
       137   8  3.810512E+05  1.740119E+04  2.788125E+04 -1.922259E+03  9.495950E+03  2.260927E+03
       137   9  3.717602E+05  1.551486E+04  2.133074E+04 -4.621497E+03  4.319343E+03  1.834323E+03
       137  10  2.220534E+05 -1.378265E+04 -1.109519E+03 -3.617855E+03 -1.891117E-09 -4.378563E-10
       137  11  2.313621E+05 -1.972551E+04 -8.116093E+03 -9.167896E+02 -1.176410E-10  4.826384E-10
       137  12  2.436796E+05 -1.626574E+04 -9.532410E+03 -6.683500E+03  9.120414E-11  1.360820E-10
       137  13  3.077158E+05  7.470930E+03  1.952620E+04 -5.654135E+03 -3.008872E-09 -2.962241E-11
       137  14  3.062041E+05 -1.161972E+03  9.882689E+03 -1.419502E+03 -6.393112E-09  2.613500E-10
       137  15  3.077180E+05 -3.752950E+02  5.899291E+03 -5.652555E+03 -1.549420E-09  1.176842E-10
       137  16  3.933850E+05  2.872399E+04  4.016140E+04 -7.690696E+03 -3.714209E-10 -2.020176E-10
       137  17  3.810511E+05  1.740116E+04  2.788107E+04 -1.922276E+03 -1.090019E-09 -6.378516E-11
       137  18  3.717602E+05  1.551485E+04  2.133070E+04 -4.621503E+03 -3.016614E-09  3.039303E-10
       137  19  2.220536E+05 -1.378259E+04 -1.109097E+03 -3.617826E+03 -1.477616E+04 -2.477690E+03
       137  20  2.313622E+05 -1.972548E+04 -8.115903E+03 -9.167717E+02 -9.802408E+03 -2.261030E+03
       137  21  2.436796E+05 -1.626573E+04 -9.532360E+03 -6.683493E+03 -4.828568E+03 -1.834393E+03
       137  22  3.077161E+05  7.470995E+03  1.952662E+04 -5.654105E+03 -1.472441E+04 -2.477608E+03
       137  23  3.062042E+05 -1.161942E+03  9.882874E+03 -1.419485E+03 -9.649188E+03 -2.260978E+03
       137  24  3.077180E+05 -3.752858E+02  5.899337E+03 -5.652548E+03 -4.573968E+03 -1.834359E+03
       137  25  3.933852E+05  2.872406E+04  4.016182E+04 -7.690667E+03 -1.467264E+04 -2.477526E+03
       137  26  3.810512E+05  1.740119E+04  2.788125E+04 -1.922259E+03 -9.495950E+03 -2.260927E+03
       137  27  3.717602E+05  1.551486E+04  2.133074E+04 -4.621497E+03 -4.319343E+03 -1.834323E+03
       138   1  2.584360E+05 -1.127674E+04 -7.061083E+03 -5.477255E+03  3.835447E+03  1.554121E+03
       138   2  2.689552E+05 -9.551633E+03 -6.616876E+03 -1.416903E+03  2.579146E+03  1.142571E+03
       138   3  2.798971E+05 -6.803378E+03 -5.098528E+03 -5.764827E+03  1.322810E+03  7.152216E+02
       138   4  3.071401E+05  7.983487E+02  4.625581E+03 -5.639854E+03  3.641870E+03  1.554093E+03
       138   5  3.069283E+05 -1.327676E+02  2.516387E+03 -1.435694E+03  2.377890E+03  1.142551E+03
       138   6  3.071406E+05 -3.940550E+01  1.486639E+03 -5.639779E+03  1.113897E+03  7.152094E+02
       138   7  3.558465E+05  1.287327E+04  1.631208E+04 -5.802465E+03  3.448277E+03  1.554066E+03
       138   8  3.449028E+05  9.285993E+03  1.164955E+04 -1.454486E+03  2.176622E+03  1.142531E+03
       138   9  3.343847E+05  6.724513E+03  8.071752E+03 -5.514725E+03  9.049758E+02  7.151971E+02
       138  10  2.584360E+05 -1.127675E+04 -7.061115E+03 -5.477260E+03  1.897783E-10  7.268864E-11
       138  11  2.689552E+05 -9.551636E+03 -6.616891E+03 -1.416905E+03  2.556362E-09  1.770422E-11
       138  12  2.798971E+05 -6.803379E+03 -5.098532E+03 -5.764828E+03  5.196282E-10 -9.607338E-10
       138  13  3.071401E+05  7.983426E+02  4.625552E+03 -5.639858E+03  1.016756E-09  4.172188E-10
       138  14  3.069283E+05 -1.327705E+02  2.516374E+03 -1.435696E+03 -3.277328E-09  4.396018E-10
       138  15  3.071406E+05 -3.940638E+01  1.486635E+03 -5.639779E+03 -4.616136E-10 -1.094046E-09
       138  16  3.558465E+05  1.287326E+04  1.631205E+04 -5.802469E+03 -1.998918E-09  7.511229E-10
       138  17  3.449028E+05  9.285990E+03  1.164954E+04 -1.454488E+03 -1.572690E-09  5.826870E-10
       138  18  3.343847E+05  6.724512E+03  8.071749E+03 -5.514725E+03 -3.368759E-10 -9.610473E-10
       138  19  2.584360E+05 -1.127674E+04 -7.061083E+03 -5.477255E+03 -3.835447E+03 -1.554121E+03
       138  20  2.689552E+05 -9.551633E+03 -6.616876E+03 -1.416903E+03 -2.579146E+03 -1.142571E+03
       138  21  2.798971E+05 -6.803378E+03 -5.098528E+03 -5.764827E+03 -1.322810E+03 -7.152216E+02
       138  22  3.071401E+05  7.983487E+02  4.625581E+03 -5.639854E+03 -3.641870E+03 -1.554093E+03
       138  23  3.069283E+05 -1.327676E+02  2.516387E+03 -1.435694E+03 -2.377890E+03 -1.142551E+03
       138  24  3.071406E+05 -3.940550E+01  1.486639E+03 -5.639779E+03 -1.113897E+03 -7.152094E+02
       138  25  3.558465E+05  1.287327E+04  1.631208E+04 -5.802465E+03 -3.448277E+03 -1.554066E+03
       138  26  3.449028E+05  9.285993E+03  1.164955E+04 -1.454486E+03 -2.176622E+03 -1.142531E+03
       138  27  3.343847E+05  6.724513E+03  8.071752E+03 -5.514725E+03 -9.049758E+02 -7.151971E+02
       139   1  2.950776E+05 -2.884623E+03 -1.692455E+03 -5.631071E+03  1.080548E+03  4.642759E+02
       139   2  3.057431E+05 -3.347535E+02  3.818701E+02 -1.446881E+03  7.377778E+02  3.865270E+01
       139   3  3.164829E+05  2.328556E+03  2.707879E+03 -5.650051E+03  3.949961E+02 -3.881371E+02
       139   4  3.070630E+05  8.171017E+01  1.157819E+03 -5.635163E+03  8.764699E+02  4.642666E+02
       139   5  3.070260E+05 -1.655597E+01  6.904118E+02 -1.441482E+03  5.331305E+02  3.864341E+01
       139   6  3.070631E+05 -1.317878E+00  4.750425E+02 -5.635160E+03  1.897850E+02 -3.881459E+02
       139   7  3.190485E+05  3.048033E+03  4.008084E+03 -5.639255E+03  6.723884E+02  4.642572E+02
       139   8  3.083088E+05  3.016415E+02  9.989536E+02 -1.436083E+03  3.284828E+02  3.863411E+01
       139   9  2.976433E+05 -2.331198E+03 -1.757800E+03 -5.620269E+03 -1.542306E+01 -3.881548E+02
       139  10  2.950776E+05 -2.884624E+03 -1.692457E+03 -5.631071E+03 -9.678326E-10 -1.042104E-09
       139  11  3.057431E+05 -3.347537E+02  3.818691E+02 -1.446881E+03  5.901490E-10  2.015969E-10
       139  12  3.164829E+05  2.328556E+03  2.707879E+03 -5.650051E+03 -1.439737E-09  1.063939E-09
       139  13  3.070630E+05  8.170973E+01  1.157818E+03 -5.635163E+03 -2.129183E-09 -9.622778E-10
       139  14  3.070260E+05 -1.655605E+01  6.904113E+02 -1.441482E+03 -2.238442E-09  4.307611E-10
       139  15  3.070631E+05 -1.318049E+00  4.750422E+02 -5.635160E+03  5.463435E-10  6.708643E-10
       139  16  3.190485E+05  3.048033E+03  4.008083E+03 -5.639256E+03 -5.967414E-11 -8.767615E-10
       139  17  3.083088E+05  3.016414E+02  9.989534E+02 -1.436083E+03  2.257568E-09  7.158913E-10
       139  18  2.976433E+05 -2.331199E+03 -1.757801E+03 -5.620269E+03 -8.719568E-10  2.137874E-10
       139  19  2.950776E+05 -2.884623E+03 -1.692455E+03 -5.631071E+03 -1.080548E+03 -4.642759E+02
       139  20  3.057431E+05 -3.347535E+02  3.818701E+02 -1.446881E+03 -7.377778E+02 -3.865270E+01
       139  21  3.164829E+05  2.328556E+03  2.707879E+03 -5.650051E+03 -3.949961E+02  3.881371E+02
       139  22  3.070630E+05  8.171017E+01  1.157819E+03 -5.635163E+03 -8.764699E+02 -4.642666E+02
       139  23  3.070260E+05 -1.655597E+01  6.904118E+02 -1.441482E+03 -5.331305E+02 -3.864341E+01
       139  24  3.070631E+05 -1.317878E+00  4.750425E+02 -5.635160E+03 -1.897850E+02  3.881459E+02
       139  25  3.190485E+05  3.048033E+03  4.008084E+03 -5.639255E+03 -6.723884E+02 -4.642572E+02
       139  26  3.083088E+05  3.016415E+02  9.989536E+02 -1.436083E+03 -3.284828E+02 -3.863411E+01
       139  27  2.976433E+05 -2.331198E+03 -1.757800E+03 -5.620269E+03  1.542306E+01  3.881548E+02
       140   1  3.317318E+05  6.132524E+03  6.392108E+03 -5.635013E+03  3.139347E+02 -6.370332E+02
       140   2  3.424369E+05  8.772073E+03  8.928426E+03 -1.434357E+03  1.081484E+02 -1.064380E+03
       140   3  3.531859E+05  1.146673E+04  1.161309E+04 -5.639952E+03 -9.760813E+01 -1.491018E+03
       140   4  3.070561E+05  5.620826E+00  4.244674E+02 -5.639365E+03  1.085567E+02 -6.370446E+02
       140   5  3.070342E+05 -8.863544E+00  4.135879E+02 -1.436226E+03 -9.688209E+01 -1.064399E+03
       140   6  3.070560E+05  3.170710E+01  5.508224E+02 -5.639368E+03 -3.022874E+02 -1.491044E+03
       140   7  2.823811E+05 -6.121327E+03 -5.543216E+03 -5.643717E+03 -9.681327E+01 -6.370560E+02
       140   8  2.716327E+05 -8.789891E+03 -8.101339E+03 -1.438095E+03 -3.019009E+02 -1.064418E+03
       140   9  2.609281E+05 -1.140347E+04 -1.051159E+04 -5.638784E+03 -5.069516E+02 -1.491071E+03
       140  10  3.317318E+05  6.132524E+03  6.392107E+03 -5.635013E+03 -1.673000E-10  4.828389E-10
       140  11  3.424369E+05  8.772072E+03  8.928423E+03 -1.434357E+03  3.211551E-09 -4.684479E-10
       140  12  3.531859E+05  1.146672E+04  1.161308E+04 -5.639952E+03  6.263279E-10  2.980191E-10
       140  13  3.070561E+05  5.620387E+00  4.244667E+02 -5.639365E+03  2.395117E-09  2.012528E-10
       140  14  3.070342E+05 -8.864763E+00  4.135857E+02 -1.436226E+03  2.332379E-09 -2.502453E-10
       140  15  3.070560E+05  3.170469E+01  5.508181E+02 -5.639368E+03 -2.220858E-09  2.002707E-10
       140  16  2.823811E+05 -6.121328E+03 -5.543217E+03 -5.643717E+03 -1.435483E-09 -2.789546E-10
       140  17  2.716327E+05 -8.789892E+03 -8.101341E+03 -1.438096E+03 -1.993920E-10 -2.400723E-10
       140  18  2.609281E+05 -1.140347E+04 -1.051160E+04 -5.638784E+03 -2.852191E-09 -7.405698E-11
       140  19  3.317318E+05  6.132524E+03  6.392108E+03 -5.635013E+03 -3.139347E+02  6.370332E+02
       140  20  3.424369E+05  8.772073E+03  8.928426E+03 -1.434357E+03 -1.081484E+02  1.064380E+03
       140  21  3.531859E+05  1.146673E+04  1.161309E+04 -5.639952E+03  9.760813E+01  1.491018E+03
       140  22  3.070561E+05  5.620826E+00  4.244674E+02 -5.639365E+03 -1.085567E+02  6.370446E+02
       140  23  3.070342E+05 -8.863544E+00  4.135879E+02 -1.436226E+03  9.688209E+01  1.064399E+03
       140  24  3.070560E+05  3.170710E+01  5.508224E+02 -5.639368E+03  3.022874E+02  1.491044E+03
       140  25  2.823811E+05 -6.121327E+03 -5.543216E+03 -5.643717E+03  9.681327E+01  6.370560E+02
       140  26  2.716327E+05 -8.789891E+03 -8.101339E+03 -1.438095E+03  3.019009E+02  1.064418E+03
       140  27  2.609281E+05 -1.140347E+04 -1.051159E+04 -5.638784E+03  5.069516E+02  1.491071E+03
       141   1  3.685449E+05  1.523270E+04  1.548220E+04 -5.597706E+03 -2.009005E+02 -1.743716E+03
       141   2  3.792548E+05  1.786615E+04  1.844596E+04 -1.419960E+03 -7.460403E+02 -2.173387E+03
       141   3  3.901511E+05  2.092143E+04  2.187196E+04 -5.708469E+03 -1.291117E+03 -2.583554E+03
       141   4  3.070869E+05 -1.701130E+01  6.684202E+02 -5.652688E+03 -4.118603E+02 -1.743750E+03
       141   5  3.069943E+05 -5.619397E+01  1.066940E+03 -1.419562E+03 -9.475782E+02 -2.173436E+03
       141   6  3.070865E+05  3.249079E+02  1.921246E+03 -5.652752E+03 -1.483224E+03 -2.583616E+03
       141   7  2.456324E+05 -1.526700E+04 -1.414563E+04 -5.707664E+03 -6.227994E+02 -1.743785E+03
       141   8  2.347386E+05 -1.797892E+04 -1.631245E+04 -1.419164E+03 -1.149093E+03 -2.173485E+03
       141   9  2.240282E+05 -2.027212E+04 -1.802996E+04 -5.597042E+03 -1.675305E+03 -2.583678E+03
       141  10  3.685449E+05  1.523270E+04  1.548219E+04 -5.597706E+03 -1.507514E-09  8.857171E-10
       141  11  3.792548E+05  1.786614E+04  1.844595E+04 -1.419961E+03 -3.806340E-09 -2.745448E-10
       141  12  3.901510E+05  2.092143E+04  2.187194E+04 -5.708472E+03 -3.677131E-09 -4.112204E-11
       141  13  3.070869E+05 -1.701461E+01  6.684141E+02 -5.652688E+03 -1.010795E-09  4.492169E-10
       141  14  3.069943E+05 -5.619928E+01  1.066930E+03 -1.419564E+03 -3.437342E-09  1.536633E-10
       141  15  3.070865E+05  3.249001E+02  1.921229E+03 -5.652755E+03  4.451383E-09 -6.287199E-11
       141  16  2.456324E+05 -1.526701E+04 -1.414563E+04 -5.707665E+03 -1.257601E-09  9.122603E-11
       141  17  2.347386E+05 -1.797892E+04 -1.631246E+04 -1.419166E+03  5.030569E-09  3.614623E-10
       141  18  2.240282E+05 -2.027213E+04 -1.802997E+04 -5.597045E+03  2.217040E-09  2.633956E-10
       141  19  3.685449E+05  1.523270E+04  1.548220E+04 -5.597706E+03  2.009005E+02  1.743716E+03
       141  20  3.792548E+05  1.786615E+04  1.844596E+04 -1.419960E+03  7.460403E+02  2.173387E+03
       141  21  3.901511E+05  2.092143E+04  2.187196E+04 -5.708469E+03  1.291117E+03  2.583554E+03
       141  22  3.070869E+05 -1.701130E+01  6.684202E+02 -5.652688E+03  4.118603E+02  1.743750E+03
       141  23  3.069943E+05 -5.619397E+01  1.066940E+03 -1.419562E+03  9.475782E+02  2.173436E+03
       141  24  3.070865E+05  3.249079E+02  1.921246E+03 -5.652752E+03  1.483224E+03  2.583616E+03
       141  25  2.456324E+05 -1.526700E+04 -1.414563E+04 -5.707664E+03  6.227994E+02  1.743785E+03
       141  26  2.347386E+05 -1.797892E+04 -1.631245E+04 -1.419164E+03  1.149093E+03  2.173485E+03
       141  27  2.240282E+05 -2.027212E+04 -1.802996E+04 -5.597042E+03  1.675305E+03  2.583678E+03
       142   1  4.058645E+05  2.428832E+04  2.616810E+04 -5.234288E+03 -1.599862E+03 -2.874205E+03
       142   2  4.161580E+05  2.666758E+04  3.039505E+04 -1.579250E+03 -3.819437E+03 -3.303677E+03
       142   3  4.277354E+05  3.294060E+04  3.704425E+04 -6.483278E+03 -6.039087E+03 -3.466432E+03
       142   4  3.073251E+05 -1.573025E+02  2.441166E+03 -5.672996E+03 -1.869681E+03 -2.874297E+03
       142   5  3.066937E+05 -4.808025E+02  4.072225E+03 -1.393993E+03 -3.960840E+03 -3.303760E+03
       142   6  3.073239E+05  3.067524E+03  8.036663E+03 -5.674129E+03 -6.052032E+03 -3.466490E+03
       142   7  2.087945E+05 -2.460363E+04 -2.128646E+04 -6.111635E+03 -2.139457E+03 -2.874389E+03
       142   8  1.972404E+05 -2.763006E+04 -2.225146E+04 -1.208769E+03 -4.102218E+03 -3.303843E+03
       142   9  1.869257E+05 -2.680661E+04 -2.097196E+04 -4.865139E+03 -6.064976E+03 -3.466547E+03
       142  10  4.058645E+05  2.428831E+04  2.616808E+04 -5.234292E+03 -2.001307E-09  3.319798E-11
       142  11  4.161580E+05  2.666757E+04  3.039501E+04 -1.579260E+03 -1.171984E-09 -2.739717E-10
       142  12  4.277354E+05  3.294058E+04  3.704416E+04 -6.483295E+03  3.737026E-10 -7.244231E-10
       142  13  3.073251E+05 -1.573123E+02  2.441144E+03 -5.673001E+03  1.210550E-09 -1.628477E-10
       142  14  3.066937E+05 -4.808184E+02  4.072175E+03 -1.394004E+03 -1.247527E-09 -5.423214E-10
       142  15  3.073239E+05  3.067501E+03  8.036572E+03 -5.674146E+03  1.801173E-09 -9.165736E-10
       142  16  2.087945E+05 -2.460364E+04 -2.128649E+04 -6.111640E+03  4.025290E-10 -1.617387E-10
       142  17  1.972404E+05 -2.763008E+04 -2.225151E+04 -1.208780E+03  4.622631E-09  2.713328E-11
       142  18  1.869257E+05 -2.680663E+04 -2.097205E+04 -4.865156E+03  2.158726E-09 -7.637283E-10
       142  19  4.058645E+05  2.428832E+04  2.616810E+04 -5.234288E+03  1.599862E+03  2.874205E+03
       142  20  4.161580E+05  2.666758E+04  3.039505E+04 -1.579250E+03  3.819437E+03  3.303677E+03
       142  21  4.277354E+05  3.294060E+04  3.704425E+04 -6.483278E+03  6.039087E+03  3.466432E+03
       142  22  3.073251E+05 -1.573025E+02  2.441166E+03 -5.672996E+03  1.869681E+03  2.874297E+03
       142  23  3.066937E+05 -4.808025E+02  4.072225E+03 -1.393993E+03  3.960840E+03  3.303760E+03
       142  24  3.073239E+05  3.067524E+03  8.036663E+03 -5.674129E+03  6.052032E+03  3.466490E+03
       142  25  2.087945E+05 -2.460363E+04 -2.128646E+04 -6.111635E+03  2.139457E+03  2.874389E+03
       142  26  1.972404E+05 -2.763006E+04 -2.225146E+04 -1.208769E+03  4.102218E+03  3.303843E+03
       142  27  1.869257E+05 -2.680661E+04 -2.097196E+04 -4.865139E+03  6.064976E+03  3.466547E+03
       143   1  4.453812E+05  3.232057E+04  4.253641E+04 -1.985604E+03 -6.594916E+03 -4.210595E+03
       143   2  4.514017E+05  3.220237E+04  5.099226E+04 -3.770239E+03 -1.669384E+04 -4.581078E+03
       143   3  4.676901E+05  6.775445E+04  7.494484E+04 -1.419215E+04 -2.679494E+04 -1.542792E+03
       143   4  3.092625E+05 -1.435550E+03  9.835547E+03 -5.685584E+03 -7.588124E+03 -4.211035E+03
       143   5  3.042672E+05 -4.276719E+03  1.565409E+04 -1.375522E+03 -1.604821E+04 -4.580881E+03
       143   6  3.092576E+05  2.827241E+04  3.583423E+04 -5.702706E+03 -2.451027E+04 -1.541800E+03
       143   7  1.731609E+05 -3.519297E+04 -2.286663E+04 -9.384752E+03 -8.581115E+03 -4.211463E+03
       143   8  1.571525E+05 -4.075736E+04 -1.968562E+04  1.018622E+03 -1.540273E+04 -4.580679E+03
       143   9  1.508480E+05 -1.121123E+04 -3.278170E+03  2.784569E+03 -2.222617E+04 -1.540745E+03
       143  10  4.453811E+05  3.232054E+04  4.253630E+04 -1.985626E+03  8.065094E-10 -1.168061E-09
       143  11  4.514014E+05  3.220227E+04  5.099170E+04 -3.770300E+03  1.382184E-10 -1.613264E-09
       143  12  4.676893E+05  6.775425E+04  7.494348E+04 -1.419219E+04  1.098292E-10 -3.870921E-10
       143  13  3.092625E+05 -1.435585E+03  9.835406E+03 -5.685610E+03  2.052460E-09 -2.527785E-09
       143  14  3.042669E+05 -4.276811E+03  1.565356E+04 -1.375581E+03 -1.032847E-09  7.606224E-10
       143  15  3.092569E+05  2.827224E+04  3.583310E+04 -5.702737E+03 -1.379176E-09  5.968000E-11
       143  16  1.731608E+05 -3.519301E+04 -2.286680E+04 -9.384781E+03  3.944713E-09 -9.668176E-10
       143  17  1.571522E+05 -4.075745E+04 -1.968611E+04  1.018565E+03  1.922366E-09  6.425803E-10
       143  18  1.508475E+05 -1.121136E+04 -3.279103E+03  2.784542E+03  1.033273E-09 -4.781428E-10
       143  19  4.453812E+05  3.232057E+04  4.253641E+04 -1.985604E+03  6.594916E+03  4.210595E+03
       143  20  4.514017E+05  3.220237E+04  5.099226E+04 -3.770239E+03  1.669384E+04  4.581078E+03
       143  21  4.676901E+05  6.775445E+04  7.494484E+04 -1.419215E+04  2.679494E+04  1.542792E+03
       143  22  3.092625E+05 -1.435550E+03  9.835547E+03 -5.685584E+03  7.588124E+03  4.211035E+03
       143  23  3.042672E+05 -4.276719E+03  1.565409E+04 -1.375522E+03  1.604821E+04  4.580881E+03
       143  24  3.092576E+05  2.827241E+04  3.583423E+04 -5.702706E+03  2.451027E+04  1.541800E+03
       143  25  1.731609E+05 -3.519297E+04 -2.286663E+04 -9.384752E+03  8.581115E+03  4.211463E+03
       143  26  1.571525E+05 -4.075736E+04 -1.968562E+04  1.018622E+03  1.540273E+04  4.580679E+03
       143  27  1.508480E+05 -1.121123E+04 -3.278170E+03  2.784569E+03  2.222617E+04  1.540745E+03
       144   1  2.731956E+06  1.109371E+07  2.733421E+06 -1.346086E+06  9.395307E+04  1.931177E+05
       144   2  2.011836E+06  8.586104E+06  2.021981E+06 -3.941189E+05  2.574759E+05  4.275781E+04
       144   3  1.475000E+06  6.196783E+06  1.462284E+06 -1.339229E+06  1.701465E+05 -1.090666E+05
       144   4  7.760453E+04  3.809011E+05  1.031398E+05 -1.284922E+06  9.469576E+04  5.247802E+04
       144   5 -2.371179E+04  3.383873E+05  5.151458E+04 -3.355833E+05  2.578601E+05  2.480152E+04
       144   6  3.821074E+04  3.877794E+05  6.828784E+04 -1.284898E+06  1.687041E+05 -4.944115E+03
       144   7 -2.585214E+06 -1.022864E+07 -2.535500E+06 -1.224585E+06  9.541983E+04 -8.577719E+04
       144   8 -2.064161E+06 -7.847550E+06 -1.923743E+06 -2.776684E+05  2.582444E+05  7.078764E+03
       144   9 -1.401015E+06 -5.390511E+06 -1.328062E+06 -1.230931E+06  1.672724E+05  9.821543E+04
       144  10  2.731936E+06  1.109366E+07  2.733335E+06 -1.346101E+06 -4.069106E-09 -6.748719E-09
       144  11  2.011764E+06  8.586085E+06  2.021853E+06 -3.941277E+05 -1.084891E-08  4.670638E-09
       144  12  1.474966E+06  6.196763E+06  1.462208E+06 -1.339214E+06  6.965584E-09 -1.247447E-08
       144  13  7.759414E+04  3.808957E+05  1.031177E+05 -1.284926E+06 -1.606413E-09 -2.681183E-09
       144  14 -2.378337E+04  3.383687E+05  5.138843E+04 -3.355885E+05 -5.105146E-09  8.916253E-09
       144  15  3.818017E+04  3.877717E+05  6.823431E+04 -1.284898E+06  6.320356E-09 -5.176436E-09
       144  16 -2.585225E+06 -1.022865E+07 -2.535531E+06 -1.224578E+06 -1.446707E-09  3.952517E-09
       144  17 -2.064232E+06 -7.847568E+06 -1.923869E+06 -2.776699E+05  1.042580E-09  1.442252E-08
       144  18 -1.401048E+06 -5.390529E+06 -1.328133E+06 -1.230945E+06  2.936992E-09  1.550811E-11
       144  19  2.731956E+06  1.109371E+07  2.733421E+06 -1.346086E+06 -9.395307E+04 -1.931177E+05
       144  20  2.011836E+06  8.586104E+06  2.021981E+06 -3.941189E+05 -2.574759E+05 -4.275781E+04
       144  21  1.475000E+06  6.196783E+06  1.462284E+06 -1.339229E+06 -1.701465E+05  1.090666E+05
       144  22  7.760453E+04  3.809011E+05  1.031398E+05 -1.284922E+06 -9.469576E+04 -5.247802E+04
       144  23 -2.371179E+04  3.383873E+05  5.151458E+04 -3.355833E+05 -2.578601E+05 -2.480152E+04
       144  24  3.821074E+04  3.877794E+05  6.828784E+04 -1.284898E+06 -1.687041E+05  4.944115E+03
       144  25 -2.585214E+06 -1.022864E+07 -2.535500E+06 -1.224585E+06 -9.541983E+04  8.577719E+04
       144  26 -2.064161E+06 -7.847550E+06 -1.923743E+06 -2.776684E+05 -2.582444E+05 -7.078764E+03
       144  27 -1.401015E+06 -5.390511E+06 -1.328062E+06 -1.230931E+06 -1.672724E+05 -9.821543E+04
       145   1  6.178869E+05  2.708596E+06  6.300620E+05 -1.319708E+06  7.396459E+04 -5.599533E+04
       145   2 -1.959139E+04  2.978619E+05  7.206882E+04 -3.314576E+05 -9.789757E+02 -1.040433E+05
       145   3 -5.321508E+05 -2.137409E+06 -4.387196E+05 -1.239998E+06 -7.549422E+04 -1.518896E+05
       145   4  3.771625E+04  3.686456E+05  6.883865E+04 -1.284643E+06  7.338506E+04 -1.948459E+04
       145   5  1.830485E+03  3.836209E+05  9.270837E+04 -3.359081E+05 -1.541444E+03 -6.780217E+04
       145   6  9.127081E+04  3.685765E+05  1.642440E+05 -1.283819E+06 -7.605192E+04 -1.160997E+05
       145   7 -5.428488E+05 -1.966302E+06 -4.927677E+05 -1.249685E+06  7.280844E+04  1.688965E+04
       145   8  2.325259E+04  4.693895E+05  1.133523E+05 -3.403593E+05 -2.104390E+03 -3.155606E+04
       145   9  7.142390E+05  2.880324E+06  7.667654E+05 -1.327789E+06 -7.661347E+04 -8.016465E+04
       145  10  6.178802E+05  2.708591E+06  6.300459E+05 -1.319705E+06  5.531518E-09 -3.155866E-08
       145  11 -1.959429E+04  2.978503E+05  7.204848E+04 -3.314577E+05  2.144718E-09 -1.914648E-09
       145  12 -5.321631E+05 -2.137435E+06 -4.387739E+05 -1.240007E+06 -8.285240E-09 -2.050576E-08
       145  13  3.771037E+04  3.686438E+05  6.882783E+04 -1.284642E+06  3.219881E-09 -1.543639E-08
       145  14  1.829249E+03  3.836160E+05  9.269973E+04 -3.359082E+05  7.048937E-09  1.590859E-08
       145  15  9.126096E+04  3.685604E+05  1.642077E+05 -1.283826E+06  1.039365E-08 -6.038713E-09
       145  16 -5.428546E+05 -1.966304E+06 -4.927782E+05 -1.249686E+06  8.559920E-10  1.629287E-08
       145  17  2.325232E+04  4.693884E+05  1.133505E+05 -3.403593E+05 -1.133610E-08  3.368168E-08
       145  18  7.142310E+05  2.880316E+06  7.667422E+05 -1.327794E+06 -2.886677E-09  7.567649E-09
       145  19  6.178869E+05  2.708596E+06  6.300620E+05 -1.319708E+06 -7.396459E+04  5.599533E+04
       145  20 -1.959139E+04  2.978619E+05  7.206882E+04 -3.314576E+05  9.789757E+02  1.040433E+05
       145  21 -5.321508E+05 -2.137409E+06 -4.387196E+05 -1.239998E+06  7.549422E+04  1.518896E+05
       145  22  3.771625E+04  3.686456E+05  6.883865E+04 -1.284643E+06 -7.338506E+04  1.948459E+04
       145  23  1.830485E+03  3.836209E+05  9.270837E+04 -3.359081E+05  1.541444E+03  6.780217E+04
       145  24  9.127081E+04  3.685765E+05  1.642440E+05 -1.283819E+06  7.605192E+04  1.160997E+05
       145  25 -5.428488E+05 -1.966302E+06 -4.927677E+05 -1.249685E+06 -7.280844E+04 -1.688965E+04
       145  26  2.325259E+04  4.693895E+05  1.133523E+05 -3.403593E+05  2.104390E+03  3.155606E+04
       145  27  7.142390E+05  2.880324E+06  7.667654E+05 -1.327789E+06  7.661347E+04  8.016465E+04
       146   1 -1.471418E+06 -5.523877E+06 -1.233315E+06 -1.290884E+06 -1.702165E+05 -2.534654E+05
       146   2 -2.179609E+06 -8.065250E+06 -1.715578E+06 -2.371848E+05 -2.608857E+05 -2.948187E+05
       146   3 -2.153538E+06 -1.035875E+07 -1.977033E+06 -1.083909E+06 -9.543880E+04 -3.339774E+05
       146   4  8.234650E+03  4.250491E+05  2.037577E+05 -1.285866E+06 -1.716515E+05 -1.503397E+05
       146   5 -9.551502E+04  2.908245E+05  3.010878E+05 -3.353710E+05 -2.604522E+05 -3.153457E+05
       146   6  5.521057E+05  4.180075E+05  7.029834E+05 -1.283381E+06 -9.464821E+04 -4.783545E+05
       146   7  1.485308E+06  6.406543E+06  1.638339E+06 -1.280648E+06 -1.730773E+05 -4.621693E+04
       146   8  1.983485E+06  8.711299E+06  2.312761E+06 -4.347423E+05 -2.600162E+05 -3.361277E+05
       146   9  3.249135E+06  1.130143E+07  3.374395E+06 -1.486152E+06 -9.377410E+04 -6.252090E+05
       146  10 -1.471467E+06 -5.523955E+06 -1.233492E+06 -1.290919E+06  8.002949E-10 -2.495618E-08
       146  11 -2.179706E+06 -8.065363E+06 -1.715871E+06 -2.372471E+05  6.255945E-09  3.066977E-10
       146  12 -2.153579E+06 -1.035887E+07 -1.977264E+06 -1.083935E+06  2.010305E-09  2.553654E-10
       146  13  8.196864E+03  4.250168E+05  2.036597E+05 -1.285887E+06 -7.067894E-09 -1.374393E-08
       146  14 -9.561460E+04  2.906995E+05  3.007734E+05 -3.354372E+05  5.584751E-09  8.726996E-09
       146  15  5.520345E+05  4.177595E+05  7.025364E+05 -1.283418E+06 -2.076286E-10 -8.044303E-10
       146  16  1.485275E+06  6.406532E+06  1.638278E+06 -1.280654E+06  5.327097E-09  1.142444E-08
       146  17  1.983382E+06  8.711161E+06  2.312425E+06 -4.348123E+05 -1.122501E-09  1.645364E-08
       146  18  3.249023E+06  1.130102E+07  3.373656E+06 -1.486199E+06 -2.860557E-09 -2.045529E-09
       146  19 -1.471418E+06 -5.523877E+06 -1.233315E+06 -1.290884E+06  1.702165E+05  2.534654E+05
       146  20 -2.179609E+06 -8.065250E+06 -1.715578E+06 -2.371848E+05  2.608857E+05  2.948187E+05
       146  21 -2.153538E+06 -1.035875E+07 -1.977033E+06 -1.083909E+06  9.543880E+04  3.339774E+05
       146  22  8.234650E+03  4.250491E+05  2.037577E+05 -1.285866E+06  1.716515E+05  1.503397E+05
       146  23 -9.551502E+04  2.908245E+05  3.010878E+05 -3.353710E+05  2.604522E+05  3.153457E+05
       146  24  5.521057E+05  4.180075E+05  7.029834E+05 -1.283381E+06  9.464821E+04  4.783545E+05
       146  25  1.485308E+06  6.406543E+06  1.638339E+06 -1.280648E+06  1.730773E+05  4.621693E+04
       146  26  1.983485E+06  8.711299E+06  2.312761E+06 -4.347423E+05  2.600162E+05  3.361277E+05
       146  27  3.249135E+06  1.130143E+07  3.374395E+06 -1.486152E+06  9.377410E+04  6.252090E+05
       147   1 -5.356105E+05 -2.377773E+05 -1.197655E+05 -2.337477E+05 -5.866222E+04 -1.801345E+04
       147   2 -5.050859E+05 -1.793615E+05 -7.031237E+04 -2.202842E+05 -3.574732E+04 -2.644596E+02
       147   3 -4.825318E+05 -1.489576E+05 -4.655172E+04 -2.065621E+05 -1.047812E+04  1.122170E+04
       147   4 -2.917161E+05 -1.174358E+05 -5.211541E+04 -1.371106E+05 -3.538257E+04 -9.278122E+03
       147   5 -2.862679E+05 -8.516937E+04 -2.485896E+04 -1.445778E+05 -2.554510E+04  3.563470E+03
       147   6 -2.861949E+05 -7.831916E+04 -1.292464E+04 -1.517885E+05 -1.335521E+04  1.014143E+04
       147   7 -4.776508E+04  2.921686E+03  1.553023E+04 -4.043642E+04 -1.209346E+04 -5.364909E+02
       147   8 -6.740070E+04  9.032049E+03  2.059209E+04 -6.884525E+04 -1.533909E+04  7.393418E+03
       147   9 -8.981543E+04 -7.676321E+03  2.070184E+04 -9.699831E+04 -1.623329E+04  9.060790E+03
       147  10 -5.356143E+05 -2.377785E+05 -1.197726E+05 -2.337485E+05 -1.159381E-07 -4.326207E-08
       147  11 -5.050873E+05 -1.793618E+05 -7.031477E+04 -2.202842E+05 -1.646464E-08 -7.109356E-09
       147  12 -4.825320E+05 -1.489578E+05 -4.655216E+04 -2.065620E+05  1.023805E-07  3.982929E-08
       147  13 -2.917175E+05 -1.174362E+05 -5.211793E+04 -1.371108E+05 -1.075052E-08 -3.211758E-09
       147  14 -2.862686E+05 -8.516956E+04 -2.486021E+04 -1.445777E+05 -2.367596E-08 -8.645034E-09
       147  15 -2.861951E+05 -7.831932E+04 -1.292516E+04 -1.517884E+05 -6.429496E-09 -3.451256E-09
       147  16 -4.776524E+04  2.921647E+03  1.552996E+04 -4.043642E+04  9.847549E-08  3.599611E-08
       147  17 -6.740096E+04  9.031928E+03  2.059155E+04 -6.884516E+04 -2.407530E-08 -1.113370E-08
       147  18 -8.981574E+04 -7.676480E+03  2.070119E+04 -9.699819E+04 -1.172277E-07 -4.690154E-08
       147  19 -5.356105E+05 -2.377773E+05 -1.197655E+05 -2.337477E+05  5.866222E+04  1.801345E+04
       147  20 -5.050859E+05 -1.793615E+05 -7.031237E+04 -2.202842E+05  3.574732E+04  2.644596E+02
       147  21 -4.825318E+05 -1.489576E+05 -4.655172E+04 -2.065621E+05  1.047812E+04 -1.122170E+04
       147  22 -2.917161E+05 -1.174358E+05 -5.211541E+04 -1.371106E+05  3.538257E+04  9.278122E+03
       147  23 -2.862679E+05 -8.516937E+04 -2.485896E+04 -1.445778E+05  2.554510E+04 -3.563470E+03
       147  24 -2.861949E+05 -7.831916E+04 -1.292464E+04 -1.517885E+05  1.335521E+04 -1.014143E+04
       147  25 -4.776508E+04  2.921686E+03  1.553023E+04 -4.043642E+04  1.209346E+04  5.364909E+02
       147  26 -6.740070E+04  9.032049E+03  2.059209E+04 -6.884525E+04  1.533909E+04 -7.393418E+03
       147  27 -8.981543E+04 -7.676321E+03  2.070184E+04 -9.699831E+04  1.623329E+04 -9.060790E+03
       148   1 -4.579810E+05 -1.413979E+05 -3.877073E+04 -2.017664E+05 -8.842069E+03  1.068364E+04
       148   2 -4.260056E+05 -1.237488E+05 -2.723501E+04 -1.895991E+05 -4.263858E+03  1.054301E+04
       148   3 -3.907029E+05 -1.125811E+05 -1.916007E+04 -1.823189E+05  5.743254E+02  9.709737E+03
       148   4 -2.846834E+05 -7.751030E+04 -9.600206E+03 -1.516306E+05 -1.152260E+04  9.677262E+03
       148   5 -2.862936E+05 -7.302991E+04 -4.992616E+03 -1.497051E+05 -8.390445E+03  8.994202E+03
       148   6 -2.842906E+05 -7.474403E+04 -2.699037E+03 -1.526672E+05 -4.998530E+03  7.618489E+03
       148   7 -1.113558E+05 -1.362006E+04  1.956900E+04 -1.014821E+05 -1.420390E+04  8.670583E+03
       148   8 -1.465606E+05 -2.230880E+04  1.724948E+04 -1.098026E+05 -1.251802E+04  7.445011E+03
       148   9 -1.778646E+05 -3.690533E+04  1.376231E+04 -1.230103E+05 -1.057246E+04  5.526841E+03
       148  10 -4.579811E+05 -1.413981E+05 -3.877109E+04 -2.017663E+05  4.627320E-09  2.386557E-09
       148  11 -4.260057E+05 -1.237490E+05 -2.723525E+04 -1.895991E+05  5.970876E-09  4.477935E-10
       148  12 -3.907030E+05 -1.125812E+05 -1.916024E+04 -1.823189E+05  3.710284E-09 -2.661474E-10
       148  13 -2.846836E+05 -7.751043E+04 -9.600632E+03 -1.516305E+05 -3.270139E-11  6.226135E-11
       148  14 -2.862937E+05 -7.303002E+04 -4.992900E+03 -1.497051E+05 -8.109811E-09 -7.782893E-10
       148  15 -2.842906E+05 -7.474410E+04 -2.699193E+03 -1.526671E+05 -9.939561E-09 -1.336256E-09
       148  16 -1.113560E+05 -1.362019E+04  1.956848E+04 -1.014820E+05 -4.324982E-09 -2.260423E-09
       148  17 -1.465608E+05 -2.230890E+04  1.724908E+04 -1.098025E+05 -7.530507E-09 -2.872645E-11
       148  18 -1.778647E+05 -3.690539E+04  1.376204E+04 -1.230102E+05 -7.165703E-09 -1.850957E-09
       148  19 -4.579810E+05 -1.413979E+05 -3.877073E+04 -2.017664E+05  8.842069E+03 -1.068364E+04
       148  20 -4.260056E+05 -1.237488E+05 -2.723501E+04 -1.895991E+05  4.263858E+03 -1.054301E+04
       148  21 -3.907029E+05 -1.125811E+05 -1.916007E+04 -1.823189E+05 -5.743254E+02 -9.709737E+03
       148  22 -2.846834E+05 -7.751030E+04 -9.600206E+03 -1.516306E+05  1.152260E+04 -9.677262E+03
       148  23 -2.862936E+05 -7.302991E+04 -4.992616E+03 -1.497051E+05  8.390445E+03 -8.994202E+03
       148  24 -2.842906E+05 -7.474403E+04 -2.699037E+03 -1.526672E+05  4.998530E+03 -7.618489E+03
       148  25 -1.113558E+05 -1.362006E+04  1.956900E+04 -1.014821E+05  1.420390E+04 -8.670583E+03
       148  26 -1.465606E+05 -2.230880E+04  1.724948E+04 -1.098026E+05  1.251802E+04 -7.445011E+03
       148  27 -1.778646E+05 -3.690533E+04  1.376231E+04 -1.230103E+05  1.057246E+04 -5.526841E+03
       149   1 -3.689919E+05 -1.049735E+05 -1.499841E+04 -1.764235E+05  1.507239E+03  8.261998E+03
       149   2 -3.371316E+05 -9.035868E+04 -8.832798E+03 -1.642492E+05  3.225461E+03  5.831032E+03
       149   3 -3.008333E+05 -8.048134E+04 -3.231162E+03 -1.573147E+05  4.972295E+03  3.323525E+03
       149   4 -2.841401E+05 -7.470390E+04 -2.017568E+03 -1.526359E+05 -4.044465E+03  6.178803E+03
       149   5 -2.863636E+05 -7.227864E+04 -1.093403E+03 -1.500427E+05 -2.486147E+03  3.687956E+03
       149   6 -2.841185E+05 -7.455922E+04 -6.065164E+02 -1.526896E+05 -8.992630E+02  1.120562E+03
       149   7 -1.992806E+05 -4.443354E+04  1.096329E+04 -1.288451E+05 -9.596969E+03  4.095308E+03
       149   8 -2.355931E+05 -5.419844E+04  6.646004E+03 -1.358351E+05 -8.198212E+03  1.544709E+03
       149   9 -2.674036E+05 -6.863711E+04  2.018214E+03 -1.480644E+05 -6.770916E+03 -1.082435E+03
       149  10 -3.689919E+05 -1.049736E+05 -1.499854E+04 -1.764235E+05 -3.563913E-09 -1.530274E-09
       149  11 -3.371317E+05 -9.035872E+04 -8.832882E+03 -1.642492E+05  6.296130E-10  3.055773E-09
       149  12 -3.008333E+05 -8.048136E+04 -3.231230E+03 -1.573147E+05  5.041445E-09  2.515209E-09
       149  13 -2.841402E+05 -7.470395E+04 -2.017671E+03 -1.526358E+05 -5.171759E-09 -7.442708E-10
       149  14 -2.863636E+05 -7.227866E+04 -1.093440E+03 -1.500426E+05  5.095009E-09  1.522855E-09
       149  15 -2.841185E+05 -7.455922E+04 -6.065202E+02 -1.526896E+05  5.012828E-09  2.833211E-10
       149  16 -1.992807E+05 -4.443358E+04  1.096309E+04 -1.288451E+05  3.464421E-09  2.967825E-10
       149  17 -2.355931E+05 -5.419846E+04  6.645874E+03 -1.358350E+05  5.869472E-09 -8.229552E-10
       149  18 -2.674036E+05 -6.863713E+04  2.018126E+03 -1.480644E+05  2.211333E-09 -2.164074E-09
       149  19 -3.689919E+05 -1.049735E+05 -1.499841E+04 -1.764235E+05 -1.507239E+03 -8.261998E+03
       149  20 -3.371316E+05 -9.035868E+04 -8.832798E+03 -1.642492E+05 -3.225461E+03 -5.831032E+03
       149  21 -3.008333E+05 -8.048134E+04 -3.231162E+03 -1.573147E+05 -4.972295E+03 -3.323525E+03
       149  22 -2.841401E+05 -7.470390E+04 -2.017568E+03 -1.526359E+05  4.044465E+03 -6.178803E+03
       149  23 -2.863636E+05 -7.227864E+04 -1.093403E+03 -1.500427E+05  2.486147E+03 -3.687956E+03
       149  24 -2.841185E+05 -7.455922E+04 -6.065164E+02 -1.526896E+05  8.992630E+02 -1.120562E+03
       149  25 -1.992806E+05 -4.443354E+04  1.096329E+04 -1.288451E+05  9.596969E+03 -4.095308E+03
       149  26 -2.355931E+05 -5.419844E+04  6.646004E+03 -1.358351E+05  8.198212E+03 -1.544709E+03
       149  27 -2.674036E+05 -6.863711E+04  2.018214E+03 -1.480644E+05  6.770916E+03  1.082435E+03
       150   1 -2.793957E+05 -7.283937E+04  2.891386E+02 -1.513238E+05  5.672013E+03  1.716942E+03
       150   2 -2.475911E+05 -5.841222E+04  5.536840E+03 -1.391273E+05  6.875443E+03 -1.040476E+03
       150   3 -2.112209E+05 -4.858162E+04  1.067273E+04 -1.321841E+05  8.081481E+03 -3.804657E+03
       150   4 -2.841005E+05 -7.456139E+04 -4.597271E+02 -1.526826E+05 -1.972435E+02 -4.851493E+02
       150   5 -2.863847E+05 -7.226772E+04 -2.680885E+02 -1.500544E+05  9.918138E+02 -3.248062E+03
       150   6 -2.841023E+05 -7.456830E+04 -1.772491E+02 -1.526803E+05  2.183467E+03 -6.017736E+03
       150   7 -2.888053E+05 -7.628339E+04 -1.208462E+03 -1.540413E+05 -6.066526E+03 -2.687249E+03
       150   8 -3.251768E+05 -8.612312E+04 -6.072956E+03 -1.609809E+05 -4.891466E+03 -5.455516E+03
       150   9 -3.569779E+05 -1.005544E+05 -1.102714E+04 -1.731743E+05 -3.713819E+03 -8.230541E+03
       150  10 -2.793957E+05 -7.283939E+04  2.890726E+02 -1.513238E+05  2.388320E-09 -6.784694E-10
       150  11 -2.475912E+05 -5.841223E+04  5.536749E+03 -1.391273E+05 -1.905154E-09 -2.908140E-09
       150  12 -2.112209E+05 -4.858165E+04  1.067258E+04 -1.321840E+05 -6.102847E-09 -2.033759E-09
       150  13 -2.841005E+05 -7.456139E+04 -4.597276E+02 -1.526826E+05  4.634546E-10 -1.394340E-09
       150  14 -2.863847E+05 -7.226773E+04 -2.681102E+02 -1.500544E+05 -3.555693E-09 -1.907266E-09
       150  15 -2.841023E+05 -7.456834E+04 -1.773261E+02 -1.526803E+05 -7.953671E-09 -6.331235E-10
       150  16 -2.888054E+05 -7.628341E+04 -1.208545E+03 -1.540413E+05 -1.260978E-09 -1.670598E-09
       150  17 -3.251768E+05 -8.612316E+04 -6.073057E+03 -1.609809E+05 -1.026534E-09 -7.206790E-10
       150  18 -3.569780E+05 -1.005545E+05 -1.102730E+04 -1.731743E+05  1.204508E-09  9.620756E-10
       150  19 -2.793957E+05 -7.283937E+04  2.891386E+02 -1.513238E+05 -5.672013E+03 -1.716942E+03
       150  20 -2.475911E+05 -5.841222E+04  5.536840E+03 -1.391273E+05 -6.875443E+03  1.040476E+03
       150  21 -2.112209E+05 -4.858162E+04  1.067273E+04 -1.321841E+05 -8.081481E+03  3.804657E+03
       150  22 -2.841005E+05 -7.456139E+04 -4.597271E+02 -1.526826E+05  1.972435E+02  4.851493E+02
       150  23 -2.863847E+05 -7.226772E+04 -2.680885E+02 -1.500544E+05 -9.918138E+02  3.248062E+03
       150  24 -2.841023E+05 -7.456830E+04 -1.772491E+02 -1.526803E+05 -2.183467E+03  6.017736E+03
       150  25 -2.888053E+05 -7.628339E+04 -1.208462E+03 -1.540413E+05  6.066526E+03  2.687249E+03
       150  26 -3.251768E+05 -8.612312E+04 -6.072956E+03 -1.609809E+05  4.891466E+03  5.455516E+03
       150  27 -3.569779E+05 -1.005544E+05 -1.102714E+04 -1.731743E+05  3.713819E+03  8.230541E+03
       151   1 -1.898195E+05 -4.093088E+04  1.405532E+04 -1.261850E+05  8.726065E+03 -5.438013E+03
       151   2 -1.580355E+05 -2.650787E+04  1.910181E+04 -1.139857E+05  9.834423E+03 -8.234934E+03
       151   3 -1.216706E+05 -1.666783E+04  2.411101E+04 -1.070362E+05  1.093806E+04 -1.101866E+04
       151   4 -2.841022E+05 -7.457010E+04 -1.575890E+02 -1.526788E+05  2.828251E+03 -7.651122E+03
       151   5 -2.863912E+05 -7.228064E+04 -1.580258E+02 -1.500524E+05  3.963918E+03 -1.043808E+04
       151   6 -2.841058E+05 -7.457958E+04 -2.173686E+02 -1.526763E+05  5.094866E+03 -1.321185E+04
       151   7 -3.783740E+05 -1.082079E+05 -1.437014E+04 -1.791685E+05 -3.068547E+03 -9.863850E+03
       151   8 -4.147289E+05 -1.180516E+05 -1.941791E+04 -1.861121E+05 -1.905306E+03 -1.264074E+04
       151   9 -4.465143E+05 -1.324892E+05 -2.454646E+04 -1.983056E+05 -7.467825E+02 -1.540447E+04
       151  10 -1.898196E+05 -4.093093E+04  1.405512E+04 -1.261849E+05 -4.955664E-09  8.730808E-10
       151  11 -1.580356E+05 -2.650796E+04  1.910150E+04 -1.139856E+05 -7.866908E-09  1.156161E-09
       151  12 -1.216708E+05 -1.666799E+04  2.411056E+04 -1.070361E+05 -5.077387E-09  7.051496E-10
       151  13 -2.841022E+05 -7.457016E+04 -1.577140E+02 -1.526788E+05 -8.546658E-09  1.705859E-10
       151  14 -2.863912E+05 -7.228076E+04 -1.582601E+02 -1.500524E+05 -3.198474E-09 -6.769978E-10
       151  15 -2.841059E+05 -7.457977E+04 -2.177453E+02 -1.526762E+05 -1.085869E-09 -1.518510E-09
       151  16 -3.783740E+05 -1.082080E+05 -1.437034E+04 -1.791685E+05 -2.157212E-09 -8.975227E-10
       151  17 -4.147290E+05 -1.180518E+05 -1.941822E+04 -1.861121E+05  9.560884E-10 -2.410927E-09
       151  18 -4.465143E+05 -1.324895E+05 -2.454691E+04 -1.983056E+05  4.063713E-09 -3.043368E-09
       151  19 -1.898195E+05 -4.093088E+04  1.405532E+04 -1.261850E+05 -8.726065E+03  5.438013E+03
       151  20 -1.580355E+05 -2.650787E+04  1.910181E+04 -1.139857E+05 -9.834423E+03  8.234934E+03
       151  21 -1.216706E+05 -1.666783E+04  2.411101E+04 -1.070362E+05 -1.093806E+04  1.101866E+04
       151  22 -2.841022E+05 -7.457010E+04 -1.575890E+02 -1.526788E+05 -2.828251E+03  7.651122E+03
       151  23 -2.863912E+05 -7.228064E+04 -1.580258E+02 -1.500524E+05 -3.963918E+03  1.043808E+04
       151  24 -2.841058E+05 -7.457958E+04 -2.173686E+02 -1.526763E+05 -5.094866E+03  1.321185E+04
       151  25 -3.783740E+05 -1.082079E+05 -1.437014E+04 -1.791685E+05  3.068547E+03  9.863850E+03
       151  26 -4.147289E+05 -1.180516E+05 -1.941791E+04 -1.861121E+05  1.905306E+03  1.264074E+04
       151  27 -4.465143E+05 -1.324892E+05 -2.454646E+04 -1.983056E+05  7.467825E+02  1.540447E+04
       152   1 -1.002781E+05 -9.014844E+03  2.743555E+04 -1.010417E+05  1.159402E+04 -1.263499E+04
       152   2 -6.852563E+04  5.417360E+03  3.240093E+04 -8.884075E+04  1.259659E+04 -1.538002E+04
       152   3 -3.219039E+04  1.527287E+04  3.738492E+04 -8.187355E+04  1.355311E+04 -1.800137E+04
       152   4 -2.841162E+05 -7.458002E+04 -2.722714E+02 -1.526767E+05  5.747926E+03 -1.482951E+04
       152   5 -2.863898E+05 -7.230262E+04 -4.672831E+02 -1.500471E+05  7.008629E+03 -1.747814E+04
       152   6 -2.841329E+05 -7.465332E+04 -8.482281E+02 -1.526519E+05  8.223273E+03 -2.000305E+04
       152   7 -4.679176E+05 -1.401415E+05 -2.798035E+04 -2.042973E+05 -9.634322E+01 -1.702335E+04
       152   8 -5.042011E+05 -1.500170E+05 -3.333556E+04 -2.112329E+05  1.422773E+03 -1.957547E+04
       152   9 -5.360034E+05 -1.645715E+05 -3.908121E+04 -2.234024E+05  2.895785E+03 -2.200385E+04
       152  10 -1.002783E+05 -9.015051E+03  2.743500E+04 -1.010415E+05 -5.819331E-09 -5.421365E-10
       152  11 -6.852586E+04  5.417064E+03  3.240018E+04 -8.884060E+04 -1.841933E-09 -3.694782E-10
       152  12 -3.219067E+04  1.527248E+04  3.738396E+04 -8.187335E+04  5.653721E-10 -5.228146E-10
       152  13 -2.841163E+05 -7.458026E+04 -2.727466E+02 -1.526766E+05  2.392381E-10 -1.091524E-09
       152  14 -2.863900E+05 -7.230296E+04 -4.679493E+02 -1.500470E+05  8.024723E-10 -3.207219E-10
       152  15 -2.841330E+05 -7.465377E+04 -8.491070E+02 -1.526518E+05  1.301145E-09 -6.449533E-10
       152  16 -4.679177E+05 -1.401418E+05 -2.798089E+04 -2.042973E+05  8.633367E-09 -1.748385E-09
       152  17 -5.042012E+05 -1.500174E+05 -3.333629E+04 -2.112328E+05  2.000175E-09 -9.306835E-10
       152  18 -5.360035E+05 -1.645720E+05 -3.908214E+04 -2.234023E+05  2.698478E-10  5.606450E-10
       152  19 -1.002781E+05 -9.014844E+03  2.743555E+04 -1.010417E+05 -1.159402E+04  1.263499E+04
       152  20 -6.852563E+04  5.417360E+03  3.240093E+04 -8.884075E+04 -1.259659E+04  1.538002E+04
       152  21 -3.219039E+04  1.527287E+04  3.738492E+04 -8.187355E+04 -1.355311E+04  1.800137E+04
       152  22 -2.841162E+05 -7.458002E+04 -2.722714E+02 -1.526767E+05 -5.747926E+03  1.482951E+04
       152  23 -2.863898E+05 -7.230262E+04 -4.672831E+02 -1.500471E+05 -7.008629E+03  1.747814E+04
       152  24 -2.841329E+05 -7.465332E+04 -8.482281E+02 -1.526519E+05 -8.223273E+03  2.000305E+04
       152  25 -4.679176E+05 -1.401415E+05 -2.798035E+04 -2.042973E+05  9.634322E+01  1.702335E+04
       152  26 -5.042011E+05 -1.500170E+05 -3.333556E+04 -2.112329E+05 -1.422773E+03  1.957547E+04
       152  27 -5.360034E+05 -1.645715E+05 -3.908121E+04 -2.234024E+05 -2.895785E+03  2.200385E+04
       153   1 -1.076704E+04  2.292174E+04  4.065252E+04 -7.592176E+04  1.431393E+04 -1.946238E+04
       153   2  2.065350E+04  3.748655E+04  4.592615E+04 -6.343268E+04  1.379602E+04 -2.194972E+04
       153   3  5.666787E+04  4.731464E+04  5.207889E+04 -5.597269E+04  1.286030E+04 -2.332372E+04
       153   4 -2.842054E+05 -7.466201E+04 -1.130310E+03 -1.526511E+05  8.950623E+03 -2.147696E+04
       153   5 -2.863575E+05 -7.264634E+04 -2.086244E+03 -1.499188E+05  1.075903E+04 -2.309147E+04
       153   6 -2.843784E+05 -7.582912E+04 -4.006725E+03 -1.522167E+05  1.214963E+04 -2.359227E+04
       153   7 -5.575664E+05 -1.722391E+05 -4.291503E+04 -2.293496E+05  3.589741E+03 -2.349062E+04
       153   8 -5.932689E+05 -1.827700E+05 -5.010074E+04 -2.363652E+05  7.723618E+03 -2.423262E+04
       153   9 -6.253005E+05 -1.989608E+05 -6.009504E+04 -2.484110E+05  1.143938E+04 -2.386066E+04
       153  10 -1.076736E+04  2.292128E+04  4.065142E+04 -7.592154E+04 -1.095196E-10 -2.942104E-11
       153  11  2.065317E+04  3.748598E+04  4.592489E+04 -6.343244E+04 -8.670183E-09 -7.859201E-10
       153  12  5.666755E+04  4.731401E+04  5.207755E+04 -5.597245E+04 -1.089997E-08 -2.986327E-11
       153  13 -2.842057E+05 -7.466252E+04 -1.131327E+03 -1.526510E+05 -1.551504E-09 -1.254848E-09
       153  14 -2.863578E+05 -7.264694E+04 -2.087463E+03 -1.499186E+05 -9.943728E-09 -1.390094E-09
       153  15 -2.843787E+05 -7.582976E+04 -4.008048E+03 -1.522164E+05 -4.598691E-09 -1.105619E-09
       153  16 -5.575666E+05 -1.722397E+05 -4.291609E+04 -2.293495E+05 -6.944078E-09 -8.135138E-10
       153  17 -5.932691E+05 -1.827706E+05 -5.010196E+04 -2.363650E+05 -6.060217E-09 -1.279623E-09
       153  18 -6.253007E+05 -1.989614E+05 -6.009636E+04 -2.484107E+05  2.817999E-09 -1.167754E-09
       153  19 -1.076704E+04  2.292174E+04  4.065252E+04 -7.592176E+04 -1.431393E+04  1.946238E+04
       153  20  2.065350E+04  3.748655E+04  4.592615E+04 -6.343268E+04 -1.379602E+04  2.194972E+04
       153  21  5.666787E+04  4.731464E+04  5.207889E+04 -5.597269E+04 -1.286030E+04  2.332372E+04
       153  22 -2.842054E+05 -7.466201E+04 -1.130310E+03 -1.526511E+05 -8.950623E+03  2.147696E+04
       153  23 -2.863575E+05 -7.264634E+04 -2.086244E+03 -1.499188E+05 -1.075903E+04  2.309147E+04
       153  24 -2.843784E+05 -7.582912E+04 -4.006725E+03 -1.522167E+05 -1.214963E+04  2.359227E+04
       153  25 -5.575664E+05 -1.722391E+05 -4.291503E+04 -2.293496E+05 -3.589741E+03  2.349062E+04
       153  26 -5.932689E+05 -1.827700E+05 -5.010074E+04 -2.363652E+05 -7.723618E+03  2.423262E+04
       153  27 -6.253005E+05 -1.989608E+05 -6.009504E+04 -2.484110E+05 -1.143938E+04  2.386066E+04
       154   1  7.850491E+04  5.472436E+04  5.581163E+04 -5.044729E+04  1.401506E+04 -2.359814E+04
       154   2  1.053738E+05  7.083884E+04  6.677712E+04 -3.278186E+04 -3.362461E+03 -2.494173E+04
       154   3  1.364028E+05  7.831164E+04  8.802090E+04 -1.754628E+04 -2.452364E+04 -1.622249E+04
       154   4 -2.850985E+05 -7.608156E+04 -5.392745E+03 -1.521812E+05  1.298923E+04 -2.398519E+04
       154   5 -2.862519E+05 -7.783160E+04 -1.037321E+04 -1.479061E+05  1.664681E+04 -1.742711E+04
       154   6 -2.874151E+05 -9.239351E+04 -2.174412E+04 -1.460617E+05  1.652084E+04 -8.023041E+02
       154   7 -6.485602E+05 -2.068740E+05 -6.660030E+04 -2.538590E+05  1.196403E+04 -2.437201E+04
       154   8 -6.777101E+05 -2.264817E+05 -8.752685E+04 -2.629594E+05  3.664221E+04 -9.918196E+03
       154   9 -7.110390E+05 -2.630720E+05 -1.315130E+05 -2.744895E+05  5.753336E+04  1.460385E+04
       154  10  7.850455E+04  5.472371E+04  5.581021E+04 -5.044702E+04 -4.364463E-09  4.765247E-10
       154  11  1.053736E+05  7.083817E+04  6.677593E+04 -3.278193E+04  1.017103E-08  9.243320E-10
       154  12  1.364020E+05  7.831120E+04  8.801928E+04 -1.754660E+04  9.023816E-09  2.480110E-09
       154  13 -2.850988E+05 -7.608222E+04 -5.394142E+03 -1.521809E+05  3.872977E-09  1.885244E-10
       154  14 -2.862522E+05 -7.783200E+04 -1.037430E+04 -1.479058E+05  4.323963E-09  2.661289E-09
       154  15 -2.874153E+05 -9.239359E+04 -2.174464E+04 -1.460617E+05  2.884554E-09  1.868691E-09
       154  16 -6.485605E+05 -2.068746E+05 -6.660169E+04 -2.538588E+05  9.545127E-09  6.385238E-10
       154  17 -6.777115E+05 -2.264821E+05 -8.752956E+04 -2.629591E+05  6.683982E-09  3.395738E-09
       154  18 -7.110426E+05 -2.630731E+05 -1.315196E+05 -2.744902E+05 -9.462520E-10 -2.896638E-10
       154  19  7.850491E+04  5.472436E+04  5.581163E+04 -5.044729E+04 -1.401506E+04  2.359814E+04
       154  20  1.053738E+05  7.083884E+04  6.677712E+04 -3.278186E+04  3.362461E+03  2.494173E+04
       154  21  1.364028E+05  7.831164E+04  8.802090E+04 -1.754628E+04  2.452364E+04  1.622249E+04
       154  22 -2.850985E+05 -7.608156E+04 -5.392745E+03 -1.521812E+05 -1.298923E+04  2.398519E+04
       154  23 -2.862519E+05 -7.783160E+04 -1.037321E+04 -1.479061E+05 -1.664681E+04  1.742711E+04
       154  24 -2.874151E+05 -9.239351E+04 -2.174412E+04 -1.460617E+05 -1.652084E+04  8.023041E+02
       154  25 -6.485602E+05 -2.068740E+05 -6.660030E+04 -2.538590E+05 -1.196403E+04  2.437201E+04
       154  26 -6.777101E+05 -2.264817E+05 -8.752685E+04 -2.629594E+05 -3.664221E+04  9.918196E+03
       154  27 -7.110390E+05 -2.630720E+05 -1.315130E+05 -2.744895E+05 -5.753336E+04 -1.460385E+04
       155   1 -1.642904E+05 -2.798536E+04 -5.173173E+04 -1.948818E+04 -7.188735E+04 -2.343518E+03
       155   2 -1.625442E+05  6.840911E+04  5.458199E+03 -5.886706E+03 -4.830245E+04 -6.967965E+03
       155   3 -1.909069E+05  5.648268E+04  2.022549E+04  1.800504E+04 -2.472242E+04 -6.534071E+03
       155   4 -4.007114E+05 -8.692228E+04 -1.101300E+05  6.684274E+03 -7.530751E+04 -2.349014E+03
       155   5 -3.854321E+05  1.311957E+04 -4.811304E+04  1.504769E+03 -4.930447E+04 -6.969554E+03
       155   6 -4.006940E+05  4.398224E+03 -3.021011E+04  6.615960E+03 -2.330570E+04 -6.532378E+03
       155   7 -6.370800E+05 -1.458608E+05 -1.685320E+05  3.284674E+04 -7.872637E+04 -2.354800E+03
       155   8 -6.082744E+05 -4.217337E+04 -1.016878E+05  8.893569E+03 -5.030613E+04 -6.971167E+03
       155   9 -6.104405E+05 -4.768895E+04 -8.064878E+04 -4.769261E+03 -2.188945E+04 -6.530736E+03
       155  10 -1.642960E+05 -2.798675E+04 -5.174145E+04 -1.948832E+04 -1.018927E-10  4.823395E-10
       155  11 -1.625467E+05  6.840844E+04  5.453722E+03 -5.886977E+03 -2.569994E-09 -4.717008E-11
       155  12 -1.909076E+05  5.648247E+04  2.022426E+04  1.800491E+04 -2.529820E-09 -1.740879E-09
       155  13 -4.007175E+05 -8.692381E+04 -1.101407E+05  6.684131E+03 -1.925583E-09  1.060669E-09
       155  14 -3.854347E+05  1.311887E+04 -4.811770E+04  1.504492E+03  1.710100E-09  6.993188E-10
       155  15 -4.006946E+05  4.398033E+03 -3.021121E+04  6.615838E+03  1.044334E-09  2.414126E-10
       155  16 -6.370867E+05 -1.458625E+05 -1.685436E+05  3.284659E+04 -7.203155E-10  5.504468E-10
       155  17 -6.082771E+05 -4.217410E+04 -1.016926E+05  8.893287E+03  4.005393E-09 -1.260103E-09
       155  18 -6.104410E+05 -4.768912E+04 -8.064976E+04 -4.769376E+03  3.274842E-09 -2.408985E-09
       155  19 -1.642904E+05 -2.798536E+04 -5.173173E+04 -1.948818E+04  7.188735E+04  2.343518E+03
       155  20 -1.625442E+05  6.840911E+04  5.458199E+03 -5.886706E+03  4.830245E+04  6.967965E+03
       155  21 -1.909069E+05  5.648268E+04  2.022549E+04  1.800504E+04  2.472242E+04  6.534071E+03
       155  22 -4.007114E+05 -8.692228E+04 -1.101300E+05  6.684274E+03  7.530751E+04  2.349014E+03
       155  23 -3.854321E+05  1.311957E+04 -4.811304E+04  1.504769E+03  4.930447E+04  6.969554E+03
       155  24 -4.006940E+05  4.398224E+03 -3.021011E+04  6.615960E+03  2.330570E+04  6.532378E+03
       155  25 -6.370800E+05 -1.458608E+05 -1.685320E+05  3.284674E+04  7.872637E+04  2.354800E+03
       155  26 -6.082744E+05 -4.217337E+04 -1.016878E+05  8.893569E+03  5.030613E+04  6.971167E+03
       155  27 -6.104405E+05 -4.768895E+04 -8.064878E+04 -4.769261E+03  2.188945E+04  6.530736E+03
       156   1 -2.041183E+05  3.787913E+04  2.127895E+04  4.285205E+03 -1.856158E+04 -5.495516E+03
       156   2 -2.158355E+05  4.539765E+04  3.010042E+04  8.992707E+02 -1.233776E+04 -5.357841E+03
       156   3 -2.313186E+05  4.106324E+04  3.190779E+04  8.170204E+03 -6.114578E+03 -4.815072E+03
       156   4 -3.947536E+05 -9.446409E+03 -2.468321E+04  6.727281E+03 -1.859199E+04 -5.495736E+03
       156   5 -3.928515E+05  1.464713E+03 -1.249825E+04  1.393311E+03 -1.217555E+04 -5.357765E+03
       156   6 -3.947500E+05  4.875667E+02 -7.462705E+03  6.716414E+03 -5.759622E+03 -4.814689E+03
       156   7 -5.853556E+05 -5.677458E+04 -7.064796E+04  9.168596E+03 -1.862238E+04 -5.495957E+03
       156   8 -5.698388E+05 -4.247051E+04 -5.509915E+04  1.887201E+03 -1.201339E+04 -5.357690E+03
       156   9 -5.581570E+05 -4.009005E+04 -4.683510E+04  5.263000E+03 -5.404760E+03 -4.814307E+03
       156  10 -2.041187E+05  3.787901E+04  2.127825E+04  4.285123E+03 -6.377334E-09 -3.561968E-09
       156  11 -2.158357E+05  4.539758E+04  3.010008E+04  8.992174E+02  1.780519E-09 -1.743184E-10
       156  12 -2.313187E+05  4.106321E+04  3.190767E+04  8.170180E+03  4.084573E-09  2.783158E-09
       156  13 -3.947540E+05 -9.446534E+03 -2.468391E+04  6.727199E+03  1.607251E-09 -2.422089E-09
       156  14 -3.928517E+05  1.464642E+03 -1.249858E+04  1.393258E+03 -6.280970E-10 -1.563530E-09
       156  15 -3.947501E+05  4.875329E+02 -7.462811E+03  6.716391E+03  1.422599E-09  8.650000E-12
       156  16 -5.853560E+05 -5.677470E+04 -7.064867E+04  9.168513E+03  4.863186E-09 -1.177529E-09
       156  17 -5.698390E+05 -4.247058E+04 -5.509947E+04  1.887149E+03 -1.535320E-10 -1.346645E-09
       156  18 -5.581570E+05 -4.009008E+04 -4.683520E+04  5.262979E+03 -4.566262E-09  1.214222E-09
       156  19 -2.041183E+05  3.787913E+04  2.127895E+04  4.285205E+03  1.856158E+04  5.495516E+03
       156  20 -2.158355E+05  4.539765E+04  3.010042E+04  8.992707E+02  1.233776E+04  5.357841E+03
       156  21 -2.313186E+05  4.106324E+04  3.190779E+04  8.170204E+03  6.114578E+03  4.815072E+03
       156  22 -3.947536E+05 -9.446409E+03 -2.468321E+04  6.727281E+03  1.859199E+04  5.495736E+03
       156  23 -3.928515E+05  1.464713E+03 -1.249825E+04  1.393311E+03  1.217555E+04  5.357765E+03
       156  24 -3.947500E+05  4.875667E+02 -7.462705E+03  6.716414E+03  5.759622E+03  4.814689E+03
       156  25 -5.853556E+05 -5.677458E+04 -7.064796E+04  9.168596E+03  1.862238E+04  5.495957E+03
       156  26 -5.698388E+05 -4.247051E+04 -5.509915E+04  1.887201E+03  1.201339E+04  5.357690E+03
       156  27 -5.581570E+05 -4.009005E+04 -4.683510E+04  5.263000E+03  5.404760E+03  4.814307E+03
       157   1 -2.501926E+05  3.469436E+04  2.872761E+04  6.701912E+03 -4.822572E+03 -4.437321E+03
       157   2 -2.637947E+05  3.242532E+04  2.807361E+04  1.441020E+03 -3.230741E+03 -3.916099E+03
       157   3 -2.779374E+05  2.889218E+04  2.606323E+04  7.055451E+03 -1.639148E+03 -3.359195E+03
       157   4 -3.940250E+05 -9.989694E+02 -5.858453E+03  6.769442E+03 -4.581338E+03 -4.437069E+03
       157   5 -3.937525E+05  1.685305E+02 -3.205226E+03  1.330979E+03 -2.972723E+03 -3.915788E+03
       157   6 -3.940238E+05  6.885632E+01 -1.920270E+03  6.767984E+03 -1.364311E+03 -3.358824E+03
       157   7 -5.378384E+05 -3.669381E+04 -4.044599E+04  6.836950E+03 -4.340160E+03 -4.436816E+03
       157   8 -5.236948E+05 -3.208949E+04 -3.448527E+04  1.220955E+03 -2.714759E+03 -3.915478E+03
       157   9 -5.100980E+05 -2.875546E+04 -2.990474E+04  6.480567E+03 -1.089526E+03 -3.358453E+03
       157  10 -2.501927E+05  3.469433E+04  2.872753E+04  6.701894E+03  8.564125E-10  3.889383E-09
       157  11 -2.637947E+05  3.242530E+04  2.807357E+04  1.441010E+03  5.436393E-10  2.246563E-09
       157  12 -2.779374E+05  2.889217E+04  2.606321E+04  7.055446E+03 -1.604953E-09  9.220484E-11
       157  13 -3.940250E+05 -9.989962E+02 -5.858530E+03  6.769426E+03  9.893276E-10  4.500080E-10
       157  14 -3.937525E+05  1.685116E+02 -3.205271E+03  1.330969E+03  3.186300E-10  1.934021E-09
       157  15 -3.940238E+05  6.884370E+01 -1.920295E+03  6.767980E+03  1.160647E-09  3.916912E-09
       157  16 -5.378384E+05 -3.669383E+04 -4.044606E+04  6.836935E+03 -2.863941E-09  2.615612E-09
       157  17 -5.236948E+05 -3.208951E+04 -3.448531E+04  1.220947E+03  9.481588E-10  2.550710E-09
       157  18 -5.100980E+05 -2.875547E+04 -2.990476E+04  6.480564E+03  9.125961E-10  3.013940E-09
       157  19 -2.501926E+05  3.469436E+04  2.872761E+04  6.701912E+03  4.822572E+03  4.437321E+03
       157  20 -2.637947E+05  3.242532E+04  2.807361E+04  1.441020E+03  3.230741E+03  3.916099E+03
       157  21 -2.779374E+05  2.889218E+04  2.606323E+04  7.055451E+03  1.639148E+03  3.359195E+03
       157  22 -3.940250E+05 -9.989694E+02 -5.858453E+03  6.769442E+03  4.581338E+03  4.437069E+03
       157  23 -3.937525E+05  1.685305E+02 -3.205226E+03  1.330979E+03  2.972723E+03  3.915788E+03
       157  24 -3.940238E+05  6.885632E+01 -1.920270E+03  6.767984E+03  1.364311E+03  3.358824E+03
       157  25 -5.378384E+05 -3.669381E+04 -4.044599E+04  6.836950E+03  4.340160E+03  4.436816E+03
       157  26 -5.236948E+05 -3.208949E+04 -3.448527E+04  1.220955E+03  2.714759E+03  3.915478E+03
       157  27 -5.100980E+05 -2.875546E+04 -2.990474E+04  6.480567E+03  1.089526E+03  3.358453E+03
       158   1 -2.977772E+05  2.377308E+04  2.158138E+04  6.904830E+03 -1.322538E+03 -3.029412E+03
       158   2 -3.117778E+05  2.040175E+04  1.878547E+04  1.391519E+03 -8.422749E+02 -2.471356E+03
       158   3 -3.259054E+05  1.691281E+04  1.563990E+04  6.903117E+03 -3.621394E+02 -1.908331E+03
       158   4 -3.939302E+05 -8.527009E+01 -1.519994E+03  6.801794E+03 -1.056205E+03 -3.029034E+03
       158   5 -3.938661E+05  2.588212E+01 -9.727279E+02  1.289213E+03 -5.736287E+02 -2.470951E+03
       158   6 -3.939297E+05  1.896834E+01 -7.768206E+02  6.801632E+03 -9.116864E+01 -1.907900E+03
       158   7 -4.900747E+05 -2.394429E+04 -2.462203E+04  6.698771E+03 -7.899144E+02 -3.028655E+03
       158   8 -4.759482E+05 -2.035048E+04 -2.073141E+04  1.186918E+03 -3.050180E+02 -2.470547E+03
       158   9 -4.619498E+05 -1.687521E+04 -1.719387E+04  6.700156E+03  1.797725E+02 -1.907468E+03
       158  10 -2.977772E+05  2.377307E+04  2.158136E+04  6.904827E+03  1.851945E-09  1.875701E-10
       158  11 -3.117778E+05  2.040174E+04  1.878546E+04  1.391517E+03  8.021804E-11  4.044159E-09
       158  12 -3.259054E+05  1.691280E+04  1.563989E+04  6.903117E+03 -1.876123E-09  3.245380E-09
       158  13 -3.939302E+05 -8.528024E+01 -1.520013E+03  6.801791E+03  7.893052E-10  1.610200E-09
       158  14 -3.938661E+05  2.587548E+01 -9.727400E+02  1.289212E+03 -1.133871E-09  2.767640E-09
       158  15 -3.939297E+05  1.896443E+01 -7.768275E+02  6.801632E+03 -1.576819E-09  1.049636E-09
       158  16 -4.900747E+05 -2.394430E+04 -2.462205E+04  6.698769E+03 -2.728334E-09  1.330208E-09
       158  17 -4.759482E+05 -2.035048E+04 -2.073142E+04  1.186918E+03  8.466680E-10 -2.513722E-09
       158  18 -4.619498E+05 -1.687521E+04 -1.719388E+04  6.700157E+03  3.821602E-09  4.782372E-11
       158  19 -2.977772E+05  2.377308E+04  2.158138E+04  6.904830E+03  1.322538E+03  3.029412E+03
       158  20 -3.117778E+05  2.040175E+04  1.878547E+04  1.391519E+03  8.422749E+02  2.471356E+03
       158  21 -3.259054E+05  1.691281E+04  1.563990E+04  6.903117E+03  3.621394E+02  1.908331E+03
       158  22 -3.939302E+05 -8.527009E+01 -1.519994E+03  6.801794E+03  1.056205E+03  3.029034E+03
       158  23 -3.938661E+05  2.588212E+01 -9.727279E+02  1.289213E+03  5.736287E+02  2.470951E+03
       158  24 -3.939297E+05  1.896834E+01 -7.768206E+02  6.801632E+03  9.116864E+01  1.907900E+03
       158  25 -4.900747E+05 -2.394429E+04 -2.462203E+04  6.698771E+03  7.899144E+02  3.028655E+03
       158  26 -4.759482E+05 -2.035048E+04 -2.073141E+04  1.186918E+03  3.050180E+02  2.470547E+03
       158  27 -4.619498E+05 -1.687521E+04 -1.719387E+04  6.700156E+03 -1.797725E+02  1.907468E+03
       159   1 -3.460512E+05  1.189311E+04  1.071229E+04  6.864562E+03 -2.231899E+02 -1.579245E+03
       159   2 -3.601535E+05  8.393882E+03  7.188198E+03  1.304372E+03  2.361657E+02 -1.013878E+03
       159   3 -3.743874E+05  4.787992E+03  3.328576E+03  6.853082E+03  6.954755E+02 -4.486087E+02
       159   4 -3.939299E+05  1.716541E+01 -7.688982E+02  6.820290E+03  4.772601E+01 -1.578803E+03
       159   5 -3.938640E+05  2.604174E+01 -9.260191E+02  1.265896E+03  5.070106E+02 -1.013427E+03
       159   6 -3.939298E+05 -7.166728E+01 -1.418569E+03  6.820441E+03  9.662599E+02 -4.481476E+02
       159   7 -4.418065E+05 -1.185895E+04 -1.225024E+04  6.776019E+03  3.186211E+02 -1.578360E+03
       159   8 -4.275736E+05 -8.341882E+03 -9.040317E+03  1.227423E+03  7.778409E+02 -1.012975E+03
       159   9 -4.134719E+05 -4.931355E+03 -6.165741E+03  6.787802E+03  1.237036E+03 -4.476866E+02
       159  10 -3.460512E+05  1.189311E+04  1.071228E+04  6.864562E+03  3.942192E-09  9.742617E-10
       159  11 -3.601535E+05  8.393881E+03  7.188196E+03  1.304372E+03  2.017469E-09 -1.650486E-10
       159  12 -3.743874E+05  4.787992E+03  3.328574E+03  6.853082E+03 -1.028678E-09 -1.553294E-09
       159  13 -3.939299E+05  1.716273E+01 -7.689029E+02  6.820290E+03  2.763384E-09  5.075176E-09
       159  14 -3.938640E+05  2.604057E+01 -9.260215E+02  1.265897E+03 -3.198671E-09  7.538622E-10
       159  15 -3.939298E+05 -7.166775E+01 -1.418571E+03  6.820442E+03 -2.009435E-10 -2.102062E-09
       159  16 -4.418065E+05 -1.185895E+04 -1.225025E+04  6.776020E+03 -1.270528E-09  3.537790E-09
       159  17 -4.275736E+05 -8.341883E+03 -9.040320E+03  1.227423E+03  1.830746E-09 -1.422603E-09
       159  18 -4.134719E+05 -4.931356E+03 -6.165744E+03  6.787803E+03  3.873577E-09 -1.548434E-09
       159  19 -3.460512E+05  1.189311E+04  1.071229E+04  6.864562E+03  2.231899E+02  1.579245E+03
       159  20 -3.601535E+05  8.393882E+03  7.188198E+03  1.304372E+03 -2.361657E+02  1.013878E+03
       159  21 -3.743874E+05  4.787992E+03  3.328576E+03  6.853082E+03 -6.954755E+02  4.486087E+02
       159  22 -3.939299E+05  1.716541E+01 -7.688982E+02  6.820290E+03 -4.772601E+01  1.578803E+03
       159  23 -3.938640E+05  2.604174E+01 -9.260191E+02  1.265896E+03 -5.070106E+02  1.013427E+03
       159  24 -3.939298E+05 -7.166728E+01 -1.418569E+03  6.820441E+03 -9.662599E+02  4.481476E+02
       159  25 -4.418065E+05 -1.185895E+04 -1.225024E+04  6.776019E+03 -3.186211E+02  1.578360E+03
       159  26 -4.275736E+05 -8.341882E+03 -9.040317E+03  1.227423E+03 -7.778409E+02  1.012975E+03
       159  27 -4.134719E+05 -4.931355E+03 -6.165741E+03  6.787802E+03 -1.237036E+03  4.476866E+02
       160   1 -3.947076E+05 -1.112575E+02 -1.993850E+03  6.678145E+03  9.773940E+02 -1.158824E+02
       160   2 -4.086274E+05 -3.532049E+03 -6.541824E+03  1.268859E+03  2.472108E+03  4.525173E+02
       160   3 -4.230792E+05 -8.115585E+03 -1.236409E+04  6.982258E+03  3.966834E+03  1.003145E+03
       160   4 -3.940184E+05  6.909033E+01 -1.784606E+03  6.822859E+03  1.253147E+03 -1.154108E+02
       160   5 -3.937533E+05  1.600503E+02 -2.961744E+03  1.262351E+03  2.739366E+03  4.529697E+02
       160   6 -3.940189E+05 -9.102177E+02 -5.407220E+03  6.824517E+03  4.225630E+03  1.003578E+03
       160   7 -3.933291E+05  2.494383E+02 -1.575362E+03  6.967573E+03  1.528900E+03 -1.149390E+02
       160   8 -3.788790E+05  3.852134E+03  6.183203E+02  1.255843E+03  3.006630E+03  4.534221E+02
       160   9 -3.649579E+05  6.295089E+03  1.549593E+03  6.666767E+03  4.484439E+03  1.004011E+03
       160  10 -3.947076E+05 -1.112578E+02 -1.993852E+03  6.678146E+03 -4.298267E-09  1.596070E-09
       160  11 -4.086274E+05 -3.532051E+03 -6.541836E+03  1.268858E+03  2.760724E-09  2.047862E-09
       160  12 -4.230793E+05 -8.115591E+03 -1.236412E+04  6.982255E+03  1.746295E-09  2.275240E-09
       160  13 -3.940184E+05  6.908989E+01 -1.784609E+03  6.822859E+03  9.180913E-10 -3.455303E-11
       160  14 -3.937533E+05  1.600480E+02 -2.961759E+03  1.262350E+03 -1.991160E-09  1.273425E-10
       160  15 -3.940190E+05 -9.102236E+02 -5.407256E+03  6.824513E+03 -1.317402E-09 -9.189175E-10
       160  16 -3.933291E+05  2.494376E+02 -1.575367E+03  6.967573E+03  3.604662E-09  2.477150E-09
       160  17 -3.788790E+05  3.852131E+03  6.183029E+02  1.255842E+03  1.035082E-09 -2.041341E-09
       160  18 -3.649579E+05  6.295082E+03  1.549553E+03  6.666763E+03 -6.015867E-09  2.691847E-09
       160  19 -3.947076E+05 -1.112575E+02 -1.993850E+03  6.678145E+03 -9.773940E+02  1.158824E+02
       160  20 -4.086274E+05 -3.532049E+03 -6.541824E+03  1.268859E+03 -2.472108E+03 -4.525173E+02
       160  21 -4.230792E+05 -8.115585E+03 -1.236409E+04  6.982258E+03 -3.966834E+03 -1.003145E+03
       160  22 -3.940184E+05  6.909033E+01 -1.784606E+03  6.822859E+03 -1.253147E+03  1.154108E+02
       160  23 -3.937533E+05  1.600503E+02 -2.961744E+03  1.262351E+03 -2.739366E+03 -4.529697E+02
       160  24 -3.940189E+05 -9.102177E+02 -5.407220E+03  6.824517E+03 -4.225630E+03 -1.003578E+03
       160  25 -3.933291E+05  2.494383E+02 -1.575362E+03  6.967573E+03 -1.528900E+03  1.149390E+02
       160  26 -3.788790E+05  3.852134E+03  6.183203E+02  1.255843E+03 -3.006630E+03 -4.534221E+02
       160  27 -3.649579E+05  6.295089E+03  1.549593E+03  6.666767E+03 -4.484439E+03 -1.004011E+03
       161   1 -4.439400E+05 -1.177895E+04 -1.878184E+04  5.550800E+03  4.991429E+03  1.365310E+03
       161   2 -4.562783E+05 -1.436787E+04 -2.677419E+04  1.798614E+03  1.101389E+04  1.934254E+03
       161   3 -4.721849E+05 -2.792972E+04 -4.144131E+04  9.119590E+03  1.703653E+04  2.281387E+03
       161   4 -3.946899E+05  4.596463E+02 -6.886553E+03  6.807734E+03  5.313092E+03  1.365852E+03
       161   5 -3.929164E+05  1.358057E+03 -1.152542E+04  1.278511E+03  1.122967E+04  1.934582E+03
       161   6 -3.946928E+05 -8.697461E+03 -2.276496E+04  6.822444E+03  1.714657E+04  2.281478E+03
       161   7 -3.454377E+05  1.269807E+04  5.008564E+03  8.064767E+03  5.634781E+03  1.366395E+03
       161   8 -3.295510E+05  1.708369E+04  3.723077E+03  7.583529E+02  1.144548E+04  1.934911E+03
       161   9 -3.171952E+05  1.053438E+04 -4.089040E+03  4.525008E+03  1.725662E+04  2.281569E+03
       161  10 -4.439400E+05 -1.177895E+04 -1.878189E+04  5.550794E+03 -7.554476E-09  4.604270E-09
       161  11 -4.562784E+05 -1.436790E+04 -2.677443E+04  1.798597E+03 -2.051210E-09  3.264613E-09
       161  12 -4.721852E+05 -2.792980E+04 -4.144186E+04  9.119558E+03  2.377278E-09  3.160840E-09
       161  13 -3.946900E+05  4.596367E+02 -6.886610E+03  6.807728E+03 -2.320305E-09 -1.404882E-09
       161  14 -3.929166E+05  1.358019E+03 -1.152566E+04  1.278493E+03 -3.038219E-09 -8.927943E-12
       161  15 -3.946931E+05 -8.697546E+03 -2.276552E+04  6.822412E+03  1.819692E-09 -8.905669E-12
       161  16 -3.454377E+05  1.269806E+04  5.008501E+03  8.064761E+03  3.797274E-09  3.831264E-09
       161  17 -3.295511E+05  1.708365E+04  3.722824E+03  7.583350E+02  3.289583E-09  4.857894E-10
       161  18 -3.171955E+05  1.053430E+04 -4.089610E+03  4.524976E+03 -2.774360E-09 -2.297697E-09
       161  19 -4.439400E+05 -1.177895E+04 -1.878184E+04  5.550800E+03 -4.991429E+03 -1.365310E+03
       161  20 -4.562783E+05 -1.436787E+04 -2.677419E+04  1.798614E+03 -1.101389E+04 -1.934254E+03
       161  21 -4.721849E+05 -2.792972E+04 -4.144131E+04  9.119590E+03 -1.703653E+04 -2.281387E+03
       161  22 -3.946899E+05  4.596463E+02 -6.886553E+03  6.807734E+03 -5.313092E+03 -1.365852E+03
       161  23 -3.929164E+05  1.358057E+03 -1.152542E+04  1.278511E+03 -1.122967E+04 -1.934582E+03
       161  24 -3.946928E+05 -8.697461E+03 -2.276496E+04  6.822444E+03 -1.714657E+04 -2.281478E+03
       161  25 -3.454377E+05  1.269807E+04  5.008564E+03  8.064767E+03 -5.634781E+03 -1.366395E+03
       161  26 -3.295510E+05  1.708369E+04  3.723077E+03  7.583529E+02 -1.144548E+04 -1.934911E+03
       161  27 -3.171952E+05  1.053438E+04 -4.089040E+03  4.525008E+03 -1.725662E+04 -2.281569E+03
       162   1 -4.976733E+05 -2.017120E+04 -5.132735E+04 -3.721369E+03  2.058666E+04  3.010021E+03
       162   2 -4.974847E+05 -1.551531E+04 -7.114494E+04  8.146313E+03  4.589419E+04  3.543606E+03
       162   3 -5.257592E+05 -1.113984E+05 -1.325875E+05  3.098314E+04  7.120568E+04  1.292195E+03
       162   4 -4.001737E+05  4.070305E+03 -2.786239E+04  6.750820E+03  2.149416E+04  3.011753E+03
       162   5 -3.860683E+05  1.210962E+04 -4.436749E+04  1.326831E+03  4.546889E+04  3.542418E+03
       162   6 -4.001895E+05 -8.014983E+04 -1.015663E+05  6.872393E+03  6.944819E+04  1.286895E+03
       162   7 -3.026651E+05  2.831153E+04 -4.398042E+03  1.722466E+04  2.240180E+04  3.013516E+03
       162   8 -2.746405E+05  3.973383E+04 -1.759090E+04 -5.493885E+03  4.504352E+04  3.541239E+03
       162   9 -2.746043E+05 -4.890019E+04 -7.054583E+04 -1.724325E+04  6.769035E+04  1.281732E+03
       162  10 -4.976737E+05 -2.017133E+04 -5.132816E+04 -3.721419E+03  2.406260E-10  1.361540E-09
       162  11 -4.974870E+05 -1.551589E+04 -7.114893E+04  8.146182E+03 -7.878250E-10 -1.050435E-09
       162  12 -5.257646E+05 -1.113998E+05 -1.325971E+05  3.098307E+04  4.800774E-10 -4.920127E-10
       162  13 -4.001742E+05  4.070171E+03 -2.786327E+04  6.750768E+03 -5.198090E-10  4.029204E-09
       162  14 -3.860706E+05  1.210905E+04 -4.437140E+04  1.326701E+03  5.615831E-10 -2.764894E-09
       162  15 -4.001947E+05 -8.015112E+04 -1.015753E+05  6.872321E+03 -3.675913E-10  2.055526E-09
       162  16 -3.026656E+05  2.831138E+04 -4.399003E+03  1.722460E+04 -9.354386E-10  1.882022E-09
       162  17 -2.746426E+05  3.973327E+04 -1.759474E+04 -5.494014E+03  1.530539E-09  1.630552E-09
       162  18 -2.746092E+05 -4.890142E+04 -7.055445E+04 -1.724332E+04  1.443317E-09 -5.174413E-10
       162  19 -4.976733E+05 -2.017120E+04 -5.132735E+04 -3.721369E+03 -2.058666E+04 -3.010021E+03
       162  20 -4.974847E+05 -1.551531E+04 -7.114494E+04  8.146313E+03 -4.589419E+04 -3.543606E+03
       162  21 -5.257592E+05 -1.113984E+05 -1.325875E+05  3.098314E+04 -7.120568E+04 -1.292195E+03
       162  22 -4.001737E+05  4.070305E+03 -2.786239E+04  6.750820E+03 -2.149416E+04 -3.011753E+03
       162  23 -3.860683E+05  1.210962E+04 -4.436749E+04  1.326831E+03 -4.546889E+04 -3.542418E+03
       162  24 -4.001895E+05 -8.014983E+04 -1.015663E+05  6.872393E+03 -6.944819E+04 -1.286895E+03
       162  25 -3.026651E+05  2.831153E+04 -4.398042E+03  1.722466E+04 -2.240180E+04 -3.013516E+03
       162  26 -2.746405E+05  3.973383E+04 -1.759090E+04 -5.493885E+03 -4.504352E+04 -3.541239E+03
       162  27 -2.746043E+05 -4.890019E+04 -7.054583E+04 -1.724325E+04 -6.769035E+04 -1.281732E+03
       163   1  1.757464E+05  9.812096E+05  1.906770E+05 -9.441063E+04  4.407726E+03  7.018961E+04
       163   2  7.183168E+04  8.703130E+05  1.141877E+05 -4.935553E+04  1.261718E+04  3.726713E+04
       163   3  4.690868E+04  7.833929E+05  7.884807E+04 -4.954866E+04  9.731104E+03  4.340823E+03
       163   4  7.541968E+04  5.779037E+05  9.230232E+04 -6.036936E+04  4.420572E+03  5.895207E+04
       163   5 -2.686417E+03  5.667176E+05  4.506811E+04 -3.777877E+04  1.262020E+04  3.510695E+04
       163   6 -3.353449E+03  5.779409E+05  3.270256E+04 -6.043394E+04  9.724257E+03  1.125261E+04
       163   7 -2.491460E+04  1.747487E+05 -6.083098E+03 -2.635020E+04  4.432192E+03  4.772179E+04
       163   8 -7.721039E+04  2.632078E+05 -2.405741E+04 -2.620768E+04  1.262314E+04  3.294780E+04
       163   9 -5.361799E+04  3.725286E+05 -1.344539E+04 -7.131558E+04  9.717166E+03  1.816214E+04
       163  10  1.757450E+05  9.812043E+05  1.906677E+05 -9.441088E+04 -2.052458E-09  1.695878E-10
       163  11  7.183114E+04  8.703115E+05  1.141848E+05 -4.935591E+04 -6.962463E-09 -2.290159E-09
       163  12  4.690858E+04  7.833928E+05  7.884785E+04 -4.954870E+04 -2.077795E-09 -1.150863E-09
       163  13  7.541873E+04  5.779000E+05  9.229576E+04 -6.036957E+04  5.579493E-10 -8.801576E-11
       163  14 -2.686919E+03  5.667162E+05  4.506550E+04 -3.777912E+04 -9.478472E-10  7.556966E-10
       163  15 -3.353584E+03  5.779408E+05  3.270214E+04 -6.043403E+04 -5.373843E-10 -1.425651E-09
       163  16 -2.491523E+04  1.747463E+05 -6.087413E+03 -2.635037E+04  6.457911E-10  1.945113E-10
       163  17 -7.721085E+04  2.632066E+05 -2.405974E+04 -2.620802E+04  3.758693E-09 -3.201213E-10
       163  18 -5.361818E+04  3.725282E+05 -1.344618E+04 -7.131572E+04  2.866961E-09  1.445506E-09
       163  19  1.757464E+05  9.812096E+05  1.906770E+05 -9.441063E+04 -4.407726E+03 -7.018961E+04
       163  20  7.183168E+04  8.703130E+05  1.141877E+05 -4.935553E+04 -1.261718E+04 -3.726713E+04
       163  21  4.690868E+04  7.833929E+05  7.884807E+04 -4.954866E+04 -9.731104E+03 -4.340823E+03
       163  22  7.541968E+04  5.779037E+05  9.230232E+04 -6.036936E+04 -4.420572E+03 -5.895207E+04
       163  23 -2.686417E+03  5.667176E+05  4.506811E+04 -3.777877E+04 -1.262020E+04 -3.510695E+04
       163  24 -3.353449E+03  5.779409E+05  3.270256E+04 -6.043394E+04 -9.724257E+03 -1.125261E+04
       163  25 -2.491460E+04  1.747487E+05 -6.083098E+03 -2.635020E+04 -4.432192E+03 -4.772179E+04
       163  26 -7.721039E+04  2.632078E+05 -2.405741E+04 -2.620768E+04 -1.262314E+04 -3.294780E+04
       163  27 -5.361799E+04  3.725286E+05 -1.344539E+04 -7.131558E+04 -9.717166E+03 -1.816214E+04
       164   1  3.352499E+04  6.930659E+05  5.738055E+04 -6.391819E+04  5.488731E+03  2.331839E+03
       164   2  4.248350E+03  5.916282E+05  3.453296E+04 -3.735055E+04  9.695898E+02 -1.282709E+04
       164   3 -1.027973E+04  4.957509E+05  2.520988E+04 -5.639426E+04 -3.594503E+03 -2.798394E+04
       164   4  4.403441E+03  5.741959E+05  3.060027E+04 -6.049718E+04  5.484957E+03  6.016183E+03
       164   5 -6.971620E+02  5.714231E+05  2.999310E+04 -3.768941E+04  9.657394E+02 -9.105313E+03
       164   6  8.945032E+03  5.741946E+05  4.288515E+04 -6.049247E+04 -3.598282E+03 -2.422707E+04
       164   7 -2.471903E+04  4.553390E+05  3.819153E+03 -5.707683E+04  5.481223E+03  9.699829E+03
       164   8 -5.642694E+03  5.512183E+05  2.545327E+04 -3.802826E+04  9.618849E+02 -5.383655E+03
       164   9  2.816945E+04  6.526442E+05  6.056010E+04 -6.459120E+04 -3.602111E+03 -2.046973E+04
       164  10  3.352496E+04  6.930659E+05  5.738048E+04 -6.391820E+04 -8.773927E-11 -4.298561E-09
       164  11  4.248304E+03  5.916281E+05  3.453265E+04 -3.735054E+04  3.296833E-09 -1.632234E-09
       164  12 -1.027996E+04  4.957500E+05  2.520838E+04 -5.639434E+04 -1.353379E-09  6.265160E-09
       164  13  4.403399E+03  5.741958E+05  3.060015E+04 -6.049721E+04 -1.054068E-09 -1.977002E-12
       164  14 -6.971852E+02  5.714230E+05  2.999295E+04 -3.768940E+04  3.716073E-09  9.970045E-10
       164  15  8.944860E+03  5.741940E+05  4.288403E+04 -6.049254E+04  3.194171E-10 -1.517933E-09
       164  16 -2.471908E+04  4.553389E+05  3.818920E+03 -5.707687E+04  2.138355E-09  4.968832E-09
       164  17 -5.642702E+03  5.512183E+05  2.545321E+04 -3.802826E+04  2.216327E-11 -1.604711E-09
       164  18  2.816932E+04  6.526437E+05  6.055929E+04 -6.459126E+04  1.296512E-09 -5.599724E-09
       164  19  3.352499E+04  6.930659E+05  5.738055E+04 -6.391819E+04 -5.488731E+03 -2.331839E+03
       164  20  4.248350E+03  5.916282E+05  3.453296E+04 -3.735055E+04 -9.695898E+02  1.282709E+04
       164  21 -1.027973E+04  4.957509E+05  2.520988E+04 -5.639426E+04  3.594503E+03  2.798394E+04
       164  22  4.403441E+03  5.741959E+05  3.060027E+04 -6.049718E+04 -5.484957E+03 -6.016183E+03
       164  23 -6.971620E+02  5.714231E+05  2.999310E+04 -3.768941E+04 -9.657394E+02  9.105313E+03
       164  24  8.945032E+03  5.741946E+05  4.288515E+04 -6.049247E+04  3.598282E+03  2.422707E+04
       164  25 -2.471903E+04  4.553390E+05  3.819153E+03 -5.707683E+04 -5.481223E+03 -9.699829E+03
       164  26 -5.642694E+03  5.512183E+05  2.545327E+04 -3.802826E+04 -9.618849E+02  5.383655E+03
       164  27  2.816945E+04  6.526442E+05  6.056010E+04 -6.459120E+04  3.602111E+03  2.046973E+04
       165   1 -4.750493E+04  4.172868E+05  1.365430E+04 -8.129082E+04 -7.726698E+03 -3.849359E+04
       165   2 -6.965666E+04  2.982439E+05  2.020549E+04 -1.628263E+04 -1.082371E+04 -7.283519E+04
       165   3  5.238847E+04  2.196763E+05  8.515020E+04  3.490775E+03 -3.843288E+03 -1.071615E+05
       165   4 -7.161159E+03  5.822691E+05  5.073884E+04 -6.044691E+04 -7.734755E+03 -3.183301E+04
       165   5 -5.029945E+03  5.613092E+05  8.016372E+04 -3.776817E+04 -1.081943E+04 -7.442062E+04
       165   6  1.426872E+05  5.822159E+05  1.736836E+05 -6.031759E+04 -3.823899E+03 -1.169988E+05
       165   7  3.318241E+04  7.472777E+05  8.782205E+04 -3.959741E+04 -7.742363E+03 -2.517067E+04
       165   8  5.959370E+04  8.244395E+05  1.401177E+05 -5.926287E+04 -1.081505E+04 -7.600671E+04
       165   9  2.329914E+05  9.448842E+05  2.622099E+05 -1.241633E+05 -3.802497E+03 -1.268417E+05
       165  10 -4.750539E+04  4.172852E+05  1.365141E+04 -8.129106E+04 -1.354987E-09 -3.324126E-10
       165  11 -6.965821E+04  2.982382E+05  2.019531E+04 -1.628327E+04 -4.674581E-09 -1.596762E-09
       165  12  5.238537E+04  2.196639E+05  8.512860E+04  3.490444E+03 -8.079107E-10  2.261932E-09
       165  13 -7.161495E+03  5.822680E+05  5.073682E+04 -6.044711E+04 -1.535032E-09  2.364580E-10
       165  14 -5.031556E+03  5.613032E+05  8.015311E+04 -3.776881E+04  2.368879E-10  9.283082E-10
       165  15  1.426835E+05  5.822012E+05  1.736579E+05 -6.031795E+04 -5.997490E-10 -1.136683E-09
       165  16  3.318218E+04  7.472770E+05  8.782074E+04 -3.959757E+04  1.863181E-09  9.698680E-10
       165  17  5.959203E+04  8.244333E+05  1.401066E+05 -5.926353E+04 -4.702628E-09 -1.529554E-09
       165  18  2.329871E+05  9.448669E+05  2.621797E+05 -1.241636E+05 -3.144003E-10 -2.022807E-09
       165  19 -4.750493E+04  4.172868E+05  1.365430E+04 -8.129082E+04  7.726698E+03  3.849359E+04
       165  20 -6.965666E+04  2.982439E+05  2.020549E+04 -1.628263E+04  1.082371E+04  7.283519E+04
       165  21  5.238847E+04  2.196763E+05  8.515020E+04  3.490775E+03  3.843288E+03  1.071615E+05
       165  22 -7.161159E+03  5.822691E+05  5.073884E+04 -6.044691E+04  7.734755E+03  3.183301E+04
       165  23 -5.029945E+03  5.613092E+05  8.016372E+04 -3.776817E+04  1.081943E+04  7.442062E+04
       165  24  1.426872E+05  5.822159E+05  1.736836E+05 -6.031759E+04  3.823899E+03  1.169988E+05
       165  25  3.318241E+04  7.472777E+05  8.782205E+04 -3.959741E+04  7.742363E+03  2.517067E+04
       165  26  5.959370E+04  8.244395E+05  1.401177E+05 -5.926287E+04  1.081505E+04  7.600671E+04
       165  27  2.329914E+05  9.448842E+05  2.622099E+05 -1.241633E+05  3.802497E+03  1.268417E+05
       166   1  8.385268E+04  3.203444E+04  1.377874E+04 -7.578583E+03 -4.941744E+04 -4.825728E+03
       166   2  5.876855E+04  9.820756E+04  4.856149E+04  1.373476E+03 -3.557061E+04 -1.459061E+04
       166   3  1.267013E+04  8.746387E+04  5.511689E+04  2.992577E+04 -2.174006E+04 -1.418082E+04
       166   4 -3.262817E+05 -6.999919E+04 -8.666846E+04  1.934766E+04 -5.938522E+04 -4.842806E+03
       166   5 -3.151652E+05  6.018210E+03 -3.857008E+04  9.489264E+03 -3.871247E+04 -1.459684E+04
       166   6 -3.262640E+05  3.906941E+03 -2.345391E+04  1.923244E+04 -1.805493E+04 -1.417431E+04
       166   7 -7.362611E+05 -1.720425E+05 -1.871272E+05  4.625602E+04 -6.934641E+04 -4.860756E+03
       166   8 -6.889698E+05 -8.618076E+04 -1.257110E+05  1.760008E+04 -4.185244E+04 -1.460315E+04
       166   9 -6.650918E+05 -7.965765E+04 -1.020323E+05  8.544942E+03 -1.437179E+04 -1.416794E+04
       166  10  8.385005E+04  3.203376E+04  1.377411E+04 -7.578775E+03 -4.009930E-09  1.634704E-09
       166  11  5.876713E+04  9.820699E+04  4.855871E+04  1.373058E+03  1.887711E-09  7.161200E-09
       166  12  1.266957E+04  8.746353E+04  5.511562E+04  2.992552E+04  3.741201E-09  2.920498E-09
       166  13 -3.262855E+05 -7.000016E+04 -8.667514E+04  1.934743E+04  1.295538E-09 -1.462095E-09
       166  14 -3.151669E+05  6.017579E+03 -3.857330E+04  9.488809E+03  1.634111E-09 -4.031736E-09
       166  15 -3.262644E+05  3.906638E+03 -2.345490E+04  1.923223E+04 -1.103118E-09  6.427611E-11
       166  16 -7.362662E+05 -1.720438E+05 -1.871363E+05  4.625575E+04  3.935416E-09  7.046232E-10
       166  17 -6.889717E+05 -8.618146E+04 -1.257147E+05  1.759959E+04 -1.746269E-10  5.557896E-09
       166  18 -6.650920E+05 -7.965793E+04 -1.020331E+05  8.544778E+03 -1.475713E-09 -1.050968E-09
       166  19  8.385268E+04  3.203444E+04  1.377874E+04 -7.578583E+03  4.941744E+04  4.825728E+03
       166  20  5.876855E+04  9.820756E+04  4.856149E+04  1.373476E+03  3.557061E+04  1.459061E+04
       166  21  1.267013E+04  8.746387E+04  5.511689E+04  2.992577E+04  2.174006E+04  1.418082E+04
       166  22 -3.262817E+05 -6.999919E+04 -8.666846E+04  1.934766E+04  5.938522E+04  4.842806E+03
       166  23 -3.151652E+05  6.018210E+03 -3.857008E+04  9.489264E+03  3.871247E+04  1.459684E+04
       166  24 -3.262640E+05  3.906941E+03 -2.345391E+04  1.923244E+04  1.805493E+04  1.417431E+04
       166  25 -7.362611E+05 -1.720425E+05 -1.871272E+05  4.625602E+04  6.934641E+04  4.860756E+03
       166  26 -6.889698E+05 -8.618076E+04 -1.257110E+05  1.760008E+04  4.185244E+04  1.460315E+04
       166  27 -6.650918E+05 -7.965765E+04 -1.020323E+05  8.544942E+03  1.437179E+04  1.416794E+04
       167   1 -1.906148E+04  6.904062E+04  5.155412E+04  1.791918E+04 -1.510751E+04 -1.193159E+04
       167   2 -5.365508E+04  6.639628E+04  5.210199E+04  9.281930E+03 -1.043371E+04 -1.083954E+04
       167   3 -9.048535E+04  5.744748E+04  4.801996E+04  2.066303E+04 -5.761971E+03 -9.204090E+03
       167   4 -3.218356E+05 -5.617002E+03 -1.894428E+04  1.936724E+04 -1.455747E+04 -1.193099E+04
       167   5 -3.206811E+05  5.746908E+02 -9.934551E+03  9.351854E+03 -9.520776E+03 -1.083803E+04
       167   6 -3.218292E+05  3.971589E+02 -5.808642E+03  1.935545E+04 -4.485879E+03 -9.201588E+03
       167   7 -6.245252E+05 -8.028110E+04 -8.944886E+04  2.081455E+04 -1.400769E+04 -1.193039E+04
       167   8 -5.876412E+05 -6.525193E+04 -7.197589E+04  9.421714E+03 -8.608227E+03 -1.083652E+04
       167   9 -5.531237E+05 -5.665694E+04 -5.964085E+04  1.804834E+04 -3.210259E+03 -9.199091E+03
       167  10 -1.906176E+04  6.904041E+04  5.155342E+04  1.791903E+04 -4.932449E-09 -1.316415E-09
       167  11 -5.365522E+04  6.639612E+04  5.210157E+04  9.281839E+03 -1.247871E-09  4.127063E-09
       167  12 -9.048540E+04  5.744738E+04  4.801974E+04  2.066299E+04  1.011798E-09  5.635447E-09
       167  13 -3.218359E+05 -5.617211E+03 -1.894494E+04  1.936710E+04  1.901672E-09  6.795474E-09
       167  14 -3.206812E+05  5.745403E+02 -9.934942E+03  9.351771E+03  7.001961E-10 -1.069979E-08
       167  15 -3.218293E+05  3.970626E+02 -5.808839E+03  1.935542E+04 -1.063031E-09  4.698742E-09
       167  16 -6.245254E+05 -8.028130E+04 -8.944950E+04  2.081441E+04  3.120933E-09 -4.782926E-09
       167  17 -5.876413E+05 -6.525207E+04 -7.197625E+04  9.421639E+03 -3.906508E-11 -7.095970E-10
       167  18 -5.531237E+05 -5.665703E+04 -5.964103E+04  1.804832E+04 -2.535508E-09  1.478221E-10
       167  19 -1.906148E+04  6.904062E+04  5.155412E+04  1.791918E+04  1.510751E+04  1.193159E+04
       167  20 -5.365508E+04  6.639628E+04  5.210199E+04  9.281930E+03  1.043371E+04  1.083954E+04
       167  21 -9.048535E+04  5.744748E+04  4.801996E+04  2.066303E+04  5.761971E+03  9.204090E+03
       167  22 -3.218356E+05 -5.617002E+03 -1.894428E+04  1.936724E+04  1.455747E+04  1.193099E+04
       167  23 -3.206811E+05  5.746908E+02 -9.934551E+03  9.351854E+03  9.520776E+03  1.083803E+04
       167  24 -3.218292E+05  3.971589E+02 -5.808642E+03  1.935545E+04  4.485879E+03  9.201588E+03
       167  25 -6.245252E+05 -8.028110E+04 -8.944886E+04  2.081455E+04  1.400769E+04  1.193039E+04
       167  26 -5.876412E+05 -6.525193E+04 -7.197589E+04  9.421714E+03  8.608227E+03  1.083652E+04
       167  27 -5.531237E+05 -5.665694E+04 -5.964085E+04  1.804834E+04  3.210259E+03  9.199091E+03
       168   1 -1.263449E+05  4.769897E+04  4.071486E+04  1.964602E+04 -4.692673E+03 -8.147017E+03
       168   2 -1.620431E+05  3.933436E+04  3.446123E+04  9.605068E+03 -3.465600E+03 -6.475924E+03
       168   3 -1.981065E+05  3.053177E+04  2.727759E+04  1.970083E+04 -2.239097E+03 -4.773914E+03
       168   4 -3.213959E+05 -3.640943E+02 -4.500035E+03  1.938588E+04 -3.581360E+03 -8.144755E+03
       168   5 -3.212095E+05  9.743150E+01 -2.511237E+03  9.316826E+03 -2.333895E+03 -6.473482E+03
       168   6 -3.213927E+05  1.175410E+02 -1.466668E+03  1.938481E+04 -1.086930E+03 -4.771284E+03
       168   7 -5.164117E+05 -4.842984E+04 -4.971748E+04  1.912581E+04 -2.470395E+03 -8.142494E+03
       168   8 -4.803525E+05 -3.914128E+04 -3.948540E+04  9.028646E+03 -1.202479E+03 -6.471042E+03
       168   9 -4.446648E+05 -3.029777E+04 -3.021195E+04  1.906884E+04  6.500937E+01 -4.768656E+03
       168  10 -1.263449E+05  4.769889E+04  4.071469E+04  1.964599E+04 -6.055246E-09 -3.052771E-09
       168  11 -1.620431E+05  3.933431E+04  3.446113E+04  9.605050E+03  1.000087E-09 -1.592630E-09
       168  12 -1.981065E+05  3.053175E+04  2.727754E+04  1.970082E+04  7.127969E-09 -4.137979E-09
       168  13 -3.213959E+05 -3.641689E+02 -4.500183E+03  1.938586E+04  1.076499E-09 -1.682522E-09
       168  14 -3.212095E+05  9.738504E+01 -2.511326E+03  9.316814E+03 -9.787636E-10 -3.757588E-09
       168  15 -3.213927E+05  1.175163E+02 -1.466713E+03  1.938480E+04  4.313519E-09 -3.300888E-09
       168  16 -5.164118E+05 -4.842991E+04 -4.971761E+04  1.912579E+04  6.483157E-09 -4.355844E-09
       168  17 -4.803525E+05 -3.914133E+04 -3.948549E+04  9.028640E+03 -4.342975E-10  3.261184E-09
       168  18 -4.446648E+05 -3.029779E+04 -3.021199E+04  1.906884E+04 -6.883899E-09  5.104655E-09
       168  19 -1.263449E+05  4.769897E+04  4.071486E+04  1.964602E+04  4.692673E+03  8.147017E+03
       168  20 -1.620431E+05  3.933436E+04  3.446123E+04  9.605068E+03  3.465600E+03  6.475924E+03
       168  21 -1.981065E+05  3.053177E+04  2.727759E+04  1.970083E+04  2.239097E+03  4.773914E+03
       168  22 -3.213959E+05 -3.640943E+02 -4.500035E+03  1.938588E+04  3.581360E+03  8.144755E+03
       168  23 -3.212095E+05  9.743150E+01 -2.511237E+03  9.316826E+03  2.333895E+03  6.473482E+03
       168  24 -3.213927E+05  1.175410E+02 -1.466668E+03  1.938481E+04  1.086930E+03  4.771284E+03
       168  25 -5.164117E+05 -4.842984E+04 -4.971748E+04  1.912581E+04  2.470395E+03  8.142494E+03
       168  26 -4.803525E+05 -3.914128E+04 -3.948540E+04  9.028646E+03  1.202479E+03  6.471042E+03
       168  27 -4.446648E+05 -3.029777E+04 -3.021195E+04  1.906884E+04 -6.500937E+01  4.768656E+03
       169   1 -2.344801E+05  2.145317E+04  1.893661E+04  1.956744E+04 -1.999848E+03 -3.777619E+03
       169   2 -2.703747E+05  1.260093E+04  1.113522E+04  9.407657E+03 -1.664987E+03 -2.072705E+03
       169   3 -3.064171E+05  3.797269E+03  3.101740E+03  1.943434E+04 -1.330297E+03 -3.656418E+02
       169   4 -3.213418E+05  6.066317E+01 -1.134968E+03  1.939619E+04 -8.556811E+02 -3.774948E+03
       169   5 -3.212667E+05  5.442878E+01 -6.869563E+02  9.302864E+03 -5.194492E+02 -2.069990E+03
       169   6 -3.213408E+05  9.660419E+01 -4.719579E+02  1.939610E+04 -1.833679E+02 -3.628762E+02
       169   7 -4.081966E+05 -2.133238E+04 -2.120704E+04  1.922496E+04  2.883267E+02 -3.772278E+03
       169   8 -3.721563E+05 -1.249226E+04 -1.250930E+04  9.198079E+03  6.259956E+02 -2.067275E+03
       169   9 -3.362643E+05 -3.604076E+03 -4.045667E+03  1.935787E+04  9.635335E+02 -3.601107E+02
       169  10 -2.344801E+05  2.145316E+04  1.893657E+04  1.956744E+04  7.772341E-10 -5.589819E-09
       169  11 -2.703747E+05  1.260093E+04  1.113521E+04  9.407654E+03 -2.760763E-09  2.740257E-09
       169  12 -3.064171E+05  3.797268E+03  3.101736E+03  1.943434E+04 -5.933821E-09  1.433849E-09
       169  13 -3.213418E+05  6.064767E+01 -1.134996E+03  1.939619E+04 -1.677154E-12  7.238053E-10
       169  14 -3.212667E+05  5.442411E+01 -6.869648E+02  9.302863E+03 -8.376747E-10 -4.306657E-09
       169  15 -3.213408E+05  9.660404E+01 -4.719582E+02  1.939610E+04 -2.822448E-09 -1.728592E-09
       169  16 -4.081966E+05 -2.133239E+04 -2.120707E+04  1.922496E+04  6.731866E-10  4.358185E-09
       169  17 -3.721563E+05 -1.249226E+04 -1.250931E+04  9.198080E+03  1.523718E-09  8.400333E-09
       169  18 -3.362643E+05 -3.604076E+03 -4.045669E+03  1.935787E+04  3.897980E-09  1.944174E-09
       169  19 -2.344801E+05  2.145317E+04  1.893661E+04  1.956744E+04  1.999848E+03  3.777619E+03
       169  20 -2.703747E+05  1.260093E+04  1.113522E+04  9.407657E+03  1.664987E+03  2.072705E+03
       169  21 -3.064171E+05  3.797269E+03  3.101740E+03  1.943434E+04  1.330297E+03  3.656418E+02
       169  22 -3.213418E+05  6.066317E+01 -1.134968E+03  1.939619E+04  8.556811E+02  3.774948E+03
       169  23 -3.212667E+05  5.442878E+01 -6.869563E+02  9.302864E+03  5.194492E+02  2.069990E+03
       169  24 -3.213408E+05  9.660419E+01 -4.719579E+02  1.939610E+04  1.833679E+02  3.628762E+02
       169  25 -4.081966E+05 -2.133238E+04 -2.120704E+04  1.922496E+04 -2.883267E+02  3.772278E+03
       169  26 -3.721563E+05 -1.249226E+04 -1.250930E+04  9.198079E+03 -6.259956E+02  2.067275E+03
       169  27 -3.362643E+05 -3.604076E+03 -4.045667E+03  1.935787E+04 -9.635335E+02  3.601107E+02
       170   1 -3.428766E+05 -5.237210E+03 -5.533446E+03  1.935783E+04 -1.251867E+03  6.284099E+02
       170   2 -3.787773E+05 -1.412705E+04 -1.377783E+04  9.198979E+03 -1.047099E+03  2.335171E+03
       170   3 -4.148022E+05 -2.294586E+04 -2.216384E+04  1.922567E+04 -8.421751E+02  4.039642E+03
       170   4 -3.213356E+05  9.489896E+01 -4.224279E+02  1.939587E+04 -1.049868E+02  6.311735E+02
       170   5 -3.212733E+05  5.036358E+01 -4.188395E+02  9.303176E+03  9.821828E+01  2.337878E+03
       170   6 -3.213367E+05  7.709267E+01 -5.558699E+02  1.939591E+04  3.015902E+02  4.042298E+03
       170   7 -2.997942E+05  5.426975E+03  4.688563E+03  1.943391E+04  1.041933E+03  6.339372E+02
       170   8 -2.637663E+05  1.422755E+04  1.293993E+04  9.407380E+03  1.243641E+03  2.340586E+03
       170   9 -2.278631E+05  2.309943E+04  2.105153E+04  1.956616E+04  1.445526E+03  4.044955E+03
       170  10 -3.428766E+05 -5.237210E+03 -5.533450E+03  1.935783E+04 -2.565118E-09 -1.283608E-10
       170  11 -3.787773E+05 -1.412706E+04 -1.377784E+04  9.198981E+03 -3.257940E-09 -4.421459E-09
       170  12 -4.148022E+05 -2.294587E+04 -2.216388E+04  1.922567E+04 -6.971963E-09 -2.072050E-09
       170  13 -3.213356E+05  9.489853E+01 -4.224286E+02  1.939587E+04 -1.312031E-09  4.955553E-09
       170  14 -3.212733E+05  5.035771E+01 -4.188498E+02  9.303175E+03 -5.379948E-09 -1.962442E-09
       170  15 -3.213367E+05  7.707510E+01 -5.559008E+02  1.939591E+04  2.768633E-09 -3.046626E-09
       170  16 -2.997942E+05  5.426974E+03  4.688561E+03  1.943391E+04 -1.029192E-10 -1.380376E-09
       170  17 -2.637663E+05  1.422754E+04  1.293992E+04  9.407377E+03  1.954376E-09 -1.116592E-08
       170  18 -2.278631E+05  2.309941E+04  2.105149E+04  1.956616E+04  4.630723E-09 -6.524135E-09
       170  19 -3.428766E+05 -5.237210E+03 -5.533446E+03  1.935783E+04  1.251867E+03 -6.284099E+02
       170  20 -3.787773E+05 -1.412705E+04 -1.377783E+04  9.198979E+03  1.047099E+03 -2.335171E+03
       170  21 -4.148022E+05 -2.294586E+04 -2.216384E+04  1.922567E+04  8.421751E+02 -4.039642E+03
       170  22 -3.213356E+05  9.489896E+01 -4.224279E+02  1.939587E+04  1.049868E+02 -6.311735E+02
       170  23 -3.212733E+05  5.036358E+01 -4.188395E+02  9.303176E+03 -9.821828E+01 -2.337878E+03
       170  24 -3.213367E+05  7.709267E+01 -5.558699E+02  1.939591E+04 -3.015902E+02 -4.042298E+03
       170  25 -2.997942E+05  5.426975E+03  4.688563E+03  1.943391E+04 -1.041933E+03 -6.339372E+02
       170  26 -2.637663E+05  1.422755E+04  1.293993E+04  9.407380E+03 -1.243641E+03 -2.340586E+03
       170  27 -2.278631E+05  2.309943E+04  2.105153E+04  1.956616E+04 -1.445526E+03 -4.044955E+03
       171   1 -4.512324E+05 -3.194175E+04 -3.095868E+04  1.911464E+04 -7.416053E+02  5.035649E+03
       171   2 -4.869964E+05 -4.080210E+04 -3.960865E+04  9.033453E+03 -1.759336E+02  6.736099E+03
       171   3 -5.229633E+05 -4.980319E+04 -4.868375E+04  1.908106E+04  3.902535E+02  8.405128E+03
       171   4 -3.213552E+05  1.018359E+02 -6.788788E+02  1.938308E+04  4.101646E+02  5.038259E+03
       171   5 -3.212569E+05  6.314244E+01 -1.101802E+03  9.319090E+03  9.548448E+02  6.738515E+03
       171   6 -3.213584E+05 -1.123801E+02 -1.934981E+03  1.938356E+04  1.500072E+03  8.407359E+03
       171   7 -1.914625E+05  3.214423E+04  2.959978E+04  1.965158E+04  1.562174E+03  5.040871E+03
       171   8 -1.554920E+05  4.092645E+04  3.740320E+04  9.604791E+03  2.085923E+03  6.740933E+03
       171   9 -1.197159E+05  4.957557E+04  4.481106E+04  1.968613E+04  2.610249E+03  8.409591E+03
       171  10 -4.512324E+05 -3.194178E+04 -3.095873E+04  1.911464E+04 -5.064674E-09 -8.750276E-10
       171  11 -4.869964E+05 -4.080215E+04 -3.960873E+04  9.033454E+03  1.033515E-09 -7.943811E-09
       171  12 -5.229633E+05 -4.980327E+04 -4.868388E+04  1.908106E+04  5.146745E-09 -3.958039E-09
       171  13 -3.213552E+05  1.018086E+02 -6.789268E+02  1.938308E+04  7.940916E-12  1.290885E-09
       171  14 -3.212569E+05  6.309344E+01 -1.101889E+03  9.319085E+03 -2.952675E-12  7.882783E-10
       171  15 -3.213584E+05 -1.124566E+02 -1.935118E+03  1.938355E+04  6.783030E-10 -2.268185E-09
       171  16 -1.914626E+05  3.214420E+04  2.959973E+04  1.965157E+04  4.540014E-09  5.046418E-09
       171  17 -1.554920E+05  4.092640E+04  3.740310E+04  9.604779E+03  2.930866E-09 -2.695434E-09
       171  18 -1.197159E+05  4.957549E+04  4.481092E+04  1.968612E+04 -3.513610E-09  2.129737E-09
       171  19 -4.512324E+05 -3.194175E+04 -3.095868E+04  1.911464E+04  7.416053E+02 -5.035649E+03
       171  20 -4.869964E+05 -4.080210E+04 -3.960865E+04  9.033453E+03  1.759336E+02 -6.736099E+03
       171  21 -5.229633E+05 -4.980319E+04 -4.868375E+04  1.908106E+04 -3.902535E+02 -8.405128E+03
       171  22 -3.213552E+05  1.018359E+02 -6.788788E+02  1.938308E+04 -4.101646E+02 -5.038259E+03
       171  23 -3.212569E+05  6.314244E+01 -1.101802E+03  9.319090E+03 -9.548448E+02 -6.738515E+03
       171  24 -3.213584E+05 -1.123801E+02 -1.934981E+03  1.938356E+04 -1.500072E+03 -8.407359E+03
       171  25 -1.914625E+05  3.214423E+04  2.959978E+04  1.965158E+04 -1.562174E+03 -5.040871E+03
       171  26 -1.554920E+05  4.092645E+04  3.740320E+04  9.604791E+03 -2.085923E+03 -6.740933E+03
       171  27 -1.197159E+05  4.957557E+04  4.481106E+04  1.968613E+04 -2.610249E+03 -8.409591E+03
       172   1 -5.594125E+05 -5.846088E+04 -5.784684E+04  1.857727E+04  6.099808E+02  9.461384E+03
       172   2 -5.945639E+05 -6.718849E+04 -6.780870E+04  9.147059E+03  3.127191E+03  1.109152E+04
       172   3 -6.307761E+05 -7.864580E+04 -8.010482E+04  1.972669E+04  5.646019E+03  1.217036E+04
       172   4 -3.215395E+05  2.125954E+02 -2.486808E+03  1.935531E+04  1.886713E+03  9.463844E+03
       172   5 -3.210437E+05  2.573805E+02 -4.242526E+03  9.353136E+03  4.034577E+03  1.109299E+04
       172   6 -3.215451E+05 -2.362544E+03 -8.075074E+03  1.936029E+04  6.184202E+03  1.217095E+04
       172   7 -8.361422E+04  5.888207E+04  5.286941E+04  2.013361E+04  3.163930E+03  9.466308E+03
       172   8 -4.745443E+04  6.769797E+04  5.931861E+04  9.559269E+03  4.942359E+03  1.109446E+04
       172   9 -1.222592E+04  7.391395E+04  6.394821E+04  1.899367E+04  6.722650E+03  1.217154E+04
       172  10 -5.594125E+05 -5.846098E+04 -5.784701E+04  1.857726E+04  9.024030E-09 -1.307157E-09
       172  11 -5.945640E+05 -6.718863E+04 -6.780895E+04  9.147031E+03  2.826434E-09  5.918417E-09
       172  12 -6.307761E+05 -7.864597E+04 -8.010516E+04  1.972664E+04 -8.208316E-09  9.928075E-10
       172  13 -3.215395E+05  2.124983E+02 -2.486983E+03  1.935529E+04 -8.317048E-10 -4.512975E-09
       172  14 -3.210438E+05  2.572440E+02 -4.242788E+03  9.353100E+03 -1.414484E-09  6.461092E-09
       172  15 -3.215452E+05 -2.362713E+03 -8.075425E+03  1.936023E+04 -6.581364E-10  1.476131E-09
       172  16 -8.361426E+04  5.888198E+04  5.286922E+04  2.013359E+04 -8.193299E-09 -2.930600E-09
       172  17 -4.745449E+04  6.769784E+04  5.931834E+04  9.559225E+03  1.192186E-09 -6.386888E-09
       172  18 -1.222601E+04  7.391378E+04  6.394784E+04  1.899361E+04  9.097167E-09  1.783356E-09
       172  19 -5.594125E+05 -5.846088E+04 -5.784684E+04  1.857727E+04 -6.099808E+02 -9.461384E+03
       172  20 -5.945639E+05 -6.718849E+04 -6.780870E+04  9.147059E+03 -3.127191E+03 -1.109152E+04
       172  21 -6.307761E+05 -7.864580E+04 -8.010482E+04  1.972669E+04 -5.646019E+03 -1.217036E+04
       172  22 -3.215395E+05  2.125954E+02 -2.486808E+03  1.935531E+04 -1.886713E+03 -9.463844E+03
       172  23 -3.210437E+05  2.573805E+02 -4.242526E+03  9.353136E+03 -4.034577E+03 -1.109299E+04
       172  24 -3.215451E+05 -2.362544E+03 -8.075074E+03  1.936029E+04 -6.184202E+03 -1.217095E+04
       172  25 -8.361422E+04  5.888207E+04  5.286941E+04  2.013361E+04 -3.163930E+03 -9.466308E+03
       172  26 -4.745443E+04  6.769797E+04  5.931861E+04  9.559269E+03 -4.942359E+03 -1.109446E+04
       172  27 -1.222592E+04  7.391395E+04  6.394821E+04  1.899367E+04 -6.722650E+03 -1.217154E+04
       173   1 -6.688036E+05 -8.345895E+04 -9.008459E+04  1.441932E+04  3.954249E+03  1.442330E+04
       173   2 -6.990046E+05 -9.125858E+04 -1.050974E+05  1.268280E+04  1.968790E+04  1.481928E+04
       173   3 -7.398542E+05 -1.334987E+05 -1.389685E+05  3.048933E+04  3.543532E+04  4.886902E+03
       173   4 -3.234262E+05  1.693511E+03 -9.993655E+03  1.923904E+04  7.672009E+03  1.442942E+04
       173   5 -3.187121E+05  2.562435E+03 -1.644034E+04  9.491638E+03  1.647602E+04  1.481338E+04
       173   6 -3.234379E+05 -2.979419E+04 -3.692372E+04  1.928725E+04  2.529493E+04  4.871378E+03
       173   7  2.206156E+04  8.683766E+04  7.008934E+04  2.406141E+04  1.139182E+04  1.443560E+04
       173   8  6.171395E+04  9.637326E+04  7.220698E+04  6.298449E+03  1.326217E+04  1.480751E+04
       173   9  9.313699E+04  7.389800E+04  6.510882E+04  8.077567E+03  1.514775E+04  4.856226E+03
       173  10 -6.688037E+05 -8.345918E+04 -9.008501E+04  1.441928E+04  7.383302E-10 -2.965031E-09
       173  11 -6.990051E+05 -9.125892E+04 -1.050986E+05  1.268257E+04  1.190757E-09 -2.357029E-09
       173  12 -7.398555E+05 -1.334990E+05 -1.389709E+05  3.048919E+04  2.010529E-11  4.191726E-09
       173  13 -3.234263E+05  1.693272E+03 -9.994157E+03  1.923895E+04 -2.169591E-09 -1.349943E-09
       173  14 -3.187125E+05  2.562127E+03 -1.644126E+04  9.491442E+03 -2.153739E-09 -4.794959E-10
       173  15 -3.234386E+05 -2.979438E+04 -3.692496E+04  1.928715E+04  1.731923E-09  2.883033E-09
       173  16  2.206136E+04  8.683740E+04  7.008870E+04  2.406128E+04 -9.198995E-10  3.939097E-09
       173  17  6.171370E+04  9.637298E+04  7.220624E+04  6.298291E+03 -3.831104E-09  3.339474E-09
       173  18  9.313674E+04  7.389791E+04  6.510835E+04  8.077507E+03 -4.635604E-10 -2.306183E-09
       173  19 -6.688036E+05 -8.345895E+04 -9.008459E+04  1.441932E+04 -3.954249E+03 -1.442330E+04
       173  20 -6.990046E+05 -9.125858E+04 -1.050974E+05  1.268280E+04 -1.968790E+04 -1.481928E+04
       173  21 -7.398542E+05 -1.334987E+05 -1.389685E+05  3.048933E+04 -3.543532E+04 -4.886902E+03
       173  22 -3.234262E+05  1.693511E+03 -9.993655E+03  1.923904E+04 -7.672009E+03 -1.442942E+04
       173  23 -3.187121E+05  2.562435E+03 -1.644034E+04  9.491638E+03 -1.647602E+04 -1.481338E+04
       173  24 -3.234379E+05 -2.979419E+04 -3.692372E+04  1.928725E+04 -2.529493E+04 -4.871378E+03
       173  25  2.206156E+04  8.683766E+04  7.008934E+04  2.406141E+04 -1.139182E+04 -1.443560E+04
       173  26  6.171395E+04  9.637326E+04  7.220698E+04  6.298449E+03 -1.326217E+04 -1.480751E+04
       173  27  9.313699E+04  7.389800E+04  6.510882E+04  8.077567E+03 -1.514775E+04 -4.856226E+03
       174   1 -2.374704E+05 -8.972515E+05 -2.319132E+05  2.072653E+05 -9.675089E+03 -7.035211E+04
       174   2 -1.612449E+05 -6.934455E+05 -1.447363E+05  1.746337E+05 -2.929052E+04 -2.925067E+04
       174   3 -1.078210E+05 -5.004690E+05 -9.002696E+04  1.884065E+05 -2.733129E+04  1.189488E+04
       174   4 -2.755776E+04 -5.023253E+04 -3.008207E+04  1.901682E+05 -9.721957E+03 -2.232519E+04
       174   5 -5.771700E+03 -4.772679E+04 -1.346391E+04  1.669790E+05 -2.930066E+04 -1.534689E+04
       174   6 -8.431074E+02 -5.014929E+04 -5.586498E+03  1.901947E+05 -2.731372E+04 -8.338989E+03
       174   7  1.823054E+05  7.974508E+05  1.717076E+05  1.730477E+05 -9.771448E+03  2.576704E+04
       174   8  1.496758E+05  5.983894E+05  1.177874E+05  1.593162E+05 -2.931115E+04 -1.428907E+03
       174   9  1.061233E+05  4.003675E+05  7.884673E+04  1.919843E+05 -2.729627E+04 -2.858717E+04
       174  10 -2.374718E+05 -8.972569E+05 -2.319227E+05  2.072647E+05  2.330520E-09 -2.304360E-08
       174  11 -1.612461E+05 -6.934466E+05 -1.447395E+05  1.746330E+05  2.022905E-09  1.852392E-09
       174  12 -1.078218E+05 -5.004694E+05 -9.002863E+04  1.884067E+05 -9.467201E-10  2.927365E-08
       174  13 -2.755799E+04 -5.023309E+04 -3.008319E+04  1.901680E+05 -1.414054E-09 -3.449455E-09
       174  14 -5.772685E+03 -4.772728E+04 -1.346597E+04  1.669786E+05  3.038876E-09 -2.143697E-09
       174  15 -8.439271E+02 -5.014956E+04 -5.588030E+03  1.901945E+05 -2.224399E-09  2.050521E-09
       174  16  1.823051E+05  7.974501E+05  1.717061E+05  1.730479E+05  1.257138E-10  2.606580E-08
       174  17  1.496749E+05  5.983892E+05  1.177858E+05  1.593162E+05  1.313947E-09 -2.514642E-09
       174  18  1.061222E+05  4.003665E+05  7.884379E+04  1.919836E+05  5.934993E-10 -2.812033E-08
       174  19 -2.374704E+05 -8.972515E+05 -2.319132E+05  2.072653E+05  9.675089E+03  7.035211E+04
       174  20 -1.612449E+05 -6.934455E+05 -1.447363E+05  1.746337E+05  2.929052E+04  2.925067E+04
       174  21 -1.078210E+05 -5.004690E+05 -9.002696E+04  1.884065E+05  2.733129E+04 -1.189488E+04
       174  22 -2.755776E+04 -5.023253E+04 -3.008207E+04  1.901682E+05  9.721957E+03  2.232519E+04
       174  23 -5.771700E+03 -4.772679E+04 -1.346391E+04  1.669790E+05  2.930066E+04  1.534689E+04
       174  24 -8.431074E+02 -5.014929E+04 -5.586498E+03  1.901947E+05  2.731372E+04  8.338989E+03
       174  25  1.823054E+05  7.974508E+05  1.717076E+05  1.730477E+05  9.771448E+03 -2.576704E+04
       174  26  1.496758E+05  5.983894E+05  1.177874E+05  1.593162E+05  2.931115E+04  1.428907E+03
       174  27  1.061233E+05  4.003675E+05  7.884673E+04  1.919843E+05  2.729627E+04  2.858717E+04
       175   1 -7.710081E+04 -3.671933E+05 -6.224179E+04  1.907101E+05 -1.952136E+04  9.596493E+03
       175   2 -2.845166E+04 -1.690569E+05 -1.868830E+04  1.669845E+05 -8.305795E+03  8.983802E+03
       175   3  2.064030E+04  2.944225E+04  2.540467E+04  1.909604E+05  3.375964E+03  8.370298E+03
       175   4 -1.540619E+03 -4.893361E+04 -2.781092E+03  1.904775E+05 -1.950765E+04 -7.794243E+03
       175   5 -1.828607E+02 -4.915286E+04  2.733140E+03  1.666283E+05 -8.292316E+03 -9.147244E+03
       175   6  1.748577E+03 -4.891780E+04  9.302344E+03  1.904800E+05  3.389075E+03 -1.050088E+04
       175   7  7.401388E+04  2.694247E+05  5.667639E+04  1.902449E+05 -1.949392E+04 -2.519367E+04
       175   8  2.808532E+04  7.076591E+04  2.415527E+04  1.662721E+05 -8.278817E+03 -2.728169E+04
       175   9 -1.714334E+04 -1.272713E+05 -6.798968E+03  1.899997E+05  3.402217E+03 -2.936971E+04
       175  10 -7.710124E+04 -3.671935E+05 -6.224268E+04  1.907102E+05  1.395536E-09  7.333275E-09
       175  11 -2.845175E+04 -1.690570E+05 -1.868858E+04  1.669845E+05 -1.685308E-09  4.538109E-09
       175  12  2.064027E+04  2.944217E+04  2.540451E+04  1.909604E+05  5.528357E-10  3.759201E-09
       175  13 -1.541044E+03 -4.893378E+04 -2.781921E+03  1.904774E+05 -2.265843E-09 -2.284753E-09
       175  14 -1.829570E+02 -4.915297E+04  2.732854E+03  1.666282E+05 -1.248739E-09  2.451504E-10
       175  15  1.748535E+03 -4.891792E+04  9.302115E+03  1.904800E+05 -1.193547E-09  3.267702E-09
       175  16  7.401331E+04  2.694240E+05  5.667449E+04  1.902445E+05  4.346081E-10 -4.284739E-09
       175  17  2.808504E+04  7.076509E+04  2.415374E+04  1.662719E+05 -2.217877E-09 -4.578328E-09
       175  18 -1.714358E+04 -1.272722E+05 -6.800611E+03  1.899997E+05 -1.352640E-09 -2.789960E-09
       175  19 -7.710081E+04 -3.671933E+05 -6.224179E+04  1.907101E+05  1.952136E+04 -9.596493E+03
       175  20 -2.845166E+04 -1.690569E+05 -1.868830E+04  1.669845E+05  8.305795E+03 -8.983802E+03
       175  21  2.064030E+04  2.944225E+04  2.540467E+04  1.909604E+05 -3.375964E+03 -8.370298E+03
       175  22 -1.540619E+03 -4.893361E+04 -2.781092E+03  1.904775E+05  1.950765E+04  7.794243E+03
       175  23 -1.828607E+02 -4.915286E+04  2.733140E+03  1.666283E+05  8.292316E+03  9.147244E+03
       175  24  1.748577E+03 -4.891780E+04  9.302344E+03  1.904800E+05 -3.389075E+03  1.050088E+04
       175  25  7.401388E+04  2.694247E+05  5.667639E+04  1.902449E+05  1.949392E+04  2.519367E+04
       175  26  2.808532E+04  7.076591E+04  2.415527E+04  1.662721E+05  8.278817E+03  2.728169E+04
       175  27 -1.714334E+04 -1.272713E+05 -6.798968E+03  1.899997E+05 -3.402217E+03  2.936971E+04
       176   1  5.072933E+04  1.633220E+05  5.408856E+04  1.865367E+05  1.136292E+04  8.728290E+03
       176   2  1.075056E+05  3.548861E+05  1.103172E+05  1.797877E+05  1.664476E+04 -2.972785E+04
       176   3  1.991397E+05  5.603550E+05  2.003181E+05  2.198780E+05  6.104981E+03 -6.821513E+04
       176   4  5.134134E+02 -4.690835E+04  1.325795E+04  1.902798E+05  1.137810E+04 -1.212571E+04
       176   5  9.334694E+03 -5.169879E+04  2.583863E+04  1.668835E+05  1.664282E+04 -2.550503E+04
       176   6  4.867694E+04 -4.695913E+04  5.479109E+04  1.903234E+05  6.083250E+03 -3.890307E+04
       176   7 -4.970486E+04 -2.570953E+05 -2.757311E+04  1.940216E+05  1.139302E+04 -3.297281E+04
       176   8 -8.884610E+04 -4.581268E+05 -5.864881E+04  1.539879E+05  1.664071E+04 -2.128492E+04
       176   9 -1.018088E+05 -6.539318E+05 -9.075832E+04  1.607978E+05  6.058723E+03 -9.619519E+03
       176  10  5.072917E+04  1.633219E+05  5.408817E+04  1.865367E+05  2.392993E-09  6.392178E-09
       176  11  1.075051E+05  3.548851E+05  1.103150E+05  1.797881E+05 -6.938693E-10 -6.689882E-10
       176  12  1.991384E+05  5.603500E+05  2.003093E+05  2.198784E+05  9.762596E-10 -2.643389E-09
       176  13  5.132348E+02 -4.690854E+04  1.325743E+04  1.902799E+05 -5.343301E-10 -2.768998E-09
       176  14  9.334222E+03 -5.169956E+04  2.583688E+04  1.668838E+05  3.463353E-09 -1.178130E-09
       176  15  4.867650E+04 -4.696077E+04  5.478817E+04  1.903236E+05  2.980760E-09  3.056002E-09
       176  16 -4.970529E+04 -2.570965E+05 -2.757540E+04  1.940219E+05 -1.366855E-09 -3.638323E-09
       176  17 -8.884652E+04 -4.581273E+05 -5.865018E+04  1.539882E+05  2.270933E-09 -7.187249E-11
       176  18 -1.018088E+05 -6.539319E+05 -9.075857E+04  1.607978E+05 -5.412064E-10  4.223326E-09
       176  19  5.072933E+04  1.633220E+05  5.408856E+04  1.865367E+05 -1.136292E+04 -8.728290E+03
       176  20  1.075056E+05  3.548861E+05  1.103172E+05  1.797877E+05 -1.664476E+04  2.972785E+04
       176  21  1.991397E+05  5.603550E+05  2.003181E+05  2.198780E+05 -6.104981E+03  6.821513E+04
       176  22  5.134134E+02 -4.690835E+04  1.325795E+04  1.902798E+05 -1.137810E+04  1.212571E+04
       176  23  9.334694E+03 -5.169879E+04  2.583863E+04  1.668835E+05 -1.664282E+04  2.550503E+04
       176  24  4.867694E+04 -4.695913E+04  5.479109E+04  1.903234E+05 -6.083250E+03  3.890307E+04
       176  25 -4.970486E+04 -2.570953E+05 -2.757311E+04  1.940216E+05 -1.139302E+04  3.297281E+04
       176  26 -8.884610E+04 -4.581268E+05 -5.864881E+04  1.539879E+05 -1.664071E+04  2.128492E+04
       176  27 -1.018088E+05 -6.539318E+05 -9.075832E+04  1.607978E+05 -6.058723E+03  9.619519E+03
       177   1  7.656347E+05  2.835413E+05  1.755972E+05  2.769761E+05  7.164013E+04  2.235262E+04
       177   2  7.386060E+05  1.806426E+05  1.097516E+05  2.719182E+05  4.648943E+04  3.150235E+03
       177   3  7.353231E+05  1.625750E+05  8.583236E+04  2.574186E+05  1.817450E+04 -7.646127E+03
       177   4  4.855066E+05  1.478141E+05  9.469405E+04  1.694745E+05  6.189183E+04  1.867636E+04
       177   5  4.691682E+05  7.003618E+04  4.064889E+04  1.877616E+05  4.317893E+04  1.901546E+03
       177   6  4.753137E+05  7.583349E+04  2.344510E+04  1.966035E+05  2.130004E+04 -6.468183E+03
       177   7  2.054609E+05  1.210986E+04  1.378503E+04  6.202323E+04  5.214848E+04  1.500315E+04
       177   8  1.998031E+05 -4.056077E+04 -2.845940E+04  1.036398E+05  3.987001E+04  6.535812E+02
       177   9  2.153690E+05 -1.090715E+04 -3.894738E+04  1.358095E+05  2.442417E+04 -5.290639E+03
       177  10  7.656290E+05  2.835394E+05  1.755866E+05  2.769748E+05  2.042098E-09 -8.016188E-10
       177  11  7.386037E+05  1.806420E+05  1.097475E+05  2.719181E+05 -2.224264E-09  1.912662E-09
       177  12  7.353227E+05  1.625748E+05  8.583163E+04  2.574187E+05 -7.119526E-10 -6.458929E-10
       177  13  4.855024E+05  1.478127E+05  9.468620E+04  1.694735E+05 -5.357062E-10 -4.058714E-09
       177  14  4.691662E+05  7.003568E+04  4.064538E+04  1.877615E+05 -8.775783E-10  3.017939E-09
       177  15  4.753132E+05  7.583332E+04  2.344417E+04  1.966036E+05 -5.244882E-09 -4.833307E-10
       177  16  2.054579E+05  1.210889E+04  1.377950E+04  6.202260E+04  1.086004E-09  4.090309E-09
       177  17  1.998014E+05 -4.056120E+04 -2.846238E+04  1.036398E+05  7.521285E-10 -1.052390E-09
       177  18  2.153683E+05 -1.090734E+04 -3.894855E+04  1.358096E+05 -5.433934E-09  1.442431E-09
       177  19  7.656347E+05  2.835413E+05  1.755972E+05  2.769761E+05 -7.164013E+04 -2.235262E+04
       177  20  7.386060E+05  1.806426E+05  1.097516E+05  2.719182E+05 -4.648943E+04 -3.150235E+03
       177  21  7.353231E+05  1.625750E+05  8.583236E+04  2.574186E+05 -1.817450E+04  7.646127E+03
       177  22  4.855066E+05  1.478141E+05  9.469405E+04  1.694745E+05 -6.189183E+04 -1.867636E+04
       177  23  4.691682E+05  7.003618E+04  4.064889E+04  1.877616E+05 -4.317893E+04 -1.901546E+03
       177  24  4.753137E+05  7.583349E+04  2.344510E+04  1.966035E+05 -2.130004E+04  6.468183E+03
       177  25  2.054609E+05  1.210986E+04  1.378503E+04  6.202323E+04 -5.214848E+04 -1.500315E+04
       177  26  1.998031E+05 -4.056077E+04 -2.845940E+04  1.036398E+05 -3.987001E+04 -6.535812E+02
       177  27  2.153690E+05 -1.090715E+04 -3.894738E+04  1.358095E+05 -2.442417E+04  5.290639E+03
       178   1  7.009021E+05  1.709379E+05  7.587143E+04  2.565229E+05  1.704718E+04 -6.093428E+03
       178   2  6.801557E+05  1.513024E+05  6.042634E+04  2.453601E+05  1.157383E+04 -7.143604E+03
       178   3  6.533821E+05  1.458870E+05  5.028278E+04  2.429390E+05  5.952009E+03 -7.800365E+03
       178   4  4.722719E+05  8.371179E+04  1.871455E+04  1.918633E+05  1.757180E+04 -5.896053E+03
       178   5  4.749623E+05  7.413059E+04  9.479301E+03  1.884365E+05  1.240107E+04 -6.831956E+03
       178   6  4.715659E+05  7.871091E+04  5.307399E+03  1.937512E+05  7.081652E+03 -7.374479E+03
       178   7  2.436931E+05 -3.510231E+03 -3.844642E+04  1.272254E+05  1.809620E+04 -5.698762E+03
       178   8  2.698108E+05 -3.038027E+03 -4.147087E+04  1.315302E+05  1.322801E+04 -6.520423E+03
       178   9  2.897830E+05  1.153713E+04 -3.967030E+04  1.445765E+05  8.210928E+03 -6.948727E+03
       178  10  7.009018E+05  1.709378E+05  7.587081E+04  2.565229E+05  4.954382E-11  6.061383E-09
       178  11  6.801555E+05  1.513023E+05  6.042600E+04  2.453602E+05  2.686264E-09  2.409649E-09
       178  12  6.533820E+05  1.458870E+05  5.028260E+04  2.429391E+05 -1.624502E-09  7.918517E-10
       178  13  4.722716E+05  8.371167E+04  1.871390E+04  1.918633E+05 -3.103908E-10 -3.358082E-09
       178  14  4.749622E+05  7.413050E+04  9.478924E+03  1.884366E+05  6.204899E-10 -8.487060E-09
       178  15  4.715658E+05  7.871084E+04  5.307203E+03  1.937512E+05  4.161415E-10  7.817832E-09
       178  16  2.436927E+05 -3.510353E+03 -3.844710E+04  1.272255E+05 -1.729005E-09 -1.086064E-09
       178  17  2.698106E+05 -3.038120E+03 -4.147128E+04  1.315302E+05  8.267049E-10 -4.835407E-09
       178  18  2.897829E+05  1.153706E+04 -3.967051E+04  1.445765E+05  3.179213E-09  5.576905E-09
       178  19  7.009021E+05  1.709379E+05  7.587143E+04  2.565229E+05 -1.704718E+04  6.093428E+03
       178  20  6.801557E+05  1.513024E+05  6.042634E+04  2.453601E+05 -1.157383E+04  7.143604E+03
       178  21  6.533821E+05  1.458870E+05  5.028278E+04  2.429390E+05 -5.952009E+03  7.800365E+03
       178  22  4.722719E+05  8.371179E+04  1.871455E+04  1.918633E+05 -1.757180E+04  5.896053E+03
       178  23  4.749623E+05  7.413059E+04  9.479301E+03  1.884365E+05 -1.240107E+04  6.831956E+03
       178  24  4.715659E+05  7.871091E+04  5.307399E+03  1.937512E+05 -7.081652E+03  7.374479E+03
       178  25  2.436931E+05 -3.510231E+03 -3.844642E+04  1.272254E+05 -1.809620E+04  5.698762E+03
       178  26  2.698108E+05 -3.038027E+03 -4.147087E+04  1.315302E+05 -1.322801E+04  6.520423E+03
       178  27  2.897830E+05  1.153713E+04 -3.967030E+04  1.445765E+05 -8.210928E+03  6.948727E+03
       179   1  6.302899E+05  1.387100E+05  4.339093E+04  2.371853E+05  5.015231E+03 -7.207492E+03
       179   2  6.103852E+05  1.249613E+05  3.562877E+04  2.256460E+05  3.402514E+03 -6.306467E+03
       179   3  5.820857E+05  1.203091E+05  2.880129E+04  2.239401E+05  1.783599E+03 -5.389804E+03
       179   4  4.712877E+05  7.922415E+04  4.060746E+03  1.933766E+05  6.019195E+03 -6.828922E+03
       179   5  4.754645E+05  7.451621E+04  2.198441E+03  1.885210E+05  4.418745E+03 -5.923149E+03
       179   6  4.712440E+05  7.890272E+04  1.261446E+03  1.934987E+05  2.812052E+03 -5.001753E+03
       179   7  3.123096E+05  1.973975E+04 -3.527158E+04  1.495778E+05  7.022883E+03 -6.450455E+03
       179   8  3.405613E+05  2.407226E+04 -3.123337E+04  1.514032E+05  5.434738E+03 -5.539922E+03
       179   9  3.604143E+05  3.749717E+04 -2.627935E+04  1.630623E+05  3.840305E+03 -4.613778E+03
       179  10  6.302898E+05  1.387100E+05  4.339078E+04  2.371853E+05  1.767483E-09 -1.565874E-09
       179  11  6.103852E+05  1.249612E+05  3.562867E+04  2.256461E+05 -7.298191E-10 -5.570753E-11
       179  12  5.820857E+05  1.203091E+05  2.880123E+04  2.239401E+05 -6.503650E-09 -1.314286E-09
       179  13  4.712876E+05  7.922409E+04  4.060590E+03  1.933766E+05  1.010848E-10  3.062223E-10
       179  14  4.754645E+05  7.451617E+04  2.198338E+03  1.885210E+05  1.204153E-09 -2.607991E-10
       179  15  4.712439E+05  7.890269E+04  1.261384E+03  1.934988E+05 -8.691170E-10  2.538361E-09
       179  16  3.123096E+05  1.973969E+04 -3.527175E+04  1.495778E+05 -2.015284E-09 -1.718871E-09
       179  17  3.405613E+05  2.407222E+04 -3.123349E+04  1.514032E+05  5.661921E-09  1.996104E-09
       179  18  3.604143E+05  3.749714E+04 -2.627942E+04  1.630623E+05  5.333863E-09  7.903869E-09
       179  19  6.302899E+05  1.387100E+05  4.339093E+04  2.371853E+05 -5.015231E+03  7.207492E+03
       179  20  6.103852E+05  1.249613E+05  3.562877E+04  2.256460E+05 -3.402514E+03  6.306467E+03
       179  21  5.820857E+05  1.203091E+05  2.880129E+04  2.239401E+05 -1.783599E+03  5.389804E+03
       179  22  4.712877E+05  7.922415E+04  4.060746E+03  1.933766E+05 -6.019195E+03  6.828922E+03
       179  23  4.754645E+05  7.451621E+04  2.198441E+03  1.885210E+05 -4.418745E+03  5.923149E+03
       179  24  4.712440E+05  7.890272E+04  1.261446E+03  1.934987E+05 -2.812052E+03  5.001753E+03
       179  25  3.123096E+05  1.973975E+04 -3.527158E+04  1.495778E+05 -7.022883E+03  6.450455E+03
       179  26  3.405613E+05  2.407226E+04 -3.123337E+04  1.514032E+05 -5.434738E+03  5.539922E+03
       179  27  3.604143E+05  3.749717E+04 -2.627935E+04  1.630623E+05 -3.840305E+03  4.613778E+03
       180   1  5.599900E+05  1.121067E+05  2.289705E+04  2.178976E+05  1.311065E+03 -4.676245E+03
       180   2  5.402869E+05  9.879925E+04  1.669647E+04  2.063734E+05  4.858655E+02 -3.462361E+03
       180   3  5.119857E+05  9.417970E+04  1.074275E+04  2.046876E+05 -3.392167E+02 -2.249127E+03
       180   4  4.712161E+05  7.892354E+04  9.861974E+02  1.934584E+05  2.332153E+03 -4.290918E+03
       180   5  4.755150E+05  7.457269E+04  6.457174E+02  1.885420E+05  1.506498E+03 -3.077153E+03
       180   6  4.712152E+05  7.890995E+04  5.525118E+02  1.934640E+05  6.809435E+02 -1.864037E+03
       180   7  3.824503E+05  4.574104E+04 -2.092515E+04  1.690225E+05  3.353078E+03 -3.905654E+03
       180   8  4.107472E+05  5.034642E+04 -1.540535E+04  1.707124E+05  2.527015E+03 -2.691988E+03
       180   9  4.304462E+05  6.364024E+04 -9.637897E+03  1.822410E+05  1.701035E+03 -1.478974E+03
       180  10  5.599900E+05  1.121067E+05  2.289701E+04  2.178976E+05 -6.754109E-10 -5.215934E-09
       180  11  5.402869E+05  9.879923E+04  1.669644E+04  2.063734E+05  2.017920E-09 -6.966163E-09
       180  12  5.119857E+05  9.417970E+04  1.074274E+04  2.046876E+05  4.000503E-09  1.012047E-09
       180  13  4.712161E+05  7.892352E+04  9.861525E+02  1.934584E+05  1.426759E-09  1.853494E-09
       180  14  4.755150E+05  7.457268E+04  6.456953E+02  1.885420E+05  2.438645E-09  6.200006E-09
       180  15  4.712152E+05  7.890994E+04  5.525044E+02  1.934640E+05 -1.661612E-09 -9.208257E-09
       180  16  3.824502E+05  4.574102E+04 -2.092520E+04  1.690225E+05 -1.361468E-09  2.575702E-09
       180  17  4.107472E+05  5.034641E+04 -1.540538E+04  1.707124E+05 -1.284051E-10  8.823866E-10
       180  18  4.304462E+05  6.364024E+04 -9.637907E+03  1.822410E+05 -4.100936E-09 -5.691616E-09
       180  19  5.599900E+05  1.121067E+05  2.289705E+04  2.178976E+05 -1.311065E+03  4.676245E+03
       180  20  5.402869E+05  9.879925E+04  1.669647E+04  2.063734E+05 -4.858655E+02  3.462361E+03
       180  21  5.119857E+05  9.417970E+04  1.074275E+04  2.046876E+05  3.392167E+02  2.249127E+03
       180  22  4.712161E+05  7.892354E+04  9.861974E+02  1.934584E+05 -2.332153E+03  4.290918E+03
       180  23  4.755150E+05  7.457269E+04  6.457174E+02  1.885420E+05 -1.506498E+03  3.077153E+03
       180  24  4.712152E+05  7.890995E+04  5.525118E+02  1.934640E+05 -6.809435E+02  1.864037E+03
       180  25  3.824503E+05  4.574104E+04 -2.092515E+04  1.690225E+05 -3.353078E+03  3.905654E+03
       180  26  4.107472E+05  5.034642E+04 -1.540535E+04  1.707124E+05 -2.527015E+03  2.691988E+03
       180  27  4.304462E+05  6.364024E+04 -9.637897E+03  1.822410E+05 -1.701035E+03  1.478974E+03
       181   1  4.900343E+05  8.594085E+04  5.156559E+03  1.986589E+05 -7.256559E+02 -1.508092E+03
       181   2  4.703601E+05  7.266599E+04 -4.811826E+02  1.871450E+05 -1.623234E+03 -3.236711E+02
       181   3  4.421126E+05  6.807709E+04 -5.815497E+03  1.854545E+05 -2.520561E+03  8.602470E+02
       181   4  4.712206E+05  7.890691E+04  5.785010E+02  1.934617E+05  2.939070E+02 -1.123210E+03
       181   5  4.755092E+05  7.457561E+04  7.919256E+02  1.885457E+05 -6.040954E+02  6.104417E+01
       181   6  4.712238E+05  7.893024E+04  1.309091E+03  1.934528E+05 -1.501862E+03  1.244791E+03
       181   7  4.524072E+05  7.187300E+04 -3.999579E+03  1.882646E+05  1.313436E+03 -7.383404E+02
       181   8  4.806583E+05  7.648524E+04  2.065033E+03  1.899464E+05  4.150504E+02  4.457619E+02
       181   9  5.003357E+05  8.978340E+04  8.433584E+03  2.014515E+05 -4.831160E+02  1.629352E+03
       181  10  4.900343E+05  8.594084E+04  5.156554E+03  1.986589E+05 -1.277502E-11 -2.913558E-09
       181  11  4.703601E+05  7.266599E+04 -4.811878E+02  1.871450E+05 -5.326819E-09  9.965641E-10
       181  12  4.421126E+05  6.807709E+04 -5.815511E+03  1.854545E+05 -7.809650E-10 -5.340724E-09
       181  13  4.712206E+05  7.890691E+04  5.784985E+02  1.934617E+05 -4.266808E-09 -2.057408E-10
       181  14  4.755092E+05  7.457561E+04  7.919249E+02  1.885457E+05 -9.759179E-09 -6.731569E-09
       181  15  4.712238E+05  7.893024E+04  1.309084E+03  1.934528E+05 -1.793041E-09 -2.925980E-09
       181  16  4.524072E+05  7.187300E+04 -3.999583E+03  1.882646E+05 -3.593487E-09 -9.360743E-09
       181  17  4.806583E+05  7.648524E+04  2.065032E+03  1.899464E+05  2.063678E-09 -1.023888E-08
       181  18  5.003357E+05  8.978340E+04  8.433579E+03  2.014515E+05  2.271931E-09 -5.364561E-09
       181  19  4.900343E+05  8.594085E+04  5.156559E+03  1.986589E+05  7.256559E+02  1.508092E+03
       181  20  4.703601E+05  7.266599E+04 -4.811826E+02  1.871450E+05  1.623234E+03  3.236711E+02
       181  21  4.421126E+05  6.807709E+04 -5.815497E+03  1.854545E+05  2.520561E+03 -8.602470E+02
       181  22  4.712206E+05  7.890691E+04  5.785010E+02  1.934617E+05 -2.939070E+02  1.123210E+03
       181  23  4.755092E+05  7.457561E+04  7.919256E+02  1.885457E+05  6.040954E+02 -6.104417E+01
       181  24  4.712238E+05  7.893024E+04  1.309091E+03  1.934528E+05  1.501862E+03 -1.244791E+03
       181  25  4.524072E+05  7.187300E+04 -3.999579E+03  1.882646E+05 -1.313436E+03  7.383404E+02
       181  26  4.806583E+05  7.648524E+04  2.065033E+03  1.899464E+05 -4.150504E+02 -4.457619E+02
       181  27  5.003357E+05  8.978340E+04  8.433584E+03  2.014515E+05  4.831160E+02 -1.629352E+03
       182   1  4.201415E+05  5.985390E+04 -1.103492E+04  1.795324E+05 -3.067793E+03  1.542652E+03
       182   2  4.003507E+05  4.645680E+04 -1.558204E+04  1.678890E+05 -5.074721E+03  2.307792E+03
       182   3  3.723022E+05  4.226588E+04 -1.886724E+04  1.660111E+05 -7.076331E+03  3.059462E+03
       182   4  4.712721E+05  7.889226E+04  1.703703E+03  1.934979E+05 -2.043812E+03  1.929167E+03
       182   5  4.754313E+05  7.451374E+04  3.021006E+03  1.885297E+05 -4.061268E+03  2.690268E+03
       182   6  4.713348E+05  7.934355E+04  5.608593E+03  1.933269E+05 -6.073466E+03  3.437878E+03
       182   7  5.224054E+05  9.793088E+04  1.444219E+04  2.074645E+05 -1.019734E+03  2.315719E+03
       182   8  5.505176E+05  1.025711E+05  2.162367E+04  2.091727E+05 -3.047679E+03  3.072796E+03
       182   9  5.703770E+05  1.164219E+05  3.008368E+04  2.206466E+05 -5.070426E+03  3.816361E+03
       182  10  4.201415E+05  5.985390E+04 -1.103494E+04  1.795324E+05  1.772981E-09  7.406571E-10
       182  11  4.003507E+05  4.645679E+04 -1.558209E+04  1.678890E+05  1.081671E-08  1.066060E-08
       182  12  3.723022E+05  4.226586E+04 -1.886735E+04  1.660111E+05  1.337515E-08  3.992438E-09
       182  13  4.712721E+05  7.889226E+04  1.703688E+03  1.934979E+05  1.927136E-09 -1.145918E-09
       182  14  4.754313E+05  7.451373E+04  3.020961E+03  1.885297E+05  6.239331E-09  1.118830E-08
       182  15  4.713347E+05  7.934353E+04  5.608502E+03  1.933269E+05  3.325497E-09 -1.685396E-09
       182  16  5.224054E+05  9.793087E+04  1.444218E+04  2.074645E+05  4.518749E-09  2.258007E-09
       182  17  5.505176E+05  1.025711E+05  2.162363E+04  2.091727E+05  3.525510E-09  5.352988E-09
       182  18  5.703770E+05  1.164219E+05  3.008361E+04  2.206466E+05 -2.865799E-09  6.570480E-09
       182  19  4.201415E+05  5.985390E+04 -1.103492E+04  1.795324E+05  3.067793E+03 -1.542652E+03
       182  20  4.003507E+05  4.645680E+04 -1.558204E+04  1.678890E+05  5.074721E+03 -2.307792E+03
       182  21  3.723022E+05  4.226588E+04 -1.886724E+04  1.660111E+05  7.076331E+03 -3.059462E+03
       182  22  4.712721E+05  7.889226E+04  1.703703E+03  1.934979E+05  2.043812E+03 -1.929167E+03
       182  23  4.754313E+05  7.451374E+04  3.021006E+03  1.885297E+05  4.061268E+03 -2.690268E+03
       182  24  4.713348E+05  7.934355E+04  5.608593E+03  1.933269E+05  6.073466E+03 -3.437878E+03
       182  25  5.224054E+05  9.793088E+04  1.444219E+04  2.074645E+05  1.019734E+03 -2.315719E+03
       182  26  5.505176E+05  1.025711E+05  2.162367E+04  2.091727E+05  3.047679E+03 -3.072796E+03
       182  27  5.703770E+05  1.164219E+05  3.008368E+04  2.206466E+05  5.070426E+03 -3.816361E+03
       183   1  3.497879E+05  3.414425E+04 -2.275436E+04  1.614498E+05 -8.520754E+03  3.445578E+03
       183   2  3.299534E+05  1.922355E+04 -2.289591E+04  1.479412E+05 -1.545471E+04  2.298374E+03
       183   3  3.050531E+05  2.043698E+04 -1.622474E+04  1.426339E+05 -2.226861E+04  8.345311E+02
       183   4  4.717303E+05  7.862394E+04  7.337256E+03  1.938350E+05 -7.417293E+03  3.861909E+03
       183   5  4.747301E+05  7.399807E+04  1.311842E+04  1.884263E+05 -1.459497E+04  2.622584E+03
       183   6  4.727110E+05  8.555300E+04  2.590405E+04  1.912184E+05 -2.165289E+04  1.066508E+03
       183   7  5.936867E+05  1.231043E+05  3.742760E+04  2.262257E+05 -6.313600E+03  4.278323E+03
       183   8  6.195274E+05  1.287742E+05  4.913111E+04  2.289199E+05 -1.373501E+04  2.946879E+03
       183   9  6.403973E+05  1.506718E+05  6.803082E+04  2.398152E+05 -2.103698E+04  1.298561E+03
       183  10  3.497879E+05  3.414422E+04 -2.275452E+04  1.614499E+05 -4.716837E-09 -7.353772E-09
       183  11  3.299532E+05  1.922348E+04 -2.289637E+04  1.479412E+05 -1.140999E-09 -2.502494E-09
       183  12  3.050526E+05  2.043685E+04 -1.622567E+04  1.426339E+05  4.865906E-09  7.546411E-10
       183  13  4.717303E+05  7.862391E+04  7.337125E+03  1.938350E+05  3.651632E-09 -3.006769E-09
       183  14  4.747299E+05  7.399801E+04  1.311800E+04  1.884263E+05 -4.465109E-09  2.373972E-09
       183  15  4.727105E+05  8.555287E+04  2.590317E+04  1.912184E+05 -1.631993E-09 -1.131624E-09
       183  16  5.936867E+05  1.231042E+05  3.742749E+04  2.262257E+05  1.162630E-08  2.496491E-09
       183  17  6.195272E+05  1.287741E+05  4.913074E+04  2.289200E+05  7.632700E-09  4.582633E-09
       183  18  6.403969E+05  1.506717E+05  6.802998E+04  2.398152E+05 -2.202964E-09 -2.088574E-09
       183  19  3.497879E+05  3.414425E+04 -2.275436E+04  1.614498E+05  8.520754E+03 -3.445578E+03
       183  20  3.299534E+05  1.922355E+04 -2.289591E+04  1.479412E+05  1.545471E+04 -2.298374E+03
       183  21  3.050531E+05  2.043698E+04 -1.622474E+04  1.426339E+05  2.226861E+04 -8.345311E+02
       183  22  4.717303E+05  7.862394E+04  7.337256E+03  1.938350E+05  7.417293E+03 -3.861909E+03
       183  23  4.747301E+05  7.399807E+04  1.311842E+04  1.884263E+05  1.459497E+04 -2.622584E+03
       183  24  4.727110E+05  8.555300E+04  2.590405E+04  1.912184E+05  2.165289E+04 -1.066508E+03
       183  25  5.936867E+05  1.231043E+05  3.742760E+04  2.262257E+05  6.313600E+03 -4.278323E+03
       183  26  6.195274E+05  1.287742E+05  4.913111E+04  2.289199E+05  1.373501E+04 -2.946879E+03
       183  27  6.403973E+05  1.506718E+05  6.803082E+04  2.398152E+05  2.103698E+04 -1.298561E+03
       184   1  2.747049E+05  1.349339E+04 -1.495358E+04  1.569772E+05 -2.919638E+04 -1.960139E+01
       184   2  2.609532E+05 -2.230513E+04  2.349998E+03  1.169080E+05 -5.442774E+04 -9.340946E+03
       184   3  2.806519E+05  5.321299E+04  6.655898E+04  5.992153E+04 -7.711131E+04 -2.541669E+04
       184   4  4.769017E+05  7.466723E+04  3.245283E+04  1.977987E+05 -2.649087E+04  1.001341E+03
       184   5  4.667393E+05  6.831980E+04  5.627379E+04  1.874706E+05 -5.689618E+04 -1.027341E+04
       184   6  4.910347E+05  1.742873E+05  1.310866E+05  1.602291E+05 -8.475439E+04 -2.830427E+04
       184   7  6.791394E+05  1.358410E+05  7.985671E+04  2.386309E+05 -2.378438E+04  2.022492E+03
       184   8  6.725661E+05  1.589518E+05  1.101936E+05  2.580555E+05 -5.936551E+04 -1.120633E+04
       184   9  7.014616E+05  2.953835E+05  1.956093E+05  2.605715E+05 -9.240016E+04 -3.119414E+04
       184  10  2.747040E+05  1.349316E+04 -1.495518E+04  1.569772E+05  1.619599E-09 -3.801963E-09
       184  11  2.609500E+05 -2.230602E+04  2.344270E+03  1.169076E+05 -3.488417E-09 -2.824529E-09
       184  12  2.806453E+05  5.321070E+04  6.654660E+04  5.991995E+04 -3.939298E-09  8.372752E-10
       184  13  4.769010E+05  7.466704E+04  3.245151E+04  1.977987E+05 -2.955658E-09 -4.941935E-09
       184  14  4.667358E+05  6.831882E+04  5.626752E+04  1.874701E+05 -6.294832E-09 -6.701428E-09
       184  15  4.910267E+05  1.742845E+05  1.310716E+05  1.602271E+05 -1.463989E-09 -3.159207E-09
       184  16  6.791388E+05  1.358409E+05  7.985564E+04  2.386310E+05 -1.038477E-09  3.490052E-09
       184  17  6.725623E+05  1.589507E+05  1.101868E+05  2.580550E+05 -4.417307E-09  5.165242E-09
       184  18  7.014521E+05  2.953801E+05  1.955914E+05  2.605692E+05 -8.800961E-10  5.020820E-09
       184  19  2.747049E+05  1.349339E+04 -1.495358E+04  1.569772E+05  2.919638E+04  1.960139E+01
       184  20  2.609532E+05 -2.230513E+04  2.349998E+03  1.169080E+05  5.442774E+04  9.340946E+03
       184  21  2.806519E+05  5.321299E+04  6.655898E+04  5.992153E+04  7.711131E+04  2.541669E+04
       184  22  4.769017E+05  7.466723E+04  3.245283E+04  1.977987E+05  2.649087E+04 -1.001341E+03
       184  23  4.667393E+05  6.831980E+04  5.627379E+04  1.874706E+05  5.689618E+04  1.027341E+04
       184  24  4.910347E+05  1.742873E+05  1.310866E+05  1.602291E+05  8.475439E+04  2.830427E+04
       184  25  6.791394E+05  1.358410E+05  7.985671E+04  2.386309E+05  2.378438E+04 -2.022492E+03
       184  26  6.725661E+05  1.589518E+05  1.101936E+05  2.580555E+05  5.936551E+04  1.120633E+04
       184  27  7.014616E+05  2.953835E+05  1.956093E+05  2.605715E+05  9.240016E+04  3.119414E+04
       185   1 -1.152694E+05 -6.320077E+05 -1.163720E+05  8.685249E+04 -4.171016E+03 -2.126780E+04
       185   2 -6.686189E+04 -4.972663E+05 -7.073471E+04  5.232504E+04 -1.115646E+04 -7.499041E+03
       185   3 -3.443513E+04 -3.680813E+05 -3.802809E+04  7.837812E+04 -6.597049E+03  6.286763E+03
       185   4 -1.406786E+04 -2.256991E+05 -1.696924E+04  8.028258E+04 -4.182911E+03 -1.088208E+04
       185   5  3.729525E+02 -2.237202E+05 -8.249488E+03  5.000121E+04 -1.115717E+04 -6.523797E+03
       185   6  4.726418E+02 -2.256773E+05 -5.917509E+03  8.029968E+04 -6.588659E+03 -2.151590E+03
       185   7  8.712168E+04  1.807604E+05  8.242192E+04  7.370840E+04 -4.195022E+03 -4.895706E+02
       185   8  6.760262E+04  4.989530E+04  5.423084E+04  4.767636E+04 -1.115789E+04 -5.548127E+03
       185   9  3.537908E+04 -8.325436E+04  2.619205E+04  8.222168E+04 -6.580323E+03 -1.059186E+04
       185  10 -1.152695E+05 -6.320082E+05 -1.163729E+05  8.685242E+04  5.254377E-10  1.251030E-08
       185  11 -6.686204E+04 -4.972664E+05 -7.073505E+04  5.232497E+04  3.764298E-09  6.279278E-09
       185  12 -3.443519E+04 -3.680813E+05 -3.802825E+04  7.837815E+04 -5.635100E-10 -2.757191E-09
       185  13 -1.406791E+04 -2.256992E+05 -1.696950E+04  8.028255E+04 -9.882592E-10  4.331260E-11
       185  14  3.728074E+02 -2.237203E+05 -8.249802E+03  5.000115E+04 -2.446138E-09  1.334006E-09
       185  15  4.725940E+02 -2.256773E+05 -5.917599E+03  8.029966E+04 -7.403624E-09 -2.835438E-10
       185  16  8.712166E+04  1.807604E+05  8.242189E+04  7.370840E+04  5.290816E-10 -1.573192E-08
       185  17  6.760247E+04  4.989523E+04  5.423055E+04  4.767631E+04 -3.036879E-09 -4.699353E-09
       185  18  3.537900E+04 -8.325450E+04  2.619176E+04  8.222163E+04 -3.022878E-09  5.477994E-09
       185  19 -1.152694E+05 -6.320077E+05 -1.163720E+05  8.685249E+04  4.171016E+03  2.126780E+04
       185  20 -6.686189E+04 -4.972663E+05 -7.073471E+04  5.232504E+04  1.115646E+04  7.499041E+03
       185  21 -3.443513E+04 -3.680813E+05 -3.802809E+04  7.837812E+04  6.597049E+03 -6.286763E+03
       185  22 -1.406786E+04 -2.256991E+05 -1.696924E+04  8.028258E+04  4.182911E+03  1.088208E+04
       185  23  3.729525E+02 -2.237202E+05 -8.249488E+03  5.000121E+04  1.115717E+04  6.523797E+03
       185  24  4.726418E+02 -2.256773E+05 -5.917509E+03  8.029968E+04  6.588659E+03  2.151590E+03
       185  25  8.712168E+04  1.807604E+05  8.242192E+04  7.370840E+04  4.195022E+03  4.895706E+02
       185  26  6.760262E+04  4.989530E+04  5.423084E+04  4.767636E+04  1.115789E+04  5.548127E+03
       185  27  3.537908E+04 -8.325436E+04  2.619205E+04  8.222168E+04  6.580323E+03  1.059186E+04
       186   1 -7.511933E+03 -2.517047E+05 -1.152635E+04  8.101560E+04 -1.240653E+03  3.965840E+03
       186   2  2.580406E+04 -1.193692E+05  1.835693E+04  4.973533E+04  4.976745E+03  6.448524E+03
       186   3  5.641199E+04  1.216342E+04  4.598435E+04  7.948738E+04  1.095493E+04  8.932400E+03
       186   4 -9.608709E+02 -2.249880E+05 -5.502123E+03  8.039566E+04 -1.235686E+03 -1.205942E+03
       186   5  2.931200E+01 -2.245654E+05 -5.299818E+03  4.987870E+04  4.981905E+03  1.471192E+03
       186   6 -1.721504E+03 -2.249959E+05 -7.487941E+03  8.039487E+04  1.096021E+04  4.149005E+03
       186   7  5.590158E+03 -1.982705E+05  5.221540E+02  7.977570E+04 -1.230708E+03 -6.377944E+03
       186   8 -2.574618E+04 -3.297511E+05 -2.895718E+04  5.002205E+04  4.987062E+03 -3.505306E+03
       186   9 -5.985885E+04 -4.621029E+05 -6.096374E+04  8.130201E+04  1.096547E+04 -6.325803E+02
       186  10 -7.511938E+03 -2.517047E+05 -1.152638E+04  8.101561E+04  3.153172E-10 -6.089731E-09
       186  11  2.580402E+04 -1.193693E+05  1.835681E+04  4.973530E+04  2.733037E-09 -7.701651E-09
       186  12  5.641184E+04  1.216330E+04  4.598398E+04  7.948730E+04  7.832266E-10 -6.352405E-09
       186  13 -9.608729E+02 -2.249880E+05 -5.502129E+03  8.039566E+04 -4.899495E-09  1.088575E-09
       186  14  2.928477E+01 -2.245654E+05 -5.299868E+03  4.987870E+04  6.721662E-10  1.839763E-09
       186  15 -1.721638E+03 -2.249960E+05 -7.488199E+03  8.039483E+04  2.536890E-09  4.213864E-10
       186  16  5.590145E+03 -1.982705E+05  5.220747E+02  7.977569E+04 -2.252192E-09  5.749490E-09
       186  17 -2.574621E+04 -3.297512E+05 -2.895725E+04  5.002207E+04  3.627337E-10  7.871029E-09
       186  18 -5.985898E+04 -4.621029E+05 -6.096397E+04  8.130202E+04  2.155729E-09  7.608101E-09
       186  19 -7.511933E+03 -2.517047E+05 -1.152635E+04  8.101560E+04  1.240653E+03 -3.965840E+03
       186  20  2.580406E+04 -1.193692E+05  1.835693E+04  4.973533E+04 -4.976745E+03 -6.448524E+03
       186  21  5.641199E+04  1.216342E+04  4.598435E+04  7.948738E+04 -1.095493E+04 -8.932400E+03
       186  22 -9.608709E+02 -2.249880E+05 -5.502123E+03  8.039566E+04  1.235686E+03  1.205942E+03
       186  23  2.931200E+01 -2.245654E+05 -5.299818E+03  4.987870E+04 -4.981905E+03 -1.471192E+03
       186  24 -1.721504E+03 -2.249959E+05 -7.487941E+03  8.039487E+04 -1.096021E+04 -4.149005E+03
       186  25  5.590158E+03 -1.982705E+05  5.221540E+02  7.977570E+04  1.230708E+03  6.377944E+03
       186  26 -2.574618E+04 -3.297511E+05 -2.895718E+04  5.002205E+04 -4.987062E+03  3.505306E+03
       186  27 -5.985885E+04 -4.621029E+05 -6.096374E+04  8.130201E+04 -1.096547E+04  6.325803E+02
       187   1  8.749936E+04  1.265791E+05  7.047037E+04  8.357307E+04  1.681600E+04  1.518713E+04
       187   2  1.194846E+05  2.608465E+05  9.621098E+04  4.588950E+04  2.031736E+04  8.882506E+03
       187   3  1.285276E+05  3.905340E+05  1.203856E+05  6.850928E+04  7.022445E+03  2.552168E+03
       187   4  1.056161E+03 -2.263729E+05 -8.827372E+03  8.024425E+04  1.682731E+04  5.477493E+03
       187   5  6.996116E+02 -2.229022E+05 -1.392459E+04  5.007233E+04  2.031330E+04  1.287909E+04
       187   6 -2.498753E+04 -2.264113E+05 -3.010965E+04  8.020796E+04  6.997030E+03  2.025600E+04
       187   7 -8.539546E+04 -5.792087E+05 -8.813267E+04  7.691737E+04  1.683872E+04 -4.226683E+03
       187   8 -1.181015E+05 -7.064337E+05 -1.240753E+05  5.425194E+04  2.030929E+04  1.687259E+04
       187   9 -1.785301E+05 -8.430087E+05 -1.806313E+05  9.189510E+04  6.972270E+03  3.794228E+04
       187  10  8.749900E+04  1.265788E+05  7.046940E+04  8.357286E+04  3.622381E-09  5.444575E-10
       187  11  1.194841E+05  2.608463E+05  9.621006E+04  4.588936E+04  3.938790E-09  5.122928E-09
       187  12  1.285275E+05  3.905340E+05  1.203855E+05  6.850927E+04  2.664693E-09  1.657804E-09
       187  13  1.055849E+03 -2.263730E+05 -8.827961E+03  8.024418E+04  2.003608E-09 -4.446568E-11
       187  14  6.991240E+02 -2.229025E+05 -1.392567E+04  5.007212E+04  2.344130E-09  4.275998E-09
       187  15 -2.498770E+04 -2.264118E+05 -3.011051E+04  8.020785E+04  2.695258E-09  3.557223E-10
       187  16 -8.539577E+04 -5.792088E+05 -8.813323E+04  7.691743E+04  2.529428E-09 -2.912572E-09
       187  17 -1.181020E+05 -7.064342E+05 -1.240766E+05  5.425166E+04  2.170981E-09 -2.145327E-09
       187  18 -1.785305E+05 -8.430103E+05 -1.806341E+05  9.189488E+04  7.425942E-10  3.763085E-09
       187  19  8.749936E+04  1.265791E+05  7.047037E+04  8.357307E+04 -1.681600E+04 -1.518713E+04
       187  20  1.194846E+05  2.608465E+05  9.621098E+04  4.588950E+04 -2.031736E+04 -8.882506E+03
       187  21  1.285276E+05  3.905340E+05  1.203856E+05  6.850928E+04 -7.022445E+03 -2.552168E+03
       187  22  1.056161E+03 -2.263729E+05 -8.827372E+03  8.024425E+04 -1.682731E+04 -5.477493E+03
       187  23  6.996116E+02 -2.229022E+05 -1.392459E+04  5.007233E+04 -2.031330E+04 -1.287909E+04
       187  24 -2.498753E+04 -2.264113E+05 -3.010965E+04  8.020796E+04 -6.997030E+03 -2.025600E+04
       187  25 -8.539546E+04 -5.792087E+05 -8.813267E+04  7.691737E+04 -1.683872E+04  4.226683E+03
       187  26 -1.181015E+05 -7.064337E+05 -1.240753E+05  5.425194E+04 -2.030929E+04 -1.687259E+04
       187  27 -1.785301E+05 -8.430087E+05 -1.806313E+05  9.189510E+04 -6.972270E+03 -3.794228E+04
       188   1  2.681567E+05  1.397710E+05  1.271912E+05  3.500806E+04  2.749278E+04 -9.835972E+03
       188   2  2.133930E+05  1.468429E+05  1.064641E+05  4.132029E+04  8.362528E+03 -3.295948E+04
       188   3  1.574219E+05  1.390196E+05  9.448237E+04  5.868547E+04 -1.077652E+04 -3.940665E+04
       188   4 -4.388878E+05 -3.474203E+04 -3.848536E+04  5.644065E+04 -2.684562E+04 -9.880956E+03
       188   5 -4.357626E+05 -8.022356E+03 -1.874985E+04  5.089738E+04 -1.715071E+04 -3.298623E+04
       188   6 -4.388579E+05 -1.212205E+03 -1.029075E+04  5.640781E+04 -7.466633E+03 -3.940646E+04
       188   7 -1.145464E+06 -2.092873E+05 -2.041847E+05  7.784857E+04 -8.112253E+04 -9.929720E+03
       188   8 -1.084511E+06 -1.629119E+05 -1.439809E+05  6.046412E+04 -4.263788E+04 -3.301379E+04
       188   9 -1.034790E+06 -1.414634E+05 -1.150767E+05  5.413229E+04 -4.159825E+03 -3.940629E+04
       188  10  2.681559E+05  1.397707E+05  1.271896E+05  3.500828E+04  2.349645E-09 -3.353159E-10
       188  11  2.133926E+05  1.468417E+05  1.064619E+05  4.132052E+04  2.896635E-09 -2.125230E-09
       188  12  1.574214E+05  1.390179E+05  9.447923E+04  5.868513E+04  1.590933E-09 -2.723815E-09
       188  13 -4.388886E+05 -3.474233E+04 -3.848689E+04  5.644043E+04 -1.912408E-09  6.220865E-10
       188  14 -4.357632E+05 -8.023603E+03 -1.875244E+04  5.089692E+04  8.439710E-10 -1.340098E-09
       188  15 -4.388584E+05 -1.213887E+03 -1.029377E+04  5.640757E+04  2.640187E-09 -8.906393E-10
       188  16 -1.145471E+06 -2.092892E+05 -2.041973E+05  7.784792E+04 -1.436946E-09  1.478218E-10
       188  17 -1.084514E+06 -1.629136E+05 -1.439863E+05  6.046298E+04 -8.281840E-10 -2.772665E-09
       188  18 -1.034790E+06 -1.414651E+05 -1.150797E+05  5.413216E+04 -7.543361E-10 -3.467569E-09
       188  19  2.681567E+05  1.397710E+05  1.271912E+05  3.500806E+04 -2.749278E+04  9.835972E+03
       188  20  2.133930E+05  1.468429E+05  1.064641E+05  4.132029E+04 -8.362528E+03  3.295948E+04
       188  21  1.574219E+05  1.390196E+05  9.448237E+04  5.868547E+04  1.077652E+04  3.940665E+04
       188  22 -4.388878E+05 -3.474203E+04 -3.848536E+04  5.644065E+04  2.684562E+04  9.880956E+03
       188  23 -4.357626E+05 -8.022356E+03 -1.874985E+04  5.089738E+04  1.715071E+04  3.298623E+04
       188  24 -4.388579E+05 -1.212205E+03 -1.029075E+04  5.640781E+04  7.466633E+03  3.940646E+04
       188  25 -1.145464E+06 -2.092873E+05 -2.041847E+05  7.784857E+04  8.112253E+04  9.929720E+03
       188  26 -1.084511E+06 -1.629119E+05 -1.439809E+05  6.046412E+04  4.263788E+04  3.301379E+04
       188  27 -1.034790E+06 -1.414634E+05 -1.150767E+05  5.413229E+04  4.159825E+03  3.940629E+04
       189   1  1.219923E+05  1.298040E+05  8.943093E+04  5.644580E+04 -7.755438E+03 -3.793320E+04
       189   2  6.670302E+04  1.176791E+05  8.098274E+04  5.081358E+04 -8.274479E+03 -3.622416E+04
       189   3  1.132590E+04  1.049549E+05  7.272166E+04  5.735304E+04 -8.796299E+03 -3.297134E+04
       189   4 -4.375911E+05 -1.579782E+03 -7.822700E+03  5.666033E+04 -6.130682E+03 -3.793443E+04
       189   5 -4.373048E+05 -1.988935E+02 -4.303191E+03  5.057310E+04 -3.983173E+03 -3.622165E+04
       189   6 -4.375719E+05  1.194871E+02 -2.449143E+03  5.665819E+04 -1.838442E+03 -3.296445E+04
       189   7 -9.968675E+05 -1.329805E+05 -1.050873E+05  5.687455E+04 -4.507343E+03 -3.793567E+04
       189   8 -9.410623E+05 -1.180903E+05 -8.959723E+04  5.033274E+04  3.047632E+02 -3.621914E+04
       189   9 -8.862708E+05 -1.047264E+05 -7.762603E+04  5.596379E+04  5.114549E+03 -3.295757E+04
       189  10  1.219918E+05  1.298024E+05  8.942811E+04  5.644557E+04 -3.097154E-08 -3.350204E-09
       189  11  6.670259E+04  1.176777E+05  8.098014E+04  5.081334E+04  1.215610E-09 -7.209379E-11
       189  12  1.132553E+04  1.049537E+05  7.271947E+04  5.735281E+04  3.048202E-08 -2.146435E-10
       189  13 -4.375916E+05 -1.581337E+03 -7.825474E+03  5.666014E+04  5.368389E-10 -2.641681E-09
       189  14 -4.373052E+05 -2.003063E+02 -4.305686E+03  5.057298E+04 -3.545720E-09 -9.259071E-10
       189  15 -4.375722E+05  1.183196E+02 -2.451191E+03  5.665815E+04  7.318095E-10 -2.396575E-09
       189  16 -9.968679E+05 -1.329821E+05 -1.050900E+05  5.687442E+04  3.275758E-08 -9.997694E-10
       189  17 -9.410627E+05 -1.180917E+05 -8.959969E+04  5.033275E+04 -2.055716E-09 -9.015009E-10
       189  18 -8.862711E+05 -1.047276E+05 -7.762812E+04  5.596393E+04 -3.270086E-08 -1.248104E-09
       189  19  1.219923E+05  1.298040E+05  8.943093E+04  5.644580E+04  7.755438E+03  3.793320E+04
       189  20  6.670302E+04  1.176791E+05  8.098274E+04  5.081358E+04  8.274479E+03  3.622416E+04
       189  21  1.132590E+04  1.049549E+05  7.272166E+04  5.735304E+04  8.796299E+03  3.297134E+04
       189  22 -4.375911E+05 -1.579782E+03 -7.822700E+03  5.666033E+04  6.130682E+03  3.793443E+04
       189  23 -4.373048E+05 -1.988935E+02 -4.303191E+03  5.057310E+04  3.983173E+03  3.622165E+04
       189  24 -4.375719E+05  1.194871E+02 -2.449143E+03  5.665819E+04  1.838442E+03  3.296445E+04
       189  25 -9.968675E+05 -1.329805E+05 -1.050873E+05  5.687455E+04  4.507343E+03  3.793567E+04
       189  26 -9.410623E+05 -1.180903E+05 -8.959723E+04  5.033274E+04 -3.047632E+02  3.621914E+04
       189  27 -8.862708E+05 -1.047264E+05 -7.762603E+04  5.596379E+04 -5.114549E+03  3.295757E+04
       190   1 -2.455106E+04  9.646849E+04  6.698778E+04  5.719304E+04 -8.270103E+03 -3.059421E+04
       190   2 -7.992739E+04  8.356060E+04  5.843640E+04  5.098672E+04 -7.996140E+03 -2.658413E+04
       190   3 -1.353588E+05  7.067258E+04  4.970411E+04  5.707022E+04 -7.723431E+03 -2.242971E+04
       190   4 -4.374655E+05  9.446573E+01 -1.861108E+03  5.668469E+04 -1.465330E+03 -3.058690E+04
       190   5 -4.374081E+05  1.432348E+02 -1.064962E+03  5.053953E+04 -9.425590E+02 -2.657561E+04
       190   6 -4.374522E+05  1.687324E+02 -6.228570E+02  5.668459E+04 -4.210187E+02 -2.241994E+04
       190   7 -8.502114E+05 -9.628842E+04 -7.071504E+04  5.617664E+04  5.335067E+03 -3.057960E+04
       190   8 -7.947624E+05 -8.328075E+04 -6.057003E+04  5.009255E+04  6.107095E+03 -2.656710E+04
       190   9 -7.394552E+05 -7.033983E+04 -5.095240E+04  5.629912E+04  6.877958E+03 -2.241017E+04
       190  10 -2.455139E+04  9.646747E+04  6.698590E+04  5.719284E+04  8.015870E-09  5.599975E-10
       190  11 -7.992764E+04  8.355982E+04  5.843496E+04  5.098655E+04 -8.857506E-10  9.958870E-10
       190  12 -1.353590E+05  7.067202E+04  4.970305E+04  5.707008E+04 -1.177468E-08 -2.300269E-09
       190  13 -4.374657E+05  9.346074E+01 -1.862870E+03  5.668466E+04  2.091738E-09 -2.069024E-09
       190  14 -4.374083E+05  1.424763E+02 -1.066291E+03  5.053951E+04 -1.429100E-09  5.984750E-09
       190  15 -4.374523E+05  1.681927E+02 -6.238017E+02  5.668458E+04 -5.841863E-10  9.597988E-09
       190  16 -8.502117E+05 -9.628943E+04 -7.071686E+04  5.617677E+04 -9.657525E-09 -1.283603E-10
       190  17 -7.947627E+05 -8.328152E+04 -6.057143E+04  5.009268E+04 -1.365374E-09  1.529719E-09
       190  18 -7.394554E+05 -7.034039E+04 -5.095344E+04  5.629924E+04  1.238489E-08 -7.132217E-10
       190  19 -2.455106E+04  9.646849E+04  6.698778E+04  5.719304E+04  8.270103E+03  3.059421E+04
       190  20 -7.992739E+04  8.356060E+04  5.843640E+04  5.098672E+04  7.996140E+03  2.658413E+04
       190  21 -1.353588E+05  7.067258E+04  4.970411E+04  5.707022E+04  7.723431E+03  2.242971E+04
       190  22 -4.374655E+05  9.446573E+01 -1.861108E+03  5.668469E+04  1.465330E+03  3.058690E+04
       190  23 -4.374081E+05  1.432348E+02 -1.064962E+03  5.053953E+04  9.425590E+02  2.657561E+04
       190  24 -4.374522E+05  1.687324E+02 -6.228570E+02  5.668459E+04  4.210187E+02  2.241994E+04
       190  25 -8.502114E+05 -9.628842E+04 -7.071504E+04  5.617664E+04 -5.335067E+03  3.057960E+04
       190  26 -7.947624E+05 -8.328075E+04 -6.057003E+04  5.009255E+04 -6.107095E+03  2.656710E+04
       190  27 -7.394552E+05 -7.033983E+04 -5.095240E+04  5.629912E+04 -6.877958E+03  2.241017E+04
       191   1 -1.712973E+05  6.223760E+04  4.362473E+04  5.702411E+04 -7.614518E+03 -1.996637E+04
       191   2 -2.267315E+05  4.930828E+04  3.468703E+04  5.079590E+04 -7.491498E+03 -1.573985E+04
       191   3 -2.822084E+05  3.641701E+04  2.566753E+04  5.687877E+04 -7.369140E+03 -1.149974E+04
       191   4 -4.374369E+05  1.694107E+02 -4.836952E+02  5.668930E+04 -3.244471E+02 -1.995618E+04
       191   5 -4.374077E+05  1.580267E+02 -3.074627E+02  5.053363E+04 -1.783503E+02 -1.572910E+04
       191   6 -4.374291E+05  1.805573E+02 -2.294653E+02  5.668929E+04 -3.290555E+01 -1.148840E+04
       191   7 -7.035064E+05 -6.190242E+04 -4.459405E+04  5.635460E+04  6.962604E+03 -1.994600E+04
       191   8 -6.480398E+05 -4.899450E+04 -3.530309E+04  5.027144E+04  7.132398E+03 -1.571834E+04
       191   9 -5.926259E+05 -3.605712E+04 -2.612700E+04  5.649984E+04  7.301555E+03 -1.147708E+04
       191  10 -1.712975E+05  6.223715E+04  4.362387E+04  5.702399E+04  1.847371E-08 -2.606568E-09
       191  11 -2.267316E+05  4.930800E+04  3.468646E+04  5.079581E+04  1.982366E-09  2.097488E-09
       191  12 -2.822085E+05  3.641685E+04  2.566718E+04  5.687871E+04 -1.418993E-08  1.482010E-09
       191  13 -4.374370E+05  1.689831E+02 -4.844436E+02  5.668929E+04 -2.463566E-09  7.309924E-09
       191  14 -4.374077E+05  1.577611E+02 -3.079276E+02  5.053363E+04  3.732785E-10  8.028840E-09
       191  15 -4.374291E+05  1.804156E+02 -2.297132E+02  5.668929E+04 -3.692853E-09  1.595767E-09
       191  16 -7.035065E+05 -6.190286E+04 -4.459488E+04  5.635472E+04 -1.898265E-08 -1.048454E-09
       191  17 -6.480400E+05 -4.899478E+04 -3.530365E+04  5.027153E+04 -3.466863E-09  8.830144E-10
       191  18 -5.926260E+05 -3.605728E+04 -2.612735E+04  5.649991E+04  1.339018E-08  1.398729E-09
       191  19 -1.712973E+05  6.223760E+04  4.362473E+04  5.702411E+04  7.614518E+03  1.996637E+04
       191  20 -2.267315E+05  4.930828E+04  3.468703E+04  5.079590E+04  7.491498E+03  1.573985E+04
       191  21 -2.822084E+05  3.641701E+04  2.566753E+04  5.687877E+04  7.369140E+03  1.149974E+04
       191  22 -4.374369E+05  1.694107E+02 -4.836952E+02  5.668930E+04  3.244471E+02  1.995618E+04
       191  23 -4.374077E+05  1.580267E+02 -3.074627E+02  5.053363E+04  1.783503E+02  1.572910E+04
       191  24 -4.374291E+05  1.805573E+02 -2.294653E+02  5.668929E+04  3.290555E+01  1.148840E+04
       191  25 -7.035064E+05 -6.190242E+04 -4.459405E+04  5.635460E+04 -6.962604E+03  1.994600E+04
       191  26 -6.480398E+05 -4.899450E+04 -3.530309E+04  5.027144E+04 -7.132398E+03  1.571834E+04
       191  27 -5.926259E+05 -3.605712E+04 -2.612700E+04  5.649984E+04 -7.301555E+03  1.147708E+04
       192   1 -3.181784E+05  2.797972E+04  1.946401E+04  5.683416E+04 -7.332552E+03 -9.027072E+03
       192   2 -3.736304E+05  1.504609E+04  1.033382E+04  5.059629E+04 -7.204578E+03 -4.782755E+03
       192   3 -4.291346E+05  2.145488E+03  1.115077E+03  5.667757E+04 -7.076795E+03 -5.450781E+02
       192   4 -4.374276E+05  1.828749E+02 -2.188902E+02  5.669104E+04  4.034635E+00 -9.015531E+03
       192   5 -4.374002E+05  1.697177E+02 -2.484635E+02  5.053143E+04  1.202687E+02 -4.771071E+03
       192   6 -4.374253E+05  1.919531E+02 -3.583313E+02  5.669103E+04  2.363229E+02 -5.332493E+02
       192   7 -5.566626E+05 -2.761468E+04 -1.990200E+04  5.654795E+04  7.339260E+03 -9.003993E+03
       192   8 -5.011658E+05 -1.470684E+04 -1.083067E+04  5.046658E+04  7.444388E+03 -4.759389E+03
       192   9 -4.457157E+05 -1.761556E+03 -1.831541E+03  5.670450E+04  7.549346E+03 -5.214200E+02
       192  10 -3.181785E+05  2.797962E+04  1.946375E+04  5.683411E+04  4.309805E-09 -1.631950E-09
       192  11 -3.736304E+05  1.504605E+04  1.033368E+04  5.059626E+04 -3.159026E-10 -3.148898E-09
       192  12 -4.291347E+05  2.145474E+03  1.114983E+03  5.667757E+04 -8.244742E-09 -1.648700E-09
       192  13 -4.374276E+05  1.827876E+02 -2.190430E+02  5.669104E+04 -1.665164E-09  4.028131E-09
       192  14 -4.374002E+05  1.696933E+02 -2.485063E+02  5.053143E+04 -3.793471E-09 -3.181174E-10
       192  15 -4.374253E+05  1.919528E+02 -3.583319E+02  5.669103E+04 -2.062333E-09 -7.854878E-10
       192  16 -5.566627E+05 -2.761478E+04 -1.990226E+04  5.654800E+04 -4.965370E-09  2.483672E-09
       192  17 -5.011659E+05 -1.470687E+04 -1.083082E+04  5.046660E+04 -1.178614E-09 -1.839824E-09
       192  18 -4.457158E+05 -1.761572E+03 -1.831649E+03  5.670450E+04  5.423356E-09 -1.901164E-09
       192  19 -3.181784E+05  2.797972E+04  1.946401E+04  5.683416E+04  7.332552E+03  9.027072E+03
       192  20 -3.736304E+05  1.504609E+04  1.033382E+04  5.059629E+04  7.204578E+03  4.782755E+03
       192  21 -4.291346E+05  2.145488E+03  1.115077E+03  5.667757E+04  7.076795E+03  5.450781E+02
       192  22 -4.374276E+05  1.828749E+02 -2.188902E+02  5.669104E+04 -4.034635E+00  9.015531E+03
       192  23 -4.374002E+05  1.697177E+02 -2.484635E+02  5.053143E+04 -1.202687E+02  4.771071E+03
       192  24 -4.374253E+05  1.919531E+02 -3.583313E+02  5.669103E+04 -2.363229E+02  5.332493E+02
       192  25 -5.566626E+05 -2.761468E+04 -1.990200E+04  5.654795E+04 -7.339260E+03  9.003993E+03
       192  26 -5.011658E+05 -1.470684E+04 -1.083067E+04  5.046658E+04 -7.444388E+03  4.759389E+03
       192  27 -4.457157E+05 -1.761556E+03 -1.831541E+03  5.670450E+04 -7.549346E+03  5.214200E+02
       193   1 -4.651214E+05 -6.294917E+03 -5.199496E+03  5.662026E+04 -7.016141E+03  1.924332E+03
       193   2 -5.205340E+05 -1.924069E+04 -1.465622E+04  5.038333E+04 -6.494885E+03  6.120320E+03
       193   3 -5.760650E+05 -3.221724E+04 -2.447347E+04  5.645934E+04 -5.973298E+03  1.022733E+04
       193   4 -4.374348E+05  1.949854E+02 -4.519442E+02  5.668960E+04  3.055345E+02  1.936160E+03
       193   5 -4.373890E+05  1.779736E+02 -7.555447E+02  5.053321E+04  6.728699E+02  6.131689E+03
       193   6 -4.374379E+05  1.570442E+02 -1.312806E+03  5.668967E+04  1.040580E+03  1.023825E+04
       193   7 -4.097473E+05  6.684876E+03  4.295783E+03  5.675894E+04  7.627527E+03  1.947990E+03
       193   8 -3.542371E+05  1.959630E+04  1.314511E+04  5.068311E+04  7.841554E+03  6.143061E+03
       193   9 -2.987918E+05  3.253035E+04  2.184745E+04  5.692004E+04  8.055974E+03  1.024917E+04
       193  10 -4.651214E+05 -6.294934E+03 -5.199595E+03  5.662027E+04 -3.907214E-09  1.739684E-09
       193  11 -5.205341E+05 -1.924074E+04 -1.465636E+04  5.038336E+04 -3.709105E-09  9.934810E-10
       193  12 -5.760651E+05 -3.221736E+04 -2.447373E+04  5.645939E+04 -3.760427E-09 -5.034300E-10
       193  13 -4.374348E+05  1.949814E+02 -4.519514E+02  5.668960E+04  1.890242E-09  2.177717E-10
       193  14 -4.373890E+05  1.779331E+02 -7.556162E+02  5.053321E+04 -3.633069E-09  1.032252E-09
       193  15 -4.374380E+05  1.569314E+02 -1.313005E+03  5.668966E+04 -3.316923E-09  1.006002E-09
       193  16 -4.097474E+05  6.684856E+03  4.295667E+03  5.675893E+04  2.106870E-09  1.243257E-09
       193  17 -3.542372E+05  1.959625E+04  1.314492E+04  5.068307E+04  8.455212E-10 -4.083116E-09
       193  18 -2.987919E+05  3.253022E+04  2.184713E+04  5.691997E+04  4.341458E-10 -7.325546E-10
       193  19 -4.651214E+05 -6.294917E+03 -5.199496E+03  5.662026E+04  7.016141E+03 -1.924332E+03
       193  20 -5.205340E+05 -1.924069E+04 -1.465622E+04  5.038333E+04  6.494885E+03 -6.120320E+03
       193  21 -5.760650E+05 -3.221724E+04 -2.447347E+04  5.645934E+04  5.973298E+03 -1.022733E+04
       193  22 -4.374348E+05  1.949854E+02 -4.519442E+02  5.668960E+04 -3.055345E+02 -1.936160E+03
       193  23 -4.373890E+05  1.779736E+02 -7.555447E+02  5.053321E+04 -6.728699E+02 -6.131689E+03
       193  24 -4.374379E+05  1.570442E+02 -1.312806E+03  5.668967E+04 -1.040580E+03 -1.023825E+04
       193  25 -4.097473E+05  6.684876E+03  4.295783E+03  5.675894E+04 -7.627527E+03 -1.947990E+03
       193  26 -3.542371E+05  1.959630E+04  1.314511E+04  5.068311E+04 -7.841554E+03 -6.143061E+03
       193  27 -2.987918E+05  3.253035E+04  2.184745E+04  5.692004E+04 -8.055974E+03 -1.024917E+04
       194   1 -6.121446E+05 -4.066115E+04 -3.117493E+04  5.628687E+04 -5.807921E+03  1.264457E+04
       194   2 -6.672361E+05 -5.390143E+04 -4.221855E+04  5.043981E+04 -2.644541E+03  1.628666E+04
       194   3 -7.230307E+05 -6.816494E+04 -5.558994E+04  5.683732E+04  5.204334E+02  1.896816E+04
       194   4 -4.375121E+05  1.774146E+02 -1.725586E+03  5.667417E+04  1.301651E+03  1.265541E+04
       194   5 -4.373073E+05 -4.802699E+01 -3.026622E+03  5.055292E+04  2.806786E+03  1.629442E+04
       194   6 -4.375211E+05 -1.008447E+03 -5.502930E+03  5.667599E+04  4.313811E+03  1.897303E+04
       194   7 -2.628494E+05  4.101440E+04  2.772298E+04  5.706157E+04  8.413160E+03  1.266625E+04
       194   8 -2.073265E+05  5.380258E+04  3.616368E+04  5.066606E+04  8.260069E+03  1.630219E+04
       194   9 -1.519316E+05  6.614360E+04  4.458119E+04  5.651455E+04  8.108883E+03  1.897790E+04
       194  10 -6.121447E+05 -4.066133E+04 -3.117530E+04  5.628693E+04 -4.958847E-09  1.386028E-09
       194  11 -6.672362E+05 -5.390172E+04 -4.221907E+04  5.043985E+04 -7.276737E-10  1.938785E-10
       194  12 -7.230308E+05 -6.816533E+04 -5.559061E+04  5.683731E+04  7.078914E-10  3.508362E-09
       194  13 -4.375121E+05  1.772422E+02 -1.725890E+03  5.667415E+04 -2.407484E-09  4.294360E-10
       194  14 -4.373074E+05 -4.831415E+01 -3.027135E+03  5.055289E+04 -3.618083E-09  9.870615E-10
       194  15 -4.375212E+05 -1.008839E+03 -5.503642E+03  5.667592E+04  8.488017E-11  2.051655E-09
       194  16 -2.628495E+05  4.101421E+04  2.772255E+04  5.706148E+04  1.080231E-09  4.577879E-10
       194  17 -2.073266E+05  5.380228E+04  3.616305E+04  5.066595E+04  1.771692E-09  1.970495E-10
       194  18 -1.519318E+05  6.614320E+04  4.458039E+04  5.651443E+04  9.020669E-10 -2.068093E-09
       194  19 -6.121446E+05 -4.066115E+04 -3.117493E+04  5.628687E+04  5.807921E+03 -1.264457E+04
       194  20 -6.672361E+05 -5.390143E+04 -4.221855E+04  5.043981E+04  2.644541E+03 -1.628666E+04
       194  21 -7.230307E+05 -6.816494E+04 -5.558994E+04  5.683732E+04 -5.204334E+02 -1.896816E+04
       194  22 -4.375121E+05  1.774146E+02 -1.725586E+03  5.667417E+04 -1.301651E+03 -1.265541E+04
       194  23 -4.373073E+05 -4.802699E+01 -3.026622E+03  5.055292E+04 -2.806786E+03 -1.629442E+04
       194  24 -4.375211E+05 -1.008447E+03 -5.502930E+03  5.667599E+04 -4.313811E+03 -1.897303E+04
       194  25 -2.628494E+05  4.101440E+04  2.772298E+04  5.706157E+04 -8.413160E+03 -1.266625E+04
       194  26 -2.073265E+05  5.380258E+04  3.616368E+04  5.066606E+04 -8.260069E+03 -1.630219E+04
       194  27 -1.519316E+05  6.614360E+04  4.458119E+04  5.651455E+04 -8.108883E+03 -1.897790E+04
       195   1 -7.603720E+05 -7.661412E+04 -6.436244E+04  5.489699E+04  4.106795E+02  2.082178E+04
       195   2 -8.120924E+05 -9.541239E+04 -8.648125E+04  5.742478E+04  2.513865E+04  1.846886E+04
       195   3 -8.713398E+05 -1.313350E+05 -1.289960E+05  7.150911E+04  4.987667E+04  5.732533E+03
       195   4 -4.384122E+05 -7.478472E+02 -7.239094E+03  5.651904E+04  5.251811E+03  2.082788E+04
       195   5 -4.362159E+05 -5.546524E+03 -1.318706E+04  5.075691E+04  1.205896E+04  1.844955E+04
       195   6 -4.384307E+05 -2.435009E+04 -2.707269E+04  5.655178E+04  1.887853E+04  5.690015E+03
       195   7 -1.163509E+05  7.511274E+04  4.988047E+04  5.814192E+04  1.009538E+04  2.083401E+04
       195   8 -6.020314E+04  8.431113E+04  6.010106E+04  4.408486E+04 -1.028490E+03  1.843052E+04
       195   9 -5.346358E+03  8.262281E+04  7.484151E+04  4.158389E+04 -1.214112E+04  5.649009E+03
       195  10 -7.603722E+05 -7.661459E+04 -6.436325E+04  5.489698E+04 -1.200860E-10  3.984286E-09
       195  11 -8.120932E+05 -9.541293E+04 -8.648308E+04  5.742441E+04  1.304443E-09  1.683250E-09
       195  12 -8.713425E+05 -1.313357E+05 -1.290008E+05  7.150888E+04  1.539042E-09  2.240565E-10
       195  13 -4.384123E+05 -7.483203E+02 -7.239961E+03  5.651895E+04  1.488625E-09  5.404007E-09
       195  14 -4.362161E+05 -5.546929E+03 -1.318797E+04  5.075673E+04 -5.789664E-10 -1.160440E-09
       195  15 -4.384311E+05 -2.435022E+04 -2.707342E+04  5.655170E+04 -2.645303E-09  1.790024E-09
       195  16 -1.163511E+05  7.511224E+04  4.987947E+04  5.814175E+04  8.565116E-10  3.156798E-09
       195  17 -6.020323E+04  8.431076E+04  6.010042E+04  4.408488E+04  1.412050E-09  2.027738E-09
       195  18 -5.346525E+03  8.262274E+04  7.484117E+04  4.158395E+04 -1.334644E-09  3.860809E-10
       195  19 -7.603720E+05 -7.661412E+04 -6.436244E+04  5.489699E+04 -4.106795E+02 -2.082178E+04
       195  20 -8.120924E+05 -9.541239E+04 -8.648125E+04  5.742478E+04 -2.513865E+04 -1.846886E+04
       195  21 -8.713398E+05 -1.313350E+05 -1.289960E+05  7.150911E+04 -4.987667E+04 -5.732533E+03
       195  22 -4.384122E+05 -7.478472E+02 -7.239094E+03  5.651904E+04 -5.251811E+03 -2.082788E+04
       195  23 -4.362159E+05 -5.546524E+03 -1.318706E+04  5.075691E+04 -1.205896E+04 -1.844955E+04
       195  24 -4.384307E+05 -2.435009E+04 -2.707269E+04  5.655178E+04 -1.887853E+04 -5.690015E+03
       195  25 -1.163509E+05  7.511274E+04  4.988047E+04  5.814192E+04 -1.009538E+04 -2.083401E+04
       195  26 -6.020314E+04  8.431113E+04  6.010106E+04  4.408486E+04  1.028490E+03 -1.843052E+04
       195  27 -5.346358E+03  8.262281E+04  7.484151E+04  4.158389E+04  1.214112E+04 -5.649009E+03
       196   1 -8.453096E+04  7.713379E+04  6.455316E+04  2.682350E+03 -2.233607E+04 -6.318785E+03
       196   2 -1.177015E+05  1.134646E+05  7.820506E+04  7.557842E+03 -1.928959E+04 -1.968273E+04
       196   3 -1.624870E+05  1.047901E+05  7.864206E+04  2.991738E+04 -1.625987E+04 -2.025824E+04
       196   4 -5.800283E+05 -4.605236E+04 -5.601046E+04  2.268926E+04 -3.843912E+04 -6.340788E+03
       196   5 -5.732979E+05  1.636336E+03 -2.529030E+04  1.391236E+04 -2.496666E+04 -1.969227E+04
       196   6 -5.800049E+05  2.490173E+03 -1.503751E+04  2.262079E+04 -1.151050E+04 -2.025125E+04
       196   7 -1.075300E+06 -1.692549E+05 -1.765907E+05  4.268008E+04 -5.452935E+04 -6.363837E+03
       196   8 -1.028701E+06 -1.102061E+05 -1.287990E+05  2.026211E+04 -3.063960E+04 -1.970193E+04
       196   9 -9.973603E+05 -9.982148E+04 -1.087280E+05  1.532908E+04 -6.764298E+03 -2.024437E+04
       196  10 -8.453151E+04  7.713361E+04  6.455215E+04  2.682236E+03 -2.824043E-09  2.111280E-09
       196  11 -1.177020E+05  1.134641E+05  7.820364E+04  7.557537E+03  3.938230E-10  6.484691E-09
       196  12 -1.624874E+05  1.047896E+05  7.864079E+04  2.991712E+04 -1.562893E-09 -2.597574E-11
       196  13 -5.800299E+05 -4.605280E+04 -5.601332E+04  2.268906E+04 -1.767337E-09 -2.147956E-09
       196  14 -5.732987E+05  1.635753E+03 -2.529220E+04  1.391197E+04  1.411564E-09 -6.243819E-09
       196  15 -5.800051E+05  2.489697E+03 -1.503853E+04  2.262060E+04 -2.116322E-09  3.070334E-10
       196  16 -1.075303E+06 -1.692558E+05 -1.765964E+05  4.267980E+04  2.265596E-09  4.409071E-10
       196  17 -1.028702E+06 -1.102068E+05 -1.288015E+05  2.026162E+04 -4.078150E-10  3.126216E-09
       196  18 -9.973604E+05 -9.982193E+04 -1.087289E+05  1.532897E+04 -2.652279E-10  6.952301E-10
       196  19 -8.453096E+04  7.713379E+04  6.455316E+04  2.682350E+03  2.233607E+04  6.318785E+03
       196  20 -1.177015E+05  1.134646E+05  7.820506E+04  7.557842E+03  1.928959E+04  1.968273E+04
       196  21 -1.624870E+05  1.047901E+05  7.864206E+04  2.991738E+04  1.625987E+04  2.025824E+04
       196  22 -5.800283E+05 -4.605236E+04 -5.601046E+04  2.268926E+04  3.843912E+04  6.340788E+03
       196  23 -5.732979E+05  1.636336E+03 -2.529030E+04  1.391236E+04  2.496666E+04  1.969227E+04
       196  24 -5.800049E+05  2.490173E+03 -1.503751E+04  2.262079E+04  1.151050E+04  2.025125E+04
       196  25 -1.075300E+06 -1.692549E+05 -1.765907E+05  4.268008E+04  5.452935E+04  6.363837E+03
       196  26 -1.028701E+06 -1.102061E+05 -1.287990E+05  2.026211E+04  3.063960E+04  1.970193E+04
       196  27 -9.973603E+05 -9.982148E+04 -1.087280E+05  1.532908E+04  6.764298E+03  2.024437E+04
       197   1 -1.941797E+05  9.103960E+04  7.437617E+04  2.226155E+04 -1.023212E+04 -1.772282E+04
       197   2 -2.328754E+05  8.444574E+04  7.086656E+04  1.393983E+04 -7.463666E+03 -1.633643E+04
       197   3 -2.726968E+05  7.490749E+04  6.481187E+04  2.376993E+04 -4.697375E+03 -1.436188E+04
       197   4 -5.772842E+05 -2.891723E+03 -1.203363E+04  2.279148E+04 -9.340993E+03 -1.772208E+04
       197   5 -5.766737E+05  1.929502E+02 -6.449485E+03  1.371237E+04 -6.094551E+03 -1.633454E+04
       197   6 -5.772748E+05  2.490877E+02 -3.743885E+03  2.278577E+04 -2.850108E+03 -1.435872E+04
       197   7 -9.602521E+05 -9.683312E+04 -9.845282E+04  2.332101E+04 -8.450407E+03 -1.772133E+04
       197   8 -9.203620E+05 -8.406793E+04 -8.377305E+04  1.348499E+04 -4.726185E+03 -1.633266E+04
       197   9 -8.817665E+05 -7.441567E+04 -7.230554E+04  2.180206E+04 -1.003739E+03 -1.435555E+04
       197  10 -1.941798E+05  9.103924E+04  7.437538E+04  2.226140E+04 -1.027237E-08 -4.388242E-09
       197  11 -2.328755E+05  8.444544E+04  7.086595E+04  1.393973E+04 -2.488644E-09 -1.716683E-09
       197  12 -2.726969E+05  7.490726E+04  6.481144E+04  2.376988E+04  6.276126E-09  5.565581E-09
       197  13 -5.772843E+05 -2.892084E+03 -1.203438E+04  2.279134E+04 -1.494373E-09  4.087400E-09
       197  14 -5.766738E+05  1.926538E+02 -6.450056E+03  1.371229E+04 -4.221971E-10 -1.301902E-08
       197  15 -5.772749E+05  2.488642E+02 -3.744288E+03  2.278574E+04  1.939115E-09  4.849666E-09
       197  16 -9.602523E+05 -9.683348E+04 -9.845354E+04  2.332089E+04  9.934611E-09 -4.790455E-09
       197  17 -9.203621E+05 -8.406822E+04 -8.377359E+04  1.348493E+04  2.462372E-09 -1.631128E-09
       197  18 -8.817666E+05 -7.441589E+04 -7.230593E+04  2.180204E+04 -9.758552E-09  1.701386E-09
       197  19 -1.941797E+05  9.103960E+04  7.437617E+04  2.226155E+04  1.023212E+04  1.772282E+04
       197  20 -2.328754E+05  8.444574E+04  7.086656E+04  1.393983E+04  7.463666E+03  1.633643E+04
       197  21 -2.726968E+05  7.490749E+04  6.481187E+04  2.376993E+04  4.697375E+03  1.436188E+04
       197  22 -5.772842E+05 -2.891723E+03 -1.203363E+04  2.279148E+04  9.340993E+03  1.772208E+04
       197  23 -5.766737E+05  1.929502E+02 -6.449485E+03  1.371237E+04  6.094551E+03  1.633454E+04
       197  24 -5.772748E+05  2.490877E+02 -3.743885E+03  2.278577E+04  2.850108E+03  1.435872E+04
       197  25 -9.602521E+05 -9.683312E+04 -9.845282E+04  2.332101E+04  8.450407E+03  1.772133E+04
       197  26 -9.203620E+05 -8.406793E+04 -8.377305E+04  1.348499E+04  4.726185E+03  1.633266E+04
       197  27 -8.817665E+05 -7.441567E+04 -7.230554E+04  2.180206E+04  1.003739E+03  1.435555E+04
       198   1 -3.069952E+05  6.606689E+04  5.771198E+04  2.325188E+04 -3.945077E+03 -1.308062E+04
       198   2 -3.464542E+05  5.655747E+04  5.014977E+04  1.406250E+04 -3.152255E+03 -1.100981E+04
       198   3 -3.861197E+05  4.692422E+04  4.202339E+04  2.319673E+04 -2.360217E+03 -8.907952E+03
       198   4 -5.770481E+05 -9.104460E+01 -2.889356E+03  2.282573E+04 -2.269259E+03 -1.307760E+04
       198   5 -5.769395E+05  7.494808E+01 -1.655595E+03  1.366350E+04 -1.451477E+03 -1.100648E+04
       198   6 -5.770426E+05  1.129485E+02 -1.003342E+03  2.282530E+04 -6.344293E+02 -8.904319E+03
       198   7 -8.470331E+05 -6.625396E+04 -6.349530E+04  2.239973E+04 -5.941617E+02 -1.307458E+04
       198   8 -8.073753E+05 -5.641120E+04 -5.346433E+04  1.326462E+04  2.486759E+02 -1.100316E+04
       198   9 -7.679316E+05 -4.670083E+04 -4.403239E+04  2.245396E+04  1.090832E+03 -8.900687E+03
       198  10 -3.069952E+05  6.606670E+04  5.771163E+04  2.325184E+04  3.201429E-09 -1.418481E-09
       198  11 -3.464543E+05  5.655733E+04  5.014952E+04  1.406247E+04 -4.302064E-09 -3.581286E-09
       198  12 -3.861197E+05  4.692414E+04  4.202323E+04  2.319672E+04 -9.086539E-09  2.448402E-11
       198  13 -5.770481E+05 -9.122958E+01 -2.889687E+03  2.282570E+04 -1.058950E-09  6.084081E-10
       198  14 -5.769395E+05  7.481747E+01 -1.655827E+03  1.366348E+04 -3.040494E-10 -8.086807E-09
       198  15 -5.770427E+05  1.128633E+02 -1.003491E+03  2.282530E+04 -1.489480E-10 -6.520619E-09
       198  16 -8.470331E+05 -6.625414E+04 -6.349563E+04  2.239972E+04 -3.834275E-09 -3.309017E-09
       198  17 -8.073753E+05 -5.641133E+04 -5.346455E+04  1.326462E+04  4.651388E-09  2.184893E-09
       198  18 -7.679317E+05 -4.670091E+04 -4.403254E+04  2.245397E+04  1.144133E-08  6.955157E-09
       198  19 -3.069952E+05  6.606689E+04  5.771198E+04  2.325188E+04  3.945077E+03  1.308062E+04
       198  20 -3.464542E+05  5.655747E+04  5.014977E+04  1.406250E+04  3.152255E+03  1.100981E+04
       198  21 -3.861197E+05  4.692422E+04  4.202339E+04  2.319673E+04  2.360217E+03  8.907952E+03
       198  22 -5.770481E+05 -9.104460E+01 -2.889356E+03  2.282573E+04  2.269259E+03  1.307760E+04
       198  23 -5.769395E+05  7.494808E+01 -1.655595E+03  1.366350E+04  1.451477E+03  1.100648E+04
       198  24 -5.770426E+05  1.129485E+02 -1.003342E+03  2.282530E+04  6.344293E+02  8.904319E+03
       198  25 -8.470331E+05 -6.625396E+04 -6.349530E+04  2.239973E+04  5.941617E+02  1.307458E+04
       198  26 -8.073753E+05 -5.641120E+04 -5.346433E+04  1.326462E+04 -2.486759E+02  1.100316E+04
       198  27 -7.679316E+05 -4.670083E+04 -4.403239E+04  2.245396E+04 -1.090832E+03  8.900687E+03
       199   1 -4.208304E+05  3.834840E+04  3.418488E+04  2.312621E+04 -2.194464E+03 -7.676981E+03
       199   2 -4.605225E+05  2.860533E+04  2.558760E+04  1.384617E+04 -1.913063E+03 -5.565264E+03
       199   3 -5.003315E+05  1.892929E+04  1.680113E+04  2.297725E+04 -1.632036E+03 -3.450075E+03
       199   4 -5.770192E+05  9.400944E+01 -8.082575E+02  2.284484E+04 -4.740603E+02 -7.673238E+03
       199   5 -5.769584E+05  6.985570E+01 -5.840318E+02  1.363915E+04 -1.899376E+02 -5.561389E+03
       199   6 -5.770165E+05  1.123478E+02 -5.508659E+02  2.284480E+04  9.382917E+01 -3.446062E+03
       199   7 -7.331852E+05 -3.816204E+04 -3.580293E+04  2.256352E+04  1.245915E+03 -7.669497E+03
       199   8 -6.933817E+05 -2.846655E+04 -2.675652E+04  1.343217E+04  1.532868E+03 -5.557515E+03
       199   9 -6.536961E+05 -1.870500E+04 -1.790323E+04  2.271236E+04  1.819483E+03 -3.442049E+03
       199  10 -4.208304E+05  3.834833E+04  3.418476E+04  2.312620E+04  1.079205E-08 -3.050120E-09
       199  11 -4.605225E+05  2.860530E+04  2.558754E+04  1.384616E+04  4.851018E-09  8.535632E-10
       199  12 -5.003315E+05  1.892928E+04  1.680111E+04  2.297725E+04 -5.658687E-09  2.013158E-09
       199  13 -5.770192E+05  9.394617E+01 -8.083685E+02  2.284483E+04  2.156188E-09 -1.715837E-09
       199  14 -5.769584E+05  6.982249E+01 -5.840899E+02  1.363915E+04  3.715722E-09 -7.241988E-09
       199  15 -5.770165E+05  1.123351E+02 -5.508882E+02  2.284480E+04 -9.226298E-10 -6.921147E-10
       199  16 -7.331852E+05 -3.816210E+04 -3.580304E+04  2.256352E+04 -9.704374E-09  2.218514E-09
       199  17 -6.933817E+05 -2.846658E+04 -2.675658E+04  1.343217E+04 -1.389257E-09  7.731571E-09
       199  18 -6.536961E+05 -1.870502E+04 -1.790326E+04  2.271237E+04  5.743852E-09  4.360411E-09
       199  19 -4.208304E+05  3.834840E+04  3.418488E+04  2.312621E+04  2.194464E+03  7.676981E+03
       199  20 -4.605225E+05  2.860533E+04  2.558760E+04  1.384617E+04  1.913063E+03  5.565264E+03
       199  21 -5.003315E+05  1.892929E+04  1.680113E+04  2.297725E+04  1.632036E+03  3.450075E+03
       199  22 -5.770192E+05  9.400944E+01 -8.082575E+02  2.284484E+04  4.740603E+02  7.673238E+03
       199  23 -5.769584E+05  6.985570E+01 -5.840318E+02  1.363915E+04  1.899376E+02  5.561389E+03
       199  24 -5.770165E+05  1.123478E+02 -5.508659E+02  2.284480E+04 -9.382917E+01  3.446062E+03
       199  25 -7.331852E+05 -3.816204E+04 -3.580293E+04  2.256352E+04 -1.245915E+03  7.669497E+03
       199  26 -6.933817E+05 -2.846655E+04 -2.675652E+04  1.343217E+04 -1.532868E+03  5.557515E+03
       199  27 -6.536961E+05 -1.870500E+04 -1.790323E+04  2.271236E+04 -1.819483E+03  3.442049E+03
       200   1 -5.351784E+05  1.034499E+04  8.692457E+03  2.291514E+04 -1.531705E+03 -2.217685E+03
       200   2 -5.749188E+05  5.750022E+02 -3.833088E+02  1.361088E+04 -1.120818E+03 -9.972540E+01
       200   3 -6.148037E+05 -9.138211E+03 -9.737200E+03  2.274794E+04 -7.099679E+02  2.017421E+03
       200   4 -5.770217E+05  1.127602E+02 -5.986732E+02  2.285146E+04  1.949487E+02 -2.213628E+03
       200   5 -5.769485E+05  7.769457E+01 -8.394561E+02  1.363082E+04  6.051076E+02 -9.567112E+01
       200   6 -5.770218E+05  9.947823E+01 -1.357946E+03  2.285150E+04  1.015256E+03  2.021479E+03
       200   7 -6.188633E+05 -1.011958E+04 -9.889901E+03  2.278778E+04  1.921488E+03 -2.209572E+03
       200   8 -5.789782E+05 -4.196118E+02 -1.295592E+03  1.365076E+04  2.331028E+03 -9.161673E+01
       200   9 -5.392385E+05  9.337073E+03  7.021231E+03  2.295506E+04  2.740584E+03  2.025537E+03
       200  10 -5.351784E+05  1.034498E+04  8.692443E+03  2.291513E+04 -1.433868E-10  3.860390E-09
       200  11 -5.749188E+05  5.750019E+02 -3.833112E+02  1.361088E+04 -8.339028E-09 -3.935142E-09
       200  12 -6.148037E+05 -9.138216E+03 -9.737208E+03  2.274794E+04 -1.140487E-08 -5.753824E-10
       200  13 -5.770217E+05  1.127550E+02 -5.986824E+02  2.285146E+04  6.345107E-10  5.121352E-09
       200  14 -5.769485E+05  7.769446E+01 -8.394568E+02  1.363082E+04  2.775086E-09 -3.958184E-09
       200  15 -5.770218E+05  9.947356E+01 -1.357955E+03  2.285149E+04 -8.311447E-10 -7.835631E-09
       200  16 -6.188633E+05 -1.011959E+04 -9.889917E+03  2.278779E+04  1.128358E-10  3.927269E-09
       200  17 -5.789782E+05 -4.196132E+02 -1.295603E+03  1.365076E+04  6.094463E-09 -9.334445E-09
       200  18 -5.392385E+05  9.337066E+03  7.021210E+03  2.295506E+04  9.813672E-09 -5.375159E-09
       200  19 -5.351784E+05  1.034499E+04  8.692457E+03  2.291514E+04  1.531705E+03  2.217685E+03
       200  20 -5.749188E+05  5.750022E+02 -3.833088E+02  1.361088E+04  1.120818E+03  9.972540E+01
       200  21 -6.148037E+05 -9.138211E+03 -9.737200E+03  2.274794E+04  7.099679E+02 -2.017421E+03
       200  22 -5.770217E+05  1.127602E+02 -5.986732E+02  2.285146E+04 -1.949487E+02  2.213628E+03
       200  23 -5.769485E+05  7.769457E+01 -8.394561E+02  1.363082E+04 -6.051076E+02  9.567112E+01
       200  24 -5.770218E+05  9.947823E+01 -1.357946E+03  2.285150E+04 -1.015256E+03 -2.021479E+03
       200  25 -6.188633E+05 -1.011958E+04 -9.889901E+03  2.278778E+04 -1.921488E+03  2.209572E+03
       200  26 -5.789782E+05 -4.196118E+02 -1.295592E+03  1.365076E+04 -2.331028E+03  9.161673E+01
       200  27 -5.392385E+05  9.337073E+03  7.021231E+03  2.295506E+04 -2.740584E+03 -2.025537E+03
       201   1 -6.496946E+05 -1.768894E+04 -1.819478E+04  2.261516E+04 -4.380160E+02  3.252257E+03
       201   2 -6.892595E+05 -2.743410E+04 -2.826497E+04  1.338310E+04  1.065503E+03  5.366744E+03
       201   3 -7.291946E+05 -3.748274E+04 -3.941385E+04  2.256290E+04  2.569333E+03  7.458521E+03
       201   4 -5.770718E+05  1.345550E+02 -1.754678E+03  2.284464E+04  1.292514E+03  3.256288E+03
       201   5 -5.768895E+05  1.093785E+02 -3.001989E+03  1.363921E+04  2.777728E+03  5.370606E+03
       201   6 -5.770750E+05 -2.157694E+02 -5.314853E+03  2.284545E+04  4.263347E+03  7.462221E+03
       201   7 -5.044442E+05  1.795769E+04  1.468509E+04  2.307414E+04  3.023246E+03  3.260321E+03
       201   8 -4.645078E+05  2.765200E+04  2.226020E+04  1.389537E+04  4.490260E+03  5.374469E+03
       201   9 -4.249337E+05  3.704963E+04  2.878269E+04  2.312806E+04  5.957772E+03  7.465922E+03
       201  10 -6.496946E+05 -1.768895E+04 -1.819480E+04  2.261517E+04  8.065435E-09  1.611062E-09
       201  11 -6.892595E+05 -2.743413E+04 -2.826503E+04  1.338309E+04  7.008568E-09 -7.031572E-09
       201  12 -7.291946E+05 -3.748281E+04 -3.941397E+04  2.256289E+04  1.767132E-09 -1.935950E-09
       201  13 -5.770718E+05  1.345432E+02 -1.754701E+03  2.284464E+04 -7.889031E-12 -6.989228E-09
       201  14 -5.768896E+05  1.093455E+02 -3.002057E+03  1.363920E+04 -2.624272E-09 -2.225897E-09
       201  15 -5.770750E+05 -2.158341E+02 -5.314992E+03  2.284543E+04  1.777993E-09  7.444931E-10
       201  16 -5.044442E+05  1.795768E+04  1.468505E+04  2.307414E+04 -4.477063E-09  3.826551E-09
       201  17 -4.645078E+05  2.765196E+04  2.226011E+04  1.389535E+04 -9.206353E-09 -3.901023E-09
       201  18 -4.249338E+05  3.704956E+04  2.878252E+04  2.312803E+04 -7.931095E-10  6.446555E-09
       201  19 -6.496946E+05 -1.768894E+04 -1.819478E+04  2.261516E+04  4.380160E+02 -3.252257E+03
       201  20 -6.892595E+05 -2.743410E+04 -2.826497E+04  1.338310E+04 -1.065503E+03 -5.366744E+03
       201  21 -7.291946E+05 -3.748274E+04 -3.941385E+04  2.256290E+04 -2.569333E+03 -7.458521E+03
       201  22 -5.770718E+05  1.345550E+02 -1.754678E+03  2.284464E+04 -1.292514E+03 -3.256288E+03
       201  23 -5.768895E+05  1.093785E+02 -3.001989E+03  1.363921E+04 -2.777728E+03 -5.370606E+03
       201  24 -5.770750E+05 -2.157694E+02 -5.314853E+03  2.284545E+04 -4.263347E+03 -7.462221E+03
       201  25 -5.044442E+05  1.795769E+04  1.468509E+04  2.307414E+04 -3.023246E+03 -3.260321E+03
       201  26 -4.645078E+05  2.765200E+04  2.226020E+04  1.389537E+04 -4.490260E+03 -5.374469E+03
       201  27 -4.249337E+05  3.704963E+04  2.878269E+04  2.312806E+04 -5.957772E+03 -7.465922E+03
       202   1 -7.643531E+05 -4.541272E+04 -4.902127E+04  2.152704E+04  3.507782E+03  8.735212E+03
       202   2 -8.027577E+05 -5.514325E+04 -6.285361E+04  1.376471E+04  9.875345E+03  1.076210E+04
       202   3 -8.434986E+05 -7.060428E+04 -8.228548E+04  2.431832E+04  1.624403E+04  1.233409E+04
       202   4 -5.775008E+05  4.148012E+02 -6.907757E+03  2.282022E+04  5.335279E+03  8.739095E+03
       202   5 -5.763686E+05  3.555170E+02 -1.191819E+04  1.366852E+04  1.133396E+04  1.076492E+04
       202   6 -5.775091E+05 -5.368734E+03 -2.227013E+04  2.283243E+04  1.733417E+04  1.233591E+04
       202   7 -3.906160E+05  4.623993E+04  3.520354E+04  2.411378E+04  7.163321E+03  8.742986E+03
       202   8 -3.499319E+05  5.585078E+04  3.901397E+04  1.357226E+04  1.279310E+04  1.076774E+04
       202   9 -3.114536E+05  5.986197E+04  3.774069E+04  2.134586E+04  1.842476E+04  1.233772E+04
       202  10 -7.643532E+05 -4.541281E+04 -4.902144E+04  2.152701E+04  6.331807E-09  1.924096E-09
       202  11 -8.027578E+05 -5.514340E+04 -6.285401E+04  1.376462E+04  1.938175E-09  5.790806E-09
       202  12 -8.434989E+05 -7.060452E+04 -8.228626E+04  2.431816E+04  1.246022E-09 -2.396419E-09
       202  13 -5.775009E+05  4.147116E+02 -6.907954E+03  2.282018E+04 -6.612854E-10 -3.690548E-09
       202  14 -5.763688E+05  3.553581E+02 -1.191865E+04  1.366842E+04 -3.833922E-09  8.005186E-09
       202  15 -5.775094E+05 -5.368978E+03 -2.227098E+04  2.283226E+04 -1.074850E-09  1.718621E-11
       202  16 -3.906161E+05  4.623984E+04  3.520330E+04  2.411373E+04 -4.480320E-09 -9.171100E-10
       202  17 -3.499321E+05  5.585061E+04  3.901344E+04  1.357215E+04 -2.822499E-09 -8.030466E-09
       202  18 -3.114540E+05  5.986171E+04  3.773977E+04  2.134567E+04  4.642328E-12  2.343794E-09
       202  19 -7.643531E+05 -4.541272E+04 -4.902127E+04  2.152704E+04 -3.507782E+03 -8.735212E+03
       202  20 -8.027577E+05 -5.514325E+04 -6.285361E+04  1.376471E+04 -9.875345E+03 -1.076210E+04
       202  21 -8.434986E+05 -7.060428E+04 -8.228548E+04  2.431832E+04 -1.624403E+04 -1.233409E+04
       202  22 -5.775008E+05  4.148012E+02 -6.907757E+03  2.282022E+04 -5.335279E+03 -8.739095E+03
       202  23 -5.763686E+05  3.555170E+02 -1.191819E+04  1.366852E+04 -1.133396E+04 -1.076492E+04
       202  24 -5.775091E+05 -5.368734E+03 -2.227013E+04  2.283243E+04 -1.733417E+04 -1.233591E+04
       202  25 -3.906160E+05  4.623993E+04  3.520354E+04  2.411378E+04 -7.163321E+03 -8.742986E+03
       202  26 -3.499319E+05  5.585078E+04  3.901397E+04  1.357226E+04 -1.279310E+04 -1.076774E+04
       202  27 -3.114536E+05  5.986197E+04  3.774069E+04  2.134586E+04 -1.842476E+04 -1.233772E+04
       203   1 -8.831919E+05 -6.913784E+04 -9.534613E+04  9.679610E+03  1.727649E+04  1.457615E+04
       203   2 -9.094502E+05 -8.024343E+04 -1.239569E+05  2.603729E+04  5.024179E+04  1.468033E+04
       203   3 -9.621030E+05 -1.795741E+05 -1.961134E+05  6.027331E+04  8.322129E+04  4.877872E+03
       203   4 -5.825552E+05  4.601964E+03 -2.783594E+04  2.268342E+04  2.135348E+04  1.458413E+04
       203   5 -5.700807E+05  3.062534E+03 -4.680195E+04  1.382488E+04  4.625427E+04  1.467133E+04
       203   6 -5.825874E+05 -8.527671E+04 -1.036942E+05  2.284673E+04  7.117192E+04  4.851618E+03
       203   7 -2.818339E+05  7.833621E+04  3.966866E+04  3.569355E+04  2.543242E+04  1.459227E+04
       203   8 -2.306038E+05  8.636112E+04  3.034570E+04  1.605680E+03  4.226458E+04  1.466248E+04
       203   9 -2.029368E+05  9.015435E+03 -1.128415E+04 -1.460288E+04  5.911520E+04  4.826829E+03
       203  10 -8.831923E+05 -6.913815E+04 -9.534709E+04  9.679407E+03  1.852033E-09 -2.697589E-09
       203  11 -9.094530E+05 -8.024434E+04 -1.239621E+05  2.603670E+04  1.147904E-09  5.029472E-10
       203  12 -9.621105E+05 -1.795759E+05 -1.961265E+05  6.027298E+04  2.808344E-09  6.031333E-09
       203  13 -5.825558E+05  4.601613E+03 -2.783720E+04  2.268317E+04 -2.146021E-09  5.370550E-10
       203  14 -5.700830E+05  3.061727E+03 -4.680638E+04  1.382434E+04 -5.895265E-10  5.364482E-09
       203  15 -5.825929E+05 -8.527809E+04 -1.037038E+05  2.284645E+04 -1.693724E-11  1.899845E-09
       203  16 -2.818347E+05  7.833581E+04  3.966704E+04  3.569325E+04  3.869051E-10  2.325683E-09
       203  17 -2.306058E+05  8.636041E+04  3.034194E+04  1.605181E+03 -2.057810E-09  3.652812E-09
       203  18 -2.029406E+05  9.014471E+03 -1.129076E+04 -1.460311E+04 -4.440920E-09  4.535721E-10
       203  19 -8.831919E+05 -6.913784E+04 -9.534613E+04  9.679610E+03 -1.727649E+04 -1.457615E+04
       203  20 -9.094502E+05 -8.024343E+04 -1.239569E+05  2.603729E+04 -5.024179E+04 -1.468033E+04
       203  21 -9.621030E+05 -1.795741E+05 -1.961134E+05  6.027331E+04 -8.322129E+04 -4.877872E+03
       203  22 -5.825552E+05  4.601964E+03 -2.783594E+04  2.268342E+04 -2.135348E+04 -1.458413E+04
       203  23 -5.700807E+05  3.062534E+03 -4.680195E+04  1.382488E+04 -4.625427E+04 -1.467133E+04
       203  24 -5.825874E+05 -8.527671E+04 -1.036942E+05  2.284673E+04 -7.117192E+04 -4.851618E+03
       203  25 -2.818339E+05  7.833621E+04  3.966866E+04  3.569355E+04 -2.543242E+04 -1.459227E+04
       203  26 -2.306038E+05  8.636112E+04  3.034570E+04  1.605680E+03 -4.226458E+04 -1.466248E+04
       203  27 -2.029368E+05  9.015435E+03 -1.128415E+04 -1.460288E+04 -5.911520E+04 -4.826829E+03
