    1C
    1UUSER                                                              
    1UDATE              11.october.2022                                 
    1UTIME              18:07:35                                        
    1UHOST                                                              
    1UPGM               CalculiX                                        
    1UVERSION           Version 2.20                             
    1UCOMPILETIME       Sun Jul 31 18:08:37 CEST 2022                    
    1UDIR                                                               
    1UDBN                                                               
    1UMAT    1MESH_MATERIAL                                             
    2C                           394                                     1
 -1         1 0.00000E+00 0.00000E+00 0.00000E+00
 -1         2 1.66667E-02 0.00000E+00 0.00000E+00
 -1         3 3.33333E-02 0.00000E+00 0.00000E+00
 -1         5 6.66667E-02 0.00000E+00 0.00000E+00
 -1         8 0.00000E+00 6.25000E-03 0.00000E+00
 -1         9 1.66667E-02 6.25000E-03 0.00000E+00
 -1        10 3.33333E-02 6.25000E-03 0.00000E+00
 -1        12 6.66667E-02 6.25000E-03 0.00000E+00
 -1        15 0.00000E+00 1.25000E-02 0.00000E+00
 -1        16 1.66667E-02 1.25000E-02 0.00000E+00
 -1        17 3.33333E-02 1.25000E-02 0.00000E+00
 -1        18 5.00000E-02 1.25000E-02 0.00000E+00
 -1        19 6.66667E-02 1.25000E-02 0.00000E+00
 -1        20 8.33333E-02 1.25000E-02 0.00000E+00
 -1        21 1.00000E-01 1.25000E-02 0.00000E+00
 -1        24 3.33333E-02 1.87500E-02 0.00000E+00
 -1        25 5.00000E-02 1.87500E-02 0.00000E+00
 -1        26 6.66667E-02 1.87500E-02 0.00000E+00
 -1        27 8.33333E-02 1.87500E-02 0.00000E+00
 -1        28 1.00000E-01 1.87500E-02 0.00000E+00
 -1        32 5.00000E-02 2.50000E-02 0.00000E+00
 -1        33 6.66667E-02 2.50000E-02 0.00000E+00
 -1        34 8.33333E-02 2.50000E-02 0.00000E+00
 -1        35 1.00000E-01 2.50000E-02 0.00000E+00
 -1        51 0.00000E+00 1.04167E-03 0.00000E+00
 -1        52 0.00000E+00 2.08333E-03 0.00000E+00
 -1        53 0.00000E+00 3.12500E-03 0.00000E+00
 -1        54 0.00000E+00 4.16667E-03 0.00000E+00
 -1        55 0.00000E+00 5.20833E-03 0.00000E+00
 -1        56 1.04167E-03 3.90630E-04 0.00000E+00
 -1        57 2.08333E-03 7.81250E-04 0.00000E+00
 -1        58 3.12500E-03 1.17188E-03 0.00000E+00
 -1        59 4.16667E-03 1.56250E-03 0.00000E+00
 -1        60 5.20833E-03 1.95312E-03 0.00000E+00
 -1        61 6.25000E-03 2.34375E-03 0.00000E+00
 -1        62 7.29167E-03 2.73438E-03 0.00000E+00
 -1        63 8.33333E-03 3.12500E-03 0.00000E+00
 -1        64 9.37500E-03 3.51563E-03 0.00000E+00
 -1        65 1.04167E-02 3.90625E-03 0.00000E+00
 -1        66 1.14583E-02 4.29688E-03 0.00000E+00
 -1        67 1.25000E-02 4.68750E-03 0.00000E+00
 -1        68 1.35417E-02 5.07813E-03 0.00000E+00
 -1        69 1.45833E-02 5.46875E-03 0.00000E+00
 -1        70 1.56250E-02 5.85938E-03 0.00000E+00
 -1        86 1.66667E-02 1.04167E-03 0.00000E+00
 -1        87 1.66667E-02 2.08333E-03 0.00000E+00
 -1        88 1.66667E-02 3.12500E-03 0.00000E+00
 -1        89 1.66667E-02 4.16667E-03 0.00000E+00
 -1        90 1.66667E-02 5.20833E-03 0.00000E+00
 -1       121 3.33333E-02 1.04167E-03 0.00000E+00
 -1       122 3.33333E-02 2.08333E-03 0.00000E+00
 -1       123 3.33333E-02 3.12500E-03 0.00000E+00
 -1       124 3.33333E-02 4.16667E-03 0.00000E+00
 -1       125 3.33333E-02 5.20833E-03 0.00000E+00
 -1       191 6.66667E-02 1.04167E-03 0.00000E+00
 -1       192 6.66667E-02 2.08333E-03 0.00000E+00
 -1       193 6.66667E-02 3.12500E-03 0.00000E+00
 -1       194 6.66667E-02 4.16667E-03 0.00000E+00
 -1       195 6.66667E-02 5.20833E-03 0.00000E+00
 -1       266 0.00000E+00 7.29167E-03 0.00000E+00
 -1       267 0.00000E+00 8.33333E-03 0.00000E+00
 -1       268 0.00000E+00 9.37500E-03 0.00000E+00
 -1       269 0.00000E+00 1.04167E-02 0.00000E+00
 -1       270 0.00000E+00 1.14583E-02 0.00000E+00
 -1       271 1.04167E-03 6.64063E-03 0.00000E+00
 -1       272 2.08333E-03 7.03125E-03 0.00000E+00
 -1       273 3.12500E-03 7.42188E-03 0.00000E+00
 -1       274 4.16667E-03 7.81250E-03 0.00000E+00
 -1       275 5.20833E-03 8.20313E-03 0.00000E+00
 -1       276 6.25000E-03 8.59375E-03 0.00000E+00
 -1       277 7.29167E-03 8.98438E-03 0.00000E+00
 -1       278 8.33333E-03 9.37500E-03 0.00000E+00
 -1       279 9.37500E-03 9.76562E-03 0.00000E+00
 -1       280 1.04167E-02 1.01562E-02 0.00000E+00
 -1       281 1.14583E-02 1.05469E-02 0.00000E+00
 -1       282 1.25000E-02 1.09375E-02 0.00000E+00
 -1       283 1.35417E-02 1.13281E-02 0.00000E+00
 -1       284 1.45833E-02 1.17188E-02 0.00000E+00
 -1       285 1.56250E-02 1.21094E-02 0.00000E+00
 -1       301 1.66667E-02 7.29167E-03 0.00000E+00
 -1       302 1.66667E-02 8.33333E-03 0.00000E+00
 -1       303 1.66667E-02 9.37500E-03 0.00000E+00
 -1       304 1.66667E-02 1.04167E-02 0.00000E+00
 -1       305 1.66667E-02 1.14583E-02 0.00000E+00
 -1       306 1.77083E-02 6.64063E-03 0.00000E+00
 -1       307 1.87500E-02 7.03125E-03 0.00000E+00
 -1       308 1.97917E-02 7.42188E-03 0.00000E+00
 -1       309 2.08333E-02 7.81250E-03 0.00000E+00
 -1       310 2.18750E-02 8.20313E-03 0.00000E+00
 -1       311 2.29167E-02 8.59375E-03 0.00000E+00
 -1       312 2.39583E-02 8.98438E-03 0.00000E+00
 -1       313 2.50000E-02 9.37500E-03 0.00000E+00
 -1       314 2.60417E-02 9.76562E-03 0.00000E+00
 -1       315 2.70833E-02 1.01562E-02 0.00000E+00
 -1       316 2.81250E-02 1.05469E-02 0.00000E+00
 -1       317 2.91667E-02 1.09375E-02 0.00000E+00
 -1       318 3.02083E-02 1.13281E-02 0.00000E+00
 -1       319 3.12500E-02 1.17188E-02 0.00000E+00
 -1       320 3.22917E-02 1.21094E-02 0.00000E+00
 -1       336 3.33333E-02 7.29167E-03 0.00000E+00
 -1       337 3.33333E-02 8.33333E-03 0.00000E+00
 -1       338 3.33333E-02 9.37500E-03 0.00000E+00
 -1       339 3.33333E-02 1.04167E-02 0.00000E+00
 -1       340 3.33333E-02 1.14583E-02 0.00000E+00
 -1       406 6.66667E-02 7.29167E-03 0.00000E+00
 -1       407 6.66667E-02 8.33333E-03 0.00000E+00
 -1       408 6.66667E-02 9.37500E-03 0.00000E+00
 -1       409 6.66667E-02 1.04167E-02 0.00000E+00
 -1       410 6.66667E-02 1.14583E-02 0.00000E+00
 -1       521 1.77083E-02 1.28906E-02 0.00000E+00
 -1       522 1.87500E-02 1.32813E-02 0.00000E+00
 -1       523 1.97917E-02 1.36719E-02 0.00000E+00
 -1       524 2.08333E-02 1.40625E-02 0.00000E+00
 -1       525 2.18750E-02 1.44531E-02 0.00000E+00
 -1       526 2.29167E-02 1.48437E-02 0.00000E+00
 -1       527 2.39583E-02 1.52344E-02 0.00000E+00
 -1       528 2.50000E-02 1.56250E-02 0.00000E+00
 -1       529 2.60417E-02 1.60156E-02 0.00000E+00
 -1       530 2.70833E-02 1.64062E-02 0.00000E+00
 -1       531 2.81250E-02 1.67969E-02 0.00000E+00
 -1       532 2.91667E-02 1.71875E-02 0.00000E+00
 -1       533 3.02083E-02 1.75781E-02 0.00000E+00
 -1       534 3.12500E-02 1.79687E-02 0.00000E+00
 -1       535 3.22917E-02 1.83594E-02 0.00000E+00
 -1       536 3.43750E-02 1.25000E-02 0.00000E+00
 -1       537 3.54167E-02 1.25000E-02 0.00000E+00
 -1       538 3.64583E-02 1.25000E-02 0.00000E+00
 -1       539 3.75000E-02 1.25000E-02 0.00000E+00
 -1       540 3.85417E-02 1.25000E-02 0.00000E+00
 -1       541 3.95833E-02 1.25000E-02 0.00000E+00
 -1       542 4.06250E-02 1.25000E-02 0.00000E+00
 -1       543 4.16667E-02 1.25000E-02 0.00000E+00
 -1       544 4.27083E-02 1.25000E-02 0.00000E+00
 -1       545 4.37500E-02 1.25000E-02 0.00000E+00
 -1       546 4.47917E-02 1.25000E-02 0.00000E+00
 -1       547 4.58333E-02 1.25000E-02 0.00000E+00
 -1       548 4.68750E-02 1.25000E-02 0.00000E+00
 -1       549 4.79167E-02 1.25000E-02 0.00000E+00
 -1       550 4.89583E-02 1.25000E-02 0.00000E+00
 -1       551 3.33333E-02 1.35417E-02 0.00000E+00
 -1       552 3.33333E-02 1.45833E-02 0.00000E+00
 -1       553 3.33333E-02 1.56250E-02 0.00000E+00
 -1       554 3.33333E-02 1.66667E-02 0.00000E+00
 -1       555 3.33333E-02 1.77083E-02 0.00000E+00
 -1       556 3.43750E-02 1.28906E-02 0.00000E+00
 -1       557 3.54167E-02 1.32813E-02 0.00000E+00
 -1       558 3.64583E-02 1.36719E-02 0.00000E+00
 -1       559 3.75000E-02 1.40625E-02 0.00000E+00
 -1       560 3.85417E-02 1.44531E-02 0.00000E+00
 -1       561 3.95833E-02 1.48437E-02 0.00000E+00
 -1       562 4.06250E-02 1.52344E-02 0.00000E+00
 -1       563 4.16667E-02 1.56250E-02 0.00000E+00
 -1       564 4.27083E-02 1.60156E-02 0.00000E+00
 -1       565 4.37500E-02 1.64062E-02 0.00000E+00
 -1       566 4.47917E-02 1.67969E-02 0.00000E+00
 -1       567 4.58333E-02 1.71875E-02 0.00000E+00
 -1       568 4.68750E-02 1.75781E-02 0.00000E+00
 -1       569 4.79167E-02 1.79687E-02 0.00000E+00
 -1       570 4.89583E-02 1.83594E-02 0.00000E+00
 -1       571 5.10417E-02 1.25000E-02 0.00000E+00
 -1       572 5.20833E-02 1.25000E-02 0.00000E+00
 -1       573 5.31250E-02 1.25000E-02 0.00000E+00
 -1       574 5.41667E-02 1.25000E-02 0.00000E+00
 -1       575 5.52083E-02 1.25000E-02 0.00000E+00
 -1       576 5.62500E-02 1.25000E-02 0.00000E+00
 -1       577 5.72917E-02 1.25000E-02 0.00000E+00
 -1       578 5.83333E-02 1.25000E-02 0.00000E+00
 -1       579 5.93750E-02 1.25000E-02 0.00000E+00
 -1       580 6.04167E-02 1.25000E-02 0.00000E+00
 -1       581 6.14583E-02 1.25000E-02 0.00000E+00
 -1       582 6.25000E-02 1.25000E-02 0.00000E+00
 -1       583 6.35417E-02 1.25000E-02 0.00000E+00
 -1       584 6.45833E-02 1.25000E-02 0.00000E+00
 -1       585 6.56250E-02 1.25000E-02 0.00000E+00
 -1       586 5.00000E-02 1.35417E-02 0.00000E+00
 -1       587 5.00000E-02 1.45833E-02 0.00000E+00
 -1       588 5.00000E-02 1.56250E-02 0.00000E+00
 -1       589 5.00000E-02 1.66667E-02 0.00000E+00
 -1       590 5.00000E-02 1.77083E-02 0.00000E+00
 -1       591 5.10417E-02 1.28906E-02 0.00000E+00
 -1       592 5.20833E-02 1.32813E-02 0.00000E+00
 -1       593 5.31250E-02 1.36719E-02 0.00000E+00
 -1       594 5.41667E-02 1.40625E-02 0.00000E+00
 -1       595 5.52083E-02 1.44531E-02 0.00000E+00
 -1       596 5.62500E-02 1.48437E-02 0.00000E+00
 -1       597 5.72917E-02 1.52344E-02 0.00000E+00
 -1       598 5.83333E-02 1.56250E-02 0.00000E+00
 -1       599 5.93750E-02 1.60156E-02 0.00000E+00
 -1       600 6.04167E-02 1.64062E-02 0.00000E+00
 -1       601 6.14583E-02 1.67969E-02 0.00000E+00
 -1       602 6.25000E-02 1.71875E-02 0.00000E+00
 -1       603 6.35417E-02 1.75781E-02 0.00000E+00
 -1       604 6.45833E-02 1.79687E-02 0.00000E+00
 -1       605 6.56250E-02 1.83594E-02 0.00000E+00
 -1       606 6.77083E-02 1.25000E-02 0.00000E+00
 -1       607 6.87500E-02 1.25000E-02 0.00000E+00
 -1       608 6.97917E-02 1.25000E-02 0.00000E+00
 -1       609 7.08333E-02 1.25000E-02 0.00000E+00
 -1       610 7.18750E-02 1.25000E-02 0.00000E+00
 -1       611 7.29167E-02 1.25000E-02 0.00000E+00
 -1       612 7.39583E-02 1.25000E-02 0.00000E+00
 -1       613 7.50000E-02 1.25000E-02 0.00000E+00
 -1       614 7.60417E-02 1.25000E-02 0.00000E+00
 -1       615 7.70833E-02 1.25000E-02 0.00000E+00
 -1       616 7.81250E-02 1.25000E-02 0.00000E+00
 -1       617 7.91667E-02 1.25000E-02 0.00000E+00
 -1       618 8.02083E-02 1.25000E-02 0.00000E+00
 -1       619 8.12500E-02 1.25000E-02 0.00000E+00
 -1       620 8.22917E-02 1.25000E-02 0.00000E+00
 -1       621 6.66667E-02 1.35417E-02 0.00000E+00
 -1       622 6.66667E-02 1.45833E-02 0.00000E+00
 -1       623 6.66667E-02 1.56250E-02 0.00000E+00
 -1       624 6.66667E-02 1.66667E-02 0.00000E+00
 -1       625 6.66667E-02 1.77083E-02 0.00000E+00
 -1       626 6.77083E-02 1.28906E-02 0.00000E+00
 -1       627 6.87500E-02 1.32813E-02 0.00000E+00
 -1       628 6.97917E-02 1.36719E-02 0.00000E+00
 -1       629 7.08333E-02 1.40625E-02 0.00000E+00
 -1       630 7.18750E-02 1.44531E-02 0.00000E+00
 -1       631 7.29167E-02 1.48437E-02 0.00000E+00
 -1       632 7.39583E-02 1.52344E-02 0.00000E+00
 -1       633 7.50000E-02 1.56250E-02 0.00000E+00
 -1       634 7.60417E-02 1.60156E-02 0.00000E+00
 -1       635 7.70833E-02 1.64062E-02 0.00000E+00
 -1       636 7.81250E-02 1.67969E-02 0.00000E+00
 -1       637 7.91667E-02 1.71875E-02 0.00000E+00
 -1       638 8.02083E-02 1.75781E-02 0.00000E+00
 -1       639 8.12500E-02 1.79687E-02 0.00000E+00
 -1       640 8.22917E-02 1.83594E-02 0.00000E+00
 -1       656 8.33333E-02 1.35417E-02 0.00000E+00
 -1       657 8.33333E-02 1.45833E-02 0.00000E+00
 -1       658 8.33333E-02 1.56250E-02 0.00000E+00
 -1       659 8.33333E-02 1.66667E-02 0.00000E+00
 -1       660 8.33333E-02 1.77083E-02 0.00000E+00
 -1       661 8.43750E-02 1.28906E-02 0.00000E+00
 -1       662 8.54167E-02 1.32813E-02 0.00000E+00
 -1       663 8.64583E-02 1.36719E-02 0.00000E+00
 -1       664 8.75000E-02 1.40625E-02 0.00000E+00
 -1       665 8.85417E-02 1.44531E-02 0.00000E+00
 -1       666 8.95833E-02 1.48437E-02 0.00000E+00
 -1       667 9.06250E-02 1.52344E-02 0.00000E+00
 -1       668 9.16667E-02 1.56250E-02 0.00000E+00
 -1       669 9.27083E-02 1.60156E-02 0.00000E+00
 -1       670 9.37500E-02 1.64062E-02 0.00000E+00
 -1       671 9.47917E-02 1.67969E-02 0.00000E+00
 -1       672 9.58333E-02 1.71875E-02 0.00000E+00
 -1       673 9.68750E-02 1.75781E-02 0.00000E+00
 -1       674 9.79167E-02 1.79687E-02 0.00000E+00
 -1       675 9.89583E-02 1.83594E-02 0.00000E+00
 -1       676 1.00000E-01 1.35417E-02 0.00000E+00
 -1       677 1.00000E-01 1.45833E-02 0.00000E+00
 -1       678 1.00000E-01 1.56250E-02 0.00000E+00
 -1       679 1.00000E-01 1.66667E-02 0.00000E+00
 -1       680 1.00000E-01 1.77083E-02 0.00000E+00
 -1       771 3.43750E-02 1.91406E-02 0.00000E+00
 -1       772 3.54167E-02 1.95312E-02 0.00000E+00
 -1       773 3.64583E-02 1.99219E-02 0.00000E+00
 -1       774 3.75000E-02 2.03125E-02 0.00000E+00
 -1       775 3.85417E-02 2.07031E-02 0.00000E+00
 -1       776 3.95833E-02 2.10938E-02 0.00000E+00
 -1       777 4.06250E-02 2.14844E-02 0.00000E+00
 -1       778 4.16667E-02 2.18750E-02 0.00000E+00
 -1       779 4.27083E-02 2.22656E-02 0.00000E+00
 -1       780 4.37500E-02 2.26563E-02 0.00000E+00
 -1       781 4.47917E-02 2.30469E-02 0.00000E+00
 -1       782 4.58333E-02 2.34375E-02 0.00000E+00
 -1       783 4.68750E-02 2.38281E-02 0.00000E+00
 -1       784 4.79167E-02 2.42187E-02 0.00000E+00
 -1       785 4.89583E-02 2.46094E-02 0.00000E+00
 -1       786 5.10417E-02 1.87500E-02 0.00000E+00
 -1       787 5.20833E-02 1.87500E-02 0.00000E+00
 -1       788 5.31250E-02 1.87500E-02 0.00000E+00
 -1       789 5.41667E-02 1.87500E-02 0.00000E+00
 -1       790 5.52083E-02 1.87500E-02 0.00000E+00
 -1       791 5.62500E-02 1.87500E-02 0.00000E+00
 -1       792 5.72917E-02 1.87500E-02 0.00000E+00
 -1       793 5.83333E-02 1.87500E-02 0.00000E+00
 -1       794 5.93750E-02 1.87500E-02 0.00000E+00
 -1       795 6.04167E-02 1.87500E-02 0.00000E+00
 -1       796 6.14583E-02 1.87500E-02 0.00000E+00
 -1       797 6.25000E-02 1.87500E-02 0.00000E+00
 -1       798 6.35417E-02 1.87500E-02 0.00000E+00
 -1       799 6.45833E-02 1.87500E-02 0.00000E+00
 -1       800 6.56250E-02 1.87500E-02 0.00000E+00
 -1       801 5.00000E-02 1.97917E-02 0.00000E+00
 -1       802 5.00000E-02 2.08333E-02 0.00000E+00
 -1       803 5.00000E-02 2.18750E-02 0.00000E+00
 -1       804 5.00000E-02 2.29167E-02 0.00000E+00
 -1       805 5.00000E-02 2.39583E-02 0.00000E+00
 -1       806 5.10417E-02 1.91406E-02 0.00000E+00
 -1       807 5.20833E-02 1.95312E-02 0.00000E+00
 -1       808 5.31250E-02 1.99219E-02 0.00000E+00
 -1       809 5.41667E-02 2.03125E-02 0.00000E+00
 -1       810 5.52083E-02 2.07031E-02 0.00000E+00
 -1       811 5.62500E-02 2.10938E-02 0.00000E+00
 -1       812 5.72917E-02 2.14844E-02 0.00000E+00
 -1       813 5.83333E-02 2.18750E-02 0.00000E+00
 -1       814 5.93750E-02 2.22656E-02 0.00000E+00
 -1       815 6.04167E-02 2.26563E-02 0.00000E+00
 -1       816 6.14583E-02 2.30469E-02 0.00000E+00
 -1       817 6.25000E-02 2.34375E-02 0.00000E+00
 -1       818 6.35417E-02 2.38281E-02 0.00000E+00
 -1       819 6.45833E-02 2.42187E-02 0.00000E+00
 -1       820 6.56250E-02 2.46094E-02 0.00000E+00
 -1       821 6.77083E-02 1.87500E-02 0.00000E+00
 -1       822 6.87500E-02 1.87500E-02 0.00000E+00
 -1       823 6.97917E-02 1.87500E-02 0.00000E+00
 -1       824 7.08333E-02 1.87500E-02 0.00000E+00
 -1       825 7.18750E-02 1.87500E-02 0.00000E+00
 -1       826 7.29167E-02 1.87500E-02 0.00000E+00
 -1       827 7.39583E-02 1.87500E-02 0.00000E+00
 -1       828 7.50000E-02 1.87500E-02 0.00000E+00
 -1       829 7.60417E-02 1.87500E-02 0.00000E+00
 -1       830 7.70833E-02 1.87500E-02 0.00000E+00
 -1       831 7.81250E-02 1.87500E-02 0.00000E+00
 -1       832 7.91667E-02 1.87500E-02 0.00000E+00
 -1       833 8.02083E-02 1.87500E-02 0.00000E+00
 -1       834 8.12500E-02 1.87500E-02 0.00000E+00
 -1       835 8.22917E-02 1.87500E-02 0.00000E+00
 -1       836 6.66667E-02 1.97917E-02 0.00000E+00
 -1       837 6.66667E-02 2.08333E-02 0.00000E+00
 -1       838 6.66667E-02 2.18750E-02 0.00000E+00
 -1       839 6.66667E-02 2.29167E-02 0.00000E+00
 -1       840 6.66667E-02 2.39583E-02 0.00000E+00
 -1       856 8.43750E-02 1.87500E-02 0.00000E+00
 -1       857 8.54167E-02 1.87500E-02 0.00000E+00
 -1       858 8.64583E-02 1.87500E-02 0.00000E+00
 -1       859 8.75000E-02 1.87500E-02 0.00000E+00
 -1       860 8.85417E-02 1.87500E-02 0.00000E+00
 -1       861 8.95833E-02 1.87500E-02 0.00000E+00
 -1       862 9.06250E-02 1.87500E-02 0.00000E+00
 -1       863 9.16667E-02 1.87500E-02 0.00000E+00
 -1       864 9.27083E-02 1.87500E-02 0.00000E+00
 -1       865 9.37500E-02 1.87500E-02 0.00000E+00
 -1       866 9.47917E-02 1.87500E-02 0.00000E+00
 -1       867 9.58333E-02 1.87500E-02 0.00000E+00
 -1       868 9.68750E-02 1.87500E-02 0.00000E+00
 -1       869 9.79167E-02 1.87500E-02 0.00000E+00
 -1       870 9.89583E-02 1.87500E-02 0.00000E+00
 -1       871 8.33333E-02 1.97917E-02 0.00000E+00
 -1       872 8.33333E-02 2.08333E-02 0.00000E+00
 -1       873 8.33333E-02 2.18750E-02 0.00000E+00
 -1       874 8.33333E-02 2.29167E-02 0.00000E+00
 -1       875 8.33333E-02 2.39583E-02 0.00000E+00
 -1       876 8.43750E-02 1.91406E-02 0.00000E+00
 -1       877 8.54167E-02 1.95312E-02 0.00000E+00
 -1       878 8.64583E-02 1.99219E-02 0.00000E+00
 -1       879 8.75000E-02 2.03125E-02 0.00000E+00
 -1       880 8.85417E-02 2.07031E-02 0.00000E+00
 -1       881 8.95833E-02 2.10938E-02 0.00000E+00
 -1       882 9.06250E-02 2.14844E-02 0.00000E+00
 -1       883 9.16667E-02 2.18750E-02 0.00000E+00
 -1       884 9.27083E-02 2.22656E-02 0.00000E+00
 -1       885 9.37500E-02 2.26563E-02 0.00000E+00
 -1       886 9.47917E-02 2.30469E-02 0.00000E+00
 -1       887 9.58333E-02 2.34375E-02 0.00000E+00
 -1       888 9.68750E-02 2.38281E-02 0.00000E+00
 -1       889 9.79167E-02 2.42187E-02 0.00000E+00
 -1       890 9.89583E-02 2.46094E-02 0.00000E+00
 -1       891 1.00000E-01 1.97917E-02 0.00000E+00
 -1       892 1.00000E-01 2.08333E-02 0.00000E+00
 -1       893 1.00000E-01 2.18750E-02 0.00000E+00
 -1       894 1.00000E-01 2.29167E-02 0.00000E+00
 -1       895 1.00000E-01 2.39583E-02 0.00000E+00
 -1       956 6.77083E-02 2.50000E-02 0.00000E+00
 -1       957 6.87500E-02 2.50000E-02 0.00000E+00
 -1       958 6.97917E-02 2.50000E-02 0.00000E+00
 -1       959 7.08333E-02 2.50000E-02 0.00000E+00
 -1       960 7.18750E-02 2.50000E-02 0.00000E+00
 -1       961 7.29167E-02 2.50000E-02 0.00000E+00
 -1       962 7.39583E-02 2.50000E-02 0.00000E+00
 -1       963 7.50000E-02 2.50000E-02 0.00000E+00
 -1       964 7.60417E-02 2.50000E-02 0.00000E+00
 -1       965 7.70833E-02 2.50000E-02 0.00000E+00
 -1       966 7.81250E-02 2.50000E-02 0.00000E+00
 -1       967 7.91667E-02 2.50000E-02 0.00000E+00
 -1       968 8.02083E-02 2.50000E-02 0.00000E+00
 -1       969 8.12500E-02 2.50000E-02 0.00000E+00
 -1       970 8.22917E-02 2.50000E-02 0.00000E+00
 -1       971 8.43750E-02 2.50000E-02 0.00000E+00
 -1       972 8.54167E-02 2.50000E-02 0.00000E+00
 -1       973 8.64583E-02 2.50000E-02 0.00000E+00
 -1       974 8.75000E-02 2.50000E-02 0.00000E+00
 -1       975 8.85417E-02 2.50000E-02 0.00000E+00
 -1       976 8.95833E-02 2.50000E-02 0.00000E+00
 -1       977 9.06250E-02 2.50000E-02 0.00000E+00
 -1       978 9.16667E-02 2.50000E-02 0.00000E+00
 -1       979 9.27083E-02 2.50000E-02 0.00000E+00
 -1       980 9.37500E-02 2.50000E-02 0.00000E+00
 -1       981 9.47917E-02 2.50000E-02 0.00000E+00
 -1       982 9.58333E-02 2.50000E-02 0.00000E+00
 -1       983 9.68750E-02 2.50000E-02 0.00000E+00
 -1       984 9.79167E-02 2.50000E-02 0.00000E+00
 -1       985 9.89583E-02 2.50000E-02 0.00000E+00
 -3
    3C                           203                                     1
 -1         1   12    0    1
 -2         1        52        51
 -1         2   12    0    1
 -2        52        54        53
 -1         3   12    0    1
 -2        54         8        55
 -1         4   12    0    1
 -2         1        57        56
 -1         5   12    0    1
 -2        57        59        58
 -1         6   12    0    1
 -2        59        61        60
 -1         7   12    0    1
 -2        61        63        62
 -1         8   12    0    1
 -2        63        65        64
 -1         9   12    0    1
 -2        65        67        66
 -1        10   12    0    1
 -2        67        69        68
 -1        11   12    0    1
 -2        69         9        70
 -1        12   12    0    1
 -2         2        87        86
 -1        13   12    0    1
 -2        87        89        88
 -1        14   12    0    1
 -2        89         9        90
 -1        15   12    0    1
 -2         3       122       121
 -1        16   12    0    1
 -2       122       124       123
 -1        17   12    0    1
 -2       124        10       125
 -1        18   12    0    1
 -2         5       192       191
 -1        19   12    0    1
 -2       192       194       193
 -1        20   12    0    1
 -2       194        12       195
 -1        21   12    0    1
 -2         8       267       266
 -1        22   12    0    1
 -2       267       269       268
 -1        23   12    0    1
 -2       269        15       270
 -1        24   12    0    1
 -2         8       272       271
 -1        25   12    0    1
 -2       272       274       273
 -1        26   12    0    1
 -2       274       276       275
 -1        27   12    0    1
 -2       276       278       277
 -1        28   12    0    1
 -2       278       280       279
 -1        29   12    0    1
 -2       280       282       281
 -1        30   12    0    1
 -2       282       284       283
 -1        31   12    0    1
 -2       284        16       285
 -1        32   12    0    1
 -2         9       302       301
 -1        33   12    0    1
 -2       302       304       303
 -1        34   12    0    1
 -2       304        16       305
 -1        35   12    0    1
 -2         9       307       306
 -1        36   12    0    1
 -2       307       309       308
 -1        37   12    0    1
 -2       309       311       310
 -1        38   12    0    1
 -2       311       313       312
 -1        39   12    0    1
 -2       313       315       314
 -1        40   12    0    1
 -2       315       317       316
 -1        41   12    0    1
 -2       317       319       318
 -1        42   12    0    1
 -2       319        17       320
 -1        43   12    0    1
 -2        10       337       336
 -1        44   12    0    1
 -2       337       339       338
 -1        45   12    0    1
 -2       339        17       340
 -1        46   12    0    1
 -2        12       407       406
 -1        47   12    0    1
 -2       407       409       408
 -1        48   12    0    1
 -2       409        19       410
 -1        49   12    0    1
 -2        16       522       521
 -1        50   12    0    1
 -2       522       524       523
 -1        51   12    0    1
 -2       524       526       525
 -1        52   12    0    1
 -2       526       528       527
 -1        53   12    0    1
 -2       528       530       529
 -1        54   12    0    1
 -2       530       532       531
 -1        55   12    0    1
 -2       532       534       533
 -1        56   12    0    1
 -2       534        24       535
 -1        57   12    0    1
 -2        17       537       536
 -1        58   12    0    1
 -2       537       539       538
 -1        59   12    0    1
 -2       539       541       540
 -1        60   12    0    1
 -2       541       543       542
 -1        61   12    0    1
 -2       543       545       544
 -1        62   12    0    1
 -2       545       547       546
 -1        63   12    0    1
 -2       547       549       548
 -1        64   12    0    1
 -2       549        18       550
 -1        65   12    0    1
 -2        17       552       551
 -1        66   12    0    1
 -2       552       554       553
 -1        67   12    0    1
 -2       554        24       555
 -1        68   12    0    1
 -2        17       557       556
 -1        69   12    0    1
 -2       557       559       558
 -1        70   12    0    1
 -2       559       561       560
 -1        71   12    0    1
 -2       561       563       562
 -1        72   12    0    1
 -2       563       565       564
 -1        73   12    0    1
 -2       565       567       566
 -1        74   12    0    1
 -2       567       569       568
 -1        75   12    0    1
 -2       569        25       570
 -1        76   12    0    1
 -2        18       572       571
 -1        77   12    0    1
 -2       572       574       573
 -1        78   12    0    1
 -2       574       576       575
 -1        79   12    0    1
 -2       576       578       577
 -1        80   12    0    1
 -2       578       580       579
 -1        81   12    0    1
 -2       580       582       581
 -1        82   12    0    1
 -2       582       584       583
 -1        83   12    0    1
 -2       584        19       585
 -1        84   12    0    1
 -2        18       587       586
 -1        85   12    0    1
 -2       587       589       588
 -1        86   12    0    1
 -2       589        25       590
 -1        87   12    0    1
 -2        18       592       591
 -1        88   12    0    1
 -2       592       594       593
 -1        89   12    0    1
 -2       594       596       595
 -1        90   12    0    1
 -2       596       598       597
 -1        91   12    0    1
 -2       598       600       599
 -1        92   12    0    1
 -2       600       602       601
 -1        93   12    0    1
 -2       602       604       603
 -1        94   12    0    1
 -2       604        26       605
 -1        95   12    0    1
 -2        19       607       606
 -1        96   12    0    1
 -2       607       609       608
 -1        97   12    0    1
 -2       609       611       610
 -1        98   12    0    1
 -2       611       613       612
 -1        99   12    0    1
 -2       613       615       614
 -1       100   12    0    1
 -2       615       617       616
 -1       101   12    0    1
 -2       617       619       618
 -1       102   12    0    1
 -2       619        20       620
 -1       103   12    0    1
 -2        19       622       621
 -1       104   12    0    1
 -2       622       624       623
 -1       105   12    0    1
 -2       624        26       625
 -1       106   12    0    1
 -2        19       627       626
 -1       107   12    0    1
 -2       627       629       628
 -1       108   12    0    1
 -2       629       631       630
 -1       109   12    0    1
 -2       631       633       632
 -1       110   12    0    1
 -2       633       635       634
 -1       111   12    0    1
 -2       635       637       636
 -1       112   12    0    1
 -2       637       639       638
 -1       113   12    0    1
 -2       639        27       640
 -1       114   12    0    1
 -2        20       657       656
 -1       115   12    0    1
 -2       657       659       658
 -1       116   12    0    1
 -2       659        27       660
 -1       117   12    0    1
 -2        20       662       661
 -1       118   12    0    1
 -2       662       664       663
 -1       119   12    0    1
 -2       664       666       665
 -1       120   12    0    1
 -2       666       668       667
 -1       121   12    0    1
 -2       668       670       669
 -1       122   12    0    1
 -2       670       672       671
 -1       123   12    0    1
 -2       672       674       673
 -1       124   12    0    1
 -2       674        28       675
 -1       125   12    0    1
 -2        21       677       676
 -1       126   12    0    1
 -2       677       679       678
 -1       127   12    0    1
 -2       679        28       680
 -1       128   12    0    1
 -2        24       772       771
 -1       129   12    0    1
 -2       772       774       773
 -1       130   12    0    1
 -2       774       776       775
 -1       131   12    0    1
 -2       776       778       777
 -1       132   12    0    1
 -2       778       780       779
 -1       133   12    0    1
 -2       780       782       781
 -1       134   12    0    1
 -2       782       784       783
 -1       135   12    0    1
 -2       784        32       785
 -1       136   12    0    1
 -2        25       787       786
 -1       137   12    0    1
 -2       787       789       788
 -1       138   12    0    1
 -2       789       791       790
 -1       139   12    0    1
 -2       791       793       792
 -1       140   12    0    1
 -2       793       795       794
 -1       141   12    0    1
 -2       795       797       796
 -1       142   12    0    1
 -2       797       799       798
 -1       143   12    0    1
 -2       799        26       800
 -1       144   12    0    1
 -2        25       802       801
 -1       145   12    0    1
 -2       802       804       803
 -1       146   12    0    1
 -2       804        32       805
 -1       147   12    0    1
 -2        25       807       806
 -1       148   12    0    1
 -2       807       809       808
 -1       149   12    0    1
 -2       809       811       810
 -1       150   12    0    1
 -2       811       813       812
 -1       151   12    0    1
 -2       813       815       814
 -1       152   12    0    1
 -2       815       817       816
 -1       153   12    0    1
 -2       817       819       818
 -1       154   12    0    1
 -2       819        33       820
 -1       155   12    0    1
 -2        26       822       821
 -1       156   12    0    1
 -2       822       824       823
 -1       157   12    0    1
 -2       824       826       825
 -1       158   12    0    1
 -2       826       828       827
 -1       159   12    0    1
 -2       828       830       829
 -1       160   12    0    1
 -2       830       832       831
 -1       161   12    0    1
 -2       832       834       833
 -1       162   12    0    1
 -2       834        27       835
 -1       163   12    0    1
 -2        26       837       836
 -1       164   12    0    1
 -2       837       839       838
 -1       165   12    0    1
 -2       839        33       840
 -1       166   12    0    1
 -2        27       857       856
 -1       167   12    0    1
 -2       857       859       858
 -1       168   12    0    1
 -2       859       861       860
 -1       169   12    0    1
 -2       861       863       862
 -1       170   12    0    1
 -2       863       865       864
 -1       171   12    0    1
 -2       865       867       866
 -1       172   12    0    1
 -2       867       869       868
 -1       173   12    0    1
 -2       869        28       870
 -1       174   12    0    1
 -2        27       872       871
 -1       175   12    0    1
 -2       872       874       873
 -1       176   12    0    1
 -2       874        34       875
 -1       177   12    0    1
 -2        27       877       876
 -1       178   12    0    1
 -2       877       879       878
 -1       179   12    0    1
 -2       879       881       880
 -1       180   12    0    1
 -2       881       883       882
 -1       181   12    0    1
 -2       883       885       884
 -1       182   12    0    1
 -2       885       887       886
 -1       183   12    0    1
 -2       887       889       888
 -1       184   12    0    1
 -2       889        35       890
 -1       185   12    0    1
 -2        28       892       891
 -1       186   12    0    1
 -2       892       894       893
 -1       187   12    0    1
 -2       894        35       895
 -1       188   12    0    1
 -2        33       957       956
 -1       189   12    0    1
 -2       957       959       958
 -1       190   12    0    1
 -2       959       961       960
 -1       191   12    0    1
 -2       961       963       962
 -1       192   12    0    1
 -2       963       965       964
 -1       193   12    0    1
 -2       965       967       966
 -1       194   12    0    1
 -2       967       969       968
 -1       195   12    0    1
 -2       969        34       970
 -1       196   12    0    1
 -2        34       972       971
 -1       197   12    0    1
 -2       972       974       973
 -1       198   12    0    1
 -2       974       976       975
 -1       199   12    0    1
 -2       976       978       977
 -1       200   12    0    1
 -2       978       980       979
 -1       201   12    0    1
 -2       980       982       981
 -1       202   12    0    1
 -2       982       984       983
 -1       203   12    0    1
 -2       984        35       985
 -3
    1PSTEP                         1           1           1          
  100CL  101 1.000000000         394                     0    1           1
 -4  DISP        4    1
 -5  D1          1    2    1    0
 -5  D2          1    2    2    0
 -5  D3          1    2    3    0
 -5  ALL         1    2    0    0    1ALL
 -1         1 1.75354E-04 0.00000E+00 0.00000E+00
 -1         2 1.06261E-04 1.97121E-31 3.30872E-24
 -1         3 1.05535E-04-9.79000E-27-1.32349E-23
 -1         5 7.90236E-05 4.85087E-25 0.00000E+00
 -1         8 1.41065E-04-1.61449E-06 0.00000E+00
 -1         9 9.67043E-05-6.04082E-07 0.00000E+00
 -1        10 9.67533E-05-2.90703E-06 6.61744E-24
 -1        12 7.77521E-05 1.19869E-06 0.00000E+00
 -1        15 1.03321E-04-1.77414E-06 0.00000E+00
 -1        16 8.31842E-05-7.89538E-07 0.00000E+00
 -1        17 7.18158E-05-5.84368E-06 0.00000E+00
 -1        18 7.18662E-05-6.33166E-07 0.00000E+00
 -1        19 7.39356E-05 2.38886E-06 0.00000E+00
 -1        20 7.46370E-05 2.84362E-05 0.00000E+00
 -1        21 7.35781E-05 6.23967E-05 6.61744E-24
 -1        24 2.72421E-05-7.23112E-06 0.00000E+00
 -1        25 6.72861E-05-2.85858E-07 0.00000E+00
 -1        26 6.89870E-05 3.21975E-06 0.00000E+00
 -1        27 6.67922E-05 2.71419E-05 0.00000E+00
 -1        28 6.49751E-05 6.13911E-05 0.00000E+00
 -1        32 0.00000E+00 0.00000E+00 0.00000E+00
 -1        33 6.32582E-05 4.38443E-06 0.00000E+00
 -1        34 6.08061E-05 2.70316E-05 0.00000E+00
 -1        35 5.75641E-05 6.09208E-05 0.00000E+00
 -1        51 1.72851E-04-2.65040E-07 0.00000E+00
 -1        52 1.68603E-04-5.23585E-07 0.00000E+00
 -1        53 1.62948E-04-7.84082E-07 0.00000E+00
 -1        54 1.56238E-04-1.04972E-06-6.61744E-24
 -1        55 1.48825E-04-1.32277E-06 2.06795E-24
 -1        56 1.71088E-04-1.29566E-06 0.00000E+00
 -1        57 1.66423E-04-2.02188E-06 5.29396E-23
 -1        58 1.61483E-04-1.98296E-06 1.05879E-22
 -1        59 1.56220E-04-1.17473E-06 5.29396E-23
 -1        60 1.50837E-04-5.05073E-08 1.05879E-22
 -1        61 1.45522E-04 8.77372E-07 5.29396E-23
 -1        62 1.40428E-04 1.21937E-06 0.00000E+00
 -1        63 1.35669E-04 6.69552E-07 5.29396E-23
 -1        64 1.31151E-04-5.22440E-07 0.00000E+00
 -1        65 1.26746E-04-2.01264E-06-5.29396E-23
 -1        66 1.22255E-04-3.27174E-06 0.00000E+00
 -1        67 1.17495E-04-3.80264E-06 0.00000E+00
 -1        68 1.12447E-04-3.56309E-06-1.05879E-22
 -1        69 1.07161E-04-2.61165E-06-5.29396E-23
 -1        70 1.01791E-04-1.46840E-06-1.05879E-22
 -1        86 1.05909E-04-9.42299E-08 0.00000E+00
 -1        87 1.04854E-04-1.89497E-07 0.00000E+00
 -1        88 1.03233E-04-2.85541E-07 0.00000E+00
 -1        89 1.01186E-04-3.85927E-07 0.00000E+00
 -1        90 9.89355E-05-4.85506E-07 0.00000E+00
 -1       121 1.05287E-04-4.83206E-07 0.00000E+00
 -1       122 1.04547E-04-9.66639E-07 0.00000E+00
 -1       123 1.03317E-04-1.45054E-06 0.00000E+00
 -1       124 1.01602E-04-1.93510E-06 0.00000E+00
 -1       125 9.94112E-05-2.42054E-06 0.00000E+00
 -1       191 7.89883E-05 1.99817E-07 0.00000E+00
 -1       192 7.88824E-05 3.99627E-07 0.00000E+00
 -1       193 7.87058E-05 5.99428E-07-6.61744E-24
 -1       194 7.84586E-05 7.99211E-07 3.30872E-24
 -1       195 7.81407E-05 9.98967E-07-6.61744E-24
 -1       266 1.34774E-04-1.66390E-06 1.32349E-23
 -1       267 1.28484E-04-1.68772E-06 3.30872E-24
 -1       268 1.22193E-04-1.71319E-06 3.30872E-24
 -1       269 1.15902E-04-1.73383E-06 8.27181E-25
 -1       270 1.09612E-04-1.75437E-06-8.27181E-25
 -1       271 1.35817E-04 3.06163E-06 5.29396E-23
 -1       272 1.30826E-04 6.74301E-06 0.00000E+00
 -1       273 1.26215E-04 9.43592E-06 0.00000E+00
 -1       274 1.21961E-04 1.11368E-05-5.29396E-23
 -1       275 1.18060E-04 1.18965E-05 0.00000E+00
 -1       276 1.14480E-04 1.17973E-05 5.29396E-23
 -1       277 1.11177E-04 1.09588E-05 0.00000E+00
 -1       278 1.08096E-04 9.52916E-06 0.00000E+00
 -1       279 1.05171E-04 7.68173E-06-1.05879E-22
 -1       280 1.02331E-04 5.60648E-06 0.00000E+00
 -1       281 9.95027E-05 3.50271E-06 0.00000E+00
 -1       282 9.66124E-05 1.57141E-06 0.00000E+00
 -1       283 9.35867E-05 5.42475E-09 0.00000E+00
 -1       284 9.03708E-05-1.01185E-06 0.00000E+00
 -1       285 8.68889E-05-1.33080E-06 0.00000E+00
 -1       301 9.44450E-05-6.44754E-07 0.00000E+00
 -1       302 9.21708E-05-6.62001E-07 0.00000E+00
 -1       303 8.98946E-05-6.76743E-07 6.61744E-24
 -1       304 8.76293E-05-6.93973E-07-3.30872E-24
 -1       305 8.53883E-05-7.18514E-07 0.00000E+00
 -1       306 9.46412E-05 5.31980E-07-2.64698E-23
 -1       307 9.29078E-05 6.75468E-07 0.00000E+00
 -1       308 9.14898E-05-1.70189E-08 0.00000E+00
 -1       309 9.03200E-05-1.39029E-06 0.00000E+00
 -1       310 8.93394E-05-3.27123E-06 0.00000E+00
 -1       311 8.84798E-05-5.47938E-06 0.00000E+00
 -1       312 8.76721E-05-7.82733E-06 0.00000E+00
 -1       313 8.68457E-05-1.01254E-05 0.00000E+00
 -1       314 8.59302E-05-1.21848E-05 5.29396E-23
 -1       315 8.48569E-05-1.38210E-05 0.00000E+00
 -1       316 8.35597E-05-1.48582E-05 5.29396E-23
 -1       317 8.19775E-05-1.51315E-05 2.64698E-23
 -1       318 8.00528E-05-1.44913E-05 0.00000E+00
 -1       319 7.77416E-05-1.28025E-05-1.32349E-23
 -1       320 7.49906E-05-9.95638E-06-2.64698E-23
 -1       336 9.36407E-05-3.39470E-06 0.00000E+00
 -1       337 9.00874E-05-3.88357E-06-6.61744E-24
 -1       338 8.61094E-05-4.37381E-06 0.00000E+00
 -1       339 8.17247E-05-4.86450E-06-6.61744E-24
 -1       340 7.69530E-05-5.35703E-06 0.00000E+00
 -1       406 7.72928E-05 1.39835E-06 6.61744E-24
 -1       407 7.67628E-05 1.59790E-06 3.30872E-24
 -1       408 7.61619E-05 1.79726E-06-6.61744E-24
 -1       409 7.54903E-05 1.99614E-06 0.00000E+00
 -1       410 7.47480E-05 2.19407E-06 6.61744E-24
 -1       521 7.94521E-05-2.96945E-07 0.00000E+00
 -1       522 7.59690E-05-7.39807E-07 5.29396E-23
 -1       523 7.27820E-05-1.96108E-06 0.00000E+00
 -1       524 6.98154E-05-3.81306E-06 0.00000E+00
 -1       525 6.70140E-05-6.11046E-06-1.05879E-22
 -1       526 6.43024E-05-8.65514E-06 0.00000E+00
 -1       527 6.16042E-05-1.12372E-05 0.00000E+00
 -1       528 5.88409E-05-1.36462E-05-5.29396E-23
 -1       529 5.59368E-05-1.56786E-05 0.00000E+00
 -1       530 5.28217E-05-1.71463E-05-5.29396E-23
 -1       531 4.94338E-05-1.78854E-05 0.00000E+00
 -1       532 4.57238E-05-1.77607E-05 0.00000E+00
 -1       533 4.16529E-05-1.66750E-05 1.05879E-22
 -1       534 3.72106E-05-1.45644E-05 0.00000E+00
 -1       535 3.23723E-05-1.14196E-05 5.29396E-23
 -1       536 7.17956E-05-1.15202E-06-6.61744E-24
 -1       537 7.17928E-05 2.40922E-06 0.00000E+00
 -1       538 7.17926E-05 4.95719E-06 0.00000E+00
 -1       539 7.17963E-05 6.60970E-06 0.00000E+00
 -1       540 7.18013E-05 7.48431E-06 0.00000E+00
 -1       541 7.18070E-05 7.69859E-06 0.00000E+00
 -1       542 7.18128E-05 7.37006E-06 0.00000E+00
 -1       543 7.18185E-05 6.61622E-06-7.75482E-26
 -1       544 7.18240E-05 5.55453E-06 1.03398E-25
 -1       545 7.18293E-05 4.30242E-06 5.16988E-26
 -1       546 7.18345E-05 2.97732E-06 2.06795E-25
 -1       547 7.18399E-05 1.69666E-06 0.00000E+00
 -1       548 7.18454E-05 5.77860E-07 0.00000E+00
 -1       549 7.18516E-05-2.61666E-07 0.00000E+00
 -1       550 7.18579E-05-7.04402E-07 0.00000E+00
 -1       551 6.52076E-05-6.06295E-06-3.30872E-24
 -1       552 5.77974E-05-6.28276E-06 8.27181E-25
 -1       553 4.99376E-05-6.50593E-06 0.00000E+00
 -1       554 4.19868E-05-6.73332E-06 1.32349E-23
 -1       555 3.43036E-05-6.96542E-06 0.00000E+00
 -1       556 6.99556E-05-1.34903E-06 0.00000E+00
 -1       557 6.84996E-05 2.10408E-06 0.00000E+00
 -1       558 6.74025E-05 4.61252E-06 0.00000E+00
 -1       559 6.66232E-05 6.28201E-06 0.00000E+00
 -1       560 6.61204E-05 7.21833E-06 0.00000E+00
 -1       561 6.58534E-05 7.52810E-06 0.00000E+00
 -1       562 6.57816E-05 7.31811E-06 0.00000E+00
 -1       563 6.58646E-05 6.69535E-06 0.00000E+00
 -1       564 6.60622E-05 5.76694E-06-6.61744E-24
 -1       565 6.63340E-05 4.64005E-06-3.30872E-24
 -1       566 6.66400E-05 3.42194E-06-3.30872E-24
 -1       567 6.69400E-05 2.21991E-06 8.27181E-25
 -1       568 6.71941E-05 1.14120E-06-2.68834E-24
 -1       569 6.73624E-05 2.92958E-07 8.27181E-25
 -1       570 6.74049E-05-2.17786E-07 0.00000E+00
 -1       571 7.19910E-05-3.79261E-07-1.24077E-24
 -1       572 7.21192E-05-2.09021E-07 4.13590E-25
 -1       573 7.22483E-05-1.07108E-07-1.65436E-24
 -1       574 7.23779E-05-5.74038E-08-8.27181E-25
 -1       575 7.25077E-05-4.37219E-08 3.30872E-24
 -1       576 7.26376E-05-4.97707E-08-1.65436E-24
 -1       577 7.27675E-05-5.92511E-08 3.30872E-24
 -1       578 7.28974E-05-5.58498E-08 0.00000E+00
 -1       579 7.30273E-05-2.32519E-08 0.00000E+00
 -1       580 7.31572E-05 5.48587E-08 0.00000E+00
 -1       581 7.32871E-05 1.94797E-07-6.61744E-24
 -1       582 7.34170E-05 4.12863E-07 6.61744E-24
 -1       583 7.35468E-05 7.25343E-07 0.00000E+00
 -1       584 7.36766E-05 1.14836E-06 0.00000E+00
 -1       585 7.38062E-05 1.69794E-06 6.61744E-24
 -1       586 7.12065E-05-5.73980E-07 0.00000E+00
 -1       587 7.04415E-05-5.14635E-07 0.00000E+00
 -1       588 6.96186E-05-4.55427E-07-1.65436E-24
 -1       589 6.87863E-05-3.96754E-07-1.03398E-25
 -1       590 6.79929E-05-3.39203E-07 0.00000E+00
 -1       591 7.16711E-05-3.32792E-07 0.00000E+00
 -1       592 7.14924E-05-9.36240E-08-8.27181E-25
 -1       593 7.13308E-05 9.68964E-08 0.00000E+00
 -1       594 7.11827E-05 2.49941E-07 0.00000E+00
 -1       595 7.10442E-05 3.76734E-07 0.00000E+00
 -1       596 7.09112E-05 4.88405E-07 0.00000E+00
 -1       597 7.07797E-05 5.96078E-07 0.00000E+00
 -1       598 7.06455E-05 7.10862E-07 8.27181E-25
 -1       599 7.05045E-05 8.43867E-07 0.00000E+00
 -1       600 7.03525E-05 1.00620E-06 8.27181E-25
 -1       601 7.01853E-05 1.20895E-06 1.65436E-24
 -1       602 6.99990E-05 1.46325E-06 4.13590E-25
 -1       603 6.97893E-05 1.78021E-06-8.27181E-25
 -1       604 6.95525E-05 2.17100E-06 0.00000E+00
 -1       605 6.92848E-05 2.64676E-06 8.27181E-25
 -1       606 7.39852E-05 3.34238E-06 0.00000E+00
 -1       607 7.40310E-05 4.42629E-06 0.00000E+00
 -1       608 7.40758E-05 5.63288E-06 0.00000E+00
 -1       609 7.41199E-05 6.95341E-06 0.00000E+00
 -1       610 7.41638E-05 8.37908E-06 0.00000E+00
 -1       611 7.42075E-05 9.90092E-06 0.00000E+00
 -1       612 7.42510E-05 1.15100E-05 3.30872E-24
 -1       613 7.42943E-05 1.31973E-05 0.00000E+00
 -1       614 7.43376E-05 1.49539E-05 0.00000E+00
 -1       615 7.43807E-05 1.67707E-05 0.00000E+00
 -1       616 7.44238E-05 1.86390E-05 0.00000E+00
 -1       617 7.44667E-05 2.05495E-05 0.00000E+00
 -1       618 7.45096E-05 2.24935E-05-1.65436E-24
 -1       619 7.45524E-05 2.44619E-05-8.27181E-25
 -1       620 7.45950E-05 2.64458E-05 0.00000E+00
 -1       621 7.30587E-05 2.52805E-06-3.30872E-24
 -1       622 7.21859E-05 2.66773E-06-1.65436E-24
 -1       623 7.13298E-05 2.80735E-06 3.30872E-24
 -1       624 7.05030E-05 2.94661E-06 0.00000E+00
 -1       625 6.97180E-05 3.08520E-06-1.65436E-24
 -1       626 7.36894E-05 3.40685E-06-6.61744E-24
 -1       627 7.33917E-05 4.56056E-06 0.00000E+00
 -1       628 7.30477E-05 5.83714E-06 0.00000E+00
 -1       629 7.26627E-05 7.22249E-06 0.00000E+00
 -1       630 7.22420E-05 8.70248E-06 0.00000E+00
 -1       631 7.17911E-05 1.02628E-05 0.00000E+00
 -1       632 7.13153E-05 1.18892E-05 0.00000E+00
 -1       633 7.08200E-05 1.35674E-05 6.61744E-24
 -1       634 7.03106E-05 1.52831E-05-3.30872E-24
 -1       635 6.97924E-05 1.70220E-05 1.65436E-24
 -1       636 6.92708E-05 1.87698E-05 0.00000E+00
 -1       637 6.87512E-05 2.05123E-05 0.00000E+00
 -1       638 6.82388E-05 2.22351E-05 1.65436E-24
 -1       639 6.77387E-05 2.39239E-05-8.27181E-25
 -1       640 6.72557E-05 2.55644E-05 3.30872E-24
 -1       656 7.29093E-05 2.82266E-05 0.00000E+00
 -1       657 7.15167E-05 2.80072E-05 0.00000E+00
 -1       658 7.03343E-05 2.77885E-05 0.00000E+00
 -1       659 6.92366E-05 2.75700E-05 0.00000E+00
 -1       660 6.80977E-05 2.73509E-05 0.00000E+00
 -1       661 7.40314E-05 3.04866E-05 0.00000E+00
 -1       662 7.34046E-05 3.26088E-05-1.65436E-24
 -1       663 7.27569E-05 3.47860E-05 0.00000E+00
 -1       664 7.20947E-05 3.70039E-05 1.65436E-24
 -1       665 7.14230E-05 3.92473E-05-3.30872E-24
 -1       666 7.07473E-05 4.15017E-05 0.00000E+00
 -1       667 7.00730E-05 4.37522E-05 3.30872E-24
 -1       668 6.94058E-05 4.59843E-05 0.00000E+00
 -1       669 6.87510E-05 4.81831E-05 0.00000E+00
 -1       670 6.81144E-05 5.03338E-05 1.65436E-24
 -1       671 6.75014E-05 5.24218E-05-3.30872E-24
 -1       672 6.69175E-05 5.44320E-05 0.00000E+00
 -1       673 6.63683E-05 5.63495E-05 0.00000E+00
 -1       674 6.58586E-05 5.81590E-05 1.65436E-24
 -1       675 6.53952E-05 5.98457E-05 0.00000E+00
 -1       676 7.21348E-05 6.22277E-05 6.61744E-24
 -1       677 7.06932E-05 6.20589E-05-3.30872E-24
 -1       678 6.92548E-05 6.18902E-05-3.30872E-24
 -1       679 6.78212E-05 6.17222E-05-1.65436E-24
 -1       680 6.63941E-05 6.15541E-05 0.00000E+00
 -1       771 2.39495E-05-2.53093E-06 5.29396E-23
 -1       772 2.10033E-05 1.21837E-06 0.00000E+00
 -1       773 1.83863E-05 4.09385E-06 5.29396E-23
 -1       774 1.60679E-05 6.17608E-06 0.00000E+00
 -1       775 1.40179E-05 7.54662E-06-5.29396E-23
 -1       776 1.22046E-05 8.28871E-06 0.00000E+00
 -1       777 1.05960E-05 8.48636E-06-5.29396E-23
 -1       778 9.16003E-06 8.22474E-06 0.00000E+00
 -1       779 7.86421E-06 7.58963E-06 5.29396E-23
 -1       780 6.67602E-06 6.66757E-06 2.64698E-23
 -1       781 5.56287E-06 5.54549E-06 0.00000E+00
 -1       782 4.49218E-06 4.31081E-06 2.64698E-23
 -1       783 3.43133E-06 3.05104E-06 0.00000E+00
 -1       784 2.34853E-06 1.85395E-06 0.00000E+00
 -1       785 1.21170E-06 8.07139E-07 0.00000E+00
 -1       786 6.73860E-05 9.75017E-08-8.27181E-25
 -1       787 6.74920E-05 3.85870E-07-8.27181E-25
 -1       788 6.75979E-05 5.95036E-07 0.00000E+00
 -1       789 6.77048E-05 7.40744E-07 1.65436E-24
 -1       790 6.78118E-05 8.38651E-07 0.00000E+00
 -1       791 6.79190E-05 9.04362E-07-1.65436E-24
 -1       792 6.80263E-05 9.53440E-07 0.00000E+00
 -1       793 6.81335E-05 1.00143E-06 1.65436E-24
 -1       794 6.82408E-05 1.06388E-06 3.30872E-24
 -1       795 6.83481E-05 1.15634E-06 0.00000E+00
 -1       796 6.84553E-05 1.29441E-06 0.00000E+00
 -1       797 6.85625E-05 1.49375E-06-1.65436E-24
 -1       798 6.86696E-05 1.77009E-06-3.30872E-24
 -1       799 6.87762E-05 2.13922E-06 1.65436E-24
 -1       800 6.88829E-05 2.61711E-06 3.30872E-24
 -1       801 6.17561E-05-1.82071E-07 0.00000E+00
 -1       802 4.92590E-05-1.26475E-07 0.00000E+00
 -1       803 3.33150E-05-1.13421E-07-8.27181E-25
 -1       804 1.74439E-05-1.06068E-07 0.00000E+00
 -1       805 5.16499E-06-5.48129E-08 0.00000E+00
 -1       806 6.70263E-05 4.17404E-08 3.30872E-24
 -1       807 6.67816E-05 3.17750E-07 0.00000E+00
 -1       808 6.65512E-05 5.52605E-07 0.00000E+00
 -1       809 6.63321E-05 7.56301E-07 0.00000E+00
 -1       810 6.61207E-05 9.38806E-07 3.30872E-24
 -1       811 6.59135E-05 1.11006E-06-1.65436E-24
 -1       812 6.57067E-05 1.27998E-06 0.00000E+00
 -1       813 6.54967E-05 1.45849E-06 0.00000E+00
 -1       814 6.52798E-05 1.65552E-06 0.00000E+00
 -1       815 6.50521E-05 1.88097E-06-1.65436E-24
 -1       816 6.48101E-05 2.14476E-06 1.65436E-24
 -1       817 6.45501E-05 2.45680E-06 8.27181E-25
 -1       818 6.42682E-05 2.82698E-06 0.00000E+00
 -1       819 6.39611E-05 3.26516E-06 8.27181E-25
 -1       820 6.36251E-05 3.78116E-06 1.65436E-24
 -1       821 6.88583E-05 3.99517E-06 0.00000E+00
 -1       822 6.87217E-05 4.95976E-06 0.00000E+00
 -1       823 6.85851E-05 6.09423E-06 0.00000E+00
 -1       824 6.84471E-05 7.37893E-06 0.00000E+00
 -1       825 6.83088E-05 8.79400E-06 3.30872E-24
 -1       826 6.81701E-05 1.03194E-05-1.65436E-24
 -1       827 6.80313E-05 1.19348E-05-3.30872E-24
 -1       828 6.78922E-05 1.36199E-05-1.65436E-24
 -1       829 6.77531E-05 1.53542E-05 0.00000E+00
 -1       830 6.76140E-05 1.71170E-05 0.00000E+00
 -1       831 6.74749E-05 1.88879E-05 0.00000E+00
 -1       832 6.73361E-05 2.06462E-05 1.65436E-24
 -1       833 6.71974E-05 2.23712E-05 3.30872E-24
 -1       834 6.70600E-05 2.40425E-05 0.00000E+00
 -1       835 6.69225E-05 2.56395E-05-1.65436E-24
 -1       836 6.81757E-05 3.41140E-06 0.00000E+00
 -1       837 6.72125E-05 3.60917E-06 0.00000E+00
 -1       838 6.61681E-05 3.80668E-06-3.30872E-24
 -1       839 6.51137E-05 4.00343E-06-1.65436E-24
 -1       840 6.41201E-05 4.20003E-06 1.65436E-24
 -1       856 6.66862E-05 2.87234E-05 8.27181E-25
 -1       857 6.65737E-05 3.05321E-05 0.00000E+00
 -1       858 6.64607E-05 3.25355E-05 0.00000E+00
 -1       859 6.63466E-05 3.47012E-05-1.65436E-24
 -1       860 6.62320E-05 3.69964E-05 0.00000E+00
 -1       861 6.61171E-05 3.93883E-05 0.00000E+00
 -1       862 6.60019E-05 4.18440E-05 0.00000E+00
 -1       863 6.58867E-05 4.43306E-05 0.00000E+00
 -1       864 6.57715E-05 4.68152E-05 0.00000E+00
 -1       865 6.56563E-05 4.92649E-05-1.65436E-24
 -1       866 6.55413E-05 5.16468E-05 0.00000E+00
 -1       867 6.54266E-05 5.39279E-05 1.65436E-24
 -1       868 6.53123E-05 5.60755E-05 0.00000E+00
 -1       869 6.51986E-05 5.80570E-05-1.65436E-24
 -1       870 6.50853E-05 5.98396E-05 0.00000E+00
 -1       871 6.56024E-05 2.71268E-05 0.00000E+00
 -1       872 6.45803E-05 2.71097E-05 0.00000E+00
 -1       873 6.36583E-05 2.70921E-05 0.00000E+00
 -1       874 6.27677E-05 2.70739E-05 0.00000E+00
 -1       875 6.18396E-05 2.70549E-05-8.27181E-25
 -1       876 6.63956E-05 2.87555E-05-3.30872E-24
 -1       877 6.59444E-05 3.05346E-05-3.30872E-24
 -1       878 6.54398E-05 3.24561E-05 0.00000E+00
 -1       879 6.48904E-05 3.44990E-05-3.30872E-24
 -1       880 6.43032E-05 3.66424E-05 6.61744E-24
 -1       881 6.36862E-05 3.88653E-05 3.30872E-24
 -1       882 6.30470E-05 4.11471E-05 0.00000E+00
 -1       883 6.23935E-05 4.34672E-05 0.00000E+00
 -1       884 6.17333E-05 4.58048E-05-6.61744E-24
 -1       885 6.10742E-05 4.81393E-05-3.30872E-24
 -1       886 6.04239E-05 5.04503E-05 6.61744E-24
 -1       887 5.97902E-05 5.27168E-05 0.00000E+00
 -1       888 5.91807E-05 5.49183E-05-6.61744E-24
 -1       889 5.86024E-05 5.70338E-05-1.65436E-24
 -1       890 5.80641E-05 5.90426E-05-3.30872E-24
 -1       891 6.37135E-05 6.13132E-05-1.65436E-24
 -1       892 6.25890E-05 6.12343E-05 0.00000E+00
 -1       893 6.15068E-05 6.11555E-05-1.65436E-24
 -1       894 6.03718E-05 6.10768E-05 8.27181E-25
 -1       895 5.90891E-05 6.09979E-05 1.65436E-24
 -1       956 6.31087E-05 5.24549E-06 1.65436E-24
 -1       957 6.29564E-05 6.26150E-06-8.27181E-25
 -1       958 6.28034E-05 7.41605E-06-3.30872E-24
 -1       959 6.26499E-05 8.69164E-06 8.27181E-25
 -1       960 6.24962E-05 1.00708E-05 3.30872E-24
 -1       961 6.23423E-05 1.15359E-05 0.00000E+00
 -1       962 6.21883E-05 1.30693E-05 0.00000E+00
 -1       963 6.20343E-05 1.46534E-05 0.00000E+00
 -1       964 6.18801E-05 1.62704E-05-3.30872E-24
 -1       965 6.17260E-05 1.79028E-05 0.00000E+00
 -1       966 6.15719E-05 1.95329E-05-6.61744E-24
 -1       967 6.14178E-05 2.11429E-05 0.00000E+00
 -1       968 6.12639E-05 2.27154E-05 0.00000E+00
 -1       969 6.11103E-05 2.42326E-05-3.30872E-24
 -1       970 6.09571E-05 2.56770E-05-6.61744E-24
 -1       971 6.06084E-05 2.84289E-05 0.00000E+00
 -1       972 6.04063E-05 3.00545E-05 0.00000E+00
 -1       973 6.02038E-05 3.18807E-05 0.00000E+00
 -1       974 6.00004E-05 3.38793E-05 0.00000E+00
 -1       975 5.97966E-05 3.60220E-05 0.00000E+00
 -1       976 5.95925E-05 3.82802E-05 3.30872E-24
 -1       977 5.93882E-05 4.06255E-05 0.00000E+00
 -1       978 5.91837E-05 4.30292E-05 0.00000E+00
 -1       979 5.89792E-05 4.54626E-05-6.61744E-24
 -1       980 5.87747E-05 4.78970E-05 0.00000E+00
 -1       981 5.85703E-05 5.03038E-05 0.00000E+00
 -1       982 5.83663E-05 5.26541E-05 0.00000E+00
 -1       983 5.81626E-05 5.49195E-05 0.00000E+00
 -1       984 5.79602E-05 5.70713E-05 3.30872E-24
 -1       985 5.77582E-05 5.90811E-05 0.00000E+00
 -3
    1PSTEP                         2           1           1          
  100CL  101 1.000000000         394                     0    1           1
 -4  STRESS      6    1
 -5  SXX         1    4    1    1
 -5  SYY         1    4    2    2
 -5  SZZ         1    4    3    3
 -5  SXY         1    4    1    2
 -5  SYZ         1    4    2    3
 -5  SZX         1    4    3    1
 -1         1-5.68629E+06-2.38187E+06-1.37889E+06-2.61524E+06 2.76486E-10-6.11180E-10
 -1         2 2.92918E+03-2.65597E+05 9.21101E+03-8.75696E+02-7.74207E-10-4.42918E-09
 -1         3-8.01212E+01-1.38045E+06-3.05486E+01-7.01005E+02 1.20629E-09 7.45877E-09
 -1         5-3.70576E+01 5.71965E+05 1.78533E+01 1.75963E+00 4.13988E-10-1.13741E-08
 -1         8-2.52005E+06-1.13697E+06-3.70988E+05-1.46216E+06 2.27495E-09-2.43890E-08
 -1         9-3.65067E+06-1.34417E+06-6.79108E+05-1.13136E+06 9.38599E-09-5.35510E-09
 -1        10-1.93485E+02-1.38070E+06-1.62335E+03-4.06199E+03-6.06246E-09-5.47061E-10
 -1        12-2.98798E+01 5.72003E+05 5.79979E+02 1.13466E+01 4.94822E-10 2.58333E-08
 -1        15 3.92353E+03 2.12940E+03 1.22720E+04 1.08360E+01-6.05906E-07-1.00294E-04
 -1        16-5.26704E+06-1.68740E+06-7.79846E+05-1.73553E+06 4.05756E-09-7.45422E-09
 -1        17-7.94376E+05-6.32649E+05-1.14749E+05-5.36649E+05-2.03872E-09 4.83706E-09
 -1        18 4.85916E+04 1.50977E+04-1.74144E+04-1.25710E+05-2.08729E-10-6.20457E-09
 -1        19 1.62116E+05 2.00348E+05-3.59203E+02 1.49472E+04-1.46974E-09 1.18816E-09
 -1        20 1.10604E+05-1.69192E+05-3.05150E+04 8.12064E+04 2.19400E-09-4.16427E-09
 -1        21-1.31216E+02-4.80889E+05-2.10336E+03-5.39417E+02 9.78477E-09 1.46126E-09
 -1        24-3.67008E+06-1.29498E+06-4.02652E+05-1.65882E+06-7.89926E-09 4.61781E-09
 -1        25 1.46645E+04 7.29707E+04 3.44031E+04-5.29394E+05-1.17434E-09 1.91358E-10
 -1        26-2.33765E+04 1.54144E+05-8.57088E+02-3.61784E+04 1.22527E-09-1.58828E-09
 -1        27-3.49908E+04-1.01650E+05-4.61407E+04 1.03017E+05 3.21446E-09-8.22123E-09
 -1        28-7.22343E+03-1.42406E+05-1.06177E+03 5.84310E+04 1.48116E-08-5.83213E-09
 -1        32-1.19125E+06-1.06028E+05 3.27005E+05-1.64391E+06-2.99769E-09 2.30602E-09
 -1        33-1.71698E+05 1.50325E+05 4.67747E+04-5.37345E+04 1.47088E-09 3.30207E-09
 -1        34-3.19395E+05-4.82224E+04-1.17154E+04 9.82900E+04-1.32216E-09 5.84775E-09
 -1        35-4.11394E+04-4.31553E+04-6.19923E+02 9.27498E+04 6.78643E-09-3.10077E-09
 -1        51 3.25330E+04-6.49416E+05 5.99431E+04-1.75255E+06-2.32831E-10-9.48785E-09
 -1        52 2.24172E+04-6.54616E+05 4.14268E+04-1.94924E+06 1.25146E-09 1.40135E-08
 -1        53 2.11551E+04-6.80102E+05 3.86878E+04-1.74740E+06 9.31323E-10 2.45636E-08
 -1        54 4.99763E+04-6.80729E+05 6.63664E+04-1.95439E+06-4.07454E-10-2.32831E-10
 -1        55 9.96777E+04-7.05732E+05 1.23613E+05-1.74602E+06 4.94765E-10-1.84082E-09
 -1        56-1.06120E+07-1.13603E+06-9.34099E+05-4.13183E+06-2.64845E-09 1.26311E-08
 -1        57-1.10775E+07-1.98680E+06-6.43799E+05-3.99832E+06-2.31012E-09 2.59679E-08
 -1        58-1.07784E+07-1.48538E+06-2.18558E+05-4.09577E+06 3.33239E-09 6.57747E-09
 -1        59-1.08881E+07-1.57568E+06-1.34497E+05-4.03313E+06 2.37105E-09 8.85120E-09
 -1        60-1.07982E+07-1.54381E+06-5.08285E+04-4.09710E+06-6.14818E-10 1.19671E-08
 -1        61-1.08458E+07-1.52607E+06-2.98114E+04-4.05179E+06-6.14477E-10-1.04556E-08
 -1        62-1.08197E+07-1.53448E+06-1.40810E+04-4.07694E+06-4.08858E-09 2.75077E-09
 -1        63-1.08061E+07-1.55370E+06-1.20794E+04-4.09289E+06 2.56534E-10 1.61783E-08
 -1        64-1.08377E+07-1.51611E+06-1.37091E+04-4.05595E+06-3.32170E-09 1.71440E-09
 -1        65-1.07990E+07-1.57249E+06-2.89691E+04-4.10517E+06-2.42642E-09-2.32785E-09
 -1        66-1.08270E+07-1.51571E+06-4.93159E+04-4.06474E+06-1.29603E-09-2.93039E-09
 -1        67-1.08608E+07-1.59937E+06-1.30224E+05-4.06278E+06-1.72440E-09 3.02680E-09
 -1        68-1.07768E+07-1.48985E+06-2.11638E+05-4.09842E+06 4.24916E-09 1.01863E-10
 -1        69-1.11022E+07-1.93983E+06-6.23439E+05-3.96370E+06 1.42609E-09 1.10595E-09
 -1        70-1.05888E+07-1.17837E+06-9.04600E+05-4.16388E+06-1.39698E-09-5.23869E-10
 -1        86-1.44422E+03-2.68668E+05 9.79461E+03 4.37814E+02-4.11546E-11 6.90846E-10
 -1        87 9.67259E+03-2.62466E+05 2.05574E+04-1.57140E+03-5.26370E-10 8.94616E-09
 -1        88-8.02329E+03-2.71644E+05 3.13613E+04 1.13294E+03-7.07587E-10 1.97412E-09
 -1        89 5.98123E+04-2.39593E+05 8.46641E+04-2.47248E+03-3.77440E-10 1.16498E-09
 -1        90-5.15307E+04-2.91510E+05 1.19408E+05 1.33883E+03-9.89530E-10 8.68283E-10
 -1       121-1.11870E+02-1.38092E+06-1.16663E+02 3.50367E+02-1.92987E-09-1.08321E-09
 -1       122-7.60524E+01-1.38046E+06-8.65511E+01-1.38938E+03-1.52788E-09 1.13141E-09
 -1       123-1.06279E+02-1.38092E+06-2.50652E+02 1.03819E+03-4.76932E-09-3.19869E-09
 -1       124-7.47577E+01-1.38051E+06-3.83814E+02-2.74717E+03-3.16837E-09-3.02953E-09
 -1       125-8.51526E+01-1.38091E+06-8.26768E+02 1.70748E+03-7.92366E-09 2.38379E-09
 -1       191-3.94877E+01 5.72008E+05 2.01161E+01-8.90193E-01 4.04730E-10-1.04446E-08
 -1       192-3.87234E+01 5.71966E+05 3.78524E+01 4.65373E+00 5.08117E-10 3.44608E-09
 -1       193-4.38997E+01 5.72007E+05 6.91980E+01-3.82963E+00 7.16470E-10-1.71894E-09
 -1       194-4.40764E+01 5.71972E+05 1.43289E+02 1.01023E+01 2.86839E-10-2.04500E-08
 -1       195-5.23727E+01 5.72003E+05 2.79063E+02-6.42572E+00 9.90681E-10-3.27236E-09
 -1       266-6.93509E+04-3.21236E+04 1.60669E+05-2.24831E+02-9.58811E-07-1.59345E-04
 -1       267 8.03368E+04 3.75251E+04 1.13848E+05 2.58557E+02-1.91851E-06-3.17777E-04
 -1       268-1.09106E+04-5.35838E+03 4.21772E+04-3.35316E+01-1.50808E-06-2.49628E-04
 -1       269 1.28825E+04 6.42686E+03 2.75324E+04 3.89884E+01-1.09642E-06-1.81572E-04
 -1       270-1.95816E+03-1.06224E+03 1.32338E+04-5.41075E+00-8.42650E-07-1.39486E-04
 -1       271-7.75494E+06-9.58058E+05-6.21521E+05-3.02322E+06-1.63709E-09 1.30967E-09
 -1       272-8.03699E+06-1.35839E+06-4.00558E+05-2.95369E+06-5.09317E-10-1.42827E-08
 -1       273-7.87440E+06-1.11195E+06-1.46490E+05-2.99220E+06 8.46740E-10-1.12777E-08
 -1       274-7.89248E+06-1.17332E+06-8.21420E+04-3.00221E+06 3.09001E-10 8.99854E-09
 -1       275-7.89535E+06-1.12337E+06-3.40865E+04-2.98171E+06 7.16682E-10-5.94810E-09
 -1       276-7.86396E+06-1.16317E+06-1.81811E+04-3.02034E+06-1.09139E-09-6.29916E-09
 -1       277-7.90279E+06-1.11972E+06-9.13534E+03-2.97506E+06-1.79534E-09 8.78890E-09
 -1       278-7.85376E+06-1.16956E+06-6.97991E+03-3.03109E+06 3.92174E-09-6.82121E-09
 -1       279-7.90605E+06-1.11644E+06-8.03548E+03-2.97142E+06 4.86580E-10-7.39351E-09
 -1       280-7.85206E+06-1.17481E+06-1.53126E+04-3.03498E+06 1.66074E-09 4.48745E-09
 -1       281-7.90484E+06-1.11443E+06-2.81264E+04-2.97134E+06 1.04274E-09-5.45697E-10
 -1       282-7.86769E+06-1.19124E+06-6.79045E+04-3.02938E+06-1.06206E-09 6.25732E-10
 -1       283-7.89077E+06-1.10182E+06-1.20831E+05-2.97639E+06 7.42148E-10-9.42237E-09
 -1       284-7.98216E+06-1.34845E+06-3.30644E+05-2.99390E+06-1.80989E-09-5.44242E-09
 -1       285-7.79334E+06-9.73905E+05-5.13207E+05-3.00078E+06 1.27329E-09 5.64614E-09
 -1       301 5.94829E+04-2.86418E+04 1.76909E+05-3.14788E+04 2.18279E-11 1.78022E-09
 -1       302 2.25970E+04 8.07701E+03 1.19188E+05-3.91001E+04 1.76124E-09-6.74868E-09
 -1       303 4.72377E+03-1.60250E+04 1.09222E+05-3.15816E+04-1.83718E-10-2.54204E-10
 -1       304 4.14798E+04 2.27075E+04 1.79459E+05-3.90485E+04 1.59889E-09 3.11195E-09
 -1       305 1.14127E+05-4.31406E+04 3.19777E+05-3.13886E+04 4.80213E-10 6.45787E-09
 -1       306-3.64400E+06-4.64013E+05-2.24544E+05-1.40634E+06 9.38599E-10 2.76486E-10
 -1       307-3.70100E+06-6.51514E+05-1.44379E+05-1.43156E+06-1.01369E-09-1.87356E-09
 -1       308-3.68735E+06-5.18791E+05-5.29977E+04-1.39502E+06 1.18575E-09 1.54250E-09
 -1       309-3.65032E+06-5.84342E+05-2.97239E+04-1.44884E+06-1.06411E-10-5.42968E-10
 -1       310-3.69414E+06-5.23584E+05-1.23787E+04-1.39218E+06-2.52521E-09-2.59570E-09
 -1       311-3.64263E+06-5.78333E+05-6.74424E+03-1.45283E+06-2.08172E-09-6.75175E-09
 -1       312-3.69527E+06-5.23827E+05-3.57800E+03-1.39155E+06-1.53034E-09-1.82359E-09
 -1       313-3.64230E+06-5.77176E+05-3.17616E+03-1.45246E+06-3.62775E-09-3.26850E-09
 -1       314-3.69439E+06-5.24722E+05-4.23660E+03-1.39252E+06-2.38606E-09-2.99633E-09
 -1       315-3.64570E+06-5.75395E+05-8.45945E+03-1.44863E+06-1.81035E-09-3.61342E-09
 -1       316-3.69139E+06-5.26000E+05-1.59507E+04-1.39500E+06-1.03682E-09 3.09865E-09
 -1       317-3.65784E+06-5.80751E+05-3.82207E+04-1.44055E+06-8.42647E-10 5.68252E-09
 -1       318-3.68167E+06-5.20793E+05-6.83740E+04-1.39972E+06-3.63070E-09-8.33097E-10
 -1       319-3.72460E+06-6.65953E+05-1.86009E+05-1.41689E+06-8.11269E-09 3.34330E-09
 -1       320-3.62542E+06-4.50489E+05-2.89336E+05-1.41470E+06-2.57569E-09 5.35510E-09
 -1       336 4.37866E+01-1.38080E+06-3.14765E+03 2.35259E+03-1.05262E-08-2.83762E-10
 -1       337-1.57673E+03-1.38171E+06-6.87765E+03-5.31013E+03-7.71615E-09-4.94492E-09
 -1       338 1.14970E+03-1.37997E+06-1.23262E+04 2.95479E+03-1.30885E-08 3.04590E-09
 -1       339-1.53850E+04-1.38985E+06-3.05606E+04-6.55001E+03-9.15406E-09 5.83304E-09
 -1       340 1.15547E+04-1.37278E+06-4.74596E+04 3.58052E+03-1.50321E-08 1.25028E-08
 -1       406 1.32259E+01 5.71977E+05 1.14369E+03-5.14884E+00 1.35265E-09 1.42154E-08
 -1       407 3.69417E+02 5.72204E+05 2.43321E+03-9.42713E+00-6.38352E-11 8.12997E-09
 -1       408 1.22184E+03 5.71801E+05 4.85773E+03 1.55565E+01 1.49839E-09 4.26189E-09
 -1       409 5.22612E+03 5.73754E+05 1.09376E+04-1.90110E+02 2.66027E-11 3.09410E-09
 -1       410 1.50692E+04 5.70414E+05 2.23272E+04 1.95662E+02 1.44064E-09 5.96629E-09
 -1       521-7.89637E+06-9.84963E+05-5.23528E+05-3.03964E+06 7.56700E-10-6.69388E-10
 -1       522-8.09097E+06-1.36485E+06-3.37265E+05-3.03013E+06 1.07866E-09-3.67436E-10
 -1       523-7.99634E+06-1.11484E+06-1.23255E+05-3.01407E+06-1.42973E-09 4.32192E-09
 -1       524-7.97308E+06-1.20567E+06-6.92252E+04-3.06774E+06-3.28930E-09 5.29326E-09
 -1       525-8.01130E+06-1.12708E+06-2.86307E+04-3.00823E+06-4.47938E-09-5.85715E-10
 -1       526-7.95612E+06-1.18998E+06-1.54764E+04-3.07479E+06-1.39492E-09-9.07573E-09
 -1       527-8.01303E+06-1.12862E+06-7.90649E+03-3.00774E+06-3.88604E-09-2.54033E-09
 -1       528-7.95702E+06-1.18541E+06-6.49283E+03-3.07182E+06-5.80008E-09-1.57570E-10
 -1       529-8.01009E+06-1.13165E+06-8.05525E+03-3.01106E+06-1.28330E-09-3.70164E-09
 -1       530-7.96658E+06-1.17897E+06-1.56785E+04-3.06143E+06 1.88629E-09 2.88765E-09
 -1       531-8.00292E+06-1.13561E+06-2.92581E+04-3.01766E+06-2.27374E-10 6.77755E-09
 -1       532-7.99294E+06-1.18560E+06-7.03559E+04-3.04342E+06 4.98403E-10 8.48013E-09
 -1       533-7.98369E+06-1.12716E+06-1.25501E+05-3.02812E+06-2.60934E-09 6.60657E-09
 -1       534-8.11943E+06-1.34127E+06-3.43012E+05-2.99855E+06-3.78350E-09 2.53203E-09
 -1       535-7.87992E+06-9.96974E+05-5.32511E+05-3.05647E+06-1.76806E-09-1.74623E-09
 -1       536 3.36194E+03-2.24686E+04 7.97521E+04-1.11531E+04 2.46655E-09-1.08412E-09
 -1       537 3.52157E+04 2.72475E+04 5.23969E+04-6.36998E+04-6.93763E-09 2.92130E-09
 -1       538 1.56597E+04-2.79590E+03 2.06017E+04-1.10014E+04-1.32786E-10-4.49563E-09
 -1       539 2.04167E+04 2.72369E+03 1.18609E+04-6.38467E+04 2.93221E-09 2.66527E-09
 -1       540 1.71077E+04-4.53841E+02 5.15813E+03-1.09970E+04 5.13865E-10 6.71207E-10
 -1       541 1.80420E+04 2.50834E+02 2.81005E+03-6.38409E+04 1.19098E-09-4.03656E-09
 -1       542 1.72644E+04-8.66269E+01 1.23482E+03-1.10099E+04 1.30967E-10-1.08480E-09
 -1       543 1.73813E+04 1.09378E+02 5.93780E+02-6.38213E+04-1.34810E-09-5.04269E-09
 -1       544 1.72730E+04 1.50737E+01 1.27550E+02-1.10171E+04 7.58973E-10-4.80338E-09
 -1       545 1.71207E+04 1.04468E+02-2.49343E+02-6.38124E+04-2.76754E-09-7.61133E-10
 -1       546 1.73032E+04 7.18543E+01-7.08815E+02-1.10185E+04 8.55721E-10-2.48940E-09
 -1       547 1.68974E+04-3.23349E+02-1.73678E+03-6.38069E+04-2.61934E-09-5.34783E-10
 -1       548 1.75481E+04 3.62042E+02-3.13776E+03-1.10228E+04-1.33605E-09 6.91671E-09
 -1       549 1.50770E+04-4.15969E+03-7.88209E+03-6.37131E+04-1.47338E-09 7.01129E-09
 -1       550 1.94490E+04 3.19447E+03-1.21766E+04-1.11122E+04-1.54614E-10 1.49066E-09
 -1       551 2.11671E+04-5.52457E+05 4.21994E+04-8.65364E+05-1.02373E-08 7.71252E-10
 -1       552 2.06059E+04-5.49341E+05 4.45625E+04-1.06885E+06-1.27038E-08 9.64064E-11
 -1       553 1.56682E+04-5.56555E+05 6.44049E+04-8.63552E+05-1.21290E-08 3.07955E-09
 -1       554 4.86358E+04-5.29641E+05 1.31661E+05-1.06906E+06-1.34023E-08 3.87990E-09
 -1       555 1.01401E+05-5.75608E+05 2.48673E+05-8.64540E+05-1.08557E-08-3.88536E-09
 -1       556-1.77764E+05-1.85737E+05 4.54371E+04-2.96831E+05-1.04628E-08-4.32919E-09
 -1       557-1.31398E+05-2.29049E+05 2.31673E+04-3.33355E+05-2.69210E-09 1.70326E-08
 -1       558-1.78984E+05-1.95699E+05 9.48674E+03-2.90287E+05 1.38243E-09 5.75164E-09
 -1       559-1.38082E+05-2.35238E+05 4.76896E+03-3.36438E+05 5.72618E-09 1.52122E-08
 -1       560-1.80699E+05-1.94786E+05 2.00606E+03-2.91204E+05 2.21917E-09 7.65249E-09
 -1       561-1.40388E+05-2.34676E+05 1.02946E+03-3.38001E+05-1.06229E-09 3.63343E-10
 -1       562-1.82019E+05-1.93938E+05 3.67457E+02-2.92106E+05-3.62343E-09-4.08772E-09
 -1       563-1.41767E+05-2.34084E+05 1.31013E+02-3.38936E+05 9.60426E-10 3.76122E-09
 -1       564-1.82804E+05-1.93442E+05-1.60621E+02-2.92642E+05-5.95173E-09-1.22236E-09
 -1       565-1.42458E+05-2.33797E+05-5.04185E+02-3.39387E+05-2.00025E-08-1.05647E-08
 -1       566-1.83010E+05-1.93273E+05-1.17523E+03-2.92803E+05-6.52699E-09-4.28190E-09
 -1       567-1.42650E+05-2.33887E+05-2.63515E+03-3.39339E+05 3.48109E-09 3.57431E-09
 -1       568-1.82509E+05-1.93674E+05-5.47457E+03-2.92506E+05-4.15093E-09-5.73709E-09
 -1       569-1.45394E+05-2.36798E+05-1.28927E+04-3.37973E+05-5.26961E-09-3.78714E-09
 -1       570-1.79797E+05-2.01601E+05-2.57169E+04-2.89048E+05-1.96451E-10 1.15597E-09
 -1       571 3.70264E+05 1.59956E+04 2.37643E+04-9.35391E+04 7.29415E-10 3.11456E-09
 -1       572 3.73793E+05 5.54418E+03 1.16446E+04-1.02544E+05 1.00772E-09-8.00992E-09
 -1       573 3.71647E+05 1.30543E+03 5.17308E+03-9.32933E+04 6.22094E-10 2.17278E-09
 -1       574 3.72061E+05 4.16285E+02 2.59257E+03-1.02810E+05 8.40828E-10 8.10633E-09
 -1       575 3.71784E+05 4.82891E+01 1.22131E+03-9.32619E+04 2.43335E-09 1.78170E-09
 -1       576 3.71817E+05 7.62276E+00 6.20780E+02-1.02845E+05 2.17182E-09-2.26737E-09
 -1       577 3.71807E+05-1.90262E+01 3.02851E+02-9.32578E+04 4.49973E-10 1.14687E-09
 -1       578 3.71804E+05-1.88045E+01 1.59525E+02-1.02850E+05-2.39788E-09 1.58798E-09
 -1       579 3.71853E+05-3.48441E+01 8.57273E+01-9.32573E+04 7.71433E-09-3.85990E-09
 -1       580 3.71870E+05-5.12382E+01 6.17534E+01-1.02846E+05 1.81317E-08-2.28101E-09
 -1       581 3.71940E+05-7.89852E+01 6.03449E+01-9.32621E+04 8.01629E-09 1.59889E-09
 -1       582 3.71997E+05-9.93450E+01 1.01753E+02-1.02791E+05 8.73115E-11 9.32232E-10
 -1       583 3.72064E+05-1.08792E+02 1.78756E+02-9.33115E+04 1.58434E-09-1.89175E-09
 -1       584 3.72222E+05-9.49834E-01 4.01994E+02-1.02371E+05-1.40881E-09-1.98020E-09
 -1       585 3.72169E+05 3.28448E+02 8.02085E+02-9.36824E+04 1.18234E-09 2.96495E-09
 -1       586 1.70828E+03 1.71271E+05 3.41312E+03-2.41302E+05 1.16415E-10-4.70209E-10
 -1       587 1.27596E+03 1.71785E+05 4.24551E+03-2.69078E+05-2.95404E-09-2.50338E-09
 -1       588 1.77659E+03 1.70992E+05 7.01577E+03-2.40994E+05-1.09139E-11-1.20613E-08
 -1       589 6.71999E+03 1.73816E+05 1.50461E+04-2.69121E+05-2.98678E-09-2.27317E-08
 -1       590 1.90474E+04 1.69136E+05 3.01691E+04-2.41250E+05 3.45608E-11-9.14406E-09
 -1       591-1.82964E+05-5.36016E+04-3.64119E+04-8.74846E+04 3.99655E-09-1.10340E-08
 -1       592-1.85408E+05-5.23727E+04-1.83687E+04-9.72429E+04 9.78753E-09 3.76281E-09
 -1       593-1.84886E+05-4.36946E+04-7.79529E+03-9.25040E+04 4.24461E-09-4.83851E-09
 -1       594-1.81240E+05-4.78441E+04-3.83114E+03-9.75639E+04-7.77618E-10 2.59962E-09
 -1       595-1.85094E+05-4.34403E+04-1.76860E+03-9.26935E+04 3.27645E-10-1.29421E-09
 -1       596-1.80960E+05-4.76857E+04-8.94582E+02-9.75233E+04 1.93427E-09 7.15545E-10
 -1       597-1.85127E+05-4.34709E+04-4.82832E+02-9.26939E+04 3.81903E-10 8.87167E-09
 -1       598-1.80929E+05-4.76876E+04-3.78170E+02-9.75091E+04-2.20319E-09-8.37645E-10
 -1       599-1.85122E+05-4.34746E+04-4.70777E+02-9.26909E+04-1.48725E-09-9.31323E-10
 -1       600-1.80948E+05-4.76904E+04-8.62491E+02-9.75127E+04-5.67525E-10-4.79713E-09
 -1       601-1.85078E+05-4.34516E+04-1.69930E+03-9.26846E+04 1.59162E-11-1.78488E-09
 -1       602-1.81210E+05-4.78427E+04-3.67738E+03-9.75375E+04 3.97768E-09 4.20596E-09
 -1       603-1.84866E+05-4.37067E+04-7.48117E+03-9.25011E+04 2.00998E-10 2.20552E-09
 -1       604-1.85242E+05-5.21455E+04-1.76234E+04-9.71683E+04-1.19508E-09-6.53336E-09
 -1       605-1.82971E+05-5.32513E+04-3.49345E+04-8.77235E+04 1.05501E-10 1.54250E-09
 -1       606 1.30025E+05-1.56354E+04-2.51424E+04 4.47854E+04-7.01766E-09 5.32600E-09
 -1       607 1.25983E+05-5.20130E+03-1.23945E+04 4.92955E+04-1.91358E-09-8.17204E-09
 -1       608 1.28288E+05-1.05637E+03-5.52934E+03 4.44671E+04 6.01722E-09-3.21415E-09
 -1       609 1.27759E+05-2.62598E+02-2.77730E+03 4.96420E+04-2.10275E-09 5.14024E-09
 -1       610 1.28028E+05 5.14797E+01-1.31807E+03 4.44281E+04-7.47968E-09 1.15460E-09
 -1       611 1.27908E+05 1.09585E+02-6.62435E+02 4.96829E+04-1.66729E-08-6.23913E-09
 -1       612 1.27942E+05 1.19142E+02-3.15509E+02 4.44242E+04 8.31278E-10-3.34558E-09
 -1       613 1.27883E+05 1.43140E+02-1.41363E+02 4.96872E+04 8.98581E-09 4.97766E-09
 -1       614 1.27891E+05 1.32254E+02-3.54420E+01 4.44234E+04-4.01997E-09-2.51384E-09
 -1       615 1.27850E+05 1.61478E+02 5.56110E+01 4.96871E+04-1.12618E-08-2.26282E-09
 -1       616 1.27852E+05 1.52583E+02 1.69751E+02 4.44241E+04-1.26811E-08 2.75941E-09
 -1       617 1.27851E+05 2.24764E+02 3.92032E+02 4.96850E+04 4.64570E-09 7.58655E-09
 -1       618 1.27801E+05 3.19017E+02 7.94070E+02 4.44248E+04 2.28329E-09 1.54068E-09
 -1       619 1.28103E+05 9.42847E+02 1.79053E+03 4.96775E+04-9.44056E-10-1.43973E-09
 -1       620 1.27549E+05 2.43031E+03 3.63443E+03 4.44257E+04 2.00430E-09-9.40872E-10
 -1       621 1.42977E+03 4.01296E+05 5.02217E+03-3.07886E+04-2.75350E-10-2.94790E-10
 -1       622 6.62608E+02 4.02316E+05 5.02181E+03-3.80424E+04 4.70891E-10 9.45295E-09
 -1       623 3.45474E+02 4.01462E+05 7.11901E+03-3.07838E+04 7.23048E-11 1.19326E-09
 -1       624 3.60896E+03 4.04618E+05 1.44448E+04-3.79442E+04 1.05229E-09-5.02155E-09
 -1       625 9.94716E+03 3.99032E+05 2.73249E+04-3.08806E+04 3.98359E-10-6.04541E-09
 -1       626 2.57120E+05 8.17073E+04-2.43798E+03 1.59292E+05-1.35224E-08-5.20959E-09
 -1       627 2.51810E+05 8.75098E+04-1.15890E+03 1.64488E+05-4.97585E-09 6.19320E-09
 -1       628 2.57260E+05 8.26767E+04-4.90050E+02 1.58471E+05 7.11952E-09 3.97085E-09
 -1       629 2.51708E+05 8.82153E+04-2.28460E+02 1.64640E+05 3.68163E-09-5.76063E-09
 -1       630 2.57210E+05 8.27600E+04-9.52281E+01 1.58366E+05 4.06362E-09-3.09325E-09
 -1       631 2.51634E+05 8.82913E+04-2.44886E+01 1.64624E+05-1.56251E-09 7.66647E-10
 -1       632 2.57160E+05 8.27813E+04 3.18310E+01 1.58332E+05-1.46611E-09 3.28146E-09
 -1       633 2.51599E+05 8.83087E+04 1.08315E+02 1.64603E+05 2.53203E-09-2.96131E-09
 -1       634 2.57125E+05 8.27830E+04 2.39055E+02 1.58316E+05 2.91675E-09 1.07557E-08
 -1       635 2.51608E+05 8.83173E+04 5.25987E+02 1.64599E+05 3.63798E-11 1.45246E-09
 -1       636 2.57096E+05 8.27957E+04 1.08275E+03 1.58301E+05 1.81399E-09-3.75940E-09
 -1       637 2.51853E+05 8.85583E+04 2.40411E+03 1.64573E+05 7.61628E-09 1.34014E-08
 -1       638 2.57033E+05 8.35295E+04 4.96536E+03 1.57976E+05-3.99223E-09-1.06347E-08
 -1       639 2.54408E+05 9.26753E+04 1.17887E+04 1.63628E+05 4.83942E-09-6.22094E-09
 -1       640 2.57014E+05 9.55936E+04 2.47203E+04 1.52911E+05 2.99497E-09-1.52340E-09
 -1       656 1.81486E+04-6.20250E+05-6.92727E+04 1.26961E+04-5.80258E-09-4.23688E-09
 -1       657-2.56244E+04-6.46543E+05-5.21884E+04 6.86881E+04-1.14628E-08 2.34786E-09
 -1       658 3.99763E+03-6.29201E+05-3.37430E+04 1.24653E+04-2.57955E-09 4.11751E-09
 -1       659-2.55942E+04-6.46632E+05-5.21887E+04 6.88448E+04-8.45330E-09 1.09821E-09
 -1       660 1.81917E+04-6.20265E+05-6.92431E+04 1.25410E+04-4.12183E-09 1.35674E-09
 -1       661 3.70890E+05 5.06812E+04 2.97044E+04 1.45839E+05-1.07520E-08-2.53021E-09
 -1       662 3.77366E+05 6.96019E+04 1.81285E+04 1.50182E+05-7.81694E-09 6.35487E-09
 -1       663 3.75613E+05 5.58131E+04 6.98931E+03 1.45644E+05-3.06805E-09 1.74623E-10
 -1       664 3.71879E+05 6.19772E+04 3.72908E+03 1.51128E+05-5.51097E-09-4.64894E-09
 -1       665 3.76087E+05 5.63029E+04 1.63512E+03 1.45645E+05-1.17323E-08-4.26809E-09
 -1       666 3.71328E+05 6.12969E+04 8.75001E+02 1.51179E+05-2.55934E-09-1.52665E-09
 -1       667 3.76142E+05 5.63501E+04 5.05791E+02 1.45647E+05-1.02320E-08-3.09504E-09
 -1       668 3.71274E+05 6.12532E+04 4.85464E+02 1.51190E+05-1.90919E-08-8.71773E-09
 -1       669 3.76144E+05 5.63372E+04 7.03673E+02 1.45639E+05 1.13422E-08 1.25897E-09
 -1       670 3.71362E+05 6.13700E+04 1.41435E+03 1.51219E+05 1.39689E-08 1.08935E-08
 -1       671 3.76065E+05 5.62375E+04 2.74865E+03 1.45621E+05 5.77029E-09 1.80466E-09
 -1       672 3.72286E+05 6.25541E+04 6.33715E+03 1.51169E+05 4.40662E-09 6.63363E-10
 -1       673 3.75269E+05 5.53887E+04 1.18981E+04 1.45606E+05-2.94199E-09-4.75666E-10
 -1       674 3.81629E+05 7.55621E+04 3.08867E+04 1.49579E+05 1.76723E-09-8.98581E-10
 -1       675 3.67225E+05 4.66392E+04 5.06110E+04 1.45936E+05 2.54204E-10-1.43882E-09
 -1       676 6.53530E+01-4.80678E+05-2.52229E+03 2.69713E+02 1.80905E-08 3.64519E-09
 -1       677-7.74816E+02-4.81356E+05-4.65285E+03-5.38504E+02 7.57984E-09 8.53595E-09
 -1       678 5.52048E+02-4.80213E+05-8.14561E+03 2.68583E+02 1.44864E-08 6.95866E-09
 -1       679-8.75181E+03-4.86382E+05-1.95584E+04-5.36106E+02 1.25895E-08 2.98284E-09
 -1       680 5.78758E+03-4.75657E+05-3.10992E+04 2.64267E+02 1.35624E-08-1.35114E-09
 -1       771-3.23472E+06-6.19222E+05-8.44828E+04-1.38396E+06-4.43106E-09-1.30967E-10
 -1       772-3.22076E+06-6.34397E+05-4.24219E+04-1.42746E+06-2.54295E-09 3.51611E-09
 -1       773-3.24162E+06-5.94609E+05-1.82818E+04-1.39522E+06 2.25555E-09 2.39379E-09
 -1       774-3.21156E+06-6.24835E+05-8.88865E+03-1.43127E+06 2.34286E-09-1.51704E-09
 -1       775-3.24380E+06-5.92851E+05-4.27061E+03-1.39620E+06-5.67525E-10 4.46926E-09
 -1       776-3.21195E+06-6.24342E+05-2.09726E+03-1.43287E+06-1.97178E-09 1.77761E-09
 -1       777-3.24520E+06-5.92056E+05-1.21451E+03-1.39671E+06 9.74978E-10-2.85581E-10
 -1       778-3.21271E+06-6.24169E+05-8.72722E+02-1.43404E+06 1.74623E-09 1.53659E-09
 -1       779-3.24612E+06-5.91455E+05-1.11511E+03-1.39707E+06 1.24419E-09 7.70615E-09
 -1       780-3.21332E+06-6.24056E+05-1.97011E+03-1.43483E+06-6.49015E-09-7.90669E-09
 -1       781-3.24654E+06-5.91056E+05-3.91052E+03-1.39726E+06-1.61162E-09-1.04592E-10
 -1       782-3.21419E+06-6.24349E+05-8.47360E+03-1.43521E+06 3.03316E-09 4.30191E-09
 -1       783-3.24616E+06-5.91582E+05-1.72887E+04-1.39690E+06-1.84230E-09-1.02045E-09
 -1       784-3.22358E+06-6.34257E+05-4.08144E+04-1.43416E+06-2.81807E-09-2.23008E-09
 -1       785-3.24144E+06-6.13938E+05-8.09927E+04-1.38587E+06 1.26693E-09 9.31323E-10
 -1       786 3.00343E+05-1.03838E+04 3.80627E+04-1.40745E+03 2.33513E-10 9.98625E-10
 -1       787 3.14604E+05 1.32224E+04 2.48649E+04-8.48761E+03-8.91077E-10-1.67347E-09
 -1       788 3.06224E+05-1.16222E+03 9.88325E+03-1.41969E+03 1.06752E-10 6.39284E-09
 -1       789 3.07994E+05 1.44211E+03 5.62222E+03-8.45851E+03 2.35843E-10 3.12457E-09
 -1       790 3.06945E+05-1.32852E+02 2.51645E+03-1.43585E+03 5.98163E-10-1.85219E-09
 -1       791 3.07173E+05 1.55885E+02 1.36536E+03-8.43656E+03-1.33552E-09 6.45423E-09
 -1       792 3.07041E+05-1.65583E+01 6.90447E+02-1.44164E+03 6.81382E-10 4.76138E-09
 -1       793 3.07067E+05 2.22912E+01 4.57543E+02-8.43603E+03 4.94424E-10-5.27586E-09
 -1       794 3.07051E+05-8.94126E+00 4.13535E+02-1.43638E+03-6.71889E-10-2.73488E-10
 -1       795 3.07099E+05 6.34216E+01 6.28121E+02-8.45795E+03 9.13587E-10 4.21060E-09
 -1       796 3.07014E+05-5.65084E+01 1.06669E+03-1.41972E+03-5.03974E-10-2.40175E-09
 -1       797 3.07441E+05 5.88914E+02 2.32954E+03-8.50016E+03-4.55827E-10-5.68650E-09
 -1       798 3.06718E+05-4.81507E+02 4.07178E+03-1.39417E+03-4.83169E-10-3.67049E-09
 -1       799 3.10168E+05 5.43189E+03 1.02328E+04-8.54413E+03-2.20325E-09-9.66111E-10
 -1       800 3.04299E+05-4.27777E+03 1.56542E+04-1.37617E+03 2.43745E-10 1.37425E-09
 -1       801-2.79649E+04 3.91634E+05 4.73681E+04-3.36127E+05 1.74441E-08-1.55851E-08
 -1       802 7.84817E+04 3.99751E+05 7.76674E+04-1.91751E+06 5.25615E-08-8.78208E-09
 -1       803 1.69593E+03 3.85445E+05 9.25941E+04-3.35985E+05 3.29383E-08 1.40340E-08
 -1       804 1.59292E+05 4.47687E+05 2.12469E+05-1.91721E+06 5.30272E-08 2.06492E-08
 -1       805-9.98881E+04 3.46346E+05 2.96948E+05-3.36497E+05 1.61817E-08 1.96887E-08
 -1       806-2.86241E+05-8.51656E+04-2.48613E+04-1.44563E+05-8.66009E-09-1.96742E-08
 -1       807-2.85318E+05-8.05330E+04-1.18526E+04-1.53457E+05 1.06411E-09-2.95404E-09
 -1       808-2.86290E+05-7.30317E+04-4.99300E+03-1.49705E+05 7.73070E-11 2.43961E-09
 -1       809-2.82822E+05-7.63459E+04-2.41700E+03-1.54402E+05-1.85833E-09 2.57137E-09
 -1       810-2.86375E+05-7.22821E+04-1.09340E+03-1.50049E+05 6.03450E-10 6.14614E-09
 -1       811-2.82591E+05-7.60964E+04-5.40576E+02-1.54433E+05-7.30779E-10-3.28191E-09
 -1       812-2.86397E+05-7.22712E+04-2.68003E+02-1.50061E+05-1.04069E-09 8.48104E-10
 -1       813-2.82561E+05-7.60956E+04-1.68828E+02-1.54422E+05 1.01181E-10-2.02726E-09
 -1       814-2.86390E+05-7.22827E+04-1.57943E+02-1.50054E+05-1.42791E-09-3.62706E-09
 -1       815-2.82556E+05-7.61060E+04-2.48278E+02-1.54409E+05-1.24783E-09 3.72074E-09
 -1       816-2.86359E+05-7.23013E+04-4.66899E+02-1.50037E+05-1.12868E-09 2.35377E-09
 -1       817-2.82641E+05-7.62065E+04-1.01360E+03-1.54362E+05-2.18733E-10 4.39650E-09
 -1       818-2.86288E+05-7.26419E+04-2.08739E+03-1.49893E+05-1.02409E-09-5.36875E-09
 -1       819-2.83774E+05-7.78415E+04-4.94658E+03-1.53807E+05 4.63842E-10 7.70342E-10
 -1       820-2.86126E+05-7.78184E+04-1.03757E+04-1.47854E+05 2.06091E-09 9.06130E-09
 -1       821-3.85411E+05 1.31173E+04-4.81148E+04 1.50268E+03-3.76258E-09 6.36828E-09
 -1       822-4.03400E+05-1.67136E+04-3.14302E+04 1.01607E+04-2.64538E-09-1.44610E-09
 -1       823-3.92847E+05 1.46282E+03-1.25005E+04 1.39338E+03 2.88833E-09 1.35742E-09
 -1       824-3.95078E+05-1.80462E+03-7.11492E+03 1.03310E+04 2.95586E-10-3.18767E-09
 -1       825-3.93759E+05 1.67508E+02-3.20637E+03 1.33117E+03-8.87212E-09-3.10479E-09
 -1       826-3.94065E+05-1.69647E+02-1.77486E+03 1.04347E+04-1.43991E-08-7.55813E-09
 -1       827-3.93881E+05 2.54727E+01-9.73176E+02 1.28940E+03-8.22388E-09 8.57199E-11
 -1       828-3.93955E+05-5.52606E+00-7.86144E+02 1.04997E+04-8.58176E-09-6.62681E-10
 -1       829-3.93883E+05 2.59692E+01-9.26138E+02 1.26607E+03-9.72022E-10-6.57679E-09
 -1       830-3.94069E+05-1.47805E+02-1.65251E+03 1.05266E+04 7.86844E-09-2.33396E-09
 -1       831-3.93773E+05 1.60031E+02-2.96191E+03 1.26253E+03-1.90488E-09-6.51573E-09
 -1       832-3.95018E+05-1.64958E+03-6.56654E+03 1.05143E+04 4.16645E-09-9.13451E-09
 -1       833-3.92933E+05 1.35780E+03-1.15261E+04 1.27864E+03 2.12628E-09-8.35598E-09
 -1       834-4.02707E+05-1.53948E+04-2.89885E+04 1.04534E+04 2.08729E-09-2.49020E-09
 -1       835-3.86076E+05 1.21095E+04-4.43675E+04 1.32589E+03 1.70689E-09-5.86988E-09
 -1       836-2.69002E+03 5.66822E+05 4.50679E+04-3.77869E+04 3.80896E-09-2.16050E-09
 -1       837 9.82583E+03 5.80723E+05 3.44798E+04-7.56085E+04 5.40973E-09 1.34401E-09
 -1       838-6.97199E+02 5.71455E+05 2.99950E+04-3.76919E+04 3.97449E-09 5.39063E-09
 -1       839 1.70408E+04 5.86121E+05 5.16897E+04-7.56118E+04 5.49426E-09 1.75532E-10
 -1       840-5.02803E+03 5.61401E+05 8.01741E+04-3.77802E+04 3.72165E-09-5.56793E-09
 -1       856-3.15072E+05 6.01046E+03-3.85776E+04 9.48558E+03-4.67844E-09 1.65528E-10
 -1       857-3.28044E+05-1.00042E+04-2.38712E+04 2.58987E+04-9.85574E-09-5.60158E-09
 -1       858-3.20642E+05 5.70535E+02-9.93884E+03 9.35250E+03-4.82987E-09-2.23781E-09
 -1       859-3.22010E+05-7.18627E+02-5.39287E+03 2.60622E+04-1.80353E-09-1.56911E-08
 -1       860-3.21206E+05 9.59465E+01-2.51275E+03 9.31755E+03-4.59431E-09-1.97906E-09
 -1       861-3.21433E+05 5.54276E+01-1.32507E+03 2.61104E+04-1.66414E-08-9.93850E-10
 -1       862-3.21280E+05 5.42555E+01-6.87153E+02 9.30354E+03 8.96273E-09 1.44291E-09
 -1       863-3.21372E+05 1.19643E+02-4.51461E+02 2.61240E+04 1.76080E-08-8.55749E-09
 -1       864-3.21286E+05 5.01490E+01-4.19061E+02 9.30385E+03 7.29324E-09-6.35117E-09
 -1       865-3.21378E+05 9.21440E+01-6.28115E+02 2.61078E+04 1.54218E-08-3.68800E-10
 -1       866-3.21251E+05 6.15341E+01-1.10336E+03 9.31981E+03-1.91585E-09-2.28283E-10
 -1       867-3.21599E+05-2.47786E+02-2.31269E+03 2.60583E+04-2.02108E-08-6.96350E-09
 -1       868-3.21002E+05 2.53022E+02-4.24682E+03 9.35386E+03 3.07864E-09-1.27602E-09
 -1       869-3.24130E+05-4.21870E+03-1.01725E+04 2.58896E+04-2.25191E-09-5.36261E-10
 -1       870-3.18616E+05 2.55385E+03-1.64489E+04 9.49054E+03 6.03086E-09-6.18820E-09
 -1       871-5.79475E+03-4.73863E+04-1.34819E+04 1.66980E+05-4.12911E-10-5.82986E-09
 -1       872-2.20627E+03-5.01778E+04-4.56345E+03 2.06017E+05-1.93086E-09 3.94766E-09
 -1       873-1.83989E+02-4.91303E+04 2.73369E+03 1.66637E+05-1.15779E-09-1.63618E-09
 -1       874 3.04885E+03-4.62431E+04 1.20431E+04 2.06123E+05 4.18368E-10 1.39062E-09
 -1       875 9.32655E+03-5.15579E+04 2.58332E+04 1.66901E+05-2.33922E-09 4.25916E-09
 -1       876 4.69254E+05 7.00498E+04 4.06496E+04 1.87801E+05 1.64755E-09-8.68567E-09
 -1       877 4.75865E+05 9.11866E+04 2.38507E+04 1.95961E+05-6.79847E-11-8.99308E-09
 -1       878 4.75021E+05 7.41372E+04 9.47747E+03 1.88460E+05-3.63798E-11 2.83808E-09
 -1       879 4.68969E+05 8.25015E+04 4.90845E+03 1.96790E+05-8.84256E-10-1.77715E-09
 -1       880 4.75503E+05 7.45210E+04 2.19737E+03 1.88537E+05-4.45107E-09-9.92145E-10
 -1       881 4.68383E+05 8.18520E+04 1.14657E+03 1.96761E+05-1.92576E-08 6.14648E-10
 -1       882 4.75542E+05 7.45768E+04 6.45498E+02 1.88553E+05-4.97289E-09 2.93624E-09
 -1       883 4.68337E+05 8.17983E+04 5.72548E+02 1.96733E+05-1.71475E-08 2.19330E-09
 -1       884 4.75533E+05 7.45794E+04 7.91952E+02 1.88555E+05 5.42883E-09 6.62499E-09
 -1       885 4.68421E+05 8.18595E+04 1.53765E+03 1.96745E+05 1.48175E-08 1.10565E-08
 -1       886 4.75460E+05 7.45180E+04 3.02087E+03 1.88541E+05 2.93778E-09 6.31917E-09
 -1       887 4.69244E+05 8.27413E+04 6.78420E+03 1.96749E+05 1.39682E-08-7.30802E-09
 -1       888 4.74771E+05 7.40033E+04 1.31181E+04 1.88443E+05 6.38863E-09-3.17414E-10
 -1       889 4.78766E+05 9.47790E+04 3.30156E+04 1.95600E+05-7.29476E-09 4.45561E-09
 -1       890 4.66800E+05 6.83325E+04 5.62794E+04 1.87499E+05 3.22052E-09-6.36646E-09
 -1       891 3.68052E+02-2.23668E+05-8.25437E+03 5.00032E+04 6.23368E-09-1.60708E-09
 -1       892-1.97762E+03-2.26122E+05-6.22364E+03 1.00615E+05 1.71758E-09 4.43640E-09
 -1       893 2.83137E+01-2.24563E+05-5.30090E+03 4.98817E+04 1.99088E-09 1.65915E-09
 -1       894-3.17581E+03-2.26918E+05-9.00319E+03 1.00544E+05-8.17090E-09 7.18501E-10
 -1       895 6.85521E+02-2.22727E+05-1.39381E+04 5.00723E+04 1.83718E-10 1.17598E-09
 -1       956-4.35444E+05-8.04300E+03-1.87634E+04 5.08913E+04-5.94082E-09 3.74803E-09
 -1       957-4.39063E+05-2.58894E+03-9.56067E+03 6.04032E+04-2.16187E-09-1.00044E-09
 -1       958-4.37117E+05-2.09281E+02-4.30870E+03 5.05759E+04 3.62888E-09-2.91493E-09
 -1       959-4.37458E+05 3.70342E+01-2.19395E+03 6.07466E+04-4.39104E-09 1.10049E-10
 -1       960-4.37324E+05 1.38184E+02-1.06723E+03 5.05424E+04-1.27329E-08-7.25822E-09
 -1       961-4.37387E+05 1.72348E+02-5.58312E+02 6.07851E+04-2.37833E-08-3.05909E-09
 -1       962-4.37392E+05 1.56277E+02-3.08115E+02 5.05363E+04-1.10585E-08 1.92813E-10
 -1       963-4.37414E+05 1.92756E+02-2.25432E+02 6.07931E+04-1.09465E-08 2.86082E-09
 -1       964-4.37418E+05 1.69553E+02-2.48378E+02 5.05341E+04-3.70528E-09-5.21504E-09
 -1       965-4.37438E+05 2.02211E+02-4.08101E+02 6.07935E+04 8.66457E-09 4.03725E-09
 -1       966-4.37404E+05 1.77691E+02-7.55554E+02 5.05359E+04-6.21253E-09-4.67799E-09
 -1       967-4.37524E+05 1.26721E+02-1.54534E+03 6.07725E+04-2.67369E-09-4.07044E-09
 -1       968-4.37285E+05-5.02480E+01-3.02786E+03 5.05556E+04-2.98678E-09-5.34646E-09
 -1       969-4.38679E+05-1.70749E+03-6.72345E+03 6.05610E+04 1.04455E-09-3.55612E-09
 -1       970-4.36123E+05-5.55378E+03-1.31923E+04 5.07559E+04 2.91220E-09-7.79437E-09
 -1       971-5.73165E+05 1.62449E+03-2.53017E+04 1.39091E+04-7.73525E-09 3.85171E-09
 -1       972-5.80938E+05-5.21677E+03-1.50559E+04 2.86437E+04-7.68341E-09-7.20593E-09
 -1       973-5.76610E+05 1.86339E+02-6.45576E+03 1.37133E+04-8.22729E-09-3.50428E-09
 -1       974-5.77312E+05-2.37918E+02-3.43132E+03 2.88843E+04 2.04818E-09-7.38009E-09
 -1       975-5.76927E+05 7.19764E+01-1.65836E+03 1.36645E+04 5.68525E-09 4.89081E-10
 -1       976-5.77040E+05 1.05137E+02-9.17491E+02 2.89569E+04 9.45874E-10-1.00306E-09
 -1       977-5.76976E+05 6.90776E+01-5.84760E+02 1.36400E+04 8.69568E-09-6.73504E-09
 -1       978-5.77038E+05 1.35286E+02-5.79031E+02 2.89894E+04 2.77727E-08-1.88891E-09
 -1       979-5.76977E+05 7.76678E+01-8.39518E+02 1.36317E+04 1.49853E-08-4.37956E-09
 -1       980-5.77108E+05 1.00893E+02-1.57644E+03 2.89894E+04 2.43737E-08-8.91455E-09
 -1       981-5.76908E+05 1.08652E+02-3.00279E+03 1.36401E+04 2.97337E-09-7.65732E-09
 -1       982-5.77683E+05-5.00885E+02-6.32160E+03 2.89527E+04-2.97496E-09-9.39281E-09
 -1       983-5.76357E+05 3.52628E+02-1.19212E+04 1.36694E+04 6.31826E-09-5.15365E-09
 -1       984-5.84488E+05-9.68003E+03-2.78659E+04 2.87831E+04-3.17004E-09 8.49968E-09
 -1       985-5.70017E+05 3.05692E+03-4.68072E+04 1.38197E+04 1.94359E-09-1.96815E-09
 -3
 9999
