    1C
    1UUSER                                                              
    1UDATE              11.october.2022                                 
    1UTIME              17:43:46                                        
    1UHOST                                                              
    1UPGM               CalculiX                                        
    1UVERSION           Version 2.20                             
    1UCOMPILETIME       Sun Jul 31 18:08:37 CEST 2022                    
    1UDIR                                                               
    1UDBN                                                               
    1UMAT    1MESH_MATERIAL                                             
    2C                           841                                     1
 -1         1 0.00000E+00 0.00000E+00 0.00000E+00
 -1         2 1.66667E-02 0.00000E+00 0.00000E+00
 -1         3 3.33333E-02 0.00000E+00 0.00000E+00
 -1         4 5.00000E-02 0.00000E+00 0.00000E+00
 -1         5 6.66667E-02 0.00000E+00 0.00000E+00
 -1         8 0.00000E+00 6.25000E-03 0.00000E+00
 -1         9 1.66667E-02 6.25000E-03 0.00000E+00
 -1        10 3.33333E-02 6.25000E-03 0.00000E+00
 -1        11 5.00000E-02 6.25000E-03 0.00000E+00
 -1        12 6.66667E-02 6.25000E-03 0.00000E+00
 -1        15 0.00000E+00 1.25000E-02 0.00000E+00
 -1        16 1.66667E-02 1.25000E-02 0.00000E+00
 -1        17 3.33333E-02 1.25000E-02 0.00000E+00
 -1        18 5.00000E-02 1.25000E-02 0.00000E+00
 -1        19 6.66667E-02 1.25000E-02 0.00000E+00
 -1        20 8.33333E-02 1.25000E-02 0.00000E+00
 -1        21 1.00000E-01 1.25000E-02 0.00000E+00
 -1        22 0.00000E+00 1.87500E-02 0.00000E+00
 -1        23 1.66667E-02 1.87500E-02 0.00000E+00
 -1        24 3.33333E-02 1.87500E-02 0.00000E+00
 -1        25 5.00000E-02 1.87500E-02 0.00000E+00
 -1        26 6.66667E-02 1.87500E-02 0.00000E+00
 -1        27 8.33333E-02 1.87500E-02 0.00000E+00
 -1        28 1.00000E-01 1.87500E-02 0.00000E+00
 -1        29 0.00000E+00 2.50000E-02 0.00000E+00
 -1        30 1.66667E-02 2.50000E-02 0.00000E+00
 -1        31 3.33333E-02 2.50000E-02 0.00000E+00
 -1        32 5.00000E-02 2.50000E-02 0.00000E+00
 -1        33 6.66667E-02 2.50000E-02 0.00000E+00
 -1        34 8.33333E-02 2.50000E-02 0.00000E+00
 -1        35 1.00000E-01 2.50000E-02 0.00000E+00
 -1        36 1.04167E-03 0.00000E+00 0.00000E+00
 -1        37 2.08333E-03 0.00000E+00 0.00000E+00
 -1        38 3.12500E-03 0.00000E+00 0.00000E+00
 -1        39 4.16667E-03 0.00000E+00 0.00000E+00
 -1        40 5.20833E-03 0.00000E+00 0.00000E+00
 -1        41 6.25000E-03 0.00000E+00 0.00000E+00
 -1        42 7.29167E-03 0.00000E+00 0.00000E+00
 -1        43 8.33333E-03 0.00000E+00 0.00000E+00
 -1        44 9.37500E-03 0.00000E+00 0.00000E+00
 -1        45 1.04167E-02 0.00000E+00 0.00000E+00
 -1        46 1.14583E-02 0.00000E+00 0.00000E+00
 -1        47 1.25000E-02 0.00000E+00 0.00000E+00
 -1        48 1.35417E-02 0.00000E+00 0.00000E+00
 -1        49 1.45833E-02 0.00000E+00 0.00000E+00
 -1        50 1.56250E-02 0.00000E+00 0.00000E+00
 -1        51 0.00000E+00 1.04167E-03 0.00000E+00
 -1        52 0.00000E+00 2.08333E-03 0.00000E+00
 -1        53 0.00000E+00 3.12500E-03 0.00000E+00
 -1        54 0.00000E+00 4.16667E-03 0.00000E+00
 -1        55 0.00000E+00 5.20833E-03 0.00000E+00
 -1        56 1.04167E-03 3.90630E-04 0.00000E+00
 -1        57 2.08333E-03 7.81250E-04 0.00000E+00
 -1        58 3.12500E-03 1.17188E-03 0.00000E+00
 -1        59 4.16667E-03 1.56250E-03 0.00000E+00
 -1        60 5.20833E-03 1.95312E-03 0.00000E+00
 -1        61 6.25000E-03 2.34375E-03 0.00000E+00
 -1        62 7.29167E-03 2.73438E-03 0.00000E+00
 -1        63 8.33333E-03 3.12500E-03 0.00000E+00
 -1        64 9.37500E-03 3.51563E-03 0.00000E+00
 -1        65 1.04167E-02 3.90625E-03 0.00000E+00
 -1        66 1.14583E-02 4.29688E-03 0.00000E+00
 -1        67 1.25000E-02 4.68750E-03 0.00000E+00
 -1        68 1.35417E-02 5.07813E-03 0.00000E+00
 -1        69 1.45833E-02 5.46875E-03 0.00000E+00
 -1        70 1.56250E-02 5.85938E-03 0.00000E+00
 -1        71 1.77083E-02 0.00000E+00 0.00000E+00
 -1        72 1.87500E-02 0.00000E+00 0.00000E+00
 -1        73 1.97917E-02 0.00000E+00 0.00000E+00
 -1        74 2.08333E-02 0.00000E+00 0.00000E+00
 -1        75 2.18750E-02 0.00000E+00 0.00000E+00
 -1        76 2.29167E-02 0.00000E+00 0.00000E+00
 -1        77 2.39583E-02 0.00000E+00 0.00000E+00
 -1        78 2.50000E-02 0.00000E+00 0.00000E+00
 -1        79 2.60417E-02 0.00000E+00 0.00000E+00
 -1        80 2.70833E-02 0.00000E+00 0.00000E+00
 -1        81 2.81250E-02 0.00000E+00 0.00000E+00
 -1        82 2.91667E-02 0.00000E+00 0.00000E+00
 -1        83 3.02083E-02 0.00000E+00 0.00000E+00
 -1        84 3.12500E-02 0.00000E+00 0.00000E+00
 -1        85 3.22917E-02 0.00000E+00 0.00000E+00
 -1        86 1.66667E-02 1.04167E-03 0.00000E+00
 -1        87 1.66667E-02 2.08333E-03 0.00000E+00
 -1        88 1.66667E-02 3.12500E-03 0.00000E+00
 -1        89 1.66667E-02 4.16667E-03 0.00000E+00
 -1        90 1.66667E-02 5.20833E-03 0.00000E+00
 -1        91 1.77083E-02 3.90630E-04 0.00000E+00
 -1        92 1.87500E-02 7.81250E-04 0.00000E+00
 -1        93 1.97917E-02 1.17188E-03 0.00000E+00
 -1        94 2.08333E-02 1.56250E-03 0.00000E+00
 -1        95 2.18750E-02 1.95312E-03 0.00000E+00
 -1        96 2.29167E-02 2.34375E-03 0.00000E+00
 -1        97 2.39583E-02 2.73438E-03 0.00000E+00
 -1        98 2.50000E-02 3.12500E-03 0.00000E+00
 -1        99 2.60417E-02 3.51563E-03 0.00000E+00
 -1       100 2.70833E-02 3.90625E-03 0.00000E+00
 -1       101 2.81250E-02 4.29688E-03 0.00000E+00
 -1       102 2.91667E-02 4.68750E-03 0.00000E+00
 -1       103 3.02083E-02 5.07813E-03 0.00000E+00
 -1       104 3.12500E-02 5.46875E-03 0.00000E+00
 -1       105 3.22917E-02 5.85938E-03 0.00000E+00
 -1       106 3.43750E-02 0.00000E+00 0.00000E+00
 -1       107 3.54167E-02 0.00000E+00 0.00000E+00
 -1       108 3.64583E-02 0.00000E+00 0.00000E+00
 -1       109 3.75000E-02 0.00000E+00 0.00000E+00
 -1       110 3.85417E-02 0.00000E+00 0.00000E+00
 -1       111 3.95833E-02 0.00000E+00 0.00000E+00
 -1       112 4.06250E-02 0.00000E+00 0.00000E+00
 -1       113 4.16667E-02 0.00000E+00 0.00000E+00
 -1       114 4.27083E-02 0.00000E+00 0.00000E+00
 -1       115 4.37500E-02 0.00000E+00 0.00000E+00
 -1       116 4.47917E-02 0.00000E+00 0.00000E+00
 -1       117 4.58333E-02 0.00000E+00 0.00000E+00
 -1       118 4.68750E-02 0.00000E+00 0.00000E+00
 -1       119 4.79167E-02 0.00000E+00 0.00000E+00
 -1       120 4.89583E-02 0.00000E+00 0.00000E+00
 -1       121 3.33333E-02 1.04167E-03 0.00000E+00
 -1       122 3.33333E-02 2.08333E-03 0.00000E+00
 -1       123 3.33333E-02 3.12500E-03 0.00000E+00
 -1       124 3.33333E-02 4.16667E-03 0.00000E+00
 -1       125 3.33333E-02 5.20833E-03 0.00000E+00
 -1       126 3.43750E-02 3.90630E-04 0.00000E+00
 -1       127 3.54167E-02 7.81250E-04 0.00000E+00
 -1       128 3.64583E-02 1.17188E-03 0.00000E+00
 -1       129 3.75000E-02 1.56250E-03 0.00000E+00
 -1       130 3.85417E-02 1.95312E-03 0.00000E+00
 -1       131 3.95833E-02 2.34375E-03 0.00000E+00
 -1       132 4.06250E-02 2.73438E-03 0.00000E+00
 -1       133 4.16667E-02 3.12500E-03 0.00000E+00
 -1       134 4.27083E-02 3.51563E-03 0.00000E+00
 -1       135 4.37500E-02 3.90625E-03 0.00000E+00
 -1       136 4.47917E-02 4.29688E-03 0.00000E+00
 -1       137 4.58333E-02 4.68750E-03 0.00000E+00
 -1       138 4.68750E-02 5.07813E-03 0.00000E+00
 -1       139 4.79167E-02 5.46875E-03 0.00000E+00
 -1       140 4.89583E-02 5.85938E-03 0.00000E+00
 -1       141 5.10417E-02 0.00000E+00 0.00000E+00
 -1       142 5.20833E-02 0.00000E+00 0.00000E+00
 -1       143 5.31250E-02 0.00000E+00 0.00000E+00
 -1       144 5.41667E-02 0.00000E+00 0.00000E+00
 -1       145 5.52083E-02 0.00000E+00 0.00000E+00
 -1       146 5.62500E-02 0.00000E+00 0.00000E+00
 -1       147 5.72917E-02 0.00000E+00 0.00000E+00
 -1       148 5.83333E-02 0.00000E+00 0.00000E+00
 -1       149 5.93750E-02 0.00000E+00 0.00000E+00
 -1       150 6.04167E-02 0.00000E+00 0.00000E+00
 -1       151 6.14583E-02 0.00000E+00 0.00000E+00
 -1       152 6.25000E-02 0.00000E+00 0.00000E+00
 -1       153 6.35417E-02 0.00000E+00 0.00000E+00
 -1       154 6.45833E-02 0.00000E+00 0.00000E+00
 -1       155 6.56250E-02 0.00000E+00 0.00000E+00
 -1       156 5.00000E-02 1.04167E-03 0.00000E+00
 -1       157 5.00000E-02 2.08333E-03 0.00000E+00
 -1       158 5.00000E-02 3.12500E-03 0.00000E+00
 -1       159 5.00000E-02 4.16667E-03 0.00000E+00
 -1       160 5.00000E-02 5.20833E-03 0.00000E+00
 -1       161 5.10417E-02 3.90630E-04 0.00000E+00
 -1       162 5.20833E-02 7.81250E-04 0.00000E+00
 -1       163 5.31250E-02 1.17188E-03 0.00000E+00
 -1       164 5.41667E-02 1.56250E-03 0.00000E+00
 -1       165 5.52083E-02 1.95312E-03 0.00000E+00
 -1       166 5.62500E-02 2.34375E-03 0.00000E+00
 -1       167 5.72917E-02 2.73438E-03 0.00000E+00
 -1       168 5.83333E-02 3.12500E-03 0.00000E+00
 -1       169 5.93750E-02 3.51563E-03 0.00000E+00
 -1       170 6.04167E-02 3.90625E-03 0.00000E+00
 -1       171 6.14583E-02 4.29688E-03 0.00000E+00
 -1       172 6.25000E-02 4.68750E-03 0.00000E+00
 -1       173 6.35417E-02 5.07813E-03 0.00000E+00
 -1       174 6.45833E-02 5.46875E-03 0.00000E+00
 -1       175 6.56250E-02 5.85938E-03 0.00000E+00
 -1       191 6.66667E-02 1.04167E-03 0.00000E+00
 -1       192 6.66667E-02 2.08333E-03 0.00000E+00
 -1       193 6.66667E-02 3.12500E-03 0.00000E+00
 -1       194 6.66667E-02 4.16667E-03 0.00000E+00
 -1       195 6.66667E-02 5.20833E-03 0.00000E+00
 -1       251 1.04167E-03 6.25000E-03 0.00000E+00
 -1       252 2.08333E-03 6.25000E-03 0.00000E+00
 -1       253 3.12500E-03 6.25000E-03 0.00000E+00
 -1       254 4.16667E-03 6.25000E-03 0.00000E+00
 -1       255 5.20833E-03 6.25000E-03 0.00000E+00
 -1       256 6.25000E-03 6.25000E-03 0.00000E+00
 -1       257 7.29167E-03 6.25000E-03 0.00000E+00
 -1       258 8.33333E-03 6.25000E-03 0.00000E+00
 -1       259 9.37500E-03 6.25000E-03 0.00000E+00
 -1       260 1.04167E-02 6.25000E-03 0.00000E+00
 -1       261 1.14583E-02 6.25000E-03 0.00000E+00
 -1       262 1.25000E-02 6.25000E-03 0.00000E+00
 -1       263 1.35417E-02 6.25000E-03 0.00000E+00
 -1       264 1.45833E-02 6.25000E-03 0.00000E+00
 -1       265 1.56250E-02 6.25000E-03 0.00000E+00
 -1       266 0.00000E+00 7.29167E-03 0.00000E+00
 -1       267 0.00000E+00 8.33333E-03 0.00000E+00
 -1       268 0.00000E+00 9.37500E-03 0.00000E+00
 -1       269 0.00000E+00 1.04167E-02 0.00000E+00
 -1       270 0.00000E+00 1.14583E-02 0.00000E+00
 -1       271 1.04167E-03 6.64063E-03 0.00000E+00
 -1       272 2.08333E-03 7.03125E-03 0.00000E+00
 -1       273 3.12500E-03 7.42188E-03 0.00000E+00
 -1       274 4.16667E-03 7.81250E-03 0.00000E+00
 -1       275 5.20833E-03 8.20313E-03 0.00000E+00
 -1       276 6.25000E-03 8.59375E-03 0.00000E+00
 -1       277 7.29167E-03 8.98438E-03 0.00000E+00
 -1       278 8.33333E-03 9.37500E-03 0.00000E+00
 -1       279 9.37500E-03 9.76562E-03 0.00000E+00
 -1       280 1.04167E-02 1.01562E-02 0.00000E+00
 -1       281 1.14583E-02 1.05469E-02 0.00000E+00
 -1       282 1.25000E-02 1.09375E-02 0.00000E+00
 -1       283 1.35417E-02 1.13281E-02 0.00000E+00
 -1       284 1.45833E-02 1.17188E-02 0.00000E+00
 -1       285 1.56250E-02 1.21094E-02 0.00000E+00
 -1       286 1.77083E-02 6.25000E-03 0.00000E+00
 -1       287 1.87500E-02 6.25000E-03 0.00000E+00
 -1       288 1.97917E-02 6.25000E-03 0.00000E+00
 -1       289 2.08333E-02 6.25000E-03 0.00000E+00
 -1       290 2.18750E-02 6.25000E-03 0.00000E+00
 -1       291 2.29167E-02 6.25000E-03 0.00000E+00
 -1       292 2.39583E-02 6.25000E-03 0.00000E+00
 -1       293 2.50000E-02 6.25000E-03 0.00000E+00
 -1       294 2.60417E-02 6.25000E-03 0.00000E+00
 -1       295 2.70833E-02 6.25000E-03 0.00000E+00
 -1       296 2.81250E-02 6.25000E-03 0.00000E+00
 -1       297 2.91667E-02 6.25000E-03 0.00000E+00
 -1       298 3.02083E-02 6.25000E-03 0.00000E+00
 -1       299 3.12500E-02 6.25000E-03 0.00000E+00
 -1       300 3.22917E-02 6.25000E-03 0.00000E+00
 -1       301 1.66667E-02 7.29167E-03 0.00000E+00
 -1       302 1.66667E-02 8.33333E-03 0.00000E+00
 -1       303 1.66667E-02 9.37500E-03 0.00000E+00
 -1       304 1.66667E-02 1.04167E-02 0.00000E+00
 -1       305 1.66667E-02 1.14583E-02 0.00000E+00
 -1       306 1.77083E-02 6.64063E-03 0.00000E+00
 -1       307 1.87500E-02 7.03125E-03 0.00000E+00
 -1       308 1.97917E-02 7.42188E-03 0.00000E+00
 -1       309 2.08333E-02 7.81250E-03 0.00000E+00
 -1       310 2.18750E-02 8.20313E-03 0.00000E+00
 -1       311 2.29167E-02 8.59375E-03 0.00000E+00
 -1       312 2.39583E-02 8.98438E-03 0.00000E+00
 -1       313 2.50000E-02 9.37500E-03 0.00000E+00
 -1       314 2.60417E-02 9.76562E-03 0.00000E+00
 -1       315 2.70833E-02 1.01562E-02 0.00000E+00
 -1       316 2.81250E-02 1.05469E-02 0.00000E+00
 -1       317 2.91667E-02 1.09375E-02 0.00000E+00
 -1       318 3.02083E-02 1.13281E-02 0.00000E+00
 -1       319 3.12500E-02 1.17188E-02 0.00000E+00
 -1       320 3.22917E-02 1.21094E-02 0.00000E+00
 -1       321 3.43750E-02 6.25000E-03 0.00000E+00
 -1       322 3.54167E-02 6.25000E-03 0.00000E+00
 -1       323 3.64583E-02 6.25000E-03 0.00000E+00
 -1       324 3.75000E-02 6.25000E-03 0.00000E+00
 -1       325 3.85417E-02 6.25000E-03 0.00000E+00
 -1       326 3.95833E-02 6.25000E-03 0.00000E+00
 -1       327 4.06250E-02 6.25000E-03 0.00000E+00
 -1       328 4.16667E-02 6.25000E-03 0.00000E+00
 -1       329 4.27083E-02 6.25000E-03 0.00000E+00
 -1       330 4.37500E-02 6.25000E-03 0.00000E+00
 -1       331 4.47917E-02 6.25000E-03 0.00000E+00
 -1       332 4.58333E-02 6.25000E-03 0.00000E+00
 -1       333 4.68750E-02 6.25000E-03 0.00000E+00
 -1       334 4.79167E-02 6.25000E-03 0.00000E+00
 -1       335 4.89583E-02 6.25000E-03 0.00000E+00
 -1       336 3.33333E-02 7.29167E-03 0.00000E+00
 -1       337 3.33333E-02 8.33333E-03 0.00000E+00
 -1       338 3.33333E-02 9.37500E-03 0.00000E+00
 -1       339 3.33333E-02 1.04167E-02 0.00000E+00
 -1       340 3.33333E-02 1.14583E-02 0.00000E+00
 -1       341 3.43750E-02 6.64063E-03 0.00000E+00
 -1       342 3.54167E-02 7.03125E-03 0.00000E+00
 -1       343 3.64583E-02 7.42188E-03 0.00000E+00
 -1       344 3.75000E-02 7.81250E-03 0.00000E+00
 -1       345 3.85417E-02 8.20313E-03 0.00000E+00
 -1       346 3.95833E-02 8.59375E-03 0.00000E+00
 -1       347 4.06250E-02 8.98438E-03 0.00000E+00
 -1       348 4.16667E-02 9.37500E-03 0.00000E+00
 -1       349 4.27083E-02 9.76562E-03 0.00000E+00
 -1       350 4.37500E-02 1.01562E-02 0.00000E+00
 -1       351 4.47917E-02 1.05469E-02 0.00000E+00
 -1       352 4.58333E-02 1.09375E-02 0.00000E+00
 -1       353 4.68750E-02 1.13281E-02 0.00000E+00
 -1       354 4.79167E-02 1.17188E-02 0.00000E+00
 -1       355 4.89583E-02 1.21094E-02 0.00000E+00
 -1       356 5.10417E-02 6.25000E-03 0.00000E+00
 -1       357 5.20833E-02 6.25000E-03 0.00000E+00
 -1       358 5.31250E-02 6.25000E-03 0.00000E+00
 -1       359 5.41667E-02 6.25000E-03 0.00000E+00
 -1       360 5.52083E-02 6.25000E-03 0.00000E+00
 -1       361 5.62500E-02 6.25000E-03 0.00000E+00
 -1       362 5.72917E-02 6.25000E-03 0.00000E+00
 -1       363 5.83333E-02 6.25000E-03 0.00000E+00
 -1       364 5.93750E-02 6.25000E-03 0.00000E+00
 -1       365 6.04167E-02 6.25000E-03 0.00000E+00
 -1       366 6.14583E-02 6.25000E-03 0.00000E+00
 -1       367 6.25000E-02 6.25000E-03 0.00000E+00
 -1       368 6.35417E-02 6.25000E-03 0.00000E+00
 -1       369 6.45833E-02 6.25000E-03 0.00000E+00
 -1       370 6.56250E-02 6.25000E-03 0.00000E+00
 -1       371 5.00000E-02 7.29167E-03 0.00000E+00
 -1       372 5.00000E-02 8.33333E-03 0.00000E+00
 -1       373 5.00000E-02 9.37500E-03 0.00000E+00
 -1       374 5.00000E-02 1.04167E-02 0.00000E+00
 -1       375 5.00000E-02 1.14583E-02 0.00000E+00
 -1       376 5.10417E-02 6.64063E-03 0.00000E+00
 -1       377 5.20833E-02 7.03125E-03 0.00000E+00
 -1       378 5.31250E-02 7.42188E-03 0.00000E+00
 -1       379 5.41667E-02 7.81250E-03 0.00000E+00
 -1       380 5.52083E-02 8.20313E-03 0.00000E+00
 -1       381 5.62500E-02 8.59375E-03 0.00000E+00
 -1       382 5.72917E-02 8.98438E-03 0.00000E+00
 -1       383 5.83333E-02 9.37500E-03 0.00000E+00
 -1       384 5.93750E-02 9.76562E-03 0.00000E+00
 -1       385 6.04167E-02 1.01562E-02 0.00000E+00
 -1       386 6.14583E-02 1.05469E-02 0.00000E+00
 -1       387 6.25000E-02 1.09375E-02 0.00000E+00
 -1       388 6.35417E-02 1.13281E-02 0.00000E+00
 -1       389 6.45833E-02 1.17188E-02 0.00000E+00
 -1       390 6.56250E-02 1.21094E-02 0.00000E+00
 -1       406 6.66667E-02 7.29167E-03 0.00000E+00
 -1       407 6.66667E-02 8.33333E-03 0.00000E+00
 -1       408 6.66667E-02 9.37500E-03 0.00000E+00
 -1       409 6.66667E-02 1.04167E-02 0.00000E+00
 -1       410 6.66667E-02 1.14583E-02 0.00000E+00
 -1       466 1.04167E-03 1.25000E-02 0.00000E+00
 -1       467 2.08333E-03 1.25000E-02 0.00000E+00
 -1       468 3.12500E-03 1.25000E-02 0.00000E+00
 -1       469 4.16667E-03 1.25000E-02 0.00000E+00
 -1       470 5.20833E-03 1.25000E-02 0.00000E+00
 -1       471 6.25000E-03 1.25000E-02 0.00000E+00
 -1       472 7.29167E-03 1.25000E-02 0.00000E+00
 -1       473 8.33333E-03 1.25000E-02 0.00000E+00
 -1       474 9.37500E-03 1.25000E-02 0.00000E+00
 -1       475 1.04167E-02 1.25000E-02 0.00000E+00
 -1       476 1.14583E-02 1.25000E-02 0.00000E+00
 -1       477 1.25000E-02 1.25000E-02 0.00000E+00
 -1       478 1.35417E-02 1.25000E-02 0.00000E+00
 -1       479 1.45833E-02 1.25000E-02 0.00000E+00
 -1       480 1.56250E-02 1.25000E-02 0.00000E+00
 -1       481 0.00000E+00 1.35417E-02 0.00000E+00
 -1       482 0.00000E+00 1.45833E-02 0.00000E+00
 -1       483 0.00000E+00 1.56250E-02 0.00000E+00
 -1       484 0.00000E+00 1.66667E-02 0.00000E+00
 -1       485 0.00000E+00 1.77083E-02 0.00000E+00
 -1       486 1.04167E-03 1.28906E-02 0.00000E+00
 -1       487 2.08333E-03 1.32813E-02 0.00000E+00
 -1       488 3.12500E-03 1.36719E-02 0.00000E+00
 -1       489 4.16667E-03 1.40625E-02 0.00000E+00
 -1       490 5.20833E-03 1.44531E-02 0.00000E+00
 -1       491 6.25000E-03 1.48437E-02 0.00000E+00
 -1       492 7.29167E-03 1.52344E-02 0.00000E+00
 -1       493 8.33333E-03 1.56250E-02 0.00000E+00
 -1       494 9.37500E-03 1.60156E-02 0.00000E+00
 -1       495 1.04167E-02 1.64062E-02 0.00000E+00
 -1       496 1.14583E-02 1.67969E-02 0.00000E+00
 -1       497 1.25000E-02 1.71875E-02 0.00000E+00
 -1       498 1.35417E-02 1.75781E-02 0.00000E+00
 -1       499 1.45833E-02 1.79687E-02 0.00000E+00
 -1       500 1.56250E-02 1.83594E-02 0.00000E+00
 -1       501 1.77083E-02 1.25000E-02 0.00000E+00
 -1       502 1.87500E-02 1.25000E-02 0.00000E+00
 -1       503 1.97917E-02 1.25000E-02 0.00000E+00
 -1       504 2.08333E-02 1.25000E-02 0.00000E+00
 -1       505 2.18750E-02 1.25000E-02 0.00000E+00
 -1       506 2.29167E-02 1.25000E-02 0.00000E+00
 -1       507 2.39583E-02 1.25000E-02 0.00000E+00
 -1       508 2.50000E-02 1.25000E-02 0.00000E+00
 -1       509 2.60417E-02 1.25000E-02 0.00000E+00
 -1       510 2.70833E-02 1.25000E-02 0.00000E+00
 -1       511 2.81250E-02 1.25000E-02 0.00000E+00
 -1       512 2.91667E-02 1.25000E-02 0.00000E+00
 -1       513 3.02083E-02 1.25000E-02 0.00000E+00
 -1       514 3.12500E-02 1.25000E-02 0.00000E+00
 -1       515 3.22917E-02 1.25000E-02 0.00000E+00
 -1       516 1.66667E-02 1.35417E-02 0.00000E+00
 -1       517 1.66667E-02 1.45833E-02 0.00000E+00
 -1       518 1.66667E-02 1.56250E-02 0.00000E+00
 -1       519 1.66667E-02 1.66667E-02 0.00000E+00
 -1       520 1.66667E-02 1.77083E-02 0.00000E+00
 -1       521 1.77083E-02 1.28906E-02 0.00000E+00
 -1       522 1.87500E-02 1.32813E-02 0.00000E+00
 -1       523 1.97917E-02 1.36719E-02 0.00000E+00
 -1       524 2.08333E-02 1.40625E-02 0.00000E+00
 -1       525 2.18750E-02 1.44531E-02 0.00000E+00
 -1       526 2.29167E-02 1.48437E-02 0.00000E+00
 -1       527 2.39583E-02 1.52344E-02 0.00000E+00
 -1       528 2.50000E-02 1.56250E-02 0.00000E+00
 -1       529 2.60417E-02 1.60156E-02 0.00000E+00
 -1       530 2.70833E-02 1.64062E-02 0.00000E+00
 -1       531 2.81250E-02 1.67969E-02 0.00000E+00
 -1       532 2.91667E-02 1.71875E-02 0.00000E+00
 -1       533 3.02083E-02 1.75781E-02 0.00000E+00
 -1       534 3.12500E-02 1.79687E-02 0.00000E+00
 -1       535 3.22917E-02 1.83594E-02 0.00000E+00
 -1       536 3.43750E-02 1.25000E-02 0.00000E+00
 -1       537 3.54167E-02 1.25000E-02 0.00000E+00
 -1       538 3.64583E-02 1.25000E-02 0.00000E+00
 -1       539 3.75000E-02 1.25000E-02 0.00000E+00
 -1       540 3.85417E-02 1.25000E-02 0.00000E+00
 -1       541 3.95833E-02 1.25000E-02 0.00000E+00
 -1       542 4.06250E-02 1.25000E-02 0.00000E+00
 -1       543 4.16667E-02 1.25000E-02 0.00000E+00
 -1       544 4.27083E-02 1.25000E-02 0.00000E+00
 -1       545 4.37500E-02 1.25000E-02 0.00000E+00
 -1       546 4.47917E-02 1.25000E-02 0.00000E+00
 -1       547 4.58333E-02 1.25000E-02 0.00000E+00
 -1       548 4.68750E-02 1.25000E-02 0.00000E+00
 -1       549 4.79167E-02 1.25000E-02 0.00000E+00
 -1       550 4.89583E-02 1.25000E-02 0.00000E+00
 -1       551 3.33333E-02 1.35417E-02 0.00000E+00
 -1       552 3.33333E-02 1.45833E-02 0.00000E+00
 -1       553 3.33333E-02 1.56250E-02 0.00000E+00
 -1       554 3.33333E-02 1.66667E-02 0.00000E+00
 -1       555 3.33333E-02 1.77083E-02 0.00000E+00
 -1       556 3.43750E-02 1.28906E-02 0.00000E+00
 -1       557 3.54167E-02 1.32813E-02 0.00000E+00
 -1       558 3.64583E-02 1.36719E-02 0.00000E+00
 -1       559 3.75000E-02 1.40625E-02 0.00000E+00
 -1       560 3.85417E-02 1.44531E-02 0.00000E+00
 -1       561 3.95833E-02 1.48437E-02 0.00000E+00
 -1       562 4.06250E-02 1.52344E-02 0.00000E+00
 -1       563 4.16667E-02 1.56250E-02 0.00000E+00
 -1       564 4.27083E-02 1.60156E-02 0.00000E+00
 -1       565 4.37500E-02 1.64062E-02 0.00000E+00
 -1       566 4.47917E-02 1.67969E-02 0.00000E+00
 -1       567 4.58333E-02 1.71875E-02 0.00000E+00
 -1       568 4.68750E-02 1.75781E-02 0.00000E+00
 -1       569 4.79167E-02 1.79687E-02 0.00000E+00
 -1       570 4.89583E-02 1.83594E-02 0.00000E+00
 -1       571 5.10417E-02 1.25000E-02 0.00000E+00
 -1       572 5.20833E-02 1.25000E-02 0.00000E+00
 -1       573 5.31250E-02 1.25000E-02 0.00000E+00
 -1       574 5.41667E-02 1.25000E-02 0.00000E+00
 -1       575 5.52083E-02 1.25000E-02 0.00000E+00
 -1       576 5.62500E-02 1.25000E-02 0.00000E+00
 -1       577 5.72917E-02 1.25000E-02 0.00000E+00
 -1       578 5.83333E-02 1.25000E-02 0.00000E+00
 -1       579 5.93750E-02 1.25000E-02 0.00000E+00
 -1       580 6.04167E-02 1.25000E-02 0.00000E+00
 -1       581 6.14583E-02 1.25000E-02 0.00000E+00
 -1       582 6.25000E-02 1.25000E-02 0.00000E+00
 -1       583 6.35417E-02 1.25000E-02 0.00000E+00
 -1       584 6.45833E-02 1.25000E-02 0.00000E+00
 -1       585 6.56250E-02 1.25000E-02 0.00000E+00
 -1       586 5.00000E-02 1.35417E-02 0.00000E+00
 -1       587 5.00000E-02 1.45833E-02 0.00000E+00
 -1       588 5.00000E-02 1.56250E-02 0.00000E+00
 -1       589 5.00000E-02 1.66667E-02 0.00000E+00
 -1       590 5.00000E-02 1.77083E-02 0.00000E+00
 -1       591 5.10417E-02 1.28906E-02 0.00000E+00
 -1       592 5.20833E-02 1.32813E-02 0.00000E+00
 -1       593 5.31250E-02 1.36719E-02 0.00000E+00
 -1       594 5.41667E-02 1.40625E-02 0.00000E+00
 -1       595 5.52083E-02 1.44531E-02 0.00000E+00
 -1       596 5.62500E-02 1.48437E-02 0.00000E+00
 -1       597 5.72917E-02 1.52344E-02 0.00000E+00
 -1       598 5.83333E-02 1.56250E-02 0.00000E+00
 -1       599 5.93750E-02 1.60156E-02 0.00000E+00
 -1       600 6.04167E-02 1.64062E-02 0.00000E+00
 -1       601 6.14583E-02 1.67969E-02 0.00000E+00
 -1       602 6.25000E-02 1.71875E-02 0.00000E+00
 -1       603 6.35417E-02 1.75781E-02 0.00000E+00
 -1       604 6.45833E-02 1.79687E-02 0.00000E+00
 -1       605 6.56250E-02 1.83594E-02 0.00000E+00
 -1       606 6.77083E-02 1.25000E-02 0.00000E+00
 -1       607 6.87500E-02 1.25000E-02 0.00000E+00
 -1       608 6.97917E-02 1.25000E-02 0.00000E+00
 -1       609 7.08333E-02 1.25000E-02 0.00000E+00
 -1       610 7.18750E-02 1.25000E-02 0.00000E+00
 -1       611 7.29167E-02 1.25000E-02 0.00000E+00
 -1       612 7.39583E-02 1.25000E-02 0.00000E+00
 -1       613 7.50000E-02 1.25000E-02 0.00000E+00
 -1       614 7.60417E-02 1.25000E-02 0.00000E+00
 -1       615 7.70833E-02 1.25000E-02 0.00000E+00
 -1       616 7.81250E-02 1.25000E-02 0.00000E+00
 -1       617 7.91667E-02 1.25000E-02 0.00000E+00
 -1       618 8.02083E-02 1.25000E-02 0.00000E+00
 -1       619 8.12500E-02 1.25000E-02 0.00000E+00
 -1       620 8.22917E-02 1.25000E-02 0.00000E+00
 -1       621 6.66667E-02 1.35417E-02 0.00000E+00
 -1       622 6.66667E-02 1.45833E-02 0.00000E+00
 -1       623 6.66667E-02 1.56250E-02 0.00000E+00
 -1       624 6.66667E-02 1.66667E-02 0.00000E+00
 -1       625 6.66667E-02 1.77083E-02 0.00000E+00
 -1       626 6.77083E-02 1.28906E-02 0.00000E+00
 -1       627 6.87500E-02 1.32813E-02 0.00000E+00
 -1       628 6.97917E-02 1.36719E-02 0.00000E+00
 -1       629 7.08333E-02 1.40625E-02 0.00000E+00
 -1       630 7.18750E-02 1.44531E-02 0.00000E+00
 -1       631 7.29167E-02 1.48437E-02 0.00000E+00
 -1       632 7.39583E-02 1.52344E-02 0.00000E+00
 -1       633 7.50000E-02 1.56250E-02 0.00000E+00
 -1       634 7.60417E-02 1.60156E-02 0.00000E+00
 -1       635 7.70833E-02 1.64062E-02 0.00000E+00
 -1       636 7.81250E-02 1.67969E-02 0.00000E+00
 -1       637 7.91667E-02 1.71875E-02 0.00000E+00
 -1       638 8.02083E-02 1.75781E-02 0.00000E+00
 -1       639 8.12500E-02 1.79687E-02 0.00000E+00
 -1       640 8.22917E-02 1.83594E-02 0.00000E+00
 -1       641 8.43750E-02 1.25000E-02 0.00000E+00
 -1       642 8.54167E-02 1.25000E-02 0.00000E+00
 -1       643 8.64583E-02 1.25000E-02 0.00000E+00
 -1       644 8.75000E-02 1.25000E-02 0.00000E+00
 -1       645 8.85417E-02 1.25000E-02 0.00000E+00
 -1       646 8.95833E-02 1.25000E-02 0.00000E+00
 -1       647 9.06250E-02 1.25000E-02 0.00000E+00
 -1       648 9.16667E-02 1.25000E-02 0.00000E+00
 -1       649 9.27083E-02 1.25000E-02 0.00000E+00
 -1       650 9.37500E-02 1.25000E-02 0.00000E+00
 -1       651 9.47917E-02 1.25000E-02 0.00000E+00
 -1       652 9.58333E-02 1.25000E-02 0.00000E+00
 -1       653 9.68750E-02 1.25000E-02 0.00000E+00
 -1       654 9.79167E-02 1.25000E-02 0.00000E+00
 -1       655 9.89583E-02 1.25000E-02 0.00000E+00
 -1       656 8.33333E-02 1.35417E-02 0.00000E+00
 -1       657 8.33333E-02 1.45833E-02 0.00000E+00
 -1       658 8.33333E-02 1.56250E-02 0.00000E+00
 -1       659 8.33333E-02 1.66667E-02 0.00000E+00
 -1       660 8.33333E-02 1.77083E-02 0.00000E+00
 -1       661 8.43750E-02 1.28906E-02 0.00000E+00
 -1       662 8.54167E-02 1.32813E-02 0.00000E+00
 -1       663 8.64583E-02 1.36719E-02 0.00000E+00
 -1       664 8.75000E-02 1.40625E-02 0.00000E+00
 -1       665 8.85417E-02 1.44531E-02 0.00000E+00
 -1       666 8.95833E-02 1.48437E-02 0.00000E+00
 -1       667 9.06250E-02 1.52344E-02 0.00000E+00
 -1       668 9.16667E-02 1.56250E-02 0.00000E+00
 -1       669 9.27083E-02 1.60156E-02 0.00000E+00
 -1       670 9.37500E-02 1.64062E-02 0.00000E+00
 -1       671 9.47917E-02 1.67969E-02 0.00000E+00
 -1       672 9.58333E-02 1.71875E-02 0.00000E+00
 -1       673 9.68750E-02 1.75781E-02 0.00000E+00
 -1       674 9.79167E-02 1.79687E-02 0.00000E+00
 -1       675 9.89583E-02 1.83594E-02 0.00000E+00
 -1       676 1.00000E-01 1.35417E-02 0.00000E+00
 -1       677 1.00000E-01 1.45833E-02 0.00000E+00
 -1       678 1.00000E-01 1.56250E-02 0.00000E+00
 -1       679 1.00000E-01 1.66667E-02 0.00000E+00
 -1       680 1.00000E-01 1.77083E-02 0.00000E+00
 -1       681 1.04167E-03 1.87500E-02 0.00000E+00
 -1       682 2.08333E-03 1.87500E-02 0.00000E+00
 -1       683 3.12500E-03 1.87500E-02 0.00000E+00
 -1       684 4.16667E-03 1.87500E-02 0.00000E+00
 -1       685 5.20833E-03 1.87500E-02 0.00000E+00
 -1       686 6.25000E-03 1.87500E-02 0.00000E+00
 -1       687 7.29167E-03 1.87500E-02 0.00000E+00
 -1       688 8.33333E-03 1.87500E-02 0.00000E+00
 -1       689 9.37500E-03 1.87500E-02 0.00000E+00
 -1       690 1.04167E-02 1.87500E-02 0.00000E+00
 -1       691 1.14583E-02 1.87500E-02 0.00000E+00
 -1       692 1.25000E-02 1.87500E-02 0.00000E+00
 -1       693 1.35417E-02 1.87500E-02 0.00000E+00
 -1       694 1.45833E-02 1.87500E-02 0.00000E+00
 -1       695 1.56250E-02 1.87500E-02 0.00000E+00
 -1       696 0.00000E+00 1.97917E-02 0.00000E+00
 -1       697 0.00000E+00 2.08333E-02 0.00000E+00
 -1       698 0.00000E+00 2.18750E-02 0.00000E+00
 -1       699 0.00000E+00 2.29167E-02 0.00000E+00
 -1       700 0.00000E+00 2.39583E-02 0.00000E+00
 -1       701 1.04167E-03 1.91406E-02 0.00000E+00
 -1       702 2.08333E-03 1.95312E-02 0.00000E+00
 -1       703 3.12500E-03 1.99219E-02 0.00000E+00
 -1       704 4.16667E-03 2.03125E-02 0.00000E+00
 -1       705 5.20833E-03 2.07031E-02 0.00000E+00
 -1       706 6.25000E-03 2.10938E-02 0.00000E+00
 -1       707 7.29167E-03 2.14844E-02 0.00000E+00
 -1       708 8.33333E-03 2.18750E-02 0.00000E+00
 -1       709 9.37500E-03 2.22656E-02 0.00000E+00
 -1       710 1.04167E-02 2.26563E-02 0.00000E+00
 -1       711 1.14583E-02 2.30469E-02 0.00000E+00
 -1       712 1.25000E-02 2.34375E-02 0.00000E+00
 -1       713 1.35417E-02 2.38281E-02 0.00000E+00
 -1       714 1.45833E-02 2.42187E-02 0.00000E+00
 -1       715 1.56250E-02 2.46094E-02 0.00000E+00
 -1       716 1.77083E-02 1.87500E-02 0.00000E+00
 -1       717 1.87500E-02 1.87500E-02 0.00000E+00
 -1       718 1.97917E-02 1.87500E-02 0.00000E+00
 -1       719 2.08333E-02 1.87500E-02 0.00000E+00
 -1       720 2.18750E-02 1.87500E-02 0.00000E+00
 -1       721 2.29167E-02 1.87500E-02 0.00000E+00
 -1       722 2.39583E-02 1.87500E-02 0.00000E+00
 -1       723 2.50000E-02 1.87500E-02 0.00000E+00
 -1       724 2.60417E-02 1.87500E-02 0.00000E+00
 -1       725 2.70833E-02 1.87500E-02 0.00000E+00
 -1       726 2.81250E-02 1.87500E-02 0.00000E+00
 -1       727 2.91667E-02 1.87500E-02 0.00000E+00
 -1       728 3.02083E-02 1.87500E-02 0.00000E+00
 -1       729 3.12500E-02 1.87500E-02 0.00000E+00
 -1       730 3.22917E-02 1.87500E-02 0.00000E+00
 -1       731 1.66667E-02 1.97917E-02 0.00000E+00
 -1       732 1.66667E-02 2.08333E-02 0.00000E+00
 -1       733 1.66667E-02 2.18750E-02 0.00000E+00
 -1       734 1.66667E-02 2.29167E-02 0.00000E+00
 -1       735 1.66667E-02 2.39583E-02 0.00000E+00
 -1       736 1.77083E-02 1.91406E-02 0.00000E+00
 -1       737 1.87500E-02 1.95312E-02 0.00000E+00
 -1       738 1.97917E-02 1.99219E-02 0.00000E+00
 -1       739 2.08333E-02 2.03125E-02 0.00000E+00
 -1       740 2.18750E-02 2.07031E-02 0.00000E+00
 -1       741 2.29167E-02 2.10938E-02 0.00000E+00
 -1       742 2.39583E-02 2.14844E-02 0.00000E+00
 -1       743 2.50000E-02 2.18750E-02 0.00000E+00
 -1       744 2.60417E-02 2.22656E-02 0.00000E+00
 -1       745 2.70833E-02 2.26563E-02 0.00000E+00
 -1       746 2.81250E-02 2.30469E-02 0.00000E+00
 -1       747 2.91667E-02 2.34375E-02 0.00000E+00
 -1       748 3.02083E-02 2.38281E-02 0.00000E+00
 -1       749 3.12500E-02 2.42187E-02 0.00000E+00
 -1       750 3.22917E-02 2.46094E-02 0.00000E+00
 -1       751 3.43750E-02 1.87500E-02 0.00000E+00
 -1       752 3.54167E-02 1.87500E-02 0.00000E+00
 -1       753 3.64583E-02 1.87500E-02 0.00000E+00
 -1       754 3.75000E-02 1.87500E-02 0.00000E+00
 -1       755 3.85417E-02 1.87500E-02 0.00000E+00
 -1       756 3.95833E-02 1.87500E-02 0.00000E+00
 -1       757 4.06250E-02 1.87500E-02 0.00000E+00
 -1       758 4.16667E-02 1.87500E-02 0.00000E+00
 -1       759 4.27083E-02 1.87500E-02 0.00000E+00
 -1       760 4.37500E-02 1.87500E-02 0.00000E+00
 -1       761 4.47917E-02 1.87500E-02 0.00000E+00
 -1       762 4.58333E-02 1.87500E-02 0.00000E+00
 -1       763 4.68750E-02 1.87500E-02 0.00000E+00
 -1       764 4.79167E-02 1.87500E-02 0.00000E+00
 -1       765 4.89583E-02 1.87500E-02 0.00000E+00
 -1       766 3.33333E-02 1.97917E-02 0.00000E+00
 -1       767 3.33333E-02 2.08333E-02 0.00000E+00
 -1       768 3.33333E-02 2.18750E-02 0.00000E+00
 -1       769 3.33333E-02 2.29167E-02 0.00000E+00
 -1       770 3.33333E-02 2.39583E-02 0.00000E+00
 -1       771 3.43750E-02 1.91406E-02 0.00000E+00
 -1       772 3.54167E-02 1.95312E-02 0.00000E+00
 -1       773 3.64583E-02 1.99219E-02 0.00000E+00
 -1       774 3.75000E-02 2.03125E-02 0.00000E+00
 -1       775 3.85417E-02 2.07031E-02 0.00000E+00
 -1       776 3.95833E-02 2.10938E-02 0.00000E+00
 -1       777 4.06250E-02 2.14844E-02 0.00000E+00
 -1       778 4.16667E-02 2.18750E-02 0.00000E+00
 -1       779 4.27083E-02 2.22656E-02 0.00000E+00
 -1       780 4.37500E-02 2.26563E-02 0.00000E+00
 -1       781 4.47917E-02 2.30469E-02 0.00000E+00
 -1       782 4.58333E-02 2.34375E-02 0.00000E+00
 -1       783 4.68750E-02 2.38281E-02 0.00000E+00
 -1       784 4.79167E-02 2.42187E-02 0.00000E+00
 -1       785 4.89583E-02 2.46094E-02 0.00000E+00
 -1       786 5.10417E-02 1.87500E-02 0.00000E+00
 -1       787 5.20833E-02 1.87500E-02 0.00000E+00
 -1       788 5.31250E-02 1.87500E-02 0.00000E+00
 -1       789 5.41667E-02 1.87500E-02 0.00000E+00
 -1       790 5.52083E-02 1.87500E-02 0.00000E+00
 -1       791 5.62500E-02 1.87500E-02 0.00000E+00
 -1       792 5.72917E-02 1.87500E-02 0.00000E+00
 -1       793 5.83333E-02 1.87500E-02 0.00000E+00
 -1       794 5.93750E-02 1.87500E-02 0.00000E+00
 -1       795 6.04167E-02 1.87500E-02 0.00000E+00
 -1       796 6.14583E-02 1.87500E-02 0.00000E+00
 -1       797 6.25000E-02 1.87500E-02 0.00000E+00
 -1       798 6.35417E-02 1.87500E-02 0.00000E+00
 -1       799 6.45833E-02 1.87500E-02 0.00000E+00
 -1       800 6.56250E-02 1.87500E-02 0.00000E+00
 -1       801 5.00000E-02 1.97917E-02 0.00000E+00
 -1       802 5.00000E-02 2.08333E-02 0.00000E+00
 -1       803 5.00000E-02 2.18750E-02 0.00000E+00
 -1       804 5.00000E-02 2.29167E-02 0.00000E+00
 -1       805 5.00000E-02 2.39583E-02 0.00000E+00
 -1       806 5.10417E-02 1.91406E-02 0.00000E+00
 -1       807 5.20833E-02 1.95312E-02 0.00000E+00
 -1       808 5.31250E-02 1.99219E-02 0.00000E+00
 -1       809 5.41667E-02 2.03125E-02 0.00000E+00
 -1       810 5.52083E-02 2.07031E-02 0.00000E+00
 -1       811 5.62500E-02 2.10938E-02 0.00000E+00
 -1       812 5.72917E-02 2.14844E-02 0.00000E+00
 -1       813 5.83333E-02 2.18750E-02 0.00000E+00
 -1       814 5.93750E-02 2.22656E-02 0.00000E+00
 -1       815 6.04167E-02 2.26563E-02 0.00000E+00
 -1       816 6.14583E-02 2.30469E-02 0.00000E+00
 -1       817 6.25000E-02 2.34375E-02 0.00000E+00
 -1       818 6.35417E-02 2.38281E-02 0.00000E+00
 -1       819 6.45833E-02 2.42187E-02 0.00000E+00
 -1       820 6.56250E-02 2.46094E-02 0.00000E+00
 -1       821 6.77083E-02 1.87500E-02 0.00000E+00
 -1       822 6.87500E-02 1.87500E-02 0.00000E+00
 -1       823 6.97917E-02 1.87500E-02 0.00000E+00
 -1       824 7.08333E-02 1.87500E-02 0.00000E+00
 -1       825 7.18750E-02 1.87500E-02 0.00000E+00
 -1       826 7.29167E-02 1.87500E-02 0.00000E+00
 -1       827 7.39583E-02 1.87500E-02 0.00000E+00
 -1       828 7.50000E-02 1.87500E-02 0.00000E+00
 -1       829 7.60417E-02 1.87500E-02 0.00000E+00
 -1       830 7.70833E-02 1.87500E-02 0.00000E+00
 -1       831 7.81250E-02 1.87500E-02 0.00000E+00
 -1       832 7.91667E-02 1.87500E-02 0.00000E+00
 -1       833 8.02083E-02 1.87500E-02 0.00000E+00
 -1       834 8.12500E-02 1.87500E-02 0.00000E+00
 -1       835 8.22917E-02 1.87500E-02 0.00000E+00
 -1       836 6.66667E-02 1.97917E-02 0.00000E+00
 -1       837 6.66667E-02 2.08333E-02 0.00000E+00
 -1       838 6.66667E-02 2.18750E-02 0.00000E+00
 -1       839 6.66667E-02 2.29167E-02 0.00000E+00
 -1       840 6.66667E-02 2.39583E-02 0.00000E+00
 -1       841 6.77083E-02 1.91406E-02 0.00000E+00
 -1       842 6.87500E-02 1.95312E-02 0.00000E+00
 -1       843 6.97917E-02 1.99219E-02 0.00000E+00
 -1       844 7.08333E-02 2.03125E-02 0.00000E+00
 -1       845 7.18750E-02 2.07031E-02 0.00000E+00
 -1       846 7.29167E-02 2.10938E-02 0.00000E+00
 -1       847 7.39583E-02 2.14844E-02 0.00000E+00
 -1       848 7.50000E-02 2.18750E-02 0.00000E+00
 -1       849 7.60417E-02 2.22656E-02 0.00000E+00
 -1       850 7.70833E-02 2.26563E-02 0.00000E+00
 -1       851 7.81250E-02 2.30469E-02 0.00000E+00
 -1       852 7.91667E-02 2.34375E-02 0.00000E+00
 -1       853 8.02083E-02 2.38281E-02 0.00000E+00
 -1       854 8.12500E-02 2.42187E-02 0.00000E+00
 -1       855 8.22917E-02 2.46094E-02 0.00000E+00
 -1       856 8.43750E-02 1.87500E-02 0.00000E+00
 -1       857 8.54167E-02 1.87500E-02 0.00000E+00
 -1       858 8.64583E-02 1.87500E-02 0.00000E+00
 -1       859 8.75000E-02 1.87500E-02 0.00000E+00
 -1       860 8.85417E-02 1.87500E-02 0.00000E+00
 -1       861 8.95833E-02 1.87500E-02 0.00000E+00
 -1       862 9.06250E-02 1.87500E-02 0.00000E+00
 -1       863 9.16667E-02 1.87500E-02 0.00000E+00
 -1       864 9.27083E-02 1.87500E-02 0.00000E+00
 -1       865 9.37500E-02 1.87500E-02 0.00000E+00
 -1       866 9.47917E-02 1.87500E-02 0.00000E+00
 -1       867 9.58333E-02 1.87500E-02 0.00000E+00
 -1       868 9.68750E-02 1.87500E-02 0.00000E+00
 -1       869 9.79167E-02 1.87500E-02 0.00000E+00
 -1       870 9.89583E-02 1.87500E-02 0.00000E+00
 -1       871 8.33333E-02 1.97917E-02 0.00000E+00
 -1       872 8.33333E-02 2.08333E-02 0.00000E+00
 -1       873 8.33333E-02 2.18750E-02 0.00000E+00
 -1       874 8.33333E-02 2.29167E-02 0.00000E+00
 -1       875 8.33333E-02 2.39583E-02 0.00000E+00
 -1       876 8.43750E-02 1.91406E-02 0.00000E+00
 -1       877 8.54167E-02 1.95312E-02 0.00000E+00
 -1       878 8.64583E-02 1.99219E-02 0.00000E+00
 -1       879 8.75000E-02 2.03125E-02 0.00000E+00
 -1       880 8.85417E-02 2.07031E-02 0.00000E+00
 -1       881 8.95833E-02 2.10938E-02 0.00000E+00
 -1       882 9.06250E-02 2.14844E-02 0.00000E+00
 -1       883 9.16667E-02 2.18750E-02 0.00000E+00
 -1       884 9.27083E-02 2.22656E-02 0.00000E+00
 -1       885 9.37500E-02 2.26563E-02 0.00000E+00
 -1       886 9.47917E-02 2.30469E-02 0.00000E+00
 -1       887 9.58333E-02 2.34375E-02 0.00000E+00
 -1       888 9.68750E-02 2.38281E-02 0.00000E+00
 -1       889 9.79167E-02 2.42187E-02 0.00000E+00
 -1       890 9.89583E-02 2.46094E-02 0.00000E+00
 -1       891 1.00000E-01 1.97917E-02 0.00000E+00
 -1       892 1.00000E-01 2.08333E-02 0.00000E+00
 -1       893 1.00000E-01 2.18750E-02 0.00000E+00
 -1       894 1.00000E-01 2.29167E-02 0.00000E+00
 -1       895 1.00000E-01 2.39583E-02 0.00000E+00
 -1       896 1.04167E-03 2.50000E-02 0.00000E+00
 -1       897 2.08333E-03 2.50000E-02 0.00000E+00
 -1       898 3.12500E-03 2.50000E-02 0.00000E+00
 -1       899 4.16667E-03 2.50000E-02 0.00000E+00
 -1       900 5.20833E-03 2.50000E-02 0.00000E+00
 -1       901 6.25000E-03 2.50000E-02 0.00000E+00
 -1       902 7.29167E-03 2.50000E-02 0.00000E+00
 -1       903 8.33333E-03 2.50000E-02 0.00000E+00
 -1       904 9.37500E-03 2.50000E-02 0.00000E+00
 -1       905 1.04167E-02 2.50000E-02 0.00000E+00
 -1       906 1.14583E-02 2.50000E-02 0.00000E+00
 -1       907 1.25000E-02 2.50000E-02 0.00000E+00
 -1       908 1.35417E-02 2.50000E-02 0.00000E+00
 -1       909 1.45833E-02 2.50000E-02 0.00000E+00
 -1       910 1.56250E-02 2.50000E-02 0.00000E+00
 -1       911 1.77083E-02 2.50000E-02 0.00000E+00
 -1       912 1.87500E-02 2.50000E-02 0.00000E+00
 -1       913 1.97917E-02 2.50000E-02 0.00000E+00
 -1       914 2.08333E-02 2.50000E-02 0.00000E+00
 -1       915 2.18750E-02 2.50000E-02 0.00000E+00
 -1       916 2.29167E-02 2.50000E-02 0.00000E+00
 -1       917 2.39583E-02 2.50000E-02 0.00000E+00
 -1       918 2.50000E-02 2.50000E-02 0.00000E+00
 -1       919 2.60417E-02 2.50000E-02 0.00000E+00
 -1       920 2.70833E-02 2.50000E-02 0.00000E+00
 -1       921 2.81250E-02 2.50000E-02 0.00000E+00
 -1       922 2.91667E-02 2.50000E-02 0.00000E+00
 -1       923 3.02083E-02 2.50000E-02 0.00000E+00
 -1       924 3.12500E-02 2.50000E-02 0.00000E+00
 -1       925 3.22917E-02 2.50000E-02 0.00000E+00
 -1       926 3.43750E-02 2.50000E-02 0.00000E+00
 -1       927 3.54167E-02 2.50000E-02 0.00000E+00
 -1       928 3.64583E-02 2.50000E-02 0.00000E+00
 -1       929 3.75000E-02 2.50000E-02 0.00000E+00
 -1       930 3.85417E-02 2.50000E-02 0.00000E+00
 -1       931 3.95833E-02 2.50000E-02 0.00000E+00
 -1       932 4.06250E-02 2.50000E-02 0.00000E+00
 -1       933 4.16667E-02 2.50000E-02 0.00000E+00
 -1       934 4.27083E-02 2.50000E-02 0.00000E+00
 -1       935 4.37500E-02 2.50000E-02 0.00000E+00
 -1       936 4.47917E-02 2.50000E-02 0.00000E+00
 -1       937 4.58333E-02 2.50000E-02 0.00000E+00
 -1       938 4.68750E-02 2.50000E-02 0.00000E+00
 -1       939 4.79167E-02 2.50000E-02 0.00000E+00
 -1       940 4.89583E-02 2.50000E-02 0.00000E+00
 -1       941 5.10417E-02 2.50000E-02 0.00000E+00
 -1       942 5.20833E-02 2.50000E-02 0.00000E+00
 -1       943 5.31250E-02 2.50000E-02 0.00000E+00
 -1       944 5.41667E-02 2.50000E-02 0.00000E+00
 -1       945 5.52083E-02 2.50000E-02 0.00000E+00
 -1       946 5.62500E-02 2.50000E-02 0.00000E+00
 -1       947 5.72917E-02 2.50000E-02 0.00000E+00
 -1       948 5.83333E-02 2.50000E-02 0.00000E+00
 -1       949 5.93750E-02 2.50000E-02 0.00000E+00
 -1       950 6.04167E-02 2.50000E-02 0.00000E+00
 -1       951 6.14583E-02 2.50000E-02 0.00000E+00
 -1       952 6.25000E-02 2.50000E-02 0.00000E+00
 -1       953 6.35417E-02 2.50000E-02 0.00000E+00
 -1       954 6.45833E-02 2.50000E-02 0.00000E+00
 -1       955 6.56250E-02 2.50000E-02 0.00000E+00
 -1       956 6.77083E-02 2.50000E-02 0.00000E+00
 -1       957 6.87500E-02 2.50000E-02 0.00000E+00
 -1       958 6.97917E-02 2.50000E-02 0.00000E+00
 -1       959 7.08333E-02 2.50000E-02 0.00000E+00
 -1       960 7.18750E-02 2.50000E-02 0.00000E+00
 -1       961 7.29167E-02 2.50000E-02 0.00000E+00
 -1       962 7.39583E-02 2.50000E-02 0.00000E+00
 -1       963 7.50000E-02 2.50000E-02 0.00000E+00
 -1       964 7.60417E-02 2.50000E-02 0.00000E+00
 -1       965 7.70833E-02 2.50000E-02 0.00000E+00
 -1       966 7.81250E-02 2.50000E-02 0.00000E+00
 -1       967 7.91667E-02 2.50000E-02 0.00000E+00
 -1       968 8.02083E-02 2.50000E-02 0.00000E+00
 -1       969 8.12500E-02 2.50000E-02 0.00000E+00
 -1       970 8.22917E-02 2.50000E-02 0.00000E+00
 -1       971 8.43750E-02 2.50000E-02 0.00000E+00
 -1       972 8.54167E-02 2.50000E-02 0.00000E+00
 -1       973 8.64583E-02 2.50000E-02 0.00000E+00
 -1       974 8.75000E-02 2.50000E-02 0.00000E+00
 -1       975 8.85417E-02 2.50000E-02 0.00000E+00
 -1       976 8.95833E-02 2.50000E-02 0.00000E+00
 -1       977 9.06250E-02 2.50000E-02 0.00000E+00
 -1       978 9.16667E-02 2.50000E-02 0.00000E+00
 -1       979 9.27083E-02 2.50000E-02 0.00000E+00
 -1       980 9.37500E-02 2.50000E-02 0.00000E+00
 -1       981 9.47917E-02 2.50000E-02 0.00000E+00
 -1       982 9.58333E-02 2.50000E-02 0.00000E+00
 -1       983 9.68750E-02 2.50000E-02 0.00000E+00
 -1       984 9.79167E-02 2.50000E-02 0.00000E+00
 -1       985 9.89583E-02 2.50000E-02 0.00000E+00
 -3
    3C                           440                                     1
 -1         1   12    0    1
 -2         1        37        36
 -1         2   12    0    1
 -2        37        39        38
 -1         3   12    0    1
 -2        39        41        40
 -1         4   12    0    1
 -2        41        43        42
 -1         5   12    0    1
 -2        43        45        44
 -1         6   12    0    1
 -2        45        47        46
 -1         7   12    0    1
 -2        47        49        48
 -1         8   12    0    1
 -2        49         2        50
 -1         9   12    0    1
 -2         1        52        51
 -1        10   12    0    1
 -2        52        54        53
 -1        11   12    0    1
 -2        54         8        55
 -1        12   12    0    1
 -2         1        57        56
 -1        13   12    0    1
 -2        57        59        58
 -1        14   12    0    1
 -2        59        61        60
 -1        15   12    0    1
 -2        61        63        62
 -1        16   12    0    1
 -2        63        65        64
 -1        17   12    0    1
 -2        65        67        66
 -1        18   12    0    1
 -2        67        69        68
 -1        19   12    0    1
 -2        69         9        70
 -1        20   12    0    1
 -2         2        72        71
 -1        21   12    0    1
 -2        72        74        73
 -1        22   12    0    1
 -2        74        76        75
 -1        23   12    0    1
 -2        76        78        77
 -1        24   12    0    1
 -2        78        80        79
 -1        25   12    0    1
 -2        80        82        81
 -1        26   12    0    1
 -2        82        84        83
 -1        27   12    0    1
 -2        84         3        85
 -1        28   12    0    1
 -2         2        87        86
 -1        29   12    0    1
 -2        87        89        88
 -1        30   12    0    1
 -2        89         9        90
 -1        31   12    0    1
 -2         2        92        91
 -1        32   12    0    1
 -2        92        94        93
 -1        33   12    0    1
 -2        94        96        95
 -1        34   12    0    1
 -2        96        98        97
 -1        35   12    0    1
 -2        98       100        99
 -1        36   12    0    1
 -2       100       102       101
 -1        37   12    0    1
 -2       102       104       103
 -1        38   12    0    1
 -2       104        10       105
 -1        39   12    0    1
 -2         3       107       106
 -1        40   12    0    1
 -2       107       109       108
 -1        41   12    0    1
 -2       109       111       110
 -1        42   12    0    1
 -2       111       113       112
 -1        43   12    0    1
 -2       113       115       114
 -1        44   12    0    1
 -2       115       117       116
 -1        45   12    0    1
 -2       117       119       118
 -1        46   12    0    1
 -2       119         4       120
 -1        47   12    0    1
 -2         3       122       121
 -1        48   12    0    1
 -2       122       124       123
 -1        49   12    0    1
 -2       124        10       125
 -1        50   12    0    1
 -2         3       127       126
 -1        51   12    0    1
 -2       127       129       128
 -1        52   12    0    1
 -2       129       131       130
 -1        53   12    0    1
 -2       131       133       132
 -1        54   12    0    1
 -2       133       135       134
 -1        55   12    0    1
 -2       135       137       136
 -1        56   12    0    1
 -2       137       139       138
 -1        57   12    0    1
 -2       139        11       140
 -1        58   12    0    1
 -2         4       142       141
 -1        59   12    0    1
 -2       142       144       143
 -1        60   12    0    1
 -2       144       146       145
 -1        61   12    0    1
 -2       146       148       147
 -1        62   12    0    1
 -2       148       150       149
 -1        63   12    0    1
 -2       150       152       151
 -1        64   12    0    1
 -2       152       154       153
 -1        65   12    0    1
 -2       154         5       155
 -1        66   12    0    1
 -2         4       157       156
 -1        67   12    0    1
 -2       157       159       158
 -1        68   12    0    1
 -2       159        11       160
 -1        69   12    0    1
 -2         4       162       161
 -1        70   12    0    1
 -2       162       164       163
 -1        71   12    0    1
 -2       164       166       165
 -1        72   12    0    1
 -2       166       168       167
 -1        73   12    0    1
 -2       168       170       169
 -1        74   12    0    1
 -2       170       172       171
 -1        75   12    0    1
 -2       172       174       173
 -1        76   12    0    1
 -2       174        12       175
 -1        77   12    0    1
 -2         5       192       191
 -1        78   12    0    1
 -2       192       194       193
 -1        79   12    0    1
 -2       194        12       195
 -1        80   12    0    1
 -2         8       252       251
 -1        81   12    0    1
 -2       252       254       253
 -1        82   12    0    1
 -2       254       256       255
 -1        83   12    0    1
 -2       256       258       257
 -1        84   12    0    1
 -2       258       260       259
 -1        85   12    0    1
 -2       260       262       261
 -1        86   12    0    1
 -2       262       264       263
 -1        87   12    0    1
 -2       264         9       265
 -1        88   12    0    1
 -2         8       267       266
 -1        89   12    0    1
 -2       267       269       268
 -1        90   12    0    1
 -2       269        15       270
 -1        91   12    0    1
 -2         8       272       271
 -1        92   12    0    1
 -2       272       274       273
 -1        93   12    0    1
 -2       274       276       275
 -1        94   12    0    1
 -2       276       278       277
 -1        95   12    0    1
 -2       278       280       279
 -1        96   12    0    1
 -2       280       282       281
 -1        97   12    0    1
 -2       282       284       283
 -1        98   12    0    1
 -2       284        16       285
 -1        99   12    0    1
 -2         9       287       286
 -1       100   12    0    1
 -2       287       289       288
 -1       101   12    0    1
 -2       289       291       290
 -1       102   12    0    1
 -2       291       293       292
 -1       103   12    0    1
 -2       293       295       294
 -1       104   12    0    1
 -2       295       297       296
 -1       105   12    0    1
 -2       297       299       298
 -1       106   12    0    1
 -2       299        10       300
 -1       107   12    0    1
 -2         9       302       301
 -1       108   12    0    1
 -2       302       304       303
 -1       109   12    0    1
 -2       304        16       305
 -1       110   12    0    1
 -2         9       307       306
 -1       111   12    0    1
 -2       307       309       308
 -1       112   12    0    1
 -2       309       311       310
 -1       113   12    0    1
 -2       311       313       312
 -1       114   12    0    1
 -2       313       315       314
 -1       115   12    0    1
 -2       315       317       316
 -1       116   12    0    1
 -2       317       319       318
 -1       117   12    0    1
 -2       319        17       320
 -1       118   12    0    1
 -2        10       322       321
 -1       119   12    0    1
 -2       322       324       323
 -1       120   12    0    1
 -2       324       326       325
 -1       121   12    0    1
 -2       326       328       327
 -1       122   12    0    1
 -2       328       330       329
 -1       123   12    0    1
 -2       330       332       331
 -1       124   12    0    1
 -2       332       334       333
 -1       125   12    0    1
 -2       334        11       335
 -1       126   12    0    1
 -2        10       337       336
 -1       127   12    0    1
 -2       337       339       338
 -1       128   12    0    1
 -2       339        17       340
 -1       129   12    0    1
 -2        10       342       341
 -1       130   12    0    1
 -2       342       344       343
 -1       131   12    0    1
 -2       344       346       345
 -1       132   12    0    1
 -2       346       348       347
 -1       133   12    0    1
 -2       348       350       349
 -1       134   12    0    1
 -2       350       352       351
 -1       135   12    0    1
 -2       352       354       353
 -1       136   12    0    1
 -2       354        18       355
 -1       137   12    0    1
 -2        11       357       356
 -1       138   12    0    1
 -2       357       359       358
 -1       139   12    0    1
 -2       359       361       360
 -1       140   12    0    1
 -2       361       363       362
 -1       141   12    0    1
 -2       363       365       364
 -1       142   12    0    1
 -2       365       367       366
 -1       143   12    0    1
 -2       367       369       368
 -1       144   12    0    1
 -2       369        12       370
 -1       145   12    0    1
 -2        11       372       371
 -1       146   12    0    1
 -2       372       374       373
 -1       147   12    0    1
 -2       374        18       375
 -1       148   12    0    1
 -2        11       377       376
 -1       149   12    0    1
 -2       377       379       378
 -1       150   12    0    1
 -2       379       381       380
 -1       151   12    0    1
 -2       381       383       382
 -1       152   12    0    1
 -2       383       385       384
 -1       153   12    0    1
 -2       385       387       386
 -1       154   12    0    1
 -2       387       389       388
 -1       155   12    0    1
 -2       389        19       390
 -1       156   12    0    1
 -2        12       407       406
 -1       157   12    0    1
 -2       407       409       408
 -1       158   12    0    1
 -2       409        19       410
 -1       159   12    0    1
 -2        15       467       466
 -1       160   12    0    1
 -2       467       469       468
 -1       161   12    0    1
 -2       469       471       470
 -1       162   12    0    1
 -2       471       473       472
 -1       163   12    0    1
 -2       473       475       474
 -1       164   12    0    1
 -2       475       477       476
 -1       165   12    0    1
 -2       477       479       478
 -1       166   12    0    1
 -2       479        16       480
 -1       167   12    0    1
 -2        15       482       481
 -1       168   12    0    1
 -2       482       484       483
 -1       169   12    0    1
 -2       484        22       485
 -1       170   12    0    1
 -2        15       487       486
 -1       171   12    0    1
 -2       487       489       488
 -1       172   12    0    1
 -2       489       491       490
 -1       173   12    0    1
 -2       491       493       492
 -1       174   12    0    1
 -2       493       495       494
 -1       175   12    0    1
 -2       495       497       496
 -1       176   12    0    1
 -2       497       499       498
 -1       177   12    0    1
 -2       499        23       500
 -1       178   12    0    1
 -2        16       502       501
 -1       179   12    0    1
 -2       502       504       503
 -1       180   12    0    1
 -2       504       506       505
 -1       181   12    0    1
 -2       506       508       507
 -1       182   12    0    1
 -2       508       510       509
 -1       183   12    0    1
 -2       510       512       511
 -1       184   12    0    1
 -2       512       514       513
 -1       185   12    0    1
 -2       514        17       515
 -1       186   12    0    1
 -2        16       517       516
 -1       187   12    0    1
 -2       517       519       518
 -1       188   12    0    1
 -2       519        23       520
 -1       189   12    0    1
 -2        16       522       521
 -1       190   12    0    1
 -2       522       524       523
 -1       191   12    0    1
 -2       524       526       525
 -1       192   12    0    1
 -2       526       528       527
 -1       193   12    0    1
 -2       528       530       529
 -1       194   12    0    1
 -2       530       532       531
 -1       195   12    0    1
 -2       532       534       533
 -1       196   12    0    1
 -2       534        24       535
 -1       197   12    0    1
 -2        17       537       536
 -1       198   12    0    1
 -2       537       539       538
 -1       199   12    0    1
 -2       539       541       540
 -1       200   12    0    1
 -2       541       543       542
 -1       201   12    0    1
 -2       543       545       544
 -1       202   12    0    1
 -2       545       547       546
 -1       203   12    0    1
 -2       547       549       548
 -1       204   12    0    1
 -2       549        18       550
 -1       205   12    0    1
 -2        17       552       551
 -1       206   12    0    1
 -2       552       554       553
 -1       207   12    0    1
 -2       554        24       555
 -1       208   12    0    1
 -2        17       557       556
 -1       209   12    0    1
 -2       557       559       558
 -1       210   12    0    1
 -2       559       561       560
 -1       211   12    0    1
 -2       561       563       562
 -1       212   12    0    1
 -2       563       565       564
 -1       213   12    0    1
 -2       565       567       566
 -1       214   12    0    1
 -2       567       569       568
 -1       215   12    0    1
 -2       569        25       570
 -1       216   12    0    1
 -2        18       572       571
 -1       217   12    0    1
 -2       572       574       573
 -1       218   12    0    1
 -2       574       576       575
 -1       219   12    0    1
 -2       576       578       577
 -1       220   12    0    1
 -2       578       580       579
 -1       221   12    0    1
 -2       580       582       581
 -1       222   12    0    1
 -2       582       584       583
 -1       223   12    0    1
 -2       584        19       585
 -1       224   12    0    1
 -2        18       587       586
 -1       225   12    0    1
 -2       587       589       588
 -1       226   12    0    1
 -2       589        25       590
 -1       227   12    0    1
 -2        18       592       591
 -1       228   12    0    1
 -2       592       594       593
 -1       229   12    0    1
 -2       594       596       595
 -1       230   12    0    1
 -2       596       598       597
 -1       231   12    0    1
 -2       598       600       599
 -1       232   12    0    1
 -2       600       602       601
 -1       233   12    0    1
 -2       602       604       603
 -1       234   12    0    1
 -2       604        26       605
 -1       235   12    0    1
 -2        19       607       606
 -1       236   12    0    1
 -2       607       609       608
 -1       237   12    0    1
 -2       609       611       610
 -1       238   12    0    1
 -2       611       613       612
 -1       239   12    0    1
 -2       613       615       614
 -1       240   12    0    1
 -2       615       617       616
 -1       241   12    0    1
 -2       617       619       618
 -1       242   12    0    1
 -2       619        20       620
 -1       243   12    0    1
 -2        19       622       621
 -1       244   12    0    1
 -2       622       624       623
 -1       245   12    0    1
 -2       624        26       625
 -1       246   12    0    1
 -2        19       627       626
 -1       247   12    0    1
 -2       627       629       628
 -1       248   12    0    1
 -2       629       631       630
 -1       249   12    0    1
 -2       631       633       632
 -1       250   12    0    1
 -2       633       635       634
 -1       251   12    0    1
 -2       635       637       636
 -1       252   12    0    1
 -2       637       639       638
 -1       253   12    0    1
 -2       639        27       640
 -1       254   12    0    1
 -2        20       642       641
 -1       255   12    0    1
 -2       642       644       643
 -1       256   12    0    1
 -2       644       646       645
 -1       257   12    0    1
 -2       646       648       647
 -1       258   12    0    1
 -2       648       650       649
 -1       259   12    0    1
 -2       650       652       651
 -1       260   12    0    1
 -2       652       654       653
 -1       261   12    0    1
 -2       654        21       655
 -1       262   12    0    1
 -2        20       657       656
 -1       263   12    0    1
 -2       657       659       658
 -1       264   12    0    1
 -2       659        27       660
 -1       265   12    0    1
 -2        20       662       661
 -1       266   12    0    1
 -2       662       664       663
 -1       267   12    0    1
 -2       664       666       665
 -1       268   12    0    1
 -2       666       668       667
 -1       269   12    0    1
 -2       668       670       669
 -1       270   12    0    1
 -2       670       672       671
 -1       271   12    0    1
 -2       672       674       673
 -1       272   12    0    1
 -2       674        28       675
 -1       273   12    0    1
 -2        21       677       676
 -1       274   12    0    1
 -2       677       679       678
 -1       275   12    0    1
 -2       679        28       680
 -1       276   12    0    1
 -2        22       682       681
 -1       277   12    0    1
 -2       682       684       683
 -1       278   12    0    1
 -2       684       686       685
 -1       279   12    0    1
 -2       686       688       687
 -1       280   12    0    1
 -2       688       690       689
 -1       281   12    0    1
 -2       690       692       691
 -1       282   12    0    1
 -2       692       694       693
 -1       283   12    0    1
 -2       694        23       695
 -1       284   12    0    1
 -2        22       697       696
 -1       285   12    0    1
 -2       697       699       698
 -1       286   12    0    1
 -2       699        29       700
 -1       287   12    0    1
 -2        22       702       701
 -1       288   12    0    1
 -2       702       704       703
 -1       289   12    0    1
 -2       704       706       705
 -1       290   12    0    1
 -2       706       708       707
 -1       291   12    0    1
 -2       708       710       709
 -1       292   12    0    1
 -2       710       712       711
 -1       293   12    0    1
 -2       712       714       713
 -1       294   12    0    1
 -2       714        30       715
 -1       295   12    0    1
 -2        23       717       716
 -1       296   12    0    1
 -2       717       719       718
 -1       297   12    0    1
 -2       719       721       720
 -1       298   12    0    1
 -2       721       723       722
 -1       299   12    0    1
 -2       723       725       724
 -1       300   12    0    1
 -2       725       727       726
 -1       301   12    0    1
 -2       727       729       728
 -1       302   12    0    1
 -2       729        24       730
 -1       303   12    0    1
 -2        23       732       731
 -1       304   12    0    1
 -2       732       734       733
 -1       305   12    0    1
 -2       734        30       735
 -1       306   12    0    1
 -2        23       737       736
 -1       307   12    0    1
 -2       737       739       738
 -1       308   12    0    1
 -2       739       741       740
 -1       309   12    0    1
 -2       741       743       742
 -1       310   12    0    1
 -2       743       745       744
 -1       311   12    0    1
 -2       745       747       746
 -1       312   12    0    1
 -2       747       749       748
 -1       313   12    0    1
 -2       749        31       750
 -1       314   12    0    1
 -2        24       752       751
 -1       315   12    0    1
 -2       752       754       753
 -1       316   12    0    1
 -2       754       756       755
 -1       317   12    0    1
 -2       756       758       757
 -1       318   12    0    1
 -2       758       760       759
 -1       319   12    0    1
 -2       760       762       761
 -1       320   12    0    1
 -2       762       764       763
 -1       321   12    0    1
 -2       764        25       765
 -1       322   12    0    1
 -2        24       767       766
 -1       323   12    0    1
 -2       767       769       768
 -1       324   12    0    1
 -2       769        31       770
 -1       325   12    0    1
 -2        24       772       771
 -1       326   12    0    1
 -2       772       774       773
 -1       327   12    0    1
 -2       774       776       775
 -1       328   12    0    1
 -2       776       778       777
 -1       329   12    0    1
 -2       778       780       779
 -1       330   12    0    1
 -2       780       782       781
 -1       331   12    0    1
 -2       782       784       783
 -1       332   12    0    1
 -2       784        32       785
 -1       333   12    0    1
 -2        25       787       786
 -1       334   12    0    1
 -2       787       789       788
 -1       335   12    0    1
 -2       789       791       790
 -1       336   12    0    1
 -2       791       793       792
 -1       337   12    0    1
 -2       793       795       794
 -1       338   12    0    1
 -2       795       797       796
 -1       339   12    0    1
 -2       797       799       798
 -1       340   12    0    1
 -2       799        26       800
 -1       341   12    0    1
 -2        25       802       801
 -1       342   12    0    1
 -2       802       804       803
 -1       343   12    0    1
 -2       804        32       805
 -1       344   12    0    1
 -2        25       807       806
 -1       345   12    0    1
 -2       807       809       808
 -1       346   12    0    1
 -2       809       811       810
 -1       347   12    0    1
 -2       811       813       812
 -1       348   12    0    1
 -2       813       815       814
 -1       349   12    0    1
 -2       815       817       816
 -1       350   12    0    1
 -2       817       819       818
 -1       351   12    0    1
 -2       819        33       820
 -1       352   12    0    1
 -2        26       822       821
 -1       353   12    0    1
 -2       822       824       823
 -1       354   12    0    1
 -2       824       826       825
 -1       355   12    0    1
 -2       826       828       827
 -1       356   12    0    1
 -2       828       830       829
 -1       357   12    0    1
 -2       830       832       831
 -1       358   12    0    1
 -2       832       834       833
 -1       359   12    0    1
 -2       834        27       835
 -1       360   12    0    1
 -2        26       837       836
 -1       361   12    0    1
 -2       837       839       838
 -1       362   12    0    1
 -2       839        33       840
 -1       363   12    0    1
 -2        26       842       841
 -1       364   12    0    1
 -2       842       844       843
 -1       365   12    0    1
 -2       844       846       845
 -1       366   12    0    1
 -2       846       848       847
 -1       367   12    0    1
 -2       848       850       849
 -1       368   12    0    1
 -2       850       852       851
 -1       369   12    0    1
 -2       852       854       853
 -1       370   12    0    1
 -2       854        34       855
 -1       371   12    0    1
 -2        27       857       856
 -1       372   12    0    1
 -2       857       859       858
 -1       373   12    0    1
 -2       859       861       860
 -1       374   12    0    1
 -2       861       863       862
 -1       375   12    0    1
 -2       863       865       864
 -1       376   12    0    1
 -2       865       867       866
 -1       377   12    0    1
 -2       867       869       868
 -1       378   12    0    1
 -2       869        28       870
 -1       379   12    0    1
 -2        27       872       871
 -1       380   12    0    1
 -2       872       874       873
 -1       381   12    0    1
 -2       874        34       875
 -1       382   12    0    1
 -2        27       877       876
 -1       383   12    0    1
 -2       877       879       878
 -1       384   12    0    1
 -2       879       881       880
 -1       385   12    0    1
 -2       881       883       882
 -1       386   12    0    1
 -2       883       885       884
 -1       387   12    0    1
 -2       885       887       886
 -1       388   12    0    1
 -2       887       889       888
 -1       389   12    0    1
 -2       889        35       890
 -1       390   12    0    1
 -2        28       892       891
 -1       391   12    0    1
 -2       892       894       893
 -1       392   12    0    1
 -2       894        35       895
 -1       393   12    0    1
 -2        29       897       896
 -1       394   12    0    1
 -2       897       899       898
 -1       395   12    0    1
 -2       899       901       900
 -1       396   12    0    1
 -2       901       903       902
 -1       397   12    0    1
 -2       903       905       904
 -1       398   12    0    1
 -2       905       907       906
 -1       399   12    0    1
 -2       907       909       908
 -1       400   12    0    1
 -2       909        30       910
 -1       401   12    0    1
 -2        30       912       911
 -1       402   12    0    1
 -2       912       914       913
 -1       403   12    0    1
 -2       914       916       915
 -1       404   12    0    1
 -2       916       918       917
 -1       405   12    0    1
 -2       918       920       919
 -1       406   12    0    1
 -2       920       922       921
 -1       407   12    0    1
 -2       922       924       923
 -1       408   12    0    1
 -2       924        31       925
 -1       409   12    0    1
 -2        31       927       926
 -1       410   12    0    1
 -2       927       929       928
 -1       411   12    0    1
 -2       929       931       930
 -1       412   12    0    1
 -2       931       933       932
 -1       413   12    0    1
 -2       933       935       934
 -1       414   12    0    1
 -2       935       937       936
 -1       415   12    0    1
 -2       937       939       938
 -1       416   12    0    1
 -2       939        32       940
 -1       417   12    0    1
 -2        32       942       941
 -1       418   12    0    1
 -2       942       944       943
 -1       419   12    0    1
 -2       944       946       945
 -1       420   12    0    1
 -2       946       948       947
 -1       421   12    0    1
 -2       948       950       949
 -1       422   12    0    1
 -2       950       952       951
 -1       423   12    0    1
 -2       952       954       953
 -1       424   12    0    1
 -2       954        33       955
 -1       425   12    0    1
 -2        33       957       956
 -1       426   12    0    1
 -2       957       959       958
 -1       427   12    0    1
 -2       959       961       960
 -1       428   12    0    1
 -2       961       963       962
 -1       429   12    0    1
 -2       963       965       964
 -1       430   12    0    1
 -2       965       967       966
 -1       431   12    0    1
 -2       967       969       968
 -1       432   12    0    1
 -2       969        34       970
 -1       433   12    0    1
 -2        34       972       971
 -1       434   12    0    1
 -2       972       974       973
 -1       435   12    0    1
 -2       974       976       975
 -1       436   12    0    1
 -2       976       978       977
 -1       437   12    0    1
 -2       978       980       979
 -1       438   12    0    1
 -2       980       982       981
 -1       439   12    0    1
 -2       982       984       983
 -1       440   12    0    1
 -2       984        35       985
 -3
    1PSTEP                         1           1           1          
  100CL  101 1.000000000         841                     0    1           1
 -4  DISP        4    1
 -5  D1          1    2    1    0
 -5  D2          1    2    2    0
 -5  D3          1    2    3    0
 -5  ALL         1    2    0    0    1ALL
 -1         1 1.16595E-04 0.00000E+00 0.00000E+00
 -1         2 8.82321E-05 0.00000E+00 0.00000E+00
 -1         3 7.54807E-05 0.00000E+00 0.00000E+00
 -1         4 7.00522E-05 0.00000E+00 0.00000E+00
 -1         5 6.85730E-05 0.00000E+00 0.00000E+00
 -1         8 8.93668E-05-1.08991E-06 0.00000E+00
 -1         9 7.72003E-05 1.64268E-06 0.00000E+00
 -1        10 7.11345E-05-5.82363E-06 0.00000E+00
 -1        11 6.68158E-05-1.31828E-06 0.00000E+00
 -1        12 6.43949E-05 2.45697E-06 0.00000E+00
 -1        15 3.34015E-05-2.28502E-06 0.00000E+00
 -1        16 4.52302E-05 1.81145E-06 0.00000E+00
 -1        17 4.42463E-05-1.15814E-05 0.00000E+00
 -1        18 4.93969E-05-2.42549E-06 0.00000E+00
 -1        19 5.35109E-05 4.82311E-06 0.00000E+00
 -1        20 5.44405E-05 5.10163E-05 0.00000E+00
 -1        21 5.43144E-05 1.26963E-04 0.00000E+00
 -1        22 1.24664E-05-1.43762E-06 0.00000E+00
 -1        23 1.63334E-05 2.48763E-06 0.00000E+00
 -1        24 1.82066E-05-1.25874E-05 0.00000E+00
 -1        25 3.68994E-05-2.04341E-06 0.00000E+00
 -1        26 4.36386E-05 6.18726E-06 0.00000E+00
 -1        27 3.88900E-05 4.91724E-05 0.00000E+00
 -1        28 3.32986E-05 1.25209E-04 0.00000E+00
 -1        29 0.00000E+00 0.00000E+00 0.00000E+00
 -1        30 6.18535E-06 3.00127E-06 0.00000E+00
 -1        31 8.42909E-06-1.11536E-05 0.00000E+00
 -1        32 0.00000E+00 0.00000E+00 0.00000E+00
 -1        33 2.60684E-05 1.14941E-05 0.00000E+00
 -1        34 2.45361E-05 4.90798E-05 0.00000E+00
 -1        35 1.79967E-05 1.24294E-04 0.00000E+00
 -1        36 1.14877E-04 8.69201E-21 0.00000E+00
 -1        37 1.13104E-04 3.87253E-20 2.64698E-23
 -1        38 1.11334E-04 7.23121E-20-5.29396E-23
 -1        39 1.09555E-04 1.09641E-19 0.00000E+00
 -1        40 1.07774E-04 1.03034E-19 0.00000E+00
 -1        41 1.05992E-04 9.60224E-20 0.00000E+00
 -1        42 1.04210E-04 1.27766E-19 0.00000E+00
 -1        43 1.02427E-04 1.13370E-19 0.00000E+00
 -1        44 1.00645E-04 1.32723E-19 5.29396E-23
 -1        45 9.88623E-05 1.47572E-19 0.00000E+00
 -1        46 9.70800E-05 1.70773E-19-5.29396E-23
 -1        47 9.52990E-05 1.66832E-19 2.64698E-23
 -1        48 9.35185E-05 1.42295E-19-5.29396E-23
 -1        49 9.17448E-05 1.38903E-19 0.00000E+00
 -1        50 8.99691E-05 5.04514E-20 0.00000E+00
 -1        51 1.14669E-04-1.86615E-07 0.00000E+00
 -1        52 1.11327E-04-3.61954E-07 0.00000E+00
 -1        53 1.06840E-04-5.36866E-07 0.00000E+00
 -1        54 1.01494E-04-7.14256E-07 0.00000E+00
 -1        55 9.55738E-05-8.96093E-07 0.00000E+00
 -1        56 1.14674E-04-1.12815E-06 0.00000E+00
 -1        57 1.12923E-04-2.92371E-06 0.00000E+00
 -1        58 1.11347E-04-5.17695E-06 0.00000E+00
 -1        59 1.09854E-04-7.68993E-06 2.64698E-23
 -1        60 1.08373E-04-1.02335E-05 0.00000E+00
 -1        61 1.06817E-04-1.25820E-05 0.00000E+00
 -1        62 1.05108E-04-1.45251E-05-5.29396E-23
 -1        63 1.03176E-04-1.58715E-05 0.00000E+00
 -1        64 1.00968E-04-1.64795E-05 0.00000E+00
 -1        65 9.84411E-05-1.62408E-05-2.64698E-23
 -1        66 9.55819E-05-1.51176E-05 0.00000E+00
 -1        67 9.23920E-05-1.31117E-05-2.64698E-23
 -1        68 8.88972E-05-1.02991E-05 0.00000E+00
 -1        69 8.51515E-05-6.78735E-06 0.00000E+00
 -1        70 8.12022E-05-2.75210E-06 0.00000E+00
 -1        71 8.74328E-05-2.37566E-20 0.00000E+00
 -1        72 8.66351E-05-4.12383E-20 1.32349E-23
 -1        73 8.58374E-05-4.08942E-20 2.64698E-23
 -1        74 8.50400E-05-2.92640E-20 0.00000E+00
 -1        75 8.42426E-05-1.31505E-20 0.00000E+00
 -1        76 8.34453E-05 2.14637E-20 1.32349E-23
 -1        77 8.26479E-05 2.39965E-20 0.00000E+00
 -1        78 8.18506E-05 2.79835E-20 1.32349E-23
 -1        79 8.10533E-05 1.54269E-20-2.64698E-23
 -1        80 8.02561E-05 1.73261E-20 0.00000E+00
 -1        81 7.94589E-05 9.29420E-21 2.64698E-23
 -1        82 7.86618E-05 1.59183E-20 1.32349E-23
 -1        83 7.78648E-05 5.04415E-21 2.64698E-23
 -1        84 7.70687E-05 1.29536E-20 1.32349E-23
 -1        85 7.62723E-05-3.32527E-22 2.64698E-23
 -1        86 8.81257E-05 2.42414E-07 6.61744E-24
 -1        87 8.76897E-05 5.30074E-07-2.06795E-25
 -1        88 8.66567E-05 8.14527E-07 3.30872E-24
 -1        89 8.47552E-05 1.10126E-06 0.00000E+00
 -1        90 8.17006E-05 1.38715E-06 0.00000E+00
 -1        91 8.72491E-05-5.64847E-07 0.00000E+00
 -1        92 8.63775E-05-1.45458E-06 0.00000E+00
 -1        93 8.56011E-05-2.59695E-06-2.64698E-23
 -1        94 8.48894E-05-3.91725E-06 1.32349E-23
 -1        95 8.42117E-05-5.32836E-06 2.64698E-23
 -1        96 8.35343E-05-6.74131E-06 0.00000E+00
 -1        97 8.28244E-05-8.06712E-06-2.64698E-23
 -1        98 8.20494E-05-9.21929E-06 0.00000E+00
 -1        99 8.11809E-05-1.01219E-05 2.64698E-23
 -1       100 8.01932E-05-1.07057E-05 0.00000E+00
 -1       101 7.90673E-05-1.09213E-05 0.00000E+00
 -1       102 7.77888E-05-1.07291E-05 1.32349E-23
 -1       103 7.63518E-05-1.01151E-05-2.64698E-23
 -1       104 7.47566E-05-9.07569E-06 0.00000E+00
 -1       105 7.30097E-05-7.63516E-06 2.64698E-23
 -1       106 7.51259E-05 9.19949E-21-1.32349E-23
 -1       107 7.47850E-05 4.79020E-21-6.61744E-24
 -1       108 7.44434E-05-2.62456E-20 1.32349E-23
 -1       109 7.41043E-05-3.39996E-20-6.61744E-24
 -1       110 7.37653E-05-3.37821E-20-1.32349E-23
 -1       111 7.34269E-05-2.12718E-20-6.61744E-24
 -1       112 7.30885E-05-1.30695E-20-1.32349E-23
 -1       113 7.27502E-05-8.99145E-22 0.00000E+00
 -1       114 7.24119E-05 1.20495E-20 0.00000E+00
 -1       115 7.20737E-05 1.65982E-20 0.00000E+00
 -1       116 7.17356E-05 3.20822E-20-1.32349E-23
 -1       117 7.13976E-05 2.70273E-20 0.00000E+00
 -1       118 7.10596E-05 2.03089E-20 1.32349E-23
 -1       119 7.07225E-05 2.65227E-20-6.61744E-24
 -1       120 7.03851E-05 3.29756E-20 0.00000E+00
 -1       121 7.54953E-05-9.60957E-07 2.64698E-23
 -1       122 7.54297E-05-1.93389E-06 0.00000E+00
 -1       123 7.51180E-05-2.90627E-06 0.00000E+00
 -1       124 7.43984E-05-3.87978E-06-1.32349E-23
 -1       125 7.31184E-05-4.85434E-06 0.00000E+00
 -1       126 7.49947E-05-2.56130E-07 0.00000E+00
 -1       127 7.45604E-05-6.27860E-07 0.00000E+00
 -1       128 7.41589E-05-1.08837E-06 0.00000E+00
 -1       129 7.37802E-05-1.60618E-06-6.61744E-24
 -1       130 7.34111E-05-2.14910E-06 0.00000E+00
 -1       131 7.30392E-05-2.68409E-06 0.00000E+00
 -1       132 7.26522E-05-3.17863E-06-1.32349E-23
 -1       133 7.22380E-05-3.60064E-06 6.61744E-24
 -1       134 7.17855E-05-3.92011E-06 1.32349E-23
 -1       135 7.12838E-05-4.10838E-06-6.61744E-24
 -1       136 7.07237E-05-4.14063E-06 0.00000E+00
 -1       137 7.00967E-05-3.99399E-06 6.61744E-24
 -1       138 6.93960E-05-3.65102E-06 0.00000E+00
 -1       139 6.86172E-05-3.09626E-06 6.61744E-24
 -1       140 6.77553E-05-2.32164E-06 0.00000E+00
 -1       141 6.99517E-05-3.85428E-20 0.00000E+00
 -1       142 6.98567E-05-6.27598E-20 0.00000E+00
 -1       143 6.97614E-05-7.10898E-20 3.30872E-24
 -1       144 6.96671E-05-5.72661E-20 0.00000E+00
 -1       145 6.95729E-05-5.50683E-20 0.00000E+00
 -1       146 6.94789E-05-7.25468E-20 0.00000E+00
 -1       147 6.93849E-05-5.88338E-20-3.30872E-24
 -1       148 6.92910E-05-4.29683E-20-1.65436E-24
 -1       149 6.91971E-05-6.31232E-20 3.30872E-24
 -1       150 6.91034E-05-7.87255E-20 0.00000E+00
 -1       151 6.90098E-05-3.18549E-20 0.00000E+00
 -1       152 6.89168E-05-2.91705E-21 0.00000E+00
 -1       153 6.88241E-05 1.12815E-20 0.00000E+00
 -1       154 6.87347E-05 1.82229E-20-4.13590E-25
 -1       155 6.86444E-05 1.59997E-20 3.30872E-24
 -1       156 6.99923E-05-2.18703E-07-6.61744E-24
 -1       157 6.97938E-05-4.37159E-07 0.00000E+00
 -1       158 6.94158E-05-6.55747E-07 0.00000E+00
 -1       159 6.88183E-05-8.75122E-07 3.30872E-24
 -1       160 6.79637E-05-1.09445E-06 0.00000E+00
 -1       161 6.98046E-05-1.32407E-07 6.61744E-24
 -1       162 6.95785E-05-3.26084E-07-3.30872E-24
 -1       163 6.93670E-05-5.58748E-07-6.61744E-24
 -1       164 6.91617E-05-8.08503E-07 0.00000E+00
 -1       165 6.89543E-05-1.05295E-06 0.00000E+00
 -1       166 6.87366E-05-1.26984E-06 0.00000E+00
 -1       167 6.85004E-05-1.43736E-06 0.00000E+00
 -1       168 6.82377E-05-1.53405E-06 0.00000E+00
 -1       169 6.79408E-05-1.53953E-06-6.61744E-24
 -1       170 6.76024E-05-1.43399E-06 0.00000E+00
 -1       171 6.72157E-05-1.19940E-06 0.00000E+00
 -1       172 6.67749E-05-8.18317E-07 3.30872E-24
 -1       173 6.62737E-05-2.76073E-07 6.61744E-24
 -1       174 6.57112E-05 4.42763E-07 0.00000E+00
 -1       175 6.50772E-05 1.34713E-06 8.27181E-25
 -1       191 6.84293E-05 4.08695E-07-1.32349E-23
 -1       192 6.80566E-05 8.19107E-07 1.32349E-23
 -1       193 6.74598E-05 1.22979E-06 0.00000E+00
 -1       194 6.66458E-05 1.64024E-06-6.61744E-24
 -1       195 6.56213E-05 2.04995E-06-1.32349E-23
 -1       251 8.86134E-05 3.23047E-06-1.32349E-23
 -1       252 8.78513E-05 5.99326E-06-1.32349E-23
 -1       253 8.70927E-05 7.33852E-06 0.00000E+00
 -1       254 8.63325E-05 7.43226E-06 1.32349E-23
 -1       255 8.55718E-05 6.48812E-06 2.64698E-23
 -1       256 8.48095E-05 4.73857E-06 0.00000E+00
 -1       257 8.40462E-05 2.44682E-06 0.00000E+00
 -1       258 8.32821E-05-1.14053E-07-1.32349E-23
 -1       259 8.25181E-05-2.66081E-06-2.64698E-23
 -1       260 8.17549E-05-4.91037E-06 0.00000E+00
 -1       261 8.09928E-05-6.59099E-06 0.00000E+00
 -1       262 8.02323E-05-7.44134E-06-1.32349E-23
 -1       263 7.94722E-05-7.23166E-06 2.64698E-23
 -1       264 7.87139E-05-5.75150E-06 1.32349E-23
 -1       265 7.79518E-05-2.83867E-06 0.00000E+00
 -1       266 8.25351E-05-1.27983E-06 0.00000E+00
 -1       267 7.28871E-05-1.48083E-06-3.30872E-24
 -1       268 6.17835E-05-1.69627E-06 0.00000E+00
 -1       269 5.05907E-05-1.90979E-06-1.65436E-24
 -1       270 4.06761E-05-2.11097E-06-3.30872E-24
 -1       271 8.53807E-05 2.57848E-06 0.00000E+00
 -1       272 8.17654E-05 5.02336E-06 0.00000E+00
 -1       273 7.85953E-05 6.30314E-06 0.00000E+00
 -1       274 7.58221E-05 6.48853E-06 2.64698E-23
 -1       275 7.34022E-05 5.73161E-06-5.29396E-23
 -1       276 7.12624E-05 4.22001E-06 0.00000E+00
 -1       277 6.93156E-05 2.19153E-06-5.29396E-23
 -1       278 6.74645E-05-9.42878E-08 0.00000E+00
 -1       279 6.56063E-05-2.36107E-06 5.29396E-23
 -1       280 6.36385E-05-4.33317E-06-2.64698E-23
 -1       281 6.14650E-05-5.75447E-06-5.29396E-23
 -1       282 5.90006E-05-6.39210E-06 0.00000E+00
 -1       283 5.61744E-05-6.06498E-06 0.00000E+00
 -1       284 5.29465E-05-4.62823E-06 0.00000E+00
 -1       285 4.92704E-05-2.02006E-06 0.00000E+00
 -1       286 7.68161E-05 6.14173E-06-1.32349E-23
 -1       287 7.64370E-05 9.11798E-06 6.61744E-24
 -1       288 7.60610E-05 1.07167E-05-1.32349E-23
 -1       289 7.56860E-05 1.10956E-05 0.00000E+00
 -1       290 7.53110E-05 1.04356E-05 1.32349E-23
 -1       291 7.49351E-05 8.92654E-06-6.61744E-24
 -1       292 7.45581E-05 6.77468E-06 0.00000E+00
 -1       293 7.41800E-05 4.19176E-06 6.61744E-24
 -1       294 7.38014E-05 1.39778E-06 1.32349E-23
 -1       295 7.34227E-05-1.38538E-06 0.00000E+00
 -1       296 7.30445E-05-3.93613E-06 0.00000E+00
 -1       297 7.26667E-05-6.03487E-06-6.61744E-24
 -1       298 7.22897E-05-7.47054E-06 0.00000E+00
 -1       299 7.19104E-05-8.03808E-06 0.00000E+00
 -1       300 7.15320E-05-7.54884E-06 0.00000E+00
 -1       301 7.18791E-05 1.65649E-06 0.00000E+00
 -1       302 6.65466E-05 1.68797E-06 0.00000E+00
 -1       303 6.12091E-05 1.72325E-06 8.27181E-25
 -1       304 5.58729E-05 1.75902E-06-8.27181E-25
 -1       305 5.05445E-05 1.79210E-06-3.30872E-24
 -1       306 7.34309E-05 5.55912E-06 0.00000E+00
 -1       307 7.00642E-05 8.19783E-06 2.64698E-23
 -1       308 6.71766E-05 9.58027E-06 0.00000E+00
 -1       309 6.47351E-05 9.74225E-06 0.00000E+00
 -1       310 6.27082E-05 8.79840E-06 0.00000E+00
 -1       311 6.10358E-05 6.90096E-06 0.00000E+00
 -1       312 5.96416E-05 4.25771E-06-5.29396E-23
 -1       313 5.84372E-05 1.10425E-06-2.64698E-23
 -1       314 5.73241E-05-2.29431E-06 0.00000E+00
 -1       315 5.62005E-05-5.66344E-06 2.64698E-23
 -1       316 5.49648E-05-8.73084E-06-5.29396E-23
 -1       317 5.35215E-05-1.12350E-05-2.64698E-23
 -1       318 5.17833E-05-1.29475E-05 5.29396E-23
 -1       319 4.96867E-05-1.36656E-05 0.00000E+00
 -1       320 4.71610E-05-1.32529E-05 0.00000E+00
 -1       321 7.08392E-05-3.73666E-06-1.32349E-23
 -1       322 7.05669E-05-2.21149E-06 0.00000E+00
 -1       323 7.02941E-05-1.18940E-06 0.00000E+00
 -1       324 7.00257E-05-6.08430E-07 0.00000E+00
 -1       325 6.97576E-05-4.00681E-07 0.00000E+00
 -1       326 6.94903E-05-4.95859E-07-3.30872E-24
 -1       327 6.92231E-05-8.19599E-07 0.00000E+00
 -1       328 6.89560E-05-1.29607E-06 0.00000E+00
 -1       329 6.86890E-05-1.84739E-06 0.00000E+00
 -1       330 6.84219E-05-2.39520E-06 0.00000E+00
 -1       331 6.81549E-05-2.86119E-06 0.00000E+00
 -1       332 6.78878E-05-3.16758E-06 0.00000E+00
 -1       333 6.76208E-05-3.23871E-06 0.00000E+00
 -1       334 6.73534E-05-3.00044E-06 0.00000E+00
 -1       335 6.70859E-05-2.38281E-06-6.61744E-24
 -1       336 6.79257E-05-6.78061E-06 0.00000E+00
 -1       337 6.34217E-05-7.74740E-06 1.32349E-23
 -1       338 5.82061E-05-8.71665E-06 2.64698E-23
 -1       339 5.28743E-05-9.68280E-06 0.00000E+00
 -1       340 4.80245E-05-1.06479E-05 0.00000E+00
 -1       341 6.91885E-05-4.02359E-06-2.64698E-23
 -1       342 6.73549E-05-2.56119E-06 0.00000E+00
 -1       343 6.56534E-05-1.44730E-06 0.00000E+00
 -1       344 6.40834E-05-6.89122E-07 0.00000E+00
 -1       345 6.26401E-05-2.68488E-07-2.64698E-23
 -1       346 6.13132E-05-1.58524E-07 0.00000E+00
 -1       347 6.00850E-05-3.11621E-07 0.00000E+00
 -1       348 5.89348E-05-6.72768E-07 0.00000E+00
 -1       349 5.78369E-05-1.17304E-06 0.00000E+00
 -1       350 5.67641E-05-1.73949E-06 1.32349E-23
 -1       351 5.56874E-05-2.29515E-06-2.64698E-23
 -1       352 5.45795E-05-2.76281E-06 0.00000E+00
 -1       353 5.34124E-05-3.07192E-06 0.00000E+00
 -1       354 5.21691E-05-3.15297E-06-1.32349E-23
 -1       355 5.08192E-05-2.95841E-06-1.32349E-23
 -1       356 6.66543E-05-1.99537E-07 0.00000E+00
 -1       357 6.64999E-05 5.71917E-07-3.30872E-24
 -1       358 6.63455E-05 1.04219E-06 6.61744E-24
 -1       359 6.61923E-05 1.25849E-06-3.30872E-24
 -1       360 6.60392E-05 1.26999E-06 0.00000E+00
 -1       361 6.58864E-05 1.12662E-06 0.00000E+00
 -1       362 6.57336E-05 8.79501E-07 0.00000E+00
 -1       363 6.55809E-05 5.80134E-07 1.65436E-24
 -1       364 6.54283E-05 2.80415E-07 3.30872E-24
 -1       365 6.52758E-05 3.22493E-08 0.00000E+00
 -1       366 6.51234E-05-1.12857E-07-3.30872E-24
 -1       367 6.49718E-05-1.03777E-07-1.65436E-24
 -1       368 6.48204E-05 1.09435E-07-3.30872E-24
 -1       369 6.46726E-05 5.75966E-07-4.13590E-25
 -1       370 6.45236E-05 1.34311E-06-3.30872E-24
 -1       371 6.48116E-05-1.50817E-06 6.61744E-24
 -1       372 6.16621E-05-1.69474E-06 0.00000E+00
 -1       373 5.79555E-05-1.88323E-06 6.61744E-24
 -1       374 5.42826E-05-2.06897E-06 1.65436E-24
 -1       375 5.12339E-05-2.25318E-06 0.00000E+00
 -1       376 6.57879E-05-3.84535E-07 0.00000E+00
 -1       377 6.48532E-05 2.65727E-07 6.61744E-24
 -1       378 6.40112E-05 6.71168E-07 0.00000E+00
 -1       379 6.32451E-05 8.68550E-07 0.00000E+00
 -1       380 6.25398E-05 9.03826E-07 0.00000E+00
 -1       381 6.18771E-05 8.24589E-07 0.00000E+00
 -1       382 6.12377E-05 6.82797E-07-1.32349E-23
 -1       383 6.06020E-05 5.31255E-07 0.00000E+00
 -1       384 5.99500E-05 4.23180E-07 0.00000E+00
 -1       385 5.92622E-05 4.11173E-07 0.00000E+00
 -1       386 5.85201E-05 5.44156E-07 0.00000E+00
 -1       387 5.77071E-05 8.69170E-07-6.61744E-24
 -1       388 5.68072E-05 1.42581E-06 0.00000E+00
 -1       389 5.58124E-05 2.25251E-06-6.61744E-24
 -1       390 5.47047E-05 3.37316E-06 6.61744E-24
 -1       406 6.28616E-05 2.85277E-06-1.32349E-23
 -1       407 6.11686E-05 3.25013E-06-6.61744E-24
 -1       408 5.93508E-05 3.64745E-06-1.32349E-23
 -1       409 5.74443E-05 4.04375E-06 0.00000E+00
 -1       410 5.54856E-05 4.43778E-06 1.32349E-23
 -1       466 3.41030E-05 2.37046E-06-1.32349E-23
 -1       467 3.48428E-05 5.19028E-06 6.61744E-24
 -1       468 3.55841E-05 6.51337E-06 0.00000E+00
 -1       469 3.63320E-05 6.65157E-06 0.00000E+00
 -1       470 3.70800E-05 5.87173E-06 0.00000E+00
 -1       471 3.78283E-05 4.42417E-06 1.32349E-23
 -1       472 3.85762E-05 2.53376E-06 2.64698E-23
 -1       473 3.93237E-05 4.17385E-07 0.00000E+00
 -1       474 4.00713E-05-1.71674E-06-2.64698E-23
 -1       475 4.08189E-05-3.66065E-06 1.32349E-23
 -1       476 4.15669E-05-5.19915E-06 2.64698E-23
 -1       477 4.23143E-05-6.10977E-06 0.00000E+00
 -1       478 4.30615E-05-6.14606E-06 2.64698E-23
 -1       479 4.38006E-05-5.04584E-06 6.61744E-24
 -1       480 4.45393E-05-2.50380E-06 0.00000E+00
 -1       481 2.81629E-05-2.15645E-06-1.65436E-24
 -1       482 2.37232E-05-2.01697E-06-1.65436E-24
 -1       483 2.00055E-05-1.87504E-06 0.00000E+00
 -1       484 1.69360E-05-1.73011E-06 0.00000E+00
 -1       485 1.44453E-05-1.58340E-06 0.00000E+00
 -1       486 3.06485E-05 2.57679E-06 1.32349E-23
 -1       487 2.82351E-05 6.44416E-06 0.00000E+00
 -1       488 2.61983E-05 9.32384E-06 0.00000E+00
 -1       489 2.45238E-05 1.12275E-05 0.00000E+00
 -1       490 2.31926E-05 1.22199E-05-2.64698E-23
 -1       491 2.21721E-05 1.23829E-05-1.32349E-23
 -1       492 2.14161E-05 1.18402E-05 2.64698E-23
 -1       493 2.08725E-05 1.07302E-05 0.00000E+00
 -1       494 2.04786E-05 9.21963E-06 0.00000E+00
 -1       495 2.01690E-05 7.48363E-06 0.00000E+00
 -1       496 1.98742E-05 5.70867E-06 0.00000E+00
 -1       497 1.95248E-05 4.08222E-06 1.32349E-23
 -1       498 1.90530E-05 2.78395E-06-2.64698E-23
 -1       499 1.83985E-05 1.98845E-06 1.32349E-23
 -1       500 1.74990E-05 1.84135E-06 0.00000E+00
 -1       501 4.51538E-05 6.15361E-06-6.61744E-24
 -1       502 4.50923E-05 8.71610E-06-1.65436E-24
 -1       503 4.50331E-05 9.72596E-06 0.00000E+00
 -1       504 4.49759E-05 9.41242E-06 8.27181E-25
 -1       505 4.49180E-05 8.00854E-06 0.00000E+00
 -1       506 4.48590E-05 5.74889E-06-8.27181E-25
 -1       507 4.47985E-05 2.87049E-06-1.65436E-24
 -1       508 4.47369E-05-3.88894E-07-8.27181E-25
 -1       509 4.46749E-05-3.79031E-06-1.65436E-24
 -1       510 4.46132E-05-7.09463E-06 0.00000E+00
 -1       511 4.45523E-05-1.00631E-05 0.00000E+00
 -1       512 4.44927E-05-1.24572E-05 0.00000E+00
 -1       513 4.44344E-05-1.40404E-05 3.30872E-24
 -1       514 4.43754E-05-1.45769E-05 0.00000E+00
 -1       515 4.43168E-05-1.38342E-05 6.61744E-24
 -1       516 3.96444E-05 1.90958E-06 1.65436E-24
 -1       517 3.36809E-05 2.02184E-06 2.06795E-25
 -1       518 2.78526E-05 2.13381E-06-1.65436E-24
 -1       519 2.26729E-05 2.25002E-06 4.13590E-25
 -1       520 1.86594E-05 2.37204E-06 0.00000E+00
 -1       521 4.17920E-05 5.73796E-06 2.64698E-23
 -1       522 3.88246E-05 8.23391E-06 2.64698E-23
 -1       523 3.63763E-05 9.36479E-06 5.29396E-23
 -1       524 3.43994E-05 9.21151E-06 0.00000E+00
 -1       525 3.28466E-05 7.92571E-06 0.00000E+00
 -1       526 3.16460E-05 5.69208E-06 0.00000E+00
 -1       527 3.07122E-05 2.74265E-06 0.00000E+00
 -1       528 2.99495E-05-6.67789E-07 0.00000E+00
 -1       529 2.92552E-05-4.26162E-06 0.00000E+00
 -1       530 2.85238E-05-7.75522E-06 0.00000E+00
 -1       531 2.76517E-05-1.08701E-05-5.29396E-23
 -1       532 2.65410E-05-1.33396E-05 0.00000E+00
 -1       533 2.51023E-05-1.49295E-05 5.29396E-23
 -1       534 2.32666E-05-1.54307E-05 0.00000E+00
 -1       535 2.09625E-05-1.46949E-05-2.64698E-23
 -1       536 4.45388E-05-8.86682E-06 4.13590E-25
 -1       537 4.48584E-05-6.78618E-06 0.00000E+00
 -1       538 4.51778E-05-5.25733E-06 6.61744E-24
 -1       539 4.55022E-05-4.20098E-06 0.00000E+00
 -1       540 4.58273E-05-3.54144E-06-6.61744E-24
 -1       541 4.61533E-05-3.20523E-06 0.00000E+00
 -1       542 4.64796E-05-3.12127E-06 1.32349E-23
 -1       543 4.68061E-05-3.21989E-06-6.61744E-24
 -1       544 4.71326E-05-3.43279E-06 1.32349E-23
 -1       545 4.74590E-05-3.69233E-06 6.61744E-24
 -1       546 4.77853E-05-3.93120E-06 0.00000E+00
 -1       547 4.81113E-05-4.08197E-06 0.00000E+00
 -1       548 4.84371E-05-4.07657E-06 0.00000E+00
 -1       549 4.87609E-05-3.84605E-06 3.30872E-24
 -1       550 4.90850E-05-3.31976E-06 6.61744E-24
 -1       551 4.03437E-05-1.17502E-05-1.65436E-24
 -1       552 3.60491E-05-1.19145E-05-1.44757E-24
 -1       553 3.15236E-05-1.20785E-05-3.30872E-24
 -1       554 2.69320E-05-1.22434E-05-3.30872E-24
 -1       555 2.24389E-05-1.24104E-05 0.00000E+00
 -1       556 4.30608E-05-9.07520E-06 0.00000E+00
 -1       557 4.20794E-05-7.09755E-06 0.00000E+00
 -1       558 4.12780E-05-5.59464E-06 0.00000E+00
 -1       559 4.06337E-05-4.50732E-06 0.00000E+00
 -1       560 4.01236E-05-3.77620E-06 0.00000E+00
 -1       561 3.97250E-05-3.34130E-06 0.00000E+00
 -1       562 3.94152E-05-3.14252E-06 0.00000E+00
 -1       563 3.91714E-05-3.11968E-06 0.00000E+00
 -1       564 3.89711E-05-3.21255E-06-6.61744E-24
 -1       565 3.87916E-05-3.36087E-06 3.30872E-24
 -1       566 3.86104E-05-3.50436E-06 6.61744E-24
 -1       567 3.84048E-05-3.58276E-06 0.00000E+00
 -1       568 3.81525E-05-3.53581E-06-8.27181E-25
 -1       569 3.78312E-05-3.30342E-06-2.89513E-24
 -1       570 3.74192E-05-2.82557E-06 1.65436E-24
 -1       571 4.96414E-05-1.61120E-06 2.48154E-24
 -1       572 4.98957E-05-1.03039E-06-8.27181E-25
 -1       573 5.01527E-05-6.45104E-07-4.96308E-24
 -1       574 5.04110E-05-4.15463E-07 0.00000E+00
 -1       575 5.06698E-05-3.01462E-07 0.00000E+00
 -1       576 5.09288E-05-2.62880E-07 0.00000E+00
 -1       577 5.11879E-05-2.59491E-07-6.61744E-24
 -1       578 5.14471E-05-2.51047E-07-6.61744E-24
 -1       579 5.17062E-05-1.97297E-07 0.00000E+00
 -1       580 5.19654E-05-5.79822E-08 0.00000E+00
 -1       581 5.22244E-05 2.07159E-07 0.00000E+00
 -1       582 5.24833E-05 6.38385E-07-1.32349E-23
 -1       583 5.27419E-05 1.27594E-06 0.00000E+00
 -1       584 5.30000E-05 2.15979E-06 0.00000E+00
 -1       585 5.32570E-05 3.32977E-06 1.32349E-23
 -1       586 4.75817E-05-2.36079E-06 0.00000E+00
 -1       587 4.54838E-05-2.29515E-06 3.30872E-24
 -1       588 4.32336E-05-2.22960E-06 1.65436E-24
 -1       589 4.09644E-05-2.16469E-06 0.00000E+00
 -1       590 3.88094E-05-2.10115E-06 0.00000E+00
 -1       591 4.89117E-05-1.52813E-06 0.00000E+00
 -1       592 4.84764E-05-7.86825E-07-6.61744E-24
 -1       593 4.80889E-05-1.77797E-07 0.00000E+00
 -1       594 4.77415E-05 3.22026E-07 0.00000E+00
 -1       595 4.74261E-05 7.35707E-07 0.00000E+00
 -1       596 4.71342E-05 1.08628E-06 3.30872E-24
 -1       597 4.68574E-05 1.39676E-06 0.00000E+00
 -1       598 4.65869E-05 1.69016E-06 1.65436E-24
 -1       599 4.63142E-05 1.98950E-06-3.30872E-24
 -1       600 4.60306E-05 2.31781E-06 0.00000E+00
 -1       601 4.57277E-05 2.69809E-06-1.65436E-24
 -1       602 4.53967E-05 3.15338E-06 8.27181E-25
 -1       603 4.50293E-05 3.70671E-06 1.74483E-24
 -1       604 4.46176E-05 4.38118E-06-1.24077E-24
 -1       605 4.41542E-05 5.19993E-06 0.00000E+00
 -1       606 5.35790E-05 6.78794E-06 0.00000E+00
 -1       607 5.36409E-05 8.92955E-06-3.30872E-24
 -1       608 5.37010E-05 1.12376E-05 6.61744E-24
 -1       609 5.37599E-05 1.37006E-05 0.00000E+00
 -1       610 5.38183E-05 1.63067E-05 0.00000E+00
 -1       611 5.38762E-05 1.90440E-05 0.00000E+00
 -1       612 5.39337E-05 2.19006E-05 6.61744E-24
 -1       613 5.39909E-05 2.48647E-05 0.00000E+00
 -1       614 5.40479E-05 2.79243E-05 0.00000E+00
 -1       615 5.41045E-05 3.10675E-05 0.00000E+00
 -1       616 5.41610E-05 3.42824E-05 0.00000E+00
 -1       617 5.42172E-05 3.75572E-05 3.30872E-24
 -1       618 5.42733E-05 4.08798E-05-3.30872E-24
 -1       619 5.43293E-05 4.42385E-05 0.00000E+00
 -1       620 5.43851E-05 4.76213E-05 0.00000E+00
 -1       621 5.16364E-05 5.05086E-06 0.00000E+00
 -1       622 4.98263E-05 5.28002E-06 0.00000E+00
 -1       623 4.81013E-05 5.50940E-06 0.00000E+00
 -1       624 4.64817E-05 5.73831E-06 1.65436E-24
 -1       625 4.49878E-05 5.96588E-06 6.61744E-24
 -1       626 5.28805E-05 6.86034E-06 0.00000E+00
 -1       627 5.21757E-05 9.08362E-06 0.00000E+00
 -1       628 5.14060E-05 1.14762E-05-6.61744E-24
 -1       629 5.05792E-05 1.40190E-05 6.61744E-24
 -1       630 4.97027E-05 1.66928E-05 0.00000E+00
 -1       631 4.87840E-05 1.94781E-05 6.61744E-24
 -1       632 4.78305E-05 2.23553E-05 0.00000E+00
 -1       633 4.68496E-05 2.53051E-05 0.00000E+00
 -1       634 4.58487E-05 2.83078E-05 0.00000E+00
 -1       635 4.48350E-05 3.13441E-05-1.65436E-24
 -1       636 4.38161E-05 3.43943E-05 3.30872E-24
 -1       637 4.27991E-05 3.74391E-05 0.00000E+00
 -1       638 4.17913E-05 4.04589E-05 1.65436E-24
 -1       639 4.07999E-05 4.34341E-05 0.00000E+00
 -1       640 3.98315E-05 4.63452E-05-1.24077E-24
 -1       641 5.44404E-05 5.45867E-05 0.00000E+00
 -1       642 5.44367E-05 5.85727E-05 0.00000E+00
 -1       643 5.44318E-05 6.29188E-05-4.13590E-25
 -1       644 5.44251E-05 6.75696E-05 0.00000E+00
 -1       645 5.44173E-05 7.24695E-05-2.06795E-25
 -1       646 5.44085E-05 7.75631E-05 0.00000E+00
 -1       647 5.43990E-05 8.27949E-05 0.00000E+00
 -1       648 5.43891E-05 8.81097E-05 5.16988E-26
 -1       649 5.43789E-05 9.34519E-05 5.16988E-26
 -1       650 5.43689E-05 9.87662E-05-1.29247E-26
 -1       651 5.43593E-05 1.03997E-04 0.00000E+00
 -1       652 5.43501E-05 1.09090E-04-1.03398E-25
 -1       653 5.43417E-05 1.13988E-04 0.00000E+00
 -1       654 5.43333E-05 1.18637E-04 8.27181E-25
 -1       655 5.43266E-05 1.22980E-04 0.00000E+00
 -1       656 5.13321E-05 5.07174E-05 3.30872E-24
 -1       657 4.86167E-05 5.04051E-05-3.30872E-24
 -1       658 4.61552E-05 5.00942E-05 6.61744E-24
 -1       659 4.38076E-05 4.97834E-05 0.00000E+00
 -1       660 4.14328E-05 4.94716E-05 0.00000E+00
 -1       661 5.34637E-05 5.47082E-05 6.61744E-24
 -1       662 5.23583E-05 5.87805E-05 3.30872E-24
 -1       663 5.11320E-05 6.31692E-05-1.32349E-23
 -1       664 4.98091E-05 6.78191E-05-6.61744E-24
 -1       665 4.84077E-05 7.26756E-05 0.00000E+00
 -1       666 4.69481E-05 7.76865E-05-6.61744E-24
 -1       667 4.54492E-05 8.28011E-05 0.00000E+00
 -1       668 4.39298E-05 8.79694E-05 0.00000E+00
 -1       669 4.24088E-05 9.31421E-05 0.00000E+00
 -1       670 4.09049E-05 9.82697E-05 6.61744E-24
 -1       671 3.94369E-05 1.03302E-04 0.00000E+00
 -1       672 3.80236E-05 1.08190E-04-6.61744E-24
 -1       673 3.66851E-05 1.12880E-04-1.32349E-23
 -1       674 3.54385E-05 1.17318E-04-3.30872E-24
 -1       675 3.43093E-05 1.21449E-04 0.00000E+00
 -1       676 5.06011E-05 1.26673E-04 0.00000E+00
 -1       677 4.70185E-05 1.26377E-04 0.00000E+00
 -1       678 4.35320E-05 1.26083E-04-6.61744E-24
 -1       679 4.01067E-05 1.25789E-04 0.00000E+00
 -1       680 3.67075E-05 1.25495E-04 0.00000E+00
 -1       681 1.27024E-05 5.14022E-08 6.61744E-24
 -1       682 1.29451E-05 1.07639E-06 3.30872E-24
 -1       683 1.31879E-05 1.70773E-06 0.00000E+00
 -1       684 1.34319E-05 2.01352E-06 3.30872E-24
 -1       685 1.36760E-05 2.05786E-06-6.61744E-24
 -1       686 1.39203E-05 1.90329E-06 0.00000E+00
 -1       687 1.41646E-05 1.60990E-06 0.00000E+00
 -1       688 1.44089E-05 1.23700E-06-3.30872E-24
 -1       689 1.46532E-05 8.42854E-07-6.61744E-24
 -1       690 1.48973E-05 4.85651E-07 0.00000E+00
 -1       691 1.51414E-05 2.24022E-07-6.61744E-24
 -1       692 1.53850E-05 1.17151E-07 3.30872E-24
 -1       693 1.56283E-05 2.26142E-07 6.61744E-24
 -1       694 1.58686E-05 6.13358E-07 0.00000E+00
 -1       695 1.61096E-05 1.34459E-06 0.00000E+00
 -1       696 1.05691E-05-1.20396E-06 0.00000E+00
 -1       697 8.41494E-06-9.64598E-07-3.30872E-24
 -1       698 6.14263E-06-7.25755E-07 6.61744E-24
 -1       699 3.89031E-06-4.85242E-07 0.00000E+00
 -1       700 1.79636E-06-2.44478E-07 0.00000E+00
 -1       701 1.16341E-05 5.12514E-08 3.30872E-24
 -1       702 1.09029E-05 1.22790E-06-3.30872E-24
 -1       703 1.02788E-05 2.12257E-06 0.00000E+00
 -1       704 9.74844E-06 2.76036E-06 0.00000E+00
 -1       705 9.30277E-06 3.17243E-06 6.61744E-24
 -1       706 8.92949E-06 3.39035E-06-3.30872E-24
 -1       707 8.61594E-06 3.44894E-06-6.61744E-24
 -1       708 8.34869E-06 3.38389E-06 0.00000E+00
 -1       709 8.11369E-06 3.23282E-06-6.61744E-24
 -1       710 7.89672E-06 3.03389E-06 3.30872E-24
 -1       711 7.68318E-06 2.82597E-06 0.00000E+00
 -1       712 7.45886E-06 2.64813E-06 3.30872E-24
 -1       713 7.20897E-06 2.53872E-06 0.00000E+00
 -1       714 6.92162E-06 2.53666E-06 0.00000E+00
 -1       715 6.57984E-06 2.67715E-06 0.00000E+00
 -1       716 1.64415E-05 3.32681E-06 8.27181E-25
 -1       717 1.65616E-05 3.18985E-06 0.00000E+00
 -1       718 1.66808E-05 2.24076E-06 3.30872E-24
 -1       719 1.68013E-05 6.41210E-07-1.65436E-24
 -1       720 1.69210E-05-1.45117E-06 0.00000E+00
 -1       721 1.70404E-05-3.88014E-06-1.65436E-24
 -1       722 1.71595E-05-6.49152E-06 3.30872E-24
 -1       723 1.72785E-05-9.13176E-06 0.00000E+00
 -1       724 1.73978E-05-1.16474E-05-3.30872E-24
 -1       725 1.75176E-05-1.38846E-05 1.65436E-24
 -1       726 1.76381E-05-1.56879E-05 0.00000E+00
 -1       727 1.77587E-05-1.69005E-05 1.65436E-24
 -1       728 1.78796E-05-1.73619E-05-1.65436E-24
 -1       729 1.79967E-05-1.69095E-05 0.00000E+00
 -1       730 1.81138E-05-1.53752E-05 0.00000E+00
 -1       731 1.47212E-05 2.56404E-06 0.00000E+00
 -1       732 1.27298E-05 2.65026E-06-4.13590E-25
 -1       733 1.06199E-05 2.73571E-06 1.65436E-24
 -1       734 8.65169E-06 2.82332E-06 0.00000E+00
 -1       735 7.08627E-06 2.91172E-06 0.00000E+00
 -1       736 1.52107E-05 3.37795E-06-1.32349E-23
 -1       737 1.42258E-05 3.83232E-06 6.61744E-24
 -1       738 1.33979E-05 3.87296E-06 0.00000E+00
 -1       739 1.27136E-05 3.51870E-06-1.32349E-23
 -1       740 1.21626E-05 2.80833E-06 0.00000E+00
 -1       741 1.17278E-05 1.78549E-06 1.32349E-23
 -1       742 1.13883E-05 5.07530E-07 2.64698E-23
 -1       743 1.11210E-05-9.63872E-07-1.32349E-23
 -1       744 1.08998E-05-2.55871E-06 2.64698E-23
 -1       745 1.06979E-05-4.20474E-06 1.32349E-23
 -1       746 1.04874E-05-5.82767E-06 0.00000E+00
 -1       747 1.02413E-05-7.35333E-06-1.32349E-23
 -1       748 9.93290E-06-8.71209E-06 0.00000E+00
 -1       749 9.54075E-06-9.83593E-06 0.00000E+00
 -1       750 9.03867E-06-1.06697E-05-1.32349E-23
 -1       751 1.93068E-05-9.57403E-06 0.00000E+00
 -1       752 2.04738E-05-7.36384E-06-1.32349E-23
 -1       753 2.16387E-05-5.80011E-06 0.00000E+00
 -1       754 2.28158E-05-4.74449E-06 0.00000E+00
 -1       755 2.39940E-05-4.08921E-06 0.00000E+00
 -1       756 2.51745E-05-3.73786E-06 0.00000E+00
 -1       757 2.63555E-05-3.61236E-06 0.00000E+00
 -1       758 2.75369E-05-3.64109E-06 0.00000E+00
 -1       759 2.87183E-05-3.76172E-06 2.64698E-23
 -1       760 2.98994E-05-3.91453E-06 1.32349E-23
 -1       761 3.10803E-05-4.04177E-06-2.64698E-23
 -1       762 3.22594E-05-4.08494E-06 0.00000E+00
 -1       763 3.34379E-05-3.98048E-06 0.00000E+00
 -1       764 3.46072E-05-3.66061E-06 0.00000E+00
 -1       765 3.57791E-05-3.04465E-06 0.00000E+00
 -1       766 1.50804E-05-1.23703E-05-3.30872E-24
 -1       767 1.25926E-05-1.21252E-05 0.00000E+00
 -1       768 1.07099E-05-1.18805E-05-3.30872E-24
 -1       769 9.40271E-06-1.16335E-05 1.65436E-24
 -1       770 8.64876E-06-1.13846E-05 5.16988E-26
 -1       771 1.63007E-05-9.71352E-06 0.00000E+00
 -1       772 1.45361E-05-7.25721E-06-2.64698E-23
 -1       773 1.29143E-05-5.18878E-06 2.64698E-23
 -1       774 1.14260E-05-3.47879E-06 1.32349E-23
 -1       775 1.00611E-05-2.09768E-06 2.64698E-23
 -1       776 8.80860E-06-1.01569E-06 1.32349E-23
 -1       777 7.65738E-06-2.02928E-07-2.64698E-23
 -1       778 6.59609E-06 3.70666E-07 1.32349E-23
 -1       779 5.61338E-06 7.35253E-07 0.00000E+00
 -1       780 4.69786E-06 9.21156E-07 1.32349E-23
 -1       781 3.83812E-06 9.58768E-07 0.00000E+00
 -1       782 3.02287E-06 8.78632E-07 0.00000E+00
 -1       783 2.24083E-06 7.11359E-07 2.64698E-23
 -1       784 1.48157E-06 4.87909E-07 0.00000E+00
 -1       785 7.34990E-07 2.39386E-07-1.32349E-23
 -1       786 3.72995E-05-9.55564E-07 6.61744E-24
 -1       787 3.77204E-05-9.97105E-08-3.30872E-24
 -1       788 3.81405E-05 5.60537E-07 1.32349E-23
 -1       789 3.85643E-05 1.06019E-06 0.00000E+00
 -1       790 3.89884E-05 1.43267E-06 0.00000E+00
 -1       791 3.94132E-05 1.71052E-06 6.61744E-24
 -1       792 3.98381E-05 1.92532E-06 1.32349E-23
 -1       793 4.02632E-05 2.10822E-06 0.00000E+00
 -1       794 4.06883E-05 2.29002E-06 0.00000E+00
 -1       795 4.11133E-05 2.50156E-06 0.00000E+00
 -1       796 4.15382E-05 2.77394E-06 0.00000E+00
 -1       797 4.19627E-05 3.13870E-06 0.00000E+00
 -1       798 4.23869E-05 3.62831E-06 0.00000E+00
 -1       799 4.28086E-05 4.27610E-06 0.00000E+00
 -1       800 4.32307E-05 5.11700E-06 0.00000E+00
 -1       801 3.33437E-05-1.69629E-06 6.61744E-24
 -1       802 2.63166E-05-1.34866E-06 3.30872E-24
 -1       803 1.76473E-05-1.01368E-06 0.00000E+00
 -1       804 9.15535E-06-6.79885E-07 0.00000E+00
 -1       805 2.66183E-06-3.31319E-07 0.00000E+00
 -1       806 3.61830E-05-1.05514E-06 6.61744E-24
 -1       807 3.54927E-05-1.68711E-07 6.61744E-24
 -1       808 3.48306E-05 6.35219E-07 0.00000E+00
 -1       809 3.41915E-05 1.37421E-06 0.00000E+00
 -1       810 3.35697E-05 2.06574E-06 1.32349E-23
 -1       811 3.29591E-05 2.72716E-06-6.61744E-24
 -1       812 3.23533E-05 3.37578E-06 0.00000E+00
 -1       813 3.17457E-05 4.02890E-06 6.61744E-24
 -1       814 3.11299E-05 4.70383E-06-6.61744E-24
 -1       815 3.04994E-05 5.41785E-06 0.00000E+00
 -1       816 2.98478E-05 6.18825E-06-1.32349E-23
 -1       817 2.91688E-05 7.03233E-06 0.00000E+00
 -1       818 2.84559E-05 7.96737E-06-6.61744E-24
 -1       819 2.77037E-05 9.01079E-06 0.00000E+00
 -1       820 2.69071E-05 1.01801E-05 3.30872E-24
 -1       821 4.33600E-05 7.55673E-06 3.30872E-24
 -1       822 4.30653E-05 9.25467E-06-3.30872E-24
 -1       823 4.27708E-05 1.12526E-05-6.61744E-24
 -1       824 4.24730E-05 1.35202E-05 0.00000E+00
 -1       825 4.21744E-05 1.60257E-05 6.61744E-24
 -1       826 4.18748E-05 1.87358E-05 0.00000E+00
 -1       827 4.15747E-05 2.16160E-05 0.00000E+00
 -1       828 4.12741E-05 2.46308E-05 0.00000E+00
 -1       829 4.09732E-05 2.77439E-05 0.00000E+00
 -1       830 4.06722E-05 3.09184E-05-3.30872E-24
 -1       831 4.03712E-05 3.41171E-05 0.00000E+00
 -1       832 4.00706E-05 3.73027E-05 3.30872E-24
 -1       833 3.97704E-05 4.04377E-05 6.61744E-24
 -1       834 3.94726E-05 4.34852E-05-3.30872E-24
 -1       835 3.91747E-05 4.64087E-05 3.30872E-24
 -1       836 4.17192E-05 7.05478E-06 1.32349E-23
 -1       837 3.87076E-05 7.95230E-06 1.32349E-23
 -1       838 3.51245E-05 8.84603E-06-2.64698E-23
 -1       839 3.14819E-05 9.73849E-06 0.00000E+00
 -1       840 2.82906E-05 1.06346E-05-1.32349E-23
 -1       841 4.29665E-05 7.51681E-06 0.00000E+00
 -1       842 4.21462E-05 9.20897E-06 0.00000E+00
 -1       843 4.12015E-05 1.12329E-05-3.30872E-24
 -1       844 4.01436E-05 1.35512E-05 0.00000E+00
 -1       845 3.89890E-05 1.61256E-05-6.61744E-24
 -1       846 3.77525E-05 1.89156E-05-3.30872E-24
 -1       847 3.64503E-05 2.18790E-05 0.00000E+00
 -1       848 3.50987E-05 2.49730E-05 0.00000E+00
 -1       849 3.37145E-05 2.81531E-05 0.00000E+00
 -1       850 3.23145E-05 3.13748E-05-3.30872E-24
 -1       851 3.09158E-05 3.45932E-05-6.61744E-24
 -1       852 2.95356E-05 3.77631E-05 0.00000E+00
 -1       853 2.81906E-05 4.08401E-05 3.30872E-24
 -1       854 2.68981E-05 4.37803E-05-1.65436E-24
 -1       855 2.56733E-05 4.65404E-05-3.30872E-24
 -1       856 3.85622E-05 5.21635E-05 6.61744E-24
 -1       857 3.82177E-05 5.57490E-05 0.00000E+00
 -1       858 3.78720E-05 5.98592E-05 6.61744E-24
 -1       859 3.75219E-05 6.44213E-05-6.61744E-24
 -1       860 3.71699E-05 6.93589E-05 0.00000E+00
 -1       861 3.68160E-05 7.45933E-05 6.61744E-24
 -1       862 3.64608E-05 8.00438E-05 1.32349E-23
 -1       863 3.61049E-05 8.56281E-05 0.00000E+00
 -1       864 3.57487E-05 9.12629E-05 0.00000E+00
 -1       865 3.53927E-05 9.68649E-05-6.61744E-24
 -1       866 3.50374E-05 1.02351E-04 0.00000E+00
 -1       867 3.46834E-05 1.07638E-04 6.61744E-24
 -1       868 3.43310E-05 1.12645E-04 1.32349E-23
 -1       869 3.39819E-05 1.17293E-04 0.00000E+00
 -1       870 3.36343E-05 1.21506E-04-6.61744E-24
 -1       871 3.63711E-05 4.91590E-05 0.00000E+00
 -1       872 3.39397E-05 4.91445E-05 0.00000E+00
 -1       873 3.15685E-05 4.91298E-05-1.65436E-24
 -1       874 2.92295E-05 4.91146E-05 0.00000E+00
 -1       875 2.68947E-05 4.90987E-05-8.27181E-25
 -1       876 3.81665E-05 5.22850E-05-6.61744E-24
 -1       877 3.72572E-05 5.59386E-05 0.00000E+00
 -1       878 3.61739E-05 6.00484E-05 0.00000E+00
 -1       879 3.49483E-05 6.45414E-05 0.00000E+00
 -1       880 3.36045E-05 6.93462E-05 0.00000E+00
 -1       881 3.21684E-05 7.43950E-05-6.61744E-24
 -1       882 3.06643E-05 7.96227E-05 0.00000E+00
 -1       883 2.91166E-05 8.49655E-05 0.00000E+00
 -1       884 2.75488E-05 9.03608E-05 0.00000E+00
 -1       885 2.59845E-05 9.57467E-05 0.00000E+00
 -1       886 2.44473E-05 1.01061E-04 0.00000E+00
 -1       887 2.29608E-05 1.06241E-04 0.00000E+00
 -1       888 2.15495E-05 1.11222E-04 1.32349E-23
 -1       889 2.02355E-05 1.15938E-04-3.30872E-24
 -1       890 1.90489E-05 1.20321E-04 0.00000E+00
 -1       891 3.02848E-05 1.25056E-04 0.00000E+00
 -1       892 2.78858E-05 1.24902E-04-1.65436E-24
 -1       893 2.57800E-05 1.24750E-04 0.00000E+00
 -1       894 2.36447E-05 1.24598E-04-1.65436E-24
 -1       895 2.11574E-05 1.24444E-04 0.00000E+00
 -1       896 3.83813E-07 1.41372E-06 1.32349E-23
 -1       897 7.71123E-07 2.44901E-06 0.00000E+00
 -1       898 1.15855E-06 3.16112E-06 0.00000E+00
 -1       899 1.54668E-06 3.60230E-06 6.61744E-24
 -1       900 1.93491E-06 3.81946E-06 0.00000E+00
 -1       901 2.32326E-06 3.85745E-06 6.61744E-24
 -1       902 2.71163E-06 3.75757E-06 1.32349E-23
 -1       903 3.09998E-06 3.55984E-06-6.61744E-24
 -1       904 3.48831E-06 3.30236E-06 0.00000E+00
 -1       905 3.87654E-06 3.02266E-06-6.61744E-24
 -1       906 4.26470E-06 2.75786E-06-1.32349E-23
 -1       907 4.65245E-06 2.54518E-06-6.61744E-24
 -1       908 5.04008E-06 2.42290E-06 0.00000E+00
 -1       909 5.42552E-06 2.43013E-06-6.61744E-24
 -1       910 5.81159E-06 2.60850E-06 0.00000E+00
 -1       911 6.32529E-06 3.29342E-06 0.00000E+00
 -1       912 6.46748E-06 3.17618E-06-1.65436E-24
 -1       913 6.60946E-06 2.70714E-06-3.30872E-24
 -1       914 6.75166E-06 1.94272E-06-1.65436E-24
 -1       915 6.89368E-06 9.37207E-07-3.30872E-24
 -1       916 7.03557E-06-2.55936E-07 0.00000E+00
 -1       917 7.17731E-06-1.58458E-06 3.30872E-24
 -1       918 7.31893E-06-2.99709E-06 0.00000E+00
 -1       919 7.46048E-06-4.44242E-06 3.30872E-24
 -1       920 7.60195E-06-5.86960E-06 0.00000E+00
 -1       921 7.74342E-06-7.22761E-06-3.30872E-24
 -1       922 7.88453E-06-8.46513E-06 0.00000E+00
 -1       923 8.02567E-06-9.52998E-06 0.00000E+00
 -1       924 8.16438E-06-1.03694E-05-8.27181E-25
 -1       925 8.30403E-06-1.09291E-05 0.00000E+00
 -1       926 7.91586E-06-1.10875E-05 0.00000E+00
 -1       927 7.38989E-06-1.08077E-05 0.00000E+00
 -1       928 6.86453E-06-1.03346E-05 0.00000E+00
 -1       929 6.33679E-06-9.69104E-06 0.00000E+00
 -1       930 5.80882E-06-8.90427E-06 0.00000E+00
 -1       931 5.28033E-06-8.00345E-06 6.61744E-24
 -1       932 4.75168E-06-7.02069E-06-1.32349E-23
 -1       933 4.22289E-06-5.98918E-06-6.61744E-24
 -1       934 3.69408E-06-4.94340E-06 1.32349E-23
 -1       935 3.16529E-06-3.91799E-06-6.61744E-24
 -1       936 2.63656E-06-2.94707E-06-1.32349E-23
 -1       937 2.10804E-06-2.06407E-06-6.61744E-24
 -1       938 1.57964E-06-1.30007E-06-1.32349E-23
 -1       939 1.05196E-06-6.84659E-07-6.61744E-24
 -1       940 5.24197E-07-2.43497E-07 0.00000E+00
 -1       941 1.54530E-06 1.94262E-07 0.00000E+00
 -1       942 3.17579E-06 4.85764E-07 1.32349E-23
 -1       943 4.80186E-06 8.56924E-07 0.00000E+00
 -1       944 6.44318E-06 1.29339E-06 0.00000E+00
 -1       945 8.08540E-06 1.78629E-06 0.00000E+00
 -1       946 9.73055E-06 2.32901E-06-2.64698E-23
 -1       947 1.13762E-05 2.91913E-06 5.29396E-23
 -1       948 1.30222E-05 3.55611E-06 0.00000E+00
 -1       949 1.46683E-05 4.24341E-06-5.29396E-23
 -1       950 1.63140E-05 4.98645E-06 2.64698E-23
 -1       951 1.79592E-05 5.79537E-06 0.00000E+00
 -1       952 1.96020E-05 6.68295E-06 2.64698E-23
 -1       953 2.12439E-05 7.66861E-06-5.29396E-23
 -1       954 2.28732E-05 8.77563E-06-1.32349E-23
 -1       955 2.45059E-05 1.00376E-05 0.00000E+00
 -1       956 2.59752E-05 1.31820E-05 1.65436E-24
 -1       957 2.58808E-05 1.50182E-05 0.00000E+00
 -1       958 2.57858E-05 1.69910E-05 2.48154E-24
 -1       959 2.56904E-05 1.90872E-05-4.13590E-25
 -1       960 2.55948E-05 2.12939E-05 8.27181E-25
 -1       961 2.54989E-05 2.35979E-05-1.37002E-24
 -1       962 2.54028E-05 2.59859E-05-2.06795E-24
 -1       963 2.53066E-05 2.84448E-05-1.65436E-24
 -1       964 2.52103E-05 3.09614E-05-3.30872E-24
 -1       965 2.51138E-05 3.35223E-05-1.65436E-24
 -1       966 2.50173E-05 3.61143E-05-3.30872E-24
 -1       967 2.49207E-05 3.87244E-05 0.00000E+00
 -1       968 2.48242E-05 4.13390E-05 0.00000E+00
 -1       969 2.47278E-05 4.39452E-05-1.65436E-24
 -1       970 2.46315E-05 4.65298E-05 0.00000E+00
 -1       971 2.41473E-05 5.18791E-05-6.61744E-24
 -1       972 2.37434E-05 5.52769E-05 6.61744E-24
 -1       973 2.33382E-05 5.92085E-05 1.32349E-23
 -1       974 2.29289E-05 6.36053E-05 0.00000E+00
 -1       975 2.25177E-05 6.83942E-05 1.32349E-23
 -1       976 2.21045E-05 7.34996E-05 0.00000E+00
 -1       977 2.16901E-05 7.88432E-05 1.32349E-23
 -1       978 2.12748E-05 8.43446E-05 0.00000E+00
 -1       979 2.08590E-05 8.99224E-05 0.00000E+00
 -1       980 2.04434E-05 9.54944E-05 0.00000E+00
 -1       981 2.00284E-05 1.00979E-04 1.32349E-23
 -1       982 1.96147E-05 1.06293E-04-6.61744E-24
 -1       983 1.92024E-05 1.11359E-04 1.32349E-23
 -1       984 1.87942E-05 1.16097E-04 6.61744E-24
 -1       985 1.83872E-05 1.20433E-04 6.61744E-24
 -3
    1PSTEP                         2           1           1          
  100CL  101 1.000000000         841                     0    1           1
 -4  STRESS      6    1
 -5  SXX         1    4    1    1
 -5  SYY         1    4    2    2
 -5  SZZ         1    4    3    3
 -5  SXY         1    4    1    2
 -5  SYZ         1    4    2    3
 -5  SZX         1    4    3    1
 -1         1-3.53875E+06-1.09215E+06-6.71789E+05-1.04422E+06-6.79089E-11-8.29459E-09
 -1         2-2.32229E+06-5.69719E+04 3.19597E+03-2.21870E+05-5.31600E-10 7.25686E-09
 -1         3-1.16575E+06-6.78543E+05 1.91899E+04-1.12196E+05-1.34969E-09-4.02724E-09
 -1         4-4.71254E+05-1.80364E+05 5.64646E+02-5.80403E+04-1.39323E-10 1.22714E-09
 -1         5-1.41721E+05 4.19238E+05-1.55831E+05-1.74157E+04 2.68483E-09-5.96970E-09
 -1         8-2.01680E+06-8.14598E+05-3.29975E+05-9.17276E+05-3.56522E-10 7.31961E-09
 -1         9-2.28240E+06-4.96267E+05-3.48916E+05-5.36252E+05-8.82816E-10-6.64537E-09
 -1        10-1.25744E+06-9.95451E+05 1.15676E+04-3.57484E+05 4.22991E-10-5.92627E-09
 -1        11-6.41944E+05-2.76264E+05 9.94435E+01-1.87582E+05 1.76351E-09 3.18020E-10
 -1        12-2.93735E+05 3.63482E+05-1.88262E+05-8.86170E+04 6.53631E-09 1.02375E-10
 -1        15 5.35911E+03-6.46836E+04 3.61993E+03-2.62083E+05 1.07320E-10 6.18456E-10
 -1        16-1.39193E+06-3.92385E+05-2.00266E+05-5.79472E+05 1.10716E-09 1.18356E-09
 -1        17-8.97684E+05-7.87668E+05-1.71356E+05-5.12888E+05 2.16217E-09 2.56841E-09
 -1        18-2.92410E+05-2.26564E+05-1.24566E+05-3.41980E+05 5.91899E-09-1.49400E-09
 -1        19-5.91801E+04 1.76270E+05-8.98799E+04-1.06815E+05 7.60641E-10-3.92962E-09
 -1        20 2.25891E+05-1.48282E+05-1.51492E+04 1.09513E+05 9.06311E-09 1.43882E-09
 -1        21-3.33965E+04-3.59229E+05 1.52175E+04 1.50850E+04 4.28245E-08-1.44796E-09
 -1        22 4.18817E+04 2.33003E+05 1.33234E+03-5.29794E+04 1.55524E-10-2.32649E-09
 -1        23-4.28567E+05-2.80323E+04 3.21921E+03-2.50240E+05-8.60988E-10-4.46259E-10
 -1        24-3.12711E+05-3.13058E+04 1.63091E+05-4.95860E+05-1.67226E-09-1.76078E-09
 -1        25 6.77981E+05 3.32626E+05 2.42922E+05-3.49062E+05-1.42548E-09-1.12292E-09
 -1        26 5.13504E+04 4.76658E+05 5.75461E+04-9.34483E+04 7.50939E-10 6.97886E-10
 -1        27-1.37307E+05-1.43626E+05-6.49873E+04 1.17232E+05 9.55454E-09-1.09139E-09
 -1        28-4.02229E+04-2.49913E+05-2.19560E+03 1.10285E+05 3.12702E-08-1.11445E-09
 -1        29 5.33567E+05 3.71481E+05 1.44587E+03-2.64972E+04-1.53399E-10-2.50020E-09
 -1        30 2.14798E+05 4.92800E+04 2.03299E+03-6.79076E+04 1.40302E-10-5.85715E-10
 -1        31-6.56842E+05 5.56003E+04 4.21397E+03-1.45825E+05-3.12410E-10 1.29694E-09
 -1        32 5.50634E+05 5.30657E+05 4.68080E+05-3.59204E+05-3.54447E-10 4.29281E-09
 -1        33 1.14230E+06 9.07342E+05 4.48276E+05-1.14786E+05-1.60669E-09-1.78716E-09
 -1        34-4.56758E+05-9.70067E+04-6.62466E+04 2.14539E+04 1.28160E-08-3.33421E-09
 -1        35-5.46044E+04-7.93416E+04-1.76415E+03 1.54445E+05 2.21109E-08 1.34848E-09
 -1        36-5.01978E+06 1.28761E+05-3.37869E+05 5.81349E-09-1.33269E-09-8.81846E-09
 -1        37-5.15932E+06-1.51019E+05-2.32870E+05 1.10302E-07 1.20887E-09-6.46469E-09
 -1        38-5.07485E+06 1.80601E+04-8.75926E+04-9.76418E-08 7.41275E-11 3.13230E-09
 -1        39-5.09556E+06-2.11148E+04-5.30228E+04 1.63120E-08-8.30823E-10 3.77258E-09
 -1        40-5.08304E+06 2.53009E+03-2.24544E+04-2.19391E-08 8.10808E-10 6.89397E-10
 -1        41-5.08597E+06-2.97166E+03-1.29410E+04 2.09785E-08-3.47972E-09 7.67318E-09
 -1        42-5.08428E+06 3.85614E+02-6.56186E+03 3.88483E-08 8.25837E-10-3.69050E-09
 -1        43-5.08464E+06-6.89882E+02-5.10235E+03 1.45894E-07-9.60235E-10 9.92593E-09
 -1        44-5.08434E+06 2.98185E+02-5.35442E+03-9.97095E-08 1.30484E-09 5.82168E-09
 -1        45-5.08546E+06-2.14068E+03-9.56345E+03-1.72984E-07-1.30640E-09-6.76835E-09
 -1        46-5.08348E+06 1.80296E+03-1.61435E+04 1.03480E-08-4.95791E-10-1.02227E-09
 -1        47-5.09226E+06-1.50231E+04-3.78050E+04 9.43271E-09 1.38075E-09-3.34694E-10
 -1        48-5.07766E+06 1.28466E+04-6.23560E+04 3.49539E-08 1.63117E-10 2.86309E-09
 -1        49-5.13761E+06-1.07427E+05-1.65675E+05 1.64689E-07-1.41990E-09 6.38829E-09
 -1        50-5.03852E+06 9.15814E+04-2.40449E+05-6.85404E-08-2.47176E-09 1.05210E-08
 -1        51 4.88116E+04-4.41148E+05 8.87691E+04-1.29565E+06-8.73115E-11-4.45289E-09
 -1        52 2.26452E+04-4.35206E+05 5.15402E+04-1.45472E+06 1.89175E-10 2.81580E-09
 -1        53 1.37020E+04-4.55833E+05 3.59332E+04-1.29160E+06 4.36557E-10-2.32831E-10
 -1        54 3.02315E+04-4.54639E+05 4.80998E+04-1.45884E+06-2.18279E-10-9.29140E-09
 -1        55 6.02350E+04-4.71429E+05 8.14769E+04-1.29077E+06-4.94765E-10-7.10133E-09
 -1        56-5.25079E+06-5.97273E+05-4.06196E+05-2.02214E+06 3.63798E-10-2.06637E-09
 -1        57-5.41117E+06-9.58972E+05-2.72584E+05-2.00914E+06 2.83399E-09-3.28873E-09
 -1        58-5.33335E+06-7.21888E+05-9.55394E+04-1.99546E+06 3.85626E-10-7.82529E-09
 -1        59-5.31596E+06-8.11770E+05-5.66451E+04-2.04068E+06-2.67619E-10-5.02951E-10
 -1        60-5.34480E+06-7.39289E+05-2.23165E+04-1.99234E+06 6.60748E-10-8.36735E-10
 -1        61-5.30606E+06-7.87745E+05-1.26417E+04-2.04006E+06-2.02817E-09-7.06598E-09
 -1        62-5.34287E+06-7.45332E+05-6.29505E+03-1.99617E+06 4.03361E-10-6.76769E-09
 -1        63-5.31419E+06-7.75174E+05-5.31604E+03-2.02850E+06-2.94949E-09 1.29975E-08
 -1        64-5.33637E+06-7.51958E+05-6.56620E+03-2.00373E+06-9.18590E-10-8.50378E-10
 -1        65-5.33018E+06-7.63300E+05-1.31966E+04-2.01142E+06 9.04265E-10-1.14287E-08
 -1        66-5.32677E+06-7.57385E+05-2.36325E+04-2.01312E+06-1.16643E-09 1.98270E-09
 -1        67-5.35934E+06-7.69911E+05-5.96741E+04-1.99070E+06-7.85008E-10 1.46101E-08
 -1        68-5.30758E+06-7.45976E+05-1.00866E+05-2.02434E+06 3.54703E-10 1.43336E-09
 -1        69-5.46816E+06-9.17519E+05-2.87619E+05-1.94919E+06 3.61251E-09 6.47560E-10
 -1        70-5.21962E+06-6.14968E+05-4.28509E+05-2.05306E+06-2.25555E-09 1.22236E-09
 -1        71-2.27978E+06-4.05079E+03 1.06611E+04 2.52066E-08-1.20527E-12 6.52471E-09
 -1        72-2.27517E+06 4.75334E+03 7.33636E+03 1.28506E-08-1.12496E-09-4.94242E-09
 -1        73-2.27805E+06-5.68147E+02 2.75607E+03-3.68086E-08-6.50893E-11-8.46057E-10
 -1        74-2.27718E+06 6.63699E+02 1.65396E+03 4.24352E-08 5.67823E-11-2.73963E-09
 -1        75-2.27779E+06-7.88766E+01 6.71070E+02 3.10170E-08-2.83677E-10-4.13976E-09
 -1        76-2.27748E+06 8.74576E+01 3.27849E+02 4.79354E-08-7.47127E-10 1.60554E-09
 -1        77-2.27774E+06-6.74619E+00 5.17629E+01-1.75834E-08-3.65921E-12 5.20743E-10
 -1        78-2.27755E+06-2.31931E+01-1.72677E+02 1.67029E-08-5.31118E-10-2.19882E-09
 -1        79-2.27772E+06 2.97365E+01-4.55035E+02-5.37191E-10 4.51131E-10-3.53481E-09
 -1        80-2.27769E+06-2.59362E+02-1.08836E+03-4.02791E-08 2.35696E-10 9.63956E-09
 -1        81-2.27760E+06 2.24570E+02-1.97509E+03-3.31177E-08-2.99718E-10 2.33194E-09
 -1        82-2.27855E+06-1.87905E+03-4.71810E+03-2.61435E-08-7.56746E-10 3.13474E-09
 -1        83-2.27687E+06 1.60741E+03-7.81494E+03-1.59372E-08-3.91652E-11 3.03316E-09
 -1        84-2.28422E+06-1.34466E+04-2.07621E+04 6.97937E-08-5.99500E-10 3.00747E-09
 -1        85-2.27195E+06 1.14596E+04-3.01567E+04 1.21925E-08 1.80861E-10 1.87356E-09
 -1        86-1.11153E+05 7.96338E+05 2.98666E+05-5.99690E+03 4.51109E-10-2.78078E-09
 -1        87 1.39331E+05 9.22954E+05 2.24335E+05 7.10567E+04-5.02041E-10-1.11384E-08
 -1        88-2.44256E+04 8.39241E+05 1.17247E+05-7.27562E+03 1.59707E-09 7.04358E-09
 -1        89 9.25019E+04 9.01531E+05 1.59158E+05 7.48961E+04-1.19417E-09 1.00254E-08
 -1        90-6.62079E+04 8.18450E+05 1.82883E+05-9.82978E+03 3.83443E-09-4.26189E-09
 -1        91-2.63807E+06-3.50644E+05-5.28579E+04-9.94948E+05-1.05501E-10-4.00178E-09
 -1        92-2.65227E+06-4.06269E+05-3.57560E+04-1.00063E+06 3.43698E-09-2.75259E-09
 -1        93-2.64973E+06-3.66667E+05-1.24279E+04-9.90361E+05 2.33206E-09 8.91532E-09
 -1        94-2.63851E+06-3.87766E+05-7.46847E+03-1.00635E+06 1.16258E-09-6.48470E-10
 -1        95-2.65173E+06-3.68659E+05-2.90940E+03-9.89398E+05-1.74578E-09-1.58832E-09
 -1        96-2.63672E+06-3.84905E+05-1.67835E+03-1.00686E+06 2.16266E-09-9.48752E-09
 -1        97-2.65151E+06-3.69466E+05-8.31044E+02-9.89876E+05 1.64698E-09 3.47896E-10
 -1        98-2.63820E+06-3.82801E+05-7.31468E+02-1.00486E+06-1.66438E-10 8.52654E-09
 -1        99-2.65022E+06-3.70774E+05-9.10392E+02-9.91381E+05-6.04132E-10 6.25141E-09
 -1       100-2.64161E+06-3.79989E+05-1.86642E+03-1.00106E+06 9.47921E-10-1.05769E-08
 -1       101-2.64806E+06-3.72310E+05-3.31888E+03-9.93646E+05-1.21111E-09 1.94655E-09
 -1       102-2.64773E+06-3.79131E+05-8.45929E+03-9.95760E+05-6.88033E-10 8.24684E-10
 -1       103-2.64410E+06-3.71716E+05-1.41406E+04-9.96645E+05-3.24462E-10-2.13731E-10
 -1       104-2.66575E+06-3.97861E+05-4.06248E+04-9.86695E+05-1.39062E-09 1.12918E-08
 -1       105-2.63018E+06-3.54108E+05-6.00710E+04-1.00254E+06-6.52108E-10 4.52565E-09
 -1       106-9.83753E+05-3.30248E+04 8.70102E+04-7.10497E-08-8.18878E-10-1.82263E-09
 -1       107-9.47700E+05 3.87578E+04 5.98848E+04-3.63666E-08 2.77989E-10-1.44155E-09
 -1       108-9.69577E+05-4.63233E+03 2.25571E+04-9.47542E-08 1.47849E-10 1.02227E-09
 -1       109-9.64045E+05 5.41564E+03 1.36188E+04-8.17730E-08-1.42975E-09-2.58137E-09
 -1       110-9.67453E+05-6.47229E+02 5.70711E+03-5.54607E-08-5.45449E-11-1.27216E-09
 -1       111-9.66510E+05 7.47905E+02 3.14959E+03-4.56648E-08 2.52026E-10-1.38567E-09
 -1       112-9.67120E+05-8.60973E+01 1.32675E+03-2.48295E-08 2.29323E-10 1.69905E-09
 -1       113-9.66917E+05 7.02057E+01 5.24297E+02 2.99030E-08-1.11255E-12 1.14858E-09
 -1       114-9.67048E+05 1.65051E+01-1.02304E+02 6.78409E-08-6.35907E-10-9.28992E-10
 -1       115-9.67106E+05-2.27513E+02-8.41979E+02 5.08897E-08 4.11124E-10-3.26679E-09
 -1       116-9.66933E+05 2.06193E+02-1.75083E+03-8.98105E-09 1.00910E-10 7.46024E-09
 -1       117-9.67907E+05-1.73626E+03-4.32889E+03 4.51333E-08-9.42422E-10-5.68036E-10
 -1       118-9.66250E+05 1.48639E+03-7.21790E+03 5.33458E-08 2.10401E-10 1.98679E-09
 -1       119-9.73154E+05-1.24369E+04-1.92064E+04 2.77502E-08-4.06006E-10-2.64413E-09
 -1       120-9.61695E+05 1.05991E+04-2.79037E+04 3.52604E-08-1.41444E-10-1.53523E-09
 -1       121 2.59378E+04-2.77196E+06-7.82501E+04 1.95041E+03-2.00089E-10 2.04500E-09
 -1       122-3.30489E+04-2.80328E+06-5.73541E+04 6.38185E+04 2.89219E-10 3.66344E-09
 -1       123 5.09741E+03-2.78319E+06-3.04099E+04 3.15579E+03-5.68434E-10-2.51384E-09
 -1       124-2.13027E+04-2.79674E+06-3.96605E+04 5.97989E+04 1.71440E-09-2.13549E-09
 -1       125 1.46622E+04-2.77813E+06-4.65914E+04 5.96736E+03-2.11548E-09 2.12731E-09
 -1       126-1.26785E+06-1.92661E+05 4.28298E+04-4.68035E+05-1.26420E-10 2.20643E-09
 -1       127-1.24125E+06-1.62235E+05 2.89825E+04-4.80140E+05 1.94177E-10 7.77982E-09
 -1       128-1.25967E+06-1.78377E+05 1.00638E+04-4.70251E+05 7.28278E-10 3.51520E-10
 -1       129-1.25070E+06-1.78967E+05 6.03021E+03-4.77537E+05 4.30731E-10 2.72462E-09
 -1       130-1.25848E+06-1.76307E+05 2.30332E+03-4.70509E+05 1.30353E-09-3.40412E-09
 -1       131-1.25219E+06-1.81279E+05 1.23036E+03-4.77106E+05 2.09181E-09 1.42586E-09
 -1       132-1.25819E+06-1.76115E+05 4.10273E+02-4.70665E+05-5.83299E-10 3.75712E-09
 -1       133-1.25279E+06-1.81305E+05-3.56607E+00-4.76639E+05 4.26496E-10 2.88946E-09
 -1       134-1.25788E+06-1.76291E+05-4.23813E+02-4.70970E+05-4.24052E-11 4.95561E-09
 -1       135-1.25368E+06-1.81045E+05-1.25008E+03-4.75836E+05 3.73120E-10 2.37878E-09
 -1       136-1.25730E+06-1.76386E+05-2.34785E+03-4.71461E+05-8.68738E-10 5.28848E-09
 -1       137-1.25602E+06-1.82556E+05-6.12884E+03-4.74428E+05 3.51179E-10 2.55795E-09
 -1       138-1.25554E+06-1.74835E+05-1.02431E+04-4.72357E+05 3.19119E-10 1.87356E-09
 -1       139-1.26696E+06-1.98238E+05-2.94741E+04-4.70240E+05 1.66722E-09-3.33102E-09
 -1       140-1.24643E+06-1.61092E+05-4.35625E+04-4.75508E+05 2.47383E-09-2.34650E-10
 -1       141-2.75349E+05-1.30741E+04 3.44413E+04-9.99228E-08 4.24292E-11 2.30830E-09
 -1       142-2.61079E+05 1.53426E+04 2.37011E+04-2.94295E-08 2.56734E-10 1.01863E-10
 -1       143-2.69728E+05-1.83349E+03 8.90802E+03 5.33476E-08 5.06566E-10 2.14368E-09
 -1       144-2.67551E+05 2.14159E+03 5.33825E+03-1.15208E-08-2.27474E-10 1.57434E-09
 -1       145-2.68883E+05-2.54132E+02 2.15082E+03-3.86008E-08-1.40883E-10-3.86081E-10
 -1       146-2.68540E+05 2.78904E+02 1.01608E+03-1.73860E-08-1.30139E-10 1.31411E-09
 -1       147-2.68739E+05-1.88065E+01 8.10084E+01-4.84248E-08-2.16562E-10-1.58082E-10
 -1       148-2.68780E+05-9.95372E+01-7.44553E+02 1.29200E-08 7.20785E-10 7.38112E-11
 -1       149-2.68644E+05 1.17479E+02-1.81980E+03 2.33819E-08-5.03553E-10 2.52135E-09
 -1       150-2.69331E+05-1.01675E+03-4.29191E+03 5.99630E-08 5.04181E-10-5.24778E-10
 -1       151-2.68190E+05 8.79500E+02-7.76623E+03-1.41762E-08-1.55150E-10-3.85262E-09
 -1       152-2.72679E+05-7.35867E+03-1.85200E+04-6.50420E-08 1.45758E-10 6.45787E-09
 -1       153-2.65297E+05 6.29480E+03-3.06661E+04 1.26468E-08 6.21371E-10-3.28146E-09
 -1       154-2.94880E+05-5.26642E+04-8.13943E+04-9.89767E-08-3.51918E-10-3.26054E-09
 -1       155-2.45978E+05 4.48850E+04-1.18160E+05 4.22324E-09 2.18902E-09-1.35333E-09
 -1       156-1.21027E+03-6.24502E+05 4.03397E+03-8.40631E+02 1.25056E-11-5.39444E-10
 -1       157 2.82086E+03-6.22301E+05 5.78356E+03 1.08820E+04 9.23137E-11-2.45336E-09
 -1       158-1.55074E+03-6.24725E+05 7.42383E+03-5.59062E+02 1.32559E-10 7.20172E-09
 -1       159 1.18925E+04-6.17798E+05 1.85125E+04 1.01989E+04 3.21279E-10 5.04315E-09
 -1       160-1.00382E+04-6.28973E+05 2.64643E+04-1.57140E+02 2.52840E-10 5.63205E-10
 -1       161-6.55823E+05-8.89797E+04-8.05268E+03-2.46597E+05-8.99490E-10-2.67073E-09
 -1       162-6.55963E+05-9.94586E+04-5.45727E+03-2.49765E+05 1.03840E-09 2.27692E-09
 -1       163-6.57455E+05-9.15678E+04-1.91500E+03-2.46072E+05-6.54268E-11-3.19915E-10
 -1       164-6.54096E+05-9.64172E+04-1.18431E+03-2.50369E+05 5.77245E-11-2.75406E-10
 -1       165-6.57680E+05-9.19496E+04-5.34932E+02-2.46019E+05 7.36776E-10-2.17014E-09
 -1       166-6.53913E+05-9.59285E+04-4.59247E+02-2.50356E+05 4.54349E-10-4.20044E-10
 -1       167-6.57635E+05-9.20481E+04-5.25210E+02-2.46087E+05 2.60712E-10-1.96516E-09
 -1       168-6.54168E+05-9.58477E+04-1.03205E+03-2.50135E+05 3.76133E-10 1.31797E-09
 -1       169-6.57422E+05-9.20333E+04-1.88340E+03-2.46239E+05-4.40593E-10-5.74585E-09
 -1       170-6.55203E+05-9.67061E+04-4.50475E+03-2.49633E+05 5.90390E-11 8.77662E-09
 -1       171-6.56600E+05-9.12130E+04-8.11000E+03-2.46579E+05 7.81824E-10 1.13369E-09
 -1       172-6.60597E+05-1.04447E+05-2.09963E+04-2.47836E+05 1.17120E-09-7.55585E-09
 -1       173-6.52055E+05-8.44659E+04-3.49855E+04-2.47970E+05-1.37197E-09-3.13048E-09
 -1       174-6.94831E+05-1.61064E+05-1.00648E+05-2.37097E+05 1.98906E-09-1.45519E-09
 -1       175-6.22554E+05-3.58985E+04-1.48625E+05-2.56830E+05 4.93674E-09-1.74623E-10
 -1       191 7.33386E+03 1.17799E+06 1.34922E+04-3.24294E+04 7.56700E-10 1.08703E-08
 -1       192 2.44373E+03 1.18026E+06 8.18177E+03-3.53503E+04 9.27457E-10 2.78014E-08
 -1       193 8.78535E+02 1.17867E+06 6.62509E+03-3.18833E+04 2.17483E-09 4.63842E-09
 -1       194 3.38136E+03 1.18051E+06 1.00611E+04-3.63521E+04 2.12458E-09-7.44694E-09
 -1       195 1.02795E+04 1.17742E+06 1.81360E+04-3.13992E+04 3.24508E-09-2.31375E-09
 -1       251-2.15800E+06 3.30696E+04-8.84456E+04-5.08930E+03 1.81899E-11 5.92263E-09
 -1       252-2.19100E+06-3.94635E+04-6.03302E+04-4.44099E+04 1.63709E-11-6.94217E-09
 -1       253-2.17208E+06 4.49664E+03-2.30759E+04 2.67792E+03 8.62201E-10 1.04228E-09
 -1       254-2.17571E+06-5.51543E+03-1.36776E+04-5.77933E+04 3.49019E-10 3.63730E-09
 -1       255-2.17391E+06 5.73524E+02-5.98514E+03 8.28531E+03 7.10770E-10 1.18507E-09
 -1       256-2.17430E+06-5.66424E+02-3.41040E+03-6.63289E+04 1.28136E-09-7.18251E-09
 -1       257-2.17403E+06 7.86192E+01-1.87413E+03 1.12136E+04 7.50333E-12 4.51533E-09
 -1       258-2.17440E+06 8.38658E+01-1.66799E+03-6.91796E+04-1.19821E-09-2.79346E-09
 -1       259-2.17403E+06 8.90118E+01-2.04148E+03 1.11367E+04-6.63931E-11-3.92379E-09
 -1       260-2.17433E+06-6.89191E+02-3.86732E+03-6.60361E+04-1.05729E-10-2.51595E-09
 -1       261-2.17386E+06 6.68180E+02-6.85289E+03 8.06934E+03 1.17871E-09 1.94177E-10
 -1       262-2.17609E+06-6.35755E+03-1.57464E+04-5.72327E+04-9.27685E-10 6.89397E-09
 -1       263-2.17171E+06 5.19918E+03-2.65259E+04 2.33337E+03-3.69255E-10-2.82853E-09
 -1       264-2.19390E+06-4.54009E+04-6.94761E+04-4.36227E+04-3.75121E-09 2.17733E-09
 -1       265-2.15546E+06 3.81153E+04-1.01738E+05-5.53071E+03-3.66072E-09-1.17143E-09
 -1       266-2.68825E+04-4.55153E+05 6.39143E+04 3.29232E+04 2.00089E-10-4.38922E-09
 -1       267 3.47228E+04-4.29342E+05 4.17860E+04-3.56436E+05-3.63798E-12-1.36038E-09
 -1       268-2.15764E+03-4.40558E+05 8.99240E+03 3.46550E+04-6.00267E-11-3.65034E-09
 -1       269-3.19800E+03-4.48702E+05-1.16033E+04-3.56727E+05 1.98042E-10-1.33150E-09
 -1       270 1.01971E+04-4.36176E+05-2.99532E+04 3.32143E+04-2.78305E-10 1.05447E-08
 -1       271-5.80689E+06-6.85514E+05-4.75115E+05-2.26930E+06-1.73895E-09-4.39468E-09
 -1       272-6.02418E+06-1.05377E+06-3.15266E+05-2.21649E+06-4.14730E-10-3.49974E-09
 -1       273-5.90722E+06-8.19128E+05-1.11992E+05-2.23433E+06-6.77574E-10-3.33239E-09
 -1       274-5.90212E+06-9.01040E+05-6.51955E+04-2.26643E+06 1.80751E-09 3.98722E-09
 -1       275-5.92743E+06-8.29925E+05-2.61843E+04-2.22238E+06 1.47088E-09-1.91903E-09
 -1       276-5.87615E+06-8.90926E+05-1.45715E+04-2.28438E+06-2.07410E-09-3.66322E-09
 -1       277-5.93338E+06-8.27904E+05-7.31287E+03-2.21705E+06-8.80163E-10-7.54653E-10
 -1       278-5.87055E+06-8.92559E+05-6.26072E+03-2.28972E+06-1.07764E-09-2.45677E-09
 -1       279-5.93322E+06-8.28039E+05-7.64252E+03-2.21723E+06 2.07137E-10-4.65070E-09
 -1       280-5.87688E+06-8.90575E+05-1.55183E+04-2.28365E+06 2.10048E-09-5.01859E-09
 -1       281-5.92683E+06-8.30170E+05-2.80112E+04-2.22290E+06 1.47111E-09 2.29193E-09
 -1       282-5.90440E+06-9.01801E+05-6.98521E+04-2.26489E+06 1.11532E-09 3.53521E-09
 -1       283-5.90553E+06-8.18225E+05-1.19985E+05-2.23530E+06 4.17458E-10 3.42698E-09
 -1       284-6.03426E+06-1.06648E+06-3.37848E+05-2.21258E+06 2.03727E-10-1.46611E-09
 -1       285-5.79864E+06-6.74356E+05-5.09032E+05-2.27200E+06-3.79077E-09 5.35510E-09
 -1       286-1.07166E+06 7.10673E+02-3.19911E+03-1.02419E+03 4.30100E-09-3.11320E-09
 -1       287-1.06960E+06-1.47730E+03-1.62954E+03-4.23321E+04 2.95904E-09 5.37062E-09
 -1       288-1.07183E+06-3.24611E+01-9.13158E+02 2.70157E+03-1.00590E-09-7.15460E-10
 -1       289-1.07021E+06-2.37333E+02-2.13724E+02-4.88327E+04 1.24078E-09-3.84870E-09
 -1       290-1.07165E+06-7.07434E+01-1.63978E+02 5.47184E+03 1.04046E-09-3.69462E-09
 -1       291-1.07104E+06 1.32912E+02 2.04358E+02-5.33149E+04 4.30350E-09 1.16910E-09
 -1       292-1.07149E+06-4.88819E+01 3.95756E+02 7.18325E+03 2.85536E-09-2.98648E-09
 -1       293-1.07146E+06 3.90859E+02 9.71415E+02-5.55887E+04 1.37942E-09 8.89541E-09
 -1       294-1.07150E+06-1.33054E+02 1.83501E+03 7.74634E+03 2.99749E-09 1.23237E-10
 -1       295-1.07095E+06 1.21880E+03 4.09857E+03-5.55319E+04 3.08705E-09-3.01452E-09
 -1       296-1.07199E+06-8.64361E+02 7.28624E+03 7.12652E+03 1.96405E-09-2.86536E-09
 -1       297-1.06727E+06 7.04303E+03 1.74473E+04-5.31448E+04 3.83079E-09-8.11269E-10
 -1       298-1.07488E+06-6.00487E+03 2.86539E+04 5.35887E+03 9.45874E-11 1.36424E-10
 -1       299-1.04548E+06 4.93868E+04 7.65144E+04-4.85683E+04-1.73418E-09 5.33782E-09
 -1       300-1.09322E+06-4.23318E+04 1.10665E+05 2.54768E+03-5.02951E-10 1.06957E-09
 -1       301 7.00295E+04 1.43387E+05 1.29678E+05-2.67045E+04 2.27737E-09 1.26932E-08
 -1       302 2.36883E+04 1.65856E+05 7.29111E+04-3.07108E+04 5.98493E-09 2.05409E-08
 -1       303 7.06925E+03 1.51734E+05 4.93961E+04-2.70326E+04 1.91153E-09 7.12595E-09
 -1       304 1.91841E+04 1.63736E+05 6.25708E+04-3.07168E+04 4.26553E-09 2.98127E-09
 -1       305 5.53337E+04 1.45501E+05 1.04271E+05-2.67968E+04 2.25555E-09 3.58273E-09
 -1       306-5.11544E+06-6.04379E+05-4.19205E+05-1.99978E+06 1.82627E-09-1.62981E-09
 -1       307-5.31348E+06-9.22019E+05-2.78023E+05-1.94525E+06 2.09639E-09 2.53567E-09
 -1       308-5.20465E+06-7.21486E+05-9.88962E+04-1.96818E+06-1.04501E-09 2.21189E-09
 -1       309-5.20389E+06-7.89318E+05-5.74712E+04-1.99146E+06 1.34969E-09 3.80533E-09
 -1       310-5.22371E+06-7.29774E+05-2.31754E+04-1.95624E+06-2.77078E-09 4.58931E-09
 -1       311-5.17824E+06-7.83288E+05-1.28052E+04-2.01073E+06-3.96994E-09-5.27257E-09
 -1       312-5.23061E+06-7.26268E+05-6.45787E+03-1.94960E+06 1.38334E-09 4.47699E-10
 -1       313-5.17001E+06-7.88299E+05-5.44074E+03-2.01980E+06 3.71381E-09 5.92071E-09
 -1       314-5.23236E+06-7.24386E+05-6.57950E+03-1.94750E+06-8.23661E-11-1.23691E-09
 -1       315-5.17202E+06-7.90247E+05-1.33524E+04-2.01899E+06-2.77851E-10-4.90445E-10
 -1       316-5.22861E+06-7.24428E+05-2.40084E+04-1.95037E+06 2.66283E-09-2.79579E-09
 -1       317-5.19271E+06-8.02750E+05-5.99401E+04-2.00615E+06 2.72570E-09 2.38379E-09
 -1       318-5.21149E+06-7.13091E+05-1.02912E+05-1.95974E+06-1.17780E-09 1.75351E-09
 -1       319-5.30231E+06-9.45237E+05-2.89657E+05-1.96251E+06-7.34872E-10-5.16229E-09
 -1       320-5.12011E+06-5.89723E+05-4.36617E+05-1.99105E+06-1.00408E-09-2.15368E-09
 -1       321-7.89786E+05-5.25872E+04 1.38426E+05-7.48930E+01-4.28827E-10 2.55386E-09
 -1       322-7.32060E+05 6.16183E+04 9.53359E+04-1.69461E+04-3.71483E-09-2.47383E-09
 -1       323-7.67192E+05-7.39257E+03 3.58849E+04 8.40120E+02 6.41194E-11-1.66619E-09
 -1       324-7.58220E+05 8.59299E+03 2.17251E+04-1.85662E+04 3.68345E-10-2.97314E-09
 -1       325-7.63781E+05-1.04058E+03 9.13150E+03 1.54847E+03-2.11685E-10-1.13823E-09
 -1       326-7.62255E+05 1.20042E+03 5.14753E+03-1.97076E+04 1.51999E-10 3.40663E-09
 -1       327-7.63234E+05-1.47746E+02 2.35158E+03 1.98146E+03-1.66665E-10 4.26201E-09
 -1       328-7.62924E+05 1.97144E+02 1.35409E+03-2.02826E+04-2.44825E-10-4.65599E-09
 -1       329-7.63149E+05-3.42589E+01 8.06079E+02 2.12348E+03 1.05160E-11 8.68567E-10
 -1       330-7.62963E+05 1.58504E+02 8.15179E+02-2.02687E+04-1.25124E-09 6.60728E-09
 -1       331-7.63195E+05-1.09180E+02 1.05892E+03 1.96753E+03-9.43601E-11 1.90792E-09
 -1       332-7.62519E+05 8.71376E+02 2.26563E+03-1.96651E+04-2.14413E-10-4.97096E-11
 -1       333-7.63555E+05-7.53189E+02 3.63485E+03 1.51987E+03-5.12046E-10-1.40494E-09
 -1       334-7.59781E+05 6.18796E+03 9.62962E+03-1.84877E+04-1.91676E-10-3.62797E-09
 -1       335-7.65863E+05-5.31815E+03 1.39013E+04 7.89979E+02-1.07752E-09 3.44698E-10
 -1       336 1.34372E+04-2.73246E+06-4.73748E+04 3.62722E+03-4.15639E-09 6.79211E-09
 -1       337-2.22926E+04-2.75386E+06-5.04928E+04-2.15020E+05 4.25371E-09-9.93623E-11
 -1       338 9.13737E+03-2.73443E+06-5.36427E+04 7.16773E+03-4.82760E-09 3.76986E-10
 -1       339-6.92777E+04-2.77869E+06-1.20767E+05-2.16227E+05 5.37693E-09-1.05501E-09
 -1       340 5.78517E+04-2.70811E+06-1.73533E+05 4.82905E+03-2.86673E-09 7.09224E-09
 -1       341-2.79924E+06-3.72027E+05-7.67717E+04-1.06851E+06-3.51974E-10 2.84126E-09
 -1       342-2.83998E+06-4.32834E+05-5.19490E+04-1.05383E+06-4.95675E-10-1.16706E-08
 -1       343-2.81627E+06-3.95282E+05-1.80905E+04-1.06183E+06 1.11299E-10-6.02085E-10
 -1       344-2.81868E+06-4.07196E+05-1.08939E+04-1.06350E+06-1.30512E-10-1.78670E-09
 -1       345-2.82037E+06-3.96980E+05-4.36406E+03-1.05908E+06 3.36627E-10 6.45741E-11
 -1       346-2.81281E+06-4.06398E+05-2.70792E+03-1.06805E+06 3.08773E-10-1.72849E-09
 -1       347-2.82213E+06-3.95976E+05-1.75748E+03-1.05732E+06-1.04990E-09-5.28311E-09
 -1       348-2.81046E+06-4.08348E+05-2.34236E+03-1.07070E+06 7.75515E-10-1.35822E-09
 -1       349-2.82275E+06-3.95007E+05-3.71291E+03-1.05645E+06-7.42943E-10-1.96565E-09
 -1       350-2.81115E+06-4.11155E+05-8.57390E+03-1.07121E+06 1.04535E-09 1.32513E-09
 -1       351-2.82147E+06-3.93203E+05-1.53052E+04-1.05680E+06-9.30413E-10 2.71575E-09
 -1       352-2.82156E+06-4.25564E+05-3.96110E+04-1.06756E+06 5.52745E-10 6.60293E-10
 -1       353-2.81244E+06-3.80933E+05-6.59678E+04-1.05999E+06-1.99270E-09-4.88217E-09
 -1       354-2.88784E+06-5.31034E+05-1.90026E+05-1.04547E+06-1.86265E-09 2.04636E-09
 -1       355-2.75571E+06-2.90212E+05-2.80509E+05-1.07804E+06 8.09814E-09-4.74392E-09
 -1       356-4.45055E+05-1.63676E+04 4.30502E+04 5.84781E+02 4.87717E-10-1.04046E-09
 -1       357-4.27041E+05 1.91700E+04 2.96540E+04-1.26159E+04-1.01903E-09-5.38421E-10
 -1       358-4.38008E+05-2.30014E+03 1.11340E+04 9.12590E+02 6.48015E-12-7.55244E-09
 -1       359-4.35203E+05 2.67199E+03 6.69127E+03-1.31660E+04-7.34644E-10-1.05973E-08
 -1       360-4.36939E+05-3.20522E+02 2.70550E+03 1.13546E+03 2.85013E-10-6.65182E-10
 -1       361-4.36482E+05 3.54533E+02 1.31274E+03-1.35024E+04-1.00340E-09 4.90590E-09
 -1       362-4.36754E+05-2.62910E+01 1.78914E+02 1.24892E+03-7.19069E-11 2.48031E-09
 -1       363-4.36783E+05-9.61067E+01-7.64604E+02-1.36161E+04-5.30681E-10 4.38843E-09
 -1       364-4.36647E+05 1.27485E+02-1.96500E+03 1.24918E+03 1.57627E-10 4.45084E-10
 -1       365-4.37374E+05-1.10727E+03-4.67452E+03-1.35045E+04 2.09951E-10 7.54881E-10
 -1       366-4.36157E+05 9.58550E+02-8.48065E+03 1.13734E+03-2.91493E-10-1.47747E-09
 -1       367-4.40990E+05-8.04675E+03-2.02224E+04-1.31664E+04 6.70809E-10-2.57273E-09
 -1       368-4.33011E+05 6.87080E+03-3.35084E+04 9.11038E+02-1.94177E-10-1.27693E-09
 -1       369-4.65181E+05-5.75589E+04-8.89105E+04-1.25727E+04-1.92199E-09 2.12822E-09
 -1       370-4.11926E+05 4.90256E+04-1.29110E+05 5.45583E+02 2.52567E-09 2.16824E-09
 -1       371-1.35147E+04-5.24832E+05 3.28662E+04 1.40172E+04 3.61979E-10-5.12955E-10
 -1       372 1.35588E+04-5.11934E+05 1.65290E+04-1.54270E+05 9.91804E-10-4.16378E-09
 -1       373 1.00575E+03-5.17117E+05-4.94441E+03 1.47830E+04 5.10227E-10 5.96941E-10
 -1       374-2.14803E+04-5.29006E+05-3.25384E+04-1.54201E+05 1.62618E-09 3.19062E-09
 -1       375 2.04759E+04-5.07717E+05-5.37113E+04 1.39479E+04 3.12866E-10 4.92946E-09
 -1       376-1.50490E+06-1.88184E+05-6.90388E+04-5.75903E+05 2.87309E-09-1.34605E-09
 -1       377-1.53318E+06-2.51366E+05-4.67284E+04-5.72479E+05-5.58202E-10-1.54159E-09
 -1       378-1.51920E+06-2.10096E+05-1.62654E+04-5.71055E+05 1.85241E-09 2.11185E-09
 -1       379-1.51630E+06-2.26096E+05-9.79974E+03-5.78648E+05 6.89909E-10 1.08002E-11
 -1       380-1.52169E+06-2.12834E+05-3.88455E+03-5.69961E+05-7.96753E-10-5.24324E-09
 -1       381-1.51334E+06-2.23027E+05-2.36550E+03-5.80060E+05-5.88386E-10-8.68567E-09
 -1       382-1.52215E+06-2.13078E+05-1.41453E+03-5.69677E+05-6.66969E-11 9.33746E-10
 -1       383-1.51308E+06-2.22765E+05-1.73277E+03-5.80184E+05-2.51831E-10-5.15466E-09
 -1       384-1.52194E+06-2.13088E+05-2.62428E+03-5.69839E+05 1.28445E-10-4.46551E-09
 -1       385-1.51458E+06-2.23632E+05-5.96797E+03-5.79311E+05 1.23384E-09-5.48118E-09
 -1       386-1.52066E+06-2.12243E+05-1.06311E+04-5.70536E+05 6.62794E-10 4.10364E-09
 -1       387-1.52225E+06-2.33109E+05-2.74542E+04-5.76218E+05 1.14994E-09-2.05364E-09
 -1       388-1.51431E+06-2.03846E+05-4.57316E+04-5.72846E+05-1.29603E-09 3.51065E-10
 -1       389-1.56803E+06-3.06164E+05-1.31597E+05-5.61010E+05 3.63480E-09 2.73576E-09
 -1       390-1.47517E+06-1.40901E+05-1.94317E+05-5.85118E+05 6.42467E-09-2.09548E-09
 -1       406 8.79182E+03 1.14406E+06 1.65983E+04-1.67254E+05 4.09636E-09 5.65706E-10
 -1       407 3.97054E+03 1.14678E+06 1.34468E+04-1.87683E+05 4.20005E-09-4.42014E-09
 -1       408 3.30015E+03 1.14430E+06 1.64750E+04-1.66847E+05 4.36194E-09-4.25644E-10
 -1       409 1.26894E+04 1.15016E+06 3.17942E+04-1.88082E+05 3.74985E-09 2.96859E-09
 -1       410 3.67945E+04 1.14000E+06 6.18852E+04-1.66774E+05 4.55475E-09 3.22643E-09
 -1       466 2.10922E+06-7.57871E+04 1.98335E+05 1.59602E+04-2.03727E-10 2.28465E-09
 -1       467 2.19549E+06 8.80337E+04 1.37281E+05-8.28613E+04 1.45519E-11 3.71620E-09
 -1       468 2.14243E+06-1.07108E+04 5.15233E+04 7.79262E+03 7.73070E-11 2.87400E-10
 -1       469 2.15613E+06 1.22982E+04 3.14843E+04-6.97538E+04-1.12095E-09-3.32921E-09
 -1       470 2.14762E+06-1.52305E+03 1.33730E+04 2.86040E+03-1.30512E-10 1.10958E-09
 -1       471 2.14963E+06 1.89778E+03 7.96530E+03-6.24479E+04-1.00465E-09 9.35643E-11
 -1       472 2.14847E+06-2.41898E+02 4.40810E+03 4.86310E+02 6.24823E-10 6.99060E-10
 -1       473 2.14868E+06 7.48760E+02 4.11501E+03-5.99779E+04-4.46477E-10-2.16325E-09
 -1       474 2.14843E+06-2.96707E+02 5.20003E+03 3.90585E+02-1.06184E-10-1.84116E-09
 -1       475 2.14992E+06 2.44437E+03 1.01647E+04-6.20593E+04 4.98972E-10-1.84173E-10
 -1       476 2.14734E+06-1.98703E+03 1.74982E+04 2.56766E+03 1.48339E-09-2.43745E-09
 -1       477 2.15814E+06 1.62557E+04 4.13689E+04-6.89290E+04-1.34605E-10-7.85076E-09
 -1       478 2.14062E+06-1.40626E+04 6.79611E+04 7.26058E+03-9.88621E-10 1.56433E-09
 -1       479 2.20923E+06 1.16226E+05 1.80801E+05-8.15527E+04-1.79307E-09 1.62618E-09
 -1       480 2.09714E+06-9.97267E+04 2.61725E+05 1.51794E+04-1.53432E-09-2.47383E-10
 -1       481-1.74620E+04 4.21634E+05 4.61603E+04-3.76455E+03-3.63798E-11 3.36786E-09
 -1       482 2.10111E+04 4.41963E+05 3.35215E+04 1.83693E+04-3.38332E-10 7.24503E-09
 -1       483-3.22744E+03 4.28804E+05 1.52927E+04-2.97281E+03-4.04725E-11 3.12821E-09
 -1       484 9.12987E+03 4.35830E+05 1.67596E+04 1.69691E+04 6.50289E-11-4.27463E-10
 -1       485-5.82692E+03 4.27629E+05 1.67109E+04-2.36563E+03 3.60615E-10-2.99997E-09
 -1       486-2.05441E+06-2.29003E+05-1.96463E+05-8.12214E+05-4.11092E-10-6.69388E-10
 -1       487-2.15247E+06-3.90308E+05-1.32814E+05-7.81236E+05-5.49790E-10-2.78851E-09
 -1       488-2.09729E+06-2.89235E+05-4.63196E+04-7.96014E+05-1.30331E-09 1.49157E-09
 -1       489-2.09985E+06-3.22970E+05-2.76298E+04-8.03990E+05 3.50440E-10 9.17225E-10
 -1       490-2.10675E+06-2.94575E+05-1.08798E+04-7.90122E+05-1.99907E-09-6.57565E-10
 -1       491-2.08684E+06-3.19002E+05-6.08064E+03-8.13672E+05-3.02953E-09-8.33097E-10
 -1       492-2.11041E+06-2.92868E+05-2.95207E+03-7.86525E+05-4.49518E-10 4.03588E-10
 -1       493-2.08173E+06-3.22245E+05-2.33412E+03-8.19340E+05-1.85446E-09-5.28064E-09
 -1       494-2.11201E+06-2.91196E+05-2.59519E+03-7.84580E+05-1.10163E-09-1.32997E-09
 -1       495-2.08076E+06-3.25112E+05-5.20456E+03-8.21362E+05 1.92651E-09 2.36491E-09
 -1       496-2.11146E+06-2.89971E+05-9.00045E+03-7.84554E+05 8.57312E-10 3.20415E-09
 -1       497-2.08735E+06-3.32804E+05-2.30659E+04-8.18437E+05-1.49362E-09 3.40287E-09
 -1       498-2.10543E+06-2.83729E+05-3.84145E+04-7.87409E+05-2.49656E-10-6.31189E-10
 -1       499-2.12820E+06-3.91404E+05-1.10402E+05-8.02382E+05 5.07953E-10 4.56566E-10
 -1       500-2.07076E+06-2.32908E+05-1.63209E+05-7.99999E+05 4.18368E-10-1.09139E-10
 -1       501-1.73099E+05-2.17295E+04 5.54967E+04 4.37207E+03 3.50792E-09 2.51384E-09
 -1       502-1.45821E+05 2.46852E+04 3.89596E+04-6.07521E+04 2.46655E-09-5.00222E-11
 -1       503-1.63453E+05-3.19216E+03 1.43059E+04 5.01067E+03 5.25688E-10 4.58385E-10
 -1       504-1.58091E+05 3.48753E+03 9.00391E+03-6.18320E+04-3.96540E-10-5.71049E-10
 -1       505-1.61747E+05-5.09906E+02 3.66827E+03 5.44977E+03 2.10866E-09 3.16049E-11
 -1       506-1.60796E+05 7.41157E+02 2.26419E+03-6.25191E+04 4.58931E-09-4.13070E-09
 -1       507-1.61348E+05-9.80703E+01 1.17050E+03 5.69780E+03 2.97428E-09 1.47429E-09
 -1       508-1.61507E+05 5.03442E+02 1.04132E+03-6.28239E+04 1.36322E-09-4.03219E-09
 -1       509-1.61306E+05-8.83283E+01 1.23956E+03 5.75552E+03 3.31750E-09-3.18501E-09
 -1       510-1.61152E+05 8.64978E+02 2.36470E+03-6.27465E+04 3.24280E-09-3.68605E-09
 -1       511-1.61634E+05-4.99854E+02 3.98856E+03 5.62018E+03 1.13778E-09-2.19029E-09
 -1       512-1.58694E+05 3.91250E+03 9.56186E+03-6.22837E+04 5.15229E-10 8.40373E-10
 -1       513-1.63357E+05-3.33983E+03 1.54601E+04 5.29180E+03-4.49745E-10 8.53106E-10
 -1       514-1.46004E+05 2.67250E+04 4.16574E+04-6.14190E+04 1.11413E-11-3.52429E-10
 -1       515-1.73587E+05-2.31611E+04 5.97390E+04 4.75483E+03 1.41881E-10 4.50018E-09
 -1       516-4.02001E+04 3.60589E+05 1.08078E+05 9.00121E+03 5.38421E-09 1.43928E-10
 -1       517 5.26043E+04 4.05142E+05 8.29820E+04-1.38231E+05-6.66660E-10 9.55265E-09
 -1       518-9.69650E+03 3.75648E+05 4.61130E+04 9.22491E+03 4.54679E-09 5.17821E-09
 -1       519 4.15176E+04 4.01776E+05 6.80795E+04-1.39522E+05 3.53339E-10-2.42380E-10
 -1       520-3.01351E+04 3.64957E+05 8.09224E+04 1.02809E+04 2.47019E-09-4.43470E-09
 -1       521-4.37320E+06-5.13553E+05-3.67079E+05-1.70988E+06 3.01952E-09-5.89353E-09
 -1       522-4.53483E+06-8.02232E+05-2.43267E+05-1.67449E+06 2.70711E-09-2.46291E-09
 -1       523-4.45175E+06-6.15397E+05-8.66509E+04-1.68166E+06 2.07274E-09 8.22183E-10
 -1       524-4.43881E+06-6.86646E+05-5.02787E+04-1.71572E+06 1.23782E-09 1.86174E-09
 -1       525-4.46840E+06-6.22588E+05-2.02870E+04-1.67120E+06-5.34328E-09-2.20916E-09
 -1       526-4.41691E+06-6.81041E+05-1.11458E+04-1.73239E+06-3.66163E-09-5.04610E-09
 -1       527-4.47412E+06-6.19801E+05-5.52151E+03-1.66573E+06 1.58525E-09 2.11344E-09
 -1       528-4.41046E+06-6.84653E+05-4.46760E+03-1.73953E+06 2.13367E-09 3.30203E-10
 -1       529-4.47525E+06-6.18618E+05-5.18041E+03-1.66438E+06 2.60451E-09 6.78415E-09
 -1       530-4.41278E+06-6.85212E+05-1.03068E+04-1.73780E+06 5.84157E-09 6.40284E-09
 -1       531-4.47173E+06-6.19374E+05-1.84924E+04-1.66737E+06 1.21217E-08 4.97676E-09
 -1       532-4.43013E+06-6.93066E+05-4.59865E+04-1.72577E+06 1.03079E-08 3.76986E-09
 -1       533-4.45755E+06-6.11819E+05-7.90795E+04-1.67580E+06 6.70889E-09 1.98634E-09
 -1       534-4.51636E+06-7.99818E+05-2.22177E+05-1.68922E+06-3.81988E-11-2.63390E-09
 -1       535-4.38604E+06-5.18753E+05-3.35255E+05-1.70146E+06-1.00772E-09-5.55883E-09
 -1       536 9.05339E+05-5.36797E+04 1.59120E+05 1.19600E+03-8.09450E-11-3.09228E-09
 -1       537 9.69123E+05 6.41515E+04 1.07296E+05-2.98664E+04-4.67162E-09-1.11868E-09
 -1       538 9.30814E+05-6.91072E+03 4.13389E+04 2.80623E+02 1.29603E-10 1.54250E-09
 -1       539 9.39919E+05 8.09035E+03 2.43853E+04-2.82911E+04 1.24055E-09 9.94532E-10
 -1       540 9.34357E+05-9.02271E+02 1.05670E+04-3.69386E+02 1.36879E-10 1.63709E-10
 -1       541 9.35734E+05 1.01263E+03 5.91530E+03-2.72244E+04 1.73713E-10 2.16551E-09
 -1       542 9.34879E+05-1.25536E+02 2.94556E+03-7.86140E+02-4.66116E-11 3.01065E-09
 -1       543 9.35097E+05 1.91158E+02 2.04595E+03-2.66191E+04 5.22732E-10 1.18155E-09
 -1       544 9.34927E+05-6.63240E+01 1.90262E+03-9.74815E+02 9.23649E-10 2.49542E-09
 -1       545 9.35260E+05 5.09572E+02 3.04582E+03-2.64640E+04 2.26628E-09-5.54655E-09
 -1       546 9.34697E+05-4.15835E+02 5.10916E+03-9.41227E+02 1.27352E-09-3.28555E-10
 -1       547 9.37182E+05 3.84177E+03 1.15376E+04-2.67524E+04 1.06189E-09-1.04774E-09
 -1       548 9.33033E+05-3.24053E+03 1.94986E+04-6.86339E+02 4.65207E-10 2.40379E-09
 -1       549 9.50913E+05 3.02331E+04 5.05140E+04-2.74747E+04-1.42109E-10 4.70845E-09
 -1       550 9.21034E+05-2.52590E+04 7.48917E+04-2.20729E+02-1.36788E-09-4.43833E-09
 -1       551 2.79085E+04-4.41200E+05 4.47826E+04-6.78349E+05 6.07542E-09 1.90630E-09
 -1       552 1.46257E+04-4.35253E+05 2.90239E+04-7.72447E+05 3.04499E-09 5.74255E-09
 -1       553 9.43128E+03-4.40896E+05 2.60976E+04-6.77304E+05 6.45741E-09 6.87578E-10
 -1       554 2.09198E+04-4.33231E+05 4.26035E+04-7.72734E+05 3.53612E-09-1.27829E-09
 -1       555 4.78826E+04-4.45221E+05 7.81920E+04-6.77948E+05 5.17139E-09-3.94721E-09
 -1       556-3.72004E+05-2.05515E+05 2.38645E+04-3.59861E+05-1.80080E-09 8.00355E-11
 -1       557-3.47964E+05-2.33234E+05 1.16020E+04-3.79711E+05-4.39468E-09 5.79166E-09
 -1       558-3.73711E+05-2.14557E+05 4.82390E+03-3.54873E+05-6.62112E-09-1.16270E-08
 -1       559-3.50690E+05-2.37418E+05 2.38503E+03-3.80994E+05 1.16052E-09 2.05512E-09
 -1       560-3.74603E+05-2.14478E+05 1.03369E+03-3.55100E+05 1.17143E-09 2.09820E-09
 -1       561-3.51669E+05-2.37327E+05 4.95986E+02-3.81697E+05-5.34783E-10 5.43832E-09
 -1       562-3.75201E+05-2.14131E+05 1.54080E+02-3.55481E+05-2.91038E-10 8.64929E-10
 -1       563-3.52197E+05-2.37101E+05-5.00795E+01-3.82069E+05 7.89441E-10 1.69257E-09
 -1       564-3.75487E+05-2.13943E+05-3.18500E+02-3.55680E+05 2.20098E-09 3.72893E-10
 -1       565-3.52409E+05-2.37020E+05-7.84450E+02-3.82195E+05 2.56023E-09 2.54659E-11
 -1       566-3.75433E+05-2.13935E+05-1.68152E+03-3.55671E+05 5.32236E-09 7.60883E-09
 -1       567-3.52595E+05-2.37327E+05-3.73481E+03-3.82020E+05 8.99490E-10 4.01997E-09
 -1       568-3.74923E+05-2.14936E+05-7.73723E+03-3.55123E+05 1.58798E-08-5.55519E-09
 -1       569-3.56406E+05-2.42801E+05-1.82902E+04-3.80140E+05 2.94003E-08-1.61745E-08
 -1       570-3.73425E+05-2.32007E+05-3.79746E+04-3.48003E+05 1.72731E-08-6.91034E-09
 -1       571 7.37544E+05 3.93943E+04 6.76470E+04-1.82122E+05 2.25555E-10 2.41971E-09
 -1       572 7.48507E+05 1.26935E+04 3.35347E+04-2.04267E+05-1.08412E-09 1.48157E-09
 -1       573 7.41767E+05 2.19776E+03 1.49783E+04-1.81465E+05 3.23780E-10 1.99725E-09
 -1       574 7.42839E+05 5.77171E+02 7.57506E+03-2.04913E+05 5.36602E-10 3.34512E-09
 -1       575 7.41970E+05-8.15761E+01 3.61689E+03-1.81400E+05 1.12141E-08-3.83079E-09
 -1       576 7.42031E+05-4.76570E+01 1.86931E+03-2.04984E+05 2.10021E-08-3.98722E-09
 -1       577 7.41946E+05-6.99326E+01 9.58957E+02-1.81394E+05 9.81709E-09 4.92946E-10
 -1       578 7.41966E+05-5.39448E+01 5.88486E+02-2.04993E+05 1.05138E-09 2.37742E-09
 -1       579 7.42079E+05-1.18263E+02 4.70803E+02-1.81391E+05 1.13687E-09-1.21145E-09
 -1       580 7.42233E+05-1.82861E+02 6.23378E+02-2.04993E+05 1.16052E-09 8.47467E-09
 -1       581 7.42403E+05-3.01700E+02 1.03529E+03-1.81394E+05-2.29920E-09 7.47605E-10
 -1       582 7.42895E+05-2.49642E+02 2.10544E+03-2.04904E+05-9.87711E-10 2.97405E-09
 -1       583 7.42814E+05 4.42205E+01 4.08936E+03-1.81478E+05 4.03816E-10-3.70255E-09
 -1       584 7.45065E+05 2.76717E+03 9.17942E+03-2.04049E+05-4.59659E-09-6.08543E-09
 -1       585 7.42216E+05 9.95744E+03 1.84487E+04-1.82279E+05 1.09867E-09 1.65892E-09
 -1       586 7.79151E+03 1.95306E+05 1.15595E+04-6.06028E+05 8.09814E-09-5.27507E-09
 -1       587 5.22669E+03 1.96276E+05 9.50337E+03-6.82390E+05 3.21234E-09-1.94304E-08
 -1       588 4.50410E+03 1.94404E+05 1.15751E+04-6.05220E+05 9.61518E-09-6.18866E-09
 -1       589 1.13193E+04 1.98619E+05 2.23053E+04-6.82470E+05 3.52884E-09-9.14952E-10
 -1       590 2.73457E+04 1.92447E+05 4.31599E+04-6.05918E+05 8.77299E-09-1.86810E-09
 -1       591-2.97293E+05-1.26624E+05-5.00982E+04-1.84086E+05 2.18915E-09-1.35697E-09
 -1       592-2.95282E+05-1.20346E+05-2.41726E+04-2.02636E+05 2.86946E-09 2.79715E-09
 -1       593-2.98180E+05-1.04765E+05-1.02302E+04-1.93565E+05-2.11003E-09-1.08339E-08
 -1       594-2.90128E+05-1.12881E+05-4.98102E+03-2.04203E+05-9.09495E-12 4.05046E-09
 -1       595-2.98470E+05-1.03660E+05-2.28783E+03-1.94122E+05 1.30603E-09 8.42647E-10
 -1       596-2.89752E+05-1.12502E+05-1.16763E+03-2.04265E+05 2.94312E-09-6.51426E-09
 -1       597-2.98554E+05-1.03649E+05-6.55449E+02-1.94156E+05 5.69344E-10-1.33696E-09
 -1       598-2.89730E+05-1.12494E+05-5.62065E+02-2.04266E+05-2.35036E-09-1.06002E-08
 -1       599-2.98545E+05-1.03646E+05-7.63015E+02-1.94153E+05-2.87787E-09-1.37788E-09
 -1       600-2.89757E+05-1.12505E+05-1.45259E+03-2.04265E+05-7.45786E-10 5.38239E-09
 -1       601-2.98433E+05-1.03654E+05-2.89447E+03-1.94109E+05-4.82032E-10 4.46562E-09
 -1       602-2.90241E+05-1.12990E+05-6.33314E+03-2.04198E+05 6.35282E-10 2.15186E-09
 -1       603-2.98083E+05-1.05051E+05-1.30146E+04-1.93404E+05 8.22183E-10 1.24965E-09
 -1       604-2.96762E+05-1.22534E+05-3.07598E+04-2.02280E+05 2.24372E-09-1.41699E-09
 -1       605-2.97017E+05-1.32791E+05-6.37415E+04-1.81291E+05 2.81398E-09 5.89353E-10
 -1       606 1.79164E+05-2.42660E+04-4.13121E+04 5.46280E+04-1.33405E-08-2.02544E-09
 -1       607 1.72296E+05-7.85577E+03-2.04615E+04 6.06191E+04-2.52658E-09 1.98270E-10
 -1       608 1.76187E+05-1.38898E+03-9.14891E+03 5.41910E+04 9.68794E-09 1.12186E-09
 -1       609 1.75328E+05-2.54288E+02-4.60867E+03 6.10613E+04-4.14911E-09 1.93813E-09
 -1       610 1.75765E+05 1.80523E+02-2.19859E+03 5.41411E+04-1.32386E-08-1.80034E-09
 -1       611 1.75564E+05 2.66926E+02-1.11063E+03 6.11100E+04-2.88674E-08 6.80529E-09
 -1       612 1.75625E+05 2.64429E+02-5.39657E+02 5.41369E+04-2.72121E-09 1.82354E-10
 -1       613 1.75520E+05 3.15604E+02-2.60545E+02 6.11137E+04 5.79439E-09 4.22278E-09
 -1       614 1.75540E+05 2.87392E+02-1.07007E+02 5.41361E+04 4.89854E-09-3.50792E-09
 -1       615 1.75458E+05 3.46263E+02-4.27336E+00 6.11125E+04 1.15033E-08 5.40967E-09
 -1       616 1.75478E+05 3.16025E+02 9.21554E+01 5.41372E+04-1.07102E-08-4.32510E-09
 -1       617 1.75427E+05 3.99178E+02 2.50911E+02 6.11101E+04 6.82121E-12 4.00405E-09
 -1       618 1.75422E+05 4.24578E+02 5.22158E+02 5.41375E+04 2.19279E-09-2.59206E-11
 -1       619 1.75579E+05 8.53896E+02 1.18463E+03 6.11089E+04-1.17325E-09 7.03494E-10
 -1       620 1.75236E+05 1.76226E+03 2.39679E+03 5.41319E+04 4.78553E-09 1.07548E-09
 -1       621 5.96195E+03 6.61874E+05 1.20419E+04-8.46000E+04-2.05000E-09-2.82944E-09
 -1       622 2.52051E+03 6.64061E+05 9.80959E+03-9.67085E+04-5.17502E-10 3.96540E-09
 -1       623 1.86656E+03 6.62386E+05 1.20351E+04-8.47351E+04-2.47019E-09 2.91220E-09
 -1       624 8.28428E+03 6.66959E+05 2.32102E+04-9.62313E+04 4.74756E-10-1.61981E-09
 -1       625 2.48667E+04 6.59362E+05 4.49403E+04-8.50637E+04-1.39653E-09 2.64845E-09
 -1       626 2.34670E+05 8.00794E+04-2.39923E+04 1.71055E+05-2.82307E-09-6.34100E-09
 -1       627 2.24965E+05 9.44145E+04-1.14983E+04 1.74299E+05 2.42107E-09-2.49759E-09
 -1       628 2.34725E+05 9.08036E+04-4.85936E+03 1.65769E+05 7.99264E-09 4.78667E-09
 -1       629 2.26837E+05 9.87033E+04-2.34556E+03 1.73903E+05-1.61162E-09 4.08818E-10
 -1       630 2.34564E+05 9.14313E+04-1.05396E+03 1.65363E+05 8.15635E-09 5.43196E-10
 -1       631 2.26895E+05 9.89927E+04-4.87205E+02 1.73862E+05-1.19308E-08-8.22627E-09
 -1       632 2.34460E+05 9.14677E+04-1.76359E+02 1.65298E+05 8.29823E-09 1.30267E-08
 -1       633 2.26850E+05 9.90234E+04 2.21883E+01 1.73829E+05 1.74568E-08-3.78532E-09
 -1       634 2.34397E+05 9.14688E+04 2.28760E+02 1.65271E+05 8.41919E-09-5.36556E-09
 -1       635 2.26850E+05 9.90322E+04 5.85550E+02 1.73820E+05-7.49560E-09 2.47746E-09
 -1       636 2.34357E+05 9.14715E+04 1.24113E+03 1.65256E+05-1.29824E-08-2.61116E-09
 -1       637 2.27122E+05 9.92606E+04 2.76468E+03 1.73805E+05 8.94562E-09 3.91174E-09
 -1       638 2.34275E+05 9.21738E+04 5.70308E+03 1.64941E+05-5.23005E-09-5.64251E-09
 -1       639 2.30108E+05 1.03656E+05 1.35183E+04 1.72849E+05-9.65883E-10-8.47285E-09
 -1       640 2.34086E+05 1.05206E+05 2.81869E+04 1.59419E+05 1.07657E-08-2.83944E-09
 -1       641 1.27525E+04 4.79893E+03-1.27638E+04-1.17246E+03-1.27666E-08 5.45515E-09
 -1       642 7.56447E+03-5.55871E+03-8.74465E+03 1.47620E+04-1.75222E-08 2.62389E-10
 -1       643 1.07007E+04 6.56498E+02-3.30802E+03-1.16917E+03-1.95064E-08-4.16435E-09
 -1       644 9.85977E+03-6.62423E+02-1.96519E+03 1.47535E+04-2.11321E-09 7.59331E-09
 -1       645 1.04064E+04 7.89312E+01-8.01233E+02-1.16475E+03-4.46676E-10 3.69192E-09
 -1       646 1.01654E+04 3.93059E+01-3.74660E+02 1.47447E+04-2.32402E-08-3.47455E-09
 -1       647 1.03630E+04-4.76193E+00-3.42568E+01-1.16071E+03 2.43469E-08 3.65395E-09
 -1       648 1.02279E+04 1.84169E+02 2.67476E+02 1.47398E+04 4.61590E-08 9.95911E-09
 -1       649 1.03302E+04-5.36914E+01 6.57964E+02-1.15998E+03 3.08429E-08 1.96798E-09
 -1       650 1.04356E+04 5.14290E+02 1.55402E+03 1.47401E+04 4.13271E-08 4.24993E-09
 -1       651 1.01599E+04-3.31301E+02 2.80823E+03-1.16097E+03 7.26675E-09 3.50747E-09
 -1       652 1.16897E+04 2.79914E+03 6.70741E+03 1.47411E+04-3.16413E-09 7.12635E-09
 -1       653 9.09918E+03-2.29507E+03 1.10892E+04-1.16106E+03 2.38242E-09 4.76348E-09
 -1       654 1.98005E+04 1.91757E+04 2.94647E+04 1.47123E+04-1.06016E-08 6.61566E-09
 -1       655 2.09290E+03-1.62635E+04 4.27557E+04-1.13359E+03 9.39508E-09 1.21872E-10
 -1       656 3.20854E+04-8.75356E+05-9.81978E+04 4.12945E+03-7.82165E-10 1.68257E-10
 -1       657-4.25915E+04-9.15054E+05-7.53651E+04 5.62611E+04 6.15637E-09 1.85310E-10
 -1       658 7.67507E+03-8.88485E+05-4.55898E+04 3.66098E+03 3.27805E-09-1.76556E-10
 -1       659-3.90830E+04-9.13360E+05-7.01747E+04 5.66476E+04-3.75667E-09-4.98756E-10
 -1       660 2.88491E+04-8.77137E+05-8.88239E+04 3.74524E+03-6.07542E-10 1.83127E-09
 -1       661 9.32028E+05 1.09021E+05 7.93325E+04 3.64461E+05-4.79577E-09-4.29281E-10
 -1       662 9.55848E+05 1.83084E+05 5.26432E+04 3.70301E+05-1.52495E-08 8.28823E-09
 -1       663 9.46728E+05 1.33319E+05 1.87303E+04 3.61059E+05-7.00402E-09 7.81256E-10
 -1       664 9.39110E+05 1.54044E+05 1.09601E+04 3.74330E+05-1.82735E-08-1.23619E-08
 -1       665 9.48539E+05 1.36747E+05 4.40973E+03 3.60911E+05-1.08526E-08-4.62251E-09
 -1       666 9.37102E+05 1.49928E+05 2.50857E+03 3.74410E+05 8.19918E-09 9.78895E-09
 -1       667 9.48688E+05 1.37297E+05 1.32685E+03 3.61020E+05-1.51958E-08-4.95783E-09
 -1       668 9.36970E+05 1.49389E+05 1.26330E+03 3.74290E+05-4.51348E-08-1.15874E-08
 -1       669 9.48659E+05 1.37279E+05 1.68313E+03 3.61030E+05-9.46667E-09 1.02500E-09
 -1       670 9.37311E+05 1.50157E+05 3.54225E+03 3.74348E+05 2.97640E-08 2.91197E-09
 -1       671 9.48356E+05 1.36546E+05 6.39909E+03 3.60958E+05 1.07266E-08 1.45292E-09
 -1       672 9.40461E+05 1.55976E+05 1.60160E+04 3.73975E+05-8.96151E-09-3.81988E-11
 -1       673 9.45562E+05 1.31672E+05 2.74155E+04 3.61333E+05 1.36260E-08 9.40418E-10
 -1       674 9.65288E+05 1.98148E+05 7.70659E+04 3.67660E+05 1.42427E-08-2.26100E-09
 -1       675 9.23841E+05 9.63177E+04 1.16180E+05 3.66551E+05 1.53032E-08 8.28004E-09
 -1       676 1.11866E+04-8.24056E+05-3.49425E+04 3.32208E+03 4.51837E-09-1.01727E-09
 -1       677-1.57548E+04-8.38417E+05-2.89887E+04 1.62345E+04 1.85889E-08-1.18700E-09
 -1       678 3.52339E+03-8.28135E+05-2.09753E+04 3.15747E+03 7.30665E-09 1.00511E-09
 -1       679-2.17731E+04-8.41541E+05-3.79740E+04 1.64141E+04 3.11957E-09-4.81216E-09
 -1       680 1.68491E+04-8.20946E+05-5.10983E+04 3.14156E+03 1.51686E-08 4.15478E-09
 -1       681 6.92166E+05-1.46371E+04 3.84736E+04 2.44059E+03 1.16870E-10-1.34969E-09
 -1       682 7.08320E+05 1.71107E+04 2.65493E+04-1.78524E+04 1.45974E-10-7.60338E-10
 -1       683 6.98496E+05-2.06005E+03 1.00080E+04 1.75681E+03-1.73031E-10-5.83896E-10
 -1       684 7.00971E+05 2.38516E+03 6.10719E+03-1.67127E+04 1.27329E-10 1.31740E-09
 -1       685 6.99459E+05-2.92173E+02 2.64726E+03 1.30147E+03 1.07207E-10-4.10068E-10
 -1       686 6.99827E+05 3.52428E+02 1.65414E+03-1.60163E+04-1.91676E-10-8.34461E-11
 -1       687 6.99605E+05-5.50817E+01 1.07559E+03 1.06038E+03-2.07308E-10 6.28376E-10
 -1       688 6.99707E+05 1.79165E+02 1.27516E+03-1.57380E+04-2.34110E-10 2.57910E-09
 -1       689 6.99565E+05-1.13653E+02 1.90164E+03 1.02315E+03 5.57066E-12 1.18962E-09
 -1       690 7.00155E+05 9.17357E+02 3.95671E+03-1.58676E+04 8.24230E-12-8.01492E-11
 -1       691 6.99162E+05-7.81956E+02 6.95427E+03 1.19004E+03 2.49997E-10 4.20641E-10
 -1       692 7.03161E+05 6.51005E+03 1.64556E+04-1.64094E+04 1.43700E-10-4.17231E-10
 -1       693 6.96581E+05-5.57980E+03 2.71855E+04 1.56498E+03-3.90173E-10 8.73115E-11
 -1       694 7.22913E+05 4.65995E+04 7.21229E+04-1.73974E+04-6.22322E-10-1.32150E-09
 -1       695 6.79452E+05-3.97463E+04 1.04717E+05 2.17648E+03-6.00949E-10-1.13505E-09
 -1       696-1.43326E+04 6.87157E+05 3.70994E+04 1.69156E+03 5.09317E-11-1.39335E-09
 -1       697 1.59785E+04 7.02048E+05 2.34320E+04-3.82525E+04 9.64064E-11-1.34287E-09
 -1       698-1.06175E+03 6.93854E+05 5.08556E+03 1.50690E+03-2.66482E-10 1.96628E-09
 -1       699-5.59777E+03 6.91482E+05-6.81517E+03-3.83388E+04-3.96994E-10 3.59921E-09
 -1       700 6.61578E+03 6.97746E+05-1.62551E+04 1.77686E+03-2.84672E-10 1.79739E-09
 -1       701-6.21420E+05-5.81752E+04-8.44257E+04-2.46435E+05 5.45697E-12 2.47383E-10
 -1       702-6.59041E+05-1.32512E+05-5.71430E+04-2.38949E+05-5.89807E-10-7.73070E-11
 -1       703-6.38386E+05-8.55109E+04-1.98842E+04-2.41137E+05-6.65977E-10 3.86535E-10
 -1       704-6.39234E+05-1.00766E+05-1.19401E+04-2.45514E+05-5.95605E-10-1.16870E-09
 -1       705-6.41125E+05-8.91703E+04-4.65976E+03-2.40154E+05-3.60245E-11-9.70886E-11
 -1       706-6.35932E+05-9.66563E+04-2.66876E+03-2.46858E+05-3.32619E-10-3.46120E-10
 -1       707-6.41683E+05-8.95158E+04-1.29484E+03-2.39837E+05 1.00374E-09 1.69342E-09
 -1       708-6.35274E+05-9.64050E+04-1.10354E+03-2.47314E+05 2.18961E-10-2.05347E-12
 -1       709-6.41790E+05-8.94052E+04-1.28143E+03-2.39709E+05 3.63741E-10 1.72145E-09
 -1       710-6.35521E+05-9.70779E+04-2.63841E+03-2.47371E+05 3.12426E-10 1.31195E-10
 -1       711-6.41441E+05-8.88509E+04-4.58913E+03-2.39778E+05 1.52795E-09-8.59245E-10
 -1       712-6.38394E+05-1.01534E+05-1.17776E+04-2.46524E+05 1.49038E-09-1.73327E-09
 -1       713-6.38932E+05-8.50458E+04-1.95914E+04-2.40521E+05 1.24874E-09-1.19780E-09
 -1       714-6.57547E+05-1.33210E+05-5.63326E+04-2.40499E+05 1.67802E-10-1.06593E-09
 -1       715-6.22395E+05-5.79113E+04-8.32040E+04-2.45527E+05-2.32831E-10 9.38599E-10
 -1       716 3.36051E+05-2.80635E+04 7.34314E+04 3.75140E+03 1.87811E-10 5.96629E-10
 -1       717 3.67507E+05 3.27911E+04 5.07803E+04-4.34072E+04 6.11635E-11 1.63709E-10
 -1       718 3.48248E+05-3.97209E+03 1.90730E+04 3.05998E+03-6.98947E-10 7.30324E-10
 -1       719 3.53101E+05 4.70098E+03 1.16513E+04-4.22871E+04-8.05471E-10 3.22984E-09
 -1       720 3.50147E+05-5.69424E+02 4.98638E+03 2.63246E+03 2.10935E-09 3.05454E-09
 -1       721 3.50747E+05 8.39524E+02 3.01947E+03-4.17007E+04 3.55868E-09 3.97108E-09
 -1       722 3.50448E+05-1.02385E+02 1.78854E+03 2.47377E+03 2.80349E-09 3.10604E-09
 -1       723 3.50495E+05 4.34900E+02 1.86146E+03-4.16501E+04 2.35988E-09 2.77180E-09
 -1       724 3.50385E+05-1.65278E+02 2.54573E+03 2.58190E+03 1.71178E-09 2.43119E-09
 -1       725 3.51280E+05 1.31181E+03 5.18560E+03-4.21375E+04 1.84536E-09 2.71507E-09
 -1       726 3.49792E+05-1.05074E+03 8.95713E+03 2.96093E+03 4.11819E-09 6.20275E-10
 -1       727 3.55617E+05 8.42841E+03 2.13262E+04-4.31735E+04 3.13048E-09 1.22100E-09
 -1       728 3.46327E+05-7.29224E+03 3.49840E+04 3.61786E+03 1.88265E-10 1.97724E-09
 -1       729 3.81860E+05 6.00636E+04 9.32491E+04-4.48135E+04-2.64754E-09-9.93168E-10
 -1       730 3.24012E+05-5.15034E+04 1.34945E+05 4.59730E+03-1.26238E-09-2.93221E-09
 -1       731-2.48175E+04 2.45293E+05 6.52534E+04 5.23713E+03 1.60071E-09 1.76897E-10
 -1       732 2.93531E+04 2.72119E+05 4.48952E+04-6.95878E+04-4.09273E-10-2.47695E-10
 -1       733-3.49592E+03 2.55998E+05 1.67793E+04 5.18783E+03 1.72349E-09 1.47088E-09
 -1       734 4.38085E+03 2.60097E+05 9.95802E+03-6.97790E+04-6.84395E-11 2.56148E-09
 -1       735-6.43637E+02 2.57426E+05 3.52844E+03 5.42729E+03 5.86851E-10 1.44109E-09
 -1       736-1.76547E+06-2.02886E+05-1.33265E+05-6.84230E+05-1.92267E-09-2.18279E-11
 -1       737-1.82928E+06-3.15742E+05-9.01952E+04-6.67171E+05 1.25510E-10-1.96451E-10
 -1       738-1.79313E+06-2.45165E+05-3.13706E+04-6.74818E+05 1.26147E-09 2.66482E-09
 -1       739-1.79627E+06-2.67311E+05-1.88246E+04-6.79504E+05 1.29064E-09 5.73209E-10
 -1       740-1.79826E+06-2.50128E+05-7.34270E+03-6.72325E+05 8.11468E-10 2.41471E-10
 -1       741-1.78967E+06-2.62210E+05-4.18651E+03-6.83241E+05 7.35554E-10 1.90158E-09
 -1       742-1.79972E+06-2.50092E+05-2.01058E+03-6.71152E+05 1.30132E-09-2.45109E-10
 -1       743-1.78780E+06-2.62644E+05-1.66667E+03-6.84945E+05 2.15209E-09 1.47344E-09
 -1       744-1.80015E+06-2.49661E+05-1.88409E+03-6.70643E+05 8.50150E-10 3.63002E-10
 -1       745-1.78798E+06-2.63792E+05-3.83539E+03-6.85246E+05-3.10536E-10-1.62953E-09
 -1       746-1.79956E+06-2.48953E+05-6.65244E+03-6.70853E+05 2.63242E-09 2.14868E-09
 -1       747-1.79269E+06-2.69699E+05-1.70667E+04-6.83361E+05 1.42199E-09 3.90082E-09
 -1       748-1.79547E+06-2.43903E+05-2.83948E+04-6.72473E+05-1.63027E-09 4.18368E-11
 -1       749-1.82168E+06-3.14432E+05-8.16792E+04-6.73189E+05-1.84446E-09-1.16415E-10
 -1       750-1.77075E+06-2.05304E+05-1.20659E+05-6.80634E+05-1.99907E-09 1.02591E-09
 -1       751 3.31007E+06-1.53771E+05 4.06354E+05 1.26197E+04-4.78803E-09-2.47383E-09
 -1       752 3.47841E+06 1.80336E+05 2.79626E+05-3.37519E+04-3.95903E-09-4.10728E-09
 -1       753 3.37653E+06-2.15769E+04 1.05597E+05 6.92911E+03-8.39464E-10-2.60479E-09
 -1       754 3.40201E+06 2.51573E+04 6.39688E+04-2.46375E+04 2.29102E-09 2.24099E-09
 -1       755 3.38656E+06-3.02551E+03 2.72118E+04 3.52179E+03-2.41926E-10-1.16052E-09
 -1       756 3.39046E+06 3.53354E+03 1.57594E+04-1.93123E+04-3.57090E-10-3.82897E-10
 -1       757 3.38811E+06-4.65358E+02 8.11633E+03 1.60436E+03 4.11660E-10 6.09134E-10
 -1       758 3.38884E+06 8.59156E+02 6.49758E+03-1.66153E+04 8.96080E-10 4.51820E-10
 -1       759 3.38817E+06-3.87891E+02 7.05230E+03 8.24623E+02 4.44942E-11-1.92472E-09
 -1       760 3.38994E+06 2.83253E+03 1.27767E+04-1.60522E+04 1.19379E-09 1.72054E-09
 -1       761 3.38698E+06-2.38905E+03 2.16642E+04 1.04129E+03-1.05956E-10-7.32143E-10
 -1       762 3.39895E+06 1.99226E+04 5.05996E+04-1.75233E+04 1.75237E-09 7.27596E-11
 -1       763 3.37909E+06-1.70385E+04 8.34745E+04 2.29570E+03 2.65766E-09 3.60524E-09
 -1       764 3.45908E+06 1.42557E+05 2.20874E+05-2.13479E+04 4.76859E-10-2.61934E-10
 -1       765 3.32664E+06-1.21462E+05 3.20968E+05 4.86100E+03-1.84764E-09-3.87081E-09
 -1       766-6.48379E+04 6.94422E+05 1.74611E+05-2.86459E+03-1.60071E-10-1.08321E-09
 -1       767 8.24203E+04 7.69105E+05 1.33751E+05 6.96011E+03 2.61934E-10 2.08274E-10
 -1       768-1.53894E+04 7.18989E+05 7.38718E+04-1.69177E+03-1.14051E-09 1.27238E-09
 -1       769 6.39128E+04 7.59921E+05 1.07759E+05 4.78086E+03-1.69530E-09 2.26464E-10
 -1       770-4.68390E+04 7.03552E+05 1.28758E+05-6.91531E+02 1.52795E-10 2.17460E-09
 -1       771-1.78156E+06-3.77364E+05-9.52596E+04-7.59011E+05 3.60797E-09 1.42609E-09
 -1       772-1.78323E+06-3.59608E+05-4.59287E+04-7.87515E+05-3.53248E-09 1.76442E-09
 -1       773-1.78347E+06-3.35726E+05-1.94731E+04-7.77007E+05-4.26371E-09 9.56788E-10
 -1       774-1.77346E+06-3.45600E+05-9.45586E+03-7.90949E+05-2.21917E-10-4.29645E-09
 -1       775-1.78430E+06-3.33439E+05-4.35987E+03-7.78162E+05 8.73115E-11-8.49468E-10
 -1       776-1.77296E+06-3.44844E+05-2.18505E+03-7.91365E+05-4.67662E-09 2.67573E-09
 -1       777-1.78477E+06-3.33251E+05-1.18865E+03-7.78363E+05-1.76442E-09 2.14459E-09
 -1       778-1.77315E+06-3.44748E+05-8.90725E+02-7.91636E+05-4.36557E-11 2.11458E-09
 -1       779-1.78507E+06-3.33086E+05-1.09593E+03-7.78509E+05-1.34605E-10 5.26256E-10
 -1       780-1.77344E+06-3.44685E+05-1.96272E+03-7.91892E+05-6.47560E-10 2.09548E-09
 -1       781-1.78521E+06-3.32935E+05-3.86602E+03-7.78592E+05 5.87534E-10 9.64064E-11
 -1       782-1.77431E+06-3.45275E+05-8.42936E+03-7.92070E+05 1.02682E-09-1.63709E-10
 -1       783-1.78503E+06-3.34622E+05-1.73103E+04-7.77764E+05-3.18323E-10-7.63976E-10
 -1       784-1.78293E+06-3.58229E+05-4.09496E+04-7.90097E+05-4.67480E-10 1.36424E-10
 -1       785-1.78412E+06-3.71207E+05-8.48597E+04-7.61490E+05 2.61934E-10 1.50249E-09
 -1       786 1.19364E+06-4.31810E+04 1.28259E+05 7.09099E+02 8.44693E-10-1.73168E-09
 -1       787 1.24461E+06 5.17710E+04 8.64362E+04-1.30406E+04-3.95971E-10-3.32602E-09
 -1       788 1.21416E+06-5.53325E+03 3.33484E+04 2.89764E+02-4.68617E-10-2.82125E-09
 -1       789 1.22126E+06 6.56302E+03 1.96525E+04-1.23451E+04 2.63753E-11-1.37538E-09
 -1       790 1.21700E+06-7.11279E+02 8.55760E+03 1.69717E+01 4.59067E-10 6.79847E-10
 -1       791 1.21800E+06 8.30492E+02 4.82023E+03-1.19374E+04 1.09006E-09-1.22844E-09
 -1       792 1.21741E+06-9.90335E+01 2.49229E+03-1.17860E+02 1.16529E-10 2.10537E-09
 -1       793 1.21756E+06 1.68888E+02 1.88821E+03-1.18001E+04 4.47699E-10 9.29589E-10
 -1       794 1.21744E+06-7.40966E+01 1.99074E+03-1.20285E+02-2.59945E-10-4.64269E-09
 -1       795 1.21782E+06 5.74080E+02 3.45094E+03-1.19285E+04 7.90578E-10 1.83758E-09
 -1       796 1.21716E+06-4.89042E+02 5.93805E+03 1.05463E+01-1.10504E-09-4.14298E-09
 -1       797 1.22006E+06 4.49746E+03 1.35129E+04-1.23255E+04-8.09166E-10-2.72394E-09
 -1       798 1.21521E+06-3.79620E+03 2.28837E+04 2.76649E+02-9.76343E-10-3.16413E-09
 -1       799 1.23608E+06 3.54953E+04 5.92822E+04-1.30020E+04-3.44153E-09-5.19503E-09
 -1       800 1.20113E+06-2.96170E+04 8.79386E+04 6.84730E+02-2.65345E-10-1.89539E-09
 -1       801-4.28079E+04 1.05644E+06 1.23757E+05-2.68481E+04-1.94996E-09-4.67116E-09
 -1       802 6.77541E+04 1.10800E+06 1.09364E+05-7.18605E+05-1.45656E-09-5.40240E-09
 -1       803-1.29535E+04 1.07236E+06 8.39718E+04-2.96120E+04-1.47156E-09 5.98470E-09
 -1       804 1.00817E+05 1.12759E+06 1.59716E+05-7.19244E+05-1.86446E-09 1.01309E-08
 -1       805-7.50873E+04 1.03868E+06 2.13586E+05-2.62283E+04-9.89530E-10 1.06811E-08
 -1       806-7.50534E+05-1.91057E+05-6.99419E+04-3.35306E+05 7.53380E-09-1.03319E-09
 -1       807-7.52356E+05-1.75523E+05-3.35375E+04-3.55536E+05 5.96265E-09-2.74918E-08
 -1       808-7.51009E+05-1.58826E+05-1.41574E+04-3.49312E+05 8.48195E-09 2.91993E-09
 -1       809-7.45342E+05-1.64321E+05-6.87793E+03-3.57757E+05 6.23459E-10 2.25964E-09
 -1       810-7.51283E+05-1.57047E+05-3.13922E+03-3.50170E+05 2.61207E-09 1.59889E-09
 -1       811-7.44738E+05-1.63711E+05-1.58890E+03-3.57805E+05-3.54703E-10-9.97261E-10
 -1       812-7.51352E+05-1.57037E+05-8.61662E+02-3.50200E+05 5.29951E-09-1.47370E-08
 -1       813-7.44673E+05-1.63706E+05-6.88294E+02-3.57781E+05 2.62057E-08 9.79526E-09
 -1       814-7.51333E+05-1.57047E+05-8.73321E+02-3.50190E+05 2.82444E-09-1.09594E-09
 -1       815-7.44707E+05-1.63725E+05-1.61922E+03-3.57774E+05-1.91262E-08-4.90036E-09
 -1       816-7.51221E+05-1.57076E+05-3.20286E+03-3.50139E+05-8.23820E-09 9.21318E-10
 -1       817-7.45296E+05-1.64352E+05-7.01888E+03-3.57687E+05 7.38964E-10-8.03993E-10
 -1       818-7.50903E+05-1.58920E+05-1.44494E+04-3.49251E+05 1.48975E-09-6.43922E-10
 -1       819-7.52484E+05-1.75725E+05-3.42223E+04-3.55316E+05 1.26602E-09 1.17961E-09
 -1       820-7.50332E+05-1.91857E+05-7.13703E+04-3.34995E+05 5.07589E-09-2.25555E-10
 -1       821-8.29226E+05 3.29288E+04-9.77241E+04-9.28381E+02-6.81212E-09-4.47471E-10
 -1       822-8.67948E+05-3.94964E+04-6.58678E+04 9.89404E+03-3.39674E-09-6.65295E-09
 -1       823-8.44846E+05 4.20196E+03-2.54092E+04-1.38649E+03 8.31960E-09-4.48381E-09
 -1       824-8.50205E+05-4.97470E+03-1.49611E+04 1.07036E+04-1.87697E-10-1.32513E-09
 -1       825-8.46998E+05 5.29524E+02-6.53021E+03-1.74024E+03-1.16936E-08-1.24192E-09
 -1       826-8.47780E+05-5.78578E+02-3.68890E+03 1.13098E+04-1.79284E-08 2.43176E-09
 -1       827-8.47302E+05 6.86961E+01-1.95018E+03-1.99338E+03-1.02177E-08-3.09376E-09
 -1       828-8.47494E+05-6.90732E+01-1.54681E+03 1.17101E+04-1.68088E-08-1.64715E-09
 -1       829-8.47308E+05 6.03217E+01-1.72945E+03-2.14074E+03-2.83956E-09-1.22259E-09
 -1       830-8.47753E+05-4.48627E+02-3.09609E+03 1.18935E+04 1.17170E-08-6.42737E-09
 -1       831-8.47057E+05 4.39791E+02-5.38206E+03-2.17685E+03-9.69499E-09-4.59386E-09
 -1       832-8.49775E+05-4.03831E+03-1.22909E+04 1.18573E+04-2.87343E-09 4.88626E-10
 -1       833-8.45290E+05 3.45450E+03-2.08357E+04-2.10394E+03-5.02837E-10-2.64026E-09
 -1       834-8.64350E+05-3.23405E+04-5.40255E+04 1.16174E+04 3.23234E-09-6.91671E-09
 -1       835-8.32480E+05 2.70148E+04-8.01318E+04-1.93258E+03 7.16364E-09-3.31784E-09
 -1       836-7.30709E+04 2.56839E+06 2.25051E+05-1.24004E+04-2.59752E-09-1.72076E-09
 -1       837 9.98678E+04 2.66061E+06 1.79496E+05-2.09906E+05-7.91806E-09-1.83695E-09
 -1       838-1.98471E+04 2.59696E+06 1.19024E+05-1.48900E+04-4.25462E-09 7.09463E-10
 -1       839 1.13695E+05 2.66751E+06 2.00075E+05-2.09336E+05-1.04919E-08 5.33464E-09
 -1       840-8.59289E+04 2.56130E+06 2.62231E+05-1.29664E+04-4.07454E-09 1.18871E-09
 -1       841-3.94060E+05-3.56882E+04-5.96039E+04-1.58396E+05-5.36056E-09 6.91216E-11
 -1       842-4.29690E+05-7.89961E+04-4.03233E+04-1.42691E+05-4.10910E-09 3.79941E-09
 -1       843-4.05487E+05-5.55170E+04-1.40364E+04-1.55274E+05-1.91903E-10 1.49248E-09
 -1       844-4.16692E+05-5.56389E+04-8.41298E+03-1.46252E+05 5.99096E-09 8.54357E-10
 -1       845-4.07004E+05-5.85079E+04-3.26699E+03-1.55047E+05-1.38698E-10-1.49737E-09
 -1       846-4.15072E+05-5.20353E+04-1.82777E+03-1.46417E+05-5.37551E-09-7.19940E-09
 -1       847-4.07113E+05-5.90409E+04-8.05690E+02-1.55147E+05 1.22679E-09 3.30668E-09
 -1       848-4.15020E+05-5.13809E+04-5.27609E+02-1.46254E+05 2.92448E-09-3.32648E-09
 -1       849-4.07066E+05-5.91470E+04-4.27230E+02-1.55221E+05 1.16089E-08-3.99763E-09
 -1       850-4.15151E+05-5.14069E+04-7.08547E+02-1.46165E+05 1.53726E-08 7.75671E-09
 -1       851-4.06986E+05-5.90145E+04-1.15990E+03-1.55237E+05-5.92024E-10-3.03436E-09
 -1       852-4.15748E+05-5.26000E+04-2.92224E+03-1.46062E+05 5.56534E-09-8.29073E-09
 -1       853-4.06468E+05-5.79803E+04-4.85133E+03-1.55312E+05-4.16094E-10 2.95586E-09
 -1       854-4.20166E+05-6.07167E+04-1.39211E+04-1.44891E+05-3.84489E-10-2.86434E-09
 -1       855-4.02584E+05-5.10864E+04-2.05786E+04-1.56332E+05 3.42425E-10-1.00590E-09
 -1       856-9.58151E+05 3.08091E+04-9.16864E+04-2.30676E+03-7.54699E-09-3.14685E-09
 -1       857-9.94302E+05-3.68982E+04-6.17348E+04 2.40688E+04-4.54770E-09-7.24413E-09
 -1       858-9.72768E+05 3.90223E+03-2.38443E+04-3.21828E+03-1.62627E-08-9.16589E-09
 -1       859-9.77848E+05-4.47459E+03-1.40087E+04 2.56215E+04-7.14681E-09-5.12841E-09
 -1       860-9.74768E+05 4.75702E+02-6.11641E+03-3.86512E+03 8.34211E-09-7.41534E-09
 -1       861-9.75694E+05-3.10678E+02-3.42793E+03 2.66360E+04-2.45552E-08 1.92813E-10
 -1       862-9.75045E+05 5.15173E+01-1.77495E+03-4.23476E+03 2.63286E-08-1.05944E-08
 -1       863-9.75464E+05 1.91762E+02-1.34016E+03 2.70919E+04 6.13379E-08-1.14595E-08
 -1       864-9.75057E+05 3.65566E+01-1.41139E+03-4.32168E+03 3.45167E-08-1.07436E-08
 -1       865-9.75625E+05-1.04851E+02-2.44664E+03 2.69788E+04 2.55268E-08-1.05822E-08
 -1       866-9.74870E+05 3.24065E+02-4.22268E+03-4.12148E+03-1.41654E-09-6.83440E-09
 -1       867-9.77090E+05-2.94409E+03-9.59289E+03 2.63005E+04 3.01316E-09-2.48338E-09
 -1       868-9.73508E+05 2.66137E+03-1.62922E+04-3.64187E+03 1.36729E-08-8.70205E-09
 -1       869-9.88288E+05-2.50942E+04-4.21599E+04 2.50679E+04-9.28321E-09-7.56199E-09
 -1       870-9.63536E+05 2.10269E+04-6.26196E+04-2.88368E+03 7.69205E-09-8.20000E-09
 -1       871-5.14738E+03-3.31872E+04-7.42840E+03 1.16083E+05 8.31642E-09 5.82077E-10
 -1       872-1.91808E+03-3.43542E+04-1.98189E+03 1.32038E+05 3.73075E-09-8.46421E-09
 -1       873-1.80774E+02-3.40313E+04 2.54864E+03 1.15871E+05 9.25093E-09 1.45155E-09
 -1       874 2.88616E+03-3.21685E+04 8.97475E+03 1.32191E+05 9.09949E-09-6.93376E-10
 -1       875 1.04711E+04-3.55388E+04 1.94804E+04 1.15981E+05 7.83166E-09 1.44382E-09
 -1       876 1.01176E+06 1.14550E+05 9.67255E+04 3.96559E+05-1.51886E-09-5.35510E-09
 -1       877 1.03939E+06 2.06439E+05 6.42057E+04 4.05492E+05-1.79239E-08-2.39834E-09
 -1       878 1.02954E+06 1.44347E+05 2.28276E+04 3.92585E+05-9.73500E-09-5.47880E-09
 -1       879 1.01920E+06 1.70756E+05 1.33624E+04 4.10067E+05-1.47332E-08 1.98270E-10
 -1       880 1.03164E+06 1.48654E+05 5.35379E+03 3.92540E+05-1.11255E-08 3.58204E-09
 -1       881 1.01693E+06 1.65525E+05 3.01839E+03 4.09904E+05-3.77037E-09-8.68249E-09
 -1       882 1.03173E+06 1.49425E+05 1.52997E+03 3.92779E+05-2.68798E-08 2.00259E-10
 -1       883 1.01689E+06 1.64680E+05 1.34411E+03 4.09561E+05-4.69092E-08-3.69792E-09
 -1       884 1.03164E+06 1.49498E+05 1.67122E+03 3.92870E+05-6.97861E-09 4.27406E-09
 -1       885 1.01729E+06 1.65309E+05 3.41967E+03 4.09512E+05 3.23964E-08 9.98637E-09
 -1       886 1.03134E+06 1.48817E+05 6.13842E+03 3.92821E+05 6.96696E-09 6.73936E-10
 -1       887 1.02029E+06 1.70893E+05 1.53345E+04 4.09179E+05 2.03136E-09-1.27466E-09
 -1       888 1.02870E+06 1.44113E+05 2.62379E+04 3.93138E+05 1.07104E-08-2.89219E-10
 -1       889 1.04395E+06 2.11372E+05 7.37529E+04 4.03292E+05 1.54134E-08 1.09503E-08
 -1       890 1.00799E+06 1.10186E+05 1.11169E+05 3.98030E+05 2.43599E-08 5.28235E-09
 -1       891 4.65059E+03-4.29851E+05-1.51788E+04 4.82148E+03 5.84441E-09-1.52795E-10
 -1       892-7.50902E+03-4.35363E+05-1.31802E+04 1.26011E+05 9.28458E-09 1.69587E-09
 -1       893 1.78534E+03-4.31359E+05-1.05566E+04 4.53604E+03 2.37196E-09 5.93730E-11
 -1       894-1.24190E+04-4.37827E+05-2.04805E+04 1.25955E+05 1.66801E-08-4.37376E-09
 -1       895 9.22718E+03-4.27336E+05-2.83365E+04 4.87699E+03 4.05089E-09-2.31012E-10
 -1       896 1.10831E+06-7.26432E+03 1.90813E+04 2.58527E+03-1.60981E-10-4.08454E-09
 -1       897 1.11632E+06 8.47783E+03 1.31798E+04-1.33711E+04-6.32099E-11-2.84331E-09
 -1       898 1.11146E+06-1.02355E+03 4.96972E+03 1.69517E+03-3.21961E-10-2.07706E-09
 -1       899 1.11265E+06 1.17737E+03 3.04635E+03-1.18601E+04 2.17824E-10-6.92410E-10
 -1       900 1.11194E+06-1.46507E+02 1.33791E+03 1.07453E+03 4.04498E-10-5.20345E-10
 -1       901 1.11208E+06 1.75165E+02 8.76032E+02-1.08580E+04 7.17705E-10 2.97007E-11
 -1       902 1.11201E+06-3.14660E+01 6.35642E+02 6.93056E+02-9.69749E-11 5.22157E-10
 -1       903 1.11203E+06 1.16664E+02 8.52793E+02-1.03106E+04-5.05324E-10 8.02174E-10
 -1       904 1.11198E+06-8.18261E+01 1.35354E+03 5.27069E+02-2.06967E-10 9.94874E-10
 -1       905 1.11235E+06 6.68770E+02 2.87358E+03-1.01858E+04 6.61707E-10 1.21645E-09
 -1       906 1.11169E+06-5.70021E+02 5.07929E+03 5.68352E+02-2.39510E-10 5.02268E-10
 -1       907 1.11452E+06 4.76447E+03 1.20255E+04-1.04766E+04-6.62112E-10 7.44194E-10
 -1       908 1.10981E+06-4.07472E+03 1.98838E+04 8.17858E+02-2.60343E-10 1.64619E-10
 -1       909 1.12891E+06 3.40784E+04 5.27232E+04-1.12012E+04-5.08180E-10-1.44064E-09
 -1       910 1.09729E+06-2.90456E+04 7.65663E+04 1.29245E+03-5.61613E-11-9.31323E-10
 -1       911 4.05455E+05-5.25621E+03 1.37586E+04 1.31141E+03-2.28965E-10-4.01087E-10
 -1       912 4.11314E+05 6.14310E+03 9.52122E+03-1.52414E+04-1.62800E-10 1.74089E-09
 -1       913 4.07735E+05-7.45452E+02 3.58887E+03 9.67526E+02-6.50743E-10 2.26532E-09
 -1       914 4.08635E+05 8.78707E+02 2.22010E+03-1.46532E+04-5.81167E-10 3.40196E-09
 -1       915 4.08087E+05-1.09700E+02 1.00119E+03 7.23321E+02 1.16461E-09 3.76008E-09
 -1       916 4.08202E+05 1.64632E+02 7.12133E+02-1.42712E+04 1.93214E-09 4.52323E-09
 -1       917 4.08138E+05-2.95832E+01 6.11222E+02 5.85498E+02 1.37447E-09 4.91115E-09
 -1       918 4.08185E+05 1.61736E+02 9.41813E+02-1.41001E+04 5.57208E-10 4.43042E-09
 -1       919 4.08091E+05-9.86624E+01 1.58722E+03 5.52289E+02 1.52573E-09 4.39275E-09
 -1       920 4.08588E+05 8.32620E+02 3.43235E+03-1.41369E+04 1.18315E-09 4.42918E-09
 -1       921 4.07737E+05-6.88180E+02 6.09027E+03 6.22303E+02 1.57058E-09 3.94948E-09
 -1       922 4.11222E+05 5.75461E+03 1.44481E+04-1.43804E+04 2.35599E-09 2.83580E-09
 -1       923 4.05474E+05-4.90531E+03 2.38868E+04 7.95925E+02 5.21254E-10 2.89856E-09
 -1       924 4.28563E+05 4.09983E+04 6.33813E+04-1.48269E+04 1.35674E-09 1.81626E-09
 -1       925 3.90430E+05-3.49361E+04 9.20380E+04 1.06870E+03 9.11086E-10 1.70621E-09
 -1       926-1.49490E+06 3.00961E+04-7.92323E+04-6.28551E+02 1.43450E-09-9.85892E-10
 -1       927-1.52749E+06-3.53185E+04-5.45575E+04 5.13361E+03-5.26882E-10-3.63798E-11
 -1       928-1.50782E+06 4.21756E+03-2.05591E+04-1.36091E+03 8.76071E-10-1.48793E-09
 -1       929-1.51262E+06-4.92863E+03-1.24261E+04 6.40418E+03 1.23032E-09-4.24188E-09
 -1       930-1.50974E+06 5.87344E+02-5.24711E+03-1.89910E+03 5.90660E-10-2.72530E-09
 -1       931-1.51040E+06-6.75861E+02-2.96897E+03 7.24924E+03 3.00543E-09-3.09200E-09
 -1       932-1.51004E+06 8.24125E+01-1.40391E+03-2.20606E+03 2.49821E-09-3.70170E-09
 -1       933-1.51007E+06-1.04272E+02-8.96815E+02 7.60975E+03 2.46569E-10-3.39509E-09
 -1       934-1.51007E+06 3.12951E+01-6.90887E+02-2.25964E+03-4.93714E-10-3.25560E-09
 -1       935-1.51011E+06-1.87308E+02-9.78304E+02 7.45861E+03 8.78856E-10-4.12363E-09
 -1       936-1.51000E+06 1.61535E+02-1.52600E+03-2.05491E+03-4.01656E-10-2.64623E-09
 -1       937-1.51070E+06-1.35527E+03-3.47137E+03 6.80726E+03 5.22959E-10-3.56471E-09
 -1       938-1.50947E+06 1.16279E+03-5.70247E+03-1.60824E+03 1.13812E-09-3.32648E-09
 -1       939-1.51479E+06-9.75597E+03-1.50836E+04 5.70185E+03 1.37561E-09-1.92085E-09
 -1       940-1.50591E+06 8.31217E+03-2.19098E+04-9.49458E+02 3.58455E-10-6.27551E-10
 -1       941 4.62293E+06-2.02058E+05 5.34978E+05 6.51460E+02 4.27906E-09 4.39468E-09
 -1       942 4.84314E+06 2.37295E+05 3.67812E+05 5.78440E+03 5.22675E-09-5.58794E-09
 -1       943 4.71019E+06-2.83443E+04 1.39081E+05 1.58362E+03-2.10576E-10-1.99361E-09
 -1       944 4.74328E+06 3.31605E+04 8.41955E+04 4.18733E+03-2.44899E-09-4.60386E-09
 -1       945 4.72335E+06-3.97040E+03 3.58820E+04 2.24920E+03-8.75389E-11 1.90812E-09
 -1       946 4.72832E+06 4.67458E+03 2.07906E+04 2.96103E+03 2.26781E-09 4.63001E-09
 -1       947 4.72536E+06-6.11797E+02 1.07730E+04 2.81034E+03 1.75621E-09 3.01225E-09
 -1       948 4.72629E+06 1.15131E+03 8.71363E+03 1.80337E+03 1.20292E-09 1.28367E-10
 -1       949 4.72542E+06-5.25995E+02 9.57401E+03 3.40697E+03-3.67498E-09-9.58039E-09
 -1       950 4.72784E+06 3.86130E+03 1.74491E+04 4.24323E+02 7.03309E-10 3.28851E-09
 -1       951 4.72379E+06-3.26035E+03 2.96373E+04 4.18937E+03-1.95507E-09-8.35462E-09
 -1       952 4.74010E+06 2.72158E+04 6.92117E+04-1.53105E+03-3.59540E-09-6.40739E-09
 -1       953 4.71298E+06-2.32655E+04 1.14207E+05 5.36163E+03-4.18777E-09-1.36060E-09
 -1       954 4.82210E+06 1.94781E+05 3.01957E+05-4.65240E+03-6.70366E-09-6.63931E-09
 -1       955 4.64128E+06-1.65886E+05 4.39000E+05 7.30219E+03-6.35816E-09-4.83124E-09
 -1       956-2.66235E+05-4.14958E+03-7.65185E+03 5.39357E+04-4.22733E-09-1.50067E-09
 -1       957-2.67553E+05-1.22978E+03-3.80596E+03 6.08475E+04-1.21599E-09-1.28330E-09
 -1       958-2.66881E+05-1.01517E+02-1.71044E+03 5.35905E+04 8.90759E-09-3.74871E-09
 -1       959-2.67057E+05 1.27181E+02-8.62794E+02 6.12261E+04-4.80577E-09-3.84443E-09
 -1       960-2.67024E+05 1.86367E+02-4.18730E+02 5.35497E+04-1.38425E-08-5.59612E-09
 -1       961-2.67082E+05 2.46393E+02-2.16662E+02 6.12718E+04-1.99216E-08-1.73168E-09
 -1       962-2.67099E+05 2.29607E+02-1.19165E+02 5.35435E+04-3.74530E-09-2.42608E-09
 -1       963-2.67139E+05 2.81877E+02-8.28004E+01 6.12798E+04-1.15665E-08-2.94813E-09
 -1       964-2.67146E+05 2.56730E+02-8.75806E+01 5.35410E+04 3.93811E-09-3.73439E-09
 -1       965-2.67183E+05 3.03854E+02-1.38876E+02 6.12812E+04 2.23956E-08-4.73256E-09
 -1       966-2.67167E+05 2.70619E+02-2.55412E+02 5.35417E+04-7.08496E-10-4.90854E-09
 -1       967-2.67238E+05 2.70111E+02-5.25206E+02 6.12693E+04-6.32099E-11-8.60837E-10
 -1       968-2.67136E+05 1.30275E+02-1.03575E+03 5.35533E+04-2.64322E-10-4.03179E-09
 -1       969-2.67601E+05-5.25470E+02-2.31251E+03 6.11593E+04-2.75952E-09-1.14051E-09
 -1       970-2.66785E+05-2.31437E+03-4.64516E+03 5.36596E+04-1.10504E-10-3.21506E-09
 -1       971-1.13071E+06 2.79189E+04-8.31249E+04-2.69133E+03-1.17170E-08-1.34605E-10
 -1       972-1.16340E+06-3.34588E+04-5.59610E+04 2.18668E+04-1.00281E-08-1.69348E-09
 -1       973-1.14395E+06 3.52757E+03-2.16270E+04-3.78389E+03-1.54359E-08-4.87853E-09
 -1       974-1.14850E+06-4.05878E+03-1.27123E+04 2.37488E+04 1.11959E-09-8.26049E-09
 -1       975-1.14576E+06 4.22659E+02-5.58276E+03-4.57813E+03 7.85167E-09-6.78347E-09
 -1       976-1.14657E+06-2.78257E+02-3.17941E+03 2.50203E+04-1.41335E-08-5.33055E-09
 -1       977-1.14600E+06 4.23417E+01-1.75457E+03-5.05724E+03 2.86680E-08-9.19181E-09
 -1       978-1.14640E+06 1.60032E+02-1.51909E+03 2.56526E+04 5.20912E-08-1.28522E-08
 -1       979-1.14599E+06 5.20202E+01-1.85869E+03-5.21120E+03 1.90807E-08-1.26671E-08
 -1       980-1.14670E+06-3.02904E+02-3.48154E+03 2.56292E+04 4.83448E-09-1.13802E-08
 -1       981-1.14571E+06 4.83338E+02-6.13675E+03-5.03364E+03 1.16302E-09-7.87168E-09
 -1       982-1.14892E+06-4.44991E+03-1.40521E+04 2.49535E+04 2.05546E-09-4.14207E-09
 -1       983-1.14370E+06 3.92441E+03-2.38713E+04-4.53380E+03 1.13546E-08-9.28594E-09
 -1       984-1.16547E+06-3.69179E+04-6.18579E+04 2.36570E+04-7.73503E-09-6.87578E-09
 -1       985-1.12906E+06 3.08918E+04-9.18193E+04-3.72974E+03 1.47647E-08-8.33825E-09
 -3
 9999
