
 stresses (elem, integ.pnt.,sxx,syy,szz,sxy,sxz,syz) for set ELALL and time  0.1000000E+01

         1   1 -5.138002E+06 -6.090097E+05 -7.880838E+05 -1.081217E+05 -5.363523E+05  9.414675E+01
         1   2 -5.019644E+06  1.287254E+05 -3.380501E+05 -2.838560E+04 -3.522138E+05  1.622939E+01
         1   3 -5.136476E+06  2.389415E+04 -2.191425E+05  5.136504E+04 -1.680827E+05 -1.401740E+01
         1   4 -5.138014E+06 -6.090318E+05 -7.880870E+05  5.495852E-08 -5.363522E+05 -8.366901E-10
         1   5 -5.019645E+06  1.287239E+05 -3.380503E+05  1.437863E-08 -3.522138E+05 -1.614907E-09
         1   6 -5.136478E+06  2.388915E+04 -2.191432E+05  8.126165E-08 -1.680827E+05  4.772967E-11
         1   7 -5.138002E+06 -6.090097E+05 -7.880838E+05  1.081217E+05 -5.363523E+05 -9.414675E+01
         1   8 -5.019644E+06  1.287254E+05 -3.380501E+05  2.838560E+04 -3.522138E+05 -1.622939E+01
         1   9 -5.136476E+06  2.389415E+04 -2.191425E+05 -5.136504E+04 -1.680827E+05  1.401740E+01
         1  10 -5.138312E+06 -6.090877E+05 -7.886289E+05 -1.081217E+05  2.625738E-09 -1.636840E-10
         1  11 -5.019779E+06  1.286918E+05 -3.382851E+05 -2.838560E+04 -1.176064E-09 -1.215341E-09
         1  12 -5.136506E+06  2.388648E+04 -2.191960E+05  5.136504E+04  6.761810E-10 -4.612717E-10
         1  13 -5.138325E+06 -6.091098E+05 -7.886321E+05  3.360217E-09  2.165397E-09 -5.142298E-10
         1  14 -5.019779E+06  1.286902E+05 -3.382853E+05  5.788255E-09 -1.119331E-09 -1.039271E-09
         1  15 -5.136509E+06  2.388148E+04 -2.191967E+05 -8.959723E-09  1.409168E-09  6.038030E-10
         1  16 -5.138312E+06 -6.090877E+05 -7.886289E+05  1.081217E+05 -3.791529E-10 -3.271252E-10
         1  17 -5.019779E+06  1.286918E+05 -3.382851E+05  2.838560E+04 -3.625913E-09 -3.223647E-10
         1  18 -5.136506E+06  2.388648E+04 -2.191960E+05 -5.136504E+04  3.374470E-09  1.436962E-09
         1  19 -5.138002E+06 -6.090097E+05 -7.880838E+05 -1.081217E+05  5.363523E+05 -9.414675E+01
         1  20 -5.019644E+06  1.287254E+05 -3.380501E+05 -2.838560E+04  3.522138E+05 -1.622939E+01
         1  21 -5.136476E+06  2.389415E+04 -2.191425E+05  5.136504E+04  1.680827E+05  1.401740E+01
         1  22 -5.138014E+06 -6.090318E+05 -7.880870E+05  7.213312E-08  5.363522E+05 -1.931790E-10
         1  23 -5.019645E+06  1.287239E+05 -3.380503E+05  1.440377E-08  3.522138E+05 -2.477769E-10
         1  24 -5.136478E+06  2.388915E+04 -2.191432E+05  6.414374E-08  1.680827E+05  1.237064E-09
         1  25 -5.138002E+06 -6.090097E+05 -7.880838E+05  1.081217E+05  5.363523E+05  9.414675E+01
         1  26 -5.019644E+06  1.287254E+05 -3.380501E+05  2.838560E+04  3.522138E+05  1.622939E+01
         1  27 -5.136476E+06  2.389415E+04 -2.191425E+05 -5.136504E+04  1.680827E+05 -1.401740E+01
         2   1 -5.092504E+06 -8.502377E+04 -1.807477E+05 -1.425309E+04 -1.325562E+05  3.067284E+00
         2   2 -5.074604E+06  1.805852E+04 -8.759982E+04 -3.438353E+03 -8.694211E+04  4.853103E-01
         2   3 -5.092218E+06  3.258428E+03 -5.379227E+04  7.376395E+03 -4.132689E+04 -4.949123E-01
         2   4 -5.092504E+06 -8.502415E+04 -1.807478E+05  5.585748E-08 -1.325562E+05  1.920460E-09
         2   5 -5.074604E+06  1.805850E+04 -8.759982E+04 -2.668033E-08 -8.694211E+04  2.026547E-09
         2   6 -5.092218E+06  3.258325E+03 -5.379228E+04  1.057494E-07 -4.132689E+04 -4.006013E-10
         2   7 -5.092504E+06 -8.502377E+04 -1.807477E+05  1.425309E+04 -1.325562E+05 -3.067284E+00
         2   8 -5.074604E+06  1.805852E+04 -8.759982E+04  3.438353E+03 -8.694211E+04 -4.853103E-01
         2   9 -5.092218E+06  3.258428E+03 -5.379227E+04 -7.376395E+03 -4.132689E+04  4.949123E-01
         2  10 -5.092523E+06 -8.502853E+04 -1.807810E+05 -1.425309E+04  1.232627E-09  1.117543E-09
         2  11 -5.074612E+06  1.805647E+04 -8.761414E+04 -3.438353E+03 -4.295931E-09  9.628714E-10
         2  12 -5.092220E+06  3.257965E+03 -5.379551E+04  7.376395E+03  2.182137E-09 -1.467208E-09
         2  13 -5.092523E+06 -8.502892E+04 -1.807811E+05 -6.454732E-08 -1.766722E-09  1.252100E-09
         2  14 -5.074612E+06  1.805645E+04 -8.761414E+04 -4.390665E-08 -1.863280E-09  1.419026E-10
         2  15 -5.092220E+06  3.257862E+03 -5.379552E+04  2.538517E-09  3.318495E-09 -9.681619E-10
         2  16 -5.092523E+06 -8.502853E+04 -1.807810E+05  1.425309E+04 -2.340770E-09  2.201976E-09
         2  17 -5.074612E+06  1.805647E+04 -8.761414E+04  3.438353E+03  3.640980E-09  3.894144E-10
         2  18 -5.092220E+06  3.257965E+03 -5.379551E+04 -7.376395E+03 -1.205114E-09  3.974168E-11
         2  19 -5.092504E+06 -8.502377E+04 -1.807477E+05 -1.425309E+04  1.325562E+05 -3.067284E+00
         2  20 -5.074604E+06  1.805852E+04 -8.759982E+04 -3.438353E+03  8.694211E+04 -4.853103E-01
         2  21 -5.092218E+06  3.258428E+03 -5.379227E+04  7.376395E+03  4.132689E+04  4.949123E-01
         2  22 -5.092504E+06 -8.502415E+04 -1.807478E+05  3.862594E-08  1.325562E+05  9.042163E-10
         2  23 -5.074604E+06  1.805850E+04 -8.759982E+04  2.486087E-08  8.694211E+04 -1.068115E-09
         2  24 -5.092218E+06  3.258325E+03 -5.379228E+04  8.847105E-08  4.132689E+04 -1.540574E-09
         2  25 -5.092504E+06 -8.502377E+04 -1.807477E+05  1.425309E+04  1.325562E+05  3.067284E+00
         2  26 -5.074604E+06  1.805852E+04 -8.759982E+04  3.438353E+03  8.694211E+04  4.853103E-01
         2  27 -5.092218E+06  3.258428E+03 -5.379227E+04 -7.376395E+03  4.132689E+04 -4.949123E-01
         3   1 -5.085624E+06 -1.178676E+04 -4.284128E+04 -1.768698E+03 -3.268348E+04  9.384880E-02
         3   2 -5.082789E+06  2.530017E+03 -2.245391E+04 -3.478839E+02 -2.127647E+04  1.201655E-02
         3   3 -5.085568E+06  4.140452E+02 -1.364622E+04  1.072902E+03 -9.869502E+03 -1.719108E-02
         3   4 -5.085624E+06 -1.178677E+04 -4.284128E+04  4.381707E-08 -3.268348E+04 -2.394072E-10
         3   5 -5.082789E+06  2.530017E+03 -2.245391E+04  9.139574E-09 -2.127647E+04  1.581006E-10
         3   6 -5.085568E+06  4.140430E+02 -1.364622E+04  1.314114E-08 -9.869502E+03 -2.095418E-09
         3   7 -5.085624E+06 -1.178676E+04 -4.284128E+04  1.768698E+03 -3.268348E+04 -9.384881E-02
         3   8 -5.082789E+06  2.530017E+03 -2.245391E+04  3.478839E+02 -2.127647E+04 -1.201655E-02
         3   9 -5.085568E+06  4.140452E+02 -1.364622E+04 -1.072902E+03 -9.869502E+03  1.719107E-02
         3  10 -5.085625E+06 -1.178705E+04 -4.284330E+04 -1.768698E+03 -1.947861E-09 -4.983101E-10
         3  11 -5.082790E+06  2.529894E+03 -2.245477E+04 -3.478839E+02  3.332807E-09  1.110392E-09
         3  12 -5.085568E+06  4.140188E+02 -1.364641E+04  1.072902E+03  9.411512E-10 -4.871755E-10
         3  13 -5.085625E+06 -1.178706E+04 -4.284330E+04  2.669196E-08  1.148521E-10 -3.370614E-10
         3  14 -5.082790E+06  2.529894E+03 -2.245477E+04 -8.056835E-09  2.149487E-09  2.692512E-10
         3  15 -5.085568E+06  4.140166E+02 -1.364641E+04 -8.425475E-09  3.157217E-09 -1.778166E-09
         3  16 -5.085625E+06 -1.178705E+04 -4.284330E+04  1.768698E+03  2.512736E-09  4.262777E-10
         3  17 -5.082790E+06  2.529894E+03 -2.245477E+04  3.478839E+02 -3.476373E-09  8.515904E-10
         3  18 -5.085568E+06  4.140188E+02 -1.364641E+04 -1.072902E+03 -1.613089E-09 -1.759754E-09
         3  19 -5.085624E+06 -1.178676E+04 -4.284128E+04 -1.768698E+03  3.268348E+04 -9.384880E-02
         3  20 -5.082789E+06  2.530017E+03 -2.245391E+04 -3.478839E+02  2.127647E+04 -1.201655E-02
         3  21 -5.085568E+06  4.140452E+02 -1.364622E+04  1.072902E+03  9.869502E+03  1.719107E-02
         3  22 -5.085624E+06 -1.178677E+04 -4.284128E+04  2.676946E-08  3.268348E+04 -4.602064E-10
         3  23 -5.082789E+06  2.530017E+03 -2.245391E+04  9.120757E-09  2.127647E+04  2.008814E-09
         3  24 -5.085568E+06  4.140430E+02 -1.364622E+04  3.017821E-08  9.869502E+03 -1.602760E-09
         3  25 -5.085624E+06 -1.178676E+04 -4.284128E+04  1.768698E+03  3.268348E+04  9.384881E-02
         3  26 -5.082789E+06  2.530017E+03 -2.245391E+04  3.478839E+02  2.127647E+04  1.201655E-02
         3  27 -5.085568E+06  4.140452E+02 -1.364622E+04 -1.072902E+03  9.869502E+03 -1.719108E-02
         4   1 -5.084561E+06 -1.609036E+03 -1.085501E+04 -2.064489E+02 -7.669249E+03  2.570471E-03
         4   2 -5.084029E+06  3.856145E+02 -6.561544E+03 -1.901381E+01 -4.383728E+03  1.353207E-04
         4   3 -5.084551E+06 -9.867886E+01 -5.040039E+03  1.684238E+02 -1.098147E+03 -3.002685E-04
         4   4 -5.084561E+06 -1.609036E+03 -1.085501E+04  6.981458E-08 -7.669249E+03 -1.514051E-09
         4   5 -5.084029E+06  3.856145E+02 -6.561544E+03  1.026264E-08 -4.383728E+03  6.225335E-10
         4   6 -5.084551E+06 -9.867891E+01 -5.040039E+03  3.668781E-08 -1.098147E+03  1.430913E-09
         4   7 -5.084561E+06 -1.609036E+03 -1.085501E+04  2.064489E+02 -7.669249E+03 -2.570476E-03
         4   8 -5.084029E+06  3.856145E+02 -6.561544E+03  1.901381E+01 -4.383728E+03 -1.353193E-04
         4   9 -5.084551E+06 -9.867886E+01 -5.040039E+03 -1.684238E+02 -1.098147E+03  3.002693E-04
         4  10 -5.084561E+06 -1.609052E+03 -1.085512E+04 -2.064489E+02  1.340283E-09 -1.689994E-09
         4  11 -5.084029E+06  3.856093E+02 -6.561581E+03 -1.901381E+01  6.349012E-09  4.489277E-10
         4  12 -5.084551E+06 -9.867919E+01 -5.040042E+03  1.684238E+02  1.510723E-09  8.096676E-10
         4  13 -5.084561E+06 -1.609052E+03 -1.085512E+04  1.828444E-08 -2.379396E-09 -1.958340E-09
         4  14 -5.084029E+06  3.856093E+02 -6.561581E+03 -4.131568E-08 -1.919625E-09  1.327747E-09
         4  15 -5.084551E+06 -9.867924E+01 -5.040042E+03 -7.515898E-08  2.475731E-09  2.358612E-10
         4  16 -5.084561E+06 -1.609052E+03 -1.085512E+04  2.064489E+02  3.089982E-10 -1.686979E-09
         4  17 -5.084029E+06  3.856093E+02 -6.561581E+03  1.901381E+01 -3.732980E-09  1.667925E-09
         4  18 -5.084551E+06 -9.867919E+01 -5.040042E+03 -1.684238E+02 -1.850177E-09  6.287655E-10
         4  19 -5.084561E+06 -1.609036E+03 -1.085501E+04 -2.064489E+02  7.669249E+03 -2.570471E-03
         4  20 -5.084029E+06  3.856145E+02 -6.561544E+03 -1.901381E+01  4.383728E+03 -1.353150E-04
         4  21 -5.084551E+06 -9.867886E+01 -5.040039E+03  1.684238E+02  1.098147E+03  3.002701E-04
         4  22 -5.084561E+06 -1.609036E+03 -1.085501E+04  1.222233E-09  7.669249E+03 -2.486394E-09
         4  23 -5.084029E+06  3.856145E+02 -6.561544E+03 -6.708703E-08  4.383728E+03  6.033937E-10
         4  24 -5.084551E+06 -9.867891E+01 -5.040039E+03  4.335928E-09  1.098147E+03 -5.539703E-10
         4  25 -5.084561E+06 -1.609036E+03 -1.085501E+04  2.064489E+02  7.669249E+03  2.570469E-03
         4  26 -5.084029E+06  3.856145E+02 -6.561544E+03  1.901381E+01  4.383728E+03  1.353189E-04
         4  27 -5.084551E+06 -9.867886E+01 -5.040039E+03 -1.684238E+02  1.098147E+03 -3.002725E-04
         5   1 -5.084502E+06 -1.767224E+02 -4.822479E+03 -1.256293E+02 -2.107323E+02  4.298273E-05
         5   2 -5.084089E+06  2.981870E+02 -5.354143E+03  1.671306E+01  2.468020E+03  6.696711E-05
         5   3 -5.084507E+06 -1.141539E+03 -8.119199E+03  1.590556E+02  5.146767E+03  1.329021E-03
         5   4 -5.084502E+06 -1.767224E+02 -4.822479E+03  4.160114E-08 -2.107323E+02  8.563893E-10
         5   5 -5.084089E+06  2.981870E+02 -5.354143E+03  4.611016E-08  2.468020E+03  5.250598E-10
         5   6 -5.084507E+06 -1.141539E+03 -8.119199E+03  5.919633E-08  5.146767E+03 -4.748900E-10
         5   7 -5.084502E+06 -1.767224E+02 -4.822479E+03  1.256293E+02 -2.107323E+02 -4.297969E-05
         5   8 -5.084089E+06  2.981870E+02 -5.354143E+03 -1.671306E+01  2.468020E+03 -6.696638E-05
         5   9 -5.084507E+06 -1.141539E+03 -8.119199E+03 -1.590556E+02  5.146767E+03 -1.329015E-03
         5  10 -5.084502E+06 -1.767224E+02 -4.822479E+03 -1.256293E+02 -1.346091E-09  1.003682E-09
         5  11 -5.084089E+06  2.981853E+02 -5.354154E+03  1.671306E+01  2.784255E-09  9.938885E-10
         5  12 -5.084507E+06 -1.141546E+03 -8.119249E+03  1.590556E+02  2.112686E-10 -7.987049E-10
         5  13 -5.084502E+06 -1.767224E+02 -4.822479E+03  2.446355E-08  2.542288E-09 -1.834308E-10
         5  14 -5.084089E+06  2.981853E+02 -5.354154E+03  3.119528E-09  2.299025E-10  3.933031E-10
         5  15 -5.084507E+06 -1.141546E+03 -8.119249E+03 -1.028253E-09  3.655336E-09 -9.579251E-10
         5  16 -5.084502E+06 -1.767224E+02 -4.822479E+03  1.256293E+02 -1.787929E-10 -1.638585E-09
         5  17 -5.084089E+06  2.981853E+02 -5.354154E+03 -1.671306E+01  2.647013E-09  6.346834E-11
         5  18 -5.084507E+06 -1.141546E+03 -8.119249E+03 -1.590556E+02  1.904727E-09 -7.852948E-10
         5  19 -5.084502E+06 -1.767224E+02 -4.822479E+03 -1.256293E+02  2.107323E+02 -4.297949E-05
         5  20 -5.084089E+06  2.981870E+02 -5.354143E+03  1.671306E+01 -2.468020E+03 -6.696242E-05
         5  21 -5.084507E+06 -1.141539E+03 -8.119199E+03  1.590556E+02 -5.146767E+03 -1.329020E-03
         5  22 -5.084502E+06 -1.767224E+02 -4.822479E+03  1.104804E-07  2.107323E+02 -1.059692E-09
         5  23 -5.084089E+06  2.981870E+02 -5.354143E+03  7.189616E-08 -2.468020E+03  9.530345E-10
         5  24 -5.084507E+06 -1.141539E+03 -8.119199E+03  6.125998E-08 -5.146767E+03 -1.346621E-09
         5  25 -5.084502E+06 -1.767224E+02 -4.822479E+03  1.256293E+02  2.107323E+02  4.297795E-05
         5  26 -5.084089E+06  2.981870E+02 -5.354143E+03 -1.671306E+01 -2.468020E+03  6.696383E-05
         5  27 -5.084507E+06 -1.141539E+03 -8.119199E+03 -1.590556E+02 -5.146767E+03  1.329015E-03
         6   1 -5.085210E+06  2.809299E+02 -1.001048E+04 -7.622118E+02  6.774935E+03 -8.383562E-03
         6   2 -5.083225E+06  1.802934E+03 -1.614301E+04  2.489471E+02  1.497373E+04  6.051784E-03
         6   3 -5.085249E+06 -8.384091E+03 -3.057321E+04  1.260095E+03  2.317234E+04  4.740456E-02
         6   4 -5.085210E+06  2.809288E+02 -1.001048E+04  8.795533E-08  6.774935E+03 -1.855394E-10
         6   5 -5.083225E+06  1.802934E+03 -1.614301E+04  3.721358E-08  1.497373E+04 -4.848504E-10
         6   6 -5.085249E+06 -8.384094E+03 -3.057321E+04  1.197826E-07  2.317234E+04  5.722268E-10
         6   7 -5.085210E+06  2.809299E+02 -1.001048E+04  7.622118E+02  6.774935E+03  8.383559E-03
         6   8 -5.083225E+06  1.802934E+03 -1.614301E+04 -2.489471E+02  1.497373E+04 -6.051787E-03
         6   9 -5.085249E+06 -8.384091E+03 -3.057321E+04 -1.260095E+03  2.317234E+04 -4.740455E-02
         6  10 -5.085210E+06  2.809174E+02 -1.001057E+04 -7.622118E+02 -2.608348E-09 -1.178300E-09
         6  11 -5.083225E+06  1.802873E+03 -1.614344E+04  2.489471E+02  3.940710E-09  3.564408E-10
         6  12 -5.085250E+06 -8.384236E+03 -3.057422E+04  1.260095E+03  5.330809E-09  8.268280E-10
         6  13 -5.085210E+06  2.809163E+02 -1.001057E+04  7.078000E-08  3.839457E-09 -8.995973E-10
         6  14 -5.083225E+06  1.802873E+03 -1.614344E+04  4.582642E-08  1.689944E-09  3.076667E-10
         6  15 -5.085250E+06 -8.384239E+03 -3.057422E+04  2.518824E-08  4.088368E-09  1.097574E-09
         6  16 -5.085210E+06  2.809174E+02 -1.001057E+04  7.622118E+02 -7.116248E-10 -1.162144E-09
         6  17 -5.083225E+06  1.802873E+03 -1.614344E+04 -2.489471E+02 -3.325515E-09 -5.484738E-10
         6  18 -5.085250E+06 -8.384236E+03 -3.057422E+04 -1.260095E+03  1.183740E-09  1.165142E-09
         6  19 -5.085210E+06  2.809299E+02 -1.001048E+04 -7.622118E+02 -6.774935E+03  8.383560E-03
         6  20 -5.083225E+06  1.802934E+03 -1.614301E+04  2.489471E+02 -1.497373E+04 -6.051780E-03
         6  21 -5.085249E+06 -8.384091E+03 -3.057321E+04  1.260095E+03 -2.317234E+04 -4.740455E-02
         6  22 -5.085210E+06  2.809288E+02 -1.001048E+04  8.802028E-08 -6.774935E+03 -1.188786E-09
         6  23 -5.083225E+06  1.802934E+03 -1.614301E+04 -1.434617E-08 -1.497373E+04  1.012556E-09
         6  24 -5.085249E+06 -8.384094E+03 -3.057321E+04  6.597496E-08 -2.317234E+04  1.263856E-09
         6  25 -5.085210E+06  2.809299E+02 -1.001048E+04  7.622118E+02 -6.774935E+03 -8.383563E-03
         6  26 -5.083225E+06  1.802934E+03 -1.614301E+04 -2.489471E+02 -1.497373E+04  6.051782E-03
         6  27 -5.085249E+06 -8.384091E+03 -3.057321E+04 -1.260095E+03 -2.317234E+04  4.740455E-02
         7   1 -5.089937E+06  2.316293E+03 -3.833991E+04 -5.246494E+03  2.933693E+04 -2.498814E-01
         7   2 -5.077406E+06  1.284584E+04 -6.235861E+04  2.446308E+03  6.180467E+04  2.454560E-01
         7   3 -5.090142E+06 -6.048113E+04 -1.286040E+05  1.013922E+04  9.427231E+04  1.551795E+00
         7   4 -5.089937E+06  2.316241E+03 -3.833992E+04  8.435624E-08  2.933693E+04  6.379873E-10
         7   5 -5.077406E+06  1.284583E+04 -6.235861E+04  6.219565E-10  6.180467E+04  7.276035E-10
         7   6 -5.090142E+06 -6.048132E+04 -1.286040E+05  9.743037E-08  9.427231E+04  1.848424E-10
         7   7 -5.089937E+06  2.316293E+03 -3.833991E+04  5.246494E+03  2.933693E+04  2.498814E-01
         7   8 -5.077406E+06  1.284584E+04 -6.235861E+04 -2.446308E+03  6.180467E+04 -2.454560E-01
         7   9 -5.090142E+06 -6.048113E+04 -1.286040E+05 -1.013922E+04  9.427231E+04 -1.551795E+00
         7  10 -5.089938E+06  2.316060E+03 -3.834155E+04 -5.246494E+03  3.388568E-09  3.173627E-10
         7  11 -5.077410E+06  1.284481E+04 -6.236584E+04  2.446308E+03 -7.047884E-10 -6.929432E-10
         7  12 -5.090151E+06 -6.048354E+04 -1.286209E+05  1.013922E+04 -4.780999E-10 -3.795507E-10
         7  13 -5.089938E+06  2.316008E+03 -3.834155E+04 -1.617741E-09  2.540793E-09  5.805747E-10
         7  14 -5.077410E+06  1.284480E+04 -6.236585E+04  5.220834E-08  8.455226E-10  2.903285E-10
         7  15 -5.090151E+06 -6.048373E+04 -1.286209E+05  1.145553E-08 -6.535980E-10 -1.165022E-10
         7  16 -5.089938E+06  2.316060E+03 -3.834155E+04  5.246494E+03 -2.314198E-10  8.439335E-10
         7  17 -5.077410E+06  1.284481E+04 -6.236584E+04 -2.446308E+03  1.277747E-09  2.974873E-10
         7  18 -5.090151E+06 -6.048354E+04 -1.286209E+05 -1.013922E+04  2.996098E-09  1.228275E-10
         7  19 -5.089937E+06  2.316293E+03 -3.833991E+04 -5.246494E+03 -2.933693E+04  2.498814E-01
         7  20 -5.077406E+06  1.284584E+04 -6.235861E+04  2.446308E+03 -6.180467E+04 -2.454560E-01
         7  21 -5.090142E+06 -6.048113E+04 -1.286040E+05  1.013922E+04 -9.427231E+04 -1.551795E+00
         7  22 -5.089937E+06  2.316241E+03 -3.833992E+04  4.995280E-08 -2.933693E+04  5.643496E-10
         7  23 -5.077406E+06  1.284583E+04 -6.235861E+04  6.135589E-10 -6.180467E+04 -3.669205E-10
         7  24 -5.090142E+06 -6.048132E+04 -1.286040E+05  8.777427E-08 -9.427231E+04 -3.600245E-10
         7  25 -5.089937E+06  2.316293E+03 -3.833991E+04  5.246494E+03 -2.933693E+04 -2.498814E-01
         7  26 -5.077406E+06  1.284584E+04 -6.235861E+04 -2.446308E+03 -6.180467E+04  2.454560E-01
         7  27 -5.090142E+06 -6.048113E+04 -1.286040E+05 -1.013922E+04 -9.427231E+04  1.551795E+00
         8   1 -5.121422E+06  1.699369E+04 -1.559169E+05 -3.653690E+04  1.195533E+05 -7.091884E+00
         8   2 -5.038322E+06  9.156374E+04 -2.405362E+05  2.018965E+04  2.505296E+05  8.211070E+00
         8   3 -5.122531E+06 -4.332169E+05 -5.607236E+05  7.690944E+04  3.815109E+05  4.763547E+01
         8   4 -5.121424E+06  1.699116E+04 -1.559172E+05 -3.143806E-08  1.195533E+05  8.867421E-10
         8   5 -5.038323E+06  9.156297E+04 -2.405363E+05 -5.064787E-09  2.505296E+05  1.710613E-09
         8   6 -5.122537E+06 -4.332281E+05 -5.607252E+05  2.126974E-08  3.815109E+05  1.652960E-10
         8   7 -5.121422E+06  1.699369E+04 -1.559169E+05  3.653690E+04  1.195533E+05  7.091884E+00
         8   8 -5.038322E+06  9.156374E+04 -2.405362E+05 -2.018965E+04  2.505296E+05 -8.211070E+00
         8   9 -5.122531E+06 -4.332169E+05 -5.607236E+05 -7.690944E+04  3.815109E+05 -4.763547E+01
         8  10 -5.121438E+06  1.698981E+04 -1.559440E+05 -3.653690E+04 -3.617869E-09 -2.238552E-11
         8  11 -5.038390E+06  9.154672E+04 -2.406551E+05  2.018965E+04  4.100583E-09  1.523285E-10
         8  12 -5.122688E+06 -4.332564E+05 -5.609993E+05  7.690943E+04  2.214035E-09  3.429706E-10
         8  13 -5.121439E+06  1.698728E+04 -1.559443E+05 -8.301318E-08 -9.039047E-27  2.294643E-10
         8  14 -5.038391E+06  9.154595E+04 -2.406552E+05  2.073407E-08  5.599147E-09  5.610142E-10
         8  15 -5.122694E+06 -4.332676E+05 -5.610009E+05 -2.204953E-10 -1.735315E-09  1.614906E-10
         8  16 -5.121438E+06  1.698981E+04 -1.559440E+05  3.653690E+04 -1.217305E-09  2.194093E-11
         8  17 -5.038390E+06  9.154672E+04 -2.406551E+05 -2.018965E+04 -3.168198E-09  3.754268E-10
         8  18 -5.122688E+06 -4.332564E+05 -5.609993E+05 -7.690943E+04  8.271348E-10  4.518451E-10
         8  19 -5.121422E+06  1.699369E+04 -1.559169E+05 -3.653690E+04 -1.195533E+05  7.091884E+00
         8  20 -5.038322E+06  9.156374E+04 -2.405362E+05  2.018965E+04 -2.505296E+05 -8.211070E+00
         8  21 -5.122531E+06 -4.332169E+05 -5.607236E+05  7.690944E+04 -3.815109E+05 -4.763547E+01
         8  22 -5.121424E+06  1.699116E+04 -1.559172E+05 -3.139830E-08 -1.195533E+05 -4.076166E-10
         8  23 -5.038323E+06  9.156297E+04 -2.405363E+05 -4.806150E-08 -2.505296E+05 -1.007740E-09
         8  24 -5.122537E+06 -4.332281E+05 -5.607252E+05 -9.900515E-09 -3.815109E+05  3.729164E-10
         8  25 -5.121422E+06  1.699369E+04 -1.559169E+05  3.653690E+04 -1.195533E+05 -7.091884E+00
         8  26 -5.038322E+06  9.156374E+04 -2.405362E+05 -2.018965E+04 -2.505296E+05  8.211070E+00
         8  27 -5.122531E+06 -4.332169E+05 -5.607236E+05 -7.690944E+04 -3.815109E+05  4.763547E+01
         9   1  2.252795E+06  8.029988E+06  2.148397E+06 -1.516657E+06  1.015836E+05  8.307123E+05
         9   2  1.785390E+06  6.858230E+06  1.443503E+06 -1.368814E+06  3.405617E+05  3.892559E+05
         9   3  1.467307E+06  5.784734E+06  1.061802E+06 -1.408048E+06  3.963106E+05 -5.113374E+04
         9   4  1.651719E+05 -4.728721E+05  1.759143E+05 -1.388134E+06  1.036686E+05  1.196841E+05
         9   5  5.135464E+04 -4.849280E+05  9.016979E+04 -1.294896E+06  3.420600E+05  7.486427E+04
         9   6  1.939132E+04 -4.675749E+05  5.458982E+04 -1.388678E+06  3.962996E+05  3.019509E+04
         9   7 -1.927208E+06 -8.908402E+06 -1.799544E+06 -1.261258E+06  1.054848E+05 -5.817775E+05
         9   8 -1.685680E+06 -7.775927E+06 -1.265036E+06 -1.221776E+06  3.434971E+05 -2.359400E+05
         9   9 -1.430490E+06 -6.681286E+06 -9.536605E+05 -1.369427E+06  3.962934E+05  1.107385E+05
         9  10  2.252601E+06  8.029252E+06  2.147096E+06 -1.516725E+06 -1.299288E-09  5.714242E-09
         9  11  1.785225E+06  6.858037E+06  1.443002E+06 -1.368921E+06  5.444844E-10 -6.927004E-10
         9  12  1.467138E+06  5.784689E+06  1.061503E+06 -1.408031E+06  1.388394E-09 -7.416286E-09
         9  13  1.651565E+05 -4.728905E+05  1.758671E+05 -1.388144E+06  9.182786E-10 -3.434198E-11
         9  14  5.122745E+04 -4.849655E+05  8.993919E+04 -1.294917E+06  9.748817E-10 -1.765221E-11
         9  15  1.922243E+04 -4.676181E+05  5.429292E+04 -1.388687E+06  1.317309E-09  3.835972E-11
         9  16 -1.927312E+06 -8.908773E+06 -1.800209E+06 -1.261209E+06  1.999975E-09 -5.629906E-09
         9  17 -1.685822E+06 -7.776018E+06 -1.265363E+06 -1.221711E+06  1.033489E-09  7.240117E-10
         9  18 -1.430662E+06 -6.681341E+06 -9.539793E+05 -1.369462E+06  9.545896E-10  7.247332E-09
         9  19  2.252795E+06  8.029988E+06  2.148397E+06 -1.516657E+06 -1.015836E+05 -8.307123E+05
         9  20  1.785390E+06  6.858230E+06  1.443503E+06 -1.368814E+06 -3.405617E+05 -3.892559E+05
         9  21  1.467307E+06  5.784734E+06  1.061802E+06 -1.408048E+06 -3.963106E+05  5.113374E+04
         9  22  1.651719E+05 -4.728721E+05  1.759143E+05 -1.388134E+06 -1.036686E+05 -1.196841E+05
         9  23  5.135464E+04 -4.849280E+05  9.016979E+04 -1.294896E+06 -3.420600E+05 -7.486427E+04
         9  24  1.939132E+04 -4.675749E+05  5.458982E+04 -1.388678E+06 -3.962996E+05 -3.019509E+04
         9  25 -1.927208E+06 -8.908402E+06 -1.799544E+06 -1.261258E+06 -1.054848E+05  5.817775E+05
         9  26 -1.685680E+06 -7.775927E+06 -1.265036E+06 -1.221776E+06 -3.434971E+05  2.359400E+05
         9  27 -1.430490E+06 -6.681286E+06 -9.536605E+05 -1.369427E+06 -3.962934E+05 -1.107385E+05
        10   1  1.297016E+06  5.065782E+06  9.151341E+05 -1.417153E+06  3.672386E+05 -6.070737E+04
        10   2  1.026312E+06  3.937036E+06  6.950943E+05 -1.308128E+06  3.178917E+05 -1.261160E+05
        10   3  7.773869E+05  2.823241E+06  5.228034E+05 -1.399330E+06  2.465732E+05 -1.916483E+05
        10   4  1.852218E+04 -4.713383E+05  4.498190E+04 -1.391622E+06  3.671152E+05  2.239725E+04
        10   5  1.441609E+04 -4.724693E+05  3.609365E+04 -1.291470E+06  3.173602E+05  4.289395E+03
        10   6  2.402506E+04 -4.680192E+05  4.230774E+04 -1.391627E+06  2.455532E+05 -1.405321E+04
        10   7 -1.261478E+06 -5.978040E+06 -8.258982E+05 -1.366258E+06  3.669977E+05  1.047920E+05
        10   8 -9.983869E+05 -4.862487E+06 -6.232210E+05 -1.274891E+06  3.168331E+05  1.338100E+05
        10   9 -7.298203E+05 -3.748325E+06 -4.382543E+05 -1.383939E+06  2.445338E+05  1.626428E+05
        10  10  1.296870E+06  5.065742E+06  9.148740E+05 -1.417136E+06  2.982425E-09  1.509543E-09
        10  11  1.026199E+06  3.936992E+06  6.948751E+05 -1.308095E+06 -1.450317E-09 -1.338108E-09
        10  12  7.773119E+05  2.823185E+06  5.226210E+05 -1.399292E+06 -2.502641E-09 -5.020136E-09
        10  13  1.837734E+04 -4.713750E+05  4.472766E+04 -1.391629E+06  7.899595E-11 -9.034911E-11
        10  14  1.430796E+04 -4.724964E+05  3.590438E+04 -1.291471E+06  9.076428E-10 -1.739757E-10
        10  15  2.396029E+04 -4.680356E+05  4.219412E+04 -1.391624E+06  1.095831E-10 -4.700708E-10
        10  16 -1.261626E+06 -5.978088E+06 -8.261724E+05 -1.366289E+06 -4.556189E-09 -1.439425E-09
        10  17 -9.984996E+05 -4.862533E+06 -6.234439E+05 -1.274925E+06 -2.087994E-09  1.433430E-09
        10  18 -7.298918E+05 -3.748369E+06 -4.384171E+05 -1.383971E+06 -2.879613E-09  4.664372E-09
        10  19  1.297016E+06  5.065782E+06  9.151341E+05 -1.417153E+06 -3.672386E+05  6.070737E+04
        10  20  1.026312E+06  3.937036E+06  6.950943E+05 -1.308128E+06 -3.178917E+05  1.261160E+05
        10  21  7.773869E+05  2.823241E+06  5.228034E+05 -1.399330E+06 -2.465732E+05  1.916483E+05
        10  22  1.852218E+04 -4.713383E+05  4.498190E+04 -1.391622E+06 -3.671152E+05 -2.239725E+04
        10  23  1.441609E+04 -4.724693E+05  3.609365E+04 -1.291470E+06 -3.173602E+05 -4.289395E+03
        10  24  2.402506E+04 -4.680192E+05  4.230774E+04 -1.391627E+06 -2.455532E+05  1.405321E+04
        10  25 -1.261478E+06 -5.978040E+06 -8.258982E+05 -1.366258E+06 -3.669977E+05 -1.047920E+05
        10  26 -9.983869E+05 -4.862487E+06 -6.232210E+05 -1.274891E+06 -3.168331E+05 -1.338100E+05
        10  27 -7.298203E+05 -3.748325E+06 -4.382543E+05 -1.383939E+06 -2.445338E+05 -1.626428E+05
        11   1  6.197400E+05  2.124148E+06  4.234827E+05 -1.402539E+06  1.975677E+05 -1.991103E+05
        11   2  3.950886E+05  9.936712E+05  2.921962E+05 -1.248227E+06  1.137434E+05 -2.458642E+05
        11   3  2.406523E+05 -1.137309E+05  2.083365E+05 -1.295714E+06  2.765102E+04 -2.926267E+05
        11   4  2.793874E+04 -4.638429E+05  4.997626E+04 -1.391997E+06  1.964536E+05 -2.137945E+04
        11   5  6.029151E+04 -4.737146E+05  8.136258E+04 -1.290763E+06  1.125372E+05 -6.338248E+04
        11   6  1.621114E+05 -4.626946E+05  1.567908E+05 -1.391261E+06  2.635851E+04 -1.054660E+05
        11   7 -5.641519E+05 -3.045019E+06 -3.235180E+05 -1.381484E+06  1.953423E+05  1.556438E+05
        11   8 -2.745778E+05 -1.938850E+06 -1.293779E+05 -1.333190E+06  1.113041E+05  1.186868E+05
        11   9  8.361868E+04 -8.114402E+05  1.053797E+05 -1.486752E+06  2.500786E+04  8.159382E+04
        11  10  6.196877E+05  2.124096E+06  4.233355E+05 -1.402507E+06  2.490654E-09 -8.188056E-10
        11  11  3.950586E+05  9.936029E+05  2.920588E+05 -1.248204E+06 -1.668640E-09 -3.450409E-10
        11  12  2.406285E+05 -1.138230E+05  2.081742E+05 -1.295708E+06 -1.467409E-10  8.769655E-10
        11  13  2.789720E+04 -4.638537E+05  4.990294E+04 -1.391994E+06 -9.407342E-10 -3.040485E-10
        11  14  6.027686E+04 -4.737223E+05  8.133131E+04 -1.290757E+06  1.362112E-09  2.003560E-11
        11  15  1.621077E+05 -4.627067E+05  1.567686E+05 -1.391259E+06  3.486202E-10  5.757401E-11
        11  16 -5.641996E+05 -3.045056E+06 -3.236358E+05 -1.381509E+06 -6.447819E-11  9.672685E-10
        11  17 -2.745950E+05 -1.938869E+06 -1.294279E+05 -1.333200E+06 -9.796618E-10  7.989816E-11
        11  18  8.361621E+04 -8.114475E+05  1.053660E+05 -1.486754E+06 -8.809773E-10 -7.784233E-10
        11  19  6.197400E+05  2.124148E+06  4.234827E+05 -1.402539E+06 -1.975677E+05  1.991103E+05
        11  20  3.950886E+05  9.936712E+05  2.921962E+05 -1.248227E+06 -1.137434E+05  2.458642E+05
        11  21  2.406523E+05 -1.137309E+05  2.083365E+05 -1.295714E+06 -2.765102E+04  2.926267E+05
        11  22  2.793874E+04 -4.638429E+05  4.997626E+04 -1.391997E+06 -1.964536E+05  2.137945E+04
        11  23  6.029151E+04 -4.737146E+05  8.136258E+04 -1.290763E+06 -1.125372E+05  6.338248E+04
        11  24  1.621114E+05 -4.626946E+05  1.567908E+05 -1.391261E+06 -2.635851E+04  1.054660E+05
        11  25 -5.641519E+05 -3.045019E+06 -3.235180E+05 -1.381484E+06 -1.953423E+05 -1.556438E+05
        11  26 -2.745778E+05 -1.938850E+06 -1.293779E+05 -1.333190E+06 -1.113041E+05 -1.186868E+05
        11  27  8.361868E+04 -8.114402E+05  1.053797E+05 -1.486752E+06 -2.500786E+04 -8.159382E+04
        12   1 -5.836097E+06 -1.724591E+06 -1.117437E+06 -2.024671E+06 -6.304639E+05 -2.321921E+05
        12   2 -5.639026E+06 -7.798648E+05 -5.192638E+05 -2.164346E+06 -4.063782E+05 -1.410492E+05
        12   3 -5.795425E+06 -8.409508E+05 -3.553056E+05 -2.098975E+06 -1.789836E+05 -5.870807E+04
        12   4 -5.477778E+06 -1.452986E+06 -9.913986E+05 -1.787788E+06 -6.276007E+05 -2.312944E+05
        12   5 -5.250814E+06 -5.973377E+05 -4.064669E+05 -2.022158E+06 -4.059731E+05 -1.409277E+05
        12   6 -5.376588E+06 -7.466779E+05 -2.535826E+05 -2.051563E+06 -1.810249E+05 -5.944813E+04
        12   7 -5.119286E+06 -1.181209E+06 -8.653678E+05 -1.550742E+06 -6.247356E+05 -2.303943E+05
        12   8 -4.862452E+06 -4.147761E+05 -2.936848E+05 -1.879881E+06 -4.055676E+05 -1.408061E+05
        12   9 -4.957572E+06 -6.524101E+05 -1.518695E+05 -2.004134E+06 -1.830677E+05 -6.018823E+04
        12  10 -5.836542E+06 -1.724758E+06 -1.118294E+06 -2.024790E+06  2.632101E-09  3.668307E-10
        12  11 -5.639211E+06 -7.799312E+05 -5.196153E+05 -2.164392E+06  3.078323E-10 -9.154459E-10
        12  12 -5.795461E+06 -8.409632E+05 -3.553730E+05 -2.098984E+06  3.429508E-10  2.447966E-11
        12  13 -5.478219E+06 -1.453151E+06 -9.922476E+05 -1.787905E+06  2.344792E-09 -4.202004E-10
        12  14 -5.250998E+06 -5.974040E+05 -4.068174E+05 -2.022204E+06  2.989725E-09 -1.496378E-09
        12  15 -5.376624E+06 -7.466906E+05 -2.536515E+05 -2.051572E+06 -3.986586E-10 -2.003152E-09
        12  16 -5.119723E+06 -1.181373E+06 -8.662085E+05 -1.550859E+06 -8.769884E-10 -2.514901E-10
        12  17 -4.862635E+06 -4.148422E+05 -2.940344E+05 -1.879927E+06  2.437617E-09 -4.370763E-10
        12  18 -4.957610E+06 -6.524231E+05 -1.519399E+05 -2.004143E+06  9.208064E-11  8.910331E-10
        12  19 -5.836097E+06 -1.724591E+06 -1.117437E+06 -2.024671E+06  6.304639E+05  2.321921E+05
        12  20 -5.639026E+06 -7.798648E+05 -5.192638E+05 -2.164346E+06  4.063782E+05  1.410492E+05
        12  21 -5.795425E+06 -8.409508E+05 -3.553056E+05 -2.098975E+06  1.789836E+05  5.870807E+04
        12  22 -5.477778E+06 -1.452986E+06 -9.913986E+05 -1.787788E+06  6.276007E+05  2.312944E+05
        12  23 -5.250814E+06 -5.973377E+05 -4.064669E+05 -2.022158E+06  4.059731E+05  1.409277E+05
        12  24 -5.376588E+06 -7.466779E+05 -2.535826E+05 -2.051563E+06  1.810249E+05  5.944813E+04
        12  25 -5.119286E+06 -1.181209E+06 -8.653678E+05 -1.550742E+06  6.247356E+05  2.303943E+05
        12  26 -4.862452E+06 -4.147761E+05 -2.936848E+05 -1.879881E+06  4.055676E+05  1.408061E+05
        12  27 -4.957572E+06 -6.524101E+05 -1.518695E+05 -2.004134E+06  1.830677E+05  6.018823E+04
        13   1 -5.551358E+06 -9.599049E+05 -2.690590E+05 -2.067181E+06 -1.424222E+05 -4.778504E+04
        13   2 -5.494984E+06 -7.871984E+05 -1.405001E+05 -2.043568E+06 -9.118286E+04 -2.996322E+04
        13   3 -5.440496E+06 -8.008260E+05 -8.603729E+04 -2.049364E+06 -3.947407E+04 -1.338082E+04
        13   4 -5.340888E+06 -8.630185E+05 -2.082254E+05 -1.992219E+06 -1.426076E+05 -4.785946E+04
        13   5 -5.333109E+06 -7.218557E+05 -9.554714E+04 -1.995376E+06 -9.171153E+04 -3.016143E+04
        13   6 -5.327132E+06 -7.669340E+05 -5.666883E+04 -2.027946E+06 -4.035051E+04 -1.370704E+04
        13   7 -5.130373E+06 -7.661229E+05 -1.473961E+05 -1.917230E+06 -1.427930E+05 -4.793392E+04
        13   8 -5.171209E+06 -6.565105E+05 -5.059675E+04 -1.947172E+06 -9.224035E+04 -3.035970E+04
        13   9 -5.213756E+06 -7.330424E+05 -2.730145E+04 -2.006525E+06 -4.122713E+04 -1.403329E+04
        13  10 -5.551381E+06 -9.599129E+05 -2.691019E+05 -2.067187E+06  1.511169E-09 -4.019741E-10
        13  11 -5.494993E+06 -7.872017E+05 -1.405175E+05 -2.043570E+06 -5.203177E-09 -8.894100E-10
        13  12 -5.440498E+06 -8.008267E+05 -8.604058E+04 -2.049364E+06  3.954452E-09  4.884197E-10
        13  13 -5.340910E+06 -8.630265E+05 -2.082683E+05 -1.992224E+06  2.355654E-09 -1.960669E-09
        13  14 -5.333118E+06 -7.218589E+05 -9.556482E+04 -1.995378E+06 -3.639787E-11 -2.106819E-09
        13  15 -5.327134E+06 -7.669347E+05 -5.667227E+04 -2.027946E+06 -2.878859E-11 -1.481157E-09
        13  16 -5.130396E+06 -7.661310E+05 -1.474391E+05 -1.917236E+06 -2.656702E-09  1.652074E-10
        13  17 -5.171218E+06 -6.565138E+05 -5.061464E+04 -1.947174E+06 -1.287433E-09 -1.998264E-09
        13  18 -5.213758E+06 -7.330430E+05 -2.730505E+04 -2.006525E+06 -4.340647E-09 -1.915297E-09
        13  19 -5.551358E+06 -9.599049E+05 -2.690590E+05 -2.067181E+06  1.424222E+05  4.778504E+04
        13  20 -5.494984E+06 -7.871984E+05 -1.405001E+05 -2.043568E+06  9.118286E+04  2.996322E+04
        13  21 -5.440496E+06 -8.008260E+05 -8.603729E+04 -2.049364E+06  3.947407E+04  1.338082E+04
        13  22 -5.340888E+06 -8.630185E+05 -2.082254E+05 -1.992219E+06  1.426076E+05  4.785946E+04
        13  23 -5.333109E+06 -7.218557E+05 -9.554714E+04 -1.995376E+06  9.171153E+04  3.016143E+04
        13  24 -5.327132E+06 -7.669340E+05 -5.666883E+04 -2.027946E+06  4.035051E+04  1.370704E+04
        13  25 -5.130373E+06 -7.661229E+05 -1.473961E+05 -1.917230E+06  1.427930E+05  4.793392E+04
        13  26 -5.171209E+06 -6.565105E+05 -5.059675E+04 -1.947172E+06  9.224035E+04  3.035970E+04
        13  27 -5.213756E+06 -7.330424E+05 -2.730145E+04 -2.006525E+06  4.122713E+04  1.403329E+04
        14   1 -5.253005E+06 -7.584150E+05 -2.636166E+04 -2.003124E+06 -3.078665E+04 -1.194960E+04
        14   2 -5.217630E+06 -6.918609E+05  1.218623E+04 -1.958430E+06 -1.848224E+04 -9.900192E+03
        14   3 -5.135307E+06 -6.985094E+05  3.725136E+04 -1.973011E+06 -6.205297E+03 -7.770651E+03
        14   4 -5.322005E+06 -7.822899E+05 -4.495183E+04 -2.019502E+06 -3.144111E+04 -1.219385E+04
        14   5 -5.344547E+06 -7.392525E+05 -2.231468E+04 -1.992249E+06 -1.911474E+04 -1.013630E+04
        14   6 -5.320148E+06 -7.694246E+05 -1.317740E+04 -2.024272E+06 -6.817028E+03 -7.999127E+03
        14   7 -5.391000E+06 -8.061649E+05 -6.354250E+04 -2.035877E+06 -3.209549E+04 -1.243807E+04
        14   8 -5.471449E+06 -7.866434E+05 -5.681714E+04 -2.026060E+06 -1.974710E+04 -1.037236E+04
        14   9 -5.504956E+06 -8.403377E+05 -6.360939E+04 -2.075519E+06 -7.428558E+03 -8.227525E+03
        14  10 -5.253007E+06 -7.584154E+05 -2.636373E+04 -2.003125E+06  2.676985E-09  9.925933E-10
        14  11 -5.217630E+06 -6.918611E+05  1.218540E+04 -1.958431E+06 -7.046013E-10 -5.205426E-10
        14  12 -5.135307E+06 -6.985095E+05  3.725118E+04 -1.973011E+06 -2.216185E-09 -5.916032E-10
        14  13 -5.322006E+06 -7.822903E+05 -4.495399E+04 -2.019502E+06 -6.174359E-09  2.030810E-10
        14  14 -5.344547E+06 -7.392527E+05 -2.231557E+04 -1.992249E+06 -4.364916E-09  1.383456E-09
        14  15 -5.320148E+06 -7.694247E+05 -1.317761E+04 -2.024272E+06 -2.418586E-09  1.503013E-10
        14  16 -5.391002E+06 -8.061653E+05 -6.354474E+04 -2.035878E+06 -5.991946E-09 -2.916556E-10
        14  17 -5.471449E+06 -7.866436E+05 -5.681809E+04 -2.026061E+06  1.456311E-10  3.753047E-11
        14  18 -5.504956E+06 -8.403378E+05 -6.360962E+04 -2.075519E+06 -3.711078E-10 -6.656456E-10
        14  19 -5.253005E+06 -7.584150E+05 -2.636166E+04 -2.003124E+06  3.078665E+04  1.194960E+04
        14  20 -5.217630E+06 -6.918609E+05  1.218623E+04 -1.958430E+06  1.848224E+04  9.900192E+03
        14  21 -5.135307E+06 -6.985094E+05  3.725136E+04 -1.973011E+06  6.205297E+03  7.770651E+03
        14  22 -5.322005E+06 -7.822899E+05 -4.495183E+04 -2.019502E+06  3.144111E+04  1.219385E+04
        14  23 -5.344547E+06 -7.392525E+05 -2.231468E+04 -1.992249E+06  1.911474E+04  1.013630E+04
        14  24 -5.320148E+06 -7.694246E+05 -1.317740E+04 -2.024272E+06  6.817028E+03  7.999127E+03
        14  25 -5.391000E+06 -8.061649E+05 -6.354250E+04 -2.035877E+06  3.209549E+04  1.243807E+04
        14  26 -5.471449E+06 -7.866434E+05 -5.681714E+04 -2.026060E+06  1.974710E+04  1.037236E+04
        14  27 -5.504956E+06 -8.403377E+05 -6.360939E+04 -2.075519E+06  7.428558E+03  8.227525E+03
        15   1 -4.981428E+06 -6.401620E+05  8.258554E+04 -1.927923E+06 -3.737428E+03 -8.327991E+03
        15   2 -4.957027E+06 -5.997275E+05  9.884733E+04 -1.891719E+06  1.756675E+01 -9.192591E+03
        15   3 -4.891288E+06 -6.041694E+05  1.122428E+05 -1.903273E+06  3.562756E+03 -9.488427E+03
        15   4 -5.322174E+06 -7.684342E+05 -1.044551E+04 -2.019751E+06 -4.394006E+03 -8.573526E+03
        15   5 -5.342724E+06 -7.453019E+05 -6.283597E+03 -1.996120E+06 -4.758307E+02 -9.377570E+03
        15   6 -5.321971E+06 -7.670815E+05 -5.119204E+03 -2.020250E+06  3.232243E+03 -9.612762E+03
        15   7 -5.662806E+06 -8.966996E+05 -1.034868E+05 -2.111534E+06 -5.050182E+03 -8.818912E+03
        15   8 -5.728277E+06 -8.908677E+05 -1.114279E+05 -2.100462E+06 -9.688870E+02 -9.562421E+03
        15   9 -5.752476E+06 -9.299830E+05 -1.224982E+05 -2.137154E+06  2.901983E+03 -9.737002E+03
        15  10 -4.981428E+06 -6.401620E+05  8.258538E+04 -1.927923E+06 -2.812564E-09 -1.083915E-09
        15  11 -4.957027E+06 -5.997276E+05  9.884717E+04 -1.891719E+06 -5.822533E-09  8.109536E-10
        15  12 -4.891288E+06 -6.041695E+05  1.122426E+05 -1.903273E+06  1.950499E-09 -2.128761E-09
        15  13 -5.322174E+06 -7.684343E+05 -1.044569E+04 -2.019751E+06  2.574855E-09 -6.914007E-10
        15  14 -5.342724E+06 -7.453020E+05 -6.283762E+03 -1.996120E+06  8.116600E-10  5.708096E-11
        15  15 -5.321971E+06 -7.670816E+05 -5.119397E+03 -2.020250E+06  2.817319E-09 -7.662799E-11
        15  16 -5.662806E+06 -8.966997E+05 -1.034870E+05 -2.111534E+06 -6.848186E-10 -5.171730E-10
        15  17 -5.728277E+06 -8.908678E+05 -1.114281E+05 -2.100462E+06  5.396601E-09  1.728708E-09
        15  18 -5.752476E+06 -9.299831E+05 -1.224984E+05 -2.137154E+06  2.356221E-09  5.111017E-10
        15  19 -4.981428E+06 -6.401620E+05  8.258554E+04 -1.927923E+06  3.737428E+03  8.327991E+03
        15  20 -4.957027E+06 -5.997275E+05  9.884733E+04 -1.891719E+06 -1.756675E+01  9.192591E+03
        15  21 -4.891288E+06 -6.041694E+05  1.122428E+05 -1.903273E+06 -3.562756E+03  9.488427E+03
        15  22 -5.322174E+06 -7.684342E+05 -1.044551E+04 -2.019751E+06  4.394006E+03  8.573526E+03
        15  23 -5.342724E+06 -7.453019E+05 -6.283597E+03 -1.996120E+06  4.758307E+02  9.377570E+03
        15  24 -5.321971E+06 -7.670815E+05 -5.119204E+03 -2.020250E+06 -3.232243E+03  9.612762E+03
        15  25 -5.662806E+06 -8.966996E+05 -1.034868E+05 -2.111534E+06  5.050182E+03  8.818912E+03
        15  26 -5.728277E+06 -8.908677E+05 -1.114279E+05 -2.100462E+06  9.688870E+02  9.562421E+03
        15  27 -5.752476E+06 -9.299830E+05 -1.224982E+05 -2.137154E+06 -2.901983E+03  9.737002E+03
        16   1 -4.799601E+06 -5.625064E+05  1.388427E+05 -1.871311E+06  4.822192E+03 -9.929334E+03
        16   2 -4.789346E+06 -5.448417E+05  1.426677E+05 -1.854988E+06  8.314587E+03 -9.942642E+03
        16   3 -4.760827E+06 -5.483952E+05  1.437143E+05 -1.858990E+06  1.149799E+04 -9.128760E+03
        16   4 -5.327118E+06 -7.617306E+05 -5.112732E+03 -2.014204E+06  4.365562E+03 -1.010126E+04
        16   5 -5.336348E+06 -7.519351E+05 -6.543380E+03 -2.003727E+06  8.095203E+03 -1.002589E+04
        16   6 -5.327363E+06 -7.634080E+05 -1.094382E+04 -2.013576E+06  1.151562E+04 -9.123010E+03
        16   7 -5.854364E+06 -9.609387E+05 -1.490932E+05 -2.156988E+06  3.909362E+03 -1.027302E+04
        16   8 -5.883060E+06 -9.590111E+05 -1.557817E+05 -2.152348E+06  7.876034E+03 -1.010905E+04
        16   9 -5.893590E+06 -9.784022E+05 -1.656314E+05 -2.168035E+06  1.153323E+04 -9.117268E+03
        16  10 -4.799602E+06 -5.625065E+05  1.388424E+05 -1.871311E+06  7.132463E-09 -1.586174E-09
        16  11 -4.789346E+06 -5.448419E+05  1.426674E+05 -1.854988E+06 -1.255546E-09  3.129572E-09
        16  12 -4.760827E+06 -5.483953E+05  1.437139E+05 -1.858990E+06  3.188968E-09  1.234950E-09
        16  13 -5.327118E+06 -7.617307E+05 -5.112959E+03 -2.014204E+06 -3.596391E-09 -6.578841E-10
        16  14 -5.336348E+06 -7.519352E+05 -6.543691E+03 -2.003727E+06 -1.707424E-09  9.445438E-10
        16  15 -5.327363E+06 -7.634081E+05 -1.094422E+04 -2.013576E+06 -2.473075E-10  1.747181E-09
        16  16 -5.854364E+06 -9.609388E+05 -1.490934E+05 -2.156988E+06 -3.810587E-09 -5.960387E-11
        16  17 -5.883060E+06 -9.590112E+05 -1.557820E+05 -2.152348E+06 -8.709254E-10  2.411020E-09
        16  18 -5.893590E+06 -9.784023E+05 -1.656318E+05 -2.168035E+06  2.817299E-09  7.086702E-10
        16  19 -4.799601E+06 -5.625064E+05  1.388427E+05 -1.871311E+06 -4.822192E+03  9.929334E+03
        16  20 -4.789346E+06 -5.448417E+05  1.426677E+05 -1.854988E+06 -8.314587E+03  9.942642E+03
        16  21 -4.760827E+06 -5.483952E+05  1.437143E+05 -1.858990E+06 -1.149799E+04  9.128760E+03
        16  22 -5.327118E+06 -7.617306E+05 -5.112732E+03 -2.014204E+06 -4.365562E+03  1.010126E+04
        16  23 -5.336348E+06 -7.519351E+05 -6.543380E+03 -2.003727E+06 -8.095203E+03  1.002589E+04
        16  24 -5.327363E+06 -7.634080E+05 -1.094382E+04 -2.013576E+06 -1.151562E+04  9.123010E+03
        16  25 -5.854364E+06 -9.609387E+05 -1.490932E+05 -2.156988E+06 -3.909362E+03  1.027302E+04
        16  26 -5.883060E+06 -9.590111E+05 -1.557817E+05 -2.152348E+06 -7.876034E+03  1.010905E+04
        16  27 -5.893590E+06 -9.784022E+05 -1.656314E+05 -2.168035E+06 -1.153323E+04  9.117268E+03
        17   1 -4.753007E+06 -5.357795E+05  1.446814E+05 -1.850453E+06  1.371812E+04 -8.423143E+03
        17   2 -4.757367E+06 -5.406341E+05  1.319395E+05 -1.857115E+06  2.560100E+04 -3.965800E+03
        17   3 -4.779105E+06 -5.542270E+05  1.054574E+05 -1.847626E+06  3.714683E+04  1.380438E+03
        17   4 -5.334477E+06 -7.549885E+05 -1.379699E+04 -2.007602E+06  1.357767E+04 -8.476957E+03
        17   5 -5.326763E+06 -7.573635E+05 -2.360771E+04 -2.013132E+06  2.570788E+04 -3.926361E+03
        17   6 -5.336485E+06 -7.685374E+05 -4.736563E+04 -2.002508E+06  3.750112E+04  1.513515E+03
        17   7 -5.915620E+06 -9.741788E+05 -1.723061E+05 -2.164617E+06  1.343737E+04 -8.530718E+03
        17   8 -5.895844E+06 -9.740732E+05 -1.791843E+05 -2.169017E+06  2.581465E+04 -3.886967E+03
        17   9 -5.893562E+06 -9.828271E+05 -2.002169E+05 -2.157263E+06  3.785505E+04  1.646449E+03
        17  10 -4.753007E+06 -5.357796E+05  1.446810E+05 -1.850453E+06  2.331166E-09  6.159854E-10
        17  11 -4.757368E+06 -5.406343E+05  1.319383E+05 -1.857115E+06 -1.922906E-09  9.987999E-10
        17  12 -4.779107E+06 -5.542274E+05  1.054548E+05 -1.847626E+06 -4.356437E-09  5.046771E-10
        17  13 -5.334477E+06 -7.549887E+05 -1.379747E+04 -2.007602E+06  2.364433E-09  1.036578E-10
        17  14 -5.326764E+06 -7.573637E+05 -2.360899E+04 -2.013131E+06 -1.859363E-09  1.526203E-09
        17  15 -5.336486E+06 -7.685378E+05 -4.736830E+04 -2.002508E+06 -3.513934E-10  1.941538E-09
        17  16 -5.915620E+06 -9.741789E+05 -1.723066E+05 -2.164617E+06 -2.947710E-09  7.599367E-10
        17  17 -5.895845E+06 -9.740734E+05 -1.791856E+05 -2.169017E+06  5.896010E-09  3.665717E-10
        17  18 -5.893564E+06 -9.828275E+05 -2.002197E+05 -2.157263E+06  7.871038E-10  1.520166E-09
        17  19 -4.753007E+06 -5.357795E+05  1.446814E+05 -1.850453E+06 -1.371812E+04  8.423143E+03
        17  20 -4.757367E+06 -5.406341E+05  1.319395E+05 -1.857115E+06 -2.560100E+04  3.965800E+03
        17  21 -4.779105E+06 -5.542270E+05  1.054574E+05 -1.847626E+06 -3.714683E+04 -1.380438E+03
        17  22 -5.334477E+06 -7.549885E+05 -1.379699E+04 -2.007602E+06 -1.357767E+04  8.476957E+03
        17  23 -5.326763E+06 -7.573635E+05 -2.360771E+04 -2.013132E+06 -2.570788E+04  3.926361E+03
        17  24 -5.336485E+06 -7.685374E+05 -4.736563E+04 -2.002508E+06 -3.750112E+04 -1.513515E+03
        17  25 -5.915620E+06 -9.741788E+05 -1.723061E+05 -2.164617E+06 -1.343737E+04  8.530718E+03
        17  26 -5.895844E+06 -9.740732E+05 -1.791843E+05 -2.169017E+06 -2.581465E+04  3.886967E+03
        17  27 -5.893562E+06 -9.828271E+05 -2.002169E+05 -2.157263E+06 -3.785505E+04 -1.646449E+03
        18   1 -4.853767E+06 -5.685187E+05  7.316116E+04 -1.879649E+06  4.584112E+04  5.342785E+03
        18   2 -4.862336E+06 -5.717617E+05  2.169132E+04 -1.897514E+06  9.835944E+04  2.654551E+04
        18   3 -4.965758E+06 -6.775622E+05 -1.072735E+05 -1.839130E+06  1.505372E+05  4.862629E+04
        18   4 -5.347497E+06 -7.469038E+05 -5.977141E+04 -2.005227E+06  4.602219E+04  5.411503E+03
        18   5 -5.307487E+06 -7.459537E+05 -1.008626E+05 -2.024307E+06  9.875839E+04  2.669541E+04
        18   6 -5.362413E+06 -8.476638E+05 -2.196622E+05 -1.967124E+06  1.511585E+05  4.885632E+04
        18   7 -5.840992E+06 -9.252806E+05 -1.927257E+05 -2.130717E+06  4.620309E+04  5.480163E+03
        18   8 -5.752447E+06 -9.201309E+05 -2.234350E+05 -2.151016E+06  9.915701E+04  2.684517E+04
        18   9 -5.758914E+06 -1.017744E+06 -3.320662E+05 -2.095039E+06  1.517792E+05  4.908612E+04
        18  10 -4.853769E+06 -5.685193E+05  7.315713E+04 -1.879649E+06  2.717586E-09  2.683498E-09
        18  11 -4.862346E+06 -5.717651E+05  2.167164E+04 -1.897516E+06 -5.349500E-10  7.866006E-10
        18  12 -4.965783E+06 -6.775709E+05 -1.073209E+05 -1.839136E+06  3.252790E-09 -2.941437E-09
        18  13 -5.347499E+06 -7.469044E+05 -5.977549E+04 -2.005227E+06 -2.735980E-09  1.329800E-09
        18  14 -5.307498E+06 -7.459571E+05 -1.008825E+05 -2.024309E+06  3.396629E-09 -6.558981E-10
        18  15 -5.362438E+06 -8.476726E+05 -2.197101E+05 -1.967130E+06 -3.030137E-10 -1.745332E-09
        18  16 -5.840995E+06 -9.252812E+05 -1.927299E+05 -2.130717E+06 -1.372693E-09 -8.508520E-10
        18  17 -5.752458E+06 -9.201344E+05 -2.234550E+05 -2.151018E+06 -1.025109E-09 -3.393505E-10
        18  18 -5.758940E+06 -1.017753E+06 -3.321145E+05 -2.095045E+06 -2.432957E-10  1.272893E-09
        18  19 -4.853767E+06 -5.685187E+05  7.316116E+04 -1.879649E+06 -4.584112E+04 -5.342785E+03
        18  20 -4.862336E+06 -5.717617E+05  2.169132E+04 -1.897514E+06 -9.835944E+04 -2.654551E+04
        18  21 -4.965758E+06 -6.775622E+05 -1.072735E+05 -1.839130E+06 -1.505372E+05 -4.862629E+04
        18  22 -5.347497E+06 -7.469038E+05 -5.977141E+04 -2.005227E+06 -4.602219E+04 -5.411503E+03
        18  23 -5.307487E+06 -7.459537E+05 -1.008626E+05 -2.024307E+06 -9.875839E+04 -2.669541E+04
        18  24 -5.362413E+06 -8.476638E+05 -2.196622E+05 -1.967124E+06 -1.511585E+05 -4.885632E+04
        18  25 -5.840992E+06 -9.252806E+05 -1.927257E+05 -2.130717E+06 -4.620309E+04 -5.480163E+03
        18  26 -5.752447E+06 -9.201309E+05 -2.234350E+05 -2.151016E+06 -9.915701E+04 -2.684517E+04
        18  27 -5.758914E+06 -1.017744E+06 -3.320662E+05 -2.095039E+06 -1.517792E+05 -4.908612E+04
        19   1 -5.079925E+06 -6.718813E+05 -1.938441E+05 -2.011793E+06  1.899883E+05  6.475631E+04
        19   2 -5.033350E+06 -5.054293E+05 -3.703057E+05 -1.962807E+06  4.247664E+05  1.563507E+05
        19   3 -5.456859E+06 -1.301794E+06 -1.002371E+06 -1.587054E+06  6.588784E+05  2.496593E+05
        19   4 -5.399885E+06 -7.255010E+05 -2.676094E+05 -2.030406E+06  1.902648E+05  6.488723E+04
        19   5 -5.219572E+06 -6.150248E+05 -4.288234E+05 -2.053027E+06  4.254581E+05  1.565807E+05
        19   6 -5.509576E+06 -1.467664E+06 -1.046063E+06 -1.748803E+06  6.600416E+05  2.499081E+05
        19   7 -5.719737E+06 -7.791203E+05 -3.413783E+05 -2.049019E+06  1.905412E+05  6.501816E+04
        19   8 -5.405756E+06 -7.246000E+05 -4.873442E+05 -2.143218E+06  4.261495E+05  1.568106E+05
        19   9 -5.562239E+06 -1.633411E+06 -1.089743E+06 -1.910520E+06  6.612048E+05  2.501562E+05
        19  10 -5.079965E+06 -6.718957E+05 -1.939205E+05 -2.011803E+06 -2.159789E-09 -7.022594E-10
        19  11 -5.033552E+06 -5.055048E+05 -3.706944E+05 -1.962861E+06 -3.158248E-09  3.322582E-09
        19  12 -5.457345E+06 -1.301979E+06 -1.003313E+06 -1.587188E+06  2.509090E-09  7.895344E-10
        19  13 -5.399926E+06 -7.255154E+05 -2.676861E+05 -2.030416E+06 -2.438773E-09  5.937588E-10
        19  14 -5.219775E+06 -6.151005E+05 -4.292135E+05 -2.053081E+06 -6.539764E-09  7.920729E-09
        19  15 -5.510064E+06 -1.467850E+06 -1.047008E+06 -1.748936E+06 -8.278133E-11 -4.023940E-10
        19  16 -5.719778E+06 -7.791348E+05 -3.414553E+05 -2.049029E+06 -3.295961E-10  2.794229E-09
        19  17 -5.405960E+06 -7.246760E+05 -4.877357E+05 -2.143272E+06 -1.543458E-09  8.559134E-10
        19  18 -5.562729E+06 -1.633598E+06 -1.090692E+06 -1.910654E+06 -2.632422E-09 -4.523655E-10
        19  19 -5.079925E+06 -6.718813E+05 -1.938441E+05 -2.011793E+06 -1.899883E+05 -6.475631E+04
        19  20 -5.033350E+06 -5.054293E+05 -3.703057E+05 -1.962807E+06 -4.247664E+05 -1.563507E+05
        19  21 -5.456859E+06 -1.301794E+06 -1.002371E+06 -1.587054E+06 -6.588784E+05 -2.496593E+05
        19  22 -5.399885E+06 -7.255010E+05 -2.676094E+05 -2.030406E+06 -1.902648E+05 -6.488723E+04
        19  23 -5.219572E+06 -6.150248E+05 -4.288234E+05 -2.053027E+06 -4.254581E+05 -1.565807E+05
        19  24 -5.509576E+06 -1.467664E+06 -1.046063E+06 -1.748803E+06 -6.600416E+05 -2.499081E+05
        19  25 -5.719737E+06 -7.791203E+05 -3.413783E+05 -2.049019E+06 -1.905412E+05 -6.501816E+04
        19  26 -5.405756E+06 -7.246000E+05 -4.873442E+05 -2.143218E+06 -4.261495E+05 -1.568106E+05
        19  27 -5.562239E+06 -1.633411E+06 -1.089743E+06 -1.910520E+06 -6.612048E+05 -2.501562E+05
        20   1 -2.275959E+06  1.917503E+04  2.483446E+04  3.415328E+03  1.692877E+04  9.345717E-02
        20   2 -2.279669E+06 -4.050893E+03  1.066026E+04  8.964036E+02  1.112311E+04  1.611707E-02
        20   3 -2.275982E+06 -7.525349E+02  6.907328E+03 -1.622470E+03  5.317528E+03 -1.394569E-02
        20   4 -2.275959E+06  1.917500E+04  2.483446E+04  2.994149E-08  1.692877E+04 -6.367929E-11
        20   5 -2.279669E+06 -4.050895E+03  1.066026E+04 -2.452843E-08  1.112311E+04  1.233949E-10
        20   6 -2.275982E+06 -7.525398E+02  6.907327E+03  1.246980E-08  5.317528E+03 -1.647805E-11
        20   7 -2.275959E+06  1.917503E+04  2.483446E+04 -3.415328E+03  1.692877E+04 -9.345717E-02
        20   8 -2.279669E+06 -4.050893E+03  1.066026E+04 -8.964036E+02  1.112311E+04 -1.611707E-02
        20   9 -2.275982E+06 -7.525349E+02  6.907328E+03  1.622470E+03  5.317528E+03  1.394569E-02
        20  10 -2.275959E+06  1.917495E+04  2.483392E+04  3.415328E+03 -2.165117E-09 -4.354901E-11
        20  11 -2.279669E+06 -4.050926E+03  1.066003E+04  8.964036E+02 -7.450582E-10 -1.840449E-11
        20  12 -2.275982E+06 -7.525425E+02  6.907275E+03 -1.622470E+03 -1.957186E-09 -8.743318E-10
        20  13 -2.275959E+06  1.917493E+04  2.483392E+04 -3.031615E-08  2.257420E-09  8.754249E-11
        20  14 -2.279669E+06 -4.050928E+03  1.066003E+04  4.432669E-08 -1.075995E-09  2.449891E-10
        20  15 -2.275982E+06 -7.525474E+02  6.907274E+03 -1.444550E-08 -4.974270E-09 -5.057297E-10
        20  16 -2.275959E+06  1.917495E+04  2.483392E+04 -3.415328E+03 -1.977258E-10  1.502654E-10
        20  17 -2.279669E+06 -4.050926E+03  1.066003E+04 -8.964036E+02 -2.018976E-09 -2.976227E-10
        20  18 -2.275982E+06 -7.525425E+02  6.907275E+03  1.622470E+03 -3.673559E-10 -6.874465E-11
        20  19 -2.275959E+06  1.917503E+04  2.483446E+04  3.415328E+03 -1.692877E+04 -9.345716E-02
        20  20 -2.279669E+06 -4.050893E+03  1.066026E+04  8.964036E+02 -1.112311E+04 -1.611707E-02
        20  21 -2.275982E+06 -7.525349E+02  6.907328E+03 -1.622470E+03 -5.317528E+03  1.394569E-02
        20  22 -2.275959E+06  1.917500E+04  2.483446E+04  3.854522E-08 -1.692877E+04 -1.153115E-12
        20  23 -2.279669E+06 -4.050895E+03  1.066026E+04  9.891254E-09 -1.112311E+04  1.239679E-10
        20  24 -2.275982E+06 -7.525398E+02  6.907327E+03  8.130853E-08 -5.317528E+03 -9.388028E-10
        20  25 -2.275959E+06  1.917503E+04  2.483446E+04 -3.415328E+03 -1.692877E+04  9.345717E-02
        20  26 -2.279669E+06 -4.050893E+03  1.066026E+04 -8.964036E+02 -1.112311E+04  1.611707E-02
        20  27 -2.275982E+06 -7.525349E+02  6.907328E+03  1.622470E+03 -5.317528E+03 -1.394570E-02
        21   1 -2.277372E+06  2.676474E+03  5.695124E+03  4.500067E+02  4.194701E+03  3.051229E-03
        21   2 -2.277932E+06 -5.681577E+02  2.755901E+03  1.084365E+02  2.758503E+03  4.835092E-04
        21   3 -2.277376E+06 -1.029978E+02  1.681763E+03 -2.331387E+02  1.322284E+03 -4.983027E-04
        21   4 -2.277372E+06  2.676474E+03  5.695124E+03  5.298909E-09  4.194701E+03 -3.378259E-11
        21   5 -2.277932E+06 -5.681577E+02  2.755901E+03  7.119745E-09  2.758503E+03  1.644558E-10
        21   6 -2.277376E+06 -1.029979E+02  1.681763E+03 -1.811893E-09  1.322284E+03 -3.477156E-10
        21   7 -2.277372E+06  2.676474E+03  5.695124E+03 -4.500067E+02  4.194701E+03 -3.051229E-03
        21   8 -2.277932E+06 -5.681577E+02  2.755901E+03 -1.084365E+02  2.758503E+03 -4.835089E-04
        21   9 -2.277376E+06 -1.029978E+02  1.681763E+03  2.331387E+02  1.322284E+03  4.983028E-04
        21  10 -2.277372E+06  2.676469E+03  5.695091E+03  4.500067E+02 -1.409526E-09 -1.608732E-10
        21  11 -2.277932E+06 -5.681598E+02  2.755887E+03  1.084365E+02 -3.455620E-09  9.888094E-10
        21  12 -2.277376E+06 -1.029983E+02  1.681760E+03 -2.331387E+02 -1.286574E-09  2.014948E-11
        21  13 -2.277372E+06  2.676469E+03  5.695091E+03 -3.281677E-09  2.775468E-10 -3.687109E-10
        21  14 -2.277932E+06 -5.681598E+02  2.755887E+03  4.155751E-08 -1.866242E-09  5.875599E-10
        21  15 -2.277376E+06 -1.029984E+02  1.681760E+03  1.322355E-08  1.497255E-09  2.913273E-10
        21  16 -2.277372E+06  2.676469E+03  5.695091E+03 -4.500067E+02 -1.230056E-09 -3.063908E-10
        21  17 -2.277932E+06 -5.681598E+02  2.755887E+03 -1.084365E+02  2.122180E-09  3.247595E-10
        21  18 -2.277376E+06 -1.029983E+02  1.681760E+03  2.331387E+02  4.111652E-09  2.259983E-10
        21  19 -2.277372E+06  2.676474E+03  5.695124E+03  4.500067E+02 -4.194701E+03 -3.051230E-03
        21  20 -2.277932E+06 -5.681577E+02  2.755901E+03  1.084365E+02 -2.758503E+03 -4.835077E-04
        21  21 -2.277376E+06 -1.029978E+02  1.681763E+03 -2.331387E+02 -1.322284E+03  4.983036E-04
        21  22 -2.277372E+06  2.676474E+03  5.695124E+03  5.701129E-08 -4.194701E+03 -6.020841E-10
        21  23 -2.277932E+06 -5.681577E+02  2.755901E+03  7.128142E-09 -2.758503E+03  6.905586E-10
        21  24 -2.277376E+06 -1.029979E+02  1.681763E+03  7.667933E-08 -1.322284E+03  8.306204E-10
        21  25 -2.277372E+06  2.676474E+03  5.695124E+03 -4.500067E+02 -4.194701E+03  3.051228E-03
        21  26 -2.277932E+06 -5.681577E+02  2.755901E+03 -1.084365E+02 -2.758503E+03  4.835079E-04
        21  27 -2.277376E+06 -1.029978E+02  1.681763E+03  2.331387E+02 -1.322284E+03 -4.983038E-04
        22   1 -2.277585E+06  3.710238E+02  1.330654E+03  5.535944E+01  1.052213E+03  9.415726E-05
        22   2 -2.277672E+06 -7.887791E+01  6.710324E+02  1.061673E+01  7.105404E+02  1.219321E-05
        22   3 -2.277586E+06 -1.610222E+01  3.626385E+02 -3.412598E+01  3.688678E+02 -2.034622E-05
        22   4 -2.277585E+06  3.710238E+02  1.330654E+03 -4.091141E-09  1.052213E+03 -3.358452E-10
        22   5 -2.277672E+06 -7.887791E+01  6.710324E+02  2.157916E-08  7.105404E+02 -1.738806E-10
        22   6 -2.277586E+06 -1.610222E+01  3.626385E+02  7.092430E-08  3.688678E+02 -1.354587E-09
        22   7 -2.277585E+06  3.710238E+02  1.330654E+03 -5.535944E+01  1.052213E+03 -9.415692E-05
        22   8 -2.277672E+06 -7.887791E+01  6.710324E+02 -1.061673E+01  7.105404E+02 -1.219480E-05
        22   9 -2.277586E+06 -1.610222E+01  3.626385E+02  3.412598E+01  3.688678E+02  2.034463E-05
        22  10 -2.277585E+06  3.710235E+02  1.330652E+03  5.535944E+01 -1.736131E-09 -4.038823E-11
        22  11 -2.277672E+06 -7.887804E+01  6.710315E+02  1.061673E+01  1.149171E-09 -7.497833E-10
        22  12 -2.277586E+06 -1.610226E+01  3.626383E+02 -3.412598E+01 -9.411584E-11 -7.850335E-10
        22  13 -2.277585E+06  3.710235E+02  1.330652E+03  1.313512E-08 -1.491333E-28 -1.408684E-11
        22  14 -2.277672E+06 -7.887804E+01  6.710315E+02 -3.867913E-08  1.693713E-09 -1.861883E-10
        22  15 -2.277586E+06 -1.610226E+01  3.626383E+02  2.141744E-08 -9.268898E-10 -5.719026E-10
        22  16 -2.277585E+06  3.710235E+02  1.330652E+03 -5.535944E+01  5.487919E-10  1.479357E-10
        22  17 -2.277672E+06 -7.887804E+01  6.710315E+02 -1.061673E+01 -7.318536E-11  3.076375E-11
        22  18 -2.277586E+06 -1.610226E+01  3.626383E+02  3.412598E+01  1.972447E-09 -3.941784E-10
        22  19 -2.277585E+06  3.710238E+02  1.330654E+03  5.535944E+01 -1.052213E+03 -9.415590E-05
        22  20 -2.277672E+06 -7.887791E+01  6.710324E+02  1.061673E+01 -7.105404E+02 -1.219259E-05
        22  21 -2.277586E+06 -1.610222E+01  3.626385E+02 -3.412598E+01 -3.688678E+02  2.034716E-05
        22  22 -2.277585E+06  3.710238E+02  1.330654E+03  4.757293E-08 -1.052213E+03  3.374081E-10
        22  23 -2.277672E+06 -7.887791E+01  6.710324E+02  5.106975E-11 -7.105404E+02 -1.181648E-10
        22  24 -2.277586E+06 -1.610222E+01  3.626385E+02  9.887366E-08 -3.688678E+02  1.694974E-10
        22  25 -2.277585E+06  3.710238E+02  1.330654E+03 -5.535944E+01 -1.052213E+03  9.415691E-05
        22  26 -2.277672E+06 -7.887791E+01  6.710324E+02 -1.061673E+01 -7.105404E+02  1.219230E-05
        22  27 -2.277586E+06 -1.610222E+01  3.626385E+02  3.412598E+01 -3.688678E+02 -2.034769E-05
        23   1 -2.277621E+06  5.131490E+01  2.529988E+02  3.736240E+00  3.135004E+02  1.894268E-06
        23   2 -2.277629E+06 -6.746307E+00  5.175988E+01 -1.430233E-01  2.870564E+02 -6.572291E-08
        23   3 -2.277622E+06 -2.091221E+01 -1.212433E+02 -4.022229E+00  2.606129E+02 -1.691473E-06
        23   4 -2.277621E+06  5.131490E+01  2.529988E+02  5.414686E-08  3.135004E+02 -7.573945E-10
        23   5 -2.277629E+06 -6.746307E+00  5.175988E+01 -9.042252E-09  2.870564E+02  1.048531E-09
        23   6 -2.277622E+06 -2.091221E+01 -1.212433E+02  4.504787E-08  2.606129E+02  8.145784E-10
        23   7 -2.277621E+06  5.131490E+01  2.529988E+02 -3.736240E+00  3.135004E+02 -1.895357E-06
        23   8 -2.277629E+06 -6.746307E+00  5.175988E+01  1.430234E-01  2.870564E+02  6.684849E-08
        23   9 -2.277622E+06 -2.091221E+01 -1.212433E+02  4.022229E+00  2.606129E+02  1.695054E-06
        23  10 -2.277621E+06  5.131488E+01  2.529986E+02  3.736240E+00 -1.222022E-09 -9.086368E-11
        23  11 -2.277629E+06 -6.746330E+00  5.175973E+01 -1.430233E-01  2.768515E-09  5.095584E-10
        23  12 -2.277622E+06 -2.091222E+01 -1.212434E+02 -4.022230E+00  8.879211E-10  1.986911E-10
        23  13 -2.277621E+06  5.131488E+01  2.529986E+02  2.530022E-09 -4.789810E-10 -2.876541E-10
        23  14 -2.277629E+06 -6.746330E+00  5.175973E+01  2.108113E-08  4.117905E-10  3.487866E-10
        23  15 -2.277622E+06 -2.091222E+01 -1.212434E+02 -7.706905E-09 -5.916318E-10 -3.826202E-11
        23  16 -2.277621E+06  5.131488E+01  2.529986E+02 -3.736240E+00  3.272989E-09 -2.148940E-10
        23  17 -2.277629E+06 -6.746330E+00  5.175973E+01  1.430234E-01 -2.356725E-09  5.937448E-10
        23  18 -2.277622E+06 -2.091222E+01 -1.212434E+02  4.022229E+00 -1.222437E-09  3.424606E-10
        23  19 -2.277621E+06  5.131490E+01  2.529988E+02  3.736240E+00 -3.135004E+02 -1.893562E-06
        23  20 -2.277629E+06 -6.746307E+00  5.175988E+01 -1.430235E-01 -2.870564E+02  6.655679E-08
        23  21 -2.277622E+06 -2.091221E+01 -1.212433E+02 -4.022230E+00 -2.606129E+02  1.692081E-06
        23  22 -2.277621E+06  5.131490E+01  2.529988E+02  5.421300E-08 -3.135004E+02  1.675811E-10
        23  23 -2.277629E+06 -6.746307E+00  5.175988E+01 -3.485750E-08 -2.870564E+02 -2.083447E-10
        23  24 -2.277622E+06 -2.091221E+01 -1.212433E+02  1.164193E-08 -2.606129E+02 -9.464768E-10
        23  25 -2.277621E+06  5.131490E+01  2.529988E+02 -3.736240E+00 -3.135004E+02  1.893532E-06
        23  26 -2.277629E+06 -6.746307E+00  5.175988E+01  1.430235E-01 -2.870564E+02 -6.784072E-08
        23  27 -2.277622E+06 -2.091221E+01 -1.212433E+02  4.022229E+00 -2.606129E+02 -1.695778E-06
        24   1 -2.277642E+06  1.165726E+01 -2.126132E+02 -1.394319E+01  2.907274E+02 -6.551310E-06
        24   2 -2.277603E+06  2.973683E+01 -4.550106E+02  1.048872E+00  5.191966E+02  8.793702E-07
        24   3 -2.277642E+06 -1.438108E+02 -8.944660E+02  1.604116E+01  7.476692E+02  1.938914E-05
        24   4 -2.277642E+06  1.165726E+01 -2.126132E+02  3.197191E-08  2.907274E+02  7.159899E-11
        24   5 -2.277603E+06  2.973683E+01 -4.550106E+02  2.379729E-08  5.191966E+02 -2.125240E-11
        24   6 -2.277642E+06 -1.438108E+02 -8.944660E+02  3.070116E-08  7.476692E+02  2.757020E-10
        24   7 -2.277642E+06  1.165726E+01 -2.126132E+02  1.394319E+01  2.907274E+02  6.551733E-06
        24   8 -2.277603E+06  2.973683E+01 -4.550106E+02 -1.048872E+00  5.191966E+02 -8.798965E-07
        24   9 -2.277642E+06 -1.438108E+02 -8.944660E+02 -1.604116E+01  7.476692E+02 -1.938584E-05
        24  10 -2.277642E+06  1.165723E+01 -2.126134E+02 -1.394319E+01  9.207361E-10  3.703031E-10
        24  11 -2.277603E+06  2.973676E+01 -4.550111E+02  1.048871E+00  1.361530E-09 -1.366028E-10
        24  12 -2.277642E+06 -1.438110E+02 -8.944670E+02  1.604116E+01 -1.428257E-09  5.027371E-10
        24  13 -2.277642E+06  1.165723E+01 -2.126134E+02 -1.965439E-08 -2.185564E-09 -7.267895E-11
        24  14 -2.277603E+06  2.973676E+01 -4.550111E+02  1.088756E-08 -2.769623E-09  4.325269E-10
        24  15 -2.277642E+06 -1.438110E+02 -8.944670E+02  5.863688E-08 -2.869568E-09 -1.164298E-10
        24  16 -2.277642E+06  1.165723E+01 -2.126134E+02  1.394319E+01 -5.496195E-11  2.931184E-10
        24  17 -2.277603E+06  2.973676E+01 -4.550111E+02 -1.048871E+00 -3.101731E-09  9.372527E-10
        24  18 -2.277642E+06 -1.438110E+02 -8.944670E+02 -1.604116E+01  1.432516E-09 -4.170154E-10
        24  19 -2.277642E+06  1.165726E+01 -2.126132E+02 -1.394319E+01 -2.907274E+02  6.550937E-06
        24  20 -2.277603E+06  2.973683E+01 -4.550106E+02  1.048872E+00 -5.191966E+02 -8.788872E-07
        24  21 -2.277642E+06 -1.438108E+02 -8.944660E+02  1.604116E+01 -7.476692E+02 -1.938708E-05
        24  22 -2.277642E+06  1.165726E+01 -2.126132E+02  4.922861E-08 -2.907274E+02 -2.117061E-10
        24  23 -2.277603E+06  2.973683E+01 -4.550106E+02  1.948809E-08 -5.191966E+02  1.129895E-09
        24  24 -2.277642E+06 -1.438108E+02 -8.944660E+02  1.156295E-07 -7.476692E+02 -4.421732E-10
        24  25 -2.277642E+06  1.165726E+01 -2.126132E+02  1.394319E+01 -2.907274E+02 -6.551853E-06
        24  26 -2.277603E+06  2.973683E+01 -4.550106E+02 -1.048871E+00 -5.191966E+02  8.809432E-07
        24  27 -2.277642E+06 -1.438108E+02 -8.944660E+02 -1.604116E+01 -7.476692E+02  1.938460E-05
        25   1 -2.277735E+06  3.949775E+01 -1.162273E+03 -9.607975E+01  9.327599E+02 -1.448605E-04
        25   2 -2.277488E+06  2.245728E+02 -1.974989E+03  3.070753E+01  1.937356E+03  9.616287E-05
        25   3 -2.277738E+06 -1.049461E+03 -3.808319E+03  1.574949E+02  2.941952E+03  7.489558E-04
        25   4 -2.277735E+06  3.949773E+01 -1.162273E+03  2.868443E-08  9.327599E+02  6.989741E-10
        25   5 -2.277488E+06  2.245728E+02 -1.974989E+03 -8.440413E-10  1.937356E+03  1.312019E-10
        25   6 -2.277738E+06 -1.049461E+03 -3.808319E+03  5.356593E-08  2.941952E+03 -1.824303E-09
        25   7 -2.277735E+06  3.949775E+01 -1.162273E+03  9.607975E+01  9.327599E+02  1.448629E-04
        25   8 -2.277488E+06  2.245728E+02 -1.974989E+03 -3.070753E+01  1.937356E+03 -9.616423E-05
        25   9 -2.277738E+06 -1.049461E+03 -3.808319E+03 -1.574949E+02  2.941952E+03 -7.489585E-04
        25  10 -2.277735E+06  3.949751E+01 -1.162274E+03 -9.607975E+01 -3.268828E-09  1.029384E-10
        25  11 -2.277488E+06  2.245718E+02 -1.974996E+03  3.070753E+01 -1.273199E-10  1.812749E-10
        25  12 -2.277738E+06 -1.049464E+03 -3.808335E+03  1.574949E+02 -7.010485E-10 -7.560828E-11
        25  13 -2.277735E+06  3.949750E+01 -1.162274E+03 -1.434450E-08 -3.925830E-09 -2.841534E-10
        25  14 -2.277488E+06  2.245718E+02 -1.974996E+03 -1.805772E-08 -2.563666E-09 -1.251204E-10
        25  15 -2.277738E+06 -1.049464E+03 -3.808335E+03  8.360879E-09 -1.240596E-09 -1.232256E-10
        25  16 -2.277735E+06  3.949751E+01 -1.162274E+03  9.607975E+01  3.117657E-09 -7.412359E-10
        25  17 -2.277488E+06  2.245718E+02 -1.974996E+03 -3.070753E+01  1.488710E-09  1.762717E-10
        25  18 -2.277738E+06 -1.049464E+03 -3.808335E+03 -1.574949E+02  8.698687E-10  1.140732E-10
        25  19 -2.277735E+06  3.949775E+01 -1.162273E+03 -9.607975E+01 -9.327599E+02  1.448622E-04
        25  20 -2.277488E+06  2.245728E+02 -1.974989E+03  3.070753E+01 -1.937356E+03 -9.616241E-05
        25  21 -2.277738E+06 -1.049461E+03 -3.808319E+03  1.574949E+02 -2.941952E+03 -7.489552E-04
        25  22 -2.277735E+06  3.949773E+01 -1.162273E+03  6.313277E-08 -9.327599E+02 -1.220727E-09
        25  23 -2.277488E+06  2.245728E+02 -1.974989E+03 -5.143787E-09 -1.937356E+03 -1.477512E-10
        25  24 -2.277738E+06 -1.049461E+03 -3.808319E+03  7.076176E-08 -2.941952E+03  1.638376E-09
        25  25 -2.277735E+06  3.949775E+01 -1.162273E+03  9.607975E+01 -9.327599E+02 -1.448642E-04
        25  26 -2.277488E+06  2.245728E+02 -1.974989E+03 -3.070753E+01 -1.937356E+03  9.616185E-05
        25  27 -2.277738E+06 -1.049461E+03 -3.808319E+03 -1.574949E+02 -2.941952E+03  7.489570E-04
        26   1 -2.278327E+06  2.906744E+02 -4.790860E+03 -6.592428E+02  3.712941E+03 -3.956566E-03
        26   2 -2.276754E+06  1.607422E+03 -7.814591E+03  3.069661E+02  7.785077E+03  3.862847E-03
        26   3 -2.278339E+06 -7.571304E+03 -1.612057E+04  1.273161E+03  1.185714E+04  2.440157E-02
        26   4 -2.278327E+06  2.906736E+02 -4.790860E+03  3.254201E-08  3.712941E+03 -9.054515E-10
        26   5 -2.276754E+06  1.607422E+03 -7.814591E+03  3.697304E-08  7.785077E+03  1.716883E-09
        26   6 -2.278339E+06 -7.571307E+03 -1.612057E+04  6.615041E-08  1.185714E+04 -7.649618E-10
        26   7 -2.278327E+06  2.906744E+02 -4.790860E+03  6.592428E+02  3.712941E+03  3.956564E-03
        26   8 -2.276754E+06  1.607422E+03 -7.814591E+03 -3.069661E+02  7.785077E+03 -3.862844E-03
        26   9 -2.278339E+06 -7.571304E+03 -1.612057E+04 -1.273161E+03  1.185714E+04 -2.440157E-02
        26  10 -2.278327E+06  2.906707E+02 -4.790886E+03 -6.592428E+02  2.632905E-09  4.342145E-10
        26  11 -2.276754E+06  1.607406E+03 -7.814705E+03  3.069661E+02  5.320594E-10  1.264678E-10
        26  12 -2.278339E+06 -7.571342E+03 -1.612083E+04  1.273161E+03  1.266612E-09 -1.172407E-09
        26  13 -2.278327E+06  2.906699E+02 -4.790886E+03 -1.908963E-08  3.359357E-11  1.744658E-11
        26  14 -2.276754E+06  1.607406E+03 -7.814705E+03 -1.898792E-08  8.228056E-10  2.127865E-10
        26  15 -2.278339E+06 -7.571345E+03 -1.612083E+04 -2.750230E-08  1.091736E-09 -4.969323E-10
        26  16 -2.278327E+06  2.906707E+02 -4.790886E+03  6.592428E+02 -5.213269E-11  2.737409E-10
        26  17 -2.276754E+06  1.607406E+03 -7.814705E+03 -3.069661E+02 -3.403971E-09  4.363571E-10
        26  18 -2.278339E+06 -7.571342E+03 -1.612083E+04 -1.273161E+03  2.959235E-10 -6.499155E-10
        26  19 -2.278327E+06  2.906744E+02 -4.790860E+03 -6.592428E+02 -3.712941E+03  3.956567E-03
        26  20 -2.276754E+06  1.607422E+03 -7.814591E+03  3.069661E+02 -7.785077E+03 -3.862845E-03
        26  21 -2.278339E+06 -7.571304E+03 -1.612057E+04  1.273161E+03 -1.185714E+04 -2.440157E-02
        26  22 -2.278327E+06  2.906736E+02 -4.790860E+03  4.981450E-08 -3.712941E+03  9.167088E-10
        26  23 -2.276754E+06  1.607422E+03 -7.814591E+03  2.531896E-09 -7.785077E+03 -1.316163E-09
        26  24 -2.278339E+06 -7.571307E+03 -1.612057E+04  1.981166E-08 -1.185714E+04 -4.736141E-10
        26  25 -2.278327E+06  2.906744E+02 -4.790860E+03  6.592428E+02 -3.712941E+03 -3.956567E-03
        26  26 -2.276754E+06  1.607422E+03 -7.814591E+03 -3.069661E+02 -7.785077E+03  3.862843E-03
        26  27 -2.278339E+06 -7.571304E+03 -1.612057E+04 -1.273161E+03 -1.185714E+04  2.440157E-02
        27   1 -2.282270E+06  2.128873E+03 -1.954648E+04 -4.589623E+03  1.503476E+04 -1.115401E-01
        27   2 -2.271842E+06  1.145948E+04 -3.015652E+04  2.535963E+03  3.145990E+04  1.289586E-01
        27   3 -2.282335E+06 -5.424271E+04 -7.024652E+04  9.661550E+03  4.788535E+04  7.478314E-01
        27   4 -2.282270E+06  2.128833E+03 -1.954649E+04  3.997650E-08  1.503476E+04 -1.281363E-09
        27   5 -2.271842E+06  1.145947E+04 -3.015652E+04  1.811332E-08  3.145990E+04  8.552426E-10
        27   6 -2.282335E+06 -5.424288E+04 -7.024655E+04  5.866418E-08  4.788535E+04  2.810072E-10
        27   7 -2.282270E+06  2.128873E+03 -1.954648E+04  4.589623E+03  1.503476E+04  1.115401E-01
        27   8 -2.271842E+06  1.145948E+04 -3.015652E+04 -2.535963E+03  3.145990E+04 -1.289586E-01
        27   9 -2.282335E+06 -5.424271E+04 -7.024652E+04 -9.661550E+03  4.788535E+04 -7.478314E-01
        27  10 -2.282270E+06  2.128812E+03 -1.954691E+04 -4.589623E+03 -5.041621E-10 -7.563561E-10
        27  11 -2.271843E+06  1.145921E+04 -3.015839E+04  2.535963E+03  3.066329E-09  9.293042E-10
        27  12 -2.282337E+06 -5.424332E+04 -7.025085E+04  9.661550E+03  1.469368E-09  7.505886E-11
        27  13 -2.282270E+06  2.128772E+03 -1.954691E+04 -3.747507E-08 -2.904850E-09 -4.469983E-10
        27  14 -2.271843E+06  1.145920E+04 -3.015839E+04 -7.701512E-09 -2.306115E-09  5.697320E-10
        27  15 -2.282337E+06 -5.424350E+04 -7.025087E+04  4.850098E-09 -1.982192E-09  2.975895E-10
        27  16 -2.282270E+06  2.128812E+03 -1.954691E+04  4.589623E+03 -4.389419E-10 -6.749576E-10
        27  17 -2.271843E+06  1.145921E+04 -3.015839E+04 -2.535963E+03 -1.554906E-09  1.373855E-10
        27  18 -2.282337E+06 -5.424332E+04 -7.025085E+04 -9.661550E+03 -9.155607E-10  3.870598E-10
        27  19 -2.282270E+06  2.128873E+03 -1.954648E+04 -4.589623E+03 -1.503476E+04  1.115401E-01
        27  20 -2.271842E+06  1.145948E+04 -3.015652E+04  2.535963E+03 -3.145990E+04 -1.289586E-01
        27  21 -2.282335E+06 -5.424271E+04 -7.024652E+04  9.661550E+03 -4.788535E+04 -7.478314E-01
        27  22 -2.282270E+06  2.128833E+03 -1.954649E+04  1.420410E-08 -1.503476E+04  3.411081E-10
        27  23 -2.271842E+06  1.145947E+04 -3.015652E+04 -4.213070E-08 -3.145990E+04 -1.869747E-10
        27  24 -2.282335E+06 -5.424288E+04 -7.024655E+04  3.603108E-08 -4.788535E+04  1.178711E-10
        27  25 -2.282270E+06  2.128873E+03 -1.954648E+04  4.589623E+03 -1.503476E+04 -1.115401E-01
        27  26 -2.271842E+06  1.145948E+04 -3.015652E+04 -2.535963E+03 -3.145990E+04  1.289586E-01
        27  27 -2.282335E+06 -5.424271E+04 -7.024652E+04 -9.661550E+03 -4.788535E+04  7.478314E-01
        28   1  5.579968E+05  1.048231E+06  7.146694E+05 -5.419337E+04  8.928959E+02  4.533721E+05
        28   2 -5.774262E+04  1.010576E+06  3.514132E+05 -3.033026E+04  3.644610E+03  2.908358E+05
        28   3  5.449824E+04  1.176280E+06  2.760057E+05  8.440691E+04  5.694097E+03  1.282740E+05
        28   4  5.204497E+05  8.977700E+05  6.772656E+05  3.946255E+04  9.611872E+02  4.524812E+05
        28   5 -1.111793E+05  7.961772E+05  2.985122E+05 -5.993201E+03  3.656236E+03  2.901525E+05
        28   6 -1.475934E+04  8.979320E+05  2.075050E+05  3.942903E+04  5.685182E+03  1.278146E+05
        28   7  4.829338E+05  7.473480E+05  6.398648E+05  1.330958E+05  1.029225E+03  4.515905E+05
        28   8 -1.646171E+05  5.818209E+05  2.456080E+05  1.833546E+04  3.667812E+03  2.894694E+05
        28   9 -8.401507E+04  6.196589E+05  1.389997E+05 -5.528685E+03  5.676330E+03  1.273554E+05
        28  10  5.579417E+05  1.048011E+06  7.142838E+05 -5.419370E+04 -1.600596E-10  8.172701E-10
        28  11 -5.776528E+04  1.010486E+06  3.512545E+05 -3.033112E+04 -2.615810E-09  1.874842E-10
        28  12  5.449380E+04  1.176262E+06  2.759748E+05  8.440632E+04 -8.102892E-11 -7.862915E-10
        28  13  5.203948E+05  8.975505E+05  6.768814E+05  3.946220E+04  8.302519E-10 -4.336997E-11
        28  14 -1.112018E+05  7.960869E+05  2.983542E+05 -5.994055E+03  2.284032E-09 -1.225328E-10
        28  15 -1.476375E+04  8.979145E+05  2.074743E+05  3.942844E+04  3.790919E-09 -2.839429E-10
        28  16  4.828791E+05  7.471293E+05  6.394820E+05  1.330954E+05 -2.873523E-09 -8.198609E-10
        28  17 -1.646396E+05  5.817310E+05  2.454507E+05  1.833461E+04  8.098967E-11 -2.520814E-10
        28  18 -8.401945E+04  6.196415E+05  1.389692E+05 -5.529267E+03 -2.597564E-09  1.164908E-09
        28  19  5.579968E+05  1.048231E+06  7.146694E+05 -5.419337E+04 -8.928959E+02 -4.533721E+05
        28  20 -5.774262E+04  1.010576E+06  3.514132E+05 -3.033026E+04 -3.644610E+03 -2.908358E+05
        28  21  5.449824E+04  1.176280E+06  2.760057E+05  8.440691E+04 -5.694097E+03 -1.282740E+05
        28  22  5.204497E+05  8.977700E+05  6.772656E+05  3.946255E+04 -9.611872E+02 -4.524812E+05
        28  23 -1.111793E+05  7.961772E+05  2.985122E+05 -5.993201E+03 -3.656236E+03 -2.901525E+05
        28  24 -1.475934E+04  8.979320E+05  2.075050E+05  3.942903E+04 -5.685182E+03 -1.278146E+05
        28  25  4.829338E+05  7.473480E+05  6.398648E+05  1.330958E+05 -1.029225E+03 -4.515905E+05
        28  26 -1.646171E+05  5.818209E+05  2.456080E+05  1.833546E+04 -3.667812E+03 -2.894694E+05
        28  27 -8.401507E+04  6.196589E+05  1.389997E+05 -5.528685E+03 -5.676330E+03 -1.273554E+05
        29   1  1.950840E+05  1.361329E+06  3.033417E+05  2.432069E+04  7.221655E+03  9.409754E+04
        29   2  1.163249E+05  1.403922E+06  2.566217E+05 -9.129475E+03  9.785974E+03  3.234614E+04
        29   3  1.964267E+05  1.495878E+06  2.900981E+05  5.302794E+04  1.048099E+04 -2.941053E+04
        29   4  7.102902E+04  8.635882E+05  1.803187E+05  4.052109E+04  7.225140E+03  9.313114E+04
        29   5 -2.440725E+04  8.389520E+05  1.172540E+05 -7.275505E+03  9.787212E+03  3.191790E+04
        29   6  3.899949E+04  8.636184E+05  1.340581E+05  4.053941E+04  1.048206E+04 -2.929399E+04
        29   7 -5.304343E+04  3.660726E+05  5.727739E+04  5.670855E+04  7.228576E+03  9.216548E+04
        29   8 -1.651632E+05  2.742712E+05 -2.213738E+04 -5.423118E+03  9.788447E+03  3.149003E+04
        29   9 -1.184568E+05  2.317221E+05 -2.201147E+04  2.806375E+04  1.048313E+04 -2.917755E+04
        29  10  1.950815E+05  1.361319E+06  3.033250E+05  2.432015E+04 -8.445078E-10 -5.587843E-10
        29  11  1.163246E+05  1.403921E+06  2.566196E+05 -9.129730E+03 -2.187408E-09  1.155076E-10
        29  12  1.964263E+05  1.495877E+06  2.900963E+05  5.302819E+04 -2.535806E-09  1.055416E-09
        29  13  7.102664E+04  8.635788E+05  1.803023E+05  4.052055E+04  3.021316E-09 -2.536977E-10
        29  14 -2.440763E+04  8.389508E+05  1.172519E+05 -7.275757E+03  3.807844E-09 -4.346397E-10
        29  15  3.899914E+04  8.636175E+05  1.340563E+05  4.053965E+04  3.214934E-09 -1.144659E-09
        29  16 -5.304576E+04  3.660635E+05  5.726134E+04  5.670802E+04 -3.021407E-10  4.495987E-10
        29  17 -1.651636E+05  2.742702E+05 -2.213942E+04 -5.423366E+03  1.535198E-09 -5.715574E-10
        29  18 -1.184572E+05  2.317211E+05 -2.201328E+04  2.806399E+04  7.633363E-10 -1.545113E-10
        29  19  1.950840E+05  1.361329E+06  3.033417E+05  2.432069E+04 -7.221655E+03 -9.409754E+04
        29  20  1.163249E+05  1.403922E+06  2.566217E+05 -9.129475E+03 -9.785974E+03 -3.234614E+04
        29  21  1.964267E+05  1.495878E+06  2.900981E+05  5.302794E+04 -1.048099E+04  2.941053E+04
        29  22  7.102902E+04  8.635882E+05  1.803187E+05  4.052109E+04 -7.225140E+03 -9.313114E+04
        29  23 -2.440725E+04  8.389520E+05  1.172540E+05 -7.275505E+03 -9.787212E+03 -3.191790E+04
        29  24  3.899949E+04  8.636184E+05  1.340581E+05  4.053941E+04 -1.048206E+04  2.929399E+04
        29  25 -5.304343E+04  3.660726E+05  5.727739E+04  5.670855E+04 -7.228576E+03 -9.216548E+04
        29  26 -1.651632E+05  2.742712E+05 -2.213738E+04 -5.423118E+03 -9.788447E+03 -3.149003E+04
        29  27 -1.184568E+05  2.317221E+05 -2.201147E+04  2.806375E+04 -1.048313E+04  2.917755E+04
        30   1  2.141307E+05  1.747386E+06  3.573864E+05  1.359003E+04  1.432756E+04 -5.116283E+04
        30   2  1.679434E+05  1.758417E+06  4.145941E+05  1.518591E+03  1.847647E+04 -1.545557E+05
        30   3  5.538277E+05  1.895352E+06  6.479222E+05  9.523820E+04  7.457267E+03 -2.580187E+05
        30   4 -1.974112E+03  8.804294E+05  1.433889E+05  4.235480E+04  1.433407E+04 -5.414148E+04
        30   5 -6.616243E+04  8.177124E+05  1.828842E+05 -9.846153E+03  1.847743E+04 -1.533923E+05
        30   6  3.013463E+05  8.803605E+05  3.958174E+05  4.374650E+04  7.455921E+03 -2.527005E+05
        30   7 -2.181319E+05  1.415572E+04 -7.066391E+04  7.107985E+04  1.434031E+04 -5.711594E+04
        30   8 -3.003334E+05 -1.221887E+05 -4.889079E+04 -2.119296E+04  1.847835E+04 -1.522305E+05
        30   9  4.879833E+04 -1.336920E+05  1.436374E+05 -7.660151E+03  7.453707E+03 -2.473906E+05
        30  10  2.141297E+05  1.747383E+06  3.573811E+05  1.359062E+04 -9.580995E-10 -3.445637E-10
        30  11  1.679366E+05  1.758391E+06  4.145487E+05  1.520888E+03  2.843678E-09 -4.887119E-10
        30  12  5.538099E+05  1.895281E+06  6.477974E+05  9.523975E+04  2.759330E-11  1.988848E-09
        30  13 -1.975118E+03  8.804262E+05  1.433830E+05  4.235542E+04  4.501871E-12 -7.750153E-10
        30  14 -6.616910E+04  8.176871E+05  1.828394E+05 -9.843872E+03 -2.163638E-10 -1.013470E-09
        30  15  3.013292E+05  8.802920E+05  3.956975E+05  4.374802E+04 -1.925223E-09 -2.610503E-09
        30  16 -2.181330E+05  1.415216E+04 -7.067043E+04  7.108051E+04 -6.946103E-10 -1.571123E-10
        30  17 -3.003400E+05 -1.222137E+05 -4.893499E+04 -2.119069E+04 -3.067140E-09 -5.343873E-10
        30  18  4.878184E+04 -1.337577E+05  1.435222E+05 -7.658666E+03 -6.726747E-10  6.061873E-11
        30  19  2.141307E+05  1.747386E+06  3.573864E+05  1.359003E+04 -1.432756E+04  5.116283E+04
        30  20  1.679434E+05  1.758417E+06  4.145941E+05  1.518591E+03 -1.847647E+04  1.545557E+05
        30  21  5.538277E+05  1.895352E+06  6.479222E+05  9.523820E+04 -7.457267E+03  2.580187E+05
        30  22 -1.974112E+03  8.804294E+05  1.433889E+05  4.235480E+04 -1.433407E+04  5.414148E+04
        30  23 -6.616243E+04  8.177124E+05  1.828842E+05 -9.846153E+03 -1.847743E+04  1.533923E+05
        30  24  3.013463E+05  8.803605E+05  3.958174E+05  4.374650E+04 -7.455921E+03  2.527005E+05
        30  25 -2.181319E+05  1.415572E+04 -7.066391E+04  7.107985E+04 -1.434031E+04  5.711594E+04
        30  26 -3.003334E+05 -1.221887E+05 -4.889079E+04 -2.119296E+04 -1.847835E+04  1.522305E+05
        30  27  4.879833E+04 -1.336920E+05  1.436374E+05 -7.660151E+03 -7.453707E+03  2.473906E+05
        31   1 -2.841025E+06 -5.482324E+05 -1.809103E+05 -1.032113E+06 -8.309253E+04 -2.974068E+04
        31   2 -2.811706E+06 -4.201289E+05 -1.010237E+05 -1.046124E+06 -5.403532E+04 -1.623709E+04
        31   3 -2.821531E+06 -4.319223E+05 -7.834077E+04 -1.041445E+06 -2.382986E+04 -5.797104E+03
        31   4 -2.663938E+06 -4.661649E+05 -1.291500E+05 -9.684759E+05 -8.216885E+04 -2.939696E+04
        31   5 -2.637961E+06 -3.506287E+05 -5.285742E+04 -9.949102E+05 -5.385815E+04 -1.617122E+04
        31   6 -2.650965E+06 -3.748190E+05 -3.316216E+04 -1.002660E+06 -2.439948E+04 -6.010066E+03
        31   7 -2.486821E+06 -3.840913E+05 -7.739304E+04 -9.048207E+05 -8.124487E+04 -2.905307E+04
        31   8 -2.464187E+06 -2.811259E+05 -4.694111E+03 -9.436837E+05 -5.368092E+04 -1.610533E+04
        31   9 -2.480372E+06 -3.177154E+05  1.201399E+04 -9.638660E+05 -2.496928E+04 -6.223075E+03
        31  10 -2.841033E+06 -5.482352E+05 -1.809250E+05 -1.032115E+06  2.372645E-09 -2.540964E-10
        31  11 -2.811709E+06 -4.201300E+05 -1.010297E+05 -1.046124E+06  1.555889E-09 -1.822519E-09
        31  12 -2.821532E+06 -4.319225E+05 -7.834191E+04 -1.041446E+06  1.726648E-09  1.648294E-09
        31  13 -2.663945E+06 -4.661677E+05 -1.291644E+05 -9.684778E+05 -1.987015E-09 -4.760247E-10
        31  14 -2.637964E+06 -3.506297E+05 -5.286339E+04 -9.949109E+05 -5.053993E-10 -1.020437E-09
        31  15 -2.650966E+06 -3.748192E+05 -3.316335E+04 -1.002660E+06 -4.100567E-11 -2.906099E-10
        31  16 -2.486828E+06 -3.840940E+05 -7.740709E+04 -9.048226E+05  1.169724E-09  4.654764E-11
        31  17 -2.464190E+06 -2.811270E+05 -4.700040E+03 -9.436844E+05 -4.422427E-10  7.479458E-10
        31  18 -2.480372E+06 -3.177157E+05  1.201274E+04 -9.638661E+05 -5.173345E-09  1.871117E-09
        31  19 -2.841025E+06 -5.482324E+05 -1.809103E+05 -1.032113E+06  8.309253E+04  2.974068E+04
        31  20 -2.811706E+06 -4.201289E+05 -1.010237E+05 -1.046124E+06  5.403532E+04  1.623709E+04
        31  21 -2.821531E+06 -4.319223E+05 -7.834077E+04 -1.041445E+06  2.382986E+04  5.797104E+03
        31  22 -2.663938E+06 -4.661649E+05 -1.291500E+05 -9.684759E+05  8.216885E+04  2.939696E+04
        31  23 -2.637961E+06 -3.506287E+05 -5.285742E+04 -9.949102E+05  5.385815E+04  1.617122E+04
        31  24 -2.650965E+06 -3.748190E+05 -3.316216E+04 -1.002660E+06  2.439948E+04  6.010066E+03
        31  25 -2.486821E+06 -3.840913E+05 -7.739304E+04 -9.048207E+05  8.124487E+04  2.905307E+04
        31  26 -2.464187E+06 -2.811259E+05 -4.694111E+03 -9.436837E+05  5.368092E+04  1.610533E+04
        31  27 -2.480372E+06 -3.177154E+05  1.201399E+04 -9.638660E+05  2.496928E+04  6.223075E+03
        32   1 -2.757345E+06 -4.349513E+05 -5.818137E+04 -1.027926E+06 -1.915903E+04 -4.917246E+03
        32   2 -2.746690E+06 -4.037478E+05 -3.902366E+04 -1.017138E+06 -1.237857E+04 -2.603509E+03
        32   3 -2.726366E+06 -4.079339E+05 -2.980703E+04 -1.021648E+06 -5.415451E+03 -7.775677E+02
        32   4 -2.645676E+06 -3.907968E+05 -2.727866E+04 -9.955497E+05 -1.914964E+04 -4.913837E+03
        32   5 -2.649606E+06 -3.666491E+05 -1.242667E+04 -9.903148E+05 -1.248813E+04 -2.644528E+03
        32   6 -2.643842E+06 -3.778653E+05 -7.419804E+03 -1.000379E+06 -5.644171E+03 -8.630911E+02
        32   7 -2.533995E+06 -3.466411E+05  3.622967E+03 -9.631677E+05 -1.914024E+04 -4.910427E+03
        32   8 -2.552513E+06 -3.295499E+05  1.416944E+04 -9.634879E+05 -1.259771E+04 -2.685553E+03
        32   9 -2.561313E+06 -3.477967E+05  1.496673E+04 -9.791067E+05 -5.872923E+03 -9.486257E+02
        32  10 -2.757346E+06 -4.349514E+05 -5.818211E+04 -1.027926E+06 -1.019682E-09  3.178278E-09
        32  11 -2.746690E+06 -4.037479E+05 -3.902397E+04 -1.017138E+06 -3.752347E-09  1.641097E-09
        32  12 -2.726366E+06 -4.079339E+05 -2.980709E+04 -1.021648E+06 -3.774847E-09 -6.209718E-10
        32  13 -2.645677E+06 -3.907969E+05 -2.727940E+04 -9.955498E+05  2.376143E-09 -2.637199E-10
        32  14 -2.649606E+06 -3.666492E+05 -1.242698E+04 -9.903148E+05 -2.159217E-09  4.991562E-11
        32  15 -2.643842E+06 -3.778654E+05 -7.419865E+03 -1.000379E+06  2.029931E-09 -9.019571E-10
        32  16 -2.533995E+06 -3.466412E+05  3.622230E+03 -9.631678E+05 -4.400807E-09  1.557526E-09
        32  17 -2.552513E+06 -3.295499E+05  1.416912E+04 -9.634880E+05 -5.936708E-10  6.173900E-10
        32  18 -2.561313E+06 -3.477967E+05  1.496666E+04 -9.791067E+05  3.598002E-09 -2.900605E-12
        32  19 -2.757345E+06 -4.349513E+05 -5.818137E+04 -1.027926E+06  1.915903E+04  4.917246E+03
        32  20 -2.746690E+06 -4.037478E+05 -3.902366E+04 -1.017138E+06  1.237857E+04  2.603509E+03
        32  21 -2.726366E+06 -4.079339E+05 -2.980703E+04 -1.021648E+06  5.415451E+03  7.775677E+02
        32  22 -2.645676E+06 -3.907968E+05 -2.727866E+04 -9.955497E+05  1.914964E+04  4.913837E+03
        32  23 -2.649606E+06 -3.666491E+05 -1.242667E+04 -9.903148E+05  1.248813E+04  2.644528E+03
        32  24 -2.643842E+06 -3.778653E+05 -7.419804E+03 -1.000379E+06  5.644171E+03  8.630911E+02
        32  25 -2.533995E+06 -3.466411E+05  3.622967E+03 -9.631677E+05  1.914024E+04  4.910427E+03
        32  26 -2.552513E+06 -3.295499E+05  1.416944E+04 -9.634879E+05  1.259771E+04  2.685553E+03
        32  27 -2.561313E+06 -3.477967E+05  1.496673E+04 -9.791067E+05  5.872923E+03  9.486257E+02
        33   1 -2.660839E+06 -3.873856E+05 -1.082728E+04 -1.004792E+06 -4.229223E+03 -8.570888E+02
        33   2 -2.652515E+06 -3.690421E+05 -3.169170E+03 -9.896555E+05 -2.483279E+03 -9.017237E+02
        33   3 -2.626355E+06 -3.722791E+05  2.654908E+03 -9.957548E+05 -7.186799E+02 -9.961176E+02
        33   4 -2.642809E+06 -3.803341E+05 -5.909371E+03 -9.996296E+05 -4.373837E+03 -9.111597E+02
        33   5 -2.651599E+06 -3.686405E+05 -2.909240E+03 -9.893489E+05 -2.640108E+03 -9.603604E+02
        33   6 -2.642552E+06 -3.785251E+05 -1.733311E+03 -1.000304E+06 -8.877663E+02 -1.059337E+03
        33   7 -2.624779E+06 -3.732825E+05 -9.914805E+02 -9.944671E+05 -4.518457E+03 -9.652325E+02
        33   8 -2.650684E+06 -3.682390E+05 -2.649309E+03 -9.890422E+05 -2.796937E+03 -1.018997E+03
        33   9 -2.658748E+06 -3.847711E+05 -6.121574E+03 -1.004853E+06 -1.056849E+03 -1.122555E+03
        33  10 -2.660839E+06 -3.873856E+05 -1.082732E+04 -1.004792E+06 -1.618661E-09 -9.502512E-10
        33  11 -2.652515E+06 -3.690421E+05 -3.169183E+03 -9.896555E+05 -9.223165E-10 -7.861780E-10
        33  12 -2.626355E+06 -3.722791E+05  2.654905E+03 -9.957548E+05 -5.532366E-09 -1.429655E-10
        33  13 -2.642809E+06 -3.803341E+05 -5.909409E+03 -9.996296E+05  1.204302E-10 -2.883388E-10
        33  14 -2.651599E+06 -3.686405E+05 -2.909255E+03 -9.893489E+05  1.250183E-09  1.055303E-09
        33  15 -2.642552E+06 -3.785251E+05 -1.733315E+03 -1.000304E+06 -4.379140E-09  1.675693E-09
        33  16 -2.624779E+06 -3.732825E+05 -9.915208E+02 -9.944671E+05  2.858265E-09  5.256376E-10
        33  17 -2.650684E+06 -3.682390E+05 -2.649326E+03 -9.890422E+05 -3.728798E-09  1.718620E-09
        33  18 -2.658748E+06 -3.847711E+05 -6.121579E+03 -1.004853E+06  1.047276E-09  7.184351E-10
        33  19 -2.660839E+06 -3.873856E+05 -1.082728E+04 -1.004792E+06  4.229223E+03  8.570888E+02
        33  20 -2.652515E+06 -3.690421E+05 -3.169170E+03 -9.896555E+05  2.483279E+03  9.017237E+02
        33  21 -2.626355E+06 -3.722791E+05  2.654908E+03 -9.957548E+05  7.186799E+02  9.961176E+02
        33  22 -2.642809E+06 -3.803341E+05 -5.909371E+03 -9.996296E+05  4.373837E+03  9.111597E+02
        33  23 -2.651599E+06 -3.686405E+05 -2.909240E+03 -9.893489E+05  2.640108E+03  9.603604E+02
        33  24 -2.642552E+06 -3.785251E+05 -1.733311E+03 -1.000304E+06  8.877663E+02  1.059337E+03
        33  25 -2.624779E+06 -3.732825E+05 -9.914805E+02 -9.944671E+05  4.518457E+03  9.652325E+02
        33  26 -2.650684E+06 -3.682390E+05 -2.649309E+03 -9.890422E+05  2.796937E+03  1.018997E+03
        33  27 -2.658748E+06 -3.847711E+05 -6.121574E+03 -1.004853E+06  1.056849E+03  1.122555E+03
        34   1 -2.563100E+06 -3.484192E+05  2.043485E+04 -9.781661E+05 -3.076908E+02 -1.306816E+03
        34   2 -2.555944E+06 -3.334750E+05  2.522324E+04 -9.639716E+05  3.319531E+02 -1.802816E+03
        34   3 -2.531605E+06 -3.362991E+05  2.960986E+04 -9.696183E+05  9.363273E+02 -2.203859E+03
        34   4 -2.642806E+06 -3.784324E+05 -1.382984E+03 -9.997138E+05 -4.781550E+02 -1.370568E+03
        34   5 -2.651381E+06 -3.694480E+05 -8.303564E+02 -9.898294E+05  1.848164E+02 -1.857877E+03
        34   6 -2.642777E+06 -3.782366E+05 -6.979909E+02 -9.997863E+05  8.125049E+02 -2.250227E+03
        34   7 -2.722506E+06 -4.084451E+05 -2.320131E+04 -1.021259E+06 -6.485944E+02 -1.434310E+03
        34   8 -2.746809E+06 -4.054204E+05 -2.688471E+04 -1.015684E+06  3.770505E+01 -1.912930E+03
        34   9 -2.753938E+06 -4.201734E+05 -3.100694E+04 -1.029949E+06  6.887070E+02 -2.296586E+03
        34  10 -2.563100E+06 -3.484192E+05  2.043485E+04 -9.781661E+05 -5.393560E-09  2.892296E-10
        34  11 -2.555944E+06 -3.334750E+05  2.522323E+04 -9.639716E+05 -5.847907E-10  6.200238E-10
        34  12 -2.531605E+06 -3.362991E+05  2.960985E+04 -9.696183E+05  2.239431E-09  5.142550E-10
        34  13 -2.642806E+06 -3.784324E+05 -1.382988E+03 -9.997138E+05 -5.113745E-10 -4.055935E-10
        34  14 -2.651381E+06 -3.694480E+05 -8.303630E+02 -9.898294E+05 -2.844404E-09  1.503391E-10
        34  15 -2.642777E+06 -3.782366E+05 -6.980017E+02 -9.997863E+05 -1.588399E-09  7.153943E-10
        34  16 -2.722506E+06 -4.084451E+05 -2.320131E+04 -1.021259E+06  2.071374E-09  1.179600E-09
        34  17 -2.746809E+06 -4.054204E+05 -2.688472E+04 -1.015684E+06  1.412218E-09 -4.706335E-10
        34  18 -2.753938E+06 -4.201734E+05 -3.100695E+04 -1.029949E+06 -2.783730E-09  4.315708E-10
        34  19 -2.563100E+06 -3.484192E+05  2.043485E+04 -9.781661E+05  3.076908E+02  1.306816E+03
        34  20 -2.555944E+06 -3.334750E+05  2.522324E+04 -9.639716E+05 -3.319531E+02  1.802816E+03
        34  21 -2.531605E+06 -3.362991E+05  2.960986E+04 -9.696183E+05 -9.363273E+02  2.203859E+03
        34  22 -2.642806E+06 -3.784324E+05 -1.382984E+03 -9.997138E+05  4.781550E+02  1.370568E+03
        34  23 -2.651381E+06 -3.694480E+05 -8.303564E+02 -9.898294E+05 -1.848164E+02  1.857877E+03
        34  24 -2.642777E+06 -3.782366E+05 -6.979909E+02 -9.997863E+05 -8.125049E+02  2.250227E+03
        34  25 -2.722506E+06 -4.084451E+05 -2.320131E+04 -1.021259E+06  6.485944E+02  1.434310E+03
        34  26 -2.746809E+06 -4.054204E+05 -2.688471E+04 -1.015684E+06 -3.770505E+01  1.912930E+03
        34  27 -2.753938E+06 -4.201734E+05 -3.100694E+04 -1.029949E+06 -6.887070E+02  2.296586E+03
        35   1 -2.480080E+06 -3.154512E+05  4.405057E+04 -9.542294E+05  1.206517E+03 -2.482633E+03
        35   2 -2.474946E+06 -3.046572E+05  4.692330E+04 -9.438018E+05  1.817453E+03 -2.860362E+03
        35   3 -2.457210E+06 -3.069605E+05  4.940316E+04 -9.477623E+05  2.356557E+03 -3.045395E+03
        35   4 -2.643797E+06 -3.771724E+05 -7.009809E+02 -9.985870E+05  1.051764E+03 -2.540618E+03
        35   5 -2.650113E+06 -3.707564E+05 -9.080018E+02 -9.913410E+05  1.710036E+03 -2.900673E+03
        35   6 -2.643835E+06 -3.774477E+05 -1.545641E+03 -9.984837E+05  2.296458E+03 -3.068009E+03
        35   7 -2.807489E+06 -4.388923E+05 -4.545503E+04 -1.042934E+06  8.970563E+02 -2.598586E+03
        35   8 -2.825250E+06 -4.368540E+05 -4.874212E+04 -1.038868E+06  1.602653E+03 -2.940972E+03
        35   9 -2.830428E+06 -4.479329E+05 -5.249760E+04 -1.049191E+06  2.236380E+03 -3.090615E+03
        35  10 -2.480080E+06 -3.154512E+05  4.405056E+04 -9.542294E+05  1.521545E-09 -1.501855E-10
        35  11 -2.474946E+06 -3.046572E+05  4.692327E+04 -9.438018E+05 -1.920337E-09 -1.095762E-09
        35  12 -2.457210E+06 -3.069605E+05  4.940313E+04 -9.477623E+05 -3.336743E-09  7.159521E-10
        35  13 -2.643797E+06 -3.771724E+05 -7.009951E+02 -9.985870E+05  2.062188E-09  5.406303E-10
        35  14 -2.650113E+06 -3.707564E+05 -9.080231E+02 -9.913410E+05  3.225953E-09  7.406736E-10
        35  15 -2.643835E+06 -3.774477E+05 -1.545669E+03 -9.984836E+05  6.059895E-10  1.494032E-09
        35  16 -2.807489E+06 -4.388923E+05 -4.545505E+04 -1.042934E+06 -1.733374E-09 -3.291582E-10
        35  17 -2.825250E+06 -4.368540E+05 -4.874214E+04 -1.038868E+06 -2.159977E-09 -6.733701E-10
        35  18 -2.830428E+06 -4.479329E+05 -5.249763E+04 -1.049191E+06  5.876713E-10  9.894019E-10
        35  19 -2.480080E+06 -3.154512E+05  4.405057E+04 -9.542294E+05 -1.206517E+03  2.482633E+03
        35  20 -2.474946E+06 -3.046572E+05  4.692330E+04 -9.438018E+05 -1.817453E+03  2.860362E+03
        35  21 -2.457210E+06 -3.069605E+05  4.940316E+04 -9.477623E+05 -2.356557E+03  3.045395E+03
        35  22 -2.643797E+06 -3.771724E+05 -7.009809E+02 -9.985870E+05 -1.051764E+03  2.540618E+03
        35  23 -2.650113E+06 -3.707564E+05 -9.080018E+02 -9.913410E+05 -1.710036E+03  2.900673E+03
        35  24 -2.643835E+06 -3.774477E+05 -1.545641E+03 -9.984837E+05 -2.296458E+03  3.068009E+03
        35  25 -2.807489E+06 -4.388923E+05 -4.545503E+04 -1.042934E+06 -8.970563E+02  2.598586E+03
        35  26 -2.825250E+06 -4.368540E+05 -4.874212E+04 -1.038868E+06 -1.602653E+03  2.940972E+03
        35  27 -2.830428E+06 -4.479329E+05 -5.249760E+04 -1.049191E+06 -2.236380E+03  3.090615E+03
        36   1 -2.426545E+06 -2.930817E+05  5.785695E+04 -9.376225E+05  2.774681E+03 -3.127306E+03
        36   2 -2.424035E+06 -2.876188E+05  5.786489E+04 -9.326577E+05  4.535345E+03 -2.833604E+03
        36   3 -2.416805E+06 -2.907779E+05  5.592035E+04 -9.335135E+05  6.189928E+03 -2.256788E+03
        36   4 -2.645469E+06 -3.755773E+05 -1.938245E+03 -9.969105E+05  2.660300E+03 -3.170310E+03
        36   5 -2.647969E+06 -3.722934E+05 -3.314938E+03 -9.936126E+05  4.490117E+03 -2.850700E+03
        36   6 -2.645765E+06 -3.776459E+05 -6.699645E+03 -9.961351E+05  6.213822E+03 -2.247931E+03
        36   7 -2.864347E+06 -4.580701E+05 -6.173771E+04 -1.056180E+06  2.545963E+03 -3.213298E+03
        36   8 -2.871856E+06 -4.569652E+05 -6.449932E+04 -1.054548E+06  4.444906E+03 -2.867789E+03
        36   9 -2.874674E+06 -4.645109E+05 -6.932450E+04 -1.058736E+06  6.237705E+03 -2.239079E+03
        36  10 -2.426545E+06 -2.930817E+05  5.785692E+04 -9.376225E+05  1.276949E-10  1.595951E-09
        36  11 -2.424035E+06 -2.876189E+05  5.786484E+04 -9.326577E+05  4.274916E-09 -1.056720E-09
        36  12 -2.416805E+06 -2.907779E+05  5.592027E+04 -9.335135E+05 -7.459882E-10 -9.521745E-10
        36  13 -2.645469E+06 -3.755773E+05 -1.938278E+03 -9.969105E+05 -6.340592E-10  1.346487E-09
        36  14 -2.647969E+06 -3.722934E+05 -3.314991E+03 -9.936126E+05  1.270486E-09 -2.729918E-10
        36  15 -2.645765E+06 -3.776459E+05 -6.699727E+03 -9.961351E+05  2.388739E-09 -4.623568E-11
        36  16 -2.864347E+06 -4.580702E+05 -6.173774E+04 -1.056180E+06 -2.905606E-11  1.267833E-09
        36  17 -2.871856E+06 -4.569652E+05 -6.449938E+04 -1.054548E+06 -8.637832E-10 -2.155137E-10
        36  18 -2.874674E+06 -4.645109E+05 -6.932458E+04 -1.058736E+06  1.932172E-09 -4.852723E-11
        36  19 -2.426545E+06 -2.930817E+05  5.785695E+04 -9.376225E+05 -2.774681E+03  3.127306E+03
        36  20 -2.424035E+06 -2.876188E+05  5.786489E+04 -9.326577E+05 -4.535345E+03  2.833604E+03
        36  21 -2.416805E+06 -2.907779E+05  5.592035E+04 -9.335135E+05 -6.189928E+03  2.256788E+03
        36  22 -2.645469E+06 -3.755773E+05 -1.938245E+03 -9.969105E+05 -2.660300E+03  3.170310E+03
        36  23 -2.647969E+06 -3.722934E+05 -3.314938E+03 -9.936126E+05 -4.490117E+03  2.850700E+03
        36  24 -2.645765E+06 -3.776459E+05 -6.699645E+03 -9.961351E+05 -6.213822E+03  2.247931E+03
        36  25 -2.864347E+06 -4.580701E+05 -6.173771E+04 -1.056180E+06 -2.545963E+03  3.213298E+03
        36  26 -2.871856E+06 -4.569652E+05 -6.449932E+04 -1.054548E+06 -4.444906E+03  2.867789E+03
        36  27 -2.874674E+06 -4.645109E+05 -6.932450E+04 -1.058736E+06 -6.237705E+03  2.239079E+03
        37   1 -2.412039E+06 -2.853597E+05  5.590171E+04 -9.323751E+05  7.579570E+03 -1.833678E+03
        37   2 -2.411093E+06 -2.829869E+05  4.961934E+04 -9.325537E+05  1.495386E+04  8.565084E+02
        37   3 -2.420757E+06 -2.988534E+05  3.231336E+04 -9.249405E+05  2.211189E+04  4.120552E+03
        37   4 -2.648282E+06 -3.735117E+05 -8.420617E+03 -9.954699E+05  7.489405E+03 -1.867690E+03
        37   5 -2.644015E+06 -3.717001E+05 -1.413607E+04 -9.966136E+05  1.500239E+04  8.746297E+02
        37   6 -2.650387E+06 -3.881602E+05 -3.098860E+04 -9.899648E+05  2.229910E+04  4.190869E+03
        37   7 -2.884471E+06 -4.616608E+05 -7.274797E+04 -1.058543E+06  7.399278E+03 -1.901687E+03
        37   8 -2.876884E+06 -4.604099E+05 -7.789639E+04 -1.060652E+06  1.505089E+04  8.927429E+02
        37   9 -2.879967E+06 -4.774630E+05 -9.429534E+04 -1.054967E+06  2.248625E+04  4.261155E+03
        37  10 -2.412039E+06 -2.853597E+05  5.590160E+04 -9.323751E+05  1.725260E-09  1.143111E-10
        37  11 -2.411093E+06 -2.829870E+05  4.961892E+04 -9.325537E+05 -3.210766E-09  3.893128E-09
        37  12 -2.420757E+06 -2.988536E+05  3.231241E+04 -9.249406E+05  1.566895E-09  2.142611E-10
        37  13 -2.648282E+06 -3.735117E+05 -8.420729E+03 -9.954699E+05 -1.788882E-09 -1.938362E-10
        37  14 -2.644015E+06 -3.717001E+05 -1.413650E+04 -9.966136E+05  9.335155E-10  6.906878E-10
        37  15 -2.650388E+06 -3.881604E+05 -3.098957E+04 -9.899648E+05 -4.113699E-09  1.234050E-09
        37  16 -2.884471E+06 -4.616608E+05 -7.274808E+04 -1.058543E+06  1.887359E-09 -2.048529E-10
        37  17 -2.876884E+06 -4.604099E+05 -7.789681E+04 -1.060652E+06 -1.844122E-09 -5.252333E-10
        37  18 -2.879967E+06 -4.774632E+05 -9.429633E+04 -1.054967E+06 -1.021331E-09  7.998952E-10
        37  19 -2.412039E+06 -2.853597E+05  5.590171E+04 -9.323751E+05 -7.579570E+03  1.833678E+03
        37  20 -2.411093E+06 -2.829869E+05  4.961934E+04 -9.325537E+05 -1.495386E+04 -8.565084E+02
        37  21 -2.420757E+06 -2.988534E+05  3.231336E+04 -9.249405E+05 -2.211189E+04 -4.120552E+03
        37  22 -2.648282E+06 -3.735117E+05 -8.420617E+03 -9.954699E+05 -7.489405E+03  1.867690E+03
        37  23 -2.644015E+06 -3.717001E+05 -1.413607E+04 -9.966136E+05 -1.500239E+04 -8.746297E+02
        37  24 -2.650387E+06 -3.881602E+05 -3.098860E+04 -9.899648E+05 -2.229910E+04 -4.190869E+03
        37  25 -2.884471E+06 -4.616608E+05 -7.274797E+04 -1.058543E+06 -7.399278E+03  1.901687E+03
        37  26 -2.876884E+06 -4.604099E+05 -7.789639E+04 -1.060652E+06 -1.505089E+04 -8.927429E+02
        37  27 -2.879967E+06 -4.774630E+05 -9.429534E+04 -1.054967E+06 -2.248625E+04 -4.261155E+03
        38   1 -2.440310E+06 -2.958312E+05  1.983503E+04 -9.469306E+05  2.834252E+04  6.205315E+03
        38   2 -2.431704E+06 -2.744033E+05 -4.999142E+03 -9.437094E+05  6.081724E+04  1.849140E+04
        38   3 -2.491473E+06 -3.874007E+05 -9.363153E+04 -8.915676E+05  9.229789E+04  3.341158E+04
        38   4 -2.656887E+06 -3.695861E+05 -3.769114E+04 -9.975617E+05  2.802120E+04  6.084551E+03
        38   5 -2.630085E+06 -3.540937E+05 -6.007095E+04 -1.002507E+06  6.113451E+04  1.861044E+04
        38   6 -2.671804E+06 -4.731819E+05 -1.467723E+05 -9.585252E+05  9.325460E+04  3.376952E+04
        38   7 -2.873418E+06 -4.433405E+05 -9.522137E+04 -1.048178E+06  2.770001E+04  5.963822E+03
        38   8 -2.828429E+06 -4.337805E+05 -1.151465E+05 -1.061286E+06  6.145167E+04  1.872943E+04
        38   9 -2.852103E+06 -5.589553E+05 -1.999163E+05 -1.025463E+06  9.421100E+04  3.412727E+04
        38  10 -2.440311E+06 -2.958314E+05  1.983344E+04 -9.469308E+05  2.286834E-09 -1.710630E-09
        38  11 -2.431708E+06 -2.744047E+05 -5.006770E+03 -9.437103E+05  3.518252E-09  2.553553E-09
        38  12 -2.491482E+06 -3.874042E+05 -9.364972E+04 -8.915701E+05  1.016029E-09  2.934482E-10
        38  13 -2.656887E+06 -3.695863E+05 -3.769269E+04 -9.975618E+05  2.785649E-09 -3.345133E-10
        38  14 -2.630089E+06 -3.540951E+05 -6.007866E+04 -1.002507E+06 -6.259220E-09  3.343072E-09
        38  15 -2.671814E+06 -4.731855E+05 -1.467909E+05 -9.585278E+05  9.018186E-10  1.079262E-09
        38  16 -2.873419E+06 -4.433407E+05 -9.522289E+04 -1.048178E+06  1.594174E-09  6.753342E-10
        38  17 -2.828433E+06 -4.337819E+05 -1.151543E+05 -1.061287E+06 -4.291060E-09  6.504679E-10
        38  18 -2.852113E+06 -5.589590E+05 -1.999352E+05 -1.025466E+06 -8.636681E-10 -5.416183E-10
        38  19 -2.440310E+06 -2.958312E+05  1.983503E+04 -9.469306E+05 -2.834252E+04 -6.205315E+03
        38  20 -2.431704E+06 -2.744033E+05 -4.999142E+03 -9.437094E+05 -6.081724E+04 -1.849140E+04
        38  21 -2.491473E+06 -3.874007E+05 -9.363153E+04 -8.915676E+05 -9.229789E+04 -3.341158E+04
        38  22 -2.656887E+06 -3.695861E+05 -3.769114E+04 -9.975617E+05 -2.802120E+04 -6.084551E+03
        38  23 -2.630085E+06 -3.540937E+05 -6.007095E+04 -1.002507E+06 -6.113451E+04 -1.861044E+04
        38  24 -2.671804E+06 -4.731819E+05 -1.467723E+05 -9.585252E+05 -9.325460E+04 -3.376952E+04
        38  25 -2.873418E+06 -4.433405E+05 -9.522137E+04 -1.048178E+06 -2.770001E+04 -5.963822E+03
        38  26 -2.828429E+06 -4.337805E+05 -1.151465E+05 -1.061286E+06 -6.145167E+04 -1.872943E+04
        38  27 -2.852103E+06 -5.589553E+05 -1.999163E+05 -1.025463E+06 -9.421100E+04 -3.412727E+04
        39   1 -9.535310E+05  1.563662E+05  2.025618E+05  2.789367E+04  1.381912E+05  6.218152E+00
        39   2 -9.837123E+05 -3.302781E+04  8.699176E+04  7.321097E+03  9.080668E+04  1.072458E+00
        39   3 -9.536185E+05 -6.137864E+03  5.638752E+04 -1.325060E+04  4.342142E+04 -9.281232E-01
        39   4 -9.535318E+05  1.563647E+05  2.025616E+05  6.706508E-08  1.381912E+05  6.185994E-11
        39   5 -9.837124E+05 -3.302791E+04  8.699175E+04  2.007528E-08  9.080668E+04  1.506496E-09
        39   6 -9.536187E+05 -6.138195E+03  5.638747E+04  2.261297E-08  4.342142E+04  6.695332E-10
        39   7 -9.535310E+05  1.563662E+05  2.025618E+05 -2.789367E+04  1.381912E+05 -6.218152E+00
        39   8 -9.837123E+05 -3.302781E+04  8.699176E+04 -7.321097E+03  9.080668E+04 -1.072458E+00
        39   9 -9.536185E+05 -6.137864E+03  5.638752E+04  1.325060E+04  4.342142E+04  9.281232E-01
        39  10 -9.535515E+05  1.563610E+05  2.025259E+05  2.789367E+04  1.333758E-09  3.797517E-10
        39  11 -9.837212E+05 -3.303003E+04  8.697624E+04  7.321097E+03  4.474600E-09  8.503640E-10
        39  12 -9.536205E+05 -6.138371E+03  5.638397E+04 -1.325060E+04 -5.392421E-10  9.004824E-11
        39  13 -9.535523E+05  1.563596E+05  2.025257E+05  6.708346E-08  3.363021E-11  2.549161E-10
        39  14 -9.837213E+05 -3.303013E+04  8.697623E+04 -3.159539E-08  1.615937E-09  7.000972E-10
        39  15 -9.536207E+05 -6.138702E+03  5.638393E+04 -1.091748E-09  2.702690E-09  3.747700E-10
        39  16 -9.535515E+05  1.563610E+05  2.025259E+05 -2.789367E+04 -8.626804E-10  1.884493E-10
        39  17 -9.837212E+05 -3.303003E+04  8.697624E+04 -7.321097E+03 -2.186007E-09  3.470226E-10
        39  18 -9.536205E+05 -6.138371E+03  5.638397E+04  1.325060E+04  8.226354E-10  7.677833E-10
        39  19 -9.535310E+05  1.563662E+05  2.025618E+05  2.789367E+04 -1.381912E+05 -6.218152E+00
        39  20 -9.837123E+05 -3.302781E+04  8.699176E+04  7.321097E+03 -9.080668E+04 -1.072458E+00
        39  21 -9.536185E+05 -6.137864E+03  5.638752E+04 -1.325060E+04 -4.342142E+04  9.281232E-01
        39  22 -9.535318E+05  1.563647E+05  2.025616E+05  4.988079E-08 -1.381912E+05  5.715129E-10
        39  23 -9.837124E+05 -3.302791E+04  8.699175E+04 -5.759320E-09 -9.080668E+04 -3.644292E-12
        39  24 -9.536187E+05 -6.138195E+03  5.638747E+04  6.427152E-09 -4.342142E+04 -6.193068E-12
        39  25 -9.535310E+05  1.563662E+05  2.025618E+05 -2.789367E+04 -1.381912E+05  6.218152E+00
        39  26 -9.837123E+05 -3.302781E+04  8.699176E+04 -7.321097E+03 -9.080668E+04  1.072458E+00
        39  27 -9.536185E+05 -6.137864E+03  5.638752E+04  1.325060E+04 -4.342142E+04 -9.281232E-01
        40   1 -9.649717E+05  2.182431E+04  4.650600E+04  3.675350E+03  3.424374E+04  2.030272E-01
        40   2 -9.695287E+05 -4.632526E+03  2.255503E+04  8.860240E+02  2.248664E+04  3.214001E-02
        40   3 -9.649865E+05 -8.381385E+02  1.383069E+04 -1.903260E+03  1.072980E+04 -3.294295E-02
        40   4 -9.649717E+05  2.182428E+04  4.650599E+04  7.086837E-09  3.424374E+04  3.752335E-10
        40   5 -9.695287E+05 -4.632528E+03  2.255503E+04  1.135889E-08  2.248664E+04 -6.167725E-10
        40   6 -9.649865E+05 -8.381454E+02  1.383069E+04  5.438524E-08  1.072980E+04 -1.589423E-09
        40   7 -9.649717E+05  2.182431E+04  4.650600E+04 -3.675350E+03  3.424374E+04 -2.030272E-01
        40   8 -9.695287E+05 -4.632526E+03  2.255503E+04 -8.860240E+02  2.248664E+04 -3.214001E-02
        40   9 -9.649865E+05 -8.381385E+02  1.383069E+04  1.903260E+03  1.072980E+04  3.294295E-02
        40  10 -9.649729E+05  2.182399E+04  4.650379E+04  3.675350E+03  1.651379E-09  5.306271E-11
        40  11 -9.695292E+05 -4.632662E+03  2.255408E+04  8.860240E+02 -1.450810E-09  2.442561E-10
        40  12 -9.649866E+05 -8.381695E+02  1.383047E+04 -1.903260E+03  6.573914E-10 -7.297495E-10
        40  13 -9.649729E+05  2.182397E+04  4.650379E+04 -1.013384E-08  5.044442E-11  2.484385E-10
        40  14 -9.695292E+05 -4.632664E+03  2.255408E+04 -2.310087E-08  3.229725E-09  2.222607E-10
        40  15 -9.649866E+05 -8.381763E+02  1.383047E+04  4.574449E-08  2.322546E-09 -9.242907E-10
        40  16 -9.649729E+05  2.182399E+04  4.650379E+04 -3.675350E+03 -7.400124E-11  5.089226E-10
        40  17 -9.695292E+05 -4.632662E+03  2.255408E+04 -8.860240E+02  5.575909E-09 -7.561565E-11
        40  18 -9.649866E+05 -8.381695E+02  1.383047E+04  1.903260E+03  1.757735E-09 -8.203377E-10
        40  19 -9.649717E+05  2.182431E+04  4.650600E+04  3.675350E+03 -3.424374E+04 -2.030272E-01
        40  20 -9.695287E+05 -4.632526E+03  2.255503E+04  8.860240E+02 -2.248664E+04 -3.214001E-02
        40  21 -9.649865E+05 -8.381385E+02  1.383069E+04 -1.903260E+03 -1.072980E+04  3.294295E-02
        40  22 -9.649717E+05  2.182428E+04  4.650599E+04  4.155127E-08 -3.424374E+04  1.969540E-10
        40  23 -9.695287E+05 -4.632528E+03  2.255503E+04  5.009383E-08 -2.248664E+04  8.149268E-10
        40  24 -9.649865E+05 -8.381454E+02  1.383069E+04  5.433324E-08 -1.072980E+04 -3.354999E-10
        40  25 -9.649717E+05  2.182431E+04  4.650600E+04 -3.675350E+03 -3.424374E+04  2.030272E-01
        40  26 -9.695287E+05 -4.632526E+03  2.255503E+04 -8.860240E+02 -2.248664E+04  3.214001E-02
        40  27 -9.649865E+05 -8.381385E+02  1.383069E+04  1.903260E+03 -1.072980E+04 -3.294295E-02
        41   1 -9.666882E+05  3.024810E+03  1.099519E+04  4.545197E+02  8.501288E+03  6.233203E-03
        41   2 -9.674049E+05 -6.472463E+02  5.706743E+03  8.856197E+01  5.597420E+03  7.996669E-04
        41   3 -9.666910E+05 -1.136545E+02  3.362541E+03 -2.774017E+02  2.693517E+03 -1.205320E-03
        41   4 -9.666882E+05  3.024809E+03  1.099519E+04  5.649473E-08  8.501288E+03 -9.408212E-10
        41   5 -9.674049E+05 -6.472463E+02  5.706743E+03  7.571811E-09  5.597420E+03  7.063204E-10
        41   6 -9.666910E+05 -1.136546E+02  3.362541E+03  1.785458E-08  2.693517E+03  4.355682E-10
        41   7 -9.666882E+05  3.024810E+03  1.099519E+04 -4.545197E+02  8.501288E+03 -6.233205E-03
        41   8 -9.674049E+05 -6.472463E+02  5.706743E+03 -8.856197E+01  5.597420E+03 -7.996664E-04
        41   9 -9.666910E+05 -1.136545E+02  3.362541E+03  2.774017E+02  2.693517E+03  1.205321E-03
        41  10 -9.666882E+05  3.024790E+03  1.099506E+04  4.545197E+02 -1.162104E-09 -1.058775E-09
        41  11 -9.674049E+05 -6.472547E+02  5.706684E+03  8.856197E+01 -4.278771E-10  4.002297E-11
        41  12 -9.666910E+05 -1.136564E+02  3.362527E+03 -2.774017E+02  1.600278E-10  6.148422E-10
        41  13 -9.666882E+05  3.024790E+03  1.099506E+04  3.069688E-08 -2.119497E-09 -8.764933E-10
        41  14 -9.674049E+05 -6.472547E+02  5.706684E+03  7.586521E-09 -2.328153E-09  2.393847E-10
        41  15 -9.666910E+05 -1.136566E+02  3.362527E+03  6.008288E-09  2.015154E-09  3.148860E-10
        41  16 -9.666882E+05  3.024790E+03  1.099506E+04 -4.545197E+02 -1.153444E-09 -6.602171E-10
        41  17 -9.674049E+05 -6.472547E+02  5.706684E+03 -8.856197E+01  7.122014E-11  4.659230E-10
        41  18 -9.666910E+05 -1.136564E+02  3.362527E+03  2.774017E+02 -2.733810E-10  6.795116E-11
        41  19 -9.666882E+05  3.024810E+03  1.099519E+04  4.545197E+02 -8.501288E+03 -6.233205E-03
        41  20 -9.674049E+05 -6.472463E+02  5.706743E+03  8.856197E+01 -5.597420E+03 -7.996672E-04
        41  21 -9.666910E+05 -1.136545E+02  3.362541E+03 -2.774017E+02 -2.693517E+03  1.205321E-03
        41  22 -9.666882E+05  3.024809E+03  1.099519E+04  5.656121E-08 -8.501288E+03 -7.805143E-10
        41  23 -9.674049E+05 -6.472463E+02  5.706743E+03  7.594929E-09 -5.597420E+03 -2.610004E-10
        41  24 -9.666910E+05 -1.136546E+02  3.362541E+03  3.291292E-08 -2.693517E+03  1.172176E-10
        41  25 -9.666882E+05  3.024810E+03  1.099519E+04 -4.545197E+02 -8.501288E+03  6.233203E-03
        41  26 -9.674049E+05 -6.472463E+02  5.706743E+03 -8.856197E+01 -5.597420E+03  7.996665E-04
        41  27 -9.666910E+05 -1.136545E+02  3.362541E+03  2.774017E+02 -2.693517E+03 -1.205321E-03
        42   1 -9.669585E+05  4.144047E+02  2.590648E+03  4.644356E+01  2.157180E+03  1.616162E-04
        42   2 -9.670716E+05 -8.609904E+01  1.326671E+03  3.035282E+00  1.490793E+03  7.298619E-06
        42   3 -9.669591E+05 -3.179292E+01  6.357535E+02 -4.037302E+01  8.244059E+02 -5.369045E-05
        42   4 -9.669585E+05  4.144047E+02  2.590648E+03  1.708410E-08  2.157180E+03 -1.996069E-10
        42   5 -9.670716E+05 -8.609904E+01  1.326671E+03  1.213068E-08  1.490793E+03 -3.849222E-10
        42   6 -9.669591E+05 -3.179292E+01  6.357535E+02  4.593191E-08  8.244059E+02  1.019861E-09
        42   7 -9.669585E+05  4.144047E+02  2.590648E+03 -4.644356E+01  2.157180E+03 -1.616168E-04
        42   8 -9.670716E+05 -8.609904E+01  1.326671E+03 -3.035281E+00  1.490793E+03 -7.299614E-06
        42   9 -9.669591E+05 -3.179292E+01  6.357535E+02  4.037302E+01  8.244059E+02  5.369250E-05
        42  10 -9.669585E+05  4.144035E+02  2.590639E+03  4.644356E+01  1.710259E-09  1.040174E-10
        42  11 -9.670716E+05 -8.609964E+01  1.326667E+03  3.035281E+00  2.340157E-09  1.406720E-11
        42  12 -9.669591E+05 -3.179310E+01  6.357522E+02 -4.037302E+01  1.170258E-09  1.271263E-10
        42  13 -9.669585E+05  4.144035E+02  2.590639E+03 -2.598252E-08  3.664849E-10  1.404736E-10
        42  14 -9.670716E+05 -8.609964E+01  1.326667E+03 -2.232219E-08 -1.748350E-10  1.270214E-10
        42  15 -9.669591E+05 -3.179311E+01  6.357522E+02 -1.004944E-08 -4.607883E-10  3.470419E-11
        42  16 -9.669585E+05  4.144035E+02  2.590639E+03 -4.644356E+01 -4.100403E-09 -1.608306E-10
        42  17 -9.670716E+05 -8.609964E+01  1.326667E+03 -3.035281E+00 -9.139312E-10  1.054066E-10
        42  18 -9.669591E+05 -3.179310E+01  6.357522E+02  4.037302E+01  1.252067E-09 -9.986544E-11
        42  19 -9.669585E+05  4.144047E+02  2.590648E+03  4.644356E+01 -2.157180E+03 -1.616153E-04
        42  20 -9.670716E+05 -8.609904E+01  1.326671E+03  3.035281E+00 -1.490793E+03 -7.298124E-06
        42  21 -9.669591E+05 -3.179292E+01  6.357535E+02 -4.037302E+01 -8.244059E+02  5.369098E-05
        42  22 -9.669585E+05  4.144047E+02  2.590648E+03  1.707858E-08 -2.157180E+03  5.396111E-10
        42  23 -9.670716E+05 -8.609904E+01  1.326671E+03 -4.385485E-08 -1.490793E+03  6.606943E-10
        42  24 -9.669591E+05 -3.179292E+01  6.357535E+02  3.732000E-08 -8.244059E+02 -9.664082E-10
        42  25 -9.669585E+05  4.144047E+02  2.590648E+03 -4.644356E+01 -2.157180E+03  1.616167E-04
        42  26 -9.670716E+05 -8.609904E+01  1.326671E+03 -3.035281E+00 -1.490793E+03  7.299922E-06
        42  27 -9.669591E+05 -3.179292E+01  6.357535E+02  4.037302E+01 -8.244059E+02 -5.369292E-05
        43   1 -9.670167E+05  5.980338E+01  3.780422E+02 -1.029281E+01  7.328625E+02 -1.216719E-05
        43   2 -9.670000E+05  1.650521E+01 -1.022986E+02 -5.592002E-01  7.855822E+02 -7.094918E-07
        43   3 -9.670170E+05 -1.343912E+02 -6.439054E+02  9.174269E+00  8.383012E+02  1.240691E-05
        43   4 -9.670167E+05  5.980338E+01  3.780422E+02  6.986303E-08  7.328625E+02  8.112861E-10
        43   5 -9.670000E+05  1.650521E+01 -1.022986E+02  6.208812E-08  7.855822E+02 -8.707454E-10
        43   6 -9.670170E+05 -1.343912E+02 -6.439054E+02  7.907712E-08  8.383012E+02  5.663227E-10
        43   7 -9.670167E+05  5.980338E+01  3.780422E+02  1.029281E+01  7.328625E+02  1.216866E-05
        43   8 -9.670000E+05  1.650521E+01 -1.022986E+02  5.592004E-01  7.855822E+02  7.075652E-07
        43   9 -9.670170E+05 -1.343912E+02 -6.439054E+02 -9.174269E+00  8.383012E+02 -1.240623E-05
        43  10 -9.670167E+05  5.980324E+01  3.780412E+02 -1.029281E+01 -2.046759E-10 -1.061767E-10
        43  11 -9.670000E+05  1.650505E+01 -1.022997E+02 -5.592004E-01  5.524010E-10 -7.055915E-10
        43  12 -9.670170E+05 -1.343914E+02 -6.439067E+02  9.174269E+00 -3.910787E-10  4.938548E-10
        43  13 -9.670167E+05  5.980324E+01  3.780412E+02  3.539411E-08  2.536289E-09 -2.579702E-10
        43  14 -9.670000E+05  1.650505E+01 -1.022997E+02  2.764363E-08 -7.270068E-10 -4.537273E-10
        43  15 -9.670170E+05 -1.343914E+02 -6.439067E+02  2.634932E-08 -2.855015E-12  3.001398E-10
        43  16 -9.670167E+05  5.980324E+01  3.780412E+02  1.029281E+01 -3.046007E-09 -2.737976E-10
        43  17 -9.670000E+05  1.650505E+01 -1.022997E+02  5.592004E-01 -1.084885E-10 -2.669824E-10
        43  18 -9.670170E+05 -1.343914E+02 -6.439067E+02 -9.174269E+00 -9.460037E-10  3.604556E-10
        43  19 -9.670167E+05  5.980338E+01  3.780422E+02 -1.029281E+01 -7.328625E+02  1.216735E-05
        43  20 -9.670000E+05  1.650521E+01 -1.022986E+02 -5.592003E-01 -7.855822E+02  7.092148E-07
        43  21 -9.670170E+05 -1.343912E+02 -6.439054E+02  9.174269E+00 -8.383012E+02 -1.240631E-05
        43  22 -9.670167E+05  5.980338E+01  3.780422E+02  5.260111E-08 -7.328625E+02 -1.306149E-09
        43  23 -9.670000E+05  1.650521E+01 -1.022986E+02  6.117265E-09 -7.855822E+02 -6.065215E-11
        43  24 -9.670170E+05 -1.343912E+02 -6.439054E+02  5.975378E-08 -8.383012E+02  6.202979E-11
        43  25 -9.670167E+05  5.980338E+01  3.780422E+02  1.029281E+01 -7.328625E+02 -1.216998E-05
        43  26 -9.670000E+05  1.650521E+01 -1.022986E+02  5.592003E-01 -7.855822E+02 -7.092047E-07
        43  27 -9.670170E+05 -1.343912E+02 -6.439054E+02 -9.174269E+00 -8.383012E+02  1.240578E-05
        44   1 -9.671098E+05  4.279165E+01 -9.359845E+02 -8.950076E+01  9.805423E+02 -1.415672E-04
        44   2 -9.668845E+05  2.061949E+02 -1.750743E+03  2.771020E+01  1.872446E+03  8.369951E-05
        44   3 -9.671107E+05 -9.707631E+02 -3.481925E+03  1.449230E+02  2.764362E+03  6.462561E-04
        44   4 -9.671098E+05  4.279164E+01 -9.359845E+02  5.100486E-08  9.805423E+02  1.492137E-09
        44   5 -9.668845E+05  2.061949E+02 -1.750743E+03  6.225616E-09  1.872446E+03  3.276824E-10
        44   6 -9.671107E+05 -9.707632E+02 -3.481925E+03  2.065557E-08  2.764362E+03 -1.677994E-09
        44   7 -9.671098E+05  4.279165E+01 -9.359845E+02  8.950076E+01  9.805423E+02  1.415701E-04
        44   8 -9.668845E+05  2.061949E+02 -1.750743E+03 -2.771020E+01  1.872446E+03 -8.369971E-05
        44   9 -9.671107E+05 -9.707631E+02 -3.481925E+03 -1.449230E+02  2.764362E+03 -6.462596E-04
        44  10 -9.671098E+05  4.279139E+01 -9.359863E+02 -8.950076E+01  8.363536E-10  1.020887E-09
        44  11 -9.668845E+05  2.061939E+02 -1.750749E+03  2.771020E+01  5.467344E-10  1.604893E-10
        44  12 -9.671107E+05 -9.707652E+02 -3.481939E+03  1.449230E+02  1.639624E-09 -6.791204E-10
        44  13 -9.671098E+05  4.279138E+01 -9.359863E+02  2.516307E-08 -3.157683E-10  6.859491E-10
        44  14 -9.668845E+05  2.061939E+02 -1.750749E+03  2.344000E-08  1.629006E-09  2.770263E-10
        44  15 -9.671107E+05 -9.707652E+02 -3.481939E+03 -4.072016E-08  4.337930E-10 -7.391483E-10
        44  16 -9.671098E+05  4.279139E+01 -9.359863E+02  8.950076E+01  6.180958E-10  6.902965E-10
        44  17 -9.668845E+05  2.061939E+02 -1.750749E+03 -2.771020E+01 -1.969803E-09  1.552498E-10
        44  18 -9.671107E+05 -9.707652E+02 -3.481939E+03 -1.449230E+02  9.215498E-10 -8.236238E-10
        44  19 -9.671098E+05  4.279165E+01 -9.359845E+02 -8.950076E+01 -9.805423E+02  1.415689E-04
        44  20 -9.668845E+05  2.061949E+02 -1.750743E+03  2.771020E+01 -1.872446E+03 -8.369878E-05
        44  21 -9.671107E+05 -9.707631E+02 -3.481925E+03  1.449230E+02 -2.764362E+03 -6.462574E-04
        44  22 -9.671098E+05  4.279164E+01 -9.359845E+02  5.099645E-08 -9.805423E+02 -3.499589E-11
        44  23 -9.668845E+05  2.061949E+02 -1.750743E+03  6.201707E-09 -1.872446E+03  2.267775E-10
        44  24 -9.671107E+05 -9.707632E+02 -3.481925E+03  2.061905E-08 -2.764362E+03  2.665997E-10
        44  25 -9.671098E+05  4.279165E+01 -9.359845E+02  8.950076E+01 -9.805423E+02 -1.415693E-04
        44  26 -9.668845E+05  2.061949E+02 -1.750743E+03 -2.771020E+01 -1.872446E+03  8.369944E-05
        44  27 -9.671107E+05 -9.707631E+02 -3.481925E+03 -1.449230E+02 -2.764362E+03  6.462581E-04
        45   1 -9.676581E+05  2.696803E+02 -4.402937E+03 -6.110352E+02  3.472032E+03 -3.422347E-03
        45   2 -9.662012E+05  1.486403E+03 -7.217574E+03  2.840964E+02  7.235083E+03  3.315754E-03
        45   3 -9.676626E+05 -7.003276E+03 -1.491151E+04  1.179228E+03  1.099813E+04  2.092136E-02
        45   4 -9.676581E+05  2.696796E+02 -4.402937E+03  4.802088E-08  3.472032E+03 -9.879158E-10
        45   5 -9.662012E+05  1.486403E+03 -7.217574E+03  4.275446E-08  7.235083E+03  1.439336E-09
        45   6 -9.676626E+05 -7.003279E+03 -1.491151E+04  3.425837E-08  1.099813E+04  3.580586E-10
        45   7 -9.676581E+05  2.696803E+02 -4.402937E+03  6.110352E+02  3.472032E+03  3.422346E-03
        45   8 -9.662012E+05  1.486403E+03 -7.217574E+03 -2.840964E+02  7.235083E+03 -3.315753E-03
        45   9 -9.676626E+05 -7.003276E+03 -1.491151E+04 -1.179228E+03  1.099813E+04 -2.092136E-02
        45  10 -9.676581E+05  2.696771E+02 -4.402960E+03 -6.110352E+02 -1.168493E-09 -7.650953E-10
        45  11 -9.662013E+05  1.486389E+03 -7.217673E+03  2.840964E+02  3.873283E-09  2.265745E-10
        45  12 -9.676628E+05 -7.003308E+03 -1.491174E+04  1.179228E+03  5.230939E-10 -2.406885E-10
        45  13 -9.676581E+05  2.696764E+02 -4.402960E+03  4.987002E-09  3.362914E-11 -5.430122E-10
        45  14 -9.662013E+05  1.486389E+03 -7.217673E+03 -1.752972E-08  9.189385E-10  4.973718E-10
        45  15 -9.676628E+05 -7.003311E+03 -1.491174E+04  2.024187E-08 -1.517628E-09  7.100937E-11
        45  16 -9.676581E+05  2.696771E+02 -4.402960E+03  6.110352E+02 -1.350271E-09 -4.216692E-10
        45  17 -9.662013E+05  1.486389E+03 -7.217673E+03 -2.840964E+02 -1.720187E-09  5.663474E-10
        45  18 -9.676628E+05 -7.003308E+03 -1.491174E+04 -1.179228E+03  2.625112E-10 -4.862679E-11
        45  19 -9.676581E+05  2.696803E+02 -4.402937E+03 -6.110352E+02 -3.472032E+03  3.422348E-03
        45  20 -9.662012E+05  1.486403E+03 -7.217574E+03  2.840964E+02 -7.235083E+03 -3.315754E-03
        45  21 -9.676626E+05 -7.003276E+03 -1.491151E+04  1.179228E+03 -1.099813E+04 -2.092136E-02
        45  22 -9.676581E+05  2.696796E+02 -4.402937E+03  2.224606E-08 -3.472032E+03  7.545620E-12
        45  23 -9.662012E+05  1.486403E+03 -7.217574E+03 -5.197331E-08 -7.235083E+03 -5.512558E-10
        45  24 -9.676626E+05 -7.003279E+03 -1.491151E+04  4.390007E-08 -1.099813E+04 -2.842608E-10
        45  25 -9.676581E+05  2.696803E+02 -4.402937E+03  6.110352E+02 -3.472032E+03 -3.422348E-03
        45  26 -9.662012E+05  1.486403E+03 -7.217574E+03 -2.840964E+02 -7.235083E+03  3.315753E-03
        45  27 -9.676626E+05 -7.003276E+03 -1.491151E+04 -1.179228E+03 -1.099813E+04  2.092136E-02
        46   1 -9.713058E+05  1.970077E+03 -1.808439E+04 -4.252268E+03  1.394068E+04 -9.562703E-02
        46   2 -9.616480E+05  1.059896E+04 -2.790337E+04  2.349544E+03  2.914554E+04  1.104651E-01
        46   3 -9.713307E+05 -5.017664E+04 -6.498322E+04  8.951166E+03  4.435025E+04  6.403965E-01
        46   4 -9.713058E+05  1.970043E+03 -1.808440E+04  3.780118E-08  1.394068E+04 -3.740736E-10
        46   5 -9.616480E+05  1.059895E+04 -2.790337E+04  2.296154E-08  2.914554E+04  1.038754E-10
        46   6 -9.713308E+05 -5.017679E+04 -6.498324E+04 -2.202389E-08  4.435025E+04 -1.348745E-11
        46   7 -9.713058E+05  1.970077E+03 -1.808439E+04  4.252268E+03  1.394068E+04  9.562703E-02
        46   8 -9.616480E+05  1.059896E+04 -2.790337E+04 -2.349544E+03  2.914554E+04 -1.104651E-01
        46   9 -9.713307E+05 -5.017664E+04 -6.498322E+04 -8.951166E+03  4.435025E+04 -6.403965E-01
        46  10 -9.713060E+05  1.970025E+03 -1.808476E+04 -4.252268E+03 -9.610036E-10 -2.198385E-10
        46  11 -9.616489E+05  1.059873E+04 -2.790497E+04  2.349544E+03  4.356071E-09  1.114754E-10
        46  12 -9.713328E+05 -5.017717E+04 -6.498692E+04  8.951166E+03  1.347330E-09  1.560764E-10
        46  13 -9.713060E+05  1.969991E+03 -1.808476E+04  3.781248E-08 -1.477162E-09 -3.031175E-10
        46  14 -9.616489E+05  1.059872E+04 -2.790497E+04  1.434967E-09 -3.229584E-09  3.435418E-11
        46  15 -9.713329E+05 -5.017732E+04 -6.498695E+04 -3.709489E-08  3.880881E-09  9.725893E-12
        46  16 -9.713060E+05  1.970025E+03 -1.808476E+04  4.252268E+03 -2.078610E-09 -4.172568E-10
        46  17 -9.616489E+05  1.059873E+04 -2.790497E+04 -2.349544E+03 -2.481510E-09 -2.677256E-10
        46  18 -9.713328E+05 -5.017717E+04 -6.498692E+04 -8.951166E+03 -7.824351E-10  9.746143E-11
        46  19 -9.713058E+05  1.970077E+03 -1.808439E+04 -4.252268E+03 -1.394068E+04  9.562703E-02
        46  20 -9.616480E+05  1.059896E+04 -2.790337E+04  2.349544E+03 -2.914554E+04 -1.104651E-01
        46  21 -9.713307E+05 -5.017664E+04 -6.498322E+04  8.951166E+03 -4.435025E+04 -6.403965E-01
        46  22 -9.713058E+05  1.970043E+03 -1.808440E+04  3.781432E-08 -1.394068E+04 -2.077491E-10
        46  23 -9.616480E+05  1.059895E+04 -2.790337E+04 -6.746498E-08 -2.914554E+04 -2.036645E-10
        46  24 -9.713308E+05 -5.017679E+04 -6.498324E+04 -6.509012E-08 -4.435025E+04  8.269445E-11
        46  25 -9.713058E+05  1.970077E+03 -1.808439E+04  4.252268E+03 -1.394068E+04 -9.562703E-02
        46  26 -9.616480E+05  1.059896E+04 -2.790337E+04 -2.349544E+03 -2.914554E+04  1.104651E-01
        46  27 -9.713307E+05 -5.017664E+04 -6.498322E+04 -8.951166E+03 -4.435025E+04  6.403965E-01
        47   1 -1.376223E+05 -2.799480E+06 -1.771941E+05  7.236715E+04  1.562175E+02 -1.177305E+05
        47   2  4.359583E+04 -2.701128E+06 -6.087818E+04  1.072548E+04  1.514252E+03 -7.490999E+04
        47   3  4.054646E+04 -2.654470E+06 -1.859517E+04  2.477599E+04  4.033056E+03 -3.208389E+04
        47   4 -1.371855E+05 -2.797746E+06 -1.767192E+05  3.979898E+04  1.624018E+02 -1.180020E+05
        47   5  2.593650E+04 -2.771836E+06 -7.825460E+04  1.949688E+03  1.515342E+03 -7.559823E+04
        47   6  4.853464E+03 -2.797553E+06 -5.353127E+04  3.979719E+04  4.032395E+03 -3.319380E+04
        47   7 -1.367447E+05 -2.796009E+06 -1.762436E+05  7.230713E+03  1.686148E+02 -1.182736E+05
        47   8  8.277092E+03 -2.842540E+06 -9.563134E+04 -6.825103E+03  1.516452E+03 -7.628638E+04
        47   9 -3.084020E+04 -2.940617E+06 -8.846874E+04  5.481491E+04  4.031680E+03 -3.430344E+04
        47  10 -1.376261E+05 -2.799495E+06 -1.772203E+05  7.236716E+04  2.819473E-10  3.798431E-10
        47  11  4.359431E+04 -2.701134E+06 -6.088877E+04  1.072558E+04 -2.179452E-09 -8.182088E-10
        47  12  4.054616E+04 -2.654471E+06 -1.859714E+04  2.477610E+04  1.992378E-09 -1.453260E-09
        47  13 -1.371893E+05 -2.797761E+06 -1.767454E+05  3.979899E+04 -1.452127E-09  1.601144E-10
        47  14  2.593496E+04 -2.771842E+06 -7.826539E+04  1.949780E+03  7.276466E-09  1.238081E-12
        47  15  4.853149E+03 -2.797554E+06 -5.353338E+04  3.979730E+04  4.020742E-09  1.450425E-10
        47  16 -1.367485E+05 -2.796024E+06 -1.762700E+05  7.230729E+03  1.053480E-09 -4.845178E-10
        47  17  8.275518E+03 -2.842546E+06 -9.564234E+04 -6.825010E+03 -1.254900E-09  8.324206E-10
        47  18 -3.084053E+04 -2.940618E+06 -8.847099E+04  5.481502E+04  1.696602E-09  1.351065E-09
        47  19 -1.376223E+05 -2.799480E+06 -1.771941E+05  7.236715E+04 -1.562175E+02  1.177305E+05
        47  20  4.359583E+04 -2.701128E+06 -6.087818E+04  1.072548E+04 -1.514252E+03  7.490999E+04
        47  21  4.054646E+04 -2.654470E+06 -1.859517E+04  2.477599E+04 -4.033056E+03  3.208389E+04
        47  22 -1.371855E+05 -2.797746E+06 -1.767192E+05  3.979898E+04 -1.624018E+02  1.180020E+05
        47  23  2.593650E+04 -2.771836E+06 -7.825460E+04  1.949688E+03 -1.515342E+03  7.559823E+04
        47  24  4.853464E+03 -2.797553E+06 -5.353127E+04  3.979719E+04 -4.032395E+03  3.319380E+04
        47  25 -1.367447E+05 -2.796009E+06 -1.762436E+05  7.230713E+03 -1.686148E+02  1.182736E+05
        47  26  8.277092E+03 -2.842540E+06 -9.563134E+04 -6.825103E+03 -1.516452E+03  7.628638E+04
        47  27 -3.084020E+04 -2.940617E+06 -8.846874E+04  5.481491E+04 -4.031680E+03  3.430344E+04
        48   1  5.578776E+04 -2.497231E+06  2.536972E+04  4.371782E+04  5.950287E+03 -2.331789E+04
        48   2  9.485339E+04 -2.423616E+06  5.777413E+04  3.423226E+03  8.402641E+03 -8.051612E+03
        48   3  9.772342E+04 -2.360672E+06  7.123791E+04  3.447095E+04  9.514330E+03  7.217673E+03
        48   4 -1.697164E+04 -2.788537E+06 -4.627703E+04  3.882888E+04  5.950832E+03 -2.443083E+04
        48   5  5.105534E+03 -2.783149E+06 -3.040065E+04  3.154969E+03  8.403278E+03 -8.690326E+03
        48   6 -9.106322E+03 -2.788524E+06 -3.380144E+04  3.882646E+04  9.514932E+03  7.051528E+03
        48   7 -8.973728E+04 -3.079765E+06 -1.179300E+05  3.394225E+04  5.951395E+03 -2.554325E+04
        48   8 -8.465195E+04 -3.142563E+06 -1.185849E+05  2.886881E+03  8.403915E+03 -9.328668E+03
        48   9 -1.159496E+05 -3.216208E+06 -1.388543E+05  4.317898E+04  9.515531E+03  6.885496E+03
        48  10  5.578758E+04 -2.497231E+06  2.536863E+04  4.371793E+04  1.320441E-10  1.106480E-09
        48  11  9.485330E+04 -2.423616E+06  5.777387E+04  3.423281E+03  1.212333E-09  6.570167E-10
        48  12  9.772331E+04 -2.360672E+06  7.123764E+04  3.447089E+04 -1.989779E-09  5.095906E-10
        48  13 -1.697184E+04 -2.788537E+06 -4.627822E+04  3.882900E+04  2.720791E-09  6.289192E-11
        48  14  5.105438E+03 -2.783149E+06 -3.040093E+04  3.155028E+03  3.794471E-09  1.567055E-10
        48  15 -9.106433E+03 -2.788524E+06 -3.380170E+04  3.882641E+04  2.769928E-09  7.279323E-10
        48  16 -8.973749E+04 -3.079766E+06 -1.179313E+05  3.394238E+04 -1.264381E-09 -1.037586E-09
        48  17 -8.465205E+04 -3.142563E+06 -1.185852E+05  2.886945E+03  4.797438E-09 -1.110726E-09
        48  18 -1.159498E+05 -3.216208E+06 -1.388545E+05  4.317893E+04 -1.601664E-10 -1.075326E-09
        48  19  5.578776E+04 -2.497231E+06  2.536972E+04  4.371782E+04 -5.950287E+03  2.331789E+04
        48  20  9.485339E+04 -2.423616E+06  5.777413E+04  3.423226E+03 -8.402641E+03  8.051612E+03
        48  21  9.772342E+04 -2.360672E+06  7.123791E+04  3.447095E+04 -9.514330E+03 -7.217673E+03
        48  22 -1.697164E+04 -2.788537E+06 -4.627703E+04  3.882888E+04 -5.950832E+03  2.443083E+04
        48  23  5.105534E+03 -2.783149E+06 -3.040065E+04  3.154969E+03 -8.403278E+03  8.690326E+03
        48  24 -9.106322E+03 -2.788524E+06 -3.380144E+04  3.882646E+04 -9.514932E+03 -7.051528E+03
        48  25 -8.973728E+04 -3.079765E+06 -1.179300E+05  3.394225E+04 -5.951395E+03  2.554325E+04
        48  26 -8.465195E+04 -3.142563E+06 -1.185849E+05  2.886881E+03 -8.403915E+03  9.328668E+03
        48  27 -1.159496E+05 -3.216208E+06 -1.388543E+05  4.317898E+04 -9.515531E+03 -6.885496E+03
        49   1  1.413900E+05 -2.230632E+06  1.018646E+05  4.485608E+04  1.278320E+04  1.647818E+04
        49   2  1.694841E+05 -2.157952E+06  1.053098E+05  3.560492E+02  1.545216E+04  3.700515E+04
        49   3  9.333447E+04 -2.112936E+06  6.952546E+04  1.694833E+04  5.245344E+03  5.751095E+04
        49   4  1.159709E+03 -2.792484E+06 -3.598521E+04  3.659702E+04  1.278706E+04  1.319177E+04
        49   5  1.468576E+04 -2.778288E+06 -4.656771E+04  5.971338E+03  1.545140E+04  3.832027E+04
        49   6 -7.689001E+04 -2.792592E+06 -9.961439E+04  3.644251E+04  5.235207E+03  6.342539E+04
        49   7 -1.390938E+05 -3.354048E+06 -1.738582E+05  2.834554E+04  1.279102E+04  9.908342E+03
        49   8 -1.401411E+05 -3.398272E+06 -1.984734E+05  1.158112E+04  1.545066E+04  3.963406E+04
        49   9 -2.471480E+05 -3.471827E+06 -2.687887E+05  5.591547E+04  5.225437E+03  6.933331E+04
        49  10  1.413898E+05 -2.230632E+06  1.018638E+05  4.485591E+04  4.285354E-10  4.281493E-10
        49  11  1.694834E+05 -2.157953E+06  1.053068E+05  3.555884E+02  2.232172E-09 -2.035234E-09
        49  12  9.333355E+04 -2.112940E+06  6.951917E+04  1.694809E+04  7.538648E-10 -4.629957E-10
        49  13  1.159487E+03 -2.792485E+06 -3.598585E+04  3.659688E+04 -4.275751E-09  1.333670E-09
        49  14  1.468510E+04 -2.778290E+06 -4.657093E+04  5.970861E+03  3.501712E-10 -1.356033E-10
        49  15 -7.689112E+04 -2.792597E+06 -9.962203E+04  3.644224E+04 -2.039347E-10  1.845849E-09
        49  16 -1.390940E+05 -3.354048E+06 -1.738587E+05  2.834544E+04 -8.048670E-10 -4.405110E-10
        49  17 -1.401417E+05 -3.398274E+06 -1.984768E+05  1.158063E+04 -6.229801E-09 -2.257430E-10
        49  18 -2.471493E+05 -3.471832E+06 -2.687978E+05  5.591518E+04 -1.483199E-09 -1.431076E-09
        49  19  1.413900E+05 -2.230632E+06  1.018646E+05  4.485608E+04 -1.278320E+04 -1.647818E+04
        49  20  1.694841E+05 -2.157952E+06  1.053098E+05  3.560492E+02 -1.545216E+04 -3.700515E+04
        49  21  9.333447E+04 -2.112936E+06  6.952546E+04  1.694833E+04 -5.245344E+03 -5.751095E+04
        49  22  1.159709E+03 -2.792484E+06 -3.598521E+04  3.659702E+04 -1.278706E+04 -1.319177E+04
        49  23  1.468576E+04 -2.778288E+06 -4.656771E+04  5.971338E+03 -1.545140E+04 -3.832027E+04
        49  24 -7.689001E+04 -2.792592E+06 -9.961439E+04  3.644251E+04 -5.235207E+03 -6.342539E+04
        49  25 -1.390938E+05 -3.354048E+06 -1.738582E+05  2.834554E+04 -1.279102E+04 -9.908342E+03
        49  26 -1.401411E+05 -3.398272E+06 -1.984734E+05  1.158112E+04 -1.545066E+04 -3.963406E+04
        49  27 -2.471480E+05 -3.471827E+06 -2.687887E+05  5.591547E+04 -5.225437E+03 -6.933331E+04
        50   1 -1.318193E+06 -1.248409E+05  8.523563E+04 -5.075814E+05  6.573150E+04  2.517473E+04
        50   2 -1.335286E+06 -2.148977E+05  2.508274E+04 -4.830533E+05  4.206645E+04  1.724999E+04
        50   3 -1.304639E+06 -2.078769E+05  1.057124E+04 -4.920488E+05  1.883331E+04  8.171972E+03
        50   4 -1.238673E+06 -1.071094E+05  1.046293E+05 -4.986279E+05  6.608546E+04  2.530579E+04
        50   5 -1.267797E+06 -1.926530E+05  4.282408E+04 -4.680130E+05  4.213263E+04  1.727451E+04
        50   6 -1.249127E+06 -1.810694E+05  2.688420E+04 -4.709205E+05  1.861214E+04  8.089307E+03
        50   7 -1.159148E+06 -8.937820E+04  1.240225E+05 -4.896740E+05  6.643946E+04  2.543687E+04
        50   8 -1.200303E+06 -1.704083E+05  6.056502E+04 -4.529714E+05  4.219882E+04  1.729903E+04
        50   9 -1.193612E+06 -1.542610E+05  4.319690E+04 -4.497903E+05  1.839094E+04  8.006627E+03
        50  10 -1.318197E+06 -1.248428E+05  8.522629E+04 -5.075827E+05 -1.149605E-09  1.781318E-10
        50  11 -1.335288E+06 -2.148985E+05  2.507884E+04 -4.830539E+05  1.262496E-09  4.393850E-10
        50  12 -1.304639E+06 -2.078770E+05  1.057044E+04 -4.920489E+05  2.175062E-09 -2.402967E-11
        50  13 -1.238678E+06 -1.071113E+05  1.046198E+05 -4.986293E+05 -1.485655E-10  5.791363E-11
        50  14 -1.267799E+06 -1.926538E+05  4.282017E+04 -4.680136E+05 -1.765814E-10  6.784237E-10
        50  15 -1.249127E+06 -1.810695E+05  2.688343E+04 -4.709207E+05  2.912325E-09 -1.456616E-10
        50  16 -1.159153E+06 -8.938008E+04  1.240130E+05 -4.896754E+05 -1.031940E-09 -1.793316E-11
        50  17 -1.200305E+06 -1.704091E+05  6.056111E+04 -4.529719E+05 -9.802902E-10  5.014156E-10
        50  18 -1.193612E+06 -1.542612E+05  4.319614E+04 -4.497904E+05 -7.917439E-10 -2.118254E-10
        50  19 -1.318193E+06 -1.248409E+05  8.523563E+04 -5.075814E+05 -6.573150E+04 -2.517473E+04
        50  20 -1.335286E+06 -2.148977E+05  2.508274E+04 -4.830533E+05 -4.206645E+04 -1.724999E+04
        50  21 -1.304639E+06 -2.078769E+05  1.057124E+04 -4.920488E+05 -1.883331E+04 -8.171972E+03
        50  22 -1.238673E+06 -1.071094E+05  1.046293E+05 -4.986279E+05 -6.608546E+04 -2.530579E+04
        50  23 -1.267797E+06 -1.926530E+05  4.282408E+04 -4.680130E+05 -4.213263E+04 -1.727451E+04
        50  24 -1.249127E+06 -1.810694E+05  2.688420E+04 -4.709205E+05 -1.861214E+04 -8.089307E+03
        50  25 -1.159148E+06 -8.937820E+04  1.240225E+05 -4.896740E+05 -6.643946E+04 -2.543687E+04
        50  26 -1.200303E+06 -1.704083E+05  6.056502E+04 -4.529714E+05 -4.219882E+04 -1.729903E+04
        50  27 -1.193612E+06 -1.542610E+05  4.319690E+04 -4.497903E+05 -1.839094E+04 -8.006627E+03
        51   1 -1.291545E+06 -1.822847E+05  1.176299E+04 -4.868084E+05  1.469680E+04  6.272605E+03
        51   2 -1.291717E+06 -1.900677E+05  1.392004E+03 -4.785304E+05  9.434791E+03  4.197293E+03
        51   3 -1.278975E+06 -1.899499E+05 -1.034600E+03 -4.816577E+05  4.235268E+03  1.955081E+03
        51   4 -1.252406E+06 -1.691867E+05  2.210542E+04 -4.778864E+05  1.469567E+04  6.272128E+03
        51   5 -1.259606E+06 -1.783679E+05  1.006314E+04 -4.702273E+05  9.392120E+03  4.181295E+03
        51   6 -1.253884E+06 -1.796404E+05  5.997767E+03 -4.739734E+05  4.151137E+03  1.923571E+03
        51   7 -1.213266E+06 -1.560887E+05  3.244774E+04 -4.689639E+05  1.469454E+04  6.271650E+03
        51   8 -1.227494E+06 -1.666680E+05  1.873417E+04 -4.619239E+05  9.349446E+03  4.165296E+03
        51   9 -1.228792E+06 -1.693309E+05  1.303003E+04 -4.662888E+05  4.067003E+03  1.892060E+03
        51  10 -1.291545E+06 -1.822848E+05  1.176251E+04 -4.868084E+05 -2.866606E-09 -5.763182E-10
        51  11 -1.291717E+06 -1.900678E+05  1.391803E+03 -4.785304E+05 -3.633574E-09  8.898973E-10
        51  12 -1.278975E+06 -1.899499E+05 -1.034641E+03 -4.816577E+05  1.717589E-09  1.534481E-09
        51  13 -1.252407E+06 -1.691868E+05  2.210494E+04 -4.778865E+05 -1.645853E-10  3.790149E-10
        51  14 -1.259606E+06 -1.783679E+05  1.006294E+04 -4.702274E+05  1.315933E-09  9.419674E-10
        51  15 -1.253884E+06 -1.796404E+05  5.997727E+03 -4.739734E+05  7.129712E-10  1.084367E-09
        51  16 -1.213267E+06 -1.560888E+05  3.244726E+04 -4.689640E+05  3.054945E-09  9.448167E-11
        51  17 -1.227494E+06 -1.666681E+05  1.873397E+04 -4.619239E+05  4.276641E-10  7.221332E-10
        51  18 -1.228792E+06 -1.693309E+05  1.303000E+04 -4.662888E+05 -1.230739E-10 -2.618347E-10
        51  19 -1.291545E+06 -1.822847E+05  1.176299E+04 -4.868084E+05 -1.469680E+04 -6.272605E+03
        51  20 -1.291717E+06 -1.900677E+05  1.392004E+03 -4.785304E+05 -9.434791E+03 -4.197293E+03
        51  21 -1.278975E+06 -1.899499E+05 -1.034600E+03 -4.816577E+05 -4.235268E+03 -1.955081E+03
        51  22 -1.252406E+06 -1.691867E+05  2.210542E+04 -4.778864E+05 -1.469567E+04 -6.272128E+03
        51  23 -1.259606E+06 -1.783679E+05  1.006314E+04 -4.702273E+05 -9.392120E+03 -4.181295E+03
        51  24 -1.253884E+06 -1.796404E+05  5.997767E+03 -4.739734E+05 -4.151137E+03 -1.923571E+03
        51  25 -1.213266E+06 -1.560887E+05  3.244774E+04 -4.689639E+05 -1.469454E+04 -6.271650E+03
        51  26 -1.227494E+06 -1.666680E+05  1.873417E+04 -4.619239E+05 -9.349446E+03 -4.165296E+03
        51  27 -1.228792E+06 -1.693309E+05  1.303003E+04 -4.662888E+05 -4.067003E+03 -1.892060E+03
        52   1 -1.256526E+06 -1.786011E+05  4.237658E+03 -4.753647E+05  3.380202E+03  1.441517E+03
        52   2 -1.254132E+06 -1.746365E+05  3.481487E+03 -4.692740E+05  2.277135E+03  7.691023E+02
        52   3 -1.243855E+06 -1.755638E+05  4.171773E+03 -4.716609E+05  1.180297E+03  8.001867E+01
        52   4 -1.254373E+06 -1.780075E+05  4.760653E+03 -4.749995E+05  3.326164E+03  1.421273E+03
        52   5 -1.258418E+06 -1.762983E+05  2.303191E+03 -4.704852E+05  2.218980E+03  7.473160E+02
        52   6 -1.254581E+06 -1.794803E+05  1.295425E+03 -4.744485E+05  1.118039E+03  5.669473E+01
        52   7 -1.252219E+06 -1.774139E+05  5.283650E+03 -4.746343E+05  3.272125E+03  1.401029E+03
        52   8 -1.262705E+06 -1.779601E+05  1.124888E+03 -4.716964E+05  2.160824E+03  7.255297E+02
        52   9 -1.265307E+06 -1.833968E+05 -1.580942E+03 -4.772362E+05  1.055781E+03  3.337113E+01
        52  10 -1.256526E+06 -1.786011E+05  4.237633E+03 -4.753647E+05  5.694473E-10  6.636899E-10
        52  11 -1.254132E+06 -1.746365E+05  3.481476E+03 -4.692740E+05 -1.770509E-09 -8.770705E-10
        52  12 -1.243855E+06 -1.755638E+05  4.171771E+03 -4.716609E+05 -3.413271E-09  8.651517E-10
        52  13 -1.254373E+06 -1.780075E+05  4.760628E+03 -4.749995E+05  4.067623E-09  5.002337E-10
        52  14 -1.258418E+06 -1.762983E+05  2.303181E+03 -4.704852E+05 -1.311937E-09 -1.773213E-10
        52  15 -1.254581E+06 -1.794803E+05  1.295423E+03 -4.744485E+05 -4.524522E-11 -5.472137E-10
        52  16 -1.252219E+06 -1.774140E+05  5.283626E+03 -4.746343E+05  3.256810E-10  8.323554E-10
        52  17 -1.262705E+06 -1.779601E+05  1.124879E+03 -4.716964E+05  6.107217E-10  4.377806E-10
        52  18 -1.265307E+06 -1.833968E+05 -1.580944E+03 -4.772362E+05 -1.947558E-09  6.607826E-11
        52  19 -1.256526E+06 -1.786011E+05  4.237658E+03 -4.753647E+05 -3.380202E+03 -1.441517E+03
        52  20 -1.254132E+06 -1.746365E+05  3.481487E+03 -4.692740E+05 -2.277135E+03 -7.691023E+02
        52  21 -1.243855E+06 -1.755638E+05  4.171773E+03 -4.716609E+05 -1.180297E+03 -8.001867E+01
        52  22 -1.254373E+06 -1.780075E+05  4.760653E+03 -4.749995E+05 -3.326164E+03 -1.421273E+03
        52  23 -1.258418E+06 -1.762983E+05  2.303191E+03 -4.704852E+05 -2.218980E+03 -7.473160E+02
        52  24 -1.254581E+06 -1.794803E+05  1.295425E+03 -4.744485E+05 -1.118039E+03 -5.669473E+01
        52  25 -1.252219E+06 -1.774139E+05  5.283650E+03 -4.746343E+05 -3.272125E+03 -1.401029E+03
        52  26 -1.262705E+06 -1.779601E+05  1.124888E+03 -4.716964E+05 -2.160824E+03 -7.255297E+02
        52  27 -1.265307E+06 -1.833968E+05 -1.580942E+03 -4.772362E+05 -1.055781E+03 -3.337113E+01
        53   1 -1.220817E+06 -1.663477E+05  1.025816E+04 -4.652646E+05  1.046076E+03 -1.379116E+02
        53   2 -1.218191E+06 -1.610458E+05  1.129979E+04 -4.597913E+05  9.212729E+02 -4.570596E+02
        53   3 -1.208835E+06 -1.620961E+05  1.256995E+04 -4.619459E+05  7.897258E+02 -7.581170E+02
        53   4 -1.254748E+06 -1.791647E+05  9.787704E+02 -4.744997E+05  9.848640E+02 -1.608466E+02
        53   5 -1.258129E+06 -1.761059E+05  4.103573E+02 -4.706417E+05  8.645335E+02 -4.783237E+02
        53   6 -1.254781E+06 -1.794002E+05  6.693055E+01 -4.744115E+05  7.374607E+02 -7.777095E+02
        53   7 -1.288677E+06 -1.919815E+05 -8.300672E+03 -4.837342E+05  9.236557E+02 -1.837801E+02
        53   8 -1.298065E+06 -1.911659E+05 -1.047921E+04 -4.814914E+05  8.077982E+02 -4.995862E+02
        53   9 -1.300725E+06 -1.967042E+05 -1.243631E+04 -4.868763E+05  6.851997E+02 -7.973003E+02
        53  10 -1.220817E+06 -1.663477E+05  1.025816E+04 -4.652646E+05  1.758812E-09 -6.952479E-11
        53  11 -1.218191E+06 -1.610458E+05  1.129979E+04 -4.597913E+05  3.488513E-12 -1.791607E-09
        53  12 -1.208835E+06 -1.620961E+05  1.256995E+04 -4.619459E+05 -4.207113E-09 -6.821384E-10
        53  13 -1.254748E+06 -1.791647E+05  9.787685E+02 -4.744997E+05 -2.138303E-09 -1.046160E-10
        53  14 -1.258129E+06 -1.761059E+05  4.103554E+02 -4.706417E+05 -7.226944E-10 -9.512774E-10
        53  15 -1.254781E+06 -1.794002E+05  6.692839E+01 -4.744115E+05 -1.525746E-10 -2.666672E-10
        53  16 -1.288677E+06 -1.919815E+05 -8.300674E+03 -4.837342E+05 -4.178103E-09 -1.482675E-09
        53  17 -1.298065E+06 -1.911659E+05 -1.047921E+04 -4.814914E+05 -1.917000E-09 -7.437643E-10
        53  18 -1.300725E+06 -1.967042E+05 -1.243631E+04 -4.868763E+05  1.004744E-09  1.127695E-10
        53  19 -1.220817E+06 -1.663477E+05  1.025816E+04 -4.652646E+05 -1.046076E+03  1.379116E+02
        53  20 -1.218191E+06 -1.610458E+05  1.129979E+04 -4.597913E+05 -9.212729E+02  4.570596E+02
        53  21 -1.208835E+06 -1.620961E+05  1.256995E+04 -4.619459E+05 -7.897258E+02  7.581170E+02
        53  22 -1.254748E+06 -1.791647E+05  9.787704E+02 -4.744997E+05 -9.848640E+02  1.608466E+02
        53  23 -1.258129E+06 -1.761059E+05  4.103573E+02 -4.706417E+05 -8.645335E+02  4.783237E+02
        53  24 -1.254781E+06 -1.794002E+05  6.693055E+01 -4.744115E+05 -7.374607E+02  7.777095E+02
        53  25 -1.288677E+06 -1.919815E+05 -8.300672E+03 -4.837342E+05 -9.236557E+02  1.837801E+02
        53  26 -1.298065E+06 -1.911659E+05 -1.047921E+04 -4.814914E+05 -8.077982E+02  4.995862E+02
        53  27 -1.300725E+06 -1.967042E+05 -1.243631E+04 -4.868763E+05 -6.851997E+02  7.973003E+02
        54   1 -1.187897E+06 -1.538355E+05  1.824371E+04 -4.560017E+05  8.461462E+02 -8.873389E+02
        54   2 -1.185569E+06 -1.490310E+05  1.927702E+04 -4.513116E+05  1.133634E+03 -1.027739E+03
        54   3 -1.177661E+06 -1.501579E+05  2.009310E+04 -4.530658E+05  1.405820E+03 -1.127167E+03
        54   4 -1.255013E+06 -1.791293E+05 -7.495417E+01 -4.742155E+05  7.873640E+02 -9.093804E+02
        54   5 -1.257819E+06 -1.762826E+05 -4.234113E+02 -4.709483E+05  1.084937E+03 -1.046009E+03
        54   6 -1.255047E+06 -1.793693E+05 -9.970979E+02 -4.741256E+05  1.367204E+03 -1.141664E+03
        54   7 -1.322124E+06 -2.044229E+05 -1.839402E+04 -4.924275E+05  7.285889E+02 -9.314193E+02
        54   8 -1.330063E+06 -2.035339E+05 -2.012430E+04 -4.905830E+05  1.036246E+03 -1.064277E+03
        54   9 -1.332427E+06 -2.085803E+05 -2.208781E+04 -4.951830E+05  1.328594E+03 -1.156159E+03
        54  10 -1.187897E+06 -1.538355E+05  1.824371E+04 -4.560017E+05 -2.324902E-09  9.683131E-10
        54  11 -1.185569E+06 -1.490311E+05  1.927701E+04 -4.513116E+05  4.398679E-10 -5.221413E-12
        54  12 -1.177661E+06 -1.501579E+05  2.009310E+04 -4.530658E+05  1.637315E-09 -2.840376E-10
        54  13 -1.255013E+06 -1.791293E+05 -7.495689E+01 -4.742155E+05 -2.392365E-10  3.790058E-10
        54  14 -1.257819E+06 -1.762826E+05 -4.234155E+02 -4.709483E+05 -8.737829E-10  2.372238E-10
        54  15 -1.255047E+06 -1.793693E+05 -9.971038E+02 -4.741256E+05 -1.068673E-10 -2.044694E-10
        54  16 -1.322124E+06 -2.044229E+05 -1.839403E+04 -4.924275E+05  1.355186E-09  5.962918E-10
        54  17 -1.330063E+06 -2.035339E+05 -2.012430E+04 -4.905830E+05  1.561407E-10  4.866109E-10
        54  18 -1.332427E+06 -2.085803E+05 -2.208782E+04 -4.951830E+05 -3.568389E-10  2.491241E-10
        54  19 -1.187897E+06 -1.538355E+05  1.824371E+04 -4.560017E+05 -8.461462E+02  8.873389E+02
        54  20 -1.185569E+06 -1.490310E+05  1.927702E+04 -4.513116E+05 -1.133634E+03  1.027739E+03
        54  21 -1.177661E+06 -1.501579E+05  2.009310E+04 -4.530658E+05 -1.405820E+03  1.127167E+03
        54  22 -1.255013E+06 -1.791293E+05 -7.495417E+01 -4.742155E+05 -7.873640E+02  9.093804E+02
        54  23 -1.257819E+06 -1.762826E+05 -4.234113E+02 -4.709483E+05 -1.084937E+03  1.046009E+03
        54  24 -1.255047E+06 -1.793693E+05 -9.970979E+02 -4.741256E+05 -1.367204E+03  1.141664E+03
        54  25 -1.322124E+06 -2.044229E+05 -1.839402E+04 -4.924275E+05 -7.285889E+02  9.314193E+02
        54  26 -1.330063E+06 -2.035339E+05 -2.012430E+04 -4.905830E+05 -1.036246E+03  1.064277E+03
        54  27 -1.332427E+06 -2.085803E+05 -2.208781E+04 -4.951830E+05 -1.328594E+03  1.156159E+03
        55   1 -1.160752E+06 -1.432167E+05  2.449729E+04 -4.483011E+05  1.654134E+03 -1.160646E+03
        55   2 -1.158800E+06 -1.391839E+05  2.450680E+04 -4.446195E+05  2.914670E+03 -8.908092E+02
        55   3 -1.153458E+06 -1.415235E+05  2.306744E+04 -4.453182E+05  4.144305E+03 -5.383794E+02
        55   4 -1.255443E+06 -1.788153E+05 -1.317273E+03 -4.739120E+05  1.599910E+03 -1.181005E+03
        55   5 -1.257242E+06 -1.763777E+05 -2.346984E+03 -4.714404E+05  2.880638E+03 -9.036027E+02
        55   6 -1.255656E+06 -1.803167E+05 -4.841789E+03 -4.733491E+05  4.130455E+03 -5.436050E+02
        55   7 -1.350125E+06 -2.144135E+05 -2.713268E+04 -4.995195E+05  1.545695E+03 -1.201361E+03
        55   8 -1.355675E+06 -2.135709E+05 -2.920167E+04 -4.982575E+05  2.846612E+03 -9.163940E+02
        55   9 -1.357844E+06 -2.191093E+05 -3.275196E+04 -5.013759E+05  4.116607E+03 -5.488297E+02
        55  10 -1.160752E+06 -1.432167E+05  2.449728E+04 -4.483011E+05  3.023762E-10 -3.180638E-10
        55  11 -1.158800E+06 -1.391839E+05  2.450678E+04 -4.446195E+05 -2.410516E-09 -3.252040E-10
        55  12 -1.153458E+06 -1.415235E+05  2.306741E+04 -4.453182E+05 -1.584989E-10  1.301201E-10
        55  13 -1.255443E+06 -1.788154E+05 -1.317280E+03 -4.739120E+05  1.691938E-10 -4.246660E-10
        55  14 -1.257242E+06 -1.763777E+05 -2.347001E+03 -4.714404E+05  2.391539E-09 -8.252957E-10
        55  15 -1.255656E+06 -1.803167E+05 -4.841822E+03 -4.733491E+05  1.216464E-11  3.157743E-11
        55  16 -1.350125E+06 -2.144135E+05 -2.713269E+04 -4.995195E+05  5.676826E-10 -6.647787E-10
        55  17 -1.355675E+06 -2.135709E+05 -2.920168E+04 -4.982575E+05  2.304708E-09 -6.423298E-10
        55  18 -1.357844E+06 -2.191093E+05 -3.275200E+04 -5.013759E+05 -1.034898E-09  1.345981E-10
        55  19 -1.160752E+06 -1.432167E+05  2.449729E+04 -4.483011E+05 -1.654134E+03  1.160646E+03
        55  20 -1.158800E+06 -1.391839E+05  2.450680E+04 -4.446195E+05 -2.914670E+03  8.908092E+02
        55  21 -1.153458E+06 -1.415235E+05  2.306744E+04 -4.453182E+05 -4.144305E+03  5.383794E+02
        55  22 -1.255443E+06 -1.788153E+05 -1.317273E+03 -4.739120E+05 -1.599910E+03  1.181005E+03
        55  23 -1.257242E+06 -1.763777E+05 -2.346984E+03 -4.714404E+05 -2.880638E+03  9.036027E+02
        55  24 -1.255656E+06 -1.803167E+05 -4.841789E+03 -4.733491E+05 -4.130455E+03  5.436050E+02
        55  25 -1.350125E+06 -2.144135E+05 -2.713268E+04 -4.995195E+05 -1.545695E+03  1.201361E+03
        55  26 -1.355675E+06 -2.135709E+05 -2.920167E+04 -4.982575E+05 -2.846612E+03  9.163940E+02
        55  27 -1.357844E+06 -2.191093E+05 -3.275196E+04 -5.013759E+05 -4.116607E+03  5.488297E+02
        56   1 -1.141880E+06 -1.357733E+05  2.502683E+04 -4.435643E+05  5.144158E+03 -2.858451E+02
        56   2 -1.139432E+06 -1.305885E+05  2.148970E+04 -4.403156E+05  1.055337E+04  1.589112E+03
        56   3 -1.140674E+06 -1.427894E+05  9.912286E+03 -4.361783E+05  1.585153E+04  3.759771E+03
        56   4 -1.256588E+06 -1.782125E+05 -6.098182E+03 -4.738888E+05  5.073257E+03 -3.124905E+02
        56   5 -1.255491E+06 -1.748271E+05 -1.024172E+04 -4.723375E+05  1.055446E+04  1.589482E+03
        56   6 -1.258099E+06 -1.888434E+05 -2.248383E+04 -4.698972E+05  1.592460E+04  3.787153E+03
        56   7 -1.371282E+06 -2.206510E+05 -3.722433E+04 -5.042083E+05  5.002370E+03 -3.391308E+02
        56   8 -1.371536E+06 -2.190649E+05 -4.197436E+04 -5.043539E+05  1.055555E+04  1.589851E+03
        56   9 -1.375510E+06 -2.348964E+05 -5.488128E+04 -5.036102E+05  1.599764E+04  3.814527E+03
        56  10 -1.141880E+06 -1.357733E+05  2.502678E+04 -4.435643E+05  2.257079E-09  2.546979E-10
        56  11 -1.139432E+06 -1.305885E+05  2.148949E+04 -4.403157E+05 -3.362154E-09 -1.286848E-09
        56  12 -1.140674E+06 -1.427895E+05  9.911787E+03 -4.361783E+05 -1.649063E-09  1.847180E-10
        56  13 -1.256588E+06 -1.782125E+05 -6.098230E+03 -4.738888E+05  4.659776E-11  7.652762E-12
        56  14 -1.255491E+06 -1.748271E+05 -1.024193E+04 -4.723375E+05 -3.110650E-10 -3.363375E-10
        56  15 -1.258099E+06 -1.888435E+05 -2.248434E+04 -4.698972E+05 -1.683833E-09 -9.900462E-10
        56  16 -1.371282E+06 -2.206510E+05 -3.722437E+04 -5.042083E+05  1.156008E-10 -1.779417E-10
        56  17 -1.371536E+06 -2.190649E+05 -4.197457E+04 -5.043540E+05  2.214439E-09 -8.663364E-10
        56  18 -1.375511E+06 -2.348965E+05 -5.488178E+04 -5.036103E+05  1.572238E-09 -1.460172E-09
        56  19 -1.141880E+06 -1.357733E+05  2.502683E+04 -4.435643E+05 -5.144158E+03  2.858451E+02
        56  20 -1.139432E+06 -1.305885E+05  2.148970E+04 -4.403156E+05 -1.055337E+04 -1.589112E+03
        56  21 -1.140674E+06 -1.427894E+05  9.912286E+03 -4.361783E+05 -1.585153E+04 -3.759771E+03
        56  22 -1.256588E+06 -1.782125E+05 -6.098182E+03 -4.738888E+05 -5.073257E+03  3.124905E+02
        56  23 -1.255491E+06 -1.748271E+05 -1.024172E+04 -4.723375E+05 -1.055446E+04 -1.589482E+03
        56  24 -1.258099E+06 -1.888434E+05 -2.248383E+04 -4.698972E+05 -1.592460E+04 -3.787153E+03
        56  25 -1.371282E+06 -2.206510E+05 -3.722433E+04 -5.042083E+05 -5.002370E+03  3.391308E+02
        56  26 -1.371536E+06 -2.190649E+05 -4.197436E+04 -5.043539E+05 -1.055555E+04 -1.589851E+03
        56  27 -1.375510E+06 -2.348964E+05 -5.488128E+04 -5.036102E+05 -1.599764E+04 -3.814527E+03
        57   1 -1.133738E+06 -1.336681E+05  6.462223E+03 -4.474857E+05  2.040924E+04  5.133221E+03
        57   2 -1.124354E+06 -1.117049E+05 -9.666849E+03 -4.388728E+05  4.408066E+04  1.381271E+04
        57   3 -1.156885E+06 -1.949232E+05 -7.206365E+04 -4.035864E+05  6.706536E+04  2.431704E+04
        57   4 -1.262037E+06 -1.761433E+05 -2.734226E+04 -4.762852E+05  2.013328E+04  5.029666E+03
        57   5 -1.246381E+06 -1.610846E+05 -4.356221E+04 -4.754910E+05  4.425047E+04  1.387627E+04
        57   6 -1.272736E+06 -2.513087E+05 -1.064108E+05 -4.480208E+05  6.768111E+04  2.454708E+04
        57   7 -1.390321E+06 -2.186185E+05 -6.114810E+04 -5.050797E+05  1.985739E+04  4.926129E+03
        57   8 -1.368393E+06 -2.104628E+05 -7.745895E+04 -5.121023E+05  4.442025E+04  1.393981E+04
        57   9 -1.388573E+06 -3.076904E+05 -1.407592E+05 -4.924468E+05  6.829672E+04  2.477704E+04
        57  10 -1.133739E+06 -1.336682E+05  6.461389E+03 -4.474858E+05  2.662678E-11 -5.328831E-10
        57  11 -1.124356E+06 -1.117056E+05 -9.670867E+03 -4.388733E+05  3.085361E-09 -3.353775E-10
        57  12 -1.156890E+06 -1.949251E+05 -7.207324E+04 -4.035877E+05  3.709561E-10  6.047324E-12
        57  13 -1.262038E+06 -1.761435E+05 -2.734307E+04 -4.762853E+05 -3.485008E-10 -8.617272E-10
        57  14 -1.246383E+06 -1.610854E+05 -4.356627E+04 -4.754914E+05 -1.356890E-09  5.037726E-10
        57  15 -1.272741E+06 -2.513106E+05 -1.064205E+05 -4.480221E+05  1.598731E-09  3.218012E-10
        57  16 -1.390321E+06 -2.186186E+05 -6.114889E+04 -5.050798E+05  1.192490E-09 -7.874651E-10
        57  17 -1.368395E+06 -2.104636E+05 -7.746303E+04 -5.121028E+05  1.364024E-09  1.310213E-09
        57  18 -1.388579E+06 -3.076923E+05 -1.407691E+05 -4.924481E+05 -9.175860E-10  8.049595E-10
        57  19 -1.133738E+06 -1.336681E+05  6.462223E+03 -4.474857E+05 -2.040924E+04 -5.133221E+03
        57  20 -1.124354E+06 -1.117049E+05 -9.666849E+03 -4.388728E+05 -4.408066E+04 -1.381271E+04
        57  21 -1.156885E+06 -1.949232E+05 -7.206365E+04 -4.035864E+05 -6.706536E+04 -2.431704E+04
        57  22 -1.262037E+06 -1.761433E+05 -2.734226E+04 -4.762852E+05 -2.013328E+04 -5.029666E+03
        57  23 -1.246381E+06 -1.610846E+05 -4.356221E+04 -4.754910E+05 -4.425047E+04 -1.387627E+04
        57  24 -1.272736E+06 -2.513087E+05 -1.064108E+05 -4.480208E+05 -6.768111E+04 -2.454708E+04
        57  25 -1.390321E+06 -2.186185E+05 -6.114810E+04 -5.050797E+05 -1.985739E+04 -4.926129E+03
        57  26 -1.368393E+06 -2.104628E+05 -7.745895E+04 -5.121023E+05 -4.442025E+04 -1.393981E+04
        57  27 -1.388573E+06 -3.076904E+05 -1.407592E+05 -4.924468E+05 -6.829672E+04 -2.477704E+04
        58   1 -2.634052E+05  6.190421E+04  8.018428E+04  1.105223E+04  5.474868E+04  9.750557E-01
        58   2 -2.753369E+05 -1.307474E+04  3.443715E+04  2.900935E+03  3.598316E+04  1.682083E-01
        58   3 -2.634152E+05 -2.430783E+03  2.231860E+04 -5.250345E+03  1.721724E+04 -1.456645E-01
        58   4 -2.634054E+05  6.190398E+04  8.018425E+04 -2.477002E-08  5.474868E+04 -7.036424E-10
        58   5 -2.753369E+05 -1.307475E+04  3.443715E+04 -2.016557E-08  3.598316E+04 -7.082270E-10
        58   6 -2.634152E+05 -2.430834E+03  2.231859E+04  3.504979E-08  1.721724E+04 -1.604665E-10
        58   7 -2.634052E+05  6.190421E+04  8.018428E+04 -1.105223E+04  5.474868E+04 -9.750557E-01
        58   8 -2.753369E+05 -1.307474E+04  3.443715E+04 -2.900935E+03  3.598316E+04 -1.682083E-01
        58   9 -2.634152E+05 -2.430783E+03  2.231860E+04  5.250345E+03  1.721724E+04  1.456645E-01
        58  10 -2.634084E+05  6.190340E+04  8.017865E+04  1.105223E+04  6.727031E-10  1.949233E-11
        58  11 -2.753383E+05 -1.307508E+04  3.443472E+04  2.900935E+03  1.298476E-10 -6.075770E-11
        58  12 -2.634155E+05 -2.430862E+03  2.231804E+04 -5.250345E+03 -3.432042E-10 -2.748696E-10
        58  13 -2.634086E+05  6.190317E+04  8.017861E+04 -3.339028E-08 -2.254867E-09 -1.065186E-10
        58  14 -2.753383E+05 -1.307510E+04  3.443472E+04 -2.016608E-08 -2.254842E-09 -2.966942E-10
        58  15 -2.634155E+05 -2.430914E+03  2.231804E+04  2.536368E-08 -6.939662E-10 -1.978333E-10
        58  16 -2.634084E+05  6.190340E+04  8.017865E+04 -1.105223E+04 -1.278507E-09 -2.639144E-10
        58  17 -2.753383E+05 -1.307508E+04  3.443472E+04 -2.900935E+03 -3.074726E-09 -4.642173E-10
        58  18 -2.634155E+05 -2.430862E+03  2.231804E+04  5.250345E+03 -1.631867E-09 -6.751090E-11
        58  19 -2.634052E+05  6.190421E+04  8.018428E+04  1.105223E+04 -5.474868E+04 -9.750557E-01
        58  20 -2.753369E+05 -1.307474E+04  3.443715E+04  2.900935E+03 -3.598316E+04 -1.682083E-01
        58  21 -2.634152E+05 -2.430783E+03  2.231860E+04 -5.250345E+03 -1.721724E+04  1.456645E-01
        58  22 -2.634054E+05  6.190398E+04  8.018425E+04 -3.339661E-08 -5.474868E+04  4.405238E-10
        58  23 -2.753369E+05 -1.307475E+04  3.443715E+04 -4.170291E-08 -3.598316E+04  1.117098E-10
        58  24 -2.634152E+05 -2.430834E+03  2.231859E+04  1.675468E-08 -1.721724E+04 -2.272457E-10
        58  25 -2.634052E+05  6.190421E+04  8.018428E+04 -1.105223E+04 -5.474868E+04  9.750557E-01
        58  26 -2.753369E+05 -1.307474E+04  3.443715E+04 -2.900935E+03 -3.598316E+04  1.682083E-01
        58  27 -2.634152E+05 -2.430783E+03  2.231860E+04  5.250345E+03 -1.721724E+04 -1.456645E-01
        59   1 -2.679141E+05  8.639722E+03  1.840246E+04  1.455891E+03  1.358338E+04  3.186706E-02
        59   2 -2.697144E+05 -1.833534E+03  8.907387E+03  3.506967E+02  8.938421E+03  5.051245E-03
        59   3 -2.679157E+05 -3.328566E+02  5.430959E+03 -7.544974E+02  4.293474E+03 -5.220011E-03
        59   4 -2.679141E+05  8.639718E+03  1.840246E+04  4.311473E-08  1.358338E+04  5.168303E-10
        59   5 -2.697144E+05 -1.833535E+03  8.907387E+03  1.619620E-08  8.938421E+03  9.567252E-10
        59   6 -2.679157E+05 -3.328577E+02  5.430959E+03  4.353892E-09  4.293474E+03 -8.487833E-10
        59   7 -2.679141E+05  8.639722E+03  1.840246E+04 -1.455891E+03  1.358338E+04 -3.186706E-02
        59   8 -2.697144E+05 -1.833534E+03  8.907387E+03 -3.506967E+02  8.938421E+03 -5.051244E-03
        59   9 -2.679157E+05 -3.328566E+02  5.430959E+03  7.544974E+02  4.293474E+03  5.220010E-03
        59  10 -2.679143E+05  8.639672E+03  1.840212E+04  1.455891E+03  9.574253E-10  1.215195E-10
        59  11 -2.697144E+05 -1.833556E+03  8.907237E+03  3.506967E+02 -3.611009E-10  7.345182E-10
        59  12 -2.679157E+05 -3.328615E+02  5.430924E+03 -7.544974E+02 -3.003102E-09 -4.041478E-10
        59  13 -2.679143E+05  8.639668E+03  1.840211E+04  1.728185E-08 -1.174864E-09  1.017571E-10
        59  14 -2.697144E+05 -1.833556E+03  8.907237E+03  3.773178E-08 -2.300721E-09  4.250471E-10
        59  15 -2.679157E+05 -3.328626E+02  5.430924E+03  3.449152E-08 -4.488503E-10  6.346952E-11
        59  16 -2.679143E+05  8.639672E+03  1.840212E+04 -1.455891E+03 -1.467894E-09  9.781973E-11
        59  17 -2.697144E+05 -1.833556E+03  8.907237E+03 -3.506967E+02 -1.939620E-09  1.156672E-10
        59  18 -2.679157E+05 -3.328615E+02  5.430924E+03  7.544974E+02  3.036013E-09  4.547178E-10
        59  19 -2.679141E+05  8.639722E+03  1.840246E+04  1.455891E+03 -1.358338E+04 -3.186706E-02
        59  20 -2.697144E+05 -1.833534E+03  8.907387E+03  3.506967E+02 -8.938421E+03 -5.051244E-03
        59  21 -2.679157E+05 -3.328566E+02  5.430959E+03 -7.544974E+02 -4.293474E+03  5.220010E-03
        59  22 -2.679141E+05  8.639718E+03  1.840246E+04  4.313918E-08 -1.358338E+04 -3.118495E-10
        59  23 -2.697144E+05 -1.833535E+03  8.907387E+03  7.579543E-09 -8.938421E+03 -9.139776E-11
        59  24 -2.679157E+05 -3.328577E+02  5.430959E+03  7.432136E-08 -4.293474E+03  9.562403E-10
        59  25 -2.679141E+05  8.639722E+03  1.840246E+04 -1.455891E+03 -1.358338E+04  3.186706E-02
        59  26 -2.697144E+05 -1.833534E+03  8.907387E+03 -3.506967E+02 -8.938421E+03  5.051245E-03
        59  27 -2.679157E+05 -3.328566E+02  5.430959E+03  7.544974E+02 -4.293474E+03 -5.220009E-03
        60   1 -2.685917E+05  1.197564E+03  4.292355E+03  1.787616E+02  3.420291E+03  9.852393E-04
        60   2 -2.688698E+05 -2.541371E+02  2.150691E+03  3.408683E+01  2.324240E+03  1.276661E-04
        60   3 -2.685920E+05 -5.367586E+01  1.135861E+03 -1.105858E+02  1.228207E+03 -2.188654E-04
        60   4 -2.685917E+05  1.197564E+03  4.292355E+03 -8.173110E-09  3.420291E+03 -8.994985E-10
        60   5 -2.688698E+05 -2.541371E+02  2.150691E+03 -5.217962E-08  2.324240E+03  5.380576E-10
        60   6 -2.685920E+05 -5.367588E+01  1.135861E+03 -1.003738E-08  1.228207E+03 -3.780815E-10
        60   7 -2.685917E+05  1.197564E+03  4.292355E+03 -1.787616E+02  3.420291E+03 -9.852411E-04
        60   8 -2.688698E+05 -2.541371E+02  2.150691E+03 -3.408683E+01  2.324240E+03 -1.276651E-04
        60   9 -2.685920E+05 -5.367586E+01  1.135861E+03  1.105858E+02  1.228207E+03  2.188646E-04
        60  10 -2.685917E+05  1.197561E+03  4.292333E+03  1.787616E+02 -1.570840E-09 -6.277123E-10
        60  11 -2.688698E+05 -2.541385E+02  2.150681E+03  3.408683E+01 -1.444991E-09  9.148398E-11
        60  12 -2.685920E+05 -5.367626E+01  1.135858E+03 -1.105858E+02 -2.084908E-09 -2.874828E-10
        60  13 -2.685917E+05  1.197561E+03  4.292333E+03  9.058968E-09 -9.837529E-10 -1.630943E-10
        60  14 -2.688698E+05 -2.541385E+02  2.150681E+03 -9.105760E-09 -2.149513E-09 -1.163471E-10
        60  15 -2.685920E+05 -5.367629E+01  1.135858E+03 -5.311324E-08 -1.155655E-09 -1.609631E-10
        60  16 -2.685917E+05  1.197561E+03  4.292333E+03 -1.787616E+02  4.415272E-09  3.349853E-10
        60  17 -2.688698E+05 -2.541385E+02  2.150681E+03 -3.408683E+01 -9.308897E-10 -3.500509E-10
        60  18 -2.685920E+05 -5.367626E+01  1.135858E+03  1.105858E+02 -1.720764E-09 -1.363751E-11
        60  19 -2.685917E+05  1.197564E+03  4.292355E+03  1.787616E+02 -3.420291E+03 -9.852404E-04
        60  20 -2.688698E+05 -2.541371E+02  2.150691E+03  3.408683E+01 -2.324240E+03 -1.276657E-04
        60  21 -2.685920E+05 -5.367586E+01  1.135861E+03 -1.105858E+02 -1.228207E+03  2.188649E-04
        60  22 -2.685917E+05  1.197564E+03  4.292355E+03  7.797912E-08 -3.420291E+03  5.886943E-10
        60  23 -2.688698E+05 -2.541371E+02  2.150691E+03  2.535391E-08 -2.324240E+03 -7.750424E-10
        60  24 -2.685920E+05 -5.367588E+01  1.135861E+03 -4.342297E-08 -1.228207E+03  6.367979E-11
        60  25 -2.685917E+05  1.197564E+03  4.292355E+03 -1.787616E+02 -3.420291E+03  9.852418E-04
        60  26 -2.688698E+05 -2.541371E+02  2.150691E+03 -3.408683E+01 -2.324240E+03  1.276640E-04
        60  27 -2.685920E+05 -5.367586E+01  1.135861E+03  1.105858E+02 -1.228207E+03 -2.188647E-04
        61   1 -2.687074E+05  1.659752E+02  7.689001E+02  1.050813E+01  1.056633E+03  1.789097E-05
        61   2 -2.687256E+05 -1.880696E+01  8.100246E+01 -9.239955E-01  1.014104E+03 -1.509828E-06
        61   3 -2.687076E+05 -8.068701E+01 -5.484662E+02 -1.235629E+01  9.715733E+02 -1.934371E-05
        61   4 -2.687074E+05  1.659752E+02  7.689001E+02  3.287052E-08  1.056633E+03 -9.420848E-10
        61   5 -2.687256E+05 -1.880696E+01  8.100246E+01  3.484788E-08  1.014104E+03 -8.127203E-11
        61   6 -2.687076E+05 -8.068701E+01 -5.484662E+02  1.744128E-08  9.715733E+02  1.440403E-09
        61   7 -2.687074E+05  1.659752E+02  7.689001E+02 -1.050813E+01  1.056633E+03 -1.789266E-05
        61   8 -2.687256E+05 -1.880696E+01  8.100246E+01  9.239955E-01  1.014104E+03  1.509490E-06
        61   9 -2.687076E+05 -8.068701E+01 -5.484662E+02  1.235629E+01  9.715733E+02  1.934671E-05
        61  10 -2.687074E+05  1.659749E+02  7.688980E+02  1.050813E+01  2.213804E-09 -3.982249E-10
        61  11 -2.687256E+05 -1.880724E+01  8.100053E+01 -9.239957E-01  1.587339E-09  1.067774E-10
        61  12 -2.687076E+05 -8.068726E+01 -5.484679E+02 -1.235629E+01  1.912879E-09  3.737966E-10
        61  13 -2.687074E+05  1.659749E+02  7.688980E+02 -3.605065E-08 -1.076858E-09 -2.671283E-10
        61  14 -2.687256E+05 -1.880724E+01  8.100053E+01 -3.406357E-08 -7.489440E-09 -1.614231E-10
        61  15 -2.687076E+05 -8.068726E+01 -5.484679E+02 -6.232701E-09 -1.190333E-09  5.029618E-10
        61  16 -2.687074E+05  1.659749E+02  7.688980E+02 -1.050813E+01 -4.412930E-09 -1.107758E-10
        61  17 -2.687256E+05 -1.880724E+01  8.100053E+01  9.239955E-01 -2.297854E-09 -5.071098E-10
        61  18 -2.687076E+05 -8.068726E+01 -5.484679E+02  1.235629E+01 -3.124620E-10  5.807024E-10
        61  19 -2.687074E+05  1.659752E+02  7.689001E+02  1.050813E+01 -1.056633E+03 -1.789151E-05
        61  20 -2.687256E+05 -1.880696E+01  8.100246E+01 -9.239957E-01 -1.014104E+03  1.510154E-06
        61  21 -2.687076E+05 -8.068701E+01 -5.484662E+02 -1.235629E+01 -9.715733E+02  1.934443E-05
        61  22 -2.687074E+05  1.659752E+02  7.689001E+02 -5.328280E-08 -1.056633E+03  4.059934E-10
        61  23 -2.687256E+05 -1.880696E+01  8.100246E+01 -7.713117E-08 -1.014104E+03 -2.961059E-10
        61  24 -2.687076E+05 -8.068701E+01 -5.484662E+02 -2.559879E-08 -9.715733E+02 -4.397854E-10
        61  25 -2.687074E+05  1.659752E+02  7.689001E+02 -1.050813E+01 -1.056633E+03  1.789233E-05
        61  26 -2.687256E+05 -1.880696E+01  8.100246E+01  9.239954E-01 -1.014104E+03 -1.510745E-06
        61  27 -2.687076E+05 -8.068701E+01 -5.484662E+02  1.235629E+01 -9.715733E+02 -1.934549E-05
        62   1 -2.687841E+05  4.097835E+01 -8.913063E+02 -5.504148E+01  1.101659E+03 -9.770984E-05
        62   2 -2.686301E+05  1.174799E+02 -1.819704E+03  4.162442E+00  2.015852E+03  1.352057E-05
        62   3 -2.687844E+05 -5.630001E+02 -3.532714E+03  6.336641E+01  2.930043E+03  2.991828E-04
        62   4 -2.687841E+05  4.097835E+01 -8.913063E+02  1.968432E-09  1.101659E+03  1.175784E-09
        62   5 -2.686301E+05  1.174799E+02 -1.819704E+03 -2.991989E-08  2.015852E+03 -6.495706E-10
        62   6 -2.687844E+05 -5.630001E+02 -3.532714E+03 -2.842593E-08  2.930043E+03 -9.472440E-10
        62   7 -2.687841E+05  4.097835E+01 -8.913063E+02  5.504148E+01  1.101659E+03  9.771214E-05
        62   8 -2.686301E+05  1.174799E+02 -1.819704E+03 -4.162442E+00  2.015852E+03 -1.352195E-05
        62   9 -2.687844E+05 -5.630001E+02 -3.532714E+03 -6.336641E+01  2.930043E+03 -2.991849E-04
        62  10 -2.687841E+05  4.097803E+01 -8.913085E+02 -5.504148E+01 -2.876766E-10  1.919226E-10
        62  11 -2.686301E+05  1.174788E+02 -1.819711E+03  4.162442E+00 -1.073609E-09 -2.305866E-10
        62  12 -2.687844E+05 -5.630024E+02 -3.532730E+03  6.336641E+01  1.293393E-09  3.671321E-11
        62  13 -2.687841E+05  4.097802E+01 -8.913085E+02 -4.273951E-08 -1.981382E-10  3.415053E-10
        62  14 -2.686301E+05  1.174788E+02 -1.819711E+03 -5.576666E-08  3.036636E-09 -3.904049E-10
        62  15 -2.687844E+05 -5.630024E+02 -3.532730E+03 -7.956212E-08 -1.382431E-09  1.370396E-10
        62  16 -2.687841E+05  4.097803E+01 -8.913085E+02  5.504148E+01  2.395010E-09  5.163563E-10
        62  17 -2.686301E+05  1.174788E+02 -1.819711E+03 -4.162442E+00  4.866975E-10 -6.161085E-10
        62  18 -2.687844E+05 -5.630024E+02 -3.532730E+03 -6.336641E+01 -4.274062E-09  2.488312E-10
        62  19 -2.687841E+05  4.097835E+01 -8.913063E+02 -5.504148E+01 -1.101659E+03  9.771010E-05
        62  20 -2.686301E+05  1.174799E+02 -1.819704E+03  4.162443E+00 -2.015852E+03 -1.352080E-05
        62  21 -2.687844E+05 -5.630001E+02 -3.532714E+03  6.336641E+01 -2.930043E+03 -2.991827E-04
        62  22 -2.687841E+05  4.097835E+01 -8.913063E+02 -3.575761E-08 -1.101659E+03 -4.822028E-10
        62  23 -2.686301E+05  1.174799E+02 -1.819704E+03 -3.853857E-08 -2.015852E+03 -1.866396E-10
        62  24 -2.687844E+05 -5.630001E+02 -3.532714E+03 -1.547432E-08 -2.930043E+03  1.204712E-09
        62  25 -2.687841E+05  4.097835E+01 -8.913063E+02  5.504148E+01 -1.101659E+03 -9.771134E-05
        62  26 -2.686301E+05  1.174799E+02 -1.819704E+03 -4.162443E+00 -2.015852E+03  1.352046E-05
        62  27 -2.687844E+05 -5.630001E+02 -3.532714E+03 -6.336641E+01 -2.930043E+03  2.991850E-04
        63   1 -2.691477E+05  1.541850E+02 -4.580705E+03 -3.772673E+02  3.661434E+03 -2.225900E-03
        63   2 -2.681763E+05  8.794992E+02 -7.765897E+03  1.203914E+02  7.614099E+03  1.477130E-03
        63   3 -2.691487E+05 -4.110095E+03 -1.495392E+04  6.180436E+02  1.156669E+04  1.151948E-02
        63   4 -2.691477E+05  1.541847E+02 -4.580705E+03  5.312479E-08  3.661434E+03 -3.827430E-10
        63   5 -2.681763E+05  8.794992E+02 -7.765897E+03  1.933012E-08  7.614099E+03  2.848166E-10
        63   6 -2.691487E+05 -4.110095E+03 -1.495392E+04  1.461152E-08  1.156669E+04 -2.022577E-10
        63   7 -2.691477E+05  1.541850E+02 -4.580705E+03  3.772673E+02  3.661434E+03  2.225899E-03
        63   8 -2.681763E+05  8.794992E+02 -7.765897E+03 -1.203914E+02  7.614099E+03 -1.477129E-03
        63   9 -2.691487E+05 -4.110095E+03 -1.495392E+04 -6.180436E+02  1.156669E+04 -1.151948E-02
        63  10 -2.691477E+05  1.541814E+02 -4.580730E+03 -3.772673E+02  1.754084E-09  5.417232E-11
        63  11 -2.681764E+05  8.794836E+02 -7.766006E+03  1.203914E+02  5.469314E-10 -3.024956E-10
        63  12 -2.691488E+05 -4.110131E+03 -1.495418E+04  6.180436E+02 -1.924864E-09 -9.873671E-11
        63  13 -2.691477E+05  1.541811E+02 -4.580730E+03 -7.191631E-09  1.261803E-11  3.137983E-10
        63  14 -2.681764E+05  8.794836E+02 -7.766006E+03  1.071272E-08 -3.134125E-09 -1.136957E-10
        63  15 -2.691488E+05 -4.110131E+03 -1.495418E+04 -1.534216E-09 -1.701662E-09  2.962842E-11
        63  16 -2.691477E+05  1.541814E+02 -4.580730E+03  3.772673E+02 -1.706921E-09  5.393660E-10
        63  17 -2.681764E+05  8.794836E+02 -7.766006E+03 -1.203914E+02 -1.334502E-09  8.683611E-12
        63  18 -2.691488E+05 -4.110131E+03 -1.495418E+04 -6.180436E+02 -4.831558E-10  1.639640E-10
        63  19 -2.691477E+05  1.541850E+02 -4.580705E+03 -3.772673E+02 -3.661434E+03  2.225901E-03
        63  20 -2.681763E+05  8.794992E+02 -7.765897E+03  1.203914E+02 -7.614099E+03 -1.477130E-03
        63  21 -2.691487E+05 -4.110095E+03 -1.495392E+04  6.180436E+02 -1.156669E+04 -1.151948E-02
        63  22 -2.691477E+05  1.541847E+02 -4.580705E+03  1.863926E-08 -3.661434E+03  9.917232E-10
        63  23 -2.681763E+05  8.794992E+02 -7.765897E+03  1.071023E-08 -7.614099E+03 -5.073242E-10
        63  24 -2.691487E+05 -4.110095E+03 -1.495392E+04  5.123956E-08 -1.156669E+04  3.367736E-10
        63  25 -2.691477E+05  1.541850E+02 -4.580705E+03  3.772673E+02 -3.661434E+03 -2.225899E-03
        63  26 -2.681763E+05  8.794992E+02 -7.765897E+03 -1.203914E+02 -7.614099E+03  1.477129E-03
        63  27 -2.691487E+05 -4.110095E+03 -1.495392E+04 -6.180436E+02 -1.156669E+04  1.151948E-02
        64   1 -2.714625E+05  1.139206E+03 -1.880855E+04 -2.588464E+03  1.459904E+04 -6.089379E-02
        64   2 -2.652847E+05  6.294664E+03 -3.066586E+04  1.204900E+03  3.058937E+04  5.939142E-02
        64   3 -2.714670E+05 -2.965600E+04 -6.321194E+04  4.998320E+03  4.657979E+04  3.751680E-01
        64   4 -2.714625E+05  1.139194E+03 -1.880855E+04  1.930285E-08  1.459904E+04 -1.197788E-10
        64   5 -2.652847E+05  6.294661E+03 -3.066586E+04 -1.324386E-08  3.058937E+04  4.222132E-10
        64   6 -2.714670E+05 -2.965605E+04 -6.321195E+04 -5.621719E-10  4.657979E+04 -8.704474E-10
        64   7 -2.714625E+05  1.139206E+03 -1.880855E+04  2.588464E+03  1.459904E+04  6.089379E-02
        64   8 -2.652847E+05  6.294664E+03 -3.066586E+04 -1.204900E+03  3.058937E+04 -5.939142E-02
        64   9 -2.714670E+05 -2.965600E+04 -6.321194E+04 -4.998320E+03  4.657979E+04 -3.751680E-01
        64  10 -2.714627E+05  1.139149E+03 -1.880895E+04 -2.588464E+03 -2.629702E-09 -5.821287E-11
        64  11 -2.652857E+05  6.294412E+03 -3.066762E+04  1.204900E+03 -5.125494E-09 -3.544553E-10
        64  12 -2.714693E+05 -2.965658E+04 -6.321602E+04  4.998320E+03 -1.718342E-09 -4.726994E-10
        64  13 -2.714627E+05  1.139137E+03 -1.880895E+04  3.652613E-08  2.102988E-12  4.921927E-11
        64  14 -2.652857E+05  6.294410E+03 -3.066762E+04  1.259725E-08 -5.384149E-09 -2.933056E-10
        64  15 -2.714693E+05 -2.965663E+04 -6.321603E+04 -4.363699E-08 -3.006194E-09 -4.159355E-10
        64  16 -2.714627E+05  1.139149E+03 -1.880895E+04  2.588464E+03 -2.263134E-09  1.469586E-10
        64  17 -2.652857E+05  6.294412E+03 -3.066762E+04 -1.204900E+03  3.126266E-10 -2.248434E-10
        64  18 -2.714693E+05 -2.965658E+04 -6.321602E+04 -4.998320E+03 -1.912816E-09 -3.741152E-10
        64  19 -2.714625E+05  1.139206E+03 -1.880855E+04 -2.588464E+03 -1.459904E+04  6.089379E-02
        64  20 -2.652847E+05  6.294664E+03 -3.066586E+04  1.204900E+03 -3.058937E+04 -5.939142E-02
        64  21 -2.714670E+05 -2.965600E+04 -6.321194E+04  4.998320E+03 -4.657979E+04 -3.751680E-01
        64  22 -2.714625E+05  1.139194E+03 -1.880855E+04  3.651791E-08 -1.459904E+04  2.223158E-10
        64  23 -2.652847E+05  6.294661E+03 -3.066586E+04  3.843774E-08 -3.058937E+04 -9.925665E-10
        64  24 -2.714670E+05 -2.965605E+04 -6.321195E+04  1.558784E-08 -4.657979E+04  3.705004E-11
        64  25 -2.714625E+05  1.139206E+03 -1.880855E+04  2.588464E+03 -1.459904E+04 -6.089379E-02
        64  26 -2.652847E+05  6.294664E+03 -3.066586E+04 -1.204900E+03 -3.058937E+04  5.939142E-02
        64  27 -2.714670E+05 -2.965600E+04 -6.321194E+04 -4.998320E+03 -4.657979E+04  3.751680E-01
        65   1 -2.869057E+05  8.345108E+03 -7.663421E+04 -1.802141E+04  5.905683E+04 -1.715040E+00
        65   2 -2.459796E+05  4.488114E+04 -1.181774E+05  9.959426E+03  1.234844E+05  1.981683E+00
        65   3 -2.869223E+05 -2.124825E+05 -2.751379E+05  3.793864E+04  1.879133E+05  1.148795E+01
        65   4 -2.869061E+05  8.344498E+03 -7.663430E+04 -1.537842E-08  5.905683E+04 -3.222087E-10
        65   5 -2.459797E+05  4.488095E+04 -1.181774E+05 -2.246377E-09  1.234844E+05  1.985183E-09
        65   6 -2.869238E+05 -2.124852E+05 -2.751382E+05  1.842043E-08  1.879133E+05 -1.769938E-09
        65   7 -2.869057E+05  8.345108E+03 -7.663421E+04  1.802141E+04  5.905683E+04  1.715040E+00
        65   8 -2.459796E+05  4.488114E+04 -1.181774E+05 -9.959426E+03  1.234844E+05 -1.981683E+00
        65   9 -2.869223E+05 -2.124825E+05 -2.751379E+05 -3.793864E+04  1.879133E+05 -1.148795E+01
        65  10 -2.869095E+05  8.344171E+03 -7.664077E+04 -1.802141E+04 -9.427561E-11 -2.911325E-10
        65  11 -2.459960E+05  4.487704E+04 -1.182060E+05  9.959425E+03 -2.091229E-09 -1.811058E-11
        65  12 -2.869602E+05 -2.124920E+05 -2.752042E+05  3.793864E+04 -1.442393E-09  5.325604E-11
        65  13 -2.869098E+05  8.343561E+03 -7.664086E+04  1.859754E-09 -5.150976E-09 -2.799694E-10
        65  14 -2.459961E+05  4.487685E+04 -1.182060E+05  6.372176E-09 -2.560457E-10  2.380009E-12
        65  15 -2.869618E+05 -2.124947E+05 -2.752046E+05 -3.219071E-08 -8.441320E-10  3.814295E-11
        65  16 -2.869095E+05  8.344171E+03 -7.664077E+04  1.802141E+04 -1.540875E-09 -2.526059E-10
        65  17 -2.459960E+05  4.487704E+04 -1.182060E+05 -9.959425E+03 -4.203016E-10 -4.726437E-11
        65  18 -2.869602E+05 -2.124920E+05 -2.752042E+05 -3.793864E+04 -8.507928E-10  7.481737E-11
        65  19 -2.869057E+05  8.345108E+03 -7.663421E+04 -1.802141E+04 -5.905683E+04  1.715040E+00
        65  20 -2.459796E+05  4.488114E+04 -1.181774E+05  9.959426E+03 -1.234844E+05 -1.981683E+00
        65  21 -2.869223E+05 -2.124825E+05 -2.751379E+05  3.793864E+04 -1.879133E+05 -1.148795E+01
        65  22 -2.869061E+05  8.344498E+03 -7.663430E+04 -6.747929E-09 -5.905683E+04 -2.523744E-10
        65  23 -2.459797E+05  4.488095E+04 -1.181774E+05 -2.240496E-09 -1.234844E+05 -1.967038E-09
        65  24 -2.869238E+05 -2.124852E+05 -2.751382E+05  3.341104E-09 -1.879133E+05  7.085432E-10
        65  25 -2.869057E+05  8.345108E+03 -7.663421E+04  1.802141E+04 -5.905683E+04 -1.715040E+00
        65  26 -2.459796E+05  4.488114E+04 -1.181774E+05 -9.959426E+03 -1.234844E+05  1.981683E+00
        65  27 -2.869223E+05 -2.124825E+05 -2.751379E+05 -3.793864E+04 -1.879133E+05  1.148795E+01
        66   1  2.471692E+04 -5.434999E+05  2.648664E+04  5.414053E+03  5.023988E+02  3.328431E+03
        66   2  2.122731E+04 -5.345600E+05  2.624507E+04 -1.052232E+03  1.644621E+03  9.344662E+02
        66   3  2.568095E+04 -5.232842E+05  2.955654E+04  6.886757E+03  1.882008E+03 -1.459515E+03
        66   4  4.763993E+03 -6.233293E+05  6.602844E+03  6.361983E+03  5.024146E+02  2.907466E+03
        66   5 -1.209787E+03 -6.244769E+05  4.034225E+03 -8.407114E+02  1.644659E+03  7.524755E+02
        66   6  7.187365E+02 -6.233299E+05  4.852861E+03  6.361977E+03  1.882016E+03 -1.402490E+03
        66   7 -1.518941E+04 -7.031530E+05 -1.328143E+04  7.309791E+03  5.024292E+02  2.486554E+03
        66   8 -2.364749E+04 -7.143863E+05 -1.817722E+04 -6.292215E+02  1.644697E+03  5.705111E+02
        66   9 -2.424423E+04 -7.233665E+05 -1.985156E+04  5.837282E+03  1.882024E+03 -1.345474E+03
        66  10  2.471692E+04 -5.434999E+05  2.648662E+04  5.414052E+03 -3.009202E-10  2.858094E-10
        66  11  2.122731E+04 -5.345600E+05  2.624506E+04 -1.052233E+03  1.292144E-09  1.515247E-09
        66  12  2.568095E+04 -5.232842E+05  2.955653E+04  6.886759E+03  2.371951E-10  1.769556E-09
        66  13  4.763990E+03 -6.233293E+05  6.602827E+03  6.361982E+03  8.018356E-10  8.782269E-12
        66  14 -1.209790E+03 -6.244769E+05  4.034219E+03 -8.407124E+02 -4.913767E-09 -1.466590E-10
        66  15  7.187322E+02 -6.233299E+05  4.852850E+03  6.361979E+03 -3.185583E-09  7.250833E-11
        66  16 -1.518941E+04 -7.031530E+05 -1.328144E+04  7.309790E+03  1.379543E-09 -2.753160E-10
        66  17 -2.364749E+04 -7.143863E+05 -1.817723E+04 -6.292223E+02  8.846880E-10 -1.711192E-09
        66  18 -2.424423E+04 -7.233665E+05 -1.985157E+04  5.837284E+03 -1.451670E-09 -1.466238E-09
        66  19  2.471692E+04 -5.434999E+05  2.648664E+04  5.414053E+03 -5.023988E+02 -3.328431E+03
        66  20  2.122731E+04 -5.345600E+05  2.624507E+04 -1.052232E+03 -1.644621E+03 -9.344662E+02
        66  21  2.568095E+04 -5.232842E+05  2.955654E+04  6.886757E+03 -1.882008E+03  1.459515E+03
        66  22  4.763993E+03 -6.233293E+05  6.602844E+03  6.361983E+03 -5.024146E+02 -2.907466E+03
        66  23 -1.209787E+03 -6.244769E+05  4.034225E+03 -8.407114E+02 -1.644659E+03 -7.524755E+02
        66  24  7.187365E+02 -6.233299E+05  4.852861E+03  6.361977E+03 -1.882016E+03  1.402490E+03
        66  25 -1.518941E+04 -7.031530E+05 -1.328143E+04  7.309791E+03 -5.024292E+02 -2.486554E+03
        66  26 -2.364749E+04 -7.143863E+05 -1.817722E+04 -6.292215E+02 -1.644697E+03 -5.705111E+02
        66  27 -2.424423E+04 -7.233665E+05 -1.985156E+04  5.837282E+03 -1.882024E+03  1.345474E+03
        67   1  3.362642E+04 -4.901042E+05  3.839703E+04  5.416317E+03  2.013843E+03 -2.135868E+03
        67   2  3.399820E+04 -4.822618E+05  4.263052E+04 -3.697285E+02  2.489027E+03 -6.144426E+03
        67   3  4.447607E+04 -4.712716E+05  5.202180E+04  7.238987E+03  2.459716E+03 -1.015317E+04
        67   4  4.138437E+02 -6.231479E+05  5.461772E+03  6.136315E+03  2.013925E+03 -2.327114E+03
        67   5 -1.549508E+03 -6.247090E+05  7.424592E+03 -5.592032E+02  2.489093E+03 -6.201779E+03
        67   6  6.571237E+03 -6.231448E+05  1.445301E+04  6.140218E+03  2.459725E+03 -1.007657E+04
        67   7 -3.280005E+04 -7.561755E+05 -2.747481E+04  6.856159E+03  2.014007E+03 -2.518319E+03
        67   8 -3.709873E+04 -7.671376E+05 -2.778284E+04 -7.486321E+02  2.489159E+03 -6.259119E+03
        67   9 -3.133532E+04 -7.749970E+05 -2.311750E+04  5.041722E+03  2.459734E+03 -9.999985E+03
        67  10  3.362641E+04 -4.901042E+05  3.839702E+04  5.416321E+03 -1.189263E-09 -1.084452E-09
        67  11  3.399818E+04 -4.822619E+05  4.263044E+04 -3.697162E+02  1.130856E-09 -1.951240E-09
        67  12  4.447604E+04 -4.712718E+05  5.202159E+04  7.239007E+03  8.273929E-10  2.017901E-10
        67  13  4.138379E+02 -6.231479E+05  5.461754E+03  6.136319E+03 -1.253946E-09  1.574208E-11
        67  14 -1.549525E+03 -6.247090E+05  7.424508E+03 -5.591907E+02 -2.273386E-09 -4.722208E-10
        67  15  6.571204E+03 -6.231449E+05  1.445280E+04  6.140238E+03 -1.367672E-09  1.247069E-10
        67  16 -3.280006E+04 -7.561756E+05 -2.747483E+04  6.856163E+03  2.378863E-09  1.037027E-09
        67  17 -3.709875E+04 -7.671377E+05 -2.778293E+04 -7.486195E+02  3.212386E-09  1.215397E-09
        67  18 -3.133535E+04 -7.749971E+05 -2.311770E+04  5.041742E+03  1.815050E-09  6.310339E-10
        67  19  3.362642E+04 -4.901042E+05  3.839703E+04  5.416317E+03 -2.013843E+03  2.135868E+03
        67  20  3.399820E+04 -4.822618E+05  4.263052E+04 -3.697285E+02 -2.489027E+03  6.144426E+03
        67  21  4.447607E+04 -4.712716E+05  5.202180E+04  7.238987E+03 -2.459716E+03  1.015317E+04
        67  22  4.138437E+02 -6.231479E+05  5.461772E+03  6.136315E+03 -2.013925E+03  2.327114E+03
        67  23 -1.549508E+03 -6.247090E+05  7.424592E+03 -5.592032E+02 -2.489093E+03  6.201779E+03
        67  24  6.571237E+03 -6.231448E+05  1.445301E+04  6.140218E+03 -2.459725E+03  1.007657E+04
        67  25 -3.280005E+04 -7.561755E+05 -2.747481E+04  6.856159E+03 -2.014007E+03  2.518319E+03
        67  26 -3.709873E+04 -7.671376E+05 -2.778284E+04 -7.486321E+02 -2.489159E+03  6.259119E+03
        67  27 -3.133532E+04 -7.749970E+05 -2.311750E+04  5.041722E+03 -2.459734E+03  9.999985E+03
        68   1  4.364178E+04 -4.377858E+05  6.236232E+04  1.676682E+03  3.067759E+03 -1.238752E+04
        68   2  3.744627E+04 -4.386340E+05  7.345330E+04  1.921604E+03  3.636924E+03 -2.757966E+04
        68   3  9.703096E+04 -4.208789E+05  1.109213E+05  1.415153E+04  1.288917E+03 -4.277490E+04
        68   4 -1.775733E+03 -6.197409E+05  1.737179E+04  5.806708E+03  3.068127E+03 -1.291691E+04
        68   5 -1.003629E+04 -6.289697E+05  2.646375E+04 -1.577936E+02  3.636858E+03 -2.733546E+04
        68   6  4.735959E+04 -6.197239E+05  6.140091E+04  5.862869E+03  1.288329E+03 -4.175689E+04
        68   7 -4.719566E+04 -8.016658E+05 -2.762119E+04  9.935526E+03  3.068487E+03 -1.344614E+04
        68   8 -5.752155E+04 -8.192723E+05 -2.052848E+04 -2.236545E+03  3.636791E+03 -2.709133E+04
        68   9 -2.314484E+03 -8.185329E+05  1.187758E+04 -2.423126E+03  1.287714E+03 -4.073921E+04
        68  10  4.364173E+04 -4.377860E+05  6.236201E+04  1.676713E+03 -5.060903E-10  2.192279E-09
        68  11  3.744605E+04 -4.386348E+05  7.345184E+04  1.921685E+03  3.285623E-09 -1.121247E-09
        68  12  9.703046E+04 -4.208809E+05  1.109179E+05  1.415158E+04 -2.070005E-10 -1.430773E-10
        68  13 -1.775788E+03 -6.197411E+05  1.737146E+04  5.806740E+03  1.772885E-09  9.130412E-11
        68  14 -1.003651E+04 -6.289705E+05  2.646232E+04 -1.577136E+02  3.654985E-09 -1.004967E-09
        68  15  4.735912E+04 -6.197258E+05  6.139762E+04  5.862912E+03 -6.240039E-11  1.431366E-10
        68  16 -4.719572E+04 -8.016660E+05 -2.762155E+04  9.935559E+03 -2.184167E-09 -2.198278E-09
        68  17 -5.752176E+04 -8.192731E+05 -2.052989E+04 -2.236465E+03  2.241999E-09 -4.010012E-10
        68  18 -2.314932E+03 -8.185347E+05  1.187445E+04 -2.423083E+03  8.403215E-10  1.554300E-09
        68  19  4.364178E+04 -4.377858E+05  6.236232E+04  1.676682E+03 -3.067759E+03  1.238752E+04
        68  20  3.744627E+04 -4.386340E+05  7.345330E+04  1.921604E+03 -3.636924E+03  2.757966E+04
        68  21  9.703096E+04 -4.208789E+05  1.109213E+05  1.415153E+04 -1.288917E+03  4.277490E+04
        68  22 -1.775733E+03 -6.197409E+05  1.737179E+04  5.806708E+03 -3.068127E+03  1.291691E+04
        68  23 -1.003629E+04 -6.289697E+05  2.646375E+04 -1.577936E+02 -3.636858E+03  2.733546E+04
        68  24  4.735959E+04 -6.197239E+05  6.140091E+04  5.862869E+03 -1.288329E+03  4.175689E+04
        68  25 -4.719566E+04 -8.016658E+05 -2.762119E+04  9.935526E+03 -3.068487E+03  1.344614E+04
        68  26 -5.752155E+04 -8.192723E+05 -2.052848E+04 -2.236545E+03 -3.636791E+03  2.709133E+04
        68  27 -2.314484E+03 -8.185329E+05  1.187758E+04 -2.423126E+03 -1.287714E+03  4.073921E+04
        69   1 -6.943693E+05 -1.237210E+05 -2.997969E+04 -2.561861E+05 -1.273094E+04 -4.493559E+03
        69   2 -6.888423E+05 -1.020341E+05 -1.716185E+04 -2.561897E+05 -8.285946E+03 -2.338489E+03
        69   3 -6.866974E+05 -1.042422E+05 -1.308540E+04 -2.563280E+05 -3.598683E+03 -8.292486E+02
        69   4 -6.584459E+05 -1.078550E+05 -1.965794E+04 -2.440481E+05 -1.254599E+04 -4.424263E+03
        69   5 -6.557914E+05 -8.897512E+04 -8.052218E+03 -2.465851E+05 -8.260241E+03 -2.328864E+03
        69   6 -6.564868E+05 -9.395808E+04 -5.061245E+03 -2.492570E+05 -3.732255E+03 -8.793154E+02
        69   7 -6.225215E+05 -9.198881E+04 -9.336345E+03 -2.319095E+05 -1.236102E+04 -4.354962E+03
        69   8 -6.227394E+05 -7.591606E+04  1.057306E+03 -2.369801E+05 -8.234534E+03 -2.319238E+03
        69   9 -6.262754E+05 -8.367396E+04  2.962840E+03 -2.421856E+05 -3.865834E+03 -9.293843E+02
        69  10 -6.943694E+05 -1.237211E+05 -2.998003E+04 -2.561861E+05 -3.359881E-10 -1.005623E-10
        69  11 -6.888424E+05 -1.020341E+05 -1.716199E+04 -2.561897E+05 -2.675145E-09 -2.523442E-10
        69  12 -6.866974E+05 -1.042422E+05 -1.308543E+04 -2.563280E+05  9.361248E-10  6.073738E-11
        69  13 -6.584461E+05 -1.078551E+05 -1.965827E+04 -2.440482E+05  2.198455E-09 -2.082480E-10
        69  14 -6.557914E+05 -8.897515E+04 -8.052356E+03 -2.465852E+05 -2.999249E-09 -2.628875E-10
        69  15 -6.564869E+05 -9.395808E+04 -5.061273E+03 -2.492570E+05  1.055805E-09  6.958783E-10
        69  16 -6.225216E+05 -9.198887E+04 -9.336668E+03 -2.319096E+05  1.077441E-10 -2.285460E-10
        69  17 -6.227395E+05 -7.591608E+04  1.057169E+03 -2.369801E+05  3.028907E-09  1.123574E-10
        69  18 -6.262754E+05 -8.367397E+04  2.962810E+03 -2.421856E+05  4.741154E-10  1.089724E-09
        69  19 -6.943693E+05 -1.237210E+05 -2.997969E+04 -2.561861E+05  1.273094E+04  4.493559E+03
        69  20 -6.888423E+05 -1.020341E+05 -1.716185E+04 -2.561897E+05  8.285946E+03  2.338489E+03
        69  21 -6.866974E+05 -1.042422E+05 -1.308540E+04 -2.563280E+05  3.598683E+03  8.292486E+02
        69  22 -6.584459E+05 -1.078550E+05 -1.965794E+04 -2.440481E+05  1.254599E+04  4.424263E+03
        69  23 -6.557914E+05 -8.897512E+04 -8.052218E+03 -2.465851E+05  8.260241E+03  2.328864E+03
        69  24 -6.564868E+05 -9.395808E+04 -5.061245E+03 -2.492570E+05  3.732255E+03  8.793154E+02
        69  25 -6.225215E+05 -9.198881E+04 -9.336345E+03 -2.319095E+05  1.236102E+04  4.354962E+03
        69  26 -6.227394E+05 -7.591606E+04  1.057306E+03 -2.369801E+05  8.234534E+03  2.319238E+03
        69  27 -6.262754E+05 -8.367396E+04  2.962840E+03 -2.421856E+05  3.865834E+03  9.293843E+02
        70   1 -6.692058E+05 -1.016327E+05 -7.878471E+03 -2.520005E+05 -2.889582E+03 -7.838024E+02
        70   2 -6.667393E+05 -9.515074E+04 -4.466460E+03 -2.486706E+05 -1.820423E+03 -4.815491E+02
        70   3 -6.607492E+05 -9.611821E+04 -2.579347E+03 -2.500258E+05 -7.183829E+02 -2.669920E+02
        70   4 -6.557970E+05 -9.626723E+04 -4.167317E+03 -2.480349E+05 -2.900128E+03 -7.877576E+02
        70   5 -6.574225E+05 -9.156315E+04 -1.914881E+03 -2.460601E+05 -1.852603E+03 -4.936121E+02
        70   6 -6.555203E+05 -9.430420E+04 -1.170166E+03 -2.487703E+05 -7.722070E+02 -2.871661E+02
        70   7 -6.423879E+05 -9.090172E+04 -4.561822E+02 -2.440692E+05 -2.910673E+03 -7.917129E+02
        70   8 -6.481057E+05 -8.797556E+04  6.366855E+02 -2.434495E+05 -1.884784E+03 -5.056753E+02
        70   9 -6.502913E+05 -9.249021E+04  2.390092E+02 -2.475149E+05 -8.260315E+02 -3.073404E+02
        70  10 -6.692058E+05 -1.016327E+05 -7.878488E+03 -2.520005E+05  1.204467E-09  2.554160E-10
        70  11 -6.667393E+05 -9.515074E+04 -4.466467E+03 -2.486706E+05  1.438760E-09 -6.749300E-10
        70  12 -6.607492E+05 -9.611821E+04 -2.579348E+03 -2.500258E+05  1.213241E-09 -4.369191E-10
        70  13 -6.557970E+05 -9.626724E+04 -4.167334E+03 -2.480349E+05  2.148561E-10 -2.372928E-10
        70  14 -6.574225E+05 -9.156315E+04 -1.914888E+03 -2.460601E+05 -6.073382E-10  4.565931E-10
        70  15 -6.555203E+05 -9.430421E+04 -1.170167E+03 -2.487703E+05 -1.661788E-09 -7.513329E-10
        70  16 -6.423879E+05 -9.090172E+04 -4.561993E+02 -2.440692E+05 -1.271654E-09  7.513196E-10
        70  17 -6.481057E+05 -8.797556E+04  6.366784E+02 -2.434495E+05 -1.977160E-09 -3.520696E-10
        70  18 -6.502913E+05 -9.249021E+04  2.390077E+02 -2.475149E+05 -2.050733E-10 -1.101749E-10
        70  19 -6.692058E+05 -1.016327E+05 -7.878471E+03 -2.520005E+05  2.889582E+03  7.838024E+02
        70  20 -6.667393E+05 -9.515074E+04 -4.466460E+03 -2.486706E+05  1.820423E+03  4.815491E+02
        70  21 -6.607492E+05 -9.611821E+04 -2.579347E+03 -2.500258E+05  7.183829E+02  2.669920E+02
        70  22 -6.557970E+05 -9.626723E+04 -4.167317E+03 -2.480349E+05  2.900128E+03  7.877576E+02
        70  23 -6.574225E+05 -9.156315E+04 -1.914881E+03 -2.460601E+05  1.852603E+03  4.936121E+02
        70  24 -6.555203E+05 -9.430420E+04 -1.170166E+03 -2.487703E+05  7.722070E+02  2.871661E+02
        70  25 -6.423879E+05 -9.090172E+04 -4.561822E+02 -2.440692E+05  2.910673E+03  7.917129E+02
        70  26 -6.481057E+05 -8.797556E+04  6.366855E+02 -2.434495E+05  1.884784E+03  5.056753E+02
        70  27 -6.502913E+05 -9.249021E+04  2.390092E+02 -2.475149E+05  8.260315E+02  3.073404E+02
        71   1 -6.444281E+05 -9.050647E+04  2.052165E+03 -2.456383E+05 -5.173605E+02 -3.186698E+02
        71   2 -6.424376E+05 -8.622138E+04  3.607594E+03 -2.418833E+05 -1.817564E+02 -3.712473E+02
        71   3 -6.359708E+05 -8.700960E+04  4.846000E+03 -2.433778E+05  1.563663E+02 -4.305181E+02
        71   4 -6.554270E+05 -9.461247E+04 -9.515288E+02 -2.485827E+05 -5.551503E+02 -3.328345E+02
        71   5 -6.576468E+05 -9.194492E+04 -5.348759E+02 -2.460071E+05 -2.212042E+02 -3.860351E+02
        71   6 -6.553899E+05 -9.435034E+04 -4.339121E+02 -2.486809E+05  1.152581E+02 -4.459298E+02
        71   7 -6.664258E+05 -9.871848E+04 -3.955243E+03 -2.515271E+05 -5.929395E+02 -3.469990E+02
        71   8 -6.728558E+05 -9.766845E+04 -4.677377E+03 -2.501307E+05 -2.606512E+02 -4.008225E+02
        71   9 -6.748087E+05 -1.016911E+05 -5.713868E+03 -2.539838E+05  7.415119E+01 -4.613411E+02
        71  10 -6.444281E+05 -9.050647E+04  2.052164E+03 -2.456383E+05  1.048417E-09  3.459549E-10
        71  11 -6.424376E+05 -8.622138E+04  3.607594E+03 -2.418833E+05 -4.974054E-10  3.075823E-10
        71  12 -6.359708E+05 -8.700960E+04  4.846000E+03 -2.433778E+05  1.090562E-09 -8.165095E-11
        71  13 -6.554270E+05 -9.461247E+04 -9.515296E+02 -2.485827E+05  2.094587E-09  1.780330E-10
        71  14 -6.576468E+05 -9.194492E+04 -5.348763E+02 -2.460071E+05  3.140310E-09  2.612974E-10
        71  15 -6.553899E+05 -9.435034E+04 -4.339125E+02 -2.486809E+05 -4.546105E-09 -4.090413E-10
        71  16 -6.664258E+05 -9.871848E+04 -3.955244E+03 -2.515271E+05 -1.143720E-09  1.747011E-10
        71  17 -6.728558E+05 -9.766845E+04 -4.677377E+03 -2.501307E+05 -1.877778E-09  3.074463E-10
        71  18 -6.748087E+05 -1.016911E+05 -5.713868E+03 -2.539838E+05 -1.567462E-09 -2.939060E-10
        71  19 -6.444281E+05 -9.050647E+04  2.052165E+03 -2.456383E+05  5.173605E+02  3.186698E+02
        71  20 -6.424376E+05 -8.622138E+04  3.607594E+03 -2.418833E+05  1.817564E+02  3.712473E+02
        71  21 -6.359708E+05 -8.700960E+04  4.846000E+03 -2.433778E+05 -1.563663E+02  4.305181E+02
        71  22 -6.554270E+05 -9.461247E+04 -9.515288E+02 -2.485827E+05  5.551503E+02  3.328345E+02
        71  23 -6.576468E+05 -9.194492E+04 -5.348759E+02 -2.460071E+05  2.212042E+02  3.860351E+02
        71  24 -6.553899E+05 -9.435034E+04 -4.339121E+02 -2.486809E+05 -1.152581E+02  4.459298E+02
        71  25 -6.664258E+05 -9.871848E+04 -3.955243E+03 -2.515271E+05  5.929395E+02  3.469990E+02
        71  26 -6.728558E+05 -9.766845E+04 -4.677377E+03 -2.501307E+05  2.606512E+02  4.008225E+02
        71  27 -6.748087E+05 -1.016911E+05 -5.713868E+03 -2.539838E+05 -7.415119E+01  4.613411E+02
        72   1 -6.204036E+05 -8.113492E+04  9.123668E+03 -2.391010E+05  2.643206E+02 -5.008021E+02
        72   2 -6.185604E+05 -7.732577E+04  1.011309E+04 -2.354631E+05  5.875147E+02 -5.622675E+02
        72   3 -6.123848E+05 -7.814451E+04  1.085565E+04 -2.368632E+05  9.071616E+02 -6.141858E+02
        72   4 -6.554332E+05 -9.432747E+04 -4.343072E+02 -2.486056E+05  2.235948E+02 -5.160727E+02
        72   5 -6.576033E+05 -9.204353E+04 -5.250736E+02 -2.460753E+05  5.491290E+02 -5.766643E+02
        72   6 -6.554417E+05 -9.438797E+04 -8.645831E+02 -2.485829E+05  8.711144E+02 -6.277089E+02
        72   7 -6.904614E+05 -1.075199E+05 -9.992368E+03 -2.581096E+05  1.828717E+02 -5.313424E+02
        72   8 -6.966447E+05 -1.067612E+05 -1.116337E+04 -2.566868E+05  5.107459E+02 -5.910600E+02
        72   9 -6.984967E+05 -1.106313E+05 -1.258500E+04 -2.603018E+05  8.350700E+02 -6.412310E+02
        72  10 -6.204036E+05 -8.113492E+04  9.123668E+03 -2.391010E+05  1.254137E-09 -6.224820E-10
        72  11 -6.185604E+05 -7.732577E+04  1.011309E+04 -2.354631E+05 -2.228775E-09 -4.186754E-10
        72  12 -6.123848E+05 -7.814452E+04  1.085565E+04 -2.368632E+05 -2.108882E-09 -7.089026E-11
        72  13 -6.554332E+05 -9.432747E+04 -4.343078E+02 -2.486056E+05 -2.746515E-09 -4.477423E-10
        72  14 -6.576033E+05 -9.204353E+04 -5.250748E+02 -2.460753E+05 -2.998245E-09 -2.994953E-10
        72  15 -6.554417E+05 -9.438797E+04 -8.645853E+02 -2.485829E+05 -3.871463E-09  1.434751E-10
        72  16 -6.904614E+05 -1.075199E+05 -9.992369E+03 -2.581096E+05 -2.472353E-10 -6.348728E-10
        72  17 -6.966447E+05 -1.067612E+05 -1.116337E+04 -2.566868E+05 -3.542576E-09 -3.799411E-11
        72  18 -6.984967E+05 -1.106313E+05 -1.258500E+04 -2.603018E+05 -4.709702E-10  7.341245E-10
        72  19 -6.204036E+05 -8.113492E+04  9.123668E+03 -2.391010E+05 -2.643206E+02  5.008021E+02
        72  20 -6.185604E+05 -7.732577E+04  1.011309E+04 -2.354631E+05 -5.875147E+02  5.622675E+02
        72  21 -6.123848E+05 -7.814451E+04  1.085565E+04 -2.368632E+05 -9.071616E+02  6.141858E+02
        72  22 -6.554332E+05 -9.432747E+04 -4.343072E+02 -2.486056E+05 -2.235948E+02  5.160727E+02
        72  23 -6.576033E+05 -9.204353E+04 -5.250736E+02 -2.460753E+05 -5.491290E+02  5.766643E+02
        72  24 -6.554417E+05 -9.438797E+04 -8.645831E+02 -2.485829E+05 -8.711144E+02  6.277089E+02
        72  25 -6.904614E+05 -1.075199E+05 -9.992368E+03 -2.581096E+05 -1.828717E+02  5.313424E+02
        72  26 -6.966447E+05 -1.067612E+05 -1.116337E+04 -2.566868E+05 -5.107459E+02  5.910600E+02
        72  27 -6.984967E+05 -1.106313E+05 -1.258500E+04 -2.603018E+05 -8.350700E+02  6.412310E+02
        73   1 -5.979977E+05 -7.253919E+04  1.459661E+04 -2.329499E+05  1.106683E+03 -6.412937E+02
        73   2 -5.962289E+05 -6.894966E+04  1.478668E+04 -2.295790E+05  2.117249E+03 -4.328451E+02
        73   3 -5.909368E+05 -7.038747E+04  1.399500E+04 -2.305692E+05  3.120226E+03 -2.040441E+02
        73   4 -6.555817E+05 -9.419012E+04 -1.097245E+03 -2.485402E+05  1.067185E+03 -6.561146E+02
        73   5 -6.573927E+05 -9.202883E+04 -1.883016E+03 -2.462274E+05  2.082684E+03 -4.458212E+02
        73   6 -6.556814E+05 -9.489592E+04 -3.654513E+03 -2.482756E+05  3.090588E+03 -2.151764E+02
        73   7 -7.131624E+05 -1.158408E+05 -1.679138E+04 -2.641293E+05  1.027692E+03 -6.709339E+02
        73   8 -7.185529E+05 -1.151078E+05 -1.855305E+04 -2.628743E+05  2.048123E+03 -4.587958E+02
        73   9 -7.204222E+05 -1.194042E+05 -2.130443E+04 -2.659803E+05  3.060954E+03 -2.263075E+02
        73  10 -5.979977E+05 -7.253919E+04  1.459661E+04 -2.329499E+05  6.572719E-10  4.443721E-11
        73  11 -5.962289E+05 -6.894967E+04  1.478667E+04 -2.295790E+05 -1.071926E-09  9.629060E-11
        73  12 -5.909368E+05 -7.038747E+04  1.399498E+04 -2.305692E+05 -9.462270E-10 -3.023763E-11
        73  13 -6.555817E+05 -9.419012E+04 -1.097248E+03 -2.485402E+05 -1.169636E-09  1.820363E-10
        73  14 -6.573927E+05 -9.202884E+04 -1.883024E+03 -2.462274E+05  2.630241E-09 -3.307381E-10
        73  15 -6.556815E+05 -9.489592E+04 -3.654531E+03 -2.482756E+05 -2.688557E-09 -1.876521E-10
        73  16 -7.131624E+05 -1.158408E+05 -1.679138E+04 -2.641293E+05  2.082545E-09  3.138692E-10
        73  17 -7.185529E+05 -1.151078E+05 -1.855305E+04 -2.628743E+05 -2.382845E-10 -5.306945E-10
        73  18 -7.204222E+05 -1.194042E+05 -2.130445E+04 -2.659803E+05  5.428153E-10  3.424973E-11
        73  19 -5.979977E+05 -7.253919E+04  1.459661E+04 -2.329499E+05 -1.106683E+03  6.412937E+02
        73  20 -5.962289E+05 -6.894966E+04  1.478668E+04 -2.295790E+05 -2.117249E+03  4.328451E+02
        73  21 -5.909368E+05 -7.038747E+04  1.399500E+04 -2.305692E+05 -3.120226E+03  2.040441E+02
        73  22 -6.555817E+05 -9.419012E+04 -1.097245E+03 -2.485402E+05 -1.067185E+03  6.561146E+02
        73  23 -6.573927E+05 -9.202883E+04 -1.883016E+03 -2.462274E+05 -2.082684E+03  4.458212E+02
        73  24 -6.556814E+05 -9.489592E+04 -3.654513E+03 -2.482756E+05 -3.090588E+03  2.151764E+02
        73  25 -7.131624E+05 -1.158408E+05 -1.679138E+04 -2.641293E+05 -1.027692E+03  6.709339E+02
        73  26 -7.185529E+05 -1.151078E+05 -1.855305E+04 -2.628743E+05 -2.048123E+03  4.587958E+02
        73  27 -7.204222E+05 -1.194042E+05 -2.130443E+04 -2.659803E+05 -3.060954E+03  2.263075E+02
        74   1 -5.782934E+05 -6.502809E+04  1.644171E+04 -2.278714E+05  3.851650E+03 -2.294802E+01
        74   2 -5.761003E+05 -6.068700E+04  1.385319E+04 -2.245034E+05  8.085298E+03  1.415023E+03
        74   3 -5.737097E+05 -6.693487E+04  6.201308E+03 -2.232881E+05  1.229986E+04  2.903844E+03
        74   4 -6.561144E+05 -9.395634E+04 -4.694662E+03 -2.486019E+05  3.812354E+03 -3.770624E+01
        74   5 -6.565726E+05 -9.120872E+04 -8.109178E+03 -2.465691E+05  8.058038E+03  1.404771E+03
        74   6 -6.568361E+05 -9.905308E+04 -1.659710E+04 -2.466891E+05  1.228461E+04  2.898083E+03
        74   7 -7.339296E+05 -1.228843E+05 -2.583158E+04 -2.693301E+05  3.773064E+03 -5.246251E+01
        74   8 -7.370387E+05 -1.217300E+05 -3.007211E+04 -2.686323E+05  8.030781E+03  1.394521E+03
        74   9 -7.399558E+05 -1.311708E+05 -3.939610E+04 -2.700871E+05  1.226937E+04  2.892323E+03
        74  10 -5.782934E+05 -6.502809E+04  1.644168E+04 -2.278714E+05  1.570001E-10  4.601048E-10
        74  11 -5.761004E+05 -6.068702E+04  1.385306E+04 -2.245034E+05  6.381105E-10  1.272694E-09
        74  12 -5.737099E+05 -6.693492E+04  6.201007E+03 -2.232882E+05 -1.508155E-10  1.384039E-09
        74  13 -6.561144E+05 -9.395635E+04 -4.694689E+03 -2.486019E+05 -1.254064E-09  5.364107E-10
        74  14 -6.565727E+05 -9.120874E+04 -8.109304E+03 -2.465692E+05 -3.771527E-09  1.329431E-09
        74  15 -6.568363E+05 -9.905313E+04 -1.659740E+04 -2.466891E+05  2.660179E-09  6.755028E-10
        74  16 -7.339296E+05 -1.228843E+05 -2.583160E+04 -2.693301E+05 -1.387903E-09  5.192192E-10
        74  17 -7.370388E+05 -1.217300E+05 -3.007224E+04 -2.686323E+05  1.173318E-09  1.664452E-10
        74  18 -7.399559E+05 -1.311708E+05 -3.939640E+04 -2.700872E+05  1.479799E-09  4.126755E-10
        74  19 -5.782934E+05 -6.502809E+04  1.644171E+04 -2.278714E+05 -3.851650E+03  2.294802E+01
        74  20 -5.761003E+05 -6.068700E+04  1.385319E+04 -2.245034E+05 -8.085298E+03 -1.415023E+03
        74  21 -5.737097E+05 -6.693487E+04  6.201308E+03 -2.232881E+05 -1.229986E+04 -2.903844E+03
        74  22 -6.561144E+05 -9.395634E+04 -4.694662E+03 -2.486019E+05 -3.812354E+03  3.770624E+01
        74  23 -6.565726E+05 -9.120872E+04 -8.109178E+03 -2.465691E+05 -8.058038E+03 -1.404771E+03
        74  24 -6.568361E+05 -9.905308E+04 -1.659710E+04 -2.466891E+05 -1.228461E+04 -2.898083E+03
        74  25 -7.339296E+05 -1.228843E+05 -2.583158E+04 -2.693301E+05 -3.773064E+03  5.246251E+01
        74  26 -7.370387E+05 -1.217300E+05 -3.007211E+04 -2.686323E+05 -8.030781E+03 -1.394521E+03
        74  27 -7.399558E+05 -1.311708E+05 -3.939610E+04 -2.700871E+05 -1.226937E+04 -2.892323E+03
        75   1 -5.626693E+05 -5.969055E+04  4.765909E+03 -2.267058E+05  1.547655E+04  3.988830E+03
        75   2 -5.566190E+05 -4.703281E+04 -8.703893E+03 -2.205229E+05  3.401885E+04  1.081734E+04
        75   3 -5.693600E+05 -8.779153E+04 -4.981159E+04 -2.045131E+05  5.247031E+04  1.788836E+04
        75   4 -6.588626E+05 -9.304363E+04 -2.087777E+04 -2.498618E+05  1.541522E+04  3.965864E+03
        75   5 -6.520303E+05 -8.446209E+04 -3.498483E+04 -2.479616E+05  3.401459E+04  1.081563E+04
        75   6 -6.640039E+05 -1.293135E+05 -7.677837E+04 -2.362340E+05  5.252313E+04  1.790759E+04
        75   7 -7.550472E+05 -1.263966E+05 -4.652228E+04 -2.730147E+05  1.535391E+04  3.942902E+03
        75   8 -7.474330E+05 -1.218907E+05 -6.126663E+04 -2.753965E+05  3.401034E+04  1.081391E+04
        75   9 -7.586390E+05 -1.708340E+05 -1.037460E+05 -2.679502E+05  5.257595E+04  1.792681E+04
        75  10 -5.626696E+05 -5.969063E+04  4.765428E+03 -2.267059E+05  1.975019E-09  1.567447E-09
        75  11 -5.566202E+05 -4.703324E+04 -8.706290E+03 -2.205232E+05 -1.226874E-09  1.513491E-09
        75  12 -5.693630E+05 -8.779261E+04 -4.981737E+04 -2.045138E+05  3.021631E-10 -1.579914E-09
        75  13 -6.588629E+05 -9.304371E+04 -2.087825E+04 -2.498618E+05 -2.945355E-10  5.251030E-10
        75  14 -6.520316E+05 -8.446253E+04 -3.498723E+04 -2.479619E+05 -1.243687E-09 -3.115240E-12
        75  15 -6.640069E+05 -1.293146E+05 -7.678416E+04 -2.362347E+05  2.247236E-09 -1.189172E-09
        75  16 -7.550475E+05 -1.263967E+05 -4.652275E+04 -2.730148E+05 -1.051571E-09  6.878245E-11
        75  17 -7.474343E+05 -1.218911E+05 -6.126903E+04 -2.753968E+05 -8.354810E-10 -3.637050E-10
        75  18 -7.586421E+05 -1.708351E+05 -1.037518E+05 -2.679509E+05  7.097847E-10 -2.186126E-10
        75  19 -5.626693E+05 -5.969055E+04  4.765909E+03 -2.267058E+05 -1.547655E+04 -3.988830E+03
        75  20 -5.566190E+05 -4.703281E+04 -8.703893E+03 -2.205229E+05 -3.401885E+04 -1.081734E+04
        75  21 -5.693600E+05 -8.779153E+04 -4.981159E+04 -2.045131E+05 -5.247031E+04 -1.788836E+04
        75  22 -6.588626E+05 -9.304363E+04 -2.087777E+04 -2.498618E+05 -1.541522E+04 -3.965864E+03
        75  23 -6.520303E+05 -8.446209E+04 -3.498483E+04 -2.479616E+05 -3.401459E+04 -1.081563E+04
        75  24 -6.640039E+05 -1.293135E+05 -7.677837E+04 -2.362340E+05 -5.252313E+04 -1.790759E+04
        75  25 -7.550472E+05 -1.263966E+05 -4.652228E+04 -2.730147E+05 -1.535391E+04 -3.942902E+03
        75  26 -7.474330E+05 -1.218907E+05 -6.126663E+04 -2.753965E+05 -3.401034E+04 -1.081391E+04
        75  27 -7.586390E+05 -1.708340E+05 -1.037460E+05 -2.679502E+05 -5.257595E+04 -1.792681E+04
        76   1 -5.548425E+05 -6.196008E+04 -6.434481E+04 -2.475154E+05  6.688533E+04  2.298233E+04
        76   2 -5.226703E+05  1.298626E+04 -1.192547E+05 -2.181354E+05  1.486640E+05  5.352219E+04
        76   3 -6.339887E+05 -2.712606E+05 -3.329780E+05 -9.769967E+04  2.298263E+05  8.570718E+04
        76   4 -6.761434E+05 -8.729123E+04 -9.335617E+04 -2.595518E+05  6.662652E+04  2.288773E+04
        76   5 -6.225518E+05 -3.590499E+04 -1.486564E+05 -2.568288E+05  1.487974E+05  5.356902E+04
        76   6 -7.125551E+05 -3.438292E+05 -3.631014E+05 -1.630417E+05  2.303549E+05  8.588621E+04
        76   7 -7.974293E+05 -1.126227E+05 -1.223683E+05 -2.715873E+05  6.636777E+04  2.279313E+04
        76   8 -7.224231E+05 -8.479337E+04 -1.780590E+05 -2.955159E+05  1.489309E+05  5.361583E+04
        76   9 -7.911106E+05 -4.163828E+05 -3.932246E+05 -2.283729E+05  2.308835E+05  8.606512E+04
        76  10 -5.548474E+05 -6.196185E+04 -6.435422E+04 -2.475167E+05 -7.014576E-10 -2.318703E-09
        76  11 -5.226948E+05  1.297724E+04 -1.193017E+05 -2.181418E+05 -1.111125E-09 -5.582985E-10
        76  12 -6.340474E+05 -2.712827E+05 -3.330912E+05 -9.771554E+04  1.228607E-09 -1.377906E-09
        76  13 -6.761483E+05 -8.729299E+04 -9.336551E+04 -2.595531E+05 -1.710264E-09 -1.333265E-09
        76  14 -6.225763E+05 -3.591403E+04 -1.487034E+05 -2.568353E+05  3.426572E-09 -1.230342E-09
        76  15 -7.126142E+05 -3.438514E+05 -3.632151E+05 -1.630576E+05 -2.258129E-09  2.476597E-09
        76  16 -7.974342E+05 -1.126245E+05 -1.223775E+05 -2.715885E+05 -5.546151E-10  1.885772E-09
        76  17 -7.224477E+05 -8.480243E+04 -1.781061E+05 -2.955223E+05  2.108658E-09  2.325566E-09
        76  18 -7.911699E+05 -4.164052E+05 -3.933389E+05 -2.283890E+05 -9.160674E-11  1.548310E-10
        76  19 -5.548425E+05 -6.196008E+04 -6.434481E+04 -2.475154E+05 -6.688533E+04 -2.298233E+04
        76  20 -5.226703E+05  1.298626E+04 -1.192547E+05 -2.181354E+05 -1.486640E+05 -5.352219E+04
        76  21 -6.339887E+05 -2.712606E+05 -3.329780E+05 -9.769967E+04 -2.298263E+05 -8.570718E+04
        76  22 -6.761434E+05 -8.729123E+04 -9.335617E+04 -2.595518E+05 -6.662652E+04 -2.288773E+04
        76  23 -6.225518E+05 -3.590499E+04 -1.486564E+05 -2.568288E+05 -1.487974E+05 -5.356902E+04
        76  24 -7.125551E+05 -3.438292E+05 -3.631014E+05 -1.630417E+05 -2.303549E+05 -8.588621E+04
        76  25 -7.974293E+05 -1.126227E+05 -1.223683E+05 -2.715873E+05 -6.636777E+04 -2.279313E+04
        76  26 -7.224231E+05 -8.479337E+04 -1.780590E+05 -2.955159E+05 -1.489309E+05 -5.361583E+04
        76  27 -7.911106E+05 -4.163828E+05 -3.932246E+05 -2.283729E+05 -2.308835E+05 -8.606512E+04
        77   1  3.227527E+05  2.395820E+06  3.054448E+05 -5.014561E+04  1.731467E+04  1.368514E+05
        77   2  2.862626E+05  2.361686E+06  2.253627E+05 -4.082983E+04  6.022624E+04  7.474447E+04
        77   3  2.705450E+05  2.340891E+06  1.908356E+05 -3.439084E+04  7.737125E+04  1.264794E+04
        77   4  2.390407E+04  1.178661E+06  2.585308E+04 -3.384614E+04  1.733308E+04  1.732433E+04
        77   5  7.395209E+03  1.176782E+06  1.351700E+04 -3.241421E+04  6.025480E+04  1.044471E+04
        77   6  2.111158E+03  1.178691E+06  8.483477E+03 -3.385550E+04  7.738899E+04  3.569960E+03
        77   7 -2.750390E+05 -3.710057E+04 -2.537827E+05 -1.757872E+04  1.734527E+04 -1.019711E+05
        77   8 -2.715474E+05 -6.748907E+03 -1.983668E+05 -2.401495E+04  6.028167E+04 -5.373620E+04
        77   9 -2.663891E+05  1.783385E+04 -1.739013E+05 -3.332101E+04  7.740674E+04 -5.491711E+03
        77  10  3.227473E+05  2.395800E+06  3.054091E+05 -5.014752E+04  8.849547E-10  2.584981E-08
        77  11  2.862572E+05  2.361679E+06  2.253454E+05 -4.083345E+04  6.052641E-09 -7.203203E-09
        77  12  2.705385E+05  2.340889E+06  1.908241E+05 -3.439163E+04  5.043609E-09 -4.111102E-08
        77  13  2.390367E+04  1.178661E+06  2.585195E+04 -3.384638E+04  8.297390E-10  2.698641E-11
        77  14  7.391279E+03  1.176781E+06  1.350997E+04 -3.241472E+04 -4.490896E-10  3.054202E-11
        77  15  2.104720E+03  1.178690E+06  8.472192E+03 -3.385572E+04 -1.153705E-08  5.494507E-10
        77  16 -2.750421E+05 -3.711182E+04 -2.538028E+05 -1.757729E+04  9.279142E-10 -2.582234E-08
        77  17 -2.715520E+05 -6.752985E+03 -1.983790E+05 -2.401234E+04  7.668150E-09  6.923190E-09
        77  18 -2.663955E+05  1.783221E+04 -1.739126E+05 -3.332067E+04  8.765512E-09  4.049099E-08
        77  19  3.227527E+05  2.395820E+06  3.054448E+05 -5.014561E+04 -1.731467E+04 -1.368514E+05
        77  20  2.862626E+05  2.361686E+06  2.253627E+05 -4.082983E+04 -6.022624E+04 -7.474447E+04
        77  21  2.705450E+05  2.340891E+06  1.908356E+05 -3.439084E+04 -7.737125E+04 -1.264794E+04
        77  22  2.390407E+04  1.178661E+06  2.585308E+04 -3.384614E+04 -1.733308E+04 -1.732433E+04
        77  23  7.395209E+03  1.176782E+06  1.351700E+04 -3.241421E+04 -6.025480E+04 -1.044471E+04
        77  24  2.111158E+03  1.178691E+06  8.483477E+03 -3.385550E+04 -7.738899E+04 -3.569960E+03
        77  25 -2.750390E+05 -3.710057E+04 -2.537827E+05 -1.757872E+04 -1.734527E+04  1.019711E+05
        77  26 -2.715474E+05 -6.748907E+03 -1.983668E+05 -2.401495E+04 -6.028167E+04  5.373620E+04
        77  27 -2.663891E+05  1.783385E+04 -1.739013E+05 -3.332101E+04 -7.740674E+04  5.491711E+03
        78   1  2.650785E+05  2.321856E+06  1.828696E+05 -3.584341E+04  7.894718E+04  1.118570E+04
        78   2  2.569855E+05  2.293398E+06  1.733860E+05 -3.231654E+04  8.028544E+04 -4.079221E+03
        78   3  2.531171E+05  2.268051E+06  1.748935E+05 -3.359926E+04  7.604927E+04 -1.934810E+04
        78   4  1.677249E+03  1.178088E+06  7.304779E+03 -3.428606E+04  7.896592E+04  2.363442E+03
        78   5  9.234357E+02  1.177575E+06  6.638064E+03 -3.188113E+04  8.029728E+04 -9.506739E+02
        78   6  2.327650E+03  1.178108E+06  8.687708E+03 -3.428632E+04  7.604910E+04 -4.269363E+03
        78   7 -2.617870E+05  3.562434E+04 -1.682887E+05 -3.273148E+04  7.898464E+04 -6.443239E+03
        78   8 -2.551973E+05  6.299904E+04 -1.601340E+05 -3.144631E+04  8.030913E+04  2.172494E+03
        78   9 -2.485186E+05  8.935045E+04 -1.575427E+05 -3.497185E+04  7.604891E+04  1.078401E+04
        78  10  2.650717E+05  2.321855E+06  1.828577E+05 -3.584412E+04  5.190208E-09  3.869947E-08
        78  11  2.569786E+05  2.293396E+06  1.733739E+05 -3.231627E+04  2.353511E-09  3.390262E-09
        78  12  2.531108E+05  2.268049E+06  1.748819E+05 -3.359808E+04 -1.668215E-09 -2.931322E-08
        78  13  1.670548E+03  1.178087E+06  7.293045E+03 -3.428621E+04 -1.258675E-08  4.965709E-10
        78  14  9.165080E+02  1.177574E+06  6.625940E+03 -3.188107E+04 -4.108394E-09 -3.672912E-11
        78  15  2.321432E+03  1.178106E+06  8.676799E+03 -3.428606E+04 -1.134919E-09  1.092699E-09
        78  16 -2.617937E+05  3.562262E+04 -1.683005E+05 -3.273107E+04  5.294162E-09 -3.888048E-08
        78  17 -2.552042E+05  6.299730E+04 -1.601462E+05 -3.144645E+04  1.857850E-09 -4.254924E-09
        78  18 -2.485249E+05  8.934877E+04 -1.575538E+05 -3.497251E+04 -3.035300E-09  2.801187E-08
        78  19  2.650785E+05  2.321856E+06  1.828696E+05 -3.584341E+04 -7.894718E+04 -1.118570E+04
        78  20  2.569855E+05  2.293398E+06  1.733860E+05 -3.231654E+04 -8.028544E+04  4.079221E+03
        78  21  2.531171E+05  2.268051E+06  1.748935E+05 -3.359926E+04 -7.604927E+04  1.934810E+04
        78  22  1.677249E+03  1.178088E+06  7.304779E+03 -3.428606E+04 -7.896592E+04 -2.363442E+03
        78  23  9.234357E+02  1.177575E+06  6.638064E+03 -3.188113E+04 -8.029728E+04  9.506739E+02
        78  24  2.327650E+03  1.178108E+06  8.687708E+03 -3.428632E+04 -7.604910E+04  4.269363E+03
        78  25 -2.617870E+05  3.562434E+04 -1.682887E+05 -3.273148E+04 -7.898464E+04  6.443239E+03
        78  26 -2.551973E+05  6.299904E+04 -1.601340E+05 -3.144631E+04 -8.030913E+04 -2.172494E+03
        78  27 -2.485186E+05  8.935045E+04 -1.575427E+05 -3.497185E+04 -7.604891E+04 -1.078401E+04
        79   1  2.508423E+05  2.253397E+06  1.778107E+05 -3.524925E+04  7.259664E+04 -2.103061E+04
        79   2  2.555743E+05  2.220522E+06  2.025497E+05 -2.111070E+04  5.480842E+04 -7.618069E+04
        79   3  2.835601E+05  2.200671E+06  2.689360E+05 -1.342895E+04  1.561333E+04 -1.313621E+05
        79   4  2.968279E+03  1.179014E+06  1.067802E+04 -3.465594E+04  7.259395E+04 -5.733028E+03
        79   5  1.032528E+04  1.176472E+06  1.815112E+04 -3.141221E+04  5.475032E+04 -1.501306E+04
        79   6  3.300694E+04  1.179018E+06  3.549400E+04 -3.462834E+04  1.548525E+04 -2.432411E+04
        79   7 -2.449619E+05  1.057789E+05 -1.564809E+05 -3.406340E+04  7.259129E+04  9.539161E+03
        79   8 -2.349809E+05  1.334916E+05 -1.662736E+05 -4.169564E+04  5.469015E+04  4.605502E+04
        79   9 -2.176106E+05  1.583545E+05 -1.979731E+05 -5.579236E+04  1.534977E+04  8.253975E+04
        79  10  2.508365E+05  2.253396E+06  1.778000E+05 -3.524802E+04 -3.345567E-09  3.510955E-09
        79  11  2.555695E+05  2.220515E+06  2.025332E+05 -2.110734E+04 -9.656145E-10 -1.309833E-10
        79  12  2.835552E+05  2.200652E+06  2.689032E+05 -1.342730E+04  3.895998E-10 -2.574311E-09
        79  13  2.962608E+03  1.179012E+06  1.066805E+04 -3.465561E+04  3.051194E-10  8.249731E-10
        79  14  1.032200E+04  1.176471E+06  1.814506E+04 -3.141155E+04  9.465889E-10 -1.611987E-13
        79  15  3.300652E+04  1.179017E+06  3.549244E+04 -3.462804E+04  1.837134E-09  1.486097E-09
        79  16 -2.449676E+05  1.057774E+05 -1.564910E+05 -3.406396E+04 -6.749384E-10 -4.087779E-09
        79  17 -2.349847E+05  1.334885E+05 -1.662832E+05 -4.169767E+04 -6.433117E-10 -1.146838E-09
        79  18 -2.176127E+05  1.583471E+05 -1.979863E+05 -5.579338E+04 -2.119093E-10  7.141604E-10
        79  19  2.508423E+05  2.253397E+06  1.778107E+05 -3.524925E+04 -7.259664E+04  2.103061E+04
        79  20  2.555743E+05  2.220522E+06  2.025497E+05 -2.111070E+04 -5.480842E+04  7.618069E+04
        79  21  2.835601E+05  2.200671E+06  2.689360E+05 -1.342895E+04 -1.561333E+04  1.313621E+05
        79  22  2.968279E+03  1.179014E+06  1.067802E+04 -3.465594E+04 -7.259395E+04  5.733028E+03
        79  23  1.032528E+04  1.176472E+06  1.815112E+04 -3.141221E+04 -5.475032E+04  1.501306E+04
        79  24  3.300694E+04  1.179018E+06  3.549400E+04 -3.462834E+04 -1.548525E+04  2.432411E+04
        79  25 -2.449619E+05  1.057789E+05 -1.564809E+05 -3.406340E+04 -7.259129E+04 -9.539161E+03
        79  26 -2.349809E+05  1.334916E+05 -1.662736E+05 -4.169564E+04 -5.469015E+04 -4.605502E+04
        79  27 -2.176106E+05  1.583545E+05 -1.979731E+05 -5.579236E+04 -1.534977E+04 -8.253975E+04
        80   1 -3.221906E+06 -4.180705E+05 -4.634507E+05 -5.514243E+04 -1.451512E+05  5.833712E+03
        80   2 -3.166382E+06 -2.189692E+05 -3.378176E+05 -1.506818E+04 -9.323888E+04  1.878816E+04
        80   3 -3.168144E+06 -2.393483E+05 -3.001155E+05 -1.231548E+04 -4.126152E+04  1.662700E+04
        80   4 -2.187010E+06 -1.584210E+05 -2.049623E+05 -2.340347E+04 -1.399766E+05  5.849944E+03
        80   5 -2.158673E+06  3.313095E+04 -8.839089E+04 -5.101473E+03 -9.196782E+04  1.878939E+04
        80   6 -2.186843E+06  6.073944E+03 -5.692892E+04 -2.411965E+04 -4.389677E+04  1.662034E+04
        80   7 -1.151136E+06  1.011508E+05  5.344575E+04  8.387566E+03 -1.347932E+05  5.866699E+03
        80   8 -1.150037E+06  2.851552E+05  1.609601E+05  4.880722E+03 -9.069459E+04  1.879065E+04
        80   9 -1.204661E+06  2.514244E+05  1.861859E+05 -3.594305E+04 -4.653616E+04  1.661378E+04
        80  10 -3.221929E+06 -4.180762E+05 -4.634906E+05 -5.514174E+04  1.829614E-09 -3.599252E-10
        80  11 -3.166392E+06 -2.189719E+05 -3.378346E+05 -1.506677E+04  6.634618E-11 -1.959372E-10
        80  12 -3.168146E+06 -2.393490E+05 -3.001192E+05 -1.231492E+04  3.006266E-10 -4.878799E-10
        80  13 -2.187031E+06 -1.584263E+05 -2.049993E+05 -2.340281E+04  1.174195E-10  1.941956E-11
        80  14 -2.158683E+06  3.312829E+04 -8.840750E+04 -5.100080E+03  2.321287E-09  3.070561E-10
        80  15 -2.186845E+06  6.073128E+03 -5.693308E+04 -2.411906E+04  1.039611E-09 -4.449726E-10
        80  16 -1.151155E+06  1.011458E+05  5.341147E+04  8.388203E+03 -2.377428E-09  2.062602E-11
        80  17 -1.150046E+06  2.851526E+05  1.609440E+05  4.882094E+03 -3.933586E-09  6.149287E-10
        80  18 -1.204664E+06  2.514235E+05  1.861813E+05 -3.594243E+04 -1.086061E-10 -2.024567E-10
        80  19 -3.221906E+06 -4.180705E+05 -4.634507E+05 -5.514243E+04  1.451512E+05 -5.833712E+03
        80  20 -3.166382E+06 -2.189692E+05 -3.378176E+05 -1.506818E+04  9.323888E+04 -1.878816E+04
        80  21 -3.168144E+06 -2.393483E+05 -3.001155E+05 -1.231548E+04  4.126152E+04 -1.662700E+04
        80  22 -2.187010E+06 -1.584210E+05 -2.049623E+05 -2.340347E+04  1.399766E+05 -5.849944E+03
        80  23 -2.158673E+06  3.313095E+04 -8.839089E+04 -5.101473E+03  9.196782E+04 -1.878939E+04
        80  24 -2.186843E+06  6.073944E+03 -5.692892E+04 -2.411965E+04  4.389677E+04 -1.662034E+04
        80  25 -1.151136E+06  1.011508E+05  5.344575E+04  8.387566E+03  1.347932E+05 -5.866699E+03
        80  26 -1.150037E+06  2.851552E+05  1.609601E+05  4.880722E+03  9.069459E+04 -1.879065E+04
        80  27 -1.204661E+06  2.514244E+05  1.861859E+05 -3.594305E+04  4.653616E+04 -1.661378E+04
        81   1 -3.031840E+06 -2.366002E+05 -2.593368E+05 -3.500827E+04 -3.504685E+04  1.369593E+04
        81   2 -2.982358E+06 -1.980408E+05 -2.236751E+05  1.342225E+03 -2.247897E+04  1.408544E+04
        81   3 -2.939408E+06 -1.901790E+05 -2.033322E+05 -2.811653E+04 -9.911384E+03  1.209674E+04
        81   4 -2.175682E+06 -2.238510E+04 -4.702413E+04 -3.020816E+04 -3.466907E+04  1.369511E+04
        81   5 -2.172467E+06  4.537607E+03 -2.303472E+04  2.677149E+03 -2.271191E+04  1.408407E+04
        81   6 -2.175665E+06  8.929262E+02 -1.392312E+04 -3.024168E+04 -1.075599E+04  1.209605E+04
        81   7 -1.318855E+06  1.917750E+05  1.652338E+05 -2.540164E+04 -3.429074E+04  1.369430E+04
        81   8 -1.361977E+06  2.070668E+05  1.775567E+05  4.013718E+03 -2.294515E+04  1.408270E+04
        81   9 -1.411389E+06  1.919210E+05  1.754424E+05 -3.236942E+04 -1.160164E+04  1.209536E+04
        81  10 -3.031841E+06 -2.366008E+05 -2.593395E+05 -3.500788E+04 -8.910917E-10  1.535306E-10
        81  11 -2.982358E+06 -1.980412E+05 -2.236764E+05  1.342481E+03 -1.116477E-09  3.070245E-11
        81  12 -2.939408E+06 -1.901792E+05 -2.033327E+05 -2.811643E+04 -2.224771E-09  4.605253E-10
        81  13 -2.175683E+06 -2.238562E+04 -4.702675E+04 -3.020777E+04  2.235007E-09 -2.787931E-10
        81  14 -2.172467E+06  4.537256E+03 -2.303606E+04  2.677407E+03 -9.046636E-10  6.147414E-10
        81  15 -2.175665E+06  8.927381E+02 -1.392361E+04 -3.024158E+04  4.488774E-10  3.328423E-10
        81  16 -1.318856E+06  1.917745E+05  1.652312E+05 -2.540126E+04  2.031429E-09 -1.821188E-10
        81  17 -1.361978E+06  2.070664E+05  1.775553E+05  4.013979E+03 -4.648558E-09  8.473837E-10
        81  18 -1.411390E+06  1.919208E+05  1.754418E+05 -3.236930E+04  7.920638E-10 -4.360624E-11
        81  19 -3.031840E+06 -2.366002E+05 -2.593368E+05 -3.500827E+04  3.504685E+04 -1.369593E+04
        81  20 -2.982358E+06 -1.980408E+05 -2.236751E+05  1.342225E+03  2.247897E+04 -1.408544E+04
        81  21 -2.939408E+06 -1.901790E+05 -2.033322E+05 -2.811653E+04  9.911384E+03 -1.209674E+04
        81  22 -2.175682E+06 -2.238510E+04 -4.702413E+04 -3.020816E+04  3.466907E+04 -1.369511E+04
        81  23 -2.172467E+06  4.537607E+03 -2.303472E+04  2.677149E+03  2.271191E+04 -1.408407E+04
        81  24 -2.175665E+06  8.929262E+02 -1.392312E+04 -3.024168E+04  1.075599E+04 -1.209605E+04
        81  25 -1.318855E+06  1.917750E+05  1.652338E+05 -2.540164E+04  3.429074E+04 -1.369430E+04
        81  26 -1.361977E+06  2.070668E+05  1.775567E+05  4.013718E+03  2.294515E+04 -1.408270E+04
        81  27 -1.411389E+06  1.919210E+05  1.754424E+05 -3.236942E+04  1.160164E+04 -1.209536E+04
        82   1 -2.755938E+06 -1.486408E+05 -1.551651E+05 -3.491211E+04 -8.143568E+03  1.067792E+04
        82   2 -2.695277E+06 -1.297760E+05 -1.351037E+05  8.682977E+03 -4.979969E+03  8.957447E+03
        82   3 -2.635224E+06 -1.150322E+05 -1.179696E+05 -3.375197E+04 -1.820431E+03  6.672544E+03
        82   4 -2.174295E+06 -3.194390E+03 -1.118504E+04 -3.472828E+04 -8.526669E+03  1.067755E+04
        82   5 -2.174008E+06  5.905755E+02 -5.967967E+03  8.285983E+03 -5.509041E+03  8.957647E+03
        82   6 -2.174302E+06  2.829545E+02 -3.573734E+03 -3.472531E+04 -2.495779E+03  6.673528E+03
        82   7 -1.592344E+06  1.422267E+05  1.327698E+05 -3.454422E+04 -8.910128E+03  1.067718E+04
        82   8 -1.652490E+06  1.309367E+05  1.231475E+05  7.888732E+03 -6.038557E+03  8.957849E+03
        82   9 -1.713186E+06  1.155821E+05  1.108062E+05 -3.569928E+04 -3.171629E+03  6.674515E+03
        82  10 -2.755938E+06 -1.486410E+05 -1.551654E+05 -3.491204E+04 -4.033377E-09  1.842049E-10
        82  11 -2.695278E+06 -1.297761E+05 -1.351039E+05  8.683013E+03 -2.607918E-09 -9.318668E-10
        82  12 -2.635224E+06 -1.150322E+05 -1.179697E+05 -3.375196E+04 -1.185540E-11  6.946746E-11
        82  13 -2.174296E+06 -3.194532E+03 -1.118539E+04 -3.472821E+04 -2.103084E-09 -5.102591E-10
        82  14 -2.174008E+06  5.904813E+02 -5.968175E+03  8.286023E+03 -3.311886E-09 -4.279235E-10
        82  15 -2.174302E+06  2.829051E+02 -3.573829E+03 -3.472530E+04  2.692208E-09  1.635194E-10
        82  16 -1.592344E+06  1.422265E+05  1.327694E+05 -3.454414E+04  1.649115E-09 -6.439670E-10
        82  17 -1.652490E+06  1.309366E+05  1.231473E+05  7.888776E+03 -3.879895E-09  2.922431E-10
        82  18 -1.713186E+06  1.155821E+05  1.108061E+05 -3.569927E+04 -1.139430E-10  5.195327E-10
        82  19 -2.755938E+06 -1.486408E+05 -1.551651E+05 -3.491211E+04  8.143568E+03 -1.067792E+04
        82  20 -2.695277E+06 -1.297760E+05 -1.351037E+05  8.682977E+03  4.979969E+03 -8.957447E+03
        82  21 -2.635224E+06 -1.150322E+05 -1.179696E+05 -3.375197E+04  1.820431E+03 -6.672544E+03
        82  22 -2.174295E+06 -3.194390E+03 -1.118504E+04 -3.472828E+04  8.526669E+03 -1.067755E+04
        82  23 -2.174008E+06  5.905755E+02 -5.967967E+03  8.285983E+03  5.509041E+03 -8.957647E+03
        82  24 -2.174302E+06  2.829545E+02 -3.573734E+03 -3.472531E+04  2.495779E+03 -6.673528E+03
        82  25 -1.592344E+06  1.422267E+05  1.327698E+05 -3.454422E+04  8.910128E+03 -1.067718E+04
        82  26 -1.652490E+06  1.309367E+05  1.231475E+05  7.888732E+03  6.038557E+03 -8.957849E+03
        82  27 -1.713186E+06  1.155821E+05  1.108062E+05 -3.569928E+04  3.171629E+03 -6.674515E+03
        83   1 -2.416256E+06 -6.081926E+04 -6.268660E+04 -3.675326E+04 -1.337920E+03  5.264912E+03
        83   2 -2.348176E+06 -4.348534E+04 -4.502704E+04  1.150620E+04 -3.683408E+02  2.985262E+03
        83   3 -2.280747E+06 -2.652855E+04 -2.818513E+04 -3.680264E+04  5.996544E+02  5.707313E+02
        83   4 -2.174268E+06 -3.472050E+02 -2.938529E+03 -3.706971E+04 -1.920154E+03  5.266041E+03
        83   5 -2.173945E+06  8.062203E+01 -1.872052E+03  1.121411E+04 -9.857959E+02  2.986645E+03
        83   6 -2.174271E+06  1.377002E+02 -1.598389E+03 -3.706866E+04 -5.312858E+01  5.723999E+02
        83   7 -1.932226E+06  6.012046E+04  5.680520E+04 -3.738625E+04 -2.502615E+03  5.267169E+03
        83   8 -1.999686E+06  4.364430E+04  4.128067E+04  1.092196E+04 -1.603425E+03  2.988028E+03
        83   9 -2.067786E+06  2.680310E+04  2.498750E+04 -3.733473E+04 -7.060239E+02  5.740688E+02
        83  10 -2.416256E+06 -6.081929E+04 -6.268666E+04 -3.675325E+04 -6.829771E-10  5.539898E-10
        83  11 -2.348176E+06 -4.348535E+04 -4.502706E+04  1.150620E+04  1.497049E-09  7.250638E-10
        83  12 -2.280747E+06 -2.652855E+04 -2.818513E+04 -3.680264E+04  1.671115E-09 -1.626525E-09
        83  13 -2.174268E+06 -3.472358E+02 -2.938588E+03 -3.706970E+04 -2.282797E-09  1.174993E-10
        83  14 -2.173945E+06  8.061219E+01 -1.872071E+03  1.121411E+04 -1.128769E-09  9.036086E-10
        83  15 -2.174271E+06  1.376998E+02 -1.598390E+03 -3.706866E+04 -2.381247E-09 -4.129891E-10
        83  16 -1.932226E+06  6.012043E+04  5.680513E+04 -3.738624E+04 -2.361394E-09  9.235266E-10
        83  17 -1.999686E+06  4.364429E+04  4.128065E+04  1.092196E+04 -5.905433E-10  4.351200E-10
        83  18 -2.067786E+06  2.680310E+04  2.498750E+04 -3.733473E+04  7.302304E-10 -7.439950E-10
        83  19 -2.416256E+06 -6.081926E+04 -6.268660E+04 -3.675326E+04  1.337920E+03 -5.264912E+03
        83  20 -2.348176E+06 -4.348534E+04 -4.502704E+04  1.150620E+04  3.683408E+02 -2.985262E+03
        83  21 -2.280747E+06 -2.652855E+04 -2.818513E+04 -3.680264E+04 -5.996544E+02 -5.707313E+02
        83  22 -2.174268E+06 -3.472050E+02 -2.938529E+03 -3.706971E+04  1.920154E+03 -5.266041E+03
        83  23 -2.173945E+06  8.062203E+01 -1.872052E+03  1.121411E+04  9.857959E+02 -2.986645E+03
        83  24 -2.174271E+06  1.377002E+02 -1.598389E+03 -3.706866E+04  5.312858E+01 -5.723999E+02
        83  25 -1.932226E+06  6.012046E+04  5.680520E+04 -3.738625E+04  2.502615E+03 -5.267169E+03
        83  26 -1.999686E+06  4.364430E+04  4.128067E+04  1.092196E+04  1.603425E+03 -2.988028E+03
        83  27 -2.067786E+06  2.680310E+04  2.498750E+04 -3.733473E+04  7.060239E+02 -5.740688E+02
        84   1 -2.049441E+06  3.140286E+04  2.950296E+04 -3.731396E+04  8.853616E+02 -8.861442E+02
        84   2 -1.981534E+06  4.819317E+04  4.560907E+04  1.081820E+04  1.863350E+03 -3.299114E+03
        84   3 -1.914260E+06  6.453863E+04  6.088135E+04 -3.733753E+04  2.843313E+03 -5.565971E+03
        84   4 -2.174272E+06  1.512703E+02 -1.626165E+03 -3.700708E+04  2.312506E+02 -8.844813E+02
        84   5 -2.173948E+06  9.142938E+01 -2.038979E+03  1.113720E+04  1.247425E+03 -3.297763E+03
        84   6 -2.174268E+06 -4.197737E+02 -3.312119E+03 -3.700829E+04  2.265468E+03 -5.564898E+03
        84   7 -2.299089E+06 -3.110150E+04 -3.275646E+04 -3.670025E+04 -4.227286E+02 -8.828188E+02
        84   8 -2.366328E+06 -4.801309E+04 -4.968979E+04  1.145611E+04  6.316913E+02 -3.296413E+03
        84   9 -2.434214E+06 -6.538323E+04 -6.751060E+04 -3.667916E+04  1.687864E+03 -5.563825E+03
        84  10 -2.049441E+06  3.140286E+04  2.950295E+04 -3.731396E+04  1.258903E-09 -1.475202E-09
        84  11 -1.981534E+06  4.819316E+04  4.560904E+04  1.081821E+04  8.450790E-10  1.571995E-09
        84  12 -1.914260E+06  6.453859E+04  6.088127E+04 -3.733752E+04  5.411830E-10  1.380836E-09
        84  13 -2.174272E+06  1.512694E+02 -1.626167E+03 -3.700708E+04  2.347730E-09  3.632647E-11
        84  14 -2.173948E+06  9.141729E+01 -2.039002E+03  1.113720E+04  4.253021E-09  1.048243E-09
        84  15 -2.174268E+06 -4.198083E+02 -3.312187E+03 -3.700828E+04  1.121061E-09  4.740773E-10
        84  16 -2.299089E+06 -3.110150E+04 -3.275646E+04 -3.670025E+04 -3.120770E-10 -3.521536E-10
        84  17 -2.366328E+06 -4.801310E+04 -4.968981E+04  1.145612E+04 -3.965628E-09  7.767453E-10
        84  18 -2.434214E+06 -6.538327E+04 -6.751067E+04 -3.667915E+04 -3.349095E-09 -1.142562E-09
        84  19 -2.049441E+06  3.140286E+04  2.950296E+04 -3.731396E+04 -8.853616E+02  8.861442E+02
        84  20 -1.981534E+06  4.819317E+04  4.560907E+04  1.081820E+04 -1.863350E+03  3.299114E+03
        84  21 -1.914260E+06  6.453863E+04  6.088135E+04 -3.733753E+04 -2.843313E+03  5.565971E+03
        84  22 -2.174272E+06  1.512703E+02 -1.626165E+03 -3.700708E+04 -2.312506E+02  8.844813E+02
        84  23 -2.173948E+06  9.142938E+01 -2.038979E+03  1.113720E+04 -1.247425E+03  3.297763E+03
        84  24 -2.174268E+06 -4.197737E+02 -3.312119E+03 -3.700829E+04 -2.265468E+03  5.564898E+03
        84  25 -2.299089E+06 -3.110150E+04 -3.275646E+04 -3.670025E+04  4.227286E+02  8.828188E+02
        84  26 -2.366328E+06 -4.801309E+04 -4.968979E+04  1.145611E+04 -6.316913E+02  3.296413E+03
        84  27 -2.434214E+06 -6.538323E+04 -6.751060E+04 -3.667916E+04 -1.687864E+03  5.563825E+03
        85   1 -1.696524E+06  1.197678E+05  1.144445E+05 -3.557255E+04  3.592338E+03 -6.965439E+03
        85   2 -1.636330E+06  1.350618E+05  1.262724E+05  7.702472E+03  6.896634E+03 -9.234280E+03
        85   3 -1.576819E+06  1.456407E+05  1.349512E+05 -3.426573E+04  1.020556E+04 -1.092765E+04
        85   4 -2.174334E+06  2.969811E+02 -4.067165E+03 -3.455245E+04  2.918649E+03 -6.964523E+03
        85   5 -2.173975E+06  6.862938E+02 -6.834635E+03  8.069997E+03  6.371906E+03 -9.234156E+03
        85   6 -2.174329E+06 -3.667884E+03 -1.285678E+04 -3.455545E+04  9.829475E+03 -1.092810E+04
        85   7 -2.651937E+06 -1.191910E+05 -1.225959E+05 -3.353304E+04  2.245479E+03 -6.963608E+03
        85   8 -2.711356E+06 -1.337109E+05 -1.399632E+05  8.437281E+03  5.847630E+03 -9.234033E+03
        85   9 -2.771513E+06 -1.530032E+05 -1.606914E+05 -3.484483E+04  9.453746E+03 -1.092855E+04
        85  10 -1.696524E+06  1.197677E+05  1.144443E+05 -3.557253E+04 -1.813420E-09  2.481337E-10
        85  11 -1.636330E+06  1.350617E+05  1.262722E+05  7.702523E+03 -1.897099E-09  9.356126E-11
        85  12 -1.576819E+06  1.456405E+05  1.349508E+05 -3.426564E+04  7.431747E-11 -1.296139E-09
        85  13 -2.174335E+06  2.969268E+02 -4.067272E+03 -3.455244E+04 -1.633960E-10 -4.119426E-10
        85  14 -2.173975E+06  6.861914E+02 -6.834872E+03  8.070045E+03 -1.384263E-09 -3.879988E-10
        85  15 -2.174329E+06 -3.668038E+03 -1.285719E+04 -3.455537E+04  3.042695E-10 -1.389369E-09
        85  16 -2.651937E+06 -1.191910E+05 -1.225960E+05 -3.353303E+04 -7.275518E-10 -1.908309E-10
        85  17 -2.711356E+06 -1.337110E+05 -1.399635E+05  8.437324E+03  9.561893E-11  2.905675E-10
        85  18 -2.771513E+06 -1.530034E+05 -1.606918E+05 -3.484475E+04 -8.373310E-10 -6.279289E-10
        85  19 -1.696524E+06  1.197678E+05  1.144445E+05 -3.557255E+04 -3.592338E+03  6.965439E+03
        85  20 -1.636330E+06  1.350618E+05  1.262724E+05  7.702472E+03 -6.896634E+03  9.234280E+03
        85  21 -1.576819E+06  1.456407E+05  1.349512E+05 -3.426573E+04 -1.020556E+04  1.092765E+04
        85  22 -2.174334E+06  2.969811E+02 -4.067165E+03 -3.455245E+04 -2.918649E+03  6.964523E+03
        85  23 -2.173975E+06  6.862938E+02 -6.834635E+03  8.069997E+03 -6.371906E+03  9.234156E+03
        85  24 -2.174329E+06 -3.667884E+03 -1.285678E+04 -3.455545E+04 -9.829475E+03  1.092810E+04
        85  25 -2.651937E+06 -1.191910E+05 -1.225959E+05 -3.353304E+04 -2.245479E+03  6.963608E+03
        85  26 -2.711356E+06 -1.337109E+05 -1.399632E+05  8.437281E+03 -5.847630E+03  9.234033E+03
        85  27 -2.771513E+06 -1.530032E+05 -1.606914E+05 -3.484483E+04 -9.453746E+03  1.092855E+04
        86   1 -1.398531E+06  1.953244E+05  1.765887E+05 -3.232720E+04  1.323907E+04 -1.233094E+04
        86   2 -1.349327E+06  2.108422E+05  1.771502E+05  3.885041E+03  2.637605E+04 -1.428841E+04
        86   3 -1.307706E+06  1.912938E+05  1.609689E+05 -2.445335E+04  3.951506E+04 -1.385167E+04
        86   4 -2.175956E+06  1.012650E+03 -1.602846E+04 -2.996684E+04  1.239698E+04 -1.233174E+04
        86   5 -2.172113E+06  5.241364E+03 -2.648360E+04  2.332380E+03  2.614891E+04 -1.428986E+04
        86   6 -2.175978E+06 -2.573022E+04 -5.412650E+04 -2.992475E+04  3.990193E+04 -1.385252E+04
        86   7 -2.952830E+06 -1.933444E+05 -2.086908E+05 -2.760942E+04  1.155593E+04 -1.233255E+04
        86   8 -2.994282E+06 -2.004102E+05 -2.301678E+05  7.816574E+02  2.592206E+04 -1.429130E+04
        86   9 -3.043564E+06 -2.428108E+05 -2.692782E+05 -3.538874E+04  4.028823E+04 -1.385337E+04
        86  10 -1.398532E+06  1.953242E+05  1.765881E+05 -3.232707E+04 -8.763147E-10 -1.435572E-09
        86  11 -1.349328E+06  2.108418E+05  1.771485E+05  3.885345E+03 -1.184480E-09  3.843032E-10
        86  12 -1.307707E+06  1.912932E+05  1.609656E+05 -2.445291E+04 -3.124983E-09  6.808826E-10
        86  13 -2.175957E+06  1.012445E+03 -1.602903E+04 -2.996672E+04 -1.888894E-09 -1.360830E-09
        86  14 -2.172114E+06  5.240960E+03 -2.648527E+04  2.332681E+03 -3.268674E-09  4.111888E-10
        86  15 -2.175980E+06 -2.573086E+04 -5.412986E+04 -2.992430E+04  1.253415E-09  3.094358E-10
        86  16 -2.952831E+06 -1.933446E+05 -2.086913E+05 -2.760931E+04 -2.635134E-10 -1.031652E-09
        86  17 -2.994282E+06 -2.004106E+05 -2.301695E+05  7.819561E+02 -4.420543E-10 -1.565893E-10
        86  18 -3.043565E+06 -2.428114E+05 -2.692816E+05 -3.538829E+04 -3.064306E-10  1.112395E-09
        86  19 -1.398531E+06  1.953244E+05  1.765887E+05 -3.232720E+04 -1.323907E+04  1.233094E+04
        86  20 -1.349327E+06  2.108422E+05  1.771502E+05  3.885041E+03 -2.637605E+04  1.428841E+04
        86  21 -1.307706E+06  1.912938E+05  1.609689E+05 -2.445335E+04 -3.951506E+04  1.385167E+04
        86  22 -2.175956E+06  1.012650E+03 -1.602846E+04 -2.996684E+04 -1.239698E+04  1.233174E+04
        86  23 -2.172113E+06  5.241364E+03 -2.648360E+04  2.332380E+03 -2.614891E+04  1.428986E+04
        86  24 -2.175978E+06 -2.573022E+04 -5.412650E+04 -2.992475E+04 -3.990193E+04  1.385252E+04
        86  25 -2.952830E+06 -1.933444E+05 -2.086908E+05 -2.760942E+04 -1.155593E+04  1.233255E+04
        86  26 -2.994282E+06 -2.004102E+05 -2.301678E+05  7.816574E+02 -2.592206E+04  1.429130E+04
        86  27 -3.043564E+06 -2.428108E+05 -2.692782E+05 -3.538874E+04 -4.028823E+04  1.385337E+04
        87   1 -1.198516E+06  2.543818E+05  1.795905E+05 -3.751701E+04  5.317435E+04 -1.675124E+04
        87   2 -1.140426E+06  2.919809E+05  1.494181E+05  5.688149E+03  1.045669E+05 -1.885679E+04
        87   3 -1.147205E+06  7.880449E+04  2.399807E+04  1.326713E+04  1.558980E+05 -5.781849E+03
        87   4 -2.188879E+06  7.004398E+03 -6.554326E+04 -2.378626E+04  5.052926E+04 -1.675790E+04
        87   5 -2.156142E+06  3.817678E+04 -1.016860E+05 -5.544613E+03  1.058443E+05 -1.885571E+04
        87   6 -2.189073E+06 -1.823326E+05 -2.359198E+05 -2.293234E+04  1.610952E+05 -5.766253E+03
        87   7 -3.178348E+06 -2.404458E+05 -3.107500E+05 -1.007799E+04  4.788834E+04 -1.676468E+04
        87   8 -3.170916E+06 -2.157043E+05 -3.528667E+05 -1.675977E+04  1.071194E+05 -1.885466E+04
        87   9 -3.229950E+06 -4.435473E+05 -4.959188E+05 -5.907205E+04  1.662835E+05 -5.751258E+03
        87  10 -1.198519E+06  2.543808E+05  1.795846E+05 -3.751629E+04 -7.283918E-10  1.000011E-09
        87  11 -1.140438E+06  2.919776E+05  1.493968E+05  5.689737E+03 -3.650665E-09  8.538152E-10
        87  12 -1.147232E+06  7.879792E+04  2.395225E+04  1.326785E+04  7.271354E-10 -3.959156E-10
        87  13 -2.188882E+06  7.003409E+03 -6.554860E+04 -2.378558E+04 -2.154202E-09  8.084387E-10
        87  14 -2.156154E+06  3.817338E+04 -1.017078E+05 -5.543004E+03 -7.401349E-10  3.004894E-10
        87  15 -2.189101E+06 -1.823397E+05 -2.359688E+05 -2.293159E+04 -8.050004E-10  3.271339E-10
        87  16 -3.178350E+06 -2.404467E+05 -3.107548E+05 -1.007735E+04 -9.130661E-10  1.065182E-09
        87  17 -3.170929E+06 -2.157077E+05 -3.528891E+05 -1.675814E+04  2.980449E-09  2.140853E-09
        87  18 -3.229980E+06 -4.435548E+05 -4.959711E+05 -5.907127E+04 -2.078270E-09  1.496232E-10
        87  19 -1.198516E+06  2.543818E+05  1.795905E+05 -3.751701E+04 -5.317435E+04  1.675124E+04
        87  20 -1.140426E+06  2.919809E+05  1.494181E+05  5.688149E+03 -1.045669E+05  1.885679E+04
        87  21 -1.147205E+06  7.880449E+04  2.399807E+04  1.326713E+04 -1.558980E+05  5.781849E+03
        87  22 -2.188879E+06  7.004398E+03 -6.554326E+04 -2.378626E+04 -5.052926E+04  1.675790E+04
        87  23 -2.156142E+06  3.817678E+04 -1.016860E+05 -5.544613E+03 -1.058443E+05  1.885571E+04
        87  24 -2.189073E+06 -1.823326E+05 -2.359198E+05 -2.293234E+04 -1.610952E+05  5.766253E+03
        87  25 -3.178348E+06 -2.404458E+05 -3.107500E+05 -1.007799E+04 -4.788834E+04  1.676468E+04
        87  26 -3.170916E+06 -2.157043E+05 -3.528667E+05 -1.675977E+04 -1.071194E+05  1.885466E+04
        87  27 -3.229950E+06 -4.435473E+05 -4.959188E+05 -5.907205E+04 -1.662835E+05  5.751258E+03
        88   1  6.613133E+05  1.726930E+06  6.923633E+05 -2.301345E+05  1.263218E+04  1.187146E+05
        88   2  4.293418E+05  1.371481E+06  5.150253E+05  1.659043E+04  3.514373E+04  7.389489E+04
        88   3  3.731331E+05  1.070399E+06  4.117268E+05 -2.015384E+05  2.144788E+04  2.881505E+04
        88   4  1.223255E+05 -4.311926E+05  1.555280E+05 -1.991257E+05  1.270438E+04  1.078034E+05
        88   5 -2.667392E+04 -4.577005E+05  6.411158E+04  3.296334E+04  3.516068E+04  7.267930E+04
        88   6 -1.324955E+03 -4.314766E+05  4.018309E+04 -1.998783E+05  2.136475E+04  3.727065E+04
        88   7 -4.170096E+05 -2.585094E+06 -3.816558E+05 -1.682176E+05  1.277564E+04  9.692953E+04
        88   8 -4.829385E+05 -2.283842E+06 -3.870496E+05  4.929391E+04  3.517759E+04  7.146704E+04
        88   9 -3.759515E+05 -1.931304E+06 -3.315280E+05 -1.982167E+05  2.128157E+04  4.570574E+04
        88  10  6.613094E+05  1.726915E+06  6.923366E+05 -2.301357E+05 -6.915314E-10  9.721419E-10
        88  11  4.293391E+05  1.371475E+06  5.150127E+05  1.658834E+04 -3.793703E-10  1.346619E-09
        88  12  3.731324E+05  1.070398E+06  4.117244E+05 -2.015389E+05 -1.618283E-09  3.009287E-10
        88  13  1.223222E+05 -4.312052E+05  1.555059E+05 -1.991268E+05 -3.444108E-10 -7.160356E-11
        88  14 -2.667667E+04 -4.577065E+05  6.409932E+04  3.296128E+04  2.726405E-09  4.705093E-11
        88  15 -1.325819E+03 -4.314782E+05  4.017962E+04 -1.998790E+05  2.504764E-09 -4.776922E-11
        88  16 -4.170123E+05 -2.585104E+06 -3.816738E+05 -1.682186E+05 -9.523560E-10 -9.459105E-10
        88  17 -4.829412E+05 -2.283848E+06 -3.870616E+05  4.929189E+04  6.348869E-10 -1.480152E-09
        88  18 -3.759526E+05 -1.931306E+06 -3.315328E+05 -1.982175E+05  8.236284E-10 -5.400160E-10
        88  19  6.613133E+05  1.726930E+06  6.923633E+05 -2.301345E+05 -1.263218E+04 -1.187146E+05
        88  20  4.293418E+05  1.371481E+06  5.150253E+05  1.659043E+04 -3.514373E+04 -7.389489E+04
        88  21  3.731331E+05  1.070399E+06  4.117268E+05 -2.015384E+05 -2.144788E+04 -2.881505E+04
        88  22  1.223255E+05 -4.311926E+05  1.555280E+05 -1.991257E+05 -1.270438E+04 -1.078034E+05
        88  23 -2.667392E+04 -4.577005E+05  6.411158E+04  3.296334E+04 -3.516068E+04 -7.267930E+04
        88  24 -1.324955E+03 -4.314766E+05  4.018309E+04 -1.998783E+05 -2.136475E+04 -3.727065E+04
        88  25 -4.170096E+05 -2.585094E+06 -3.816558E+05 -1.682176E+05 -1.277564E+04 -9.692953E+04
        88  26 -4.829385E+05 -2.283842E+06 -3.870496E+05  4.929391E+04 -3.517759E+04 -7.146704E+04
        88  27 -3.759515E+05 -1.931304E+06 -3.315280E+05 -1.982167E+05 -2.128157E+04 -4.570574E+04
        89   1  1.176485E+05 -5.470675E+04  1.264121E+05 -2.058743E+05  8.343709E+03  2.874403E+04
        89   2  1.231015E+04 -3.827305E+05  2.329358E+04  3.319769E+04  7.543347E+02  2.396387E+04
        89   3 -7.339449E+04 -7.176070E+05 -7.438757E+04 -1.990473E+05 -7.052960E+03  1.918219E+04
        89   4  2.049630E+04 -4.440402E+05  3.052474E+04 -2.008635E+05  8.322747E+03  3.072423E+04
        89   5 -2.154979E+03 -4.405723E+05  8.993838E+03  3.465858E+04  7.325569E+02  2.600711E+04
        89   6 -5.171233E+03 -4.440587E+05 -7.126279E+03 -2.011374E+05 -7.075769E+03  2.128596E+04
        89   7 -7.666717E+04 -8.332356E+05 -6.537384E+04 -1.958556E+05  8.301810E+03  3.270319E+04
        89   8 -1.662035E+04 -4.984109E+05 -5.306132E+03  3.611935E+04  7.107878E+02  2.805015E+04
        89   9  6.304646E+04 -1.704423E+05  6.012952E+04 -2.032283E+05 -7.098588E+03  2.339066E+04
        89  10  1.176482E+05 -5.470766E+04  1.264105E+05 -2.058745E+05 -2.366339E-10 -2.370301E-09
        89  11  1.231000E+04 -3.827311E+05  2.329249E+04  3.319767E+04 -1.116776E-09 -1.557150E-09
        89  12 -7.339464E+04 -7.176074E+05 -7.438836E+04 -1.990472E+05  2.257498E-09  1.498754E-09
        89  13  2.049597E+04 -4.440412E+05  3.052283E+04 -2.008637E+05  3.606057E-09 -4.962282E-11
        89  14 -2.155161E+03 -4.405730E+05  8.992565E+03  3.465857E+04  2.995755E-09  1.727910E-10
        89  15 -5.171409E+03 -4.440592E+05 -7.127225E+03 -2.011373E+05  4.191920E-09  1.901089E-10
        89  16 -7.666753E+04 -8.332368E+05 -6.537598E+04 -1.958558E+05 -2.806165E-09  2.383568E-09
        89  17 -1.662056E+04 -4.984118E+05 -5.307613E+03  3.611933E+04  2.667811E-09  1.616149E-09
        89  18  6.304626E+04 -1.704429E+05  6.012839E+04 -2.032281E+05  1.744082E-10 -1.393395E-09
        89  19  1.176485E+05 -5.470675E+04  1.264121E+05 -2.058743E+05 -8.343709E+03 -2.874403E+04
        89  20  1.231015E+04 -3.827305E+05  2.329358E+04  3.319769E+04 -7.543347E+02 -2.396387E+04
        89  21 -7.339449E+04 -7.176070E+05 -7.438757E+04 -1.990473E+05  7.052960E+03 -1.918219E+04
        89  22  2.049630E+04 -4.440402E+05  3.052474E+04 -2.008635E+05 -8.322747E+03 -3.072423E+04
        89  23 -2.154979E+03 -4.405723E+05  8.993838E+03  3.465858E+04 -7.325569E+02 -2.600711E+04
        89  24 -5.171233E+03 -4.440587E+05 -7.126279E+03 -2.011374E+05  7.075769E+03 -2.128596E+04
        89  25 -7.666717E+04 -8.332356E+05 -6.537384E+04 -1.958556E+05 -8.301810E+03 -3.270319E+04
        89  26 -1.662035E+04 -4.984109E+05 -5.306132E+03  3.611935E+04 -7.107878E+02 -2.805015E+04
        89  27  6.304646E+04 -1.704423E+05  6.012952E+04 -2.032283E+05  7.098588E+03 -2.339066E+04
        90   1 -3.372016E+05 -1.831946E+06 -3.557421E+05 -1.841570E+05 -1.989512E+04  1.451223E+04
        90   2 -4.171951E+05 -2.150546E+06 -4.526939E+05  4.090464E+04 -3.393355E+04  3.960988E+04
        90   3 -5.665436E+05 -2.487257E+06 -5.829701E+05 -2.005108E+05 -1.306220E+04  6.498186E+04
        90   4  9.133537E+03 -4.467855E+05 -1.233045E+04 -1.997484E+05 -1.997825E+04  2.277920E+04
        90   5  1.038249E+04 -4.384132E+05 -2.976934E+04  3.322928E+04 -3.392019E+04  3.872816E+04
        90   6 -5.599594E+04 -4.465704E+05 -7.409137E+04 -2.001943E+05 -1.299387E+04  5.496484E+04
        90   7  3.553253E+05  9.401216E+05  3.309383E+05 -2.153700E+05 -2.006170E+04  3.106459E+04
        90   8  4.377410E+05  1.276392E+06  3.929377E+05  2.553809E+04 -3.390683E+04  3.784389E+04
        90   9  4.542378E+05  1.597904E+06  4.344744E+05 -1.998701E+05 -1.292566E+04  4.491456E+04
        90  10 -3.372020E+05 -1.831946E+06 -3.557433E+05 -1.841567E+05 -2.186210E-09  9.257780E-10
        90  11 -4.171967E+05 -2.150548E+06 -4.526990E+05  4.090573E+04 -7.797553E-10  3.622830E-11
        90  12 -5.665449E+05 -2.487262E+06 -5.829784E+05 -2.005101E+05 -7.748527E-12  2.489328E-10
        90  13  9.132970E+03 -4.467862E+05 -1.233217E+04 -1.997481E+05 -3.393296E-09  6.047248E-11
        90  14  1.038086E+04 -4.384151E+05 -2.977433E+04  3.323034E+04 -8.980163E-10 -4.275950E-11
        90  15 -5.599693E+04 -4.465737E+05 -7.409737E+04 -2.001937E+05 -4.224374E-10 -1.731617E-10
        90  16  3.553246E+05  9.401205E+05  3.309358E+05 -2.153695E+05 -1.063374E-10 -8.108041E-10
        90  17  4.377394E+05  1.276390E+06  3.929328E+05  2.553912E+04 -1.117286E-09  1.420069E-11
        90  18  4.542371E+05  1.597901E+06  4.344703E+05 -1.998696E+05  1.005881E-09 -1.762614E-10
        90  19 -3.372016E+05 -1.831946E+06 -3.557421E+05 -1.841570E+05  1.989512E+04 -1.451223E+04
        90  20 -4.171951E+05 -2.150546E+06 -4.526939E+05  4.090464E+04  3.393355E+04 -3.960988E+04
        90  21 -5.665436E+05 -2.487257E+06 -5.829701E+05 -2.005108E+05  1.306220E+04 -6.498186E+04
        90  22  9.133537E+03 -4.467855E+05 -1.233045E+04 -1.997484E+05  1.997825E+04 -2.277920E+04
        90  23  1.038249E+04 -4.384132E+05 -2.976934E+04  3.322928E+04  3.392019E+04 -3.872816E+04
        90  24 -5.599594E+04 -4.465704E+05 -7.409137E+04 -2.001943E+05  1.299387E+04 -5.496484E+04
        90  25  3.553253E+05  9.401216E+05  3.309383E+05 -2.153700E+05  2.006170E+04 -3.106459E+04
        90  26  4.377410E+05  1.276392E+06  3.929377E+05  2.553809E+04  3.390683E+04 -3.784389E+04
        90  27  4.542378E+05  1.597904E+06  4.344744E+05 -1.998701E+05  1.292566E+04 -4.491456E+04
        91   1 -6.847141E+06 -2.120677E+06 -1.399804E+06 -2.357513E+06 -7.390714E+05 -2.721712E+05
        91   2 -6.658628E+06 -1.059196E+06 -7.165050E+05 -2.553055E+06 -4.786051E+05 -1.552489E+05
        91   3 -6.928048E+06 -1.102609E+06 -5.373236E+05 -2.453223E+06 -2.117292E+05 -5.520885E+04
        91   4 -6.096542E+06 -1.650042E+06 -1.155680E+06 -1.965606E+06 -7.316655E+05 -2.696297E+05
        91   5 -5.807425E+06 -6.856702E+05 -4.754483E+05 -2.269554E+06 -4.765847E+05 -1.545324E+05
        91   6 -5.974623E+06 -8.242657E+05 -2.945494E+05 -2.278318E+06 -2.150518E+05 -5.643337E+04
        91   7 -5.345306E+06 -1.179006E+06 -9.116076E+05 -1.573169E+06 -7.242492E+05 -2.670784E+05
        91   8 -4.955509E+06 -3.120293E+05 -2.344615E+05 -1.985673E+06 -4.745609E+05 -1.538141E+05
        91   9 -5.020305E+06 -5.459417E+05 -5.184242E+04 -2.103209E+06 -2.183798E+05 -5.765885E+04
        91  10 -6.847754E+06 -2.120907E+06 -1.400984E+06 -2.357677E+06  3.647522E-09 -5.311115E-10
        91  11 -6.658883E+06 -1.059284E+06 -7.169868E+05 -2.553115E+06 -3.374312E-09 -9.625863E-10
        91  12 -6.928097E+06 -1.102624E+06 -5.374147E+05 -2.453233E+06 -2.223241E-09 -8.121995E-10
        91  13 -6.097141E+06 -1.650266E+06 -1.156835E+06 -1.965766E+06 -4.822659E-09 -1.616880E-10
        91  14 -5.807678E+06 -6.857579E+05 -4.759252E+05 -2.269614E+06  8.684294E-09 -8.928372E-10
        91  15 -5.974674E+06 -8.242817E+05 -2.946433E+05 -2.278328E+06  1.282271E-09 -2.550221E-10
        91  16 -5.345893E+06 -1.179225E+06 -9.127380E+05 -1.573326E+06  2.016431E-09 -2.323446E-10
        91  17 -4.955759E+06 -3.121161E+05 -2.349336E+05 -1.985732E+06  6.596408E-10 -9.132939E-11
        91  18 -5.020358E+06 -5.459583E+05 -5.193919E+04 -2.103219E+06 -4.669802E-10  1.753971E-11
        91  19 -6.847141E+06 -2.120677E+06 -1.399804E+06 -2.357513E+06  7.390714E+05  2.721712E+05
        91  20 -6.658628E+06 -1.059196E+06 -7.165050E+05 -2.553055E+06  4.786051E+05  1.552489E+05
        91  21 -6.928048E+06 -1.102609E+06 -5.373236E+05 -2.453223E+06  2.117292E+05  5.520885E+04
        91  22 -6.096542E+06 -1.650042E+06 -1.155680E+06 -1.965606E+06  7.316655E+05  2.696297E+05
        91  23 -5.807425E+06 -6.856702E+05 -4.754483E+05 -2.269554E+06  4.765847E+05  1.545324E+05
        91  24 -5.974623E+06 -8.242657E+05 -2.945494E+05 -2.278318E+06  2.150518E+05  5.643337E+04
        91  25 -5.345306E+06 -1.179006E+06 -9.116076E+05 -1.573169E+06  7.242492E+05  2.670784E+05
        91  26 -4.955509E+06 -3.120293E+05 -2.344615E+05 -1.985673E+06  4.745609E+05  1.538141E+05
        91  27 -5.020305E+06 -5.459417E+05 -5.184242E+04 -2.103209E+06  2.183798E+05  5.765885E+04
        92   1 -6.763086E+06 -1.300498E+06 -4.729184E+05 -2.464599E+06 -1.715365E+05 -4.302362E+04
        92   2 -6.713912E+06 -1.130631E+06 -3.322905E+05 -2.459915E+06 -1.121371E+05 -1.983560E+04
        92   3 -6.693214E+06 -1.137762E+06 -2.756598E+05 -2.454923E+06 -5.167985E+04  5.565621E+02
        92   4 -5.929465E+06 -9.612722E+05 -2.413762E+05 -2.214097E+06 -1.710127E+05 -4.283544E+04
        92   5 -5.907460E+06 -8.191270E+05 -1.119570E+05 -2.234449E+06 -1.124706E+05 -1.996455E+04
        92   6 -5.913682E+06 -8.536862E+05 -6.576103E+04 -2.254510E+06 -5.287405E+04  1.069904E+02
        92   7 -5.095167E+06 -6.219767E+05 -9.899605E+03 -1.963277E+06 -1.704880E+05 -4.264685E+04
        92   8 -5.100376E+06 -5.075776E+05  1.083171E+05 -2.008714E+06 -1.128044E+05 -2.009365E+04
        92   9 -5.133560E+06 -5.695855E+05  1.440843E+05 -2.053871E+06 -5.406990E+04 -3.431403E+02
        92  10 -6.763118E+06 -1.300508E+06 -4.729779E+05 -2.464605E+06 -4.934906E-09 -1.388605E-09
        92  11 -6.713926E+06 -1.130635E+06 -3.323152E+05 -2.459917E+06 -2.368419E-09 -9.995899E-10
        92  12 -6.693217E+06 -1.137763E+06 -2.756648E+05 -2.454923E+06  1.991185E-09  5.346110E-10
        92  13 -5.929497E+06 -9.612821E+05 -2.414352E+05 -2.214103E+06  1.016229E-09  3.248698E-10
        92  14 -5.907474E+06 -8.191309E+05 -1.119818E+05 -2.234451E+06 -5.865663E-09  7.720935E-11
        92  15 -5.913685E+06 -8.536870E+05 -6.576633E+04 -2.254510E+06 -6.918423E-09 -1.259841E-09
        92  16 -5.095199E+06 -6.219866E+05 -9.958185E+03 -1.963283E+06  2.492461E-09  1.472464E-09
        92  17 -5.100390E+06 -5.075814E+05  1.082922E+05 -2.008715E+06 -4.898984E-09 -5.975778E-10
        92  18 -5.133563E+06 -5.695863E+05  1.440788E+05 -2.053871E+06 -4.395332E-09 -2.537619E-09
        92  19 -6.763086E+06 -1.300498E+06 -4.729184E+05 -2.464599E+06  1.715365E+05  4.302362E+04
        92  20 -6.713912E+06 -1.130631E+06 -3.322905E+05 -2.459915E+06  1.121371E+05  1.983560E+04
        92  21 -6.693214E+06 -1.137762E+06 -2.756598E+05 -2.454923E+06  5.167985E+04 -5.565621E+02
        92  22 -5.929465E+06 -9.612722E+05 -2.413762E+05 -2.214097E+06  1.710127E+05  4.283544E+04
        92  23 -5.907460E+06 -8.191270E+05 -1.119570E+05 -2.234449E+06  1.124706E+05  1.996455E+04
        92  24 -5.913682E+06 -8.536862E+05 -6.576103E+04 -2.254510E+06  5.287405E+04 -1.069904E+02
        92  25 -5.095167E+06 -6.219767E+05 -9.899605E+03 -1.963277E+06  1.704880E+05  4.264685E+04
        92  26 -5.100376E+06 -5.075776E+05  1.083171E+05 -2.008714E+06  1.128044E+05  2.009365E+04
        92  27 -5.133560E+06 -5.695855E+05  1.440843E+05 -2.053871E+06  5.406990E+04  3.431403E+02
        93   1 -6.535907E+06 -1.119140E+06 -2.246090E+05 -2.427017E+06 -4.202281E+04  2.315349E+03
        93   2 -6.488075E+06 -1.042387E+06 -1.785425E+05 -2.374968E+06 -2.744747E+04  5.079650E+03
        93   3 -6.387520E+06 -1.045226E+06 -1.476859E+05 -2.387828E+06 -1.253973E+04  6.947125E+03
        93   4 -5.902033E+06 -8.766976E+05 -5.202969E+04 -2.252200E+06 -4.269245E+04  2.062476E+03
        93   5 -5.927392E+06 -8.298984E+05 -2.616017E+04 -2.222369E+06 -2.840288E+04  4.720599E+03
        93   6 -5.899969E+06 -8.626187E+05 -1.525885E+04 -2.257446E+06 -1.378285E+04  6.481513E+03
        93   7 -5.267769E+06 -6.342290E+05  1.205131E+05 -2.077219E+06 -4.336282E+04  1.809319E+03
        93   8 -5.366404E+06 -6.173917E+05  1.261936E+05 -2.069645E+06 -2.935923E+04  4.361191E+03
        93   9 -5.412189E+06 -6.799993E+05  1.171465E+05 -2.126973E+06 -1.502706E+04  6.015506E+03
        93  10 -6.535909E+06 -1.119141E+06 -2.246123E+05 -2.427017E+06 -3.414204E-09 -3.311800E-10
        93  11 -6.488076E+06 -1.042387E+06 -1.785439E+05 -2.374967E+06 -3.097055E-09  1.520164E-10
        93  12 -6.387520E+06 -1.045226E+06 -1.476863E+05 -2.387828E+06 -2.723278E-09 -1.048910E-10
        93  13 -5.902035E+06 -8.766981E+05 -5.203315E+04 -2.252200E+06 -4.165829E-09 -7.958868E-10
        93  14 -5.927393E+06 -8.298987E+05 -2.616174E+04 -2.222369E+06  1.395467E-09  6.429963E-10
        93  15 -5.899969E+06 -8.626188E+05 -1.525929E+04 -2.257446E+06 -2.829772E-09  1.058181E-10
        93  16 -5.267771E+06 -6.342295E+05  1.205095E+05 -2.077219E+06 -7.686090E-10 -2.788665E-10
        93  17 -5.366405E+06 -6.173920E+05  1.261919E+05 -2.069645E+06 -1.504710E-09  8.235903E-10
        93  18 -5.412189E+06 -6.799994E+05  1.171460E+05 -2.126973E+06 -1.513399E-09  3.151451E-10
        93  19 -6.535907E+06 -1.119140E+06 -2.246090E+05 -2.427017E+06  4.202281E+04 -2.315349E+03
        93  20 -6.488075E+06 -1.042387E+06 -1.785425E+05 -2.374968E+06  2.744747E+04 -5.079650E+03
        93  21 -6.387520E+06 -1.045226E+06 -1.476859E+05 -2.387828E+06  1.253973E+04 -6.947125E+03
        93  22 -5.902033E+06 -8.766976E+05 -5.202969E+04 -2.252200E+06  4.269245E+04 -2.062476E+03
        93  23 -5.927392E+06 -8.298984E+05 -2.616017E+04 -2.222369E+06  2.840288E+04 -4.720599E+03
        93  24 -5.899969E+06 -8.626187E+05 -1.525885E+04 -2.257446E+06  1.378285E+04 -6.481513E+03
        93  25 -5.267769E+06 -6.342290E+05  1.205131E+05 -2.077219E+06  4.336282E+04 -1.809319E+03
        93  26 -5.366404E+06 -6.173917E+05  1.261936E+05 -2.069645E+06  2.935923E+04 -4.361191E+03
        93  27 -5.412189E+06 -6.799993E+05  1.171465E+05 -2.126973E+06  1.502706E+04 -6.015506E+03
        94   1 -6.181347E+06 -9.762340E+05 -8.939298E+04 -2.337815E+06 -9.624026E+03  5.652765E+03
        94   2 -6.124620E+06 -9.001401E+05 -5.928733E+04 -2.268781E+06 -4.528945E+03  3.541316E+03
        94   3 -5.993095E+06 -9.031903E+05 -3.276891E+04 -2.286914E+06  6.606456E+02  1.172260E+03
        94   4 -5.895838E+06 -8.682445E+05 -1.215311E+04 -2.260235E+06 -1.076093E+04  5.227504E+03
        94   5 -5.933119E+06 -8.278636E+05 -7.309537E+03 -2.216954E+06 -5.750332E+03  3.084876E+03
        94   6 -5.895597E+06 -8.666083E+05 -5.984237E+03 -2.260841E+06 -6.459007E+02  6.844738E+02
        94   7 -5.610248E+06 -7.602499E+05  6.507971E+04 -2.182621E+06 -1.189842E+04  4.802024E+03
        94   8 -5.741582E+06 -7.555850E+05  4.466490E+04 -2.165111E+06 -6.972135E+03  2.628280E+03
        94   9 -5.798089E+06 -8.300259E+05  2.079942E+04 -2.234764E+06 -1.952668E+03  1.966068E+02
        94  10 -6.181348E+06 -9.762341E+05 -8.939322E+04 -2.337815E+06 -1.885329E-09 -9.399924E-10
        94  11 -6.124620E+06 -9.001401E+05 -5.928740E+04 -2.268781E+06 -1.261450E-09 -3.133012E-09
        94  12 -5.993095E+06 -9.031903E+05 -3.276891E+04 -2.286914E+06 -8.955241E-10 -8.283471E-10
        94  13 -5.895838E+06 -8.682446E+05 -1.215338E+04 -2.260234E+06 -2.151887E-09 -9.136957E-10
        94  14 -5.933119E+06 -8.278636E+05 -7.309617E+03 -2.216954E+06 -1.365604E-09 -8.273068E-10
        94  15 -5.895597E+06 -8.666083E+05 -5.984239E+03 -2.260841E+06 -2.131919E-09 -2.388099E-10
        94  16 -5.610248E+06 -7.602500E+05  6.507940E+04 -2.182621E+06 -2.025317E-09 -4.591502E-10
        94  17 -5.741582E+06 -7.555851E+05  4.466479E+04 -2.165111E+06 -4.294064E-09  5.546147E-11
        94  18 -5.798089E+06 -8.300259E+05  2.079941E+04 -2.234764E+06 -1.910241E-09 -1.463500E-09
        94  19 -6.181347E+06 -9.762340E+05 -8.939298E+04 -2.337815E+06  9.624026E+03 -5.652765E+03
        94  20 -6.124620E+06 -9.001401E+05 -5.928733E+04 -2.268781E+06  4.528945E+03 -3.541316E+03
        94  21 -5.993095E+06 -9.031903E+05 -3.276891E+04 -2.286914E+06 -6.606456E+02 -1.172260E+03
        94  22 -5.895838E+06 -8.682445E+05 -1.215311E+04 -2.260235E+06  1.076093E+04 -5.227504E+03
        94  23 -5.933119E+06 -8.278636E+05 -7.309537E+03 -2.216954E+06  5.750332E+03 -3.084876E+03
        94  24 -5.895597E+06 -8.666083E+05 -5.984237E+03 -2.260841E+06  6.459007E+02 -6.844738E+02
        94  25 -5.610248E+06 -7.602499E+05  6.507971E+04 -2.182621E+06  1.189842E+04 -4.802024E+03
        94  26 -5.741582E+06 -7.555850E+05  4.466490E+04 -2.165111E+06  6.972135E+03 -2.628280E+03
        94  27 -5.798089E+06 -8.300259E+05  2.079942E+04 -2.234764E+06  1.952668E+03 -1.966068E+02
        95   1 -5.769727E+06 -8.191537E+05  2.847289E+04 -2.226948E+06  2.508718E+03 -7.589174E+02
        95   2 -5.713636E+06 -7.452331E+05  5.187604E+04 -2.157770E+06  7.678130E+03 -3.123512E+03
        95   3 -5.583306E+06 -7.500092E+05  7.168332E+04 -2.175068E+06  1.274063E+04 -5.192344E+03
        95   4 -5.895722E+06 -8.664617E+05 -6.037740E+03 -2.260710E+06  1.198796E+03 -1.247987E+03
        95   5 -5.932961E+06 -8.279994E+05 -7.638105E+03 -2.217136E+06  6.465549E+03 -3.576746E+03
        95   6 -5.895986E+06 -8.682565E+05 -1.291219E+04 -2.260045E+06  1.162474E+04 -5.609898E+03
        95   7 -6.021702E+06 -9.137690E+05 -4.054990E+04 -2.294466E+06 -1.108345E+02 -1.736948E+03
        95   8 -6.152239E+06 -9.107633E+05 -6.715685E+04 -2.276484E+06  5.253437E+03 -4.029806E+03
        95   9 -6.208572E+06 -9.864987E+05 -9.751702E+04 -2.344983E+06  1.050947E+04 -6.027220E+03
        95  10 -5.769727E+06 -8.191537E+05  2.847288E+04 -2.226948E+06  8.886430E-10  3.746816E-10
        95  11 -5.713636E+06 -7.452331E+05  5.187591E+04 -2.157770E+06  7.832690E-10 -8.971802E-10
        95  12 -5.583306E+06 -7.500093E+05  7.168296E+04 -2.175068E+06 -1.210373E-10 -4.166313E-10
        95  13 -5.895722E+06 -8.664617E+05 -6.037745E+03 -2.260710E+06 -8.729789E-10 -3.437875E-10
        95  14 -5.932961E+06 -8.279994E+05 -7.638208E+03 -2.217136E+06  1.066194E-09 -1.516691E-09
        95  15 -5.895986E+06 -8.682565E+05 -1.291250E+04 -2.260045E+06  4.420519E-09  5.650015E-10
        95  16 -6.021702E+06 -9.137690E+05 -4.054991E+04 -2.294466E+06 -2.711195E-10 -1.665093E-09
        95  17 -6.152239E+06 -9.107633E+05 -6.715693E+04 -2.276484E+06 -1.412685E-10  1.366098E-10
        95  18 -6.208573E+06 -9.864988E+05 -9.751730E+04 -2.344983E+06  2.352565E-09 -4.623907E-10
        95  19 -5.769727E+06 -8.191537E+05  2.847289E+04 -2.226948E+06 -2.508718E+03  7.589174E+02
        95  20 -5.713636E+06 -7.452331E+05  5.187604E+04 -2.157770E+06 -7.678130E+03  3.123512E+03
        95  21 -5.583306E+06 -7.500092E+05  7.168332E+04 -2.175068E+06 -1.274063E+04  5.192344E+03
        95  22 -5.895722E+06 -8.664617E+05 -6.037740E+03 -2.260710E+06 -1.198796E+03  1.247987E+03
        95  23 -5.932961E+06 -8.279994E+05 -7.638105E+03 -2.217136E+06 -6.465549E+03  3.576746E+03
        95  24 -5.895986E+06 -8.682565E+05 -1.291219E+04 -2.260045E+06 -1.162474E+04  5.609898E+03
        95  25 -6.021702E+06 -9.137690E+05 -4.054990E+04 -2.294466E+06  1.108345E+02  1.736948E+03
        95  26 -6.152239E+06 -9.107633E+05 -6.715685E+04 -2.276484E+06 -5.253437E+03  4.029806E+03
        95  27 -6.208572E+06 -9.864987E+05 -9.751702E+04 -2.344983E+06 -1.050947E+04  6.027220E+03
        96   1 -5.389002E+06 -6.707837E+05  1.225245E+05 -2.120289E+06  1.600433E+04 -6.313670E+03
        96   2 -5.344299E+06 -6.094242E+05  1.302246E+05 -2.064259E+06  3.124169E+04 -4.241967E+03
        96   3 -5.248945E+06 -6.272637E+05  1.221392E+05 -2.070965E+06  4.614152E+04 -1.249942E+03
        96   4 -5.900419E+06 -8.622458E+05 -1.627252E+04 -2.257087E+06  1.477823E+04 -6.773095E+03
        96   5 -5.926814E+06 -8.301451E+05 -2.798582E+04 -2.222907E+06  3.030980E+04 -4.592397E+03
        96   6 -5.902630E+06 -8.773188E+05 -5.573138E+04 -2.251468E+06  4.550194E+04 -1.491736E+03
        96   7 -6.411579E+06 -1.053693E+06 -1.550923E+05 -2.393783E+06  1.355326E+04 -7.232109E+03
        96   8 -6.508998E+06 -1.050845E+06 -1.862264E+05 -2.381419E+06  2.937887E+04 -4.942464E+03
        96   9 -6.555899E+06 -1.127346E+06 -2.336405E+05 -2.431797E+06  4.486309E+04 -1.733251E+03
        96  10 -5.389003E+06 -6.707838E+05  1.225239E+05 -2.120289E+06  2.480988E-09 -3.036415E-10
        96  11 -5.344300E+06 -6.094245E+05  1.302228E+05 -2.064259E+06  2.897226E-09 -6.848038E-11
        96  12 -5.248947E+06 -6.272643E+05  1.221351E+05 -2.070965E+06  6.448204E-10  2.627657E-10
        96  13 -5.900419E+06 -8.622460E+05 -1.627302E+04 -2.257087E+06  3.308697E-09  2.167490E-10
        96  14 -5.926815E+06 -8.301454E+05 -2.798760E+04 -2.222907E+06  2.503179E-09 -9.034967E-10
        96  15 -5.902632E+06 -8.773194E+05 -5.573531E+04 -2.251468E+06 -1.691344E-09 -9.848386E-12
        96  16 -6.411579E+06 -1.053693E+06 -1.550927E+05 -2.393783E+06  9.019588E-10  1.388870E-09
        96  17 -6.508999E+06 -1.050845E+06 -1.862281E+05 -2.381419E+06  2.093448E-11 -3.240319E-10
        96  18 -6.555901E+06 -1.127347E+06 -2.336443E+05 -2.431797E+06 -4.539925E-10  7.104036E-10
        96  19 -5.389002E+06 -6.707837E+05  1.225245E+05 -2.120289E+06 -1.600433E+04  6.313670E+03
        96  20 -5.344299E+06 -6.094242E+05  1.302246E+05 -2.064259E+06 -3.124169E+04  4.241967E+03
        96  21 -5.248945E+06 -6.272637E+05  1.221392E+05 -2.070965E+06 -4.614152E+04  1.249942E+03
        96  22 -5.900419E+06 -8.622458E+05 -1.627252E+04 -2.257087E+06 -1.477823E+04  6.773095E+03
        96  23 -5.926814E+06 -8.301451E+05 -2.798582E+04 -2.222907E+06 -3.030980E+04  4.592397E+03
        96  24 -5.902630E+06 -8.773188E+05 -5.573138E+04 -2.251468E+06 -4.550194E+04  1.491736E+03
        96  25 -6.411579E+06 -1.053693E+06 -1.550923E+05 -2.393783E+06 -1.355326E+04  7.232109E+03
        96  26 -6.508998E+06 -1.050845E+06 -1.862264E+05 -2.381419E+06 -2.937887E+04  4.942464E+03
        96  27 -6.555899E+06 -1.127346E+06 -2.336405E+05 -2.431797E+06 -4.486309E+04  1.733251E+03
        97   1 -5.120191E+06 -5.640965E+05  1.431772E+05 -2.050437E+06  5.750859E+04  1.221824E+03
        97   2 -5.087910E+06 -5.020993E+05  1.033482E+05 -2.006248E+06  1.204066E+05  2.267289E+04
        97   3 -5.090397E+06 -6.245239E+05 -2.490730E+04 -1.956489E+06  1.822513E+05  4.693468E+04
        97   4 -5.914835E+06 -8.529650E+05 -7.045818E+04 -2.254286E+06  5.634445E+04  7.835191E+02
        97   5 -5.905784E+06 -8.182255E+05 -1.199518E+05 -2.235422E+06  1.201006E+05  2.255396E+04
        97   6 -5.931757E+06 -9.682163E+05 -2.586500E+05 -2.210974E+06  1.827999E+05  4.713125E+04
        97   7 -6.708869E+06 -1.141810E+06 -2.841497E+05 -2.457904E+06  5.518192E+04  3.457631E+02
        97   8 -6.723009E+06 -1.134305E+06 -3.433130E+05 -2.464319E+06  1.197948E+05  2.243517E+04
        97   9 -6.772428E+06 -1.311835E+06 -4.924592E+05 -2.465134E+06  1.833476E+05  4.732737E+04
        97  10 -5.120195E+06 -5.640974E+05  1.431709E+05 -2.050437E+06  9.897072E-10  8.420865E-10
        97  11 -5.087926E+06 -5.021038E+05  1.033198E+05 -2.006250E+06  2.370299E-09 -1.214899E-10
        97  12 -5.090433E+06 -6.245353E+05 -2.497448E+04 -1.956496E+06 -1.165108E-09  3.567879E-11
        97  13 -5.914839E+06 -8.529658E+05 -7.046420E+04 -2.254286E+06 -5.014676E-10  1.061102E-11
        97  14 -5.905800E+06 -8.182300E+05 -1.199801E+05 -2.235424E+06 -1.356865E-10 -3.509307E-10
        97  15 -5.931794E+06 -9.682278E+05 -2.587177E+05 -2.210981E+06 -1.473365E-09  7.326112E-10
        97  16 -6.708872E+06 -1.141810E+06 -2.841555E+05 -2.457904E+06 -1.726485E-09 -1.659042E-09
        97  17 -6.723025E+06 -1.134310E+06 -3.433413E+05 -2.464321E+06  8.392652E-10  1.248406E-09
        97  18 -6.772465E+06 -1.311847E+06 -4.925274E+05 -2.465141E+06 -5.248082E-11  1.854792E-09
        97  19 -5.120191E+06 -5.640965E+05  1.431772E+05 -2.050437E+06 -5.750859E+04 -1.221824E+03
        97  20 -5.087910E+06 -5.020993E+05  1.033482E+05 -2.006248E+06 -1.204066E+05 -2.267289E+04
        97  21 -5.090397E+06 -6.245239E+05 -2.490730E+04 -1.956489E+06 -1.822513E+05 -4.693468E+04
        97  22 -5.914835E+06 -8.529650E+05 -7.045818E+04 -2.254286E+06 -5.634445E+04 -7.835191E+02
        97  23 -5.905784E+06 -8.182255E+05 -1.199518E+05 -2.235422E+06 -1.201006E+05 -2.255396E+04
        97  24 -5.931757E+06 -9.682163E+05 -2.586500E+05 -2.210974E+06 -1.827999E+05 -4.713125E+04
        97  25 -6.708869E+06 -1.141810E+06 -2.841497E+05 -2.457904E+06 -5.518192E+04 -3.457631E+02
        97  26 -6.723009E+06 -1.134305E+06 -3.433130E+05 -2.464319E+06 -1.197948E+05 -2.243517E+04
        97  27 -6.772428E+06 -1.311835E+06 -4.924592E+05 -2.465134E+06 -1.833476E+05 -4.732737E+04
        98   1 -5.019617E+06 -5.474584E+05 -7.256693E+04 -2.109811E+06  2.331555E+05  6.320200E+04
        98   2 -4.951644E+06 -2.988954E+05 -2.688990E+05 -1.985898E+06  5.080229E+05  1.666620E+05
        98   3 -5.373455E+06 -1.227871E+06 -9.955547E+05 -1.543329E+06  7.764365E+05  2.871406E+05
        98   4 -5.979607E+06 -8.219712E+05 -3.156342E+05 -2.280438E+06  2.298793E+05  6.200082E+04
        98   5 -5.799205E+06 -6.745319E+05 -5.094259E+05 -2.272271E+06  5.100403E+05  1.673713E+05
        98   6 -6.110342E+06 -1.706771E+06 -1.238335E+06 -1.945216E+06  7.837964E+05  2.896316E+05
        98   7 -6.938691E+06 -1.096505E+06 -5.587679E+05 -2.450869E+06  2.266085E+05  6.080053E+04
        98   8 -6.646058E+06 -1.050047E+06 -7.500220E+05 -2.558261E+06  5.120542E+05  1.680788E+05
        98   9 -6.846600E+06 -2.185235E+06 -1.481163E+06 -2.346565E+06  7.911462E+05  2.921126E+05
        98  10 -5.019677E+06 -5.474775E+05 -7.267763E+04 -2.109822E+06 -4.677286E-10 -2.205385E-10
        98  11 -4.951930E+06 -2.989956E+05 -2.694413E+05 -1.985966E+06 -1.449688E-09 -1.557791E-09
        98  12 -5.374130E+06 -1.228124E+06 -9.968548E+05 -1.543509E+06 -1.514488E-09 -4.318323E-10
        98  13 -5.979666E+06 -8.219898E+05 -3.157419E+05 -2.280450E+06 -2.735719E-09  6.916493E-10
        98  14 -5.799494E+06 -6.746331E+05 -5.099734E+05 -2.272340E+06  1.932900E-09 -1.330250E-09
        98  15 -6.111031E+06 -1.707029E+06 -1.239662E+06 -1.945401E+06 -8.876588E-10  1.429934E-09
        98  16 -6.938747E+06 -1.096523E+06 -5.588727E+05 -2.450880E+06  1.456368E-10 -4.661752E-10
        98  17 -6.646350E+06 -1.050149E+06 -7.505747E+05 -2.558331E+06  8.723760E-10 -1.710039E-09
        98  18 -6.847302E+06 -2.185499E+06 -1.482516E+06 -2.346753E+06  1.483624E-09  3.454713E-10
        98  19 -5.019617E+06 -5.474584E+05 -7.256693E+04 -2.109811E+06 -2.331555E+05 -6.320200E+04
        98  20 -4.951644E+06 -2.988954E+05 -2.688990E+05 -1.985898E+06 -5.080229E+05 -1.666620E+05
        98  21 -5.373455E+06 -1.227871E+06 -9.955547E+05 -1.543329E+06 -7.764365E+05 -2.871406E+05
        98  22 -5.979607E+06 -8.219712E+05 -3.156342E+05 -2.280438E+06 -2.298793E+05 -6.200082E+04
        98  23 -5.799205E+06 -6.745319E+05 -5.094259E+05 -2.272271E+06 -5.100403E+05 -1.673713E+05
        98  24 -6.110342E+06 -1.706771E+06 -1.238335E+06 -1.945216E+06 -7.837964E+05 -2.896316E+05
        98  25 -6.938691E+06 -1.096505E+06 -5.587679E+05 -2.450869E+06 -2.266085E+05 -6.080053E+04
        98  26 -6.646058E+06 -1.050047E+06 -7.500220E+05 -2.558261E+06 -5.120542E+05 -1.680788E+05
        98  27 -6.846600E+06 -2.185235E+06 -1.481163E+06 -2.346565E+06 -7.911462E+05 -2.921126E+05
        99   1 -2.090328E+06 -2.602304E+05 -2.606305E+05 -2.807437E+04 -9.814238E+03  6.311065E+03
        99   2 -2.059299E+06 -2.457805E+05 -2.471099E+05 -3.918696E+03 -4.364008E+03  1.867412E+04
        99   3 -2.026442E+06 -2.386542E+05 -2.381252E+05 -2.484603E+04  1.149715E+03  1.628586E+04
        99   4 -1.071083E+06 -5.144789E+03 -6.444561E+03 -2.355473E+04 -4.628226E+03  6.334804E+03
        99   5 -1.072343E+06  7.715022E+02 -3.138603E+03 -1.026892E+03 -3.059042E+03  1.867690E+04
        99   6 -1.071093E+06  4.815728E+01 -1.663428E+03 -2.357767E+04 -1.426642E+03  1.627798E+04
        99   7 -5.089322E+04  2.498625E+05  2.476632E+05 -1.902875E+04  5.663260E+02  6.358599E+03
        99   8 -8.449863E+04  2.472506E+05  2.407603E+05  1.868734E+03 -1.751995E+03  1.867970E+04
        99   9 -1.149121E+05  2.386821E+05  2.347304E+05 -2.230784E+04 -4.006969E+03  1.627009E+04
        99  10 -2.090328E+06 -2.602305E+05 -2.606308E+05 -2.807432E+04  1.125230E-09  1.491384E-10
        99  11 -2.059299E+06 -2.457809E+05 -2.471106E+05 -3.918631E+03 -1.835151E-10 -2.976983E-09
        99  12 -2.026443E+06 -2.386545E+05 -2.381257E+05 -2.484605E+04 -4.840513E-09  1.341569E-10
        99  13 -1.071083E+06 -5.144837E+03 -6.444676E+03 -2.355471E+04  4.373919E-09 -1.879144E-09
        99  14 -1.072343E+06  7.711253E+02 -3.139275E+03 -1.026846E+03 -1.904832E-09 -1.352671E-09
        99  15 -1.071093E+06  4.787234E+01 -1.663929E+03 -2.357765E+04 -2.855280E-09 -5.928836E-10
        99  16 -5.089323E+04  2.498624E+05  2.476632E+05 -1.902875E+04  8.524960E-10  1.381398E-09
        99  17 -8.449872E+04  2.472502E+05  2.407597E+05  1.868760E+03 -2.917557E-09 -2.375382E-09
        99  18 -1.149122E+05  2.386819E+05  2.347298E+05 -2.230778E+04 -1.094729E-09 -1.196931E-09
        99  19 -2.090328E+06 -2.602304E+05 -2.606305E+05 -2.807437E+04  9.814238E+03 -6.311065E+03
        99  20 -2.059299E+06 -2.457805E+05 -2.471099E+05 -3.918696E+03  4.364008E+03 -1.867412E+04
        99  21 -2.026442E+06 -2.386542E+05 -2.381252E+05 -2.484603E+04 -1.149715E+03 -1.628586E+04
        99  22 -1.071083E+06 -5.144789E+03 -6.444561E+03 -2.355473E+04  4.628226E+03 -6.334804E+03
        99  23 -1.072343E+06  7.715022E+02 -3.138603E+03 -1.026892E+03  3.059042E+03 -1.867690E+04
        99  24 -1.071093E+06  4.815728E+01 -1.663428E+03 -2.357767E+04  1.426642E+03 -1.627798E+04
        99  25 -5.089322E+04  2.498625E+05  2.476632E+05 -1.902875E+04 -5.663260E+02 -6.358599E+03
        99  26 -8.449863E+04  2.472506E+05  2.407603E+05  1.868734E+03  1.751995E+03 -1.867970E+04
        99  27 -1.149121E+05  2.386821E+05  2.347304E+05 -2.230784E+04  4.006969E+03 -1.627009E+04
       100   1 -1.902854E+06 -2.088294E+05 -2.074431E+05 -2.787699E+04 -1.563610E+03  1.332297E+04
       100   2 -1.862924E+06 -1.975204E+05 -1.965138E+05  2.093059E+03 -5.954049E+02  1.372337E+04
       100   3 -1.820691E+06 -1.872605E+05 -1.859321E+05 -2.645683E+04  3.724867E+02  1.201410E+04
       100   4 -1.071046E+06 -9.798558E+02 -1.428602E+03 -2.655552E+04 -1.181810E+03  1.332253E+04
       100   5 -1.072252E+06  6.522759E+00 -8.744752E+02  2.701473E+03 -7.686723E+02  1.372209E+04
       100   6 -1.071059E+06  4.243442E+01 -2.810517E+02 -2.655688E+04 -3.559217E+02  1.201316E+04
       100   7 -2.386079E+05  2.068178E+05  2.045343E+05 -2.523256E+04 -7.994969E+02  1.332210E+04
       100   8 -2.810114E+05  1.974866E+05  1.947183E+05  3.310528E+03 -9.421602E+02  1.372081E+04
       100   9 -3.209151E+05  1.873033E+05  1.853281E+05 -2.665704E+04 -1.085211E+03  1.201222E+04
       100  10 -1.902854E+06 -2.088296E+05 -2.074434E+05 -2.787697E+04 -2.290829E-09  1.574921E-10
       100  11 -1.862924E+06 -1.975206E+05 -1.965142E+05  2.093065E+03 -4.358156E-09 -1.155682E-09
       100  12 -1.820691E+06 -1.872607E+05 -1.859324E+05 -2.645683E+04 -9.168341E-10  1.418684E-10
       100  13 -1.071046E+06 -9.800467E+02 -1.428938E+03 -2.655551E+04 -1.908670E-09 -9.823830E-10
       100  14 -1.072253E+06  6.320505E+00 -8.748300E+02  2.701481E+03 -4.626916E-09  4.333021E-10
       100  15 -1.071059E+06  4.227949E+01 -2.813230E+02 -2.655688E+04 -5.303034E-10  1.387279E-11
       100  16 -2.386080E+05  2.068176E+05  2.045340E+05 -2.523255E+04  4.521470E-10 -4.505052E-10
       100  17 -2.810115E+05  1.974864E+05  1.947180E+05  3.310539E+03 -2.264949E-09 -1.295997E-10
       100  18 -3.209151E+05  1.873031E+05  1.853279E+05 -2.665703E+04  2.681381E-09  2.670781E-10
       100  19 -1.902854E+06 -2.088294E+05 -2.074431E+05 -2.787699E+04  1.563610E+03 -1.332297E+04
       100  20 -1.862924E+06 -1.975204E+05 -1.965138E+05  2.093059E+03  5.954049E+02 -1.372337E+04
       100  21 -1.820691E+06 -1.872605E+05 -1.859321E+05 -2.645683E+04 -3.724867E+02 -1.201410E+04
       100  22 -1.071046E+06 -9.798558E+02 -1.428602E+03 -2.655552E+04  1.181810E+03 -1.332253E+04
       100  23 -1.072252E+06  6.522759E+00 -8.744752E+02  2.701473E+03  7.686723E+02 -1.372209E+04
       100  24 -1.071059E+06  4.243442E+01 -2.810517E+02 -2.655688E+04  3.559217E+02 -1.201316E+04
       100  25 -2.386079E+05  2.068178E+05  2.045343E+05 -2.523256E+04  7.994969E+02 -1.332210E+04
       100  26 -2.810114E+05  1.974866E+05  1.947183E+05  3.310528E+03  9.421602E+02 -1.372081E+04
       100  27 -3.209151E+05  1.873033E+05  1.853281E+05 -2.665704E+04  1.085211E+03 -1.201222E+04
       101   1 -1.669749E+06 -1.497148E+05 -1.482594E+05 -2.863092E+04 -1.841275E+01  1.079577E+04
       101   2 -1.622189E+06 -1.375295E+05 -1.363278E+05  5.884842E+03  1.464534E+02  9.415438E+03
       101   3 -1.573591E+06 -1.253551E+05 -1.242911E+05 -2.809501E+04  3.078880E+02  7.625369E+03
       101   4 -1.071291E+06 -2.390987E+02 -2.681195E+02 -2.877363E+04 -3.282965E+02  1.079524E+04
       101   5 -1.071824E+06 -5.183337E+01 -1.452343E+02  5.472487E+03 -2.713316E+02  9.415340E+03
       101   6 -1.071302E+06  1.439850E+02  1.581561E+02 -2.877324E+04 -2.178106E+02  7.625869E+03
       101   7 -4.725069E+05  1.492098E+05  1.476965E+05 -2.891644E+04 -6.384792E+02  1.079471E+04
       101   8 -5.211835E+05  1.374031E+05  1.360148E+05  5.059836E+03 -6.894873E+02  9.415242E+03
       101   9 -5.687837E+05  1.256241E+05  1.245886E+05 -2.945192E+04 -7.439349E+02  7.626370E+03
       101  10 -1.669749E+06 -1.497149E+05 -1.482596E+05 -2.863092E+04 -6.856053E-10  6.577631E-10
       101  11 -1.622189E+06 -1.375296E+05 -1.363280E+05  5.884841E+03  4.489242E-10 -4.917944E-11
       101  12 -1.573591E+06 -1.253551E+05 -1.242912E+05 -2.809501E+04  1.512930E-09 -6.331151E-10
       101  13 -1.071291E+06 -2.392238E+02 -2.683386E+02 -2.877363E+04 -5.024305E-11 -3.162766E-11
       101  14 -1.071824E+06 -5.192853E+01 -1.454009E+02  5.472489E+03  2.376543E-09  1.702264E-10
       101  15 -1.071302E+06  1.439226E+02  1.580468E+02 -2.877324E+04  5.051473E-10  1.919345E-09
       101  16 -4.725069E+05  1.492097E+05  1.476963E+05 -2.891643E+04  1.712252E-09 -9.838885E-12
       101  17 -5.211835E+05  1.374030E+05  1.360147E+05  5.059841E+03  3.910748E-10 -6.766941E-10
       101  18 -5.687837E+05  1.256241E+05  1.245885E+05 -2.945192E+04 -1.287374E-09  1.038978E-09
       101  19 -1.669749E+06 -1.497148E+05 -1.482594E+05 -2.863092E+04  1.841275E+01 -1.079577E+04
       101  20 -1.622189E+06 -1.375295E+05 -1.363278E+05  5.884842E+03 -1.464534E+02 -9.415438E+03
       101  21 -1.573591E+06 -1.253551E+05 -1.242911E+05 -2.809501E+04 -3.078880E+02 -7.625369E+03
       101  22 -1.071291E+06 -2.390987E+02 -2.681195E+02 -2.877363E+04  3.282965E+02 -1.079524E+04
       101  23 -1.071824E+06 -5.183337E+01 -1.452343E+02  5.472487E+03  2.713316E+02 -9.415340E+03
       101  24 -1.071302E+06  1.439850E+02  1.581561E+02 -2.877324E+04  2.178106E+02 -7.625869E+03
       101  25 -4.725069E+05  1.492098E+05  1.476965E+05 -2.891644E+04  6.384792E+02 -1.079471E+04
       101  26 -5.211835E+05  1.374031E+05  1.360148E+05  5.059836E+03  6.894873E+02 -9.415242E+03
       101  27 -5.687837E+05  1.256241E+05  1.245886E+05 -2.945192E+04  7.439349E+02 -7.626370E+03
       102   1 -1.403382E+06 -8.285900E+04 -8.178796E+04 -2.966273E+04  1.914076E+02  6.534855E+03
       102   2 -1.350963E+06 -6.984324E+04 -6.874197E+04  7.653583E+03  1.592957E+01  4.768241E+03
       102   3 -1.298538E+06 -5.649161E+04 -5.552000E+04 -2.968448E+04 -1.615534E+02  2.888174E+03
       102   4 -1.071488E+06  6.554354E+00  1.780680E+02 -3.014264E+04 -2.594247E+02  6.535524E+03
       102   5 -1.071495E+06 -4.395854E+01  4.006119E+02  7.183785E+03 -4.648930E+02  4.769196E+03
       102   6 -1.071494E+06  2.470791E+02  8.203742E+02 -3.014207E+04 -6.723511E+02  2.889445E+03
       102   7 -7.394930E+05  8.286387E+04  8.213592E+04 -3.062275E+04 -7.104981E+02  6.536194E+03
       102   8 -7.919566E+05  6.974948E+04  6.953739E+04  6.713816E+03 -9.459321E+02  4.770151E+03
       102   9 -8.444023E+05  5.698189E+04  5.715690E+04 -3.059980E+04 -1.183336E+03  2.890717E+03
       102  10 -1.403382E+06 -8.285904E+04 -8.178804E+04 -2.966273E+04  7.330127E-10  3.601593E-10
       102  11 -1.350963E+06 -6.984327E+04 -6.874202E+04  7.653583E+03  1.752857E-09  2.464140E-10
       102  12 -1.298538E+06 -5.649162E+04 -5.552002E+04 -2.968448E+04  1.664994E-09 -7.621311E-10
       102  13 -1.071488E+06  6.508492E+00  1.779876E+02 -3.014264E+04  1.992357E-09 -8.236411E-10
       102  14 -1.071495E+06 -4.398301E+01  4.005687E+02  7.183787E+03  4.298668E-11  1.051305E-10
       102  15 -1.071494E+06  2.470701E+02  8.203576E+02 -3.014207E+04  1.804937E-09 -1.890986E-09
       102  16 -7.394930E+05  8.286382E+04  8.213584E+04 -3.062274E+04 -8.520057E-10  1.574309E-09
       102  17 -7.919566E+05  6.974945E+04  6.953734E+04  6.713819E+03 -2.317761E-09 -7.437052E-10
       102  18 -8.444023E+05  5.698189E+04  5.715688E+04 -3.059979E+04 -1.876470E-09 -2.737889E-09
       102  19 -1.403382E+06 -8.285900E+04 -8.178796E+04 -2.966273E+04 -1.914076E+02 -6.534855E+03
       102  20 -1.350963E+06 -6.984324E+04 -6.874197E+04  7.653583E+03 -1.592957E+01 -4.768241E+03
       102  21 -1.298538E+06 -5.649161E+04 -5.552000E+04 -2.968448E+04  1.615534E+02 -2.888174E+03
       102  22 -1.071488E+06  6.554354E+00  1.780680E+02 -3.014264E+04  2.594247E+02 -6.535524E+03
       102  23 -1.071495E+06 -4.395854E+01  4.006119E+02  7.183785E+03  4.648930E+02 -4.769196E+03
       102  24 -1.071494E+06  2.470791E+02  8.203742E+02 -3.014207E+04  6.723511E+02 -2.889445E+03
       102  25 -7.394930E+05  8.286387E+04  8.213592E+04 -3.062275E+04  7.104981E+02 -6.536194E+03
       102  26 -7.919566E+05  6.974948E+04  6.953739E+04  6.713816E+03  9.459321E+02 -4.770151E+03
       102  27 -8.444023E+05  5.698189E+04  5.715690E+04 -3.059980E+04  1.183336E+03 -2.890717E+03
       103   1 -1.118365E+06 -1.154973E+04 -1.037350E+04 -3.045529E+04 -3.459938E+02  1.766227E+03
       103   2 -1.064447E+06  1.614210E+03  3.565312E+03  7.728336E+03 -1.276530E+03 -1.187566E+02
       103   3 -1.010652E+06  1.582663E+04  1.826694E+04 -3.076600E+04 -2.207051E+03 -1.979020E+03
       103   4 -1.071508E+06  1.186766E+02  1.051686E+03 -3.059301E+04 -8.468901E+02  1.767577E+03
       103   5 -1.071444E+06 -1.329869E+02  1.834978E+03  7.746722E+03 -1.770914E+03 -1.174347E+02
       103   6 -1.071507E+06  6.627331E+02  3.376610E+03 -3.059155E+04 -2.694842E+03 -1.977717E+03
       103   7 -1.024649E+06  1.178692E+04  1.247671E+04 -3.073074E+04 -1.347824E+03  1.768927E+03
       103   8 -1.078441E+06 -1.880188E+03  1.046412E+02  7.765108E+03 -2.265292E+03 -1.161128E+02
       103   9 -1.132359E+06 -1.450143E+04 -1.151399E+04 -3.041711E+04 -3.182586E+03 -1.976414E+03
       103  10 -1.118365E+06 -1.154973E+04 -1.037351E+04 -3.045529E+04  2.781803E-10  1.084927E-09
       103  11 -1.064447E+06  1.614210E+03  3.565309E+03  7.728336E+03 -9.320570E-11  4.884681E-09
       103  12 -1.010652E+06  1.582662E+04  1.826692E+04 -3.076600E+04  2.134552E-09 -2.154804E-09
       103  13 -1.071508E+06  1.186730E+02  1.051679E+03 -3.059301E+04 -3.375180E-11 -4.759420E-11
       103  14 -1.071444E+06 -1.329878E+02  1.834972E+03  7.746722E+03  3.840252E-09 -4.840540E-10
       103  15 -1.071507E+06  6.627270E+02  3.376589E+03 -3.059155E+04 -2.809144E-09 -3.070745E-10
       103  16 -1.024649E+06  1.178692E+04  1.247670E+04 -3.073074E+04  1.959124E-10  1.365941E-10
       103  17 -1.078441E+06 -1.880189E+03  1.046315E+02  7.765108E+03 -2.576484E-09  1.846580E-10
       103  18 -1.132359E+06 -1.450144E+04 -1.151402E+04 -3.041712E+04  1.910939E-10 -8.571365E-10
       103  19 -1.118365E+06 -1.154973E+04 -1.037350E+04 -3.045529E+04  3.459938E+02 -1.766227E+03
       103  20 -1.064447E+06  1.614210E+03  3.565312E+03  7.728336E+03  1.276530E+03  1.187566E+02
       103  21 -1.010652E+06  1.582663E+04  1.826694E+04 -3.076600E+04  2.207051E+03  1.979020E+03
       103  22 -1.071508E+06  1.186766E+02  1.051686E+03 -3.059301E+04  8.468901E+02 -1.767577E+03
       103  23 -1.071444E+06 -1.329869E+02  1.834978E+03  7.746722E+03  1.770914E+03  1.174347E+02
       103  24 -1.071507E+06  6.627331E+02  3.376610E+03 -3.059155E+04  2.694842E+03  1.977717E+03
       103  25 -1.024649E+06  1.178692E+04  1.247671E+04 -3.073074E+04  1.347824E+03 -1.768927E+03
       103  26 -1.078441E+06 -1.880188E+03  1.046412E+02  7.765108E+03  2.265292E+03  1.161128E+02
       103  27 -1.132359E+06 -1.450143E+04 -1.151399E+04 -3.041711E+04  3.182586E+03  1.976414E+03
       104   1 -8.302436E+05  6.019968E+04  6.410384E+04 -3.022807E+04 -2.860633E+03 -3.121331E+03
       104   2 -7.788558E+05  7.233060E+04  7.978829E+04  6.531910E+03 -6.657689E+03 -5.007628E+03
       104   3 -7.256232E+05  9.009999E+04  9.934130E+04 -3.115011E+04 -1.045267E+04 -6.601568E+03
       104   4 -1.071090E+06  3.344384E+01  4.367372E+03 -3.009872E+04 -3.398215E+03 -3.120011E+03
       104   5 -1.072000E+06 -8.589769E+02  7.291113E+03  7.127102E+03 -7.116601E+03 -5.006757E+03
       104   6 -1.071080E+06  3.875039E+03  1.403032E+04 -3.009123E+04 -1.083259E+04 -6.601082E+03
       104   7 -1.311884E+06 -6.013715E+04 -5.537343E+04 -2.996938E+04 -3.935588E+03 -3.118691E+03
       104   8 -1.365066E+06 -7.405499E+04 -6.521245E+04  7.722055E+03 -7.575296E+03 -5.005887E+03
       104   9 -1.416428E+06 -8.235883E+04 -7.128951E+04 -2.903290E+04 -1.121230E+04 -6.600598E+03
       104  10 -8.302436E+05  6.019967E+04  6.410380E+04 -3.022807E+04 -2.643891E-09 -3.152124E-09
       104  11 -7.788559E+05  7.233056E+04  7.978816E+04  6.531883E+03  1.425609E-09  2.329044E-10
       104  12 -7.256234E+05  9.009991E+04  9.934101E+04 -3.115016E+04 -4.451159E-10  8.470263E-10
       104  13 -1.071090E+06  3.343028E+01  4.367332E+03 -3.009872E+04  2.250776E-10 -5.697674E-10
       104  14 -1.072000E+06 -8.590174E+02  7.290971E+03  7.127073E+03  3.964417E-09 -7.248462E-10
       104  15 -1.071080E+06  3.874961E+03  1.403002E+04 -3.009129E+04 -4.223780E-09 -3.431658E-10
       104  16 -1.311884E+06 -6.013716E+04 -5.537347E+04 -2.996939E+04  2.502311E-09 -8.540871E-10
       104  17 -1.365066E+06 -7.405503E+04 -6.521261E+04  7.722024E+03  5.153526E-10  3.377249E-09
       104  18 -1.416428E+06 -8.235891E+04 -7.128983E+04 -2.903296E+04  1.195049E-09  5.089052E-10
       104  19 -8.302436E+05  6.019968E+04  6.410384E+04 -3.022807E+04  2.860633E+03  3.121331E+03
       104  20 -7.788558E+05  7.233060E+04  7.978829E+04  6.531910E+03  6.657689E+03  5.007628E+03
       104  21 -7.256232E+05  9.009999E+04  9.934130E+04 -3.115011E+04  1.045267E+04  6.601568E+03
       104  22 -1.071090E+06  3.344384E+01  4.367372E+03 -3.009872E+04  3.398215E+03  3.120011E+03
       104  23 -1.072000E+06 -8.589769E+02  7.291113E+03  7.127102E+03  7.116601E+03  5.006757E+03
       104  24 -1.071080E+06  3.875039E+03  1.403032E+04 -3.009123E+04  1.083259E+04  6.601082E+03
       104  25 -1.311884E+06 -6.013715E+04 -5.537343E+04 -2.996938E+04  3.935588E+03  3.118691E+03
       104  26 -1.365066E+06 -7.405499E+04 -6.521245E+04  7.722055E+03  7.575296E+03  5.005887E+03
       104  27 -1.416428E+06 -8.235883E+04 -7.128951E+04 -2.903290E+04  1.121230E+04  6.600598E+03
       105   1 -5.534388E+05  1.277054E+05  1.452730E+05 -2.692153E+04 -1.296912E+04 -7.889835E+03
       105   2 -5.119847E+05  1.345725E+05  1.678766E+05  3.838196E+03 -2.840870E+04 -9.771143E+03
       105   3 -4.576874E+05  1.802333E+05  2.104637E+05 -3.348690E+04 -4.384543E+04 -9.913389E+03
       105   4 -1.068700E+06 -9.421383E+02  1.770745E+04 -2.868994E+04 -1.369313E+04 -7.889021E+03
       105   5 -1.075069E+06 -5.985381E+03  2.867060E+04  5.360315E+03 -2.866180E+04 -9.771517E+03
       105   6 -1.068668E+06  2.770254E+04  5.930335E+04 -2.867789E+04 -4.362642E+04 -9.914414E+03
       105   7 -1.583719E+06 -1.296096E+05 -1.098779E+05 -3.045677E+04 -1.441654E+04 -7.888202E+03
       105   8 -1.637865E+06 -1.465669E+05 -1.105589E+05  6.881119E+03 -2.891466E+04 -9.771894E+03
       105   9 -1.679308E+06 -1.248561E+05 -9.188478E+04 -2.387360E+04 -4.340761E+04 -9.915436E+03
       105  10 -5.534390E+05  1.277053E+05  1.452726E+05 -2.692162E+04 -4.359806E-09  9.935915E-10
       105  11 -5.119856E+05  1.345721E+05  1.678749E+05  3.837972E+03 -3.757781E-09 -9.159420E-10
       105  12 -4.576895E+05  1.802327E+05  2.104599E+05 -3.348725E+04 -2.955640E-09 -1.100919E-09
       105  13 -1.068700E+06 -9.422556E+02  1.770698E+04 -2.869002E+04 -5.386386E-11  9.471216E-10
       105  14 -1.075070E+06 -5.985704E+03  2.866887E+04  5.360089E+03 -7.479386E-10  1.182687E-09
       105  15 -1.068670E+06  2.770192E+04  5.929958E+04 -2.867824E+04 -1.194681E-09 -4.380800E-10
       105  16 -1.583720E+06 -1.296097E+05 -1.098784E+05 -3.045686E+04  4.410067E-09 -1.329467E-10
       105  17 -1.637866E+06 -1.465673E+05 -1.105607E+05  6.880891E+03 -1.015870E-09 -7.288968E-10
       105  18 -1.679310E+06 -1.248567E+05 -9.188852E+04 -2.387394E+04  4.033575E-10 -1.204796E-10
       105  19 -5.534388E+05  1.277054E+05  1.452730E+05 -2.692153E+04  1.296912E+04  7.889835E+03
       105  20 -5.119847E+05  1.345725E+05  1.678766E+05  3.838196E+03  2.840870E+04  9.771143E+03
       105  21 -4.576874E+05  1.802333E+05  2.104637E+05 -3.348690E+04  4.384543E+04  9.913389E+03
       105  22 -1.068700E+06 -9.421383E+02  1.770745E+04 -2.868994E+04  1.369313E+04  7.889021E+03
       105  23 -1.075069E+06 -5.985381E+03  2.867060E+04  5.360315E+03  2.866180E+04  9.771517E+03
       105  24 -1.068668E+06  2.770254E+04  5.930335E+04 -2.867789E+04  4.362642E+04  9.914414E+03
       105  25 -1.583719E+06 -1.296096E+05 -1.098779E+05 -3.045677E+04  1.441654E+04  7.888202E+03
       105  26 -1.637865E+06 -1.465669E+05 -1.105589E+05  6.881119E+03  2.891466E+04  9.771894E+03
       105  27 -1.679308E+06 -1.248561E+05 -9.188478E+04 -2.387360E+04  4.340761E+04  9.915436E+03
       106   1 -2.929282E+05  1.821191E+05  2.601712E+05 -9.470169E+03 -5.308238E+04 -1.272232E+04
       106   2 -2.919410E+05  1.577372E+05  3.086226E+05 -6.135743E+03 -1.167532E+05 -1.535195E+04
       106   3 -2.107793E+05  4.097862E+05  4.682107E+05 -6.110765E+04 -1.804477E+05 -5.595654E+03
       106   4 -1.053891E+06 -7.826261E+03  7.198540E+04 -2.640672E+04 -5.536000E+04 -1.272215E+04
       106   5 -1.093667E+06 -4.229650E+04  1.106763E+05  2.557746E+03 -1.156939E+05 -1.535384E+04
       106   6 -1.053753E+06  1.992714E+05  2.582854E+05 -2.678536E+04 -1.760469E+05 -5.597803E+03
       106   7 -1.814327E+06 -1.978138E+05 -1.162433E+05 -4.332249E+04 -5.763481E+04 -1.272185E+04
       106   8 -1.894808E+06 -2.423779E+05 -8.731776E+04  1.123983E+04 -1.146359E+05 -1.535569E+04
       106   9 -1.896079E+06 -1.129241E+04  4.830746E+04  7.489986E+03 -1.716519E+05 -5.599473E+03
       106  10 -2.929312E+05  1.821181E+05  2.601656E+05 -9.470713E+03 -2.249955E-09 -4.706433E-10
       106  11 -2.919557E+05  1.577333E+05  3.085966E+05 -6.137186E+03  3.392740E-10  4.052529E-10
       106  12 -2.108142E+05  4.097774E+05  4.681494E+05 -6.110847E+04 -1.031002E-10 -5.325216E-10
       106  13 -1.053895E+06 -7.827259E+03  7.197932E+04 -2.640729E+04 -2.554045E-09 -1.979651E-11
       106  14 -1.093681E+06 -4.230036E+04  1.106506E+05  2.556315E+03 -3.757224E-09  1.515220E-09
       106  15 -1.053787E+06  1.992630E+05  2.582270E+05 -2.678615E+04 -8.054655E-11 -1.614951E-10
       106  16 -1.814331E+06 -1.978149E+05 -1.162499E+05 -4.332308E+04 -2.353960E-10  1.582586E-10
       106  17 -1.894822E+06 -2.423817E+05 -8.734297E+04  1.123841E+04 -3.288150E-10 -3.949183E-10
       106  18 -1.896111E+06 -1.130039E+04  4.825187E+04  7.489211E+03 -4.901554E-10 -5.093936E-10
       106  19 -2.929282E+05  1.821191E+05  2.601712E+05 -9.470169E+03  5.308238E+04  1.272232E+04
       106  20 -2.919410E+05  1.577372E+05  3.086226E+05 -6.135743E+03  1.167532E+05  1.535195E+04
       106  21 -2.107793E+05  4.097862E+05  4.682107E+05 -6.110765E+04  1.804477E+05  5.595654E+03
       106  22 -1.053891E+06 -7.826261E+03  7.198540E+04 -2.640672E+04  5.536000E+04  1.272215E+04
       106  23 -1.093667E+06 -4.229650E+04  1.106763E+05  2.557746E+03  1.156939E+05  1.535384E+04
       106  24 -1.053753E+06  1.992714E+05  2.582854E+05 -2.678536E+04  1.760469E+05  5.597803E+03
       106  25 -1.814327E+06 -1.978138E+05 -1.162433E+05 -4.332249E+04  5.763481E+04  1.272185E+04
       106  26 -1.894808E+06 -2.423779E+05 -8.731776E+04  1.123983E+04  1.146359E+05  1.535569E+04
       106  27 -1.896079E+06 -1.129241E+04  4.830746E+04  7.489986E+03  1.716519E+05  5.599473E+03
       107   1  2.560944E+05  2.403403E+05  2.730662E+05 -1.832320E+05 -2.035822E+02  1.783462E+05
       107   2  8.417584E+04  1.984102E+05  1.407356E+05 -1.034454E+05  1.590954E+03  1.082258E+05
       107   3  2.678602E+04  1.941964E+05  8.268712E+04 -2.763205E+04  1.523518E+03  3.809839E+04
       107   4  2.346626E+05  1.618715E+05  2.540624E+05 -2.812791E+04 -1.347153E+02  1.735872E+05
       107   5  6.999607E+04  1.433507E+05  1.296474E+05 -2.669630E+04  1.609380E+03  1.072377E+05
       107   6  1.918780E+04  1.618845E+05  7.689932E+04 -2.923139E+04  1.509118E+03  4.087830E+04
       107   7  2.133206E+05  8.345986E+04  2.350712E+05  1.269563E+05 -6.821929E+01  1.688288E+05
       107   8  5.583820E+04  8.830674E+04  1.185623E+05  5.004584E+04  1.627564E+03  1.062497E+05
       107   9  1.158954E+04  1.295738E+05  7.111152E+04 -3.083063E+04  1.494702E+03  4.365805E+04
       107  10  2.560859E+05  2.403062E+05  2.730065E+05 -1.832320E+05  1.578100E-09  4.783130E-09
       107  11  8.417269E+04  1.983976E+05  1.407135E+05 -1.034456E+05  5.839987E-09  3.380835E-08
       107  12  2.678562E+04  1.941948E+05  8.268439E+04 -2.763210E+04  6.570436E-10  5.690267E-08
       107  13  2.346546E+05  1.618392E+05  2.540058E+05 -2.812789E+04 -8.744226E-10  1.286154E-09
       107  14  6.999298E+04  1.433384E+05  1.296258E+05 -2.669644E+04 -8.703139E-09 -3.498953E-10
       107  15  1.918735E+04  1.618827E+05  7.689618E+04 -2.923144E+04 -1.586768E-08  9.072825E-10
       107  16  2.133130E+05  8.342926E+04  2.350176E+05  1.269563E+05 -5.267951E-10 -5.718672E-09
       107  17  5.583516E+04  8.829461E+04  1.185411E+05  5.004570E+04 -7.691972E-10 -3.223424E-08
       107  18  1.158902E+04  1.295717E+05  7.110793E+04 -3.083068E+04  4.581660E-09 -5.634747E-08
       107  19  2.560944E+05  2.403403E+05  2.730662E+05 -1.832320E+05  2.035822E+02 -1.783462E+05
       107  20  8.417584E+04  1.984102E+05  1.407356E+05 -1.034454E+05 -1.590954E+03 -1.082258E+05
       107  21  2.678602E+04  1.941964E+05  8.268712E+04 -2.763205E+04 -1.523518E+03 -3.809839E+04
       107  22  2.346626E+05  1.618715E+05  2.540624E+05 -2.812791E+04  1.347153E+02 -1.735872E+05
       107  23  6.999607E+04  1.433507E+05  1.296474E+05 -2.669630E+04 -1.609380E+03 -1.072377E+05
       107  24  1.918780E+04  1.618845E+05  7.689932E+04 -2.923139E+04 -1.509118E+03 -4.087830E+04
       107  25  2.133206E+05  8.345986E+04  2.350712E+05  1.269563E+05  6.821929E+01 -1.688288E+05
       107  26  5.583820E+04  8.830674E+04  1.185623E+05  5.004584E+04 -1.627564E+03 -1.062497E+05
       107  27  1.158954E+04  1.295738E+05  7.111152E+04 -3.083063E+04 -1.494702E+03 -4.365805E+04
       108   1  2.028715E+04  1.722404E+05  6.626554E+04 -3.817129E+04  7.083029E+02  2.754040E+04
       108   2  5.527649E+03  1.450136E+05  4.835847E+04 -2.766754E+04 -4.981932E+02  2.896845E+03
       108   3  5.812660E+03  1.247000E+05  5.024045E+04 -2.159322E+04 -1.672766E+03 -2.174557E+04
       108   4  1.613613E+04  1.551873E+05  6.311024E+04 -2.923782E+04  6.945219E+02  3.029457E+04
       108   5  7.068554E+03  1.517252E+05  4.939256E+04 -2.703115E+04 -5.120172E+02  5.584760E+03
       108   6  1.305679E+04  1.551873E+05  5.551018E+04 -2.925360E+04 -1.685979E+03 -1.912479E+04
       108   7  1.198539E+04  1.381346E+05  5.995500E+04 -2.030459E+04  6.808199E+02  3.304866E+04
       108   8  8.609462E+03  1.584369E+05  5.042667E+04 -2.639475E+04 -5.258356E+02  8.272703E+03
       108   9  2.030108E+04  1.856756E+05  6.077993E+04 -3.691436E+04 -1.699255E+03 -1.650388E+04
       108  10  2.028695E+04  1.722396E+05  6.626411E+04 -3.817131E+04  2.295644E-09 -1.229544E-07
       108  11  5.527646E+03  1.450136E+05  4.835846E+04 -2.766754E+04  2.709725E-09 -3.617984E-08
       108  12  5.812530E+03  1.246994E+05  5.023956E+04 -2.159325E+04 -3.308818E-10  5.459928E-08
       108  13  1.613588E+04  1.551863E+05  6.310851E+04 -2.923783E+04 -1.470460E-08  1.329087E-09
       108  14  7.068545E+03  1.517252E+05  4.939250E+04 -2.703115E+04 -5.639264E-09 -1.926926E-10
       108  15  1.305668E+04  1.551869E+05  5.550949E+04 -2.925362E+04  1.049679E-09  1.167355E-09
       108  16  1.198510E+04  1.381334E+05  5.995294E+04 -2.030461E+04  3.438588E-09  1.226800E-07
       108  17  8.609443E+03  1.584368E+05  5.042654E+04 -2.639475E+04  5.530586E-09  3.855921E-08
       108  18  2.030101E+04  1.856753E+05  6.077942E+04 -3.691438E+04  3.215576E-09 -5.404963E-08
       108  19  2.028715E+04  1.722404E+05  6.626554E+04 -3.817129E+04 -7.083029E+02 -2.754040E+04
       108  20  5.527649E+03  1.450136E+05  4.835847E+04 -2.766754E+04  4.981932E+02 -2.896845E+03
       108  21  5.812660E+03  1.247000E+05  5.024045E+04 -2.159322E+04  1.672766E+03  2.174557E+04
       108  22  1.613613E+04  1.551873E+05  6.311024E+04 -2.923782E+04 -6.945219E+02 -3.029457E+04
       108  23  7.068554E+03  1.517252E+05  4.939256E+04 -2.703115E+04  5.120172E+02 -5.584760E+03
       108  24  1.305679E+04  1.551873E+05  5.551018E+04 -2.925360E+04  1.685979E+03  1.912479E+04
       108  25  1.198539E+04  1.381346E+05  5.995500E+04 -2.030459E+04 -6.808199E+02 -3.304866E+04
       108  26  8.609462E+03  1.584369E+05  5.042667E+04 -2.639475E+04  5.258356E+02 -8.272703E+03
       108  27  2.030108E+04  1.856756E+05  6.077993E+04 -3.691436E+04  1.699255E+03  1.650388E+04
       109   1  4.711595E+03  1.144446E+05  5.690930E+04 -3.023134E+04 -2.466363E+03 -3.097277E+04
       109   2  3.815264E+04  7.687637E+04  9.074562E+04  3.410849E+04 -2.456023E+03 -7.994518E+04
       109   3  1.609494E+05  6.798072E+04  1.787996E+05  9.442157E+04 -3.204603E+02 -1.289041E+05
       109   4  1.543387E+04  1.601863E+05  6.485235E+04 -2.923688E+04 -2.480039E+03 -2.832088E+04
       109   5  5.531226E+04  1.454733E+05  1.042508E+05 -2.678895E+04 -2.439428E+03 -8.165371E+04
       109   6  1.852827E+05  1.601759E+05  2.008889E+05 -2.836762E+04 -2.639426E+02 -1.349751E+05
       109   7  2.615604E+04  2.059301E+05  7.279535E+04 -2.824234E+04 -2.493707E+03 -2.566880E+04
       109   8  7.248549E+04  2.140826E+05  1.177577E+05 -8.769329E+04 -2.422498E+03 -8.336242E+04
       109   9  2.096720E+05  2.524111E+05  2.229858E+05 -1.511753E+05 -2.050292E+02 -1.410470E+05
       109  10  4.711331E+03  1.144436E+05  5.690748E+04 -3.023140E+04 -2.012627E-09  2.611869E-09
       109  11  3.815092E+04  7.686951E+04  9.073360E+04  3.410833E+04 -7.944440E-10  1.671330E-09
       109  12  1.609449E+05  6.796288E+04  1.787684E+05  9.442154E+04  1.047726E-09 -8.270604E-10
       109  13  1.543365E+04  1.601855E+05  6.485083E+04 -2.923694E+04 -3.576641E-09  1.580437E-09
       109  14  5.531047E+04  1.454661E+05  1.042383E+05 -2.678911E+04 -2.059820E-10  2.266740E-10
       109  15  1.852779E+05  1.601563E+05  2.008547E+05 -2.836765E+04 -1.408992E-09  1.048187E-09
       109  16  2.615586E+04  2.059294E+05  7.279410E+04 -2.824239E+04 -3.729670E-10 -2.574963E-09
       109  17  7.248362E+04  2.140752E+05  1.177447E+05 -8.769345E+04 -1.758959E-09  7.527871E-10
       109  18  2.096667E+05  2.523898E+05  2.229484E+05 -1.511753E+05  6.829878E-10  1.748739E-09
       109  19  4.711595E+03  1.144446E+05  5.690930E+04 -3.023134E+04  2.466363E+03  3.097277E+04
       109  20  3.815264E+04  7.687637E+04  9.074562E+04  3.410849E+04  2.456023E+03  7.994518E+04
       109  21  1.609494E+05  6.798072E+04  1.787996E+05  9.442157E+04  3.204603E+02  1.289041E+05
       109  22  1.543387E+04  1.601863E+05  6.485235E+04 -2.923688E+04  2.480039E+03  2.832088E+04
       109  23  5.531226E+04  1.454733E+05  1.042508E+05 -2.678895E+04  2.439428E+03  8.165371E+04
       109  24  1.852827E+05  1.601759E+05  2.008889E+05 -2.836762E+04  2.639426E+02  1.349751E+05
       109  25  2.615604E+04  2.059301E+05  7.279535E+04 -2.824234E+04  2.493707E+03  2.566880E+04
       109  26  7.248549E+04  2.140826E+05  1.177577E+05 -8.769329E+04  2.422498E+03  8.336242E+04
       109  27  2.096720E+05  2.524111E+05  2.229858E+05 -1.511753E+05  2.050292E+02  1.410470E+05
       110   1 -6.174825E+06 -1.917846E+06 -1.272325E+06 -2.110428E+06 -6.537766E+05 -2.395786E+05
       110   2 -6.015563E+06 -9.905716E+05 -6.723106E+05 -2.291084E+06 -4.242347E+05 -1.334661E+05
       110   3 -6.268826E+06 -1.028281E+06 -5.172245E+05 -2.200718E+06 -1.881575E+05 -4.458102E+04
       110   4 -5.375132E+06 -1.450003E+06 -1.019142E+06 -1.726685E+06 -6.460159E+05 -2.368402E+05
       110   5 -5.116025E+06 -6.045143E+05 -4.194416E+05 -2.000057E+06 -4.219849E+05 -1.326521E+05
       110   6 -5.267845E+06 -7.221031E+05 -2.598208E+05 -2.002578E+06 -1.913821E+05 -4.577689E+04
       110   7 -4.574752E+06 -9.818078E+05 -7.660209E+05 -1.342406E+06 -6.382438E+05 -2.340921E+05
       110   8 -4.215696E+06 -2.183444E+05 -1.666507E+05 -1.708623E+06 -4.197311E+05 -1.318362E+05
       110   9 -4.265886E+06 -4.159391E+05 -2.494616E+03 -1.804185E+06 -1.946122E+05 -4.697392E+04
       110  10 -6.175304E+06 -1.918025E+06 -1.273246E+06 -2.110555E+06 -3.569136E-10 -1.222584E-09
       110  11 -6.015762E+06 -9.906399E+05 -6.726865E+05 -2.291130E+06 -2.388572E-09 -1.146977E-09
       110  12 -6.268865E+06 -1.028293E+06 -5.172956E+05 -2.200725E+06 -3.928262E-09  4.535654E-10
       110  13 -5.375599E+06 -1.450177E+06 -1.020040E+06 -1.726809E+06  2.468578E-09 -2.781269E-09
       110  14 -5.116222E+06 -6.045817E+05 -4.198129E+05 -2.000102E+06 -4.569362E-09 -1.996354E-09
       110  15 -5.267885E+06 -7.221153E+05 -2.598942E+05 -2.002585E+06  1.029938E-09 -1.518231E-09
       110  16 -4.575207E+06 -9.819774E+05 -7.668965E+05 -1.342527E+06 -2.468846E-09  2.707264E-10
       110  17 -4.215891E+06 -2.184109E+05 -1.670174E+05 -1.708668E+06 -1.383678E-09 -2.707685E-09
       110  18 -4.265927E+06 -4.159518E+05 -2.570535E+03 -1.804192E+06  2.445290E-09 -8.492319E-10
       110  19 -6.174825E+06 -1.917846E+06 -1.272325E+06 -2.110428E+06  6.537766E+05  2.395786E+05
       110  20 -6.015563E+06 -9.905716E+05 -6.723106E+05 -2.291084E+06  4.242347E+05  1.334661E+05
       110  21 -6.268826E+06 -1.028281E+06 -5.172245E+05 -2.200718E+06  1.881575E+05  4.458102E+04
       110  22 -5.375132E+06 -1.450003E+06 -1.019142E+06 -1.726685E+06  6.460159E+05  2.368402E+05
       110  23 -5.116025E+06 -6.045143E+05 -4.194416E+05 -2.000057E+06  4.219849E+05  1.326521E+05
       110  24 -5.267845E+06 -7.221031E+05 -2.598208E+05 -2.002578E+06  1.913821E+05  4.577689E+04
       110  25 -4.574752E+06 -9.818078E+05 -7.660209E+05 -1.342406E+06  6.382438E+05  2.340921E+05
       110  26 -4.215696E+06 -2.183444E+05 -1.666507E+05 -1.708623E+06  4.197311E+05  1.318362E+05
       110  27 -4.265886E+06 -4.159391E+05 -2.494616E+03 -1.804185E+06  1.946122E+05  4.697392E+04
       111   1 -6.145359E+06 -1.211927E+06 -4.667258E+05 -2.217517E+06 -1.531830E+05 -3.412749E+04
       111   2 -6.107283E+06 -1.068463E+06 -3.448846E+05 -2.219293E+06 -1.008584E+05 -1.300081E+04
       111   3 -6.100265E+06 -1.074312E+06 -2.970428E+05 -2.213062E+06 -4.746355E+04  5.296048E+03
       111   4 -5.227395E+06 -8.434174E+05 -2.129019E+05 -1.946552E+06 -1.524717E+05 -3.386726E+04
       111   5 -5.205059E+06 -7.214977E+05 -9.884596E+04 -1.968366E+06 -1.010185E+05 -1.306470E+04
       111   6 -5.213532E+06 -7.485975E+05 -5.800826E+04 -1.982190E+06 -4.849738E+04  4.906128E+03
       111   7 -4.308610E+06 -4.748296E+05  4.084401E+04 -1.675211E+06 -1.517592E+05 -3.360646E+04
       111   8 -4.302045E+06 -3.744777E+05  1.471189E+05 -1.717105E+06 -1.011788E+05 -1.312864E+04
       111   9 -4.326037E+06 -4.228486E+05  1.809565E+05 -1.751022E+06 -4.953282E+04  4.515650E+03
       111  10 -6.145384E+06 -1.211934E+06 -4.667726E+05 -2.217521E+06  5.262512E-10  2.411867E-10
       111  11 -6.107294E+06 -1.068466E+06 -3.449043E+05 -2.219294E+06  2.431648E-09 -4.346293E-10
       111  12 -6.100267E+06 -1.074313E+06 -2.970472E+05 -2.213062E+06 -4.342310E-10 -3.198764E-10
       111  13 -5.227421E+06 -8.434249E+05 -2.129482E+05 -1.946556E+06 -5.628152E-11  8.336032E-11
       111  14 -5.205070E+06 -7.215006E+05 -9.886563E+04 -1.968367E+06 -1.708075E-09  2.648775E-10
       111  15 -5.213534E+06 -7.485982E+05 -5.801276E+04 -1.982190E+06 -2.641286E-09  2.276133E-09
       111  16 -4.308635E+06 -4.748370E+05  4.079826E+04 -1.675215E+06 -2.112860E-10 -3.298054E-10
       111  17 -4.302056E+06 -3.744807E+05  1.470992E+05 -1.717106E+06 -1.186516E-09  3.303660E-10
       111  18 -4.326039E+06 -4.228493E+05  1.809519E+05 -1.751022E+06 -7.707583E-11  8.571651E-11
       111  19 -6.145359E+06 -1.211927E+06 -4.667258E+05 -2.217517E+06  1.531830E+05  3.412749E+04
       111  20 -6.107283E+06 -1.068463E+06 -3.448846E+05 -2.219293E+06  1.008584E+05  1.300081E+04
       111  21 -6.100265E+06 -1.074312E+06 -2.970428E+05 -2.213062E+06  4.746355E+04 -5.296048E+03
       111  22 -5.227395E+06 -8.434174E+05 -2.129019E+05 -1.946552E+06  1.524717E+05  3.386726E+04
       111  23 -5.205059E+06 -7.214977E+05 -9.884596E+04 -1.968366E+06  1.010185E+05  1.306470E+04
       111  24 -5.213532E+06 -7.485975E+05 -5.800826E+04 -1.982190E+06  4.849738E+04 -4.906128E+03
       111  25 -4.308610E+06 -4.748296E+05  4.084401E+04 -1.675211E+06  1.517592E+05  3.360646E+04
       111  26 -4.302045E+06 -3.744777E+05  1.471189E+05 -1.717105E+06  1.011788E+05  1.312864E+04
       111  27 -4.326037E+06 -4.228486E+05  1.809565E+05 -1.751022E+06  4.953282E+04 -4.515650E+03
       112   1 -5.973774E+06 -1.063837E+06 -2.556687E+05 -2.193098E+06 -3.906166E+04  6.921180E+03
       112   2 -5.933564E+06 -9.981875E+05 -2.157940E+05 -2.149100E+06 -2.619762E+04  9.599026E+03
       112   3 -5.848437E+06 -1.000380E+06 -1.892298E+05 -2.159707E+06 -1.296941E+04  1.129201E+04
       112   4 -5.202277E+06 -7.698759E+05 -4.589231E+04 -1.981285E+06 -3.955569E+04  6.733784E+03
       112   5 -5.223861E+06 -7.297614E+05 -2.313734E+04 -1.956307E+06 -2.700607E+04  9.294801E+03
       112   6 -5.200461E+06 -7.574091E+05 -1.342833E+04 -1.985931E+06 -1.409380E+04  1.087091E+04
       112   7 -4.430204E+06 -4.758789E+05  1.638298E+05 -1.769232E+06 -4.005039E+04  6.546138E+03
       112   8 -4.513670E+06 -4.613059E+05  1.694739E+05 -1.763312E+06 -2.781553E+04  8.990196E+03
       112   9 -4.552078E+06 -5.144148E+05  1.623357E+05 -1.811990E+06 -1.521949E+04  1.044934E+04
       112  10 -5.973775E+06 -1.063837E+06 -2.556717E+05 -2.193097E+06  2.071652E-09 -5.262243E-10
       112  11 -5.933565E+06 -9.981877E+05 -2.157955E+05 -2.149100E+06  1.213344E-09  1.953142E-10
       112  12 -5.848437E+06 -1.000381E+06 -1.892304E+05 -2.159707E+06  2.051142E-10  2.295672E-09
       112  13 -5.202278E+06 -7.698764E+05 -4.589536E+04 -1.981285E+06 -1.197782E-09  1.965656E-09
       112  14 -5.223862E+06 -7.297617E+05 -2.313888E+04 -1.956306E+06 -6.521469E-10  1.993041E-09
       112  15 -5.200462E+06 -7.574093E+05 -1.342892E+04 -1.985931E+06 -1.299717E-09  1.248636E-10
       112  16 -4.430206E+06 -4.758793E+05  1.638267E+05 -1.769232E+06 -5.596971E-10  5.815864E-10
       112  17 -4.513671E+06 -4.613062E+05  1.694723E+05 -1.763312E+06 -2.787512E-09  8.819058E-10
       112  18 -4.552079E+06 -5.144150E+05  1.623351E+05 -1.811990E+06 -6.152400E-10 -1.277466E-09
       112  19 -5.973774E+06 -1.063837E+06 -2.556687E+05 -2.193098E+06  3.906166E+04 -6.921180E+03
       112  20 -5.933564E+06 -9.981875E+05 -2.157940E+05 -2.149100E+06  2.619762E+04 -9.599026E+03
       112  21 -5.848437E+06 -1.000380E+06 -1.892298E+05 -2.159707E+06  1.296941E+04 -1.129201E+04
       112  22 -5.202277E+06 -7.698759E+05 -4.589231E+04 -1.981285E+06  3.955569E+04 -6.733784E+03
       112  23 -5.223861E+06 -7.297614E+05 -2.313734E+04 -1.956307E+06  2.700607E+04 -9.294801E+03
       112  24 -5.200461E+06 -7.574091E+05 -1.342833E+04 -1.985931E+06  1.409380E+04 -1.087091E+04
       112  25 -4.430204E+06 -4.758789E+05  1.638298E+05 -1.769232E+06  4.005039E+04 -6.546138E+03
       112  26 -4.513670E+06 -4.613059E+05  1.694739E+05 -1.763312E+06  2.781553E+04 -8.990196E+03
       112  27 -4.552078E+06 -5.144148E+05  1.623357E+05 -1.811990E+06  1.521949E+04 -1.044934E+04
       113   1 -5.663549E+06 -9.402941E+05 -1.373829E+05 -2.116694E+06 -1.043123E+04  1.011827E+04
       113   2 -5.610707E+06 -8.694136E+05 -1.095235E+05 -2.052210E+06 -5.840525E+03  8.189537E+03
       113   3 -5.487794E+06 -8.720508E+05 -8.479284E+04 -2.069126E+06 -1.090234E+03  5.821427E+03
       113   4 -5.195537E+06 -7.637604E+05 -1.070650E+04 -1.989959E+06 -1.143045E+04  9.744721E+03
       113   5 -5.230468E+06 -7.262381E+05 -6.446375E+03 -1.949549E+06 -6.984140E+03  7.762873E+03
       113   6 -5.195309E+06 -7.621998E+05 -5.197290E+03 -1.990537E+06 -2.378852E+03  5.341607E+03
       113   7 -4.727313E+06 -5.872139E+05  1.159504E+05 -1.863138E+06 -1.243050E+04  9.370863E+03
       113   8 -4.850091E+06 -5.830549E+05  9.661741E+04 -1.846831E+06 -8.128528E+03  7.335921E+03
       113   9 -4.902745E+06 -6.523450E+05  7.438992E+04 -1.911915E+06 -3.668133E+03  4.861541E+03
       113  10 -5.663549E+06 -9.402942E+05 -1.373833E+05 -2.116694E+06  1.146972E-09  1.087692E-09
       113  11 -5.610707E+06 -8.694136E+05 -1.095237E+05 -2.052210E+06  2.208830E-09  3.009366E-10
       113  12 -5.487794E+06 -8.720508E+05 -8.479290E+04 -2.069126E+06 -1.416735E-09 -2.376227E-09
       113  13 -5.195537E+06 -7.637605E+05 -1.070692E+04 -1.989959E+06  1.299723E-09 -8.466088E-10
       113  14 -5.230468E+06 -7.262382E+05 -6.446580E+03 -1.949549E+06  3.818466E-09  9.455124E-10
       113  15 -5.195309E+06 -7.621998E+05 -5.197354E+03 -1.990537E+06  1.088087E-09 -4.506094E-10
       113  16 -4.727313E+06 -5.872140E+05  1.159499E+05 -1.863138E+06  3.343725E-10 -1.578383E-09
       113  17 -4.850091E+06 -5.830550E+05  9.661719E+04 -1.846831E+06  7.021821E-09 -2.204319E-09
       113  18 -4.902745E+06 -6.523450E+05  7.438985E+04 -1.911915E+06  1.663766E-09  4.339136E-11
       113  19 -5.663549E+06 -9.402941E+05 -1.373829E+05 -2.116694E+06  1.043123E+04 -1.011827E+04
       113  20 -5.610707E+06 -8.694136E+05 -1.095235E+05 -2.052210E+06  5.840525E+03 -8.189537E+03
       113  21 -5.487794E+06 -8.720508E+05 -8.479284E+04 -2.069126E+06  1.090234E+03 -5.821427E+03
       113  22 -5.195537E+06 -7.637604E+05 -1.070650E+04 -1.989959E+06  1.143045E+04 -9.744721E+03
       113  23 -5.230468E+06 -7.262381E+05 -6.446375E+03 -1.949549E+06  6.984140E+03 -7.762873E+03
       113  24 -5.195309E+06 -7.621998E+05 -5.197290E+03 -1.990537E+06  2.378852E+03 -5.341607E+03
       113  25 -4.727313E+06 -5.872139E+05  1.159504E+05 -1.863138E+06  1.243050E+04 -9.370863E+03
       113  26 -4.850091E+06 -5.830549E+05  9.661741E+04 -1.846831E+06  8.128528E+03 -7.335921E+03
       113  27 -4.902745E+06 -6.523450E+05  7.438992E+04 -1.911915E+06  3.668133E+03 -4.861541E+03
       114   1 -5.268135E+06 -7.917427E+05 -2.503956E+04 -2.012482E+06  5.764177E+02  3.890289E+03
       114   2 -5.210291E+06 -7.161194E+05 -6.655810E+02 -1.941498E+06  5.286120E+03  1.369718E+03
       114   3 -5.076363E+06 -7.206201E+05  2.051987E+04 -1.959640E+06  9.978637E+03 -1.101901E+03
       114   4 -5.193958E+06 -7.636936E+05 -5.259481E+03 -1.992238E+06 -6.877822E+02  3.419897E+03
       114   5 -5.232098E+06 -7.243487E+05 -6.578879E+03 -1.947407E+06  4.038067E+03  9.052517E+02
       114   6 -5.194167E+06 -7.651330E+05 -1.109944E+04 -1.991706E+06  8.746151E+03 -1.560618E+03
       114   7 -5.119776E+06 -7.356439E+05  1.452026E+04 -1.971992E+06 -1.952157E+03  2.949438E+03
       114   8 -5.253905E+06 -7.325781E+05 -1.249225E+04 -1.953315E+06  2.790056E+03  4.408008E+02
       114   9 -5.311957E+06 -8.096452E+05 -4.272012E+04 -2.023766E+06  7.513918E+03 -2.019239E+03
       114  10 -5.268135E+06 -7.917427E+05 -2.503959E+04 -2.012482E+06  3.163126E-10 -9.172334E-10
       114  11 -5.210291E+06 -7.161194E+05 -6.656376E+02 -1.941498E+06  2.616413E-09  1.160677E-09
       114  12 -5.076363E+06 -7.206202E+05  2.051968E+04 -1.959640E+06  1.223052E-09  4.361425E-09
       114  13 -5.193958E+06 -7.636936E+05 -5.259504E+03 -1.992238E+06 -1.585557E-09 -1.621573E-09
       114  14 -5.232098E+06 -7.243487E+05 -6.578911E+03 -1.947407E+06  2.813179E-09  1.854881E-09
       114  15 -5.194167E+06 -7.651330E+05 -1.109959E+04 -1.991706E+06  1.355368E-09  1.994988E-09
       114  16 -5.119776E+06 -7.356439E+05  1.452023E+04 -1.971992E+06  2.418219E-09  1.291614E-09
       114  17 -5.253905E+06 -7.325781E+05 -1.249226E+04 -1.953315E+06  2.465599E-09  2.698308E-10
       114  18 -5.311957E+06 -8.096452E+05 -4.272023E+04 -2.023766E+06  9.881113E-10 -5.298104E-10
       114  19 -5.268135E+06 -7.917427E+05 -2.503956E+04 -2.012482E+06 -5.764177E+02 -3.890289E+03
       114  20 -5.210291E+06 -7.161194E+05 -6.655810E+02 -1.941498E+06 -5.286120E+03 -1.369718E+03
       114  21 -5.076363E+06 -7.206201E+05  2.051987E+04 -1.959640E+06 -9.978637E+03  1.101901E+03
       114  22 -5.193958E+06 -7.636936E+05 -5.259481E+03 -1.992238E+06  6.877822E+02 -3.419897E+03
       114  23 -5.232098E+06 -7.243487E+05 -6.578879E+03 -1.947407E+06 -4.038067E+03 -9.052517E+02
       114  24 -5.194167E+06 -7.651330E+05 -1.109944E+04 -1.991706E+06 -8.746151E+03  1.560618E+03
       114  25 -5.119776E+06 -7.356439E+05  1.452026E+04 -1.971992E+06  1.952157E+03 -2.949438E+03
       114  26 -5.253905E+06 -7.325781E+05 -1.249225E+04 -1.953315E+06 -2.790056E+03 -4.408008E+02
       114  27 -5.311957E+06 -8.096452E+05 -4.272012E+04 -2.023766E+06 -7.513918E+03  2.019239E+03
       115   1 -4.862243E+06 -6.369967E+05  7.668149E+04 -1.902084E+06  1.294966E+04 -2.542731E+03
       115   2 -4.809377E+06 -5.661484E+05  8.965590E+04 -1.836640E+06  2.637795E+04 -1.619683E+03
       115   3 -4.694543E+06 -5.821925E+05  8.897648E+04 -1.847288E+06  3.956200E+04 -2.313894E+01
       115   4 -5.196609E+06 -7.614066E+05 -1.399417E+04 -1.990775E+06  1.163409E+04 -3.032747E+03
       115   5 -5.228499E+06 -7.244003E+05 -2.399489E+04 -1.950327E+06  2.527914E+04 -2.029906E+03
       115   6 -5.198476E+06 -7.743410E+05 -4.782969E+04 -1.985977E+06  3.867810E+04 -3.540813E+02
       115   7 -5.530865E+06 -8.858100E+05 -1.046792E+05 -2.079422E+06  1.031932E+04 -3.522475E+03
       115   8 -5.647450E+06 -8.826416E+05 -1.376612E+05 -2.063944E+06  2.418114E+04 -2.439821E+03
       115   9 -5.702164E+06 -9.664740E+05 -1.846592E+05 -2.124564E+06  3.779498E+04 -6.847242E+02
       115  10 -4.862243E+06 -6.369968E+05  7.668117E+04 -1.902084E+06  1.611215E-09  2.325495E-09
       115  11 -4.809377E+06 -5.661486E+05  8.965457E+04 -1.836640E+06  9.430825E-11  1.233092E-10
       115  12 -4.694544E+06 -5.821930E+05  8.897352E+04 -1.847288E+06 -1.313391E-10 -1.505174E-10
       115  13 -5.196609E+06 -7.614066E+05 -1.399444E+04 -1.990775E+06  5.263686E-10  2.162973E-09
       115  14 -5.228500E+06 -7.244004E+05 -2.399610E+04 -1.950327E+06 -2.593255E-09 -9.380142E-11
       115  15 -5.198477E+06 -7.743414E+05 -4.783252E+04 -1.985977E+06 -3.532530E-09 -1.046166E-09
       115  16 -5.530865E+06 -8.858100E+05 -1.046794E+05 -2.079422E+06 -1.503404E-09 -2.759909E-10
       115  17 -5.647451E+06 -8.826418E+05 -1.376623E+05 -2.063944E+06  8.388081E-11  4.796165E-09
       115  18 -5.702166E+06 -9.664744E+05 -1.846619E+05 -2.124564E+06 -1.270312E-09  1.246178E-10
       115  19 -4.862243E+06 -6.369967E+05  7.668149E+04 -1.902084E+06 -1.294966E+04  2.542731E+03
       115  20 -4.809377E+06 -5.661484E+05  8.965590E+04 -1.836640E+06 -2.637795E+04  1.619683E+03
       115  21 -4.694543E+06 -5.821925E+05  8.897648E+04 -1.847288E+06 -3.956200E+04  2.313894E+01
       115  22 -5.196609E+06 -7.614066E+05 -1.399417E+04 -1.990775E+06 -1.163409E+04  3.032747E+03
       115  23 -5.228499E+06 -7.244003E+05 -2.399489E+04 -1.950327E+06 -2.527914E+04  2.029906E+03
       115  24 -5.198476E+06 -7.743410E+05 -4.782969E+04 -1.985977E+06 -3.867810E+04  3.540813E+02
       115  25 -5.530865E+06 -8.858100E+05 -1.046792E+05 -2.079422E+06 -1.031932E+04  3.522475E+03
       115  26 -5.647450E+06 -8.826416E+05 -1.376612E+05 -2.063944E+06 -2.418114E+04  2.439821E+03
       115  27 -5.702164E+06 -9.664740E+05 -1.846592E+05 -2.124564E+06 -3.779498E+04  6.847242E+02
       116   1 -4.522117E+06 -5.059903E+05  1.237239E+05 -1.814337E+06  4.967392E+04  1.426371E+03
       116   2 -4.477265E+06 -4.307979E+05  9.717563E+04 -1.755414E+06  1.039600E+05  1.857135E+04
       116   3 -4.439220E+06 -5.367865E+05 -5.108572E+03 -1.718494E+06  1.572196E+05  3.848011E+04
       116   4 -5.208042E+06 -7.543014E+05 -6.044633E+04 -1.989326E+06  4.825065E+04  8.941525E+02
       116   5 -5.211673E+06 -7.130882E+05 -1.028834E+05 -1.959831E+06  1.033985E+05  1.835832E+04
       116   6 -5.222349E+06 -8.533361E+05 -2.218163E+05 -1.952333E+06  1.575148E+05  3.858270E+04
       116   7 -5.893514E+06 -1.002595E+06 -2.446579E+05 -2.164144E+06  4.682910E+04  3.625153E+02
       116   8 -5.945557E+06 -9.953420E+05 -3.029912E+05 -2.164027E+06  1.028378E+05  1.814556E+04
       116   9 -6.004880E+06 -1.169825E+06 -4.385807E+05 -2.185894E+06  1.578094E+05  3.868505E+04
       116  10 -4.522119E+06 -5.059910E+05  1.237192E+05 -1.814337E+06  1.748339E-10 -3.562930E-10
       116  11 -4.477277E+06 -4.308012E+05  9.715450E+04 -1.755416E+06 -1.480386E-09 -8.831617E-10
       116  12 -4.439247E+06 -5.367948E+05 -5.158204E+03 -1.718499E+06 -7.490348E-10  2.826177E-10
       116  13 -5.208045E+06 -7.543021E+05 -6.045074E+04 -1.989326E+06 -2.027326E-09  2.295707E-09
       116  14 -5.211684E+06 -7.130915E+05 -1.029043E+05 -1.959833E+06 -5.114764E-09 -1.421508E-09
       116  15 -5.222376E+06 -8.533445E+05 -2.218662E+05 -1.952338E+06 -5.276503E-10  7.217359E-10
       116  16 -5.893516E+06 -1.002596E+06 -2.446621E+05 -2.164144E+06 -8.961343E-10  6.551761E-10
       116  17 -5.945568E+06 -9.953453E+05 -3.030119E+05 -2.164029E+06 -1.045778E-09  5.048227E-10
       116  18 -6.004908E+06 -1.169834E+06 -4.386309E+05 -2.185899E+06 -1.062502E-09  1.091148E-09
       116  19 -4.522117E+06 -5.059903E+05  1.237239E+05 -1.814337E+06 -4.967392E+04 -1.426371E+03
       116  20 -4.477265E+06 -4.307979E+05  9.717563E+04 -1.755414E+06 -1.039600E+05 -1.857135E+04
       116  21 -4.439220E+06 -5.367865E+05 -5.108572E+03 -1.718494E+06 -1.572196E+05 -3.848011E+04
       116  22 -5.208042E+06 -7.543014E+05 -6.044633E+04 -1.989326E+06 -4.825065E+04 -8.941525E+02
       116  23 -5.211673E+06 -7.130882E+05 -1.028834E+05 -1.959831E+06 -1.033985E+05 -1.835832E+04
       116  24 -5.222349E+06 -8.533361E+05 -2.218163E+05 -1.952333E+06 -1.575148E+05 -3.858270E+04
       116  25 -5.893514E+06 -1.002595E+06 -2.446579E+05 -2.164144E+06 -4.682910E+04 -3.625153E+02
       116  26 -5.945557E+06 -9.953420E+05 -3.029912E+05 -2.164027E+06 -1.028378E+05 -1.814556E+04
       116  27 -6.004880E+06 -1.169825E+06 -4.385807E+05 -2.185894E+06 -1.578094E+05 -3.868505E+04
       117   1 -4.311389E+06 -4.446136E+05 -2.753627E+04 -1.831591E+06  2.023546E+05  5.142187E+04
       117   2 -4.236042E+06 -2.095587E+05 -1.883590E+05 -1.703772E+06  4.374494E+05  1.377942E+05
       117   3 -4.555106E+06 -1.007714E+06 -8.024572E+05 -1.330463E+06  6.655712E+05  2.427177E+05
       117   4 -5.263513E+06 -7.277051E+05 -2.706366E+05 -2.011527E+06  1.984309E+05  4.997491E+04
       117   5 -5.120685E+06 -5.898676E+05 -4.368833E+05 -1.991333E+06  4.393854E+05  1.384818E+05
       117   6 -5.374051E+06 -1.487378E+06 -1.061592E+06 -1.725470E+06  6.733870E+05  2.454451E+05
       117   7 -6.214755E+06 -1.010814E+06 -5.138060E+05 -2.191250E+06  1.945137E+05  4.852918E+04
       117   8 -6.004561E+06 -9.700636E+05 -6.854817E+05 -2.278498E+06  4.413179E+05  1.391677E+05
       117   9 -6.192264E+06 -1.966662E+06 -1.320789E+06 -2.119907E+06  6.811909E+05  2.481623E+05
       117  10 -4.311434E+06 -4.446276E+05 -2.761885E+04 -1.831599E+06  1.549490E-09  3.850242E-10
       117  11 -4.236254E+06 -2.096311E+05 -1.887575E+05 -1.703821E+06  1.251337E-09 -2.575997E-09
       117  12 -4.555601E+06 -1.007898E+06 -8.034080E+05 -1.330594E+06 -9.064176E-10 -9.653290E-10
       117  13 -5.263557E+06 -7.277185E+05 -2.707160E+05 -2.011535E+06  1.086655E-09 -7.036014E-10
       117  14 -5.120899E+06 -5.899408E+05 -4.372860E+05 -1.991382E+06 -2.709130E-09 -2.501468E-11
       117  15 -5.374558E+06 -1.487567E+06 -1.062567E+06 -1.725604E+06 -1.113648E-09  1.447617E-10
       117  16 -6.214797E+06 -1.010827E+06 -5.138823E+05 -2.191258E+06  7.826174E-10 -9.319618E-10
       117  17 -6.004777E+06 -9.701376E+05 -6.858887E+05 -2.278547E+06 -1.641603E-10  1.395773E-10
       117  18 -6.192784E+06 -1.966855E+06 -1.321788E+06 -2.120045E+06  1.373140E-09 -1.025671E-09
       117  19 -4.311389E+06 -4.446136E+05 -2.753627E+04 -1.831591E+06 -2.023546E+05 -5.142187E+04
       117  20 -4.236042E+06 -2.095587E+05 -1.883590E+05 -1.703772E+06 -4.374494E+05 -1.377942E+05
       117  21 -4.555106E+06 -1.007714E+06 -8.024572E+05 -1.330463E+06 -6.655712E+05 -2.427177E+05
       117  22 -5.263513E+06 -7.277051E+05 -2.706366E+05 -2.011527E+06 -1.984309E+05 -4.997491E+04
       117  23 -5.120685E+06 -5.898676E+05 -4.368833E+05 -1.991333E+06 -4.393854E+05 -1.384818E+05
       117  24 -5.374051E+06 -1.487378E+06 -1.061592E+06 -1.725470E+06 -6.733870E+05 -2.454451E+05
       117  25 -6.214755E+06 -1.010814E+06 -5.138060E+05 -2.191250E+06 -1.945137E+05 -4.852918E+04
       117  26 -6.004561E+06 -9.700636E+05 -6.854817E+05 -2.278498E+06 -4.413179E+05 -1.391677E+05
       117  27 -6.192264E+06 -1.966662E+06 -1.320789E+06 -2.119907E+06 -6.811909E+05 -2.481623E+05
       118   1 -1.119632E+06  1.544690E+05  2.281828E+05  3.366113E+04  2.178922E+05  2.835853E+03
       118   2 -1.154301E+06 -1.435095E+05  4.838504E+04  1.110369E+04  1.439657E+05  7.150180E+03
       118   3 -1.092645E+06 -9.749424E+04  2.934255E+03 -3.098554E+04  7.004636E+04  6.053147E+03
       118   4 -7.415469E+05  2.487593E+05  3.223405E+05 -1.010440E+04  2.198801E+05  2.824427E+03
       118   5 -7.898684E+05 -5.258625E+04  1.383927E+05 -6.921431E+01  1.444842E+05  7.148115E+03
       118   6 -7.416676E+05 -9.794561E+03  8.975515E+04 -9.566583E+03  6.909736E+04  6.054071E+03
       118   7 -3.633280E+05  3.430462E+05  4.164885E+05 -5.389669E+04  2.218691E+05  2.812727E+03
       118   8 -4.253145E+05  3.832755E+04  2.283905E+05 -1.124875E+04  1.450030E+05  7.146033E+03
       118   9 -3.905767E+05  7.789760E+04  1.765671E+05  1.186448E+04  6.814781E+04  6.054930E+03
       118  10 -1.119683E+06  1.544562E+05  2.280934E+05  3.366063E+04 -7.320039E-10  7.625923E-10
       118  11 -1.154323E+06 -1.435151E+05  4.834593E+04  1.110286E+04 -2.032101E-09 -6.850782E-11
       118  12 -1.092651E+06 -9.749560E+04  2.924950E+03 -3.098588E+04  2.821410E-09 -5.012016E-10
       118  13 -7.415988E+05  2.487463E+05  3.222495E+05 -1.010490E+04 -6.866462E-11  6.428568E-10
       118  14 -7.898909E+05 -5.259192E+04  1.383533E+05 -7.004619E+01  5.554687E-10 -1.784337E-09
       118  15 -7.416728E+05 -9.795884E+03  8.974610E+04 -9.566920E+03 -1.375648E-09 -5.086472E-10
       118  16 -3.633809E+05  3.430329E+05  4.163959E+05 -5.389719E+04  3.891186E-10 -4.327827E-11
       118  17 -4.253371E+05  3.832185E+04  2.283509E+05 -1.124959E+04 -2.382781E-09  1.548442E-10
       118  18 -3.905817E+05  7.789631E+04  1.765583E+05  1.186415E+04  1.027142E-09 -1.055829E-09
       118  19 -1.119632E+06  1.544690E+05  2.281828E+05  3.366113E+04 -2.178922E+05 -2.835853E+03
       118  20 -1.154301E+06 -1.435095E+05  4.838504E+04  1.110369E+04 -1.439657E+05 -7.150180E+03
       118  21 -1.092645E+06 -9.749424E+04  2.934255E+03 -3.098554E+04 -7.004636E+04 -6.053147E+03
       118  22 -7.415469E+05  2.487593E+05  3.223405E+05 -1.010440E+04 -2.198801E+05 -2.824427E+03
       118  23 -7.898684E+05 -5.258625E+04  1.383927E+05 -6.921431E+01 -1.444842E+05 -7.148115E+03
       118  24 -7.416676E+05 -9.794561E+03  8.975515E+04 -9.566583E+03 -6.909736E+04 -6.054071E+03
       118  25 -3.633280E+05  3.430462E+05  4.164885E+05 -5.389669E+04 -2.218691E+05 -2.812727E+03
       118  26 -4.253145E+05  3.832755E+04  2.283905E+05 -1.124875E+04 -1.450030E+05 -7.146033E+03
       118  27 -3.905767E+05  7.789760E+04  1.765671E+05  1.186448E+04 -6.814781E+04 -6.054930E+03
       119   1 -1.061725E+06 -4.070374E+04 -7.061413E+02 -4.818620E+03  5.433641E+04  4.901214E+03
       119   2 -1.053368E+06 -7.882586E+04 -3.487042E+04  2.082938E+03  3.583040E+04  4.990639E+03
       119   3 -1.030191E+06 -6.885902E+04 -4.487000E+04 -1.348344E+04  1.732464E+04  4.330419E+03
       119   4 -7.597825E+05  3.467620E+04  7.401942E+04 -1.041163E+04  5.448214E+04  4.900711E+03
       119   5 -7.672176E+05 -7.387904E+03  3.588589E+04  8.407381E+02  3.577032E+04  4.990366E+03
       119   6 -7.598036E+05 -1.339445E+03  2.205185E+04 -1.037414E+04  1.705921E+04  4.330268E+03
       119   7 -4.577569E+05  1.100494E+05  1.487382E+05 -1.600739E+04  5.462794E+04  4.900206E+03
       119   8 -4.809927E+05  6.404394E+04  1.066361E+05 -4.020498E+02  3.571020E+04  4.990093E+03
       119   9 -4.893501E+05  6.617469E+04  8.896826E+04 -7.263486E+03  1.679366E+04  4.330115E+03
       119  10 -1.061728E+06 -4.070456E+04 -7.117440E+02 -4.818834E+03 -1.094940E-09 -1.137123E-09
       119  11 -1.053369E+06 -7.882624E+04 -3.487289E+04  2.082793E+03 -5.339264E-10  1.273216E-09
       119  12 -1.030191E+06 -6.885912E+04 -4.487060E+04 -1.348350E+04 -1.259711E-09 -3.222152E-10
       119  13 -7.597857E+05  3.467538E+04  7.401379E+04 -1.041184E+04 -3.252120E-11 -1.067765E-09
       119  14 -7.672190E+05 -7.388275E+03  3.588343E+04  8.405943E+02  1.129143E-09  3.410213E-10
       119  15 -7.598039E+05 -1.339543E+03  2.205126E+04 -1.037420E+04  5.436647E-10 -3.548486E-10
       119  16 -4.577601E+05  1.100486E+05  1.487325E+05 -1.600760E+04  9.141635E-10 -4.133770E-10
       119  17 -4.809940E+05  6.404357E+04  1.066337E+05 -4.021933E+02 -1.470553E-09 -6.657894E-10
       119  18 -4.893504E+05  6.617459E+04  8.896769E+04 -7.263544E+03  9.811391E-10  1.342695E-10
       119  19 -1.061725E+06 -4.070374E+04 -7.061413E+02 -4.818620E+03 -5.433641E+04 -4.901214E+03
       119  20 -1.053368E+06 -7.882586E+04 -3.487042E+04  2.082938E+03 -3.583040E+04 -4.990639E+03
       119  21 -1.030191E+06 -6.885902E+04 -4.487000E+04 -1.348344E+04 -1.732464E+04 -4.330419E+03
       119  22 -7.597825E+05  3.467620E+04  7.401942E+04 -1.041163E+04 -5.448214E+04 -4.900711E+03
       119  23 -7.672176E+05 -7.387904E+03  3.588589E+04  8.407381E+02 -3.577032E+04 -4.990366E+03
       119  24 -7.598036E+05 -1.339445E+03  2.205185E+04 -1.037414E+04 -1.705921E+04 -4.330268E+03
       119  25 -4.577569E+05  1.100494E+05  1.487382E+05 -1.600739E+04 -5.462794E+04 -4.900206E+03
       119  26 -4.809927E+05  6.404394E+04  1.066361E+05 -4.020498E+02 -3.571020E+04 -4.990093E+03
       119  27 -4.893501E+05  6.617469E+04  8.896826E+04 -7.263486E+03 -1.679366E+04 -4.330115E+03
       120   1 -9.766090E+05 -4.864920E+04 -3.536647E+04 -1.027139E+04  1.361734E+04  3.873618E+03
       120   2 -9.602816E+05 -5.009768E+04 -3.946425E+04  1.680025E+03  9.004417E+03  3.358813E+03
       120   3 -9.415181E+05 -4.485845E+04 -3.885023E+04 -1.135857E+04  4.390934E+03  2.712498E+03
       120   4 -7.625489E+05  4.784432E+03  1.753513E+04 -1.094668E+04  1.350236E+04  3.873486E+03
       120   5 -7.637719E+05 -1.038210E+03  9.133256E+03  1.548663E+03  8.853317E+03  3.358735E+03
       120   6 -7.625539E+05 -1.681416E+02  5.467051E+03 -1.094549E+04  4.203845E+03  2.712485E+03
       120   7 -5.484471E+05  5.821464E+04  7.043334E+04 -1.162220E+04  1.338733E+04  3.873355E+03
       120   8 -5.672271E+05  4.801837E+04  5.772789E+04  1.417258E+03  8.702169E+03  3.358657E+03
       120   9 -5.835605E+05  4.451977E+04  4.978195E+04 -1.053229E+04  4.016703E+03  2.712472E+03
       120  10 -9.766092E+05 -4.864927E+04 -3.536685E+04 -1.027143E+04 -1.360813E-09 -5.667177E-10
       120  11 -9.602817E+05 -5.009771E+04 -3.946442E+04  1.680001E+03 -1.430634E-09 -2.623505E-10
       120  12 -9.415182E+05 -4.485847E+04 -3.885028E+04 -1.135858E+04  2.451426E-10  2.029211E-10
       120  13 -7.625491E+05  4.784367E+03  1.753476E+04 -1.094672E+04  1.127242E-09 -4.815308E-10
       120  14 -7.637720E+05 -1.038243E+03  9.133087E+03  1.548639E+03 -1.210290E-09 -2.916829E-10
       120  15 -7.625539E+05 -1.681542E+02  5.467004E+03 -1.094550E+04 -8.854502E-10  4.483228E-11
       120  16 -5.484473E+05  5.821457E+04  7.043297E+04 -1.162224E+04  1.071470E-09 -2.423598E-10
       120  17 -5.672272E+05  4.801834E+04  5.772773E+04  1.417234E+03  8.370516E-10 -3.624228E-11
       120  18 -5.835605E+05  4.451976E+04  4.978190E+04 -1.053230E+04  1.049413E-09  2.049457E-10
       120  19 -9.766090E+05 -4.864920E+04 -3.536647E+04 -1.027139E+04 -1.361734E+04 -3.873618E+03
       120  20 -9.602816E+05 -5.009768E+04 -3.946425E+04  1.680025E+03 -9.004417E+03 -3.358813E+03
       120  21 -9.415181E+05 -4.485845E+04 -3.885023E+04 -1.135857E+04 -4.390934E+03 -2.712498E+03
       120  22 -7.625489E+05  4.784432E+03  1.753513E+04 -1.094668E+04 -1.350236E+04 -3.873486E+03
       120  23 -7.637719E+05 -1.038210E+03  9.133256E+03  1.548663E+03 -8.853317E+03 -3.358735E+03
       120  24 -7.625539E+05 -1.681416E+02  5.467051E+03 -1.094549E+04 -4.203845E+03 -2.712485E+03
       120  25 -5.484471E+05  5.821464E+04  7.043334E+04 -1.162220E+04 -1.338733E+04 -3.873355E+03
       120  26 -5.672271E+05  4.801837E+04  5.772789E+04  1.417258E+03 -8.702169E+03 -3.358657E+03
       120  27 -5.835605E+05  4.451977E+04  4.978195E+04 -1.053229E+04 -4.016703E+03 -2.712472E+03
       121   1 -8.807294E+05 -2.872807E+04 -2.479715E+04 -1.119135E+04  3.488255E+03  2.321245E+03
       121   2 -8.622848E+05 -2.488194E+04 -2.215051E+04  2.015017E+03  2.315873E+03  1.687833E+03
       121   3 -8.434360E+05 -2.009190E+04 -1.850085E+04 -1.132581E+04  1.143226E+03  1.022453E+03
       121   4 -7.630000E+05  6.515517E+02  4.263070E+03 -1.129173E+04  3.325744E+03  2.321262E+03
       121   5 -7.632034E+05 -1.471311E+02  2.352058E+03  1.981632E+03  2.144727E+03  1.687881E+03
       121   6 -7.630015E+05 -4.777527E-01  1.449942E+03 -1.129192E+04  9.634792E+02  1.022536E+03
       121   7 -6.452579E+05  3.003013E+04  3.332226E+04 -1.139214E+04  3.163203E+03  2.321279E+03
       121   8 -6.641129E+05  2.458694E+04  2.685389E+04  1.948241E+03  1.973553E+03  1.687929E+03
       121   9 -6.825610E+05  2.009046E+04  2.140025E+04 -1.125804E+04  7.837089E+02  1.022619E+03
       121  10 -8.807295E+05 -2.872808E+04 -2.479718E+04 -1.119135E+04  1.773248E-09  1.776164E-10
       121  11 -8.622848E+05 -2.488194E+04 -2.215052E+04  2.015014E+03  5.157849E-10  4.671703E-10
       121  12 -8.434360E+05 -2.009190E+04 -1.850085E+04 -1.132581E+04  8.001451E-11 -7.205085E-11
       121  13 -7.630000E+05  6.515429E+02  4.263039E+03 -1.129174E+04  3.097963E-10  4.845388E-10
       121  14 -7.632034E+05 -1.471354E+02  2.352044E+03  1.981629E+03 -1.627679E-10 -6.176078E-11
       121  15 -7.630015E+05 -4.791247E-01  1.449938E+03 -1.129192E+04 -2.674170E-09 -3.176046E-10
       121  16 -6.452579E+05  3.003013E+04  3.332223E+04 -1.139214E+04 -4.025712E-09 -1.291494E-10
       121  17 -6.641130E+05  2.458694E+04  2.685388E+04  1.948239E+03 -1.308198E-09  7.717843E-11
       121  18 -6.825610E+05  2.009045E+04  2.140024E+04 -1.125804E+04  1.129877E-10 -4.005252E-10
       121  19 -8.807294E+05 -2.872807E+04 -2.479715E+04 -1.119135E+04 -3.488255E+03 -2.321245E+03
       121  20 -8.622848E+05 -2.488194E+04 -2.215051E+04  2.015017E+03 -2.315873E+03 -1.687833E+03
       121  21 -8.434360E+05 -2.009190E+04 -1.850085E+04 -1.132581E+04 -1.143226E+03 -1.022453E+03
       121  22 -7.630000E+05  6.515517E+02  4.263070E+03 -1.129173E+04 -3.325744E+03 -2.321262E+03
       121  23 -7.632034E+05 -1.471311E+02  2.352058E+03  1.981632E+03 -2.144727E+03 -1.687881E+03
       121  24 -7.630015E+05 -4.777527E-01  1.449942E+03 -1.129192E+04 -9.634792E+02 -1.022536E+03
       121  25 -6.452579E+05  3.003013E+04  3.332226E+04 -1.139214E+04 -3.163203E+03 -2.321279E+03
       121  26 -6.641129E+05  2.458694E+04  2.685389E+04  1.948241E+03 -1.973553E+03 -1.687929E+03
       121  27 -6.825610E+05  2.009046E+04  2.140025E+04 -1.125804E+04 -7.837089E+02 -1.022619E+03
       122   1 -7.798048E+05 -4.071331E+03 -2.911121E+03 -1.138864E+04  9.036827E+02  6.269841E+02
       122   2 -7.608345E+05  5.338657E+02  1.368683E+03  2.119468E+03  4.988670E+02 -4.006799E+01
       122   3 -7.417881E+05  5.373038E+03  5.963352E+03 -1.143063E+04  9.405472E+01 -6.984744E+02
       122   4 -7.630727E+05  9.374955E+01  1.167665E+03 -1.140546E+04  7.265532E+02  6.270786E+02
       122   5 -7.631105E+05 -3.425064E+01  8.060437E+02  2.123645E+03  3.240089E+02 -3.997596E+01
       122   6 -7.630727E+05  7.142562E+01  7.577964E+02 -1.140547E+04 -7.851973E+01 -6.983836E+02
       122   7 -7.463402E+05  4.258809E+03  5.246431E+03 -1.142227E+04  5.494190E+02  6.271732E+02
       122   8 -7.653865E+05 -6.023674E+02  2.434041E+02  2.127821E+03  1.491515E+02 -3.988394E+01
       122   9 -7.843569E+05 -5.230221E+03 -4.447792E+03 -1.138031E+04 -2.510883E+02 -6.982929E+02
       122  10 -7.798048E+05 -4.071331E+03 -2.911123E+03 -1.138864E+04 -2.054934E-09 -1.936638E-10
       122  11 -7.608345E+05  5.338657E+02  1.368682E+03  2.119468E+03 -5.203933E-09  2.322501E-10
       122  12 -7.417881E+05  5.373038E+03  5.963351E+03 -1.143063E+04 -2.258953E-09 -5.072014E-10
       122  13 -7.630727E+05  9.374899E+01  1.167663E+03 -1.140546E+04 -1.877257E-09  6.163304E-10
       122  14 -7.631105E+05 -3.425067E+01  8.060435E+02  2.123645E+03 -1.920039E-09  5.539324E-10
       122  15 -7.630727E+05  7.142509E+01  7.577955E+02 -1.140547E+04 -2.384236E-09 -1.005194E-09
       122  16 -7.463402E+05  4.258809E+03  5.246429E+03 -1.142227E+04  1.067996E-09 -1.499007E-11
       122  17 -7.653865E+05 -6.023674E+02  2.434041E+02  2.127821E+03  7.834997E-10  2.083940E-10
       122  18 -7.843569E+05 -5.230221E+03 -4.447793E+03 -1.138031E+04  2.141868E-09 -2.240523E-12
       122  19 -7.798048E+05 -4.071331E+03 -2.911121E+03 -1.138864E+04 -9.036827E+02 -6.269841E+02
       122  20 -7.608345E+05  5.338657E+02  1.368683E+03  2.119468E+03 -4.988670E+02  4.006799E+01
       122  21 -7.417881E+05  5.373038E+03  5.963352E+03 -1.143063E+04 -9.405472E+01  6.984744E+02
       122  22 -7.630727E+05  9.374955E+01  1.167665E+03 -1.140546E+04 -7.265532E+02 -6.270786E+02
       122  23 -7.631105E+05 -3.425064E+01  8.060437E+02  2.123645E+03 -3.240089E+02  3.997596E+01
       122  24 -7.630727E+05  7.142562E+01  7.577964E+02 -1.140547E+04  7.851973E+01  6.983836E+02
       122  25 -7.463402E+05  4.258809E+03  5.246431E+03 -1.142227E+04 -5.494190E+02 -6.271732E+02
       122  26 -7.653865E+05 -6.023674E+02  2.434041E+02  2.127821E+03 -1.491515E+02  3.988394E+01
       122  27 -7.843569E+05 -5.230221E+03 -4.447792E+03 -1.138031E+04  2.510883E+02  6.982929E+02
       123   1 -6.780970E+05  2.121931E+04  2.186478E+04 -1.127078E+04 -3.013402E+01 -1.101957E+03
       123   2 -6.596121E+05  2.573906E+04  2.666328E+04  1.924558E+03 -5.939539E+02 -1.772703E+03
       123   3 -6.408573E+05  3.096382E+04  3.200916E+04 -1.137664E+04 -1.157542E+03 -2.346243E+03
       123   4 -7.630329E+05  6.348761E+00  8.033283E+02 -1.128076E+04 -2.199364E+02 -1.101872E+03
       123   5 -7.631648E+05 -1.085073E+02  1.059524E+03  1.967701E+03 -7.580393E+02 -1.772662E+03
       123   6 -7.630318E+05  4.771894E+02  1.845245E+03 -1.128064E+04 -1.295893E+03 -2.346236E+03
       123   7 -8.479623E+05 -2.120715E+04 -2.025866E+04 -1.129075E+04 -4.097129E+02 -1.101787E+03
       123   8 -8.667078E+05 -2.595688E+04 -2.454503E+04  2.010838E+03 -9.220973E+02 -1.772620E+03
       123   9 -8.851928E+05 -3.001056E+04 -2.831978E+04 -1.118466E+04 -1.434217E+03 -2.346230E+03
       123  10 -6.780970E+05  2.121930E+04  2.186478E+04 -1.127078E+04 -1.542153E-09  1.287783E-10
       123  11 -6.596121E+05  2.573906E+04  2.666328E+04  1.924557E+03 -4.912724E-09  3.899657E-10
       123  12 -6.408573E+05  3.096381E+04  3.200915E+04 -1.137664E+04 -1.247012E-09 -2.136293E-11
       123  13 -7.630329E+05  6.347445E+00  8.033259E+02 -1.128076E+04 -2.676678E-10 -7.083758E-10
       123  14 -7.631648E+05 -1.085108E+02  1.059517E+03  1.967700E+03 -7.974304E-09 -4.508434E-10
       123  15 -7.630318E+05  4.771830E+02  1.845231E+03 -1.128064E+04  2.230426E-09  7.366881E-11
       123  16 -8.479623E+05 -2.120715E+04 -2.025867E+04 -1.129075E+04  1.378555E-09  1.297452E-10
       123  17 -8.667078E+05 -2.595688E+04 -2.454504E+04  2.010836E+03  3.787626E-10 -6.909517E-10
       123  18 -8.851928E+05 -3.001056E+04 -2.831979E+04 -1.118466E+04  4.034336E-10 -1.643967E-10
       123  19 -6.780970E+05  2.121931E+04  2.186478E+04 -1.127078E+04  3.013402E+01  1.101957E+03
       123  20 -6.596121E+05  2.573906E+04  2.666328E+04  1.924558E+03  5.939539E+02  1.772703E+03
       123  21 -6.408573E+05  3.096382E+04  3.200916E+04 -1.137664E+04  1.157542E+03  2.346243E+03
       123  22 -7.630329E+05  6.348761E+00  8.033283E+02 -1.128076E+04  2.199364E+02  1.101872E+03
       123  23 -7.631648E+05 -1.085073E+02  1.059524E+03  1.967701E+03  7.580393E+02  1.772662E+03
       123  24 -7.630318E+05  4.771894E+02  1.845245E+03 -1.128064E+04  1.295893E+03  2.346236E+03
       123  25 -8.479623E+05 -2.120715E+04 -2.025866E+04 -1.129075E+04  4.097129E+02  1.101787E+03
       123  26 -8.667078E+05 -2.595688E+04 -2.454503E+04  2.010838E+03  9.220973E+02  1.772620E+03
       123  27 -8.851928E+05 -3.001056E+04 -2.831978E+04 -1.118466E+04  1.434217E+03  2.346230E+03
       124   1 -5.794810E+05  4.562496E+04  4.765160E+04 -1.064364E+04 -1.406568E+03 -2.810353E+03
       124   2 -5.628120E+05  4.934964E+04  5.325718E+04  1.391700E+03 -3.469195E+03 -3.492673E+03
       124   3 -5.444859E+05  5.794770E+04  6.145906E+04 -1.145884E+04 -5.531634E+03 -3.553002E+03
       124   4 -7.627351E+05 -1.255505E+02  2.287507E+03 -1.092261E+04 -1.668344E+03 -2.810363E+03
       124   5 -7.635479E+05 -7.506903E+02  3.637116E+03  1.520080E+03 -3.566326E+03 -3.492754E+03
       124   6 -7.627319E+05  3.469806E+03  7.469224E+03 -1.092360E+04 -5.464062E+03 -3.553066E+03
       124   7 -9.459587E+05 -4.587857E+04 -4.307909E+04 -1.120151E+04 -1.930042E+03 -2.810373E+03
       124   8 -9.642471E+05 -5.085404E+04 -4.598594E+04  1.648417E+03 -3.663426E+03 -3.492835E+03
       124   9 -9.809346E+05 -5.101166E+04 -4.652416E+04 -1.038854E+04 -5.396514E+03 -3.553131E+03
       124  10 -5.794810E+05  4.562495E+04  4.765159E+04 -1.064364E+04 -1.765393E-09 -6.031606E-10
       124  11 -5.628120E+05  4.934963E+04  5.325713E+04  1.391690E+03 -1.819394E-09 -2.549755E-10
       124  12 -5.444859E+05  5.794768E+04  6.145898E+04 -1.145886E+04  2.516595E-09 -1.194802E-10
       124  13 -7.627352E+05 -1.255597E+02  2.287487E+03 -1.092262E+04  1.101838E-09 -1.111723E-10
       124  14 -7.635479E+05 -7.507068E+02  3.637069E+03  1.520070E+03 -3.361596E-09  2.116356E-11
       124  15 -7.627319E+05  3.469785E+03  7.469144E+03 -1.092361E+04  1.268281E-09 -1.146910E-10
       124  16 -9.459587E+05 -4.587858E+04 -4.307911E+04 -1.120151E+04 -1.878105E-10  3.657926E-11
       124  17 -9.642471E+05 -5.085405E+04 -4.598599E+04  1.648407E+03 -2.017404E-09 -6.643129E-11
       124  18 -9.809346E+05 -5.101168E+04 -4.652424E+04 -1.038856E+04 -7.887263E-10  3.021062E-10
       124  19 -5.794810E+05  4.562496E+04  4.765160E+04 -1.064364E+04  1.406568E+03  2.810353E+03
       124  20 -5.628120E+05  4.934964E+04  5.325718E+04  1.391700E+03  3.469195E+03  3.492673E+03
       124  21 -5.444859E+05  5.794770E+04  6.145906E+04 -1.145884E+04  5.531634E+03  3.553002E+03
       124  22 -7.627351E+05 -1.255505E+02  2.287507E+03 -1.092261E+04  1.668344E+03  2.810363E+03
       124  23 -7.635479E+05 -7.506903E+02  3.637116E+03  1.520080E+03  3.566326E+03  3.492754E+03
       124  24 -7.627319E+05  3.469806E+03  7.469224E+03 -1.092360E+04  5.464062E+03  3.553066E+03
       124  25 -9.459587E+05 -4.587857E+04 -4.307909E+04 -1.120151E+04  1.930042E+03  2.810373E+03
       124  26 -9.642471E+05 -5.085404E+04 -4.598594E+04  1.648417E+03  3.663426E+03  3.492835E+03
       124  27 -9.809346E+05 -5.101166E+04 -4.652416E+04 -1.038854E+04  5.396514E+03  3.553131E+03
       125   1 -4.865490E+05  6.748153E+04  7.689861E+04 -8.120827E+03 -6.096208E+03 -4.580028E+03
       125   2 -4.759462E+05  6.703003E+04  8.549167E+04 -2.061446E+02 -1.488000E+04 -5.524450E+03
       125   3 -4.550960E+05  1.014337E+05  1.085989E+05 -1.457069E+04 -2.366831E+04 -1.930358E+03
       125   4 -7.608735E+05 -9.913750E+02  9.057405E+03 -1.033524E+04 -6.940840E+03 -4.580530E+03
       125   5 -7.658890E+05 -5.313056E+03  1.390536E+04  7.905705E+02 -1.452394E+04 -5.524354E+03
       125   6 -7.608613E+05  2.502049E+04  3.243776E+04 -1.036344E+04 -2.211135E+04 -1.928825E+03
       125   7 -1.035130E+06 -6.946989E+04 -5.878939E+04 -1.254867E+04 -7.785099E+03 -4.581027E+03
       125   8 -1.055755E+06 -7.766242E+04 -5.768719E+04  1.786804E+03 -1.416805E+04 -5.524257E+03
       125   9 -1.066542E+06 -5.139968E+04 -4.373035E+04 -6.158291E+03 -2.055515E+04 -1.927270E+03
       125  10 -4.865490E+05  6.748149E+04  7.689850E+04 -8.120850E+03  1.484677E-09 -6.064746E-11
       125  11 -4.759464E+05  6.702994E+04  8.549120E+04 -2.062108E+02  1.764578E-10  3.309478E-10
       125  12 -4.550966E+05  1.014335E+05  1.085978E+05 -1.457072E+04 -5.126408E-10  6.457005E-10
       125  13 -7.608736E+05 -9.914105E+02  9.057275E+03 -1.033526E+04 -2.691236E-09 -6.455882E-10
       125  14 -7.658892E+05 -5.313145E+03  1.390490E+04  7.905058E+02  4.643638E-11  5.357349E-10
       125  15 -7.608619E+05  2.502035E+04  3.243684E+04 -1.036348E+04  2.627356E-09 -2.895438E-10
       125  16 -1.035130E+06 -6.946993E+04 -5.878955E+04 -1.254870E+04 -9.455563E-10  1.720128E-10
       125  17 -1.055756E+06 -7.766250E+04 -5.768763E+04  1.786740E+03  1.372869E-09  2.829150E-11
       125  18 -1.066542E+06 -5.139980E+04 -4.373115E+04 -6.158323E+03 -1.314328E-09  1.398663E-09
       125  19 -4.865490E+05  6.748153E+04  7.689861E+04 -8.120827E+03  6.096208E+03  4.580028E+03
       125  20 -4.759462E+05  6.703003E+04  8.549167E+04 -2.061446E+02  1.488000E+04  5.524450E+03
       125  21 -4.550960E+05  1.014337E+05  1.085989E+05 -1.457069E+04  2.366831E+04  1.930358E+03
       125  22 -7.608735E+05 -9.913750E+02  9.057405E+03 -1.033524E+04  6.940840E+03  4.580530E+03
       125  23 -7.658890E+05 -5.313056E+03  1.390536E+04  7.905705E+02  1.452394E+04  5.524354E+03
       125  24 -7.608613E+05  2.502049E+04  3.243776E+04 -1.036344E+04  2.211135E+04  1.928825E+03
       125  25 -1.035130E+06 -6.946989E+04 -5.878939E+04 -1.254867E+04  7.785099E+03  4.581027E+03
       125  26 -1.055755E+06 -7.766242E+04 -5.768719E+04  1.786804E+03  1.416805E+04  5.524257E+03
       125  27 -1.066542E+06 -5.139968E+04 -4.373035E+04 -6.158291E+03  2.055515E+04  1.927270E+03
       126   1  2.796228E+05 -1.355961E+06  2.551375E+05 -1.115816E+05  1.076329E+04 -4.008583E+04
       126   2  2.983147E+05 -1.591300E+06  2.320948E+05  4.812265E+03  2.908367E+04 -2.484624E+04
       126   3  2.230307E+05 -1.851520E+06  1.757766E+05 -1.369952E+05  1.908648E+04 -9.715691E+03
       126   4 -6.825122E+04 -2.746774E+06 -9.082880E+04 -1.255897E+05  1.079900E+04 -5.169859E+04
       126   5  1.351951E+04 -2.733341E+06 -4.729237E+04  3.625290E+03  2.909281E+04 -2.632838E+04
       126   6 -5.444690E+02 -2.746666E+06 -4.413713E+04 -1.253956E+05  1.904674E+04 -1.060885E+03
       126   7 -4.162702E+05 -4.135825E+06 -4.369398E+05 -1.395648E+05  1.083527E+04 -6.328519E+04
       126   8 -2.713725E+05 -3.874188E+06 -3.267751E+05  2.441607E+03  2.910197E+04 -2.780776E+04
       126   9 -2.241790E+05 -3.641078E+06 -2.641096E+05 -1.138119E+05  1.900730E+04  7.581433E+03
       126  10  2.796222E+05 -1.355962E+06  2.551343E+05 -1.115813E+05  5.574621E-10 -3.184081E-11
       126  11  2.983136E+05 -1.591301E+06  2.320921E+05  4.812847E+03  1.484419E-09 -6.328929E-09
       126  12  2.230303E+05 -1.851520E+06  1.757757E+05 -1.369951E+05 -2.278581E-09 -3.919130E-09
       126  13 -6.825207E+04 -2.746777E+06 -9.083406E+04 -1.255892E+05 -2.601504E-09  2.803671E-09
       126  14  1.351842E+04 -2.733342E+06 -4.729527E+04  3.625908E+03  4.206722E-09  2.188545E-10
       126  15 -5.448584E+02 -2.746666E+06 -4.413781E+04 -1.253956E+05 -3.677384E-10  3.131992E-09
       126  16 -4.162714E+05 -4.135830E+06 -4.369476E+05 -1.395642E+05  1.053313E-09 -5.486160E-10
       126  17 -2.713736E+05 -3.874189E+06 -3.267781E+05  2.442260E+03  1.446998E-09  9.921335E-10
       126  18 -2.241794E+05 -3.641078E+06 -2.641104E+05 -1.138120E+05 -2.950449E-09 -1.382597E-10
       126  19  2.796228E+05 -1.355961E+06  2.551375E+05 -1.115816E+05 -1.076329E+04  4.008583E+04
       126  20  2.983147E+05 -1.591300E+06  2.320948E+05  4.812265E+03 -2.908367E+04  2.484624E+04
       126  21  2.230307E+05 -1.851520E+06  1.757766E+05 -1.369952E+05 -1.908648E+04  9.715691E+03
       126  22 -6.825122E+04 -2.746774E+06 -9.082880E+04 -1.255897E+05 -1.079900E+04  5.169859E+04
       126  23  1.351951E+04 -2.733341E+06 -4.729237E+04  3.625290E+03 -2.909281E+04  2.632838E+04
       126  24 -5.444690E+02 -2.746666E+06 -4.413713E+04 -1.253956E+05 -1.904674E+04  1.060885E+03
       126  25 -4.162702E+05 -4.135825E+06 -4.369398E+05 -1.395648E+05 -1.083527E+04  6.328519E+04
       126  26 -2.713725E+05 -3.874188E+06 -3.267751E+05  2.441607E+03 -2.910197E+04  2.780776E+04
       126  27 -2.241790E+05 -3.641078E+06 -2.641096E+05 -1.138119E+05 -1.900730E+04 -7.581433E+03
       127   1  8.423871E+04 -2.383937E+06  4.259182E+04 -1.232375E+05  8.960583E+03  4.523681E+03
       127   2  3.472012E+04 -2.631948E+06 -2.852584E+04  5.156850E+03  2.229396E+03  3.214844E+04
       127   3 -7.653218E+04 -2.902313E+06 -1.338246E+05 -1.374745E+05 -4.896274E+03  5.975729E+04
       127   4 -5.918441E+03 -2.745512E+06 -4.594060E+04 -1.282647E+05  8.949182E+03  6.818798E+03
       127   5  9.139366E+03 -2.734323E+06 -5.363997E+04  7.169406E+03  2.217174E+03  3.457926E+04
       127   6 -3.755874E+04 -2.745568E+06 -9.560981E+04 -1.284280E+05 -4.908846E+03  6.233526E+04
       127   7 -9.608519E+04 -3.106966E+06 -1.344826E+05 -1.332888E+05  8.937740E+03  9.112576E+03
       127   8 -1.644215E+04 -2.836687E+06 -7.875484E+04  9.181640E+03  2.204968E+03  3.700967E+04
       127   9  1.413214E+03 -2.588800E+06 -5.739671E+04 -1.193792E+05 -4.921340E+03  6.491389E+04
       127  10  8.423862E+04 -2.383937E+06  4.259163E+04 -1.232375E+05 -3.460286E-09  3.936477E-09
       127  11  3.471983E+04 -2.631950E+06 -2.852780E+04  5.156792E+03  6.359991E-10 -4.131276E-09
       127  12 -7.653317E+04 -2.902317E+06 -1.338314E+05 -1.374742E+05 -2.825651E-10 -4.484077E-09
       127  13 -5.918539E+03 -2.745512E+06 -4.594084E+04 -1.282648E+05  1.063721E-09  5.081721E-09
       127  14  9.139038E+03 -2.734324E+06 -5.364224E+04  7.169344E+03  3.511469E-10 -2.465003E-10
       127  15 -3.755981E+04 -2.745572E+06 -9.561719E+04 -1.284278E+05  2.441297E-09  3.228775E-09
       127  16 -9.608530E+04 -3.106966E+06 -1.344829E+05 -1.332889E+05 -3.279077E-09 -5.504821E-09
       127  17 -1.644253E+04 -2.836689E+06 -7.875744E+04  9.181574E+03  1.751183E-09 -2.668523E-09
       127  18  1.412051E+03 -2.588805E+06 -5.740470E+04 -1.193790E+05 -1.358674E-09 -1.679300E-10
       127  19  8.423871E+04 -2.383937E+06  4.259182E+04 -1.232375E+05 -8.960583E+03 -4.523681E+03
       127  20  3.472012E+04 -2.631948E+06 -2.852584E+04  5.156850E+03 -2.229396E+03 -3.214844E+04
       127  21 -7.653218E+04 -2.902313E+06 -1.338246E+05 -1.374745E+05  4.896274E+03 -5.975729E+04
       127  22 -5.918441E+03 -2.745512E+06 -4.594060E+04 -1.282647E+05 -8.949182E+03 -6.818798E+03
       127  23  9.139366E+03 -2.734323E+06 -5.363997E+04  7.169406E+03 -2.217174E+03 -3.457926E+04
       127  24 -3.755874E+04 -2.745568E+06 -9.560981E+04 -1.284280E+05  4.908846E+03 -6.233526E+04
       127  25 -9.608519E+04 -3.106966E+06 -1.344826E+05 -1.332888E+05 -8.937740E+03 -9.112576E+03
       127  26 -1.644215E+04 -2.836687E+06 -7.875484E+04  9.181640E+03 -2.204968E+03 -3.700967E+04
       127  27  1.413214E+03 -2.588800E+06 -5.739671E+04 -1.193792E+05  4.921340E+03 -6.491389E+04
       128   1 -1.597592E+05 -3.460006E+06 -2.845831E+05 -8.994361E+04 -1.461798E+04  7.256224E+04
       128   2 -1.776877E+05 -3.652978E+06 -4.047496E+05 -1.211592E+04 -2.489074E+04  1.754946E+05
       128   3 -6.077789E+05 -3.963324E+06 -6.954550E+05 -1.972632E+05 -1.007203E+04  2.784897E+05
       128   4  1.403535E+04 -2.766322E+06 -1.138007E+05 -1.261172E+05 -1.466171E+04  8.063616E+04
       128   5  5.789825E+04 -2.708709E+06 -1.735168E+05  4.802950E+03 -2.487940E+04  1.746996E+05
       128   6 -3.085093E+05 -2.766768E+06 -3.973817E+05 -1.272535E+05 -1.000463E+04  2.688690E+05
       128   7  1.877985E+05 -2.072195E+06  5.694689E+04 -1.623310E+05 -1.470636E+04  8.871909E+04
       128   8  2.934192E+05 -1.763622E+06  5.765074E+04  2.174859E+04 -2.486811E+04  1.739033E+05
       128   9 -9.328685E+03 -1.568893E+06 -9.941289E+04 -5.710686E+04 -9.939513E+03  2.592293E+05
       128  10 -1.597608E+05 -3.460012E+06 -2.845934E+05 -8.994276E+04 -2.611436E-09 -2.686700E-09
       128  11 -1.776967E+05 -3.653011E+06 -4.048090E+05 -1.211240E+04 -8.101653E-10 -4.626647E-09
       128  12 -6.078000E+05 -3.963408E+06 -6.956019E+05 -1.972610E+05  1.001784E-09  1.257591E-09
       128  13  1.403336E+04 -2.766329E+06 -1.138134E+05 -1.261163E+05 -4.474101E-09  4.657464E-09
       128  14  5.788934E+04 -2.708742E+06 -1.735756E+05  4.806455E+03 -2.634598E-09 -1.203645E-09
       128  15 -3.085290E+05 -2.766846E+06 -3.975183E+05 -1.272514E+05  9.676569E-10  2.422888E-09
       128  16  1.877962E+05 -2.072203E+06  5.693165E+04 -1.623299E+05 -2.926654E-09  9.830563E-10
       128  17  2.934104E+05 -1.763654E+06  5.759258E+04  2.175207E+04  8.296986E-10 -2.026756E-09
       128  18 -9.346888E+03 -1.568965E+06 -9.953968E+04 -5.710479E+04  1.516765E-09 -3.912323E-09
       128  19 -1.597592E+05 -3.460006E+06 -2.845831E+05 -8.994361E+04  1.461798E+04 -7.256224E+04
       128  20 -1.776877E+05 -3.652978E+06 -4.047496E+05 -1.211592E+04  2.489074E+04 -1.754946E+05
       128  21 -6.077789E+05 -3.963324E+06 -6.954550E+05 -1.972632E+05  1.007203E+04 -2.784897E+05
       128  22  1.403535E+04 -2.766322E+06 -1.138007E+05 -1.261172E+05  1.466171E+04 -8.063616E+04
       128  23  5.789825E+04 -2.708709E+06 -1.735168E+05  4.802950E+03  2.487940E+04 -1.746996E+05
       128  24 -3.085093E+05 -2.766768E+06 -3.973817E+05 -1.272535E+05  1.000463E+04 -2.688690E+05
       128  25  1.877985E+05 -2.072195E+06  5.694689E+04 -1.623310E+05  1.470636E+04 -8.871909E+04
       128  26  2.934192E+05 -1.763622E+06  5.765074E+04  2.174859E+04  2.486811E+04 -1.739033E+05
       128  27 -9.328685E+03 -1.568893E+06 -9.941289E+04 -5.710686E+04  9.939513E+03 -2.592293E+05
       129   1 -3.010580E+06 -6.110638E+05 -2.365276E+05 -1.082795E+06 -1.198815E+05 -4.392868E+04
       129   2 -2.977595E+06 -4.454311E+05 -1.266774E+05 -1.123109E+06 -7.784866E+04 -2.531689E+04
       129   3 -3.025687E+06 -4.587364E+05 -9.957084E+04 -1.108560E+06 -3.487119E+04 -9.209091E+03
       129   4 -2.849141E+06 -5.276263E+05 -1.876086E+05 -1.016095E+06 -1.190055E+05 -4.360335E+04
       129   5 -2.799130E+06 -3.720118E+05 -7.677554E+04 -1.068475E+06 -7.757933E+04 -2.521626E+04
       129   6 -2.830057E+06 -3.951838E+05 -4.818663E+04 -1.065998E+06 -3.520733E+04 -9.335167E+03
       129   7 -2.687675E+06 -4.441800E+05 -1.386921E+05 -9.493778E+05 -1.181292E+05 -4.327785E+04
       129   8 -2.620634E+06 -2.985889E+05 -2.687666E+04 -1.013826E+06 -7.730992E+04 -2.511560E+04
       129   9 -2.634390E+06 -3.316311E+05  3.194519E+03 -1.023424E+06 -3.554358E+04 -9.461272E+03
       129  10 -3.010596E+06 -6.110697E+05 -2.365584E+05 -1.082799E+06  3.925263E-10 -2.411121E-11
       129  11 -2.977601E+06 -4.454335E+05 -1.266901E+05 -1.123111E+06  1.632329E-09 -6.082049E-10
       129  12 -3.025688E+06 -4.587368E+05 -9.957330E+04 -1.108561E+06  2.045585E-09  5.984235E-10
       129  13 -2.849156E+06 -5.276322E+05 -1.876389E+05 -1.016099E+06 -1.261372E-10  3.619252E-10
       129  14 -2.799137E+06 -3.720141E+05 -7.678811E+04 -1.068477E+06  6.279411E-09 -2.449097E-09
       129  15 -2.830059E+06 -3.951842E+05 -4.818913E+04 -1.065998E+06 -9.863596E-10 -1.116881E-09
       129  16 -2.687690E+06 -4.441858E+05 -1.387220E+05 -9.493819E+05 -1.488062E-10  8.432252E-10
       129  17 -2.620641E+06 -2.985912E+05 -2.688914E+04 -1.013828E+06 -1.650394E-09  1.666480E-09
       129  18 -2.634392E+06 -3.316316E+05  3.191965E+03 -1.023424E+06 -2.045364E-09 -3.275206E-10
       129  19 -3.010580E+06 -6.110638E+05 -2.365276E+05 -1.082795E+06  1.198815E+05  4.392868E+04
       129  20 -2.977595E+06 -4.454311E+05 -1.266774E+05 -1.123109E+06  7.784866E+04  2.531689E+04
       129  21 -3.025687E+06 -4.587364E+05 -9.957084E+04 -1.108560E+06  3.487119E+04  9.209091E+03
       129  22 -2.849141E+06 -5.276263E+05 -1.876086E+05 -1.016095E+06  1.190055E+05  4.360335E+04
       129  23 -2.799130E+06 -3.720118E+05 -7.677554E+04 -1.068475E+06  7.757933E+04  2.521626E+04
       129  24 -2.830057E+06 -3.951838E+05 -4.818663E+04 -1.065998E+06  3.520733E+04  9.335167E+03
       129  25 -2.687675E+06 -4.441800E+05 -1.386921E+05 -9.493778E+05  1.181292E+05  4.327785E+04
       129  26 -2.620634E+06 -2.985889E+05 -2.687666E+04 -1.013826E+06  7.730992E+04  2.511560E+04
       129  27 -2.634390E+06 -3.316311E+05  3.194519E+03 -1.023424E+06  3.554358E+04  9.461272E+03
       130   1 -3.016141E+06 -4.947417E+05 -9.327176E+04 -1.111512E+06 -2.803826E+04 -6.965660E+03
       130   2 -3.010490E+06 -4.695736E+05 -7.135797E+04 -1.115506E+06 -1.846624E+04 -2.957892E+03
       130   3 -3.014583E+06 -4.718417E+05 -6.382774E+04 -1.114162E+06 -8.694398E+03  5.192114E+02
       130   4 -2.822366E+06 -4.183329E+05 -3.962932E+04 -1.055602E+06 -2.789280E+04 -6.911093E+03
       130   5 -2.816161E+06 -3.952643E+05 -1.808714E+04 -1.061791E+06 -1.844850E+04 -2.951325E+03
       130   6 -2.819671E+06 -3.996013E+05 -1.082343E+04 -1.062643E+06 -8.804398E+03  4.777703E+02
       130   7 -2.628556E+06 -3.419211E+05  1.400961E+04 -9.996756E+05 -2.774728E+04 -6.856505E+03
       130   8 -2.621795E+06 -3.209527E+05  3.518020E+04 -1.008061E+06 -1.843074E+04 -2.944756E+03
       130   9 -2.624722E+06 -3.273592E+05  4.217739E+04 -1.011109E+06 -8.914437E+03  4.363157E+02
       130  10 -3.016142E+06 -4.947420E+05 -9.327333E+04 -1.111512E+06  3.868519E-11  8.271655E-10
       130  11 -3.010490E+06 -4.695737E+05 -7.135863E+04 -1.115506E+06 -5.508815E-10 -4.264681E-10
       130  12 -3.014583E+06 -4.718417E+05 -6.382789E+04 -1.114162E+06  4.062029E-10 -4.922260E-10
       130  13 -2.822367E+06 -4.183332E+05 -3.963088E+04 -1.055602E+06  2.505433E-09 -1.519946E-09
       130  14 -2.816161E+06 -3.952644E+05 -1.808780E+04 -1.061791E+06  3.596841E-09 -9.125275E-10
       130  15 -2.819671E+06 -3.996013E+05 -1.082358E+04 -1.062643E+06  2.455225E-09 -1.464636E-09
       130  16 -2.628557E+06 -3.419213E+05  1.400807E+04 -9.996758E+05 -6.841427E-11 -1.353559E-09
       130  17 -2.621796E+06 -3.209528E+05  3.517954E+04 -1.008061E+06 -8.252427E-10 -2.970211E-10
       130  18 -2.624722E+06 -3.273593E+05  4.217724E+04 -1.011109E+06 -4.018680E-09 -4.866317E-10
       130  19 -3.016141E+06 -4.947417E+05 -9.327176E+04 -1.111512E+06  2.803826E+04  6.965660E+03
       130  20 -3.010490E+06 -4.695736E+05 -7.135797E+04 -1.115506E+06  1.846624E+04  2.957892E+03
       130  21 -3.014583E+06 -4.718417E+05 -6.382774E+04 -1.114162E+06  8.694398E+03 -5.192114E+02
       130  22 -2.822366E+06 -4.183329E+05 -3.962932E+04 -1.055602E+06  2.789280E+04  6.911093E+03
       130  23 -2.816161E+06 -3.952643E+05 -1.808714E+04 -1.061791E+06  1.844850E+04  2.951325E+03
       130  24 -2.819671E+06 -3.996013E+05 -1.082343E+04 -1.062643E+06  8.804398E+03 -4.777703E+02
       130  25 -2.628556E+06 -3.419211E+05  1.400961E+04 -9.996756E+05  2.774728E+04  6.856505E+03
       130  26 -2.621795E+06 -3.209527E+05  3.518020E+04 -1.008061E+06  1.843074E+04  2.944756E+03
       130  27 -2.624722E+06 -3.273592E+05  4.217739E+04 -1.011109E+06  8.914437E+03 -4.363157E+02
       131   1 -2.994664E+06 -4.716538E+05 -5.722474E+04 -1.111342E+06 -7.140284E+03  9.359227E+02
       131   2 -2.990715E+06 -4.615067E+05 -5.096758E+04 -1.105497E+06 -4.780869E+03  1.662478E+03
       131   3 -2.980332E+06 -4.630862E+05 -4.741950E+04 -1.107832E+06 -2.333268E+03  2.154036E+03
       131   4 -2.817221E+06 -4.041297E+05 -8.645112E+03 -1.062631E+06 -7.147258E+03  9.332224E+02
       131   5 -2.820256E+06 -3.969615E+05 -4.361683E+03 -1.059033E+06 -4.845055E+03  1.638292E+03
       131   6 -2.816844E+06 -4.015076E+05 -2.741253E+03 -1.063614E+06 -2.454710E+03  2.108380E+03
       131   7 -2.639747E+06 -3.366036E+05  3.993172E+04 -1.013907E+06 -7.154234E+03  9.305213E+02
       131   8 -2.649767E+06 -3.324146E+05  4.224161E+04 -1.012557E+06 -4.909260E+03  1.614098E+03
       131   9 -2.653331E+06 -3.399276E+05  4.193457E+04 -1.019386E+06 -2.576186E+03  2.062712E+03
       131  10 -2.994664E+06 -4.716538E+05 -5.722484E+04 -1.111342E+06  2.510112E-09 -4.906180E-10
       131  11 -2.990716E+06 -4.615067E+05 -5.096763E+04 -1.105497E+06  4.616902E-10  4.570658E-10
       131  12 -2.980332E+06 -4.630862E+05 -4.741952E+04 -1.107832E+06  4.664503E-10 -2.169694E-10
       131  13 -2.817221E+06 -4.041297E+05 -8.645210E+03 -1.062631E+06  1.333214E-09 -3.446439E-10
       131  14 -2.820256E+06 -3.969616E+05 -4.361732E+03 -1.059033E+06 -4.059384E-09  2.882913E-10
       131  15 -2.816844E+06 -4.015076E+05 -2.741272E+03 -1.063614E+06 -2.734944E-09  2.052420E-10
       131  16 -2.639747E+06 -3.366036E+05  3.993162E+04 -1.013907E+06 -1.166187E-09 -5.630743E-10
       131  17 -2.649767E+06 -3.324146E+05  4.224156E+04 -1.012557E+06 -2.304794E-09  3.412585E-10
       131  18 -2.653331E+06 -3.399276E+05  4.193455E+04 -1.019386E+06  1.770962E-09  7.794430E-10
       131  19 -2.994664E+06 -4.716538E+05 -5.722474E+04 -1.111342E+06  7.140284E+03 -9.359227E+02
       131  20 -2.990715E+06 -4.615067E+05 -5.096758E+04 -1.105497E+06  4.780869E+03 -1.662478E+03
       131  21 -2.980332E+06 -4.630862E+05 -4.741950E+04 -1.107832E+06  2.333268E+03 -2.154036E+03
       131  22 -2.817221E+06 -4.041297E+05 -8.645112E+03 -1.062631E+06  7.147258E+03 -9.332224E+02
       131  23 -2.820256E+06 -3.969615E+05 -4.361683E+03 -1.059033E+06  4.845055E+03 -1.638292E+03
       131  24 -2.816844E+06 -4.015076E+05 -2.741253E+03 -1.063614E+06  2.454710E+03 -2.108380E+03
       131  25 -2.639747E+06 -3.366036E+05  3.993172E+04 -1.013907E+06  7.154234E+03 -9.305213E+02
       131  26 -2.649767E+06 -3.324146E+05  4.224161E+04 -1.012557E+06  4.909260E+03 -1.614098E+03
       131  27 -2.653331E+06 -3.399276E+05  4.193457E+04 -1.019386E+06  2.576186E+03 -2.062712E+03
       132   1 -2.941774E+06 -4.508440E+05 -3.679151E+04 -1.099112E+06 -1.869037E+03  2.053981E+03
       132   2 -2.936256E+06 -4.391269E+05 -3.297584E+04 -1.088317E+06 -8.009105E+02  2.012764E+03
       132   3 -2.917808E+06 -4.414725E+05 -3.004691E+04 -1.092529E+06  3.179166E+02  1.835848E+03
       132   4 -2.815548E+06 -4.030842E+05 -2.317975E+03 -1.064733E+06 -1.947894E+03  2.024342E+03
       132   5 -2.822003E+06 -3.959570E+05 -1.756359E+03 -1.057267E+06 -9.129951E+02  1.970681E+03
       132   6 -2.815521E+06 -4.028855E+05 -2.054945E+03 -1.064808E+06  1.725790E+02  1.781327E+03
       132   7 -2.689308E+06 -3.553235E+05  3.215409E+04 -1.030348E+06 -2.026769E+03  1.994696E+03
       132   8 -2.707737E+06 -3.527864E+05  2.946188E+04 -1.026212E+06 -1.025102E+03  1.928591E+03
       132   9 -2.713224E+06 -3.642980E+05  2.593599E+04 -1.037083E+06  2.721527E+01  1.726798E+03
       132  10 -2.941774E+06 -4.508440E+05 -3.679152E+04 -1.099112E+06 -1.898663E-09 -4.452242E-10
       132  11 -2.936256E+06 -4.391269E+05 -3.297585E+04 -1.088317E+06  1.550986E-09  1.217777E-10
       132  12 -2.917808E+06 -4.414725E+05 -3.004692E+04 -1.092529E+06  4.803540E-10  2.649317E-10
       132  13 -2.815548E+06 -4.030842E+05 -2.317990E+03 -1.064733E+06  4.422357E-09 -1.472138E-10
       132  14 -2.822003E+06 -3.959570E+05 -1.756367E+03 -1.057267E+06  2.071517E-09 -2.565382E-10
       132  15 -2.815521E+06 -4.028855E+05 -2.054951E+03 -1.064808E+06  4.377791E-10  5.479809E-10
       132  16 -2.689308E+06 -3.553235E+05  3.215408E+04 -1.030348E+06  1.845725E-09  2.434890E-11
       132  17 -2.707737E+06 -3.527864E+05  2.946187E+04 -1.026212E+06 -1.274620E-11 -3.171153E-10
       132  18 -2.713224E+06 -3.642980E+05  2.593598E+04 -1.037083E+06  1.222272E-09  1.588348E-09
       132  19 -2.941774E+06 -4.508440E+05 -3.679151E+04 -1.099112E+06  1.869037E+03 -2.053981E+03
       132  20 -2.936256E+06 -4.391269E+05 -3.297584E+04 -1.088317E+06  8.009105E+02 -2.012764E+03
       132  21 -2.917808E+06 -4.414725E+05 -3.004691E+04 -1.092529E+06 -3.179166E+02 -1.835848E+03
       132  22 -2.815548E+06 -4.030842E+05 -2.317975E+03 -1.064733E+06  1.947894E+03 -2.024342E+03
       132  23 -2.822003E+06 -3.959570E+05 -1.756359E+03 -1.057267E+06  9.129951E+02 -1.970681E+03
       132  24 -2.815521E+06 -4.028855E+05 -2.054945E+03 -1.064808E+06 -1.725790E+02 -1.781327E+03
       132  25 -2.689308E+06 -3.553235E+05  3.215409E+04 -1.030348E+06  2.026769E+03 -1.994696E+03
       132  26 -2.707737E+06 -3.527864E+05  2.946188E+04 -1.026212E+06  1.025102E+03 -1.928591E+03
       132  27 -2.713224E+06 -3.642980E+05  2.593599E+04 -1.037083E+06 -2.721527E+01 -1.726798E+03
       133   1 -2.865846E+06 -4.226809E+05 -1.626533E+04 -1.079552E+06  7.899335E+02  1.640376E+03
       133   2 -2.859037E+06 -4.087147E+05 -1.365890E+04 -1.066264E+06  2.888577E+03  1.818410E+03
       133   3 -2.837173E+06 -4.127854E+05 -1.300758E+04 -1.070920E+06  5.000040E+03  1.962059E+03
       133   4 -2.814990E+06 -4.033624E+05 -2.397363E+03 -1.065612E+06  6.627940E+02  1.592701E+03
       133   5 -2.822610E+06 -3.949867E+05 -3.712638E+03 -1.056401E+06  2.753079E+03  1.767611E+03
       133   6 -2.815175E+06 -4.046461E+05 -6.976241E+03 -1.065133E+06  4.856133E+03  1.908118E+03
       133   7 -2.764131E+06 -3.840436E+05  1.147041E+04 -1.051671E+06  5.356426E+02  1.545022E+03
       133   8 -2.786182E+06 -3.812586E+05  6.233527E+03 -1.046537E+06  2.617572E+03  1.716809E+03
       133   9 -2.793176E+06 -3.965068E+05 -9.449313E+02 -1.059345E+06  4.712221E+03  1.854175E+03
       133  10 -2.865846E+06 -4.226809E+05 -1.626533E+04 -1.079552E+06  5.240216E-10  4.696786E-10
       133  11 -2.859037E+06 -4.087147E+05 -1.365892E+04 -1.066264E+06  1.926064E-09 -2.342539E-10
       133  12 -2.837173E+06 -4.127854E+05 -1.300764E+04 -1.070920E+06 -4.923219E-10  7.677929E-10
       133  13 -2.814990E+06 -4.033624E+05 -2.397369E+03 -1.065612E+06  1.769383E-09  7.744707E-10
       133  14 -2.822610E+06 -3.949867E+05 -3.712658E+03 -1.056401E+06  1.239005E-09  2.094406E-11
       133  15 -2.815175E+06 -4.046461E+05 -6.976293E+03 -1.065133E+06 -2.207595E-09  1.384824E-10
       133  16 -2.764131E+06 -3.840436E+05  1.147041E+04 -1.051671E+06 -1.812238E-09  1.047751E-09
       133  17 -2.786182E+06 -3.812586E+05  6.233509E+03 -1.046537E+06 -3.846697E-10  2.258570E-10
       133  18 -2.793176E+06 -3.965068E+05 -9.449797E+02 -1.059345E+06 -9.251341E-10  4.764108E-10
       133  19 -2.865846E+06 -4.226809E+05 -1.626533E+04 -1.079552E+06 -7.899335E+02 -1.640376E+03
       133  20 -2.859037E+06 -4.087147E+05 -1.365890E+04 -1.066264E+06 -2.888577E+03 -1.818410E+03
       133  21 -2.837173E+06 -4.127854E+05 -1.300758E+04 -1.070920E+06 -5.000040E+03 -1.962059E+03
       133  22 -2.814990E+06 -4.033624E+05 -2.397363E+03 -1.065612E+06 -6.627940E+02 -1.592701E+03
       133  23 -2.822610E+06 -3.949867E+05 -3.712638E+03 -1.056401E+06 -2.753079E+03 -1.767611E+03
       133  24 -2.815175E+06 -4.046461E+05 -6.976241E+03 -1.065133E+06 -4.856133E+03 -1.908118E+03
       133  25 -2.764131E+06 -3.840436E+05  1.147041E+04 -1.051671E+06 -5.356426E+02 -1.545022E+03
       133  26 -2.786182E+06 -3.812586E+05  6.233527E+03 -1.046537E+06 -2.617572E+03 -1.716809E+03
       133  27 -2.793176E+06 -3.965068E+05 -9.449313E+02 -1.059345E+06 -4.712221E+03 -1.854175E+03
       134   1 -2.781512E+06 -3.909455E+05  3.471593E+02 -1.057515E+06  6.457739E+03  2.099617E+03
       134   2 -2.773522E+06 -3.748314E+05 -2.186422E+03 -1.043458E+06  1.456422E+04  4.481416E+03
       134   3 -2.755817E+06 -3.881527E+05 -1.430877E+04 -1.044263E+06  2.263287E+04  6.965211E+03
       134   4 -2.815784E+06 -4.030854E+05 -8.912026E+03 -1.065982E+06  6.303065E+03  2.041650E+03
       134   5 -2.821329E+06 -3.931837E+05 -1.530454E+04 -1.056749E+06  1.443402E+04  4.432588E+03
       134   6 -2.817163E+06 -4.127233E+05 -3.130603E+04 -1.062379E+06  2.252697E+04  6.925424E+03
       134   7 -2.850055E+06 -4.152252E+05 -1.817129E+04 -1.074450E+06  6.148400E+03  1.983687E+03
       134   8 -2.869132E+06 -4.115359E+05 -2.842286E+04 -1.070040E+06  1.430382E+04  4.383765E+03
       134   9 -2.878506E+06 -4.372935E+05 -4.830365E+04 -1.080493E+06  2.242107E+04  6.885643E+03
       134  10 -2.781513E+06 -3.909455E+05  3.470722E+02 -1.057515E+06 -6.545591E-10 -1.268525E-09
       134  11 -2.773523E+06 -3.748315E+05 -2.186860E+03 -1.043458E+06  9.119367E-10 -1.113516E-09
       134  12 -2.755818E+06 -3.881529E+05 -1.430983E+04 -1.044264E+06  6.875082E-10 -2.995372E-10
       134  13 -2.815784E+06 -4.030854E+05 -8.912109E+03 -1.065982E+06 -1.174249E-09 -1.117309E-10
       134  14 -2.821329E+06 -3.931838E+05 -1.530497E+04 -1.056749E+06 -6.028883E-10 -2.053786E-09
       134  15 -2.817164E+06 -4.127235E+05 -3.130708E+04 -1.062379E+06 -1.709765E-09 -1.109787E-09
       134  16 -2.850055E+06 -4.152252E+05 -1.817137E+04 -1.074450E+06 -1.309641E-09  5.913888E-10
       134  17 -2.869133E+06 -4.115359E+05 -2.842328E+04 -1.070040E+06 -3.543897E-09 -6.033531E-10
       134  18 -2.878507E+06 -4.372937E+05 -4.830469E+04 -1.080493E+06 -1.247249E-09 -6.056340E-10
       134  19 -2.781512E+06 -3.909455E+05  3.471593E+02 -1.057515E+06 -6.457739E+03 -2.099617E+03
       134  20 -2.773522E+06 -3.748314E+05 -2.186422E+03 -1.043458E+06 -1.456422E+04 -4.481416E+03
       134  21 -2.755817E+06 -3.881527E+05 -1.430877E+04 -1.044263E+06 -2.263287E+04 -6.965211E+03
       134  22 -2.815784E+06 -4.030854E+05 -8.912026E+03 -1.065982E+06 -6.303065E+03 -2.041650E+03
       134  23 -2.821329E+06 -3.931837E+05 -1.530454E+04 -1.056749E+06 -1.443402E+04 -4.432588E+03
       134  24 -2.817163E+06 -4.127233E+05 -3.130603E+04 -1.062379E+06 -2.252697E+04 -6.925424E+03
       134  25 -2.850055E+06 -4.152252E+05 -1.817129E+04 -1.074450E+06 -6.148400E+03 -1.983687E+03
       134  26 -2.869132E+06 -4.115359E+05 -2.842286E+04 -1.070040E+06 -1.430382E+04 -4.383765E+03
       134  27 -2.878506E+06 -4.372935E+05 -4.830365E+04 -1.080493E+06 -2.242107E+04 -6.885643E+03
       135   1 -2.705218E+06 -3.626583E+05 -8.689026E+03 -1.042099E+06  2.868448E+04  8.815955E+03
       135   2 -2.690683E+06 -3.323111E+05 -3.222193E+04 -1.024162E+06  6.373701E+04  2.136270E+04
       135   3 -2.704015E+06 -4.106345E+05 -1.079882E+05 -9.964753E+05  9.860024E+04  3.441497E+04
       135   4 -2.821362E+06 -4.009680E+05 -3.936722E+04 -1.067921E+06  2.848853E+04  8.742759E+03
       135   5 -2.812312E+06 -3.809159E+05 -6.597024E+04 -1.059948E+06  6.365867E+04  2.133292E+04
       135   6 -2.831162E+06 -4.695705E+05 -1.449085E+05 -1.042224E+06  9.863920E+04  3.442739E+04
       135   7 -2.937493E+06 -4.392776E+05 -7.004650E+04 -1.093738E+06  2.829263E+04  8.669574E+03
       135   8 -2.933928E+06 -4.295195E+05 -9.971994E+04 -1.095727E+06  6.358034E+04  2.130315E+04
       135   9 -2.958293E+06 -5.285032E+05 -1.818305E+05 -1.087964E+06  9.867815E+04  3.443981E+04
       135  10 -2.705218E+06 -3.626586E+05 -8.690726E+03 -1.042100E+06 -1.009947E-09 -5.897558E-10
       135  11 -2.690687E+06 -3.323127E+05 -3.223046E+04 -1.024163E+06 -4.329823E-09  9.667952E-10
       135  12 -2.704026E+06 -4.106384E+05 -1.080088E+05 -9.964780E+05 -1.405785E-09  1.651005E-10
       135  13 -2.821363E+06 -4.009683E+05 -3.936890E+04 -1.067921E+06 -9.971236E-10 -1.282020E-10
       135  14 -2.812317E+06 -3.809175E+05 -6.597876E+04 -1.059949E+06 -2.889257E-09  1.540246E-10
       135  15 -2.831173E+06 -4.695744E+05 -1.449292E+05 -1.042227E+06 -2.367949E-09  5.731505E-10
       135  16 -2.937494E+06 -4.392779E+05 -7.004815E+04 -1.093739E+06 -1.280544E-09 -5.193232E-10
       135  17 -2.933932E+06 -4.295210E+05 -9.972843E+04 -1.095728E+06  3.321355E-09  3.480024E-10
       135  18 -2.958303E+06 -5.285071E+05 -1.818511E+05 -1.087967E+06  2.084798E-10  9.487159E-10
       135  19 -2.705218E+06 -3.626583E+05 -8.689026E+03 -1.042099E+06 -2.868448E+04 -8.815955E+03
       135  20 -2.690683E+06 -3.323111E+05 -3.222193E+04 -1.024162E+06 -6.373701E+04 -2.136270E+04
       135  21 -2.704015E+06 -4.106345E+05 -1.079882E+05 -9.964753E+05 -9.860024E+04 -3.441497E+04
       135  22 -2.821362E+06 -4.009680E+05 -3.936722E+04 -1.067921E+06 -2.848853E+04 -8.742759E+03
       135  23 -2.812312E+06 -3.809159E+05 -6.597024E+04 -1.059948E+06 -6.365867E+04 -2.133292E+04
       135  24 -2.831162E+06 -4.695705E+05 -1.449085E+05 -1.042224E+06 -9.863920E+04 -3.442739E+04
       135  25 -2.937493E+06 -4.392776E+05 -7.004650E+04 -1.093738E+06 -2.829263E+04 -8.669574E+03
       135  26 -2.933928E+06 -4.295195E+05 -9.971994E+04 -1.095727E+06 -6.358034E+04 -2.130315E+04
       135  27 -2.958293E+06 -5.285032E+05 -1.818305E+05 -1.087964E+06 -9.867815E+04 -3.443981E+04
       136   1 -2.657265E+06 -3.530838E+05 -1.298253E+05 -1.071083E+06  1.257366E+05  4.389847E+04
       136   2 -2.595022E+06 -2.084599E+05 -2.326275E+05 -1.012701E+06  2.801973E+05  1.013556E+05
       136   3 -2.800314E+06 -7.465626E+05 -6.357273E+05 -7.866354E+05  4.335542E+05  1.617677E+05
       136   4 -2.854893E+06 -3.892176E+05 -1.762001E+05 -1.085206E+06  1.252226E+05  4.371514E+04
       136   5 -2.755672E+06 -2.902320E+05 -2.806367E+05 -1.078020E+06  2.803673E+05  1.014075E+05
       136   6 -2.924209E+06 -8.742328E+05 -6.859783E+05 -9.031218E+05  4.344180E+05  1.620215E+05
       136   7 -3.052480E+06 -4.253518E+05 -2.225766E+05 -1.099328E+06  1.247087E+05  4.353179E+04
       136   8 -2.916295E+06 -3.719954E+05 -3.286483E+05 -1.143320E+06  2.805374E+05  1.014594E+05
       136   9 -3.048071E+06 -1.001853E+06 -7.362278E+05 -1.019577E+06  4.352817E+05  1.622749E+05
       136  10 -2.657283E+06 -3.530901E+05 -1.298588E+05 -1.071087E+06  6.006885E-10 -3.578561E-10
       136  11 -2.595109E+06 -2.084922E+05 -2.327952E+05 -1.012724E+06  1.608682E-09 -2.559752E-09
       136  12 -2.800524E+06 -7.466416E+05 -6.361316E+05 -7.866921E+05 -4.127101E-10 -1.247610E-09
       136  13 -2.854910E+06 -3.892239E+05 -1.762333E+05 -1.085210E+06  2.121880E-09 -5.031352E-10
       136  14 -2.755759E+06 -2.902643E+05 -2.808046E+05 -1.078042E+06 -4.587174E-10 -2.009972E-09
       136  15 -2.924419E+06 -8.743121E+05 -6.863844E+05 -9.031786E+05 -1.000767E-09 -8.137500E-10
       136  16 -3.052497E+06 -4.253581E+05 -2.226096E+05 -1.099332E+06 -6.767295E-10 -4.870912E-10
       136  17 -2.916383E+06 -3.720278E+05 -3.288164E+05 -1.143343E+06 -9.888446E-10 -2.023142E-09
       136  18 -3.048283E+06 -1.001933E+06 -7.366356E+05 -1.019634E+06  1.241908E-09 -9.846598E-10
       136  19 -2.657265E+06 -3.530838E+05 -1.298253E+05 -1.071083E+06 -1.257366E+05 -4.389847E+04
       136  20 -2.595022E+06 -2.084599E+05 -2.326275E+05 -1.012701E+06 -2.801973E+05 -1.013556E+05
       136  21 -2.800314E+06 -7.465626E+05 -6.357273E+05 -7.866354E+05 -4.335542E+05 -1.617677E+05
       136  22 -2.854893E+06 -3.892176E+05 -1.762001E+05 -1.085206E+06 -1.252226E+05 -4.371514E+04
       136  23 -2.755672E+06 -2.902320E+05 -2.806367E+05 -1.078020E+06 -2.803673E+05 -1.014075E+05
       136  24 -2.924209E+06 -8.742328E+05 -6.859783E+05 -9.031218E+05 -4.344180E+05 -1.620215E+05
       136  25 -3.052480E+06 -4.253518E+05 -2.225766E+05 -1.099328E+06 -1.247087E+05 -4.353179E+04
       136  26 -2.916295E+06 -3.719954E+05 -3.286483E+05 -1.143320E+06 -2.805374E+05 -1.014594E+05
       136  27 -3.048071E+06 -1.001853E+06 -7.362278E+05 -1.019577E+06 -4.352817E+05 -1.622749E+05
       137   1 -6.663914E+05  1.836622E+04  4.141513E+04  6.392900E+03  6.723447E+04  1.549267E+03
       137   2 -6.704509E+05 -7.259041E+04 -1.259469E+04  4.058599E+03  4.469303E+04  4.317616E+03
       137   3 -6.445835E+05 -5.660253E+04 -2.512962E+04 -1.379023E+04  2.215427E+04  3.622826E+03
       137   4 -4.300253E+05  7.740184E+04  1.002805E+05 -7.216179E+03  6.844640E+04  1.549140E+03
       137   5 -4.450735E+05 -1.636528E+04  4.304751E+04  5.859785E+02  4.498335E+04  4.317519E+03
       137   6 -4.300460E+05 -3.048990E+03  2.791854E+04 -7.125925E+03  2.152340E+04  3.622575E+03
       137   7 -1.936081E+05  1.364340E+05  1.591418E+05 -2.083046E+04  6.965879E+04  1.548961E+03
       137   8 -2.196499E+05  3.985611E+04  9.868594E+04 -2.887916E+03  4.527377E+04  4.317420E+03
       137   9 -2.154666E+05  5.050127E+04  8.096330E+04 -4.593197E+02  2.089231E+04  3.622310E+03
       137  10 -6.663963E+05  1.836500E+04  4.140662E+04  6.392816E+03  1.578095E-09 -1.445265E-09
       137  11 -6.704531E+05 -7.259096E+04 -1.259848E+04  4.058444E+03  1.880016E-09 -5.516948E-10
       137  12 -6.445840E+05 -5.660268E+04 -2.513057E+04 -1.379029E+04 -5.431665E-10 -9.653718E-10
       137  13 -4.300304E+05  7.740058E+04  1.002717E+05 -7.216264E+03 -2.316244E-09  6.912881E-10
       137  14 -4.450757E+05 -1.636584E+04  4.304367E+04  5.858220E+02  2.053452E-09 -4.921602E-10
       137  15 -4.300465E+05 -3.049128E+03  2.791764E+04 -7.125987E+03  4.761450E-09 -1.156035E-09
       137  16 -1.936133E+05  1.364327E+05  1.591327E+05 -2.083055E+04 -2.257889E-09  7.757175E-10
       137  17 -2.196521E+05  3.985553E+04  9.868206E+04 -2.888074E+03 -2.626954E-09  2.339673E-11
       137  18 -2.154670E+05  5.050114E+04  8.096245E+04 -4.593806E+02  8.964611E-10  7.712638E-10
       137  19 -6.663914E+05  1.836622E+04  4.141513E+04  6.392900E+03 -6.723447E+04 -1.549267E+03
       137  20 -6.704509E+05 -7.259041E+04 -1.259469E+04  4.058599E+03 -4.469303E+04 -4.317616E+03
       137  21 -6.445835E+05 -5.660253E+04 -2.512962E+04 -1.379023E+04 -2.215427E+04 -3.622826E+03
       137  22 -4.300253E+05  7.740184E+04  1.002805E+05 -7.216179E+03 -6.844640E+04 -1.549140E+03
       137  23 -4.450735E+05 -1.636528E+04  4.304751E+04  5.859785E+02 -4.498335E+04 -4.317519E+03
       137  24 -4.300460E+05 -3.048990E+03  2.791854E+04 -7.125925E+03 -2.152340E+04 -3.622575E+03
       137  25 -1.936081E+05  1.364340E+05  1.591418E+05 -2.083046E+04 -6.965879E+04 -1.548961E+03
       137  26 -2.196499E+05  3.985611E+04  9.868594E+04 -2.887916E+03 -4.527377E+04 -4.317420E+03
       137  27 -2.154666E+05  5.050127E+04  8.096330E+04 -4.593197E+02 -2.089231E+04 -3.622310E+03
       138   1 -6.122264E+05 -3.327233E+04 -2.065257E+04 -5.656383E+03  1.691089E+04  2.860740E+03
       138   2 -6.028405E+05 -4.343239E+04 -2.960566E+04  1.309478E+03  1.122696E+04  2.865137E+03
       138   3 -5.888508E+05 -3.864451E+04 -3.109293E+04 -8.356710E+03  5.542938E+03  2.405408E+03
       138   4 -4.356928E+05  1.078657E+04  2.301580E+04 -7.405804E+03  1.697728E+04  2.860673E+03
       138   5 -4.380068E+05 -2.298515E+03  1.113482E+04  9.127922E+02  1.116943E+04  2.865062E+03
       138   6 -4.356969E+05 -4.163180E+02  6.804245E+03 -7.400359E+03  5.361606E+03  2.405354E+03
       138   7 -2.591309E+05  5.484316E+04  6.668185E+04 -9.155727E+03  1.704369E+04  2.860606E+03
       138   8 -2.731484E+05  3.883333E+04  5.187328E+04  5.159989E+02  1.111190E+04  2.864987E+03
       138   9 -2.825217E+05  3.781012E+04  4.469968E+04 -6.443773E+03  5.180228E+03  2.405300E+03
       138  10 -6.122267E+05 -3.327242E+04 -2.065312E+04 -5.656422E+03  1.117907E-09 -2.916259E-10
       138  11 -6.028406E+05 -4.343244E+04 -2.960591E+04  1.309452E+03 -9.491527E-10  2.654623E-10
       138  12 -5.888508E+05 -3.864453E+04 -3.109300E+04 -8.356720E+03  7.828137E-11 -5.904748E-10
       138  13 -4.356931E+05  1.078649E+04  2.301524E+04 -7.405843E+03 -1.227591E-09  8.910876E-10
       138  14 -4.380069E+05 -2.298557E+03  1.113457E+04  9.127664E+02  8.695415E-10  6.224170E-10
       138  15 -4.356969E+05 -4.163319E+02  6.804180E+03 -7.400370E+03  1.925120E-09 -7.977121E-10
       138  16 -2.591312E+05  5.484307E+04  6.668129E+04 -9.155766E+03  1.062183E-09  5.382725E-10
       138  17 -2.731485E+05  3.883329E+04  5.187304E+04  5.159732E+02 -4.173535E-09  4.102547E-10
       138  18 -2.825217E+05  3.781011E+04  4.469962E+04 -6.443783E+03 -8.750796E-10 -8.959488E-10
       138  19 -6.122264E+05 -3.327233E+04 -2.065257E+04 -5.656383E+03 -1.691089E+04 -2.860740E+03
       138  20 -6.028405E+05 -4.343239E+04 -2.960566E+04  1.309478E+03 -1.122696E+04 -2.865137E+03
       138  21 -5.888508E+05 -3.864451E+04 -3.109293E+04 -8.356710E+03 -5.542938E+03 -2.405408E+03
       138  22 -4.356928E+05  1.078657E+04  2.301580E+04 -7.405804E+03 -1.697728E+04 -2.860673E+03
       138  23 -4.380068E+05 -2.298515E+03  1.113482E+04  9.127922E+02 -1.116943E+04 -2.865062E+03
       138  24 -4.356969E+05 -4.163180E+02  6.804245E+03 -7.400359E+03 -5.361606E+03 -2.405354E+03
       138  25 -2.591309E+05  5.484316E+04  6.668185E+04 -9.155727E+03 -1.704369E+04 -2.860606E+03
       138  26 -2.731484E+05  3.883333E+04  5.187328E+04  5.159989E+02 -1.111190E+04 -2.864987E+03
       138  27 -2.825217E+05  3.781012E+04  4.469968E+04 -6.443773E+03 -5.180228E+03 -2.405300E+03
       139   1 -5.493258E+05 -2.664702E+04 -2.247039E+04 -7.361123E+03  4.355319E+03  2.089376E+03
       139   2 -5.374433E+05 -2.540411E+04 -2.214207E+04  1.182395E+03  2.994769E+03  1.717214E+03
       139   3 -5.248287E+05 -2.209696E+04 -2.040352E+04 -7.703991E+03  1.634070E+03  1.275211E+03
       139   4 -4.365570E+05  1.488891E+03  5.378238E+03 -7.579308E+03  4.266870E+03  2.089346E+03
       139   5 -4.369252E+05 -3.198973E+02  2.705959E+03  1.135578E+03  2.887667E+03  1.717203E+03
       139   6 -4.365581E+05 -6.135282E+01  1.456734E+03 -7.579262E+03  1.508341E+03  1.275223E+03
       139   7 -3.237766E+05  2.962386E+04  3.322592E+04 -7.797533E+03  4.178406E+03  2.089317E+03
       139   8 -3.363979E+05  2.476356E+04  2.755324E+04  1.088754E+03  2.780547E+03  1.717192E+03
       139   9 -3.482805E+05  2.197367E+04  2.331641E+04 -7.454515E+03  1.382594E+03  1.275235E+03
       139  10 -5.493258E+05 -2.664703E+04 -2.247043E+04 -7.361130E+03  1.253766E-09 -3.025430E-10
       139  11 -5.374433E+05 -2.540411E+04 -2.214209E+04  1.182391E+03  4.062516E-09  8.292039E-10
       139  12 -5.248287E+05 -2.209696E+04 -2.040353E+04 -7.703992E+03  3.074077E-09  3.252801E-11
       139  13 -4.365570E+05  1.488882E+03  5.378196E+03 -7.579315E+03  1.247528E-09 -4.471226E-10
       139  14 -4.369252E+05 -3.199027E+02  2.705938E+03  1.135574E+03 -2.157069E-09  6.268812E-10
       139  15 -4.365581E+05 -6.135518E+01  1.456727E+03 -7.579264E+03  9.567169E-10  4.518721E-10
       139  16 -3.237766E+05  2.962385E+04  3.322588E+04 -7.797540E+03  5.738092E-10 -4.871343E-10
       139  17 -3.363979E+05  2.476355E+04  2.755322E+04  1.088750E+03  4.991015E-10  6.602658E-10
       139  18 -3.482805E+05  2.197367E+04  2.331640E+04 -7.454517E+03 -1.864845E-09  2.124527E-10
       139  19 -5.493258E+05 -2.664702E+04 -2.247039E+04 -7.361123E+03 -4.355319E+03 -2.089376E+03
       139  20 -5.374433E+05 -2.540411E+04 -2.214207E+04  1.182395E+03 -2.994769E+03 -1.717214E+03
       139  21 -5.248287E+05 -2.209696E+04 -2.040352E+04 -7.703991E+03 -1.634070E+03 -1.275211E+03
       139  22 -4.365570E+05  1.488891E+03  5.378238E+03 -7.579308E+03 -4.266870E+03 -2.089346E+03
       139  23 -4.369252E+05 -3.198973E+02  2.705959E+03  1.135578E+03 -2.887667E+03 -1.717203E+03
       139  24 -4.365581E+05 -6.135282E+01  1.456734E+03 -7.579262E+03 -1.508341E+03 -1.275223E+03
       139  25 -3.237766E+05  2.962386E+04  3.322592E+04 -7.797533E+03 -4.178406E+03 -2.089317E+03
       139  26 -3.363979E+05  2.476356E+04  2.755324E+04  1.088754E+03 -2.780547E+03 -1.717192E+03
       139  27 -3.482805E+05  2.197367E+04  2.331641E+04 -7.454515E+03 -1.382594E+03 -1.275235E+03
       140   1 -4.831563E+05 -1.137626E+04 -1.043836E+04 -7.648206E+03  1.398742E+03  1.009678E+03
       140   2 -4.706479E+05 -8.489276E+03 -8.204637E+03  1.254665E+03  1.309674E+03  5.774295E+02
       140   3 -4.580908E+05 -5.428246E+03 -5.870781E+03 -7.680587E+03  1.220550E+03  1.343992E+02
       140   4 -4.367088E+05  2.068703E+02  1.005891E+03 -7.669958E+03  1.286169E+03  1.009699E+03
       140   5 -4.367334E+05 -2.621655E+01  1.789765E+02  1.249035E+03  1.194241E+03  5.774577E+02
       140   6 -4.367092E+05 -8.481079E+01 -5.458690E+02 -7.670033E+03  1.102259E+03  1.344353E+02
       140   7 -3.902592E+05  1.178984E+04  1.244998E+04 -7.691713E+03  1.173588E+03  1.009720E+03
       140   8 -4.028178E+05  8.436757E+03  8.562504E+03  1.243404E+03  1.078803E+03  5.774858E+02
       140   9 -4.153271E+05  5.258590E+03  4.779009E+03 -7.659479E+03  9.839651E+02  1.344714E+02
       140  10 -4.831563E+05 -1.137627E+04 -1.043836E+04 -7.648207E+03  7.977109E-10 -2.118314E-10
       140  11 -4.706479E+05 -8.489277E+03 -8.204641E+03  1.254664E+03 -2.048509E-09  7.509741E-10
       140  12 -4.580908E+05 -5.428246E+03 -5.870784E+03 -7.680587E+03 -1.936694E-09  5.277214E-10
       140  13 -4.367088E+05  2.068688E+02  1.005886E+03 -7.669959E+03 -1.097833E-09 -6.237637E-11
       140  14 -4.367334E+05 -2.621729E+01  1.789732E+02  1.249034E+03  3.288347E-09  6.939697E-10
       140  15 -4.367092E+05 -8.481114E+01 -5.458714E+02 -7.670033E+03 -2.663751E-09  1.882310E-11
       140  16 -3.902592E+05  1.178984E+04  1.244997E+04 -7.691714E+03 -8.047519E-10 -3.345388E-11
       140  17 -4.028178E+05  8.436756E+03  8.562501E+03  1.243404E+03  1.143998E-09  8.280007E-10
       140  18 -4.153271E+05  5.258590E+03  4.779007E+03 -7.659479E+03  3.886345E-09  3.872101E-10
       140  19 -4.831563E+05 -1.137626E+04 -1.043836E+04 -7.648206E+03 -1.398742E+03 -1.009678E+03
       140  20 -4.706479E+05 -8.489276E+03 -8.204637E+03  1.254665E+03 -1.309674E+03 -5.774295E+02
       140  21 -4.580908E+05 -5.428246E+03 -5.870781E+03 -7.680587E+03 -1.220550E+03 -1.343992E+02
       140  22 -4.367088E+05  2.068703E+02  1.005891E+03 -7.669958E+03 -1.286169E+03 -1.009699E+03
       140  23 -4.367334E+05 -2.621655E+01  1.789765E+02  1.249035E+03 -1.194241E+03 -5.774577E+02
       140  24 -4.367092E+05 -8.481079E+01 -5.458690E+02 -7.670033E+03 -1.102259E+03 -1.344353E+02
       140  25 -3.902592E+05  1.178984E+04  1.244998E+04 -7.691713E+03 -1.173588E+03 -1.009720E+03
       140  26 -4.028178E+05  8.436757E+03  8.562504E+03  1.243404E+03 -1.078803E+03 -5.774858E+02
       140  27 -4.153271E+05  5.258590E+03  4.779009E+03 -7.659479E+03 -9.839651E+02 -1.344714E+02
       141   1 -4.158680E+05  5.282494E+03  4.279986E+03 -7.735530E+03  1.353957E+03 -1.274798E+02
       141   2 -4.031632E+05  8.477442E+03  6.306683E+03  1.247404E+03  2.338240E+03 -5.706660E+02
       141   3 -3.907980E+05  1.085465E+04  7.486327E+03 -7.608697E+03  3.322593E+03 -1.003176E+03
       141   4 -4.367956E+05  5.244599E+01 -9.325544E+02 -7.670170E+03  1.235644E+03 -1.274436E+02
       141   5 -4.366256E+05  1.275591E+02 -1.964826E+03  1.249298E+03  2.222692E+03 -5.706376E+02
       141   6 -4.367958E+05 -6.155670E+02 -3.846108E+03 -7.670331E+03  3.209790E+03 -1.003155E+03
       141   7 -4.577228E+05 -5.177635E+03 -6.145128E+03 -7.604813E+03  1.117335E+03 -1.274073E+02
       141   8 -4.700870E+05 -8.222407E+03 -1.023642E+04  1.251191E+03  2.107150E+03 -5.706093E+02
       141   9 -4.827917E+05 -1.208594E+04 -1.517870E+04 -7.731959E+03  3.096996E+03 -1.003134E+03
       141  10 -4.158680E+05  5.282494E+03  4.279983E+03 -7.735530E+03 -1.071639E-09 -2.680645E-10
       141  11 -4.031632E+05  8.477440E+03  6.306672E+03  1.247405E+03 -1.970560E-09 -1.237507E-09
       141  12 -3.907980E+05  1.085465E+04  7.486304E+03 -7.608694E+03 -6.380561E-10  2.921530E-10
       141  13 -4.367956E+05  5.244556E+01 -9.325573E+02 -7.670170E+03  1.842247E-09 -9.640876E-10
       141  14 -4.366256E+05  1.275574E+02 -1.964835E+03  1.249299E+03  7.441742E-10 -1.376374E-09
       141  15 -4.367958E+05 -6.155709E+02 -3.846129E+03 -7.670328E+03 -3.605333E-09  2.812099E-10
       141  16 -4.577228E+05 -5.177635E+03 -6.145130E+03 -7.604813E+03  2.083269E-09 -5.973611E-10
       141  17 -4.700870E+05 -8.222409E+03 -1.023643E+04  1.251192E+03  1.743536E-11 -5.816221E-10
       141  18 -4.827917E+05 -1.208595E+04 -1.517872E+04 -7.731957E+03  6.458716E-10  6.309603E-10
       141  19 -4.158680E+05  5.282494E+03  4.279986E+03 -7.735530E+03 -1.353957E+03  1.274798E+02
       141  20 -4.031632E+05  8.477442E+03  6.306683E+03  1.247404E+03 -2.338240E+03  5.706660E+02
       141  21 -3.907980E+05  1.085465E+04  7.486327E+03 -7.608697E+03 -3.322593E+03  1.003176E+03
       141  22 -4.367956E+05  5.244599E+01 -9.325544E+02 -7.670170E+03 -1.235644E+03  1.274436E+02
       141  23 -4.366256E+05  1.275591E+02 -1.964826E+03  1.249298E+03 -2.222692E+03  5.706376E+02
       141  24 -4.367958E+05 -6.155670E+02 -3.846108E+03 -7.670331E+03 -3.209790E+03  1.003155E+03
       141  25 -4.577228E+05 -5.177635E+03 -6.145128E+03 -7.604813E+03 -1.117335E+03  1.274073E+02
       141  26 -4.700870E+05 -8.222407E+03 -1.023642E+04  1.251191E+03 -2.107150E+03  5.706093E+02
       141  27 -4.827917E+05 -1.208594E+04 -1.517870E+04 -7.731959E+03 -3.096996E+03  1.003134E+03
       142   1 -3.493511E+05  2.209783E+04  1.675893E+04 -8.006269E+03  4.132085E+03 -1.268699E+03
       142   2 -3.360588E+05  2.593205E+04  1.625822E+04  1.264786E+03  8.429228E+03 -1.710395E+03
       142   3 -3.248486E+05  2.352532E+04  1.140627E+04 -6.900034E+03  1.272652E+04 -2.081431E+03
       142   4 -4.371853E+05  1.731732E+02 -4.991277E+03 -7.580648E+03  4.005977E+03 -1.268684E+03
       142   5 -4.361432E+05  9.591744E+02 -8.479672E+03  1.137443E+03  8.321145E+03 -1.710408E+03
       142   6 -4.371866E+05 -4.499452E+03 -1.633231E+04 -7.580520E+03  1.263637E+04 -2.081473E+03
       142   7 -5.250126E+05 -2.175206E+04 -2.674206E+04 -7.155087E+03  3.879887E+03 -1.268669E+03
       142   8 -5.362185E+05 -2.401445E+04 -3.321831E+04  1.010121E+03  8.213079E+03 -1.710420E+03
       142   9 -5.495131E+05 -3.252516E+04 -4.407183E+04 -8.260882E+03  1.254625E+04 -2.081515E+03
       142  10 -3.493511E+05  2.209782E+04  1.675889E+04 -8.006265E+03  8.536340E-10  6.103215E-10
       142  11 -3.360589E+05  2.593203E+04  1.625808E+04  1.264797E+03 -3.116078E-09  4.274171E-10
       142  12 -3.248488E+05  2.352527E+04  1.140595E+04 -6.900013E+03 -1.903730E-09 -1.613982E-11
       142  13 -4.371853E+05  1.731672E+02 -4.991310E+03 -7.580644E+03 -1.076688E-09  5.536121E-10
       142  14 -4.361433E+05  9.591527E+02 -8.479808E+03  1.137455E+03  2.306964E-09 -2.209248E-10
       142  15 -4.371868E+05 -4.499500E+03 -1.633262E+04 -7.580499E+03  2.510228E-09  5.966043E-11
       142  16 -5.250126E+05 -2.175206E+04 -2.674209E+04 -7.155083E+03  8.909139E-10  6.484361E-10
       142  17 -5.362185E+05 -2.401447E+04 -3.321844E+04  1.010132E+03  2.718214E-09 -8.400562E-10
       142  18 -5.495133E+05 -3.252521E+04 -4.407213E+04 -8.260861E+03  1.728167E-09  3.595848E-10
       142  19 -3.493511E+05  2.209783E+04  1.675893E+04 -8.006269E+03 -4.132085E+03  1.268699E+03
       142  20 -3.360588E+05  2.593205E+04  1.625822E+04  1.264786E+03 -8.429228E+03  1.710395E+03
       142  21 -3.248486E+05  2.352532E+04  1.140627E+04 -6.900034E+03 -1.272652E+04  2.081431E+03
       142  22 -4.371853E+05  1.731732E+02 -4.991277E+03 -7.580648E+03 -4.005977E+03  1.268684E+03
       142  23 -4.361432E+05  9.591744E+02 -8.479672E+03  1.137443E+03 -8.321145E+03  1.710408E+03
       142  24 -4.371866E+05 -4.499452E+03 -1.633231E+04 -7.580520E+03 -1.263637E+04  2.081473E+03
       142  25 -5.250126E+05 -2.175206E+04 -2.674206E+04 -7.155087E+03 -3.879887E+03  1.268669E+03
       142  26 -5.362185E+05 -2.401445E+04 -3.321831E+04  1.010121E+03 -8.213079E+03  1.710420E+03
       142  27 -5.495131E+05 -3.252516E+04 -4.407183E+04 -8.260882E+03 -1.254625E+04  2.081515E+03
       143   1 -2.869429E+05  3.936528E+04  1.725322E+04 -1.021655E+04  1.613053E+04 -2.395425E+03
       143   2 -2.685739E+05  4.790016E+04  7.128610E+03  2.268605E+03  3.347935E+04 -2.843425E+03
       143   3 -2.635635E+05  1.154202E+04 -2.549039E+04 -1.854176E+03  5.082860E+04 -2.820138E+03
       143   4 -4.396992E+05  1.244481E+03 -2.053901E+04 -7.401405E+03  1.594663E+04 -2.395413E+03
       143   5 -4.330112E+05  6.872307E+03 -3.350657E+04  9.108824E+02  3.341567E+04 -2.843565E+03
       143   6 -4.397070E+05 -3.242042E+04 -6.905646E+04 -7.385180E+03  5.088481E+04 -2.820608E+03
       143   7 -5.924342E+05 -3.687803E+04 -5.833297E+04 -4.586955E+03  1.576278E+04 -2.395403E+03
       143   8 -5.974240E+05 -3.415756E+04 -7.414376E+04 -4.464824E+02  3.335201E+04 -2.843704E+03
       143   9 -6.158222E+05 -7.638507E+04 -1.126248E+05 -1.291462E+04  5.094100E+04 -2.821080E+03
       143  10 -2.869432E+05  3.936520E+04  1.725272E+04 -1.021652E+04 -6.535439E-10 -5.775701E-10
       143  11 -2.685751E+05  4.789985E+04  7.126488E+03  2.268682E+03 -1.175148E-09 -1.192498E-09
       143  12 -2.635663E+05  1.154132E+04 -2.549526E+04 -1.854060E+03 -7.584953E-10 -1.980235E-10
       143  13 -4.396994E+05  1.244406E+03 -2.053950E+04 -7.401374E+03 -2.161918E-09 -1.551328E-10
       143  14 -4.330124E+05  6.871998E+03 -3.350869E+04  9.109589E+02 -4.283997E-09 -1.123691E-09
       143  15 -4.397098E+05 -3.242113E+04 -6.906134E+04 -7.385065E+03 -1.854971E-09 -1.774323E-10
       143  16 -5.924345E+05 -3.687810E+04 -5.833345E+04 -4.586925E+03  4.888939E-11  3.967656E-10
       143  17 -5.974252E+05 -3.415787E+04 -7.414587E+04 -4.464060E+02  4.530297E-10 -2.592752E-10
       143  18 -6.158250E+05 -7.638578E+04 -1.126297E+05 -1.291450E+04 -1.784868E-09  9.570966E-11
       143  19 -2.869429E+05  3.936528E+04  1.725322E+04 -1.021655E+04 -1.613053E+04  2.395425E+03
       143  20 -2.685739E+05  4.790016E+04  7.128610E+03  2.268605E+03 -3.347935E+04  2.843425E+03
       143  21 -2.635635E+05  1.154202E+04 -2.549039E+04 -1.854176E+03 -5.082860E+04  2.820138E+03
       143  22 -4.396992E+05  1.244481E+03 -2.053901E+04 -7.401405E+03 -1.594663E+04  2.395413E+03
       143  23 -4.330112E+05  6.872307E+03 -3.350657E+04  9.108824E+02 -3.341567E+04  2.843565E+03
       143  24 -4.397070E+05 -3.242042E+04 -6.905646E+04 -7.385180E+03 -5.088481E+04  2.820608E+03
       143  25 -5.924342E+05 -3.687803E+04 -5.833297E+04 -4.586955E+03 -1.576278E+04  2.395403E+03
       143  26 -5.974240E+05 -3.415756E+04 -7.414376E+04 -4.464824E+02 -3.335201E+04  2.843704E+03
       143  27 -6.158222E+05 -7.638507E+04 -1.126248E+05 -1.291462E+04 -5.094100E+04  2.821080E+03
       144   1 -2.422516E+05  6.254747E+04 -3.074380E+04 -2.673493E+04  6.515738E+04 -3.564158E+03
       144   2 -1.869375E+05  1.051747E+05 -7.358052E+04  1.157664E+04  1.346462E+05 -4.148250E+03
       144   3 -2.206488E+05 -1.730893E+05 -2.418185E+05  3.478137E+04  2.041344E+05 -1.218323E+03
       144   4 -4.565501E+05  9.107634E+03 -8.371481E+04 -7.145307E+03  6.451154E+04 -3.562582E+03
       144   5 -4.119607E+05  4.902385E+04 -1.291279E+05  5.423300E+02  1.349036E+05 -4.150476E+03
       144   6 -4.565882E+05 -2.321737E+05 -3.006031E+05 -6.875789E+03  2.052937E+05 -1.230653E+03
       144   7 -6.708060E+05 -4.433418E+04 -1.366890E+05  1.243754E+04  6.386593E+04 -3.561047E+03
       144   8 -6.369375E+05 -7.130297E+03 -1.846790E+05 -1.048799E+04  1.351609E+05 -4.152713E+03
       144   9 -6.924734E+05 -2.912557E+05 -3.593909E+05 -4.851712E+04  2.064525E+05 -1.243143E+03
       144  10 -2.422562E+05  6.254632E+04 -3.075181E+04 -2.673474E+04  1.725614E-09 -7.628053E-10
       144  11 -1.869570E+05  1.051698E+05 -7.361463E+04  1.157709E+04 -1.400886E-09 -3.415215E-09
       144  12 -2.206936E+05 -1.731005E+05 -2.418969E+05  3.478157E+04 -1.865786E-09 -1.182024E-09
       144  13 -4.565546E+05  9.106502E+03 -8.372266E+04 -7.145122E+03  1.530952E-09 -2.856579E-09
       144  14 -4.119802E+05  4.901894E+04 -1.291622E+05  5.427811E+02 -3.693886E-10  7.511216E-10
       144  15 -4.566335E+05 -2.321850E+05 -3.006824E+05 -6.875586E+03  7.424366E-10 -3.630773E-10
       144  16 -6.708103E+05 -4.433529E+04 -1.366967E+05  1.243772E+04 -3.030845E-09 -4.252990E-10
       144  17 -6.369572E+05 -7.135227E+03 -1.847134E+05 -1.048753E+04 -2.256904E-09  1.674420E-10
       144  18 -6.925192E+05 -2.912672E+05 -3.594711E+05 -4.851691E+04  3.344483E-11 -1.673415E-09
       144  19 -2.422516E+05  6.254747E+04 -3.074380E+04 -2.673493E+04 -6.515738E+04  3.564158E+03
       144  20 -1.869375E+05  1.051747E+05 -7.358052E+04  1.157664E+04 -1.346462E+05  4.148250E+03
       144  21 -2.206488E+05 -1.730893E+05 -2.418185E+05  3.478137E+04 -2.041344E+05  1.218323E+03
       144  22 -4.565501E+05  9.107634E+03 -8.371481E+04 -7.145307E+03 -6.451154E+04  3.562582E+03
       144  23 -4.119607E+05  4.902385E+04 -1.291279E+05  5.423300E+02 -1.349036E+05  4.150476E+03
       144  24 -4.565882E+05 -2.321737E+05 -3.006031E+05 -6.875789E+03 -2.052937E+05  1.230653E+03
       144  25 -6.708060E+05 -4.433418E+04 -1.366890E+05  1.243754E+04 -6.386593E+04  3.561047E+03
       144  26 -6.369375E+05 -7.130297E+03 -1.846790E+05 -1.048799E+04 -1.351609E+05  4.152713E+03
       144  27 -6.924734E+05 -2.912557E+05 -3.593909E+05 -4.851712E+04 -2.064525E+05  1.243143E+03
       145   1  2.861756E+05  3.729120E+05  3.033937E+05 -9.888709E+04  5.367442E+03  6.439568E+04
       145   2  1.719268E+05  2.182047E+05  2.162786E+05  9.593073E+03  1.446299E+04  4.235051E+04
       145   3  1.464293E+05  8.959368E+04  1.659088E+05 -8.291648E+04  8.511907E+03  2.027293E+04
       145   4  6.496202E+04 -5.124903E+05  8.297453E+04 -8.641697E+04  5.376612E+03  5.996224E+04
       145   5 -1.348052E+04 -5.252320E+05  3.289624E+04  1.402313E+04  1.446538E+04  4.191585E+04
       145   6 -3.806741E+03 -5.125539E+05  1.682441E+04 -8.653963E+04  8.500176E+03  2.383195E+04
       145   7 -1.563100E+05 -1.397181E+06 -1.375033E+05 -7.396429E+04  5.385612E+03  5.553506E+04
       145   8 -1.989290E+05 -1.268166E+06 -1.505270E+05  1.844817E+04  1.446777E+04  4.148169E+04
       145   9 -1.540698E+05 -1.114372E+06 -1.322869E+05 -9.015896E+04  8.488397E+03  2.738750E+04
       145  10  2.861745E+05  3.729076E+05  3.033858E+05 -9.888737E+04  1.009949E-09  9.755096E-10
       145  11  1.719261E+05  2.182027E+05  2.162748E+05  9.592580E+03  2.246402E-09 -3.626810E-09
       145  12  1.464291E+05  8.959322E+04  1.659079E+05 -8.291662E+04 -2.399566E-09  3.404010E-09
       145  13  6.496103E+04 -5.124942E+05  8.296771E+04 -8.641723E+04  7.572795E-10  1.937685E-11
       145  14 -1.348121E+04 -5.252340E+05  3.289254E+04  1.402264E+04 -5.068243E-10 -2.625832E-09
       145  15 -3.806971E+03 -5.125545E+05  1.682321E+04 -8.653979E+04 -3.301994E-10  4.412934E-10
       145  16 -1.563109E+05 -1.397184E+06 -1.375092E+05 -7.396453E+04  1.013417E-09 -1.070646E-09
       145  17 -1.989297E+05 -1.268168E+06 -1.505306E+05  1.844769E+04  6.427400E-11 -4.926787E-10
       145  18 -1.540701E+05 -1.114373E+06 -1.322885E+05 -9.015915E+04 -5.586921E-10  7.568253E-10
       145  19  2.861756E+05  3.729120E+05  3.033937E+05 -9.888709E+04 -5.367442E+03 -6.439568E+04
       145  20  1.719268E+05  2.182047E+05  2.162786E+05  9.593073E+03 -1.446299E+04 -4.235051E+04
       145  21  1.464293E+05  8.959368E+04  1.659088E+05 -8.291648E+04 -8.511907E+03 -2.027293E+04
       145  22  6.496202E+04 -5.124903E+05  8.297453E+04 -8.641697E+04 -5.376612E+03 -5.996224E+04
       145  23 -1.348052E+04 -5.252320E+05  3.289624E+04  1.402313E+04 -1.446538E+04 -4.191585E+04
       145  24 -3.806741E+03 -5.125539E+05  1.682441E+04 -8.653963E+04 -8.500176E+03 -2.383195E+04
       145  25 -1.563100E+05 -1.397181E+06 -1.375033E+05 -7.396429E+04 -5.385612E+03 -5.553506E+04
       145  26 -1.989290E+05 -1.268166E+06 -1.505270E+05  1.844817E+04 -1.446777E+04 -4.148169E+04
       145  27 -1.540698E+05 -1.114372E+06 -1.322869E+05 -9.015896E+04 -8.488397E+03 -2.738750E+04
       146   1  4.030111E+04 -3.974716E+05  4.050832E+04 -8.765796E+04  2.932081E+03  2.044874E+04
       146   2 -4.441221E+03 -5.389594E+05 -1.034576E+04  1.391388E+04 -4.626439E+02  2.304463E+04
       146   3 -5.496046E+04 -6.839938E+05 -6.470695E+04 -8.830989E+04 -3.785369E+03  2.564043E+04
       146   4  1.003488E+04 -5.188742E+05  1.065863E+04 -8.707131E+04  2.928845E+03  2.135051E+04
       146   5  1.006182E+03 -5.170984E+05 -4.944333E+03  1.478425E+04 -4.657319E+02  2.392884E+04
       146   6 -1.379342E+04 -5.188813E+05 -2.403761E+04 -8.715546E+04 -3.788353E+03  2.650768E+04
       146   7 -2.023244E+04 -6.402634E+05 -1.919215E+04 -8.648476E+04  2.925610E+03  2.225210E+04
       146   8  6.453552E+03 -4.952370E+05  4.570574E+02  1.565464E+04 -4.688173E+02  2.481308E+04
       146   9  2.737159E+04 -3.537439E+05  1.662972E+04 -8.600069E+04 -3.791333E+03  2.737516E+04
       146  10  4.030099E+04 -3.974721E+05  4.050752E+04 -8.765801E+04 -2.198757E-09  1.645903E-09
       146  11 -4.441364E+03 -5.389600E+05 -1.034676E+04  1.391389E+04 -5.388252E-10 -3.319696E-09
       146  12 -5.496065E+04 -6.839945E+05 -6.470822E+04 -8.830981E+04  1.011750E-09  5.853806E-09
       146  13  1.003475E+04 -5.188747E+05  1.065775E+04 -8.707136E+04 -2.215718E-10 -3.144561E-11
       146  14  1.006027E+03 -5.170990E+05 -4.945411E+03  1.478426E+04 -1.121300E-10 -3.854589E-09
       146  15 -1.379363E+04 -5.188820E+05 -2.403896E+04 -8.715538E+04  6.304978E-10  4.729860E-10
       146  16 -2.023259E+04 -6.402639E+05 -1.919310E+04 -8.648481E+04 -1.896055E-09 -1.614397E-09
       146  17  6.453387E+03 -4.952376E+05  4.558991E+02  1.565465E+04  4.374744E-10 -2.501745E-09
       146  18  2.737137E+04 -3.537447E+05  1.662829E+04 -8.600061E+04  2.620023E-10 -1.468593E-09
       146  19  4.030111E+04 -3.974716E+05  4.050832E+04 -8.765796E+04 -2.932081E+03 -2.044874E+04
       146  20 -4.441221E+03 -5.389594E+05 -1.034576E+04  1.391388E+04  4.626439E+02 -2.304463E+04
       146  21 -5.496046E+04 -6.839938E+05 -6.470695E+04 -8.830989E+04  3.785369E+03 -2.564043E+04
       146  22  1.003488E+04 -5.188742E+05  1.065863E+04 -8.707131E+04 -2.928845E+03 -2.135051E+04
       146  23  1.006182E+03 -5.170984E+05 -4.944333E+03  1.478425E+04  4.657319E+02 -2.392884E+04
       146  24 -1.379342E+04 -5.188813E+05 -2.403761E+04 -8.715546E+04  3.788353E+03 -2.650768E+04
       146  25 -2.023244E+04 -6.402634E+05 -1.919215E+04 -8.648476E+04 -2.925610E+03 -2.225210E+04
       146  26  6.453552E+03 -4.952370E+05  4.570574E+02  1.565464E+04  4.688173E+02 -2.481308E+04
       146  27  2.737159E+04 -3.537439E+05  1.662972E+04 -8.600069E+04  3.791333E+03 -2.737516E+04
       147   1 -1.553962E+05 -1.171434E+06 -1.912971E+05 -7.647610E+04 -9.436342E+03  2.773615E+04
       147   2 -1.756567E+05 -1.294251E+06 -2.477554E+05  1.060662E+04 -1.552692E+04  6.109182E+04
       147   3 -3.313672E+05 -1.453933E+06 -3.595712E+05 -1.031415E+05 -5.893336E+03  9.447596E+04
       147   4  5.813640E+03 -5.262355E+05 -3.142962E+04 -8.637998E+04 -9.448290E+03  3.141138E+04
       147   5  2.051416E+04 -5.081691E+05 -5.367503E+04  1.394463E+04 -1.552419E+04  6.065607E+04
       147   6 -9.942462E+04 -5.262152E+05 -1.283651E+05 -8.654923E+04 -5.883225E+03  8.993706E+04
       147   7  1.669926E+05  1.193416E+05  1.284069E+05 -9.629384E+04 -9.460349E+03  3.509040E+04
       147   8  2.166389E+05  2.784758E+05  1.403595E+05  1.728719E+04 -1.552147E+04  6.021972E+04
       147   9  1.324542E+05  4.022855E+05  1.027764E+05 -6.993179E+04 -5.873367E+03  8.539129E+04
       147  10 -1.553965E+05 -1.171435E+06 -1.912987E+05 -7.647589E+04 -1.531206E-09 -8.491958E-10
       147  11 -1.756579E+05 -1.294255E+06 -2.477629E+05  1.060739E+04 -1.261944E-09 -3.625765E-09
       147  12 -3.313697E+05 -1.453943E+06 -3.595880E+05 -1.031410E+05 -1.375767E-09  2.335992E-09
       147  13  5.813279E+03 -5.262366E+05 -3.143165E+04 -8.637974E+04 -3.556542E-09 -8.563404E-12
       147  14  2.051291E+04 -5.081731E+05 -5.368240E+04  1.394538E+04 -1.741626E-09 -2.478005E-09
       147  15 -9.942683E+04 -5.262239E+05 -1.283804E+05 -8.654881E+04 -4.750957E-10  9.999660E-11
       147  16  1.669922E+05  1.193403E+05  1.284044E+05 -9.629357E+04  1.220001E-09  8.826516E-10
       147  17  2.166376E+05  2.784719E+05  1.403523E+05  1.728794E+04 -1.867825E-09 -2.147358E-10
       147  18  1.324522E+05  4.022777E+05  1.027627E+05 -6.993138E+04  1.095946E-09 -5.513001E-10
       147  19 -1.553962E+05 -1.171434E+06 -1.912971E+05 -7.647610E+04  9.436342E+03 -2.773615E+04
       147  20 -1.756567E+05 -1.294251E+06 -2.477554E+05  1.060662E+04  1.552692E+04 -6.109182E+04
       147  21 -3.313672E+05 -1.453933E+06 -3.595712E+05 -1.031415E+05  5.893336E+03 -9.447596E+04
       147  22  5.813640E+03 -5.262355E+05 -3.142962E+04 -8.637998E+04  9.448290E+03 -3.141138E+04
       147  23  2.051416E+04 -5.081691E+05 -5.367503E+04  1.394463E+04  1.552419E+04 -6.065607E+04
       147  24 -9.942462E+04 -5.262152E+05 -1.283651E+05 -8.654923E+04  5.883225E+03 -8.993706E+04
       147  25  1.669926E+05  1.193416E+05  1.284069E+05 -9.629384E+04  9.460349E+03 -3.509040E+04
       147  26  2.166389E+05  2.784758E+05  1.403595E+05  1.728719E+04  1.552147E+04 -6.021972E+04
       147  27  1.324542E+05  4.022855E+05  1.027764E+05 -6.993179E+04  5.873367E+03 -8.539129E+04
       148   1 -1.688767E+06 -4.085269E+05 -2.124364E+05 -5.952055E+05 -1.079257E+05 -3.942813E+04
       148   2 -1.654641E+06 -2.499673E+05 -1.108944E+05 -6.220167E+05 -6.997668E+04 -2.286656E+04
       148   3 -1.681912E+06 -2.637383E+05 -8.375055E+04 -6.126092E+05 -3.109978E+04 -8.768581E+03
       148   4 -1.543968E+06 -3.338444E+05 -1.686489E+05 -5.353816E+05 -1.071475E+05 -3.913962E+04
       148   5 -1.504850E+06 -1.881769E+05 -6.904175E+04 -5.758849E+05 -6.979818E+04 -2.280020E+04
       148   6 -1.526996E+06 -2.146977E+05 -4.334293E+04 -5.801742E+05 -3.152078E+04 -8.926293E+03
       148   7 -1.399148E+06 -2.591546E+05 -1.248633E+05 -4.755432E+05 -1.063691E+05 -3.885097E+04
       148   8 -1.355038E+06 -1.263841E+05 -2.719120E+04 -5.297426E+05 -6.961963E+04 -2.273383E+04
       148   9 -1.372056E+06 -1.656574E+05 -2.937241E+03 -5.477326E+05 -3.194190E+04 -9.084032E+03
       148  10 -1.688780E+06 -4.085317E+05 -2.124613E+05 -5.952089E+05  5.438699E-11 -2.050905E-10
       148  11 -1.654646E+06 -2.499691E+05 -1.109046E+05 -6.220180E+05  3.260193E-09 -1.434831E-09
       148  12 -1.681914E+06 -2.637386E+05 -8.375252E+04 -6.126094E+05 -5.297531E-10  3.860078E-10
       148  13 -1.543981E+06 -3.338491E+05 -1.686734E+05 -5.353850E+05  1.111975E-09  1.642236E-11
       148  14 -1.504856E+06 -1.881788E+05 -6.905191E+04 -5.758862E+05 -8.789016E-10 -2.456397E-10
       148  15 -1.526997E+06 -2.146981E+05 -4.334496E+04 -5.801744E+05  1.683061E-09 -1.246473E-09
       148  16 -1.399160E+06 -2.591592E+05 -1.248874E+05 -4.755465E+05 -1.595748E-10 -3.897086E-10
       148  17 -1.355043E+06 -1.263859E+05 -2.720130E+04 -5.297439E+05 -3.743746E-09 -1.181189E-09
       148  18 -1.372057E+06 -1.656577E+05 -2.939319E+03 -5.477328E+05  1.336257E-09 -1.056534E-09
       148  19 -1.688767E+06 -4.085269E+05 -2.124364E+05 -5.952055E+05  1.079257E+05  3.942813E+04
       148  20 -1.654641E+06 -2.499673E+05 -1.108944E+05 -6.220167E+05  6.997668E+04  2.286656E+04
       148  21 -1.681912E+06 -2.637383E+05 -8.375055E+04 -6.126092E+05  3.109978E+04  8.768581E+03
       148  22 -1.543968E+06 -3.338444E+05 -1.686489E+05 -5.353816E+05  1.071475E+05  3.913962E+04
       148  23 -1.504850E+06 -1.881769E+05 -6.904175E+04 -5.758849E+05  6.979818E+04  2.280020E+04
       148  24 -1.526996E+06 -2.146977E+05 -4.334293E+04 -5.801742E+05  3.152078E+04  8.926293E+03
       148  25 -1.399148E+06 -2.591546E+05 -1.248633E+05 -4.755432E+05  1.063691E+05  3.885097E+04
       148  26 -1.355038E+06 -1.263841E+05 -2.719120E+04 -5.297426E+05  6.961963E+04  2.273383E+04
       148  27 -1.372056E+06 -1.656574E+05 -2.937241E+03 -5.477326E+05  3.194190E+04  9.084032E+03
       149   1 -1.641032E+06 -2.828077E+05 -6.899541E+04 -6.053991E+05 -2.488194E+04 -7.020220E+03
       149   2 -1.632751E+06 -2.536468E+05 -4.738733E+04 -6.026211E+05 -1.617345E+04 -3.729361E+03
       149   3 -1.625560E+06 -2.569392E+05 -3.871427E+04 -6.039765E+05 -7.319270E+03 -8.261000E+02
       149   4 -1.520870E+06 -2.347294E+05 -3.565247E+04 -5.699349E+05 -2.483352E+04 -7.002191E+03
       149   5 -1.519137E+06 -2.100860E+05 -1.626397E+04 -5.710306E+05 -1.621902E+04 -3.746526E+03
       149   6 -1.518473E+06 -2.178745E+05 -9.733927E+03 -5.762602E+05 -7.458927E+03 -8.785313E+02
       149   7 -1.400694E+06 -1.866499E+05 -2.310924E+03 -5.344643E+05 -2.478510E+04 -6.984157E+03
       149   8 -1.405511E+06 -1.665244E+05  1.485820E+04 -5.394349E+05 -1.626459E+04 -3.763695E+03
       149   9 -1.411375E+06 -1.788093E+05  1.924544E+04 -5.485396E+05 -7.598610E+03 -9.309719E+02
       149  10 -1.641033E+06 -2.828079E+05 -6.899667E+04 -6.053992E+05  4.688424E-11  3.394029E-10
       149  11 -1.632752E+06 -2.536469E+05 -4.738785E+04 -6.026211E+05  4.919338E-10  6.559293E-10
       149  12 -1.625560E+06 -2.569392E+05 -3.871438E+04 -6.039765E+05 -1.048417E-09  9.262625E-10
       149  13 -1.520870E+06 -2.347296E+05 -3.565372E+04 -5.699350E+05 -4.597758E-10  3.638884E-10
       149  14 -1.519138E+06 -2.100861E+05 -1.626450E+04 -5.710306E+05 -4.251362E-09 -1.148778E-10
       149  15 -1.518473E+06 -2.178745E+05 -9.734033E+03 -5.762602E+05 -3.477230E-10  5.819849E-10
       149  16 -1.400695E+06 -1.866501E+05 -2.312173E+03 -5.344645E+05 -3.766576E-10 -1.259385E-09
       149  17 -1.405511E+06 -1.665244E+05  1.485768E+04 -5.394349E+05 -4.215660E-09  1.227407E-09
       149  18 -1.411376E+06 -1.788093E+05  1.924533E+04 -5.485396E+05  2.396055E-09  4.701737E-10
       149  19 -1.641032E+06 -2.828077E+05 -6.899541E+04 -6.053991E+05  2.488194E+04  7.020220E+03
       149  20 -1.632751E+06 -2.536468E+05 -4.738733E+04 -6.026211E+05  1.617345E+04  3.729361E+03
       149  21 -1.625560E+06 -2.569392E+05 -3.871427E+04 -6.039765E+05  7.319270E+03  8.261000E+02
       149  22 -1.520870E+06 -2.347294E+05 -3.565247E+04 -5.699349E+05  2.483352E+04  7.002191E+03
       149  23 -1.519137E+06 -2.100860E+05 -1.626397E+04 -5.710306E+05  1.621902E+04  3.746526E+03
       149  24 -1.518473E+06 -2.178745E+05 -9.733927E+03 -5.762602E+05  7.458927E+03  8.785313E+02
       149  25 -1.400694E+06 -1.866499E+05 -2.310924E+03 -5.344643E+05  2.478510E+04  6.984157E+03
       149  26 -1.405511E+06 -1.665244E+05  1.485820E+04 -5.394349E+05  1.626459E+04  3.763695E+03
       149  27 -1.411375E+06 -1.788093E+05  1.924544E+04 -5.485396E+05  7.598610E+03  9.309719E+02
       150   1 -1.589538E+06 -2.486202E+05 -2.753675E+04 -5.951721E+05 -5.852011E+03 -5.667419E+02
       150   2 -1.584515E+06 -2.366388E+05 -2.105818E+04 -5.871133E+05 -3.708004E+03 -1.177277E+02
       150   3 -1.570402E+06 -2.386197E+05 -1.700194E+04 -5.903651E+05 -1.533457E+03  2.496768E+02
       150   4 -1.517233E+06 -2.209809E+05 -7.768064E+03 -5.751469E+05 -5.919289E+03 -5.920099E+02
       150   5 -1.521613E+06 -2.128232E+05 -3.884047E+03 -5.699334E+05 -3.795176E+03 -1.504465E+02
       150   6 -1.516898E+06 -2.186234E+05 -2.406304E+03 -5.760304E+05 -1.640559E+03  2.094963E+02
       150   7 -1.444924E+06 -1.933413E+05  1.200015E+04 -5.551196E+05 -5.986577E+03 -6.172813E+02
       150   8 -1.458708E+06 -1.890074E+05  1.328972E+04 -5.527520E+05 -3.882358E+03 -1.831690E+02
       150   9 -1.463392E+06 -1.986271E+05  1.218905E+04 -5.616947E+05 -1.747670E+03  1.693122E+02
       150  10 -1.589538E+06 -2.486202E+05 -2.753682E+04 -5.951722E+05 -5.961093E-10  4.510974E-10
       150  11 -1.584515E+06 -2.366388E+05 -2.105821E+04 -5.871133E+05  1.391892E-09 -1.112704E-10
       150  12 -1.570402E+06 -2.386197E+05 -1.700194E+04 -5.903651E+05  1.935800E-09 -3.475639E-10
       150  13 -1.517233E+06 -2.209809E+05 -7.768130E+03 -5.751469E+05 -3.493414E-11  4.551684E-11
       150  14 -1.521613E+06 -2.128232E+05 -3.884074E+03 -5.699334E+05  1.205381E-09 -6.020889E-10
       150  15 -1.516898E+06 -2.186234E+05 -2.406309E+03 -5.760304E+05 -1.298215E-09 -4.341994E-10
       150  16 -1.444924E+06 -1.933413E+05  1.200008E+04 -5.551196E+05  1.531060E-09  5.732344E-11
       150  17 -1.458708E+06 -1.890074E+05  1.328969E+04 -5.527520E+05  1.449993E-09 -4.748973E-10
       150  18 -1.463392E+06 -1.986271E+05  1.218905E+04 -5.616947E+05 -2.212606E-09 -4.923242E-10
       150  19 -1.589538E+06 -2.486202E+05 -2.753675E+04 -5.951721E+05  5.852011E+03  5.667419E+02
       150  20 -1.584515E+06 -2.366388E+05 -2.105818E+04 -5.871133E+05  3.708004E+03  1.177277E+02
       150  21 -1.570402E+06 -2.386197E+05 -1.700194E+04 -5.903651E+05  1.533457E+03 -2.496768E+02
       150  22 -1.517233E+06 -2.209809E+05 -7.768064E+03 -5.751469E+05  5.919289E+03  5.920099E+02
       150  23 -1.521613E+06 -2.128232E+05 -3.884047E+03 -5.699334E+05  3.795176E+03  1.504465E+02
       150  24 -1.516898E+06 -2.186234E+05 -2.406304E+03 -5.760304E+05  1.640559E+03 -2.094963E+02
       150  25 -1.444924E+06 -1.933413E+05  1.200015E+04 -5.551196E+05  5.986577E+03  6.172813E+02
       150  26 -1.458708E+06 -1.890074E+05  1.328972E+04 -5.527520E+05  3.882358E+03  1.831690E+02
       150  27 -1.463392E+06 -1.986271E+05  1.218905E+04 -5.616947E+05  1.747670E+03 -1.693122E+02
       151   1 -1.532166E+06 -2.250444E+05 -6.210923E+03 -5.802761E+05 -1.091434E+03  1.408450E+02
       151   2 -1.527433E+06 -2.150945E+05 -2.876839E+03 -5.711110E+05 -2.259991E+02  2.389813E+01
       151   3 -1.511770E+06 -2.170736E+05 -2.570696E+02 -5.747124E+05  6.426033E+02 -1.014423E+02
       151   4 -1.516625E+06 -2.191326E+05 -1.998837E+03 -5.759935E+05 -1.185898E+03  1.054113E+02
       151   5 -1.522076E+06 -2.130667E+05 -1.414448E+03 -5.696483E+05 -3.225218E+02 -1.230669E+01
       151   6 -1.516596E+06 -2.189295E+05 -1.542776E+03 -5.760696E+05  5.440065E+02 -1.384231E+02
       151   7 -1.501085E+06 -2.132208E+05  2.213237E+03 -5.717108E+05 -1.280365E+03  6.997662E+01
       151   8 -1.516719E+06 -2.110390E+05  4.794031E+01 -5.681856E+05 -4.190454E+02 -4.851183E+01
       151   9 -1.521423E+06 -2.207855E+05 -2.828479E+03 -5.774268E+05  4.454110E+02 -1.754035E+02
       151  10 -1.532166E+06 -2.250444E+05 -6.210926E+03 -5.802761E+05 -7.137889E-11 -2.833311E-10
       151  11 -1.527433E+06 -2.150945E+05 -2.876840E+03 -5.711110E+05 -7.790465E-10  1.171648E-10
       151  12 -1.511770E+06 -2.170736E+05 -2.570704E+02 -5.747124E+05  1.022780E-10 -1.601558E-10
       151  13 -1.516625E+06 -2.191326E+05 -1.998840E+03 -5.759935E+05 -1.533436E-09  4.876302E-11
       151  14 -1.522076E+06 -2.130667E+05 -1.414448E+03 -5.696483E+05 -1.908762E-09  4.386168E-11
       151  15 -1.516596E+06 -2.189295E+05 -1.542777E+03 -5.760696E+05  1.051512E-09 -6.102417E-10
       151  16 -1.501085E+06 -2.132208E+05  2.213234E+03 -5.717108E+05  2.463052E-10 -4.995769E-10
       151  17 -1.516719E+06 -2.110390E+05  4.793998E+01 -5.681856E+05 -5.811932E-10 -5.423092E-10
       151  18 -1.521423E+06 -2.207855E+05 -2.828480E+03 -5.774268E+05  2.137460E-10 -3.263564E-10
       151  19 -1.532166E+06 -2.250444E+05 -6.210923E+03 -5.802761E+05  1.091434E+03 -1.408450E+02
       151  20 -1.527433E+06 -2.150945E+05 -2.876839E+03 -5.711110E+05  2.259991E+02 -2.389813E+01
       151  21 -1.511770E+06 -2.170736E+05 -2.570696E+02 -5.747124E+05 -6.426033E+02  1.014423E+02
       151  22 -1.516625E+06 -2.191326E+05 -1.998837E+03 -5.759935E+05  1.185898E+03 -1.054113E+02
       151  23 -1.522076E+06 -2.130667E+05 -1.414448E+03 -5.696483E+05  3.225218E+02  1.230669E+01
       151  24 -1.516596E+06 -2.189295E+05 -1.542776E+03 -5.760696E+05 -5.440065E+02  1.384231E+02
       151  25 -1.501085E+06 -2.132208E+05  2.213237E+03 -5.717108E+05  1.280365E+03 -6.997662E+01
       151  26 -1.516719E+06 -2.110390E+05  4.794031E+01 -5.681856E+05  4.190454E+02  4.851183E+01
       151  27 -1.521423E+06 -2.207855E+05 -2.828479E+03 -5.774268E+05 -4.454110E+02  1.754035E+02
       152   1 -1.473628E+06 -2.025474E+05  1.003312E+04 -5.643844E+05  1.008280E+03 -2.366332E+02
       152   2 -1.469037E+06 -1.931228E+05  1.179078E+04 -5.554301E+05  2.482293E+03 -1.332163E+02
       152   3 -1.454312E+06 -1.958958E+05  1.218859E+04 -5.585390E+05  3.941559E+03  9.798480E+00
       152   4 -1.516738E+06 -2.187335E+05 -1.749256E+03 -5.760097E+05  9.061525E+02 -2.749428E+02
       152   5 -1.521868E+06 -2.130778E+05 -2.623890E+03 -5.698117E+05  2.389817E+03 -1.679184E+02
       152   6 -1.516864E+06 -2.196217E+05 -4.866106E+03 -5.756769E+05  3.858712E+03 -2.130278E+01
       152   7 -1.559847E+06 -2.349195E+05 -1.353183E+04 -5.876343E+05  8.040331E+02 -3.132495E+02
       152   8 -1.574696E+06 -2.330326E+05 -1.703886E+04 -5.841923E+05  2.297349E+03 -2.026174E+02
       152   9 -1.579413E+06 -2.433474E+05 -2.192123E+04 -5.928134E+05  3.775873E+03 -5.240069E+01
       152  10 -1.473628E+06 -2.025474E+05  1.003312E+04 -5.643844E+05  8.611938E-10 -5.523231E-10
       152  11 -1.469037E+06 -1.931228E+05  1.179077E+04 -5.554301E+05 -1.429211E-09 -1.144010E-09
       152  12 -1.454312E+06 -1.958958E+05  1.218856E+04 -5.585390E+05  6.788864E-10  2.365032E-10
       152  13 -1.516738E+06 -2.187335E+05 -1.749258E+03 -5.760097E+05  1.235246E-09 -6.942141E-10
       152  14 -1.521868E+06 -2.130778E+05 -2.623900E+03 -5.698117E+05  3.592841E-09 -2.377164E-10
       152  15 -1.516864E+06 -2.196217E+05 -4.866134E+03 -5.756769E+05  5.817006E-10  5.376023E-10
       152  16 -1.559847E+06 -2.349195E+05 -1.353183E+04 -5.876343E+05 -1.613210E-09 -6.017920E-10
       152  17 -1.574696E+06 -2.330326E+05 -1.703887E+04 -5.841923E+05  1.281745E-09 -6.512193E-11
       152  18 -1.579413E+06 -2.433474E+05 -2.192126E+04 -5.928134E+05  2.702774E-09  5.840481E-10
       152  19 -1.473628E+06 -2.025474E+05  1.003312E+04 -5.643844E+05 -1.008280E+03  2.366332E+02
       152  20 -1.469037E+06 -1.931228E+05  1.179078E+04 -5.554301E+05 -2.482293E+03  1.332163E+02
       152  21 -1.454312E+06 -1.958958E+05  1.218859E+04 -5.585390E+05 -3.941559E+03 -9.798480E+00
       152  22 -1.516738E+06 -2.187335E+05 -1.749256E+03 -5.760097E+05 -9.061525E+02  2.749428E+02
       152  23 -1.521868E+06 -2.130778E+05 -2.623890E+03 -5.698117E+05 -2.389817E+03  1.679184E+02
       152  24 -1.516864E+06 -2.196217E+05 -4.866106E+03 -5.756769E+05 -3.858712E+03  2.130278E+01
       152  25 -1.559847E+06 -2.349195E+05 -1.353183E+04 -5.876343E+05 -8.040331E+02  3.132495E+02
       152  26 -1.574696E+06 -2.330326E+05 -1.703886E+04 -5.841923E+05 -2.297349E+03  2.026174E+02
       152  27 -1.579413E+06 -2.433474E+05 -2.192123E+04 -5.928134E+05 -3.775873E+03  5.240069E+01
       153   1 -1.420056E+06 -1.819565E+05  2.033465E+04 -5.499509E+05  4.958930E+03  1.399429E+02
       153   2 -1.415258E+06 -1.722511E+05  1.814764E+04 -5.416345E+05  1.056427E+04  1.836515E+03
       153   3 -1.405412E+06 -1.811837E+05  9.334806E+03 -5.415949E+05  1.612782E+04  3.644778E+03
       153   4 -1.517597E+06 -2.182203E+05 -6.200413E+03 -5.758999E+05  4.856535E+03  1.014961E+02
       153   5 -1.520593E+06 -2.122329E+05 -1.062994E+04 -5.705108E+05  1.048852E+04  1.808040E+03
       153   6 -1.518547E+06 -2.248898E+05 -2.170730E+04 -5.733983E+05  1.607863E+04  3.626242E+03
       153   7 -1.615129E+06 -2.544835E+05 -3.273622E+04 -6.018451E+05  4.754158E+03  6.305583E+01
       153   8 -1.625917E+06 -2.522139E+05 -3.940846E+04 -5.993826E+05  1.041278E+04  1.779571E+03
       153   9 -1.631669E+06 -2.685949E+05 -5.275057E+04 -6.051965E+05  1.602946E+04  3.607709E+03
       153  10 -1.420056E+06 -1.819565E+05  2.033461E+04 -5.499509E+05 -1.366903E-09  1.242147E-09
       153  11 -1.415258E+06 -1.722511E+05  1.814742E+04 -5.416346E+05  2.016537E-09  5.225626E-10
       153  12 -1.405412E+06 -1.811838E+05  9.334291E+03 -5.415949E+05  3.315191E-09  2.639720E-10
       153  13 -1.517597E+06 -2.182203E+05 -6.200458E+03 -5.758999E+05 -3.536387E-10  9.589652E-10
       153  14 -1.520593E+06 -2.122329E+05 -1.063016E+04 -5.705108E+05  2.407832E-09  9.939938E-10
       153  15 -1.518547E+06 -2.248899E+05 -2.170782E+04 -5.733984E+05  2.073158E-09  2.312306E-10
       153  16 -1.615129E+06 -2.544835E+05 -3.273627E+04 -6.018451E+05  1.791743E-09  6.291847E-10
       153  17 -1.625917E+06 -2.522139E+05 -3.940867E+04 -5.993826E+05 -1.516360E-09  7.761599E-10
       153  18 -1.631669E+06 -2.685950E+05 -5.275108E+04 -6.051966E+05  2.792590E-09  4.194643E-10
       153  19 -1.420056E+06 -1.819565E+05  2.033465E+04 -5.499509E+05 -4.958930E+03 -1.399429E+02
       153  20 -1.415258E+06 -1.722511E+05  1.814764E+04 -5.416345E+05 -1.056427E+04 -1.836515E+03
       153  21 -1.405412E+06 -1.811837E+05  9.334806E+03 -5.415949E+05 -1.612782E+04 -3.644778E+03
       153  22 -1.517597E+06 -2.182203E+05 -6.200413E+03 -5.758999E+05 -4.856535E+03 -1.014961E+02
       153  23 -1.520593E+06 -2.122329E+05 -1.062994E+04 -5.705108E+05 -1.048852E+04 -1.808040E+03
       153  24 -1.518547E+06 -2.248898E+05 -2.170730E+04 -5.733983E+05 -1.607863E+04 -3.626242E+03
       153  25 -1.615129E+06 -2.544835E+05 -3.273622E+04 -6.018451E+05 -4.754158E+03 -6.305583E+01
       153  26 -1.625917E+06 -2.522139E+05 -3.940846E+04 -5.993826E+05 -1.041278E+04 -1.779571E+03
       153  27 -1.631669E+06 -2.685949E+05 -5.275057E+04 -6.051965E+05 -1.602946E+04 -3.607709E+03
       154   1 -1.377319E+06 -1.660700E+05  1.131675E+04 -5.418652E+05  2.033629E+04  4.973629E+03
       154   2 -1.368129E+06 -1.467754E+05 -5.500913E+03 -5.311237E+05  4.459103E+04  1.374492E+04
       154   3 -1.380223E+06 -2.005914E+05 -5.843798E+04 -5.112219E+05  6.868031E+04  2.295775E+04
       154   4 -1.521523E+06 -2.166853E+05 -2.729282E+04 -5.771588E+05  2.020418E+04  4.924096E+03
       154   5 -1.514250E+06 -2.038376E+05 -4.573088E+04 -5.728256E+05  4.456220E+04  1.373387E+04
       154   6 -1.528286E+06 -2.641314E+05 -1.003771E+05 -5.593309E+05  6.875464E+04  2.298463E+04
       154   7 -1.665708E+06 -2.673001E+05 -6.590425E+04 -6.124454E+05  2.007210E+04  4.874575E+03
       154   8 -1.660350E+06 -2.608982E+05 -8.596285E+04 -6.145185E+05  4.453338E+04  1.372282E+04
       154   9 -1.676329E+06 -3.276684E+05 -1.423183E+05 -6.074289E+05  6.882896E+04  2.301150E+04
       154  10 -1.377319E+06 -1.660702E+05  1.131593E+04 -5.418652E+05  5.399750E-10  9.911221E-10
       154  11 -1.368131E+06 -1.467761E+05 -5.505015E+03 -5.311242E+05  1.874185E-10  2.218881E-09
       154  12 -1.380228E+06 -2.005932E+05 -5.844786E+04 -5.112232E+05  8.534940E-10 -9.557315E-10
       154  13 -1.521524E+06 -2.166854E+05 -2.729363E+04 -5.771589E+05  4.124024E-09  3.245909E-10
       154  14 -1.514252E+06 -2.038383E+05 -4.573498E+04 -5.728261E+05 -9.924722E-11  7.039943E-10
       154  15 -1.528292E+06 -2.641333E+05 -1.003870E+05 -5.593322E+05  3.722910E-09 -4.798936E-10
       154  16 -1.665708E+06 -2.673002E+05 -6.590506E+04 -6.124455E+05 -2.917895E-10  4.622287E-11
       154  17 -1.660352E+06 -2.608990E+05 -8.596694E+04 -6.145190E+05  1.424808E-09  3.281199E-11
       154  18 -1.676334E+06 -3.276702E+05 -1.423282E+05 -6.074301E+05  6.840495E-10  6.145732E-10
       154  19 -1.377319E+06 -1.660700E+05  1.131675E+04 -5.418652E+05 -2.033629E+04 -4.973629E+03
       154  20 -1.368129E+06 -1.467754E+05 -5.500913E+03 -5.311237E+05 -4.459103E+04 -1.374492E+04
       154  21 -1.380223E+06 -2.005914E+05 -5.843798E+04 -5.112219E+05 -6.868031E+04 -2.295775E+04
       154  22 -1.521523E+06 -2.166853E+05 -2.729282E+04 -5.771588E+05 -2.020418E+04 -4.924096E+03
       154  23 -1.514250E+06 -2.038376E+05 -4.573088E+04 -5.728256E+05 -4.456220E+04 -1.373387E+04
       154  24 -1.528286E+06 -2.641314E+05 -1.003771E+05 -5.593309E+05 -6.875464E+04 -2.298463E+04
       154  25 -1.665708E+06 -2.673001E+05 -6.590425E+04 -6.124454E+05 -2.007210E+04 -4.874575E+03
       154  26 -1.660350E+06 -2.608982E+05 -8.596285E+04 -6.145185E+05 -4.453338E+04 -1.372282E+04
       154  27 -1.676329E+06 -3.276684E+05 -1.423183E+05 -6.074289E+05 -6.882896E+04 -2.301150E+04
       155   1 -1.353862E+06 -1.633882E+05 -7.530325E+04 -5.647793E+05  8.765653E+04  2.953597E+04
       155   2 -1.311407E+06 -6.436762E+04 -1.468463E+05 -5.254616E+05  1.944618E+05  6.934638E+04
       155   3 -1.455512E+06 -4.362144E+05 -4.260275E+05 -3.682524E+05  3.002458E+05  1.118789E+05
       155   4 -1.544571E+06 -2.087152E+05 -1.220496E+05 -5.893145E+05  8.721654E+04  2.937500E+04
       155   5 -1.475154E+06 -1.409103E+05 -1.943735E+05 -5.851126E+05  1.946637E+05  6.941664E+04
       155   6 -1.592479E+06 -5.441834E+05 -4.748889E+05 -4.630022E+05  3.010945E+05  1.121647E+05
       155   7 -1.735244E+06 -2.540433E+05 -1.687981E+05 -6.138454E+05  8.677671E+04  2.921405E+04
       155   8 -1.638874E+06 -2.174468E+05 -2.419033E+05 -6.447479E+05  1.948656E+05  6.948687E+04
       155   9 -1.729420E+06 -6.521237E+05 -5.237510E+05 -5.577265E+05  3.019430E+05  1.124502E+05
       155  10 -1.353870E+06 -1.633912E+05 -7.531937E+04 -5.647813E+05  2.233691E-09 -2.524941E-09
       155  11 -1.311449E+06 -6.438297E+04 -1.469266E+05 -5.254725E+05  7.822916E-11 -1.267889E-09
       155  12 -1.455612E+06 -4.362522E+05 -4.262209E+05 -3.682795E+05 -6.681713E-10 -2.113692E-09
       155  13 -1.544579E+06 -2.087181E+05 -1.220656E+05 -5.893166E+05  1.415795E-09 -1.293432E-09
       155  14 -1.475196E+06 -1.409257E+05 -1.944540E+05 -5.851235E+05  5.782903E-10 -2.492343E-09
       155  15 -1.592580E+06 -5.442213E+05 -4.750834E+05 -4.630295E+05  1.686221E-09  3.176286E-09
       155  16 -1.735252E+06 -2.540462E+05 -1.688139E+05 -6.138475E+05 -1.470908E-10  2.439867E-09
       155  17 -1.638917E+06 -2.174623E+05 -2.419839E+05 -6.447588E+05  2.657745E-09  1.383325E-09
       155  18 -1.729521E+06 -6.521619E+05 -5.239467E+05 -5.577539E+05 -2.335195E-10 -3.591193E-10
       155  19 -1.353862E+06 -1.633882E+05 -7.530325E+04 -5.647793E+05 -8.765653E+04 -2.953597E+04
       155  20 -1.311407E+06 -6.436762E+04 -1.468463E+05 -5.254616E+05 -1.944618E+05 -6.934638E+04
       155  21 -1.455512E+06 -4.362144E+05 -4.260275E+05 -3.682524E+05 -3.002458E+05 -1.118789E+05
       155  22 -1.544571E+06 -2.087152E+05 -1.220496E+05 -5.893145E+05 -8.721654E+04 -2.937500E+04
       155  23 -1.475154E+06 -1.409103E+05 -1.943735E+05 -5.851126E+05 -1.946637E+05 -6.941664E+04
       155  24 -1.592479E+06 -5.441834E+05 -4.748889E+05 -4.630022E+05 -3.010945E+05 -1.121647E+05
       155  25 -1.735244E+06 -2.540433E+05 -1.687981E+05 -6.138454E+05 -8.677671E+04 -2.921405E+04
       155  26 -1.638874E+06 -2.174468E+05 -2.419033E+05 -6.447479E+05 -1.948656E+05 -6.948687E+04
       155  27 -1.729420E+06 -6.521237E+05 -5.237510E+05 -5.577265E+05 -3.019430E+05 -1.124502E+05
       156   1  2.668814E+05  2.119846E+06  2.557902E+05 -1.983629E+05  1.151239E+04  9.664107E+04
       156   2  2.047623E+05  1.970894E+06  1.701610E+05 -1.773927E+05  3.800656E+04  4.284003E+04
       156   3  1.631095E+05  1.834022E+06  1.246081E+05 -1.804538E+05  4.331774E+04 -1.097218E+04
       156   4  2.692759E+04  1.145512E+06  2.886062E+04 -1.792289E+05  1.164100E+04  1.739764E+04
       156   5  8.823830E+03  1.143448E+06  1.661597E+04 -1.672336E+05  3.806840E+04  8.980655E+03
       156   6  3.340190E+03  1.145601E+06  1.301074E+04 -1.792684E+05  4.330137E+04  5.390693E+02
       156   7 -2.130885E+05  1.720645E+05 -1.981094E+05 -1.601247E+05  1.176486E+04 -6.172262E+04
       156   8 -1.871529E+05  3.166662E+05 -1.369536E+05 -1.570880E+05  3.812918E+04 -2.483487E+04
       156   9 -1.564531E+05  4.576488E+05 -9.859926E+04 -1.780841E+05  4.328503E+04  1.203803E+04
       156  10  2.668787E+05  2.119836E+06  2.557724E+05 -1.983638E+05  4.111336E-10  4.651337E-09
       156  11  2.047603E+05  1.970891E+06  1.701548E+05 -1.773941E+05 -1.047497E-09 -2.016630E-09
       156  12  1.631075E+05  1.834021E+06  1.246043E+05 -1.804534E+05 -6.569676E-10 -7.021389E-09
       156  13  2.692736E+04  1.145511E+06  2.885980E+04 -1.792291E+05 -5.078919E-10  1.465092E-09
       156  14  8.822252E+03  1.143448E+06  1.661309E+04 -1.672339E+05  5.365427E-09  5.174408E-11
       156  15  3.338175E+03  1.145600E+06  1.300721E+04 -1.792684E+05  3.996352E-10  1.680745E-09
       156  16 -2.130897E+05  1.720604E+05 -1.981168E+05 -1.601241E+05  2.443962E-09 -5.487187E-09
       156  17 -1.871546E+05  3.166652E+05 -1.369575E+05 -1.570873E+05  2.855464E-09  6.209240E-10
       156  18 -1.564551E+05  4.576481E+05 -9.860306E+04 -1.780845E+05  4.422549E-10  4.800262E-09
       156  19  2.668814E+05  2.119846E+06  2.557902E+05 -1.983629E+05 -1.151239E+04 -9.664107E+04
       156  20  2.047623E+05  1.970894E+06  1.701610E+05 -1.773927E+05 -3.800656E+04 -4.284003E+04
       156  21  1.631095E+05  1.834022E+06  1.246081E+05 -1.804538E+05 -4.331774E+04  1.097218E+04
       156  22  2.692759E+04  1.145512E+06  2.886062E+04 -1.792289E+05 -1.164100E+04 -1.739764E+04
       156  23  8.823830E+03  1.143448E+06  1.661597E+04 -1.672336E+05 -3.806840E+04 -8.980655E+03
       156  24  3.340190E+03  1.145601E+06  1.301074E+04 -1.792684E+05 -4.330137E+04 -5.390693E+02
       156  25 -2.130885E+05  1.720645E+05 -1.981094E+05 -1.601247E+05 -1.176486E+04  6.172262E+04
       156  26 -1.871529E+05  3.166662E+05 -1.369536E+05 -1.570880E+05 -3.812918E+04  2.483487E+04
       156  27 -1.564531E+05  4.576488E+05 -9.859926E+04 -1.780841E+05 -4.328503E+04 -1.203803E+04
       157   1  1.412184E+05  1.742982E+06  1.075497E+05 -1.820117E+05  3.936549E+04 -1.324451E+04
       157   2  1.077095E+05  1.598827E+06  8.446450E+04 -1.660180E+05  3.278529E+04 -2.637161E+04
       157   3  8.038135E+04  1.457857E+06  7.143212E+04 -1.755247E+05  2.393203E+04 -3.950177E+04
       157   4  2.955462E+03  1.145200E+06  1.306124E+04 -1.795939E+05  3.934721E+04 -1.538837E+03
       157   5  3.307553E+03  1.144059E+06  1.647541E+04 -1.668384E+05  3.275587E+04 -9.796412E+03
       157   6  8.999488E+03  1.145238E+06  2.656907E+04 -1.795836E+05  2.389073E+04 -1.805982E+04
       157   7 -1.353251E+05  5.477740E+05 -8.143571E+04 -1.771784E+05  3.932901E+04  1.015600E+04
       157   8 -1.011040E+05  6.894981E+05 -5.151667E+04 -1.676580E+05  3.272639E+04  6.767159E+03
       157   9 -6.238650E+04  8.327188E+05 -1.829375E+04 -1.836403E+05  2.384913E+04  3.371818E+03
       157  10  1.412167E+05  1.742981E+06  1.075465E+05 -1.820113E+05  1.818342E-10  4.678329E-09
       157  11  1.077081E+05  1.598826E+06  8.446117E+04 -1.660173E+05 -7.515006E-10 -1.860387E-09
       157  12  8.038031E+04  1.457855E+06  7.142812E+04 -1.755239E+05 -6.968713E-10 -5.407899E-09
       157  13  2.953798E+03  1.145200E+06  1.305832E+04 -1.795939E+05  3.873851E-11  1.707519E-09
       157  14  3.306375E+03  1.144058E+06  1.647321E+04 -1.668381E+05  5.682604E-10  1.006888E-10
       157  15  8.998788E+03  1.145237E+06  2.656739E+04 -1.795832E+05 -1.852534E-09  1.993416E-09
       157  16 -1.353268E+05  5.477735E+05 -8.143881E+04 -1.771787E+05  1.732322E-09 -5.552132E-09
       157  17 -1.011051E+05  6.894977E+05 -5.151877E+04 -1.676582E+05  2.038719E-09  4.233604E-11
       157  18 -6.238711E+04  8.327187E+05 -1.829484E+04 -1.836404E+05 -7.485109E-10  2.487837E-09
       157  19  1.412184E+05  1.742982E+06  1.075497E+05 -1.820117E+05 -3.936549E+04  1.324451E+04
       157  20  1.077095E+05  1.598827E+06  8.446450E+04 -1.660180E+05 -3.278529E+04  2.637161E+04
       157  21  8.038135E+04  1.457857E+06  7.143212E+04 -1.755247E+05 -2.393203E+04  3.950177E+04
       157  22  2.955462E+03  1.145200E+06  1.306124E+04 -1.795939E+05 -3.934721E+04  1.538837E+03
       157  23  3.307553E+03  1.144059E+06  1.647541E+04 -1.668384E+05 -3.275587E+04  9.796412E+03
       157  24  8.999488E+03  1.145238E+06  2.656907E+04 -1.795836E+05 -2.389073E+04  1.805982E+04
       157  25 -1.353251E+05  5.477740E+05 -8.143571E+04 -1.771784E+05 -3.932901E+04 -1.015600E+04
       157  26 -1.011040E+05  6.894981E+05 -5.151667E+04 -1.676580E+05 -3.272639E+04 -6.767159E+03
       157  27 -6.238650E+04  8.327188E+05 -1.829375E+04 -1.836403E+05 -2.384913E+04 -3.371818E+03
       158   1  6.198496E+04  1.371729E+06  6.536118E+04 -1.794066E+05  1.793283E+04 -4.406172E+04
       158   2  5.442781E+04  1.221143E+06  6.988409E+04 -1.284769E+05  8.939087E+03 -7.156249E+04
       158   3  9.898603E+04  1.087080E+06  1.052911E+05 -1.030032E+05  1.890315E+03 -9.905480E+04
       158   4  1.123835E+04  1.148559E+06  3.446317E+04 -1.795872E+05  1.789025E+04 -2.262338E+04
       158   5  3.678529E+04  1.139927E+06  6.187482E+04 -1.667662E+05  8.908759E+03 -5.429237E+04
       158   6  1.151657E+05  1.148507E+06  1.230559E+05 -1.793928E+05  1.875718E+03 -8.595847E+04
       158   7 -3.951021E+04  9.254396E+05  3.566285E+03 -1.797676E+05  1.784765E+04 -1.192385E+03
       158   8  1.914824E+04  1.058721E+06  5.386757E+04 -2.050502E+05  8.876301E+03 -3.702437E+04
       158   9  1.313670E+05  1.209951E+06  1.408242E+05 -2.557900E+05  1.857903E+03 -7.286082E+04
       158  10  6.198410E+04  1.371727E+06  6.535694E+04 -1.794060E+05 -8.960451E-10  8.564595E-09
       158  11  5.442635E+04  1.221137E+06  6.987433E+04 -1.284764E+05  3.594456E-09 -3.643239E-10
       158  12  9.898340E+04  1.087069E+06  1.052727E+05 -1.030030E+05  2.003824E-09 -6.745237E-09
       158  13  1.123787E+04  1.148558E+06  3.446160E+04 -1.795868E+05 -2.411598E-09  2.093863E-09
       158  14  3.678442E+04  1.139924E+06  6.186914E+04 -1.667658E+05  2.937732E-09  1.026483E-10
       158  15  1.151637E+05  1.148499E+06  1.230421E+05 -1.793927E+05  2.395821E-09  2.188774E-09
       158  16 -3.951055E+04  9.254395E+05  3.565683E+03 -1.797676E+05 -7.980484E-10 -9.514935E-09
       158  17  1.914779E+04  1.058720E+06  5.386486E+04 -2.050500E+05 -3.350728E-09 -1.388903E-09
       158  18  1.313656E+05  1.209945E+06  1.408142E+05 -2.557898E+05 -6.406945E-10  3.899429E-09
       158  19  6.198496E+04  1.371729E+06  6.536118E+04 -1.794066E+05 -1.793283E+04  4.406172E+04
       158  20  5.442781E+04  1.221143E+06  6.988409E+04 -1.284769E+05 -8.939087E+03  7.156249E+04
       158  21  9.898603E+04  1.087080E+06  1.052911E+05 -1.030032E+05 -1.890315E+03  9.905480E+04
       158  22  1.123835E+04  1.148559E+06  3.446317E+04 -1.795872E+05 -1.789025E+04  2.262338E+04
       158  23  3.678529E+04  1.139927E+06  6.187482E+04 -1.667662E+05 -8.908759E+03  5.429237E+04
       158  24  1.151657E+05  1.148507E+06  1.230559E+05 -1.793928E+05 -1.875718E+03  8.595847E+04
       158  25 -3.951021E+04  9.254396E+05  3.566285E+03 -1.797676E+05 -1.784765E+04  1.192385E+03
       158  26  1.914824E+04  1.058721E+06  5.386757E+04 -2.050502E+05 -8.876301E+03  3.702437E+04
       158  27  1.313670E+05  1.209951E+06  1.408242E+05 -2.557900E+05 -1.857903E+03  7.286082E+04
       159   1  8.935116E+05  3.641833E+04  1.431206E+05  9.312349E+03  3.092641E+05  9.470482E+03
       159   2  9.124573E+05 -3.732047E+05 -9.610164E+04  2.950058E+04  2.061756E+05  2.347246E+04
       159   3  1.075132E+06 -2.895465E+05 -1.434972E+05 -8.006363E+04  1.031458E+05  1.853272E+04
       159   4  2.180000E+06  3.564342E+05  4.626488E+05 -4.975966E+04  3.160456E+05  9.470966E+03
       159   5  2.107985E+06 -7.571273E+04  1.983417E+05  1.598423E+04  2.077488E+05  2.346978E+04
       159   6  2.180318E+06 -1.419047E+04  1.291891E+05 -4.800566E+04  9.952641E+04  1.852780E+04
       159   7  3.467994E+06  6.763403E+05  7.820560E+05 -1.089557E+05  3.228406E+05  9.470185E+03
       159   8  3.304810E+06  2.216739E+05  4.926800E+05  2.440669E+03  2.093247E+05  2.346704E+04
       159   9  3.286614E+06  2.610784E+05  4.017856E+05 -1.589122E+04  9.590047E+04  1.852250E+04
       159  10  8.934090E+05  3.639260E+04  1.429409E+05  9.309992E+03  9.881790E-10 -7.242900E-12
       159  11  9.124116E+05 -3.732166E+05 -9.618243E+04  2.949668E+04 -1.100821E-09 -8.821380E-12
       159  12  1.075121E+06 -2.895497E+05 -1.435178E+05 -8.006517E+04  9.972147E-10  1.963427E-10
       159  13  2.179893E+06  3.564074E+05  4.624616E+05 -4.976207E+04  5.816884E-10 -1.580453E-10
       159  14  2.107939E+06 -7.572486E+04  1.982599E+05  1.598030E+04  4.089693E-11 -3.448510E-10
       159  15  2.180308E+06 -1.419349E+04  1.291699E+05 -4.800715E+04  1.540262E-11 -2.330683E-10
       159  16  3.467883E+06  6.763124E+05  7.818610E+05 -1.089582E+05  1.822253E-09 -1.986906E-11
       159  17  3.304763E+06  2.216616E+05  4.925970E+05  2.436719E+03 -4.460778E-10 -3.712476E-10
       159  18  3.286604E+06  2.610755E+05  4.017677E+05 -1.589265E+04 -1.576372E-09  7.296858E-11
       159  19  8.935116E+05  3.641833E+04  1.431206E+05  9.312349E+03 -3.092641E+05 -9.470482E+03
       159  20  9.124573E+05 -3.732047E+05 -9.610164E+04  2.950058E+04 -2.061756E+05 -2.347246E+04
       159  21  1.075132E+06 -2.895465E+05 -1.434972E+05 -8.006363E+04 -1.031458E+05 -1.853272E+04
       159  22  2.180000E+06  3.564342E+05  4.626488E+05 -4.975966E+04 -3.160456E+05 -9.470966E+03
       159  23  2.107985E+06 -7.571273E+04  1.983417E+05  1.598423E+04 -2.077488E+05 -2.346978E+04
       159  24  2.180318E+06 -1.419047E+04  1.291891E+05 -4.800566E+04 -9.952641E+04 -1.852780E+04
       159  25  3.467994E+06  6.763403E+05  7.820560E+05 -1.089557E+05 -3.228406E+05 -9.470185E+03
       159  26  3.304810E+06  2.216739E+05  4.926800E+05  2.440669E+03 -2.093247E+05 -2.346704E+04
       159  27  3.286614E+06  2.610784E+05  4.017856E+05 -1.589122E+04 -9.590047E+04 -1.852250E+04
       160   1  1.311982E+06 -1.601299E+05 -1.012131E+05 -3.440584E+04  7.818013E+04  1.383087E+04
       160   2  1.370061E+06 -2.027981E+05 -1.387324E+05  9.385851E+03  5.182539E+04  1.338860E+04
       160   3  1.451366E+06 -1.766632E+05 -1.413859E+05 -4.587615E+04  2.546514E+04  1.089450E+04
       160   4  2.153492E+06  4.934719E+04  1.063986E+05 -4.176477E+04  7.841590E+04  1.382901E+04
       160   5  2.141869E+06 -1.067465E+04  5.155273E+04  7.794800E+03  5.148592E+04  1.338714E+04
       160   6  2.153540E+06 -1.840024E+03  3.193777E+04 -4.169103E+04  2.455338E+04  1.089409E+04
       160   7  2.995644E+06  2.587719E+05  3.139579E+05 -4.913388E+04  7.865193E+04  1.382716E+04
       160   8  2.914217E+06  1.814045E+05  2.417938E+05  6.201676E+03  5.114600E+04  1.338569E+04
       160   9  2.856161E+06  1.729465E+05  2.052250E+05 -3.750115E+04  2.364058E+04  1.089367E+04
       160  10  1.311976E+06 -1.601318E+05 -1.012249E+05 -3.440672E+04  2.685292E-09 -1.002327E-10
       160  11  1.370058E+06 -2.027990E+05 -1.387377E+05  9.385292E+03 -4.762635E-10 -1.274430E-10
       160  12  1.451365E+06 -1.766635E+05 -1.413874E+05 -4.587637E+04 -9.106403E-10 -3.407828E-10
       160  13  2.153486E+06  4.934534E+04  1.063867E+05 -4.176564E+04 -1.224827E-09  5.251299E-11
       160  14  2.141866E+06 -1.067555E+04  5.154743E+04  7.794246E+03  2.848118E-10  2.530111E-10
       160  15  2.153539E+06 -1.840313E+03  3.193642E+04 -4.169125E+04  8.829992E-10 -4.509367E-10
       160  16  2.995637E+06  2.587700E+05  3.139460E+05 -4.913476E+04 -2.389127E-09  4.517883E-10
       160  17  2.914214E+06  1.814036E+05  2.417886E+05  6.201125E+03  4.442116E-11  6.519228E-10
       160  18  2.856160E+06  1.729462E+05  2.052238E+05 -3.750136E+04  1.956486E-09 -3.410752E-10
       160  19  1.311982E+06 -1.601299E+05 -1.012131E+05 -3.440584E+04 -7.818013E+04 -1.383087E+04
       160  20  1.370061E+06 -2.027981E+05 -1.387324E+05  9.385851E+03 -5.182539E+04 -1.338860E+04
       160  21  1.451366E+06 -1.766632E+05 -1.413859E+05 -4.587615E+04 -2.546514E+04 -1.089450E+04
       160  22  2.153492E+06  4.934719E+04  1.063986E+05 -4.176477E+04 -7.841590E+04 -1.382901E+04
       160  23  2.141869E+06 -1.067465E+04  5.155273E+04  7.794800E+03 -5.148592E+04 -1.338714E+04
       160  24  2.153540E+06 -1.840024E+03  3.193777E+04 -4.169103E+04 -2.455338E+04 -1.089409E+04
       160  25  2.995644E+06  2.587719E+05  3.139579E+05 -4.913388E+04 -7.865193E+04 -1.382716E+04
       160  26  2.914217E+06  1.814045E+05  2.417938E+05  6.201676E+03 -5.114600E+04 -1.338569E+04
       160  27  2.856161E+06  1.729465E+05  2.052250E+05 -3.750115E+04 -2.364058E+04 -1.089367E+04
       161   1  1.657127E+06 -1.157161E+05 -9.582125E+04 -3.651978E+04  1.985714E+04  9.245710E+03
       161   2  1.712362E+06 -1.097796E+05 -9.386832E+04  3.398670E+03  1.305362E+04  7.366747E+03
       161   3  1.771459E+06 -9.415634E+04 -8.496099E+04 -3.790652E+04  6.246704E+03  5.436129E+03
       161   4  2.149293E+06  6.752628E+03  2.537225E+04 -3.774649E+04  1.937585E+04  9.245503E+03
       161   5  2.147364E+06 -1.511356E+03  1.338363E+04  2.861313E+03  1.255378E+04  7.366948E+03
       161   6  2.149296E+06 -8.872654E+01  8.358656E+03 -3.775093E+04  5.728955E+03  5.436751E+03
       161   7  2.641679E+06  1.292034E+05  1.465479E+05 -3.897414E+04  1.889418E+04  9.245299E+03
       161   8  2.582538E+06  1.067428E+05  1.206216E+05  2.323624E+03  1.205360E+04  7.367150E+03
       161   9  2.527262E+06  9.396826E+04  1.016677E+05 -3.759519E+04  5.210891E+03  5.437372E+03
       161  10  1.657126E+06 -1.157163E+05 -9.582215E+04 -3.651993E+04 -6.349081E-10  1.505296E-10
       161  11  1.712362E+06 -1.097797E+05 -9.386874E+04  3.398593E+03 -1.242486E-09  3.153514E-10
       161  12  1.771459E+06 -9.415638E+04 -8.496112E+04 -3.790655E+04  1.115445E-09 -3.471968E-10
       161  13  2.149292E+06  6.752436E+03  2.537138E+04 -3.774664E+04 -1.488500E-11 -3.340442E-10
       161  14  2.147364E+06 -1.511457E+03  1.338323E+04  2.861238E+03 -4.017166E-10  1.977809E-10
       161  15  2.149296E+06 -8.876709E+01  8.358539E+03 -3.775096E+04  8.242188E-10 -5.060076E-10
       161  16  2.641678E+06  1.292032E+05  1.465471E+05 -3.897428E+04  5.384647E-10 -7.093960E-10
       161  17  2.582538E+06  1.067427E+05  1.206212E+05  2.323553E+03  1.911877E-09  3.857349E-10
       161  18  2.527262E+06  9.396822E+04  1.016676E+05 -3.759522E+04 -8.008106E-10 -6.944331E-10
       161  19  1.657127E+06 -1.157161E+05 -9.582125E+04 -3.651978E+04 -1.985714E+04 -9.245710E+03
       161  20  1.712362E+06 -1.097796E+05 -9.386832E+04  3.398670E+03 -1.305362E+04 -7.366747E+03
       161  21  1.771459E+06 -9.415634E+04 -8.496099E+04 -3.790652E+04 -6.246704E+03 -5.436129E+03
       161  22  2.149293E+06  6.752628E+03  2.537225E+04 -3.774649E+04 -1.937585E+04 -9.245503E+03
       161  23  2.147364E+06 -1.511356E+03  1.338363E+04  2.861313E+03 -1.255378E+04 -7.366948E+03
       161  24  2.149296E+06 -8.872654E+01  8.358656E+03 -3.775093E+04 -5.728955E+03 -5.436751E+03
       161  25  2.641679E+06  1.292034E+05  1.465479E+05 -3.897414E+04 -1.889418E+04 -9.245299E+03
       161  26  2.582538E+06  1.067428E+05  1.206216E+05  2.323624E+03 -1.205360E+04 -7.367150E+03
       161  27  2.527262E+06  9.396826E+04  1.016677E+05 -3.759519E+04 -5.210891E+03 -5.437372E+03
       162   1  1.950189E+06 -4.835571E+04 -4.201765E+04 -3.546920E+04  4.851814E+03  4.318159E+03
       162   2  2.001101E+06 -3.688175E+04 -3.188936E+04  7.075181E+02  2.624141E+03  2.483221E+03
       162   3  2.052481E+06 -2.367463E+04 -1.993473E+04 -3.578975E+04  3.954605E+02  7.044915E+02
       162   4  2.148574E+06  9.810749E+02  6.723196E+03 -3.584879E+04  4.358613E+03  4.318949E+03
       162   5  2.148343E+06 -2.405062E+02  4.409237E+03  4.870471E+02  2.145189E+03  2.484103E+03
       162   6  2.148573E+06  2.683383E+02  3.911291E+03 -3.585002E+04 -6.906111E+01  7.054672E+02
       162   7  2.346995E+06  5.031495E+04  5.546115E+04 -3.622847E+04  3.865255E+03  4.319738E+03
       162   8  2.295604E+06  3.639913E+04  4.070623E+04  2.665333E+02  1.666124E+03  2.484984E+03
       162   9  2.244673E+06  2.421062E+04  2.775662E+04 -3.591030E+04 -5.336543E+02  7.064429E+02
       162  10  1.950189E+06 -4.835574E+04 -4.201773E+04 -3.546922E+04 -6.908470E-11 -3.475393E-10
       162  11  2.001101E+06 -3.688176E+04 -3.188938E+04  7.075128E+02 -8.982388E-10  9.883949E-10
       162  12  2.052481E+06 -2.367463E+04 -1.993473E+04 -3.578975E+04  4.142292E-10 -5.430276E-10
       162  13  2.148574E+06  9.810498E+02  6.723125E+03 -3.584880E+04  1.642585E-10 -1.951654E-10
       162  14  2.148343E+06 -2.405141E+02  4.409217E+03  4.870428E+02 -2.536100E-09  1.555264E-09
       162  15  2.148573E+06  2.683378E+02  3.911290E+03 -3.585002E+04  6.306691E-10  2.044640E-10
       162  16  2.346995E+06  5.031492E+04  5.546109E+04 -3.622849E+04 -4.245106E-10 -2.291963E-10
       162  17  2.295604E+06  3.639912E+04  4.070622E+04  2.665300E+02  5.862345E-10  7.156405E-10
       162  18  2.244673E+06  2.421062E+04  2.775662E+04 -3.591030E+04  1.183203E-10 -4.443876E-10
       162  19  1.950189E+06 -4.835571E+04 -4.201765E+04 -3.546920E+04 -4.851814E+03 -4.318159E+03
       162  20  2.001101E+06 -3.688175E+04 -3.188936E+04  7.075181E+02 -2.624141E+03 -2.483221E+03
       162  21  2.052481E+06 -2.367463E+04 -1.993473E+04 -3.578975E+04 -3.954605E+02 -7.044915E+02
       162  22  2.148574E+06  9.810749E+02  6.723196E+03 -3.584879E+04 -4.358613E+03 -4.318949E+03
       162  23  2.148343E+06 -2.405062E+02  4.409237E+03  4.870471E+02 -2.145189E+03 -2.484103E+03
       162  24  2.148573E+06  2.683383E+02  3.911291E+03 -3.585002E+04  6.906111E+01 -7.054672E+02
       162  25  2.346995E+06  5.031495E+04  5.546115E+04 -3.622847E+04 -3.865255E+03 -4.319738E+03
       162  26  2.295604E+06  3.639913E+04  4.070623E+04  2.665333E+02 -1.666124E+03 -2.484984E+03
       162  27  2.244673E+06  2.421062E+04  2.775662E+04 -3.591030E+04  5.336543E+02 -7.064429E+02
       163   1  2.221627E+06  1.841570E+04  2.221076E+04 -3.576924E+04 -3.278180E+02 -3.127829E+02
       163   2  2.272259E+06  3.054380E+04  3.575171E+04  1.991346E+02 -2.929454E+03 -2.089146E+03
       163   3  2.323466E+06  4.476872E+04  5.144534E+04 -3.615954E+04 -5.530634E+03 -3.908388E+03
       163   4  2.148600E+06  2.139465E+02  4.051871E+03 -3.577364E+04 -7.937062E+02 -3.117963E+02
       163   5  2.148312E+06 -2.957081E+02  5.200722E+03  3.913136E+02 -3.406274E+03 -2.088241E+03
       163   6  2.148599E+06  1.293802E+03  8.510347E+03 -3.577166E+04 -6.018175E+03 -3.907562E+03
       163   7  2.075576E+06 -1.798821E+04 -1.410741E+04 -3.577804E+04 -1.259540E+03 -3.108096E+02
       163   8  2.024378E+06 -3.113635E+04 -2.535140E+04  5.834610E+02 -3.883000E+03 -2.087337E+03
       163   9  1.973759E+06 -4.218338E+04 -3.442689E+04 -3.538388E+04 -6.505580E+03 -3.906737E+03
       163  10  2.221627E+06  1.841570E+04  2.221076E+04 -3.576924E+04 -3.985365E-11 -8.332154E-10
       163  11  2.272259E+06  3.054379E+04  3.575169E+04  1.991297E+02 -1.279502E-09  3.817579E-10
       163  12  2.323466E+06  4.476870E+04  5.144525E+04 -3.615956E+04 -6.855849E-11  2.954949E-10
       163  13  2.148600E+06  2.139462E+02  4.051870E+03 -3.577364E+04 -2.282309E-10  7.243763E-11
       163  14  2.148312E+06 -2.957159E+02  5.200692E+03  3.913078E+02 -9.164523E-10  5.208779E-10
       163  15  2.148599E+06  1.293776E+03  8.510250E+03 -3.577168E+04  1.173927E-09  4.305720E-10
       163  16  2.075576E+06 -1.798821E+04 -1.410742E+04 -3.577804E+04  1.293874E-10 -4.800242E-10
       163  17  2.024378E+06 -3.113636E+04 -2.535144E+04  5.834545E+02  2.956118E-10 -1.272110E-10
       163  18  1.973759E+06 -4.218341E+04 -3.442700E+04 -3.538390E+04  1.753627E-09 -1.175096E-09
       163  19  2.221627E+06  1.841570E+04  2.221076E+04 -3.576924E+04  3.278180E+02  3.127829E+02
       163  20  2.272259E+06  3.054380E+04  3.575171E+04  1.991346E+02  2.929454E+03  2.089146E+03
       163  21  2.323466E+06  4.476872E+04  5.144534E+04 -3.615954E+04  5.530634E+03  3.908388E+03
       163  22  2.148600E+06  2.139465E+02  4.051871E+03 -3.577364E+04  7.937062E+02  3.117963E+02
       163  23  2.148312E+06 -2.957081E+02  5.200722E+03  3.913136E+02  3.406274E+03  2.088241E+03
       163  24  2.148599E+06  1.293802E+03  8.510347E+03 -3.577166E+04  6.018175E+03  3.907562E+03
       163  25  2.075576E+06 -1.798821E+04 -1.410741E+04 -3.577804E+04  1.259540E+03  3.108096E+02
       163  26  2.024378E+06 -3.113635E+04 -2.535140E+04  5.834610E+02  3.883000E+03  2.087337E+03
       163  27  1.973759E+06 -4.218338E+04 -3.442689E+04 -3.538388E+04  6.505580E+03  3.906737E+03
       164   1  2.502276E+06  8.761617E+04  9.782830E+04 -3.714713E+04 -7.250064E+03 -5.014200E+03
       164   2  2.556322E+06  9.982211E+04  1.183496E+05  1.953860E+03 -1.619470E+04 -6.922037E+03
       164   3  2.615162E+06  1.247787E+05  1.479520E+05 -3.910687E+04 -2.513737E+04 -8.773413E+03
       164   4  2.149506E+06 -1.729708E+02  1.072871E+04 -3.751747E+04 -7.763284E+03 -5.013514E+03
       164   5  2.147107E+06 -1.976727E+03  1.750706E+04  2.568596E+03 -1.668777E+04 -6.921755E+03
       164   6  2.149498E+06  8.971771E+03  3.335742E+04 -3.751027E+04 -2.560949E+04 -8.773535E+03
       164   7  1.796849E+06 -8.797137E+04 -7.638009E+04 -3.788754E+04 -8.276212E+03 -5.012827E+03
       164   8  1.738042E+06 -1.037880E+05 -8.334787E+04  3.182971E+03 -1.718051E+04 -6.921474E+03
       164   9  1.684030E+06 -1.068512E+05 -8.125315E+04 -3.591483E+04 -2.608125E+04 -8.773660E+03
       164  10  2.502276E+06  8.761613E+04  9.782816E+04 -3.714716E+04 -3.612007E-10 -1.572535E-10
       164  11  2.556322E+06  9.982198E+04  1.183491E+05  1.953770E+03 -1.342411E-09 -2.595341E-10
       164  12  2.615161E+06  1.247784E+05  1.479507E+05 -3.910705E+04  7.579004E-10 -6.293724E-10
       164  13  2.149506E+06 -1.730139E+02  1.072855E+04 -3.751750E+04  1.237225E-09 -7.837308E-10
       164  14  2.147106E+06 -1.976853E+03  1.750645E+04  2.568503E+03  1.961456E-09 -8.619697E-10
       164  15  2.149497E+06  8.971513E+03  3.335605E+04 -3.751045E+04  1.739571E-09 -5.066441E-10
       164  16  1.796849E+06 -8.797142E+04 -7.638027E+04 -3.788758E+04  1.330210E-10 -8.773759E-10
       164  17  1.738042E+06 -1.037881E+05 -8.334851E+04  3.182875E+03 -1.400787E-10 -4.556802E-11
       164  18  1.684030E+06 -1.068514E+05 -8.125457E+04 -3.591501E+04  1.342348E-09 -4.460621E-11
       164  19  2.502276E+06  8.761617E+04  9.782830E+04 -3.714713E+04  7.250064E+03  5.014200E+03
       164  20  2.556322E+06  9.982211E+04  1.183496E+05  1.953860E+03  1.619470E+04  6.922037E+03
       164  21  2.615162E+06  1.247787E+05  1.479520E+05 -3.910687E+04  2.513737E+04  8.773413E+03
       164  22  2.149506E+06 -1.729708E+02  1.072871E+04 -3.751747E+04  7.763284E+03  5.013514E+03
       164  23  2.147107E+06 -1.976727E+03  1.750706E+04  2.568596E+03  1.668777E+04  6.921755E+03
       164  24  2.149498E+06  8.971771E+03  3.335742E+04 -3.751027E+04  2.560949E+04  8.773535E+03
       164  25  1.796849E+06 -8.797137E+04 -7.638009E+04 -3.788754E+04  8.276212E+03  5.012827E+03
       164  26  1.738042E+06 -1.037880E+05 -8.334787E+04  3.182971E+03  1.718051E+04  6.921474E+03
       164  27  1.684030E+06 -1.068512E+05 -8.125315E+04 -3.591483E+04  2.608125E+04  8.773660E+03
       165   1  2.827376E+06  1.648338E+05  2.078310E+05 -3.575730E+04 -3.151997E+04 -1.038935E+04
       165   2  2.880906E+06  1.702095E+05  2.504583E+05  4.900153E+03 -6.758153E+04 -1.284173E+04
       165   3  2.964163E+06  2.664807E+05  3.396815E+05 -5.157872E+04 -1.036452E+05 -1.331624E+04
       165   4  2.154962E+06 -2.439336E+03  4.198700E+04 -4.126668E+04 -3.240911E+04 -1.038944E+04
       165   5  2.140097E+06 -1.402996E+04  6.798359E+04  7.263417E+03 -6.790934E+04 -1.284315E+04
       165   6  2.154891E+06  6.523633E+04  1.402279E+05 -4.134905E+04 -1.034077E+05 -1.331885E+04
       165   7  1.482957E+06 -1.697460E+05 -1.238904E+05 -4.677005E+04 -3.329727E+04 -1.038952E+04
       165   8  1.399785E+06 -1.983101E+05 -1.145316E+05  9.623802E+03 -6.823671E+04 -1.284458E+04
       165   9  1.346212E+06 -1.360562E+05 -5.927393E+04 -3.113285E+04 -1.031704E+05 -1.332144E+04
       165  10  2.827375E+06  1.648334E+05  2.078289E+05 -3.575757E+04  9.738237E-10 -3.107736E-10
       165  11  2.880901E+06  1.702081E+05  2.504495E+05  4.899455E+03 -2.019166E-10  2.592762E-10
       165  12  2.964152E+06  2.664776E+05  3.396611E+05 -5.157983E+04 -5.896818E-10  7.084395E-10
       165  13  2.154961E+06 -2.439733E+03  4.198483E+04 -4.126695E+04 -1.586528E-10 -3.997484E-10
       165  14  2.140092E+06 -1.403137E+04  6.797464E+04  7.262715E+03  1.669972E-09  4.958143E-11
       165  15  2.154880E+06  6.523328E+04  1.402076E+05 -4.135016E+04 -1.420832E-09  4.328065E-10
       165  16  1.482956E+06 -1.697464E+05 -1.238926E+05 -4.677033E+04  2.658163E-11 -1.574996E-10
       165  17  1.399780E+06 -1.983115E+05 -1.145406E+05  9.623096E+03  4.015816E-10 -5.392393E-10
       165  18  1.346201E+06 -1.360592E+05 -5.929422E+04 -3.113395E+04 -2.777646E-09  2.120972E-10
       165  19  2.827376E+06  1.648338E+05  2.078310E+05 -3.575730E+04  3.151997E+04  1.038935E+04
       165  20  2.880906E+06  1.702095E+05  2.504583E+05  4.900153E+03  6.758153E+04  1.284173E+04
       165  21  2.964163E+06  2.664807E+05  3.396815E+05 -5.157872E+04  1.036452E+05  1.331624E+04
       165  22  2.154962E+06 -2.439336E+03  4.198700E+04 -4.126668E+04  3.240911E+04  1.038944E+04
       165  23  2.140097E+06 -1.402996E+04  6.798359E+04  7.263417E+03  6.790934E+04  1.284315E+04
       165  24  2.154891E+06  6.523633E+04  1.402279E+05 -4.134905E+04  1.034077E+05  1.331885E+04
       165  25  1.482957E+06 -1.697460E+05 -1.238904E+05 -4.677005E+04  3.329727E+04  1.038952E+04
       165  26  1.399785E+06 -1.983101E+05 -1.145316E+05  9.623802E+03  6.823671E+04  1.284458E+04
       165  27  1.346212E+06 -1.360562E+05 -5.927393E+04 -3.113285E+04  1.031704E+05  1.332144E+04
       166   1  3.257474E+06  2.470380E+05  4.332480E+05 -5.816781E+03 -1.277228E+05 -1.790451E+04
       166   2  3.252096E+06  1.875843E+05  5.460005E+05 -4.039280E+03 -2.754969E+05 -2.284596E+04
       166   3  3.434829E+06  7.791265E+05  9.186629E+05 -1.295112E+05 -4.233578E+05 -9.530409E+03
       166   4  2.189949E+06 -1.862258E+04  1.701962E+05 -4.733831E+04 -1.312119E+05 -1.790497E+04
       166   5  2.095955E+06 -9.966852E+04  2.616717E+05  1.521171E+04 -2.739188E+05 -2.285311E+04
       166   6  2.189525E+06  4.700361E+05  6.098963E+05 -4.948644E+04 -4.166904E+05 -9.558133E+03
       166   7  1.123457E+06 -2.843615E+05 -9.293874E+04 -8.878913E+04 -1.346948E+05 -1.790496E+04
       166   8  9.410241E+05 -3.870188E+05 -2.275513E+04  3.442594E+04 -2.723433E+05 -2.286018E+04
       166   9  9.456365E+05  1.608551E+05  3.010182E+05  3.037696E+04 -4.100356E+05 -9.584215E+03
       166  10  3.257456E+06  2.470333E+05  4.332169E+05 -5.818620E+03  1.503568E-09  1.129452E-09
       166  11  3.252015E+06  1.875635E+05  5.458577E+05 -4.044340E+03  1.991736E-09  6.291403E-11
       166  12  3.434638E+06  7.790786E+05  9.183278E+05 -1.295144E+05 -1.422812E-09 -1.082697E-09
       166  13  2.189930E+06 -1.862753E+04  1.701633E+05 -4.734020E+04 -1.791322E-11  6.452365E-10
       166  14  2.095874E+06 -9.968913E+04  2.615302E+05  1.520667E+04 -5.623132E-10 -6.127418E-10
       166  15  2.189339E+06  4.699896E+05  6.095709E+05 -4.948964E+04 -1.317562E-09 -3.614203E-11
       166  16  1.123438E+06 -2.843667E+05 -9.297338E+04 -8.879108E+04  1.116168E-09  4.743048E-10
       166  17  9.409445E+05 -3.870393E+05 -2.289525E+04  3.442093E+04 -1.595625E-09  1.232323E-09
       166  18  9.454562E+05  1.608099E+05  3.007025E+05  3.037380E+04 -2.156176E-09  4.319681E-12
       166  19  3.257474E+06  2.470380E+05  4.332480E+05 -5.816781E+03  1.277228E+05  1.790451E+04
       166  20  3.252096E+06  1.875843E+05  5.460005E+05 -4.039280E+03  2.754969E+05  2.284596E+04
       166  21  3.434829E+06  7.791265E+05  9.186629E+05 -1.295112E+05  4.233578E+05  9.530409E+03
       166  22  2.189949E+06 -1.862258E+04  1.701962E+05 -4.733831E+04  1.312119E+05  1.790497E+04
       166  23  2.095955E+06 -9.966852E+04  2.616717E+05  1.521171E+04  2.739188E+05  2.285311E+04
       166  24  2.189525E+06  4.700361E+05  6.098963E+05 -4.948644E+04  4.166904E+05  9.558133E+03
       166  25  1.123457E+06 -2.843615E+05 -9.293874E+04 -8.878913E+04  1.346948E+05  1.790496E+04
       166  26  9.410241E+05 -3.870188E+05 -2.275513E+04  3.442594E+04  2.723433E+05  2.286018E+04
       166  27  9.456365E+05  1.608551E+05  3.010182E+05  3.037696E+04  4.100356E+05  9.584215E+03
       167   1 -5.262783E+04 -1.007163E+05 -2.779360E+04 -2.194434E+03 -3.708509E+03  6.889233E+04
       167   2 -1.468180E+05 -9.764264E+04 -8.187545E+04 -5.780548E+03 -1.002799E+04  4.576396E+04
       167   3 -1.275131E+05 -6.176203E+04 -9.225177E+04  1.843602E+04 -8.581598E+03  2.267310E+04
       167   4  8.172461E+04  4.379706E+05  1.062406E+05  1.035170E+04 -3.721171E+03  7.165990E+04
       167   5 -1.744620E+04  4.214060E+05  4.617063E+04 -3.766267E+03 -1.003043E+04  4.646237E+04
       167   6 -2.813563E+03  4.379808E+05  3.121583E+04  9.916693E+03 -8.575883E+03  2.130314E+04
       167   7  2.160559E+05  9.769211E+05  2.402532E+05  2.290907E+04 -3.733717E+03  7.442985E+04
       167   8  1.119055E+05  9.406995E+05  1.741968E+05 -1.750015E+03 -1.003286E+04  4.716135E+04
       167   9  1.218675E+05  9.379508E+05  1.546649E+05  1.390724E+03 -8.570134E+03  1.993206E+04
       167  10 -5.262912E+04 -1.007214E+05 -2.780255E+04 -2.194228E+03  1.719452E-09  6.562909E-10
       167  11 -1.468187E+05 -9.764492E+04 -8.187958E+04 -5.780178E+03  3.303008E-10 -5.232826E-10
       167  12 -1.275133E+05 -6.176261E+04 -9.225287E+04  1.843618E+04 -9.598039E-10 -1.754487E-09
       167  13  8.172322E+04  4.379651E+05  1.062309E+05  1.035192E+04  2.165835E-09 -2.351508E-11
       167  14 -1.744689E+04  4.214036E+05  4.616639E+04 -3.765892E+03  1.479156E-09  1.234791E-10
       167  15 -2.813764E+03  4.379803E+05  3.121484E+04  9.916840E+03  1.818908E-11  8.707229E-13
       167  16  2.160544E+05  9.769151E+05  2.402427E+05  2.290929E+04  9.185713E-10 -5.827831E-10
       167  17  1.119048E+05  9.406971E+05  1.741924E+05 -1.749634E+03  6.085565E-09  3.654311E-10
       167  18  1.218673E+05  9.379503E+05  1.546640E+05  1.390862E+03 -1.892145E-10  1.671625E-09
       167  19 -5.262783E+04 -1.007163E+05 -2.779360E+04 -2.194434E+03  3.708509E+03 -6.889233E+04
       167  20 -1.468180E+05 -9.764264E+04 -8.187545E+04 -5.780548E+03  1.002799E+04 -4.576396E+04
       167  21 -1.275131E+05 -6.176203E+04 -9.225177E+04  1.843602E+04  8.581598E+03 -2.267310E+04
       167  22  8.172461E+04  4.379706E+05  1.062406E+05  1.035170E+04  3.721171E+03 -7.165990E+04
       167  23 -1.744620E+04  4.214060E+05  4.617063E+04 -3.766267E+03  1.003043E+04 -4.646237E+04
       167  24 -2.813563E+03  4.379808E+05  3.121583E+04  9.916693E+03  8.575883E+03 -2.130314E+04
       167  25  2.160559E+05  9.769211E+05  2.402532E+05  2.290907E+04  3.733717E+03 -7.442985E+04
       167  26  1.119055E+05  9.406995E+05  1.741968E+05 -1.750015E+03  1.003286E+04 -4.716135E+04
       167  27  1.218675E+05  9.379508E+05  1.546649E+05  1.390724E+03  8.570134E+03 -1.993206E+04
       168   1 -9.818271E+04 -6.261992E+03 -8.189339E+04  8.393102E+03 -7.070662E+03  1.585792E+04
       168   2 -1.082199E+05  7.539609E+03 -8.868953E+04 -2.254873E+03 -7.366346E+03  8.248474E+03
       168   3 -9.761003E+04  2.841769E+04 -8.518308E+04  1.179098E+04 -6.204676E+03  6.429296E+02
       168   4  1.115740E+04  4.322185E+05  2.649400E+04  9.389981E+03 -7.071357E+03  1.614361E+04
       168   5 -3.216511E+03  4.286481E+05  1.530255E+04 -2.972593E+03 -7.365687E+03  8.144514E+03
       168   6  3.116811E+03  4.322176E+05  1.467924E+04  9.357558E+03 -6.203057E+03  1.495282E+02
       168   7  1.204832E+05  8.708737E+05  1.348671E+05  1.038773E+04 -7.072051E+03  1.642950E+04
       168   8  1.017736E+05  8.499178E+05  1.192815E+05 -3.690668E+03 -7.365028E+03  8.040481E+03
       168   9  1.038315E+05  8.361656E+05  1.145295E+05  6.922656E+03 -6.201434E+03 -3.441937E+02
       168  10 -9.818283E+04 -6.262275E+03 -8.189396E+04  8.393192E+03 -3.937373E-09  2.266130E-10
       168  11 -1.082200E+05  7.539522E+03 -8.868976E+04 -2.254824E+03 -1.161319E-09  2.242064E-10
       168  12 -9.761007E+04  2.841768E+04 -8.518315E+04  1.179098E+04 -9.567712E-11  1.814079E-10
       168  13  1.115728E+04  4.322182E+05  2.649341E+04  9.390073E+03 -2.149458E-09 -1.009399E-11
       168  14 -3.216587E+03  4.286480E+05  1.530233E+04 -2.972544E+03 -9.554857E-10 -2.220121E-11
       168  15  3.116770E+03  4.322176E+05  1.467917E+04  9.357559E+03 -1.616057E-09 -5.926335E-12
       168  16  1.204830E+05  8.708734E+05  1.348665E+05  1.038782E+04 -1.779454E-09 -2.102560E-10
       168  17  1.017736E+05  8.499177E+05  1.192813E+05 -3.690620E+03 -1.805296E-09 -7.478692E-12
       168  18  1.038314E+05  8.361656E+05  1.145294E+05  6.922655E+03 -6.366472E-10 -1.051476E-10
       168  19 -9.818271E+04 -6.261992E+03 -8.189339E+04  8.393102E+03  7.070662E+03 -1.585792E+04
       168  20 -1.082199E+05  7.539609E+03 -8.868953E+04 -2.254873E+03  7.366346E+03 -8.248474E+03
       168  21 -9.761003E+04  2.841769E+04 -8.518308E+04  1.179098E+04  6.204676E+03 -6.429296E+02
       168  22  1.115740E+04  4.322185E+05  2.649400E+04  9.389981E+03  7.071357E+03 -1.614361E+04
       168  23 -3.216511E+03  4.286481E+05  1.530255E+04 -2.972593E+03  7.365687E+03 -8.144514E+03
       168  24  3.116811E+03  4.322176E+05  1.467924E+04  9.357558E+03  6.203057E+03 -1.495282E+02
       168  25  1.204832E+05  8.708737E+05  1.348671E+05  1.038773E+04  7.072051E+03 -1.642950E+04
       168  26  1.017736E+05  8.499178E+05  1.192815E+05 -3.690668E+03  7.365028E+03 -8.040481E+03
       168  27  1.038315E+05  8.361656E+05  1.145295E+05  6.922656E+03  6.201434E+03  3.441937E+02
       169   1 -8.635542E+04  8.480339E+04 -7.124555E+04  7.100818E+03 -6.305630E+03 -2.983561E+03
       169   2 -8.872289E+04  9.500647E+04 -6.533144E+04 -6.503227E+02 -6.142349E+03 -1.095885E+04
       169   3 -5.335174E+04  1.162538E+05 -4.467436E+04  1.409875E+04 -1.944681E+03 -1.892734E+04
       169   4  4.750353E+02  4.331400E+05  1.472687E+04  8.861920E+03 -6.306660E+03 -2.489650E+03
       169   5 -5.820194E+03  4.275240E+05  1.671649E+04 -2.365056E+03 -6.140883E+03 -1.153432E+04
       169   6  2.579827E+04  4.331329E+05  3.418607E+04  8.907349E+03 -1.941582E+03 -2.057200E+04
       169   7  8.729646E+04  7.815869E+05  1.006903E+05  1.062408E+04 -6.307687E+03 -1.995462E+03
       169   8  7.707427E+04  7.601421E+05  9.875624E+04 -4.080655E+03 -6.139414E+03 -1.211010E+04
       169   9  1.049408E+05  7.501031E+05  1.130390E+05  3.713333E+03 -1.938457E+03 -2.221749E+04
       169  10 -8.635547E+04  8.480337E+04 -7.124564E+04  7.100803E+03 -8.259093E-10  2.032760E-09
       169  11 -8.872296E+04  9.500633E+04 -6.533174E+04 -6.503769E+02  1.465950E-09  2.257572E-10
       169  12 -5.335184E+04  1.162534E+05 -4.467504E+04  1.409873E+04  2.727392E-10 -1.463479E-09
       169  13  4.749909E+02  4.331400E+05  1.472678E+04  8.861907E+03 -9.022908E-11 -6.417863E-11
       169  14 -5.820270E+03  4.275239E+05  1.671617E+04 -2.365113E+03  5.159108E-10  2.659668E-11
       169  15  2.579816E+04  4.331324E+05  3.418527E+04  8.907317E+03  5.983745E-10  5.494755E-12
       169  16  8.729642E+04  7.815869E+05  1.006902E+05  1.062407E+04 -1.261253E-09 -1.873907E-09
       169  17  7.707419E+04  7.601419E+05  9.875590E+04 -4.080715E+03  2.457735E-10 -3.479555E-10
       169  18  1.049407E+05  7.501025E+05  1.130381E+05  3.713298E+03  4.666768E-10  1.409215E-09
       169  19 -8.635542E+04  8.480339E+04 -7.124555E+04  7.100818E+03  6.305630E+03  2.983561E+03
       169  20 -8.872289E+04  9.500647E+04 -6.533144E+04 -6.503227E+02  6.142349E+03  1.095885E+04
       169  21 -5.335174E+04  1.162538E+05 -4.467436E+04  1.409875E+04  1.944681E+03  1.892734E+04
       169  22  4.750353E+02  4.331400E+05  1.472687E+04  8.861920E+03  6.306660E+03  2.489650E+03
       169  23 -5.820194E+03  4.275240E+05  1.671649E+04 -2.365056E+03  6.140883E+03  1.153432E+04
       169  24  2.579827E+04  4.331329E+05  3.418607E+04  8.907349E+03  1.941582E+03  2.057200E+04
       169  25  8.729646E+04  7.815869E+05  1.006903E+05  1.062408E+04  6.307687E+03  1.995462E+03
       169  26  7.707427E+04  7.601421E+05  9.875624E+04 -4.080655E+03  6.139414E+03  1.211010E+04
       169  27  1.049408E+05  7.501031E+05  1.130390E+05  3.713333E+03  1.938457E+03  2.221749E+04
       170   1 -2.670595E+06 -8.753261E+05 -6.270235E+05 -8.752704E+05 -3.071516E+05 -1.129983E+05
       170   2 -2.583057E+06 -4.451531E+05 -3.439367E+05 -9.727626E+05 -1.997694E+05 -6.390074E+04
       170   3 -2.694585E+06 -4.800711E+05 -2.725331E+05 -9.379843E+05 -8.941911E+04 -2.260131E+04
       170   4 -2.178548E+06 -6.302766E+05 -4.798351E+05 -6.819000E+05 -3.046104E+05 -1.120656E+05
       170   5 -2.054571E+06 -2.290275E+05 -1.965007E+05 -8.122905E+05 -1.990712E+05 -6.364195E+04
       170   6 -2.129145E+06 -2.922674E+05 -1.232515E+05 -8.104582E+05 -9.055811E+04 -2.302932E+04
       170   7 -1.686259E+06 -3.851574E+05 -3.326713E+05 -4.883740E+05 -3.020670E+05 -1.111315E+05
       170   8 -1.525814E+06 -1.287315E+04 -4.909116E+04 -6.516906E+05 -1.983723E+05 -6.338285E+04
       170   9 -1.563397E+06 -1.044618E+05  2.600361E+04 -6.828352E+05 -9.169822E+04 -2.345762E+04
       170  10 -2.670700E+06 -8.753653E+05 -6.272258E+05 -8.752984E+05 -4.147297E-10 -2.270102E-10
       170  11 -2.583101E+06 -4.451683E+05 -3.440197E+05 -9.727729E+05  3.362123E-10 -3.400592E-10
       170  12 -2.694593E+06 -4.800738E+05 -2.725492E+05 -9.379859E+05  3.133062E-10  3.885942E-10
       170  13 -2.178651E+06 -6.303152E+05 -4.800339E+05 -6.819276E+05  2.117289E-09 -2.114371E-10
       170  14 -2.054614E+06 -2.290426E+05 -1.965831E+05 -8.123008E+05 -2.840696E-09 -5.792341E-10
       170  15 -2.129154E+06 -2.922702E+05 -1.232680E+05 -8.104599E+05  1.680823E-09  4.772748E-10
       170  16 -1.686361E+06 -3.851952E+05 -3.328665E+05 -4.884010E+05 -4.332871E-10 -5.015726E-10
       170  17 -1.525858E+06 -1.288808E+04 -4.917290E+04 -6.517007E+05  1.431390E-09 -5.540737E-10
       170  18 -1.563406E+06 -1.044646E+05  2.598672E+04 -6.828370E+05  3.508028E-10  4.968147E-10
       170  19 -2.670595E+06 -8.753261E+05 -6.270235E+05 -8.752704E+05  3.071516E+05  1.129983E+05
       170  20 -2.583057E+06 -4.451531E+05 -3.439367E+05 -9.727626E+05  1.997694E+05  6.390074E+04
       170  21 -2.694585E+06 -4.800711E+05 -2.725331E+05 -9.379843E+05  8.941911E+04  2.260131E+04
       170  22 -2.178548E+06 -6.302766E+05 -4.798351E+05 -6.819000E+05  3.046104E+05  1.120656E+05
       170  23 -2.054571E+06 -2.290275E+05 -1.965007E+05 -8.122905E+05  1.990712E+05  6.364195E+04
       170  24 -2.129145E+06 -2.922674E+05 -1.232515E+05 -8.104582E+05  9.055811E+04  2.302932E+04
       170  25 -1.686259E+06 -3.851574E+05 -3.326713E+05 -4.883740E+05  3.020670E+05  1.111315E+05
       170  26 -1.525814E+06 -1.287315E+04 -4.909116E+04 -6.516906E+05  1.983723E+05  6.338285E+04
       170  27 -1.563397E+06 -1.044618E+05  2.600361E+04 -6.828352E+05  9.169822E+04  2.345762E+04
       171   1 -2.647172E+06 -5.625103E+05 -2.499153E+05 -9.380118E+05 -7.208066E+04 -1.726002E+04
       171   2 -2.631221E+06 -4.936640E+05 -1.926119E+05 -9.440510E+05 -4.757621E+04 -7.009020E+03
       171   3 -2.634047E+06 -5.000201E+05 -1.718754E+05 -9.419710E+05 -2.252237E+04  1.790483E+03
       171   4 -2.110230E+06 -3.507346E+05 -1.013513E+05 -7.829605E+05 -7.173780E+04 -1.713183E+04
       171   5 -2.097419E+06 -2.892356E+05 -4.629899E+04 -7.960713E+05 -4.757028E+04 -7.007614E+03
       171   6 -2.103295E+06 -3.028357E+05 -2.752094E+04 -8.010687E+05 -2.285371E+04  1.665059E+03
       171   7 -1.573010E+06 -1.389361E+05  4.718565E+04 -6.277859E+05 -7.139458E+04 -1.700351E+04
       171   8 -1.563343E+06 -8.478903E+04  9.998789E+04 -6.479762E+05 -4.756433E+04 -7.006199E+03
       171   9 -1.572271E+06 -1.056374E+05  1.168084E+05 -6.600586E+05 -2.318535E+04  1.539525E+03
       171  10 -2.647178E+06 -5.625120E+05 -2.499256E+05 -9.380128E+05  4.450627E-10  3.914807E-10
       171  11 -2.631224E+06 -4.936646E+05 -1.926163E+05 -9.440513E+05 -1.028563E-09 -9.293433E-10
       171  12 -2.634048E+06 -5.000202E+05 -1.718763E+05 -9.419710E+05 -1.503853E-09  4.179980E-10
       171  13 -2.110235E+06 -3.507363E+05 -1.013616E+05 -7.829615E+05 -7.508481E-10 -2.588292E-10
       171  14 -2.097422E+06 -2.892363E+05 -4.630335E+04 -7.960716E+05 -9.951564E-10  7.159573E-11
       171  15 -2.103296E+06 -3.028358E+05 -2.752193E+04 -8.010686E+05 -2.748736E-09  6.118610E-11
       171  16 -1.573016E+06 -1.389377E+05  4.717550E+04 -6.277869E+05 -1.105807E-09  4.196783E-10
       171  17 -1.563346E+06 -8.478969E+04  9.998353E+04 -6.479765E+05 -5.563615E-10 -1.619100E-10
       171  18 -1.572272E+06 -1.056375E+05  1.168074E+05 -6.600586E+05 -2.444004E-10  2.589319E-10
       171  19 -2.647172E+06 -5.625103E+05 -2.499153E+05 -9.380118E+05  7.208066E+04  1.726002E+04
       171  20 -2.631221E+06 -4.936640E+05 -1.926119E+05 -9.440510E+05  4.757621E+04  7.009020E+03
       171  21 -2.634047E+06 -5.000201E+05 -1.718754E+05 -9.419710E+05  2.252237E+04 -1.790483E+03
       171  22 -2.110230E+06 -3.507346E+05 -1.013513E+05 -7.829605E+05  7.173780E+04  1.713183E+04
       171  23 -2.097419E+06 -2.892356E+05 -4.629899E+04 -7.960713E+05  4.757028E+04  7.007614E+03
       171  24 -2.103295E+06 -3.028357E+05 -2.752094E+04 -8.010687E+05  2.285371E+04 -1.665059E+03
       171  25 -1.573010E+06 -1.389361E+05  4.718565E+04 -6.277859E+05  7.139458E+04  1.700351E+04
       171  26 -1.563343E+06 -8.478903E+04  9.998789E+04 -6.479762E+05  4.756433E+04  7.006199E+03
       171  27 -1.572271E+06 -1.056374E+05  1.168084E+05 -6.600586E+05  2.318535E+04 -1.539525E+03
       172   1 -2.572643E+06 -4.944037E+05 -1.518271E+05 -9.306331E+05 -1.856523E+04  2.747640E+03
       172   2 -2.562364E+06 -4.670534E+05 -1.353473E+05 -9.144215E+05 -1.267735E+04  4.456525E+03
       172   3 -2.533313E+06 -4.710690E+05 -1.254754E+05 -9.206707E+05 -6.593266E+03  5.640124E+03
       172   4 -2.097895E+06 -3.136495E+05 -2.191575E+04 -8.000970E+05 -1.861902E+04  2.726821E+03
       172   5 -2.106807E+06 -2.945697E+05 -1.086371E+04 -7.901503E+05 -1.285625E+04  4.388781E+03
       172   6 -2.096920E+06 -3.068245E+05 -6.316072E+03 -8.026637E+05 -6.897542E+03  5.525545E+03
       172   7 -1.622931E+06 -1.328815E+05  1.079751E+05 -6.694706E+05 -1.867285E+04  2.705986E+03
       172   8 -1.651051E+06 -1.220740E+05  1.136009E+05 -6.657969E+05 -1.303529E+04  4.320983E+03
       172   9 -1.660344E+06 -1.425699E+05  1.128259E+05 -6.845821E+05 -7.202054E+03  5.410879E+03
       172  10 -2.572643E+06 -4.944038E+05 -1.518278E+05 -9.306331E+05  8.235238E-10  1.012093E-10
       172  11 -2.562364E+06 -4.670535E+05 -1.353476E+05 -9.144214E+05  4.093906E-11 -1.599301E-09
       172  12 -2.533313E+06 -4.710690E+05 -1.254756E+05 -9.206707E+05 -1.662647E-09 -1.505960E-09
       172  13 -2.097896E+06 -3.136496E+05 -2.191642E+04 -8.000970E+05 -2.013180E-09  5.356577E-10
       172  14 -2.106807E+06 -2.945697E+05 -1.086406E+04 -7.901502E+05  1.120075E-09  9.958684E-10
       172  15 -2.096920E+06 -3.068246E+05 -6.316219E+03 -8.026636E+05 -9.003204E-10  1.805197E-09
       172  16 -1.622931E+06 -1.328816E+05  1.079744E+05 -6.694705E+05 -1.350256E-09 -3.308898E-10
       172  17 -1.651051E+06 -1.220741E+05  1.136006E+05 -6.657969E+05 -6.150096E-10 -1.258071E-09
       172  18 -1.660345E+06 -1.425699E+05  1.128257E+05 -6.845821E+05  1.058729E-10 -1.185806E-10
       172  19 -2.572643E+06 -4.944037E+05 -1.518271E+05 -9.306331E+05  1.856523E+04 -2.747640E+03
       172  20 -2.562364E+06 -4.670534E+05 -1.353473E+05 -9.144215E+05  1.267735E+04 -4.456525E+03
       172  21 -2.533313E+06 -4.710690E+05 -1.254754E+05 -9.206707E+05  6.593266E+03 -5.640124E+03
       172  22 -2.097895E+06 -3.136495E+05 -2.191575E+04 -8.000970E+05  1.861902E+04 -2.726821E+03
       172  23 -2.106807E+06 -2.945697E+05 -1.086371E+04 -7.901503E+05  1.285625E+04 -4.388781E+03
       172  24 -2.096920E+06 -3.068245E+05 -6.316072E+03 -8.026637E+05  6.897542E+03 -5.525545E+03
       172  25 -1.622931E+06 -1.328815E+05  1.079751E+05 -6.694706E+05  1.867285E+04 -2.705986E+03
       172  26 -1.651051E+06 -1.220740E+05  1.136009E+05 -6.657969E+05  1.303529E+04 -4.320983E+03
       172  27 -1.660344E+06 -1.425699E+05  1.128259E+05 -6.845821E+05  7.202054E+03 -5.410879E+03
       173   1 -2.435563E+06 -4.392320E+05 -9.815652E+04 -8.975870E+05 -5.530694E+03  5.341096E+03
       173   2 -2.422273E+06 -4.104994E+05 -8.807639E+04 -8.711475E+05 -3.603867E+03  4.943489E+03
       173   3 -2.376723E+06 -4.157421E+05 -7.945253E+04 -8.815436E+05 -1.572353E+03  4.262426E+03
       173   4 -2.094313E+06 -3.103084E+05 -5.048882E+03 -8.047573E+05 -5.738994E+03  5.262715E+03
       173   5 -2.110384E+06 -2.928582E+05 -2.944640E+03 -7.865170E+05 -3.881142E+03  4.839441E+03
       173   6 -2.094184E+06 -3.093680E+05 -2.241314E+03 -8.051112E+05 -1.918715E+03  4.132752E+03
       173   7 -1.752951E+06 -1.813780E+05  8.804834E+04 -7.118815E+05 -5.947419E+03  5.184287E+03
       173   8 -1.798402E+06 -1.752114E+05  8.217836E+04 -7.018480E+05 -4.158572E+03  4.735336E+03
       173   9 -1.811568E+06 -2.029895E+05  7.496266E+04 -7.286476E+05 -2.265252E+03  4.003013E+03
       173  10 -2.435563E+06 -4.392321E+05 -9.815663E+04 -8.975870E+05 -4.313521E-10 -1.808498E-10
       173  11 -2.422273E+06 -4.104994E+05 -8.807646E+04 -8.711475E+05 -2.387329E-10 -1.023512E-09
       173  12 -2.376723E+06 -4.157421E+05 -7.945257E+04 -8.815435E+05 -3.237694E-09 -2.101795E-09
       173  13 -2.094313E+06 -3.103085E+05 -5.048996E+03 -8.047573E+05 -2.477706E-09  1.161271E-09
       173  14 -2.110384E+06 -2.928582E+05 -2.944712E+03 -7.865169E+05  1.670156E-09  9.246721E-10
       173  15 -2.094184E+06 -3.093680E+05 -2.241353E+03 -8.051112E+05  5.724098E-10 -2.236895E-10
       173  16 -1.752951E+06 -1.813780E+05  8.804823E+04 -7.118815E+05 -1.326852E-09 -1.985255E-09
       173  17 -1.798402E+06 -1.752115E+05  8.217829E+04 -7.018480E+05  1.505698E-09 -5.284516E-10
       173  18 -1.811568E+06 -2.029895E+05  7.496262E+04 -7.286476E+05  1.432896E-09  6.114933E-10
       173  19 -2.435563E+06 -4.392320E+05 -9.815652E+04 -8.975870E+05  5.530694E+03 -5.341096E+03
       173  20 -2.422273E+06 -4.104994E+05 -8.807639E+04 -8.711475E+05  3.603867E+03 -4.943489E+03
       173  21 -2.376723E+06 -4.157421E+05 -7.945253E+04 -8.815436E+05  1.572353E+03 -4.262426E+03
       173  22 -2.094313E+06 -3.103084E+05 -5.048882E+03 -8.047573E+05  5.738994E+03 -5.262715E+03
       173  23 -2.110384E+06 -2.928582E+05 -2.944640E+03 -7.865170E+05  3.881142E+03 -4.839441E+03
       173  24 -2.094184E+06 -3.093680E+05 -2.241314E+03 -8.051112E+05  1.918715E+03 -4.132752E+03
       173  25 -1.752951E+06 -1.813780E+05  8.804834E+04 -7.118815E+05  5.947419E+03 -5.184287E+03
       173  26 -1.798402E+06 -1.752114E+05  8.217836E+04 -7.018480E+05  4.158572E+03 -4.735336E+03
       173  27 -1.811568E+06 -2.029895E+05  7.496266E+04 -7.286476E+05  2.265252E+03 -4.003013E+03
       174   1 -2.251847E+06 -3.707044E+05 -4.547082E+04 -8.497787E+05 -9.567599E+02  3.605662E+03
       174   2 -2.235917E+06 -3.378564E+05 -3.641750E+04 -8.180982E+05  8.660916E+02  2.820065E+03
       174   3 -2.182109E+06 -3.448203E+05 -2.871009E+04 -8.303959E+05  2.723030E+03  1.941453E+03
       174   4 -2.092936E+06 -3.107866E+05 -2.220266E+03 -8.066457E+05 -1.262477E+03  3.491332E+03
       174   5 -2.111920E+06 -2.911821E+05 -2.593864E+03 -7.845459E+05  5.377369E+02  2.697366E+03
       174   6 -2.093023E+06 -3.113846E+05 -4.295172E+03 -8.064243E+05  2.371952E+03  1.810367E+03
       174   7 -1.934001E+06 -2.508675E+05  4.102795E+04 -7.635028E+05 -1.568281E+03  3.376970E+03
       174   8 -1.987909E+06 -2.445070E+05  3.122838E+04 -7.509875E+05  2.093097E+02  2.574640E+03
       174   9 -2.003930E+06 -2.779484E+05  2.011906E+04 -7.824495E+05  2.020819E+03  1.679260E+03
       174  10 -2.251847E+06 -3.707044E+05 -4.547085E+04 -8.497787E+05 -1.847169E-09 -1.143782E-09
       174  11 -2.235917E+06 -3.378564E+05 -3.641752E+04 -8.180982E+05 -4.630249E-10 -1.831377E-10
       174  12 -2.182109E+06 -3.448203E+05 -2.871011E+04 -8.303959E+05  4.419550E-10  2.277226E-11
       174  13 -2.092936E+06 -3.107866E+05 -2.220292E+03 -8.066457E+05 -1.321347E-09 -6.222090E-10
       174  14 -2.111920E+06 -2.911821E+05 -2.593878E+03 -7.845459E+05  1.056188E-10 -7.968687E-10
       174  15 -2.093023E+06 -3.113846E+05 -4.295189E+03 -8.064243E+05 -6.956570E-10 -4.611445E-10
       174  16 -1.934001E+06 -2.508675E+05  4.102793E+04 -7.635028E+05 -1.345461E-09  1.085996E-10
       174  17 -1.987909E+06 -2.445070E+05  3.122837E+04 -7.509875E+05 -2.024818E-09 -2.341114E-10
       174  18 -2.003930E+06 -2.779484E+05  2.011904E+04 -7.824495E+05 -1.255981E-09 -3.591634E-10
       174  19 -2.251847E+06 -3.707044E+05 -4.547082E+04 -8.497787E+05  9.567599E+02 -3.605662E+03
       174  20 -2.235917E+06 -3.378564E+05 -3.641750E+04 -8.180982E+05 -8.660916E+02 -2.820065E+03
       174  21 -2.182109E+06 -3.448203E+05 -2.871009E+04 -8.303959E+05 -2.723030E+03 -1.941453E+03
       174  22 -2.092936E+06 -3.107866E+05 -2.220266E+03 -8.066457E+05  1.262477E+03 -3.491332E+03
       174  23 -2.111920E+06 -2.911821E+05 -2.593864E+03 -7.845459E+05 -5.377369E+02 -2.697366E+03
       174  24 -2.093023E+06 -3.113846E+05 -4.295172E+03 -8.064243E+05 -2.371952E+03 -1.810367E+03
       174  25 -1.934001E+06 -2.508675E+05  4.102795E+04 -7.635028E+05  1.568281E+03 -3.376970E+03
       174  26 -1.987909E+06 -2.445070E+05  3.122838E+04 -7.509875E+05 -2.093097E+02 -2.574640E+03
       174  27 -2.003930E+06 -2.779484E+05  2.011906E+04 -7.824495E+05 -2.020819E+03 -1.679260E+03
       175   1 -2.046878E+06 -2.936607E+05  7.318601E+03 -7.950453E+05  3.862726E+03  1.382998E+03
       175   2 -2.029968E+06 -2.591401E+05  1.323335E+04 -7.623037E+05  8.997686E+03  1.699585E+03
       175   3 -1.977570E+06 -2.716225E+05  1.355090E+04 -7.726047E+05  1.406199E+04  2.207264E+03
       175   4 -2.093229E+06 -3.106541E+05 -5.367990E+03 -8.070860E+05  3.492620E+03  1.244828E+03
       175   5 -2.111364E+06 -2.899565E+05 -8.999555E+03 -7.845169E+05  8.674036E+03  1.578687E+03
       175   6 -2.094022E+06 -3.162721E+05 -1.826577E+04 -8.049911E+05  1.378450E+04  2.103536E+03
       175   7 -2.139578E+06 -3.276475E+05 -1.805477E+04 -8.191259E+05  3.122545E+03  1.106668E+03
       175   8 -2.192754E+06 -3.207724E+05 -3.123304E+04 -8.067274E+05  8.350432E+03  1.457807E+03
       175   9 -2.210461E+06 -3.609207E+05 -5.008362E+04 -8.373720E+05  1.350707E+04  1.999829E+03
       175  10 -2.046878E+06 -2.936607E+05  7.318569E+03 -7.950453E+05  1.910430E-10 -3.576018E-10
       175  11 -2.029968E+06 -2.591402E+05  1.323319E+04 -7.623037E+05  1.341781E-09  4.428900E-10
       175  12 -1.977570E+06 -2.716226E+05  1.355052E+04 -7.726047E+05 -3.966673E-10 -1.768060E-10
       175  13 -2.093229E+06 -3.106541E+05 -5.368016E+03 -8.070860E+05  4.971009E-10 -5.168760E-10
       175  14 -2.111364E+06 -2.899565E+05 -8.999701E+03 -7.845169E+05 -1.341538E-09  8.370225E-10
       175  15 -2.094022E+06 -3.162722E+05 -1.826613E+04 -8.049912E+05 -1.905150E-09 -5.078861E-10
       175  16 -2.139578E+06 -3.276475E+05 -1.805479E+04 -8.191259E+05 -6.685377E-10 -6.009324E-10
       175  17 -2.192754E+06 -3.207724E+05 -3.123317E+04 -8.067274E+05 -4.520244E-10 -3.745804E-10
       175  18 -2.210461E+06 -3.609208E+05 -5.008397E+04 -8.373720E+05 -8.993134E-10 -6.019487E-10
       175  19 -2.046878E+06 -2.936607E+05  7.318601E+03 -7.950453E+05 -3.862726E+03 -1.382998E+03
       175  20 -2.029968E+06 -2.591401E+05  1.323335E+04 -7.623037E+05 -8.997686E+03 -1.699585E+03
       175  21 -1.977570E+06 -2.716225E+05  1.355090E+04 -7.726047E+05 -1.406199E+04 -2.207264E+03
       175  22 -2.093229E+06 -3.106541E+05 -5.367990E+03 -8.070860E+05 -3.492620E+03 -1.244828E+03
       175  23 -2.111364E+06 -2.899565E+05 -8.999555E+03 -7.845169E+05 -8.674036E+03 -1.578687E+03
       175  24 -2.094022E+06 -3.162721E+05 -1.826577E+04 -8.049911E+05 -1.378450E+04 -2.103536E+03
       175  25 -2.139578E+06 -3.276475E+05 -1.805477E+04 -8.191259E+05 -3.122545E+03 -1.106668E+03
       175  26 -2.192754E+06 -3.207724E+05 -3.123304E+04 -8.067274E+05 -8.350432E+03 -1.457807E+03
       175  27 -2.210461E+06 -3.609207E+05 -5.008362E+04 -8.373720E+05 -1.350707E+04 -1.999829E+03
       176   1 -1.850160E+06 -2.189324E+05  4.392425E+04 -7.438680E+05  1.801524E+04  2.619974E+03
       176   2 -1.830950E+06 -1.787528E+05  3.674294E+04 -7.113876E+05  3.861755E+04  8.757540E+03
       176   3 -1.800733E+06 -2.284382E+05 -5.549912E+02 -7.039687E+05  5.878879E+04  1.605392E+04
       176   4 -2.097083E+06 -3.087081E+05 -2.291596E+04 -8.073974E+05  1.752905E+04  2.438259E+03
       176   5 -2.105383E+06 -2.837183E+05 -3.840906E+04 -7.873949E+05  3.840811E+04  8.678874E+03
       176   6 -2.102742E+06 -3.486661E+05 -8.424969E+04 -7.924539E+05  5.885501E+04  1.607778E+04
       176   7 -2.343949E+06 -3.984816E+05 -8.976168E+04 -8.709046E+05  1.704308E+04  2.256617E+03
       176   8 -2.379745E+06 -3.886791E+05 -1.135680E+05 -8.633718E+05  3.819876E+04  8.600245E+03
       176   9 -2.404663E+06 -4.688861E+05 -1.679529E+05 -8.808993E+05  5.892119E+04  1.610163E+04
       176  10 -1.850160E+06 -2.189325E+05  4.392363E+04 -7.438680E+05 -2.946804E-10  3.693100E-10
       176  11 -1.830952E+06 -1.787533E+05  3.673998E+04 -7.113879E+05 -5.766182E-11  1.009293E-09
       176  12 -1.800737E+06 -2.284394E+05 -5.619933E+02 -7.039694E+05 -5.305893E-10  1.608816E-10
       176  13 -2.097084E+06 -3.087082E+05 -2.291655E+04 -8.073974E+05 -1.114411E-09  4.406460E-10
       176  14 -2.105385E+06 -2.837188E+05 -3.841199E+04 -7.873952E+05 -1.532662E-09  3.149822E-10
       176  15 -2.102746E+06 -3.486674E+05 -8.425672E+04 -7.924547E+05  2.970077E-10  3.103346E-10
       176  16 -2.343949E+06 -3.984817E+05 -8.976224E+04 -8.709046E+05  8.024460E-11  1.163927E-10
       176  17 -2.379746E+06 -3.886795E+05 -1.135709E+05 -8.633721E+05 -1.050941E-09 -2.356856E-10
       176  18 -2.404667E+06 -4.688873E+05 -1.679599E+05 -8.809000E+05 -1.109299E-09  3.162009E-10
       176  19 -1.850160E+06 -2.189324E+05  4.392425E+04 -7.438680E+05 -1.801524E+04 -2.619974E+03
       176  20 -1.830950E+06 -1.787528E+05  3.674294E+04 -7.113876E+05 -3.861755E+04 -8.757540E+03
       176  21 -1.800733E+06 -2.284382E+05 -5.549912E+02 -7.039687E+05 -5.878879E+04 -1.605392E+04
       176  22 -2.097083E+06 -3.087081E+05 -2.291596E+04 -8.073974E+05 -1.752905E+04 -2.438259E+03
       176  23 -2.105383E+06 -2.837183E+05 -3.840906E+04 -7.873949E+05 -3.840811E+04 -8.678874E+03
       176  24 -2.102742E+06 -3.486661E+05 -8.424969E+04 -7.924539E+05 -5.885501E+04 -1.607778E+04
       176  25 -2.343949E+06 -3.984816E+05 -8.976168E+04 -8.709046E+05 -1.704308E+04 -2.256617E+03
       176  26 -2.379745E+06 -3.886791E+05 -1.135680E+05 -8.633718E+05 -3.819876E+04 -8.600245E+03
       176  27 -2.404663E+06 -4.688861E+05 -1.679529E+05 -8.808993E+05 -5.892119E+04 -1.610163E+04
       177   1 -1.692966E+06 -1.624847E+05  9.185746E+03 -7.233372E+05  7.611793E+04  2.065469E+04
       177   2 -1.649147E+06 -6.143096E+04 -4.587378E+04 -6.727161E+05  1.650700E+05  5.227709E+04
       177   3 -1.739267E+06 -3.766945E+05 -2.740710E+05 -5.475917E+05  2.512882E+05  9.119030E+04
       177   4 -2.117922E+06 -3.004338E+05 -1.024013E+05 -8.157029E+05  7.480621E+04  2.016587E+04
       177   5 -2.070822E+06 -2.329189E+05 -1.632347E+05 -8.000337E+05  1.654954E+05  5.243237E+04
       177   6 -2.158112E+06 -5.822377E+05 -3.986801E+05 -7.098331E+05  2.534502E+05  9.197975E+04
       177   7 -2.542703E+06 -4.383830E+05 -2.140029E+05 -9.080166E+05  7.349546E+04  1.967730E+04
       177   8 -2.492324E+06 -4.043887E+05 -2.806123E+05 -9.272705E+05  1.659204E+05  5.258748E+04
       177   9 -2.576783E+06 -7.877325E+05 -5.233067E+05 -8.719637E+05  2.556105E+05  9.276815E+04
       177  10 -1.692972E+06 -1.624867E+05  9.174019E+03 -7.233384E+05  3.149539E-10  2.777913E-10
       177  11 -1.649178E+06 -6.144125E+04 -4.593029E+04 -6.727231E+05  4.398540E-10 -4.759062E-11
       177  12 -1.739337E+06 -3.767205E+05 -2.742057E+05 -5.476102E+05  2.340097E-10 -3.826925E-10
       177  13 -2.117928E+06 -3.004358E+05 -1.024126E+05 -8.157041E+05 -5.045603E-11 -7.664140E-11
       177  14 -2.070852E+06 -2.329292E+05 -1.632916E+05 -8.000408E+05 -3.215256E-10 -1.384909E-10
       177  15 -2.158184E+06 -5.822641E+05 -3.988172E+05 -7.098519E+05  1.704295E-10  1.392093E-10
       177  16 -2.542709E+06 -4.383849E+05 -2.140139E+05 -9.080177E+05  1.875725E-10 -2.733667E-10
       177  17 -2.492355E+06 -4.043991E+05 -2.806695E+05 -9.272775E+05  4.644860E-10 -1.780114E-10
       177  18 -2.576856E+06 -7.877595E+05 -5.234463E+05 -8.719829E+05  3.889562E-10 -1.146690E-10
       177  19 -1.692966E+06 -1.624847E+05  9.185746E+03 -7.233372E+05 -7.611793E+04 -2.065469E+04
       177  20 -1.649147E+06 -6.143096E+04 -4.587378E+04 -6.727161E+05 -1.650700E+05 -5.227709E+04
       177  21 -1.739267E+06 -3.766945E+05 -2.740710E+05 -5.475917E+05 -2.512882E+05 -9.119030E+04
       177  22 -2.117922E+06 -3.004338E+05 -1.024013E+05 -8.157029E+05 -7.480621E+04 -2.016587E+04
       177  23 -2.070822E+06 -2.329189E+05 -1.632347E+05 -8.000337E+05 -1.654954E+05 -5.243237E+04
       177  24 -2.158112E+06 -5.822377E+05 -3.986801E+05 -7.098331E+05 -2.534502E+05 -9.197975E+04
       177  25 -2.542703E+06 -4.383830E+05 -2.140029E+05 -9.080166E+05 -7.349546E+04 -1.967730E+04
       177  26 -2.492324E+06 -4.043887E+05 -2.806123E+05 -9.272705E+05 -1.659204E+05 -5.258748E+04
       177  27 -2.576783E+06 -7.877325E+05 -5.233067E+05 -8.719637E+05 -2.556105E+05 -9.276815E+04
       178   1 -1.361657E+06 -2.018536E+05 -1.708944E+05 -2.097723E+04  8.261450E+04  7.902752E+03
       178   2 -1.329085E+06 -3.098719E+05 -2.296540E+05  6.213008E+03  5.686234E+04  2.209944E+04
       178   3 -1.252298E+06 -2.789041E+05 -2.356667E+05 -4.434383E+04  3.117932E+04  1.863185E+04
       178   4 -1.516048E+05  1.004775E+05  1.305474E+05 -3.472369E+04  8.883305E+04  7.928112E+03
       178   5 -1.741068E+05 -2.164766E+04  5.557036E+04  4.376339E+03  5.837376E+04  2.210142E+04
       178   6 -1.516441E+05 -4.103425E+03  3.653925E+04 -3.426107E+04  2.798615E+04  1.862391E+04
       178   7  1.059778E+06  4.026994E+05  4.318796E+05 -4.849851E+04  9.506360E+04  7.953173E+03
       178   8  9.820861E+05  2.664770E+05  3.406959E+05  2.535232E+03  5.988790E+04  2.210340E+04
       178   9  9.501123E+05  2.706070E+05  3.086552E+05 -2.416090E+04  2.478728E+04  1.861588E+04
       178  10 -1.361665E+06 -2.018555E+05 -1.709074E+05 -2.097775E+04  1.451486E-09  1.773069E-10
       178  11 -1.329089E+06 -3.098733E+05 -2.296610E+05  6.211995E+03  1.097262E-09 -2.329093E-09
       178  12 -1.252299E+06 -2.789047E+05 -2.356692E+05 -4.434429E+04 -5.863106E-10  7.907166E-11
       178  13 -1.516133E+05  1.004754E+05  1.305324E+05 -3.472426E+04  2.862069E-11 -1.696962E-09
       178  14 -1.741106E+05 -2.164910E+04  5.556304E+04  4.375300E+03 -4.407970E-10 -1.125418E-09
       178  15 -1.516450E+05 -4.104007E+03  3.653713E+04 -3.426149E+04  2.626631E-09 -1.502702E-10
       178  16  1.059769E+06  4.026969E+05  4.318625E+05 -4.849912E+04 -6.211824E-10  1.497521E-09
       178  17  9.820821E+05  2.664755E+05  3.406882E+05  2.534167E+03 -2.511417E-09 -1.774466E-09
       178  18  9.501116E+05  2.706064E+05  3.086534E+05 -2.416127E+04  1.170201E-09 -2.182272E-10
       178  19 -1.361657E+06 -2.018536E+05 -1.708944E+05 -2.097723E+04 -8.261450E+04 -7.902752E+03
       178  20 -1.329085E+06 -3.098719E+05 -2.296540E+05  6.213008E+03 -5.686234E+04 -2.209944E+04
       178  21 -1.252298E+06 -2.789041E+05 -2.356667E+05 -4.434383E+04 -3.117932E+04 -1.863185E+04
       178  22 -1.516048E+05  1.004775E+05  1.305474E+05 -3.472369E+04 -8.883305E+04 -7.928112E+03
       178  23 -1.741068E+05 -2.164766E+04  5.557036E+04  4.376339E+03 -5.837376E+04 -2.210142E+04
       178  24 -1.516441E+05 -4.103425E+03  3.653925E+04 -3.426107E+04 -2.798615E+04 -1.862391E+04
       178  25  1.059778E+06  4.026994E+05  4.318796E+05 -4.849851E+04 -9.506360E+04 -7.953173E+03
       178  26  9.820861E+05  2.664770E+05  3.406959E+05  2.535232E+03 -5.988790E+04 -2.210340E+04
       178  27  9.501123E+05  2.706070E+05  3.086552E+05 -2.416090E+04 -2.478728E+04 -1.861588E+04
       179   1 -1.074550E+06 -2.147168E+05 -1.963619E+05 -3.344178E+04  2.164002E+04  1.477735E+04
       179   2 -1.023001E+06 -2.175337E+05 -1.979872E+05  5.341083E+03  1.472862E+04  1.490430E+04
       179   3 -9.626086E+05 -2.009152E+05 -1.896218E+05 -3.558567E+04  7.813548E+03  1.271922E+04
       179   4 -1.595234E+05  1.369271E+04  3.002275E+04 -3.484815E+04  2.200244E+04  1.477636E+04
       179   5 -1.640051E+05 -3.146317E+03  1.435029E+04  5.011561E+03  1.447167E+04  1.490288E+04
       179   6 -1.595451E+05 -4.552832E+02  9.088986E+03 -3.483137E+04  6.937837E+03  1.271879E+04
       179   7  7.562650E+05  2.420395E+05  2.563452E+05 -3.625683E+04  2.236538E+04  1.477537E+04
       179   8  6.956626E+05  2.111860E+05  2.266330E+05  4.681523E+03  1.421435E+04  1.490147E+04
       179   9  6.441051E+05  1.999564E+05  2.077518E+05 -3.407597E+04  6.060989E+03  1.271835E+04
       179  10 -1.074551E+06 -2.147171E+05 -1.963632E+05 -3.344204E+04  9.862559E-10  4.320955E-10
       179  11 -1.023002E+06 -2.175340E+05 -1.979880E+05  5.340906E+03 -2.987721E-10 -6.335950E-10
       179  12 -9.626087E+05 -2.009154E+05 -1.896222E+05 -3.558575E+04  4.508371E-10  7.570148E-10
       179  13 -1.595240E+05  1.369234E+04  3.002143E+04 -3.484841E+04  1.106432E-09 -6.888713E-10
       179  14 -1.640053E+05 -3.146612E+03  1.434948E+04  5.011387E+03 -1.117535E-10  2.588326E-10
       179  15 -1.595452E+05 -4.554698E+02  9.088592E+03 -3.483144E+04  7.872633E-10  3.296566E-10
       179  16  7.562644E+05  2.420392E+05  2.563438E+05 -3.625709E+04  2.783668E-09  5.303471E-10
       179  17  6.956624E+05  2.111857E+05  2.266322E+05  4.681352E+03  1.264782E-09 -5.845791E-10
       179  18  6.441050E+05  1.999562E+05  2.077514E+05 -3.407604E+04  1.446225E-09  1.901904E-11
       179  19 -1.074550E+06 -2.147168E+05 -1.963619E+05 -3.344178E+04 -2.164002E+04 -1.477735E+04
       179  20 -1.023001E+06 -2.175337E+05 -1.979872E+05  5.341083E+03 -1.472862E+04 -1.490430E+04
       179  21 -9.626086E+05 -2.009152E+05 -1.896218E+05 -3.558567E+04 -7.813548E+03 -1.271922E+04
       179  22 -1.595234E+05  1.369271E+04  3.002275E+04 -3.484815E+04 -2.200244E+04 -1.477636E+04
       179  23 -1.640051E+05 -3.146317E+03  1.435029E+04  5.011561E+03 -1.447167E+04 -1.490288E+04
       179  24 -1.595451E+05 -4.552832E+02  9.088986E+03 -3.483137E+04 -6.937837E+03 -1.271879E+04
       179  25  7.562650E+05  2.420395E+05  2.563452E+05 -3.625683E+04 -2.236538E+04 -1.477537E+04
       179  26  6.956626E+05  2.111860E+05  2.266330E+05  4.681523E+03 -1.421435E+04 -1.490147E+04
       179  27  6.441051E+05  1.999564E+05  2.077518E+05 -3.407597E+04 -6.060989E+03 -1.271835E+04
       180   1 -7.736731E+05 -1.510447E+05 -1.441726E+05 -3.440480E+04  5.864845E+03  1.120515E+04
       180   2 -7.175278E+05 -1.391266E+05 -1.336433E+05  6.222028E+03  4.055985E+03  9.475705E+03
       180   3 -6.595079E+05 -1.242812E+05 -1.210202E+05 -3.442215E+04  2.242778E+03  7.427753E+03
       180   4 -1.610239E+05  1.817580E+03  7.146514E+03 -3.518154E+04  5.453701E+03  1.120492E+04
       180   5 -1.619738E+05 -4.906725E+02  3.687110E+03  5.450762E+03  3.559146E+03  9.476036E+03
       180   6 -1.610374E+05  1.425671E+02  2.379846E+03 -3.518341E+04  1.660411E+03  7.428786E+03
       180   7  4.519667E+05  1.546519E+05  1.584378E+05 -3.595894E+04  5.042149E+03  1.120469E+04
       180   8  3.938610E+05  1.381222E+05  1.409946E+05  4.678927E+03  3.061861E+03  9.476369E+03
       180   9  3.376591E+05  1.245477E+05  1.257614E+05 -3.594514E+04  1.077575E+03  7.429820E+03
       180  10 -7.736731E+05 -1.510449E+05 -1.441729E+05 -3.440486E+04 -9.295064E-10  5.443304E-10
       180  11 -7.175278E+05 -1.391267E+05 -1.336435E+05  6.221997E+03  7.544071E-10  4.101623E-10
       180  12 -6.595079E+05 -1.242813E+05 -1.210204E+05 -3.442216E+04 -8.114926E-11 -1.215322E-09
       180  13 -1.610240E+05  1.817437E+03  7.146222E+03 -3.518159E+04  1.075156E-09  3.283267E-10
       180  14 -1.619738E+05 -4.907723E+02  3.686918E+03  5.450735E+03  3.503235E-09  1.041658E-09
       180  15 -1.610374E+05  1.425071E+02  2.379737E+03 -3.518342E+04  1.593153E-09  1.914665E-09
       180  16  4.519666E+05  1.546517E+05  1.584375E+05 -3.595899E+04 -6.098028E-10  3.983574E-11
       180  17  3.938610E+05  1.381221E+05  1.409944E+05  4.678904E+03  2.281846E-09 -1.235708E-09
       180  18  3.376590E+05  1.245477E+05  1.257613E+05 -3.594514E+04  2.000102E-09 -5.245147E-11
       180  19 -7.736731E+05 -1.510447E+05 -1.441726E+05 -3.440480E+04 -5.864845E+03 -1.120515E+04
       180  20 -7.175278E+05 -1.391266E+05 -1.336433E+05  6.222028E+03 -4.055985E+03 -9.475705E+03
       180  21 -6.595079E+05 -1.242812E+05 -1.210202E+05 -3.442215E+04 -2.242778E+03 -7.427753E+03
       180  22 -1.610239E+05  1.817580E+03  7.146514E+03 -3.518154E+04 -5.453701E+03 -1.120492E+04
       180  23 -1.619738E+05 -4.906725E+02  3.687110E+03  5.450762E+03 -3.559146E+03 -9.476036E+03
       180  24 -1.610374E+05  1.425671E+02  2.379846E+03 -3.518341E+04 -1.660411E+03 -7.428786E+03
       180  25  4.519667E+05  1.546519E+05  1.584378E+05 -3.595894E+04 -5.042149E+03 -1.120469E+04
       180  26  3.938610E+05  1.381222E+05  1.409946E+05  4.678927E+03 -3.061861E+03 -9.476369E+03
       180  27  3.376591E+05  1.245477E+05  1.257614E+05 -3.594514E+04 -1.077575E+03 -7.429820E+03
       181   1 -4.664979E+05 -7.574012E+04 -7.337895E+04 -3.474994E+04  1.786758E+03  6.199468E+03
       181   2 -4.087296E+05 -6.180735E+04 -5.995857E+04  6.239809E+03  1.204005E+03  4.205210E+03
       181   3 -3.510364E+05 -4.707723E+04 -4.603319E+04 -3.493102E+04  6.193763E+02  2.165800E+03
       181   4 -1.614221E+05  3.454338E+02  1.851735E+03 -3.538070E+04  1.266494E+03  6.200674E+03
       181   5 -1.613875E+05 -9.419772E+01  1.174277E+03  5.698482E+03  6.715562E+02  4.206670E+03
       181   6 -1.614280E+05  2.660302E+02  1.010552E+03 -3.538086E+04  7.479749E+01  2.167533E+03
       181   7  1.437385E+05  7.642405E+04  7.707553E+04 -3.601171E+04  7.459736E+02  6.201881E+03
       181   8  8.601033E+04  6.161439E+04  6.230258E+04  5.156980E+03  1.388957E+02  4.208130E+03
       181   9  2.821306E+04  4.760660E+04  4.805162E+04 -3.583082E+04 -4.699476E+02  2.169266E+03
       181  10 -4.664979E+05 -7.574017E+04 -7.337902E+04 -3.474995E+04  5.232026E-10  4.434682E-11
       181  11 -4.087297E+05 -6.180737E+04 -5.995860E+04  6.239805E+03  2.964793E-10  2.246809E-10
       181  12 -3.510364E+05 -4.707724E+04 -4.603320E+04 -3.493102E+04  1.979240E-10 -1.441371E-09
       181  13 -1.614221E+05  3.453921E+02  1.851660E+03 -3.538070E+04 -2.370598E-11 -1.551139E-09
       181  14 -1.613875E+05 -9.421684E+01  1.174243E+03  5.698480E+03  4.177996E-10  5.330419E-10
       181  15 -1.614280E+05  2.660251E+02  1.010543E+03 -3.538086E+04  6.768328E-10 -2.391402E-09
       181  16  1.437385E+05  7.642401E+04  7.707546E+04 -3.601171E+04  6.069259E-10  1.172569E-09
       181  17  8.601033E+04  6.161437E+04  6.230254E+04  5.156979E+03  1.369461E-09 -1.082082E-09
       181  18  2.821306E+04  4.760659E+04  4.805161E+04 -3.583082E+04  1.180693E-09 -3.605917E-09
       181  19 -4.664979E+05 -7.574012E+04 -7.337895E+04 -3.474994E+04 -1.786758E+03 -6.199468E+03
       181  20 -4.087296E+05 -6.180735E+04 -5.995857E+04  6.239809E+03 -1.204005E+03 -4.205210E+03
       181  21 -3.510364E+05 -4.707723E+04 -4.603319E+04 -3.493102E+04 -6.193763E+02 -2.165800E+03
       181  22 -1.614221E+05  3.454338E+02  1.851735E+03 -3.538070E+04 -1.266494E+03 -6.200674E+03
       181  23 -1.613875E+05 -9.419772E+01  1.174277E+03  5.698482E+03 -6.715562E+02 -4.206670E+03
       181  24 -1.614280E+05  2.660302E+02  1.010552E+03 -3.538086E+04 -7.479749E+01 -2.167533E+03
       181  25  1.437385E+05  7.642405E+04  7.707553E+04 -3.601171E+04 -7.459736E+02 -6.201881E+03
       181  26  8.601033E+04  6.161439E+04  6.230258E+04  5.156980E+03 -1.388957E+02 -4.208130E+03
       181  27  2.821306E+04  4.760660E+04  4.805162E+04 -3.583082E+04  4.699476E+02 -2.169266E+03
       182   1 -1.563316E+05  1.552062E+03  2.454648E+03 -3.542144E+04  4.293167E+02  9.642810E+02
       182   2 -9.826833E+04  1.563640E+04  1.681591E+04  5.602487E+03 -2.049456E+02 -1.074254E+03
       182   3 -4.054651E+04  3.058282E+04  3.167206E+04 -3.573871E+04 -8.387427E+02 -3.081740E+03
       182   4 -1.614765E+05  2.324990E+02  1.002221E+03 -3.542709E+04 -1.134016E+02  9.660833E+02
       182   5 -1.613024E+05 -8.800672E+01  1.239813E+03  5.756068E+03 -7.394460E+02 -1.072543E+03
       182   6 -1.614750E+05  4.521979E+02  1.966633E+03 -3.542640E+04 -1.364967E+03 -3.080107E+03
       182   7 -1.666215E+05 -1.087066E+03 -4.502065E+02 -3.543275E+04 -6.561153E+02  9.678855E+02
       182   8 -2.243329E+05 -1.581271E+04 -1.433658E+04  5.909636E+03 -1.273892E+03 -1.070832E+03
       182   9 -2.823901E+05 -2.967951E+04 -2.773987E+04 -3.511414E+04 -1.891089E+03 -3.078475E+03
       182  10 -1.563316E+05  1.552061E+03  2.454646E+03 -3.542144E+04  1.033717E-10  1.430929E-09
       182  11 -9.826833E+04  1.563640E+04  1.681591E+04  5.602487E+03  1.043865E-09  5.599000E-09
       182  12 -4.054651E+04  3.058281E+04  3.167204E+04 -3.573871E+04  7.759801E-10 -3.469297E-09
       182  13 -1.614765E+05  2.324980E+02  1.002219E+03 -3.542709E+04  1.074946E-09 -2.092042E-10
       182  14 -1.613024E+05 -8.800810E+01  1.239809E+03  5.756067E+03 -1.669508E-10 -6.680435E-10
       182  15 -1.614750E+05  4.521872E+02  1.966611E+03 -3.542640E+04 -1.435410E-09 -4.693585E-10
       182  16 -1.666215E+05 -1.087067E+03 -4.502090E+02 -3.543275E+04 -3.141672E-10 -1.686030E-10
       182  17 -2.243329E+05 -1.581271E+04 -1.433659E+04  5.909635E+03 -9.551577E-10  3.570850E-11
       182  18 -2.823901E+05 -2.967952E+04 -2.773989E+04 -3.511415E+04  9.835230E-10 -1.972480E-10
       182  19 -1.563316E+05  1.552062E+03  2.454648E+03 -3.542144E+04 -4.293167E+02 -9.642810E+02
       182  20 -9.826833E+04  1.563640E+04  1.681591E+04  5.602487E+03  2.049456E+02  1.074254E+03
       182  21 -4.054651E+04  3.058282E+04  3.167206E+04 -3.573871E+04  8.387427E+02  3.081740E+03
       182  22 -1.614765E+05  2.324990E+02  1.002221E+03 -3.542709E+04  1.134016E+02 -9.660833E+02
       182  23 -1.613024E+05 -8.800672E+01  1.239813E+03  5.756068E+03  7.394460E+02  1.072543E+03
       182  24 -1.614750E+05  4.521979E+02  1.966633E+03 -3.542640E+04  1.364967E+03  3.080107E+03
       182  25 -1.666215E+05 -1.087066E+03 -4.502065E+02 -3.543275E+04  6.561153E+02 -9.678855E+02
       182  26 -2.243329E+05 -1.581271E+04 -1.433658E+04  5.909636E+03  1.273892E+03  1.070832E+03
       182  27 -2.823901E+05 -2.967951E+04 -2.773987E+04 -3.511414E+04  1.891089E+03  3.078475E+03
       183   1  1.542280E+05  7.886825E+04  8.060753E+04 -3.586564E+04 -1.196792E+03 -4.309520E+03
       183   2  2.112328E+05  9.252956E+04  9.613946E+04  4.851708E+03 -3.316017E+03 -6.361825E+03
       183   3  2.693733E+05  1.094482E+05  1.138702E+05 -3.630562E+04 -5.432278E+03 -8.142831E+03
       183   4 -1.611768E+05  1.648318E+02  2.498383E+03 -3.531995E+04 -1.775526E+03 -4.307904E+03
       183   5 -1.617325E+05 -4.911572E+02  3.996944E+03  5.621028E+03 -3.822030E+03 -6.360768E+03
       183   6 -1.611676E+05  2.098703E+03  7.645001E+03 -3.531573E+04 -5.865378E+03 -8.142251E+03
       183   7 -4.764913E+05 -7.854603E+04 -7.561817E+04 -3.477446E+04 -2.353965E+03 -4.306290E+03
       183   8 -5.345714E+05 -9.352226E+04 -8.815589E+04  6.389966E+03 -4.327740E+03 -6.359712E+03
       183   9 -5.915400E+05 -1.052646E+05 -9.859394E+04 -3.432643E+04 -6.298176E+03 -8.141672E+03
       183  10  1.542280E+05  7.886823E+04  8.060749E+04 -3.586565E+04 -8.763473E-10 -4.701773E-09
       183  11  2.112328E+05  9.252951E+04  9.613936E+04  4.851691E+03 -1.592048E-10 -1.784051E-10
       183  12  2.693732E+05  1.094481E+05  1.138700E+05 -3.630566E+04 -1.746174E-09 -5.321139E-10
       183  13 -1.611769E+05  1.648111E+02  2.498342E+03 -3.531995E+04 -1.043454E-09 -8.445791E-10
       183  14 -1.617326E+05 -4.912046E+02  3.996841E+03  5.621009E+03  2.460274E-09 -1.084880E-10
       183  15 -1.611677E+05  2.098623E+03  7.644812E+03 -3.531577E+04 -2.009418E-09  5.001992E-10
       183  16 -4.764914E+05 -7.854605E+04 -7.561821E+04 -3.477447E+04  3.449024E-10 -2.338028E-10
       183  17 -5.345715E+05 -9.352231E+04 -8.815600E+04  6.389944E+03  6.091748E-10  3.168864E-09
       183  18 -5.915401E+05 -1.052647E+05 -9.859414E+04 -3.432647E+04  1.623318E-09 -6.900751E-10
       183  19  1.542280E+05  7.886825E+04  8.060753E+04 -3.586564E+04  1.196792E+03  4.309520E+03
       183  20  2.112328E+05  9.252956E+04  9.613946E+04  4.851708E+03  3.316017E+03  6.361825E+03
       183  21  2.693733E+05  1.094482E+05  1.138702E+05 -3.630562E+04  5.432278E+03  8.142831E+03
       183  22 -1.611768E+05  1.648318E+02  2.498383E+03 -3.531995E+04  1.775526E+03  4.307904E+03
       183  23 -1.617325E+05 -4.911572E+02  3.996944E+03  5.621028E+03  3.822030E+03  6.360768E+03
       183  24 -1.611676E+05  2.098703E+03  7.645001E+03 -3.531573E+04  5.865378E+03  8.142251E+03
       183  25 -4.764913E+05 -7.854603E+04 -7.561817E+04 -3.477446E+04  2.353965E+03  4.306290E+03
       183  26 -5.345714E+05 -9.352226E+04 -8.815589E+04  6.389966E+03  4.327740E+03  6.359712E+03
       183  27 -5.915400E+05 -1.052646E+05 -9.859394E+04 -3.432643E+04  6.298176E+03  8.141672E+03
       184   1  4.634036E+05  1.550009E+05  1.637785E+05 -3.463812E+04 -6.604104E+03 -9.620561E+03
       184   2  5.161329E+05  1.662048E+05  1.833771E+05  4.181617E+03 -1.525037E+04 -1.178864E+04
       184   3  5.769625E+05  1.985913E+05  2.142340E+05 -3.769525E+04 -2.389208E+04 -1.195568E+04
       184   4 -1.597033E+05 -4.097920E+02  9.689780E+03 -3.506047E+04 -7.439796E+03 -9.619636E+03
       184   5 -1.637001E+05 -3.311174E+03  1.548732E+04  5.293216E+03 -1.554950E+04 -1.178918E+04
       184   6 -1.596855E+05  1.488928E+04  3.217944E+04 -3.505509E+04 -2.365386E+04 -1.195674E+04
       184   7 -7.824575E+05 -1.558496E+05 -1.444277E+05 -3.548223E+04 -8.274647E+03 -9.618710E+03
       184   8 -8.431131E+05 -1.728616E+05 -1.524368E+05  6.403702E+03 -1.584829E+04 -1.178971E+04
       184   9 -8.958406E+05 -1.688533E+05 -1.499154E+05 -3.241801E+04 -2.341591E+04 -1.195780E+04
       184  10  4.634035E+05  1.550008E+05  1.637782E+05 -3.463817E+04  2.256896E-10 -1.791785E-10
       184  11  5.161327E+05  1.662046E+05  1.833764E+05  4.181472E+03  1.054175E-09 -1.766937E-09
       184  12  5.769618E+05  1.985910E+05  2.142327E+05 -3.769548E+04 -9.700810E-10 -1.098706E-09
       184  13 -1.597034E+05 -4.099063E+02  9.689502E+03 -3.506053E+04 -1.082200E-09  1.682997E-09
       184  14 -1.637004E+05 -3.311388E+03  1.548661E+04  5.293068E+03 -1.964760E-09  1.113204E-09
       184  15 -1.596862E+05  1.488897E+04  3.217812E+04 -3.505532E+04  3.977062E-10  3.109151E-10
       184  16 -7.824576E+05 -1.558497E+05 -1.444281E+05 -3.548229E+04 -1.033076E-09 -1.296976E-09
       184  17 -8.431134E+05 -1.728618E+05 -1.524375E+05  6.403552E+03 -1.314657E-09 -1.278909E-09
       184  18 -8.958412E+05 -1.688536E+05 -1.499167E+05 -3.241824E+04 -3.738609E-10  3.881591E-11
       184  19  4.634036E+05  1.550009E+05  1.637785E+05 -3.463812E+04  6.604104E+03  9.620561E+03
       184  20  5.161329E+05  1.662048E+05  1.833771E+05  4.181617E+03  1.525037E+04  1.178864E+04
       184  21  5.769625E+05  1.985913E+05  2.142340E+05 -3.769525E+04  2.389208E+04  1.195568E+04
       184  22 -1.597033E+05 -4.097920E+02  9.689780E+03 -3.506047E+04  7.439796E+03  9.619636E+03
       184  23 -1.637001E+05 -3.311174E+03  1.548732E+04  5.293216E+03  1.554950E+04  1.178918E+04
       184  24 -1.596855E+05  1.488928E+04  3.217944E+04 -3.505509E+04  2.365386E+04  1.195674E+04
       184  25 -7.824575E+05 -1.558496E+05 -1.444277E+05 -3.548223E+04  8.274647E+03  9.618710E+03
       184  26 -8.431131E+05 -1.728616E+05 -1.524368E+05  6.403702E+03  1.584829E+04  1.178971E+04
       184  27 -8.958406E+05 -1.688533E+05 -1.499154E+05 -3.241801E+04  2.341591E+04  1.195780E+04
       185   1  7.741584E+05  2.265167E+05  2.677707E+05 -2.528546E+04 -2.720319E+04 -1.545288E+04
       185   2  8.066137E+05  2.213764E+05  3.017110E+05  7.601528E+02 -6.395227E+04 -1.872105E+04
       185   3  8.856486E+05  3.666988E+05  3.980151E+05 -5.218720E+04 -1.007358E+05 -6.689404E+03
       185   4 -1.513646E+05 -4.250079E+03  3.913742E+04 -3.460507E+04 -3.005320E+04 -1.545476E+04
       185   5 -1.743118E+05 -2.310276E+04  5.978856E+04  4.761016E+03 -6.271293E+04 -1.872165E+04
       185   6 -1.513292E+05  1.079214E+05  1.400325E+05 -3.487187E+04 -9.540356E+04 -6.679695E+03
       185   7 -1.076109E+06 -2.350805E+05 -1.895594E+05 -4.391083E+04 -3.289893E+04 -1.545655E+04
       185   8 -1.154363E+06 -2.676536E+05 -1.822051E+05  8.755238E+03 -6.147549E+04 -1.872225E+04
       185   9 -1.187331E+06 -1.509354E+05 -1.180304E+05 -1.758602E+04 -9.008008E+04 -6.669684E+03
       185  10  7.741576E+05  2.265163E+05  2.677689E+05 -2.528579E+04 -5.325382E-10 -8.812371E-11
       185  11  8.066093E+05  2.213749E+05  3.017027E+05  7.591893E+02 -5.114340E-10  3.855169E-10
       185  12  8.856377E+05  3.666960E+05  3.979960E+05 -5.218775E+04 -3.069264E-10 -1.740574E-10
       185  13 -1.513656E+05 -4.250578E+03  3.913527E+04 -3.460545E+04 -1.106385E-09  1.434266E-10
       185  14 -1.743161E+05 -2.310419E+04  5.978051E+04  4.760070E+03 -8.527445E-10  2.296404E-09
       185  15 -1.513390E+05  1.079189E+05  1.400153E+05 -3.487238E+04 -9.932337E-10 -4.561192E-10
       185  16 -1.076111E+06 -2.350810E+05 -1.895619E+05 -4.391124E+04  2.195686E-09  3.672949E-10
       185  17 -1.154367E+06 -2.676550E+05 -1.822129E+05  8.754310E+03 -5.503118E-10  1.199955E-10
       185  18 -1.187340E+06 -1.509377E+05 -1.180458E+05 -1.758651E+04 -1.664763E-09 -1.153580E-09
       185  19  7.741584E+05  2.265167E+05  2.677707E+05 -2.528546E+04  2.720319E+04  1.545288E+04
       185  20  8.066137E+05  2.213764E+05  3.017110E+05  7.601528E+02  6.395227E+04  1.872105E+04
       185  21  8.856486E+05  3.666988E+05  3.980151E+05 -5.218720E+04  1.007358E+05  6.689404E+03
       185  22 -1.513646E+05 -4.250079E+03  3.913742E+04 -3.460507E+04  3.005320E+04  1.545476E+04
       185  23 -1.743118E+05 -2.310276E+04  5.978856E+04  4.761016E+03  6.271293E+04  1.872165E+04
       185  24 -1.513292E+05  1.079214E+05  1.400325E+05 -3.487187E+04  9.540356E+04  6.679695E+03
       185  25 -1.076109E+06 -2.350805E+05 -1.895594E+05 -4.391083E+04  3.289893E+04  1.545655E+04
       185  26 -1.154363E+06 -2.676536E+05 -1.822051E+05  8.755238E+03  6.147549E+04  1.872225E+04
       185  27 -1.187331E+06 -1.509354E+05 -1.180304E+05 -1.758602E+04  9.008008E+04  6.669684E+03
       186   1  2.806058E+05  7.659725E+05  3.356549E+05 -1.135859E+05  1.382731E+03  1.636455E+05
       186   2  2.104494E+04  6.058159E+05  1.684901E+05 -7.247100E+02  4.569145E+03  1.028686E+05
       186   3  2.617193E+04  5.175409E+05  1.066016E+05 -6.369824E+04  1.836033E+02  4.205894E+04
       186   4  1.878717E+05  3.962851E+05  2.436018E+05 -7.840228E+04  1.401328E+03  1.618349E+05
       186   5 -4.020023E+04  3.605092E+05  1.080577E+05  9.007295E+03  4.569490E+03  1.030903E+05
       186   6 -3.875659E+03  3.962944E+05  7.642668E+04 -7.941613E+04  1.693125E+02  4.430083E+04
       186   7  9.513190E+04  2.672412E+04  1.515391E+05 -4.323942E+04  1.419728E+03  1.600254E+05
       186   8 -1.014496E+05  1.152574E+05  4.762084E+04  1.873553E+04  4.569841E+03  1.033120E+05
       186   9 -3.392339E+04  2.750618E+05  4.625083E+04 -9.513093E+04  1.549067E+02  4.654229E+04
       186  10  2.805986E+05  7.659438E+05  3.356046E+05 -1.135861E+05  1.712766E-09  6.529638E-10
       186  11  2.104209E+04  6.058045E+05  1.684702E+05 -7.250884E+02 -1.284993E-10 -9.621545E-10
       186  12  2.617145E+04  5.175390E+05  1.065983E+05 -6.369825E+04 -6.714494E-10  1.509244E-09
       186  13  1.878647E+05  3.962570E+05  2.435526E+05 -7.840246E+04  3.148984E-09 -1.454157E-09
       186  14 -4.020310E+04  3.604978E+05  1.080377E+05  9.006916E+03  1.210449E-09 -1.571034E-09
       186  15 -3.876186E+03  3.962923E+05  7.642299E+04 -7.941613E+04 -9.703280E-10 -3.094955E-09
       186  16  9.512503E+04  2.669663E+04  1.514910E+05 -4.323960E+04  9.756048E-11 -1.360925E-09
       186  17 -1.014524E+05  1.152460E+05  4.760075E+04  1.873515E+04  3.994888E-09 -5.064351E-10
       186  18 -3.392397E+04  2.750595E+05  4.624677E+04 -9.513093E+04 -8.198526E-10  9.684611E-10
       186  19  2.806058E+05  7.659725E+05  3.356549E+05 -1.135859E+05 -1.382731E+03 -1.636455E+05
       186  20  2.104494E+04  6.058159E+05  1.684901E+05 -7.247100E+02 -4.569145E+03 -1.028686E+05
       186  21  2.617193E+04  5.175409E+05  1.066016E+05 -6.369824E+04 -1.836033E+02 -4.205894E+04
       186  22  1.878717E+05  3.962851E+05  2.436018E+05 -7.840228E+04 -1.401328E+03 -1.618349E+05
       186  23 -4.020023E+04  3.605092E+05  1.080577E+05  9.007295E+03 -4.569490E+03 -1.030903E+05
       186  24 -3.875659E+03  3.962944E+05  7.642668E+04 -7.941613E+04 -1.693125E+02 -4.430083E+04
       186  25  9.513190E+04  2.672412E+04  1.515391E+05 -4.323942E+04 -1.419728E+03 -1.600254E+05
       186  26 -1.014496E+05  1.152574E+05  4.762084E+04  1.873553E+04 -4.569841E+03 -1.033120E+05
       186  27 -3.392339E+04  2.750618E+05  4.625083E+04 -9.513093E+04 -1.549067E+02 -4.654229E+04
       187   1 -4.765256E+04  8.746850E+04 -6.320909E+03 -8.401235E+04 -3.878277E+03  3.026841E+04
       187   2 -1.147729E+05 -4.590896E+04 -5.794884E+04  1.058352E+04 -7.379156E+03  6.566754E+03
       187   3 -1.177559E+05 -1.617511E+05 -7.844589E+04 -7.190784E+04 -9.437337E+03 -1.711778E+04
       187   4  2.632283E+04  3.842677E+05  6.720712E+04 -7.928207E+04 -3.884649E+03  3.143153E+04
       187   5 -9.685418E+03  3.754898E+05  4.612088E+04  9.227200E+03 -7.382900E+03  7.337352E+03
       187   6  1.849093E+04  3.842906E+05  5.642715E+04 -7.934210E+04 -9.438472E+03 -1.674443E+04
       187   7  1.002917E+05  6.811470E+05  1.407286E+05 -7.454941E+04 -3.891001E+03  3.259520E+04
       187   8  9.538882E+04  7.970499E+05  1.501774E+05  7.870174E+03 -7.386647E+03  8.108470E+03
       187   9  1.547157E+05  9.306034E+05  1.912781E+05 -8.678257E+04 -9.439615E+03 -1.637074E+04
       187  10 -4.765283E+04  8.746751E+04 -6.322659E+03 -8.401225E+04 -4.295200E-09  9.641568E-10
       187  11 -1.147730E+05 -4.590902E+04 -5.794902E+04  1.058355E+04 -1.685099E-09 -6.308089E-10
       187  12 -1.177561E+05 -1.617514E+05 -7.844661E+04 -7.190797E+04  6.344021E-10  1.988881E-09
       187  13  2.632255E+04  3.842666E+05  6.720524E+04 -7.928197E+04 -3.035883E-09 -1.538175E-09
       187  14 -9.685491E+03  3.754897E+05  4.612067E+04  9.227244E+03 -1.647194E-09 -1.451737E-09
       187  15  1.849076E+04  3.842903E+05  5.642645E+04 -7.934223E+04 -4.003831E-11 -2.595750E-09
       187  16  1.002914E+05  6.811458E+05  1.407266E+05 -7.454931E+04 -1.058022E-09 -1.711427E-09
       187  17  9.538874E+04  7.970498E+05  1.501772E+05  7.870223E+03 -4.090997E-09 -6.514277E-10
       187  18  1.547155E+05  9.306030E+05  1.912774E+05 -8.678269E+04 -9.278062E-10  2.002158E-10
       187  19 -4.765256E+04  8.746850E+04 -6.320909E+03 -8.401235E+04  3.878277E+03 -3.026841E+04
       187  20 -1.147729E+05 -4.590896E+04 -5.794884E+04  1.058352E+04  7.379156E+03 -6.566754E+03
       187  21 -1.177559E+05 -1.617511E+05 -7.844589E+04 -7.190784E+04  9.437337E+03  1.711778E+04
       187  22  2.632283E+04  3.842677E+05  6.720712E+04 -7.928207E+04  3.884649E+03 -3.143153E+04
       187  23 -9.685418E+03  3.754898E+05  4.612088E+04  9.227200E+03  7.382900E+03 -7.337352E+03
       187  24  1.849093E+04  3.842906E+05  5.642715E+04 -7.934210E+04  9.438472E+03  1.674443E+04
       187  25  1.002917E+05  6.811470E+05  1.407286E+05 -7.454941E+04  3.891001E+03 -3.259520E+04
       187  26  9.538882E+04  7.970499E+05  1.501774E+05  7.870174E+03  7.386647E+03 -8.108470E+03
       187  27  1.547157E+05  9.306034E+05  1.912781E+05 -8.678257E+04  9.439615E+03  1.637074E+04
       188   1 -2.425303E+05 -5.757383E+05 -1.778205E+05 -8.921040E+04 -1.509544E+04 -3.146664E+04
       188   2 -3.034652E+05 -7.319720E+05 -1.894591E+05  1.907310E+04 -2.089736E+04 -7.039749E+04
       188   3 -1.691988E+05 -8.307428E+05 -1.262041E+05 -5.363892E+04 -7.385015E+03 -1.092662E+05
       188   4 -9.164324E+02  3.931214E+05  6.178364E+04 -8.032315E+04 -1.511238E+04 -2.737679E+04
       188   5 -3.006223E+04  3.640173E+05  8.098326E+04  1.029535E+04 -2.089103E+04 -7.146979E+04
       188   6  1.367079E+05  3.931584E+05  1.785631E+05 -8.005893E+04 -7.368163E+03 -1.155089E+05
       188   7  2.406277E+05  1.362835E+06  3.013182E+05 -7.142103E+04 -1.512918E+04 -2.328053E+04
       188   8  2.432514E+05  1.461099E+06  3.513367E+05  1.502900E+03 -2.088467E+04 -7.254389E+04
       188   9  4.425044E+05  1.618421E+06  4.832185E+05 -1.065304E+05 -7.350801E+03 -1.217637E+05
       188  10 -2.425308E+05 -5.757395E+05 -1.778228E+05 -8.921078E+04 -3.050208E-10  9.512420E-10
       188  11 -3.034670E+05 -7.319775E+05 -1.894692E+05  1.907191E+04  1.799807E-09  2.069665E-11
       188  12 -1.692021E+05 -8.307557E+05 -1.262267E+05 -5.363957E+04  2.795583E-10  3.655977E-10
       188  13 -9.168788E+02  3.931206E+05  6.178180E+04 -8.032349E+04  2.260634E-09 -1.104004E-09
       188  14 -3.006407E+04  3.640117E+05  8.097284E+04  1.029415E+04  1.310574E-09 -7.585706E-10
       188  15  1.367042E+05  3.931441E+05  1.785380E+05 -8.005961E+04  5.527351E-10 -9.220750E-10
       188  16  2.406273E+05  1.362834E+06  3.013168E+05 -7.142132E+04 -1.405544E-09 -1.416393E-09
       188  17  2.432495E+05  1.461094E+06  3.513260E+05  1.501681E+03  1.683286E-09 -8.114048E-10
       188  18  4.425003E+05  1.618405E+06  4.831906E+05 -1.065311E+05  1.097598E-09  3.378758E-10
       188  19 -2.425303E+05 -5.757383E+05 -1.778205E+05 -8.921040E+04  1.509544E+04  3.146664E+04
       188  20 -3.034652E+05 -7.319720E+05 -1.894591E+05  1.907310E+04  2.089736E+04  7.039749E+04
       188  21 -1.691988E+05 -8.307428E+05 -1.262041E+05 -5.363892E+04  7.385015E+03  1.092662E+05
       188  22 -9.164324E+02  3.931214E+05  6.178364E+04 -8.032315E+04  1.511238E+04  2.737679E+04
       188  23 -3.006223E+04  3.640173E+05  8.098326E+04  1.029535E+04  2.089103E+04  7.146979E+04
       188  24  1.367079E+05  3.931584E+05  1.785631E+05 -8.005893E+04  7.368163E+03  1.155089E+05
       188  25  2.406277E+05  1.362835E+06  3.013182E+05 -7.142103E+04  1.512918E+04  2.328053E+04
       188  26  2.432514E+05  1.461099E+06  3.513367E+05  1.502900E+03  2.088467E+04  7.254389E+04
       188  27  4.425044E+05  1.618421E+06  4.832185E+05 -1.065304E+05  7.350801E+03  1.217637E+05
       189   1 -5.542861E+06 -1.764103E+06 -1.181957E+06 -1.882486E+06 -5.753415E+05 -2.084801E+05
       189   2 -5.395082E+06 -9.402809E+05 -6.517609E+05 -2.029110E+06 -3.743050E+05 -1.109433E+05
       189   3 -5.594923E+06 -9.733675E+05 -5.118703E+05 -1.952498E+06 -1.656713E+05 -3.340335E+04
       189   4 -4.593657E+06 -1.259520E+06 -8.917754E+05 -1.477989E+06 -5.664695E+05 -2.052704E+05
       189   5 -4.373962E+06 -5.136857E+05 -3.672251E+05 -1.710244E+06 -3.718520E+05 -1.100449E+05
       189   6 -4.500096E+06 -6.226623E+05 -2.273914E+05 -1.719424E+06 -1.696189E+05 -3.487858E+04
       189   7 -3.643522E+06 -7.545910E+05 -6.016830E+05 -1.072842E+06 -5.575819E+05 -2.020494E+05
       189   8 -3.351825E+06 -8.696541E+04 -8.278779E+04 -1.390878E+06 -3.693941E+05 -1.091442E+05
       189   9 -3.404107E+06 -2.719623E+05  5.699085E+04 -1.486014E+06 -1.735740E+05 -3.635562E+04
       189  10 -5.543231E+06 -1.764240E+06 -1.182668E+06 -1.882583E+06 -3.562857E-10 -5.327361E-10
       189  11 -5.395237E+06 -9.403323E+05 -6.520501E+05 -2.029144E+06 -1.351471E-09 -1.721304E-09
       189  12 -5.594953E+06 -9.733762E+05 -5.119245E+05 -1.952502E+06 -3.433563E-09  9.424002E-10
       189  13 -4.594015E+06 -1.259653E+06 -8.924632E+05 -1.478083E+06  2.391566E-09 -2.687472E-09
       189  14 -4.374115E+06 -5.137363E+05 -3.675100E+05 -1.710277E+06 -3.584820E-09 -2.299306E-09
       189  15 -4.500127E+06 -6.226715E+05 -2.274482E+05 -1.719429E+06  1.072607E-09 -1.194074E-09
       189  16 -3.643869E+06 -7.547192E+05 -6.023483E+05 -1.072933E+06  1.474132E-10 -7.712479E-10
       189  17 -3.351976E+06 -8.701520E+04 -8.306839E+04 -1.390911E+06  3.582140E-09 -2.505008E-09
       189  18 -3.404140E+06 -2.719719E+05  5.693137E+04 -1.486019E+06  8.963990E-10 -7.486462E-10
       189  19 -5.542861E+06 -1.764103E+06 -1.181957E+06 -1.882486E+06  5.753415E+05  2.084801E+05
       189  20 -5.395082E+06 -9.402809E+05 -6.517609E+05 -2.029110E+06  3.743050E+05  1.109433E+05
       189  21 -5.594923E+06 -9.733675E+05 -5.118703E+05 -1.952498E+06  1.656713E+05  3.340335E+04
       189  22 -4.593657E+06 -1.259520E+06 -8.917754E+05 -1.477989E+06  5.664695E+05  2.052704E+05
       189  23 -4.373962E+06 -5.136857E+05 -3.672251E+05 -1.710244E+06  3.718520E+05  1.100449E+05
       189  24 -4.500096E+06 -6.226623E+05 -2.273914E+05 -1.719424E+06  1.696189E+05  3.487858E+04
       189  25 -3.643522E+06 -7.545910E+05 -6.016830E+05 -1.072842E+06  5.575819E+05  2.020494E+05
       189  26 -3.351825E+06 -8.696541E+04 -8.278779E+04 -1.390878E+06  3.693941E+05  1.091442E+05
       189  27 -3.404107E+06 -2.719623E+05  5.699085E+04 -1.486014E+06  1.735740E+05  3.635562E+04
       190   1 -5.447524E+06 -1.119666E+06 -4.571424E+05 -1.957086E+06 -1.357693E+05 -2.580715E+04
       190   2 -5.404073E+06 -9.800947E+05 -3.456871E+05 -1.945523E+06 -8.967634E+04 -7.419711E+03
       190   3 -5.372849E+06 -9.855021E+05 -2.989974E+05 -1.943266E+06 -4.243759E+04  7.930025E+03
       190   4 -4.464293E+06 -7.292914E+05 -1.863523E+05 -1.670944E+06 -1.351190E+05 -2.556922E+04
       190   5 -4.452270E+06 -6.154169E+05 -8.659082E+04 -1.681890E+06 -8.997209E+04 -7.534624E+03
       190   6 -4.452216E+06 -6.462197E+05 -5.075982E+04 -1.702154E+06 -4.368285E+04  7.460946E+03
       190   7 -3.480120E+06 -3.388331E+05  8.434890E+04 -1.384381E+06 -1.344675E+05 -2.533075E+04
       190   8 -3.499587E+06 -2.506796E+05  1.724236E+05 -1.417886E+06 -9.026825E+04 -7.649692E+03
       190   9 -3.530763E+06 -3.068988E+05  1.974025E+05 -1.460721E+06 -4.493012E+04  6.991159E+03
       190  10 -5.447545E+06 -1.119672E+06 -4.571787E+05 -1.957089E+06 -4.855558E-10  1.792300E-09
       190  11 -5.404082E+06 -9.800970E+05 -3.457024E+05 -1.945524E+06  1.377676E-09  3.274540E-10
       190  12 -5.372851E+06 -9.855027E+05 -2.990009E+05 -1.943266E+06 -2.743574E-09 -7.276529E-10
       190  13 -4.464313E+06 -7.292971E+05 -1.863881E+05 -1.670947E+06 -2.634166E-10  7.765622E-10
       190  14 -4.452278E+06 -6.154191E+05 -8.660626E+04 -1.681890E+06  1.100006E-09  5.074333E-10
       190  15 -4.452218E+06 -6.462203E+05 -5.076353E+04 -1.702153E+06 -2.033341E-10  5.487415E-10
       190  16 -3.480140E+06 -3.388386E+05  8.431350E+04 -1.384383E+06 -2.610433E-09 -4.440844E-10
       190  17 -3.499596E+06 -2.506818E+05  1.724081E+05 -1.417887E+06  1.444376E-10  5.307076E-10
       190  18 -3.530766E+06 -3.068994E+05  1.973986E+05 -1.460721E+06  5.828847E-09  2.501082E-09
       190  19 -5.447524E+06 -1.119666E+06 -4.571424E+05 -1.957086E+06  1.357693E+05  2.580715E+04
       190  20 -5.404073E+06 -9.800947E+05 -3.456871E+05 -1.945523E+06  8.967634E+04  7.419711E+03
       190  21 -5.372849E+06 -9.855021E+05 -2.989974E+05 -1.943266E+06  4.243759E+04 -7.930025E+03
       190  22 -4.464293E+06 -7.292914E+05 -1.863523E+05 -1.670944E+06  1.351190E+05  2.556922E+04
       190  23 -4.452270E+06 -6.154169E+05 -8.659082E+04 -1.681890E+06  8.997209E+04  7.534624E+03
       190  24 -4.452216E+06 -6.462197E+05 -5.075982E+04 -1.702154E+06  4.368285E+04 -7.460946E+03
       190  25 -3.480120E+06 -3.388331E+05  8.434890E+04 -1.384381E+06  1.344675E+05  2.533075E+04
       190  26 -3.499587E+06 -2.506796E+05  1.724236E+05 -1.417886E+06  9.026825E+04  7.649692E+03
       190  27 -3.530763E+06 -3.068988E+05  1.974025E+05 -1.460721E+06  4.493012E+04 -6.991159E+03
       191   1 -5.220801E+06 -9.607370E+05 -2.514707E+05 -1.914604E+06 -3.502308E+04  8.801852E+03
       191   2 -5.175063E+06 -8.893480E+05 -2.117978E+05 -1.862977E+06 -2.350461E+04  1.049457E+04
       191   3 -5.075500E+06 -8.916746E+05 -1.837427E+05 -1.875683E+06 -1.165399E+04  1.128419E+04
       191   4 -4.442435E+06 -6.648981E+05 -4.017568E+04 -1.701400E+06 -3.566720E+04  8.558482E+03
       191   5 -4.468582E+06 -6.225804E+05 -2.024931E+04 -1.671281E+06 -2.443778E+04  1.014415E+04
       191   6 -4.440847E+06 -6.539048E+05 -1.169813E+04 -1.705495E+06 -1.287775E+04  1.082665E+04
       191   7 -3.663483E+06 -3.690226E+05  1.710644E+05 -1.487953E+06 -3.631219E+04  8.314782E+03
       191   8 -3.761618E+06 -3.557839E+05  1.712543E+05 -1.479388E+06 -2.537212E+04  9.793299E+03
       191   9 -3.805802E+06 -4.161129E+05  1.603106E+05 -1.535149E+06 -1.410288E+04  1.036861E+04
       191  10 -5.220803E+06 -9.607374E+05 -2.514732E+05 -1.914604E+06 -1.569676E-09  1.827904E-10
       191  11 -5.175064E+06 -8.893483E+05 -2.117991E+05 -1.862977E+06 -8.004194E-11  1.144271E-10
       191  12 -5.075500E+06 -8.916747E+05 -1.837432E+05 -1.875683E+06  2.430082E-09  3.520934E-09
       191  13 -4.442436E+06 -6.648985E+05 -4.017822E+04 -1.701400E+06 -1.053761E-11  4.139295E-11
       191  14 -4.468583E+06 -6.225807E+05 -2.025063E+04 -1.671281E+06 -1.434064E-09  4.435086E-10
       191  15 -4.440847E+06 -6.539049E+05 -1.169866E+04 -1.705495E+06 -2.018372E-09  3.804817E-10
       191  16 -3.663484E+06 -3.690230E+05  1.710617E+05 -1.487952E+06  3.795994E-09  1.378392E-09
       191  17 -3.761619E+06 -3.557842E+05  1.712529E+05 -1.479387E+06 -3.039713E-09 -1.281336E-09
       191  18 -3.805803E+06 -4.161131E+05  1.603100E+05 -1.535149E+06 -4.673642E-09 -2.627124E-09
       191  19 -5.220801E+06 -9.607370E+05 -2.514707E+05 -1.914604E+06  3.502308E+04 -8.801852E+03
       191  20 -5.175063E+06 -8.893480E+05 -2.117978E+05 -1.862977E+06  2.350461E+04 -1.049457E+04
       191  21 -5.075500E+06 -8.916746E+05 -1.837427E+05 -1.875683E+06  1.165399E+04 -1.128419E+04
       191  22 -4.442435E+06 -6.648981E+05 -4.017568E+04 -1.701400E+06  3.566720E+04 -8.558482E+03
       191  23 -4.468582E+06 -6.225804E+05 -2.024931E+04 -1.671281E+06  2.443778E+04 -1.014415E+04
       191  24 -4.440847E+06 -6.539048E+05 -1.169813E+04 -1.705495E+06  1.287775E+04 -1.082665E+04
       191  25 -3.663483E+06 -3.690226E+05  1.710644E+05 -1.487953E+06  3.631219E+04 -8.314782E+03
       191  26 -3.761618E+06 -3.557839E+05  1.712543E+05 -1.479388E+06  2.537212E+04 -9.793299E+03
       191  27 -3.805802E+06 -4.161129E+05  1.603106E+05 -1.535149E+06  1.410288E+04 -1.036861E+04
       192   1 -4.874215E+06 -8.239803E+05 -1.275086E+05 -1.827089E+06 -9.300061E+03  9.839370E+03
       192   2 -4.818019E+06 -7.491395E+05 -9.866554E+04 -1.758503E+06 -5.111056E+03  7.458175E+03
       192   3 -4.687278E+06 -7.518733E+05 -7.250820E+04 -1.776577E+06 -7.968452E+02  4.729729E+03
       192   4 -4.436816E+06 -6.592535E+05 -9.311025E+03 -1.708754E+06 -1.040385E+04  9.427428E+03
       192   5 -4.473993E+06 -6.197745E+05 -5.512168E+03 -1.665686E+06 -6.329058E+03  7.004400E+03
       192   6 -4.436612E+06 -6.578435E+05 -4.305753E+03 -1.709276E+06 -2.129588E+03  4.234066E+03
       192   7 -3.999231E+06 -4.945157E+05  1.088695E+05 -1.590345E+06 -1.150850E+04  9.015165E+03
       192   8 -4.129853E+06 -4.904030E+05  8.763049E+04 -1.572822E+06 -7.547805E+03  6.550346E+03
       192   9 -4.185885E+06 -5.638105E+05  6.389089E+04 -1.641951E+06 -3.462925E+03  3.738183E+03
       192  10 -4.874215E+06 -8.239805E+05 -1.275090E+05 -1.827088E+06  2.060504E-09  2.900261E-09
       192  11 -4.818019E+06 -7.491396E+05 -9.866569E+04 -1.758503E+06  2.027049E-09  2.572550E-09
       192  12 -4.687278E+06 -7.518733E+05 -7.250825E+04 -1.776577E+06 -3.169946E-09 -4.739829E-10
       192  13 -4.436816E+06 -6.592536E+05 -9.311396E+03 -1.708754E+06 -1.707322E-09 -1.298216E-11
       192  14 -4.473993E+06 -6.197745E+05 -5.512336E+03 -1.665686E+06  3.269118E-09  1.493339E-09
       192  15 -4.436612E+06 -6.578435E+05 -4.305795E+03 -1.709276E+06 -2.084812E-09 -1.224526E-09
       192  16 -3.999232E+06 -4.945158E+05  1.088691E+05 -1.590344E+06 -1.476087E-09 -2.320033E-09
       192  17 -4.129853E+06 -4.904030E+05  8.763030E+04 -1.572822E+06  9.251677E-10 -2.510524E-09
       192  18 -4.185885E+06 -5.638105E+05  6.389084E+04 -1.641951E+06  3.538357E-10 -2.099848E-09
       192  19 -4.874215E+06 -8.239803E+05 -1.275086E+05 -1.827089E+06  9.300061E+03 -9.839370E+03
       192  20 -4.818019E+06 -7.491395E+05 -9.866554E+04 -1.758503E+06  5.111056E+03 -7.458175E+03
       192  21 -4.687278E+06 -7.518733E+05 -7.250820E+04 -1.776577E+06  7.968452E+02 -4.729729E+03
       192  22 -4.436816E+06 -6.592535E+05 -9.311025E+03 -1.708754E+06  1.040385E+04 -9.427428E+03
       192  23 -4.473993E+06 -6.197745E+05 -5.512168E+03 -1.665686E+06  6.329058E+03 -7.004400E+03
       192  24 -4.436612E+06 -6.578435E+05 -4.305753E+03 -1.709276E+06  2.129588E+03 -4.234066E+03
       192  25 -3.999231E+06 -4.945157E+05  1.088695E+05 -1.590345E+06  1.150850E+04 -9.015165E+03
       192  26 -4.129853E+06 -4.904030E+05  8.763049E+04 -1.572822E+06  7.547805E+03 -6.550346E+03
       192  27 -4.185885E+06 -5.638105E+05  6.389089E+04 -1.641951E+06  3.462925E+03 -3.738183E+03
       193   1 -4.459693E+06 -6.679364E+05 -1.041648E+04 -1.717011E+06  7.532861E+02  2.665157E+03
       193   2 -4.400304E+06 -5.904930E+05  1.504902E+04 -1.644141E+06  4.788043E+03 -2.543254E+02
       193   3 -4.262488E+06 -5.946494E+05  3.801895E+04 -1.662951E+06  8.789490E+03 -3.080028E+03
       193   4 -4.435749E+06 -6.588323E+05 -4.279298E+03 -1.710352E+06 -5.631907E+02  2.175804E+03
       193   5 -4.475034E+06 -6.185869E+05 -5.179465E+03 -1.664303E+06  3.502529E+03 -7.323654E+02
       193   6 -4.435910E+06 -6.599498E+05 -8.599921E+03 -1.709939E+06  7.534468E+03 -3.546881E+03
       193   7 -4.411803E+06 -6.497280E+05  1.857863E+03 -1.703693E+06 -1.879726E+03  1.686428E+03
       193   8 -4.549758E+06 -6.466804E+05 -2.540847E+04 -1.684463E+06  2.217185E+03 -1.210342E+03
       193   9 -4.609302E+06 -7.252485E+05 -5.522146E+04 -1.756915E+06  6.279834E+03 -4.013590E+03
       193  10 -4.459693E+06 -6.679365E+05 -1.041650E+04 -1.717011E+06 -1.434138E-09  1.007552E-09
       193  11 -4.400304E+06 -5.904930E+05  1.504898E+04 -1.644141E+06  3.740715E-09  2.123671E-09
       193  12 -4.262488E+06 -5.946494E+05  3.801879E+04 -1.662951E+06  2.882896E-09 -6.110269E-10
       193  13 -4.435749E+06 -6.588323E+05 -4.279307E+03 -1.710352E+06 -2.409040E-09 -2.222820E-09
       193  14 -4.475034E+06 -6.185869E+05 -5.179489E+03 -1.664303E+06  3.598458E-09  2.398062E-09
       193  15 -4.435910E+06 -6.599498E+05 -8.600052E+03 -1.709939E+06  2.415966E-09  7.685948E-10
       193  16 -4.411803E+06 -6.497280E+05  1.857851E+03 -1.703693E+06 -3.380155E-10 -1.514693E-09
       193  17 -4.549758E+06 -6.466804E+05 -2.540848E+04 -1.684463E+06  1.766315E-09 -3.863422E-10
       193  18 -4.609302E+06 -7.252485E+05 -5.522156E+04 -1.756915E+06  6.214985E-10 -7.259045E-11
       193  19 -4.459693E+06 -6.679364E+05 -1.041648E+04 -1.717011E+06 -7.532861E+02 -2.665157E+03
       193  20 -4.400304E+06 -5.904930E+05  1.504902E+04 -1.644141E+06 -4.788043E+03  2.543254E+02
       193  21 -4.262488E+06 -5.946494E+05  3.801895E+04 -1.662951E+06 -8.789490E+03  3.080028E+03
       193  22 -4.435749E+06 -6.588323E+05 -4.279298E+03 -1.710352E+06  5.631907E+02 -2.175804E+03
       193  23 -4.475034E+06 -6.185869E+05 -5.179465E+03 -1.664303E+06 -3.502529E+03  7.323654E+02
       193  24 -4.435910E+06 -6.599498E+05 -8.599921E+03 -1.709939E+06 -7.534468E+03  3.546881E+03
       193  25 -4.411803E+06 -6.497280E+05  1.857863E+03 -1.703693E+06  1.879726E+03 -1.686428E+03
       193  26 -4.549758E+06 -6.466804E+05 -2.540847E+04 -1.684463E+06 -2.217185E+03  1.210342E+03
       193  27 -4.609302E+06 -7.252485E+05 -5.522146E+04 -1.756915E+06 -6.279834E+03  4.013590E+03
       194   1 -4.043975E+06 -5.093913E+05  9.608279E+04 -1.603415E+06  1.131522E+04 -4.734836E+03
       194   2 -3.990461E+06 -4.379862E+05  1.118493E+05 -1.537013E+06  2.193132E+04 -4.949968E+03
       194   3 -3.871483E+06 -4.508539E+05  1.172292E+05 -1.549319E+06  3.229765E+04 -4.475187E+03
       194   4 -4.438273E+06 -6.565138E+05 -1.078563E+04 -1.708578E+06  9.969645E+03 -5.235878E+03
       194   5 -4.471695E+06 -6.193540E+05 -1.847456E+04 -1.667363E+06  2.080925E+04 -5.368877E+03
       194   6 -4.439709E+06 -6.665233E+05 -3.673452E+04 -1.704863E+06  3.139758E+04 -4.812262E+03
       194   7 -4.832420E+06 -8.036279E+05 -1.176678E+05 -1.813681E+06  8.625019E+03 -5.736574E+03
       194   8 -4.952706E+06 -8.007086E+05 -1.488192E+05 -1.797622E+06  1.968814E+04 -5.787429E+03
       194   9 -5.007624E+06 -8.821734E+05 -1.907275E+05 -1.860277E+06  3.049842E+04 -5.148997E+03
       194  10 -4.043975E+06 -5.093913E+05  9.608251E+04 -1.603415E+06  8.123956E-10 -1.153096E-09
       194  11 -3.990461E+06 -4.379863E+05  1.118484E+05 -1.537013E+06 -2.913203E-09  1.937207E-09
       194  12 -3.871484E+06 -4.508542E+05  1.172271E+05 -1.549319E+06  5.931358E-10  2.144202E-09
       194  13 -4.438273E+06 -6.565138E+05 -1.078587E+04 -1.708578E+06  1.396359E-09  6.001740E-10
       194  14 -4.471696E+06 -6.193542E+05 -1.847543E+04 -1.667363E+06 -5.780241E-10 -1.889796E-09
       194  15 -4.439710E+06 -6.665236E+05 -3.673643E+04 -1.704863E+06 -9.748327E-10 -5.500395E-09
       194  16 -4.832420E+06 -8.036280E+05 -1.176680E+05 -1.813681E+06  1.121039E-09  2.212712E-09
       194  17 -4.952707E+06 -8.007088E+05 -1.488200E+05 -1.797622E+06  1.776971E-09  6.325480E-09
       194  18 -5.007625E+06 -8.821737E+05 -1.907293E+05 -1.860277E+06 -1.864434E-10 -1.830084E-09
       194  19 -4.043975E+06 -5.093913E+05  9.608279E+04 -1.603415E+06 -1.131522E+04  4.734836E+03
       194  20 -3.990461E+06 -4.379862E+05  1.118493E+05 -1.537013E+06 -2.193132E+04  4.949968E+03
       194  21 -3.871483E+06 -4.508539E+05  1.172292E+05 -1.549319E+06 -3.229765E+04  4.475187E+03
       194  22 -4.438273E+06 -6.565138E+05 -1.078563E+04 -1.708578E+06 -9.969645E+03  5.235878E+03
       194  23 -4.471695E+06 -6.193540E+05 -1.847456E+04 -1.667363E+06 -2.080925E+04  5.368877E+03
       194  24 -4.439709E+06 -6.665233E+05 -3.673452E+04 -1.704863E+06 -3.139758E+04  4.812262E+03
       194  25 -4.832420E+06 -8.036279E+05 -1.176678E+05 -1.813681E+06 -8.625019E+03  5.736574E+03
       194  26 -4.952706E+06 -8.007086E+05 -1.488192E+05 -1.797622E+06 -1.968814E+04  5.787429E+03
       194  27 -5.007624E+06 -8.821734E+05 -1.907275E+05 -1.860277E+06 -3.049842E+04  5.148997E+03
       195   1 -3.694603E+06 -3.743713E+05  1.562969E+05 -1.510705E+06  4.043824E+04 -3.851672E+03
       195   2 -3.650469E+06 -3.033171E+05  1.403648E+05 -1.452826E+06  8.216223E+04  8.456893E+03
       195   3 -3.596994E+06 -3.848511E+05  6.670572E+04 -1.427480E+06  1.228050E+05  2.367623E+04
       195   4 -4.447832E+06 -6.502376E+05 -4.638576E+04 -1.706419E+06  3.895325E+04 -4.407588E+03
       195   5 -4.457858E+06 -6.118246E+05 -7.903684E+04 -1.675940E+06  8.159968E+04  8.243473E+03
       195   6 -4.458783E+06 -7.262758E+05 -1.702103E+05 -1.677989E+06  1.231602E+05  2.380362E+04
       195   7 -5.200514E+06 -9.260795E+05 -2.491186E+05 -1.901921E+06  3.747023E+04 -4.962818E+03
       195   8 -5.264615E+06 -9.202898E+05 -2.984971E+05 -1.898789E+06  8.103787E+04  8.030339E+03
       195   9 -5.319851E+06 -1.067637E+06 -4.071943E+05 -1.928175E+06  1.235147E+05  2.393075E+04
       195  10 -3.694604E+06 -3.743718E+05  1.562938E+05 -1.510704E+06  1.599166E-10  4.042872E-10
       195  11 -3.650476E+06 -3.033190E+05  1.403519E+05 -1.452827E+06  1.778212E-09  2.748393E-09
       195  12 -3.597011E+06 -3.848558E+05  6.667613E+04 -1.427482E+06  1.724222E-09  2.652130E-09
       195  13 -4.447834E+06 -6.502380E+05 -4.638866E+04 -1.706419E+06  4.142878E-09 -2.228213E-09
       195  14 -4.457865E+06 -6.118265E+05 -7.904958E+04 -1.675940E+06 -5.000766E-10 -1.515875E-09
       195  15 -4.458800E+06 -7.262805E+05 -1.702401E+05 -1.677992E+06  1.291477E-09  3.368799E-10
       195  16 -5.200516E+06 -9.260800E+05 -2.491213E+05 -1.901921E+06  1.007612E-09 -1.649796E-09
       195  17 -5.264623E+06 -9.202917E+05 -2.985097E+05 -1.898789E+06  1.008922E-09  1.132831E-09
       195  18 -5.319868E+06 -1.067641E+06 -4.072243E+05 -1.928177E+06 -9.499372E-10  4.046578E-10
       195  19 -3.694603E+06 -3.743713E+05  1.562969E+05 -1.510705E+06 -4.043824E+04  3.851672E+03
       195  20 -3.650469E+06 -3.033171E+05  1.403648E+05 -1.452826E+06 -8.216223E+04 -8.456893E+03
       195  21 -3.596994E+06 -3.848511E+05  6.670572E+04 -1.427480E+06 -1.228050E+05 -2.367623E+04
       195  22 -4.447832E+06 -6.502376E+05 -4.638576E+04 -1.706419E+06 -3.895325E+04  4.407588E+03
       195  23 -4.457858E+06 -6.118246E+05 -7.903684E+04 -1.675940E+06 -8.159968E+04 -8.243473E+03
       195  24 -4.458783E+06 -7.262758E+05 -1.702103E+05 -1.677989E+06 -1.231602E+05 -2.380362E+04
       195  25 -5.200514E+06 -9.260795E+05 -2.491186E+05 -1.901921E+06 -3.747023E+04  4.962818E+03
       195  26 -5.264615E+06 -9.202898E+05 -2.984971E+05 -1.898789E+06 -8.103787E+04 -8.030339E+03
       195  27 -5.319851E+06 -1.067637E+06 -4.071943E+05 -1.928175E+06 -1.235147E+05 -2.393075E+04
       196   1 -3.467505E+06 -3.007062E+05  5.820266E+04 -1.503978E+06  1.593184E+05  3.295698E+04
       196   2 -3.404205E+06 -1.119528E+05 -6.261818E+04 -1.397931E+06  3.380346E+05  9.775510E+04
       196   3 -3.633289E+06 -7.233277E+05 -5.291605E+05 -1.112968E+06  5.091271E+05  1.827872E+05
       196   4 -4.491464E+06 -6.287469E+05 -2.076484E+05 -1.722077E+06  1.550251E+05  3.135730E+04
       196   5 -4.386720E+06 -5.188651E+05 -3.353683E+05 -1.701782E+06  3.402339E+05  9.855825E+04
       196   6 -4.576157E+06 -1.211213E+06 -8.144169E+05 -1.502433E+06  5.178233E+05  1.859444E+05
       196   7 -5.514409E+06 -9.567924E+05 -4.735844E+05 -1.939883E+06  1.507393E+05  2.975948E+04
       196   8 -5.368294E+06 -9.256660E+05 -6.082085E+05 -2.005178E+06  3.424289E+05  9.935945E+04
       196   9 -5.518115E+06 -1.698788E+06 -1.099760E+06 -1.891281E+06  5.265043E+05  1.890911E+05
       196  10 -3.467533E+06 -3.007142E+05  5.815260E+04 -1.503983E+06 -4.594723E-10  1.489733E-10
       196  11 -3.404331E+06 -1.119941E+05 -6.285238E+04 -1.397958E+06 -3.640559E-09  2.903536E-10
       196  12 -3.633578E+06 -7.234339E+05 -5.297139E+05 -1.113044E+06 -1.010183E-09 -1.338094E-09
       196  13 -4.491490E+06 -6.287545E+05 -2.076958E+05 -1.722081E+06  8.660908E-10 -8.092639E-10
       196  14 -4.386847E+06 -5.189070E+05 -3.356060E+05 -1.701810E+06 -5.109679E-09 -1.782351E-09
       196  15 -4.576457E+06 -1.211323E+06 -8.149905E+05 -1.502511E+06 -1.778014E-11 -6.867455E-10
       196  16 -5.514434E+06 -9.567996E+05 -4.736292E+05 -1.939886E+06 -9.514459E-10 -8.495091E-10
       196  17 -5.368423E+06 -9.257086E+05 -6.084498E+05 -2.005205E+06 -2.520023E-09 -9.274024E-10
       196  18 -5.518424E+06 -1.698902E+06 -1.100354E+06 -1.891361E+06 -9.891649E-11 -6.840205E-10
       196  19 -3.467505E+06 -3.007062E+05  5.820266E+04 -1.503978E+06 -1.593184E+05 -3.295698E+04
       196  20 -3.404205E+06 -1.119528E+05 -6.261818E+04 -1.397931E+06 -3.380346E+05 -9.775510E+04
       196  21 -3.633289E+06 -7.233277E+05 -5.291605E+05 -1.112968E+06 -5.091271E+05 -1.827872E+05
       196  22 -4.491464E+06 -6.287469E+05 -2.076484E+05 -1.722077E+06 -1.550251E+05 -3.135730E+04
       196  23 -4.386720E+06 -5.188651E+05 -3.353683E+05 -1.701782E+06 -3.402339E+05 -9.855825E+04
       196  24 -4.576157E+06 -1.211213E+06 -8.144169E+05 -1.502433E+06 -5.178233E+05 -1.859444E+05
       196  25 -5.514409E+06 -9.567924E+05 -4.735844E+05 -1.939883E+06 -1.507393E+05 -2.975948E+04
       196  26 -5.368294E+06 -9.256660E+05 -6.082085E+05 -2.005178E+06 -3.424289E+05 -9.935945E+04
       196  27 -5.518115E+06 -1.698788E+06 -1.099760E+06 -1.891281E+06 -5.265043E+05 -1.890911E+05
       197   1  3.594038E+05  1.373442E+05  2.194285E+05  4.797358E+04  2.460459E+05  5.428929E+03
       197   2  3.432163E+05 -1.932773E+05  2.201783E+04  1.869879E+04  1.635901E+05  1.429752E+04
       197   3  4.337730E+05 -1.435750E+05 -2.643543E+04 -4.954305E+04  8.115434E+04  1.235566E+04
       197   4  9.586294E+05  2.863353E+05  3.679112E+05 -1.866995E+04  2.514413E+05  5.416621E+03
       197   5  9.050254E+05 -5.367161E+04  1.590856E+05  1.210022E+03  1.650134E+05  1.429512E+04
       197   6  9.587496E+05 -1.285958E+04  1.018711E+05 -1.787581E+04  7.861114E+04  1.235443E+04
       197   7  1.558191E+06  4.353166E+05  5.163699E+05 -8.537801E+04  2.568419E+05  5.403172E+03
       197   8  1.467123E+06  8.591206E+04  2.961306E+05 -1.629477E+04  1.664379E+05  1.429264E+04
       197   9  1.483979E+06  1.178392E+05  2.301580E+05  1.381813E+04  7.606578E+04  1.235293E+04
       197  10  3.593388E+05  1.373279E+05  2.193147E+05  4.797251E+04 -9.609448E-12  1.313302E-09
       197  11  3.431875E+05 -1.932847E+05  2.196719E+04  1.869691E+04 -2.205996E-09 -2.232605E-11
       197  12  4.337659E+05 -1.435769E+05 -2.644808E+04 -4.954386E+04 -9.254207E-10 -4.753083E-10
       197  13  9.585616E+05  2.863183E+05  3.677926E+05 -1.867104E+04  1.092901E-09  5.434942E-10
       197  14  9.049961E+05 -5.367912E+04  1.590341E+05  1.208123E+03 -1.643280E-09 -2.971302E-09
       197  15  9.587430E+05 -1.286140E+04  1.018592E+05 -1.787659E+04  1.287579E-09  2.099460E-10
       197  16  1.558120E+06  4.352989E+05  5.162462E+05 -8.537913E+04 -1.265580E-09  2.501457E-10
       197  17  1.467093E+06  8.590443E+04  2.960783E+05 -1.629668E+04  7.457727E-10 -1.306626E-10
       197  18  1.483973E+06  1.178375E+05  2.301469E+05  1.381738E+04  1.828051E-09 -7.599940E-10
       197  19  3.594038E+05  1.373442E+05  2.194285E+05  4.797358E+04 -2.460459E+05 -5.428929E+03
       197  20  3.432163E+05 -1.932773E+05  2.201783E+04  1.869879E+04 -1.635901E+05 -1.429752E+04
       197  21  4.337730E+05 -1.435750E+05 -2.643543E+04 -4.954305E+04 -8.115434E+04 -1.235566E+04
       197  22  9.586294E+05  2.863353E+05  3.679112E+05 -1.866995E+04 -2.514413E+05 -5.416621E+03
       197  23  9.050254E+05 -5.367161E+04  1.590856E+05  1.210022E+03 -1.650134E+05 -1.429512E+04
       197  24  9.587496E+05 -1.285958E+04  1.018711E+05 -1.787581E+04 -7.861114E+04 -1.235443E+04
       197  25  1.558191E+06  4.353166E+05  5.163699E+05 -8.537801E+04 -2.568419E+05 -5.403172E+03
       197  26  1.467123E+06  8.591206E+04  2.961306E+05 -1.629477E+04 -1.664379E+05 -1.429264E+04
       197  27  1.483979E+06  1.178392E+05  2.301580E+05  1.381813E+04 -7.606578E+04 -1.235293E+04
       198   1  4.858927E+05 -7.635072E+04 -2.699592E+04 -9.849127E+03  6.211037E+04  9.935359E+03
       198   2  5.118944E+05 -1.110435E+05 -6.098203E+04  1.848998E+03  4.108976E+04  9.750901E+03
       198   3  5.532005E+05 -9.744013E+04 -6.911242E+04 -2.156528E+04  2.006897E+04  8.483343E+03
       198   4  9.383015E+05  3.617140E+04  8.370405E+04 -1.730193E+04  6.228154E+04  9.934370E+03
       198   5  9.306320E+05 -6.900530E+03  4.134446E+04  2.817794E+02  4.085667E+04  9.750063E+03
       198   6  9.383253E+05 -1.624252E+03  2.510767E+04 -1.724520E+04  1.943278E+04  8.482581E+03
       198   7  1.390897E+06  1.486786E+05  1.943891E+05 -2.476023E+04  6.245282E+04  9.933378E+03
       198   8  1.349529E+06  9.722953E+04  1.436582E+05 -1.286547E+03  4.062342E+04  9.749225E+03
       198   9  1.323585E+06  9.418073E+04  1.193169E+05 -1.292246E+04  1.879619E+04  8.481810E+03
       198  10  4.858885E+05 -7.635186E+04 -2.700335E+04 -9.849624E+03 -3.751948E-10 -1.109283E-09
       198  11  5.118926E+05 -1.110441E+05 -6.098538E+04  1.848676E+03 -4.340168E-10  1.188678E-09
       198  12  5.532001E+05 -9.744031E+04 -6.911331E+04 -2.156542E+04 -5.418929E-10 -7.398941E-10
       198  13  9.382973E+05  3.617025E+04  8.369659E+04 -1.730242E+04 -2.128725E-09 -6.817261E-10
       198  14  9.306301E+05 -6.901079E+03  4.134115E+04  2.814587E+02 -3.574907E-10  4.576457E-10
       198  15  9.383249E+05 -1.624430E+03  2.510683E+04 -1.724533E+04  1.402826E-09 -1.015160E-09
       198  16  1.390892E+06  1.486775E+05  1.943816E+05 -2.476073E+04  6.912903E-10  6.865997E-10
       198  17  1.349527E+06  9.722899E+04  1.436549E+05 -1.286866E+03 -6.960460E-10 -1.350614E-09
       198  18  1.323585E+06  9.418056E+04  1.193161E+05 -1.292259E+04  1.613227E-10 -2.555320E-10
       198  19  4.858927E+05 -7.635072E+04 -2.699592E+04 -9.849127E+03 -6.211037E+04 -9.935359E+03
       198  20  5.118944E+05 -1.110435E+05 -6.098203E+04  1.848998E+03 -4.108976E+04 -9.750901E+03
       198  21  5.532005E+05 -9.744013E+04 -6.911242E+04 -2.156528E+04 -2.006897E+04 -8.483343E+03
       198  22  9.383015E+05  3.617140E+04  8.370405E+04 -1.730193E+04 -6.228154E+04 -9.934370E+03
       198  23  9.306320E+05 -6.900530E+03  4.134446E+04  2.817794E+02 -4.085667E+04 -9.750063E+03
       198  24  9.383253E+05 -1.624252E+03  2.510767E+04 -1.724520E+04 -1.943278E+04 -8.482581E+03
       198  25  1.390897E+06  1.486786E+05  1.943891E+05 -2.476023E+04 -6.245282E+04 -9.933378E+03
       198  26  1.349529E+06  9.722953E+04  1.436582E+05 -1.286547E+03 -4.062342E+04 -9.749225E+03
       198  27  1.323585E+06  9.418073E+04  1.193169E+05 -1.292246E+04 -1.879619E+04 -8.481810E+03
       199   1  6.175692E+05 -7.455665E+04 -5.777076E+04 -1.605704E+04  1.577251E+04  7.624640E+03
       199   2  6.477105E+05 -7.216158E+04 -5.946037E+04 -3.227829E+02  1.045416E+04  6.578283E+03
       199   3  6.802867E+05 -6.367977E+04 -5.612262E+04 -1.731898E+04  5.134670E+03  5.451834E+03
       199   4  9.354640E+05  4.491510E+03  1.985042E+04 -1.673531E+04  1.541652E+04  7.624117E+03
       199   5  9.342477E+05 -8.972668E+02  1.057118E+04 -3.690426E+02  1.006685E+04  6.577901E+03
       199   6  9.354692E+05 -1.956192E+02  6.339091E+03 -1.673225E+04  4.716294E+03  5.451601E+03
       199   7  1.253451E+06  8.353222E+04  9.746423E+04 -1.741394E+04  1.506036E+04  7.623595E+03
       199   8  1.220860E+06  7.036098E+04  8.059675E+04 -4.153326E+02  9.679354E+03  6.577519E+03
       199   9  1.190711E+06  6.328372E+04  6.879604E+04 -1.614528E+04  4.297747E+03  5.451368E+03
       199  10  6.175689E+05 -7.455678E+04 -5.777133E+04 -1.605714E+04  6.585613E-10 -6.630569E-12
       199  11  6.477103E+05 -7.216166E+04 -5.946066E+04 -3.228383E+02  4.103561E-10  1.091079E-10
       199  12  6.802867E+05 -6.367981E+04 -5.612272E+04 -1.731900E+04 -7.082492E-10  2.416350E-10
       199  13  9.354637E+05  4.491384E+03  1.984986E+04 -1.673541E+04 -2.162838E-09 -4.321362E-10
       199  14  9.342476E+05 -8.973405E+02  1.057091E+04 -3.690960E+02  5.639840E-10  2.008332E-10
       199  15  9.354692E+05 -1.956571E+02  6.338994E+03 -1.673227E+04 -3.538935E-10  1.986415E-10
       199  16  1.253450E+06  8.353210E+04  9.746369E+04 -1.741403E+04 -7.106018E-10 -8.189598E-10
       199  17  1.220860E+06  7.036091E+04  8.059649E+04 -4.153839E+02  2.360286E-10 -1.995088E-10
       199  18  1.190711E+06  6.328368E+04  6.879595E+04 -1.614530E+04  1.157923E-09  9.687688E-12
       199  19  6.175692E+05 -7.455665E+04 -5.777076E+04 -1.605704E+04 -1.577251E+04 -7.624640E+03
       199  20  6.477105E+05 -7.216158E+04 -5.946037E+04 -3.227829E+02 -1.045416E+04 -6.578283E+03
       199  21  6.802867E+05 -6.367977E+04 -5.612262E+04 -1.731898E+04 -5.134670E+03 -5.451834E+03
       199  22  9.354640E+05  4.491510E+03  1.985042E+04 -1.673531E+04 -1.541652E+04 -7.624117E+03
       199  23  9.342477E+05 -8.972668E+02  1.057118E+04 -3.690426E+02 -1.006685E+04 -6.577901E+03
       199  24  9.354692E+05 -1.956192E+02  6.339091E+03 -1.673225E+04 -4.716294E+03 -5.451601E+03
       199  25  1.253451E+06  8.353222E+04  9.746423E+04 -1.741394E+04 -1.506036E+04 -7.623595E+03
       199  26  1.220860E+06  7.036098E+04  8.059675E+04 -4.153326E+02 -9.679354E+03 -6.577519E+03
       199  27  1.190711E+06  6.328372E+04  6.879604E+04 -1.614528E+04 -4.297747E+03 -5.451368E+03
       200   1  7.432898E+05 -4.713134E+04 -4.179682E+04 -1.634749E+04  4.089189E+03  4.791530E+03
       200   2  7.729905E+05 -4.036752E+04 -3.660158E+04 -7.890636E+02  2.613007E+03  3.706606E+03
       200   3  8.031420E+05 -3.280282E+04 -3.023409E+04 -1.645807E+04  1.136276E+03  2.632112E+03
       200   4  9.350357E+05  5.364071E+02  4.972521E+03 -1.639928E+04  3.697180E+03  4.791389E+03
       200   5  9.348118E+05 -1.239168E+02  2.946981E+03 -7.857937E+02  2.224342E+03  3.706547E+03
       200   6  9.350370E+05  1.597446E+01  2.091146E+03 -1.639923E+04  7.510267E+02  2.632137E+03
       200   7  1.126815E+06  4.820144E+04  5.173919E+04 -1.645109E+04  3.305051E+03  4.791248E+03
       200   8  1.096657E+06  4.011775E+04  4.249363E+04 -7.825228E+02  1.835577E+03  3.706488E+03
       200   9  1.066948E+06  3.283348E+04  3.441510E+04 -1.634037E+04  3.656953E+02  2.632161E+03
       200  10  7.432898E+05 -4.713137E+04 -4.179689E+04 -1.634750E+04 -1.466658E-09  8.909979E-11
       200  11  7.729905E+05 -4.036754E+04 -3.660161E+04 -7.890714E+02 -2.076609E-09  7.995070E-12
       200  12  8.031420E+05 -3.280283E+04 -3.023410E+04 -1.645808E+04 -2.360076E-09 -6.802803E-11
       200  13  9.350357E+05  5.363787E+02  4.972452E+03 -1.639929E+04 -1.364448E-09  7.793150E-11
       200  14  9.348118E+05 -1.239329E+02  2.946946E+03 -7.858003E+02  1.564431E-10 -3.697421E-10
       200  15  9.350370E+05  1.596687E+01  2.091132E+03 -1.639923E+04 -1.763022E-09  3.186065E-10
       200  16  1.126815E+06  4.820141E+04  5.173912E+04 -1.645110E+04 -1.407022E-09  1.636001E-10
       200  17  1.096657E+06  4.011774E+04  4.249360E+04 -7.825282E+02 -1.493052E-09 -4.125383E-10
       200  18  1.066948E+06  3.283347E+04  3.441509E+04 -1.634038E+04  2.795366E-09  7.418322E-10
       200  19  7.432898E+05 -4.713134E+04 -4.179682E+04 -1.634749E+04 -4.089189E+03 -4.791530E+03
       200  20  7.729905E+05 -4.036752E+04 -3.660158E+04 -7.890636E+02 -2.613007E+03 -3.706606E+03
       200  21  8.031420E+05 -3.280282E+04 -3.023409E+04 -1.645807E+04 -1.136276E+03 -2.632112E+03
       200  22  9.350357E+05  5.364071E+02  4.972521E+03 -1.639928E+04 -3.697180E+03 -4.791389E+03
       200  23  9.348118E+05 -1.239168E+02  2.946981E+03 -7.857937E+02 -2.224342E+03 -3.706547E+03
       200  24  9.350370E+05  1.597446E+01  2.091146E+03 -1.639923E+04 -7.510267E+02 -2.632137E+03
       200  25  1.126815E+06  4.820144E+04  5.173919E+04 -1.645109E+04 -3.305051E+03 -4.791248E+03
       200  26  1.096657E+06  4.011775E+04  4.249363E+04 -7.825228E+02 -1.835577E+03 -3.706488E+03
       200  27  1.066948E+06  3.283348E+04  3.441510E+04 -1.634037E+04 -3.656953E+02 -2.632161E+03
       201   1  8.643797E+05 -1.748564E+04 -1.526776E+04 -1.620467E+04  7.758028E+02  2.009524E+03
       201   2  8.935455E+05 -1.034467E+04 -8.198484E+03 -9.722777E+02 -1.778269E+02  9.458239E+02
       201   3  9.229372E+05 -2.746664E+03 -3.976762E+02 -1.628763E+04 -1.131605E+03 -1.056828E+02
       201   4  9.349910E+05  5.545137E+01  1.896480E+03 -1.624830E+04  3.902275E+02  2.009588E+03
       201   5  9.348785E+05 -6.620108E+01  1.902642E+03 -9.744607E+02 -5.590824E+02  9.459066E+02
       201   6  9.349908E+05  2.685860E+02  2.637469E+03 -1.624824E+04 -1.508496E+03 -1.055794E+02
       201   7  1.005607E+06  1.759617E+04  1.906036E+04 -1.629194E+04  4.608647E+00  2.009652E+03
       201   8  9.762131E+05  1.021214E+04  1.200364E+04 -9.766437E+02 -9.403632E+02  9.459892E+02
       201   9  9.470446E+05  3.283825E+03  5.672603E+03 -1.620885E+04 -1.885395E+03 -1.054760E+02
       201  10  8.643797E+05 -1.748564E+04 -1.526777E+04 -1.620467E+04  1.968029E-10  1.633592E-11
       201  11  8.935455E+05 -1.034467E+04 -8.198485E+03 -9.722776E+02 -2.786795E-09  1.110926E-10
       201  12  9.229372E+05 -2.746664E+03 -3.976786E+02 -1.628763E+04 -7.480498E-10  1.111720E-09
       201  13  9.349910E+05  5.544699E+01  1.896472E+03 -1.624830E+04 -2.525908E-09  2.667190E-10
       201  14  9.348785E+05 -6.620212E+01  1.902640E+03 -9.744602E+02 -1.898114E-09 -7.655820E-10
       201  15  9.349908E+05  2.685854E+02  2.637464E+03 -1.624824E+04  3.545130E-10 -1.728861E-09
       201  16  1.005607E+06  1.759617E+04  1.906036E+04 -1.629194E+04 -1.942484E-10  7.856226E-10
       201  17  9.762131E+05  1.021214E+04  1.200364E+04 -9.766429E+02  1.810435E-09  7.756111E-11
       201  18  9.470446E+05  3.283824E+03  5.672596E+03 -1.620885E+04  2.077235E-10  5.826422E-10
       201  19  8.643797E+05 -1.748564E+04 -1.526776E+04 -1.620467E+04 -7.758028E+02 -2.009524E+03
       201  20  8.935455E+05 -1.034467E+04 -8.198484E+03 -9.722777E+02  1.778269E+02 -9.458239E+02
       201  21  9.229372E+05 -2.746664E+03 -3.976762E+02 -1.628763E+04  1.131605E+03  1.056828E+02
       201  22  9.349910E+05  5.545137E+01  1.896480E+03 -1.624830E+04 -3.902275E+02 -2.009588E+03
       201  23  9.348785E+05 -6.620108E+01  1.902642E+03 -9.744607E+02  5.590824E+02 -9.459066E+02
       201  24  9.349908E+05  2.685860E+02  2.637469E+03 -1.624824E+04  1.508496E+03  1.055794E+02
       201  25  1.005607E+06  1.759617E+04  1.906036E+04 -1.629194E+04 -4.608647E+00 -2.009652E+03
       201  26  9.762131E+05  1.021214E+04  1.200364E+04 -9.766437E+02  9.403632E+02 -9.459892E+02
       201  27  9.470446E+05  3.283825E+03  5.672603E+03 -1.620885E+04  1.885395E+03  1.054760E+02
       202   1  9.838615E+05  1.204901E+04  1.519326E+04 -1.603009E+04 -1.640293E+03 -7.308342E+02
       202   2  1.012729E+06  1.900027E+04  2.418833E+04 -1.024743E+03 -4.247339E+03 -1.794131E+03
       202   3  1.042660E+06  2.884866E+04  3.560261E+04 -1.668763E+04 -6.854319E+03 -2.793923E+03
       202   4  9.351757E+05 -7.504972E+01  3.206196E+03 -1.627525E+04 -2.035067E+03 -7.307324E+02
       202   5  9.346451E+05 -4.154554E+02  5.109231E+03 -9.408651E+02 -4.618941E+03 -1.794077E+03
       202   6  9.351734E+05  2.137437E+03  9.415620E+03 -1.627493E+04 -7.202626E+03 -2.793912E+03
       202   7  8.864920E+05 -1.219929E+04 -8.781041E+03 -1.652039E+04 -2.429809E+03 -7.306303E+02
       202   8  8.565668E+05 -1.983163E+04 -1.397031E+04 -8.569973E+02 -4.990496E+03 -1.794022E+03
       202   9  8.276970E+05 -2.457463E+04 -1.677220E+04 -1.586230E+04 -7.550874E+03 -2.793901E+03
       202  10  9.838615E+05  1.204901E+04  1.519325E+04 -1.603009E+04 -2.827689E-09  1.106838E-09
       202  11  1.012729E+06  1.900027E+04  2.418829E+04 -1.024749E+03  5.430005E-10  2.534458E-10
       202  12  1.042660E+06  2.884864E+04  3.560250E+04 -1.668765E+04  1.474090E-09 -9.718574E-11
       202  13  9.351757E+05 -7.505140E+01  3.206187E+03 -1.627525E+04 -7.400894E-10 -1.382152E-09
       202  14  9.346451E+05 -4.154646E+02  5.109185E+03 -9.408717E+02  5.593292E-10 -1.087803E-09
       202  15  9.351733E+05  2.137414E+03  9.415508E+03 -1.627495E+04  8.196587E-10 -3.851278E-10
       202  16  8.864920E+05 -1.219929E+04 -8.781054E+03 -1.652040E+04  1.910238E-09  9.044295E-10
       202  17  8.565668E+05 -1.983164E+04 -1.397037E+04 -8.570045E+02  3.260828E-09  3.716317E-10
       202  18  8.276970E+05 -2.457466E+04 -1.677233E+04 -1.586232E+04 -5.282097E-10  2.221518E-10
       202  19  9.838615E+05  1.204901E+04  1.519326E+04 -1.603009E+04  1.640293E+03  7.308342E+02
       202  20  1.012729E+06  1.900027E+04  2.418833E+04 -1.024743E+03  4.247339E+03  1.794131E+03
       202  21  1.042660E+06  2.884866E+04  3.560261E+04 -1.668763E+04  6.854319E+03  2.793923E+03
       202  22  9.351757E+05 -7.504972E+01  3.206196E+03 -1.627525E+04  2.035067E+03  7.307324E+02
       202  23  9.346451E+05 -4.154554E+02  5.109231E+03 -9.408651E+02  4.618941E+03  1.794077E+03
       202  24  9.351734E+05  2.137437E+03  9.415620E+03 -1.627493E+04  7.202626E+03  2.793912E+03
       202  25  8.864920E+05 -1.219929E+04 -8.781041E+03 -1.652039E+04  2.429809E+03  7.306303E+02
       202  26  8.565668E+05 -1.983163E+04 -1.397031E+04 -8.569973E+02  4.990496E+03  1.794022E+03
       202  27  8.276970E+05 -2.457463E+04 -1.677220E+04 -1.586230E+04  7.550874E+03  2.793901E+03
       203   1  1.105785E+06  4.136100E+04  5.331398E+04 -1.457115E+04 -8.581646E+03 -3.524703E+03
       203   2  1.132506E+06  4.637446E+04  6.824235E+04 -1.591388E+03 -1.893241E+04 -4.638684E+03
       203   3  1.166373E+06  7.421020E+04  9.562555E+04 -2.020186E+04 -2.928335E+04 -5.073993E+03
       203   4  9.365133E+05 -7.432544E+02  1.187070E+04 -1.647901E+04 -9.103852E+03 -3.524703E+03
       203   5  9.329553E+05 -3.238233E+03  1.949931E+04 -6.857480E+02 -1.920708E+04 -4.638839E+03
       203   6  9.365018E+05  1.705032E+04  3.941419E+04 -1.648322E+04 -2.930998E+04 -5.074297E+03
       203   7  7.672674E+05 -4.284961E+04 -2.957467E+04 -1.838635E+04 -9.625916E+03 -3.524699E+03
       203   8  7.334404E+05 -5.285386E+04 -2.924664E+04  2.195992E+02 -1.948167E+04 -4.638994E+03
       203   9  7.066784E+05 -4.011340E+04 -1.680103E+04 -1.276596E+04 -2.933660E+04 -5.074602E+03
       203  10  1.105785E+06  4.136096E+04  5.331382E+04 -1.457117E+04  2.895813E-10 -7.808734E-11
       203  11  1.132506E+06  4.637434E+04  6.824164E+04 -1.591458E+03 -1.504503E-09 -1.497402E-10
       203  12  1.166372E+06  7.420994E+04  9.562390E+04 -2.020198E+04 -1.020335E-09 -4.146709E-10
       203  13  9.365132E+05 -7.432899E+02  1.187052E+04 -1.647903E+04  2.603939E-15 -1.049995E-10
       203  14  9.329549E+05 -3.238355E+03  1.949857E+04 -6.858198E+02 -4.070863E-10 -1.452347E-10
       203  15  9.365008E+05  1.705007E+04  3.941253E+04 -1.648334E+04  4.110309E-10 -3.492057E-10
       203  16  7.672673E+05 -4.284965E+04 -2.957487E+04 -1.838637E+04 -4.919622E-10  7.028197E-12
       203  17  7.334399E+05 -5.285399E+04 -2.924739E+04  2.195264E+02  9.006524E-10  3.944787E-11
       203  18  7.066775E+05 -4.011366E+04 -1.680269E+04 -1.276608E+04  8.287299E-11  3.849396E-11
       203  19  1.105785E+06  4.136100E+04  5.331398E+04 -1.457115E+04  8.581646E+03  3.524703E+03
       203  20  1.132506E+06  4.637446E+04  6.824235E+04 -1.591388E+03  1.893241E+04  4.638684E+03
       203  21  1.166373E+06  7.421020E+04  9.562555E+04 -2.020186E+04  2.928335E+04  5.073993E+03
       203  22  9.365133E+05 -7.432544E+02  1.187070E+04 -1.647901E+04  9.103852E+03  3.524703E+03
       203  23  9.329553E+05 -3.238233E+03  1.949931E+04 -6.857480E+02  1.920708E+04  4.638839E+03
       203  24  9.365018E+05  1.705032E+04  3.941419E+04 -1.648322E+04  2.930998E+04  5.074297E+03
       203  25  7.672674E+05 -4.284961E+04 -2.957467E+04 -1.838635E+04  9.625916E+03  3.524699E+03
       203  26  7.334404E+05 -5.285386E+04 -2.924664E+04  2.195992E+02  1.948167E+04  4.638994E+03
       203  27  7.066784E+05 -4.011340E+04 -1.680103E+04 -1.276596E+04  2.933660E+04  5.074602E+03
       204   1  1.240414E+06  6.715366E+04  1.198667E+05 -2.170707E+03 -3.529820E+04 -6.740675E+03
       204   2  1.247082E+06  5.579664E+04  1.544226E+05 -8.745299E+03 -7.840556E+04 -8.167305E+03
       204   3  1.304530E+06  2.240935E+05  2.619758E+05 -4.869054E+04 -1.215196E+05 -2.912527E+03
       204   4  9.461253E+05 -6.028206E+03  4.795964E+04 -1.683892E+04 -3.699789E+04 -6.740723E+03
       204   5  9.209008E+05 -2.525521E+04  7.488398E+04 -2.163983E+02 -7.767832E+04 -8.168180E+03
       204   6  9.460624E+05  1.347999E+05  1.731499E+05 -1.696390E+04 -1.183630E+05 -2.915905E+03
       204   7  6.519158E+05 -7.921566E+04 -2.395356E+04 -3.150018E+04 -3.869677E+04 -6.740689E+03
       204   8  5.948169E+05 -1.063146E+05 -4.662341E+03  8.308003E+03 -7.695145E+04 -8.169036E+03
       204   9  5.877138E+05  4.550042E+04  8.431497E+04  1.474441E+04 -1.152083E+05 -2.918965E+03
       204  10  1.240413E+06  6.715328E+04  1.198642E+05 -2.170899E+03  1.248001E-09 -4.515669E-10
       204  11  1.247075E+06  5.579492E+04  1.544110E+05 -8.745815E+03 -6.721756E-10  3.350195E-11
       204  12  1.304514E+06  2.240896E+05  2.619481E+05 -4.869083E+04 -3.015361E-10  5.293663E-10
       204  13  9.461238E+05 -6.028621E+03  4.795699E+04 -1.683912E+04 -1.735248E-09 -7.825743E-10
       204  14  9.208943E+05 -2.525690E+04  7.487253E+04 -2.169091E+02 -7.286646E-10  8.854005E-11
       204  15  9.460474E+05  1.347961E+05  1.731236E+05 -1.696418E+04  2.116416E-09 -1.944660E-10
       204  16  6.519142E+05 -7.921611E+04 -2.395646E+04 -3.150039E+04 -2.666873E-09  3.265216E-11
       204  17  5.948105E+05 -1.063163E+05 -4.673583E+03  8.307496E+03  1.822913E-10 -1.892451E-10
       204  18  5.876995E+05  4.549685E+04  8.429004E+04  1.474414E+04 -1.403120E-10  8.010092E-10
       204  19  1.240414E+06  6.715366E+04  1.198667E+05 -2.170707E+03  3.529820E+04  6.740675E+03
       204  20  1.247082E+06  5.579664E+04  1.544226E+05 -8.745299E+03  7.840556E+04  8.167305E+03
       204  21  1.304530E+06  2.240935E+05  2.619758E+05 -4.869054E+04  1.215196E+05  2.912527E+03
       204  22  9.461253E+05 -6.028206E+03  4.795964E+04 -1.683892E+04  3.699789E+04  6.740723E+03
       204  23  9.209008E+05 -2.525521E+04  7.488398E+04 -2.163983E+02  7.767832E+04  8.168180E+03
       204  24  9.460624E+05  1.347999E+05  1.731499E+05 -1.696390E+04  1.183630E+05  2.915905E+03
       204  25  6.519158E+05 -7.921566E+04 -2.395356E+04 -3.150018E+04  3.869677E+04  6.740689E+03
       204  26  5.948169E+05 -1.063146E+05 -4.662341E+03  8.308003E+03  7.695145E+04  8.169036E+03
       204  27  5.877138E+05  4.550042E+04  8.431497E+04  1.474441E+04  1.152083E+05  2.918965E+03
       205   1  7.178135E+05  2.129160E+06  6.904971E+05 -7.937191E+05  2.594842E+04  2.278621E+05
       205   2  4.913615E+05  1.495670E+06  4.210788E+05 -7.101689E+05  8.134811E+04  8.556670E+04
       205   3  3.249272E+05  8.954204E+05  2.590542E+05 -7.382423E+05  7.833917E+04 -5.674160E+04
       205   4  8.317750E+04 -4.385622E+05  8.487611E+04 -7.338847E+05  2.670268E+04  5.600670E+04
       205   5  2.810258E+04 -4.443058E+05  4.491499E+04 -6.782260E+05  8.160681E+04  3.330144E+04
       205   6  1.244680E+04 -4.377922E+05  2.953167E+04 -7.341841E+05  7.803053E+04  1.043520E+04
       205   7 -5.519023E+05 -3.000162E+06 -5.210881E+05 -6.742890E+05  2.742582E+04 -1.151441E+05
       205   8 -4.353765E+05 -2.380664E+06 -3.314153E+05 -6.463793E+05  8.186065E+04 -1.880457E+04
       205   9 -3.001264E+05 -1.769251E+06 -2.000344E+05 -7.301320E+05  7.772234E+04  7.747235E+04
       205  10  7.177988E+05  2.129104E+06  6.903986E+05 -7.937239E+05 -4.181570E-10 -8.443286E-10
       205  11  4.913524E+05  1.495661E+06  4.210526E+05 -7.101745E+05  2.351003E-09 -5.026590E-09
       205  12  3.249197E+05  8.954153E+05  2.590366E+05 -7.382387E+05 -1.325759E-09 -2.439520E-09
       205  13  8.317589E+04 -4.385657E+05  8.486887E+04 -7.338859E+05  3.385156E-09  1.424206E-09
       205  14  2.809512E+04 -4.443088E+05  4.490038E+04 -6.782282E+05 -8.522938E-10  2.404689E-10
       205  15  1.244023E+04 -4.377940E+05  2.952002E+04 -7.341848E+05  1.676854E-09 -2.166614E-09
       205  16 -5.519067E+05 -3.000177E+06 -5.211145E+05 -6.742864E+05  6.898659E-10  7.474750E-10
       205  17 -4.353838E+05 -2.380666E+06 -3.314286E+05 -6.463781E+05  3.662313E-09  5.252481E-09
       205  18 -3.001345E+05 -1.769259E+06 -2.000571E+05 -7.301369E+05 -5.725941E-10  1.765960E-09
       205  19  7.178135E+05  2.129160E+06  6.904971E+05 -7.937191E+05 -2.594842E+04 -2.278621E+05
       205  20  4.913615E+05  1.495670E+06  4.210788E+05 -7.101689E+05 -8.134811E+04 -8.556670E+04
       205  21  3.249272E+05  8.954204E+05  2.590542E+05 -7.382423E+05 -7.833917E+04  5.674160E+04
       205  22  8.317750E+04 -4.385622E+05  8.487611E+04 -7.338847E+05 -2.670268E+04 -5.600670E+04
       205  23  2.810258E+04 -4.443058E+05  4.491499E+04 -6.782260E+05 -8.160681E+04 -3.330144E+04
       205  24  1.244680E+04 -4.377922E+05  2.953167E+04 -7.341841E+05 -7.803053E+04 -1.043520E+04
       205  25 -5.519023E+05 -3.000162E+06 -5.210881E+05 -6.742890E+05 -2.742582E+04  1.151441E+05
       205  26 -4.353765E+05 -2.380664E+06 -3.314153E+05 -6.463793E+05 -8.186065E+04  1.880457E+04
       205  27 -3.001264E+05 -1.769251E+06 -2.000344E+05 -7.301320E+05 -7.772234E+04 -7.747235E+04
       206   1  2.319069E+05  5.011098E+05  1.863257E+05 -7.416725E+05  5.692899E+04 -6.027731E+04
       206   2  8.425466E+04 -1.170843E+05  7.608620E+04 -6.774996E+05  2.374369E+04 -7.665704E+04
       206   3 -5.400549E+04 -7.314192E+05 -2.143974E+04 -7.288316E+05 -1.101820E+04 -9.303446E+04
       206   4  1.170774E+04 -4.396999E+05  2.634194E+04 -7.350282E+05  5.661031E+04  5.994964E+03
       206   5  9.438378E+03 -4.410950E+05  2.608438E+04 -6.772675E+05  2.340292E+04 -7.190291E+03
       206   6  1.602365E+04 -4.395638E+05  3.631651E+04 -7.350096E+05 -1.138170E+04 -2.038834E+04
       206   7 -2.085359E+05 -1.379629E+06 -1.336543E+05 -7.283928E+05  5.629274E+04  7.217007E+04
       206   8 -6.538041E+04 -7.649904E+05 -2.390166E+04 -6.770353E+05  2.306209E+04  6.224158E+04
       206   9  8.605057E+04 -1.476155E+05  9.408843E+04 -7.411904E+05 -1.174653E+04  5.229126E+04
       206  10  2.319025E+05  5.011051E+05  1.863128E+05 -7.416697E+05 -7.051202E-10  1.187035E-09
       206  11  8.425248E+04 -1.170907E+05  7.607411E+04 -6.774982E+05  2.535839E-09 -5.497705E-09
       206  12 -5.400795E+04 -7.314285E+05 -2.145625E+04 -7.288325E+05  5.264095E-10 -2.639719E-09
       206  13  1.170429E+04 -4.397008E+05  2.633585E+04 -7.350284E+05 -2.030408E-10  1.757524E-09
       206  14  9.437776E+03 -4.410952E+05  2.608325E+04 -6.772673E+05 -2.590759E-09  1.320188E-10
       206  15  1.602340E+04 -4.395643E+05  3.631549E+04 -7.350098E+05  9.724884E-10 -1.516990E-09
       206  16 -2.085407E+05 -1.379636E+06 -1.336701E+05 -7.283961E+05 -1.336976E-09 -1.186771E-09
       206  17 -6.538203E+04 -7.649948E+05 -2.390996E+04 -6.770364E+05  1.095811E-10  4.983095E-09
       206  18  8.604969E+04 -1.476185E+05  9.408304E+04 -7.411899E+05  1.112211E-09  1.725829E-09
       206  19  2.319069E+05  5.011098E+05  1.863257E+05 -7.416725E+05 -5.692899E+04  6.027731E+04
       206  20  8.425466E+04 -1.170843E+05  7.608620E+04 -6.774996E+05 -2.374369E+04  7.665704E+04
       206  21 -5.400549E+04 -7.314192E+05 -2.143974E+04 -7.288316E+05  1.101820E+04  9.303446E+04
       206  22  1.170774E+04 -4.396999E+05  2.634194E+04 -7.350282E+05 -5.661031E+04 -5.994964E+03
       206  23  9.438378E+03 -4.410950E+05  2.608438E+04 -6.772675E+05 -2.340292E+04  7.190291E+03
       206  24  1.602365E+04 -4.395638E+05  3.631651E+04 -7.350096E+05  1.138170E+04  2.038834E+04
       206  25 -2.085359E+05 -1.379629E+06 -1.336543E+05 -7.283928E+05 -5.629274E+04 -7.217007E+04
       206  26 -6.538041E+04 -7.649904E+05 -2.390166E+04 -6.770353E+05 -2.306209E+04 -6.224158E+04
       206  27  8.605057E+04 -1.476155E+05  9.408843E+04 -7.411904E+05  1.174653E+04 -5.229126E+04
       207   1 -1.439984E+05 -1.118324E+06 -8.002966E+04 -7.331710E+05 -3.377147E+04 -9.989764E+04
       207   2 -2.628592E+05 -1.737136E+06 -1.811076E+05 -6.269828E+05 -4.777573E+04 -4.934822E+04
       207   3 -3.269618E+05 -2.349242E+06 -3.016724E+05 -6.335052E+05 -1.729640E+04  1.291906E+03
       207   4  1.778582E+04 -4.353915E+05  4.532615E+04 -7.344192E+05 -3.413296E+04 -2.665118E+04
       207   5  4.796541E+04 -4.466504E+05  7.825156E+04 -6.778102E+05 -4.768187E+04 -6.670753E+04
       207   6  1.485852E+05 -4.358863E+05  1.546432E+05 -7.338480E+05 -1.679791E+04 -1.066246E+05
       207   7  1.795464E+05  2.480065E+05  1.706831E+05 -7.356681E+05 -3.449448E+04  4.667383E+04
       207   8  3.586962E+05  8.454330E+05  3.375281E+05 -7.287431E+05 -4.758530E+04 -8.410219E+04
       207   9  6.239092E+05  1.480882E+06  6.107502E+05 -8.344969E+05 -1.626538E+04 -2.148727E+05
       207  10 -1.440023E+05 -1.118336E+06 -8.005061E+04 -7.331737E+05  1.573183E-09  6.627420E-10
       207  11 -2.628623E+05 -1.737140E+06 -1.811165E+05 -6.269847E+05  3.939371E-09 -5.402583E-09
       207  12 -3.269621E+05 -2.349242E+06 -3.016730E+05 -6.335051E+05  1.031820E-09 -4.122818E-09
       207  13  1.778438E+04 -4.353925E+05  4.532262E+04 -7.344199E+05  1.855284E-09  2.362589E-09
       207  14  4.796177E+04 -4.466558E+05  7.823890E+04 -6.778128E+05 -3.972255E-09 -4.428959E-10
       207  15  1.485818E+05 -4.358986E+05  1.546213E+05 -7.338494E+05  1.552895E-09 -1.784869E-09
       207  16  1.795446E+05  2.480039E+05  1.706767E+05 -7.356668E+05 -2.328969E-09 -3.131923E-11
       207  17  3.586919E+05  8.454248E+05  3.375105E+05 -7.287463E+05  1.431613E-09  4.513725E-09
       207  18  6.238965E+05  1.480833E+06  6.106631E+05 -8.344998E+05  9.111894E-10  3.156200E-09
       207  19 -1.439984E+05 -1.118324E+06 -8.002966E+04 -7.331710E+05  3.377147E+04  9.989764E+04
       207  20 -2.628592E+05 -1.737136E+06 -1.811076E+05 -6.269828E+05  4.777573E+04  4.934822E+04
       207  21 -3.269618E+05 -2.349242E+06 -3.016724E+05 -6.335052E+05  1.729640E+04 -1.291906E+03
       207  22  1.778582E+04 -4.353915E+05  4.532615E+04 -7.344192E+05  3.413296E+04  2.665118E+04
       207  23  4.796541E+04 -4.466504E+05  7.825156E+04 -6.778102E+05  4.768187E+04  6.670753E+04
       207  24  1.485852E+05 -4.358863E+05  1.546432E+05 -7.338480E+05  1.679791E+04  1.066246E+05
       207  25  1.795464E+05  2.480065E+05  1.706831E+05 -7.356681E+05  3.449448E+04 -4.667383E+04
       207  26  3.586962E+05  8.454330E+05  3.375281E+05 -7.287431E+05  4.758530E+04  8.410219E+04
       207  27  6.239092E+05  1.480882E+06  6.107502E+05 -8.344969E+05  1.626538E+04  2.148727E+05
       208   1 -2.789496E+06 -1.074667E+06 -5.662342E+05 -1.025722E+06 -1.949778E+05 -3.333180E+04
       208   2 -2.597952E+06 -1.007565E+06 -4.200638E+05 -9.668740E+05 -1.267048E+05  8.769644E+04
       208   3 -2.393533E+06 -9.640055E+05 -3.474478E+05 -9.412071E+05 -3.607130E+04  1.497900E+05
       208   4 -3.560250E+05 -1.870105E+05  5.101602E+04 -3.854953E+05  1.975579E+04  4.778986E+04
       208   5 -3.762494E+05 -2.058342E+05  2.400739E+04 -3.615079E+05 -2.406310E+04  1.263837E+05
       208   6 -3.613293E+05 -2.259393E+05  1.258526E+04 -3.707091E+05 -4.560256E+04  1.461421E+05
       208   7  2.083253E+06  7.009545E+05  6.679675E+05  2.569794E+05  2.354082E+05  1.292344E+05
       208   8  1.850561E+06  5.962925E+05  4.678809E+05  2.458539E+05  7.897395E+04  1.652148E+05
       208   9  1.675283E+06  5.125477E+05  3.724950E+05  2.015497E+05 -5.516748E+04  1.424816E+05
       208  10 -2.789537E+06 -1.074678E+06 -5.663081E+05 -1.025727E+06 -5.966011E-08 -2.136377E-08
       208  11 -2.597972E+06 -1.007578E+06 -4.201084E+05 -9.668651E+05 -3.672542E-09 -1.487199E-10
       208  12 -2.393540E+06 -9.640299E+05 -3.474924E+05 -9.412027E+05  6.332122E-08  2.109291E-08
       208  13 -3.560260E+05 -1.870130E+05  5.101099E+04 -3.854960E+05  2.124592E-10  1.297379E-10
       208  14 -3.762543E+05 -2.058515E+05  2.397629E+04 -3.615055E+05 -5.256058E-09 -5.174902E-09
       208  15 -3.613373E+05 -2.259628E+05  1.254123E+04 -3.707037E+05  5.191369E-09  6.910151E-10
       208  16  2.083189E+06  7.009218E+05  6.678324E+05  2.569550E+05  5.626000E-08  2.029424E-08
       208  17  1.850547E+06  5.962615E+05  4.678179E+05  2.458434E+05 -3.884453E-09  1.666854E-10
       208  18  1.675275E+06  5.125251E+05  3.724512E+05  2.015560E+05 -5.541761E-08 -2.167153E-08
       208  19 -2.789496E+06 -1.074667E+06 -5.662342E+05 -1.025722E+06  1.949778E+05  3.333180E+04
       208  20 -2.597952E+06 -1.007565E+06 -4.200638E+05 -9.668740E+05  1.267048E+05 -8.769644E+04
       208  21 -2.393533E+06 -9.640055E+05 -3.474478E+05 -9.412071E+05  3.607130E+04 -1.497900E+05
       208  22 -3.560250E+05 -1.870105E+05  5.101602E+04 -3.854953E+05 -1.975579E+04 -4.778986E+04
       208  23 -3.762494E+05 -2.058342E+05  2.400739E+04 -3.615079E+05  2.406310E+04 -1.263837E+05
       208  24 -3.613293E+05 -2.259393E+05  1.258526E+04 -3.707091E+05  4.560256E+04 -1.461421E+05
       208  25  2.083253E+06  7.009545E+05  6.679675E+05  2.569794E+05 -2.354082E+05 -1.292344E+05
       208  26  1.850561E+06  5.962925E+05  4.678809E+05  2.458539E+05 -7.897395E+04 -1.652148E+05
       208  27  1.675283E+06  5.125477E+05  3.724950E+05  2.015497E+05  5.516748E+04 -1.424816E+05
       209   1 -2.272941E+06 -9.172859E+05 -3.229043E+05 -9.062519E+05 -4.020906E+04  1.430952E+05
       209   2 -2.097596E+06 -8.350205E+05 -2.830147E+05 -8.382308E+05 -2.927803E+04  1.407529E+05
       209   3 -1.895827E+06 -7.807824E+05 -2.497204E+05 -8.016264E+05 -1.613637E+04  1.325107E+05
       209   4 -3.620242E+05 -2.268221E+05  9.386627E+03 -3.719956E+05 -4.532806E+04  1.411159E+05
       209   5 -3.763404E+05 -2.148060E+05  4.864505E+03 -3.559018E+05 -4.562901E+04  1.345546E+05
       209   6 -3.620432E+05 -2.285852E+05  2.666080E+03 -3.712316E+05 -4.372564E+04  1.221018E+05
       209   7  1.552772E+06  4.640001E+05  3.415684E+05  1.638020E+05 -5.046401E+04  1.391303E+05
       209   8  1.348074E+06  4.057044E+05  2.926681E+05  1.276815E+05 -6.202828E+04  1.283382E+05
       209   9  1.174246E+06  3.238474E+05  2.549969E+05  6.015951E+04 -7.138716E+04  1.116658E+05
       209  10 -2.272948E+06 -9.173083E+05 -3.229458E+05 -9.062473E+05 -4.377977E-08 -2.049681E-08
       209  11 -2.097603E+06 -8.350420E+05 -2.830536E+05 -8.382275E+05 -7.401202E-09 -4.262416E-09
       209  12 -1.895832E+06 -7.808013E+05 -2.497539E+05 -8.016247E+05  4.729305E-08  2.005931E-08
       209  13 -3.620317E+05 -2.268440E+05  9.345354E+03 -3.719905E+05  1.966370E-09 -1.157240E-09
       209  14 -3.763475E+05 -2.148260E+05  4.826579E+03 -3.558969E+05 -1.204470E-08 -6.316490E-09
       209  15 -3.620493E+05 -2.286017E+05  2.634478E+03 -3.712273E+05 -5.219348E-09 -1.411429E-09
       209  16  1.552764E+06  4.639786E+05  3.415273E+05  1.638076E+05  4.690129E-08  1.975172E-08
       209  17  1.348065E+06  4.056857E+05  2.926299E+05  1.276879E+05 -1.460962E-08 -4.967665E-09
       209  18  1.174237E+06  3.238326E+05  2.549639E+05  6.016593E+04 -5.925593E-08 -2.161907E-08
       209  19 -2.272941E+06 -9.172859E+05 -3.229043E+05 -9.062519E+05  4.020906E+04 -1.430952E+05
       209  20 -2.097596E+06 -8.350205E+05 -2.830147E+05 -8.382308E+05  2.927803E+04 -1.407529E+05
       209  21 -1.895827E+06 -7.807824E+05 -2.497204E+05 -8.016264E+05  1.613637E+04 -1.325107E+05
       209  22 -3.620242E+05 -2.268221E+05  9.386627E+03 -3.719956E+05  4.532806E+04 -1.411159E+05
       209  23 -3.763404E+05 -2.148060E+05  4.864505E+03 -3.559018E+05  4.562901E+04 -1.345546E+05
       209  24 -3.620432E+05 -2.285852E+05  2.666080E+03 -3.712316E+05  4.372564E+04 -1.221018E+05
       209  25  1.552772E+06  4.640001E+05  3.415684E+05  1.638020E+05  5.046401E+04 -1.391303E+05
       209  26  1.348074E+06  4.057044E+05  2.926681E+05  1.276815E+05  6.202828E+04 -1.283382E+05
       209  27  1.174246E+06  3.238474E+05  2.549969E+05  6.015951E+04  7.138716E+04 -1.116658E+05
       210   1 -1.775781E+06 -7.369770E+05 -2.292696E+05 -7.678921E+05 -1.368527E+04  1.236218E+05
       210   2 -1.601167E+06 -6.548982E+05 -1.986132E+05 -6.991158E+05 -7.579540E+03  1.092920E+05
       210   3 -1.398734E+06 -6.006276E+05 -1.683931E+05 -6.619542E+05 -1.263102E+03  9.436224E+04
       210   4 -3.620582E+05 -2.285630E+05  1.980106E+03 -3.714075E+05 -4.085293E+04  1.133814E+05
       210   5 -3.759497E+05 -2.146069E+05  1.042399E+03 -3.556189E+05 -3.589129E+04  9.863605E+04
       210   6 -3.618431E+05 -2.282354E+05  5.680541E+02 -3.714568E+05 -3.071941E+04  8.329130E+04
       210   7  1.053826E+06  2.800630E+05  2.331931E+05  2.593168E+04 -6.808671E+04  1.031163E+05
       210   8  8.508874E+05  2.258421E+05  2.006708E+05 -1.148151E+04 -6.426259E+04  8.795773E+04
       210   9  6.762032E+05  1.442679E+05  1.695096E+05 -8.050246E+04 -6.022799E+04  7.220073E+04
       210  10 -1.775785E+06 -7.369934E+05 -2.292986E+05 -7.678907E+05  5.252263E-09  3.161838E-09
       210  11 -1.601170E+06 -6.549110E+05 -1.986358E+05 -6.991152E+05  2.074355E-09  1.306429E-09
       210  12 -1.398736E+06 -6.006371E+05 -1.684098E+05 -6.619541E+05  1.375895E-09  8.100388E-10
       210  13 -3.620635E+05 -2.285772E+05  1.952819E+03 -3.714038E+05 -8.673843E-10  1.346662E-09
       210  14 -3.759537E+05 -2.146177E+05  1.021701E+03 -3.556160E+05 -2.407139E-09  1.381942E-09
       210  15 -3.618460E+05 -2.282431E+05  5.532480E+02 -3.714548E+05 -1.932030E-09  6.829116E-10
       210  16  1.053818E+06  2.800504E+05  2.331644E+05  2.593733E+04 -5.345377E-09 -7.762740E-10
       210  17  8.508809E+05  2.258326E+05  2.006485E+05 -1.147696E+04 -4.625567E-09  1.432941E-09
       210  18  6.761979E+05  1.442613E+05  1.694930E+05 -8.049896E+04 -3.214786E-09  2.607300E-10
       210  19 -1.775781E+06 -7.369770E+05 -2.292696E+05 -7.678921E+05  1.368527E+04 -1.236218E+05
       210  20 -1.601167E+06 -6.548982E+05 -1.986132E+05 -6.991158E+05  7.579540E+03 -1.092920E+05
       210  21 -1.398734E+06 -6.006276E+05 -1.683931E+05 -6.619542E+05  1.263102E+03 -9.436224E+04
       210  22 -3.620582E+05 -2.285630E+05  1.980106E+03 -3.714075E+05  4.085293E+04 -1.133814E+05
       210  23 -3.759497E+05 -2.146069E+05  1.042399E+03 -3.556189E+05  3.589129E+04 -9.863605E+04
       210  24 -3.618431E+05 -2.282354E+05  5.680541E+02 -3.714568E+05  3.071941E+04 -8.329130E+04
       210  25  1.053826E+06  2.800630E+05  2.331931E+05  2.593168E+04  6.808671E+04 -1.031163E+05
       210  26  8.508874E+05  2.258421E+05  2.006708E+05 -1.148151E+04  6.426259E+04 -8.795773E+04
       210  27  6.762032E+05  1.442679E+05  1.695096E+05 -8.050246E+04  6.022799E+04 -7.220073E+04
       211   1 -1.278530E+06 -5.571688E+05 -1.480656E+05 -6.283271E+05  2.012964E+03  8.530722E+04
       211   2 -1.103526E+06 -4.753545E+05 -1.179644E+05 -5.595008E+05  7.865521E+03  6.985581E+04
       211   3 -9.006613E+05 -4.213004E+05 -8.787569E+04 -5.224063E+05  1.373231E+04  5.434152E+04
       211   4 -3.618141E+05 -2.281705E+05  4.015593E+02 -3.714989E+05 -2.741502E+04  7.425399E+04
       211   5 -3.756710E+05 -2.141699E+05  1.553354E+02 -3.556551E+05 -2.168445E+04  5.876579E+04
       211   6 -3.616838E+05 -2.279086E+05 -1.184571E+01 -3.715563E+05 -1.593963E+04  4.321464E+04
       211   7  5.557952E+05  1.009110E+05  1.488520E+05 -1.143160E+05 -5.688883E+04  6.318356E+04
       211   8  3.527539E+05  4.706973E+04  1.182675E+05 -1.515841E+05 -5.127120E+04  4.766197E+04
       211   9  1.776131E+05 -3.448410E+04  8.785109E+04 -2.205811E+05 -4.563923E+04  3.207737E+04
       211  10 -1.278532E+06 -5.571766E+05 -1.480793E+05 -6.283273E+05  9.440006E-10  1.197656E-09
       211  11 -1.103527E+06 -4.753598E+05 -1.179737E+05 -5.595013E+05 -5.082004E-10  6.470840E-10
       211  12 -9.006623E+05 -4.213037E+05 -8.788160E+04 -5.224069E+05 -1.974632E-09  4.415819E-10
       211  13 -3.618164E+05 -2.281766E+05  3.897888E+02 -3.714972E+05 -2.046229E-09  5.080097E-10
       211  14 -3.756724E+05 -2.141737E+05  1.479641E+02 -3.556540E+05 -1.621787E-09  5.611234E-10
       211  15 -3.616846E+05 -2.279107E+05 -1.583148E+01 -3.715558E+05 -2.957297E-09  7.107688E-10
       211  16  5.557906E+05  1.009059E+05  1.488384E+05 -1.143131E+05 -2.112417E-09  2.771491E-10
       211  17  3.527504E+05  4.706659E+04  1.182583E+05 -1.515821E+05 -3.203771E-10  1.270167E-10
       211  18  1.776106E+05 -3.448576E+04  8.784524E+04 -2.205799E+05  3.563376E-10  9.319700E-10
       211  19 -1.278530E+06 -5.571688E+05 -1.480656E+05 -6.283271E+05 -2.012964E+03 -8.530722E+04
       211  20 -1.103526E+06 -4.753545E+05 -1.179644E+05 -5.595008E+05 -7.865521E+03 -6.985581E+04
       211  21 -9.006613E+05 -4.213004E+05 -8.787569E+04 -5.224063E+05 -1.373231E+04 -5.434152E+04
       211  22 -3.618141E+05 -2.281705E+05  4.015593E+02 -3.714989E+05  2.741502E+04 -7.425399E+04
       211  23 -3.756710E+05 -2.141699E+05  1.553354E+02 -3.556551E+05  2.168445E+04 -5.876579E+04
       211  24 -3.616838E+05 -2.279086E+05 -1.184571E+01 -3.715563E+05  1.593963E+04 -4.321464E+04
       211  25  5.557952E+05  1.009110E+05  1.488520E+05 -1.143160E+05  5.688883E+04 -6.318356E+04
       211  26  3.527539E+05  4.706973E+04  1.182675E+05 -1.515841E+05  5.127120E+04 -4.766197E+04
       211  27  1.776131E+05 -3.448410E+04  8.785109E+04 -2.205811E+05  4.563923E+04 -3.207737E+04
       212   1 -7.802543E+05 -3.779246E+05 -6.751637E+04 -4.887924E+05  1.714461E+04  4.528864E+04
       212   2 -6.049754E+05 -2.962429E+05 -3.747608E+04 -4.199542E+05  2.308449E+04  2.978803E+04
       212   3 -4.018847E+05 -2.423197E+05 -7.510176E+03 -3.829004E+05  2.901092E+04  1.431478E+04
       212   4 -3.616704E+05 -2.278728E+05 -1.011178E+02 -3.715732E+05 -1.253491E+04  3.416236E+04
       212   5 -3.755295E+05 -2.139385E+05 -3.212897E+02 -3.556856E+05 -6.546456E+03  1.868282E+04
       212   6 -3.616265E+05 -2.277760E+05 -6.580680E+02 -3.715963E+05 -5.714840E+02  3.230630E+03
       212   7  5.710345E+04 -7.780227E+04  6.731429E+04 -2.542792E+05 -4.223564E+04  2.302812E+04
       212   8 -1.460266E+05 -1.316284E+05  3.683577E+04 -2.913944E+05 -3.618884E+04  7.573308E+03
       212   9 -3.213652E+05 -2.132316E+05  6.197622E+03 -3.602911E+05 -3.015560E+04 -7.854170E+03
       212  10 -7.802552E+05 -3.779268E+05 -6.752078E+04 -4.887930E+05 -1.742576E-09  4.372606E-10
       212  11 -6.049762E+05 -2.962440E+05 -3.747875E+04 -4.199548E+05 -2.930594E-09  1.197504E-09
       212  12 -4.018857E+05 -2.423201E+05 -7.512145E+03 -3.829007E+05 -2.555102E-09  2.094082E-09
       212  13 -3.616709E+05 -2.278740E+05 -1.036056E+02 -3.715728E+05 -1.448394E-09  1.121605E-09
       212  14 -3.755297E+05 -2.139389E+05 -3.220260E+02 -3.556855E+05 -1.727082E-09  1.904706E-09
       212  15 -3.616266E+05 -2.277760E+05 -6.580882E+02 -3.715963E+05 -1.537803E-09  2.110474E-09
       212  16  5.710139E+04 -7.780332E+04  6.730995E+04 -2.542784E+05  1.016534E-09  1.905121E-09
       212  17 -1.460280E+05 -1.316289E+05  3.683321E+04 -2.913942E+05  4.921013E-10  2.418744E-09
       212  18 -3.213662E+05 -2.132319E+05  6.195795E+03 -3.602913E+05  9.188958E-10  1.856103E-09
       212  19 -7.802543E+05 -3.779246E+05 -6.751637E+04 -4.887924E+05 -1.714461E+04 -4.528864E+04
       212  20 -6.049754E+05 -2.962429E+05 -3.747608E+04 -4.199542E+05 -2.308449E+04 -2.978803E+04
       212  21 -4.018847E+05 -2.423197E+05 -7.510176E+03 -3.829004E+05 -2.901092E+04 -1.431478E+04
       212  22 -3.616704E+05 -2.278728E+05 -1.011178E+02 -3.715732E+05  1.253491E+04 -3.416236E+04
       212  23 -3.755295E+05 -2.139385E+05 -3.212897E+02 -3.556856E+05  6.546456E+03 -1.868282E+04
       212  24 -3.616265E+05 -2.277760E+05 -6.580680E+02 -3.715963E+05  5.714840E+02 -3.230630E+03
       212  25  5.710345E+04 -7.780227E+04  6.731429E+04 -2.542792E+05  4.223564E+04 -2.302812E+04
       212  26 -1.460266E+05 -1.316284E+05  3.683577E+04 -2.913944E+05  3.618884E+04 -7.573308E+03
       212  27 -3.213652E+05 -2.132316E+05  6.197622E+03 -3.602911E+05  3.015560E+04  7.854170E+03
       213   1 -2.813603E+05 -1.989791E+05  1.273573E+04 -3.492835E+05  3.255544E+04  5.335823E+03
       213   2 -1.060163E+05 -1.173505E+05  4.249176E+04 -2.804016E+05  3.845839E+04 -9.933639E+03
       213   3  9.711063E+04 -6.347473E+04  7.213603E+04 -2.432762E+05  4.422860E+04 -2.484087E+04
       213   4 -3.616575E+05 -2.277685E+05 -9.010921E+02 -3.716045E+05  2.943725E+03 -5.759452E+03
       213   5 -3.754932E+05 -2.139317E+05 -1.683669E+03 -3.556836E+05  9.532141E+03 -2.077536E+04
       213   6 -3.617247E+05 -2.279908E+05 -3.125235E+03 -3.715370E+05  1.598774E+04 -3.542894E+04
       213   7 -4.419469E+05 -2.565569E+05 -1.453459E+04 -3.939225E+05 -2.666426E+04 -1.685334E+04
       213   8 -6.448923E+05 -3.105054E+05 -4.585760E+04 -4.309349E+05 -1.938097E+04 -3.161217E+04
       213   9 -8.203334E+05 -3.924850E+05 -7.838792E+04 -4.997084E+05 -1.223101E+04 -4.600874E+04
       213  10 -2.813614E+05 -1.989794E+05  1.273369E+04 -3.492836E+05 -6.624937E-09  5.769797E-10
       213  11 -1.060179E+05 -1.173510E+05  4.248879E+04 -2.804013E+05  2.272405E-09  3.019588E-09
       213  12  9.710837E+04 -6.347591E+04  7.213120E+04 -2.432754E+05  3.504794E-09 -8.164001E-10
       213  13 -3.616576E+05 -2.277685E+05 -9.011707E+02 -3.716045E+05  2.089157E-09  3.265743E-09
       213  14 -3.754935E+05 -2.139322E+05 -1.684650E+03 -3.556834E+05  3.738754E-09  5.205158E-09
       213  15 -3.617254E+05 -2.279922E+05 -3.128073E+03 -3.715365E+05  1.850034E-09  2.647310E-09
       213  16 -4.419478E+05 -2.565574E+05 -1.453646E+04 -3.939229E+05  1.082963E-08  6.018801E-09
       213  17 -6.448930E+05 -3.105066E+05 -4.586018E+04 -4.309354E+05  8.595164E-09  7.809047E-09
       213  18 -8.203342E+05 -3.924874E+05 -7.839218E+04 -4.997088E+05  3.319322E-10  5.917797E-09
       213  19 -2.813603E+05 -1.989791E+05  1.273573E+04 -3.492835E+05 -3.255544E+04 -5.335823E+03
       213  20 -1.060163E+05 -1.173505E+05  4.249176E+04 -2.804016E+05 -3.845839E+04  9.933639E+03
       213  21  9.711063E+04 -6.347473E+04  7.213603E+04 -2.432762E+05 -4.422860E+04  2.484087E+04
       213  22 -3.616575E+05 -2.277685E+05 -9.010921E+02 -3.716045E+05 -2.943725E+03  5.759452E+03
       213  23 -3.754932E+05 -2.139317E+05 -1.683669E+03 -3.556836E+05 -9.532141E+03  2.077536E+04
       213  24 -3.617247E+05 -2.279908E+05 -3.125235E+03 -3.715370E+05 -1.598774E+04  3.542894E+04
       213  25 -4.419469E+05 -2.565569E+05 -1.453459E+04 -3.939225E+05  2.666426E+04  1.685334E+04
       213  26 -6.448923E+05 -3.105054E+05 -4.585760E+04 -4.309349E+05  1.938097E+04  3.161217E+04
       213  27 -8.203334E+05 -3.924850E+05 -7.838792E+04 -4.997084E+05  1.223101E+04  4.600874E+04
       214   1  2.177925E+05 -2.018739E+04  9.196810E+04 -2.098190E+05  4.836249E+04 -3.330791E+04
       214   2  3.921551E+05  6.182984E+04  1.219077E+05 -1.399367E+05  5.028830E+04 -4.754447E+04
       214   3  5.941860E+05  1.153502E+05  1.538105E+05 -1.011298E+05  5.086354E+04 -5.816781E+04
       214   4 -3.619889E+05 -2.279981E+05 -4.180300E+03 -3.715594E+05  1.985124E+04 -4.400090E+04
       214   5 -3.754409E+05 -2.149775E+05 -7.729393E+03 -3.553171E+05  2.867354E+04 -5.565966E+04
       214   6 -3.626269E+05 -2.318266E+05 -1.478055E+04 -3.701673E+05  3.614526E+04 -6.370231E+04
       214   7 -9.414034E+05 -4.357723E+05 -1.003315E+05 -5.331562E+05 -8.631464E+03 -5.468323E+04
       214   8 -1.142409E+06 -4.917250E+05 -1.373799E+05 -5.704477E+05  7.087154E+03 -6.376414E+04
       214   9 -1.318483E+06 -5.789162E+05 -1.834026E+05 -6.388196E+05  2.145095E+04 -6.922772E+04
       214  10  2.177897E+05 -2.018921E+04  9.196162E+04 -2.098177E+05 -1.731695E-08 -9.653621E-09
       214  11  3.921518E+05  6.182673E+04  1.218987E+05 -1.399348E+05 -5.007638E-08 -1.843340E-08
       214  12  5.941823E+05  1.153459E+05  1.537993E+05 -1.011274E+05 -8.049178E-08 -2.351526E-08
       214  13 -3.619899E+05 -2.280003E+05 -4.184678E+03 -3.715587E+05 -1.817258E-09 -2.854905E-09
       214  14 -3.754426E+05 -2.149810E+05 -7.736757E+03 -3.553158E+05 -5.070411E-09 -1.646080E-08
       214  15 -3.626294E+05 -2.318313E+05 -1.479062E+04 -3.701654E+05 -1.396779E-08 -3.133896E-08
       214  16 -9.414043E+05 -4.357756E+05 -1.003373E+05 -5.331566E+05  1.460995E-08  1.284139E-08
       214  17 -1.142410E+06 -4.917293E+05 -1.373877E+05 -5.704473E+05  3.934994E-08  2.479892E-08
       214  18 -1.318484E+06 -5.789214E+05 -1.834124E+05 -6.388184E+05  5.549227E-08  3.095332E-08
       214  19  2.177925E+05 -2.018739E+04  9.196810E+04 -2.098190E+05 -4.836249E+04  3.330791E+04
       214  20  3.921551E+05  6.182984E+04  1.219077E+05 -1.399367E+05 -5.028830E+04  4.754447E+04
       214  21  5.941860E+05  1.153502E+05  1.538105E+05 -1.011298E+05 -5.086354E+04  5.816781E+04
       214  22 -3.619889E+05 -2.279981E+05 -4.180300E+03 -3.715594E+05 -1.985124E+04  4.400090E+04
       214  23 -3.754409E+05 -2.149775E+05 -7.729393E+03 -3.553171E+05 -2.867354E+04  5.565966E+04
       214  24 -3.626269E+05 -2.318266E+05 -1.478055E+04 -3.701673E+05 -3.614526E+04  6.370231E+04
       214  25 -9.414034E+05 -4.357723E+05 -1.003315E+05 -5.331562E+05  8.631464E+03  5.468323E+04
       214  26 -1.142409E+06 -4.917250E+05 -1.373799E+05 -5.704477E+05 -7.087154E+03  6.376414E+04
       214  27 -1.318483E+06 -5.789162E+05 -1.834026E+05 -6.388196E+05 -2.145095E+04  6.922772E+04
       215   1  7.167774E+05  1.574186E+05  1.737606E+05 -7.029754E+04  5.817314E+04 -6.257964E+04
       215   2  8.747987E+05  2.453420E+05  2.188769E+05  1.953772E+04  5.433581E+03 -7.216283E+04
       215   3  1.056652E+06  2.860567E+05  2.944953E+05  8.861109E+04 -6.092162E+04 -4.563015E+04
       215   4 -3.653190E+05 -2.320264E+05 -1.977927E+04 -3.704166E+05  4.072051E+04 -6.914471E+04
       215   5 -3.747835E+05 -2.321521E+05 -3.792823E+04 -3.485813E+05  5.706718E+04 -5.278401E+04
       215   6 -3.741485E+05 -2.932141E+05 -8.031054E+04 -3.475255E+05  5.980024E+04 -2.603218E+02
       215   7 -1.446189E+06 -6.213650E+05 -2.133592E+05 -6.700510E+05  2.330016E+04 -7.569779E+04
       215   8 -1.622726E+06 -7.094612E+05 -2.947954E+05 -7.159929E+05  1.085883E+05 -3.345184E+04
       215   9 -1.802852E+06 -8.722207E+05 -4.552105E+05 -7.826911E+05  1.802128E+05  4.497202E+04
       215  10  7.167727E+05  1.574135E+05  1.737469E+05 -7.029461E+04  5.257640E-08  2.940268E-08
       215  11  8.747972E+05  2.453364E+05  2.188670E+05  1.953803E+04  3.416637E-08  2.261106E-08
       215  12  1.056647E+06  2.860535E+05  2.944844E+05  8.860885E+04  1.029118E-08  7.684456E-09
       215  13 -3.653220E+05 -2.320320E+05 -1.979137E+04 -3.704143E+05 -1.179684E-08 -3.172828E-08
       215  14 -3.747878E+05 -2.321559E+05 -3.793958E+04 -3.485788E+05 -3.944394E-09 -1.748683E-08
       215  15 -3.741523E+05 -2.932150E+05 -8.031726E+04 -3.475255E+05 -8.955999E-10 -3.523920E-09
       215  16 -1.446191E+06 -6.213713E+05 -2.133710E+05 -6.700496E+05 -7.725118E-08 -2.146956E-08
       215  17 -1.622739E+06 -7.094656E+05 -2.948197E+05 -7.159900E+05 -4.740353E-08 -1.725080E-08
       215  18 -1.802888E+06 -8.722316E+05 -4.552755E+05 -7.826976E+05 -1.227866E-08 -5.043185E-09
       215  19  7.167774E+05  1.574186E+05  1.737606E+05 -7.029754E+04 -5.817314E+04  6.257964E+04
       215  20  8.747987E+05  2.453420E+05  2.188769E+05  1.953772E+04 -5.433581E+03  7.216283E+04
       215  21  1.056652E+06  2.860567E+05  2.944953E+05  8.861109E+04  6.092162E+04  4.563015E+04
       215  22 -3.653190E+05 -2.320264E+05 -1.977927E+04 -3.704166E+05 -4.072051E+04  6.914471E+04
       215  23 -3.747835E+05 -2.321521E+05 -3.792823E+04 -3.485813E+05 -5.706718E+04  5.278401E+04
       215  24 -3.741485E+05 -2.932141E+05 -8.031054E+04 -3.475255E+05 -5.980024E+04  2.603218E+02
       215  25 -1.446189E+06 -6.213650E+05 -2.133592E+05 -6.700510E+05 -2.330016E+04  7.569779E+04
       215  26 -1.622726E+06 -7.094612E+05 -2.947954E+05 -7.159929E+05 -1.085883E+05  3.345184E+04
       215  27 -1.802852E+06 -8.722207E+05 -4.552105E+05 -7.826911E+05 -1.802128E+05 -4.497202E+04
       216   1 -6.242508E+05 -2.115960E+05 -1.828208E+05 -1.117277E+05 -2.197379E+04  1.722207E+04
       216   2 -4.709439E+05 -2.463081E+05 -1.543137E+05 -1.402799E+05  6.654427E+03  5.737046E+04
       216   3 -3.093505E+05 -2.337053E+05 -1.326172E+05 -1.948855E+05  3.532392E+04  6.789326E+04
       216   4  7.458308E+05  1.259442E+05  1.356783E+05 -1.950911E+05  9.541567E+04  1.730293E+04
       216   5  7.363094E+05  3.945184E+04  6.767249E+04 -1.820405E+05  6.078495E+04  5.738875E+04
       216   6  7.459968E+05  1.119551E+04  3.675906E+04 -1.950346E+05  2.618945E+04  6.787933E+04
       216   7  2.117690E+06  4.633857E+05  4.541065E+05 -2.786398E+05  2.130624E+05  1.735219E+04
       216   8  1.944987E+06  3.251371E+05  2.896106E+05 -2.238845E+05  1.150179E+05  5.739975E+04
       216   9  1.802450E+06  2.560404E+05  2.061060E+05 -1.951839E+05  1.703997E+04  6.786542E+04
       216  10 -6.242514E+05 -2.115965E+05 -1.828223E+05 -1.117274E+05 -6.232050E-08 -2.096954E-10
       216  11 -4.709448E+05 -2.463116E+05 -1.543199E+05 -1.402802E+05 -5.975493E-10 -4.071924E-10
       216  12 -3.093530E+05 -2.337106E+05 -1.326282E+05 -1.948874E+05  6.196970E-08 -1.564737E-10
       216  13  7.458209E+05  1.259414E+05  1.356606E+05 -1.950924E+05  1.312889E-09  4.848464E-10
       216  14  7.363045E+05  3.944731E+04  6.765936E+04 -1.820433E+05 -9.558263E-10 -1.073968E-10
       216  15  7.459949E+05  1.119037E+04  3.674911E+04 -1.950360E+05  9.550795E-11 -4.425878E-10
       216  16  2.117641E+06  4.633732E+05  4.540209E+05 -2.786428E+05  6.275675E-08  6.530140E-10
       216  17  1.944972E+06  3.251300E+05  2.895796E+05 -2.238898E+05  1.969508E-09  4.427406E-10
       216  18  1.802449E+06  2.560354E+05  2.060968E+05 -1.951848E+05 -6.118307E-08  9.945275E-10
       216  19 -6.242508E+05 -2.115960E+05 -1.828208E+05 -1.117277E+05  2.197379E+04 -1.722207E+04
       216  20 -4.709439E+05 -2.463081E+05 -1.543137E+05 -1.402799E+05 -6.654427E+03 -5.737046E+04
       216  21 -3.093505E+05 -2.337053E+05 -1.326172E+05 -1.948855E+05 -3.532392E+04 -6.789326E+04
       216  22  7.458308E+05  1.259442E+05  1.356783E+05 -1.950911E+05 -9.541567E+04 -1.730293E+04
       216  23  7.363094E+05  3.945184E+04  6.767249E+04 -1.820405E+05 -6.078495E+04 -5.738875E+04
       216  24  7.459968E+05  1.119551E+04  3.675906E+04 -1.950346E+05 -2.618945E+04 -6.787933E+04
       216  25  2.117690E+06  4.633857E+05  4.541065E+05 -2.786398E+05 -2.130624E+05 -1.735219E+04
       216  26  1.944987E+06  3.251371E+05  2.896106E+05 -2.238845E+05 -1.150179E+05 -5.739975E+04
       216  27  1.802450E+06  2.560404E+05  2.061060E+05 -1.951839E+05 -1.703997E+04 -6.786542E+04
       217   1 -2.129846E+05 -2.121087E+05 -1.218299E+05 -1.909354E+05  3.084227E+04  6.425218E+04
       217   2 -5.644466E+04 -1.809690E+05 -1.036237E+05 -1.795167E+05  3.094777E+04  5.805387E+04
       217   3  1.010347E+05 -1.464470E+05 -8.461768E+04 -1.961858E+05  3.105100E+04  4.830354E+04
       217   4  7.422585E+05  8.765933E+03  2.757049E+04 -1.954970E+05  2.142288E+04  6.424015E+04
       217   5  7.411886E+05  2.220635E+03  1.498278E+04 -1.814541E+05  1.393207E+04  5.804394E+04
       217   6  7.423481E+05  3.731811E+02  8.462481E+03 -1.954961E+05  6.439019E+03  4.829809E+04
       217   7  1.698412E+06  2.295959E+05  1.769494E+05 -2.000658E+05  1.198953E+04  6.422828E+04
       217   8  1.539461E+06  1.853805E+05  1.335784E+05 -1.833941E+05 -3.104605E+03  5.803413E+04
       217   9  1.384077E+06  1.471748E+05  1.015382E+05 -1.948057E+05 -1.819732E+04  4.829259E+04
       217  10 -2.129867E+05 -2.121134E+05 -1.218394E+05 -1.909370E+05  1.371935E-09  4.193162E-10
       217  11 -5.644659E+04 -1.809728E+05 -1.036319E+05 -1.795181E+05  3.553391E-10  9.167841E-10
       217  12  1.010330E+05 -1.464498E+05 -8.462388E+04 -1.961870E+05 -2.294071E-09  1.009194E-09
       217  13  7.422569E+05  8.761376E+03  2.756187E+04 -1.954981E+05  2.828132E-10  1.180557E-09
       217  14  7.411875E+05  2.216964E+03  1.497608E+04 -1.814548E+05  3.289363E-10  1.106875E-09
       217  15  7.423474E+05  3.706641E+02  8.458018E+03 -1.954964E+05  1.085149E-09  5.097547E-10
       217  16  1.698410E+06  2.295914E+05  1.769413E+05 -2.000664E+05 -1.761949E-09  7.810717E-10
       217  17  1.539461E+06  1.853769E+05  1.335721E+05 -1.833940E+05 -1.768198E-09  8.490939E-10
       217  18  1.384076E+06  1.471722E+05  1.015332E+05 -1.948050E+05 -1.177688E-10  3.165930E-10
       217  19 -2.129846E+05 -2.121087E+05 -1.218299E+05 -1.909354E+05 -3.084227E+04 -6.425218E+04
       217  20 -5.644466E+04 -1.809690E+05 -1.036237E+05 -1.795167E+05 -3.094777E+04 -5.805387E+04
       217  21  1.010347E+05 -1.464470E+05 -8.461768E+04 -1.961858E+05 -3.105100E+04 -4.830354E+04
       217  22  7.422585E+05  8.765933E+03  2.757049E+04 -1.954970E+05 -2.142288E+04 -6.424015E+04
       217  23  7.411886E+05  2.220635E+03  1.498278E+04 -1.814541E+05 -1.393207E+04 -5.804394E+04
       217  24  7.423481E+05  3.731811E+02  8.462481E+03 -1.954961E+05 -6.439019E+03 -4.829809E+04
       217  25  1.698412E+06  2.295959E+05  1.769494E+05 -2.000658E+05 -1.198953E+04 -6.422828E+04
       217  26  1.539461E+06  1.853805E+05  1.335784E+05 -1.833941E+05  3.104605E+03 -5.803413E+04
       217  27  1.384077E+06  1.471748E+05  1.015382E+05 -1.948057E+05  1.819732E+04 -4.829259E+04
       218   1  1.990139E+05 -1.238457E+05 -7.160618E+04 -1.957310E+05  2.981520E+04  4.146028E+04
       218   2  3.557944E+05 -8.825333E+04 -5.150190E+04 -1.815873E+05  2.893444E+04  2.971278E+04
       218   3  5.127940E+05 -5.246995E+04 -3.076656E+04 -1.957574E+05  2.805096E+04  1.754151E+04
       218   4  7.419531E+05  2.868893E+02  6.398501E+03 -1.955472E+05  5.171941E+03  4.145737E+04
       218   5  7.417975E+05 -7.660611E+01  3.615214E+03 -1.813909E+05  3.381433E+03  2.971280E+04
       218   6  7.419952E+05 -9.036550E+01  2.092333E+03 -1.955473E+05  1.588425E+03  1.754459E+04
       218   7  1.285191E+06  1.244064E+05  8.440093E+04 -1.953631E+05 -1.949195E+04  4.145445E+04
       218   8  1.127952E+06  8.809372E+04  5.873258E+04 -1.811943E+05 -2.218677E+04  2.971281E+04
       218   9  9.712510E+05  5.228720E+04  3.495306E+04 -1.953372E+05 -2.488346E+04  1.754764E+04
       218  10  1.990125E+05 -1.238478E+05 -7.161108E+04 -1.957320E+05 -2.750704E-08  1.997256E-09
       218  11  3.557933E+05 -8.825451E+04 -5.150513E+04 -1.815880E+05  8.140342E-09  4.366464E-09
       218  12  5.127930E+05 -5.247049E+04 -3.076861E+04 -1.957578E+05  3.942835E-08  6.036976E-09
       218  13  7.419526E+05  2.850358E+02  6.395219E+03 -1.955473E+05  8.083480E-10 -7.252264E-10
       218  14  7.417972E+05 -7.755758E+01  3.613533E+03 -1.813910E+05  2.121421E-09 -5.318840E-09
       218  15  7.419951E+05 -9.069684E+01  2.091750E+03 -1.955474E+05  1.194318E-09 -1.052622E-08
       218  16  1.285190E+06  1.244045E+05  8.439698E+04 -1.953625E+05  2.660860E-08  1.097312E-09
       218  17  1.127952E+06  8.809264E+04  5.873000E+04 -1.811938E+05 -7.399917E-09  4.473233E-09
       218  18  9.712502E+05  5.228671E+04  3.495132E+04 -1.953369E+05 -3.906367E-08  8.004621E-09
       218  19  1.990139E+05 -1.238457E+05 -7.160618E+04 -1.957310E+05 -2.981520E+04 -4.146028E+04
       218  20  3.557944E+05 -8.825333E+04 -5.150190E+04 -1.815873E+05 -2.893444E+04 -2.971278E+04
       218  21  5.127940E+05 -5.246995E+04 -3.076656E+04 -1.957574E+05 -2.805096E+04 -1.754151E+04
       218  22  7.419531E+05  2.868893E+02  6.398501E+03 -1.955472E+05 -5.171941E+03 -4.145737E+04
       218  23  7.417975E+05 -7.660611E+01  3.615214E+03 -1.813909E+05 -3.381433E+03 -2.971280E+04
       218  24  7.419952E+05 -9.036550E+01  2.092333E+03 -1.955473E+05 -1.588425E+03 -1.754459E+04
       218  25  1.285191E+06  1.244064E+05  8.440093E+04 -1.953631E+05  1.949195E+04 -4.145445E+04
       218  26  1.127952E+06  8.809372E+04  5.873258E+04 -1.811943E+05  2.218677E+04 -2.971281E+04
       218  27  9.712510E+05  5.228720E+04  3.495306E+04 -1.953372E+05  2.488346E+04 -1.754764E+04
       219   1  6.109044E+05 -2.993156E+04 -1.677470E+04 -1.956962E+05  2.772388E+04  1.031921E+04
       219   2  7.677462E+05  5.807860E+03  4.522119E+03 -1.814789E+05  2.734693E+04 -2.083269E+03
       219   3  9.246823E+05  4.154425E+04  2.606925E+04 -1.955984E+05  2.697009E+04 -1.452899E+04
       219   4  7.419418E+05 -6.882439E+01  1.601848E+03 -1.955527E+05  1.257052E+03  1.032312E+04
       219   5  7.418990E+05 -6.999069E+01  9.564614E+02 -1.813843E+05  7.841048E+02 -2.079548E+03
       219   6  7.419392E+05 -5.767254E+01  6.252031E+02 -1.955528E+05  3.113537E+02 -1.452548E+04
       219   7  8.729981E+05  2.979352E+04  1.998080E+04 -1.954092E+05 -2.521512E+04  1.032700E+04
       219   8  7.160540E+05 -5.947492E+03 -2.606556E+03 -1.812897E+05 -2.577767E+04 -2.075834E+03
       219   9  5.592315E+05 -4.166069E+04 -2.481659E+04 -1.955072E+05 -2.633990E+04 -1.452197E+04
       219  10  6.109036E+05 -2.993188E+04 -1.677634E+04 -1.956965E+05 -3.759906E-08  5.305911E-09
       219  11  7.677454E+05  5.807655E+03  4.520708E+03 -1.814789E+05 -5.807503E-09  2.627570E-09
       219  12  9.246815E+05  4.154383E+04  2.606749E+04 -1.955981E+05  2.321959E-08  1.091850E-09
       219  13  7.419418E+05 -6.893929E+01  1.601645E+03 -1.955527E+05  1.054331E-09 -1.107128E-08
       219  14  7.418990E+05 -6.999550E+01  9.564521E+02 -1.813843E+05 -1.773084E-09 -6.693739E-09
       219  15  7.419392E+05 -5.789921E+01  6.248063E+02 -1.955528E+05  2.570798E-11 -8.810666E-10
       219  16  8.729973E+05  2.979323E+04  1.997941E+04 -1.954090E+05  3.937961E-08  7.546716E-09
       219  17  7.160533E+05 -5.947675E+03 -2.607811E+03 -1.812898E+05  6.581803E-09  3.747397E-09
       219  18  5.592307E+05 -4.166110E+04 -2.481829E+04 -1.955075E+05 -2.375482E-08  1.628010E-09
       219  19  6.109044E+05 -2.993156E+04 -1.677470E+04 -1.956962E+05 -2.772388E+04 -1.031921E+04
       219  20  7.677462E+05  5.807860E+03  4.522119E+03 -1.814789E+05 -2.734693E+04  2.083269E+03
       219  21  9.246823E+05  4.154425E+04  2.606925E+04 -1.955984E+05 -2.697009E+04  1.452899E+04
       219  22  7.419418E+05 -6.882439E+01  1.601848E+03 -1.955527E+05 -1.257052E+03 -1.032312E+04
       219  23  7.418990E+05 -6.999069E+01  9.564614E+02 -1.813843E+05 -7.841048E+02  2.079548E+03
       219  24  7.419392E+05 -5.767254E+01  6.252031E+02 -1.955528E+05 -3.113537E+02  1.452548E+04
       219  25  8.729981E+05  2.979352E+04  1.998080E+04 -1.954092E+05  2.521512E+04 -1.032700E+04
       219  26  7.160540E+05 -5.947492E+03 -2.606556E+03 -1.812897E+05  2.577767E+04  2.075834E+03
       219  27  5.592315E+05 -4.166069E+04 -2.481659E+04 -1.955072E+05  2.633990E+04  1.452197E+04
       220   1  1.022855E+06  6.403449E+04  4.040242E+04 -1.955855E+05  2.686839E+04 -2.178860E+04
       220   2  1.179785E+06  9.972577E+04  6.223508E+04 -1.813525E+05  2.651377E+04 -3.422447E+04
       220   3  1.336828E+06  1.354334E+05  8.431247E+04 -1.954640E+05  2.616218E+04 -4.660131E+04
       220   4  7.419269E+05 -6.662485E+01  5.360440E+02 -1.955547E+05  2.053106E+02 -2.178617E+04
       220   5  7.418705E+05 -1.120170E+02  4.690551E+02 -1.813819E+05 -2.618551E+01 -3.422548E+04
       220   6  7.418802E+05 -1.618435E+02  5.595477E+02 -1.955547E+05 -2.545622E+02 -4.660577E+04
       220   7  4.610801E+05 -6.417091E+04 -3.932878E+04 -1.955240E+05 -2.644624E+04 -2.178373E+04
       220   8  3.041512E+05 -9.995802E+04 -6.129694E+04 -1.814112E+05 -2.654827E+04 -3.422648E+04
       220   9  1.472915E+05 -1.357726E+05 -8.319551E+04 -1.956453E+05 -2.664714E+04 -4.661022E+04
       220  10  1.022854E+06  6.403378E+04  4.040017E+04 -1.955850E+05 -7.083331E-10  1.145269E-09
       220  11  1.179784E+06  9.972433E+04  6.223156E+04 -1.813518E+05  1.300434E-09  1.545851E-09
       220  12  1.336827E+06  1.354309E+05  8.430710E+04 -1.954631E+05 -3.938637E-11  8.854320E-10
       220  13  7.419268E+05 -6.713472E+01  5.351517E+02 -1.955547E+05  1.621331E-09  1.315679E-09
       220  14  7.418702E+05 -1.132753E+02  4.668531E+02 -1.813819E+05 -1.123532E-09  1.514176E-09
       220  15  7.418796E+05 -1.641768E+02  5.554644E+02 -1.955547E+05 -1.677974E-09  5.662355E-10
       220  16  4.610792E+05 -6.417161E+04 -3.933099E+04 -1.955245E+05 -1.652197E-09  1.432852E-09
       220  17  3.041502E+05 -9.995947E+04 -6.130047E+04 -1.814120E+05 -2.278456E-09  1.125706E-09
       220  18  1.472902E+05 -1.357751E+05 -8.320093E+04 -1.956463E+05  4.078219E-11 -1.341493E-11
       220  19  1.022855E+06  6.403449E+04  4.040242E+04 -1.955855E+05 -2.686839E+04  2.178860E+04
       220  20  1.179785E+06  9.972577E+04  6.223508E+04 -1.813525E+05 -2.651377E+04  3.422447E+04
       220  21  1.336828E+06  1.354334E+05  8.431247E+04 -1.954640E+05 -2.616218E+04  4.660131E+04
       220  22  7.419269E+05 -6.662485E+01  5.360440E+02 -1.955547E+05 -2.053106E+02  2.178617E+04
       220  23  7.418705E+05 -1.120170E+02  4.690551E+02 -1.813819E+05  2.618551E+01  3.422548E+04
       220  24  7.418802E+05 -1.618435E+02  5.595477E+02 -1.955547E+05  2.545622E+02  4.660577E+04
       220  25  4.610801E+05 -6.417091E+04 -3.932878E+04 -1.955240E+05  2.644624E+04  2.178373E+04
       220  26  3.041512E+05 -9.995802E+04 -6.129694E+04 -1.814112E+05  2.654827E+04  3.422648E+04
       220  27  1.472915E+05 -1.357726E+05 -8.319551E+04 -1.956453E+05  2.664714E+04  4.661022E+04
       221   1  1.435147E+06  1.579292E+05  9.893589E+04 -1.954066E+05  2.605739E+04 -5.380780E+04
       221   2  1.592124E+06  1.937035E+05  1.217309E+05 -1.811250E+05  2.435030E+04 -6.587257E+04
       221   3  1.749508E+06  2.297675E+05  1.457319E+05 -1.951764E+05  2.264838E+04 -7.737700E+04
       221   4  7.418811E+05 -2.007818E+02  6.668933E+02 -1.955524E+05 -3.629281E+02 -5.381522E+04
       221   5  7.417470E+05 -2.776294E+02  1.036342E+03 -1.813848E+05 -8.727872E+02 -6.588634E+04
       221   6  7.417901E+05 -2.708149E+02  1.781338E+03 -1.955523E+05 -1.377081E+03 -7.739673E+04
       221   7  4.910159E+04 -1.583520E+05 -9.760627E+04 -1.956980E+05 -2.675508E+04 -5.382264E+04
       221   8 -1.078988E+05 -1.942909E+05 -1.196661E+05 -1.816441E+05 -2.606288E+04 -6.590011E+04
       221   9 -2.649027E+05 -2.303548E+05 -1.421822E+05 -1.959276E+05 -2.536530E+04 -7.741645E+04
       221  10  1.435146E+06  1.579259E+05  9.892917E+04 -1.954055E+05 -6.548651E-08  3.941214E-10
       221  11  1.592122E+06  1.936987E+05  1.217216E+05 -1.811237E+05 -2.801796E-09 -1.624883E-09
       221  12  1.749506E+06  2.297609E+05  1.457197E+05 -1.951750E+05  6.511326E-08 -1.097364E-09
       221  13  7.418803E+05 -2.038928E+02  6.614488E+02 -1.955524E+05 -1.038779E-09 -2.786711E-10
       221  14  7.417458E+05 -2.822927E+02  1.028180E+03 -1.813848E+05 -3.570062E-09 -1.334853E-09
       221  15  7.417885E+05 -2.772502E+02  1.770074E+03 -1.955524E+05 -5.813633E-10 -1.047032E-09
       221  16  4.910004E+04 -1.583553E+05 -9.761306E+04 -1.956991E+05  6.253573E-08 -1.029999E-09
       221  17 -1.079007E+05 -1.942958E+05 -1.196755E+05 -1.816455E+05  2.655667E-10 -1.396307E-09
       221  18 -2.649050E+05 -2.303614E+05 -1.421947E+05 -1.959292E+05 -6.503920E-08 -2.065295E-10
       221  19  1.435147E+06  1.579292E+05  9.893589E+04 -1.954066E+05 -2.605739E+04  5.380780E+04
       221  20  1.592124E+06  1.937035E+05  1.217309E+05 -1.811250E+05 -2.435030E+04  6.587257E+04
       221  21  1.749508E+06  2.297675E+05  1.457319E+05 -1.951764E+05 -2.264838E+04  7.737700E+04
       221  22  7.418811E+05 -2.007818E+02  6.668933E+02 -1.955524E+05  3.629281E+02  5.381522E+04
       221  23  7.417470E+05 -2.776294E+02  1.036342E+03 -1.813848E+05  8.727872E+02  6.588634E+04
       221  24  7.417901E+05 -2.708149E+02  1.781338E+03 -1.955523E+05  1.377081E+03  7.739673E+04
       221  25  4.910159E+04 -1.583520E+05 -9.760627E+04 -1.956980E+05  2.675508E+04  5.382264E+04
       221  26 -1.078988E+05 -1.942909E+05 -1.196661E+05 -1.816441E+05  2.606288E+04  6.590011E+04
       221  27 -2.649027E+05 -2.303548E+05 -1.421822E+05 -1.959276E+05  2.536530E+04  7.741645E+04
       222   1  1.848349E+06  2.525104E+05  1.616046E+05 -1.948745E+05  2.226894E+04 -8.407964E+04
       222   2  2.004575E+06  2.895262E+05  1.901339E+05 -1.813550E+05  1.013640E+04 -9.293448E+04
       222   3  2.163334E+06  3.295705E+05  2.273474E+05 -1.958634E+05 -1.997646E+03 -9.707878E+04
       222   4  7.418809E+05 -2.982698E+02  2.342570E+03 -1.954846E+05 -1.723890E+03 -8.410387E+04
       222   5  7.414328E+05  1.009354E+02  4.103148E+03 -1.814694E+05 -3.764405E+03 -9.296114E+04
       222   6  7.417461E+05  1.782949E+03  7.556209E+03 -1.954856E+05 -5.803308E+03 -9.710289E+04
       222   7 -3.633526E+05 -2.531624E+05 -1.569365E+05 -1.960935E+05 -2.567587E+04 -8.412808E+04
       222   8 -5.201073E+05 -2.893984E+05 -1.819554E+05 -1.815836E+05 -1.763815E+04 -9.298782E+04
       222   9 -6.778283E+05 -3.261027E+05 -2.122811E+05 -1.951089E+05 -9.600601E+03 -9.712704E+04
       222  10  1.848346E+06  2.525026E+05  1.615904E+05 -1.948730E+05  1.715321E-09 -5.602162E-10
       222  11  2.004572E+06  2.895169E+05  1.901174E+05 -1.813542E+05  1.193790E-09 -5.995610E-12
       222  12  2.163331E+06  3.295603E+05  2.273297E+05 -1.958635E+05  2.909355E-09 -7.740504E-10
       222  13  7.418790E+05 -3.058690E+02  2.329268E+03 -1.954847E+05 -1.094032E-09 -1.614604E-10
       222  14  7.414305E+05  9.164850E+01  4.086876E+03 -1.814697E+05  2.033785E-09  3.245616E-10
       222  15  7.417436E+05  1.772811E+03  7.538420E+03 -1.954861E+05 -1.038222E-09 -3.277408E-10
       222  16 -3.633552E+05 -2.531702E+05 -1.569510E+05 -1.960952E+05 -1.755357E-09  5.802565E-10
       222  17 -5.201100E+05 -2.894078E+05 -1.819723E+05 -1.815850E+05 -1.075450E-09  2.564656E-09
       222  18 -6.778310E+05 -3.261129E+05 -2.122990E+05 -1.951096E+05 -2.263884E-09  5.278181E-10
       222  19  1.848349E+06  2.525104E+05  1.616046E+05 -1.948745E+05 -2.226894E+04  8.407964E+04
       222  20  2.004575E+06  2.895262E+05  1.901339E+05 -1.813550E+05 -1.013640E+04  9.293448E+04
       222  21  2.163334E+06  3.295705E+05  2.273474E+05 -1.958634E+05  1.997646E+03  9.707878E+04
       222  22  7.418809E+05 -2.982698E+02  2.342570E+03 -1.954846E+05  1.723890E+03  8.410387E+04
       222  23  7.414328E+05  1.009354E+02  4.103148E+03 -1.814694E+05  3.764405E+03  9.296114E+04
       222  24  7.417461E+05  1.782949E+03  7.556209E+03 -1.954856E+05  5.803308E+03  9.710289E+04
       222  25 -3.633526E+05 -2.531624E+05 -1.569365E+05 -1.960935E+05  2.567587E+04  8.412808E+04
       222  26 -5.201073E+05 -2.893984E+05 -1.819554E+05 -1.815836E+05  1.763815E+04  9.298782E+04
       222  27 -6.778283E+05 -3.261027E+05 -2.122811E+05 -1.951089E+05  9.600601E+03  9.712704E+04
       223   1  2.265516E+06  3.547262E+05  2.516872E+05 -1.938488E+05 -3.668537E+03 -9.953212E+04
       223   2  2.413560E+06  4.050332E+05  3.228567E+05 -1.924170E+05 -9.733155E+04 -8.158315E+04
       223   3  2.581715E+06  4.860041E+05  4.625824E+05 -2.162738E+05 -1.911029E+05 -2.434173E+04
       223   4  7.427523E+05  2.390187E+03  1.007757E+04 -1.948707E+05 -7.109427E+03 -9.955812E+04
       223   5  7.398977E+05  1.008508E+04  1.851058E+04 -1.822452E+05 -1.654308E+04 -8.151249E+04
       223   6  7.425718E+05  3.389148E+04  3.715145E+04 -1.949033E+05 -2.605428E+04 -2.412914E+04
       223   7 -7.777106E+05 -3.500610E+05 -2.315912E+05 -1.958901E+05 -1.054219E+04 -9.958414E+04
       223   8 -9.310356E+05 -3.850166E+05 -2.859231E+05 -1.721019E+05  6.403422E+04 -8.143911E+04
       223   9 -1.093397E+06 -4.184419E+05 -3.884031E+05 -1.735969E+05  1.385107E+05 -2.390495E+04
       223  10  2.265513E+06  3.547155E+05  2.516686E+05 -1.938491E+05  4.622237E-10 -2.334331E-09
       223  11  2.413548E+06  4.050236E+05  3.228265E+05 -1.924234E+05 -3.355565E-09 -4.815924E-09
       223  12  2.581676E+06  4.859937E+05  4.625129E+05 -2.162775E+05 -6.017421E-09 -1.644902E-09
       223  13  7.427496E+05  2.379526E+03  1.005884E+04 -1.948712E+05 -7.562752E-10 -5.316403E-09
       223  14  7.398956E+05  1.007787E+04  1.849758E+04 -1.822463E+05 -2.084109E-09  1.472152E-09
       223  15  7.425709E+05  3.389067E+04  3.714909E+04 -1.949038E+05  9.847756E-12 -2.156600E-10
       223  16 -7.777134E+05 -3.500717E+05 -2.316101E+05 -1.958910E+05  8.552080E-10 -9.575734E-10
       223  17 -9.310418E+05 -3.850248E+05 -2.859433E+05 -1.720976E+05 -4.028360E-10  1.608955E-09
       223  18 -1.093418E+06 -4.184477E+05 -3.884403E+05 -1.735942E+05  4.507407E-09 -1.569945E-09
       223  19  2.265516E+06  3.547262E+05  2.516872E+05 -1.938488E+05  3.668537E+03  9.953212E+04
       223  20  2.413560E+06  4.050332E+05  3.228567E+05 -1.924170E+05  9.733155E+04  8.158315E+04
       223  21  2.581715E+06  4.860041E+05  4.625824E+05 -2.162738E+05  1.911029E+05  2.434173E+04
       223  22  7.427523E+05  2.390187E+03  1.007757E+04 -1.948707E+05  7.109427E+03  9.955812E+04
       223  23  7.398977E+05  1.008508E+04  1.851058E+04 -1.822452E+05  1.654308E+04  8.151249E+04
       223  24  7.425718E+05  3.389148E+04  3.715145E+04 -1.949033E+05  2.605428E+04  2.412914E+04
       223  25 -7.777106E+05 -3.500610E+05 -2.315912E+05 -1.958901E+05  1.054219E+04  9.958414E+04
       223  26 -9.310356E+05 -3.850166E+05 -2.859231E+05 -1.721019E+05 -6.403422E+04  8.143911E+04
       223  27 -1.093397E+06 -4.184419E+05 -3.884031E+05 -1.735969E+05 -1.385107E+05  2.390495E+04
       224   1  5.141656E+05  2.193634E+06  4.917918E+05 -6.670099E+05  1.942335E+04  1.435608E+05
       224   2  3.578592E+05  1.660198E+06  2.961296E+05 -6.147337E+05  5.871249E+04  4.231356E+04
       224   3  2.273612E+05  1.146499E+06  1.726562E+05 -6.531893E+05  5.347462E+04 -5.888529E+04
       224   4  2.057643E+04  1.947370E+05  2.019309E+04 -6.513317E+05  1.971829E+04  1.222256E+04
       224   5  7.906678E+03  1.934951E+05  1.163903E+04 -6.059789E+05  5.880925E+04  6.389845E+03
       224   6  4.562301E+03  1.952439E+05  9.175860E+03 -6.513659E+05  5.332677E+04  5.185277E+02
       224   7 -4.732883E+05 -1.800457E+06 -4.516168E+05 -6.357005E+05  2.000726E+04 -1.186964E+05
       224   8 -3.421733E+05 -1.271143E+06 -2.729480E+05 -5.972431E+05  5.890516E+04 -2.945109E+04
       224   9 -2.182830E+05 -7.551167E+05 -1.543219E+05 -6.495443E+05  5.317912E+04  5.983430E+04
       224  10  5.141597E+05  2.193612E+06  4.917525E+05 -6.670122E+05 -1.134617E-09 -8.262339E-08
       224  11  3.578550E+05  1.660195E+06  2.961198E+05 -6.147357E+05 -3.355174E-09  7.569149E-09
       224  12  2.273572E+05  1.146495E+06  1.726444E+05 -6.531868E+05 -6.707339E-09  1.018606E-07
       224  13  2.057597E+04  1.947367E+05  2.019208E+04 -6.513319E+05  2.428107E-09 -4.263327E-11
       224  14  7.902952E+03  1.934941E+05  1.163245E+04 -6.059792E+05  7.516362E-09  7.407544E-10
       224  15  4.559247E+03  1.952431E+05  9.170515E+03 -6.513659E+05  9.383560E-09 -2.916969E-10
       224  16 -4.732925E+05 -1.800473E+06 -4.516441E+05 -6.356985E+05 -9.524146E-10  8.297210E-08
       224  17 -3.421772E+05 -1.271145E+06 -2.729561E+05 -5.972417E+05 -2.006418E-09 -7.616884E-09
       224  18 -2.182870E+05 -7.551213E+05 -1.543340E+05 -6.495469E+05 -7.145505E-09 -1.025623E-07
       224  19  5.141656E+05  2.193634E+06  4.917918E+05 -6.670099E+05 -1.942335E+04 -1.435608E+05
       224  20  3.578592E+05  1.660198E+06  2.961296E+05 -6.147337E+05 -5.871249E+04 -4.231356E+04
       224  21  2.273612E+05  1.146499E+06  1.726562E+05 -6.531893E+05 -5.347462E+04  5.888529E+04
       224  22  2.057643E+04  1.947370E+05  2.019309E+04 -6.513317E+05 -1.971829E+04 -1.222256E+04
       224  23  7.906678E+03  1.934951E+05  1.163903E+04 -6.059789E+05 -5.880925E+04 -6.389845E+03
       224  24  4.562301E+03  1.952439E+05  9.175860E+03 -6.513659E+05 -5.332677E+04 -5.185277E+02
       224  25 -4.732883E+05 -1.800457E+06 -4.516168E+05 -6.357005E+05 -2.000726E+04  1.186964E+05
       224  26 -3.421733E+05 -1.271143E+06 -2.729480E+05 -5.972431E+05 -5.890516E+04  2.945109E+04
       224  27 -2.182830E+05 -7.551167E+05 -1.543219E+05 -6.495443E+05 -5.317912E+04 -5.983430E+04
       225   1  1.497078E+05  8.157198E+05  1.152926E+05 -6.542017E+05  3.540044E+04 -6.076760E+04
       225   2  2.694275E+04  2.919134E+05  2.618353E+04 -6.043449E+05  7.216830E+03 -6.763472E+04
       225   3 -9.162365E+04 -2.299940E+05 -5.751350E+04 -6.481145E+05 -2.145429E+04 -7.449892E+04
       225   4  4.410945E+03  1.949964E+05  9.200166E+03 -6.520060E+05  3.524338E+04 -1.003891E+03
       225   5  4.506746E+03  1.942895E+05  1.156435E+04 -6.051885E+05  7.055607E+03 -6.852031E+03
       225   6  8.634434E+03  1.950302E+05  1.862448E+04 -6.519962E+05 -2.161999E+04 -1.270261E+04
       225   7 -1.409045E+05 -4.253409E+05 -9.689172E+04 -6.498120E+05  3.508664E+04  5.870202E+04
       225   8 -1.792772E+04  9.668306E+04 -3.041137E+03 -6.060320E+05  6.894201E+03  5.392149E+04
       225   9  1.088846E+05  6.202387E+05  9.476990E+04 -6.558804E+05 -2.178638E+04  4.913482E+04
       225  10  1.497055E+05  8.157155E+05  1.152834E+05 -6.542000E+05 -7.112601E-09 -3.253856E-08
       225  11  2.694146E+04  2.919085E+05  2.617484E+04 -6.043445E+05 -6.765452E-09 -4.767377E-09
       225  12 -9.162564E+04 -2.300001E+05 -5.752481E+04 -6.481158E+05 -1.729587E-09  2.720426E-08
       225  13  4.409611E+03  1.949961E+05  9.197830E+03 -6.520059E+05  1.027795E-08 -6.614237E-11
       225  14  4.506680E+03  1.942894E+05  1.156417E+04 -6.051885E+05  4.368176E-09  8.853745E-10
       225  15  8.633889E+03  1.950299E+05  1.862329E+04 -6.519964E+05  5.923343E-10 -1.796708E-10
       225  16 -1.409068E+05 -4.253450E+05 -9.690052E+04 -6.498137E+05 -6.223647E-09  3.325924E-08
       225  17 -1.792855E+04  9.667993E+04 -3.046691E+03 -6.060323E+05 -6.136562E-09  3.989900E-09
       225  18  1.088834E+05  6.202360E+05  9.476448E+04 -6.558795E+05 -1.567022E-09 -2.799922E-08
       225  19  1.497078E+05  8.157198E+05  1.152926E+05 -6.542017E+05 -3.540044E+04  6.076760E+04
       225  20  2.694275E+04  2.919134E+05  2.618353E+04 -6.043449E+05 -7.216830E+03  6.763472E+04
       225  21 -9.162365E+04 -2.299940E+05 -5.751350E+04 -6.481145E+05  2.145429E+04  7.449892E+04
       225  22  4.410945E+03  1.949964E+05  9.200166E+03 -6.520060E+05 -3.524338E+04  1.003891E+03
       225  23  4.506746E+03  1.942895E+05  1.156435E+04 -6.051885E+05 -7.055607E+03  6.852031E+03
       225  24  8.634434E+03  1.950302E+05  1.862448E+04 -6.519962E+05  2.161999E+04  1.270261E+04
       225  25 -1.409045E+05 -4.253409E+05 -9.689172E+04 -6.498120E+05 -3.508664E+04 -5.870202E+04
       225  26 -1.792772E+04  9.668306E+04 -3.041137E+03 -6.060320E+05 -6.894201E+03 -5.392149E+04
       225  27  1.088846E+05  6.202387E+05  9.476990E+04 -6.558804E+05  2.178638E+04 -4.913482E+04
       226   1 -1.675124E+05 -5.575623E+05 -1.087271E+05 -6.497677E+05 -3.998022E+04 -7.739468E+04
       226   2 -2.768124E+05 -1.078836E+06 -2.066514E+05 -5.769490E+05 -4.872061E+04 -1.310578E+04
       226   3 -3.636917E+05 -1.602753E+06 -3.409180E+05 -5.952130E+05 -1.698749E+04  5.116819E+04
       226   4  1.008003E+04  1.973182E+05  2.414224E+04 -6.514322E+05 -4.013918E+04 -1.595566E+04
       226   5  2.743039E+04  1.910633E+05  4.321915E+04 -6.058313E+05 -4.865119E+04 -3.802032E+04
       226   6  8.217795E+04  1.968726E+05  8.593384E+04 -6.512782E+05 -1.673352E+04 -6.004534E+04
       226   7  1.876433E+05  9.527644E+05  1.570051E+05 -6.530983E+05 -4.029833E+04  4.555592E+04
       226   8  3.315788E+05  1.462511E+06  2.930141E+05 -6.347724E+05 -4.857956E+04 -6.298475E+04
       226   9  5.278325E+05  1.999511E+06  5.126083E+05 -7.075040E+05 -1.645994E+04 -1.715800E+05
       226  10 -1.675157E+05 -5.575692E+05 -1.087414E+05 -6.497702E+05  8.539662E-11  5.297399E-09
       226  11 -2.768150E+05 -1.078836E+06 -2.066562E+05 -5.769495E+05  6.795935E-10  1.524417E-09
       226  12 -3.636927E+05 -1.602756E+06 -3.409235E+05 -5.952123E+05  4.066558E-11  1.456017E-09
       226  13  1.007823E+04  1.973174E+05  2.413873E+04 -6.514327E+05 -4.238210E-10  5.980320E-11
       226  14  2.742746E+04  1.910611E+05  4.321198E+04 -6.058328E+05 -1.305677E-09  8.525728E-10
       226  15  8.217668E+04  1.968687E+05  8.592653E+04 -6.512790E+05  8.432199E-10 -1.118381E-10
       226  16  1.876410E+05  9.527617E+05  1.569981E+05 -6.530968E+05 -2.004820E-09 -4.173367E-09
       226  17  3.315752E+05  1.462506E+06  2.930022E+05 -6.347749E+05 -2.358069E-09 -1.535651E-09
       226  18  5.278243E+05  1.999479E+06  5.125526E+05 -7.075063E+05 -6.226906E-10 -1.871946E-09
       226  19 -1.675124E+05 -5.575623E+05 -1.087271E+05 -6.497677E+05  3.998022E+04  7.739468E+04
       226  20 -2.768124E+05 -1.078836E+06 -2.066514E+05 -5.769490E+05  4.872061E+04  1.310578E+04
       226  21 -3.636917E+05 -1.602753E+06 -3.409180E+05 -5.952130E+05  1.698749E+04 -5.116819E+04
       226  22  1.008003E+04  1.973182E+05  2.414224E+04 -6.514322E+05  4.013918E+04  1.595566E+04
       226  23  2.743039E+04  1.910633E+05  4.321915E+04 -6.058313E+05  4.865119E+04  3.802032E+04
       226  24  8.217795E+04  1.968726E+05  8.593384E+04 -6.512782E+05  1.673352E+04  6.004534E+04
       226  25  1.876433E+05  9.527644E+05  1.570051E+05 -6.530983E+05  4.029833E+04 -4.555592E+04
       226  26  3.315788E+05  1.462511E+06  2.930141E+05 -6.347724E+05  4.857956E+04  6.298475E+04
       226  27  5.278325E+05  1.999511E+06  5.126083E+05 -7.075040E+05  1.645994E+04  1.715800E+05
       227   1 -9.838410E+05 -5.053611E+05 -2.893847E+05 -4.124730E+05 -1.345794E+05 -3.899518E+04
       227   2 -9.179303E+05 -3.807666E+05 -1.791691E+05 -3.847555E+05 -8.393835E+04  6.932406E+03
       227   3 -8.699289E+05 -3.192064E+05 -1.276207E+05 -3.566417E+05 -2.666917E+04  3.527892E+04
       227   4 -3.089541E+05 -1.951964E+05 -1.060728E+05 -1.688920E+05 -7.290271E+04 -1.582067E+04
       227   5 -2.976135E+05 -1.266698E+05 -5.008608E+04 -1.842405E+05 -5.578206E+04  1.750797E+04
       227   6 -2.975130E+05 -1.145025E+05 -2.615403E+04 -1.992028E+05 -3.204484E+04  3.325480E+04
       227   7  3.663838E+05  1.150657E+05  7.721159E+04  7.494987E+04 -1.115397E+04  7.395302E+03
       227   8  3.231025E+05  1.274879E+05  7.897947E+04  1.646943E+04 -2.759573E+04  2.809797E+04
       227   9  2.752530E+05  9.023247E+04  7.530325E+04 -4.162790E+04 -3.742583E+04  3.122873E+04
       227  10 -9.838609E+05 -5.053676E+05 -2.894216E+05 -4.124772E+05 -1.153032E-09  2.550248E-11
       227  11 -9.179379E+05 -3.807685E+05 -1.791824E+05 -3.847550E+05  2.151824E-09  4.281414E-10
       227  12 -8.699300E+05 -3.192079E+05 -1.276243E+05 -3.566409E+05  3.342960E-09  1.207397E-09
       227  13 -3.089599E+05 -1.951981E+05 -1.060832E+05 -1.688929E+05  2.376699E-09  2.275955E-10
       227  14 -2.976169E+05 -1.266710E+05 -5.009250E+04 -1.842397E+05  4.971440E-09  1.311148E-09
       227  15 -2.975144E+05 -1.145040E+05 -2.615803E+04 -1.992019E+05  9.565684E-09  1.268258E-09
       227  16  3.663837E+05  1.150656E+05  7.721126E+04  7.494994E+04  1.828235E-09  1.192609E-10
       227  17  3.231015E+05  1.274869E+05  7.897656E+04  1.647006E+04  3.179318E-09 -2.925305E-10
       227  18  2.752512E+05  9.023105E+04  7.529879E+04 -4.162696E+04  3.677059E-09  4.554232E-09
       227  19 -9.838410E+05 -5.053611E+05 -2.893847E+05 -4.124730E+05  1.345794E+05  3.899518E+04
       227  20 -9.179303E+05 -3.807666E+05 -1.791691E+05 -3.847555E+05  8.393835E+04 -6.932406E+03
       227  21 -8.699289E+05 -3.192064E+05 -1.276207E+05 -3.566417E+05  2.666917E+04 -3.527892E+04
       227  22 -3.089541E+05 -1.951964E+05 -1.060728E+05 -1.688920E+05  7.290271E+04  1.582067E+04
       227  23 -2.976135E+05 -1.266698E+05 -5.008608E+04 -1.842405E+05  5.578206E+04 -1.750797E+04
       227  24 -2.975130E+05 -1.145025E+05 -2.615403E+04 -1.992028E+05  3.204484E+04 -3.325480E+04
       227  25  3.663838E+05  1.150657E+05  7.721159E+04  7.494987E+04  1.115397E+04 -7.395302E+03
       227  26  3.231025E+05  1.274879E+05  7.897947E+04  1.646943E+04  2.759573E+04 -2.809797E+04
       227  27  2.752530E+05  9.023247E+04  7.530325E+04 -4.162790E+04  3.742583E+04 -3.122873E+04
       228   1 -8.162969E+05 -3.048640E+05 -1.110107E+05 -3.468458E+05 -2.426493E+04  3.378033E+04
       228   2 -7.488628E+05 -2.678598E+05 -8.590618E+04 -3.207314E+05 -1.463317E+04  3.397923E+04
       228   3 -6.733608E+05 -2.451051E+05 -6.810907E+04 -3.060533E+05 -4.341493E+03  3.242065E+04
       228   4 -2.943329E+05 -1.139698E+05 -1.954200E+04 -1.984509E+05 -2.831252E+04  3.225591E+04
       228   5 -2.983480E+05 -1.047781E+05 -1.022702E+04 -1.936282E+05 -2.202953E+04  3.119816E+04
       228   6 -2.936340E+05 -1.091702E+05 -5.560408E+03 -2.002438E+05 -1.508786E+04  2.838324E+04
       228   7  2.279142E+05  7.695065E+04  7.191678E+04 -4.994028E+04 -3.236368E+04  3.073010E+04
       228   8  1.523836E+05  5.832473E+04  6.544720E+04 -6.643833E+04 -2.943159E+04  2.841492E+04
       228   9  8.625135E+04  2.678080E+04  5.698656E+04 -9.437244E+04 -2.584132E+04  2.434319E+04
       228  10 -8.162979E+05 -3.048654E+05 -1.110139E+05 -3.468451E+05  9.701835E-09  2.491011E-09
       228  11 -7.488634E+05 -2.678611E+05 -8.590875E+04 -3.207310E+05 -1.984980E-09 -3.068300E-09
       228  12 -6.733611E+05 -2.451063E+05 -6.811108E+04 -3.060532E+05 -7.413246E-09 -4.043705E-09
       228  13 -2.943340E+05 -1.139711E+05 -1.954546E+04 -1.984502E+05  4.793603E-09  1.718080E-09
       228  14 -2.983488E+05 -1.047793E+05 -1.022976E+04 -1.936277E+05 -1.313109E-09 -3.735647E-09
       228  15 -2.936345E+05 -1.091711E+05 -5.562350E+03 -2.002434E+05 -2.076166E-09 -3.507422E-10
       228  16  2.279129E+05  7.694936E+04  7.191304E+04 -4.993948E+04 -1.045914E-08 -1.065744E-09
       228  17  1.523824E+05  5.832363E+04  6.544406E+04 -6.643766E+04 -9.751252E-09 -2.363021E-09
       228  18  8.625047E+04  2.677998E+04  5.698420E+04 -9.437194E+04  3.397207E-09  2.770669E-09
       228  19 -8.162969E+05 -3.048640E+05 -1.110107E+05 -3.468458E+05  2.426493E+04 -3.378033E+04
       228  20 -7.488628E+05 -2.678598E+05 -8.590618E+04 -3.207314E+05  1.463317E+04 -3.397923E+04
       228  21 -6.733608E+05 -2.451051E+05 -6.810907E+04 -3.060533E+05  4.341493E+03 -3.242065E+04
       228  22 -2.943329E+05 -1.139698E+05 -1.954200E+04 -1.984509E+05  2.831252E+04 -3.225591E+04
       228  23 -2.983480E+05 -1.047781E+05 -1.022702E+04 -1.936282E+05  2.202953E+04 -3.119816E+04
       228  24 -2.936340E+05 -1.091702E+05 -5.560408E+03 -2.002438E+05  1.508786E+04 -2.838324E+04
       228  25  2.279142E+05  7.695065E+04  7.191678E+04 -4.994028E+04  3.236368E+04 -3.073010E+04
       228  26  1.523836E+05  5.832473E+04  6.544720E+04 -6.643833E+04  2.943159E+04 -2.841492E+04
       228  27  8.625135E+04  2.678080E+04  5.698656E+04 -9.437244E+04  2.584132E+04 -2.434319E+04
       229   1 -6.267393E+05 -2.287479E+05 -5.870056E+04 -2.934136E+05 -2.463848E+03  2.933244E+04
       229   2 -5.596730E+05 -1.972839E+05 -4.485870E+04 -2.671703E+05  1.136943E+03  2.423669E+04
       229   3 -4.822747E+05 -1.766828E+05 -3.217831E+04 -2.530498E+05  4.802890E+03  1.896442E+04
       229   4 -2.933431E+05 -1.091654E+05 -4.170859E+03 -2.001618E+05 -1.308034E+04  2.534473E+04
       229   5 -2.985175E+05 -1.036608E+05 -2.287220E+03 -1.941365E+05 -9.816064E+03  2.012382E+04
       229   6 -2.932991E+05 -1.089522E+05 -1.298379E+03 -2.002357E+05 -6.486832E+03  1.472639E+04
       229   7  4.017223E+04  1.042842E+04  5.035681E+04 -1.068630E+05 -2.370288E+04  2.135475E+04
       229   8 -3.729036E+04 -1.003114E+04  4.028285E+04 -1.210743E+05 -2.077390E+04  1.600915E+04
       229   9 -1.042872E+05 -4.121876E+04  2.958070E+04 -1.474070E+05 -1.778007E+04  1.048704E+04
       229  10 -6.267395E+05 -2.287488E+05 -5.870219E+04 -2.934136E+05  1.171564E-09  5.862649E-10
       229  11 -5.596731E+05 -1.972846E+05 -4.485981E+04 -2.671703E+05 -4.432451E-10  1.324210E-09
       229  12 -4.822749E+05 -1.766831E+05 -3.217903E+04 -2.530498E+05 -8.302529E-10  2.544549E-09
       229  13 -2.933434E+05 -1.091661E+05 -4.172387E+03 -2.001615E+05 -7.494582E-12  1.035125E-09
       229  14 -2.985178E+05 -1.036612E+05 -2.288162E+03 -1.941364E+05 -3.847973E-09  2.499505E-09
       229  15 -2.932992E+05 -1.089524E+05 -1.298865E+03 -2.002356E+05  7.697949E-10  1.510555E-09
       229  16  4.017150E+04  1.042778E+04  5.035489E+04 -1.068626E+05 -2.603317E-09  1.532667E-09
       229  17 -3.729089E+04 -1.003153E+04  4.028156E+04 -1.210741E+05 -5.435996E-10  5.174962E-10
       229  18 -1.042876E+05 -4.121896E+04  2.957990E+04 -1.474069E+05  1.676485E-09  1.772865E-09
       229  19 -6.267393E+05 -2.287479E+05 -5.870056E+04 -2.934136E+05  2.463848E+03 -2.933244E+04
       229  20 -5.596730E+05 -1.972839E+05 -4.485870E+04 -2.671703E+05 -1.136943E+03 -2.423669E+04
       229  21 -4.822747E+05 -1.766828E+05 -3.217831E+04 -2.530498E+05 -4.802890E+03 -1.896442E+04
       229  22 -2.933431E+05 -1.091654E+05 -4.170859E+03 -2.001618E+05  1.308034E+04 -2.534473E+04
       229  23 -2.985175E+05 -1.036608E+05 -2.287220E+03 -1.941365E+05  9.816064E+03 -2.012382E+04
       229  24 -2.932991E+05 -1.089522E+05 -1.298379E+03 -2.002357E+05  6.486832E+03 -1.472639E+04
       229  25  4.017223E+04  1.042842E+04  5.035681E+04 -1.068630E+05  2.370288E+04 -2.135475E+04
       229  26 -3.729036E+04 -1.003114E+04  4.028285E+04 -1.210743E+05  2.077390E+04 -1.600915E+04
       229  27 -1.042872E+05 -4.121876E+04  2.958070E+04 -1.474070E+05  1.778007E+04 -1.048704E+04
       230   1 -4.362053E+05 -1.601484E+05 -2.406156E+04 -2.402091E+05  6.275530E+03  1.558406E+04
       230   2 -3.692213E+05 -1.289670E+05 -1.212932E+04 -2.139122E+05  8.854147E+03  9.802125E+03
       230   3 -2.916685E+05 -1.084137E+05 -4.649084E+02 -1.997632E+05  1.143843E+04  4.004203E+03
       230   4 -2.932643E+05 -1.089564E+05 -1.008584E+03 -2.002246E+05 -5.002635E+03  1.135082E+04
       230   5 -2.985458E+05 -1.036446E+05 -6.560094E+02 -1.941484E+05 -2.455173E+03  5.557502E+03
       230   6 -2.932599E+05 -1.089560E+05 -5.476210E+02 -2.002228E+05  9.790780E+01 -2.518133E+02
       230   7 -1.502994E+05 -5.776154E+04  2.204498E+04 -1.602309E+05 -1.628368E+04  7.116508E+03
       230   8 -2.278642E+05 -7.832143E+04  1.081786E+04 -1.743824E+05 -1.376592E+04  1.312343E+03
       230   9 -2.948511E+05 -1.094983E+05 -6.297818E+02 -2.006823E+05 -1.124259E+04 -4.507820E+03
       230  10 -4.362054E+05 -1.601487E+05 -2.406209E+04 -2.402092E+05 -1.148818E-09  2.434218E-09
       230  11 -3.692214E+05 -1.289671E+05 -1.212965E+04 -2.139123E+05 -7.410170E-10  1.699103E-09
       230  12 -2.916687E+05 -1.084137E+05 -4.651846E+02 -1.997633E+05 -4.543200E-10 -8.884401E-10
       230  13 -2.932644E+05 -1.089565E+05 -1.008873E+03 -2.002246E+05  1.510629E-09  2.073237E-09
       230  14 -2.985458E+05 -1.036446E+05 -6.560788E+02 -1.941484E+05  6.423793E-09  5.486264E-10
       230  15 -2.932599E+05 -1.089560E+05 -5.476211E+02 -2.002228E+05  2.006616E-09 -1.257708E-09
       230  16 -1.502997E+05 -5.776167E+04  2.204438E+04 -1.602309E+05  1.954518E-09  2.052561E-09
       230  17 -2.278644E+05 -7.832148E+04  1.081750E+04 -1.743823E+05 -2.402302E-10  1.205534E-09
       230  18 -2.948512E+05 -1.094984E+05 -6.300577E+02 -2.006824E+05 -4.923865E-09 -1.669743E-09
       230  19 -4.362053E+05 -1.601484E+05 -2.406156E+04 -2.402091E+05 -6.275530E+03 -1.558406E+04
       230  20 -3.692213E+05 -1.289670E+05 -1.212932E+04 -2.139122E+05 -8.854147E+03 -9.802125E+03
       230  21 -2.916685E+05 -1.084137E+05 -4.649084E+02 -1.997632E+05 -1.143843E+04 -4.004203E+03
       230  22 -2.932643E+05 -1.089564E+05 -1.008584E+03 -2.002246E+05  5.002635E+03 -1.135082E+04
       230  23 -2.985458E+05 -1.036446E+05 -6.560094E+02 -1.941484E+05  2.455173E+03 -5.557502E+03
       230  24 -2.932599E+05 -1.089560E+05 -5.476210E+02 -2.002228E+05 -9.790780E+01  2.518133E+02
       230  25 -1.502994E+05 -5.776154E+04  2.204498E+04 -1.602309E+05  1.628368E+04 -7.116508E+03
       230  26 -2.278642E+05 -7.832143E+04  1.081786E+04 -1.743824E+05  1.376592E+04 -1.312343E+03
       230  27 -2.948511E+05 -1.094983E+05 -6.297818E+02 -2.006823E+05  1.124259E+04  4.507820E+03
       231   1 -2.456510E+05 -9.186169E+04  7.324883E+03 -1.869109E+05  1.282998E+04  5.810124E+02
       231   2 -1.786587E+05 -6.068608E+04  1.868432E+04 -1.606135E+05  1.540367E+04 -5.219190E+03
       231   3 -1.010960E+05 -4.012956E+04  2.978522E+04 -1.464654E+05  1.797126E+04 -1.100175E+04
       231   4 -2.932627E+05 -1.089562E+05 -5.669733E+02 -2.002236E+05  1.489053E+03 -3.675211E+03
       231   5 -2.985446E+05 -1.036426E+05 -7.632804E+02 -1.941493E+05  4.095459E+03 -9.463673E+03
       231   6 -2.932680E+05 -1.089550E+05 -1.244274E+03 -2.002264E+05  6.695750E+03 -1.523455E+04
       231   7 -3.408711E+05 -1.260502E+05 -8.458186E+03 -2.135350E+05 -9.850831E+03 -7.931043E+03
       231   8 -4.184149E+05 -1.465975E+05 -2.021064E+04 -2.276789E+05 -7.210436E+03 -1.370729E+04
       231   9 -4.854023E+05 -1.777774E+05 -3.227459E+04 -2.539724E+05 -4.576189E+03 -1.946600E+04
       231  10 -2.456512E+05 -9.186173E+04  7.324573E+03 -1.869109E+05 -6.424060E-08 -2.615658E-08
       231  11 -1.786589E+05 -6.068618E+04  1.868382E+04 -1.606134E+05 -5.272644E-10 -3.061162E-09
       231  12 -1.010964E+05 -4.012978E+04  2.978439E+04 -1.464652E+05  6.016787E-08  1.953359E-08
       231  13 -2.932627E+05 -1.089562E+05 -5.670029E+02 -2.002236E+05  1.026508E-10 -2.456682E-09
       231  14 -2.985447E+05 -1.036427E+05 -7.634802E+02 -1.941493E+05  6.238834E-10 -2.802778E-09
       231  15 -2.932681E+05 -1.089553E+05 -1.244795E+03 -2.002264E+05 -7.518072E-10 -9.271900E-10
       231  16 -3.408712E+05 -1.260503E+05 -8.458487E+03 -2.135351E+05  5.753818E-08  2.088825E-08
       231  17 -4.184150E+05 -1.465977E+05 -2.021109E+04 -2.276790E+05 -2.478370E-09 -8.040060E-10
       231  18 -4.854024E+05 -1.777778E+05 -3.227534E+04 -2.539725E+05 -5.976302E-08 -2.300021E-08
       231  19 -2.456510E+05 -9.186169E+04  7.324883E+03 -1.869109E+05 -1.282998E+04 -5.810124E+02
       231  20 -1.786587E+05 -6.068608E+04  1.868432E+04 -1.606135E+05 -1.540367E+04  5.219190E+03
       231  21 -1.010960E+05 -4.012956E+04  2.978522E+04 -1.464654E+05 -1.797126E+04  1.100175E+04
       231  22 -2.932627E+05 -1.089562E+05 -5.669733E+02 -2.002236E+05 -1.489053E+03  3.675211E+03
       231  23 -2.985446E+05 -1.036426E+05 -7.632804E+02 -1.941493E+05 -4.095459E+03  9.463673E+03
       231  24 -2.932680E+05 -1.089550E+05 -1.244274E+03 -2.002264E+05 -6.695750E+03  1.523455E+04
       231  25 -3.408711E+05 -1.260502E+05 -8.458186E+03 -2.135350E+05  9.850831E+03  7.931043E+03
       231  26 -4.184149E+05 -1.465975E+05 -2.021064E+04 -2.276789E+05  7.210436E+03  1.370729E+04
       231  27 -4.854023E+05 -1.777774E+05 -3.227459E+04 -2.539724E+05  4.576189E+03  1.946600E+04
       232   1 -5.509114E+04 -2.359389E+04  3.723208E+04 -1.336539E+05  1.951416E+04 -1.435322E+04
       232   2  1.192119E+04  7.594134E+03  4.766125E+04 -1.073130E+05  2.278576E+04 -1.976089E+04
       232   3  8.934084E+04  2.800178E+04  5.723975E+04 -9.309347E+04  2.598810E+04 -2.498024E+04
       232   4 -2.933152E+05 -1.089509E+05 -1.623677E+03 -2.002427E+05  8.225749E+03 -1.859146E+04
       232   5 -2.985083E+05 -1.036583E+05 -2.894364E+03 -1.941343E+05  1.185526E+04 -2.386618E+04
       232   6 -2.933704E+05 -1.092182E+05 -5.299868E+03 -2.001501E+05  1.541535E+04 -2.895257E+04
       232   7 -5.314781E+05 -1.943020E+05 -4.048011E+04 -2.668074E+05 -3.058065E+03 -2.282798E+04
       232   8 -6.088326E+05 -2.149003E+05 -5.345105E+04 -2.809144E+05  9.306215E+02 -2.796928E+04
       232   9 -6.759203E+05 -2.464215E+05 -6.784104E+04 -3.071436E+05  4.849630E+03 -3.292227E+04
       232  10 -5.509160E+04 -2.359422E+04  3.723098E+04 -1.336537E+05 -5.459844E-11 -1.531008E-09
       232  11  1.192053E+04  7.593575E+03  4.765954E+04 -1.073126E+05  1.366126E-09  3.013087E-10
       232  12  8.933995E+04  2.800093E+04  5.723731E+04 -9.309295E+04 -4.520327E-10  1.194710E-09
       232  13 -2.933153E+05 -1.089513E+05 -1.624454E+03 -2.002426E+05  1.866127E-10 -5.413339E-10
       232  14 -2.985087E+05 -1.036590E+05 -2.895698E+03 -1.941341E+05  1.596626E-10  6.510618E-10
       232  15 -2.933709E+05 -1.092191E+05 -5.301889E+03 -2.001497E+05 -6.514049E-11 -1.653378E-10
       232  16 -5.314782E+05 -1.943026E+05 -4.048111E+04 -2.668075E+05 -7.829197E-11 -1.157956E-10
       232  17 -6.088328E+05 -2.149011E+05 -5.345253E+04 -2.809144E+05 -1.491202E-09 -4.440570E-10
       232  18 -6.759206E+05 -2.464227E+05 -6.784312E+04 -3.071435E+05 -2.387538E-09  1.456569E-10
       232  19 -5.509114E+04 -2.359389E+04  3.723208E+04 -1.336539E+05 -1.951416E+04  1.435322E+04
       232  20  1.192119E+04  7.594134E+03  4.766125E+04 -1.073130E+05 -2.278576E+04  1.976089E+04
       232  21  8.934084E+04  2.800178E+04  5.723975E+04 -9.309347E+04 -2.598810E+04  2.498024E+04
       232  22 -2.933152E+05 -1.089509E+05 -1.623677E+03 -2.002427E+05 -8.225749E+03  1.859146E+04
       232  23 -2.985083E+05 -1.036583E+05 -2.894364E+03 -1.941343E+05 -1.185526E+04  2.386618E+04
       232  24 -2.933704E+05 -1.092182E+05 -5.299868E+03 -2.001501E+05 -1.541535E+04  2.895257E+04
       232  25 -5.314781E+05 -1.943020E+05 -4.048011E+04 -2.668074E+05  3.058065E+03  2.282798E+04
       232  26 -6.088326E+05 -2.149003E+05 -5.345105E+04 -2.809144E+05 -9.306215E+02  2.796928E+04
       232  27 -6.759203E+05 -2.464215E+05 -6.784104E+04 -3.071436E+05 -4.849630E+03  3.292227E+04
       233   1  1.354166E+05  4.427975E+04  6.350110E+04 -8.071214E+04  2.833779E+04 -2.787818E+04
       233   2  2.013756E+05  7.589501E+04  7.079154E+04 -5.229326E+04  3.307926E+04 -3.142530E+04
       233   3  2.762780E+05  9.380930E+04  7.500165E+04 -3.514099E+04  3.711876E+04 -3.309879E+04
       233   4 -2.937322E+05 -1.092254E+05 -7.069438E+03 -2.002573E+05  1.762563E+04 -3.190391E+04
       233   5 -2.982902E+05 -1.050679E+05 -1.301017E+04 -1.934830E+05  2.594072E+04 -3.411077E+04
       233   6 -2.946211E+05 -1.153237E+05 -2.486649E+04 -1.979792E+05  3.355316E+04 -3.444325E+04
       233   7 -7.226889E+05 -2.627140E+05 -7.764511E+04 -3.197264E+05  6.921202E+03 -3.592677E+04
       233   8 -7.976927E+05 -2.860059E+05 -9.681880E+04 -3.345668E+05  1.880823E+04 -3.679393E+04
       233   9 -8.651749E+05 -3.244224E+05 -1.247446E+05 -3.606766E+05  2.999105E+04 -3.578637E+04
       233  10  1.354155E+05  4.427870E+04  6.349813E+04 -8.071151E+04  1.759585E-09  1.954964E-09
       233  11  2.013741E+05  7.589366E+04  7.078763E+04 -5.229243E+04  1.997983E-09  1.980768E-09
       233  12  2.762762E+05  9.380775E+04  7.499701E+04 -3.514000E+04 -9.384650E-10  1.001319E-09
       233  13 -2.937328E+05 -1.092266E+05 -7.071934E+03 -2.002568E+05 -2.297013E-10  1.155554E-10
       233  14 -2.982912E+05 -1.050693E+05 -1.301362E+04 -1.934823E+05 -1.468834E-09  1.088791E-09
       233  15 -2.946226E+05 -1.153253E+05 -2.487084E+04 -1.979783E+05 -6.086971E-10  6.509666E-10
       233  16 -7.226893E+05 -2.627154E+05 -7.764762E+04 -3.197262E+05 -1.139203E-09 -5.156972E-10
       233  17 -7.976934E+05 -2.860074E+05 -9.682201E+04 -3.345662E+05 -4.840929E-10 -8.281699E-11
       233  18 -8.651762E+05 -3.244240E+05 -1.247487E+05 -3.606757E+05 -2.802700E-10  1.031451E-09
       233  19  1.354166E+05  4.427975E+04  6.350110E+04 -8.071214E+04 -2.833779E+04  2.787818E+04
       233  20  2.013756E+05  7.589501E+04  7.079154E+04 -5.229326E+04 -3.307926E+04  3.142530E+04
       233  21  2.762780E+05  9.380930E+04  7.500165E+04 -3.514099E+04 -3.711876E+04  3.309879E+04
       233  22 -2.937322E+05 -1.092254E+05 -7.069438E+03 -2.002573E+05 -1.762563E+04  3.190391E+04
       233  23 -2.982902E+05 -1.050679E+05 -1.301017E+04 -1.934830E+05 -2.594072E+04  3.411077E+04
       233  24 -2.946211E+05 -1.153237E+05 -2.486649E+04 -1.979792E+05 -3.355316E+04  3.444325E+04
       233  25 -7.226889E+05 -2.627140E+05 -7.764511E+04 -3.197264E+05 -6.921202E+03  3.592677E+04
       233  26 -7.976927E+05 -2.860059E+05 -9.681880E+04 -3.345668E+05 -1.880823E+04  3.679393E+04
       233  27 -8.651749E+05 -3.244224E+05 -1.247446E+05 -3.606766E+05 -2.999105E+04  3.578637E+04
       234   1  3.237974E+05  1.060055E+05  7.672896E+04 -2.815368E+04  4.303889E+04 -3.317122E+04
       234   2  3.668744E+05  1.446481E+05  7.495348E+04  3.910480E+04  3.775494E+04 -2.742337E+04
       234   3  4.000640E+05  1.213914E+05  6.077121E+04  1.099298E+05  2.541763E+04 -2.931512E+03
       234   4 -2.986230E+05 -1.160386E+05 -3.328036E+04 -1.989831E+05  3.805315E+04 -3.504993E+04
       234   5 -2.974023E+05 -1.328580E+05 -6.373323E+04 -1.814810E+05  6.856995E+04 -1.584406E+04
       234   6 -3.131924E+05 -2.187164E+05 -1.349799E+05 -1.604117E+05  9.202799E+04  2.211588E+04
       234   7 -9.206336E+05 -3.380476E+05 -1.433017E+05 -3.696536E+05  3.307273E+04 -3.692670E+04
       234   8 -9.612045E+05 -4.102803E+05 -2.024352E+05 -4.018305E+05  9.934912E+04 -4.282599E+03
       234   9 -1.025903E+06 -5.586769E+05 -3.307499E+05 -4.304289E+05  1.585528E+05  4.711141E+04
       234  10  3.237952E+05  1.060039E+05  7.672341E+04 -2.815253E+04  2.061064E-09  4.264572E-10
       234  11  3.668727E+05  1.446469E+05  7.494939E+04  3.910563E+04 -1.053454E-09 -2.174811E-09
       234  12  4.000633E+05  1.213912E+05  6.076998E+04  1.099298E+05 -2.337143E-09 -2.580041E-09
       234  13 -2.986249E+05 -1.160403E+05 -3.328539E+04 -1.989821E+05 -1.618934E-09 -7.458395E-10
       234  14 -2.974074E+05 -1.328596E+05 -6.374254E+04 -1.814802E+05  2.202407E-09 -3.821951E-10
       234  15 -3.132016E+05 -2.187192E+05 -1.349967E+05 -1.604133E+05  2.782646E-10  1.459190E-09
       234  16 -9.206352E+05 -3.380493E+05 -1.433063E+05 -3.696526E+05 -3.176996E-09 -4.799006E-10
       234  17 -9.612151E+05 -4.102829E+05 -2.024539E+05 -4.018301E+05  1.245635E-09  2.898302E-10
       234  18 -1.025931E+06 -5.586860E+05 -3.308014E+05 -4.304349E+05  3.410824E-09  7.986063E-10
       234  19  3.237974E+05  1.060055E+05  7.672896E+04 -2.815368E+04 -4.303889E+04  3.317122E+04
       234  20  3.668744E+05  1.446481E+05  7.495348E+04  3.910480E+04 -3.775494E+04  2.742337E+04
       234  21  4.000640E+05  1.213914E+05  6.077121E+04  1.099298E+05 -2.541763E+04  2.931512E+03
       234  22 -2.986230E+05 -1.160386E+05 -3.328036E+04 -1.989831E+05 -3.805315E+04  3.504993E+04
       234  23 -2.974023E+05 -1.328580E+05 -6.373323E+04 -1.814810E+05 -6.856995E+04  1.584406E+04
       234  24 -3.131924E+05 -2.187164E+05 -1.349799E+05 -1.604117E+05 -9.202799E+04 -2.211588E+04
       234  25 -9.206336E+05 -3.380476E+05 -1.433017E+05 -3.696536E+05 -3.307273E+04  3.692670E+04
       234  26 -9.612045E+05 -4.102803E+05 -2.024352E+05 -4.018305E+05 -9.934912E+04  4.282599E+03
       234  27 -1.025903E+06 -5.586769E+05 -3.307499E+05 -4.304289E+05 -1.585528E+05 -4.711141E+04
       235   1  1.136718E+06  1.599902E+05  1.394936E+05  8.232527E+03  3.323368E+04 -1.325351E+04
       235   2  1.091918E+06  1.910730E+05  1.230543E+05  3.026787E+04  1.080117E+04 -4.586984E+04
       235   3  1.043128E+06  1.943723E+05  1.143025E+05  5.907258E+04 -1.166293E+04 -5.808235E+04
       235   4  1.726742E+05 -7.690651E+04 -8.277543E+04  5.811451E+04 -5.821214E+04 -1.342466E+04
       235   5  1.784711E+05 -2.423003E+04 -4.129599E+04  5.465624E+04 -3.700987E+04 -4.597158E+04
       235   6  1.726946E+05 -6.932978E+03 -2.241562E+04  5.796700E+04 -1.584081E+04 -5.809905E+04
       235   7 -7.904881E+05 -3.138542E+05 -3.050734E+05  1.079182E+05 -1.495172E+05 -1.361064E+04
       235   8 -7.341579E+05 -2.395760E+05 -2.056697E+05  7.900736E+04 -8.475261E+04 -4.607716E+04
       235   9 -6.969841E+05 -2.082757E+05 -1.591522E+05  5.686261E+04 -2.001304E+04 -5.811576E+04
       235  10  1.136717E+06  1.599897E+05  1.394912E+05  8.232881E+03  5.590034E-09 -6.457304E-10
       235  11  1.091918E+06  1.910707E+05  1.230501E+05  3.026827E+04  2.839983E-09 -4.207414E-09
       235  12  1.043127E+06  1.943687E+05  1.142959E+05  5.907204E+04 -1.316937E-09 -2.268590E-09
       235  13  1.726705E+05 -7.690761E+04 -8.278213E+04  5.811388E+04  1.128755E-09  9.946773E-10
       235  14  1.784691E+05 -2.423267E+04 -4.130253E+04  5.465487E+04 -1.323325E-09 -2.682267E-09
       235  15  1.726935E+05 -6.936670E+03 -2.242244E+04  5.796626E+04  1.424506E-09  1.178974E-09
       235  16 -7.905122E+05 -3.138604E+05 -3.051158E+05  1.079165E+05 -4.165631E-09  4.646369E-11
       235  17 -7.341662E+05 -2.395802E+05 -2.056872E+05  7.900421E+04 -3.491441E-09 -7.172984E-09
       235  18 -6.969854E+05 -2.082794E+05 -1.591593E+05  5.686168E+04  2.016976E-09 -4.967639E-09
       235  19  1.136718E+06  1.599902E+05  1.394936E+05  8.232527E+03 -3.323368E+04  1.325351E+04
       235  20  1.091918E+06  1.910730E+05  1.230543E+05  3.026787E+04 -1.080117E+04  4.586984E+04
       235  21  1.043128E+06  1.943723E+05  1.143025E+05  5.907258E+04  1.166293E+04  5.808235E+04
       235  22  1.726742E+05 -7.690651E+04 -8.277543E+04  5.811451E+04  5.821214E+04  1.342466E+04
       235  23  1.784711E+05 -2.423003E+04 -4.129599E+04  5.465624E+04  3.700987E+04  4.597158E+04
       235  24  1.726946E+05 -6.932978E+03 -2.241562E+04  5.796700E+04  1.584081E+04  5.809905E+04
       235  25 -7.904881E+05 -3.138542E+05 -3.050734E+05  1.079182E+05  1.495172E+05  1.361064E+04
       235  26 -7.341579E+05 -2.395760E+05 -2.056697E+05  7.900736E+04  8.475261E+04  4.607716E+04
       235  27 -6.969841E+05 -2.082757E+05 -1.591522E+05  5.686261E+04  2.001304E+04  5.811576E+04
       236   1  1.015014E+06  1.881907E+05  1.118140E+05  5.676234E+04 -8.940970E+03 -5.843161E+04
       236   2  9.687017E+05  1.803308E+05  1.068541E+05  5.430542E+04 -9.590380E+03 -5.908311E+04
       236   3  9.219953E+05  1.705633E+05  1.018438E+05  6.004986E+04 -1.024605E+04 -5.728731E+04
       236   4  1.749860E+05 -5.409108E+03 -1.681523E+04  5.829565E+04 -1.293524E+04 -5.844813E+04
       236   5  1.756496E+05 -1.366861E+03 -9.143409E+03  5.418821E+04 -8.355072E+03 -5.908769E+04
       236   6  1.750097E+05 -1.409657E+02 -5.152938E+03  5.828286E+04 -3.781104E+03 -5.727833E+04
       236   7 -6.643371E+05 -1.990429E+05 -1.454598E+05  5.982642E+04 -1.692431E+04 -5.846469E+04
       236   8 -6.167696E+05 -1.830936E+05 -1.251518E+05  5.407079E+04 -7.121270E+03 -5.909228E+04
       236   9 -5.714126E+05 -1.708705E+05 -1.121579E+05  5.651773E+04  2.676401E+03 -5.726938E+04
       236  10  1.015013E+06  1.881870E+05  1.118075E+05  5.676192E+04 -5.939866E-09 -3.500925E-09
       236  11  9.687007E+05  1.803270E+05  1.068474E+05  5.430496E+04 -1.678444E-09  1.569377E-09
       236  12  9.219943E+05  1.705597E+05  1.018374E+05  6.004939E+04 -7.909619E-10  2.581341E-09
       236  13  1.749850E+05 -5.412822E+03 -1.682196E+04  5.829505E+04  3.191076E-11 -1.456218E-09
       236  14  1.756486E+05 -1.370629E+03 -9.150102E+03  5.418781E+04 -3.027878E-10  1.167731E-09
       236  15  1.750089E+05 -1.444928E+02 -5.159131E+03  5.828269E+04 -1.542303E-09 -1.629121E-09
       236  16 -6.643383E+05 -1.990466E+05 -1.454668E+05  5.982562E+04  6.670440E-09  1.631634E-09
       236  17 -6.167706E+05 -1.830974E+05 -1.251584E+05  5.407045E+04  2.317487E-09  2.767697E-09
       236  18 -5.714134E+05 -1.708741E+05 -1.121641E+05  5.651786E+04 -3.856794E-10  1.101573E-09
       236  19  1.015014E+06  1.881907E+05  1.118140E+05  5.676234E+04  8.940970E+03  5.843161E+04
       236  20  9.687017E+05  1.803308E+05  1.068541E+05  5.430542E+04  9.590380E+03  5.908311E+04
       236  21  9.219953E+05  1.705633E+05  1.018438E+05  6.004986E+04  1.024605E+04  5.728731E+04
       236  22  1.749860E+05 -5.409108E+03 -1.681523E+04  5.829565E+04  1.293524E+04  5.844813E+04
       236  23  1.756496E+05 -1.366861E+03 -9.143409E+03  5.418821E+04  8.355072E+03  5.908769E+04
       236  24  1.750097E+05 -1.409657E+02 -5.152938E+03  5.828286E+04  3.781104E+03  5.727833E+04
       236  25 -6.643371E+05 -1.990429E+05 -1.454598E+05  5.982642E+04  1.692431E+04  5.846469E+04
       236  26 -6.167696E+05 -1.830936E+05 -1.251518E+05  5.407079E+04  7.121270E+03  5.909228E+04
       236  27 -5.714126E+05 -1.708705E+05 -1.121579E+05  5.651773E+04 -2.676401E+03  5.726938E+04
       237   1  8.930159E+05  1.638628E+05  9.837841E+04  5.977362E+04 -9.497410E+03 -5.543305E+04
       237   2  8.466217E+05  1.533829E+05  9.288115E+04  5.557427E+04 -9.038288E+03 -5.225439E+04
       237   3  8.001322E+05  1.428423E+05  8.706416E+04  5.973953E+04 -8.581275E+03 -4.878302E+04
       237   4  1.752616E+05 -5.521129E+01 -3.894669E+03  5.832020E+04 -3.012638E+03 -5.542315E+04
       237   5  1.753752E+05  1.954778E+02 -2.196760E+03  5.413719E+04 -1.928857E+03 -5.224151E+04
       237   6  1.752826E+05  2.770237E+02 -1.252763E+03  5.831933E+04 -8.471512E+02 -4.876700E+04
       237   7 -5.419723E+05 -1.639965E+05 -1.061751E+05  5.686820E+04  3.464969E+03 -5.541328E+04
       237   8 -4.954157E+05 -1.530121E+05 -9.728079E+04  5.270144E+04  5.173230E+03 -5.222866E+04
       237   9 -4.491720E+05 -1.423057E+05 -8.957484E+04  5.690034E+04  6.879534E+03 -4.875100E+04
       237  10  8.930150E+05  1.638595E+05  9.837247E+04  5.977320E+04  5.785778E-08  4.865006E-09
       237  11  8.466209E+05  1.533799E+05  9.287586E+04  5.557389E+04 -3.903151E-10  4.824838E-09
       237  12  8.001315E+05  1.428397E+05  8.705955E+04  5.973920E+04 -6.072863E-08  2.068246E-09
       237  13  1.752608E+05 -5.851248E+01 -3.900459E+03  5.832007E+04 -2.260623E-09 -2.181685E-09
       237  14  1.753745E+05  1.925459E+02 -2.201896E+03  5.413711E+04 -2.984713E-09  4.943049E-09
       237  15  1.752820E+05  2.744695E+02 -1.257234E+03  5.831930E+04  1.473335E-09  5.688307E-09
       237  16 -5.419731E+05 -1.639998E+05 -1.061809E+05  5.686835E+04 -5.643877E-08  3.049624E-09
       237  17 -4.954165E+05 -1.530151E+05 -9.728596E+04  5.270165E+04  2.648113E-09  6.152954E-09
       237  18 -4.491727E+05 -1.423083E+05 -8.957940E+04  5.690061E+04  6.150612E-08  7.546668E-10
       237  19  8.930159E+05  1.638628E+05  9.837841E+04  5.977362E+04  9.497410E+03  5.543305E+04
       237  20  8.466217E+05  1.533829E+05  9.288115E+04  5.557427E+04  9.038288E+03  5.225439E+04
       237  21  8.001322E+05  1.428423E+05  8.706416E+04  5.973953E+04  8.581275E+03  4.878302E+04
       237  22  1.752616E+05 -5.521129E+01 -3.894669E+03  5.832020E+04  3.012638E+03  5.542315E+04
       237  23  1.753752E+05  1.954778E+02 -2.196760E+03  5.413719E+04  1.928857E+03  5.224151E+04
       237  24  1.752826E+05  2.770237E+02 -1.252763E+03  5.831933E+04  8.471512E+02  4.876700E+04
       237  25 -5.419723E+05 -1.639965E+05 -1.061751E+05  5.686820E+04 -3.464969E+03  5.541328E+04
       237  26 -4.954157E+05 -1.530121E+05 -9.728079E+04  5.270144E+04 -5.173230E+03  5.222866E+04
       237  27 -4.491720E+05 -1.423057E+05 -8.957484E+04  5.690034E+04 -6.879534E+03  4.875100E+04
       238   1  7.711037E+05  1.361741E+05  8.305159E+04  5.966246E+04 -8.389789E+03 -4.666658E+04
       238   2  7.247247E+05  1.255845E+05  7.692179E+04  5.538185E+04 -8.204874E+03 -4.303158E+04
       238   3  6.782993E+05  1.150452E+05  7.067318E+04  5.947871E+04 -8.021231E+03 -3.936218E+04
       238   4  1.753213E+05  2.804793E+02 -9.482885E+02  5.832228E+04 -6.548553E+02 -4.664973E+04
       238   5  1.753610E+05  2.743551E+02 -5.387463E+02  5.413333E+04 -3.969341E+02 -4.301326E+04
       238   6  1.753386E+05  3.057389E+02 -2.991832E+02  5.832224E+04 -1.402739E+02 -3.934237E+04
       238   7 -4.201019E+05 -1.356290E+05 -8.495275E+04  5.698319E+04  7.072987E+03 -4.663290E+04
       238   8 -3.736972E+05 -1.250493E+05 -7.800314E+04  5.288573E+04  7.404404E+03 -4.299495E+04
       238   9 -3.273660E+05 -1.144450E+05 -7.127476E+04  5.716657E+04  7.734582E+03 -3.932258E+04
       238  10  7.711030E+05  1.361717E+05  8.304737E+04  5.966214E+04 -3.129753E-08  2.569822E-09
       238  11  7.247242E+05  1.255825E+05  7.691818E+04  5.538157E+04  2.235591E-09  1.196702E-08
       238  12  6.782988E+05  1.150435E+05  7.067015E+04  5.947845E+04  3.916165E-08  1.234333E-08
       238  13  1.753207E+05  2.781421E+02 -9.523791E+02  5.832225E+04 -1.099384E-09 -1.696308E-10
       238  14  1.753605E+05  2.723682E+02 -5.422236E+02  5.413331E+04  1.341527E-09  1.481147E-09
       238  15  1.753382E+05  3.040767E+02 -3.020922E+02  5.832224E+04 -6.458879E-10 -1.023934E-08
       238  16 -4.201025E+05 -1.356314E+05 -8.495693E+04  5.698346E+04  3.077778E-08  8.453447E-10
       238  17 -3.736978E+05 -1.250513E+05 -7.800671E+04  5.288599E+04 -6.241431E-09  5.510705E-09
       238  18 -3.273665E+05 -1.144467E+05 -7.127778E+04  5.716682E+04 -4.035740E-08  6.308821E-09
       238  19  7.711037E+05  1.361741E+05  8.305159E+04  5.966246E+04  8.389789E+03  4.666658E+04
       238  20  7.247247E+05  1.255845E+05  7.692179E+04  5.538185E+04  8.204874E+03  4.303158E+04
       238  21  6.782993E+05  1.150452E+05  7.067318E+04  5.947871E+04  8.021231E+03  3.936218E+04
       238  22  1.753213E+05  2.804793E+02 -9.482885E+02  5.832228E+04  6.548553E+02  4.664973E+04
       238  23  1.753610E+05  2.743551E+02 -5.387463E+02  5.413333E+04  3.969341E+02  4.301326E+04
       238  24  1.753386E+05  3.057389E+02 -2.991832E+02  5.832224E+04  1.402739E+02  3.934237E+04
       238  25 -4.201019E+05 -1.356290E+05 -8.495275E+04  5.698319E+04 -7.072987E+03  4.663290E+04
       238  26 -3.736972E+05 -1.250493E+05 -7.800314E+04  5.288573E+04 -7.404404E+03  4.299495E+04
       238  27 -3.273660E+05 -1.144450E+05 -7.127476E+04  5.716657E+04 -7.734582E+03  3.932258E+04
       239   1  6.492796E+05  1.083949E+05  6.648627E+04  5.942092E+04 -7.978394E+03 -3.721555E+04
       239   2  6.029283E+05  9.781756E+04  6.014218E+04  5.513767E+04 -7.943034E+03 -3.352774E+04
       239   3  5.565375E+05  8.729421E+04  5.377330E+04  5.923357E+04 -7.908598E+03 -2.983633E+04
       239   4  1.753484E+05  3.100973E+02 -2.198423E+02  5.832261E+04 -9.860670E+01 -3.719507E+04
       239   5  1.753762E+05  2.933878E+02 -1.065702E+02  5.413287E+04 -5.583245E+01 -3.350623E+04
       239   6  1.753619E+05  3.295912E+02 -2.321443E+01  5.832259E+04 -1.397905E+01 -2.981381E+04
       239   7 -2.983554E+05 -1.077847E+05 -6.692873E+04  5.722501E+04  7.775433E+03 -3.717461E+04
       239   8 -2.519907E+05 -9.723893E+04 -6.035755E+04  5.312864E+04  7.826179E+03 -3.348475E+04
       239   9 -2.056667E+05 -8.664151E+04 -5.382147E+04  5.741208E+04  7.876008E+03 -2.979130E+04
       239  10  6.492791E+05  1.083934E+05  6.648355E+04  5.942068E+04 -2.898755E-08  5.719888E-09
       239  11  6.029279E+05  9.781633E+04  6.013995E+04  5.513746E+04 -5.595880E-09  3.887417E-10
       239  12  5.565372E+05  8.729324E+04  5.377151E+04  5.923338E+04  1.470984E-08 -1.396207E-09
       239  13  1.753480E+05  3.086116E+02 -2.224423E+02  5.832261E+04  2.279658E-09 -4.760634E-09
       239  14  1.753759E+05  2.921822E+02 -1.086801E+02  5.413286E+04 -1.425092E-09 -6.352928E-09
       239  15  1.753616E+05  3.286366E+02 -2.488491E+01  5.832259E+04 -2.281056E-09 -4.073549E-09
       239  16 -2.983558E+05 -1.077862E+05 -6.693144E+04  5.722524E+04  2.904058E-08  9.624022E-09
       239  17 -2.519910E+05 -9.724015E+04 -6.035978E+04  5.312885E+04  5.400506E-09 -1.341666E-09
       239  18 -2.056670E+05 -8.664248E+04 -5.382326E+04  5.741227E+04 -1.430069E-08 -3.786207E-09
       239  19  6.492796E+05  1.083949E+05  6.648627E+04  5.942092E+04  7.978394E+03  3.721555E+04
       239  20  6.029283E+05  9.781756E+04  6.014218E+04  5.513767E+04  7.943034E+03  3.352774E+04
       239  21  5.565375E+05  8.729421E+04  5.377330E+04  5.923357E+04  7.908598E+03  2.983633E+04
       239  22  1.753484E+05  3.100973E+02 -2.198423E+02  5.832261E+04  9.860670E+01  3.719507E+04
       239  23  1.753762E+05  2.933878E+02 -1.065702E+02  5.413287E+04  5.583245E+01  3.350623E+04
       239  24  1.753619E+05  3.295912E+02 -2.321443E+01  5.832259E+04  1.397905E+01  2.981381E+04
       239  25 -2.983554E+05 -1.077847E+05 -6.692873E+04  5.722501E+04 -7.775433E+03  3.717461E+04
       239  26 -2.519907E+05 -9.723893E+04 -6.035755E+04  5.312864E+04 -7.826179E+03  3.348475E+04
       239  27 -2.056667E+05 -8.664151E+04 -5.382147E+04  5.741208E+04 -7.876008E+03  2.979130E+04
       240   1  5.275347E+05  8.064926E+04  4.955144E+04  5.917260E+04 -7.912523E+03 -2.768691E+04
       240   2  4.812035E+05  7.007949E+04  4.318555E+04  5.488057E+04 -7.970050E+03 -2.399383E+04
       240   3  4.348398E+05  5.957575E+04  3.685567E+04  5.896287E+04 -8.028228E+03 -2.030022E+04
       240   4  1.753675E+05  3.343768E+02  1.302642E+01  5.832150E+04 -1.899837E+01 -2.766389E+04
       240   5  1.753898E+05  3.190798E+02  9.226421E+01  5.413419E+04 -7.566507E+01 -2.397009E+04
       240   6  1.753771E+05  3.697219E+02  2.067415E+02  5.832142E+04 -1.329854E+02 -2.027576E+04
       240   7 -1.766740E+05 -7.998602E+04 -4.952680E+04  5.747081E+04  7.870248E+03 -2.764088E+04
       240   8 -1.303291E+05 -6.944549E+04 -4.300205E+04  5.338811E+04  7.815003E+03 -2.394636E+04
       240   9 -8.401726E+04 -5.883930E+04 -3.644287E+04  5.768020E+04  7.759103E+03 -2.025131E+04
       240  10  5.275344E+05  8.064842E+04  4.954988E+04  5.917242E+04 -6.498885E-08  2.470495E-09
       240  11  4.812033E+05  7.007885E+04  4.318435E+04  5.488042E+04 -1.866253E-09 -3.797903E-10
       240  12  4.348396E+05  5.957529E+04  3.685477E+04  5.896274E+04  6.194674E-08  1.054808E-09
       240  13  1.753673E+05  3.335550E+02  1.158817E+01  5.832150E+04 -3.589605E-11 -1.161849E-09
       240  14  1.753896E+05  3.184627E+02  9.118439E+01  5.413419E+04  1.668142E-09 -1.364598E-09
       240  15  1.753770E+05  3.692804E+02  2.059689E+02  5.832142E+04 -4.066454E-10  9.562626E-10
       240  16 -1.766743E+05 -7.998686E+04 -4.952835E+04  5.747099E+04  6.464876E-08  5.079674E-10
       240  17 -1.303294E+05 -6.944612E+04 -4.300324E+04  5.338826E+04 -3.370129E-10 -1.132766E-08
       240  18 -8.401743E+04 -5.883976E+04 -3.644376E+04  5.768032E+04 -6.315065E-08 -5.861384E-09
       240  19  5.275347E+05  8.064926E+04  4.955144E+04  5.917260E+04  7.912523E+03  2.768691E+04
       240  20  4.812035E+05  7.007949E+04  4.318555E+04  5.488057E+04  7.970050E+03  2.399383E+04
       240  21  4.348398E+05  5.957575E+04  3.685567E+04  5.896287E+04  8.028228E+03  2.030022E+04
       240  22  1.753675E+05  3.343768E+02  1.302642E+01  5.832150E+04  1.899837E+01  2.766389E+04
       240  23  1.753898E+05  3.190798E+02  9.226421E+01  5.413419E+04  7.566507E+01  2.397009E+04
       240  24  1.753771E+05  3.697219E+02  2.067415E+02  5.832142E+04  1.329854E+02  2.027576E+04
       240  25 -1.766740E+05 -7.998602E+04 -4.952680E+04  5.747081E+04 -7.870248E+03  2.764088E+04
       240  26 -1.303291E+05 -6.944549E+04 -4.300205E+04  5.338811E+04 -7.815003E+03  2.394636E+04
       240  27 -8.401726E+04 -5.883930E+04 -3.644287E+04  5.768020E+04 -7.759103E+03  2.025131E+04
       241   1  4.058621E+05  5.293693E+04  3.267818E+04  5.891107E+04 -8.075837E+03 -1.815064E+04
       241   2  3.595176E+05  4.243313E+04  2.647722E+04  5.451687E+04 -8.356919E+03 -1.445550E+04
       241   3  3.132032E+05  3.215109E+04  2.049494E+04  5.849391E+04 -8.638384E+03 -1.075636E+04
       241   4  1.753933E+05  3.779068E+02  2.844259E+02  5.832080E+04 -1.813389E+02 -1.812584E+04
       241   5  1.753833E+05  4.256638E+02  5.220328E+02  5.413463E+04 -4.541312E+02 -1.443025E+04
       241   6  1.753991E+05  6.936296E+02  9.722091E+02  5.831981E+04 -7.273249E+02 -1.073066E+04
       241   7 -5.502162E+04 -5.218346E+04 -3.210980E+04  5.773072E+04  7.710358E+03 -1.810106E+04
       241   8 -8.716548E+03 -4.158329E+04 -2.543337E+04  5.375248E+04  7.446416E+03 -1.440500E+04
       241   9  3.761424E+04 -3.076466E+04 -1.855055E+04  5.814574E+04  7.182055E+03 -1.070495E+04
       241  10  4.058620E+05  5.293656E+04  3.267744E+04  5.891095E+04 -5.608780E-09  6.756007E-09
       241  11  3.595175E+05  4.243289E+04  2.647669E+04  5.451678E+04  5.024357E-09  1.661028E-09
       241  12  3.132031E+05  3.215095E+04  2.049458E+04  5.849383E+04  1.170499E-08  6.690728E-09
       241  13  1.753932E+05  3.775540E+02  2.838084E+02  5.832080E+04  1.062286E-09  4.243313E-09
       241  14  1.753832E+05  4.254401E+02  5.216410E+02  5.413462E+04  1.011424E-10  2.144207E-09
       241  15  1.753990E+05  6.935058E+02  9.719917E+02  5.831981E+04  2.699657E-09 -1.660953E-09
       241  16 -5.502177E+04 -5.218383E+04 -3.211053E+04  5.773083E+04  5.940273E-09  1.314717E-09
       241  17 -8.716663E+03 -4.158353E+04 -2.543387E+04  5.375256E+04 -4.776788E-09  1.374361E-09
       241  18  3.761416E+04 -3.076479E+04 -1.855086E+04  5.814581E+04 -1.001244E-08 -1.092716E-08
       241  19  4.058621E+05  5.293693E+04  3.267818E+04  5.891107E+04  8.075837E+03  1.815064E+04
       241  20  3.595176E+05  4.243313E+04  2.647722E+04  5.451687E+04  8.356919E+03  1.445550E+04
       241  21  3.132032E+05  3.215109E+04  2.049494E+04  5.849391E+04  8.638384E+03  1.075636E+04
       241  22  1.753933E+05  3.779068E+02  2.844259E+02  5.832080E+04  1.813389E+02  1.812584E+04
       241  23  1.753833E+05  4.256638E+02  5.220328E+02  5.413463E+04  4.541312E+02  1.443025E+04
       241  24  1.753991E+05  6.936296E+02  9.722091E+02  5.831981E+04  7.273249E+02  1.073066E+04
       241  25 -5.502162E+04 -5.218346E+04 -3.210980E+04  5.773072E+04 -7.710358E+03  1.810106E+04
       241  26 -8.716548E+03 -4.158329E+04 -2.543337E+04  5.375248E+04 -7.446416E+03  1.440500E+04
       241  27  3.761424E+04 -3.076466E+04 -1.855055E+04  5.814574E+04 -7.182055E+03  1.070495E+04
       242   1  2.843532E+05  2.559740E+04  1.657281E+04  5.857560E+04 -8.813197E+03 -8.603609E+03
       242   2  2.377253E+05  1.602231E+04  1.126529E+04  5.278779E+04 -1.012613E+04 -4.887960E+03
       242   3  1.917338E+05  8.574452E+03  7.323093E+03  5.536950E+04 -1.143924E+04 -1.137168E+03
       242   4  1.755329E+05  7.834711E+02  1.298723E+03  5.832048E+04 -9.023076E+02 -8.577729E+03
       242   5  1.752228E+05  1.762261E+03  2.396442E+03  5.412914E+04 -2.140311E+03 -4.861710E+03
       242   6  1.755346E+05  4.855585E+03  4.807517E+03  5.830728E+04 -3.378578E+03 -1.110554E+03
       242   7  6.672468E+04 -2.403096E+04 -1.397528E+04  5.806539E+04  7.007257E+03 -8.551854E+03
       242   8  1.127244E+05 -1.249792E+04 -6.472216E+03  5.547034E+04  5.844736E+03 -4.835424E+03
       242   9  1.593357E+05  1.136773E+03  2.292183E+03  6.124498E+04  4.681882E+03 -1.083864E+03
       242  10  2.843531E+05  2.559730E+04  1.657253E+04  5.857554E+04 -5.162740E-09  5.010898E-09
       242  11  2.377252E+05  1.602226E+04  1.126505E+04  5.278775E+04 -1.415076E-09 -5.257137E-09
       242  12  1.917336E+05  8.574416E+03  7.322845E+03  5.536949E+04  2.079318E-09 -2.531168E-10
       242  13  1.755329E+05  7.833919E+02  1.298584E+03  5.832047E+04  3.350063E-09  4.760662E-09
       242  14  1.752228E+05  1.762235E+03  2.396389E+03  5.412913E+04 -1.624644E-09 -8.898709E-09
       242  15  1.755345E+05  4.855581E+03  4.807493E+03  5.830728E+04 -7.081084E-10  2.627638E-09
       242  16  6.672460E+04 -2.403105E+04 -1.397551E+04  5.806543E+04  7.756152E-09 -8.748597E-10
       242  17  1.127243E+05 -1.249795E+04 -6.472324E+03  5.547036E+04  6.915754E-10  3.095999E-09
       242  18  1.593357E+05  1.136766E+03  2.292140E+03  6.124498E+04 -2.654068E-10  3.646541E-10
       242  19  2.843532E+05  2.559740E+04  1.657281E+04  5.857560E+04  8.813197E+03  8.603609E+03
       242  20  2.377253E+05  1.602231E+04  1.126529E+04  5.278779E+04  1.012613E+04  4.887960E+03
       242  21  1.917338E+05  8.574452E+03  7.323093E+03  5.536950E+04  1.143924E+04  1.137168E+03
       242  22  1.755329E+05  7.834711E+02  1.298723E+03  5.832048E+04  9.023076E+02  8.577729E+03
       242  23  1.752228E+05  1.762261E+03  2.396442E+03  5.412914E+04  2.140311E+03  4.861710E+03
       242  24  1.755346E+05  4.855585E+03  4.807517E+03  5.830728E+04  3.378578E+03  1.110554E+03
       242  25  6.672468E+04 -2.403096E+04 -1.397528E+04  5.806539E+04 -7.007257E+03  8.551854E+03
       242  26  1.127244E+05 -1.249792E+04 -6.472216E+03  5.547034E+04 -5.844736E+03  4.835424E+03
       242  27  1.593357E+05  1.136773E+03  2.292183E+03  6.124498E+04 -4.681882E+03  1.083864E+03
       243   1 -3.969892E+04  4.211776E+05 -3.291300E+04 -1.044033E+05 -4.930307E+03 -2.086498E+04
       243   2 -6.819839E+04  3.447146E+05 -4.204921E+04 -9.058262E+04 -1.888152E+04 -1.710968E+04
       243   3 -8.892781E+04  2.696535E+05 -5.171211E+04 -9.142765E+04 -2.797247E+04 -1.334540E+04
       243   4  1.942089E+04  6.633200E+05  2.097363E+04 -9.191509E+04 -4.993736E+03  1.255621E+04
       243   5  5.965385E+03  6.617557E+05  1.204145E+04 -8.459795E+04 -1.892396E+04  6.389989E+03
       243   6  1.999361E+03  6.633088E+05  9.467027E+03 -9.194490E+04 -2.799513E+04  2.331000E+02
       243   7  7.853794E+04  9.055197E+05  7.486088E+04 -7.942198E+04 -5.055807E+03  4.599029E+04
       243   8  8.012426E+04  9.788968E+05  6.613089E+04 -7.861008E+04 -1.896593E+04  2.990127E+04
       243   9  9.291907E+04  1.057119E+06  7.064324E+04 -9.246242E+04 -2.801780E+04  1.381988E+04
       243  10 -3.969907E+04  4.211772E+05 -3.291387E+04 -1.044033E+05  6.994923E-10 -8.965661E-11
       243  11 -6.819885E+04  3.447142E+05 -4.205043E+04 -9.058288E+04 -2.334714E-09 -6.270698E-09
       243  12 -8.892870E+04  2.696531E+05 -5.171391E+04 -9.142795E+04 -1.950913E-09 -1.368813E-09
       243  13  1.942083E+04  6.633198E+05  2.097329E+04 -9.191504E+04  7.075839E-10 -1.940618E-09
       243  14  5.964989E+03  6.617556E+05  1.204070E+04 -8.459785E+04 -1.540792E-09 -1.791711E-09
       243  15  1.998519E+03  6.633085E+05  9.465554E+03 -9.194490E+04 -1.332148E-09 -6.461577E-10
       243  16  7.853735E+04  9.055174E+05  7.485687E+04 -7.942180E+04 -3.592103E-10 -9.678199E-10
       243  17  8.012364E+04  9.788958E+05  6.612854E+04 -7.860963E+04  8.607231E-10  1.048234E-09
       243  18  9.291817E+04  1.057119E+06  7.064141E+04 -9.246211E+04 -1.746616E-10  1.599201E-09
       243  19 -3.969892E+04  4.211776E+05 -3.291300E+04 -1.044033E+05  4.930307E+03  2.086498E+04
       243  20 -6.819839E+04  3.447146E+05 -4.204921E+04 -9.058262E+04  1.888152E+04  1.710968E+04
       243  21 -8.892781E+04  2.696535E+05 -5.171211E+04 -9.142765E+04  2.797247E+04  1.334540E+04
       243  22  1.942089E+04  6.633200E+05  2.097363E+04 -9.191509E+04  4.993736E+03 -1.255621E+04
       243  23  5.965385E+03  6.617557E+05  1.204145E+04 -8.459795E+04  1.892396E+04 -6.389989E+03
       243  24  1.999361E+03  6.633088E+05  9.467027E+03 -9.194490E+04  2.799513E+04 -2.331000E+02
       243  25  7.853794E+04  9.055197E+05  7.486088E+04 -7.942198E+04  5.055807E+03 -4.599029E+04
       243  26  8.012426E+04  9.788968E+05  6.613089E+04 -7.861008E+04  1.896593E+04 -2.990127E+04
       243  27  9.291907E+04  1.057119E+06  7.064324E+04 -9.246242E+04  2.801780E+04 -1.381988E+04
       244   1 -1.000514E+05  2.217217E+05 -5.851180E+04 -9.240989E+04 -3.175920E+04 -1.497378E+04
       244   2 -1.173580E+05  1.454171E+05 -6.762820E+04 -8.323004E+04 -3.720934E+04 -1.586379E+04
       244   3 -1.318447E+05  6.990479E+04 -7.547128E+04 -8.827419E+04 -4.014280E+04 -1.674853E+04
       244   4  1.762421E+03  6.629808E+05  9.531773E+03 -9.184485E+04 -3.178110E+04 -1.284128E+03
       244   5  1.876413E+03  6.621281E+05  1.203763E+04 -8.472985E+04 -3.722065E+04 -7.313382E+03
       244   6  5.700572E+03  6.629521E+05  1.938173E+04 -9.183782E+04 -4.014457E+04 -1.333748E+04
       244   7  1.035669E+05  1.104435E+06  7.757167E+04 -9.127929E+04 -3.180298E+04  1.241488E+04
       244   8  1.210979E+05  1.179106E+06  9.169773E+04 -8.623083E+04 -3.723199E+04  1.243871E+03
       244   9  1.432283E+05  1.256349E+06  1.142256E+05 -9.540482E+04 -4.014639E+04 -9.923296E+03
       244  10 -1.000526E+05  2.217212E+05 -5.851412E+04 -9.241028E+04 -1.134057E-09  2.177865E-10
       244  11 -1.173595E+05  1.454165E+05 -6.763128E+04 -8.323052E+04  5.471024E-10 -4.814297E-09
       244  12 -1.318465E+05  6.990406E+04 -7.547484E+04 -8.827473E+04 -2.150624E-09 -2.020501E-10
       244  13  1.761335E+03  6.629806E+05  9.529871E+03 -9.184488E+04 -8.086327E-10 -2.135901E-09
       244  14  1.874911E+03  6.621276E+05  1.203493E+04 -8.473007E+04 -2.079979E-09 -1.744068E-09
       244  15  5.698793E+03  6.629515E+05  1.937837E+04 -9.183825E+04 -2.927509E-09 -1.806203E-10
       244  16  1.035658E+05  1.104434E+06  7.756948E+04 -9.127897E+04  9.972703E-10 -1.524259E-09
       244  17  1.210964E+05  1.179106E+06  9.169513E+04 -8.623079E+04 -3.335734E-09  7.479962E-10
       244  18  1.432265E+05  1.256348E+06  1.142223E+05 -9.540514E+04 -3.394449E-09  7.328816E-10
       244  19 -1.000514E+05  2.217217E+05 -5.851180E+04 -9.240989E+04  3.175920E+04  1.497378E+04
       244  20 -1.173580E+05  1.454171E+05 -6.762820E+04 -8.323004E+04  3.720934E+04  1.586379E+04
       244  21 -1.318447E+05  6.990479E+04 -7.547128E+04 -8.827419E+04  4.014280E+04  1.674853E+04
       244  22  1.762421E+03  6.629808E+05  9.531773E+03 -9.184485E+04  3.178110E+04  1.284128E+03
       244  23  1.876413E+03  6.621281E+05  1.203763E+04 -8.472985E+04  3.722065E+04  7.313382E+03
       244  24  5.700572E+03  6.629521E+05  1.938173E+04 -9.183782E+04  4.014457E+04  1.333748E+04
       244  25  1.035669E+05  1.104435E+06  7.757167E+04 -9.127929E+04  3.180298E+04 -1.241488E+04
       244  26  1.210979E+05  1.179106E+06  9.169773E+04 -8.623083E+04  3.723199E+04 -1.243871E+03
       244  27  1.432283E+05  1.256349E+06  1.142256E+05 -9.540482E+04  4.014639E+04  9.923296E+03
       245   1 -1.425240E+05  2.355913E+04 -7.978748E+04 -9.153785E+04 -4.179099E+04 -2.035769E+04
       245   2 -1.446079E+05 -5.597284E+04 -8.740683E+04 -5.723658E+04 -3.487068E+04 -7.595311E+03
       245   3 -1.125613E+05 -1.286258E+05 -9.479400E+04 -3.589107E+04 -1.041937E+04  5.184937E+03
       245   4  6.784581E+03  6.654733E+05  2.508315E+04 -9.156430E+04 -4.179273E+04 -1.665078E+04
       245   5  2.488539E+04  6.589102E+05  4.494772E+04 -8.503153E+04 -3.482101E+04 -3.965961E+04
       245   6  8.329893E+04  6.654132E+05  8.986623E+04 -9.145198E+04 -1.032871E+04 -6.264948E+04
       245   7  1.560721E+05  1.307795E+06  1.299421E+05 -9.159060E+04 -4.179448E+04 -1.294015E+04
       245   8  1.943528E+05  1.374292E+06  1.772851E+05 -1.128591E+05 -3.476851E+04 -7.175986E+04
       245   9  2.791286E+05  1.460050E+06  2.745029E+05 -1.470842E+05 -1.022598E+04 -1.305700E+05
       245  10 -1.425260E+05  2.355821E+04 -7.979154E+04 -9.153854E+04 -6.238365E-10  2.330821E-09
       245  11 -1.446092E+05 -5.597323E+04 -8.740922E+04 -5.723679E+04  8.695830E-10 -3.446654E-09
       245  12 -1.125614E+05 -1.286258E+05 -9.479425E+04 -3.589103E+04  5.342553E-10 -1.060399E-09
       245  13  6.782631E+03  6.654725E+05  2.507935E+04 -9.156486E+04 -2.471507E-10 -1.553886E-09
       245  14  2.488367E+04  6.589082E+05  4.494249E+04 -8.503264E+04 -7.255085E-10 -1.252310E-09
       245  15  8.329776E+04  6.654090E+05  8.985866E+04 -9.145250E+04  2.030372E-09 -4.235049E-10
       245  16  1.560702E+05  1.307795E+06  1.299385E+05 -9.159104E+04 -1.755464E-09 -2.896918E-09
       245  17  1.943501E+05  1.374286E+06  1.772732E+05 -1.128611E+05 -5.381293E-10  1.326381E-10
       245  18  2.791239E+05  1.460032E+06  2.744707E+05 -1.470853E+05 -1.054995E-10  1.456448E-09
       245  19 -1.425240E+05  2.355913E+04 -7.978748E+04 -9.153785E+04  4.179099E+04  2.035769E+04
       245  20 -1.446079E+05 -5.597284E+04 -8.740683E+04 -5.723658E+04  3.487068E+04  7.595311E+03
       245  21 -1.125613E+05 -1.286258E+05 -9.479400E+04 -3.589107E+04  1.041937E+04 -5.184937E+03
       245  22  6.784581E+03  6.654733E+05  2.508315E+04 -9.156430E+04  4.179273E+04  1.665078E+04
       245  23  2.488539E+04  6.589102E+05  4.494772E+04 -8.503153E+04  3.482101E+04  3.965961E+04
       245  24  8.329893E+04  6.654132E+05  8.986623E+04 -9.145198E+04  1.032871E+04  6.264948E+04
       245  25  1.560721E+05  1.307795E+06  1.299421E+05 -9.159060E+04  4.179448E+04  1.294015E+04
       245  26  1.943528E+05  1.374292E+06  1.772851E+05 -1.128591E+05  3.476851E+04  7.175986E+04
       245  27  2.791286E+05  1.460050E+06  2.745029E+05 -1.470842E+05  1.022598E+04  1.305700E+05
       246   1  1.133328E+06  3.680253E+05  1.757982E+05  4.068300E+05  5.456732E+04  5.834930E+03
       246   2  1.064627E+06  3.701887E+05  1.377516E+05  3.886640E+05  3.626221E+04 -3.615845E+04
       246   3  9.869142E+05  3.672949E+05  1.181856E+05  3.845852E+05  9.999785E+03 -5.702555E+04
       246   4  2.226115E+05  5.426375E+04 -5.049882E+04  1.850467E+05 -2.809414E+04 -2.534497E+04
       246   5  2.340440E+05  8.002970E+04 -2.397913E+04  1.708224E+05 -4.082192E+03 -5.138857E+04
       246   6  2.280770E+05  9.235003E+04 -1.248749E+04  1.706882E+05  1.196224E+04 -5.629251E+04
       246   7 -6.872433E+05 -2.594552E+05 -2.768195E+05 -3.644316E+04 -1.106193E+05 -5.648277E+04
       246   8 -5.958040E+05 -2.100749E+05 -1.857286E+05 -4.675045E+04 -4.436775E+04 -6.659873E+04
       246   9 -5.301478E+05 -1.825360E+05 -1.431765E+05 -4.296403E+04  1.392215E+04 -5.556045E+04
       246  10  1.133325E+06  3.680245E+05  1.757925E+05  4.068298E+05  3.921454E-09 -7.488507E-10
       246  11  1.064625E+06  3.701870E+05  1.377467E+05  3.886650E+05 -6.931513E-09 -8.635716E-09
       246  12  9.869132E+05  3.672914E+05  1.181793E+05  3.845857E+05 -6.571612E-09 -7.846823E-09
       246  13  2.226105E+05  5.426285E+04 -5.050151E+04  1.850461E+05 -4.916932E-09  2.667002E-09
       246  14  2.340433E+05  8.002686E+04 -2.398413E+04  1.708222E+05 -4.455981E-09 -8.556201E-09
       246  15  2.280760E+05  9.234659E+04 -1.249372E+04  1.706887E+05 -9.697235E-10 -2.217672E-09
       246  16 -6.872573E+05 -2.594620E+05 -2.768485E+05 -3.644820E+04 -8.946801E-09 -2.971325E-09
       246  17 -5.958073E+05 -2.100802E+05 -1.857407E+05 -4.675283E+04 -7.450573E-09 -3.948284E-09
       246  18 -5.301488E+05 -1.825394E+05 -1.431827E+05 -4.296341E+04  2.192420E-09  1.046556E-09
       246  19  1.133328E+06  3.680253E+05  1.757982E+05  4.068300E+05 -5.456732E+04 -5.834930E+03
       246  20  1.064627E+06  3.701887E+05  1.377516E+05  3.886640E+05 -3.626221E+04  3.615845E+04
       246  21  9.869142E+05  3.672949E+05  1.181856E+05  3.845852E+05 -9.999785E+03  5.702555E+04
       246  22  2.226115E+05  5.426375E+04 -5.049882E+04  1.850467E+05  2.809414E+04  2.534497E+04
       246  23  2.340440E+05  8.002970E+04 -2.397913E+04  1.708224E+05  4.082192E+03  5.138857E+04
       246  24  2.280770E+05  9.235003E+04 -1.248749E+04  1.706882E+05 -1.196224E+04  5.629251E+04
       246  25 -6.872433E+05 -2.594552E+05 -2.768195E+05 -3.644316E+04  1.106193E+05  5.648277E+04
       246  26 -5.958040E+05 -2.100749E+05 -1.857286E+05 -4.675045E+04  4.436775E+04  6.659873E+04
       246  27 -5.301478E+05 -1.825360E+05 -1.431765E+05 -4.296403E+04 -1.392215E+04  5.556045E+04
       247   1  9.473816E+05  3.511255E+05  1.115531E+05  3.719813E+05  1.208205E+04 -5.486463E+04
       247   2  8.869625E+05  3.250738E+05  1.003703E+05  3.490573E+05  9.509011E+03 -5.409807E+04
       247   3  8.176343E+05  3.073378E+05  9.049564E+04  3.365911E+05  6.095296E+03 -5.110914E+04
       247   4  2.292451E+05  9.321821E+04 -9.301971E+03  1.713099E+05  1.291188E+04 -5.455863E+04
       247   5  2.343352E+05  9.076189E+04 -4.854117E+03  1.656107E+05  1.478811E+04 -5.211064E+04
       247   6  2.296313E+05  9.573991E+04 -2.622995E+03  1.703687E+05  1.582303E+04 -4.743895E+04
       247   7 -4.883517E+05 -1.646416E+05 -1.301729E+05 -2.914749E+04  1.374071E+04 -5.425301E+04
       247   8 -4.178399E+05 -1.435077E+05 -1.100883E+05 -1.765643E+04  2.006137E+04 -5.012540E+04
       247   9 -3.580001E+05 -1.158212E+05 -9.574765E+04  4.294237E+03  2.554103E+04 -4.377246E+04
       247  10  9.473806E+05  3.511222E+05  1.115472E+05  3.719818E+05 -7.768427E-10 -4.353290E-09
       247  11  8.869616E+05  3.250707E+05  1.003646E+05  3.490577E+05 -2.055761E-09 -2.794597E-09
       247  12  8.176336E+05  3.073349E+05  9.049066E+04  3.365913E+05 -1.642850E-09 -2.477376E-09
       247  13  2.292441E+05  9.321496E+04 -9.307879E+03  1.713104E+05  1.248807E-09 -4.861804E-09
       247  14  2.343342E+05  9.075892E+04 -4.859632E+03  1.656113E+05  2.007462E-10 -2.289606E-09
       247  15  2.296305E+05  9.573743E+04 -2.627695E+03  1.703693E+05 -2.979147E-09 -3.595406E-09
       247  16 -4.883527E+05 -1.646448E+05 -1.301788E+05 -2.914689E+04  4.190139E-09 -9.671447E-10
       247  17 -4.178410E+05 -1.435105E+05 -1.100938E+05 -1.765562E+04  2.738218E-09  7.098948E-10
       247  18 -3.580013E+05 -1.158234E+05 -9.575247E+04  4.295137E+03  4.445337E-09 -3.021050E-09
       247  19  9.473816E+05  3.511255E+05  1.115531E+05  3.719813E+05 -1.208205E+04  5.486463E+04
       247  20  8.869625E+05  3.250738E+05  1.003703E+05  3.490573E+05 -9.509011E+03  5.409807E+04
       247  21  8.176343E+05  3.073378E+05  9.049564E+04  3.365911E+05 -6.095296E+03  5.110914E+04
       247  22  2.292451E+05  9.321821E+04 -9.301971E+03  1.713099E+05 -1.291188E+04  5.455863E+04
       247  23  2.343352E+05  9.076189E+04 -4.854117E+03  1.656107E+05 -1.478811E+04  5.211064E+04
       247  24  2.296313E+05  9.573991E+04 -2.622995E+03  1.703687E+05 -1.582303E+04  4.743895E+04
       247  25 -4.883517E+05 -1.646416E+05 -1.301729E+05 -2.914749E+04 -1.374071E+04  5.425301E+04
       247  26 -4.178399E+05 -1.435077E+05 -1.100883E+05 -1.765643E+04 -2.006137E+04  5.012540E+04
       247  27 -3.580001E+05 -1.158212E+05 -9.574765E+04  4.294237E+03 -2.554103E+04  4.377246E+04
       248   1  7.770842E+05  2.925517E+05  8.419568E+04  3.250606E+05  5.480535E+03 -4.803568E+04
       248   2  7.173390E+05  2.650073E+05  7.463070E+04  3.017802E+05  3.687262E+03 -4.310014E+04
       248   3  6.485454E+05  2.465140E+05  6.502320E+04  2.887832E+05  1.804496E+03 -3.793267E+04
       248   4  2.297437E+05  9.580312E+04 -1.959834E+03  1.704373E+05  1.508552E+04 -4.441058E+04
       248   5  2.343409E+05  9.140446E+04 -1.053182E+03  1.652710E+05  1.375630E+04 -3.929773E+04
       248   6  2.297917E+05  9.596479E+04 -5.579428E+02  1.703872E+05  1.233755E+04 -3.395282E+04
       248   7 -3.172679E+05 -1.009111E+05 -8.811847E+04  1.594392E+04  2.468145E+04 -4.078890E+04
       248   8 -2.484058E+05 -8.217343E+04 -7.674061E+04  2.886170E+04  2.381706E+04 -3.549846E+04
       248   9 -1.887778E+05 -5.456743E+04 -6.614295E+04  5.206496E+04  2.286322E+04 -2.997577E+04
       248  10  7.770836E+05  2.925492E+05  8.419128E+04  3.250608E+05  5.319467E-10  2.040878E-09
       248  11  7.173385E+05  2.650053E+05  7.462718E+04  3.017803E+05  6.987877E-10  3.744933E-09
       248  12  6.485450E+05  2.465124E+05  6.502049E+04  2.887833E+05 -6.864362E-09  6.930603E-11
       248  13  2.297429E+05  9.580094E+04 -1.963969E+03  1.704379E+05  1.990907E-10 -1.088419E-09
       248  14  2.343403E+05  9.140275E+04 -1.056440E+03  1.652714E+05  4.364572E-09  3.810210E-11
       248  15  2.297912E+05  9.596351E+04 -5.603955E+02  1.703875E+05 -1.033517E-09  1.186078E-09
       248  16 -3.172690E+05 -1.009130E+05 -8.812274E+04  1.594473E+04 -2.862709E-10 -1.162526E-09
       248  17 -2.484068E+05 -8.217494E+04 -7.674405E+04  2.886238E+04  2.189728E-09 -6.507244E-09
       248  18 -1.887786E+05 -5.456853E+04 -6.614562E+04  5.206552E+04  4.994885E-09 -3.823038E-09
       248  19  7.770842E+05  2.925517E+05  8.419568E+04  3.250606E+05 -5.480535E+03  4.803568E+04
       248  20  7.173390E+05  2.650073E+05  7.463070E+04  3.017802E+05 -3.687262E+03  4.310014E+04
       248  21  6.485454E+05  2.465140E+05  6.502320E+04  2.887832E+05 -1.804496E+03  3.793267E+04
       248  22  2.297437E+05  9.580312E+04 -1.959834E+03  1.704373E+05 -1.508552E+04  4.441058E+04
       248  23  2.343409E+05  9.140446E+04 -1.053182E+03  1.652710E+05 -1.375630E+04  3.929773E+04
       248  24  2.297917E+05  9.596479E+04 -5.579428E+02  1.703872E+05 -1.233755E+04  3.395282E+04
       248  25 -3.172679E+05 -1.009111E+05 -8.811847E+04  1.594392E+04 -2.468145E+04  4.078890E+04
       248  26 -2.484058E+05 -8.217343E+04 -7.674061E+04  2.886170E+04 -2.381706E+04  3.549846E+04
       248  27 -1.887778E+05 -5.456743E+04 -6.614295E+04  5.206496E+04 -2.286322E+04  2.997577E+04
       249   1  6.079763E+05  2.318791E+05  5.851974E+04  2.773325E+05  7.387658E+02 -3.482861E+04
       249   2  5.483218E+05  2.043125E+05  4.882349E+04  2.540416E+05 -1.207176E+03 -2.954697E+04
       249   3  4.796065E+05  1.858181E+05  3.909802E+04  2.410298E+05 -3.162616E+03 -2.424334E+04
       249   4  2.298105E+05  9.597316E+04 -4.031813E+02  1.703938E+05  1.125653E+04 -3.085355E+04
       249   5  2.343562E+05  9.145295E+04 -1.767779E+02  1.652538E+05  9.354251E+03 -2.555407E+04
       249   6  2.298275E+05  9.599576E+04 -1.503845E+01  1.703913E+05  7.442481E+03 -2.023262E+04
       249   7 -1.482008E+05 -3.991725E+04 -5.932793E+04  6.351643E+04  2.176752E+04 -2.688105E+04
       249   8 -7.950099E+04 -2.139515E+04 -4.917766E+04  7.650891E+04  1.990996E+04 -2.156333E+04
       249   9 -1.988103E+04  6.181301E+03 -3.912783E+04  9.978044E+04  1.804294E+04 -1.622366E+04
       249  10  6.079759E+05  2.318778E+05  5.851746E+04  2.773325E+05  5.310863E-08  3.058206E-08
       249  11  5.483215E+05  2.043115E+05  4.882185E+04  2.540415E+05  7.374249E-09  9.927961E-09
       249  12  4.796063E+05  1.858175E+05  3.909690E+04  2.410297E+05 -4.772309E-08 -1.819469E-08
       249  13  2.298101E+05  9.597210E+04 -4.052086E+02  1.703940E+05  5.667954E-09 -8.680615E-10
       249  14  2.343559E+05  9.145223E+04 -1.781697E+02  1.652540E+05  1.885607E-08  8.773784E-09
       249  15  2.298273E+05  9.599531E+04 -1.591194E+01  1.703914E+05  1.595738E-08  1.285621E-09
       249  16 -1.482015E+05 -3.991816E+04 -5.933018E+04  6.351690E+04 -4.457532E-08 -1.916304E-08
       249  17 -7.950154E+04 -2.139576E+04 -4.917928E+04  7.650925E+04  1.501725E-08  1.065054E-08
       249  18 -1.988145E+04  6.180931E+03 -3.912894E+04  9.978068E+04  6.521082E-08  2.683460E-08
       249  19  6.079763E+05  2.318791E+05  5.851974E+04  2.773325E+05 -7.387658E+02  3.482861E+04
       249  20  5.483218E+05  2.043125E+05  4.882349E+04  2.540416E+05  1.207176E+03  2.954697E+04
       249  21  4.796065E+05  1.858181E+05  3.909802E+04  2.410298E+05  3.162616E+03  2.424334E+04
       249  22  2.298105E+05  9.597316E+04 -4.031813E+02  1.703938E+05 -1.125653E+04  3.085355E+04
       249  23  2.343562E+05  9.145295E+04 -1.767779E+02  1.652538E+05 -9.354251E+03  2.555407E+04
       249  24  2.298275E+05  9.599576E+04 -1.503845E+01  1.703913E+05 -7.442481E+03  2.023262E+04
       249  25 -1.482008E+05 -3.991725E+04 -5.932793E+04  6.351643E+04 -2.176752E+04  2.688105E+04
       249  26 -7.950099E+04 -2.139515E+04 -4.917766E+04  7.650891E+04 -1.990996E+04  2.156333E+04
       249  27 -1.988103E+04  6.181301E+03 -3.912783E+04  9.978044E+04 -1.804294E+04  1.622366E+04
       250   1  4.390602E+05  1.711993E+05  3.254385E+04  2.295898E+05 -4.330428E+03 -2.115907E+04
       250   2  3.794308E+05  1.436394E+05  2.284229E+04  2.063143E+05 -6.425143E+03 -1.590154E+04
       250   3  3.107520E+05  1.251519E+05  1.321101E+04  1.933188E+05 -8.516515E+03 -1.065430E+04
       250   4  2.298385E+05  9.599936E+04  5.752851E+01  1.703937E+05  6.272046E+03 -1.714877E+04
       250   5  2.343658E+05  9.146227E+04  2.286346E+02  1.652551E+05  4.156442E+03 -1.189850E+04
       250   6  2.298446E+05  9.600187E+04  4.865242E+02  1.703952E+05  2.044180E+03 -6.658538E+03
       250   7  2.066171E+04  2.080331E+04 -3.242971E+04  1.112156E+05  1.687087E+04 -1.313986E+04
       250   8  8.932277E+04  3.928716E+04 -2.238514E+04  1.242047E+05  1.473548E+04 -7.896431E+03
       250   9  1.489445E+05  6.685258E+04 -1.223761E+04  1.474746E+05  1.260342E+04 -2.663332E+03
       250  10  4.390601E+05  1.711988E+05  3.254297E+04  2.295897E+05 -4.852154E-08 -2.416055E-08
       250  11  3.794307E+05  1.436391E+05  2.284174E+04  2.063142E+05  2.520911E-09 -9.809384E-09
       250  12  3.107519E+05  1.251518E+05  1.321066E+04  1.933187E+05  5.912416E-08  1.267434E-08
       250  13  2.298384E+05  9.599904E+04  5.690186E+01  1.703937E+05  1.069073E-08  1.937634E-09
       250  14  2.343657E+05  9.146211E+04  2.283361E+02  1.652551E+05  4.183598E-09 -1.344174E-08
       250  15  2.298446E+05  9.600182E+04  4.864330E+02  1.703952E+05  7.234189E-10 -7.496232E-10
       250  16  2.066136E+04  2.080305E+04 -3.243057E+04  1.112158E+05  5.741348E-08  2.637103E-08
       250  17  8.932252E+04  3.928703E+04 -2.238567E+04  1.242048E+05 -7.792193E-10  2.551599E-09
       250  18  1.489443E+05  6.685253E+04 -1.223792E+04  1.474746E+05 -5.685920E-08 -2.328750E-08
       250  19  4.390602E+05  1.711993E+05  3.254385E+04  2.295898E+05  4.330428E+03  2.115907E+04
       250  20  3.794308E+05  1.436394E+05  2.284229E+04  2.063143E+05  6.425143E+03  1.590154E+04
       250  21  3.107520E+05  1.251519E+05  1.321101E+04  1.933188E+05  8.516515E+03  1.065430E+04
       250  22  2.298385E+05  9.599936E+04  5.752851E+01  1.703937E+05 -6.272046E+03  1.714877E+04
       250  23  2.343658E+05  9.146227E+04  2.286346E+02  1.652551E+05 -4.156442E+03  1.189850E+04
       250  24  2.298446E+05  9.600187E+04  4.865242E+02  1.703952E+05 -2.044180E+03  6.658538E+03
       250  25  2.066171E+04  2.080331E+04 -3.242971E+04  1.112156E+05 -1.687087E+04  1.313986E+04
       250  26  8.932277E+04  3.928716E+04 -2.238514E+04  1.242047E+05 -1.473548E+04  7.896431E+03
       250  27  1.489445E+05  6.685258E+04 -1.223761E+04  1.474746E+05 -1.260342E+04  2.663332E+03
       251   1  2.702222E+05  1.105416E+05  6.755334E+03  1.819051E+05 -9.780495E+03 -7.615261E+03
       251   2  2.105867E+05  8.296480E+04 -2.641192E+03  1.586149E+05 -1.214504E+04 -2.538847E+03
       251   3  1.419749E+05  6.453121E+04 -1.172784E+04  1.455914E+05 -1.446585E+04  2.422510E+03
       251   4  2.298668E+05  9.599885E+04  6.668349E+02  1.704031E+05  7.855005E+02 -3.617357E+03
       251   5  2.343428E+05  9.146645E+04  1.240579E+03  1.652471E+05 -1.809916E+03  1.371590E+03
       251   6  2.298831E+05  9.612221E+04  2.306630E+03  1.703558E+05 -4.361662E+03  6.245490E+03
       251   7  1.895140E+05  8.145658E+04 -5.421074E+03  1.589020E+05  1.135065E+04  3.802245E+02
       251   8  2.580997E+05  9.996824E+04  5.122797E+03  1.718796E+05  8.525625E+03  5.282182E+03
       251   9  3.178010E+05  1.277145E+05  1.634168E+04  1.951239E+05  5.744159E+03  1.006908E+04
       251  10  2.702220E+05  1.105415E+05  6.755045E+03  1.819050E+05 -5.431706E-09 -7.542402E-09
       251  11  2.105865E+05  8.296475E+04 -2.641482E+03  1.586149E+05 -2.025280E-09  1.879292E-09
       251  12  1.419746E+05  6.453115E+04 -1.172825E+04  1.455914E+05  2.720747E-09  1.018009E-09
       251  13  2.298668E+05  9.599884E+04  6.668091E+02  1.704031E+05 -7.874733E-10 -1.847337E-09
       251  14  2.343428E+05  9.146644E+04  1.240569E+03  1.652471E+05 -3.858522E-09  3.785428E-09
       251  15  2.298831E+05  9.612216E+04  2.306521E+03  1.703558E+05  5.828477E-10  1.045117E-09
       251  16  1.895138E+05  8.145654E+04 -5.421316E+03  1.589020E+05  4.986872E-09  7.043054E-09
       251  17  2.580996E+05  9.996819E+04  5.122608E+03  1.718796E+05  1.544024E-09  9.273177E-09
       251  18  3.178009E+05  1.277144E+05  1.634143E+04  1.951238E+05 -5.624617E-09 -4.359883E-11
       251  19  2.702222E+05  1.105416E+05  6.755334E+03  1.819051E+05  9.780495E+03  7.615261E+03
       251  20  2.105867E+05  8.296480E+04 -2.641192E+03  1.586149E+05  1.214504E+04  2.538847E+03
       251  21  1.419749E+05  6.453121E+04 -1.172784E+04  1.455914E+05  1.446585E+04 -2.422510E+03
       251  22  2.298668E+05  9.599885E+04  6.668349E+02  1.704031E+05 -7.855005E+02  3.617357E+03
       251  23  2.343428E+05  9.146645E+04  1.240579E+03  1.652471E+05  1.809916E+03 -1.371590E+03
       251  24  2.298831E+05  9.612221E+04  2.306630E+03  1.703558E+05  4.361662E+03 -6.245490E+03
       251  25  1.895140E+05  8.145658E+04 -5.421074E+03  1.589020E+05 -1.135065E+04 -3.802245E+02
       251  26  2.580997E+05  9.996824E+04  5.122797E+03  1.718796E+05 -8.525625E+03 -5.282182E+03
       251  27  3.178010E+05  1.277145E+05  1.634168E+04  1.951239E+05 -5.744159E+03 -1.006908E+04
       252   1  1.013953E+05  5.002611E+04 -1.773026E+04  1.343567E+05 -1.607314E+04  5.231992E+03
       252   2  4.227588E+04  2.222195E+04 -2.606931E+04  1.101019E+05 -1.847197E+04  9.506722E+03
       252   3 -2.523379E+04  4.796471E+03 -3.352311E+04  9.571667E+04 -2.045613E+04  1.268688E+04
       252   4  2.300486E+05  9.613726E+04  3.087999E+03  1.703975E+05 -5.910498E+03  9.076847E+03
       252   5  2.342300E+05  9.216590E+04  5.703295E+03  1.649192E+05 -1.050025E+04  1.252194E+04
       252   6  2.304507E+05  9.900619E+04  1.093993E+04  1.693084E+05 -1.467547E+04  1.487264E+04
       252   7  3.587197E+05  1.422502E+05  2.390634E+04  2.064453E+05  4.254377E+03  1.292253E+04
       252   8  4.262225E+05  1.621134E+05  3.747498E+04  2.197522E+05 -2.525973E+03  1.553816E+04
       252   9  4.862015E+05  1.932219E+05  5.540031E+04  2.429279E+05 -8.892352E+03  1.705937E+04
       252  10  1.013951E+05  5.002601E+04 -1.773080E+04  1.343568E+05 -6.873925E-09  1.438537E-10
       252  11  4.227549E+04  2.222176E+04 -2.607013E+04  1.101020E+05 -1.550316E-09  9.782203E-09
       252  12 -2.523428E+04  4.796186E+03 -3.352420E+04  9.571688E+04  3.909128E-09  9.986800E-09
       252  13  2.300485E+05  9.613716E+04  3.087778E+03  1.703976E+05 -2.368981E-09  6.116794E-09
       252  14  2.342299E+05  9.216570E+04  5.702793E+03  1.649193E+05  1.306059E-09  9.508256E-09
       252  15  2.304504E+05  9.900589E+04  1.093911E+04  1.693086E+05  8.231865E-10  9.529434E-09
       252  16  3.587197E+05  1.422500E+05  2.390599E+04  2.064453E+05  7.528169E-09  6.158871E-09
       252  17  4.262225E+05  1.621132E+05  3.747451E+04  2.197523E+05 -1.390129E-09  1.278455E-09
       252  18  4.862013E+05  1.932216E+05  5.539962E+04  2.429280E+05 -5.679347E-09 -3.447575E-09
       252  19  1.013953E+05  5.002611E+04 -1.773026E+04  1.343567E+05  1.607314E+04 -5.231992E+03
       252  20  4.227588E+04  2.222195E+04 -2.606931E+04  1.101019E+05  1.847197E+04 -9.506722E+03
       252  21 -2.523379E+04  4.796471E+03 -3.352311E+04  9.571667E+04  2.045613E+04 -1.268688E+04
       252  22  2.300486E+05  9.613726E+04  3.087999E+03  1.703975E+05  5.910498E+03 -9.076847E+03
       252  23  2.342300E+05  9.216590E+04  5.703295E+03  1.649192E+05  1.050025E+04 -1.252194E+04
       252  24  2.304507E+05  9.900619E+04  1.093993E+04  1.693084E+05  1.467547E+04 -1.487264E+04
       252  25  3.587197E+05  1.422502E+05  2.390634E+04  2.064453E+05 -4.254377E+03 -1.292253E+04
       252  26  4.262225E+05  1.621134E+05  3.747498E+04  2.197522E+05  2.525973E+03 -1.553816E+04
       252  27  4.862015E+05  1.932219E+05  5.540031E+04  2.429279E+05  8.892352E+03 -1.705937E+04
       253   1 -6.636544E+04 -8.043359E+03 -3.796030E+04  8.637595E+04 -2.347700E+04  1.401002E+04
       253   2 -1.150885E+05 -3.889436E+04 -4.474243E+04  4.542559E+04 -1.648988E+04  1.433353E+04
       253   3 -1.650503E+05 -4.025088E+04 -5.031336E+04  7.986108E+03 -5.573383E+03  4.258341E+03
       253   4  2.322126E+05  9.959466E+04  1.468833E+04  1.695854E+05 -1.714372E+04  1.640444E+04
       253   5  2.339676E+05  1.051834E+05  2.818864E+04  1.593580E+05 -3.095391E+04  8.862180E+03
       253   6  2.385979E+05  1.443790E+05  5.938509E+04  1.526416E+05 -4.083626E+04 -9.075271E+03
       253   7  5.308900E+05  2.072432E+05  6.733572E+04  2.528335E+05 -1.080707E+04  1.880011E+04
       253   8  5.831501E+05  2.492811E+05  1.011140E+05  2.733528E+05 -4.542662E+04  3.386614E+03
       253   9  6.424021E+05  3.290404E+05  1.690718E+05  2.973876E+05 -7.612338E+04 -2.242272E+04
       253  10 -6.636609E+04 -8.043718E+03 -3.796171E+04  8.637621E+04 -9.794392E-10  5.964614E-09
       253  11 -1.150889E+05 -3.889466E+04 -4.474333E+04  4.542578E+04 -1.733482E-09  5.538416E-09
       253  12 -1.650504E+05 -4.025090E+04 -5.031345E+04  7.986128E+03  3.311509E-09 -1.266134E-10
       253  13  2.322122E+05  9.959430E+04  1.468727E+04  1.695856E+05  4.203253E-09 -4.221792E-09
       253  14  2.339666E+05  1.051831E+05  2.818669E+04  1.593582E+05  2.012769E-10  5.000081E-09
       253  15  2.385961E+05  1.443785E+05  5.938181E+04  1.526413E+05  5.141232E-10  3.827539E-09
       253  16  5.308898E+05  2.072427E+05  6.733484E+04  2.528337E+05 -7.884113E-10  8.086993E-09
       253  17  5.831479E+05  2.492805E+05  1.011101E+05  2.733530E+05 -5.289315E-10  5.622604E-09
       253  18  6.423957E+05  3.290383E+05  1.690600E+05  2.973863E+05 -5.197449E-09 -3.038279E-09
       253  19 -6.636544E+04 -8.043359E+03 -3.796030E+04  8.637595E+04  2.347700E+04 -1.401002E+04
       253  20 -1.150885E+05 -3.889436E+04 -4.474243E+04  4.542559E+04  1.648988E+04 -1.433353E+04
       253  21 -1.650503E+05 -4.025088E+04 -5.031336E+04  7.986108E+03  5.573383E+03 -4.258341E+03
       253  22  2.322126E+05  9.959466E+04  1.468833E+04  1.695854E+05  1.714372E+04 -1.640444E+04
       253  23  2.339676E+05  1.051834E+05  2.818864E+04  1.593580E+05  3.095391E+04 -8.862180E+03
       253  24  2.385979E+05  1.443790E+05  5.938509E+04  1.526416E+05  4.083626E+04  9.075271E+03
       253  25  5.308900E+05  2.072432E+05  6.733572E+04  2.528335E+05  1.080707E+04 -1.880011E+04
       253  26  5.831501E+05  2.492811E+05  1.011140E+05  2.733528E+05  4.542662E+04 -3.386614E+03
       253  27  6.424021E+05  3.290404E+05  1.690718E+05  2.973876E+05  7.612338E+04  2.242272E+04
       254   1  2.919934E+05  4.797204E+04  4.094337E+04  5.068602E+03 -1.882096E+04 -1.822527E+03
       254   2  2.826942E+05  7.210840E+04  5.384760E+04 -1.510973E+03 -1.295954E+04 -5.167960E+03
       254   3  2.649407E+05  6.497067E+04  5.515234E+04  1.107751E+04 -7.112704E+03 -4.345990E+03
       254   4  8.372754E+03 -2.282947E+04 -2.964106E+04  8.452011E+03 -2.025360E+04 -1.827465E+03
       254   5  1.269652E+04  4.803484E+03 -1.275877E+04 -1.172412E+03 -1.329436E+04 -5.169338E+03
       254   6  8.371258E+03  9.643879E+02 -8.242138E+03  8.371801E+03 -6.349558E+03 -4.343072E+03
       254   7 -2.751749E+05 -9.363697E+04 -1.002315E+05  1.183381E+04 -2.168560E+04 -1.832420E+03
       254   8 -2.572349E+05 -6.250686E+04 -7.937054E+04 -8.340587E+02 -1.362903E+04 -5.170717E+03
       254   9 -2.481383E+05 -6.304679E+04 -7.164150E+04  5.667148E+03 -5.586726E+03 -4.340160E+03
       254  10  2.919930E+05  4.797194E+04  4.094270E+04  5.068574E+03 -1.881051E-09  3.866411E-09
       254  11  2.826941E+05  7.210832E+04  5.384724E+04 -1.511027E+03 -7.778416E-10  1.100297E-08
       254  12  2.649406E+05  6.497064E+04  5.515221E+04  1.107749E+04  1.158994E-09  6.652885E-09
       254  13  8.372313E+03 -2.282958E+04 -2.964183E+04  8.451981E+03 -9.506839E-12 -4.865854E-09
       254  14  1.269632E+04  4.803408E+03 -1.275915E+04 -1.172468E+03 -5.204707E-10 -9.717038E-09
       254  15  8.371209E+03  9.643569E+02 -8.242250E+03  8.371779E+03 -1.387112E-09 -2.414042E-09
       254  16 -2.751754E+05 -9.363710E+04 -1.002324E+05  1.183378E+04  4.177059E-09  1.906520E-09
       254  17 -2.572351E+05 -6.250694E+04 -7.937094E+04 -8.341154E+02 -3.545216E-11  1.302393E-08
       254  18 -2.481384E+05 -6.304682E+04 -7.164159E+04  5.667129E+03 -2.040212E-09  4.979495E-10
       254  19  2.919934E+05  4.797204E+04  4.094337E+04  5.068602E+03  1.882096E+04  1.822527E+03
       254  20  2.826942E+05  7.210840E+04  5.384760E+04 -1.510973E+03  1.295954E+04  5.167960E+03
       254  21  2.649407E+05  6.497067E+04  5.515234E+04  1.107751E+04  7.112704E+03  4.345990E+03
       254  22  8.372754E+03 -2.282947E+04 -2.964106E+04  8.452011E+03  2.025360E+04  1.827465E+03
       254  23  1.269652E+04  4.803484E+03 -1.275877E+04 -1.172412E+03  1.329436E+04  5.169338E+03
       254  24  8.371258E+03  9.643879E+02 -8.242138E+03  8.371801E+03  6.349558E+03  4.343072E+03
       254  25 -2.751749E+05 -9.363697E+04 -1.002315E+05  1.183381E+04  2.168560E+04  1.832420E+03
       254  26 -2.572349E+05 -6.250686E+04 -7.937054E+04 -8.340587E+02  1.362903E+04  5.170717E+03
       254  27 -2.481383E+05 -6.304679E+04 -7.164150E+04  5.667148E+03  5.586726E+03  4.340160E+03
       255   1  2.213340E+05  4.956492E+04  4.543609E+04  8.505381E+03 -4.937480E+03 -3.429288E+03
       255   2  2.085369E+05  5.000318E+04  4.556565E+04 -6.591819E+02 -3.357628E+03 -3.444349E+03
       255   3  1.944299E+05  4.620923E+04  4.360018E+04  9.296651E+03 -1.780366E+03 -2.921499E+03
       255   4  1.000340E+04 -3.141070E+03 -6.803017E+03  8.397896E+03 -5.013042E+03 -3.429676E+03
       255   5  1.067049E+04  6.589389E+02 -3.305434E+03 -1.169410E+03 -3.291659E+03 -3.444134E+03
       255   6  1.000232E+04  2.013437E+02 -2.001721E+03  8.384076E+03 -1.572834E+03 -2.920609E+03
       255   7 -2.012867E+05 -5.585039E+04 -5.904544E+04  8.290406E+03 -5.088578E+03 -3.430063E+03
       255   8 -1.871603E+05 -4.868822E+04 -5.217942E+04 -1.679514E+03 -3.225711E+03 -3.443920E+03
       255   9 -1.743943E+05 -4.580909E+04 -4.760615E+04  7.471738E+03 -1.365364E+03 -2.919718E+03
       255  10  2.213340E+05  4.956490E+04  4.543602E+04  8.505368E+03 -1.226081E-09 -3.064420E-09
       255  11  2.085369E+05  5.000316E+04  4.556560E+04 -6.591912E+02 -1.164248E-09  7.204001E-09
       255  12  1.944299E+05  4.620922E+04  4.360016E+04  9.296647E+03  3.168993E-10  1.282860E-08
       255  13  1.000337E+04 -3.141089E+03 -6.803086E+03  8.397883E+03  2.113299E-09  9.611465E-09
       255  14  1.067048E+04  6.589232E+02 -3.305476E+03 -1.169419E+03 -1.633229E-09 -3.362574E-08
       255  15  1.000232E+04  2.013339E+02 -2.001742E+03  8.384073E+03  6.631945E-10  1.064585E-08
       255  16 -2.012867E+05 -5.585041E+04 -5.904551E+04  8.290392E+03  2.337453E-09 -1.347844E-08
       255  17 -1.871603E+05 -4.868824E+04 -5.217946E+04 -1.679523E+03 -1.006214E-09 -5.792188E-09
       255  18 -1.743944E+05 -4.580910E+04 -4.760617E+04  7.471734E+03 -4.252830E-09 -1.989083E-09
       255  19  2.213340E+05  4.956492E+04  4.543609E+04  8.505381E+03  4.937480E+03  3.429288E+03
       255  20  2.085369E+05  5.000318E+04  4.556565E+04 -6.591819E+02  3.357628E+03  3.444349E+03
       255  21  1.944299E+05  4.620923E+04  4.360018E+04  9.296651E+03  1.780366E+03  2.921499E+03
       255  22  1.000340E+04 -3.141070E+03 -6.803017E+03  8.397896E+03  5.013042E+03  3.429676E+03
       255  23  1.067049E+04  6.589389E+02 -3.305434E+03 -1.169410E+03  3.291659E+03  3.444134E+03
       255  24  1.000232E+04  2.013437E+02 -2.001721E+03  8.384076E+03  1.572834E+03  2.920609E+03
       255  25 -2.012867E+05 -5.585039E+04 -5.904544E+04  8.290406E+03  5.088578E+03  3.430063E+03
       255  26 -1.871603E+05 -4.868822E+04 -5.217942E+04 -1.679514E+03  3.225711E+03  3.443920E+03
       255  27 -1.743943E+05 -4.580909E+04 -4.760615E+04  7.471738E+03  1.365364E+03  2.919718E+03
       256   1  1.494694E+05  3.434407E+04  3.277968E+04  8.803624E+03 -1.352623E+03 -2.562166E+03
       256   2  1.362071E+05  3.145927E+04  3.028205E+04 -7.256046E+02 -9.657122E+02 -2.150547E+03
       256   3  1.226227E+05  2.814604E+04  2.739148E+04  8.842918E+03 -5.793285E+02 -1.669866E+03
       256   4  1.023156E+04 -3.762535E+02 -1.587602E+03  8.385185E+03 -1.253345E+03 -2.561740E+03
       256   5  1.039384E+04  7.991724E+01 -8.002125E+02 -1.164939E+03 -8.482813E+02 -2.150011E+03
       256   6  1.023087E+04  1.044987E+02 -4.183776E+02  8.382929E+03 -4.437355E+02 -1.669214E+03
       256   7 -1.289887E+05 -3.509802E+04 -3.595632E+04  7.966821E+03 -1.154090E+03 -2.561314E+03
       256   8 -1.154050E+05 -3.130062E+04 -3.188365E+04 -1.604201E+03 -7.308742E+02 -2.149476E+03
       256   9 -1.021495E+05 -2.793799E+04 -2.822917E+04  7.923010E+03 -3.081671E+02 -1.668562E+03
       256  10  1.494694E+05  3.434406E+04  3.277966E+04  8.803621E+03  3.520472E-09 -5.017710E-09
       256  11  1.362071E+05  3.145926E+04  3.028204E+04 -7.256063E+02 -5.877784E-11 -6.084756E-09
       256  12  1.226227E+05  2.814604E+04  2.739147E+04  8.842917E+03  2.646149E-09 -4.737080E-09
       256  13  1.023156E+04 -3.762610E+02 -1.587618E+03  8.385183E+03 -2.169377E-09 -3.090361E-09
       256  14  1.039384E+04  7.991209E+01 -8.002225E+02 -1.164940E+03  1.508029E-09 -5.219436E-09
       256  15  1.023087E+04  1.044956E+02 -4.183832E+02  8.382929E+03  9.627510E-10 -6.501681E-09
       256  16 -1.289887E+05 -3.509803E+04 -3.595634E+04  7.966818E+03 -1.120731E-09 -7.715764E-09
       256  17 -1.154050E+05 -3.130062E+04 -3.188366E+04 -1.604203E+03  9.484137E-10  7.641346E-09
       256  18 -1.021495E+05 -2.793799E+04 -2.822918E+04  7.923009E+03 -4.418516E-09  1.472361E-08
       256  19  1.494694E+05  3.434407E+04  3.277968E+04  8.803624E+03  1.352623E+03  2.562166E+03
       256  20  1.362071E+05  3.145927E+04  3.028205E+04 -7.256046E+02  9.657122E+02  2.150547E+03
       256  21  1.226227E+05  2.814604E+04  2.739148E+04  8.842918E+03  5.793285E+02  1.669866E+03
       256  22  1.023156E+04 -3.762535E+02 -1.587602E+03  8.385185E+03  1.253345E+03  2.561740E+03
       256  23  1.039384E+04  7.991724E+01 -8.002125E+02 -1.164939E+03  8.482813E+02  2.150011E+03
       256  24  1.023087E+04  1.044987E+02 -4.183776E+02  8.382929E+03  4.437355E+02  1.669214E+03
       256  25 -1.289887E+05 -3.509802E+04 -3.595632E+04  7.966821E+03  1.154090E+03  2.561314E+03
       256  26 -1.154050E+05 -3.130062E+04 -3.188365E+04 -1.604201E+03  7.308742E+02  2.149476E+03
       256  27 -1.021495E+05 -2.793799E+04 -2.822917E+04  7.923010E+03  3.081671E+02  1.668562E+03
       257   1  7.750509E+04  1.678042E+04  1.628578E+04  8.628158E+03 -5.039271E+02 -1.383256E+03
       257   2  6.418964E+04  1.342200E+04  1.326560E+04 -9.564512E+02 -4.905435E+02 -9.178607E+02
       257   3  5.067809E+04  1.020464E+04  1.022457E+04  8.540942E+03 -4.772854E+02 -4.446974E+02
       257   4  1.026212E+04  1.649341E+01 -2.870861E+02  8.380446E+03 -3.820723E+02 -1.382656E+03
       257   5  1.036028E+04 -4.579201E+00 -3.407290E+01 -1.160856E+03 -3.666430E+02 -9.172386E+02
       257   6  1.026182E+04  1.150659E+02  1.966664E+02  8.379947E+03 -3.513389E+02 -4.440530E+02
       257   7 -5.697674E+04 -1.674777E+04 -1.686028E+04  8.132756E+03 -2.602307E+02 -1.382055E+03
       257   8 -4.346644E+04 -1.343137E+04 -1.333397E+04 -1.365246E+03 -2.427532E+02 -9.166166E+02
       257   9 -3.015297E+04 -9.974627E+03 -9.831363E+03  8.218961E+03 -2.254005E+02 -4.434087E+02
       257  10  7.750509E+04  1.678042E+04  1.628577E+04  8.628157E+03  6.693590E-09 -9.091470E-09
       257  11  6.418964E+04  1.342199E+04  1.326560E+04 -9.564516E+02 -3.643783E-09  3.041737E-09
       257  12  5.067809E+04  1.020464E+04  1.022457E+04  8.540941E+03 -6.823247E-09  1.823381E-09
       257  13  1.026212E+04  1.649132E+01 -2.870900E+02  8.380446E+03 -1.093587E-09 -9.571235E-10
       257  14  1.036028E+04 -4.580141E+00 -3.407473E+01 -1.160856E+03  4.173098E-10 -1.092892E-08
       257  15  1.026182E+04  1.150656E+02  1.966658E+02  8.379947E+03  3.037240E-10 -1.079559E-08
       257  16 -5.697674E+04 -1.674777E+04 -1.686029E+04  8.132756E+03 -3.614505E-09  8.124529E-09
       257  17 -4.346644E+04 -1.343137E+04 -1.333397E+04 -1.365246E+03  4.399469E-10  1.488221E-08
       257  18 -3.015297E+04 -9.974627E+03 -9.831364E+03  8.218961E+03  6.740030E-09  5.000113E-09
       257  19  7.750509E+04  1.678042E+04  1.628578E+04  8.628158E+03  5.039271E+02  1.383256E+03
       257  20  6.418964E+04  1.342200E+04  1.326560E+04 -9.564512E+02  4.905435E+02  9.178607E+02
       257  21  5.067809E+04  1.020464E+04  1.022457E+04  8.540942E+03  4.772854E+02  4.446974E+02
       257  22  1.026212E+04  1.649341E+01 -2.870861E+02  8.380446E+03  3.820723E+02  1.382656E+03
       257  23  1.036028E+04 -4.579201E+00 -3.407290E+01 -1.160856E+03  3.666430E+02  9.172386E+02
       257  24  1.026182E+04  1.150659E+02  1.966664E+02  8.379947E+03  3.513389E+02  4.440530E+02
       257  25 -5.697674E+04 -1.674777E+04 -1.686028E+04  8.132756E+03  2.602307E+02  1.382055E+03
       257  26 -4.346644E+04 -1.343137E+04 -1.333397E+04 -1.365246E+03  2.427532E+02  9.166166E+02
       257  27 -3.015297E+04 -9.974627E+03 -9.831363E+03  8.218961E+03  2.254005E+02  4.434087E+02
       258   1  5.576578E+03 -1.113763E+03 -8.853060E+02  8.380905E+03 -5.253690E+02 -1.669320E+02
       258   2 -7.791646E+03 -4.573775E+03 -3.819339E+03 -1.231028E+03 -8.564687E+02  3.043106E+02
       258   3 -2.124365E+04 -7.571814E+03 -6.472383E+03  8.235781E+03 -1.187493E+03  7.688262E+02
       258   4  1.028741E+04  6.944943E+01  3.205922E+02  8.379791E+03 -3.996323E+02 -1.662853E+02
       258   5  1.032938E+04 -5.366878E+01  6.579520E+02 -1.160113E+03 -7.325200E+02  3.049439E+02
       258   6  1.028751E+04  2.854512E+02  1.277492E+03  8.378689E+03 -1.065340E+03  7.694468E+02
       258   7  1.499826E+04  1.252660E+03  1.526489E+03  8.378678E+03 -2.738947E+02 -1.656386E+02
       258   8  2.845071E+04  4.466413E+03  5.135218E+03 -1.089196E+03 -6.085676E+02  3.055772E+02
       258   9  4.181958E+04  8.142643E+03  9.027293E+03  8.521602E+03 -9.431796E+02  7.700674E+02
       258  10  5.576578E+03 -1.113763E+03 -8.853066E+02  8.380905E+03 -8.768666E-11  3.222704E-09
       258  11 -7.791646E+03 -4.573775E+03 -3.819340E+03 -1.231028E+03  4.059649E-10 -6.432953E-09
       258  12 -2.124365E+04 -7.571815E+03 -6.472387E+03  8.235782E+03 -4.190752E-09 -4.201011E-09
       258  13  1.028741E+04  6.944935E+01  3.205918E+02  8.379791E+03 -3.169466E-11  6.686667E-09
       258  14  1.032938E+04 -5.366903E+01  6.579508E+02 -1.160113E+03 -3.897108E-09 -7.331984E-09
       258  15  1.028751E+04  2.854503E+02  1.277488E+03  8.378689E+03  6.006422E-10 -5.794572E-09
       258  16  1.499826E+04  1.252660E+03  1.526489E+03  8.378678E+03  2.130255E-09 -3.138475E-09
       258  17  2.845071E+04  4.466413E+03  5.135217E+03 -1.089195E+03 -2.978825E-09 -1.883174E-08
       258  18  4.181958E+04  8.142642E+03  9.027290E+03  8.521603E+03  1.737398E-10 -1.333390E-08
       258  19  5.576578E+03 -1.113763E+03 -8.853060E+02  8.380905E+03  5.253690E+02  1.669321E+02
       258  20 -7.791646E+03 -4.573775E+03 -3.819339E+03 -1.231028E+03  8.564687E+02 -3.043106E+02
       258  21 -2.124365E+04 -7.571814E+03 -6.472383E+03  8.235781E+03  1.187493E+03 -7.688262E+02
       258  22  1.028741E+04  6.944942E+01  3.205922E+02  8.379791E+03  3.996323E+02  1.662853E+02
       258  23  1.032938E+04 -5.366878E+01  6.579520E+02 -1.160113E+03  7.325200E+02 -3.049439E+02
       258  24  1.028751E+04  2.854512E+02  1.277492E+03  8.378689E+03  1.065340E+03 -7.694468E+02
       258  25  1.499826E+04  1.252660E+03  1.526489E+03  8.378678E+03  2.738947E+02  1.656386E+02
       258  26  2.845071E+04  4.466413E+03  5.135218E+03 -1.089196E+03  6.085676E+02 -3.055772E+02
       258  27  4.181958E+04  8.142643E+03  9.027293E+03  8.521602E+03  9.431796E+02 -7.700674E+02
       259   1 -6.623643E+04 -1.909982E+04 -1.732479E+04  8.225870E+03 -1.466033E+03  1.052452E+03
       259   2 -7.992279E+04 -2.280050E+04 -1.944753E+04 -1.538957E+03 -2.882193E+03  1.523759E+03
       259   3 -9.306598E+04 -2.425243E+04 -2.012819E+04  7.775007E+03 -4.297906E+03  1.934345E+03
       259   4  1.042584E+04  3.011394E+01  1.659286E+03  8.381892E+03 -1.331844E+03  1.053124E+03
       259   5  1.015315E+04 -3.308014E+02  2.808570E+03 -1.161142E+03 -2.764218E+03  1.524329E+03
       259   6  1.042636E+04  1.559730E+03  5.411095E+03  8.374443E+03 -4.196176E+03  1.934817E+03
       259   7  8.709344E+04  1.915960E+04  2.064293E+04  8.537926E+03 -1.197638E+03  1.053795E+03
       259   8  1.002365E+05  2.213829E+04  2.506407E+04 -7.832803E+02 -2.646227E+03  1.524899E+03
       259   9  1.139284E+05  2.737110E+04  3.094959E+04  8.973967E+03 -4.094430E+03  1.935289E+03
       259  10 -6.623643E+04 -1.909982E+04 -1.732480E+04  8.225871E+03 -4.898468E-09  9.896883E-10
       259  11 -7.992280E+04 -2.280050E+04 -1.944755E+04 -1.538954E+03  1.343832E-10 -9.442436E-09
       259  12 -9.306600E+04 -2.425244E+04 -2.012824E+04  7.775014E+03  1.340158E-10 -3.636954E-10
       259  13  1.042583E+04  3.011227E+01  1.659281E+03  8.381893E+03 -2.143078E-09 -8.485938E-11
       259  14  1.015314E+04 -3.308059E+02  2.808551E+03 -1.161138E+03 -1.750755E-09  8.209554E-09
       259  15  1.042634E+04  1.559721E+03  5.411055E+03  8.374450E+03  5.278800E-10  1.267560E-08
       259  16  8.709343E+04  1.915960E+04  2.064292E+04  8.537927E+03  5.921175E-09  6.288242E-09
       259  17  1.002365E+05  2.213828E+04  2.506405E+04 -7.832770E+02 -2.168686E-09 -4.073414E-09
       259  18  1.139284E+05  2.737109E+04  3.094955E+04  8.973973E+03 -1.530019E-09  1.979765E-08
       259  19 -6.623643E+04 -1.909982E+04 -1.732479E+04  8.225870E+03  1.466033E+03 -1.052452E+03
       259  20 -7.992279E+04 -2.280050E+04 -1.944753E+04 -1.538957E+03  2.882193E+03 -1.523759E+03
       259  21 -9.306598E+04 -2.425243E+04 -2.012819E+04  7.775007E+03  4.297906E+03 -1.934345E+03
       259  22  1.042584E+04  3.011394E+01  1.659286E+03  8.381892E+03  1.331844E+03 -1.053124E+03
       259  23  1.015315E+04 -3.308014E+02  2.808570E+03 -1.161142E+03  2.764218E+03 -1.524329E+03
       259  24  1.042636E+04  1.559730E+03  5.411095E+03  8.374443E+03  4.196176E+03 -1.934817E+03
       259  25  8.709344E+04  1.915960E+04  2.064293E+04  8.537926E+03  1.197638E+03 -1.053795E+03
       259  26  1.002365E+05  2.213829E+04  2.506407E+04 -7.832803E+02  2.646227E+03 -1.524899E+03
       259  27  1.139284E+05  2.737110E+04  3.094959E+04  8.973967E+03  4.094430E+03 -1.935289E+03
       260   1 -1.373770E+05 -3.740992E+04 -2.995815E+04  8.792374E+03 -5.493563E+03  2.276820E+03
       260   2 -1.529878E+05 -4.272514E+04 -2.894791E+04 -2.153548E+03 -1.115433E+04  2.763133E+03
       260   3 -1.642157E+05 -3.301358E+04 -2.051812E+04  5.956148E+03 -1.681265E+04  2.776910E+03
       260   4  1.127976E+04 -3.299927E+02  6.811375E+03  8.390876E+03 -5.296639E+03  2.277733E+03
       260   5  9.078611E+03 -2.293504E+03  1.109001E+04 -1.161384E+03 -1.108348E+04  2.763403E+03
       260   6  1.128092E+04  1.078954E+04  2.287433E+04  8.341636E+03 -1.686799E+04  2.776566E+03
       260   7  1.599566E+05  3.674828E+04  4.357926E+04  7.989258E+03 -5.099667E+03  2.278647E+03
       260   8  1.711689E+05  3.813618E+04  5.112599E+04 -1.689885E+02 -1.101260E+04  2.763674E+03
       260   9  1.868055E+05  5.459038E+04  6.626451E+04  1.072777E+04 -1.692334E+04  2.776222E+03
       260  10 -1.373770E+05 -3.740993E+04 -2.995822E+04  8.792384E+03  9.253501E-09  5.106236E-10
       260  11 -1.529880E+05 -4.272519E+04 -2.894816E+04 -2.153523E+03  8.480024E-10  9.986321E-09
       260  12 -1.642160E+05 -3.301366E+04 -2.051867E+04  5.956186E+03 -2.443596E-09 -5.707428E-09
       260  13  1.127973E+04 -3.300058E+02  6.811312E+03  8.390886E+03  1.075765E-09 -8.305004E-09
       260  14  9.078477E+03 -2.293545E+03  1.108977E+04 -1.161359E+03 -2.218401E-09  1.155399E-09
       260  15  1.128061E+04  1.078946E+04  2.287378E+04  8.341674E+03  2.450136E-09  4.759370E-10
       260  16  1.599566E+05  3.674827E+04  4.357920E+04  7.989267E+03 -6.337361E-09  1.984362E-09
       260  17  1.711688E+05  3.813614E+04  5.112575E+04 -1.689640E+02 -4.114270E-09 -2.652497E-08
       260  18  1.868052E+05  5.459029E+04  6.626395E+04  1.072781E+04  1.870709E-09  3.858766E-09
       260  19 -1.373770E+05 -3.740992E+04 -2.995815E+04  8.792374E+03  5.493563E+03 -2.276820E+03
       260  20 -1.529878E+05 -4.272514E+04 -2.894791E+04 -2.153548E+03  1.115433E+04 -2.763133E+03
       260  21 -1.642157E+05 -3.301358E+04 -2.051812E+04  5.956148E+03  1.681265E+04 -2.776910E+03
       260  22  1.127976E+04 -3.299927E+02  6.811375E+03  8.390876E+03  5.296639E+03 -2.277733E+03
       260  23  9.078611E+03 -2.293504E+03  1.109001E+04 -1.161384E+03  1.108348E+04 -2.763403E+03
       260  24  1.128092E+04  1.078954E+04  2.287433E+04  8.341636E+03  1.686799E+04 -2.776566E+03
       260  25  1.599566E+05  3.674828E+04  4.357926E+04  7.989258E+03  5.099667E+03 -2.278647E+03
       260  26  1.711689E+05  3.813618E+04  5.112599E+04 -1.689885E+02  1.101260E+04 -2.763674E+03
       260  27  1.868055E+05  5.459038E+04  6.626451E+04  1.072777E+04  1.692334E+04 -2.776222E+03
       261   1 -2.038552E+05 -5.794767E+04 -2.680679E+04  1.423408E+04 -2.207425E+04  3.590573E+03
       261   2 -2.320309E+05 -7.467604E+04 -1.501701E+04 -5.439633E+03 -4.440622E+04  4.271905E+03
       261   3 -2.306680E+05  1.495604E+04  3.791529E+04 -6.295006E+03 -6.672301E+04  1.289981E+03
       261   4  1.689521E+04 -2.946202E+03  2.773996E+04  8.424537E+03 -2.139134E+04  3.593639E+03
       261   5  2.049014E+03 -1.626100E+04  4.275332E+04 -1.135064E+03 -4.469803E+04  4.270375E+03
       261   6  1.689885E+04  7.693210E+04  9.957479E+04  8.123110E+03 -6.799005E+04  1.283734E+03
       261   7  2.376900E+05  5.205177E+04  8.228311E+04  2.612882E+03 -2.070819E+04  3.596691E+03
       261   8  2.361788E+05  4.215002E+04  1.005196E+05  3.171081E+03 -4.498995E+04  4.268841E+03
       261   9  2.645217E+05  1.389043E+05  1.612298E+05  2.254693E+04 -6.925760E+04  1.277430E+03
       261  10 -2.038557E+05 -5.794781E+04 -2.680773E+04  1.423414E+04  4.497496E-09 -2.060354E-09
       261  11 -2.320330E+05 -7.467659E+04 -1.502075E+04 -5.439480E+03  1.749645E-09  5.986303E-09
       261  12 -2.306728E+05  1.495484E+04  3.790692E+04 -6.294937E+03  6.813185E-10  1.278212E-08
       261  13  1.689471E+04 -2.946339E+03  2.773907E+04  8.424599E+03  1.065872E-09  9.764411E-09
       261  14  2.046864E+03 -1.626155E+04  4.274953E+04 -1.134910E+03 -2.697051E-09  2.731242E-09
       261  15  1.689389E+04  7.693086E+04  9.956610E+04  8.123180E+03 -5.638173E-10  3.707923E-10
       261  16  2.376895E+05  5.205164E+04  8.228228E+04  2.612942E+03 -1.270758E-09  7.631177E-09
       261  17  2.361766E+05  4.214946E+04  1.005158E+05  3.171236E+03 -3.601481E-09  1.081763E-08
       261  18  2.645166E+05  1.389030E+05  1.612208E+05  2.254700E+04 -1.149765E-09 -9.224600E-10
       261  19 -2.038552E+05 -5.794767E+04 -2.680679E+04  1.423408E+04  2.207425E+04 -3.590573E+03
       261  20 -2.320309E+05 -7.467604E+04 -1.501701E+04 -5.439633E+03  4.440622E+04 -4.271905E+03
       261  21 -2.306680E+05  1.495604E+04  3.791529E+04 -6.295006E+03  6.672301E+04 -1.289981E+03
       261  22  1.689521E+04 -2.946202E+03  2.773996E+04  8.424537E+03  2.139134E+04 -3.593639E+03
       261  23  2.049014E+03 -1.626100E+04  4.275332E+04 -1.135064E+03  4.469803E+04 -4.270375E+03
       261  24  1.689885E+04  7.693210E+04  9.957479E+04  8.123110E+03  6.799005E+04 -1.283734E+03
       261  25  2.376900E+05  5.205177E+04  8.228311E+04  2.612882E+03  2.070819E+04 -3.596691E+03
       261  26  2.361788E+05  4.215002E+04  1.005196E+05  3.171081E+03  4.498995E+04 -4.268841E+03
       261  27  2.645217E+05  1.389043E+05  1.612298E+05  2.254693E+04  6.925760E+04 -1.277430E+03
       262   1 -2.713698E+05 -1.313972E+06 -3.195143E+05  7.597659E+04 -2.699057E+03 -1.475606E+05
       262   2 -5.443669E+04 -1.222443E+06 -1.830274E+05  1.569479E+04 -8.494188E+03 -9.152209E+04
       262   3 -6.664640E+04 -1.194844E+06 -1.402350E+05  1.703859E+04 -6.224524E+03 -3.545495E+04
       262   4 -1.693657E+05 -9.071480E+05 -2.183461E+05  3.468537E+04 -2.699768E+03 -1.441471E+05
       262   5  3.209015E+04 -8.754132E+05 -9.819866E+04  4.134756E+03 -8.493795E+03 -9.097734E+04
       262   6  4.969554E+03 -9.070744E+05 -6.970828E+04  3.521242E+04 -6.219633E+03 -3.778464E+04
       262   7 -6.736770E+04 -5.001699E+05 -1.171894E+05 -6.632875E+03 -2.700937E+03 -1.407313E+05
       262   8  1.186086E+05 -5.282736E+05 -1.337864E+04 -7.431687E+03 -8.493422E+03 -9.043227E+04
       262   9  7.658064E+04 -6.192288E+05  8.125340E+02  5.339476E+04 -6.214880E+03 -4.011541E+04
       262  10 -2.713757E+05 -1.313995E+06 -3.195553E+05  7.597627E+04 -5.644447E-10 -4.523220E-09
       262  11 -5.443902E+04 -1.222452E+06 -1.830433E+05  1.569416E+04 -3.634214E-09  3.768413E-09
       262  12 -6.664678E+04 -1.194845E+06 -1.402374E+05  1.703841E+04 -2.186909E-10 -8.482295E-10
       262  13 -1.693713E+05 -9.071704E+05 -2.183852E+05  3.468506E+04  3.440640E-09 -4.503384E-09
       262  14  3.208785E+04 -8.754221E+05 -9.821437E+04  4.134133E+03  2.190262E-09  1.524733E-08
       262  15  4.969128E+03 -9.070760E+05 -6.971104E+04  3.521224E+04 -1.080680E-09 -8.930906E-10
       262  16 -6.737303E+04 -5.001912E+05 -1.172266E+05 -6.633182E+03  5.242034E-10 -2.190300E-09
       262  17  1.186063E+05 -5.282824E+05 -1.339415E+04 -7.432305E+03  6.625718E-09  7.077266E-09
       262  18  7.658017E+04 -6.192305E+05  8.094344E+02  5.339456E+04 -2.134982E-09 -1.687504E-09
       262  19 -2.713698E+05 -1.313972E+06 -3.195143E+05  7.597659E+04  2.699057E+03  1.475606E+05
       262  20 -5.443669E+04 -1.222443E+06 -1.830274E+05  1.569479E+04  8.494188E+03  9.152209E+04
       262  21 -6.664640E+04 -1.194844E+06 -1.402350E+05  1.703859E+04  6.224524E+03  3.545495E+04
       262  22 -1.693657E+05 -9.071480E+05 -2.183461E+05  3.468537E+04  2.699768E+03  1.441471E+05
       262  23  3.209015E+04 -8.754132E+05 -9.819866E+04  4.134756E+03  8.493795E+03  9.097734E+04
       262  24  4.969554E+03 -9.070744E+05 -6.970828E+04  3.521242E+04  6.219633E+03  3.778464E+04
       262  25 -6.736770E+04 -5.001699E+05 -1.171894E+05 -6.632875E+03  2.700937E+03  1.407313E+05
       262  26  1.186086E+05 -5.282736E+05 -1.337864E+04 -7.431687E+03  8.493422E+03  9.043227E+04
       262  27  7.658064E+04 -6.192288E+05  8.125340E+02  5.339476E+04  6.214880E+03  4.011541E+04
       263   1 -6.110551E+04 -1.058230E+06 -1.014838E+05  4.264534E+04 -3.692592E+03 -2.575161E+04
       263   2 -1.739335E+04 -9.890562E+05 -7.021626E+04  3.957991E+03 -2.340744E+03 -1.996350E+03
       263   3 -2.826125E+04 -9.362332E+05 -6.799654E+04  2.890345E+04 -6.197908E+02  2.176161E+04
       263   4 -2.079153E+04 -8.966154E+05 -6.190605E+04  3.547275E+04 -3.691192E+03 -2.619551E+04
       263   5  7.675787E+03 -8.884499E+05 -4.558728E+04  3.660401E+03 -2.339399E+03 -2.568562E+03
       263   6 -1.840953E+04 -8.966134E+05 -5.822278E+04  3.548089E+04 -6.180110E+02  2.105877E+04
       263   7  1.952070E+04 -7.349767E+05 -2.233014E+04  2.829831E+04 -3.689782E+03 -2.663953E+04
       263   8  3.274417E+04 -7.878343E+05 -2.095904E+04  3.362768E+03 -2.338053E+03 -3.140868E+03
       263   9 -8.557752E+03 -8.569922E+05 -4.844911E+04  4.205875E+04 -6.162461E+02  2.035589E+04
       263  10 -6.110570E+04 -1.058231E+06 -1.014851E+05  4.264526E+04 -2.087653E-09 -6.361508E-09
       263  11 -1.739335E+04 -9.890562E+05 -7.021628E+04  3.957987E+03 -4.024869E-09  5.096848E-09
       263  12 -2.826138E+04 -9.362337E+05 -6.799743E+04  2.890346E+04  2.869907E-10  1.960661E-09
       263  13 -2.079173E+04 -8.966161E+05 -6.190737E+04  3.547267E+04 -1.258645E-09 -5.245829E-09
       263  14  7.675780E+03 -8.884499E+05 -4.558730E+04  3.660396E+03 -4.232119E-09  1.022831E-08
       263  15 -1.840965E+04 -8.966139E+05 -5.822361E+04  3.548090E+04 -3.774287E-09 -2.817878E-09
       263  16  1.952049E+04 -7.349775E+05 -2.233151E+04  2.829823E+04 -2.506559E-09 -1.135242E-09
       263  17  3.274416E+04 -7.878343E+05 -2.095907E+04  3.362762E+03 -9.706245E-11  3.048007E-09
       263  18 -8.557864E+03 -8.569927E+05 -4.844989E+04  4.205876E+04 -3.711760E-09 -4.383682E-09
       263  19 -6.110551E+04 -1.058230E+06 -1.014838E+05  4.264534E+04  3.692592E+03  2.575161E+04
       263  20 -1.739335E+04 -9.890562E+05 -7.021626E+04  3.957991E+03  2.340744E+03  1.996350E+03
       263  21 -2.826125E+04 -9.362332E+05 -6.799654E+04  2.890345E+04  6.197908E+02 -2.176161E+04
       263  22 -2.079153E+04 -8.966154E+05 -6.190605E+04  3.547275E+04  3.691192E+03  2.619551E+04
       263  23  7.675787E+03 -8.884499E+05 -4.558728E+04  3.660401E+03  2.339399E+03  2.568562E+03
       263  24 -1.840953E+04 -8.966134E+05 -5.822278E+04  3.548089E+04  6.180110E+02 -2.105877E+04
       263  25  1.952070E+04 -7.349767E+05 -2.233014E+04  2.829831E+04  3.689782E+03  2.663953E+04
       263  26  3.274417E+04 -7.878343E+05 -2.095904E+04  3.362768E+03  2.338053E+03  3.140868E+03
       263  27 -8.557752E+03 -8.569922E+05 -4.844911E+04  4.205875E+04  6.162461E+02 -2.035589E+04
       264   1  2.570966E+04 -8.178827E+05 -4.297571E+04  5.220361E+04  1.477910E+03  3.353733E+04
       264   2  6.586912E+04 -7.286736E+05 -5.257512E+04 -6.198595E+03  3.665345E+03  7.997143E+04
       264   3 -9.897982E+04 -6.963452E+05 -1.435842E+05 -1.476035E+03  1.222472E+03  1.263994E+05
       264   4  3.904669E+03 -9.056806E+05 -6.456434E+04  3.550196E+04  1.480683E+03  3.187586E+04
       264   5  2.884843E+04 -8.771173E+05 -8.882833E+04  3.747221E+03  3.666671E+03  7.996373E+04
       264   6 -1.515337E+05 -9.057453E+05 -1.956683E+05  3.511920E+04  1.225848E+03  1.280408E+05
       264   7 -1.789984E+04 -9.934709E+05 -8.615338E+04  1.880268E+04  1.483546E+03  3.021463E+04
       264   8 -8.173527E+03 -1.025541E+06 -1.250831E+05  1.369066E+04  3.667998E+03  7.995603E+04
       264   9 -2.040859E+05 -1.115103E+06 -2.477550E+05  7.170210E+04  1.229419E+03  1.296817E+05
       264  10  2.570936E+04 -8.178839E+05 -4.297783E+04  5.220357E+04 -1.201262E-09 -4.406807E-09
       264  11  6.586739E+04 -7.286804E+05 -5.258718E+04 -6.198831E+03  1.341791E-09  3.152776E-09
       264  12 -9.898412E+04 -6.963624E+05 -1.436143E+05 -1.476160E+03 -4.741565E-10  3.087285E-10
       264  13  3.904393E+03 -9.056817E+05 -6.456626E+04  3.550192E+04 -6.865750E-11 -4.827167E-09
       264  14  2.884670E+04 -8.771242E+05 -8.884039E+04  3.746985E+03  4.965471E-11  1.348629E-08
       264  15 -1.515381E+05 -9.057629E+05 -1.956992E+05  3.511908E+04  4.370774E-10 -1.818501E-09
       264  16 -1.790009E+04 -9.934719E+05 -8.615510E+04  1.880265E+04 -4.277099E-09 -6.616684E-10
       264  17 -8.175261E+03 -1.025548E+06 -1.250952E+05  1.369043E+04  1.715725E-09  4.162003E-09
       264  18 -2.040904E+05 -1.115121E+06 -2.477866E+05  7.170197E+04  2.741236E-09 -2.533418E-09
       264  19  2.570966E+04 -8.178827E+05 -4.297571E+04  5.220361E+04 -1.477910E+03 -3.353733E+04
       264  20  6.586912E+04 -7.286736E+05 -5.257512E+04 -6.198595E+03 -3.665345E+03 -7.997143E+04
       264  21 -9.897982E+04 -6.963452E+05 -1.435842E+05 -1.476035E+03 -1.222472E+03 -1.263994E+05
       264  22  3.904669E+03 -9.056806E+05 -6.456434E+04  3.550196E+04 -1.480683E+03 -3.187586E+04
       264  23  2.884843E+04 -8.771173E+05 -8.882833E+04  3.747221E+03 -3.666671E+03 -7.996373E+04
       264  24 -1.515337E+05 -9.057453E+05 -1.956683E+05  3.511920E+04 -1.225848E+03 -1.280408E+05
       264  25 -1.789984E+04 -9.934709E+05 -8.615338E+04  1.880268E+04 -1.483546E+03 -3.021463E+04
       264  26 -8.173527E+03 -1.025541E+06 -1.250831E+05  1.369066E+04 -3.667998E+03 -7.995603E+04
       264  27 -2.040859E+05 -1.115103E+06 -2.477550E+05  7.170210E+04 -1.229419E+03 -1.296817E+05
       265   1  1.252681E+06  4.159671E+05  2.756512E+05  4.326855E+05  1.256387E+05  4.473841E+04
       265   2  1.208443E+06  2.219787E+05  1.553785E+05  4.488913E+05  8.182356E+04  2.267417E+04
       265   3  1.222847E+06  2.298202E+05  1.197244E+05  4.364921E+05  3.578560E+04  6.480274E+03
       265   4  9.708759E+05  2.784373E+05  1.924865E+05  3.240643E+05  1.229943E+05  4.372893E+04
       265   5  9.319129E+05  1.090032E+05  7.932183E+04  3.644118E+05  8.117939E+04  2.242838E+04
       265   6  9.512266E+05  1.410519E+05  4.922163E+04  3.761460E+05  3.714041E+04  6.995079E+03
       265   7  6.891517E+05  1.409298E+05  1.093146E+05  2.154932E+05  1.203512E+05  4.272026E+04
       265   8  6.554568E+05 -3.963869E+03  3.258265E+03  2.799674E+05  8.053552E+04  2.218273E+04
       265   9  6.796763E+05  5.228363E+04 -2.128728E+04  3.158214E+05  3.849457E+04  7.509715E+03
       265  10  1.252663E+06  4.159607E+05  2.756179E+05  4.326810E+05 -1.217975E-09  1.787120E-09
       265  11  1.208436E+06  2.219763E+05  1.553650E+05  4.488898E+05 -7.372155E-10  4.655276E-09
       265  12  1.222846E+06  2.298199E+05  1.197219E+05  4.364919E+05  1.357227E-09  1.180475E-09
       265  13  9.708592E+05  2.784312E+05  1.924546E+05  3.240599E+05 -1.834266E-09 -5.001291E-09
       265  14  9.319057E+05  1.090009E+05  7.930853E+04  3.644103E+05 -5.779414E-09 -1.124397E-08
       265  15  9.512251E+05  1.410515E+05  4.921895E+04  3.761458E+05  7.127019E-10  2.582842E-10
       265  16  6.891356E+05  1.409240E+05  1.092840E+05  2.154891E+05 -4.709064E-12  2.684197E-09
       265  17  6.554497E+05 -3.966135E+03  3.245168E+03  2.799660E+05 -6.197300E-10  6.769811E-09
       265  18  6.796747E+05  5.228318E+04 -2.129017E+04  3.158212E+05 -1.471739E-09 -7.217141E-09
       265  19  1.252681E+06  4.159671E+05  2.756512E+05  4.326855E+05 -1.256387E+05 -4.473841E+04
       265  20  1.208443E+06  2.219787E+05  1.553785E+05  4.488913E+05 -8.182356E+04 -2.267417E+04
       265  21  1.222847E+06  2.298202E+05  1.197244E+05  4.364921E+05 -3.578560E+04 -6.480274E+03
       265  22  9.708759E+05  2.784373E+05  1.924865E+05  3.240643E+05 -1.229943E+05 -4.372893E+04
       265  23  9.319129E+05  1.090032E+05  7.932183E+04  3.644118E+05 -8.117939E+04 -2.242838E+04
       265  24  9.512266E+05  1.410519E+05  4.922163E+04  3.761460E+05 -3.714041E+04 -6.995079E+03
       265  25  6.891517E+05  1.409298E+05  1.093146E+05  2.154932E+05 -1.203512E+05 -4.272026E+04
       265  26  6.554568E+05 -3.963869E+03  3.258265E+03  2.799674E+05 -8.053552E+04 -2.218273E+04
       265  27  6.796763E+05  5.228363E+04 -2.128728E+04  3.158214E+05 -3.849457E+04 -7.509715E+03
       266   1  1.157809E+06  2.464405E+05  9.847555E+04  4.258394E+05  2.943012E+04  5.621010E+03
       266   2  1.141902E+06  2.082891E+05  7.158872E+04  4.157713E+05  1.930266E+04  1.954692E+03
       266   3  1.120739E+06  2.099747E+05  5.879682E+04  4.174003E+05  8.941415E+03 -1.095671E+03
       266   4  9.452778E+05  1.621026E+05  4.033438E+04  3.634975E+05  2.937188E+04  5.598558E+03
       266   5  9.466493E+05  1.333099E+05  1.873141E+04  3.610280E+05  1.945565E+04  2.012645E+03
       266   6  9.427266E+05  1.443174E+05  1.105983E+04  3.702547E+05  9.305304E+03 -9.574434E+02
       266   7  7.327901E+05  7.776861E+04 -1.781090E+04  3.011752E+05  2.931366E+04  5.576114E+03
       266   8  7.514338E+05  5.833342E+04 -3.412925E+04  3.063002E+05  1.960859E+04  2.070578E+03
       266   9  7.647448E+05  7.866172E+04 -3.667985E+04  3.231212E+05  9.669076E+03 -8.192568E+02
       266  10  1.157808E+06  2.464402E+05  9.847387E+04  4.258392E+05  1.870336E-09  9.010352E-09
       266  11  1.141901E+06  2.082890E+05  7.158801E+04  4.157713E+05  3.267444E-09  2.510188E-08
       266  12  1.120739E+06  2.099747E+05  5.879667E+04  4.174003E+05 -1.817614E-09  1.242173E-08
       266  13  9.452769E+05  1.621023E+05  4.033270E+04  3.634973E+05  2.411292E-09  3.734314E-09
       266  14  9.466489E+05  1.333098E+05  1.873069E+04  3.610279E+05  8.617721E-10 -1.059096E-08
       266  15  9.427266E+05  1.443174E+05  1.105966E+04  3.702547E+05 -1.951448E-09  8.894021E-09
       266  16  7.327892E+05  7.776835E+04 -1.781257E+04  3.011751E+05  1.668238E-09 -6.339203E-09
       266  17  7.514334E+05  5.833331E+04 -3.412998E+04  3.063001E+05  1.502011E-09  3.650391E-10
       266  18  7.647447E+05  7.866169E+04 -3.668003E+04  3.231212E+05 -1.349406E-09  2.025059E-09
       266  19  1.157809E+06  2.464405E+05  9.847555E+04  4.258394E+05 -2.943012E+04 -5.621010E+03
       266  20  1.141902E+06  2.082891E+05  7.158872E+04  4.157713E+05 -1.930266E+04 -1.954692E+03
       266  21  1.120739E+06  2.099747E+05  5.879682E+04  4.174003E+05 -8.941415E+03  1.095671E+03
       266  22  9.452778E+05  1.621026E+05  4.033438E+04  3.634975E+05 -2.937188E+04 -5.598558E+03
       266  23  9.466493E+05  1.333099E+05  1.873141E+04  3.610280E+05 -1.945565E+04 -2.012645E+03
       266  24  9.427266E+05  1.443174E+05  1.105983E+04  3.702547E+05 -9.305304E+03  9.574434E+02
       266  25  7.327901E+05  7.776861E+04 -1.781090E+04  3.011752E+05 -2.931366E+04 -5.576114E+03
       266  26  7.514338E+05  5.833342E+04 -3.412925E+04  3.063002E+05 -1.960859E+04 -2.070578E+03
       266  27  7.647448E+05  7.866172E+04 -3.667985E+04  3.231212E+05 -9.669076E+03  8.192568E+02
       267   1  1.075868E+06  1.980233E+05  4.489488E+04  4.057272E+05  7.273452E+03 -1.132003E+03
       267   2  1.064548E+06  1.808824E+05  3.575716E+04  3.929908E+05  4.745256E+03 -1.345652E+03
       267   3  1.040000E+06  1.816200E+05  2.917544E+04  3.961019E+05  2.198279E+03 -1.510551E+03
       267   4  9.420278E+05  1.468117E+05  8.742505E+03  3.683805E+05  7.484729E+03 -1.051754E+03
       267   5  9.484805E+05  1.367397E+05  4.410480E+03  3.608884E+05  4.973486E+03 -1.258908E+03
       267   6  9.417020E+05  1.445433E+05  2.621584E+03  3.692438E+05  2.443391E+03 -1.417335E+03
       267   7  8.082041E+05  9.560124E+04 -2.741154E+04  3.310410E+05  7.695956E+03 -9.715247E+02
       267   8  8.324256E+05  9.259771E+04 -2.693744E+04  3.287913E+05  5.201670E+03 -1.172182E+03
       267   9  8.434133E+05  1.074673E+05 -2.393314E+04  3.423895E+05  2.688461E+03 -1.324135E+03
       267  10  1.075868E+06  1.980232E+05  4.489478E+04  4.057272E+05 -1.706083E-10  1.217460E-08
       267  11  1.064548E+06  1.808824E+05  3.575712E+04  3.929908E+05 -3.410183E-09 -1.862842E-09
       267  12  1.040000E+06  1.816200E+05  2.917543E+04  3.961019E+05 -2.186428E-10  1.411213E-08
       267  13  9.420277E+05  1.468117E+05  8.742397E+03  3.683805E+05  3.035541E-11  1.833996E-09
       267  14  9.484805E+05  1.367397E+05  4.410430E+03  3.608884E+05 -3.037534E-09  1.246493E-08
       267  15  9.417020E+05  1.445433E+05  2.621569E+03  3.692438E+05 -6.662705E-10  1.044112E-08
       267  16  8.082041E+05  9.560122E+04 -2.741165E+04  3.310410E+05 -5.503048E-09  7.694488E-09
       267  17  8.324256E+05  9.259771E+04 -2.693749E+04  3.287913E+05 -9.048108E-09  7.384050E-09
       267  18  8.434133E+05  1.074672E+05 -2.393316E+04  3.423895E+05 -3.686774E-09 -4.613123E-10
       267  19  1.075868E+06  1.980233E+05  4.489488E+04  4.057272E+05 -7.273452E+03  1.132003E+03
       267  20  1.064548E+06  1.808824E+05  3.575716E+04  3.929908E+05 -4.745256E+03  1.345652E+03
       267  21  1.040000E+06  1.816200E+05  2.917544E+04  3.961019E+05 -2.198279E+03  1.510551E+03
       267  22  9.420278E+05  1.468117E+05  8.742505E+03  3.683805E+05 -7.484729E+03  1.051754E+03
       267  23  9.484805E+05  1.367397E+05  4.410480E+03  3.608884E+05 -4.973486E+03  1.258908E+03
       267  24  9.417020E+05  1.445433E+05  2.621584E+03  3.692438E+05 -2.443391E+03  1.417335E+03
       267  25  8.082041E+05  9.560124E+04 -2.741154E+04  3.310410E+05 -7.695956E+03  9.715247E+02
       267  26  8.324256E+05  9.259771E+04 -2.693744E+04  3.287913E+05 -5.201670E+03  1.172182E+03
       267  27  8.434133E+05  1.074673E+05 -2.393314E+04  3.423895E+05 -2.688461E+03  1.324135E+03
       268   1  9.994429E+05  1.667318E+05  1.763569E+04  3.849016E+05  1.666977E+03 -1.240855E+03
       268   2  9.890546E+05  1.526418E+05  1.223926E+04  3.721595E+05  7.378556E+02 -8.137171E+02
       268   3  9.647037E+05  1.532576E+05  7.468976E+03  3.753162E+05 -1.909399E+02 -3.876160E+02
       268   4  9.416743E+05  1.447591E+05  2.097636E+03  3.689061E+05  1.897249E+03 -1.153260E+03
       268   5  9.486390E+05  1.372898E+05  1.326899E+03  3.610011E+05  9.678372E+02 -7.262174E+02
       268   6  9.416409E+05  1.445263E+05  1.182615E+03  3.689948E+05  3.872835E+01 -3.002181E+02
       268   7  8.839090E+05  1.227867E+05 -1.344068E+04  3.529119E+05  2.127498E+03 -1.065674E+03
       268   8  9.082251E+05  1.219378E+05 -9.585610E+03  3.498433E+05  1.197802E+03 -6.387240E+02
       268   9  9.185787E+05  1.357951E+05 -5.103806E+03  3.626736E+05  2.683877E+02 -2.128237E+02
       268  10  9.994429E+05  1.667318E+05  1.763568E+04  3.849016E+05  2.695469E-10  8.041524E-09
       268  11  9.890546E+05  1.526418E+05  1.223926E+04  3.721595E+05  5.208760E-10 -4.055551E-09
       268  12  9.647037E+05  1.532576E+05  7.468976E+03  3.753162E+05 -5.346954E-09  7.362937E-09
       268  13  9.416743E+05  1.447591E+05  2.097627E+03  3.689061E+05 -1.620853E-09  3.534800E-09
       268  14  9.486390E+05  1.372898E+05  1.326896E+03  3.610011E+05  1.022921E-09  1.757476E-08
       268  15  9.416409E+05  1.445263E+05  1.182615E+03  3.689948E+05 -6.592671E-10 -6.078672E-09
       268  16  8.839090E+05  1.227867E+05 -1.344069E+04  3.529119E+05 -5.129709E-10 -1.906490E-09
       268  17  9.082251E+05  1.219378E+05 -9.585613E+03  3.498433E+05  8.530803E-09  1.334052E-08
       268  18  9.185787E+05  1.357951E+05 -5.103807E+03  3.626736E+05  5.128145E-09 -7.765845E-09
       268  19  9.994429E+05  1.667318E+05  1.763569E+04  3.849016E+05 -1.666977E+03  1.240855E+03
       268  20  9.890546E+05  1.526418E+05  1.223926E+04  3.721595E+05 -7.378556E+02  8.137171E+02
       268  21  9.647037E+05  1.532576E+05  7.468976E+03  3.753162E+05  1.909399E+02  3.876160E+02
       268  22  9.416743E+05  1.447591E+05  2.097636E+03  3.689061E+05 -1.897249E+03  1.153260E+03
       268  23  9.486390E+05  1.372898E+05  1.326899E+03  3.610011E+05 -9.678372E+02  7.262174E+02
       268  24  9.416409E+05  1.445263E+05  1.182615E+03  3.689948E+05 -3.872835E+01  3.002181E+02
       268  25  8.839090E+05  1.227867E+05 -1.344068E+04  3.529119E+05 -2.127498E+03  1.065674E+03
       268  26  9.082251E+05  1.219378E+05 -9.585610E+03  3.498433E+05 -1.197802E+03  6.387240E+02
       268  27  9.185787E+05  1.357951E+05 -5.103806E+03  3.626736E+05 -2.683877E+02  2.128237E+02
       269   1  9.251009E+05  1.382563E+05 -3.282329E+03  3.644912E+05 -5.425264E+02 -6.810818E+01
       269   2  9.147458E+05  1.244049E+05 -7.461469E+03  3.516589E+05 -1.652136E+03  2.886359E+02
       269   3  8.905400E+05  1.253985E+05 -1.083506E+04  3.546617E+05 -2.761631E+03  6.454276E+02
       269   4  9.416578E+05  1.445019E+05  1.244734E+03  3.690017E+05 -3.128767E+02  1.928400E+01
       269   5  9.486109E+05  1.372715E+05  1.683139E+03  3.610110E+05 -1.422529E+03  3.759975E+02
       269   6  9.417130E+05  1.448860E+05  2.927071E+03  3.688553E+05 -2.532090E+03  7.327497E+02
       269   7  9.582150E+05  1.507475E+05  5.771772E+03  3.735123E+05 -8.322015E+01  1.066787E+02
       269   8  9.824771E+05  1.501382E+05  1.082764E+04  3.703637E+05 -1.192907E+03  4.633643E+02
       269   9  9.928883E+05  1.643736E+05  1.668895E+04  3.830500E+05 -2.302529E+03  8.200797E+02
       269  10  9.251009E+05  1.382563E+05 -3.282330E+03  3.644912E+05 -7.423669E-10 -9.422037E-11
       269  11  9.147458E+05  1.244049E+05 -7.461474E+03  3.516589E+05  2.391682E-09 -2.303749E-08
       269  12  8.905400E+05  1.253985E+05 -1.083508E+04  3.546617E+05 -8.841922E-09 -2.408035E-08
       269  13  9.416578E+05  1.445019E+05  1.244733E+03  3.690017E+05 -1.021669E-10  2.281463E-08
       269  14  9.486109E+05  1.372715E+05  1.683135E+03  3.610110E+05  1.014958E-09  7.019402E-09
       269  15  9.417130E+05  1.448860E+05  2.927058E+03  3.688553E+05  2.600073E-09  1.758057E-09
       269  16  9.582150E+05  1.507475E+05  5.771771E+03  3.735123E+05 -2.672746E-09  5.808412E-09
       269  17  9.824771E+05  1.501382E+05  1.082763E+04  3.703637E+05  9.745165E-10  4.258511E-09
       269  18  9.928883E+05  1.643736E+05  1.668894E+04  3.830500E+05  9.440621E-09 -1.274675E-09
       269  19  9.251009E+05  1.382563E+05 -3.282329E+03  3.644912E+05  5.425264E+02  6.810818E+01
       269  20  9.147458E+05  1.244049E+05 -7.461469E+03  3.516589E+05  1.652136E+03 -2.886359E+02
       269  21  8.905400E+05  1.253985E+05 -1.083506E+04  3.546617E+05  2.761631E+03 -6.454276E+02
       269  22  9.416578E+05  1.445019E+05  1.244734E+03  3.690017E+05  3.128767E+02 -1.928400E+01
       269  23  9.486109E+05  1.372715E+05  1.683139E+03  3.610110E+05  1.422529E+03 -3.759975E+02
       269  24  9.417130E+05  1.448860E+05  2.927071E+03  3.688553E+05  2.532090E+03 -7.327497E+02
       269  25  9.582150E+05  1.507475E+05  5.771772E+03  3.735123E+05  8.322015E+01 -1.066787E+02
       269  26  9.824771E+05  1.501382E+05  1.082764E+04  3.703637E+05  1.192907E+03 -4.633643E+02
       269  27  9.928883E+05  1.643736E+05  1.668895E+04  3.830500E+05  2.302529E+03 -8.200797E+02
       270   1  8.501297E+05  1.100485E+05 -2.102091E+04  3.443699E+05 -3.481486E+03  8.419273E+02
       270   2  8.390407E+05  9.493320E+04 -2.312189E+04  3.306691E+05 -7.014836E+03  2.993357E+02
       270   3  8.154627E+05  9.907218E+04 -2.153914E+04  3.323955E+05 -1.052943E+04 -2.917662E+02
       270   4  9.418171E+05  1.445003E+05  3.728248E+03  3.692835E+05 -3.237298E+03  9.348008E+02
       270   5  9.482994E+05  1.365384E+05  6.399534E+03  3.609356E+05 -6.787607E+03  3.857095E+02
       270   6  9.422958E+05  1.478335E+05  1.276757E+04  3.680148E+05 -1.031926E+04 -2.119309E+02
       270   7  1.033513E+06  1.789526E+05  2.847671E+04  3.942004E+05 -2.993069E+03  1.027689E+03
       270   8  1.057570E+06  1.781443E+05  3.591992E+04  3.912070E+05 -6.560334E+03  4.721003E+02
       270   9  1.069144E+06  1.965960E+05  4.707284E+04  4.036407E+05 -1.010904E+04 -1.320770E+02
       270  10  8.501296E+05  1.100485E+05 -2.102093E+04  3.443699E+05 -1.047590E-08 -2.123427E-09
       270  11  8.390406E+05  9.493318E+04 -2.312198E+04  3.306691E+05 -6.378659E-09 -1.734567E-08
       270  12  8.154625E+05  9.907215E+04 -2.153935E+04  3.323955E+05 -6.047027E-09 -1.322784E-08
       270  13  9.418171E+05  1.445003E+05  3.728227E+03  3.692835E+05 -1.935316E-09  2.195615E-09
       270  14  9.482994E+05  1.365383E+05  6.399447E+03  3.609356E+05 -5.371447E-09  1.498791E-08
       270  15  9.422957E+05  1.478335E+05  1.276737E+04  3.680148E+05 -3.198480E-09 -6.204713E-09
       270  16  1.033513E+06  1.789526E+05  2.847669E+04  3.942004E+05  5.253688E-09  9.499872E-09
       270  17  1.057570E+06  1.781443E+05  3.591984E+04  3.912070E+05 -4.087197E-09  8.261949E-09
       270  18  1.069144E+06  1.965960E+05  4.707265E+04  4.036407E+05 -8.225160E-09  1.583891E-09
       270  19  8.501297E+05  1.100485E+05 -2.102091E+04  3.443699E+05  3.481486E+03 -8.419273E+02
       270  20  8.390407E+05  9.493320E+04 -2.312189E+04  3.306691E+05  7.014836E+03 -2.993357E+02
       270  21  8.154627E+05  9.907218E+04 -2.153914E+04  3.323955E+05  1.052943E+04  2.917662E+02
       270  22  9.418171E+05  1.445003E+05  3.728248E+03  3.692835E+05  3.237298E+03 -9.348008E+02
       270  23  9.482994E+05  1.365384E+05  6.399534E+03  3.609356E+05  6.787607E+03 -3.857095E+02
       270  24  9.422958E+05  1.478335E+05  1.276757E+04  3.680148E+05  1.031926E+04  2.119309E+02
       270  25  1.033513E+06  1.789526E+05  2.847671E+04  3.942004E+05  2.993069E+03 -1.027689E+03
       270  26  1.057570E+06  1.781443E+05  3.591992E+04  3.912070E+05  6.560334E+03 -4.721003E+02
       270  27  1.069144E+06  1.965960E+05  4.707284E+04  4.036407E+05  1.010904E+04  1.320770E+02
       271   1  7.719220E+05  8.173942E+04 -2.965355E+04  3.261705E+05 -1.324444E+04 -7.316962E+02
       271   2  7.578293E+05  5.911293E+04 -2.349118E+04  3.082100E+05 -2.775526E+04 -5.363809E+03
       271   3  7.433237E+05  8.730557E+04  2.897015E+03  2.990096E+05 -4.203782E+04 -1.059493E+04
       271   4  9.434290E+05  1.440639E+05  1.616662E+04  3.706318E+05 -1.288556E+04 -5.953133E+02
       271   5  9.454861E+05  1.316621E+05  2.741527E+04  3.613025E+05 -2.760286E+04 -5.306102E+03
       271   6  9.471666E+05  1.701130E+05  5.904840E+04  3.607333E+05 -4.209235E+04 -1.061621E+04
       271   7  1.114964E+06  2.063894E+05  6.198415E+04  4.151038E+05 -1.252658E+04 -4.588930E+02
       271   8  1.133177E+06  2.042139E+05  7.831856E+04  4.144094E+05 -2.745041E+04 -5.248375E+03
       271   9  1.151050E+06  2.529248E+05  1.151961E+05  4.224760E+05 -4.214691E+04 -1.063750E+04
       271  10  7.719218E+05  8.173937E+04 -2.965388E+04  3.261705E+05  2.362528E-09 -8.375347E-09
       271  11  7.578285E+05  5.911269E+04 -2.349268E+04  3.082099E+05 -2.087373E-09  6.680266E-09
       271  12  7.433218E+05  8.730498E+04  2.893488E+03  2.990093E+05 -7.330466E-09  9.215140E-09
       271  13  9.434288E+05  1.440638E+05  1.616631E+04  3.706318E+05 -5.335300E-09 -1.286101E-08
       271  14  9.454853E+05  1.316619E+05  2.741379E+04  3.613023E+05  3.244837E-09 -2.820234E-09
       271  15  9.471647E+05  1.701124E+05  5.904487E+04  3.607330E+05 -4.958842E-09  5.407909E-09
       271  16  1.114964E+06  2.063894E+05  6.198385E+04  4.151038E+05 -4.826133E-09  1.134289E-08
       271  17  1.133176E+06  2.042137E+05  7.831710E+04  4.144093E+05  9.431935E-11 -1.521100E-08
       271  18  1.151048E+06  2.529242E+05  1.151925E+05  4.224756E+05  8.321181E-10 -3.650745E-09
       271  19  7.719220E+05  8.173942E+04 -2.965355E+04  3.261705E+05  1.324444E+04  7.316962E+02
       271  20  7.578293E+05  5.911293E+04 -2.349118E+04  3.082100E+05  2.775526E+04  5.363809E+03
       271  21  7.433237E+05  8.730557E+04  2.897015E+03  2.990096E+05  4.203782E+04  1.059493E+04
       271  22  9.434290E+05  1.440639E+05  1.616662E+04  3.706318E+05  1.288556E+04  5.953133E+02
       271  23  9.454861E+05  1.316621E+05  2.741527E+04  3.613025E+05  2.760286E+04  5.306102E+03
       271  24  9.471666E+05  1.701130E+05  5.904840E+04  3.607333E+05  4.209235E+04  1.061621E+04
       271  25  1.114964E+06  2.063894E+05  6.198415E+04  4.151038E+05  1.252658E+04  4.588930E+02
       271  26  1.133177E+06  2.042139E+05  7.831856E+04  4.144094E+05  2.745041E+04  5.248375E+03
       271  27  1.151050E+06  2.529248E+05  1.151961E+05  4.224760E+05  4.214691E+04  1.063750E+04
       272   1  6.874910E+05  5.806329E+04  3.648718E+03  3.262418E+05 -5.453667E+04 -1.381892E+04
       272   2  6.580115E+05 -1.644707E+04  4.223397E+04  2.810982E+05 -1.168650E+05 -3.619658E+04
       272   3  7.215932E+05  1.955303E+05  2.009120E+05  1.847999E+05 -1.770298E+05 -6.427127E+04
       272   4  9.560315E+05  1.391240E+05  7.206048E+04  3.790610E+05 -5.321683E+04 -1.331605E+04
       272   5  9.237242E+05  9.629591E+04  1.161542E+05  3.665011E+05 -1.174958E+05 -3.643880E+04
       272   6  9.848143E+05  3.402639E+05  2.818444E+05  3.027997E+05 -1.796113E+05 -6.526532E+04
       272   7  1.224642E+06  2.201837E+05  1.404669E+05  4.318978E+05 -5.189635E+04 -1.281306E+04
       272   8  1.189504E+06  2.090480E+05  1.900675E+05  4.519385E+05 -1.181269E+05 -3.668116E+04
       272   9  1.248106E+06  4.850273E+05  3.627696E+05  4.208512E+05 -1.821940E+05 -6.626028E+04
       272  10  6.874878E+05  5.806228E+04  3.642778E+03  3.262412E+05  8.691882E-09  1.537594E-08
       272  11  6.579965E+05 -1.645214E+04  4.220588E+04  2.810948E+05  5.718972E-09 -2.685048E-09
       272  12  7.215585E+05  1.955174E+05  2.008454E+05  1.847908E+05 -3.071079E-09 -5.304374E-09
       272  13  9.560284E+05  1.391230E+05  7.205484E+04  3.790604E+05  6.611502E-10  4.300943E-09
       272  14  9.237091E+05  9.629078E+04  1.161258E+05  3.664976E+05  2.414320E-09 -1.003961E-08
       272  15  9.847786E+05  3.402507E+05  2.817759E+05  3.027902E+05  1.981447E-09  6.485585E-09
       272  16  1.224639E+06  2.201828E+05  1.404615E+05  4.318973E+05 -1.418509E-08 -1.180306E-08
       272  17  1.189489E+06  2.090428E+05  1.900388E+05  4.519350E+05 -2.354621E-09 -8.662400E-09
       272  18  1.248069E+06  4.850137E+05  3.626991E+05  4.208415E+05  5.743136E-09 -4.566593E-09
       272  19  6.874910E+05  5.806329E+04  3.648718E+03  3.262418E+05  5.453667E+04  1.381892E+04
       272  20  6.580115E+05 -1.644707E+04  4.223397E+04  2.810982E+05  1.168650E+05  3.619658E+04
       272  21  7.215932E+05  1.955303E+05  2.009120E+05  1.847999E+05  1.770298E+05  6.427127E+04
       272  22  9.560315E+05  1.391240E+05  7.206048E+04  3.790610E+05  5.321683E+04  1.331605E+04
       272  23  9.237242E+05  9.629591E+04  1.161542E+05  3.665011E+05  1.174958E+05  3.643880E+04
       272  24  9.848143E+05  3.402639E+05  2.818444E+05  3.027997E+05  1.796113E+05  6.526532E+04
       272  25  1.224642E+06  2.201837E+05  1.404669E+05  4.318978E+05  5.189635E+04  1.281306E+04
       272  26  1.189504E+06  2.090480E+05  1.900675E+05  4.519385E+05  1.181269E+05  3.668116E+04
       272  27  1.248106E+06  4.850273E+05  3.627696E+05  4.208512E+05  1.821940E+05  6.626028E+04
       273   1 -9.107366E+04 -9.653069E+05 -1.080011E+05  2.515664E+04 -8.378157E+02 -4.982280E+04
       273   2 -1.758278E+04 -9.393987E+05 -6.314259E+04  7.349667E+03 -2.785987E+03 -3.004285E+04
       273   3 -2.392977E+04 -9.358751E+05 -5.110744E+04  4.699672E+03 -2.228470E+03 -1.025335E+04
       273   4 -5.842123E+04 -8.351497E+05 -7.564069E+04  1.079461E+04 -8.406982E+02 -4.870359E+04
       273   5  1.118729E+04 -8.240252E+05 -3.494117E+04  3.322447E+03 -2.786547E+03 -2.982128E+04
       273   6  1.121637E+03 -8.351254E+05 -2.643628E+04  1.100768E+04 -2.226254E+03 -1.092995E+04
       273   7 -2.576931E+04 -7.049766E+05 -4.328147E+04 -3.570430E+03 -8.436325E+02 -4.758414E+04
       273   8  3.995643E+04 -7.086396E+05 -6.740714E+03 -7.055125E+02 -2.787111E+03 -2.959968E+04
       273   9  2.617245E+04 -7.343663E+05 -1.765842E+03  1.731672E+04 -2.224053E+03 -1.160665E+04
       273  10 -9.107433E+04 -9.653096E+05 -1.080057E+05  2.515660E+04 -3.552206E-10 -1.882712E-09
       273  11 -1.758304E+04 -9.393997E+05 -6.314431E+04  7.349599E+03 -4.145413E-09  5.132869E-09
       273  12 -2.392980E+04 -9.358752E+05 -5.110765E+04  4.699654E+03  5.586873E-10 -1.325468E-09
       273  13 -5.842187E+04 -8.351522E+05 -7.564516E+04  1.079457E+04  1.112725E-09  9.187170E-10
       273  14  1.118704E+04 -8.240262E+05 -3.494286E+04  3.322380E+03  4.791345E-10  5.899495E-09
       273  15  1.121600E+03 -8.351255E+05 -2.643652E+04  1.100766E+04  1.312827E-09 -4.858280E-09
       273  16 -2.576992E+04 -7.049791E+05 -4.328573E+04 -3.570463E+03  2.189600E-10  1.907504E-09
       273  17  3.995619E+04 -7.086405E+05 -6.742377E+03 -7.055790E+02  3.797142E-09  1.329603E-08
       273  18  2.617240E+04 -7.343664E+05 -1.766104E+03  1.731670E+04 -2.649368E-09  6.781549E-09
       273  19 -9.107366E+04 -9.653069E+05 -1.080011E+05  2.515664E+04  8.378157E+02  4.982280E+04
       273  20 -1.758278E+04 -9.393987E+05 -6.314259E+04  7.349667E+03  2.785987E+03  3.004285E+04
       273  21 -2.392977E+04 -9.358751E+05 -5.110744E+04  4.699672E+03  2.228470E+03  1.025335E+04
       273  22 -5.842123E+04 -8.351497E+05 -7.564069E+04  1.079461E+04  8.406982E+02  4.870359E+04
       273  23  1.118729E+04 -8.240252E+05 -3.494117E+04  3.322447E+03  2.786547E+03  2.982128E+04
       273  24  1.121637E+03 -8.351254E+05 -2.643628E+04  1.100768E+04  2.226254E+03  1.092995E+04
       273  25 -2.576931E+04 -7.049766E+05 -4.328147E+04 -3.570430E+03  8.436325E+02  4.758414E+04
       273  26  3.995643E+04 -7.086396E+05 -6.740714E+03 -7.055125E+02  2.787111E+03  2.959968E+04
       273  27  2.617245E+04 -7.343663E+05 -1.765842E+03  1.731672E+04  2.224053E+03  1.160665E+04
       274   1 -2.428685E+04 -9.012381E+05 -4.145430E+04  1.416681E+04 -1.539342E+03 -6.369638E+03
       274   2 -9.965164E+03 -8.822406E+05 -3.422731E+04  3.083363E+03 -1.277147E+03  4.570264E+03
       274   3 -2.071157E+04 -8.707999E+05 -4.036858E+04  7.854287E+03 -8.172269E+02  1.551100E+04
       274   4 -6.975266E+03 -8.318667E+05 -2.445526E+04  1.109076E+04 -1.539058E+03 -6.442040E+03
       274   5  3.523615E+03 -8.280957E+05 -2.097407E+04  3.157175E+03 -1.276665E+03  4.427651E+03
       274   6 -1.103224E+04 -8.318689E+05 -3.081151E+04  1.107796E+04 -8.164448E+02  1.529792E+04
       274   7  1.033600E+04 -7.624909E+05 -7.456579E+03  8.014366E+03 -1.538773E+03 -6.514451E+03
       274   8  1.701218E+04 -7.739481E+05 -7.721055E+03  3.230996E+03 -1.276184E+03  4.285025E+03
       274   9 -1.352984E+03 -7.929365E+05 -2.125454E+04  1.430183E+04 -8.156649E+02  1.508481E+04
       274  10 -2.428687E+04 -9.012382E+05 -4.145438E+04  1.416680E+04  1.678968E-09 -4.080384E-10
       274  11 -9.965171E+03 -8.822407E+05 -3.422735E+04  3.083367E+03 -1.512003E-09  8.440321E-09
       274  12 -2.071164E+04 -8.708002E+05 -4.036904E+04  7.854297E+03 -2.632374E-11 -8.882169E-09
       274  13 -6.975280E+03 -8.318668E+05 -2.445535E+04  1.109075E+04  5.371392E-10 -7.299064E-09
       274  14  3.523608E+03 -8.280957E+05 -2.097411E+04  3.157180E+03 -4.034302E-09 -9.698750E-10
       274  15 -1.103230E+04 -8.318692E+05 -3.081195E+04  1.107797E+04 -4.130197E-09 -3.168018E-09
       274  16  1.033599E+04 -7.624910E+05 -7.456663E+03  8.014358E+03 -1.406094E-09  1.366314E-09
       274  17  1.701217E+04 -7.739481E+05 -7.721092E+03  3.231001E+03 -2.561223E-09 -8.348482E-10
       274  18 -1.353046E+03 -7.929368E+05 -2.125497E+04  1.430184E+04 -2.759818E-09  7.835020E-09
       274  19 -2.428685E+04 -9.012381E+05 -4.145430E+04  1.416681E+04  1.539342E+03  6.369638E+03
       274  20 -9.965164E+03 -8.822406E+05 -3.422731E+04  3.083363E+03  1.277147E+03 -4.570264E+03
       274  21 -2.071157E+04 -8.707999E+05 -4.036858E+04  7.854287E+03  8.172269E+02 -1.551100E+04
       274  22 -6.975266E+03 -8.318667E+05 -2.445526E+04  1.109076E+04  1.539058E+03  6.442040E+03
       274  23  3.523615E+03 -8.280957E+05 -2.097407E+04  3.157175E+03  1.276665E+03 -4.427651E+03
       274  24 -1.103224E+04 -8.318689E+05 -3.081151E+04  1.107796E+04  8.164448E+02 -1.529792E+04
       274  25  1.033600E+04 -7.624909E+05 -7.456579E+03  8.014366E+03  1.538773E+03  6.514451E+03
       274  26  1.701218E+04 -7.739481E+05 -7.721055E+03  3.230996E+03  1.276184E+03 -4.285025E+03
       274  27 -1.352984E+03 -7.929365E+05 -2.125454E+04  1.430183E+04  8.156649E+02 -1.508481E+04
       275   1  1.188541E+03 -8.445113E+05 -3.701595E+04  2.097980E+04 -3.691930E+02  2.143839E+04
       275   2  1.897534E+04 -8.125471E+05 -4.905787E+04 -2.591333E+03  9.611139E+01  4.889998E+04
       275   3 -8.306795E+04 -8.139982E+05 -1.089234E+05 -1.040428E+04 -9.860168E+01  7.635992E+04
       275   4  2.979041E+03 -8.376182E+05 -3.534528E+04  1.117126E+04 -3.684951E+02  2.112002E+04
       275   5  1.684850E+04 -8.209076E+05 -5.109924E+04  3.141437E+03  9.682966E+01  4.881812E+04
       275   6 -8.915520E+04 -8.376554E+05 -1.148423E+05  1.086957E+04 -9.649191E+01  7.651389E+04
       275   7  4.769898E+03 -8.307249E+05 -3.367458E+04  1.362618E+03 -3.677872E+02  2.080166E+04
       275   8  1.472179E+04 -8.292681E+05 -5.314060E+04  8.874130E+03  9.754642E+01  4.873627E+04
       275   9 -9.524080E+04 -8.613111E+05 -1.207609E+05  3.214260E+04 -9.437150E+01  7.666786E+04
       275  10  1.188417E+03 -8.445118E+05 -3.701681E+04  2.097980E+04 -2.486507E-10 -1.100056E-08
       275  11  1.897469E+04 -8.125496E+05 -4.906237E+04 -2.591337E+03  1.341468E-09 -2.391644E-09
       275  12 -8.306951E+04 -8.140045E+05 -1.089344E+05 -1.040427E+04  2.040705E-11 -2.997151E-09
       275  13  2.978920E+03 -8.376187E+05 -3.534612E+04  1.117127E+04  8.179090E-10 -6.958867E-09
       275  14  1.684786E+04 -8.209102E+05 -5.110372E+04  3.141434E+03  3.078676E-09  1.384464E-09
       275  15 -8.915677E+04 -8.376617E+05 -1.148533E+05  1.086957E+04  2.261889E-09 -6.128709E-09
       275  16  4.769782E+03 -8.307254E+05 -3.367539E+04  1.362624E+03 -1.388581E-09  6.832709E-09
       275  17  1.472115E+04 -8.292706E+05 -5.314507E+04  8.874126E+03  6.913087E-09  1.376951E-08
       275  18 -9.524238E+04 -8.613175E+05 -1.207720E+05  3.214260E+04  5.418769E-10  3.483570E-09
       275  19  1.188541E+03 -8.445113E+05 -3.701595E+04  2.097980E+04  3.691930E+02 -2.143839E+04
       275  20  1.897534E+04 -8.125471E+05 -4.905787E+04 -2.591333E+03 -9.611139E+01 -4.889998E+04
       275  21 -8.306795E+04 -8.139982E+05 -1.089234E+05 -1.040428E+04  9.860168E+01 -7.635992E+04
       275  22  2.979041E+03 -8.376182E+05 -3.534528E+04  1.117126E+04  3.684951E+02 -2.112002E+04
       275  23  1.684850E+04 -8.209076E+05 -5.109924E+04  3.141437E+03 -9.682966E+01 -4.881812E+04
       275  24 -8.915520E+04 -8.376554E+05 -1.148423E+05  1.086957E+04  9.649191E+01 -7.651389E+04
       275  25  4.769898E+03 -8.307249E+05 -3.367458E+04  1.362618E+03  3.677872E+02 -2.080166E+04
       275  26  1.472179E+04 -8.292681E+05 -5.314060E+04  8.874130E+03 -9.754642E+01 -4.873627E+04
       275  27 -9.524080E+04 -8.613111E+05 -1.207609E+05  3.214260E+04  9.437150E+01 -7.666786E+04
       276   1  3.860607E+05 -1.057098E+04  1.013220E+04  1.752435E+03  5.957448E+04  2.071314E+03
       276   2  3.904119E+05 -8.979446E+04 -3.590645E+04  5.412927E+03  3.984333E+04  5.775362E+03
       276   3  4.216486E+05 -7.353188E+04 -4.514266E+04 -1.617895E+04  2.011763E+04  4.769951E+03
       276   4  7.055943E+05  6.914792E+04  8.961654E+04 -1.023743E+04  6.120424E+04  2.072579E+03
       276   5  6.920607E+05 -1.463217E+04  3.847429E+04  2.441971E+03  4.021957E+04  5.775431E+03
       276   6  7.056162E+05 -2.733896E+03  2.499081E+04 -1.013001E+04  1.924094E+04  4.769255E+03
       276   7  1.025221E+06  1.488597E+05  1.690933E+05 -2.223350E+04  6.283484E+04  2.073781E+03
       276   8  9.937922E+05  6.052338E+04  1.128483E+05 -5.304537E+02  4.059598E+04  5.775497E+03
       276   9  9.896572E+05  6.805821E+04  9.511834E+04 -4.078319E+03  1.836384E+04  4.768543E+03
       276  10  3.860569E+05 -1.057193E+04  1.012552E+04  1.752336E+03 -1.677370E-10 -1.913438E-11
       276  11  3.904102E+05 -8.979492E+04 -3.590949E+04  5.412742E+03  5.681316E-10  6.614619E-11
       276  12  4.216481E+05 -7.353202E+04 -4.514347E+04 -1.617903E+04 -7.340348E-10  2.707154E-10
       276  13  7.055902E+05  6.914691E+04  8.960950E+04 -1.023753E+04  5.218260E-10  2.854192E-13
       276  14  6.920590E+05 -1.463264E+04  3.847119E+04  2.441784E+03 -1.906553E-10  3.458277E-11
       276  15  7.056158E+05 -2.734020E+03  2.499008E+04 -1.013009E+04 -3.187992E-10  1.145617E-10
       276  16  1.025216E+06  1.488586E+05  1.690859E+05 -2.223361E+04 -4.531233E-10  1.057229E-11
       276  17  9.937904E+05  6.052290E+04  1.128452E+05 -5.306425E+02 -8.816692E-10  3.834403E-11
       276  18  9.896568E+05  6.805810E+04  9.511766E+04 -4.078389E+03  1.832716E-10 -4.901518E-13
       276  19  3.860607E+05 -1.057098E+04  1.013220E+04  1.752435E+03 -5.957448E+04 -2.071314E+03
       276  20  3.904119E+05 -8.979446E+04 -3.590645E+04  5.412927E+03 -3.984333E+04 -5.775362E+03
       276  21  4.216486E+05 -7.353188E+04 -4.514266E+04 -1.617895E+04 -2.011763E+04 -4.769951E+03
       276  22  7.055943E+05  6.914792E+04  8.961654E+04 -1.023743E+04 -6.120424E+04 -2.072579E+03
       276  23  6.920607E+05 -1.463217E+04  3.847429E+04  2.441971E+03 -4.021957E+04 -5.775431E+03
       276  24  7.056162E+05 -2.733896E+03  2.499081E+04 -1.013001E+04 -1.924094E+04 -4.769255E+03
       276  25  1.025221E+06  1.488597E+05  1.690933E+05 -2.223350E+04 -6.283484E+04 -2.073781E+03
       276  26  9.937922E+05  6.052338E+04  1.128483E+05 -5.304537E+02 -4.059598E+04 -5.775497E+03
       276  27  9.896572E+05  6.805821E+04  9.511834E+04 -4.078319E+03 -1.836384E+04 -4.768543E+03
       277   1  4.729054E+05 -4.712135E+04 -3.562730E+04 -8.096948E+03  1.509203E+04  3.695400E+03
       277   2  4.867840E+05 -5.480748E+04 -4.223598E+04  2.076601E+03  1.002220E+04  3.671050E+03
       277   3  5.048657E+05 -4.915251E+04 -4.216812E+04 -1.046586E+04  4.952231E+03  3.074081E+03
       277   4  7.005393E+05  9.621212E+03  2.061045E+04 -9.603963E+03  1.516587E+04  3.695325E+03
       277   5  6.984269E+05 -2.057325E+03  1.001008E+04  1.757036E+03  9.943066E+03  3.670929E+03
       277   6  7.005424E+05 -3.707148E+02  6.190654E+03 -9.597457E+03  4.720265E+03  3.073980E+03
       277   7  9.282202E+05  6.635991E+04  7.684437E+04 -1.111154E+04  1.523973E+04  3.695250E+03
       277   8  9.101105E+05  5.068949E+04  6.225282E+04  1.437357E+03  9.863908E+03  3.670808E+03
       277   9  8.962538E+05  4.840823E+04  5.454659E+04 -8.728787E+03  4.488225E+03  3.073878E+03
       277  10  4.729051E+05 -4.712142E+04 -3.562776E+04 -8.096993E+03 -1.935839E-09  1.345414E-10
       277  11  4.867839E+05 -5.480752E+04 -4.223620E+04  2.076571E+03 -4.830631E-11 -1.964990E-10
       277  12  5.048656E+05 -4.915253E+04 -4.216818E+04 -1.046587E+04  1.567902E-09 -1.236588E-10
       277  13  7.005390E+05  9.621136E+03  2.061000E+04 -9.604008E+03 -2.379556E-10  1.784033E-10
       277  14  6.984268E+05 -2.057366E+03  1.000987E+04  1.757006E+03 -3.134450E-11 -3.590990E-10
       277  15  7.005423E+05 -3.707309E+02  6.190595E+03 -9.597469E+03  4.849240E-10 -6.584224E-11
       277  16  9.282200E+05  6.635984E+04  7.684391E+04 -1.111158E+04  1.897173E-09 -2.612553E-11
       277  17  9.101104E+05  5.068945E+04  6.225261E+04  1.437328E+03 -2.624017E-10 -2.248226E-11
       277  18  8.962538E+05  4.840821E+04  5.454653E+04 -8.728798E+03 -1.302690E-09  1.994255E-10
       277  19  4.729054E+05 -4.712135E+04 -3.562730E+04 -8.096948E+03 -1.509203E+04 -3.695400E+03
       277  20  4.867840E+05 -5.480748E+04 -4.223598E+04  2.076601E+03 -1.002220E+04 -3.671050E+03
       277  21  5.048657E+05 -4.915251E+04 -4.216812E+04 -1.046586E+04 -4.952231E+03 -3.074081E+03
       277  22  7.005393E+05  9.621212E+03  2.061045E+04 -9.603963E+03 -1.516587E+04 -3.695325E+03
       277  23  6.984269E+05 -2.057325E+03  1.001008E+04  1.757036E+03 -9.943066E+03 -3.670929E+03
       277  24  7.005424E+05 -3.707148E+02  6.190654E+03 -9.597457E+03 -4.720265E+03 -3.073980E+03
       277  25  9.282202E+05  6.635991E+04  7.684437E+04 -1.111154E+04 -1.523973E+04 -3.695250E+03
       277  26  9.101105E+05  5.068949E+04  6.225282E+04  1.437357E+03 -9.863908E+03 -3.670808E+03
       277  27  8.962538E+05  4.840823E+04  5.454659E+04 -8.728787E+03 -4.488225E+03 -3.073878E+03
       278   1  5.556247E+05 -3.459594E+04 -3.060889E+04 -9.043608E+03  3.833438E+03  2.667432E+03
       278   2  5.700918E+05 -3.252278E+04 -2.928069E+04  1.345790E+03  2.500227E+03  2.201884E+03
       278   3  5.852646E+05 -2.858174E+04 -2.660486E+04 -9.336308E+03  1.166784E+03  1.683349E+03
       278   4  6.997652E+05  1.322638E+03  4.942946E+03 -9.234036E+03  3.718047E+03  2.667381E+03
       278   5  6.994112E+05 -2.911380E+02  2.648138E+03  1.301623E+03  2.370558E+03  2.201862E+03
       278   6  6.997653E+05 -3.471020E+01  1.710699E+03 -9.233939E+03  1.022869E+03  1.683360E+03
       278   7  8.439246E+05  3.723967E+04  4.049324E+04 -9.424507E+03  3.602629E+03  2.667331E+03
       278   8  8.287458E+05  3.193926E+04  3.457572E+04  1.257447E+03  2.240862E+03  2.201839E+03
       278   9  8.142779E+05  2.851134E+04  3.002529E+04 -9.131551E+03  8.789266E+02  1.683370E+03
       278  10  5.556247E+05 -3.459595E+04 -3.060893E+04 -9.043617E+03 -4.750439E-10 -1.300217E-10
       278  11  5.700918E+05 -3.252279E+04 -2.928071E+04  1.345785E+03 -3.547212E-10  2.372551E-10
       278  12  5.852646E+05 -2.858174E+04 -2.660487E+04 -9.336310E+03  3.325985E-10 -6.237617E-11
       278  13  6.997652E+05  1.322627E+03  4.942907E+03 -9.234044E+03  2.871863E-10  1.243446E-10
       278  14  6.994112E+05 -2.911447E+02  2.648119E+03  1.301619E+03 -2.501603E-10  2.728880E-10
       278  15  6.997653E+05 -3.471353E+01  1.710692E+03 -9.233940E+03 -4.202662E-11 -1.651180E-10
       278  16  8.439246E+05  3.723966E+04  4.049321E+04 -9.424515E+03 -3.045573E-10  2.091650E-10
       278  17  8.287457E+05  3.193925E+04  3.457570E+04  1.257444E+03  1.055249E-09  1.256431E-10
       278  18  8.142779E+05  2.851134E+04  3.002528E+04 -9.131552E+03 -4.717700E-10 -1.988037E-10
       278  19  5.556247E+05 -3.459594E+04 -3.060889E+04 -9.043608E+03 -3.833438E+03 -2.667432E+03
       278  20  5.700918E+05 -3.252278E+04 -2.928069E+04  1.345790E+03 -2.500227E+03 -2.201884E+03
       278  21  5.852646E+05 -2.858174E+04 -2.660486E+04 -9.336308E+03 -1.166784E+03 -1.683349E+03
       278  22  6.997652E+05  1.322638E+03  4.942946E+03 -9.234036E+03 -3.718047E+03 -2.667381E+03
       278  23  6.994112E+05 -2.911380E+02  2.648138E+03  1.301623E+03 -2.370558E+03 -2.201862E+03
       278  24  6.997653E+05 -3.471020E+01  1.710699E+03 -9.233939E+03 -1.022869E+03 -1.683360E+03
       278  25  8.439246E+05  3.723967E+04  4.049324E+04 -9.424507E+03 -3.602629E+03 -2.667331E+03
       278  26  8.287458E+05  3.193926E+04  3.457572E+04  1.257447E+03 -2.240862E+03 -2.201839E+03
       278  27  8.142779E+05  2.851134E+04  3.002529E+04 -9.131551E+03 -8.789266E+02 -1.683370E+03
       279   1  6.337314E+05 -1.623941E+04 -1.479867E+04 -8.999832E+03  8.708219E+02  1.376842E+03
       279   2  6.478594E+05 -1.294225E+04 -1.169096E+04  1.076100E+03  3.317575E+02  8.774126E+02
       279   3  6.621419E+05 -9.288543E+03 -8.144497E+03 -9.051166E+03 -2.074143E+02  3.794580E+02
       279   4  6.996450E+05  1.795411E+02  1.430907E+03 -9.041008E+03  7.386889E+02  1.376868E+03
       279   5  6.995678E+05 -5.491227E+01  1.075703E+03  1.060526E+03  1.999649E+02  8.774500E+02
       279   6  6.996447E+05  6.706174E+01  1.158952E+03 -9.041031E+03 -3.388543E+02  3.795073E+02
       279   7  7.655625E+05  1.659817E+04  1.766017E+04 -9.082187E+03  6.065419E+02  1.376894E+03
       279   8  7.512787E+05  1.283223E+04  1.384217E+04  1.044952E+03  6.816129E+01  8.774873E+02
       279   9  7.371489E+05  9.422561E+03  1.046230E+04 -9.030896E+03 -4.703022E+02  3.795565E+02
       279  10  6.337314E+05 -1.623941E+04 -1.479868E+04 -8.999833E+03  5.723408E-10 -1.688100E-10
       279  11  6.478594E+05 -1.294225E+04 -1.169097E+04  1.076099E+03  4.505687E-10  1.698581E-10
       279  12  6.621419E+05 -9.288543E+03 -8.144497E+03 -9.051166E+03  4.091057E-10  5.425171E-11
       279  13  6.996450E+05  1.795390E+02  1.430903E+03 -9.041008E+03 -4.902574E-10 -2.281615E-10
       279  14  6.995678E+05 -5.491311E+01  1.075702E+03  1.060526E+03 -8.349806E-11  9.973470E-11
       279  15  6.996447E+05  6.706155E+01  1.158951E+03 -9.041031E+03  5.007875E-10 -4.926190E-12
       279  16  7.655625E+05  1.659817E+04  1.766016E+04 -9.082188E+03 -6.762590E-10 -1.110383E-11
       279  17  7.512787E+05  1.283223E+04  1.384217E+04  1.044952E+03  2.612502E-11  1.293189E-10
       279  18  7.371489E+05  9.422561E+03  1.046229E+04 -9.030896E+03 -5.606349E-10  5.247638E-11
       279  19  6.337314E+05 -1.623941E+04 -1.479867E+04 -8.999832E+03 -8.708219E+02 -1.376842E+03
       279  20  6.478594E+05 -1.294225E+04 -1.169096E+04  1.076100E+03 -3.317575E+02 -8.774126E+02
       279  21  6.621419E+05 -9.288543E+03 -8.144497E+03 -9.051166E+03  2.074143E+02 -3.794580E+02
       279  22  6.996450E+05  1.795411E+02  1.430907E+03 -9.041008E+03 -7.386889E+02 -1.376868E+03
       279  23  6.995678E+05 -5.491227E+01  1.075703E+03  1.060526E+03 -1.999649E+02 -8.774500E+02
       279  24  6.996447E+05  6.706174E+01  1.158952E+03 -9.041031E+03  3.388543E+02 -3.795073E+02
       279  25  7.655625E+05  1.659817E+04  1.766017E+04 -9.082187E+03 -6.065419E+02 -1.376894E+03
       279  26  7.512787E+05  1.283223E+04  1.384217E+04  1.044952E+03 -6.816129E+01 -8.774873E+02
       279  27  7.371489E+05  9.422561E+03  1.046230E+04 -9.030896E+03  4.703022E+02 -3.795565E+02
       280   1  7.095820E+05  2.490717E+03  3.797102E+03 -8.963842E+03 -4.302649E+02  8.953376E+01
       280   2  7.235482E+05  5.872351E+03  7.831423E+03  1.012003E+03 -1.385609E+03 -4.075729E+02
       280   3  7.378080E+05  9.993335E+03  1.266873E+04 -9.081125E+03 -2.340935E+03 -9.016639E+02
       280   4  6.996761E+05  1.314739E+01  1.307207E+03 -9.011291E+03 -5.620973E+02  8.958597E+01
       280   5  6.995293E+05 -1.136153E+02  1.901578E+03  1.023302E+03 -1.516614E+03 -4.075268E+02
       280   6  6.996758E+05  4.988655E+02  3.298405E+03 -9.011125E+03 -2.471090E+03 -9.016234E+02
       280   7  6.897703E+05 -2.464430E+03 -1.182695E+03 -9.058738E+03 -6.939277E+02  8.963819E+01
       280   8  6.755109E+05 -6.099624E+03 -4.028310E+03  1.034601E+03 -1.647613E+03 -4.074807E+02
       280   9  6.615450E+05 -8.995712E+03 -6.072027E+03 -8.941129E+03 -2.601237E+03 -9.015829E+02
       280  10  7.095820E+05  2.490717E+03  3.797101E+03 -8.963842E+03 -6.915714E-11 -2.086517E-10
       280  11  7.235482E+05  5.872350E+03  7.831419E+03  1.012003E+03  1.736259E-11  1.099630E-10
       280  12  7.378080E+05  9.993333E+03  1.266872E+04 -9.081126E+03  2.375230E-10 -9.221338E-11
       280  13  6.996761E+05  1.314729E+01  1.307207E+03 -9.011291E+03 -7.998127E-11  9.454231E-11
       280  14  6.995293E+05 -1.136161E+02  1.901573E+03  1.023302E+03  4.661736E-10  2.283374E-11
       280  15  6.996758E+05  4.988630E+02  3.298392E+03 -9.011126E+03  4.058987E-10  1.271585E-10
       280  16  6.897703E+05 -2.464430E+03 -1.182696E+03 -9.058738E+03  2.529023E-10 -1.340987E-10
       280  17  6.755109E+05 -6.099625E+03 -4.028315E+03  1.034601E+03  1.118435E-09  1.273431E-10
       280  18  6.615449E+05 -8.995715E+03 -6.072041E+03 -8.941131E+03 -5.865165E-11 -2.506751E-11
       280  19  7.095820E+05  2.490717E+03  3.797102E+03 -8.963842E+03  4.302649E+02 -8.953376E+01
       280  20  7.235482E+05  5.872351E+03  7.831423E+03  1.012003E+03  1.385609E+03  4.075729E+02
       280  21  7.378080E+05  9.993335E+03  1.266873E+04 -9.081125E+03  2.340935E+03  9.016639E+02
       280  22  6.996761E+05  1.314739E+01  1.307207E+03 -9.011291E+03  5.620973E+02 -8.958597E+01
       280  23  6.995293E+05 -1.136153E+02  1.901578E+03  1.023302E+03  1.516614E+03  4.075268E+02
       280  24  6.996758E+05  4.988655E+02  3.298405E+03 -9.011125E+03  2.471090E+03  9.016234E+02
       280  25  6.897703E+05 -2.464430E+03 -1.182695E+03 -9.058738E+03  6.939277E+02 -8.963819E+01
       280  26  6.755109E+05 -6.099624E+03 -4.028310E+03  1.034601E+03  1.647613E+03  4.074807E+02
       280  27  6.615450E+05 -8.995712E+03 -6.072027E+03 -8.941129E+03  2.601237E+03  9.015829E+02
       281   1  7.860937E+05  2.134012E+04  2.548975E+04 -8.831669E+03 -3.005836E+03 -1.203014E+03
       281   2  7.997476E+05  2.429586E+04  3.179579E+04  1.070529E+03 -6.560002E+03 -1.713303E+03
       281   3  8.151630E+05  3.232138E+04  4.168735E+04 -9.696990E+03 -1.011403E+04 -2.173212E+03
       281   4  6.999999E+05 -1.239225E+02  4.191092E+03 -9.144922E+03 -3.147279E+03 -1.202981E+03
       281   5  6.991193E+05 -7.813465E+02  6.954443E+03  1.190196E+03 -6.687621E+03 -1.713300E+03
       281   6  6.999981E+05  3.629168E+03  1.329425E+04 -9.144610E+03 -1.022775E+04 -2.173238E+03
       281   7  6.139128E+05 -2.158851E+04 -1.710811E+04 -9.458131E+03 -3.288702E+03 -1.202947E+03
       281   8  5.985001E+05 -2.585930E+04 -1.788765E+04  1.309843E+03 -6.815220E+03 -1.713296E+03
       281   9  5.848453E+05 -2.506403E+04 -1.509983E+04 -8.592332E+03 -1.034144E+04 -2.173265E+03
       281  10  7.860937E+05  2.134011E+04  2.548973E+04 -8.831672E+03  2.383791E-10  2.005009E-11
       281  11  7.997476E+05  2.429584E+04  3.179570E+04  1.070520E+03  2.247675E-10  1.746479E-10
       281  12  8.151628E+05  3.232135E+04  4.168715E+04 -9.697008E+03  3.488949E-10  6.392475E-12
       281  13  6.999999E+05 -1.239267E+02  4.191071E+03 -9.144925E+03  6.303810E-11 -1.081707E-10
       281  14  6.991192E+05 -7.813617E+02  6.954354E+03  1.190187E+03  3.765343E-10 -6.391400E-11
       281  15  6.999980E+05  3.629135E+03  1.329404E+04 -9.144628E+03  1.120904E-09  1.747516E-11
       281  16  6.139128E+05 -2.158852E+04 -1.710814E+04 -9.458134E+03  7.004244E-11 -5.353819E-11
       281  17  5.985001E+05 -2.585932E+04 -1.788774E+04  1.309834E+03  6.934363E-11 -4.362799E-11
       281  18  5.848452E+05 -2.506406E+04 -1.510004E+04 -8.592350E+03 -1.792488E-10  1.483471E-10
       281  19  7.860937E+05  2.134012E+04  2.548975E+04 -8.831669E+03  3.005836E+03  1.203014E+03
       281  20  7.997476E+05  2.429586E+04  3.179579E+04  1.070529E+03  6.560002E+03  1.713303E+03
       281  21  8.151630E+05  3.232138E+04  4.168735E+04 -9.696990E+03  1.011403E+04  2.173212E+03
       281  22  6.999999E+05 -1.239225E+02  4.191092E+03 -9.144922E+03  3.147279E+03  1.202981E+03
       281  23  6.991193E+05 -7.813465E+02  6.954443E+03  1.190196E+03  6.687621E+03  1.713300E+03
       281  24  6.999981E+05  3.629168E+03  1.329425E+04 -9.144610E+03  1.022775E+04  2.173238E+03
       281  25  6.139128E+05 -2.158851E+04 -1.710811E+04 -9.458131E+03  3.288702E+03  1.202947E+03
       281  26  5.985001E+05 -2.585930E+04 -1.788765E+04  1.309843E+03  6.815220E+03  1.713296E+03
       281  27  5.848453E+05 -2.506403E+04 -1.509983E+04 -8.592332E+03  1.034144E+04  2.173265E+03
       282   1  8.674915E+05  4.022613E+04  5.758607E+04 -7.149663E+03 -1.270717E+04 -2.562794E+03
       282   2  8.774352E+05  3.950245E+04  7.183386E+04  5.311927E+02 -2.702520E+04 -3.143175E+03
       282   3  8.984834E+05  7.517744E+04  1.045232E+05 -1.381726E+04 -4.134380E+04 -3.210811E+03
       282   4  7.020676E+05 -1.005671E+03  1.670704E+04 -9.443850E+03 -1.292568E+04 -2.562795E+03
       282   5  6.965206E+05 -5.578035E+03  2.718479E+04  1.565358E+03 -2.710457E+04 -3.143298E+03
       282   6  7.020569E+05  2.622988E+04  5.601148E+04 -9.455009E+03 -4.128368E+04 -3.211143E+03
       282   7  5.366685E+05 -4.223949E+04 -2.417402E+04 -1.173742E+04 -1.314413E+04 -2.562795E+03
       282   8  5.156356E+05 -5.066096E+04 -1.746670E+04  2.599220E+03 -2.718392E+04 -3.143422E+03
       282   9  5.056655E+05 -2.272048E+04  7.496900E+03 -5.094143E+03 -4.122357E+04 -3.211475E+03
       282  10  8.674913E+05  4.022608E+04  5.758576E+04 -7.149689E+03  6.261439E-11 -2.604645E-10
       282  11  8.774344E+05  3.950225E+04  7.183247E+04  5.311243E+02 -1.184811E-10 -2.481393E-10
       282  12  8.984816E+05  7.517697E+04  1.045200E+05 -1.381737E+04 -3.028363E-10  2.112748E-10
       282  13  7.020674E+05 -1.005723E+03  1.670671E+04 -9.443876E+03  1.267260E-09 -9.057907E-11
       282  14  6.965198E+05 -5.578243E+03  2.718339E+04  1.565289E+03 -3.058217E-10 -1.783510E-10
       282  15  7.020551E+05  2.622941E+04  5.600826E+04 -9.455116E+03 -4.486211E-11  6.642647E-11
       282  16  5.366683E+05 -4.223954E+04 -2.417436E+04 -1.173745E+04 -2.574205E-10 -1.135010E-10
       282  17  5.156349E+05 -5.066117E+04 -1.746810E+04  2.599151E+03  6.654286E-10 -5.047789E-10
       282  18  5.056637E+05 -2.272094E+04  7.493689E+03 -5.094250E+03 -3.782589E-11  5.975491E-11
       282  19  8.674915E+05  4.022613E+04  5.758607E+04 -7.149663E+03  1.270717E+04  2.562794E+03
       282  20  8.774352E+05  3.950245E+04  7.183386E+04  5.311927E+02  2.702520E+04  3.143175E+03
       282  21  8.984834E+05  7.517744E+04  1.045232E+05 -1.381726E+04  4.134380E+04  3.210811E+03
       282  22  7.020676E+05 -1.005671E+03  1.670704E+04 -9.443850E+03  1.292568E+04  2.562795E+03
       282  23  6.965206E+05 -5.578035E+03  2.718479E+04  1.565358E+03  2.710457E+04  3.143298E+03
       282  24  7.020569E+05  2.622988E+04  5.601148E+04 -9.455009E+03  4.128368E+04  3.211143E+03
       282  25  5.366685E+05 -4.223949E+04 -2.417402E+04 -1.173742E+04  1.314413E+04  2.562795E+03
       282  26  5.156356E+05 -5.066096E+04 -1.746670E+04  2.599220E+03  2.718392E+04  3.143422E+03
       282  27  5.056655E+05 -2.272048E+04  7.496900E+03 -5.094143E+03  4.122357E+04  3.211475E+03
       283   1  9.665231E+05  5.510845E+04  1.298241E+05  6.177928E+03 -5.156369E+04 -4.205153E+03
       283   2  9.471328E+05  2.694468E+04  1.706988E+05 -6.466233E+03 -1.097586E+05 -5.184379E+03
       283   3  1.000711E+06  2.591129E+05  3.145780E+05 -4.350526E+04 -1.679586E+05 -1.955512E+03
       283   4  7.157815E+05 -7.398479E+03  6.791232E+04 -9.904086E+03 -5.235443E+04 -4.204398E+03
       283   5  6.793512E+05 -3.974620E+04  1.046957E+05  2.179818E+03 -1.094166E+05 -5.185769E+03
       283   6  7.157237E+05  1.880993E+05  2.437294E+05 -1.012986E+04 -1.664820E+05 -1.962880E+03
       283   7  4.650975E+05 -6.990913E+04  5.995986E+03 -2.597961E+04 -5.314485E+04 -4.203601E+03
       283   8  4.116349E+05 -1.064421E+05  3.868726E+04  1.082212E+04 -1.090746E+05 -5.187149E+03
       283   9  4.308119E+05  1.170839E+05  1.728753E+05  2.323020E+04 -1.650062E+05 -1.970093E+03
       283  10  9.665202E+05  5.510772E+04  1.298191E+05  6.177753E+03  4.230364E-10  3.965266E-10
       283  11  9.471198E+05  2.694143E+04  1.706761E+05 -6.466691E+03  1.254479E-09 -1.273524E-10
       283  12  1.000681E+06  2.591053E+05  3.145251E+05 -4.350552E+04  1.367131E-10 -2.208540E-10
       283  13  7.157786E+05 -7.399233E+03  6.790714E+04 -9.904264E+03 -2.694436E-10  1.919061E-10
       283  14  6.793383E+05 -3.974944E+04  1.046731E+05  2.179361E+03  2.709284E-10 -3.434009E-10
       283  15  7.156939E+05  1.880919E+05  2.436773E+05 -1.013013E+04 -1.087162E-09 -8.844840E-11
       283  16  4.650945E+05 -6.990991E+04  5.990650E+03 -2.597979E+04 -4.866187E-10  6.583918E-11
       283  17  4.116221E+05 -1.064454E+05  3.866487E+04  1.082167E+04 -4.163667E-10  1.011933E-10
       283  18  4.307827E+05  1.170766E+05  1.728242E+05  2.322994E+04  5.163799E-10 -1.487199E-10
       283  19  9.665231E+05  5.510845E+04  1.298241E+05  6.177928E+03  5.156369E+04  4.205153E+03
       283  20  9.471328E+05  2.694468E+04  1.706988E+05 -6.466233E+03  1.097586E+05  5.184379E+03
       283  21  1.000711E+06  2.591129E+05  3.145780E+05 -4.350526E+04  1.679586E+05  1.955512E+03
       283  22  7.157815E+05 -7.398479E+03  6.791232E+04 -9.904086E+03  5.235443E+04  4.204398E+03
       283  23  6.793512E+05 -3.974620E+04  1.046957E+05  2.179818E+03  1.094166E+05  5.185769E+03
       283  24  7.157237E+05  1.880993E+05  2.437294E+05 -1.012986E+04  1.664820E+05  1.962880E+03
       283  25  4.650975E+05 -6.990913E+04  5.995986E+03 -2.597961E+04  5.314485E+04  4.203601E+03
       283  26  4.116349E+05 -1.064421E+05  3.868726E+04  1.082212E+04  1.090746E+05  5.187149E+03
       283  27  4.308119E+05  1.170839E+05  1.728753E+05  2.323020E+04  1.650062E+05  1.970093E+03
       284   1  1.187384E+05  9.011164E+05  1.383631E+05 -3.472233E+04  1.127651E+03  6.250911E+04
       284   2  2.729092E+04  8.541174E+05  7.825428E+04 -1.774773E+03  3.196346E+03  4.134453E+04
       284   3  2.994270E+04  8.332672E+05  5.541299E+04 -1.691714E+04  1.828860E+03  2.017399E+04
       284   4  6.851562E+04  7.000872E+05  8.835478E+04 -2.228820E+04  1.130675E+03  6.150593E+04
       284   5 -1.433156E+04  6.870990E+05  3.709626E+04  1.692860E+03  3.196790E+03  4.125541E+04
       284   6 -3.224047E+03  7.001090E+05  2.247998E+04 -2.241629E+04  1.826928E+03  2.099776E+04
       284   7  1.829042E+04  4.990949E+05  3.834354E+04 -9.858081E+03  1.133660E+03  6.050307E+04
       284   8 -5.595606E+04  5.201060E+05 -4.063818E+03  5.159571E+03  3.197232E+03  4.116631E+04
       284   9 -3.639200E+04  5.669670E+05 -1.045432E+04 -2.791424E+04  1.824980E+03  2.182135E+04
       284  10  1.187373E+05  9.011122E+05  1.383558E+05 -3.472239E+04  1.283021E-10 -2.634100E-10
       284  11  2.729045E+04  8.541156E+05  7.825105E+04 -1.774879E+03 -6.816366E-10  2.821368E-11
       284  12  2.994259E+04  8.332668E+05  5.541222E+04 -1.691717E+04  6.841254E-10  3.261336E-10
       284  13  6.851460E+04  7.000832E+05  8.834768E+04 -2.228826E+04  5.187511E-10 -8.909454E-11
       284  14 -1.433202E+04  6.870972E+05  3.709304E+04  1.692753E+03 -2.197167E-09  3.446090E-10
       284  15 -3.224169E+03  7.001085E+05  2.247915E+04 -2.241632E+04  1.073129E-10  4.863588E-11
       284  16  1.828943E+04  4.990910E+05  3.833666E+04 -9.858136E+03 -4.108950E-10  2.094899E-10
       284  17 -5.595653E+04  5.201042E+05 -4.067020E+03  5.159465E+03 -6.673572E-10  4.589273E-11
       284  18 -3.639213E+04  5.669664E+05 -1.045522E+04 -2.791427E+04  2.956372E-10 -4.062258E-10
       284  19  1.187384E+05  9.011164E+05  1.383631E+05 -3.472233E+04 -1.127651E+03 -6.250911E+04
       284  20  2.729092E+04  8.541174E+05  7.825428E+04 -1.774773E+03 -3.196346E+03 -4.134453E+04
       284  21  2.994270E+04  8.332672E+05  5.541299E+04 -1.691714E+04 -1.828860E+03 -2.017399E+04
       284  22  6.851562E+04  7.000872E+05  8.835478E+04 -2.228820E+04 -1.130675E+03 -6.150593E+04
       284  23 -1.433156E+04  6.870990E+05  3.709626E+04  1.692860E+03 -3.196790E+03 -4.125541E+04
       284  24 -3.224047E+03  7.001090E+05  2.247998E+04 -2.241629E+04 -1.826928E+03 -2.099776E+04
       284  25  1.829042E+04  4.990949E+05  3.834354E+04 -9.858081E+03 -1.133660E+03 -6.050307E+04
       284  26 -5.595606E+04  5.201060E+05 -4.063818E+03  5.159571E+03 -3.197232E+03 -4.116631E+04
       284  27 -3.639200E+04  5.669670E+05 -1.045432E+04 -2.791424E+04 -1.824980E+03 -2.182135E+04
       285   1  1.489664E+04  7.151596E+05  2.250102E+04 -2.345960E+04  5.372082E+02  1.720899E+04
       285   2 -4.297930E+03  6.808204E+05  1.877550E+03  9.565737E+02 -2.579272E+02  1.456543E+04
       285   3 -1.641801E+04  6.483378E+05 -1.531060E+04 -2.211204E+04 -1.009009E+03  1.192215E+04
       285   4  9.809767E+03  6.947439E+05  1.749865E+04 -2.221909E+04  5.367639E+02  1.742638E+04
       285   5 -1.061771E+03  6.938182E+05  5.085026E+03  1.507298E+03 -2.583603E+02  1.477144E+04
       285   6 -4.856637E+03  6.947506E+05 -3.884840E+03 -2.225100E+04 -1.009428E+03  1.211665E+04
       285   7  4.722868E+03  6.743285E+05  1.249625E+04 -2.097863E+04  5.363205E+02  1.764376E+04
       285   8  2.174377E+03  7.068162E+05  8.292491E+03  2.058033E+03 -2.587931E+02  1.497746E+04
       285   9  6.704578E+03  7.411654E+05  7.540763E+03 -2.238996E+04 -1.009848E+03  1.231116E+04
       285  10  1.489656E+04  7.151593E+05  2.250046E+04 -2.345960E+04  3.806432E-14 -3.460619E-10
       285  11 -4.297987E+03  6.808202E+05  1.877151E+03  9.565767E+02  4.743527E-10 -1.423477E-10
       285  12 -1.641805E+04  6.483377E+05 -1.531087E+04 -2.211203E+04 -7.016936E-10  3.624492E-10
       285  13  9.809685E+03  6.947435E+05  1.749808E+04 -2.221910E+04 -9.576053E-11  5.959595E-11
       285  14 -1.061829E+03  6.938180E+05  5.084617E+03  1.507301E+03  7.980805E-10 -1.873983E-10
       285  15 -4.856677E+03  6.947505E+05 -3.885118E+03 -2.225099E+04  1.592650E-09 -1.773543E-10
       285  16  4.722784E+03  6.743282E+05  1.249567E+04 -2.097864E+04  2.229492E-10  3.462053E-10
       285  17  2.174317E+03  7.068160E+05  8.292070E+03  2.058037E+03 -1.578404E-09  1.963878E-10
       285  18  6.704537E+03  7.411652E+05  7.540476E+03 -2.238995E+04 -2.399697E-10 -3.018610E-10
       285  19  1.489664E+04  7.151596E+05  2.250102E+04 -2.345960E+04 -5.372082E+02 -1.720899E+04
       285  20 -4.297930E+03  6.808204E+05  1.877550E+03  9.565737E+02  2.579272E+02 -1.456543E+04
       285  21 -1.641801E+04  6.483378E+05 -1.531060E+04 -2.211204E+04  1.009009E+03 -1.192215E+04
       285  22  9.809767E+03  6.947439E+05  1.749865E+04 -2.221909E+04 -5.367639E+02 -1.742638E+04
       285  23 -1.061771E+03  6.938182E+05  5.085026E+03  1.507298E+03  2.583603E+02 -1.477144E+04
       285  24 -4.856637E+03  6.947506E+05 -3.884840E+03 -2.225100E+04  1.009428E+03 -1.211665E+04
       285  25  4.722868E+03  6.743285E+05  1.249625E+04 -2.097863E+04 -5.363205E+02 -1.764376E+04
       285  26  2.174377E+03  7.068162E+05  8.292491E+03  2.058033E+03  2.587931E+02 -1.497746E+04
       285  27  6.704578E+03  7.411654E+05  7.540763E+03 -2.238996E+04  1.009848E+03 -1.231116E+04
       286   1 -3.705483E+04  5.322367E+05 -4.669875E+04 -1.959833E+04 -2.356648E+03  1.221655E+04
       286   2 -4.158090E+04  5.042125E+05 -6.393838E+04  4.772330E+02 -3.815578E+03  2.214073E+04
       286   3 -8.956961E+04  4.639609E+05 -9.851780E+04 -2.793921E+04 -1.458952E+03  3.207132E+04
       286   4  2.705515E+03  6.916486E+05 -7.270130E+03 -2.243879E+04 -2.358527E+03  1.310306E+04
       286   5  6.618104E+03  6.976816E+05 -1.625254E+04  1.776851E+03 -3.815225E+03  2.202189E+04
       286   6 -3.275016E+04  6.916646E+05 -4.187287E+04 -2.249889E+04 -1.456756E+03  3.094770E+04
       286   7  4.246399E+04  8.510836E+05  3.215661E+04 -2.527996E+04 -2.360414E+03  1.398981E+04
       286   8  5.481433E+04  8.911848E+05  3.143055E+04  3.076891E+03 -3.814874E+03  2.190302E+04
       286   9  2.406551E+04  9.194154E+05  1.476819E+04 -1.705656E+04 -1.454579E+03  2.982367E+04
       286  10 -3.705488E+04  5.322365E+05 -4.669904E+04 -1.959831E+04 -7.753017E-11 -2.994589E-10
       286  11 -4.158104E+04  5.042119E+05 -6.393933E+04  4.773010E+02  1.561097E-10 -1.819770E-10
       286  12 -8.956989E+04  4.639598E+05 -9.851973E+04 -2.793917E+04 -1.256892E-10  2.137549E-10
       286  13  2.705463E+03  6.916484E+05 -7.270462E+03 -2.243876E+04 -1.334111E-09  9.983049E-11
       286  14  6.617958E+03  6.976811E+05 -1.625347E+04  1.776919E+03  2.873601E-10 -1.141739E-10
       286  15 -3.275042E+04  6.916636E+05 -4.187467E+04 -2.249886E+04 -6.748052E-10  4.967576E-11
       286  16  4.246393E+04  8.510834E+05  3.215623E+04 -2.527993E+04  6.605574E-10  1.754837E-10
       286  17  5.481418E+04  8.911843E+05  3.142962E+04  3.076958E+03 -9.065145E-10  3.989095E-11
       286  18  2.406527E+04  9.194144E+05  1.476652E+04 -1.705653E+04 -1.129942E-09 -1.019170E-10
       286  19 -3.705483E+04  5.322367E+05 -4.669875E+04 -1.959833E+04  2.356648E+03 -1.221655E+04
       286  20 -4.158090E+04  5.042125E+05 -6.393838E+04  4.772330E+02  3.815578E+03 -2.214073E+04
       286  21 -8.956961E+04  4.639609E+05 -9.851780E+04 -2.793921E+04  1.458952E+03 -3.207132E+04
       286  22  2.705515E+03  6.916486E+05 -7.270130E+03 -2.243879E+04  2.358527E+03 -1.310306E+04
       286  23  6.618104E+03  6.976816E+05 -1.625254E+04  1.776851E+03  3.815225E+03 -2.202189E+04
       286  24 -3.275016E+04  6.916646E+05 -4.187287E+04 -2.249889E+04  1.456756E+03 -3.094770E+04
       286  25  4.246399E+04  8.510836E+05  3.215661E+04 -2.527996E+04  2.360414E+03 -1.398981E+04
       286  26  5.481433E+04  8.911848E+05  3.143055E+04  3.076891E+03  3.814874E+03 -2.190302E+04
       286  27  2.406551E+04  9.194154E+05  1.476819E+04 -1.705656E+04  1.454579E+03 -2.982367E+04
       287   1 -8.263890E+05 -3.181032E+05 -2.538407E+05 -2.626516E+05 -1.318879E+05 -4.840856E+04
       287   2 -7.858667E+05 -1.266798E+05 -1.304739E+05 -2.978194E+05 -8.547955E+04 -2.840448E+04
       287   3 -8.232516E+05 -1.430377E+05 -9.796617E+04 -2.853947E+05 -3.808589E+04 -1.101356E+04
       287   4 -6.706569E+05 -2.347948E+05 -2.061915E+05 -1.952199E+05 -1.310450E+05 -4.809742E+04
       287   5 -6.214166E+05 -5.817588E+04 -8.443172E+04 -2.464351E+05 -8.527162E+04 -2.832734E+04
       287   6 -6.499372E+05 -8.918093E+04 -5.300933E+04 -2.500645E+05 -3.851234E+04 -1.117322E+04
       287   7 -5.149002E+05 -1.514770E+05 -1.585449E+05 -1.277707E+05 -1.302018E+05 -4.778610E+04
       287   8 -4.569405E+05  1.033125E+04 -3.839215E+04 -1.950380E+05 -8.506363E+04 -2.825017E+04
       287   9 -4.765938E+05 -3.532448E+04 -8.054811E+03 -2.147264E+05 -3.893892E+04 -1.133291E+04
       287  10 -8.264083E+05 -3.181104E+05 -2.538778E+05 -2.626567E+05  2.872235E-10 -4.404751E-11
       287  11 -7.858747E+05 -1.266827E+05 -1.304892E+05 -2.978214E+05 -8.863402E-10 -4.152857E-11
       287  12 -8.232531E+05 -1.430382E+05 -9.796913E+04 -2.853950E+05 -4.592840E-11 -1.825576E-10
       287  13 -6.706760E+05 -2.348019E+05 -2.062282E+05 -1.952250E+05  2.201218E-10  1.071945E-10
       287  14 -6.214246E+05 -5.817870E+04 -8.444691E+04 -2.464371E+05 -1.723334E-10  5.647547E-11
       287  15 -6.499388E+05 -8.918147E+04 -5.301235E+04 -2.500648E+05 -6.390350E-10 -1.968126E-10
       287  16 -5.149190E+05 -1.514840E+05 -1.585810E+05 -1.277757E+05 -4.235322E-10  1.680045E-10
       287  17 -4.569485E+05  1.032844E+04 -3.840726E+04 -1.950400E+05 -8.019017E-10  1.886353E-10
       287  18 -4.765955E+05 -3.532503E+04 -8.057905E+03 -2.147267E+05 -7.284478E-10 -1.704978E-10
       287  19 -8.263890E+05 -3.181032E+05 -2.538407E+05 -2.626516E+05  1.318879E+05  4.840856E+04
       287  20 -7.858667E+05 -1.266798E+05 -1.304739E+05 -2.978194E+05  8.547955E+04  2.840448E+04
       287  21 -8.232516E+05 -1.430377E+05 -9.796617E+04 -2.853947E+05  3.808589E+04  1.101356E+04
       287  22 -6.706569E+05 -2.347948E+05 -2.061915E+05 -1.952199E+05  1.310450E+05  4.809742E+04
       287  23 -6.214166E+05 -5.817588E+04 -8.443172E+04 -2.464351E+05  8.527162E+04  2.832734E+04
       287  24 -6.499372E+05 -8.918093E+04 -5.300933E+04 -2.500645E+05  3.851234E+04  1.117322E+04
       287  25 -5.149002E+05 -1.514770E+05 -1.585449E+05 -1.277707E+05  1.302018E+05  4.778610E+04
       287  26 -4.569405E+05  1.033125E+04 -3.839215E+04 -1.950380E+05  8.506363E+04  2.825017E+04
       287  27 -4.765938E+05 -3.532448E+04 -8.054811E+03 -2.147264E+05  3.893892E+04  1.133291E+04
       288   1 -7.869973E+05 -1.709590E+05 -8.357698E+04 -2.796857E+05 -3.045064E+04 -8.706482E+03
       288   2 -7.788481E+05 -1.393591E+05 -5.833146E+04 -2.802324E+05 -1.986409E+04 -4.585504E+03
       288   3 -7.768104E+05 -1.426132E+05 -4.886834E+04 -2.803150E+05 -9.134056E+03 -8.457631E+02
       288   4 -6.428762E+05 -1.132221E+05 -4.359960E+04 -2.370279E+05 -3.037862E+04 -8.679635E+03
       288   5 -6.383697E+05 -8.550750E+04 -1.988219E+04 -2.411314E+05 -1.988386E+04 -4.593015E+03
       288   6 -6.399538E+05 -9.262468E+04 -1.187155E+04 -2.447715E+05 -9.245694E+03 -8.877195E+02
       288   7 -4.987353E+05 -5.548330E+04 -3.624207E+03 -1.943610E+05 -3.030659E+04 -8.652779E+03
       288   8 -4.978724E+05 -3.165461E+04  1.856528E+04 -2.020224E+05 -1.990364E+04 -4.600528E+03
       288   9 -5.030791E+05 -4.263537E+04  2.512363E+04 -2.092210E+05 -9.357359E+03 -9.296853E+02
       288  10 -7.869983E+05 -1.709594E+05 -8.357887E+04 -2.796859E+05 -7.949218E-10 -2.185635E-10
       288  11 -7.788486E+05 -1.393592E+05 -5.833224E+04 -2.802325E+05 -5.621731E-10 -3.909213E-10
       288  12 -7.768105E+05 -1.426132E+05 -4.886849E+04 -2.803150E+05 -5.787664E-10 -2.580052E-10
       288  13 -6.428772E+05 -1.132224E+05 -4.360148E+04 -2.370281E+05 -1.522619E-09 -2.914465E-10
       288  14 -6.383702E+05 -8.550763E+04 -1.988297E+04 -2.411315E+05 -2.221505E-09 -1.593639E-10
       288  15 -6.399539E+05 -9.262471E+04 -1.187171E+04 -2.447715E+05 -1.593122E-09 -5.565998E-10
       288  16 -4.987363E+05 -5.548363E+04 -3.626076E+03 -1.943612E+05 -1.834312E-09 -5.251628E-10
       288  17 -4.978728E+05 -3.165474E+04  1.856450E+04 -2.020224E+05 -1.417607E-09 -4.820736E-10
       288  18 -5.030792E+05 -4.263540E+04  2.512347E+04 -2.092210E+05 -1.891273E-09 -5.316178E-10
       288  19 -7.869973E+05 -1.709590E+05 -8.357698E+04 -2.796857E+05  3.045064E+04  8.706482E+03
       288  20 -7.788481E+05 -1.393591E+05 -5.833146E+04 -2.802324E+05  1.986409E+04  4.585504E+03
       288  21 -7.768104E+05 -1.426132E+05 -4.886834E+04 -2.803150E+05  9.134056E+03  8.457631E+02
       288  22 -6.428762E+05 -1.132221E+05 -4.359960E+04 -2.370279E+05  3.037862E+04  8.679635E+03
       288  23 -6.383697E+05 -8.550750E+04 -1.988219E+04 -2.411314E+05  1.988386E+04  4.593015E+03
       288  24 -6.399538E+05 -9.262468E+04 -1.187155E+04 -2.447715E+05  9.245694E+03  8.877195E+02
       288  25 -4.987353E+05 -5.548330E+04 -3.624207E+03 -1.943610E+05  3.030659E+04  8.652779E+03
       288  26 -4.978724E+05 -3.165461E+04  1.856528E+04 -2.020224E+05  1.990364E+04  4.600528E+03
       288  27 -5.030791E+05 -4.263537E+04  2.512363E+04 -2.092210E+05  9.357359E+03  9.296853E+02
       289   1 -7.516703E+05 -1.392461E+05 -4.031948E+04 -2.743277E+05 -7.376135E+03 -3.995545E+02
       289   2 -7.479628E+05 -1.295784E+05 -3.380170E+04 -2.693218E+05 -4.877552E+03  3.202173E+02
       289   3 -7.390016E+05 -1.310373E+05 -3.019019E+04 -2.713595E+05 -2.351122E+03  9.655561E+02
       289   4 -6.386783E+05 -9.617466E+04 -9.450724E+03 -2.431241E+05 -7.415168E+03 -4.142518E+02
       289   5 -6.411023E+05 -8.916629E+04 -4.658659E+03 -2.401457E+05 -4.934530E+03  2.987981E+02
       289   6 -6.382687E+05 -9.328042E+04 -2.758195E+03 -2.442106E+05 -2.426075E+03  9.374075E+02
       289   7 -5.256740E+05 -5.310238E+04  2.141687E+04 -2.119154E+05 -7.454208E+03 -4.289521E+02
       289   8 -5.342308E+05 -4.875357E+04  2.448333E+04 -2.109650E+05 -4.991518E+03  2.773748E+02
       289   9 -5.375263E+05 -5.552306E+04  2.467284E+04 -2.170578E+05 -2.501042E+03  9.092540E+02
       289  10 -7.516704E+05 -1.392462E+05 -4.031958E+04 -2.743277E+05 -1.391362E-09 -5.041034E-10
       289  11 -7.479628E+05 -1.295784E+05 -3.380175E+04 -2.693218E+05 -5.136111E-10 -2.073947E-11
       289  12 -7.390016E+05 -1.310373E+05 -3.019020E+04 -2.713595E+05  5.173672E-10  9.244116E-11
       289  13 -6.386783E+05 -9.617467E+04 -9.450828E+03 -2.431241E+05 -1.604867E-09 -4.963251E-10
       289  14 -6.411023E+05 -8.916630E+04 -4.658705E+03 -2.401457E+05 -2.356361E-10  5.961525E-11
       289  15 -6.382687E+05 -9.328042E+04 -2.758208E+03 -2.442106E+05  3.495904E-10 -1.127400E-11
       289  16 -5.256741E+05 -5.310240E+04  2.141676E+04 -2.119154E+05 -9.318194E-10 -4.390473E-10
       289  17 -5.342309E+05 -4.875357E+04  2.448328E+04 -2.109650E+05  2.013018E-10 -2.512463E-10
       289  18 -5.375263E+05 -5.552306E+04  2.467283E+04 -2.170578E+05 -1.640387E-10 -3.814810E-10
       289  19 -7.516703E+05 -1.392461E+05 -4.031948E+04 -2.743277E+05  7.376135E+03  3.995545E+02
       289  20 -7.479628E+05 -1.295784E+05 -3.380170E+04 -2.693218E+05  4.877552E+03 -3.202173E+02
       289  21 -7.390016E+05 -1.310373E+05 -3.019019E+04 -2.713595E+05  2.351122E+03 -9.655561E+02
       289  22 -6.386783E+05 -9.617466E+04 -9.450724E+03 -2.431241E+05  7.415168E+03  4.142518E+02
       289  23 -6.411023E+05 -8.916629E+04 -4.658659E+03 -2.401457E+05  4.934530E+03 -2.987981E+02
       289  24 -6.382687E+05 -9.328042E+04 -2.758195E+03 -2.442106E+05  2.426075E+03 -9.374075E+02
       289  25 -5.256740E+05 -5.310238E+04  2.141687E+04 -2.119154E+05  7.454208E+03  4.289521E+02
       289  26 -5.342308E+05 -4.875357E+04  2.448333E+04 -2.109650E+05  4.991518E+03 -2.773748E+02
       289  27 -5.375263E+05 -5.552306E+04  2.467284E+04 -2.170578E+05  2.501042E+03 -9.092540E+02
       290   1 -7.130861E+05 -1.222877E+05 -2.266343E+04 -2.646264E+05 -1.893988E+03  9.520987E+02
       290   2 -7.097869E+05 -1.152111E+05 -1.986246E+04 -2.583605E+05 -1.132791E+03  9.421068E+02
       290   3 -6.990280E+05 -1.165523E+05 -1.772686E+04 -2.608358E+05 -3.627816E+02  9.084601E+02
       290   4 -6.379496E+05 -9.389687E+04 -2.200526E+03 -2.441301E+05 -1.955178E+03  9.291261E+02
       290   5 -6.416549E+05 -8.951145E+04 -1.294437E+03 -2.398260E+05 -1.199744E+03  9.169819E+02
       290   6 -6.378997E+05 -9.354255E+04 -1.049126E+03 -2.442631E+05 -4.355077E+02  8.811811E+02
       290   7 -5.628075E+05 -6.550567E+04  1.826190E+04 -2.236315E+05 -2.016375E+03  9.061504E+02
       290   8 -5.735184E+05 -6.381148E+04  1.727318E+04 -2.212896E+05 -1.266705E+03  8.918540E+02
       290   9 -5.767678E+05 -7.053257E+04  1.562827E+04 -2.276889E+05 -5.082417E+02  8.538991E+02
       290  10 -7.130861E+05 -1.222877E+05 -2.266344E+04 -2.646264E+05  2.067158E-09  6.002088E-10
       290  11 -7.097869E+05 -1.152111E+05 -1.986246E+04 -2.583605E+05  1.493539E-09  9.889036E-10
       290  12 -6.990280E+05 -1.165523E+05 -1.772686E+04 -2.608358E+05 -9.006350E-10 -2.638224E-10
       290  13 -6.379496E+05 -9.389688E+04 -2.200535E+03 -2.441301E+05  9.439169E-10  2.308280E-10
       290  14 -6.416549E+05 -8.951145E+04 -1.294441E+03 -2.398260E+05  1.625998E-09  6.841101E-10
       290  15 -6.378997E+05 -9.354255E+04 -1.049128E+03 -2.442631E+05  1.087568E-09  4.296670E-10
       290  16 -5.628075E+05 -6.550568E+04  1.826189E+04 -2.236315E+05 -4.349050E-10 -4.547134E-10
       290  17 -5.735184E+05 -6.381148E+04  1.727318E+04 -2.212896E+05  1.185465E-09  7.397326E-10
       290  18 -5.767678E+05 -7.053257E+04  1.562827E+04 -2.276889E+05  2.342229E-09  1.013303E-09
       290  19 -7.130861E+05 -1.222877E+05 -2.266343E+04 -2.646264E+05  1.893988E+03 -9.520987E+02
       290  20 -7.097869E+05 -1.152111E+05 -1.986246E+04 -2.583605E+05  1.132791E+03 -9.421068E+02
       290  21 -6.990280E+05 -1.165523E+05 -1.772686E+04 -2.608358E+05  3.627816E+02 -9.084601E+02
       290  22 -6.379496E+05 -9.389687E+04 -2.200526E+03 -2.441301E+05  1.955178E+03 -9.291261E+02
       290  23 -6.416549E+05 -8.951145E+04 -1.294437E+03 -2.398260E+05  1.199744E+03 -9.169819E+02
       290  24 -6.378997E+05 -9.354255E+04 -1.049126E+03 -2.442631E+05  4.355077E+02 -8.811811E+02
       290  25 -5.628075E+05 -6.550567E+04  1.826190E+04 -2.236315E+05  2.016375E+03 -9.061504E+02
       290  26 -5.735184E+05 -6.381148E+04  1.727318E+04 -2.212896E+05  1.266705E+03 -8.918540E+02
       290  27 -5.767678E+05 -7.053257E+04  1.562827E+04 -2.276889E+05  5.082417E+02 -8.538991E+02
       291   1 -6.715888E+05 -1.064024E+05 -1.023148E+04 -2.535880E+05 -1.289688E+02  8.039270E+02
       291   2 -6.681610E+05 -9.934572E+04 -8.473973E+03 -2.468653E+05  6.302970E+02  7.650108E+02
       291   3 -6.568962E+05 -1.010962E+05 -7.376331E+03 -2.493501E+05  1.391018E+03  7.221433E+02
       291   4 -6.378159E+05 -9.363478E+04 -1.048829E+03 -2.443642E+05 -1.985457E+02  7.778359E+02
       291   5 -6.417585E+05 -8.940064E+04 -1.281304E+03 -2.396971E+05  5.597720E+02  7.385685E+02
       291   6 -6.378638E+05 -9.397345E+04 -2.172876E+03 -2.442374E+05  1.319537E+03  6.953469E+02
       291   7 -6.040419E+05 -8.086711E+04  8.133703E+03 -2.351400E+05 -2.681266E+02  7.517433E+02
       291   8 -6.153552E+05 -7.945551E+04  5.911302E+03 -2.325286E+05  4.892437E+02  7.121249E+02
       291   9 -6.188312E+05 -8.685068E+04  3.030554E+03 -2.391246E+05  1.248054E+03  6.685495E+02
       291  10 -6.715888E+05 -1.064024E+05 -1.023148E+04 -2.535880E+05 -1.124436E-10 -1.300062E-11
       291  11 -6.681610E+05 -9.934572E+04 -8.473975E+03 -2.468653E+05  1.192382E-09  4.190273E-10
       291  12 -6.568962E+05 -1.010962E+05 -7.376336E+03 -2.493501E+05  5.359546E-10  1.831916E-10
       291  13 -6.378159E+05 -9.363478E+04 -1.048831E+03 -2.443642E+05  8.415937E-10  1.431381E-10
       291  14 -6.417585E+05 -8.940064E+04 -1.281306E+03 -2.396971E+05  9.803616E-10  3.188408E-10
       291  15 -6.378639E+05 -9.397345E+04 -2.172880E+03 -2.442374E+05  2.946913E-10  2.546765E-10
       291  16 -6.040419E+05 -8.086711E+04  8.133702E+03 -2.351400E+05  1.434065E-09  3.418296E-10
       291  17 -6.153552E+05 -7.945551E+04  5.911301E+03 -2.325286E+05  8.149533E-10  2.792604E-10
       291  18 -6.188312E+05 -8.685068E+04  3.030550E+03 -2.391246E+05  3.825195E-10  1.322416E-10
       291  19 -6.715888E+05 -1.064024E+05 -1.023148E+04 -2.535880E+05  1.289688E+02 -8.039270E+02
       291  20 -6.681610E+05 -9.934572E+04 -8.473973E+03 -2.468653E+05 -6.302970E+02 -7.650108E+02
       291  21 -6.568962E+05 -1.010962E+05 -7.376331E+03 -2.493501E+05 -1.391018E+03 -7.221433E+02
       291  22 -6.378159E+05 -9.363478E+04 -1.048829E+03 -2.443642E+05  1.985457E+02 -7.778359E+02
       291  23 -6.417585E+05 -8.940064E+04 -1.281304E+03 -2.396971E+05 -5.597720E+02 -7.385685E+02
       291  24 -6.378638E+05 -9.397345E+04 -2.172876E+03 -2.442374E+05 -1.319537E+03 -6.953469E+02
       291  25 -6.040419E+05 -8.086711E+04  8.133703E+03 -2.351400E+05  2.681266E+02 -7.517433E+02
       291  26 -6.153552E+05 -7.945551E+04  5.911302E+03 -2.325286E+05 -4.892437E+02 -7.121249E+02
       291  27 -6.188312E+05 -8.685068E+04  3.030554E+03 -2.391246E+05 -1.248054E+03 -6.685495E+02
       292   1 -6.287930E+05 -9.029800E+04 -2.295785E+02 -2.422527E+05  1.867842E+03  6.999867E+02
       292   2 -6.249826E+05 -8.256479E+04 -9.601422E+01 -2.352088E+05  4.343971E+03  1.293492E+03
       292   3 -6.147930E+05 -8.706462E+04 -2.821265E+03 -2.365888E+05  6.807539E+03  1.920570E+03
       292   4 -6.380200E+05 -9.354070E+04 -2.725101E+03 -2.445110E+05  1.791181E+03  6.712502E+02
       292   5 -6.414096E+05 -8.884637E+04 -4.588887E+03 -2.397658E+05  4.275540E+03  1.267836E+03
       292   6 -6.384216E+05 -9.638681E+04 -9.318070E+03 -2.434446E+05  6.747304E+03  1.897980E+03
       292   7 -6.472469E+05 -9.678340E+04 -5.220631E+03 -2.467692E+05  1.714522E+03  6.425141E+02
       292   8 -6.578363E+05 -9.512794E+04 -9.081780E+03 -2.443227E+05  4.207110E+03  1.242181E+03
       292   9 -6.620497E+05 -1.057089E+05 -1.581492E+04 -2.503002E+05  6.687073E+03  1.875391E+03
       292  10 -6.287930E+05 -9.029800E+04 -2.295860E+02 -2.422527E+05 -4.559407E-10  1.442281E-10
       292  11 -6.249826E+05 -8.256479E+04 -9.605287E+01 -2.352088E+05 -1.807675E-09 -2.968444E-10
       292  12 -6.147930E+05 -8.706464E+04 -2.821359E+03 -2.365888E+05 -2.983220E-09 -6.417803E-10
       292  13 -6.380200E+05 -9.354071E+04 -2.725108E+03 -2.445110E+05  1.366643E-10 -1.296400E-10
       292  14 -6.414096E+05 -8.884638E+04 -4.588924E+03 -2.397658E+05  9.086904E-11 -8.813824E-10
       292  15 -6.384217E+05 -9.638682E+04 -9.318163E+03 -2.434446E+05 -2.035089E-09 -2.406681E-09
       292  16 -6.472469E+05 -9.678340E+04 -5.220637E+03 -2.467692E+05  5.213815E-10  3.751731E-10
       292  17 -6.578364E+05 -9.512795E+04 -9.081817E+03 -2.443227E+05  8.057363E-10  1.110730E-09
       292  18 -6.620498E+05 -1.057089E+05 -1.581501E+04 -2.503002E+05 -1.716019E-11  5.704361E-10
       292  19 -6.287930E+05 -9.029800E+04 -2.295785E+02 -2.422527E+05 -1.867842E+03 -6.999867E+02
       292  20 -6.249826E+05 -8.256479E+04 -9.601422E+01 -2.352088E+05 -4.343971E+03 -1.293492E+03
       292  21 -6.147930E+05 -8.706462E+04 -2.821265E+03 -2.365888E+05 -6.807539E+03 -1.920570E+03
       292  22 -6.380200E+05 -9.354070E+04 -2.725101E+03 -2.445110E+05 -1.791181E+03 -6.712502E+02
       292  23 -6.414096E+05 -8.884637E+04 -4.588887E+03 -2.397658E+05 -4.275540E+03 -1.267836E+03
       292  24 -6.384216E+05 -9.638681E+04 -9.318070E+03 -2.434446E+05 -6.747304E+03 -1.897980E+03
       292  25 -6.472469E+05 -9.678340E+04 -5.220631E+03 -2.467692E+05 -1.714522E+03 -6.425141E+02
       292  26 -6.578363E+05 -9.512794E+04 -9.081780E+03 -2.443227E+05 -4.207110E+03 -1.242181E+03
       292  27 -6.620497E+05 -1.057089E+05 -1.581492E+04 -2.503002E+05 -6.687073E+03 -1.875391E+03
       293   1 -5.868078E+05 -7.481665E+04  2.360035E+03 -2.326145E+05  8.664727E+03  2.386432E+03
       293   2 -5.808006E+05 -6.234810E+04 -3.608279E+03 -2.239011E+05  1.911256E+04  5.958265E+03
       293   3 -5.789037E+05 -8.618576E+04 -2.503157E+04 -2.170415E+05  2.947182E+04  9.767190E+03
       293   4 -6.395312E+05 -9.304593E+04 -1.170620E+04 -2.452444E+05  8.560041E+03  2.347203E+03
       293   5 -6.389031E+05 -8.504150E+04 -1.959064E+04 -2.405100E+05  1.906544E+04  5.940556E+03
       293   6 -6.423979E+05 -1.133566E+05 -4.297695E+04 -2.376292E+05  2.948217E+04  9.770871E+03
       293   7 -6.922521E+05 -1.112752E+05 -2.577269E+04 -2.578735E+05  8.455364E+03  2.307977E+03
       293   8 -6.970024E+05 -1.077347E+05 -3.557332E+04 -2.571174E+05  1.901833E+04  5.922849E+03
       293   9 -7.058882E+05 -1.405270E+05 -6.092271E+04 -2.582149E+05  2.949251E+04  9.774552E+03
       293  10 -5.868079E+05 -7.481667E+04  2.359883E+03 -2.326145E+05 -2.437176E-10  5.200767E-10
       293  11 -5.808010E+05 -6.234823E+04 -3.609033E+03 -2.239012E+05  5.203409E-10  8.691030E-10
       293  12 -5.789047E+05 -8.618610E+04 -2.503339E+04 -2.170417E+05 -3.510774E-10  1.282492E-10
       293  13 -6.395313E+05 -9.304595E+04 -1.170635E+04 -2.452444E+05 -1.295166E-09 -2.255949E-09
       293  14 -6.389035E+05 -8.504164E+04 -1.959139E+04 -2.405101E+05 -7.263635E-10 -8.739086E-10
       293  15 -6.423988E+05 -1.133570E+05 -4.297876E+04 -2.376294E+05 -5.288107E-10 -3.924570E-10
       293  16 -6.922522E+05 -1.112752E+05 -2.577283E+04 -2.578735E+05 -2.423059E-09 -4.619437E-10
       293  17 -6.970028E+05 -1.077348E+05 -3.557407E+04 -2.571175E+05 -1.781257E-09 -2.974723E-10
       293  18 -7.058891E+05 -1.405273E+05 -6.092452E+04 -2.582151E+05 -1.141290E-09 -1.080108E-10
       293  19 -5.868078E+05 -7.481665E+04  2.360035E+03 -2.326145E+05 -8.664727E+03 -2.386432E+03
       293  20 -5.808006E+05 -6.234810E+04 -3.608279E+03 -2.239011E+05 -1.911256E+04 -5.958265E+03
       293  21 -5.789037E+05 -8.618576E+04 -2.503157E+04 -2.170415E+05 -2.947182E+04 -9.767190E+03
       293  22 -6.395312E+05 -9.304593E+04 -1.170620E+04 -2.452444E+05 -8.560041E+03 -2.347203E+03
       293  23 -6.389031E+05 -8.504150E+04 -1.959064E+04 -2.405100E+05 -1.906544E+04 -5.940556E+03
       293  24 -6.423979E+05 -1.133566E+05 -4.297695E+04 -2.376292E+05 -2.948217E+04 -9.770871E+03
       293  25 -6.922521E+05 -1.112752E+05 -2.577269E+04 -2.578735E+05 -8.455364E+03 -2.307977E+03
       293  26 -6.970024E+05 -1.077347E+05 -3.557332E+04 -2.571174E+05 -1.901833E+04 -5.922849E+03
       293  27 -7.058882E+05 -1.405270E+05 -6.092271E+04 -2.582149E+05 -2.949251E+04 -9.774552E+03
       294   1 -5.491714E+05 -6.347696E+04 -2.723278E+04 -2.351649E+05  3.778372E+04  1.241991E+04
       294   2 -5.286167E+05 -1.631407E+04 -5.646631E+04 -2.135934E+05  8.348140E+04  2.911415E+04
       294   3 -5.819989E+05 -1.764420E+05 -1.744299E+05 -1.482905E+05  1.285470E+05  4.749634E+04
       294   4 -6.492432E+05 -8.978074E+04 -5.225267E+04 -2.506126E+05  3.747275E+04  1.230409E+04
       294   5 -6.223774E+05 -5.791063E+04 -8.321121E+04 -2.455213E+05  8.358022E+04  2.915017E+04
       294   6 -6.695426E+05 -2.334326E+05 -2.032356E+05 -1.966953E+05  1.290559E+05  4.768122E+04
       294   7 -7.493053E+05 -1.160848E+05 -7.727323E+04 -2.660586E+05  3.716184E+04  1.218826E+04
       294   8 -7.161292E+05 -9.950558E+04 -1.099569E+05 -2.774445E+05  8.367902E+04  2.918618E+04
       294   9 -7.570770E+05 -2.904168E+05 -2.320418E+05 -2.450923E+05  1.295648E+05  4.786602E+04
       294  10 -5.491729E+05 -6.347751E+04 -2.723575E+04 -2.351652E+05 -5.604235E-10 -5.605365E-11
       294  11 -5.286245E+05 -1.631686E+04 -5.648101E+04 -2.135953E+05 -3.574586E-10  6.022223E-10
       294  12 -5.820172E+05 -1.764488E+05 -1.744652E+05 -1.482954E+05 -1.156509E-10  1.698336E-10
       294  13 -6.492448E+05 -8.978128E+04 -5.225560E+04 -2.506130E+05 -5.271045E-10 -1.478381E-10
       294  14 -6.223851E+05 -5.791342E+04 -8.322595E+04 -2.455232E+05  7.727786E-10  1.698554E-11
       294  15 -6.695611E+05 -2.334396E+05 -2.032712E+05 -1.967003E+05  7.289500E-11  1.432759E-10
       294  16 -7.493068E+05 -1.160854E+05 -7.727611E+04 -2.660590E+05 -6.908657E-10 -1.132358E-10
       294  17 -7.161370E+05 -9.950838E+04 -1.099717E+05 -2.774464E+05 -3.954846E-10  1.974961E-10
       294  18 -7.570957E+05 -2.904237E+05 -2.320777E+05 -2.450973E+05 -2.422200E-10 -4.940303E-11
       294  19 -5.491714E+05 -6.347696E+04 -2.723278E+04 -2.351649E+05 -3.778372E+04 -1.241991E+04
       294  20 -5.286167E+05 -1.631407E+04 -5.646631E+04 -2.135934E+05 -8.348140E+04 -2.911415E+04
       294  21 -5.819989E+05 -1.764420E+05 -1.744299E+05 -1.482905E+05 -1.285470E+05 -4.749634E+04
       294  22 -6.492432E+05 -8.978074E+04 -5.225267E+04 -2.506126E+05 -3.747275E+04 -1.230409E+04
       294  23 -6.223774E+05 -5.791063E+04 -8.321121E+04 -2.455213E+05 -8.358022E+04 -2.915017E+04
       294  24 -6.695426E+05 -2.334326E+05 -2.032356E+05 -1.966953E+05 -1.290559E+05 -4.768122E+04
       294  25 -7.493053E+05 -1.160848E+05 -7.727323E+04 -2.660586E+05 -3.716184E+04 -1.218826E+04
       294  26 -7.161292E+05 -9.950558E+04 -1.099569E+05 -2.774445E+05 -8.367902E+04 -2.918618E+04
       294  27 -7.570770E+05 -2.904168E+05 -2.320418E+05 -2.450923E+05 -1.295648E+05 -4.786602E+04
       295   1 -3.128265E+05 -3.634267E+04  3.309692E+03 -2.016952E+03  1.134297E+05  4.308044E+03
       295   2 -2.983896E+05 -1.861525E+05 -8.300844E+04  9.788869E+03  7.604805E+04  1.208955E+04
       295   3 -2.316974E+05 -1.532443E+05 -9.894862E+04 -3.596843E+04  3.867071E+04  9.850179E+03
       295   4  3.620522E+05  1.321631E+05  1.712881E+05 -2.508729E+04  1.169022E+05  4.307065E+03
       295   5  3.357232E+05 -2.804075E+04  7.344242E+04  3.757096E+03  7.683709E+04  1.208827E+04
       295   6  3.620613E+05 -5.161112E+03  4.778367E+04 -2.495776E+04  3.677896E+04  9.851051E+03
       295   7  1.037345E+06  3.006367E+05  3.392327E+05 -4.818282E+04  1.203784E+05  4.305830E+03
       295   8  9.702016E+05  1.300412E+05  2.298636E+05 -2.280880E+03  7.762689E+04  1.208698E+04
       295   9  9.561406E+05  1.428962E+05  1.944899E+05 -1.393651E+04  3.488539E+04  9.851855E+03
       295  10 -3.128403E+05 -3.634614E+04  3.285467E+03 -2.017345E+03  1.707815E-10  2.616852E-10
       295  11 -2.983958E+05 -1.861542E+05 -8.301959E+04  9.788129E+03  7.347484E-10 -2.361916E-10
       295  12 -2.316991E+05 -1.532448E+05 -9.895162E+04 -3.596873E+04 -5.218584E-10 -3.426009E-10
       295  13  3.620375E+05  1.321594E+05  1.712624E+05 -2.508769E+04 -2.986959E-10 -3.848246E-10
       295  14  3.357168E+05 -2.804249E+04  7.343106E+04  3.756348E+03 -1.002930E-10 -1.368865E-10
       295  15  3.620598E+05 -5.161579E+03  4.778095E+04 -2.495805E+04  5.853090E-10  4.108770E-11
       295  16  1.037330E+06  3.006328E+05  3.392055E+05 -4.818324E+04 -6.262676E-10  2.452329E-10
       295  17  9.701951E+05  1.300394E+05  2.298520E+05 -2.281636E+03 -7.986227E-10 -2.773331E-10
       295  18  9.561393E+05  1.428958E+05  1.944874E+05 -1.393679E+04  1.048982E-10  3.795430E-10
       295  19 -3.128265E+05 -3.634267E+04  3.309692E+03 -2.016952E+03 -1.134297E+05 -4.308044E+03
       295  20 -2.983896E+05 -1.861525E+05 -8.300844E+04  9.788869E+03 -7.604805E+04 -1.208955E+04
       295  21 -2.316974E+05 -1.532443E+05 -9.894862E+04 -3.596843E+04 -3.867071E+04 -9.850179E+03
       295  22  3.620522E+05  1.321631E+05  1.712881E+05 -2.508729E+04 -1.169022E+05 -4.307065E+03
       295  23  3.357232E+05 -2.804075E+04  7.344242E+04  3.757096E+03 -7.683709E+04 -1.208827E+04
       295  24  3.620613E+05 -5.161112E+03  4.778367E+04 -2.495776E+04 -3.677896E+04 -9.851051E+03
       295  25  1.037345E+06  3.006367E+05  3.392327E+05 -4.818282E+04 -1.203784E+05 -4.305830E+03
       295  26  9.702016E+05  1.300412E+05  2.298636E+05 -2.280880E+03 -7.762689E+04 -1.208698E+04
       295  27  9.561406E+05  1.428962E+05  1.944899E+05 -1.393651E+04 -3.488539E+04 -9.851855E+03
       296   1 -1.090274E+05 -9.665374E+04 -7.463677E+04 -2.104231E+04  2.885045E+04  7.499214E+03
       296   2 -7.452702E+04 -1.093535E+05 -8.529745E+04  4.190270E+03  1.922813E+04  7.316925E+03
       296   3 -3.179317E+04 -9.639014E+04 -8.316128E+04 -2.550670E+04  9.602191E+03  5.875715E+03
       296   4  3.522386E+05  1.839653E+04  3.937351E+04 -2.439480E+04  2.898089E+04  7.498617E+03
       296   5  3.480949E+05 -3.961128E+03  1.908232E+04  3.060952E+03  1.901962E+04  7.316839E+03
       296   6  3.522359E+05 -6.063868E+02  1.181642E+04 -2.441036E+04  9.055343E+03  5.876453E+03
       296   7  8.136980E+05  1.334310E+05  1.533680E+05 -2.774975E+04  2.911141E+04  7.498019E+03
       296   8  7.708790E+05  1.014179E+05  1.234489E+05  1.930914E+03  1.881097E+04  7.316754E+03
       296   9  7.363989E+05  9.516635E+04  1.067832E+05 -2.331327E+04  8.508155E+03  5.877188E+03
       296  10 -1.090283E+05 -9.665403E+04 -7.463844E+04 -2.104249E+04 -3.713121E-10 -1.807211E-10
       296  11 -7.452744E+04 -1.093537E+05 -8.529825E+04  4.190157E+03  8.145265E-11  5.143262E-11
       296  12 -3.179328E+04 -9.639020E+04 -8.316151E+04 -2.550675E+04 -6.947536E-10  7.175136E-10
       296  13  3.522377E+05  1.839625E+04  3.937183E+04 -2.439498E+04  7.332373E-10  3.188525E-10
       296  14  3.480945E+05 -3.961282E+03  1.908154E+04  3.060840E+03 -9.464650E-11 -1.435596E-09
       296  15  3.522358E+05 -6.064458E+02  1.181620E+04 -2.441040E+04 -5.180486E-10  4.494902E-10
       296  16  8.136971E+05  1.334307E+05  1.533663E+05 -2.774993E+04  6.663299E-10  5.741620E-11
       296  17  7.708787E+05  1.014178E+05  1.234481E+05  1.930803E+03  1.800964E-09 -5.410441E-10
       296  18  7.363988E+05  9.516629E+04  1.067830E+05 -2.331331E+04  8.812472E-11  1.571461E-10
       296  19 -1.090274E+05 -9.665374E+04 -7.463677E+04 -2.104231E+04 -2.885045E+04 -7.499214E+03
       296  20 -7.452702E+04 -1.093535E+05 -8.529745E+04  4.190270E+03 -1.922813E+04 -7.316925E+03
       296  21 -3.179317E+04 -9.639014E+04 -8.316128E+04 -2.550670E+04 -9.602191E+03 -5.875715E+03
       296  22  3.522386E+05  1.839653E+04  3.937351E+04 -2.439480E+04 -2.898089E+04 -7.498617E+03
       296  23  3.480949E+05 -3.961128E+03  1.908232E+04  3.060952E+03 -1.901962E+04 -7.316839E+03
       296  24  3.522359E+05 -6.063868E+02  1.181642E+04 -2.441036E+04 -9.055343E+03 -5.876453E+03
       296  25  8.136980E+05  1.334310E+05  1.533680E+05 -2.774975E+04 -2.911141E+04 -7.498019E+03
       296  26  7.708790E+05  1.014179E+05  1.234489E+05  1.930914E+03 -1.881097E+04 -7.316754E+03
       296  27  7.363989E+05  9.516635E+04  1.067832E+05 -2.331327E+04 -8.508155E+03 -5.877188E+03
       297   1  9.444231E+04 -6.128852E+04 -5.379989E+04 -2.331089E+04  7.432987E+03  4.901657E+03
       297   2  1.313862E+05 -5.510210E+04 -4.903213E+04  3.060387E+03  4.930631E+03  3.722255E+03
       297   3  1.695029E+05 -4.515930E+04 -4.171601E+04 -2.395843E+04  2.426872E+03  2.397277E+03
       297   4  3.506828E+05  2.590282E+03  9.400585E+03 -2.405899E+04  7.141423E+03  4.902088E+03
       297   5  3.500926E+05 -5.664395E+02  4.989043E+03  2.632962E+03  4.599674E+03  3.722889E+03
       297   6  3.506802E+05  3.942336E+01  3.152507E+03 -2.406399E+04  2.056672E+03  2.398136E+03
       297   7  6.069830E+05  6.646419E+04  7.259620E+04 -2.480737E+04  6.849738E+03  4.902521E+03
       297   8  5.688425E+05  5.396566E+04  5.900667E+04  2.205409E+03  4.268600E+03  3.723522E+03
       297   9  5.318874E+05  4.523569E+04  4.801858E+04 -2.416955E+04  1.686364E+03  2.398996E+03
       297  10  9.444224E+04 -6.128856E+04 -5.380004E+04 -2.331091E+04  6.217352E-10  8.576951E-12
       297  11  1.313862E+05 -5.510212E+04 -4.903220E+04  3.060373E+03 -8.297742E-11  3.598688E-10
       297  12  1.695029E+05 -4.515931E+04 -4.171603E+04 -2.395843E+04 -7.314484E-12 -1.100603E-09
       297  13  3.506828E+05  2.590243E+03  9.400444E+03 -2.405902E+04 -2.479241E-10  1.692425E-10
       297  14  3.500926E+05 -5.664600E+02  4.988977E+03  2.632948E+03  1.015617E-09  1.119220E-09
       297  15  3.506802E+05  3.941605E+01  3.152488E+03 -2.406399E+04  2.564370E-10  2.167002E-09
       297  16  6.069830E+05  6.646415E+04  7.259607E+04 -2.480740E+04 -1.260418E-10  9.936508E-11
       297  17  5.688425E+05  5.396564E+04  5.900661E+04  2.205396E+03  9.811354E-10 -1.727977E-09
       297  18  5.318874E+05  4.523568E+04  4.801856E+04 -2.416956E+04  8.222174E-11 -6.089679E-11
       297  19  9.444231E+04 -6.128852E+04 -5.379989E+04 -2.331089E+04 -7.432987E+03 -4.901657E+03
       297  20  1.313862E+05 -5.510210E+04 -4.903213E+04  3.060387E+03 -4.930631E+03 -3.722255E+03
       297  21  1.695029E+05 -4.515930E+04 -4.171601E+04 -2.395843E+04 -2.426872E+03 -2.397277E+03
       297  22  3.506828E+05  2.590282E+03  9.400585E+03 -2.405899E+04 -7.141423E+03 -4.902088E+03
       297  23  3.500926E+05 -5.664395E+02  4.989043E+03  2.632962E+03 -4.599674E+03 -3.722889E+03
       297  24  3.506802E+05  3.942336E+01  3.152507E+03 -2.406399E+04 -2.056672E+03 -2.398136E+03
       297  25  6.069830E+05  6.646419E+04  7.259620E+04 -2.480737E+04 -6.849738E+03 -4.902521E+03
       297  26  5.688425E+05  5.396566E+04  5.900667E+04  2.205409E+03 -4.268600E+03 -3.723522E+03
       297  27  5.318874E+05  4.523569E+04  4.801858E+04 -2.416955E+04 -1.686364E+03 -2.398996E+03
       298   1  2.945576E+05 -1.346322E+04 -1.110999E+04 -2.378410E+04  1.876184E+03  1.610275E+03
       298   2  3.316956E+05 -4.773283E+03 -2.838305E+03  2.514871E+03  9.824233E+02  3.177576E+02
       298   3  3.688271E+05  4.742732E+03  6.153066E+03 -2.400568E+04  8.849982E+01 -9.911785E+02
       298   4  3.504268E+05  4.442022E+02  2.574859E+03 -2.393520E+04  1.536475E+03  1.611120E+03
       298   5  3.504299E+05 -1.023337E+02  1.788492E+03  2.474174E+03  6.383098E+02  3.186234E+02
       298   6  3.504266E+05  1.781847E+02  1.725045E+03 -2.393587E+04 -2.599658E+02 -9.902882E+02
       298   7  4.062987E+05  1.435140E+04  1.625948E+04 -2.408632E+04  1.196736E+03  1.611966E+03
       298   8  3.691646E+05  4.568589E+03  6.415264E+03  2.433476E+03  2.941859E+02  3.194892E+02
       298   9  3.320264E+05 -4.386387E+03 -2.703000E+03 -2.386606E+04 -6.084211E+02 -9.893980E+02
       298  10  2.945576E+05 -1.346323E+04 -1.111001E+04 -2.378410E+04  8.599415E-10 -2.228798E-11
       298  11  3.316956E+05 -4.773283E+03 -2.838307E+03  2.514871E+03  1.926825E-10  1.509360E-10
       298  12  3.688271E+05  4.742731E+03  6.153064E+03 -2.400568E+04  5.452334E-10 -1.152203E-09
       298  13  3.504268E+05  4.441987E+02  2.574850E+03 -2.393520E+04 -4.774590E-10 -1.477982E-09
       298  14  3.504299E+05 -1.023339E+02  1.788491E+03  2.474174E+03 -7.367458E-10  7.025564E-11
       298  15  3.504266E+05  1.781836E+02  1.725043E+03 -2.393587E+04  2.110434E-10 -2.337142E-09
       298  16  4.062987E+05  1.435139E+04  1.625948E+04 -2.408632E+04 -4.208817E-11  9.589375E-10
       298  17  3.691646E+05  4.568589E+03  6.415264E+03  2.433476E+03  1.116312E-09 -1.291338E-09
       298  18  3.320264E+05 -4.386388E+03 -2.703003E+03 -2.386606E+04 -1.236014E-09 -2.971756E-09
       298  19  2.945576E+05 -1.346322E+04 -1.110999E+04 -2.378410E+04 -1.876184E+03 -1.610275E+03
       298  20  3.316956E+05 -4.773283E+03 -2.838305E+03  2.514871E+03 -9.824233E+02 -3.177576E+02
       298  21  3.688271E+05  4.742732E+03  6.153066E+03 -2.400568E+04 -8.849982E+01  9.911785E+02
       298  22  3.504268E+05  4.442022E+02  2.574859E+03 -2.393520E+04 -1.536475E+03 -1.611120E+03
       298  23  3.504299E+05 -1.023337E+02  1.788492E+03  2.474174E+03 -6.383098E+02 -3.186234E+02
       298  24  3.504266E+05  1.781847E+02  1.725045E+03 -2.393587E+04  2.599658E+02  9.902882E+02
       298  25  4.062987E+05  1.435140E+04  1.625948E+04 -2.408632E+04 -1.196736E+03 -1.611966E+03
       298  26  3.691646E+05  4.568589E+03  6.415264E+03  2.433476E+03 -2.941859E+02 -3.194892E+02
       298  27  3.320264E+05 -4.386387E+03 -2.703000E+03 -2.386606E+04  6.084211E+02  9.893980E+02
       299   1  4.940020E+05  3.594937E+04  3.743326E+04 -2.423268E+04 -2.405726E+02 -1.758424E+03
       299   2  5.312771E+05  4.494318E+04  4.723075E+04  2.269963E+03 -1.524898E+03 -3.069311E+03
       299   3  5.688423E+05  5.509825E+04  5.811835E+04 -2.443516E+04 -2.808502E+03 -4.374477E+03
       299   4  3.504854E+05  1.472633E+02  1.873427E+03 -2.402257E+04 -5.883446E+02 -1.757578E+03
       299   5  3.503426E+05 -1.632213E+02  2.547622E+03  2.582360E+03 -1.870847E+03 -3.068579E+03
       299   6  3.504879E+05  6.873636E+02  4.310862E+03 -2.402145E+04 -3.152551E+03 -4.373855E+03
       299   7  2.069875E+05 -3.565638E+04 -3.368794E+04 -2.381249E+04 -9.360364E+02 -1.756732E+03
       299   8  1.694378E+05 -4.527206E+04 -4.213793E+04  2.894682E+03 -2.216695E+03 -3.067848E+03
       299   9  1.321768E+05 -5.372707E+04 -4.950015E+04 -2.360785E+04 -3.496480E+03 -4.373234E+03
       299  10  4.940020E+05  3.594937E+04  3.743326E+04 -2.423268E+04 -2.892409E-10  8.828818E-10
       299  11  5.312771E+05  4.494317E+04  4.723072E+04  2.269960E+03  1.496391E-10  4.364118E-09
       299  12  5.688423E+05  5.509823E+04  5.811830E+04 -2.443517E+04  1.906944E-09 -1.990195E-09
       299  13  3.504854E+05  1.472599E+02  1.873421E+03 -2.402257E+04 -5.390693E-10 -2.062329E-10
       299  14  3.503426E+05 -1.632323E+02  2.547598E+03  2.582355E+03  4.323178E-10 -7.119921E-10
       299  15  3.504879E+05  6.873404E+02  4.310808E+03 -2.402146E+04  4.541098E-10 -4.673170E-10
       299  16  2.069875E+05 -3.565639E+04 -3.368795E+04 -2.381249E+04  4.144246E-10 -4.311697E-10
       299  17  1.694378E+05 -4.527208E+04 -4.213795E+04  2.894676E+03  7.016951E-10 -2.306567E-10
       299  18  1.321768E+05 -5.372709E+04 -4.950021E+04 -2.360787E+04 -1.882650E-09 -6.676588E-10
       299  19  4.940020E+05  3.594937E+04  3.743326E+04 -2.423268E+04  2.405726E+02  1.758424E+03
       299  20  5.312771E+05  4.494318E+04  4.723075E+04  2.269963E+03  1.524898E+03  3.069311E+03
       299  21  5.688423E+05  5.509825E+04  5.811835E+04 -2.443516E+04  2.808502E+03  4.374477E+03
       299  22  3.504854E+05  1.472633E+02  1.873427E+03 -2.402257E+04  5.883446E+02  1.757578E+03
       299  23  3.503426E+05 -1.632213E+02  2.547622E+03  2.582360E+03  1.870847E+03  3.068579E+03
       299  24  3.504879E+05  6.873636E+02  4.310862E+03 -2.402145E+04  3.152551E+03  4.373855E+03
       299  25  2.069875E+05 -3.565638E+04 -3.368794E+04 -2.381249E+04  9.360364E+02  1.756732E+03
       299  26  1.694378E+05 -4.527206E+04 -4.213793E+04  2.894682E+03  2.216695E+03  3.067848E+03
       299  27  1.321768E+05 -5.372707E+04 -4.950015E+04 -2.360785E+04  3.496480E+03  4.373234E+03
       300   1  6.965557E+05  8.610192E+04  9.092756E+04 -2.440656E+04 -3.662451E+03 -5.179065E+03
       300   2  7.336052E+05  9.466119E+04  1.037678E+05  2.414974E+03 -8.283170E+03 -6.528067E+03
       300   3  7.733287E+05  1.098958E+05  1.213627E+05 -2.533385E+04 -1.290227E+04 -7.708291E+03
       300   4  3.509928E+05 -5.814947E+01  5.480135E+03 -2.432720E+04 -4.041838E+03 -5.178522E+03
       300   5  3.496621E+05 -1.041605E+03  8.965603E+03  2.961542E+03 -8.615459E+03 -6.527845E+03
       300   6  3.509974E+05  4.644415E+03  1.717530E+04 -2.432215E+04 -1.318718E+04 -7.708346E+03
       300   7  5.538273E+03 -8.622713E+04 -7.997615E+04 -2.424783E+04 -4.421013E+03 -5.177979E+03
       300   8 -3.414708E+04 -9.675540E+04 -8.584748E+04  3.507820E+03 -8.947542E+03 -6.527624E+03
       300   9 -7.117188E+04 -1.006203E+05 -8.702528E+04 -2.331110E+04 -1.347189E+04 -7.708402E+03
       300  10  6.965557E+05  8.610188E+04  9.092748E+04 -2.440658E+04 -4.306291E-10 -2.067313E-09
       300  11  7.336051E+05  9.466113E+04  1.037676E+05  2.414930E+03 -2.235515E-09  1.312797E-09
       300  12  7.733285E+05  1.098957E+05  1.213623E+05 -2.533393E+04 -1.987164E-09  1.588716E-09
       300  13  3.509928E+05 -5.818265E+01  5.480054E+03 -2.432722E+04 -3.345378E-10 -5.243741E-10
       300  14  3.496620E+05 -1.041670E+03  8.965383E+03  2.961497E+03  9.844910E-10 -7.771444E-10
       300  15  3.509972E+05  4.644304E+03  1.717487E+04 -2.432223E+04  3.103211E-10 -1.095858E-09
       300  16  5.538245E+03 -8.622717E+04 -7.997624E+04 -2.424784E+04  7.718321E-10 -3.893354E-12
       300  17 -3.414718E+04 -9.675546E+04 -8.584771E+04  3.507773E+03  3.295310E-09  2.718444E-09
       300  18 -7.117209E+04 -1.006204E+05 -8.702573E+04 -2.331118E+04  2.620293E-09  9.665976E-10
       300  19  6.965557E+05  8.610192E+04  9.092756E+04 -2.440656E+04  3.662451E+03  5.179065E+03
       300  20  7.336052E+05  9.466119E+04  1.037678E+05  2.414974E+03  8.283170E+03  6.528067E+03
       300  21  7.733287E+05  1.098958E+05  1.213627E+05 -2.533385E+04  1.290227E+04  7.708291E+03
       300  22  3.509928E+05 -5.814947E+01  5.480135E+03 -2.432720E+04  4.041838E+03  5.178522E+03
       300  23  3.496621E+05 -1.041605E+03  8.965603E+03  2.961542E+03  8.615459E+03  6.527845E+03
       300  24  3.509974E+05  4.644415E+03  1.717530E+04 -2.432215E+04  1.318718E+04  7.708346E+03
       300  25  5.538273E+03 -8.622713E+04 -7.997615E+04 -2.424783E+04  4.421013E+03  5.177979E+03
       300  26 -3.414708E+04 -9.675540E+04 -8.584748E+04  3.507820E+03  8.947542E+03  6.527624E+03
       300  27 -7.117188E+04 -1.006203E+05 -8.702528E+04 -2.331110E+04  1.347189E+04  7.708402E+03
       301   1  9.077715E+05  1.368321E+05  1.585048E+05 -2.221537E+04 -1.608542E+04 -8.758739E+03
       301   2  9.400272E+05  1.407625E+05  1.816183E+05  2.251552E+03 -3.478781E+04 -1.028418E+04
       301   3  9.879112E+05  1.917559E+05  2.289497E+05 -3.024271E+04 -5.348947E+04 -1.025515E+04
       301   4  3.538233E+05 -1.248118E+03  2.162788E+04 -2.485311E+04 -1.668668E+04 -8.758736E+03
       301   5  3.460413E+05 -7.270751E+03  3.500175E+04  3.619238E+03 -3.496274E+04 -1.028488E+04
       301   6  3.538262E+05  3.372001E+04  7.231447E+04 -2.487279E+04 -5.323687E+04 -1.025613E+04
       301   7 -1.998462E+05 -1.393512E+05 -1.152718E+05 -2.748843E+04 -1.728740E+04 -8.758728E+03
       301   8 -2.476243E+05 -1.553303E+05 -1.116409E+05  4.985615E+03 -3.513749E+04 -1.028558E+04
       301   9 -2.798937E+05 -1.243458E+05 -8.435060E+04 -1.950841E+04 -5.298451E+04 -1.025711E+04
       301  10  9.077712E+05  1.368320E+05  1.585042E+05 -2.221549E+04  1.625710E-09  7.177975E-10
       301  11  9.400259E+05  1.407621E+05  1.816158E+05  2.251264E+03  1.995363E-09  3.846833E-10
       301  12  9.879081E+05  1.917550E+05  2.289442E+05 -3.024315E+04  5.158858E-10 -5.805298E-11
       301  13  3.538230E+05 -1.248275E+03  2.162721E+04 -2.485322E+04  7.682116E-12 -9.910336E-10
       301  14  3.460399E+05 -7.271192E+03  3.499925E+04  3.618948E+03 -1.204327E-09 -8.969294E-10
       301  15  3.538232E+05  3.371913E+04  7.230895E+04 -2.487323E+04 -1.046264E-09 -3.015552E-10
       301  16 -1.998466E+05 -1.393514E+05 -1.152725E+05 -2.748855E+04 -7.833807E-10  4.715381E-11
       301  17 -2.476257E+05 -1.553308E+05 -1.116435E+05  4.985324E+03 -1.840120E-09  4.548139E-10
       301  18 -2.798967E+05 -1.243466E+05 -8.435608E+04 -1.950885E+04 -8.900032E-10  6.614676E-10
       301  19  9.077715E+05  1.368321E+05  1.585048E+05 -2.221537E+04  1.608542E+04  8.758739E+03
       301  20  9.400272E+05  1.407625E+05  1.816183E+05  2.251552E+03  3.478781E+04  1.028418E+04
       301  21  9.879112E+05  1.917559E+05  2.289497E+05 -3.024271E+04  5.348947E+04  1.025515E+04
       301  22  3.538233E+05 -1.248118E+03  2.162788E+04 -2.485311E+04  1.668668E+04  8.758736E+03
       301  23  3.460413E+05 -7.270751E+03  3.500175E+04  3.619238E+03  3.496274E+04  1.028488E+04
       301  24  3.538262E+05  3.372001E+04  7.231447E+04 -2.487279E+04  5.323687E+04  1.025613E+04
       301  25 -1.998462E+05 -1.393512E+05 -1.152718E+05 -2.748843E+04  1.728740E+04  8.758728E+03
       301  26 -2.476243E+05 -1.553303E+05 -1.116409E+05  4.985615E+03  3.513749E+04  1.028558E+04
       301  27 -2.798937E+05 -1.243458E+05 -8.435060E+04 -1.950841E+04  5.298451E+04  1.025711E+04
       302   1  1.144009E+06  1.829054E+05  2.784049E+05 -4.314452E+03 -6.528235E+04 -1.305867E+04
       302   2  1.138283E+06  1.514783E+05  3.357992E+05 -5.512616E+03 -1.422377E+05 -1.573200E+04
       302   3  1.229629E+06  4.564666E+05  5.279436E+05 -6.774905E+04 -2.192304E+05 -5.951588E+03
       302   4  3.717811E+05 -9.596440E+03  8.774412E+04 -2.555049E+04 -6.755227E+04 -1.306008E+04
       302   5  3.234732E+05 -5.146907E+04  1.349455E+05  4.609140E+03 -1.411314E+05 -1.573360E+04
       302   6  3.717685E+05  2.427187E+05  3.146791E+05 -2.626989E+04 -2.147421E+05 -5.953948E+03
       302   7 -3.999049E+05 -2.021411E+05 -1.029606E+05 -4.676026E+04 -6.981933E+04 -1.306133E+04
       302   8 -4.907340E+05 -2.544654E+05 -6.595717E+04  1.471730E+04 -1.400265E+05 -1.573516E+04
       302   9 -4.854209E+05  2.892237E+04  1.013606E+05  1.515154E+04 -2.102600E+05 -5.955719E+03
       302  10  1.144005E+06  1.829040E+05  2.783966E+05 -4.315138E+03  1.110707E-10  2.372414E-10
       302  11  1.138262E+06  1.514726E+05  3.357608E+05 -5.514417E+03  8.410562E-10 -1.120627E-09
       302  12  1.229577E+06  4.564536E+05  5.278534E+05 -6.775010E+04 -1.919770E-11 -8.257171E-10
       302  13  3.717761E+05 -9.597847E+03  8.773523E+04 -2.555120E+04 -4.394064E-10  2.058958E-09
       302  14  3.234517E+05 -5.147467E+04  1.349077E+05  4.607353E+03 -1.488571E-09  4.092869E-09
       302  15  3.717190E+05  2.427063E+05  3.145924E+05 -2.627092E+04 -3.652990E-10 -1.096289E-10
       302  16 -3.999102E+05 -2.021426E+05 -1.029701E+05 -4.676100E+04 -6.063319E-10  1.038915E-09
       302  17 -4.907551E+05 -2.544709E+05 -6.599450E+04  1.471553E+04 -1.153107E-09  8.089734E-10
       302  18 -4.854684E+05  2.891046E+04  1.012774E+05  1.515054E+04  3.713297E-10 -1.162066E-09
       302  19  1.144009E+06  1.829054E+05  2.784049E+05 -4.314452E+03  6.528235E+04  1.305867E+04
       302  20  1.138283E+06  1.514783E+05  3.357992E+05 -5.512616E+03  1.422377E+05  1.573200E+04
       302  21  1.229629E+06  4.564666E+05  5.279436E+05 -6.774905E+04  2.192304E+05  5.951588E+03
       302  22  3.717811E+05 -9.596440E+03  8.774412E+04 -2.555049E+04  6.755227E+04  1.306008E+04
       302  23  3.234732E+05 -5.146907E+04  1.349455E+05  4.609140E+03  1.411314E+05  1.573360E+04
       302  24  3.717685E+05  2.427187E+05  3.146791E+05 -2.626989E+04  2.147421E+05  5.953948E+03
       302  25 -3.999049E+05 -2.021411E+05 -1.029606E+05 -4.676026E+04  6.981933E+04  1.306133E+04
       302  26 -4.907340E+05 -2.544654E+05 -6.595717E+04  1.471730E+04  1.400265E+05  1.573516E+04
       302  27 -4.854209E+05  2.892237E+04  1.013606E+05  1.515154E+04  2.102600E+05  5.955719E+03
       303   1  1.948259E+05  5.774935E+05  2.290572E+05 -6.085988E+04  1.748635E+03  1.053798E+05
       303   2  3.658770E+04  4.915176E+05  1.259545E+05 -5.775872E+02  4.773858E+03  6.834805E+04
       303   3  4.119237E+04  4.509233E+05  8.763050E+04 -3.006086E+04  2.280141E+03  3.130942E+04
       303   4  1.174307E+05  2.677990E+05  1.519883E+05 -3.955216E+04  1.754535E+03  1.038347E+05
       303   5 -2.481549E+04  2.452289E+05  6.524588E+04  5.240126E+03  4.774709E+03  6.827701E+04
       303   6 -4.438572E+03  2.678045E+05  4.228289E+04 -3.973352E+04  2.276825E+03  3.270857E+04
       303   7  4.003004E+04 -4.180763E+04  7.491233E+04 -1.825502E+04  1.760332E+03  1.022905E+05
       303   8 -8.622308E+04 -1.004549E+03  4.532771E+03  1.105555E+04  4.775558E+03  6.820598E+04
       303   9 -5.007166E+04  8.471632E+04 -3.067151E+03 -4.940331E+04  2.273464E+03  3.410730E+04
       303  10  1.948229E+05  5.774816E+05  2.290364E+05 -6.086003E+04 -1.478647E-10 -1.679510E-10
       303  11  3.658642E+04  4.915126E+05  1.259457E+05 -5.778499E+02 -6.562513E-10 -3.080513E-10
       303  12  4.119210E+04  4.509223E+05  8.762865E+04 -3.006092E+04  1.012684E-09  1.130029E-09
       303  13  1.174278E+05  2.677874E+05  1.519680E+05 -3.955231E+04  5.135649E-10 -4.844318E-10
       303  14 -2.481677E+04  2.452239E+05  6.523708E+04  5.239864E+03 -1.445127E-09 -4.342008E-10
       303  15 -4.438865E+03  2.678034E+05  4.228087E+04 -3.973358E+04  1.080947E-09 -1.149796E-09
       303  16  4.002723E+04 -4.181887E+04  7.489266E+04 -1.825517E+04  1.849305E-10 -1.250106E-10
       303  17 -8.622435E+04 -1.009550E+03  4.523986E+03  1.105529E+04 -1.990696E-10 -2.590237E-10
       303  18 -5.007198E+04  8.471507E+04 -3.069346E+03 -4.940337E+04  4.992727E-10 -2.676782E-10
       303  19  1.948259E+05  5.774935E+05  2.290572E+05 -6.085988E+04 -1.748635E+03 -1.053798E+05
       303  20  3.658770E+04  4.915176E+05  1.259545E+05 -5.775872E+02 -4.773858E+03 -6.834805E+04
       303  21  4.119237E+04  4.509233E+05  8.763050E+04 -3.006086E+04 -2.280141E+03 -3.130942E+04
       303  22  1.174307E+05  2.677990E+05  1.519883E+05 -3.955216E+04 -1.754535E+03 -1.038347E+05
       303  23 -2.481549E+04  2.452289E+05  6.524588E+04  5.240126E+03 -4.774709E+03 -6.827701E+04
       303  24 -4.438572E+03  2.678045E+05  4.228289E+04 -3.973352E+04 -2.276825E+03 -3.270857E+04
       303  25  4.003004E+04 -4.180763E+04  7.491233E+04 -1.825502E+04 -1.760332E+03 -1.022905E+05
       303  26 -8.622308E+04 -1.004549E+03  4.532771E+03  1.105555E+04 -4.775558E+03 -6.820598E+04
       303  27 -5.007166E+04  8.471632E+04 -3.067151E+03 -4.940331E+04 -2.273464E+03 -3.410730E+04
       304   1  9.275102E+03  2.301775E+05  2.756638E+04 -4.233014E+04 -2.595374E+01  2.534288E+04
       304   2 -2.645933E+04  1.638680E+05 -5.966774E+03  4.660124E+03 -1.637949E+03  1.666946E+04
       304   3 -3.917785E+04  1.040441E+05 -2.818418E+04 -3.800351E+04 -2.932209E+03  7.998110E+03
       304   4  1.652112E+04  2.592228E+05  3.482759E+04 -3.962058E+04 -2.683424E+01  2.581697E+04
       304   5 -3.495425E+03  2.559768E+05  1.677855E+04  5.188481E+03 -1.638677E+03  1.705947E+04
       304   6 -4.825049E+02  2.592278E+05  1.010409E+04 -3.965531E+04 -2.932755E+03  8.303158E+03
       304   7  2.376711E+04  2.882689E+05  4.208873E+04 -3.691089E+04 -2.771058E+01  2.629109E+04
       304   8  1.946785E+04  3.480934E+05  3.952324E+04  5.716920E+03 -1.639405E+03  1.744954E+04
       304   9  3.821105E+04  4.144333E+05  4.839057E+04 -4.130751E+04 -2.933304E+03  8.608282E+03
       304  10  9.274930E+03  2.301768E+05  2.756517E+04 -4.233014E+04  5.959448E-10 -9.731052E-11
       304  11 -2.645941E+04  1.638677E+05 -5.967301E+03  4.660146E+03  4.021957E-10 -2.438935E-10
       304  12 -3.917788E+04  1.040440E+05 -2.818432E+04 -3.800349E+04 -6.558063E-10  9.372124E-10
       304  13  1.652094E+04  2.592221E+05  3.482633E+04 -3.962058E+04  7.234464E-10 -5.332683E-10
       304  14 -3.495506E+03  2.559765E+05  1.677800E+04  5.188503E+03  5.680112E-10 -4.120869E-10
       304  15 -4.825326E+02  2.592277E+05  1.010394E+04 -3.965529E+04  1.559776E-09 -1.092096E-09
       304  16  2.376692E+04  2.882681E+05  4.208744E+04 -3.691089E+04  3.292668E-10 -1.762687E-10
       304  17  1.946776E+04  3.480931E+05  3.952266E+04  5.716943E+03 -1.789756E-09 -1.528420E-10
       304  18  3.821103E+04  4.144332E+05  4.839042E+04 -4.130749E+04 -3.347252E-10 -1.626631E-10
       304  19  9.275102E+03  2.301775E+05  2.756638E+04 -4.233014E+04  2.595374E+01 -2.534288E+04
       304  20 -2.645933E+04  1.638680E+05 -5.966774E+03  4.660124E+03  1.637949E+03 -1.666946E+04
       304  21 -3.917785E+04  1.040441E+05 -2.818418E+04 -3.800351E+04  2.932209E+03 -7.998110E+03
       304  22  1.652112E+04  2.592228E+05  3.482759E+04 -3.962058E+04  2.683424E+01 -2.581697E+04
       304  23 -3.495425E+03  2.559768E+05  1.677855E+04  5.188481E+03  1.638677E+03 -1.705947E+04
       304  24 -4.825049E+02  2.592278E+05  1.010409E+04 -3.965531E+04  2.932755E+03 -8.303158E+03
       304  25  2.376711E+04  2.882689E+05  4.208873E+04 -3.691089E+04  2.771058E+01 -2.629109E+04
       304  26  1.946785E+04  3.480934E+05  3.952324E+04  5.716920E+03  1.639405E+03 -1.744954E+04
       304  27  3.821105E+04  4.144333E+05  4.839057E+04 -4.130751E+04  2.933304E+03 -8.608282E+03
       305   1 -8.939974E+04 -1.099128E+05 -8.312532E+04 -3.972153E+04 -5.583582E+03  4.863640E+03
       305   2 -1.082507E+05 -1.743640E+05 -1.029270E+05  5.766453E+03 -8.379397E+03  5.162392E+03
       305   3 -1.234717E+05 -2.374472E+05 -1.219187E+05 -3.928396E+04 -3.070551E+03  5.470167E+03
       305   4  2.413422E+03  2.581323E+05  7.921476E+03 -3.983729E+04 -5.586465E+03  6.674087E+03
       305   5 -6.319567E+02  2.572709E+05  3.539814E+03  5.428093E+03 -8.378638E+03  4.832953E+03
       305   6  3.231099E+02  2.581443E+05  1.453747E+03 -3.984098E+04 -3.068618E+03  3.000908E+03
       305   7  9.421646E+04  6.263005E+05  9.895821E+04 -3.995306E+04 -5.589347E+03  8.485607E+03
       305   8  1.069729E+05  6.890752E+05  1.099929E+05  5.089547E+03 -8.377878E+03  4.503284E+03
       305   9  1.240995E+05  7.539585E+05  1.248078E+05 -4.039840E+04 -3.066681E+03  5.296775E+02
       305  10 -8.939978E+04 -1.099128E+05 -8.312542E+04 -3.972151E+04  1.180399E-10 -7.447654E-11
       305  11 -1.082507E+05 -1.743640E+05 -1.029272E+05  5.766487E+03  2.050413E-10 -1.386635E-10
       305  12 -1.234717E+05 -2.374472E+05 -1.219188E+05 -3.928394E+04 -2.639470E-11  2.822985E-10
       305  13  2.413377E+03  2.581323E+05  7.921334E+03 -3.983726E+04 -7.030895E-10 -2.557115E-10
       305  14 -6.320383E+02  2.572709E+05  3.539638E+03  5.428126E+03  8.008443E-10 -4.172356E-10
       305  15  3.230973E+02  2.581442E+05  1.453712E+03 -3.984097E+04 -4.658874E-10 -2.124455E-10
       305  16  9.421640E+04  6.263004E+05  9.895802E+04 -3.995302E+04  1.028465E-09 -1.419332E-10
       305  17  1.069728E+05  6.890751E+05  1.099927E+05  5.089578E+03 -1.877529E-10 -2.625121E-10
       305  18  1.240995E+05  7.539584E+05  1.248078E+05 -4.039839E+04 -4.047523E-10 -6.814073E-11
       305  19 -8.939974E+04 -1.099128E+05 -8.312532E+04 -3.972153E+04  5.583582E+03 -4.863640E+03
       305  20 -1.082507E+05 -1.743640E+05 -1.029270E+05  5.766453E+03  8.379397E+03 -5.162392E+03
       305  21 -1.234717E+05 -2.374472E+05 -1.219187E+05 -3.928396E+04  3.070551E+03 -5.470167E+03
       305  22  2.413422E+03  2.581323E+05  7.921476E+03 -3.983729E+04  5.586465E+03 -6.674087E+03
       305  23 -6.319567E+02  2.572709E+05  3.539814E+03  5.428093E+03  8.378638E+03 -4.832953E+03
       305  24  3.231099E+02  2.581443E+05  1.453747E+03 -3.984098E+04  3.068618E+03 -3.000908E+03
       305  25  9.421646E+04  6.263005E+05  9.895821E+04 -3.995306E+04  5.589347E+03 -8.485607E+03
       305  26  1.069729E+05  6.890752E+05  1.099929E+05  5.089547E+03  8.377878E+03 -4.503284E+03
       305  27  1.240995E+05  7.539585E+05  1.248078E+05 -4.039840E+04  3.066681E+03 -5.296775E+02
       306   1 -2.054646E+06 -5.958152E+05 -3.905410E+05 -6.957237E+05 -2.078240E+05 -7.645219E+04
       306   2 -1.993259E+06 -2.989891E+05 -1.973897E+05 -7.565366E+05 -1.345871E+05 -4.536365E+04
       306   3 -2.061397E+06 -3.238299E+05 -1.476465E+05 -7.347626E+05 -6.003732E+04 -1.776861E+04
       306   4 -1.846497E+06 -4.786326E+05 -3.256107E+05 -5.996948E+05 -2.066833E+05 -7.603905E+04
       306   5 -1.765436E+06 -2.028857E+05 -1.332855E+05 -6.842224E+05 -1.342863E+05 -4.525338E+04
       306   6 -1.813691E+06 -2.485706E+05 -8.366324E+04 -6.861766E+05 -6.057409E+04 -1.796820E+04
       306   7 -1.638302E+06 -3.614287E+05 -2.606846E+05 -5.036314E+05 -2.055422E+05 -7.562555E+04
       306   8 -1.537563E+06 -1.067757E+05 -6.918638E+04 -6.118830E+05 -1.339854E+05 -4.514304E+04
       306   9 -1.565927E+06 -1.733124E+05 -1.968488E+04 -6.375756E+05 -6.111109E+04 -1.816784E+04
       306  10 -2.054694E+06 -5.958331E+05 -3.906335E+05 -6.957366E+05  7.446363E-11  4.717621E-11
       306  11 -1.993279E+06 -2.989962E+05 -1.974277E+05 -7.565416E+05 -2.339475E-10 -9.878511E-11
       306  12 -2.061401E+06 -3.238312E+05 -1.476539E+05 -7.347635E+05  1.387078E-09  9.146943E-11
       306  13 -1.846545E+06 -4.786503E+05 -3.257021E+05 -5.997075E+05 -6.177765E-10 -3.399931E-10
       306  14 -1.765456E+06 -2.028928E+05 -1.333234E+05 -6.842273E+05 -3.418637E-10 -3.948307E-10
       306  15 -1.813695E+06 -2.485719E+05 -8.367077E+04 -6.861775E+05 -7.148969E-10  7.039710E-11
       306  16 -1.638349E+06 -3.614463E+05 -2.607750E+05 -5.036440E+05 -2.788129E-10  1.344696E-11
       306  17 -1.537583E+06 -1.067827E+05 -6.922406E+04 -6.118878E+05 -1.330499E-09 -2.441919E-10
       306  18 -1.565931E+06 -1.733137E+05 -1.969254E+04 -6.375764E+05 -1.243473E-09 -3.227927E-10
       306  19 -2.054646E+06 -5.958152E+05 -3.905410E+05 -6.957237E+05  2.078240E+05  7.645219E+04
       306  20 -1.993259E+06 -2.989891E+05 -1.973897E+05 -7.565366E+05  1.345871E+05  4.536365E+04
       306  21 -2.061397E+06 -3.238299E+05 -1.476465E+05 -7.347626E+05  6.003732E+04  1.776861E+04
       306  22 -1.846497E+06 -4.786326E+05 -3.256107E+05 -5.996948E+05  2.066833E+05  7.603905E+04
       306  23 -1.765436E+06 -2.028857E+05 -1.332855E+05 -6.842224E+05  1.342863E+05  4.525338E+04
       306  24 -1.813691E+06 -2.485706E+05 -8.366324E+04 -6.861766E+05  6.057409E+04  1.796820E+04
       306  25 -1.638302E+06 -3.614287E+05 -2.606846E+05 -5.036314E+05  2.055422E+05  7.562555E+04
       306  26 -1.537563E+06 -1.067757E+05 -6.918638E+04 -6.118830E+05  1.339854E+05  4.514304E+04
       306  27 -1.565927E+06 -1.733124E+05 -1.968488E+04 -6.375756E+05  6.111109E+04  1.816784E+04
       307   1 -2.020103E+06 -3.749127E+05 -1.294716E+05 -7.311416E+05 -4.796191E+04 -1.387768E+04
       307   2 -2.008605E+06 -3.277647E+05 -9.042553E+04 -7.346722E+05 -3.129482E+04 -7.310804E+03
       307   3 -2.009978E+06 -3.323725E+05 -7.628938E+04 -7.337176E+05 -1.440028E+04 -1.348592E+03
       307   4 -1.801814E+06 -2.872893E+05 -6.880650E+04 -6.664568E+05 -4.783278E+04 -1.382980E+04
       307   5 -1.793083E+06 -2.451552E+05 -3.136702E+04 -6.747998E+05 -3.130915E+04 -7.316366E+03
       307   6 -1.797187E+06 -2.547383E+05 -1.871680E+04 -6.786590E+05 -1.455821E+04 -1.407808E+03
       307   7 -1.583479E+06 -1.996614E+05 -8.145730E+03 -6.017507E+05 -4.770359E+04 -1.378189E+04
       307   8 -1.577515E+06 -1.625425E+05  2.768729E+04 -6.149085E+05 -3.132349E+04 -7.321929E+03
       307   9 -1.584353E+06 -1.771024E+05  3.885176E+04 -6.235838E+05 -1.471620E+04 -1.467045E+03
       307  10 -2.020105E+06 -3.749135E+05 -1.294763E+05 -7.311421E+05  2.145480E-09  9.751533E-10
       307  11 -2.008606E+06 -3.277651E+05 -9.042748E+04 -7.346723E+05  7.419391E-10  1.337618E-10
       307  12 -2.009978E+06 -3.323725E+05 -7.628978E+04 -7.337176E+05 -1.419465E-09 -3.903940E-10
       307  13 -1.801816E+06 -2.872901E+05 -6.881117E+04 -6.664573E+05  2.777479E-10  2.099454E-10
       307  14 -1.793084E+06 -2.451555E+05 -3.136897E+04 -6.748000E+05  5.201093E-10  5.153237E-10
       307  15 -1.797187E+06 -2.547384E+05 -1.871720E+04 -6.786591E+05 -3.920779E-10 -3.625713E-10
       307  16 -1.583481E+06 -1.996622E+05 -8.150377E+03 -6.017512E+05 -1.389844E-09 -5.741125E-10
       307  17 -1.577516E+06 -1.625429E+05  2.768534E+04 -6.149087E+05  9.095908E-10  8.750594E-10
       307  18 -1.584353E+06 -1.771024E+05  3.885135E+04 -6.235839E+05  2.236821E-09  6.583548E-10
       307  19 -2.020103E+06 -3.749127E+05 -1.294716E+05 -7.311416E+05  4.796191E+04  1.387768E+04
       307  20 -2.008605E+06 -3.277647E+05 -9.042553E+04 -7.346722E+05  3.129482E+04  7.310804E+03
       307  21 -2.009978E+06 -3.323725E+05 -7.628938E+04 -7.337176E+05  1.440028E+04  1.348592E+03
       307  22 -1.801814E+06 -2.872893E+05 -6.880650E+04 -6.664568E+05  4.783278E+04  1.382980E+04
       307  23 -1.793083E+06 -2.451552E+05 -3.136702E+04 -6.747998E+05  3.130915E+04  7.316366E+03
       307  24 -1.797187E+06 -2.547383E+05 -1.871680E+04 -6.786590E+05  1.455821E+04  1.407808E+03
       307  25 -1.583479E+06 -1.996614E+05 -8.145730E+03 -6.017507E+05  4.770359E+04  1.378189E+04
       307  26 -1.577515E+06 -1.625425E+05  2.768729E+04 -6.149085E+05  3.132349E+04  7.321929E+03
       307  27 -1.584353E+06 -1.771024E+05  3.885176E+04 -6.235838E+05  1.471620E+04  1.467045E+03
       308   1 -1.975555E+06 -3.299458E+05 -6.440817E+04 -7.266475E+05 -1.165135E+04 -6.009122E+02
       308   2 -1.969866E+06 -3.149699E+05 -5.419918E+04 -7.190157E+05 -7.716309E+03  5.796638E+02
       308   3 -1.956188E+06 -3.171985E+05 -4.857581E+04 -7.221255E+05 -3.711878E+03  1.574422E+03
       308   4 -1.794523E+06 -2.610057E+05 -1.489895E+04 -6.768151E+05 -1.169414E+04 -6.170340E+02
       308   5 -1.798197E+06 -2.501172E+05 -7.340157E+03 -6.723011E+05 -7.803820E+03  5.468348E+02
       308   6 -1.793873E+06 -2.564231E+05 -4.330447E+03 -6.785288E+05 -3.844177E+03  1.524881E+03
       308   7 -1.613459E+06 -1.920637E+05  3.460722E+04 -6.269696E+05 -1.173695E+04 -6.331609E+02
       308   8 -1.626501E+06 -1.852629E+05  3.951619E+04 -6.255749E+05 -7.891358E+03  5.139958E+02
       308   9 -1.631533E+06 -1.956462E+05  3.991260E+04 -6.349219E+05 -3.976515E+03  1.475325E+03
       308  10 -1.975555E+06 -3.299458E+05 -6.440843E+04 -7.266475E+05 -4.612379E-10 -1.081704E-09
       308  11 -1.969866E+06 -3.149700E+05 -5.419929E+04 -7.190157E+05  2.178647E-11 -7.785498E-10
       308  12 -1.956188E+06 -3.171985E+05 -4.857584E+04 -7.221255E+05 -8.302399E-10 -9.846071E-10
       308  13 -1.794523E+06 -2.610058E+05 -1.489921E+04 -6.768151E+05 -1.143753E-10 -2.756303E-10
       308  14 -1.798197E+06 -2.501173E+05 -7.340272E+03 -6.723011E+05  3.393615E-10 -1.287116E-10
       308  15 -1.793873E+06 -2.564231E+05 -4.330480E+03 -6.785288E+05  8.451891E-10  5.752227E-11
       308  16 -1.613459E+06 -1.920638E+05  3.460696E+04 -6.269696E+05  4.866090E-10  5.475966E-11
       308  17 -1.626501E+06 -1.852629E+05  3.951607E+04 -6.255749E+05  1.623033E-11  7.602049E-10
       308  18 -1.631533E+06 -1.956462E+05  3.991257E+04 -6.349219E+05  6.137196E-10  3.251099E-10
       308  19 -1.975555E+06 -3.299458E+05 -6.440817E+04 -7.266475E+05  1.165135E+04  6.009122E+02
       308  20 -1.969866E+06 -3.149699E+05 -5.419918E+04 -7.190157E+05  7.716309E+03 -5.796638E+02
       308  21 -1.956188E+06 -3.171985E+05 -4.857581E+04 -7.221255E+05  3.711878E+03 -1.574422E+03
       308  22 -1.794523E+06 -2.610057E+05 -1.489895E+04 -6.768151E+05  1.169414E+04  6.170340E+02
       308  23 -1.798197E+06 -2.501172E+05 -7.340157E+03 -6.723011E+05  7.803820E+03 -5.468348E+02
       308  24 -1.793873E+06 -2.564231E+05 -4.330447E+03 -6.785288E+05  3.844177E+03 -1.524881E+03
       308  25 -1.613459E+06 -1.920637E+05  3.460722E+04 -6.269696E+05  1.173695E+04  6.331609E+02
       308  26 -1.626501E+06 -1.852629E+05  3.951619E+04 -6.255749E+05  7.891358E+03 -5.139958E+02
       308  27 -1.631533E+06 -1.956462E+05  3.991260E+04 -6.349219E+05  3.976515E+03 -1.475325E+03
       309   1 -1.911975E+06 -3.028001E+05 -3.590206E+04 -7.112995E+05 -2.999820E+03  1.526078E+03
       309   2 -1.906044E+06 -2.901614E+05 -3.103111E+04 -6.999593E+05 -1.791821E+03  1.473376E+03
       309   3 -1.886581E+06 -2.925315E+05 -2.720026E+04 -7.044666E+05 -5.520880E+02  1.335186E+03
       309   4 -1.792911E+06 -2.578686E+05 -3.450029E+03 -6.789386E+05 -3.098696E+03  1.489067E+03
       309   5 -1.799638E+06 -2.500795E+05 -2.009600E+03 -6.711223E+05 -1.911574E+03  1.428588E+03
       309   6 -1.792830E+06 -2.572946E+05 -1.592519E+03 -6.791531E+05 -6.927444E+02  1.282618E+03
       309   7 -1.673832E+06 -2.129363E+05  2.900072E+04 -6.465722E+05 -3.197593E+03  1.452049E+03
       309   8 -1.693221E+06 -2.099969E+05  2.701086E+04 -6.422808E+05 -2.031349E+03  1.383791E+03
       309   9 -1.699070E+06 -2.220573E+05  2.401439E+04 -6.538363E+05 -8.334241E+02  1.230042E+03
       309  10 -1.911975E+06 -3.028001E+05 -3.590208E+04 -7.112994E+05 -6.443000E-10 -7.818956E-10
       309  11 -1.906044E+06 -2.901614E+05 -3.103112E+04 -6.999593E+05  7.916441E-10  8.813427E-10
       309  12 -1.886581E+06 -2.925315E+05 -2.720026E+04 -7.044666E+05  1.003429E-09 -9.760623E-10
       309  13 -1.792911E+06 -2.578686E+05 -3.450051E+03 -6.789386E+05 -3.944280E-10 -1.093450E-09
       309  14 -1.799638E+06 -2.500795E+05 -2.009611E+03 -6.711223E+05 -1.359231E-09 -1.252223E-09
       309  15 -1.792830E+06 -2.572946E+05 -1.592523E+03 -6.791531E+05  6.688275E-10  1.201578E-10
       309  16 -1.673832E+06 -2.129363E+05  2.900070E+04 -6.465722E+05  5.928107E-10 -5.524693E-10
       309  17 -1.693221E+06 -2.099969E+05  2.701085E+04 -6.422808E+05 -4.562070E-10  5.098097E-11
       309  18 -1.699070E+06 -2.220573E+05  2.401438E+04 -6.538363E+05  8.413117E-10  1.353376E-09
       309  19 -1.911975E+06 -3.028001E+05 -3.590206E+04 -7.112995E+05  2.999820E+03 -1.526078E+03
       309  20 -1.906044E+06 -2.901614E+05 -3.103111E+04 -6.999593E+05  1.791821E+03 -1.473376E+03
       309  21 -1.886581E+06 -2.925315E+05 -2.720026E+04 -7.044666E+05  5.520880E+02 -1.335186E+03
       309  22 -1.792911E+06 -2.578686E+05 -3.450029E+03 -6.789386E+05  3.098696E+03 -1.489067E+03
       309  23 -1.799638E+06 -2.500795E+05 -2.009600E+03 -6.711223E+05  1.911574E+03 -1.428588E+03
       309  24 -1.792830E+06 -2.572946E+05 -1.592519E+03 -6.791531E+05  6.927444E+02 -1.282618E+03
       309  25 -1.673832E+06 -2.129363E+05  2.900072E+04 -6.465722E+05  3.197593E+03 -1.452049E+03
       309  26 -1.693221E+06 -2.099969E+05  2.701086E+04 -6.422808E+05  2.031349E+03 -1.383791E+03
       309  27 -1.699070E+06 -2.220573E+05  2.401439E+04 -6.538363E+05  8.334241E+02 -1.230042E+03
       310   1 -1.834800E+06 -2.736395E+05 -1.307413E+04 -6.910731E+05 -1.805940E+02  1.106903E+03
       310   2 -1.828270E+06 -2.602540E+05 -9.573227E+03 -6.782345E+05  9.808739E+02  9.329122E+02
       310   3 -1.806661E+06 -2.633812E+05 -7.046475E+03 -6.831015E+05  2.147753E+03  7.443647E+02
       310   4 -1.792489E+06 -2.576624E+05 -1.576410E+03 -6.795528E+05 -3.103237E+02  1.058436E+03
       310   5 -1.800063E+06 -2.496483E+05 -1.883927E+03 -6.706099E+05  8.475977E+02  8.831287E+02
       310   6 -1.792558E+06 -2.581462E+05 -3.162815E+03 -6.793727E+05  2.010905E+03  6.932560E+02
       310   7 -1.750176E+06 -2.416851E+05  9.921167E+03 -6.680318E+05 -4.400634E+02  1.009966E+03
       310   8 -1.771855E+06 -2.390425E+05  5.805307E+03 -6.629850E+05  7.143147E+02  8.333427E+02
       310   9 -1.778454E+06 -2.529112E+05  7.208257E+02 -6.756437E+05  1.874054E+03  6.421460E+02
       310  10 -1.834800E+06 -2.736395E+05 -1.307413E+04 -6.910731E+05  8.071265E-10 -8.223506E-10
       310  11 -1.828270E+06 -2.602540E+05 -9.573230E+03 -6.782345E+05  1.088412E-09  6.841712E-10
       310  12 -1.806661E+06 -2.633812E+05 -7.046484E+03 -6.831015E+05 -2.387934E-11  1.101985E-09
       310  13 -1.792489E+06 -2.576624E+05 -1.576412E+03 -6.795528E+05  1.497530E-09  1.492053E-10
       310  14 -1.800063E+06 -2.496483E+05 -1.883930E+03 -6.706099E+05 -1.113997E-09  1.006845E-09
       310  15 -1.792558E+06 -2.581462E+05 -3.162824E+03 -6.793727E+05  1.171853E-09  1.596114E-09
       310  16 -1.750176E+06 -2.416851E+05  9.921165E+03 -6.680318E+05 -8.305590E-11 -1.758161E-10
       310  17 -1.771855E+06 -2.390425E+05  5.805305E+03 -6.629850E+05 -4.332607E-10 -1.695063E-09
       310  18 -1.778454E+06 -2.529112E+05  7.208183E+02 -6.756437E+05 -5.661374E-10 -1.377133E-09
       310  19 -1.834800E+06 -2.736395E+05 -1.307413E+04 -6.910731E+05  1.805940E+02 -1.106903E+03
       310  20 -1.828270E+06 -2.602540E+05 -9.573227E+03 -6.782345E+05 -9.808739E+02 -9.329122E+02
       310  21 -1.806661E+06 -2.633812E+05 -7.046475E+03 -6.831015E+05 -2.147753E+03 -7.443647E+02
       310  22 -1.792489E+06 -2.576624E+05 -1.576410E+03 -6.795528E+05  3.103237E+02 -1.058436E+03
       310  23 -1.800063E+06 -2.496483E+05 -1.883927E+03 -6.706099E+05 -8.475977E+02 -8.831287E+02
       310  24 -1.792558E+06 -2.581462E+05 -3.162815E+03 -6.793727E+05 -2.010905E+03 -6.932560E+02
       310  25 -1.750176E+06 -2.416851E+05  9.921167E+03 -6.680318E+05  4.400634E+02 -1.009966E+03
       310  26 -1.771855E+06 -2.390425E+05  5.805307E+03 -6.629850E+05 -7.143147E+02 -8.333427E+02
       310  27 -1.778454E+06 -2.529112E+05  7.208257E+02 -6.756437E+05 -1.874054E+03 -6.421460E+02
       311   1 -1.753104E+06 -2.428179E+05  6.868596E+03 -6.692830E+05  2.876386E+03  6.272812E+02
       311   2 -1.746170E+06 -2.287486E+05  7.905866E+03 -6.562544E+05  6.503950E+03  1.347202E+03
       311   3 -1.726586E+06 -2.358134E+05  4.804207E+03 -6.594028E+05  1.009741E+04  2.158989E+03
       311   4 -1.792856E+06 -2.574407E+05 -3.957052E+03 -6.796805E+05  2.727509E+03  5.716787E+02
       311   5 -1.799471E+06 -2.489410E+05 -6.651916E+03 -6.708199E+05  6.377420E+03  1.299925E+03
       311   6 -1.793441E+06 -2.615802E+05 -1.350377E+04 -6.781365E+05  9.993146E+03  2.120008E+03
       311   7 -1.832608E+06 -2.720634E+05 -1.478283E+04 -6.900774E+05  2.578643E+03  5.160801E+02
       311   8 -1.852769E+06 -2.691331E+05 -2.120996E+04 -6.853843E+05  6.250902E+03  1.252654E+03
       311   9 -1.860291E+06 -2.873467E+05 -3.181217E+04 -6.968685E+05  9.888896E+03  2.081032E+03
       311  10 -1.753104E+06 -2.428179E+05  6.868580E+03 -6.692830E+05 -3.468642E-10  1.285658E-09
       311  11 -1.746170E+06 -2.287487E+05  7.905783E+03 -6.562544E+05 -1.454910E-09  7.375772E-10
       311  12 -1.726587E+06 -2.358135E+05  4.804006E+03 -6.594028E+05 -4.346440E-10 -1.760557E-10
       311  13 -1.792856E+06 -2.574407E+05 -3.957067E+03 -6.796805E+05 -1.891530E-10  5.627923E-10
       311  14 -1.799471E+06 -2.489410E+05 -6.651996E+03 -6.708199E+05 -6.211381E-10  1.931260E-10
       311  15 -1.793441E+06 -2.615802E+05 -1.350396E+04 -6.781366E+05 -9.315833E-10 -1.089217E-09
       311  16 -1.832608E+06 -2.720634E+05 -1.478284E+04 -6.900774E+05  3.859434E-10  4.710286E-10
       311  17 -1.852769E+06 -2.691331E+05 -2.121003E+04 -6.853843E+05  4.097550E-10  7.425366E-10
       311  18 -1.860291E+06 -2.873467E+05 -3.181236E+04 -6.968685E+05 -4.696949E-10 -2.313721E-10
       311  19 -1.753104E+06 -2.428179E+05  6.868596E+03 -6.692830E+05 -2.876386E+03 -6.272812E+02
       311  20 -1.746170E+06 -2.287486E+05  7.905866E+03 -6.562544E+05 -6.503950E+03 -1.347202E+03
       311  21 -1.726586E+06 -2.358134E+05  4.804207E+03 -6.594028E+05 -1.009741E+04 -2.158989E+03
       311  22 -1.792856E+06 -2.574407E+05 -3.957052E+03 -6.796805E+05 -2.727509E+03 -5.716787E+02
       311  23 -1.799471E+06 -2.489410E+05 -6.651916E+03 -6.708199E+05 -6.377420E+03 -1.299925E+03
       311  24 -1.793441E+06 -2.615802E+05 -1.350377E+04 -6.781365E+05 -9.993146E+03 -2.120008E+03
       311  25 -1.832608E+06 -2.720634E+05 -1.478283E+04 -6.900774E+05 -2.578643E+03 -5.160801E+02
       311  26 -1.852769E+06 -2.691331E+05 -2.120996E+04 -6.853843E+05 -6.250902E+03 -1.252654E+03
       311  27 -1.860291E+06 -2.873467E+05 -3.181217E+04 -6.968685E+05 -9.888896E+03 -2.081032E+03
       312   1 -1.677056E+06 -2.141608E+05  1.489253E+04 -6.507154E+05  1.283844E+04  2.765892E+03
       312   2 -1.667663E+06 -1.946483E+05  6.654165E+03 -6.366544E+05  2.798114E+04  7.815663E+03
       312   3 -1.662461E+06 -2.295182E+05 -2.396775E+04 -6.272960E+05  4.294032E+04  1.335699E+04
       312   4 -1.795418E+06 -2.563463E+05 -1.695963E+04 -6.803069E+05  1.264406E+04  2.693280E+03
       312   5 -1.795391E+06 -2.438916E+05 -2.839335E+04 -6.724453E+05  2.790494E+04  7.787069E+03
       312   6 -1.799583E+06 -2.858482E+05 -6.230814E+04 -6.692859E+05  4.298203E+04  1.337215E+04
       312   7 -1.913766E+06 -2.985315E+05 -4.881302E+04 -7.098935E+05  1.244973E+04  2.620683E+03
       312   8 -1.923104E+06 -2.931336E+05 -6.344232E+04 -7.082295E+05  2.782876E+04  7.758482E+03
       312   9 -1.936686E+06 -3.421761E+05 -1.006502E+05 -7.112669E+05  4.302372E+04  1.338730E+04
       312  10 -1.677057E+06 -2.141608E+05  1.489221E+04 -6.507154E+05  2.077734E-11 -3.511508E-10
       312  11 -1.667664E+06 -1.946486E+05  6.652574E+03 -6.366546E+05 -7.239846E-10 -2.777288E-09
       312  12 -1.662463E+06 -2.295189E+05 -2.397156E+04 -6.272965E+05 -8.651995E-10 -9.327232E-10
       312  13 -1.795418E+06 -2.563464E+05 -1.695995E+04 -6.803069E+05  1.247113E-10  9.540667E-11
       312  14 -1.795392E+06 -2.438918E+05 -2.839493E+04 -6.724455E+05 -7.074559E-10 -1.878825E-10
       312  15 -1.799585E+06 -2.858489E+05 -6.231196E+04 -6.692863E+05 -6.712368E-10 -5.121664E-10
       312  16 -1.913766E+06 -2.985315E+05 -4.881333E+04 -7.098935E+05 -1.320646E-09 -1.801368E-10
       312  17 -1.923104E+06 -2.931339E+05 -6.344390E+04 -7.082296E+05 -7.225399E-10 -2.644590E-10
       312  18 -1.936688E+06 -3.421768E+05 -1.006541E+05 -7.112673E+05 -5.287412E-10  7.597991E-10
       312  19 -1.677056E+06 -2.141608E+05  1.489253E+04 -6.507154E+05 -1.283844E+04 -2.765892E+03
       312  20 -1.667663E+06 -1.946483E+05  6.654165E+03 -6.366544E+05 -2.798114E+04 -7.815663E+03
       312  21 -1.662461E+06 -2.295182E+05 -2.396775E+04 -6.272960E+05 -4.294032E+04 -1.335699E+04
       312  22 -1.795418E+06 -2.563463E+05 -1.695963E+04 -6.803069E+05 -1.264406E+04 -2.693280E+03
       312  23 -1.795391E+06 -2.438916E+05 -2.839335E+04 -6.724453E+05 -2.790494E+04 -7.787069E+03
       312  24 -1.799583E+06 -2.858482E+05 -6.230814E+04 -6.692859E+05 -4.298203E+04 -1.337215E+04
       312  25 -1.913766E+06 -2.985315E+05 -4.881302E+04 -7.098935E+05 -1.244973E+04 -2.620683E+03
       312  26 -1.923104E+06 -2.931336E+05 -6.344232E+04 -7.082295E+05 -2.782876E+04 -7.758482E+03
       312  27 -1.936686E+06 -3.421761E+05 -1.006502E+05 -7.112669E+05 -4.302372E+04 -1.338730E+04
       313   1 -1.618346E+06 -1.952478E+05 -2.670517E+04 -6.524050E+05  5.514028E+04  1.713753E+04
       313   2 -1.589017E+06 -1.277961E+05 -6.940247E+04 -6.220052E+05  1.212696E+05  4.118604E+04
       313   3 -1.667844E+06 -3.600337E+05 -2.407046E+05 -5.270308E+05  1.862332E+05  6.835569E+04
       313   4 -1.810126E+06 -2.509832E+05 -7.575548E+04 -6.873614E+05  5.459068E+04  1.693358E+04
       313   5 -1.770704E+06 -2.053008E+05 -1.206766E+05 -6.806180E+05  1.214699E+05  4.125879E+04
       313   6 -1.839623E+06 -4.595129E+05 -2.948281E+05 -6.092911E+05  1.871843E+05  6.869908E+04
       313   7 -2.001870E+06 -3.067195E+05 -1.248086E+05 -7.223097E+05  5.404126E+04  1.672966E+04
       313   8 -1.952359E+06 -2.828009E+05 -1.719539E+05 -7.392144E+05  1.216701E+05  4.133150E+04
       313   9 -2.011370E+06 -5.589755E+05 -3.489543E+05 -6.915265E+05  1.881351E+05  6.904223E+04
       313  10 -1.618350E+06 -1.952489E+05 -2.671146E+04 -6.524058E+05 -8.070498E-10 -1.340891E-10
       313  11 -1.589033E+06 -1.278019E+05 -6.943338E+04 -6.220092E+05  4.404517E-11 -7.424101E-10
       313  12 -1.667883E+06 -3.600481E+05 -2.407788E+05 -5.270411E+05  4.293129E-10  2.527123E-10
       313  13 -1.810129E+06 -2.509843E+05 -7.576164E+04 -6.873621E+05 -1.398122E-10  6.329063E-10
       313  14 -1.770720E+06 -2.053066E+05 -1.207076E+05 -6.806221E+05 -1.252755E-09 -4.850343E-10
       313  15 -1.839662E+06 -4.595274E+05 -2.949031E+05 -6.093014E+05 -3.011961E-10  7.547931E-12
       313  16 -2.001873E+06 -3.067206E+05 -1.248147E+05 -7.223104E+05 -2.971185E-13  2.693590E-10
       313  17 -1.952375E+06 -2.828067E+05 -1.719850E+05 -7.392185E+05  4.727754E-10  1.940005E-10
       313  18 -2.011410E+06 -5.589902E+05 -3.490301E+05 -6.915370E+05  2.948320E-10 -9.016978E-11
       313  19 -1.618346E+06 -1.952478E+05 -2.670517E+04 -6.524050E+05 -5.514028E+04 -1.713753E+04
       313  20 -1.589017E+06 -1.277961E+05 -6.940247E+04 -6.220052E+05 -1.212696E+05 -4.118604E+04
       313  21 -1.667844E+06 -3.600337E+05 -2.407046E+05 -5.270308E+05 -1.862332E+05 -6.835569E+04
       313  22 -1.810126E+06 -2.509832E+05 -7.575548E+04 -6.873614E+05 -5.459068E+04 -1.693358E+04
       313  23 -1.770704E+06 -2.053008E+05 -1.206766E+05 -6.806180E+05 -1.214699E+05 -4.125879E+04
       313  24 -1.839623E+06 -4.595129E+05 -2.948281E+05 -6.092911E+05 -1.871843E+05 -6.869908E+04
       313  25 -2.001870E+06 -3.067195E+05 -1.248086E+05 -7.223097E+05 -5.404126E+04 -1.672966E+04
       313  26 -1.952359E+06 -2.828009E+05 -1.719539E+05 -7.392144E+05 -1.216701E+05 -4.133150E+04
       313  27 -2.011370E+06 -5.589755E+05 -3.489543E+05 -6.915265E+05 -1.881351E+05 -6.904223E+04
       314   1  2.881122E+06  5.878142E+05  8.036867E+05  1.086845E+05  6.429677E+05  5.594123E+03
       314   2  2.785085E+06 -2.839357E+05  2.771614E+05  4.591388E+04  4.240244E+05  1.103805E+04
       314   3  2.970612E+06 -1.483704E+05  1.450609E+05 -8.095070E+04  2.050716E+05  8.309104E+03
       314   4  3.449799E+06  7.283009E+05  9.445154E+05 -2.054581E+04  6.461009E+05  5.468957E+03
       314   5  3.309521E+06 -1.538118E+05  4.060590E+05  1.264400E+04  4.247940E+05  1.101615E+04
       314   6  3.450945E+06 -2.869237E+04  2.634023E+05 -1.826876E+04  2.034940E+05  8.326128E+03
       314   7  4.018804E+06  8.688266E+05  1.085329E+06 -1.498942E+05  6.492368E+05  5.342594E+03
       314   8  3.834208E+06 -2.370391E+04  5.349370E+05 -2.065407E+04  4.255642E+05  1.099418E+04
       314   9  3.931494E+06  9.098316E+04  3.817287E+05  4.446146E+04  2.019151E+05  8.342823E+03
       314  10  2.880679E+06  5.877038E+05  8.029134E+05  1.086816E+05 -1.122719E-09  1.812524E-09
       314  11  2.784892E+06 -2.839838E+05  2.768249E+05  4.591011E+04 -6.880042E-10  6.175960E-11
       314  12  2.970567E+06 -1.483817E+05  1.449822E+05 -8.095208E+04 -5.962374E-10  8.972311E-11
       314  13  3.449353E+06  7.281895E+05  9.437352E+05 -2.054866E+04  9.828028E-11  1.212938E-09
       314  14  3.309328E+06 -1.538600E+05  4.057215E+05  1.264023E+04 -2.199454E-09 -2.452495E-09
       314  15  3.450900E+06 -2.870348E+04  2.633248E+05 -1.827012E+04 -3.169199E-10  7.343943E-10
       314  16  4.018354E+06  8.687143E+05  1.084542E+06 -1.498970E+05 -1.438653E-11  3.306266E-10
       314  17  3.834015E+06 -2.375227E+04  5.345986E+05 -2.065783E+04 -5.408020E-10  5.044369E-10
       314  18  3.931451E+06  9.097223E+04  3.816525E+05  4.446010E+04 -5.188477E-11 -6.688297E-10
       314  19  2.881122E+06  5.878142E+05  8.036867E+05  1.086845E+05 -6.429677E+05 -5.594123E+03
       314  20  2.785085E+06 -2.839357E+05  2.771614E+05  4.591388E+04 -4.240244E+05 -1.103805E+04
       314  21  2.970612E+06 -1.483704E+05  1.450609E+05 -8.095070E+04 -2.050716E+05 -8.309104E+03
       314  22  3.449799E+06  7.283009E+05  9.445154E+05 -2.054581E+04 -6.461009E+05 -5.468957E+03
       314  23  3.309521E+06 -1.538118E+05  4.060590E+05  1.264400E+04 -4.247940E+05 -1.101615E+04
       314  24  3.450945E+06 -2.869237E+04  2.634023E+05 -1.826876E+04 -2.034940E+05 -8.326128E+03
       314  25  4.018804E+06  8.688266E+05  1.085329E+06 -1.498942E+05 -6.492368E+05 -5.342594E+03
       314  26  3.834208E+06 -2.370391E+04  5.349370E+05 -2.065407E+04 -4.255642E+05 -1.099418E+04
       314  27  3.931494E+06  9.098316E+04  3.817287E+05  4.446146E+04 -2.019151E+05 -8.342823E+03
       315   1  3.036307E+06  1.180295E+04  1.282885E+05  2.545873E+03  1.603288E+05  6.139793E+03
       315   2  3.044582E+06 -1.039927E+05  2.394171E+04  1.075712E+04  1.054668E+05  5.852370E+03
       315   3  3.095701E+06 -7.903510E+04 -9.494309E+03 -2.312415E+04  5.060481E+04  4.772447E+03
       315   4  3.397582E+06  1.015280E+05  2.172568E+05 -1.419745E+04  1.604442E+05  6.135348E+03
       315   5  3.376263E+06 -2.157323E+04  1.055805E+05  6.930785E+03  1.053429E+05  5.851321E+03
       315   6  3.397803E+06 -3.922078E+03  6.495080E+04 -1.403168E+04  5.024436E+04  4.772712E+03
       315   7  3.758977E+06  1.912445E+05  3.062155E+05 -3.095052E+04  1.605596E+05  6.130900E+03
       315   8  3.708043E+06  6.083814E+04  1.872112E+05  3.102382E+03  1.052190E+05  5.850275E+03
       315   9  3.699987E+06  7.118448E+04  1.393892E+05 -4.934812E+03  4.988372E+04  4.772967E+03
       315  10  3.036279E+06  1.179605E+04  1.282404E+05  2.545081E+03 -8.533378E-10 -1.175017E-09
       315  11  3.044570E+06 -1.039957E+05  2.392084E+04  1.075662E+04  1.159844E-09 -9.140139E-11
       315  12  3.095698E+06 -7.903580E+04 -9.499140E+03 -2.312435E+04 -6.837222E-10 -3.845714E-10
       315  13  3.397555E+06  1.015211E+05  2.172086E+05 -1.419824E+04  5.746837E-10 -9.850322E-10
       315  14  3.376251E+06 -2.157623E+04  1.055597E+05  6.930289E+03 -7.486181E-11 -1.042687E-09
       315  15  3.397800E+06 -3.922776E+03  6.494604E+04 -1.403187E+04 -7.317505E-10 -7.415267E-10
       315  16  3.758949E+06  1.912376E+05  3.061673E+05 -3.095131E+04  1.023624E-09  2.679728E-10
       315  17  3.708032E+06  6.083516E+04  1.871904E+05  3.101887E+03 -5.601054E-10 -2.605195E-09
       315  18  3.699984E+06  7.118379E+04  1.393845E+05 -4.935004E+03 -5.185568E-10  4.557318E-10
       315  19  3.036307E+06  1.180295E+04  1.282885E+05  2.545873E+03 -1.603288E+05 -6.139793E+03
       315  20  3.044582E+06 -1.039927E+05  2.394171E+04  1.075712E+04 -1.054668E+05 -5.852370E+03
       315  21  3.095701E+06 -7.903510E+04 -9.494309E+03 -2.312415E+04 -5.060481E+04 -4.772447E+03
       315  22  3.397582E+06  1.015280E+05  2.172568E+05 -1.419745E+04 -1.604442E+05 -6.135348E+03
       315  23  3.376263E+06 -2.157323E+04  1.055805E+05  6.930785E+03 -1.053429E+05 -5.851321E+03
       315  24  3.397803E+06 -3.922078E+03  6.495080E+04 -1.403168E+04 -5.024436E+04 -4.772712E+03
       315  25  3.758977E+06  1.912445E+05  3.062155E+05 -3.095052E+04 -1.605596E+05 -6.130900E+03
       315  26  3.708043E+06  6.083814E+04  1.872112E+05  3.102382E+03 -1.052190E+05 -5.850275E+03
       315  27  3.699987E+06  7.118448E+04  1.393892E+05 -4.934812E+03 -4.988372E+04 -4.772967E+03
       316   1  3.170472E+06 -4.045501E+04 -2.197090E+03 -9.330484E+03  3.991758E+04  4.095255E+03
       316   2  3.187970E+06 -5.232640E+04 -2.163045E+04  3.863952E+03  2.604703E+04  3.363779E+03
       316   3  3.212354E+06 -4.460928E+04 -2.712940E+04 -1.265212E+04  1.217550E+04  2.687662E+03
       316   4  3.389781E+06  1.403080E+04  5.173149E+04 -1.133780E+04  3.972821E+04  4.094897E+03
       316   5  3.386363E+06 -3.023283E+03  2.721163E+04  3.521976E+03  2.586793E+04  3.363608E+03
       316   6  3.389824E+06 -4.943825E+02  1.661539E+04 -1.132807E+04  1.200714E+04  2.687597E+03
       316   7  3.609135E+06  6.851307E+04  1.056565E+05 -1.334583E+04  3.953877E+04  4.094540E+03
       316   8  3.584791E+06  4.627692E+04  7.605081E+04  3.179887E+03  2.568878E+04  3.363436E+03
       316   9  3.567323E+06  4.361819E+04  6.035787E+04 -1.000365E+04  1.183873E+04  2.687532E+03
       316  10  3.170470E+06 -4.045545E+04 -2.200100E+03 -9.330615E+03  7.923452E-11  4.419814E-10
       316  11  3.187970E+06 -5.232660E+04 -2.163174E+04  3.863881E+03  2.527307E-10  4.790782E-10
       316  12  3.212354E+06 -4.460933E+04 -2.712969E+04 -1.265214E+04  5.085975E-10  3.508273E-10
       316  13  3.389780E+06  1.403037E+04  5.172850E+04 -1.133793E+04 -3.390006E-11  2.085157E-10
       316  14  3.386362E+06 -3.023474E+03  2.721036E+04  3.521906E+03  7.790033E-10 -1.799794E-10
       316  15  3.389824E+06 -4.944287E+02  1.661511E+04 -1.132810E+04  1.309608E-09  1.895995E-10
       316  16  3.609133E+06  6.851264E+04  1.056536E+05 -1.334596E+04 -3.005210E-10 -5.275998E-10
       316  17  3.584790E+06  4.627673E+04  7.604955E+04  3.179818E+03  1.190681E-10 -6.498393E-10
       316  18  3.567323E+06  4.361814E+04  6.035759E+04 -1.000368E+04 -1.420555E-09 -2.093004E-10
       316  19  3.170472E+06 -4.045501E+04 -2.197090E+03 -9.330484E+03 -3.991758E+04 -4.095255E+03
       316  20  3.187970E+06 -5.232640E+04 -2.163045E+04  3.863952E+03 -2.604703E+04 -3.363779E+03
       316  21  3.212354E+06 -4.460928E+04 -2.712940E+04 -1.265212E+04 -1.217550E+04 -2.687662E+03
       316  22  3.389781E+06  1.403080E+04  5.173149E+04 -1.133780E+04 -3.972821E+04 -4.094897E+03
       316  23  3.386363E+06 -3.023283E+03  2.721163E+04  3.521976E+03 -2.586793E+04 -3.363608E+03
       316  24  3.389824E+06 -4.943825E+02  1.661539E+04 -1.132807E+04 -1.200714E+04 -2.687597E+03
       316  25  3.609135E+06  6.851307E+04  1.056565E+05 -1.334583E+04 -3.953877E+04 -4.094540E+03
       316  26  3.584791E+06  4.627692E+04  7.605081E+04  3.179887E+03 -2.568878E+04 -3.363436E+03
       316  27  3.567323E+06  4.361819E+04  6.035787E+04 -1.000365E+04 -1.183873E+04 -2.687532E+03
       317   1  3.271854E+06 -2.709462E+04 -1.543436E+04 -9.562413E+03  9.477842E+03  2.307435E+03
       317   2  3.287260E+06 -2.548293E+04 -1.666884E+04  1.622365E+03  5.381045E+03  1.693332E+03
       317   3  3.303984E+06 -2.089392E+04 -1.449328E+04 -9.993070E+03  1.283958E+03  1.163707E+03
       317   4  3.388589E+06  1.902688E+03  1.324582E+04 -9.795623E+03  9.305179E+03  2.307378E+03
       317   5  3.387935E+06 -4.647428E+02  8.116459E+03  1.604506E+03  5.230098E+03  1.693307E+03
       317   6  3.388596E+06  1.410789E+02  6.381667E+03 -9.795342E+03  1.154832E+03  1.163707E+03
       317   7  3.505336E+06  3.089899E+04  4.192499E+04 -1.002888E+04  9.132483E+03  2.307320E+03
       317   8  3.488620E+06  2.455269E+04  3.290101E+04  1.586645E+03  5.079126E+03  1.693283E+03
       317   9  3.473214E+06  2.117555E+04  2.725609E+04 -9.597587E+03  1.025689E+03  1.163707E+03
       317  10  3.271854E+06 -2.709465E+04 -1.543453E+04 -9.562431E+03  4.889632E-10 -9.001970E-10
       317  11  3.287260E+06 -2.548294E+04 -1.666890E+04  1.622357E+03 -1.787824E-09 -3.543996E-10
       317  12  3.303984E+06 -2.089392E+04 -1.449329E+04 -9.993071E+03 -3.536101E-10 -1.477047E-10
       317  13  3.388589E+06  1.902659E+03  1.324564E+04 -9.795640E+03 -1.087922E-09  6.448669E-11
       317  14  3.387935E+06 -4.647532E+02  8.116402E+03  1.604499E+03  1.403975E-09 -1.485849E-10
       317  15  3.388596E+06  1.410771E+02  6.381662E+03 -9.795343E+03  2.215837E-10  6.370632E-11
       317  16  3.505336E+06  3.089896E+04  4.192482E+04 -1.002889E+04  8.366454E-10  1.673967E-10
       317  17  3.488620E+06  2.455268E+04  3.290096E+04  1.586638E+03 -1.211812E-10 -1.394734E-09
       317  18  3.473214E+06  2.117554E+04  2.725608E+04 -9.597588E+03  1.193166E-09  1.135891E-10
       317  19  3.271854E+06 -2.709462E+04 -1.543436E+04 -9.562413E+03 -9.477842E+03 -2.307435E+03
       317  20  3.287260E+06 -2.548293E+04 -1.666884E+04  1.622365E+03 -5.381045E+03 -1.693332E+03
       317  21  3.303984E+06 -2.089392E+04 -1.449328E+04 -9.993070E+03 -1.283958E+03 -1.163707E+03
       317  22  3.388589E+06  1.902688E+03  1.324582E+04 -9.795623E+03 -9.305179E+03 -2.307378E+03
       317  23  3.387935E+06 -4.647428E+02  8.116459E+03  1.604506E+03 -5.230098E+03 -1.693307E+03
       317  24  3.388596E+06  1.410789E+02  6.381667E+03 -9.795342E+03 -1.154832E+03 -1.163707E+03
       317  25  3.505336E+06  3.089899E+04  4.192499E+04 -1.002888E+04 -9.132483E+03 -2.307320E+03
       317  26  3.488620E+06  2.455269E+04  3.290101E+04  1.586645E+03 -5.079126E+03 -1.693283E+03
       317  27  3.473214E+06  2.117555E+04  2.725609E+04 -9.597587E+03 -1.025689E+03 -1.163707E+03
       318   1  3.353447E+06 -8.509508E+03 -2.406506E+03 -9.003119E+03  1.564374E+02  8.695270E+02
       318   2  3.366991E+06 -5.609578E+03  1.878618E+03  8.056718E+02 -3.389352E+03  3.524080E+02
       318   3  3.381612E+06 -2.141039E+02  9.085756E+03 -9.378135E+03 -6.935209E+03 -1.360715E+02
       318   4  3.388545E+06  2.026356E+02  6.186015E+03 -9.171603E+03  1.547550E+01  8.695400E+02
       318   5  3.388004E+06 -3.878695E+02  7.051923E+03  8.247826E+02 -3.522843E+03  3.524245E+02
       318   6  3.388539E+06  1.515903E+03  1.083469E+04 -9.171387E+03 -7.061149E+03 -1.360533E+02
       318   7  3.423645E+06  8.914689E+03  1.477845E+04 -9.340096E+03 -1.254943E+02  8.695530E+02
       318   8  3.409018E+06  4.833807E+03  1.222519E+04  8.438941E+02 -3.656338E+03  3.524410E+02
       318   9  3.395467E+06  3.245907E+03  1.258362E+04 -8.964636E+03 -7.187090E+03 -1.360352E+02
       318  10  3.353447E+06 -8.509509E+03 -2.406508E+03 -9.003119E+03 -5.029365E-11 -1.971210E-10
       318  11  3.366991E+06 -5.609582E+03  1.878597E+03  8.056727E+02  1.010643E-09  8.380804E-12
       318  12  3.381612E+06 -2.141167E+02  9.085667E+03 -9.378136E+03  1.020942E-10 -2.477969E-10
       318  13  3.388545E+06  2.026348E+02  6.186014E+03 -9.171603E+03 -9.547930E-12  2.051002E-10
       318  14  3.388004E+06 -3.878729E+02  7.051899E+03  8.247836E+02 -9.213660E-10  1.692583E-10
       318  15  3.388539E+06  1.515890E+03  1.083460E+04 -9.171388E+03  1.232557E-09 -1.079918E-10
       318  16  3.423645E+06  8.914688E+03  1.477845E+04 -9.340096E+03 -5.150797E-10 -1.853227E-12
       318  17  3.409018E+06  4.833803E+03  1.222517E+04  8.438951E+02 -1.092614E-09  3.796046E-10
       318  18  3.395467E+06  3.245893E+03  1.258353E+04 -8.964637E+03  9.453364E-10  1.309691E-10
       318  19  3.353447E+06 -8.509508E+03 -2.406506E+03 -9.003119E+03 -1.564374E+02 -8.695270E+02
       318  20  3.366991E+06 -5.609578E+03  1.878618E+03  8.056718E+02  3.389352E+03 -3.524080E+02
       318  21  3.381612E+06 -2.141039E+02  9.085756E+03 -9.378135E+03  6.935209E+03  1.360715E+02
       318  22  3.388545E+06  2.026356E+02  6.186015E+03 -9.171603E+03 -1.547550E+01 -8.695400E+02
       318  23  3.388004E+06 -3.878695E+02  7.051923E+03  8.247826E+02  3.522843E+03 -3.524245E+02
       318  24  3.388539E+06  1.515903E+03  1.083469E+04 -9.171387E+03  7.061149E+03  1.360533E+02
       318  25  3.423645E+06  8.914689E+03  1.477845E+04 -9.340096E+03  1.254943E+02 -8.695530E+02
       318  26  3.409018E+06  4.833807E+03  1.222519E+04  8.438941E+02  3.656338E+03 -3.524410E+02
       318  27  3.395467E+06  3.245907E+03  1.258362E+04 -8.964636E+03  7.187090E+03  1.360352E+02
       319   1  3.429730E+06  9.633790E+03  2.335295E+04 -8.327599E+03 -9.117479E+03 -4.236340E+02
       319   2  3.441694E+06  1.124816E+04  3.517148E+04  7.078112E+02 -2.015384E+04 -9.294811E+02
       319   3  3.458970E+06  2.838466E+04  5.802801E+04 -1.102955E+04 -3.119064E+04 -1.417612E+03
       319   4  3.389484E+06 -3.748117E+02  1.340254E+04 -9.345135E+03 -9.253829E+03 -4.236002E+02
       319   5  3.386810E+06 -2.388996E+03  2.166255E+04  1.041468E+03 -2.028463E+04 -9.294864E+02
       319   6  3.389449E+06  1.111880E+04  4.095752E+04 -9.344769E+03 -3.131562E+04 -1.417703E+03
       319   7  3.349240E+06 -1.038353E+04  3.452010E+03 -1.036260E+04 -9.390170E+03 -4.235659E+02
       319   8  3.331930E+06 -1.602637E+04  8.153398E+03  1.375095E+03 -2.041542E+04 -9.294918E+02
       319   9  3.319932E+06 -6.147415E+03  2.388666E+04 -7.660177E+03 -3.144059E+04 -1.417794E+03
       319  10  3.429730E+06  9.633767E+03  2.335280E+04 -8.327602E+03 -1.458809E-09  2.203874E-10
       319  11  3.441693E+06  1.124805E+04  3.517071E+04  7.077962E+02  1.096436E-10 -2.054309E-11
       319  12  3.458969E+06  2.838440E+04  5.802619E+04 -1.102958E+04  4.599979E-10  5.550685E-12
       319  13  3.389484E+06 -3.748347E+02  1.340238E+04 -9.345138E+03  1.457870E-09 -1.752661E-10
       319  14  3.386810E+06 -2.389107E+03  2.166178E+04  1.041453E+03  1.042139E-09 -9.826898E-10
       319  15  3.389448E+06  1.111853E+04  4.095568E+04 -9.344805E+03 -1.532667E-10 -4.411199E-10
       319  16  3.349240E+06 -1.038355E+04  3.451845E+03 -1.036261E+04 -1.148275E-09 -1.410655E-10
       319  17  3.331930E+06 -1.602648E+04  8.152618E+03  1.375080E+03  2.820626E-09 -1.243942E-09
       319  18  3.319931E+06 -6.147681E+03  2.388481E+04 -7.660213E+03  3.510408E-11 -1.455504E-10
       319  19  3.429730E+06  9.633790E+03  2.335295E+04 -8.327599E+03  9.117479E+03  4.236340E+02
       319  20  3.441694E+06  1.124816E+04  3.517148E+04  7.078112E+02  2.015384E+04  9.294811E+02
       319  21  3.458970E+06  2.838466E+04  5.802801E+04 -1.102955E+04  3.119064E+04  1.417612E+03
       319  22  3.389484E+06 -3.748117E+02  1.340254E+04 -9.345135E+03  9.253829E+03  4.236002E+02
       319  23  3.386810E+06 -2.388996E+03  2.166255E+04  1.041468E+03  2.028463E+04  9.294864E+02
       319  24  3.389449E+06  1.111880E+04  4.095752E+04 -9.344769E+03  3.131562E+04  1.417703E+03
       319  25  3.349240E+06 -1.038353E+04  3.452010E+03 -1.036260E+04  9.390170E+03  4.235659E+02
       319  26  3.331930E+06 -1.602637E+04  8.153398E+03  1.375095E+03  2.041542E+04  9.294918E+02
       319  27  3.319932E+06 -6.147415E+03  2.388666E+04 -7.660177E+03  3.144059E+04  1.417794E+03
       320   1  3.518549E+06  2.744139E+04  8.163687E+04 -3.306353E+03 -3.941686E+04 -1.819673E+03
       320   2  3.519524E+06  1.789822E+04  1.180625E+05 -9.568955E+02 -8.309072E+04 -2.451288E+03
       320   3  3.554029E+06  1.196357E+05  2.106489E+05 -2.392046E+04 -1.267667E+05 -2.659922E+03
       320   4  3.395745E+06 -3.080654E+03  5.136606E+04 -1.034606E+04 -3.963402E+04 -1.819258E+03
       320   5  3.378898E+06 -1.703923E+04  8.345999E+04  2.296440E+03 -8.318736E+04 -2.451778E+03
       320   6  3.395567E+06  8.027565E+04  1.716409E+05 -1.037414E+04 -1.267416E+05 -2.662715E+03
       320   7  3.272955E+06 -3.360364E+04  2.109416E+04 -1.738438E+04 -3.985114E+04 -1.818839E+03
       320   8  3.238289E+06 -5.197810E+04  4.885602E+04  5.549041E+03 -8.328398E+04 -2.452270E+03
       320   9  3.237129E+06  4.091442E+04  1.326312E+05  3.168737E+03 -1.267165E+05 -2.665507E+03
       320  10  3.518548E+06  2.744098E+04  8.163396E+04 -3.306411E+03  1.843616E-09 -3.043186E-10
       320  11  3.519517E+06  1.789637E+04  1.180496E+05 -9.570593E+02 -1.917728E-10 -4.416304E-10
       320  12  3.554011E+06  1.196314E+05  2.106188E+05 -2.392073E+04 -1.319420E-09 -5.607189E-10
       320  13  3.395744E+06 -3.081077E+03  5.136312E+04 -1.034612E+04 -3.605472E-15  1.176841E-10
       320  14  3.378890E+06 -1.704108E+04  8.344704E+04  2.296276E+03 -1.608291E-09 -1.490411E-10
       320  15  3.395550E+06  8.027136E+04  1.716109E+05 -1.037441E+04  1.510225E-11 -6.505664E-10
       320  16  3.272953E+06 -3.360406E+04  2.109119E+04 -1.738443E+04 -9.381869E-10 -5.069870E-10
       320  17  3.238282E+06 -5.197996E+04  4.884304E+04  5.548877E+03  1.045637E-09 -9.090593E-10
       320  18  3.237112E+06  4.091013E+04  1.326012E+05  3.168465E+03  6.133230E-10  9.247620E-11
       320  19  3.518549E+06  2.744139E+04  8.163687E+04 -3.306353E+03  3.941686E+04  1.819673E+03
       320  20  3.519524E+06  1.789822E+04  1.180625E+05 -9.568955E+02  8.309072E+04  2.451288E+03
       320  21  3.554029E+06  1.196357E+05  2.106489E+05 -2.392046E+04  1.267667E+05  2.659922E+03
       320  22  3.395745E+06 -3.080654E+03  5.136606E+04 -1.034606E+04  3.963402E+04  1.819258E+03
       320  23  3.378898E+06 -1.703923E+04  8.345999E+04  2.296440E+03  8.318736E+04  2.451778E+03
       320  24  3.395567E+06  8.027565E+04  1.716409E+05 -1.037414E+04  1.267416E+05  2.662715E+03
       320  25  3.272955E+06 -3.360364E+04  2.109416E+04 -1.738438E+04  3.985114E+04  1.818839E+03
       320  26  3.238289E+06 -5.197810E+04  4.885602E+04  5.549041E+03  8.328398E+04  2.452270E+03
       320  27  3.237129E+06  4.091442E+04  1.326312E+05  3.168737E+03  1.267165E+05  2.665507E+03
       321   1  3.664846E+06  3.389578E+04  2.640109E+05  3.677574E+04 -1.599247E+05 -3.784554E+03
       321   2  3.577896E+06 -5.905221E+04  3.825861E+05 -2.206746E+04 -3.359307E+05 -5.036540E+03
       321   3  3.712751E+06  6.438507E+05  8.143800E+05 -1.159196E+05 -5.119350E+05 -2.143443E+03
       321   4  3.437628E+06 -2.262205E+04  2.080577E+05 -1.232336E+04 -1.607416E+05 -3.772473E+03
       321   5  3.326314E+06 -1.214945E+05  3.207727E+05  4.870697E+03 -3.355974E+05 -5.050979E+03
       321   6  3.436689E+06  5.754364E+05  7.460015E+05 -1.293138E+04 -5.104442E+05 -2.226552E+03
       321   7  3.210462E+06 -7.913470E+04  1.521020E+05 -6.140455E+04 -1.615582E+05 -3.760259E+03
       321   8  3.074790E+06 -1.839388E+05  2.589551E+05  3.179797E+04 -3.352641E+05 -5.065395E+03
       321   9  3.160718E+06  5.070562E+05  6.776231E+05  9.001126E+04 -5.089540E+05 -2.309201E+03
       321  10  3.664819E+06  3.388895E+04  2.639631E+05  3.677525E+04  1.641622E-10 -1.269757E-10
       321  11  3.577775E+06 -5.908230E+04  3.823752E+05 -2.206882E+04  3.380435E-09 -9.312273E-12
       321  12  3.712471E+06  6.437809E+05  8.138904E+05 -1.159205E+05  2.700925E-10  4.653669E-10
       321  13  3.437601E+06 -2.262895E+04  2.080094E+05 -1.232384E+04 -2.912840E-09 -1.007818E-09
       321  14  3.326193E+06 -1.215246E+05  3.205622E+05  4.869334E+03  3.242876E-10  3.142684E-10
       321  15  3.436411E+06  5.753670E+05  7.455146E+05 -1.293229E+04 -2.993020E-10 -4.267188E-10
       321  16  3.210434E+06 -7.914168E+04  1.520532E+05 -6.140504E+04  9.089397E-11 -2.016582E-10
       321  17  3.074670E+06 -1.839688E+05  2.587449E+05  3.179660E+04 -3.045532E-09 -4.098630E-10
       321  18  3.160441E+06  5.069871E+05  6.771387E+05  9.001033E+04  2.295939E-10  1.128061E-09
       321  19  3.664846E+06  3.389578E+04  2.640109E+05  3.677574E+04  1.599247E+05  3.784554E+03
       321  20  3.577896E+06 -5.905221E+04  3.825861E+05 -2.206746E+04  3.359307E+05  5.036540E+03
       321  21  3.712751E+06  6.438507E+05  8.143800E+05 -1.159196E+05  5.119350E+05  2.143443E+03
       321  22  3.437628E+06 -2.262205E+04  2.080577E+05 -1.232336E+04  1.607416E+05  3.772473E+03
       321  23  3.326314E+06 -1.214945E+05  3.207727E+05  4.870697E+03  3.355974E+05  5.050979E+03
       321  24  3.436689E+06  5.754364E+05  7.460015E+05 -1.293138E+04  5.104442E+05  2.226552E+03
       321  25  3.210462E+06 -7.913470E+04  1.521020E+05 -6.140455E+04  1.615582E+05  3.760259E+03
       321  26  3.074790E+06 -1.839388E+05  2.589551E+05  3.179797E+04  3.352641E+05  5.065395E+03
       321  27  3.160718E+06  5.070562E+05  6.776231E+05  9.001126E+04  5.089540E+05  2.309201E+03
       322   1  1.968980E+05  3.291890E+05  2.883624E+05 -4.893443E+04 -3.479035E+03  2.595813E+05
       322   2 -1.682051E+05  2.791088E+05  7.220751E+04 -1.612276E+04 -8.264609E+03  1.662481E+05
       322   3 -1.090562E+05  3.480440E+05  2.305571E+04  3.055501E+04 -7.150401E+03  7.292685E+04
       322   4  3.024524E+05  7.537937E+05  3.938987E+05  4.542612E+03 -3.463268E+03  2.618309E+05
       322   5 -6.483742E+04  6.942279E+05  1.745650E+05 -2.871882E+03 -8.262206E+03  1.668792E+05
       322   6 -7.751180E+03  7.538778E+05  1.232768E+05  3.581265E+03 -7.151016E+03  7.194123E+04
       322   7  4.080041E+05  1.178568E+06  4.994231E+05  5.805634E+04 -3.447126E+03  2.640820E+05
       322   8  3.851813E+04  1.109504E+06  2.769098E+05  1.038797E+04 -8.259777E+03  1.675108E+05
       322   9  9.354428E+04  1.159863E+06  2.234860E+05 -2.341004E+04 -7.151544E+03  7.095495E+04
       322  10  1.968799E+05  3.291166E+05  2.882358E+05 -4.893370E+04 -1.012837E-10  9.293101E-10
       322  11 -1.682126E+05  2.790791E+05  7.215547E+04 -1.612165E+04 -1.418216E-11  3.764126E-10
       322  12 -1.090577E+05  3.480383E+05  2.304563E+04  3.055543E+04  1.445532E-09  1.514298E-09
       322  13  3.024340E+05  7.537201E+05  3.937700E+05  4.543342E+03  1.423935E-09  4.111905E-09
       322  14 -6.484496E+04  6.941980E+05  1.745126E+05 -2.870773E+03 -1.812288E-09 -3.211118E-09
       322  15 -7.752622E+03  7.538723E+05  1.232670E+05  3.581679E+03  1.092450E-09  7.813351E-10
       322  16  4.079854E+05  1.178493E+06  4.992923E+05  5.805708E+04 -5.055049E-10  7.854874E-10
       322  17  3.851054E+04  1.109474E+06  2.768571E+05  1.038908E+04 -3.277424E-11 -2.332310E-09
       322  18  9.354287E+04  1.159857E+06  2.234765E+05 -2.340963E+04  3.502149E-10 -1.975256E-09
       322  19  1.968980E+05  3.291890E+05  2.883624E+05 -4.893443E+04  3.479035E+03 -2.595813E+05
       322  20 -1.682051E+05  2.791088E+05  7.220751E+04 -1.612276E+04  8.264609E+03 -1.662481E+05
       322  21 -1.090562E+05  3.480440E+05  2.305571E+04  3.055501E+04  7.150401E+03 -7.292685E+04
       322  22  3.024524E+05  7.537937E+05  3.938987E+05  4.542612E+03  3.463268E+03 -2.618309E+05
       322  23 -6.483742E+04  6.942279E+05  1.745650E+05 -2.871882E+03  8.262206E+03 -1.668792E+05
       322  24 -7.751180E+03  7.538778E+05  1.232768E+05  3.581265E+03  7.151016E+03 -7.194123E+04
       322  25  4.080041E+05  1.178568E+06  4.994231E+05  5.805634E+04  3.447126E+03 -2.640820E+05
       322  26  3.851813E+04  1.109504E+06  2.769098E+05  1.038797E+04  8.259777E+03 -1.675108E+05
       322  27  9.354428E+04  1.159863E+06  2.234860E+05 -2.341004E+04  7.151544E+03 -7.095495E+04
       323   1 -5.376968E+04  3.537118E+05  1.418133E+04 -6.337570E+03 -6.115821E+03  5.092365E+04
       323   2 -1.086393E+05  3.447025E+05 -1.848518E+04 -1.751352E+03 -6.535950E+03  1.271215E+04
       323   3 -6.326767E+04  3.663318E+05 -1.095248E+03  1.187674E+04 -5.695445E+03 -2.549788E+04
       323   4  4.103828E+04  7.341848E+05  1.081968E+05  2.851774E+03 -6.115412E+03  5.124272E+04
       323   5 -1.538138E+04  7.188457E+05  7.387416E+04 -1.691830E+03 -6.535638E+03  1.267737E+04
       323   6  2.846890E+04  7.341889E+05  8.983261E+04  2.805988E+03 -5.694443E+03 -2.588612E+04
       323   7  1.358358E+05  1.114789E+06  2.022015E+05  1.204682E+04 -6.114994E+03  5.156198E+04
       323   8  7.786614E+04  1.093116E+06  1.662231E+05 -1.632224E+03 -6.535326E+03  1.264257E+04
       323   9  1.201957E+05  1.102169E+06  1.807505E+05 -6.270107E+03 -5.693430E+03 -2.627459E+04
       323  10 -5.377042E+04  3.537090E+05  1.417639E+04 -6.337319E+03 -2.467501E-10  1.022219E-09
       323  11 -1.086394E+05  3.447024E+05 -1.848556E+04 -1.751285E+03  5.676867E-10 -3.679510E-10
       323  12 -6.326788E+04  3.663311E+05 -1.096530E+03  1.187662E+04 -3.651559E-10  4.461474E-10
       323  13  4.103753E+04  7.341820E+05  1.081918E+05  2.852026E+03  4.850896E-10  2.147346E-09
       323  14 -1.538147E+04  7.188455E+05  7.387378E+04 -1.691763E+03  9.033772E-10 -2.115494E-09
       323  15  2.846869E+04  7.341882E+05  8.983129E+04  2.805869E+03  8.769282E-10  6.848710E-10
       323  16  1.358350E+05  1.114787E+06  2.021965E+05  1.204707E+04  1.067990E-09  5.617062E-10
       323  17  7.786606E+04  1.093116E+06  1.662228E+05 -1.632157E+03 -6.894901E-10 -1.139631E-09
       323  18  1.201955E+05  1.102168E+06  1.807491E+05 -6.270227E+03  6.670955E-11 -1.016855E-09
       323  19 -5.376968E+04  3.537118E+05  1.418133E+04 -6.337570E+03  6.115821E+03 -5.092365E+04
       323  20 -1.086393E+05  3.447025E+05 -1.848518E+04 -1.751352E+03  6.535950E+03 -1.271215E+04
       323  21 -6.326767E+04  3.663318E+05 -1.095248E+03  1.187674E+04  5.695445E+03  2.549788E+04
       323  22  4.103828E+04  7.341848E+05  1.081968E+05  2.851774E+03  6.115412E+03 -5.124272E+04
       323  23 -1.538138E+04  7.188457E+05  7.387416E+04 -1.691830E+03  6.535638E+03 -1.267737E+04
       323  24  2.846890E+04  7.341889E+05  8.983261E+04  2.805988E+03  5.694443E+03  2.588612E+04
       323  25  1.358358E+05  1.114789E+06  2.022015E+05  1.204682E+04  6.114994E+03 -5.156198E+04
       323  26  7.786614E+04  1.093116E+06  1.662231E+05 -1.632224E+03  6.535326E+03 -1.264257E+04
       323  27  1.201957E+05  1.102169E+06  1.807505E+05 -6.270107E+03  5.693430E+03  2.627459E+04
       324   1 -9.011377E+04  3.954749E+05  1.106951E+04 -1.697938E+04 -6.164558E+03 -4.334356E+04
       324   2 -1.334029E+05  3.561099E+05  4.307698E+04  9.412559E+03 -6.438813E+03 -1.119915E+05
       324   3  1.297256E+05  4.027824E+05  1.964854E+05  4.114075E+04 -2.137106E+03 -1.806367E+05
       324   4 -2.654145E+03  7.465487E+05  9.770593E+04  1.966859E+03 -6.166256E+03 -4.266752E+04
       324   5 -4.683674E+04  7.034118E+05  1.287355E+05 -6.870836E+02 -6.436518E+03 -1.125599E+05
       324   6  2.155207E+05  7.464818E+05  2.819823E+05  1.993433E+03 -2.125529E+03 -1.824492E+05
       324   7  8.479766E+04  1.097735E+06  1.843334E+05  2.092384E+04 -6.167912E+03 -4.199110E+04
       324   8  3.972081E+04  1.050824E+06  2.143852E+05 -1.079237E+04 -6.434205E+03 -1.131285E+05
       324   9  3.013126E+05  1.090292E+06  3.674712E+05 -3.717555E+04 -2.113730E+03 -1.842626E+05
       324  10 -9.011432E+04  3.954728E+05  1.106591E+04 -1.697960E+04  1.701221E-10  2.753826E-10
       324  11 -1.334063E+05  3.560964E+05  4.305334E+04  9.411979E+03  2.665787E-10  2.145281E-10
       324  12  1.297169E+05  4.027474E+05  1.964241E+05  4.114044E+04 -1.652469E-10  1.062525E-10
       324  13 -2.654674E+03  7.465468E+05  9.770244E+04  1.966647E+03 -5.730627E-10  8.068709E-10
       324  14 -4.684018E+04  7.033982E+05  1.287116E+05 -6.876669E+02  4.755612E-11 -7.699945E-10
       324  15  2.155118E+05  7.464461E+05  2.819198E+05  1.993121E+03  1.389972E-10 -2.079981E-10
       324  16  8.479715E+04  1.097733E+06  1.843300E+05  2.092363E+04  8.470695E-10  2.011287E-10
       324  17  3.971733E+04  1.050810E+06  2.143611E+05 -1.079295E+04 -1.924722E-10 -5.461658E-10
       324  18  3.013035E+05  1.090255E+06  3.674075E+05 -3.717587E+04 -2.320824E-10 -1.696967E-10
       324  19 -9.011377E+04  3.954749E+05  1.106951E+04 -1.697938E+04  6.164558E+03  4.334356E+04
       324  20 -1.334029E+05  3.561099E+05  4.307698E+04  9.412559E+03  6.438813E+03  1.119915E+05
       324  21  1.297256E+05  4.027824E+05  1.964854E+05  4.114075E+04  2.137106E+03  1.806367E+05
       324  22 -2.654145E+03  7.465487E+05  9.770593E+04  1.966859E+03  6.166256E+03  4.266752E+04
       324  23 -4.683674E+04  7.034118E+05  1.287355E+05 -6.870836E+02  6.436518E+03  1.125599E+05
       324  24  2.155207E+05  7.464818E+05  2.819823E+05  1.993433E+03  2.125529E+03  1.824492E+05
       324  25  8.479766E+04  1.097735E+06  1.843334E+05  2.092384E+04  6.167912E+03  4.199110E+04
       324  26  3.972081E+04  1.050824E+06  2.143852E+05 -1.079237E+04  6.434205E+03  1.131285E+05
       324  27  3.013126E+05  1.090292E+06  3.674712E+05 -3.717555E+04  2.113730E+03  1.842626E+05
       325   1 -3.547006E+06 -1.267747E+06 -6.656820E+05 -1.316122E+06 -3.094179E+05 -8.551304E+04
       325   2 -3.461607E+06 -1.045808E+06 -4.376361E+05 -1.281898E+06 -2.014716E+05  3.120449E+04
       325   3 -3.421543E+06 -9.402208E+05 -3.372690E+05 -1.238332E+06 -7.676581E+04  1.038241E+05
       325   4 -1.809249E+06 -5.039456E+05 -2.016111E+05 -7.266022E+05 -1.415229E+05 -2.204183E+04
       325   5 -1.783933E+06 -3.776809E+05 -9.518758E+04 -7.601128E+05 -1.172872E+05  6.299054E+04
       325   6 -1.787159E+06 -3.509510E+05 -4.967281E+04 -7.843206E+05 -7.634248E+04  1.039477E+05
       325   7 -6.847500E+04  2.603847E+05  2.623032E+05 -1.354670E+05  2.688365E+04  4.169737E+04
       325   8 -1.033115E+05  2.908413E+05  2.471485E+05 -2.369616E+05 -3.285795E+04  9.488714E+04
       325   9 -1.499091E+05  2.385827E+05  2.378470E+05 -3.291819E+05 -7.591791E+04  1.040717E+05
       325  10 -3.547111E+06 -1.267781E+06 -6.658769E+05 -1.316143E+06  1.200095E-09  4.790367E-10
       325  11 -3.461651E+06 -1.045820E+06 -4.377145E+05 -1.281892E+06 -1.957386E-10  8.306548E-10
       325  12 -3.421552E+06 -9.402340E+05 -3.373003E+05 -1.238326E+06  2.023365E-09  3.406667E-10
       325  13 -1.809270E+06 -5.039515E+05 -2.016498E+05 -7.266048E+05  1.295808E-09 -1.688648E-10
       325  14 -1.783948E+06 -3.776888E+05 -9.522091E+04 -7.601068E+05  6.500615E-10 -5.457547E-09
       325  15 -1.787168E+06 -3.509642E+05 -4.970404E+04 -7.843142E+05 -5.548489E-10 -1.912098E-09
       325  16 -6.847624E+04  2.603827E+05  2.622986E+05 -1.354679E+05  4.504535E-10 -9.743329E-10
       325  17 -1.033150E+05  2.908314E+05  2.471295E+05 -2.369591E+05 -1.891902E-09  1.448672E-09
       325  18 -1.499182E+05  2.385696E+05  2.378158E+05 -3.291756E+05 -7.953883E-10 -8.384956E-10
       325  19 -3.547006E+06 -1.267747E+06 -6.656820E+05 -1.316122E+06  3.094179E+05  8.551304E+04
       325  20 -3.461607E+06 -1.045808E+06 -4.376361E+05 -1.281898E+06  2.014716E+05 -3.120449E+04
       325  21 -3.421543E+06 -9.402208E+05 -3.372690E+05 -1.238332E+06  7.676581E+04 -1.038241E+05
       325  22 -1.809249E+06 -5.039456E+05 -2.016111E+05 -7.266022E+05  1.415229E+05  2.204183E+04
       325  23 -1.783933E+06 -3.776809E+05 -9.518758E+04 -7.601128E+05  1.172872E+05 -6.299054E+04
       325  24 -1.787159E+06 -3.509510E+05 -4.967281E+04 -7.843206E+05  7.634248E+04 -1.039477E+05
       325  25 -6.847500E+04  2.603847E+05  2.623032E+05 -1.354670E+05 -2.688365E+04 -4.169737E+04
       325  26 -1.033115E+05  2.908413E+05  2.471485E+05 -2.369616E+05  3.285795E+04 -9.488714E+04
       325  27 -1.499091E+05  2.385827E+05  2.378470E+05 -3.291819E+05  7.591791E+04 -1.040717E+05
       326   1 -3.347860E+06 -9.228883E+05 -3.092700E+05 -1.227674E+06 -7.411149E+04  1.036502E+05
       326   2 -3.261341E+06 -8.711138E+05 -2.661242E+05 -1.194349E+06 -5.582114E+04  1.102891E+05
       326   3 -3.166313E+06 -8.401666E+05 -2.384665E+05 -1.175088E+06 -3.585918E+04  1.124950E+05
       326   4 -1.780953E+06 -3.500829E+05 -3.711815E+04 -7.830653E+05 -7.038095E+04  1.050231E+05
       326   5 -1.785330E+06 -3.359041E+05 -1.944281E+04 -7.777442E+05 -6.048863E+04  1.084943E+05
       326   6 -1.779526E+06 -3.408674E+05 -1.055128E+04 -7.864884E+05 -4.892998E+04  1.075371E+05
       326   7 -2.114263E+05  2.229795E+05  2.349613E+05 -3.373965E+05 -6.664031E+04  1.064000E+05
       326   8 -3.069905E+05  1.995299E+05  2.271825E+05 -3.602062E+05 -6.516794E+04  1.066950E+05
       326   9 -3.906861E+05  1.586227E+05  2.173166E+05 -3.970740E+05 -6.203179E+04  1.025675E+05
       326  10 -3.347869E+06 -9.229013E+05 -3.093005E+05 -1.227667E+06  5.791041E-10  5.181052E-10
       326  11 -3.261348E+06 -8.711277E+05 -2.661528E+05 -1.194344E+06 -9.280265E-10  5.639309E-10
       326  12 -3.166318E+06 -8.401806E+05 -2.384927E+05 -1.175085E+06  6.982959E-11  1.858883E-10
       326  13 -1.780961E+06 -3.500960E+05 -3.714816E+04 -7.830593E+05  2.265604E-10  7.771672E-10
       326  14 -1.785337E+06 -3.359177E+05 -1.947178E+04 -7.777389E+05 -8.759270E-11 -2.346411E-09
       326  15 -1.779531E+06 -3.408804E+05 -1.057749E+04 -7.864842E+05 -5.320802E-10 -8.850903E-10
       326  16 -2.114341E+05  2.229661E+05  2.349318E+05 -3.373908E+05 -1.902587E-09  1.900033E-09
       326  17 -3.069981E+05  1.995165E+05  2.271531E+05 -3.602006E+05 -9.073876E-10  7.106867E-10
       326  18 -3.906931E+05  1.586104E+05  2.172896E+05 -3.970689E+05 -1.235757E-09  5.919684E-10
       326  19 -3.347860E+06 -9.228883E+05 -3.092700E+05 -1.227674E+06  7.411149E+04 -1.036502E+05
       326  20 -3.261341E+06 -8.711138E+05 -2.661242E+05 -1.194349E+06  5.582114E+04 -1.102891E+05
       326  21 -3.166313E+06 -8.401666E+05 -2.384665E+05 -1.175088E+06  3.585918E+04 -1.124950E+05
       326  22 -1.780953E+06 -3.500829E+05 -3.711815E+04 -7.830653E+05  7.038095E+04 -1.050231E+05
       326  23 -1.785330E+06 -3.359041E+05 -1.944281E+04 -7.777442E+05  6.048863E+04 -1.084943E+05
       326  24 -1.779526E+06 -3.408674E+05 -1.055128E+04 -7.864884E+05  4.892998E+04 -1.075371E+05
       326  25 -2.114263E+05  2.229795E+05  2.349613E+05 -3.373965E+05  6.664031E+04 -1.064000E+05
       326  26 -3.069905E+05  1.995299E+05  2.271825E+05 -3.602062E+05  6.516794E+04 -1.066950E+05
       326  27 -3.906861E+05  1.586227E+05  2.173166E+05 -3.970740E+05  6.203179E+04 -1.025675E+05
       327   1 -3.105938E+06 -8.190412E+05 -2.252125E+05 -1.158877E+06 -3.314622E+04  1.088068E+05
       327   2 -3.019382E+06 -7.778099E+05 -2.056066E+05 -1.124844E+06 -2.746034E+04  1.030028E+05
       327   3 -2.919491E+06 -7.508408E+05 -1.883649E+05 -1.106441E+06 -2.160420E+04  9.672884E+04
       327   4 -1.778926E+06 -3.408778E+05 -7.917556E+03 -7.863979E+05 -4.593219E+04  1.039606E+05
       327   5 -1.785593E+06 -3.335632E+05 -4.348451E+03 -7.786646E+05 -4.113447E+04  9.782904E+04
       327   6 -1.778760E+06 -3.403332E+05 -2.436796E+03 -7.865636E+05 -3.616718E+04  9.122775E+04
       327   7 -4.500048E+05  1.374733E+05  2.093432E+05 -4.131626E+05 -5.874747E+04  9.910351E+04
       327   8 -5.501578E+05  1.108437E+05  1.968795E+05 -4.318338E+05 -5.483764E+04  9.264436E+04
       327   9 -6.366283E+05  7.030884E+04  1.834642E+05 -4.661314E+05 -5.075868E+04  8.571596E+04
       327  10 -3.105942E+06 -8.190542E+05 -2.252367E+05 -1.158874E+06  1.604656E-09 -1.635963E-09
       327  11 -3.019385E+06 -7.778214E+05 -2.056279E+05 -1.124841E+06 -3.458188E-10 -1.614632E-09
       327  12 -2.919494E+06 -7.508510E+05 -1.883834E+05 -1.106439E+06  4.739453E-12 -1.073824E-09
       327  13 -1.778931E+06 -3.408900E+05 -7.941806E+03 -7.863940E+05 -4.495192E-10 -2.936105E-10
       327  14 -1.785597E+06 -3.335739E+05 -4.369594E+03 -7.786613E+05  3.279838E-11  8.316732E-10
       327  15 -1.778764E+06 -3.403425E+05 -2.454875E+03 -7.865610E+05 -4.549125E-10 -4.612249E-10
       327  16 -4.500112E+05  1.374618E+05  2.093183E+05 -4.131579E+05  1.107884E-10  5.299978E-10
       327  17 -5.501633E+05  1.108337E+05  1.968577E+05 -4.318297E+05  6.535447E-10  1.675264E-09
       327  18 -6.366331E+05  7.030026E+04  1.834456E+05 -4.661279E+05  1.673846E-09 -7.220211E-10
       327  19 -3.105938E+06 -8.190412E+05 -2.252125E+05 -1.158877E+06  3.314622E+04 -1.088068E+05
       327  20 -3.019382E+06 -7.778099E+05 -2.056066E+05 -1.124844E+06  2.746034E+04 -1.030028E+05
       327  21 -2.919491E+06 -7.508408E+05 -1.883649E+05 -1.106441E+06  2.160420E+04 -9.672884E+04
       327  22 -1.778926E+06 -3.408778E+05 -7.917556E+03 -7.863979E+05  4.593219E+04 -1.039606E+05
       327  23 -1.785593E+06 -3.335632E+05 -4.348451E+03 -7.786646E+05  4.113447E+04 -9.782904E+04
       327  24 -1.778760E+06 -3.403332E+05 -2.436796E+03 -7.865636E+05  3.616718E+04 -9.122775E+04
       327  25 -4.500048E+05  1.374733E+05  2.093432E+05 -4.131626E+05  5.874747E+04 -9.910351E+04
       327  26 -5.501578E+05  1.108437E+05  1.968795E+05 -4.318338E+05  5.483764E+04 -9.264436E+04
       327  27 -6.366283E+05  7.030884E+04  1.834642E+05 -4.661314E+05  5.075868E+04 -8.571596E+04
       328   1 -2.859632E+06 -7.292312E+05 -1.775769E+05 -1.089720E+06 -1.955201E+04  9.239127E+04
       328   2 -2.772365E+06 -6.882642E+05 -1.616558E+05 -1.055319E+06 -1.593478E+04  8.496568E+04
       328   3 -2.671199E+06 -6.612051E+05 -1.462429E+05 -1.036763E+06 -1.229774E+04  7.747090E+04
       328   4 -1.778645E+06 -3.403357E+05 -1.876453E+03 -7.865807E+05 -3.412448E+04  8.689062E+04
       328   5 -1.785562E+06 -3.333225E+05 -1.181028E+03 -7.786701E+05 -3.063720E+04  7.942223E+04
       328   6 -1.778563E+06 -3.401919E+05 -8.919051E+02 -7.866080E+05 -2.713020E+04  7.188462E+04
       328   7 -6.964111E+05  4.867618E+04  1.737966E+05 -4.829464E+05 -4.872383E+04  8.137989E+04
       328   8 -7.977097E+05  2.171983E+04  1.592739E+05 -5.016064E+05 -4.536450E+04  7.386944E+04
       328   9 -8.850598E+05 -1.909277E+04  1.444456E+05 -5.361108E+05 -4.198553E+04  6.628976E+04
       328  10 -2.859634E+06 -7.292405E+05 -1.775936E+05 -1.089719E+06  4.450068E-10 -6.191393E-10
       328  11 -2.772367E+06 -6.882720E+05 -1.616698E+05 -1.055318E+06 -5.361777E-10 -7.804039E-10
       328  12 -2.671201E+06 -6.612116E+05 -1.462544E+05 -1.036762E+06 -9.645299E-10 -3.495428E-10
       328  13 -1.778648E+06 -3.403441E+05 -1.892813E+03 -7.865783E+05 -6.467052E-10  4.670731E-10
       328  14 -1.785564E+06 -3.333295E+05 -1.194632E+03 -7.786681E+05  1.135350E-09  1.509502E-10
       328  15 -1.778565E+06 -3.401977E+05 -9.029878E+02 -7.866064E+05 -4.742183E-10  5.304029E-10
       328  16 -6.964154E+05  4.866844E+04  1.737797E+05 -4.829432E+05  4.480013E-10  2.908769E-10
       328  17 -7.977134E+05  2.171342E+04  1.592597E+05 -5.016037E+05  4.305739E-10  1.424418E-09
       328  18 -8.850629E+05 -1.909796E+04  1.444340E+05 -5.361085E+05  9.835412E-10  4.423800E-10
       328  19 -2.859632E+06 -7.292312E+05 -1.775769E+05 -1.089720E+06  1.955201E+04 -9.239127E+04
       328  20 -2.772365E+06 -6.882642E+05 -1.616558E+05 -1.055319E+06  1.593478E+04 -8.496568E+04
       328  21 -2.671199E+06 -6.612051E+05 -1.462429E+05 -1.036763E+06  1.229774E+04 -7.747090E+04
       328  22 -1.778645E+06 -3.403357E+05 -1.876453E+03 -7.865807E+05  3.412448E+04 -8.689062E+04
       328  23 -1.785562E+06 -3.333225E+05 -1.181028E+03 -7.786701E+05  3.063720E+04 -7.942223E+04
       328  24 -1.778563E+06 -3.401919E+05 -8.919051E+02 -7.866080E+05  2.713020E+04 -7.188462E+04
       328  25 -6.964111E+05  4.867618E+04  1.737966E+05 -4.829464E+05  4.872383E+04 -8.137989E+04
       328  26 -7.977097E+05  2.171983E+04  1.592739E+05 -5.016064E+05  4.536450E+04 -7.386944E+04
       328  27 -8.850598E+05 -1.909277E+04  1.444456E+05 -5.361108E+05  4.198553E+04 -6.628976E+04
       329   1 -2.610903E+06 -6.394133E+05 -1.359631E+05 -1.019913E+06 -1.041005E+04  7.299370E+04
       329   2 -2.522895E+06 -5.982245E+05 -1.209363E+05 -9.853053E+05 -6.888027E+03  6.539079E+04
       329   3 -2.420911E+06 -5.710276E+05 -1.063246E+05 -9.666839E+05 -3.363040E+03  5.776737E+04
       329   4 -1.778522E+06 -3.401817E+05 -8.788406E+02 -7.866409E+05 -2.527299E+04  6.739911E+04
       329   5 -1.785472E+06 -3.331179E+05 -1.091167E+03 -7.786623E+05 -2.178906E+04  5.978649E+04
       329   6 -1.778451E+06 -3.400383E+05 -1.689911E+03 -7.866724E+05 -1.830228E+04  5.215334E+04
       329   7 -9.453947E+05 -4.087869E+04  1.341916E+05 -5.530734E+05 -4.015712E+04  6.179656E+04
       329   8 -1.047468E+06 -6.795683E+04  1.187421E+05 -5.717889E+05 -3.670885E+04  5.417515E+04
       329   9 -1.135554E+06 -1.090091E+05  1.029348E+05 -6.064870E+05 -3.325781E+04  4.653319E+04
       329  10 -2.610905E+06 -6.394190E+05 -1.359733E+05 -1.019913E+06  1.678567E-11 -8.739571E-10
       329  11 -2.522896E+06 -5.982291E+05 -1.209444E+05 -9.853050E+05 -1.723934E-09 -2.321801E-10
       329  12 -2.420911E+06 -5.710312E+05 -1.063309E+05 -9.666838E+05 -1.489332E-09  5.724481E-11
       329  13 -1.778524E+06 -3.401868E+05 -8.885677E+02 -7.866395E+05 -4.710819E-10  2.659361E-11
       329  14 -1.785474E+06 -3.331219E+05 -1.098769E+03 -7.786613E+05  1.643726E-09  1.682717E-10
       329  15 -1.778452E+06 -3.400413E+05 -1.695646E+03 -7.866716E+05 -1.861974E-10  2.740387E-10
       329  16 -9.453974E+05 -4.088322E+04  1.341814E+05 -5.530714E+05  1.195211E-09  3.843063E-10
       329  17 -1.047471E+06 -6.796034E+04  1.187341E+05 -5.717873E+05  8.322351E-10  6.255018E-10
       329  18 -1.135555E+06 -1.090117E+05  1.029287E+05 -6.064858E+05  1.308536E-11  7.516653E-10
       329  19 -2.610903E+06 -6.394133E+05 -1.359631E+05 -1.019913E+06  1.041005E+04 -7.299370E+04
       329  20 -2.522895E+06 -5.982245E+05 -1.209363E+05 -9.853053E+05  6.888027E+03 -6.539079E+04
       329  21 -2.420911E+06 -5.710276E+05 -1.063246E+05 -9.666839E+05  3.363040E+03 -5.776737E+04
       329  22 -1.778522E+06 -3.401817E+05 -8.788406E+02 -7.866409E+05  2.527299E+04 -6.739911E+04
       329  23 -1.785472E+06 -3.331179E+05 -1.091167E+03 -7.786623E+05  2.178906E+04 -5.978649E+04
       329  24 -1.778451E+06 -3.400383E+05 -1.689911E+03 -7.866724E+05  1.830228E+04 -5.215334E+04
       329  25 -9.453947E+05 -4.087869E+04  1.341916E+05 -5.530734E+05  4.015712E+04 -6.179656E+04
       329  26 -1.047468E+06 -6.795683E+04  1.187421E+05 -5.717889E+05  3.670885E+04 -5.417515E+04
       329  27 -1.135554E+06 -1.090091E+05  1.029348E+05 -6.064870E+05  3.325781E+04 -4.653319E+04
       330   1 -2.360199E+06 -5.491490E+05 -9.648625E+04 -9.498124E+05 -1.299985E+03  5.332277E+04
       330   2 -2.271549E+06 -5.077848E+05 -8.283031E+04 -9.149754E+05  3.535835E+03  4.617980E+04
       330   3 -2.169166E+06 -4.807943E+05 -7.065141E+04 -8.962158E+05  8.360928E+03  3.905795E+04
       330   4 -1.778483E+06 -3.400230E+05 -2.188239E+03 -7.867271E+05 -1.626530E+04  4.770121E+04
       330   5 -1.785337E+06 -3.329412E+05 -3.865457E+03 -7.786383E+05 -1.138841E+04  4.057665E+04
       330   6 -1.778481E+06 -3.402426E+05 -7.054049E+03 -7.866305E+05 -6.522556E+03  3.347309E+04
       330   7 -1.196395E+06 -1.308592E+05  9.210548E+04 -6.234956E+05 -3.124569E+04  4.207398E+04
       330   8 -1.298868E+06 -1.580719E+05  7.509614E+04 -6.421995E+05 -2.632517E+04  3.496879E+04
       330   9 -1.387631E+06 -1.996750E+05  5.654102E+04 -6.769799E+05 -2.141600E+04  2.788448E+04
       330  10 -2.360200E+06 -5.491521E+05 -9.649159E+04 -9.498123E+05 -1.418904E-09  2.957241E-10
       330  11 -2.271549E+06 -5.077871E+05 -8.283434E+04 -9.149755E+05 -8.427090E-10  3.467612E-10
       330  12 -2.169166E+06 -4.807960E+05 -7.065441E+04 -8.962160E+05 -2.655683E-09  9.876425E-11
       330  13 -1.778484E+06 -3.400255E+05 -2.193008E+03 -7.867265E+05 -9.913478E-10  5.267397E-10
       330  14 -1.785338E+06 -3.329430E+05 -3.868791E+03 -7.786379E+05 -1.601779E-09  5.252057E-10
       330  15 -1.778481E+06 -3.402438E+05 -7.056233E+03 -7.866303E+05 -1.379272E-09  6.942232E-10
       330  16 -1.196397E+06 -1.308613E+05  9.210033E+04 -6.234945E+05  3.231569E-10  6.282154E-10
       330  17 -1.298869E+06 -1.580734E+05  7.509254E+04 -6.421988E+05  1.515906E-09  9.698365E-10
       330  18 -1.387632E+06 -1.996759E+05  5.653870E+04 -6.769794E+05  1.136666E-09  1.592146E-09
       330  19 -2.360199E+06 -5.491490E+05 -9.648625E+04 -9.498124E+05  1.299985E+03 -5.332277E+04
       330  20 -2.271549E+06 -5.077848E+05 -8.283031E+04 -9.149754E+05 -3.535835E+03 -4.617980E+04
       330  21 -2.169166E+06 -4.807943E+05 -7.065141E+04 -8.962158E+05 -8.360928E+03 -3.905795E+04
       330  22 -1.778483E+06 -3.400230E+05 -2.188239E+03 -7.867271E+05  1.626530E+04 -4.770121E+04
       330  23 -1.785337E+06 -3.329412E+05 -3.865457E+03 -7.786383E+05  1.138841E+04 -4.057665E+04
       330  24 -1.778481E+06 -3.402426E+05 -7.054049E+03 -7.866305E+05  6.522556E+03 -3.347309E+04
       330  25 -1.196395E+06 -1.308592E+05  9.210548E+04 -6.234956E+05  3.124569E+04 -4.207398E+04
       330  26 -1.298868E+06 -1.580719E+05  7.509614E+04 -6.421995E+05  2.632517E+04 -3.496879E+04
       330  27 -1.387631E+06 -1.996750E+05  5.654102E+04 -6.769799E+05  2.141600E+04 -2.788448E+04
       331   1 -2.108144E+06 -4.592894E+05 -6.259303E+04 -8.799129E+05  1.139813E+04  3.498450E+04
       331   2 -2.020237E+06 -4.174070E+05 -5.483136E+04 -8.419540E+05  2.235025E+04  3.034499E+04
       331   3 -1.921167E+06 -3.946979E+05 -5.444435E+04 -8.191475E+05  3.317458E+04  2.604509E+04
       331   4 -1.778917E+06 -3.402598E+05 -9.409309E+03 -7.868246E+05 -3.526097E+03  2.938574E+04
       331   5 -1.784993E+06 -3.346100E+05 -1.731018E+04 -7.777455E+05  8.074252E+03  2.499065E+04
       331   6 -1.780044E+06 -3.482628E+05 -3.310053E+04 -7.838233E+05  1.954573E+04  2.093455E+04
       331   7 -1.449576E+06 -2.212198E+05  4.377213E+04 -6.936904E+05 -1.845858E+04  2.378382E+04
       331   8 -1.549689E+06 -2.518078E+05  2.021080E+04 -7.135141E+05 -6.207490E+03  1.963424E+04
       331   9 -1.638898E+06 -3.018257E+05 -1.175575E+04 -7.484913E+05  5.913433E+03  1.582294E+04
       331  10 -2.108144E+06 -4.592907E+05 -6.259558E+04 -8.799132E+05 -5.496951E-10  4.996539E-10
       331  11 -2.020237E+06 -4.174081E+05 -5.483404E+04 -8.419545E+05 -1.101043E-09 -1.712737E-10
       331  12 -1.921168E+06 -3.946989E+05 -5.444770E+04 -8.191482E+05 -6.517021E-10 -2.192057E-10
       331  13 -1.778917E+06 -3.402607E+05 -9.410954E+03 -7.868245E+05 -5.760808E-10  7.911320E-10
       331  14 -1.784993E+06 -3.346107E+05 -1.731148E+04 -7.777456E+05 -3.976429E-10 -1.829746E-10
       331  15 -1.780045E+06 -3.482634E+05 -3.310207E+04 -7.838236E+05  4.668593E-10 -1.172644E-10
       331  16 -1.449577E+06 -2.212205E+05  4.377043E+04 -6.936900E+05  1.501696E-10  8.931855E-10
       331  17 -1.549689E+06 -2.518082E+05  2.021000E+04 -7.135140E+05  1.195570E-09  6.463025E-10
       331  18 -1.638898E+06 -3.018260E+05 -1.175629E+04 -7.484914E+05  1.187003E-09 -2.833554E-11
       331  19 -2.108144E+06 -4.592894E+05 -6.259303E+04 -8.799129E+05 -1.139813E+04 -3.498450E+04
       331  20 -2.020237E+06 -4.174070E+05 -5.483136E+04 -8.419540E+05 -2.235025E+04 -3.034499E+04
       331  21 -1.921167E+06 -3.946979E+05 -5.444435E+04 -8.191475E+05 -3.317458E+04 -2.604509E+04
       331  22 -1.778917E+06 -3.402598E+05 -9.409309E+03 -7.868246E+05  3.526097E+03 -2.938574E+04
       331  23 -1.784993E+06 -3.346100E+05 -1.731018E+04 -7.777455E+05 -8.074252E+03 -2.499065E+04
       331  24 -1.780044E+06 -3.482628E+05 -3.310053E+04 -7.838233E+05 -1.954573E+04 -2.093455E+04
       331  25 -1.449576E+06 -2.212198E+05  4.377213E+04 -6.936904E+05  1.845858E+04 -2.378382E+04
       331  26 -1.549689E+06 -2.518078E+05  2.021080E+04 -7.135141E+05  6.207490E+03 -1.963424E+04
       331  27 -1.638898E+06 -3.018257E+05 -1.175575E+04 -7.484913E+05 -5.913433E+03 -1.582294E+04
       332   1 -1.859002E+06 -3.796022E+05 -5.482510E+04 -8.104504E+05  4.004708E+04  2.367186E+04
       332   2 -1.799076E+06 -3.299889E+05 -7.684889E+04 -7.180020E+05  7.951362E+04  3.213762E+04
       332   3 -1.759356E+06 -3.724108E+05 -1.480275E+05 -6.222484E+05  1.176795E+05  4.408856E+04
       332   4 -1.785117E+06 -3.494232E+05 -4.430639E+04 -7.854559E+05  2.614657E+04  1.846049E+04
       332   5 -1.784047E+06 -3.712058E+05 -8.486746E+04 -7.614577E+05  7.223720E+04  2.940187E+04
       332   6 -1.804522E+06 -4.863602E+05 -1.798499E+05 -7.341662E+05  1.170226E+05  4.381906E+04
       332   7 -1.711225E+06 -3.192428E+05 -3.378671E+04 -7.604582E+05  1.224422E+04  1.324821E+04
       332   8 -1.769012E+06 -4.124115E+05 -9.288435E+04 -8.049127E+05  6.496071E+04  2.666747E+04
       332   9 -1.849659E+06 -6.002486E+05 -2.116660E+05 -8.460634E+05  1.163657E+05  4.354985E+04
       332  10 -1.859004E+06 -3.796032E+05 -5.482918E+04 -8.104512E+05 -1.191168E-09 -3.575487E-10
       332  11 -1.799083E+06 -3.299917E+05 -7.686276E+04 -7.180041E+05 -1.183245E-10 -1.111453E-10
       332  12 -1.759372E+06 -3.724166E+05 -1.480572E+05 -6.222526E+05 -7.019425E-10 -1.987477E-10
       332  13 -1.785118E+06 -3.494238E+05 -4.430832E+04 -7.854563E+05  9.164217E-10  8.125172E-11
       332  14 -1.784053E+06 -3.712081E+05 -8.487893E+04 -7.614594E+05  1.132381E-09  2.155815E-10
       332  15 -1.804537E+06 -4.863659E+05 -1.798793E+05 -7.341703E+05  1.611343E-10 -3.945907E-11
       332  16 -1.711225E+06 -3.192430E+05 -3.378732E+04 -7.604583E+05  6.262203E-10 -2.015760E-10
       332  17 -1.769017E+06 -4.124134E+05 -9.289365E+04 -8.049141E+05  9.999402E-10  1.390369E-10
       332  18 -1.849675E+06 -6.002543E+05 -2.116951E+05 -8.460675E+05  2.546382E-10 -4.303981E-12
       332  19 -1.859002E+06 -3.796022E+05 -5.482510E+04 -8.104504E+05 -4.004708E+04 -2.367186E+04
       332  20 -1.799076E+06 -3.299889E+05 -7.684889E+04 -7.180020E+05 -7.951362E+04 -3.213762E+04
       332  21 -1.759356E+06 -3.724108E+05 -1.480275E+05 -6.222484E+05 -1.176795E+05 -4.408856E+04
       332  22 -1.785117E+06 -3.494232E+05 -4.430639E+04 -7.854559E+05 -2.614657E+04 -1.846049E+04
       332  23 -1.784047E+06 -3.712058E+05 -8.486746E+04 -7.614577E+05 -7.223720E+04 -2.940187E+04
       332  24 -1.804522E+06 -4.863602E+05 -1.798499E+05 -7.341662E+05 -1.170226E+05 -4.381906E+04
       332  25 -1.711225E+06 -3.192428E+05 -3.378671E+04 -7.604582E+05 -1.224422E+04 -1.324821E+04
       332  26 -1.769012E+06 -4.124115E+05 -9.288435E+04 -8.049127E+05 -6.496071E+04 -2.666747E+04
       332  27 -1.849659E+06 -6.002486E+05 -2.116660E+05 -8.460634E+05 -1.163657E+05 -4.354985E+04
       333   1  1.014154E+06  1.755294E+05  2.413640E+05  4.653790E+04  2.006849E+05  1.982924E+03
       333   2  9.878268E+05 -9.427709E+04  7.806650E+04  1.545371E+04  1.325220E+05  5.229350E+03
       333   3  1.047140E+06 -5.743491E+04  3.580492E+04 -3.282131E+04  6.435871E+04  4.421753E+03
       333   4  1.236395E+06  2.307790E+05  2.964109E+05 -8.010269E+03  2.026677E+05  1.967397E+03
       333   5  1.193530E+06 -4.318603E+04  1.282253E+05  7.134810E+02  1.330181E+05  5.226531E+03
       333   6  1.236530E+06 -1.030547E+04  8.207516E+04 -7.754173E+03  6.337021E+04  4.423506E+03
       333   7  1.458687E+06  2.860361E+05  3.514558E+05 -6.257795E+04  2.046512E+05  1.951526E+03
       333   8  1.399273E+06  7.902731E+03  1.783811E+05 -1.403165E+04  1.335144E+05  5.223690E+03
       333   9  1.425954E+06  3.682367E+04  1.283431E+05  1.732061E+04  6.238140E+04  4.425179E+03
       333  10  1.014111E+06  1.755186E+05  2.412884E+05  4.653758E+04 -1.780570E-10 -1.447212E-09
       333  11  9.878080E+05 -9.428182E+04  7.803350E+04  1.545316E+04 -3.360500E-10 -4.860374E-10
       333  12  1.047136E+06 -5.743604E+04  3.579711E+04 -3.282154E+04 -1.356507E-09 -8.261802E-10
       333  13  1.236351E+06  2.307680E+05  2.963339E+05 -8.010590E+03  1.484272E-09  4.164722E-10
       333  14  1.193511E+06 -4.319080E+04  1.281920E+05  7.129214E+02  4.542085E-10 -8.406128E-10
       333  15  1.236526E+06 -1.030657E+04  8.206759E+04 -7.754399E+03 -6.059997E-10 -9.313137E-10
       333  16  1.458642E+06  2.860249E+05  3.513773E+05 -6.257828E+04  6.319865E-11  3.686076E-10
       333  17  1.399254E+06  7.897930E+03  1.783476E+05 -1.403221E+04  1.317053E-09 -5.807118E-10
       333  18  1.425950E+06  3.682260E+04  1.283358E+05  1.732039E+04  9.516111E-10  1.668555E-09
       333  19  1.014154E+06  1.755294E+05  2.413640E+05  4.653790E+04 -2.006849E+05 -1.982924E+03
       333  20  9.878268E+05 -9.427709E+04  7.806650E+04  1.545371E+04 -1.325220E+05 -5.229350E+03
       333  21  1.047140E+06 -5.743491E+04  3.580492E+04 -3.282131E+04 -6.435871E+04 -4.421753E+03
       333  22  1.236395E+06  2.307790E+05  2.964109E+05 -8.010269E+03 -2.026677E+05 -1.967397E+03
       333  23  1.193530E+06 -4.318603E+04  1.282253E+05  7.134810E+02 -1.330181E+05 -5.226531E+03
       333  24  1.236530E+06 -1.030547E+04  8.207516E+04 -7.754173E+03 -6.337021E+04 -4.423506E+03
       333  25  1.458687E+06  2.860361E+05  3.514558E+05 -6.257795E+04 -2.046512E+05 -1.951526E+03
       333  26  1.399273E+06  7.902731E+03  1.783811E+05 -1.403165E+04 -1.335144E+05 -5.223690E+03
       333  27  1.425954E+06  3.682367E+04  1.283431E+05  1.732061E+04 -6.238140E+04 -4.425179E+03
       334   1  1.062827E+06 -9.882015E+03  2.899190E+04 -1.102125E+03  5.018034E+04  3.468926E+03
       334   2  1.071683E+06 -4.093023E+04 -1.434077E+03  1.811970E+03  3.305191E+04  3.318945E+03
       334   3  1.092572E+06 -3.300654E+04 -1.096447E+04 -1.077840E+04  1.592334E+04  2.764922E+03
       334   4  1.220096E+06  2.921362E+04  6.745153E+04 -7.471719E+03  5.021184E+04  3.468371E+03
       334   5  1.214081E+06 -5.532398E+03  3.334605E+04  2.901782E+02  3.293373E+04  3.318747E+03
       334   6  1.220121E+06 -1.285713E+03  2.023608E+04 -7.452048E+03  1.565589E+04  2.764855E+03
       334   7  1.377388E+06  6.830759E+04  1.059094E+05 -1.384293E+04  5.024334E+04  3.467815E+03
       334   8  1.356497E+06  2.986394E+04  6.812469E+04 -1.231965E+03  3.281553E+04  3.318549E+03
       334   9  1.347684E+06  3.043396E+04  5.143544E+04 -4.125011E+03  1.538839E+04  2.764785E+03
       334  10  1.062824E+06 -9.882703E+03  2.898716E+04 -1.102265E+03  5.815676E-10 -4.868849E-10
       334  11  1.071682E+06 -4.093053E+04 -1.436147E+03  1.811882E+03  1.830550E-09  5.095668E-10
       334  12  1.092572E+06 -3.300662E+04 -1.096496E+04 -1.077844E+04 -1.334823E-10  1.212333E-11
       334  13  1.220094E+06  2.921294E+04  6.744678E+04 -7.471859E+03  4.108596E-10  1.248648E-09
       334  14  1.214080E+06 -5.532700E+03  3.334399E+04  2.900902E+02  1.426913E-09  3.794285E-10
       334  15  1.220121E+06 -1.285787E+03  2.023560E+04 -7.452082E+03 -1.714542E-09 -4.454986E-10
       334  16  1.377385E+06  6.830690E+04  1.059046E+05 -1.384307E+04 -1.017112E-09  1.119238E-09
       334  17  1.356496E+06  2.986364E+04  6.812265E+04 -1.232053E+03 -1.816896E-10 -4.572078E-10
       334  18  1.347684E+06  3.043388E+04  5.143498E+04 -4.125045E+03  4.514316E-10  2.988578E-10
       334  19  1.062827E+06 -9.882015E+03  2.899190E+04 -1.102125E+03 -5.018034E+04 -3.468926E+03
       334  20  1.071683E+06 -4.093023E+04 -1.434077E+03  1.811970E+03 -3.305191E+04 -3.318945E+03
       334  21  1.092572E+06 -3.300654E+04 -1.096447E+04 -1.077840E+04 -1.592334E+04 -2.764922E+03
       334  22  1.220096E+06  2.921362E+04  6.745153E+04 -7.471719E+03 -5.021184E+04 -3.468371E+03
       334  23  1.214081E+06 -5.532398E+03  3.334605E+04  2.901782E+02 -3.293373E+04 -3.318747E+03
       334  24  1.220121E+06 -1.285713E+03  2.023608E+04 -7.452048E+03 -1.565589E+04 -2.764855E+03
       334  25  1.377388E+06  6.830759E+04  1.059094E+05 -1.384293E+04 -5.024334E+04 -3.467815E+03
       334  26  1.356497E+06  2.986394E+04  6.812469E+04 -1.231965E+03 -3.281553E+04 -3.318549E+03
       334  27  1.347684E+06  3.043396E+04  5.143544E+04 -4.125011E+03 -1.538839E+04 -2.764785E+03
       335   1  1.120017E+06 -2.065507E+04 -7.850853E+03 -6.576993E+03  1.258102E+04  2.397928E+03
       335   2  1.133020E+06 -2.157258E+04 -1.194332E+04  1.205527E+02  8.262858E+03  1.927492E+03
       335   3  1.147841E+06 -1.756627E+04 -1.199171E+04 -7.690427E+03  3.944587E+03  1.426932E+03
       335   4  1.217844E+06  3.657387E+03  1.601325E+04 -7.237766E+03  1.241871E+04  2.397829E+03
       335   5  1.216937E+06 -7.108729E+02  8.557458E+03  1.712270E+01  8.089072E+03  1.927419E+03
       335   6  1.217849E+06 -1.536706E+02  5.153259E+03 -7.236387E+03  3.759416E+03  1.426881E+03
       335   7  1.315681E+06  2.796914E+04  3.987666E+04 -7.898643E+03  1.225638E+04  2.397730E+03
       335   8  1.300860E+06  2.015032E+04  2.905772E+04 -8.632175E+01  7.915262E+03  1.927347E+03
       335   9  1.287862E+06  1.725857E+04  2.229787E+04 -6.782295E+03  3.574225E+03  1.426830E+03
       335  10  1.120017E+06 -2.065511E+04 -7.851160E+03 -6.577017E+03 -1.305417E-09 -1.822562E-10
       335  11  1.133020E+06 -2.157261E+04 -1.194345E+04  1.205398E+02 -1.997753E-09 -4.238513E-10
       335  12  1.147841E+06 -1.756627E+04 -1.199174E+04 -7.690432E+03 -8.955332E-10  3.616953E-10
       335  13  1.217844E+06  3.657339E+03  1.601295E+04 -7.237790E+03 -4.560287E-10 -1.468154E-10
       335  14  1.216937E+06 -7.108944E+02  8.557328E+03  1.711015E+01  1.442765E-09 -3.081495E-12
       335  15  1.217849E+06 -1.536766E+02  5.153229E+03 -7.236391E+03 -2.529215E-09 -2.503900E-10
       335  16  1.315680E+06  2.796909E+04  3.987637E+04 -7.898667E+03  1.586951E-10  1.584645E-10
       335  17  1.300860E+06  2.015030E+04  2.905759E+04 -8.633403E+01  1.142739E-09 -6.409942E-10
       335  18  1.287862E+06  1.725856E+04  2.229784E+04 -6.782299E+03  4.269426E-10  3.122096E-10
       335  19  1.120017E+06 -2.065507E+04 -7.850853E+03 -6.576993E+03 -1.258102E+04 -2.397928E+03
       335  20  1.133020E+06 -2.157258E+04 -1.194332E+04  1.205527E+02 -8.262858E+03 -1.927492E+03
       335  21  1.147841E+06 -1.756627E+04 -1.199171E+04 -7.690427E+03 -3.944587E+03 -1.426932E+03
       335  22  1.217844E+06  3.657387E+03  1.601325E+04 -7.237766E+03 -1.241871E+04 -2.397829E+03
       335  23  1.216937E+06 -7.108729E+02  8.557458E+03  1.712270E+01 -8.089072E+03 -1.927419E+03
       335  24  1.217849E+06 -1.536706E+02  5.153259E+03 -7.236387E+03 -3.759416E+03 -1.426881E+03
       335  25  1.315681E+06  2.796914E+04  3.987666E+04 -7.898643E+03 -1.225638E+04 -2.397730E+03
       335  26  1.300860E+06  2.015032E+04  2.905772E+04 -8.632175E+01 -7.915262E+03 -1.927347E+03
       335  27  1.287862E+06  1.725857E+04  2.229787E+04 -6.782295E+03 -3.574225E+03 -1.426830E+03
       336   1  1.175784E+06 -9.921641E+03 -6.080455E+03 -7.075237E+03  3.103808E+03  1.134259E+03
       336   2  1.189058E+06 -7.132915E+03 -4.420224E+03 -1.224203E+02  1.858659E+03  6.483174E+02
       336   3  1.202668E+06 -3.684172E+03 -1.783660E+03 -7.191745E+03  6.134291E+02  1.631294E+02
       336   4  1.217520E+06  4.453982E+02  4.074038E+03 -7.128809E+03  2.928696E+03  1.134217E+03
       336   5  1.217353E+06 -9.898279E+01  2.492205E+03 -1.177150E+02  1.683741E+03  6.482822E+02
       336   6  1.217521E+06  1.655261E+01  1.886474E+03 -7.128721E+03  4.387315E+02  1.631011E+02
       336   7  1.259258E+06  1.081231E+04  1.422841E+04 -7.182384E+03  2.753571E+03  1.134176E+03
       336   8  1.245648E+06  6.934890E+03  9.404576E+03 -1.130095E+02  1.508815E+03  6.482470E+02
       336   9  1.232374E+06  3.717261E+03  5.556591E+03 -7.065695E+03  2.640298E+02  1.630727E+02
       336  10  1.175784E+06 -9.921645E+03 -6.080476E+03 -7.075240E+03  8.887076E-10  2.601151E-10
       336  11  1.189058E+06 -7.132916E+03 -4.420232E+03 -1.224213E+02 -6.936170E-11 -4.222047E-10
       336  12  1.202668E+06 -3.684172E+03 -1.783661E+03 -7.191745E+03 -1.089110E-09 -3.698434E-10
       336  13  1.217520E+06  4.453945E+02  4.074019E+03 -7.128812E+03 -1.094372E-09  6.855936E-11
       336  14  1.217353E+06 -9.898400E+01  2.492199E+03 -1.177159E+02  2.110169E-10 -7.808030E-10
       336  15  1.217521E+06  1.655253E+01  1.886473E+03 -7.128721E+03  1.318384E-09  1.740845E-11
       336  16  1.259258E+06  1.081231E+04  1.422839E+04 -7.182387E+03 -1.521016E-09  8.130336E-11
       336  17  1.245648E+06  6.934889E+03  9.404571E+03 -1.130103E+02 -9.717108E-10 -1.146533E-09
       336  18  1.232374E+06  3.717261E+03  5.556591E+03 -7.065695E+03 -8.443651E-10  4.930560E-11
       336  19  1.175784E+06 -9.921641E+03 -6.080455E+03 -7.075237E+03 -3.103808E+03 -1.134259E+03
       336  20  1.189058E+06 -7.132915E+03 -4.420224E+03 -1.224203E+02 -1.858659E+03 -6.483174E+02
       336  21  1.202668E+06 -3.684172E+03 -1.783660E+03 -7.191745E+03 -6.134291E+02 -1.631294E+02
       336  22  1.217520E+06  4.453982E+02  4.074038E+03 -7.128809E+03 -2.928696E+03 -1.134217E+03
       336  23  1.217353E+06 -9.898279E+01  2.492205E+03 -1.177150E+02 -1.683741E+03 -6.482822E+02
       336  24  1.217521E+06  1.655261E+01  1.886474E+03 -7.128721E+03 -4.387315E+02 -1.631011E+02
       336  25  1.259258E+06  1.081231E+04  1.422841E+04 -7.182384E+03 -2.753571E+03 -1.134176E+03
       336  26  1.245648E+06  6.934890E+03  9.404576E+03 -1.130095E+02 -1.508815E+03 -6.482470E+02
       336  27  1.232374E+06  3.717261E+03  5.556591E+03 -7.065695E+03 -2.640298E+02 -1.630727E+02
       337   1  1.230433E+06  3.261210E+03  4.995389E+03 -7.084142E+03  2.807457E+02 -1.188949E+02
       337   2  1.243738E+06  6.479582E+03  8.431106E+03 -1.188204E+02 -7.128211E+02 -6.038780E+02
       337   3  1.257302E+06  1.018793E+04  1.263689E+04 -7.166817E+03 -1.706375E+03 -1.089340E+03
       337   4  1.217504E+06  3.877989E+01  1.795275E+03 -7.126789E+03  1.060368E+02 -1.189231E+02
       337   5  1.217374E+06 -7.405150E+01  1.990680E+03 -1.201396E+02 -8.876719E+02 -6.039126E+02
       337   6  1.217504E+06  3.031471E+02  2.956283E+03 -7.126844E+03 -1.881346E+03 -1.089380E+03
       337   7  1.204575E+06 -3.183663E+03 -1.404850E+03 -7.169436E+03 -6.866841E+01 -1.189514E+02
       337   8  1.191011E+06 -6.627737E+03 -4.449796E+03 -1.214588E+02 -1.062515E+03 -6.039472E+02
       337   9  1.177707E+06 -9.581754E+03 -6.724436E+03 -7.086874E+03 -2.056306E+03 -1.089421E+03
       337  10  1.230433E+06  3.261210E+03  4.995389E+03 -7.084142E+03  1.016281E-09 -2.321480E-10
       337  11  1.243738E+06  6.479582E+03  8.431105E+03 -1.188207E+02 -6.750699E-10  6.787153E-10
       337  12  1.257302E+06  1.018793E+04  1.263688E+04 -7.166818E+03 -7.121257E-10  6.846726E-14
       337  13  1.217504E+06  3.877987E+01  1.795275E+03 -7.126789E+03  1.923102E-09  7.075049E-10
       337  14  1.217374E+06 -7.405210E+01  1.990678E+03 -1.201400E+02 -3.051090E-10  6.526653E-10
       337  15  1.217504E+06  3.031449E+02  2.956274E+03 -7.126846E+03  5.005840E-11 -9.963330E-12
       337  16  1.204575E+06 -3.183663E+03 -1.404850E+03 -7.169436E+03 -1.461628E-09  8.019312E-10
       337  17  1.191011E+06 -6.627737E+03 -4.449799E+03 -1.214593E+02 -2.934869E-09  1.207433E-10
       337  18  1.177707E+06 -9.581756E+03 -6.724446E+03 -7.086875E+03 -8.269754E-10  5.706553E-11
       337  19  1.230433E+06  3.261210E+03  4.995389E+03 -7.084142E+03 -2.807457E+02  1.188949E+02
       337  20  1.243738E+06  6.479582E+03  8.431106E+03 -1.188204E+02  7.128211E+02  6.038780E+02
       337  21  1.257302E+06  1.018793E+04  1.263689E+04 -7.166817E+03  1.706375E+03  1.089340E+03
       337  22  1.217504E+06  3.877989E+01  1.795275E+03 -7.126789E+03 -1.060368E+02  1.189231E+02
       337  23  1.217374E+06 -7.405150E+01  1.990680E+03 -1.201396E+02  8.876719E+02  6.039126E+02
       337  24  1.217504E+06  3.031471E+02  2.956283E+03 -7.126844E+03  1.881346E+03  1.089380E+03
       337  25  1.204575E+06 -3.183663E+03 -1.404850E+03 -7.169436E+03  6.866841E+01  1.189514E+02
       337  26  1.191011E+06 -6.627737E+03 -4.449796E+03 -1.214588E+02  1.062515E+03  6.039472E+02
       337  27  1.177707E+06 -9.581754E+03 -6.724436E+03 -7.086874E+03  2.056306E+03  1.089421E+03
       338   1  1.285765E+06  1.681860E+04  2.032054E+04 -6.917992E+03 -2.291944E+03 -1.381496E+03
       338   2  1.299018E+06  1.987590E+04  2.595029E+04 -5.579749E+01 -5.306902E+03 -1.880743E+03
       338   3  1.313534E+06  2.631392E+04  3.439028E+04 -7.678434E+03 -8.321791E+03 -2.349837E+03
       338   4  1.217725E+06 -1.032650E+02  3.657776E+03 -7.231317E+03 -2.476921E+03 -1.381548E+03
       338   5  1.217093E+06 -4.886438E+02  5.938085E+03  1.069492E+01 -5.480656E+03 -1.880812E+03
       338   6  1.217722E+06  2.505081E+03  1.102122E+04 -7.232241E+03 -8.484255E+03 -2.349926E+03
       338   7  1.149689E+06 -1.702547E+04 -1.300532E+04 -7.544607E+03 -2.661879E+03 -1.381599E+03
       338   8  1.135174E+06 -2.085369E+04 -1.407461E+04  7.717808E+01 -5.654387E+03 -1.880882E+03
       338   9  1.121918E+06 -2.130443E+04 -1.234852E+04 -6.786118E+03 -8.646694E+03 -2.350016E+03
       338  10  1.285765E+06  1.681860E+04  2.032053E+04 -6.917995E+03  5.826846E-10  3.397470E-10
       338  11  1.299018E+06  1.987589E+04  2.595023E+04 -5.580552E+01 -9.311448E-10 -5.032606E-10
       338  12  1.313534E+06  2.631390E+04  3.439014E+04 -7.678450E+03  8.022300E-10  5.092826E-10
       338  13  1.217725E+06 -1.032687E+02  3.657761E+03 -7.231319E+03 -5.055761E-11  3.414364E-11
       338  14  1.217093E+06 -4.886557E+02  5.938022E+03  1.068662E+01 -3.303230E-09 -1.279144E-10
       338  15  1.217722E+06  2.505056E+03  1.102107E+04 -7.232257E+03  2.454812E-10 -3.904721E-10
       338  16  1.149689E+06 -1.702547E+04 -1.300534E+04 -7.544610E+03 -6.600310E-10 -2.336045E-10
       338  17  1.135174E+06 -2.085370E+04 -1.407467E+04  7.716952E+01 -8.243673E-10  9.314269E-11
       338  18  1.121918E+06 -2.130446E+04 -1.234867E+04 -6.786134E+03 -1.051067E-09 -4.480852E-10
       338  19  1.285765E+06  1.681860E+04  2.032054E+04 -6.917992E+03  2.291944E+03  1.381496E+03
       338  20  1.299018E+06  1.987590E+04  2.595029E+04 -5.579749E+01  5.306902E+03  1.880743E+03
       338  21  1.313534E+06  2.631392E+04  3.439028E+04 -7.678434E+03  8.321791E+03  2.349837E+03
       338  22  1.217725E+06 -1.032650E+02  3.657776E+03 -7.231317E+03  2.476921E+03  1.381548E+03
       338  23  1.217093E+06 -4.886438E+02  5.938085E+03  1.069492E+01  5.480656E+03  1.880812E+03
       338  24  1.217722E+06  2.505081E+03  1.102122E+04 -7.232241E+03  8.484255E+03  2.349926E+03
       338  25  1.149689E+06 -1.702547E+04 -1.300532E+04 -7.544607E+03  2.661879E+03  1.381599E+03
       338  26  1.135174E+06 -2.085369E+04 -1.407461E+04  7.717808E+01  5.654387E+03  1.880882E+03
       338  27  1.121918E+06 -2.130443E+04 -1.234852E+04 -6.786118E+03  8.646694E+03  2.350016E+03
       339   1  1.344758E+06  3.031570E+04  4.459665E+04 -5.150272E+03 -1.044401E+04 -2.714828E+03
       339   2  1.355416E+06  3.107175E+04  5.714090E+04 -7.502493E+02 -2.244741E+04 -3.263481E+03
       339   3  1.374384E+06  5.858522E+04  8.419006E+04 -1.180225E+04 -3.445142E+04 -3.410708E+03
       339   4  1.219284E+06 -8.834217E+02  1.390785E+04 -7.442467E+03 -1.071077E+04 -2.714938E+03
       339   5  1.215132E+06 -3.795207E+03  2.288280E+04  2.769722E+02 -2.256708E+04 -3.263632E+03
       339   6  1.219267E+06  2.002822E+04  4.626307E+04 -7.455701E+03 -3.442372E+04 -3.410989E+03
       339   7  1.093824E+06 -3.208369E+04 -1.678210E+04 -9.734199E+03 -1.097749E+04 -2.715045E+03
       339   8  1.074866E+06 -3.866362E+04 -1.137672E+04  1.303959E+03 -2.268672E+04 -3.263784E+03
       339   9  1.064171E+06 -1.853049E+04  8.334329E+03 -3.110245E+03 -3.439601E+04 -3.411270E+03
       339  10  1.344757E+06  3.031566E+04  4.459643E+04 -5.150295E+03  2.543078E-10  1.255130E-11
       339  11  1.355415E+06  3.107161E+04  5.713993E+04 -7.503082E+02  9.086413E-11 -6.734781E-10
       339  12  1.374383E+06  5.858489E+04  8.418781E+04 -1.180234E+04  2.893661E-09 -9.607768E-10
       339  13  1.219284E+06 -8.834603E+02  1.390762E+04 -7.442490E+03  1.366122E-13 -5.088894E-10
       339  14  1.215132E+06 -3.795355E+03  2.288183E+04  2.769129E+02  2.394303E-09 -4.167132E-10
       339  15  1.219265E+06  2.002789E+04  4.626082E+04 -7.455796E+03  1.651110E-09 -7.422783E-10
       339  16  1.093824E+06 -3.208373E+04 -1.678234E+04 -9.734223E+03  2.816613E-10 -5.293615E-10
       339  17  1.074866E+06 -3.866376E+04 -1.137771E+04  1.303900E+03 -8.458817E-10  1.284064E-09
       339  18  1.064170E+06 -1.853082E+04  8.332088E+03 -3.110340E+03  1.487589E-09  2.660942E-10
       339  19  1.344758E+06  3.031570E+04  4.459665E+04 -5.150272E+03  1.044401E+04  2.714828E+03
       339  20  1.355416E+06  3.107175E+04  5.714090E+04 -7.502493E+02  2.244741E+04  3.263481E+03
       339  21  1.374384E+06  5.858522E+04  8.419006E+04 -1.180225E+04  3.445142E+04  3.410708E+03
       339  22  1.219284E+06 -8.834217E+02  1.390785E+04 -7.442467E+03  1.071077E+04  2.714938E+03
       339  23  1.215132E+06 -3.795207E+03  2.288280E+04  2.769722E+02  2.256708E+04  3.263632E+03
       339  24  1.219267E+06  2.002822E+04  4.626307E+04 -7.455701E+03  3.442372E+04  3.410989E+03
       339  25  1.093824E+06 -3.208369E+04 -1.678210E+04 -9.734199E+03  1.097749E+04  2.715045E+03
       339  26  1.074866E+06 -3.866362E+04 -1.137672E+04  1.303959E+03  2.268672E+04  3.263784E+03
       339  27  1.064171E+06 -1.853049E+04  8.334329E+03 -3.110245E+03  3.439601E+04  3.411270E+03
       340   1  1.417707E+06  3.948150E+04  1.020036E+05  9.478468E+03 -4.246463E+04 -4.354788E+03
       340   2  1.404428E+06  2.089789E+04  1.375086E+05 -9.382803E+03 -9.169340E+04 -5.128157E+03
       340   3  1.450303E+06  2.129503E+05  2.577004E+05 -4.528683E+04 -1.409270E+05 -1.869640E+03
       340   4  1.230539E+06 -7.071264E+03  5.628849E+04 -7.746460E+03 -4.344791E+04 -4.354430E+03
       340   5  1.201032E+06 -2.961826E+04  8.792245E+04  6.877397E+02 -9.121038E+04 -5.129326E+03
       340   6  1.230443E+06  1.582508E+05  2.032460E+05 -7.919256E+03 -1.389762E+05 -1.876076E+03
       340   7  1.043404E+06 -5.362550E+04  1.057100E+04 -2.496620E+04 -4.443089E+04 -4.354018E+03
       340   8  9.976739E+05 -8.013707E+04  3.833337E+04  1.075497E+04 -9.072752E+04 -5.130479E+03
       340   9  1.010630E+06  1.035530E+05  1.487888E+05  2.943509E+04 -1.370262E+05 -1.882279E+03
       340  10  1.417705E+06  3.948100E+04  1.020002E+05  9.478319E+03  2.228922E-09 -1.585450E-09
       340  11  1.404419E+06  2.089561E+04  1.374928E+05 -9.383182E+03 -6.954945E-10 -3.097376E-09
       340  12  1.450282E+06  2.129449E+05  2.576631E+05 -4.528704E+04  4.484516E-11 -9.470205E-10
       340  13  1.230537E+06 -7.071790E+03  5.628491E+04 -7.746612E+03  8.682415E-10 -3.729145E-09
       340  14  1.201023E+06 -2.962052E+04  8.790680E+04  6.873631E+02 -2.888484E-10  1.541929E-09
       340  15  1.230423E+06  1.582456E+05  2.032098E+05 -7.919466E+03 -9.998707E-10 -1.666216E-10
       340  16  1.043401E+06 -5.362605E+04  1.056726E+04 -2.496635E+04 -6.761910E-10 -6.041255E-10
       340  17  9.976651E+05 -8.013930E+04  3.831788E+04  1.075460E+04 -2.253855E-10  1.498144E-09
       340  18  1.010610E+06  1.035480E+05  1.487536E+05  2.943488E+04 -4.456809E-11 -1.004561E-09
       340  19  1.417707E+06  3.948150E+04  1.020036E+05  9.478468E+03  4.246463E+04  4.354788E+03
       340  20  1.404428E+06  2.089789E+04  1.375086E+05 -9.382803E+03  9.169340E+04  5.128157E+03
       340  21  1.450303E+06  2.129503E+05  2.577004E+05 -4.528683E+04  1.409270E+05  1.869640E+03
       340  22  1.230539E+06 -7.071264E+03  5.628849E+04 -7.746460E+03  4.344791E+04  4.354430E+03
       340  23  1.201032E+06 -2.961826E+04  8.792245E+04  6.877397E+02  9.121038E+04  5.129326E+03
       340  24  1.230443E+06  1.582508E+05  2.032460E+05 -7.919256E+03  1.389762E+05  1.876076E+03
       340  25  1.043404E+06 -5.362550E+04  1.057100E+04 -2.496620E+04  4.443089E+04  4.354018E+03
       340  26  9.976739E+05 -8.013707E+04  3.833337E+04  1.075497E+04  9.072752E+04  5.130479E+03
       340  27  1.010630E+06  1.035530E+05  1.487888E+05  2.943509E+04  1.370262E+05  1.882279E+03
       341   1  1.175333E+06  4.983052E+06  1.230951E+06 -5.016002E+05  2.862787E+04  2.039448E+05
       341   2  7.223639E+05  4.130251E+06  8.740078E+05 -5.133264E+04  7.757583E+04  1.074179E+05
       341   3  5.700614E+05  3.376248E+06  6.568186E+05 -4.343808E+05  4.714459E+04  1.061049E+04
       341   4  2.080123E+05  1.095669E+06  2.694290E+05 -4.432064E+05  2.874864E+04  1.712898E+05
       341   5 -4.221529E+04  1.049005E+06  1.243207E+05 -2.673429E+04  7.762080E+04  1.039094E+05
       341   6  4.002558E+03  1.095984E+06  9.938116E+04 -4.437899E+05  4.695096E+04  3.612151E+04
       341   7 -7.604227E+05 -2.778059E+06 -6.932095E+05 -3.851620E+05  2.886379E+04  1.388352E+05
       341   8 -8.074902E+05 -2.023623E+06 -6.260539E+05 -2.246576E+03  7.766563E+04  1.004171E+05
       341   9 -5.624385E+05 -1.179562E+06 -4.584328E+05 -4.531535E+05  4.675620E+04  6.153923E+04
       341  10  1.175321E+06  4.983008E+06  1.230872E+06 -5.016049E+05 -9.599324E-10 -3.481413E-09
       341  11  7.223544E+05  4.130237E+06  8.739749E+05 -5.133934E+04 -2.872279E-09 -5.188584E-09
       341  12  5.700590E+05  3.376248E+06  6.568142E+05 -4.343812E+05  3.337493E-09 -3.859560E-09
       341  13  2.080036E+05  1.095638E+06  2.693724E+05 -4.432104E+05 -1.444380E-10 -1.538103E-10
       341  14 -4.222466E+04  1.048992E+06  1.242891E+05 -2.674078E+04 -9.963987E-10 -3.448850E-11
       341  15  3.999838E+03  1.095982E+06  9.937457E+04 -4.437913E+05  1.841854E-09 -1.284102E-08
       341  16 -7.604288E+05 -2.778080E+06 -6.932475E+05 -3.851652E+05 -1.252132E-09  1.142109E-09
       341  17 -8.074994E+05 -2.023636E+06 -6.260843E+05 -2.252867E+03  2.543916E-09  5.634051E-09
       341  18 -5.624418E+05 -1.179566E+06 -4.584441E+05 -4.531559E+05  4.183282E-10  1.124834E-08
       341  19  1.175333E+06  4.983052E+06  1.230951E+06 -5.016002E+05 -2.862787E+04 -2.039448E+05
       341  20  7.223639E+05  4.130251E+06  8.740078E+05 -5.133264E+04 -7.757583E+04 -1.074179E+05
       341  21  5.700614E+05  3.376248E+06  6.568186E+05 -4.343808E+05 -4.714459E+04 -1.061049E+04
       341  22  2.080123E+05  1.095669E+06  2.694290E+05 -4.432064E+05 -2.874864E+04 -1.712898E+05
       341  23 -4.221529E+04  1.049005E+06  1.243207E+05 -2.673429E+04 -7.762080E+04 -1.039094E+05
       341  24  4.002558E+03  1.095984E+06  9.938116E+04 -4.437899E+05 -4.695096E+04 -3.612151E+04
       341  25 -7.604227E+05 -2.778059E+06 -6.932095E+05 -3.851620E+05 -2.886379E+04 -1.388352E+05
       341  26 -8.074902E+05 -2.023623E+06 -6.260539E+05 -2.246576E+03 -7.766563E+04 -1.004171E+05
       341  27 -5.624385E+05 -1.179562E+06 -4.584328E+05 -4.531535E+05 -4.675620E+04 -6.153923E+04
       342   1  1.873241E+05  1.712993E+06  2.461507E+05 -4.558296E+05  1.700414E+04  1.116167E+04
       342   2 -5.206647E+04  9.148634E+05  4.556589E+04 -2.750075E+04 -3.390607E+03 -3.223457E+04
       342   3 -1.837989E+05  1.335639E+05 -1.033884E+05 -4.222656E+05 -2.321250E+04 -7.556226E+04
       342   4  2.992268E+04  1.080250E+06  9.217948E+04 -4.412133E+05  1.693939E+04  1.874122E+04
       342   5 -1.293817E+04  1.072101E+06  8.397979E+04 -2.959575E+04 -3.451349E+03 -2.485885E+04
       342   6  5.192285E+04  1.080226E+06  1.275855E+05 -4.410390E+05 -2.326877E+04 -6.844473E+04
       342   7 -1.275076E+05  4.478721E+05 -6.182050E+04 -4.266110E+05  1.687497E+04  2.631306E+04
       342   8  2.618834E+04  1.229361E+06  1.223921E+05 -3.169124E+04 -3.512134E+03 -1.748128E+04
       342   9  2.875795E+05  2.027705E+06  3.584946E+05 -4.598390E+05 -2.332543E+04 -6.131631E+04
       342  10  1.873238E+05  1.712993E+06  2.461500E+05 -4.558298E+05  5.309503E-10 -1.373282E-08
       342  11 -5.206676E+04  9.148622E+05  4.556392E+04 -2.750084E+04  1.051714E-09 -1.140399E-08
       342  12 -1.838010E+05  1.335576E+05 -1.034002E+05 -4.222670E+05 -3.122996E-09 -8.611953E-09
       342  13  2.992228E+04  1.080250E+06  9.217828E+04 -4.412136E+05  2.186342E-09  8.580705E-12
       342  14 -1.293835E+04  1.072100E+06  8.397861E+04 -2.959582E+04  5.711348E-09 -2.429355E-10
       342  15  5.192101E+04  1.080221E+06  1.275757E+05 -4.410402E+05  6.486057E-09 -1.387063E-08
       342  16 -1.275080E+05  4.478713E+05 -6.182234E+04 -4.266114E+05  5.494397E-10  5.261870E-09
       342  17  2.618824E+04  1.229360E+06  1.223915E+05 -3.169129E+04 -6.190553E-09  1.153157E-08
       342  18  2.875779E+05  2.027700E+06  3.584865E+05 -4.598402E+05 -2.376515E-09  1.713859E-08
       342  19  1.873241E+05  1.712993E+06  2.461507E+05 -4.558296E+05 -1.700414E+04 -1.116167E+04
       342  20 -5.206647E+04  9.148634E+05  4.556589E+04 -2.750075E+04  3.390607E+03  3.223457E+04
       342  21 -1.837989E+05  1.335639E+05 -1.033884E+05 -4.222656E+05  2.321250E+04  7.556226E+04
       342  22  2.992268E+04  1.080250E+06  9.217948E+04 -4.412133E+05 -1.693939E+04 -1.874122E+04
       342  23 -1.293817E+04  1.072101E+06  8.397979E+04 -2.959575E+04  3.451349E+03  2.485885E+04
       342  24  5.192285E+04  1.080226E+06  1.275855E+05 -4.410390E+05  2.326877E+04  6.844473E+04
       342  25 -1.275076E+05  4.478721E+05 -6.182050E+04 -4.266110E+05 -1.687497E+04 -2.631306E+04
       342  26  2.618834E+04  1.229361E+06  1.223921E+05 -3.169124E+04  3.512134E+03  1.748128E+04
       342  27  2.875795E+05  2.027705E+06  3.584946E+05 -4.598390E+05  2.332543E+04  6.131631E+04
       343   1 -6.514839E+05 -1.480724E+06 -4.857468E+05 -4.707548E+05 -5.383913E+04 -1.197294E+05
       343   2 -9.191656E+05 -2.361154E+06 -6.140848E+05  8.940561E+03 -8.510118E+04 -2.054716E+05
       343   3 -6.700365E+05 -3.083514E+06 -5.538294E+05 -3.478169E+05 -3.131926E+04 -2.907320E+05
       343   4 -6.568085E+03  1.110854E+06  1.493631E+05 -4.445007E+05 -5.403286E+04 -9.333167E+04
       343   5 -7.438082E+04  1.029640E+06  2.142159E+05 -2.604686E+04 -8.504227E+04 -2.101642E+05
       343   6  3.785673E+05  1.110441E+06  4.884535E+05 -4.436943E+05 -3.119540E+04 -3.266307E+05
       343   7  6.378550E+05  3.708558E+06  7.839850E+05 -4.181229E+05 -5.422392E+04 -6.682312E+04
       343   8  7.695579E+05  4.430933E+06  1.041679E+06 -6.121461E+04 -8.498306E+04 -2.148799E+05
       343   9  1.425884E+06  5.320420E+06  1.529430E+06 -5.402093E+05 -3.106105E+04 -3.627665E+05
       343  10 -6.514909E+05 -1.480740E+06 -4.857793E+05 -4.707600E+05  7.944628E-10 -1.339090E-08
       343  11 -9.191847E+05 -2.361202E+06 -6.141781E+05  8.926454E+03  1.476863E-09 -5.009789E-09
       343  12 -6.700604E+05 -3.083606E+06 -5.539909E+05 -3.478243E+05  1.590382E-10 -5.198773E-10
       343  13 -6.573560E+03  1.110844E+06  1.493413E+05 -4.445047E+05 -4.397137E-09  1.787466E-10
       343  14 -7.440042E+04  1.029591E+06  2.141194E+05 -2.606125E+04  1.496206E-09 -2.296032E-10
       343  15  3.785376E+05  1.110326E+06  4.882515E+05 -4.437025E+05 -6.457668E-10 -2.010006E-09
       343  16  6.378506E+05  3.708552E+06  7.839711E+05 -4.181258E+05  2.208759E-09  5.869965E-09
       343  17  7.695378E+05  4.430882E+06  1.041580E+06 -6.122927E+04 -6.587664E-10  4.508146E-09
       343  18  1.425848E+06  5.320279E+06  1.529183E+06 -5.402183E+05 -1.288213E-09  1.860879E-09
       343  19 -6.514839E+05 -1.480724E+06 -4.857468E+05 -4.707548E+05  5.383913E+04  1.197294E+05
       343  20 -9.191656E+05 -2.361154E+06 -6.140848E+05  8.940561E+03  8.510118E+04  2.054716E+05
       343  21 -6.700365E+05 -3.083514E+06 -5.538294E+05 -3.478169E+05  3.131926E+04  2.907320E+05
       343  22 -6.568085E+03  1.110854E+06  1.493631E+05 -4.445007E+05  5.403286E+04  9.333167E+04
       343  23 -7.438082E+04  1.029640E+06  2.142159E+05 -2.604686E+04  8.504227E+04  2.101642E+05
       343  24  3.785673E+05  1.110441E+06  4.884535E+05 -4.436943E+05  3.119540E+04  3.266307E+05
       343  25  6.378550E+05  3.708558E+06  7.839850E+05 -4.181229E+05  5.422392E+04  6.682312E+04
       343  26  7.695579E+05  4.430933E+06  1.041679E+06 -6.121461E+04  8.498306E+04  2.148799E+05
       343  27  1.425884E+06  5.320420E+06  1.529430E+06 -5.402093E+05  3.106105E+04  3.627665E+05
       344   1 -1.197253E+06 -5.231704E+05 -2.719739E+05 -5.116061E+05 -1.409597E+05 -4.538663E+04
       344   2 -1.149502E+06 -3.762377E+05 -1.554625E+05 -4.870330E+05 -8.708443E+04 -7.613019E+03
       344   3 -1.127193E+06 -3.036754E+05 -1.015110E+05 -4.557054E+05 -2.877771E+04  1.841401E+04
       344   4 -7.689363E+05 -2.816236E+05 -1.473783E+05 -3.110713E+05 -9.861601E+04 -2.948128E+04
       344   5 -7.506428E+05 -1.910880E+05 -6.994004E+04 -3.353734E+05 -6.819201E+04 -5.157342E+02
       344   6 -7.531207E+05 -1.702512E+05 -3.643366E+04 -3.529296E+05 -3.334283E+04  1.669574E+04
       344   7 -3.404262E+05 -3.998528E+04 -2.279295E+04 -1.103905E+05 -5.624138E+04 -1.355033E+04
       344   8 -3.516150E+05 -5.893906E+03  1.557535E+04 -1.836141E+05 -4.928672E+04  6.589438E+03
       344   9 -3.788972E+05 -3.681313E+04  2.864033E+04 -2.500955E+05 -3.791092E+04  1.497638E+04
       344  10 -1.197275E+06 -5.231780E+05 -2.720152E+05 -5.116113E+05 -3.051111E-09 -3.112266E-09
       344  11 -1.149510E+06 -3.762398E+05 -1.554769E+05 -4.870336E+05 -2.773455E-08 -1.288601E-08
       344  12 -1.127194E+06 -3.036760E+05 -1.015132E+05 -4.557050E+05 -6.682181E-08 -2.119316E-08
       344  13 -7.689470E+05 -2.816271E+05 -1.473982E+05 -3.110737E+05  8.269256E-10  2.876853E-10
       344  14 -7.506478E+05 -1.910892E+05 -6.994879E+04 -3.353734E+05 -4.722237E-09 -7.971861E-09
       344  15 -7.531220E+05 -1.702518E+05 -3.643628E+04 -3.529292E+05 -2.479804E-08 -2.204393E-08
       344  16 -3.404296E+05 -3.998633E+04 -2.279924E+04 -1.103911E+05  6.898479E-09  5.198061E-09
       344  17 -3.516176E+05 -5.894605E+03  1.557070E+04 -1.836138E+05  2.366307E-08  1.452611E-08
       344  18 -3.788988E+05 -3.681375E+04  2.863720E+04 -2.500950E+05  2.212141E-08  1.520568E-08
       344  19 -1.197253E+06 -5.231704E+05 -2.719739E+05 -5.116061E+05  1.409597E+05  4.538663E+04
       344  20 -1.149502E+06 -3.762377E+05 -1.554625E+05 -4.870330E+05  8.708443E+04  7.613019E+03
       344  21 -1.127193E+06 -3.036754E+05 -1.015110E+05 -4.557054E+05  2.877771E+04 -1.841401E+04
       344  22 -7.689363E+05 -2.816236E+05 -1.473783E+05 -3.110713E+05  9.861601E+04  2.948128E+04
       344  23 -7.506428E+05 -1.910880E+05 -6.994004E+04 -3.353734E+05  6.819201E+04  5.157342E+02
       344  24 -7.531207E+05 -1.702512E+05 -3.643366E+04 -3.529296E+05  3.334283E+04 -1.669574E+04
       344  25 -3.404262E+05 -3.998528E+04 -2.279295E+04 -1.103905E+05  5.624138E+04  1.355033E+04
       344  26 -3.516150E+05 -5.893906E+03  1.557535E+04 -1.836141E+05  4.928672E+04 -6.589438E+03
       344  27 -3.788972E+05 -3.681313E+04  2.864033E+04 -2.500955E+05  3.791092E+04 -1.497638E+04
       345   1 -1.082243E+06 -2.927560E+05 -8.460152E+04 -4.494321E+05 -2.468147E+04  1.803499E+04
       345   2 -1.029064E+06 -2.603605E+05 -5.970334E+04 -4.289785E+05 -1.409791E+04  1.906076E+04
       345   3 -9.710278E+05 -2.408398E+05 -4.327211E+04 -4.167187E+05 -3.048163E+03  1.884755E+04
       345   4 -7.488846E+05 -1.686188E+05 -2.713829E+04 -3.520699E+05 -2.861802E+04  1.655330E+04
       345   5 -7.510419E+05 -1.588258E+05 -1.415617E+04 -3.493228E+05 -2.050531E+04  1.665092E+04
       345   6 -7.478518E+05 -1.614160E+05 -7.677450E+03 -3.547708E+05 -1.192734E+04  1.550949E+04
       345   7 -4.154119E+05 -4.447002E+04  3.032079E+04 -2.546591E+05 -3.255678E+04  1.507071E+04
       345   8 -4.729364E+05 -5.728252E+04  3.138947E+04 -2.696333E+05 -2.691577E+04  1.423990E+04
       345   9 -5.246194E+05 -8.198631E+04  2.791731E+04 -2.928013E+05 -2.081001E+04  1.217014E+04
       345  10 -1.082243E+06 -2.927565E+05 -8.460327E+04 -4.494318E+05  2.287987E-08  1.569740E-08
       345  11 -1.029065E+06 -2.603609E+05 -5.970440E+04 -4.289783E+05  2.028344E-08  1.790243E-08
       345  12 -9.710279E+05 -2.408402E+05 -4.327280E+04 -4.167186E+05  4.344215E-09  6.585139E-09
       345  13 -7.488856E+05 -1.686193E+05 -2.714035E+04 -3.520696E+05 -2.442213E-08 -2.125855E-08
       345  14 -7.510424E+05 -1.588262E+05 -1.415748E+04 -3.493225E+05 -5.612847E-09 -6.397278E-09
       345  15 -7.478520E+05 -1.614163E+05 -7.678169E+03 -3.547707E+05  6.613684E-11  4.635576E-10
       345  16 -4.154131E+05 -4.447055E+04  3.031837E+04 -2.546587E+05 -6.726727E-08 -2.406124E-08
       345  17 -4.729373E+05 -5.728293E+04  3.138773E+04 -2.696330E+05 -2.833008E-08 -1.130719E-08
       345  18 -5.246199E+05 -8.198659E+04  2.791621E+04 -2.928011E+05 -2.320483E-09 -1.099545E-09
       345  19 -1.082243E+06 -2.927560E+05 -8.460152E+04 -4.494321E+05  2.468147E+04 -1.803499E+04
       345  20 -1.029064E+06 -2.603605E+05 -5.970334E+04 -4.289785E+05  1.409791E+04 -1.906076E+04
       345  21 -9.710278E+05 -2.408398E+05 -4.327211E+04 -4.167187E+05  3.048163E+03 -1.884755E+04
       345  22 -7.488846E+05 -1.686188E+05 -2.713829E+04 -3.520699E+05  2.861802E+04 -1.655330E+04
       345  23 -7.510419E+05 -1.588258E+05 -1.415617E+04 -3.493228E+05  2.050531E+04 -1.665092E+04
       345  24 -7.478518E+05 -1.614160E+05 -7.677450E+03 -3.547708E+05  1.192734E+04 -1.550949E+04
       345  25 -4.154119E+05 -4.447002E+04  3.032079E+04 -2.546591E+05  3.255678E+04 -1.507071E+04
       345  26 -4.729364E+05 -5.728252E+04  3.138947E+04 -2.696333E+05  2.691577E+04 -1.423990E+04
       345  27 -5.246194E+05 -8.198631E+04  2.791731E+04 -2.928013E+05  2.081001E+04 -1.217014E+04
       346   1 -9.343131E+05 -2.281955E+05 -3.529885E+04 -4.069567E+05 -1.085237E+03  1.658971E+04
       346   2 -8.813241E+05 -2.034997E+05 -2.362269E+04 -3.865146E+05  2.427946E+03  1.279835E+04
       346   3 -8.207098E+05 -1.871494E+05 -1.339727E+04 -3.751855E+05  5.990093E+03  8.875801E+03
       346   4 -7.474506E+05 -1.613535E+05 -5.750537E+03 -3.546551E+05 -9.901118E+03  1.327586E+04
       346   5 -7.512611E+05 -1.570408E+05 -3.139127E+03 -3.501591E+05 -6.649785E+03  9.386565E+03
       346   6 -7.473976E+05 -1.610218E+05 -1.770654E+03 -3.547770E+05 -3.349676E+03  5.366048E+03
       346   7 -5.605505E+05 -9.450791E+04  2.379746E+04 -3.023387E+05 -1.871981E+04  9.960961E+03
       346   8 -6.211804E+05 -1.105804E+05  1.734426E+04 -3.137965E+05 -1.572947E+04  5.974055E+03
       346   9 -6.740804E+05 -1.348938E+05  9.855996E+03 -3.343665E+05 -1.269050E+04  1.855903E+03
       346  10 -9.343132E+05 -2.281958E+05 -3.529937E+04 -4.069567E+05  4.043945E-10  2.228970E-09
       346  11 -8.813241E+05 -2.034998E+05 -2.362301E+04 -3.865146E+05  7.936887E-10  4.298933E-11
       346  12 -8.207098E+05 -1.871495E+05 -1.339749E+04 -3.751855E+05  7.989002E-10 -2.458007E-09
       346  13 -7.474508E+05 -1.613538E+05 -5.751052E+03 -3.546550E+05 -1.809011E-09  2.619778E-09
       346  14 -7.512611E+05 -1.570409E+05 -3.139376E+03 -3.501590E+05 -6.473898E-09  2.570566E-09
       346  15 -7.473976E+05 -1.610218E+05 -1.770729E+03 -3.547770E+05 -8.272780E-09 -1.412803E-09
       346  16 -5.605509E+05 -9.450811E+04  2.379661E+04 -3.023385E+05 -2.217556E-09  2.042779E-09
       346  17 -6.211807E+05 -1.105805E+05  1.734373E+04 -3.137964E+05 -4.252010E-09  2.405766E-09
       346  18 -6.740806E+05 -1.348939E+05  9.855686E+03 -3.343664E+05 -6.580320E-09  3.074513E-10
       346  19 -9.343131E+05 -2.281955E+05 -3.529885E+04 -4.069567E+05  1.085237E+03 -1.658971E+04
       346  20 -8.813241E+05 -2.034997E+05 -2.362269E+04 -3.865146E+05 -2.427946E+03 -1.279835E+04
       346  21 -8.207098E+05 -1.871494E+05 -1.339727E+04 -3.751855E+05 -5.990093E+03 -8.875801E+03
       346  22 -7.474506E+05 -1.613535E+05 -5.750537E+03 -3.546551E+05  9.901118E+03 -1.327586E+04
       346  23 -7.512611E+05 -1.570408E+05 -3.139127E+03 -3.501591E+05  6.649785E+03 -9.386565E+03
       346  24 -7.473976E+05 -1.610218E+05 -1.770654E+03 -3.547770E+05  3.349676E+03 -5.366048E+03
       346  25 -5.605505E+05 -9.450791E+04  2.379746E+04 -3.023387E+05  1.871981E+04 -9.960961E+03
       346  26 -6.211804E+05 -1.105804E+05  1.734426E+04 -3.137965E+05  1.572947E+04 -5.974055E+03
       346  27 -6.740804E+05 -1.348938E+05  9.855996E+03 -3.343665E+05  1.269050E+04 -1.855903E+03
       347   1 -7.847062E+05 -1.742919E+05 -7.105626E+03 -3.651489E+05  7.265913E+03  6.245154E+03
       347   2 -7.318383E+05 -1.500013E+05  2.164889E+03 -3.446512E+05  9.476395E+03  1.737332E+03
       347   3 -6.710394E+05 -1.337258E+05  1.109513E+04 -3.332953E+05  1.169126E+04 -2.781908E+03
       347   4 -7.473499E+05 -1.610289E+05 -1.365486E+03 -3.547572E+05 -2.067970E+03  2.737735E+03
       347   5 -7.513164E+05 -1.570297E+05 -8.619671E+02 -3.501829E+05  1.191461E+02 -1.778961E+03
       347   6 -7.473521E+05 -1.610421E+05 -6.809030E+02 -3.547524E+05  2.310596E+03 -6.307085E+03
       347   7 -7.099915E+05 -1.477655E+05  4.375132E+03 -3.443647E+05 -1.140256E+04 -7.699447E+02
       347   8 -7.707941E+05 -1.640581E+05 -3.888487E+03 -3.557145E+05 -9.237850E+03 -5.295157E+03
       347   9 -8.236584E+05 -1.883577E+05 -1.245665E+04 -3.762068E+05 -7.068853E+03 -9.831803E+03
       347  10 -7.847063E+05 -1.742919E+05 -7.105798E+03 -3.651489E+05 -7.986942E-08 -3.221869E-08
       347  11 -7.318384E+05 -1.500013E+05  2.164714E+03 -3.446512E+05 -1.226667E-08 -2.057634E-10
       347  12 -6.710395E+05 -1.337258E+05  1.109486E+04 -3.332953E+05  8.314514E-08  4.021154E-08
       347  13 -7.473499E+05 -1.610289E+05 -1.365509E+03 -3.547572E+05 -1.324540E-08 -7.202655E-09
       347  14 -7.513164E+05 -1.570297E+05 -8.619731E+02 -3.501829E+05 -1.387961E-08 -1.634386E-08
       347  15 -7.473522E+05 -1.610421E+05 -6.809877E+02 -3.547523E+05  7.770218E-09 -1.134448E-08
       347  16 -7.099916E+05 -1.477656E+05  4.374886E+03 -3.443647E+05  6.411259E-08  2.315921E-08
       347  17 -7.707942E+05 -1.640581E+05 -3.888701E+03 -3.557145E+05 -1.366905E-08 -8.581859E-09
       347  18 -8.236585E+05 -1.883578E+05 -1.245693E+04 -3.762069E+05 -7.332902E-08 -2.770958E-08
       347  19 -7.847062E+05 -1.742919E+05 -7.105626E+03 -3.651489E+05 -7.265913E+03 -6.245154E+03
       347  20 -7.318383E+05 -1.500013E+05  2.164889E+03 -3.446512E+05 -9.476395E+03 -1.737332E+03
       347  21 -6.710394E+05 -1.337258E+05  1.109513E+04 -3.332953E+05 -1.169126E+04  2.781908E+03
       347  22 -7.473499E+05 -1.610289E+05 -1.365486E+03 -3.547572E+05  2.067970E+03 -2.737735E+03
       347  23 -7.513164E+05 -1.570297E+05 -8.619671E+02 -3.501829E+05 -1.191461E+02  1.778961E+03
       347  24 -7.473521E+05 -1.610421E+05 -6.809030E+02 -3.547524E+05 -2.310596E+03  6.307085E+03
       347  25 -7.099915E+05 -1.477655E+05  4.375132E+03 -3.443647E+05  1.140256E+04  7.699447E+02
       347  26 -7.707941E+05 -1.640581E+05 -3.888487E+03 -3.557145E+05  9.237850E+03  5.295157E+03
       347  27 -8.236584E+05 -1.883577E+05 -1.245665E+04 -3.762068E+05  7.068853E+03  9.831803E+03
       348   1 -6.351256E+05 -1.208388E+05  1.696290E+04 -3.232429E+05  1.283167E+04 -5.472862E+03
       348   2 -5.822878E+05 -9.655614E+04  2.551903E+04 -3.027517E+05  1.498987E+04 -1.000803E+04
       348   3 -5.215116E+05 -8.027371E+04  3.377865E+04 -2.913969E+05  1.714144E+04 -1.452403E+04
       348   4 -7.473551E+05 -1.610435E+05 -6.829619E+02 -3.547511E+05  3.451838E+03 -8.997923E+03
       348   5 -7.513222E+05 -1.570420E+05 -8.734323E+02 -3.501825E+05  5.647549E+03 -1.351960E+04
       348   6 -7.473617E+05 -1.610484E+05 -1.390280E+03 -3.547518E+05  7.836618E+03 -1.802216E+04
       348   7 -8.595695E+05 -2.012462E+05 -1.832830E+04 -3.862534E+05 -5.926091E+03 -1.252227E+04
       348   8 -9.203257E+05 -2.175247E+05 -2.726600E+04 -3.976012E+05 -3.692075E+03 -1.703017E+04
       348   9 -9.731592E+05 -2.418187E+05 -3.656040E+04 -4.180856E+05 -1.464729E+03 -2.151899E+04
       348  10 -6.351258E+05 -1.208389E+05  1.696253E+04 -3.232429E+05  3.001569E-09  9.874365E-09
       348  11 -5.822880E+05 -9.655630E+04  2.551842E+04 -3.027516E+05 -4.520125E-09 -3.134294E-10
       348  12 -5.215120E+05 -8.027402E+04  3.377770E+04 -2.913967E+05 -1.054818E-08 -8.663316E-09
       348  13 -7.473551E+05 -1.610436E+05 -6.831364E+02 -3.547510E+05  1.452980E-08 -5.554652E-09
       348  14 -7.513223E+05 -1.570422E+05 -8.738356E+02 -3.501825E+05  2.290165E-09  3.744294E-09
       348  15 -7.473619E+05 -1.610488E+05 -1.391006E+03 -3.547517E+05 -2.657971E-09  9.395624E-09
       348  16 -8.595695E+05 -2.012464E+05 -1.832866E+04 -3.862534E+05  1.822170E-08  1.016885E-08
       348  17 -9.203258E+05 -2.175250E+05 -2.726657E+04 -3.976012E+05  6.593055E-09  5.810030E-09
       348  18 -9.731594E+05 -2.418192E+05 -3.656128E+04 -4.180857E+05  2.995585E-09 -1.911881E-09
       348  19 -6.351256E+05 -1.208388E+05  1.696290E+04 -3.232429E+05 -1.283167E+04  5.472862E+03
       348  20 -5.822878E+05 -9.655614E+04  2.551903E+04 -3.027517E+05 -1.498987E+04  1.000803E+04
       348  21 -5.215116E+05 -8.027371E+04  3.377865E+04 -2.913969E+05 -1.714144E+04  1.452403E+04
       348  22 -7.473551E+05 -1.610435E+05 -6.829619E+02 -3.547511E+05 -3.451838E+03  8.997923E+03
       348  23 -7.513222E+05 -1.570420E+05 -8.734323E+02 -3.501825E+05 -5.647549E+03  1.351960E+04
       348  24 -7.473617E+05 -1.610484E+05 -1.390280E+03 -3.547518E+05 -7.836618E+03  1.802216E+04
       348  25 -8.595695E+05 -2.012462E+05 -1.832830E+04 -3.862534E+05  5.926091E+03  1.252227E+04
       348  26 -9.203257E+05 -2.175247E+05 -2.726600E+04 -3.976012E+05  3.692075E+03  1.703017E+04
       348  27 -9.731592E+05 -2.418187E+05 -3.656040E+04 -4.180856E+05  1.464729E+03  2.151899E+04
       349   1 -4.856406E+05 -6.741203E+04  3.925060E+04 -2.813996E+05  1.843173E+04 -1.714029E+04
       349   2 -4.328369E+05 -4.312807E+04  4.674212E+04 -2.608492E+05  2.138777E+04 -2.124234E+04
       349   3 -3.723001E+05 -2.705864E+04  5.325351E+04 -2.493909E+05  2.427665E+04 -2.516281E+04
       349   4 -7.474162E+05 -1.610436E+05 -1.804730E+03 -3.547689E+05  9.120847E+03 -2.064125E+04
       349   5 -7.512780E+05 -1.570787E+05 -3.202978E+03 -3.501582E+05  1.243827E+04 -2.460861E+04
       349   6 -7.474818E+05 -1.614008E+05 -5.868476E+03 -3.546414E+05  1.568839E+04 -2.839436E+04
       349   7 -1.009118E+06 -2.546679E+05 -4.286084E+04 -4.281091E+05 -1.858781E+02 -2.414065E+04
       349   8 -1.069608E+06 -2.710179E+05 -5.314892E+04 -4.394235E+05  3.493683E+03 -2.797302E+04
       349   9 -1.122507E+06 -2.957265E+05 -6.499138E+04 -4.598307E+05  7.105730E+03 -3.162381E+04
       349  10 -4.856411E+05 -6.741244E+04  3.924941E+04 -2.813994E+05  3.249660E-08  7.345994E-09
       349  11 -4.328375E+05 -4.312867E+04  4.674041E+04 -2.608489E+05  9.151558E-09  1.563750E-09
       349  12 -3.723009E+05 -2.705948E+04  5.325121E+04 -2.493904E+05 -1.827663E-08 -8.570458E-09
       349  13 -7.474164E+05 -1.610441E+05 -1.805686E+03 -3.547688E+05 -1.913125E-09  1.333580E-08
       349  14 -7.512783E+05 -1.570794E+05 -3.204406E+03 -3.501580E+05  1.402099E-09  1.075959E-08
       349  15 -7.474823E+05 -1.614017E+05 -5.870452E+03 -3.546410E+05  3.183994E-10  1.551443E-09
       349  16 -1.009118E+06 -2.546686E+05 -4.286193E+04 -4.281091E+05 -3.696319E-08 -1.858926E-08
       349  17 -1.069608E+06 -2.710187E+05 -5.315042E+04 -4.394234E+05 -2.880343E-09 -2.565768E-09
       349  18 -1.122507E+06 -2.957276E+05 -6.499336E+04 -4.598305E+05  1.992192E-08  8.594757E-09
       349  19 -4.856406E+05 -6.741203E+04  3.925060E+04 -2.813996E+05 -1.843173E+04  1.714029E+04
       349  20 -4.328369E+05 -4.312807E+04  4.674212E+04 -2.608492E+05 -2.138777E+04  2.124234E+04
       349  21 -3.723001E+05 -2.705864E+04  5.325351E+04 -2.493909E+05 -2.427665E+04  2.516281E+04
       349  22 -7.474162E+05 -1.610436E+05 -1.804730E+03 -3.547689E+05 -9.120847E+03  2.064125E+04
       349  23 -7.512780E+05 -1.570787E+05 -3.202978E+03 -3.501582E+05 -1.243827E+04  2.460861E+04
       349  24 -7.474818E+05 -1.614008E+05 -5.868476E+03 -3.546414E+05 -1.568839E+04  2.839436E+04
       349  25 -1.009118E+06 -2.546679E+05 -4.286084E+04 -4.281091E+05  1.858781E+02  2.414065E+04
       349  26 -1.069608E+06 -2.710179E+05 -5.314892E+04 -4.394235E+05 -3.493683E+03  2.797302E+04
       349  27 -1.122507E+06 -2.957265E+05 -6.499138E+04 -4.598307E+05 -7.105730E+03  3.162381E+04
       350   1 -3.364266E+05 -1.453835E+04  5.739062E+04 -2.398577E+05  2.639337E+04 -2.730790E+04
       350   2 -2.849767E+05  1.015941E+04  6.116397E+04 -2.167318E+05  3.159792E+04 -2.933141E+04
       350   3 -2.275901E+05  2.311223E+04  6.099952E+04 -2.017184E+05  3.616408E+04 -2.965407E+04
       350   4 -7.478967E+05 -1.614605E+05 -7.833632E+03 -3.547485E+05  1.771928E+04 -3.057253E+04
       350   5 -7.510590E+05 -1.589316E+05 -1.444619E+04 -3.493117E+05  2.631803E+04 -3.132091E+04
       350   6 -7.489638E+05 -1.688247E+05 -2.769188E+04 -3.519900E+05  3.427776E+04 -3.036786E+04
       350   7 -1.159189E+06 -3.083672E+05 -7.306208E+04 -4.695691E+05  9.051177E+03 -3.383492E+04
       350   8 -1.216911E+06 -3.280001E+05 -9.006161E+04 -4.817983E+05  2.104231E+04 -3.330881E+04
       350   9 -1.270048E+06 -3.607313E+05 -1.163906E+05 -5.021422E+05  3.239312E+04 -3.108099E+04
       350  10 -3.364275E+05 -1.453934E+04  5.738791E+04 -2.398572E+05 -8.237245E-10 -9.097353E-10
       350  11 -2.849780E+05  1.015822E+04  6.116047E+04 -2.167311E+05 -7.020948E-10 -3.970347E-10
       350  12 -2.275918E+05  2.311093E+04  6.099541E+04 -2.017176E+05  1.161595E-09 -1.347720E-09
       350  13 -7.478973E+05 -1.614616E+05 -7.835978E+03 -3.547481E+05  4.477691E-10 -1.928746E-09
       350  14 -7.510600E+05 -1.589328E+05 -1.444933E+04 -3.493110E+05 -1.118556E-09 -3.517424E-10
       350  15 -7.489653E+05 -1.688260E+05 -2.769582E+04 -3.519892E+05  1.368480E-09 -1.092188E-09
       350  16 -1.159190E+06 -3.083685E+05 -7.306438E+04 -4.695689E+05  6.710818E-10  1.580535E-09
       350  17 -1.216912E+06 -3.280014E+05 -9.006453E+04 -4.817978E+05 -9.199040E-10  1.396554E-09
       350  18 -1.270049E+06 -3.607326E+05 -1.163944E+05 -5.021414E+05  3.033571E-10 -4.297279E-10
       350  19 -3.364266E+05 -1.453835E+04  5.739062E+04 -2.398577E+05 -2.639337E+04  2.730790E+04
       350  20 -2.849767E+05  1.015941E+04  6.116397E+04 -2.167318E+05 -3.159792E+04  2.933141E+04
       350  21 -2.275901E+05  2.311223E+04  6.099952E+04 -2.017184E+05 -3.616408E+04  2.965407E+04
       350  22 -7.478967E+05 -1.614605E+05 -7.833632E+03 -3.547485E+05 -1.771928E+04  3.057253E+04
       350  23 -7.510590E+05 -1.589316E+05 -1.444619E+04 -3.493117E+05 -2.631803E+04  3.132091E+04
       350  24 -7.489638E+05 -1.688247E+05 -2.769188E+04 -3.519900E+05 -3.427776E+04  3.036786E+04
       350  25 -1.159189E+06 -3.083672E+05 -7.306208E+04 -4.695691E+05 -9.051177E+03  3.383492E+04
       350  26 -1.216911E+06 -3.280001E+05 -9.006161E+04 -4.817983E+05 -2.104231E+04  3.330881E+04
       350  27 -1.270048E+06 -3.607313E+05 -1.163906E+05 -5.021422E+05 -3.239312E+04  3.108099E+04
       351   1 -1.909601E+05  3.087353E+04  5.976651E+04 -1.971869E+05  4.168580E+04 -2.903955E+04
       351   2 -1.649151E+05  6.225877E+04  5.035652E+04 -1.304486E+05  4.389080E+04 -2.056187E+04
       351   3 -1.540700E+05  2.941677E+04  2.168962E+04 -5.631929E+04  4.002358E+04  4.039202E+03
       351   4 -7.533354E+05 -1.704438E+05 -3.717556E+04 -3.528099E+05  3.893593E+04 -3.007849E+04
       351   5 -7.506126E+05 -1.919172E+05 -7.136727E+04 -3.351452E+05  7.335595E+04 -9.476636E+03
       351   6 -7.695079E+05 -2.840517E+05 -1.503822E+05 -3.100873E+05  1.016985E+05  2.725474E+04
       351   7 -1.315374E+06 -3.717309E+05 -1.341264E+05 -5.083013E+05  3.618872E+04 -3.111647E+04
       351   8 -1.335935E+06 -4.460144E+05 -1.931011E+05 -5.396441E+05  1.027908E+05  1.592369E+03
       351   9 -1.384526E+06 -5.973749E+05 -3.224643E+05 -5.635842E+05  1.633047E+05  5.042373E+04
       351  10 -1.909622E+05  3.087216E+04  5.976166E+04 -1.971859E+05  1.588281E-09 -4.412882E-10
       351  11 -1.649173E+05  6.225780E+04  5.035211E+04 -1.304479E+05 -1.121527E-09 -8.721255E-10
       351  12 -1.540718E+05  2.941632E+04  2.168658E+04 -5.631942E+04 -1.925995E-09 -1.254424E-09
       351  13 -7.533373E+05 -1.704452E+05 -3.718011E+04 -3.528090E+05  2.321798E-09 -2.953656E-09
       351  14 -7.506185E+05 -1.919188E+05 -7.137756E+04 -3.351446E+05 -4.538762E-10  2.430123E-09
       351  15 -7.695192E+05 -2.840552E+05 -1.504030E+05 -3.100896E+05 -3.863885E-10  7.311737E-10
       351  16 -1.315376E+06 -3.717323E+05 -1.341307E+05 -5.083004E+05  5.633984E-10 -3.112475E-10
       351  17 -1.335947E+06 -4.460172E+05 -1.931210E+05 -5.396442E+05  9.504284E-10  1.026045E-09
       351  18 -1.384555E+06 -5.973849E+05 -3.225193E+05 -5.635909E+05  2.258794E-09  4.221632E-10
       351  19 -1.909601E+05  3.087353E+04  5.976651E+04 -1.971869E+05 -4.168580E+04  2.903955E+04
       351  20 -1.649151E+05  6.225877E+04  5.035652E+04 -1.304486E+05 -4.389080E+04  2.056187E+04
       351  21 -1.540700E+05  2.941677E+04  2.168962E+04 -5.631929E+04 -4.002358E+04 -4.039202E+03
       351  22 -7.533354E+05 -1.704438E+05 -3.717556E+04 -3.528099E+05 -3.893593E+04  3.007849E+04
       351  23 -7.506126E+05 -1.919172E+05 -7.136727E+04 -3.351452E+05 -7.335595E+04  9.476636E+03
       351  24 -7.695079E+05 -2.840517E+05 -1.503822E+05 -3.100873E+05 -1.016985E+05 -2.725474E+04
       351  25 -1.315374E+06 -3.717309E+05 -1.341264E+05 -5.083013E+05 -3.618872E+04  3.111647E+04
       351  26 -1.335935E+06 -4.460144E+05 -1.931011E+05 -5.396441E+05 -1.027908E+05 -1.592369E+03
       351  27 -1.384526E+06 -5.973749E+05 -3.224643E+05 -5.635842E+05 -1.633047E+05 -5.042373E+04
       352   1 -5.592692E+05 -1.005602E+05 -1.508489E+05 -3.592428E+04 -1.516932E+05 -2.587930E+03
       352   2 -5.388380E+05  1.052110E+05 -2.676140E+04 -1.193652E+04 -1.005475E+05 -7.337739E+03
       352   3 -5.833479E+05  7.732387E+04  5.641018E+03  2.460059E+04 -4.941169E+04 -6.624842E+03
       352   4 -8.619498E+05 -1.760561E+05 -2.259926E+05  5.469201E+03 -1.543524E+05 -2.601476E+03
       352   5 -8.292585E+05  3.293077E+04 -9.772974E+04 -9.241315E+02 -1.012661E+05 -7.340852E+03
       352   6 -8.618783E+05  7.859923E+03 -6.253259E+04  5.231829E+03 -4.818858E+04 -6.621410E+03
       352   7 -1.164543E+06 -2.515524E+05 -3.011422E+05  4.684245E+04 -1.570102E+05 -2.615382E+03
       352   8 -1.119602E+06 -3.935525E+04 -1.687042E+05  1.008306E+04 -1.019844E+05 -7.343992E+03
       352   9 -1.140337E+06 -6.160838E+04 -1.307117E+05 -1.412825E+04 -4.696601E+04 -6.618054E+03
       352  10 -5.592940E+05 -1.005664E+05 -1.508922E+05 -3.592460E+04 -6.777099E-10  5.241332E-10
       352  11 -5.388489E+05  1.052082E+05 -2.678052E+04 -1.193712E+04 -1.227074E-09 -1.250405E-09
       352  12 -5.833506E+05  7.732316E+04  5.636343E+03  2.460033E+04  2.384436E-09 -3.042618E-09
       352  13 -8.619755E+05 -1.760625E+05 -2.260374E+05  5.468878E+03 -3.176122E-10  1.644167E-09
       352  14 -8.292696E+05  3.292795E+04 -9.774914E+04 -9.247304E+02  2.883498E-10  2.856027E-11
       352  15 -8.618808E+05  7.859252E+03 -6.253704E+04  5.231572E+03 -1.222666E-09  5.221421E-10
       352  16 -1.164570E+06 -2.515590E+05 -3.011886E+05  4.684212E+04  1.067273E-09  9.251388E-10
       352  17 -1.119613E+06 -3.935811E+04 -1.687239E+05  1.008246E+04  2.238413E-10 -2.998188E-09
       352  18 -1.140340E+06 -6.160902E+04 -1.307159E+05 -1.412850E+04 -3.699672E-10 -3.993497E-09
       352  19 -5.592692E+05 -1.005602E+05 -1.508489E+05 -3.592428E+04  1.516932E+05  2.587930E+03
       352  20 -5.388380E+05  1.052110E+05 -2.676140E+04 -1.193652E+04  1.005475E+05  7.337739E+03
       352  21 -5.833479E+05  7.732387E+04  5.641018E+03  2.460059E+04  4.941169E+04  6.624842E+03
       352  22 -8.619498E+05 -1.760561E+05 -2.259926E+05  5.469201E+03  1.543524E+05  2.601476E+03
       352  23 -8.292585E+05  3.293077E+04 -9.772974E+04 -9.241315E+02  1.012661E+05  7.340852E+03
       352  24 -8.618783E+05  7.859923E+03 -6.253259E+04  5.231829E+03  4.818858E+04  6.621410E+03
       352  25 -1.164543E+06 -2.515524E+05 -3.011422E+05  4.684245E+04  1.570102E+05  2.615382E+03
       352  26 -1.119602E+06 -3.935525E+04 -1.687042E+05  1.008306E+04  1.019844E+05  7.343992E+03
       352  27 -1.140337E+06 -6.160838E+04 -1.307117E+05 -1.412825E+04  4.696601E+04  6.618054E+03
       353   1 -5.973667E+05  4.048504E+04  1.038061E+04  1.123958E+03 -3.806081E+04 -5.530479E+03
       353   2 -6.063339E+05  6.361650E+04  3.297338E+04 -2.225922E+03 -2.511752E+04 -5.583678E+03
       353   3 -6.243513E+05  5.708619E+04  3.973048E+04  8.531578E+03 -1.217565E+04 -5.035796E+03
       353   4 -8.493996E+05 -2.229571E+04 -5.139463E+04  5.689686E+03 -3.818610E+04 -5.531156E+03
       353   5 -8.448475E+05  4.205382E+03 -2.540537E+04 -1.386315E+03 -2.503140E+04 -5.583688E+03
       353   6 -8.493863E+05  1.001605E+03 -1.540329E+04  5.645435E+03 -1.187783E+04 -5.035192E+03
       353   7 -1.101374E+06 -8.508109E+04 -1.131745E+05  1.025353E+04 -3.831134E+04 -5.531835E+03
       353   8 -1.083309E+06 -5.520994E+04 -8.378829E+04 -5.470582E+02 -2.494531E+04 -5.583698E+03
       353   9 -1.074375E+06 -5.508671E+04 -7.054076E+04  2.760315E+03 -1.158011E+04 -5.034591E+03
       353  10 -5.973683E+05  4.048462E+04  1.037783E+04  1.123788E+03  1.408338E-10 -5.231553E-09
       353  11 -6.063345E+05  6.361629E+04  3.297214E+04 -2.226035E+03 -1.741111E-09  9.325429E-11
       353  12 -6.243514E+05  5.708612E+04  3.973015E+04  8.531528E+03 -1.505321E-09  3.600799E-09
       353  13 -8.494011E+05 -2.229613E+04 -5.139743E+04  5.689516E+03  1.116423E-09 -3.658551E-09
       353  14 -8.448482E+05  4.205180E+03 -2.540661E+04 -1.386428E+03 -2.171880E-09 -1.204264E-09
       353  15 -8.493865E+05  1.001540E+03 -1.540360E+04  5.645387E+03 -1.878504E-09 -1.016470E-09
       353  16 -1.101376E+06 -8.508151E+04 -1.131773E+05  1.025336E+04  4.978182E-10 -9.431556E-10
       353  17 -1.083310E+06 -5.521014E+04 -8.378952E+04 -5.471704E+02  6.955976E-10 -5.904247E-10
       353  18 -1.074375E+06 -5.508677E+04 -7.054106E+04  2.760268E+03  3.176645E-09  2.732657E-09
       353  19 -5.973667E+05  4.048504E+04  1.038061E+04  1.123958E+03  3.806081E+04  5.530479E+03
       353  20 -6.063339E+05  6.361650E+04  3.297338E+04 -2.225922E+03  2.511752E+04  5.583678E+03
       353  21 -6.243513E+05  5.708619E+04  3.973048E+04  8.531578E+03  1.217565E+04  5.035796E+03
       353  22 -8.493996E+05 -2.229571E+04 -5.139463E+04  5.689686E+03  3.818610E+04  5.531156E+03
       353  23 -8.448475E+05  4.205382E+03 -2.540537E+04 -1.386315E+03  2.503140E+04  5.583688E+03
       353  24 -8.493863E+05  1.001605E+03 -1.540329E+04  5.645435E+03  1.187783E+04  5.035192E+03
       353  25 -1.101374E+06 -8.508109E+04 -1.131745E+05  1.025353E+04  3.831134E+04  5.531835E+03
       353  26 -1.083309E+06 -5.520994E+04 -8.378829E+04 -5.470582E+02  2.494531E+04  5.583698E+03
       353  27 -1.074375E+06 -5.508671E+04 -7.054076E+04  2.760315E+03  1.158011E+04  5.034591E+03
       354   1 -6.520516E+05  4.594835E+04  3.566561E+04  5.761477E+03 -9.573252E+03 -4.646808E+03
       354   2 -6.660698E+05  4.560227E+04  3.776249E+04 -1.495867E+03 -6.303442E+03 -4.176190E+03
       354   3 -6.814594E+05  4.157190E+04  3.680279E+04  6.607084E+03 -3.034159E+03 -3.622987E+03
       354   4 -8.476705E+05 -2.777840E+03 -1.219541E+04  5.943439E+03 -9.419604E+03 -4.646548E+03
       354   5 -8.469806E+05  5.315403E+02 -6.527933E+03 -1.740358E+03 -6.121020E+03 -4.175813E+03
       354   6 -8.476677E+05  1.509744E+02 -3.937731E+03  5.936431E+03 -2.822886E+03 -3.622485E+03
       354   7 -1.043254E+06 -5.150686E+04 -6.005923E+04  6.125324E+03 -9.266005E+03 -4.646288E+03
       354   8 -1.027861E+06 -4.454161E+04 -5.082075E+04 -1.984795E+03 -5.938651E+03 -4.175435E+03
       354   9 -1.013851E+06 -4.127200E+04 -4.468028E+04  5.265941E+03 -2.611669E+03 -3.621984E+03
       354  10 -6.520517E+05  4.594830E+04  3.566539E+04  5.761441E+03 -3.234260E-09  5.895550E-09
       354  11 -6.660698E+05  4.560224E+04  3.776238E+04 -1.495888E+03 -4.216306E-09  5.050892E-09
       354  12 -6.814594E+05  4.157188E+04  3.680275E+04  6.607075E+03  1.282231E-09  9.313842E-10
       354  13 -8.476706E+05 -2.777887E+03 -1.219562E+04  5.943404E+03 -4.955434E-10 -1.118330E-09
       354  14 -8.469806E+05  5.315115E+02 -6.528036E+03 -1.740378E+03 -1.359887E-09  2.584151E-09
       354  15 -8.476677E+05  1.509582E+02 -3.937771E+03  5.936423E+03  5.726955E-11  4.615345E-09
       354  16 -1.043255E+06 -5.150691E+04 -6.005943E+04  6.125289E+03  2.097516E-09  4.918535E-09
       354  17 -1.027861E+06 -4.454164E+04 -5.082085E+04 -1.984815E+03  1.659896E-09  5.453878E-09
       354  18 -1.013851E+06 -4.127202E+04 -4.468032E+04  5.265933E+03 -2.891094E-09  6.212402E-09
       354  19 -6.520516E+05  4.594835E+04  3.566561E+04  5.761477E+03  9.573252E+03  4.646808E+03
       354  20 -6.660698E+05  4.560227E+04  3.776249E+04 -1.495867E+03  6.303442E+03  4.176190E+03
       354  21 -6.814594E+05  4.157190E+04  3.680279E+04  6.607084E+03  3.034159E+03  3.622987E+03
       354  22 -8.476705E+05 -2.777840E+03 -1.219541E+04  5.943439E+03  9.419604E+03  4.646548E+03
       354  23 -8.469806E+05  5.315403E+02 -6.527933E+03 -1.740358E+03  6.121020E+03  4.175813E+03
       354  24 -8.476677E+05  1.509744E+02 -3.937731E+03  5.936431E+03  2.822886E+03  3.622485E+03
       354  25 -1.043254E+06 -5.150686E+04 -6.005923E+04  6.125324E+03  9.266005E+03  4.646288E+03
       354  26 -1.027861E+06 -4.454161E+04 -5.082075E+04 -1.984795E+03  5.938651E+03  4.175435E+03
       354  27 -1.013851E+06 -4.127200E+04 -4.468028E+04  5.265941E+03  2.611669E+03  3.621984E+03
       355   1 -7.128298E+05  3.321472E+04  2.978106E+04  6.368898E+03 -2.383904E+03 -3.291028E+03
       355   2 -7.282491E+05  2.972354E+04  2.719145E+04 -1.741569E+03 -1.419980E+03 -2.738024E+03
       355   3 -7.439837E+05  2.580743E+04  2.384998E+04  6.416020E+03 -4.563353E+02 -2.164307E+03
       355   4 -8.474295E+05 -3.107822E+02 -3.128161E+03  6.141109E+03 -2.189355E+03 -3.290542E+03
       355   5 -8.472706E+05  6.957198E+01 -1.949214E+03 -1.993475E+03 -1.218170E+03 -2.737486E+03
       355   6 -8.474289E+05  2.362830E+01 -1.527332E+03  6.140191E+03 -2.472399E+02 -2.163716E+03
       355   7 -9.820126E+05 -3.383763E+04 -3.603870E+04  5.913359E+03 -1.994848E+03 -3.290055E+03
       355   8 -9.662791E+05 -2.958545E+04 -3.109091E+04 -2.245343E+03 -1.016398E+03 -2.736949E+03
       355   9 -9.508642E+05 -2.576097E+04 -2.690543E+04  5.864401E+03 -3.817932E+01 -2.163125E+03
       355  10 -7.128298E+05  3.321471E+04  2.978102E+04  6.368891E+03  5.564918E-09  9.575357E-10
       355  11 -7.282491E+05  2.972353E+04  2.719143E+04 -1.741572E+03 -1.422366E-09  8.436699E-09
       355  12 -7.439837E+05  2.580743E+04  2.384997E+04  6.416019E+03  9.492340E-11  8.673669E-09
       355  13 -8.474295E+05 -3.107951E+02 -3.128190E+03  6.141103E+03  7.710530E-12 -5.685803E-10
       355  14 -8.472706E+05  6.956354E+01 -1.949231E+03 -1.993478E+03 -2.144252E-09  3.300362E-09
       355  15 -8.474289E+05  2.362326E+01 -1.527341E+03  6.140190E+03 -1.476107E-09  9.506029E-10
       355  16 -9.820126E+05 -3.383764E+04 -3.603873E+04  5.913353E+03 -4.655610E-09  5.458908E-09
       355  17 -9.662791E+05 -2.958545E+04 -3.109093E+04 -2.245345E+03 -1.572441E-09 -5.776813E-10
       355  18 -9.508642E+05 -2.576098E+04 -2.690544E+04  5.864401E+03  2.933531E-11 -1.002864E-09
       355  19 -7.128298E+05  3.321472E+04  2.978106E+04  6.368898E+03  2.383904E+03  3.291028E+03
       355  20 -7.282491E+05  2.972354E+04  2.719145E+04 -1.741569E+03  1.419980E+03  2.738024E+03
       355  21 -7.439837E+05  2.580743E+04  2.384998E+04  6.416020E+03  4.563353E+02  2.164307E+03
       355  22 -8.474295E+05 -3.107822E+02 -3.128161E+03  6.141109E+03  2.189355E+03  3.290542E+03
       355  23 -8.472706E+05  6.957198E+01 -1.949214E+03 -1.993475E+03  1.218170E+03  2.737486E+03
       355  24 -8.474289E+05  2.362830E+01 -1.527332E+03  6.140191E+03  2.472399E+02  2.163716E+03
       355  25 -9.820126E+05 -3.383763E+04 -3.603870E+04  5.913359E+03  1.994848E+03  3.290055E+03
       355  26 -9.662791E+05 -2.958545E+04 -3.109091E+04 -2.245343E+03  1.016398E+03  2.736949E+03
       355  27 -9.508642E+05 -2.576097E+04 -2.690543E+04  5.864401E+03  3.817932E+01  2.163125E+03
       356   1 -7.770317E+05  1.754102E+04  1.569746E+04  6.376934E+03 -1.835638E+02 -1.825967E+03
       356   2 -7.929527E+05  1.359374E+04  1.156984E+04 -2.016465E+03  6.761659E+02 -1.245142E+03
       356   3 -8.091921E+05  9.302282E+03  6.770735E+03  6.388630E+03  1.535787E+03 -6.602968E+02
       356   4 -8.474274E+05  1.152822E+01 -1.489540E+03  6.258112E+03  2.369164E+01 -1.825363E+03
       356   5 -8.472682E+05  6.050902E+01 -1.729172E+03 -2.140803E+03  8.847961E+02 -1.244519E+03
       356   6 -8.474277E+05 -2.348690E+02 -2.641208E+03  6.258868E+03  1.745814E+03 -6.596544E+02
       356   7 -9.178187E+05 -1.751833E+04 -1.867690E+04  6.139299E+03  2.309236E+02 -1.824759E+03
       356   8 -9.015811E+05 -1.347294E+04 -1.502841E+04 -2.265132E+03  1.093408E+03 -1.243896E+03
       356   9 -8.856619E+05 -9.772129E+03 -1.205326E+04  6.129114E+03  1.955828E+03 -6.590120E+02
       356  10 -7.770317E+05  1.754102E+04  1.569746E+04  6.376934E+03  4.996063E-09  3.823791E-09
       356  11 -7.929527E+05  1.359374E+04  1.156984E+04 -2.016465E+03  2.763839E-09 -3.549761E-10
       356  12 -8.091921E+05  9.302281E+03  6.770730E+03  6.388630E+03  5.547747E-10 -3.786722E-09
       356  13 -8.474274E+05  1.152464E+01 -1.489547E+03  6.258112E+03 -1.724938E-09  1.092053E-08
       356  14 -8.472682E+05  6.050715E+01 -1.729177E+03 -2.140802E+03 -8.491688E-10  1.882788E-09
       356  15 -8.474277E+05 -2.348703E+02 -2.641215E+03  6.258869E+03 -3.336258E-09 -3.962850E-09
       356  16 -9.178187E+05 -1.751834E+04 -1.867691E+04  6.139299E+03 -8.545697E-09  4.335403E-09
       356  17 -9.015811E+05 -1.347294E+04 -1.502841E+04 -2.265131E+03 -5.546847E-09 -9.990537E-10
       356  18 -8.856619E+05 -9.772130E+03 -1.205327E+04  6.129115E+03 -1.852107E-09 -5.219525E-09
       356  19 -7.770317E+05  1.754102E+04  1.569746E+04  6.376934E+03  1.835638E+02  1.825967E+03
       356  20 -7.929527E+05  1.359374E+04  1.156984E+04 -2.016465E+03 -6.761659E+02  1.245142E+03
       356  21 -8.091921E+05  9.302282E+03  6.770735E+03  6.388630E+03 -1.535787E+03  6.602968E+02
       356  22 -8.474274E+05  1.152821E+01 -1.489540E+03  6.258112E+03 -2.369164E+01  1.825363E+03
       356  23 -8.472682E+05  6.050902E+01 -1.729172E+03 -2.140803E+03 -8.847961E+02  1.244519E+03
       356  24 -8.474277E+05 -2.348690E+02 -2.641208E+03  6.258868E+03 -1.745814E+03  6.596544E+02
       356  25 -9.178187E+05 -1.751833E+04 -1.867690E+04  6.139299E+03 -2.309236E+02  1.824759E+03
       356  26 -9.015811E+05 -1.347294E+04 -1.502841E+04 -2.265132E+03 -1.093408E+03  1.243896E+03
       356  27 -8.856619E+05 -9.772129E+03 -1.205326E+04  6.129114E+03 -1.955828E+03  6.590120E+02
       357   1 -8.430982E+05  1.255187E+03 -2.230602E+03  6.020471E+03  2.059987E+03 -3.108972E+02
       357   2 -8.586883E+05 -2.468071E+03 -8.239222E+03 -2.125661E+03  4.791143E+03  2.859269E+02
       357   3 -8.755126E+05 -9.185652E+03 -1.680345E+04  6.660708E+03  7.522342E+03  8.488066E+02
       357   4 -8.476301E+05  1.381038E+02 -3.289869E+03  6.285683E+03  2.277721E+03 -3.102253E+02
       357   5 -8.470150E+05  4.398077E+02 -5.381793E+03 -2.176909E+03  4.996717E+03  2.865562E+02
       357   6 -8.476322E+05 -2.250625E+03 -1.002078E+04  6.292989E+03  7.715827E+03  8.493915E+02
       357   7 -8.521619E+05 -9.789806E+02 -4.349138E+03  6.550893E+03  2.495452E+03 -3.095532E+02
       357   8 -8.353416E+05  3.347676E+03 -2.524375E+03 -2.228158E+03  5.202294E+03  2.871854E+02
       357   9 -8.197510E+05  4.684345E+03 -3.238158E+03  5.925253E+03  7.909320E+03  8.499762E+02
       357  10 -8.430982E+05  1.255186E+03 -2.230610E+03  6.020472E+03 -3.334534E-09  1.316987E-09
       357  11 -8.586883E+05 -2.468077E+03 -8.239265E+03 -2.125663E+03 -1.584988E-09  2.753067E-09
       357  12 -8.755126E+05 -9.185668E+03 -1.680356E+04  6.660703E+03 -3.774969E-11  1.844604E-09
       357  13 -8.476301E+05  1.381023E+02 -3.289879E+03  6.285683E+03 -1.012692E-09 -1.651482E-09
       357  14 -8.470150E+05  4.398009E+02 -5.381841E+03 -2.176910E+03 -3.266505E-09  6.057552E-09
       357  15 -8.476322E+05 -2.250642E+03 -1.002089E+04  6.292984E+03 -2.454177E-09  4.012909E-09
       357  16 -8.521619E+05 -9.789824E+02 -4.349150E+03  6.550893E+03  1.395370E-09  8.579641E-10
       357  17 -8.353416E+05  3.347669E+03 -2.524426E+03 -2.228159E+03  1.236897E-10 -6.236728E-09
       357  18 -8.197511E+05  4.684328E+03 -3.238277E+03  5.925248E+03  3.970669E-10 -6.166239E-10
       357  19 -8.430982E+05  1.255187E+03 -2.230602E+03  6.020471E+03 -2.059987E+03  3.108972E+02
       357  20 -8.586883E+05 -2.468071E+03 -8.239222E+03 -2.125661E+03 -4.791143E+03 -2.859269E+02
       357  21 -8.755126E+05 -9.185652E+03 -1.680345E+04  6.660708E+03 -7.522342E+03 -8.488066E+02
       357  22 -8.476301E+05  1.381038E+02 -3.289869E+03  6.285683E+03 -2.277721E+03  3.102253E+02
       357  23 -8.470150E+05  4.398077E+02 -5.381793E+03 -2.176909E+03 -4.996717E+03 -2.865562E+02
       357  24 -8.476322E+05 -2.250625E+03 -1.002078E+04  6.292989E+03 -7.715827E+03 -8.493915E+02
       357  25 -8.521619E+05 -9.789806E+02 -4.349138E+03  6.550893E+03 -2.495452E+03  3.095532E+02
       357  26 -8.353416E+05  3.347676E+03 -2.524375E+03 -2.228158E+03 -5.202294E+03 -2.871854E+02
       357  27 -8.197510E+05  4.684345E+03 -3.238158E+03  5.925253E+03 -7.909320E+03 -8.499762E+02
       358   1 -9.104751E+05 -1.448593E+04 -2.774026E+04  4.026054E+03  9.463816E+03  1.242371E+03
       358   2 -9.226349E+05 -1.581842E+04 -3.977481E+04 -1.287673E+03  2.036556E+04  1.867794E+03
       358   3 -9.424133E+05 -4.148846E+04 -6.502204E+04  1.009817E+04  3.126784E+04  2.172090E+03
       358   4 -8.490459E+05  8.456260E+02 -1.264905E+04  6.218005E+03  9.735337E+03  1.243220E+03
       358   5 -8.452524E+05  3.454833E+03 -2.083485E+04 -2.103905E+03  2.052278E+04  1.868213E+03
       358   6 -8.490569E+05 -1.825197E+04 -4.215259E+04  6.273749E+03  3.131104E+04  2.171992E+03
       358   7 -7.876133E+05  1.617692E+04  2.441880E+03  8.410171E+03  1.000688E+04  1.244071E+03
       358   8 -7.678644E+05  2.272765E+04 -1.895336E+03 -2.920243E+03  2.068002E+04  1.868633E+03
       358   9 -7.556924E+05  4.983933E+03 -1.928377E+04  2.448740E+03  3.135425E+04  2.171894E+03
       358  10 -9.104752E+05 -1.448596E+04 -2.774043E+04  4.026044E+03 -3.423160E-09  4.940909E-09
       358  11 -9.226353E+05 -1.581853E+04 -3.977559E+04 -1.287704E+03  4.183035E-10  2.116114E-09
       358  12 -9.424143E+05 -4.148873E+04 -6.502388E+04  1.009812E+04  2.685120E-09  3.815705E-09
       358  13 -8.490460E+05  8.455989E+02 -1.264923E+04  6.217995E+03 -1.074672E-11  3.559228E-09
       358  14 -8.452528E+05  3.454716E+03 -2.083565E+04 -2.103936E+03 -2.139262E-09  5.275747E-09
       358  15 -8.490579E+05 -1.825224E+04 -4.215444E+04  6.273694E+03 -1.841740E-10 -4.905562E-10
       358  16 -7.876134E+05  1.617689E+04  2.441688E+03  8.410161E+03  2.060688E-09  1.154551E-09
       358  17 -7.678648E+05  2.272753E+04 -1.896147E+03 -2.920274E+03 -1.347193E-09 -1.929686E-09
       358  18 -7.556935E+05  4.983664E+03 -1.928563E+04  2.448686E+03 -3.103628E-09 -5.881180E-09
       358  19 -9.104751E+05 -1.448593E+04 -2.774026E+04  4.026054E+03 -9.463816E+03 -1.242371E+03
       358  20 -9.226349E+05 -1.581842E+04 -3.977481E+04 -1.287673E+03 -2.036556E+04 -1.867794E+03
       358  21 -9.424133E+05 -4.148846E+04 -6.502204E+04  1.009817E+04 -3.126784E+04 -2.172090E+03
       358  22 -8.490459E+05  8.456260E+02 -1.264905E+04  6.218005E+03 -9.735337E+03 -1.243220E+03
       358  23 -8.452524E+05  3.454833E+03 -2.083485E+04 -2.103905E+03 -2.052278E+04 -1.868213E+03
       358  24 -8.490569E+05 -1.825197E+04 -4.215259E+04  6.273749E+03 -3.131104E+04 -2.171992E+03
       358  25 -7.876133E+05  1.617692E+04  2.441880E+03  8.410171E+03 -1.000688E+04 -1.244071E+03
       358  26 -7.678644E+05  2.272765E+04 -1.895336E+03 -2.920243E+03 -2.068002E+04 -1.868633E+03
       358  27 -7.556924E+05  4.983933E+03 -1.928377E+04  2.448740E+03 -3.135425E+04 -2.171894E+03
       359   1 -9.851796E+05 -2.500537E+04 -8.214391E+04 -9.838205E+03  3.873388E+04  2.965186E+03
       359   2 -9.737149E+05 -8.106893E+03 -1.146477E+05  7.070681E+03  8.331976E+04  3.758502E+03
       359   3 -1.016176E+06 -1.833145E+05 -2.242488E+05  4.026362E+04  1.279137E+05  1.570301E+03
       359   4 -8.592945E+05  6.476175E+03 -5.128630E+04  6.012617E+03  3.951529E+04  2.968354E+03
       359   5 -8.324603E+05  2.701399E+04 -8.013703E+04 -1.930799E+03  8.303666E+04  3.756427E+03
       359   6 -8.593551E+05 -1.443479E+05 -1.853324E+05  6.410834E+03  1.265673E+05  1.559706E+03
       359   7 -7.333944E+05  3.795747E+04 -2.042972E+04  2.186665E+04  4.029686E+04  2.971562E+03
       359   8 -6.911874E+05  6.213371E+04 -4.562775E+04 -1.093435E+04  8.275349E+04  3.754362E+03
       359   9 -7.025094E+05 -1.053787E+05 -1.464172E+05 -2.745053E+04  1.252205E+05  1.549260E+03
       359  10 -9.851813E+05 -2.500578E+04 -8.214675E+04 -9.838298E+03 -6.698104E-10  2.085578E-09
       359  11 -9.737223E+05 -8.108776E+03 -1.146608E+05  7.070429E+03 -8.908198E-10 -2.314012E-09
       359  12 -1.016193E+06 -1.833189E+05 -2.242796E+05  4.026346E+04  3.653116E-10  3.196798E-10
       359  13 -8.592962E+05  6.475745E+03 -5.128926E+04  6.012522E+03 -1.676114E-09  6.065584E-09
       359  14 -8.324677E+05  2.701212E+04 -8.015004E+04 -1.931051E+03 -8.554801E-10 -7.252403E-09
       359  15 -8.593723E+05 -1.443522E+05 -1.853625E+05  6.410675E+03 -2.001246E-09  2.654879E-09
       359  16 -7.333961E+05  3.795702E+04 -2.043280E+04  2.186656E+04 -5.306199E-10  3.394272E-09
       359  17 -6.911948E+05  6.213185E+04 -4.564067E+04 -1.093460E+04 -1.058864E-09  3.858627E-09
       359  18 -7.025263E+05 -1.053829E+05 -1.464467E+05 -2.745069E+04 -1.186051E-09 -1.046079E-09
       359  19 -9.851796E+05 -2.500537E+04 -8.214391E+04 -9.838205E+03 -3.873388E+04 -2.965186E+03
       359  20 -9.737149E+05 -8.106893E+03 -1.146477E+05  7.070681E+03 -8.331976E+04 -3.758502E+03
       359  21 -1.016176E+06 -1.833145E+05 -2.242488E+05  4.026362E+04 -1.279137E+05 -1.570301E+03
       359  22 -8.592945E+05  6.476175E+03 -5.128630E+04  6.012617E+03 -3.951529E+04 -2.968354E+03
       359  23 -8.324603E+05  2.701399E+04 -8.013703E+04 -1.930799E+03 -8.303666E+04 -3.756427E+03
       359  24 -8.593551E+05 -1.443479E+05 -1.853324E+05  6.410834E+03 -1.265673E+05 -1.559706E+03
       359  25 -7.333944E+05  3.795747E+04 -2.042972E+04  2.186665E+04 -4.029686E+04 -2.971562E+03
       359  26 -6.911874E+05  6.213371E+04 -4.562775E+04 -1.093435E+04 -8.275349E+04 -3.754362E+03
       359  27 -7.025094E+05 -1.053787E+05 -1.464172E+05 -2.745053E+04 -1.252205E+05 -1.549260E+03
       360   1  6.815070E+05  3.842878E+06  7.915701E+05 -2.252437E+05  8.469039E+03  3.333907E+05
       360   2  1.678169E+05  3.538163E+06  4.611267E+05 -3.856803E+04  2.402562E+04  2.026048E+05
       360   3  1.743508E+05  3.380923E+06  3.456489E+05 -9.171576E+04  1.539397E+04  7.180589E+04
       360   4  3.820446E+05  2.640321E+06  4.941317E+05 -1.319282E+05  8.536187E+03  3.230962E+05
       360   5 -7.303084E+04  2.567487E+06  2.250259E+05 -1.235653E+04  2.403920E+04  2.012639E+05
       360   6 -8.989361E+03  2.640808E+06  1.649827E+05 -1.325999E+05  1.536547E+04  7.936887E+04
       360   7  8.250669E+04  1.439088E+06  1.965909E+05 -3.879189E+04  8.600359E+03  3.128211E+05
       360   8 -3.139453E+05  1.597667E+06 -1.114265E+04  1.381459E+04  2.405268E+04  1.999248E+05
       360   9 -1.923632E+05  1.901192E+06 -1.572209E+04 -1.734349E+05  1.533595E+04  8.692285E+04
       360  10  6.814773E+05  3.842760E+06  7.913623E+05 -2.252460E+05 -1.780341E-09 -2.556601E-09
       360  11  1.678054E+05  3.538119E+06  4.610489E+05 -3.857195E+04 -3.894131E-09 -7.575411E-10
       360  12  1.743491E+05  3.380918E+06  3.456388E+05 -9.171664E+04  2.742263E-09  5.794605E-09
       360  13  3.820167E+05  2.640209E+06  4.939362E+05 -1.319304E+05  1.116024E-09 -2.021799E-09
       360  14 -7.304228E+04  2.567443E+06  2.249490E+05 -1.236043E+04  4.329602E-10  2.277860E-09
       360  15 -8.991298E+03  2.640801E+06  1.649705E+05 -1.326008E+05  1.539952E-09  6.839869E-09
       360  16  8.248041E+04  1.438983E+06  1.964073E+05 -3.879406E+04  5.607542E-10  3.127662E-09
       360  17 -3.139566E+05  1.597624E+06 -1.121865E+04  1.381072E+04  2.864404E-10 -4.701626E-09
       360  18 -1.923655E+05  1.901184E+06 -1.573669E+04 -1.734360E+05 -2.042510E-09 -4.517803E-09
       360  19  6.815070E+05  3.842878E+06  7.915701E+05 -2.252437E+05 -8.469039E+03 -3.333907E+05
       360  20  1.678169E+05  3.538163E+06  4.611267E+05 -3.856803E+04 -2.402562E+04 -2.026048E+05
       360  21  1.743508E+05  3.380923E+06  3.456489E+05 -9.171576E+04 -1.539397E+04 -7.180589E+04
       360  22  3.820446E+05  2.640321E+06  4.941317E+05 -1.319282E+05 -8.536187E+03 -3.230962E+05
       360  23 -7.303084E+04  2.567487E+06  2.250259E+05 -1.235653E+04 -2.403920E+04 -2.012639E+05
       360  24 -8.989361E+03  2.640808E+06  1.649827E+05 -1.325999E+05 -1.536547E+04 -7.936887E+04
       360  25  8.250669E+04  1.439088E+06  1.965909E+05 -3.879189E+04 -8.600359E+03 -3.128211E+05
       360  26 -3.139453E+05  1.597667E+06 -1.114265E+04  1.381459E+04 -2.405268E+04 -1.999248E+05
       360  27 -1.923632E+05  1.901192E+06 -1.572209E+04 -1.734349E+05 -1.533595E+04 -8.692285E+04
       361   1  1.148693E+05  2.892301E+06  2.162131E+05 -1.481414E+05  6.685810E+03  4.955570E+04
       361   2 -6.736918E+03  2.649649E+06  1.318966E+05 -1.453825E+04  1.268145E+03 -1.226558E+04
       361   3  1.386637E+04  2.448630E+06  1.228495E+05 -1.117443E+05 -4.331147E+03 -7.406686E+04
       361   4  4.657618E+04  2.617607E+06  1.493333E+05 -1.303050E+05  6.680357E+03  5.154665E+04
       361   5 -1.984727E+04  2.596811E+06  1.190139E+05 -1.488503E+04  1.260981E+03 -1.019630E+04
       361   6  5.593509E+04  2.617592E+06  1.639226E+05 -1.302690E+05 -4.336589E+03 -7.194101E+04
       361   7 -2.172136E+04  2.342981E+06  8.244811E+04 -1.124765E+05  6.675017E+03  5.353672E+04
       361   8 -3.295782E+04  2.543975E+06  1.061309E+05 -1.523179E+04  1.253814E+03 -8.127195E+03
       361   9  9.800298E+04  2.786581E+06  2.049937E+05 -1.487986E+05 -4.342156E+03 -6.981458E+04
       361  10  1.148686E+05  2.892299E+06  2.162085E+05 -1.481416E+05  2.018173E-09 -8.573795E-10
       361  11 -6.736959E+03  2.649649E+06  1.318963E+05 -1.453823E+04 -1.610354E-09 -2.610774E-09
       361  12  1.386489E+04  2.448624E+06  1.228392E+05 -1.117446E+05 -8.671174E-10  4.071248E-09
       361  13  4.657542E+04  2.617604E+06  1.493282E+05 -1.303053E+05  8.325829E-10 -3.564299E-09
       361  14 -1.984730E+04  2.596811E+06  1.190137E+05 -1.488502E+04  1.370237E-09  3.405072E-09
       361  15  5.593369E+04  2.617586E+06  1.639128E+05 -1.302692E+05  1.833599E-09  6.662613E-09
       361  16 -2.172217E+04  2.342978E+06  8.244266E+04 -1.124768E+05 -7.858821E-10  3.023545E-09
       361  17 -3.295784E+04  2.543975E+06  1.061308E+05 -1.523178E+04 -1.507839E-09 -4.997371E-09
       361  18  9.800165E+04  2.786575E+06  2.049846E+05 -1.487989E+05 -4.886487E-11 -2.314896E-09
       361  19  1.148693E+05  2.892301E+06  2.162131E+05 -1.481414E+05 -6.685810E+03 -4.955570E+04
       361  20 -6.736918E+03  2.649649E+06  1.318966E+05 -1.453825E+04 -1.268145E+03  1.226558E+04
       361  21  1.386637E+04  2.448630E+06  1.228495E+05 -1.117443E+05  4.331147E+03  7.406686E+04
       361  22  4.657618E+04  2.617607E+06  1.493333E+05 -1.303050E+05 -6.680357E+03 -5.154665E+04
       361  23 -1.984727E+04  2.596811E+06  1.190139E+05 -1.488503E+04 -1.260981E+03  1.019630E+04
       361  24  5.593509E+04  2.617592E+06  1.639226E+05 -1.302690E+05  4.336589E+03  7.194101E+04
       361  25 -2.172136E+04  2.342981E+06  8.244811E+04 -1.124765E+05 -6.675017E+03 -5.353672E+04
       361  26 -3.295782E+04  2.543975E+06  1.061309E+05 -1.523179E+04 -1.253814E+03  8.127195E+03
       361  27  9.800298E+04  2.786581E+06  2.049937E+05 -1.487986E+05  4.342156E+03  6.981458E+04
       362   1 -1.698116E+05  2.014334E+06  3.093788E+04 -1.806549E+05 -1.269275E+04 -1.099798E+05
       362   2 -2.996768E+05  1.700176E+06  5.266941E+04  1.778040E+04 -2.120257E+04 -2.438944E+05
       362   3  1.806503E+05  1.556152E+06  3.140840E+05 -2.144746E+04 -7.500959E+03 -3.776923E+05
       362   4 -1.322529E+04  2.646415E+06  1.853971E+05 -1.322035E+05 -1.272515E+04 -1.028332E+05
       362   5 -8.590889E+04  2.560532E+06  2.621602E+05 -1.291979E+04 -2.118653E+04 -2.449466E+05
       362   6  4.525324E+05  2.645846E+06  5.840159E+05 -1.312594E+05 -7.416016E+03 -3.869938E+05
       362   7  1.433407E+05  3.278864E+06  3.398288E+05 -8.370248E+04 -1.275642E+04 -9.567920E+04
       362   8  1.278080E+05  3.421562E+06  4.715978E+05 -4.366208E+04 -2.117040E+04 -2.460001E+05
       362   9  7.243706E+05  3.736639E+06  8.538660E+05 -2.412632E+05 -7.327914E+03 -3.963111E+05
       362  10 -1.698150E+05  2.014321E+06  3.091492E+04 -1.806560E+05  3.928664E-10 -2.492297E-09
       362  11 -2.996932E+05  1.700112E+06  5.255710E+04  1.777624E+04 -1.006618E-09 -2.909919E-09
       362  12  1.806120E+05  1.555999E+06  3.138165E+05 -2.144974E+04 -9.658238E-10  2.135588E-09
       362  13 -1.322829E+04  2.646404E+06  1.853770E+05 -1.322046E+05 -1.818157E-09 -2.944818E-09
       362  14 -8.592540E+04  2.560468E+06  2.620471E+05 -1.292397E+04 -1.055145E-09  2.046117E-09
       362  15  4.524923E+05  2.645685E+06  5.837355E+05 -1.312617E+05 -6.707436E-10  4.223239E-09
       362  16  1.433381E+05  3.278854E+06  3.398114E+05 -8.370346E+04  4.242280E-10  3.713698E-09
       362  17  1.277914E+05  3.421497E+06  4.714839E+05 -4.366627E+04  4.470231E-10 -3.943292E-09
       362  18  7.243287E+05  3.736471E+06  8.535725E+05 -2.412656E+05 -8.053891E-10 -9.134763E-10
       362  19 -1.698116E+05  2.014334E+06  3.093788E+04 -1.806549E+05  1.269275E+04  1.099798E+05
       362  20 -2.996768E+05  1.700176E+06  5.266941E+04  1.778040E+04  2.120257E+04  2.438944E+05
       362  21  1.806503E+05  1.556152E+06  3.140840E+05 -2.144746E+04  7.500959E+03  3.776923E+05
       362  22 -1.322529E+04  2.646415E+06  1.853971E+05 -1.322035E+05  1.272515E+04  1.028332E+05
       362  23 -8.590889E+04  2.560532E+06  2.621602E+05 -1.291979E+04  2.118653E+04  2.449466E+05
       362  24  4.525324E+05  2.645846E+06  5.840159E+05 -1.312594E+05  7.416016E+03  3.869938E+05
       362  25  1.433407E+05  3.278864E+06  3.398288E+05 -8.370248E+04  1.275642E+04  9.567920E+04
       362  26  1.278080E+05  3.421562E+06  4.715978E+05 -4.366208E+04  2.117040E+04  2.460001E+05
       362  27  7.243706E+05  3.736639E+06  8.538660E+05 -2.412632E+05  7.327914E+03  3.963111E+05
       363   1 -2.128903E+05 -8.878394E+04 -8.826013E+04 -7.374005E+04 -9.069896E+04 -3.567979E+04
       363   2 -1.887975E+05  3.742260E+04 -4.606737E+03 -1.069334E+05 -5.757547E+04 -2.621455E+04
       363   3 -2.295921E+05  2.758743E+04  1.594454E+04 -9.481439E+04 -2.564318E+04 -1.358883E+04
       363   4 -4.339010E+05 -1.551911E+05 -1.455259E+05 -1.164000E+05 -9.171450E+04 -3.606527E+04
       363   5 -3.940777E+05 -3.568784E+04 -5.960402E+04 -1.584016E+05 -5.782178E+04 -2.630799E+04
       363   6 -4.193129E+05 -5.240729E+04 -3.741135E+04 -1.550857E+05 -2.511941E+04 -1.339099E+04
       363   7 -6.548635E+05 -2.215988E+05 -2.027952E+05 -1.590481E+05 -9.272963E+04 -3.645067E+04
       363   8 -5.993170E+05 -1.087968E+05 -1.146048E+05 -2.098548E+05 -5.806801E+04 -2.640139E+04
       363   9 -6.089988E+05 -1.323974E+05 -9.077063E+04 -2.153396E+05 -2.459582E+04 -1.319323E+04
       363  10 -2.128995E+05 -8.878752E+04 -8.827798E+04 -7.374266E+04  9.885034E-11 -1.522358E-09
       363  11 -1.888013E+05  3.742097E+04 -4.614261E+03 -1.069346E+05  3.548258E-10 -3.682918E-09
       363  12 -2.295929E+05  2.758705E+04  1.594296E+04 -9.481468E+04  4.113830E-10 -9.100473E-10
       363  13 -4.339104E+05 -1.551948E+05 -1.455442E+05 -1.164027E+05  6.844451E-10  1.514545E-09
       363  14 -3.940815E+05 -3.568948E+04 -5.961161E+04 -1.584028E+05 -1.430611E-09  1.231275E-09
       363  15 -4.193136E+05 -5.240765E+04 -3.741287E+04 -1.550860E+05  6.300476E-10  5.652635E-10
       363  16 -6.548731E+05 -2.216026E+05 -2.028139E+05 -1.590508E+05 -5.365503E-10  3.058800E-09
       363  17 -5.993209E+05 -1.087984E+05 -1.146125E+05 -2.098561E+05  3.980611E-10  2.768640E-09
       363  18 -6.089995E+05 -1.323977E+05 -9.077210E+04 -2.153398E+05 -5.365183E-10 -1.183072E-09
       363  19 -2.128903E+05 -8.878394E+04 -8.826013E+04 -7.374005E+04  9.069896E+04  3.567979E+04
       363  20 -1.887975E+05  3.742260E+04 -4.606737E+03 -1.069334E+05  5.757547E+04  2.621455E+04
       363  21 -2.295921E+05  2.758743E+04  1.594454E+04 -9.481439E+04  2.564318E+04  1.358883E+04
       363  22 -4.339010E+05 -1.551911E+05 -1.455259E+05 -1.164000E+05  9.171450E+04  3.606527E+04
       363  23 -3.940777E+05 -3.568784E+04 -5.960402E+04 -1.584016E+05  5.782178E+04  2.630799E+04
       363  24 -4.193129E+05 -5.240729E+04 -3.741135E+04 -1.550857E+05  2.511941E+04  1.339099E+04
       363  25 -6.548635E+05 -2.215988E+05 -2.027952E+05 -1.590481E+05  9.272963E+04  3.645067E+04
       363  26 -5.993170E+05 -1.087968E+05 -1.146048E+05 -2.098548E+05  5.806801E+04  2.640139E+04
       363  27 -6.089988E+05 -1.323974E+05 -9.077063E+04 -2.153396E+05  2.459582E+04  1.319323E+04
       364   1 -2.430856E+05 -6.286047E+03  1.561876E+04 -1.008228E+05 -1.966848E+04 -1.062035E+04
       364   2 -2.423432E+05  5.669158E+03  3.033291E+04 -1.112281E+05 -1.229651E+04 -7.969834E+03
       364   3 -2.580938E+05  5.351841E+03  3.406459E+04 -1.073213E+05 -5.092679E+03 -4.873956E+03
       364   4 -4.147813E+05 -6.892975E+04 -3.077060E+04 -1.453784E+05 -1.974735E+04 -1.065025E+04
       364   5 -4.054875E+05 -5.551536E+04 -1.403389E+04 -1.552749E+05 -1.226734E+04 -7.958901E+03
       364   6 -4.127101E+05 -5.439817E+04 -8.367660E+03 -1.508588E+05 -4.955388E+03 -4.822138E+03
       364   7 -5.864491E+05 -1.315723E+05 -7.716264E+04 -1.899232E+05 -1.982619E+04 -1.068015E+04
       364   8 -5.686063E+05 -1.166985E+05 -5.840311E+04 -1.993114E+05 -1.223818E+04 -7.947971E+03
       364   9 -5.673036E+05 -1.141465E+05 -5.080210E+04 -1.943863E+05 -4.818135E+03 -4.770334E+03
       364  10 -2.430860E+05 -6.286272E+03  1.561782E+04 -1.008230E+05  1.047519E-09 -1.273023E-10
       364  11 -2.423434E+05  5.669050E+03  3.033250E+04 -1.112282E+05  1.143621E-10 -9.828038E-09
       364  12 -2.580938E+05  5.351809E+03  3.406449E+04 -1.073214E+05  3.518421E-10 -4.819228E-09
       364  13 -4.147817E+05 -6.892997E+04 -3.077155E+04 -1.453785E+05  2.276309E-09  1.210793E-09
       364  14 -4.054876E+05 -5.551547E+04 -1.403429E+04 -1.552750E+05  7.900802E-11 -1.733571E-09
       364  15 -4.127102E+05 -5.439820E+04 -8.367750E+03 -1.508588E+05 -8.628420E-11 -3.405137E-09
       364  16 -5.864495E+05 -1.315726E+05 -7.716359E+04 -1.899233E+05 -8.406756E-10  3.264537E-11
       364  17 -5.686065E+05 -1.166986E+05 -5.840351E+04 -1.993115E+05 -1.193478E-09  7.944580E-09
       364  18 -5.673036E+05 -1.141466E+05 -5.080218E+04 -1.943864E+05  2.274349E-09 -2.402732E-09
       364  19 -2.430856E+05 -6.286047E+03  1.561876E+04 -1.008228E+05  1.966848E+04  1.062035E+04
       364  20 -2.423432E+05  5.669158E+03  3.033291E+04 -1.112281E+05  1.229651E+04  7.969834E+03
       364  21 -2.580938E+05  5.351841E+03  3.406459E+04 -1.073213E+05  5.092679E+03  4.873956E+03
       364  22 -4.147813E+05 -6.892975E+04 -3.077060E+04 -1.453784E+05  1.974735E+04  1.065025E+04
       364  23 -4.054875E+05 -5.551536E+04 -1.403389E+04 -1.552749E+05  1.226734E+04  7.958901E+03
       364  24 -4.127101E+05 -5.439817E+04 -8.367660E+03 -1.508588E+05  4.955388E+03  4.822138E+03
       364  25 -5.864491E+05 -1.315723E+05 -7.716264E+04 -1.899232E+05  1.982619E+04  1.068015E+04
       364  26 -5.686063E+05 -1.166985E+05 -5.840311E+04 -1.993114E+05  1.223818E+04  7.947971E+03
       364  27 -5.673036E+05 -1.141465E+05 -5.080210E+04 -1.943863E+05  4.818135E+03  4.770334E+03
       365   1 -2.850478E+05 -8.736725E+03  2.792890E+04 -1.148247E+05 -3.858039E+03 -4.137011E+03
       365   2 -2.879935E+05 -1.348117E+04  2.918099E+04 -1.225134E+05 -2.282404E+03 -3.259187E+03
       365   3 -3.009556E+05 -1.231060E+04  2.842164E+04 -1.195223E+05 -7.355978E+02 -2.305540E+03
       365   4 -4.121510E+05 -5.657418E+04 -6.657889E+03 -1.493166E+05 -3.805606E+03 -4.117241E+03
       365   5 -4.069944E+05 -5.850570E+04 -3.265762E+03 -1.550436E+05 -2.211567E+03 -3.232443E+03
       365   6 -4.118583E+05 -5.452600E+04 -1.899991E+03 -1.500904E+05 -6.463336E+02 -2.271805E+03
       365   7 -5.392386E+05 -1.044107E+05 -4.124608E+04 -1.838022E+05 -3.753184E+03 -4.097476E+03
       365   8 -5.259817E+05 -1.035294E+05 -3.571379E+04 -1.875681E+05 -2.140745E+03 -3.205704E+03
       365   9 -5.227494E+05 -9.674071E+04 -3.222279E+04 -1.806537E+05 -5.570869E+02 -2.238077E+03
       365  10 -2.850478E+05 -8.736747E+03  2.792884E+04 -1.148248E+05  4.412837E-09  2.407014E-09
       365  11 -2.879935E+05 -1.348119E+04  2.918096E+04 -1.225135E+05 -6.548836E-10 -2.626801E-09
       365  12 -3.009556E+05 -1.231061E+04  2.842163E+04 -1.195223E+05 -2.127726E-11  2.381170E-09
       365  13 -4.121511E+05 -5.657420E+04 -6.657948E+03 -1.493167E+05  1.937884E-09  8.174445E-11
       365  14 -4.069944E+05 -5.850571E+04 -3.265791E+03 -1.550436E+05  3.932243E-09  1.158098E-08
       365  15 -4.118583E+05 -5.452601E+04 -1.900002E+03 -1.500904E+05  3.922356E-09 -2.085245E-10
       365  16 -5.392386E+05 -1.044107E+05 -4.124614E+04 -1.838022E+05 -4.458259E-10 -9.464281E-10
       365  17 -5.259817E+05 -1.035294E+05 -3.571382E+04 -1.875681E+05  2.416932E-09  2.746527E-09
       365  18 -5.227494E+05 -9.674072E+04 -3.222280E+04 -1.806537E+05  2.755665E-09  7.857510E-09
       365  19 -2.850478E+05 -8.736725E+03  2.792890E+04 -1.148247E+05  3.858039E+03  4.137011E+03
       365  20 -2.879935E+05 -1.348117E+04  2.918099E+04 -1.225134E+05  2.282404E+03  3.259187E+03
       365  21 -3.009556E+05 -1.231060E+04  2.842164E+04 -1.195223E+05  7.355978E+02  2.305540E+03
       365  22 -4.121510E+05 -5.657418E+04 -6.657889E+03 -1.493166E+05  3.805606E+03  4.117241E+03
       365  23 -4.069944E+05 -5.850570E+04 -3.265762E+03 -1.550436E+05  2.211567E+03  3.232443E+03
       365  24 -4.118583E+05 -5.452600E+04 -1.899991E+03 -1.500904E+05  6.463336E+02  2.271805E+03
       365  25 -5.392386E+05 -1.044107E+05 -4.124608E+04 -1.838022E+05  3.753184E+03  4.097476E+03
       365  26 -5.259817E+05 -1.035294E+05 -3.571379E+04 -1.875681E+05  2.140745E+03  3.205704E+03
       365  27 -5.227494E+05 -9.674071E+04 -3.222279E+04 -1.806537E+05  5.570869E+02  2.238077E+03
       366   1 -3.315335E+05 -2.432837E+04  2.038494E+04 -1.277882E+05 -5.153820E+02 -1.998528E+03
       366   2 -3.351710E+05 -3.177252E+04  1.881748E+04 -1.354265E+05 -2.290648E+02 -1.532010E+03
       366   3 -3.483023E+05 -3.033698E+04  1.683817E+04 -1.324288E+05  4.998320E+01 -1.046566E+03
       366   4 -4.118641E+05 -5.473769E+04 -1.492939E+03 -1.497701E+05 -4.401957E+02 -1.970103E+03
       366   5 -4.070969E+05 -5.903830E+04 -8.052683E+02 -1.551406E+05 -1.492500E+02 -1.501821E+03
       366   6 -4.118246E+05 -5.446018E+04 -5.331764E+02 -1.498752E+05  1.344318E+02 -1.014610E+03
       366   7 -4.921885E+05 -8.514662E+04 -2.337139E+04 -1.717495E+05 -3.650201E+02 -1.941681E+03
       366   8 -4.790178E+05 -8.630377E+04 -2.042847E+04 -1.748527E+05 -6.944544E+01 -1.471635E+03
       366   9 -4.753430E+05 -7.858311E+04 -1.790487E+04 -1.673199E+05  2.188707E+02 -9.826567E+02
       366  10 -3.315335E+05 -2.432837E+04  2.038493E+04 -1.277882E+05 -7.478646E-11  7.494412E-09
       366  11 -3.351710E+05 -3.177252E+04  1.881747E+04 -1.354265E+05 -5.083562E-10  1.213217E-08
       366  12 -3.483023E+05 -3.033698E+04  1.683817E+04 -1.324288E+05  1.589565E-09 -4.531264E-10
       366  13 -4.118641E+05 -5.473769E+04 -1.492946E+03 -1.497701E+05  3.524990E-10  6.624284E-09
       366  14 -4.070969E+05 -5.903831E+04 -8.052726E+02 -1.551406E+05  8.775867E-10  1.910012E-10
       366  15 -4.118246E+05 -5.446018E+04 -5.331784E+02 -1.498752E+05  2.164929E-09 -1.193923E-09
       366  16 -4.921885E+05 -8.514662E+04 -2.337140E+04 -1.717495E+05  6.348320E-10  7.593437E-09
       366  17 -4.790178E+05 -8.630377E+04 -2.042847E+04 -1.748527E+05 -1.934526E-09  6.153877E-09
       366  18 -4.753430E+05 -7.858311E+04 -1.790487E+04 -1.673199E+05 -8.463094E-10 -1.975274E-09
       366  19 -3.315335E+05 -2.432837E+04  2.038494E+04 -1.277882E+05  5.153820E+02  1.998528E+03
       366  20 -3.351710E+05 -3.177252E+04  1.881748E+04 -1.354265E+05  2.290648E+02  1.532010E+03
       366  21 -3.483023E+05 -3.033698E+04  1.683817E+04 -1.324288E+05 -4.998320E+01  1.046566E+03
       366  22 -4.118641E+05 -5.473769E+04 -1.492939E+03 -1.497701E+05  4.401957E+02  1.970103E+03
       366  23 -4.070969E+05 -5.903830E+04 -8.052683E+02 -1.551406E+05  1.492500E+02  1.501821E+03
       366  24 -4.118246E+05 -5.446018E+04 -5.331764E+02 -1.498752E+05 -1.344318E+02  1.014610E+03
       366  25 -4.921885E+05 -8.514662E+04 -2.337139E+04 -1.717495E+05  3.650201E+02  1.941681E+03
       366  26 -4.790178E+05 -8.630377E+04 -2.042847E+04 -1.748527E+05  6.944544E+01  1.471635E+03
       366  27 -4.753430E+05 -7.858311E+04 -1.790487E+04 -1.673199E+05 -2.188707E+02  9.826567E+02
       367   1 -3.803275E+05 -4.248918E+04  8.101921E+03 -1.411520E+05  6.065889E+01 -8.173032E+02
       367   2 -3.841146E+05 -5.044464E+04  5.830493E+03 -1.489219E+05  1.514756E+02 -4.026804E+02
       367   3 -3.975637E+05 -4.903860E+04  3.344171E+03 -1.458300E+05  2.422256E+02  1.203873E+01
       367   4 -4.118724E+05 -5.443507E+04 -4.700343E+02 -1.497934E+05  1.428201E+02 -7.862043E+02
       367   5 -4.070456E+05 -5.914413E+04 -4.271608E+02 -1.552137E+05  2.336528E+02 -3.715711E+02
       367   6 -4.118807E+05 -5.449162E+04 -5.991516E+02 -1.497721E+05  3.244219E+02  4.315988E+01
       367   7 -4.434164E+05 -6.638091E+04 -9.042091E+03 -1.584345E+05  2.249768E+02 -7.551071E+02
       367   8 -4.299761E+05 -6.784360E+04 -6.684867E+03 -1.615053E+05  3.158268E+02 -3.404630E+02
       367   9 -4.261975E+05 -5.994463E+04 -4.542493E+03 -1.537141E+05  4.066161E+02  7.428024E+01
       367  10 -3.803275E+05 -4.248918E+04  8.101919E+03 -1.411520E+05 -3.041862E-09 -1.770710E-09
       367  11 -3.841146E+05 -5.044464E+04  5.830493E+03 -1.489219E+05 -7.029375E-11  3.578364E-09
       367  12 -3.975637E+05 -4.903860E+04  3.344171E+03 -1.458300E+05  3.998098E-09  2.708793E-09
       367  13 -4.118724E+05 -5.443507E+04 -4.700355E+02 -1.497934E+05  1.734474E-09 -1.164288E-09
       367  14 -4.070456E+05 -5.914413E+04 -4.271611E+02 -1.552137E+05  8.765357E-09 -7.207292E-09
       367  15 -4.118807E+05 -5.449162E+04 -5.991518E+02 -1.497721E+05 -8.360325E-10 -1.030200E-09
       367  16 -4.434164E+05 -6.638092E+04 -9.042093E+03 -1.584345E+05  5.155620E-09  4.671882E-09
       367  17 -4.299761E+05 -6.784360E+04 -6.684868E+03 -1.615053E+05 -1.961294E-10  3.681876E-09
       367  18 -4.261975E+05 -5.994463E+04 -4.542493E+03 -1.537141E+05 -1.473310E-09 -4.328352E-09
       367  19 -3.803275E+05 -4.248918E+04  8.101921E+03 -1.411520E+05 -6.065889E+01  8.173032E+02
       367  20 -3.841146E+05 -5.044464E+04  5.830493E+03 -1.489219E+05 -1.514756E+02  4.026804E+02
       367  21 -3.975637E+05 -4.903860E+04  3.344171E+03 -1.458300E+05 -2.422256E+02 -1.203873E+01
       367  22 -4.118724E+05 -5.443507E+04 -4.700343E+02 -1.497934E+05 -1.428201E+02  7.862043E+02
       367  23 -4.070456E+05 -5.914413E+04 -4.271608E+02 -1.552137E+05 -2.336528E+02  3.715711E+02
       367  24 -4.118807E+05 -5.449162E+04 -5.991516E+02 -1.497721E+05 -3.244219E+02 -4.315988E+01
       367  25 -4.434164E+05 -6.638091E+04 -9.042091E+03 -1.584345E+05 -2.249768E+02  7.551071E+02
       367  26 -4.299761E+05 -6.784360E+04 -6.684867E+03 -1.615053E+05 -3.158268E+02  3.404630E+02
       367  27 -4.261975E+05 -5.994463E+04 -4.542493E+03 -1.537141E+05 -4.066161E+02 -7.428024E+01
       368   1 -4.299662E+05 -6.130243E+04 -5.691937E+03 -1.548492E+05  2.675153E+02  2.541807E+02
       368   2 -4.336690E+05 -6.911729E+04 -8.441134E+03 -1.625310E+05  7.478594E+02  8.246709E+02
       368   3 -4.473722E+05 -6.839016E+04 -1.191699E+04 -1.591647E+05  1.243696E+03  1.354329E+03
       368   4 -4.119147E+05 -5.438907E+04 -7.204462E+02 -1.498383E+05  3.565431E+02  2.878880E+02
       368   5 -4.069658E+05 -5.901164E+04 -1.159787E+03 -1.552297E+05  8.268236E+02  8.545626E+02
       368   6 -4.120153E+05 -5.509022E+04 -2.317756E+03 -1.495730E+05  1.312606E+03  1.380410E+03
       368   7 -3.938629E+05 -4.747570E+04  4.251008E+03 -1.448273E+05  4.455736E+02  3.215964E+02
       368   8 -3.802620E+05 -4.890594E+04  6.121497E+03 -1.479280E+05  9.057915E+02  8.844558E+02
       368   9 -3.766572E+05 -4.179019E+04  7.281381E+03 -1.399808E+05  1.381521E+03  1.406493E+03
       368  10 -4.299662E+05 -6.130243E+04 -5.691938E+03 -1.548492E+05  1.236086E-09 -9.460998E-10
       368  11 -4.336690E+05 -6.911729E+04 -8.441137E+03 -1.625310E+05  8.725014E-10 -2.509232E-09
       368  12 -4.473722E+05 -6.839016E+04 -1.191700E+04 -1.591647E+05  2.532134E-09  1.559589E-09
       368  13 -4.119147E+05 -5.438907E+04 -7.204466E+02 -1.498383E+05  1.560800E-09 -2.844145E-09
       368  14 -4.069658E+05 -5.901164E+04 -1.159789E+03 -1.552297E+05 -1.701646E-09 -6.072169E-10
       368  15 -4.120153E+05 -5.509022E+04 -2.317763E+03 -1.495730E+05  6.892819E-10 -4.240021E-09
       368  16 -3.938629E+05 -4.747570E+04  4.251007E+03 -1.448273E+05  2.691919E-09 -4.081037E-09
       368  17 -3.802620E+05 -4.890594E+04  6.121494E+03 -1.479280E+05 -3.410285E-10 -7.379922E-09
       368  18 -3.766572E+05 -4.179020E+04  7.281373E+03 -1.399808E+05  9.280678E-11 -1.112222E-08
       368  19 -4.299662E+05 -6.130243E+04 -5.691937E+03 -1.548492E+05 -2.675153E+02 -2.541807E+02
       368  20 -4.336690E+05 -6.911729E+04 -8.441134E+03 -1.625310E+05 -7.478594E+02 -8.246709E+02
       368  21 -4.473722E+05 -6.839016E+04 -1.191699E+04 -1.591647E+05 -1.243696E+03 -1.354329E+03
       368  22 -4.119147E+05 -5.438907E+04 -7.204462E+02 -1.498383E+05 -3.565431E+02 -2.878880E+02
       368  23 -4.069658E+05 -5.901164E+04 -1.159787E+03 -1.552297E+05 -8.268236E+02 -8.545626E+02
       368  24 -4.120153E+05 -5.509022E+04 -2.317756E+03 -1.495730E+05 -1.312606E+03 -1.380410E+03
       368  25 -3.938629E+05 -4.747570E+04  4.251008E+03 -1.448273E+05 -4.455736E+02 -3.215964E+02
       368  26 -3.802620E+05 -4.890594E+04  6.121497E+03 -1.479280E+05 -9.057915E+02 -8.844558E+02
       368  27 -3.766572E+05 -4.179019E+04  7.281381E+03 -1.399808E+05 -1.381521E+03 -1.406493E+03
       369   1 -4.791281E+05 -8.014138E+04 -2.127795E+04 -1.688795E+05  1.530712E+03  1.733087E+03
       369   2 -4.821671E+05 -8.648859E+04 -2.546463E+04 -1.758636E+05  4.036432E+03  3.086594E+03
       369   3 -4.974390E+05 -9.059440E+04 -3.353478E+04 -1.705542E+05  6.650524E+03  4.153720E+03
       369   4 -4.122024E+05 -5.434220E+04 -2.902650E+03 -1.501084E+05  1.653805E+03  1.779669E+03
       369   5 -4.064524E+05 -5.797764E+04 -4.850647E+03 -1.553067E+05  4.089095E+03  3.106505E+03
       369   6 -4.129210E+05 -5.935723E+04 -1.062584E+04 -1.482118E+05  6.632790E+03  4.146985E+03
       369   7 -3.452725E+05 -2.854272E+04  1.547224E+04 -1.313354E+05  1.776913E+03  1.826257E+03
       369   8 -3.307323E+05 -2.946640E+04  1.576281E+04 -1.347476E+05  4.141765E+03  3.126418E+03
       369   9 -3.283964E+05 -2.811977E+04  1.228242E+04 -1.258666E+05  6.615053E+03  4.140248E+03
       369  10 -4.791281E+05 -8.014138E+04 -2.127796E+04 -1.688795E+05  1.417101E-09 -2.140968E-09
       369  11 -4.821671E+05 -8.648861E+04 -2.546468E+04 -1.758636E+05 -2.777148E-09  2.203786E-09
       369  12 -4.974390E+05 -9.059443E+04 -3.353490E+04 -1.705543E+05 -3.843509E-10 -2.033483E-10
       369  13 -4.122024E+05 -5.434220E+04 -2.902661E+03 -1.501084E+05  2.683628E-09 -3.083935E-09
       369  14 -4.064524E+05 -5.797766E+04 -4.850697E+03 -1.553067E+05  4.078169E-09  1.165810E-08
       369  15 -4.129211E+05 -5.935726E+04 -1.062596E+04 -1.482118E+05  7.938553E-10  9.496926E-09
       369  16 -3.452725E+05 -2.854272E+04  1.547223E+04 -1.313354E+05  5.836410E-09 -3.306830E-09
       369  17 -3.307323E+05 -2.946641E+04  1.576276E+04 -1.347476E+05  5.106899E-09  5.037271E-09
       369  18 -3.283964E+05 -2.811980E+04  1.228231E+04 -1.258667E+05  1.731947E-09  5.591377E-09
       369  19 -4.791281E+05 -8.014138E+04 -2.127795E+04 -1.688795E+05 -1.530712E+03 -1.733087E+03
       369  20 -4.821671E+05 -8.648859E+04 -2.546463E+04 -1.758636E+05 -4.036432E+03 -3.086594E+03
       369  21 -4.974390E+05 -9.059440E+04 -3.353478E+04 -1.705542E+05 -6.650524E+03 -4.153720E+03
       369  22 -4.122024E+05 -5.434220E+04 -2.902650E+03 -1.501084E+05 -1.653805E+03 -1.779669E+03
       369  23 -4.064524E+05 -5.797764E+04 -4.850647E+03 -1.553067E+05 -4.089095E+03 -3.106505E+03
       369  24 -4.129210E+05 -5.935723E+04 -1.062584E+04 -1.482118E+05 -6.632790E+03 -4.146985E+03
       369  25 -3.452725E+05 -2.854272E+04  1.547224E+04 -1.313354E+05 -1.776913E+03 -1.826257E+03
       369  26 -3.307323E+05 -2.946640E+04  1.576281E+04 -1.347476E+05 -4.141765E+03 -3.126418E+03
       369  27 -3.283964E+05 -2.811977E+04  1.228242E+04 -1.258666E+05 -6.615053E+03 -4.140248E+03
       370   1 -5.268736E+05 -9.917466E+04 -4.417333E+04 -1.853361E+05  8.002806E+03  5.233299E+03
       370   2 -5.260668E+05 -9.631699E+04 -5.391065E+04 -1.885704E+05  1.967812E+04  1.020650E+04
       370   3 -5.541359E+05 -1.342509E+05 -8.604999E+04 -1.689940E+05  3.213616E+04  1.310868E+04
       370   4 -4.144284E+05 -5.370138E+04 -1.291496E+04 -1.516191E+05  8.380483E+03  5.376145E+03
       370   5 -4.025766E+05 -5.108412E+04 -2.057699E+04 -1.563290E+05  1.954647E+04  1.015663E+04
       370   6 -4.194957E+05 -8.915133E+04 -5.023338E+04 -1.382290E+05  3.149531E+04  1.286617E+04
       370   7 -3.019707E+05 -8.226771E+03  1.834229E+04 -1.178964E+05  8.758236E+03  5.519024E+03
       370   8 -2.790717E+05 -5.850620E+03  1.275530E+04 -1.240819E+05  1.941479E+04  1.010676E+04
       370   9 -2.848387E+05 -4.405177E+04 -1.441839E+04 -1.074585E+05  3.085432E+04  1.262362E+04
       370  10 -5.268737E+05 -9.917471E+04 -4.417350E+04 -1.853361E+05  3.183689E-10  4.315004E-09
       370  11 -5.260673E+05 -9.631721E+04 -5.391158E+04 -1.885706E+05 -2.810133E-09  1.447314E-08
       370  12 -5.541370E+05 -1.342514E+05 -8.605226E+04 -1.689943E+05 -2.862616E-10  5.305388E-09
       370  13 -4.144284E+05 -5.370143E+04 -1.291515E+04 -1.516191E+05  3.719027E-09  3.545858E-09
       370  14 -4.025770E+05 -5.108433E+04 -2.057791E+04 -1.563291E+05  1.095430E-09 -3.238115E-09
       370  15 -4.194968E+05 -8.915178E+04 -5.023555E+04 -1.382293E+05  1.073255E-09  9.796613E-10
       370  16 -3.019708E+05 -8.226824E+03  1.834209E+04 -1.178964E+05 -1.025938E-09 -2.005676E-09
       370  17 -2.790722E+05 -5.850831E+03  1.275440E+04 -1.240820E+05 -2.639508E-09 -6.374207E-09
       370  18 -2.848397E+05 -4.405220E+04 -1.442048E+04 -1.074588E+05 -1.032380E-09 -2.213484E-09
       370  19 -5.268736E+05 -9.917466E+04 -4.417333E+04 -1.853361E+05 -8.002806E+03 -5.233299E+03
       370  20 -5.260668E+05 -9.631699E+04 -5.391065E+04 -1.885704E+05 -1.967812E+04 -1.020650E+04
       370  21 -5.541359E+05 -1.342509E+05 -8.604999E+04 -1.689940E+05 -3.213616E+04 -1.310868E+04
       370  22 -4.144284E+05 -5.370138E+04 -1.291496E+04 -1.516191E+05 -8.380483E+03 -5.376145E+03
       370  23 -4.025766E+05 -5.108412E+04 -2.057699E+04 -1.563290E+05 -1.954647E+04 -1.015663E+04
       370  24 -4.194957E+05 -8.915133E+04 -5.023338E+04 -1.382290E+05 -3.149531E+04 -1.286617E+04
       370  25 -3.019707E+05 -8.226771E+03  1.834229E+04 -1.178964E+05 -8.758236E+03 -5.519024E+03
       370  26 -2.790717E+05 -5.850620E+03  1.275530E+04 -1.240819E+05 -1.941479E+04 -1.010676E+04
       370  27 -2.848387E+05 -4.405177E+04 -1.441839E+04 -1.074585E+05 -3.085432E+04 -1.262362E+04
       371   1 -4.334317E+05 -2.652555E+04 -7.402828E+04 -2.459939E+04 -1.398684E+05 -4.781118E+03
       371   2 -4.328187E+05  1.616057E+05  3.672810E+04 -1.168217E+04 -9.367269E+04 -1.333319E+04
       371   3 -4.924745E+05  1.312384E+05  6.287889E+04  3.203265E+04 -4.750953E+04 -1.173721E+04
       371   4 -9.888379E+05 -1.650256E+05 -2.119098E+05  1.334345E+04 -1.447259E+05 -4.803431E+03
       371   5 -9.583217E+05  3.082343E+04 -9.167879E+04 -2.300037E+03 -9.491958E+04 -1.333945E+04
       371   6 -9.887571E+05  7.443749E+03 -5.861709E+04  1.285584E+04 -4.514331E+04 -1.172789E+04
       371   7 -1.543961E+06 -3.035432E+05 -3.498135E+05  5.125211E+04 -1.495789E+05 -4.826351E+03
       371   8 -1.483572E+06 -9.997885E+04 -2.201058E+05  7.073935E+03 -9.616539E+04 -1.334575E+04
       371   9 -1.484814E+06 -1.163679E+05 -1.801309E+05 -6.305804E+03 -4.277896E+04 -1.171871E+04
       371  10 -4.334527E+05 -2.653084E+04 -7.406511E+04 -2.459993E+04 -3.072650E-09  3.589037E-09
       371  11 -4.328281E+05  1.616031E+05  3.671126E+04 -1.168318E+04 -1.311515E-09  1.188600E-08
       371  12 -4.924770E+05  1.312376E+05  6.287438E+04  3.203220E+04  1.465344E-09  3.882881E-09
       371  13 -9.888605E+05 -1.650312E+05 -2.119493E+05  1.334289E+04  6.961741E-10 -4.648196E-09
       371  14 -9.583314E+05  3.082081E+04 -9.169609E+04 -2.301057E+03  3.212818E-11 -4.691341E-09
       371  15 -9.887593E+05  7.443053E+03 -5.862118E+04  1.285541E+04 -3.024975E-09 -4.952756E-10
       371  16 -1.543985E+06 -3.035492E+05 -3.498557E+05  5.125153E+04  2.163679E-09  1.599305E-09
       371  17 -1.483582E+06 -9.998153E+04 -2.201235E+05  7.072900E+03 -1.716910E-09  1.097835E-08
       371  18 -1.484816E+06 -1.163685E+05 -1.801346E+05 -6.306208E+03 -9.108898E-10 -1.036168E-09
       371  19 -4.334317E+05 -2.652555E+04 -7.402828E+04 -2.459939E+04  1.398684E+05  4.781118E+03
       371  20 -4.328187E+05  1.616057E+05  3.672810E+04 -1.168217E+04  9.367269E+04  1.333319E+04
       371  21 -4.924745E+05  1.312384E+05  6.287889E+04  3.203265E+04  4.750953E+04  1.173721E+04
       371  22 -9.888379E+05 -1.650256E+05 -2.119098E+05  1.334345E+04  1.447259E+05  4.803431E+03
       371  23 -9.583217E+05  3.082343E+04 -9.167879E+04 -2.300037E+03  9.491958E+04  1.333945E+04
       371  24 -9.887571E+05  7.443749E+03 -5.861709E+04  1.285584E+04  4.514331E+04  1.172789E+04
       371  25 -1.543961E+06 -3.035432E+05 -3.498135E+05  5.125211E+04  1.495789E+05  4.826351E+03
       371  26 -1.483572E+06 -9.997885E+04 -2.201058E+05  7.073935E+03  9.616539E+04  1.334575E+04
       371  27 -1.484814E+06 -1.163679E+05 -1.801309E+05 -6.305804E+03  4.277896E+04  1.171871E+04
       372   1 -5.451814E+05  8.674860E+04  5.767449E+04  1.039240E+04 -3.563778E+04 -9.543741E+03
       372   2 -5.733948E+05  1.034172E+05  7.393710E+04 -3.104234E+03 -2.369508E+04 -9.375057E+03
       372   3 -6.100477E+05  9.255055E+04  7.553887E+04  1.727754E+04 -1.175868E+04 -8.089193E+03
       372   4 -9.771072E+05 -2.084348E+04 -4.818566E+04  1.376443E+04 -3.577779E+04 -9.544966E+03
       372   5 -9.728416E+05  3.911998E+03 -2.383422E+04 -3.218445E+03 -2.344090E+04 -9.374427E+03
       372   6 -9.770917E+05  1.053487E+03 -1.442517E+04  1.367870E+04 -1.110968E+04 -8.086525E+03
       372   7 -1.408863E+06 -1.284493E+05 -1.540595E+05  1.713394E+04 -3.591769E+04 -9.546194E+03
       372   8 -1.372143E+06 -9.560502E+04 -1.216172E+05 -3.332733E+03 -2.318687E+04 -9.373797E+03
       372   9 -1.344013E+06 -9.045354E+04 -1.043991E+05  1.008186E+04 -1.046106E+04 -8.083863E+03
       372  10 -5.451828E+05  8.674816E+04  5.767193E+04  1.039213E+04 -4.965886E-09 -4.358489E-09
       372  11 -5.733954E+05  1.034169E+05  7.393588E+04 -3.104413E+03 -1.536185E-09  1.947697E-09
       372  12 -6.100479E+05  9.255044E+04  7.553849E+04  1.727746E+04  6.535927E-09  1.127597E-08
       372  13 -9.771086E+05 -2.084392E+04 -4.818824E+04  1.376416E+04 -7.323235E-10  8.153491E-09
       372  14 -9.728422E+05  3.911755E+03 -2.383542E+04 -3.218622E+03  4.544658E-10 -2.622429E-08
       372  15 -9.770918E+05  1.053384E+03 -1.442553E+04  1.367863E+04 -4.112836E-09  1.224079E-08
       372  16 -1.408864E+06 -1.284498E+05 -1.540621E+05  1.713367E+04  4.544987E-09 -9.791737E-09
       372  17 -1.372143E+06 -9.560526E+04 -1.216184E+05 -3.332908E+03 -1.830514E-09 -2.948512E-09
       372  18 -1.344013E+06 -9.045364E+04 -1.043994E+05  1.008179E+04 -7.349772E-09  3.110764E-09
       372  19 -5.451814E+05  8.674860E+04  5.767449E+04  1.039240E+04  3.563778E+04  9.543741E+03
       372  20 -5.733948E+05  1.034172E+05  7.393710E+04 -3.104234E+03  2.369508E+04  9.375057E+03
       372  21 -6.100477E+05  9.255055E+04  7.553887E+04  1.727754E+04  1.175868E+04  8.089193E+03
       372  22 -9.771072E+05 -2.084348E+04 -4.818566E+04  1.376443E+04  3.577779E+04  9.544966E+03
       372  23 -9.728416E+05  3.911998E+03 -2.383422E+04 -3.218445E+03  2.344090E+04  9.374427E+03
       372  24 -9.770917E+05  1.053487E+03 -1.442517E+04  1.367870E+04  1.110968E+04  8.086525E+03
       372  25 -1.408863E+06 -1.284493E+05 -1.540595E+05  1.713394E+04  3.591769E+04  9.546194E+03
       372  26 -1.372143E+06 -9.560502E+04 -1.216172E+05 -3.332733E+03  2.318687E+04  9.373797E+03
       372  27 -1.344013E+06 -9.045354E+04 -1.043991E+05  1.008186E+04  1.046106E+04  8.083863E+03
       373   1 -6.784620E+05  7.149133E+04  6.122542E+04  1.476764E+04 -9.193201E+03 -7.209319E+03
       373   2 -7.123397E+05  6.587040E+04  5.814265E+04 -2.995327E+03 -6.162102E+03 -6.068771E+03
       373   3 -7.476953E+05  5.707548E+04  5.223084E+04  1.540723E+04 -3.132718E+03 -4.779452E+03
       373   4 -9.755182E+05 -2.504267E+03 -1.142659E+04  1.422428E+04 -8.812035E+03 -7.207764E+03
       373   5 -9.747722E+05  4.799596E+02 -6.111947E+03 -3.865551E+03 -5.728762E+03 -6.066820E+03
       373   6 -9.755146E+05  2.803892E+02 -3.663459E+03  1.421112E+04 -2.647036E+03 -4.777076E+03
       373   7 -1.272494E+06 -7.650640E+04 -8.408505E+04  1.368107E+04 -8.431050E+03 -7.206211E+03
       373   8 -1.237142E+06 -6.491559E+04 -7.037159E+04 -4.735482E+03 -5.295604E+03 -6.064870E+03
       373   9 -1.203287E+06 -5.651856E+04 -5.956157E+04  1.301539E+04 -2.161532E+03 -4.774701E+03
       373  10 -6.784621E+05  7.149125E+04  6.122517E+04  1.476759E+04  4.114971E-09 -4.526398E-09
       373  11 -7.123398E+05  6.587035E+04  5.814251E+04 -2.995357E+03  2.145001E-09 -1.074678E-08
       373  12 -7.476953E+05  5.707546E+04  5.223078E+04  1.540722E+04  6.682139E-09 -9.125601E-09
       373  13 -9.755182E+05 -2.504344E+03 -1.142683E+04  1.422422E+04 -1.084279E-09 -3.039283E-09
       373  14 -9.747723E+05  4.799113E+02 -6.112078E+03 -3.865579E+03 -3.303165E-09 -1.020869E-08
       373  15 -9.755146E+05  2.803628E+02 -3.663515E+03  1.421111E+04 -2.495515E-09 -7.473063E-09
       373  16 -1.272494E+06 -7.650647E+04 -8.408528E+04  1.368102E+04 -4.733773E-09 -7.741539E-09
       373  17 -1.237142E+06 -6.491564E+04 -7.037171E+04 -4.735508E+03 -3.690834E-09  2.979156E-09
       373  18 -1.203287E+06 -5.651859E+04 -5.956162E+04  1.301538E+04 -6.301390E-09  1.205379E-08
       373  19 -6.784620E+05  7.149133E+04  6.122542E+04  1.476764E+04  9.193201E+03  7.209319E+03
       373  20 -7.123397E+05  6.587040E+04  5.814265E+04 -2.995327E+03  6.162102E+03  6.068771E+03
       373  21 -7.476953E+05  5.707548E+04  5.223084E+04  1.540723E+04  3.132718E+03  4.779452E+03
       373  22 -9.755182E+05 -2.504267E+03 -1.142659E+04  1.422428E+04  8.812035E+03  7.207764E+03
       373  23 -9.747722E+05  4.799596E+02 -6.111947E+03 -3.865551E+03  5.728762E+03  6.066820E+03
       373  24 -9.755146E+05  2.803892E+02 -3.663459E+03  1.421112E+04  2.647036E+03  4.777076E+03
       373  25 -1.272494E+06 -7.650640E+04 -8.408505E+04  1.368107E+04  8.431050E+03  7.206211E+03
       373  26 -1.237142E+06 -6.491559E+04 -7.037159E+04 -4.735482E+03  5.295604E+03  6.064870E+03
       373  27 -1.203287E+06 -5.651856E+04 -5.956157E+04  1.301539E+04  2.161532E+03  4.774701E+03
       374   1 -8.211415E+05  3.823481E+04  3.474053E+04  1.506722E+04 -2.517505E+03 -4.010564E+03
       374   2 -8.567293E+05  2.952751E+04  2.718903E+04 -3.765930E+03 -1.648177E+03 -2.726772E+03
       374   3 -8.929179E+05  2.072794E+04  1.895065E+04  1.489009E+04 -7.794644E+02 -1.415590E+03
       374   4 -9.753096E+05 -1.613401E+02 -2.903502E+03  1.451069E+04 -2.062051E+03 -4.008253E+03
       374   5 -9.750073E+05  5.240450E+01 -1.773989E+03 -4.234986E+03 -1.183080E+03 -2.724341E+03
       374   6 -9.753087E+05  1.722318E+02 -1.338131E+03  1.450895E+04 -3.046723E+02 -1.413031E+03
       374   7 -1.129456E+06 -3.855925E+04 -4.054927E+04  1.395427E+04 -1.606710E+03 -4.005943E+03
       374   8 -1.093273E+06 -2.942373E+04 -3.073804E+04 -4.703970E+03 -7.180702E+02 -2.721910E+03
       374   9 -1.057693E+06 -2.038398E+04 -2.162741E+04  1.412785E+04  1.700568E+02 -1.410473E+03
       374  10 -8.211415E+05  3.823479E+04  3.474049E+04  1.506722E+04 -1.328306E-09 -1.022740E-08
       374  11 -8.567294E+05  2.952750E+04  2.718902E+04 -3.765934E+03 -2.976074E-09  5.585023E-09
       374  12 -8.929179E+05  2.072794E+04  1.895064E+04  1.489009E+04  4.578499E-10  4.772845E-10
       374  13 -9.753096E+05 -1.613585E+02 -2.903540E+03  1.451068E+04 -2.663535E-11  2.965828E-09
       374  14 -9.750073E+05  5.239615E+01 -1.774005E+03 -4.234989E+03 -1.049666E-09 -3.831969E-09
       374  15 -9.753087E+05  1.722296E+02 -1.338135E+03  1.450895E+04 -2.343222E-09 -8.979924E-09
       374  16 -1.129456E+06 -3.855927E+04 -4.054930E+04  1.395426E+04  8.032513E-10  7.562087E-09
       374  17 -1.093273E+06 -2.942374E+04 -3.073805E+04 -4.703972E+03  3.226758E-10  2.133300E-08
       374  18 -1.057693E+06 -2.038399E+04 -2.162742E+04  1.412785E+04  8.392128E-10  3.513704E-10
       374  19 -8.211415E+05  3.823481E+04  3.474053E+04  1.506722E+04  2.517505E+03  4.010564E+03
       374  20 -8.567293E+05  2.952751E+04  2.718903E+04 -3.765930E+03  1.648177E+03  2.726772E+03
       374  21 -8.929179E+05  2.072794E+04  1.895065E+04  1.489009E+04  7.794644E+02  1.415590E+03
       374  22 -9.753096E+05 -1.613401E+02 -2.903502E+03  1.451069E+04  2.062051E+03  4.008253E+03
       374  23 -9.750073E+05  5.240450E+01 -1.773989E+03 -4.234986E+03  1.183080E+03  2.724341E+03
       374  24 -9.753087E+05  1.722318E+02 -1.338131E+03  1.450895E+04  3.046723E+02  1.413031E+03
       374  25 -1.129456E+06 -3.855925E+04 -4.054927E+04  1.395427E+04  1.606710E+03  4.005943E+03
       374  26 -1.093273E+06 -2.942373E+04 -3.073804E+04 -4.703970E+03  7.180702E+02  2.721910E+03
       374  27 -1.057693E+06 -2.038398E+04 -2.162741E+04  1.412785E+04 -1.700568E+02  1.410473E+03
       375   1 -9.682015E+05  1.900414E+03  3.521120E+02  1.457609E+04 -5.473021E+02 -6.450354E+02
       375   2 -1.004090E+06 -7.211036E+03 -8.532876E+03 -4.437344E+03  1.546135E+02  6.697891E+02
       375   3 -1.040567E+06 -1.628580E+04 -1.797240E+04  1.435135E+04  8.566521E+02  1.971478E+03
       375   4 -9.753034E+05  1.533197E+02 -1.274785E+03  1.457863E+04 -7.354188E+01 -6.424605E+02
       375   5 -9.750090E+05  3.663679E+01 -1.411236E+03 -4.321850E+03  6.236551E+02  6.723181E+02
       375   6 -9.753038E+05 -4.256435E+01 -2.098973E+03  1.457968E+04  1.321016E+03  1.973966E+03
       375   7 -9.824054E+05 -1.593778E+03 -2.901685E+03  1.458117E+04  4.002130E+02 -6.398857E+02
       375   8 -9.459272E+05  7.284247E+03  5.710342E+03 -4.206351E+03  1.092719E+03  6.748473E+02
       375   9 -9.100367E+05  1.620035E+04  1.377415E+04  1.480803E+04  1.785429E+03  1.976454E+03
       375  10 -9.682015E+05  1.900413E+03  3.521107E+02  1.457609E+04 -8.714030E-09 -2.988055E-10
       375  11 -1.004090E+06 -7.211036E+03 -8.532877E+03 -4.437344E+03 -7.348560E-11 -6.256166E-09
       375  12 -1.040567E+06 -1.628580E+04 -1.797241E+04  1.435135E+04 -9.089170E-10 -4.514377E-09
       375  13 -9.753034E+05  1.533192E+02 -1.274786E+03  1.457863E+04  4.328671E-10  1.034531E-08
       375  14 -9.750090E+05  3.663620E+01 -1.411238E+03 -4.321850E+03 -3.922266E-09 -8.361396E-09
       375  15 -9.753038E+05 -4.256900E+01 -2.098983E+03  1.457968E+04 -3.618085E-09 -6.318226E-09
       375  16 -9.824054E+05 -1.593778E+03 -2.901686E+03  1.458117E+04  5.985423E-09 -4.807600E-09
       375  17 -9.459272E+05  7.284246E+03  5.710339E+03 -4.206352E+03 -1.709703E-10 -2.120432E-08
       375  18 -9.100367E+05  1.620035E+04  1.377413E+04  1.480803E+04  1.291430E-09 -1.332273E-08
       375  19 -9.682015E+05  1.900414E+03  3.521120E+02  1.457609E+04  5.473021E+02  6.450354E+02
       375  20 -1.004090E+06 -7.211036E+03 -8.532876E+03 -4.437344E+03 -1.546135E+02 -6.697891E+02
       375  21 -1.040567E+06 -1.628580E+04 -1.797240E+04  1.435135E+04 -8.566521E+02 -1.971478E+03
       375  22 -9.753034E+05  1.533197E+02 -1.274785E+03  1.457863E+04  7.354188E+01  6.424605E+02
       375  23 -9.750090E+05  3.663679E+01 -1.411236E+03 -4.321850E+03 -6.236551E+02 -6.723181E+02
       375  24 -9.753038E+05 -4.256435E+01 -2.098973E+03  1.457968E+04 -1.321016E+03 -1.973966E+03
       375  25 -9.824054E+05 -1.593778E+03 -2.901685E+03  1.458117E+04 -4.002130E+02  6.398857E+02
       375  26 -9.459272E+05  7.284247E+03  5.710342E+03 -4.206351E+03 -1.092719E+03 -6.748473E+02
       375  27 -9.100367E+05  1.620035E+04  1.377415E+04  1.480803E+04 -1.785429E+03 -1.976454E+03
       376   1 -1.115579E+06 -3.469823E+04 -3.702439E+04  1.363787E+04  1.248041E+03  2.750222E+03
       376   2 -1.150473E+06 -4.344718E+04 -4.723264E+04 -4.740168E+03  3.417238E+03  4.062161E+03
       376   3 -1.186574E+06 -5.424652E+04 -5.945442E+04  1.396916E+04  5.587577E+03  5.251625E+03
       376   4 -9.754440E+05  2.545372E+02 -2.591311E+03  1.441678E+04  1.737859E+03  2.752797E+03
       376   5 -9.748455E+05  3.259904E+02 -4.220583E+03 -4.121764E+03  3.863559E+03  4.064396E+03
       376   6 -9.754464E+05 -1.644726E+03 -7.832456E+03  1.442640E+04  5.990523E+03  5.253538E+03
       376   7 -8.352909E+05  3.520584E+04  3.184032E+04  1.519585E+04  2.227787E+03  2.755372E+03
       376   8 -7.991895E+05  4.409687E+04  3.878922E+04 -3.503221E+03  4.310006E+03  4.066631E+03
       376   9 -7.642781E+05  5.095376E+04  4.378625E+04  1.488375E+04  6.393607E+03  5.255451E+03
       376  10 -1.115579E+06 -3.469824E+04 -3.702441E+04  1.363786E+04 -9.228261E-09 -1.921328E-09
       376  11 -1.150473E+06 -4.344720E+04 -4.723270E+04 -4.740179E+03 -5.665650E-10 -1.593947E-08
       376  12 -1.186574E+06 -5.424656E+04 -5.945453E+04  1.396914E+04  5.000310E-09 -1.434953E-09
       376  13 -9.754440E+05  2.545283E+02 -2.591331E+03  1.441678E+04 -5.171882E-11 -2.938179E-09
       376  14 -9.748455E+05  3.259687E+02 -4.220642E+03 -4.121776E+03 -1.201291E-09  4.481269E-09
       376  15 -9.754465E+05 -1.644765E+03 -7.832576E+03  1.442638E+04 -5.041306E-09  5.947423E-09
       376  16 -8.352909E+05  3.520583E+04  3.184030E+04  1.519585E+04  6.685578E-09  5.053901E-09
       376  17 -7.991896E+05  4.409685E+04  3.878915E+04 -3.503235E+03  4.560541E-10 -9.364616E-09
       376  18 -7.642781E+05  5.095372E+04  4.378612E+04  1.488372E+04 -6.477659E-09  1.728051E-08
       376  19 -1.115579E+06 -3.469823E+04 -3.702439E+04  1.363787E+04 -1.248041E+03 -2.750222E+03
       376  20 -1.150473E+06 -4.344718E+04 -4.723264E+04 -4.740168E+03 -3.417238E+03 -4.062161E+03
       376  21 -1.186574E+06 -5.424652E+04 -5.945442E+04  1.396916E+04 -5.587577E+03 -5.251625E+03
       376  22 -9.754440E+05  2.545372E+02 -2.591311E+03  1.441678E+04 -1.737859E+03 -2.752797E+03
       376  23 -9.748455E+05  3.259904E+02 -4.220583E+03 -4.121764E+03 -3.863559E+03 -4.064396E+03
       376  24 -9.754464E+05 -1.644726E+03 -7.832456E+03  1.442640E+04 -5.990523E+03 -5.253538E+03
       376  25 -8.352909E+05  3.520584E+04  3.184032E+04  1.519585E+04 -2.227787E+03 -2.755372E+03
       376  26 -7.991895E+05  4.409687E+04  3.878922E+04 -3.503221E+03 -4.310006E+03 -4.066631E+03
       376  27 -7.642781E+05  5.095376E+04  4.378625E+04  1.488375E+04 -6.393607E+03 -5.255451E+03
       377   1 -1.260046E+06 -6.992612E+04 -7.941938E+04  1.136845E+04  6.925409E+03  6.133189E+03
       377   2 -1.290899E+06 -7.642554E+04 -9.399738E+04 -3.971485E+03  1.569518E+04  7.454346E+03
       377   3 -1.327785E+06 -1.017159E+05 -1.190324E+05  1.608385E+04  2.446977E+04  7.800708E+03
       377   4 -9.765158E+05  7.857698E+02 -9.871687E+03  1.402182E+04  7.562575E+03  6.136161E+03
       377   5 -9.735364E+05  2.667581E+03 -1.628556E+04 -3.642112E+03  1.598582E+04  7.455430E+03
       377   6 -9.765268E+05 -1.417569E+04 -3.291139E+04  1.408821E+04  2.441435E+04  7.800059E+03
       377   7 -6.929122E+05  7.149171E+04  5.967011E+04  1.667633E+04  8.200032E+03  6.139139E+03
       377   8 -6.560815E+05  8.175324E+04  6.141888E+04 -3.312676E+03  1.627660E+04  7.456514E+03
       377   9 -6.251560E+05  7.335535E+04  5.320052E+04  1.209132E+04  2.435889E+04  7.799412E+03
       377  10 -1.260046E+06 -6.992618E+04 -7.941955E+04  1.136841E+04  6.963044E-09  3.494683E-09
       377  11 -1.290900E+06 -7.642567E+04 -9.399795E+04 -3.971579E+03  8.506238E-10  9.570950E-09
       377  12 -1.327786E+06 -1.017161E+05 -1.190336E+05  1.608370E+04 -1.436289E-09 -8.279468E-09
       377  13 -9.765159E+05  7.857140E+02 -9.871865E+03  1.402179E+04 -8.867909E-10 -1.193343E-08
       377  14 -9.735367E+05  2.667453E+03 -1.628615E+04 -3.642208E+03 -4.627641E-09  1.522783E-08
       377  15 -9.765275E+05 -1.417592E+04 -3.291263E+04  1.408806E+04 -4.157445E-09  3.005308E-10
       377  16 -6.929123E+05  7.149165E+04  5.966991E+04  1.667628E+04 -1.031947E-08 -4.415251E-10
       377  17 -6.560818E+05  8.175310E+04  6.141828E+04 -3.312774E+03 -3.420552E-09 -2.153476E-08
       377  18 -6.251566E+05  7.335513E+04  5.319929E+04  1.209116E+04  1.009295E-09  4.654548E-09
       377  19 -1.260046E+06 -6.992612E+04 -7.941938E+04  1.136845E+04 -6.925409E+03 -6.133189E+03
       377  20 -1.290899E+06 -7.642554E+04 -9.399738E+04 -3.971485E+03 -1.569518E+04 -7.454346E+03
       377  21 -1.327785E+06 -1.017159E+05 -1.190324E+05  1.608385E+04 -2.446977E+04 -7.800708E+03
       377  22 -9.765158E+05  7.857698E+02 -9.871687E+03  1.402182E+04 -7.562575E+03 -6.136161E+03
       377  23 -9.735364E+05  2.667581E+03 -1.628556E+04 -3.642112E+03 -1.598582E+04 -7.455430E+03
       377  24 -9.765268E+05 -1.417569E+04 -3.291139E+04  1.408821E+04 -2.441435E+04 -7.800059E+03
       377  25 -6.929122E+05  7.149171E+04  5.967011E+04  1.667633E+04 -8.200032E+03 -6.139139E+03
       377  26 -6.560815E+05  8.175324E+04  6.141888E+04 -3.312676E+03 -1.627660E+04 -7.456514E+03
       377  27 -6.251560E+05  7.335535E+04  5.320052E+04  1.209132E+04 -2.435889E+04 -7.799412E+03
       378   1 -1.403637E+06 -9.946991E+04 -1.427170E+05 -1.461800E+02  2.866377E+04  9.824552E+03
       378   2 -1.414001E+06 -9.111278E+04 -1.727155E+05  3.087142E+03  6.582972E+04  1.145123E+04
       378   3 -1.466650E+06 -2.329351E+05 -2.644718E+05  3.917341E+04  1.030253E+05  4.174277E+03
       378   4 -9.844691E+05  5.142395E+03 -4.002946E+04  1.333961E+04  3.080746E+04  9.833682E+03
       378   5 -9.636465E+05  2.103831E+04 -6.261033E+04 -2.879966E+03  6.479495E+04  1.144600E+04
       378   6 -9.845267E+05 -1.126354E+05 -1.447073E+05  1.375373E+04  9.881425E+04  4.155189E+03
       378   7 -5.651399E+05  1.097423E+05  6.264527E+04  2.683438E+04  3.295259E+04  9.842903E+03
       378   8 -5.131064E+05  1.331745E+05  4.748006E+04 -8.851596E+03  6.375941E+04  1.144079E+04
       378   9 -5.021905E+05  7.649450E+03 -2.495972E+04 -1.168593E+04  9.459986E+04  4.136455E+03
       378  10 -1.403638E+06 -9.947023E+04 -1.427187E+05 -1.464069E+02 -2.352954E-09 -6.295045E-09
       378  11 -1.414006E+06 -9.111409E+04 -1.727239E+05  3.086534E+03  4.689508E-09  4.789821E-09
       378  12 -1.466661E+06 -2.329380E+05 -2.644918E+05  3.917306E+04  5.573970E-09  6.477414E-09
       378  13 -9.844701E+05  5.142036E+03 -4.003143E+04  1.333937E+04  4.938889E-10  2.315876E-09
       378  14 -9.636510E+05  2.103704E+04 -6.261848E+04 -2.880564E+03 -2.078597E-09  8.625823E-09
       378  15 -9.845372E+05 -1.126380E+05 -1.447257E+05  1.375340E+04 -3.407965E-09  8.263951E-09
       378  16 -5.651411E+05  1.097419E+05  6.264304E+04  2.683412E+04  2.810235E-10  1.008987E-08
       378  17 -5.131108E+05  1.331733E+05  4.747216E+04 -8.852184E+03 -7.905836E-09  1.231544E-08
       378  18 -5.022001E+05  7.647027E+03 -2.497658E+04 -1.168624E+04 -7.413519E-09  1.343582E-09
       378  19 -1.403637E+06 -9.946991E+04 -1.427170E+05 -1.461800E+02 -2.866377E+04 -9.824552E+03
       378  20 -1.414001E+06 -9.111278E+04 -1.727155E+05  3.087142E+03 -6.582972E+04 -1.145123E+04
       378  21 -1.466650E+06 -2.329351E+05 -2.644718E+05  3.917341E+04 -1.030253E+05 -4.174277E+03
       378  22 -9.844691E+05  5.142395E+03 -4.002946E+04  1.333961E+04 -3.080746E+04 -9.833682E+03
       378  23 -9.636465E+05  2.103831E+04 -6.261033E+04 -2.879966E+03 -6.479495E+04 -1.144600E+04
       378  24 -9.845267E+05 -1.126354E+05 -1.447073E+05  1.375373E+04 -9.881425E+04 -4.155189E+03
       378  25 -5.651399E+05  1.097423E+05  6.264527E+04  2.683438E+04 -3.295259E+04 -9.842903E+03
       378  26 -5.131064E+05  1.331745E+05  4.748006E+04 -8.851596E+03 -6.375941E+04 -1.144079E+04
       378  27 -5.021905E+05  7.649450E+03 -2.495972E+04 -1.168593E+04 -9.459986E+04 -4.136455E+03
       379   1 -1.494235E+05 -5.743172E+05 -1.433343E+05  1.364323E+05 -5.995989E+03 -5.175160E+04
       379   2 -1.082401E+05 -4.659680E+05 -9.002831E+04  1.217310E+05 -1.921469E+04 -2.311663E+04
       379   3 -7.878178E+04 -3.641432E+05 -5.830386E+04  1.258852E+05 -2.024172E+04  5.555878E+03
       379   4 -1.597226E+04 -3.446259E+04 -1.643439E+04  1.254925E+05 -6.086610E+03 -1.251763E+04
       379   5 -5.137662E+03 -3.333949E+04 -7.421966E+03  1.160810E+05 -1.924623E+04 -8.730326E+03
       379   6 -1.707283E+03 -3.443245E+04 -2.723455E+03  1.255255E+05 -2.021761E+04 -4.911206E+03
       379   7  1.174594E+05  5.056640E+05  1.104513E+05  1.145433E+05 -6.178577E+03  2.675028E+04
       379   8  9.795398E+04  3.994700E+05  7.517669E+04  1.104271E+05 -1.927802E+04  5.665772E+03
       379   9  7.536156E+04  2.953857E+05  5.285391E+04  1.251655E+05 -2.019349E+04 -1.538367E+04
       379  10 -1.494242E+05 -5.743201E+05 -1.433394E+05  1.364320E+05  1.198703E-09  4.607928E-09
       379  11 -1.082406E+05 -4.659687E+05 -9.003001E+04  1.217306E+05  1.320291E-09 -6.468920E-10
       379  12 -7.878223E+04 -3.641433E+05 -5.830469E+04  1.258853E+05 -4.627380E-09 -5.525975E-09
       379  13 -1.597234E+04 -3.446277E+04 -1.643476E+04  1.254924E+05  1.945403E-09 -2.143748E-09
       379  14 -5.138080E+03 -3.333967E+04 -7.422805E+03  1.160809E+05 -8.999927E-10 -3.222482E-09
       379  15 -1.707728E+03 -3.443259E+04 -2.724269E+03  1.255254E+05 -8.507649E-10 -2.785754E-09
       379  16  1.174592E+05  5.056633E+05  1.104499E+05  1.145434E+05  9.450260E-10 -5.438058E-09
       379  17  9.795357E+04  3.994698E+05  7.517593E+04  1.104272E+05 -1.440865E-10 -8.190274E-09
       379  18  7.536106E+04  2.953853E+05  5.285269E+04  1.251653E+05 -1.086958E-09  4.815777E-09
       379  19 -1.494235E+05 -5.743172E+05 -1.433343E+05  1.364323E+05  5.995989E+03  5.175160E+04
       379  20 -1.082401E+05 -4.659680E+05 -9.002831E+04  1.217310E+05  1.921469E+04  2.311663E+04
       379  21 -7.878178E+04 -3.641432E+05 -5.830386E+04  1.258852E+05  2.024172E+04 -5.555878E+03
       379  22 -1.597226E+04 -3.446259E+04 -1.643439E+04  1.254925E+05  6.086610E+03  1.251763E+04
       379  23 -5.137662E+03 -3.333949E+04 -7.421966E+03  1.160810E+05  1.924623E+04  8.730326E+03
       379  24 -1.707283E+03 -3.443245E+04 -2.723455E+03  1.255255E+05  2.021761E+04  4.911206E+03
       379  25  1.174594E+05  5.056640E+05  1.104513E+05  1.145433E+05  6.178577E+03 -2.675028E+04
       379  26  9.795398E+04  3.994700E+05  7.517669E+04  1.104271E+05  1.927802E+04 -5.665772E+03
       379  27  7.536156E+04  2.953857E+05  5.285391E+04  1.251655E+05  2.019349E+04  1.538367E+04
       380   1 -6.273329E+04 -2.966137E+05 -4.438001E+04  1.264429E+05 -1.679877E+04  5.593906E+03
       380   2 -3.657254E+04 -1.916609E+05 -2.176520E+04  1.168404E+05 -1.137792E+04  5.899439E+03
       380   3 -1.000082E+04 -8.651206E+04  7.850009E+02  1.269298E+05 -5.188965E+03  6.206277E+03
       380   4 -1.480595E+03 -3.383094E+04 -9.653222E+02  1.257073E+05 -1.677568E+04 -4.679911E+03
       380   5 -1.797426E+02 -3.405421E+04  2.548406E+03  1.158651E+05 -1.135199E+04 -5.941728E+03
       380   6  1.804788E+03 -3.381969E+04  7.086379E+03  1.257146E+05 -5.160291E+03 -7.202297E+03
       380   7  5.976859E+04  2.290203E+05  4.244772E+04  1.249713E+05 -1.675257E+04 -1.495793E+04
       380   8  3.621192E+04  1.235776E+05  2.686198E+04  1.148896E+05 -1.132601E+04 -1.778579E+04
       380   9  1.361039E+04  1.887595E+04  1.338844E+04  1.244992E+05 -5.131566E+03 -2.061195E+04
       380  10 -6.273360E+04 -2.966138E+05 -4.438060E+04  1.264430E+05 -5.593484E-09  4.537471E-09
       380  11 -3.657268E+04 -1.916610E+05 -2.176551E+04  1.168404E+05  6.801078E-11 -3.269796E-09
       380  12 -1.000086E+04 -8.651211E+04  7.848778E+02  1.269298E+05 -1.853469E-09 -3.815044E-09
       380  13 -1.480903E+03 -3.383104E+04 -9.658921E+02  1.257072E+05 -1.769040E-09 -2.852205E-12
       380  14 -1.798905E+02 -3.405428E+04  2.548098E+03  1.158651E+05  6.872691E-10 -3.826456E-10
       380  15  1.804745E+03 -3.381975E+04  7.086231E+03  1.257145E+05  1.970385E-09 -2.323773E-09
       380  16  5.976823E+04  2.290200E+05  4.244677E+04  1.249711E+05  4.028087E-10 -6.925670E-09
       380  17  3.621170E+04  1.235772E+05  2.686115E+04  1.148895E+05  1.692307E-09 -5.988543E-09
       380  18  1.361025E+04  1.887548E+04  1.338759E+04  1.244992E+05  1.296100E-09  4.825952E-09
       380  19 -6.273329E+04 -2.966137E+05 -4.438001E+04  1.264429E+05  1.679877E+04 -5.593906E+03
       380  20 -3.657254E+04 -1.916609E+05 -2.176520E+04  1.168404E+05  1.137792E+04 -5.899439E+03
       380  21 -1.000082E+04 -8.651206E+04  7.850009E+02  1.269298E+05  5.188965E+03 -6.206277E+03
       380  22 -1.480595E+03 -3.383094E+04 -9.653222E+02  1.257073E+05  1.677568E+04  4.679911E+03
       380  23 -1.797426E+02 -3.405421E+04  2.548406E+03  1.158651E+05  1.135199E+04  5.941728E+03
       380  24  1.804788E+03 -3.381969E+04  7.086379E+03  1.257146E+05  5.160291E+03  7.202297E+03
       380  25  5.976859E+04  2.290203E+05  4.244772E+04  1.249713E+05  1.675257E+04  1.495793E+04
       380  26  3.621192E+04  1.235776E+05  2.686198E+04  1.148896E+05  1.132601E+04  1.778579E+04
       380  27  1.361039E+04  1.887595E+04  1.338844E+04  1.244992E+05  5.131566E+03  2.061195E+04
       381   1  6.061927E+03 -1.873868E+04  1.494392E+04  1.252592E+05 -1.091877E+03  5.038491E+03
       381   2  3.916918E+04  8.253112E+04  4.520292E+04  1.277336E+05  2.881701E+03 -1.586522E+04
       381   3  9.193111E+04  1.915627E+05  9.401212E+04  1.496386E+05  1.499492E+03 -3.678523E+04
       381   4  2.302544E+03 -3.261895E+04  1.003753E+04  1.256486E+05 -1.063113E+03 -8.438574E+03
       381   5  1.047074E+04 -3.555208E+04  1.947948E+04  1.159723E+05  2.887555E+03 -1.841590E+04
       381   6  3.639983E+04 -3.262638E+04  3.988638E+04  1.257250E+05  1.482786E+03 -2.840612E+04
       381   7 -1.456761E+03 -4.649868E+04  5.131815E+03  1.260379E+05 -1.034365E+03 -2.191532E+04
       381   8 -1.822810E+04 -1.536219E+05 -6.244691E+03  1.042132E+05  2.893506E+03 -2.096611E+04
       381   9 -1.913290E+04 -2.567681E+05 -1.424238E+04  1.018200E+05  1.465432E+03 -2.003002E+04
       381  10  6.061919E+03 -1.873871E+04  1.494387E+04  1.252592E+05 -6.529194E-10  9.234084E-10
       381  11  3.916910E+04  8.253085E+04  4.520243E+04  1.277336E+05  1.794345E-09 -1.001115E-10
       381  12  9.193074E+04  1.915613E+05  9.400957E+04  1.496387E+05 -4.105025E-11 -2.382216E-10
       381  13  2.302524E+03 -3.261903E+04  1.003740E+04  1.256486E+05 -1.113935E-09 -1.118134E-11
       381  14  1.047064E+04 -3.555245E+04  1.947883E+04  1.159723E+05  2.171964E-09 -9.145514E-10
       381  15  3.639961E+04 -3.262724E+04  3.988486E+04  1.257250E+05 -2.259210E-10 -2.054612E-10
       381  16 -1.456891E+03 -4.649919E+04  5.130911E+03  1.260379E+05  1.257740E-09 -5.618318E-10
       381  17 -1.822823E+04 -1.536224E+05 -6.245533E+03  1.042133E+05  1.056629E-09 -4.804807E-09
       381  18 -1.913301E+04 -2.567686E+05 -1.424314E+04  1.018200E+05 -5.680667E-10 -5.708073E-11
       381  19  6.061927E+03 -1.873868E+04  1.494392E+04  1.252592E+05  1.091877E+03 -5.038491E+03
       381  20  3.916918E+04  8.253112E+04  4.520292E+04  1.277336E+05 -2.881701E+03  1.586522E+04
       381  21  9.193111E+04  1.915627E+05  9.401212E+04  1.496386E+05 -1.499492E+03  3.678523E+04
       381  22  2.302544E+03 -3.261895E+04  1.003753E+04  1.256486E+05  1.063113E+03  8.438574E+03
       381  23  1.047074E+04 -3.555208E+04  1.947948E+04  1.159723E+05 -2.887555E+03  1.841590E+04
       381  24  3.639983E+04 -3.262638E+04  3.988638E+04  1.257250E+05 -1.482786E+03  2.840612E+04
       381  25 -1.456761E+03 -4.649868E+04  5.131815E+03  1.260379E+05  1.034365E+03  2.191532E+04
       381  26 -1.822810E+04 -1.536219E+05 -6.244691E+03  1.042132E+05 -2.893506E+03  2.096611E+04
       381  27 -1.913290E+04 -2.567681E+05 -1.424238E+04  1.018200E+05 -1.465432E+03  2.003002E+04
       382   1  1.462422E+06  5.126936E+05  3.526723E+05  4.975037E+05  1.539733E+05  5.417014E+04
       382   2  1.406845E+06  2.741025E+05  2.050423E+05  5.153278E+05  1.005126E+05  2.617394E+04
       382   3  1.420935E+06  2.838126E+05  1.609325E+05  5.007325E+05  4.392229E+04  6.457781E+03
       382   4  1.058092E+06  3.222359E+05  2.347312E+05  3.485482E+05  1.502067E+05  5.273424E+04
       382   5  1.011572E+06  1.145244E+05  9.671408E+04  3.964780E+05  9.957452E+04  2.581635E+04
       382   6  1.034213E+06  1.546401E+05  6.003017E+04  4.119740E+05  4.581060E+04  7.174449E+03
       382   7  6.539258E+05  1.318169E+05  1.167749E+05  1.996898E+05  1.464426E+05  5.129991E+04
       382   8  6.164504E+05 -4.503792E+04 -1.162824E+04  2.776985E+05  9.863713E+04  2.545904E+04
       382   9  6.476339E+05  2.546858E+04 -4.088469E+04  3.232613E+05  4.769760E+04  7.890757E+03
       382  10  1.462395E+06  5.126841E+05  3.526224E+05  4.974970E+05 -2.335901E-09  7.764450E-10
       382  11  1.406834E+06  2.740990E+05  2.050221E+05  5.153257E+05 -1.396336E-09  9.570340E-10
       382  12  1.420933E+06  2.838121E+05  1.609288E+05  5.007322E+05  7.219304E-11  1.270865E-09
       382  13  1.058067E+06  3.222269E+05  2.346837E+05  3.485419E+05  6.765863E-10 -4.966963E-09
       382  14  1.011561E+06  1.145211E+05  9.669423E+04  3.964759E+05 -3.934381E-09 -8.130483E-09
       382  15  1.034211E+06  1.546395E+05  6.002613E+04  4.119737E+05  2.325627E-09 -4.138438E-09
       382  16  6.539021E+05  1.318084E+05  1.167297E+05  1.996837E+05  1.438139E-09  3.978893E-09
       382  17  6.164398E+05 -4.504123E+04 -1.164772E+04  2.776965E+05  1.337298E-09  4.818877E-09
       382  18  6.476314E+05  2.546791E+04 -4.088908E+04  3.232609E+05  9.788645E-10 -5.795059E-09
       382  19  1.462422E+06  5.126936E+05  3.526723E+05  4.975037E+05 -1.539733E+05 -5.417014E+04
       382  20  1.406845E+06  2.741025E+05  2.050423E+05  5.153278E+05 -1.005126E+05 -2.617394E+04
       382  21  1.420935E+06  2.838126E+05  1.609325E+05  5.007325E+05 -4.392229E+04 -6.457781E+03
       382  22  1.058092E+06  3.222359E+05  2.347312E+05  3.485482E+05 -1.502067E+05 -5.273424E+04
       382  23  1.011572E+06  1.145244E+05  9.671408E+04  3.964780E+05 -9.957452E+04 -2.581635E+04
       382  24  1.034213E+06  1.546401E+05  6.003017E+04  4.119740E+05 -4.581060E+04 -7.174449E+03
       382  25  6.539258E+05  1.318169E+05  1.167749E+05  1.996898E+05 -1.464426E+05 -5.129991E+04
       382  26  6.164504E+05 -4.503792E+04 -1.162824E+04  2.776985E+05 -9.863713E+04 -2.545904E+04
       382  27  6.476339E+05  2.546858E+04 -4.088469E+04  3.232613E+05 -4.769760E+04 -7.890757E+03
       383   1  1.336800E+06  3.021243E+05  1.337227E+05  4.863011E+05  3.635549E+04  5.738098E+03
       383   2  1.316237E+06  2.541803E+05  1.004088E+05  4.726699E+05  2.398365E+04  1.217780E+03
       383   3  1.287875E+06  2.563263E+05  8.433080E+04  4.750371E+05  1.128485E+04 -2.440823E+03
       383   4  1.027048E+06  1.801916E+05  4.918593E+04  3.964217E+05  3.624852E+04  5.696932E+03
       383   5  1.029423E+06  1.443340E+05  2.283140E+04  3.925373E+05  2.417353E+04  1.289543E+03
       383   6  1.023946E+06  1.585165E+05  1.348445E+04  4.046502E+05  1.177102E+04 -2.256290E+03
       383   7  7.173885E+05  5.826686E+04 -3.535952E+04  3.065834E+05  3.614160E+04  5.655789E+03
       383   8  7.426888E+05  3.449328E+04 -5.475322E+04  3.124381E+05  2.436332E+04  1.361267E+03
       383   9  7.600832E+05  6.071032E+04 -5.736788E+04  3.342899E+05  1.225697E+04 -2.071840E+03
       383  10  1.336798E+06  3.021239E+05  1.337201E+05  4.863009E+05  2.369619E-10  8.120132E-09
       383  11  1.316236E+06  2.541801E+05  1.004077E+05  4.726699E+05  1.561675E-09  2.364877E-08
       383  12  1.287875E+06  2.563262E+05  8.433055E+04  4.750371E+05  7.405546E-10  1.608979E-08
       383  13  1.027047E+06  1.801912E+05  4.918340E+04  3.964215E+05  1.932056E-09 -3.493714E-09
       383  14  1.029423E+06  1.443338E+05  2.283031E+04  3.925373E+05 -5.790404E-09 -1.616930E-08
       383  15  1.023945E+06  1.585164E+05  1.348418E+04  4.046502E+05 -3.226326E-09  1.011479E-08
       383  16  7.173871E+05  5.826648E+04 -3.536203E+04  3.065832E+05 -1.856558E-09 -7.563542E-09
       383  17  7.426882E+05  3.449311E+04 -5.475434E+04  3.124381E+05 -6.218086E-09 -5.357483E-09
       383  18  7.600830E+05  6.071028E+04 -5.736817E+04  3.342900E+05 -5.652649E-09 -1.337197E-09
       383  19  1.336800E+06  3.021243E+05  1.337227E+05  4.863011E+05 -3.635549E+04 -5.738098E+03
       383  20  1.316237E+06  2.541803E+05  1.004088E+05  4.726699E+05 -2.398365E+04 -1.217780E+03
       383  21  1.287875E+06  2.563263E+05  8.433080E+04  4.750371E+05 -1.128485E+04  2.440823E+03
       383  22  1.027048E+06  1.801916E+05  4.918593E+04  3.964217E+05 -3.624852E+04 -5.696932E+03
       383  23  1.029423E+06  1.443340E+05  2.283140E+04  3.925373E+05 -2.417353E+04 -1.289543E+03
       383  24  1.023946E+06  1.585165E+05  1.348445E+04  4.046502E+05 -1.177102E+04  2.256290E+03
       383  25  7.173885E+05  5.826686E+04 -3.535952E+04  3.065834E+05 -3.614160E+04 -5.655789E+03
       383  26  7.426888E+05  3.449328E+04 -5.475322E+04  3.124381E+05 -2.436332E+04 -1.361267E+03
       383  27  7.600832E+05  6.071032E+04 -5.736788E+04  3.342899E+05 -1.225697E+04  2.071840E+03
       384   1  1.229688E+06  2.403127E+05  6.640993E+04  4.597246E+05  9.258488E+03 -2.419634E+03
       384   2  1.215081E+06  2.183999E+05  5.490670E+04  4.432349E+05  6.168141E+03 -2.632156E+03
       384   3  1.183321E+06  2.193560E+05  4.652264E+04  4.472864E+05  3.053909E+03 -2.783185E+03
       384   4  1.023177E+06  1.614550E+05  1.065153E+04  4.022554E+05  9.530117E+03 -2.316552E+03
       384   5  1.031558E+06  1.486444E+05  5.355975E+03  3.925089E+05  6.461463E+03 -2.520729E+03
       384   6  1.022782E+06  1.586997E+05  3.163376E+03  4.033038E+05  3.368810E+03 -2.663448E+03
       384   7  8.167068E+05  8.259997E+04 -4.511077E+04  3.448033E+05  9.801648E+03 -2.213508E+03
       384   8  8.480669E+05  7.889106E+04 -4.419780E+04  3.417963E+05  6.754690E+03 -2.409339E+03
       384   9  8.622675E+05  9.804502E+04 -4.019818E+04  3.593314E+05  3.683622E+03 -2.543746E+03
       384  10  1.229688E+06  2.403126E+05  6.640976E+04  4.597246E+05  2.026660E-09  1.493345E-08
       384  11  1.215081E+06  2.183998E+05  5.490662E+04  4.432349E+05  3.166848E-09 -1.322387E-09
       384  12  1.183321E+06  2.193560E+05  4.652261E+04  4.472864E+05 -1.603408E-10  6.417599E-09
       384  13  1.023177E+06  1.614550E+05  1.065135E+04  4.022554E+05 -4.873882E-10  7.008277E-09
       384  14  1.031558E+06  1.486444E+05  5.355885E+03  3.925089E+05  7.894703E-09  9.494593E-09
       384  15  1.022782E+06  1.586997E+05  3.163341E+03  4.033038E+05  4.227883E-09  1.280461E-08
       384  16  8.167067E+05  8.259994E+04 -4.511096E+04  3.448033E+05 -3.856154E-09  7.807214E-09
       384  17  8.480668E+05  7.889104E+04 -4.419790E+04  3.417963E+05  3.272630E-09  1.117880E-08
       384  18  8.622675E+05  9.804501E+04 -4.019822E+04  3.593314E+05  2.223729E-09  1.671279E-09
       384  19  1.229688E+06  2.403127E+05  6.640993E+04  4.597246E+05 -9.258488E+03  2.419634E+03
       384  20  1.215081E+06  2.183999E+05  5.490670E+04  4.432349E+05 -6.168141E+03  2.632156E+03
       384  21  1.183321E+06  2.193560E+05  4.652264E+04  4.472864E+05 -3.053909E+03  2.783185E+03
       384  22  1.023177E+06  1.614550E+05  1.065153E+04  4.022554E+05 -9.530117E+03  2.316552E+03
       384  23  1.031558E+06  1.486444E+05  5.355975E+03  3.925089E+05 -6.461463E+03  2.520729E+03
       384  24  1.022782E+06  1.586997E+05  3.163376E+03  4.033038E+05 -3.368810E+03  2.663448E+03
       384  25  8.167068E+05  8.259997E+04 -4.511077E+04  3.448033E+05 -9.801648E+03  2.213508E+03
       384  26  8.480669E+05  7.889106E+04 -4.419780E+04  3.417963E+05 -6.754690E+03  2.409339E+03
       384  27  8.622675E+05  9.804502E+04 -4.019818E+04  3.593314E+05 -3.683622E+03  2.543746E+03
       385   1  1.131460E+06  2.001822E+05  3.176286E+04  4.328566E+05  2.404142E+03 -2.424726E+03
       385   2  1.118266E+06  1.823096E+05  2.490844E+04  4.166677E+05  1.302849E+03 -1.848119E+03
       385   3  1.087314E+06  1.830796E+05  1.878032E+04  4.206854E+05  2.046768E+02 -1.280311E+03
       385   4  1.022815E+06  1.588838E+05  2.509697E+03  4.028046E+05  2.699065E+03 -2.312536E+03
       385   5  1.031673E+06  1.494172E+05  1.530448E+03  3.927565E+05  1.594938E+03 -1.736964E+03
       385   6  1.022774E+06  1.585941E+05  1.279911E+03  4.029151E+05  4.939001E+02 -1.170201E+03
       385   7  9.141816E+05  1.175862E+05 -2.674446E+04  3.727573E+05  2.993930E+03 -2.200368E+03
       385   8  9.450872E+05  1.165252E+05 -2.184821E+04  3.688482E+05  1.886982E+03 -1.625826E+03
       385   9  9.582365E+05  1.341088E+05 -1.622091E+04  3.851464E+05  7.830908E+02 -1.060104E+03
       385  10  1.131460E+06  2.001822E+05  3.176284E+04  4.328566E+05  3.464887E-09  2.539769E-09
       385  11  1.118266E+06  1.823096E+05  2.490843E+04  4.166677E+05 -7.364847E-10 -2.199569E-09
       385  12  1.087314E+06  1.830796E+05  1.878032E+04  4.206854E+05 -8.761449E-09  3.505104E-09
       385  13  1.022815E+06  1.588838E+05  2.509673E+03  4.028046E+05 -1.117306E-09  3.183730E-09
       385  14  1.031673E+06  1.494172E+05  1.530437E+03  3.927565E+05  7.734678E-09  2.029572E-08
       385  15  1.022774E+06  1.585941E+05  1.279908E+03  4.029151E+05 -3.265245E-09  9.966913E-10
       385  16  9.141816E+05  1.175862E+05 -2.674448E+04  3.727573E+05 -9.141960E-10  1.791312E-09
       385  17  9.450872E+05  1.165252E+05 -2.184822E+04  3.688482E+05  3.851341E-09  1.704042E-08
       385  18  9.582365E+05  1.341088E+05 -1.622091E+04  3.851464E+05  4.323686E-09 -2.849287E-09
       385  19  1.131460E+06  2.001822E+05  3.176286E+04  4.328566E+05 -2.404142E+03  2.424726E+03
       385  20  1.118266E+06  1.823096E+05  2.490844E+04  4.166677E+05 -1.302849E+03  1.848119E+03
       385  21  1.087314E+06  1.830796E+05  1.878032E+04  4.206854E+05 -2.046768E+02  1.280311E+03
       385  22  1.022815E+06  1.588838E+05  2.509697E+03  4.028046E+05 -2.699065E+03  2.312536E+03
       385  23  1.031673E+06  1.494172E+05  1.530448E+03  3.927565E+05 -1.594938E+03  1.736964E+03
       385  24  1.022774E+06  1.585941E+05  1.279911E+03  4.029151E+05 -4.939001E+02  1.170201E+03
       385  25  9.141816E+05  1.175862E+05 -2.674446E+04  3.727573E+05 -2.993930E+03  2.200368E+03
       385  26  9.450872E+05  1.165252E+05 -2.184821E+04  3.688482E+05 -1.886982E+03  1.625826E+03
       385  27  9.582365E+05  1.341088E+05 -1.622091E+04  3.851464E+05 -7.830908E+02  1.060104E+03
       386   1  1.037442E+06  1.641044E+05  5.170560E+03  4.069385E+05 -1.997685E+02 -8.629613E+02
       386   2  1.024509E+06  1.467930E+05 -2.423700E+02  3.908870E+05 -1.367766E+03 -3.280910E+02
       386   3  9.941216E+05  1.479004E+05 -4.861914E+03  3.946930E+05 -2.533433E+03  2.008754E+02
       386   4  1.022838E+06  1.585196E+05  1.302681E+03  4.028474E+05  9.003530E+01 -7.526142E+02
       386   5  1.031592E+06  1.494905E+05  1.671143E+03  3.928499E+05 -1.079975E+03 -2.185154E+02
       386   6  1.022890E+06  1.588806E+05  2.834562E+03  4.027097E+05 -2.247687E+03  3.096689E+02
       386   7  1.008235E+06  1.529347E+05 -2.565215E+03  3.987563E+05  3.798316E+02 -6.422700E+02
       386   8  1.038675E+06  1.521880E+05  3.584649E+03  3.948128E+05 -7.921812E+02 -1.089385E+02
       386   9  1.051660E+06  1.698608E+05  1.053095E+04  4.107267E+05 -1.961928E+03  4.184678E+02
       386  10  1.037442E+06  1.641044E+05  5.170559E+03  4.069385E+05 -7.933289E-10 -6.448447E-09
       386  11  1.024509E+06  1.467930E+05 -2.423737E+02  3.908870E+05 -3.224946E-09 -2.340628E-08
       386  12  9.941216E+05  1.479004E+05 -4.861926E+03  3.946930E+05 -1.232771E-08 -2.070154E-08
       386  13  1.022838E+06  1.585196E+05  1.302680E+03  4.028474E+05 -3.079613E-09  2.864118E-08
       386  14  1.031592E+06  1.494905E+05  1.671140E+03  3.928499E+05  3.841895E-09  8.683510E-09
       386  15  1.022890E+06  1.588806E+05  2.834552E+03  4.027097E+05 -5.364397E-10  3.514644E-09
       386  16  1.008235E+06  1.529347E+05 -2.565216E+03  3.987563E+05  1.990249E-09  9.851618E-09
       386  17  1.038675E+06  1.521880E+05  3.584648E+03  3.948128E+05  4.889994E-09 -1.784002E-09
       386  18  1.051660E+06  1.698608E+05  1.053094E+04  4.107267E+05  9.609665E-09 -1.011605E-09
       386  19  1.037442E+06  1.641044E+05  5.170560E+03  4.069385E+05  1.997685E+02  8.629613E+02
       386  20  1.024509E+06  1.467930E+05 -2.423700E+02  3.908870E+05  1.367766E+03  3.280910E+02
       386  21  9.941216E+05  1.479004E+05 -4.861914E+03  3.946930E+05  2.533433E+03 -2.008754E+02
       386  22  1.022838E+06  1.585196E+05  1.302681E+03  4.028474E+05 -9.003530E+01  7.526142E+02
       386  23  1.031592E+06  1.494905E+05  1.671143E+03  3.928499E+05  1.079975E+03  2.185154E+02
       386  24  1.022890E+06  1.588806E+05  2.834562E+03  4.027097E+05  2.247687E+03 -3.096689E+02
       386  25  1.008235E+06  1.529347E+05 -2.565215E+03  3.987563E+05 -3.798316E+02  6.422700E+02
       386  26  1.038675E+06  1.521880E+05  3.584649E+03  3.948128E+05  7.921812E+02  1.089385E+02
       386  27  1.051660E+06  1.698608E+05  1.053095E+04  4.107267E+05  1.961928E+03 -4.184678E+02
       387   1  9.439056E+05  1.287949E+05 -1.777732E+04  3.816306E+05 -3.274731E+03  5.023895E+02
       387   2  9.303213E+05  1.103430E+05 -2.114090E+04  3.648052E+05 -6.735356E+03  1.800941E+02
       387   3  9.006425E+05  1.144530E+05 -2.097843E+04  3.673763E+05 -1.017378E+04 -1.995288E+02
       387   4  1.023003E+06  1.584987E+05  3.593236E+03  4.031026E+05 -2.971940E+03  6.176527E+02
       387   5  1.031278E+06  1.488086E+05  6.138758E+03  3.927977E+05 -6.452446E+03  2.877338E+02
       387   6  1.023461E+06  1.616838E+05  1.222574E+04  4.018892E+05 -9.910875E+03 -9.955745E+01
       387   7  1.102107E+06  1.882029E+05  2.496328E+04  4.245771E+05 -2.669106E+03  7.329320E+02
       387   8  1.132244E+06  1.872749E+05  3.341754E+04  4.207944E+05 -6.169485E+03  3.953930E+02
       387   9  1.146294E+06  2.089156E+05  4.542858E+04  4.364082E+05 -9.647909E+03  4.364335E-01
       387  10  9.439056E+05  1.287949E+05 -1.777734E+04  3.816306E+05 -8.231477E-09  1.481184E-09
       387  11  9.303212E+05  1.103430E+05 -2.114099E+04  3.648052E+05 -2.241392E-09 -1.709172E-08
       387  12  9.006424E+05  1.144530E+05 -2.097863E+04  3.673763E+05 -4.920425E-09 -1.716732E-08
       387  13  1.023003E+06  1.584987E+05  3.593219E+03  4.031026E+05 -7.115477E-10  6.090572E-09
       387  14  1.031277E+06  1.488086E+05  6.138679E+03  3.927977E+05 -6.397422E-09  1.659866E-08
       387  15  1.023461E+06  1.616838E+05  1.222556E+04  4.018892E+05 -3.203208E-09 -7.265598E-09
       387  16  1.102107E+06  1.882029E+05  2.496326E+04  4.245771E+05  8.174981E-09  1.586951E-08
       387  17  1.132244E+06  1.872749E+05  3.341747E+04  4.207944E+05 -2.498483E-09  3.875953E-09
       387  18  1.146294E+06  2.089156E+05  4.542840E+04  4.364082E+05 -3.104323E-09  6.711939E-09
       387  19  9.439056E+05  1.287949E+05 -1.777732E+04  3.816306E+05  3.274731E+03 -5.023895E+02
       387  20  9.303213E+05  1.103430E+05 -2.114090E+04  3.648052E+05  6.735356E+03 -1.800941E+02
       387  21  9.006425E+05  1.144530E+05 -2.097843E+04  3.673763E+05  1.017378E+04  1.995288E+02
       387  22  1.023003E+06  1.584987E+05  3.593236E+03  4.031026E+05  2.971940E+03 -6.176527E+02
       387  23  1.031278E+06  1.488086E+05  6.138758E+03  3.927977E+05  6.452446E+03 -2.877338E+02
       387  24  1.023461E+06  1.616838E+05  1.222574E+04  4.018892E+05  9.910875E+03  9.955745E+01
       387  25  1.102107E+06  1.882029E+05  2.496328E+04  4.245771E+05  2.669106E+03 -7.329320E+02
       387  26  1.132244E+06  1.872749E+05  3.341754E+04  4.207944E+05  6.169485E+03 -3.953930E+02
       387  27  1.146294E+06  2.089156E+05  4.542858E+04  4.364082E+05  9.647909E+03 -4.364334E-01
       388   1  8.472953E+05  9.346399E+04 -3.192620E+04  3.582317E+05 -1.284878E+04 -4.993616E+02
       388   2  8.307261E+05  6.769625E+04 -2.741932E+04  3.372119E+05 -2.678075E+04 -4.716062E+03
       388   3  8.095025E+05  9.481950E+04 -3.580972E+03  3.293650E+05 -4.045567E+04 -9.606381E+03
       388   4  1.024518E+06  1.581107E+05  1.547835E+04  4.044288E+05 -1.241843E+04 -3.356907E+02
       388   5  1.028614E+06  1.441028E+05  2.623818E+04  3.931049E+05 -2.658214E+04 -4.640750E+03
       388   6  1.028097E+06  1.830242E+05  5.650806E+04  3.949539E+05 -4.048935E+04 -9.619732E+03
       388   7  1.201771E+06  2.227587E+05  6.288007E+04  4.506373E+05 -1.198796E+04 -1.719730E+02
       388   8  1.226540E+06  2.205122E+05  7.989216E+04  4.490140E+05 -2.638345E+04 -4.565409E+03
       388   9  1.246738E+06  2.712337E+05  1.165928E+05  4.605643E+05 -4.052304E+04 -9.633087E+03
       388  10  8.472952E+05  9.346395E+04 -3.192651E+04  3.582317E+05 -3.418603E-10 -1.017837E-08
       388  11  8.307254E+05  6.769603E+04 -2.742070E+04  3.372118E+05 -5.424962E-09  1.166113E-08
       388  12  8.095007E+05  9.481896E+04 -3.584216E+03  3.293647E+05 -3.820641E-09  8.018950E-09
       388  13  1.024518E+06  1.581107E+05  1.547806E+04  4.044287E+05  2.787248E-09 -1.176279E-08
       388  14  1.028614E+06  1.441026E+05  2.623682E+04  3.931048E+05 -3.059928E-09  5.214214E-09
       388  15  1.028095E+06  1.830236E+05  5.650481E+04  3.949536E+05  2.084527E-10  9.266082E-10
       388  16  1.201771E+06  2.227587E+05  6.287980E+04  4.506373E+05  9.346987E-10  1.009253E-08
       388  17  1.226539E+06  2.205120E+05  7.989082E+04  4.490139E+05  7.911628E-09 -1.866003E-08
       388  18  1.246736E+06  2.712331E+05  1.165896E+05  4.605640E+05  3.019374E-09 -7.744169E-09
       388  19  8.472953E+05  9.346399E+04 -3.192620E+04  3.582317E+05  1.284878E+04  4.993616E+02
       388  20  8.307261E+05  6.769625E+04 -2.741932E+04  3.372119E+05  2.678075E+04  4.716062E+03
       388  21  8.095025E+05  9.481950E+04 -3.580972E+03  3.293650E+05  4.045567E+04  9.606381E+03
       388  22  1.024518E+06  1.581107E+05  1.547835E+04  4.044288E+05  1.241843E+04  3.356907E+02
       388  23  1.028614E+06  1.441028E+05  2.623818E+04  3.931049E+05  2.658214E+04  4.640750E+03
       388  24  1.028097E+06  1.830242E+05  5.650806E+04  3.949539E+05  4.048935E+04  9.619732E+03
       388  25  1.201771E+06  2.227587E+05  6.288007E+04  4.506373E+05  1.198796E+04  1.719730E+02
       388  26  1.226540E+06  2.205122E+05  7.989216E+04  4.490140E+05  2.638345E+04  4.565409E+03
       388  27  1.246738E+06  2.712337E+05  1.165928E+05  4.605643E+05  4.052304E+04  9.633087E+03
       389   1  7.436785E+05  6.225949E+04 -6.188646E+03  3.521137E+05 -5.275085E+04 -1.251361E+04
       389   2  7.121209E+05 -1.348223E+04  2.923963E+04  3.047894E+05 -1.121653E+05 -3.355304E+04
       389   3  7.650403E+05  1.894523E+05  1.793440E+05  2.136731E+05 -1.691446E+05 -6.100160E+04
       389   4  1.036509E+06  1.534579E+05  6.896245E+04  4.125866E+05 -5.123837E+04 -1.193743E+04
       389   5  1.007860E+06  1.101627E+05  1.111460E+05  3.979724E+05 -1.128454E+05 -3.381394E+04
       389   6  1.064069E+06  3.458955E+05  2.696984E+05  3.395792E+05 -1.720181E+05 -6.210554E+04
       389   7  1.329423E+06  2.446557E+05  1.441070E+05  4.730822E+05 -4.972508E+04 -1.136107E+04
       389   8  1.303682E+06  2.338181E+05  1.930440E+05  4.911969E+05 -1.135259E+05 -3.407500E+04
       389   9  1.363185E+06  5.023701E+05  3.600433E+05  4.655469E+05 -1.748931E+05 -6.321054E+04
       389  10  7.436755E+05  6.225858E+04 -6.194162E+03  3.521131E+05  8.404943E-09  1.221980E-08
       389  11  7.121072E+05 -1.348680E+04  2.921391E+04  3.047864E+05  4.383498E-09  2.850736E-09
       389  12  7.650086E+05  1.894406E+05  1.792833E+05  2.136648E+05 -2.678247E-09 -5.472122E-09
       389  13  1.036506E+06  1.534571E+05  6.895726E+04  4.125861E+05 -7.825134E-10  6.419769E-10
       389  14  1.007846E+06  1.101581E+05  1.111200E+05  3.979693E+05  3.356904E-10 -1.652060E-08
       389  15  1.064036E+06  3.458834E+05  2.696356E+05  3.395706E+05  1.145641E-09  6.365342E-09
       389  16  1.329420E+06  2.446549E+05  1.441021E+05  4.730817E+05 -1.318900E-08 -2.090824E-08
       389  17  1.303668E+06  2.338134E+05  1.930176E+05  4.911938E+05 -3.222075E-09 -1.094440E-08
       389  18  1.363152E+06  5.023576E+05  3.599785E+05  4.655380E+05  2.948879E-10 -6.216138E-09
       389  19  7.436785E+05  6.225949E+04 -6.188646E+03  3.521137E+05  5.275085E+04  1.251361E+04
       389  20  7.121209E+05 -1.348223E+04  2.923963E+04  3.047894E+05  1.121653E+05  3.355304E+04
       389  21  7.650403E+05  1.894523E+05  1.793440E+05  2.136731E+05  1.691446E+05  6.100160E+04
       389  22  1.036509E+06  1.534579E+05  6.896245E+04  4.125866E+05  5.123837E+04  1.193743E+04
       389  23  1.007860E+06  1.101627E+05  1.111460E+05  3.979724E+05  1.128454E+05  3.381394E+04
       389  24  1.064069E+06  3.458955E+05  2.696984E+05  3.395792E+05  1.720181E+05  6.210554E+04
       389  25  1.329423E+06  2.446557E+05  1.441070E+05  4.730822E+05  4.972508E+04  1.136107E+04
       389  26  1.303682E+06  2.338181E+05  1.930440E+05  4.911969E+05  1.135259E+05  3.407500E+04
       389  27  1.363185E+06  5.023701E+05  3.600433E+05  4.655469E+05  1.748931E+05  6.321054E+04
       390   1 -1.959518E+05 -1.117427E+06 -2.018267E+05  8.478407E+04 -5.093385E+03 -2.590552E+04
       390   2 -1.307109E+05 -9.736839E+05 -1.479354E+05  7.464782E+03 -1.380547E+04 -1.269274E+04
       390   3 -1.008690E+05 -8.388941E+05 -1.112047E+05  7.518399E+04 -8.406614E+03  5.598791E+02
       390   4 -2.515895E+04 -4.341070E+05 -3.204345E+04  7.730046E+04 -5.109667E+03 -2.026471E+04
       390   5  4.669381E+03 -4.300603E+05 -1.515964E+04  4.821900E+03 -1.380615E+04 -1.211633E+04
       390   6 -2.911656E+00 -4.340950E+05 -1.190357E+04  7.737512E+04 -8.396919E+03 -3.931228E+03
       390   7  1.455990E+05  2.496373E+05  1.377050E+05  6.980889E+04 -5.126077E+03 -1.461767E+04
       390   8  1.400278E+05  1.138331E+05  1.175946E+05  2.176870E+03 -1.380683E+04 -1.153942E+04
       390   9  1.008511E+05 -2.914644E+04  8.738556E+04  7.956776E+04 -8.387259E+03 -8.425260E+03
       390  10 -1.959520E+05 -1.117428E+06 -2.018280E+05  8.478397E+04 -4.934048E-10 -2.663252E-09
       390  11 -1.307112E+05 -9.736841E+05 -1.479361E+05  7.464641E+03 -1.719195E-09  5.558564E-09
       390  12 -1.008691E+05 -8.388941E+05 -1.112048E+05  7.518399E+04  2.940720E-09 -4.068925E-09
       390  13 -2.515909E+04 -4.341075E+05 -3.204427E+04  7.730038E+04  3.569705E-10 -1.318802E-08
       390  14  4.669137E+03 -4.300605E+05 -1.516027E+04  4.821766E+03 -4.278977E-09 -1.557569E-09
       390  15 -2.991500E+00 -4.340950E+05 -1.190373E+04  7.737510E+04  3.779147E-10  2.242201E-09
       390  16  1.455989E+05  2.496371E+05  1.377045E+05  6.980883E+04 -1.932035E-10  2.664372E-09
       390  17  1.400276E+05  1.138329E+05  1.175940E+05  2.176741E+03  1.619122E-09  1.105218E-08
       390  18  1.008510E+05 -2.914654E+04  8.738530E+04  7.956771E+04 -1.274977E-09  3.738334E-09
       390  19 -1.959518E+05 -1.117427E+06 -2.018267E+05  8.478407E+04  5.093385E+03  2.590552E+04
       390  20 -1.307109E+05 -9.736839E+05 -1.479354E+05  7.464782E+03  1.380547E+04  1.269274E+04
       390  21 -1.008690E+05 -8.388941E+05 -1.112047E+05  7.518399E+04  8.406614E+03 -5.598791E+02
       390  22 -2.515895E+04 -4.341070E+05 -3.204345E+04  7.730046E+04  5.109667E+03  2.026471E+04
       390  23  4.669381E+03 -4.300603E+05 -1.515964E+04  4.821900E+03  1.380615E+04  1.211633E+04
       390  24 -2.911655E+00 -4.340950E+05 -1.190357E+04  7.737512E+04  8.396919E+03  3.931228E+03
       390  25  1.455990E+05  2.496373E+05  1.377050E+05  6.980889E+04  5.126077E+03  1.461767E+04
       390  26  1.400278E+05  1.138331E+05  1.175946E+05  2.176870E+03  1.380683E+04  1.153942E+04
       390  27  1.008511E+05 -2.914644E+04  8.738556E+04  7.956776E+04  8.387259E+03  8.425260E+03
       391   1 -3.157258E+04 -5.469110E+05 -3.911882E+04  7.917913E+04 -3.083030E+03 -5.304524E+02
       391   2  8.278083E+03 -4.052770E+05 -4.177929E+03  4.323293E+03  5.972138E+02  4.917170E+03
       391   3  3.481737E+04 -2.668972E+05  2.404012E+04  7.557402E+04  4.183442E+03  1.036610E+04
       391   4 -3.211860E+03 -4.329823E+05 -1.134212E+04  7.759161E+04 -3.080366E+03 -1.875589E+03
       391   5  1.785882E+03 -4.313437E+05 -1.055555E+04  4.534485E+03  5.998828E+02  3.605868E+03
       391   6 -6.532599E+03 -4.329836E+05 -1.651426E+04  7.758470E+04  4.186096E+03  9.087418E+03
       391   7  2.514791E+04 -3.190419E+05  1.643364E+04  7.600382E+04 -3.077695E+03 -3.220972E+03
       391   8 -4.706368E+03 -4.574098E+05 -1.693322E+04  4.745669E+03  6.025509E+02  2.294621E+03
       391   9 -4.788459E+04 -5.990449E+05 -5.707064E+04  7.959485E+04  4.188743E+03  7.809076E+03
       391  10 -3.157259E+04 -5.469110E+05 -3.911884E+04  7.917912E+04  1.852142E-09 -2.991929E-09
       391  11  8.278076E+03 -4.052770E+05 -4.177976E+03  4.323290E+03 -1.684994E-10  5.239833E-09
       391  12  3.481732E+04 -2.668973E+05  2.403988E+04  7.557398E+04  3.666734E-10 -4.201262E-10
       391  13 -3.211871E+03 -4.329824E+05 -1.134215E+04  7.759161E+04  1.267364E-09 -6.708168E-09
       391  14  1.785878E+03 -4.313437E+05 -1.055558E+04  4.534484E+03  7.345011E-10  1.340636E-09
       391  15 -6.532640E+03 -4.329837E+05 -1.651445E+04  7.758466E+04  1.067853E-09 -5.395486E-09
       391  16  2.514790E+04 -3.190419E+05  1.643360E+04  7.600381E+04 -5.694696E-10  4.036896E-09
       391  17 -4.706370E+03 -4.574098E+05 -1.693323E+04  4.745668E+03 -4.817583E-10  7.879555E-09
       391  18 -4.788463E+04 -5.990449E+05 -5.707079E+04  7.959482E+04 -9.940057E-10  8.212838E-09
       391  19 -3.157258E+04 -5.469110E+05 -3.911882E+04  7.917913E+04  3.083030E+03  5.304524E+02
       391  20  8.278083E+03 -4.052770E+05 -4.177929E+03  4.323293E+03 -5.972138E+02 -4.917170E+03
       391  21  3.481737E+04 -2.668972E+05  2.404012E+04  7.557402E+04 -4.183442E+03 -1.036610E+04
       391  22 -3.211860E+03 -4.329823E+05 -1.134212E+04  7.759161E+04  3.080366E+03  1.875589E+03
       391  23  1.785882E+03 -4.313437E+05 -1.055555E+04  4.534485E+03 -5.998828E+02 -3.605868E+03
       391  24 -6.532599E+03 -4.329836E+05 -1.651426E+04  7.758470E+04 -4.186096E+03 -9.087418E+03
       391  25  2.514791E+04 -3.190419E+05  1.643364E+04  7.600382E+04  3.077695E+03  3.220972E+03
       391  26 -4.706368E+03 -4.574098E+05 -1.693322E+04  4.745669E+03 -6.025509E+02 -2.294621E+03
       391  27 -4.788459E+04 -5.990449E+05 -5.707064E+04  7.959485E+04 -4.188743E+03 -7.809076E+03
       392   1  1.152881E+05  2.088427E+04  9.286181E+04  8.205621E+04  9.605619E+03  1.690126E+04
       392   2  1.575130E+05  1.681278E+05  1.170976E+05  4.629145E+02  1.503970E+04  2.686425E+04
       392   3  1.335308E+05  2.993277E+05  1.186643E+05  6.362684E+04  5.471197E+03  3.678850E+04
       392   4  1.500478E+03 -4.360896E+05 -1.914099E+04  7.734310E+04  9.615969E+03  1.222848E+04
       392   5  9.249467E+03 -4.275905E+05 -2.831399E+04  4.879242E+03  1.503884E+04  2.758073E+04
       392   6 -5.017801E+04 -4.361080E+05 -6.391693E+04  7.718301E+04  5.453083E+03  4.289180E+04
       392   7 -1.123025E+05 -8.928731E+05 -1.311590E+05  7.263355E+04  9.626394E+03  7.559124E+03
       392   8 -1.390402E+05 -1.022985E+06 -1.737514E+05  9.291538E+03  1.503798E+04  2.829651E+04
       392   9 -2.339268E+05 -1.171052E+06 -2.465384E+05  9.072347E+04  5.435227E+03  4.898786E+04
       392  10  1.152879E+05  2.088394E+04  9.286110E+04  8.205608E+04  1.328528E-09 -1.186022E-09
       392  11  1.575126E+05  1.681269E+05  1.170958E+05  4.625892E+02 -1.309419E-09  3.605465E-09
       392  12  1.335304E+05  2.993262E+05  1.186617E+05  6.362668E+04 -5.852085E-10  5.339437E-10
       392  13  1.500338E+03 -4.360898E+05 -1.914145E+04  7.734300E+04 -9.496865E-10 -5.066970E-09
       392  14  9.249020E+03 -4.275914E+05 -2.831584E+04  4.878907E+03  2.864006E-09  4.183744E-09
       392  15 -5.017853E+04 -4.361100E+05 -6.392044E+04  7.718282E+04 -8.279120E-10 -5.139579E-09
       392  16 -1.123026E+05 -8.928731E+05 -1.311593E+05  7.263349E+04  2.162188E-10  7.727971E-09
       392  17 -1.390407E+05 -1.022986E+06 -1.737534E+05  9.291196E+03  2.635569E-09  1.111621E-08
       392  18 -2.339274E+05 -1.171055E+06 -2.465429E+05  9.072325E+04  3.004138E-10  5.886096E-09
       392  19  1.152881E+05  2.088427E+04  9.286181E+04  8.205621E+04 -9.605619E+03 -1.690126E+04
       392  20  1.575130E+05  1.681278E+05  1.170976E+05  4.629145E+02 -1.503970E+04 -2.686425E+04
       392  21  1.335308E+05  2.993277E+05  1.186643E+05  6.362684E+04 -5.471197E+03 -3.678850E+04
       392  22  1.500478E+03 -4.360896E+05 -1.914099E+04  7.734310E+04 -9.615969E+03 -1.222848E+04
       392  23  9.249467E+03 -4.275905E+05 -2.831399E+04  4.879242E+03 -1.503884E+04 -2.758073E+04
       392  24 -5.017801E+04 -4.361080E+05 -6.391693E+04  7.718301E+04 -5.453083E+03 -4.289180E+04
       392  25 -1.123025E+05 -8.928731E+05 -1.311590E+05  7.263355E+04 -9.626394E+03 -7.559124E+03
       392  26 -1.390402E+05 -1.022985E+06 -1.737514E+05  9.291538E+03 -1.503798E+04 -2.829651E+04
       392  27 -2.339268E+05 -1.171052E+06 -2.465384E+05  9.072347E+04 -5.435227E+03 -4.898786E+04
       393   1  8.544359E+05 -3.068775E+04 -2.032297E+04 -1.714364E+03  2.904705E+04  1.652572E+03
       393   2  8.620586E+05 -6.856783E+04 -4.158470E+04  3.978805E+03  1.964930E+04  4.692132E+03
       393   3  8.830286E+05 -5.915899E+04 -4.485160E+04 -1.058053E+04  1.025618E+04  3.903613E+03
       393   4  1.114961E+06  3.429531E+04  4.445598E+04 -7.565261E+03  3.036837E+04  1.654158E+03
       393   5  1.108211E+06 -7.260788E+03  1.908325E+04  2.585824E+03  1.995512E+04  4.692323E+03
       393   6  1.114979E+06 -1.362014E+03  1.240423E+04 -7.514975E+03  9.546725E+03  3.902940E+03
       393   7  1.375547E+06  9.927343E+04  1.092299E+05 -1.341863E+04  3.169025E+04  1.655719E+03
       393   8  1.354419E+06  5.404175E+04  7.974672E+04  1.192273E+03  2.026107E+04  4.692513E+03
       393   9  1.346979E+06  5.643098E+04  6.965609E+04 -4.448281E+03  8.837007E+03  3.902260E+03
       393  10  8.544350E+05 -3.068798E+04 -2.032456E+04 -1.714403E+03 -2.346837E-10 -2.688708E-12
       393  11  8.620582E+05 -6.856796E+04 -4.158546E+04  3.978731E+03  7.459017E-10 -4.337111E-11
       393  12  8.830285E+05 -5.915903E+04 -4.485183E+04 -1.058057E+04 -5.145517E-10 -7.511807E-11
       393  13  1.114960E+06  3.429506E+04  4.445425E+04 -7.565302E+03 -6.219236E-14 -9.810500E-11
       393  14  1.108211E+06 -7.260918E+03  1.908246E+04  2.585748E+03 -3.266363E-10 -1.940931E-10
       393  15  1.114979E+06 -1.362055E+03  1.240403E+04 -7.515005E+03  1.084721E-10  5.667100E-11
       393  16  1.375546E+06  9.927316E+04  1.092280E+05 -1.341868E+04 -5.427413E-10 -1.449248E-10
       393  17  1.354418E+06  5.404162E+04  7.974591E+04  1.192197E+03 -1.061955E-09 -1.585947E-10
       393  18  1.346978E+06  5.643095E+04  6.965591E+04 -4.448308E+03 -5.192399E-10  2.153126E-11
       393  19  8.544359E+05 -3.068775E+04 -2.032297E+04 -1.714364E+03 -2.904705E+04 -1.652572E+03
       393  20  8.620586E+05 -6.856783E+04 -4.158470E+04  3.978805E+03 -1.964930E+04 -4.692132E+03
       393  21  8.830286E+05 -5.915899E+04 -4.485160E+04 -1.058053E+04 -1.025618E+04 -3.903613E+03
       393  22  1.114961E+06  3.429531E+04  4.445598E+04 -7.565261E+03 -3.036837E+04 -1.654158E+03
       393  23  1.108211E+06 -7.260788E+03  1.908325E+04  2.585824E+03 -1.995512E+04 -4.692323E+03
       393  24  1.114979E+06 -1.362014E+03  1.240423E+04 -7.514975E+03 -9.546725E+03 -3.902940E+03
       393  25  1.375547E+06  9.927343E+04  1.092299E+05 -1.341863E+04 -3.169025E+04 -1.655719E+03
       393  26  1.354419E+06  5.404175E+04  7.974672E+04  1.192273E+03 -2.026107E+04 -4.692513E+03
       393  27  1.346979E+06  5.643098E+04  6.965609E+04 -4.448281E+03 -8.837007E+03 -3.902260E+03
       394   1  9.242178E+05 -4.213471E+04 -3.625323E+04 -6.114295E+03  7.459751E+03  3.042277E+03
       394   2  9.351317E+05 -4.492992E+04 -3.851793E+04  1.815932E+03  4.984033E+03  3.050829E+03
       394   3  9.481678E+05 -4.112264E+04 -3.749154E+04 -7.268183E+03  2.508354E+03  2.612281E+03
       394   4  1.112452E+06  4.765469E+03  1.023042E+04 -6.813520E+03  7.523114E+03  3.042256E+03
       394   5  1.111383E+06 -1.021645E+03  4.971305E+03  1.695281E+03  4.928532E+03  3.050742E+03
       394   6  1.112455E+06 -1.866713E+02  3.084999E+03 -6.809947E+03  2.334038E+03  2.612178E+03
       394   7  1.300719E+06  5.166301E+04  5.671146E+04 -7.512963E+03  7.586495E+03  3.042236E+03
       394   8  1.287662E+06  4.288432E+04  4.845824E+04  1.574592E+03  4.873016E+03  3.050655E+03
       394   9  1.276767E+06  4.074729E+04  4.365954E+04 -6.351593E+03  2.159676E+03  2.612076E+03
       394  10  9.242177E+05 -4.213473E+04 -3.625335E+04 -6.114313E+03 -1.725946E-11  1.030785E-10
       394  11  9.351317E+05 -4.492994E+04 -3.851799E+04  1.815920E+03  2.836363E-10  1.779736E-10
       394  12  9.481677E+05 -4.112265E+04 -3.749156E+04 -7.268188E+03 -1.735570E-10 -4.675234E-12
       394  13  1.112452E+06  4.765444E+03  1.023030E+04 -6.813538E+03 -5.884705E-11  3.621359E-11
       394  14  1.111383E+06 -1.021662E+03  4.971242E+03  1.695269E+03 -2.398835E-10 -1.962354E-11
       394  15  1.112455E+06 -1.866801E+02  3.084976E+03 -6.809952E+03  6.263867E-11 -3.371313E-11
       394  16  1.300719E+06  5.166298E+04  5.671133E+04 -7.512981E+03 -3.574172E-10  1.896112E-11
       394  17  1.287662E+06  4.288430E+04  4.845817E+04  1.574580E+03 -5.190007E-10 -1.704529E-10
       394  18  1.276767E+06  4.074728E+04  4.365952E+04 -6.351598E+03 -3.604112E-10 -1.625632E-10
       394  19  9.242178E+05 -4.213471E+04 -3.625323E+04 -6.114295E+03 -7.459751E+03 -3.042277E+03
       394  20  9.351317E+05 -4.492992E+04 -3.851793E+04  1.815932E+03 -4.984033E+03 -3.050829E+03
       394  21  9.481678E+05 -4.112264E+04 -3.749154E+04 -7.268183E+03 -2.508354E+03 -2.612281E+03
       394  22  1.112452E+06  4.765469E+03  1.023042E+04 -6.813520E+03 -7.523114E+03 -3.042256E+03
       394  23  1.111383E+06 -1.021645E+03  4.971305E+03  1.695281E+03 -4.928532E+03 -3.050742E+03
       394  24  1.112455E+06 -1.866713E+02  3.084999E+03 -6.809947E+03 -2.334038E+03 -2.612178E+03
       394  25  1.300719E+06  5.166301E+04  5.671146E+04 -7.512963E+03 -7.586495E+03 -3.042236E+03
       394  26  1.287662E+06  4.288432E+04  4.845824E+04  1.574592E+03 -4.873016E+03 -3.050655E+03
       394  27  1.276767E+06  4.074729E+04  4.365954E+04 -6.351593E+03 -2.159676E+03 -2.612076E+03
       395   1  9.851022E+05 -3.097359E+04 -2.883909E+04 -6.239065E+03  1.916721E+03  2.310212E+03
       395   2  9.953100E+05 -2.918541E+04 -2.742864E+04  1.083314E+03  1.242809E+03  1.981434E+03
       395   3  1.005896E+06 -2.647244E+04 -2.533662E+04 -6.371700E+03  5.687613E+02  1.625546E+03
       395   4  1.112067E+06  6.513908E+02  2.468323E+03 -6.314067E+03  1.833696E+03  2.310161E+03
       395   5  1.111877E+06 -1.456665E+02  1.338666E+03  1.074621E+03  1.152495E+03  1.981399E+03
       395   6  1.112067E+06 -1.672701E+01  8.955720E+02 -6.313909E+03  4.711691E+02  1.625530E+03
       395   7  1.239046E+06  3.227517E+04  3.377454E+04 -6.389086E+03  1.750653E+03  2.310110E+03
       395   8  1.228456E+06  2.889306E+04  3.010496E+04  1.065927E+03  1.062163E+03  1.981364E+03
       395   9  1.218247E+06  2.643815E+04  2.712693E+04 -6.256109E+03  3.735602E+02  1.625514E+03
       395  10  9.851022E+05 -3.097360E+04 -2.883911E+04 -6.239068E+03 -5.414253E-11  2.815598E-11
       395  11  9.953100E+05 -2.918541E+04 -2.742865E+04  1.083312E+03 -2.250502E-11  2.129852E-10
       395  12  1.005896E+06 -2.647245E+04 -2.533663E+04 -6.371700E+03 -7.419776E-12  2.795391E-10
       395  13  1.112067E+06  6.513841E+02  2.468307E+03 -6.314071E+03  2.538592E-11  2.963331E-11
       395  14  1.111877E+06 -1.456710E+02  1.338656E+03  1.074619E+03 -1.862114E-11 -3.711868E-11
       395  15  1.112067E+06 -1.672991E+01  8.955666E+02 -6.313910E+03 -8.525703E-12  1.527664E-10
       395  16  1.239046E+06  3.227517E+04  3.377453E+04 -6.389089E+03 -1.027541E-10  1.036852E-10
       395  17  1.228456E+06  2.889306E+04  3.010495E+04  1.065925E+03  3.464319E-11 -6.792208E-11
       395  18  1.218247E+06  2.643815E+04  2.712693E+04 -6.256110E+03  1.237401E-10  2.488602E-10
       395  19  9.851022E+05 -3.097359E+04 -2.883909E+04 -6.239065E+03 -1.916721E+03 -2.310212E+03
       395  20  9.953100E+05 -2.918541E+04 -2.742864E+04  1.083314E+03 -1.242809E+03 -1.981434E+03
       395  21  1.005896E+06 -2.647244E+04 -2.533662E+04 -6.371700E+03 -5.687613E+02 -1.625546E+03
       395  22  1.112067E+06  6.513908E+02  2.468323E+03 -6.314067E+03 -1.833696E+03 -2.310161E+03
       395  23  1.111877E+06 -1.456665E+02  1.338666E+03  1.074621E+03 -1.152495E+03 -1.981399E+03
       395  24  1.112067E+06 -1.672701E+01  8.955720E+02 -6.313909E+03 -4.711691E+02 -1.625530E+03
       395  25  1.239046E+06  3.227517E+04  3.377454E+04 -6.389086E+03 -1.750653E+03 -2.310110E+03
       395  26  1.228456E+06  2.889306E+04  3.010496E+04  1.065927E+03 -1.062163E+03 -1.981364E+03
       395  27  1.218247E+06  2.643815E+04  2.712693E+04 -6.256109E+03 -3.735602E+02 -1.625514E+03
       396   1  1.038923E+06 -1.811502E+04 -1.723596E+04 -5.989286E+03  4.112769E+02  1.416158E+03
       396   2  1.048298E+06 -1.588966E+04 -1.507430E+04  7.018754E+02  8.951111E+01  1.078375E+03
       396   3  1.057776E+06 -1.346683E+04 -1.265166E+04 -6.010851E+03 -2.323341E+02  7.535574E+02
       396   4  1.112007E+06  8.563881E+01  7.699665E+02 -6.008747E+03  3.202959E+02  1.416154E+03
       396   5  1.111956E+06 -3.121364E+01  6.358574E+02  6.931560E+02  1.924819E+00  1.078381E+03
       396   6  1.112007E+06  4.878152E+01  7.603338E+02 -6.008743E+03 -3.165208E+02  7.535718E+02
       396   7  1.185096E+06  1.828590E+04  1.877550E+04 -6.028210E+03  2.293042E+02  1.416150E+03
       396   8  1.175617E+06  1.582693E+04  1.634572E+04  6.844357E+02 -8.567043E+01  1.078386E+03
       396   9  1.166240E+06  1.356417E+04  1.417211E+04 -6.006635E+03 -4.007148E+02  7.535862E+02
       396  10  1.038923E+06 -1.811502E+04 -1.723596E+04 -5.989286E+03  9.790500E-12  2.361217E-10
       396  11  1.048298E+06 -1.588966E+04 -1.507431E+04  7.018754E+02 -8.803940E-11  5.149893E-13
       396  12  1.057776E+06 -1.346683E+04 -1.265167E+04 -6.010851E+03  6.203362E-11 -3.191162E-11
       396  13  1.112007E+06  8.563663E+01  7.699626E+02 -6.008747E+03  6.706669E-11  1.691431E-10
       396  14  1.111956E+06 -3.121489E+01  6.358552E+02  6.931560E+02 -8.132893E-11  9.505258E-11
       396  15  1.112007E+06  4.878088E+01  7.603326E+02 -6.008743E+03  5.288660E-12 -1.734901E-10
       396  16  1.185096E+06  1.828590E+04  1.877549E+04 -6.028210E+03  5.681302E-11 -3.299406E-11
       396  17  1.175617E+06  1.582693E+04  1.634572E+04  6.844358E+02  3.284780E-10  6.762744E-11
       396  18  1.166240E+06  1.356417E+04  1.417211E+04 -6.006635E+03  2.417169E-10 -2.579626E-10
       396  19  1.038923E+06 -1.811502E+04 -1.723596E+04 -5.989286E+03 -4.112769E+02 -1.416158E+03
       396  20  1.048298E+06 -1.588966E+04 -1.507430E+04  7.018754E+02 -8.951111E+01 -1.078375E+03
       396  21  1.057776E+06 -1.346683E+04 -1.265166E+04 -6.010851E+03  2.323341E+02 -7.535574E+02
       396  22  1.112007E+06  8.563881E+01  7.699665E+02 -6.008747E+03 -3.202959E+02 -1.416154E+03
       396  23  1.111956E+06 -3.121364E+01  6.358574E+02  6.931560E+02 -1.924819E+00 -1.078381E+03
       396  24  1.112007E+06  4.878152E+01  7.603338E+02 -6.008743E+03  3.165208E+02 -7.535718E+02
       396  25  1.185096E+06  1.828590E+04  1.877550E+04 -6.028210E+03 -2.293042E+02 -1.416150E+03
       396  26  1.175617E+06  1.582693E+04  1.634572E+04  6.844357E+02  8.567043E+01 -1.078386E+03
       396  27  1.166240E+06  1.356417E+04  1.417211E+04 -6.006635E+03  4.007148E+02 -7.535862E+02
       397   1  1.088573E+06 -5.837386E+03 -4.871882E+03 -5.834936E+03 -3.795574E+02  5.661643E+02
       397   2  1.097474E+06 -3.681834E+03 -2.212986E+03  5.263971E+02 -1.061414E+03  2.443440E+02
       397   3  1.106589E+06 -9.953190E+02  1.020449E+03 -5.918485E+03 -1.743294E+03 -6.881234E+01
       397   4  1.112032E+06  8.003631E-01  8.884488E+02 -5.875978E+03 -4.658269E+02  5.661842E+02
       397   5  1.111925E+06 -8.181282E+01  1.353475E+03  5.271707E+02 -1.145407E+03  2.443653E+02
       397   6  1.112032E+06  3.661442E+02  2.391464E+03 -5.875877E+03 -1.825002E+03 -6.878965E+01
       397   7  1.135492E+06  5.838946E+03  6.648739E+03 -5.917022E+03 -5.520996E+02  5.662040E+02
       397   8  1.126377E+06  3.518193E+03  4.919920E+03  5.279444E+02 -1.229403E+03  2.443865E+02
       397   9  1.117475E+06  1.727605E+03  3.762477E+03 -5.833268E+03 -1.906710E+03 -6.876697E+01
       397  10  1.088573E+06 -5.837386E+03 -4.871883E+03 -5.834936E+03 -8.326095E-11  2.372645E-10
       397  11  1.097474E+06 -3.681835E+03 -2.212989E+03  5.263973E+02 -2.218081E-10  9.664714E-11
       397  12  1.106589E+06 -9.953198E+02  1.020443E+03 -5.918486E+03 -6.587491E-11  9.098020E-11
       397  13  1.112032E+06  7.999606E-01  8.884478E+02 -5.875978E+03 -1.677604E-10  7.142120E-12
       397  14  1.111925E+06 -8.181324E+01  1.353472E+03  5.271710E+02  1.711624E-11  1.079807E-10
       397  15  1.112032E+06  3.661433E+02  2.391457E+03 -5.875877E+03 -2.575471E-12  3.844395E-10
       397  16  1.135492E+06  5.838946E+03  6.648738E+03 -5.917021E+03  1.459451E-10 -2.847152E-10
       397  17  1.126377E+06  3.518193E+03  4.919917E+03  5.279446E+02  2.427603E-10 -3.905853E-11
       397  18  1.117475E+06  1.727604E+03  3.762470E+03 -5.833269E+03  4.025067E-10  3.317785E-10
       397  19  1.088573E+06 -5.837386E+03 -4.871882E+03 -5.834936E+03  3.795574E+02 -5.661643E+02
       397  20  1.097474E+06 -3.681834E+03 -2.212986E+03  5.263971E+02  1.061414E+03 -2.443440E+02
       397  21  1.106589E+06 -9.953190E+02  1.020449E+03 -5.918485E+03  1.743294E+03  6.881234E+01
       397  22  1.112032E+06  8.003631E-01  8.884488E+02 -5.875978E+03  4.658269E+02 -5.661842E+02
       397  23  1.111925E+06 -8.181282E+01  1.353475E+03  5.271707E+02  1.145407E+03 -2.443653E+02
       397  24  1.112032E+06  3.661442E+02  2.391464E+03 -5.875877E+03  1.825002E+03  6.878965E+01
       397  25  1.135492E+06  5.838946E+03  6.648739E+03 -5.917022E+03  5.520996E+02 -5.662040E+02
       397  26  1.126377E+06  3.518193E+03  4.919920E+03  5.279444E+02  1.229403E+03 -2.443865E+02
       397  27  1.117475E+06  1.727605E+03  3.762477E+03 -5.833268E+03  1.906710E+03  6.876697E+01
       398   1  1.137068E+06  6.090870E+03  9.196693E+03 -5.670211E+03 -2.227496E+03 -2.569673E+02
       398   2  1.145549E+06  7.878595E+03  1.344793E+04  4.845040E+02 -4.820588E+03 -5.778433E+02
       398   3  1.155291E+06  1.337337E+04  2.031122E+04 -6.315341E+03 -7.413644E+03 -8.712397E+02
       398   4  1.112264E+06 -9.335359E+01  3.047763E+03 -5.909118E+03 -2.316061E+03 -2.569430E+02
       398   5  1.111633E+06 -5.699624E+02  5.079039E+03  5.684570E+02 -4.901761E+03 -5.778274E+02
       398   6  1.112261E+06  2.659360E+03  9.717397E+03 -5.908572E+03 -7.487388E+03 -8.712339E+02
       398   7  1.087461E+06 -6.277623E+03 -3.101213E+03 -6.148016E+03 -2.404622E+03 -2.569186E+02
       398   8  1.077718E+06 -9.018605E+03 -3.289940E+03  6.524055E+02 -4.982930E+03 -5.778115E+02
       398   9  1.069234E+06 -8.054785E+03 -8.765609E+02 -5.501831E+03 -7.561127E+03 -8.712283E+02
       398  10  1.137068E+06  6.090869E+03  9.196683E+03 -5.670211E+03  2.773627E-11  7.554921E-11
       398  11  1.145549E+06  7.878588E+03  1.344789E+04  4.845018E+02 -2.282113E-10 -1.114526E-10
       398  12  1.155291E+06  1.337335E+04  2.031111E+04 -6.315346E+03 -5.244713E-11 -1.092758E-10
       398  13  1.112264E+06 -9.335510E+01  3.047753E+03 -5.909119E+03 -6.801200E-11  6.622357E-11
       398  14  1.111633E+06 -5.699692E+02  5.078994E+03  5.684547E+02 -1.432022E-10 -2.949796E-11
       398  15  1.112261E+06  2.659344E+03  9.717291E+03 -5.908577E+03  1.387181E-10 -3.958117E-11
       398  16  1.087461E+06 -6.277625E+03 -3.101224E+03 -6.148016E+03  2.635751E-10  2.438046E-10
       398  17  1.077718E+06 -9.018612E+03 -3.289987E+03  6.524032E+02  4.034721E-10 -6.769819E-11
       398  18  1.069234E+06 -8.054801E+03 -8.766696E+02 -5.501836E+03 -6.888809E-11 -6.352548E-11
       398  19  1.137068E+06  6.090870E+03  9.196693E+03 -5.670211E+03  2.227496E+03  2.569673E+02
       398  20  1.145549E+06  7.878595E+03  1.344793E+04  4.845040E+02  4.820588E+03  5.778433E+02
       398  21  1.155291E+06  1.337337E+04  2.031122E+04 -6.315341E+03  7.413644E+03  8.712397E+02
       398  22  1.112264E+06 -9.335359E+01  3.047763E+03 -5.909118E+03  2.316061E+03  2.569430E+02
       398  23  1.111633E+06 -5.699624E+02  5.079039E+03  5.684570E+02  4.901761E+03  5.778274E+02
       398  24  1.112261E+06  2.659360E+03  9.717397E+03 -5.908572E+03  7.487388E+03  8.712339E+02
       398  25  1.087461E+06 -6.277623E+03 -3.101213E+03 -6.148016E+03  2.404622E+03  2.569186E+02
       398  26  1.077718E+06 -9.018605E+03 -3.289940E+03  6.524055E+02  4.982930E+03  5.778115E+02
       398  27  1.069234E+06 -8.054785E+03 -8.765609E+02 -5.501831E+03  7.561127E+03  8.712283E+02
       399   1  1.188275E+06  1.783060E+04  3.062433E+04 -4.440501E+03 -9.329810E+03 -1.106497E+03
       399   2  1.194004E+06  1.691254E+04  4.066781E+04  3.397450E+01 -1.977340E+04 -1.463268E+03
       399   3  1.207767E+06  4.260722E+04  6.415965E+04 -9.345993E+03 -3.021727E+04 -1.549014E+03
       399   4  1.113766E+06 -7.343103E+02  1.221135E+04 -6.108955E+03 -9.459531E+03 -1.106460E+03
       399   5  1.109747E+06 -4.074442E+03  1.988248E+04  8.180417E+02 -1.983023E+04 -1.463302E+03
       399   6  1.113752E+06  1.918748E+04  4.095277E+04 -6.109446E+03 -3.020106E+04 -1.549185E+03
       399   7  1.039261E+06 -1.929962E+04 -6.202042E+03 -7.777209E+03 -9.589237E+03 -1.106422E+03
       399   8  1.025497E+06 -2.506195E+04 -9.033752E+02  1.602003E+03 -1.988706E+04 -1.463337E+03
       399   9  1.019745E+06 -4.232867E+03  1.774524E+04 -2.873389E+03 -3.018485E+04 -1.549357E+03
       399  10  1.188275E+06  1.783057E+04  3.062416E+04 -4.440509E+03 -1.084243E-10  2.738524E-11
       399  11  1.194003E+06  1.691243E+04  4.066707E+04  3.395120E+01  2.799810E-10  1.886997E-11
       399  12  1.207766E+06  4.260697E+04  6.415793E+04 -9.346031E+03  2.380759E-10  2.406390E-10
       399  13  1.113766E+06 -7.343356E+02  1.221118E+04 -6.108964E+03 -2.177888E-10  1.292467E-10
       399  14  1.109747E+06 -4.074550E+03  1.988174E+04  8.180184E+02 -7.214253E-11  2.361218E-10
       399  15  1.113751E+06  1.918724E+04  4.095105E+04 -6.109484E+03 -1.601481E-10  2.878455E-10
       399  16  1.039261E+06 -1.929965E+04 -6.202217E+03 -7.777218E+03 -1.218007E-10  1.451205E-10
       399  17  1.025497E+06 -2.506205E+04 -9.041212E+02  1.601979E+03 -9.044265E-11  1.329248E-10
       399  18  1.019744E+06 -4.233114E+03  1.774352E+04 -2.873427E+03 -1.783321E-10  1.893839E-10
       399  19  1.188275E+06  1.783060E+04  3.062433E+04 -4.440501E+03  9.329810E+03  1.106497E+03
       399  20  1.194004E+06  1.691254E+04  4.066781E+04  3.397450E+01  1.977340E+04  1.463268E+03
       399  21  1.207767E+06  4.260722E+04  6.415965E+04 -9.345993E+03  3.021727E+04  1.549014E+03
       399  22  1.113766E+06 -7.343103E+02  1.221135E+04 -6.108955E+03  9.459531E+03  1.106460E+03
       399  23  1.109747E+06 -4.074442E+03  1.988248E+04  8.180417E+02  1.983023E+04  1.463302E+03
       399  24  1.113752E+06  1.918748E+04  4.095277E+04 -6.109446E+03  3.020106E+04  1.549185E+03
       399  25  1.039261E+06 -1.929962E+04 -6.202042E+03 -7.777209E+03  9.589237E+03  1.106422E+03
       399  26  1.025497E+06 -2.506195E+04 -9.033752E+02  1.602003E+03  1.988706E+04  1.463337E+03
       399  27  1.019745E+06 -4.232867E+03  1.774524E+04 -2.873389E+03  3.018485E+04  1.549357E+03
       400   1  1.252309E+06  2.661973E+04  8.137759E+04  5.210580E+03 -3.785421E+04 -2.113576E+03
       400   2  1.236694E+06  5.682745E+03  1.109187E+05 -5.133394E+03 -8.019134E+04 -2.679304E+03
       400   3  1.274221E+06  1.750407E+05  2.155784E+05 -3.108889E+04 -1.225295E+05 -9.781709E+02
       400   4  1.123775E+06 -5.402331E+03  4.964904E+04 -6.482472E+03 -3.829650E+04 -2.112941E+03
       400   5  1.097213E+06 -2.904684E+04  7.655262E+04  1.293794E+03 -8.002662E+04 -2.680129E+03
       400   6  1.123700E+06  1.375201E+05  1.781659E+05 -6.540687E+03 -1.217570E+05 -9.826996E+02
       400   7  9.952562E+05 -3.742511E+04  1.791934E+04 -1.817310E+04 -3.873869E+04 -2.112289E+03
       400   8  9.577503E+05 -6.377771E+04  4.218511E+04  7.719538E+03 -7.986195E+04 -2.680951E+03
       400   9  9.732000E+05  9.999999E+04  1.407521E+05  1.800158E+04 -1.209846E+05 -9.871682E+02
       400  10  1.252307E+06  2.661934E+04  8.137489E+04  5.210515E+03  4.460951E-10  3.609698E-10
       400  11  1.236687E+06  5.681015E+03  1.109066E+05 -5.133567E+03  1.070934E-11 -1.345003E-10
       400  12  1.274205E+06  1.750367E+05  2.155502E+05 -3.108899E+04 -3.320525E-10 -1.192482E-10
       400  13  1.123773E+06 -5.402729E+03  4.964628E+04 -6.482537E+03 -1.515424E-10  2.149410E-10
       400  14  1.097206E+06 -2.904856E+04  7.654059E+04  1.293621E+03 -2.602199E-10 -1.355800E-10
       400  15  1.123684E+06  1.375161E+05  1.781381E+05 -6.540783E+03 -5.887870E-11 -6.700988E-11
       400  16  9.952546E+05 -3.742551E+04  1.791652E+04 -1.817317E+04 -3.431676E-10  9.322856E-11
       400  17  9.577434E+05 -6.377943E+04  4.217313E+04  7.719365E+03 -3.266587E-11  7.985690E-11
       400  18  9.731843E+05  9.999606E+04  1.407247E+05  1.800148E+04 -1.018056E-10 -1.120930E-10
       400  19  1.252309E+06  2.661973E+04  8.137759E+04  5.210580E+03  3.785421E+04  2.113576E+03
       400  20  1.236694E+06  5.682745E+03  1.109187E+05 -5.133394E+03  8.019134E+04  2.679304E+03
       400  21  1.274221E+06  1.750407E+05  2.155784E+05 -3.108889E+04  1.225295E+05  9.781709E+02
       400  22  1.123775E+06 -5.402331E+03  4.964904E+04 -6.482472E+03  3.829650E+04  2.112941E+03
       400  23  1.097213E+06 -2.904684E+04  7.655262E+04  1.293794E+03  8.002662E+04  2.680129E+03
       400  24  1.123700E+06  1.375201E+05  1.781659E+05 -6.540687E+03  1.217570E+05  9.826996E+02
       400  25  9.952562E+05 -3.742511E+04  1.791934E+04 -1.817310E+04  3.873869E+04  2.112289E+03
       400  26  9.577503E+05 -6.377771E+04  4.218511E+04  7.719538E+03  7.986195E+04  2.680951E+03
       400  27  9.732000E+05  9.999999E+04  1.407521E+05  1.800158E+04  1.209846E+05  9.871682E+02
       401   1  1.298602E+05 -4.526174E+04 -3.770421E+04 -4.492976E+03  2.047550E+04  1.746180E+03
       401   2  1.393720E+05 -7.156145E+04 -5.185336E+04  2.456187E+03  1.405894E+04  5.048643E+03
       401   3  1.585412E+05 -6.374387E+04 -5.323708E+04 -1.088156E+04  7.643290E+03  4.227861E+03
       401   4  4.103008E+05  2.476374E+04  3.208551E+04 -8.835562E+03  2.189920E+04  1.746527E+03
       401   5  4.053812E+05 -5.251952E+03  1.376180E+04  1.311966E+03  1.439097E+04  5.048507E+03
       401   6  4.103044E+05 -9.686527E+02  8.957244E+03 -8.826872E+03  6.883827E+03  4.227951E+03
       401   7  6.908127E+05  9.478338E+04  1.018694E+05 -1.318012E+04  2.332354E+04  1.746855E+03
       401   8  6.714547E+05  6.105227E+04  7.937173E+04  1.672529E+02  1.472314E+04  5.048371E+03
       401   9  6.621252E+05  6.180185E+04  7.114687E+04 -6.771346E+03  6.124057E+03  4.228036E+03
       401  10  1.298598E+05 -4.526185E+04 -3.770501E+04 -4.493004E+03  8.277341E-11  5.030748E-11
       401  11  1.393718E+05 -7.156153E+04 -5.185378E+04  2.456130E+03  2.002501E-10  3.891157E-11
       401  12  1.585411E+05 -6.374391E+04 -5.323722E+04 -1.088159E+04  2.056570E-10  5.976406E-11
       401  13  4.103003E+05  2.476361E+04  3.208461E+04 -8.835593E+03 -3.015255E-10 -2.228162E-10
       401  14  4.053810E+05 -5.252035E+03  1.376136E+04  1.311907E+03 -2.598241E-11 -1.427937E-10
       401  15  4.103043E+05 -9.686846E+02  8.957121E+03 -8.826895E+03 -1.961571E-11  1.052261E-10
       401  16  6.908121E+05  9.478323E+04  1.018683E+05 -1.318015E+04 -2.041671E-10  3.872039E-11
       401  17  6.714545E+05  6.105219E+04  7.937127E+04  1.671931E+02 -2.355971E-10 -3.593551E-10
       401  18  6.621252E+05  6.180182E+04  7.114676E+04 -6.771366E+03  2.572115E-10  7.109813E-11
       401  19  1.298602E+05 -4.526174E+04 -3.770421E+04 -4.492976E+03 -2.047550E+04 -1.746180E+03
       401  20  1.393720E+05 -7.156145E+04 -5.185336E+04  2.456187E+03 -1.405894E+04 -5.048643E+03
       401  21  1.585412E+05 -6.374387E+04 -5.323708E+04 -1.088156E+04 -7.643290E+03 -4.227861E+03
       401  22  4.103008E+05  2.476374E+04  3.208551E+04 -8.835562E+03 -2.189920E+04 -1.746527E+03
       401  23  4.053812E+05 -5.251952E+03  1.376180E+04  1.311966E+03 -1.439097E+04 -5.048507E+03
       401  24  4.103044E+05 -9.686527E+02  8.957244E+03 -8.826872E+03 -6.883827E+03 -4.227951E+03
       401  25  6.908127E+05  9.478338E+04  1.018694E+05 -1.318012E+04 -2.332354E+04 -1.746855E+03
       401  26  6.714547E+05  6.105227E+04  7.937173E+04  1.672529E+02 -1.472314E+04 -5.048371E+03
       401  27  6.621252E+05  6.180185E+04  7.114687E+04 -6.771346E+03 -6.124057E+03 -4.228036E+03
       402   1  2.031207E+05 -4.775939E+04 -4.336422E+04 -7.912930E+03  5.350213E+03  3.313869E+03
       402   2  2.157357E+05 -4.860073E+04 -4.380908E+04  1.192396E+03  3.611984E+03  3.323438E+03
       402   3  2.298983E+05 -4.464661E+04 -4.189872E+04 -8.740601E+03  1.873187E+03  2.819333E+03
       402   4  4.084718E+05  3.448022E+03  7.386720E+03 -8.550524E+03  5.421589E+03  3.313767E+03
       402   5  4.076866E+05 -7.431771E+02  3.590911E+03  9.677188E+02  3.547170E+03  3.323410E+03
       402   6  4.084717E+05 -1.161160E+02  2.244263E+03 -8.551980E+03  1.672217E+03  2.819446E+03
       402   7  6.138612E+05  5.465229E+04  5.813453E+04 -9.188326E+03  5.492988E+03  3.313666E+03
       402   8  5.996709E+05  4.711163E+04  5.098817E+04  7.429767E+02  3.482335E+03  3.323382E+03
       402   9  5.870740E+05  4.441200E+04  4.638488E+04 -8.363299E+03  1.471190E+03  2.819560E+03
       402  10  2.031207E+05 -4.775941E+04 -4.336429E+04 -7.912944E+03 -1.094416E-10 -6.218718E-11
       402  11  2.157357E+05 -4.860075E+04 -4.380912E+04  1.192387E+03  4.290015E-12 -2.545651E-10
       402  12  2.298983E+05 -4.464662E+04 -4.189874E+04 -8.740605E+03  1.388422E-10  1.557473E-10
       402  13  4.084718E+05  3.448002E+03  7.386644E+03 -8.550539E+03 -4.816131E-10  3.057709E-10
       402  14  4.076866E+05 -7.431923E+02  3.590866E+03  9.677093E+02  9.690103E-11 -8.543985E-10
       402  15  4.084717E+05 -1.161253E+02  2.244243E+03 -8.551984E+03 -5.029100E-11  1.092039E-10
       402  16  6.138611E+05  5.465227E+04  5.813445E+04 -9.188341E+03  2.257311E-10 -2.848672E-11
       402  17  5.996709E+05  4.711162E+04  5.098813E+04  7.429674E+02  6.650445E-10 -2.870174E-10
       402  18  5.870740E+05  4.441199E+04  4.638486E+04 -8.363302E+03  7.623051E-10 -2.178300E-11
       402  19  2.031207E+05 -4.775939E+04 -4.336422E+04 -7.912930E+03 -5.350213E+03 -3.313869E+03
       402  20  2.157357E+05 -4.860073E+04 -4.380908E+04  1.192396E+03 -3.611984E+03 -3.323438E+03
       402  21  2.298983E+05 -4.464661E+04 -4.189872E+04 -8.740601E+03 -1.873187E+03 -2.819333E+03
       402  22  4.084718E+05  3.448022E+03  7.386720E+03 -8.550524E+03 -5.421589E+03 -3.313767E+03
       402  23  4.076866E+05 -7.431771E+02  3.590911E+03  9.677188E+02 -3.547170E+03 -3.323410E+03
       402  24  4.084717E+05 -1.161160E+02  2.244263E+03 -8.551980E+03 -1.672217E+03 -2.819446E+03
       402  25  6.138612E+05  5.465229E+04  5.813453E+04 -9.188326E+03 -5.492988E+03 -3.313666E+03
       402  26  5.996709E+05  4.711163E+04  5.098817E+04  7.429767E+02 -3.482335E+03 -3.323382E+03
       402  27  5.870740E+05  4.441200E+04  4.638488E+04 -8.363299E+03 -1.471190E+03 -2.819560E+03
       403   1  2.734838E+05 -3.309472E+04 -3.143565E+04 -8.191646E+03  1.404018E+03  2.471367E+03
       403   2  2.861231E+05 -3.050908E+04 -2.911246E+04  8.339911E+02  9.085437E+02  2.076520E+03
       403   3  2.990171E+05 -2.721404E+04 -2.628696E+04 -8.299563E+03  4.128233E+02  1.627031E+03
       403   4  4.081842E+05  4.831637E+02  1.802011E+03 -8.355783E+03  1.307026E+03  2.471422E+03
       403   5  4.080554E+05 -1.087769E+02  1.002052E+03  7.234808E+02  7.970225E+02  2.076611E+03
       403   6  4.081837E+05  1.114456E+01  7.144135E+02 -8.356223E+03  2.867833E+02  1.627164E+03
       403   7  5.429011E+05  3.405969E+04  3.503833E+04 -8.519952E+03  1.210013E+03  2.471477E+03
       403   8  5.300013E+05  3.029042E+04  3.111546E+04  6.129524E+02  6.854794E+02  2.076703E+03
       403   9  5.173612E+05  2.723544E+04  2.771491E+04 -8.412890E+03  1.607211E+02  1.627297E+03
       403  10  2.734838E+05 -3.309473E+04 -3.143566E+04 -8.191649E+03  1.637429E-11 -7.975008E-11
       403  11  2.861231E+05 -3.050909E+04 -2.911247E+04  8.339896E+02 -9.658678E-10  2.119708E-10
       403  12  2.990171E+05 -2.721405E+04 -2.628697E+04 -8.299564E+03  6.273856E-10 -6.429532E-10
       403  13  4.081842E+05  4.831567E+02  1.801997E+03 -8.355786E+03  1.305074E-10 -5.627994E-11
       403  14  4.080554E+05 -1.087817E+02  1.002042E+03  7.234795E+02  1.034102E-10  5.029188E-10
       403  15  4.081837E+05  1.114170E+01  7.144083E+02 -8.356224E+03 -4.985773E-10  1.024046E-09
       403  16  5.429011E+05  3.405969E+04  3.503831E+04 -8.519955E+03  6.946960E-10  1.130547E-10
       403  17  5.300013E+05  3.029042E+04  3.111545E+04  6.129512E+02  1.109780E-09 -7.947660E-10
       403  18  5.173612E+05  2.723544E+04  2.771490E+04 -8.412890E+03  1.042710E-09 -6.007345E-11
       403  19  2.734838E+05 -3.309472E+04 -3.143565E+04 -8.191646E+03 -1.404018E+03 -2.471367E+03
       403  20  2.861231E+05 -3.050908E+04 -2.911246E+04  8.339911E+02 -9.085437E+02 -2.076520E+03
       403  21  2.990171E+05 -2.721404E+04 -2.628696E+04 -8.299563E+03 -4.128233E+02 -1.627031E+03
       403  22  4.081842E+05  4.831637E+02  1.802011E+03 -8.355783E+03 -1.307026E+03 -2.471422E+03
       403  23  4.080554E+05 -1.087769E+02  1.002052E+03  7.234808E+02 -7.970225E+02 -2.076611E+03
       403  24  4.081837E+05  1.114456E+01  7.144135E+02 -8.356223E+03 -2.867833E+02 -1.627164E+03
       403  25  5.429011E+05  3.405969E+04  3.503833E+04 -8.519952E+03 -1.210013E+03 -2.471477E+03
       403  26  5.300013E+05  3.029042E+04  3.111546E+04  6.129524E+02 -6.854794E+02 -2.076703E+03
       403  27  5.173612E+05  2.723544E+04  2.771491E+04 -8.412890E+03 -1.607211E+02 -1.627297E+03
       404   1  3.412213E+05 -1.659755E+04 -1.584564E+04 -8.169130E+03  2.779803E+02  1.359783E+03
       404   2  3.536163E+05 -1.361679E+04 -1.284867E+04  6.414177E+02 -2.777468E+01  9.256109E+02
       404   3  3.660591E+05 -1.042028E+04 -9.608337E+03 -8.211055E+03 -3.336138E+02  4.899548E+02
       404   4  4.081397E+05  7.854501E+01  6.433105E+02 -8.245816E+03  1.634167E+02  1.359918E+03
       404   5  4.081156E+05 -2.939618E+01  6.113748E+02  5.856492E+02 -1.427561E+02  9.257569E+02
       404   6  4.081394E+05  7.853660E+01  8.231322E+02 -8.245809E+03 -4.490070E+02  4.901124E+02
       404   7  4.750621E+05  1.675430E+04  1.713193E+04 -8.322509E+03  4.884077E+01  1.360053E+03
       404   8  4.626176E+05  1.355777E+04  1.407120E+04  5.298768E+02 -2.577476E+02  9.259029E+02
       404   9  4.502213E+05  1.057722E+04  1.125447E+04 -8.280565E+03 -5.644080E+02  4.902700E+02
       404  10  3.412213E+05 -1.659755E+04 -1.584565E+04 -8.169130E+03 -9.276757E-11  3.774990E-11
       404  11  3.536163E+05 -1.361679E+04 -1.284867E+04  6.414177E+02 -6.556896E-10  2.690339E-10
       404  12  3.660591E+05 -1.042028E+04 -9.608338E+03 -8.211054E+03  1.274735E-09 -6.299569E-10
       404  13  4.081397E+05  7.854301E+01  6.433070E+02 -8.245816E+03  5.215565E-11 -6.848569E-10
       404  14  4.081156E+05 -2.939711E+01  6.113732E+02  5.856494E+02  2.102180E-10  3.782763E-10
       404  15  4.081394E+05  7.853629E+01  8.231314E+02 -8.245809E+03  2.458991E-10 -9.478820E-10
       404  16  4.750621E+05  1.675430E+04  1.713193E+04 -8.322509E+03  6.484230E-10  5.006814E-10
       404  17  4.626176E+05  1.355777E+04  1.407120E+04  5.298770E+02  1.060772E-09 -3.815124E-10
       404  18  4.502213E+05  1.057722E+04  1.125447E+04 -8.280565E+03  5.990073E-10 -1.422369E-09
       404  19  3.412213E+05 -1.659755E+04 -1.584564E+04 -8.169130E+03 -2.779803E+02 -1.359783E+03
       404  20  3.536163E+05 -1.361679E+04 -1.284867E+04  6.414177E+02  2.777468E+01 -9.256109E+02
       404  21  3.660591E+05 -1.042028E+04 -9.608337E+03 -8.211055E+03  3.336138E+02 -4.899548E+02
       404  22  4.081397E+05  7.854501E+01  6.433105E+02 -8.245816E+03 -1.634167E+02 -1.359918E+03
       404  23  4.081156E+05 -2.939618E+01  6.113748E+02  5.856492E+02  1.427561E+02 -9.257569E+02
       404  24  4.081394E+05  7.853660E+01  8.231322E+02 -8.245809E+03  4.490070E+02 -4.901124E+02
       404  25  4.750621E+05  1.675430E+04  1.713193E+04 -8.322509E+03 -4.884077E+01 -1.360053E+03
       404  26  4.626176E+05  1.355777E+04  1.407120E+04  5.298768E+02  2.577476E+02 -9.259029E+02
       404  27  4.502213E+05  1.057722E+04  1.125447E+04 -8.280565E+03  5.644080E+02 -4.902700E+02
       405   1  4.076206E+05 -1.163488E+02  8.996243E+02 -8.175126E+03 -4.984965E+02  2.353967E+02
       405   2  4.198494E+05  2.837829E+03  4.496010E+03  5.363178E+02 -1.297136E+03 -1.988419E+02
       405   3  4.322898E+05  6.460574E+03  8.766869E+03 -8.295298E+03 -2.095779E+03 -6.281307E+02
       405   4  4.081762E+05  1.458413E+01  9.981632E+02 -8.219406E+03 -6.141334E+02  2.355584E+02
       405   5  4.080706E+05 -9.865247E+01  1.587145E+03  5.524370E+02 -1.411453E+03 -1.986847E+02
       405   6  4.081760E+05  4.564251E+02  2.849667E+03 -8.218799E+03 -2.208761E+03 -6.279775E+02
       405   7  4.087319E+05  1.455170E+02  1.096702E+03 -8.263685E+03 -7.297703E+02  2.357201E+02
       405   8  3.962920E+05 -3.035144E+03 -1.321730E+03  5.685558E+02 -1.525768E+03 -1.985274E+02
       405   9  3.840628E+05 -5.547767E+03 -3.067579E+03 -8.142303E+03 -2.321738E+03 -6.278243E+02
       405  10  4.076206E+05 -1.163489E+02  8.996238E+02 -8.175126E+03 -5.428799E-10  4.956567E-10
       405  11  4.198494E+05  2.837829E+03  4.496006E+03  5.363176E+02 -1.034638E-09  2.297537E-09
       405  12  4.322898E+05  6.460572E+03  8.766861E+03 -8.295299E+03  1.861067E-09 -1.634678E-09
       405  13  4.081762E+05  1.458397E+01  9.981623E+02 -8.219405E+03 -1.220927E-10 -1.210283E-10
       405  14  4.080706E+05 -9.865304E+01  1.587141E+03  5.524367E+02  4.748898E-10 -5.000270E-10
       405  15  4.081760E+05  4.564234E+02  2.849657E+03 -8.218800E+03 -1.673474E-10 -4.100902E-10
       405  16  4.087319E+05  1.455168E+02  1.096701E+03 -8.263685E+03  1.314194E-09 -2.125599E-10
       405  17  3.962920E+05 -3.035145E+03 -1.321735E+03  5.685556E+02  1.258920E-09 -3.627576E-11
       405  18  3.840628E+05 -5.547768E+03 -3.067590E+03 -8.142304E+03 -5.906164E-10 -3.665978E-10
       405  19  4.076206E+05 -1.163488E+02  8.996243E+02 -8.175126E+03  4.984965E+02 -2.353967E+02
       405  20  4.198494E+05  2.837829E+03  4.496010E+03  5.363178E+02  1.297136E+03  1.988419E+02
       405  21  4.322898E+05  6.460574E+03  8.766869E+03 -8.295298E+03  2.095779E+03  6.281307E+02
       405  22  4.081762E+05  1.458413E+01  9.981632E+02 -8.219406E+03  6.141334E+02 -2.355584E+02
       405  23  4.080706E+05 -9.865247E+01  1.587145E+03  5.524370E+02  1.411453E+03  1.986847E+02
       405  24  4.081760E+05  4.564251E+02  2.849667E+03 -8.218799E+03  2.208761E+03  6.279775E+02
       405  25  4.087319E+05  1.455170E+02  1.096702E+03 -8.263685E+03  7.297703E+02 -2.357201E+02
       405  26  3.962920E+05 -3.035144E+03 -1.321730E+03  5.685558E+02  1.525768E+03  1.985274E+02
       405  27  3.840628E+05 -5.547767E+03 -3.067579E+03 -8.142303E+03  2.321738E+03  6.278243E+02
       406   1  4.742588E+05  1.631567E+04  1.993250E+04 -8.049736E+03 -2.671957E+03 -8.896506E+02
       406   2  4.860226E+05  1.883452E+04  2.542854E+04  4.557784E+02 -5.785711E+03 -1.328611E+03
       406   3  4.992843E+05  2.584659E+04  3.406749E+04 -8.831915E+03 -8.899364E+03 -1.719407E+03
       406   4  4.084604E+05 -9.426614E+01  3.644714E+03 -8.276144E+03 -2.795139E+03 -8.894901E+02
       406   5  4.077121E+05 -6.878149E+02  6.090262E+03  6.224640E+02 -5.895822E+03 -1.328486E+03
       406   6  4.084596E+05  3.209928E+03  1.166996E+04 -8.272268E+03 -8.996343E+03 -1.719317E+03
       406   7  3.426660E+05 -1.650452E+04 -1.264339E+04 -8.502528E+03 -2.918308E+03 -8.893295E+02
       406   8  3.294073E+05 -2.021061E+04 -1.324847E+04  7.891303E+02 -6.005919E+03 -1.328360E+03
       406   9  3.176425E+05 -1.942735E+04 -1.072817E+04 -7.712700E+03 -9.093307E+03 -1.719227E+03
       406  10  4.742588E+05  1.631566E+04  1.993248E+04 -8.049738E+03 -1.072960E-10 -1.584077E-09
       406  11  4.860226E+05  1.883451E+04  2.542847E+04  4.557722E+02 -9.640470E-10  4.501833E-10
       406  12  4.992842E+05  2.584656E+04  3.406734E+04 -8.831927E+03  6.776452E-10  3.884221E-10
       406  13  4.084604E+05 -9.426908E+01  3.644698E+03 -8.276146E+03 -6.589587E-11 -2.777187E-10
       406  14  4.077121E+05 -6.878262E+02  6.090193E+03  6.224577E+02  1.012097E-09 -2.720079E-10
       406  15  4.084595E+05  3.209903E+03  1.166981E+04 -8.272280E+03  5.767818E-10 -3.742313E-10
       406  16  3.426659E+05 -1.650453E+04 -1.264341E+04 -8.502530E+03  9.360966E-10 -3.786629E-10
       406  17  3.294072E+05 -2.021062E+04 -1.324854E+04  7.891239E+02  1.450530E-09  1.498331E-09
       406  18  3.176424E+05 -1.942737E+04 -1.072833E+04 -7.712713E+03  8.472890E-10  2.006239E-10
       406  19  4.742588E+05  1.631567E+04  1.993250E+04 -8.049736E+03  2.671957E+03  8.896506E+02
       406  20  4.860226E+05  1.883452E+04  2.542854E+04  4.557784E+02  5.785711E+03  1.328611E+03
       406  21  4.992843E+05  2.584659E+04  3.406749E+04 -8.831915E+03  8.899364E+03  1.719407E+03
       406  22  4.084604E+05 -9.426614E+01  3.644714E+03 -8.276144E+03  2.795139E+03  8.894901E+02
       406  23  4.077121E+05 -6.878149E+02  6.090262E+03  6.224640E+02  5.895822E+03  1.328486E+03
       406  24  4.084596E+05  3.209928E+03  1.166996E+04 -8.272268E+03  8.996343E+03  1.719317E+03
       406  25  3.426660E+05 -1.650452E+04 -1.264339E+04 -8.502528E+03  2.918308E+03  8.893295E+02
       406  26  3.294073E+05 -2.021061E+04 -1.324847E+04  7.891303E+02  6.005919E+03  1.328360E+03
       406  27  3.176425E+05 -1.942735E+04 -1.072817E+04 -7.712700E+03  9.093307E+03  1.719227E+03
       407   1  5.438322E+05  3.242923E+04  4.768720E+04 -6.513958E+03 -1.118043E+04 -2.045424E+03
       407   2  5.519429E+05  3.161768E+04  6.005582E+04 -2.416673E+02 -2.375378E+04 -2.520964E+03
       407   3  5.697419E+05  6.284317E+04  8.862346E+04 -1.238089E+04 -3.632674E+04 -2.568355E+03
       407   4  4.102742E+05 -8.663623E+02  1.467048E+04 -8.418906E+03 -1.136442E+04 -2.045215E+03
       407   5  4.054363E+05 -4.904190E+03  2.388581E+04  7.962588E+02 -2.382208E+04 -2.520975E+03
       407   6  4.102692E+05  2.307914E+04  4.922274E+04 -8.400343E+03 -3.627909E+04 -2.568660E+03
       407   7  2.767325E+05 -3.416327E+04 -1.834756E+04 -1.032344E+04 -1.154837E+04 -2.045006E+03
       407   8  2.589492E+05 -4.142766E+04 -1.228579E+04  1.833944E+03 -2.389036E+04 -2.520987E+03
       407   9  2.508195E+05 -1.668674E+04  9.820138E+03 -4.420812E+03 -3.623144E+04 -2.568965E+03
       407  10  5.438320E+05  3.242919E+04  4.768695E+04 -6.513977E+03  7.181762E-11  1.348044E-10
       407  11  5.519423E+05  3.161753E+04  6.005475E+04 -2.417155E+02 -6.292977E-10 -1.693826E-09
       407  12  5.697405E+05  6.284281E+04  8.862097E+04 -1.238097E+04  2.373568E-10 -3.505691E-10
       407  13  4.102741E+05 -8.664015E+02  1.467023E+04 -8.418925E+03 -2.563775E-10  2.701587E-10
       407  14  4.054357E+05 -4.904349E+03  2.388473E+04  7.962105E+02  5.063812E-10  3.195674E-10
       407  15  4.102677E+05  2.307878E+04  4.922025E+04 -8.400418E+03  6.895688E-11 -5.555920E-10
       407  16  2.767324E+05 -3.416331E+04 -1.834781E+04 -1.032346E+04  7.588754E-10  3.160283E-10
       407  17  2.589486E+05 -4.142782E+04 -1.228687E+04  1.833896E+03  1.196725E-09  3.502401E-10
       407  18  2.508181E+05 -1.668710E+04  9.817660E+03 -4.420887E+03  5.944495E-10  3.047749E-10
       407  19  5.438322E+05  3.242923E+04  4.768720E+04 -6.513958E+03  1.118043E+04  2.045424E+03
       407  20  5.519429E+05  3.161768E+04  6.005582E+04 -2.416673E+02  2.375378E+04  2.520964E+03
       407  21  5.697419E+05  6.284317E+04  8.862346E+04 -1.238089E+04  3.632674E+04  2.568355E+03
       407  22  4.102742E+05 -8.663623E+02  1.467048E+04 -8.418906E+03  1.136442E+04  2.045215E+03
       407  23  4.054363E+05 -4.904190E+03  2.388581E+04  7.962588E+02  2.382208E+04  2.520975E+03
       407  24  4.102692E+05  2.307914E+04  4.922274E+04 -8.400343E+03  3.627909E+04  2.568660E+03
       407  25  2.767325E+05 -3.416327E+04 -1.834756E+04 -1.032344E+04  1.154837E+04  2.045006E+03
       407  26  2.589492E+05 -4.142766E+04 -1.228579E+04  1.833944E+03  2.389036E+04  2.520987E+03
       407  27  2.508195E+05 -1.668674E+04  9.820138E+03 -4.420812E+03  3.623144E+04  2.568965E+03
       408   1  6.264532E+05  4.438289E+04  1.100953E+05  5.288493E+03 -4.536186E+04 -3.367117E+03
       408   2  6.081481E+05  1.934437E+04  1.457237E+05 -6.746382E+03 -9.643221E+04 -4.102051E+03
       408   3  6.538635E+05  2.231769E+05  2.718348E+05 -3.819453E+04 -1.475029E+05 -1.408385E+03
       408   4  4.223197E+05 -6.482084E+03  5.968126E+04 -8.649274E+03 -4.600662E+04 -3.365756E+03
       408   5  3.903651E+05 -3.493656E+04  9.202062E+04  1.071183E+03 -9.615651E+04 -4.103450E+03
       408   6  4.222927E+05  1.653614E+05  2.142266E+05 -8.620260E+03 -1.463055E+05 -1.415593E+03
       408   7  2.182244E+05 -5.734943E+04  9.264202E+03 -2.258245E+04 -4.665116E+04 -3.364365E+03
       408   8  1.726253E+05 -8.922080E+04  3.831411E+04  8.886008E+03 -9.588091E+04 -4.104843E+03
       408   9  1.907724E+05  1.075452E+05  1.566148E+05  2.094298E+04 -1.451085E+05 -1.422690E+03
       408  10  6.264510E+05  4.438233E+04  1.100914E+05  5.288370E+03  1.811380E-10 -7.737879E-11
       408  11  6.081382E+05  1.934186E+04  1.457062E+05 -6.746700E+03  1.305390E-10 -4.020086E-10
       408  12  6.538402E+05  2.231711E+05  2.717940E+05 -3.819469E+04 -1.134536E-11  2.521585E-10
       408  13  4.223174E+05 -6.482664E+03  5.967726E+04 -8.649399E+03  1.432123E-10 -6.349845E-10
       408  14  3.903552E+05 -3.493906E+04  9.200323E+04  1.070865E+03 -1.047749E-10 -1.072145E-09
       408  15  4.222697E+05  1.653557E+05  2.141864E+05 -8.620427E+03  1.518792E-10 -2.529034E-10
       408  16  2.182220E+05 -5.735003E+04  9.260092E+03 -2.258258E+04  3.232499E-11  2.829511E-11
       408  17  1.726154E+05 -8.922329E+04  3.829681E+04  8.885692E+03  4.135998E-11 -3.762837E-10
       408  18  1.907498E+05  1.075395E+05  1.565753E+05  2.094282E+04  4.681552E-12 -3.877296E-10
       408  19  6.264532E+05  4.438289E+04  1.100953E+05  5.288493E+03  4.536186E+04  3.367117E+03
       408  20  6.081481E+05  1.934437E+04  1.457237E+05 -6.746382E+03  9.643221E+04  4.102051E+03
       408  21  6.538635E+05  2.231769E+05  2.718348E+05 -3.819453E+04  1.475029E+05  1.408385E+03
       408  22  4.223197E+05 -6.482084E+03  5.968126E+04 -8.649274E+03  4.600662E+04  3.365756E+03
       408  23  3.903651E+05 -3.493656E+04  9.202062E+04  1.071183E+03  9.615651E+04  4.103450E+03
       408  24  4.222927E+05  1.653614E+05  2.142266E+05 -8.620260E+03  1.463055E+05  1.415593E+03
       408  25  2.182244E+05 -5.734943E+04  9.264202E+03 -2.258245E+04  4.665116E+04  3.364365E+03
       408  26  1.726253E+05 -8.922080E+04  3.831411E+04  8.886008E+03  9.588091E+04  4.104843E+03
       408  27  1.907724E+05  1.075452E+05  1.566148E+05  2.094298E+04  1.451085E+05  1.422690E+03
       409   1 -1.379563E+06 -1.067727E+05 -1.489211E+05 -2.301910E+04 -1.251652E+05 -8.875901E+02
       409   2 -1.356409E+06  6.466520E+04 -4.502468E+04 -7.279324E+03 -8.253016E+04 -2.634534E+03
       409   3 -1.388007E+06  3.913269E+04 -1.814913E+04  1.448527E+04 -3.989621E+04 -2.298303E+03
       409   4 -1.522326E+06 -1.424924E+05 -1.845179E+05  2.387347E+03 -1.258791E+05 -8.927428E+02
       409   5 -1.494842E+06  3.009563E+04 -7.923743E+04 -6.273516E+02 -8.270447E+04 -2.635489E+03
       409   6 -1.522218E+06  5.594591E+03 -5.136580E+04  2.382250E+03 -3.953061E+04 -2.297437E+03
       409   7 -1.665068E+06 -1.782113E+05 -2.201160E+05  2.778794E+04 -1.265928E+05 -8.979551E+02
       409   8 -1.633257E+06 -4.475216E+03 -1.134516E+05  6.023132E+03 -8.287874E+04 -2.636448E+03
       409   9 -1.656411E+06 -2.794431E+04 -8.458374E+04 -9.718146E+03 -3.916509E+04 -2.296586E+03
       409  10 -1.379580E+06 -1.067770E+05 -1.489506E+05 -2.301919E+04  1.077178E-09  6.640720E-11
       409  11 -1.356416E+06  6.466336E+04 -4.503752E+04 -7.279499E+03  1.367593E-09 -6.699506E-10
       409  12 -1.388009E+06  3.913226E+04 -1.815214E+04  1.448520E+04 -2.384281E-10 -4.243749E-10
       409  13 -1.522343E+06 -1.424967E+05 -1.845478E+05  2.387256E+03  1.681469E-10 -2.210855E-10
       409  14 -1.494849E+06  3.009378E+04 -7.925032E+04 -6.275273E+02  1.031320E-09  3.133859E-10
       409  15 -1.522219E+06  5.594165E+03 -5.136876E+04  2.382176E+03  1.577029E-10  7.483899E-11
       409  16 -1.665085E+06 -1.782156E+05 -2.201462E+05  2.778784E+04 -1.146144E-09 -2.029715E-10
       409  17 -1.633265E+06 -4.477074E+03 -1.134645E+05  6.022955E+03 -8.005731E-10  2.851847E-11
       409  18 -1.656413E+06 -2.794473E+04 -8.458664E+04 -9.718219E+03  1.487264E-10 -1.594912E-10
       409  19 -1.379563E+06 -1.067727E+05 -1.489211E+05 -2.301910E+04  1.251652E+05  8.875901E+02
       409  20 -1.356409E+06  6.466520E+04 -4.502468E+04 -7.279324E+03  8.253016E+04  2.634534E+03
       409  21 -1.388007E+06  3.913269E+04 -1.814913E+04  1.448527E+04  3.989621E+04  2.298303E+03
       409  22 -1.522326E+06 -1.424924E+05 -1.845179E+05  2.387347E+03  1.258791E+05  8.927428E+02
       409  23 -1.494842E+06  3.009563E+04 -7.923743E+04 -6.273516E+02  8.270447E+04  2.635489E+03
       409  24 -1.522218E+06  5.594591E+03 -5.136580E+04  2.382250E+03  3.953061E+04  2.297437E+03
       409  25 -1.665068E+06 -1.782113E+05 -2.201160E+05  2.778794E+04  1.265928E+05  8.979551E+02
       409  26 -1.633257E+06 -4.475216E+03 -1.134516E+05  6.023132E+03  8.287874E+04  2.636448E+03
       409  27 -1.656411E+06 -2.794431E+04 -8.458374E+04 -9.718146E+03  3.916509E+04  2.296586E+03
       410   1 -1.395288E+06  9.239283E+03 -1.349452E+04 -3.312072E+02 -3.112585E+04 -1.882657E+03
       410   2 -1.397257E+06  3.181906E+04  6.780089E+03 -2.123958E+03 -2.049136E+04 -1.930482E+03
       410   3 -1.407463E+06  2.685738E+04  1.324296E+04  4.759242E+03 -9.857290E+03 -1.668846E+03
       410   4 -1.511887E+06 -1.988990E+04 -4.236957E+04  2.981681E+03 -3.117639E+04 -1.882868E+03
       410   5 -1.507750E+06  4.218281E+03 -2.055788E+04 -1.360826E+03 -2.046216E+04 -1.930515E+03
       410   6 -1.511867E+06  7.683693E+02 -1.261529E+04  2.972777E+03 -9.748239E+03 -1.668763E+03
       410   7 -1.628474E+06 -4.902006E+04 -7.124563E+04  6.293944E+03 -3.122692E+04 -1.883080E+03
       410   8 -1.618233E+06 -2.338341E+04 -4.789677E+04 -5.978321E+02 -2.043296E+04 -1.930548E+03
       410   9 -1.616262E+06 -2.532144E+04 -3.847435E+04  1.186612E+03 -9.639206E+03 -1.668682E+03
       410  10 -1.395289E+06  9.239019E+03 -1.349635E+04 -3.312544E+02 -2.791248E-10  2.236207E-10
       410  11 -1.397257E+06  3.181895E+04  6.779291E+03 -2.123990E+03 -8.376907E-10  1.174683E-10
       410  12 -1.407463E+06  2.685735E+04  1.324277E+04  4.759228E+03 -1.839196E-09 -7.603533E-10
       410  13 -1.511888E+06 -1.989016E+04 -4.237141E+04  2.981634E+03 -6.553225E-11  2.076140E-10
       410  14 -1.507751E+06  4.218164E+03 -2.055868E+04 -1.360858E+03 -7.354950E-11  7.935723E-10
       410  15 -1.511868E+06  7.683407E+02 -1.261547E+04  2.972764E+03  2.508480E-10 -6.638620E-10
       410  16 -1.628475E+06 -4.902033E+04 -7.124748E+04  6.293897E+03 -3.921245E-10  2.528967E-10
       410  17 -1.618234E+06 -2.338353E+04 -4.789756E+04 -5.978639E+02  9.317510E-10 -3.428973E-10
       410  18 -1.616262E+06 -2.532147E+04 -3.847453E+04  1.186599E+03  1.195931E-09  1.500987E-10
       410  19 -1.395288E+06  9.239283E+03 -1.349452E+04 -3.312072E+02  3.112585E+04  1.882657E+03
       410  20 -1.397257E+06  3.181906E+04  6.780089E+03 -2.123958E+03  2.049136E+04  1.930482E+03
       410  21 -1.407463E+06  2.685738E+04  1.324296E+04  4.759242E+03  9.857290E+03  1.668846E+03
       410  22 -1.511887E+06 -1.988990E+04 -4.236957E+04  2.981681E+03  3.117639E+04  1.882868E+03
       410  23 -1.507750E+06  4.218281E+03 -2.055788E+04 -1.360826E+03  2.046216E+04  1.930515E+03
       410  24 -1.511867E+06  7.683693E+02 -1.261529E+04  2.972777E+03  9.748239E+03  1.668763E+03
       410  25 -1.628474E+06 -4.902006E+04 -7.124563E+04  6.293944E+03  3.122692E+04  1.883080E+03
       410  26 -1.618233E+06 -2.338341E+04 -4.789677E+04 -5.978321E+02  2.043296E+04  1.930548E+03
       410  27 -1.616262E+06 -2.532144E+04 -3.847435E+04  1.186612E+03  9.639206E+03  1.668682E+03
       411   1 -1.428950E+06  1.757110E+04  1.008086E+04  3.036555E+03 -7.764133E+03 -1.485504E+03
       411   2 -1.435747E+06  1.905526E+04  1.304708E+04 -1.935621E+03 -5.112936E+03 -1.270341E+03
       411   3 -1.443845E+06  1.672081E+04  1.332977E+04  3.702999E+03 -2.461839E+03 -9.894900E+02
       411   4 -1.510325E+06 -2.754164E+03 -1.004156E+04  3.407389E+03 -7.715923E+03 -1.485487E+03
       411   5 -1.509671E+06  5.876886E+02 -5.246524E+03 -1.899107E+03 -5.047728E+03 -1.270299E+03
       411   6 -1.510321E+06  1.077346E+02 -3.147079E+03  3.405271E+03 -2.379603E+03 -9.894218E+02
       411   7 -1.591694E+06 -2.307992E+04 -3.016447E+04  3.778174E+03 -7.667719E+03 -1.485469E+03
       411   8 -1.583591E+06 -1.788029E+04 -2.354054E+04 -1.862599E+03 -4.982529E+03 -1.270256E+03
       411   9 -1.576794E+06 -1.650567E+04 -1.962426E+04  3.107574E+03 -2.297376E+03 -9.893536E+02
       411  10 -1.428950E+06  1.757108E+04  1.008074E+04  3.036546E+03 -1.583933E-09 -9.274526E-11
       411  11 -1.435747E+06  1.905525E+04  1.304703E+04 -1.935626E+03  3.720727E-10  5.281931E-10
       411  12 -1.443845E+06  1.672081E+04  1.332976E+04  3.702997E+03  3.394350E-10  2.912172E-10
       411  13 -1.510325E+06 -2.754182E+03 -1.004168E+04  3.407380E+03 -1.679710E-11 -8.253539E-10
       411  14 -1.509672E+06  5.876800E+02 -5.246575E+03 -1.899113E+03 -4.226307E-10 -1.265679E-09
       411  15 -1.510321E+06  1.077320E+02 -3.147092E+03  3.405269E+03 -9.277252E-11 -1.670891E-09
       411  16 -1.591694E+06 -2.307994E+04 -3.016458E+04  3.778164E+03  7.595870E-10 -7.305966E-10
       411  17 -1.583591E+06 -1.788030E+04 -2.354059E+04 -1.862604E+03 -8.751023E-10 -2.499030E-10
       411  18 -1.576794E+06 -1.650568E+04 -1.962427E+04  3.107572E+03 -1.005658E-09 -3.871134E-10
       411  19 -1.428950E+06  1.757110E+04  1.008086E+04  3.036555E+03  7.764133E+03  1.485504E+03
       411  20 -1.435747E+06  1.905526E+04  1.304708E+04 -1.935621E+03  5.112936E+03  1.270341E+03
       411  21 -1.443845E+06  1.672081E+04  1.332977E+04  3.702999E+03  2.461839E+03  9.894900E+02
       411  22 -1.510325E+06 -2.754164E+03 -1.004156E+04  3.407389E+03  7.715923E+03  1.485487E+03
       411  23 -1.509671E+06  5.876886E+02 -5.246524E+03 -1.899107E+03  5.047728E+03  1.270299E+03
       411  24 -1.510321E+06  1.077346E+02 -3.147079E+03  3.405271E+03  2.379603E+03  9.894218E+02
       411  25 -1.591694E+06 -2.307992E+04 -3.016447E+04  3.778174E+03  7.667719E+03  1.485469E+03
       411  26 -1.583591E+06 -1.788029E+04 -2.354054E+04 -1.862599E+03  4.982529E+03  1.270256E+03
       411  27 -1.576794E+06 -1.650567E+04 -1.962426E+04  3.107574E+03  2.297376E+03  9.893536E+02
       412   1 -1.470270E+06  9.571868E+03  7.357807E+03  3.633375E+03 -1.944528E+03 -8.183875E+02
       412   2 -1.478371E+06  7.974691E+03  6.414213E+03 -2.187012E+03 -1.245165E+03 -5.409585E+02
       412   3 -1.486720E+06  5.850528E+03  4.877749E+03  3.707565E+03 -5.458588E+02 -2.460798E+02
       412   4 -1.510086E+06 -3.706092E+02 -2.472462E+03  3.651606E+03 -1.873813E+03 -8.183248E+02
       412   5 -1.509962E+06  8.247711E+01 -1.403775E+03 -2.206072E+03 -1.169894E+03 -5.408875E+02
       412   6 -1.510086E+06  7.769871E+00 -9.311551E+02  3.651252E+03 -4.660209E+02 -2.459999E+02
       412   7 -1.549902E+06 -1.031321E+04 -1.230285E+04  3.669836E+03 -1.803104E+03 -8.182622E+02
       412   8 -1.541552E+06 -7.809811E+03 -9.221837E+03 -2.225131E+03 -1.094626E+03 -5.408165E+02
       412   9 -1.533451E+06 -5.835029E+03 -6.740101E+03  3.594941E+03 -3.861860E+02 -2.459200E+02
       412  10 -1.470270E+06  9.571867E+03  7.357799E+03  3.633374E+03 -6.345273E-10  5.835859E-11
       412  11 -1.478371E+06  7.974690E+03  6.414210E+03 -2.187013E+03  1.668643E-09 -1.194343E-09
       412  12 -1.486720E+06  5.850528E+03  4.877749E+03  3.707565E+03  1.073755E-09 -1.096054E-09
       412  13 -1.510086E+06 -3.706108E+02 -2.472470E+03  3.651605E+03  7.485416E-10 -2.500456E-09
       412  14 -1.509962E+06  8.247643E+01 -1.403778E+03 -2.206073E+03 -6.676749E-10 -6.423287E-11
       412  15 -1.510086E+06  7.769747E+00 -9.311557E+02  3.651252E+03  1.191050E-11  1.342925E-10
       412  16 -1.549902E+06 -1.031321E+04 -1.230286E+04  3.669835E+03 -3.344521E-10  1.699299E-09
       412  17 -1.541552E+06 -7.809812E+03 -9.221840E+03 -2.225131E+03 -9.465222E-10  1.413219E-09
       412  18 -1.533451E+06 -5.835030E+03 -6.740101E+03  3.594941E+03 -2.476974E-09  1.326420E-09
       412  19 -1.470270E+06  9.571868E+03  7.357807E+03  3.633375E+03  1.944528E+03  8.183875E+02
       412  20 -1.478371E+06  7.974691E+03  6.414213E+03 -2.187012E+03  1.245165E+03  5.409585E+02
       412  21 -1.486720E+06  5.850528E+03  4.877749E+03  3.707565E+03  5.458588E+02  2.460798E+02
       412  22 -1.510086E+06 -3.706092E+02 -2.472462E+03  3.651606E+03  1.873813E+03  8.183248E+02
       412  23 -1.509962E+06  8.247711E+01 -1.403775E+03 -2.206072E+03  1.169894E+03  5.408875E+02
       412  24 -1.510086E+06  7.769871E+00 -9.311551E+02  3.651252E+03  4.660209E+02  2.459999E+02
       412  25 -1.549902E+06 -1.031321E+04 -1.230285E+04  3.669836E+03  1.803104E+03  8.182622E+02
       412  26 -1.541552E+06 -7.809811E+03 -9.221837E+03 -2.225131E+03  1.094626E+03  5.408165E+02
       412  27 -1.533451E+06 -5.835029E+03 -6.740101E+03  3.594941E+03  3.861860E+02  2.459200E+02
       413   1 -1.514902E+06 -1.253827E+03 -2.027881E+03  3.677165E+03 -3.886786E+02 -6.947324E+01
       413   2 -1.523201E+06 -3.267651E+03 -3.958735E+03 -2.266974E+03 -4.103081E+01  2.258282E+02
       413   3 -1.531623E+06 -5.478163E+03 -6.171458E+03  3.696638E+03  3.066293E+02  5.118843E+02
       413   4 -1.510058E+06 -3.829499E+01 -8.028814E+02  3.694196E+03 -3.097386E+02 -6.939317E+01
       413   5 -1.509996E+06  3.130801E+01 -6.908370E+02 -2.259644E+03  3.547617E+01  2.259039E+02
       413   6 -1.510058E+06 -9.537873E+01 -8.589941E+02  3.694250E+03  3.807080E+02  5.119561E+02
       413   7 -1.505213E+06  1.177235E+03  4.221168E+02  3.711226E+03 -2.307979E+02 -6.931309E+01
       413   8 -1.496791E+06  3.330254E+03  2.577048E+03 -2.252315E+03  1.119848E+02  2.259797E+02
       413   9 -1.488492E+06  5.287371E+03  4.453436E+03  3.691863E+03  4.547892E+02  5.120278E+02
       413  10 -1.514902E+06 -1.253827E+03 -2.027882E+03  3.677165E+03  4.235294E-10 -3.973701E-10
       413  11 -1.523201E+06 -3.267651E+03 -3.958735E+03 -2.266974E+03  5.046194E-10 -5.190912E-10
       413  12 -1.531623E+06 -5.478164E+03 -6.171459E+03  3.696637E+03 -2.378278E-10  3.996440E-10
       413  13 -1.510058E+06 -3.829502E+01 -8.028816E+02  3.694196E+03  6.475699E-10 -1.362730E-09
       413  14 -1.509996E+06  3.130796E+01 -6.908371E+02 -2.259644E+03  2.137958E-10 -1.402917E-09
       413  15 -1.510058E+06 -9.537905E+01 -8.589948E+02  3.694250E+03 -6.781929E-10  1.493981E-09
       413  16 -1.505213E+06  1.177235E+03  4.221167E+02  3.711226E+03 -8.254567E-10 -6.023961E-10
       413  17 -1.496791E+06  3.330254E+03  2.577048E+03 -2.252315E+03 -6.735264E-10 -3.701476E-10
       413  18 -1.488492E+06  5.287371E+03  4.453435E+03  3.691863E+03 -1.152952E-09 -2.190831E-10
       413  19 -1.514902E+06 -1.253827E+03 -2.027881E+03  3.677165E+03  3.886786E+02  6.947324E+01
       413  20 -1.523201E+06 -3.267651E+03 -3.958735E+03 -2.266974E+03  4.103081E+01 -2.258282E+02
       413  21 -1.531623E+06 -5.478163E+03 -6.171458E+03  3.696638E+03 -3.066293E+02 -5.118843E+02
       413  22 -1.510058E+06 -3.829499E+01 -8.028814E+02  3.694196E+03  3.097386E+02  6.939317E+01
       413  23 -1.509996E+06  3.130801E+01 -6.908370E+02 -2.259644E+03 -3.547617E+01 -2.259039E+02
       413  24 -1.510058E+06 -9.537873E+01 -8.589941E+02  3.694250E+03 -3.807080E+02 -5.119561E+02
       413  25 -1.505213E+06  1.177235E+03  4.221168E+02  3.711226E+03  2.307979E+02  6.931309E+01
       413  26 -1.496791E+06  3.330254E+03  2.577048E+03 -2.252315E+03 -1.119848E+02 -2.259797E+02
       413  27 -1.488492E+06  5.287371E+03  4.453436E+03  3.691863E+03 -4.547892E+02 -5.120278E+02
       414   1 -1.559239E+06 -1.224852E+04 -1.318739E+04  3.425219E+03  4.647066E+02  6.880742E+02
       414   2 -1.566895E+06 -1.407117E+04 -1.562436E+04 -2.069626E+03  1.254104E+03  9.777080E+02
       414   3 -1.574930E+06 -1.694724E+04 -1.884207E+04  3.606615E+03  2.043604E+03  1.211079E+03
       414   4 -1.510114E+06  3.028034E+01 -1.003301E+03  3.530259E+03  5.482721E+02  6.881510E+02
       414   5 -1.509927E+06  1.617408E+02 -1.525713E+03 -2.054923E+03  1.322908E+03  9.777635E+02
       414   6 -1.510115E+06 -7.575600E+02 -2.818513E+03  3.530917E+03  2.097656E+03  1.211116E+03
       414   7 -1.460987E+06  1.230890E+04  1.118061E+04  3.635307E+03  6.318442E+02  6.882278E+02
       414   8 -1.452956E+06  1.439441E+04  1.257269E+04 -2.040219E+03  1.391718E+03  9.778189E+02
       414   9 -1.445297E+06  1.543180E+04  1.320474E+04  3.455211E+03  2.151713E+03  1.211152E+03
       414  10 -1.559239E+06 -1.224852E+04 -1.318739E+04  3.425218E+03  7.322970E-10 -1.185600E-09
       414  11 -1.566895E+06 -1.407117E+04 -1.562436E+04 -2.069627E+03  5.608346E-10  1.103664E-10
       414  12 -1.574930E+06 -1.694724E+04 -1.884209E+04  3.606613E+03 -6.264510E-11 -2.905272E-12
       414  13 -1.510114E+06  3.027975E+01 -1.003302E+03  3.530259E+03 -4.451389E-10  8.359557E-10
       414  14 -1.509927E+06  1.617393E+02 -1.525718E+03 -2.054924E+03 -9.898014E-10  1.558512E-09
       414  15 -1.510115E+06 -7.575628E+02 -2.818524E+03  3.530915E+03  2.348231E-10 -6.275923E-10
       414  16 -1.460987E+06  1.230890E+04  1.118061E+04  3.635307E+03 -4.537673E-10 -1.012895E-09
       414  17 -1.452956E+06  1.439441E+04  1.257269E+04 -2.040220E+03 -1.639752E-09  1.702534E-09
       414  18 -1.445297E+06  1.543180E+04  1.320472E+04  3.455208E+03 -1.082506E-09  7.101675E-12
       414  19 -1.559239E+06 -1.224852E+04 -1.318739E+04  3.425219E+03 -4.647066E+02 -6.880742E+02
       414  20 -1.566895E+06 -1.407117E+04 -1.562436E+04 -2.069626E+03 -1.254104E+03 -9.777080E+02
       414  21 -1.574930E+06 -1.694724E+04 -1.884207E+04  3.606615E+03 -2.043604E+03 -1.211079E+03
       414  22 -1.510114E+06  3.028034E+01 -1.003301E+03  3.530259E+03 -5.482721E+02 -6.881510E+02
       414  23 -1.509927E+06  1.617408E+02 -1.525713E+03 -2.054923E+03 -1.322908E+03 -9.777635E+02
       414  24 -1.510115E+06 -7.575600E+02 -2.818513E+03  3.530917E+03 -2.097656E+03 -1.211116E+03
       414  25 -1.460987E+06  1.230890E+04  1.118061E+04  3.635307E+03 -6.318442E+02 -6.882278E+02
       414  26 -1.452956E+06  1.439441E+04  1.257269E+04 -2.040219E+03 -1.391718E+03 -9.778189E+02
       414  27 -1.445297E+06  1.543180E+04  1.320474E+04  3.455211E+03 -2.151713E+03 -1.211152E+03
       415   1 -1.600111E+06 -2.216863E+04 -2.571014E+04  2.640663E+03  2.555384E+03  1.402398E+03
       415   2 -1.605691E+06 -2.289208E+04 -2.952707E+04 -1.432497E+03  5.600985E+03  1.679022E+03
       415   3 -1.613553E+06 -3.123508E+04 -3.723119E+04  4.058688E+03  8.646792E+03  1.668370E+03
       415   4 -1.510536E+06  2.167102E+02 -3.518103E+03  3.172263E+03  2.665776E+03  1.402473E+03
       415   5 -1.509405E+06  1.163384E+03 -5.701627E+03 -1.608237E+03  5.636092E+03  1.679027E+03
       415   6 -1.510541E+06 -5.495739E+03 -1.171951E+04  3.175522E+03  8.606647E+03  1.668317E+03
       415   7 -1.420954E+06  2.260145E+04  1.867333E+04  3.703938E+03  2.776184E+03  1.402548E+03
       415   8 -1.413110E+06  2.521815E+04  1.812313E+04 -1.784006E+03  5.671204E+03  1.679031E+03
       415   9 -1.407520E+06  2.024281E+04  1.379137E+04  2.292208E+03  8.566495E+03  1.668264E+03
       415  10 -1.600111E+06 -2.216863E+04 -2.571015E+04  2.640660E+03 -2.739018E-10  1.015437E-09
       415  11 -1.605691E+06 -2.289209E+04 -2.952713E+04 -1.432505E+03  3.921822E-10 -1.902344E-10
       415  12 -1.613553E+06 -3.123510E+04 -3.723133E+04  4.058676E+03 -5.206233E-10 -1.897801E-10
       415  13 -1.510536E+06  2.167062E+02 -3.518120E+03  3.172260E+03  1.724680E-11 -5.809926E-10
       415  14 -1.509405E+06  1.163372E+03 -5.701692E+03 -1.608245E+03 -4.489372E-10 -3.908131E-10
       415  15 -1.510542E+06 -5.495762E+03 -1.171966E+04  3.175510E+03  2.918074E-10 -2.381240E-10
       415  16 -1.420954E+06  2.260144E+04  1.867331E+04  3.703935E+03 -8.522041E-10 -7.024617E-10
       415  17 -1.413110E+06  2.521814E+04  1.812306E+04 -1.784014E+03 -5.283943E-10 -8.858416E-10
       415  18 -1.407520E+06  2.024279E+04  1.379123E+04  2.292196E+03 -5.631013E-11  2.253308E-10
       415  19 -1.600111E+06 -2.216863E+04 -2.571014E+04  2.640663E+03 -2.555384E+03 -1.402398E+03
       415  20 -1.605691E+06 -2.289208E+04 -2.952707E+04 -1.432497E+03 -5.600985E+03 -1.679022E+03
       415  21 -1.613553E+06 -3.123508E+04 -3.723119E+04  4.058688E+03 -8.646792E+03 -1.668370E+03
       415  22 -1.510536E+06  2.167102E+02 -3.518103E+03  3.172263E+03 -2.665776E+03 -1.402473E+03
       415  23 -1.509405E+06  1.163384E+03 -5.701627E+03 -1.608237E+03 -5.636092E+03 -1.679027E+03
       415  24 -1.510541E+06 -5.495739E+03 -1.171951E+04  3.175522E+03 -8.606647E+03 -1.668317E+03
       415  25 -1.420954E+06  2.260145E+04  1.867333E+04  3.703938E+03 -2.776184E+03 -1.402548E+03
       415  26 -1.413110E+06  2.521815E+04  1.812313E+04 -1.784006E+03 -5.671204E+03 -1.679031E+03
       415  27 -1.407520E+06  2.024281E+04  1.379137E+04  2.292208E+03 -8.566495E+03 -1.668264E+03
       416   1 -1.636434E+06 -2.919911E+04 -4.466092E+04 -7.368042E+02  1.056475E+04  2.081306E+03
       416   2 -1.633926E+06 -2.367749E+04 -5.356634E+04  8.619315E+02  2.301191E+04  2.438357E+03
       416   3 -1.646629E+06 -7.270582E+04 -8.421652E+04  9.652991E+03  3.545928E+04  8.389551E+02
       416   4 -1.513391E+06  1.548348E+03 -1.420194E+04  2.642805E+03  1.091654E+04  2.081505E+03
       416   5 -1.505847E+06  8.313157E+03 -2.190832E+04 -9.491689E+02  2.285034E+04  2.438204E+03
       416   6 -1.513422E+06 -3.937679E+04 -5.099915E+04  2.651263E+03  3.478449E+04  8.384176E+02
       416   7 -1.390334E+06  3.229471E+04  1.625592E+04  6.023085E+03  1.126839E+04  2.081708E+03
       416   8 -1.377753E+06  4.030259E+04  9.748483E+03 -2.760645E+03  2.268874E+04  2.438051E+03
       416   9 -1.380198E+06 -6.048915E+03 -1.778309E+04 -4.351972E+03  3.410955E+04  8.378955E+02
       416  10 -1.636434E+06 -2.919914E+04 -4.466114E+04 -7.368219E+02  1.939066E-10 -1.446982E-10
       416  11 -1.633927E+06 -2.367764E+04 -5.356735E+04  8.618863E+02  4.718699E-10  1.035268E-10
       416  12 -1.646630E+06 -7.270616E+04 -8.421889E+04  9.652967E+03 -1.345774E-10  4.003636E-10
       416  13 -1.513391E+06  1.548311E+03 -1.420218E+04  2.642787E+03  1.053197E-09 -6.930695E-10
       416  14 -1.505848E+06  8.313010E+03 -2.190931E+04 -9.492137E+02 -7.054247E-11  2.798218E-10
       416  15 -1.513423E+06 -3.937712E+04 -5.100143E+04  2.651240E+03  2.871457E-10  5.767785E-11
       416  16 -1.390334E+06  3.229467E+04  1.625567E+04  6.023066E+03 -1.552149E-10  5.214074E-10
       416  17 -1.377754E+06  4.030244E+04  9.747502E+03 -2.760690E+03 -1.413013E-10  5.578637E-10
       416  18 -1.380200E+06 -6.049229E+03 -1.778528E+04 -4.351995E+03 -6.922642E-10  3.107999E-10
       416  19 -1.636434E+06 -2.919911E+04 -4.466092E+04 -7.368042E+02 -1.056475E+04 -2.081306E+03
       416  20 -1.633926E+06 -2.367749E+04 -5.356634E+04  8.619315E+02 -2.301191E+04 -2.438357E+03
       416  21 -1.646629E+06 -7.270582E+04 -8.421652E+04  9.652991E+03 -3.545928E+04 -8.389551E+02
       416  22 -1.513391E+06  1.548348E+03 -1.420194E+04  2.642805E+03 -1.091654E+04 -2.081505E+03
       416  23 -1.505847E+06  8.313157E+03 -2.190832E+04 -9.491689E+02 -2.285034E+04 -2.438204E+03
       416  24 -1.513422E+06 -3.937679E+04 -5.099915E+04  2.651263E+03 -3.478449E+04 -8.384176E+02
       416  25 -1.390334E+06  3.229471E+04  1.625592E+04  6.023085E+03 -1.126839E+04 -2.081708E+03
       416  26 -1.377753E+06  4.030259E+04  9.748483E+03 -2.760645E+03 -2.268874E+04 -2.438051E+03
       416  27 -1.380198E+06 -6.048915E+03 -1.778309E+04 -4.351972E+03 -3.410955E+04 -8.378955E+02
       417   1  4.874217E+06  9.750492E+05  1.259393E+06  1.762007E+05  8.509776E+05 -4.583902E+01
       417   2  4.685967E+06 -1.863568E+05  5.500544E+05  4.579842E+04  5.594612E+05 -1.032159E+03
       417   3  4.866026E+06 -2.320246E+04  3.609021E+05 -7.735032E+04  2.679146E+05 -9.257820E+02
       417   4  4.805455E+06  9.578543E+05  1.242360E+06  4.171995E+03  8.505882E+05 -2.799680E+02
       417   5  4.622397E+06 -2.021573E+05  5.344481E+05  6.473016E+02  5.593592E+05 -1.072577E+03
       417   6  4.807602E+06 -3.764542E+04  3.465558E+05  4.344076E+03  2.680976E+05 -8.907333E+02
       417   7  4.736761E+06  9.407694E+05  1.225343E+06 -1.678378E+05  8.501988E+05 -5.139053E+02
       417   8  4.558834E+06 -2.179505E+05  5.188426E+05 -4.449921E+04  5.592573E+05 -1.112983E+03
       417   9  4.749196E+06 -5.206374E+04  3.322129E+05  8.603084E+04  2.682805E+05 -8.556340E+02
       417  10  4.873445E+06  9.748567E+05  1.258042E+06  1.762008E+05 -3.601119E-11 -1.144509E-09
       417  11  4.685633E+06 -1.864399E+05  5.494708E+05  4.579889E+04  1.887658E-09 -2.307500E-09
       417  12  4.865949E+06 -2.322154E+04  3.607683E+05 -7.735013E+04 -2.493217E-09 -1.208731E-09
       417  13  4.804683E+06  9.576619E+05  1.241011E+06  4.172188E+03  1.603894E-09 -8.777233E-10
       417  14  4.622063E+06 -2.022405E+05  5.338646E+05  6.477838E+02  1.685989E-09 -2.459942E-09
       417  15  4.807526E+06 -3.766453E+04  3.464218E+05  4.344268E+03 -1.830532E-09 -1.171748E-09
       417  16  4.735989E+06  9.405771E+05  1.223994E+06 -1.678375E+05  9.152283E-10 -1.147590E-09
       417  17  4.558500E+06 -2.180337E+05  5.182593E+05 -4.449872E+04  2.193175E-09 -2.542764E-09
       417  18  4.749120E+06 -5.208288E+04  3.320787E+05  8.603102E+04  3.708935E-09  2.574799E-10
       417  19  4.874217E+06  9.750492E+05  1.259393E+06  1.762007E+05 -8.509776E+05  4.583902E+01
       417  20  4.685967E+06 -1.863568E+05  5.500544E+05  4.579842E+04 -5.594612E+05  1.032159E+03
       417  21  4.866026E+06 -2.320246E+04  3.609021E+05 -7.735032E+04 -2.679146E+05  9.257820E+02
       417  22  4.805455E+06  9.578543E+05  1.242360E+06  4.171995E+03 -8.505882E+05  2.799680E+02
       417  23  4.622397E+06 -2.021573E+05  5.344481E+05  6.473016E+02 -5.593592E+05  1.072577E+03
       417  24  4.807602E+06 -3.764542E+04  3.465558E+05  4.344076E+03 -2.680976E+05  8.907333E+02
       417  25  4.736761E+06  9.407694E+05  1.225343E+06 -1.678378E+05 -8.501988E+05  5.139053E+02
       417  26  4.558834E+06 -2.179505E+05  5.188426E+05 -4.449921E+04 -5.592573E+05  1.112983E+03
       417  27  4.749196E+06 -5.206374E+04  3.322129E+05  8.603084E+04 -2.682805E+05  8.556340E+02
       418   1  4.783013E+06  1.449517E+05  2.970854E+05  2.617222E+04  2.114076E+05 -6.521156E+02
       418   2  4.752647E+06 -1.774698E+04  1.495399E+05  7.054667E+03  1.388019E+05 -6.771278E+02
       418   3  4.777889E+06  4.766054E+03  9.532285E+04 -8.164058E+03  6.619937E+04 -6.225370E+02
       418   4  4.737532E+06  1.336468E+05  2.858981E+05  3.508442E+03  2.113889E+05 -6.597826E+02
       418   5  4.709936E+06 -2.834948E+04  1.390431E+05  1.583214E+03  1.388080E+05 -6.783403E+02
       418   6  4.737946E+06 -5.132501E+03  8.550405E+04  3.556735E+03  6.622990E+04 -6.212843E+02
       418   7  4.692055E+06  1.223438E+05  2.747109E+05 -1.915368E+04  2.113702E+05 -6.674487E+02
       418   8  4.667226E+06 -3.895201E+04  1.285461E+05 -3.887864E+03  1.388141E+05 -6.795529E+02
       418   9  4.698004E+06 -1.503066E+04  7.568520E+04  1.527678E+04  6.626043E+04 -6.200303E+02
       418  10  4.782965E+06  1.449398E+05  2.970020E+05  2.617233E+04 -1.220378E-09 -7.034191E-10
       418  11  4.752627E+06 -1.775210E+04  1.495040E+05  7.054743E+03  1.246261E-09  3.725627E-10
       418  12  4.777884E+06  4.764888E+03  9.531467E+04 -8.164025E+03 -8.292303E-10 -8.014902E-10
       418  13  4.737485E+06  1.336349E+05  2.858148E+05  3.508554E+03  1.794268E-09  7.764810E-11
       418  14  4.709915E+06 -2.835461E+04  1.390071E+05  1.583290E+03  2.570018E-09 -1.533671E-10
       418  15  4.737941E+06 -5.133668E+03  8.549587E+04  3.556768E+03 -1.747328E-09 -5.241968E-10
       418  16  4.692007E+06  1.223319E+05  2.746276E+05 -1.915357E+04  5.910077E-10  3.933233E-10
       418  17  4.667205E+06 -3.895714E+04  1.285102E+05 -3.887788E+03  1.061629E-09 -2.038486E-09
       418  18  4.697999E+06 -1.503183E+04  7.567701E+04  1.527681E+04  5.143977E-11 -3.951930E-10
       418  19  4.783013E+06  1.449517E+05  2.970854E+05  2.617222E+04 -2.114076E+05  6.521156E+02
       418  20  4.752647E+06 -1.774698E+04  1.495399E+05  7.054667E+03 -1.388019E+05  6.771278E+02
       418  21  4.777889E+06  4.766054E+03  9.532285E+04 -8.164058E+03 -6.619937E+04  6.225370E+02
       418  22  4.737532E+06  1.336468E+05  2.858981E+05  3.508442E+03 -2.113889E+05  6.597826E+02
       418  23  4.709936E+06 -2.834948E+04  1.390431E+05  1.583214E+03 -1.388080E+05  6.783403E+02
       418  24  4.737946E+06 -5.132501E+03  8.550405E+04  3.556735E+03 -6.622990E+04  6.212843E+02
       418  25  4.692055E+06  1.223438E+05  2.747109E+05 -1.915368E+04 -2.113702E+05  6.674487E+02
       418  26  4.667226E+06 -3.895201E+04  1.285461E+05 -3.887864E+03 -1.388141E+05  6.795529E+02
       418  27  4.698004E+06 -1.503066E+04  7.568520E+04  1.527678E+04 -6.626043E+04  6.200303E+02
       419   1  4.761132E+06  2.687144E+04  7.640030E+04  5.821902E+03  5.235816E+04 -5.681401E+02
       419   2  4.755693E+06  4.114572E+03  4.388755E+04  2.809782E+03  3.408487E+04 -5.300113E+02
       419   3  4.759058E+06  7.168587E+03  2.965815E+04  1.320540E+03  1.581223E+04 -5.210236E+02
       419   4  4.727471E+06  1.851745E+04  6.813055E+04  3.006009E+03  5.237254E+04 -5.683702E+02
       419   5  4.723109E+06 -3.970665E+03  3.587820E+04  2.249058E+03  3.409235E+04 -5.300393E+02
       419   6  4.727553E+06 -6.459604E+02  2.191466E+04  3.014972E+03  1.581277E+04 -5.209818E+02
       419   7  4.693812E+06  1.016341E+04  5.986071E+04  1.902665E+02  5.238692E+04 -5.686005E+02
       419   8  4.690527E+06 -1.205598E+04  2.786878E+04  1.688363E+03  3.409983E+04 -5.300673E+02
       419   9  4.696049E+06 -8.460570E+03  1.417110E+04  4.709319E+03  1.581332E+04 -5.209400E+02
       419  10  4.761129E+06  2.687071E+04  7.639519E+04  5.821926E+03 -1.366391E-09 -2.488022E-10
       419  11  4.755691E+06  4.114262E+03  4.388538E+04  2.809797E+03 -3.200722E-09 -5.176905E-11
       419  12  4.759057E+06  7.168520E+03  2.965769E+04  1.320547E+03 -7.227562E-10  2.734342E-10
       419  13  4.727468E+06  1.851672E+04  6.812543E+04  3.006033E+03 -1.432629E-09 -3.690175E-11
       419  14  4.723108E+06 -3.970974E+03  3.587603E+04  2.249073E+03 -2.013659E-10  6.595645E-10
       419  15  4.727553E+06 -6.460272E+02  2.191420E+04  3.014979E+03 -2.998812E-09 -1.998973E-10
       419  16  4.693809E+06  1.016268E+04  5.985559E+04  1.902904E+02 -1.277773E-09  4.757363E-10
       419  17  4.690526E+06 -1.205629E+04  2.786661E+04  1.688378E+03 -2.149490E-09 -4.472560E-10
       419  18  4.696049E+06 -8.460637E+03  1.417064E+04  4.709326E+03 -3.515860E-10  5.572941E-11
       419  19  4.761132E+06  2.687144E+04  7.640030E+04  5.821902E+03 -5.235816E+04  5.681401E+02
       419  20  4.755693E+06  4.114572E+03  4.388755E+04  2.809782E+03 -3.408487E+04  5.300113E+02
       419  21  4.759058E+06  7.168587E+03  2.965815E+04  1.320540E+03 -1.581223E+04  5.210236E+02
       419  22  4.727471E+06  1.851745E+04  6.813055E+04  3.006009E+03 -5.237254E+04  5.683702E+02
       419  23  4.723109E+06 -3.970665E+03  3.587820E+04  2.249058E+03 -3.409235E+04  5.300393E+02
       419  24  4.727553E+06 -6.459604E+02  2.191466E+04  3.014972E+03 -1.581277E+04  5.209818E+02
       419  25  4.693812E+06  1.016341E+04  5.986071E+04  1.902665E+02 -5.238692E+04  5.686005E+02
       419  26  4.690527E+06 -1.205598E+04  2.786878E+04  1.688363E+03 -3.409983E+04  5.300673E+02
       419  27  4.696049E+06 -8.460570E+03  1.417110E+04  4.709319E+03 -1.581332E+04  5.209400E+02
       420   1  4.756274E+06  1.004688E+04  2.494620E+04  2.904982E+03  1.223681E+04 -5.130803E+02
       420   2  4.755787E+06  6.995754E+03  1.830925E+04  2.853672E+03  6.837156E+03 -5.088222E+02
       420   3  4.756984E+06  7.884666E+03  1.615377E+04  2.309273E+03  1.437465E+03 -5.457810E+02
       420   4  4.725963E+06  2.525967E+03  1.749718E+04  2.563017E+03  1.224380E+04 -5.130845E+02
       420   5  4.725126E+06 -6.117623E+02  1.077233E+04  2.810208E+03  6.833428E+03 -5.088263E+02
       420   6  4.725977E+06  1.925114E+02  8.536488E+03  2.564313E+03  1.423025E+03 -5.457910E+02
       420   7  4.695652E+06 -4.995015E+03  1.004810E+04  2.221069E+03  1.225079E+04 -5.130887E+02
       420   8  4.694467E+06 -8.219347E+03  3.235340E+03  2.766745E+03  6.829700E+03 -5.088305E+02
       420   9  4.694971E+06 -7.499714E+03  9.191305E+02  2.819340E+03  1.408585E+03 -5.458011E+02
       420  10  4.756274E+06  1.004684E+04  2.494592E+04  2.904988E+03  2.019632E-10  1.571537E-10
       420  11  4.755787E+06  6.995741E+03  1.830916E+04  2.853675E+03  1.571641E-11  8.432838E-10
       420  12  4.756984E+06  7.884665E+03  1.615377E+04  2.309274E+03 -1.657901E-09 -6.349227E-10
       420  13  4.725963E+06  2.525927E+03  1.749690E+04  2.563022E+03  3.375156E-10  6.453998E-10
       420  14  4.725126E+06 -6.117750E+02  1.077224E+04  2.810210E+03 -1.280935E-09 -3.859372E-10
       420  15  4.725977E+06  1.925106E+02  8.536483E+03  2.564314E+03  1.791181E-09  7.671846E-10
       420  16  4.695652E+06 -4.995055E+03  1.004782E+04  2.221074E+03 -1.088205E-10  1.178846E-09
       420  17  4.694467E+06 -8.219360E+03  3.235253E+03  2.766748E+03 -1.513224E-09 -1.522666E-09
       420  18  4.694971E+06 -7.499714E+03  9.191262E+02  2.819340E+03  5.611337E-10  2.712401E-10
       420  19  4.756274E+06  1.004688E+04  2.494620E+04  2.904982E+03 -1.223681E+04  5.130803E+02
       420  20  4.755787E+06  6.995754E+03  1.830925E+04  2.853672E+03 -6.837156E+03  5.088222E+02
       420  21  4.756984E+06  7.884666E+03  1.615377E+04  2.309273E+03 -1.437465E+03  5.457810E+02
       420  22  4.725963E+06  2.525967E+03  1.749718E+04  2.563017E+03 -1.224380E+04  5.130845E+02
       420  23  4.725126E+06 -6.117623E+02  1.077233E+04  2.810208E+03 -6.833428E+03  5.088263E+02
       420  24  4.725977E+06  1.925114E+02  8.536488E+03  2.564313E+03 -1.423025E+03  5.457910E+02
       420  25  4.695652E+06 -4.995015E+03  1.004810E+04  2.221069E+03 -1.225079E+04  5.130887E+02
       420  26  4.694467E+06 -8.219347E+03  3.235340E+03  2.766745E+03 -6.829700E+03  5.088305E+02
       420  27  4.694971E+06 -7.499714E+03  9.191305E+02  2.819340E+03 -1.408585E+03  5.458011E+02
       421   1  4.760530E+06  8.853794E+03  1.682743E+04  2.330689E+03 -1.014653E+02 -5.677687E+02
       421   2  4.761649E+06  8.521166E+03  1.853671E+04  3.397565E+03 -4.895162E+03 -6.134571E+02
       421   3  4.764243E+06  1.157550E+04  2.419792E+04  1.823412E+03 -9.688848E+03 -7.065160E+02
       421   4  4.725930E+06  2.681332E+02  8.320163E+03  2.086966E+03 -1.064815E+02 -5.677739E+02
       421   5  4.725187E+06 -5.259292E+02  9.573512E+03  3.406821E+03 -4.912514E+03 -6.134714E+02
       421   6  4.725920E+06  2.069222E+03  1.478748E+04  2.085639E+03 -9.718522E+03 -7.065447E+02
       421   7  4.691331E+06 -8.317616E+03 -1.871955E+02  1.843256E+03 -1.114975E+02 -5.677790E+02
       421   8  4.688725E+06 -9.573123E+03  6.102199E+02  3.416077E+03 -4.929865E+03 -6.134858E+02
       421   9  4.687597E+06 -7.437165E+03  5.376926E+03  2.347850E+03 -9.748193E+03 -7.065733E+02
       421  10  4.760530E+06  8.853794E+03  1.682743E+04  2.330689E+03 -1.386440E-09 -6.417375E-10
       421  11  4.761649E+06  8.521160E+03  1.853666E+04  3.397562E+03  2.636202E-09  1.139661E-09
       421  12  4.764243E+06  1.157548E+04  2.419775E+04  1.823406E+03  1.723461E-10  6.214600E-10
       421  13  4.725930E+06  2.681329E+02  8.320162E+03  2.086966E+03  4.017223E-09  1.691201E-09
       421  14  4.725186E+06 -5.259360E+02  9.573466E+03  3.406819E+03  2.819458E-09  2.022703E-09
       421  15  4.725920E+06  2.069196E+03  1.478730E+04  2.085633E+03  4.521749E-10  2.127123E-10
       421  16  4.691331E+06 -8.317617E+03 -1.871961E+02  1.843256E+03  1.963355E-09  1.284696E-10
       421  17  4.688725E+06 -9.573130E+03  6.101739E+02  3.416075E+03 -1.211026E-09  3.130390E-10
       421  18  4.687597E+06 -7.437191E+03  5.376748E+03  2.347844E+03 -1.497237E-09 -3.284139E-10
       421  19  4.760530E+06  8.853794E+03  1.682743E+04  2.330689E+03  1.014653E+02  5.677687E+02
       421  20  4.761649E+06  8.521166E+03  1.853671E+04  3.397565E+03  4.895162E+03  6.134571E+02
       421  21  4.764243E+06  1.157550E+04  2.419792E+04  1.823412E+03  9.688848E+03  7.065160E+02
       421  22  4.725930E+06  2.681332E+02  8.320163E+03  2.086966E+03  1.064815E+02  5.677739E+02
       421  23  4.725187E+06 -5.259292E+02  9.573512E+03  3.406821E+03  4.912514E+03  6.134714E+02
       421  24  4.725920E+06  2.069222E+03  1.478748E+04  2.085639E+03  9.718522E+03  7.065447E+02
       421  25  4.691331E+06 -8.317616E+03 -1.871955E+02  1.843256E+03  1.114975E+02  5.677790E+02
       421  26  4.688725E+06 -9.573123E+03  6.102199E+02  3.416077E+03  4.929865E+03  6.134858E+02
       421  27  4.687597E+06 -7.437165E+03  5.376926E+03  2.347850E+03  9.748193E+03  7.065733E+02
       422   1  4.774817E+06  1.129752E+04  3.002297E+04  2.890391E+03 -1.269307E+04 -7.681162E+02
       422   2  4.775001E+06  9.505159E+03  4.228176E+04  3.768859E+03 -2.778100E+04 -8.873570E+02
       422   3  4.782446E+06  2.891005E+04  6.961220E+04 -8.178746E+02 -4.286897E+04 -1.043890E+03
       422   4  4.727212E+06 -5.180515E+02  1.831392E+04  1.463402E+03 -1.271605E+04 -7.681088E+02
       422   5  4.723547E+06 -3.260423E+03  2.963456E+04  4.189236E+03 -2.781281E+04 -8.874074E+02
       422   6  4.727145E+06  1.519699E+04  5.603384E+04  1.449812E+03 -4.290952E+04 -1.044089E+03
       422   7  4.679609E+06 -1.233378E+04  6.604709E+03  3.652135E+01 -1.273903E+04 -7.681012E+02
       422   8  4.672096E+06 -1.602620E+04  1.698715E+04  4.609579E+03 -2.784462E+04 -8.874579E+02
       422   9  4.671847E+06  1.483717E+03  4.245525E+04  3.717298E+03 -4.295006E+04 -1.044288E+03
       422  10  4.774817E+06  1.129747E+04  3.002267E+04  2.890383E+03  5.188851E-10  1.621567E-09
       422  11  4.775000E+06  9.504953E+03  4.228032E+04  3.768839E+03 -4.281984E-09 -1.135493E-09
       422  12  4.782444E+06  2.890956E+04  6.960877E+04 -8.179106E+02 -1.753166E-11  7.849622E-11
       422  13  4.727212E+06 -5.180951E+02  1.831362E+04  1.463394E+03  2.695603E-10  2.618643E-10
       422  14  4.723546E+06 -3.260630E+03  2.963311E+04  4.189217E+03 -1.923942E-09 -7.662540E-11
       422  15  4.727143E+06  1.519650E+04  5.603040E+04  1.449776E+03 -1.264443E-09 -2.467537E-10
       422  16  4.679609E+06 -1.233382E+04  6.604406E+03  3.651348E+01 -2.176700E-09 -8.664855E-10
       422  17  4.672095E+06 -1.602641E+04  1.698571E+04  4.609559E+03 -1.958329E-09 -3.453812E-10
       422  18  4.671845E+06  1.483225E+03  4.245181E+04  3.717262E+03 -1.033521E-09 -2.332932E-10
       422  19  4.774817E+06  1.129752E+04  3.002297E+04  2.890391E+03  1.269307E+04  7.681162E+02
       422  20  4.775001E+06  9.505159E+03  4.228176E+04  3.768859E+03  2.778100E+04  8.873570E+02
       422  21  4.782446E+06  2.891005E+04  6.961220E+04 -8.178746E+02  4.286897E+04  1.043890E+03
       422  22  4.727212E+06 -5.180515E+02  1.831392E+04  1.463402E+03  1.271605E+04  7.681088E+02
       422  23  4.723547E+06 -3.260423E+03  2.963456E+04  4.189236E+03  2.781281E+04  8.874074E+02
       422  24  4.727145E+06  1.519699E+04  5.603384E+04  1.449812E+03  4.290952E+04  1.044089E+03
       422  25  4.679609E+06 -1.233378E+04  6.604709E+03  3.652135E+01  1.273903E+04  7.681012E+02
       422  26  4.672096E+06 -1.602620E+04  1.698715E+04  4.609579E+03  2.784462E+04  8.874579E+02
       422  27  4.671847E+06  1.483717E+03  4.245525E+04  3.717298E+03  4.295006E+04  1.044288E+03
       423   1  4.808328E+06  1.381649E+04  8.812757E+04  1.022645E+04 -5.422518E+04 -1.200693E+03
       423   2  4.792142E+06 -3.576958E+03  1.336925E+05  9.398034E+02 -1.138789E+05 -1.477631E+03
       423   3  4.821652E+06  1.310548E+05  2.559049E+05 -1.810384E+04 -1.735363E+05 -1.583207E+03
       423   4  4.735745E+06 -4.216441E+03  7.027112E+04  5.450983E+02 -5.430248E+04 -1.199936E+03
       423   5  4.712728E+06 -2.326866E+04  1.141806E+05  5.361890E+03 -1.139047E+05 -1.478484E+03
       423   6  4.735404E+06  1.097053E+05  2.347091E+05  4.219764E+02 -1.735099E+05 -1.588350E+03
       423   7  4.663167E+06 -2.224942E+04  5.241432E+04 -9.135126E+03 -5.437976E+04 -1.199178E+03
       423   8  4.633320E+06 -4.296075E+04  9.466825E+04  9.783413E+03 -1.139305E+05 -1.479337E+03
       423   9  4.649163E+06  8.835658E+04  2.135128E+05  1.894523E+04 -1.734835E+05 -1.593492E+03
       423  10  4.808325E+06  1.381571E+04  8.812209E+04  1.022639E+04  2.203622E-10 -3.852243E-10
       423  11  4.792129E+06 -3.580409E+03  1.336683E+05  9.396681E+02  9.033024E-11 -7.116406E-11
       423  12  4.821620E+06  1.310467E+05  2.558487E+05 -1.810406E+04 -1.588921E-10 -1.227561E-09
       423  13  4.735742E+06 -4.217227E+03  7.026561E+04  5.450459E+02 -1.011432E-09 -9.128559E-11
       423  14  4.712715E+06 -2.327211E+04  1.141564E+05  5.361755E+03 -8.118097E-10 -6.312861E-11
       423  15  4.735371E+06  1.096973E+05  2.346529E+05  4.217548E+02  2.485321E-10 -7.083649E-10
       423  16  4.663164E+06 -2.225021E+04  5.240880E+04 -9.135178E+03 -3.609930E-10  4.206281E-10
       423  17  4.633306E+06 -4.296421E+04  9.464404E+04  9.783277E+03  4.117421E-09  2.392035E-09
       423  18  4.649131E+06  8.834858E+04  2.134567E+05  1.894501E+04  1.317321E-09 -2.557328E-10
       423  19  4.808328E+06  1.381649E+04  8.812757E+04  1.022645E+04  5.422518E+04  1.200693E+03
       423  20  4.792142E+06 -3.576958E+03  1.336925E+05  9.398034E+02  1.138789E+05  1.477631E+03
       423  21  4.821652E+06  1.310548E+05  2.559049E+05 -1.810384E+04  1.735363E+05  1.583207E+03
       423  22  4.735745E+06 -4.216441E+03  7.027112E+04  5.450983E+02  5.430248E+04  1.199936E+03
       423  23  4.712728E+06 -2.326866E+04  1.141806E+05  5.361890E+03  1.139047E+05  1.478484E+03
       423  24  4.735404E+06  1.097053E+05  2.347091E+05  4.219764E+02  1.735099E+05  1.588350E+03
       423  25  4.663167E+06 -2.224942E+04  5.241432E+04 -9.135126E+03  5.437976E+04  1.199178E+03
       423  26  4.633320E+06 -4.296075E+04  9.466825E+04  9.783413E+03  1.139305E+05  1.479337E+03
       423  27  4.649163E+06  8.835658E+04  2.135128E+05  1.894523E+04  1.734835E+05  1.593492E+03
       424   1  4.908574E+06 -2.023591E+03  3.129495E+05  6.635088E+04 -2.196690E+05 -2.188036E+03
       424   2  4.768257E+06 -1.344605E+05  4.698852E+05 -2.962858E+04 -4.593615E+05 -2.985670E+03
       424   3  4.930399E+06  8.204223E+05  1.054029E+06 -1.430694E+05 -6.990425E+05 -1.695904E+03
       424   4  4.792932E+06 -3.091519E+04  2.844867E+05 -8.272233E+02 -2.200571E+05 -2.164949E+03
       424   5  4.640832E+06 -1.659524E+05  4.386386E+05  7.308452E+03 -4.591733E+05 -3.012679E+03
       424   6  4.791134E+06  7.863094E+05  1.019659E+06 -1.993354E+03 -6.982732E+05 -1.852645E+03
       424   7  4.677311E+06 -5.979096E+04  2.560253E+05 -6.799288E+04 -2.204452E+05 -2.141775E+03
       424   8  4.513424E+06 -1.974404E+05  4.073915E+05  4.423794E+04 -4.589852E+05 -3.039670E+03
       424   9  4.651928E+06  7.522694E+05  9.852986E+05  1.390513E+05 -6.975042E+05 -2.009068E+03
       424  10  4.908523E+06 -2.036423E+03  3.128595E+05  6.635050E+04 -9.477743E-10 -1.087859E-09
       424  11  4.768032E+06 -1.345166E+05  4.694917E+05 -2.962969E+04 -1.422580E-09 -2.531957E-09
       424  12  4.929878E+06  8.202924E+05  1.053118E+06 -1.430704E+05 -1.630343E-09 -1.357754E-09
       424  13  4.792880E+06 -3.092807E+04  2.843964E+05 -8.276063E+02 -4.390499E-09 -5.163142E-09
       424  14  4.640607E+06 -1.660085E+05  4.382454E+05  7.307341E+03  4.310069E-09  3.112622E-09
       424  15  4.790613E+06  7.861797E+05  1.018750E+06 -1.994393E+03  3.485475E-10  4.008017E-11
       424  16  4.677259E+06 -5.980389E+04  2.559347E+05 -6.799326E+04 -1.016362E-10 -2.184301E-09
       424  17  4.513199E+06 -1.974964E+05  4.069985E+05  4.423683E+04  2.851218E-09  2.102416E-09
       424  18  4.651409E+06  7.521400E+05  9.843910E+05  1.390502E+05 -2.231959E-09 -1.640997E-09
       424  19  4.908574E+06 -2.023591E+03  3.129495E+05  6.635088E+04  2.196690E+05  2.188036E+03
       424  20  4.768257E+06 -1.344605E+05  4.698852E+05 -2.962858E+04  4.593615E+05  2.985670E+03
       424  21  4.930399E+06  8.204223E+05  1.054029E+06 -1.430694E+05  6.990425E+05  1.695904E+03
       424  22  4.792932E+06 -3.091519E+04  2.844867E+05 -8.272233E+02  2.200571E+05  2.164949E+03
       424  23  4.640832E+06 -1.659524E+05  4.386386E+05  7.308452E+03  4.591733E+05  3.012679E+03
       424  24  4.791134E+06  7.863094E+05  1.019659E+06 -1.993354E+03  6.982732E+05  1.852645E+03
       424  25  4.677311E+06 -5.979096E+04  2.560253E+05 -6.799288E+04  2.204452E+05  2.141775E+03
       424  26  4.513424E+06 -1.974404E+05  4.073915E+05  4.423794E+04  4.589852E+05  3.039670E+03
       424  27  4.651928E+06  7.522694E+05  9.852986E+05  1.390513E+05  6.975042E+05  2.009068E+03
       425   1  5.164847E+05  1.790609E+05  1.663403E+05  4.953351E+04  5.967849E+04 -1.067592E+04
       425   2  4.653865E+05  1.690794E+05  1.265267E+05  5.029525E+04  2.875956E+04 -3.670755E+04
       425   3  4.181381E+05  1.583443E+05  1.066746E+05  5.895969E+04 -2.179774E+03 -4.565363E+04
       425   4 -2.677740E+05 -1.407356E+04 -1.538309E+04  5.789969E+04 -1.078850E+04 -1.079071E+04
       425   5 -2.666580E+05 -4.124702E+03 -7.639208E+03  5.393681E+04 -6.824184E+03 -3.677282E+04
       425   6 -2.677496E+05 -9.856807E+02 -4.151402E+03  5.787620E+04 -2.883857E+03 -4.565965E+04
       425   7 -1.051454E+06 -2.072484E+05 -1.971290E+05  6.625500E+04 -8.116718E+04 -1.090747E+04
       425   8 -9.981795E+05 -1.773585E+05 -1.418222E+05  5.757374E+04 -4.236710E+04 -3.683854E+04
       425   9 -9.531706E+05 -1.603395E+05 -1.149903E+05  5.679373E+04 -3.587188E+03 -4.566566E+04
       425  10  5.164809E+05  1.790599E+05  1.663334E+05  4.953402E+04  3.107374E-11 -2.400613E-09
       425  11  4.653853E+05  1.690778E+05  1.265226E+05  5.029610E+04  2.478057E-09 -3.795229E-09
       425  12  4.181376E+05  1.583421E+05  1.066707E+05  5.895961E+04  9.238773E-10 -3.332473E-09
       425  13 -2.677741E+05 -1.407372E+04 -1.538352E+04  5.789960E+04 -6.371696E-10  1.089973E-09
       425  14 -2.666584E+05 -4.126167E+03 -7.641836E+03  5.393661E+04  6.167303E-10 -1.631573E-09
       425  15 -2.677502E+05 -9.879214E+02 -4.155335E+03  5.787610E+04  2.668932E-09 -3.329018E-09
       425  16 -1.051461E+06 -2.072503E+05 -1.971416E+05  6.625429E+04 -1.443765E-09  8.468009E-10
       425  17 -9.981818E+05 -1.773604E+05 -1.418281E+05  5.757248E+04 -2.622613E-09 -3.674352E-09
       425  18 -9.531712E+05 -1.603417E+05 -1.149942E+05  5.679360E+04 -2.286360E-09 -3.393123E-09
       425  19  5.164847E+05  1.790609E+05  1.663403E+05  4.953351E+04 -5.967849E+04  1.067592E+04
       425  20  4.653865E+05  1.690794E+05  1.265267E+05  5.029525E+04 -2.875956E+04  3.670755E+04
       425  21  4.181381E+05  1.583443E+05  1.066746E+05  5.895969E+04  2.179774E+03  4.565363E+04
       425  22 -2.677740E+05 -1.407356E+04 -1.538309E+04  5.789969E+04  1.078850E+04  1.079071E+04
       425  23 -2.666580E+05 -4.124702E+03 -7.639208E+03  5.393681E+04  6.824184E+03  3.677282E+04
       425  24 -2.677496E+05 -9.856807E+02 -4.151402E+03  5.787620E+04  2.883857E+03  4.565965E+04
       425  25 -1.051454E+06 -2.072484E+05 -1.971290E+05  6.625500E+04  8.116718E+04  1.090747E+04
       425  26 -9.981795E+05 -1.773585E+05 -1.418222E+05  5.757374E+04  4.236710E+04  3.683854E+04
       425  27 -9.531706E+05 -1.603395E+05 -1.149903E+05  5.679373E+04  3.587188E+03  4.566566E+04
       426   1  3.866344E+05  1.506653E+05  1.002495E+05  5.862065E+04 -1.359556E+03 -4.525277E+04
       426   2  3.373117E+05  1.391355E+05  8.995852E+04  5.430383E+04 -4.479253E+03 -4.476998E+04
       426   3  2.884368E+05  1.278303E+05  8.175234E+04  5.910823E+04 -7.603305E+03 -4.233992E+04
       426   4 -2.673056E+05 -7.851162E+02 -3.123431E+03  5.814911E+04 -2.347010E+03 -4.525917E+04
       426   5 -2.671737E+05 -8.819068E+01 -1.706259E+03  5.358729E+04 -1.492481E+03 -4.476824E+04
       426   6 -2.672856E+05  1.437247E+02 -9.634773E+02  5.814723E+04 -6.424865E+02 -4.232906E+04
       426   7 -9.208198E+05 -1.522567E+05 -1.065070E+05  5.767788E+04 -3.333461E+03 -4.526557E+04
       426   8 -8.712929E+05 -1.393293E+05 -9.337859E+04  5.287128E+04  1.491498E+03 -4.476651E+04
       426   9 -8.226975E+05 -1.275573E+05 -8.368495E+04  5.718696E+04  6.312356E+03 -4.231822E+04
       426  10  3.866338E+05  1.506631E+05  1.002456E+05  5.862060E+04 -7.839386E-09 -3.606740E-09
       426  11  3.373112E+05  1.391333E+05  8.995471E+04  5.430367E+04  4.477024E-10  1.459372E-09
       426  12  2.884362E+05  1.278283E+05  8.174887E+04  5.910797E+04  2.048252E-09  1.627764E-09
       426  13 -2.673062E+05 -7.873170E+02 -3.127290E+03  5.814903E+04 -5.449520E-10 -1.344896E-09
       426  14 -2.671742E+05 -9.034316E+01 -1.710029E+03  5.358723E+04  1.296217E-09 -6.416224E-10
       426  15 -2.672861E+05  1.418008E+02 -9.668447E+02  5.814721E+04  1.213667E-09 -2.051056E-09
       426  16 -9.208204E+05 -1.522589E+05 -1.065109E+05  5.767776E+04  5.430194E-09  1.571555E-09
       426  17 -8.712935E+05 -1.393315E+05 -9.338236E+04  5.287133E+04 -6.834597E-10  3.194400E-09
       426  18 -8.226980E+05 -1.275592E+05 -8.368839E+04  5.718717E+04 -2.571590E-09  8.104217E-10
       426  19  3.866344E+05  1.506653E+05  1.002495E+05  5.862065E+04  1.359556E+03  4.525277E+04
       426  20  3.373117E+05  1.391355E+05  8.995852E+04  5.430383E+04  4.479253E+03  4.476998E+04
       426  21  2.884368E+05  1.278303E+05  8.175234E+04  5.910823E+04  7.603305E+03  4.233992E+04
       426  22 -2.673056E+05 -7.851162E+02 -3.123431E+03  5.814911E+04  2.347010E+03  4.525917E+04
       426  23 -2.671737E+05 -8.819068E+01 -1.706259E+03  5.358729E+04  1.492481E+03  4.476824E+04
       426  24 -2.672856E+05  1.437247E+02 -9.634773E+02  5.814723E+04  6.424865E+02  4.232906E+04
       426  25 -9.208198E+05 -1.522567E+05 -1.065070E+05  5.767788E+04  3.333461E+03  4.526557E+04
       426  26 -8.712929E+05 -1.393293E+05 -9.337859E+04  5.287128E+04 -1.491498E+03  4.476651E+04
       426  27 -8.226975E+05 -1.275573E+05 -8.368495E+04  5.718696E+04 -6.312356E+03  4.231822E+04
       427   1  2.574296E+05  1.206300E+05  7.695193E+04  5.905125E+04 -7.430885E+03 -4.028603E+04
       427   2  2.082875E+05  1.093057E+05  6.963281E+04  5.436329E+04 -7.684404E+03 -3.677950E+04
       427   3  1.591698E+05  9.806795E+04  6.249112E+04  5.894070E+04 -7.939439E+03 -3.305023E+04
       427   4 -2.672377E+05  1.592357E+02 -7.305457E+02  5.817941E+04 -5.006918E+02 -4.027454E+04
       427   5 -2.672013E+05  1.941904E+02 -4.171928E+02  5.354645E+04 -3.000397E+02 -3.676596E+04
       427   6 -2.672219E+05  2.369501E+02 -2.419878E+02  5.817926E+04 -1.009210E+02 -3.303455E+04
       427   7 -7.916281E+05 -1.203244E+05 -7.841789E+04  5.730819E+04  6.423885E+03 -4.026306E+04
       427   8 -7.424625E+05 -1.089278E+05 -7.047103E+04  5.273013E+04  7.078903E+03 -3.675243E+04
       427   9 -6.934304E+05 -9.760248E+04 -6.297808E+04  5.741827E+04  7.732436E+03 -3.301889E+04
       427  10  2.574291E+05  1.206282E+05  7.694877E+04  5.905101E+04 -6.921799E-09  3.752531E-09
       427  11  2.082871E+05  1.093042E+05  6.963016E+04  5.436307E+04  5.492584E-10  3.595305E-09
       427  12  1.591695E+05  9.806676E+04  6.248895E+04  5.894049E+04  3.799795E-09  7.161856E-10
       427  13 -2.672382E+05  1.574941E+02 -7.335939E+02  5.817939E+04  7.455596E-10 -1.944720E-09
       427  14 -2.672017E+05  1.927390E+02 -4.197329E+02  5.354644E+04  3.300474E-10  3.229489E-09
       427  15 -2.672222E+05  2.357784E+02 -2.440383E+02  5.817926E+04  2.098340E-09  4.796652E-09
       427  16 -7.916286E+05 -1.203261E+05 -7.842101E+04  5.730839E+04  5.582042E-09  1.915993E-09
       427  17 -7.424629E+05 -1.089293E+05 -7.047366E+04  5.273034E+04  5.626673E-10  4.796141E-09
       427  18 -6.934308E+05 -9.760367E+04 -6.298024E+04  5.741847E+04 -4.727777E-09  7.747501E-10
       427  19  2.574296E+05  1.206300E+05  7.695193E+04  5.905125E+04  7.430885E+03  4.028603E+04
       427  20  2.082875E+05  1.093057E+05  6.963281E+04  5.436329E+04  7.684404E+03  3.677950E+04
       427  21  1.591698E+05  9.806795E+04  6.249112E+04  5.894070E+04  7.939439E+03  3.305023E+04
       427  22 -2.672377E+05  1.592357E+02 -7.305457E+02  5.817941E+04  5.006918E+02  4.027454E+04
       427  23 -2.672013E+05  1.941904E+02 -4.171928E+02  5.354645E+04  3.000397E+02  3.676596E+04
       427  24 -2.672219E+05  2.369501E+02 -2.419878E+02  5.817926E+04  1.009210E+02  3.303455E+04
       427  25 -7.916281E+05 -1.203244E+05 -7.841789E+04  5.730819E+04 -6.423885E+03  4.026306E+04
       427  26 -7.424625E+05 -1.089278E+05 -7.047103E+04  5.273013E+04 -7.078903E+03  3.675243E+04
       427  27 -6.934304E+05 -9.760248E+04 -6.297808E+04  5.741827E+04 -7.732436E+03  3.301889E+04
       428   1  1.282056E+05  9.092803E+04  5.778402E+04  5.889408E+04 -7.903262E+03 -3.080644E+04
       428   2  7.905849E+04  7.965085E+04  5.067953E+04  5.417067E+04 -7.904012E+03 -2.695327E+04
       428   3  2.988302E+04  6.842521E+04  4.357533E+04  5.873385E+04 -7.905630E+03 -2.307478E+04
       428   4 -2.672134E+05  2.427900E+02 -1.876362E+02  5.818397E+04 -6.693609E+01 -3.079019E+04
       428   5 -2.671874E+05  2.337143E+02 -1.185374E+02  5.354051E+04 -1.642891E+01 -2.693605E+04
       428   6 -2.672019E+05  2.671328E+02 -8.515745E+01  5.818394E+04  3.321067E+01 -2.305660E+04
       428   7 -6.624748E+05 -9.044968E+04 -5.816177E+04  5.747423E+04  7.764605E+03 -3.077394E+04
       428   8 -6.133123E+05 -7.918896E+04 -5.091846E+04  5.291064E+04  7.866937E+03 -2.691885E+04
       428   9 -5.641977E+05 -6.789501E+04 -4.374696E+04  5.763424E+04  7.968409E+03 -2.303843E+04
       428  10  1.282052E+05  9.092700E+04  5.778211E+04  5.889388E+04 -6.816301E-09  3.955999E-10
       428  11  7.905823E+04  7.965005E+04  5.067804E+04  5.417050E+04 -1.717903E-09  9.205056E-09
       428  12  2.988281E+04  6.842462E+04  4.357421E+04  5.873371E+04 -3.205978E-09  7.390811E-09
       428  13 -2.672137E+05  2.417721E+02 -1.894175E+02  5.818397E+04  1.176545E-12  8.399532E-10
       428  14 -2.671875E+05  2.329353E+02 -1.199007E+02  5.354051E+04  1.559498E-09  8.934212E-09
       428  15 -2.672020E+05  2.665620E+02 -8.615632E+01  5.818394E+04  7.777612E-10  3.403780E-09
       428  16 -6.624751E+05 -9.045071E+04 -5.816366E+04  5.747443E+04  6.117411E-09  1.114466E-09
       428  17 -6.133126E+05 -7.918975E+04 -5.091993E+04  5.291081E+04  9.115604E-10  4.965338E-09
       428  18 -5.641979E+05 -6.789560E+04 -4.374807E+04  5.763438E+04  1.264258E-09  7.483322E-10
       428  19  1.282056E+05  9.092803E+04  5.778402E+04  5.889408E+04  7.903262E+03  3.080644E+04
       428  20  7.905849E+04  7.965085E+04  5.067953E+04  5.417067E+04  7.904012E+03  2.695327E+04
       428  21  2.988302E+04  6.842521E+04  4.357533E+04  5.873385E+04  7.905630E+03  2.307478E+04
       428  22 -2.672134E+05  2.427900E+02 -1.876362E+02  5.818397E+04  6.693609E+01  3.079019E+04
       428  23 -2.671874E+05  2.337143E+02 -1.185374E+02  5.354051E+04  1.642891E+01  2.693605E+04
       428  24 -2.672019E+05  2.671328E+02 -8.515745E+01  5.818394E+04 -3.321067E+01  2.305660E+04
       428  25 -6.624748E+05 -9.044968E+04 -5.816177E+04  5.747423E+04 -7.764605E+03  3.077394E+04
       428  26 -6.133123E+05 -7.918896E+04 -5.091846E+04  5.291064E+04 -7.866937E+03  2.691885E+04
       428  27 -5.641977E+05 -6.789501E+04 -4.374696E+04  5.763424E+04 -7.968409E+03  2.303843E+04
       429   1 -1.092996E+03  6.128763E+04  3.884618E+04  5.868090E+04 -7.896508E+03 -2.080870E+04
       429   2 -5.025229E+04  5.001037E+04  3.170836E+04  5.394172E+04 -7.853813E+03 -1.691874E+04
       429   3 -9.945740E+04  3.877549E+04  2.453733E+04  5.849764E+04 -7.811622E+03 -1.303283E+04
       429   4 -2.671998E+05  2.719825E+02 -7.986716E+01  5.818580E+04  4.298767E+01 -2.079012E+04
       429   5 -2.671731E+05  2.583285E+02 -8.747020E+01  5.353815E+04  7.717235E+01 -1.689965E+04
       429   6 -2.671925E+05  2.887990E+02 -1.223140E+02  5.818578E+04  1.108575E+02 -1.301322E+04
       429   7 -5.332351E+05 -6.074692E+04 -3.900690E+04  5.769088E+04  7.979221E+03 -2.077154E+04
       429   8 -4.840464E+05 -4.949586E+04 -3.188388E+04  5.313469E+04  8.005501E+03 -1.688056E+04
       429   9 -4.348992E+05 -3.819916E+04 -2.478222E+04  5.787399E+04  8.031284E+03 -1.299363E+04
       429  10 -1.093179E+03  6.128715E+04  3.884525E+04  5.868077E+04  3.145895E-09  2.780179E-09
       429  11 -5.025243E+04  5.001004E+04  3.170770E+04  5.394161E+04 -3.043144E-08  3.787259E-10
       429  12 -9.945751E+04  3.877529E+04  2.453690E+04  5.849755E+04 -6.805894E-08  5.521369E-10
       429  13 -2.671999E+05  2.715185E+02 -8.067930E+01  5.818580E+04 -1.786681E-10  6.618937E-09
       429  14 -2.671732E+05  2.580219E+02 -8.800684E+01  5.353815E+04  2.252232E-09 -7.404344E-09
       429  15 -2.671926E+05  2.886172E+02 -1.226322E+02  5.818578E+04  1.252436E-09 -1.695707E-08
       429  16 -5.332352E+05 -6.074740E+04 -3.900783E+04  5.769101E+04 -4.829100E-09  3.152254E-09
       429  17 -4.840466E+05 -4.949618E+04 -3.188453E+04  5.313480E+04  3.122729E-08 -2.932816E-10
       429  18 -4.348993E+05 -3.819936E+04 -2.478266E+04  5.787408E+04  6.746935E-08  1.270272E-10
       429  19 -1.092996E+03  6.128763E+04  3.884618E+04  5.868090E+04  7.896508E+03  2.080870E+04
       429  20 -5.025229E+04  5.001037E+04  3.170836E+04  5.394172E+04  7.853813E+03  1.691874E+04
       429  21 -9.945740E+04  3.877549E+04  2.453733E+04  5.849764E+04  7.811622E+03  1.303283E+04
       429  22 -2.671998E+05  2.719825E+02 -7.986716E+01  5.818580E+04 -4.298767E+01  2.079012E+04
       429  23 -2.671731E+05  2.583285E+02 -8.747020E+01  5.353815E+04 -7.717235E+01  1.689965E+04
       429  24 -2.671925E+05  2.887990E+02 -1.223140E+02  5.818578E+04 -1.108575E+02  1.301322E+04
       429  25 -5.332351E+05 -6.074692E+04 -3.900690E+04  5.769088E+04 -7.979221E+03  2.077154E+04
       429  26 -4.840464E+05 -4.949586E+04 -3.188388E+04  5.313469E+04 -8.005501E+03  1.688056E+04
       429  27 -4.348992E+05 -3.819916E+04 -2.478222E+04  5.787399E+04 -8.031284E+03  1.299363E+04
       430   1 -1.304478E+05  3.163225E+04  1.976420E+04  5.843380E+04 -7.793920E+03 -1.076954E+04
       430   2 -1.795969E+05  2.033571E+04  1.248072E+04  5.369350E+04 -7.543946E+03 -6.916430E+03
       430   3 -2.288328E+05  9.040166E+03  5.017543E+03  5.824579E+04 -7.294040E+03 -3.128278E+03
       430   4 -2.671952E+05  2.924236E+02 -1.535235E+02  5.818518E+04  1.300302E+02 -1.074972E+04
       430   5 -2.671607E+05  2.708632E+02 -2.555608E+02  5.353888E+04  2.471927E+02 -6.896730E+03
       430   6 -2.671923E+05  2.734204E+02 -4.452167E+02  5.818524E+04  3.643062E+02 -3.108708E+03
       430   7 -4.039237E+05 -3.104823E+04 -2.007133E+04  5.793661E+04  8.052308E+03 -1.072990E+04
       430   8 -3.547166E+05 -1.979430E+04 -1.299174E+04  5.338427E+04  8.037278E+03 -6.877032E+03
       430   9 -3.055502E+05 -8.493360E+03 -5.907777E+03  5.812469E+04  8.022199E+03 -3.089138E+03
       430  10 -1.304479E+05  3.163210E+04  1.976387E+04  5.843373E+04  5.578712E-08  5.063455E-09
       430  11 -1.795970E+05  2.033564E+04  1.248053E+04  5.369346E+04  3.562398E-08  2.033271E-09
       430  12 -2.288329E+05  9.040141E+03  5.017425E+03  5.824577E+04  2.690741E-09  2.396273E-09
       430  13 -2.671953E+05  2.922995E+02 -1.537407E+02  5.818518E+04 -6.039052E-10 -1.421301E-08
       430  14 -2.671607E+05  2.708121E+02 -2.556503E+02  5.353888E+04 -5.172243E-11 -3.562189E-09
       430  15 -2.671923E+05  2.734100E+02 -4.452351E+02  5.818524E+04  9.933848E-10  1.906617E-09
       430  16 -4.039238E+05 -3.104837E+04 -2.007167E+04  5.793667E+04 -5.713216E-08  4.483181E-09
       430  17 -3.547166E+05 -1.979437E+04 -1.299196E+04  5.338432E+04 -3.546108E-08 -2.258847E-09
       430  18 -3.055502E+05 -8.493388E+03 -5.907916E+03  5.812471E+04 -4.313561E-09  1.154432E-09
       430  19 -1.304478E+05  3.163225E+04  1.976420E+04  5.843380E+04  7.793920E+03  1.076954E+04
       430  20 -1.795969E+05  2.033571E+04  1.248072E+04  5.369350E+04  7.543946E+03  6.916430E+03
       430  21 -2.288328E+05  9.040166E+03  5.017543E+03  5.824579E+04  7.294040E+03  3.128278E+03
       430  22 -2.671952E+05  2.924236E+02 -1.535235E+02  5.818518E+04 -1.300302E+02  1.074972E+04
       430  23 -2.671607E+05  2.708632E+02 -2.555608E+02  5.353888E+04 -2.471927E+02  6.896730E+03
       430  24 -2.671923E+05  2.734204E+02 -4.452167E+02  5.818524E+04 -3.643062E+02  3.108708E+03
       430  25 -4.039237E+05 -3.104823E+04 -2.007133E+04  5.793661E+04 -8.052308E+03  1.072990E+04
       430  26 -3.547166E+05 -1.979430E+04 -1.299174E+04  5.338427E+04 -8.037278E+03  6.877032E+03
       430  27 -3.055502E+05 -8.493360E+03 -5.907777E+03  5.812469E+04 -8.022199E+03  3.089138E+03
       431   1 -2.598794E+05  1.866234E+03  5.198393E+01  5.814071E+04 -7.220721E+03 -9.196334E+02
       431   2 -3.088794E+05 -9.628131E+03 -8.062835E+03  5.358853E+04 -5.537809E+03  2.556990E+03
       431   3 -3.582697E+05 -2.159024E+04 -1.740734E+04  5.828927E+04 -3.853581E+03  5.458181E+03
       431   4 -2.672195E+05  2.702899E+02 -5.867968E+02  5.817625E+04  4.471709E+02 -9.000055E+02
       431   5 -2.671254E+05  1.303586E+02 -1.035784E+03  5.355049E+04  9.563478E+02  2.573535E+03
       431   6 -2.672210E+05 -2.735668E+02 -1.899385E+03  5.817762E+04  1.466983E+03  5.471663E+03
       431   7 -2.745594E+05 -1.325624E+03 -1.225355E+03  5.821179E+04  8.114978E+03 -8.803766E+02
       431   8 -2.253696E+05  9.888779E+03  5.991370E+03  5.351245E+04  7.450927E+03  2.590079E+03
       431   9 -1.761640E+05  2.104268E+04  1.360841E+04  5.806595E+04  6.788302E+03  5.485143E+03
       431  10 -2.598795E+05  1.866219E+03  5.188433E+01  5.814070E+04 -5.817926E-09  7.489684E-09
       431  11 -3.088794E+05 -9.628146E+03 -8.062905E+03  5.358854E+04  4.904984E-09 -5.131881E-10
       431  12 -3.582697E+05 -2.159028E+04 -1.740743E+04  5.828929E+04  1.023192E-08  2.360493E-09
       431  13 -2.672195E+05  2.702890E+02 -5.867987E+02  5.817625E+04 -2.831796E-12  2.910847E-09
       431  14 -2.671254E+05  1.303513E+02 -1.035798E+03  5.355049E+04 -5.667291E-10  7.566288E-09
       431  15 -2.672210E+05 -2.735995E+02 -1.899445E+03  5.817762E+04  3.058399E-09 -1.225884E-09
       431  16 -2.745594E+05 -1.325643E+03 -1.225480E+03  5.821179E+04  4.431715E-09  3.188057E-09
       431  17 -2.253697E+05  9.888757E+03  5.991253E+03  5.351244E+04 -5.543766E-09  3.405832E-09
       431  18 -1.761641E+05  2.104264E+04  1.360827E+04  5.806592E+04 -1.152099E-08 -4.404421E-09
       431  19 -2.598794E+05  1.866234E+03  5.198393E+01  5.814071E+04  7.220721E+03  9.196334E+02
       431  20 -3.088794E+05 -9.628131E+03 -8.062835E+03  5.358853E+04  5.537809E+03 -2.556990E+03
       431  21 -3.582697E+05 -2.159024E+04 -1.740734E+04  5.828927E+04  3.853581E+03 -5.458181E+03
       431  22 -2.672195E+05  2.702899E+02 -5.867968E+02  5.817625E+04 -4.471709E+02  9.000055E+02
       431  23 -2.671254E+05  1.303586E+02 -1.035784E+03  5.355049E+04 -9.563478E+02 -2.573535E+03
       431  24 -2.672210E+05 -2.735668E+02 -1.899385E+03  5.817762E+04 -1.466983E+03 -5.471663E+03
       431  25 -2.745594E+05 -1.325624E+03 -1.225355E+03  5.821179E+04 -8.114978E+03  8.803766E+02
       431  26 -2.253696E+05  9.888779E+03  5.991370E+03  5.351245E+04 -7.450927E+03 -2.590079E+03
       431  27 -1.761640E+05  2.104268E+04  1.360841E+04  5.806595E+04 -6.788302E+03 -5.485143E+03
       432   1 -3.898248E+05 -2.907792E+04 -2.357416E+04  5.778511E+04 -3.615067E+03  7.178896E+03
       432   2 -4.374638E+05 -4.303839E+04 -3.761378E+04  5.614411E+04  9.067291E+03  7.334849E+03
       432   3 -4.882886E+05 -6.293196E+04 -6.140804E+04  6.340230E+04  2.176071E+04  2.437615E+03
       432   4 -2.674905E+05 -3.908396E+02 -2.525355E+03  5.809723E+04  1.789358E+03  7.192484E+03
       432   5 -2.667953E+05 -2.312728E+03 -4.643910E+03  5.365754E+04  4.169330E+03  7.322355E+03
       432   6 -2.674971E+05 -8.377102E+03 -9.358751E+03  5.811708E+04  6.561294E+03  2.399564E+03
       432   7 -1.451413E+05  2.829545E+04  1.852305E+04  5.840941E+04  7.194815E+03  7.206076E+03
       432   8 -9.609873E+04  3.841124E+04  2.832469E+04  5.117025E+04 -7.299467E+02  7.309903E+03
       432   9 -4.666018E+04  4.617450E+04  4.268806E+04  5.282995E+04 -8.643499E+03  2.361780E+03
       432  10 -3.898249E+05 -2.907798E+04 -2.357428E+04  5.778513E+04 -5.372773E-09  2.769967E-09
       432  11 -4.374640E+05 -4.303847E+04 -3.761403E+04  5.614405E+04  2.456078E-09 -2.061268E-09
       432  12 -4.882891E+05 -6.293209E+04 -6.140894E+04  6.340225E+04  1.848797E-09  1.770886E-10
       432  13 -2.674905E+05 -3.908960E+02 -2.525458E+03  5.809722E+04  8.968559E-10  5.954142E-09
       432  14 -2.667954E+05 -2.312790E+03 -4.644043E+03  5.365751E+04  2.300192E-09 -6.309859E-09
       432  15 -2.674971E+05 -8.377120E+03 -9.358843E+03  5.811707E+04  1.427732E-09  3.373634E-09
       432  16 -1.451414E+05  2.829538E+04  1.852286E+04  5.840936E+04  3.327070E-09 -4.678587E-10
       432  17 -9.609874E+04  3.841119E+04  2.832459E+04  5.117025E+04 -1.887400E-09  2.497889E-09
       432  18 -4.666026E+04  4.617448E+04  4.268791E+04  5.282996E+04 -4.024439E-09 -8.665604E-10
       432  19 -3.898248E+05 -2.907792E+04 -2.357416E+04  5.778511E+04  3.615067E+03 -7.178896E+03
       432  20 -4.374638E+05 -4.303839E+04 -3.761378E+04  5.614411E+04 -9.067291E+03 -7.334849E+03
       432  21 -4.882886E+05 -6.293196E+04 -6.140804E+04  6.340230E+04 -2.176071E+04 -2.437615E+03
       432  22 -2.674905E+05 -3.908396E+02 -2.525355E+03  5.809723E+04 -1.789358E+03 -7.192484E+03
       432  23 -2.667953E+05 -2.312728E+03 -4.643910E+03  5.365754E+04 -4.169330E+03 -7.322355E+03
       432  24 -2.674971E+05 -8.377102E+03 -9.358751E+03  5.811708E+04 -6.561294E+03 -2.399564E+03
       432  25 -1.451413E+05  2.829545E+04  1.852305E+04  5.840941E+04 -7.194815E+03 -7.206076E+03
       432  26 -9.609873E+04  3.841124E+04  2.832469E+04  5.117025E+04  7.299467E+02 -7.309903E+03
       432  27 -4.666018E+04  4.617450E+04  4.268806E+04  5.282995E+04  8.643499E+03 -2.361780E+03
       433   1 -6.018553E+05 -1.072925E+04 -5.388272E+04 -2.265679E+04 -1.262953E+05 -4.739261E+03
       433   2 -6.018170E+05  1.596373E+05  4.618759E+04 -1.113556E+04 -8.475401E+04 -1.337252E+04
       433   3 -6.562859E+05  1.319901E+05  6.980429E+04  2.874446E+04 -4.324275E+04 -1.187312E+04
       433   4 -1.158505E+06 -1.496053E+05 -1.921047E+05  1.170160E+04 -1.311793E+05 -4.759140E+03
       433   5 -1.130869E+06  2.793401E+04 -8.311493E+04 -2.685226E+03 -8.602973E+04 -1.337836E+04
       433   6 -1.158418E+06  6.739002E+03 -5.313627E+04  1.128837E+04 -4.090809E+04 -1.186459E+04
       433   7 -1.714871E+06 -2.885001E+05 -3.303492E+05  4.602895E+04 -1.360588E+05 -4.779571E+03
       433   8 -1.659666E+06 -1.037897E+05 -2.124378E+05  5.757693E+03 -8.730434E+04 -1.338423E+04
       433   9 -1.660319E+06 -1.185297E+05 -1.760951E+05 -6.153749E+03 -3.857530E+04 -1.185618E+04
       433  10 -6.018724E+05 -1.073356E+04 -5.391276E+04 -2.265727E+04 -3.278367E-09  3.160496E-09
       433  11 -6.018247E+05  1.596351E+05  4.617374E+04 -1.113647E+04 -2.920590E-10  1.383957E-08
       433  12 -6.562879E+05  1.319894E+05  6.980051E+04  2.874405E+04  2.849228E-09  4.885980E-09
       433  13 -1.158524E+06 -1.496100E+05 -1.921372E+05  1.170109E+04  1.595869E-09 -1.633464E-09
       433  14 -1.130877E+06  2.793182E+04 -8.312920E+04 -2.686153E+03  3.070622E-09 -7.162139E-09
       433  15 -1.158420E+06  6.738400E+03 -5.313968E+04  1.128798E+04  1.331554E-10  1.789868E-09
       433  16 -1.714891E+06 -2.885051E+05 -3.303841E+05  4.602842E+04  6.309735E-09  2.643574E-09
       433  17 -1.659674E+06 -1.037919E+05 -2.124525E+05  5.756751E+03 -2.161189E-09  8.083725E-09
       433  18 -1.660321E+06 -1.185302E+05 -1.760982E+05 -6.154117E+03 -1.621484E-09 -2.567434E-09
       433  19 -6.018553E+05 -1.072925E+04 -5.388272E+04 -2.265679E+04  1.262953E+05  4.739261E+03
       433  20 -6.018170E+05  1.596373E+05  4.618759E+04 -1.113556E+04  8.475401E+04  1.337252E+04
       433  21 -6.562859E+05  1.319901E+05  6.980429E+04  2.874446E+04  4.324275E+04  1.187312E+04
       433  22 -1.158505E+06 -1.496053E+05 -1.921047E+05  1.170160E+04  1.311793E+05  4.759140E+03
       433  23 -1.130869E+06  2.793401E+04 -8.311493E+04 -2.685226E+03  8.602973E+04  1.337836E+04
       433  24 -1.158418E+06  6.739002E+03 -5.313627E+04  1.128837E+04  4.090809E+04  1.186459E+04
       433  25 -1.714871E+06 -2.885001E+05 -3.303492E+05  4.602895E+04  1.360588E+05  4.779571E+03
       433  26 -1.659666E+06 -1.037897E+05 -2.124378E+05  5.757693E+03  8.730434E+04  1.338423E+04
       433  27 -1.660319E+06 -1.185297E+05 -1.760951E+05 -6.153749E+03  3.857530E+04  1.185618E+04
       434   1 -7.060279E+05  9.118436E+04  6.463106E+04  9.346166E+03 -3.225429E+04 -9.729369E+03
       434   2 -7.329894E+05  1.059492E+05  7.900978E+04 -3.578846E+03 -2.146481E+04 -9.630764E+03
       434   3 -7.675424E+05  9.576501E+04  8.013458E+04  1.562243E+04 -1.068134E+04 -8.406080E+03
       434   4 -1.147863E+06 -1.890336E+04 -4.368190E+04  1.231701E+04 -3.242000E+04 -9.730635E+03
       434   5 -1.144021E+06  3.537942E+03 -2.161625E+04 -3.784061E+03 -2.123261E+04 -9.630279E+03
       434   6 -1.147847E+06  9.514292E+02 -1.308814E+04  1.224270E+04 -1.005072E+04 -8.403625E+03
       434   7 -1.589520E+06 -1.290055E+05 -1.520092E+05  1.528558E+04 -3.258557E+04 -9.731904E+03
       434   8 -1.554898E+06 -9.888588E+04 -1.222547E+05 -3.989293E+03 -2.100057E+04 -9.629794E+03
       434   9 -1.528019E+06 -9.387286E+04 -1.063215E+05  8.864906E+03 -9.420483E+03 -8.401175E+03
       434  10 -7.060290E+05  9.118398E+04  6.462892E+04  9.345913E+03 -1.801893E-09 -2.132223E-09
       434  11 -7.329899E+05  1.059490E+05  7.900874E+04 -3.579013E+03 -3.608941E-10  2.351381E-09
       434  12 -7.675425E+05  9.576490E+04  8.013424E+04  1.562236E+04  4.745198E-09  1.140845E-08
       434  13 -1.147864E+06 -1.890375E+04 -4.368405E+04  1.231676E+04  1.620510E-09  9.002914E-09
       434  14 -1.144022E+06  3.537721E+03 -2.161728E+04 -3.784226E+03  4.658165E-09 -2.341198E-08
       434  15 -1.147847E+06  9.513263E+02 -1.308847E+04  1.224263E+04  4.345723E-10  1.031076E-08
       434  16 -1.589521E+06 -1.290059E+05 -1.520114E+05  1.528532E+04  6.369643E-09 -1.086669E-08
       434  17 -1.554899E+06 -9.888610E+04 -1.222557E+05 -3.989456E+03 -1.694103E-10 -2.112119E-09
       434  18 -1.528019E+06 -9.387296E+04 -1.063218E+05  8.864842E+03 -5.120746E-09 -2.095903E-09
       434  19 -7.060279E+05  9.118436E+04  6.463106E+04  9.346166E+03  3.225429E+04  9.729369E+03
       434  20 -7.329894E+05  1.059492E+05  7.900978E+04 -3.578846E+03  2.146481E+04  9.630764E+03
       434  21 -7.675424E+05  9.576501E+04  8.013458E+04  1.562243E+04  1.068134E+04  8.406080E+03
       434  22 -1.147863E+06 -1.890336E+04 -4.368190E+04  1.231701E+04  3.242000E+04  9.730635E+03
       434  23 -1.144021E+06  3.537942E+03 -2.161625E+04 -3.784061E+03  2.123261E+04  9.630279E+03
       434  24 -1.147847E+06  9.514292E+02 -1.308814E+04  1.224270E+04  1.005072E+04  8.403625E+03
       434  25 -1.589520E+06 -1.290055E+05 -1.520092E+05  1.528558E+04  3.258557E+04  9.731904E+03
       434  26 -1.554898E+06 -9.888588E+04 -1.222547E+05 -3.989293E+03  2.100057E+04  9.629794E+03
       434  27 -1.528019E+06 -9.387286E+04 -1.063215E+05  8.864906E+03  9.420483E+03  8.401175E+03
       435   1 -8.332027E+05  7.576484E+04  6.625242E+04  1.351316E+04 -8.328474E+03 -7.557052E+03
       435   2 -8.659932E+05  7.014950E+04  6.293328E+04 -3.665111E+03 -5.571277E+03 -6.465097E+03
       435   3 -9.001015E+05  6.166981E+04  5.705044E+04  1.410649E+04 -2.815832E+03 -5.215223E+03
       435   4 -1.146426E+06 -2.274455E+03 -1.037659E+04  1.290268E+04 -7.966006E+03 -7.555661E+03
       435   5 -1.145760E+06  4.274958E+02 -5.577748E+03 -4.578539E+03 -5.153299E+03 -6.463299E+03
       435   6 -1.146422E+06  2.547278E+02 -3.382009E+03  1.289110E+04 -2.342196E+03 -5.212985E+03
       435   7 -1.459560E+06 -8.032102E+04 -8.701277E+04  1.229242E+04 -7.603719E+03 -7.554271E+03
       435   8 -1.425455E+06 -6.930032E+04 -7.409451E+04 -5.491639E+03 -4.735509E+03 -6.461502E+03
       435   9 -1.392688E+06 -6.116486E+04 -6.381891E+04  1.167612E+04 -1.868747E+03 -5.210750E+03
       435  10 -8.332027E+05  7.576476E+04  6.625218E+04  1.351311E+04  4.389673E-09 -4.588538E-09
       435  11 -8.659933E+05  7.014945E+04  6.293314E+04 -3.665140E+03  1.082553E-10 -2.851396E-09
       435  12 -9.001015E+05  6.166978E+04  5.705037E+04  1.410647E+04 -1.066399E-10 -7.679091E-09
       435  13 -1.146426E+06 -2.274533E+03 -1.037682E+04  1.290264E+04  1.944241E-09 -1.059310E-09
       435  14 -1.145760E+06  4.274439E+02 -5.577876E+03 -4.578566E+03  2.719029E-09 -1.351800E-09
       435  15 -1.146422E+06  2.546971E+02 -3.382070E+03  1.289109E+04  1.220563E-09 -5.615405E-09
       435  16 -1.459560E+06 -8.032110E+04 -8.701299E+04  1.229237E+04 -3.863658E-10 -8.285617E-09
       435  17 -1.425455E+06 -6.930037E+04 -7.409463E+04 -5.491664E+03 -9.635081E-10  1.235346E-08
       435  18 -1.392688E+06 -6.116489E+04 -6.381897E+04  1.167612E+04  3.881613E-11  1.358364E-08
       435  19 -8.332027E+05  7.576484E+04  6.625242E+04  1.351316E+04  8.328474E+03  7.557052E+03
       435  20 -8.659932E+05  7.014950E+04  6.293328E+04 -3.665111E+03  5.571277E+03  6.465097E+03
       435  21 -9.001015E+05  6.166981E+04  5.705044E+04  1.410649E+04  2.815832E+03  5.215223E+03
       435  22 -1.146426E+06 -2.274455E+03 -1.037659E+04  1.290268E+04  7.966006E+03  7.555661E+03
       435  23 -1.145760E+06  4.274958E+02 -5.577748E+03 -4.578539E+03  5.153299E+03  6.463299E+03
       435  24 -1.146422E+06  2.547278E+02 -3.382009E+03  1.289110E+04  2.342196E+03  5.212985E+03
       435  25 -1.459560E+06 -8.032102E+04 -8.701277E+04  1.229242E+04  7.603719E+03  7.554271E+03
       435  26 -1.425455E+06 -6.930032E+04 -7.409451E+04 -5.491639E+03  4.735509E+03  6.461502E+03
       435  27 -1.392688E+06 -6.116486E+04 -6.381891E+04  1.167612E+04  1.868747E+03  5.210750E+03
       436   1 -9.715912E+05  4.336422E+04  3.995628E+04  1.390132E+04 -2.242091E+03 -4.466436E+03
       436   2 -1.006408E+06  3.482624E+04  3.242519E+04 -4.515075E+03 -1.385737E+03 -3.214860E+03
       436   3 -1.041789E+06  2.620662E+04  2.422473E+04  1.373696E+04 -5.300925E+02 -1.929337E+03
       436   4 -1.146244E+06 -1.449742E+02 -2.714709E+03  1.327778E+04 -1.799420E+03 -4.464257E+03
       436   5 -1.145960E+06  4.356543E+01 -1.753279E+03 -5.057443E+03 -9.310840E+02 -3.212538E+03
       436   6 -1.146244E+06  1.483963E+02 -1.469613E+03  1.327628E+04 -6.340958E+01 -1.926865E+03
       436   7 -1.320870E+06 -4.365643E+04 -4.538793E+04  1.265437E+04 -1.356873E+03 -4.462079E+03
       436   8 -1.285494E+06 -3.474055E+04 -3.593317E+04 -5.599710E+03 -4.765334E+02 -3.210217E+03
       436   9 -1.250688E+06 -2.591064E+04 -2.716476E+04  1.281567E+04  4.031948E+02 -1.924394E+03
       436  10 -9.715912E+05  4.336420E+04  3.995624E+04  1.390132E+04 -1.768159E-09 -1.409668E-08
       436  11 -1.006408E+06  3.482622E+04  3.242516E+04 -4.515079E+03 -5.040404E-09  3.393685E-09
       436  12 -1.041789E+06  2.620661E+04  2.422472E+04  1.373695E+04 -4.729311E-09  3.062461E-09
       436  13 -1.146245E+06 -1.449965E+02 -2.714753E+03  1.327777E+04  2.728756E-09  2.806161E-09
       436  14 -1.145960E+06  4.355412E+01 -1.753300E+03 -5.057445E+03  2.803155E-09 -5.315822E-09
       436  15 -1.146244E+06  1.483923E+02 -1.469620E+03  1.327628E+04  1.723044E-09 -8.648591E-09
       436  16 -1.320870E+06 -4.365645E+04 -4.538797E+04  1.265436E+04  5.667619E-09  6.892823E-09
       436  17 -1.285494E+06 -3.474056E+04 -3.593319E+04 -5.599712E+03  1.616197E-09  2.256944E-08
       436  18 -1.250688E+06 -2.591064E+04 -2.716476E+04  1.281567E+04  4.678027E-09  9.967719E-10
       436  19 -9.715912E+05  4.336422E+04  3.995628E+04  1.390132E+04  2.242091E+03  4.466436E+03
       436  20 -1.006408E+06  3.482624E+04  3.242519E+04 -4.515075E+03  1.385737E+03  3.214860E+03
       436  21 -1.041789E+06  2.620662E+04  2.422473E+04  1.373696E+04  5.300925E+02  1.929337E+03
       436  22 -1.146244E+06 -1.449742E+02 -2.714709E+03  1.327778E+04  1.799420E+03  4.464257E+03
       436  23 -1.145960E+06  4.356543E+01 -1.753279E+03 -5.057443E+03  9.310840E+02  3.212538E+03
       436  24 -1.146244E+06  1.483963E+02 -1.469613E+03  1.327628E+04  6.340958E+01  1.926865E+03
       436  25 -1.320870E+06 -4.365643E+04 -4.538793E+04  1.265437E+04  1.356873E+03  4.462079E+03
       436  26 -1.285494E+06 -3.474055E+04 -3.593317E+04 -5.599710E+03  4.765334E+02  3.210217E+03
       436  27 -1.250688E+06 -2.591064E+04 -2.716476E+04  1.281567E+04 -4.031948E+02  1.924394E+03
       437   1 -1.115745E+06  7.732228E+03  5.870759E+03  1.347659E+04 -2.657454E+02 -1.172008E+03
       437   2 -1.151049E+06 -1.222550E+03 -3.110881E+03 -5.231202E+03  6.585692E+02  1.218359E+02
       437   3 -1.186996E+06 -1.028499E+04 -1.282613E+04  1.328399E+04  1.582883E+03  1.406512E+03
       437   4 -1.146257E+06  1.492765E+02 -1.492549E+03  1.339936E+04  1.992627E+02 -1.169513E+03
       437   5 -1.145935E+06  5.204961E+01 -1.858564E+03 -5.211314E+03  1.120267E+03  1.243081E+02
       437   6 -1.146258E+06 -1.522965E+02 -2.955916E+03  1.340098E+04  2.041323E+03  1.408966E+03
       437   7 -1.176769E+06 -7.433743E+03 -8.855923E+03  1.332213E+04  6.642480E+02 -1.167018E+03
       437   8 -1.140822E+06  1.326648E+03 -6.062483E+02 -5.191426E+03  1.581968E+03  1.267804E+02
       437   9 -1.105518E+06  9.980277E+03  6.914176E+03  1.351797E+04  2.499793E+03  1.411419E+03
       437  10 -1.115745E+06  7.732226E+03  5.870756E+03  1.347659E+04 -1.843131E-09 -1.869410E-09
       437  11 -1.151049E+06 -1.222551E+03 -3.110882E+03 -5.231202E+03  2.301248E-09 -9.888126E-09
       437  12 -1.186996E+06 -1.028499E+04 -1.282613E+04  1.328399E+04 -4.121115E-09 -3.401406E-09
       437  13 -1.146257E+06  1.492750E+02 -1.492551E+03  1.339936E+04  2.537337E-09  8.493017E-09
       437  14 -1.145935E+06  5.204925E+01 -1.858566E+03 -5.211314E+03  3.446461E-09 -6.546578E-09
       437  15 -1.146258E+06 -1.522998E+02 -2.955928E+03  1.340097E+04  1.858898E-09 -9.043177E-09
       437  16 -1.176769E+06 -7.433745E+03 -8.855926E+03  1.332213E+04  4.929577E-09 -3.578801E-09
       437  17 -1.140822E+06  1.326647E+03 -6.062531E+02 -5.191426E+03 -2.533733E-09 -2.055482E-08
       437  18 -1.105518E+06  9.980273E+03  6.914160E+03  1.351796E+04  5.302681E-09 -1.672123E-08
       437  19 -1.115745E+06  7.732228E+03  5.870759E+03  1.347659E+04  2.657454E+02  1.172008E+03
       437  20 -1.151049E+06 -1.222550E+03 -3.110881E+03 -5.231202E+03 -6.585692E+02 -1.218359E+02
       437  21 -1.186996E+06 -1.028499E+04 -1.282613E+04  1.328399E+04 -1.582883E+03 -1.406512E+03
       437  22 -1.146257E+06  1.492765E+02 -1.492549E+03  1.339936E+04 -1.992627E+02  1.169513E+03
       437  23 -1.145935E+06  5.204961E+01 -1.858564E+03 -5.211314E+03 -1.120267E+03 -1.243081E+02
       437  24 -1.146258E+06 -1.522965E+02 -2.955916E+03  1.340098E+04 -2.041323E+03 -1.408966E+03
       437  25 -1.176769E+06 -7.433743E+03 -8.855923E+03  1.332213E+04 -6.642480E+02  1.167018E+03
       437  26 -1.140822E+06  1.326648E+03 -6.062483E+02 -5.191426E+03 -1.581968E+03 -1.267804E+02
       437  27 -1.105518E+06  9.980277E+03  6.914176E+03  1.351797E+04 -2.499793E+03 -1.411419E+03
       438   1 -1.261063E+06 -2.830864E+04 -3.188980E+04  1.247842E+04  2.153563E+03  2.175252E+03
       438   2 -1.295266E+06 -3.680648E+04 -4.277809E+04 -5.525151E+03  5.288940E+03  3.474216E+03
       438   3 -1.331098E+06 -4.848467E+04 -5.659533E+04  1.306329E+04  8.425287E+03  4.656800E+03
       438   4 -1.146478E+06  2.817539E+02 -3.710898E+03  1.325486E+04  2.635786E+03  2.177796E+03
       438   5 -1.145669E+06  4.847417E+02 -6.135093E+03 -5.033838E+03  5.729996E+03  3.476449E+03
       438   6 -1.146482E+06 -2.484707E+03 -1.145882E+04  1.326895E+04  8.825353E+03  4.658735E+03
       438   7 -1.031882E+06  2.887117E+04  2.446704E+04  1.403142E+04  3.118097E+03  2.180341E+03
       438   8 -9.960521E+05  3.777430E+04  3.050626E+04 -4.542432E+03  6.171159E+03  3.478682E+03
       438   9 -9.618347E+05  4.351273E+04  3.367520E+04  1.347462E+04  9.225537E+03  4.660669E+03
       438  10 -1.261063E+06 -2.830864E+04 -3.188982E+04  1.247842E+04 -1.300088E-08 -1.491710E-09
       438  11 -1.295266E+06 -3.680650E+04 -4.277816E+04 -5.525166E+03 -2.938454E-09 -9.128629E-09
       438  12 -1.331099E+06 -4.848472E+04 -5.659551E+04  1.306326E+04  7.195079E-09  5.093525E-09
       438  13 -1.146478E+06  2.817470E+02 -3.710920E+03  1.325485E+04  2.358348E-09 -6.658886E-09
       438  14 -1.145669E+06  4.847199E+02 -6.135177E+03 -5.033854E+03  1.637232E-09  3.683864E-09
       438  15 -1.146482E+06 -2.484752E+03 -1.145901E+04  1.326891E+04  1.269035E-09  5.702940E-09
       438  16 -1.031882E+06  2.887116E+04  2.446701E+04  1.403141E+04  1.630872E-08  3.502607E-09
       438  17 -9.960522E+05  3.777428E+04  3.050617E+04 -4.542450E+03  3.907318E-09 -8.741599E-10
       438  18 -9.618348E+05  4.351269E+04  3.367500E+04  1.347459E+04 -5.629481E-09  1.347383E-08
       438  19 -1.261063E+06 -2.830864E+04 -3.188980E+04  1.247842E+04 -2.153563E+03 -2.175252E+03
       438  20 -1.295266E+06 -3.680648E+04 -4.277809E+04 -5.525151E+03 -5.288940E+03 -3.474216E+03
       438  21 -1.331098E+06 -4.848467E+04 -5.659533E+04  1.306329E+04 -8.425287E+03 -4.656800E+03
       438  22 -1.146478E+06  2.817539E+02 -3.710898E+03  1.325486E+04 -2.635786E+03 -2.177796E+03
       438  23 -1.145669E+06  4.847417E+02 -6.135093E+03 -5.033838E+03 -5.729996E+03 -3.476449E+03
       438  24 -1.146482E+06 -2.484707E+03 -1.145882E+04  1.326895E+04 -8.825353E+03 -4.658735E+03
       438  25 -1.031882E+06  2.887117E+04  2.446704E+04  1.403142E+04 -3.118097E+03 -2.180341E+03
       438  26 -9.960521E+05  3.777430E+04  3.050626E+04 -4.542432E+03 -6.171159E+03 -3.478682E+03
       438  27 -9.618347E+05  4.351273E+04  3.367520E+04  1.347462E+04 -9.225537E+03 -4.660669E+03
       439   1 -1.404056E+06 -6.279360E+04 -7.727677E+04  9.530345E+03  1.050983E+04  5.523052E+03
       439   2 -1.432976E+06 -6.816925E+04 -9.470893E+04 -4.421270E+03  2.318436E+04  6.841478E+03
       439   3 -1.470705E+06 -1.012425E+05 -1.273797E+05  1.647094E+04  3.586320E+04  7.239522E+03
       439   4 -1.148072E+06  1.072512E+03 -1.446411E+04  1.283806E+04  1.112989E+04  5.526025E+03
       439   5 -1.143708E+06  3.929518E+03 -2.386570E+04 -4.533832E+03  2.347878E+04  6.842619E+03
       439   6 -1.148090E+06 -2.084700E+04 -4.827397E+04  1.293726E+04  3.583264E+04  7.238880E+03
       439   7 -8.920290E+05  6.493378E+04  4.834374E+04  1.614708E+04  1.175020E+04  5.529005E+03
       439   8 -8.543624E+05  7.602208E+04  4.697139E+04 -4.646536E+03  2.377332E+04  6.843759E+03
       439   9 -8.253811E+05  5.954078E+04  3.082410E+04  9.401623E+03  3.580206E+04  7.238239E+03
       439  10 -1.404056E+06 -6.279366E+04 -7.727703E+04  9.530298E+03  1.056063E-08  3.960995E-09
       439  11 -1.432977E+06 -6.816944E+04 -9.471003E+04 -4.421398E+03  1.549924E-09  9.652178E-09
       439  12 -1.470706E+06 -1.012429E+05 -1.273822E+05  1.647073E+04  1.433816E-09 -9.227663E-09
       439  13 -1.148073E+06  1.072446E+03 -1.446440E+04  1.283801E+04  3.469789E-09 -1.703405E-08
       439  14 -1.143708E+06  3.929319E+03 -2.386683E+04 -4.533961E+03  3.133036E-09  1.051940E-08
       439  15 -1.148092E+06 -2.084740E+04 -4.827648E+04  1.293705E+04  1.284087E-09 -4.012264E-09
       439  16 -8.920292E+05  6.493371E+04  4.834342E+04  1.614702E+04 -5.555488E-09 -1.082965E-09
       439  17 -8.543630E+05  7.602187E+04  4.697024E+04 -4.646667E+03 -1.499321E-09 -1.902622E-08
       439  18 -8.253825E+05  5.954038E+04  3.082159E+04  9.401414E+03  3.424190E-10  2.380154E-09
       439  19 -1.404056E+06 -6.279360E+04 -7.727677E+04  9.530345E+03 -1.050983E+04 -5.523052E+03
       439  20 -1.432976E+06 -6.816925E+04 -9.470893E+04 -4.421270E+03 -2.318436E+04 -6.841478E+03
       439  21 -1.470705E+06 -1.012425E+05 -1.273797E+05  1.647094E+04 -3.586320E+04 -7.239522E+03
       439  22 -1.148072E+06  1.072512E+03 -1.446411E+04  1.283806E+04 -1.112989E+04 -5.526025E+03
       439  23 -1.143708E+06  3.929518E+03 -2.386570E+04 -4.533832E+03 -2.347878E+04 -6.842619E+03
       439  24 -1.148090E+06 -2.084700E+04 -4.827397E+04  1.293726E+04 -3.583264E+04 -7.238880E+03
       439  25 -8.920290E+05  6.493378E+04  4.834374E+04  1.614708E+04 -1.175020E+04 -5.529005E+03
       439  26 -8.543624E+05  7.602208E+04  4.697139E+04 -4.646536E+03 -2.377332E+04 -6.843759E+03
       439  27 -8.253811E+05  5.954078E+04  3.082410E+04  9.401623E+03 -3.580206E+04 -7.238239E+03
       440   1 -1.548901E+06 -8.971934E+04 -1.540911E+05 -7.019759E+03  4.318439E+04  9.178257E+03
       440   2 -1.548757E+06 -7.357260E+04 -1.944165E+05  5.673565E+03  9.601136E+04  1.082255E+04
       440   3 -1.610525E+06 -2.776294E+05 -3.242346E+05  5.060800E+04  1.488667E+05  4.109380E+03
       440   4 -1.159771E+06  7.487614E+03 -5.872587E+04  1.208011E+04  4.521571E+04  9.187878E+03
       440   5 -1.129141E+06  3.089993E+04 -9.181779E+04 -3.724237E+03  9.506808E+04  1.081673E+04
       440   6 -1.159867E+06 -1.652970E+05 -2.122909E+05  1.271420E+04  1.449518E+05  4.085738E+03
       440   7 -7.705017E+05  1.046846E+05  3.662843E+04  3.119185E+04  4.724830E+04  9.197621E+03
       440   8 -7.093651E+05  1.353598E+05  1.076811E+04 -1.312857E+04  9.412413E+04  1.081094E+04
       440   9 -7.090214E+05 -5.297421E+04 -1.003616E+05 -2.520734E+04  1.410339E+05  4.062586E+03
       440  10 -1.548903E+06 -8.971993E+04 -1.540948E+05 -7.020079E+03  5.160656E-09 -5.113138E-09
       440  11 -1.548766E+06 -7.357521E+04 -1.944341E+05  5.672727E+03  5.215344E-09  8.699542E-10
       440  12 -1.610549E+06 -2.776354E+05 -3.242764E+05  5.060750E+04  3.047881E-09  9.739365E-09
       440  13 -1.159773E+06  7.486974E+03 -5.872988E+04  1.207977E+04  2.234556E-09  4.654006E-09
       440  14 -1.129151E+06  3.089737E+04 -9.183502E+04 -3.725065E+03  2.897751E-09  6.184625E-09
       440  15 -1.159890E+06 -1.653026E+05 -2.123305E+05  1.271372E+04  4.985525E-10  6.941181E-09
       440  16 -7.705041E+05  1.046839E+05  3.662407E+04  3.119150E+04 -7.197665E-10  1.123187E-08
       440  17 -7.093746E+05  1.353573E+05  1.075122E+04 -1.312939E+04 -5.515957E-09  1.213036E-08
       440  18 -7.090427E+05 -5.297957E+04 -1.003990E+05 -2.520780E+04 -2.880538E-09  1.199557E-09
       440  19 -1.548901E+06 -8.971934E+04 -1.540911E+05 -7.019759E+03 -4.318439E+04 -9.178257E+03
       440  20 -1.548757E+06 -7.357260E+04 -1.944165E+05  5.673565E+03 -9.601136E+04 -1.082255E+04
       440  21 -1.610525E+06 -2.776294E+05 -3.242346E+05  5.060800E+04 -1.488667E+05 -4.109380E+03
       440  22 -1.159771E+06  7.487614E+03 -5.872587E+04  1.208011E+04 -4.521571E+04 -9.187878E+03
       440  23 -1.129141E+06  3.089993E+04 -9.181779E+04 -3.724237E+03 -9.506808E+04 -1.081673E+04
       440  24 -1.159867E+06 -1.652970E+05 -2.122909E+05  1.271420E+04 -1.449518E+05 -4.085738E+03
       440  25 -7.705017E+05  1.046846E+05  3.662843E+04  3.119185E+04 -4.724830E+04 -9.197621E+03
       440  26 -7.093651E+05  1.353598E+05  1.076811E+04 -1.312857E+04 -9.412413E+04 -1.081094E+04
       440  27 -7.090214E+05 -5.297421E+04 -1.003616E+05 -2.520734E+04 -1.410339E+05 -4.062586E+03
