    1C
    1UUSER                                                              
    1UDATE              11.october.2022                                 
    1UTIME              19:05:26                                        
    1UHOST                                                              
    1UPGM               CalculiX                                        
    1UVERSION           Version 2.20                             
    1UCOMPILETIME       Sun Jul 31 18:08:37 CEST 2022                    
    1UDIR                                                               
    1UDBN                                                               
    1UMAT    1MESH_MATERIAL                                             
    2C                           409                                     1
 -1         1 0.00000E+00 0.00000E+00 0.00000E+00
 -1         2 1.66667E-02 0.00000E+00 0.00000E+00
 -1         3 3.33333E-02 0.00000E+00 0.00000E+00
 -1         5 6.66667E-02 0.00000E+00 0.00000E+00
 -1         8 0.00000E+00 6.25000E-03 0.00000E+00
 -1         9 1.66667E-02 6.25000E-03 0.00000E+00
 -1        10 3.33333E-02 6.25000E-03 0.00000E+00
 -1        12 6.66667E-02 6.25000E-03 0.00000E+00
 -1        15 0.00000E+00 1.25000E-02 0.00000E+00
 -1        16 1.66667E-02 1.25000E-02 0.00000E+00
 -1        17 3.33333E-02 1.25000E-02 0.00000E+00
 -1        18 5.00000E-02 1.25000E-02 0.00000E+00
 -1        19 6.66667E-02 1.25000E-02 0.00000E+00
 -1        20 8.33333E-02 1.25000E-02 0.00000E+00
 -1        21 1.00000E-01 1.25000E-02 0.00000E+00
 -1        24 3.33333E-02 1.87500E-02 0.00000E+00
 -1        25 5.00000E-02 1.87500E-02 0.00000E+00
 -1        26 6.66667E-02 1.87500E-02 0.00000E+00
 -1        27 8.33333E-02 1.87500E-02 0.00000E+00
 -1        28 1.00000E-01 1.87500E-02 0.00000E+00
 -1        32 5.00000E-02 2.50000E-02 0.00000E+00
 -1        33 6.66667E-02 2.50000E-02 0.00000E+00
 -1        34 8.33333E-02 2.50000E-02 0.00000E+00
 -1        35 1.00000E-01 2.50000E-02 0.00000E+00
 -1        51 0.00000E+00 1.04167E-03 0.00000E+00
 -1        52 0.00000E+00 2.08333E-03 0.00000E+00
 -1        53 0.00000E+00 3.12500E-03 0.00000E+00
 -1        54 0.00000E+00 4.16667E-03 0.00000E+00
 -1        55 0.00000E+00 5.20833E-03 0.00000E+00
 -1        56 1.04167E-03 3.90630E-04 0.00000E+00
 -1        57 2.08333E-03 7.81250E-04 0.00000E+00
 -1        58 3.12500E-03 1.17188E-03 0.00000E+00
 -1        59 4.16667E-03 1.56250E-03 0.00000E+00
 -1        60 5.20833E-03 1.95312E-03 0.00000E+00
 -1        61 6.25000E-03 2.34375E-03 0.00000E+00
 -1        62 7.29167E-03 2.73438E-03 0.00000E+00
 -1        63 8.33333E-03 3.12500E-03 0.00000E+00
 -1        64 9.37500E-03 3.51563E-03 0.00000E+00
 -1        65 1.04167E-02 3.90625E-03 0.00000E+00
 -1        66 1.14583E-02 4.29688E-03 0.00000E+00
 -1        67 1.25000E-02 4.68750E-03 0.00000E+00
 -1        68 1.35417E-02 5.07813E-03 0.00000E+00
 -1        69 1.45833E-02 5.46875E-03 0.00000E+00
 -1        70 1.56250E-02 5.85938E-03 0.00000E+00
 -1        86 1.66667E-02 1.04167E-03 0.00000E+00
 -1        87 1.66667E-02 2.08333E-03 0.00000E+00
 -1        88 1.66667E-02 3.12500E-03 0.00000E+00
 -1        89 1.66667E-02 4.16667E-03 0.00000E+00
 -1        90 1.66667E-02 5.20833E-03 0.00000E+00
 -1       121 3.33333E-02 1.04167E-03 0.00000E+00
 -1       122 3.33333E-02 2.08333E-03 0.00000E+00
 -1       123 3.33333E-02 3.12500E-03 0.00000E+00
 -1       124 3.33333E-02 4.16667E-03 0.00000E+00
 -1       125 3.33333E-02 5.20833E-03 0.00000E+00
 -1       191 6.66667E-02 1.04167E-03 0.00000E+00
 -1       192 6.66667E-02 2.08333E-03 0.00000E+00
 -1       193 6.66667E-02 3.12500E-03 0.00000E+00
 -1       194 6.66667E-02 4.16667E-03 0.00000E+00
 -1       195 6.66667E-02 5.20833E-03 0.00000E+00
 -1       251 1.04167E-03 6.25000E-03 0.00000E+00
 -1       252 2.08333E-03 6.25000E-03 0.00000E+00
 -1       253 3.12500E-03 6.25000E-03 0.00000E+00
 -1       254 4.16667E-03 6.25000E-03 0.00000E+00
 -1       255 5.20833E-03 6.25000E-03 0.00000E+00
 -1       256 6.25000E-03 6.25000E-03 0.00000E+00
 -1       257 7.29167E-03 6.25000E-03 0.00000E+00
 -1       258 8.33333E-03 6.25000E-03 0.00000E+00
 -1       259 9.37500E-03 6.25000E-03 0.00000E+00
 -1       260 1.04167E-02 6.25000E-03 0.00000E+00
 -1       261 1.14583E-02 6.25000E-03 0.00000E+00
 -1       262 1.25000E-02 6.25000E-03 0.00000E+00
 -1       263 1.35417E-02 6.25000E-03 0.00000E+00
 -1       264 1.45833E-02 6.25000E-03 0.00000E+00
 -1       265 1.56250E-02 6.25000E-03 0.00000E+00
 -1       266 0.00000E+00 7.29167E-03 0.00000E+00
 -1       267 0.00000E+00 8.33333E-03 0.00000E+00
 -1       268 0.00000E+00 9.37500E-03 0.00000E+00
 -1       269 0.00000E+00 1.04167E-02 0.00000E+00
 -1       270 0.00000E+00 1.14583E-02 0.00000E+00
 -1       271 1.04167E-03 6.64063E-03 0.00000E+00
 -1       272 2.08333E-03 7.03125E-03 0.00000E+00
 -1       273 3.12500E-03 7.42188E-03 0.00000E+00
 -1       274 4.16667E-03 7.81250E-03 0.00000E+00
 -1       275 5.20833E-03 8.20313E-03 0.00000E+00
 -1       276 6.25000E-03 8.59375E-03 0.00000E+00
 -1       277 7.29167E-03 8.98438E-03 0.00000E+00
 -1       278 8.33333E-03 9.37500E-03 0.00000E+00
 -1       279 9.37500E-03 9.76562E-03 0.00000E+00
 -1       280 1.04167E-02 1.01562E-02 0.00000E+00
 -1       281 1.14583E-02 1.05469E-02 0.00000E+00
 -1       282 1.25000E-02 1.09375E-02 0.00000E+00
 -1       283 1.35417E-02 1.13281E-02 0.00000E+00
 -1       284 1.45833E-02 1.17188E-02 0.00000E+00
 -1       285 1.56250E-02 1.21094E-02 0.00000E+00
 -1       301 1.66667E-02 7.29167E-03 0.00000E+00
 -1       302 1.66667E-02 8.33333E-03 0.00000E+00
 -1       303 1.66667E-02 9.37500E-03 0.00000E+00
 -1       304 1.66667E-02 1.04167E-02 0.00000E+00
 -1       305 1.66667E-02 1.14583E-02 0.00000E+00
 -1       306 1.77083E-02 6.64063E-03 0.00000E+00
 -1       307 1.87500E-02 7.03125E-03 0.00000E+00
 -1       308 1.97917E-02 7.42188E-03 0.00000E+00
 -1       309 2.08333E-02 7.81250E-03 0.00000E+00
 -1       310 2.18750E-02 8.20313E-03 0.00000E+00
 -1       311 2.29167E-02 8.59375E-03 0.00000E+00
 -1       312 2.39583E-02 8.98438E-03 0.00000E+00
 -1       313 2.50000E-02 9.37500E-03 0.00000E+00
 -1       314 2.60417E-02 9.76562E-03 0.00000E+00
 -1       315 2.70833E-02 1.01562E-02 0.00000E+00
 -1       316 2.81250E-02 1.05469E-02 0.00000E+00
 -1       317 2.91667E-02 1.09375E-02 0.00000E+00
 -1       318 3.02083E-02 1.13281E-02 0.00000E+00
 -1       319 3.12500E-02 1.17188E-02 0.00000E+00
 -1       320 3.22917E-02 1.21094E-02 0.00000E+00
 -1       336 3.33333E-02 7.29167E-03 0.00000E+00
 -1       337 3.33333E-02 8.33333E-03 0.00000E+00
 -1       338 3.33333E-02 9.37500E-03 0.00000E+00
 -1       339 3.33333E-02 1.04167E-02 0.00000E+00
 -1       340 3.33333E-02 1.14583E-02 0.00000E+00
 -1       406 6.66667E-02 7.29167E-03 0.00000E+00
 -1       407 6.66667E-02 8.33333E-03 0.00000E+00
 -1       408 6.66667E-02 9.37500E-03 0.00000E+00
 -1       409 6.66667E-02 1.04167E-02 0.00000E+00
 -1       410 6.66667E-02 1.14583E-02 0.00000E+00
 -1       521 1.77083E-02 1.28906E-02 0.00000E+00
 -1       522 1.87500E-02 1.32813E-02 0.00000E+00
 -1       523 1.97917E-02 1.36719E-02 0.00000E+00
 -1       524 2.08333E-02 1.40625E-02 0.00000E+00
 -1       525 2.18750E-02 1.44531E-02 0.00000E+00
 -1       526 2.29167E-02 1.48437E-02 0.00000E+00
 -1       527 2.39583E-02 1.52344E-02 0.00000E+00
 -1       528 2.50000E-02 1.56250E-02 0.00000E+00
 -1       529 2.60417E-02 1.60156E-02 0.00000E+00
 -1       530 2.70833E-02 1.64062E-02 0.00000E+00
 -1       531 2.81250E-02 1.67969E-02 0.00000E+00
 -1       532 2.91667E-02 1.71875E-02 0.00000E+00
 -1       533 3.02083E-02 1.75781E-02 0.00000E+00
 -1       534 3.12500E-02 1.79687E-02 0.00000E+00
 -1       535 3.22917E-02 1.83594E-02 0.00000E+00
 -1       536 3.43750E-02 1.25000E-02 0.00000E+00
 -1       537 3.54167E-02 1.25000E-02 0.00000E+00
 -1       538 3.64583E-02 1.25000E-02 0.00000E+00
 -1       539 3.75000E-02 1.25000E-02 0.00000E+00
 -1       540 3.85417E-02 1.25000E-02 0.00000E+00
 -1       541 3.95833E-02 1.25000E-02 0.00000E+00
 -1       542 4.06250E-02 1.25000E-02 0.00000E+00
 -1       543 4.16667E-02 1.25000E-02 0.00000E+00
 -1       544 4.27083E-02 1.25000E-02 0.00000E+00
 -1       545 4.37500E-02 1.25000E-02 0.00000E+00
 -1       546 4.47917E-02 1.25000E-02 0.00000E+00
 -1       547 4.58333E-02 1.25000E-02 0.00000E+00
 -1       548 4.68750E-02 1.25000E-02 0.00000E+00
 -1       549 4.79167E-02 1.25000E-02 0.00000E+00
 -1       550 4.89583E-02 1.25000E-02 0.00000E+00
 -1       551 3.33333E-02 1.35417E-02 0.00000E+00
 -1       552 3.33333E-02 1.45833E-02 0.00000E+00
 -1       553 3.33333E-02 1.56250E-02 0.00000E+00
 -1       554 3.33333E-02 1.66667E-02 0.00000E+00
 -1       555 3.33333E-02 1.77083E-02 0.00000E+00
 -1       556 3.43750E-02 1.28906E-02 0.00000E+00
 -1       557 3.54167E-02 1.32813E-02 0.00000E+00
 -1       558 3.64583E-02 1.36719E-02 0.00000E+00
 -1       559 3.75000E-02 1.40625E-02 0.00000E+00
 -1       560 3.85417E-02 1.44531E-02 0.00000E+00
 -1       561 3.95833E-02 1.48437E-02 0.00000E+00
 -1       562 4.06250E-02 1.52344E-02 0.00000E+00
 -1       563 4.16667E-02 1.56250E-02 0.00000E+00
 -1       564 4.27083E-02 1.60156E-02 0.00000E+00
 -1       565 4.37500E-02 1.64062E-02 0.00000E+00
 -1       566 4.47917E-02 1.67969E-02 0.00000E+00
 -1       567 4.58333E-02 1.71875E-02 0.00000E+00
 -1       568 4.68750E-02 1.75781E-02 0.00000E+00
 -1       569 4.79167E-02 1.79687E-02 0.00000E+00
 -1       570 4.89583E-02 1.83594E-02 0.00000E+00
 -1       571 5.10417E-02 1.25000E-02 0.00000E+00
 -1       572 5.20833E-02 1.25000E-02 0.00000E+00
 -1       573 5.31250E-02 1.25000E-02 0.00000E+00
 -1       574 5.41667E-02 1.25000E-02 0.00000E+00
 -1       575 5.52083E-02 1.25000E-02 0.00000E+00
 -1       576 5.62500E-02 1.25000E-02 0.00000E+00
 -1       577 5.72917E-02 1.25000E-02 0.00000E+00
 -1       578 5.83333E-02 1.25000E-02 0.00000E+00
 -1       579 5.93750E-02 1.25000E-02 0.00000E+00
 -1       580 6.04167E-02 1.25000E-02 0.00000E+00
 -1       581 6.14583E-02 1.25000E-02 0.00000E+00
 -1       582 6.25000E-02 1.25000E-02 0.00000E+00
 -1       583 6.35417E-02 1.25000E-02 0.00000E+00
 -1       584 6.45833E-02 1.25000E-02 0.00000E+00
 -1       585 6.56250E-02 1.25000E-02 0.00000E+00
 -1       586 5.00000E-02 1.35417E-02 0.00000E+00
 -1       587 5.00000E-02 1.45833E-02 0.00000E+00
 -1       588 5.00000E-02 1.56250E-02 0.00000E+00
 -1       589 5.00000E-02 1.66667E-02 0.00000E+00
 -1       590 5.00000E-02 1.77083E-02 0.00000E+00
 -1       591 5.10417E-02 1.28906E-02 0.00000E+00
 -1       592 5.20833E-02 1.32813E-02 0.00000E+00
 -1       593 5.31250E-02 1.36719E-02 0.00000E+00
 -1       594 5.41667E-02 1.40625E-02 0.00000E+00
 -1       595 5.52083E-02 1.44531E-02 0.00000E+00
 -1       596 5.62500E-02 1.48437E-02 0.00000E+00
 -1       597 5.72917E-02 1.52344E-02 0.00000E+00
 -1       598 5.83333E-02 1.56250E-02 0.00000E+00
 -1       599 5.93750E-02 1.60156E-02 0.00000E+00
 -1       600 6.04167E-02 1.64062E-02 0.00000E+00
 -1       601 6.14583E-02 1.67969E-02 0.00000E+00
 -1       602 6.25000E-02 1.71875E-02 0.00000E+00
 -1       603 6.35417E-02 1.75781E-02 0.00000E+00
 -1       604 6.45833E-02 1.79687E-02 0.00000E+00
 -1       605 6.56250E-02 1.83594E-02 0.00000E+00
 -1       606 6.77083E-02 1.25000E-02 0.00000E+00
 -1       607 6.87500E-02 1.25000E-02 0.00000E+00
 -1       608 6.97917E-02 1.25000E-02 0.00000E+00
 -1       609 7.08333E-02 1.25000E-02 0.00000E+00
 -1       610 7.18750E-02 1.25000E-02 0.00000E+00
 -1       611 7.29167E-02 1.25000E-02 0.00000E+00
 -1       612 7.39583E-02 1.25000E-02 0.00000E+00
 -1       613 7.50000E-02 1.25000E-02 0.00000E+00
 -1       614 7.60417E-02 1.25000E-02 0.00000E+00
 -1       615 7.70833E-02 1.25000E-02 0.00000E+00
 -1       616 7.81250E-02 1.25000E-02 0.00000E+00
 -1       617 7.91667E-02 1.25000E-02 0.00000E+00
 -1       618 8.02083E-02 1.25000E-02 0.00000E+00
 -1       619 8.12500E-02 1.25000E-02 0.00000E+00
 -1       620 8.22917E-02 1.25000E-02 0.00000E+00
 -1       621 6.66667E-02 1.35417E-02 0.00000E+00
 -1       622 6.66667E-02 1.45833E-02 0.00000E+00
 -1       623 6.66667E-02 1.56250E-02 0.00000E+00
 -1       624 6.66667E-02 1.66667E-02 0.00000E+00
 -1       625 6.66667E-02 1.77083E-02 0.00000E+00
 -1       626 6.77083E-02 1.28906E-02 0.00000E+00
 -1       627 6.87500E-02 1.32813E-02 0.00000E+00
 -1       628 6.97917E-02 1.36719E-02 0.00000E+00
 -1       629 7.08333E-02 1.40625E-02 0.00000E+00
 -1       630 7.18750E-02 1.44531E-02 0.00000E+00
 -1       631 7.29167E-02 1.48437E-02 0.00000E+00
 -1       632 7.39583E-02 1.52344E-02 0.00000E+00
 -1       633 7.50000E-02 1.56250E-02 0.00000E+00
 -1       634 7.60417E-02 1.60156E-02 0.00000E+00
 -1       635 7.70833E-02 1.64062E-02 0.00000E+00
 -1       636 7.81250E-02 1.67969E-02 0.00000E+00
 -1       637 7.91667E-02 1.71875E-02 0.00000E+00
 -1       638 8.02083E-02 1.75781E-02 0.00000E+00
 -1       639 8.12500E-02 1.79687E-02 0.00000E+00
 -1       640 8.22917E-02 1.83594E-02 0.00000E+00
 -1       656 8.33333E-02 1.35417E-02 0.00000E+00
 -1       657 8.33333E-02 1.45833E-02 0.00000E+00
 -1       658 8.33333E-02 1.56250E-02 0.00000E+00
 -1       659 8.33333E-02 1.66667E-02 0.00000E+00
 -1       660 8.33333E-02 1.77083E-02 0.00000E+00
 -1       661 8.43750E-02 1.28906E-02 0.00000E+00
 -1       662 8.54167E-02 1.32813E-02 0.00000E+00
 -1       663 8.64583E-02 1.36719E-02 0.00000E+00
 -1       664 8.75000E-02 1.40625E-02 0.00000E+00
 -1       665 8.85417E-02 1.44531E-02 0.00000E+00
 -1       666 8.95833E-02 1.48437E-02 0.00000E+00
 -1       667 9.06250E-02 1.52344E-02 0.00000E+00
 -1       668 9.16667E-02 1.56250E-02 0.00000E+00
 -1       669 9.27083E-02 1.60156E-02 0.00000E+00
 -1       670 9.37500E-02 1.64062E-02 0.00000E+00
 -1       671 9.47917E-02 1.67969E-02 0.00000E+00
 -1       672 9.58333E-02 1.71875E-02 0.00000E+00
 -1       673 9.68750E-02 1.75781E-02 0.00000E+00
 -1       674 9.79167E-02 1.79687E-02 0.00000E+00
 -1       675 9.89583E-02 1.83594E-02 0.00000E+00
 -1       676 1.00000E-01 1.35417E-02 0.00000E+00
 -1       677 1.00000E-01 1.45833E-02 0.00000E+00
 -1       678 1.00000E-01 1.56250E-02 0.00000E+00
 -1       679 1.00000E-01 1.66667E-02 0.00000E+00
 -1       680 1.00000E-01 1.77083E-02 0.00000E+00
 -1       771 3.43750E-02 1.91406E-02 0.00000E+00
 -1       772 3.54167E-02 1.95312E-02 0.00000E+00
 -1       773 3.64583E-02 1.99219E-02 0.00000E+00
 -1       774 3.75000E-02 2.03125E-02 0.00000E+00
 -1       775 3.85417E-02 2.07031E-02 0.00000E+00
 -1       776 3.95833E-02 2.10938E-02 0.00000E+00
 -1       777 4.06250E-02 2.14844E-02 0.00000E+00
 -1       778 4.16667E-02 2.18750E-02 0.00000E+00
 -1       779 4.27083E-02 2.22656E-02 0.00000E+00
 -1       780 4.37500E-02 2.26563E-02 0.00000E+00
 -1       781 4.47917E-02 2.30469E-02 0.00000E+00
 -1       782 4.58333E-02 2.34375E-02 0.00000E+00
 -1       783 4.68750E-02 2.38281E-02 0.00000E+00
 -1       784 4.79167E-02 2.42187E-02 0.00000E+00
 -1       785 4.89583E-02 2.46094E-02 0.00000E+00
 -1       786 5.10417E-02 1.87500E-02 0.00000E+00
 -1       787 5.20833E-02 1.87500E-02 0.00000E+00
 -1       788 5.31250E-02 1.87500E-02 0.00000E+00
 -1       789 5.41667E-02 1.87500E-02 0.00000E+00
 -1       790 5.52083E-02 1.87500E-02 0.00000E+00
 -1       791 5.62500E-02 1.87500E-02 0.00000E+00
 -1       792 5.72917E-02 1.87500E-02 0.00000E+00
 -1       793 5.83333E-02 1.87500E-02 0.00000E+00
 -1       794 5.93750E-02 1.87500E-02 0.00000E+00
 -1       795 6.04167E-02 1.87500E-02 0.00000E+00
 -1       796 6.14583E-02 1.87500E-02 0.00000E+00
 -1       797 6.25000E-02 1.87500E-02 0.00000E+00
 -1       798 6.35417E-02 1.87500E-02 0.00000E+00
 -1       799 6.45833E-02 1.87500E-02 0.00000E+00
 -1       800 6.56250E-02 1.87500E-02 0.00000E+00
 -1       801 5.00000E-02 1.97917E-02 0.00000E+00
 -1       802 5.00000E-02 2.08333E-02 0.00000E+00
 -1       803 5.00000E-02 2.18750E-02 0.00000E+00
 -1       804 5.00000E-02 2.29167E-02 0.00000E+00
 -1       805 5.00000E-02 2.39583E-02 0.00000E+00
 -1       806 5.10417E-02 1.91406E-02 0.00000E+00
 -1       807 5.20833E-02 1.95312E-02 0.00000E+00
 -1       808 5.31250E-02 1.99219E-02 0.00000E+00
 -1       809 5.41667E-02 2.03125E-02 0.00000E+00
 -1       810 5.52083E-02 2.07031E-02 0.00000E+00
 -1       811 5.62500E-02 2.10938E-02 0.00000E+00
 -1       812 5.72917E-02 2.14844E-02 0.00000E+00
 -1       813 5.83333E-02 2.18750E-02 0.00000E+00
 -1       814 5.93750E-02 2.22656E-02 0.00000E+00
 -1       815 6.04167E-02 2.26563E-02 0.00000E+00
 -1       816 6.14583E-02 2.30469E-02 0.00000E+00
 -1       817 6.25000E-02 2.34375E-02 0.00000E+00
 -1       818 6.35417E-02 2.38281E-02 0.00000E+00
 -1       819 6.45833E-02 2.42187E-02 0.00000E+00
 -1       820 6.56250E-02 2.46094E-02 0.00000E+00
 -1       821 6.77083E-02 1.87500E-02 0.00000E+00
 -1       822 6.87500E-02 1.87500E-02 0.00000E+00
 -1       823 6.97917E-02 1.87500E-02 0.00000E+00
 -1       824 7.08333E-02 1.87500E-02 0.00000E+00
 -1       825 7.18750E-02 1.87500E-02 0.00000E+00
 -1       826 7.29167E-02 1.87500E-02 0.00000E+00
 -1       827 7.39583E-02 1.87500E-02 0.00000E+00
 -1       828 7.50000E-02 1.87500E-02 0.00000E+00
 -1       829 7.60417E-02 1.87500E-02 0.00000E+00
 -1       830 7.70833E-02 1.87500E-02 0.00000E+00
 -1       831 7.81250E-02 1.87500E-02 0.00000E+00
 -1       832 7.91667E-02 1.87500E-02 0.00000E+00
 -1       833 8.02083E-02 1.87500E-02 0.00000E+00
 -1       834 8.12500E-02 1.87500E-02 0.00000E+00
 -1       835 8.22917E-02 1.87500E-02 0.00000E+00
 -1       836 6.66667E-02 1.97917E-02 0.00000E+00
 -1       837 6.66667E-02 2.08333E-02 0.00000E+00
 -1       838 6.66667E-02 2.18750E-02 0.00000E+00
 -1       839 6.66667E-02 2.29167E-02 0.00000E+00
 -1       840 6.66667E-02 2.39583E-02 0.00000E+00
 -1       856 8.43750E-02 1.87500E-02 0.00000E+00
 -1       857 8.54167E-02 1.87500E-02 0.00000E+00
 -1       858 8.64583E-02 1.87500E-02 0.00000E+00
 -1       859 8.75000E-02 1.87500E-02 0.00000E+00
 -1       860 8.85417E-02 1.87500E-02 0.00000E+00
 -1       861 8.95833E-02 1.87500E-02 0.00000E+00
 -1       862 9.06250E-02 1.87500E-02 0.00000E+00
 -1       863 9.16667E-02 1.87500E-02 0.00000E+00
 -1       864 9.27083E-02 1.87500E-02 0.00000E+00
 -1       865 9.37500E-02 1.87500E-02 0.00000E+00
 -1       866 9.47917E-02 1.87500E-02 0.00000E+00
 -1       867 9.58333E-02 1.87500E-02 0.00000E+00
 -1       868 9.68750E-02 1.87500E-02 0.00000E+00
 -1       869 9.79167E-02 1.87500E-02 0.00000E+00
 -1       870 9.89583E-02 1.87500E-02 0.00000E+00
 -1       871 8.33333E-02 1.97917E-02 0.00000E+00
 -1       872 8.33333E-02 2.08333E-02 0.00000E+00
 -1       873 8.33333E-02 2.18750E-02 0.00000E+00
 -1       874 8.33333E-02 2.29167E-02 0.00000E+00
 -1       875 8.33333E-02 2.39583E-02 0.00000E+00
 -1       876 8.43750E-02 1.91406E-02 0.00000E+00
 -1       877 8.54167E-02 1.95312E-02 0.00000E+00
 -1       878 8.64583E-02 1.99219E-02 0.00000E+00
 -1       879 8.75000E-02 2.03125E-02 0.00000E+00
 -1       880 8.85417E-02 2.07031E-02 0.00000E+00
 -1       881 8.95833E-02 2.10938E-02 0.00000E+00
 -1       882 9.06250E-02 2.14844E-02 0.00000E+00
 -1       883 9.16667E-02 2.18750E-02 0.00000E+00
 -1       884 9.27083E-02 2.22656E-02 0.00000E+00
 -1       885 9.37500E-02 2.26563E-02 0.00000E+00
 -1       886 9.47917E-02 2.30469E-02 0.00000E+00
 -1       887 9.58333E-02 2.34375E-02 0.00000E+00
 -1       888 9.68750E-02 2.38281E-02 0.00000E+00
 -1       889 9.79167E-02 2.42187E-02 0.00000E+00
 -1       890 9.89583E-02 2.46094E-02 0.00000E+00
 -1       891 1.00000E-01 1.97917E-02 0.00000E+00
 -1       892 1.00000E-01 2.08333E-02 0.00000E+00
 -1       893 1.00000E-01 2.18750E-02 0.00000E+00
 -1       894 1.00000E-01 2.29167E-02 0.00000E+00
 -1       895 1.00000E-01 2.39583E-02 0.00000E+00
 -1       956 6.77083E-02 2.50000E-02 0.00000E+00
 -1       957 6.87500E-02 2.50000E-02 0.00000E+00
 -1       958 6.97917E-02 2.50000E-02 0.00000E+00
 -1       959 7.08333E-02 2.50000E-02 0.00000E+00
 -1       960 7.18750E-02 2.50000E-02 0.00000E+00
 -1       961 7.29167E-02 2.50000E-02 0.00000E+00
 -1       962 7.39583E-02 2.50000E-02 0.00000E+00
 -1       963 7.50000E-02 2.50000E-02 0.00000E+00
 -1       964 7.60417E-02 2.50000E-02 0.00000E+00
 -1       965 7.70833E-02 2.50000E-02 0.00000E+00
 -1       966 7.81250E-02 2.50000E-02 0.00000E+00
 -1       967 7.91667E-02 2.50000E-02 0.00000E+00
 -1       968 8.02083E-02 2.50000E-02 0.00000E+00
 -1       969 8.12500E-02 2.50000E-02 0.00000E+00
 -1       970 8.22917E-02 2.50000E-02 0.00000E+00
 -1       971 8.43750E-02 2.50000E-02 0.00000E+00
 -1       972 8.54167E-02 2.50000E-02 0.00000E+00
 -1       973 8.64583E-02 2.50000E-02 0.00000E+00
 -1       974 8.75000E-02 2.50000E-02 0.00000E+00
 -1       975 8.85417E-02 2.50000E-02 0.00000E+00
 -1       976 8.95833E-02 2.50000E-02 0.00000E+00
 -1       977 9.06250E-02 2.50000E-02 0.00000E+00
 -1       978 9.16667E-02 2.50000E-02 0.00000E+00
 -1       979 9.27083E-02 2.50000E-02 0.00000E+00
 -1       980 9.37500E-02 2.50000E-02 0.00000E+00
 -1       981 9.47917E-02 2.50000E-02 0.00000E+00
 -1       982 9.58333E-02 2.50000E-02 0.00000E+00
 -1       983 9.68750E-02 2.50000E-02 0.00000E+00
 -1       984 9.79167E-02 2.50000E-02 0.00000E+00
 -1       985 9.89583E-02 2.50000E-02 0.00000E+00
 -3
    3C                           211                                     1
 -1         1   12    0    1
 -2         1        52        51
 -1         2   12    0    1
 -2        52        54        53
 -1         3   12    0    1
 -2        54         8        55
 -1         4   12    0    1
 -2         1        57        56
 -1         5   12    0    1
 -2        57        59        58
 -1         6   12    0    1
 -2        59        61        60
 -1         7   12    0    1
 -2        61        63        62
 -1         8   12    0    1
 -2        63        65        64
 -1         9   12    0    1
 -2        65        67        66
 -1        10   12    0    1
 -2        67        69        68
 -1        11   12    0    1
 -2        69         9        70
 -1        12   12    0    1
 -2         2        87        86
 -1        13   12    0    1
 -2        87        89        88
 -1        14   12    0    1
 -2        89         9        90
 -1        15   12    0    1
 -2         3       122       121
 -1        16   12    0    1
 -2       122       124       123
 -1        17   12    0    1
 -2       124        10       125
 -1        18   12    0    1
 -2         5       192       191
 -1        19   12    0    1
 -2       192       194       193
 -1        20   12    0    1
 -2       194        12       195
 -1        21   12    0    1
 -2         8       252       251
 -1        22   12    0    1
 -2       252       254       253
 -1        23   12    0    1
 -2       254       256       255
 -1        24   12    0    1
 -2       256       258       257
 -1        25   12    0    1
 -2       258       260       259
 -1        26   12    0    1
 -2       260       262       261
 -1        27   12    0    1
 -2       262       264       263
 -1        28   12    0    1
 -2       264         9       265
 -1        29   12    0    1
 -2         8       267       266
 -1        30   12    0    1
 -2       267       269       268
 -1        31   12    0    1
 -2       269        15       270
 -1        32   12    0    1
 -2         8       272       271
 -1        33   12    0    1
 -2       272       274       273
 -1        34   12    0    1
 -2       274       276       275
 -1        35   12    0    1
 -2       276       278       277
 -1        36   12    0    1
 -2       278       280       279
 -1        37   12    0    1
 -2       280       282       281
 -1        38   12    0    1
 -2       282       284       283
 -1        39   12    0    1
 -2       284        16       285
 -1        40   12    0    1
 -2         9       302       301
 -1        41   12    0    1
 -2       302       304       303
 -1        42   12    0    1
 -2       304        16       305
 -1        43   12    0    1
 -2         9       307       306
 -1        44   12    0    1
 -2       307       309       308
 -1        45   12    0    1
 -2       309       311       310
 -1        46   12    0    1
 -2       311       313       312
 -1        47   12    0    1
 -2       313       315       314
 -1        48   12    0    1
 -2       315       317       316
 -1        49   12    0    1
 -2       317       319       318
 -1        50   12    0    1
 -2       319        17       320
 -1        51   12    0    1
 -2        10       337       336
 -1        52   12    0    1
 -2       337       339       338
 -1        53   12    0    1
 -2       339        17       340
 -1        54   12    0    1
 -2        12       407       406
 -1        55   12    0    1
 -2       407       409       408
 -1        56   12    0    1
 -2       409        19       410
 -1        57   12    0    1
 -2        16       522       521
 -1        58   12    0    1
 -2       522       524       523
 -1        59   12    0    1
 -2       524       526       525
 -1        60   12    0    1
 -2       526       528       527
 -1        61   12    0    1
 -2       528       530       529
 -1        62   12    0    1
 -2       530       532       531
 -1        63   12    0    1
 -2       532       534       533
 -1        64   12    0    1
 -2       534        24       535
 -1        65   12    0    1
 -2        17       537       536
 -1        66   12    0    1
 -2       537       539       538
 -1        67   12    0    1
 -2       539       541       540
 -1        68   12    0    1
 -2       541       543       542
 -1        69   12    0    1
 -2       543       545       544
 -1        70   12    0    1
 -2       545       547       546
 -1        71   12    0    1
 -2       547       549       548
 -1        72   12    0    1
 -2       549        18       550
 -1        73   12    0    1
 -2        17       552       551
 -1        74   12    0    1
 -2       552       554       553
 -1        75   12    0    1
 -2       554        24       555
 -1        76   12    0    1
 -2        17       557       556
 -1        77   12    0    1
 -2       557       559       558
 -1        78   12    0    1
 -2       559       561       560
 -1        79   12    0    1
 -2       561       563       562
 -1        80   12    0    1
 -2       563       565       564
 -1        81   12    0    1
 -2       565       567       566
 -1        82   12    0    1
 -2       567       569       568
 -1        83   12    0    1
 -2       569        25       570
 -1        84   12    0    1
 -2        18       572       571
 -1        85   12    0    1
 -2       572       574       573
 -1        86   12    0    1
 -2       574       576       575
 -1        87   12    0    1
 -2       576       578       577
 -1        88   12    0    1
 -2       578       580       579
 -1        89   12    0    1
 -2       580       582       581
 -1        90   12    0    1
 -2       582       584       583
 -1        91   12    0    1
 -2       584        19       585
 -1        92   12    0    1
 -2        18       587       586
 -1        93   12    0    1
 -2       587       589       588
 -1        94   12    0    1
 -2       589        25       590
 -1        95   12    0    1
 -2        18       592       591
 -1        96   12    0    1
 -2       592       594       593
 -1        97   12    0    1
 -2       594       596       595
 -1        98   12    0    1
 -2       596       598       597
 -1        99   12    0    1
 -2       598       600       599
 -1       100   12    0    1
 -2       600       602       601
 -1       101   12    0    1
 -2       602       604       603
 -1       102   12    0    1
 -2       604        26       605
 -1       103   12    0    1
 -2        19       607       606
 -1       104   12    0    1
 -2       607       609       608
 -1       105   12    0    1
 -2       609       611       610
 -1       106   12    0    1
 -2       611       613       612
 -1       107   12    0    1
 -2       613       615       614
 -1       108   12    0    1
 -2       615       617       616
 -1       109   12    0    1
 -2       617       619       618
 -1       110   12    0    1
 -2       619        20       620
 -1       111   12    0    1
 -2        19       622       621
 -1       112   12    0    1
 -2       622       624       623
 -1       113   12    0    1
 -2       624        26       625
 -1       114   12    0    1
 -2        19       627       626
 -1       115   12    0    1
 -2       627       629       628
 -1       116   12    0    1
 -2       629       631       630
 -1       117   12    0    1
 -2       631       633       632
 -1       118   12    0    1
 -2       633       635       634
 -1       119   12    0    1
 -2       635       637       636
 -1       120   12    0    1
 -2       637       639       638
 -1       121   12    0    1
 -2       639        27       640
 -1       122   12    0    1
 -2        20       657       656
 -1       123   12    0    1
 -2       657       659       658
 -1       124   12    0    1
 -2       659        27       660
 -1       125   12    0    1
 -2        20       662       661
 -1       126   12    0    1
 -2       662       664       663
 -1       127   12    0    1
 -2       664       666       665
 -1       128   12    0    1
 -2       666       668       667
 -1       129   12    0    1
 -2       668       670       669
 -1       130   12    0    1
 -2       670       672       671
 -1       131   12    0    1
 -2       672       674       673
 -1       132   12    0    1
 -2       674        28       675
 -1       133   12    0    1
 -2        21       677       676
 -1       134   12    0    1
 -2       677       679       678
 -1       135   12    0    1
 -2       679        28       680
 -1       136   12    0    1
 -2        24       772       771
 -1       137   12    0    1
 -2       772       774       773
 -1       138   12    0    1
 -2       774       776       775
 -1       139   12    0    1
 -2       776       778       777
 -1       140   12    0    1
 -2       778       780       779
 -1       141   12    0    1
 -2       780       782       781
 -1       142   12    0    1
 -2       782       784       783
 -1       143   12    0    1
 -2       784        32       785
 -1       144   12    0    1
 -2        25       787       786
 -1       145   12    0    1
 -2       787       789       788
 -1       146   12    0    1
 -2       789       791       790
 -1       147   12    0    1
 -2       791       793       792
 -1       148   12    0    1
 -2       793       795       794
 -1       149   12    0    1
 -2       795       797       796
 -1       150   12    0    1
 -2       797       799       798
 -1       151   12    0    1
 -2       799        26       800
 -1       152   12    0    1
 -2        25       802       801
 -1       153   12    0    1
 -2       802       804       803
 -1       154   12    0    1
 -2       804        32       805
 -1       155   12    0    1
 -2        25       807       806
 -1       156   12    0    1
 -2       807       809       808
 -1       157   12    0    1
 -2       809       811       810
 -1       158   12    0    1
 -2       811       813       812
 -1       159   12    0    1
 -2       813       815       814
 -1       160   12    0    1
 -2       815       817       816
 -1       161   12    0    1
 -2       817       819       818
 -1       162   12    0    1
 -2       819        33       820
 -1       163   12    0    1
 -2        26       822       821
 -1       164   12    0    1
 -2       822       824       823
 -1       165   12    0    1
 -2       824       826       825
 -1       166   12    0    1
 -2       826       828       827
 -1       167   12    0    1
 -2       828       830       829
 -1       168   12    0    1
 -2       830       832       831
 -1       169   12    0    1
 -2       832       834       833
 -1       170   12    0    1
 -2       834        27       835
 -1       171   12    0    1
 -2        26       837       836
 -1       172   12    0    1
 -2       837       839       838
 -1       173   12    0    1
 -2       839        33       840
 -1       174   12    0    1
 -2        27       857       856
 -1       175   12    0    1
 -2       857       859       858
 -1       176   12    0    1
 -2       859       861       860
 -1       177   12    0    1
 -2       861       863       862
 -1       178   12    0    1
 -2       863       865       864
 -1       179   12    0    1
 -2       865       867       866
 -1       180   12    0    1
 -2       867       869       868
 -1       181   12    0    1
 -2       869        28       870
 -1       182   12    0    1
 -2        27       872       871
 -1       183   12    0    1
 -2       872       874       873
 -1       184   12    0    1
 -2       874        34       875
 -1       185   12    0    1
 -2        27       877       876
 -1       186   12    0    1
 -2       877       879       878
 -1       187   12    0    1
 -2       879       881       880
 -1       188   12    0    1
 -2       881       883       882
 -1       189   12    0    1
 -2       883       885       884
 -1       190   12    0    1
 -2       885       887       886
 -1       191   12    0    1
 -2       887       889       888
 -1       192   12    0    1
 -2       889        35       890
 -1       193   12    0    1
 -2        28       892       891
 -1       194   12    0    1
 -2       892       894       893
 -1       195   12    0    1
 -2       894        35       895
 -1       196   12    0    1
 -2        33       957       956
 -1       197   12    0    1
 -2       957       959       958
 -1       198   12    0    1
 -2       959       961       960
 -1       199   12    0    1
 -2       961       963       962
 -1       200   12    0    1
 -2       963       965       964
 -1       201   12    0    1
 -2       965       967       966
 -1       202   12    0    1
 -2       967       969       968
 -1       203   12    0    1
 -2       969        34       970
 -1       204   12    0    1
 -2        34       972       971
 -1       205   12    0    1
 -2       972       974       973
 -1       206   12    0    1
 -2       974       976       975
 -1       207   12    0    1
 -2       976       978       977
 -1       208   12    0    1
 -2       978       980       979
 -1       209   12    0    1
 -2       980       982       981
 -1       210   12    0    1
 -2       982       984       983
 -1       211   12    0    1
 -2       984        35       985
 -3
    1PSTEP                         1           1           1          
  100CL  101 2.50000E-01         409                     0    1           1
 -4  DISP        4    1
 -5  D1          1    2    1    0
 -5  D2          1    2    2    0
 -5  D3          1    2    3    0
 -5  ALL         1    2    0    0    1ALL
 -1         1 6.52354E-05 0.00000E+00 0.00000E+00
 -1         2 6.02678E-05 2.02354E-29 0.00000E+00
 -1         3 5.54687E-05-3.66980E-27-3.30872E-24
 -1         5 4.00338E-05 4.58634E-26-1.65436E-24
 -1         8 5.20695E-05-4.68840E-07 0.00000E+00
 -1         9 5.28936E-05 3.09961E-07 0.00000E+00
 -1        10 5.14290E-05-7.59782E-07 1.65436E-24
 -1        12 3.97495E-05 2.72310E-07 0.00000E+00
 -1        15 3.64076E-05-5.01458E-07 2.06795E-25
 -1        16 3.76672E-05 2.49371E-07 0.00000E+00
 -1        17 3.83737E-05-1.59182E-06 0.00000E+00
 -1        18 3.83654E-05 7.10025E-08 0.00000E+00
 -1        19 3.88924E-05 5.45816E-07 0.00000E+00
 -1        20 3.89643E-05 8.11285E-06 0.00000E+00
 -1        21 3.86935E-05 1.53417E-05-8.27181E-25
 -1        24 9.81936E-06-2.11665E-06 0.00000E+00
 -1        25 3.74478E-05 1.33307E-07 0.00000E+00
 -1        26 3.79426E-05 7.59478E-07 0.00000E+00
 -1        27 3.71901E-05 6.90183E-06 0.00000E+00
 -1        28 3.69469E-05 1.51089E-05 0.00000E+00
 -1        32 0.00000E+00 0.00000E+00 0.00000E+00
 -1        33 3.63436E-05 1.01773E-06 0.00000E+00
 -1        34 3.56155E-05 6.89113E-06 0.00000E+00
 -1        35 3.49239E-05 1.49862E-05 0.00000E+00
 -1        51 6.43787E-05-7.81420E-08 0.00000E+00
 -1        52 6.27912E-05-1.53929E-07 0.00000E+00
 -1        53 6.06168E-05-2.29959E-07 0.00000E+00
 -1        54 5.80051E-05-3.06947E-07 0.00000E+00
 -1        55 5.51059E-05-3.85418E-07-1.44757E-24
 -1        56 6.46329E-05-3.64433E-07 1.32349E-23
 -1        57 6.40902E-05-9.55863E-07 0.00000E+00
 -1        58 6.36091E-05-1.70796E-06 0.00000E+00
 -1        59 6.31619E-05-2.56241E-06 0.00000E+00
 -1        60 6.27287E-05-3.45437E-06 2.64698E-23
 -1        61 6.22849E-05-4.31999E-06 0.00000E+00
 -1        62 6.18073E-05-5.09594E-06 0.00000E+00
 -1        63 6.12730E-05-5.72056E-06 0.00000E+00
 -1        64 6.06607E-05-6.13696E-06-2.64698E-23
 -1        65 5.99502E-05-6.29153E-06 0.00000E+00
 -1        66 5.91247E-05-6.13912E-06-2.64698E-23
 -1        67 5.81693E-05-5.63922E-06 0.00000E+00
 -1        68 5.70725E-05-4.76284E-06 0.00000E+00
 -1        69 5.58287E-05-3.48552E-06 0.00000E+00
 -1        70 5.44292E-05-1.79855E-06 0.00000E+00
 -1        86 6.00714E-05 5.52387E-08 0.00000E+00
 -1        87 5.94818E-05 1.10036E-07 8.27181E-25
 -1        88 5.84870E-05 1.64482E-07 0.00000E+00
 -1        89 5.70743E-05 2.16606E-07 5.16988E-26
 -1        90 5.52185E-05 2.68654E-07 1.65436E-24
 -1       121 5.53562E-05-1.26296E-07 3.30872E-24
 -1       122 5.50189E-05-2.52643E-07 0.00000E+00
 -1       123 5.44568E-05-3.79093E-07 0.00000E+00
 -1       124 5.36707E-05-5.05716E-07 0.00000E+00
 -1       125 5.26611E-05-6.32527E-07 0.00000E+00
 -1       191 4.00259E-05 4.53844E-08 1.65436E-24
 -1       192 4.00021E-05 9.07683E-08-2.48154E-24
 -1       193 3.99626E-05 1.36152E-07-1.65436E-24
 -1       194 3.99073E-05 1.81536E-07 0.00000E+00
 -1       195 3.98362E-05 2.26920E-07-1.65436E-24
 -1       251 5.21103E-05 1.69855E-06-1.65436E-24
 -1       252 5.21619E-05 2.99387E-06-5.16988E-26
 -1       253 5.22136E-05 3.56003E-06 0.00000E+00
 -1       254 5.22673E-05 3.53821E-06 0.00000E+00
 -1       255 5.23209E-05 3.05297E-06 1.65436E-24
 -1       256 5.23746E-05 2.22781E-06 0.00000E+00
 -1       257 5.24282E-05 1.17656E-06 1.65436E-24
 -1       258 5.24818E-05 1.25685E-08-8.27181E-25
 -1       259 5.25353E-05-1.15410E-06 0.00000E+00
 -1       260 5.25889E-05-2.21334E-06-8.27181E-25
 -1       261 5.26426E-05-3.05197E-06-1.65436E-24
 -1       262 5.26962E-05-3.55636E-06 0.00000E+00
 -1       263 5.27498E-05-3.60333E-06 8.27181E-25
 -1       264 5.28015E-05-3.06865E-06 1.03398E-25
 -1       265 5.28531E-05-1.81167E-06 0.00000E+00
 -1       266 4.94592E-05-4.80767E-07 0.00000E+00
 -1       267 4.68489E-05-4.85412E-07-8.27181E-25
 -1       268 4.42386E-05-4.90519E-07 0.00000E+00
 -1       269 4.16282E-05-4.94259E-07 0.00000E+00
 -1       270 3.90179E-05-4.97967E-07 0.00000E+00
 -1       271 5.04854E-05 1.47059E-06 1.32349E-23
 -1       272 4.91431E-05 2.69248E-06 0.00000E+00
 -1       273 4.80362E-05 3.29161E-06 2.64698E-23
 -1       274 4.71251E-05 3.35770E-06 0.00000E+00
 -1       275 4.63768E-05 2.98902E-06 0.00000E+00
 -1       276 4.57528E-05 2.28667E-06 1.32349E-23
 -1       277 4.52142E-05 1.35557E-06 2.64698E-23
 -1       278 4.47211E-05 3.02697E-07 0.00000E+00
 -1       279 4.42331E-05-7.63684E-07 0.00000E+00
 -1       280 4.37096E-05-1.73515E-06 0.00000E+00
 -1       281 4.31105E-05-2.50434E-06 0.00000E+00
 -1       282 4.23965E-05-2.96580E-06 0.00000E+00
 -1       283 4.15291E-05-3.01742E-06 0.00000E+00
 -1       284 4.04736E-05-2.56016E-06 0.00000E+00
 -1       285 3.91914E-05-1.50231E-06 1.32349E-23
 -1       301 5.03154E-05 2.96746E-07-3.30872E-24
 -1       302 4.77375E-05 2.91339E-07 8.27181E-25
 -1       303 4.51719E-05 2.86158E-07 0.00000E+00
 -1       304 4.26304E-05 2.80108E-07 0.00000E+00
 -1       305 4.01249E-05 2.72832E-07 6.61744E-24
 -1       306 5.12640E-05 2.18892E-06 0.00000E+00
 -1       307 4.98913E-05 3.30524E-06 0.00000E+00
 -1       308 4.87901E-05 3.70468E-06 0.00000E+00
 -1       309 4.79337E-05 3.43798E-06 1.32349E-23
 -1       310 4.72864E-05 2.61286E-06-2.64698E-23
 -1       311 4.68022E-05 1.34902E-06 1.32349E-23
 -1       312 4.64240E-05-1.98221E-07 0.00000E+00
 -1       313 4.60909E-05-1.86682E-06 0.00000E+00
 -1       314 4.57389E-05-3.48474E-06-2.64698E-23
 -1       315 4.53043E-05-4.88117E-06 0.00000E+00
 -1       316 4.47299E-05-5.90351E-06 2.64698E-23
 -1       317 4.39627E-05-6.40811E-06-1.32349E-23
 -1       318 4.29632E-05-6.29311E-06 2.64698E-23
 -1       319 4.17037E-05-5.46996E-06-1.32349E-23
 -1       320 4.01647E-05-3.91087E-06 0.00000E+00
 -1       336 4.99458E-05-8.97341E-07-3.30872E-24
 -1       337 4.81829E-05-1.03553E-06-1.65436E-24
 -1       338 4.61418E-05-1.17418E-06 3.30872E-24
 -1       339 4.38249E-05-1.31322E-06 0.00000E+00
 -1       340 4.12345E-05-1.45293E-06 0.00000E+00
 -1       406 3.96471E-05 3.18122E-07 0.00000E+00
 -1       407 3.95286E-05 3.63927E-07 8.27181E-25
 -1       408 3.93939E-05 4.09705E-07 0.00000E+00
 -1       409 3.92429E-05 4.55396E-07-8.27181E-25
 -1       410 3.90757E-05 5.00910E-07-1.65436E-24
 -1       521 3.54012E-05 1.64673E-06-2.64698E-23
 -1       522 3.34224E-05 2.13075E-06 2.64698E-23
 -1       523 3.17661E-05 1.76541E-06 5.29396E-23
 -1       524 3.03894E-05 6.27710E-07 0.00000E+00
 -1       525 2.92367E-05-1.10916E-06 0.00000E+00
 -1       526 2.82329E-05-3.24953E-06 2.64698E-23
 -1       527 2.72887E-05-5.55006E-06-5.29396E-23
 -1       528 2.63107E-05-7.76109E-06 0.00000E+00
 -1       529 2.52099E-05-9.64305E-06 0.00000E+00
 -1       530 2.39022E-05-1.09707E-05 2.64698E-23
 -1       531 2.23267E-05-1.15833E-05-5.29396E-23
 -1       532 2.04356E-05-1.13505E-05 2.64698E-23
 -1       533 1.82146E-05-1.02406E-05 0.00000E+00
 -1       534 1.56735E-05-8.25631E-06-2.64698E-23
 -1       535 1.28402E-05-5.50842E-06-2.64698E-23
 -1       536 3.83658E-05 1.07119E-06 0.00000E+00
 -1       537 3.83635E-05 3.07280E-06 0.00000E+00
 -1       538 3.83620E-05 4.48204E-06-4.13590E-25
 -1       539 3.83617E-05 5.36795E-06 1.03398E-25
 -1       540 3.83618E-05 5.79920E-06 1.03398E-25
 -1       541 3.83622E-05 5.84447E-06 0.00000E+00
 -1       542 3.83625E-05 5.57210E-06 0.00000E+00
 -1       543 3.83627E-05 5.05042E-06-1.61559E-27
 -1       544 3.83629E-05 4.34756E-06 0.00000E+00
 -1       545 3.83630E-05 3.53162E-06-6.46235E-27
 -1       546 3.83631E-05 2.67061E-06 2.58494E-26
 -1       547 3.83632E-05 1.83256E-06-2.58494E-26
 -1       548 3.83634E-05 1.08547E-06 5.16988E-26
 -1       549 3.83638E-05 4.97386E-07-5.16988E-26
 -1       550 3.83642E-05 1.36505E-07-2.06795E-25
 -1       551 3.45848E-05-1.67273E-06 0.00000E+00
 -1       552 3.00522E-05-1.75533E-06 0.00000E+00
 -1       553 2.50408E-05-1.84025E-06 1.65436E-24
 -1       554 1.98193E-05-1.92750E-06 3.30872E-24
 -1       555 1.46566E-05-2.01591E-06 0.00000E+00
 -1       556 3.73829E-05 9.80913E-07 0.00000E+00
 -1       557 3.66263E-05 2.94542E-06 0.00000E+00
 -1       558 3.60782E-05 4.35795E-06 0.00000E+00
 -1       559 3.57155E-05 5.27916E-06 0.00000E+00
 -1       560 3.55149E-05 5.76952E-06 0.00000E+00
 -1       561 3.54534E-05 5.88983E-06 0.00000E+00
 -1       562 3.55079E-05 5.70092E-06 0.00000E+00
 -1       563 3.56555E-05 5.26366E-06 0.00000E+00
 -1       564 3.58733E-05 4.63896E-06 0.00000E+00
 -1       565 3.61385E-05 3.88772E-06 0.00000E+00
 -1       566 3.64282E-05 3.07089E-06-4.13590E-25
 -1       567 3.67197E-05 2.24939E-06-2.06795E-25
 -1       568 3.69901E-05 1.48415E-06 0.00000E+00
 -1       569 3.72167E-05 8.36024E-07 0.00000E+00
 -1       570 3.73767E-05 3.65900E-07 0.00000E+00
 -1       571 3.83974E-05 1.21471E-07 6.20385E-25
 -1       572 3.84301E-05 1.50229E-07 3.10193E-25
 -1       573 3.84630E-05 1.61143E-07-8.27181E-25
 -1       574 3.84960E-05 1.58284E-07 2.06795E-25
 -1       575 3.85290E-05 1.45741E-07 0.00000E+00
 -1       576 3.85620E-05 1.27629E-07 4.13590E-25
 -1       577 3.85951E-05 1.08067E-07-8.27181E-25
 -1       578 3.86281E-05 9.11769E-08-8.27181E-25
 -1       579 3.86612E-05 8.10814E-08 0.00000E+00
 -1       580 3.86942E-05 8.19026E-08 0.00000E+00
 -1       581 3.87273E-05 9.77622E-08 0.00000E+00
 -1       582 3.87603E-05 1.32777E-07 0.00000E+00
 -1       583 3.87934E-05 1.91060E-07 0.00000E+00
 -1       584 3.88264E-05 2.76682E-07-1.65436E-24
 -1       585 3.88594E-05 3.93690E-07 0.00000E+00
 -1       586 3.82011E-05 8.20391E-08 8.27181E-25
 -1       587 3.80229E-05 9.27951E-08-1.03398E-25
 -1       588 3.78446E-05 1.03431E-07 0.00000E+00
 -1       589 3.76800E-05 1.13897E-07 0.00000E+00
 -1       590 3.75433E-05 1.24076E-07 0.00000E+00
 -1       591 3.83312E-05 1.38200E-07 7.75482E-26
 -1       592 3.83025E-05 1.87433E-07 2.06795E-25
 -1       593 3.82791E-05 2.22121E-07-2.06795E-25
 -1       594 3.82599E-05 2.45347E-07 2.06795E-25
 -1       595 3.82438E-05 2.60232E-07 4.13590E-25
 -1       596 3.82296E-05 2.69875E-07 0.00000E+00
 -1       597 3.82162E-05 2.77372E-07-2.06795E-25
 -1       598 3.82024E-05 2.85820E-07 1.03398E-25
 -1       599 3.81872E-05 2.98311E-07 2.06795E-25
 -1       600 3.81692E-05 3.17940E-07 0.00000E+00
 -1       601 3.81474E-05 3.47803E-07 0.00000E+00
 -1       602 3.81207E-05 3.90996E-07 1.03398E-25
 -1       603 3.80878E-05 4.50618E-07-2.06795E-25
 -1       604 3.80478E-05 5.29791E-07-5.16988E-26
 -1       605 3.79994E-05 6.31598E-07 0.00000E+00
 -1       606 3.88985E-05 7.73048E-07 0.00000E+00
 -1       607 3.89035E-05 1.04747E-06 0.00000E+00
 -1       608 3.89081E-05 1.36630E-06 0.00000E+00
 -1       609 3.89126E-05 1.72643E-06 0.00000E+00
 -1       610 3.89171E-05 2.12472E-06 0.00000E+00
 -1       611 3.89215E-05 2.55798E-06 0.00000E+00
 -1       612 3.89258E-05 3.02302E-06 0.00000E+00
 -1       613 3.89302E-05 3.51667E-06 0.00000E+00
 -1       614 3.89345E-05 4.03573E-06 0.00000E+00
 -1       615 3.89388E-05 4.57701E-06 0.00000E+00
 -1       616 3.89432E-05 5.13733E-06 0.00000E+00
 -1       617 3.89475E-05 5.71350E-06-2.06795E-25
 -1       618 3.89518E-05 6.30232E-06 4.13590E-25
 -1       619 3.89560E-05 6.90062E-06 0.00000E+00
 -1       620 3.89602E-05 7.50519E-06 0.00000E+00
 -1       621 3.87114E-05 5.81454E-07-8.27181E-25
 -1       622 3.85430E-05 6.17263E-07 0.00000E+00
 -1       623 3.83847E-05 6.53066E-07-8.27181E-25
 -1       624 3.82337E-05 6.88811E-07 0.00000E+00
 -1       625 3.80872E-05 7.24495E-07 0.00000E+00
 -1       626 3.88453E-05 7.84262E-07 0.00000E+00
 -1       627 3.87839E-05 1.06179E-06 0.00000E+00
 -1       628 3.87092E-05 1.37477E-06 1.65436E-24
 -1       629 3.86227E-05 1.71935E-06-1.65436E-24
 -1       630 3.85258E-05 2.09166E-06 0.00000E+00
 -1       631 3.84200E-05 2.48779E-06 1.65436E-24
 -1       632 3.83067E-05 2.90385E-06 0.00000E+00
 -1       633 3.81874E-05 3.33594E-06 0.00000E+00
 -1       634 3.80635E-05 3.78016E-06 0.00000E+00
 -1       635 3.79365E-05 4.23262E-06 8.27181E-25
 -1       636 3.78079E-05 4.68941E-06 8.27181E-25
 -1       637 3.76791E-05 5.14664E-06 4.13590E-25
 -1       638 3.75516E-05 5.60040E-06 8.27181E-25
 -1       639 3.74268E-05 6.04680E-06 0.00000E+00
 -1       640 3.73060E-05 6.48192E-06 0.00000E+00
 -1       656 3.84594E-05 7.91585E-06-3.30872E-24
 -1       657 3.81323E-05 7.71094E-06 0.00000E+00
 -1       658 3.79138E-05 7.50666E-06 3.30872E-24
 -1       659 3.77334E-05 7.30254E-06 0.00000E+00
 -1       660 3.75168E-05 7.09777E-06-3.30872E-24
 -1       661 3.87774E-05 8.70846E-06 4.13590E-25
 -1       662 3.86014E-05 9.27894E-06 4.13590E-25
 -1       663 3.84347E-05 9.82478E-06-8.27181E-25
 -1       664 3.82770E-05 1.03471E-05 4.13590E-25
 -1       665 3.81278E-05 1.08469E-05 8.27181E-25
 -1       666 3.79867E-05 1.13250E-05 0.00000E+00
 -1       667 3.78535E-05 1.17824E-05 0.00000E+00
 -1       668 3.77277E-05 1.22201E-05 4.13590E-25
 -1       669 3.76090E-05 1.26388E-05 8.27181E-25
 -1       670 3.74970E-05 1.30395E-05 0.00000E+00
 -1       671 3.73915E-05 1.34229E-05 0.00000E+00
 -1       672 3.72921E-05 1.37900E-05 0.00000E+00
 -1       673 3.71985E-05 1.41414E-05 0.00000E+00
 -1       674 3.71101E-05 1.44780E-05-4.13590E-25
 -1       675 3.70271E-05 1.48005E-05-2.06795E-25
 -1       676 3.84020E-05 1.53027E-05-8.27181E-25
 -1       677 3.81106E-05 1.52637E-05-4.13590E-25
 -1       678 3.78193E-05 1.52247E-05 8.27181E-25
 -1       679 3.75282E-05 1.51858E-05-4.13590E-25
 -1       680 3.72374E-05 1.51469E-05 0.00000E+00
 -1       771 7.87692E-06 1.55742E-06 0.00000E+00
 -1       772 6.18453E-06 4.55715E-06 0.00000E+00
 -1       773 4.73137E-06 6.92317E-06 0.00000E+00
 -1       774 3.50094E-06 8.69779E-06 0.00000E+00
 -1       775 2.47711E-06 9.92380E-06 2.64698E-23
 -1       776 1.64325E-06 1.06448E-05 0.00000E+00
 -1       777 9.82594E-07 1.09048E-05 1.32349E-23
 -1       778 4.78173E-07 1.07485E-05 0.00000E+00
 -1       779 1.12937E-07 1.02209E-05 1.32349E-23
 -1       780-1.30337E-07 9.36766E-06 0.00000E+00
 -1       781-2.68902E-07 8.23462E-06-1.32349E-23
 -1       782-3.20140E-07 6.86807E-06 0.00000E+00
 -1       783-3.01454E-07 5.31447E-06 0.00000E+00
 -1       784-2.30298E-07 3.62062E-06 0.00000E+00
 -1       785-1.24187E-07 1.83338E-06 0.00000E+00
 -1       786 3.74769E-05 1.34234E-07-4.13590E-25
 -1       787 3.75078E-05 1.35745E-07 4.13590E-25
 -1       788 3.75385E-05 1.38454E-07 0.00000E+00
 -1       789 3.75696E-05 1.42972E-07-4.13590E-25
 -1       790 3.76007E-05 1.50039E-07-8.27181E-25
 -1       791 3.76318E-05 1.60401E-07 4.13590E-25
 -1       792 3.76629E-05 1.75032E-07 0.00000E+00
 -1       793 3.76941E-05 1.94915E-07 0.00000E+00
 -1       794 3.77253E-05 2.21399E-07-8.27181E-25
 -1       795 3.77564E-05 2.55845E-07 0.00000E+00
 -1       796 3.77876E-05 3.00173E-07 8.27181E-25
 -1       797 3.78187E-05 3.56318E-07 0.00000E+00
 -1       798 3.78499E-05 4.27044E-07 8.27181E-25
 -1       799 3.78809E-05 5.15136E-07 0.00000E+00
 -1       800 3.79120E-05 6.24602E-07 0.00000E+00
 -1       801 3.49188E-05 1.36476E-07 4.13590E-25
 -1       802 2.73972E-05 1.15584E-07 4.13590E-25
 -1       803 1.75147E-05 7.58536E-08 1.65436E-24
 -1       804 7.90215E-06 3.50606E-08-1.65436E-24
 -1       805 1.18724E-06 1.68837E-08-6.61744E-24
 -1       806 3.74089E-05 1.13335E-07 0.00000E+00
 -1       807 3.73683E-05 9.36061E-08 4.13590E-25
 -1       808 3.73264E-05 7.65396E-08-8.27181E-25
 -1       809 3.72825E-05 6.41849E-08 0.00000E+00
 -1       810 3.72361E-05 5.85875E-08 8.27181E-25
 -1       811 3.71864E-05 6.17625E-08 4.13590E-25
 -1       812 3.71326E-05 7.57231E-08-8.27181E-25
 -1       813 3.70740E-05 1.02477E-07 4.13590E-25
 -1       814 3.70099E-05 1.44033E-07-8.27181E-25
 -1       815 3.69395E-05 2.02397E-07 4.13590E-25
 -1       816 3.68620E-05 2.79574E-07-8.27181E-25
 -1       817 3.67767E-05 3.77571E-07 0.00000E+00
 -1       818 3.66828E-05 4.98391E-07-8.27181E-25
 -1       819 3.65798E-05 6.44033E-07 4.13590E-25
 -1       820 3.64668E-05 8.16495E-07 8.27181E-25
 -1       821 3.78983E-05 9.23706E-07-4.13590E-25
 -1       822 3.78512E-05 1.12130E-06 0.00000E+00
 -1       823 3.78043E-05 1.35704E-06-1.65436E-24
 -1       824 3.77568E-05 1.63558E-06 8.27181E-25
 -1       825 3.77094E-05 1.95729E-06-1.65436E-24
 -1       826 3.76618E-05 2.32242E-06 0.00000E+00
 -1       827 3.76142E-05 2.72681E-06 1.65436E-24
 -1       828 3.75665E-05 3.16624E-06 0.00000E+00
 -1       829 3.75189E-05 3.63292E-06 0.00000E+00
 -1       830 3.74712E-05 4.11900E-06 0.00000E+00
 -1       831 3.74236E-05 4.61469E-06-1.65436E-24
 -1       832 3.73761E-05 5.11015E-06 8.27181E-25
 -1       833 3.73285E-05 5.59557E-06 0.00000E+00
 -1       834 3.72816E-05 6.06117E-06 0.00000E+00
 -1       835 3.72344E-05 6.49916E-06 0.00000E+00
 -1       836 3.77481E-05 8.02464E-07-8.27181E-25
 -1       837 3.74970E-05 8.46405E-07 0.00000E+00
 -1       838 3.72100E-05 8.90268E-07 8.27181E-25
 -1       839 3.69082E-05 9.33853E-07 0.00000E+00
 -1       840 3.66124E-05 9.77369E-07-2.06795E-25
 -1       856 3.71766E-05 7.31454E-06 0.00000E+00
 -1       857 3.71615E-05 7.77915E-06-1.03398E-25
 -1       858 3.71466E-05 8.28745E-06-4.13590E-25
 -1       859 3.71313E-05 8.83119E-06 2.06795E-25
 -1       860 3.71160E-05 9.40213E-06 4.13590E-25
 -1       861 3.71006E-05 9.99198E-06 0.00000E+00
 -1       862 3.70853E-05 1.05925E-05 4.13590E-25
 -1       863 3.70699E-05 1.11953E-05 0.00000E+00
 -1       864 3.70545E-05 1.17921E-05 0.00000E+00
 -1       865 3.70391E-05 1.23748E-05-2.06795E-25
 -1       866 3.70238E-05 1.29349E-05 0.00000E+00
 -1       867 3.70084E-05 1.34642E-05 0.00000E+00
 -1       868 3.69930E-05 1.39545E-05 4.13590E-25
 -1       869 3.69777E-05 1.43975E-05 0.00000E+00
 -1       870 3.69624E-05 1.47850E-05 4.13590E-25
 -1       871 3.68749E-05 6.90146E-06 2.06795E-25
 -1       872 3.66095E-05 6.90004E-06 0.00000E+00
 -1       873 3.63725E-05 6.89844E-06 0.00000E+00
 -1       874 3.61423E-05 6.89659E-06-2.58494E-26
 -1       875 3.58971E-05 6.89451E-06-1.03398E-25
 -1       876 3.70807E-05 7.31880E-06 1.65436E-24
 -1       877 3.69629E-05 7.76102E-06 0.00000E+00
 -1       878 3.68368E-05 8.22541E-06 1.65436E-24
 -1       879 3.67036E-05 8.70915E-06 0.00000E+00
 -1       880 3.65642E-05 9.20938E-06 1.65436E-24
 -1       881 3.64197E-05 9.72323E-06-8.27181E-25
 -1       882 3.62712E-05 1.02479E-05-1.65436E-24
 -1       883 3.61197E-05 1.07805E-05-8.27181E-25
 -1       884 3.59662E-05 1.13182E-05 0.00000E+00
 -1       885 3.58119E-05 1.18583E-05 0.00000E+00
 -1       886 3.56578E-05 1.23977E-05 0.00000E+00
 -1       887 3.55050E-05 1.29338E-05 0.00000E+00
 -1       888 3.53543E-05 1.34636E-05 0.00000E+00
 -1       889 3.52069E-05 1.39843E-05 4.13590E-25
 -1       890 3.50638E-05 1.44930E-05 0.00000E+00
 -1       891 3.66664E-05 1.50884E-05-4.13590E-25
 -1       892 3.63769E-05 1.50678E-05 0.00000E+00
 -1       893 3.60681E-05 1.50472E-05-4.13590E-25
 -1       894 3.57298E-05 1.50266E-05-1.03398E-25
 -1       895 3.53518E-05 1.50061E-05-1.03398E-25
 -1       956 3.62989E-05 1.27777E-06 0.00000E+00
 -1       957 3.62535E-05 1.56698E-06 4.13590E-25
 -1       958 3.62080E-05 1.88231E-06-8.27181E-25
 -1       959 3.61624E-05 2.22056E-06-8.27181E-25
 -1       960 3.61167E-05 2.57852E-06 8.27181E-25
 -1       961 3.60711E-05 2.95295E-06-4.13590E-25
 -1       962 3.60254E-05 3.34061E-06 8.27181E-25
 -1       963 3.59797E-05 3.73827E-06-8.27181E-25
 -1       964 3.59340E-05 4.14269E-06-1.65436E-24
 -1       965 3.58883E-05 4.55062E-06 8.27181E-25
 -1       966 3.58426E-05 4.95885E-06-1.65436E-24
 -1       967 3.57969E-05 5.36412E-06 0.00000E+00
 -1       968 3.57513E-05 5.76319E-06 0.00000E+00
 -1       969 3.57057E-05 6.15285E-06 8.27181E-25
 -1       970 3.56603E-05 6.52987E-06-1.65436E-24
 -1       971 3.55728E-05 7.26220E-06 8.27181E-25
 -1       972 3.55296E-05 7.67180E-06 0.00000E+00
 -1       973 3.54862E-05 8.11566E-06 0.00000E+00
 -1       974 3.54428E-05 8.58936E-06-8.27181E-25
 -1       975 3.53993E-05 9.08848E-06-8.27181E-25
 -1       976 3.53558E-05 9.60856E-06 4.13590E-25
 -1       977 3.53123E-05 1.01452E-05-1.65436E-24
 -1       978 3.52688E-05 1.06939E-05-8.27181E-25
 -1       979 3.52253E-05 1.12503E-05-1.65436E-24
 -1       980 3.51818E-05 1.18098E-05 8.27181E-25
 -1       981 3.51384E-05 1.23682E-05 0.00000E+00
 -1       982 3.50949E-05 1.29209E-05 0.00000E+00
 -1       983 3.50515E-05 1.34634E-05 0.00000E+00
 -1       984 3.50083E-05 1.39914E-05-8.27181E-25
 -1       985 3.49653E-05 1.45005E-05 0.00000E+00
 -3
    1PSTEP                         2           1           1          
  100CL  101 2.50000E-01         409                     0    1           1
 -4  STRESS      6    1
 -5  SXX         1    4    1    1
 -5  SYY         1    4    2    2
 -5  SZZ         1    4    3    3
 -5  SXY         1    4    1    2
 -5  SYZ         1    4    2    3
 -5  SZX         1    4    3    1
 -1         1-8.63913E+05-3.98587E+05-1.75235E+05-5.58306E+05 3.34694E-10-2.61934E-09
 -1         2 1.44472E+03 1.59904E+05 4.70694E+03 2.67209E+02-7.40528E-11-7.46857E-09
 -1         3-1.82442E+01-3.61027E+05 8.30051E+01-6.58673E+01-4.85718E-11-3.48336E-09
 -1         5-2.16394E+00 1.29848E+05-1.41001E-01-1.40075E+00 6.31726E-11-3.85626E-10
 -1         8-4.07011E+05-1.77337E+05-1.38794E+04-3.08513E+05 1.81899E-10 1.17507E-09
 -1         9-6.98540E+05-1.82670E+05-6.93990E+04-2.42749E+05 1.98343E-09 2.98605E-09
 -1        10-2.67829E+02-3.76118E+05-4.78245E+02-4.36356E+02-1.66779E-09-5.90627E-09
 -1        12 2.42576E-01 1.30511E+05 1.13420E+02 8.14172E-01-3.07409E-10-2.41403E-10
 -1        15 1.07552E+03 5.91054E+02 3.47660E+03 1.21403E+00-1.32373E-08-5.27357E-06
 -1        16-1.96248E+06-6.33005E+05-3.05147E+05-6.44098E+05 5.93961E-09-3.55067E-09
 -1        17-4.32367E+05-2.68020E+05-8.30961E+04-2.53409E+05-2.95258E-09-5.16593E-10
 -1        18 1.66455E+04 1.73386E+03-5.81883E+03-3.05496E+04 4.06487E-10 7.18956E-10
 -1        19 4.07504E+04 4.87690E+04-2.04595E+02 7.98219E+03-2.67937E-10 4.76575E-11
 -1        20-1.68921E+04-1.92426E+05-4.24275E+04 1.43311E+04 1.69643E-09-1.51582E-12
 -1        21-1.82278E+01-1.11628E+05-3.60532E+02-2.23172E+01-6.01261E-09-9.45950E-09
 -1        24-1.72163E+06-6.03022E+05-2.45939E+05-7.35748E+05-7.67250E-09-5.11742E-09
 -1        25 1.47776E+04-3.40249E+03 8.74989E+03-5.51367E+04 1.88857E-10 5.43878E-10
 -1        26-9.46076E+03 3.31583E+04-6.59344E+03-4.71631E+03 8.88031E-10 2.54119E-10
 -1        27-3.07954E+04-1.05587E+05-3.96073E+04 2.37959E+04 2.83004E-09-1.63148E-09
 -1        28 8.61997E+03-3.08424E+04 6.30012E+03 9.88980E+03 9.74808E-10 2.86224E-10
 -1        32-4.12824E+05-6.44696E+04 1.76852E+05-2.77050E+05-8.02538E-09 7.97993E-09
 -1        33-6.04119E+04 3.10580E+04 1.10112E+04-1.80081E+04 6.44330E-10 1.49566E-09
 -1        34-7.84113E+04-7.80638E+03 1.86432E+02 2.41167E+04 1.67284E-09-1.66438E-10
 -1        35-8.77228E+03-1.22701E+04-4.77858E+02 1.94405E+04 2.95653E-09-4.17852E-09
 -1        51 8.24148E+03-2.04642E+05 1.98531E+04-5.03526E+05 5.82077E-11-1.12923E-08
 -1        52 3.99438E+03-2.02591E+05 1.30354E+04-5.87267E+05 8.73115E-11-2.26646E-08
 -1        53 2.40204E+03-2.07358E+05 1.13525E+04-5.01823E+05 3.01952E-10-1.30822E-08
 -1        54 7.88655E+03-2.05267E+05 1.82958E+04-5.89084E+05 3.63798E-12-4.63660E-09
 -1        55 1.81376E+04-2.11867E+05 3.29157E+04-5.01614E+05 5.23869E-10 2.05182E-09
 -1        56-1.65950E+06-1.87756E+05-1.29608E+05-6.40158E+05-2.47383E-10-4.96220E-09
 -1        57-1.71219E+06-3.04316E+05-8.73504E+04-6.34468E+05-4.00632E-10-5.15320E-09
 -1        58-1.68527E+06-2.29059E+05-3.05157E+04-6.32360E+05-9.05402E-10 9.87711E-10
 -1        59-1.68239E+06-2.55897E+05-1.82174E+04-6.43840E+05 7.93989E-10-2.32558E-09
 -1        60-1.68906E+06-2.34795E+05-7.13393E+03-6.31284E+05-1.11220E-09-8.13998E-10
 -1        61-1.67828E+06-2.48903E+05-4.05760E+03-6.44770E+05 5.07725E-10-1.55231E-09
 -1        62-1.68933E+06-2.35879E+05-1.95512E+03-6.31485E+05-1.33002E-09 2.00325E-09
 -1        63-1.67861E+06-2.47159E+05-1.61164E+03-6.43826E+05 2.86946E-10 1.17376E-08
 -1        64-1.68871E+06-2.36534E+05-1.84670E+03-6.32218E+05 8.68795E-10 1.07184E-09
 -1        65-1.68062E+06-2.46313E+05-3.70630E+03-6.41872E+05-4.05862E-10-6.55780E-09
 -1        66-1.68729E+06-2.36761E+05-6.51019E+03-6.33412E+05-7.01334E-10-4.06044E-09
 -1        67-1.68655E+06-2.50403E+05-1.65341E+04-6.38409E+05 1.08807E-09-2.38197E-09
 -1        68-1.68279E+06-2.32622E+05-2.77417E+04-6.35607E+05 8.58108E-10 2.34650E-10
 -1        69-1.71553E+06-2.92463E+05-7.93202E+04-6.27714E+05 3.60160E-10 1.00772E-09
 -1        70-1.65853E+06-1.95956E+05-1.17748E+05-6.43651E+05-3.34694E-10 2.36469E-09
 -1        86-7.23808E+02 1.58504E+05 5.05317E+03-1.33612E+02 6.58019E-10 5.24551E-10
 -1        87 4.80647E+03 1.61540E+05 1.05281E+04 5.46770E+02 1.09355E-09-7.27130E-09
 -1        88-4.07565E+03 1.56869E+05 1.61343E+04-4.13173E+02 1.62436E-09-1.08980E-09
 -1        89 3.03758E+04 1.73436E+05 4.34885E+04 1.16537E+03 2.46791E-09-2.08648E-09
 -1        90-2.62093E+04 1.46613E+05 6.14518E+04-7.52029E+02 2.75759E-09-3.63627E-09
 -1       121-3.46398E+01-3.61144E+05 8.29843E+01 3.29142E+01 1.93339E-10-4.52928E-10
 -1       122 9.03891E+00-3.61008E+05 1.81878E+02-1.31882E+02-6.91214E-10-3.33512E-09
 -1       123-5.46892E+01-3.61163E+05 2.99064E+02 9.88545E+01 5.76961E-10-1.97633E-09
 -1       124 3.44689E+02-3.60801E+05 7.64511E+02-3.26940E+02-1.25726E-09 1.12345E-09
 -1       125-2.73415E+02-3.61353E+05 1.17703E+03 2.27994E+02 8.54243E-10-1.96724E-09
 -1       191-2.46237E+00 1.29859E+05-2.78293E-01 7.00239E-01 8.47393E-11 2.49929E-09
 -1       192-3.68920E+00 1.29847E+05-6.89355E-01-6.27625E+00 1.28694E-10 2.95518E-09
 -1       193-7.13099E+00 1.29860E+05-1.73257E+00 5.57465E+00 1.44269E-10 2.17415E-09
 -1       194-1.99531E+01 1.29844E+05-6.58583E+00-4.79587E+01 9.60085E-11-2.76293E-09
 -1       195-5.21995E+01 1.29863E+05-1.56442E+01 4.23732E+01 1.80989E-10-2.39947E-09
 -1       251 1.43036E+05-2.53674E+04 5.93076E+04 2.14992E+03-1.78716E-10 5.34783E-09
 -1       252 1.69594E+05 2.93638E+04 4.20015E+04-7.51010E+03 1.40318E-10 9.71340E-10
 -1       253 1.53143E+05-3.92908E+03 1.53535E+04 1.62179E+03-1.94234E-10-1.00044E-10
 -1       254 1.57729E+05 4.54260E+03 9.68329E+03-6.67101E+03 3.15708E-10 2.09911E-09
 -1       255 1.54868E+05-6.07463E+02 3.96722E+03 1.31094E+03 5.76392E-11 3.30101E-09
 -1       256 1.55679E+05 7.19734E+02 2.40747E+03-6.21023E+03-8.19256E-12-6.97725E-10
 -1       257 1.55178E+05-1.06551E+02 1.24101E+03 1.16100E+03 5.95008E-11-7.52948E-10
 -1       258 1.55366E+05 2.23292E+02 1.10066E+03-6.05845E+03-3.90887E-11-2.81535E-09
 -1       259 1.55177E+05-1.08814E+02 1.26242E+03 1.15916E+03-1.30633E-10-8.82039E-10
 -1       260 1.55687E+05 7.39579E+02 2.46838E+03-6.20339E+03 5.69656E-10-4.41244E-09
 -1       261 1.54861E+05-6.24827E+02 4.07847E+03 1.30594E+03 7.98764E-10-4.16821E-09
 -1       262 1.57789E+05 4.67359E+03 9.95801E+03-6.65626E+03-2.51532E-12 8.98808E-10
 -1       263 1.53091E+05-4.04195E+03 1.57964E+04 1.61204E+03-5.08294E-10 3.24235E-09
 -1       264 1.69981E+05 3.02089E+04 4.32049E+04-7.48649E+03-1.03478E-09 5.42423E-09
 -1       265 1.42702E+05-2.60959E+04 6.10193E+04 2.13605E+03-8.17636E-10 5.49699E-09
 -1       266-1.94707E+04-9.10513E+03 4.56808E+04-2.59756E+01-2.07638E-08-8.29873E-06
 -1       267 2.25717E+04 1.06112E+04 3.22881E+04 2.99723E+01-4.10473E-08-1.63963E-05
 -1       268-3.02684E+03-1.50290E+03 1.20012E+04-3.81886E+00-3.29605E-08-1.31525E-05
 -1       269 3.57379E+03 1.79859E+03 7.80069E+03 4.44852E+00-2.47792E-08-9.90985E-06
 -1       270-5.36430E+02-2.95525E+02 3.76550E+03-6.03672E-01-1.83203E-08-7.30300E-06
 -1       271-1.91280E+06-2.37682E+05-1.47078E+05-7.43898E+05 8.45830E-10 1.14233E-09
 -1       272-1.95252E+06-3.58183E+05-9.45784E+04-7.57826E+05 1.09378E-09-2.35650E-09
 -1       273-1.94045E+06-2.74334E+05-3.47393E+04-7.37391E+05 5.75710E-10-1.30422E-09
 -1       274-1.92036E+06-3.13120E+05-1.94644E+04-7.67737E+05-2.74667E-10 2.47019E-09
 -1       275-1.94455E+06-2.77860E+05-8.08112E+03-7.35959E+05-1.22964E-09-2.93494E-09
 -1       276-1.91556E+06-3.08934E+05-4.30271E+03-7.70027E+05 4.54747E-10 1.73600E-09
 -1       277-1.94540E+06-2.77905E+05-2.10396E+03-7.35431E+05-6.62340E-10 3.54066E-09
 -1       278-1.91473E+06-3.08804E+05-1.53158E+03-7.70660E+05 1.52983E-09 9.95328E-10
 -1       279-1.94545E+06-2.77897E+05-1.64245E+03-7.35401E+05 2.05773E-11 3.88195E-09
 -1       280-1.91529E+06-3.08809E+05-3.00973E+03-7.70176E+05-7.32143E-10 5.33873E-10
 -1       281-1.94478E+06-2.77968E+05-5.49657E+03-7.35857E+05 1.75078E-10-2.51111E-09
 -1       282-1.91879E+06-3.11317E+05-1.31355E+04-7.68237E+05-2.13277E-10 1.97042E-09
 -1       283-1.94179E+06-2.75840E+05-2.34286E+04-7.37076E+05 1.15324E-09 4.68208E-09
 -1       284-1.94095E+06-3.41099E+05-6.37137E+04-7.60832E+05 8.16271E-10-2.89219E-10
 -1       285-1.92280E+06-2.51542E+05-9.91379E+04-7.41865E+05 2.42835E-10-8.14907E-10
 -1       301 7.33941E+03-4.64649E+03 5.73883E+04-1.42744E+04-4.60204E-10 3.47202E-09
 -1       302 7.87886E+03 9.92626E+03 4.14461E+04-2.09903E+04 6.96673E-10 9.58210E-10
 -1       303 3.29866E+02 5.07513E+02 3.81583E+04-1.42958E+04-5.25688E-10 1.16552E-09
 -1       304 1.48776E+04 1.63791E+04 6.41945E+04-2.09351E+04 4.07454E-10-8.45830E-11
 -1       305 1.47494E+04-1.10693E+04 1.07723E+05-1.42993E+04-5.12955E-10 3.63138E-09
 -1       306-2.06387E+06-2.36049E+05-1.57196E+05-8.03077E+05 1.00772E-09-4.96220E-09
 -1       307-2.13866E+06-3.75291E+05-1.07206E+05-7.83204E+05 1.54387E-09-1.44064E-09
 -1       308-2.09865E+06-2.85772E+05-3.69785E+04-7.89359E+05 3.46517E-10 1.29512E-09
 -1       309-2.09630E+06-3.19522E+05-2.24330E+04-8.01777E+05-9.04919E-10 1.80034E-09
 -1       310-2.10606E+06-2.90861E+05-8.67611E+03-7.84856E+05-2.78357E-10-6.80757E-10
 -1       311-2.08691E+06-3.14525E+05-5.04266E+03-8.08150E+05 8.97415E-10-2.93426E-10
 -1       312-2.10808E+06-2.90592E+05-2.46348E+03-7.83076E+05-3.69766E-10 1.09583E-09
 -1       313-2.08515E+06-3.14534E+05-2.22286E+03-8.09660E+05-1.47684E-09 4.73112E-09
 -1       314-2.10784E+06-2.90821E+05-2.66816E+03-7.83367E+05-1.64388E-09-3.10445E-09
 -1       315-2.08792E+06-3.13794E+05-5.63898E+03-8.07020E+05-1.14164E-09-2.60923E-09
 -1       316-2.10528E+06-2.91379E+05-9.80060E+03-7.85680E+05 1.82536E-09-8.25366E-10
 -1       317-2.09880E+06-3.19261E+05-2.53869E+04-7.99588E+05-1.34122E-10-5.44696E-09
 -1       318-2.09693E+06-2.85550E+05-4.18631E+04-7.90700E+05-1.83900E-09 4.49108E-09
 -1       319-2.14642E+06-3.82832E+05-1.21403E+05-7.79079E+05-2.14413E-09-4.11819E-09
 -1       320-2.05785E+06-2.28872E+05-1.77969E+05-8.05807E+05 4.55475E-09-2.82307E-09
 -1       336 2.93900E+02-3.90962E+05-2.06942E+03 2.08189E+02-3.41822E-09-1.67984E-09
 -1       337-7.41812E+02-3.91563E+05-2.26810E+03-5.87321E+02-6.48146E-09 7.39919E-09
 -1       338 1.94846E+02-3.91024E+05-2.84217E+03 3.78327E+02-4.56430E-09 4.36376E-09
 -1       339-2.93795E+03-3.92904E+05-6.22957E+03-9.25184E+02-8.33006E-09 6.96627E-09
 -1       340 2.01034E+03-3.89632E+05-9.58957E+03 5.44322E+02-5.29644E-09 2.99679E-09
 -1       406 5.41228E+01 1.31160E+05 2.94348E+02-4.32052E+01-5.19776E-10-4.51632E-09
 -1       407 9.00723E+01 1.31212E+05 5.10223E+02 4.38068E+01-3.28328E-10 2.37014E-09
 -1       408 2.38870E+02 1.31130E+05 9.64935E+02-5.50654E-01-6.45116E-10-6.68933E-10
 -1       409 1.00869E+03 1.31513E+05 2.14465E+03-4.13492E+01-4.96698E-10-3.51895E-09
 -1       410 2.91408E+03 1.30858E+05 4.36256E+03 4.28273E+01-8.25366E-10-3.28464E-09
 -1       521-3.88765E+06-4.47695E+05-2.90904E+05-1.51035E+06 2.70666E-09-7.74162E-09
 -1       522-4.02700E+06-6.99861E+05-1.97741E+05-1.47275E+06-7.76708E-10-7.13044E-10
 -1       523-3.95238E+06-5.37706E+05-6.83937E+04-1.48459E+06 1.26602E-09-7.56700E-10
 -1       524-3.94823E+06-5.98663E+05-4.12839E+04-1.50752E+06-1.51942E-09 2.08092E-09
 -1       525-3.96592E+06-5.46691E+05-1.59842E+04-1.47634E+06-4.88285E-10 3.81078E-10
 -1       526-3.93212E+06-5.88661E+05-9.22038E+03-1.51781E+06 1.36215E-09-5.41149E-10
 -1       527-3.96849E+06-5.47330E+05-4.42575E+03-1.47446E+06 2.19052E-09 1.79364E-09
 -1       528-3.93216E+06-5.85196E+05-3.79482E+03-1.51644E+06-1.36424E-10-2.80778E-10
 -1       529-3.96583E+06-5.50144E+05-4.44458E+03-1.47768E+06-1.53022E-10-1.72940E-09
 -1       530-3.94186E+06-5.78421E+05-9.08481E+03-1.50583E+06 6.51426E-11 1.49612E-10
 -1       531-3.95866E+06-5.54244E+05-1.59368E+04-1.48495E+06 1.39306E-09 1.48793E-09
 -1       532-3.96506E+06-5.81213E+05-4.09091E+04-1.48755E+06-1.25206E-09-4.50882E-09
 -1       533-3.94265E+06-5.47708E+05-6.78865E+04-1.49583E+06 2.74940E-09-4.42742E-09
 -1       534-4.04563E+06-6.79775E+05-1.96242E+05-1.45129E+06 6.93944E-10 1.06229E-09
 -1       535-3.87880E+06-4.57722E+05-2.88599E+05-1.52061E+06-5.97356E-09 3.11411E-09
 -1       536-4.16107E+03-1.10704E+04 2.55210E+04 2.66501E+02-9.09267E-10 1.43700E-10
 -1       537 7.50263E+03 1.28103E+04 1.81572E+04-1.01040E+03-3.95495E-09 1.32445E-09
 -1       538 1.96679E+02-1.73485E+03 6.58778E+03 2.43032E+02-3.19034E-11 6.72571E-10
 -1       539 2.37463E+03 2.00352E+03 4.19048E+03-9.82753E+02 2.04808E-09 2.16687E-10
 -1       540 9.62476E+02-2.70035E+02 1.66627E+03 2.38862E+02-2.03762E-10 2.00930E-09
 -1       541 1.44531E+03 3.09483E+02 9.87624E+02-9.76656E+02-1.17090E-09 3.63187E-10
 -1       542 1.12335E+03-4.02315E+01 4.02112E+02 2.36931E+02-2.06892E-10-2.15468E-09
 -1       543 1.23538E+03 3.94692E+01 2.03020E+02-9.73703E+02 1.58025E-11-4.67915E-09
 -1       544 1.17073E+03 1.00246E+00 3.75176E+01 2.35909E+02 1.11466E-10-3.08304E-09
 -1       545 1.15871E+03-4.31953E+01-9.91201E+01-9.72457E+02-4.23791E-10-1.30444E-09
 -1       546 1.19926E+03 4.29289E+01-2.42845E+02 2.35685E+02 4.04086E-11-2.62551E-09
 -1       547 1.02874E+03-3.19532E+02-6.48936E+02-9.72759E+02-9.12257E-10-3.17515E-09
 -1       548 1.30086E+03 2.77028E+02-1.05442E+03 2.36211E+02-1.20547E-09 3.66924E-10
 -1       549 2.75243E+02-2.04289E+03-2.87990E+03-9.74056E+02-5.59815E-10 2.91988E-09
 -1       550 1.95387E+03 1.76416E+03-4.09909E+03 2.36982E+02-2.09539E-11 3.26759E-09
 -1       551 2.97861E+03-2.06461E+05 1.16053E+04-3.54340E+05-1.52868E-08 1.98634E-09
 -1       552 5.83895E+03-2.05796E+05 1.48398E+04-5.04117E+05-1.08666E-08 7.15409E-09
 -1       553 3.57777E+03-2.08514E+05 2.31336E+04-3.53230E+05-1.85173E-08 2.86127E-09
 -1       554 1.69033E+04-1.97806E+05 4.91089E+04-5.04597E+05-1.17288E-08 2.03136E-09
 -1       555 1.78836E+04-2.17988E+05 8.83661E+04-3.53738E+05-1.83099E-08-8.51287E-10
 -1       556 2.80188E+04-6.54680E+04 2.29915E+04-8.83159E+04-3.50337E-09-1.20781E-09
 -1       557 5.46649E+04-8.79931E+04 1.20059E+04-1.10224E+05 2.32831E-10 1.81194E-09
 -1       558 2.84930E+04-6.88541E+04 4.95468E+03-8.53660E+04-2.42289E-09 2.63299E-09
 -1       559 5.17066E+04-9.13459E+04 2.48123E+03-1.11373E+05 5.36966E-09 8.43920E-09
 -1       560 2.81388E+04-6.86000E+04 1.07791E+03-8.55504E+04 7.60338E-10 2.34650E-10
 -1       561 5.09963E+04-9.12584E+04 5.49011E+02-1.11812E+05-1.30967E-10-1.73031E-10
 -1       562 2.78200E+04-6.83708E+04 2.30437E+02-8.57851E+04-1.45519E-10-8.60609E-11
 -1       563 5.06039E+04-9.10929E+04 1.27124E+02-1.12062E+05-5.40240E-10-4.48733E-09
 -1       564 2.76206E+04-6.82376E+04 4.80105E+01-8.59292E+04 1.90448E-09 2.09184E-11
 -1       565 5.04030E+04-9.10091E+04 2.00202E+01-1.12187E+05 1.56979E-09 9.21773E-10
 -1       566 2.75537E+04-6.81902E+04-1.79906E+01-8.59797E+04-9.24501E-10 1.00499E-09
 -1       567 5.03706E+04-9.09927E+04-6.81108E+01-1.12174E+05 4.28668E-09 3.85626E-09
 -1       568 2.76366E+04-6.82466E+04-1.69623E+02-8.59524E+04-5.54792E-10 1.42154E-09
 -1       569 5.01676E+04-9.08810E+04-4.02178E+02-1.11735E+05-1.98270E-09 5.58248E-09
 -1       570 2.81508E+04-6.87668E+04-8.16157E+02-8.60443E+04 3.64162E-09 8.73615E-09
 -1       571 9.42215E+04 3.41616E+03 5.05884E+03-2.36292E+04 7.61247E-10 1.97929E-09
 -1       572 9.49759E+04 1.18847E+03 2.47825E+03-2.59019E+04 5.42741E-10-8.42874E-10
 -1       573 9.45282E+04 2.83381E+02 1.10092E+03-2.35677E+04 6.34373E-10 3.68232E-09
 -1       574 9.46188E+04 9.14000E+01 5.51420E+02-2.59711E+04-2.84672E-10 2.32399E-09
 -1       575 9.45645E+04 1.17127E+01 2.59836E+02-2.35595E+04-1.50646E-09-8.72660E-10
 -1       576 9.45711E+04 2.13400E+00 1.32139E+02-2.59804E+04-1.53274E-09-7.05086E-10
 -1       577 9.45698E+04-2.93740E+00 6.49972E+01-2.35584E+04-1.14449E-09 5.44878E-09
 -1       578 9.45653E+04-1.77397E+00 3.52388E+01-2.59815E+04-6.70980E-10 9.16771E-10
 -1       579 9.45732E+04-2.62091E+00 2.13418E+01-2.35584E+04 2.50111E-10-6.63931E-10
 -1       580 9.45689E+04-2.60923E+00 1.94763E+01-2.59800E+04 3.80169E-10 3.17641E-09
 -1       581 9.45783E+04-3.43969E+00 2.61725E+01-2.35599E+04 5.54337E-10 8.21501E-10
 -1       582 9.45800E+04 1.62061E+00 4.94078E+01-2.59658E+04 4.59750E-10 5.06589E-10
 -1       583 9.45830E+04 1.56186E+01 9.50156E+01-2.35726E+04 5.50244E-11 2.52885E-09
 -1       584 9.46206E+04 9.09283E+01 2.12630E+02-2.58604E+04-1.20508E-09-3.18664E-10
 -1       585 9.45661E+04 2.79805E+02 4.32376E+02-2.36654E+04-1.81899E-10-6.79393E-10
 -1       586-1.18398E+03 3.06523E+04-1.55422E+03-8.05561E+04 2.62162E-10 2.97860E-11
 -1       587-2.71243E+02 3.04469E+04-1.90402E+02-8.86456E+04 4.40195E-10 4.58130E-10
 -1       588 3.05766E+02 3.04857E+04 1.06615E+03-8.05071E+04 2.47383E-10 5.50017E-10
 -1       589 1.58734E+03 3.10657E+04 3.12783E+03-8.85721E+04 3.67436E-10-1.52636E-09
 -1       590 4.59089E+03 3.00828E+04 6.70827E+03-8.06298E+04 1.96906E-10-4.83851E-10
 -1       591-2.04464E+04-5.87279E+03-6.83702E+03-1.06228E+04-1.61378E-10-1.81171E-09
 -1       592-2.10861E+04-7.55267E+03-3.70322E+03-1.24066E+04 9.99535E-10 2.83302E-09
 -1       593-2.11374E+04-5.36915E+03-1.54167E+03-1.11162E+04-3.83125E-10 2.97860E-11
 -1       594-2.01329E+04-6.55907E+03-7.68927E+02-1.24536E+04 1.95882E-10-2.04801E-09
 -1       595-2.11901E+04-5.36702E+03-3.53372E+02-1.11388E+04-1.06468E-09-1.90059E-09
 -1       596-2.00682E+04-6.51361E+03-1.80146E+02-1.24467E+04-1.43308E-09-2.02304E-09
 -1       597-2.11967E+04-5.37145E+03-9.91702E+01-1.11396E+04-7.21556E-11-1.02597E-09
 -1       598-2.00621E+04-6.51186E+03-8.16918E+01-1.24449E+04 3.63841E-10-9.79668E-10
 -1       599-2.11964E+04-5.37138E+03-1.06776E+02-1.11395E+04-2.66027E-11 1.71156E-10
 -1       600-2.00692E+04-6.51411E+03-2.00345E+02-1.24469E+04-4.13252E-11-3.69516E-09
 -1       601-2.11883E+04-5.36640E+03-3.96191E+02-1.11383E+04-2.50111E-11-9.34733E-10
 -1       602-2.01421E+04-6.56504E+03-8.64118E+02-1.24540E+04 2.19467E-09 3.18323E-09
 -1       603-2.11286E+04-5.36946E+03-1.73309E+03-1.11132E+04 5.48084E-10 2.76498E-09
 -1       604-2.12175E+04-7.67815E+03-4.16341E+03-1.23962E+04-1.23237E-10-1.52284E-09
 -1       605-2.03473E+04-5.93894E+03-7.68647E+03-1.05624E+04 1.05388E-09 3.84262E-09
 -1       606 1.34667E+04-4.54308E+03-8.18595E+03 1.31876E+04-1.90039E-09 6.88033E-10
 -1       607 1.20651E+04-1.46525E+03-4.07639E+03 1.48038E+04-9.31323E-10 5.96287E-10
 -1       608 1.28660E+04-2.46041E+02-1.82486E+03 1.30823E+04 5.36602E-10-2.98996E-11
 -1       609 1.27097E+04-6.61848E+01-9.21933E+02 1.49203E+04-1.26283E-09 3.30397E-09
 -1       610 1.27984E+04 9.66524E+00-4.39949E+02 1.30706E+04-2.27010E-09 9.21204E-10
 -1       611 1.27709E+04 1.26315E+01-2.22059E+02 1.49330E+04-3.86785E-09-3.06898E-09
 -1       612 1.27838E+04 1.38488E+01-1.06000E+02 1.30694E+04-1.83627E-09-4.25155E-09
 -1       613 1.27749E+04 1.37860E+01-4.84557E+01 1.49346E+04-2.77032E-09-4.84067E-09
 -1       614 1.27770E+04 1.17331E+01-1.34529E+01 1.30690E+04-2.48292E-10-2.23918E-09
 -1       615 1.27732E+04 1.41558E+01 1.49048E+01 1.49349E+04 2.46700E-09 4.85659E-09
 -1       616 1.27719E+04 1.25909E+01 4.97472E+01 1.30691E+04-2.42426E-09-2.78078E-10
 -1       617 1.27791E+04 2.50736E+01 1.15285E+02 1.49347E+04 5.32054E-11-3.69823E-09
 -1       618 1.27615E+04 4.60663E+01 2.33139E+02 1.30692E+04 9.73159E-11-2.86514E-09
 -1       619 1.28613E+04 2.05626E+02 5.23973E+02 1.49344E+04-9.27685E-11-5.64796E-10
 -1       620 1.26839E+04 5.99554E+02 1.05335E+03 1.30689E+04 1.73321E-09 3.20256E-09
 -1       621 1.62001E+02 1.02567E+05 1.39960E+03 3.25614E+03-1.49456E-10 4.84192E-10
 -1       622 1.85538E+02 1.02913E+05 1.19271E+03 4.75089E+03-7.74492E-11-2.35775E-09
 -1       623 8.35514E+00 1.02666E+05 1.37802E+03 3.24071E+03-1.79853E-10 1.53244E-09
 -1       624 6.25882E+02 1.03318E+05 2.62237E+03 4.76612E+03-5.83498E-11-3.16766E-09
 -1       625 6.28146E+02 1.02161E+05 4.56150E+03 3.24102E+03-2.09184E-11-4.60733E-09
 -1       626 8.46557E+04 2.34772E+04 1.67481E+03 4.58067E+04-1.40494E-09 2.86400E-09
 -1       627 8.34919E+04 2.43372E+04 8.06654E+02 4.76610E+04-1.86606E-09-1.53528E-09
 -1       628 8.47238E+04 2.26824E+04 3.41025E+02 4.60603E+04-1.85992E-10 2.00168E-09
 -1       629 8.32537E+04 2.41463E+04 1.66977E+02 4.77754E+04 1.30581E-09 2.13637E-09
 -1       630 8.47315E+04 2.26428E+04 7.73919E+01 4.60691E+04-5.85396E-09 1.75947E-09
 -1       631 8.32276E+04 2.41408E+04 4.15444E+01 4.77791E+04-4.60136E-09 2.95108E-08
 -1       632 8.47300E+04 2.26443E+04 2.75664E+01 4.60669E+04-8.86712E-09-1.34176E-09
 -1       633 8.32237E+04 2.41424E+04 3.07999E+01 4.77775E+04-9.78162E-10 5.12887E-09
 -1       634 8.47269E+04 2.26438E+04 5.00163E+01 4.60657E+04 8.68909E-09-9.75945E-10
 -1       635 8.32268E+04 2.41428E+04 1.01473E+02 4.77781E+04 1.45727E-08-1.51369E-08
 -1       636 8.47219E+04 2.26432E+04 2.05073E+02 4.60645E+04 7.87713E-09-3.36991E-09
 -1       637 8.32685E+04 2.41755E+04 4.50779E+02 4.77760E+04 1.29203E-09 2.01942E-09
 -1       638 8.47036E+04 2.27441E+04 9.26598E+02 4.60178E+04 1.29552E-09 3.17777E-09
 -1       639 8.37519E+04 2.48539E+04 2.19213E+03 4.76311E+04-4.10125E-10-1.46542E-09
 -1       640 8.46367E+04 2.47631E+04 4.54950E+03 4.51606E+04-2.59433E-10 2.88992E-10
 -1       656 2.29501E+04-5.80962E+05-5.54182E+04-4.98562E+02-1.89175E-10-8.61476E-10
 -1       657-3.03239E+04-6.06000E+05-4.58306E+04 3.80914E+03 5.16593E-10-3.12639E-09
 -1       658 7.27551E+03-5.88109E+05-2.81267E+04-7.81159E+02 3.93072E-10 2.16515E-09
 -1       659-3.25087E+04-6.07026E+05-4.86998E+04 3.99457E+03-3.74257E-10 3.29205E-10
 -1       660 2.51287E+04-5.79937E+05-6.03604E+04-6.83983E+02 4.58385E-10-1.14004E-09
 -1       661 8.26064E+04 8.96143E+03 7.91680E+03 3.22350E+04 1.42745E-09-2.54659E-11
 -1       662 8.66987E+04 1.52017E+04 5.33456E+03 3.08929E+04 7.62043E-10-4.36199E-09
 -1       663 8.41540E+04 1.15081E+04 1.86608E+03 3.17917E+04 3.73916E-10 1.35333E-09
 -1       664 8.49104E+04 1.22178E+04 1.11557E+03 3.14289E+04 2.03983E-09 9.62928E-10
 -1       665 8.43829E+04 1.18616E+04 4.40112E+02 3.17305E+04-1.61694E-09 1.50679E-09
 -1       666 8.46444E+04 1.18088E+04 2.56552E+02 3.15050E+04-3.53501E-09 3.61805E-09
 -1       667 8.44186E+04 1.19066E+04 1.35311E+02 3.17196E+04-9.32459E-10 2.67736E-09
 -1       668 8.46088E+04 1.17698E+04 1.35422E+02 3.15190E+04 2.03661E-09 1.50596E-09
 -1       669 8.44183E+04 1.18996E+04 1.81513E+02 3.17169E+04 1.23747E-09 2.32123E-09
 -1       670 8.46598E+04 1.18604E+04 3.93338E+02 3.15126E+04 2.71811E-09-1.45231E-09
 -1       671 8.43678E+04 1.18178E+04 6.97905E+02 3.17253E+04-1.28011E-09-5.32793E-10
 -1       672 8.50717E+04 1.25342E+04 1.78507E+03 3.14085E+04-1.21667E-09-1.86674E-09
 -1       673 8.40087E+04 1.12428E+04 2.99138E+03 3.18145E+04-1.86725E-09-4.93174E-10
 -1       674 8.79245E+04 1.73354E+04 8.55508E+03 3.05661E+04-7.88134E-11-2.17824E-09
 -1       675 8.15337E+04 7.15099E+03 1.26979E+04 3.25171E+04 5.43878E-10-1.00181E-09
 -1       676 9.35285E+00-1.11598E+05-4.34530E+02 1.11589E+01-5.53925E-10 1.23275E-10
 -1       677-1.15345E+02-1.11703E+05-7.95200E+02-2.23166E+01-1.20478E-09-1.00318E-09
 -1       678 7.70038E+01-1.11523E+05-1.40568E+03 1.11501E+01-5.69116E-10 1.21599E-09
 -1       679-1.40581E+03-1.12551E+05-3.33901E+03-2.22739E+01-8.68511E-10-2.22744E-09
 -1       680 8.38892E+02-1.10749E+05-5.38143E+03 1.09878E+01-7.97399E-10 4.72579E-10
 -1       771-1.20096E+06-2.08274E+05-2.90874E+04-4.96862E+05-4.73665E-09-3.79077E-09
 -1       772-1.19331E+06-2.24802E+05-1.56586E+04-5.15264E+05-3.90537E-09 9.64974E-10
 -1       773-1.20469E+06-2.05394E+05-6.66736E+03-4.98490E+05-1.92449E-09 1.52977E-09
 -1       774-1.18901E+06-2.21226E+05-3.27111E+03-5.16617E+05 4.03816E-09-3.20142E-10
 -1       775-1.20534E+06-2.05024E+05-1.59353E+03-4.98582E+05-1.22600E-09 4.55657E-10
 -1       776-1.18884E+06-2.21169E+05-7.50793E+02-5.17181E+05-2.61934E-09 9.93168E-10
 -1       777-1.20573E+06-2.04763E+05-4.27302E+02-4.98614E+05 6.87578E-10 7.47605E-10
 -1       778-1.18892E+06-2.21239E+05-2.01341E+02-5.17642E+05 1.42609E-09 1.80080E-09
 -1       779-1.20603E+06-2.04539E+05-1.78432E+02-4.98639E+05-1.61162E-09-1.53841E-09
 -1       780-1.18902E+06-2.21305E+05-1.56621E+02-5.18015E+05-9.94987E-10-2.50111E-11
 -1       781-1.20624E+06-2.04356E+05-2.73649E+02-4.98655E+05-4.52201E-09-7.37145E-10
 -1       782-1.18913E+06-2.21382E+05-5.21800E+02-5.18290E+05-5.33964E-09-1.55967E-09
 -1       783-1.20636E+06-2.04240E+05-1.04149E+03-4.98654E+05-9.03128E-10-2.10036E-09
 -1       784-1.18980E+06-2.22080E+05-2.47692E+03-5.18431E+05-2.63890E-09-5.38876E-11
 -1       785-1.20598E+06-2.04510E+05-4.57730E+03-4.98324E+05-5.06679E-09 6.36646E-10
 -1       786 8.70294E+04-4.65546E+03 1.07697E+04 2.11311E+00 4.24506E-08-8.98581E-10
 -1       787 9.16962E+04 5.38953E+03 7.61954E+03-8.63916E+00 8.37640E-08 2.08729E-09
 -1       788 8.88299E+04-7.29791E+02 2.78744E+03 2.61052E+00 1.35188E-07-4.60886E-10
 -1       789 8.95987E+04 8.44409E+02 1.75137E+03-1.01969E+01 1.86580E-07 5.21408E-09
 -1       790 8.91271E+04-1.14004E+02 7.12604E+02 3.67089E+00 2.68193E-07-3.52617E-09
 -1       791 8.92520E+04 1.32456E+02 4.18384E+02-1.30296E+01 3.49858E-07 2.10289E-09
 -1       792 8.91768E+04-1.83718E+01 1.90933E+02 5.44329E+00 5.02018E-07-6.93339E-09
 -1       793 8.91959E+04 2.57965E+01 1.25094E+02-1.75459E+01 6.55131E-07 1.85130E-09
 -1       794 8.91831E+04-7.41432E+00 9.26322E+01 8.18720E+00 9.62148E-07-9.57367E-09
 -1       795 8.92014E+04 3.82445E+01 1.33947E+02-2.43984E+01 1.26755E-06 3.23866E-09
 -1       796 8.91713E+04-3.08111E+01 2.00623E+02 1.22960E+01 6.33741E-07-4.30629E-09
 -1       797 8.92924E+04 2.25851E+02 4.73012E+02-3.45706E+01 2.09552E-09 4.29355E-09
 -1       798 8.90921E+04-1.94882E+02 7.46667E+02 1.83595E+01 6.86717E-11 4.04924E-10
 -1       799 8.98522E+04 1.43890E+03 2.03548E+03-4.96217E+01-2.99591E-10 1.44709E-09
 -1       800 8.86113E+04-1.24288E+03 2.87544E+03 2.73472E+01-6.85123E-11 2.72678E-09
 -1       801-4.66241E+03 1.04678E+04 8.47075E+03 9.21181E+03 5.11568E-09-1.94439E-09
 -1       802 1.29329E+04 4.15602E+04 2.47772E+04-3.79435E+04 1.36936E-08-1.21997E-09
 -1       803-8.01767E+03 2.04247E+04 3.26517E+04 8.85904E+03 1.07830E-08 8.49906E-09
 -1       804 6.29762E+04 6.74220E+04 9.02636E+04-3.82724E+04 1.27566E-08 1.06151E-08
 -1       805-5.47097E+04-1.53032E+04 1.19573E+05 9.54019E+03 4.52565E-09 1.22714E-08
 -1       806-1.02741E+05-2.19941E+04-8.72382E+03-4.27653E+04 2.08956E-10 3.41515E-10
 -1       807-1.03256E+05-2.07431E+04-4.28579E+03-4.50766E+04 7.65510E-10-2.83217E-09
 -1       808-1.02989E+05-1.88425E+04-1.81810E+03-4.42454E+04 2.34763E-10-1.77975E-09
 -1       809-1.02342E+05-1.95530E+04-8.88839E+02-4.52002E+04-9.04663E-10 2.73565E-09
 -1       810-1.03028E+05-1.87310E+04-4.06977E+02-4.43109E+04 5.06702E-10-1.51363E-09
 -1       811-1.02272E+05-1.95058E+04-2.01847E+02-4.51902E+04-2.49884E-10 8.27072E-10
 -1       812-1.03035E+05-1.87389E+04-1.00675E+02-4.43110E+04 2.11458E-10-1.51704E-09
 -1       813-1.02264E+05-1.95069E+04-6.35285E+01-4.51855E+04 8.63679E-10-4.59227E-09
 -1       814-1.03035E+05-1.87415E+04-5.94831E+01-4.43101E+04-5.16138E-10-2.06683E-09
 -1       815-1.02266E+05-1.95077E+04-9.32293E+01-4.51848E+04-1.06991E-09 3.22916E-09
 -1       816-1.03030E+05-1.87402E+04-1.74578E+02-4.43093E+04-6.85532E-10 3.17391E-09
 -1       817-1.02296E+05-1.95242E+04-3.74582E+02-4.51827E+04 2.20325E-10 4.52201E-09
 -1       818-1.03009E+05-1.87920E+04-7.63251E+02-4.42850E+04 3.45790E-09 7.73207E-09
 -1       819-1.02719E+05-1.99822E+04-1.79680E+03-4.50819E+04 2.01226E-10-1.82433E-09
 -1       820-1.02864E+05-2.01502E+04-3.65654E+03-4.37065E+04 1.54159E-10 1.28540E-09
 -1       821-1.32674E+05 7.36649E+03-1.70387E+04-7.46556E-01-3.03925E-10-2.17187E-09
 -1       822-1.40057E+05-8.52795E+03-1.20566E+04-9.44780E+01-1.36372E-09-5.31145E-10
 -1       823-1.35523E+05 1.15480E+03-4.41308E+03-2.46249E+01 6.82109E-10 2.50611E-09
 -1       824-1.36738E+05-1.33663E+03-2.77730E+03-4.33324E+01-1.28926E-09-7.63862E-10
 -1       825-1.35993E+05 1.80831E+02-1.14081E+03-5.18939E+01-1.67212E-09 4.91298E-10
 -1       826-1.36192E+05-2.13273E+02-6.90225E+02 8.78913E+00-3.07733E-09 5.08464E-10
 -1       827-1.36069E+05 3.22665E+01-3.55936E+02-7.67475E+01-2.80316E-09-2.02149E-10
 -1       828-1.36116E+05-6.52077E+01-3.16175E+02 5.09156E+01 2.95109E-08-3.37685E-10
 -1       829-1.36069E+05 3.28796E+01-3.61316E+02-9.40211E+01 9.47220E-06-8.97280E-09
 -1       830-1.36196E+05-2.18490E+02-7.06306E+02 7.43014E+01 1.88537E-05-4.14912E-09
 -1       831-1.35990E+05 1.85456E+02-1.16908E+03-1.00134E+02-1.25192E-06 7.51470E-10
 -1       832-1.36757E+05-1.37098E+03-2.84869E+03 7.42636E+01-2.13493E-05 9.20221E-09
 -1       833-1.35508E+05 1.18453E+03-4.52639E+03-9.39830E+01-1.07233E-05 1.19505E-08
 -1       834-1.40160E+05-8.74752E+03-1.23672E+04 5.16683E+01-3.48363E-08 6.62317E-09
 -1       835-1.32587E+05 7.55618E+03-1.74775E+04-7.75358E+01 1.88960E-09 1.16961E-09
 -1       836-4.42815E+02 1.25857E+05 7.57661E+03-1.10163E+04 9.45192E-10 3.36308E-09
 -1       837 1.66200E+03 1.28206E+05 6.46542E+03-2.21461E+04 1.37493E-09 6.34623E-09
 -1       838-1.65927E+02 1.26514E+05 6.66442E+03-1.09773E+04 1.22782E-09 4.73494E-09
 -1       839 4.26997E+03 1.30156E+05 1.26832E+04-2.21609E+04 1.60071E-09-2.03215E-10
 -1       840-1.28931E+03 1.23898E+05 2.02560E+04-1.10010E+04 1.16506E-09 6.85532E-10
 -1       856-4.17334E+04 3.56163E+03-9.38460E+03-1.96622E+02-1.95035E-09-2.61707E-09
 -1       857-4.56111E+04-4.17820E+03-6.46150E+03 2.15928E+03-1.22674E-09-1.64800E-09
 -1       858-4.32654E+04 4.99273E+02-2.43553E+03-2.02410E+02-1.23586E-09-6.59838E-10
 -1       859-4.38507E+04-5.81863E+02-1.47121E+03 2.16825E+03 6.83571E-10 9.16657E-10
 -1       860-4.34947E+04 6.96024E+01-6.18588E+02-2.05635E+02 3.27020E-10 1.14062E-09
 -1       861-4.35861E+04-7.85466E+01-3.44717E+02 2.17259E+03-4.40687E-09-1.77458E-10
 -1       862-4.35304E+04 9.38165E+00-1.52078E+02-2.06754E+02 2.50710E-09-1.02583E-09
 -1       863-4.35439E+04-7.59742E+00-7.53360E+01 2.17310E+03 6.40956E-09 1.74248E-10
 -1       864-4.35370E+04 1.74078E-01-2.38907E+01-2.06143E+02 3.04097E-09-6.74977E-10
 -1       865-4.35322E+04 8.67636E+00 1.33504E+01 2.16989E+03 3.34919E-09 8.59767E-10
 -1       866-4.35417E+04-6.88556E+00 5.02104E+01-2.03543E+02-3.52074E-10-3.36565E-09
 -1       867-4.35039E+04 5.84115E+01 1.37900E+02 2.16287E+03 4.18581E-10-1.59340E-09
 -1       868-4.35646E+04-4.88365E+01 2.33346E+02-1.99131E+02 1.70485E-09 2.46260E-10
 -1       869-4.33306E+04 4.06734E+02 6.25578E+02 2.15056E+03-1.92379E-09-3.00935E-09
 -1       870-4.37138E+04-3.45982E+02 9.08351E+02-1.91227E+02 9.76286E-10-1.04876E-09
 -1       871-1.92317E+03-4.02440E+03-6.30248E+03 4.13342E+04 1.39562E-09-4.36148E-09
 -1       872-8.29869E+02-5.43075E+03-2.56675E+03 5.35856E+04 1.84127E-09-9.85426E-09
 -1       873-9.87731E+00-4.76197E+03 3.76406E+02 4.12421E+04 5.98448E-10-3.42681E-09
 -1       874 9.85193E+02-3.84478E+03 3.59823E+03 5.36052E+04 2.67755E-09-2.69722E-10
 -1       875 2.32193E+03-5.62320E+03 7.97569E+03 4.13169E+04 7.73070E-10-1.64664E-09
 -1       876 1.03560E+05 1.78294E+04 5.55308E+03 4.19943E+04-1.42592E-09 2.22872E-09
 -1       877 1.03876E+05 1.90491E+04 2.96536E+03 4.36390E+04-4.21960E-09-1.34310E-09
 -1       878 1.04080E+05 1.72139E+04 1.24243E+03 4.24500E+04-5.19549E-11 7.79892E-10
 -1       879 1.03121E+05 1.82972E+04 6.18834E+02 4.36798E+04 2.08729E-10 2.82424E-09
 -1       880 1.04119E+05 1.72063E+04 2.88143E+02 4.24686E+04-4.47926E-10 3.84148E-09
 -1       881 1.03071E+05 1.82654E+04 1.53397E+02 4.36731E+04-1.40687E-10 4.21494E-10
 -1       882 1.04123E+05 1.72104E+04 9.74089E+01 4.24691E+04-1.68251E-09 4.88217E-09
 -1       883 1.03067E+05 1.82641E+04 1.03492E+02 4.36714E+04-9.34193E-10 8.23968E-09
 -1       884 1.04121E+05 1.72090E+04 1.63566E+02 4.24692E+04 3.32591E-10 6.26292E-09
 -1       885 1.03080E+05 1.82664E+04 3.28199E+02 4.36757E+04 4.75787E-10 1.18413E-09
 -1       886 1.04108E+05 1.71994E+04 6.61201E+02 4.24679E+04-2.91095E-10 1.97275E-09
 -1       887 1.03196E+05 1.83425E+04 1.44426E+03 4.36922E+04-4.47056E-09 4.23006E-09
 -1       888 1.04017E+05 1.72158E+04 2.91030E+03 4.24217E+04 1.77538E-09 6.11385E-09
 -1       889 1.04931E+05 2.01431E+04 6.95282E+03 4.36364E+04 1.67631E-09-2.59479E-09
 -1       890 1.02830E+05 1.86252E+04 1.30217E+04 4.13125E+04 3.09831E-09-5.27507E-10
 -1       891-6.07406E+01-5.89079E+04-6.92667E+02 1.12040E+04 1.98497E-10 1.53534E-09
 -1       892-1.06052E+02-5.90771E+04-7.54877E+02 1.69599E+04 2.52953E-10-1.02733E-09
 -1       893-1.27708E+01-5.89320E+04-1.07954E+03 1.12059E+04 5.29781E-10 9.26775E-10
 -1       894-5.81573E+02-5.94983E+04-2.24298E+03 1.69003E+04 3.91992E-10 2.72894E-09
 -1       895-4.52049E+02-5.84707E+04-3.95171E+03 1.12631E+04 1.02719E-09-1.60662E-09
 -1       956-1.30046E+05-1.87614E+03-4.72242E+03 8.59722E+03-1.08753E-09-1.21020E-09
 -1       957-1.30978E+05-6.34390E+02-2.42451E+03 1.03468E+04-1.49043E-09-1.41324E-09
 -1       958-1.30462E+05-5.18660E+01-1.09212E+03 8.54168E+03 1.07379E-08-8.70273E-10
 -1       959-1.30535E+05-1.18949E+01-5.57942E+02 1.04068E+04 1.86565E-08 1.42677E-09
 -1       960-1.30497E+05 1.27671E+01-2.71857E+02 8.53669E+03 7.69046E-09 7.22594E-10
 -1       961-1.30501E+05 1.02664E+01-1.44202E+02 1.04124E+04-3.78100E-09-2.94585E-09
 -1       962-1.30503E+05 9.82312E+00-8.22985E+01 8.53611E+03-5.41604E-10-1.10924E-09
 -1       963-1.30498E+05 1.00602E+01-6.57174E+01 1.04132E+04-7.38964E-10 7.71649E-10
 -1       964-1.30504E+05 1.02464E+01-7.92544E+01 8.53590E+03-6.63931E-11 5.25574E-10
 -1       965-1.30502E+05 1.12603E+01-1.36517E+02 1.04131E+04 1.07697E-09 1.70053E-09
 -1       966-1.30500E+05 1.39883E+01-2.55938E+02 8.53615E+03-2.19092E-09-1.42109E-11
 -1       967-1.30536E+05-8.54075E+00-5.24763E+02 1.04100E+04-5.91172E-10 5.48027E-10
 -1       968-1.30469E+05-4.58028E+01-1.02673E+03 8.53903E+03 5.58998E-10 2.12538E-10
 -1       969-1.30955E+05-5.92921E+02-2.27960E+03 1.03750E+04 4.13820E-11-2.99680E-09
 -1       970-1.30078E+05-1.76040E+03-4.43991E+03 8.57194E+03 1.46918E-09 2.03499E-09
 -1       971-1.23619E+05-6.54508E+02-3.63926E+03 6.10362E+03-2.39652E-09-2.37137E-10
 -1       972-1.24504E+05-4.71621E+02-1.98228E+03 8.51183E+03-1.78079E-09 1.68097E-09
 -1       973-1.24021E+05-5.80533E+00-8.87238E+02 6.05421E+03-2.13936E-09-2.50282E-09
 -1       974-1.24081E+05-8.41870E+00-4.59790E+02 8.56468E+03-9.33142E-10 1.12189E-09
 -1       975-1.24050E+05 9.58028E+00-2.29086E+02 6.05043E+03 1.31467E-09-1.25698E-09
 -1       976-1.24053E+05 9.15875E+00-1.31253E+02 8.56896E+03-2.16721E-09-4.60659E-09
 -1       977-1.24055E+05 8.38864E+00-9.33569E+01 6.04991E+03 7.76026E-10 1.66182E-09
 -1       978-1.24053E+05 1.04135E+01-1.06804E+02 8.56968E+03 6.56019E-09-4.90616E-10
 -1       979-1.24054E+05 1.07574E+01-1.69369E+02 6.04971E+03 3.00949E-09-1.54398E-09
 -1       980-1.24065E+05 1.12272E+01-3.25632E+02 8.56973E+03 3.50749E-09-1.61742E-09
 -1       981-1.24043E+05 1.89364E+01-6.29838E+02 6.04986E+03 4.27349E-10 2.90225E-09
 -1       982-1.24152E+05-3.48484E+01-1.30139E+03 8.56754E+03-4.32010E-10 3.25991E-09
 -1       983-1.23965E+05-2.06714E+01-2.52817E+03 6.05195E+03 1.17200E-09-1.73600E-10
 -1       984-1.25370E+05-1.35395E+03-5.66129E+03 8.53400E+03-6.85304E-10-1.75078E-09
 -1       985-1.22822E+05-1.86985E+03-1.03959E+04 6.08477E+03 2.14573E-09-1.20190E-09
 -3
    1PSTEP                         3           2           1          
  100CL  102 3.12500E-01         409                     0    2           1
 -4  DISP        4    1
 -5  D1          1    2    1    0
 -5  D2          1    2    2    0
 -5  D3          1    2    3    0
 -5  ALL         1    2    0    0    1ALL
 -1         1 8.16617E-05 0.00000E+00 0.00000E+00
 -1         2 7.53872E-05 1.12309E-29 0.00000E+00
 -1         3 6.96183E-05-1.55380E-28-6.61744E-24
 -1         5 5.01359E-05 2.43828E-26 0.00000E+00
 -1         8 6.51884E-05-5.91540E-07 0.00000E+00
 -1         9 6.62398E-05 3.93701E-07 0.00000E+00
 -1        10 6.45239E-05-9.52286E-07 3.30872E-24
 -1        12 4.97838E-05 3.40624E-07-8.27181E-25
 -1        15 4.55884E-05-6.38519E-07-2.06795E-25
 -1        16 4.71601E-05 3.12450E-07 0.00000E+00
 -1        17 4.81091E-05-1.99915E-06 0.00000E+00
 -1        18 4.80633E-05 1.31241E-07 0.00000E+00
 -1        19 4.87222E-05 6.82727E-07 0.00000E+00
 -1        20 4.88116E-05 1.01043E-05 0.00000E+00
 -1        21 4.84747E-05 1.91015E-05 0.00000E+00
 -1        24 1.22977E-05-2.67576E-06 0.00000E+00
 -1        25 4.69295E-05 2.09299E-07 0.00000E+00
 -1        26 4.75499E-05 9.49954E-07 0.00000E+00
 -1        27 4.66082E-05 8.59002E-06 0.00000E+00
 -1        28 4.63039E-05 1.88105E-05 0.00000E+00
 -1        32 0.00000E+00 0.00000E+00 0.00000E+00
 -1        33 4.55650E-05 1.27283E-06 0.00000E+00
 -1        34 4.46545E-05 8.57655E-06 0.00000E+00
 -1        35 4.37893E-05 1.86569E-05 0.00000E+00
 -1        51 8.05900E-05-9.81359E-08 0.00000E+00
 -1        52 7.86039E-05-1.93467E-07 0.00000E+00
 -1        53 7.58834E-05-2.89320E-07 0.00000E+00
 -1        54 7.26156E-05-3.86606E-07 0.00000E+00
 -1        55 6.89879E-05-4.85927E-07 2.58494E-24
 -1        56 8.09129E-05-4.65317E-07 1.32349E-23
 -1        57 8.02460E-05-1.23339E-06 1.32349E-23
 -1        58 7.96616E-05-2.21713E-06-2.64698E-23
 -1        59 7.91232E-05-3.33841E-06 0.00000E+00
 -1        60 7.86033E-05-4.50949E-06 2.64698E-23
 -1        61 7.80686E-05-5.64369E-06 1.32349E-23
 -1        62 7.74880E-05-6.65540E-06 0.00000E+00
 -1        63 7.68304E-05-7.46171E-06 0.00000E+00
 -1        64 7.60677E-05-7.98785E-06-2.64698E-23
 -1        65 7.51742E-05-8.16456E-06 0.00000E+00
 -1        66 7.41289E-05-7.93663E-06 2.64698E-23
 -1        67 7.29145E-05-7.25660E-06-1.32349E-23
 -1        68 7.15193E-05-6.09552E-06-2.64698E-23
 -1        69 6.99397E-05-4.43218E-06-1.32349E-23
 -1        70 6.81698E-05-2.26903E-06-1.32349E-23
 -1        86 7.51464E-05 7.03862E-08 1.65436E-24
 -1        87 7.44232E-05 1.40182E-07-8.27181E-25
 -1        88 7.31991E-05 2.09454E-07 8.27181E-25
 -1        89 7.14537E-05 2.75679E-07 0.00000E+00
 -1        90 6.91477E-05 3.41587E-07 0.00000E+00
 -1       121 6.94764E-05-1.58201E-07 3.30872E-24
 -1       122 6.90507E-05-3.16482E-07 1.65436E-24
 -1       123 6.83416E-05-4.74924E-07 3.30872E-24
 -1       124 6.73501E-05-6.33633E-07-1.65436E-24
 -1       125 6.60770E-05-7.92642E-07-3.30872E-24
 -1       191 5.01261E-05 5.67703E-08 0.00000E+00
 -1       192 5.00968E-05 1.13540E-07 0.00000E+00
 -1       193 5.00478E-05 1.70309E-07-3.30872E-24
 -1       194 4.99793E-05 2.27079E-07 0.00000E+00
 -1       195 4.98912E-05 2.83848E-07 0.00000E+00
 -1       251 6.52400E-05 2.11594E-06 0.00000E+00
 -1       252 6.53059E-05 3.72338E-06-5.16988E-26
 -1       253 6.53720E-05 4.41719E-06 0.00000E+00
 -1       254 6.54405E-05 4.38102E-06 0.00000E+00
 -1       255 6.55090E-05 3.77207E-06 0.00000E+00
 -1       256 6.55777E-05 2.74590E-06 0.00000E+00
 -1       257 6.56460E-05 1.44282E-06 1.65436E-24
 -1       258 6.57143E-05 2.38635E-09 8.27181E-25
 -1       259 6.57826E-05-1.44093E-06 1.65436E-24
 -1       260 6.58509E-05-2.75263E-06 0.00000E+00
 -1       261 6.59195E-05-3.79337E-06 0.00000E+00
 -1       262 6.59880E-05-4.42311E-06-8.27181E-25
 -1       263 6.60565E-05-4.48675E-06 8.27181E-25
 -1       264 6.61226E-05-3.82756E-06 0.00000E+00
 -1       265 6.61884E-05-2.26261E-06 0.00000E+00
 -1       266 6.19218E-05-6.07485E-07 0.00000E+00
 -1       267 5.86551E-05-6.14326E-07 0.00000E+00
 -1       268 5.53884E-05-6.21743E-07 8.27181E-25
 -1       269 5.21217E-05-6.27452E-07 2.06795E-25
 -1       270 4.88551E-05-6.33122E-07 2.06795E-25
 -1       271 6.32034E-05 1.84010E-06 0.00000E+00
 -1       272 6.15197E-05 3.37868E-06-1.32349E-23
 -1       273 6.01309E-05 4.13758E-06-2.64698E-23
 -1       274 5.89887E-05 4.22576E-06-1.32349E-23
 -1       275 5.80521E-05 3.76467E-06 2.64698E-23
 -1       276 5.72730E-05 2.88072E-06 1.32349E-23
 -1       277 5.66025E-05 1.70623E-06 0.00000E+00
 -1       278 5.59898E-05 3.76881E-07-1.32349E-23
 -1       279 5.53834E-05-9.69613E-07-2.64698E-23
 -1       280 5.47320E-05-2.19529E-06-1.32349E-23
 -1       281 5.39844E-05-3.16387E-06-2.64698E-23
 -1       282 5.30913E-05-3.74210E-06 0.00000E+00
 -1       283 5.20040E-05-3.80203E-06-2.64698E-23
 -1       284 5.06797E-05-3.22087E-06 0.00000E+00
 -1       285 4.90709E-05-1.88669E-06 0.00000E+00
 -1       301 6.30076E-05 3.76249E-07 0.00000E+00
 -1       302 5.97767E-05 3.68543E-07 1.65436E-24
 -1       303 5.65619E-05 3.61129E-07 0.00000E+00
 -1       304 5.33777E-05 3.52645E-07 0.00000E+00
 -1       305 5.02389E-05 3.42654E-07 0.00000E+00
 -1       306 6.41931E-05 2.76899E-06 0.00000E+00
 -1       307 6.24601E-05 4.21211E-06 0.00000E+00
 -1       308 6.10705E-05 4.74948E-06-2.64698E-23
 -1       309 5.99998E-05 4.41960E-06 1.32349E-23
 -1       310 5.92056E-05 3.35160E-06-2.64698E-23
 -1       311 5.86301E-05 1.69520E-06 0.00000E+00
 -1       312 5.81964E-05-3.40828E-07 2.64698E-23
 -1       313 5.78219E-05-2.53629E-06 1.32349E-23
 -1       314 5.74187E-05-4.65478E-06 0.00000E+00
 -1       315 5.68997E-05-6.46229E-06 0.00000E+00
 -1       316 5.61888E-05-7.75629E-06 0.00000E+00
 -1       317 5.52171E-05-8.34976E-06 0.00000E+00
 -1       318 5.39388E-05-8.12577E-06-2.64698E-23
 -1       319 5.23251E-05-6.99007E-06-1.32349E-23
 -1       320 5.03654E-05-4.94405E-06 0.00000E+00
 -1       336 6.26553E-05-1.12495E-06 3.30872E-24
 -1       337 6.04355E-05-1.29854E-06 0.00000E+00
 -1       338 5.78673E-05-1.47288E-06 3.30872E-24
 -1       339 5.49541E-05-1.64788E-06-1.65436E-24
 -1       340 5.16999E-05-1.82392E-06-3.30872E-24
 -1       406 4.96570E-05 3.97928E-07 0.00000E+00
 -1       407 4.95103E-05 4.55222E-07 0.00000E+00
 -1       408 4.93434E-05 5.12481E-07 3.30872E-24
 -1       409 4.91564E-05 5.69632E-07 0.00000E+00
 -1       410 4.89492E-05 6.26561E-07 0.00000E+00
 -1       521 4.43439E-05 2.00744E-06-5.29396E-23
 -1       522 4.19358E-05 2.43114E-06 2.64698E-23
 -1       523 3.99838E-05 1.65203E-06 0.00000E+00
 -1       524 3.84307E-05-2.25925E-07 2.64698E-23
 -1       525 3.71867E-05-2.93244E-06 0.00000E+00
 -1       526 3.61334E-05-6.15667E-06 2.64698E-23
 -1       527 3.51287E-05-9.51203E-06 5.29396E-23
 -1       528 3.40261E-05-1.26056E-05-2.64698E-23
 -1       529 3.26934E-05-1.50820E-05 0.00000E+00
 -1       530 3.10102E-05-1.66192E-05-2.64698E-23
 -1       531 2.89053E-05-1.70308E-05-5.29396E-23
 -1       532 2.63319E-05-1.61906E-05 0.00000E+00
 -1       533 2.33071E-05-1.41532E-05 5.29396E-23
 -1       534 1.98848E-05-1.10336E-05 2.64698E-23
 -1       535 1.61532E-05-7.11054E-06-5.29396E-23
 -1       536 4.80962E-05 1.34713E-06 1.65436E-24
 -1       537 4.80907E-05 3.87462E-06 0.00000E+00
 -1       538 4.80863E-05 5.66439E-06-4.13590E-25
 -1       539 4.80838E-05 6.79757E-06-1.03398E-25
 -1       540 4.80819E-05 7.35771E-06 0.00000E+00
 -1       541 4.80802E-05 7.42838E-06 0.00000E+00
 -1       542 4.80786E-05 7.09485E-06 0.00000E+00
 -1       543 4.80768E-05 6.44240E-06 0.00000E+00
 -1       544 4.80749E-05 5.55741E-06-5.16988E-26
 -1       545 4.80729E-05 4.52627E-06 0.00000E+00
 -1       546 4.80708E-05 3.43585E-06 0.00000E+00
 -1       547 4.80688E-05 2.37307E-06 0.00000E+00
 -1       548 4.80669E-05 1.42469E-06 0.00000E+00
 -1       549 4.80653E-05 6.77506E-07 5.16988E-26
 -1       550 4.80638E-05 2.17661E-07-2.06795E-25
 -1       551 4.33591E-05-2.10253E-06 0.00000E+00
 -1       552 3.76773E-05-2.20887E-06-1.65436E-24
 -1       553 3.13948E-05-2.31874E-06-1.65436E-24
 -1       554 2.48473E-05-2.43183E-06 0.00000E+00
 -1       555 1.83705E-05-2.54630E-06 0.00000E+00
 -1       556 4.68649E-05 1.22883E-06-1.32349E-23
 -1       557 4.59143E-05 3.69504E-06 0.00000E+00
 -1       558 4.52254E-05 5.46979E-06 0.00000E+00
 -1       559 4.47690E-05 6.62897E-06 0.00000E+00
 -1       560 4.45159E-05 7.24824E-06 0.00000E+00
 -1       561 4.44371E-05 7.40365E-06 0.00000E+00
 -1       562 4.45038E-05 7.17135E-06 0.00000E+00
 -1       563 4.46873E-05 6.62750E-06 0.00000E+00
 -1       564 4.49589E-05 5.84834E-06-3.30872E-24
 -1       565 4.52900E-05 4.91012E-06 0.00000E+00
 -1       566 4.56521E-05 3.88910E-06-8.27181E-25
 -1       567 4.60167E-05 2.86158E-06 2.06795E-25
 -1       568 4.63552E-05 1.90381E-06 0.00000E+00
 -1       569 4.66390E-05 1.09198E-06 0.00000E+00
 -1       570 4.68398E-05 5.02308E-07 0.00000E+00
 -1       571 4.81033E-05 1.91786E-07-4.13590E-25
 -1       572 4.81442E-05 2.25124E-07-1.03398E-25
 -1       573 4.81853E-05 2.36101E-07 4.13590E-25
 -1       574 4.82266E-05 2.29817E-07-4.13590E-25
 -1       575 4.82679E-05 2.11396E-07-8.27181E-25
 -1       576 4.83092E-05 1.85994E-07 4.13590E-25
 -1       577 4.83505E-05 1.58773E-07-1.65436E-24
 -1       578 4.83918E-05 1.34896E-07 8.27181E-25
 -1       579 4.84331E-05 1.19529E-07 0.00000E+00
 -1       580 4.84745E-05 1.17838E-07 0.00000E+00
 -1       581 4.85158E-05 1.34985E-07 0.00000E+00
 -1       582 4.85571E-05 1.76131E-07 0.00000E+00
 -1       583 4.85984E-05 2.46429E-07 0.00000E+00
 -1       584 4.86397E-05 3.50979E-07-3.30872E-24
 -1       585 4.86810E-05 4.94853E-07 0.00000E+00
 -1       586 4.78603E-05 1.45065E-07-8.27181E-25
 -1       587 4.76398E-05 1.58539E-07 0.00000E+00
 -1       588 4.74190E-05 1.71863E-07 4.13590E-25
 -1       589 4.72155E-05 1.84975E-07 0.00000E+00
 -1       590 4.70467E-05 1.97730E-07 0.00000E+00
 -1       591 4.80215E-05 2.12755E-07-1.03398E-25
 -1       592 4.79865E-05 2.71770E-07 0.00000E+00
 -1       593 4.79582E-05 3.12568E-07 4.13590E-25
 -1       594 4.79351E-05 3.39004E-07 0.00000E+00
 -1       595 4.79159E-05 3.54988E-07 0.00000E+00
 -1       596 4.78991E-05 3.64396E-07 0.00000E+00
 -1       597 4.78833E-05 3.71107E-07 0.00000E+00
 -1       598 4.78671E-05 3.78995E-07 0.00000E+00
 -1       599 4.78489E-05 3.91932E-07-4.13590E-25
 -1       600 4.78275E-05 4.13793E-07 0.00000E+00
 -1       601 4.78012E-05 4.48450E-07 0.00000E+00
 -1       602 4.77687E-05 4.99781E-07 5.16988E-26
 -1       603 4.77286E-05 5.71664E-07-1.03398E-25
 -1       604 4.76795E-05 6.68008E-07 0.00000E+00
 -1       605 4.76199E-05 7.92670E-07 0.00000E+00
 -1       606 4.87299E-05 9.64585E-07 0.00000E+00
 -1       607 4.87360E-05 1.30540E-06 0.00000E+00
 -1       608 4.87419E-05 1.70171E-06 0.00000E+00
 -1       609 4.87475E-05 2.14961E-06 0.00000E+00
 -1       610 4.87530E-05 2.64519E-06 0.00000E+00
 -1       611 4.87584E-05 3.18446E-06 0.00000E+00
 -1       612 4.87639E-05 3.76344E-06 0.00000E+00
 -1       613 4.87693E-05 4.37817E-06 0.00000E+00
 -1       614 4.87747E-05 5.02464E-06 0.00000E+00
 -1       615 4.87800E-05 5.69888E-06 0.00000E+00
 -1       616 4.87854E-05 6.39690E-06 0.00000E+00
 -1       617 4.87907E-05 7.11473E-06 0.00000E+00
 -1       618 4.87960E-05 7.84836E-06 0.00000E+00
 -1       619 4.88013E-05 8.59382E-06 0.00000E+00
 -1       620 4.88065E-05 9.34714E-06 2.06795E-25
 -1       621 4.84982E-05 7.27299E-07 1.65436E-24
 -1       622 4.82902E-05 7.72084E-07 0.00000E+00
 -1       623 4.80948E-05 8.16863E-07 1.65436E-24
 -1       624 4.79085E-05 8.61571E-07 4.13590E-25
 -1       625 4.77280E-05 9.06201E-07 0.00000E+00
 -1       626 4.86642E-05 9.78604E-07 0.00000E+00
 -1       627 4.85882E-05 1.32330E-06-3.30872E-24
 -1       628 4.84957E-05 1.71228E-06 0.00000E+00
 -1       629 4.83884E-05 2.14073E-06 0.00000E+00
 -1       630 4.82682E-05 2.60381E-06 0.00000E+00
 -1       631 4.81367E-05 3.09664E-06-8.27181E-25
 -1       632 4.79960E-05 3.61436E-06 0.00000E+00
 -1       633 4.78477E-05 4.15210E-06-2.48154E-24
 -1       634 4.76937E-05 4.70498E-06-1.65436E-24
 -1       635 4.75359E-05 5.26814E-06 0.00000E+00
 -1       636 4.73760E-05 5.83671E-06 0.00000E+00
 -1       637 4.72159E-05 6.40581E-06 0.00000E+00
 -1       638 4.70574E-05 6.97057E-06 0.00000E+00
 -1       639 4.69022E-05 7.52612E-06 8.27181E-25
 -1       640 4.67521E-05 8.06758E-06-8.27181E-25
 -1       656 4.81824E-05 9.85795E-06 3.30872E-24
 -1       657 4.77752E-05 9.60173E-06 0.00000E+00
 -1       658 4.75040E-05 9.34629E-06 6.61744E-24
 -1       659 4.72815E-05 9.09107E-06 3.30872E-24
 -1       660 4.70139E-05 8.83503E-06-3.30872E-24
 -1       661 4.85788E-05 1.08463E-05 0.00000E+00
 -1       662 4.83598E-05 1.15568E-05 0.00000E+00
 -1       663 4.81523E-05 1.22364E-05 8.27181E-25
 -1       664 4.79561E-05 1.28867E-05 8.27181E-25
 -1       665 4.77706E-05 1.35087E-05-1.65436E-24
 -1       666 4.75952E-05 1.41037E-05 8.27181E-25
 -1       667 4.74296E-05 1.46729E-05 0.00000E+00
 -1       668 4.72733E-05 1.52175E-05 8.27181E-25
 -1       669 4.71257E-05 1.57384E-05 1.65436E-24
 -1       670 4.69867E-05 1.62369E-05 0.00000E+00
 -1       671 4.68556E-05 1.67140E-05 1.65436E-24
 -1       672 4.67321E-05 1.71706E-05 0.00000E+00
 -1       673 4.66160E-05 1.76078E-05 0.00000E+00
 -1       674 4.65063E-05 1.80262E-05 4.13590E-25
 -1       675 4.64033E-05 1.84272E-05-4.13590E-25
 -1       676 4.81123E-05 1.90527E-05-1.65436E-24
 -1       677 4.77500E-05 1.90040E-05 8.27181E-25
 -1       678 4.73879E-05 1.89552E-05-1.65436E-24
 -1       679 4.70262E-05 1.89066E-05-8.27181E-25
 -1       680 4.66648E-05 1.88580E-05 0.00000E+00
 -1       771 9.85638E-06 1.94434E-06 0.00000E+00
 -1       772 7.72900E-06 5.72012E-06 0.00000E+00
 -1       773 5.90226E-06 8.70125E-06 0.00000E+00
 -1       774 4.35566E-06 1.09398E-05 0.00000E+00
 -1       775 3.06916E-06 1.24887E-05 0.00000E+00
 -1       776 2.02199E-06 1.34019E-05-1.32349E-23
 -1       777 1.19317E-06 1.37343E-05 0.00000E+00
 -1       778 5.61431E-07 1.35416E-05 0.00000E+00
 -1       779 1.05357E-07 1.28804E-05 0.00000E+00
 -1       780-1.96719E-07 1.18078E-05 1.32349E-23
 -1       781-3.66521E-07 1.03816E-05 0.00000E+00
 -1       782-4.25977E-07 8.66007E-06 0.00000E+00
 -1       783-3.97045E-07 6.70190E-06-2.64698E-23
 -1       784-3.01781E-07 4.56622E-06-1.32349E-23
 -1       785-1.62315E-07 2.31232E-06-2.64698E-23
 -1       786 4.69660E-05 2.08568E-07 0.00000E+00
 -1       787 4.70047E-05 2.09220E-07 4.13590E-25
 -1       788 4.70432E-05 2.11762E-07-8.27181E-25
 -1       789 4.70822E-05 2.16707E-07 0.00000E+00
 -1       790 4.71211E-05 2.24777E-07 0.00000E+00
 -1       791 4.71602E-05 2.36703E-07 0.00000E+00
 -1       792 4.71992E-05 2.53555E-07 8.27181E-25
 -1       793 4.72383E-05 2.76413E-07 0.00000E+00
 -1       794 4.72774E-05 3.06890E-07-1.65436E-24
 -1       795 4.73165E-05 3.46612E-07 0.00000E+00
 -1       796 4.73555E-05 3.98026E-07 8.27181E-25
 -1       797 4.73946E-05 4.63598E-07 4.13590E-25
 -1       798 4.74336E-05 5.47051E-07 8.27181E-25
 -1       799 4.74725E-05 6.52138E-07 0.00000E+00
 -1       800 4.75115E-05 7.84533E-07 0.00000E+00
 -1       801 4.37599E-05 2.12727E-07 0.00000E+00
 -1       802 3.43294E-05 1.78390E-07-4.13590E-25
 -1       803 2.19395E-05 1.14510E-07 1.65436E-24
 -1       804 9.89054E-06 5.01459E-08 0.00000E+00
 -1       805 1.47759E-06 2.09474E-08 0.00000E+00
 -1       806 4.68817E-05 1.82040E-07 0.00000E+00
 -1       807 4.68318E-05 1.54993E-07-8.27181E-25
 -1       808 4.67804E-05 1.31192E-07 0.00000E+00
 -1       809 4.67266E-05 1.13210E-07 0.00000E+00
 -1       810 4.66695E-05 1.03613E-07 0.00000E+00
 -1       811 4.66084E-05 1.04932E-07 0.00000E+00
 -1       812 4.65422E-05 1.19693E-07 0.00000E+00
 -1       813 4.64699E-05 1.50417E-07 0.00000E+00
 -1       814 4.63908E-05 1.99623E-07-1.65436E-24
 -1       815 4.63038E-05 2.69829E-07 0.00000E+00
 -1       816 4.62079E-05 3.63552E-07-8.27181E-25
 -1       817 4.61023E-05 4.83309E-07 0.00000E+00
 -1       818 4.59861E-05 6.31614E-07 8.27181E-25
 -1       819 4.58582E-05 8.10973E-07 0.00000E+00
 -1       820 4.57180E-05 1.02389E-06 1.65436E-24
 -1       821 4.74944E-05 1.14772E-06 4.13590E-25
 -1       822 4.74355E-05 1.37732E-06 0.00000E+00
 -1       823 4.73768E-05 1.64916E-06 0.00000E+00
 -1       824 4.73175E-05 1.97350E-06 0.00000E+00
 -1       825 4.72581E-05 2.35403E-06 0.00000E+00
 -1       826 4.71986E-05 2.79428E-06-8.27181E-25
 -1       827 4.71390E-05 3.29026E-06 0.00000E+00
 -1       828 4.70794E-05 3.83786E-06 0.00000E+00
 -1       829 4.70197E-05 4.42643E-06 0.00000E+00
 -1       830 4.69601E-05 5.04526E-06 0.00000E+00
 -1       831 4.69004E-05 5.67982E-06-1.65436E-24
 -1       832 4.68409E-05 6.31552E-06-8.27181E-25
 -1       833 4.67815E-05 6.93764E-06-1.65436E-24
 -1       834 4.67227E-05 7.53152E-06 4.13590E-25
 -1       835 4.66637E-05 8.08599E-06 0.00000E+00
 -1       836 4.73092E-05 1.00370E-06-1.65436E-24
 -1       837 4.69975E-05 1.05864E-06 0.00000E+00
 -1       838 4.66411E-05 1.11347E-06-1.65436E-24
 -1       839 4.62660E-05 1.16796E-06 0.00000E+00
 -1       840 4.58986E-05 1.22236E-06 0.00000E+00
 -1       856 4.65913E-05 9.10347E-06 1.03398E-25
 -1       857 4.65725E-05 9.68178E-06-1.03398E-25
 -1       858 4.65537E-05 1.03147E-05-4.13590E-25
 -1       859 4.65346E-05 1.09920E-05 2.06795E-25
 -1       860 4.65155E-05 1.17032E-05 0.00000E+00
 -1       861 4.64963E-05 1.24381E-05-2.06795E-25
 -1       862 4.64770E-05 1.31864E-05-4.13590E-25
 -1       863 4.64577E-05 1.39375E-05 0.00000E+00
 -1       864 4.64385E-05 1.46812E-05 4.13590E-25
 -1       865 4.64192E-05 1.54071E-05 0.00000E+00
 -1       866 4.64000E-05 1.61049E-05 0.00000E+00
 -1       867 4.63808E-05 1.67641E-05-4.13590E-25
 -1       868 4.63616E-05 1.73746E-05-8.27181E-25
 -1       869 4.63424E-05 1.79259E-05-4.13590E-25
 -1       870 4.63232E-05 1.84079E-05 0.00000E+00
 -1       871 4.62166E-05 8.58953E-06 0.00000E+00
 -1       872 4.58873E-05 8.58775E-06 0.00000E+00
 -1       873 4.55936E-05 8.58574E-06 0.00000E+00
 -1       874 4.53082E-05 8.58341E-06-1.03398E-25
 -1       875 4.50041E-05 8.58080E-06 4.13590E-25
 -1       876 4.64723E-05 9.10881E-06-1.65436E-24
 -1       877 4.63259E-05 9.65916E-06 8.27181E-25
 -1       878 4.61692E-05 1.02372E-05 0.00000E+00
 -1       879 4.60036E-05 1.08395E-05 0.00000E+00
 -1       880 4.58302E-05 1.14624E-05 0.00000E+00
 -1       881 4.56505E-05 1.21023E-05 0.00000E+00
 -1       882 4.54657E-05 1.27557E-05 1.65436E-24
 -1       883 4.52771E-05 1.34191E-05-8.27181E-25
 -1       884 4.50862E-05 1.40888E-05-1.65436E-24
 -1       885 4.48942E-05 1.47614E-05 0.00000E+00
 -1       886 4.47024E-05 1.54334E-05-1.65436E-24
 -1       887 4.45122E-05 1.61010E-05 8.27181E-25
 -1       888 4.43248E-05 1.67609E-05 1.65436E-24
 -1       889 4.41413E-05 1.74093E-05 4.13590E-25
 -1       890 4.39632E-05 1.80428E-05 0.00000E+00
 -1       891 4.59555E-05 1.87848E-05-8.27181E-25
 -1       892 4.55960E-05 1.87590E-05 0.00000E+00
 -1       893 4.52124E-05 1.87332E-05 0.00000E+00
 -1       894 4.47919E-05 1.87075E-05 2.06795E-25
 -1       895 4.43218E-05 1.86819E-05-1.03398E-25
 -1       956 4.55091E-05 1.59534E-06 0.00000E+00
 -1       957 4.54524E-05 1.95434E-06-4.13590E-25
 -1       958 4.53954E-05 2.34604E-06 8.27181E-25
 -1       959 4.53384E-05 2.76642E-06 0.00000E+00
 -1       960 4.52813E-05 3.21147E-06 0.00000E+00
 -1       961 4.52242E-05 3.67712E-06 8.27181E-25
 -1       962 4.51670E-05 4.15934E-06-1.65436E-24
 -1       963 4.51099E-05 4.65408E-06 0.00000E+00
 -1       964 4.50528E-05 5.15727E-06 0.00000E+00
 -1       965 4.49956E-05 5.66488E-06 8.27181E-25
 -1       966 4.49385E-05 6.17284E-06 1.65436E-24
 -1       967 4.48814E-05 6.67712E-06 0.00000E+00
 -1       968 4.48243E-05 7.17365E-06 0.00000E+00
 -1       969 4.47673E-05 7.65840E-06 0.00000E+00
 -1       970 4.47105E-05 8.12733E-06 1.65436E-24
 -1       971 4.46011E-05 9.03800E-06 8.27181E-25
 -1       972 4.45470E-05 9.54760E-06 4.13590E-25
 -1       973 4.44928E-05 1.01000E-05 1.65436E-24
 -1       974 4.44384E-05 1.06898E-05 0.00000E+00
 -1       975 4.43841E-05 1.13112E-05-1.65436E-24
 -1       976 4.43297E-05 1.19589E-05 0.00000E+00
 -1       977 4.42753E-05 1.26273E-05-1.65436E-24
 -1       978 4.42208E-05 1.33108E-05 0.00000E+00
 -1       979 4.41664E-05 1.40039E-05 0.00000E+00
 -1       980 4.41120E-05 1.47009E-05-8.27181E-25
 -1       981 4.40576E-05 1.53965E-05 1.65436E-24
 -1       982 4.40032E-05 1.60849E-05 0.00000E+00
 -1       983 4.39489E-05 1.67607E-05-1.65436E-24
 -1       984 4.38949E-05 1.74183E-05-8.27181E-25
 -1       985 4.38411E-05 1.80522E-05 0.00000E+00
 -3
    1PSTEP                         4           2           1          
  100CL  102 3.12500E-01         409                     0    2           1
 -4  STRESS      6    1
 -5  SXX         1    4    1    1
 -5  SYY         1    4    2    2
 -5  SZZ         1    4    3    3
 -5  SXY         1    4    1    2
 -5  SYZ         1    4    2    3
 -5  SZX         1    4    3    1
 -1         1-1.07899E+06-4.96992E+05-2.19389E+05-6.97923E+05 1.16415E-10 1.69530E-09
 -1         2 1.81006E+03 2.03776E+05 5.90839E+03 4.17712E+02-1.05814E-10 5.56275E-09
 -1         3-3.09495E+01-4.52149E+05 1.04487E+02-1.03272E+02-1.04381E-10-1.19053E-09
 -1         5-3.20719E+00 1.62429E+05-1.71794E-01-1.69445E+00 7.09157E-11-2.96495E-10
 -1         8-5.08084E+05-2.21440E+05-1.71940E+04-3.85563E+05 4.05635E-10 1.97906E-09
 -1         9-8.72209E+05-2.25767E+05-8.63402E+04-3.01506E+05 2.51748E-09-4.27826E-10
 -1        10-3.43471E+02-4.71046E+05-6.01995E+02-6.89835E+02-2.12322E-09-1.26058E-08
 -1        12-2.76572E-01 1.63258E+05 1.41817E+02 1.25228E+00-3.94266E-10-1.37059E-09
 -1        15 1.34460E+03 7.38930E+02 4.34641E+03 1.89942E+00-2.12243E-09-6.69070E-07
 -1        16-2.45637E+06-7.89955E+05-3.81895E+05-8.02955E+05 7.48939E-09-3.19172E-09
 -1        17-5.41594E+05-3.34189E+05-1.04203E+05-3.15215E+05-3.83516E-09-2.72703E-09
 -1        18 1.92930E+04 1.80467E+03-7.65117E+03-3.82417E+04 4.91923E-10 4.42105E-09
 -1        19 5.09563E+04 6.09976E+04-2.56917E+02 9.97416E+03-3.88900E-10-2.37160E-09
 -1        20-2.11352E+04-2.40580E+05-5.30499E+04 1.78707E+04 1.41752E-09-3.14503E-09
 -1        21-2.27731E+01-1.39534E+05-4.50685E+02-3.46843E+01-4.31689E-09-1.00074E-08
 -1        24-2.15775E+06-7.49247E+05-3.07973E+05-9.13416E+05-1.03076E-08-5.51033E-09
 -1        25 1.91378E+04-2.15067E+03 1.14500E+04-6.90635E+04 2.41516E-10 2.54804E-09
 -1        26-1.17924E+04 4.14793E+04-8.23091E+03-5.92302E+03 1.04192E-09 4.19925E-10
 -1        27-3.85156E+04-1.32007E+05-4.95211E+04 2.97482E+04 4.24325E-09 1.02818E-09
 -1        28 1.07837E+04-3.85471E+04 7.87702E+03 1.23627E+04 3.41181E-09 1.13398E-09
 -1        32-5.14382E+05-7.44963E+04 2.22605E+05-3.46928E+05-1.02955E-08 8.90620E-09
 -1        33-7.55045E+04 3.88328E+04 1.37660E+04-2.25435E+04 6.31208E-10-4.48684E-10
 -1        34-9.80250E+04-9.75738E+03 2.31910E+02 3.01423E+04 2.01070E-09-1.27178E-09
 -1        35-1.09715E+04-1.53307E+04-5.98111E+02 2.43023E+04 1.99290E-09-3.32269E-09
 -1        51 9.89760E+03-2.54344E+05 2.43960E+04-6.29737E+05 2.03727E-10-3.85626E-10
 -1        52 5.22752E+03-2.52396E+05 1.61620E+04-7.34473E+05 3.34694E-10-4.19095E-09
 -1        53 3.43631E+03-2.59020E+05 1.41183E+04-6.27591E+05 2.07365E-10-4.03816E-09
 -1        54 1.07530E+04-2.56918E+05 2.28850E+04-7.36749E+05 1.01863E-10-9.29867E-09
 -1        55 2.35487E+04-2.65322E+05 4.11775E+04-6.27304E+05 4.94765E-10-1.69166E-09
 -1        56-2.07237E+06-2.34245E+05-1.61935E+05-7.99206E+05 2.40107E-10 1.64437E-09
 -1        57-2.13743E+06-3.80673E+05-1.09142E+05-7.92956E+05 9.14952E-10 2.30102E-09
 -1        58-2.10477E+06-2.85652E+05-3.81196E+04-7.89210E+05-5.32054E-10 9.94987E-10
 -1        59-2.09994E+06-3.20415E+05-2.27564E+04-8.04972E+05 7.26800E-10-1.72554E-09
 -1        60-2.10955E+06-2.92774E+05-8.90882E+03-7.87810E+05-2.28283E-10-5.79803E-10
 -1        61-2.09489E+06-3.11595E+05-5.06610E+03-8.06041E+05-1.59974E-09 2.28596E-09
 -1        62-2.10976E+06-2.94255E+05-2.44242E+03-7.88207E+05 3.03203E-10 5.42869E-09
 -1        63-2.09567E+06-3.09017E+05-2.00820E+03-8.04391E+05-1.30456E-09 2.13575E-09
 -1        64-2.10872E+06-2.95352E+05-2.31027E+03-7.89440E+05-8.78345E-10-3.28953E-09
 -1        65-2.09881E+06-3.07313E+05-4.62117E+03-8.01194E+05-6.41194E-10 8.59927E-10
 -1        66-2.10658E+06-2.96013E+05-8.13701E+03-7.91360E+05-2.36844E-09 4.23779E-09
 -1        67-2.10699E+06-3.11649E+05-2.06446E+04-7.95978E+05 3.26821E-10 1.12104E-08
 -1        68-2.10056E+06-2.91242E+05-3.46588E+04-7.94562E+05-1.67711E-09 5.36966E-09
 -1        69-2.14398E+06-3.63450E+05-9.90983E+04-7.81760E+05 3.97904E-10-6.28461E-09
 -1        70-2.06989E+06-2.45774E+05-1.47109E+05-8.05022E+05-4.40195E-10-3.96540E-09
 -1        86-9.07652E+02 2.01966E+05 6.33206E+03-2.08868E+02 7.97854E-10-1.36353E-09
 -1        87 6.02449E+03 2.05834E+05 1.32082E+04 8.58123E+02 1.33991E-09-6.25114E-09
 -1        88-5.11008E+03 1.99909E+05 2.02240E+04-6.49283E+02 2.01726E-09 1.76863E-09
 -1        89 3.80829E+04 2.20776E+05 5.45376E+04 1.84415E+03 3.04135E-09 7.28829E-09
 -1        90-3.28621E+04 1.87033E+05 7.70407E+04-1.19463E+03 3.47063E-09 7.14590E-09
 -1       121-5.42343E+01-4.52320E+05 9.90341E+01 5.15972E+01 2.61970E-10-3.32875E-10
 -1       122 3.40820E+00-4.52126E+05 2.28224E+02-2.06668E+02-8.22704E-10-2.84217E-10
 -1       123-7.91660E+01-4.52345E+05 3.69515E+02 1.54842E+02 6.91614E-10 4.01906E-09
 -1       124 4.24322E+02-4.51867E+05 9.57443E+02-4.92386E+02-1.68052E-09 5.02041E-09
 -1       125-3.52774E+02-4.52583E+05 1.46837E+03 3.37304E+02 1.03068E-09-1.31877E-09
 -1       191-3.60568E+00 1.62443E+05-3.69072E-01 8.46975E-01 1.02091E-10 5.22232E-09
 -1       192-5.11600E+00 1.62428E+05-8.54623E-01-7.69319E+00 1.29042E-10 3.52611E-09
 -1       193-9.45001E+00 1.62443E+05-2.18662E+00 6.84385E+00 1.64164E-10-1.71985E-09
 -1       194-2.54674E+01 1.62424E+05-8.23857E+00-5.92427E+01 1.12664E-10-6.37101E-10
 -1       195-6.58510E+01 1.62447E+05-1.96000E+01 5.23813E+01 2.04636E-10-9.67930E-10
 -1       251 1.82966E+05-3.18900E+04 7.45064E+04 2.93173E+03 5.01359E-11 5.09317E-10
 -1       252 2.16645E+05 3.69039E+04 5.28172E+04-9.77049E+03 2.49202E-10 8.73115E-10
 -1       253 1.95745E+05-4.93829E+03 1.92854E+04 2.08696E+03 2.82057E-10-4.21278E-09
 -1       254 2.01613E+05 5.70711E+03 1.21799E+04-8.43454E+03 5.77870E-10-2.95972E-09
 -1       255 1.97945E+05-7.63067E+02 4.98306E+03 1.59594E+03-4.36842E-11 6.96855E-09
 -1       256 1.98988E+05 9.05152E+02 3.02750E+03-7.70869E+03 1.49811E-10 9.07858E-09
 -1       257 1.98346E+05-1.33581E+02 1.55906E+03 1.36108E+03 4.53042E-11 3.04550E-09
 -1       258 1.98581E+05 2.81980E+02 1.38205E+03-7.47130E+03-2.78004E-10 3.28350E-09
 -1       259 1.98345E+05-1.36254E+02 1.58434E+03 1.35856E+03-1.14625E-10-2.72172E-09
 -1       260 1.98997E+05 9.28608E+02 3.09932E+03-7.69918E+03-1.82020E-10-7.97860E-09
 -1       261 1.97936E+05-7.83566E+02 5.11443E+03 1.58895E+03 6.39545E-10 1.94063E-09
 -1       262 2.01682E+05 5.86178E+03 1.25039E+04-8.41396E+03-3.78009E-11-2.61798E-09
 -1       263 1.95684E+05-5.07149E+03 1.98083E+04 2.07336E+03-8.47990E-10-1.88356E-09
 -1       264 2.17098E+05 3.79014E+04 5.42369E+04-9.73734E+03-1.40463E-09 6.51198E-10
 -1       265 1.82573E+05-3.27495E+04 7.65272E+04 2.91216E+03-6.58474E-10 3.39060E-09
 -1       266-2.43417E+04-1.13822E+04 5.71125E+04-4.06418E+01-3.25599E-09-1.04884E-06
 -1       267 2.82188E+04 1.32661E+04 4.03663E+04 4.68925E+01-6.58656E-09-2.07627E-06
 -1       268-3.78409E+03-1.87886E+03 1.50040E+04-5.97492E+00-5.27143E-09-1.66449E-06
 -1       269 4.46790E+03 2.24859E+03 9.75234E+03 6.95989E+00-4.02724E-09-1.25531E-06
 -1       270-6.70638E+02-3.69461E+02 4.70759E+03-9.44504E-01-2.93392E-09-9.23863E-07
 -1       271-2.39225E+06-2.97895E+05-1.84090E+05-9.31212E+05-4.12911E-10-1.89175E-09
 -1       272-2.44324E+06-4.47274E+05-1.18357E+05-9.46915E+05-4.38945E-10-3.10138E-09
 -1       273-2.42724E+06-3.43384E+05-4.34834E+04-9.22638E+05 5.82077E-11-1.67347E-10
 -1       274-2.40241E+06-3.91492E+05-2.43457E+04-9.60113E+05 1.25283E-10-5.54428E-09
 -1       275-2.43263E+06-3.47508E+05-1.01147E+04-9.20541E+05 1.88447E-09 8.58563E-10
 -1       276-2.39605E+06-3.86652E+05-5.37820E+03-9.63499E+05-6.65750E-10-6.48777E-09
 -1       277-2.43384E+06-3.47406E+05-2.63043E+03-9.19718E+05 4.97039E-10-2.50134E-09
 -1       278-2.39490E+06-3.86637E+05-1.91343E+03-9.64484E+05 1.15972E-09 3.55897E-10
 -1       279-2.43391E+06-3.47387E+05-2.05294E+03-9.19670E+05 8.17749E-10-3.00906E-09
 -1       280-2.39569E+06-3.86528E+05-3.76155E+03-9.63727E+05-2.12935E-09 5.59612E-09
 -1       281-2.43294E+06-3.47616E+05-6.88117E+03-9.20386E+05 6.14818E-10 1.50658E-09
 -1       282-2.40039E+06-3.89298E+05-1.64288E+04-9.60818E+05 6.25732E-10-3.61160E-09
 -1       283-2.42895E+06-3.45228E+05-2.93325E+04-9.22199E+05 9.54060E-10 5.69162E-09
 -1       284-2.42867E+06-4.25978E+05-7.97334E+04-9.50788E+05-1.05945E-09-6.18456E-11
 -1       285-2.40482E+06-3.15193E+05-1.24110E+05-9.28606E+05 1.36606E-09 3.20142E-10
 -1       301 9.18188E+03-5.60939E+03 7.16407E+04-1.76311E+04-6.00267E-10-2.87525E-09
 -1       302 9.86583E+03 1.25709E+04 5.17644E+04-2.59445E+04 8.30141E-10 1.51715E-09
 -1       303 4.32850E+02 8.20417E+02 4.77002E+04-1.76684E+04-7.19410E-10-3.36991E-09
 -1       304 1.86411E+04 2.06655E+04 8.02919E+04-2.58732E+04 8.99490E-10 6.15114E-09
 -1       305 1.84749E+04-1.36568E+04 1.34771E+05-1.76549E+04-6.91216E-10 5.24915E-09
 -1       306-2.57456E+06-2.96259E+05-1.96293E+05-1.00433E+06 6.00267E-10-4.61296E-09
 -1       307-2.67216E+06-4.65735E+05-1.33843E+05-9.74406E+05 2.25145E-09-2.17551E-09
 -1       308-2.61918E+06-3.57209E+05-4.61855E+04-9.85873E+05 1.43336E-09 7.66886E-09
 -1       309-2.61702E+06-3.98328E+05-2.79777E+04-1.00018E+06 9.43231E-10 6.55518E-09
 -1       310-2.62948E+06-3.62467E+05-1.08393E+04-9.78990E+05-4.83482E-10-3.23325E-09
 -1       311-2.60372E+06-3.93750E+05-6.28344E+03-1.01010E+06 3.63349E-09-8.23775E-10
 -1       312-2.63254E+06-3.61540E+05-3.07214E+03-9.76088E+05-3.19346E-10 3.38628E-09
 -1       313-2.60115E+06-3.94181E+05-2.76989E+03-1.01249E+06 4.00604E-11 3.17016E-09
 -1       314-2.63209E+06-3.61988E+05-3.33081E+03-9.76637E+05-2.22218E-09-6.41512E-09
 -1       315-2.60552E+06-3.92259E+05-7.01928E+03-1.00800E+06-8.90850E-10-1.62561E-09
 -1       316-2.62810E+06-3.63540E+05-1.22463E+04-9.80508E+05 2.49580E-09 3.26872E-09
 -1       317-2.62106E+06-3.97045E+05-3.16535E+04-9.96342E+05-1.44362E-09-5.07589E-09
 -1       318-2.61649E+06-3.57469E+05-5.22724E+04-9.88157E+05-1.27875E-09 5.15502E-09
 -1       319-2.68286E+06-4.74149E+05-1.51543E+05-9.68151E+05-3.03044E-09-1.93722E-09
 -1       320-2.56659E+06-2.87757E+05-2.22170E+05-1.00824E+06 4.86762E-09-7.15954E-09
 -1       336 3.54621E+02-4.89666E+05-2.60556E+03 3.52089E+02-4.32397E-09-1.03500E-09
 -1       337-9.39021E+02-4.90388E+05-2.85450E+03-9.49583E+02-7.85440E-09 6.14227E-09
 -1       338 2.33490E+02-4.89742E+05-3.59309E+03 5.95974E+02-5.63318E-09 1.92085E-09
 -1       339-3.71513E+03-4.92089E+05-7.86799E+03-1.43298E+03-1.05265E-08 3.72893E-10
 -1       340 2.52842E+03-4.87984E+05-1.21222E+04 8.32710E+02-6.93490E-09 1.80353E-09
 -1       406 6.71408E+01 1.64070E+05 3.68287E+02-5.36619E+01-6.07997E-10-3.40356E-09
 -1       407 1.12201E+02 1.64135E+05 6.38567E+02 5.45937E+01-4.27292E-10-6.57337E-10
 -1       408 2.98440E+02 1.64033E+05 1.20770E+03-8.53422E-01-8.48956E-10-1.06684E-09
 -1       409 1.26202E+03 1.64512E+05 2.68428E+03-5.07865E+01-6.42842E-10 3.44585E-09
 -1       410 3.64690E+03 1.63693E+05 5.46021E+03 5.30765E+01-1.06138E-09-1.40381E-09
 -1       521-4.86018E+06-5.61446E+05-3.63961E+05-1.89074E+06 3.83443E-09-4.46744E-09
 -1       522-5.03622E+06-8.74631E+05-2.47313E+05-1.84077E+06-1.63436E-09-4.94765E-10
 -1       523-4.94485E+06-6.70366E+05-8.55737E+04-1.85416E+06 1.30967E-09-2.48838E-09
 -1       524-4.93177E+06-7.54066E+05-5.15773E+04-1.89146E+06 1.16518E-09-5.82077E-10
 -1       525-4.96402E+06-6.79174E+05-1.99758E+04-1.84103E+06-6.49720E-10-9.33142E-10
 -1       526-4.90977E+06-7.43605E+05-1.15130E+04-1.90684E+06 2.24122E-09 6.74731E-10
 -1       527-4.96692E+06-6.80284E+05-5.52737E+03-1.83904E+06 3.65958E-09-3.95175E-10
 -1       528-4.91289E+06-7.35952E+05-4.69417E+03-1.90118E+06-2.37003E-09 3.89326E-09
 -1       529-4.96073E+06-6.86880E+05-5.61359E+03-1.84659E+06-1.59116E-09 3.12593E-09
 -1       530-4.93198E+06-7.20166E+05-1.12553E+04-1.87933E+06-1.82263E-09 1.04592E-09
 -1       531-4.94752E+06-6.96346E+05-2.00064E+04-1.86064E+06 8.48786E-10 3.84807E-09
 -1       532-4.96889E+06-7.15965E+05-5.10880E+04-1.84777E+06 4.14019E-10-6.45832E-09
 -1       533-4.92395E+06-6.91488E+05-8.49229E+04-1.87804E+06-1.60071E-10-4.93674E-09
 -1       534-5.07419E+06-8.35512E+05-2.45580E+05-1.79833E+06 1.60071E-09 5.38057E-09
 -1       535-4.84343E+06-5.79208E+05-3.61035E+05-1.90953E+06-6.48288E-09 5.50062E-09
 -1       536-1.10015E+04-1.36046E+04 3.13372E+04 2.99938E+02-1.53560E-09 5.96992E-09
 -1       537 3.50428E+03 1.57414E+04 2.23272E+04-1.20709E+03-6.11954E-09 2.87400E-09
 -1       538-5.62861E+03-2.13216E+03 8.08329E+03 2.84069E+02-1.37916E-10 2.64163E-09
 -1       539-2.83449E+03 2.46127E+03 5.16137E+03-1.20031E+03 1.97473E-09 9.25638E-10
 -1       540-4.66950E+03-3.31808E+02 2.04094E+03 2.93162E+02 4.66706E-10 2.96404E-09
 -1       541-4.01034E+03 3.79559E+02 1.21925E+03-1.21739E+03 2.42082E-11 4.26758E-09
 -1       542-4.45690E+03-4.91145E+01 4.89119E+02 3.01142E+02-5.20579E-10 1.33525E-09
 -1       543-4.29369E+03 4.69832E+01 2.46452E+02-1.23007E+03 2.78078E-10-9.85949E-10
 -1       544-4.38883E+03 2.47811E+00 3.55685E+01 3.05841E+02-1.00897E-09-1.44884E-09
 -1       545-4.40350E+03-6.06865E+01-1.44666E+02-1.23601E+03-7.32132E-10-2.08837E-09
 -1       546-4.34834E+03 5.93836E+01-3.38174E+02 3.07083E+02 4.12387E-10 2.53473E-09
 -1       547-4.58074E+03-4.39985E+02-8.94910E+02-1.23497E+03-1.14319E-09 3.14662E-09
 -1       548-4.21135E+03 3.81331E+02-1.45293E+03 3.04798E+02-1.55229E-09 4.72767E-10
 -1       549-5.60796E+03-2.81113E+03-3.96222E+03-1.22599E+03-8.59652E-10 4.80031E-09
 -1       550-3.31936E+03 2.42743E+03-5.64473E+03 2.98103E+02 9.54543E-11 4.96470E-09
 -1       551 4.25097E+03-2.57747E+05 1.43346E+04-4.42314E+05-1.94668E-08-6.40284E-10
 -1       552 8.66925E+03-2.57649E+05 1.85566E+04-6.29381E+05-1.46028E-08 5.48789E-09
 -1       553 5.52892E+03-2.61035E+05 2.89326E+04-4.40906E+05-2.35523E-08 3.14867E-09
 -1       554 2.27648E+04-2.48155E+05 6.14501E+04-6.29982E+05-1.40863E-08-2.00271E-09
 -1       555 2.33769E+04-2.72816E+05 1.10493E+05-4.41512E+05-2.34249E-08-3.32147E-09
 -1       556 3.57763E+04-8.22221E+04 2.85971E+04-1.10125E+05-3.62343E-09-2.44472E-09
 -1       557 6.91786E+04-1.10316E+05 1.49585E+04-1.37539E+05 9.96806E-10 6.63590E-09
 -1       558 3.61822E+04-8.63304E+04 6.13744E+03-1.06557E+05-2.27010E-09 1.60799E-09
 -1       559 6.52493E+04-1.14415E+05 3.08559E+03-1.39129E+05 2.73940E-09-6.22094E-10
 -1       560 3.55911E+04-8.59203E+04 1.32196E+03-1.06893E+05 7.74889E-10 3.33694E-09
 -1       561 6.41846E+04-1.14229E+05 6.81545E+02-1.39793E+05 6.87578E-10 2.41903E-09
 -1       562 3.50850E+04-8.55669E+04 2.78510E+02-1.07262E+05-4.51109E-10 6.28074E-09
 -1       563 6.35746E+04-1.13969E+05 1.59490E+02-1.40183E+05-8.38554E-10-3.76872E-10
 -1       564 3.47700E+04-8.53594E+04 5.91866E+01-1.07488E+05 2.21917E-09 2.20507E-09
 -1       565 6.32619E+04-1.13838E+05 2.79276E+01-1.40378E+05 1.79898E-09 3.74075E-09
 -1       566 3.46627E+04-8.52853E+04-2.04185E+01-1.07567E+05-9.86802E-10-2.50111E-09
 -1       567 6.32179E+04-1.13815E+05-8.23899E+01-1.40364E+05 4.44857E-09 1.38789E-09
 -1       568 3.47848E+04-8.53673E+04-2.13191E+02-1.07521E+05-5.93900E-10 4.91855E-09
 -1       569 6.30206E+04-1.13698E+05-5.03199E+02-1.39780E+05-2.07729E-09 2.92857E-10
 -1       570 3.54849E+04-8.60528E+04-1.03520E+03-1.07595E+05 3.80169E-09 1.07375E-08
 -1       571 1.17811E+05 4.27055E+03 6.32575E+03-2.96084E+04-5.32054E-11 6.54381E-09
 -1       572 1.18754E+05 1.48542E+03 3.09898E+03-3.24560E+04 1.70076E-10 3.42106E-09
 -1       573 1.18193E+05 3.54010E+02 1.37667E+03-2.95311E+04 6.17547E-10 3.91060E-09
 -1       574 1.18306E+05 1.14399E+02 6.89593E+02-3.25427E+04 9.58721E-10-1.49385E-10
 -1       575 1.18237E+05 1.49154E+01 3.24952E+02-2.95209E+04 1.92006E-09 3.23871E-09
 -1       576 1.18245E+05 3.14281E+00 1.65285E+02-3.25543E+04-1.01807E-10 2.66937E-09
 -1       577 1.18244E+05-3.30923E+00 8.13046E+01-2.95195E+04-1.25937E-09 5.02951E-09
 -1       578 1.18238E+05-1.92853E+00 4.40965E+01-3.25557E+04-2.04943E-09 6.40125E-09
 -1       579 1.18249E+05-3.37256E+00 2.66743E+01-2.95195E+04-7.93534E-10 9.52014E-10
 -1       580 1.18244E+05-3.72441E+00 2.43324E+01-3.25538E+04-8.95625E-10 8.45830E-10
 -1       581 1.18257E+05-5.41701E+00 3.25767E+01-2.95214E+04-1.43245E-10 4.04475E-09
 -1       582 1.18261E+05 2.23918E-01 6.15309E+01-3.25361E+04 7.39419E-10-1.47998E-09
 -1       583 1.18265E+05 1.67552E+01 1.18108E+02-2.95372E+04-1.63709E-10-2.26134E-09
 -1       584 1.18314E+05 1.09667E+02 2.64448E+02-3.24042E+04-1.72304E-09 5.76961E-10
 -1       585 1.18247E+05 3.43902E+02 5.37434E+02-2.96535E+04 4.05180E-10 7.03949E-10
 -1       586-1.46603E+03 3.84087E+04-1.93338E+03-1.00793E+05 3.28328E-10-3.58489E-09
 -1       587-3.27425E+02 3.81514E+04-2.33197E+02-1.10914E+05 5.65706E-10-4.70777E-09
 -1       588 3.89853E+02 3.82012E+04 1.33426E+03-1.00732E+05 2.89219E-10 5.57520E-10
 -1       589 1.99020E+03 3.89298E+04 3.90946E+03-1.10823E+05 4.73847E-10-1.87038E-09
 -1       590 5.73871E+03 3.77075E+04 8.38169E+03-1.00885E+05 2.49202E-10-1.77079E-09
 -1       591-2.56470E+04-7.35886E+03-8.55683E+03-1.33170E+04 3.42197E-11 3.97267E-09
 -1       592-2.64473E+04-9.46144E+03-4.63473E+03-1.55497E+04-7.50106E-10-1.48248E-10
 -1       593-2.65119E+04-6.72846E+03-1.92947E+03-1.39347E+04 1.00897E-09-1.12550E-10
 -1       594-2.52545E+04-8.21787E+03-9.62337E+02-1.56088E+04-1.18484E-09 6.26463E-09
 -1       595-2.65780E+04-6.72572E+03-4.42256E+02-1.39630E+04-4.20187E-10 3.28771E-09
 -1       596-2.51737E+04-8.16095E+03-2.25451E+02-1.56002E+04-4.86978E-10 1.39926E-09
 -1       597-2.65863E+04-6.73124E+03-1.24107E+02-1.39641E+04 9.75607E-10 4.85065E-09
 -1       598-2.51660E+04-8.15876E+03-1.02227E+02-1.55979E+04-4.06970E-10 1.92421E-09
 -1       599-2.65858E+04-6.73119E+03-1.33623E+02-1.39639E+04-1.24714E-10-1.01772E-09
 -1       600-2.51749E+04-8.16161E+03-2.50707E+02-1.56003E+04-1.08344E-09 2.35718E-09
 -1       601-2.65756E+04-6.72505E+03-4.95809E+02-1.39623E+04-3.84262E-10-2.97280E-09
 -1       602-2.52659E+04-8.22541E+03-1.08135E+03-1.56090E+04 2.63771E-09 3.88332E-09
 -1       603-2.65007E+04-6.72903E+03-2.16882E+03-1.39308E+04-4.83055E-10 7.26232E-10
 -1       604-2.66112E+04-9.61843E+03-5.21006E+03-1.55364E+04-3.00361E-10 2.94835E-09
 -1       605-2.55228E+04-7.44176E+03-9.61882E+03-1.32413E+04 5.05850E-10-1.13641E-09
 -1       606 1.68426E+04-5.68319E+03-1.02386E+04 1.64789E+04-1.71167E-09 1.59889E-09
 -1       607 1.50894E+04-1.83294E+03-5.09844E+03 1.84984E+04-4.16549E-10 2.40107E-09
 -1       608 1.60891E+04-3.08027E+02-2.28264E+03 1.63473E+04 1.53614E-09 1.99520E-09
 -1       609 1.58928E+04-8.17928E+01-1.15311E+03 1.86438E+04-2.01317E-09 5.14115E-09
 -1       610 1.60023E+04 1.31585E+01-5.50439E+02 1.63327E+04-3.01770E-09 1.59275E-09
 -1       611 1.59668E+04 1.81047E+01-2.77771E+02 1.86597E+04-4.72210E-09-1.57615E-09
 -1       612 1.59821E+04 1.95771E+01-1.32704E+02 1.63312E+04-2.78578E-09-2.77191E-09
 -1       613 1.59699E+04 2.06433E+01-6.06271E+01 1.86617E+04-4.21642E-09-9.54992E-09
 -1       614 1.59721E+04 1.78816E+01-1.69015E+01 1.63307E+04-1.23873E-09-6.69695E-09
 -1       615 1.59663E+04 2.19572E+01 1.86328E+01 1.86620E+04 3.32352E-09-5.79450E-09
 -1       616 1.59645E+04 1.96667E+01 6.21797E+01 1.63308E+04-5.47061E-10-3.85796E-09
 -1       617 1.59725E+04 3.62175E+01 1.44178E+02 1.86617E+04-8.45489E-10 2.27033E-09
 -1       618 1.59508E+04 6.20035E+01 2.91549E+02 1.63309E+04-1.49544E-09-2.77146E-09
 -1       619 1.60747E+04 2.62372E+02 6.55271E+02 1.86613E+04-1.07769E-09 3.24701E-09
 -1       620 1.58533E+04 7.54408E+02 1.31728E+03 1.63305E+04 2.05893E-09 2.14982E-09
 -1       621 2.02511E+02 1.28293E+05 1.75301E+03 4.10449E+03-1.71497E-10-1.02375E-09
 -1       622 2.31888E+02 1.28727E+05 1.49354E+03 5.99087E+03-1.82013E-10-1.10413E-09
 -1       623 1.01319E+01 1.28418E+05 1.72510E+03 4.08511E+03-1.29006E-10 1.16358E-10
 -1       624 7.82947E+02 1.29233E+05 3.28242E+03 6.00993E+03-1.38641E-10 7.90669E-09
 -1       625 7.85974E+02 1.27785E+05 5.70943E+03 4.08561E+03-1.30058E-10-3.57329E-09
 -1       626 1.05835E+05 2.93499E+04 2.08936E+03 5.72688E+04-4.76120E-10-2.99951E-09
 -1       627 1.04380E+05 3.04264E+04 1.00645E+03 5.95850E+04-2.04818E-09-1.39180E-08
 -1       628 1.05918E+05 2.83588E+04 4.25367E+02 5.75842E+04 3.46972E-09 5.74255E-09
 -1       629 1.04081E+05 3.01889E+04 2.08350E+02 5.97264E+04 3.28328E-09 5.20319E-09
 -1       630 1.05926E+05 2.83102E+04 9.65038E+01 5.75942E+04 9.44328E-09-3.89798E-09
 -1       631 1.04047E+05 3.01827E+04 5.18597E+01 5.97300E+04 2.05237E-08-7.67088E-10
 -1       632 1.05923E+05 2.83127E+04 3.44010E+01 5.75909E+04 9.25502E-09-4.23242E-09
 -1       633 1.04041E+05 3.01850E+04 3.85069E+01 5.97274E+04-1.74737E-10-2.26572E-09
 -1       634 1.05919E+05 2.83125E+04 6.25319E+01 5.75889E+04 5.05656E-09 1.20735E-09
 -1       635 1.04044E+05 3.01857E+04 1.26889E+02 5.97278E+04 5.78393E-09 8.28322E-09
 -1       636 1.05912E+05 2.83118E+04 2.56411E+02 5.75873E+04-1.00681E-09 3.65389E-09
 -1       637 1.04096E+05 3.02266E+04 5.63615E+02 5.97251E+04 2.73079E-10-5.86169E-10
 -1       638 1.05890E+05 2.84378E+04 1.15848E+03 5.75290E+04-1.02091E-10-1.34696E-09
 -1       639 1.04701E+05 3.10746E+04 2.74069E+03 5.95442E+04-2.82796E-09-1.82354E-09
 -1       640 1.05807E+05 3.09616E+04 5.68789E+03 5.64573E+04-2.81943E-11-2.10980E-09
 -1       656 2.86960E+04-7.26342E+05-6.92873E+04-5.10301E+02 2.54659E-11-3.54363E-09
 -1       657-3.79165E+04-7.57638E+05-5.72999E+04 4.75156E+03-1.29148E-10 3.27034E-09
 -1       658 9.09731E+03-7.35274E+05-3.51639E+04-9.52950E+02-1.93836E-10 1.16772E-09
 -1       659-4.06481E+04-7.58924E+05-6.08874E+04 5.04304E+03-1.00044E-09-7.37795E-09
 -1       660 3.14201E+04-7.25058E+05-7.54643E+04-8.01778E+02 4.47471E-10 2.42395E-10
 -1       661 1.03242E+05 1.12129E+04 9.89570E+03 4.03053E+04 1.19599E-09-5.65478E-09
 -1       662 1.08368E+05 1.90021E+04 6.66802E+03 3.86156E+04 3.15183E-09-7.20593E-09
 -1       663 1.05178E+05 1.43948E+04 2.33253E+03 3.97497E+04 2.04693E-10 9.89417E-10
 -1       664 1.06130E+05 1.52750E+04 1.39446E+03 3.92884E+04 2.46992E-09-3.46722E-09
 -1       665 1.05465E+05 1.48355E+04 5.50118E+02 3.96719E+04-1.93970E-09-2.04224E-09
 -1       666 1.05795E+05 1.47658E+04 3.20708E+02 3.93859E+04-4.85443E-09 2.03931E-09
 -1       667 1.05510E+05 1.48908E+04 1.69124E+02 3.96572E+04-1.08339E-09-2.82652E-09
 -1       668 1.05749E+05 1.47189E+04 1.69293E+02 3.94055E+04 1.99472E-09 3.76260E-09
 -1       669 1.05511E+05 1.48811E+04 2.26876E+02 3.96527E+04 5.66160E-10 6.71487E-09
 -1       670 1.05811E+05 1.48340E+04 4.91672E+02 3.93995E+04 5.42597E-09 6.08239E-09
 -1       671 1.05449E+05 1.47781E+04 8.72345E+02 3.96623E+04-8.26397E-10-1.06678E-09
 -1       672 1.06324E+05 1.56777E+04 2.23126E+03 3.92712E+04-7.96661E-10-3.14685E-10
 -1       673 1.05000E+05 1.40587E+04 3.73906E+03 3.97729E+04-8.77435E-10-2.86082E-09
 -1       674 1.09889E+05 2.16800E+04 1.06933E+04 3.82197E+04-9.42748E-10 2.71211E-09
 -1       675 1.01907E+05 8.94369E+03 1.58717E+04 4.06505E+04 2.34877E-09 1.98270E-10
 -1       676 1.16940E+01-1.39497E+05-5.43188E+02 1.73426E+01-4.51166E-10 7.19869E-12
 -1       677-1.44183E+02-1.39628E+05-9.94058E+02-3.46796E+01-9.85565E-10-1.90066E-11
 -1       678 9.62683E+01-1.39403E+05-1.75721E+03 1.73250E+01 5.46947E-10 9.22968E-10
 -1       679-1.75742E+03-1.40688E+05-4.17409E+03-3.46015E+01-2.49878E-09-2.44725E-09
 -1       680 1.04875E+03-1.38436E+05-6.72729E+03 1.70653E+01 1.76988E-09 1.96322E-09
 -1       771-1.50056E+06-2.60803E+05-3.64852E+04-6.21051E+05-6.00267E-09-5.03496E-09
 -1       772-1.49117E+06-2.81052E+05-1.96143E+04-6.43600E+05-1.43336E-09 9.26229E-09
 -1       773-1.50535E+06-2.57100E+05-8.39945E+03-6.23095E+05-2.51021E-09 2.59388E-09
 -1       774-1.48583E+06-2.76633E+05-4.10725E+03-6.45493E+05 2.56114E-09-3.83443E-09
 -1       775-1.50629E+06-2.56534E+05-2.03471E+03-6.23217E+05-8.33097E-10 7.43967E-10
 -1       776-1.48566E+06-2.76599E+05-9.49087E+02-6.46381E+05-2.37014E-09 1.09912E-09
 -1       777-1.50689E+06-2.56116E+05-5.62504E+02-6.23264E+05-9.34961E-10 1.04319E-09
 -1       778-1.48580E+06-2.76713E+05-2.57756E+02-6.47111E+05 6.05723E-10 2.31557E-09
 -1       779-1.50735E+06-2.55759E+05-2.40197E+02-6.23305E+05-1.19326E-09-1.79716E-09
 -1       780-1.48595E+06-2.76815E+05-1.98789E+02-6.47701E+05-3.21961E-10 1.67802E-10
 -1       781-1.50770E+06-2.55471E+05-3.50965E+02-6.23332E+05-4.73847E-09-9.04038E-10
 -1       782-1.48612E+06-2.76925E+05-6.54065E+02-6.48136E+05-6.61385E-09-1.87401E-09
 -1       783-1.50789E+06-2.55286E+05-1.30724E+03-6.23337E+05-7.78527E-10-2.76043E-09
 -1       784-1.48698E+06-2.77806E+05-3.10287E+03-6.48367E+05-3.18141E-09-2.18733E-10
 -1       785-1.50744E+06-2.55603E+05-5.73566E+03-6.22927E+05-5.98902E-09 6.88033E-10
 -1       786 1.09116E+05-5.82735E+03 1.34809E+04 1.49354E+00 9.42044E-08 2.78396E-09
 -1       787 1.14958E+05 6.74622E+03 9.53768E+03-7.16868E+00 1.86976E-07 6.51517E-09
 -1       788 1.11370E+05-9.13499E+02 3.48919E+03 2.48805E+00 2.66941E-07-5.34328E-11
 -1       789 1.12333E+05 1.05697E+03 2.19230E+03-9.79317E+00 3.46512E-07 8.18318E-10
 -1       790 1.11742E+05-1.42703E+02 8.92039E+02 4.11807E+00 4.74073E-07-3.99672E-09
 -1       791 1.11899E+05 1.65805E+02 5.23773E+02-1.39878E+01 6.01426E-07 2.34410E-09
 -1       792 1.11804E+05-2.30021E+01 2.39105E+02 6.68275E+00 8.41233E-07-6.48019E-09
 -1       793 1.11828E+05 3.23339E+01 1.56809E+02-2.05226E+01 1.07894E-06 6.51572E-09
 -1       794 1.11812E+05-9.31993E+00 1.16349E+02 1.06530E+01 5.39350E-07-1.66234E-11
 -1       795 1.11835E+05 4.81592E+01 1.68580E+02-3.05870E+01 1.39769E-09 7.90655E-09
 -1       796 1.11797E+05-3.88156E+01 2.52694E+02 1.67474E+01-6.62983E-11 1.72962E-09
 -1       797 1.11950E+05 2.84558E+02 5.95956E+02-4.60057E+01-1.61213E-10-1.37845E-10
 -1       798 1.11698E+05-2.45544E+02 9.40768E+02 2.60719E+01-2.08187E-10 1.40761E-09
 -1       799 1.12656E+05 1.81298E+03 2.56470E+03-6.97244E+01-2.81723E-10 2.38595E-09
 -1       800 1.11092E+05-1.56600E+03 3.62298E+03 4.04663E+01-7.99121E-11 4.88330E-09
 -1       801-6.37066E+03 1.16089E+04 9.97346E+03 1.15991E+04 6.41876E-09-4.74870E-09
 -1       802 1.66251E+04 5.82261E+04 3.19416E+04-4.77916E+04 1.71717E-08-7.57851E-10
 -1       803-9.85647E+03 2.81456E+04 4.09802E+04 1.09907E+04 1.35260E-08 1.03400E-08
 -1       804 7.92718E+04 9.15019E+04 1.14012E+05-4.83160E+04 1.60617E-08 1.43012E-08
 -1       805-6.90368E+04-2.15237E+04 1.48694E+05 1.21225E+04 5.68252E-09 1.57401E-08
 -1       806-1.28405E+05-2.75162E+04-1.09165E+04-5.34762E+04-6.59384E-12 3.46154E-09
 -1       807-1.29047E+05-2.59534E+04-5.36302E+03-5.63715E+04 1.11191E-09 4.61640E-09
 -1       808-1.28715E+05-2.35723E+04-2.27505E+03-5.53282E+04-8.31733E-10 2.47866E-09
 -1       809-1.27902E+05-2.44643E+04-1.11222E+03-5.65263E+04-4.50882E-10 2.34809E-09
 -1       810-1.28763E+05-2.34329E+04-5.09264E+02-5.54100E+04-1.27727E-09-6.93603E-10
 -1       811-1.27815E+05-2.44054E+04-2.52569E+02-5.65136E+04 1.22498E-09 2.58035E-09
 -1       812-1.28772E+05-2.34429E+04-1.25989E+02-5.54101E+04 2.00316E-10-1.52249E-09
 -1       813-1.27804E+05-2.44067E+04-7.94795E+01-5.65073E+04-2.42494E-10-1.00088E-08
 -1       814-1.28772E+05-2.34464E+04-7.44315E+01-5.54087E+04 2.44654E-09 4.81805E-10
 -1       815-1.27806E+05-2.44079E+04-1.16578E+02-5.65061E+04-5.29553E-10-2.23145E-09
 -1       816-1.28765E+05-2.34450E+04-2.18325E+02-5.54075E+04-4.88399E-10-3.46699E-09
 -1       817-1.27844E+05-2.44286E+04-4.68313E+02-5.65030E+04 6.95991E-10-3.67481E-09
 -1       818-1.28738E+05-2.35101E+04-9.54296E+02-5.53769E+04-1.51840E-09-6.85418E-09
 -1       819-1.28372E+05-2.50012E+04-2.24635E+03-5.63763E+04-8.26276E-10-6.58520E-09
 -1       820-1.28557E+05-2.52083E+04-4.57151E+03-5.46534E+04-2.74667E-10 1.15040E-09
 -1       821-1.65951E+05 9.21290E+03-2.13086E+04 9.44953E+00-5.33465E-10 1.44792E-09
 -1       822-1.75184E+05-1.06655E+04-1.50782E+04-1.85423E+02-1.30297E-09 2.58115E-09
 -1       823-1.69515E+05 1.44425E+03-5.51903E+03-2.34952E+01 9.68219E-10-1.49862E-09
 -1       824-1.71033E+05-1.67166E+03-3.47313E+03-1.08066E+02 9.51572E-11-5.45697E-10
 -1       825-1.70102E+05 2.26126E+02-1.42678E+03-6.79100E+01-2.27541E-09 2.24895E-09
 -1       826-1.70349E+05-2.66708E+02-8.62951E+02-1.95260E+01-4.00078E-09 8.26105E-10
 -1       827-1.70198E+05 4.03142E+01-4.45222E+02-1.12037E+02-2.85452E-09 2.08018E-10
 -1       828-1.70255E+05-8.15164E+01-3.95242E+02 5.70872E+01-3.26360E-09-4.19558E-10
 -1       829-1.70196E+05 4.10839E+01-4.51876E+02-1.44525E+02-4.17471E-11 3.13250E-10
 -1       830-1.70356E+05-2.73209E+02-8.83234E+02 1.02081E+02 2.08573E-09 5.22728E-09
 -1       831-1.70097E+05 2.31904E+02-1.46199E+03-1.57031E+02-1.22112E-09-4.03872E-10
 -1       832-1.71057E+05-1.71451E+03-3.56247E+03 1.04160E+02-6.61293E-10-1.02614E-09
 -1       833-1.69495E+05 1.48134E+03-5.66058E+03-1.46603E+02-1.53975E-09-3.84944E-10
 -1       834-1.75313E+05-1.09397E+04-1.54662E+04 6.40885E+01-1.64598E-10-1.78011E-09
 -1       835-1.65842E+05 9.44981E+03-2.18571E+04-1.16956E+02 4.09993E-09-1.29785E-09
 -1       836-5.53418E+02 1.57380E+05 9.47515E+03-1.38142E+04 1.19553E-09 1.34924E-09
 -1       837 2.08178E+03 1.60316E+05 8.08530E+03-2.77618E+04 1.59957E-09 8.69022E-10
 -1       838-2.05616E+02 1.58200E+05 8.33310E+03-1.37660E+04 1.47247E-09-1.49646E-09
 -1       839 5.34240E+03 1.62752E+05 1.58578E+04-2.77796E+04 1.94268E-09 2.59605E-09
 -1       840-1.61010E+03 1.54930E+05 2.53255E+04-1.37956E+04 1.37334E-09 1.29728E-09
 -1       856-5.21134E+04 4.45021E+03-1.17264E+04-2.51090E+02-2.88549E-09-2.42790E-09
 -1       857-5.69584E+04-5.22021E+03-8.07373E+03 2.68968E+03-2.21928E-09-3.05249E-10
 -1       858-5.40275E+04 6.23751E+02-3.04329E+03-2.59633E+02-2.44995E-09 3.62149E-09
 -1       859-5.47592E+04-7.26372E+02-1.83827E+03 2.70308E+03-2.66368E-10-3.17200E-09
 -1       860-5.43139E+04 8.68918E+01-7.72942E+02-2.64556E+02 3.10422E-10-2.38603E-09
 -1       861-5.44288E+04-9.73963E+01-4.30711E+02 2.70975E+03-6.00915E-09 2.26316E-09
 -1       862-5.43586E+04 1.16539E+01-1.89999E+02-2.66310E+02 2.94204E-09-1.97960E-09
 -1       863-5.43761E+04-8.72969E+00-9.40855E+01 2.71054E+03 5.73016E-09-3.90897E-09
 -1       864-5.43667E+04 1.38628E-01-2.97750E+01-2.65344E+02 9.00698E-10-1.62261E-09
 -1       865-5.43614E+04 1.15911E+01 1.68887E+01 2.70556E+03-4.57717E-10-3.16869E-09
 -1       866-5.43727E+04-8.73634E+00 6.30236E+01-2.61334E+02-8.44324E-10-2.04939E-09
 -1       867-5.43253E+04 7.38961E+01 1.73149E+02 2.69472E+03-8.51514E-11 1.58991E-09
 -1       868-5.44016E+04-6.14226E+01 2.92738E+02-2.54501E+02-5.70026E-10-7.74776E-11
 -1       869-5.41072E+04 5.10894E+02 7.85187E+02 2.67613E+03-2.99056E-09-4.65215E-09
 -1       870-5.45890E+04-4.34405E+02 1.13968E+03-2.42746E+02 2.06353E-09-1.42109E-10
 -1       871-2.41368E+03-5.03593E+03-7.88140E+03 5.16746E+04 1.69712E-09 5.41422E-09
 -1       872-1.04566E+03-6.79539E+03-3.20960E+03 6.69914E+04 3.06045E-09 1.11504E-08
 -1       873-1.80573E+01-5.96313E+03 4.69935E+02 5.15599E+04 1.15006E-09 5.68195E-09
 -1       874 1.22424E+03-4.81435E+03 4.49746E+03 6.70157E+04 3.44880E-09 3.30544E-09
 -1       875 2.89483E+03-7.03699E+03 9.96849E+03 5.16537E+04 1.53977E-09-1.23646E-09
 -1       876 1.29445E+05 2.23001E+04 6.94135E+03 5.25088E+04-7.10941E-10 3.32420E-10
 -1       877 1.29839E+05 2.38260E+04 3.70674E+03 5.45655E+04-5.41013E-09-3.59205E-09
 -1       878 1.30095E+05 2.15309E+04 1.55302E+03 5.30785E+04 2.79988E-09 8.00810E-10
 -1       879 1.28895E+05 2.28859E+04 7.73561E+02 5.46161E+04 1.18655E-09 5.49875E-09
 -1       880 1.30143E+05 2.15217E+04 3.60170E+02 5.31018E+04 1.20679E-09-2.23508E-09
 -1       881 1.28832E+05 2.28462E+04 1.91757E+02 5.46073E+04 2.67005E-09-7.67474E-09
 -1       882 1.30148E+05 2.15269E+04 1.21764E+02 5.31024E+04 7.95467E-09-2.42726E-09
 -1       883 1.28828E+05 2.28445E+04 1.29381E+02 5.46050E+04 8.11801E-09 7.37742E-10
 -1       884 1.30146E+05 2.15253E+04 2.04478E+02 5.31025E+04 2.98721E-09-5.97964E-09
 -1       885 1.28844E+05 2.28474E+04 4.10286E+02 5.46104E+04 3.14677E-09-3.68857E-09
 -1       886 1.30130E+05 2.15133E+04 8.26561E+02 5.31009E+04 4.13942E-09 4.14786E-09
 -1       887 1.28989E+05 2.29426E+04 1.80543E+03 5.46310E+04-4.16125E-09 1.89016E-09
 -1       888 1.30015E+05 2.15337E+04 3.63806E+03 5.30432E+04-3.92504E-10 9.78844E-10
 -1       889 1.31158E+05 2.51933E+04 8.69136E+03 5.45615E+04 3.03299E-09 1.66210E-09
 -1       890 1.28532E+05 2.32952E+04 1.62779E+04 5.16563E+04 2.76771E-09 1.75442E-09
 -1       891-7.78904E+01-7.36332E+04-8.66349E+02 1.40146E+04 6.51539E-10 2.20803E-09
 -1       892-1.35738E+02-7.38433E+04-9.43873E+02 2.12119E+04-1.60071E-09 2.35104E-10
 -1       893-1.85791E+01-7.36625E+04-1.34972E+03 1.40171E+04-3.83466E-10 3.32875E-09
 -1       894-7.31205E+02-7.43675E+04-2.80397E+03 2.11371E+04-1.07048E-09-1.11163E-09
 -1       895-5.69105E+02-7.30839E+04-4.94041E+03 1.40887E+04 6.95792E-10-5.22959E-10
 -1       956-1.62569E+05-2.34551E+03-5.90540E+03 1.07429E+04-2.43745E-09 4.75097E-10
 -1       957-1.63734E+05-7.92149E+02-3.03179E+03 1.29312E+04 3.41061E-11 4.33090E-09
 -1       958-1.63090E+05-6.38535E+01-1.36573E+03 1.06732E+04 1.67574E-09-1.15870E-09
 -1       959-1.63182E+05-1.31718E+01-6.97685E+02 1.30066E+04-1.48248E-09 4.77132E-09
 -1       960-1.63135E+05 1.74656E+01-3.39977E+02 1.06668E+04-2.99929E-09 5.60715E-09
 -1       961-1.63140E+05 1.49801E+01-1.80308E+02 1.30137E+04-3.76133E-09 3.17800E-09
 -1       962-1.63143E+05 1.41262E+01-1.02908E+02 1.06660E+04-1.22759E-09 3.45449E-09
 -1       963-1.63136E+05 1.49910E+01-8.21477E+01 1.30148E+04-2.28090E-09-7.57495E-10
 -1       964-1.63144E+05 1.48300E+01-9.90650E+01 1.06657E+04 1.68257E-11-2.05421E-09
 -1       965-1.63142E+05 1.65861E+01-1.70635E+02 1.30148E+04 1.32340E-09 7.63407E-10
 -1       966-1.63139E+05 1.95154E+01-3.19918E+02 1.06660E+04-3.71114E-09-2.59331E-09
 -1       967-1.63185E+05-8.24476E+00-6.55958E+02 1.30108E+04-1.10424E-09 6.15898E-10
 -1       968-1.63100E+05-5.53803E+01-1.28346E+03 1.06697E+04 3.00133E-11-1.16003E-09
 -1       969-1.63707E+05-7.38996E+02-2.84962E+03 1.29669E+04 6.53927E-10 1.47944E-09
 -1       970-1.62611E+05-2.19896E+03-5.55019E+03 1.07111E+04 1.75214E-09 2.01680E-09
 -1       971-1.54531E+05-8.17660E+02-4.54928E+03 7.60989E+03-3.22279E-09 1.17352E-09
 -1       972-1.55637E+05-5.88046E+02-2.47786E+03 1.06182E+04-3.33876E-09 3.15140E-10
 -1       973-1.55035E+05-6.24054E+00-1.10916E+03 7.54777E+03-1.44746E-09 3.06591E-09
 -1       974-1.55110E+05-8.45624E+00-5.74742E+02 1.06848E+04 5.46606E-10 2.42721E-10
 -1       975-1.55072E+05 1.34812E+01-2.86409E+02 7.54281E+03 4.36103E-10 2.96387E-09
 -1       976-1.55077E+05 1.39550E+01-1.64060E+02 1.06905E+04-1.69427E-09 2.95847E-09
 -1       977-1.55078E+05 1.23139E+01-1.16705E+02 7.54200E+03 1.87640E-09 1.86856E-09
 -1       978-1.55077E+05 1.57780E+01-1.33491E+02 1.06916E+04 9.15304E-09 4.84181E-09
 -1       979-1.55077E+05 1.54244E+01-2.11704E+02 7.54168E+03 5.07330E-09 1.11572E-09
 -1       980-1.55092E+05 1.68626E+01-4.07037E+02 1.06917E+04 3.98209E-09 1.40233E-10
 -1       981-1.55064E+05 2.56250E+01-7.87327E+02 7.54189E+03 1.52852E-10 1.21543E-09
 -1       982-1.55201E+05-4.08577E+01-1.62682E+03 1.06889E+04-2.44927E-09 9.13460E-10
 -1       983-1.54966E+05-2.40808E+01-3.16044E+03 7.54461E+03 2.38060E-09-9.26320E-10
 -1       984-1.56722E+05-1.69019E+03-7.07716E+03 1.06467E+04-1.66847E-09-8.49127E-10
 -1       985-1.53537E+05-2.33594E+03-1.29959E+04 7.58616E+03 1.95428E-09 2.98223E-09
 -3
    1PSTEP                         5           3           1          
  100CL  103 3.75000E-01         409                     0    3           1
 -4  DISP        4    1
 -5  D1          1    2    1    0
 -5  D2          1    2    2    0
 -5  D3          1    2    3    0
 -5  ALL         1    2    0    0    1ALL
 -1         1 9.81703E-05 0.00000E+00 0.00000E+00
 -1         2 9.05545E-05 8.26973E-30 0.00000E+00
 -1         3 8.39353E-05-7.89048E-28 6.61744E-24
 -1         5 6.03056E-05 1.45595E-26 0.00000E+00
 -1         8 7.83863E-05-7.16255E-07 0.00000E+00
 -1         9 7.96644E-05 4.79486E-07 0.00000E+00
 -1        10 7.77636E-05-1.14685E-06 3.30872E-24
 -1        12 5.98873E-05 4.09043E-07-8.27181E-25
 -1        15 5.48424E-05-7.80095E-07 0.00000E+00
 -1        16 5.67279E-05 3.74989E-07 0.00000E+00
 -1        17 5.79370E-05-2.41250E-06 0.00000E+00
 -1        18 5.78352E-05 2.12903E-07 0.00000E+00
 -1        19 5.86260E-05 8.19843E-07 0.00000E+00
 -1        20 5.87327E-05 1.20770E-05 0.00000E+00
 -1        21 5.83305E-05 2.28226E-05 1.65436E-24
 -1        24 1.47875E-05-3.24990E-06 0.00000E+00
 -1        25 5.64921E-05 3.06796E-07 0.00000E+00
 -1        26 5.72387E-05 1.14070E-06 0.00000E+00
 -1        27 5.61074E-05 1.02592E-05 0.00000E+00
 -1        28 5.57420E-05 2.24733E-05 0.00000E+00
 -1        32 0.00000E+00 0.00000E+00 0.00000E+00
 -1        33 5.48752E-05 1.52822E-06 0.00000E+00
 -1        34 5.37821E-05 1.02430E-05 0.00000E+00
 -1        35 5.27431E-05 2.22889E-05 0.00000E+00
 -1        51 9.68836E-05-1.18284E-07 0.00000E+00
 -1        52 9.44985E-05-2.33367E-07 0.00000E+00
 -1        53 9.12314E-05-3.49339E-07 0.00000E+00
 -1        54 8.73068E-05-4.67311E-07 0.00000E+00
 -1        55 8.29499E-05-5.87946E-07-3.92911E-24
 -1        56 9.72772E-05-5.71425E-07 0.00000E+00
 -1        57 9.64916E-05-1.53128E-06 0.00000E+00
 -1        58 9.58124E-05-2.76957E-06-2.64698E-23
 -1        59 9.51930E-05-4.18548E-06 0.00000E+00
 -1        60 9.45973E-05-5.66487E-06-2.64698E-23
 -1        61 9.39817E-05-7.09448E-06 0.00000E+00
 -1        62 9.33057E-05-8.36297E-06 0.00000E+00
 -1        63 9.25292E-05-9.36315E-06 0.00000E+00
 -1        64 9.16168E-05-1.00006E-05 2.64698E-23
 -1        65 9.05363E-05-1.01895E-05 1.32349E-23
 -1        66 8.92634E-05-9.86560E-06 2.64698E-23
 -1        67 8.77790E-05-8.97640E-06 0.00000E+00
 -1        68 8.60725E-05-7.49712E-06 2.64698E-23
 -1        69 8.41443E-05-5.41473E-06 0.00000E+00
 -1        70 8.19938E-05-2.74938E-06 0.00000E+00
 -1        86 9.02712E-05 8.59852E-08 0.00000E+00
 -1        87 8.94203E-05 1.71219E-07 8.27181E-25
 -1        88 8.79748E-05 2.55731E-07-1.65436E-24
 -1        89 8.59057E-05 3.36416E-07-5.16988E-26
 -1        90 8.31555E-05 4.16455E-07-3.30872E-24
 -1       121 8.37632E-05-1.90405E-07 0.00000E+00
 -1       122 8.32472E-05-3.80927E-07-3.30872E-24
 -1       123 8.23879E-05-5.71684E-07 0.00000E+00
 -1       124 8.11864E-05-7.62823E-07 0.00000E+00
 -1       125 7.96442E-05-9.54402E-07 0.00000E+00
 -1       191 6.02939E-05 6.81738E-08 0.00000E+00
 -1       192 6.02590E-05 1.36346E-07-1.65436E-24
 -1       193 6.02009E-05 2.04519E-07-3.30872E-24
 -1       194 6.01195E-05 2.72691E-07 0.00000E+00
 -1       195 6.00149E-05 3.40863E-07 0.00000E+00
 -1       251 7.84486E-05 2.53026E-06-3.30872E-24
 -1       252 7.85285E-05 4.44514E-06 0.00000E+00
 -1       253 7.86090E-05 5.26126E-06-1.65436E-24
 -1       254 7.86926E-05 5.20745E-06 8.27181E-25
 -1       255 7.87760E-05 4.47407E-06 1.65436E-24
 -1       256 7.88595E-05 3.24906E-06 0.00000E+00
 -1       257 7.89426E-05 1.69849E-06-3.30872E-24
 -1       258 7.90255E-05-1.27303E-08 0.00000E+00
 -1       259 7.91085E-05-1.72690E-06 0.00000E+00
 -1       260 7.91916E-05-3.28627E-06-1.65436E-24
 -1       261 7.92751E-05-4.52620E-06 1.65436E-24
 -1       262 7.93584E-05-5.28097E-06 0.00000E+00
 -1       263 7.94420E-05-5.36320E-06 0.00000E+00
 -1       264 7.95224E-05-4.58313E-06-1.03398E-25
 -1       265 7.96024E-05-2.71285E-06 0.00000E+00
 -1       266 7.44623E-05-7.36633E-07 0.00000E+00
 -1       267 7.05384E-05-7.46086E-07-8.27181E-25
 -1       268 6.66144E-05-7.56231E-07-8.27181E-25
 -1       269 6.26904E-05-7.64326E-07 0.00000E+00
 -1       270 5.87664E-05-7.72374E-07 0.00000E+00
 -1       271 7.59988E-05 2.21072E-06-2.64698E-23
 -1       272 7.39711E-05 4.07171E-06 0.00000E+00
 -1       273 7.22980E-05 4.99634E-06 0.00000E+00
 -1       274 7.09227E-05 5.11127E-06 0.00000E+00
 -1       275 6.97968E-05 4.56032E-06-2.64698E-23
 -1       276 6.88625E-05 3.49495E-06 0.00000E+00
 -1       277 6.80606E-05 2.07519E-06-2.64698E-23
 -1       278 6.73292E-05 4.66025E-07 1.32349E-23
 -1       279 6.66059E-05-1.16457E-06-2.64698E-23
 -1       280 6.58277E-05-2.64826E-06 0.00000E+00
 -1       281 6.49327E-05-3.81913E-06-2.64698E-23
 -1       282 6.38608E-05-4.51574E-06 1.32349E-23
 -1       283 6.25537E-05-4.58431E-06 0.00000E+00
 -1       284 6.09602E-05-3.87891E-06 1.32349E-23
 -1       285 5.90247E-05-2.26868E-06 0.00000E+00
 -1       301 7.57746E-05 4.57346E-07 0.00000E+00
 -1       302 7.18879E-05 4.46890E-07 0.00000E+00
 -1       303 6.80221E-05 4.36800E-07 0.00000E+00
 -1       304 6.41949E-05 4.25452E-07 0.00000E+00
 -1       305 6.04244E-05 4.12333E-07-6.61744E-24
 -1       306 7.71975E-05 3.36081E-06 2.64698E-23
 -1       307 7.50987E-05 5.14726E-06 0.00000E+00
 -1       308 7.34180E-05 5.83179E-06-2.64698E-23
 -1       309 7.21376E-05 5.42912E-06 1.32349E-23
 -1       310 7.12087E-05 4.08789E-06 2.64698E-23
 -1       311 7.05615E-05 1.98889E-06-2.64698E-23
 -1       312 7.00956E-05-5.96639E-07-5.29396E-23
 -1       313 6.97031E-05-3.37981E-06-2.64698E-23
 -1       314 6.92677E-05-6.04785E-06-5.29396E-23
 -1       315 6.86746E-05-8.29232E-06-1.32349E-23
 -1       316 6.78273E-05-9.85559E-06-2.64698E-23
 -1       317 6.66396E-05-1.05050E-05-1.32349E-23
 -1       318 6.50624E-05-1.01164E-05 0.00000E+00
 -1       319 6.30702E-05-8.60133E-06-1.32349E-23
 -1       320 6.06684E-05-6.01045E-06 2.64698E-23
 -1       336 7.55019E-05-1.35509E-06-6.61744E-24
 -1       337 7.28169E-05-1.56463E-06 0.00000E+00
 -1       338 6.97124E-05-1.77527E-06 6.61744E-24
 -1       339 6.61937E-05-1.98693E-06 0.00000E+00
 -1       340 6.22664E-05-2.20009E-06 0.00000E+00
 -1       406 5.97366E-05 4.77855E-07 0.00000E+00
 -1       407 5.95623E-05 5.46656E-07 0.00000E+00
 -1       408 5.93641E-05 6.15414E-07 3.30872E-24
 -1       409 5.91419E-05 6.84041E-07 0.00000E+00
 -1       410 5.88958E-05 7.52400E-07 0.00000E+00
 -1       521 5.34241E-05 2.19795E-06 0.00000E+00
 -1       522 5.07711E-05 2.06692E-06 0.00000E+00
 -1       523 4.88065E-05 1.13132E-07 0.00000E+00
 -1       524 4.74270E-05-3.44887E-06 0.00000E+00
 -1       525 4.64588E-05-8.11892E-06 0.00000E+00
 -1       526 4.56882E-05-1.33297E-05 2.64698E-23
 -1       527 4.48727E-05-1.84196E-05 0.00000E+00
 -1       528 4.37697E-05-2.27357E-05 0.00000E+00
 -1       529 4.21854E-05-2.57583E-05 5.29396E-23
 -1       530 3.99555E-05-2.70515E-05-2.64698E-23
 -1       531 3.70242E-05-2.64770E-05-5.29396E-23
 -1       532 3.33835E-05-2.40167E-05 0.00000E+00
 -1       533 2.91438E-05-1.99768E-05 0.00000E+00
 -1       534 2.44703E-05-1.47597E-05 0.00000E+00
 -1       535 1.95767E-05-8.97959E-06 0.00000E+00
 -1       536 5.79175E-05 1.63029E-06 0.00000E+00
 -1       537 5.79073E-05 4.70654E-06-8.27181E-25
 -1       538 5.78989E-05 6.90359E-06-8.27181E-25
 -1       539 5.78931E-05 8.30896E-06 0.00000E+00
 -1       540 5.78879E-05 9.01837E-06-2.06795E-25
 -1       541 5.78833E-05 9.12766E-06 0.00000E+00
 -1       542 5.78786E-05 8.73871E-06 0.00000E+00
 -1       543 5.78737E-05 7.95349E-06 1.03398E-25
 -1       544 5.78686E-05 6.87799E-06 0.00000E+00
 -1       545 5.78633E-05 5.61817E-06 0.00000E+00
 -1       546 5.78579E-05 4.28191E-06 0.00000E+00
 -1       547 5.78526E-05 2.97708E-06 0.00000E+00
 -1       548 5.78475E-05 1.81121E-06-2.58494E-26
 -1       549 5.78429E-05 8.91836E-07-5.16988E-26
 -1       550 5.78384E-05 3.24067E-07 4.13590E-25
 -1       551 5.22171E-05-2.53934E-06 0.00000E+00
 -1       552 4.53758E-05-2.67075E-06-8.27181E-25
 -1       553 3.78099E-05-2.80718E-06 1.65436E-24
 -1       554 2.99221E-05-2.94786E-06-3.30872E-24
 -1       555 2.21148E-05-3.09013E-06 0.00000E+00
 -1       556 5.64359E-05 1.47819E-06 1.32349E-23
 -1       557 5.52887E-05 4.45248E-06 0.00000E+00
 -1       558 5.44568E-05 6.59482E-06 0.00000E+00
 -1       559 5.39049E-05 7.99637E-06 0.00000E+00
 -1       560 5.35979E-05 8.74803E-06 0.00000E+00
 -1       561 5.35009E-05 8.94121E-06 0.00000E+00
 -1       562 5.35791E-05 8.66739E-06 0.00000E+00
 -1       563 5.37981E-05 8.01815E-06 0.00000E+00
 -1       564 5.41232E-05 7.08513E-06 0.00000E+00
 -1       565 5.45203E-05 5.95998E-06 0.00000E+00
 -1       566 5.49549E-05 4.73441E-06 0.00000E+00
 -1       567 5.53928E-05 3.50013E-06 2.06795E-25
 -1       568 5.57997E-05 2.34883E-06 0.00000E+00
 -1       569 5.61412E-05 1.37210E-06 0.00000E+00
 -1       570 5.63832E-05 6.61560E-07 0.00000E+00
 -1       571 5.78832E-05 2.82217E-07-8.27181E-25
 -1       572 5.79323E-05 3.18801E-07-2.06795E-25
 -1       573 5.79816E-05 3.28482E-07-1.65436E-24
 -1       574 5.80311E-05 3.17397E-07 4.13590E-25
 -1       575 5.80807E-05 2.91709E-07-1.65436E-24
 -1       576 5.81303E-05 2.57623E-07 0.00000E+00
 -1       577 5.81799E-05 2.21345E-07 0.00000E+00
 -1       578 5.82295E-05 1.89090E-07 0.00000E+00
 -1       579 5.82791E-05 1.67071E-07 0.00000E+00
 -1       580 5.83287E-05 1.61502E-07 0.00000E+00
 -1       581 5.83783E-05 1.78596E-07-3.30872E-24
 -1       582 5.84279E-05 2.24557E-07-3.30872E-24
 -1       583 5.84775E-05 3.05588E-07 0.00000E+00
 -1       584 5.85271E-05 4.27824E-07 0.00000E+00
 -1       585 5.85766E-05 5.97366E-07-3.30872E-24
 -1       586 5.75946E-05 2.29526E-07 0.00000E+00
 -1       587 5.73330E-05 2.45732E-07 0.00000E+00
 -1       588 5.70710E-05 2.61758E-07 0.00000E+00
 -1       589 5.68296E-05 2.77530E-07 0.00000E+00
 -1       590 5.66299E-05 2.92875E-07 0.00000E+00
 -1       591 5.77862E-05 3.07458E-07-1.03398E-25
 -1       592 5.77454E-05 3.74965E-07 0.00000E+00
 -1       593 5.77126E-05 4.20568E-07-4.13590E-25
 -1       594 5.76861E-05 4.48901E-07-2.06795E-25
 -1       595 5.76643E-05 4.64660E-07 0.00000E+00
 -1       596 5.76454E-05 4.72504E-07 2.06795E-25
 -1       597 5.76277E-05 4.77092E-07 4.13590E-25
 -1       598 5.76094E-05 4.83080E-07 2.06795E-25
 -1       599 5.75889E-05 4.95122E-07 0.00000E+00
 -1       600 5.75644E-05 5.17871E-07 1.03398E-25
 -1       601 5.75342E-05 5.55982E-07-2.06795E-25
 -1       602 5.74964E-05 6.14115E-07-2.06795E-25
 -1       603 5.74495E-05 6.96928E-07 0.00000E+00
 -1       604 5.73918E-05 8.09117E-07 0.00000E+00
 -1       605 5.73215E-05 9.55318E-07 0.00000E+00
 -1       606 5.86352E-05 1.15522E-06 0.00000E+00
 -1       607 5.86427E-05 1.56132E-06 0.00000E+00
 -1       608 5.86496E-05 2.03397E-06 0.00000E+00
 -1       609 5.86563E-05 2.56850E-06 0.00000E+00
 -1       610 5.86629E-05 3.16021E-06 0.00000E+00
 -1       611 5.86694E-05 3.80432E-06 0.00000E+00
 -1       612 5.86759E-05 4.49607E-06 0.00000E+00
 -1       613 5.86824E-05 5.23068E-06 0.00000E+00
 -1       614 5.86888E-05 6.00337E-06 0.00000E+00
 -1       615 5.86952E-05 6.80935E-06 0.00000E+00
 -1       616 5.87015E-05 7.64386E-06 0.00000E+00
 -1       617 5.87079E-05 8.50212E-06 0.00000E+00
 -1       618 5.87142E-05 9.37934E-06 0.00000E+00
 -1       619 5.87205E-05 1.02708E-05-2.06795E-25
 -1       620 5.87267E-05 1.11716E-05 0.00000E+00
 -1       621 5.83602E-05 8.73358E-07 0.00000E+00
 -1       622 5.81137E-05 9.27131E-07 8.27181E-25
 -1       623 5.78825E-05 9.80897E-07 0.00000E+00
 -1       624 5.76623E-05 1.03458E-06 0.00000E+00
 -1       625 5.74491E-05 1.08817E-06 1.65436E-24
 -1       626 5.85575E-05 1.17205E-06 0.00000E+00
 -1       627 5.84674E-05 1.58280E-06 0.00000E+00
 -1       628 5.83575E-05 2.04665E-06 0.00000E+00
 -1       629 5.82299E-05 2.55781E-06 0.00000E+00
 -1       630 5.80867E-05 3.11049E-06 0.00000E+00
 -1       631 5.79301E-05 3.69884E-06 0.00000E+00
 -1       632 5.77623E-05 4.31703E-06 3.30872E-24
 -1       633 5.75855E-05 4.95920E-06-8.27181E-25
 -1       634 5.74019E-05 5.61953E-06 0.00000E+00
 -1       635 5.72136E-05 6.29216E-06 8.27181E-25
 -1       636 5.70229E-05 6.97127E-06 0.00000E+00
 -1       637 5.68320E-05 7.65100E-06 0.00000E+00
 -1       638 5.66429E-05 8.32551E-06 0.00000E+00
 -1       639 5.64579E-05 8.98897E-06 4.13590E-25
 -1       640 5.62790E-05 9.63552E-06 0.00000E+00
 -1       656 5.79804E-05 1.17813E-05 3.30872E-24
 -1       657 5.74939E-05 1.14737E-05 3.30872E-24
 -1       658 5.71711E-05 1.11671E-05-6.61744E-24
 -1       659 5.69079E-05 1.08607E-05 0.00000E+00
 -1       660 5.65909E-05 1.05534E-05-3.30872E-24
 -1       661 5.84545E-05 1.29642E-05 0.00000E+00
 -1       662 5.81929E-05 1.38134E-05 0.00000E+00
 -1       663 5.79451E-05 1.46255E-05 0.00000E+00
 -1       664 5.77110E-05 1.54022E-05-8.27181E-25
 -1       665 5.74896E-05 1.61451E-05 0.00000E+00
 -1       666 5.72804E-05 1.68557E-05 0.00000E+00
 -1       667 5.70829E-05 1.75354E-05-1.65436E-24
 -1       668 5.68965E-05 1.81856E-05 0.00000E+00
 -1       669 5.67206E-05 1.88075E-05 0.00000E+00
 -1       670 5.65548E-05 1.94027E-05-8.27181E-25
 -1       671 5.63987E-05 1.99721E-05 1.65436E-24
 -1       672 5.62516E-05 2.05171E-05 0.00000E+00
 -1       673 5.61132E-05 2.10388E-05 1.65436E-24
 -1       674 5.59826E-05 2.15381E-05 0.00000E+00
 -1       675 5.58602E-05 2.20163E-05 0.00000E+00
 -1       676 5.78982E-05 2.27640E-05 0.00000E+00
 -1       677 5.74661E-05 2.27055E-05 0.00000E+00
 -1       678 5.70343E-05 2.26470E-05 1.65436E-24
 -1       679 5.66029E-05 2.25886E-05 0.00000E+00
 -1       680 5.61721E-05 2.25303E-05-1.65436E-24
 -1       771 1.18386E-05 2.33561E-06-2.64698E-23
 -1       772 9.26879E-06 6.90479E-06 1.32349E-23
 -1       773 7.06221E-06 1.05160E-05 0.00000E+00
 -1       774 5.19441E-06 1.32308E-05 0.00000E+00
 -1       775 3.64143E-06 1.51119E-05 0.00000E+00
 -1       776 2.37833E-06 1.62238E-05 0.00000E+00
 -1       777 1.37989E-06 1.66321E-05 2.64698E-23
 -1       778 6.20457E-07 1.64039E-05 0.00000E+00
 -1       779 7.41978E-08 1.56071E-05 2.64698E-23
 -1       780-2.85111E-07 1.43106E-05 0.00000E+00
 -1       781-4.83768E-07 1.25844E-05 0.00000E+00
 -1       782-5.48369E-07 1.04992E-05 0.00000E+00
 -1       783-5.05556E-07 8.12614E-06 0.00000E+00
 -1       784-3.82118E-07 5.53706E-06 0.00000E+00
 -1       785-2.04943E-07 2.80409E-06-2.64698E-23
 -1       786 5.65361E-05 3.03295E-07-4.13590E-25
 -1       787 5.65826E-05 3.02177E-07 0.00000E+00
 -1       788 5.66290E-05 3.03762E-07-1.65436E-24
 -1       789 5.66759E-05 3.08378E-07-8.27181E-25
 -1       790 5.67228E-05 3.16678E-07 1.65436E-24
 -1       791 5.67697E-05 3.29321E-07-8.27181E-25
 -1       792 5.68168E-05 3.47433E-07 0.00000E+00
 -1       793 5.68638E-05 3.72154E-07 0.00000E+00
 -1       794 5.69108E-05 4.05330E-07 1.65436E-24
 -1       795 5.69578E-05 4.48827E-07-8.27181E-25
 -1       796 5.70048E-05 5.05620E-07 0.00000E+00
 -1       797 5.70518E-05 5.78710E-07 0.00000E+00
 -1       798 5.70988E-05 6.72849E-07 0.00000E+00
 -1       799 5.71457E-05 7.92834E-07 8.27181E-25
 -1       800 5.71926E-05 9.46237E-07-8.27181E-25
 -1       801 5.26762E-05 3.09689E-07 0.00000E+00
 -1       802 4.13177E-05 2.57832E-07 0.00000E+00
 -1       803 2.63959E-05 1.63191E-07 3.30872E-24
 -1       804 1.18881E-05 6.90260E-08-3.30872E-24
 -1       805 1.76414E-06 2.55056E-08 0.00000E+00
 -1       806 5.64359E-05 2.71013E-07 0.00000E+00
 -1       807 5.63773E-05 2.35382E-07 8.27181E-25
 -1       808 5.63168E-05 2.03556E-07 0.00000E+00
 -1       809 5.62534E-05 1.78635E-07-8.27181E-25
 -1       810 5.61863E-05 1.63711E-07 1.65436E-24
 -1       811 5.61142E-05 1.61831E-07-8.27181E-25
 -1       812 5.60360E-05 1.76041E-07 0.00000E+00
 -1       813 5.59507E-05 2.09374E-07 0.00000E+00
 -1       814 5.58570E-05 2.64868E-07 0.00000E+00
 -1       815 5.57539E-05 3.45555E-07 8.27181E-25
 -1       816 5.56403E-05 4.54465E-07-1.65436E-24
 -1       817 5.55149E-05 5.94629E-07 8.27181E-25
 -1       818 5.53767E-05 7.69076E-07 8.27181E-25
 -1       819 5.52245E-05 9.80822E-07-4.13590E-25
 -1       820 5.50575E-05 1.23289E-06 1.65436E-24
 -1       821 5.71721E-05 1.36711E-06-8.27181E-25
 -1       822 5.71014E-05 1.61672E-06 8.27181E-25
 -1       823 5.70309E-05 1.90834E-06 0.00000E+00
 -1       824 5.69597E-05 2.26068E-06 0.00000E+00
 -1       825 5.68883E-05 2.68335E-06 0.00000E+00
 -1       826 5.68168E-05 3.18573E-06 0.00000E+00
 -1       827 5.67453E-05 3.76526E-06 0.00000E+00
 -1       828 5.66737E-05 4.41915E-06-8.27181E-25
 -1       829 5.66020E-05 5.13345E-06 0.00000E+00
 -1       830 5.65303E-05 5.89404E-06-8.27181E-25
 -1       831 5.64586E-05 6.67985E-06 0.00000E+00
 -1       832 5.63871E-05 7.46974E-06 0.00000E+00
 -1       833 5.63156E-05 8.24195E-06 0.00000E+00
 -1       834 5.62450E-05 8.97479E-06-8.27181E-25
 -1       835 5.61741E-05 9.65243E-06 0.00000E+00
 -1       836 5.69531E-05 1.20521E-06 1.65436E-24
 -1       837 5.65821E-05 1.27115E-06-8.27181E-25
 -1       838 5.61573E-05 1.33696E-06 0.00000E+00
 -1       839 5.57102E-05 1.40236E-06-4.13590E-25
 -1       840 5.52723E-05 1.46765E-06-2.06795E-25
 -1       856 5.60872E-05 1.08722E-05 0.00000E+00
 -1       857 5.60646E-05 1.15629E-05 0.00000E+00
 -1       858 5.60421E-05 1.23192E-05-4.13590E-25
 -1       859 5.60191E-05 1.31287E-05-2.06795E-25
 -1       860 5.59961E-05 1.39791E-05 0.00000E+00
 -1       861 5.59730E-05 1.48579E-05-4.13590E-25
 -1       862 5.59499E-05 1.57526E-05-8.27181E-25
 -1       863 5.59267E-05 1.66509E-05-4.13590E-25
 -1       864 5.59036E-05 1.75402E-05-8.27181E-25
 -1       865 5.58804E-05 1.84081E-05 0.00000E+00
 -1       866 5.58573E-05 1.92423E-05 0.00000E+00
 -1       867 5.58342E-05 2.00302E-05 4.13590E-25
 -1       868 5.58112E-05 2.07595E-05 0.00000E+00
 -1       869 5.57881E-05 2.14180E-05 4.13590E-25
 -1       870 5.57651E-05 2.19933E-05-8.27181E-25
 -1       871 5.56408E-05 1.02586E-05 4.13590E-25
 -1       872 5.52488E-05 1.02565E-05 0.00000E+00
 -1       873 5.48995E-05 1.02540E-05 0.00000E+00
 -1       874 5.45602E-05 1.02512E-05 1.03398E-25
 -1       875 5.41985E-05 1.02481E-05-6.20385E-25
 -1       876 5.59456E-05 1.08786E-05 1.65436E-24
 -1       877 5.57710E-05 1.15358E-05 8.27181E-25
 -1       878 5.55841E-05 1.22263E-05 0.00000E+00
 -1       879 5.53865E-05 1.29459E-05 8.27181E-25
 -1       880 5.51796E-05 1.36902E-05 1.65436E-24
 -1       881 5.49651E-05 1.44549E-05 0.00000E+00
 -1       882 5.47445E-05 1.52358E-05-1.65436E-24
 -1       883 5.45194E-05 1.60287E-05 0.00000E+00
 -1       884 5.42914E-05 1.68292E-05 1.65436E-24
 -1       885 5.40621E-05 1.76332E-05 0.00000E+00
 -1       886 5.38331E-05 1.84364E-05-1.65436E-24
 -1       887 5.36060E-05 1.92344E-05 8.27181E-25
 -1       888 5.33822E-05 2.00231E-05 1.65436E-24
 -1       889 5.31633E-05 2.07981E-05 8.27181E-25
 -1       890 5.29507E-05 2.15551E-05 0.00000E+00
 -1       891 5.53270E-05 2.24424E-05-8.27181E-25
 -1       892 5.48986E-05 2.24115E-05 4.13590E-25
 -1       893 5.44414E-05 2.23805E-05 4.13590E-25
 -1       894 5.39399E-05 2.23497E-05 0.00000E+00
 -1       895 5.33789E-05 2.23188E-05-2.06795E-25
 -1       956 5.48081E-05 1.91193E-06 0.00000E+00
 -1       957 5.47400E-05 2.33947E-06 0.00000E+00
 -1       958 5.46717E-05 2.80631E-06 1.65436E-24
 -1       959 5.46032E-05 3.30759E-06 0.00000E+00
 -1       960 5.45346E-05 3.83851E-06 1.65436E-24
 -1       961 5.44661E-05 4.39419E-06 0.00000E+00
 -1       962 5.43975E-05 4.96977E-06 0.00000E+00
 -1       963 5.43289E-05 5.56040E-06 8.27181E-25
 -1       964 5.42603E-05 6.16119E-06-1.65436E-24
 -1       965 5.41917E-05 6.76728E-06 8.27181E-25
 -1       966 5.41231E-05 7.37381E-06-1.65436E-24
 -1       967 5.40545E-05 7.97590E-06 0.00000E+00
 -1       968 5.39860E-05 8.56869E-06 0.00000E+00
 -1       969 5.39175E-05 9.14734E-06 0.00000E+00
 -1       970 5.38493E-05 9.70699E-06 0.00000E+00
 -1       971 5.37180E-05 1.07936E-05-1.65436E-24
 -1       972 5.36530E-05 1.14019E-05 0.00000E+00
 -1       973 5.35879E-05 1.20617E-05 1.65436E-24
 -1       974 5.35227E-05 1.27662E-05 8.27181E-25
 -1       975 5.34574E-05 1.35088E-05 0.00000E+00
 -1       976 5.33921E-05 1.42829E-05 8.27181E-25
 -1       977 5.33267E-05 1.50818E-05-1.65436E-24
 -1       978 5.32614E-05 1.58988E-05 8.27181E-25
 -1       979 5.31960E-05 1.67273E-05-1.65436E-24
 -1       980 5.31306E-05 1.75606E-05 0.00000E+00
 -1       981 5.30653E-05 1.83921E-05-1.65436E-24
 -1       982 5.30000E-05 1.92151E-05-8.27181E-25
 -1       983 5.29348E-05 2.00229E-05-1.65436E-24
 -1       984 5.28699E-05 2.08089E-05-8.27181E-25
 -1       985 5.28053E-05 2.15664E-05 0.00000E+00
 -3
    1PSTEP                         6           3           1          
  100CL  103 3.75000E-01         409                     0    3           1
 -4  STRESS      6    1
 -5  SXX         1    4    1    1
 -5  SYY         1    4    2    2
 -5  SZZ         1    4    3    3
 -5  SXY         1    4    1    2
 -5  SYZ         1    4    2    3
 -5  SZX         1    4    3    1
 -1         1-1.29410E+06-5.95024E+05-2.63785E+05-8.37618E+05 3.63798E-12 2.59024E-09
 -1         2 2.17682E+03 2.48961E+05 7.11875E+03 6.00544E+02-1.09964E-10 4.86580E-10
 -1         3-4.73380E+01-5.44091E+05 1.26365E+02-1.49852E+02-1.13936E-10-1.46574E-08
 -1         5-4.42174E+00 1.95062E+05-2.00896E-01-1.96482E+00 1.05402E-10 7.56427E-09
 -1         8-6.09137E+05-2.65455E+05-2.05310E+04-4.62460E+05 7.45786E-11 4.75484E-09
 -1         9-1.04586E+06-2.67898E+05-1.03160E+05-3.59562E+05 2.79833E-09-5.61704E-10
 -1        10-4.22882E+02-5.66829E+05-7.29021E+02-1.00609E+03-2.51430E-09-7.40569E-09
 -1        12-9.93656E-01 1.96058E+05 1.70244E+02 1.77776E+00-3.60160E-10-3.28568E-08
 -1        15 1.61341E+03 8.86659E+02 5.21533E+03 2.73775E+00-2.56023E-10-7.57066E-08
 -1        16-2.94996E+06-9.47533E+05-4.58764E+05-9.62435E+05 8.55168E-09-3.66708E-09
 -1        17-6.51330E+05-4.00028E+05-1.25443E+05-3.76220E+05-4.46598E-09 3.71365E-09
 -1        18 2.11517E+04 1.68603E+03-9.68003E+03-4.59623E+04 5.80940E-10 2.33467E-09
 -1        19 6.11713E+04 7.32420E+04-3.09807E+02 1.19647E+04-4.17458E-10 6.69388E-10
 -1        20-2.53910E+04-2.88760E+05-6.36805E+04 2.13909E+04 2.82868E-09 3.85444E-09
 -1        21-2.73102E+01-1.67440E+05-5.40841E+02-4.96450E+01-2.23586E-09 2.18134E-09
 -1        24-2.59865E+06-8.91580E+05-3.70287E+05-1.08617E+06-1.26238E-08-7.37297E-09
 -1        25 2.36980E+04-3.68791E+02 1.42813E+04-8.30759E+04 2.75941E-10 6.15964E-09
 -1        26-1.41132E+04 4.98128E+04-9.86450E+03-7.14034E+03 1.15688E-09 2.42512E-09
 -1        27-4.62429E+04-1.58441E+05-5.94405E+04 3.57034E+04 4.21422E-09-1.44928E-09
 -1        28 1.29508E+04-4.62501E+04 9.45467E+03 1.48350E+04 3.81166E-09 3.38352E-09
 -1        32-6.15413E+05-8.28495E+04 2.68812E+05-4.17156E+05-1.23764E-08 1.11263E-08
 -1        33-9.05960E+04 4.66122E+04 1.65218E+04-2.70906E+04 8.69344E-10-9.49361E-10
 -1        34-1.17645E+05-1.17087E+04 2.76964E+02 3.61680E+04 2.76435E-09 3.03574E-09
 -1        35-1.31731E+04-1.83889E+04-7.18690E+02 2.91646E+04 2.60375E-09-5.33570E-10
 -1        51 1.13958E+04-3.03367E+05 2.87808E+04-7.55953E+05-2.91038E-11 7.74162E-09
 -1        52 6.55573E+03-3.01766E+05 1.92401E+04-8.81689E+05 7.34872E-10-5.00586E-09
 -1        53 4.64424E+03-3.10517E+05 1.68557E+04-7.53357E+05 7.56700E-10-6.18456E-09
 -1        54 1.39774E+04-3.08610E+05 2.74776E+04-8.84422E+05 3.49246E-10-1.46356E-08
 -1        55 2.93081E+04-3.18878E+05 4.94452E+04-7.52983E+05 7.56700E-10-4.07454E-10
 -1        56-2.48525E+06-2.80617E+05-1.94308E+05-9.58137E+05 7.71252E-10-1.64437E-09
 -1        57-2.56231E+06-4.57355E+05-1.30966E+05-9.51767E+05 4.77939E-10-3.79077E-09
 -1        58-2.52440E+06-3.42027E+05-4.57316E+04-9.45799E+05-8.85848E-10 4.58022E-09
 -1        59-2.51698E+06-3.85376E+05-2.72998E+04-9.66600E+05 8.68567E-10-1.70985E-09
 -1        60-2.53020E+06-3.50512E+05-1.06844E+04-9.44044E+05-1.54409E-09-9.62700E-10
 -1        61-2.51101E+06-3.74675E+05-6.07421E+03-9.67747E+05 1.67290E-10-1.00083E-08
 -1        62-2.53028E+06-3.52470E+05-2.93090E+03-9.44725E+05-2.52840E-10-4.37416E-09
 -1        63-2.51247E+06-3.71030E+05-2.40184E+03-9.65114E+05 2.27919E-09-2.92903E-09
 -1        64-2.52866E+06-3.54169E+05-2.77712E+03-9.46640E+05 4.00860E-10 1.32627E-09
 -1        65-2.51708E+06-3.68114E+05-5.53159E+03-9.60263E+05-8.07972E-10 5.81622E-10
 -1        66-2.52560E+06-3.55462E+05-9.76828E+03-9.49514E+05-3.16049E-11-1.72395E-09
 -1        67-2.52789E+06-3.72319E+05-2.47534E+04-9.52864E+05-2.80937E-09-6.84850E-09
 -1        68-2.51787E+06-3.50238E+05-4.15824E+04-9.53927E+05 8.72205E-10-2.11185E-09
 -1        69-2.57323E+06-4.33584E+05-1.18897E+05-9.34803E+05 1.54614E-09-2.99588E-09
 -1        70-2.48067E+06-2.96059E+05-1.76495E+05-9.66928E+05 7.13044E-10-1.13505E-09
 -1        86-1.09243E+03 2.46723E+05 7.61745E+03-3.00290E+02 9.44510E-10-4.86148E-09
 -1        87 7.24851E+03 2.51449E+05 1.59065E+04 1.23890E+03 1.55978E-09-4.08451E-09
 -1        88-6.15033E+03 2.44238E+05 2.43357E+04-9.38660E+02 2.35923E-09-4.00240E-09
 -1        89 4.58337E+04 2.69472E+05 6.56569E+04 2.68535E+03 3.63070E-09 9.60341E-10
 -1        90-3.95543E+04 2.28715E+05 9.27167E+04-1.74636E+03 4.16912E-09 3.77662E-09
 -1       121-7.87884E+01-5.44329E+05 1.13035E+02 7.48571E+01 2.67967E-10-2.05000E-09
 -1       122-5.70735E+00-5.44064E+05 2.75123E+02-2.99765E+02-1.02900E-09 4.58022E-09
 -1       123-1.08518E+02-5.44359E+05 4.38297E+02 2.24500E+02 8.65725E-10 9.76070E-09
 -1       124 5.01628E+02-5.43755E+05 1.15189E+03-6.94457E+02-1.93847E-09 3.67436E-09
 -1       125-4.37260E+02-5.44646E+05 1.75947E+03 4.69461E+02 1.32468E-09-7.36964E-09
 -1       191-4.92901E+00 1.95079E+05-4.66878E-01 9.82000E-01 1.22697E-10 2.29511E-09
 -1       192-6.71507E+00 1.95062E+05-1.01717E+00-9.04375E+00 1.61748E-10 2.07001E-09
 -1       193-1.19525E+01 1.95080E+05-2.64728E+00 8.05805E+00 1.91562E-10 3.21506E-09
 -1       194-3.11631E+01 1.95056E+05-9.89267E+00-7.01917E+01 1.17097E-10-7.52630E-09
 -1       195-7.97126E+01 1.95084E+05-2.35698E+01 6.21079E+01 2.84217E-10-1.39557E-08
 -1       251 2.22935E+05-3.84163E+04 8.96915E+04 3.80960E+03 1.28921E-10-7.71252E-10
 -1       252 2.63865E+05 4.44437E+04 6.36457E+04-1.21779E+04 5.73294E-10 8.54652E-09
 -1       253 2.38423E+05-5.94728E+03 2.32132E+04 2.57306E+03-6.85645E-10 3.87627E-09
 -1       254 2.45611E+05 6.87053E+03 1.46800E+04-1.02316E+04 4.50484E-10-5.59044E-09
 -1       255 2.41111E+05-9.18373E+02 5.99804E+03 1.86347E+03 1.81387E-10 2.33035E-09
 -1       256 2.42393E+05 1.09067E+03 3.64806E+03-9.18554E+03 3.49061E-10 6.02199E-09
 -1       257 2.41607E+05-1.60439E+02 1.87703E+03 1.52696E+03-2.07663E-10 4.20027E-09
 -1       258 2.41888E+05 3.41140E+02 1.66325E+03-8.84588E+03-5.00856E-10-2.78551E-10
 -1       259 2.41606E+05-1.63505E+02 1.90601E+03 1.52383E+03-6.44064E-10-6.02927E-09
 -1       260 2.42403E+05 1.11758E+03 3.73032E+03-9.17362E+03 2.26080E-10-4.88518E-09
 -1       261 2.41102E+05-9.41872E+02 6.14860E+03 1.85469E+03 3.09171E-10-3.30374E-09
 -1       262 2.45689E+05 7.04783E+03 1.50511E+04-1.02057E+04 5.68150E-11-1.21531E-09
 -1       263 2.38354E+05-6.09991E+03 2.38125E+04 2.55591E+03-9.06084E-10-1.18962E-09
 -1       264 2.64381E+05 4.55866E+04 6.52720E+04-1.21359E+04-2.20780E-09-4.98403E-09
 -1       265 2.22487E+05-3.94009E+04 9.20077E+04 3.78471E+03-1.14517E-09-1.57524E-09
 -1       266-2.92077E+04-1.36566E+04 6.85337E+04-5.85826E+01-4.22006E-10-1.32390E-07
 -1       267 3.38602E+04 1.59184E+04 4.84365E+04 6.75887E+01-9.06766E-10-2.58117E-07
 -1       268-4.54058E+03-2.25442E+03 1.80038E+04-8.61220E+00-7.79437E-10-2.04890E-07
 -1       269 5.36111E+03 2.69814E+03 1.17020E+04 1.00317E+01-5.39444E-10-1.62635E-07
 -1       270-8.04709E+02-4.43323E+02 5.64874E+03-1.36138E+00-4.47471E-10-1.15947E-07
 -1       271-2.87141E+06-3.58327E+05-2.21133E+05-1.11876E+06 1.24055E-09 7.45058E-09
 -1       272-2.93425E+06-5.35965E+05-1.42147E+05-1.13547E+06 9.40304E-10 1.00972E-08
 -1       273-2.91388E+06-4.12510E+05-5.22365E+04-1.10794E+06 1.01500E-09 2.60479E-09
 -1       274-2.88451E+06-4.69712E+05-2.92243E+04-1.15228E+06-1.02773E-10 2.49383E-09
 -1       275-2.92068E+06-4.17111E+05-1.21507E+04-1.10505E+06-2.60115E-10 5.65706E-10
 -1       276-2.87645E+06-4.64387E+05-6.45150E+03-1.15698E+06-2.31285E-09-1.16659E-08
 -1       277-2.92233E+06-4.16792E+05-3.15615E+03-1.10386E+06-1.26784E-09-4.63342E-09
 -1       278-2.87490E+06-4.64553E+05-2.29388E+03-1.15841E+06 2.26748E-10 2.47064E-09
 -1       279-2.92242E+06-4.16755E+05-2.46220E+03-1.10379E+06-1.22941E-09-3.09728E-09
 -1       280-2.87598E+06-4.64283E+05-4.51078E+03-1.15732E+06-6.80984E-10-5.58430E-10
 -1       281-2.92110E+06-4.17202E+05-8.26603E+03-1.10482E+06-1.95541E-11-1.55615E-09
 -1       282-2.88201E+06-4.67161E+05-1.97157E+04-1.15324E+06-1.59162E-11-1.31922E-09
 -1       283-2.91600E+06-4.14668E+05-3.52373E+04-1.10735E+06 6.93944E-10-9.53150E-10
 -1       284-2.91663E+06-5.10492E+05-9.57405E+04-1.14028E+06-1.53932E-09-7.64521E-09
 -1       285-2.88659E+06-3.79048E+05-1.49078E+05-1.11554E+06 1.51158E-09-6.13363E-09
 -1       301 1.10309E+04-6.67151E+03 8.58581E+04-2.13693E+04-6.40284E-10-5.16638E-09
 -1       302 1.18644E+04 1.51017E+04 6.20652E+04-3.14668E+04 1.28966E-09-9.57471E-10
 -1       303 5.46684E+02 1.03006E+03 5.72392E+04-2.14270E+04-5.39330E-10-2.53385E-09
 -1       304 2.24233E+04 2.48476E+04 9.63984E+04-3.13757E+04 1.00408E-09 2.15368E-09
 -1       305 2.22151E+04-1.63470E+04 1.61846E+05-2.13921E+04-9.31323E-10 4.50018E-09
 -1       306-3.08215E+06-3.56916E+05-2.35198E+05-1.20548E+06 1.38971E-09-8.81846E-09
 -1       307-3.20437E+06-5.54489E+05-1.60337E+05-1.16325E+06 3.83807E-09-2.13913E-09
 -1       308-3.13711E+06-4.28536E+05-5.53574E+04-1.18172E+06 5.81167E-10-9.05857E-10
 -1       309-3.13537E+06-4.76594E+05-3.34749E+04-1.19744E+06 2.34749E-10 2.54204E-09
 -1       310-3.15084E+06-4.33373E+05-1.29980E+04-1.17179E+06-2.08627E-09-1.47884E-09
 -1       311-3.11737E+06-4.73322E+05-7.51016E+03-1.21195E+06 3.39469E-09 2.86263E-09
 -1       312-3.15523E+06-4.31476E+05-3.67577E+03-1.16741E+06-8.91703E-10-1.45246E-09
 -1       313-3.11384E+06-4.74331E+05-3.31049E+03-1.21541E+06-1.45701E-09-6.46452E-10
 -1       314-3.15443E+06-4.32294E+05-3.99250E+03-1.16839E+06-7.50447E-10-8.77912E-09
 -1       315-3.12044E+06-4.70546E+05-8.37771E+03-1.20826E+06-9.27230E-10-6.13807E-09
 -1       316-3.14851E+06-4.35385E+05-1.46927E+04-1.17444E+06 3.11343E-09-2.02908E-09
 -1       317-3.14175E+06-4.73474E+05-3.78668E+04-1.19102E+06 1.21551E-09-8.14907E-10
 -1       318-3.13302E+06-4.29715E+05-6.26400E+04-1.18544E+06-2.14277E-09 4.76211E-09
 -1       319-3.21877E+06-5.63044E+05-1.81536E+05-1.15407E+06-2.21553E-09-2.79397E-09
 -1       320-3.07191E+06-3.47374E+05-2.66149E+05-1.21089E+06 6.35555E-09 1.45519E-10
 -1       336 4.10373E+02-5.89270E+05-3.15402E+03 5.35738E+02-5.26666E-09-3.61979E-10
 -1       337-1.14206E+03-5.90103E+05-3.45584E+03-1.40488E+03-9.82482E-09-9.09449E-09
 -1       338 2.68963E+02-5.89360E+05-4.37156E+03 8.66570E+02-6.79097E-09-4.03816E-10
 -1       339-4.52080E+03-5.92184E+05-9.56577E+03-2.05935E+03-1.23273E-08 3.06227E-09
 -1       340 3.06205E+03-5.87224E+05-1.47509E+04 1.18609E+03-8.30278E-09 1.13532E-08
 -1       406 7.99889E+01 1.97033E+05 4.42381E+02-6.39269E+01-7.39419E-10-1.27893E-08
 -1       407 1.34207E+02 1.97111E+05 7.67248E+02 6.52557E+01-5.13865E-10-5.85510E-09
 -1       408 3.57992E+02 1.96988E+05 1.45111E+03-1.21790E+00-9.54572E-10-2.69847E-09
 -1       409 1.51589E+03 1.97564E+05 3.22537E+03-5.98250E+01-6.37101E-10 2.00907E-09
 -1       410 4.38158E+03 1.96579E+05 6.56082E+03 6.30922E+01-1.16870E-09-2.15823E-09
 -1       521-5.83614E+06-6.74141E+05-4.37394E+05-2.27027E+06 4.53292E-09-1.10595E-09
 -1       522-6.03930E+06-1.05637E+06-2.96840E+05-2.21682E+06 1.62254E-09 1.03319E-09
 -1       523-5.94539E+06-7.97115E+05-1.02877E+05-2.21722E+06 2.21098E-09-2.18279E-09
 -1       524-5.90362E+06-9.22691E+05-6.18335E+04-2.29127E+06 3.26543E-09 1.91085E-09
 -1       525-5.97141E+06-8.04098E+05-2.39418E+04-2.19728E+06 2.31171E-09 1.22691E-09
 -1       526-5.87729E+06-9.10368E+05-1.37786E+04-2.31030E+06 3.55840E-11-7.52038E-10
 -1       527-5.97191E+06-8.08674E+05-6.67731E+03-2.19860E+06 1.80989E-10 6.65580E-10
 -1       528-5.89149E+06-8.89587E+05-5.42690E+03-2.28951E+06-3.15981E-09 1.00545E-09
 -1       529-5.95653E+06-8.25264E+05-6.98345E+03-2.21761E+06-2.63799E-09 2.62298E-09
 -1       530-5.93156E+06-8.52810E+05-1.32032E+04-2.24246E+06-3.59978E-09 1.90744E-09
 -1       531-5.93120E+06-8.45977E+05-2.42259E+04-2.24513E+06-3.49291E-09-1.36424E-10
 -1       532-5.99137E+06-8.33449E+05-6.12093E+04-2.18895E+06 1.75476E-09-9.45874E-09
 -1       533-5.89737E+06-8.44806E+05-1.01950E+05-2.27132E+06 4.15275E-09-5.94082E-09
 -1       534-6.12100E+06-9.75241E+05-2.95091E+05-2.12812E+06 1.87447E-09 1.06775E-08
 -1       535-5.80360E+06-7.06762E+05-4.33648E+05-2.30570E+06-7.86531E-09 8.90577E-09
 -1       536-2.08565E+04-1.60196E+04 3.68716E+04 2.92398E+02-1.68808E-09 7.27596E-09
 -1       537-3.58087E+03 1.85345E+04 2.63067E+04-1.33651E+03-6.09332E-09 3.24371E-09
 -1       538-1.45187E+04-2.51125E+03 9.50287E+03 3.02159E+02 2.75421E-10-2.39515E-09
 -1       539-1.10768E+04 2.89767E+03 6.09330E+03-1.38471E+03 2.92084E-09-3.01191E-09
 -1       540-1.33699E+04-3.90917E+02 2.39410E+03 3.40587E+02-2.29164E-10 2.29159E-09
 -1       541-1.25014E+04 4.46234E+02 1.44384E+03-1.45295E+03-7.14078E-10 2.17068E-09
 -1       542-1.31000E+04-5.75086E+01 5.68901E+02 3.70391E+02-5.24594E-10-1.51999E-10
 -1       543-1.28697E+04 5.33747E+01 2.86583E+02-1.50026E+03-7.80183E-10-2.94357E-09
 -1       544-1.30056E+04 4.57845E+00 2.76314E+01 3.87892E+02-9.81188E-10-4.64357E-09
 -1       545-1.30217E+04-8.16744E+01-2.00939E+02-1.52243E+03-3.25385E-10-3.13022E-09
 -1       546-1.29500E+04 7.88440E+01-4.51552E+02 3.92561E+02 4.01712E-10 2.99323E-09
 -1       547-1.32543E+04-5.81616E+02-1.18457E+03-1.51877E+03-2.07803E-09 2.50166E-09
 -1       548-1.27726E+04 5.03918E+02-1.92191E+03 3.84235E+02-1.71940E-09 5.90296E-09
 -1       549-1.45992E+04-3.71378E+03-5.23358E+03-1.48782E+03-9.88321E-10 2.58206E-09
 -1       550-1.16024E+04 3.20670E+03-7.46242E+03 3.61609E+02 1.62800E-10 1.71622E-09
 -1       551 5.73200E+03-3.08986E+05 1.69887E+04-5.29888E+05-2.29447E-08 1.19326E-09
 -1       552 1.20524E+04-3.09753E+05 2.22737E+04-7.54112E+05-1.80153E-08 9.34233E-09
 -1       553 7.90842E+03-3.13808E+05 3.47374E+04-5.28169E+05-2.80779E-08 6.20275E-09
 -1       554 2.92968E+04-2.98972E+05 7.38195E+04-7.54836E+05-1.74041E-08 3.83727E-09
 -1       555 2.92978E+04-3.27888E+05 1.32641E+05-5.28859E+05-2.79542E-08-4.94038E-09
 -1       556 4.38844E+04-9.91759E+04 3.41492E+04-1.31867E+05-4.99858E-09 2.16096E-09
 -1       557 8.40976E+04-1.32826E+05 1.78939E+04-1.64813E+05-1.29512E-09 5.56315E-09
 -1       558 4.41450E+04-1.03956E+05 7.29810E+03-1.27730E+05-3.39787E-09 1.01318E-09
 -1       559 7.91012E+04-1.37634E+05 3.68388E+03-1.66911E+05 3.84898E-09 9.20863E-10
 -1       560 4.32555E+04-1.03352E+05 1.55559E+03-1.28261E+05 9.82254E-10 4.38376E-09
 -1       561 7.76087E+04-1.37318E+05 8.12200E+02-1.67847E+05 4.07454E-10 5.84259E-09
 -1       562 4.25173E+04-1.02846E+05 3.22567E+02-1.28796E+05-6.58474E-10 2.20325E-10
 -1       563 7.67310E+04-1.36943E+05 1.92092E+02-1.68408E+05 3.91083E-10-1.05013E-08
 -1       564 4.20589E+04-1.02547E+05 6.99700E+01-1.29124E+05 3.43243E-09-8.36280E-10
 -1       565 7.62800E+04-1.36752E+05 3.70472E+01-1.68690E+05 3.48791E-09 3.84989E-09
 -1       566 4.19010E+04-1.02440E+05-2.19478E+01-1.29239E+05 5.76620E-10-1.24237E-09
 -1       567 7.62224E+04-1.36723E+05-9.54238E+01-1.68677E+05 7.88941E-09 2.78669E-09
 -1       568 4.20692E+04-1.02552E+05-2.56972E+02-1.29168E+05 9.82254E-11 2.36287E-09
 -1       569 7.60534E+04-1.36608E+05-6.03913E+02-1.67935E+05-2.18279E-09 2.66664E-09
 -1       570 4.29784E+04-1.03417E+05-1.25936E+03-1.29210E+05-3.30692E-09-7.03676E-09
 -1       571 1.41420E+05 5.12556E+03 7.59414E+03-3.56211E+04 4.39741E-10 3.09456E-09
 -1       572 1.42551E+05 1.78253E+03 3.72048E+03-3.90468E+04 1.71417E-09 4.50018E-09
 -1       573 1.41876E+05 4.24675E+02 1.65276E+03-3.55280E+04 1.94177E-09 1.84650E-09
 -1       574 1.42011E+05 1.37571E+02 8.27959E+02-3.91510E+04 3.38673E-10 1.03228E-09
 -1       575 1.41928E+05 1.83254E+01 3.90163E+02-3.55157E+04 2.02658E-09 4.02133E-09
 -1       576 1.41937E+05 4.44991E+00 1.98490E+02-3.91649E+04 3.83011E-10 5.78211E-09
 -1       577 1.41936E+05-3.43961E+00 9.76440E+01-3.55140E+04-4.44516E-09 3.70937E-09
 -1       578 1.41929E+05-1.86257E+00 5.29791E+01-3.91666E+04-3.27293E-09 3.61661E-09
 -1       579 1.41943E+05-4.07258E+00 3.20104E+01-3.55140E+04-8.52197E-10-4.96584E-10
 -1       580 1.41938E+05-4.92975E+00 2.91904E+01-3.91644E+04-4.56566E-10-4.08136E-09
 -1       581 1.41954E+05-7.76407E+00 3.89364E+01-3.55162E+04 2.26464E-10-4.15389E-09
 -1       582 1.41960E+05-1.81226E+00 7.35862E+01-3.91432E+04 1.27511E-09-2.69301E-09
 -1       583 1.41968E+05 1.68528E+01 1.40981E+02-3.55352E+04 8.73115E-10-3.82977E-09
 -1       584 1.42029E+05 1.26912E+02 3.15830E+02-3.89846E+04-1.38425E-09-5.57350E-09
 -1       585 1.41950E+05 4.05835E+02 6.41481E+02-3.56750E+04 3.02862E-10-4.89672E-09
 -1       586-1.74237E+03 4.62078E+04-2.30816E+03-1.21087E+05 3.54248E-10-2.45439E-09
 -1       587-3.79056E+02 4.58986E+04-2.73638E+02-1.33246E+05 6.03904E-10 1.38544E-09
 -1       588 4.76877E+02 4.59595E+04 1.60345E+03-1.21013E+05 3.68345E-10 3.07591E-09
 -1       589 2.39556E+03 4.68383E+04 4.69176E+03-1.33136E+05 5.70253E-10-1.35560E-09
 -1       590 6.88730E+03 4.53790E+04 1.00552E+04-1.21198E+05 2.52840E-10-1.31695E-09
 -1       591-3.08859E+04-8.85215E+03-1.02811E+04-1.60273E+04 2.48690E-10-4.44106E-09
 -1       592-3.18474E+04-1.13784E+04-5.56866E+03-1.87099E+04 1.83945E-10-9.85324E-10
 -1       593-3.19253E+04-8.09463E+03-2.31828E+03-1.67696E+04-6.02654E-10 2.85922E-10
 -1       594-3.04145E+04-9.88419E+03-1.15625E+03-1.87811E+04 7.64430E-10 3.65389E-09
 -1       595-3.20048E+04-8.09125E+03-5.31369E+02-1.68036E+04-1.37715E-09-2.08359E-09
 -1       596-3.03174E+04-9.81577E+03-2.70869E+02-1.87709E+04-7.04446E-10 1.71602E-09
 -1       597-3.20149E+04-8.09785E+03-1.49104E+02-1.68049E+04-1.35707E-09-6.72179E-09
 -1       598-3.03082E+04-9.81314E+03-1.22810E+02-1.87681E+04-1.65596E-09-6.37328E-10
 -1       599-3.20142E+04-8.09783E+03-1.60534E+02-1.68047E+04 3.54703E-11-5.27234E-09
 -1       600-3.03187E+04-9.81661E+03-3.01186E+02-1.87708E+04-8.36280E-10-1.83491E-10
 -1       601-3.20017E+04-8.09058E+03-5.95667E+02-1.68027E+04 5.28871E-10-2.22076E-09
 -1       602-3.04278E+04-9.89331E+03-1.29909E+03-1.87811E+04 3.95971E-10-2.85786E-09
 -1       603-3.19115E+04-8.09553E+03-2.60558E+03-1.67648E+04-1.39448E-09-2.90402E-09
 -1       604-3.20437E+04-1.15669E+04-6.25915E+03-1.86936E+04-2.22713E-10-5.56611E-10
 -1       605-3.07364E+04-8.95189E+03-1.15557E+04-1.59362E+04 1.36333E-09 6.23004E-11
 -1       606 2.02209E+04-6.82533E+03-1.22941E+04 1.97666E+04-3.03407E-09 1.53295E-09
 -1       607 1.81155E+04-2.20132E+03-6.12193E+03 2.21890E+04-8.37645E-10-2.96495E-09
 -1       608 1.93135E+04-3.70257E+02-2.74115E+03 1.96088E+04 2.23736E-09-4.42856E-09
 -1       609 1.90768E+04-9.70763E+01-1.38463E+03 2.23632E+04-4.98858E-10 3.26418E-09
 -1       610 1.92066E+04 1.70415E+01-6.61155E+02 1.95912E+04-3.98359E-09 4.74893E-09
 -1       611 1.91628E+04 2.44533E+01-3.33574E+02 2.23823E+04-7.33235E-09 6.99674E-09
 -1       612 1.91800E+04 2.61668E+01-1.59495E+02 1.95894E+04-3.53884E-09 2.54909E-09
 -1       613 1.91642E+04 2.88105E+01-7.28239E+01 2.23845E+04-4.63524E-09 1.62663E-09
 -1       614 1.91662E+04 2.52678E+01-2.03838E+01 1.95888E+04-9.78616E-10-3.71983E-10
 -1       615 1.91581E+04 3.14061E+01 2.23644E+01 2.23849E+04 4.12729E-09 1.90084E-10
 -1       616 1.91557E+04 2.82628E+01 7.46175E+01 1.95890E+04-2.00180E-09 3.25144E-10
 -1       617 1.91642E+04 4.92536E+01 1.73115E+02 2.23846E+04 3.81988E-11 1.91039E-09
 -1       618 1.91384E+04 7.96608E+01 3.50041E+02 1.95891E+04-2.25100E-10 5.49926E-09
 -1       619 1.92860E+04 3.21217E+02 7.86758E+02 2.23841E+04-1.01340E-09 1.38812E-09
 -1       620 1.90209E+04 9.11271E+02 1.58158E+03 1.95885E+04 2.24065E-09-1.78534E-09
 -1       621 2.42995E+02 1.54055E+05 2.10764E+03 4.97085E+03-1.57335E-10 1.30296E-09
 -1       622 2.78202E+02 1.54577E+05 1.79534E+03 7.25791E+03-1.48816E-10-5.34249E-09
 -1       623 1.17866E+01 1.54204E+05 2.07320E+03 4.94746E+03-1.95712E-10 4.46505E-09
 -1       624 9.40278E+02 1.55184E+05 3.94432E+03 7.28080E+03-2.01197E-10 4.76325E-09
 -1       625 9.44147E+02 1.53444E+05 6.86053E+03 4.94819E+03-1.61890E-10 4.71411E-09
 -1       626 1.27025E+05 3.52238E+04 2.50238E+03 6.87356E+04-3.51520E-10-3.25690E-09
 -1       627 1.25278E+05 3.65173E+04 1.20555E+03 7.15130E+04-1.84446E-09 4.08920E-09
 -1       628 1.27123E+05 3.40373E+04 5.09369E+02 6.91122E+04 1.91358E-09 1.43064E-09
 -1       629 1.24918E+05 3.62337E+04 2.49586E+02 7.16810E+04 1.93177E-09 2.71137E-09
 -1       630 1.27131E+05 3.39801E+04 1.15527E+02 6.91232E+04 9.02492E-09-4.53423E-09
 -1       631 1.24875E+05 3.62269E+04 6.21497E+01 7.16841E+04 1.96433E-08 4.05801E-09
 -1       632 1.27126E+05 3.39838E+04 4.12149E+01 6.91184E+04 8.51242E-09-4.87105E-09
 -1       633 1.24867E+05 3.62302E+04 4.62184E+01 7.16801E+04-7.23958E-10 5.83918E-09
 -1       634 1.27120E+05 3.39840E+04 7.50548E+01 6.91156E+04 4.36535E-09-1.08400E-09
 -1       635 1.24871E+05 3.62312E+04 1.52329E+02 7.16801E+04 8.09905E-10-7.71797E-09
 -1       636 1.27112E+05 3.39833E+04 3.07787E+02 6.91134E+04 2.21428E-09 7.88282E-09
 -1       637 1.24933E+05 3.62802E+04 6.76528E+02 7.16769E+04 5.12044E-09 5.22982E-09
 -1       638 1.27085E+05 3.41344E+04 1.39051E+03 6.90436E+04 1.16188E-09-2.32740E-09
 -1       639 1.25660E+05 3.72979E+04 3.28958E+03 7.14601E+04 1.29944E-10-3.99405E-09
 -1       640 1.26986E+05 3.71631E+04 6.82690E+03 6.77574E+04-1.19871E-09 1.37243E-09
 -1       656 3.44459E+04-8.71798E+05-8.31638E+04-4.77346E+02 9.13133E-10 2.59627E-09
 -1       657-4.55147E+04-9.09351E+05-6.87752E+04 5.68837E+03 5.53882E-10-1.73600E-10
 -1       658 1.09205E+04-8.82514E+05-4.22042E+04-1.11637E+03 4.70209E-10 3.30602E-09
 -1       659-4.87935E+04-9.10898E+05-7.30816E+04 6.11072E+03 5.86624E-10 2.30430E-09
 -1       660 3.77161E+04-8.70254E+05-9.05757E+04-8.99681E+02-8.00355E-11 4.60645E-10
 -1       661 1.23862E+05 1.34678E+04 1.18739E+04 4.83769E+04 1.58752E-09-2.14641E-10
 -1       662 1.30027E+05 2.28010E+04 8.00101E+03 4.63349E+04 4.41787E-10 3.66765E-09
 -1       663 1.26187E+05 1.72841E+04 2.79882E+03 4.77084E+04 1.48327E-09-1.43723E-09
 -1       664 1.27339E+05 1.83319E+04 1.67326E+03 4.71456E+04-2.48765E-09 3.05715E-09
 -1       665 1.26533E+05 1.78116E+04 6.60083E+02 4.76135E+04-3.31258E-09 3.15083E-10
 -1       666 1.26934E+05 1.77234E+04 3.84853E+02 4.72654E+04-5.32665E-09-2.89535E-09
 -1       667 1.26589E+05 1.78767E+04 2.02922E+02 4.75945E+04-4.84889E-10-5.89244E-10
 -1       668 1.26877E+05 1.76694E+04 2.03162E+02 4.72915E+04 1.22269E-09-1.29452E-09
 -1       669 1.26591E+05 1.78640E+04 2.72222E+02 4.75879E+04 2.56232E-09 6.01779E-09
 -1       670 1.26949E+05 1.78095E+04 5.89984E+02 4.72866E+04 7.68694E-09 7.05825E-09
 -1       671 1.26517E+05 1.77395E+04 1.04673E+03 4.75983E+04-1.36417E-09-4.43919E-09
 -1       672 1.27563E+05 1.88237E+04 2.67730E+03 4.71347E+04-3.08239E-09 5.62835E-09
 -1       673 1.25980E+05 1.68754E+04 4.48651E+03 4.77301E+04-3.97392E-10 4.12683E-10
 -1       674 1.31838E+05 2.60273E+04 1.28307E+04 4.58749E+04 7.54881E-11-5.25324E-09
 -1       675 1.22269E+05 1.07374E+04 1.90445E+04 4.87823E+04 1.77124E-09-1.65437E-09
 -1       676 1.40367E+01-1.67395E+05-6.51850E+02 2.48231E+01 4.32721E-10 5.37927E-09
 -1       677-1.73016E+02-1.67553E+05-1.19293E+03-4.96327E+01-3.98808E-09 4.00981E-09
 -1       678 1.15538E+02-1.67283E+05-2.10877E+03 2.47924E+01-1.57195E-09 4.24273E-09
 -1       679-2.10908E+03-1.68826E+05-5.00924E+03-4.95043E+01-4.84624E-09 2.84201E-09
 -1       680 1.25865E+03-1.66123E+05-8.07327E+03 2.44100E+01 3.11957E-10 8.48829E-10
 -1       771-1.79985E+06-3.13599E+05-4.39274E+04-7.45318E+05-7.50151E-09-6.71571E-09
 -1       772-1.78878E+06-3.37424E+05-2.35827E+04-7.71856E+05-4.37649E-09 2.11003E-09
 -1       773-1.80575E+06-3.09030E+05-1.01583E+04-7.47777E+05 1.96451E-09 7.77436E-09
 -1       774-1.78241E+06-3.32188E+05-4.95066E+03-7.74374E+05 6.80302E-09-3.81078E-10
 -1       775-1.80703E+06-3.08224E+05-2.49489E+03-7.47932E+05-2.35013E-09 9.80435E-10
 -1       776-1.78225E+06-3.32193E+05-1.15213E+03-7.75663E+05-1.97906E-09 1.70985E-09
 -1       777-1.80790E+06-3.07610E+05-7.10781E+02-7.48000E+05 6.47560E-10 1.29512E-09
 -1       778-1.78246E+06-3.32363E+05-3.17019E+02-7.76730E+05-5.16593E-10 2.90265E-09
 -1       779-1.80857E+06-3.07087E+05-3.09979E+02-7.48060E+05-1.74623E-09-2.07183E-09
 -1       780-1.78269E+06-3.32510E+05-2.42286E+02-7.77594E+05-2.16642E-09 8.18545E-11
 -1       781-1.80908E+06-3.06667E+05-4.32237E+02-7.48103E+05-5.78075E-09-1.04092E-09
 -1       782-1.78292E+06-3.32656E+05-7.86573E+02-7.78229E+05-7.09224E-09-2.20484E-09
 -1       783-1.80938E+06-3.06394E+05-1.57424E+03-7.48116E+05-1.11322E-09-3.06773E-09
 -1       784-1.78398E+06-3.33724E+05-3.72883E+03-7.78574E+05-4.25644E-09-1.35515E-10
 -1       785-1.80887E+06-3.06750E+05-6.89477E+03-7.47628E+05-7.70797E-09 8.76753E-10
 -1       786 1.31326E+05-7.00243E+03 1.61997E+04 3.20615E-01 1.83790E-07 2.59206E-10
 -1       787 1.38346E+05 8.10661E+03 1.14611E+04-4.62446E+00 3.65640E-07 5.28189E-09
 -1       788 1.34035E+05-1.09771E+03 4.19290E+03 2.04326E+00 4.73937E-07 2.28374E-09
 -1       789 1.35191E+05 1.27011E+03 2.63445E+03-8.65961E+00 5.82424E-07 6.71136E-09
 -1       790 1.34482E+05-1.71481E+02 1.07199E+03 4.35580E+00 7.59529E-07-4.81663E-09
 -1       791 1.34669E+05 1.99248E+02 6.29477E+02-1.43998E+01 9.37561E-07 8.11926E-09
 -1       792 1.34556E+05-2.76473E+01 2.87450E+02 7.78360E+00 1.28340E-06-1.51112E-08
 -1       793 1.34585E+05 3.89055E+01 1.88692E+02-2.31304E+01 1.62688E-06-8.00355E-10
 -1       794 1.34566E+05-1.12440E+01 1.40277E+02 1.30865E+01 8.13716E-07-9.08696E-09
 -1       795 1.34594E+05 5.82057E+01 2.03642E+02-3.67739E+01 2.61523E-09 2.92981E-09
 -1       796 1.34548E+05-4.69333E+01 3.05480E+02 2.14274E+01 1.95515E-10-6.13591E-09
 -1       797 1.34732E+05 3.44102E+02 7.20649E+02-5.83276E+01-4.87421E-11-2.50202E-09
 -1       798 1.34427E+05-2.96929E+02 1.13764E+03 3.46406E+01-2.24551E-10-2.44779E-09
 -1       799 1.35586E+05 2.19241E+03 3.10151E+03-9.27379E+01-4.91424E-10-9.77650E-10
 -1       800 1.33694E+05-1.89375E+03 4.38121E+03 5.58379E+01-1.56522E-10 1.17211E-09
 -1       801-8.24352E+03 1.04412E+04 1.10575E+04 1.40454E+04 7.73889E-09-1.27056E-09
 -1       802 2.04266E+04 7.58077E+04 3.93905E+04-5.78413E+04 2.07415E-08-7.46019E-09
 -1       803-1.16038E+04 3.52753E+04 4.93044E+04 1.31133E+04 1.62599E-08 1.34646E-08
 -1       804 9.57206E+04 1.16917E+05 1.38142E+05-5.86062E+04 1.93450E-08 1.53920E-08
 -1       805-8.35791E+04-3.04598E+04 1.77332E+05 1.48085E+04 6.80302E-09 2.00008E-08
 -1       806-1.54065E+05-3.30466E+04-1.31135E+04-6.41951E+04 1.10276E-10-3.05135E-10
 -1       807-1.54833E+05-3.11725E+04-6.44235E+03-6.76764E+04 2.61343E-09 6.24118E-09
 -1       808-1.54437E+05-2.83089E+04-2.73288E+03-6.64194E+04 9.09495E-13-1.91589E-09
 -1       809-1.53458E+05-2.93839E+04-1.33604E+03-6.78624E+04 3.64565E-09 5.73732E-09
 -1       810-1.54496E+05-2.81417E+04-6.11748E+02-6.65177E+04 1.33650E-09-2.07649E-09
 -1       811-1.53353E+05-2.93132E+04-3.03385E+02-6.78470E+04 2.49588E-09-3.81988E-09
 -1       812-1.54506E+05-2.81539E+04-1.51356E+02-6.65176E+04 1.07934E-09 5.02132E-09
 -1       813-1.53340E+05-2.93149E+04-9.54562E+01-6.78391E+04-9.77707E-12-2.78305E-10
 -1       814-1.54505E+05-2.81583E+04-8.94108E+01-6.65157E+04-2.32285E-09-6.74981E-09
 -1       815-1.53342E+05-2.93164E+04-1.39946E+02-6.78371E+04-2.81943E-10 2.51202E-09
 -1       816-1.54496E+05-2.81570E+04-2.62118E+02-6.65141E+04-1.79989E-09 2.89378E-09
 -1       817-1.53387E+05-2.93413E+04-5.62089E+02-6.78328E+04 1.56319E-09 5.15342E-10
 -1       818-1.54463E+05-2.82355E+04-1.14545E+03-6.64770E+04-8.69932E-10-5.61795E-09
 -1       819-1.54020E+05-3.00287E+04-2.69610E+03-6.76800E+04-2.63753E-11 2.44495E-09
 -1       820-1.54246E+05-3.02740E+04-5.48691E+03-6.56084E+04 2.36514E-09 4.05532E-09
 -1       821-1.99272E+05 1.10613E+04-2.55827E+04 2.75700E+01-4.55390E-10-2.71757E-09
 -1       822-2.10358E+05-1.28053E+04-1.81029E+04-3.14632E+02-1.53054E-09-2.19575E-09
 -1       823-2.03551E+05 1.73402E+03-6.62605E+03-1.15216E+01 1.18976E-09-5.05861E-09
 -1       824-2.05372E+05-2.00707E+03-4.16953E+03-2.08770E+02 1.15175E-10 4.40025E-10
 -1       825-2.04257E+05 2.71452E+02-1.71314E+03-7.82954E+01-2.78282E-09 3.48973E-09
 -1       826-2.04551E+05-3.20181E+02-1.03559E+03-6.86442E+01-4.54127E-09 3.15299E-09
 -1       827-2.04372E+05 4.83304E+01-5.34728E+02-1.51650E+02-3.16571E-09 3.07605E-09
 -1       828-2.04438E+05-9.78045E+01-4.74178E+02 6.22006E+01-3.72142E-09-1.95918E-09
 -1       829-2.04370E+05 4.92651E+01-5.42582E+02-2.09143E+02-1.40267E-10 2.06570E-09
 -1       830-2.04560E+05-3.27952E+02-1.06027E+03 1.43758E+02 1.14895E-09 1.30520E-09
 -1       831-2.04250E+05 2.78378E+02-1.75517E+03-2.33209E+02-1.92478E-09 2.57842E-09
 -1       832-2.05402E+05-2.05837E+03-4.27692E+03 1.51483E+02-6.27328E-10-1.25243E-09
 -1       833-2.03528E+05 1.77844E+03-6.79592E+03-2.16867E+02-7.54036E-10 3.98813E-10
 -1       834-2.10511E+05-1.31340E+04-1.85681E+04 8.47896E+01-1.28944E-09 6.62772E-09
 -1       835-1.99143E+05 1.13454E+04-2.62410E+04-1.66510E+02 5.01577E-09-2.41926E-10
 -1       836-6.64028E+02 1.88928E+05 1.13756E+04-1.66277E+04 1.37106E-09 3.39423E-09
 -1       837 2.50327E+03 1.92451E+05 9.70673E+03-3.34054E+04 1.95064E-09 7.88077E-10
 -1       838-2.44619E+02 1.89911E+05 1.00030E+04-1.65706E+04 1.74987E-09 2.23292E-09
 -1       839 6.41686E+03 1.95373E+05 1.90341E+04-3.34261E+04 2.38470E-09 4.16509E-09
 -1       840-1.93034E+03 1.85986E+05 3.03977E+04-1.66060E+04 1.54068E-09 3.34239E-10
 -1       856-6.24647E+04 5.33790E+03-1.40659E+04-3.07582E+02-2.02425E-09-2.29647E-09
 -1       857-6.82760E+04-6.26102E+03-9.68439E+03 3.21639E+03-2.95698E-09 3.23553E-09
 -1       858-6.47606E+04 7.48068E+02-3.65050E+03-3.19402E+02-2.96080E-09-2.37605E-09
 -1       859-6.56386E+04-8.70481E+02-2.20496E+03 3.23510E+03-1.37250E-09-2.81440E-09
 -1       860-6.51040E+04 1.04132E+02-9.27149E+02-3.26377E+02 4.66372E-10-5.55360E-09
 -1       861-6.52427E+04-1.15936E+02-5.16612E+02 3.24459E+03-4.11100E-09-2.26863E-09
 -1       862-6.51575E+04 1.38945E+01-2.27870E+02-3.28909E+02 3.63758E-09-1.06071E-09
 -1       863-6.51796E+04-9.56276E+00-1.12791E+02 3.24572E+03 6.23417E-09-2.74945E-10
 -1       864-6.51673E+04 6.89507E-02-3.56101E+01-3.27509E+02 4.99627E-09-5.44546E-09
 -1       865-6.51616E+04 1.48006E+01 2.05352E+01 3.23859E+03 8.24082E-09-6.96512E-09
 -1       866-6.51747E+04-1.06457E+01 7.59891E+01-3.21785E+02 5.53314E-10-1.12267E-09
 -1       867-6.51176E+04 8.97677E+01 2.08822E+02 3.22309E+03 4.14001E-09-3.98339E-09
 -1       868-6.52096E+04-7.41987E+01 3.52740E+02-3.12007E+02 1.88004E-09-3.48891E-09
 -1       869-6.48539E+04 6.16355E+02 9.46581E+02 3.19696E+03-3.02440E-09-8.53919E-09
 -1       870-6.54357E+04-5.23874E+02 1.37342E+03-2.95659E+02 2.40505E-10 4.66400E-10
 -1       871-2.90804E+03-6.05084E+03-9.46198E+03 6.20205E+04 1.86446E-09-3.71483E-09
 -1       872-1.26462E+03-8.16412E+03-3.85309E+03 8.04044E+04 3.78714E-09-1.62854E-08
 -1       873-2.83772E+01-7.16981E+03 5.63190E+02 6.18832E+04 2.45882E-09-2.69381E-09
 -1       874 1.46060E+03-5.78854E+03 5.39662E+03 8.04335E+04 3.43880E-09 1.93006E-09
 -1       875 3.46488E+03-8.45522E+03 1.19610E+04 6.19964E+04 1.45610E-09-2.11094E-09
 -1       876 1.55331E+05 2.67762E+04 8.32966E+03 6.30305E+04-4.53520E-09-4.35330E-09
 -1       877 1.55802E+05 2.86088E+04 4.44815E+03 6.54994E+04-3.36445E-09-8.70352E-09
 -1       878 1.56110E+05 2.58536E+04 1.86362E+03 6.37143E+04 3.28350E-09-4.34397E-10
 -1       879 1.54669E+05 2.74807E+04 9.28299E+02 6.55596E+04 8.35371E-10 1.13087E-08
 -1       880 1.56167E+05 2.58428E+04 4.32195E+02 6.37421E+04-4.23938E-09-5.89716E-09
 -1       881 1.54594E+05 2.74330E+04 2.30123E+02 6.55486E+04 1.64528E-09-3.93116E-09
 -1       882 1.56174E+05 2.58492E+04 1.46122E+02 6.37429E+04 5.11204E-09-4.11503E-09
 -1       883 1.54589E+05 2.74308E+04 1.55278E+02 6.55457E+04 1.90585E-09 7.65186E-09
 -1       884 1.56171E+05 2.58474E+04 2.45402E+02 6.37430E+04-2.38401E-10-1.40975E-09
 -1       885 1.54608E+05 2.74343E+04 4.92394E+02 6.55520E+04 3.02927E-09 2.30767E-09
 -1       886 1.56152E+05 2.58330E+04 9.91959E+02 6.37411E+04 2.55976E-09-1.41995E-09
 -1       887 1.54783E+05 2.75485E+04 2.16668E+03 6.55769E+04-2.08753E-09-3.12241E-10
 -1       888 1.56015E+05 2.58573E+04 4.36596E+03 6.36718E+04-1.27642E-10-2.31671E-09
 -1       889 1.57385E+05 3.02495E+04 1.04302E+04 6.54937E+04 4.25555E-09-2.80852E-09
 -1       890 1.54235E+05 2.79709E+04 1.95346E+04 6.20069E+04 2.89128E-09 2.72121E-09
 -1       891-9.57901E+01-8.83587E+04-1.04025E+03 1.68287E+04 1.29194E-09 1.50442E-09
 -1       892-1.66637E+02-8.86091E+04-1.13300E+03 2.54681E+04-1.27125E-09-1.06729E-09
 -1       893-2.53955E+01-8.83928E+04-1.62005E+03 1.68318E+04 6.76209E-10-5.53246E-09
 -1       894-8.82486E+02-8.92354E+04-3.36510E+03 2.53781E+04-2.12822E-09-3.29055E-09
 -1       895-6.87748E+02-8.76962E+04-5.92951E+03 1.69177E+04 2.63526E-10-6.66842E-09
 -1       956-1.95100E+05-2.81508E+03-7.08940E+03 1.28881E+04-3.67481E-09 2.86764E-09
 -1       957-1.96500E+05-9.49622E+02-3.63957E+03 1.55159E+04-1.45337E-09-8.38327E-10
 -1       958-1.95727E+05-7.54826E+01-1.63959E+03 1.28041E+04 2.75122E-09-5.11136E-10
 -1       959-1.95838E+05-1.38063E+01-8.37541E+02 1.56067E+04 1.44837E-10 7.86645E-09
 -1       960-1.95782E+05 2.27374E+01-4.08165E+02 1.27963E+04-3.27373E-09-2.29227E-09
 -1       961-1.95788E+05 2.05190E+01-2.16439E+02 1.56154E+04-5.46129E-09-5.59066E-09
 -1       962-1.95792E+05 1.91407E+01-1.23534E+02 1.27953E+04-2.54613E-09-1.32673E-10
 -1       963-1.95785E+05 2.08562E+01-9.85800E+01 1.56169E+04-3.02595E-09 4.48222E-09
 -1       964-1.95794E+05 2.01959E+01-1.18877E+02 1.27949E+04 4.57305E-10-3.49394E-09
 -1       965-1.95792E+05 2.28849E+01-2.04752E+02 1.56169E+04 9.20330E-10 5.06668E-09
 -1       966-1.95788E+05 2.58282E+01-3.83907E+02 1.27952E+04-3.43749E-09-2.59661E-10
 -1       967-1.95843E+05-7.00884E+00-7.87173E+02 1.56122E+04-2.92630E-10-5.65956E-09
 -1       968-1.95740E+05-6.42380E+01-1.54025E+03 1.27997E+04 9.35870E-10-7.10500E-10
 -1       969-1.96470E+05-8.84266E+02-3.41977E+03 1.55593E+04 5.17502E-10-9.93168E-10
 -1       970-1.95154E+05-2.63700E+03-6.66076E+03 1.28497E+04 1.12414E-09 5.82440E-09
 -1       971-1.85449E+05-9.80643E+02-5.45935E+03 9.10839E+03-3.30783E-09-2.28167E-09
 -1       972-1.86777E+05-7.03911E+02-2.97342E+03 1.27160E+04-1.84650E-09 1.00181E-09
 -1       973-1.86054E+05-6.29639E+00-1.33112E+03 9.03340E+03-1.96405E-09 1.66574E-09
 -1       974-1.86146E+05-7.70394E+00-6.89692E+02 1.27964E+04 3.94948E-10-2.66027E-09
 -1       975-1.86099E+05 1.79565E+01-3.43751E+02 9.02717E+03 1.96610E-09-2.46223E-09
 -1       976-1.86106E+05 1.97167E+01-1.96863E+02 1.28037E+04-3.59250E-10-7.83666E-09
 -1       977-1.86107E+05 1.69424E+01-1.40058E+02 9.02602E+03 9.22910E-10-3.62166E-09
 -1       978-1.86107E+05 2.22097E+01-1.60173E+02 1.28053E+04 8.10934E-09 5.56327E-10
 -1       979-1.86106E+05 2.08544E+01-2.54040E+02 9.02556E+03 4.75052E-09-8.70045E-10
 -1       980-1.86125E+05 2.35923E+01-4.88448E+02 1.28055E+04 6.93484E-09-3.52657E-09
 -1       981-1.86091E+05 3.30675E+01-9.44842E+02 9.02581E+03 4.56225E-10-3.55607E-09
 -1       982-1.86256E+05-4.58241E+01-1.95231E+03 1.28020E+04-3.91134E-09 1.64323E-09
 -1       983-1.85973E+05-2.68154E+01-3.79285E+03 9.02922E+03 4.45880E-09 2.00998E-10
 -1       984-1.88081E+05-2.02560E+03-8.49337E+03 1.27512E+04 2.50702E-09-1.55194E-09
 -1       985-1.84257E+05-2.80155E+03-1.55965E+04 9.07969E+03 2.36855E-09 5.39330E-10
 -3
    1PSTEP                         7           4           1          
  100CL  104 4.68750E-01         409                     0    4           1
 -4  DISP        4    1
 -5  D1          1    2    1    0
 -5  D2          1    2    2    0
 -5  D3          1    2    3    0
 -5  ALL         1    2    0    0    1ALL
 -1         1 1.27096E-04 0.00000E+00 0.00000E+00
 -1         2 1.16519E-04 5.14110E-30 0.00000E+00
 -1         3 1.10135E-04-1.33898E-27 6.61744E-24
 -1         5 7.79842E-05 8.38347E-27 0.00000E+00
 -1         8 1.02689E-04-8.86052E-07 0.00000E+00
 -1         9 1.03383E-04 4.52908E-07 0.00000E+00
 -1        10 1.01911E-04-1.50244E-06-3.30872E-24
 -1        12 7.75002E-05 5.12458E-07 1.65436E-24
 -1        15 7.36242E-05-9.77557E-07-4.13590E-25
 -1        16 7.62662E-05 2.98161E-07 0.00000E+00
 -1        17 7.56349E-05-3.17288E-06 0.00000E+00
 -1        18 7.50487E-05 7.78480E-07 0.00000E+00
 -1        19 7.60406E-05 1.02711E-06 0.00000E+00
 -1        20 7.61723E-05 1.46278E-05 0.00000E+00
 -1        21 7.56713E-05 2.75421E-05 0.00000E+00
 -1        24 1.86444E-05-4.32011E-06 0.00000E+00
 -1        25 7.35651E-05 8.96968E-07 0.00000E+00
 -1        26 7.44921E-05 1.42845E-06 0.00000E+00
 -1        27 7.30736E-05 1.23504E-05 0.00000E+00
 -1        28 7.26211E-05 2.71053E-05 0.00000E+00
 -1        32 0.00000E+00 0.00000E+00 0.00000E+00
 -1        33 7.17322E-05 1.91296E-06 0.00000E+00
 -1        34 7.03627E-05 1.23297E-05 0.00000E+00
 -1        35 6.90616E-05 2.68745E-05 0.00000E+00
 -1        51 1.25509E-04-1.45655E-07 0.00000E+00
 -1        52 1.22568E-04-2.87395E-07 0.00000E+00
 -1        53 1.18538E-04-4.30624E-07 0.00000E+00
 -1        54 1.13696E-04-5.76778E-07-3.30872E-24
 -1        55 1.08321E-04-7.26582E-07-3.30872E-24
 -1        56 1.25953E-04-7.43480E-07 2.64698E-23
 -1        57 1.24955E-04-2.00578E-06 1.32349E-23
 -1        58 1.24099E-04-3.64113E-06-2.64698E-23
 -1        59 1.23323E-04-5.51277E-06 2.64698E-23
 -1        60 1.22577E-04-7.46327E-06 0.00000E+00
 -1        61 1.21800E-04-9.33588E-06 2.64698E-23
 -1        62 1.20936E-04-1.09780E-05-5.29396E-23
 -1        63 1.19932E-04-1.22446E-05 0.00000E+00
 -1        64 1.18742E-04-1.30136E-05 0.00000E+00
 -1        65 1.17325E-04-1.31777E-05 0.00000E+00
 -1        66 1.15654E-04-1.26671E-05 5.29396E-23
 -1        67 1.13713E-04-1.14322E-05 0.00000E+00
 -1        68 1.11496E-04-9.46827E-06 0.00000E+00
 -1        69 1.09017E-04-6.78996E-06 0.00000E+00
 -1        70 1.06289E-04-3.46123E-06 0.00000E+00
 -1        86 1.16176E-04 8.33938E-08-1.65436E-24
 -1        87 1.15148E-04 1.65797E-07-8.27181E-25
 -1        88 1.13402E-04 2.47160E-07 0.00000E+00
 -1        89 1.10905E-04 3.23605E-07-4.13590E-25
 -1        90 1.07588E-04 3.98897E-07 3.30872E-24
 -1       121 1.09906E-04-2.49138E-07 6.61744E-24
 -1       122 1.09217E-04-4.98483E-07 3.30872E-24
 -1       123 1.08072E-04-7.48241E-07 6.61744E-24
 -1       124 1.06470E-04-9.98656E-07 3.30872E-24
 -1       125 1.04415E-04-1.24986E-06 0.00000E+00
 -1       191 7.79707E-05 8.54100E-08-3.30872E-24
 -1       192 7.79303E-05 1.70819E-07 0.00000E+00
 -1       193 7.78630E-05 2.56227E-07 0.00000E+00
 -1       194 7.77688E-05 3.41634E-07-1.65436E-24
 -1       195 7.76478E-05 4.27041E-07 3.30872E-24
 -1       251 1.02712E-04 3.14224E-06-3.30872E-24
 -1       252 1.02755E-04 5.56396E-06 8.27181E-25
 -1       253 1.02799E-04 6.63846E-06-5.16988E-26
 -1       254 1.02847E-04 6.62211E-06 0.00000E+00
 -1       255 1.02895E-04 5.74366E-06 0.00000E+00
 -1       256 1.02943E-04 4.23006E-06 0.00000E+00
 -1       257 1.02990E-04 2.29201E-06-1.65436E-24
 -1       258 1.03036E-04 1.39324E-07-8.27181E-25
 -1       259 1.03083E-04-2.02376E-06 1.65436E-24
 -1       260 1.03130E-04-3.99296E-06 8.27181E-25
 -1       261 1.03178E-04-5.55901E-06 8.27181E-25
 -1       262 1.03225E-04-6.51187E-06 0.00000E+00
 -1       263 1.03273E-04-6.62573E-06 0.00000E+00
 -1       264 1.03317E-04-5.67306E-06 0.00000E+00
 -1       265 1.03361E-04-3.39931E-06 0.00000E+00
 -1       266 9.78448E-05-9.13253E-07 6.61744E-24
 -1       267 9.30007E-05-9.27047E-07 0.00000E+00
 -1       268 8.81566E-05-9.41690E-07 1.65436E-24
 -1       269 8.33124E-05-9.53818E-07 4.13590E-25
 -1       270 7.84683E-05-9.65888E-07 0.00000E+00
 -1       271 9.97404E-05 2.76630E-06 2.64698E-23
 -1       272 9.72181E-05 5.15482E-06-1.32349E-23
 -1       273 9.51222E-05 6.41907E-06 0.00000E+00
 -1       274 9.33889E-05 6.69832E-06-2.64698E-23
 -1       275 9.19635E-05 6.15613E-06 0.00000E+00
 -1       276 9.07786E-05 4.96820E-06-2.64698E-23
 -1       277 8.97644E-05 3.32321E-06 5.29396E-23
 -1       278 8.88473E-05 1.41775E-06 0.00000E+00
 -1       279 8.79522E-05-5.46567E-07-5.29396E-23
 -1       280 8.70034E-05-2.36703E-06 0.00000E+00
 -1       281 8.59264E-05-3.84382E-06-5.29396E-23
 -1       282 8.46491E-05-4.78314E-06-2.64698E-23
 -1       283 8.31020E-05-5.00176E-06-5.29396E-23
 -1       284 8.12248E-05-4.32773E-06 0.00000E+00
 -1       285 7.89528E-05-2.60975E-06 0.00000E+00
 -1       301 9.86844E-05 4.20118E-07-6.61744E-24
 -1       302 9.40078E-05 4.02506E-07 1.65436E-24
 -1       303 8.93902E-05 3.85582E-07-3.30872E-24
 -1       304 8.48693E-05 3.67444E-07 0.00000E+00
 -1       305 8.04823E-05 3.47472E-07-1.32349E-23
 -1       306 1.00339E-04 3.85347E-06 0.00000E+00
 -1       307 9.77729E-05 5.83777E-06 2.64698E-23
 -1       308 9.57659E-05 6.34914E-06-5.29396E-23
 -1       309 9.43059E-05 5.37635E-06 0.00000E+00
 -1       310 9.33195E-05 3.13645E-06 0.00000E+00
 -1       311 9.27013E-05-9.68249E-08-2.64698E-23
 -1       312 9.22952E-05-3.90022E-06-5.29396E-23
 -1       313 9.19333E-05-7.82397E-06 0.00000E+00
 -1       314 9.14422E-05-1.13997E-05 0.00000E+00
 -1       315 9.06537E-05-1.41756E-05 0.00000E+00
 -1       316 8.94432E-05-1.58205E-05 0.00000E+00
 -1       317 8.77069E-05-1.60563E-05 0.00000E+00
 -1       318 8.54156E-05-1.48162E-05-5.29396E-23
 -1       319 8.25780E-05-1.20991E-05 2.64698E-23
 -1       320 7.92621E-05-8.13206E-06-2.64698E-23
 -1       336 9.89025E-05-1.77605E-06-6.61744E-24
 -1       337 9.53346E-05-2.05179E-06 0.00000E+00
 -1       338 9.12145E-05-2.32949E-06 6.61744E-24
 -1       339 8.65511E-05-2.60906E-06-3.30872E-24
 -1       340 8.13541E-05-2.89120E-06 6.61744E-24
 -1       406 7.73258E-05 5.98667E-07 3.30872E-24
 -1       407 7.71241E-05 6.84861E-07 1.65436E-24
 -1       408 7.68947E-05 7.71002E-07 3.30872E-24
 -1       409 7.66376E-05 8.56978E-07-4.96308E-24
 -1       410 7.63528E-05 9.42618E-07 0.00000E+00
 -1       521 7.44522E-05-3.55795E-06 0.00000E+00
 -1       522 7.74188E-05-2.08091E-05 0.00000E+00
 -1       523 8.40914E-05-4.85493E-05 1.05879E-22
 -1       524 9.30565E-05-8.30321E-05 5.29396E-23
 -1       525 1.02546E-04-1.19058E-04 0.00000E+00
 -1       526 1.10747E-04-1.51303E-04 5.29396E-23
 -1       527 1.16071E-04-1.75255E-04 0.00000E+00
 -1       528 1.17074E-04-1.87099E-04 5.29396E-23
 -1       529 1.13129E-04-1.85597E-04-1.05879E-22
 -1       530 1.03981E-04-1.70591E-04 0.00000E+00
 -1       531 9.05174E-05-1.44743E-04-1.05879E-22
 -1       532 7.40536E-05-1.11550E-04 0.00000E+00
 -1       533 5.66251E-05-7.60229E-05 0.00000E+00
 -1       534 4.03920E-05-4.33358E-05 0.00000E+00
 -1       535 2.71891E-05-1.81044E-05-5.29396E-23
 -1       536 7.55794E-05 2.31309E-06 0.00000E+00
 -1       537 7.55351E-05 6.82039E-06-8.27181E-25
 -1       538 7.54942E-05 1.03175E-05 0.00000E+00
 -1       539 7.54576E-05 1.27745E-05 8.27181E-25
 -1       540 7.54228E-05 1.42363E-05 0.00000E+00
 -1       541 7.53892E-05 1.47493E-05 4.13590E-25
 -1       542 7.53557E-05 1.44281E-05-8.27181E-25
 -1       543 7.53218E-05 1.33885E-05 0.00000E+00
 -1       544 7.52873E-05 1.17978E-05-8.27181E-25
 -1       545 7.52521E-05 9.82415E-06-4.13590E-25
 -1       546 7.52166E-05 7.66330E-06 8.27181E-25
 -1       547 7.51812E-05 5.51120E-06 0.00000E+00
 -1       548 7.51462E-05 3.56313E-06 0.00000E+00
 -1       549 7.51123E-05 2.01413E-06 2.06795E-25
 -1       550 7.50790E-05 1.03072E-06 0.00000E+00
 -1       551 6.81181E-05-3.34384E-06-6.61744E-24
 -1       552 5.91290E-05-3.52335E-06 0.00000E+00
 -1       553 4.91737E-05-3.71138E-06 4.96308E-24
 -1       554 3.87660E-05-3.90602E-06-3.30872E-24
 -1       555 2.84195E-05-4.10276E-06-1.32349E-23
 -1       556 7.36483E-05 1.97134E-06 0.00000E+00
 -1       557 7.21252E-05 5.91907E-06 0.00000E+00
 -1       558 7.10152E-05 8.77963E-06 0.00000E+00
 -1       559 7.02723E-05 1.06710E-05 0.00000E+00
 -1       560 6.98505E-05 1.17110E-05 0.00000E+00
 -1       561 6.97046E-05 1.20180E-05 0.00000E+00
 -1       562 6.97892E-05 1.17106E-05 0.00000E+00
 -1       563 7.00597E-05 1.09074E-05-3.30872E-24
 -1       564 7.04712E-05 9.72741E-06 0.00000E+00
 -1       565 7.09792E-05 8.28931E-06 0.00000E+00
 -1       566 7.15393E-05 6.71206E-06 0.00000E+00
 -1       567 7.21068E-05 5.11461E-06 0.00000E+00
 -1       568 7.26375E-05 3.61584E-06 0.00000E+00
 -1       569 7.30870E-05 2.33454E-06 0.00000E+00
 -1       570 7.34107E-05 1.38952E-06 0.00000E+00
 -1       571 7.51089E-05 8.31587E-07-8.27181E-25
 -1       572 7.51704E-05 8.43585E-07 8.27181E-25
 -1       573 7.52323E-05 8.21846E-07 8.27181E-25
 -1       574 7.52944E-05 7.74130E-07 4.13590E-25
 -1       575 7.53566E-05 7.08232E-07 0.00000E+00
 -1       576 7.54188E-05 6.31996E-07 8.27181E-25
 -1       577 7.54810E-05 5.53272E-07 1.65436E-24
 -1       578 7.55432E-05 4.79917E-07 0.00000E+00
 -1       579 7.56054E-05 4.19787E-07 0.00000E+00
 -1       580 7.56676E-05 3.80739E-07 0.00000E+00
 -1       581 7.57298E-05 3.70631E-07 0.00000E+00
 -1       582 7.57921E-05 3.97308E-07-3.30872E-24
 -1       583 7.58543E-05 4.68613E-07 0.00000E+00
 -1       584 7.59164E-05 5.92305E-07-3.30872E-24
 -1       585 7.59786E-05 7.76098E-07 3.30872E-24
 -1       586 7.47792E-05 7.99446E-07 0.00000E+00
 -1       587 7.44834E-05 8.19897E-07-2.06795E-25
 -1       588 7.41876E-05 8.40125E-07 0.00000E+00
 -1       589 7.39184E-05 8.60035E-07 0.00000E+00
 -1       590 7.37023E-05 8.79402E-07 0.00000E+00
 -1       591 7.49996E-05 8.63894E-07-5.16988E-26
 -1       592 7.49606E-05 9.15820E-07 0.00000E+00
 -1       593 7.49316E-05 9.40647E-07 0.00000E+00
 -1       594 7.49103E-05 9.44122E-07 2.06795E-25
 -1       595 7.48948E-05 9.32075E-07 4.13590E-25
 -1       596 7.48829E-05 9.10286E-07 0.00000E+00
 -1       597 7.48724E-05 8.84535E-07 0.00000E+00
 -1       598 7.48613E-05 8.60600E-07 0.00000E+00
 -1       599 7.48473E-05 8.44254E-07 0.00000E+00
 -1       600 7.48283E-05 8.41273E-07 2.06795E-25
 -1       601 7.48021E-05 8.57431E-07 0.00000E+00
 -1       602 7.47667E-05 8.98509E-07 0.00000E+00
 -1       603 7.47198E-05 9.70287E-07-3.10193E-25
 -1       604 7.46595E-05 1.07859E-06 1.03398E-25
 -1       605 7.45836E-05 1.22917E-06 0.00000E+00
 -1       606 7.60520E-05 1.41984E-06 0.00000E+00
 -1       607 7.60612E-05 1.90039E-06 0.00000E+00
 -1       608 7.60699E-05 2.46362E-06 0.00000E+00
 -1       609 7.60782E-05 3.10370E-06 0.00000E+00
 -1       610 7.60863E-05 3.81481E-06 0.00000E+00
 -1       611 7.60944E-05 4.59101E-06 0.00000E+00
 -1       612 7.61024E-05 5.42636E-06 0.00000E+00
 -1       613 7.61104E-05 6.31496E-06 0.00000E+00
 -1       614 7.61183E-05 7.25085E-06 0.00000E+00
 -1       615 7.61262E-05 8.22809E-06 8.27181E-25
 -1       616 7.61340E-05 9.24077E-06 0.00000E+00
 -1       617 7.61418E-05 1.02829E-05 0.00000E+00
 -1       618 7.61496E-05 1.13487E-05 0.00000E+00
 -1       619 7.61573E-05 1.24320E-05-4.13590E-25
 -1       620 7.61649E-05 1.35270E-05 0.00000E+00
 -1       621 7.57359E-05 1.09405E-06 0.00000E+00
 -1       622 7.54572E-05 1.16131E-06 0.00000E+00
 -1       623 7.51991E-05 1.22857E-06 1.65436E-24
 -1       624 7.49559E-05 1.29571E-06 0.00000E+00
 -1       625 7.47221E-05 1.36274E-06 1.65436E-24
 -1       626 7.59650E-05 1.44098E-06 0.00000E+00
 -1       627 7.58627E-05 1.92744E-06 0.00000E+00
 -1       628 7.57358E-05 2.47974E-06 0.00000E+00
 -1       629 7.55870E-05 3.09064E-06 0.00000E+00
 -1       630 7.54189E-05 3.75295E-06 0.00000E+00
 -1       631 7.52342E-05 4.45937E-06 0.00000E+00
 -1       632 7.50357E-05 5.20263E-06-3.30872E-24
 -1       633 7.48260E-05 5.97548E-06-1.65436E-24
 -1       634 7.46080E-05 6.77064E-06 0.00000E+00
 -1       635 7.43843E-05 7.58082E-06 0.00000E+00
 -1       636 7.41577E-05 8.39878E-06 0.00000E+00
 -1       637 7.39309E-05 9.21723E-06 0.00000E+00
 -1       638 7.37066E-05 1.00289E-05-1.65436E-24
 -1       639 7.34874E-05 1.08265E-05 0.00000E+00
 -1       640 7.32759E-05 1.16028E-05 0.00000E+00
 -1       656 7.52617E-05 1.42572E-05 6.61744E-24
 -1       657 7.46818E-05 1.38719E-05-3.30872E-24
 -1       658 7.43072E-05 1.34877E-05 0.00000E+00
 -1       659 7.40095E-05 1.31039E-05 0.00000E+00
 -1       660 7.36457E-05 1.27189E-05 0.00000E+00
 -1       661 7.58358E-05 1.57054E-05 8.27181E-25
 -1       662 7.55204E-05 1.67348E-05 8.27181E-25
 -1       663 7.52223E-05 1.77174E-05 0.00000E+00
 -1       664 7.49415E-05 1.86556E-05 0.00000E+00
 -1       665 7.46767E-05 1.95513E-05 0.00000E+00
 -1       666 7.44272E-05 2.04064E-05 0.00000E+00
 -1       667 7.41922E-05 2.12230E-05 0.00000E+00
 -1       668 7.39711E-05 2.20027E-05 0.00000E+00
 -1       669 7.37632E-05 2.27474E-05-1.65436E-24
 -1       670 7.35678E-05 2.34587E-05-8.27181E-25
 -1       671 7.33843E-05 2.41380E-05 0.00000E+00
 -1       672 7.32121E-05 2.47870E-05 0.00000E+00
 -1       673 7.30507E-05 2.54071E-05 1.65436E-24
 -1       674 7.28990E-05 2.59994E-05 8.27181E-25
 -1       675 7.27574E-05 2.65656E-05-4.13590E-25
 -1       676 7.51617E-05 2.74689E-05 0.00000E+00
 -1       677 7.46523E-05 2.73957E-05 0.00000E+00
 -1       678 7.41433E-05 2.73225E-05 0.00000E+00
 -1       679 7.36350E-05 2.72496E-05-8.27181E-25
 -1       680 7.31275E-05 2.71766E-05-1.65436E-24
 -1       771 1.47364E-05 3.22044E-06-2.64698E-23
 -1       772 1.13405E-05 9.39714E-06-1.32349E-23
 -1       773 8.43555E-06 1.42851E-05-2.64698E-23
 -1       774 5.98898E-06 1.79647E-05 0.00000E+00
 -1       775 3.96880E-06 2.05181E-05 0.00000E+00
 -1       776 2.34161E-06 2.20309E-05 0.00000E+00
 -1       777 1.07353E-06 2.25900E-05 2.64698E-23
 -1       778 1.29996E-07 2.22851E-05 1.32349E-23
 -1       779-5.23873E-07 2.12074E-05-2.64698E-23
 -1       780-9.23570E-07 1.94499E-05 0.00000E+00
 -1       781-1.10472E-06 1.71071E-05-2.64698E-23
 -1       782-1.10344E-06 1.42748E-05 0.00000E+00
 -1       783-9.55925E-07 1.10498E-05 0.00000E+00
 -1       784-6.98628E-07 7.53001E-06-1.32349E-23
 -1       785-3.68134E-07 3.81366E-06 0.00000E+00
 -1       786 7.36197E-05 8.56601E-07-4.13590E-25
 -1       787 7.36775E-05 8.22286E-07 0.00000E+00
 -1       788 7.37350E-05 7.93553E-07 0.00000E+00
 -1       789 7.37932E-05 7.69945E-07 0.00000E+00
 -1       790 7.38515E-05 7.51698E-07-1.65436E-24
 -1       791 7.39098E-05 7.39057E-07-8.27181E-25
 -1       792 7.39682E-05 7.33026E-07 1.65436E-24
 -1       793 7.40266E-05 7.34621E-07-8.27181E-25
 -1       794 7.40849E-05 7.45889E-07 0.00000E+00
 -1       795 7.41433E-05 7.68899E-07 0.00000E+00
 -1       796 7.42017E-05 8.07300E-07 1.65436E-24
 -1       797 7.42600E-05 8.64783E-07 0.00000E+00
 -1       798 7.43184E-05 9.47604E-07 0.00000E+00
 -1       799 7.43766E-05 1.06208E-06 0.00000E+00
 -1       800 7.44348E-05 1.21880E-06 1.65436E-24
 -1       801 6.85952E-05 8.37760E-07 0.00000E+00
 -1       802 5.37166E-05 6.82152E-07 1.65436E-24
 -1       803 3.41874E-05 4.53777E-07-3.30872E-24
 -1       804 1.52756E-05 2.30071E-07 0.00000E+00
 -1       805 2.15657E-06 9.23557E-08 0.00000E+00
 -1       806 7.35085E-05 8.15311E-07 1.65436E-24
 -1       807 7.34485E-05 7.34826E-07 0.00000E+00
 -1       808 7.33858E-05 6.60016E-07 0.00000E+00
 -1       809 7.33192E-05 5.94688E-07 0.00000E+00
 -1       810 7.32476E-05 5.42641E-07-3.30872E-24
 -1       811 7.31695E-05 5.07616E-07-8.27181E-25
 -1       812 7.30836E-05 4.93349E-07 1.65436E-24
 -1       813 7.29885E-05 5.03567E-07 0.00000E+00
 -1       814 7.28829E-05 5.41995E-07-1.65436E-24
 -1       815 7.27652E-05 6.12355E-07 0.00000E+00
 -1       816 7.26342E-05 7.18363E-07-3.30872E-24
 -1       817 7.24885E-05 8.63738E-07-8.27181E-25
 -1       818 7.23266E-05 1.05219E-06 1.65436E-24
 -1       819 7.21473E-05 1.28743E-06-8.27181E-25
 -1       820 7.19493E-05 1.57315E-06 0.00000E+00
 -1       821 7.44087E-05 1.65823E-06 0.00000E+00
 -1       822 7.43200E-05 1.87605E-06 8.27181E-25
 -1       823 7.42317E-05 2.12169E-06 0.00000E+00
 -1       824 7.41425E-05 2.43481E-06 0.00000E+00
 -1       825 7.40531E-05 2.84256E-06-3.30872E-24
 -1       826 7.39635E-05 3.37170E-06-1.65436E-24
 -1       827 7.38739E-05 4.02649E-06 3.30872E-24
 -1       828 7.37841E-05 4.81071E-06 0.00000E+00
 -1       829 7.36942E-05 5.70412E-06 3.30872E-24
 -1       830 7.36042E-05 6.68604E-06 1.65436E-24
 -1       831 7.35143E-05 7.71941E-06 0.00000E+00
 -1       832 7.34245E-05 8.76695E-06-1.65436E-24
 -1       833 7.33348E-05 9.78873E-06 1.65436E-24
 -1       834 7.32461E-05 1.07450E-05 0.00000E+00
 -1       835 7.31572E-05 1.16080E-05 8.27181E-25
 -1       836 7.41681E-05 1.50912E-06 0.00000E+00
 -1       837 7.37378E-05 1.59156E-06 0.00000E+00
 -1       838 7.32399E-05 1.67385E-06-1.65436E-24
 -1       839 7.27137E-05 1.75561E-06 0.00000E+00
 -1       840 7.21982E-05 1.83724E-06 2.06795E-25
 -1       856 7.30485E-05 1.30844E-05 2.06795E-25
 -1       857 7.30206E-05 1.39156E-05-2.06795E-25
 -1       858 7.29927E-05 1.48287E-05-8.27181E-25
 -1       859 7.29643E-05 1.58084E-05 0.00000E+00
 -1       860 7.29358E-05 1.68391E-05-8.27181E-25
 -1       861 7.29072E-05 1.79054E-05 0.00000E+00
 -1       862 7.28785E-05 1.89916E-05 8.27181E-25
 -1       863 7.28498E-05 2.00824E-05 4.13590E-25
 -1       864 7.28211E-05 2.11619E-05 0.00000E+00
 -1       865 7.27924E-05 2.22148E-05 0.00000E+00
 -1       866 7.27638E-05 2.32254E-05 8.27181E-25
 -1       867 7.27352E-05 2.41783E-05 0.00000E+00
 -1       868 7.27067E-05 2.50581E-05-8.27181E-25
 -1       869 7.26782E-05 2.58493E-05 0.00000E+00
 -1       870 7.26497E-05 2.65368E-05 0.00000E+00
 -1       871 7.25229E-05 1.23496E-05 0.00000E+00
 -1       872 7.20657E-05 1.23468E-05 0.00000E+00
 -1       873 7.16619E-05 1.23437E-05 0.00000E+00
 -1       874 7.12706E-05 1.23402E-05-2.06795E-25
 -1       875 7.08510E-05 1.23362E-05-4.13590E-25
 -1       876 7.28834E-05 1.30925E-05 0.00000E+00
 -1       877 7.26773E-05 1.38820E-05 0.00000E+00
 -1       878 7.24558E-05 1.47130E-05 0.00000E+00
 -1       879 7.22209E-05 1.55803E-05 0.00000E+00
 -1       880 7.19744E-05 1.64786E-05 3.30872E-24
 -1       881 7.17184E-05 1.74024E-05 0.00000E+00
 -1       882 7.14547E-05 1.83464E-05-6.61744E-24
 -1       883 7.11854E-05 1.93054E-05 0.00000E+00
 -1       884 7.09125E-05 2.02739E-05 3.30872E-24
 -1       885 7.06380E-05 2.12468E-05-1.65436E-24
 -1       886 7.03638E-05 2.22187E-05 0.00000E+00
 -1       887 7.00920E-05 2.31842E-05-8.27181E-25
 -1       888 6.98243E-05 2.41380E-05-1.65436E-24
 -1       889 6.95627E-05 2.50748E-05 0.00000E+00
 -1       890 6.93090E-05 2.59892E-05 0.00000E+00
 -1       891 7.21336E-05 2.70667E-05 0.00000E+00
 -1       892 7.16295E-05 2.70280E-05 4.13590E-25
 -1       893 7.10894E-05 2.69893E-05 0.00000E+00
 -1       894 7.04942E-05 2.69506E-05 2.06795E-25
 -1       895 6.98245E-05 2.69120E-05-6.20385E-25
 -1       956 7.16482E-05 2.36323E-06 1.65436E-24
 -1       957 7.15629E-05 2.86839E-06-8.27181E-25
 -1       958 7.14772E-05 3.42272E-06 3.30872E-24
 -1       959 7.13914E-05 4.02015E-06 8.27181E-25
 -1       960 7.13056E-05 4.65462E-06 1.65436E-24
 -1       961 7.12197E-05 5.32002E-06-8.27181E-25
 -1       962 7.11337E-05 6.01022E-06 0.00000E+00
 -1       963 7.10478E-05 6.71913E-06 0.00000E+00
 -1       964 7.09618E-05 7.44061E-06 0.00000E+00
 -1       965 7.08759E-05 8.16855E-06 0.00000E+00
 -1       966 7.07899E-05 8.89684E-06 0.00000E+00
 -1       967 7.07040E-05 9.61935E-06-3.30872E-24
 -1       968 7.06181E-05 1.03300E-05-3.30872E-24
 -1       969 7.05324E-05 1.10226E-05 4.96308E-24
 -1       970 7.04469E-05 1.16911E-05 0.00000E+00
 -1       971 7.02825E-05 1.29862E-05 1.65436E-24
 -1       972 7.02011E-05 1.37149E-05-8.27181E-25
 -1       973 7.01196E-05 1.45076E-05 0.00000E+00
 -1       974 7.00379E-05 1.53563E-05 0.00000E+00
 -1       975 6.99561E-05 1.62525E-05 0.00000E+00
 -1       976 6.98743E-05 1.71880E-05 8.27181E-25
 -1       977 6.97925E-05 1.81545E-05-1.65436E-24
 -1       978 6.97106E-05 1.91436E-05 0.00000E+00
 -1       979 6.96287E-05 2.01471E-05 0.00000E+00
 -1       980 6.95469E-05 2.11566E-05 1.65436E-24
 -1       981 6.94650E-05 2.21638E-05-3.30872E-24
 -1       982 6.93833E-05 2.31604E-05 0.00000E+00
 -1       983 6.93016E-05 2.41380E-05 3.30872E-24
 -1       984 6.92203E-05 2.50884E-05 0.00000E+00
 -1       985 6.91394E-05 2.60033E-05-1.65436E-24
 -3
    1PSTEP                         8           4           1          
  100CL  104 4.68750E-01         409                     0    4           1
 -4  STRESS      6    1
 -5  SXX         1    4    1    1
 -5  SYY         1    4    2    2
 -5  SZZ         1    4    3    3
 -5  SXY         1    4    1    2
 -5  SYZ         1    4    2    3
 -5  SZX         1    4    3    1
 -1         1-1.66232E+06-7.54123E+05-3.41811E+05-1.05172E+06 1.27329E-10 8.44011E-10
 -1         2 2.65833E+03 2.42311E+05 8.71180E+03 7.05386E+02-1.31337E-10 1.16862E-08
 -1         3-8.81965E+01-7.11673E+05 1.66349E+02-2.59914E+02-3.98188E-11-8.05812E-09
 -1         5-5.86919E+00 2.44388E+05-2.50268E-01-2.18948E+00 8.84128E-11-1.67570E-08
 -1         8-7.84263E+05-3.32714E+05-3.40264E+04-5.65306E+05-3.63798E-11 4.58385E-10
 -1         9-1.37672E+06-3.63503E+05-1.40799E+05-4.61591E+05 3.61615E-09 5.28526E-09
 -1        10-5.77826E+02-7.41413E+05-9.84258E+02-1.75380E+03-3.42379E-09-1.41492E-08
 -1        12-1.62956E+00 2.45636E+05 2.13191E+02 2.56481E+00-5.12500E-10 1.88973E-08
 -1        15 1.97985E+03 1.08805E+03 6.39987E+03 4.14736E+00-1.74794E-11 5.55018E-09
 -1        16-3.52223E+06-1.21073E+06-5.55569E+05-1.24175E+06 1.11128E-08 5.80136E-09
 -1        17-8.48878E+05-5.15030E+05-1.64424E+05-4.75612E+05-5.65924E-09 3.35567E-09
 -1        18 6.13729E+03-2.82431E+03-1.71460E+04-5.81795E+04 7.29187E-10 1.11140E-09
 -1        19 7.66725E+04 9.16813E+04-4.02543E+02 1.49656E+04-5.39330E-10 2.14714E-09
 -1        20-3.22751E+04-3.61838E+05-7.98372E+04 2.64786E+04 3.13291E-09 3.04984E-09
 -1        21-3.40874E+01-2.09299E+05-6.75651E+02-7.31600E+01-1.18908E-08-1.26427E-08
 -1        24-3.25431E+06-1.02222E+06-4.49769E+05-1.25934E+06-1.99943E-08-9.58971E-09
 -1        25 2.29313E+04-3.24713E+04 1.02358E+04-1.05055E+05 3.85717E-10 8.76535E-09
 -1        26-1.80587E+04 6.22198E+04-1.24090E+04-8.76205E+03 1.54541E-09-2.12231E-10
 -1        27-5.77604E+04-1.98463E+05-7.44336E+04 4.47234E+04 5.16980E-09 2.60115E-10
 -1        28 1.62003E+04-5.78497E+04 1.18252E+04 1.84662E+04 3.55638E-09-4.63833E-09
 -1        32-7.84475E+05-1.80935E+05 3.19189E+05-5.24346E+05-1.64000E-08 1.23576E-08
 -1        33-1.13563E+05 5.83167E+04 2.06766E+04-3.36956E+04 9.88981E-10 3.11729E-09
 -1        34-1.47296E+05-1.46788E+04 3.46772E+02 4.53490E+04 3.39617E-09-4.01087E-10
 -1        35-1.64750E+04-2.29905E+04-9.01113E+02 3.64590E+04 2.94331E-09 3.59311E-09
 -1        51 1.40496E+04-3.66903E+05 3.63643E+04-9.31468E+05-1.16415E-10-2.56114E-09
 -1        52 8.82660E+03-3.65872E+05 2.43236E+04-1.08640E+06 2.11003E-10-2.08966E-08
 -1        53 6.64592E+03-3.78219E+05 2.10125E+04-9.28230E+05 8.73115E-10-3.04135E-09
 -1        54 1.90751E+04-3.76899E+05 3.40756E+04-1.08977E+06 6.83940E-10-9.93896E-09
 -1        55 3.79169E+04-3.89891E+05 6.10584E+04-9.27711E+05 1.10595E-09-6.39920E-09
 -1        56-3.19008E+06-3.59187E+05-2.51169E+05-1.22966E+06 5.45697E-10-9.69158E-09
 -1        57-3.28910E+06-5.88301E+05-1.69306E+05-1.22204E+06-2.68483E-09 2.60661E-09
 -1        58-3.24121E+06-4.38060E+05-5.90948E+04-1.21306E+06 2.76486E-10 4.47835E-09
 -1        59-3.22988E+06-4.95834E+05-3.52755E+04-1.24197E+06 1.76442E-09 7.60974E-09
 -1        60-3.24878E+06-4.48945E+05-1.37978E+04-1.21069E+06-1.47952E-09 5.84168E-09
 -1        61-3.22245E+06-4.81683E+05-7.83759E+03-1.24308E+06 2.58990E-09 1.31877E-11
 -1        62-3.24849E+06-4.51883E+05-3.78237E+03-1.21203E+06 1.20212E-09 8.58759E-09
 -1        63-3.22545E+06-4.75795E+05-3.07189E+03-1.23829E+06 2.75543E-09 8.07523E-09
 -1        64-3.24565E+06-4.54869E+05-3.56777E+03-1.21540E+06-1.23669E-09-6.29143E-09
 -1        65-3.23307E+06-4.70300E+05-7.04987E+03-1.23005E+06 3.99268E-10-1.50721E-08
 -1        66-3.24077E+06-4.57491E+05-1.24925E+04-1.22018E+06-8.41737E-10-4.72937E-11
 -1        67-3.24874E+06-4.73867E+05-3.16129E+04-1.21856E+06 2.85013E-10 1.30967E-09
 -1        68-3.23004E+06-4.51640E+05-5.31308E+04-1.22677E+06 2.73394E-09 7.22139E-09
 -1        69-3.30811E+06-5.50927E+05-1.51970E+05-1.19409E+06 2.54659E-09 8.21638E-09
 -1        70-3.18202E+06-3.82775E+05-2.25546E+05-1.24388E+06 1.06957E-09 4.51109E-10
 -1        86-1.33569E+03 2.39461E+05 9.30004E+03-3.52720E+02 1.14437E-09 1.35885E-08
 -1        87 8.85519E+03 2.45358E+05 1.94506E+04 1.45633E+03 1.90994E-09 7.67992E-09
 -1        88-7.51608E+03 2.36418E+05 2.97266E+04-1.10368E+03 2.87218E-09-5.94372E-09
 -1        89 5.60039E+04 2.67405E+05 8.02449E+04 3.17735E+03 4.40559E-09 9.43351E-09
 -1        90-4.83342E+04 2.17439E+05 1.13285E+05-2.07322E+03 4.97676E-09 2.72053E-09
 -1       121-1.38266E+02-7.12066E+05 1.31167E+02 1.29794E+02 4.32060E-10-3.28691E-09
 -1       122-3.28365E+01-7.11639E+05 3.59916E+02-5.19656E+02-1.39703E-09-4.16003E-09
 -1       123-1.76269E+02-7.12105E+05 5.54541E+02 3.88893E+02 1.13903E-09 5.32236E-09
 -1       124 6.33301E+02-7.11241E+05 1.50141E+03-1.16347E+03-2.47314E-09 2.03045E-09
 -1       125-6.04514E+02-7.12481E+05 2.27315E+03 7.73216E+02 1.80444E-09 5.44242E-09
 -1       191-6.52133E+00 2.44410E+05-6.00712E-01 1.09410E+00 1.44055E-10-8.85075E-09
 -1       192-8.74312E+00 2.44388E+05-1.27274E+00-1.02981E+01 2.40462E-10-2.57569E-08
 -1       193-1.53238E+01 2.44410E+05-3.33595E+00 9.19842E+00 2.35218E-10-1.29185E-08
 -1       194-3.93776E+01 2.44380E+05-1.24073E+01-8.08980E+01 1.14142E-10 5.77779E-09
 -1       195-1.00232E+02 2.44416E+05-2.95754E+01 7.16614E+01 3.36968E-10 6.05314E-09
 -1       251 1.19776E+05-4.12641E+04 9.61820E+04 3.90422E+03-1.73031E-10 1.96451E-10
 -1       252 1.64574E+05 4.77122E+04 6.84066E+04-1.37116E+04-8.82210E-10 8.36735E-10
 -1       253 1.36545E+05-6.39024E+03 2.48740E+04 2.96523E+03-4.78735E-10-2.71211E-09
 -1       254 1.44695E+05 7.37324E+03 1.58031E+04-1.22462E+04-5.46379E-10-1.33878E-09
 -1       255 1.39540E+05-9.87217E+02 6.42842E+03 2.43898E+03-6.68877E-10-3.42334E-09
 -1       256 1.41055E+05 1.17659E+03 3.93944E+03-1.14655E+04 1.16563E-09-4.85613E-10
 -1       257 1.40130E+05-1.73381E+02 2.03592E+03 2.18449E+03-2.25270E-10-3.60791E-09
 -1       258 1.40450E+05 3.83673E+02 1.83518E+03-1.12046E+04-6.57895E-10 2.77289E-11
 -1       259 1.40128E+05-1.83897E+02 2.13572E+03 2.17812E+03-2.30273E-10-3.62775E-09
 -1       260 1.41086E+05 1.26924E+03 4.22145E+03-1.14409E+04-9.03256E-10-8.21029E-09
 -1       261 1.39509E+05-1.06789E+03 6.94665E+03 2.42070E+03 9.20636E-10 5.14319E-09
 -1       262 1.44958E+05 7.98306E+03 1.70777E+04-1.21947E+04 1.45209E-09-7.90351E-10
 -1       263 1.36310E+05-6.91482E+03 2.69349E+04 2.93199E+03-5.38876E-10-1.20417E-09
 -1       264 1.66345E+05 5.16410E+04 7.39975E+04-1.36359E+04-2.13620E-09-7.32871E-09
 -1       265 1.18236E+05-4.46496E+04 1.04145E+05 3.86170E+03-9.48489E-10-5.50790E-09
 -1       266-3.58409E+04-1.67566E+04 8.41051E+04-8.87518E+01 1.45519E-11-1.21170E-08
 -1       267 4.15506E+04 1.95341E+04 5.94380E+04 1.02388E+02-6.18456E-11-2.35196E-08
 -1       268-5.57181E+03-2.76636E+03 2.20932E+04-1.30468E+01 1.90994E-11-1.62688E-08
 -1       269 6.57873E+03 3.31099E+03 1.43599E+04 1.51967E+01 7.43512E-11-9.78417E-09
 -1       270-9.87474E+02-5.44011E+02 6.93173E+03-2.06234E+00 1.40972E-11 5.82686E-09
 -1       271-3.50726E+06-4.38836E+05-2.69921E+05-1.36789E+06-1.09139E-11-5.35510E-09
 -1       272-3.58893E+06-6.50479E+05-1.73485E+05-1.38218E+06 1.41881E-09-6.20275E-10
 -1       273-3.55975E+06-5.04322E+05-6.37681E+04-1.35392E+06 2.94631E-09 3.37604E-09
 -1       274-3.52706E+06-5.70778E+05-3.56425E+04-1.40414E+06 4.97857E-09-4.95857E-09
 -1       275-3.56860E+06-5.09369E+05-1.48365E+04-1.34978E+06 2.17460E-09-7.29506E-09
 -1       276-3.51643E+06-5.65148E+05-7.85885E+03-1.41098E+06-1.10049E-10 1.28268E-08
 -1       277-3.57096E+06-5.08598E+05-3.84725E+03-1.34792E+06-2.33467E-09 1.34537E-09
 -1       278-3.51414E+06-5.65818E+05-2.78624E+03-1.41333E+06 1.67267E-09-4.39695E-09
 -1       279-3.57121E+06-5.08413E+05-2.98329E+03-1.34769E+06-5.42968E-10 3.24326E-09
 -1       280-3.51543E+06-5.65505E+05-5.46476E+03-1.41202E+06-3.27418E-10 5.24778E-09
 -1       281-3.56949E+06-5.09077E+05-1.00177E+04-1.34908E+06-8.68567E-11-3.27236E-09
 -1       282-3.52313E+06-5.68561E+05-2.38910E+04-1.40652E+06 2.19325E-09 4.03224E-09
 -1       283-3.56297E+06-5.06359E+05-4.27233E+04-1.35252E+06-3.11957E-10-1.18453E-08
 -1       284-3.56589E+06-6.20299E+05-1.16078E+05-1.38980E+06 1.16006E-09-1.75860E-08
 -1       285-3.52682E+06-4.63671E+05-1.80774E+05-1.36303E+06 8.84029E-10-7.37055E-09
 -1       301 1.44196E+04-1.74663E+04 1.10189E+05-4.48312E+04-8.76753E-10-1.47566E-09
 -1       302 1.55217E+04 1.04010E+04 7.88166E+04-6.60175E+04 1.77693E-09 3.36604E-09
 -1       303 8.64019E+02-7.43924E+03 7.14032E+04-4.49340E+04-9.82254E-10-1.02127E-08
 -1       304 2.78023E+04 2.18436E+04 1.18867E+05-6.57910E+04 1.12777E-09-1.31590E-08
 -1       305 2.74056E+04-2.86548E+04 1.98836E+05-4.49830E+04-6.83940E-10 5.54792E-10
 -1       306-3.92452E+06-4.58127E+05-2.98094E+05-1.53892E+06 1.88447E-09-7.63976E-09
 -1       307-4.08574E+06-7.01491E+05-2.03104E+05-1.47718E+06 7.63976E-10-2.59024E-09
 -1       308-3.99777E+06-5.45450E+05-7.02086E+04-1.50480E+06 4.55657E-10 2.96131E-09
 -1       309-3.99180E+06-6.09287E+05-4.23207E+04-1.52810E+06 5.54621E-10 9.98625E-09
 -1       310-4.01805E+06-5.48476E+05-1.64843E+04-1.48864E+06-9.06198E-10 1.54159E-09
 -1       311-3.96558E+06-6.08954E+05-9.49412E+03-1.55110E+06 4.19186E-09-1.78716E-10
 -1       312-4.02426E+06-5.45261E+05-4.64220E+03-1.48214E+06-2.71378E-10 7.64044E-09
 -1       313-3.96240E+06-6.08864E+05-4.16938E+03-1.55387E+06-1.53847E-09 6.56792E-09
 -1       314-4.02128E+06-5.48493E+05-5.11798E+03-1.48592E+06-9.38826E-10-7.17364E-10
 -1       315-3.97652E+06-5.97778E+05-1.05365E+04-1.53730E+06-1.44337E-09-2.28465E-09
 -1       316-4.00979E+06-5.56630E+05-1.88005E+04-1.49844E+06 2.55591E-09 1.46520E-09
 -1       317-4.01178E+06-5.93306E+05-4.80563E+04-1.50592E+06-7.11680E-10 3.70255E-09
 -1       318-3.98588E+06-5.53437E+05-7.97770E+04-1.51704E+06-6.55655E-09 1.15942E-08
 -1       319-4.11636E+06-7.01639E+05-2.31110E+05-1.45269E+06-1.88447E-09-6.38829E-09
 -1       320-3.90606E+06-4.50128E+05-3.38736E+05-1.55123E+06 8.96398E-09-6.62112E-09
 -1       336 4.96622E+02-7.70852E+05-4.21000E+03 9.78184E+02-7.05859E-09-3.76531E-10
 -1       337-1.53821E+03-7.71869E+05-4.65580E+03-2.48716E+03-1.29054E-08-1.22500E-08
 -1       338 3.34689E+02-7.70957E+05-5.98809E+03 1.50330E+03-9.08403E-09 4.94765E-10
 -1       339-6.21056E+03-7.74776E+05-1.31273E+04-3.52249E+03-1.64023E-08 1.06434E-08
 -1       340 4.18112E+03-7.68022E+05-2.02853E+04 2.00599E+03-1.10513E-08 1.67165E-08
 -1       406 9.98375E+01 2.46857E+05 5.54172E+02-7.42867E+01-8.62656E-10 1.37902E-08
 -1       407 1.67788E+02 2.46956E+05 9.61197E+02 7.62129E+01-4.65661E-10 2.84172E-09
 -1       408 4.48142E+02 2.46801E+05 1.81792E+03-1.76603E+00-1.04751E-09 6.87123E-10
 -1       409 1.89876E+03 2.47522E+05 4.04064E+03-6.83399E+01-6.29370E-10-9.64428E-09
 -1       410 5.48884E+03 2.46289E+05 8.21914E+03 7.30762E+01-1.33059E-09-3.79896E-09
 -1       521-7.36706E+06-7.74914E+05-5.67101E+05-2.72071E+06 2.88492E-09 5.29690E-09
 -1       522-7.08123E+06-1.58108E+06-3.49635E+05-3.07562E+06-2.59238E-08-1.59198E-08
 -1       523-7.58031E+06-7.77288E+05-1.31554E+05-2.48364E+06 3.58341E-10-1.74841E-08
 -1       524-6.87935E+06-1.54669E+06-7.24021E+04-3.37698E+06 2.97068E-08-3.32766E-08
 -1       525-7.60686E+06-7.76704E+05-2.94031E+04-2.44813E+06 2.51075E-08-1.28707E-08
 -1       526-6.89912E+06-1.42035E+06-4.18915E+03-3.23198E+06 1.85009E-08-7.28687E-09
 -1       527-7.53575E+06-9.20946E+05-2.66929E+04-2.61172E+06 1.94996E-09 1.01118E-08
 -1       528-7.12284E+06-1.09219E+06 2.03234E+04-2.79439E+06 3.24872E-09 1.67356E-08
 -1       529-7.34313E+06-1.13347E+06-3.21948E+04-2.85541E+06 2.16824E-09 1.51522E-09
 -1       530-7.56393E+06-7.09004E+05 2.82479E+03-2.38831E+06-1.77552E-08 2.74886E-08
 -1       531-7.11684E+06-1.28785E+06-3.49596E+04-3.03261E+06-3.36076E-08 2.85945E-09
 -1       532-7.90284E+06-5.19639E+05-7.10818E+04-2.20343E+06 1.67472E-08-3.01225E-08
 -1       533-7.04501E+06-1.29466E+06-1.24877E+05-3.07254E+06 1.08885E-08-5.24742E-08
 -1       534-7.89308E+06-8.11035E+05-3.52135E+05-2.23240E+06-1.19835E-08 4.00942E-08
 -1       535-7.11043E+06-1.01308E+06-5.54476E+05-2.98799E+06-1.06229E-08 2.76195E-08
 -1       536-1.03921E+05-1.75509E+04 4.04114E+04-6.28650E+02-7.88930E-10 9.91713E-09
 -1       537-8.48781E+04 2.03166E+04 2.88544E+04-7.38281E+00-8.15243E-09 2.15914E-09
 -1       538-9.72053E+04-2.76230E+03 1.03720E+04-2.39075E+02-4.26724E-10 6.26096E-09
 -1       539-9.28034E+04 3.18896E+03 6.75924E+03-8.33106E+02 4.77971E-09 5.94309E-09
 -1       540-9.60004E+04-4.37195E+02 2.56593E+03 1.97087E+02 6.05723E-10 7.08383E-10
 -1       541-9.43912E+04 4.94685E+02 1.64480E+03-1.63933E+03-1.09867E-09-1.21616E-10
 -1       542-9.56251E+04-6.48389E+01 5.56783E+02 5.67107E+02-1.27250E-09 2.56992E-09
 -1       543-9.50000E+04 4.47540E+01 2.80765E+02-2.25384E+03-6.67448E-11-1.98358E-09
 -1       544-9.54012E+04 1.94125E+01-1.14549E+02 8.11599E+02 5.92628E-10 2.30426E-09
 -1       545-9.53827E+04-1.90689E+02-5.24005E+02-2.58150E+03-4.46491E-10 1.25875E-09
 -1       546-9.52490E+04 1.75235E+02-1.02985E+03 8.94786E+02 3.62220E-10 3.51224E-09
 -1       547-9.59074E+04-1.27507E+03-2.61374E+03-2.57445E+03-3.26564E-09 6.09361E-09
 -1       548-9.48765E+04 1.10289E+03-4.22020E+03 8.04545E+02-3.17496E-09 2.55682E-09
 -1       549-9.88084E+04-8.12685E+03-1.14524E+04-2.22860E+03-1.53111E-09-1.79512E-09
 -1       550-9.23415E+04 7.01672E+03-1.63473E+04 5.48918E+02-8.60467E-11-2.16096E-09
 -1       551 8.69511E+03-3.98632E+05 2.08178E+04-6.75273E+05-3.01225E-08 7.27596E-11
 -1       552 1.91808E+04-4.01750E+05 2.77898E+04-9.61219E+05-2.30357E-08 9.90985E-09
 -1       553 1.30804E+04-4.06951E+05 4.31625E+04-6.72956E+05-3.75294E-08 9.05493E-09
 -1       554 4.15355E+04-3.90360E+05 9.17269E+04-9.62220E+05-2.54950E-08 7.97860E-09
 -1       555 3.97584E+04-4.24591E+05 1.64568E+05-6.73703E+05-3.81042E-08-4.89672E-09
 -1       556 6.10390E+04-1.29129E+05 4.36975E+04-1.68968E+05-6.48288E-09-2.83762E-09
 -1       557 1.13317E+05-1.72460E+05 2.29722E+04-2.11646E+05 6.25732E-10 6.72389E-09
 -1       558 6.08357E+04-1.34943E+05 9.26145E+03-1.63962E+05-1.77533E-09 1.66601E-08
 -1       559 1.06206E+05-1.78416E+05 4.71080E+03-2.14813E+05 4.34011E-09 1.01591E-08
 -1       560 5.92581E+04-1.33896E+05 1.93177E+03-1.64954E+05 1.84082E-09 8.27822E-09
 -1       561 1.03763E+05-1.77785E+05 1.03392E+03-2.16359E+05-8.36735E-11 3.84034E-09
 -1       562 5.79884E+04-1.33046E+05 3.85880E+02-1.65869E+05-2.16824E-09 1.32741E-09
 -1       563 1.02272E+05-1.77144E+05 2.49242E+02-2.17313E+05-2.24463E-09-2.12731E-09
 -1       564 5.71958E+04-1.32535E+05 8.72524E+01-1.66432E+05 2.59024E-09-1.21327E-09
 -1       565 1.01493E+05-1.76811E+05 5.88481E+01-2.17802E+05 2.41562E-09 3.35240E-09
 -1       566 5.69083E+04-1.32344E+05-1.58362E+01-1.66639E+05-2.29375E-09-2.23736E-09
 -1       567 1.01387E+05-1.76758E+05-1.00188E+02-2.17807E+05 4.76825E-09-1.33386E-08
 -1       568 5.71583E+04-1.32509E+05-3.02499E+02-1.66524E+05-4.82032E-09-1.20181E-08
 -1       569 1.01324E+05-1.76650E+05-7.07809E+02-2.16775E+05-3.38878E-09 8.68386E-09
 -1       570 5.84602E+04-1.33683E+05-1.52368E+03-1.66487E+05 1.97178E-09 1.29630E-08
 -1       571 1.77381E+05 6.45150E+03 9.55850E+03-4.50500E+04 5.48880E-10-1.57593E-09
 -1       572 1.78802E+05 2.24507E+03 4.68307E+03-4.93834E+04-7.81938E-10 8.39009E-10
 -1       573 1.77951E+05 5.36513E+02 2.08039E+03-4.49328E+04 1.44246E-09 8.94306E-09
 -1       574 1.78118E+05 1.76444E+02 1.04232E+03-4.95144E+04 7.62384E-10-2.01999E-09
 -1       575 1.78014E+05 2.64150E+01 4.91211E+02-4.49173E+04-2.16460E-10 6.14000E-09
 -1       576 1.78025E+05 9.65718E+00 2.49996E+02-4.95319E+04-9.42464E-11 1.03719E-08
 -1       577 1.78023E+05-8.71895E-01 1.23043E+02-4.49153E+04-1.94188E-09 6.66660E-10
 -1       578 1.78016E+05 1.14204E+00 6.69076E+01-4.95340E+04-3.40958E-09 8.89941E-10
 -1       579 1.78034E+05-2.90382E+00 4.05433E+01-4.49152E+04-6.57110E-10 8.41283E-11
 -1       580 1.78030E+05-4.63994E+00 3.72822E+01-4.95313E+04-2.21917E-10-6.25732E-09
 -1       581 1.78053E+05-1.00681E+01 4.98080E+01-4.49179E+04 2.49202E-10-7.11998E-09
 -1       582 1.78065E+05-3.66965E+00 9.45037E+01-4.95046E+04 8.61746E-10-2.00453E-09
 -1       583 1.78076E+05 1.80279E+01 1.80704E+02-4.49420E+04 7.28505E-10 1.30376E-09
 -1       584 1.78160E+05 1.57811E+02 4.05238E+02-4.93035E+04-1.69757E-09 9.11768E-11
 -1       585 1.78061E+05 5.13988E+02 8.22417E+02-4.51193E+04-7.28505E-10 4.25462E-09
 -1       586-2.12547E+03 5.83306E+04-2.81626E+03-1.53317E+05 3.63343E-10 1.73486E-10
 -1       587-4.43105E+02 5.79520E+04-2.94393E+02-1.68714E+05 6.07542E-10 5.76165E-10
 -1       588 6.16588E+02 5.80240E+04 2.05111E+03-1.53225E+05 3.94721E-10 9.60154E-09
 -1       589 3.03683E+03 5.91485E+04 5.94637E+03-1.68573E+05 7.24867E-10-2.27374E-10
 -1       590 8.70749E+03 5.73151E+04 1.27218E+04-1.53460E+05 3.14685E-10-3.34057E-09
 -1       591-3.89316E+04-1.10789E+04-1.28812E+04-2.01085E+04-1.11186E-10-3.11047E-09
 -1       592-4.01567E+04-1.42236E+04-6.97698E+03-2.34464E+04-1.59434E-09-2.12640E-09
 -1       593-4.02339E+04-1.01300E+04-2.90459E+03-2.10390E+04 1.61140E-09 8.99013E-09
 -1       594-3.83620E+04-1.23510E+04-1.44864E+03-2.35356E+04 1.59889E-09 1.63597E-09
 -1       595-4.03338E+04-1.01256E+04-6.65738E+02-2.10817E+04 4.67594E-10 6.75682E-09
 -1       596-3.82406E+04-1.22652E+04-3.39343E+02-2.35229E+04 3.03390E-09 2.03345E-09
 -1       597-4.03464E+04-1.01338E+04-1.86777E+02-2.10835E+04 4.32138E-10 5.07083E-09
 -1       598-3.82290E+04-1.22620E+04-1.53803E+02-2.35194E+04 2.29520E-10-3.33785E-10
 -1       599-4.03455E+04-1.01339E+04-2.01030E+02-2.10831E+04-1.20713E-09-8.71682E-09
 -1       600-3.82419E+04-1.22664E+04-3.77116E+02-2.35225E+04-1.69285E-09 4.16509E-09
 -1       601-4.03295E+04-1.01250E+04-7.45880E+02-2.10805E+04-4.64752E-10-2.93198E-10
 -1       602-3.83781E+04-1.23625E+04-1.62659E+03-2.35350E+04-9.38599E-10-9.15770E-09
 -1       603-4.02162E+04-1.01315E+04-3.26254E+03-2.10328E+04 4.43379E-11-2.08615E-09
 -1       604-4.04004E+04-1.44586E+04-7.83710E+03-2.34252E+04-8.19568E-10 7.69205E-09
 -1       605-3.87447E+04-1.12037E+04-1.44690E+04-1.99946E+04-2.39766E-10 5.22232E-09
 -1       606 2.51692E+04-8.56612E+03-1.54244E+04 2.45560E+04-3.45244E-09-9.95897E-10
 -1       607 2.25275E+04-2.76356E+03-7.68043E+03 2.75655E+04-7.89441E-10-4.50689E-09
 -1       608 2.40262E+04-4.66171E+02-3.43947E+03 2.43602E+04 2.65936E-09-5.11568E-09
 -1       609 2.37275E+04-1.20912E+02-1.73718E+03 2.77816E+04-6.07542E-10 3.81669E-09
 -1       610 2.38873E+04 2.25786E+01-8.29847E+02 2.43383E+04-3.60615E-09 2.15186E-09
 -1       611 2.38305E+04 3.43076E+01-4.18556E+02 2.78053E+04-7.88714E-09 5.65683E-09
 -1       612 2.38500E+04 3.64991E+01-2.00337E+02 2.43362E+04-4.03816E-09 4.97334E-09
 -1       613 2.38281E+04 4.20545E+01-9.13516E+01 2.78080E+04-5.16229E-09-1.49794E-09
 -1       614 2.38295E+04 3.73490E+01-2.56162E+01 2.43354E+04-6.12999E-10 7.48514E-10
 -1       615 2.38172E+04 4.70838E+01 2.82738E+01 2.78085E+04 5.04087E-09 9.60563E-09
 -1       616 2.38139E+04 4.25920E+01 9.39910E+01 2.43357E+04-4.20414E-09 4.12660E-09
 -1       617 2.38228E+04 7.08151E+01 2.18130E+02 2.78080E+04-3.67436E-10-7.74367E-09
 -1       618 2.37906E+04 1.08315E+02 4.40977E+02 2.43358E+04 3.10592E-10 3.17641E-10
 -1       619 2.39749E+04 4.14171E+02 9.91167E+02 2.78073E+04 1.64619E-10-3.98290E-09
 -1       620 2.36418E+04 1.15644E+03 1.99243E+03 2.43348E+04 2.17631E-09 2.03681E-09
 -1       621 2.99092E+02 1.92706E+05 2.60981E+03 6.67985E+03-2.93298E-10-1.86287E-09
 -1       622 3.43267E+02 1.93353E+05 2.23256E+03 9.75422E+03-1.30399E-10-3.90173E-10
 -1       623 1.40657E+01 1.92890E+05 2.59027E+03 6.64855E+03-2.25270E-10-2.55181E-09
 -1       624 1.17726E+03 1.94117E+05 4.93861E+03 9.78480E+03-2.70859E-10-5.93371E-09
 -1       625 1.18269E+03 1.91937E+05 8.59493E+03 6.64958E+03-2.56478E-10-6.11254E-09
 -1       626 1.59314E+05 4.40454E+04 3.14055E+03 8.60307E+04-6.31826E-09-8.23457E-09
 -1       627 1.57140E+05 4.56515E+04 1.51328E+03 8.94943E+04-2.56296E-09-5.71504E-09
 -1       628 1.59432E+05 4.25590E+04 6.39143E+02 8.65032E+04 1.42791E-09 1.69030E-09
 -1       629 1.56684E+05 4.52953E+04 3.13320E+02 8.97007E+04 8.27185E-10 1.83002E-09
 -1       630 1.59439E+05 4.24889E+04 1.44889E+02 8.65152E+04-3.19233E-10-1.67842E-09
 -1       631 1.56629E+05 4.52877E+04 7.80398E+01 8.97022E+04-3.25417E-09-2.99565E-11
 -1       632 1.59430E+05 4.24948E+04 5.16737E+01 8.65079E+04-6.58156E-09-4.21426E-09
 -1       633 1.56617E+05 4.52926E+04 5.80147E+01 8.96958E+04-2.92130E-09 7.88134E-10
 -1       634 1.59421E+05 4.24957E+04 9.41369E+01 8.65037E+04-2.36423E-09 3.13241E-09
 -1       635 1.56620E+05 4.52942E+04 1.91052E+02 8.96951E+04-7.65476E-09 1.65089E-08
 -1       636 1.59411E+05 4.24951E+04 3.85948E+02 8.65007E+04-1.20456E-08-5.50199E-09
 -1       637 1.56699E+05 4.53557E+04 8.48291E+02 8.96911E+04 1.24940E-09-6.88601E-09
 -1       638 1.59377E+05 4.26843E+04 1.74342E+03 8.64134E+04-8.16271E-11 5.05452E-09
 -1       639 1.57611E+05 4.66311E+04 4.12441E+03 8.94200E+04-3.49007E-09 1.71144E-09
 -1       640 1.59255E+05 4.64808E+04 8.55922E+03 8.48011E+04-1.19326E-09 3.17573E-09
 -1       656 4.31440E+04-1.09205E+06-1.04152E+05-3.64627E+02 9.34961E-10 1.15179E-09
 -1       657-5.70108E+04-1.13906E+06-8.61351E+04 7.03738E+03 1.62345E-09-6.58761E-09
 -1       658 1.36806E+04-1.10546E+06-5.28584E+04-1.36763E+03 5.46606E-10-8.62863E-09
 -1       659-6.11303E+04-1.14101E+06-9.15458E+04 7.70674E+03 7.82165E-11 2.25296E-09
 -1       660 4.72535E+04-1.09010E+06-1.13460E+05-1.03396E+03-6.25732E-10 2.82118E-09
 -1       661 1.53949E+05 1.67582E+04 1.47813E+04 6.01670E+04 2.89697E-09 4.65025E-09
 -1       662 1.61658E+05 2.83424E+04 9.96014E+03 5.75866E+04 3.34558E-09-8.87258E-09
 -1       663 1.56846E+05 2.15057E+04 3.48413E+03 5.93314E+04-4.40195E-10-1.49282E-09
 -1       664 1.58306E+05 2.27847E+04 2.08307E+03 5.86021E+04 9.28821E-11-4.71800E-10
 -1       665 1.57280E+05 2.21598E+04 8.21705E+02 5.92104E+04-1.62561E-09-4.76064E-11
 -1       666 1.57798E+05 2.20320E+04 4.79180E+02 5.87566E+04-6.44650E-09 7.56012E-09
 -1       667 1.57351E+05 2.22387E+04 2.52643E+02 5.91843E+04 7.32456E-10 2.49699E-09
 -1       668 1.57722E+05 2.19691E+04 2.53085E+02 5.87939E+04 7.79045E-09 1.32843E-09
 -1       669 1.57355E+05 2.22209E+04 3.39108E+02 5.91738E+04 2.28491E-09 2.80994E-09
 -1       670 1.57808E+05 2.21473E+04 7.35079E+02 5.87921E+04 7.63877E-09 3.12178E-09
 -1       671 1.57265E+05 2.20640E+04 1.30410E+03 5.91847E+04 2.14068E-09-2.49611E-09
 -1       672 1.58569E+05 2.34142E+04 3.33563E+03 5.86067E+04-1.89488E-09-1.27659E-09
 -1       673 1.56598E+05 2.09859E+04 5.58966E+03 5.93470E+04-2.70290E-09-7.77140E-09
 -1       674 1.63893E+05 3.23916E+04 1.59853E+04 5.70403E+04-4.55037E-09 1.96360E-09
 -1       675 1.51976E+05 1.33377E+04 2.37271E+04 6.06564E+04 2.50020E-09 6.95763E-10
 -1       676 1.75411E+01-2.09243E+05-8.14333E+02 3.65809E+01-1.00556E-10-7.89079E-09
 -1       677-2.16130E+02-2.09440E+05-1.49031E+03-7.31295E+01-1.32263E-09-1.81670E-08
 -1       678 1.44358E+02-2.09103E+05-2.63447E+03 3.65234E+01-1.64380E-09-1.01551E-08
 -1       679-2.63497E+03-2.11030E+05-6.25814E+03-7.29033E+01-5.26643E-09 2.94804E-09
 -1       680 1.57257E+03-2.07653E+05-1.00860E+04 3.59361E+01-2.64208E-10-8.13650E-10
 -1       771-2.24591E+06-3.98063E+05-5.57069E+04-9.36905E+05-9.79344E-09-7.81438E-09
 -1       772-2.23052E+06-4.28581E+05-2.98034E+04-9.71001E+05-6.40284E-09 2.69301E-09
 -1       773-2.25381E+06-3.91904E+05-1.30287E+04-9.40005E+05 3.20142E-10 8.52742E-09
 -1       774-2.22265E+06-4.22191E+05-6.29715E+03-9.74920E+05 6.09725E-09 4.91127E-11
 -1       775-2.25588E+06-3.90527E+05-3.30763E+03-9.40266E+05-6.55564E-09-3.32329E-09
 -1       776-2.22265E+06-4.22276E+05-1.49094E+03-9.77170E+05-2.57205E-09 2.27647E-09
 -1       777-2.25738E+06-3.89432E+05-1.00669E+03-9.40424E+05 2.69210E-10 1.43336E-09
 -1       778-2.22311E+06-4.22535E+05-4.19880E+02-9.79051E+05 1.76078E-09 3.92447E-09
 -1       779-2.25858E+06-3.88501E+05-4.52484E+02-9.40567E+05-2.24099E-09-2.55022E-09
 -1       780-2.22359E+06-4.22746E+05-3.01635E+02-9.80574E+05-3.17959E-09-7.73070E-12
 -1       781-2.25950E+06-3.87758E+05-5.48272E+02-9.40677E+05-5.01313E-09 3.60114E-09
 -1       782-2.22403E+06-4.22940E+05-9.26953E+02-9.81694E+05-9.32050E-09-3.00156E-09
 -1       783-2.26007E+06-3.87266E+05-1.86139E+03-9.40735E+05-2.75759E-09-3.87172E-09
 -1       784-2.22537E+06-4.24205E+05-4.37805E+03-9.82327E+05-5.88352E-09 1.66210E-10
 -1       785-2.25958E+06-3.87598E+05-8.10238E+03-9.40186E+05-1.06693E-08 1.25510E-09
 -1       786 1.63040E+05-8.74291E+03 2.02268E+04-9.15137E+00 9.52994E-07 1.01063E-08
 -1       787 1.71804E+05 1.01216E+04 1.43101E+04 1.93717E+00 1.89806E-06 6.22072E-09
 -1       788 1.66421E+05-1.37055E+03 5.23523E+03-4.59597E+00 2.00513E-06-6.45900E-09
 -1       789 1.67865E+05 1.58581E+03 3.28933E+03-6.81591E+00 2.10867E-06 1.35512E-08
 -1       790 1.66979E+05-2.14101E+02 1.33841E+03-3.98486E-01 2.34284E-06-5.92695E-09
 -1       791 1.67214E+05 2.48749E+02 7.85786E+02-1.61591E+01 2.57904E-06 1.19442E-08
 -1       792 1.67073E+05-3.44977E+01 3.58562E+02 4.74735E+00 3.16030E-06-1.85827E-08
 -1       793 1.67109E+05 4.84127E+01 2.34817E+02-2.88373E+01 3.73560E-06 5.14857E-09
 -1       794 1.67085E+05-1.38971E+01 1.73722E+02 1.22799E+01 1.86951E-06-1.16667E-08
 -1       795 1.67119E+05 7.16159E+01 2.50972E+02-4.83591E+01 6.12826E-09 6.46120E-09
 -1       796 1.67062E+05-5.76840E+01 3.75738E+02 2.42696E+01 2.11585E-10-4.04047E-09
 -1       797 1.67289E+05 4.22858E+02 8.85791E+02-8.00963E+01-3.43702E-10-4.94987E-09
 -1       798 1.66914E+05-3.64882E+02 1.39810E+03 4.40176E+01 1.40101E-10 5.16980E-09
 -1       799 1.68338E+05 2.69417E+03 3.81149E+03-1.33077E+02-1.05552E-09 2.58729E-09
 -1       800 1.66013E+05-2.32717E+03 5.38388E+03 7.72502E+01 2.36490E-10 2.97746E-09
 -1       801-5.01263E+03-1.72553E+05-5.15081E+03 1.88645E+04 1.00872E-08-1.50771E-09
 -1       802 1.78047E+04-7.22969E+04 3.87526E+04-7.28159E+04 2.72557E-08-3.84503E-09
 -1       803-1.19282E+04-1.29962E+05 5.41066E+04 2.11005E+04 2.13622E-08 1.67651E-08
 -1       804 1.12464E+05-1.78283E+04 1.63206E+05-7.31346E+04 2.51439E-08 2.17313E-08
 -1       805-9.97921E+04-2.26658E+05 2.02784E+05 1.91793E+04 8.89122E-09 2.24793E-08
 -1       806-1.93161E+05-4.12248E+04-1.63574E+04-8.02657E+04 1.11072E-09 6.36192E-09
 -1       807-1.94139E+05-3.88671E+04-8.03602E+03-8.45852E+04-5.33061E-09-1.47821E-08
 -1       808-1.93624E+05-3.53165E+04-3.40887E+03-8.30413E+04-4.92719E-10 3.53477E-09
 -1       809-1.92425E+05-3.66346E+04-1.66651E+03-8.48152E+04 1.36606E-09 1.12930E-08
 -1       810-1.93696E+05-3.51082E+04-7.63091E+02-8.31638E+04 7.32143E-11-1.69393E-10
 -1       811-1.92294E+05-3.65463E+04-3.78461E+02-8.47952E+04 1.84855E-09-4.47926E-10
 -1       812-1.93709E+05-3.51239E+04-1.88922E+02-8.31634E+04 6.29825E-10-1.96337E-09
 -1       813-1.92277E+05-3.65486E+04-1.19222E+02-8.47847E+04-2.00089E-11 6.82576E-10
 -1       814-1.93706E+05-3.51298E+04-1.11914E+02-8.31607E+04-2.95267E-09-1.25601E-09
 -1       815-1.92278E+05-3.65506E+04-1.75192E+02-8.47814E+04-9.28048E-09-8.84768E-09
 -1       816-1.93695E+05-3.51288E+04-3.28318E+02-8.31583E+04-9.18590E-11 9.75774E-09
 -1       817-1.92334E+05-3.65821E+04-7.03807E+02-8.47750E+04 2.12049E-09 2.57432E-09
 -1       818-1.93652E+05-3.52278E+04-1.43441E+03-8.31114E+04 4.34738E-09-2.35195E-09
 -1       819-1.93126E+05-3.74431E+04-3.37581E+03-8.45827E+04 1.07457E-08 4.85670E-10
 -1       820-1.93379E+05-3.77802E+04-6.87045E+03-8.20230E+04 6.27188E-09 6.88067E-09
 -1       821-2.49724E+05 1.38489E+04-3.20280E+04 8.64070E+01 3.23604E-11-3.01770E-09
 -1       822-2.63604E+05-1.60324E+04-2.26644E+04-6.07939E+02-1.41639E-09-5.08203E-09
 -1       823-2.55081E+05 2.17115E+03-8.29533E+03 5.49478E+01 1.36871E-09-2.05955E-09
 -1       824-2.57358E+05-2.51302E+03-5.21940E+03-4.63814E+02-1.64944E-11 3.78105E-09
 -1       825-2.55969E+05 3.39777E+02-2.14536E+03-5.77222E+01-2.85987E-09 7.63976E-10
 -1       826-2.56324E+05-4.00737E+02-1.29492E+03-2.01428E+02-5.75064E-09-2.24986E-09
 -1       827-2.56114E+05 6.02678E+01-6.70486E+02-2.07443E+02-4.03201E-09-1.19344E-09
 -1       828-2.56185E+05-1.22243E+02-5.92446E+02 7.84634E+01-5.49711E-09 1.08341E-08
 -1       829-2.56108E+05 6.15391E+01-6.80216E+02-3.37619E+02 6.67360E-11 3.11800E-09
 -1       830-2.56342E+05-4.10753E+02-1.32804E+03 2.70069E+02 2.50330E-09-5.12500E-10
 -1       831-2.55956E+05 3.48752E+02-2.19924E+03-3.99053E+02-2.75730E-09-8.41283E-10
 -1       832-2.57399E+05-2.57918E+03-5.35908E+03 3.01555E+02-1.96741E-09-3.25542E-09
 -1       833-2.55052E+05 2.22844E+03-8.51592E+03-3.69103E+02-1.35384E-09-2.87400E-10
 -1       834-2.63797E+05-1.64581E+04-2.32666E+04 1.63260E+02-1.49369E-09-6.42558E-10
 -1       835-2.49560E+05 1.42168E+04-3.28828E+04-2.60748E+02 4.62920E-09 5.09317E-09
 -1       836-8.31500E+02 2.36254E+05 1.42364E+04-2.05974E+04 1.54932E-09 3.10411E-09
 -1       837 3.13734E+03 2.40660E+05 1.21489E+04-4.13650E+04 2.25759E-09-1.99907E-09
 -1       838-3.03493E+02 2.37481E+05 1.25196E+04-2.05278E+04 2.03863E-09 2.73099E-09
 -1       839 8.03670E+03 2.44313E+05 2.38224E+04-4.13899E+04 2.78396E-09 5.37412E-10
 -1       840-2.41297E+03 2.32569E+05 3.80450E+04-2.05710E+04 1.99907E-09-2.28033E-09
 -1       856-7.71439E+04 6.64917E+03-1.75222E+04-3.93090E+02-3.62911E-09 2.67846E-09
 -1       857-8.43822E+04-7.79837E+03-1.20637E+04 3.99941E+03-1.72292E-09 1.94404E-10
 -1       858-8.00035E+04 9.31654E+02-4.54752E+03-4.10703E+02-3.23169E-09-4.70686E-09
 -1       859-8.10980E+04-1.08306E+03-2.74658E+03 4.02752E+03 1.37584E-09 1.21861E-08
 -1       860-8.04311E+04 1.29553E+02-1.15487E+03-4.21325E+02 2.96836E-10-9.91690E-10
 -1       861-8.06054E+04-1.42947E+02-6.43313E+02 4.04204E+03-4.58600E-09 6.20616E-10
 -1       862-8.04976E+04 1.71548E+01-2.83446E+02-4.25253E+02 5.90564E-09 1.38128E-09
 -1       863-8.05267E+04-1.03175E+01-1.39638E+02 4.04379E+03 9.60996E-09-5.29778E-09
 -1       864-8.05100E+04-1.66378E-01-4.27733E+01-4.23081E+02 3.28126E-09-4.96912E-09
 -1       865-8.05034E+04 2.06339E+01 2.91905E+01 4.03286E+03 2.73401E-09-1.72842E-09
 -1       866-8.05197E+04-1.41790E+01 1.00917E+02-4.14317E+02 6.58446E-10-2.83286E-09
 -1       867-8.04449E+04 1.18938E+02 2.75366E+02 4.00908E+03 1.05933E-09-2.56341E-09
 -1       868-8.05658E+04-9.78440E+01 4.64119E+02-3.99308E+02 3.01361E-09-3.31130E-09
 -1       869-8.00968E+04 8.11474E+02 1.24565E+03 3.96968E+03-9.81174E-10-5.95622E-09
 -1       870-8.08637E+04-6.89580E+02 1.80648E+03-3.74920E+02 3.72410E-09 1.35196E-09
 -1       871-3.66289E+03-7.66903E+03-1.18698E+04 7.78288E+04 1.25965E-09-7.67432E-09
 -1       872-1.59827E+03-1.03233E+04-4.83567E+03 1.00900E+05 3.08046E-09 6.09793E-09
 -1       873-4.40856E+01-9.08349E+03 6.98656E+02 7.76574E+04 1.59639E-09-1.26305E-08
 -1       874 1.81720E+03-7.35123E+03 6.75066E+03 1.00936E+05 4.68208E-09-2.49569E-08
 -1       875 4.32337E+03-1.06859E+04 1.49654E+04 7.78002E+04 2.17187E-09-1.26597E-08
 -1       876 1.94421E+05 3.35285E+04 1.04152E+04 7.89120E+04-4.30759E-09 2.92039E-09
 -1       877 1.95010E+05 3.58204E+04 5.56195E+03 8.19983E+04-6.79063E-09 4.86011E-10
 -1       878 1.95394E+05 3.23756E+04 2.33020E+03 7.97673E+04 5.29712E-09-3.22871E-09
 -1       879 1.93593E+05 3.44096E+04 1.16077E+03 8.20724E+04-1.55251E-09-1.98503E-09
 -1       880 1.95465E+05 3.23626E+04 5.40400E+02 7.98021E+04 1.18757E-09 1.90641E-09
 -1       881 1.93499E+05 3.43497E+04 2.87792E+02 8.20578E+04 4.61296E-09-5.87328E-10
 -1       882 1.95472E+05 3.23711E+04 1.82770E+02 7.98031E+04 4.42105E-09 1.00344E-09
 -1       883 1.93493E+05 3.43469E+04 1.94309E+02 8.20537E+04 1.48066E-09 7.55118E-09
 -1       884 1.95468E+05 3.23689E+04 3.07134E+02 7.98032E+04 6.32667E-11 3.95954E-09
 -1       885 1.93517E+05 3.43513E+04 6.16282E+02 8.20614E+04 4.45661E-09 6.14605E-09
 -1       886 1.95445E+05 3.23509E+04 1.24152E+03 7.98008E+04-1.97549E-09-6.71719E-09
 -1       887 1.93735E+05 3.44943E+04 2.71175E+03 8.20928E+04-3.12741E-09-1.30967E-10
 -1       888 1.95273E+05 3.23811E+04 5.46422E+03 7.97140E+04 4.50024E-09 1.27875E-09
 -1       889 1.96992E+05 3.78746E+04 1.30537E+04 8.19892E+04 2.92816E-09-2.10639E-09
 -1       890 1.93047E+05 3.50257E+04 2.44484E+04 7.76295E+04 2.18051E-09 4.48017E-09
 -1       891-1.23154E+02-1.10536E+05-1.30372E+03 2.10224E+04-2.54772E-10 1.99032E-09
 -1       892-2.13911E+02-1.10847E+05-1.41886E+03 3.18103E+04-4.02019E-09-2.46064E-09
 -1       893-3.64074E+01-1.10577E+05-2.02810E+03 2.10264E+04 4.73847E-10 2.20734E-09
 -1       894-1.11193E+03-1.11626E+05-4.21154E+03 3.16973E+04-1.71303E-09-1.82422E-09
 -1       895-8.68385E+02-1.09701E+05-7.42162E+03 2.11338E+04-2.67164E-10-1.70621E-09
 -1       956-2.44352E+05-3.52208E+03-8.87127E+03 1.61722E+04-3.92720E-09-1.39312E-09
 -1       957-2.46104E+05-1.18664E+03-4.55420E+03 1.94741E+04-8.76753E-10-4.58840E-10
 -1       958-2.45138E+05-9.29567E+01-2.05176E+03 1.60665E+04 2.19688E-09-5.38330E-09
 -1       959-2.45278E+05-1.43607E+01-1.04800E+03 1.95882E+04-1.03000E-09-3.04044E-09
 -1       960-2.45208E+05 3.10852E+01-5.10805E+02 1.60565E+04-3.92674E-09-1.55410E-09
 -1       961-2.45218E+05 2.95926E+01-2.70823E+02 1.95996E+04-5.76438E-09 5.91513E-09
 -1       962-2.45222E+05 2.73593E+01-1.54614E+02 1.60551E+04-3.73984E-09 5.03610E-09
 -1       963-2.45215E+05 3.06165E+01-1.23384E+02 1.96016E+04-6.18002E-09 4.43572E-09
 -1       964-2.45225E+05 2.90650E+01-1.48856E+02 1.60545E+04-6.40739E-10 3.04840E-09
 -1       965-2.45224E+05 3.33494E+01-2.56439E+02 1.96017E+04 6.03440E-09 3.48905E-10
 -1       966-2.45218E+05 3.61090E+01-4.80903E+02 1.60550E+04-1.96792E-10-1.13539E-09
 -1       967-2.45288E+05-4.31747E+00-9.86102E+02 1.95956E+04-6.13795E-10-7.05313E-10
 -1       968-2.45157E+05-7.71168E+01-1.92960E+03 1.60607E+04-2.00976E-09 4.68145E-09
 -1       969-2.46071E+05-1.10394E+03-4.28427E+03 1.95287E+04 1.78602E-10-2.86215E-09
 -1       970-2.44422E+05-3.30083E+03-8.34472E+03 1.61244E+04 2.62253E-09-2.72848E-11
 -1       971-2.32074E+05-1.22486E+03-6.82166E+03 1.13340E+04-3.03453E-09 3.20426E-10
 -1       972-2.33734E+05-8.77114E+02-3.71516E+03 1.58338E+04-1.23464E-09-8.35917E-09
 -1       973-2.32832E+05-6.25191E+00-1.66343E+03 1.12396E+04-4.19368E-09-2.59740E-09
 -1       974-2.32948E+05-5.93349E+00-8.61762E+02 1.59353E+04-6.46651E-10 2.65038E-09
 -1       975-2.32890E+05 2.51408E+01-4.29646E+02 1.12313E+04 1.04637E-09-1.97542E-09
 -1       976-2.32900E+05 2.93067E+01-2.46017E+02 1.59453E+04-3.88297E-09-2.21257E-09
 -1       977-2.32901E+05 2.45937E+01-1.75134E+02 1.12295E+04 2.63026E-09-1.91199E-09
 -1       978-2.32902E+05 3.29918E+01-2.00339E+02 1.59478E+04 1.22215E-08-3.42095E-09
 -1       979-2.32900E+05 2.98242E+01-3.17874E+02 1.12288E+04 1.01816E-08-4.12570E-10
 -1       980-2.32925E+05 3.48729E+01-6.11263E+02 1.59482E+04 1.32418E-08-7.97058E-09
 -1       981-2.32881E+05 4.50590E+01-1.18252E+03 1.12291E+04 2.53715E-09 7.67727E-10
 -1       982-2.33088E+05-5.22789E+01-2.44348E+03 1.59435E+04 3.54703E-10 4.42967E-10
 -1       983-2.32732E+05-3.03167E+01-4.74724E+03 1.12336E+04 3.87968E-09 1.46440E-09
 -1       984-2.35371E+05-2.53098E+03-1.06306E+04 1.58796E+04 1.71997E-09-1.72793E-09
 -1       985-2.30584E+05-3.50374E+03-1.95212E+04 1.12976E+04 5.13273E-09 1.00863E-09
 -3
    1PSTEP                         9           5           1          
  100CL  105 5.03906E-01         409                     0    5           1
 -4  DISP        4    1
 -5  D1          1    2    1    0
 -5  D2          1    2    2    0
 -5  D3          1    2    3    0
 -5  ALL         1    2    0    0    1ALL
 -1         1 1.52996E-04 0.00000E+00 0.00000E+00
 -1         2 1.37936E-04-1.66309E-30-4.13590E-25
 -1         3 1.35473E-04 2.05997E-27-6.61744E-24
 -1         5 9.22338E-05-4.56506E-27 0.00000E+00
 -1         8 1.28010E-04-8.82723E-07 0.00000E+00
 -1         9 1.25460E-04-6.63253E-08 0.00000E+00
 -1        10 1.25010E-04-1.83247E-06 0.00000E+00
 -1        12 9.18416E-05 5.53054E-07-1.65436E-24
 -1        15 9.82271E-05-9.77853E-07-4.13590E-25
 -1        16 1.02023E-04-2.43741E-07 0.00000E+00
 -1        17 9.17495E-05-3.88858E-06 0.00000E+00
 -1        18 8.95804E-05 2.53014E-06 0.00000E+00
 -1        19 9.06588E-05 1.10855E-06 0.00000E+00
 -1        20 9.07983E-05 1.41483E-05 0.00000E+00
 -1        21 9.02524E-05 2.62672E-05-1.65436E-24
 -1        24 2.04413E-05-5.36862E-06 0.00000E+00
 -1        25 8.86701E-05 2.65997E-06 0.00000E+00
 -1        26 8.96147E-05 1.53951E-06 0.00000E+00
 -1        27 8.80829E-05 1.16828E-05 0.00000E+00
 -1        28 8.76171E-05 2.57979E-05 0.00000E+00
 -1        32 0.00000E+00 0.00000E+00 0.00000E+00
 -1        33 8.73198E-05 2.06036E-06 0.00000E+00
 -1        34 8.58377E-05 1.16599E-05 0.00000E+00
 -1        35 8.44341E-05 2.55493E-05 0.00000E+00
 -1        51 1.51374E-04-1.45897E-07 0.00000E+00
 -1        52 1.48364E-04-2.86903E-07 0.00000E+00
 -1        53 1.44239E-04-4.29290E-07 0.00000E+00
 -1        54 1.39283E-04-5.74627E-07-3.30872E-24
 -1        55 1.33778E-04-7.23720E-07-6.72084E-25
 -1        56 1.51633E-04-8.02422E-07 2.64698E-23
 -1        57 1.50393E-04-2.08815E-06 0.00000E+00
 -1        58 1.49282E-04-3.71240E-06-5.29396E-23
 -1        59 1.48238E-04-5.54272E-06 0.00000E+00
 -1        60 1.47214E-04-7.42448E-06 0.00000E+00
 -1        61 1.46149E-04-9.20494E-06-2.64698E-23
 -1        62 1.44992E-04-1.07379E-05 5.29396E-23
 -1        63 1.43691E-04-1.18866E-05 2.64698E-23
 -1        64 1.42205E-04-1.25414E-05 5.29396E-23
 -1        65 1.40499E-04-1.26106E-05 2.64698E-23
 -1        66 1.38555E-04-1.20443E-05 0.00000E+00
 -1        67 1.36362E-04-1.08147E-05-2.64698E-23
 -1        68 1.33927E-04-8.94251E-06-5.29396E-23
 -1        69 1.31273E-04-6.46786E-06 0.00000E+00
 -1        70 1.28422E-04-3.48034E-06-2.64698E-23
 -1        86 1.37589E-04-3.57153E-09 8.27181E-25
 -1        87 1.36546E-04-8.14217E-09 0.00000E+00
 -1        88 1.34811E-04-1.37160E-08-1.65436E-24
 -1        89 1.32383E-04-2.40410E-08 0.00000E+00
 -1        90 1.29265E-04-3.50648E-08-6.61744E-24
 -1       121 1.35180E-04-3.03400E-07 6.61744E-24
 -1       122 1.34304E-04-6.07135E-07 0.00000E+00
 -1       123 1.32845E-04-9.11534E-07 0.00000E+00
 -1       124 1.30807E-04-1.21697E-06 0.00000E+00
 -1       125 1.28193E-04-1.52368E-06-6.61744E-24
 -1       191 9.22229E-05 9.21742E-08 0.00000E+00
 -1       192 9.21901E-05 1.84347E-07 0.00000E+00
 -1       193 9.21356E-05 2.76520E-07 0.00000E+00
 -1       194 9.20593E-05 3.68694E-07 0.00000E+00
 -1       195 9.19612E-05 4.60868E-07 0.00000E+00
 -1       251 1.27838E-04 3.39892E-06 6.61744E-24
 -1       252 1.27678E-04 6.31813E-06 3.30872E-24
 -1       253 1.27519E-04 7.94417E-06 0.00000E+00
 -1       254 1.27364E-04 8.35441E-06 0.00000E+00
 -1       255 1.27208E-04 7.72211E-06-6.61744E-24
 -1       256 1.27052E-04 6.22718E-06-3.30872E-24
 -1       257 1.26895E-04 4.11747E-06-6.61744E-24
 -1       258 1.26737E-04 1.64474E-06 0.00000E+00
 -1       259 1.26579E-04-9.10707E-07-6.61744E-24
 -1       260 1.26421E-04-3.26799E-06 3.30872E-24
 -1       261 1.26264E-04-5.16183E-06 0.00000E+00
 -1       262 1.26108E-04-6.32996E-06 3.30872E-24
 -1       263 1.25952E-04-6.56723E-06 0.00000E+00
 -1       264 1.25794E-04-5.67442E-06 3.30872E-24
 -1       265 1.25635E-04-3.54152E-06 0.00000E+00
 -1       266 1.23047E-04-9.10649E-07-6.61744E-24
 -1       267 1.18083E-04-9.25033E-07 0.00000E+00
 -1       268 1.13119E-04-9.40274E-07 0.00000E+00
 -1       269 1.08155E-04-9.52974E-07 0.00000E+00
 -1       270 1.03191E-04-9.65616E-07-4.13590E-25
 -1       271 1.25013E-04 2.93474E-06 0.00000E+00
 -1       272 1.22417E-04 5.55549E-06-1.32349E-23
 -1       273 1.20230E-04 7.09907E-06 0.00000E+00
 -1       274 1.18396E-04 7.68394E-06 0.00000E+00
 -1       275 1.16869E-04 7.45207E-06 0.00000E+00
 -1       276 1.15588E-04 6.55740E-06-2.64698E-23
 -1       277 1.14493E-04 5.16705E-06 0.00000E+00
 -1       278 1.13518E-04 3.45664E-06 2.64698E-23
 -1       279 1.12594E-04 1.60789E-06 5.29396E-23
 -1       280 1.11653E-04-1.94941E-07 0.00000E+00
 -1       281 1.10626E-04-1.76862E-06 0.00000E+00
 -1       282 1.09448E-04-2.93384E-06-2.64698E-23
 -1       283 1.08053E-04-3.51930E-06-5.29396E-23
 -1       284 1.06385E-04-3.36236E-06 1.32349E-23
 -1       285 1.04381E-04-2.31800E-06 0.00000E+00
 -1       301 1.21242E-04-1.06673E-07 6.61744E-24
 -1       302 1.17066E-04-1.28305E-07 0.00000E+00
 -1       303 1.12995E-04-1.48763E-07 0.00000E+00
 -1       304 1.09090E-04-1.69831E-07 3.30872E-24
 -1       305 1.05413E-04-1.92352E-07-1.32349E-23
 -1       306 1.22470E-04 2.24144E-06 0.00000E+00
 -1       307 1.20293E-04 2.20886E-06 0.00000E+00
 -1       308 1.18942E-04-1.83932E-08 0.00000E+00
 -1       309 1.18306E-04-4.19771E-06-2.64698E-23
 -1       310 1.18172E-04-9.73041E-06 0.00000E+00
 -1       311 1.18286E-04-1.59442E-05 2.64698E-23
 -1       312 1.18359E-04-2.20439E-05 0.00000E+00
 -1       313 1.18097E-04-2.72416E-05 0.00000E+00
 -1       314 1.17268E-04-3.09104E-05 0.00000E+00
 -1       315 1.15669E-04-3.25109E-05 0.00000E+00
 -1       316 1.13230E-04-3.18742E-05 0.00000E+00
 -1       317 1.09932E-04-2.89579E-05-2.64698E-23
 -1       318 1.05907E-04-2.41265E-05 0.00000E+00
 -1       319 1.01343E-04-1.78473E-05-2.64698E-23
 -1       320 9.65014E-05-1.08548E-05 0.00000E+00
 -1       336 1.21188E-04-2.16738E-06 6.61744E-24
 -1       337 1.16661E-04-2.50556E-06 3.30872E-24
 -1       338 1.11439E-04-2.84689E-06 1.32349E-23
 -1       339 1.05536E-04-3.19134E-06 0.00000E+00
 -1       340 9.89670E-05-3.53982E-06-6.61744E-24
 -1       406 9.17003E-05 6.46097E-07-3.30872E-24
 -1       407 9.15368E-05 7.39125E-07 1.65436E-24
 -1       408 9.13510E-05 8.32099E-07-3.30872E-24
 -1       409 9.11426E-05 9.24899E-07 0.00000E+00
 -1       410 9.09118E-05 1.01734E-06-3.30872E-24
 -1       521 1.03556E-04-1.34762E-05 0.00000E+00
 -1       522 1.15250E-04-5.63696E-05 0.00000E+00
 -1       523 1.34178E-04-1.21808E-04-1.05879E-22
 -1       524 1.57123E-04-2.00697E-04-5.29396E-23
 -1       525 1.80471E-04-2.80949E-04 1.05879E-22
 -1       526 2.00590E-04-3.50355E-04 0.00000E+00
 -1       527 2.14196E-04-3.99131E-04 0.00000E+00
 -1       528 2.18107E-04-4.19327E-04-5.29396E-23
 -1       529 2.10762E-04-4.09187E-04 1.05879E-22
 -1       530 1.91477E-04-3.69486E-04 0.00000E+00
 -1       531 1.62406E-04-3.07118E-04 0.00000E+00
 -1       532 1.26926E-04-2.30667E-04-5.29396E-23
 -1       533 9.02044E-05-1.51531E-04 0.00000E+00
 -1       534 5.76060E-05-8.12835E-05-1.58819E-22
 -1       535 3.32930E-05-2.97597E-05-5.29396E-23
 -1       536 9.16002E-05 4.53220E-06 6.61744E-24
 -1       537 9.14402E-05 1.47055E-05 0.00000E+00
 -1       538 9.12741E-05 2.54718E-05-3.30872E-24
 -1       539 9.11147E-05 3.56693E-05-1.65436E-24
 -1       540 9.09695E-05 4.42622E-05 3.30872E-24
 -1       541 9.08429E-05 5.02228E-05 0.00000E+00
 -1       542 9.07291E-05 5.31107E-05 0.00000E+00
 -1       543 9.06192E-05 5.25005E-05-1.65436E-24
 -1       544 9.05029E-05 4.87462E-05 0.00000E+00
 -1       545 9.03730E-05 4.22168E-05-1.65436E-24
 -1       546 9.02307E-05 3.39007E-05 0.00000E+00
 -1       547 9.00820E-05 2.47950E-05 1.65436E-24
 -1       548 8.99365E-05 1.60731E-05 0.00000E+00
 -1       549 8.98040E-05 8.90684E-06-8.27181E-25
 -1       550 8.96845E-05 4.12145E-06 0.00000E+00
 -1       551 8.23404E-05-4.10673E-06 0.00000E+00
 -1       552 7.11218E-05-4.33862E-06-3.30872E-24
 -1       553 5.87036E-05-4.58337E-06 0.00000E+00
 -1       554 4.57052E-05-4.83722E-06-3.30872E-24
 -1       555 3.27460E-05-5.09334E-06 0.00000E+00
 -1       556 8.92328E-05 2.62827E-06 0.00000E+00
 -1       557 8.72877E-05 7.67508E-06 0.00000E+00
 -1       558 8.58527E-05 1.13832E-05 0.00000E+00
 -1       559 8.48720E-05 1.38947E-05 0.00000E+00
 -1       560 8.42899E-05 1.53514E-05 0.00000E+00
 -1       561 8.40513E-05 1.58960E-05-6.61744E-24
 -1       562 8.41017E-05 1.56713E-05 0.00000E+00
 -1       563 8.43868E-05 1.48203E-05 0.00000E+00
 -1       564 8.48527E-05 1.34864E-05 0.00000E+00
 -1       565 8.54455E-05 1.18126E-05 0.00000E+00
 -1       566 8.61118E-05 9.94249E-06 1.65436E-24
 -1       567 8.67978E-05 8.01936E-06-4.13590E-25
 -1       568 8.74500E-05 6.18661E-06 0.00000E+00
 -1       569 8.80151E-05 4.58746E-06 0.00000E+00
 -1       570 8.84393E-05 3.36518E-06 0.00000E+00
 -1       571 8.96459E-05 2.47318E-06 1.65436E-24
 -1       572 8.97127E-05 2.37209E-06 2.06795E-25
 -1       573 8.97800E-05 2.23502E-06-8.27181E-25
 -1       574 8.98476E-05 2.07054E-06 0.00000E+00
 -1       575 8.99151E-05 1.88728E-06 0.00000E+00
 -1       576 8.99828E-05 1.69388E-06 0.00000E+00
 -1       577 9.00504E-05 1.49902E-06 0.00000E+00
 -1       578 9.01180E-05 1.31136E-06-1.65436E-24
 -1       579 9.01857E-05 1.13960E-06 0.00000E+00
 -1       580 9.02533E-05 9.92396E-07-3.30872E-24
 -1       581 9.03210E-05 8.78433E-07 0.00000E+00
 -1       582 9.03886E-05 8.06372E-07 0.00000E+00
 -1       583 9.04563E-05 7.84874E-07-3.30872E-24
 -1       584 9.05239E-05 8.22505E-07 0.00000E+00
 -1       585 9.05914E-05 9.27782E-07 0.00000E+00
 -1       586 8.93984E-05 2.55311E-06 8.27181E-25
 -1       587 8.91894E-05 2.57554E-06 2.06795E-25
 -1       588 8.89825E-05 2.59774E-06 0.00000E+00
 -1       589 8.88074E-05 2.61957E-06 0.00000E+00
 -1       590 8.86937E-05 2.64079E-06 0.00000E+00
 -1       591 8.95694E-05 2.51043E-06-1.03398E-25
 -1       592 8.95685E-05 2.45671E-06 0.00000E+00
 -1       593 8.95777E-05 2.37561E-06 8.27181E-25
 -1       594 8.95946E-05 2.27304E-06 0.00000E+00
 -1       595 8.96172E-05 2.15502E-06 0.00000E+00
 -1       596 8.96434E-05 2.02749E-06-2.06795E-25
 -1       597 8.96709E-05 1.89641E-06 0.00000E+00
 -1       598 8.96974E-05 1.76772E-06 2.06795E-25
 -1       599 8.97209E-05 1.64739E-06 0.00000E+00
 -1       600 8.97389E-05 1.54135E-06 0.00000E+00
 -1       601 8.97495E-05 1.45556E-06-4.13590E-25
 -1       602 8.97502E-05 1.39596E-06-1.03398E-25
 -1       603 8.97390E-05 1.36851E-06 0.00000E+00
 -1       604 8.97138E-05 1.37922E-06-5.16988E-26
 -1       605 8.96723E-05 1.43400E-06 0.00000E+00
 -1       606 9.06710E-05 1.44290E-06 0.00000E+00
 -1       607 9.06808E-05 1.86955E-06 0.00000E+00
 -1       608 9.06899E-05 2.38310E-06-3.30872E-24
 -1       609 9.06987E-05 2.97743E-06 0.00000E+00
 -1       610 9.07073E-05 3.64640E-06 0.00000E+00
 -1       611 9.07159E-05 4.38378E-06 0.00000E+00
 -1       612 9.07244E-05 5.18334E-06 0.00000E+00
 -1       613 9.07328E-05 6.03886E-06 0.00000E+00
 -1       614 9.07412E-05 6.94408E-06 0.00000E+00
 -1       615 9.07495E-05 7.89276E-06 0.00000E+00
 -1       616 9.07578E-05 8.87868E-06 0.00000E+00
 -1       617 9.07660E-05 9.89559E-06 0.00000E+00
 -1       618 9.07743E-05 1.09372E-05 0.00000E+00
 -1       619 9.07824E-05 1.19974E-05 0.00000E+00
 -1       620 9.07905E-05 1.30699E-05 0.00000E+00
 -1       621 9.04227E-05 1.18046E-06 0.00000E+00
 -1       622 9.02211E-05 1.25268E-06 0.00000E+00
 -1       623 9.00467E-05 1.32489E-06 0.00000E+00
 -1       624 8.98924E-05 1.39699E-06 0.00000E+00
 -1       625 8.97508E-05 1.46896E-06 0.00000E+00
 -1       626 9.06112E-05 1.46608E-06 3.30872E-24
 -1       627 9.05357E-05 1.89953E-06-1.65436E-24
 -1       628 9.04345E-05 2.40171E-06 0.00000E+00
 -1       629 9.03104E-05 2.96495E-06 0.00000E+00
 -1       630 9.01663E-05 3.58159E-06 0.00000E+00
 -1       631 9.00051E-05 4.24393E-06 0.00000E+00
 -1       632 8.98296E-05 4.94423E-06 3.30872E-24
 -1       633 8.96427E-05 5.67480E-06 0.00000E+00
 -1       634 8.94474E-05 6.42791E-06-3.30872E-24
 -1       635 8.92465E-05 7.19584E-06-1.65436E-24
 -1       636 8.90428E-05 7.97090E-06-1.65436E-24
 -1       637 8.88394E-05 8.74536E-06-8.27181E-25
 -1       638 8.86391E-05 9.51150E-06-1.65436E-24
 -1       639 8.84446E-05 1.02616E-05 8.27181E-25
 -1       640 8.82586E-05 1.09880E-05 1.65436E-24
 -1       656 8.99222E-05 1.37471E-05 0.00000E+00
 -1       657 8.93987E-05 1.33300E-05 0.00000E+00
 -1       658 8.90957E-05 1.29141E-05 0.00000E+00
 -1       659 8.88774E-05 1.24985E-05 0.00000E+00
 -1       660 8.85905E-05 1.20817E-05-6.61744E-24
 -1       661 9.04747E-05 1.52010E-05 8.27181E-25
 -1       662 9.01743E-05 1.62004E-05-8.27181E-25
 -1       663 8.98931E-05 1.71480E-05 0.00000E+00
 -1       664 8.96308E-05 1.80467E-05-8.27181E-25
 -1       665 8.93861E-05 1.88989E-05 0.00000E+00
 -1       666 8.91581E-05 1.97068E-05 8.27181E-25
 -1       667 8.89458E-05 2.04727E-05 0.00000E+00
 -1       668 8.87486E-05 2.11988E-05 0.00000E+00
 -1       669 8.85656E-05 2.18870E-05 1.65436E-24
 -1       670 8.83960E-05 2.25393E-05 0.00000E+00
 -1       671 8.82392E-05 2.31577E-05 0.00000E+00
 -1       672 8.80944E-05 2.37439E-05 8.27181E-25
 -1       673 8.79609E-05 2.42996E-05 0.00000E+00
 -1       674 8.78375E-05 2.48262E-05 0.00000E+00
 -1       675 8.77246E-05 2.53257E-05-4.13590E-25
 -1       676 8.98120E-05 2.61885E-05 1.65436E-24
 -1       677 8.93718E-05 2.61098E-05 8.27181E-25
 -1       678 8.89320E-05 2.60312E-05 0.00000E+00
 -1       679 8.84928E-05 2.59528E-05 0.00000E+00
 -1       680 8.80544E-05 2.58745E-05 0.00000E+00
 -1       771 1.56522E-05 4.24696E-06 0.00000E+00
 -1       772 1.15200E-05 1.21272E-05 0.00000E+00
 -1       773 8.01621E-06 1.83654E-05 5.29396E-23
 -1       774 5.09927E-06 2.30628E-05 2.64698E-23
 -1       775 2.72808E-06 2.63228E-05 5.29396E-23
 -1       776 8.59799E-07 2.82535E-05 2.64698E-23
 -1       777-5.48928E-07 2.89652E-05 0.00000E+00
 -1       778-1.54242E-06 2.85717E-05 2.64698E-23
 -1       779-2.16528E-06 2.71889E-05 0.00000E+00
 -1       780-2.46297E-06 2.49358E-05 0.00000E+00
 -1       781-2.48107E-06 2.19326E-05 0.00000E+00
 -1       782-2.26578E-06 1.83020E-05 0.00000E+00
 -1       783-1.86339E-06 1.41678E-05 0.00000E+00
 -1       784-1.32059E-06 9.65524E-06 1.32349E-23
 -1       785-6.84106E-07 4.89032E-06 0.00000E+00
 -1       786 8.87256E-05 2.48855E-06 0.00000E+00
 -1       787 8.87844E-05 2.33180E-06 0.00000E+00
 -1       788 8.88431E-05 2.18748E-06 0.00000E+00
 -1       789 8.89024E-05 2.05337E-06 0.00000E+00
 -1       790 8.89617E-05 1.92864E-06-1.65436E-24
 -1       791 8.90211E-05 1.81249E-06 8.27181E-25
 -1       792 8.90806E-05 1.70531E-06 0.00000E+00
 -1       793 8.91401E-05 1.60749E-06 0.00000E+00
 -1       794 8.91995E-05 1.52073E-06-1.65436E-24
 -1       795 8.92590E-05 1.44674E-06 8.27181E-25
 -1       796 8.93185E-05 1.38899E-06 1.65436E-24
 -1       797 8.93780E-05 1.35099E-06 0.00000E+00
 -1       798 8.94375E-05 1.33897E-06-1.65436E-24
 -1       799 8.94968E-05 1.35922E-06-8.27181E-25
 -1       800 8.95561E-05 1.42246E-06 1.65436E-24
 -1       801 8.26659E-05 2.35107E-06 0.00000E+00
 -1       802 6.43787E-05 1.88734E-06-3.30872E-24
 -1       803 4.04862E-05 1.31708E-06 0.00000E+00
 -1       804 1.77435E-05 7.65262E-07 0.00000E+00
 -1       805 2.24644E-06 3.40503E-07-2.64698E-23
 -1       806 8.86566E-05 2.44321E-06-1.65436E-24
 -1       807 8.86377E-05 2.23255E-06 0.00000E+00
 -1       808 8.86143E-05 2.03248E-06-3.30872E-24
 -1       809 8.85851E-05 1.84672E-06 0.00000E+00
 -1       810 8.85492E-05 1.67897E-06 1.65436E-24
 -1       811 8.85050E-05 1.53287E-06 8.27181E-25
 -1       812 8.84513E-05 1.41207E-06-1.65436E-24
 -1       813 8.83868E-05 1.32019E-06-8.27181E-25
 -1       814 8.83100E-05 1.26086E-06-1.65436E-24
 -1       815 8.82197E-05 1.23769E-06-1.65436E-24
 -1       816 8.81145E-05 1.25431E-06 0.00000E+00
 -1       817 8.79931E-05 1.31432E-06-1.65436E-24
 -1       818 8.78540E-05 1.42135E-06 0.00000E+00
 -1       819 8.76961E-05 1.57898E-06-1.65436E-24
 -1       820 8.75181E-05 1.79081E-06 0.00000E+00
 -1       821 8.95245E-05 1.66465E-06-8.27181E-25
 -1       822 8.94288E-05 1.75309E-06-8.27181E-25
 -1       823 8.93335E-05 1.85742E-06 0.00000E+00
 -1       824 8.92371E-05 2.03015E-06 1.65436E-24
 -1       825 8.91406E-05 2.31015E-06 0.00000E+00
 -1       826 8.90439E-05 2.73585E-06 0.00000E+00
 -1       827 8.89471E-05 3.31660E-06 0.00000E+00
 -1       828 8.88501E-05 4.06112E-06 1.65436E-24
 -1       829 8.87531E-05 4.94550E-06-3.30872E-24
 -1       830 8.86559E-05 5.94518E-06 1.65436E-24
 -1       831 8.85588E-05 7.01269E-06 3.30872E-24
 -1       832 8.84618E-05 8.10021E-06 1.65436E-24
 -1       833 8.83649E-05 9.15594E-06-3.30872E-24
 -1       834 8.82691E-05 1.01282E-05 8.27181E-25
 -1       835 8.81731E-05 1.09820E-05 0.00000E+00
 -1       836 8.93797E-05 1.62622E-06 0.00000E+00
 -1       837 8.90332E-05 1.71485E-06 8.27181E-25
 -1       838 8.86144E-05 1.80332E-06 1.65436E-24
 -1       839 8.81629E-05 1.89122E-06 8.27181E-25
 -1       840 8.77182E-05 1.97899E-06 4.13590E-25
 -1       856 8.80572E-05 1.23625E-05 2.06795E-25
 -1       857 8.80285E-05 1.31466E-05 2.06795E-25
 -1       858 8.79998E-05 1.40185E-05 8.27181E-25
 -1       859 8.79706E-05 1.49618E-05-4.13590E-25
 -1       860 8.79412E-05 1.59600E-05 0.00000E+00
 -1       861 8.79117E-05 1.69963E-05 0.00000E+00
 -1       862 8.78822E-05 1.80542E-05-8.27181E-25
 -1       863 8.78527E-05 1.91169E-05 0.00000E+00
 -1       864 8.78231E-05 2.01678E-05 8.27181E-25
 -1       865 8.77936E-05 2.11902E-05 0.00000E+00
 -1       866 8.77641E-05 2.21675E-05 0.00000E+00
 -1       867 8.77347E-05 2.30829E-05 0.00000E+00
 -1       868 8.77053E-05 2.39201E-05-8.27181E-25
 -1       869 8.76759E-05 2.46625E-05 0.00000E+00
 -1       870 8.76466E-05 2.52938E-05 8.27181E-25
 -1       871 8.76019E-05 1.16818E-05 0.00000E+00
 -1       872 8.72225E-05 1.16788E-05 0.00000E+00
 -1       873 8.69008E-05 1.16753E-05 0.00000E+00
 -1       874 8.65924E-05 1.16714E-05 0.00000E+00
 -1       875 8.62527E-05 1.16670E-05 8.27181E-25
 -1       876 8.79199E-05 1.23715E-05 0.00000E+00
 -1       877 8.77399E-05 1.31110E-05 0.00000E+00
 -1       878 8.75433E-05 1.38951E-05 0.00000E+00
 -1       879 8.73323E-05 1.47181E-05 1.65436E-24
 -1       880 8.71089E-05 1.55743E-05-3.30872E-24
 -1       881 8.68753E-05 1.64580E-05-1.65436E-24
 -1       882 8.66335E-05 1.73634E-05-3.30872E-24
 -1       883 8.63856E-05 1.82848E-05 0.00000E+00
 -1       884 8.61338E-05 1.92167E-05 0.00000E+00
 -1       885 8.58803E-05 2.01532E-05 0.00000E+00
 -1       886 8.56271E-05 2.10887E-05 3.30872E-24
 -1       887 8.53764E-05 2.20174E-05-8.27181E-25
 -1       888 8.51301E-05 2.29337E-05 0.00000E+00
 -1       889 8.48902E-05 2.38318E-05 0.00000E+00
 -1       890 8.46589E-05 2.47060E-05 1.65436E-24
 -1       891 8.71998E-05 2.57563E-05 1.65436E-24
 -1       892 8.67646E-05 2.57145E-05-8.27181E-25
 -1       893 8.62910E-05 2.56728E-05 0.00000E+00
 -1       894 8.57584E-05 2.56312E-05-2.06795E-25
 -1       895 8.51461E-05 2.55896E-05 8.27181E-25
 -1       956 8.72289E-05 2.44790E-06-1.65436E-24
 -1       957 8.71365E-05 2.89447E-06 1.65436E-24
 -1       958 8.70438E-05 3.39381E-06 0.00000E+00
 -1       959 8.69510E-05 3.93931E-06-1.65436E-24
 -1       960 8.68580E-05 4.52434E-06-1.65436E-24
 -1       961 8.67651E-05 5.14223E-06-1.65436E-24
 -1       962 8.66721E-05 5.78630E-06 0.00000E+00
 -1       963 8.65790E-05 6.44989E-06-1.65436E-24
 -1       964 8.64860E-05 7.12631E-06 0.00000E+00
 -1       965 8.63930E-05 7.80887E-06 0.00000E+00
 -1       966 8.63000E-05 8.49091E-06-3.30872E-24
 -1       967 8.62070E-05 9.16575E-06 0.00000E+00
 -1       968 8.61141E-05 9.82670E-06 3.30872E-24
 -1       969 8.60213E-05 1.04671E-05 0.00000E+00
 -1       970 8.59288E-05 1.10803E-05 0.00000E+00
 -1       971 8.57511E-05 1.22576E-05 0.00000E+00
 -1       972 8.56633E-05 1.29325E-05-1.65436E-24
 -1       973 8.55754E-05 1.36761E-05 0.00000E+00
 -1       974 8.54873E-05 1.44794E-05 0.00000E+00
 -1       975 8.53991E-05 1.53337E-05 0.00000E+00
 -1       976 8.53108E-05 1.62300E-05-8.27181E-25
 -1       977 8.52225E-05 1.71595E-05 0.00000E+00
 -1       978 8.51342E-05 1.81133E-05-1.65436E-24
 -1       979 8.50459E-05 1.90824E-05 0.00000E+00
 -1       980 8.49576E-05 2.00580E-05 1.65436E-24
 -1       981 8.48693E-05 2.10312E-05 0.00000E+00
 -1       982 8.47811E-05 2.19930E-05 0.00000E+00
 -1       983 8.46931E-05 2.29346E-05-6.61744E-24
 -1       984 8.46054E-05 2.38470E-05-1.65436E-24
 -1       985 8.45181E-05 2.47215E-05 0.00000E+00
 -3
    1PSTEP                        10           5           1          
  100CL  105 5.03906E-01         409                     0    5           1
 -4  STRESS      6    1
 -5  SXX         1    4    1    1
 -5  SYY         1    4    2    2
 -5  SZZ         1    4    3    3
 -5  SXY         1    4    1    2
 -5  SYZ         1    4    2    3
 -5  SZX         1    4    3    1
 -1         1-1.94898E+06-8.55089E+05-4.06924E+05-1.14604E+06 1.85537E-10 3.25963E-09
 -1         2 2.64709E+03-6.50620E+03 8.65554E+03-2.39194E+01-1.21730E-10-1.29845E-08
 -1         3-1.47457E+02-8.66324E+05 2.04850E+02-4.01601E+02-1.86784E-10 1.05592E-08
 -1         5-4.16661E+00 2.63738E+05-3.10745E-01-1.74735E+00 8.11706E-11-5.54792E-11
 -1         8-9.26665E+05-3.63490E+05-6.67371E+04-5.64438E+05 3.63798E-12 2.02272E-09
 -1         9-1.77023E+06-5.22841E+05-2.03603E+05-5.56404E+05 3.87954E-09 9.24920E-09
 -1        10-7.37208E+02-9.02528E+05-1.21973E+03-2.71550E+03-4.45471E-09 2.68632E-08
 -1        12 7.45739E-01 2.65084E+05 2.29638E+02 2.24076E+00-4.70664E-10-6.03002E-08
 -1        15 1.99991E+03 1.09907E+03 6.46471E+03 4.29295E+00 4.61284E-11 5.18945E-09
 -1        16-3.21325E+06-1.25162E+06-5.15984E+05-1.30615E+06 1.09527E-08 1.09430E-08
 -1        17-1.06756E+06-6.25658E+05-2.08873E+05-5.61889E+05-5.64905E-09 3.89118E-09
 -1        18-4.48119E+04-1.55417E+04-3.12622E+04-6.54958E+04 2.28397E-09-3.53339E-10
 -1        19 8.31174E+04 9.87075E+04-4.86141E+02 1.61887E+04-4.50018E-10-1.87210E-09
 -1        20-3.67712E+04-3.92271E+05-8.66788E+04 2.77498E+04 3.06591E-09 2.60297E-09
 -1        21-3.65851E+01-2.24996E+05-7.24474E+02-6.79619E+01-6.26237E-09-6.79160E-09
 -1        24-3.22550E+06-9.05679E+05-4.08909E+05-1.18630E+06-3.06948E-08-1.36109E-08
 -1        25-8.03058E+03-1.78258E+05-2.32830E+04-1.14267E+05 2.34650E-10 1.37821E-08
 -1        26-2.16852E+04 6.63518E+04-1.38366E+04-8.40958E+03 1.54614E-09-3.23245E-09
 -1        27-6.16522E+04-2.14839E+05-8.04507E+04 4.84288E+04 5.89345E-09 3.59341E-09
 -1        28 1.73913E+04-6.23937E+04 1.27254E+04 1.95213E+04 2.09556E-09 1.17299E-09
 -1        32-9.19648E+05-5.49079E+05 2.63209E+05-5.58666E+05-2.03290E-08 9.34000E-09
 -1        33-1.23526E+05 6.28262E+04 2.23163E+04-3.51497E+04 7.80195E-10 3.54582E-09
 -1        34-1.59259E+05-1.59613E+04 3.84824E+02 4.93602E+04 1.56888E-09-4.49700E-09
 -1        35-1.76944E+04-2.47917E+04-9.73510E+02 3.91943E+04 3.17974E-09-6.25611E-09
 -1        51 1.72829E+04-3.62516E+05 4.33947E+04-9.52233E+05 3.34694E-10-6.21367E-09
 -1        52 1.00473E+04-3.60456E+05 2.80265E+04-1.11058E+06 5.23869E-10-1.69166E-08
 -1        53 7.02397E+03-3.73925E+05 2.28997E+04-9.48902E+05 1.38243E-10-7.97445E-09
 -1        54 1.97842E+04-3.72592E+05 3.55823E+04-1.11404E+06 4.58385E-10-1.30894E-08
 -1        55 3.90457E+04-3.86013E+05 6.28093E+04-9.48361E+05 5.52973E-10-6.23186E-09
 -1        56-3.73276E+06-4.18891E+05-2.99230E+05-1.44035E+06 7.34872E-10-3.57977E-09
 -1        57-3.85641E+06-6.86473E+05-2.01751E+05-1.42490E+06-8.70386E-10 6.38283E-09
 -1        58-3.79341E+06-5.13212E+05-7.03863E+04-1.42089E+06 2.72394E-09-6.87578E-10
 -1        59-3.78624E+06-5.75764E+05-4.20179E+04-1.44806E+06 2.00839E-09-2.67210E-09
 -1        60-3.80223E+06-5.26390E+05-1.64246E+04-1.41829E+06-7.54881E-10-2.11003E-09
 -1        61-3.77767E+06-5.58606E+05-9.31899E+03-1.44905E+06 1.03500E-09 7.04188E-09
 -1        62-3.80180E+06-5.29978E+05-4.47224E+03-1.41999E+06 9.52923E-10 3.85700E-09
 -1        63-3.78128E+06-5.51576E+05-3.59986E+03-1.44338E+06-2.71268E-09 1.76490E-08
 -1        64-3.79849E+06-5.33444E+05-4.11112E+03-1.42389E+06-3.57204E-10 9.42941E-09
 -1        65-3.78996E+06-5.45394E+05-8.11709E+03-1.43413E+06-1.78341E-09-1.28657E-08
 -1        66-3.79305E+06-5.36260E+05-1.43097E+04-1.42916E+06 2.49679E-09 3.32329E-09
 -1        67-3.80735E+06-5.50171E+05-3.62945E+04-1.42178E+06-1.25854E-09 9.42964E-09
 -1        68-3.78122E+06-5.29027E+05-6.09130E+04-1.43614E+06 3.57250E-09 1.27329E-09
 -1        69-3.87413E+06-6.40030E+05-1.74412E+05-1.39530E+06 1.46156E-09 6.24277E-09
 -1        70-3.72704E+06-4.49084E+05-2.58747E+05-1.45479E+06 9.82254E-10 2.67755E-09
 -1        86-1.33043E+03-9.38274E+03 9.23284E+03 1.19384E+01 1.15347E-09 3.95431E-09
 -1        87 8.80635E+03-3.53100E+03 1.93126E+04-3.66129E+01 1.91540E-09-3.43698E-09
 -1        88-7.47003E+03-1.23570E+04 2.95312E+04 2.46265E+01 2.81398E-09 2.01629E-09
 -1        89 5.56429E+04 1.81900E+04 7.96669E+04 3.54313E+01 4.25280E-09-1.55704E-08
 -1        90-4.80068E+04-3.10848E+04 1.12562E+05-5.96040E+01 4.59113E-09 5.12131E-09
 -1       121-2.22050E+02-8.66928E+05 1.35122E+02 2.00465E+02 5.19449E-10-5.63705E-09
 -1       122-7.84914E+01-8.66287E+05 4.39790E+02-8.02671E+02-1.74503E-09-6.37010E-09
 -1       123-2.66808E+02-8.66977E+05 6.49499E+02 6.00205E+02 1.25334E-09-1.58616E-09
 -1       124 7.36922E+02-8.65812E+05 1.82572E+03-1.76010E+03-3.39014E-09-6.95491E-09
 -1       125-7.85231E+02-8.67437E+05 2.73609E+03 1.15684E+03 2.17051E-09 5.46243E-09
 -1       191-4.76071E+00 2.63761E+05-5.83148E-01 8.73291E-01 1.08834E-10-4.91400E-09
 -1       192-7.26286E+00 2.63737E+05-1.45090E+00-8.29101E+00 1.50322E-10-8.46285E-09
 -1       193-1.42370E+01 2.63762E+05-3.59909E+00 7.41383E+00 1.58764E-10-4.36876E-09
 -1       194-4.02863E+01 2.63729E+05-1.35544E+01-6.54466E+01 1.00783E-10-2.49154E-08
 -1       195-1.05747E+02 2.63768E+05-3.21101E+01 5.80014E+01 2.04182E-10-4.14359E-08
 -1       251-4.53024E+05-1.95869E+04 4.54606E+04-1.27514E+03 4.84533E-10-8.43829E-09
 -1       252-4.30722E+05 2.26328E+04 3.25383E+04-4.90348E+03 5.86027E-10-8.45102E-09
 -1       253-4.45228E+05-3.05863E+03 1.16842E+04 1.11220E+03-5.63773E-10-2.70848E-09
 -1       254-4.40175E+05 3.50716E+03 7.63137E+03-9.25787E+03 5.32168E-10 1.07671E-08
 -1       255-4.43638E+05-4.83860E+02 3.01215E+03 3.07908E+03 9.09495E-11 2.15300E-09
 -1       256-4.42326E+05 5.82121E+02 1.97660E+03-1.23878E+04 9.49029E-10 8.07117E-09
 -1       257-4.43147E+05-9.26031E+01 1.05688E+03 4.24215E+03-4.53440E-10 7.32959E-09
 -1       258-4.42875E+05 2.52164E+02 1.09867E+03-1.37069E+04-3.07796E-10-1.06855E-08
 -1       259-4.43125E+05-1.28679E+02 1.41924E+03 4.39822E+03-7.37202E-10-5.34851E-09
 -1       260-4.42312E+05 9.14573E+02 2.96393E+03-1.29874E+04 7.91957E-10 5.98016E-09
 -1       261-4.43689E+05-7.67888E+02 4.87305E+03 3.52265E+03 1.12607E-09 1.30740E-09
 -1       262-4.39309E+05 5.68183E+03 1.21638E+04-1.03565E+04-4.64212E-10-7.97058E-09
 -1       263-4.46062E+05-4.92723E+03 1.90368E+04 1.76728E+03-2.01692E-09 9.89803E-09
 -1       264-4.24260E+05 3.66512E+04 5.25130E+04-6.34057E+03-2.71373E-09 3.05226E-09
 -1       265-4.58653E+05-3.16799E+04 7.38351E+04-4.93351E+02-2.53908E-09-6.22094E-10
 -1       266-3.62039E+04-1.69263E+04 8.49576E+04-9.18679E+01 9.09495E-11-1.83474E-09
 -1       267 4.19715E+04 1.97321E+04 6.00402E+04 1.05982E+02 9.18590E-11-3.91272E-09
 -1       268-5.62826E+03-2.79439E+03 2.23171E+04-1.35048E+01 1.90994E-11-1.03362E-09
 -1       269 6.64538E+03 3.34454E+03 1.45054E+04 1.57302E+01-5.45697E-12 8.56851E-09
 -1       270-9.97479E+02-5.49523E+02 7.00196E+03-2.13474E+00-5.68434E-12 1.10432E-08
 -1       271-3.47702E+06-4.35056E+05-2.65960E+05-1.35543E+06-1.05865E-09 2.05182E-09
 -1       272-3.56277E+06-6.38515E+05-1.70969E+05-1.36366E+06 2.32717E-09-4.97676E-09
 -1       273-3.52861E+06-4.99769E+05-6.28339E+04-1.34182E+06-5.54792E-11-1.46247E-09
 -1       274-3.50179E+06-5.59864E+05-3.51257E+04-1.38506E+06 1.59798E-09-9.34051E-10
 -1       275-3.53732E+06-5.04764E+05-1.46283E+04-1.33772E+06-1.00044E-11 7.14863E-09
 -1       276-3.49111E+06-5.54476E+05-7.74175E+03-1.39193E+06-3.13048E-09-5.50426E-09
 -1       277-3.53980E+06-5.03862E+05-3.79819E+03-1.33573E+06-4.27463E-10 7.38737E-09
 -1       278-3.48847E+06-5.55545E+05-2.74047E+03-1.39475E+06 1.16870E-09 1.09944E-08
 -1       279-3.54031E+06-5.03386E+05-2.92529E+03-1.33520E+06-8.83063E-11-1.50749E-10
 -1       280-3.48921E+06-5.55865E+05-5.36413E+03-1.39429E+06-2.30204E-09 6.22003E-09
 -1       281-3.53902E+06-5.03623E+05-9.79392E+03-1.33613E+06 4.23370E-10 5.34783E-09
 -1       282-3.49609E+06-5.59663E+05-2.34248E+04-1.38996E+06 5.34556E-10 7.06495E-09
 -1       283-3.53310E+06-5.00456E+05-4.18105E+04-1.33900E+06 1.19371E-09-1.06320E-08
 -1       284-3.53716E+06-6.11318E+05-1.13753E+05-1.37479E+06-6.16865E-10-7.00857E-09
 -1       285-3.49820E+06-4.58065E+05-1.77034E+05-1.34872E+06 1.00772E-09 1.03319E-08
 -1       301 1.76962E+04-3.51539E+04 1.32234E+05-7.37207E+04-6.69388E-10 3.98950E-09
 -1       302 1.88200E+04-1.70841E+03 9.08649E+04-1.08503E+05 1.39335E-09-1.05956E-09
 -1       303 1.03392E+03-2.25373E+04 7.65282E+04-7.38429E+04-7.69433E-10-1.15615E-08
 -1       304 2.79751E+04 7.10501E+03 1.21030E+05-1.08117E+05 1.06775E-09 9.74978E-10
 -1       305 2.73008E+04-4.33387E+04 1.98977E+05-7.40979E+04-3.27418E-10-3.55249E-09
 -1       306-4.73070E+06-5.45004E+05-3.56693E+05-1.84314E+06 1.76806E-09-9.58971E-09
 -1       307-4.89327E+06-8.62331E+05-2.42409E+05-1.79930E+06-3.34512E-09-3.20142E-09
 -1       308-4.82552E+06-6.41136E+05-8.40212E+04-1.79279E+06 1.30603E-09 3.28873E-09
 -1       309-4.77418E+06-7.61013E+05-5.05389E+04-1.87164E+06 2.29332E-09 1.61799E-09
 -1       310-4.84992E+06-6.43604E+05-1.95661E+04-1.77204E+06 1.73213E-09-2.50839E-09
 -1       311-4.74969E+06-7.53998E+05-1.13530E+04-1.89175E+06 9.06039E-09 6.33577E-10
 -1       312-4.85039E+06-6.47462E+05-5.62370E+03-1.77314E+06 2.47837E-10 1.03974E-08
 -1       313-4.76401E+06-7.33365E+05-4.62305E+03-1.87020E+06-1.83081E-09 2.92039E-09
 -1       314-4.83486E+06-6.64704E+05-6.58691E+03-1.79306E+06-4.29600E-09-4.80850E-09
 -1       315-4.80516E+06-6.94708E+05-1.21082E+04-1.82066E+06-7.34758E-09 4.05612E-09
 -1       316-4.80845E+06-6.86732E+05-2.29526E+04-1.82207E+06-3.36649E-09-4.29281E-09
 -1       317-4.86725E+06-6.71967E+05-5.76122E+04-1.76441E+06 5.41104E-09 9.62245E-10
 -1       318-4.77338E+06-6.87496E+05-9.58669E+04-1.84955E+06-1.00226E-08 7.49424E-09
 -1       319-4.99447E+06-8.03309E+05-2.78282E+05-1.70272E+06-5.76165E-09-1.36497E-08
 -1       320-4.68308E+06-5.57078E+05-4.07406E+05-1.88383E+06 1.01718E-08-1.02591E-08
 -1       336 5.42672E+02-9.38498E+05-5.20339E+03 1.55335E+03-9.13724E-09-1.01136E-09
 -1       337-1.91440E+03-9.39612E+05-5.76419E+03-3.88230E+03-1.66983E-08-1.59271E-08
 -1       338 3.66587E+02-9.38618E+05-7.50118E+03 2.31794E+03-1.20663E-08-1.41681E-08
 -1       339-7.77481E+03-9.43309E+05-1.64283E+04-5.38482E+03-2.09452E-08 7.99446E-09
 -1       340 5.19426E+03-9.34947E+05-2.54328E+04 3.04390E+03-1.41081E-08 1.17325E-08
 -1       406 1.10118E+02 2.66402E+05 5.96284E+02-6.02919E+01-6.96218E-10-1.47106E-08
 -1       407 1.82644E+02 2.66508E+05 1.03290E+03 6.19791E+01-5.07612E-10-8.56517E-10
 -1       408 4.83728E+02 2.66343E+05 1.95302E+03-1.54347E+00-9.51673E-10-1.05883E-08
 -1       409 2.04159E+03 2.67116E+05 4.34033E+03-5.50921E+01-6.64841E-10-2.71393E-09
 -1       410 5.89766E+03 2.65792E+05 8.82872E+03 5.92260E+01-1.21963E-09 1.33696E-10
 -1       521-7.80673E+06-7.58579E+05-6.72463E+05-2.62921E+06-3.29237E-09 7.21775E-09
 -1       522-6.37754E+06-1.92450E+06-2.84357E+05-3.59807E+06-6.30826E-08-1.84118E-08
 -1       523-7.96708E+06-5.12399E+05-1.44113E+05-2.10673E+06-4.61296E-09-2.46146E-08
 -1       524-6.39525E+06-2.03066E+06-5.63118E+04-4.27682E+06 4.85575E-08-6.39366E-08
 -1       525-7.97656E+06-5.10948E+05-3.49584E+04-2.07166E+06 3.00643E-08-4.54966E-08
 -1       526-6.25415E+06-1.76294E+06 5.71596E+04-3.75865E+06-1.99216E-08-7.01311E-09
 -1       527-7.94923E+06-8.95369E+05-1.11359E+05-2.52525E+06-5.25324E-09 1.44064E-09
 -1       528-6.54741E+06-1.01153E+06 1.33831E+05-2.59424E+06-5.37693E-09-3.52156E-09
 -1       529-7.50228E+06-1.38998E+06-1.24522E+05-3.09168E+06-1.80735E-08-1.56797E-08
 -1       530-7.79090E+06-1.15278E+05 7.39131E+04-1.80549E+06-1.32168E-08 2.73867E-08
 -1       531-6.85524E+06-1.68250E+06-4.80414E+04-3.40886E+06-5.00950E-08 2.61934E-10
 -1       532-8.72658E+06 3.07733E+05-5.31031E+04-1.61066E+06 8.28804E-08-6.21549E-08
 -1       533-6.74660E+06-1.68907E+06-1.27347E+05-3.44357E+06 3.10683E-08-1.05716E-07
 -1       534-8.23324E+06-1.66860E+05-2.88842E+05-1.68198E+06-3.48737E-08 8.43993E-08
 -1       535-7.22909E+06-1.29475E+06-6.40581E+05-3.22806E+06-1.32713E-08 5.53555E-08
 -1       536-3.20027E+05-1.37606E+04 3.09747E+04-6.38690E+03-8.71012E-10 8.68386E-09
 -1       537-3.03683E+05 1.59093E+04 2.24320E+04 1.29053E+04-1.93553E-08 8.50446E-09
 -1       538-3.13353E+05-2.06229E+03 8.09269E+03-7.26098E+03 2.94790E-10 8.14634E-09
 -1       539-3.07918E+05 2.54625E+03 5.68897E+03 1.14784E+04 1.66689E-08 1.41879E-08
 -1       540-3.15743E+05-4.45944E+02 1.36876E+03-4.95928E+03 3.02521E-10 1.97289E-08
 -1       541-3.02897E+05 6.71908E+02 2.95567E+03 4.70007E+03-5.71396E-09 7.48167E-09
 -1       542-3.18221E+05-3.16602E+02-8.21629E+02-4.81658E+02 8.42937E-09 1.62657E-09
 -1       543-3.02700E+05 2.87078E+02 1.87280E+03-4.36986E+03 2.27260E-09-6.91412E-09
 -1       544-3.15933E+05-7.22638E+01-1.20152E+03 4.10924E+03-8.78686E-10-9.43206E-09
 -1       545-3.08803E+05-3.86664E+02-5.85792E+02-1.15445E+04-4.19746E-09-1.22411E-08
 -1       546-3.12269E+05 4.80734E+02-2.36169E+03 6.69325E+03-3.13463E-10-5.39126E-09
 -1       547-3.12624E+05-2.84483E+03-5.64675E+03-1.35782E+04-1.40633E-08-1.26065E-08
 -1       548-3.12179E+05 2.44251E+03-9.53559E+03 6.14374E+03-1.31396E-08-4.56066E-09
 -1       549-3.14665E+05-1.75363E+04-2.42409E+04-9.53478E+03-8.13237E-09-9.66111E-09
 -1       550-3.10108E+05 1.50580E+04-3.71394E+04 2.64861E+03 7.43910E-10-8.64748E-09
 -1       551 1.22561E+04-4.85785E+05 2.25454E+04-8.12996E+05-3.83952E-08-7.04313E-09
 -1       552 2.77073E+04-4.92497E+05 2.97463E+04-1.15756E+06-2.95404E-08 3.17232E-09
 -1       553 1.94216E+04-4.98207E+05 4.49523E+04-8.10061E+05-4.66825E-08 6.51198E-09
 -1       554 5.21441E+04-4.84274E+05 9.49213E+04-1.15881E+06-2.98896E-08 3.00224E-09
 -1       555 4.70454E+04-5.16555E+05 1.69559E+05-8.10877E+05-4.80286E-08-4.99858E-09
 -1       556 8.22756E+04-1.55735E+05 5.28814E+04-1.99962E+05-7.86531E-09 6.11180E-09
 -1       557 1.45684E+05-2.07639E+05 2.78876E+04-2.51195E+05 7.27596E-11 2.62116E-09
 -1       558 8.14395E+04-1.62445E+05 1.11082E+04-1.94230E+05-5.74801E-09 1.64073E-09
 -1       559 1.36257E+05-2.14625E+05 5.69253E+03-2.55569E+05 4.30009E-09-7.43967E-09
 -1       560 7.90290E+04-1.60866E+05 2.25724E+03-1.95795E+05 7.56700E-10-8.66930E-09
 -1       561 1.32677E+05-2.13596E+05 1.23978E+03-2.57847E+05 3.76895E-09-5.04951E-09
 -1       562 7.71045E+04-1.59597E+05 4.25123E+02-1.97179E+05 3.34694E-09 6.84850E-09
 -1       563 1.30418E+05-2.12621E+05 3.02581E+02-2.59293E+05-3.55794E-09-5.36858E-09
 -1       564 7.58770E+04-1.58812E+05 9.84196E+01-1.98049E+05 4.00178E-09-4.12911E-09
 -1       565 1.29189E+05-2.12091E+05 8.88470E+01-2.60067E+05 2.46655E-09 5.51699E-09
 -1       566 7.53834E+04-1.58490E+05 8.00298E+00-1.98402E+05 9.64064E-11 1.39535E-08
 -1       567 1.28949E+05-2.11977E+05-6.35237E+01-2.60148E+05 1.01295E-08 2.94312E-09
 -1       568 7.56588E+04-1.58672E+05-2.62961E+02-1.98278E+05-2.00271E-09-7.41238E-09
 -1       569 1.29015E+05-2.11839E+05-6.21105E+02-2.58901E+05-4.70209E-09-8.51287E-10
 -1       570 7.72704E+04-1.60042E+05-1.41877E+03-1.98185E+05 8.71660E-09 1.16206E-08
 -1       571 1.92882E+05 7.09239E+03 1.04929E+04-4.97632E+04 1.09912E-09 7.01766E-09
 -1       572 1.94441E+05 2.47632E+03 5.14095E+03-5.45563E+04 1.04046E-09-2.93812E-09
 -1       573 1.93506E+05 5.99948E+02 2.28385E+03-4.96374E+04-8.87894E-09 1.31922E-09
 -1       574 1.93689E+05 2.06110E+02 1.14434E+03-5.46977E+04-2.11546E-08-1.13009E-08
 -1       575 1.93575E+05 4.02580E+01 5.39372E+02-4.96209E+04-1.28043E-08 1.75123E-09
 -1       576 1.93586E+05 2.29304E+01 2.74666E+02-5.47166E+04-5.31493E-09 5.17366E-09
 -1       577 1.93586E+05 9.82579E+00 1.35429E+02-4.96187E+04-1.54478E-09 6.99265E-09
 -1       578 1.93578E+05 1.27053E+01 7.41558E+01-5.47189E+04 6.39147E-10 3.49974E-09
 -1       579 1.93600E+05 6.33283E+00 4.57721E+01-4.96186E+04 2.57523E-09-7.37418E-09
 -1       580 1.93597E+05 4.78765E+00 4.35966E+01-5.47160E+04 1.43700E-09-1.83127E-09
 -1       581 1.93624E+05-3.22272E+00 5.97613E+01-4.96216E+04 1.19417E-09 9.23092E-09
 -1       582 1.93640E+05 5.26462E+00 1.14725E+02-5.46861E+04-6.51198E-10 9.96624E-09
 -1       583 1.93653E+05 3.03955E+01 2.19949E+02-4.96485E+04-8.70386E-10-3.58409E-09
 -1       584 1.93758E+05 2.01518E+02 4.93754E+02-5.44607E+04-3.04499E-09 4.78053E-10
 -1       585 1.93635E+05 6.34601E+02 1.00215E+03-4.98473E+04-5.40240E-10 2.74667E-09
 -1       586-2.23206E+03 6.39729E+04-2.88891E+03-1.70900E+05-2.00089E-11-4.01565E-09
 -1       587-4.64827E+02 6.35936E+04-1.92602E+02-1.88076E+05 2.42835E-10-5.71094E-09
 -1       588 6.77778E+02 6.36506E+04 2.37133E+03-1.70803E+05 1.09139E-10-9.49149E-09
 -1       589 3.38658E+03 6.49354E+04 6.72725E+03-1.87907E+05 5.94810E-10-3.33348E-08
 -1       590 9.76658E+03 6.28726E+04 1.43392E+04-1.71073E+05 2.11912E-10-6.38465E-10
 -1       591-4.21577E+04-1.17475E+04-1.38783E+04-2.14550E+04 7.90465E-10-2.54659E-09
 -1       592-4.35759E+04-1.50376E+04-7.51711E+03-2.49399E+04 1.73162E-09-1.75487E-09
 -1       593-4.35594E+04-1.07265E+04-3.12942E+03-2.24591E+04 4.37171E-09-2.56955E-09
 -1       594-4.16438E+04-1.30184E+04-1.56078E+03-2.50340E+04 3.93840E-09 3.18747E-09
 -1       595-4.36668E+04-1.07219E+04-7.17233E+02-2.25052E+04-1.20792E-09 2.45319E-09
 -1       596-4.15130E+04-1.29259E+04-3.65551E+02-2.50202E+04 4.00576E-10-1.45849E-09
 -1       597-4.36805E+04-1.07309E+04-2.01103E+02-2.25070E+04 1.24016E-09-9.32403E-10
 -1       598-4.15005E+04-1.29224E+04-1.65422E+02-2.50164E+04 1.77238E-10 1.10254E-08
 -1       599-4.36794E+04-1.07310E+04-2.16005E+02-2.25067E+04 1.77238E-10-3.75053E-09
 -1       600-4.15143E+04-1.29271E+04-4.05030E+02-2.50197E+04-7.09633E-10-6.65068E-09
 -1       601-4.36623E+04-1.07214E+04-8.01014E+02-2.25039E+04 2.60343E-10 1.72304E-09
 -1       602-4.16605E+04-1.30304E+04-1.74675E+03-2.50331E+04 1.32218E-10 8.66385E-09
 -1       603-4.35406E+04-1.07284E+04-3.50355E+03-2.24525E+04-1.81308E-09 5.90762E-09
 -1       604-4.38309E+04-1.52826E+04-8.41601E+03-2.49166E+04-4.17253E-09-1.21393E-08
 -1       605-4.19614E+04-1.18788E+04-1.55377E+04-2.13365E+04 1.05888E-09 1.57070E-09
 -1       606 2.65275E+04-9.30947E+03-1.67555E+04 2.58104E+04-2.55295E-09-1.30603E-09
 -1       607 2.36583E+04-3.00651E+03-8.34326E+03 2.89747E+04-8.70386E-10 4.40559E-09
 -1       608 2.52852E+04-5.10329E+02-3.73634E+03 2.56054E+04 2.65027E-09 3.15254E-09
 -1       609 2.49612E+04-1.35552E+02-1.88709E+03 2.92019E+04-1.27147E-09 1.14510E-08
 -1       610 2.51340E+04 2.08851E+01-9.01471E+02 2.55824E+04-3.63252E-09 2.37515E-09
 -1       611 2.50726E+04 3.33291E+01-4.54623E+02 2.92267E+04-6.48470E-09-2.20075E-09
 -1       612 2.50930E+04 3.62449E+01-2.17529E+02 2.55801E+04-2.10730E-09-8.23775E-10
 -1       613 2.50696E+04 4.19600E+01-9.89878E+01 2.92296E+04-5.09317E-09 4.87239E-09
 -1       614 2.50704E+04 3.73428E+01-2.73468E+01 2.55794E+04-2.38288E-09 1.38120E-08
 -1       615 2.50576E+04 4.75883E+01 3.17283E+01 2.92300E+04 8.22183E-10-9.27685E-11
 -1       616 2.50532E+04 4.31867E+01 1.04094E+02 2.55796E+04-3.53612E-09-6.47537E-09
 -1       617 2.50637E+04 7.38304E+01 2.41142E+02 2.92295E+04 1.75760E-09-9.81913E-09
 -1       618 2.50274E+04 1.15818E+02 4.87311E+02 2.55797E+04 1.20508E-09-4.15025E-09
 -1       619 2.52318E+04 4.53220E+02 1.09520E+03 2.92288E+04-1.21656E-09 7.56745E-09
 -1       620 2.48630E+04 1.27393E+03 2.20152E+03 2.55787E+04 2.07388E-09 7.39919E-09
 -1       621 3.01710E+02 2.06873E+05 2.66730E+03 8.75898E+03-1.54103E-10 3.31261E-09
 -1       622 3.50370E+02 2.07532E+05 2.32423E+03 1.27765E+04-1.64391E-10 7.37691E-09
 -1       623 1.52708E+01 2.07053E+05 2.75152E+03 8.71777E+03-4.50484E-11 8.33847E-09
 -1       624 1.26617E+03 2.08370E+05 5.29354E+03 1.28173E+04-1.16415E-10 5.40501E-09
 -1       625 1.27259E+03 2.06027E+05 9.23491E+03 8.71835E+03 4.86580E-11-8.82210E-11
 -1       626 1.73357E+05 4.73953E+04 3.47454E+03 9.28633E+04-1.35151E-09-1.88084E-09
 -1       627 1.71064E+05 4.90609E+04 1.67430E+03 9.65685E+04-1.93404E-09-2.14072E-09
 -1       628 1.73482E+05 4.57577E+04 7.07165E+02 9.33937E+04 1.26329E-09 1.24624E-09
 -1       629 1.70568E+05 4.86593E+04 3.46615E+02 9.67883E+04-4.44288E-10-4.47278E-09
 -1       630 1.73488E+05 4.56808E+04 1.60242E+02 9.34078E+04-4.31100E-10 4.68299E-09
 -1       631 1.70507E+05 4.86502E+04 8.61990E+01 9.67892E+04-1.51340E-09 8.64166E-09
 -1       632 1.73479E+05 4.56874E+04 5.67874E+01 9.33999E+04-5.38739E-09-1.08072E-08
 -1       633 1.70494E+05 4.86554E+04 6.33660E+01 9.67821E+04-1.65369E-09 1.11697E-08
 -1       634 1.73469E+05 4.56884E+04 1.02446E+02 9.33954E+04 1.07889E-08-1.90335E-09
 -1       635 1.70498E+05 4.86570E+04 2.07649E+02 9.67815E+04 2.45684E-08 4.87194E-09
 -1       636 1.73458E+05 4.56875E+04 4.19349E+02 9.33923E+04 8.08427E-10-1.52620E-08
 -1       637 1.70584E+05 4.87237E+04 9.21652E+02 9.67774E+04 1.35385E-09 1.76578E-09
 -1       638 1.73422E+05 4.58929E+04 1.89409E+03 9.32977E+04 1.14483E-10 2.52749E-09
 -1       639 1.71575E+05 5.01088E+04 4.48087E+03 9.64829E+04-1.13778E-09 1.81535E-09
 -1       640 1.73290E+05 5.00177E+04 9.29886E+03 9.15471E+04-1.06229E-09 2.07183E-09
 -1       656 4.66694E+04-1.18232E+06-1.12660E+05-3.82501E+02 8.87667E-10-2.60505E-09
 -1       657-6.16765E+04-1.23317E+06-9.31865E+04 7.35619E+03-3.23780E-10 7.20206E-11
 -1       658 1.48067E+04-1.19682E+06-5.72052E+04-1.54625E+03 1.01716E-09 2.16160E-09
 -1       659-6.61879E+04-1.23531E+06-9.91120E+04 8.14709E+03 5.82986E-10 4.46688E-09
 -1       660 5.11700E+04-1.18019E+06-1.22852E+05-1.17338E+03 5.09317E-10-5.17166E-09
 -1       661 1.61941E+05 1.75989E+04 1.56353E+04 6.33039E+04 3.02634E-09 5.51063E-09
 -1       662 1.70147E+05 2.98002E+04 1.05357E+04 6.05150E+04 1.39585E-09 1.70257E-09
 -1       663 1.65006E+05 2.26194E+04 3.68542E+03 6.24185E+04-3.71074E-10-3.98040E-09
 -1       664 1.66599E+05 2.39239E+04 2.20351E+03 6.15919E+04 2.23559E-09-1.01493E-08
 -1       665 1.65466E+05 2.33102E+04 8.69214E+02 6.22893E+04-3.99609E-11 3.03967E-09
 -1       666 1.66060E+05 2.31299E+04 5.07026E+02 6.17577E+04-5.08952E-09 1.02842E-08
 -1       667 1.65543E+05 2.33927E+04 2.67464E+02 6.22605E+04-1.61958E-09-1.12150E-09
 -1       668 1.65977E+05 2.30651E+04 2.68291E+02 6.17991E+04 4.50882E-10-7.14451E-09
 -1       669 1.65548E+05 2.33730E+04 3.59753E+02 6.22485E+04 3.88576E-09 6.69232E-10
 -1       670 1.66067E+05 2.32557E+04 7.80118E+02 6.17986E+04 6.80237E-09-7.57888E-09
 -1       671 1.65453E+05 2.32059E+04 1.38407E+03 6.22594E+04 1.40402E-09 5.01757E-09
 -1       672 1.66875E+05 2.46013E+04 3.54026E+03 6.16029E+04-6.52079E-10 2.26350E-09
 -1       673 1.64745E+05 2.20612E+04 5.93259E+03 6.24312E+04-8.43329E-10 5.59044E-09
 -1       674 1.72524E+05 3.41302E+04 1.69659E+04 5.99415E+04-1.67552E-09 7.35963E-09
 -1       675 1.59840E+05 1.39435E+04 2.51828E+04 6.38204E+04 1.36652E-09 3.65617E-10
 -1       676 1.88054E+01-2.24936E+05-8.73177E+02 3.39818E+01-6.96389E-10-1.20979E-09
 -1       677-2.31789E+02-2.25147E+05-1.59801E+03-6.79292E+01-5.41326E-09 3.75136E-09
 -1       678 1.54792E+02-2.24785E+05-2.82486E+03 3.39241E+01-1.78807E-09 1.68344E-09
 -1       679-2.82549E+03-2.26852E+05-6.71048E+03-6.77053E+01-4.64149E-09-2.34991E-09
 -1       680 1.68628E+03-2.23231E+05-1.08150E+04 3.33702E+01 6.09361E-10 3.46078E-09
 -1       771-2.40608E+06-4.43675E+05-6.31963E+04-1.02260E+06-1.00554E-08-4.75848E-09
 -1       772-2.38412E+06-4.81075E+05-3.36387E+04-1.06466E+06-9.63337E-09 1.47156E-09
 -1       773-2.41571E+06-4.36124E+05-1.50209E+04-1.02616E+06-8.42556E-09 8.00355E-11
 -1       774-2.37571E+06-4.74081E+05-7.17480E+03-1.07013E+06 8.01083E-09-7.02130E-10
 -1       775-2.41870E+06-4.34072E+05-3.98486E+03-1.02668E+06-1.96451E-09 1.25510E-09
 -1       776-2.37623E+06-4.74130E+05-1.73773E+03-1.07350E+06-2.35741E-09 2.48110E-09
 -1       777-2.42097E+06-4.32396E+05-1.30765E+03-1.02708E+06 2.18279E-11 1.47702E-09
 -1       778-2.37724E+06-4.74347E+05-4.95670E+02-1.07632E+06 5.82077E-11 4.20550E-09
 -1       779-2.42283E+06-4.30971E+05-5.90085E+02-1.02742E+06-5.15138E-09-3.11775E-09
 -1       780-2.37818E+06-4.74511E+05-2.92813E+02-1.07861E+06-2.51021E-09 2.18279E-11
 -1       781-2.42426E+06-4.29839E+05-5.39807E+02-1.02769E+06-1.05792E-08-1.09503E-09
 -1       782-2.37897E+06-4.74651E+05-7.57175E+02-1.08029E+06-1.35642E-08-3.59523E-09
 -1       783-2.42519E+06-4.29082E+05-1.53065E+03-1.02787E+06-3.96176E-09-5.67650E-09
 -1       784-2.38032E+06-4.75653E+05-3.52566E+03-1.08127E+06-7.59610E-09 7.27596E-11
 -1       785-2.42504E+06-4.29167E+05-6.54047E+03-1.02749E+06-1.33878E-08 1.86446E-09
 -1       786 1.65993E+05-9.22957E+03 2.13528E+04-3.86413E+01 5.74651E-06 2.72930E-08
 -1       787 1.75246E+05 1.06850E+04 1.51066E+04 9.00136E+00 1.14481E-05 2.01242E-08
 -1       788 1.69562E+05-1.44684E+03 5.52648E+03-2.79457E+01 1.05824E-05-5.95605E-09
 -1       789 1.71087E+05 1.67405E+03 3.47207E+03-9.24364E+00 9.69207E-06 3.27584E-08
 -1       790 1.70152E+05-2.25990E+02 1.41219E+03-2.03975E+01 9.13452E-06-1.63494E-08
 -1       791 1.70400E+05 2.62397E+02 8.27993E+02-2.39132E+01 8.56860E-06 8.06537E-09
 -1       792 1.70250E+05-3.62447E+01 3.75628E+02-1.32761E+01 4.28787E-06-1.58981E-08
 -1       793 1.70288E+05 4.98007E+01 2.41529E+02-3.98084E+01 1.27418E-08 8.49980E-09
 -1       794 1.70264E+05-1.35324E+01 1.71856E+02-4.50208E+00 9.59227E-10-2.87288E-10
 -1       795 1.70295E+05 6.71291E+01 2.38387E+02-6.14721E+01-8.84726E-10 9.70832E-09
 -1       796 1.70243E+05-5.35569E+01 3.50910E+02 8.38807E+00 1.08888E-09 3.82975E-09
 -1       797 1.70453E+05 3.91994E+02 8.22304E+02-9.49770E+01-5.29431E-10 2.82284E-10
 -1       798 1.70106E+05-3.38161E+02 1.29630E+03 2.90034E+01 9.40927E-11-4.37319E-09
 -1       799 1.71425E+05 2.49678E+03 3.53253E+03-1.49932E+02-2.11539E-10 7.89214E-10
 -1       800 1.69271E+05-2.15665E+03 4.98940E+03 6.33437E+01-1.86557E-10-4.93696E-09
 -1       801 1.98123E+04-9.11131E+05-7.61004E+04 2.47865E+04 1.22236E-08-3.88582E-09
 -1       802-1.50642E+04-7.89170E+05-7.38678E+03-7.17096E+04 3.34157E-08-3.05499E-09
 -1       803-4.25871E+03-8.51140E+05 2.68799E+04 4.64196E+04 2.65718E-08 2.04938E-08
 -1       804 8.75540E+04-7.29390E+05 1.27837E+05-6.63725E+04 3.01734E-08 3.39339E-08
 -1       805-8.31200E+04-9.70390E+05 1.49500E+05 1.94437E+04 1.09867E-08 2.41348E-08
 -1       806-2.10351E+05-4.37658E+04-1.73213E+04-8.62371E+04-4.01633E-09-2.79215E-10
 -1       807-2.11494E+05-4.11617E+04-8.50963E+03-9.06881E+04-3.84694E-09 1.77994E-08
 -1       808-2.10835E+05-3.75155E+04-3.60980E+03-8.91825E+04-6.45628E-09 9.00404E-09
 -1       809-2.09685E+05-3.87907E+04-1.76482E+03-9.09229E+04-2.10935E-09 1.03692E-08
 -1       810-2.10910E+05-3.72958E+04-8.08203E+02-8.93125E+04-8.71978E-10 8.18591E-09
 -1       811-2.09546E+05-3.86966E+04-4.01003E+02-9.09005E+04 1.28466E-10-9.72705E-10
 -1       812-2.10923E+05-3.73128E+04-2.00556E+02-8.93121E+04-2.55568E-09-6.95741E-09
 -1       813-2.09528E+05-3.86988E+04-1.27106E+02-9.08889E+04-3.97540E-09-4.90934E-09
 -1       814-2.10920E+05-3.73192E+04-1.20297E+02-8.93093E+04-4.98085E-09-2.49725E-09
 -1       815-2.09530E+05-3.87009E+04-1.89169E+02-9.08851E+04-2.75691E-09 5.13137E-09
 -1       816-2.10907E+05-3.73181E+04-3.55123E+02-8.93067E+04-5.71390E-09 3.77122E-09
 -1       817-2.09591E+05-3.87349E+04-7.61412E+02-9.08782E+04-2.54204E-09 3.91992E-10
 -1       818-2.10862E+05-3.74251E+04-1.55198E+03-8.92560E+04-3.09956E-09 1.26192E-08
 -1       819-2.10446E+05-3.96678E+04-3.65240E+03-9.06721E+04-1.46929E-08 1.31652E-08
 -1       820-2.10568E+05-4.01852E+04-7.43344E+03-8.80772E+04-8.88576E-09-4.97323E-09
 -1       821-2.69757E+05 1.49259E+04-3.45183E+04 1.52246E+02 3.31870E-10-9.33323E-09
 -1       822-2.84716E+05-1.72792E+04-2.44268E+04-7.54027E+02-1.81925E-09-2.47746E-09
 -1       823-2.75530E+05 2.34012E+03-8.94027E+03 1.33364E+02 5.86891E-10-1.85992E-09
 -1       824-2.77982E+05-2.70848E+03-5.62483E+03-5.97040E+02-2.45919E-10 4.28906E-09
 -1       825-2.76489E+05 3.66162E+02-2.31278E+03-4.74536E+00-2.04077E-09 6.67342E-11
 -1       826-2.76863E+05-4.31753E+02-1.39449E+03-2.59351E+02-5.01707E-09 3.14365E-09
 -1       827-2.76647E+05 6.48122E+01-7.23972E+02-2.04330E+02-3.66980E-09-4.19388E-09
 -1       828-2.76713E+05-1.31761E+02-6.38326E+02 1.20302E+02-5.87357E-09 8.45866E-09
 -1       829-2.76640E+05 6.64519E+01-7.35610E+02-3.84406E+02-7.74195E-10-5.11534E-10
 -1       830-2.76888E+05-4.44127E+02-1.43561E+03 3.87795E+02 1.18430E-09-4.01315E-11
 -1       831-2.76473E+05 3.77239E+02-2.37839E+03-4.71828E+02-2.48509E-09 9.66338E-12
 -1       832-2.78033E+05-2.78943E+03-5.79578E+03 4.35076E+02-4.79888E-10-6.60293E-09
 -1       833-2.75496E+05 2.41013E+03-9.21041E+03-4.31686E+02-1.71031E-10-2.85081E-09
 -1       834-2.84949E+05-1.77999E+04-2.51628E+04 2.44579E+02-5.01113E-10 9.16270E-09
 -1       835-2.69559E+05 1.53759E+04-3.55646E+04-2.81320E+02 5.60701E-09 1.63345E-09
 -1       836-9.00086E+02 2.53893E+05 1.53342E+04-2.08411E+04 1.33241E-09-3.91537E-10
 -1       837 3.37027E+03 2.58645E+05 1.30935E+04-4.18623E+04 1.85537E-09-2.34104E-09
 -1       838-3.31944E+02 2.55213E+05 1.35040E+04-2.07694E+04 1.64937E-09 1.06595E-08
 -1       839 8.66422E+03 2.62590E+05 2.57059E+04-4.18906E+04 2.35013E-09 1.08951E-08
 -1       840-2.60734E+03 2.49910E+05 4.10583E+04-2.08113E+04 1.60799E-09 1.43541E-09
 -1       856-7.94415E+04 7.06588E+03-1.86206E+04-4.14335E+02-3.45511E-09 1.91994E-09
 -1       857-8.71325E+04-8.28751E+03-1.28197E+04 4.29018E+03-2.44086E-10-4.08318E-09
 -1       858-8.24803E+04 9.90036E+02-4.83252E+03-4.33971E+02-5.10693E-09-3.15413E-09
 -1       859-8.36429E+04-1.15118E+03-2.91851E+03 4.32146E+03 1.68029E-09-6.70917E-09
 -1       860-8.29346E+04 1.37682E+02-1.22689E+03-4.45739E+02 2.07709E-09 4.28258E-10
 -1       861-8.31197E+04-1.52028E+02-6.82840E+02 4.33757E+03-5.36993E-09 4.33261E-10
 -1       862-8.30053E+04 1.82053E+01-2.99698E+02-4.50105E+02 5.97111E-09-5.28790E-09
 -1       863-8.30358E+04-1.07014E+01-1.45153E+02 4.33955E+03 1.24842E-08 9.74893E-10
 -1       864-8.30187E+04-5.31565E-01-3.94170E+01-4.47723E+02 7.43069E-09 5.18028E-09
 -1       865-8.30093E+04 2.48591E+01 4.44820E+01 4.32751E+03 1.02116E-08 2.96438E-11
 -1       866-8.30304E+04-1.77764E+01 1.31218E+02-4.38070E+02 2.97254E-09-7.65056E-09
 -1       867-8.29364E+04 1.48730E+02 3.49740E+02 4.30131E+03-8.27981E-10 1.16149E-09
 -1       868-8.30885E+04-1.23387E+02 5.87518E+02-4.21515E+02 1.69075E-09 1.45761E-09
 -1       869-8.24975E+04 1.02396E+03 1.57433E+03 4.25795E+03-2.02704E-10-2.49648E-09
 -1       870-8.34646E+04-8.71014E+02 2.28326E+03-3.94714E+02 2.76452E-09-5.64114E-09
 -1       871-3.97211E+03-8.62697E+03-1.29089E+04 8.48813E+04 2.08820E-09 4.38013E-09
 -1       872-1.72136E+03-1.15202E+04-5.26898E+03 1.10044E+05 3.60887E-09 5.76711E-09
 -1       873-3.54772E+01-1.01691E+04 7.33953E+02 8.46948E+04 1.58525E-09 7.95558E-09
 -1       874 1.97878E+03-8.30230E+03 7.28084E+03 1.10082E+05 4.73415E-09-1.10833E-09
 -1       875 4.67948E+03-1.18966E+04 1.61580E+04 8.48509E+04 1.88174E-09-4.14093E-09
 -1       876 2.10123E+05 3.61751E+04 1.12091E+04 8.52152E+04-2.16164E-09 5.01495E-09
 -1       877 2.10767E+05 3.86318E+04 5.98595E+03 8.85258E+04-4.94788E-09 5.41115E-09
 -1       878 2.11170E+05 3.49345E+04 2.50783E+03 8.61357E+04 2.94222E-10-1.21531E-09
 -1       879 2.09242E+05 3.71132E+04 1.24929E+03 8.86049E+04-2.37196E-09 5.00694E-09
 -1       880 2.11246E+05 3.49208E+04 5.81638E+02 8.61732E+04 1.87970E-09 1.18277E-08
 -1       881 2.09141E+05 3.70487E+04 3.09852E+02 8.85890E+04 5.26825E-09-1.35779E-09
 -1       882 2.11254E+05 3.49300E+04 1.96937E+02 8.61742E+04 1.06227E-08 9.87946E-09
 -1       883 2.09134E+05 3.70456E+04 2.09633E+02 8.85843E+04 8.82824E-09 1.03042E-08
 -1       884 2.11249E+05 3.49277E+04 3.31590E+02 8.61744E+04 2.47695E-09-3.75138E-09
 -1       885 2.09160E+05 3.70504E+04 6.65502E+02 8.85927E+04 4.37963E-09-2.39538E-10
 -1       886 2.11224E+05 3.49082E+04 1.34074E+03 8.61718E+04 3.37548E-09-4.40195E-10
 -1       887 2.09396E+05 3.72048E+04 2.92847E+03 8.86266E+04 9.70971E-10-6.63135E-09
 -1       888 2.11039E+05 3.49408E+04 5.90092E+03 8.60780E+04-6.63846E-10-5.51427E-09
 -1       889 2.12912E+05 4.08555E+04 1.40968E+04 8.85152E+04-2.47596E-10 1.21872E-09
 -1       890 2.08635E+05 3.77967E+04 2.64022E+04 8.38269E+04 1.40335E-09 1.61162E-09
 -1       891-1.30224E+02-1.19210E+05-1.41144E+03 2.24606E+04-2.14868E-11 2.82444E-09
 -1       892-2.26851E+02-1.19548E+05-1.53392E+03 3.39904E+04 9.01309E-10-4.16060E-09
 -1       893-3.66407E+01-1.19254E+05-2.19047E+03 2.24650E+04 1.47838E-09 3.95676E-09
 -1       894-1.19655E+03-1.20387E+05-4.54702E+03 3.38693E+04-5.78893E-10 9.78139E-09
 -1       895-9.35754E+02-1.18308E+05-8.01246E+03 2.25801E+04-1.67347E-09-1.88629E-09
 -1       956-2.64584E+05-3.79520E+03-9.55288E+03 1.76656E+04-2.83899E-09 7.97513E-09
 -1       957-2.66470E+05-1.28038E+03-4.90406E+03 2.12734E+04-5.78893E-10-6.96946E-09
 -1       958-2.65432E+05-1.02123E+02-2.20942E+03 1.75520E+04 2.49474E-09-1.29924E-08
 -1       959-2.65582E+05-1.74860E+01-1.12852E+03 2.13965E+04-9.84301E-10-4.58340E-09
 -1       960-2.65508E+05 3.19456E+01-5.50102E+02 1.75412E+04-3.32739E-09 8.45830E-11
 -1       961-2.65518E+05 3.02553E+01-2.91714E+02 2.14089E+04-5.25029E-09 2.35514E-09
 -1       962-2.65523E+05 2.82306E+01-1.66689E+02 1.75395E+04-2.99156E-09 3.36945E-09
 -1       963-2.65515E+05 3.15557E+01-1.33275E+02 2.14111E+04-3.85978E-09-3.79441E-09
 -1       964-2.65527E+05 3.01677E+01-1.61133E+02 1.75389E+04-7.31234E-10-1.26374E-09
 -1       965-2.65525E+05 3.44836E+01-2.77882E+02 2.14112E+04 3.37066E-09 5.11523E-09
 -1       966-2.65518E+05 3.76665E+01-5.21312E+02 1.75395E+04 2.66300E-09-2.14027E-09
 -1       967-2.65594E+05-6.60644E+00-1.06906E+03 2.14043E+04 9.09529E-09-5.38671E-09
 -1       968-2.65452E+05-8.54310E+01-2.09203E+03 1.75459E+04 3.11729E-09-6.65142E-09
 -1       969-2.66442E+05-1.19922E+03-4.64490E+03 2.13294E+04-7.51015E-10 7.08178E-09
 -1       970-2.64654E+05-3.58094E+03-9.04727E+03 1.76167E+04 2.11139E-09 1.66619E-09
 -1       971-2.50519E+05-1.31665E+03-7.32136E+03 1.21350E+04-3.24599E-09-4.87165E-09
 -1       972-2.52299E+05-9.43625E+02-3.98723E+03 1.69485E+04 3.09228E-11 7.91101E-09
 -1       973-2.51333E+05-8.36016E+00-1.78536E+03 1.20339E+04 1.20963E-09 3.33762E-09
 -1       974-2.51456E+05-8.19530E+00-9.24932E+02 1.70576E+04 4.60386E-09 1.05289E-08
 -1       975-2.51396E+05 2.57317E+01-4.61273E+02 1.20248E+04 7.98127E-09 1.18021E-08
 -1       976-2.51406E+05 2.99834E+01-2.64277E+02 1.70687E+04 1.24754E-08-8.21274E-10
 -1       977-2.51407E+05 2.54169E+01-1.88461E+02 1.20227E+04 7.23662E-09-1.01920E-09
 -1       978-2.51409E+05 3.41557E+01-2.16007E+02 1.70716E+04 9.12894E-09 4.57976E-09
 -1       979-2.51407E+05 3.11910E+01-3.43132E+02 1.20219E+04 2.53993E-09 5.34158E-09
 -1       980-2.51434E+05 3.62430E+01-6.60087E+02 1.70720E+04-3.43276E-09 7.33166E-09
 -1       981-2.51386E+05 4.76342E+01-1.27713E+03 1.20222E+04-3.59466E-09 1.91699E-09
 -1       982-2.51609E+05-5.79710E+01-2.63906E+03 1.70670E+04-1.96007E-09-4.25173E-09
 -1       983-2.51226E+05-3.39131E+01-5.12729E+03 1.20271E+04 2.73894E-09 3.53964E-09
 -1       984-2.54075E+05-2.73536E+03-1.14817E+04 1.69984E+04 2.16460E-09 1.13027E-09
 -1       985-2.48905E+05-3.78557E+03-2.10842E+04 1.20955E+04 8.68749E-09 6.41649E-09
 -3
    1PSTEP                        11           6           1          
  100CL  106 5.39062E-01         409                     0    6           1
 -4  DISP        4    1
 -5  D1          1    2    1    0
 -5  D2          1    2    2    0
 -5  D3          1    2    3    0
 -5  ALL         1    2    0    0    1ALL
 -1         1 1.83157E-04 0.00000E+00 0.00000E+00
 -1         2 1.62687E-04 1.39789E-30 0.00000E+00
 -1         3 1.63616E-04 3.24359E-27 0.00000E+00
 -1         5 1.07190E-04-5.17055E-28 0.00000E+00
 -1         8 1.57745E-04-8.71086E-07 0.00000E+00
 -1         9 1.51553E-04-6.44680E-07 0.00000E+00
 -1        10 1.50555E-04-2.19925E-06 0.00000E+00
 -1        12 1.06928E-04 5.92491E-07 0.00000E+00
 -1        15 1.27426E-04-9.68855E-07 0.00000E+00
 -1        16 1.32470E-04-8.44144E-07 0.00000E+00
 -1        17 1.09267E-04-4.69360E-06 0.00000E+00
 -1        18 1.04970E-04 4.79384E-06 0.00000E+00
 -1        19 1.06140E-04 1.18769E-06 0.00000E+00
 -1        20 1.06286E-04 1.31507E-05 0.00000E+00
 -1        21 1.05690E-04 2.38677E-05 0.00000E+00
 -1        24 2.23271E-05-6.57133E-06 0.00000E+00
 -1        25 1.04894E-04 4.93378E-06 0.00000E+00
 -1        26 1.05796E-04 1.64713E-06 0.00000E+00
 -1        27 1.04158E-04 1.04889E-05 0.00000E+00
 -1        28 1.03689E-04 2.33659E-05 0.00000E+00
 -1        32 0.00000E+00 0.00000E+00 0.00000E+00
 -1        33 1.04210E-04 2.20475E-06 0.00000E+00
 -1        34 1.02610E-04 1.04637E-05 0.00000E+00
 -1        35 1.01102E-04 2.30992E-05 0.00000E+00
 -1        51 1.81508E-04-1.44911E-07 0.00000E+00
 -1        52 1.78448E-04-2.83859E-07 0.00000E+00
 -1        53 1.74254E-04-4.24035E-07 0.00000E+00
 -1        54 1.69213E-04-5.67142E-07 0.00000E+00
 -1        55 1.63614E-04-7.14069E-07 4.13590E-24
 -1        56 1.81552E-04-8.48030E-07 0.00000E+00
 -1        57 1.80034E-04-2.10836E-06 0.00000E+00
 -1        58 1.78622E-04-3.64283E-06 0.00000E+00
 -1        59 1.77256E-04-5.33062E-06-2.64698E-23
 -1        60 1.75894E-04-7.02965E-06 0.00000E+00
 -1        61 1.74481E-04-8.60168E-06-2.64698E-23
 -1        62 1.72974E-04-9.91818E-06-5.29396E-23
 -1        63 1.71326E-04-1.08617E-05 0.00000E+00
 -1        64 1.69505E-04-1.13455E-05-5.29396E-23
 -1        65 1.67487E-04-1.13016E-05 0.00000E+00
 -1        66 1.65262E-04-1.07058E-05 0.00000E+00
 -1        67 1.62829E-04-9.55594E-06 0.00000E+00
 -1        68 1.60205E-04-7.89654E-06 0.00000E+00
 -1        69 1.57421E-04-5.78934E-06-2.64698E-23
 -1        70 1.54505E-04-3.34022E-06 0.00000E+00
 -1        86 1.62354E-04-1.00656E-07 0.00000E+00
 -1        87 1.61354E-04-2.02266E-07 1.65436E-24
 -1        88 1.59723E-04-3.04746E-07-3.30872E-24
 -1        89 1.57500E-04-4.11644E-07-3.30872E-24
 -1        90 1.54753E-04-5.18663E-07 0.00000E+00
 -1       121 1.63251E-04-3.63455E-07 0.00000E+00
 -1       122 1.62155E-04-7.27430E-07 0.00000E+00
 -1       123 1.60333E-04-1.09244E-06 1.32349E-23
 -1       124 1.57787E-04-1.45904E-06 0.00000E+00
 -1       125 1.54525E-04-1.82762E-06 0.00000E+00
 -1       191 1.07182E-04 9.87452E-08 3.30872E-24
 -1       192 1.07161E-04 1.97489E-07 0.00000E+00
 -1       193 1.07124E-04 2.96234E-07-3.30872E-24
 -1       194 1.07073E-04 3.94980E-07 0.00000E+00
 -1       195 1.07008E-04 4.93728E-07 0.00000E+00
 -1       251 1.57353E-04 3.86194E-06 1.32349E-23
 -1       252 1.56962E-04 7.92270E-06-6.61744E-24
 -1       253 1.56575E-04 1.10107E-05 0.00000E+00
 -1       254 1.56190E-04 1.28405E-05 0.00000E+00
 -1       255 1.55807E-04 1.33632E-05 1.32349E-23
 -1       256 1.55424E-04 1.25500E-05 0.00000E+00
 -1       257 1.55039E-04 1.06232E-05 0.00000E+00
 -1       258 1.54652E-04 7.82256E-06 0.00000E+00
 -1       259 1.54263E-04 4.55172E-06 0.00000E+00
 -1       260 1.53875E-04 1.22187E-06 6.61744E-24
 -1       261 1.53487E-04-1.74474E-06-1.32349E-23
 -1       262 1.53102E-04-3.93164E-06 0.00000E+00
 -1       263 1.52717E-04-5.06873E-06 0.00000E+00
 -1       264 1.52332E-04-4.90236E-06 0.00000E+00
 -1       265 1.51947E-04-3.42376E-06 0.00000E+00
 -1       266 1.52692E-04-8.99484E-07 0.00000E+00
 -1       267 1.47639E-04-9.14304E-07-1.65436E-24
 -1       268 1.42586E-04-9.29983E-07-1.65436E-24
 -1       269 1.37533E-04-9.43115E-07 0.00000E+00
 -1       270 1.32479E-04-9.56187E-07 4.13590E-25
 -1       271 1.54723E-04 3.08638E-06 2.64698E-23
 -1       272 1.52078E-04 5.91587E-06 0.00000E+00
 -1       273 1.49824E-04 7.71762E-06 0.00000E+00
 -1       274 1.47912E-04 8.58998E-06 2.64698E-23
 -1       275 1.46304E-04 8.65380E-06-5.29396E-23
 -1       276 1.44948E-04 8.04154E-06 0.00000E+00
 -1       277 1.43791E-04 6.89881E-06 0.00000E+00
 -1       278 1.42774E-04 5.38016E-06 0.00000E+00
 -1       279 1.41837E-04 3.64717E-06 5.29396E-23
 -1       280 1.40919E-04 1.86522E-06 2.64698E-23
 -1       281 1.39957E-04 2.00481E-07 5.29396E-23
 -1       282 1.38890E-04-1.18280E-06 0.00000E+00
 -1       283 1.37660E-04-2.12583E-06 0.00000E+00
 -1       284 1.36212E-04-2.47591E-06 1.32349E-23
 -1       285 1.34488E-04-2.09481E-06 2.64698E-23
 -1       301 1.48019E-04-6.92388E-07 0.00000E+00
 -1       302 1.44514E-04-7.17672E-07-3.30872E-24
 -1       303 1.41123E-04-7.41439E-07-6.61744E-24
 -1       304 1.37929E-04-7.65363E-07 0.00000E+00
 -1       305 1.35017E-04-7.90575E-07 0.00000E+00
 -1       306 1.49633E-04-2.24858E-06 5.29396E-23
 -1       307 1.50683E-04-1.21077E-05 0.00000E+00
 -1       308 1.54124E-04-2.85569E-05 0.00000E+00
 -1       309 1.59151E-04-4.95035E-05 0.00000E+00
 -1       310 1.64687E-04-7.18947E-05 0.00000E+00
 -1       311 1.69620E-04-9.25804E-05 0.00000E+00
 -1       312 1.72950E-04-1.08773E-04 0.00000E+00
 -1       313 1.73757E-04-1.17999E-04 0.00000E+00
 -1       314 1.71612E-04-1.19257E-04-5.29396E-23
 -1       315 1.66274E-04-1.12091E-04 0.00000E+00
 -1       316 1.58178E-04-9.78060E-05 0.00000E+00
 -1       317 1.47976E-04-7.81758E-05 2.64698E-23
 -1       318 1.36793E-04-5.60833E-05 5.29396E-23
 -1       319 1.25856E-04-3.45628E-05 0.00000E+00
 -1       320 1.16305E-04-1.65468E-05-5.29396E-23
 -1       336 1.45792E-04-2.60293E-06 0.00000E+00
 -1       337 1.40157E-04-3.01149E-06-6.61744E-24
 -1       338 1.33665E-04-3.42491E-06 0.00000E+00
 -1       339 1.26337E-04-3.84323E-06 6.61744E-24
 -1       340 1.18196E-04-4.26765E-06 1.32349E-23
 -1       406 1.06834E-04 6.92172E-07 0.00000E+00
 -1       407 1.06725E-04 7.91842E-07 1.65436E-24
 -1       408 1.06601E-04 8.91455E-07 3.30872E-24
 -1       409 1.06462E-04 9.90887E-07 0.00000E+00
 -1       410 1.06309E-04 1.08994E-06-3.30872E-24
 -1       521 1.36465E-04-2.11476E-05 0.00000E+00
 -1       522 1.54166E-04-8.29846E-05 0.00000E+00
 -1       523 1.81202E-04-1.76186E-04 0.00000E+00
 -1       524 2.13160E-04-2.87712E-04-5.29396E-23
 -1       525 2.45417E-04-4.00373E-04-1.05879E-22
 -1       526 2.73349E-04-4.96870E-04 5.29396E-23
 -1       527 2.92541E-04-5.63590E-04-1.05879E-22
 -1       528 2.98447E-04-5.89653E-04 5.29396E-23
 -1       529 2.88497E-04-5.73029E-04 1.05879E-22
 -1       530 2.61379E-04-5.15322E-04 0.00000E+00
 -1       531 2.20045E-04-4.26512E-04 1.05879E-22
 -1       532 1.69450E-04-3.18808E-04 0.00000E+00
 -1       533 1.17350E-04-2.08091E-04 1.05879E-22
 -1       534 7.17613E-05-1.10417E-04 0.00000E+00
 -1       535 3.86748E-05-3.93568E-05 0.00000E+00
 -1       536 1.09054E-04 7.98303E-06 0.00000E+00
 -1       537 1.08745E-04 2.73448E-05 3.30872E-24
 -1       538 1.08358E-04 5.05713E-05 3.30872E-24
 -1       539 1.07949E-04 7.48221E-05 0.00000E+00
 -1       540 1.07585E-04 9.69884E-05 3.30872E-24
 -1       541 1.07319E-04 1.13973E-04 0.00000E+00
 -1       542 1.07141E-04 1.24009E-04 0.00000E+00
 -1       543 1.07011E-04 1.25369E-04 0.00000E+00
 -1       544 1.06860E-04 1.18519E-04 0.00000E+00
 -1       545 1.06630E-04 1.03976E-04 0.00000E+00
 -1       546 1.06316E-04 8.42116E-05 0.00000E+00
 -1       547 1.05947E-04 6.17262E-05 0.00000E+00
 -1       548 1.05588E-04 3.97228E-05 0.00000E+00
 -1       549 1.05302E-04 2.14022E-05 0.00000E+00
 -1       550 1.05100E-04 9.01921E-06 0.00000E+00
 -1       551 9.77249E-05-4.96763E-06 6.61744E-24
 -1       552 8.40296E-05-5.26228E-06 3.30872E-24
 -1       553 6.89059E-05-5.57530E-06 0.00000E+00
 -1       554 5.30907E-05-5.90038E-06-6.61744E-24
 -1       555 3.73205E-05-6.22760E-06 0.00000E+00
 -1       556 1.06139E-04 3.39304E-06 2.64698E-23
 -1       557 1.03704E-04 9.70509E-06 0.00000E+00
 -1       558 1.01888E-04 1.43978E-05-2.64698E-23
 -1       559 1.00624E-04 1.76395E-05 0.00000E+00
 -1       560 9.98461E-05 1.95980E-05 0.00000E+00
 -1       561 9.94884E-05 2.04423E-05 0.00000E+00
 -1       562 9.94860E-05 2.03417E-05 1.32349E-23
 -1       563 9.97743E-05 1.94658E-05 0.00000E+00
 -1       564 1.00289E-04 1.79843E-05 0.00000E+00
 -1       565 1.00967E-04 1.60672E-05 0.00000E+00
 -1       566 1.01744E-04 1.38845E-05 1.65436E-24
 -1       567 1.02556E-04 1.16062E-05 2.58494E-25
 -1       568 1.03341E-04 9.40245E-06 0.00000E+00
 -1       569 1.04034E-04 7.44308E-06 0.00000E+00
 -1       570 1.04573E-04 5.89805E-06 0.00000E+00
 -1       571 1.05041E-04 4.58765E-06-4.13590E-25
 -1       572 1.05114E-04 4.33541E-06-2.06795E-25
 -1       573 1.05187E-04 4.04601E-06 8.27181E-25
 -1       574 1.05260E-04 3.72882E-06 8.27181E-25
 -1       575 1.05333E-04 3.39321E-06 0.00000E+00
 -1       576 1.05407E-04 3.04863E-06-8.27181E-25
 -1       577 1.05480E-04 2.70454E-06 0.00000E+00
 -1       578 1.05553E-04 2.37040E-06 1.65436E-24
 -1       579 1.05627E-04 2.05565E-06 3.30872E-24
 -1       580 1.05700E-04 1.76976E-06-1.65436E-24
 -1       581 1.05773E-04 1.52220E-06 0.00000E+00
 -1       582 1.05847E-04 1.32240E-06 0.00000E+00
 -1       583 1.05920E-04 1.17981E-06 0.00000E+00
 -1       584 1.05994E-04 1.10376E-06 0.00000E+00
 -1       585 1.06067E-04 1.10355E-06 0.00000E+00
 -1       586 1.04918E-04 4.81866E-06 0.00000E+00
 -1       587 1.04839E-04 4.84289E-06 3.10193E-25
 -1       588 1.04765E-04 4.86686E-06 0.00000E+00
 -1       589 1.04728E-04 4.89041E-06 0.00000E+00
 -1       590 1.04761E-04 4.91326E-06 0.00000E+00
 -1       591 1.05012E-04 4.63057E-06 1.29247E-26
 -1       592 1.05063E-04 4.43475E-06 0.00000E+00
 -1       593 1.05124E-04 4.21297E-06 0.00000E+00
 -1       594 1.05192E-04 3.97109E-06 0.00000E+00
 -1       595 1.05266E-04 3.71505E-06-8.27181E-25
 -1       596 1.05342E-04 3.45073E-06 0.00000E+00
 -1       597 1.05419E-04 3.18402E-06 8.27181E-25
 -1       598 1.05495E-04 2.92080E-06 2.06795E-25
 -1       599 1.05567E-04 2.66695E-06-8.27181E-25
 -1       600 1.05634E-04 2.42834E-06 0.00000E+00
 -1       601 1.05693E-04 2.21085E-06 0.00000E+00
 -1       602 1.05742E-04 2.02037E-06 2.06795E-25
 -1       603 1.05778E-04 1.86277E-06 2.06795E-25
 -1       604 1.05800E-04 1.74401E-06 5.16988E-26
 -1       605 1.05806E-04 1.66992E-06 0.00000E+00
 -1       606 1.06153E-04 1.43663E-06 0.00000E+00
 -1       607 1.06163E-04 1.78136E-06 0.00000E+00
 -1       608 1.06173E-04 2.21626E-06 0.00000E+00
 -1       609 1.06182E-04 2.73498E-06 0.00000E+00
 -1       610 1.06191E-04 3.33117E-06 0.00000E+00
 -1       611 1.06200E-04 3.99834E-06 0.00000E+00
 -1       612 1.06209E-04 4.73004E-06 0.00000E+00
 -1       613 1.06217E-04 5.51979E-06 0.00000E+00
 -1       614 1.06226E-04 6.36112E-06 0.00000E+00
 -1       615 1.06235E-04 7.24754E-06 0.00000E+00
 -1       616 1.06244E-04 8.17260E-06 1.65436E-24
 -1       617 1.06252E-04 9.12981E-06 0.00000E+00
 -1       618 1.06261E-04 1.01127E-05 0.00000E+00
 -1       619 1.06269E-04 1.11148E-05 0.00000E+00
 -1       620 1.06278E-04 1.21296E-05 0.00000E+00
 -1       621 1.06000E-04 1.26438E-06 0.00000E+00
 -1       622 1.05906E-04 1.34138E-06-8.27181E-25
 -1       623 1.05848E-04 1.41836E-06 1.65436E-24
 -1       624 1.05816E-04 1.49521E-06 0.00000E+00
 -1       625 1.05802E-04 1.57193E-06 1.65436E-24
 -1       626 1.06131E-04 1.46209E-06 0.00000E+00
 -1       627 1.06093E-04 1.81473E-06 1.65436E-24
 -1       628 1.06028E-04 2.23804E-06 0.00000E+00
 -1       629 1.05941E-04 2.72395E-06 1.65436E-24
 -1       630 1.05833E-04 3.26441E-06 0.00000E+00
 -1       631 1.05707E-04 3.85130E-06 0.00000E+00
 -1       632 1.05567E-04 4.47650E-06 3.30872E-24
 -1       633 1.05416E-04 5.13191E-06 1.65436E-24
 -1       634 1.05256E-04 5.80941E-06 0.00000E+00
 -1       635 1.05091E-04 6.50089E-06 0.00000E+00
 -1       636 1.04924E-04 7.19824E-06 3.30872E-24
 -1       637 1.04757E-04 7.89335E-06-1.65436E-24
 -1       638 1.04595E-04 8.57809E-06 1.65436E-24
 -1       639 1.04439E-04 9.24437E-06-8.27181E-25
 -1       640 1.04293E-04 9.88405E-06 0.00000E+00
 -1       656 1.05478E-04 1.27176E-05 0.00000E+00
 -1       657 1.05044E-04 1.22672E-05 0.00000E+00
 -1       658 1.04846E-04 1.18182E-05 0.00000E+00
 -1       659 1.04740E-04 1.13696E-05 0.00000E+00
 -1       660 1.04565E-04 1.09195E-05 0.00000E+00
 -1       661 1.05988E-04 1.41429E-05-8.27181E-25
 -1       662 1.05715E-04 1.50758E-05 0.00000E+00
 -1       663 1.05464E-04 1.59515E-05 0.00000E+00
 -1       664 1.05234E-04 1.67733E-05-8.27181E-25
 -1       665 1.05022E-04 1.75439E-05-1.65436E-24
 -1       666 1.04829E-04 1.82662E-05 8.27181E-25
 -1       667 1.04654E-04 1.89428E-05-1.65436E-24
 -1       668 1.04494E-04 1.95763E-05-8.27181E-25
 -1       669 1.04350E-04 2.01691E-05 0.00000E+00
 -1       670 1.04220E-04 2.07236E-05 0.00000E+00
 -1       671 1.04103E-04 2.12422E-05 0.00000E+00
 -1       672 1.04000E-04 2.17269E-05-8.27181E-25
 -1       673 1.03908E-04 2.21798E-05 1.65436E-24
 -1       674 1.03826E-04 2.26028E-05-8.27181E-25
 -1       675 1.03755E-04 2.29981E-05 4.13590E-25
 -1       676 1.05356E-04 2.37836E-05 0.00000E+00
 -1       677 1.05022E-04 2.36995E-05 0.00000E+00
 -1       678 1.04688E-04 2.36154E-05 0.00000E+00
 -1       679 1.04354E-04 2.35316E-05 0.00000E+00
 -1       680 1.04021E-04 2.34479E-05 1.65436E-24
 -1       771 1.66086E-05 5.22948E-06 0.00000E+00
 -1       772 1.16999E-05 1.49070E-05 0.00000E+00
 -1       773 7.56499E-06 2.25730E-05 5.29396E-23
 -1       774 4.15244E-06 2.83495E-05 0.00000E+00
 -1       775 1.41165E-06 3.23621E-05-5.29396E-23
 -1       776-7.10236E-07 3.47419E-05 0.00000E+00
 -1       777-2.26658E-06 3.56232E-05-5.29396E-23
 -1       778-3.31201E-06 3.51451E-05 0.00000E+00
 -1       779-3.90144E-06 3.34494E-05 0.00000E+00
 -1       780-4.09083E-06 3.06818E-05 2.64698E-23
 -1       781-3.93623E-06 2.69901E-05 0.00000E+00
 -1       782-3.49454E-06 2.25250E-05 0.00000E+00
 -1       783-2.82265E-06 1.74386E-05-2.64698E-23
 -1       784-1.97802E-06 1.18854E-05 0.00000E+00
 -1       785-1.01808E-06 6.02039E-06 0.00000E+00
 -1       786 1.04947E-04 4.59061E-06 4.13590E-25
 -1       787 1.05003E-04 4.27326E-06 0.00000E+00
 -1       788 1.05059E-04 3.97729E-06 0.00000E+00
 -1       789 1.05116E-04 3.69835E-06 0.00000E+00
 -1       790 1.05172E-04 3.43430E-06 1.65436E-24
 -1       791 1.05229E-04 3.18300E-06 8.27181E-25
 -1       792 1.05286E-04 2.94404E-06-1.65436E-24
 -1       793 1.05342E-04 2.71700E-06 8.27181E-25
 -1       794 1.05399E-04 2.50303E-06 0.00000E+00
 -1       795 1.05456E-04 2.30331E-06-8.27181E-25
 -1       796 1.05513E-04 2.12089E-06 0.00000E+00
 -1       797 1.05570E-04 1.95885E-06 8.27181E-25
 -1       798 1.05626E-04 1.82295E-06 1.65436E-24
 -1       799 1.05683E-04 1.71902E-06 0.00000E+00
 -1       800 1.05740E-04 1.65704E-06 1.65436E-24
 -1       801 9.76354E-05 4.30187E-06 0.00000E+00
 -1       802 7.51577E-05 3.42879E-06 0.00000E+00
 -1       803 4.61953E-05 2.40671E-06 1.32349E-23
 -1       804 1.96679E-05 1.44154E-06 0.00000E+00
 -1       805 2.15765E-06 6.58010E-07-2.64698E-23
 -1       806 1.04939E-04 4.54126E-06 0.00000E+00
 -1       807 1.04975E-04 4.16175E-06-8.27181E-25
 -1       808 1.05004E-04 3.79956E-06-3.30872E-24
 -1       809 1.05025E-04 3.45812E-06-8.27181E-25
 -1       810 1.05036E-04 3.14087E-06 1.65436E-24
 -1       811 1.05038E-04 2.85117E-06 8.27181E-25
 -1       812 1.05028E-04 2.59238E-06 1.65436E-24
 -1       813 1.05004E-04 2.36786E-06-1.65436E-24
 -1       814 1.04967E-04 2.18092E-06-3.30872E-24
 -1       815 1.04915E-04 2.03492E-06 0.00000E+00
 -1       816 1.04846E-04 1.93319E-06 0.00000E+00
 -1       817 1.04759E-04 1.87905E-06 8.27181E-25
 -1       818 1.04653E-04 1.87583E-06 3.30872E-24
 -1       819 1.04526E-04 1.92685E-06 0.00000E+00
 -1       820 1.04379E-04 2.03541E-06-1.65436E-24
 -1       821 1.05699E-04 1.62748E-06 0.00000E+00
 -1       822 1.05597E-04 1.53752E-06-8.27181E-25
 -1       823 1.05495E-04 1.44589E-06 3.30872E-24
 -1       824 1.05392E-04 1.42127E-06-1.65436E-24
 -1       825 1.05289E-04 1.51808E-06 0.00000E+00
 -1       826 1.05186E-04 1.79016E-06-1.65436E-24
 -1       827 1.05082E-04 2.25419E-06 0.00000E+00
 -1       828 1.04978E-04 2.92596E-06 0.00000E+00
 -1       829 1.04875E-04 3.77719E-06 0.00000E+00
 -1       830 1.04771E-04 4.77875E-06 1.65436E-24
 -1       831 1.04667E-04 5.86967E-06-3.30872E-24
 -1       832 1.04563E-04 6.98851E-06 0.00000E+00
 -1       833 1.04460E-04 8.06792E-06 0.00000E+00
 -1       834 1.04357E-04 9.04076E-06-8.27181E-25
 -1       835 1.04255E-04 9.86239E-06-8.27181E-25
 -1       836 1.05689E-04 1.73995E-06 1.65436E-24
 -1       837 1.05469E-04 1.83485E-06 1.65436E-24
 -1       838 1.05173E-04 1.92958E-06 0.00000E+00
 -1       839 1.04840E-04 2.02370E-06 0.00000E+00
 -1       840 1.04506E-04 2.11766E-06 0.00000E+00
 -1       856 1.04133E-04 1.10771E-05 2.06795E-25
 -1       857 1.04104E-04 1.17765E-05 2.06795E-25
 -1       858 1.04075E-04 1.25696E-05 0.00000E+00
 -1       859 1.04045E-04 1.34389E-05 0.00000E+00
 -1       860 1.04016E-04 1.43667E-05 0.00000E+00
 -1       861 1.03986E-04 1.53353E-05-4.13590E-25
 -1       862 1.03956E-04 1.63271E-05 0.00000E+00
 -1       863 1.03927E-04 1.73241E-05 0.00000E+00
 -1       864 1.03897E-04 1.83087E-05 0.00000E+00
 -1       865 1.03867E-04 1.92630E-05 0.00000E+00
 -1       866 1.03838E-04 2.01694E-05-8.27181E-25
 -1       867 1.03808E-04 2.10101E-05 0.00000E+00
 -1       868 1.03778E-04 2.17676E-05-8.27181E-25
 -1       869 1.03749E-04 2.24243E-05 0.00000E+00
 -1       870 1.03719E-04 2.29628E-05 0.00000E+00
 -1       871 1.03785E-04 1.04878E-05 0.00000E+00
 -1       872 1.03522E-04 1.04844E-05 0.00000E+00
 -1       873 1.03322E-04 1.04806E-05 0.00000E+00
 -1       874 1.03135E-04 1.04762E-05-1.55096E-25
 -1       875 1.02914E-04 1.04714E-05 0.00000E+00
 -1       876 1.04037E-04 1.10870E-05-3.30872E-24
 -1       877 1.03897E-04 1.17392E-05 0.00000E+00
 -1       878 1.03740E-04 1.24390E-05-3.30872E-24
 -1       879 1.03567E-04 1.31802E-05 0.00000E+00
 -1       880 1.03381E-04 1.39569E-05 0.00000E+00
 -1       881 1.03184E-04 1.47629E-05 0.00000E+00
 -1       882 1.02978E-04 1.55921E-05 0.00000E+00
 -1       883 1.02766E-04 1.64385E-05-1.65436E-24
 -1       884 1.02550E-04 1.72960E-05-3.30872E-24
 -1       885 1.02332E-04 1.81586E-05 1.65436E-24
 -1       886 1.02114E-04 1.90202E-05-3.30872E-24
 -1       887 1.01899E-04 1.98748E-05-1.65436E-24
 -1       888 1.01688E-04 2.07162E-05-3.30872E-24
 -1       889 1.01484E-04 2.15384E-05 8.27181E-25
 -1       890 1.01290E-04 2.23352E-05 0.00000E+00
 -1       891 1.03378E-04 2.33213E-05 1.65436E-24
 -1       892 1.03048E-04 2.32765E-05-4.13590E-25
 -1       893 1.02678E-04 2.32317E-05-1.65436E-24
 -1       894 1.02244E-04 2.31871E-05-4.13590E-25
 -1       895 1.01726E-04 2.31425E-05-6.20385E-25
 -1       956 1.04112E-04 2.49906E-06 0.00000E+00
 -1       957 1.04012E-04 2.85643E-06-8.27181E-25
 -1       958 1.03912E-04 3.27004E-06 1.65436E-24
 -1       959 1.03812E-04 3.73266E-06 0.00000E+00
 -1       960 1.03711E-04 4.23709E-06 1.65436E-24
 -1       961 1.03611E-04 4.77604E-06-1.65436E-24
 -1       962 1.03511E-04 5.34224E-06 3.30872E-24
 -1       963 1.03410E-04 5.92842E-06 0.00000E+00
 -1       964 1.03310E-04 6.52729E-06 3.30872E-24
 -1       965 1.03209E-04 7.13156E-06 1.65436E-24
 -1       966 1.03109E-04 7.73397E-06-3.30872E-24
 -1       967 1.03009E-04 8.32722E-06-1.65436E-24
 -1       968 1.02908E-04 8.90404E-06 3.30872E-24
 -1       969 1.02808E-04 9.45718E-06 0.00000E+00
 -1       970 1.02708E-04 9.97938E-06 0.00000E+00
 -1       971 1.02517E-04 1.09656E-05 0.00000E+00
 -1       972 1.02423E-04 1.15497E-05-8.27181E-25
 -1       973 1.02328E-04 1.22067E-05 1.65436E-24
 -1       974 1.02233E-04 1.29275E-05 0.00000E+00
 -1       975 1.02139E-04 1.37024E-05 0.00000E+00
 -1       976 1.02044E-04 1.45220E-05 0.00000E+00
 -1       977 1.01949E-04 1.53770E-05-3.30872E-24
 -1       978 1.01854E-04 1.62578E-05 0.00000E+00
 -1       979 1.01759E-04 1.71550E-05-3.30872E-24
 -1       980 1.01664E-04 1.80591E-05 0.00000E+00
 -1       981 1.01569E-04 1.89607E-05 0.00000E+00
 -1       982 1.01475E-04 1.98502E-05-1.65436E-24
 -1       983 1.01380E-04 2.07182E-05 3.30872E-24
 -1       984 1.01286E-04 2.15553E-05 0.00000E+00
 -1       985 1.01192E-04 2.23520E-05 0.00000E+00
 -3
    1PSTEP                        12           6           1          
  100CL  106 5.39062E-01         409                     0    6           1
 -4  STRESS      6    1
 -5  SXX         1    4    1    1
 -5  SYY         1    4    2    2
 -5  SZZ         1    4    3    3
 -5  SXY         1    4    1    2
 -5  SYZ         1    4    2    3
 -5  SZX         1    4    3    1
 -1         1-2.25488E+06-9.61381E+05-4.76660E+05-1.24200E+06 4.14730E-10-1.76660E-08
 -1         2 2.61631E+03-2.84277E+05 8.52813E+03-8.14891E+02-9.52411E-11 1.80228E-08
 -1         3-2.35113E+02-1.03730E+06 2.48920E+02-5.99543E+02-1.31656E-10-8.80209E-09
 -1         5-2.34702E+00 2.82534E+05-4.20364E-01-1.14718E+00 7.38574E-11 4.64393E-08
 -1         8-1.07864E+06-3.95311E+05-1.02985E+05-5.57652E+05 3.07409E-10 6.41739E-09
 -1         9-2.17559E+06-7.10355E+05-2.71151E+05-6.72819E+05 4.88653E-09-2.66009E-09
 -1        10-9.26778E+02-1.08066E+06-1.48296E+03-4.05712E+03-5.26870E-09-4.21186E-08
 -1        12 3.22981E+00 2.83977E+05 2.44036E+02 1.59862E+00-2.41926E-10 1.27222E-08
 -1        15 2.00530E+03 1.10204E+03 6.48212E+03 4.38187E+00-3.12582E-10-2.00929E-08
 -1        16-2.84383E+06-1.24724E+06-4.62597E+05-1.32291E+06 1.23497E-08-2.32831E-09
 -1        17-1.27164E+06-7.17063E+05-2.45229E+05-6.36633E+05-5.64469E-09-2.73576E-10
 -1        18-4.03190E+04-1.46637E+04-3.18692E+04-7.35233E+04 5.51688E-09 2.66891E-09
 -1        19 8.98239E+04 1.05555E+05-5.91047E+02 1.75602E+04-3.04317E-10-7.08969E-09
 -1        20-4.22815E+04-4.24241E+05-9.39208E+04 2.86808E+04 2.64542E-09 2.91705E-09
 -1        21-3.90481E+01-2.40693E+05-7.72356E+02-5.52175E+01-3.56839E-09 1.36842E-08
 -1        24-3.10120E+06-7.88147E+05-3.53308E+05-1.12243E+06-3.86402E-08-1.95287E-08
 -1        25-5.12917E+04-3.62678E+05-6.63096E+04-1.20051E+05 3.03044E-10 2.69647E-09
 -1        26-2.71611E+04 7.00263E+04-1.57571E+04-7.34714E+03 1.47593E-09 7.94287E-09
 -1        27-6.49739E+04-2.31817E+05-8.65883E+04 5.23112E+04 5.92824E-09 4.50048E-09
 -1        28 1.85672E+04-6.70430E+04 1.36317E+04 2.04098E+04 4.15091E-09 8.74849E-10
 -1        32-1.07946E+06-1.02194E+06 1.82821E+05-5.74730E+05-2.40980E-08 4.52849E-09
 -1        33-1.34272E+05 6.74616E+04 2.40205E+04-3.57961E+04 6.96483E-10 3.32269E-09
 -1        34-1.71677E+05-1.73266E+04 4.29311E+02 5.36717E+04 2.02870E-09 4.20247E-09
 -1        35-1.89031E+04-2.66348E+04-1.04807E+03 4.19297E+04 4.52359E-09 7.36569E-09
 -1        51 2.08109E+04-3.54721E+05 5.09685E+04-9.67208E+05 1.60071E-10-6.73754E-09
 -1        52 1.13127E+04-3.51463E+05 3.19617E+04-1.12801E+06-1.38243E-10-1.77533E-09
 -1        53 7.34838E+03-3.66013E+05 2.48302E+04-9.63803E+05 6.18456E-10-1.33005E-08
 -1        54 2.03252E+04-3.64629E+05 3.69646E+04-1.13153E+06-5.52973E-10-2.45018E-08
 -1        55 3.98909E+04-3.78399E+05 6.42255E+04-9.63245E+05-7.27596E-11-7.04676E-09
 -1        56-4.31098E+06-4.82607E+05-3.50710E+05-1.66519E+06-1.85537E-09-1.39698E-09
 -1        57-4.46208E+06-7.90419E+05-2.36521E+05-1.64015E+06-4.11092E-10 7.96717E-09
 -1        58-4.38154E+06-5.93794E+05-8.24760E+04-1.64300E+06-1.19144E-09 3.89264E-10
 -1        59-4.38058E+06-6.59706E+05-4.92379E+04-1.66626E+06-4.05248E-09-1.13459E-08
 -1        60-4.39156E+06-6.09580E+05-1.92355E+04-1.64032E+06 6.20730E-10-9.20500E-09
 -1        61-4.37089E+06-6.39222E+05-1.09044E+04-1.66701E+06 2.54022E-09 2.01590E-09
 -1        62-4.39100E+06-6.13816E+05-5.20644E+03-1.64234E+06 5.91854E-10 1.05719E-08
 -1        63-4.37490E+06-6.31258E+05-4.16543E+03-1.66075E+06 2.85263E-09 1.16469E-08
 -1        64-4.38743E+06-6.17544E+05-4.68013E+03-1.64653E+06 2.15800E-09 5.47971E-10
 -1        65-4.38406E+06-6.25008E+05-9.25039E+03-1.65120E+06-2.06364E-09-1.04274E-09
 -1        66-4.38182E+06-6.20145E+05-1.62210E+04-1.65184E+06-2.96325E-10-1.07702E-08
 -1        67-4.40230E+06-6.32008E+05-4.12418E+04-1.63899E+06-6.42615E-10-1.67197E-08
 -1        68-4.36937E+06-6.10935E+05-6.91290E+04-1.65865E+06 1.59162E-10-5.50426E-09
 -1        69-4.47583E+06-7.36440E+05-1.98121E+05-1.61153E+06-1.56797E-09 2.38470E-09
 -1        70-4.30920E+06-5.18774E+05-2.93831E+05-1.67835E+06-1.52795E-09-4.43833E-09
 -1        86-1.31437E+03-2.87094E+05 9.10397E+03 4.07433E+02 1.09981E-09 6.45178E-09
 -1        87 8.69256E+03-2.81392E+05 1.90275E+04-1.57477E+03 1.79034E-09-2.09207E-08
 -1        88-7.36797E+03-2.89981E+05 2.91280E+04 1.16733E+03 2.60297E-09-9.33278E-09
 -1        89 5.48808E+04-2.60096E+05 7.85198E+04-2.88970E+03 3.95812E-09-9.99748E-10
 -1        90-4.73363E+04-3.08371E+05 1.11026E+05 1.72280E+03 3.84898E-09 5.14001E-09
 -1       121-3.44376E+02-1.03821E+06 1.26212E+02 2.99117E+02 6.62766E-10-9.83164E-09
 -1       122-1.49762E+02-1.03726E+06 5.29519E+02-1.19796E+03-2.10687E-09 1.21508E-09
 -1       123-3.95339E+02-1.03827E+06 7.41576E+02 8.94940E+02 1.71519E-09 1.28020E-08
 -1       124 8.34607E+02-1.03671E+06 2.18528E+03-2.58406E+03-4.11228E-09-9.88621E-10
 -1       125-1.01108E+03-1.03882E+06 3.23548E+03 1.68285E+03 2.97405E-09-1.35697E-08
 -1       191-2.87473E+00 2.82560E+05-6.19947E-01 5.73428E-01 8.29203E-11 2.01298E-08
 -1       192-5.65432E+00 2.82534E+05-1.73091E+00-5.49084E+00 1.11136E-10 2.79251E-08
 -1       193-1.29919E+01 2.82560E+05-4.04426E+00 4.91530E+00 7.62270E-11 1.42518E-08
 -1       194-4.09809E+01 2.82525E+05-1.50634E+01-4.35488E+01 4.46789E-11-1.19144E-09
 -1       195-1.10882E+02 2.82568E+05-3.53361E+01 3.86123E+01 1.72349E-10 1.84195E-09
 -1       251-1.09319E+06 5.00865E+03-1.19307E+04-9.27026E+03-7.46354E-11-1.15801E-08
 -1       252-1.09717E+06-5.76603E+03-8.18933E+03 1.14342E+04 7.12816E-11-4.30930E-09
 -1       253-1.09574E+06 7.17990E+02-3.22658E+03-4.71866E+03-2.41812E-10 1.98106E-08
 -1       254-1.09412E+06-8.54250E+02-1.58104E+03 7.79929E+02-3.44471E-10-5.97049E-09
 -1       255-1.09617E+06 5.93680E+01-9.23814E+02 1.38404E+03-4.17913E-10-5.62318E-09
 -1       256-1.09417E+06-8.00793E+01-1.28160E+02-1.05215E+04-4.59522E-10 1.03475E-08
 -1       257-1.09573E+06-2.12321E+01-1.06981E+02 6.58258E+03-9.71283E-10-1.80631E-09
 -1       258-1.09504E+06 1.21096E+02 3.07979E+02-1.79122E+04-4.90061E-10 7.46758E-09
 -1       259-1.09539E+06-6.93209E+01 6.10091E+02 8.77512E+03-4.40323E-10 7.83240E-09
 -1       260-1.09490E+06 5.34639E+02 1.51061E+03-1.84109E+04 1.19871E-09-4.97630E-09
 -1       261-1.09587E+06-4.26816E+02 2.51559E+03 7.08129E+03 8.76696E-10 3.27134E-09
 -1       262-1.09272E+06 3.06268E+03 6.55731E+03-1.18202E+04 1.55472E-09 8.67067E-09
 -1       263-1.09748E+06-2.65822E+03 9.97865E+03 2.18414E+03-1.43461E-09 1.03587E-08
 -1       264-1.08450E+06 1.95045E+04 2.80216E+04-8.37947E+02-3.34714E-09 5.81622E-09
 -1       265-1.10402E+06-1.68581E+04 3.90792E+04-3.90089E+03-1.74623E-09 5.48425E-09
 -1       266-3.63014E+04-1.69718E+04 8.51865E+04-9.37707E+01-1.09139E-11-1.69561E-08
 -1       267 4.20846E+04 1.97852E+04 6.02019E+04 1.08177E+02-1.72804E-10-5.21891E-08
 -1       268-5.64341E+03-2.80191E+03 2.23772E+04-1.37845E+01-2.21007E-10-4.13200E-08
 -1       269 6.66328E+03 3.35355E+03 1.45444E+04 1.60560E+01-1.17780E-10-2.17949E-08
 -1       270-1.00016E+03-5.51002E+02 7.02082E+03-2.17895E+00-1.70985E-10-1.91804E-08
 -1       271-3.41254E+06-4.27056E+05-2.59171E+05-1.32960E+06 1.47702E-09 1.20199E-08
 -1       272-3.50088E+06-6.20708E+05-1.66629E+05-1.33233E+06-4.01542E-10-5.16593E-09
 -1       273-3.46268E+06-4.90298E+05-6.12322E+04-1.31648E+06 7.09406E-11-5.97356E-09
 -1       274-3.44148E+06-5.43934E+05-3.42346E+04-1.35293E+06 2.31830E-09 8.10269E-09
 -1       275-3.47116E+06-4.95194E+05-1.42646E+04-1.31250E+06 1.52249E-09 7.25049E-09
 -1       276-3.43088E+06-5.38821E+05-7.54227E+03-1.35974E+06-4.36103E-09 8.71842E-09
 -1       277-3.47370E+06-4.94189E+05-3.71040E+03-1.31040E+06 1.12777E-10-6.89806E-09
 -1       278-3.42795E+06-5.40249E+05-2.66600E+03-1.36294E+06 3.59023E-10-5.83260E-09
 -1       279-3.47447E+06-4.93450E+05-2.84344E+03-1.30959E+06 1.05570E-09-2.33422E-09
 -1       280-3.42813E+06-5.41167E+05-5.21192E+03-1.36328E+06-1.96815E-09 8.09894E-09
 -1       281-3.47359E+06-4.93281E+05-9.48916E+03-1.31009E+06 9.10859E-10 1.11677E-08
 -1       282-3.43413E+06-5.45641E+05-2.27435E+04-1.36011E+06-1.50794E-09 1.56997E-08
 -1       283-3.46829E+06-4.89718E+05-4.05322E+04-1.31237E+06 1.91812E-09 4.66571E-09
 -1       284-3.47316E+06-5.96713E+05-1.10396E+05-1.34658E+06-4.28315E-09 4.13274E-09
 -1       285-3.43496E+06-4.48029E+05-1.71714E+05-1.32123E+06 1.33696E-09-4.38013E-09
 -1       301 2.11558E+04-5.27017E+04 1.56161E+05-1.01346E+05-7.71252E-10 5.35692E-09
 -1       302 2.22476E+04-1.31740E+04 1.03754E+05-1.49008E+05 1.16961E-09 9.03947E-09
 -1       303 1.12107E+03-3.72740E+04 8.16334E+04-1.01436E+05-6.31189E-10 1.35005E-08
 -1       304 2.77426E+04-7.48772E+03 1.22289E+05-1.48548E+05 4.96584E-10 1.34314E-08
 -1       305 2.68099E+04-5.73948E+04 1.97134E+05-1.01848E+05-5.23869E-10 1.18416E-08
 -1       306-5.67781E+06-6.12459E+05-4.29733E+05-2.14090E+06 6.76664E-10-1.25146E-08
 -1       307-5.63040E+06-1.15371E+06-2.79599E+05-2.28988E+06-1.85828E-08 3.56522E-09
 -1       308-5.82741E+06-6.63137E+05-1.00779E+05-2.00882E+06-1.74464E-09 1.61235E-08
 -1       309-5.46820E+06-1.09103E+06-5.84301E+04-2.45913E+06 1.04374E-08 1.08021E-08
 -1       310-5.85146E+06-6.63726E+05-2.27552E+04-1.98125E+06 9.36780E-11-6.24641E-09
 -1       311-5.47595E+06-1.02832E+06-9.34901E+03-2.40963E+06 2.57278E-08-1.04178E-08
 -1       312-5.81394E+06-7.29440E+05-1.23319E+04-2.05446E+06 3.21415E-09 2.11257E-08
 -1       313-5.59534E+06-8.64965E+05 4.33480E+03-2.20346E+06-1.04546E-08 1.95309E-08
 -1       314-5.71901E+06-8.36363E+05-1.60875E+04-2.17771E+06 1.06302E-08-3.69619E-09
 -1       315-5.80872E+06-6.68377E+05-6.73028E+03-1.98092E+06 3.82352E-09 1.25515E-08
 -1       316-5.60447E+06-9.23233E+05-2.96372E+04-2.27949E+06-1.43755E-08-4.37649E-09
 -1       317-5.99626E+06-5.66311E+05-6.68242E+04-1.85208E+06 2.23517E-08-1.77106E-08
 -1       318-5.54506E+06-9.29373E+05-1.12878E+05-2.31680E+06-2.79961E-08 4.83851E-09
 -1       319-6.08800E+06-7.70421E+05-3.27016E+05-1.82999E+06-1.08066E-08 9.64064E-10
 -1       320-5.51207E+06-7.23211E+05-4.88671E+05-2.29939E+06 1.47702E-08-7.42148E-09
 -1       336 5.61885E+02-1.12392E+06-6.32545E+03 2.36352E+03-1.09699E-08-1.82808E-09
 -1       337-2.33647E+03-1.12508E+06-7.00330E+03-5.83165E+03-2.02633E-08-2.58660E-09
 -1       338 3.78305E+02-1.12406E+06-9.21625E+03 3.44789E+03-1.42300E-08 1.02209E-08
 -1       339-9.52493E+03-1.12970E+06-2.01479E+04-7.95440E+03-2.58915E-08 1.92331E-08
 -1       340 6.31913E+03-1.11956E+06-3.12482E+04 4.46816E+03-1.71840E-08 1.69784E-08
 -1       406 1.20165E+02 2.85389E+05 6.33995E+02-4.02444E+01-4.47471E-10 2.55136E-09
 -1       407 1.96160E+02 2.85500E+05 1.09572E+03 4.14509E+01-2.71484E-10 2.55045E-09
 -1       408 5.15064E+02 2.85326E+05 2.07060E+03-1.10206E+00-6.74845E-10 5.24597E-09
 -1       409 2.16597E+03 2.86145E+05 4.60070E+03-3.65335E+01-6.40739E-10 1.17143E-09
 -1       410 6.25298E+03 2.84743E+05 9.35815E+03 3.94687E+01-8.51287E-10-1.22941E-09
 -1       521-8.17522E+06-7.90965E+05-7.90801E+05-2.55327E+06-9.90258E-09 1.51922E-08
 -1       522-5.66686E+06-2.10003E+06-2.02616E+05-3.95279E+06-9.97679E-08-2.28392E-08
 -1       523-8.17380E+06-3.38020E+05-1.55707E+05-1.79652E+06-4.32192E-09-4.34011E-08
 -1       524-6.03670E+06-2.27804E+06-3.55529E+04-4.96022E+06 9.70664E-08-1.23873E-07
 -1       525-8.17371E+06-3.37557E+05-4.32105E+04-1.76555E+06 7.23230E-08-6.70334E-08
 -1       526-5.58130E+06-1.94438E+06 1.34045E+05-4.10027E+06 8.73260E-08-4.83487E-09
 -1       527-8.29500E+06-9.17229E+05-2.15754E+05-2.46079E+06 6.20494E-08 7.37055E-09
 -1       528-5.75612E+06-8.97562E+05 2.71601E+05-2.31237E+06 4.02215E-08 3.01370E-08
 -1       529-7.65719E+06-1.62416E+06-2.34808E+05-3.26902E+06 1.32277E-08 3.60887E-08
 -1       530-7.76729E+06 4.03120E+05 1.58549E+05-1.32088E+06-4.86471E-08 4.42196E-08
 -1       531-6.59812E+06-1.98663E+06-6.21053E+04-3.64356E+06-1.08637E-07-1.25110E-08
 -1       532-9.30344E+06 9.99594E+05-3.02392E+04-1.23151E+06 5.63641E-08-8.70355E-08
 -1       533-6.45601E+06-1.99226E+06-1.30214E+05-3.67158E+06 2.78815E-08-1.51935E-07
 -1       534-8.31139E+06 4.04988E+05-2.06123E+05-1.23352E+06-2.93148E-08 1.18149E-07
 -1       535-7.34901E+06-1.55976E+06-7.40019E+05-3.40713E+06-8.32370E-09 7.31961E-08
 -1       536-3.90338E+05-1.90816E+04 3.32561E+04-1.33696E+04-2.32728E-09 1.83263E-08
 -1       537-3.31360E+05 2.14011E+04 3.13234E+04 3.20486E+04-3.49443E-08 3.88063E-08
 -1       538-3.61676E+05-2.06823E+03 9.95858E+03-1.95425E+04 1.28716E-08 4.04730E-08
 -1       539-3.48626E+05 3.04937E+03 8.20666E+03 3.49437E+04 4.98982E-08 2.87146E-08
 -1       540-3.73304E+05-5.38289E+02 4.05283E+01-1.62716E+04 4.65252E-09 2.06578E-08
 -1       541-3.12197E+05 1.98762E+03 1.10383E+04 1.99829E+04-1.32065E-08 2.20239E-08
 -1       542-3.97125E+05-1.82116E+03-6.88103E+03-4.56181E+03 9.14656E-09 9.60085E-10
 -1       543-2.95974E+05 2.21971E+03 1.29917E+04-5.98219E+03 9.00513E-09-4.51860E-09
 -1       544-3.89110E+05-1.13434E+03-6.22693E+03 9.67428E+03 4.00257E-09-1.15946E-08
 -1       545-3.30709E+05 1.13815E+02 4.50301E+03-2.88052E+04-3.05658E-09-3.52223E-08
 -1       546-3.63286E+05 1.02875E+03-3.10269E+03 1.82573E+04 7.91186E-09-2.81905E-08
 -1       547-3.55095E+05-3.39360E+03-5.29751E+03-3.66186E+04-3.57226E-08-3.66756E-08
 -1       548-3.65319E+05 2.88026E+03-1.17452E+04 1.75025E+04-3.19807E-08-3.07573E-08
 -1       549-3.32166E+05-1.72240E+04-2.09478E+04-2.59120E+04-1.95060E-08-1.54473E-08
 -1       550-3.85441E+05 1.41970E+04-4.80295E+04 7.53297E+03 1.94996E-09-1.68766E-08
 -1       551 1.72605E+04-5.80200E+05 2.43846E+04-9.65344E+05-4.70609E-08-6.08270E-09
 -1       552 3.91991E+04-5.91813E+05 3.18109E+04-1.37495E+06-3.60742E-08 2.04818E-08
 -1       553 2.79382E+04-5.97768E+05 4.65823E+04-9.61709E+05-5.71818E-08 1.81026E-08
 -1       554 6.58416E+04-5.87576E+05 9.75954E+04-1.37639E+06-3.66199E-08 8.16794E-09
 -1       555 5.61189E+04-6.16420E+05 1.73348E+05-9.62654E+05-5.83823E-08-4.81668E-09
 -1       556 1.00528E+05-1.86150E+05 6.21346E+04-2.35263E+05-1.05065E-08-1.28057E-09
 -1       557 1.76084E+05-2.47215E+05 3.28911E+04-2.95819E+05 1.09139E-10 1.42982E-08
 -1       558 9.87061E+04-1.93566E+05 1.29076E+04-2.28971E+05-6.83940E-09 9.40054E-09
 -1       559 1.63875E+05-2.55137E+05 6.67529E+03-3.01748E+05 6.70843E-09 9.97716E-09
 -1       560 9.51675E+04-1.91272E+05 2.53408E+03-2.31322E+05-3.94357E-09-1.00044E-09
 -1       561 1.58791E+05-2.53560E+05 1.43811E+03-3.05006E+05-6.54836E-09 9.76434E-09
 -1       562 9.23553E+04-1.89439E+05 4.35048E+02-2.33343E+05-6.79574E-09-2.34104E-09
 -1       563 1.55489E+05-2.52130E+05 3.52030E+02-3.07123E+05-4.38013E-09 1.98611E-09
 -1       564 9.05272E+04-1.88276E+05 9.57685E+01-2.34636E+05 2.80124E-09 1.00863E-09
 -1       565 1.53628E+05-2.51325E+05 1.13525E+02-3.08299E+05 5.88625E-09-2.82171E-09
 -1       566 8.97311E+04-1.87761E+05 1.61382E+01-2.35200E+05-5.36420E-09-6.53927E-09
 -1       567 1.53166E+05-2.51112E+05-5.92289E+01-3.08511E+05-2.35917E-09 1.08939E-08
 -1       568 9.00071E+04-1.87946E+05-2.96180E+02-2.35086E+05-6.84304E-09 7.44330E-09
 -1       569 1.53329E+05-2.50992E+05-7.12351E+02-3.07039E+05-5.17321E-09 3.65981E-09
 -1       570 9.19952E+04-1.89602E+05-1.67105E+03-2.34871E+05 4.43833E-09-3.48518E-09
 -1       571 2.09287E+05 7.70854E+03 1.13812E+04-5.42796E+04-1.16916E-09 3.08978E-09
 -1       572 2.10975E+05 2.70361E+03 5.57629E+03-5.95183E+04-1.06729E-09-1.00647E-08
 -1       573 2.09963E+05 6.66950E+02 2.47731E+03-5.41484E+04 6.65295E-10-1.17316E-08
 -1       574 2.10159E+05 2.41456E+02 1.24137E+03-5.96671E+04 2.45586E-09-2.04773E-09
 -1       575 2.10037E+05 5.96972E+01 5.85242E+02-5.41310E+04-2.73963E-09 9.74842E-09
 -1       576 2.10049E+05 4.21953E+01 2.98269E+02-5.96870E+04-1.37624E-08 3.40651E-09
 -1       577 2.10051E+05 2.57014E+01 1.47471E+02-5.41287E+04-9.05538E-09-1.41699E-09
 -1       578 2.10042E+05 2.96896E+01 8.16069E+01-5.96895E+04-4.64229E-09-2.99497E-09
 -1       579 2.10069E+05 2.00942E+01 5.18016E+01-5.41286E+04-3.18687E-09-2.77078E-09
 -1       580 2.10067E+05 1.90233E+01 5.18407E+01-5.96863E+04-3.50019E-09-2.36605E-09
 -1       581 2.10099E+05 7.69161E+00 7.35811E+01-5.41319E+04-1.67074E-09 1.34787E-09
 -1       582 2.10121E+05 1.96666E+01 1.43312E+02-5.96531E+04-2.10275E-09 9.40281E-09
 -1       583 2.10135E+05 5.02829E+01 2.75830E+02-5.41618E+04 7.49424E-10-4.21619E-09
 -1       584 2.10267E+05 2.66730E+02 6.19868E+02-5.94020E+04-2.64663E-10-5.47993E-09
 -1       585 2.10111E+05 8.09958E+02 1.25852E+03-5.43834E+04-4.73847E-10-1.94268E-09
 -1       586-2.49582E+03 6.91021E+04-3.15104E+03-1.86569E+05-3.02407E-10-5.05383E-09
 -1       587-5.52522E+02 6.86991E+04-1.56184E+02-2.05335E+05 3.85626E-10-7.88157E-09
 -1       588 7.23124E+02 6.87517E+04 2.71804E+03-1.86471E+05-2.09184E-10-1.72531E-09
 -1       589 3.78367E+03 7.02259E+04 7.64656E+03-2.05137E+05-1.00590E-09-1.65041E-08
 -1       590 1.10216E+04 6.78852E+04 1.62745E+04-1.86775E+05-3.16504E-10-5.84077E-09
 -1       591-4.45098E+04-1.21022E+04-1.48891E+04-2.22181E+04-1.67006E-09-3.93811E-09
 -1       592-4.62114E+04-1.54523E+04-8.06470E+03-2.57520E+04-8.14964E-10 2.49145E-09
 -1       593-4.60107E+04-1.10098E+04-3.35731E+03-2.32982E+04 1.36868E-09 3.04135E-09
 -1       594-4.41414E+04-1.32831E+04-1.67445E+03-2.58491E+04 1.04620E-09-9.29390E-11
 -1       595-4.61257E+04-1.10051E+04-7.69367E+02-2.33476E+04-1.41813E-09 9.99698E-10
 -1       596-4.40009E+04-1.31837E+04-3.91990E+02-2.58340E+04 2.09440E-10 1.24282E-09
 -1       597-4.61402E+04-1.10148E+04-2.15345E+02-2.33496E+04 2.85681E-10 7.46860E-09
 -1       598-4.39874E+04-1.31799E+04-1.76591E+02-2.58298E+04-1.34582E-09 6.84838E-09
 -1       599-4.61390E+04-1.10149E+04-2.29923E+02-2.33492E+04 7.79551E-10-1.14632E-08
 -1       600-4.40020E+04-1.31849E+04-4.30597E+02-2.58332E+04-1.80904E-09-6.30507E-09
 -1       601-4.61209E+04-1.10048E+04-8.51304E+02-2.33462E+04-1.75237E-09-7.09792E-09
 -1       602-4.41574E+04-1.32948E+04-1.85626E+03-2.58477E+04-1.40778E-09-9.70203E-09
 -1       603-4.59918E+04-1.10120E+04-3.72311E+03-2.32917E+04-1.39948E-09 1.60844E-09
 -1       604-4.64619E+04-1.56902E+04-8.94345E+03-2.57266E+04 1.34025E-09 9.24774E-09
 -1       605-4.43156E+04-1.22326E+04-1.65114E+04-2.21039E+04-1.46110E-09 1.07011E-08
 -1       606 2.76120E+04-1.00811E+04-1.81355E+04 2.67850E+04-2.35377E-09-9.67248E-09
 -1       607 2.45071E+04-3.25975E+03-9.03044E+03 3.00704E+04-1.35333E-09-1.26620E-08
 -1       608 2.62674E+04-5.57314E+02-4.04406E+03 2.65733E+04 5.16593E-10-4.76894E-09
 -1       609 2.59176E+04-1.52452E+02-2.04249E+03 3.03061E+04-3.57704E-09-1.04501E-09
 -1       610 2.61038E+04 1.75656E+01-9.75661E+02 2.65496E+04-5.24960E-09 3.45517E-09
 -1       611 2.60383E+04 3.02419E+01-4.91969E+02 3.03318E+04-5.54110E-09 8.82892E-10
 -1       612 2.60597E+04 3.41017E+01-2.35248E+02 2.65472E+04-2.98951E-09-9.72250E-10
 -1       613 2.60352E+04 3.94953E+01-1.06755E+02 3.03349E+04-5.00222E-09-4.28986E-09
 -1       614 2.60353E+04 3.51945E+01-2.88384E+01 2.65464E+04-9.06766E-10 7.56881E-09
 -1       615 2.60224E+04 4.55149E+01 3.58912E+01 3.03353E+04 6.95582E-09-1.81149E-09
 -1       616 2.60167E+04 4.14748E+01 1.15718E+02 2.65467E+04 1.96223E-09-1.40026E-08
 -1       617 2.60295E+04 7.43933E+01 2.67388E+02 3.03348E+04 1.00476E-09-8.55175E-09
 -1       618 2.59884E+04 1.21795E+02 5.40079E+02 2.65468E+04-3.07818E-09-4.82441E-09
 -1       619 2.62161E+04 4.94662E+02 1.21363E+03 3.03340E+04-2.08854E-09 1.06652E-08
 -1       620 2.58064E+04 1.40501E+03 2.43952E+03 2.65457E+04 8.63906E-10 1.12323E-10
 -1       621 2.94681E+02 2.20500E+05 2.64906E+03 1.13281E+04-2.20439E-10-8.79845E-09
 -1       622 3.48600E+02 2.21152E+05 2.36782E+03 1.65074E+04-5.17275E-11-1.40835E-09
 -1       623 1.73064E+01 2.20668E+05 2.87847E+03 1.12743E+04-1.85310E-11 9.84460E-09
 -1       624 1.34714E+03 2.22062E+05 5.60173E+03 1.65615E+04 4.88285E-11 3.24644E-09
 -1       625 1.35429E+03 2.19575E+05 9.80228E+03 1.12739E+04 4.91127E-11-9.78571E-09
 -1       626 1.88402E+05 5.07900E+04 3.89041E+03 9.98789E+04-6.99401E-10 4.24916E-09
 -1       627 1.86014E+05 5.24766E+04 1.87476E+03 1.03825E+05-2.28192E-09 7.04927E-09
 -1       628 1.88532E+05 4.89668E+04 7.91908E+02 1.00485E+05 2.69029E-09 2.81170E-09
 -1       629 1.85470E+05 5.20150E+04 3.88023E+02 1.04058E+05 3.30283E-09 5.74494E-09
 -1       630 1.88539E+05 4.88812E+04 1.79322E+02 1.00502E+05-2.57387E-10-2.63549E-09
 -1       631 1.85405E+05 5.20034E+04 9.62138E+01 1.04059E+05-3.84853E-09 5.01494E-09
 -1       632 1.88530E+05 4.88882E+04 6.28483E+01 1.00494E+05-1.28471E-08-1.31345E-08
 -1       633 1.85391E+05 5.20088E+04 6.93468E+01 1.04051E+05-3.65230E-09 4.49336E-09
 -1       634 1.88519E+05 4.88892E+04 1.11402E+02 1.00490E+05-1.93995E-09 1.10595E-09
 -1       635 1.85396E+05 5.20102E+04 2.25299E+02 1.04051E+05-4.96357E-09 1.56747E-08
 -1       636 1.88508E+05 4.88880E+04 4.54760E+02 1.00487E+05-7.05251E-09 6.90989E-10
 -1       637 1.85489E+05 5.20823E+04 9.99387E+02 1.04047E+05-6.09816E-10-1.32059E-09
 -1       638 1.88470E+05 4.91103E+04 2.05370E+03 1.00384E+05-1.16688E-09-5.45333E-09
 -1       639 1.86566E+05 5.35834E+04 4.85848E+03 1.03727E+05-6.62556E-09-3.27236E-09
 -1       640 1.88326E+05 5.35834E+04 1.00824E+04 9.84876E+04-3.67027E-09 9.01446E-09
 -1       656 5.03263E+04-1.27645E+06-1.21486E+05-4.32890E+02-7.63976E-10 8.13441E-09
 -1       657-6.65198E+04-1.33129E+06-1.00509E+05 7.57280E+03 5.82077E-11 5.75159E-09
 -1       658 1.59787E+04-1.29208E+06-6.17290E+04-1.77123E+03 5.23869E-10 4.38896E-09
 -1       659-7.14645E+04-1.33364E+06-1.07004E+05 8.50370E+03-1.17143E-09-1.68343E-08
 -1       660 5.52595E+04-1.27412E+06-1.32655E+05-1.36377E+03-7.27596E-11-5.36117E-09
 -1       661 1.68144E+05 1.82269E+04 1.63602E+04 6.57439E+04 1.61390E-09-2.80124E-09
 -1       662 1.76804E+05 3.09217E+04 1.10243E+04 6.27431E+04-5.12728E-10-1.62527E-09
 -1       663 1.71353E+05 2.34788E+04 3.85628E+03 6.48158E+04-1.34889E-09 2.70779E-09
 -1       664 1.73089E+05 2.47757E+04 2.30579E+03 6.38730E+04-1.42961E-09 3.98998E-09
 -1       665 1.71836E+05 2.42003E+04 9.09567E+02 6.46791E+04-4.73301E-09-1.40838E-09
 -1       666 1.72522E+05 2.39472E+04 5.30763E+02 6.40491E+04-3.73736E-09 3.96195E-09
 -1       667 1.71917E+05 2.42856E+04 2.80199E+02 6.46478E+04 7.55165E-11 7.53735E-09
 -1       668 1.72434E+05 2.38815E+04 2.81583E+02 6.40945E+04 4.83641E-09-2.40090E-08
 -1       669 1.71923E+05 2.42641E+04 3.77985E+02 6.46343E+04-1.01045E-09-1.22867E-09
 -1       670 1.72527E+05 2.40832E+04 8.20067E+02 6.40954E+04 5.76620E-09 8.37781E-09
 -1       671 1.71824E+05 2.40879E+04 1.45507E+03 6.46452E+04-2.54093E-09-1.06609E-08
 -1       672 1.73375E+05 2.54987E+04 3.72196E+03 6.38906E+04-2.91763E-09-5.02973E-09
 -1       673 1.71080E+05 2.28842E+04 6.23710E+03 6.48255E+04-8.98808E-10-6.02427E-09
 -1       674 1.79313E+05 3.55173E+04 1.78367E+04 6.21446E+04 2.46075E-10-2.09388E-09
 -1       675 1.65924E+05 1.43494E+04 2.64755E+04 6.62856E+04 1.90266E-09 1.80444E-09
 -1       676 2.00445E+01-2.40629E+05-9.30889E+02 2.76094E+01-4.69527E-11-8.38866E-09
 -1       677-2.47161E+02-2.40854E+05-1.70364E+03-5.51874E+01-4.30737E-09-2.21409E-08
 -1       678 1.65026E+02-2.40468E+05-3.01160E+03 2.75590E+01-1.65994E-09-1.42670E-09
 -1       679-3.01237E+03-2.42671E+05-7.15412E+03-5.49940E+01-3.81908E-09-8.83204E-09
 -1       680 1.79781E+03-2.38811E+05-1.15300E+04 2.71024E+01-5.63432E-10 4.08861E-09
 -1       771-2.56521E+06-4.90844E+05-7.15227E+04-1.10885E+06-1.35988E-08-7.08678E-09
 -1       772-2.53630E+06-5.35127E+05-3.78628E+04-1.15891E+06-9.90258E-09 6.81757E-09
 -1       773-2.57682E+06-4.81700E+05-1.72976E+04-1.11302E+06-2.72121E-09 5.15138E-09
 -1       774-2.52748E+06-5.27435E+05-8.16028E+03-1.16625E+06 1.19035E-08-9.51331E-10
 -1       775-2.58095E+06-4.78812E+05-4.79882E+03-1.11391E+06 1.86265E-09-3.71074E-10
 -1       776-2.52875E+06-5.27391E+05-2.02538E+03-1.17100E+06 7.66158E-09 3.86353E-09
 -1       777-2.58421E+06-4.76406E+05-1.68687E+03-1.11464E+06 4.74392E-09 3.05590E-10
 -1       778-2.53051E+06-5.27507E+05-5.87233E+02-1.17501E+06 5.62068E-09 4.80031E-09
 -1       779-2.58691E+06-4.74356E+05-7.66593E+02-1.11529E+06-2.10275E-09-2.74304E-09
 -1       780-2.53211E+06-5.27569E+05-2.76422E+02-1.17825E+06-5.43150E-09-4.90309E-09
 -1       781-2.58899E+06-4.72728E+05-5.21389E+02-1.11579E+06-1.65310E-08-1.99725E-09
 -1       782-2.53339E+06-5.27606E+05-5.17492E+02-1.18063E+06-2.65645E-08-6.06724E-09
 -1       783-2.59039E+06-4.71631E+05-1.06317E+03-1.11613E+06-6.89397E-09-5.42468E-09
 -1       784-2.53475E+06-5.28221E+05-2.32579E+03-1.18205E+06-8.43647E-09-1.87356E-10
 -1       785-2.59069E+06-4.71384E+05-4.34046E+03-1.11600E+06-1.74387E-08 3.02134E-09
 -1       786 1.58189E+05-9.43738E+03 2.18335E+04-7.38559E+01 1.35411E-09-8.44011E-10
 -1       787 1.67652E+05 1.09256E+04 1.54466E+04 1.81541E+01 2.20182E-09 7.56336E-09
 -1       788 1.61839E+05-1.47939E+03 5.65049E+03-5.59745E+01 4.34692E-10 5.14160E-09
 -1       789 1.63400E+05 1.71167E+03 3.54944E+03-1.12112E+01 1.40733E-10-5.80297E-09
 -1       790 1.62442E+05-2.31011E+02 1.44242E+03-4.44930E+01-4.83585E-10 4.67088E-09
 -1       791 1.62696E+05 2.67878E+02 8.43341E+02-3.20541E+01-9.72115E-10 4.99166E-09
 -1       792 1.62543E+05-3.66794E+01 3.77897E+02-3.51316E+01-6.11005E-10-8.06111E-09
 -1       793 1.62580E+05 4.81269E+01 2.33374E+02-5.13204E+01-7.76062E-10-8.72900E-09
 -1       794 1.62558E+05-1.14025E+01 1.51072E+02-2.52265E+01 7.98839E-10-1.23671E-09
 -1       795 1.62579E+05 5.05310E+01 1.87018E+02-7.43299E+01-7.94829E-10 3.63103E-09
 -1       796 1.62544E+05-3.90786E+01 2.61078E+02-1.21217E+01 2.37288E-10 3.97657E-09
 -1       797 1.62693E+05 2.84585E+02 5.99838E+02-1.07223E+02 4.38798E-11-2.09675E-09
 -1       798 1.62444E+05-2.45286E+02 9.41715E+02 7.66746E+00-1.83100E-10-1.16961E-09
 -1       799 1.63398E+05 1.81086E+03 2.56281E+03-1.58875E+02-9.88796E-11 1.28090E-08
 -1       800 1.61839E+05-1.56413E+03 3.61872E+03 3.95308E+01-1.51622E-10 1.20344E-08
 -1       801 5.10397E+04-1.86722E+06-1.68891E+05 3.41852E+04 1.47702E-08-4.70163E-09
 -1       802-5.68578E+04-1.70303E+06-6.56753E+04-6.17405E+04 4.06017E-08-3.32113E-09
 -1       803 5.15660E+03-1.77954E+06-9.75398E+03 8.71677E+04 3.17450E-08 2.47023E-08
 -1       804 5.22280E+04-1.64919E+06 7.79791E+04-4.18781E+04 3.44226E-08 2.95542E-08
 -1       805-5.87659E+04-1.92044E+06 7.71058E+04 1.43149E+04 1.29439E-08 2.23506E-08
 -1       806-2.29153E+05-4.60555E+04-1.80747E+04-9.23161E+04-1.86128E-09-2.78715E-09
 -1       807-2.30492E+05-4.31900E+04-8.87982E+03-9.67909E+04 1.84082E-09 1.32900E-10
 -1       808-2.29649E+05-3.95417E+04-3.76692E+03-9.53981E+04-7.35508E-09-6.90886E-09
 -1       809-2.28615E+05-4.07062E+04-1.84175E+03-9.70241E+04-5.89284E-09-4.85056E-09
 -1       810-2.29726E+05-3.93134E+04-8.43619E+02-9.55344E+04 6.89852E-10 1.41313E-08
 -1       811-2.28470E+05-4.06070E+04-4.18863E+02-9.69992E+04 2.74758E-09 1.13579E-08
 -1       812-2.29739E+05-3.93316E+04-2.10143E+02-9.55342E+04-2.70484E-09-8.25321E-09
 -1       813-2.28451E+05-4.06090E+04-1.34162E+02-9.69864E+04 2.54295E-09 1.03046E-09
 -1       814-2.29736E+05-3.93384E+04-1.28691E+02-9.55313E+04-7.19865E-10-1.18687E-08
 -1       815-2.28454E+05-4.06109E+04-2.03929E+02-9.69824E+04-6.49607E-10-6.92853E-09
 -1       816-2.29722E+05-3.93370E+04-3.83907E+02-9.55288E+04-2.91038E-11 7.07951E-09
 -1       817-2.28520E+05-4.06475E+04-8.23499E+02-9.69753E+04 1.97633E-09 9.34006E-09
 -1       818-2.29674E+05-3.94524E+04-1.67881E+03-9.54741E+04 4.15093E-09 2.64572E-09
 -1       819-2.29442E+05-4.16593E+04-3.95084E+03-9.67562E+04-4.36557E-10-1.42127E-08
 -1       820-2.29359E+05-4.24350E+04-8.04088E+03-9.41966E+04 2.08729E-09-5.99277E-09
 -1       821-2.88499E+05 1.59586E+04-3.69069E+04 2.43371E+02 8.33436E-10-2.91766E-09
 -1       822-3.04490E+05-1.84748E+04-2.61167E+04-9.25098E+02-1.80908E-09 3.73393E-09
 -1       823-2.94669E+05 2.50223E+03-9.55872E+03 2.46928E+02-2.00556E-10 4.73119E-09
 -1       824-2.97287E+05-2.89590E+03-6.01342E+03-7.61302E+02 5.24732E-10 4.66525E-09
 -1       825-2.95699E+05 3.91429E+02-2.47368E+03 7.95727E+01-1.75300E-09-5.29496E-09
 -1       826-2.96084E+05-4.61344E+02-1.48913E+03-3.29706E+02-3.31577E-09-4.77490E-09
 -1       827-2.95871E+05 6.90402E+01-7.76099E+02-1.84675E+02-3.55602E-09-3.21128E-09
 -1       828-2.95924E+05-1.40808E+02-6.81691E+02 1.81642E+02-5.65211E-09-7.67622E-09
 -1       829-2.95859E+05 7.11906E+01-7.89848E+02-4.31785E+02 8.02842E-11-7.78667E-09
 -1       830-2.96119E+05-4.76663E+02-1.54009E+03 5.51869E+02 2.19172E-09 1.90070E-09
 -1       831-2.95676E+05 4.05110E+02-2.55307E+03-5.54910E+02-2.91036E-09 3.39446E-09
 -1       832-2.97350E+05-2.99453E+03-6.22158E+03 6.21485E+02-1.38837E-09-1.30046E-09
 -1       833-2.94630E+05 2.58736E+03-9.88797E+03-5.01400E+02-1.93113E-09-6.73845E-09
 -1       834-3.04768E+05-1.91084E+04-2.70116E+04 3.60913E+02-7.28889E-10 1.14051E-09
 -1       835-2.88260E+05 1.65062E+04-3.81812E+04-2.94326E+02 4.96623E-09 5.21322E-09
 -1       836-9.70341E+02 2.71738E+05 1.64421E+04-1.99625E+04 7.00311E-10-2.82944E-09
 -1       837 3.60079E+03 2.76840E+05 1.40548E+04-4.01102E+04 1.46429E-09-1.04592E-09
 -1       838-3.63747E+02 2.73151E+05 1.45173E+04-1.98913E+04 1.23600E-09 1.30558E-09
 -1       839 9.31001E+03 2.81093E+05 2.76561E+04-4.01426E+04 2.01180E-09 6.42651E-09
 -1       840-2.81072E+03 2.67442E+05 4.41838E+04-1.99288E+04 1.08230E-09 2.14322E-09
 -1       856-7.99978E+04 7.44216E+03-1.96124E+04-4.30482E+02-2.63930E-09 2.79488E-09
 -1       857-8.80970E+04-8.72958E+03-1.35024E+04 4.57837E+03-3.22078E-09 1.12504E-09
 -1       858-8.31983E+04 1.04278E+03-5.08984E+03-4.51921E+02-2.41465E-09-2.73189E-09
 -1       859-8.44221E+04-1.21305E+03-3.07363E+03 4.61241E+03-3.98529E-10 4.87216E-09
 -1       860-8.36767E+04 1.45054E+02-1.29171E+03-4.64630E+02 1.37024E-09 5.94810E-09
 -1       861-8.38712E+04-1.60544E+02-7.18060E+02 4.62982E+03-4.40852E-09 9.81956E-10
 -1       862-8.37512E+04 1.91623E+01-3.13472E+02-4.69355E+02 3.02956E-09-2.91730E-09
 -1       863-8.37826E+04-1.11378E+01-1.48204E+02 4.63201E+03 8.31631E-09-1.32961E-08
 -1       864-8.37656E+04-1.04788E+00-3.27829E+01-4.66824E+02 4.37669E-09-6.52194E-09
 -1       865-8.37520E+04 3.01949E+01 6.63118E+01 4.61914E+03 9.14184E-10-5.36873E-09
 -1       866-8.37800E+04-2.26081E+01 1.72896E+02-4.56483E+02-2.35616E-10-7.03764E-10
 -1       867-8.36599E+04 1.88765E+02 4.50946E+02 4.59104E+03 4.16310E-09-3.22222E-09
 -1       868-8.38542E+04-1.57985E+02 7.55242E+02-4.38724E+02-3.33353E-09-5.44492E-09
 -1       869-8.30982E+04 1.31209E+03 2.02058E+03 4.54456E+03-4.55441E-09-1.36288E-09
 -1       870-8.43365E+04-1.11722E+03 2.93073E+03-4.10011E+02 1.15335E-09-3.05101E-09
 -1       871-4.29434E+03-9.74479E+03-1.40197E+04 9.25434E+04 2.48474E-09-4.92491E-09
 -1       872-1.84212E+03-1.28965E+04-5.73606E+03 1.19980E+05 2.47405E-09 3.52634E-09
 -1       873-1.82173E+01-1.14237E+04 7.61851E+02 9.23404E+04 1.25669E-09-4.23802E-09
 -1       874 2.15673E+03-9.42075E+03 7.82454E+03 1.20019E+05 4.02815E-09 9.26548E-09
 -1       875 5.05531E+03-1.32796E+04 1.73884E+04 9.25107E+04 2.17824E-09 3.42015E-09
 -1       876 2.26392E+05 3.88818E+04 1.20085E+04 9.17048E+04-1.07417E-09 8.58563E-10
 -1       877 2.27098E+05 4.14987E+04 6.41289E+03 9.52350E+04-7.38601E-09 1.53068E-09
 -1       878 2.27514E+05 3.75530E+04 2.68669E+03 9.26910E+04 1.03387E-09 1.96292E-09
 -1       879 2.25464E+05 3.98714E+04 1.33845E+03 9.53191E+04 1.27613E-09 8.59569E-09
 -1       880 2.27595E+05 3.75385E+04 6.23190E+02 9.27312E+04 9.79981E-11 2.91072E-09
 -1       881 2.25356E+05 3.98021E+04 3.32125E+02 9.53016E+04 1.26181E-09-5.95631E-09
 -1       882 2.27603E+05 3.75486E+04 2.11324E+02 9.27324E+04 9.21091E-10 1.21886E-08
 -1       883 2.25348E+05 3.97988E+04 2.25326E+02 9.52965E+04-2.12435E-09 1.82501E-08
 -1       884 2.27598E+05 3.75461E+04 3.56753E+02 9.27325E+04-2.64811E-09-1.02716E-10
 -1       885 2.25376E+05 3.98039E+04 7.16218E+02 9.53054E+04-1.18638E-09 4.81953E-09
 -1       886 2.27571E+05 3.75252E+04 1.44301E+03 9.27297E+04-7.93278E-10 1.86674E-09
 -1       887 2.25630E+05 3.99701E+04 3.15189E+03 9.53420E+04-4.35776E-09-1.54664E-08
 -1       888 2.27372E+05 3.75602E+04 6.35110E+03 9.26288E+04 1.76519E-09 5.62386E-09
 -1       889 2.29414E+05 4.38997E+04 1.51721E+04 9.52227E+04 9.01949E-10-7.27596E-10
 -1       890 2.24784E+05 4.06340E+04 2.84164E+04 9.02058E+04 1.82422E-09 9.36780E-10
 -1       891-1.35652E+02-1.28079E+05-1.52401E+03 2.38256E+04 1.09708E-09 3.31249E-09
 -1       892-2.37327E+02-1.28446E+05-1.65326E+03 3.60627E+04-1.03910E-09 1.12495E-08
 -1       893-3.48367E+01-1.28126E+05-2.35791E+03 2.38305E+04-1.00385E-09 5.15092E-09
 -1       894-1.28051E+03-1.29346E+05-4.89230E+03 3.59337E+04 1.63027E-09-7.71661E-09
 -1       895-1.00297E+03-1.27107E+05-8.62024E+03 2.39530E+04 1.12351E-09 4.85670E-10
 -1       956-2.85773E+05-4.06902E+03-1.02326E+04 1.92785E+04-3.61160E-09-2.97518E-09
 -1       957-2.87793E+05-1.37554E+03-5.25291E+03 2.32165E+04-1.63027E-09-8.00355E-09
 -1       958-2.86682E+05-1.12608E+02-2.36664E+03 1.91573E+04 3.42880E-09-2.26487E-09
 -1       959-2.86843E+05-2.21881E+01-1.20881E+03 2.33486E+04-3.20370E-10-3.76531E-10
 -1       960-2.86764E+05 3.15357E+01-5.89309E+02 1.91456E+04-3.12230E-09 8.76639E-09
 -1       961-2.86775E+05 2.93766E+01-3.12608E+02 2.33620E+04-4.33488E-09 2.67705E-08
 -1       962-2.86781E+05 2.78495E+01-1.78862E+02 1.91437E+04-2.29511E-09 5.95878E-09
 -1       963-2.86772E+05 3.09401E+01-1.43425E+02 2.33644E+04-6.54063E-09 9.26707E-09
 -1       964-2.86785E+05 2.99859E+01-1.73951E+02 1.91431E+04-3.19028E-09-6.71889E-10
 -1       965-2.86783E+05 3.39927E+01-3.00455E+02 2.33644E+04 3.10891E-10 9.93282E-09
 -1       966-2.86776E+05 3.78646E+01-5.63964E+02 1.91438E+04-5.11363E-09-5.65956E-09
 -1       967-2.86856E+05-1.08415E+01-1.15666E+03 2.33566E+04-1.05686E-08-4.29304E-09
 -1       968-2.86704E+05-9.58051E+01-2.26361E+03 1.91510E+04-5.51017E-09 1.41318E-09
 -1       969-2.87773E+05-1.30184E+03-5.02585E+03 2.32723E+04 4.25644E-10 2.59450E-09
 -1       970-2.85839E+05-3.87856E+03-9.78942E+03 1.92300E+04 9.67248E-10 3.50519E-09
 -1       971-2.69485E+05-1.40871E+03-7.81605E+03 1.29207E+04-2.87082E-09-6.99126E-09
 -1       972-2.71384E+05-1.01107E+03-4.25657E+03 1.80375E+04-5.78439E-10 5.44242E-09
 -1       973-2.70354E+05-1.15876E+01-1.90608E+03 1.28130E+04 6.15728E-09-1.73304E-09
 -1       974-2.70486E+05-1.20034E+01-9.87495E+02 1.81542E+04 1.01279E-08-4.49643E-09
 -1       975-2.70422E+05 2.52139E+01-4.92644E+02 1.28031E+04 2.77305E-09 7.19979E-10
 -1       976-2.70433E+05 2.91170E+01-2.82476E+02 1.81663E+04 1.40426E-09-3.15640E-09
 -1       977-2.70435E+05 2.51586E+01-2.01896E+02 1.28008E+04 8.11065E-09-1.59332E-09
 -1       978-2.70436E+05 3.37962E+01-2.32011E+02 1.81696E+04 9.61154E-09-1.86172E-08
 -1       979-2.70435E+05 3.15018E+01-3.69111E+02 1.27998E+04 3.13423E-09-5.80553E-09
 -1       980-2.70463E+05 3.60999E+01-7.10415E+02 1.81702E+04 4.81594E-09 8.55016E-09
 -1       981-2.70412E+05 4.91951E+01-1.37471E+03 1.28002E+04-8.26731E-10-1.51192E-09
 -1       982-2.70652E+05-6.53971E+01-2.84081E+03 1.81647E+04-6.87669E-09 2.07235E-09
 -1       983-2.70240E+05-3.87168E+01-5.51935E+03 1.28055E+04-3.33375E-09-3.24189E-09
 -1       984-2.73306E+05-2.94776E+03-1.23598E+04 1.80916E+04-1.41335E-08 6.12647E-09
 -1       985-2.67741E+05-4.07740E+03-2.26966E+04 1.28778E+04-7.42921E-09 1.11395E-08
 -3
    1PSTEP                        13           7           1          
  100CL  107 5.74219E-01         409                     0    7           1
 -4  DISP        4    1
 -5  D1          1    2    1    0
 -5  D2          1    2    2    0
 -5  D3          1    2    3    0
 -5  ALL         1    2    0    0    1ALL
 -1         1 5.32965E-04 0.00000E+00 0.00000E+00
 -1         2 4.92095E-04 5.88446E-30 1.32349E-23
 -1         3 2.15177E-04 1.57148E-27 1.32349E-23
 -1         5 1.29516E-04 3.46582E-26-3.30872E-24
 -1         8 5.10130E-04-7.45289E-07 0.00000E+00
 -1         9 4.92264E-04-1.89145E-06 0.00000E+00
 -1        10 1.96694E-04-2.81370E-06 6.61744E-24
 -1        12 1.29686E-04 6.38310E-07 0.00000E+00
 -1        15 4.82837E-04-8.26201E-07 0.00000E+00
 -1        16 4.89072E-04-2.33002E-06 0.00000E+00
 -1        17 1.38812E-04-6.08418E-06 0.00000E+00
 -1        18 1.28908E-04 1.10239E-05 0.00000E+00
 -1        19 1.30196E-04 1.27963E-06 0.00000E+00
 -1        20 1.30343E-04 8.45205E-06 0.00000E+00
 -1        21 1.29675E-04 1.36306E-05 0.00000E+00
 -1        24 2.47557E-05-8.58373E-06 0.00000E+00
 -1        25 1.31281E-04 1.11786E-05 0.00000E+00
 -1        26 1.32002E-04 1.77027E-06 0.00000E+00
 -1        27 1.30249E-04 5.55140E-06 0.00000E+00
 -1        28 1.29823E-04 1.30964E-05 0.00000E+00
 -1        32 0.00000E+00 0.00000E+00 0.00000E+00
 -1        33 1.32706E-04 2.37045E-06 0.00000E+00
 -1        34 1.30965E-04 5.52129E-06 0.00000E+00
 -1        35 1.29341E-04 1.28099E-05 0.00000E+00
 -1        51 5.31485E-04-1.27994E-07 0.00000E+00
 -1        52 5.28738E-04-2.47128E-07 0.00000E+00
 -1        53 5.24971E-04-3.66401E-07 0.00000E+00
 -1        54 5.20441E-04-4.87662E-07 0.00000E+00
 -1        55 5.15408E-04-6.12032E-07 1.24077E-24
 -1        56 5.30739E-04-7.27193E-07 0.00000E+00
 -1        57 5.28357E-04-1.28336E-06 0.00000E+00
 -1        58 5.25900E-04-1.62492E-06 5.29396E-23
 -1        59 5.23349E-04-1.75840E-06 0.00000E+00
 -1        60 5.20726E-04-1.70102E-06 0.00000E+00
 -1        61 5.18040E-04-1.48591E-06-2.64698E-23
 -1        62 5.15313E-04-1.16199E-06 0.00000E+00
 -1        63 5.12566E-04-7.84821E-07-2.64698E-23
 -1        64 5.09821E-04-4.15328E-07 5.29396E-23
 -1        65 5.07103E-04-1.14029E-07 2.64698E-23
 -1        66 5.04431E-04 6.57327E-08 0.00000E+00
 -1        67 5.01824E-04 7.77305E-08 0.00000E+00
 -1        68 4.99291E-04-1.07457E-07-5.29396E-23
 -1        69 4.96851E-04-5.03938E-07 0.00000E+00
 -1        70 4.94487E-04-1.11290E-06 0.00000E+00
 -1        86 4.92101E-04-3.11628E-07 0.00000E+00
 -1        87 4.92119E-04-6.23657E-07 0.00000E+00
 -1        88 4.92147E-04-9.35748E-07 1.32349E-23
 -1        89 4.92182E-04-1.25038E-06 0.00000E+00
 -1        90 4.92222E-04-1.56415E-06-1.32349E-23
 -1       121 2.14659E-04-4.62893E-07 0.00000E+00
 -1       122 2.13106E-04-9.26824E-07 6.61744E-24
 -1       123 2.10523E-04-1.39281E-06 1.32349E-23
 -1       124 2.06919E-04-1.86193E-06 6.61744E-24
 -1       125 2.02304E-04-2.33501E-06-1.32349E-23
 -1       191 1.29521E-04 1.06381E-07 3.30872E-24
 -1       192 1.29535E-04 2.12760E-07-1.65436E-24
 -1       193 1.29559E-04 3.19141E-07 3.30872E-24
 -1       194 1.29592E-04 4.25524E-07 0.00000E+00
 -1       195 1.29634E-04 5.31908E-07 0.00000E+00
 -1       251 5.09524E-04-5.40232E-06 0.00000E+00
 -1       252 5.08666E-04-2.83084E-05 0.00000E+00
 -1       253 5.07432E-04-6.48477E-05-1.32349E-23
 -1       254 5.05854E-04-1.10069E-04-6.61744E-24
 -1       255 5.04222E-04-1.56561E-04-1.32349E-23
 -1       256 5.02848E-04-1.96886E-04 0.00000E+00
 -1       257 5.01852E-04-2.25354E-04-1.32349E-23
 -1       258 5.01185E-04-2.36568E-04 6.61744E-24
 -1       259 5.00557E-04-2.29951E-04 0.00000E+00
 -1       260 4.99659E-04-2.05375E-04 6.61744E-24
 -1       261 4.98383E-04-1.67721E-04 1.32349E-23
 -1       262 4.96791E-04-1.22191E-04 0.00000E+00
 -1       263 4.95181E-04-7.62233E-05 0.00000E+00
 -1       264 4.93857E-04-3.72648E-05 0.00000E+00
 -1       265 4.92912E-04-1.07696E-05 0.00000E+00
 -1       266 5.05581E-04-7.69423E-07 0.00000E+00
 -1       267 5.01032E-04-7.81611E-07-8.27181E-25
 -1       268 4.96483E-04-7.94554E-07 0.00000E+00
 -1       269 4.91934E-04-8.05257E-07 2.06795E-25
 -1       270 4.87386E-04-8.15907E-07 4.13590E-25
 -1       271 5.07399E-04 3.02218E-06 0.00000E+00
 -1       272 5.04892E-04 6.08794E-06 0.00000E+00
 -1       273 5.02643E-04 8.47417E-06 0.00000E+00
 -1       274 5.00638E-04 1.01960E-05-1.32349E-23
 -1       275 4.98872E-04 1.12838E-05 0.00000E+00
 -1       276 4.97330E-04 1.17750E-05 0.00000E+00
 -1       277 4.95993E-04 1.17171E-05 0.00000E+00
 -1       278 4.94842E-04 1.11655E-05 1.32349E-23
 -1       279 4.93852E-04 1.01833E-05 2.64698E-23
 -1       280 4.92997E-04 8.84037E-06 1.32349E-23
 -1       281 4.92248E-04 7.21192E-06 0.00000E+00
 -1       282 4.91578E-04 5.37764E-06-1.32349E-23
 -1       283 4.90954E-04 3.42031E-06 0.00000E+00
 -1       284 4.90347E-04 1.42585E-06 0.00000E+00
 -1       285 4.89723E-04-5.22082E-07 2.64698E-23
 -1       301 4.91696E-04-1.98181E-06 6.61744E-24
 -1       302 4.90761E-04-2.04704E-06 3.30872E-24
 -1       303 4.89744E-04-2.11073E-06 6.61744E-24
 -1       304 4.88931E-04-2.17430E-06 0.00000E+00
 -1       305 4.88613E-04-2.23943E-06-1.32349E-23
 -1       306 5.06593E-04-5.28590E-05 0.00000E+00
 -1       307 5.47376E-04-2.00951E-04 0.00000E+00
 -1       308 6.02402E-04-4.21673E-04 5.29396E-23
 -1       309 6.63015E-04-6.83298E-04 0.00000E+00
 -1       310 7.23427E-04-9.43370E-04-5.29396E-23
 -1       311 7.77714E-04-1.15958E-03 2.64698E-23
 -1       312 8.16950E-04-1.30107E-03 0.00000E+00
 -1       313 8.28742E-04-1.34446E-03-5.29396E-23
 -1       314 8.02501E-04-1.28870E-03 0.00000E+00
 -1       315 7.31157E-04-1.14183E-03-2.64698E-23
 -1       316 6.21257E-04-9.29669E-04 0.00000E+00
 -1       317 4.86901E-04-6.81218E-04-2.64698E-23
 -1       318 3.51971E-04-4.31936E-04 5.29396E-23
 -1       319 2.40490E-04-2.17283E-04-2.64698E-23
 -1       320 1.67061E-04-6.65821E-05 0.00000E+00
 -1       336 1.89974E-04-3.33555E-06 0.00000E+00
 -1       337 1.82039E-04-3.86657E-06 6.61744E-24
 -1       338 1.72916E-04-4.40707E-06-1.32349E-23
 -1       339 1.62643E-04-4.95713E-06 0.00000E+00
 -1       340 1.51260E-04-5.51882E-06 0.00000E+00
 -1       406 1.29746E-04 7.45703E-07-3.30872E-24
 -1       407 1.29817E-04 8.53084E-07 0.00000E+00
 -1       408 1.29897E-04 9.60407E-07 3.30872E-24
 -1       409 1.29987E-04 1.06754E-06-1.65436E-24
 -1       410 1.30087E-04 1.17427E-06 0.00000E+00
 -1       521 5.05406E-04-6.23683E-05 1.05879E-22
 -1       522 5.50286E-04-2.33576E-04 0.00000E+00
 -1       523 6.09418E-04-4.88280E-04 0.00000E+00
 -1       524 6.73346E-04-7.89394E-04 5.29396E-23
 -1       525 7.37054E-04-1.08820E-03 0.00000E+00
 -1       526 7.95288E-04-1.33620E-03-5.29396E-23
 -1       527 8.38070E-04-1.49760E-03-1.05879E-22
 -1       528 8.50725E-04-1.54640E-03-5.29396E-23
 -1       529 8.19309E-04-1.48114E-03-1.05879E-22
 -1       530 7.34635E-04-1.31252E-03 0.00000E+00
 -1       531 6.03494E-04-1.06984E-03 0.00000E+00
 -1       532 4.42730E-04-7.86442E-04 5.29396E-23
 -1       533 2.81043E-04-5.01810E-04 0.00000E+00
 -1       534 1.47364E-04-2.55429E-04 1.05879E-22
 -1       535 5.93580E-05-8.10363E-05-1.05879E-22
 -1       536 1.38476E-04 1.37104E-05 0.00000E+00
 -1       537 1.37801E-04 4.70948E-05 0.00000E+00
 -1       538 1.36827E-04 8.89179E-05-3.30872E-24
 -1       539 1.35720E-04 1.33983E-04 1.65436E-24
 -1       540 1.34729E-04 1.76189E-04 0.00000E+00
 -1       541 1.34063E-04 2.09450E-04 1.65436E-24
 -1       542 1.33716E-04 2.30109E-04 0.00000E+00
 -1       543 1.33564E-04 2.34582E-04 0.00000E+00
 -1       544 1.33364E-04 2.23466E-04 3.30872E-24
 -1       545 1.32898E-04 1.97453E-04 1.65436E-24
 -1       546 1.32132E-04 1.61127E-04 0.00000E+00
 -1       547 1.31153E-04 1.19130E-04-1.65436E-24
 -1       548 1.30194E-04 7.76646E-05-3.30872E-24
 -1       549 1.29484E-04 4.29302E-05 0.00000E+00
 -1       550 1.29075E-04 1.92861E-05 1.65436E-24
 -1       551 1.23330E-04-6.44085E-06-6.61744E-24
 -1       552 1.05355E-04-6.83157E-06 0.00000E+00
 -1       553 8.56938E-05-7.25079E-06-8.27181E-24
 -1       554 6.51625E-05-7.68826E-06-6.61744E-24
 -1       555 4.45789E-05-8.12941E-06 2.64698E-23
 -1       556 1.34416E-04 5.24914E-06 0.00000E+00
 -1       557 1.30948E-04 1.42171E-05 0.00000E+00
 -1       558 1.28314E-04 2.10190E-05 0.00000E+00
 -1       559 1.26425E-04 2.58709E-05 0.00000E+00
 -1       560 1.25196E-04 2.89884E-05 0.00000E+00
 -1       561 1.24541E-04 3.05885E-05 0.00000E+00
 -1       562 1.24376E-04 3.08892E-05 0.00000E+00
 -1       563 1.24616E-04 3.01083E-05 0.00000E+00
 -1       564 1.25180E-04 2.84645E-05 0.00000E+00
 -1       565 1.25984E-04 2.61764E-05 0.00000E+00
 -1       566 1.26946E-04 2.34630E-05-3.30872E-24
 -1       567 1.27986E-04 2.05434E-05 8.27181E-25
 -1       568 1.29020E-04 1.76367E-05-1.65436E-24
 -1       569 1.29969E-04 1.49617E-05 0.00000E+00
 -1       570 1.30749E-04 1.27374E-05 0.00000E+00
 -1       571 1.28986E-04 1.03998E-05 0.00000E+00
 -1       572 1.29066E-04 9.72829E-06 4.13590E-25
 -1       573 1.29147E-04 9.01948E-06 0.00000E+00
 -1       574 1.29227E-04 8.28403E-06 8.27181E-25
 -1       575 1.29308E-04 7.53261E-06 0.00000E+00
 -1       576 1.29388E-04 6.77593E-06 0.00000E+00
 -1       577 1.29469E-04 6.02473E-06 0.00000E+00
 -1       578 1.29550E-04 5.28976E-06 0.00000E+00
 -1       579 1.29631E-04 4.58174E-06 0.00000E+00
 -1       580 1.29711E-04 3.91142E-06 0.00000E+00
 -1       581 1.29792E-04 3.28954E-06 6.61744E-24
 -1       582 1.29873E-04 2.72683E-06-6.61744E-24
 -1       583 1.29954E-04 2.23399E-06 0.00000E+00
 -1       584 1.30035E-04 1.82165E-06 0.00000E+00
 -1       585 1.30115E-04 1.50031E-06 6.61744E-24
 -1       586 1.29249E-04 1.10515E-05 0.00000E+00
 -1       587 1.29564E-04 1.10784E-05-3.61892E-25
 -1       588 1.29889E-04 1.11050E-05 0.00000E+00
 -1       589 1.30260E-04 1.11310E-05 0.00000E+00
 -1       590 1.30713E-04 1.11563E-05 0.00000E+00
 -1       591 1.29101E-04 1.04542E-05-2.06795E-25
 -1       592 1.29301E-04 9.85840E-06 0.00000E+00
 -1       593 1.29509E-04 9.24265E-06 0.00000E+00
 -1       594 1.29721E-04 8.61204E-06 0.00000E+00
 -1       595 1.29937E-04 7.97180E-06-8.27181E-25
 -1       596 1.30154E-04 7.32709E-06 4.13590E-25
 -1       597 1.30372E-04 6.68307E-06 0.00000E+00
 -1       598 1.30587E-04 6.04491E-06-2.06795E-25
 -1       599 1.30798E-04 5.41775E-06 0.00000E+00
 -1       600 1.31003E-04 4.80676E-06 0.00000E+00
 -1       601 1.31200E-04 4.21709E-06 8.27181E-25
 -1       602 1.31387E-04 3.65390E-06 0.00000E+00
 -1       603 1.31562E-04 3.12235E-06-2.06795E-25
 -1       604 1.31724E-04 2.62768E-06-5.16988E-26
 -1       605 1.31870E-04 2.17499E-06 0.00000E+00
 -1       606 1.30209E-04 1.23744E-06 0.00000E+00
 -1       607 1.30219E-04 1.28946E-06 0.00000E+00
 -1       608 1.30229E-04 1.43017E-06 0.00000E+00
 -1       609 1.30238E-04 1.65332E-06 0.00000E+00
 -1       610 1.30247E-04 1.95265E-06 0.00000E+00
 -1       611 1.30256E-04 2.32179E-06 0.00000E+00
 -1       612 1.30265E-04 2.75439E-06 0.00000E+00
 -1       613 1.30274E-04 3.24407E-06 0.00000E+00
 -1       614 1.30283E-04 3.78446E-06 0.00000E+00
 -1       615 1.30292E-04 4.36919E-06-8.27181E-25
 -1       616 1.30300E-04 4.99190E-06 0.00000E+00
 -1       617 1.30309E-04 5.64621E-06 0.00000E+00
 -1       618 1.30318E-04 6.32575E-06 0.00000E+00
 -1       619 1.30326E-04 7.02415E-06 0.00000E+00
 -1       620 1.30335E-04 7.73504E-06 0.00000E+00
 -1       621 1.30367E-04 1.36162E-06 3.30872E-24
 -1       622 1.30609E-04 1.44386E-06-8.27181E-25
 -1       623 1.30908E-04 1.52607E-06 0.00000E+00
 -1       624 1.31250E-04 1.60811E-06 8.27181E-25
 -1       625 1.31619E-04 1.69000E-06 0.00000E+00
 -1       626 1.30304E-04 1.26613E-06 3.30872E-24
 -1       627 1.30384E-04 1.32805E-06 0.00000E+00
 -1       628 1.30439E-04 1.45763E-06 3.30872E-24
 -1       629 1.30472E-04 1.64666E-06-1.65436E-24
 -1       630 1.30485E-04 1.88694E-06 0.00000E+00
 -1       631 1.30483E-04 2.17021E-06-1.65436E-24
 -1       632 1.30468E-04 2.48821E-06-3.30872E-24
 -1       633 1.30442E-04 2.83269E-06-1.65436E-24
 -1       634 1.30410E-04 3.19541E-06 0.00000E+00
 -1       635 1.30374E-04 3.56809E-06 0.00000E+00
 -1       636 1.30337E-04 3.94251E-06-3.30872E-24
 -1       637 1.30303E-04 4.31040E-06 8.27181E-25
 -1       638 1.30274E-04 4.66351E-06-3.30872E-24
 -1       639 1.30254E-04 4.99357E-06 8.27181E-25
 -1       640 1.30245E-04 5.29232E-06 0.00000E+00
 -1       656 1.29847E-04 7.98019E-06 0.00000E+00
 -1       657 1.29738E-04 7.48942E-06-6.61744E-24
 -1       658 1.29879E-04 7.00008E-06 0.00000E+00
 -1       659 1.30123E-04 6.51112E-06-6.61744E-24
 -1       660 1.30303E-04 6.02064E-06 0.00000E+00
 -1       661 1.30160E-04 9.13544E-06 0.00000E+00
 -1       662 1.30006E-04 9.75023E-06 0.00000E+00
 -1       663 1.29877E-04 1.02994E-05-1.65436E-24
 -1       664 1.29771E-04 1.07871E-05-8.27181E-25
 -1       665 1.29687E-04 1.12170E-05 1.65436E-24
 -1       666 1.29623E-04 1.15929E-05-8.27181E-25
 -1       667 1.29578E-04 1.19181E-05 1.65436E-24
 -1       668 1.29551E-04 1.21962E-05 8.27181E-25
 -1       669 1.29541E-04 1.24304E-05-1.65436E-24
 -1       670 1.29545E-04 1.26240E-05 0.00000E+00
 -1       671 1.29564E-04 1.27800E-05-1.65436E-24
 -1       672 1.29596E-04 1.29014E-05 0.00000E+00
 -1       673 1.29639E-04 1.29911E-05 0.00000E+00
 -1       674 1.29692E-04 1.30518E-05-8.27181E-25
 -1       675 1.29756E-04 1.30866E-05 0.00000E+00
 -1       676 1.29700E-04 1.35410E-05-3.30872E-24
 -1       677 1.29724E-04 1.34515E-05 1.65436E-24
 -1       678 1.29749E-04 1.33621E-05 3.30872E-24
 -1       679 1.29774E-04 1.32729E-05-1.65436E-24
 -1       680 1.29799E-04 1.31837E-05-1.65436E-24
 -1       771 1.72958E-05 7.44550E-06 5.29396E-23
 -1       772 1.09474E-05 2.05988E-05 0.00000E+00
 -1       773 5.65838E-06 3.10236E-05-5.29396E-23
 -1       774 1.35788E-06 3.88822E-05 0.00000E+00
 -1       775-2.02417E-06 4.43423E-05 0.00000E+00
 -1       776-4.56064E-06 4.75795E-05 0.00000E+00
 -1       777-6.32487E-06 4.87749E-05 0.00000E+00
 -1       778-7.39184E-06 4.81160E-05-2.64698E-23
 -1       779-7.83672E-06 4.57947E-05 0.00000E+00
 -1       780-7.73603E-06 4.20084E-05 0.00000E+00
 -1       781-7.16624E-06 3.69579E-05 0.00000E+00
 -1       782-6.20490E-06 3.08481E-05 0.00000E+00
 -1       783-4.92942E-06 2.38864E-05 0.00000E+00
 -1       784-3.41800E-06 1.62831E-05-2.64698E-23
 -1       785-1.74862E-06 8.24997E-06 0.00000E+00
 -1       786 1.31322E-04 1.03852E-05-1.03398E-25
 -1       787 1.31367E-04 9.63709E-06 4.13590E-25
 -1       788 1.31412E-04 8.92684E-06 0.00000E+00
 -1       789 1.31457E-04 8.24692E-06 8.27181E-25
 -1       790 1.31502E-04 7.59299E-06 1.65436E-24
 -1       791 1.31547E-04 6.96073E-06-8.27181E-25
 -1       792 1.31593E-04 6.34812E-06-1.65436E-24
 -1       793 1.31638E-04 5.75317E-06 0.00000E+00
 -1       794 1.31684E-04 5.17569E-06 1.65436E-24
 -1       795 1.31729E-04 4.61557E-06 0.00000E+00
 -1       796 1.31775E-04 4.07449E-06-1.65436E-24
 -1       797 1.31820E-04 3.55415E-06-8.27181E-25
 -1       798 1.31866E-04 3.05844E-06 0.00000E+00
 -1       799 1.31911E-04 2.59128E-06 8.27181E-25
 -1       800 1.31957E-04 2.15957E-06 1.65436E-24
 -1       801 1.13720E-04 9.70345E-06-2.64698E-23
 -1       802 5.97286E-05 6.93451E-06-1.32349E-23
 -1       803 6.03706E-06 4.18052E-06 0.00000E+00
 -1       804-1.06155E-05 2.66539E-06 0.00000E+00
 -1       805-6.71310E-06 1.34061E-06 0.00000E+00
 -1       806 1.31485E-04 1.03314E-05 0.00000E+00
 -1       807 1.31676E-04 9.51073E-06 0.00000E+00
 -1       808 1.31855E-04 8.72016E-06-1.65436E-24
 -1       809 1.32021E-04 7.96242E-06 8.27181E-25
 -1       810 1.32174E-04 7.24016E-06 0.00000E+00
 -1       811 1.32313E-04 6.55596E-06 8.27181E-25
 -1       812 1.32436E-04 5.91241E-06 0.00000E+00
 -1       813 1.32543E-04 5.31207E-06-8.27181E-25
 -1       814 1.32633E-04 4.75749E-06 0.00000E+00
 -1       815 1.32705E-04 4.25122E-06 0.00000E+00
 -1       816 1.32758E-04 3.79582E-06 3.30872E-24
 -1       817 1.32791E-04 3.39382E-06 1.65436E-24
 -1       818 1.32803E-04 3.04776E-06 1.65436E-24
 -1       819 1.32793E-04 2.76018E-06 0.00000E+00
 -1       820 1.32761E-04 2.53358E-06 1.65436E-24
 -1       821 1.31899E-04 1.33973E-06 8.27181E-25
 -1       822 1.31789E-04 7.85943E-07 0.00000E+00
 -1       823 1.31679E-04 2.02434E-07 0.00000E+00
 -1       824 1.31569E-04-3.17098E-07-1.65436E-24
 -1       825 1.31458E-04-6.93500E-07 0.00000E+00
 -1       826 1.31348E-04-8.48311E-07 0.00000E+00
 -1       827 1.31237E-04-7.53196E-07 0.00000E+00
 -1       828 1.31126E-04-3.81055E-07 0.00000E+00
 -1       829 1.31015E-04 2.32552E-07 0.00000E+00
 -1       830 1.30904E-04 1.05087E-06 0.00000E+00
 -1       831 1.30793E-04 1.99086E-06-3.30872E-24
 -1       832 1.30682E-04 2.96887E-06 0.00000E+00
 -1       833 1.30571E-04 3.89261E-06-3.30872E-24
 -1       834 1.30461E-04 4.67012E-06 0.00000E+00
 -1       835 1.30352E-04 5.24238E-06 0.00000E+00
 -1       836 1.32288E-04 1.87012E-06 0.00000E+00
 -1       837 1.32466E-04 1.97226E-06-1.65436E-24
 -1       838 1.32565E-04 2.07424E-06 0.00000E+00
 -1       839 1.32618E-04 2.17558E-06-8.27181E-25
 -1       840 1.32655E-04 2.27675E-06 4.13590E-25
 -1       856 1.30226E-04 5.79147E-06-4.13590E-25
 -1       857 1.30199E-04 6.14924E-06 1.03398E-25
 -1       858 1.30173E-04 6.60627E-06 0.00000E+00
 -1       859 1.30147E-04 7.14405E-06 0.00000E+00
 -1       860 1.30120E-04 7.74396E-06 0.00000E+00
 -1       861 1.30093E-04 8.38733E-06 0.00000E+00
 -1       862 1.30066E-04 9.05545E-06 0.00000E+00
 -1       863 1.30039E-04 9.72957E-06 4.13590E-25
 -1       864 1.30012E-04 1.03909E-05 0.00000E+00
 -1       865 1.29985E-04 1.10208E-05-4.13590E-25
 -1       866 1.29959E-04 1.16006E-05 0.00000E+00
 -1       867 1.29932E-04 1.21114E-05 0.00000E+00
 -1       868 1.29905E-04 1.25349E-05 0.00000E+00
 -1       869 1.29878E-04 1.28525E-05-4.13590E-25
 -1       870 1.29851E-04 1.30457E-05-8.27181E-25
 -1       871 1.30244E-04 5.54984E-06 8.27181E-25
 -1       872 1.30360E-04 5.54570E-06 0.00000E+00
 -1       873 1.30545E-04 5.54108E-06 0.00000E+00
 -1       874 1.30743E-04 5.53586E-06 2.06795E-25
 -1       875 1.30901E-04 5.53011E-06-4.13590E-25
 -1       876 1.30266E-04 5.80273E-06-3.30872E-24
 -1       877 1.30264E-04 6.11138E-06 1.65436E-24
 -1       878 1.30243E-04 6.47043E-06-3.30872E-24
 -1       879 1.30206E-04 6.87348E-06-1.65436E-24
 -1       880 1.30155E-04 7.31410E-06 0.00000E+00
 -1       881 1.30092E-04 7.78586E-06 0.00000E+00
 -1       882 1.30020E-04 8.28239E-06 0.00000E+00
 -1       883 1.29942E-04 8.79729E-06-1.65436E-24
 -1       884 1.29858E-04 9.32419E-06-3.30872E-24
 -1       885 1.29773E-04 9.85672E-06-1.65436E-24
 -1       886 1.29688E-04 1.03885E-05-3.30872E-24
 -1       887 1.29605E-04 1.09131E-05 0.00000E+00
 -1       888 1.29527E-04 1.14242E-05 0.00000E+00
 -1       889 1.29456E-04 1.19152E-05-8.27181E-25
 -1       890 1.29395E-04 1.23797E-05 0.00000E+00
 -1       891 1.29869E-04 1.30484E-05 0.00000E+00
 -1       892 1.29895E-04 1.30003E-05 4.13590E-25
 -1       893 1.29878E-04 1.29522E-05-8.27181E-25
 -1       894 1.29795E-04 1.29042E-05 4.13590E-25
 -1       895 1.29623E-04 1.28564E-05-4.13590E-25
 -1       956 1.32599E-04 2.33964E-06 0.00000E+00
 -1       957 1.32491E-04 2.37687E-06 0.00000E+00
 -1       958 1.32382E-04 2.47444E-06 0.00000E+00
 -1       959 1.32273E-04 2.62425E-06 0.00000E+00
 -1       960 1.32164E-04 2.81816E-06 3.30872E-24
 -1       961 1.32054E-04 3.04799E-06 0.00000E+00
 -1       962 1.31945E-04 3.30555E-06 3.30872E-24
 -1       963 1.31836E-04 3.58267E-06 0.00000E+00
 -1       964 1.31727E-04 3.87115E-06 0.00000E+00
 -1       965 1.31617E-04 4.16279E-06 0.00000E+00
 -1       966 1.31508E-04 4.44942E-06-3.30872E-24
 -1       967 1.31399E-04 4.72283E-06 1.65436E-24
 -1       968 1.31290E-04 4.97485E-06 3.30872E-24
 -1       969 1.31181E-04 5.19732E-06 0.00000E+00
 -1       970 1.31072E-04 5.38208E-06 0.00000E+00
 -1       971 1.30865E-04 5.67468E-06 3.30872E-24
 -1       972 1.30763E-04 5.91419E-06 1.65436E-24
 -1       973 1.30661E-04 6.23033E-06-3.30872E-24
 -1       974 1.30559E-04 6.61322E-06 1.65436E-24
 -1       975 1.30457E-04 7.05300E-06 3.30872E-24
 -1       976 1.30355E-04 7.53976E-06 0.00000E+00
 -1       977 1.30253E-04 8.06360E-06-3.30872E-24
 -1       978 1.30151E-04 8.61460E-06 1.65436E-24
 -1       979 1.30049E-04 9.18284E-06 0.00000E+00
 -1       980 1.29946E-04 9.75839E-06 0.00000E+00
 -1       981 1.29844E-04 1.03313E-05 3.30872E-24
 -1       982 1.29742E-04 1.08917E-05 0.00000E+00
 -1       983 1.29640E-04 1.14297E-05 0.00000E+00
 -1       984 1.29539E-04 1.19353E-05-1.65436E-24
 -1       985 1.29438E-04 1.23986E-05 0.00000E+00
 -3
    1PSTEP                        14           7           1          
  100CL  107 5.74219E-01         409                     0    7           1
 -4  STRESS      6    1
 -5  SXX         1    4    1    1
 -5  SYY         1    4    2    2
 -5  SZZ         1    4    3    3
 -5  SXY         1    4    1    2
 -5  SYZ         1    4    2    3
 -5  SZX         1    4    3    1
 -1         1-2.94130E+06-1.18348E+06-6.35034E+05-1.37274E+06 2.91038E-10-7.75617E-09
 -1         2 1.99789E+03-8.88693E+05 6.44979E+03 4.49286E+01-2.13163E-12-5.22016E-08
 -1         3-4.84069E+02-1.31963E+06 3.16810E+02-1.07913E+03-4.55980E-10-2.60952E-08
 -1         5-1.53106E+00 3.04382E+05-5.97997E-01 7.29678E-01-5.87379E-11 2.41894E-08
 -1         8-1.03730E+06-3.59082E+05-1.11394E+05-5.12758E+05 5.05679E-10 9.55697E-09
 -1         9-5.27378E+05-8.22117E+05-6.55837E+01-7.79361E+05 1.83820E-08 9.10368E-09
 -1        10-1.33731E+03-1.37489E+06-2.33398E+03-7.29926E+03-7.58337E-09-4.18701E-08
 -1        12 4.59106E+00 3.05936E+05 2.58611E+02-1.11394E+00 1.03682E-10 9.78564E-09
 -1        15 1.76437E+03 9.69623E+02 5.70330E+03 3.47064E+00 1.26789E-10 3.98991E-08
 -1        16 1.17026E+06-9.40755E+05 1.44899E+05-1.20796E+06 1.16997E-08 1.93637E-08
 -1        17-7.77641E+03 8.65401E+04 8.21417E+04 2.05047E+05-3.08501E-10 2.29687E-08
 -1        18 2.15021E+03-4.06382E+03-2.37004E+04-8.51820E+04 9.68976E-09 3.51929E-09
 -1        19 9.82369E+04 1.13259E+05-7.68480E+02 1.91949E+04 1.83718E-11-6.78047E-09
 -1        20-5.26918E+04-4.64248E+05-1.03226E+05 2.79904E+04 1.79398E-09 7.71737E-09
 -1        21-4.13134E+01-2.56389E+05-8.15869E+02 4.37228E+00-1.64721E-09 1.33660E-09
 -1        24-5.37589E+05 8.12669E+05 2.61481E+05 4.77417E+05-7.48939E-08-3.21015E-08
 -1        25-1.02642E+05-5.77654E+05-1.15807E+05-1.83397E+05-8.67612E-10 4.36739E-10
 -1        26-3.81627E+04 7.32255E+04-1.90195E+04-3.92995E+03 1.30931E-09-8.63207E-10
 -1        27-6.71349E+04-2.52463E+05-9.37206E+04 5.69730E+04 5.49160E-09-4.67207E-09
 -1        28 1.96579E+04-7.21832E+04 1.45631E+04 2.05321E+04-6.08225E-12-8.51948E-10
 -1        32-1.39722E+06-2.21018E+06-6.28052E+04-3.83399E+05-2.83799E-08-3.98123E-09
 -1        33-1.47955E+05 7.30918E+04 2.60760E+04-3.43301E+04-2.22637E-10 8.70629E-09
 -1        34-1.86207E+05-1.91996E+04 5.03138E+02 5.94969E+04 8.13785E-10 1.60041E-09
 -1        35-2.00594E+04-2.86688E+04-1.13226E+03 4.46597E+04 2.82832E-09-2.58539E-09
 -1        51 3.00830E+04-3.03827E+05 6.90657E+04-8.67111E+05-8.73115E-11 2.83471E-08
 -1        52 1.34046E+04-2.96027E+05 4.03442E+04-1.01118E+06 6.40284E-10 2.18934E-08
 -1        53 6.56304E+03-3.10766E+05 2.74947E+04-8.64029E+05 5.52973E-10-5.58794E-08
 -1        54 1.74143E+04-3.08562E+05 3.56937E+04-1.01437E+06 3.85626E-10-4.81050E-08
 -1        55 3.48970E+04-3.21027E+05 5.86819E+04-8.63554E+05 5.31145E-10-1.77060E-08
 -1        56-5.59815E+06-6.26502E+05-4.68334E+05-2.17042E+06-7.82893E-09-2.07510E-08
 -1        57-5.82665E+06-1.01170E+06-3.16000E+05-2.10657E+06 6.75209E-09 1.44828E-08
 -1        58-5.68730E+06-7.80366E+05-1.10092E+05-2.14662E+06-4.14184E-09-4.33865E-08
 -1        59-5.72479E+06-8.29682E+05-6.57268E+04-2.13311E+06 1.14305E-08 1.71985E-09
 -1        60-5.69857E+06-8.03562E+05-2.56597E+04-2.14542E+06-2.40925E-09 2.73812E-08
 -1        61-5.71244E+06-8.01779E+05-1.45594E+04-2.13362E+06 5.81281E-10 6.06087E-09
 -1        62-5.69936E+06-8.07605E+05-6.92150E+03-2.14627E+06-1.55501E-09-1.94684E-08
 -1        63-5.71146E+06-7.97681E+05-5.60940E+03-2.13289E+06 2.42281E-09-5.54545E-08
 -1        64-5.69950E+06-8.07582E+05-6.21994E+03-2.14616E+06 1.38755E-09-2.46791E-09
 -1        65-5.71171E+06-8.01461E+05-1.24739E+04-2.13405E+06 1.14630E-09 1.53080E-08
 -1        66-5.69914E+06-8.03889E+05-2.17332E+04-2.14510E+06-3.63298E-09 5.21313E-08
 -1        67-5.72144E+06-8.25647E+05-5.54858E+04-2.13438E+06-6.71935E-09 1.65401E-08
 -1        68-5.69001E+06-7.83958E+05-9.28979E+04-2.14570E+06-2.89947E-09 3.51065E-08
 -1        69-5.80666E+06-9.79901E+05-2.66576E+05-2.11280E+06-6.45923E-09 1.80444E-08
 -1        70-5.61519E+06-6.53838E+05-3.95207E+05-2.16539E+06 3.20142E-09-1.82335E-08
 -1        86-9.96471E+02-8.90419E+05 6.98541E+03-2.24649E+01-4.20641E-11-3.17581E-08
 -1        87 6.63878E+03-8.86449E+05 1.44782E+04 8.22810E+01-8.93579E-11 3.80680E-09
 -1        88-5.62267E+03-8.92657E+05 2.22768E+04-5.98197E+01 5.45697E-11 1.01974E-09
 -1        89 4.19307E+04-8.70071E+05 5.99580E+04 1.36531E+02-1.42791E-10-5.54668E-08
 -1        90-3.61689E+04-9.06756E+05 8.48492E+04-7.67204E+01-8.00355E-11-5.49051E-09
 -1       121-6.86005E+02-1.32136E+06 3.42451E+01 5.37704E+02 7.90635E-10-1.40353E-08
 -1       122-3.65761E+02-1.31960E+06 6.58679E+02-2.15586E+03-3.22593E-09 1.24037E-08
 -1       123-7.41098E+02-1.32145E+06 7.84391E+02 1.60708E+03 2.50327E-09 7.27232E-09
 -1       124 9.12659E+02-1.31897E+06 2.68501E+03-4.56398E+03-5.89898E-09 8.16726E-09
 -1       125-1.50396E+03-1.32216E+06 3.80922E+03 2.93807E+03 3.79259E-09 4.58022E-09
 -1       191-2.04483E+00 3.04409E+05-7.93665E-01-3.64760E-01-6.52207E-11 2.10275E-09
 -1       192-5.07995E+00 3.04381E+05-2.16783E+00 3.52892E+00-7.09441E-11-1.25547E-08
 -1       193-1.29025E+01 3.04410E+05-4.85861E+00-3.16290E+00-1.28381E-10-7.00538E-10
 -1       194-4.30826E+01 3.04372E+05-1.73154E+01 2.81437E+01-7.26175E-11 1.38580E-08
 -1       195-1.18243E+02 3.04418E+05-4.01401E+01-2.49665E+01-1.21872E-10 9.12348E-09
 -1       251-1.83482E+06 9.55361E+03-1.11703E+05 5.11855E+04 1.04592E-09-7.45422E-09
 -1       252-1.52056E+06-1.22516E+04-1.23998E+04-2.00139E+05-6.37010E-09-1.16843E-08
 -1       253-1.71462E+06-1.83359E+03-2.58858E+04 1.49014E+05 2.09820E-09-8.90941E-09
 -1       254-1.67412E+06 1.42295E+04-4.43775E+03-3.05838E+05 5.01157E-09-2.64045E-08
 -1       255-1.69740E+06-3.63192E+03-7.00147E+03 1.57577E+05 5.01905E-09-1.45003E-08
 -1       256-1.54835E+06 1.47799E+04 2.73206E+04-2.31383E+05-4.03270E-09 4.15497E-08
 -1       257-1.82818E+06-1.23502E+04-3.16171E+04 7.39704E+04-1.77861E-08-1.17880E-08
 -1       258-1.38936E+06 1.15961E+04 5.87778E+04-1.48402E+04-7.45786E-09 2.37014E-09
 -1       259-1.84076E+06-1.32061E+04-3.32277E+04-5.86834E+04-2.38288E-09-1.78297E-08
 -1       260-1.52049E+06 1.50701E+04 3.55128E+04 2.11389E+05-8.14907E-10-4.33729E-08
 -1       261-1.70999E+06-5.25171E+03-3.88547E+03-1.51766E+05-3.16677E-08-1.89779E-08
 -1       262-1.67187E+06 2.09185E+04 9.61361E+03 3.06739E+05 1.15353E-08-1.66116E-08
 -1       263-1.70438E+06-6.78065E+03-1.07075E+02-1.54699E+05-7.26050E-09 5.29658E-08
 -1       264-1.52712E+06 3.22012E+04 4.50994E+04 2.22182E+05-6.38490E-08 2.07108E-08
 -1       265-1.84110E+06-2.76254E+04-2.06007E+04-6.65787E+04-2.09147E-08 8.47012E-09
 -1       266-3.19402E+04-1.49337E+04 7.49480E+04-7.42672E+01 2.25555E-10 4.86769E-08
 -1       267 3.70282E+04 1.74079E+04 5.29685E+04 8.56817E+01 3.34694E-10 2.99321E-08
 -1       268-4.96538E+03-2.46532E+03 1.96884E+04-1.09178E+01 1.46429E-10 2.97083E-08
 -1       269 5.86270E+03 2.95060E+03 1.27969E+04 1.27171E+01 9.79981E-11 3.23040E-08
 -1       270-8.79996E+02-4.84800E+02 6.17726E+03-1.72582E+00 1.48020E-10 8.67019E-08
 -1       271-2.92713E+06-3.63419E+05-2.19965E+05-1.13592E+06 2.85218E-09 3.75439E-08
 -1       272-3.02092E+06-5.09818E+05-1.41541E+05-1.11777E+06 7.44876E-10-3.32875E-08
 -1       273-2.96870E+06-4.18236E+05-5.19508E+04-1.12590E+06-3.55840E-09-3.21124E-08
 -1       274-2.97154E+06-4.43222E+05-2.90952E+04-1.13330E+06-1.81726E-08-2.24236E-09
 -1       275-2.97542E+06-4.22968E+05-1.21109E+04-1.12303E+06 3.62888E-09 1.88120E-08
 -1       276-2.96261E+06-4.38550E+05-6.39274E+03-1.13841E+06-2.13913E-09 4.47553E-08
 -1       277-2.97765E+06-4.22098E+05-3.15386E+03-1.12115E+06-4.59477E-09-2.65836E-08
 -1       278-2.95927E+06-4.40497E+05-2.19051E+03-1.14186E+06 9.81481E-09-3.75300E-08
 -1       279-2.97893E+06-4.20841E+05-2.31195E+03-1.11974E+06-9.96670E-09-2.71775E-08
 -1       280-2.95771E+06-4.42998E+05-4.11690E+03-1.14429E+06 1.87219E-09 2.09719E-08
 -1       281-2.97939E+06-4.19522E+05-7.46913E+03-1.11884E+06-2.35605E-09 1.20026E-08
 -1       282-2.96008E+06-4.49107E+05-1.78883E+04-1.14505E+06 4.13115E-09-3.77977E-08
 -1       283-2.97677E+06-4.15096E+05-3.17896E+04-1.11891E+06 2.35013E-09-3.44080E-08
 -1       284-2.98775E+06-4.92561E+05-8.67463E+04-1.13860E+06 5.89307E-09-1.86446E-10
 -1       285-2.95248E+06-3.80360E+05-1.34741E+05-1.12375E+06 2.67028E-09 4.36557E-09
 -1       301 2.31870E+04-1.82030E+05 1.72476E+05-3.46477E+05 2.40107E-10 1.11795E-08
 -1       302 2.46376E+04-1.38746E+05 1.10418E+05-5.07314E+05 1.20963E-10-2.27128E-08
 -1       303 1.04251E+03-1.64912E+05 7.95357E+04-3.45821E+05-3.18323E-10 2.06110E-08
 -1       304 2.37323E+04-1.37374E+05 1.09862E+05-5.06826E+05 4.80213E-10 2.39233E-08
 -1       305 2.15911E+04-1.79970E+05 1.71017E+05-3.47032E+05-2.76486E-10-7.42511E-09
 -1       306-9.95286E+06-1.29558E+06-1.64830E+06-2.03689E+06-3.78641E-08 4.42378E-09
 -1       307 1.78684E+05-1.88272E+06 6.17700E+05-4.78542E+06-3.06492E-07 6.03395E-08
 -1       308-7.60172E+06 2.26212E+05-2.12814E+05-2.61641E+04-1.46392E-08 1.11489E-07
 -1       309-3.74036E+06-2.09371E+06 1.73337E+05-7.44148E+06 6.75236E-08 2.42653E-09
 -1       310-7.68492E+06 1.97701E+05-1.47971E+05-6.85837E+04-9.54897E-08-1.25674E-08
 -1       311 3.84094E+05-1.88887E+06 8.91657E+05-4.58404E+06 4.17931E-08-8.11160E-08
 -1       312-9.97914E+06-1.33359E+06-1.13308E+06-2.14188E+06-2.67755E-08 5.10627E-08
 -1       313 2.16794E+06 5.17328E+05 1.55410E+06 7.64769E+05-1.53785E-07 8.87594E-08
 -1       314-8.22808E+06-3.06808E+06-1.12936E+06-4.07236E+06-1.19035E-08 1.09139E-09
 -1       315-5.24382E+06 3.69573E+06 8.82796E+05 1.61382E+06-2.34962E-07-6.95873E-08
 -1       316-4.21801E+06-3.24653E+06-1.46811E+05-3.90731E+06-2.80954E-07-1.85544E-07
 -1       317-1.04088E+07 4.56485E+06 1.61397E+05-1.39382E+04 2.66176E-07-2.42550E-07
 -1       318-4.15129E+06-3.23718E+06-2.37770E+05-3.89307E+06-3.19153E-07-1.60071E-08
 -1       319-5.46262E+06 3.74205E+06 5.67674E+05 1.56119E+06-7.70888E-08 2.24900E-08
 -1       320-8.12456E+06-3.09072E+06-1.73689E+06-4.08407E+06 6.46105E-08-1.37006E-08
 -1       336 4.70374E+02-1.43043E+06-9.08250E+03 4.32965E+03-1.54814E-08 4.00178E-09
 -1       337-3.42082E+03-1.43169E+06-1.08673E+04-1.05397E+04-2.86168E-08 9.89530E-10
 -1       338 5.48327E+02-1.43041E+06-1.54192E+04 6.15720E+03-2.00284E-08-6.00267E-09
 -1       339-1.62389E+04-1.44010E+06-3.44190E+04-1.41062E+04-3.66867E-08 1.07393E-08
 -1       340 1.08430E+04-1.42266E+06-5.37020E+04 7.85428E+03-2.41325E-08 2.43417E-08
 -1       406 1.30223E+02 3.07458E+05 6.74091E+02 2.61032E+01 2.18733E-10-1.33226E-08
 -1       407 2.09306E+02 3.07575E+05 1.16118E+03-2.69452E+01 1.23720E-10-1.90911E-08
 -1       408 5.46347E+02 3.07391E+05 2.19223E+03 7.69634E-01 4.09955E-10 2.36469E-09
 -1       409 2.29342E+03 3.08258E+05 4.86968E+03 2.35168E+01 1.00727E-10 1.17076E-08
 -1       410 6.61898E+03 3.06774E+05 9.90481E+03-2.55437E+01 1.77124E-10 3.82465E-09
 -1       521-1.21714E+07-1.76271E+06-2.23650E+06-2.28169E+06-3.14321E-08 6.22822E-09
 -1       522 6.54876E+05-2.20497E+06 7.61995E+05-6.29503E+06-2.56288E-07-2.78014E-08
 -1       523-9.18253E+06 2.39595E+05-2.71904E+05 2.05315E+05-2.44327E-08-1.51307E-07
 -1       524-4.88755E+06-2.07257E+06 2.42175E+05-9.71662E+06 2.44278E-07-2.73310E-07
 -1       525-9.31902E+06 1.87742E+05-1.98654E+05 1.39804E+05 1.78494E-07-1.65275E-07
 -1       526 1.04235E+06-2.22744E+06 1.14051E+06-5.95350E+06 1.00597E-07-4.62442E-08
 -1       527-1.22198E+07-1.84137E+06-1.55937E+06-2.44977E+06 2.64845E-07-1.91212E-08
 -1       528 3.62585E+06 7.20130E+05 1.95920E+06 1.35560E+06 8.53906E-08 1.44137E-08
 -1       529-9.94335E+06-4.08890E+06-1.55065E+06-4.92892E+06 1.33878E-09-2.09839E-08
 -1       530-6.44826E+06 5.19297E+06 1.13157E+06 2.19397E+06-2.30575E-07 2.44632E-07
 -1       531-4.87021E+06-4.22779E+06-1.86605E+05-4.73799E+06-3.33763E-07 5.32455E-08
 -1       532-1.32885E+07 6.33147E+06 2.48620E+05-4.36682E+05 1.56502E-07-2.57853E-07
 -1       533-4.76448E+06-4.21489E+06-2.69720E+05-4.71312E+06 1.57743E-08-4.04136E-07
 -1       534-6.79122E+06 5.34644E+06 8.04750E+05 2.07016E+06-8.24148E-08 2.96481E-07
 -1       535-9.80672E+06-4.18767E+06-2.19757E+06-4.94075E+06 3.55067E-09 1.90184E-07
 -1       536-4.74074E+05-2.91319E+04 2.31597E+04-2.47787E+04-6.14773E-09 3.31311E-08
 -1       537-2.75108E+05 3.09022E+04 4.94638E+04 6.09451E+04-6.49494E-08 3.57377E-08
 -1       538-3.78034E+05-1.28040E+03 1.08570E+04-3.75398E+04 1.64707E-08 4.45866E-08
 -1       539-3.39670E+05 3.32426E+03 1.32697E+04 6.97467E+04 7.92673E-08 4.38666E-08
 -1       540-4.10932E+05-4.19236E+02-4.26371E+03-3.36555E+04 1.21693E-08 4.77536E-08
 -1       541-2.13395E+05 5.48413E+03 3.37313E+04 4.40666E+04 2.25875E-08 4.26985E-08
 -1       542-5.00925E+05-6.21188E+03-2.50030E+04-1.17237E+04 1.87365E-08 2.66357E-08
 -1       543-1.41354E+05 8.15257E+03 4.69000E+04-8.36283E+03-1.49161E-08 8.75389E-12
 -1       544-4.81062E+05-4.64690E+03-2.19936E+04 1.86596E+04 8.13316E-09-1.66856E-08
 -1       545-2.58482E+05 2.06897E+03 2.14955E+04-5.56716E+04 5.37750E-09-5.01050E-08
 -1       546-3.86893E+05 2.39687E+03-4.94008E+03 3.55416E+04 1.46518E-08-5.40496E-08
 -1       547-3.49287E+05-4.01947E+03-1.96969E+03-7.17173E+04-5.39791E-08-6.69984E-08
 -1       548-3.92637E+05 3.38679E+03-1.48935E+04 3.48123E+04-6.00151E-08-4.57367E-08
 -1       549-2.50566E+05-9.86008E+03-2.12118E+03-5.23900E+04-4.11223E-08-3.67049E-08
 -1       550-4.82864E+05 5.97907E+03-6.80341E+04 1.60967E+04 5.51609E-09-2.95731E-08
 -1       551 2.46686E+04-6.71211E+05 2.06631E+04-1.06810E+06-6.27333E-08-4.45289E-09
 -1       552 5.48171E+04-6.90345E+05 3.03563E+04-1.52211E+06-4.85452E-08 8.37463E-09
 -1       553 3.99076E+04-6.94756E+05 4.56727E+04-1.06367E+06-7.66959E-08 1.56651E-08
 -1       554 8.44191E+04-6.91478E+05 9.69228E+04-1.52380E+06-4.77012E-08 1.90757E-08
 -1       555 6.89562E+04-7.14723E+05 1.72156E+05-1.06439E+06-7.72343E-08-7.90533E-09
 -1       556 1.36246E+05-2.46732E+05 6.30297E+04-2.96909E+05-1.07248E-08 1.13505E-09
 -1       557 2.31436E+05-3.23350E+05 3.38600E+04-3.76203E+05-4.78758E-09 9.13951E-09
 -1       558 1.30815E+05-2.52116E+05 1.25247E+04-2.91904E+05-8.93488E-09 1.68438E-09
 -1       559 2.15007E+05-3.30671E+05 6.72011E+03-3.85764E+05 2.47383E-08 1.74623E-10
 -1       560 1.24447E+05-2.48045E+05 2.10297E+03-2.96272E+05 1.10304E-08 1.64437E-09
 -1       561 2.06441E+05-3.27657E+05 1.38329E+03-3.91376E+05 4.59113E-09 2.96677E-09
 -1       562 1.19437E+05-2.44849E+05 1.80981E+02-2.99866E+05 5.07862E-09-1.04392E-08
 -1       563 2.00559E+05-3.25097E+05 3.37941E+02-3.95167E+05-4.80213E-10-1.89953E-08
 -1       564 1.16074E+05-2.42730E+05 4.68778E+00-3.02240E+05 5.42786E-09-2.86263E-09
 -1       565 1.97036E+05-3.23567E+05 1.30523E+02-3.97402E+05 6.48652E-09 9.24047E-09
 -1       566 1.14422E+05-2.41674E+05-6.37089E-01-3.03401E+05-1.12414E-09-1.10176E-08
 -1       567 1.95842E+05-3.23035E+05-8.40913E+01-3.98063E+05 1.62991E-08 7.39237E-09
 -1       568 1.14532E+05-2.41758E+05-4.22573E+02-3.03416E+05-2.40652E-09 5.62432E-09
 -1       569 1.96033E+05-3.22964E+05-1.05257E+03-3.96300E+05-5.52973E-09 1.34605E-09
 -1       570 1.17175E+05-2.43961E+05-2.47633E+03-3.02928E+05 5.26779E-09 1.23018E-08
 -1       571 2.30803E+05 8.48707E+03 1.24554E+04-6.17000E+04 3.35604E-10 1.36290E-08
 -1       572 2.32645E+05 3.01541E+03 6.10275E+03-6.76790E+04 1.22736E-09-7.12589E-09
 -1       573 2.31542E+05 7.81559E+02 2.71136E+03-6.15659E+04 1.86401E-09-4.27053E-09
 -1       574 2.31751E+05 3.20887E+02 1.35884E+03-6.78357E+04 2.68756E-10 1.25692E-09
 -1       575 2.31625E+05 1.15953E+02 6.40911E+02-6.15480E+04 9.75399E-09 5.61749E-09
 -1       576 2.31634E+05 1.00878E+02 3.27176E+02-6.78566E+04 1.66044E-08-1.28011E-09
 -1       577 2.31644E+05 7.58863E+01 1.62627E+02-6.15456E+04 7.16545E-09-1.94177E-09
 -1       578 2.31634E+05 8.33660E+01 9.18758E+01-6.78593E+04-1.73100E-09 6.58247E-09
 -1       579 2.31672E+05 6.50366E+01 6.13639E+01-6.15454E+04-4.68663E-09 2.17779E-09
 -1       580 2.31672E+05 6.63844E+01 6.67038E+01-6.78558E+04-2.10066E-08-1.32004E-08
 -1       581 2.31715E+05 4.62455E+01 9.96397E+01-6.15492E+04 2.31012E-09 2.96495E-09
 -1       582 2.31747E+05 6.65838E+01 1.98163E+02-6.78166E+04 1.88866E-08-7.09133E-09
 -1       583 2.31765E+05 1.05534E+02 3.83319E+02-6.15847E+04 8.01447E-09-9.96442E-09
 -1       584 2.31950E+05 4.11100E+02 8.62871E+02-6.75186E+04-2.57569E-09 2.72848E-12
 -1       585 2.31729E+05 1.16497E+03 1.75253E+03-6.18474E+04-2.26464E-09-8.69477E-10
 -1       586-2.92536E+03 7.69997E+04-3.44839E+03-2.06238E+05-1.74714E-09 3.63707E-09
 -1       587-7.61950E+02 7.65886E+04-3.19234E+01-2.27011E+05-6.40284E-10-4.22642E-09
 -1       588 7.17285E+02 7.66139E+04 3.31524E+03-2.06142E+05-5.43878E-10 1.36470E-08
 -1       589 4.34160E+03 7.84085E+04 9.16841E+03-2.26770E+05-2.44108E-09 2.04454E-09
 -1       590 1.29959E+04 7.55989E+04 1.94556E+04-2.06497E+05-1.61344E-09-4.97857E-09
 -1       591-4.76474E+04-1.20763E+04-1.62551E+04-2.25710E+04 3.34398E-09 7.28596E-09
 -1       592-4.99565E+04-1.52837E+04-8.80475E+03-2.59156E+04-9.33824E-10-2.18615E-08
 -1       593-4.92791E+04-1.08905E+04-3.66522E+03-2.37570E+04 3.07409E-10-6.95763E-09
 -1       594-4.77034E+04-1.29079E+04-1.82802E+03-2.60121E+04 6.76152E-11 1.46513E-08
 -1       595-4.94038E+04-1.08860E+04-8.39675E+02-2.38110E+04-2.80488E-09 1.03380E-08
 -1       596-4.75498E+04-1.27992E+04-4.27442E+02-2.59948E+04 3.06390E-09 5.86775E-09
 -1       597-4.94194E+04-1.08969E+04-2.33988E+02-2.38131E+04 3.51665E-09 1.19354E-08
 -1       598-4.75348E+04-1.27950E+04-1.90363E+02-2.59899E+04-3.42823E-10-9.05800E-10
 -1       599-4.94183E+04-1.08971E+04-2.45988E+02-2.38127E+04-1.29876E-09-5.52859E-09
 -1       600-4.75505E+04-1.28003E+04-4.59220E+02-2.59937E+04-2.63071E-10-1.43291E-09
 -1       601-4.93993E+04-1.08862E+04-9.07106E+02-2.38097E+04-5.74073E-09-1.26662E-08
 -1       602-4.77163E+04-1.29173E+04-1.97755E+03-2.60098E+04-1.11836E-08-4.86239E-09
 -1       603-4.92624E+04-1.08933E+04-3.96613E+03-2.37517E+04-1.21236E-09 5.80712E-10
 -1       604-5.01666E+04-1.54744E+04-9.52736E+03-2.58877E+04-2.10377E-09 2.53749E-09
 -1       605-4.74820E+04-1.21889E+04-1.75892E+04-2.24820E+04 5.37170E-10 5.57338E-09
 -1       606 2.74474E+04-1.11046E+04-1.99559E+04 2.63423E+04 1.56524E-09-1.32832E-08
 -1       607 2.40329E+04-3.60131E+03-9.93718E+03 2.95781E+04-5.39330E-10-5.38694E-09
 -1       608 2.59716E+04-6.25820E+02-4.44967E+03 2.61375E+04-1.60617E-09 6.30052E-10
 -1       609 2.55902E+04-1.84410E+02-2.24748E+03 2.98104E+04-1.06593E-09-2.14004E-09
 -1       610 2.57955E+04 4.37742E+00-1.07319E+03 2.61143E+04 1.11686E-09 1.96248E-08
 -1       611 2.57273E+04 1.42777E+01-5.41078E+02 2.98357E+04-1.35242E-09 1.12234E-08
 -1       612 2.57502E+04 2.04572E+01-2.58196E+02 2.61120E+04-2.11276E-09-5.77643E-09
 -1       613 2.57274E+04 2.24915E+01-1.16522E+02 2.98387E+04-8.02902E-09-2.34513E-09
 -1       614 2.57261E+04 1.99054E+01-2.98079E+01 2.61113E+04-1.49003E-08 5.42946E-09
 -1       615 2.57161E+04 2.75762E+01 4.31861E+01 2.98391E+04-1.69903E-08 4.44675E-09
 -1       616 2.57075E+04 2.55656E+01 1.34641E+02 2.61115E+04-9.89985E-09 1.85514E-09
 -1       617 2.57270E+04 5.95087E+01 3.09406E+02 2.98386E+04 5.67752E-10-1.69757E-09
 -1       618 2.56767E+04 1.17249E+02 6.24350E+02 2.61117E+04-1.70485E-09 1.61299E-09
 -1       619 2.59442E+04 5.44295E+02 1.40258E+03 2.98378E+04-2.53692E-09-7.80483E-09
 -1       620 2.54673E+04 1.59960E+03 2.81923E+03 2.61109E+04 1.03228E-10 4.41150E-09
 -1       621 2.71821E+02 2.35598E+05 2.48920E+03 1.76315E+04 1.21645E-10-1.33969E-08
 -1       622 3.38938E+02 2.36203E+05 2.34099E+03 2.56509E+04 1.81899E-10-1.74678E-08
 -1       623 2.76291E+01 2.35733E+05 2.98798E+03 1.75474E+04 2.53976E-10-9.68612E-09
 -1       624 1.45230E+03 2.37204E+05 5.93301E+03 2.57366E+04 2.44967E-10-5.69435E-09
 -1       625 1.45685E+03 2.34560E+05 1.04359E+04 1.75447E+04 3.13776E-10 6.90125E-09
 -1       626 2.08303E+05 5.41825E+04 4.49235E+03 1.07666E+05-7.00311E-10-1.27966E-08
 -1       627 2.05926E+05 5.57515E+04 2.16482E+03 1.11794E+05 5.01359E-09 6.42842E-09
 -1       628 2.08436E+05 5.20993E+04 9.14785E+02 1.08394E+05-9.59517E-10-8.87212E-09
 -1       629 2.05328E+05 5.51913E+04 4.47887E+02 1.12038E+05-4.15093E-09-1.82357E-08
 -1       630 2.08445E+05 5.20006E+04 2.07016E+02 1.08419E+05-3.29146E-09 1.65983E-10
 -1       631 2.05259E+05 5.51741E+04 1.10617E+02 1.12038E+05 2.21371E-09 7.20922E-09
 -1       632 2.08437E+05 5.20071E+04 7.13862E+01 1.08411E+05 5.59339E-09 4.79463E-09
 -1       633 2.05246E+05 5.51787E+04 7.74051E+01 1.12031E+05 6.00267E-11-4.88853E-09
 -1       634 2.08428E+05 5.20073E+04 1.23159E+02 1.08408E+05 1.14778E-09-7.19274E-09
 -1       635 2.05253E+05 5.51794E+04 2.48176E+02 1.12032E+05-2.72996E-09 6.31439E-09
 -1       636 2.08417E+05 5.20050E+04 5.00575E+02 1.08405E+05-9.96056E-09 1.86178E-08
 -1       637 2.05358E+05 5.52582E+04 1.09998E+03 1.12029E+05-8.32824E-09 3.32507E-08
 -1       638 2.08376E+05 5.22491E+04 2.26017E+03 1.08294E+05-8.62906E-09 1.41495E-08
 -1       639 2.06545E+05 5.69090E+04 5.34709E+03 1.11678E+05-2.70938E-09-3.77327E-09
 -1       640 2.08216E+05 5.71741E+04 1.10962E+04 1.06210E+05 3.36968E-10-5.86124E-09
 -1       656 5.46921E+04-1.39113E+06-1.32028E+05-7.61649E+02 4.00178E-10-7.10247E-09
 -1       657-7.23145E+04-1.45075E+06-1.09284E+05 7.23810E+03 3.34694E-10-2.05631E-09
 -1       658 1.73924E+04-1.40810E+06-6.71898E+04-2.29471E+03 3.85398E-10 1.38325E-09
 -1       659-7.78811E+04-1.45339E+06-1.16596E+05 8.36251E+03-7.85803E-10 1.46874E-09
 -1       660 6.02459E+04-1.38850E+06-1.44601E+05-1.88604E+03-7.05768E-10-4.85716E-09
 -1       661 1.66126E+05 1.78637E+04 1.64984E+04 6.49653E+04-4.06999E-10 1.80689E-08
 -1       662 1.75030E+05 3.04967E+04 1.11177E+04 6.17451E+04 2.89162E-10-2.12469E-09
 -1       663 1.69363E+05 2.31585E+04 3.88880E+03 6.40276E+04 7.17591E-10-9.27571E-09
 -1       664 1.71280E+05 2.43017E+04 2.32551E+03 6.28879E+04-1.17439E-10-4.67188E-09
 -1       665 1.69851E+05 2.38846E+04 9.17382E+02 6.38880E+04-3.72438E-10-5.03167E-09
 -1       666 1.70705E+05 2.34691E+04 5.35793E+02 6.30686E+04-6.94570E-10-2.13980E-09
 -1       667 1.69935E+05 2.39693E+04 2.83425E+02 6.38550E+04 1.04228E-09 7.13793E-09
 -1       668 1.70614E+05 2.34051E+04 2.86105E+02 6.31165E+04 3.64039E-10-5.50834E-09
 -1       669 1.69942E+05 2.39466E+04 3.85142E+02 6.38406E+04 1.14245E-09 1.46330E-08
 -1       670 1.70709E+05 2.36119E+04 8.36599E+02 6.31182E+04-4.34137E-09 1.68243E-08
 -1       671 1.69840E+05 2.37667E+04 1.48475E+03 6.38516E+04 1.46454E-09 6.98037E-10
 -1       672 1.71574E+05 2.50564E+04 3.79815E+03 6.29091E+04 1.33946E-09-1.55406E-08
 -1       673 1.69081E+05 2.25386E+04 6.36487E+03 6.40358E+04-2.71098E-09 1.83081E-09
 -1       674 1.77634E+05 3.52804E+04 1.82021E+04 6.11275E+04-1.05143E-09-1.11004E-09
 -1       675 1.63820E+05 1.38287E+04 2.70180E+04 6.55255E+04 2.46609E-09-2.37924E-09
 -1       676 2.11669E+01-2.56321E+05-9.83334E+02-2.18619E+00 1.13468E-09-1.44485E-09
 -1       677-2.61159E+02-2.56559E+05-1.79964E+03 4.36961E+00 1.05231E-09 5.40040E-09
 -1       678 1.74323E+02-2.56152E+05-3.18130E+03-2.18193E+00-7.22707E-10 7.00125E-09
 -1       679-3.18224E+03-2.58479E+05-7.55730E+03 4.35328E+00 2.44199E-10 4.39346E-09
 -1       680 1.89917E+03-2.54402E+05-1.21798E+04-2.14525E+00-1.35060E-10 3.23716E-09
 -1       771-2.71155E+06-5.60858E+05-8.79891E+04-1.21402E+06-1.96160E-08-1.83354E-08
 -1       772-2.66795E+06-6.18122E+05-4.60658E+04-1.27937E+06-1.61817E-08 7.15590E-09
 -1       773-2.72734E+06-5.48381E+05-2.20241E+04-1.21978E+06-1.14960E-08 7.29779E-09
 -1       774-2.65919E+06-6.08880E+05-1.01423E+04-1.29085E+06 1.42099E-08-4.71482E-09
 -1       775-2.73412E+06-5.43577E+05-6.62710E+03-1.22180E+06-1.96451E-09 4.46744E-09
 -1       776-2.66265E+06-6.08359E+05-2.64110E+03-1.29877E+06-1.39698E-09 1.58980E-09
 -1       777-2.73972E+06-5.39470E+05-2.59653E+03-1.22355E+06 2.02272E-09 1.69166E-09
 -1       778-2.66656E+06-6.07990E+05-7.96100E+02-1.30549E+06-2.48110E-09 5.65342E-09
 -1       779-2.74441E+06-5.35952E+05-1.20484E+03-1.22506E+06-9.42964E-09-9.97898E-09
 -1       780-2.67002E+06-6.07603E+05-2.32556E+02-1.31095E+06-2.71757E-09 4.12547E-09
 -1       781-2.74808E+06-5.33153E+05-4.78392E+02-1.22625E+06-1.28130E-08-8.34916E-10
 -1       782-2.67266E+06-6.07238E+05 8.20681E+01-1.31495E+06-2.49456E-08-4.62660E-09
 -1       783-2.75063E+06-5.31242E+05 1.04141E+02-1.22708E+06-2.08820E-09-1.11643E-08
 -1       784-2.67417E+06-6.06796E+05 6.76300E+02-1.31740E+06 9.16771E-10 1.75669E-09
 -1       785-2.75204E+06-5.30175E+05 1.16452E+03-1.22759E+06-1.69839E-08 1.39607E-09
 -1       786 1.26296E+05-9.05895E+03 2.09574E+04-1.34136E+02 1.30095E-09-1.53341E-09
 -1       787 1.35383E+05 1.04874E+04 1.48268E+04 2.24505E+01 3.09218E-09 3.92629E-09
 -1       788 1.29800E+05-1.41998E+03 5.42282E+03-1.07554E+02 1.48327E-09 7.91715E-09
 -1       789 1.31301E+05 1.64286E+03 3.40524E+03-2.04040E+01-4.30341E-10 1.35768E-08
 -1       790 1.30378E+05-2.21564E+02 1.38092E+03-9.12869E+01-1.72220E-10 1.01964E-08
 -1       791 1.30625E+05 2.56141E+02 8.01877E+02-4.86703E+01-2.06033E-09 2.01437E-08
 -1       792 1.30476E+05-3.43023E+01 3.48366E+02-7.92878E+01-1.61712E-09-1.06347E-09
 -1       793 1.30510E+05 3.97122E+01 1.92473E+02-7.13096E+01-8.08647E-10-1.39105E-08
 -1       794 1.30493E+05-5.27253E+00 8.77969E+01-6.86472E+01 1.19687E-09-5.57392E-09
 -1       795 1.30490E+05 6.48397E+00 4.78501E+01-9.35263E+01-2.01791E-09 6.24953E-09
 -1       796 1.30496E+05-1.09062E+00 2.38016E+01-5.70707E+01 1.00436E-09 2.34433E-09
 -1       797 1.30488E+05 3.42382E+00 1.65280E+01-1.20065E+02 1.04938E-09 4.65591E-09
 -1       798 1.30495E+05-2.21614E+00 1.33367E+01-4.21076E+01 5.10995E-10 3.42023E-09
 -1       799 1.30494E+05 1.59052E+01 2.49356E+01-1.56581E+02 1.23679E-09-1.31048E-08
 -1       800 1.30490E+05-1.35723E+01 3.19825E+01-2.05550E+01 1.20687E-10-7.91479E-09
 -1       801 7.57991E+04-4.34925E+06-4.61730E+05 2.21910E+05 3.46627E-08-1.51904E-08
 -1       802-5.32114E+04-2.55965E+06 3.93594E+04-2.08986E+05 9.94733E-08-1.59280E-08
 -1       803-2.48357E+04-4.41669E+06-2.29184E+05 2.21309E+05 4.45834E-08 2.91620E-08
 -1       804-2.49168E+04-3.14757E+06 5.11004E+04 1.71684E+05-7.15499E-09-1.47588E-09
 -1       805 3.83065E+04-3.76656E+06-5.59562E+04-1.58537E+05-3.42152E-09-1.94208E-09
 -1       806-2.53765E+05-4.79052E+04-1.84837E+04-9.91285E+04-2.04454E-09-2.23054E-09
 -1       807-2.55421E+05-4.46857E+04-9.08084E+03-1.03373E+05 4.82396E-09 2.38929E-09
 -1       808-2.54257E+05-4.12596E+04-3.85249E+03-1.02297E+05-2.44199E-09-9.42191E-09
 -1       809-2.53521E+05-4.21265E+04-1.88380E+03-1.03589E+05 5.05906E-10 3.31670E-09
 -1       810-2.54334E+05-4.10280E+04-8.63330E+02-1.02438E+05 9.87802E-09 1.30910E-08
 -1       811-2.53375E+05-4.20227E+04-4.29239E+02-1.03561E+05 6.37488E-09-8.04175E-09
 -1       812-2.54347E+05-4.10471E+04-2.16744E+02-1.02438E+05 2.58296E-09-8.23525E-09
 -1       813-2.53356E+05-4.20237E+04-1.40431E+02-1.03547E+05-9.59062E-10-1.67001E-08
 -1       814-2.54343E+05-4.10537E+04-1.38273E+02-1.02436E+05-4.80304E-09-8.25912E-09
 -1       815-2.53361E+05-4.20249E+04-2.22348E+02-1.03543E+05 2.22644E-09 7.68887E-09
 -1       816-2.54329E+05-4.10516E+04-4.20758E+02-1.02434E+05 1.09867E-09 2.81807E-09
 -1       817-2.53435E+05-4.20646E+04-9.03397E+02-1.03537E+05-3.87899E-10-8.56676E-09
 -1       818-2.54278E+05-4.11771E+04-1.84220E+03-1.02375E+05 2.28374E-09-6.54836E-11
 -1       819-2.54443E+05-4.31799E+04-4.33547E+03-1.03304E+05-1.37516E-09-9.31095E-10
 -1       820-2.53939E+05-4.44447E+04-8.82375E+03-1.00969E+05-3.38150E-09-1.35823E-08
 -1       821-3.09135E+05 1.70921E+04-3.95305E+04 4.50471E+02 4.49937E-07-1.91012E-08
 -1       822-3.26255E+05-1.97868E+04-2.79719E+04-1.12397E+03 9.04630E-07-1.28498E-08
 -1       823-3.15739E+05 2.68019E+03-1.02378E+04 4.93608E+02 4.48892E-07 6.91489E-09
 -1       824-3.18538E+05-3.10124E+03-6.43958E+03-9.55250E+02 1.38261E-09 7.98173E-09
 -1       825-3.16850E+05 4.18960E+02-2.65125E+03 2.81756E+02 1.34616E-09-8.25025E-10
 -1       826-3.17233E+05-4.93323E+02-1.59107E+03-3.74696E+02-3.56060E-10 2.70981E-09
 -1       827-3.17041E+05 7.33902E+01-8.35418E+02-8.69557E+01-1.20841E-09 4.83516E-09
 -1       828-3.17060E+05-1.50725E+02-7.28135E+02 3.50253E+02-3.81365E-09-6.47880E-09
 -1       829-3.17023E+05 7.66661E+01-8.52458E+02-4.43206E+02 3.07818E-10 3.95588E-09
 -1       830-3.17286E+05-5.14336E+02-1.65908E+03 8.86053E+02 7.61498E-10 2.09553E-10
 -1       831-3.16817E+05 4.37548E+02-2.75355E+03-6.22766E+02-3.17302E-09 1.07086E-08
 -1       832-3.18618E+05-3.23053E+03-6.71020E+03 9.86065E+02-1.97164E-09 9.82561E-09
 -1       833-3.15692E+05 2.79112E+03-1.06666E+04-5.43219E+02-1.88684E-09-1.09594E-09
 -1       834-3.26605E+05-2.06109E+04-2.91332E+04 6.01185E+02-1.68143E-09-4.19277E-10
 -1       835-3.08831E+05 1.78039E+04-4.11879E+04-2.37873E+02 5.17375E-09 1.24237E-09
 -1       836-1.06092E+03 2.92454E+05 1.77868E+04-1.62402E+04-1.06593E-09-8.66748E-10
 -1       837 3.86486E+03 2.97991E+05 1.52173E+04-3.27013E+04-8.67203E-10-1.11886E-08
 -1       838-4.10383E+02 2.93984E+05 1.57383E+04-1.61753E+04-4.65661E-10 9.81140E-09
 -1       839 1.00699E+04 3.02616E+05 3.00018E+04-3.27414E+04 1.36424E-11-3.55794E-09
 -1       840-3.06242E+03 2.87786E+05 4.79419E+04-1.61998E+04-5.71163E-10 7.14732E-09
 -1       856-7.26117E+04 7.62958E+03-2.01062E+04-4.20638E+02-6.99345E-10-3.57250E-09
 -1       857-8.09111E+04-8.95228E+03-1.38420E+04 4.86555E+03-1.16140E-09-2.68074E-10
 -1       858-7.58927E+04 1.06924E+03-5.21773E+03-4.42706E+02-2.67147E-09-4.12683E-09
 -1       859-7.71443E+04-1.24644E+03-3.15025E+03 4.90009E+03-1.98823E-09 1.97532E-08
 -1       860-7.63830E+04 1.48945E+02-1.32286E+03-4.55218E+02-1.28057E-09 1.73947E-09
 -1       861-7.65798E+04-1.67178E+02-7.33196E+02 4.91722E+03-2.15712E-09-1.30283E-08
 -1       862-7.64595E+04 1.97391E+01-3.15739E+02-4.59853E+02 2.80682E-09-3.80435E-09
 -1       863-7.64880E+04-1.26005E+01-1.39896E+02 4.91950E+03 6.01637E-09-1.66515E-08
 -1       864-7.64751E+04-2.19489E+00-1.11246E+01-4.57500E+02 1.30584E-09-1.00752E-08
 -1       865-7.64505E+04 3.98292E+01 1.18029E+02 4.90724E+03 7.62910E-10-1.46833E-08
 -1       866-7.64952E+04-3.30101E+01 2.66586E+02-4.47592E+02-1.61151E-11-3.01441E-10
 -1       867-7.63173E+04 2.74867E+02 6.74728E+02 4.88029E+03 7.18984E-10 3.30738E-09
 -1       868-7.66045E+04-2.33867E+02 1.12554E+03-4.30545E+02 5.85942E-10-5.41911E-09
 -1       869-7.54864E+04 1.94520E+03 3.00393E+03 4.83548E+03 1.79796E-09-2.06626E-08
 -1       870-7.73202E+04-1.65925E+03 4.35826E+03-4.02781E+02-5.57407E-10 8.68499E-09
 -1       871-4.66729E+03-1.20284E+04-1.54870E+04 1.03024E+05 8.14907E-10-9.52241E-10
 -1       872-1.93624E+03-1.55370E+04-6.37548E+03 1.33572E+05 1.47338E-10 3.34694E-10
 -1       873 5.29553E+01-1.38859E+04 7.43029E+02 1.02798E+05 1.66438E-10-1.05911E-09
 -1       874 2.42485E+03-1.17472E+04 8.41266E+03 1.33611E+05-8.16954E-10 8.07790E-09
 -1       875 5.52910E+03-1.58839E+04 1.87644E+04 1.02988E+05 4.09273E-11-4.26735E-09
 -1       876 2.45277E+05 4.18697E+04 1.28486E+04 9.90571E+04-3.80300E-09-9.75888E-10
 -1       877 2.46069E+05 4.46323E+04 6.86157E+03 1.02795E+05 5.28416E-10 6.53472E-09
 -1       878 2.46477E+05 4.04480E+04 2.87468E+03 1.00112E+05 1.05365E-09 5.70071E-09
 -1       879 2.44322E+05 4.28904E+04 1.43219E+03 1.02884E+05 3.31738E-09 9.31681E-09
 -1       880 2.46564E+05 4.04327E+04 6.66960E+02 1.00155E+05 3.91469E-09 7.12419E-09
 -1       881 2.44206E+05 4.28162E+04 3.55753E+02 1.02865E+05 1.46258E-09-8.30084E-10
 -1       882 2.46572E+05 4.04436E+04 2.26898E+02 1.00156E+05 1.08380E-08 1.49844E-09
 -1       883 2.44198E+05 4.28125E+04 2.42793E+02 1.02859E+05 1.18171E-08-3.13847E-10
 -1       884 2.46567E+05 4.04410E+04 3.85204E+02 1.00157E+05 7.26453E-09-8.93351E-09
 -1       885 2.44228E+05 4.28180E+04 7.73840E+02 1.02869E+05 5.11375E-09 3.16095E-09
 -1       886 2.46537E+05 4.04184E+04 1.55935E+03 1.00154E+05 3.31035E-09-1.03864E-09
 -1       887 2.44503E+05 4.29977E+04 3.40609E+03 1.02908E+05 4.35904E-10 6.78915E-09
 -1       888 2.46322E+05 4.04562E+04 6.86336E+03 1.00044E+05-6.34174E-09 1.42095E-08
 -1       889 2.48591E+05 4.72452E+04 1.63957E+04 1.02781E+05-1.88989E-08 7.29869E-09
 -1       890 2.43525E+05 4.37788E+04 3.07083E+04 9.74270E+04-7.27528E-09 1.13123E-08
 -1       891-1.30390E+02-1.37843E+05-1.65813E+03 2.48386E+04 3.28782E-10 6.50107E-09
 -1       892-2.31637E+02-1.38252E+05-1.79188E+03 3.76200E+04 1.73964E-09-2.52385E-11
 -1       893-2.03164E+01-1.37896E+05-2.54853E+03 2.48440E+04 1.73009E-09-3.44153E-09
 -1       894-1.35632E+03-1.39221E+05-5.28277E+03 3.74844E+04-6.84850E-10 1.28825E-08
 -1       895-1.06557E+03-1.36795E+05-9.30620E+03 2.49732E+04-1.63197E-10 1.15515E-08
 -1       956-3.11363E+05-4.38272E+03-1.09866E+04 2.17765E+04 4.84761E-10-1.96303E-08
 -1       957-3.13529E+05-1.49272E+03-5.63989E+03 2.62188E+04-1.87356E-10-1.26629E-08
 -1       958-3.12341E+05-1.33677E+02-2.54106E+03 2.16467E+04-1.38061E-09 5.24642E-09
 -1       959-3.12511E+05-3.86680E+01-1.29788E+03 2.63623E+04-2.99224E-09 1.05845E-08
 -1       960-3.12431E+05 2.19551E+01-6.32840E+02 2.16340E+04 8.96307E-10 7.00902E-09
 -1       961-3.12439E+05 1.73288E+01-3.35906E+02 2.63769E+04-7.50333E-12 3.89400E-09
 -1       962-3.12449E+05 1.83803E+01-1.92632E+02 2.16320E+04-1.99043E-09 5.53382E-09
 -1       963-3.12436E+05 1.91432E+01-1.55282E+02 2.63795E+04-1.07957E-09 2.05955E-09
 -1       964-3.12453E+05 2.06063E+01-1.89384E+02 2.16314E+04-1.34310E-09 5.43287E-09
 -1       965-3.12447E+05 2.20643E+01-3.28006E+02 2.63792E+04 1.26624E-09-5.06338E-09
 -1       966-3.12442E+05 2.85789E+01-6.16269E+02 2.16322E+04 2.79670E-10-8.91987E-10
 -1       967-3.12526E+05-2.78503E+01-1.26417E+03 2.63698E+04 1.34492E-10-4.02451E-10
 -1       968-3.12361E+05-1.18634E+02-2.47430E+03 2.16409E+04 2.02772E-09-9.18405E-09
 -1       969-3.13526E+05-1.44021E+03-5.49351E+03 2.62692E+04 2.42517E-09-8.54970E-09
 -1       970-3.11414E+05-4.25464E+03-1.07007E+04 2.17330E+04-4.03361E-10 7.28960E-09
 -1       971-2.90844E+05-1.50080E+03-8.27323E+03 1.36303E+04-2.12458E-09-5.31389E-09
 -1       972-2.92850E+05-1.08329E+03-4.50552E+03 1.89928E+04-2.43199E-09-1.10949E-08
 -1       973-2.91765E+05-2.16001E+01-2.01771E+03 1.35178E+04-1.66665E-09-3.57704E-09
 -1       974-2.91899E+05-2.55352E+01-1.04547E+03 1.91158E+04 1.44269E-09 5.54166E-09
 -1       975-2.91837E+05 1.76654E+01-5.21954E+02 1.35072E+04 4.75848E-09 6.69536E-09
 -1       976-2.91844E+05 1.82595E+01-2.99955E+02 1.91290E+04-4.77053E-09 2.93983E-09
 -1       977-2.91851E+05 1.78448E+01-2.15615E+02 1.35046E+04-4.53838E-10 7.27562E-09
 -1       978-2.91848E+05 2.34067E+01-2.49462E+02 1.91328E+04 6.66387E-09 4.77826E-09
 -1       979-2.91851E+05 2.48005E+01-3.98358E+02 1.35034E+04 3.66856E-09 7.09747E-09
 -1       980-2.91877E+05 2.59368E+01-7.67644E+02 1.91335E+04 2.31800E-09 2.67232E-09
 -1       981-2.91826E+05 4.39437E+01-1.48595E+03 1.35039E+04 8.28095E-10 2.59001E-09
 -1       982-2.92081E+05-8.38044E+01-3.07097E+03 1.91276E+04-1.02432E-09-5.26214E-10
 -1       983-2.91639E+05-5.11326E+01-5.96667E+03 1.35094E+04 7.44876E-10 7.01903E-10
 -1       984-2.94950E+05-3.19988E+03-1.33617E+04 1.90507E+04 1.06911E-09 5.10295E-09
 -1       985-2.88938E+05-4.41717E+03-2.45364E+04 1.35831E+04 3.04681E-10-1.24783E-09
 -3
    1PSTEP                        15           8           1          
  100CL  108 6.09375E-01         409                     0    8           1
 -4  DISP        4    1
 -5  D1          1    2    1    0
 -5  D2          1    2    2    0
 -5  D3          1    2    3    0
 -5  ALL         1    2    0    0    1ALL
 -1         1 1.30197E-03 0.00000E+00 0.00000E+00
 -1         2 1.22691E-03-4.08812E-28 1.32349E-23
 -1         3 2.69083E-04-1.86014E-27 1.32349E-23
 -1         5 1.49523E-04-8.32327E-26-3.30872E-24
 -1         8 1.28244E-03-6.15929E-07 0.00000E+00
 -1         9 1.25092E-03-3.71108E-06 0.00000E+00
 -1        10 2.44824E-04-3.24174E-06-1.32349E-23
 -1        12 1.50384E-04 7.07137E-07 0.00000E+00
 -1        15 1.25901E-03-6.77737E-07 0.00000E+00
 -1        16 1.26584E-03-4.51207E-06 0.00000E+00
 -1        17 1.69335E-04-7.13558E-06 0.00000E+00
 -1        18 1.51564E-04 2.07390E-05 0.00000E+00
 -1        19 1.52979E-04 1.41709E-06 0.00000E+00
 -1        20 1.53125E-04 7.79572E-07 0.00000E+00
 -1        21 1.52371E-04-2.69706E-06 0.00000E+00
 -1        24 2.71929E-05-1.03267E-05 0.00000E+00
 -1        25 1.57440E-04 2.09238E-05 0.00000E+00
 -1        26 1.58141E-04 1.96091E-06 0.00000E+00
 -1        27 1.56212E-04-2.38479E-06 0.00000E+00
 -1        28 1.55836E-04-3.26495E-06 0.00000E+00
 -1        32 0.00000E+00 0.00000E+00 0.00000E+00
 -1        33 1.62249E-04 2.62396E-06 0.00000E+00
 -1        34 1.60359E-04-2.42428E-06 0.00000E+00
 -1        35 1.58615E-04-3.57266E-06 0.00000E+00
 -1        51 1.30070E-03-1.11078E-07 0.00000E+00
 -1        52 1.29836E-03-2.10005E-07 0.00000E+00
 -1        53 1.29514E-03-3.07834E-07 0.00000E+00
 -1        54 1.29127E-03-4.06565E-07 0.00000E+00
 -1        55 1.28696E-03-5.07566E-07 6.20385E-24
 -1        56 1.29894E-03-3.60698E-07 5.29396E-23
 -1        57 1.29532E-03 5.62370E-07 2.64698E-23
 -1        58 1.29128E-03 2.61547E-06 1.05879E-22
 -1        59 1.28689E-03 5.51838E-06 5.29396E-23
 -1        60 1.28232E-03 8.89224E-06 0.00000E+00
 -1        61 1.27773E-03 1.23193E-05-5.29396E-23
 -1        62 1.27328E-03 1.53760E-05 0.00000E+00
 -1        63 1.26913E-03 1.76623E-05-5.29396E-23
 -1        64 1.26537E-03 1.88822E-05-1.05879E-22
 -1        65 1.26210E-03 1.88106E-05-5.29396E-23
 -1        66 1.25934E-03 1.73962E-05-1.05879E-22
 -1        67 1.25707E-03 1.46782E-05 0.00000E+00
 -1        68 1.25520E-03 1.08702E-05 0.00000E+00
 -1        69 1.25365E-03 6.26546E-06 2.64698E-23
 -1        70 1.25224E-03 1.25215E-06 5.29396E-23
 -1        86 1.22798E-03-6.09236E-07 0.00000E+00
 -1        87 1.23115E-03-1.22288E-06 0.00000E+00
 -1        88 1.23578E-03-1.84187E-06-2.64698E-23
 -1        89 1.24123E-03-2.46556E-06 1.32349E-23
 -1        90 1.24657E-03-3.08847E-06 0.00000E+00
 -1       121 2.68402E-04-5.29979E-07-1.32349E-23
 -1       122 2.66362E-04-1.06174E-06 0.00000E+00
 -1       123 2.62969E-04-1.59704E-06 0.00000E+00
 -1       124 2.58237E-04-2.13768E-06 0.00000E+00
 -1       125 2.52181E-04-2.68512E-06 1.32349E-23
 -1       191 1.49547E-04 1.17864E-07-3.30872E-24
 -1       192 1.49619E-04 2.35724E-07 0.00000E+00
 -1       193 1.49739E-04 3.53582E-07 0.00000E+00
 -1       194 1.49906E-04 4.71435E-07-8.27181E-25
 -1       195 1.50121E-04 5.89282E-07 0.00000E+00
 -1       251 1.28176E-03-1.14176E-05 1.32349E-23
 -1       252 1.28036E-03-5.13079E-05 6.61744E-24
 -1       253 1.27797E-03-1.12448E-04 1.32349E-23
 -1       254 1.27473E-03-1.86470E-04 0.00000E+00
 -1       255 1.27144E-03-2.61280E-04 0.00000E+00
 -1       256 1.26890E-03-3.24767E-04 6.61744E-24
 -1       257 1.26736E-03-3.68105E-04-1.32349E-23
 -1       258 1.26662E-03-3.82962E-04-6.61744E-24
 -1       259 1.26589E-03-3.68929E-04-1.32349E-23
 -1       260 1.26439E-03-3.26347E-04 0.00000E+00
 -1       261 1.26189E-03-2.63497E-04-1.32349E-23
 -1       262 1.25863E-03-1.89157E-04-6.61744E-24
 -1       263 1.25541E-03-1.15438E-04 0.00000E+00
 -1       264 1.25302E-03-5.44397E-05 1.32349E-23
 -1       265 1.25162E-03-1.45671E-05 0.00000E+00
 -1       266 1.27853E-03-6.35176E-07-3.30872E-24
 -1       267 1.27463E-03-6.44387E-07-8.27181E-25
 -1       268 1.27072E-03-6.54233E-07 8.27181E-25
 -1       269 1.26682E-03-6.62197E-07 2.06795E-25
 -1       270 1.26292E-03-6.70117E-07-2.06795E-25
 -1       271 1.28003E-03 2.86725E-06 2.64698E-23
 -1       272 1.27767E-03 6.15169E-06 0.00000E+00
 -1       273 1.27541E-03 9.16548E-06 2.64698E-23
 -1       274 1.27328E-03 1.18255E-05 1.32349E-23
 -1       275 1.27131E-03 1.40573E-05 2.64698E-23
 -1       276 1.26953E-03 1.57895E-05 0.00000E+00
 -1       277 1.26796E-03 1.69581E-05-2.64698E-23
 -1       278 1.26663E-03 1.75055E-05-1.32349E-23
 -1       279 1.26554E-03 1.73823E-05 0.00000E+00
 -1       280 1.26473E-03 1.65475E-05 1.32349E-23
 -1       281 1.26419E-03 1.49691E-05-2.64698E-23
 -1       282 1.26394E-03 1.26247E-05-1.32349E-23
 -1       283 1.26397E-03 9.50134E-06 2.64698E-23
 -1       284 1.26430E-03 5.59719E-06 0.00000E+00
 -1       285 1.26492E-03 9.18030E-07 2.64698E-23
 -1       301 1.25359E-03-3.86446E-06 6.61744E-24
 -1       302 1.25550E-03-3.98972E-06 0.00000E+00
 -1       303 1.25717E-03-4.11248E-06-1.32349E-23
 -1       304 1.25910E-03-4.23520E-06 1.32349E-23
 -1       305 1.26182E-03-4.36139E-06 0.00000E+00
 -1       306 1.27733E-03-1.00716E-04 0.00000E+00
 -1       307 1.33746E-03-3.74763E-04 0.00000E+00
 -1       308 1.40521E-03-7.81837E-04 0.00000E+00
 -1       309 1.46963E-03-1.26157E-03-5.29396E-23
 -1       310 1.53457E-03-1.73235E-03 1.05879E-22
 -1       311 1.60221E-03-2.11342E-03 0.00000E+00
 -1       312 1.65740E-03-2.34937E-03 0.00000E+00
 -1       313 1.67105E-03-2.40371E-03 0.00000E+00
 -1       314 1.60962E-03-2.27844E-03 1.05879E-22
 -1       315 1.45069E-03-1.99968E-03 5.29396E-23
 -1       316 1.20407E-03-1.61643E-03 0.00000E+00
 -1       317 9.02166E-04-1.17999E-03-5.29396E-23
 -1       318 6.03809E-04-7.46850E-04-1.05879E-22
 -1       319 3.66880E-04-3.73819E-04 0.00000E+00
 -1       320 2.20116E-04-1.11436E-04 0.00000E+00
 -1       336 2.36023E-04-3.85148E-06-1.32349E-23
 -1       337 2.25641E-04-4.47639E-06 0.00000E+00
 -1       338 2.13724E-04-5.11738E-06 1.32349E-23
 -1       339 2.00327E-04-5.77464E-06 0.00000E+00
 -1       340 1.85508E-04-6.45125E-06 0.00000E+00
 -1       406 1.50694E-04 8.26078E-07 0.00000E+00
 -1       407 1.51052E-04 9.44990E-07 0.00000E+00
 -1       408 1.51460E-04 1.06382E-06-3.30872E-24
 -1       409 1.51917E-04 1.18241E-06 8.27181E-25
 -1       410 1.52424E-04 1.30054E-06 1.65436E-24
 -1       521 1.29348E-03-1.09980E-04 1.05879E-22
 -1       522 1.35455E-03-4.03488E-04 5.29396E-23
 -1       523 1.42092E-03-8.38436E-04-1.05879E-22
 -1       524 1.48185E-03-1.34912E-03 5.29396E-23
 -1       525 1.54364E-03-1.84960E-03-1.05879E-22
 -1       526 1.61053E-03-2.25498E-03 5.29396E-23
 -1       527 1.66659E-03-2.50497E-03 0.00000E+00
 -1       528 1.67984E-03-2.56165E-03-5.29396E-23
 -1       529 1.61191E-03-2.42645E-03 0.00000E+00
 -1       530 1.43785E-03-2.12978E-03 5.29396E-23
 -1       531 1.16737E-03-1.72365E-03 0.00000E+00
 -1       532 8.36445E-04-1.26290E-03 0.00000E+00
 -1       533 5.08901E-04-8.05083E-04 0.00000E+00
 -1       534 2.47610E-04-4.08100E-04 0.00000E+00
 -1       535 8.50936E-05-1.26277E-04 1.05879E-22
 -1       536 1.68834E-04 1.95760E-05 0.00000E+00
 -1       537 1.67650E-04 6.59571E-05 0.00000E+00
 -1       538 1.65850E-04 1.24807E-04 0.00000E+00
 -1       539 1.63744E-04 1.88859E-04 0.00000E+00
 -1       540 1.61848E-04 2.49314E-04 0.00000E+00
 -1       541 1.60598E-04 2.97391E-04 0.00000E+00
 -1       542 1.59998E-04 3.27810E-04 3.30872E-24
 -1       543 1.59815E-04 3.35399E-04 1.65436E-24
 -1       544 1.59561E-04 3.20833E-04-3.30872E-24
 -1       545 1.58789E-04 2.84941E-04-1.65436E-24
 -1       546 1.57413E-04 2.34115E-04-3.30872E-24
 -1       547 1.55588E-04 1.74836E-04-1.65436E-24
 -1       548 1.53790E-04 1.16028E-04 0.00000E+00
 -1       549 1.52482E-04 6.66095E-05-1.65436E-24
 -1       550 1.51781E-04 3.28047E-05 0.00000E+00
 -1       551 1.49754E-04-7.57993E-06 0.00000E+00
 -1       552 1.27374E-04-8.07567E-06 0.00000E+00
 -1       553 1.03054E-04-8.61246E-06-2.66895E-24
 -1       554 7.76690E-05-9.17581E-06-3.30872E-24
 -1       555 5.20921E-05-9.74618E-06 0.00000E+00
 -1       556 1.63571E-04 7.67908E-06 0.00000E+00
 -1       557 1.58961E-04 1.95671E-05 0.00000E+00
 -1       558 1.55394E-04 2.87651E-05 0.00000E+00
 -1       559 1.52764E-04 3.55291E-05 0.00000E+00
 -1       560 1.50966E-04 4.01148E-05 0.00000E+00
 -1       561 1.49898E-04 4.27802E-05 0.00000E+00
 -1       562 1.49457E-04 4.37837E-05 0.00000E+00
 -1       563 1.49544E-04 4.33846E-05 0.00000E+00
 -1       564 1.50058E-04 4.18426E-05 0.00000E+00
 -1       565 1.50903E-04 3.94179E-05 0.00000E+00
 -1       566 1.51979E-04 3.63709E-05 0.00000E+00
 -1       567 1.53190E-04 3.29625E-05 0.00000E+00
 -1       568 1.54438E-04 2.94533E-05 1.24077E-24
 -1       569 1.55627E-04 2.61040E-05 0.00000E+00
 -1       570 1.56660E-04 2.31754E-05 0.00000E+00
 -1       571 1.51650E-04 1.94898E-05-8.27181E-25
 -1       572 1.51738E-04 1.81859E-05-1.24077E-24
 -1       573 1.51826E-04 1.68396E-05 0.00000E+00
 -1       574 1.51914E-04 1.54639E-05 0.00000E+00
 -1       575 1.52003E-04 1.40719E-05 0.00000E+00
 -1       576 1.52091E-04 1.26766E-05-4.96308E-24
 -1       577 1.52180E-04 1.12910E-05 3.30872E-24
 -1       578 1.52268E-04 9.92833E-06 0.00000E+00
 -1       579 1.52357E-04 8.60159E-06 0.00000E+00
 -1       580 1.52446E-04 7.32389E-06 0.00000E+00
 -1       581 1.52534E-04 6.10835E-06 0.00000E+00
 -1       582 1.52623E-04 4.96800E-06 3.30872E-24
 -1       583 1.52712E-04 3.91593E-06-6.61744E-24
 -1       584 1.52801E-04 2.96506E-06 0.00000E+00
 -1       585 1.52890E-04 2.12820E-06 0.00000E+00
 -1       586 1.52494E-04 2.07717E-05 0.00000E+00
 -1       587 1.53392E-04 2.08038E-05 0.00000E+00
 -1       588 1.54297E-04 2.08356E-05 8.27181E-25
 -1       589 1.55248E-04 2.08668E-05 0.00000E+00
 -1       590 1.56283E-04 2.08970E-05 0.00000E+00
 -1       591 1.51981E-04 1.95604E-05 1.03398E-25
 -1       592 1.52402E-04 1.83585E-05 0.00000E+00
 -1       593 1.52830E-04 1.71392E-05 8.27181E-25
 -1       594 1.53262E-04 1.59076E-05 4.13590E-25
 -1       595 1.53697E-04 1.46685E-05 0.00000E+00
 -1       596 1.54133E-04 1.34270E-05 0.00000E+00
 -1       597 1.54568E-04 1.21879E-05 0.00000E+00
 -1       598 1.54999E-04 1.09561E-05 0.00000E+00
 -1       599 1.55427E-04 9.73674E-06 0.00000E+00
 -1       600 1.55848E-04 8.53456E-06 2.06795E-25
 -1       601 1.56260E-04 7.35457E-06-4.13590E-25
 -1       602 1.56663E-04 6.20166E-06-2.06795E-25
 -1       603 1.57054E-04 5.08078E-06 2.06795E-25
 -1       604 1.57431E-04 3.99695E-06 2.58494E-26
 -1       605 1.57793E-04 2.95502E-06 8.27181E-25
 -1       606 1.52992E-04 9.06536E-07 0.00000E+00
 -1       607 1.53002E-04 4.86415E-07 0.00000E+00
 -1       608 1.53012E-04 1.51420E-07 0.00000E+00
 -1       609 1.53021E-04-1.04435E-07 0.00000E+00
 -1       610 1.53029E-04-2.87182E-07 0.00000E+00
 -1       611 1.53038E-04-4.02924E-07 0.00000E+00
 -1       612 1.53047E-04-4.57769E-07 0.00000E+00
 -1       613 1.53056E-04-4.57835E-07 0.00000E+00
 -1       614 1.53065E-04-4.09238E-07 0.00000E+00
 -1       615 1.53073E-04-3.18099E-07 0.00000E+00
 -1       616 1.53082E-04-1.90533E-07 0.00000E+00
 -1       617 1.53091E-04-3.26585E-08 0.00000E+00
 -1       618 1.53100E-04 1.49405E-07 0.00000E+00
 -1       619 1.53108E-04 3.49543E-07 0.00000E+00
 -1       620 1.53117E-04 5.61638E-07 0.00000E+00
 -1       621 1.53645E-04 1.50805E-06 0.00000E+00
 -1       622 1.54418E-04 1.59927E-06 8.27181E-25
 -1       623 1.55277E-04 1.69041E-06 1.65436E-24
 -1       624 1.56198E-04 1.78133E-06 8.27181E-25
 -1       625 1.57160E-04 1.87204E-06 1.65436E-24
 -1       626 1.53270E-04 9.38295E-07 0.00000E+00
 -1       627 1.53537E-04 5.29540E-07 1.65436E-24
 -1       628 1.53780E-04 1.83044E-07 0.00000E+00
 -1       629 1.54003E-04-1.09354E-07-1.65436E-24
 -1       630 1.54208E-04-3.55834E-07 3.30872E-24
 -1       631 1.54400E-04-5.64605E-07-1.65436E-24
 -1       632 1.54581E-04-7.43874E-07 3.30872E-24
 -1       633 1.54753E-04-9.01857E-07 1.65436E-24
 -1       634 1.54921E-04-1.04676E-06 3.30872E-24
 -1       635 1.55087E-04-1.18679E-06 0.00000E+00
 -1       636 1.55254E-04-1.33017E-06 0.00000E+00
 -1       637 1.55425E-04-1.48509E-06 1.65436E-24
 -1       638 1.55604E-04-1.65978E-06 1.65436E-24
 -1       639 1.55793E-04-1.86246E-06-1.65436E-24
 -1       640 1.55995E-04-2.10136E-06 1.65436E-24
 -1       656 1.53132E-04 2.65009E-07-6.61744E-24
 -1       657 1.53540E-04-2.70311E-07 0.00000E+00
 -1       658 1.54208E-04-8.04217E-07 0.00000E+00
 -1       659 1.54993E-04-1.33775E-06-6.61744E-24
 -1       660 1.55718E-04-1.87292E-06-6.61744E-24
 -1       661 1.53130E-04 9.59274E-07 8.27181E-25
 -1       662 1.53167E-04 1.06087E-06 0.00000E+00
 -1       663 1.53231E-04 1.08828E-06-1.65436E-24
 -1       664 1.53322E-04 1.04667E-06-8.27181E-25
 -1       665 1.53438E-04 9.40546E-07 1.65436E-24
 -1       666 1.53575E-04 7.74553E-07 0.00000E+00
 -1       667 1.53734E-04 5.53068E-07 1.65436E-24
 -1       668 1.53912E-04 2.80420E-07-8.27181E-25
 -1       669 1.54107E-04-3.92304E-08 1.65436E-24
 -1       670 1.54319E-04-4.01804E-07 8.27181E-25
 -1       671 1.54545E-04-8.03341E-07-1.65436E-24
 -1       672 1.54784E-04-1.23999E-06 8.27181E-25
 -1       673 1.55034E-04-1.70794E-06-1.65436E-24
 -1       674 1.55295E-04-2.20374E-06 0.00000E+00
 -1       675 1.55564E-04-2.72332E-06-4.13590E-25
 -1       676 1.52951E-04-2.79226E-06 0.00000E+00
 -1       677 1.53530E-04-2.88743E-06-1.65436E-24
 -1       678 1.54108E-04-2.98254E-06 3.30872E-24
 -1       679 1.54686E-04-3.07737E-06-1.65436E-24
 -1       680 1.55262E-04-3.17219E-06 0.00000E+00
 -1       771 1.78603E-05 1.02120E-05 0.00000E+00
 -1       772 9.96607E-06 2.70732E-05 0.00000E+00
 -1       773 3.44175E-06 4.04404E-05 0.00000E+00
 -1       774-1.80552E-06 5.05177E-05 0.00000E+00
 -1       775-5.86708E-06 5.75161E-05 0.00000E+00
 -1       776-8.83789E-06 6.16582E-05 0.00000E+00
 -1       777-1.08132E-05 6.31736E-05 5.29396E-23
 -1       778-1.18903E-05 6.23015E-05 0.00000E+00
 -1       779-1.21663E-05 5.92866E-05 0.00000E+00
 -1       780-1.17401E-05 5.43817E-05-2.64698E-23
 -1       781-1.07103E-05 4.78441E-05 0.00000E+00
 -1       782-9.17650E-06 3.99373E-05 0.00000E+00
 -1       783-7.23825E-06 3.09277E-05 0.00000E+00
 -1       784-4.99595E-06 2.10861E-05-2.64698E-23
 -1       785-2.54949E-06 1.06854E-05 5.29396E-23
 -1       786 1.57480E-04 1.95230E-05 5.16988E-26
 -1       787 1.57523E-04 1.81697E-05 0.00000E+00
 -1       788 1.57567E-04 1.68561E-05 0.00000E+00
 -1       789 1.57610E-04 1.55744E-05 8.27181E-25
 -1       790 1.57654E-04 1.43202E-05-1.65436E-24
 -1       791 1.57698E-04 1.30888E-05-8.27181E-25
 -1       792 1.57742E-04 1.18781E-05 1.65436E-24
 -1       793 1.57786E-04 1.06861E-05-8.27181E-25
 -1       794 1.57831E-04 9.51244E-06 1.65436E-24
 -1       795 1.57875E-04 8.35705E-06 0.00000E+00
 -1       796 1.57919E-04 7.22160E-06 0.00000E+00
 -1       797 1.57963E-04 6.10781E-06 0.00000E+00
 -1       798 1.58007E-04 5.01963E-06 0.00000E+00
 -1       799 1.58052E-04 3.96106E-06 8.27181E-25
 -1       800 1.58096E-04 2.93912E-06 0.00000E+00
 -1       801 1.24857E-04 1.85800E-05 0.00000E+00
 -1       802 2.58686E-05 1.20151E-05 0.00000E+00
 -1       803-6.12795E-05 6.34558E-06 5.29396E-23
 -1       804-5.93351E-05 4.30540E-06 0.00000E+00
 -1       805-2.04291E-05 1.90042E-06 0.00000E+00
 -1       806 1.57864E-04 1.94633E-05 3.30872E-24
 -1       807 1.58273E-04 1.80294E-05 8.27181E-25
 -1       808 1.58671E-04 1.66264E-05 0.00000E+00
 -1       809 1.59055E-04 1.52576E-05 1.65436E-24
 -1       810 1.59425E-04 1.39260E-05 0.00000E+00
 -1       811 1.59780E-04 1.26349E-05 0.00000E+00
 -1       812 1.60119E-04 1.13873E-05 3.30872E-24
 -1       813 1.60440E-04 1.01863E-05 8.27181E-25
 -1       814 1.60743E-04 9.03495E-06 1.65436E-24
 -1       815 1.61026E-04 7.93638E-06 0.00000E+00
 -1       816 1.61288E-04 6.89364E-06 1.65436E-24
 -1       817 1.61528E-04 5.90977E-06 1.65436E-24
 -1       818 1.61746E-04 4.98783E-06-3.30872E-24
 -1       819 1.61938E-04 4.13088E-06-8.27181E-25
 -1       820 1.62106E-04 3.34193E-06 0.00000E+00
 -1       821 1.58027E-04 8.62857E-07 0.00000E+00
 -1       822 1.57905E-04-5.16226E-07 0.00000E+00
 -1       823 1.57784E-04-2.02364E-06 3.30872E-24
 -1       824 1.57662E-04-3.50594E-06 0.00000E+00
 -1       825 1.57540E-04-4.81605E-06-3.30872E-24
 -1       826 1.57418E-04-5.80777E-06 0.00000E+00
 -1       827 1.57296E-04-6.41344E-06 0.00000E+00
 -1       828 1.57174E-04-6.56750E-06 0.00000E+00
 -1       829 1.57053E-04-6.31571E-06-3.30872E-24
 -1       830 1.56931E-04-5.70605E-06-1.65436E-24
 -1       831 1.56809E-04-4.87473E-06 0.00000E+00
 -1       832 1.56687E-04-3.95916E-06 1.65436E-24
 -1       833 1.56565E-04-3.11756E-06-3.30872E-24
 -1       834 1.56445E-04-2.50772E-06 0.00000E+00
 -1       835 1.56325E-04-2.23047E-06 0.00000E+00
 -1       836 1.59012E-04 2.07106E-06 0.00000E+00
 -1       837 1.59767E-04 2.18385E-06-1.65436E-24
 -1       838 1.60438E-04 2.29652E-06-3.30872E-24
 -1       839 1.61054E-04 2.40851E-06 0.00000E+00
 -1       840 1.61648E-04 2.52034E-06 4.13590E-25
 -1       856 1.56192E-04-2.68869E-06 0.00000E+00
 -1       857 1.56169E-04-2.86777E-06 5.16988E-26
 -1       858 1.56146E-04-2.94150E-06 0.00000E+00
 -1       859 1.56122E-04-2.92943E-06 2.06795E-25
 -1       860 1.56099E-04-2.85123E-06 0.00000E+00
 -1       861 1.56075E-04-2.72656E-06 0.00000E+00
 -1       862 1.56052E-04-2.57518E-06 8.27181E-25
 -1       863 1.56028E-04-2.41684E-06-4.13590E-25
 -1       864 1.56004E-04-2.27132E-06 0.00000E+00
 -1       865 1.55981E-04-2.15836E-06-4.13590E-25
 -1       866 1.55957E-04-2.09769E-06 0.00000E+00
 -1       867 1.55933E-04-2.10899E-06 4.13590E-25
 -1       868 1.55909E-04-2.21188E-06 0.00000E+00
 -1       869 1.55885E-04-2.42591E-06 0.00000E+00
 -1       870 1.55861E-04-2.77049E-06 0.00000E+00
 -1       871 1.56772E-04-2.38753E-06-4.13590E-25
 -1       872 1.57464E-04-2.39316E-06 0.00000E+00
 -1       873 1.58229E-04-2.39936E-06 0.00000E+00
 -1       874 1.59006E-04-2.40623E-06 2.06795E-25
 -1       875 1.59736E-04-2.41364E-06-2.06795E-25
 -1       876 1.56441E-04-2.67601E-06-3.30872E-24
 -1       877 1.56650E-04-2.90613E-06 0.00000E+00
 -1       878 1.56839E-04-3.08251E-06-3.30872E-24
 -1       879 1.57011E-04-3.21192E-06 0.00000E+00
 -1       880 1.57167E-04-3.30120E-06 3.30872E-24
 -1       881 1.57312E-04-3.35712E-06 0.00000E+00
 -1       882 1.57446E-04-3.38646E-06 0.00000E+00
 -1       883 1.57573E-04-3.39599E-06 0.00000E+00
 -1       884 1.57695E-04-3.39246E-06 3.30872E-24
 -1       885 1.57815E-04-3.38263E-06 0.00000E+00
 -1       886 1.57934E-04-3.37326E-06 0.00000E+00
 -1       887 1.58057E-04-3.37111E-06 0.00000E+00
 -1       888 1.58184E-04-3.38297E-06 0.00000E+00
 -1       889 1.58319E-04-3.41573E-06 0.00000E+00
 -1       890 1.58463E-04-3.47613E-06 1.65436E-24
 -1       891 1.56432E-04-3.31656E-06-1.65436E-24
 -1       892 1.57006E-04-3.36832E-06 4.13590E-25
 -1       893 1.57535E-04-3.42002E-06-1.65436E-24
 -1       894 1.57996E-04-3.47154E-06-4.13590E-25
 -1       895 1.58363E-04-3.52289E-06 8.27181E-25
 -1       956 1.62133E-04 2.05522E-06-3.30872E-24
 -1       957 1.62015E-04 1.56398E-06 0.00000E+00
 -1       958 1.61897E-04 1.14133E-06 0.00000E+00
 -1       959 1.61778E-04 7.77848E-07 0.00000E+00
 -1       960 1.61660E-04 4.64068E-07 0.00000E+00
 -1       961 1.61541E-04 1.90503E-07 0.00000E+00
 -1       962 1.61423E-04-5.23466E-08 0.00000E+00
 -1       963 1.61304E-04-2.73993E-07 0.00000E+00
 -1       964 1.61186E-04-4.83946E-07 0.00000E+00
 -1       965 1.61067E-04-6.91714E-07 1.65436E-24
 -1       966 1.60949E-04-9.06816E-07 3.30872E-24
 -1       967 1.60830E-04-1.13876E-06 1.65436E-24
 -1       968 1.60712E-04-1.39704E-06 0.00000E+00
 -1       969 1.60594E-04-1.69115E-06-1.65436E-24
 -1       970 1.60476E-04-2.03053E-06-3.30872E-24
 -1       971 1.60251E-04-2.80960E-06 3.30872E-24
 -1       972 1.60142E-04-3.10553E-06 0.00000E+00
 -1       973 1.60033E-04-3.32193E-06 0.00000E+00
 -1       974 1.59923E-04-3.46905E-06 0.00000E+00
 -1       975 1.59813E-04-3.55713E-06 0.00000E+00
 -1       976 1.59704E-04-3.59645E-06-1.65436E-24
 -1       977 1.59594E-04-3.59729E-06-3.30872E-24
 -1       978 1.59484E-04-3.56996E-06-1.65436E-24
 -1       979 1.59375E-04-3.52474E-06 0.00000E+00
 -1       980 1.59265E-04-3.47195E-06 1.65436E-24
 -1       981 1.59156E-04-3.42189E-06 3.30872E-24
 -1       982 1.59046E-04-3.38486E-06 0.00000E+00
 -1       983 1.58937E-04-3.37116E-06 0.00000E+00
 -1       984 1.58828E-04-3.39108E-06 1.65436E-24
 -1       985 1.58719E-04-3.45490E-06 0.00000E+00
 -3
    1PSTEP                        16           8           1          
  100CL  108 6.09375E-01         409                     0    8           1
 -4  STRESS      6    1
 -5  SXX         1    4    1    1
 -5  SYY         1    4    2    2
 -5  SZZ         1    4    3    3
 -5  SXY         1    4    1    2
 -5  SYZ         1    4    2    3
 -5  SZX         1    4    3    1
 -1         1-3.72522E+06-1.43763E+06-8.15164E+05-1.51053E+06 2.11003E-10 1.21363E-08
 -1         2 8.06549E+02-1.73370E+06 2.89037E+03 1.57462E+04 3.86990E-10 9.42533E-08
 -1         3-8.47494E+02-1.50875E+06 3.67468E+02-1.62126E+03-3.17513E-10-3.69546E-08
 -1         5-1.71953E+01 3.37306E+05-4.71996E-01 3.61045E+00-1.97574E-10-5.54701E-09
 -1         8-8.02281E+05-2.74647E+05-7.58864E+04-4.52414E+05 5.27507E-11-2.41889E-08
 -1         9 3.70833E+06-6.98725E+05 6.82269E+05-7.94427E+05 2.43948E-08-1.23400E-09
 -1        10-1.76078E+03-1.57207E+06-3.20853E+03-1.09586E+04-9.93714E-09-4.51320E-08
 -1        12-1.28764E+01 3.39025E+05 2.86366E+02-6.24976E+00 9.46784E-10-1.45522E-08
 -1        15 1.48222E+03 8.14563E+02 4.79127E+03 2.50243E+00 1.15364E-10 1.21234E-07
 -1        16 9.32643E+06-3.93378E+05 1.34354E+06-1.07998E+06 1.84518E-08 3.36440E-08
 -1        17 3.21890E+06 2.11683E+06 8.83563E+05 2.18434E+06 1.25263E-08 2.08267E-08
 -1        18 6.19899E+04 1.19015E+04-1.16617E+04-9.94711E+04 1.12746E-08 6.32372E-09
 -1        19 1.08040E+05 1.24942E+05-8.14494E+02 2.03060E+04 5.30054E-10-6.92198E-09
 -1        20-6.46930E+04-5.08366E+05-1.13521E+05 2.67453E+04 1.57646E-10 2.71272E-09
 -1        21-4.32647E+01-2.72086E+05-8.58386E+02 1.08127E+02 5.49379E-09-1.94963E-09
 -1        24 5.02686E+06 4.51418E+06 1.58551E+06 4.11906E+06-1.11075E-07-4.49363E-08
 -1        25-8.01850E+03-2.22225E+05-2.53305E+04-3.69590E+05-7.25959E-10 4.30591E-09
 -1        26-4.60283E+04 8.06674E+04-2.14836E+04-1.60738E+03 1.03209E-09-1.39322E-08
 -1        27-7.09653E+04-2.75726E+05-1.01712E+05 6.17201E+04 4.70178E-09-5.33115E-09
 -1        28 2.06859E+04-7.74346E+04 1.54916E+04 2.05055E+04-1.05834E-09 6.53252E-09
 -1        32-1.53456E+06-2.69160E+06-1.39427E+05-3.06871E+04-3.36950E-08-4.86580E-09
 -1        33-1.60241E+05 8.10986E+04 2.86126E+04-3.58686E+04-1.30937E-09 6.43680E-09
 -1        34-2.01197E+05-2.15501E+04 5.79734E+02 6.60162E+04-1.75202E-09 5.97690E-09
 -1        35-2.11979E+04-3.07312E+04-1.21857E+03 4.73704E+04-3.12336E-10 7.22745E-10
 -1        51 4.06034E+04-2.52541E+05 8.95620E+04-7.37809E+05 1.45519E-10-1.18220E-07
 -1        52 1.57749E+04-2.39605E+05 4.97395E+04-8.60294E+05 1.18234E-09-6.07106E-08
 -1        53 5.65495E+03-2.54552E+05 3.02717E+04-7.35152E+05 8.25821E-10-3.57250E-08
 -1        54 1.39527E+04-2.51541E+05 3.36941E+04-8.63047E+05-7.27596E-12-1.42390E-07
 -1        55 2.87094E+04-2.62325E+05 5.12818E+04-7.34768E+05 5.60249E-10 8.98071E-08
 -1        56-7.06199E+06-7.95322E+05-6.02298E+05-2.75157E+06-1.70839E-08-8.41974E-08
 -1        57-7.39303E+06-1.25197E+06-4.06195E+05-2.62485E+06 3.41970E-09 2.67100E-08
 -1        58-7.16430E+06-1.00516E+06-1.41528E+05-2.73438E+06-2.16824E-09-3.56085E-08
 -1        59-7.27860E+06-1.00202E+06-8.44030E+04-2.64187E+06-5.72709E-09-1.26329E-09
 -1        60-7.17490E+06-1.03853E+06-3.29199E+04-2.73684E+06-2.81307E-09-5.19140E-09
 -1        61-7.26004E+06-9.68789E+05-1.86644E+04-2.64564E+06 7.22735E-09 2.71586E-08
 -1        62-7.18243E+06-1.03751E+06-8.99079E+03-2.73081E+06-2.21803E-08-1.32940E-07
 -1        63-7.23751E+06-9.83813E+05-7.11808E+03-2.66707E+06-7.01220E-10-1.76100E-08
 -1        64-7.19681E+06-1.02378E+06-8.41142E+03-2.71501E+06 1.20563E-08-3.34933E-09
 -1        65-7.20746E+06-1.01860E+06-1.62233E+04-2.70212E+06-2.25168E-08-1.44868E-07
 -1        66-7.21218E+06-1.00305E+06-2.90014E+04-2.69549E+06 6.85031E-09 6.49379E-08
 -1        67-7.19383E+06-1.07793E+06-7.33512E+04-2.73425E+06-1.65419E-08 8.56917E-08
 -1        68-7.21119E+06-9.64964E+05-1.23176E+05-2.68299E+06 1.02191E-08 2.97950E-08
 -1        69-7.29412E+06-1.29663E+06-3.53572E+05-2.72240E+06-1.92249E-08 2.77396E-08
 -1        70-7.11432E+06-7.89546E+05-5.24019E+05-2.70615E+06-1.13505E-09 7.24394E-08
 -1        86-5.02080E+02-1.74073E+06 1.75839E+03-7.87287E+03-3.44596E-09-1.08711E-07
 -1        87 2.33773E+03-1.73509E+06 5.04979E+03 2.66084E+04-6.12982E-09-5.24659E-08
 -1        88-1.85829E+03-1.73955E+06 7.01503E+03-1.87353E+04-6.38738E-09 2.93866E-08
 -1        89 1.36678E+04-1.73177E+06 1.91429E+04 3.67433E+04-9.71909E-09 1.11052E-07
 -1        90-1.16400E+04-1.74422E+06 2.67899E+04-1.80091E+04-5.52063E-09-4.33268E-08
 -1       121-1.17849E+03-1.51164E+06-1.55444E+02 8.06419E+02 1.11645E-09-1.01172E-08
 -1       122-6.96066E+02-1.50875E+06 7.40089E+02-3.24014E+03-4.23135E-09-6.11180E-09
 -1       123-1.22549E+03-1.51175E+06 6.64625E+02 2.40866E+03 3.03748E-09-2.38178E-08
 -1       124 8.09617E+02-1.50813E+06 2.95992E+03-6.79673E+03-8.19591E-09 6.29734E-09
 -1       125-2.06481E+03-1.51259E+06 3.94836E+03 4.34415E+03 4.95311E-09-1.11468E-08
 -1       191-1.85463E+01 3.37333E+05-1.46878E+00-1.80208E+00-2.71982E-10 1.22254E-08
 -1       192-2.11587E+01 3.37305E+05-2.06129E+00 1.77504E+01-3.74342E-10 1.77060E-08
 -1       193-3.07237E+01 3.37334E+05-5.79079E+00-1.59250E+01-5.11022E-10 3.45153E-09
 -1       194-6.35066E+01 3.37295E+05-1.88142E+01 1.42723E+02-2.11003E-10 5.49608E-09
 -1       195-1.48272E+02 3.37341E+05-4.46778E+01-1.26685E+02-5.40240E-10 4.41560E-09
 -1       251-2.08205E+06-2.07396E+04-1.81040E+05 1.00077E+05 1.69166E-09-1.58034E-08
 -1       252-1.25760E+06 2.29794E+04 3.83693E+04-3.50768E+05-7.36645E-09-6.86532E-09
 -1       253-1.74613E+06-1.13488E+04-3.62625E+04 2.49833E+05-1.00845E-08-2.37906E-08
 -1       254-1.65090E+06 4.66086E+04 5.72261E+03-5.02412E+05 1.72788E-08-1.99980E-07
 -1       255-1.72822E+06-1.18791E+04-1.43351E+04 2.54585E+05 9.08767E-09-6.37488E-08
 -1       256-1.28957E+06 3.96840E+04 8.18710E+04-3.70161E+05-6.76118E-09-2.06658E-08
 -1       257-2.07192E+06-3.35973E+04-8.44884E+04 1.14891E+05-3.59432E-08-5.04376E-08
 -1       258-9.05868E+05 3.05483E+04 1.55070E+05-1.33373E+03-4.55439E-08 8.93724E-08
 -1       259-2.07404E+06-3.37790E+04-8.34438E+04-1.12613E+05 7.32871E-09 1.74919E-08
 -1       260-1.28428E+06 4.06462E+04 8.68798E+04 3.68658E+05-2.75586E-08-1.70799E-08
 -1       261-1.73097E+06-1.30034E+04-7.11391E+03-2.53392E+05-8.19546E-08 5.76449E-08
 -1       262-1.64622E+06 5.52259E+04 2.46792E+04 5.02915E+05 1.84940E-08-4.98798E-08
 -1       263-1.74806E+06-1.87977E+04-5.33159E+03-2.49558E+05-1.67038E-08-4.95115E-08
 -1       264-1.23465E+06 8.11486E+04 1.20653E+05 3.54256E+05-9.28867E-08 8.74879E-08
 -1       265-2.10342E+06-7.09173E+04-6.26599E+04-1.01916E+05-3.03698E-08 1.42432E-07
 -1       266-2.68329E+04-1.25467E+04 6.29596E+04-5.35458E+01-3.27418E-11-4.60291E-08
 -1       267 3.11070E+04 1.46240E+04 4.44980E+04 6.17793E+01 1.34150E-10 2.54749E-09
 -1       268-4.17138E+03-2.07114E+03 1.65397E+04-7.87187E+00-1.81899E-11 2.47796E-08
 -1       269 4.92519E+03 2.47875E+03 1.07505E+04 9.16943E+00 6.90079E-11 4.17283E-08
 -1       270-7.39277E+02-4.07276E+02 5.18943E+03-1.24436E+00 1.73941E-11 6.15835E-08
 -1       271-2.43999E+06-2.98278E+05-1.82327E+05-9.40448E+05-1.26274E-08-1.71276E-08
 -1       272-2.54424E+06-3.93675E+05-1.17393E+05-8.96052E+05 1.21822E-08-7.63321E-08
 -1       273-2.47343E+06-3.44797E+05-4.30372E+04-9.33299E+05-8.25935E-09-1.30714E-07
 -1       274-2.50458E+06-3.36989E+05-2.41440E+04-9.07047E+05-4.02724E-09 1.03155E-08
 -1       275-2.47851E+06-3.49283E+05-1.00327E+04-9.31461E+05 6.04859E-09-3.58978E-08
 -1       276-2.49726E+06-3.32747E+05-5.28548E+03-9.10567E+05-2.36032E-08 8.82019E-08
 -1       277-2.48039E+06-3.48598E+05-2.63242E+03-9.29822E+05-1.05119E-08 1.40972E-10
 -1       278-2.49350E+06-3.35078E+05-1.74080E+03-9.13944E+05 2.06737E-08 1.42212E-07
 -1       279-2.48204E+06-3.47044E+05-1.90096E+03-9.27942E+05-1.45001E-08-1.15442E-08
 -1       280-2.49017E+06-3.38883E+05-3.14569E+03-9.17734E+05 1.28330E-08-4.93728E-08
 -1       281-2.48356E+06-3.44928E+05-5.88538E+03-9.25902E+05 3.00679E-09 5.85162E-08
 -1       282-2.48904E+06-3.46395E+05-1.37403E+04-9.21422E+05-1.39125E-08-1.19565E-07
 -1       283-2.48314E+06-3.39924E+05-2.46462E+04-9.24077E+05-5.98448E-09-1.73068E-08
 -1       284-2.50667E+06-3.83557E+05-6.68202E+04-9.20736E+05 2.49647E-08-1.60408E-08
 -1       285-2.46648E+06-3.11089E+05-1.04025E+05-9.25407E+05-4.42742E-09 4.78612E-08
 -1       301 1.94562E+04-3.44784E+05 1.73021E+05-6.24655E+05 4.22006E-10 1.12377E-08
 -1       302 2.09341E+04-3.01157E+05 1.07671E+05-9.13717E+05-8.40373E-10 1.25219E-08
 -1       303-1.88983E+03-3.28739E+05 7.12174E+04-6.23204E+05 1.20053E-10-3.61779E-08
 -1       304 1.36717E+04-3.02640E+05 8.97008E+04-9.13059E+05 5.82077E-11-4.10655E-08
 -1       305 1.02497E+04-3.35218E+05 1.32700E+05-6.25292E+05 1.60071E-10 5.24087E-08
 -1       306-1.78557E+07-3.25728E+06-4.32294E+06-1.85240E+06-4.02797E-08 4.74101E-08
 -1       307 1.10094E+07-5.64712E+05 2.59295E+06-8.08121E+06-5.20973E-07 1.78385E-07
 -1       308-8.17364E+06 1.07116E+05-4.05672E+05 2.38455E+06-1.26660E-07 3.21466E-07
 -1       309-3.22524E+06 8.15720E+05 8.27090E+05-1.32071E+07 3.94399E-07 1.67007E-07
 -1       310-9.17981E+06-5.52246E+04-6.04186E+05 2.19448E+06-3.28873E-08 3.28873E-09
 -1       311 1.33028E+07-1.25844E+06 3.09356E+06-6.50174E+06 1.03581E-07-5.67234E-08
 -1       312-1.80946E+07-3.23759E+06-3.78779E+06-2.79143E+06 5.89644E-08-2.65281E-08
 -1       313 2.00119E+07 4.42685E+06 5.02790E+06 8.37996E+06-2.05531E-07 4.98985E-08
 -1       314-1.28041E+07-7.79156E+06-3.59157E+06-7.33352E+06 1.66532E-07 3.37313E-08
 -1       315-2.25059E+06 1.24085E+07 2.79926E+06 6.61163E+06-1.24281E-07-6.65896E-08
 -1       316-1.97661E+06-6.26762E+06-3.49814E+05-4.35096E+06-7.28192E-07-2.59126E-07
 -1       317-1.45300E+07 1.20741E+07 8.06989E+05-1.42937E+06 5.08102E-07-4.14635E-07
 -1       318-2.46893E+06-6.54465E+06-6.81625E+05-4.54710E+06-5.87606E-07 3.59432E-08
 -1       319-5.28472E+05 1.27906E+07 2.81412E+06 7.16226E+06-8.14907E-08 9.08476E-08
 -1       320-1.37298E+07-8.09459E+06-4.63619E+06-7.20429E+06 1.10827E-07-3.08792E-08
 -1       336 1.40655E+02-1.63641E+06-1.16909E+04 6.54199E+03-2.02672E-08-1.91067E-08
 -1       337-4.46273E+03-1.63739E+06-1.47914E+04-1.58440E+04-3.67490E-08-2.67701E-08
 -1       338 6.26199E+02-1.63615E+06-2.21514E+04 9.18913E+03-2.68983E-08 6.05723E-09
 -1       339-2.35230E+04-1.65018E+06-5.00040E+04-2.10076E+04-4.84506E-08 1.39098E-08
 -1       340 1.57333E+04-1.62485E+06-7.83513E+04 1.16285E+04-3.18360E-08 3.34730E-08
 -1       406 1.27023E+02 3.40711E+05 7.53041E+02 1.33111E+02 1.62254E-09 1.38016E-08
 -1       407 2.18453E+02 3.40848E+05 1.30425E+03-1.37813E+02 1.00408E-09 2.77441E-08
 -1       408 5.97715E+02 3.40637E+05 2.46452E+03 4.35449E+00 1.90266E-09 2.19961E-08
 -1       409 2.56528E+03 3.41616E+05 5.47778E+03 1.18539E+02 1.20193E-09-8.59518E-09
 -1       410 7.43288E+03 3.39941E+05 1.11413E+04-1.30006E+02 2.06001E-09-3.73439E-09
 -1       521-1.98474E+07-4.07274E+06-5.23003E+06-1.80223E+06-8.89413E-08 2.50875E-08
 -1       522 1.17708E+07-5.10338E+05 2.71880E+06-1.03392E+07-4.45172E-07-2.53669E-07
 -1       523-9.39083E+06-3.89741E+04-4.57117E+05 2.78955E+06 1.30705E-07-1.97055E-07
 -1       524-5.25974E+06 1.98351E+06 9.44060E+05-1.59682E+07 6.14105E-07-3.20826E-07
 -1       525-1.05425E+07-2.84145E+05-6.96624E+05 2.57502E+06 5.27070E-07-2.59344E-07
 -1       526 1.48268E+07-1.42105E+06 3.39049E+06-8.39685E+06 2.79368E-07-3.83734E-08
 -1       527-2.01758E+07-4.16124E+06-4.50698E+06-2.88381E+06 1.98197E-07 1.66256E-07
 -1       528 2.26887E+07 4.90655E+06 5.45631E+06 9.77357E+06 5.61122E-08 1.82888E-07
 -1       529-1.42038E+07-9.30020E+06-4.26671E+06-7.96042E+06 1.90397E-07-9.69158E-08
 -1       530-3.87308E+06 1.51174E+07 3.08123E+06 7.15432E+06 5.51809E-08 3.71161E-07
 -1       531-2.28922E+06-7.44185E+06-3.84757E+05-4.89762E+06-4.67960E-07 4.77885E-08
 -1       532-1.77619E+07 1.44372E+07 9.45134E+05-3.13525E+06 3.33690E-07-5.51809E-07
 -1       533-2.76230E+06-7.71999E+06-7.37077E+05-5.06530E+06-1.92958E-08-7.46659E-07
 -1       534-2.09473E+06 1.55631E+07 3.07254E+06 7.76025E+06-1.63622E-07 5.10248E-07
 -1       535-1.51598E+07-9.68349E+06-5.42201E+06-7.80802E+06 4.01633E-08 3.01472E-07
 -1       536-5.77481E+05-3.84121E+04-3.63962E+03-3.76516E+04-3.77713E-09 4.67935E-08
 -1       537-1.80063E+05 3.87150E+04 6.73740E+04 8.99437E+04-8.54261E-08 8.18527E-08
 -1       538-3.87554E+05 4.72493E+02 8.69106E+03-5.43773E+04 2.80315E-08 7.08501E-08
 -1       539-3.12387E+05 3.11037E+03 1.86180E+04 1.02884E+05 1.25217E-07 9.53308E-08
 -1       540-4.48338E+05-2.03711E+02-1.09543E+04-5.08311E+04 1.51688E-08 8.41497E-08
 -1       541-6.25592E+04 1.02695E+04 6.46848E+04 6.89613E+04-1.30899E-08 6.25606E-08
 -1       542-6.30679E+05-1.22256E+04-5.03427E+04-2.00602E+04 4.48845E-08 2.96788E-08
 -1       543 9.10353E+04 1.64480E+04 9.45604E+04-1.05212E+04 2.77214E-08 6.72821E-09
 -1       544-5.97841E+05-9.74557E+03-4.46150E+04 2.83399E+04 1.27366E-08-2.92794E-08
 -1       545-1.38061E+05 5.13282E+03 4.63115E+04-8.25729E+04-1.75364E-08-7.31334E-08
 -1       546-4.07684E+05 4.10686E+03-7.89423E+03 5.18441E+04-7.92932E-09-6.18365E-08
 -1       547-3.25290E+05-4.52399E+03 3.22162E+03-1.05272E+05-1.09709E-07-7.48846E-08
 -1       548-4.15591E+05 4.02642E+03-1.87698E+04 5.13524E+04-7.59439E-08-7.92288E-08
 -1       549-1.23513E+05 1.17229E+03 2.48484E+04-7.97099E+04-4.88748E-08-6.13072E-08
 -1       550-6.04020E+05-6.09011E+03-9.44217E+04 2.59501E+04 2.98769E-09-2.51039E-08
 -1       551 3.11307E+04-7.30327E+05 7.45527E+03-1.13870E+06-8.08795E-08-3.27418E-09
 -1       552 6.98241E+04-7.59232E+05 2.29752E+04-1.62341E+06-5.73636E-08 2.57278E-08
 -1       553 5.22513E+04-7.60593E+05 4.07004E+04-1.13343E+06-9.27903E-08 1.89248E-08
 -1       554 1.02868E+05-7.66058E+05 9.10638E+04-1.62530E+06-6.00558E-08 9.74978E-09
 -1       555 8.16031E+04-7.81993E+05 1.63196E+05-1.13378E+06-9.72650E-08-8.42192E-09
 -1       556 1.70915E+05-3.02625E+05 5.20455E+04-3.45329E+05-1.97469E-08-3.63798E-09
 -1       557 2.81414E+05-3.91337E+05 2.87631E+04-4.41469E+05 2.09548E-09 1.50758E-08
 -1       558 1.60780E+05-3.03716E+05 9.37626E+03-3.43367E+05-2.30502E-08-1.26820E-08
 -1       559 2.61488E+05-3.96368E+05 5.44488E+03-4.55127E+05 4.38013E-09 1.28748E-08
 -1       560 1.51087E+05-2.97579E+05 9.21280E+02-3.50171E+05 6.05360E-09 2.49747E-08
 -1       561 2.48934E+05-3.91621E+05 9.93278E+02-4.63512E+05-2.91038E-10 2.52476E-09
 -1       562 1.43447E+05-2.92773E+05-3.30961E+02-3.55668E+05 3.40515E-09 2.06637E-09
 -1       563 2.39911E+05-3.87687E+05 2.19989E+02-4.69362E+05 5.32600E-09-1.07316E-08
 -1       564 1.38143E+05-2.89451E+05-2.01011E+02-3.59416E+05 1.36060E-08 9.17544E-09
 -1       565 2.34187E+05-3.85197E+05 9.52938E+01-4.73007E+05 8.94943E-09 6.47242E-09
 -1       566 1.35259E+05-2.87618E+05-9.41909E+01-3.61437E+05-5.83168E-09-1.56615E-08
 -1       567 2.31760E+05-3.84136E+05-2.03651E+02-4.74438E+05 1.01827E-08-8.43283E-09
 -1       568 1.34859E+05-2.87384E+05-7.19521E+02-3.61811E+05-4.00178E-11 1.85719E-08
 -1       569 2.31494E+05-3.84109E+05-1.81490E+03-4.72756E+05-5.48516E-09 1.17761E-08
 -1       570 1.37848E+05-2.90039E+05-4.05762E+03-3.61078E+05 8.54197E-09 9.09495E-13
 -1       571 2.54953E+05 9.28223E+03 1.34775E+04-7.53261E+04 3.05590E-10 1.60453E-08
 -1       572 2.56931E+05 3.37454E+03 6.60414E+03-8.26353E+04 2.56478E-10-7.86986E-09
 -1       573 2.55743E+05 9.48641E+02 2.93425E+03-7.51746E+04 2.46473E-10-1.38425E-09
 -1       574 2.55957E+05 4.62366E+02 1.47092E+03-8.28191E+04 3.27077E-09-1.01991E-08
 -1       575 2.55831E+05 2.29644E+02 6.93958E+02-7.51541E+04 3.35660E-10 2.47564E-09
 -1       576 2.55832E+05 2.23304E+02 3.54670E+02-8.28436E+04-5.55474E-09-6.42831E-09
 -1       577 2.55858E+05 1.82919E+02 1.76613E+02-7.51513E+04-1.34805E-08 1.18671E-08
 -1       578 2.55842E+05 1.98511E+02 1.00687E+02-8.28469E+04-2.34509E-08 7.18592E-09
 -1       579 2.55901E+05 1.63020E+02 6.80761E+01-7.51511E+04 2.66209E-09-6.69843E-09
 -1       580 2.55903E+05 1.69561E+02 7.61024E+01-8.28428E+04 1.44692E-08-1.53887E-09
 -1       581 2.55969E+05 1.30259E+02 1.14322E+02-7.51557E+04 1.16943E-08 1.15779E-09
 -1       582 2.56014E+05 1.56899E+02 2.29527E+02-8.27942E+04 3.69255E-09 1.87902E-09
 -1       583 2.56051E+05 1.84850E+02 4.42602E+02-7.51999E+04 3.85808E-09 9.15657E-09
 -1       584 2.56279E+05 5.41086E+02 9.98511E+02-8.24231E+04 4.37558E-09 2.52044E-09
 -1       585 2.56035E+05 1.40030E+03 2.02551E+03-7.55267E+04-2.21917E-10-5.54428E-09
 -1       586-3.10035E+03 9.31990E+04-3.22316E+03-2.24223E+05-3.80442E-09-2.18895E-08
 -1       587-9.69532E+02 9.28543E+04 3.02917E+02-2.46792E+05-5.06589E-09-5.73336E-08
 -1       588 6.12898E+02 9.27920E+04 3.91402E+03-2.24110E+05-1.87174E-09-3.17441E-08
 -1       589 4.67948E+03 9.48645E+04 1.04833E+04-2.46553E+05-1.89448E-09-2.88201E-08
 -1       590 1.45196E+04 9.16436E+04 2.21210E+04-2.24495E+05-1.61890E-09-3.66708E-09
 -1       591-5.87880E+04-1.36410E+04-1.88014E+04-2.63681E+04-1.02477E-08-9.43692E-09
 -1       592-6.18327E+04-1.69774E+04-1.01841E+04-2.98118E+04-1.25519E-08-9.00400E-11
 -1       593-6.06714E+04-1.22735E+04-4.23929E+03-2.77437E+04-2.96569E-09 1.20572E-08
 -1       594-5.92318E+04-1.42240E+04-2.11429E+03-2.99167E+04-1.05530E-10 1.20429E-08
 -1       595-6.08151E+04-1.22687E+04-9.70917E+02-2.78063E+04-9.67859E-10 1.33764E-08
 -1       596-5.90541E+04-1.40981E+04-4.93817E+02-2.98961E+04 3.77118E-09-5.67275E-09
 -1       597-6.08332E+04-1.22814E+04-2.69412E+02-2.78086E+04 1.65738E-09-6.65869E-09
 -1       598-5.90366E+04-1.40932E+04-2.17522E+02-2.98903E+04-1.37169E-09 1.06822E-08
 -1       599-6.08320E+04-1.22818E+04-2.79035E+02-2.78082E+04 2.27021E-09 8.72399E-09
 -1       600-5.90545E+04-1.40989E+04-5.19298E+02-2.98946E+04 2.66937E-09-3.54703E-09
 -1       601-6.08108E+04-1.22694E+04-1.02494E+03-2.78051E+04 2.32626E-09-4.55088E-09
 -1       602-5.92419E+04-1.42312E+04-2.23401E+03-2.99132E+04-1.49248E-09 4.78121E-09
 -1       603-6.06566E+04-1.22770E+04-4.48025E+03-2.77395E+04-5.51063E-09-5.64069E-09
 -1       604-6.20053E+04-1.71248E+04-1.07625E+04-2.97816E+04 2.49622E-09 6.70661E-09
 -1       605-5.86490E+04-1.37370E+04-1.98692E+04-2.63020E+04 2.67295E-09-1.25810E-08
 -1       606 2.70561E+04-1.24227E+04-2.22963E+04 2.52779E+04 1.07684E-09 8.18000E-09
 -1       607 2.32438E+04-4.04335E+03-1.11030E+04 2.83916E+04-2.70666E-09-1.61510E-08
 -1       608 2.54124E+04-7.16425E+02-4.97109E+03 2.50879E+04 5.45697E-11-1.46370E-08
 -1       609 2.49913E+04-2.28980E+02-2.51105E+03 2.86154E+04-1.25874E-09-2.09002E-09
 -1       610 2.52213E+04-1.57189E+01-1.19856E+03 2.50661E+04 2.89492E-09 2.78465E-09
 -1       611 2.51505E+04-1.03252E+01-6.04301E+02 2.86397E+04 8.42465E-09 1.80103E-09
 -1       612 2.51755E+04-7.52268E-01-2.87837E+02 2.50639E+04 4.12820E-09-1.10776E-09
 -1       613 2.51555E+04-3.92916E+00-1.29463E+02 2.86426E+04-7.93079E-10 5.30554E-09
 -1       614 2.51523E+04-3.81651E+00-3.17893E+01 2.50631E+04 5.04861E-09 2.00312E-08
 -1       615 2.51469E+04-4.17110E-01 5.09931E+01 2.86430E+04 1.27511E-08 1.02648E-08
 -1       616 2.51344E+04 7.20539E-01 1.55887E+02 2.50634E+04 4.69163E-09 1.16411E-08
 -1       617 2.51626E+04 3.46432E+01 3.56938E+02 2.86425E+04 2.98814E-09-1.04235E-08
 -1       618 2.51011E+04 1.05032E+02 7.19868E+02 2.50636E+04 4.38467E-09 2.68824E-09
 -1       619 2.54149E+04 5.92406E+02 1.61684E+03 2.86418E+04 3.15595E-10-3.15481E-09
 -1       620 2.48609E+04 1.81309E+03 3.24985E+03 2.50636E+04 1.69393E-09-3.89264E-10
 -1       621 3.55576E+02 2.62065E+05 3.02601E+03 2.72430E+04 5.98220E-10-3.60615E-09
 -1       622 4.54467E+02 2.62787E+05 2.77285E+03 3.95904E+04 7.45786E-10 4.89445E-09
 -1       623 6.18374E+01 2.62225E+05 3.44846E+03 2.71167E+04 7.43171E-10 1.27870E-08
 -1       624 1.70508E+03 2.63885E+05 6.77846E+03 3.97166E+04 8.97245E-10 9.86597E-09
 -1       625 1.69420E+03 2.60884E+05 1.18905E+04 2.71139E+04 1.05138E-09 4.84079E-10
 -1       626 2.29584E+05 5.70356E+04 4.72971E+03 1.15304E+05 7.05768E-10-6.78301E-09
 -1       627 2.27238E+05 5.85311E+04 2.27919E+03 1.19478E+05 3.31966E-10-9.16737E-09
 -1       628 2.29715E+05 5.48553E+04 9.63505E+02 1.16087E+05-5.77074E-09-5.71481E-09
 -1       629 2.26628E+05 5.79242E+04 4.71672E+02 1.19719E+05-2.11776E-09 1.45918E-08
 -1       630 2.29726E+05 5.47511E+04 2.18436E+02 1.16117E+05-2.63481E-09 1.27227E-09
 -1       631 2.26560E+05 5.79035E+04 1.17168E+02 1.19720E+05 4.05339E-09-1.35215E-08
 -1       632 2.29720E+05 5.47565E+04 7.64489E+01 1.16111E+05-1.68025E-08-1.69498E-08
 -1       633 2.26549E+05 5.79069E+04 8.41431E+01 1.19714E+05-2.89629E-08 8.68727E-09
 -1       634 2.29713E+05 5.47554E+04 1.35068E+02 1.16108E+05-2.32278E-08-1.44776E-08
 -1       635 2.26559E+05 5.79066E+04 2.72800E+02 1.19717E+05-1.06115E-09-3.06909E-09
 -1       636 2.29703E+05 5.47516E+04 5.50634E+02 1.16107E+05 5.99653E-09-1.41627E-08
 -1       637 2.26676E+05 5.79927E+04 1.21033E+03 1.19715E+05 2.14878E-08-2.09229E-09
 -1       638 2.29659E+05 5.50197E+04 2.48687E+03 1.15985E+05 8.67658E-09-1.75264E-08
 -1       639 2.27982E+05 5.98093E+04 5.88370E+03 1.19329E+05 2.44836E-09 1.10958E-09
 -1       640 2.29481E+05 6.04413E+04 1.22098E+04 1.13695E+05 2.06455E-09-1.97224E-09
 -1       656 5.94747E+04-1.51714E+06-1.43572E+05-1.42611E+03-3.63798E-11-8.09592E-09
 -1       657-7.86564E+04-1.58199E+06-1.18886E+05 6.45637E+03-9.45874E-11-8.24156E-09
 -1       658 1.89351E+04-1.53558E+06-7.31529E+04-3.16860E+03 2.47383E-10-1.07203E-08
 -1       659-8.48724E+04-1.58494E+06-1.27053E+05 7.80887E+03-1.12414E-09-2.44403E-09
 -1       660 6.56766E+04-1.51420E+06-1.57614E+05-2.77860E+03-1.35333E-09-1.17595E-09
 -1       661 1.62483E+05 1.72791E+04 1.65394E+04 6.35285E+04-1.39698E-09 2.56659E-09
 -1       662 1.71589E+05 2.97672E+04 1.11458E+04 6.00963E+04 2.02505E-09-8.99365E-09
 -1       663 1.65730E+05 2.25863E+04 3.89840E+03 6.25873E+04-1.09071E-09 3.85626E-09
 -1       664 1.67826E+05 2.35591E+04 2.33157E+03 6.12446E+04 1.34307E-09 3.17630E-09
 -1       665 1.66220E+05 2.33128E+04 9.19792E+02 6.24456E+04-7.45615E-10-6.29484E-09
 -1       666 1.67247E+05 2.27269E+04 5.37696E+02 6.14284E+04 3.67731E-09 3.79388E-09
 -1       667 1.66305E+05 2.33967E+04 2.85010E+02 6.24113E+04 1.55794E-09 7.04468E-09
 -1       668 1.67154E+05 2.26649E+04 2.89023E+02 6.14783E+04-5.96509E-09-9.16722E-09
 -1       669 1.66312E+05 2.33731E+04 3.90172E+02 6.23962E+04-2.01884E-09 1.29315E-08
 -1       670 1.67250E+05 2.28753E+04 8.48549E+02 6.14804E+04-3.43351E-09-1.10524E-09
 -1       671 1.66210E+05 2.31906E+04 1.50631E+03 6.24073E+04-1.79320E-10 3.80504E-09
 -1       672 1.68128E+05 2.43407E+04 3.85358E+03 6.12679E+04 3.57575E-09-1.01244E-08
 -1       673 1.65439E+05 2.19447E+04 6.45787E+03 6.25945E+04 1.63550E-09 7.31234E-10
 -1       674 1.74275E+05 3.47148E+04 1.84681E+04 5.94610E+04-1.74407E-09-7.97718E-09
 -1       675 1.60102E+05 1.31068E+04 2.74130E+04 6.41051E+04-8.34916E-10-5.10045E-09
 -1       676 2.22942E+01-2.72014E+05-1.03458E+03-5.40651E+01 2.44739E-10 7.87830E-09
 -1       677-2.74576E+02-2.72264E+05-1.89344E+03 1.08054E+02 3.56451E-09-1.06946E-08
 -1       678 1.83439E+02-2.71836E+05-3.34712E+03-5.39529E+01 2.14413E-10 7.56927E-10
 -1       679-3.34798E+03-2.74285E+05-7.95128E+03 1.07625E+02 3.60433E-09 3.93431E-09
 -1       680 1.99825E+03-2.69995E+05-1.28148E+04-5.30326E+01 3.52884E-10-6.12769E-09
 -1       771-2.85125E+06-6.36256E+05-1.15585E+05-1.31826E+06-2.61789E-08-2.17115E-08
 -1       772-2.79315E+06-7.07182E+05-6.00203E+04-1.39973E+06-2.01981E-08 9.01855E-09
 -1       773-2.87290E+06-6.19224E+05-2.96794E+04-1.32698E+06-1.16124E-08 1.20635E-08
 -1       774-2.78412E+06-6.94765E+05-1.34364E+04-1.41654E+06 2.20025E-08-2.11003E-09
 -1       775-2.88325E+06-6.11906E+05-9.44142E+03-1.33075E+06-1.45519E-09 5.83532E-09
 -1       776-2.79076E+06-6.93379E+05-3.63123E+03-1.42870E+06-3.33239E-09 2.68847E-09
 -1       777-2.89202E+06-6.05523E+05-3.95594E+03-1.33406E+06 3.53612E-09 3.29601E-09
 -1       778-2.79785E+06-6.92178E+05-1.15363E+03-1.43908E+06 1.25874E-09 5.76438E-09
 -1       779-2.89946E+06-6.00013E+05-1.91103E+03-1.33689E+06-8.44011E-09-4.26735E-09
 -1       780-2.80407E+06-6.91019E+05-3.25708E+02-1.44751E+06-1.11395E-08 8.83938E-09
 -1       781-2.90531E+06-5.95605E+05-7.25828E+02-1.33911E+06-2.37633E-08 7.11225E-10
 -1       782-2.80884E+06-6.90012E+05 2.67096E+02-1.45372E+06-2.61934E-08-4.77985E-09
 -1       783-2.90941E+06-5.92571E+05 4.24566E+02-1.34067E+06-1.06957E-08-1.07668E-08
 -1       784-2.81142E+06-6.88876E+05 1.72739E+03-1.45753E+06-2.62025E-08-2.58706E-09
 -1       785-2.91182E+06-5.90776E+05 3.05125E+03-1.34168E+06-3.34003E-08 7.03403E-09
 -1       786 1.23910E+05-9.31196E+03 2.15432E+04-2.11422E+02 1.51880E-09 2.93403E-09
 -1       787 1.33252E+05 1.07806E+04 1.52411E+04-4.24646E+01 2.81169E-09 7.75890E-09
 -1       788 1.27512E+05-1.45950E+03 5.57406E+03-1.81509E+02 2.85587E-09 1.36422E-08
 -1       789 1.29055E+05 1.68878E+03 3.49975E+03-8.95972E+01 6.81000E-10 8.16271E-09
 -1       790 1.28107E+05-2.27565E+02 1.41821E+03-1.64299E+02-2.25364E-09 3.08046E-09
 -1       791 1.28360E+05 2.63029E+02 8.21509E+02-1.19303E+02-4.23270E-09 3.29169E-09
 -1       792 1.28207E+05-3.48167E+01 3.52881E+02-1.51804E+02-3.38887E-09 7.59962E-09
 -1       793 1.28241E+05 3.85716E+01 1.86371E+02-1.42817E+02-1.21872E-09-1.97267E-08
 -1       794 1.28226E+05-3.24974E+00 6.94313E+01-1.40785E+02 2.28667E-09-1.29225E-08
 -1       795 1.28214E+05-8.50038E+00 1.26901E+00-1.65755E+02-3.32509E-09 1.46200E-08
 -1       796 1.28234E+05 1.22302E+01-5.80774E+01-1.28866E+02 2.29002E-09-4.95935E-09
 -1       797 1.28171E+05-9.45058E+01-1.86538E+02-1.92999E+02 2.55412E-09-1.03204E-08
 -1       798 1.28269E+05 8.26904E+01-3.10432E+02-1.13541E+02 7.88023E-10 6.23498E-09
 -1       799 1.27933E+05-6.10304E+02-8.60575E+02-2.30413E+02 3.48144E-09-7.07496E-09
 -1       800 1.28472E+05 5.27601E+02-1.21972E+03-9.14522E+01-4.92770E-11-1.23240E-08
 -1       801-1.41490E+04-6.80566E+06-8.61041E+05 6.98105E+05 6.59784E-08-3.77731E-08
 -1       802 2.64052E+05 9.88058E+05 9.36832E+05-7.97764E+05 1.84900E-07-1.89793E-08
 -1       803-2.43839E+05-8.60180E+06-9.26846E+05 4.60854E+05 5.98193E-08 2.08238E-08
 -1       804 9.63244E+04-9.27489E+05 6.58093E+05 4.19585E+05-7.36836E-08-7.43514E-08
 -1       805 1.17897E+05-4.90366E+06-1.47184E+05-5.16768E+05-3.03080E-08-4.19591E-08
 -1       806-2.75993E+05-5.26227E+04-2.01941E+04-1.08463E+05-2.54886E-09 6.49106E-09
 -1       807-2.77707E+05-4.92009E+04-9.92115E+03-1.13214E+05 1.89448E-08 3.19643E-09
 -1       808-2.76538E+05-4.53551E+04-4.20895E+03-1.11916E+05-2.21826E-09-1.31442E-08
 -1       809-2.75627E+05-4.64082E+04-2.05810E+03-1.13452E+05-9.32414E-09 8.21956E-10
 -1       810-2.76622E+05-4.51019E+04-9.43285E+02-1.12069E+05-1.30058E-10 2.03013E-08
 -1       811-2.75467E+05-4.62953E+04-4.69071E+02-1.13421E+05-1.56356E-08 1.54405E-08
 -1       812-2.76635E+05-4.51232E+04-2.37107E+02-1.12069E+05-1.34842E-08-1.63714E-08
 -1       813-2.75446E+05-4.62968E+04-1.53979E+02-1.13406E+05-1.96815E-09-1.10558E-08
 -1       814-2.76630E+05-4.51310E+04-1.52275E+02-1.12066E+05-1.38243E-09-5.65706E-10
 -1       815-2.75450E+05-4.62984E+04-2.45310E+02-1.13400E+05-1.20826E-09 1.01281E-08
 -1       816-2.76613E+05-4.51292E+04-4.64665E+02-1.12064E+05 2.62116E-09 1.39753E-08
 -1       817-2.75531E+05-4.63424E+04-9.97567E+02-1.13392E+05-5.03542E-09-2.23713E-09
 -1       818-2.76555E+05-4.52687E+04-2.03445E+03-1.11998E+05 3.72893E-09 9.26320E-09
 -1       819-2.76644E+05-4.75729E+04-4.78752E+03-1.13132E+05-1.82808E-10 1.73968E-08
 -1       820-2.76177E+05-4.88805E+04-9.74403E+03-1.10449E+05 3.99996E-09 1.21113E-08
 -1       821-3.39495E+05 1.87309E+04-4.33364E+04 8.65846E+02 6.63123E-09 1.01827E-08
 -1       822-3.58207E+05-2.16845E+04-3.06551E+04-1.63448E+03 3.73394E-10 1.18307E-08
 -1       823-3.46700E+05 2.93808E+03-1.12209E+04 1.07065E+03-3.87953E-09 4.36830E-09
 -1       824-3.49756E+05-3.39804E+03-7.05517E+03-1.55867E+03 7.89941E-10-2.04182E-10
 -1       825-3.47943E+05 4.58241E+02-2.91030E+03 7.90047E+02 4.83264E-09 9.30777E-09
 -1       826-3.48262E+05-5.37555E+02-1.72780E+03-6.52658E+02 5.43891E-09-7.24685E-09
 -1       827-3.48189E+05 7.74745E+01-9.27075E+02 1.64621E+02 2.29586E-09-7.96305E-09
 -1       828-3.48054E+05-1.62203E+02-7.77848E+02 6.30192E+02-2.57184E-09-2.95962E-09
 -1       829-3.48151E+05 8.28544E+01-9.40955E+02-4.92824E+02-7.12483E-10 4.90417E-10
 -1       830-3.48358E+05-5.63568E+02-1.80791E+03 1.64666E+03-2.24595E-10 8.86303E-09
 -1       831-3.47888E+05 4.80677E+02-3.01320E+03-8.51863E+02-1.92868E-09-1.10629E-09
 -1       832-3.49842E+05-3.53680E+03-7.34030E+03 1.88592E+03-1.04446E-09-9.05857E-10
 -1       833-3.46669E+05 3.05474E+03-1.16748E+04-7.32094E+02-2.10776E-09 1.68070E-08
 -1       834-3.58529E+05-2.25497E+04-3.18654E+04 1.21722E+03-1.65054E-09-6.62931E-09
 -1       835-3.39202E+05 1.94771E+04-4.50819E+04-1.83146E+02 5.16096E-09-1.09503E-09
 -1       836-1.20355E+03 3.23692E+05 1.98544E+04-1.60527E+04-3.43061E-09 4.06499E-09
 -1       837 4.27559E+03 3.29890E+05 1.68963E+04-3.24994E+04-3.57920E-09 7.92033E-09
 -1       838-4.70141E+02 3.25417E+05 1.73500E+04-1.59855E+04-2.98905E-09 3.19756E-09
 -1       839 1.10151E+04 3.34912E+05 3.29534E+04-3.25448E+04-2.90811E-09 1.05285E-08
 -1       840-3.37570E+03 3.18620E+05 5.26063E+04-1.60093E+04-2.78669E-09 2.08131E-08
 -1       856-6.38539E+04 7.76991E+03-2.04757E+04-4.03497E+02 1.53989E-10-1.31631E-08
 -1       857-7.22993E+04-9.12187E+03-1.40959E+04 5.17535E+03-9.58380E-11 3.87263E-09
 -1       858-6.71949E+04 1.08922E+03-5.31332E+03-4.26416E+02-2.15067E-09-4.36785E-09
 -1       859-6.84642E+04-1.27437E+03-3.20728E+03 5.21048E+03 7.36307E-10 9.83789E-09
 -1       860-6.76942E+04 1.52073E+02-1.34566E+03-4.38537E+02 7.23162E-10 9.86120E-10
 -1       861-6.78896E+04-1.74987E+02-7.43435E+02 5.22705E+03-1.11812E-09-9.22694E-09
 -1       862-6.77721E+04 2.03395E+01-3.15366E+02-4.42992E+02 8.69353E-10-1.11945E-08
 -1       863-6.77952E+04-1.60159E+01-1.29250E+02 5.22942E+03 3.65350E-09-9.41438E-09
 -1       864-6.77890E+04-3.33064E+00 1.33581E+01-4.40910E+02-3.41075E-10-2.90132E-09
 -1       865-6.77502E+04 4.84204E+01 1.75145E+02 5.21815E+03 3.70812E-09-1.23486E-08
 -1       866-6.78152E+04-4.42803E+01 3.69569E+02-4.31721E+02-8.35428E-10-7.06112E-09
 -1       867-6.75719E+04 3.67345E+02 9.20357E+02 5.19314E+03 1.25908E-09-4.67783E-09
 -1       868-6.79630E+04-3.16985E+02 1.53189E+03-4.15896E+02-1.08912E-10 4.44862E-09
 -1       869-6.64456E+04 2.63787E+03 4.08292E+03 5.15152E+03-8.25708E-10 7.28795E-09
 -1       870-6.89349E+04-2.25384E+03 5.92463E+03-3.90074E+02-9.72591E-10 4.22597E-09
 -1       871-5.02382E+03-1.58262E+04-1.71047E+04 1.14110E+05-1.76624E-09 2.95677E-09
 -1       872-1.97231E+03-1.97437E+04-7.09862E+03 1.47952E+05-4.75029E-09-2.33499E-08
 -1       873 1.81725E+02-1.78775E+04 6.77555E+02 1.13860E+05-2.27192E-09-1.36972E-08
 -1       874 2.76159E+03-1.56273E+04 8.95671E+03 1.47987E+05-5.09954E-09 8.97899E-09
 -1       875 6.04444E+03-2.00093E+04 2.00814E+04 1.14070E+05-2.15732E-09 6.66296E-09
 -1       876 2.64692E+05 4.49309E+04 1.37445E+04 1.06600E+05 6.06747E-10 6.59566E-09
 -1       877 2.65567E+05 4.78587E+04 7.34005E+03 1.10573E+05-8.76526E-10 2.05000E-09
 -1       878 2.65977E+05 4.34093E+04 3.07513E+03 1.07728E+05-4.18413E-09 4.56589E-09
 -1       879 2.63699E+05 4.59948E+04 1.53213E+03 1.10667E+05 1.29512E-09 2.28092E-08
 -1       880 2.66069E+05 4.33932E+04 7.13574E+02 1.07774E+05 2.00635E-09 1.03735E-08
 -1       881 2.63575E+05 4.59153E+04 3.80829E+02 1.10646E+05-3.32409E-09 5.35849E-09
 -1       882 2.66078E+05 4.34050E+04 2.43254E+02 1.07775E+05-3.79646E-09-1.58259E-08
 -1       883 2.63566E+05 4.59113E+04 2.60885E+02 1.10640E+05-6.68479E-11 2.70362E-09
 -1       884 2.66072E+05 4.34024E+04 4.14447E+02 1.07775E+05 6.30166E-10 1.57911E-10
 -1       885 2.63599E+05 4.59171E+04 8.32921E+02 1.10650E+05-3.24556E-09 5.68809E-09
 -1       886 2.66040E+05 4.33780E+04 1.67856E+03 1.07772E+05 8.75370E-09 1.88695E-08
 -1       887 2.63894E+05 4.61105E+04 3.66654E+03 1.10693E+05 1.47395E-08 3.02816E-09
 -1       888 2.65808E+05 4.34188E+04 7.38817E+03 1.07655E+05-1.76598E-09 2.09729E-09
 -1       889 2.68293E+05 5.06837E+04 1.76492E+04 1.10557E+05-8.85119E-09-1.17716E-08
 -1       890 2.62795E+05 4.69976E+04 3.30563E+04 1.04839E+05-3.96039E-09-6.37920E-09
 -1       891-1.14407E+02-1.47793E+05-1.79444E+03 2.57373E+04-5.93445E-10-1.71713E-09
 -1       892-2.09767E+02-1.48249E+05-1.93332E+03 3.90222E+04 1.09253E-09 1.79944E-09
 -1       893 5.03775E+00-1.47850E+05-2.74362E+03 2.57435E+04-3.06500E-10 9.13724E-09
 -1       894-1.41816E+03-1.49289E+05-5.68282E+03 3.88800E+04 1.48157E-09 1.96210E-08
 -1       895-1.11914E+03-1.46666E+05-1.00092E+04 2.58795E+04 4.06999E-11 1.69985E-09
 -1       956-3.37819E+05-4.80517E+03-1.19735E+04 2.54514E+04 3.86899E-09 2.75895E-09
 -1       957-3.40176E+05-1.65951E+03-6.14623E+03 3.06180E+04 1.28784E-09-1.85355E-08
 -1       958-3.38889E+05-1.72334E+02-2.76939E+03 2.53060E+04-1.08685E-09-6.21048E-09
 -1       959-3.39071E+05-7.27867E+01-1.41434E+03 3.07824E+04 8.31733E-10 1.64130E-08
 -1       960-3.38990E+05-7.47764E-01-6.89652E+02 2.52915E+04 2.89174E-09-2.95881E-09
 -1       961-3.38995E+05-1.01688E+01-3.65891E+02 3.07993E+04 4.07294E-09-1.22750E-08
 -1       962-3.39012E+05-3.52124E+00-2.09682E+02 2.52891E+04-5.88443E-10-3.44085E-09
 -1       963-3.38993E+05-7.48932E+00-1.68735E+02 3.08023E+04-4.60909E-09-1.41929E-08
 -1       964-3.39016E+05-8.71260E-01-2.05540E+02 2.52885E+04-6.15702E-09 8.23684E-09
 -1       965-3.39005E+05-4.52476E+00-3.55784E+02 3.08019E+04-5.54155E-09 6.66000E-09
 -1       966-3.39003E+05 7.13278E+00-6.68472E+02 2.52896E+04-1.28671E-09-7.32166E-09
 -1       967-3.39088E+05-5.97733E+01-1.37116E+03 3.07904E+04-3.23780E-10-7.84121E-09
 -1       968-3.38914E+05-1.54061E+02-2.68392E+03 2.52999E+04 1.30694E-09 2.67994E-09
 -1       969-3.40169E+05-1.59348E+03-5.95865E+03 3.06704E+04-1.64778E-09 7.83984E-10
 -1       970-3.37883E+05-4.64227E+03-1.16071E+04 2.54066E+04-6.55746E-10-1.80080E-10
 -1       971-3.12657E+05-1.58977E+03-8.68055E+03 1.43018E+04 1.59889E-09 1.84886E-08
 -1       972-3.14755E+05-1.15731E+03-4.72735E+03 1.98678E+04-4.12001E-10-1.37356E-08
 -1       973-3.13623E+05-3.74267E+01-2.11721E+03 1.41860E+04-2.64936E-09 2.96927E-09
 -1       974-3.13758E+05-4.73584E+01-1.09724E+03 1.99963E+04-7.36918E-10-3.30897E-09
 -1       975-3.13699E+05 4.01431E+00-5.48286E+02 1.41747E+04-5.13410E-10 4.86148E-09
 -1       976-3.13700E+05-1.21142E+00-3.15990E+02 2.00105E+04 1.76829E-09 1.81899E-08
 -1       977-3.13714E+05 4.39958E+00-2.28749E+02 1.41717E+04-2.76054E-09-8.19603E-09
 -1       978-3.13705E+05 4.34723E+00-2.66876E+02 2.00147E+04-8.06995E-09-1.67836E-09
 -1       979-3.13714E+05 1.19545E+01-4.28091E+02 1.41705E+04-5.28752E-09 1.90062E-09
 -1       980-3.13736E+05 7.08540E+00-8.26153E+02 2.00154E+04-4.90829E-10 9.29390E-10
 -1       981-3.13688E+05 3.25811E+01-1.59984E+03 1.41710E+04-2.55454E-10-4.63177E-09
 -1       982-3.13956E+05-1.11082E+02-3.30670E+03 2.00093E+04-2.28738E-09-1.84754E-08
 -1       983-3.13486E+05-6.98004E+01-6.42485E+03 1.41767E+04-5.67297E-10-3.62184E-09
 -1       984-3.17046E+05-3.46648E+03-1.43880E+04 1.99291E+04-8.60382E-10 2.37469E-09
 -1       985-3.10578E+05-4.77110E+03-2.64209E+04 1.42496E+04 3.46063E-10-5.44060E-09
 -3
    1PSTEP                        17           9           1          
  100CL  109 6.44531E-01         409                     0    9           1
 -4  DISP        4    1
 -5  D1          1    2    1    0
 -5  D2          1    2    2    0
 -5  D3          1    2    3    0
 -5  ALL         1    2    0    0    1ALL
 -1         1 2.12516E-03 0.00000E+00 0.00000E+00
 -1         2 1.84193E-03-2.62053E-26 2.64698E-23
 -1         3 3.16050E-04 9.42270E-27 0.00000E+00
 -1         5 1.67211E-04-3.27940E-26 8.27181E-25
 -1         8 2.10829E-03-5.15368E-07 0.00000E+00
 -1         9 2.06655E-03-1.07436E-05 0.00000E+00
 -1        10 2.86795E-04-3.50880E-06 6.61744E-24
 -1        12 1.68668E-04 7.72554E-07-3.30872E-24
 -1        15 2.08798E-03-5.63567E-07-2.06795E-25
 -1        16 2.09734E-03-1.19364E-05 0.00000E+00
 -1        17 1.96099E-04-7.86566E-06 0.00000E+00
 -1        18 1.71535E-04 2.92112E-05 0.00000E+00
 -1        19 1.73065E-04 1.54728E-06 0.00000E+00
 -1        20 1.73209E-04-5.75507E-06 0.00000E+00
 -1        21 1.72369E-04-1.66309E-05 0.00000E+00
 -1        24 2.95080E-05-1.17350E-05 0.00000E+00
 -1        25 1.80437E-04 2.94223E-05 0.00000E+00
 -1        26 1.81134E-04 2.14056E-06 0.00000E+00
 -1        27 1.79033E-04-9.17190E-06 0.00000E+00
 -1        28 1.78692E-04-1.72338E-05 0.00000E+00
 -1        32 0.00000E+00 0.00000E+00 0.00000E+00
 -1        33 1.88173E-04 2.86226E-06 0.00000E+00
 -1        34 1.86137E-04-9.22130E-06 0.00000E+00
 -1        35 1.84272E-04-1.75635E-05 0.00000E+00
 -1        51 2.12408E-03-9.81694E-08 0.00000E+00
 -1        52 2.12205E-03-1.81345E-07 0.00000E+00
 -1        53 2.11927E-03-2.62438E-07 0.00000E+00
 -1        54 2.11592E-03-3.43600E-07 0.00000E+00
 -1        55 2.11220E-03-4.26400E-07 2.48154E-24
 -1        56 2.12120E-03 5.92773E-07 0.00000E+00
 -1        57 2.11577E-03 4.64698E-06 0.00000E+00
 -1        58 2.10928E-03 1.15230E-05 1.05879E-22
 -1        59 2.10203E-03 2.02957E-05 0.00000E+00
 -1        60 2.09452E-03 2.97609E-05 0.00000E+00
 -1        61 2.08722E-03 3.86510E-05 0.00000E+00
 -1        62 2.08060E-03 4.57906E-05-1.05879E-22
 -1        63 2.07504E-03 5.01399E-05 0.00000E+00
 -1        64 2.07077E-03 5.11007E-05 1.05879E-22
 -1        65 2.06789E-03 4.83415E-05 5.29396E-23
 -1        66 2.06630E-03 4.21222E-05 0.00000E+00
 -1        67 2.06580E-03 3.29788E-05 5.29396E-23
 -1        68 2.06599E-03 2.19131E-05 0.00000E+00
 -1        69 2.06648E-03 1.00887E-05 5.29396E-23
 -1        70 2.06678E-03-1.22351E-06 5.29396E-23
 -1        86 1.85520E-03-1.09384E-06 0.00000E+00
 -1        87 1.89449E-03-2.84520E-06 1.32349E-23
 -1        88 1.94795E-03-5.19503E-06 0.00000E+00
 -1        89 2.00317E-03-7.63613E-06-1.32349E-23
 -1        90 2.04695E-03-9.56021E-06-2.64698E-23
 -1       121 3.15228E-04-5.69893E-07-1.32349E-23
 -1       122 3.12766E-04-1.14238E-06 0.00000E+00
 -1       123 3.08672E-04-1.72001E-06 1.32349E-23
 -1       124 3.02964E-04-2.30534E-06 6.61744E-24
 -1       125 2.95662E-04-2.90057E-06 0.00000E+00
 -1       191 1.67251E-04 1.28790E-07-8.27181E-25
 -1       192 1.67373E-04 2.57572E-07 1.24077E-24
 -1       193 1.67576E-04 3.86344E-07-2.06795E-24
 -1       194 1.67859E-04 5.15099E-07 1.24077E-24
 -1       195 1.68224E-04 6.43832E-07 1.65436E-24
 -1       251 2.10754E-03-1.48887E-05-1.32349E-23
 -1       252 2.10571E-03-6.43575E-05 0.00000E+00
 -1       253 2.10240E-03-1.39312E-04-1.32349E-23
 -1       254 2.09788E-03-2.29501E-04-6.61744E-24
 -1       255 2.09331E-03-3.20186E-04 0.00000E+00
 -1       256 2.08990E-03-3.96616E-04-6.61744E-24
 -1       257 2.08796E-03-4.48250E-04-1.32349E-23
 -1       258 2.08717E-03-4.65165E-04-6.61744E-24
 -1       259 2.08635E-03-4.47080E-04 0.00000E+00
 -1       260 2.08438E-03-3.94658E-04-6.61744E-24
 -1       261 2.08095E-03-3.18114E-04 0.00000E+00
 -1       262 2.07646E-03-2.28263E-04 0.00000E+00
 -1       263 2.07209E-03-1.39855E-04 0.00000E+00
 -1       264 2.06896E-03-6.76086E-05 1.32349E-23
 -1       265 2.06728E-03-2.14709E-05 2.64698E-23
 -1       266 2.10490E-03-5.30998E-07 0.00000E+00
 -1       267 2.10152E-03-5.38105E-07-8.27181E-25
 -1       268 2.09813E-03-5.45752E-07 0.00000E+00
 -1       269 2.09475E-03-5.51801E-07-2.06795E-25
 -1       270 2.09136E-03-5.57811E-07 0.00000E+00
 -1       271 2.10617E-03 2.68642E-06-1.32349E-23
 -1       272 2.10397E-03 5.99716E-06 0.00000E+00
 -1       273 2.10179E-03 9.27743E-06 2.64698E-23
 -1       274 2.09968E-03 1.23758E-05 0.00000E+00
 -1       275 2.09769E-03 1.51460E-05 2.64698E-23
 -1       276 2.09588E-03 1.74437E-05 0.00000E+00
 -1       277 2.09429E-03 1.91302E-05 2.64698E-23
 -1       278 2.09299E-03 2.00725E-05 1.32349E-23
 -1       279 2.09202E-03 2.01459E-05 0.00000E+00
 -1       280 2.09141E-03 1.92347E-05 0.00000E+00
 -1       281 2.09121E-03 1.72337E-05 2.64698E-23
 -1       282 2.09145E-03 1.40491E-05 0.00000E+00
 -1       283 2.09216E-03 9.59975E-06 0.00000E+00
 -1       284 2.09337E-03 3.81856E-06-1.32349E-23
 -1       285 2.09509E-03-3.34910E-06 0.00000E+00
 -1       301 2.07211E-03-1.09661E-05 0.00000E+00
 -1       302 2.07655E-03-1.11555E-05-3.30872E-24
 -1       303 2.08058E-03-1.13407E-05-1.32349E-23
 -1       304 2.08491E-03-1.15261E-05 0.00000E+00
 -1       305 2.09026E-03-1.17180E-05 2.64698E-23
 -1       306 2.10009E-03-1.42001E-04-1.05879E-22
 -1       307 2.16467E-03-5.05700E-04-5.29396E-23
 -1       308 2.22245E-03-1.04407E-03 0.00000E+00
 -1       309 2.26404E-03-1.67506E-03 0.00000E+00
 -1       310 2.30892E-03-2.28838E-03-1.05879E-22
 -1       311 2.37188E-03-2.77537E-03 5.29396E-23
 -1       312 2.43147E-03-3.06315E-03 0.00000E+00
 -1       313 2.44103E-03-3.11053E-03 5.29396E-23
 -1       314 2.34244E-03-2.92313E-03 0.00000E+00
 -1       315 2.09948E-03-2.54816E-03 0.00000E+00
 -1       316 1.72427E-03-2.05205E-03 0.00000E+00
 -1       317 1.26717E-03-1.49962E-03-5.29396E-23
 -1       318 8.20471E-04-9.54092E-04 0.00000E+00
 -1       319 4.73430E-04-4.80328E-04 0.00000E+00
 -1       320 2.65391E-04-1.43769E-04 0.00000E+00
 -1       336 2.76193E-04-4.17831E-06 1.32349E-23
 -1       337 2.63697E-04-4.86941E-06-6.61744E-24
 -1       338 2.49366E-04-5.58371E-06-1.32349E-23
 -1       339 2.33269E-04-6.32162E-06 0.00000E+00
 -1       340 2.15485E-04-7.08710E-06 1.32349E-23
 -1       406 1.69194E-04 9.02439E-07 0.00000E+00
 -1       407 1.69801E-04 1.03226E-06-8.27181E-25
 -1       408 1.70492E-04 1.16197E-06 1.24077E-24
 -1       409 1.71267E-04 1.29137E-06 6.20385E-25
 -1       410 1.72125E-04 1.42022E-06-1.65436E-24
 -1       521 2.13174E-03-1.52017E-04-1.05879E-22
 -1       522 2.19554E-03-5.34736E-04-5.29396E-23
 -1       523 2.24885E-03-1.09943E-03 0.00000E+00
 -1       524 2.28341E-03-1.75808E-03 5.29396E-23
 -1       525 2.32204E-03-2.39741E-03 0.00000E+00
 -1       526 2.38216E-03-2.90602E-03 5.29396E-23
 -1       527 2.44154E-03-3.20533E-03-1.05879E-22
 -1       528 2.44980E-03-3.25299E-03 0.00000E+00
 -1       529 2.34258E-03-3.05410E-03-2.11758E-22
 -1       530 2.08113E-03-2.66189E-03 5.29396E-23
 -1       531 1.67777E-03-2.14609E-03 0.00000E+00
 -1       532 1.18775E-03-1.57466E-03-5.29396E-23
 -1       533 7.08225E-04-1.00969E-03-1.05879E-22
 -1       534 3.33208E-04-5.15041E-04-5.29396E-23
 -1       535 1.07083E-04-1.59975E-04 0.00000E+00
 -1       536 1.95441E-04 2.41338E-05-6.61744E-24
 -1       537 1.93800E-04 7.96927E-05 0.00000E+00
 -1       538 1.91271E-04 1.50248E-04 0.00000E+00
 -1       539 1.88291E-04 2.27157E-04 0.00000E+00
 -1       540 1.85608E-04 2.99837E-04 3.30872E-24
 -1       541 1.83856E-04 3.57722E-04-1.65436E-24
 -1       542 1.83038E-04 3.94541E-04-3.30872E-24
 -1       543 1.82829E-04 4.04155E-04-1.65436E-24
 -1       544 1.82531E-04 3.87304E-04-3.30872E-24
 -1       545 1.81505E-04 3.44922E-04 0.00000E+00
 -1       546 1.79617E-04 2.84555E-04 0.00000E+00
 -1       547 1.77077E-04 2.13863E-04 0.00000E+00
 -1       548 1.74564E-04 1.43582E-04 3.30872E-24
 -1       549 1.72747E-04 8.44486E-05 1.65436E-24
 -1       550 1.71796E-04 4.38890E-05 0.00000E+00
 -1       551 1.72962E-04-8.39458E-06 0.00000E+00
 -1       552 1.46744E-04-8.99256E-06 0.00000E+00
 -1       553 1.18359E-04-9.64442E-06-1.32349E-23
 -1       554 8.87387E-05-1.03315E-05 0.00000E+00
 -1       555 5.88129E-05-1.10294E-05-2.64698E-23
 -1       556 1.89146E-04 9.94735E-06 0.00000E+00
 -1       557 1.83545E-04 2.43495E-05 2.64698E-23
 -1       558 1.79170E-04 3.56095E-05 0.00000E+00
 -1       559 1.75898E-04 4.40178E-05 0.00000E+00
 -1       560 1.73609E-04 4.98648E-05 0.00000E+00
 -1       561 1.72185E-04 5.34433E-05 0.00000E+00
 -1       562 1.71508E-04 5.50472E-05 0.00000E+00
 -1       563 1.71464E-04 5.49712E-05 0.00000E+00
 -1       564 1.71939E-04 5.35108E-05 0.00000E+00
 -1       565 1.72820E-04 5.09619E-05 0.00000E+00
 -1       566 1.73997E-04 4.76210E-05 6.61744E-24
 -1       567 1.75358E-04 4.37849E-05 0.00000E+00
 -1       568 1.76792E-04 3.97505E-05-1.65436E-24
 -1       569 1.78190E-04 3.58148E-05 0.00000E+00
 -1       570 1.79441E-04 3.22745E-05 0.00000E+00
 -1       571 1.71628E-04 2.74188E-05 8.27181E-25
 -1       572 1.71723E-04 2.55647E-05 1.65436E-24
 -1       573 1.71818E-04 2.36633E-05 0.00000E+00
 -1       574 1.71914E-04 2.17297E-05 1.65436E-24
 -1       575 1.72009E-04 1.97791E-05 3.30872E-24
 -1       576 1.72105E-04 1.78266E-05-1.65436E-24
 -1       577 1.72200E-04 1.58875E-05 3.30872E-24
 -1       578 1.72296E-04 1.39770E-05 0.00000E+00
 -1       579 1.72392E-04 1.21104E-05 0.00000E+00
 -1       580 1.72488E-04 1.03028E-05 0.00000E+00
 -1       581 1.72584E-04 8.56959E-06 0.00000E+00
 -1       582 1.72680E-04 6.92589E-06 0.00000E+00
 -1       583 1.72776E-04 5.38695E-06 0.00000E+00
 -1       584 1.72873E-04 3.96781E-06 0.00000E+00
 -1       585 1.72969E-04 2.68337E-06 0.00000E+00
 -1       586 1.72975E-04 2.92484E-05 0.00000E+00
 -1       587 1.74377E-04 2.92851E-05 0.00000E+00
 -1       588 1.75782E-04 2.93214E-05-8.27181E-25
 -1       589 1.77233E-04 2.93570E-05 0.00000E+00
 -1       590 1.78771E-04 2.93915E-05 0.00000E+00
 -1       591 1.72145E-04 2.75037E-05 2.06795E-25
 -1       592 1.72759E-04 2.57748E-05-2.06795E-25
 -1       593 1.73378E-04 2.40303E-05-8.27181E-25
 -1       594 1.74001E-04 2.22751E-05 0.00000E+00
 -1       595 1.74626E-04 2.05141E-05-8.27181E-25
 -1       596 1.75251E-04 1.87521E-05 4.13590E-25
 -1       597 1.75875E-04 1.69940E-05-8.27181E-25
 -1       598 1.76496E-04 1.52445E-05-4.13590E-25
 -1       599 1.77111E-04 1.35085E-05 0.00000E+00
 -1       600 1.77720E-04 1.17908E-05 4.13590E-25
 -1       601 1.78320E-04 1.00963E-05 8.27181E-25
 -1       602 1.78910E-04 8.42966E-06 0.00000E+00
 -1       603 1.79487E-04 6.79581E-06-4.13590E-25
 -1       604 1.80051E-04 5.19966E-06-1.29247E-25
 -1       605 1.80600E-04 3.64594E-06 4.13590E-25
 -1       606 1.73079E-04 6.32571E-07 0.00000E+00
 -1       607 1.73089E-04-1.94073E-07 0.00000E+00
 -1       608 1.73098E-04-9.37821E-07 0.00000E+00
 -1       609 1.73106E-04-1.60450E-06 0.00000E+00
 -1       610 1.73115E-04-2.20000E-06 0.00000E+00
 -1       611 1.73124E-04-2.73025E-06 0.00000E+00
 -1       612 1.73132E-04-3.20121E-06 0.00000E+00
 -1       613 1.73141E-04-3.61883E-06 0.00000E+00
 -1       614 1.73150E-04-3.98909E-06 0.00000E+00
 -1       615 1.73158E-04-4.31793E-06-8.27181E-25
 -1       616 1.73167E-04-4.61132E-06 0.00000E+00
 -1       617 1.73175E-04-4.87522E-06 4.13590E-25
 -1       618 1.73184E-04-5.11558E-06 0.00000E+00
 -1       619 1.73193E-04-5.33837E-06 2.06795E-25
 -1       620 1.73201E-04-5.54955E-06 0.00000E+00
 -1       621 1.74160E-04 1.64662E-06 0.00000E+00
 -1       622 1.75393E-04 1.74623E-06-1.65436E-24
 -1       623 1.76736E-04 1.84567E-06 3.30872E-24
 -1       624 1.78160E-04 1.94483E-06 1.65436E-24
 -1       625 1.79636E-04 2.04374E-06 0.00000E+00
 -1       626 1.73516E-04 6.67110E-07 0.00000E+00
 -1       627 1.73943E-04-1.46943E-07 0.00000E+00
 -1       628 1.74348E-04-9.02734E-07 6.61744E-24
 -1       629 1.74735E-04-1.60846E-06 0.00000E+00
 -1       630 1.75106E-04-2.27235E-06 0.00000E+00
 -1       631 1.75465E-04-2.90263E-06-1.65436E-24
 -1       632 1.75814E-04-3.50756E-06 0.00000E+00
 -1       633 1.76157E-04-4.09539E-06 1.65436E-24
 -1       634 1.76496E-04-4.67436E-06 0.00000E+00
 -1       635 1.76835E-04-5.25270E-06-1.65436E-24
 -1       636 1.77177E-04-5.83867E-06 3.30872E-24
 -1       637 1.77525E-04-6.44052E-06 0.00000E+00
 -1       638 1.77882E-04-7.06649E-06-1.65436E-24
 -1       639 1.78250E-04-7.72485E-06 8.27181E-25
 -1       640 1.78634E-04-8.42387E-06 1.65436E-24
 -1       656 1.73645E-04-6.31051E-06 0.00000E+00
 -1       657 1.74495E-04-6.88847E-06-6.61744E-24
 -1       658 1.75619E-04-7.46503E-06 0.00000E+00
 -1       659 1.76871E-04-8.04123E-06-6.61744E-24
 -1       660 1.78069E-04-8.61918E-06-6.61744E-24
 -1       661 1.73373E-04-6.00309E-06 8.27181E-25
 -1       662 1.73573E-04-6.33787E-06 0.00000E+00
 -1       663 1.73803E-04-6.75466E-06 0.00000E+00
 -1       664 1.74063E-04-7.24747E-06-8.27181E-25
 -1       665 1.74349E-04-7.81098E-06-1.65436E-24
 -1       666 1.74659E-04-8.43975E-06 8.27181E-25
 -1       667 1.74992E-04-9.12861E-06 0.00000E+00
 -1       668 1.75346E-04-9.87247E-06-8.27181E-25
 -1       669 1.75718E-04-1.06664E-05 1.65436E-24
 -1       670 1.76107E-04-1.15055E-05 0.00000E+00
 -1       671 1.76511E-04-1.23851E-05 0.00000E+00
 -1       672 1.76929E-04-1.33007E-05 0.00000E+00
 -1       673 1.77358E-04-1.42475E-05 0.00000E+00
 -1       674 1.77796E-04-1.52215E-05 0.00000E+00
 -1       675 1.78243E-04-1.62177E-05-4.13590E-25
 -1       676 1.73427E-04-1.67320E-05 0.00000E+00
 -1       677 1.74484E-04-1.68330E-05-1.65436E-24
 -1       678 1.75539E-04-1.69340E-05 0.00000E+00
 -1       679 1.76593E-04-1.70347E-05-1.65436E-24
 -1       680 1.77644E-04-1.71353E-05 1.65436E-24
 -1       771 1.85301E-05 1.26949E-05 5.29396E-23
 -1       772 9.27628E-06 3.27599E-05 0.00000E+00
 -1       773 1.66402E-06 4.86730E-05 5.29396E-23
 -1       774-4.41900E-06 6.06721E-05 2.64698E-23
 -1       775-9.08290E-06 6.90044E-05 0.00000E+00
 -1       776-1.24422E-05 7.39318E-05 0.00000E+00
 -1       777-1.46115E-05 7.57250E-05 5.29396E-23
 -1       778-1.57077E-05 7.46670E-05 0.00000E+00
 -1       779-1.58473E-05 7.10481E-05-5.29396E-23
 -1       780-1.51488E-05 6.51687E-05 2.64698E-23
 -1       781-1.37300E-05 5.73353E-05-5.29396E-23
 -1       782-1.17100E-05 4.78619E-05-2.64698E-23
 -1       783-9.20745E-06 3.70668E-05 1.05879E-22
 -1       784-6.34205E-06 2.52735E-05-2.64698E-23
 -1       785-3.23274E-06 1.28085E-05 0.00000E+00
 -1       786 1.80477E-04 2.74950E-05-5.16988E-26
 -1       787 1.80519E-04 2.56166E-05 4.13590E-25
 -1       788 1.80562E-04 2.37789E-05 8.27181E-25
 -1       789 1.80606E-04 2.19739E-05 0.00000E+00
 -1       790 1.80649E-04 2.01971E-05 0.00000E+00
 -1       791 1.80693E-04 1.84436E-05 0.00000E+00
 -1       792 1.80737E-04 1.67115E-05 1.65436E-24
 -1       793 1.80781E-04 1.49986E-05 0.00000E+00
 -1       794 1.80825E-04 1.33046E-05-1.65436E-24
 -1       795 1.80869E-04 1.16296E-05 0.00000E+00
 -1       796 1.80913E-04 9.97524E-06 0.00000E+00
 -1       797 1.80957E-04 8.34352E-06 8.27181E-25
 -1       798 1.81001E-04 6.73862E-06 1.65436E-24
 -1       799 1.81045E-04 5.16484E-06-8.27181E-25
 -1       800 1.81090E-04 3.62962E-06 0.00000E+00
 -1       801 1.39181E-04 2.63608E-05 0.00000E+00
 -1       802 1.42503E-05 1.66038E-05 0.00000E+00
 -1       803-9.32392E-05 8.48799E-06 0.00000E+00
 -1       804-8.40324E-05 5.86592E-06-2.64698E-23
 -1       805-2.79316E-05 2.38532E-06-5.29396E-23
 -1       806 1.81050E-04 2.74295E-05 3.30872E-24
 -1       807 1.81648E-04 2.54628E-05-1.65436E-24
 -1       808 1.82234E-04 2.35272E-05 0.00000E+00
 -1       809 1.82807E-04 2.16263E-05 0.00000E+00
 -1       810 1.83366E-04 1.97640E-05 0.00000E+00
 -1       811 1.83908E-04 1.79438E-05 0.00000E+00
 -1       812 1.84434E-04 1.61695E-05 3.30872E-24
 -1       813 1.84941E-04 1.44447E-05 1.65436E-24
 -1       814 1.85428E-04 1.27731E-05-1.65436E-24
 -1       815 1.85894E-04 1.11582E-05 8.27181E-25
 -1       816 1.86337E-04 9.60361E-06 1.65436E-24
 -1       817 1.86757E-04 8.11302E-06-1.65436E-24
 -1       818 1.87151E-04 6.69002E-06 1.65436E-24
 -1       819 1.87519E-04 5.33819E-06-8.27181E-25
 -1       820 1.87860E-04 4.06110E-06 1.65436E-24
 -1       821 1.81010E-04 3.33057E-07-1.65436E-24
 -1       822 1.80877E-04-2.15367E-06 0.00000E+00
 -1       823 1.80743E-04-5.03749E-06 3.30872E-24
 -1       824 1.80608E-04-8.03388E-06 1.65436E-24
 -1       825 1.80473E-04-1.08289E-05-3.30872E-24
 -1       826 1.80339E-04-1.31097E-05 0.00000E+00
 -1       827 1.80207E-04-1.46995E-05 0.00000E+00
 -1       828 1.80075E-04-1.54257E-05-1.65436E-24
 -1       829 1.79944E-04-1.53440E-05-3.30872E-24
 -1       830 1.79812E-04-1.45151E-05 0.00000E+00
 -1       831 1.79680E-04-1.31972E-05 0.00000E+00
 -1       832 1.79548E-04-1.16514E-05 1.65436E-24
 -1       833 1.79416E-04-1.01991E-05 0.00000E+00
 -1       834 1.79286E-04-9.16136E-06-1.65436E-24
 -1       835 1.79155E-04-8.74967E-06 0.00000E+00
 -1       836 1.82510E-04 2.26032E-06 0.00000E+00
 -1       837 1.83763E-04 2.38304E-06 0.00000E+00
 -1       838 1.84924E-04 2.50567E-06 3.30872E-24
 -1       839 1.86025E-04 2.62761E-06 0.00000E+00
 -1       840 1.87097E-04 2.74938E-06 0.00000E+00
 -1       856 1.79015E-04-9.94165E-06 0.00000E+00
 -1       857 1.78994E-04-1.05794E-05 0.00000E+00
 -1       858 1.78974E-04-1.11057E-05 0.00000E+00
 -1       859 1.78952E-04-1.15411E-05 2.06795E-25
 -1       860 1.78931E-04-1.19064E-05 0.00000E+00
 -1       861 1.78910E-04-1.22223E-05 0.00000E+00
 -1       862 1.78888E-04-1.25095E-05 0.00000E+00
 -1       863 1.78867E-04-1.27889E-05-4.13590E-25
 -1       864 1.78846E-04-1.30813E-05 0.00000E+00
 -1       865 1.78824E-04-1.34075E-05-4.13590E-25
 -1       866 1.78803E-04-1.37883E-05-8.27181E-25
 -1       867 1.78781E-04-1.42443E-05 0.00000E+00
 -1       868 1.78759E-04-1.47964E-05 8.27181E-25
 -1       869 1.78738E-04-1.54650E-05-4.13590E-25
 -1       870 1.78716E-04-1.62707E-05 8.27181E-25
 -1       871 1.80079E-04-9.17591E-06-8.27181E-25
 -1       872 1.81267E-04-9.18314E-06 0.00000E+00
 -1       873 1.82532E-04-9.19102E-06 0.00000E+00
 -1       874 1.83809E-04-9.19961E-06-1.03398E-25
 -1       875 1.85032E-04-9.20877E-06-1.44757E-24
 -1       876 1.79445E-04-9.92776E-06 3.30872E-24
 -1       877 1.79835E-04-1.06188E-05 0.00000E+00
 -1       878 1.80204E-04-1.12527E-05 0.00000E+00
 -1       879 1.80555E-04-1.18367E-05 1.65436E-24
 -1       880 1.80889E-04-1.23780E-05 3.30872E-24
 -1       881 1.81211E-04-1.28838E-05-1.65436E-24
 -1       882 1.81522E-04-1.33613E-05 0.00000E+00
 -1       883 1.81825E-04-1.38175E-05 0.00000E+00
 -1       884 1.82122E-04-1.42597E-05-3.30872E-24
 -1       885 1.82417E-04-1.46949E-05 0.00000E+00
 -1       886 1.82712E-04-1.51303E-05 0.00000E+00
 -1       887 1.83010E-04-1.55731E-05 0.00000E+00
 -1       888 1.83313E-04-1.60304E-05 0.00000E+00
 -1       889 1.83624E-04-1.65095E-05 1.65436E-24
 -1       890 1.83944E-04-1.70176E-05 1.65436E-24
 -1       891 1.79762E-04-1.72892E-05-1.65436E-24
 -1       892 1.80808E-04-1.73447E-05-8.27181E-25
 -1       893 1.81807E-04-1.74001E-05-1.65436E-24
 -1       894 1.82733E-04-1.74553E-05 8.27181E-25
 -1       895 1.83563E-04-1.75103E-05-8.27181E-25
 -1       956 1.88047E-04 1.82885E-06 0.00000E+00
 -1       957 1.87920E-04 8.81877E-07 1.65436E-24
 -1       958 1.87793E-04 1.12737E-08 0.00000E+00
 -1       959 1.87665E-04-7.93589E-07 1.65436E-24
 -1       960 1.87538E-04-1.54338E-06 3.30872E-24
 -1       961 1.87410E-04-2.24881E-06 1.65436E-24
 -1       962 1.87282E-04-2.92058E-06-3.30872E-24
 -1       963 1.87155E-04-3.56942E-06 1.65436E-24
 -1       964 1.87027E-04-4.20608E-06-3.30872E-24
 -1       965 1.86899E-04-4.84125E-06 0.00000E+00
 -1       966 1.86772E-04-5.48570E-06 0.00000E+00
 -1       967 1.86644E-04-6.15013E-06-1.65436E-24
 -1       968 1.86517E-04-6.84527E-06 0.00000E+00
 -1       969 1.86389E-04-7.58181E-06 1.65436E-24
 -1       970 1.86262E-04-8.37040E-06 0.00000E+00
 -1       971 1.86022E-04-1.00686E-05 0.00000E+00
 -1       972 1.85905E-04-1.08229E-05 1.65436E-24
 -1       973 1.85788E-04-1.14946E-05 3.30872E-24
 -1       974 1.85670E-04-1.20943E-05 1.65436E-24
 -1       975 1.85553E-04-1.26326E-05 0.00000E+00
 -1       976 1.85436E-04-1.31202E-05 0.00000E+00
 -1       977 1.85319E-04-1.35678E-05 3.30872E-24
 -1       978 1.85202E-04-1.39861E-05 1.65436E-24
 -1       979 1.85084E-04-1.43858E-05-3.30872E-24
 -1       980 1.84967E-04-1.47777E-05 0.00000E+00
 -1       981 1.84850E-04-1.51725E-05 0.00000E+00
 -1       982 1.84733E-04-1.55808E-05 0.00000E+00
 -1       983 1.84616E-04-1.60134E-05 0.00000E+00
 -1       984 1.84500E-04-1.64809E-05 1.65436E-24
 -1       985 1.84384E-04-1.69942E-05 0.00000E+00
 -3
    1PSTEP                        18           9           1          
  100CL  109 6.44531E-01         409                     0    9           1
 -4  STRESS      6    1
 -5  SXX         1    4    1    1
 -5  SYY         1    4    2    2
 -5  SZZ         1    4    3    3
 -5  SXY         1    4    1    2
 -5  SYZ         1    4    2    3
 -5  SZX         1    4    3    1
 -1         1-4.42963E+06-1.65128E+06-9.74365E+05-1.62388E+06 1.46974E-09-1.02416E-07
 -1         2 3.02056E+04-2.13480E+06 1.25920E+05 3.29490E+05 4.32738E-09 3.23234E-07
 -1         3-1.24302E+03-1.62005E+06 4.06072E+02-2.10255E+03-4.09102E-10-1.30858E-08
 -1         5-4.75588E+01 3.68697E+05-2.95639E-01 5.95625E+00-3.38460E-10 2.45582E-08
 -1         8-6.21585E+05-2.09497E+05-4.91776E+04-4.00595E+05-7.36691E-11 9.64174E-08
 -1         9 8.09551E+06-6.71726E+05 1.35487E+06-1.01665E+06 2.79979E-08 6.81495E-08
 -1        10-2.13286E+03-1.68820E+06-3.86849E+03-1.42078E+04-1.24201E-08 5.40331E-09
 -1        12-4.74751E+01 3.70569E+05 3.08278E+02-1.15057E+01 1.38425E-09-4.39126E-08
 -1        15 1.25875E+03 6.91752E+02 4.06890E+03 1.84229E+00-1.48944E-10 1.04435E-07
 -1        16 1.75966E+07-1.51069E+05 2.47686E+06-1.43396E+06 2.16921E-08 4.78079E-08
 -1        17 6.31889E+06 4.50826E+06 1.70244E+06 4.42724E+06 1.70170E-08 1.42492E-08
 -1        18 1.12991E+05 2.55578E+04-1.62555E+03-1.12183E+05 1.51574E-08 2.38742E-10
 -1        19 1.17317E+05 1.36127E+05-8.56163E+02 2.13911E+04 1.13123E-09-9.21500E-10
 -1        20-7.53895E+04-5.50176E+05-1.23232E+05 2.58930E+04-1.20902E-09-7.31658E-09
 -1        21-4.49583E+01-2.87782E+05-9.01975E+02 2.08720E+02 9.35699E-09-1.80173E-09
 -1        24 1.03404E+07 8.81605E+06 2.92713E+06 8.20070E+06-1.48051E-07-5.46376E-08
 -1        25 7.45338E+04 8.17562E+04 5.25071E+04-5.37000E+05-2.32749E-09 4.62369E-09
 -1        26-5.22923E+04 8.80315E+04-2.35718E+04 1.34935E+02 1.15688E-10 1.78634E-08
 -1        27-7.45411E+04-2.97787E+05-1.09292E+05 6.63335E+04 3.93114E-09 1.99143E-08
 -1        28 2.17218E+04-8.25640E+04 1.64117E+04 2.06719E+04-2.87272E-09 2.36919E-09
 -1        32-1.62993E+06-2.99669E+06-1.74565E+05 2.63894E+05-3.87881E-08-8.54993E-09
 -1        33-1.71916E+05 8.87001E+04 3.10300E+04-3.76939E+04-2.43184E-09-6.39860E-09
 -1        34-2.15630E+05-2.37529E+04 6.48460E+02 7.21320E+04-4.10283E-09-2.23433E-09
 -1        35-2.23427E+04-3.27508E+04-1.30255E+03 5.00796E+04-2.49937E-09 6.39799E-09
 -1        51 4.97307E+04-2.11641E+05 1.07545E+05-6.34962E+05 2.91038E-11 3.85189E-08
 -1        52 1.80157E+04-1.94470E+05 5.80827E+04-7.40299E+05-1.81899E-11-2.00052E-07
 -1        53 5.10287E+03-2.09954E+05 3.28694E+04-6.32648E+05 2.47383E-10-7.96790E-08
 -1        54 1.14770E+04-2.06410E+05 3.23185E+04-7.42698E+05 2.91038E-11-4.89090E-08
 -1        55 2.40534E+04-2.15914E+05 4.55108E+04-6.32331E+05 6.47560E-10 7.27523E-08
 -1        56-8.35202E+06-9.59372E+05-7.22399E+05-3.28205E+06-3.17814E-08 1.08703E-07
 -1        57-8.82286E+06-1.41977E+06-4.85231E+05-3.03449E+06 2.68701E-08 1.70636E-07
 -1        58-8.44554E+06-1.23574E+06-1.69596E+05-3.29029E+06-2.64772E-08 6.82485E-09
 -1        59-8.72216E+06-1.09010E+06-1.00711E+05-3.02495E+06 2.07910E-08-8.70787E-08
 -1        60-8.45396E+06-1.27871E+06-3.92518E+04-3.29671E+06-2.90811E-09 3.09465E-08
 -1        61-8.67888E+06-1.06878E+06-2.17337E+04-3.04841E+06 2.23331E-08 1.40511E-07
 -1        62-8.48680E+06-1.25699E+06-1.17368E+04-3.26595E+06 1.20763E-08 2.90820E-08
 -1        63-8.58682E+06-1.14499E+06-7.09419E+03-3.13494E+06-6.01176E-09 2.09597E-07
 -1        64-8.54139E+06-1.20548E+06-1.18910E+04-3.20682E+06 3.43061E-09 5.87515E-08
 -1        65-8.48344E+06-1.25452E+06-1.82618E+04-3.25490E+06-3.26327E-08-1.23813E-07
 -1        66-8.58999E+06-1.14774E+06-3.60801E+04-3.14586E+06 3.32566E-08-1.27934E-07
 -1        67-8.43128E+06-1.36945E+06-8.86320E+04-3.34904E+06-6.19802E-08-1.67174E-07
 -1        68-8.59859E+06-1.08840E+06-1.49507E+05-3.11579E+06 7.99628E-09 4.72792E-08
 -1        69-8.55765E+06-1.63313E+06-4.29727E+05-3.33379E+06-3.68527E-09 4.40268E-08
 -1        70-8.46797E+06-8.89567E+05-6.37515E+05-3.16061E+06-8.22183E-09-7.93079E-08
 -1        86-3.10353E+04-3.09784E+06-7.37476E+04-1.64027E+05-4.23288E-08-2.21262E-08
 -1        87 3.75749E+04-2.51609E+06 5.14250E+04 4.89080E+05-7.32120E-08-9.89949E-08
 -1        88-1.38330E+03-2.75722E+06-7.80010E+03-3.24570E+05-6.75063E-08-1.98843E-08
 -1        89 3.62987E+04-2.57016E+06 2.03957E+04 5.21320E+05-9.24956E-08-1.70564E-07
 -1        90-2.46545E+04-3.04944E+06-1.13910E+05-1.96535E+05-2.73776E-08-2.32558E-08
 -1       121-1.71188E+03-1.62420E+06-3.80438E+02 1.04387E+03 1.38641E-09-1.48757E-08
 -1       122-1.06147E+03-1.62009E+06 7.91907E+02-4.20468E+03-5.07247E-09-1.39044E-08
 -1       123-1.74388E+03-1.62433E+06 4.73445E+02 3.11682E+03 4.02338E-09-2.14241E-08
 -1       124 6.07778E+02-1.61955E+06 3.09961E+03-8.77915E+03-9.37234E-09-6.13363E-09
 -1       125-2.60804E+03-1.62525E+06 3.86877E+03 5.58412E+03 5.87352E-09 1.85646E-08
 -1       191-5.04821E+01 3.68721E+05-2.86383E+00-2.96382E+00-4.61284E-10 1.36715E-08
 -1       192-5.19372E+01 3.68696E+05-1.90338E+00 2.97715E+01-6.04899E-10-1.15433E-08
 -1       193-6.40328E+01 3.68721E+05-7.61657E+00-2.67136E+01-7.63521E-10 4.00178E-09
 -1       194-9.86267E+01 3.68683E+05-2.09435E+01 2.41215E+02-5.43650E-10-8.73388E-09
 -1       195-1.93972E+02 3.68726E+05-5.13037E+01-2.14191E+02-1.04592E-09-1.97961E-08
 -1       251-2.27308E+06-4.33697E+04-2.34162E+05 1.31198E+05 2.80488E-09 1.63702E-07
 -1       252-1.06785E+06 4.99253E+04 7.56295E+04-4.39995E+05 1.80326E-08-4.41710E-08
 -1       253-1.77391E+06-1.88505E+04-4.40956E+04 3.08648E+05-4.76939E-09 2.07910E-08
 -1       254-1.63755E+06 7.21937E+04 1.37499E+04-6.15112E+05 2.57917E-08 2.41047E-07
 -1       255-1.76011E+06-1.87948E+04-2.06913E+04 3.11392E+05 6.91398E-09 2.56306E-07
 -1       256-1.09292E+06 5.90449E+04 1.24437E+05-4.52215E+05-5.68525E-09 2.91139E-07
 -1       257-2.26480E+06-5.00355E+04-1.25162E+05 1.40838E+05-2.05546E-08-5.91260E-08
 -1       258-5.47071E+05 4.50011E+04 2.27701E+05 9.34009E+03-9.57152E-09 9.73555E-08
 -1       259-2.25193E+06-4.91507E+04-1.20491E+05-1.47041E+05 3.28946E-08 6.31974E-09
 -1       260-1.12030E+06 6.03444E+04 1.24194E+05 4.64615E+05-4.38777E-08-5.17794E-08
 -1       261-1.74849E+06-1.85852E+04-8.46656E+03-3.11635E+05-8.83074E-08 6.30604E-08
 -1       262-1.62896E+06 8.16600E+04 3.72769E+04 6.16473E+05 2.79723E-08 2.05710E-08
 -1       263-1.79394E+06-2.86194E+04-1.00030E+04-3.03520E+05 3.53612E-09 7.26777E-08
 -1       264-1.00487E+06 1.19424E+05 1.82571E+05 4.30925E+05-1.25699E-07-2.72075E-08
 -1       265-2.31308E+06-1.05243E+05-9.22634E+04-1.21036E+05-3.42261E-08 7.47932E-08
 -1       266-2.27876E+04-1.06558E+04 5.34651E+04-3.94187E+01 1.09139E-10 3.07395E-08
 -1       267 2.64171E+04 1.24191E+04 3.77890E+04 4.54821E+01 2.60570E-10-2.48338E-08
 -1       268-3.54249E+03-1.75891E+03 1.40459E+04-5.79517E+00-1.47338E-10-2.12867E-08
 -1       269 4.18263E+03 2.10502E+03 9.12967E+03 6.75055E+00-5.93445E-11 1.13402E-07
 -1       270-6.27819E+02-3.45873E+02 4.40702E+03-9.16095E-01-2.27374E-13 1.21906E-07
 -1       271-2.05173E+06-2.46685E+05-1.52384E+05-7.84892E+05-1.33659E-08 1.87458E-07
 -1       272-2.16178E+06-3.03521E+05-9.81080E+04-7.22008E+05-1.33150E-08-1.53887E-08
 -1       273-2.07916E+06-2.86050E+05-3.59556E+04-7.79529E+05 1.18789E-08-8.92232E-08
 -1       274-2.12934E+06-2.55441E+05-2.01789E+04-7.30353E+05-8.00321E-09 2.66318E-08
 -1       275-2.08320E+06-2.90030E+05-8.38092E+03-7.78212E+05 2.02494E-08 8.58818E-08
 -1       276-2.12308E+06-2.51857E+05-4.39127E+03-7.33044E+05 5.91581E-09 5.38239E-09
 -1       277-2.08488E+06-2.89428E+05-2.22041E+03-7.76690E+05 1.54259E-08 6.73704E-08
 -1       278-2.11898E+06-2.54419E+05-1.36396E+03-7.36213E+05 1.86747E-08 3.22013E-08
 -1       279-2.08664E+06-2.87830E+05-1.59489E+03-7.74599E+05-3.91083E-08-1.40195E-07
 -1       280-2.11449E+06-2.58811E+05-2.32783E+03-7.40365E+05 3.85444E-08 2.88001E-08
 -1       281-2.08864E+06-2.85515E+05-4.67114E+03-7.72018E+05 2.10348E-08-1.08143E-08
 -1       282-2.11104E+06-2.66628E+05-1.03224E+04-7.45147E+05-1.50540E-08 1.82663E-07
 -1       283-2.08944E+06-2.80708E+05-1.89914E+04-7.69247E+05 1.37443E-08 1.94553E-08
 -1       284-2.12124E+06-2.97509E+05-5.05864E+04-7.47428E+05-4.16558E-08-3.48864E-08
 -1       285-2.07828E+06-2.57510E+05-7.93708E+04-7.68472E+05 6.04632E-09 4.57076E-08
 -1       301 1.30140E+04-4.97636E+05 1.73749E+05-8.63602E+05 5.74801E-10 1.25372E-07
 -1       302 1.42531E+04-4.53151E+05 1.05707E+05-1.26238E+06-2.08820E-09 5.25761E-08
 -1       303-6.80891E+03-4.83665E+05 6.42804E+04-8.61445E+05 8.65839E-10-2.17249E-07
 -1       304 1.36485E+03-4.56920E+05 7.25901E+04-1.26161E+06 2.61934E-10-1.15426E-07
 -1       305-2.99068E+03-4.81294E+05 9.96075E+04-8.64146E+05 2.16278E-09-9.36852E-08
 -1       306-2.56808E+07-5.17945E+06-7.03797E+06-1.27219E+06-6.55418E-08 9.10659E-08
 -1       307 2.08627E+07 1.59323E+06 4.52355E+06-1.20486E+07-7.45364E-07-8.07486E-08
 -1       308-7.89510E+06-6.23167E+05-5.56776E+05 4.28136E+06-1.93715E-07 2.54855E-07
 -1       309-3.57575E+06 5.59909E+06 1.65517E+06-1.78926E+07 3.14263E-07 2.19698E-08
 -1       310-1.06951E+07-1.04641E+06-1.28011E+06 4.14140E+06 2.89292E-07-7.97445E-09
 -1       311 2.73278E+07-3.14993E+05 5.48529E+06-8.55330E+06 2.63419E-07-1.41634E-07
 -1       312-2.64888E+07-5.19175E+06-6.59301E+06-3.63004E+06 2.64496E-07 9.78471E-08
 -1       313 3.69212E+07 9.58153E+06 8.50246E+06 1.69526E+07 1.77708E-07 8.92469E-08
 -1       314-1.64434E+07-1.33303E+07-6.07571E+06-1.06300E+07 3.13157E-07-5.36093E-08
 -1       315-7.37906E+05 2.25075E+07 4.67846E+06 1.02778E+07-2.62342E-07 1.06171E-07
 -1       316-2.61996E+04-8.78643E+06-5.15090E+05-3.70934E+06-1.01584E-06-1.78581E-07
 -1       317-1.68264E+07 1.87527E+07 1.62509E+06-5.16006E+06 5.51743E-07-5.71366E-07
 -1       318-1.36881E+06-9.98192E+06-1.33721E+06-4.48158E+06-7.26170E-07 6.98783E-08
 -1       319 4.06057E+06 2.35911E+07 5.24686E+06 1.27293E+07-8.04430E-08 1.96422E-07
 -1       320-1.91326E+07-1.36763E+07-7.71923E+06-1.05257E+07 1.59256E-07-2.06055E-08
 -1       336-3.08610E+02-1.75826E+06-1.36608E+04 8.49574E+03-2.46591E-08 1.78552E-08
 -1       337-5.24163E+03-1.75868E+06-1.77420E+04-2.05479E+04-4.48915E-08 1.72786E-08
 -1       338 5.52424E+02-1.75782E+06-2.74206E+04 1.18608E+04-3.18978E-08-8.49104E-09
 -1       339-2.91177E+04-1.77505E+06-6.21044E+04-2.71139E+04-5.75692E-08 2.28974E-08
 -1       340 1.94367E+04-1.74378E+06-9.75836E+04 1.49496E+04-3.75876E-08 9.27685E-09
 -1       406 1.06395E+02 3.72410E+05 8.25748E+02 2.26175E+02 2.69938E-09-1.83181E-08
 -1       407 2.10808E+02 3.72572E+05 1.43983E+03-2.34750E+02 1.64800E-09-2.94312E-08
 -1       408 6.29878E+02 3.72332E+05 2.72280E+03 8.13062E+00 3.27520E-09-8.62019E-09
 -1       409 2.80953E+03 3.73422E+05 6.05686E+03 1.99210E+02 1.83252E-09-8.43738E-09
 -1       410 8.19490E+03 3.71559E+05 1.23181E+04-2.20421E+02 3.57795E-09-4.96402E-09
 -1       521-2.73154E+07-6.36289E+06-8.24373E+06-9.97117E+05-6.69388E-08-8.81846E-08
 -1       522 2.16498E+07 2.14533E+06 4.60939E+06-1.50112E+07-5.84521E-07-3.27127E-07
 -1       523-8.71329E+06-8.90420E+05-5.80857E+05 4.72782E+06 2.00467E-07-2.22848E-07
 -1       524-6.55980E+06 7.89255E+06 1.80268E+06-2.08046E+07 9.28558E-07-5.67696E-07
 -1       525-1.17115E+07-1.49267E+06-1.41364E+06 4.57557E+06 7.15780E-07-3.13579E-07
 -1       526 2.96859E+07-3.44558E+05 5.79410E+06-1.09538E+07 4.27593E-07-4.10946E-08
 -1       527-2.83111E+07-6.54307E+06-7.60706E+06-3.55112E+06 1.29803E-07 1.78101E-07
 -1       528 4.05047E+07 1.04973E+07 8.90839E+06 1.92366E+07-1.18162E-07-4.47326E-08
 -1       529-1.75268E+07-1.52079E+07-6.98530E+06-1.09003E+07 4.87198E-08-1.94123E-07
 -1       530-2.87696E+06 2.63732E+07 4.96584E+06 1.04108E+07-4.31624E-07 3.59840E-07
 -1       531-1.29943E+05-9.94238E+06-5.24811E+05-3.91841E+06-8.50108E-07 3.63449E-07
 -1       532-1.98716E+07 2.10803E+07 1.79512E+06-8.30442E+06 4.84419E-07-6.96611E-07
 -1       533-1.46892E+06-1.11499E+07-1.41447E+06-4.61578E+06-1.73575E-07-9.30217E-07
 -1       534 2.16408E+06 2.75538E+07 5.49270E+06 1.32610E+07-6.37083E-08 6.38189E-07
 -1       535-2.03194E+07-1.56688E+07-8.83653E+06-1.07790E+07 8.37026E-08 4.08938E-07
 -1       536-6.60265E+05-4.50400E+04-2.88370E+04-4.83870E+04-1.40881E-09 3.73966E-08
 -1       537-9.96395E+04 4.40298E+04 8.01731E+04 1.11733E+05-9.78832E-08 7.75294E-08
 -1       538-3.92419E+05 2.08991E+03 6.20468E+03-6.60431E+04 2.57671E-08 9.55506E-08
 -1       539-2.85406E+05 3.09140E+03 2.30241E+04 1.26216E+05 1.20840E-07 1.25234E-07
 -1       540-4.79097E+05-2.92430E+02-1.71994E+04-6.32884E+04-1.11463E-08 1.01580E-07
 -1       541 6.92635E+04 1.44930E+04 9.11115E+04 8.75623E+04-2.94069E-08 8.18044E-08
 -1       542-7.37546E+05-1.72546E+04-7.17737E+04-2.67071E+04 5.33364E-08 3.23223E-08
 -1       543 2.90053E+05 2.33713E+04 1.34791E+05-1.23155E+04 1.75573E-08-2.90088E-08
 -1       544-6.93979E+05-1.40546E+04-6.37648E+04 3.60629E+04-1.48539E-08-4.86501E-08
 -1       545-3.25885E+04 7.85748E+03 6.75124E+04-1.02568E+05-9.16771E-10-5.23023E-08
 -1       546-4.23544E+05 5.40566E+03-1.05946E+04 6.32791E+04 1.57627E-08-7.49877E-08
 -1       547-3.01540E+05-4.68216E+03 7.83528E+03-1.28926E+05-9.78854E-08-9.79336E-08
 -1       548-4.32231E+05 4.49045E+03-2.20077E+04 6.29615E+04-9.87939E-08-8.30719E-08
 -1       549-1.46957E+04 1.05915E+04 4.74908E+04-1.00152E+05-5.46481E-08-8.01929E-08
 -1       550-7.02704E+05-1.62713E+04-1.16384E+05 3.39415E+04 5.64478E-09-2.64463E-08
 -1       551 3.73412E+04-7.69165E+05-6.29305E+03-1.20996E+06-9.63046E-08-5.79166E-09
 -1       552 8.46434E+04-8.07977E+05 1.53668E+04-1.72547E+06-6.89324E-08 2.68192E-08
 -1       553 6.44946E+04-8.06302E+05 3.57168E+04-1.20383E+06-1.11715E-07 2.76486E-08
 -1       554 1.21242E+05-8.20335E+05 8.54179E+04-1.72742E+06-6.79865E-08 1.45374E-08
 -1       555 9.41291E+04-8.29051E+05 1.54674E+05-1.20387E+06-1.10551E-07-8.80391E-09
 -1       556 2.03316E+05-3.52768E+05 3.88908E+04-3.85191E+05-2.28756E-08-2.72994E-08
 -1       557 3.26962E+05-4.51551E+05 2.25572E+04-4.96232E+05 1.81899E-09-8.78208E-09
 -1       558 1.88419E+05-3.49293E+05 5.71682E+03-3.86730E+05-1.95578E-08-1.03028E-08
 -1       559 3.03639E+05-4.53945E+05 3.92578E+03-5.14007E+05 2.56114E-08 1.50394E-08
 -1       560 1.75342E+05-3.41065E+05-4.05271E+02-3.96068E+05 7.01402E-09 1.49776E-08
 -1       561 2.87025E+05-4.47425E+05 5.39216E+02-5.25249E+05 1.33878E-09-2.36359E-08
 -1       562 1.65007E+05-3.34615E+05-8.97622E+02-4.03534E+05-1.81899E-09-2.37196E-09
 -1       563 2.74768E+05-4.42081E+05 8.12471E+01-5.33232E+05 1.32422E-09 4.74774E-08
 -1       564 1.57694E+05-3.30051E+05-4.32275E+02-4.08711E+05 9.13860E-09 5.26325E-09
 -1       565 2.66750E+05-4.38590E+05 5.58061E+01-5.38350E+05 7.17046E-09 3.14449E-08
 -1       566 1.53510E+05-3.27400E+05-1.92498E+02-4.11638E+05-8.44739E-09-2.05946E-08
 -1       567 2.63002E+05-4.36959E+05-3.03690E+02-5.40609E+05 2.53312E-08-1.17398E-08
 -1       568 1.52535E+05-3.26808E+05-9.74929E+02-4.12416E+05 1.18689E-09 1.52068E-09
 -1       569 2.62228E+05-4.36916E+05-2.46397E+03-5.39067E+05-4.90400E-09 7.93079E-09
 -1       570 1.55792E+05-3.29833E+05-5.41688E+03-4.11496E+05 7.07951E-09 2.17096E-08
 -1       571 2.77630E+05 1.00583E+04 1.44502E+04-8.77896E+04 6.02904E-09 1.01359E-08
 -1       572 2.79734E+05 3.73809E+03 7.08136E+03-9.63120E+04 8.19318E-09 7.45786E-11
 -1       573 2.78467E+05 1.12767E+03 3.14639E+03-8.76218E+04 5.77438E-09 2.54586E-08
 -1       574 2.78682E+05 6.19358E+02 1.57764E+03-9.65215E+04 3.32557E-09 1.78452E-08
 -1       575 2.78559E+05 3.58081E+02 7.44467E+02-8.75990E+04-4.76933E-09 8.80573E-09
 -1       576 2.78550E+05 3.62021E+02 3.80856E+02-9.65494E+04-1.17839E-08 6.12090E-09
 -1       577 2.78593E+05 3.04500E+02 1.89860E+02-8.75959E+04-1.54878E-08 1.63627E-08
 -1       578 2.78572E+05 3.29384E+02 1.08949E+02-9.65533E+04-2.52221E-08-1.60671E-08
 -1       579 2.78653E+05 2.74706E+02 7.40848E+01-8.75956E+04-1.78807E-09-1.14151E-08
 -1       580 2.78657E+05 2.87322E+02 8.43447E+01-9.65487E+04-2.12094E-09 1.31986E-08
 -1       581 2.78749E+05 2.26511E+02 1.26703E+02-8.76010E+04 6.38829E-09-1.01636E-08
 -1       582 2.78806E+05 2.59436E+02 2.56206E+02-9.64919E+04 9.53150E-10 6.00630E-09
 -1       583 2.78866E+05 2.72324E+02 4.92312E+02-8.76529E+04-2.00635E-09 1.14123E-08
 -1       584 2.79135E+05 6.72025E+02 1.11285E+03-9.60550E+04 3.76713E-09-6.50266E-09
 -1       585 2.78877E+05 1.61554E+03 2.25468E+03-8.80374E+04-4.56566E-10-4.95493E-09
 -1       586-3.29767E+03 1.08114E+05-3.03884E+03-2.41124E+05-2.86354E-09 1.20028E-08
 -1       587-1.18976E+03 1.07828E+05 5.95368E+02-2.65381E+05-5.50790E-09 1.95282E-08
 -1       588 4.91435E+02 1.07685E+05 4.44868E+03-2.40995E+05-2.22644E-09 9.46784E-09
 -1       589 4.95364E+03 1.10010E+05 1.16640E+04-2.65146E+05-3.68891E-09-1.63036E-08
 -1       590 1.58620E+04 1.06419E+05 2.45169E+04-2.41409E+05-4.62023E-09 9.96624E-09
 -1       591-6.90848E+04-1.51627E+04-2.11723E+04-2.99746E+04-1.47793E-09-1.05001E-08
 -1       592-7.27770E+04-1.86567E+04-1.14685E+04-3.35531E+04-1.11363E-09 1.68279E-09
 -1       593-7.12035E+04-1.36251E+04-4.77383E+03-3.15258E+04 5.43126E-09-4.39991E-09
 -1       594-6.98516E+04-1.55521E+04-2.38085E+03-3.36666E+04 1.05128E-08-1.40157E-08
 -1       595-7.13650E+04-1.36199E+04-1.09315E+03-3.15963E+04 2.31772E-09 7.61972E-09
 -1       596-6.96515E+04-1.54102E+04-5.55670E+02-3.36430E+04 1.00515E-08 2.59468E-08
 -1       597-7.13853E+04-1.36343E+04-3.02503E+02-3.15990E+04 4.28003E-09 6.07008E-09
 -1       598-6.96318E+04-1.54046E+04-2.43041E+02-3.36364E+04 7.89180E-09-1.16927E-08
 -1       599-7.13841E+04-1.36348E+04-3.10286E+02-3.15986E+04 7.89669E-09-1.80489E-09
 -1       600-6.96516E+04-1.54108E+04-5.76274E+02-3.36411E+04 1.97451E-09 9.47239E-09
 -1       601-7.13606E+04-1.36211E+04-1.13679E+03-3.15952E+04 1.80285E-09 3.71733E-09
 -1       602-6.98597E+04-1.55575E+04-2.47748E+03-3.36620E+04-3.15310E-09-1.35419E-08
 -1       603-7.11899E+04-1.36292E+04-4.96835E+03-3.15226E+04-1.97451E-09-9.27685E-11
 -1       604-7.29206E+04-1.87701E+04-1.19351E+04-3.35206E+04 5.56076E-09-3.07273E-09
 -1       605-6.89660E+04-1.52462E+04-2.20337E+04-2.99264E+04 3.08196E-09-1.32586E-08
 -1       606 2.69745E+04-1.36568E+04-2.44909E+04 2.46081E+04 1.44310E-08 1.03655E-08
 -1       607 2.27890E+04-4.45546E+03-1.21962E+04 2.76481E+04 1.75050E-08-2.33142E-08
 -1       608 2.51727E+04-7.99301E+02-5.46009E+03 2.44301E+04-7.24867E-09-4.11933E-09
 -1       609 2.47136E+04-2.67955E+02-2.75820E+03 2.78670E+04-1.76951E-08 4.31301E-08
 -1       610 2.49667E+04-3.20246E+01-1.31618E+03 2.44092E+04-2.63208E-09-1.07943E-08
 -1       611 2.48929E+04-3.01324E+01-6.63614E+02 2.78907E+04 4.91309E-09-1.98661E-08
 -1       612 2.49198E+04-1.77025E+01-3.15711E+02 2.44071E+04-9.48512E-09 8.89372E-09
 -1       613 2.49018E+04-2.50708E+01-1.41682E+02 2.78935E+04-1.57975E-08-6.77574E-10
 -1       614 2.48970E+04-2.27975E+01-3.38262E+01 2.44064E+04-1.75396E-08 7.63612E-09
 -1       615 2.48952E+04-2.27449E+01 5.79951E+01 2.78939E+04-2.35082E-08 3.41743E-10
 -1       616 2.48793E+04-1.90754E+01 1.75174E+02 2.44067E+04-1.08307E-08-6.04905E-09
 -1       617 2.49150E+04 1.53462E+01 4.00202E+02 2.78934E+04-3.41515E-10-2.54581E-08
 -1       618 2.48436E+04 9.68793E+01 8.06844E+02 2.44069E+04-2.75350E-09 5.04701E-09
 -1       619 2.51991E+04 6.39681E+02 1.81197E+03 2.78928E+04-1.25783E-09 2.42749E-08
 -1       620 2.45752E+04 2.01057E+03 3.64202E+03 2.44079E+04 3.53793E-10-1.12873E-08
 -1       621 4.46395E+02 2.87326E+05 3.54473E+03 3.57237E+04 7.89441E-10 9.32232E-09
 -1       622 5.84056E+02 2.88155E+05 3.18749E+03 5.18800E+04 1.15369E-09 1.04260E-08
 -1       623 1.07495E+02 2.87507E+05 3.88559E+03 3.55609E+04 1.02341E-09 1.36151E-09
 -1       624 1.96489E+03 2.89337E+05 7.57700E+03 5.20411E+04 1.10037E-09-1.45637E-08
 -1       625 1.93289E+03 2.86006E+05 1.32621E+04 3.55579E+04 1.27466E-09-4.57794E-09
 -1       626 2.49558E+05 5.99138E+04 4.94605E+03 1.22743E+05-2.79670E-10-2.38688E-08
 -1       627 2.47215E+05 6.13675E+04 2.38346E+03 1.26987E+05 3.65253E-09-4.79929E-09
 -1       628 2.49687E+05 5.76436E+04 1.00787E+03 1.23575E+05-3.66526E-09-1.02596E-08
 -1       629 2.46590E+05 6.07200E+04 4.93366E+02 1.27228E+05-4.27099E-09-1.03738E-08
 -1       630 2.49700E+05 5.75344E+04 2.28825E+02 1.23608E+05 2.53749E-10 1.03542E-08
 -1       631 2.46523E+05 6.06964E+04 1.23165E+02 1.27229E+05 2.73576E-09 1.12809E-08
 -1       632 2.49695E+05 5.75389E+04 8.11127E+01 1.23603E+05 6.30007E-09-1.45997E-09
 -1       633 2.46514E+05 6.06989E+04 9.04354E+01 1.27225E+05 1.23748E-09 6.02563E-09
 -1       634 2.49690E+05 5.75368E+04 1.46219E+02 1.23602E+05-2.46132E-09 1.10063E-08
 -1       635 2.46527E+05 6.06977E+04 2.95929E+02 1.27229E+05-4.21373E-09 3.95903E-09
 -1       636 2.49680E+05 5.75318E+04 5.97650E+02 1.23601E+05-2.09252E-09-1.86396E-08
 -1       637 2.46655E+05 6.07908E+04 1.31400E+03 1.27228E+05 4.00792E-09-2.22017E-08
 -1       638 2.49633E+05 5.78222E+04 2.69984E+03 1.23470E+05 9.91349E-10-7.10952E-09
 -1       639 2.48073E+05 6.27632E+04 6.38780E+03 1.26810E+05 1.12118E-09-1.93722E-10
 -1       640 2.49438E+05 6.37106E+04 1.32558E+04 1.20986E+05 6.49015E-09-4.19300E-09
 -1       656 6.40486E+04-1.63716E+06-1.54610E+05-2.10093E+03-6.76664E-10 9.81493E-09
 -1       657-8.47205E+04-1.70701E+06-1.28063E+05 5.71410E+03-8.92214E-10 1.67900E-08
 -1       658 2.04070E+04-1.65701E+06-7.88436E+04-4.06351E+03 5.45242E-10 1.07044E-08
 -1       659-9.15380E+04-1.71025E+06-1.37022E+05 7.30359E+03-1.44064E-09 7.30884E-09
 -1       660 7.08507E+04-1.63393E+06-1.70012E+05-3.69041E+03-2.02272E-09-2.33027E-09
 -1       661 1.60926E+05 1.69489E+04 1.67278E+04 6.29111E+04-5.72527E-10-1.28994E-08
 -1       662 1.70286E+05 2.94324E+04 1.12731E+04 5.92694E+04 1.56052E-09 6.39375E-09
 -1       663 1.64212E+05 2.23157E+04 3.94274E+03 6.19581E+04-4.54861E-10-7.42307E-09
 -1       664 1.66478E+05 2.31557E+04 2.35839E+03 6.04331E+04-8.73001E-10-1.31426E-08
 -1       665 1.64709E+05 2.30493E+04 9.30368E+02 6.18133E+04 1.26306E-09 1.07131E-08
 -1       666 1.65889E+05 2.23164E+04 5.44309E+02 6.06216E+04 5.82331E-09 1.10707E-08
 -1       667 1.64796E+05 2.31332E+04 2.88986E+02 6.17775E+04-1.40298E-09-4.25273E-09
 -1       668 1.65794E+05 2.22555E+04 2.94164E+02 6.06738E+04-8.05085E-09-3.30036E-09
 -1       669 1.64804E+05 2.31084E+04 3.98015E+02 6.17615E+04-2.95029E-09 7.61307E-09
 -1       670 1.65891E+05 2.24712E+04 8.66462E+02 6.06766E+04-7.93282E-09 1.12399E-08
 -1       671 1.64699E+05 2.29219E+04 1.53839E+03 6.17727E+04 9.36168E-10 3.95812E-09
 -1       672 1.66787E+05 2.39680E+04 3.93588E+03 6.04596E+04 6.46855E-09-3.09029E-09
 -1       673 1.63912E+05 2.16495E+04 6.59588E+03 6.19640E+04 2.88503E-09 2.83671E-09
 -1       674 1.73065E+05 3.45646E+04 1.88628E+04 5.86149E+04-3.81715E-09-1.35797E-08
 -1       675 1.58462E+05 1.26220E+04 2.79990E+04 6.35060E+04-3.61479E-09 2.67573E-09
 -1       676 2.34863E+01-2.87707E+05-1.08712E+03-1.04363E+02 3.68658E-10-5.92060E-09
 -1       677-2.88026E+02-2.87970E+05-1.98960E+03 2.08565E+02 8.41715E-09-1.38304E-08
 -1       678 1.92820E+02-2.87520E+05-3.51712E+03-1.04133E+02 6.59384E-11-3.32003E-09
 -1       679-3.51760E+03-2.90093E+05-8.35520E+03 2.07689E+02 5.66399E-09-5.94943E-09
 -1       680 2.09987E+03-2.85585E+05-1.34657E+04-1.02331E+02-1.90084E-10 3.27404E-09
 -1       771-2.99236E+06-7.06372E+05-1.44447E+05-1.41458E+06-3.04717E-08-2.58733E-08
 -1       772-2.92207E+06-7.88470E+05-7.46157E+04-1.50930E+06-2.18715E-08 1.14087E-08
 -1       773-3.01985E+06-6.84850E+05-3.77176E+04-1.42661E+06-1.27184E-08 1.05210E-08
 -1       774-2.91286E+06-7.72623E+05-1.68940E+04-1.53151E+06 2.28174E-08-8.69477E-10
 -1       775-3.03386E+06-6.74983E+05-1.24222E+04-1.43230E+06-1.94996E-09 1.06302E-08
 -1       776-2.92289E+06-7.70289E+05-4.67983E+03-1.54807E+06-9.77889E-09 1.70621E-09
 -1       777-3.04593E+06-6.66247E+05-5.41082E+03-1.43731E+06 3.25963E-09 3.85626E-09
 -1       778-2.93340E+06-7.68151E+05-1.54113E+03-1.56227E+06 3.01952E-09 7.13044E-09
 -1       779-3.05625E+06-6.58648E+05-2.67944E+03-1.44160E+06-1.61526E-08-6.20639E-09
 -1       780-2.94264E+06-7.66107E+05-4.46102E+02-1.57382E+06-9.66247E-09-1.43700E-09
 -1       781-3.06443E+06-6.52540E+05-1.03291E+03-1.44496E+06-3.02389E-08-3.14139E-09
 -1       782-2.94975E+06-7.64362E+05 3.79202E+02-1.58235E+06-2.91329E-08-4.95538E-09
 -1       783-3.07018E+06-6.48309E+05 5.94979E+02-1.44731E+06-1.01863E-08-1.22632E-08
 -1       784-2.95366E+06-7.62555E+05 2.44023E+03-1.58760E+06-2.65354E-08 3.07136E-09
 -1       785-3.07357E+06-6.45791E+05 4.30962E+03-1.44882E+06-3.49428E-08 1.39098E-08
 -1       786 1.25199E+05-9.66071E+03 2.23506E+04-2.82802E+02 2.10806E-09 1.73077E-09
 -1       787 1.34892E+05 1.11847E+04 1.58122E+04-1.02850E+02 5.91331E-09 2.33940E-08
 -1       788 1.28936E+05-1.51399E+03 5.78276E+03-2.49517E+02 2.54868E-09 2.13984E-08
 -1       789 1.30538E+05 1.75216E+03 3.63046E+03-1.54331E+02 3.06184E-10-1.10151E-08
 -1       790 1.29554E+05-2.35867E+02 1.47048E+03-2.31336E+02-6.42368E-10 1.89818E-08
 -1       791 1.29817E+05 2.72793E+02 8.50420E+02-1.85540E+02-7.26443E-09-8.50662E-10
 -1       792 1.29658E+05-3.57280E+01 3.62583E+02-2.18310E+02-4.02784E-09-3.58946E-09
 -1       793 1.29692E+05 3.85930E+01 1.85605E+02-2.10076E+02 5.02206E-10-1.56849E-08
 -1       794 1.29678E+05-1.81588E+00 5.79788E+01-2.06800E+02 3.44045E-09-9.58119E-09
 -1       795 1.29660E+05-1.89560E+01-3.10337E+01-2.34130E+02-3.90535E-09 1.96400E-08
 -1       796 1.29691E+05 2.17894E+01-1.15981E+02-1.94255E+02 3.88979E-09-7.92748E-09
 -1       797 1.29588E+05-1.64116E+02-3.30930E+02-2.62964E+02 3.26090E-09 4.47685E-09
 -1       798 1.29750E+05 1.43235E+02-5.40902E+02-1.77966E+02 1.71292E-09 1.28125E-08
 -1       799 1.29176E+05-1.05611E+03-1.49111E+03-3.03121E+02 4.66300E-09 1.54246E-08
 -1       800 1.30103E+05 9.13054E+02-2.11108E+03-1.54098E+02 3.50856E-10 2.60590E-08
 -1       801-1.06501E+05-8.79586E+06-1.19142E+06 1.13025E+06 8.23638E-08-5.15465E-08
 -1       802 5.53270E+05 4.07372E+06 1.71007E+06-1.36483E+06 2.34555E-07-3.01588E-08
 -1       803-4.27542E+05-1.21308E+07-1.52595E+06 7.19312E+05 7.05149E-08 2.13768E-08
 -1       804 2.15192E+05 1.13849E+06 1.20557E+06 5.83409E+05-1.06491E-07-7.94286E-08
 -1       805 1.64665E+05-5.87578E+06-2.33126E+05-8.13367E+05-4.37140E-08-5.73664E-08
 -1       806-2.96997E+05-5.72293E+04-2.18928E+04-1.17431E+05-7.27596E-10-1.39635E-08
 -1       807-2.98757E+05-5.36178E+04-1.07557E+04-1.22697E+05 1.61281E-08 4.68908E-09
 -1       808-2.97594E+05-4.93429E+04-4.56294E+03-1.21165E+05-4.80122E-09 1.13408E-08
 -1       809-2.96497E+05-5.05941E+04-2.23117E+03-1.22960E+05-7.67977E-09-3.06591E-09
 -1       810-2.97685E+05-4.90683E+04-1.02265E+03-1.21331E+05 4.02724E-09-5.30235E-10
 -1       811-2.96323E+05-5.04725E+04-5.08564E+02-1.22926E+05 1.30967E-10-4.01997E-10
 -1       812-2.97699E+05-4.90918E+04-2.57202E+02-1.21330E+05-4.07090E-09-1.24378E-08
 -1       813-2.96299E+05-5.04744E+04-1.67193E+02-1.22909E+05-1.61845E-09 4.11001E-09
 -1       814-2.97693E+05-4.91008E+04-1.65694E+02-1.21326E+05 1.44519E-09 5.91263E-09
 -1       815-2.96303E+05-5.04764E+04-2.67072E+02-1.22902E+05 4.49836E-09 1.48816E-09
 -1       816-2.97673E+05-4.90996E+04-5.06159E+02-1.21323E+05 4.22187E-09 2.18101E-08
 -1       817-2.96389E+05-5.05245E+04-1.08645E+03-1.22892E+05-1.60371E-08-1.56183E-09
 -1       818-2.97608E+05-4.92524E+04-2.21590E+03-1.21251E+05-9.78525E-09 2.97732E-08
 -1       819-2.97602E+05-5.18636E+04-5.21407E+03-1.22606E+05-1.53050E-08 4.78144E-09
 -1       820-2.97192E+05-5.31895E+04-1.06124E+04-1.19567E+05-7.49969E-09-6.40057E-10
 -1       821-3.66870E+05 2.02148E+04-4.68608E+04 1.51207E+03 1.05886E-08 3.75439E-09
 -1       822-3.86727E+05-2.34070E+04-3.30820E+04-2.93207E+03 2.32074E-09 1.82172E-08
 -1       823-3.74467E+05 3.17603E+03-1.21225E+04 2.20549E+03-8.31337E-09-2.47883E-09
 -1       824-3.77715E+05-3.66873E+03-7.61111E+03-3.27027E+03 2.91742E-10-1.75671E-08
 -1       825-3.75881E+05 4.93635E+02-3.15774E+03 1.85031E+03 1.39485E-08 7.19058E-09
 -1       826-3.75838E+05-5.68768E+02-1.80231E+03-1.70627E+03 1.81452E-08 3.53244E-08
 -1       827-3.76331E+05 7.03242E+01-1.05259E+03 6.41434E+02 8.26103E-09-2.60209E-09
 -1       828-3.75476E+05-1.59565E+02-7.47909E+02 9.16210E+02 4.09329E-10 2.89341E-09
 -1       829-3.76239E+05 8.15090E+01-1.05583E+03-7.72198E+02 1.68417E-09-1.75919E-09
 -1       830-3.76047E+05-6.06998E+02-1.90862E+03 3.18522E+03 3.56749E-10 8.04903E-09
 -1       831-3.75770E+05 5.25010E+02-3.25252E+03-1.62761E+03-3.91202E-09 8.95818E-09
 -1       832-3.77801E+05-3.82058E+03-7.90744E+03 3.87688E+03-3.12480E-09-7.59348E-09
 -1       833-3.74491E+05 3.29699E+03-1.26031E+04-1.46388E+03-2.68992E-09-1.50708E-08
 -1       834-3.86938E+05-2.43026E+04-3.43114E+04 2.59537E+03-2.19067E-09 1.07611E-08
 -1       835-3.66629E+05 2.09845E+04-4.86807E+04-3.46055E+02 5.82993E-09 2.54804E-08
 -1       836-1.33803E+03 3.53498E+05 2.18088E+04-1.62792E+04-5.98993E-09 1.24774E-08
 -1       837 4.66524E+03 3.60321E+05 1.84874E+04-3.31389E+04-6.39534E-09-2.18567E-08
 -1       838-5.26081E+02 3.55406E+05 1.88828E+04-1.62089E+04-5.04178E-09-4.62160E-09
 -1       839 1.19181E+04 3.65723E+05 3.57661E+04-3.31887E+04-5.13273E-09 2.39418E-08
 -1       840-3.67353E+03 3.48039E+05 5.70537E+04-1.62337E+04-5.14046E-09 1.45751E-09
 -1       856-5.71683E+04 7.96104E+03-2.09792E+04-3.99034E+02 2.47690E-09 1.67793E-08
 -1       857-6.58152E+04-9.35092E+03-1.44421E+04 5.47912E+03 3.83807E-09 1.04592E-11
 -1       858-6.05913E+04 1.11628E+03-5.44375E+03-4.22957E+02 3.66100E-09 1.68136E-08
 -1       859-6.18867E+04-1.31040E+03-3.28542E+03 5.51515E+03-2.01865E-10 6.92995E-09
 -1       860-6.11027E+04 1.56147E+02-1.37752E+03-4.34856E+02 3.67947E-10 1.75498E-08
 -1       861-6.12983E+04-1.83738E+02-7.59059E+02 5.53138E+03 8.92548E-10 1.30490E-08
 -1       862-6.11826E+04 2.10519E+01-3.18057E+02-4.39184E+02-1.19927E-09-3.30496E-09
 -1       863-6.12007E+04-1.95812E+01-1.21594E+02 5.53382E+03-2.24291E-09-7.25541E-09
 -1       864-6.12007E+04-4.29346E+00 3.39189E+01-4.37290E+02-4.91738E-10-9.17461E-09
 -1       865-6.11490E+04 5.54773E+01 2.24492E+02 5.52324E+03 5.89083E-10-1.47933E-08
 -1       866-6.12323E+04-5.40967E+01 4.59034E+02-4.28604E+02 6.05212E-10-5.88349E-09
 -1       867-6.09313E+04 4.47426E+02 1.13415E+03 5.49962E+03-3.89718E-10-8.02402E-10
 -1       868-6.14137E+04-3.89374E+02 1.88562E+03-4.13668E+02 8.85052E-11 4.46880E-09
 -1       869-5.95475E+04 3.24048E+03 5.02239E+03 5.46053E+03 3.15481E-09-9.35455E-09
 -1       870-6.26086E+04-2.77159E+03 7.28835E+03-3.89447E+02-3.19528E-09-2.62457E-08
 -1       871-5.34888E+03-1.92484E+04-1.86251E+04 1.24471E+05-4.33283E-09 7.07587E-09
 -1       872-1.99129E+03-2.35545E+04-7.77363E+03 1.61392E+05-8.52651E-09 1.39880E-09
 -1       873 3.14591E+02-2.14837E+04 6.26949E+02 1.24198E+05-4.26053E-09 1.08001E-08
 -1       874 3.09908E+03-1.91257E+04 9.49338E+03 1.61424E+05-8.76753E-09 1.02848E-08
 -1       875 6.55306E+03-2.37447E+04 2.13671E+04 1.24426E+05-4.26371E-09 1.28584E-08
 -1       876 2.83455E+05 4.79051E+04 1.46271E+04 1.13907E+05 5.71390E-10-7.53698E-09
 -1       877 2.84408E+05 5.09997E+04 7.81142E+03 1.18116E+05 5.86988E-09-4.38558E-09
 -1       878 2.84823E+05 4.62852E+04 3.27260E+03 1.15106E+05-3.53066E-09 4.98994E-09
 -1       879 2.82420E+05 4.90156E+04 1.63058E+03 1.18215E+05 6.96446E-10 2.08482E-08
 -1       880 2.84921E+05 4.62683E+04 7.59473E+02 1.15155E+05-4.98517E-09 8.68141E-09
 -1       881 2.82288E+05 4.89309E+04 4.05490E+02 1.18193E+05-1.66328E-08 8.34601E-09
 -1       882 2.84930E+05 4.62811E+04 2.59273E+02 1.15156E+05-8.43806E-09 6.22257E-09
 -1       883 2.82278E+05 4.89265E+04 2.78510E+02 1.18186E+05-7.03949E-10 9.39417E-09
 -1       884 2.84923E+05 4.62783E+04 4.42844E+02 1.15157E+05-2.36389E-09-1.38329E-08
 -1       885 2.82313E+05 4.89326E+04 8.90237E+02 1.18196E+05-4.83917E-09 6.07088E-10
 -1       886 2.84889E+05 4.62523E+04 1.79418E+03 1.15153E+05-4.13466E-09 1.79682E-08
 -1       887 2.82629E+05 4.91394E+04 3.91911E+03 1.18242E+05 6.68990E-09-2.10457E-09
 -1       888 2.84641E+05 4.62960E+04 7.89712E+03 1.15028E+05-4.60722E-09-7.19365E-09
 -1       889 2.87330E+05 5.40282E+04 1.88648E+04 1.18097E+05 1.86020E-10 9.15134E-09
 -1       890 2.81419E+05 5.01235E+04 3.53333E+04 1.12021E+05 3.09228E-11 2.23990E-08
 -1       891-9.96537E+01-1.57516E+05-1.92471E+03 2.67126E+04-1.31558E-09 8.27913E-09
 -1       892-1.89755E+02-1.58017E+05-2.06955E+03 4.05396E+04 2.69733E-09 1.73468E-08
 -1       893 2.85127E+01-1.57577E+05-2.93272E+03 2.67195E+04-4.99767E-10 1.08912E-08
 -1       894-1.48003E+03-1.59126E+05-6.07141E+03 4.03905E+04 1.14233E-09 1.40735E-08
 -1       895-1.17265E+03-1.56312E+05-1.06924E+04 2.68628E+04 1.15278E-10 2.80488E-09
 -1       956-3.63142E+05-5.21711E+03-1.29264E+04 2.88488E+04 5.65797E-09 2.53749E-09
 -1       957-3.65681E+05-1.82516E+03-6.63508E+03 3.46818E+04-1.94996E-09-1.71619E-08
 -1       958-3.64301E+05-2.13446E+02-2.98986E+03 2.86891E+04-6.27188E-09-2.06614E-09
 -1       959-3.64493E+05-1.10071E+02-1.52677E+03 3.48660E+04 1.70257E-09-4.34989E-09
 -1       960-3.64413E+05-2.61993E+01-7.44505E+02 2.86728E+04 9.86074E-09 3.42607E-09
 -1       961-3.64414E+05-4.08484E+01-3.94819E+02 3.48852E+04 1.16643E-08-1.21888E-08
 -1       962-3.64438E+05-2.80433E+01-2.26110E+02 2.86701E+04 1.05961E-08-1.01318E-09
 -1       963-3.64414E+05-3.72268E+01-1.81650E+02 3.48886E+04 2.27910E-08 1.19303E-09
 -1       964-3.64443E+05-2.49352E+01-2.21008E+02 2.86694E+04 6.97031E-09 3.24053E-09
 -1       965-3.64425E+05-3.42227E+01-3.82340E+02 3.48880E+04-3.83494E-09 1.04524E-08
 -1       966-3.64428E+05-1.69608E+01-7.18376E+02 2.86707E+04 1.76578E-09-1.49525E-08
 -1       967-3.64513E+05-9.46872E+01-1.47343E+03 3.48748E+04-5.90262E-10-1.25115E-08
 -1       968-3.64330E+05-1.91691E+02-2.88430E+03 2.86825E+04 1.20781E-09 2.96711E-09
 -1       969-3.65671E+05-1.74459E+03-6.40325E+03 3.47370E+04 2.06455E-09 2.96677E-09
 -1       970-3.63219E+05-5.01680E+03-1.24736E+04 2.88021E+04-9.72250E-10 1.97970E-08
 -1       971-3.33853E+05-1.68026E+03-9.10048E+03 1.50148E+04 4.55111E-09 2.07953E-09
 -1       972-3.36047E+05-1.23175E+03-4.95603E+03 2.08018E+04 5.12728E-09 2.62435E-08
 -1       973-3.34867E+05-5.24495E+01-2.21977E+03 1.48952E+04-2.18915E-09-5.22687E-09
 -1       974-3.35002E+05-6.79003E+01-1.15055E+03 2.09361E+04-7.61861E-09-2.27830E-08
 -1       975-3.34947E+05-8.71004E+00-5.75331E+02 1.48832E+04 1.98861E-09 8.52083E-09
 -1       976-3.34942E+05-1.92780E+01-3.32299E+02 2.09513E+04 3.99427E-09 1.06127E-09
 -1       977-3.34963E+05-8.08264E+00-2.41854E+02 1.48800E+04 5.46038E-09-1.67283E-08
 -1       978-3.34947E+05-1.32735E+01-2.83939E+02 2.09560E+04 3.52054E-09 6.77858E-09
 -1       979-3.34963E+05 7.49013E-02-4.56993E+02 1.48786E+04 3.06898E-10 3.47131E-09
 -1       980-3.34981E+05-1.03229E+01-8.82892E+02 2.09569E+04-3.45904E-09 1.76823E-08
 -1       981-3.34934E+05 2.21321E+01-1.71022E+03 1.48791E+04 1.17655E-09-8.13964E-09
 -1       982-3.35216E+05-1.36681E+02-3.53513E+03 2.09504E+04 2.90345E-09-2.77877E-09
 -1       983-3.34719E+05-8.73673E+01-6.86886E+03 1.48851E+04 7.38055E-10 4.48836E-09
 -1       984-3.38520E+05-3.72406E+03-1.53825E+04 2.08665E+04-3.26327E-09 1.76788E-08
 -1       985-3.31609E+05-5.11358E+03-2.82470E+04 1.49575E+04-2.18597E-09 8.85484E-09
 -3
    1PSTEP                        19          10           1          
  100CL  110 6.53320E-01         409                     0   10           1
 -4  DISP        4    1
 -5  D1          1    2    1    0
 -5  D2          1    2    2    0
 -5  D3          1    2    3    0
 -5  ALL         1    2    0    0    1ALL
 -1         1 2.38253E-03 0.00000E+00 0.00000E+00
 -1         2 1.43623E-03-6.71078E-27 0.00000E+00
 -1         3 3.28402E-04 2.60670E-28 0.00000E+00
 -1         5 1.71812E-04-8.25580E-27-3.10193E-24
 -1         8 2.36757E-03-4.76022E-07 0.00000E+00
 -1         9 2.34914E-03-9.02689E-05 0.00000E+00
 -1        10 2.97882E-04-3.47662E-06 6.61744E-24
 -1        12 1.73440E-04 7.89664E-07-1.65436E-24
 -1        15 2.34989E-03-5.15082E-07-2.06795E-25
 -1        16 2.38784E-03-9.16425E-05 0.00000E+00
 -1        17 2.03202E-04-7.85094E-06 0.00000E+00
 -1        18 1.76791E-04 3.16088E-05 0.00000E+00
 -1        19 1.78351E-04 1.58122E-06 0.00000E+00
 -1        20 1.78493E-04-7.64413E-06 0.00000E+00
 -1        21 1.77629E-04-2.06515E-05-3.30872E-24
 -1        24 3.00360E-05-1.18861E-05 0.00000E+00
 -1        25 1.86557E-04 3.18267E-05 0.00000E+00
 -1        26 1.87248E-04 2.18712E-06 0.00000E+00
 -1        27 1.85101E-04-1.11270E-05 0.00000E+00
 -1        28 1.84771E-04-2.12635E-05 0.00000E+00
 -1        32 0.00000E+00 0.00000E+00 0.00000E+00
 -1        33 1.95125E-04 2.92385E-06 0.00000E+00
 -1        34 1.93051E-04-1.11795E-05 0.00000E+00
 -1        35 1.91154E-04-2.15991E-05 0.00000E+00
 -1        51 2.38155E-03-9.33768E-08 0.00000E+00
 -1        52 2.37974E-03-1.70595E-07 0.00000E+00
 -1        53 2.37727E-03-2.45239E-07 0.00000E+00
 -1        54 2.37430E-03-3.19492E-07 0.00000E+00
 -1        55 2.37101E-03-3.94996E-07-1.65436E-24
 -1        56 2.37810E-03 1.20275E-06 0.00000E+00
 -1        57 2.37181E-03 6.90980E-06 0.00000E+00
 -1        58 2.36436E-03 1.56559E-05 0.00000E+00
 -1        59 2.35640E-03 2.56556E-05-5.29396E-23
 -1        60 2.34872E-03 3.49370E-05-1.05879E-22
 -1        61 2.34204E-03 4.15774E-05 0.00000E+00
 -1        62 2.33694E-03 4.40952E-05-1.05879E-22
 -1        63 2.33382E-03 4.13487E-05 0.00000E+00
 -1        64 2.33275E-03 3.30791E-05-1.05879E-22
 -1        65 2.33362E-03 1.94910E-05-5.29396E-23
 -1        66 2.33600E-03 1.68873E-06 1.05879E-22
 -1        67 2.33936E-03-1.88646E-05-5.29396E-23
 -1        68 2.34302E-03-4.02386E-05 1.05879E-22
 -1        69 2.34628E-03-6.04250E-05 5.29396E-23
 -1        70 2.34847E-03-7.76313E-05 5.29396E-23
 -1        86 1.49321E-03-3.30444E-06 0.00000E+00
 -1        87 1.66003E-03-1.85175E-05 1.32349E-23
 -1        88 1.88434E-03-4.41168E-05 0.00000E+00
 -1        89 2.11115E-03-7.02811E-05-1.32349E-23
 -1        90 2.28413E-03-8.64693E-05 2.64698E-23
 -1       121 3.27545E-04-5.63235E-07-1.32349E-23
 -1       122 3.24977E-04-1.12929E-06 0.00000E+00
 -1       123 3.20707E-04-1.70094E-06-1.32349E-23
 -1       124 3.14752E-04-2.28096E-06 0.00000E+00
 -1       125 3.07133E-04-2.87176E-06-1.32349E-23
 -1       191 1.71857E-04 1.31650E-07 1.44757E-24
 -1       192 1.71993E-04 2.63292E-07-9.30578E-25
 -1       193 1.72220E-04 3.94920E-07 7.17321E-25
 -1       194 1.72537E-04 5.26526E-07-1.24077E-24
 -1       195 1.72944E-04 6.58104E-07-1.65436E-24
 -1       251 2.36693E-03-7.13988E-06-1.32349E-23
 -1       252 2.36598E-03-3.29074E-05-6.61744E-24
 -1       253 2.36457E-03-7.33377E-05 0.00000E+00
 -1       254 2.36273E-03-1.23610E-04 0.00000E+00
 -1       255 2.36079E-03-1.75997E-04 1.32349E-23
 -1       256 2.35912E-03-2.22721E-04 0.00000E+00
 -1       257 2.35790E-03-2.57685E-04-1.32349E-23
 -1       258 2.35712E-03-2.75090E-04 6.61744E-24
 -1       259 2.35648E-03-2.74264E-04 0.00000E+00
 -1       260 2.35566E-03-2.55007E-04 6.61744E-24
 -1       261 2.35453E-03-2.22494E-04 2.64698E-23
 -1       262 2.35313E-03-1.82237E-04 0.00000E+00
 -1       263 2.35173E-03-1.42048E-04 0.00000E+00
 -1       264 2.35060E-03-1.09735E-04 0.00000E+00
 -1       265 2.34979E-03-9.07650E-05 2.64698E-23
 -1       266 2.36462E-03-4.89553E-07 0.00000E+00
 -1       267 2.36168E-03-4.95208E-07 0.00000E+00
 -1       268 2.35873E-03-5.01361E-07-8.27181E-25
 -1       269 2.35579E-03-5.06036E-07-2.06795E-25
 -1       270 2.35284E-03-5.10677E-07 2.06795E-25
 -1       271 2.36598E-03 1.58812E-06 0.00000E+00
 -1       272 2.36482E-03 2.41895E-06 0.00000E+00
 -1       273 2.36412E-03 2.03074E-06 2.64698E-23
 -1       274 2.36387E-03 4.39242E-07 1.32349E-23
 -1       275 2.36406E-03-2.32526E-06 2.64698E-23
 -1       276 2.36466E-03-6.22287E-06 0.00000E+00
 -1       277 2.36567E-03-1.12021E-05 0.00000E+00
 -1       278 2.36705E-03-1.72016E-05 0.00000E+00
 -1       279 2.36879E-03-2.41499E-05-2.64698E-23
 -1       280 2.37084E-03-3.19665E-05 0.00000E+00
 -1       281 2.37317E-03-4.05624E-05 0.00000E+00
 -1       282 2.37576E-03-4.98413E-05 0.00000E+00
 -1       283 2.37856E-03-5.97001E-05 0.00000E+00
 -1       284 2.38153E-03-7.00295E-05-1.32349E-23
 -1       285 2.38464E-03-8.07172E-05 0.00000E+00
 -1       301 2.35615E-03-9.05234E-05 6.61744E-24
 -1       302 2.36187E-03-9.07421E-05 3.30872E-24
 -1       303 2.36709E-03-9.09554E-05 0.00000E+00
 -1       304 2.37262E-03-9.11692E-05 0.00000E+00
 -1       305 2.37927E-03-9.13914E-05 2.64698E-23
 -1       306 2.38445E-03-2.30973E-04 1.05879E-22
 -1       307 2.44897E-03-6.17184E-04-5.29396E-23
 -1       308 2.50212E-03-1.18655E-03 1.05879E-22
 -1       309 2.53585E-03-1.85064E-03-5.29396E-23
 -1       310 2.57449E-03-2.49177E-03 1.05879E-22
 -1       311 2.63577E-03-2.99434E-03-5.29396E-23
 -1       312 2.69477E-03-3.28169E-03 1.05879E-22
 -1       313 2.69857E-03-3.31363E-03 5.29396E-23
 -1       314 2.58182E-03-3.09840E-03-1.05879E-22
 -1       315 2.30574E-03-2.69087E-03 0.00000E+00
 -1       316 1.88497E-03-2.16231E-03 0.00000E+00
 -1       317 1.37673E-03-1.58004E-03-5.29396E-23
 -1       318 8.83515E-04-1.00668E-03-1.05879E-22
 -1       319 5.03351E-04-5.07574E-04 0.00000E+00
 -1       320 2.77734E-04-1.52109E-04 1.05879E-22
 -1       336 2.86819E-04-4.14370E-06 0.00000E+00
 -1       337 2.73778E-04-4.83423E-06-6.61744E-24
 -1       338 2.58820E-04-5.55008E-06-1.32349E-23
 -1       339 2.42016E-04-6.29184E-06 6.61744E-24
 -1       340 2.23447E-04-7.06369E-06-1.32349E-23
 -1       406 1.74027E-04 9.22404E-07-1.65436E-24
 -1       407 1.74705E-04 1.05507E-06 1.44757E-24
 -1       408 1.75477E-04 1.18760E-06-1.96455E-24
 -1       409 1.76342E-04 1.31982E-06 2.58494E-25
 -1       410 1.77300E-04 1.45144E-06 8.27181E-25
 -1       521 2.42391E-03-2.41392E-04 0.00000E+00
 -1       522 2.48724E-03-6.46797E-04 5.29396E-23
 -1       523 2.53517E-03-1.24245E-03 0.00000E+00
 -1       524 2.56112E-03-1.93372E-03 0.00000E+00
 -1       525 2.59296E-03-2.60022E-03 0.00000E+00
 -1       526 2.65111E-03-3.12392E-03 0.00000E+00
 -1       527 2.70979E-03-3.42208E-03 0.00000E+00
 -1       528 2.71192E-03-3.45348E-03-5.29396E-23
 -1       529 2.58542E-03-3.22598E-03 0.00000E+00
 -1       530 2.28918E-03-2.80117E-03 5.29396E-23
 -1       531 1.83823E-03-2.25369E-03-1.05879E-22
 -1       532 1.29526E-03-1.65374E-03-5.29396E-23
 -1       533 7.67567E-04-1.06219E-03 0.00000E+00
 -1       534 3.57905E-04-5.42758E-04 0.00000E+00
 -1       535 1.13262E-04-1.68774E-04 1.05879E-22
 -1       536 2.02500E-04 2.55127E-05 6.61744E-24
 -1       537 2.00731E-04 8.33653E-05 3.30872E-24
 -1       538 1.98002E-04 1.56811E-04 0.00000E+00
 -1       539 1.94784E-04 2.36874E-04-1.65436E-24
 -1       540 1.91886E-04 3.12534E-04 0.00000E+00
 -1       541 1.89999E-04 3.72794E-04 0.00000E+00
 -1       542 1.89123E-04 4.11152E-04 3.30872E-24
 -1       543 1.88906E-04 4.21247E-04 0.00000E+00
 -1       544 1.88597E-04 4.03834E-04 3.30872E-24
 -1       545 1.87503E-04 3.59874E-04 1.65436E-24
 -1       546 1.85478E-04 2.97191E-04 0.00000E+00
 -1       547 1.82744E-04 2.23722E-04 0.00000E+00
 -1       548 1.80038E-04 1.50648E-04-3.30872E-24
 -1       549 1.78083E-04 8.91492E-05 0.00000E+00
 -1       550 1.77064E-04 4.69391E-05 0.00000E+00
 -1       551 1.79110E-04-8.39909E-06 0.00000E+00
 -1       552 1.51862E-04-9.02145E-06 0.00000E+00
 -1       553 1.22386E-04-9.70145E-06 3.30872E-24
 -1       554 9.16276E-05-1.04193E-05 3.30872E-24
 -1       555 6.05308E-05-1.11491E-05 0.00000E+00
 -1       556 1.95927E-04 1.07679E-05 0.00000E+00
 -1       557 1.90059E-04 2.58446E-05 0.00000E+00
 -1       558 1.85467E-04 3.76567E-05 5.29396E-23
 -1       559 1.82024E-04 4.65038E-05 0.00000E+00
 -1       560 1.79604E-04 5.26858E-05 0.00000E+00
 -1       561 1.78086E-04 5.65049E-05 0.00000E+00
 -1       562 1.77348E-04 5.82647E-05 0.00000E+00
 -1       563 1.77271E-04 5.82693E-05 0.00000E+00
 -1       564 1.77737E-04 5.68240E-05 0.00000E+00
 -1       565 1.78632E-04 5.42344E-05 0.00000E+00
 -1       566 1.79838E-04 5.08067E-05 0.00000E+00
 -1       567 1.81242E-04 4.68476E-05 0.00000E+00
 -1       568 1.82730E-04 4.26638E-05-8.27181E-25
 -1       569 1.84187E-04 3.85620E-05 0.00000E+00
 -1       570 1.85500E-04 3.48489E-05 0.00000E+00
 -1       571 1.76886E-04 2.96623E-05 8.27181E-25
 -1       572 1.76983E-04 2.76522E-05 0.00000E+00
 -1       573 1.77080E-04 2.55935E-05-1.65436E-24
 -1       574 1.77177E-04 2.35019E-05-8.27181E-25
 -1       575 1.77274E-04 2.13932E-05 3.30872E-24
 -1       576 1.77372E-04 1.92830E-05 0.00000E+00
 -1       577 1.77469E-04 1.71873E-05 0.00000E+00
 -1       578 1.77567E-04 1.51219E-05-6.61744E-24
 -1       579 1.77664E-04 1.31025E-05 6.61744E-24
 -1       580 1.77762E-04 1.11450E-05 6.61744E-24
 -1       581 1.77860E-04 9.26521E-06 0.00000E+00
 -1       582 1.77958E-04 7.47894E-06 3.30872E-24
 -1       583 1.78056E-04 5.80197E-06-6.61744E-24
 -1       584 1.78154E-04 4.24993E-06 0.00000E+00
 -1       585 1.78253E-04 2.83829E-06 0.00000E+00
 -1       586 1.78376E-04 3.16472E-05 1.65436E-24
 -1       587 1.79922E-04 3.16850E-05-4.13590E-25
 -1       588 1.81470E-04 3.17225E-05 0.00000E+00
 -1       589 1.83064E-04 3.17593E-05 0.00000E+00
 -1       590 1.84746E-04 3.17949E-05 0.00000E+00
 -1       591 1.77456E-04 2.97511E-05-1.03398E-25
 -1       592 1.78125E-04 2.78727E-05 0.00000E+00
 -1       593 1.78798E-04 2.59793E-05 8.27181E-25
 -1       594 1.79475E-04 2.40757E-05-4.13590E-25
 -1       595 1.80154E-04 2.21669E-05 0.00000E+00
 -1       596 1.80833E-04 2.02576E-05 0.00000E+00
 -1       597 1.81510E-04 1.83525E-05-8.27181E-25
 -1       598 1.82184E-04 1.64565E-05 0.00000E+00
 -1       599 1.82853E-04 1.45742E-05 0.00000E+00
 -1       600 1.83515E-04 1.27106E-05-4.13590E-25
 -1       601 1.84168E-04 1.08702E-05 0.00000E+00
 -1       602 1.84811E-04 9.05802E-06-4.13590E-25
 -1       603 1.85441E-04 7.27868E-06 0.00000E+00
 -1       604 1.86058E-04 5.53709E-06 5.16988E-26
 -1       605 1.86660E-04 3.83794E-06 4.13590E-25
 -1       606 1.78364E-04 5.51049E-07 0.00000E+00
 -1       607 1.78374E-04-3.91964E-07 0.00000E+00
 -1       608 1.78383E-04-1.25293E-06 0.00000E+00
 -1       609 1.78392E-04-2.03762E-06 0.00000E+00
 -1       610 1.78400E-04-2.75186E-06 3.30872E-24
 -1       611 1.78409E-04-3.40153E-06 0.00000E+00
 -1       612 1.78417E-04-3.99251E-06 0.00000E+00
 -1       613 1.78426E-04-4.53071E-06 0.00000E+00
 -1       614 1.78434E-04-5.02204E-06 0.00000E+00
 -1       615 1.78443E-04-5.47237E-06 0.00000E+00
 -1       616 1.78451E-04-5.88763E-06 0.00000E+00
 -1       617 1.78460E-04-6.27370E-06 0.00000E+00
 -1       618 1.78468E-04-6.63649E-06 0.00000E+00
 -1       619 1.78477E-04-6.98189E-06-2.06795E-25
 -1       620 1.78485E-04-7.31581E-06 0.00000E+00
 -1       621 1.79567E-04 1.68272E-06-3.30872E-24
 -1       622 1.80932E-04 1.78446E-06-8.27181E-25
 -1       623 1.82413E-04 1.88602E-06 0.00000E+00
 -1       624 1.83980E-04 1.98728E-06-8.27181E-25
 -1       625 1.85602E-04 2.08827E-06-1.65436E-24
 -1       626 1.78847E-04 5.86318E-07 0.00000E+00
 -1       627 1.79320E-04-3.43772E-07 0.00000E+00
 -1       628 1.79771E-04-1.21690E-06 0.00000E+00
 -1       629 1.80205E-04-2.04127E-06 1.65436E-24
 -1       630 1.80623E-04-2.82509E-06 0.00000E+00
 -1       631 1.81029E-04-3.57660E-06 0.00000E+00
 -1       632 1.81427E-04-4.30403E-06-3.30872E-24
 -1       633 1.81818E-04-5.01562E-06 0.00000E+00
 -1       634 1.82207E-04-5.71961E-06-3.30872E-24
 -1       635 1.82595E-04-6.42423E-06 0.00000E+00
 -1       636 1.82987E-04-7.13774E-06 0.00000E+00
 -1       637 1.83386E-04-7.86835E-06 0.00000E+00
 -1       638 1.83794E-04-8.62432E-06 0.00000E+00
 -1       639 1.84214E-04-9.41390E-06 8.27181E-25
 -1       640 1.84649E-04-1.02454E-05 1.65436E-24
 -1       656 1.79053E-04-8.21027E-06-6.61744E-24
 -1       657 1.80030E-04-8.79939E-06 0.00000E+00
 -1       658 1.81284E-04-9.38711E-06 0.00000E+00
 -1       659 1.82669E-04-9.97449E-06 0.00000E+00
 -1       660 1.84002E-04-1.05636E-05-6.61744E-24
 -1       661 1.78703E-04-8.01614E-06 0.00000E+00
 -1       662 1.78950E-04-8.47725E-06 0.00000E+00
 -1       663 1.79228E-04-9.02250E-06 1.65436E-24
 -1       664 1.79536E-04-9.64566E-06 8.27181E-25
 -1       665 1.79871E-04-1.03412E-05 1.65436E-24
 -1       666 1.80231E-04-1.11034E-05-8.27181E-25
 -1       667 1.80614E-04-1.19269E-05-1.65436E-24
 -1       668 1.81017E-04-1.28064E-05 8.27181E-25
 -1       669 1.81440E-04-1.37368E-05 1.65436E-24
 -1       670 1.81880E-04-1.47130E-05 0.00000E+00
 -1       671 1.82336E-04-1.57300E-05-1.65436E-24
 -1       672 1.82804E-04-1.67830E-05 0.00000E+00
 -1       673 1.83284E-04-1.78673E-05 0.00000E+00
 -1       674 1.83774E-04-1.89785E-05 0.00000E+00
 -1       675 1.84271E-04-2.01114E-05 0.00000E+00
 -1       676 1.78823E-04-2.07541E-05 3.30872E-24
 -1       677 1.80017E-04-2.08567E-05 0.00000E+00
 -1       678 1.81209E-04-2.09591E-05 0.00000E+00
 -1       679 1.82399E-04-2.10613E-05 0.00000E+00
 -1       680 1.83587E-04-2.11635E-05 1.65436E-24
 -1       771 1.86119E-05 1.35964E-05 0.00000E+00
 -1       772 8.99063E-06 3.45259E-05 0.00000E+00
 -1       773 1.08596E-06 5.11234E-05 0.00000E+00
 -1       774-5.21990E-06 6.36361E-05 0.00000E+00
 -1       775-1.00423E-05 7.23207E-05 0.00000E+00
 -1       776-1.35013E-05 7.74498E-05 2.64698E-23
 -1       777-1.57167E-05 7.93053E-05 0.00000E+00
 -1       778-1.68110E-05 7.81821E-05-2.64698E-23
 -1       779-1.69061E-05 7.43831E-05-5.29396E-23
 -1       780-1.61257E-05 6.82217E-05-7.94093E-23
 -1       781-1.45931E-05 6.00177E-05 5.29396E-23
 -1       782-1.24327E-05 5.00993E-05-2.64698E-23
 -1       783-9.76835E-06 3.87987E-05 5.29396E-23
 -1       784-6.72509E-06 2.64543E-05-2.64698E-23
 -1       785-3.42704E-06 1.34070E-05 5.29396E-23
 -1       786 1.86595E-04 2.97497E-05 0.00000E+00
 -1       787 1.86638E-04 2.77222E-05-4.13590E-25
 -1       788 1.86680E-04 2.57357E-05 0.00000E+00
 -1       789 1.86724E-04 2.37824E-05 0.00000E+00
 -1       790 1.86767E-04 2.18574E-05-1.65436E-24
 -1       791 1.86810E-04 1.99561E-05 8.27181E-25
 -1       792 1.86854E-04 1.80764E-05 0.00000E+00
 -1       793 1.86897E-04 1.62160E-05-8.27181E-25
 -1       794 1.86941E-04 1.43748E-05-1.65436E-24
 -1       795 1.86984E-04 1.25528E-05 8.27181E-25
 -1       796 1.87028E-04 1.07517E-05 0.00000E+00
 -1       797 1.87072E-04 8.97339E-06 0.00000E+00
 -1       798 1.87116E-04 7.22218E-06 0.00000E+00
 -1       799 1.87159E-04 5.50238E-06 0.00000E+00
 -1       800 1.87203E-04 3.82148E-06 0.00000E+00
 -1       801 1.43158E-04 2.85636E-05 0.00000E+00
 -1       802 1.18329E-05 1.79060E-05 0.00000E+00
 -1       803-1.00730E-04 9.10080E-06 5.29396E-23
 -1       804-8.99619E-05 6.31184E-06 2.64698E-23
 -1       805-2.97921E-05 2.52317E-06 0.00000E+00
 -1       806 1.87223E-04 2.96827E-05-1.65436E-24
 -1       807 1.87875E-04 2.75649E-05 0.00000E+00
 -1       808 1.88515E-04 2.54781E-05 3.30872E-24
 -1       809 1.89142E-04 2.34265E-05 1.65436E-24
 -1       810 1.89753E-04 2.14137E-05 0.00000E+00
 -1       811 1.90349E-04 1.94438E-05 0.00000E+00
 -1       812 1.90928E-04 1.75203E-05 0.00000E+00
 -1       813 1.91487E-04 1.56472E-05-1.65436E-24
 -1       814 1.92027E-04 1.38282E-05-1.65436E-24
 -1       815 1.92545E-04 1.20670E-05-1.65436E-24
 -1       816 1.93040E-04 1.03674E-05-1.65436E-24
 -1       817 1.93510E-04 8.73310E-06 0.00000E+00
 -1       818 1.93955E-04 7.16790E-06-1.65436E-24
 -1       819 1.94373E-04 5.67551E-06 0.00000E+00
 -1       820 1.94763E-04 4.25961E-06-1.65436E-24
 -1       821 1.87121E-04 1.37441E-07 0.00000E+00
 -1       822 1.86985E-04-2.78490E-06 0.00000E+00
 -1       823 1.86847E-04-6.23785E-06 0.00000E+00
 -1       824 1.86708E-04-9.87607E-06 1.65436E-24
 -1       825 1.86569E-04-1.33050E-05-3.30872E-24
 -1       826 1.86432E-04-1.61310E-05 0.00000E+00
 -1       827 1.86296E-04-1.81228E-05-3.30872E-24
 -1       828 1.86162E-04-1.90537E-05-1.65436E-24
 -1       829 1.86029E-04-1.89822E-05-3.30872E-24
 -1       830 1.85894E-04-1.79723E-05-1.65436E-24
 -1       831 1.85760E-04-1.63405E-05 3.30872E-24
 -1       832 1.85625E-04-1.44066E-05 1.65436E-24
 -1       833 1.85490E-04-1.25717E-05 3.30872E-24
 -1       834 1.85357E-04-1.12364E-05 0.00000E+00
 -1       835 1.85225E-04-1.06675E-05 8.27181E-25
 -1       836 1.88768E-04 2.30933E-06 3.30872E-24
 -1       837 1.90163E-04 2.43459E-06 1.65436E-24
 -1       838 1.91464E-04 2.55978E-06-3.30872E-24
 -1       839 1.92704E-04 2.68427E-06 0.00000E+00
 -1       840 1.93913E-04 2.80860E-06 0.00000E+00
 -1       856 1.85084E-04-1.20308E-05-8.27181E-25
 -1       857 1.85063E-04-1.28007E-05 0.00000E+00
 -1       858 1.85043E-04-1.34577E-05 0.00000E+00
 -1       859 1.85023E-04-1.40225E-05 2.06795E-25
 -1       860 1.85002E-04-1.45162E-05 0.00000E+00
 -1       861 1.84982E-04-1.49597E-05-2.06795E-25
 -1       862 1.84961E-04-1.53742E-05 8.27181E-25
 -1       863 1.84940E-04-1.57805E-05-4.13590E-25
 -1       864 1.84919E-04-1.61999E-05 0.00000E+00
 -1       865 1.84899E-04-1.66533E-05-4.13590E-25
 -1       866 1.84878E-04-1.71619E-05 0.00000E+00
 -1       867 1.84857E-04-1.77465E-05-4.13590E-25
 -1       868 1.84836E-04-1.84282E-05-8.27181E-25
 -1       869 1.84815E-04-1.92278E-05 0.00000E+00
 -1       870 1.84793E-04-2.01660E-05 0.00000E+00
 -1       871 1.86286E-04-1.11315E-05-8.27181E-25
 -1       872 1.87616E-04-1.11392E-05 0.00000E+00
 -1       873 1.89024E-04-1.11476E-05 0.00000E+00
 -1       874 1.90443E-04-1.11567E-05 5.16988E-26
 -1       875 1.91808E-04-1.11664E-05 4.13590E-25
 -1       876 1.85565E-04-1.20166E-05 3.30872E-24
 -1       877 1.86007E-04-1.28403E-05 0.00000E+00
 -1       878 1.86427E-04-1.36061E-05 3.30872E-24
 -1       879 1.86829E-04-1.43213E-05-1.65436E-24
 -1       880 1.87215E-04-1.49932E-05-3.30872E-24
 -1       881 1.87587E-04-1.56289E-05 0.00000E+00
 -1       882 1.87949E-04-1.62359E-05 3.30872E-24
 -1       883 1.88302E-04-1.68213E-05 1.65436E-24
 -1       884 1.88651E-04-1.73923E-05 0.00000E+00
 -1       885 1.88996E-04-1.79563E-05 0.00000E+00
 -1       886 1.89342E-04-1.85204E-05 0.00000E+00
 -1       887 1.89690E-04-1.90918E-05 0.00000E+00
 -1       888 1.90043E-04-1.96779E-05 0.00000E+00
 -1       889 1.90404E-04-2.02861E-05 1.65436E-24
 -1       890 1.90775E-04-2.09234E-05 1.65436E-24
 -1       891 1.85975E-04-2.13198E-05 0.00000E+00
 -1       892 1.87157E-04-2.13764E-05 0.00000E+00
 -1       893 1.88290E-04-2.14328E-05 8.27181E-25
 -1       894 1.89351E-04-2.14890E-05 0.00000E+00
 -1       895 1.90314E-04-2.15450E-05 0.00000E+00
 -1       956 1.94997E-04 1.75781E-06 1.65436E-24
 -1       957 1.94867E-04 6.80562E-07 8.27181E-25
 -1       958 1.94737E-04-3.18254E-07 3.30872E-24
 -1       959 1.94607E-04-1.24960E-06 1.65436E-24
 -1       960 1.94477E-04-2.12446E-06 3.30872E-24
 -1       961 1.94347E-04-2.95389E-06-1.65436E-24
 -1       962 1.94217E-04-3.74891E-06 0.00000E+00
 -1       963 1.94087E-04-4.52059E-06 0.00000E+00
 -1       964 1.93957E-04-5.27998E-06-3.30872E-24
 -1       965 1.93827E-04-6.03814E-06-1.65436E-24
 -1       966 1.93697E-04-6.80613E-06-3.30872E-24
 -1       967 1.93567E-04-7.59501E-06 1.65436E-24
 -1       968 1.93437E-04-8.41582E-06 0.00000E+00
 -1       969 1.93308E-04-9.27957E-06 1.65436E-24
 -1       970 1.93178E-04-1.01973E-05 3.30872E-24
 -1       971 1.92933E-04-1.21595E-05 3.30872E-24
 -1       972 1.92814E-04-1.30457E-05 0.00000E+00
 -1       973 1.92695E-04-1.38485E-05 0.00000E+00
 -1       974 1.92576E-04-1.45787E-05 0.00000E+00
 -1       975 1.92457E-04-1.52470E-05 0.00000E+00
 -1       976 1.92337E-04-1.58641E-05-1.65436E-24
 -1       977 1.92218E-04-1.64409E-05 3.30872E-24
 -1       978 1.92099E-04-1.69881E-05 0.00000E+00
 -1       979 1.91980E-04-1.75166E-05 0.00000E+00
 -1       980 1.91861E-04-1.80372E-05 0.00000E+00
 -1       981 1.91742E-04-1.85607E-05 0.00000E+00
 -1       982 1.91623E-04-1.90978E-05 1.65436E-24
 -1       983 1.91504E-04-1.96595E-05 0.00000E+00
 -1       984 1.91386E-04-2.02564E-05 0.00000E+00
 -1       985 1.91268E-04-2.08995E-05-3.30872E-24
 -3
    1PSTEP                        20          10           1          
  100CL  110 6.53320E-01         409                     0   10           1
 -4  STRESS      6    1
 -5  SXX         1    4    1    1
 -5  SYY         1    4    2    2
 -5  SZZ         1    4    3    3
 -5  SXY         1    4    1    2
 -5  SYZ         1    4    2    3
 -5  SZX         1    4    3    1
 -1         1-4.75559E+06-1.68004E+06-1.03578E+06-1.59450E+06 1.60071E-10 8.37317E-08
 -1         2 6.13066E+05 8.40240E+06 2.31447E+06 2.77217E+06 1.84664E-08 4.94401E-08
 -1         3-1.35518E+03-1.60030E+06 4.07548E+02-2.16788E+03-7.06610E-10 3.32475E-08
 -1         5-5.90748E+01 3.76930E+05-2.36633E-01 6.60544E+00-4.90040E-10 3.89628E-09
 -1         8-7.90578E+05-2.55880E+05-9.90029E+04-3.33049E+05 2.99224E-10-1.55986E-07
 -1         9 9.58196E+06 1.32275E+06 1.96299E+06-7.20198E+05 1.92085E-09 2.01352E-07
 -1        10-2.21363E+03-1.66763E+06-3.92403E+03-1.46567E+04-1.32568E-08-2.00556E-08
 -1        12-6.06827E+01 3.78841E+05 3.12970E+02-1.31117E+01 1.84446E-09 1.50712E-09
 -1        15 1.16349E+03 6.39400E+02 3.76097E+03 1.48245E+00-3.01426E-10-1.84093E-08
 -1        16 1.99746E+07-2.08475E+05 2.77124E+06-1.73647E+06 1.62205E-08-4.36946E-08
 -1        17 7.26170E+06 5.29512E+06 1.95676E+06 5.13557E+06 2.04629E-08 2.06055E-08
 -1        18 1.26620E+05 2.92369E+04 1.06321E+03-1.15579E+05 1.39337E-08-1.81312E-08
 -1        19 1.19750E+05 1.39045E+05-8.68967E+02 2.16674E+04 1.24219E-09 2.71975E-09
 -1        20-7.83632E+04-5.61126E+05-1.25787E+05 2.55744E+04-1.19280E-09 3.10562E-09
 -1        21-4.52857E+01-2.91706E+05-9.12600E+02 2.38967E+02 1.13807E-08 4.30172E-09
 -1        24 1.19809E+07 1.02241E+07 3.34851E+06 9.49744E+06-1.56452E-07-5.85957E-08
 -1        25 9.77548E+04 1.67171E+05 7.43735E+04-5.86562E+05-1.11932E-09-1.26911E-09
 -1        26-5.38124E+04 8.99939E+04-2.40857E+04 6.45503E+02 1.17871E-10 1.50034E-08
 -1        27-7.51730E+04-3.03487E+05-1.11200E+05 6.75581E+04 4.69693E-09-1.11880E-08
 -1        28 2.19720E+04-8.38765E+04 1.66426E+04 2.06672E+04-3.07654E-09-6.45492E-09
 -1        32-1.65385E+06-3.08097E+06-1.84809E+05 3.52119E+05-4.05707E-08-1.13877E-08
 -1        33-1.74972E+05 9.07003E+04 3.16628E+04-3.80952E+04-2.60081E-09 2.68722E-08
 -1        34-2.19364E+05-2.43426E+04 6.67293E+02 7.37618E+04-4.56478E-09 5.39634E-11
 -1        35-2.26244E+04-3.32679E+04-1.32413E+03 5.07557E+04-4.02536E-09-2.76001E-09
 -1        51 5.34967E+04-1.97560E+05 1.14642E+05-5.77719E+05-5.82077E-11 1.25889E-07
 -1        52 1.89141E+04-1.78597E+05 6.13091E+04-6.73645E+05 3.09228E-10-2.45531E-07
 -1        53 4.83271E+03-1.94007E+05 3.37916E+04-5.75658E+05 4.47471E-10-2.93672E-07
 -1        54 1.02102E+04-1.90120E+05 3.15147E+04-6.75739E+05 1.01863E-10-1.16561E-07
 -1        55 2.17234E+04-1.98886E+05 4.27237E+04-5.75430E+05 2.40107E-10 9.39108E-08
 -1        56-8.84169E+06-1.03604E+06-7.69620E+05-3.50180E+06-1.93104E-08-7.62520E-08
 -1        57-9.48418E+06-1.37809E+06-5.15714E+05-3.07582E+06-2.05582E-08-2.11418E-07
 -1        58-8.93428E+06-1.33169E+06-1.79810E+05-3.51375E+06 1.09139E-11 6.75136E-08
 -1        59-9.35783E+06-1.04756E+06-1.06740E+05-3.08828E+06-1.18780E-09-1.52855E-07
 -1        60-8.96960E+06-1.35532E+06-4.25602E+04-3.49502E+06-2.02781E-08-2.67897E-07
 -1        61-9.23524E+06-1.08853E+06-2.10993E+04-3.17666E+06 1.48884E-09 7.98609E-08
 -1        62-9.04739E+06-1.29565E+06-1.53457E+04-3.41898E+06-4.44561E-09 2.14604E-08
 -1        63-9.06079E+06-1.24208E+06-5.05135E+03-3.35136E+06-2.98169E-08 1.85825E-07
 -1        64-9.13670E+06-1.20665E+06-1.46111E+04-3.31520E+06-9.97170E-09 1.99290E-07
 -1        65-8.92130E+06-1.40072E+06-1.86614E+04-3.54087E+06-1.56342E-08 2.22971E-08
 -1        66-9.19379E+06-1.13243E+06-3.81969E+04-3.23454E+06 9.47148E-09 3.29128E-08
 -1        67-8.88230E+06-1.51448E+06-9.50913E+04-3.63897E+06 2.03663E-08 1.56419E-07
 -1        68-9.18552E+06-1.08750E+06-1.60270E+05-3.22342E+06-1.98561E-08 4.88581E-08
 -1        69-9.06203E+06-1.74166E+06-4.59573E+05-3.54911E+06 6.65023E-09-3.09738E-08
 -1        70-9.01241E+06-9.15595E+05-6.86560E+05-3.31941E+06-5.28235E-09-9.04547E-08
 -1        86-6.22618E+05-8.75487E+06-1.26232E+06-1.32843E+06-1.82197E-07-3.04353E-08
 -1        87 8.96766E+05 1.44330E+06 1.04855E+06 2.93331E+06-3.09326E-07 3.94111E-08
 -1        88-1.27350E+05-2.59918E+06 8.38602E+04-1.57636E+06-2.90596E-07 7.06677E-09
 -1        89 1.21507E+06 1.31125E+06 1.05099E+06 3.00873E+06-4.08369E-07-1.68046E-07
 -1        90-9.07634E+05-8.65335E+06-1.38981E+06-1.41047E+06-1.00434E-07 1.12210E-07
 -1       121-1.86163E+03-1.60480E+06-4.55021E+02 1.07554E+03 1.36937E-09 1.93359E-08
 -1       122-1.17060E+03-1.60035E+06 7.85228E+02-4.33714E+03-5.28387E-09 3.57613E-08
 -1       123-1.88807E+03-1.60493E+06 3.82345E+02 3.21163E+03 3.99132E-09 3.60378E-08
 -1       124 4.92734E+02-1.59985E+06 3.04628E+03-9.06174E+03-9.48285E-09 1.35915E-08
 -1       125-2.73123E+03-1.60584E+06 3.70550E+03 5.76076E+03 6.28461E-09-1.44755E-08
 -1       191-6.25887E+01 3.76952E+05-3.40296E+00-3.28295E+00-4.76746E-10-5.08044E-09
 -1       192-6.35667E+01 3.76929E+05-1.84945E+00 3.31654E+01-6.74902E-10-2.81625E-08
 -1       193-7.65263E+01 3.76952E+05-8.31207E+00-2.97543E+01-9.22000E-10-2.37851E-08
 -1       194-1.11441E+02 3.76915E+05-2.16651E+01 2.69240E+02-4.96584E-10-1.30967E-10
 -1       195-2.09889E+02 3.76956E+05-5.35746E+01-2.39090E+02-1.10776E-09 7.06314E-09
 -1       251-1.92495E+06 2.15420E+04-1.47877E+05 5.14681E+04-2.87400E-10-1.21021E-07
 -1       252-1.58388E+06-2.53557E+04-2.99721E+04-1.84805E+05-6.38465E-10-9.61436E-08
 -1       253-1.80316E+06-1.59320E+03-3.63540E+04 1.61937E+05-5.03860E-09 1.41532E-07
 -1       254-1.75357E+06 1.65853E+04-8.10762E+03-3.09166E+05 2.48207E-09-3.18215E-07
 -1       255-1.77286E+06-4.43288E+03-8.11532E+03 1.76717E+05-4.71755E-09-1.53232E-08
 -1       256-1.63235E+06 1.82817E+04 2.64977E+04-2.38538E+05 2.37969E-09 2.25437E-07
 -1       257-1.91358E+06-1.37974E+04-3.30890E+04 9.06508E+04 1.30440E-08-3.58348E-08
 -1       258-1.45798E+06 1.25753E+04 6.14303E+04-1.03063E+04-1.13505E-09-3.77013E-08
 -1       259-1.93087E+06-1.33441E+04-3.45766E+04-5.14102E+04-2.79397E-09-7.41102E-08
 -1       260-1.59309E+06 1.42952E+04 3.81087E+04 2.31971E+05 7.99446E-09-7.19316E-08
 -1       261-1.79115E+06-3.17825E+03-1.24622E+03-1.50952E+05-2.57937E-08 3.44146E-08
 -1       262-1.74453E+06 2.14365E+04 1.57670E+04 3.30495E+05 1.78435E-08 5.05521E-08
 -1       263-1.79396E+06-7.02984E+03 6.86435E+03-1.50442E+05 2.45564E-09-1.80346E-07
 -1       264-1.57659E+06 4.63415E+04 7.14801E+04 2.30692E+05-2.32253E-08 2.11387E-07
 -1       265-1.94448E+06-4.17789E+04 7.05305E+03-5.06439E+04-2.26682E-08 3.18258E-07
 -1       266-2.10632E+04-9.84961E+03 4.94180E+04-3.17187E+01 3.63798E-10 1.60133E-07
 -1       267 2.44179E+04 1.14792E+04 3.49290E+04 3.65985E+01 3.40151E-10 4.39230E-08
 -1       268-3.27440E+03-1.62581E+03 1.29829E+04-4.66321E+00-1.98725E-10-1.42960E-07
 -1       269 3.86610E+03 1.94571E+03 8.43874E+03 5.43202E+00 1.22782E-10-3.54173E-08
 -1       270-5.80305E+02-3.19696E+02 4.07350E+03-7.37160E-01-1.50067E-10-6.89154E-08
 -1       271-1.83302E+06-2.25461E+05-1.35233E+05-7.06458E+05 4.41469E-09 2.52148E-07
 -1       272-1.88835E+06-3.15304E+05-8.66857E+04-6.95500E+05 3.33980E-08 2.28101E-08
 -1       273-1.85955E+06-2.57946E+05-3.21258E+04-6.99123E+05-1.45519E-10-6.55364E-08
 -1       274-1.85619E+06-2.76546E+05-1.77336E+04-7.07460E+05-2.13149E-08 7.11225E-09
 -1       275-1.86467E+06-2.59814E+05-7.63820E+03-6.96230E+05 1.72204E-08 1.09268E-07
 -1       276-1.84900E+06-2.75593E+05-3.79353E+03-7.13030E+05-1.21872E-09-1.11308E-07
 -1       277-1.86701E+06-2.58250E+05-2.05487E+03-6.93958E+05 1.41245E-08 3.31938E-08
 -1       278-1.84538E+06-2.78605E+05-1.13480E+03-7.17585E+05 2.87755E-08 1.93930E-07
 -1       279-1.86873E+06-2.56479E+05-1.28946E+03-6.92012E+05-7.35781E-09-1.97906E-09
 -1       280-1.84292E+06-2.81768E+05-1.87478E+03-7.21442E+05-1.53232E-08-1.60600E-07
 -1       281-1.86998E+06-2.54790E+05-3.53405E+03-6.90442E+05-2.37924E-09-1.21404E-08
 -1       282-1.84250E+06-2.86350E+05-8.16934E+03-7.24243E+05-8.45830E-10 7.55785E-08
 -1       283-1.86965E+06-2.51811E+05-1.46138E+04-6.89462E+05-2.00189E-08-1.51832E-07
 -1       284-1.85385E+06-3.07795E+05-3.97096E+04-7.23420E+05-1.94650E-08-5.60444E-08
 -1       285-1.85928E+06-2.35110E+05-6.17260E+04-6.90804E+05-9.61518E-09 1.82998E-07
 -1       301 8.34157E+03-5.57917E+05 1.70846E+05-9.73037E+05 4.27099E-09-9.67193E-08
 -1       302 9.35522E+03-5.13644E+05 1.03409E+05-1.42194E+06-7.42148E-10-2.49856E-08
 -1       303-9.98396E+03-5.45746E+05 6.11071E+04-9.70561E+05-2.21189E-09 2.10242E-07
 -1       304-5.21664E+03-5.17721E+05 6.61659E+04-1.42113E+06-1.22454E-08 2.88244E-07
 -1       305-9.80500E+03-5.39337E+05 8.74459E+04-9.73499E+05-4.36557E-11-1.01863E-10
 -1       306-2.77932E+07-5.67691E+06-7.78115E+06-9.85655E+05-9.98843E-08-1.41910E-07
 -1       307 2.31481E+07 2.30418E+06 5.00437E+06-1.34385E+07-7.17249E-07-1.33732E-07
 -1       308-7.55211E+06-8.14329E+05-5.30367E+05 4.73319E+06-1.20315E-07 1.85697E-07
 -1       309-3.47058E+06 7.02442E+06 1.93561E+06-1.91956E+07 4.58764E-07 2.51341E-07
 -1       310-1.14661E+07-1.43062E+06-1.59377E+06 4.63764E+06 6.88015E-08-1.36497E-07
 -1       311 3.22342E+07-1.48947E+05 6.28489E+06-8.77190E+06 1.14058E-07-2.93570E-07
 -1       312-2.89948E+07-5.88928E+06-7.47492E+06-4.20188E+06 1.20141E-07 9.13424E-08
 -1       313 4.10713E+07 1.18601E+07 9.50476E+06 1.99976E+07 7.07223E-09 8.37026E-08
 -1       314-1.69370E+07-1.53043E+07-6.75417E+06-1.15518E+07 4.87198E-07-1.27242E-07
 -1       315-1.10985E+06 2.57990E+07 5.15080E+06 1.06086E+07-4.44896E-07-1.84751E-07
 -1       316 6.41076E+05-9.34482E+06-4.94582E+05-3.23175E+06-1.14215E-06-3.17057E-07
 -1       317-1.70880E+07 2.05128E+07 1.90023E+06-6.75245E+06 6.69475E-07-5.04573E-07
 -1       318-1.20422E+06-1.12238E+07-1.63859E+06-4.39681E+06-8.64704E-07 1.72062E-07
 -1       319 5.54012E+06 2.72884E+07 6.05471E+06 1.45030E+07-1.30436E-07 1.74128E-07
 -1       320-2.07436E+07-1.54667E+07-8.69111E+06-1.15677E+07 1.78232E-07-7.55535E-08
 -1       336-4.97776E+02-1.73725E+06-1.38087E+04 8.74963E+03-2.56441E-08 5.99903E-09
 -1       337-5.33424E+03-1.73731E+06-1.79807E+04-2.11962E+04-4.78810E-08-1.87647E-08
 -1       338 4.40706E+02-1.73678E+06-2.80261E+04 1.22291E+04-3.26563E-08 8.77480E-09
 -1       339-2.97480E+04-1.75416E+06-6.34281E+04-2.79958E+04-5.83259E-08 1.02482E-08
 -1       340 1.97554E+04-1.72244E+06-9.97719E+04 1.54284E+04-3.95521E-08 2.34213E-08
 -1       406 9.69359E+01 3.80723E+05 8.44212E+02 2.52810E+02 2.87218E-09 7.49242E-09
 -1       407 2.05027E+02 3.80892E+05 1.47517E+03-2.62546E+02 1.50339E-09 3.17550E-08
 -1       408 6.34423E+02 3.80643E+05 2.79018E+03 9.31195E+00 3.45005E-09 5.14592E-09
 -1       409 2.87008E+03 3.81763E+05 6.20844E+03 2.22031E+02 2.36776E-09-3.56285E-08
 -1       410 8.39134E+03 3.79850E+05 1.26259E+04-2.46219E+02 4.18913E-09-1.91612E-08
 -1       521-2.93248E+07-6.96764E+06-9.07289E+06-6.56462E+05-5.33182E-08 1.86265E-09
 -1       522 2.38999E+07 3.03597E+06 5.08303E+06-1.66184E+07-4.71016E-07-5.55068E-07
 -1       523-8.25989E+06-1.09746E+06-5.38687E+05 5.17225E+06 8.35862E-08-6.10147E-07
 -1       524-6.68913E+06 9.61758E+06 2.09289E+06-2.21459E+07 1.06118E-06-2.95557E-07
 -1       525-1.23777E+07-1.94847E+06-1.75008E+06 5.06780E+06 3.68047E-07 2.13622E-08
 -1       526 3.49799E+07-2.03903E+05 6.59891E+06-1.12726E+07-2.61352E-08 3.39962E-07
 -1       527-3.07595E+07-7.38069E+06-8.59319E+06-4.08821E+06 8.05594E-08 6.49889E-08
 -1       528 4.48325E+07 1.30446E+07 9.90821E+06 2.26363E+07 3.43251E-07-3.09956E-08
 -1       529-1.79312E+07-1.72858E+07-7.73104E+06-1.16974E+07 3.29164E-07-2.13739E-07
 -1       530-3.41808E+06 3.00072E+07 5.44252E+06 1.04611E+07-4.74160E-07 4.80097E-07
 -1       531 5.81065E+05-1.04602E+07-4.88035E+05-3.33388E+06-8.74992E-07 2.66038E-07
 -1       532-1.99345E+07 2.26900E+07 2.07931E+06-1.03718E+07 5.35569E-07-5.64629E-07
 -1       533-1.27386E+06-1.23646E+07-1.73163E+06-4.39322E+06-1.31200E-07-8.62346E-07
 -1       534 3.56849E+06 3.16566E+07 6.29894E+06 1.50174E+07-3.91155E-08 7.79750E-07
 -1       535-2.18836E+07-1.75906E+07-9.92581E+06-1.17121E+07 1.01165E-07 4.49363E-07
 -1       536-6.81723E+05-4.60060E+04-3.74309E+04-5.12994E+04-3.70028E-09 4.79849E-08
 -1       537-7.87033E+04 4.45317E+04 8.22141E+04 1.17391E+05-1.00831E-07 9.16525E-08
 -1       538-3.93414E+05 2.64645E+03 5.07052E+03-6.89478E+04 9.78298E-09 1.00467E-07
 -1       539-2.77876E+05 2.99766E+03 2.39551E+04 1.32101E+05 1.28283E-07 9.75639E-08
 -1       540-4.87514E+05-3.46395E+02-1.90697E+04-6.64814E+04 5.27393E-09 9.76307E-08
 -1       541 1.05104E+05 1.56397E+04 9.82032E+04 9.24017E+04 7.48810E-09 8.53825E-08
 -1       542-7.66083E+05-1.85950E+04-7.75567E+04-2.84782E+04 2.39402E-08 3.30994E-08
 -1       543 3.43596E+05 2.52127E+04 1.45566E+05-1.27989E+04-3.24635E-08-2.34163E-08
 -1       544-7.19618E+05-1.52089E+04-6.89088E+04 3.81279E+04-1.21868E-08-3.33612E-08
 -1       545-4.03316E+03 8.60840E+03 7.32226E+04-1.07737E+05 1.86147E-08-6.44259E-08
 -1       546-4.27775E+05 5.73176E+03-1.13477E+04 6.61568E+04 1.55976E-08-7.69608E-08
 -1       547-2.94901E+05-4.68079E+03 9.10634E+03-1.34880E+05-9.33660E-08-9.98733E-08
 -1       548-4.36555E+05 4.60051E+03-2.28765E+04 6.58800E+04-1.00946E-07-8.49768E-08
 -1       549 1.45075E+04 1.31368E+04 5.35503E+04-1.05448E+05-5.65244E-08-4.32674E-08
 -1       550-7.28901E+05-1.90017E+04-1.22235E+05 3.60926E+04 1.02882E-08-4.79358E-08
 -1       551 3.89859E+04-7.63993E+05-1.05942E+04-1.22808E+06-9.73378E-08 3.57977E-09
 -1       552 8.86800E+04-8.05648E+05 1.29519E+04-1.75125E+06-6.80739E-08 5.04660E-08
 -1       553 6.78795E+04-8.03074E+05 3.41236E+04-1.22172E+06-1.13927E-07 2.87546E-08
 -1       554 1.26291E+05-8.19564E+05 8.35848E+04-1.75321E+06-7.53425E-08 2.22753E-08
 -1       555 9.75716E+04-8.26215E+05 1.51910E+05-1.22167E+06-1.20432E-07-1.23182E-08
 -1       556 2.12608E+05-3.66906E+05 3.32473E+04-3.95475E+05-2.15950E-08-2.19443E-08
 -1       557 3.39504E+05-4.68285E+05 1.98136E+04-5.10796E+05-5.07862E-09 1.54796E-09
 -1       558 1.96217E+05-3.61792E+05 4.24809E+03-3.98283E+05-2.17988E-08 9.43692E-09
 -1       559 3.15381E+05-4.69668E+05 3.28634E+03-5.29783E+05 2.95986E-08 1.82772E-08
 -1       560 1.82132E+05-3.52944E+05-8.87440E+02-4.08384E+05 8.87667E-09-1.35478E-08
 -1       561 2.97580E+05-4.62616E+05 3.61461E+02-5.41871E+05-3.71074E-09-4.86398E-09
 -1       562 1.70998E+05-3.46010E+05-1.08791E+03-4.16436E+05 9.74978E-10-3.35422E-09
 -1       563 2.84366E+05-4.56855E+05 2.95763E+01-5.50489E+05 4.19095E-09-3.69982E-09
 -1       564 1.63087E+05-3.41076E+05-5.07407E+02-4.22039E+05 6.09725E-09 8.12679E-09
 -1       565 2.75662E+05-4.53065E+05 4.17482E+01-5.56046E+05 1.29294E-08 1.44973E-09
 -1       566 1.58513E+05-3.38180E+05-2.22909E+02-4.25239E+05 3.36877E-09-1.77661E-08
 -1       567 2.71515E+05-4.51260E+05-3.30880E+02-5.58556E+05 2.02926E-08-2.80961E-08
 -1       568 1.57360E+05-3.37477E+05-1.04449E+03-4.26141E+05 8.13907E-09 5.38421E-10
 -1       569 2.70584E+05-4.51206E+05-2.63927E+03-5.57064E+05 4.67844E-09 2.56841E-09
 -1       570 1.60684E+05-3.40600E+05-5.78572E+03-4.25174E+05 1.69312E-08-8.25639E-09
 -1       571 2.83615E+05 1.02671E+04 1.47030E+04-9.11878E+04 4.66662E-09 8.87894E-09
 -1       572 2.85751E+05 3.84045E+03 7.20546E+03-1.00041E+05 4.64479E-09 7.91806E-09
 -1       573 2.84464E+05 1.18140E+03 3.20157E+03-9.10160E+04 3.87445E-10 9.18226E-09
 -1       574 2.84679E+05 6.68130E+02 1.60541E+03-1.00257E+05 4.36398E-09 6.23459E-09
 -1       575 2.84557E+05 3.98643E+02 7.57620E+02-9.09925E+04-2.56648E-11 1.73859E-08
 -1       576 2.84545E+05 4.05917E+02 3.87696E+02-1.00286E+05-5.15138E-09 1.42645E-08
 -1       577 2.84593E+05 3.43036E+02 1.93331E+02-9.09893E+04-4.39377E-09 1.88084E-08
 -1       578 2.84570E+05 3.70870E+02 1.11157E+02-1.00290E+05-5.24960E-09 2.07874E-08
 -1       579 2.84659E+05 3.10184E+02 7.57188E+01-9.09890E+04 5.35874E-09-1.97542E-08
 -1       580 2.84663E+05 3.24790E+02 8.66691E+01-1.00286E+05-8.39736E-09 5.41149E-10
 -1       581 2.84763E+05 2.57274E+02 1.30211E+02-9.09947E+04 2.25737E-09 8.82119E-09
 -1       582 2.84823E+05 2.92211E+02 2.63835E+02-1.00227E+05 1.80444E-09 1.43273E-08
 -1       583 2.84890E+05 3.00220E+02 5.06489E+02-9.10487E+04 2.46291E-09 1.59391E-08
 -1       584 2.85171E+05 7.12552E+02 1.14553E+03-9.97716E+04 7.25413E-09-1.45362E-08
 -1       585 2.84910E+05 1.67973E+03 2.32011E+03-9.14491E+04-1.50976E-10 4.94765E-10
 -1       586-3.35644E+03 1.12156E+05-2.98407E+03-2.45574E+05-6.07179E-09-1.00031E-08
 -1       587-1.25788E+03 1.11887E+05 6.76458E+02-2.70276E+05-6.64477E-09-1.87747E-08
 -1       588 4.49817E+02 1.11721E+05 4.59331E+03-2.45441E+05-5.67161E-09 1.13687E-08
 -1       589 5.01706E+03 1.14115E+05 1.19813E+04-2.70041E+05-8.52015E-09 2.42335E-08
 -1       590 1.62128E+04 1.10423E+05 2.51600E+04-2.45863E+05-5.42241E-09 2.45345E-08
 -1       591-7.18309E+04-1.55480E+04-2.18030E+04-3.09092E+04-3.43812E-09-2.47455E-08
 -1       592-7.57039E+04-1.90753E+04-1.18102E+04-3.45138E+04 4.84864E-09-4.45652E-09
 -1       593-7.40121E+04-1.39652E+04-4.91603E+03-3.25072E+04 4.31483E-09-1.02971E-08
 -1       594-7.26924E+04-1.58773E+04-2.45175E+03-3.46294E+04 4.85686E-09 1.85419E-08
 -1       595-7.41785E+04-1.39599E+04-1.12566E+03-3.25798E+04 2.31632E-09 8.45114E-09
 -1       596-7.24863E+04-1.57310E+04-5.72115E+02-3.46050E+04 1.76317E-09 9.37945E-10
 -1       597-7.41993E+04-1.39748E+04-3.11289E+02-3.25826E+04 6.15876E-09 1.05509E-08
 -1       598-7.24660E+04-1.57253E+04-2.49793E+02-3.45981E+04-8.55380E-10 3.67846E-08
 -1       599-7.41981E+04-1.39753E+04-3.18523E+02-3.25822E+04 2.03954E-10-2.05772E-08
 -1       600-7.24864E+04-1.57316E+04-5.91266E+02-3.46030E+04 7.04313E-09-7.81557E-09
 -1       601-7.41741E+04-1.39612E+04-1.16621E+03-3.25788E+04 2.12390E-09-4.07772E-09
 -1       602-7.26998E+04-1.58821E+04-2.54150E+03-3.46245E+04 4.92071E-09-2.66220E-09
 -1       603-7.39990E+04-1.39695E+04-5.09670E+03-3.25043E+04 4.49518E-10 6.53290E-09
 -1       604-7.58390E+04-1.91787E+04-1.22434E+04-3.44807E+04-2.23508E-10-7.25163E-09
 -1       605-7.17182E+04-1.56277E+04-2.26029E+04-3.08664E+04 5.51381E-10-3.88081E-09
 -1       606 2.68782E+04-1.39841E+04-2.50731E+04 2.43533E+04 1.40781E-08 6.26574E-09
 -1       607 2.25936E+04-4.56472E+03-1.24862E+04 2.73647E+04 1.87929E-08 4.78394E-09
 -1       608 2.50345E+04-8.21217E+02-5.58980E+03 2.41794E+04 1.31404E-08 1.42950E-09
 -1       609 2.45655E+04-2.78303E+02-2.82377E+03 2.75816E+04 1.66674E-08-1.46542E-09
 -1       610 2.48248E+04-3.63717E+01-1.34737E+03 2.41589E+04 1.46392E-08-1.07586E-08
 -1       611 2.47502E+04-3.54841E+01-6.79343E+02 2.76050E+04 9.89530E-09 3.24121E-09
 -1       612 2.47777E+04-2.23002E+01-3.23089E+02 2.41568E+04-5.98538E-09-7.74003E-09
 -1       613 2.47604E+04-3.08504E+01-1.44905E+02 2.76078E+04-1.39507E-08-2.18045E-08
 -1       614 2.47552E+04-2.79990E+01-3.43265E+01 2.41561E+04 3.96540E-09-4.05635E-10
 -1       615 2.47543E+04-2.88966E+01 5.99254E+01 2.76082E+04 2.03349E-08 1.05767E-08
 -1       616 2.47376E+04-2.45404E+01 1.80435E+02 2.41563E+04 1.02418E-08-7.54676E-09
 -1       617 2.47753E+04 9.98215E+00 4.11978E+02 2.76077E+04-1.36561E-09-2.86159E-08
 -1       618 2.47013E+04 9.45530E+01 8.30510E+02 2.41566E+04-1.79352E-09 1.01409E-09
 -1       619 2.50681E+04 6.52406E+02 1.86505E+03 2.76071E+04-1.40278E-09-2.86741E-09
 -1       620 2.44252E+04 2.06417E+03 3.74871E+03 2.41578E+04 4.20414E-10-7.68750E-09
 -1       621 4.72576E+02 2.93927E+05 3.67909E+03 3.81208E+04 9.99080E-10-1.85810E-09
 -1       622 6.22864E+02 2.94782E+05 3.29542E+03 5.53520E+04 1.38471E-09-1.67438E-08
 -1       623 1.23046E+02 2.94112E+05 3.99968E+03 3.79477E+04 1.26568E-09-2.16178E-08
 -1       624 2.03876E+03 2.95984E+05 7.78593E+03 5.55229E+04 1.16722E-09-2.18579E-08
 -1       625 1.99948E+03 2.92568E+05 1.36210E+04 3.79446E+04 1.19780E-09 1.96005E-08
 -1       626 2.54828E+05 6.06206E+04 5.00233E+03 1.24637E+05 2.63753E-11 8.96398E-09
 -1       627 2.52491E+05 6.20578E+04 2.41059E+03 1.28893E+05 1.82354E-09 1.64482E-09
 -1       628 2.54956E+05 5.83273E+04 1.01942E+03 1.25481E+05-8.73115E-10 7.65431E-09
 -1       629 2.51864E+05 6.13992E+04 4.99007E+02 1.29133E+05-2.95950E-09-3.92261E-09
 -1       630 2.54970E+05 5.82168E+04 2.31531E+02 1.25516E+05-2.07092E-09 2.37549E-09
 -1       631 2.51797E+05 6.13748E+04 1.24728E+02 1.29134E+05 2.41357E-09 9.71102E-09
 -1       632 2.54966E+05 5.82211E+04 8.23276E+01 1.25512E+05 5.39649E-09-1.82138E-08
 -1       633 2.51788E+05 6.13769E+04 9.20804E+01 1.29130E+05 3.24678E-09-1.89343E-08
 -1       634 2.54961E+05 5.82186E+04 1.49135E+02 1.25511E+05-4.01462E-09-6.30735E-09
 -1       635 2.51802E+05 6.13755E+04 3.01983E+02 1.29135E+05-9.96229E-09-1.46943E-08
 -1       636 2.54951E+05 5.82133E+04 6.09957E+02 1.25510E+05-5.10568E-09-5.17093E-09
 -1       637 2.51933E+05 6.14704E+04 1.34115E+03 1.29134E+05-2.99360E-09 2.09684E-08
 -1       638 2.54904E+05 5.85096E+04 2.75561E+03 1.25376E+05-1.44832E-08 2.34195E-10
 -1       639 2.53381E+05 6.34836E+04 6.51983E+03 1.28708E+05-1.86612E-08 3.60790E-08
 -1       640 2.54704E+05 6.45204E+04 1.35298E+04 1.22842E+05-1.90989E-08 6.32713E-09
 -1       656 6.52363E+04-1.66844E+06-1.57476E+05-2.30989E+03-2.69210E-10-3.06983E-09
 -1       657-8.62961E+04-1.73960E+06-1.30448E+05 5.46944E+03 2.92857E-10-9.31172E-09
 -1       658 2.07898E+04-1.68865E+06-8.03243E+04-4.32983E+03 6.51880E-10-4.03281E-09
 -1       659-9.32749E+04-1.74291E+06-1.39619E+05 7.12447E+03-8.36735E-10-1.45181E-08
 -1       660 7.21994E+04-1.66514E+06-1.73243E+05-3.96490E+03-2.24099E-09-2.76279E-09
 -1       661 1.60042E+05 1.68070E+04 1.67397E+04 6.25635E+04-8.48104E-10 2.35104E-08
 -1       662 1.69452E+05 2.92568E+04 1.12813E+04 5.88696E+04-6.47560E-10 1.71178E-09
 -1       663 1.63330E+05 2.21776E+04 3.94554E+03 6.16096E+04 3.94607E-10 3.17323E-09
 -1       664 1.65640E+05 2.29760E+04 2.36015E+03 6.00347E+04-9.20465E-10 1.23262E-08
 -1       665 1.63828E+05 2.29114E+04 9.31062E+02 6.14644E+04 1.64079E-09-2.13848E-09
 -1       666 1.65051E+05 2.21367E+04 5.44843E+02 6.02239E+04 3.53154E-09-9.70959E-09
 -1       667 1.63915E+05 2.29950E+04 2.89410E+02 6.14282E+04-8.38440E-10-1.02317E-08
 -1       668 1.64955E+05 2.20763E+04 2.94924E+02 6.02766E+04-3.07986E-09 2.89025E-09
 -1       669 1.63923E+05 2.29700E+04 3.99311E+02 6.14120E+04-2.80903E-09 1.82679E-08
 -1       670 1.65052E+05 2.22930E+04 8.69534E+02 6.02795E+04-1.02580E-08-4.16776E-09
 -1       671 1.63818E+05 2.27828E+04 1.54393E+03 6.14233E+04-6.41784E-10-1.73393E-08
 -1       672 1.65952E+05 2.37951E+04 3.95012E+03 6.00616E+04 5.58154E-09-6.28006E-10
 -1       673 1.63028E+05 2.15059E+04 6.61977E+03 6.16154E+04 4.48949E-09-1.43832E-08
 -1       674 1.72252E+05 3.44303E+04 1.89311E+04 5.82105E+04 8.03652E-10-1.89930E-08
 -1       675 1.57558E+05 1.24454E+04 2.81004E+04 6.31626E+04-4.73756E-09-7.00493E-09
 -1       676 2.37869E+01-2.91630E+05-1.09992E+03-1.19487E+02 1.09551E-09 1.48051E-09
 -1       677-2.91220E+02-2.91896E+05-2.01305E+03 2.38786E+02 1.04878E-08 3.20135E-09
 -1       678 1.95116E+02-2.91441E+05-3.55856E+03-1.19220E+02 1.91176E-09 5.99869E-09
 -1       679-3.55887E+03-2.94044E+05-8.45366E+03 2.37770E+02 6.98321E-09 1.52725E-08
 -1       680 2.12466E+03-2.89483E+05-1.36244E+04-1.17150E+02 9.80435E-10 2.30101E-08
 -1       771-3.02641E+06-7.25280E+05-1.53888E+05-1.43892E+06-4.09782E-08-2.31666E-08
 -1       772-2.95297E+06-8.10455E+05-7.94159E+04-1.53729E+06-3.48082E-08 2.04927E-08
 -1       773-3.05569E+06-7.02400E+05-4.03132E+04-1.45205E+06-1.72004E-08 1.52941E-08
 -1       774-2.94363E+06-7.93441E+05-1.80210E+04-1.56110E+06 2.41271E-08 2.40107E-09
 -1       775-3.07079E+06-6.91781E+05-1.33648E+04-1.45834E+06-2.02563E-08-6.94126E-09
 -1       776-2.95469E+06-7.90799E+05-5.01623E+03-1.57898E+06-1.13505E-09 6.62112E-09
 -1       777-3.08385E+06-6.82342E+05-5.86314E+03-1.46389E+06 7.27596E-09 8.13452E-09
 -1       778-2.96626E+06-7.88360E+05-1.66360E+03-1.59432E+06-5.23869E-10 8.15999E-09
 -1       779-3.09504E+06-6.74115E+05-2.91665E+03-1.46864E+06-1.12923E-08-8.44011E-09
 -1       780-2.97644E+06-7.86031E+05-4.84358E+02-1.60681E+06 1.25874E-09-1.83718E-10
 -1       781-3.10392E+06-6.67493E+05-1.12832E+03-1.47235E+06-3.10829E-08-9.84801E-09
 -1       782-2.98427E+06-7.84048E+05 4.11596E+02-1.61603E+06-3.71074E-08-5.72663E-09
 -1       783-3.11017E+06-6.62899E+05 6.43652E+02-1.47495E+06-7.34872E-09-1.41877E-08
 -1       784-2.98860E+06-7.82029E+05 2.65054E+03-1.62172E+06-1.85901E-08 1.34924E-09
 -1       785-3.11387E+06-6.60162E+05 4.68039E+03-1.47661E+06-3.54194E-08 7.10497E-09
 -1       786 1.24852E+05-9.72616E+03 2.25022E+04-3.01903E+02 4.35353E-10-8.86030E-09
 -1       787 1.34611E+05 1.12606E+04 1.59194E+04-1.18827E+02 4.66932E-09 1.18944E-08
 -1       788 1.28615E+05-1.52418E+03 5.82192E+03-2.67728E+02 4.02801E-09 9.12155E-09
 -1       789 1.30228E+05 1.76407E+03 3.65494E+03-1.71441E+02 4.50055E-10 3.78571E-09
 -1       790 1.29236E+05-2.37392E+02 1.48016E+03-2.49304E+02-2.44702E-09 1.07869E-08
 -1       791 1.29501E+05 2.74613E+02 8.55568E+02-2.03018E+02-6.40658E-09-3.18191E-09
 -1       792 1.29341E+05-3.58390E+01 3.63877E+02-2.36154E+02-2.62173E-09-1.05270E-09
 -1       793 1.29376E+05 3.83843E+01 1.84301E+02-2.27778E+02-2.52351E-09 4.28663E-09
 -1       794 1.29362E+05-1.31199E+00 5.37235E+01-2.24544E+02 3.84430E-09-3.70623E-09
 -1       795 1.29341E+05-2.24378E+01-4.19435E+01-2.52034E+02-4.70178E-09-9.10674E-10
 -1       796 1.29376E+05 2.49494E+01-1.35199E+02-2.11897E+02 4.05065E-09 3.38303E-09
 -1       797 1.29260E+05-1.87083E+02-3.78619E+02-2.81106E+02 3.49613E-09-1.46687E-08
 -1       798 1.29443E+05 1.63209E+02-6.16947E+02-1.95472E+02 2.33916E-09 5.54110E-09
 -1       799 1.28791E+05-1.20316E+03-1.69910E+03-3.21687E+02 5.61475E-09 1.20682E-08
 -1       800 1.29845E+05 1.04020E+03-2.40508E+03-1.71317E+02 1.79423E-10 1.84593E-08
 -1       801-1.35393E+05-9.34936E+06-1.28419E+06 1.25934E+06 8.54780E-08-5.34892E-08
 -1       802 6.37477E+05 4.93760E+06 1.92704E+06-1.53727E+06 2.45811E-07-3.36731E-08
 -1       803-4.78019E+05-1.31156E+07-1.69388E+06 7.99474E+05 7.33016E-08 2.00744E-08
 -1       804 2.48485E+05 1.71826E+06 1.35867E+06 6.27107E+05-1.11726E-07-9.25781E-08
 -1       805 1.76299E+05-6.14488E+06-2.57672E+05-8.99887E+05-4.65952E-08-6.01776E-08
 -1       806-3.02524E+05-5.84127E+04-2.23362E+04-1.19756E+05-1.27889E-08 1.71349E-09
 -1       807-3.04300E+05-5.47483E+04-1.09736E+04-1.25153E+05-4.64047E-09 4.63911E-09
 -1       808-3.03136E+05-5.03648E+04-4.65534E+03-1.23563E+05-8.99809E-09-2.01612E-09
 -1       809-3.01994E+05-5.16642E+04-2.27635E+03-1.25422E+05-3.73348E-09 1.84209E-08
 -1       810-3.03228E+05-5.00846E+04-1.04337E+03-1.23732E+05 6.64704E-09 7.91442E-09
 -1       811-3.01815E+05-5.15402E+04-5.18877E+02-1.25388E+05 7.21548E-09-3.81806E-09
 -1       812-3.03242E+05-5.01086E+04-2.62458E+02-1.23731E+05-5.15774E-09-2.71202E-08
 -1       813-3.01791E+05-5.15423E+04-1.70657E+02-1.25369E+05-1.66256E-09-1.95330E-08
 -1       814-3.03236E+05-5.01179E+04-1.69228E+02-1.23727E+05-7.13408E-09-8.60518E-09
 -1       815-3.01795E+05-5.15444E+04-2.72809E+02-1.25362E+05-3.35149E-09 3.78714E-09
 -1       816-3.03216E+05-5.01169E+04-5.17108E+02-1.23724E+05 2.93949E-09 1.55119E-08
 -1       817-3.01883E+05-5.15937E+04-1.10989E+03-1.25351E+05-1.23546E-08 1.85787E-09
 -1       818-3.03149E+05-5.02733E+04-2.26376E+03-1.23650E+05-4.75484E-09 4.26553E-10
 -1       819-3.03122E+05-5.29615E+04-5.32659E+03-1.25058E+05 1.98497E-09 8.91760E-10
 -1       820-3.02723E+05-5.42963E+04-1.08415E+04-1.21931E+05-1.05138E-09 7.56472E-10
 -1       821-3.73021E+05 2.05481E+04-4.77032E+04 1.77336E+03 1.20630E-08 1.07648E-08
 -1       822-3.92934E+05-2.37967E+04-3.36239E+04-3.55758E+03 3.09371E-09-9.88621E-09
 -1       823-3.80611E+05 3.23220E+03-1.23334E+04 2.71729E+03-9.90523E-09 6.80302E-09
 -1       824-3.83871E+05-3.73114E+03-7.73526E+03-4.12596E+03 2.86872E-09 2.12187E-08
 -1       825-3.82086E+05 5.02078E+02-3.22040E+03 2.34182E+03 1.72966E-08 4.81339E-09
 -1       826-3.81787E+05-5.70881E+02-1.79024E+03-2.26709E+03 1.94776E-08-4.44243E-09
 -1       827-3.82680E+05 6.22997E+01-1.10653E+03 8.58332E+02 8.63216E-09-1.19142E-08
 -1       828-3.81305E+05-1.50762E+02-6.94813E+02 9.99745E+02 9.42748E-10 2.88120E-09
 -1       829-3.82560E+05 7.65978E+01-1.10407E+03-9.25057E+02 6.47631E-10 5.46154E-09
 -1       830-3.82052E+05-6.15612E+02-1.90941E+03 3.88895E+03 1.20413E-09 1.54325E-08
 -1       831-3.81948E+05 5.38136E+02-3.31015E+03-2.03090E+03-3.73625E-09 2.07262E-09
 -1       832-3.83956E+05-3.88897E+03-8.03461E+03 4.81872E+03-2.28663E-09-1.24888E-08
 -1       833-3.80665E+05 3.35450E+03-1.28239E+04-1.85486E+03-2.60231E-09 1.93904E-08
 -1       834-3.93086E+05-2.47007E+04-3.48524E+04 3.25231E+03-2.37910E-09-1.24764E-08
 -1       835-3.72809E+05 2.13235E+04-4.95459E+04-4.64438E+02 5.07058E-09 6.02813E-09
 -1       836-1.37355E+03 3.61306E+05 2.23219E+04-1.62524E+04-6.27460E-09-4.86261E-09
 -1       837 4.76693E+03 3.68293E+05 1.89047E+04-3.31415E+04-6.71923E-09 1.93349E-08
 -1       838-5.41039E+02 3.63263E+05 1.92843E+04-1.61814E+04-5.76074E-09-1.17643E-09
 -1       839 1.21537E+04 3.73795E+05 3.65024E+04-3.31926E+04-5.84987E-09-1.96707E-09
 -1       840-3.75173E+03 3.55746E+05 5.82176E+04-1.62064E+04-5.43878E-09 1.41634E-08
 -1       856-5.50332E+04 7.99759E+03-2.10754E+04-3.98077E+02 5.37523E-09-7.87531E-09
 -1       857-6.37179E+04-9.39525E+03-1.45083E+04 5.55384E+03 7.61986E-09 7.87782E-09
 -1       858-5.84718E+04 1.12149E+03-5.46866E+03-4.22151E+02 2.24759E-09 1.03364E-08
 -1       859-5.97716E+04-1.31783E+03-3.30028E+03 5.58989E+03-2.19636E-09 9.19079E-09
 -1       860-5.89855E+04 1.56962E+02-1.38348E+03-4.33898E+02 3.00312E-09-3.16095E-09
 -1       861-5.91806E+04-1.85926E+02-7.61772E+02 5.60591E+03-7.74683E-10 4.95051E-09
 -1       862-5.90658E+04 2.12104E+01-3.18048E+02-4.38154E+02-2.01134E-09-8.54769E-09
 -1       863-5.90824E+04-2.06463E+01-1.19010E+02 5.60834E+03-4.95207E-09-1.75524E-08
 -1       864-5.90842E+04-4.56802E+00 3.99430E+01-4.36326E+02-6.33463E-10-7.48605E-09
 -1       865-5.90287E+04 5.73793E+01 2.38584E+02 5.59803E+03 2.46843E-11-3.20387E-09
 -1       866-5.91173E+04-5.68745E+01 4.84455E+02-4.27847E+02 1.48935E-09 3.01856E-09
 -1       867-5.87999E+04 4.70035E+02 1.19480E+03 5.57499E+03 8.13884E-10 1.27779E-08
 -1       868-5.93083E+04-4.09892E+02 1.98594E+03-4.13284E+02-2.15510E-09-1.20137E-08
 -1       869-5.73432E+04 3.41126E+03 5.28880E+03 5.53696E+03-2.00464E-09 1.68984E-09
 -1       870-6.05664E+04-2.91839E+03 7.67508E+03-3.89728E+02-3.73518E-09-1.74241E-08
 -1       871-5.42902E+03-2.02000E+04-1.90279E+04 1.27233E+05-3.69073E-09 1.06875E-08
 -1       872-1.98858E+03-2.46109E+04-7.95351E+03 1.64975E+05-8.65930E-09-8.98399E-09
 -1       873 3.55634E+02-2.24841E+04 6.10884E+02 1.26953E+05-3.80487E-09-7.68682E-09
 -1       874 3.19462E+03-2.01005E+04 9.62933E+03 1.65005E+05-1.00372E-08-3.48791E-09
 -1       875 6.69007E+03-2.47777E+04 2.16958E+04 1.27187E+05-4.18368E-09 2.25400E-08
 -1       876 2.88306E+05 4.86634E+04 1.48512E+04 1.15783E+05 2.60457E-10 8.93760E-09
 -1       877 2.89280E+05 5.17990E+04 7.93111E+03 1.20051E+05 2.85218E-09 6.58645E-09
 -1       878 2.89695E+05 4.70185E+04 3.32275E+03 1.17000E+05-6.01813E-09-1.15085E-08
 -1       879 2.87261E+05 4.97844E+04 1.65558E+03 1.20151E+05 7.81438E-09 1.19144E-08
 -1       880 2.89794E+05 4.70014E+04 7.71131E+02 1.17050E+05-7.75844E-09-2.74139E-09
 -1       881 2.87127E+05 4.96983E+04 4.11761E+02 1.20128E+05-1.27952E-08 5.07382E-09
 -1       882 2.89803E+05 4.70144E+04 2.63361E+02 1.17051E+05-3.76303E-09-1.00932E-08
 -1       883 2.87117E+05 4.96939E+04 2.83028E+02 1.20121E+05-8.39873E-09 2.88037E-08
 -1       884 2.89797E+05 4.70116E+04 4.50144E+02 1.17052E+05-2.81705E-09 2.51703E-10
 -1       885 2.87153E+05 4.97001E+04 9.04983E+02 1.20132E+05-1.80216E-09-2.64184E-08
 -1       886 2.89762E+05 4.69852E+04 1.82393E+03 1.17048E+05-4.56114E-09 5.86397E-09
 -1       887 2.87474E+05 4.99103E+04 3.98411E+03 1.20178E+05 4.56762E-09-9.23012E-09
 -1       888 2.89510E+05 4.70296E+04 8.02809E+03 1.16921E+05-2.55525E-09 1.10185E-09
 -1       889 2.92253E+05 5.48804E+04 1.91777E+04 1.20031E+05 3.07854E-09-2.30102E-09
 -1       890 2.86234E+05 5.09212E+04 3.59193E+04 1.13865E+05-6.23777E-09 1.04956E-08
 -1       891-9.49408E+01-1.60001E+05-1.95843E+03 2.69319E+04-1.58684E-09 2.02940E-08
 -1       892-1.83197E+02-1.60514E+05-2.10470E+03 4.08839E+04 2.47974E-09 5.38118E-08
 -1       893 3.55082E+01-1.60063E+05-2.98137E+03 2.69390E+04-2.01612E-09 1.14278E-08
 -1       894-1.49446E+03-1.61641E+05-6.17129E+03 4.07331E+04 2.70120E-09 9.78616E-10
 -1       895-1.18540E+03-1.58778E+05-1.08680E+04 2.70841E+04-1.71531E-09-1.36761E-08
 -1       956-3.69736E+05-5.32581E+03-1.31736E+04 2.97731E+04 3.55976E-09-1.21236E-08
 -1       957-3.72323E+05-1.87025E+03-6.76190E+03 3.57866E+04-8.13088E-10-4.90263E-09
 -1       958-3.70919E+05-2.25848E+02-3.04706E+03 2.96097E+04-4.46289E-09 4.87557E-09
 -1       959-3.71113E+05-1.21783E+02-1.55593E+03 3.59761E+04-2.11003E-10 1.74568E-08
 -1       960-3.71034E+05-3.44629E+01-7.58736E+02 2.95929E+04-1.65073E-09 4.29236E-09
 -1       961-3.71033E+05-5.07904E+01-4.02322E+02 3.59958E+04 4.47403E-09 3.32057E-09
 -1       962-3.71060E+05-3.60282E+01-2.30374E+02 2.95902E+04 8.00355E-11 4.98130E-09
 -1       963-3.71033E+05-4.69062E+01-1.85007E+02 3.59994E+04 6.17274E-09 6.42785E-09
 -1       964-3.71065E+05-3.28026E+01-2.25037E+02 2.95894E+04-7.39817E-11 1.30444E-09
 -1       965-3.71045E+05-4.39138E+01-3.89268E+02 3.59987E+04-5.33799E-09 9.51604E-09
 -1       966-3.71050E+05-2.48761E+01-7.31404E+02 2.95908E+04-1.40835E-09-1.17157E-08
 -1       967-3.71134E+05-1.05800E+02-1.50012E+03 3.59849E+04-9.88621E-10-1.79764E-08
 -1       968-3.70949E+05-2.03217E+02-2.93663E+03 2.96030E+04-1.77261E-09 8.78771E-09
 -1       969-3.72312E+05-1.78612E+03-6.51933E+03 3.58423E+04-1.00554E-08 3.45793E-09
 -1       970-3.69817E+05-5.11638E+03-1.26999E+04 2.97261E+04-7.43603E-09-7.09497E-09
 -1       971-3.39295E+05-1.70297E+03-9.20239E+03 1.51916E+04 5.26325E-09-5.91228E-10
 -1       972-3.41512E+05-1.25086E+03-5.01152E+03 2.10300E+04-1.00408E-09-7.52698E-09
 -1       973-3.40320E+05-5.68500E+01-2.24467E+03 1.50713E+04 1.35515E-09 4.84010E-09
 -1       974-3.40455E+05-7.39419E+01-1.16350E+03 2.11657E+04 3.07909E-09-3.61661E-09
 -1       975-3.40401E+05-1.25549E+01-5.81918E+02 1.50591E+04-1.39230E-08-3.43823E-09
 -1       976-3.40395E+05-2.47221E+01-3.36308E+02 2.11812E+04-2.36282E-08-3.77202E-09
 -1       977-3.40417E+05-1.18686E+01-2.45135E+02 1.50558E+04-1.69402E-08 1.98199E-08
 -1       978-3.40400E+05-1.86094E+01-2.88285E+02 2.11859E+04-3.60887E-09 1.40990E-08
 -1       979-3.40417E+05-3.55817E+00-4.64411E+02 1.50544E+04-9.58102E-09-2.43324E-09
 -1       980-3.40435E+05-1.56056E+01-8.97488E+02 2.11869E+04-6.23329E-09 4.54509E-09
 -1       981-3.40388E+05 1.88684E+01-1.73863E+03 1.50549E+04-2.24418E-10 2.72507E-09
 -1       982-3.40673E+05-1.44069E+02-3.59394E+03 2.11803E+04 3.52691E-09 8.35637E-09
 -1       983-3.40169E+05-9.24583E+01-6.98316E+03 1.50609E+04 2.87855E-10 7.72525E-09
 -1       984-3.44032E+05-3.79116E+03-1.56385E+04 2.10956E+04-1.26852E-09-1.31918E-08
 -1       985-3.37008E+05-5.20232E+03-2.87172E+04 1.51329E+04-3.84171E-09-4.79486E-09
 -3
    1PSTEP                        21          11           1          
  100CL  111 6.62109E-01         409                     0   11           1
 -4  DISP        4    1
 -5  D1          1    2    1    0
 -5  D2          1    2    2    0
 -5  D3          1    2    3    0
 -5  ALL         1    2    0    0    1ALL
 -1         1 2.73513E-03 0.00000E+00 0.00000E+00
 -1         2 1.26388E-03 8.31573E-27 0.00000E+00
 -1         3 3.42288E-04-1.87654E-27-1.32349E-23
 -1         5 1.76942E-04-5.62744E-27-8.27181E-25
 -1         8 2.72487E-03-3.91024E-07 0.00000E+00
 -1         9 2.71755E-03-2.21647E-04 0.00000E+00
 -1        10 3.10393E-04-3.36556E-06 6.61744E-24
 -1        12 1.78774E-04 8.08083E-07 3.30872E-24
 -1        15 2.71326E-03-4.12654E-07 0.00000E+00
 -1        16 2.79611E-03-2.23650E-04 0.00000E+00
 -1        17 2.11260E-04-7.68179E-06 0.00000E+00
 -1        18 1.82709E-04 3.44543E-05 0.00000E+00
 -1        19 1.84300E-04 1.61767E-06 0.00000E+00
 -1        20 1.84439E-04-9.94097E-06 0.00000E+00
 -1        21 1.83548E-04-2.55286E-05 0.00000E+00
 -1        24 3.05439E-05-1.18888E-05 0.00000E+00
 -1        25 1.93507E-04 3.46796E-05 0.00000E+00
 -1        26 1.94186E-04 2.23687E-06 0.00000E+00
 -1        27 1.91989E-04-1.34945E-05 0.00000E+00
 -1        28 1.91673E-04-2.61499E-05 0.00000E+00
 -1        32 0.00000E+00 0.00000E+00 0.00000E+00
 -1        33 2.03070E-04 2.98954E-06 0.00000E+00
 -1        34 2.00955E-04-1.35506E-05 0.00000E+00
 -1        35 1.99025E-04-2.64919E-05 0.00000E+00
 -1        51 2.73444E-03-8.29337E-08-3.30872E-24
 -1        52 2.73317E-03-1.47276E-07 3.30872E-24
 -1        53 2.73146E-03-2.08051E-07-3.30872E-24
 -1        54 2.72942E-03-2.67489E-07 0.00000E+00
 -1        55 2.72718E-03-3.27357E-07-8.27181E-25
 -1        56 2.72616E-03 1.16166E-05 0.00000E+00
 -1        57 2.70736E-03 4.72189E-05 0.00000E+00
 -1        58 2.68156E-03 9.93721E-05 1.05879E-22
 -1        59 2.65240E-03 1.59098E-04 5.29396E-23
 -1        60 2.62442E-03 2.16122E-04-1.05879E-22
 -1        61 2.60197E-03 2.60384E-04 0.00000E+00
 -1        62 2.58801E-03 2.84091E-04-1.05879E-22
 -1        63 2.58434E-03 2.81268E-04 0.00000E+00
 -1        64 2.59057E-03 2.50828E-04 0.00000E+00
 -1        65 2.60541E-03 1.94334E-04-5.29396E-23
 -1        66 2.62626E-03 1.18360E-04-1.05879E-22
 -1        67 2.65031E-03 3.14388E-05 0.00000E+00
 -1        68 2.67442E-03-5.57327E-05 0.00000E+00
 -1        69 2.69552E-03-1.32426E-04 0.00000E+00
 -1        70 2.71072E-03-1.89985E-04 0.00000E+00
 -1        86 1.35537E-03-6.87879E-06 0.00000E+00
 -1        87 1.61918E-03-4.37703E-05 0.00000E+00
 -1        88 1.97402E-03-1.07427E-04 0.00000E+00
 -1        89 2.33409E-03-1.73020E-04 0.00000E+00
 -1        90 2.61053E-03-2.13199E-04 0.00000E+00
 -1       121 3.41393E-04-5.43256E-07 0.00000E+00
 -1       122 3.38710E-04-1.08959E-06 6.61744E-24
 -1       123 3.34248E-04-1.64203E-06 0.00000E+00
 -1       124 3.28026E-04-2.20360E-06-6.61744E-24
 -1       125 3.20064E-04-2.77695E-06 0.00000E+00
 -1       191 1.76993E-04 1.34732E-07 1.65436E-24
 -1       192 1.77145E-04 2.69454E-07-6.20385E-25
 -1       193 1.77400E-04 4.04157E-07 8.27181E-25
 -1       194 1.77757E-04 5.38832E-07 1.10183E-24
 -1       195 1.78215E-04 6.73471E-07 0.00000E+00
 -1       251 2.72456E-03 1.61110E-06 6.61744E-24
 -1       252 2.72425E-03 3.63917E-06-3.30872E-24
 -1       253 2.72394E-03 4.53176E-06-6.61744E-24
 -1       254 2.72362E-03 3.14189E-06 3.30872E-24
 -1       255 2.72330E-03-1.32403E-06 0.00000E+00
 -1       256 2.72296E-03-9.62024E-06-6.61744E-24
 -1       257 2.72257E-03-2.19085E-05 1.32349E-23
 -1       258 2.72213E-03-3.82992E-05 6.61744E-24
 -1       259 2.72163E-03-5.82692E-05 0.00000E+00
 -1       260 2.72106E-03-8.12487E-05-6.61744E-24
 -1       261 2.72045E-03-1.06203E-04 0.00000E+00
 -1       262 2.71981E-03-1.32071E-04 6.61744E-24
 -1       263 2.71918E-03-1.57652E-04 1.32349E-23
 -1       264 2.71859E-03-1.81748E-04-6.61744E-24
 -1       265 2.71805E-03-2.03392E-04 0.00000E+00
 -1       266 2.72293E-03-4.00045E-07 0.00000E+00
 -1       267 2.72100E-03-4.02990E-07 0.00000E+00
 -1       268 2.71906E-03-4.06319E-07 0.00000E+00
 -1       269 2.71713E-03-4.08509E-07 2.06795E-25
 -1       270 2.71519E-03-4.10672E-07 2.06795E-25
 -1       271 2.72417E-03-2.25896E-07-1.32349E-23
 -1       272 2.72457E-03-3.05305E-06-6.61744E-24
 -1       273 2.72601E-03-8.68587E-06 0.00000E+00
 -1       274 2.72841E-03-1.69232E-05-6.61744E-24
 -1       275 2.73168E-03-2.75415E-05 0.00000E+00
 -1       276 2.73572E-03-4.03009E-05 0.00000E+00
 -1       277 2.74044E-03-5.49439E-05 0.00000E+00
 -1       278 2.74574E-03-7.11991E-05-6.61744E-24
 -1       279 2.75151E-03-8.87828E-05 1.32349E-23
 -1       280 2.75765E-03-1.07401E-04 0.00000E+00
 -1       281 2.76405E-03-1.26751E-04 0.00000E+00
 -1       282 2.77060E-03-1.46526E-04 6.61744E-24
 -1       283 2.77719E-03-1.66414E-04-1.32349E-23
 -1       284 2.78371E-03-1.86104E-04 0.00000E+00
 -1       285 2.79005E-03-2.05285E-04 0.00000E+00
 -1       301 2.73180E-03-2.22020E-04 0.00000E+00
 -1       302 2.74432E-03-2.22341E-04-6.61744E-24
 -1       303 2.75605E-03-2.22650E-04-1.32349E-23
 -1       304 2.76796E-03-2.22960E-04 0.00000E+00
 -1       305 2.78099E-03-2.23285E-04 0.00000E+00
 -1       306 2.75598E-03-3.78586E-04 0.00000E+00
 -1       307 2.81985E-03-7.94399E-04 0.00000E+00
 -1       308 2.86650E-03-1.40004E-03 1.05879E-22
 -1       309 2.89083E-03-2.09900E-03 0.00000E+00
 -1       310 2.92301E-03-2.76555E-03 0.00000E+00
 -1       311 2.98303E-03-3.27681E-03 0.00000E+00
 -1       312 3.04022E-03-3.55274E-03-1.05879E-22
 -1       313 3.03320E-03-3.55654E-03-5.29396E-23
 -1       314 2.88825E-03-3.30116E-03 0.00000E+00
 -1       315 2.56518E-03-2.85165E-03 0.00000E+00
 -1       316 2.08344E-03-2.28470E-03 0.00000E+00
 -1       317 1.50979E-03-1.66927E-03 0.00000E+00
 -1       318 9.58814E-04-1.06550E-03-1.05879E-22
 -1       319 5.38405E-04-5.38190E-04 0.00000E+00
 -1       320 2.91962E-04-1.61486E-04 1.05879E-22
 -1       336 2.98825E-04-4.01650E-06 0.00000E+00
 -1       337 2.85184E-04-4.69306E-06 0.00000E+00
 -1       338 2.69529E-04-5.39746E-06 0.00000E+00
 -1       339 2.51935E-04-6.13058E-06 0.00000E+00
 -1       340 2.32482E-04-6.89687E-06 0.00000E+00
 -1       406 1.79434E-04 9.43891E-07-8.27181E-25
 -1       407 1.80197E-04 1.07961E-06-6.46235E-27
 -1       408 1.81066E-04 1.21517E-06 8.27181E-25
 -1       409 1.82039E-04 1.35039E-06-1.03398E-24
 -1       410 1.83118E-04 1.48499E-06-2.06795E-24
 -1       521 2.83511E-03-3.89956E-04 0.00000E+00
 -1       522 2.89711E-03-8.26790E-04-5.29396E-23
 -1       523 2.93701E-03-1.46155E-03 1.05879E-22
 -1       524 2.95164E-03-2.19077E-03-5.29396E-23
 -1       525 2.97554E-03-2.88550E-03 0.00000E+00
 -1       526 3.03194E-03-3.41995E-03 5.29396E-23
 -1       527 3.08878E-03-3.70689E-03 2.11758E-22
 -1       528 3.07929E-03-3.70861E-03 1.05879E-22
 -1       529 2.92149E-03-3.43820E-03 2.11758E-22
 -1       530 2.57286E-03-2.96910E-03 0.00000E+00
 -1       531 2.05374E-03-2.38197E-03 0.00000E+00
 -1       532 1.43767E-03-1.74840E-03 0.00000E+00
 -1       533 8.45128E-04-1.12580E-03-1.05879E-22
 -1       534 3.89625E-04-5.76595E-04 0.00000E+00
 -1       535 1.21022E-04-1.79505E-04 2.11758E-22
 -1       536 2.10506E-04 2.72224E-05-6.61744E-24
 -1       537 2.08589E-04 8.76423E-05 0.00000E+00
 -1       538 2.05627E-04 1.64313E-04 3.30872E-24
 -1       539 2.02132E-04 2.47886E-04 0.00000E+00
 -1       540 1.98987E-04 3.26858E-04 0.00000E+00
 -1       541 1.96943E-04 3.89752E-04 1.65436E-24
 -1       542 1.95999E-04 4.29813E-04-3.30872E-24
 -1       543 1.95774E-04 4.40438E-04-1.65436E-24
 -1       544 1.95452E-04 4.22398E-04 0.00000E+00
 -1       545 1.94280E-04 3.76688E-04 1.65436E-24
 -1       546 1.92096E-04 3.11432E-04 0.00000E+00
 -1       547 1.89138E-04 2.34877E-04 0.00000E+00
 -1       548 1.86208E-04 1.58698E-04 0.00000E+00
 -1       549 1.84094E-04 9.45686E-05 0.00000E+00
 -1       550 1.82996E-04 5.05194E-05 1.65436E-24
 -1       551 1.86083E-04-8.24828E-06 0.00000E+00
 -1       552 1.57663E-04-8.89511E-06 0.00000E+00
 -1       553 1.26942E-04-9.60411E-06-6.61744E-24
 -1       554 9.48774E-05-1.03543E-05-3.30872E-24
 -1       555 6.24270E-05-1.11182E-05 1.32349E-23
 -1       556 2.03619E-04 1.18569E-05 0.00000E+00
 -1       557 1.97446E-04 2.77034E-05 0.00000E+00
 -1       558 1.92605E-04 4.01453E-05 0.00000E+00
 -1       559 1.88966E-04 4.94927E-05 0.00000E+00
 -1       560 1.86397E-04 5.60562E-05 0.00000E+00
 -1       561 1.84772E-04 6.01487E-05 0.00000E+00
 -1       562 1.83964E-04 6.20847E-05 0.00000E+00
 -1       563 1.83851E-04 6.21793E-05 0.00000E+00
 -1       564 1.84309E-04 6.07487E-05 0.00000E+00
 -1       565 1.85219E-04 5.81095E-05 0.00000E+00
 -1       566 1.86461E-04 5.45792E-05 0.00000E+00
 -1       567 1.87916E-04 5.04755E-05 0.00000E+00
 -1       568 1.89466E-04 4.61162E-05-1.65436E-24
 -1       569 1.90992E-04 4.18193E-05 0.00000E+00
 -1       570 1.92378E-04 3.79026E-05 0.00000E+00
 -1       571 1.82806E-04 3.23243E-05 2.48154E-24
 -1       572 1.82904E-04 3.01287E-05 0.00000E+00
 -1       573 1.83003E-04 2.78831E-05 3.30872E-24
 -1       574 1.83103E-04 2.56040E-05 1.65436E-24
 -1       575 1.83202E-04 2.33076E-05 0.00000E+00
 -1       576 1.83301E-04 2.10104E-05 1.65436E-24
 -1       577 1.83400E-04 1.87290E-05 0.00000E+00
 -1       578 1.83500E-04 1.64797E-05 0.00000E+00
 -1       579 1.83599E-04 1.42791E-05 0.00000E+00
 -1       580 1.83699E-04 1.21437E-05 6.61744E-24
 -1       581 1.83799E-04 1.00899E-05-6.61744E-24
 -1       582 1.83899E-04 8.13415E-06 0.00000E+00
 -1       583 1.83999E-04 6.29300E-06 0.00000E+00
 -1       584 1.84099E-04 4.58268E-06 0.00000E+00
 -1       585 1.84200E-04 3.01932E-06 0.00000E+00
 -1       586 1.84468E-04 3.44939E-05 0.00000E+00
 -1       587 1.86186E-04 3.45330E-05 0.00000E+00
 -1       588 1.87905E-04 3.45718E-05 8.27181E-25
 -1       589 1.89670E-04 3.46099E-05 0.00000E+00
 -1       590 1.91523E-04 3.46467E-05 0.00000E+00
 -1       591 1.83440E-04 3.24177E-05-1.03398E-25
 -1       592 1.84173E-04 3.03613E-05 0.00000E+00
 -1       593 1.84911E-04 2.82908E-05 8.27181E-25
 -1       594 1.85653E-04 2.62110E-05 4.13590E-25
 -1       595 1.86396E-04 2.41266E-05 0.00000E+00
 -1       596 1.87138E-04 2.20423E-05 0.00000E+00
 -1       597 1.87879E-04 1.99628E-05 0.00000E+00
 -1       598 1.88617E-04 1.78928E-05 4.13590E-25
 -1       599 1.89349E-04 1.58369E-05-8.27181E-25
 -1       600 1.90074E-04 1.37999E-05-4.13590E-25
 -1       601 1.90790E-04 1.17863E-05 0.00000E+00
 -1       602 1.91496E-04 9.80101E-06 2.06795E-25
 -1       603 1.92190E-04 7.84857E-06 4.13590E-25
 -1       604 1.92870E-04 5.93379E-06-2.58494E-26
 -1       605 1.93535E-04 4.06128E-06-4.13590E-25
 -1       606 1.84313E-04 4.48938E-07 0.00000E+00
 -1       607 1.84323E-04-6.34028E-07 0.00000E+00
 -1       608 1.84332E-04-1.63626E-06 3.30872E-24
 -1       609 1.84340E-04-2.56343E-06-1.65436E-24
 -1       610 1.84348E-04-3.42128E-06 0.00000E+00
 -1       611 1.84357E-04-4.21559E-06 0.00000E+00
 -1       612 1.84365E-04-4.95215E-06 0.00000E+00
 -1       613 1.84373E-04-5.63679E-06 0.00000E+00
 -1       614 1.84382E-04-6.27530E-06 0.00000E+00
 -1       615 1.84390E-04-6.87348E-06 0.00000E+00
 -1       616 1.84398E-04-7.43715E-06 0.00000E+00
 -1       617 1.84407E-04-7.97211E-06 0.00000E+00
 -1       618 1.84415E-04-8.48416E-06 0.00000E+00
 -1       619 1.84424E-04-8.97912E-06 2.06795E-25
 -1       620 1.84432E-04-9.46279E-06 2.06795E-25
 -1       621 1.85663E-04 1.72145E-06 0.00000E+00
 -1       622 1.87184E-04 1.82546E-06 8.27181E-25
 -1       623 1.88830E-04 1.92926E-06-1.65436E-24
 -1       624 1.90568E-04 2.03272E-06-8.27181E-25
 -1       625 1.92365E-04 2.13589E-06 0.00000E+00
 -1       626 1.84850E-04 4.84999E-07 0.00000E+00
 -1       627 1.85378E-04-5.84667E-07 0.00000E+00
 -1       628 1.85885E-04-1.59917E-06 0.00000E+00
 -1       629 1.86374E-04-2.56665E-06 0.00000E+00
 -1       630 1.86849E-04-3.49532E-06 0.00000E+00
 -1       631 1.87313E-04-4.39336E-06 0.00000E+00
 -1       632 1.87768E-04-5.26898E-06-3.30872E-24
 -1       633 1.88218E-04-6.13038E-06-1.65436E-24
 -1       634 1.88666E-04-6.98577E-06 3.30872E-24
 -1       635 1.89114E-04-7.84333E-06-1.65436E-24
 -1       636 1.89567E-04-8.71130E-06 0.00000E+00
 -1       637 1.90026E-04-9.59786E-06 0.00000E+00
 -1       638 1.90495E-04-1.05112E-05-1.65436E-24
 -1       639 1.90977E-04-1.14596E-05 0.00000E+00
 -1       640 1.91475E-04-1.24513E-05-1.65436E-24
 -1       656 1.85150E-04-1.05185E-05 0.00000E+00
 -1       657 1.86280E-04-1.11196E-05-6.61744E-24
 -1       658 1.87690E-04-1.17192E-05 0.00000E+00
 -1       659 1.89234E-04-1.23185E-05 0.00000E+00
 -1       660 1.90728E-04-1.29197E-05-6.61744E-24
 -1       661 1.84705E-04-1.04642E-05 0.00000E+00
 -1       662 1.85009E-04-1.10791E-05 8.27181E-25
 -1       663 1.85345E-04-1.17805E-05 0.00000E+00
 -1       664 1.85711E-04-1.25620E-05 0.00000E+00
 -1       665 1.86105E-04-1.34176E-05 1.65436E-24
 -1       666 1.86525E-04-1.43415E-05 0.00000E+00
 -1       667 1.86968E-04-1.53281E-05 0.00000E+00
 -1       668 1.87432E-04-1.63717E-05 0.00000E+00
 -1       669 1.87916E-04-1.74670E-05 1.65436E-24
 -1       670 1.88417E-04-1.86087E-05-8.27181E-25
 -1       671 1.88934E-04-1.97915E-05-1.65436E-24
 -1       672 1.89464E-04-2.10104E-05-8.27181E-25
 -1       673 1.90005E-04-2.22604E-05 1.65436E-24
 -1       674 1.90555E-04-2.35368E-05-4.13590E-25
 -1       675 1.91114E-04-2.48343E-05-2.06795E-25
 -1       676 1.84907E-04-2.56327E-05 3.30872E-24
 -1       677 1.86265E-04-2.57369E-05-1.65436E-24
 -1       678 1.87621E-04-2.58409E-05 3.30872E-24
 -1       679 1.88976E-04-2.59447E-05 1.65436E-24
 -1       680 1.90327E-04-2.60484E-05 0.00000E+00
 -1       771 1.85971E-05 1.48316E-05 5.29396E-23
 -1       772 8.54690E-06 3.67758E-05-5.29396E-23
 -1       773 3.02643E-07 5.41742E-05-5.29396E-23
 -1       774-6.26002E-06 6.72850E-05 0.00000E+00
 -1       775-1.12628E-05 7.63764E-05 0.00000E+00
 -1       776-1.48321E-05 8.17337E-05 2.64698E-23
 -1       777-1.70945E-05 8.36520E-05-5.29396E-23
 -1       778-1.81788E-05 8.24405E-05 2.64698E-23
 -1       779-1.82133E-05 7.84167E-05 0.00000E+00
 -1       780-1.73282E-05 7.19096E-05 0.00000E+00
 -1       781-1.56531E-05 6.32550E-05 0.00000E+00
 -1       782-1.33187E-05 5.27976E-05 2.64698E-23
 -1       783-1.04552E-05 4.08864E-05-5.29396E-23
 -1       784-7.19373E-06 2.78770E-05 0.00000E+00
 -1       785-3.66466E-06 1.41280E-05 0.00000E+00
 -1       786 1.93545E-04 3.24245E-05 1.29247E-26
 -1       787 1.93587E-04 3.02194E-05 4.13590E-25
 -1       788 1.93629E-04 2.80560E-05 8.27181E-25
 -1       789 1.93671E-04 2.59262E-05 0.00000E+00
 -1       790 1.93713E-04 2.38252E-05 1.65436E-24
 -1       791 1.93756E-04 2.17482E-05-8.27181E-25
 -1       792 1.93799E-04 1.96931E-05 0.00000E+00
 -1       793 1.93842E-04 1.76578E-05-8.27181E-25
 -1       794 1.93884E-04 1.56418E-05 1.65436E-24
 -1       795 1.93927E-04 1.36453E-05 8.27181E-25
 -1       796 1.93970E-04 1.16699E-05 1.65436E-24
 -1       797 1.94013E-04 9.71758E-06 0.00000E+00
 -1       798 1.94056E-04 7.79252E-06-1.65436E-24
 -1       799 1.94099E-04 5.89905E-06-8.27181E-25
 -1       800 1.94143E-04 4.04463E-06 0.00000E+00
 -1       801 1.47693E-04 3.11776E-05 0.00000E+00
 -1       802 9.17560E-06 1.94528E-05 0.00000E+00
 -1       803-1.09105E-04 9.83216E-06 0.00000E+00
 -1       804-9.66402E-05 6.84468E-06 0.00000E+00
 -1       805-3.19183E-05 2.68772E-06 0.00000E+00
 -1       806 1.94237E-04 3.23558E-05 1.65436E-24
 -1       807 1.94954E-04 3.00583E-05 1.65436E-24
 -1       808 1.95658E-04 2.77920E-05 3.30872E-24
 -1       809 1.96349E-04 2.55613E-05 0.00000E+00
 -1       810 1.97024E-04 2.33700E-05 0.00000E+00
 -1       811 1.97684E-04 2.12221E-05 0.00000E+00
 -1       812 1.98325E-04 1.91215E-05-3.30872E-24
 -1       813 1.98948E-04 1.70722E-05 0.00000E+00
 -1       814 1.99550E-04 1.50780E-05 0.00000E+00
 -1       815 2.00130E-04 1.31429E-05 8.27181E-25
 -1       816 2.00686E-04 1.12708E-05 0.00000E+00
 -1       817 2.01218E-04 9.46541E-06-8.27181E-25
 -1       818 2.01723E-04 7.73077E-06-1.65436E-24
 -1       819 2.02201E-04 6.07071E-06-8.27181E-25
 -1       820 2.02650E-04 4.48904E-06 3.30872E-24
 -1       821 1.94057E-04-1.17274E-07-1.65436E-24
 -1       822 1.93917E-04-3.60546E-06 0.00000E+00
 -1       823 1.93775E-04-7.80568E-06 0.00000E+00
 -1       824 1.93631E-04-1.22915E-05 1.65436E-24
 -1       825 1.93487E-04-1.65593E-05 0.00000E+00
 -1       826 1.93345E-04-2.01067E-05 1.65436E-24
 -1       827 1.93207E-04-2.26275E-05 0.00000E+00
 -1       828 1.93070E-04-2.38217E-05-1.65436E-24
 -1       829 1.92935E-04-2.37501E-05 3.30872E-24
 -1       830 1.92798E-04-2.24812E-05 0.00000E+00
 -1       831 1.92661E-04-2.04093E-05 0.00000E+00
 -1       832 1.92523E-04-1.79334E-05 0.00000E+00
 -1       833 1.92385E-04-1.55627E-05-3.30872E-24
 -1       834 1.92250E-04-1.38056E-05 0.00000E+00
 -1       835 1.92116E-04-1.30042E-05 8.27181E-25
 -1       836 1.95879E-04 2.36168E-06 0.00000E+00
 -1       837 1.97445E-04 2.48964E-06 1.65436E-24
 -1       838 1.98915E-04 2.61753E-06 3.30872E-24
 -1       839 2.00322E-04 2.74473E-06-8.27181E-25
 -1       840 2.01696E-04 2.87176E-06 8.27181E-25
 -1       856 1.91973E-04-1.45601E-05 0.00000E+00
 -1       857 1.91954E-04-1.54902E-05 0.00000E+00
 -1       858 1.91935E-04-1.63057E-05-2.06795E-25
 -1       859 1.91915E-04-1.70279E-05 0.00000E+00
 -1       860 1.91895E-04-1.76780E-05 0.00000E+00
 -1       861 1.91876E-04-1.82771E-05 0.00000E+00
 -1       862 1.91856E-04-1.88466E-05 0.00000E+00
 -1       863 1.91836E-04-1.94077E-05-4.13590E-25
 -1       864 1.91816E-04-1.99819E-05 0.00000E+00
 -1       865 1.91796E-04-2.05904E-05 0.00000E+00
 -1       866 1.91776E-04-2.12545E-05 0.00000E+00
 -1       867 1.91756E-04-2.19954E-05 0.00000E+00
 -1       868 1.91736E-04-2.28343E-05-8.27181E-25
 -1       869 1.91716E-04-2.37924E-05-4.13590E-25
 -1       870 1.91695E-04-2.48906E-05 0.00000E+00
 -1       871 1.93342E-04-1.34994E-05 8.27181E-25
 -1       872 1.94842E-04-1.35077E-05 0.00000E+00
 -1       873 1.96422E-04-1.35167E-05 0.00000E+00
 -1       874 1.98012E-04-1.35265E-05 3.10193E-25
 -1       875 1.99546E-04-1.35368E-05-6.20385E-25
 -1       876 1.92516E-04-1.45456E-05 0.00000E+00
 -1       877 1.93020E-04-1.55299E-05 1.65436E-24
 -1       878 1.93503E-04-1.64555E-05-3.30872E-24
 -1       879 1.93967E-04-1.73297E-05-1.65436E-24
 -1       880 1.94414E-04-1.81600E-05 3.30872E-24
 -1       881 1.94848E-04-1.89536E-05-1.65436E-24
 -1       882 1.95271E-04-1.97179E-05 0.00000E+00
 -1       883 1.95685E-04-2.04603E-05 0.00000E+00
 -1       884 1.96095E-04-2.11880E-05-3.30872E-24
 -1       885 1.96501E-04-2.19085E-05 0.00000E+00
 -1       886 1.96907E-04-2.26291E-05 3.30872E-24
 -1       887 1.97316E-04-2.33570E-05-1.65436E-24
 -1       888 1.97731E-04-2.40996E-05 0.00000E+00
 -1       889 1.98153E-04-2.48645E-05 0.00000E+00
 -1       890 1.98585E-04-2.56588E-05 0.00000E+00
 -1       891 1.93041E-04-2.62074E-05 0.00000E+00
 -1       892 1.94385E-04-2.62650E-05 0.00000E+00
 -1       893 1.95680E-04-2.63225E-05-8.27181E-25
 -1       894 1.96902E-04-2.63798E-05 4.13590E-25
 -1       895 1.98025E-04-2.64368E-05 4.13590E-25
 -1       956 2.02940E-04 1.66441E-06 3.30872E-24
 -1       957 2.02808E-04 4.30689E-07 0.00000E+00
 -1       958 2.02675E-04-7.22351E-07 3.30872E-24
 -1       959 2.02543E-04-1.80603E-06 1.65436E-24
 -1       960 2.02410E-04-2.83171E-06 0.00000E+00
 -1       961 2.02277E-04-3.81079E-06 0.00000E+00
 -1       962 2.02145E-04-4.75468E-06-3.30872E-24
 -1       963 2.02012E-04-5.67482E-06 0.00000E+00
 -1       964 2.01879E-04-6.58263E-06 3.30872E-24
 -1       965 2.01747E-04-7.48951E-06 0.00000E+00
 -1       966 2.01614E-04-8.40693E-06 0.00000E+00
 -1       967 2.01482E-04-9.34629E-06 0.00000E+00
 -1       968 2.01349E-04-1.03190E-05 0.00000E+00
 -1       969 2.01217E-04-1.13365E-05 0.00000E+00
 -1       970 2.01085E-04-1.24100E-05 0.00000E+00
 -1       971 2.00835E-04-1.46907E-05-3.30872E-24
 -1       972 2.00714E-04-1.57364E-05 0.00000E+00
 -1       973 2.00593E-04-1.66980E-05-3.30872E-24
 -1       974 2.00471E-04-1.75863E-05-1.65436E-24
 -1       975 2.00350E-04-1.84123E-05 0.00000E+00
 -1       976 2.00229E-04-1.91868E-05 0.00000E+00
 -1       977 2.00108E-04-1.99206E-05 0.00000E+00
 -1       978 1.99986E-04-2.06246E-05-1.65436E-24
 -1       979 1.99865E-04-2.13098E-05 3.30872E-24
 -1       980 1.99744E-04-2.19869E-05-1.65436E-24
 -1       981 1.99623E-04-2.26670E-05 0.00000E+00
 -1       982 1.99502E-04-2.33609E-05 0.00000E+00
 -1       983 1.99381E-04-2.40795E-05 0.00000E+00
 -1       984 1.99260E-04-2.48337E-05 1.65436E-24
 -1       985 1.99140E-04-2.56343E-05 0.00000E+00
 -3
    1PSTEP                        22          11           1          
  100CL  111 6.62109E-01         409                     0   11           1
 -4  STRESS      6    1
 -5  SXX         1    4    1    1
 -5  SYY         1    4    2    2
 -5  SZZ         1    4    3    3
 -5  SXY         1    4    1    2
 -5  SYZ         1    4    2    3
 -5  SZX         1    4    3    1
 -1         1-5.34091E+06-1.49701E+06-1.12537E+06-1.23002E+06-2.28465E-09 7.61065E-08
 -1         2 1.72223E+06 2.50236E+07 5.74890E+06 7.65561E+06 3.04135E-08-6.06815E-09
 -1         3-1.48234E+03-1.54243E+06 4.02460E+02-2.18514E+03-6.25548E-10 1.06884E-08
 -1         5-7.45368E+01 3.85812E+05-1.60612E-01 7.37656E+00-5.26491E-10 1.15142E-09
 -1         8-5.44068E+05-1.98762E+05-6.31870E+04-2.34579E+05-7.27596E-12 5.46606E-08
 -1         9 1.19344E+07 4.40942E+06 2.92930E+06-1.62936E+05-1.04308E-08 2.31643E-07
 -1        10-2.29487E+03-1.60731E+06-3.90595E+03-1.47886E+04-1.29112E-08-3.34991E-08
 -1        12-7.84656E+01 3.87765E+05 3.17176E+02-1.50654E+01 1.85355E-09-1.06635E-09
 -1        15 8.97429E+02 4.93182E+02 2.90091E+03 7.51044E-01 2.66169E-10 3.39196E-07
 -1        16 2.29173E+07-3.60118E+05 3.11203E+06-2.36767E+06 1.39310E-08 5.43271E-10
 -1        17 8.40608E+06 6.28623E+06 2.26867E+06 6.00971E+06 2.58558E-08 2.54484E-08
 -1        18 1.42238E+05 3.34805E+04 4.18226E+03-1.19376E+05 1.46117E-08-3.89491E-09
 -1        19 1.22368E+05 1.42172E+05-8.84001E+02 2.19480E+04 1.43336E-09 8.24730E-09
 -1        20-8.17991E+04-5.72865E+05-1.28543E+05 2.50989E+04-1.91706E-09 3.63555E-09
 -1        21-4.55129E+01-2.95631E+05-9.22818E+02 2.75567E+02 1.20749E-08-3.95973E-08
 -1        24 1.41530E+07 1.21588E+07 3.91271E+06 1.12554E+07-1.69452E-07-5.96240E-08
 -1        25 1.25125E+05 2.68058E+05 1.00161E+05-6.46554E+05-1.03964E-09 1.16319E-08
 -1        26-5.53762E+04 9.21355E+04-2.46124E+04 1.28998E+03-2.59024E-10 2.14764E-08
 -1        27-7.55284E+04-3.09515E+05-1.13159E+05 6.88695E+04 3.85671E-09-2.99860E-09
 -1        28 2.22112E+04-8.52344E+04 1.68754E+04 2.05924E+04-3.91631E-09 6.43780E-10
 -1        32-1.67884E+06-3.18055E+06-1.97981E+05 4.60665E+05-4.26517E-08-4.77871E-09
 -1        33-1.78226E+05 9.28655E+04 3.23414E+04-3.84317E+04-3.13840E-09 1.37637E-08
 -1        34-2.23290E+05-2.49928E+04 6.88693E+02 7.55453E+04-3.93388E-09 5.50244E-09
 -1        35-2.29004E+04-3.38026E+04-1.34660E+03 5.14302E+04-5.41553E-09-9.15315E-09
 -1        51 6.12657E+04-1.66445E+05 1.29380E+05-4.21057E+05-7.27596E-11 2.18351E-07
 -1        52 2.06503E+04-1.43720E+05 6.77254E+04-4.91112E+05 2.52840E-10-1.30116E-07
 -1        53 4.09521E+03-1.59017E+05 3.50016E+04-4.19629E+05 4.56566E-10-2.08005E-07
 -1        54 7.00878E+03-1.54790E+05 2.82262E+04-4.92496E+05 1.12777E-10-1.75694E-07
 -1        55 1.53141E+04-1.61547E+05 3.37055E+04-4.19561E+05 1.45519E-10 2.68270E-07
 -1        56-9.87094E+06-1.48328E+06-9.60480E+05-4.18598E+06 2.44472E-08-1.72848E-07
 -1        57-1.12913E+07-5.53063E+05-5.32117E+05-2.48729E+06 2.27301E-08-2.58093E-07
 -1        58-9.53303E+06-1.98968E+06-2.03726E+05-4.43523E+06-3.83079E-08 9.40054E-08
 -1        59-1.16483E+07 5.62762E+04-1.01978E+05-2.40669E+06 1.87802E-08 6.45814E-08
 -1        60-9.64675E+06-1.99102E+06-6.35666E+04-4.38331E+06-4.57512E-08 2.21698E-08
 -1        61-1.07409E+07-3.90384E+05 4.11249E+04-2.66505E+06 5.96410E-08-3.38478E-08
 -1        62-1.02260E+07-1.68829E+06-1.15541E+05-4.00215E+06 1.01863E-09-3.29746E-08
 -1        63-9.50838E+06-1.31995E+06 9.41884E+04-3.53122E+06 4.87489E-10-2.48423E-07
 -1        64-1.06989E+07-1.19083E+06-1.06754E+05-3.40646E+06-1.42172E-08-1.08961E-07
 -1        65-9.11362E+06-2.07934E+06 3.56141E+04-4.74633E+06-4.48417E-08 9.76033E-08
 -1        66-1.08230E+07-7.88418E+05-5.02966E+04-2.94151E+06-4.86980E-08 1.57250E-07
 -1        67-9.21485E+06-2.37546E+06-9.12933E+04-5.33593E+06-3.46699E-08 2.04673E-07
 -1        68-1.08029E+07-7.48765E+05-1.91508E+05-2.94011E+06-8.18363E-08 9.29867E-09
 -1        69-9.30770E+06-2.41556E+06-4.68639E+05-4.71706E+06-4.29864E-08-4.44532E-07
 -1        70-1.05363E+07-8.97955E+05-8.88085E+05-3.43992E+06-1.11650E-08 2.23343E-07
 -1        86-1.75823E+06-1.71925E+07-3.15119E+06-3.58435E+06-2.96448E-07 4.70609E-08
 -1        87 2.80848E+06 7.37923E+06 2.61901E+06 6.43779E+06-4.92917E-07-1.07502E-07
 -1        88-5.50946E+05-1.76081E+06 2.53004E+05-2.76691E+06-4.57718E-07 2.52148E-08
 -1        89 3.75636E+06 7.01460E+06 2.68768E+06 6.67016E+06-6.32826E-07-6.77874E-08
 -1        90-2.58963E+06-1.69194E+07-3.39482E+06-3.85550E+06-1.44566E-07 6.36064E-08
 -1       121-2.03030E+03-1.54731E+06-5.47307E+02 1.08299E+03 1.48634E-09 1.97178E-08
 -1       122-1.29875E+03-1.54249E+06 7.62332E+02-4.37464E+03-5.40395E-09-2.68337E-08
 -1       123-2.05012E+03-1.54744E+06 2.52206E+02 3.23461E+03 4.07795E-09 2.87546E-08
 -1       124 3.19822E+02-1.54204E+06 2.91919E+03-9.15993E+03-9.95533E-09 2.62953E-08
 -1       125-2.85109E+03-1.54833E+06 3.41775E+03 5.82249E+03 6.88124E-09-3.15049E-09
 -1       191-7.88404E+01 3.85831E+05-4.13097E+00-3.66030E+00-5.63318E-10-2.03363E-09
 -1       192-7.91553E+01 3.85811E+05-1.77746E+00 3.72213E+01-7.20206E-10-1.00526E-08
 -1       193-9.32185E+01 3.85831E+05-9.24185E+00-3.33821E+01-9.89985E-10-7.41238E-09
 -1       194-1.28348E+02 3.85796E+05-2.25713E+01 3.02794E+02-7.18956E-10-1.67374E-08
 -1       195-2.30425E+02 3.85833E+05-5.64575E+01-2.68894E+02-1.28966E-09-3.31856E-08
 -1       251-8.84261E+05 1.75235E+04-4.08866E+04-1.63399E+04 6.35036E-09 3.46045E-08
 -1       252-8.99653E+05-2.02860E+04-2.84329E+04 5.88654E+04-7.06677E-09 5.32295E-08
 -1       253-8.93520E+05 2.71015E+03-1.10421E+04-1.20088E+04-1.81535E-09-1.03819E-09
 -1       254-8.84072E+05-3.30129E+03-4.71950E+03 4.27838E+04 1.06779E-08-1.13249E-07
 -1       255-8.99070E+05 1.36853E+01-4.03915E+03-2.63254E+02-7.22639E-09 1.10514E-08
 -1       256-8.76984E+05-2.96092E+02 1.70868E+03 1.57705E+04 2.40152E-09 7.64691E-08
 -1       257-9.00002E+05-7.46269E+02-1.84152E+03 1.49877E+04 7.33212E-09 2.35361E-07
 -1       258-8.80385E+05 1.09807E+03 3.24257E+03-1.30699E+04-2.17332E-08-1.88904E-07
 -1       259-8.95957E+05-1.15521E+03 1.12062E+03 2.85727E+04 3.62434E-09-2.98369E-08
 -1       260-8.88910E+05 3.32696E+03 5.73883E+03-3.40512E+04-4.34756E-09 2.27475E-07
 -1       261-8.92300E+05-2.33689E+03 8.57802E+03 3.59924E+04 1.30807E-08 1.73215E-07
 -1       262-8.88605E+05 1.22018E+04 2.13779E+04-4.03042E+04-1.65670E-08-2.68908E-07
 -1       263-8.96602E+05-9.73179E+03 3.37646E+04 3.48399E+04 6.83792E-09 1.50270E-07
 -1       264-8.56848E+05 6.70130E+04 9.39165E+04-2.96521E+04 7.30538E-08 5.86180E-07
 -1       265-9.23435E+05-5.73803E+04 1.30031E+05 2.53217E+04 2.54445E-08 2.42973E-07
 -1       266-1.62467E+04-7.59781E+03 3.81153E+04-1.60686E+01 3.63798E-11-1.98818E-07
 -1       267 1.88341E+04 8.85408E+03 2.69414E+04 1.85417E+01 1.78261E-10-1.23333E-07
 -1       268-2.52563E+03-1.25405E+03 1.00139E+04-2.36244E+00 3.34239E-10 5.02586E-08
 -1       269 2.98201E+03 1.50076E+03 6.50897E+03 2.75199E+00-5.44560E-11-1.29137E-07
 -1       270-4.47601E+02-2.46588E+02 3.14197E+03-3.73460E-01 7.26459E-11 9.66103E-08
 -1       271-1.41549E+06-1.82186E+05-1.06907E+05-5.52162E+05 1.06993E-08 1.33317E-07
 -1       272-1.39885E+06-2.99727E+05-6.66287E+04-5.99946E+05-9.94623E-09-1.00768E-07
 -1       273-1.43838E+06-2.04051E+05-2.61202E+04-5.44075E+05-8.32733E-09 2.43632E-07
 -1       274-1.37349E+06-2.73170E+05-1.32891E+04-6.15856E+05 5.98811E-09 3.07431E-07
 -1       275-1.44406E+06-2.03118E+05-6.61843E+03-5.40178E+05-4.51146E-08 9.41000E-08
 -1       276-1.36844E+06-2.74402E+05-2.62495E+03-6.25213E+05 5.46224E-08-2.40360E-07
 -1       277-1.44699E+06-2.00220E+05-1.86213E+03-5.37361E+05 2.13877E-08 8.35998E-08
 -1       278-1.36669E+06-2.77641E+05-6.10680E+02-6.32065E+05 6.85623E-08-3.46986E-08
 -1       279-1.44885E+06-1.97926E+05-7.94772E+02-5.35414E+05-2.64481E-09 1.20241E-07
 -1       280-1.36597E+06-2.79976E+05-8.01612E+02-6.36475E+05 6.38420E-09 1.54397E-07
 -1       281-1.44982E+06-1.96558E+05-1.49403E+03-5.34358E+05 4.45407E-08-1.18598E-08
 -1       282-1.36635E+06-2.81838E+05-3.45737E+03-6.38172E+05-6.64090E-08 3.04483E-07
 -1       283-1.44939E+06-1.95581E+05-6.16536E+03-5.34287E+05-8.54834E-09 1.14585E-07
 -1       284-1.37192E+06-2.89665E+05-1.67717E+04-6.35941E+05 5.01686E-08-3.57162E-07
 -1       285-1.44394E+06-1.89836E+05-2.62985E+04-5.36015E+05-3.80760E-08-1.28421E-07
 -1       301-1.25471E+04-6.57437E+05 1.65944E+05-1.16234E+06-4.65661E-09 5.46715E-08
 -1       302-1.57541E+04-6.09270E+05 9.98860E+04-1.69581E+06-5.67525E-10 8.59327E-08
 -1       303-2.61858E+04-6.51220E+05 5.61510E+04-1.15907E+06-1.32059E-08-2.13438E-07
 -1       304-3.13117E+04-6.17439E+05 5.60042E+04-1.69534E+06-1.26456E-08-3.12470E-07
 -1       305-3.08035E+04-6.39738E+05 6.81865E+04-1.16214E+06 1.26929E-08-3.04135E-09
 -1       306-3.00126E+07-6.18144E+06-8.56689E+06-4.45738E+05-5.90226E-08-1.10915E-07
 -1       307 2.50030E+07 3.28814E+06 5.46424E+06-1.53243E+07-8.35440E-07-1.67347E-07
 -1       308-6.83485E+06-9.75178E+05-4.05595E+05 5.19057E+06-1.69239E-07 1.19384E-07
 -1       309-3.07417E+06 8.64397E+06 2.29554E+06-2.06954E+07 4.71951E-07 2.49933E-07
 -1       310-1.27793E+07-1.95676E+06-2.09798E+06 5.18877E+06 3.74857E-08-9.30595E-08
 -1       311 3.88898E+07-4.61558E+04 7.33988E+06-8.51958E+06 4.00702E-07-1.79862E-07
 -1       312-3.19546E+07-6.86893E+06-8.57320E+06-5.21651E+06-1.54134E-07-4.56930E-08
 -1       313 4.51386E+07 1.53662E+07 1.06772E+07 2.40408E+07-1.17812E-07 2.66882E-08
 -1       314-1.70062E+07-1.79060E+07-7.49984E+06-1.25038E+07 5.77362E-07-2.84053E-07
 -1       315-2.11592E+06 2.97902E+07 5.63350E+06 1.02638E+07-6.03541E-07-4.37431E-08
 -1       316 1.47718E+06-9.77592E+06-4.04542E+05-2.44612E+06-1.24988E-06-1.60828E-07
 -1       317-1.70459E+07 2.23979E+07 2.24623E+06-8.92126E+06 4.33232E-07-8.07864E-07
 -1       318-1.12167E+06-1.28999E+07-2.08828E+06-4.25681E+06-8.72038E-07 1.11293E-07
 -1       319 7.38701E+06 3.21125E+07 7.08736E+06 1.67415E+07-5.89062E-08 2.18424E-07
 -1       320-2.26586E+07-1.76825E+07-9.88609E+06-1.28405E+07 1.86963E-07-5.82659E-08
 -1       336-7.58280E+02-1.67501E+06-1.37142E+04 8.79696E+03-2.66064E-08 3.07773E-09
 -1       337-5.37092E+03-1.67450E+06-1.78815E+04-2.13838E+04-4.92955E-08-1.17871E-09
 -1       338 2.51522E+02-1.67451E+06-2.81813E+04 1.23364E+04-3.44644E-08-1.12050E-09
 -1       339-2.99117E+04-1.69156E+06-6.36679E+04-2.83209E+04-6.15728E-08 1.59289E-08
 -1       340 1.96685E+04-1.66011E+06-1.00310E+05 1.56038E+04-4.02142E-08 2.46728E-08
 -1       406 8.32721E+01 3.89691E+05 8.63709E+02 2.84753E+02 3.25781E-09-1.13268E-08
 -1       407 1.95595E+02 3.89868E+05 1.51331E+03-2.95886E+02 1.83331E-09-8.43102E-10
 -1       408 6.36102E+02 3.89610E+05 2.86295E+03 1.07697E+01 4.11137E-09-5.06589E-09
 -1       409 2.93283E+03 3.90763E+05 6.37262E+03 2.49316E+02 2.89253E-09-3.75467E-08
 -1       410 8.60159E+03 3.88795E+05 1.29592E+04-2.77119E+02 4.83487E-09-1.02173E-08
 -1       521-3.16777E+07-7.67300E+06-1.00640E+07-4.45998E+04-1.32364E-07 7.57864E-08
 -1       522 2.59960E+07 4.37960E+06 5.60469E+06-1.89147E+07-5.43863E-07 7.50297E-08
 -1       523-7.40468E+06-1.29790E+06-3.97103E+05 5.66096E+06 1.81899E-07-2.66387E-07
 -1       524-6.57290E+06 1.17996E+07 2.49923E+06-2.38464E+07 7.40867E-07-5.68351E-07
 -1       525-1.35933E+07-2.62370E+06-2.31968E+06 5.67088E+06 6.32077E-07 9.04256E-08
 -1       526 4.27218E+07-1.58030E+05 7.73852E+06-1.11850E+07 5.33008E-07-1.89029E-07
 -1       527-3.39367E+07-8.61014E+06-9.93371E+06-5.09571E+06 3.90457E-07-1.80458E-07
 -1       528 4.95104E+07 1.72684E+07 1.11910E+07 2.74990E+07-5.27769E-07 3.02884E-07
 -1       529-1.79782E+07-2.02255E+07-8.64338E+06-1.25665E+07-1.81142E-07-1.37254E-07
 -1       530-4.60994E+06 3.47745E+07 5.99470E+06 9.67205E+06-1.29483E-07 5.10830E-07
 -1       531 1.50220E+06-1.08710E+07-3.74934E+05-2.36213E+06-8.63351E-07 5.49480E-07
 -1       532-1.95260E+07 2.44637E+07 2.47114E+06-1.33485E+07 4.23621E-07-7.18515E-07
 -1       533-1.15579E+06-1.41124E+07-2.24047E+06-4.03625E+06-3.13245E-07-1.05624E-06
 -1       534 5.43545E+06 3.74948E+07 7.41561E+06 1.74103E+07-8.02975E-08 7.89412E-07
 -1       535-2.39202E+07-2.01890E+07-1.13943E+07-1.29571E+07 8.95234E-08 4.76954E-07
 -1       536-7.06071E+05-4.64973E+04-4.87753E+04-5.46750E+04-1.75169E-09 6.62285E-08
 -1       537-5.49871E+04 4.43968E+04 8.35223E+04 1.23849E+05-1.10846E-07 9.20322E-08
 -1       538-3.94442E+05 3.38352E+03 3.39507E+03-7.22085E+04 2.72887E-08 1.12501E-07
 -1       539-2.69117E+05 2.80527E+03 2.48191E+04 1.38754E+05 1.74280E-07 1.24480E-07
 -1       540-4.97323E+05-4.17415E+02-2.13536E+04-7.01152E+04 1.50076E-08 9.39564E-08
 -1       541 1.46594E+05 1.69618E+04 1.06356E+05 9.79466E+04-4.25507E-08 5.87505E-08
 -1       542-7.98952E+05-2.01347E+04-8.42479E+04-3.05257E+04 6.51075E-08 2.70352E-08
 -1       543 4.05368E+05 2.73272E+04 1.57976E+05-1.33511E+04-3.77859E-08-7.55836E-09
 -1       544-7.49157E+05-1.65399E+04-7.48474E+04 4.05129E+04 1.15324E-09-4.17895E-08
 -1       545 2.89999E+04 9.48619E+03 7.98215E+04-1.13628E+05-2.67210E-08-7.72561E-08
 -1       546-4.32692E+05 6.09526E+03-1.22319E+04 6.94049E+04-2.45807E-08-8.85888E-08
 -1       547-2.87148E+05-4.65472E+03 1.05917E+04-1.41596E+05-1.35459E-07-1.15454E-07
 -1       548-4.41509E+05 4.71908E+03-2.38749E+04 6.91723E+04-1.26281E-07-9.60072E-08
 -1       549 4.81452E+04 1.60879E+04 6.05381E+04-1.11494E+05-7.36503E-08-7.52116E-08
 -1       550-7.59013E+05-2.21553E+04-1.28949E+05 3.85871E+04 1.95996E-09-2.64790E-08
 -1       551 4.06362E+04-7.44992E+05-1.59629E+04-1.24502E+06-1.02853E-07-9.10950E-09
 -1       552 9.29739E+04-7.89868E+05 9.83447E+03-1.77517E+06-7.18283E-08 4.59258E-08
 -1       553 7.15574E+04-7.86299E+05 3.19302E+04-1.23839E+06-1.19835E-07 2.50729E-08
 -1       554 1.31709E+05-8.05754E+05 8.08434E+04-1.77712E+06-7.06495E-08 1.50612E-08
 -1       555 1.01262E+05-8.09941E+05 1.47669E+05-1.23821E+06-1.21727E-07-9.88439E-09
 -1       556 2.23512E+05-3.83385E+05 2.51674E+04-4.06806E+05-1.66474E-08-1.98488E-08
 -1       557 3.53834E+05-4.87618E+05 1.58410E+04-5.27191E+05 1.61235E-08 2.19516E-08
 -1       558 2.05278E+05-3.76092E+05 2.20078E+03-4.11299E+05-1.35624E-08 4.27826E-09
 -1       559 3.28928E+05-4.87620E+05 2.37757E+03-5.47612E+05 1.96596E-08-9.02219E-09
 -1       560 1.89994E+05-3.66508E+05-1.53007E+03-4.22312E+05 1.25146E-08 1.33805E-08
 -1       561 3.09733E+05-4.79933E+05 1.16293E+02-5.60703E+05 1.74623E-09 2.44290E-09
 -1       562 1.77911E+05-3.59001E+05-1.33137E+03-4.31061E+05 1.77533E-09 1.31695E-09
 -1       563 2.95381E+05-4.73675E+05-4.01426E+01-5.70076E+05-3.42698E-09 4.75939E-09
 -1       564 1.69287E+05-3.53629E+05-6.01831E+02-4.37172E+05 9.09495E-09-1.29994E-08
 -1       565 2.85861E+05-4.69529E+05 2.29070E+01-5.76159E+05 9.32778E-09 3.71165E-09
 -1       566 1.64245E+05-3.50439E+05-2.60497E+02-4.40699E+05-8.34552E-09-1.39371E-08
 -1       567 2.81232E+05-4.67515E+05-3.62634E+02-5.78971E+05 2.10694E-08 1.23146E-08
 -1       568 1.62874E+05-3.49600E+05-1.12490E+03-4.41753E+05-1.06475E-08 1.72513E-08
 -1       569 2.80107E+05-4.67441E+05-2.84089E+03-5.77546E+05-1.04883E-08 2.04091E-08
 -1       570 1.66268E+05-3.52828E+05-6.20981E+03-4.40736E+05 1.27475E-08 1.35797E-08
 -1       571 2.90101E+05 1.04949E+04 1.49707E+04-9.50505E+04 3.85626E-10-4.74165E-09
 -1       572 2.92271E+05 3.95649E+03 7.33682E+03-1.04280E+05 3.02316E-09-8.89668E-09
 -1       573 2.90963E+05 1.24530E+03 3.25998E+03-9.48743E+04 4.47471E-10 2.29556E-09
 -1       574 2.91177E+05 7.27545E+02 1.63483E+03-1.04504E+05-2.34650E-10 4.70936E-09
 -1       575 2.91057E+05 4.48596E+02 7.71561E+02-9.48502E+04-3.63025E-09 7.59246E-09
 -1       576 2.91041E+05 4.60039E+02 3.94966E+02-1.04534E+05-7.89009E-09 5.80712E-09
 -1       577 2.91096E+05 3.90599E+02 1.97037E+02-9.48469E+04-2.58660E-09 2.00225E-08
 -1       578 2.91071E+05 4.22078E+02 1.13562E+02-1.04538E+05-5.05679E-10-9.34051E-10
 -1       579 2.91168E+05 3.54036E+02 7.75397E+01-9.48466E+04 7.20684E-09-5.61340E-09
 -1       580 2.91172E+05 3.71155E+02 8.93514E+01-1.04533E+05-8.92669E-09 1.47820E-08
 -1       581 2.91282E+05 2.95462E+02 1.34295E+02-9.48525E+04 6.21003E-09 1.40062E-09
 -1       582 2.91347E+05 3.32931E+02 2.72776E+02-1.04472E+05 5.53337E-09 7.88532E-10
 -1       583 2.91422E+05 3.34909E+02 5.23099E+02-9.49090E+04 1.53741E-08-1.17673E-08
 -1       584 2.91717E+05 7.62229E+02 1.18385E+03-1.03996E+05 2.46782E-08-1.92692E-08
 -1       585 2.91452E+05 1.75692E+03 2.39683E+03-9.53275E+04 6.16637E-09-6.76300E-09
 -1       586-3.42254E+03 1.16722E+05-2.91206E+03-2.50357E+05-8.28823E-09-8.38918E-09
 -1       587-1.34001E+03 1.16474E+05 7.72218E+02-2.75537E+05-7.35781E-09-9.25183E-09
 -1       588 3.96151E+02 1.16281E+05 4.75693E+03-2.50219E+05-4.12729E-09-3.45881E-09
 -1       589 5.07937E+03 1.18753E+05 1.23364E+04-2.75304E+05-9.22591E-09-1.33987E-08
 -1       590 1.65964E+04 1.14948E+05 2.58776E+04-2.50650E+05-6.09271E-09 7.15590E-09
 -1       591-7.49008E+04-1.59538E+04-2.25001E+04-3.19220E+04-8.02220E-09 2.79215E-09
 -1       592-7.89844E+04-1.95073E+04-1.21879E+04-3.55430E+04-3.72244E-09 9.22137E-09
 -1       593-7.71510E+04-1.43212E+04-5.07320E+03-3.35717E+04-4.31123E-09-1.18121E-08
 -1       594-7.58778E+04-1.62056E+04-2.53013E+03-3.56606E+04-1.39115E-08 1.08976E-08
 -1       595-7.73226E+04-1.43158E+04-1.16159E+03-3.36467E+04-8.38038E-09 1.94968E-08
 -1       596-7.56651E+04-1.60546E+04-5.90283E+02-3.56353E+04 6.51396E-09 6.89843E-09
 -1       597-7.73441E+04-1.43312E+04-3.20976E+02-3.36495E+04-2.71200E-09 3.70221E-10
 -1       598-7.56441E+04-1.60487E+04-2.57202E+02-3.56282E+04-4.30282E-09 6.53051E-09
 -1       599-7.73429E+04-1.43317E+04-3.27517E+02-3.36492E+04 6.83224E-09-3.37764E-10
 -1       600-7.56651E+04-1.60552E+04-6.07597E+02-3.56332E+04 1.51499E-09-7.78527E-09
 -1       601-7.73182E+04-1.43172E+04-1.19823E+03-3.36457E+04 7.68478E-09-7.89282E-09
 -1       602-7.58845E+04-1.62098E+04-2.61119E+03-3.56554E+04-2.53635E-09-1.50125E-08
 -1       603-7.71385E+04-1.43256E+04-5.23641E+03-3.35692E+04-1.38107E-09 6.63385E-09
 -1       604-7.91086E+04-1.95980E+04-1.25791E+04-3.55092E+04 5.93730E-09-5.69139E-09
 -1       605-7.47959E+04-1.60285E+04-2.32225E+04-3.18858E+04 5.80553E-09 2.08493E-08
 -1       606 2.66677E+04-1.43418E+04-2.57095E+04 2.39616E+04 9.09677E-09 7.15409E-09
 -1       607 2.22748E+04-4.68416E+03-1.28033E+04 2.69279E+04 1.38425E-09-3.41743E-09
 -1       608 2.47785E+04-8.45170E+02-5.73159E+03 2.37932E+04 1.59525E-09 4.39627E-09
 -1       609 2.42986E+04-2.89738E+02-2.89545E+03 2.71418E+04 1.79425E-08 1.27025E-08
 -1       610 2.45648E+04-4.12504E+01-1.38145E+03 2.37732E+04 1.58389E-08 9.44647E-09
 -1       611 2.44895E+04-4.15855E+01-6.96529E+02 2.71648E+04 1.36693E-08-3.71097E-09
 -1       612 2.45177E+04-2.75697E+01-3.31131E+02 2.37711E+04 5.07771E-09-3.09683E-09
 -1       613 2.45011E+04-3.75275E+01-1.48402E+02 2.71676E+04 1.81444E-10-5.15774E-09
 -1       614 2.44955E+04-3.40235E+01-3.48196E+01 2.37704E+04-1.19944E-08-2.86491E-11
 -1       615 2.44959E+04-3.60649E+01 6.21316E+01 2.71680E+04-2.68992E-08-1.99771E-09
 -1       616 2.44782E+04-3.09227E+01 1.86378E+02 2.37707E+04-8.03266E-09 1.17757E-09
 -1       617 2.45183E+04 3.64740E+00 4.25245E+02 2.71675E+04-1.65755E-10-6.09339E-09
 -1       618 2.44413E+04 9.16631E+01 8.57161E+02 2.37710E+04 8.39009E-10-2.36787E-09
 -1       619 2.48209E+04 6.66406E+02 1.92483E+03 2.71669E+04-1.01363E-09-1.28694E-10
 -1       620 2.41566E+04 2.12424E+03 3.86885E+03 2.37726E+04-2.32149E-09 8.66839E-09
 -1       621 5.03264E+02 3.01036E+05 3.82531E+03 4.09529E+04 9.99535E-10 1.03055E-08
 -1       622 6.69378E+02 3.01918E+05 3.41297E+03 5.94534E+04 1.07320E-09 6.17729E-09
 -1       623 1.43000E+02 3.01224E+05 4.12373E+03 4.07676E+04 1.36038E-09-5.93900E-10
 -1       624 2.12401E+03 3.03140E+05 8.01305E+03 5.96358E+04 1.57411E-09-1.13996E-08
 -1       625 2.07532E+03 2.99633E+05 1.40111E+04 4.07644E+04 1.60844E-09 1.21609E-08
 -1       626 2.60532E+05 6.13068E+04 5.06013E+03 1.26585E+05 3.94539E-09-6.59384E-10
 -1       627 2.58210E+05 6.27182E+04 2.43844E+03 1.30843E+05 4.89308E-09-1.73322E-08
 -1       628 2.60659E+05 5.89905E+04 1.03129E+03 1.27444E+05-6.41830E-09 1.31877E-08
 -1       629 2.57581E+05 6.20474E+04 5.04802E+02 1.31081E+05-8.30823E-09 1.69904E-08
 -1       630 2.60674E+05 5.88786E+04 2.34322E+02 1.27480E+05 3.74348E-09 1.97309E-08
 -1       631 2.57515E+05 6.20219E+04 1.26351E+02 1.31083E+05 5.54974E-09 4.73506E-09
 -1       632 2.60670E+05 5.88825E+04 8.36039E+01 1.27476E+05 7.10997E-09-5.90944E-10
 -1       633 2.57507E+05 6.20237E+04 9.38335E+01 1.31080E+05 9.96647E-09-3.40037E-08
 -1       634 2.60666E+05 5.88796E+04 1.52260E+02 1.27475E+05-1.59559E-10-8.74184E-09
 -1       635 2.57521E+05 6.20220E+04 3.08483E+02 1.31085E+05-3.19653E-09 1.55878E-08
 -1       636 2.60656E+05 5.88739E+04 6.23177E+02 1.27475E+05 3.63343E-10 7.65249E-09
 -1       637 2.57656E+05 6.21189E+04 1.37032E+03 1.31085E+05-1.46065E-09-1.27534E-08
 -1       638 2.60608E+05 5.91765E+04 2.81554E+03 1.27338E+05-9.16680E-09-4.11319E-09
 -1       639 2.59135E+05 6.41759E+04 6.66173E+03 1.30649E+05 3.62047E-09 5.27507E-09
 -1       640 2.60403E+05 6.53190E+04 1.38242E+04 1.24750E+05 5.85260E-09-2.83876E-09
 -1       656 6.64947E+04-1.70176E+06-1.60514E+05-2.56759E+03-7.63976E-10 1.26187E-09
 -1       657-8.79668E+04-1.77429E+06-1.32977E+05 5.15033E+03-1.02227E-09 7.63652E-09
 -1       658 2.11962E+04-1.72236E+06-8.18974E+04-4.64622E+03 1.15892E-09-9.79138E-09
 -1       659-9.51235E+04-1.77769E+06-1.42382E+05 6.87723E+03-1.38971E-09-1.84896E-08
 -1       660 7.36355E+04-1.69837E+06-1.76684E+05-4.29447E+03-2.98314E-09-1.73658E-08
 -1       661 1.58405E+05 1.65750E+04 1.66985E+04 6.19226E+04-3.51019E-09-1.35396E-08
 -1       662 1.67846E+05 2.89415E+04 1.12536E+04 5.81764E+04-6.28461E-10-1.20403E-08
 -1       663 1.61685E+05 2.19322E+04 3.93581E+03 6.09707E+04-3.64616E-09 2.69711E-09
 -1       664 1.64043E+05 2.26766E+04 2.35443E+03 5.93391E+04-2.29193E-10-1.95462E-09
 -1       665 1.62183E+05 2.26639E+04 9.28809E+02 6.08255E+04-6.71150E-10 2.01865E-09
 -1       666 1.63454E+05 2.18399E+04 5.43683E+02 5.95285E+04 9.89724E-09-5.97405E-09
 -1       667 1.62270E+05 2.27471E+04 2.88972E+02 6.07891E+04-2.81847E-09-7.68748E-09
 -1       668 1.63358E+05 2.17801E+04 2.94886E+02 5.95814E+04-4.20425E-09-7.89917E-09
 -1       669 1.62278E+05 2.27220E+04 3.99598E+02 6.07729E+04-3.01878E-09 2.97476E-09
 -1       670 1.63455E+05 2.19972E+04 8.70471E+02 5.95843E+04-1.08494E-08 1.63623E-08
 -1       671 1.62173E+05 2.25346E+04 1.54570E+03 6.07842E+04-2.04957E-09 7.23742E-09
 -1       672 1.64356E+05 2.35009E+04 3.95473E+03 5.93660E+04 5.55451E-09-4.84272E-09
 -1       673 1.61382E+05 2.12563E+04 6.62753E+03 6.09766E+04 1.18007E-09-1.70844E-08
 -1       674 1.70664E+05 3.41488E+04 1.89534E+04 5.75129E+04-6.19821E-09 5.96629E-09
 -1       675 1.55906E+05 1.21849E+04 2.81335E+04 6.25254E+04-2.66709E-09 9.91349E-09
 -1       676 2.40863E+01-2.95553E+05-1.11224E+03-1.37787E+02 2.62656E-09-1.10589E-08
 -1       677-2.94204E+02-2.95822E+05-2.03559E+03 2.75353E+02 9.84164E-09-5.13646E-09
 -1       678 1.97335E+02-2.95362E+05-3.59842E+03-1.37476E+02 6.03677E-10 4.43372E-10
 -1       679-3.59846E+03-2.97995E+05-8.54834E+03 2.74165E+02 6.81621E-09-3.49539E-09
 -1       680 2.14850E+03-2.93382E+05-1.37770E+04-1.35080E+02-1.18871E-09 2.42245E-09
 -1       771-3.05850E+06-7.46761E+05-1.66391E+05-1.46447E+06-3.27127E-08-2.51748E-08
 -1       772-2.98147E+06-8.35692E+05-8.57991E+04-1.56728E+06-1.98925E-08 1.25474E-08
 -1       773-3.09004E+06-7.22174E+05-4.37123E+04-1.47906E+06-1.44646E-08 7.37782E-09
 -1       774-2.97189E+06-8.17084E+05-1.95079E+04-1.59304E+06 2.78233E-08-3.78350E-09
 -1       775-3.10649E+06-7.10635E+05-1.45754E+04-1.48612E+06-4.56930E-09 1.43336E-09
 -1       776-2.98425E+06-8.14036E+05-5.45343E+03-1.61253E+06-1.16124E-08 7.74162E-09
 -1       777-3.12076E+06-7.00336E+05-6.43411E+03-1.49234E+06 6.75209E-09-2.18279E-09
 -1       778-2.99715E+06-8.11206E+05-1.82014E+03-1.62928E+06 4.74392E-09 2.13549E-09
 -1       779-3.13303E+06-6.91337E+05-3.21338E+03-1.49766E+06-5.92263E-09-6.99220E-09
 -1       780-3.00851E+06-8.08508E+05-5.32736E+02-1.64292E+06-1.37297E-08-4.67480E-09
 -1       781-3.14279E+06-6.84083E+05-1.24703E+03-1.50182E+06-3.08355E-08-5.14046E-09
 -1       782-3.01726E+06-8.06218E+05 4.52387E+02-1.65299E+06-3.36149E-08-8.88576E-09
 -1       783-3.14966E+06-6.79042E+05 7.05563E+02-1.50474E+06-6.43922E-09-1.54487E-08
 -1       784-3.02211E+06-8.03927E+05 2.91556E+03-1.65921E+06-1.69930E-08 2.52521E-09
 -1       785-3.15372E+06-6.76033E+05 5.14803E+03-1.50659E+06-3.80242E-08 7.19228E-09
 -1       786 1.23651E+05-9.76542E+03 2.25933E+04-3.22669E+02 6.79019E-09 2.59570E-09
 -1       787 1.33449E+05 1.13062E+04 1.59838E+04-1.36272E+02 5.71792E-09-1.31081E-09
 -1       788 1.27429E+05-1.53026E+03 5.84537E+03-2.87586E+02 2.89772E-09 1.19030E-08
 -1       789 1.29048E+05 1.77125E+03 3.66952E+03-1.90015E+02-2.47952E-09-2.18228E-09
 -1       790 1.28053E+05-2.38256E+02 1.48576E+03-2.68944E+02-3.30079E-09-2.75486E-09
 -1       791 1.28319E+05 2.75679E+02 8.58190E+02-2.21910E+02-8.06722E-09-2.00819E-08
 -1       792 1.28158E+05-3.58117E+01 3.63771E+02-2.55693E+02-4.67978E-09 1.27491E-08
 -1       793 1.28192E+05 3.78964E+01 1.81578E+02-2.46833E+02 3.03627E-10 5.61587E-09
 -1       794 1.28179E+05-6.23741E-01 4.76502E+01-2.44021E+02 4.00962E-09-1.07477E-08
 -1       795 1.28155E+05-2.70739E+01-5.65917E+01-2.71180E+02-7.55392E-09 9.26962E-09
 -1       796 1.28195E+05 2.91222E+01-1.60687E+02-2.31345E+02 3.34755E-09-1.04571E-08
 -1       797 1.28062E+05-2.17421E+02-4.41648E+02-3.00283E+02 4.47017E-09-8.49633E-09
 -1       798 1.28273E+05 1.89581E+02-7.17382E+02-2.14919E+02 1.60542E-09 1.18400E-08
 -1       799 1.27517E+05-1.39734E+03-1.97374E+03-3.40945E+02 6.75306E-09 3.67635E-09
 -1       800 1.28740E+05 1.20808E+03-2.79328E+03-1.90684E+02 7.23906E-10 2.21048E-08
 -1       801-1.71168E+05-1.00012E+07-1.39393E+06 1.41652E+06 9.10077E-08-5.10954E-08
 -1       802 7.38752E+05 5.95811E+06 2.18360E+06-1.74860E+06 2.58449E-07-4.00396E-08
 -1       803-5.37118E+05-1.42785E+07-1.89269E+06 8.98041E+05 7.72379E-08 2.02235E-08
 -1       804 2.87606E+05 2.40363E+06 1.53913E+06 6.78169E+05-1.21334E-07-9.93832E-08
 -1       805 1.89461E+05-6.46078E+06-2.87336E+05-1.00457E+06-4.99858E-08-7.33044E-08
 -1       806-3.08453E+05-5.96606E+04-2.28065E+04-1.22225E+05-8.70659E-09 8.60200E-09
 -1       807-3.10246E+05-5.59384E+04-1.12046E+04-1.27760E+05 1.00490E-08 2.01862E-08
 -1       808-3.09079E+05-5.14412E+04-4.75336E+03-1.26110E+05-9.18271E-09-2.29841E-09
 -1       809-3.07891E+05-5.27901E+04-2.32427E+03-1.28035E+05-1.68698E-08 4.60295E-09
 -1       810-3.09173E+05-5.11551E+04-1.06535E+03-1.26282E+05-6.85714E-09-5.67184E-09
 -1       811-3.07709E+05-5.26636E+04-5.29823E+02-1.27999E+05-6.28688E-09 6.25960E-10
 -1       812-3.09187E+05-5.11797E+04-2.68049E+02-1.26282E+05-1.43909E-08 9.30868E-10
 -1       813-3.07683E+05-5.26658E+04-1.74358E+02-1.27981E+05-2.69479E-08-9.83846E-09
 -1       814-3.09180E+05-5.11894E+04-1.73034E+02-1.26277E+05-1.76133E-08 3.67345E-09
 -1       815-3.07687E+05-5.26680E+04-2.79012E+02-1.27973E+05-6.16637E-09 1.69143E-09
 -1       816-3.09160E+05-5.11886E+04-5.28963E+02-1.26274E+05-1.90539E-09 1.41408E-08
 -1       817-3.07777E+05-5.27184E+04-1.13528E+03-1.27962E+05-1.43214E-08 1.17498E-08
 -1       818-3.09091E+05-5.13488E+04-2.31561E+03-1.26198E+05-1.15870E-08-2.41052E-08
 -1       819-3.09044E+05-5.41174E+04-5.44845E+03-1.27661E+05-4.24006E-09-6.52358E-09
 -1       820-3.08654E+05-5.54648E+04-1.10896E+04-1.24440E+05-1.66983E-09-2.90470E-09
 -1       821-3.78661E+05 2.08521E+04-4.85311E+04 2.11161E+03 1.35115E-08-1.31986E-08
 -1       822-3.98386E+05-2.41554E+04-3.41136E+04-4.39795E+03 6.10061E-09 9.29867E-09
 -1       823-3.86136E+05 3.28646E+03-1.25360E+04 3.39885E+03-1.22046E-08 1.61845E-09
 -1       824-3.89369E+05-3.79011E+03-7.84779E+03-5.28820E+03 7.83851E-10-2.10918E-08
 -1       825-3.87685E+05 5.10632E+02-3.28511E+03 3.00198E+03 2.06942E-08 1.25585E-08
 -1       826-3.86960E+05-5.67580E+02-1.74759E+03-3.03989E+03 2.60777E-08 1.56615E-08
 -1       827-3.88521E+05 4.78536E+01-1.18455E+03 1.15040E+03 1.25623E-08-2.30381E-09
 -1       828-3.86270E+05-1.33374E+02-5.93771E+02 1.09660E+03 2.93326E-10-1.14825E-08
 -1       829-3.88362E+05 6.66977E+01-1.17397E+03-1.13454E+03 9.60398E-10 9.48606E-09
 -1       830-3.87305E+05-6.21923E+02-1.88463E+03 4.82981E+03 2.23708E-09 2.26876E-08
 -1       831-3.87509E+05 5.53581E+02-3.36740E+03-2.58283E+03-6.45367E-09-4.19527E-09
 -1       832-3.89450E+05-3.95659E+03-8.15032E+03 6.08864E+03-2.35621E-09-6.72071E-09
 -1       833-3.86233E+05 3.41056E+03-1.30391E+04-2.39342E+03-4.46296E-09-7.74980E-09
 -1       834-3.98452E+05-2.50687E+04-3.53369E+04 4.14083E+03-2.77672E-09-2.12071E-08
 -1       835-3.78490E+05 2.16332E+04-5.03997E+04-6.34950E+02 5.37727E-09 6.71935E-09
 -1       836-1.41221E+03 3.69718E+05 2.28775E+04-1.61215E+04-7.16864E-09 3.44266E-08
 -1       837 4.87647E+03 3.76883E+05 1.93554E+04-3.29474E+04-7.80346E-09 3.39605E-09
 -1       838-5.57442E+02 3.71727E+05 1.97161E+04-1.60500E+04-6.22776E-09-1.73145E-09
 -1       839 1.24057E+04 3.82491E+05 3.72923E+04-3.29998E+04-6.64932E-09 1.98324E-08
 -1       840-3.83586E+03 3.64051E+05 5.94655E+04-1.60749E+04-6.12999E-09 3.08461E-09
 -1       856-5.21854E+04 8.01673E+03-2.11258E+04-3.96634E+02 3.47859E-09 7.69342E-09
 -1       857-6.08886E+04-9.41946E+03-1.45428E+04 5.62741E+03 6.70457E-09 1.63500E-08
 -1       858-5.56321E+04 1.12427E+03-5.48163E+03-4.20723E+02 3.32153E-09-4.05157E-09
 -1       859-5.69332E+04-1.32273E+03-3.30791E+03 5.66324E+03-1.74829E-09 9.51331E-09
 -1       860-5.61470E+04 1.57457E+02-1.38634E+03-4.32191E+02 7.33280E-10-1.37516E-08
 -1       861-5.63408E+04-1.88042E+02-7.62636E+02 5.67885E+03 1.55212E-09-2.11552E-08
 -1       862-5.62276E+04 2.13360E+01-3.16984E+02-4.36320E+02 1.08749E-11 1.77147E-09
 -1       863-5.62421E+04-2.19090E+01-1.15393E+02 5.68125E+03 7.69113E-10-5.87566E-09
 -1       864-5.62463E+04-4.89688E+00 4.73247E+01-4.34587E+02 1.47678E-09 3.31781E-09
 -1       865-5.61863E+04 5.95617E+01 2.55370E+02 5.67136E+03 1.92688E-09 3.81222E-09
 -1       866-5.62811E+04-6.01506E+01 5.14560E+02-4.26430E+02 2.67693E-09-3.39816E-09
 -1       867-5.59444E+04 4.96683E+02 1.26648E+03 5.64922E+03 4.53383E-10 3.59603E-09
 -1       868-5.64833E+04-4.34122E+02 2.10451E+03-4.12443E+02 2.34428E-09 3.87104E-09
 -1       869-5.44015E+04 3.61300E+03 5.60357E+03 5.61279E+03 4.88467E-09-2.98381E-08
 -1       870-5.78162E+04-3.09182E+03 8.13204E+03-3.89899E+02-4.91332E-09-6.11453E-09
 -1       871-5.51012E+03-2.13037E+04-1.94658E+04 1.30255E+05-4.74392E-09 2.85127E-09
 -1       872-1.97807E+03-2.58303E+04-8.15070E+03 1.68895E+05-1.08221E-08 1.14960E-09
 -1       873 4.05925E+02-2.36407E+04 5.89344E+02 1.29968E+05-6.02768E-09 5.54860E-09
 -1       874 3.30365E+03-2.12332E+04 9.76760E+03 1.68924E+05-1.19835E-08 1.11161E-08
 -1       875 6.83943E+03-2.59677E+04 2.20347E+04 1.30207E+05-3.66708E-09 1.16961E-09
 -1       876 2.93398E+05 4.94462E+04 1.50807E+04 1.17737E+05 1.01440E-08 4.99949E-09
 -1       877 2.94395E+05 5.26222E+04 8.05371E+03 1.22063E+05 7.61520E-09 9.60063E-09
 -1       878 2.94808E+05 4.77756E+04 3.37411E+03 1.18972E+05-1.00663E-08 3.41424E-09
 -1       879 2.92345E+05 5.05763E+04 1.68119E+03 1.22165E+05 1.97178E-09 8.30329E-09
 -1       880 2.94909E+05 4.77583E+04 7.83080E+02 1.19023E+05-1.18234E-09-2.42630E-09
 -1       881 2.92209E+05 5.04888E+04 4.18199E+02 1.22142E+05-3.08546E-09-1.96698E-08
 -1       882 2.94918E+05 4.77716E+04 2.67577E+02 1.19024E+05 1.25578E-09-1.37616E-08
 -1       883 2.92199E+05 5.04843E+04 2.87719E+02 1.22134E+05 6.70633E-09-1.52510E-08
 -1       884 2.94912E+05 4.77688E+04 4.57749E+02 1.19025E+05 5.92718E-09-4.83715E-09
 -1       885 2.92236E+05 5.04906E+04 9.20363E+02 1.22145E+05-5.25358E-09-8.42829E-09
 -1       886 2.94876E+05 4.77419E+04 1.85497E+03 1.19021E+05 1.45853E-09-2.46214E-08
 -1       887 2.92562E+05 5.07043E+04 4.05192E+03 1.22192E+05 1.93614E-08 1.59135E-08
 -1       888 2.94620E+05 4.77871E+04 8.16474E+03 1.18891E+05 4.08798E-09-2.87400E-10
 -1       889 2.97422E+05 5.57593E+04 1.95040E+04 1.22043E+05-1.74465E-09 3.00133E-10
 -1       890 2.91287E+05 5.17457E+04 3.65306E+04 1.15784E+05-1.29603E-09-6.03541E-09
 -1       891-8.89272E+01-1.62568E+05-1.99398E+03 2.71160E+04-1.74850E-10-8.05539E-09
 -1       892-1.74664E+02-1.63095E+05-2.14153E+03 4.11776E+04 1.47952E-09 3.70164E-09
 -1       893 4.39796E+01-1.62632E+05-3.03212E+03 2.71233E+04-2.04091E-09-1.91076E-08
 -1       894-1.50767E+03-1.64240E+05-6.27532E+03 4.10253E+04 3.08364E-09-8.25003E-09
 -1       895-1.19740E+03-1.61325E+05-1.10507E+04 2.72702E+04-4.28486E-10-6.38556E-09
 -1       956-3.76733E+05-5.44283E+03-1.34356E+04 3.08149E+04 5.57429E-09-4.47926E-10
 -1       957-3.79369E+05-1.92015E+03-6.89631E+03 3.70310E+04 4.23825E-09-3.31602E-09
 -1       958-3.77940E+05-2.40717E+02-3.10769E+03 3.06475E+04 1.04774E-09-9.96124E-09
 -1       959-3.78137E+05-1.36234E+02-1.58684E+03 3.72263E+04 7.16045E-09-3.82829E-09
 -1       960-3.78058E+05-4.48802E+01-7.73818E+02 3.06302E+04-5.82440E-09 1.17752E-08
 -1       961-3.78056E+05-6.33164E+01-4.10272E+02 3.72467E+04-1.87292E-08 9.82664E-09
 -1       962-3.78086E+05-4.61203E+01-2.34892E+02 3.06273E+04-7.73571E-09 1.61299E-09
 -1       963-3.78057E+05-5.91416E+01-1.88566E+02 3.72504E+04 8.23206E-10-2.22535E-08
 -1       964-3.78092E+05-4.27758E+01-2.29316E+02 3.06266E+04 1.28072E-09 8.30414E-09
 -1       965-3.78069E+05-5.61858E+01-3.96627E+02 3.72497E+04-2.09525E-09-3.14662E-09
 -1       966-3.78075E+05-3.49407E+01-7.45254E+02 3.06281E+04 1.72895E-09 1.33855E-09
 -1       967-3.78158E+05-1.19641E+02-1.52850E+03 3.72353E+04-4.59295E-10 1.65082E-08
 -1       968-3.77971E+05-2.17195E+02-2.99226E+03 3.06407E+04 1.12732E-09-9.95806E-09
 -1       969-3.79358E+05-1.83238E+03-6.64273E+03 3.70871E+04-1.95723E-09 2.10090E-09
 -1       970-3.76817E+05-5.22406E+03-1.29404E+04 3.07677E+04-3.12411E-09 5.86260E-09
 -1       971-3.44954E+05-1.72562E+03-9.29936E+03 1.53632E+04 6.57656E-09 1.35989E-08
 -1       972-3.47192E+05-1.27049E+03-5.06434E+03 2.12468E+04 3.08501E-09-8.76526E-09
 -1       973-3.45990E+05-6.20746E+01-2.26836E+03 1.52422E+04 4.46835E-09 7.45104E-09
 -1       974-3.46125E+05-8.11555E+01-1.17584E+03 2.13837E+04 2.96677E-09 1.77356E-08
 -1       975-3.46072E+05-1.72598E+01-5.88225E+02 1.52299E+04 1.22236E-09 1.22288E-08
 -1       976-3.46063E+05-3.13768E+01-3.40205E+02 2.13995E+04 5.06839E-09-5.92900E-09
 -1       977-3.46088E+05-1.65211E+01-2.48418E+02 1.52265E+04-6.12454E-09-6.54268E-10
 -1       978-3.46069E+05-2.51639E+01-2.92752E+02 2.14043E+04-1.35315E-08 4.51882E-09
 -1       979-3.46088E+05-8.05606E+00-4.72121E+02 1.52251E+04-4.12228E-10-7.35213E-09
 -1       980-3.46104E+05-2.21074E+01-9.12711E+02 2.14053E+04 2.87486E-11-2.81384E-08
 -1       981-3.46059E+05 1.47581E+01-1.76829E+03 1.52256E+04-2.34809E-09 1.02639E-08
 -1       982-3.46347E+05-1.52762E+02-3.65534E+03 2.13987E+04 3.64162E-09 5.13509E-11
 -1       983-3.45836E+05-9.84662E+01-7.10251E+03 1.52316E+04-3.81806E-09-8.07768E-09
 -1       984-3.49763E+05-3.86219E+03-1.59059E+04 2.13131E+04-4.02974E-09-8.85939E-09
 -1       985-3.42620E+05-5.29564E+03-2.92081E+04 1.53029E+04-6.78665E-09 8.32006E-09
 -3
    1PSTEP                        23          12           1          
  100CL  112 6.62659E-01         409                     0   12           1
 -4  DISP        4    1
 -5  D1          1    2    1    0
 -5  D2          1    2    2    0
 -5  D3          1    2    3    0
 -5  ALL         1    2    0    0    1ALL
 -1         1 2.73121E-03 0.00000E+00 0.00000E+00
 -1         2 1.30391E-03 7.40008E-27 5.29396E-23
 -1         3 3.42653E-04-1.48636E-28-1.32349E-23
 -1         5 1.77095E-04-2.55609E-27 0.00000E+00
 -1         8 2.72069E-03-3.97038E-07 0.00000E+00
 -1         9 2.71375E-03-2.08684E-04 0.00000E+00
 -1        10 3.10710E-04-3.38311E-06 0.00000E+00
 -1        12 1.78929E-04 8.08813E-07 0.00000E+00
 -1        15 2.70874E-03-4.19492E-07 1.03398E-25
 -1        16 2.78703E-03-2.10608E-04 0.00000E+00
 -1        17 2.11458E-04-7.71977E-06 0.00000E+00
 -1        18 1.82869E-04 3.44867E-05 0.00000E+00
 -1        19 1.84460E-04 1.61913E-06 0.00000E+00
 -1        20 1.84600E-04-9.95191E-06 0.00000E+00
 -1        21 1.83707E-04-2.55549E-05 3.30872E-24
 -1        24 3.05846E-05-1.19375E-05 0.00000E+00
 -1        25 1.93676E-04 3.47122E-05 0.00000E+00
 -1        26 1.94356E-04 2.23890E-06 0.00000E+00
 -1        27 1.92157E-04-1.35084E-05 0.00000E+00
 -1        28 1.91841E-04-2.61767E-05 0.00000E+00
 -1        32 0.00000E+00 0.00000E+00 0.00000E+00
 -1        33 2.03248E-04 2.99225E-06 0.00000E+00
 -1        34 2.01131E-04-1.35645E-05 0.00000E+00
 -1        35 1.99199E-04-2.65191E-05 0.00000E+00
 -1        51 2.73050E-03-8.38128E-08-4.96308E-24
 -1        52 2.72920E-03-1.49100E-07 3.30872E-24
 -1        53 2.72745E-03-2.10855E-07 0.00000E+00
 -1        54 2.72536E-03-2.71311E-07 8.27181E-25
 -1        55 2.72306E-03-3.32234E-07 8.27181E-25
 -1        56 2.72276E-03 1.03232E-05 5.29396E-23
 -1        57 2.70551E-03 4.22375E-05 0.00000E+00
 -1        58 2.68205E-03 8.90185E-05-1.05879E-22
 -1        59 2.65564E-03 1.42542E-04 0.00000E+00
 -1        60 2.63033E-03 1.93526E-04 0.00000E+00
 -1        61 2.60997E-03 2.32894E-04-5.29396E-23
 -1        62 2.59722E-03 2.53638E-04 0.00000E+00
 -1        63 2.59373E-03 2.50406E-04 5.29396E-23
 -1        64 2.59920E-03 2.22256E-04 1.05879E-22
 -1        65 2.61251E-03 1.70630E-04 5.29396E-23
 -1        66 2.63134E-03 1.01461E-04 1.05879E-22
 -1        67 2.65312E-03 2.24323E-05-5.29396E-23
 -1        68 2.67496E-03-5.68380E-05 0.00000E+00
 -1        69 2.69403E-03-1.26701E-04 0.00000E+00
 -1        70 2.70770E-03-1.79355E-04 1.05879E-22
 -1        86 1.39260E-03-6.52924E-06 0.00000E+00
 -1        87 1.64874E-03-4.13285E-05-2.64698E-23
 -1        88 1.99320E-03-1.01271E-04-5.29396E-23
 -1        89 2.34255E-03-1.62960E-04-1.32349E-23
 -1        90 2.61048E-03-2.00729E-04 0.00000E+00
 -1       121 3.41756E-04-5.46128E-07-1.32349E-23
 -1       122 3.39069E-04-1.09534E-06 6.61744E-24
 -1       123 3.34601E-04-1.65068E-06-1.32349E-23
 -1       124 3.28369E-04-2.21518E-06-6.61744E-24
 -1       125 3.20395E-04-2.79149E-06 1.32349E-23
 -1       191 1.77146E-04 1.34854E-07-1.65436E-24
 -1       192 1.77299E-04 2.69697E-07 1.03398E-24
 -1       193 1.77554E-04 4.04522E-07-8.27181E-25
 -1       194 1.77911E-04 5.39319E-07 7.75482E-25
 -1       195 1.78369E-04 6.74079E-07-2.48154E-24
 -1       251 2.72039E-03 1.58672E-06-6.61744E-24
 -1       252 2.72008E-03 3.45436E-06 3.30872E-24
 -1       253 2.71978E-03 4.15203E-06 0.00000E+00
 -1       254 2.71947E-03 2.64041E-06 0.00000E+00
 -1       255 2.71916E-03-1.78479E-06-6.61744E-24
 -1       256 2.71882E-03-9.79139E-06-3.30872E-24
 -1       257 2.71845E-03-2.15045E-05 6.61744E-24
 -1       258 2.71803E-03-3.70029E-05 0.00000E+00
 -1       259 2.71755E-03-5.57921E-05 0.00000E+00
 -1       260 2.71702E-03-7.73364E-05-6.61744E-24
 -1       261 2.71646E-03-1.00682E-04 0.00000E+00
 -1       262 2.71587E-03-1.24854E-04 6.61744E-24
 -1       263 2.71529E-03-1.48752E-04 1.32349E-23
 -1       264 2.71473E-03-1.71277E-04 6.61744E-24
 -1       265 2.71423E-03-1.91541E-04 1.32349E-23
 -1       266 2.71870E-03-4.06285E-07 0.00000E+00
 -1       267 2.71671E-03-4.09356E-07 4.13590E-25
 -1       268 2.71471E-03-4.12819E-07 0.00000E+00
 -1       269 2.71272E-03-4.15123E-07-2.06795E-25
 -1       270 2.71073E-03-4.17399E-07 0.00000E+00
 -1       271 2.71993E-03-9.16568E-08-1.32349E-23
 -1       272 2.72020E-03-2.61470E-06 6.61744E-24
 -1       273 2.72146E-03-7.79338E-06-1.32349E-23
 -1       274 2.72363E-03-1.54414E-05 6.61744E-24
 -1       275 2.72662E-03-2.53507E-05 2.64698E-23
 -1       276 2.73036E-03-3.72975E-05-1.32349E-23
 -1       277 2.73474E-03-5.10410E-05-1.32349E-23
 -1       278 2.73968E-03-6.63267E-05 0.00000E+00
 -1       279 2.74507E-03-8.28884E-05 0.00000E+00
 -1       280 2.75082E-03-1.00449E-04-6.61744E-24
 -1       281 2.75682E-03-1.18725E-04 0.00000E+00
 -1       282 2.76298E-03-1.37426E-04 0.00000E+00
 -1       283 2.76918E-03-1.56258E-04 1.32349E-23
 -1       284 2.77533E-03-1.74928E-04 0.00000E+00
 -1       285 2.78131E-03-1.93141E-04 0.00000E+00
 -1       301 2.72706E-03-2.09042E-04-1.32349E-23
 -1       302 2.73867E-03-2.09350E-04-3.30872E-24
 -1       303 2.74953E-03-2.09647E-04-1.32349E-23
 -1       304 2.76057E-03-2.09945E-04 0.00000E+00
 -1       305 2.77276E-03-2.10257E-04 0.00000E+00
 -1       306 2.75199E-03-3.64830E-04 0.00000E+00
 -1       307 2.81585E-03-7.80298E-04 0.00000E+00
 -1       308 2.86242E-03-1.38629E-03 1.05879E-22
 -1       309 2.88641E-03-2.08640E-03 0.00000E+00
 -1       310 2.91813E-03-2.75477E-03 0.00000E+00
 -1       311 2.97790E-03-3.26833E-03 5.29396E-23
 -1       312 3.03535E-03-3.54677E-03-2.11758E-22
 -1       313 3.02918E-03-3.55287E-03 5.29396E-23
 -1       314 2.88549E-03-3.29927E-03-1.05879E-22
 -1       315 2.56380E-03-2.85096E-03 0.00000E+00
 -1       316 2.08315E-03-2.28466E-03 0.00000E+00
 -1       317 1.51009E-03-1.66951E-03 5.29396E-23
 -1       318 9.59286E-04-1.06582E-03 0.00000E+00
 -1       319 5.38797E-04-5.38454E-04 5.29396E-23
 -1       320 2.92216E-04-1.61613E-04-1.05879E-22
 -1       336 2.99126E-04-4.03733E-06 0.00000E+00
 -1       337 2.85466E-04-4.71723E-06 6.61744E-24
 -1       338 2.69792E-04-5.42504E-06 1.32349E-23
 -1       339 2.52177E-04-6.16161E-06-6.61744E-24
 -1       340 2.32702E-04-6.93139E-06 1.32349E-23
 -1       406 1.79589E-04 9.44743E-07 2.48154E-24
 -1       407 1.80354E-04 1.08059E-06-1.28601E-24
 -1       408 1.81223E-04 1.21627E-06 1.24077E-24
 -1       409 1.82198E-04 1.35161E-06 2.06795E-25
 -1       410 1.83277E-04 1.48633E-06 1.24077E-24
 -1       521 2.82585E-03-3.76083E-04 0.00000E+00
 -1       522 2.88787E-03-8.12271E-04 0.00000E+00
 -1       523 2.92779E-03-1.44688E-03 0.00000E+00
 -1       524 2.94225E-03-2.17660E-03 0.00000E+00
 -1       525 2.96582E-03-2.87253E-03-1.05879E-22
 -1       526 3.02199E-03-3.40883E-03 0.00000E+00
 -1       527 3.07905E-03-3.69810E-03 0.00000E+00
 -1       528 3.07048E-03-3.70223E-03 0.00000E+00
 -1       529 2.91425E-03-3.43394E-03 2.11758E-22
 -1       530 2.56758E-03-2.96642E-03 0.00000E+00
 -1       531 2.05037E-03-2.38033E-03 0.00000E+00
 -1       532 1.43585E-03-1.74742E-03 0.00000E+00
 -1       533 8.44371E-04-1.12528E-03 0.00000E+00
 -1       534 3.89429E-04-5.76411E-04 5.29396E-23
 -1       535 1.21024E-04-1.79504E-04 0.00000E+00
 -1       536 2.10703E-04 2.72149E-05 0.00000E+00
 -1       537 2.08783E-04 8.76826E-05 1.65436E-24
 -1       538 2.05816E-04 1.64412E-04 0.00000E+00
 -1       539 2.02316E-04 2.48047E-04 0.00000E+00
 -1       540 1.99167E-04 3.27078E-04-3.30872E-24
 -1       541 1.97120E-04 3.90018E-04 0.00000E+00
 -1       542 1.96175E-04 4.30110E-04 0.00000E+00
 -1       543 1.95950E-04 4.40744E-04-1.65436E-24
 -1       544 1.95627E-04 4.22694E-04-3.30872E-24
 -1       545 1.94454E-04 3.76954E-04 0.00000E+00
 -1       546 1.92267E-04 3.11655E-04 3.30872E-24
 -1       547 1.89306E-04 2.35048E-04-1.65436E-24
 -1       548 1.86372E-04 1.58816E-04-3.30872E-24
 -1       549 1.84255E-04 9.46429E-05 1.65436E-24
 -1       550 1.83155E-04 5.05632E-05 0.00000E+00
 -1       551 1.86256E-04-8.28789E-06 0.00000E+00
 -1       552 1.57809E-04-8.93647E-06 0.00000E+00
 -1       553 1.27061E-04-9.64731E-06 9.92617E-24
 -1       554 9.49685E-05-1.03993E-05-6.61744E-24
 -1       555 6.24917E-05-1.11651E-05 0.00000E+00
 -1       556 2.03809E-04 1.18386E-05 0.00000E+00
 -1       557 1.97629E-04 2.77017E-05-2.64698E-23
 -1       558 1.92783E-04 4.01572E-05 0.00000E+00
 -1       559 1.89139E-04 4.95157E-05 2.64698E-23
 -1       560 1.86567E-04 5.60877E-05 0.00000E+00
 -1       561 1.84939E-04 6.01865E-05 0.00000E+00
 -1       562 1.84130E-04 6.21269E-05 0.00000E+00
 -1       563 1.84015E-04 6.22241E-05 0.00000E+00
 -1       564 1.84473E-04 6.07945E-05 0.00000E+00
 -1       565 1.85383E-04 5.81553E-05 0.00000E+00
 -1       566 1.86625E-04 5.46238E-05 0.00000E+00
 -1       567 1.88081E-04 5.05182E-05 0.00000E+00
 -1       568 1.89631E-04 4.61566E-05 0.00000E+00
 -1       569 1.91159E-04 4.18570E-05 8.27181E-25
 -1       570 1.92546E-04 3.79377E-05 0.00000E+00
 -1       571 1.82965E-04 3.23547E-05-1.65436E-24
 -1       572 1.83064E-04 3.01571E-05-8.27181E-25
 -1       573 1.83163E-04 2.79095E-05 1.65436E-24
 -1       574 1.83262E-04 2.56282E-05 0.00000E+00
 -1       575 1.83361E-04 2.33297E-05 3.30872E-24
 -1       576 1.83461E-04 2.10304E-05-1.65436E-24
 -1       577 1.83560E-04 1.87468E-05-3.30872E-24
 -1       578 1.83660E-04 1.64954E-05 0.00000E+00
 -1       579 1.83759E-04 1.42927E-05 0.00000E+00
 -1       580 1.83859E-04 1.21553E-05 0.00000E+00
 -1       581 1.83959E-04 1.00995E-05 0.00000E+00
 -1       582 1.84059E-04 8.14192E-06 0.00000E+00
 -1       583 1.84159E-04 6.29900E-06 0.00000E+00
 -1       584 1.84260E-04 4.58703E-06 0.00000E+00
 -1       585 1.84360E-04 3.02215E-06 6.61744E-24
 -1       586 1.84629E-04 3.45264E-05-1.65436E-24
 -1       587 1.86348E-04 3.45655E-05-4.13590E-25
 -1       588 1.88069E-04 3.46043E-05 8.27181E-25
 -1       589 1.89835E-04 3.46424E-05 0.00000E+00
 -1       590 1.91690E-04 3.46793E-05 0.00000E+00
 -1       591 1.83600E-04 3.24483E-05 0.00000E+00
 -1       592 1.84334E-04 3.03899E-05 2.06795E-25
 -1       593 1.85073E-04 2.83176E-05 0.00000E+00
 -1       594 1.85815E-04 2.62358E-05 0.00000E+00
 -1       595 1.86558E-04 2.41494E-05-8.27181E-25
 -1       596 1.87302E-04 2.20631E-05 0.00000E+00
 -1       597 1.88043E-04 1.99817E-05 0.00000E+00
 -1       598 1.88781E-04 1.79097E-05-4.13590E-25
 -1       599 1.89514E-04 1.58518E-05 0.00000E+00
 -1       600 1.90240E-04 1.38129E-05 0.00000E+00
 -1       601 1.90957E-04 1.17974E-05 0.00000E+00
 -1       602 1.91664E-04 9.81021E-06 2.06795E-25
 -1       603 1.92358E-04 7.85590E-06-4.13590E-25
 -1       604 1.93039E-04 5.93931E-06-1.29247E-25
 -1       605 1.93704E-04 4.06502E-06 0.00000E+00
 -1       606 1.84474E-04 4.49240E-07 0.00000E+00
 -1       607 1.84483E-04-6.34809E-07 0.00000E+00
 -1       608 1.84492E-04-1.63805E-06 0.00000E+00
 -1       609 1.84501E-04-2.56617E-06 1.65436E-24
 -1       610 1.84509E-04-3.42491E-06 0.00000E+00
 -1       611 1.84517E-04-4.22006E-06 0.00000E+00
 -1       612 1.84526E-04-4.95741E-06 0.00000E+00
 -1       613 1.84534E-04-5.64279E-06 0.00000E+00
 -1       614 1.84542E-04-6.28200E-06 0.00000E+00
 -1       615 1.84551E-04-6.88085E-06 0.00000E+00
 -1       616 1.84559E-04-7.44516E-06 0.00000E+00
 -1       617 1.84567E-04-7.98074E-06 0.00000E+00
 -1       618 1.84576E-04-8.49339E-06 0.00000E+00
 -1       619 1.84584E-04-8.98893E-06 0.00000E+00
 -1       620 1.84592E-04-9.47317E-06 0.00000E+00
 -1       621 1.85824E-04 1.72300E-06 1.65436E-24
 -1       622 1.87347E-04 1.82711E-06 8.27181E-25
 -1       623 1.88995E-04 1.93100E-06 1.65436E-24
 -1       624 1.90735E-04 2.03456E-06 8.27181E-25
 -1       625 1.92533E-04 2.13783E-06-1.65436E-24
 -1       626 1.85011E-04 4.85329E-07 3.30872E-24
 -1       627 1.85539E-04-5.85412E-07 0.00000E+00
 -1       628 1.86047E-04-1.60094E-06 0.00000E+00
 -1       629 1.86537E-04-2.56941E-06 0.00000E+00
 -1       630 1.87012E-04-3.49903E-06 0.00000E+00
 -1       631 1.87476E-04-4.39800E-06 0.00000E+00
 -1       632 1.87932E-04-5.27452E-06 0.00000E+00
 -1       633 1.88382E-04-6.13681E-06 0.00000E+00
 -1       634 1.88830E-04-6.99309E-06 0.00000E+00
 -1       635 1.89279E-04-7.85154E-06 1.65436E-24
 -1       636 1.89732E-04-8.72039E-06-3.30872E-24
 -1       637 1.90192E-04-9.60786E-06 1.65436E-24
 -1       638 1.90662E-04-1.05221E-05-1.65436E-24
 -1       639 1.91144E-04-1.14715E-05 0.00000E+00
 -1       640 1.91642E-04-1.24641E-05-1.65436E-24
 -1       656 1.85311E-04-1.05299E-05-6.61744E-24
 -1       657 1.86442E-04-1.11315E-05 0.00000E+00
 -1       658 1.87854E-04-1.17316E-05 0.00000E+00
 -1       659 1.89399E-04-1.23314E-05 0.00000E+00
 -1       660 1.90895E-04-1.29331E-05-6.61744E-24
 -1       661 1.84866E-04-1.04757E-05 0.00000E+00
 -1       662 1.85170E-04-1.10913E-05-8.27181E-25
 -1       663 1.85506E-04-1.17935E-05 0.00000E+00
 -1       664 1.85873E-04-1.25757E-05 8.27181E-25
 -1       665 1.86267E-04-1.34322E-05 0.00000E+00
 -1       666 1.86687E-04-1.43571E-05 0.00000E+00
 -1       667 1.87131E-04-1.53446E-05 0.00000E+00
 -1       668 1.87596E-04-1.63892E-05 8.27181E-25
 -1       669 1.88080E-04-1.74856E-05 1.65436E-24
 -1       670 1.88582E-04-1.86283E-05-8.27181E-25
 -1       671 1.89099E-04-1.98123E-05 0.00000E+00
 -1       672 1.89629E-04-2.10324E-05 0.00000E+00
 -1       673 1.90171E-04-2.22835E-05 1.65436E-24
 -1       674 1.90722E-04-2.35611E-05 0.00000E+00
 -1       675 1.91281E-04-2.48598E-05 0.00000E+00
 -1       676 1.85068E-04-2.56591E-05 0.00000E+00
 -1       677 1.86427E-04-2.57633E-05 0.00000E+00
 -1       678 1.87785E-04-2.58675E-05-3.30872E-24
 -1       679 1.89141E-04-2.59713E-05 0.00000E+00
 -1       680 1.90493E-04-2.60751E-05 1.65436E-24
 -1       771 1.86286E-05 1.48020E-05 0.00000E+00
 -1       772 8.57056E-06 3.67627E-05 0.00000E+00
 -1       773 3.19588E-07 5.41749E-05 0.00000E+00
 -1       774-6.24870E-06 6.72968E-05-2.64698E-23
 -1       775-1.12560E-05 7.63968E-05 5.29396E-23
 -1       776-1.48291E-05 8.17603E-05 2.64698E-23
 -1       777-1.70943E-05 8.36827E-05 0.00000E+00
 -1       778-1.81806E-05 8.24732E-05 0.00000E+00
 -1       779-1.82164E-05 7.84496E-05 0.00000E+00
 -1       780-1.73320E-05 7.19410E-05 2.64698E-23
 -1       781-1.56571E-05 6.32834E-05-5.29396E-23
 -1       782-1.33224E-05 5.28218E-05-2.64698E-23
 -1       783-1.04583E-05 4.09055E-05 5.29396E-23
 -1       784-7.19596E-06 2.78902E-05-2.64698E-23
 -1       785-3.66582E-06 1.41347E-05-5.29396E-23
 -1       786 1.93714E-04 3.24553E-05 0.00000E+00
 -1       787 1.93756E-04 3.02483E-05 4.13590E-25
 -1       788 1.93797E-04 2.80830E-05-8.27181E-25
 -1       789 1.93840E-04 2.59513E-05-8.27181E-25
 -1       790 1.93882E-04 2.38484E-05 0.00000E+00
 -1       791 1.93925E-04 2.17695E-05 8.27181E-25
 -1       792 1.93968E-04 1.97124E-05-1.65436E-24
 -1       793 1.94011E-04 1.76751E-05 0.00000E+00
 -1       794 1.94054E-04 1.56572E-05 1.65436E-24
 -1       795 1.94097E-04 1.36586E-05 8.27181E-25
 -1       796 1.94140E-04 1.16813E-05 1.65436E-24
 -1       797 1.94183E-04 9.72697E-06 0.00000E+00
 -1       798 1.94226E-04 7.79998E-06 0.00000E+00
 -1       799 1.94269E-04 5.90461E-06 0.00000E+00
 -1       800 1.94312E-04 4.04838E-06 1.65436E-24
 -1       801 1.47832E-04 3.12074E-05-2.64698E-23
 -1       802 9.22713E-06 1.94695E-05 2.64698E-23
 -1       803-1.09134E-04 9.83784E-06 0.00000E+00
 -1       804-9.66785E-05 6.84864E-06 0.00000E+00
 -1       805-3.19321E-05 2.68920E-06-5.29396E-23
 -1       806 1.94407E-04 3.23865E-05 0.00000E+00
 -1       807 1.95124E-04 3.00870E-05-1.65436E-24
 -1       808 1.95829E-04 2.78188E-05 0.00000E+00
 -1       809 1.96520E-04 2.55861E-05 0.00000E+00
 -1       810 1.97196E-04 2.33928E-05-3.30872E-24
 -1       811 1.97856E-04 2.12429E-05 1.65436E-24
 -1       812 1.98498E-04 1.91403E-05-3.30872E-24
 -1       813 1.99121E-04 1.70890E-05 0.00000E+00
 -1       814 1.99724E-04 1.50929E-05 0.00000E+00
 -1       815 2.00305E-04 1.31559E-05 0.00000E+00
 -1       816 2.00862E-04 1.12819E-05 0.00000E+00
 -1       817 2.01394E-04 9.47470E-06 8.27181E-25
 -1       818 2.01900E-04 7.73830E-06-1.65436E-24
 -1       819 2.02378E-04 6.07655E-06 0.00000E+00
 -1       820 2.02827E-04 4.49327E-06-1.65436E-24
 -1       821 1.94227E-04-1.23084E-07-1.65436E-24
 -1       822 1.94087E-04-3.63142E-06-1.65436E-24
 -1       823 1.93945E-04-7.86040E-06-3.30872E-24
 -1       824 1.93800E-04-1.23798E-05 0.00000E+00
 -1       825 1.93656E-04-1.66809E-05 0.00000E+00
 -1       826 1.93514E-04-2.02564E-05 0.00000E+00
 -1       827 1.93375E-04-2.27963E-05 0.00000E+00
 -1       828 1.93239E-04-2.39971E-05 0.00000E+00
 -1       829 1.93103E-04-2.39198E-05 0.00000E+00
 -1       830 1.92967E-04-2.26330E-05 0.00000E+00
 -1       831 1.92829E-04-2.05345E-05 0.00000E+00
 -1       832 1.92691E-04-1.80271E-05 0.00000E+00
 -1       833 1.92553E-04-1.56251E-05 0.00000E+00
 -1       834 1.92418E-04-1.38419E-05 0.00000E+00
 -1       835 1.92284E-04-1.30231E-05 0.00000E+00
 -1       836 1.96051E-04 2.36383E-06 0.00000E+00
 -1       837 1.97618E-04 2.49190E-06 0.00000E+00
 -1       838 1.99089E-04 2.61991E-06 0.00000E+00
 -1       839 2.00497E-04 2.74722E-06 0.00000E+00
 -1       840 2.01873E-04 2.87437E-06 8.27181E-25
 -1       856 1.92141E-04-1.45750E-05 0.00000E+00
 -1       857 1.92122E-04-1.55060E-05 0.00000E+00
 -1       858 1.92102E-04-1.63224E-05 0.00000E+00
 -1       859 1.92083E-04-1.70454E-05 0.00000E+00
 -1       860 1.92063E-04-1.76961E-05 0.00000E+00
 -1       861 1.92043E-04-1.82958E-05 0.00000E+00
 -1       862 1.92023E-04-1.88660E-05 0.00000E+00
 -1       863 1.92004E-04-1.94277E-05 0.00000E+00
 -1       864 1.91984E-04-2.00026E-05 0.00000E+00
 -1       865 1.91964E-04-2.06117E-05 0.00000E+00
 -1       866 1.91944E-04-2.12765E-05-8.27181E-25
 -1       867 1.91924E-04-2.20182E-05 0.00000E+00
 -1       868 1.91904E-04-2.28579E-05-8.27181E-25
 -1       869 1.91883E-04-2.38170E-05-4.13590E-25
 -1       870 1.91863E-04-2.49162E-05 8.27181E-25
 -1       871 1.93512E-04-1.35133E-05 0.00000E+00
 -1       872 1.95013E-04-1.35216E-05 0.00000E+00
 -1       873 1.96594E-04-1.35307E-05 0.00000E+00
 -1       874 1.98186E-04-1.35404E-05 1.03398E-25
 -1       875 1.99721E-04-1.35508E-05-1.65436E-24
 -1       876 1.92684E-04-1.45605E-05 3.30872E-24
 -1       877 1.93189E-04-1.55458E-05 0.00000E+00
 -1       878 1.93672E-04-1.64723E-05-3.30872E-24
 -1       879 1.94137E-04-1.73474E-05 0.00000E+00
 -1       880 1.94584E-04-1.81785E-05 0.00000E+00
 -1       881 1.95019E-04-1.89729E-05-1.65436E-24
 -1       882 1.95442E-04-1.97380E-05-3.30872E-24
 -1       883 1.95857E-04-2.04812E-05-1.65436E-24
 -1       884 1.96266E-04-2.12097E-05 0.00000E+00
 -1       885 1.96673E-04-2.19309E-05 0.00000E+00
 -1       886 1.97080E-04-2.26522E-05 3.30872E-24
 -1       887 1.97489E-04-2.33809E-05-1.65436E-24
 -1       888 1.97904E-04-2.41243E-05 3.30872E-24
 -1       889 1.98326E-04-2.48899E-05 0.00000E+00
 -1       890 1.98759E-04-2.56851E-05-1.65436E-24
 -1       891 1.93210E-04-2.62342E-05-1.65436E-24
 -1       892 1.94555E-04-2.62919E-05-8.27181E-25
 -1       893 1.95851E-04-2.63495E-05 8.27181E-25
 -1       894 1.97074E-04-2.64068E-05 0.00000E+00
 -1       895 1.98199E-04-2.64638E-05 4.13590E-25
 -1       956 2.03118E-04 1.66577E-06-3.30872E-24
 -1       957 2.02985E-04 4.30788E-07 1.65436E-24
 -1       958 2.02853E-04-7.23435E-07 0.00000E+00
 -1       959 2.02720E-04-1.80823E-06 1.65436E-24
 -1       960 2.02587E-04-2.83496E-06 0.00000E+00
 -1       961 2.02454E-04-3.81505E-06 0.00000E+00
 -1       962 2.02322E-04-4.75991E-06 0.00000E+00
 -1       963 2.02189E-04-5.68099E-06-1.65436E-24
 -1       964 2.02056E-04-6.58972E-06 3.30872E-24
 -1       965 2.01924E-04-7.49753E-06 0.00000E+00
 -1       966 2.01791E-04-8.41586E-06 0.00000E+00
 -1       967 2.01658E-04-9.35616E-06 0.00000E+00
 -1       968 2.01526E-04-1.03298E-05-6.61744E-24
 -1       969 2.01393E-04-1.13483E-05 3.30872E-24
 -1       970 2.01261E-04-1.24229E-05-3.30872E-24
 -1       971 2.01011E-04-1.47058E-05 3.30872E-24
 -1       972 2.00890E-04-1.57524E-05-1.65436E-24
 -1       973 2.00768E-04-1.67150E-05-3.30872E-24
 -1       974 2.00647E-04-1.76042E-05 1.65436E-24
 -1       975 2.00526E-04-1.84310E-05 3.30872E-24
 -1       976 2.00404E-04-1.92063E-05 0.00000E+00
 -1       977 2.00283E-04-1.99409E-05 0.00000E+00
 -1       978 2.00162E-04-2.06456E-05 1.65436E-24
 -1       979 2.00040E-04-2.13315E-05 3.30872E-24
 -1       980 1.99919E-04-2.20094E-05 0.00000E+00
 -1       981 1.99798E-04-2.26902E-05-3.30872E-24
 -1       982 1.99677E-04-2.33848E-05 1.65436E-24
 -1       983 1.99556E-04-2.41042E-05-3.30872E-24
 -1       984 1.99435E-04-2.48591E-05 1.65436E-24
 -1       985 1.99315E-04-2.56605E-05 0.00000E+00
 -3
    1PSTEP                        24          12           1          
  100CL  112 6.62659E-01         409                     0   12           1
 -4  STRESS      6    1
 -5  SXX         1    4    1    1
 -5  SYY         1    4    2    2
 -5  SZZ         1    4    3    3
 -5  SXY         1    4    1    2
 -5  SYZ         1    4    2    3
 -5  SZX         1    4    3    1
 -1         1-5.34835E+06-1.54307E+06-1.13039E+06-1.28837E+06 1.38243E-09-1.84955E-07
 -1         2 1.60612E+06 2.34542E+07 5.42296E+06 7.12888E+06 2.61934E-08-1.43191E-07
 -1         3-1.48680E+03-1.55060E+06 4.04268E+02-2.19995E+03-5.65933E-10-2.29556E-08
 -1         5-7.46819E+01 3.86161E+05-1.59513E-01 7.38154E+00-5.39586E-10 5.56975E-09
 -1         8-5.47860E+05-1.99329E+05-6.25867E+04-2.39334E+05-4.91127E-11 3.41643E-08
 -1         9 1.18671E+07 4.12413E+06 2.86289E+06-2.49636E+05 1.10478E-08-6.84522E-08
 -1        10-2.30108E+03-1.61583E+06-3.92741E+03-1.48875E+04-1.37552E-08-4.55959E-08
 -1        12-7.86269E+01 3.88116E+05 3.17471E+02-1.50935E+01 1.88447E-09-2.28172E-08
 -1        15 9.12129E+02 5.01261E+02 2.94843E+03 7.85896E-01-2.83947E-10 1.44103E-07
 -1        16 2.29355E+07-3.45386E+05 3.11806E+06-2.32686E+06 1.63175E-08-4.71094E-08
 -1        17 8.40420E+06 6.29329E+06 2.26938E+06 6.01820E+06 2.37662E-08 4.48199E-08
 -1        18 1.42535E+05 3.35556E+04 4.22949E+03-1.19483E+05 1.24212E-08-7.05813E-09
 -1        19 1.22471E+05 1.42301E+05-8.84235E+02 2.19644E+04 1.42099E-09 6.76446E-09
 -1        20-8.18642E+04-5.73338E+05-1.28649E+05 2.51190E+04-2.74379E-09-5.03678E-09
 -1        21-4.55485E+01-2.95876E+05-9.23586E+02 2.76059E+02 1.15830E-08-1.82544E-09
 -1        24 1.41169E+07 1.21448E+07 3.90536E+06 1.12434E+07-1.62962E-07-5.36869E-08
 -1        25 1.25552E+05 2.69452E+05 1.00536E+05-6.47270E+05-1.08821E-09 5.36675E-09
 -1        26-5.53667E+04 9.22350E+04-2.46198E+04 1.27962E+03-1.45883E-10 2.17584E-09
 -1        27-7.55678E+04-3.09765E+05-1.13246E+05 6.89290E+04 3.76349E-09-4.01572E-09
 -1        28 2.22293E+04-8.53049E+04 1.68893E+04 2.06100E+04-1.56103E-09-1.07363E-11
 -1        32-1.67998E+06-3.18214E+06-1.97908E+05 4.61404E+05-4.18295E-08-1.02791E-08
 -1        33-1.78365E+05 9.29488E+04 3.23693E+04-3.84770E+04-3.01570E-09 8.27519E-09
 -1        34-2.23474E+05-2.50144E+04 6.89206E+02 7.56082E+04-6.40293E-09-1.01224E-08
 -1        35-2.29193E+04-3.38306E+04-1.34773E+03 5.14727E+04-5.37287E-09 9.70128E-11
 -1        51 6.10577E+04-1.68873E+05 1.29015E+05-4.28481E+05-2.47383E-10 2.33194E-08
 -1        52 2.06140E+04-1.46259E+05 6.75892E+04-4.99754E+05 1.26420E-10-3.66061E-07
 -1        53 4.13060E+03-1.61591E+05 3.50203E+04-4.27019E+05 2.51021E-10-2.53822E-07
 -1        54 7.15385E+03-1.57369E+05 2.84220E+04-5.01178E+05 1.81899E-10-3.59969E-07
 -1        55 1.56136E+04-1.64227E+05 3.41556E+04-4.26940E+05 9.45874E-11 3.21585E-07
 -1        56-9.83758E+06-1.43128E+06-9.39458E+05-4.14152E+06-2.91329E-08-1.97557E-07
 -1        57-1.11983E+07-6.81541E+05-5.40277E+05-2.59592E+06 1.64146E-08-1.06491E-07
 -1        58-9.56919E+06-1.91978E+06-2.02701E+05-4.36431E+06 2.50220E-08-1.78552E-08
 -1        59-1.14687E+07-1.06602E+05-1.05165E+05-2.51681E+06-4.27112E-08-9.38599E-08
 -1        60-9.67358E+06-1.92233E+06-6.06657E+04-4.31410E+06 1.92595E-08-2.22855E-07
 -1        61-1.06827E+07-5.02300E+05 2.88125E+04-2.77440E+06 2.51748E-08-2.08329E-07
 -1        62-1.01789E+07-1.64349E+06-9.65880E+04-3.96479E+06 2.32831E-09-1.26711E-07
 -1        63-9.60524E+06-1.33259E+06 7.48465E+04-3.56778E+06 1.45010E-08-4.56203E-08
 -1        64-1.06058E+07-1.19593E+06-8.90642E+04-3.43026E+06-2.40107E-09 2.96637E-07
 -1        65-9.21326E+06-2.02359E+06 2.45143E+04-4.64095E+06-4.74247E-08-1.13034E-07
 -1        66-1.07361E+07-8.37708E+05-4.87845E+04-3.01716E+06-2.89874E-08-7.27614E-08
 -1        67-9.26910E+06-2.30376E+06-9.44181E+04-5.15666E+06-6.16346E-08 4.64861E-08
 -1        68-1.07162E+07-7.98146E+05-1.89387E+05-3.01618E+06-2.25846E-08-5.52536E-08
 -1        69-9.40696E+06-2.36172E+06-4.78193E+05-4.60969E+06-8.98544E-08-2.76050E-07
 -1        70-1.04423E+07-9.01833E+05-8.65842E+05-3.46468E+06 1.62927E-08-8.46339E-08
 -1        86-1.63920E+06-1.64023E+07-2.97045E+06-3.34299E+06-2.77389E-07-1.41881E-07
 -1        87 2.59769E+06 6.84198E+06 2.46979E+06 6.09089E+06-4.76030E-07 1.93886E-07
 -1        88-4.99454E+05-1.85833E+06 2.36089E+05-2.66657E+06-4.00141E-07-1.51184E-07
 -1        89 3.47631E+06 6.51216E+06 2.53293E+06 6.30297E+06-6.15633E-07-1.05461E-07
 -1        90-2.41286E+06-1.61562E+07-3.20338E+06-3.58881E+06-1.35133E-07-5.54137E-08
 -1       121-2.03653E+03-1.55549E+06-5.48270E+02 1.09035E+03 1.50321E-09-1.59416E-08
 -1       122-1.30202E+03-1.55066E+06 7.66019E+02-4.40414E+03-5.48734E-09 1.33441E-08
 -1       123-2.05625E+03-1.55563E+06 2.55494E+02 3.25649E+03 3.95460E-09 1.12195E-08
 -1       124 3.25779E+02-1.55021E+06 2.93419E+03-9.21867E+03-1.03651E-08-6.42467E-09
 -1       125-2.86113E+03-1.55652E+06 3.43769E+03 5.85893E+03 6.70661E-09-2.15659E-08
 -1       191-7.89933E+01 3.86180E+05-4.13731E+00-3.66271E+00-5.48653E-10 3.18323E-10
 -1       192-7.93048E+01 3.86160E+05-1.77676E+00 3.72535E+01-7.65738E-10-1.83109E-08
 -1       193-9.33853E+01 3.86180E+05-9.25113E+00-3.34114E+01-1.04274E-09-1.43864E-08
 -1       194-1.28543E+02 3.86145E+05-2.25876E+01 3.03082E+02-5.47061E-10 1.77533E-08
 -1       195-2.30720E+02 3.86182E+05-5.65052E+01-2.69152E+02-1.18052E-09-1.98925E-08
 -1       251-8.65560E+05 1.65271E+04-3.85691E+04-1.49971E+04 3.92401E-09 2.21669E-07
 -1       252-8.80042E+05-1.91328E+04-2.68136E+04 5.34656E+04 4.10773E-09 3.00581E-07
 -1       253-8.74278E+05 2.53963E+03-1.04154E+04-1.06281E+04-4.03611E-09 8.62342E-08
 -1       254-8.65880E+05-3.09285E+03-4.53910E+03 3.82092E+04-6.79893E-09-1.83300E-07
 -1       255-8.79047E+05 3.44435E+01-3.69914E+03 2.55017E+02 6.99310E-09 1.03721E-07
 -1       256-8.59972E+05-2.76443E+02 1.38848E+03 1.34633E+04-2.39278E-08 2.31841E-07
 -1       257-8.79694E+05-6.41766E+02-1.54212E+03 1.41044E+04 1.03780E-08 2.00908E-07
 -1       258-8.63072E+05 9.86359E+02 2.90235E+03-1.26128E+04-1.76337E-08 1.03358E-07
 -1       259-8.76216E+05-1.02058E+03 1.29746E+03 2.63283E+04 6.35282E-10-4.58260E-09
 -1       260-8.70221E+05 3.09590E+03 5.65567E+03-3.14505E+04-6.09992E-09-2.47001E-07
 -1       261-8.73248E+05-2.20987E+03 8.67450E+03 3.29609E+04 9.81976E-09 8.05912E-08
 -1       262-8.69224E+05 1.19980E+04 2.15689E+04-3.69907E+04 5.53614E-09 1.34238E-07
 -1       263-8.77496E+05-9.67106E+03 3.41397E+04 3.18797E+04 1.23300E-08-3.79841E-08
 -1       264-8.38142E+05 6.73772E+04 9.46620E+04-2.73135E+04 2.18654E-08 1.87396E-07
 -1       265-9.03788E+05-5.77544E+04 1.31571E+05 2.32692E+04 1.12914E-08 8.05303E-08
 -1       266-1.65128E+04-7.72222E+03 3.87397E+04-1.68141E+01 1.03682E-10 1.83561E-08
 -1       267 1.91426E+04 8.99911E+03 2.73827E+04 1.94019E+01 1.87356E-10 2.81723E-07
 -1       268-2.56700E+03-1.27459E+03 1.01779E+04-2.47204E+00 1.17780E-10 8.58707E-08
 -1       269 3.03085E+03 1.52534E+03 6.61558E+03 2.87967E+00 1.53477E-11-1.25396E-07
 -1       270-4.54932E+02-2.50626E+02 3.19343E+03-3.90789E-01 1.09139E-11 3.27224E-07
 -1       271-1.44637E+06-1.85094E+05-1.09100E+05-5.63499E+05 1.07211E-08 5.50717E-08
 -1       272-1.43590E+06-3.00558E+05-6.82738E+04-6.06625E+05 1.98816E-08-2.54302E-07
 -1       273-1.46957E+06-2.07851E+05-2.65513E+04-5.55448E+05-1.16415E-10-2.01777E-07
 -1       274-1.40983E+06-2.73049E+05-1.36688E+04-6.22137E+05-1.55760E-08-1.03509E-07
 -1       275-1.47520E+06-2.07176E+05-6.66875E+03-5.51620E+05-1.61308E-08 2.53455E-07
 -1       276-1.40448E+06-2.74127E+05-2.73335E+03-6.31101E+05-6.56109E-09-7.75153E-08
 -1       277-1.47807E+06-2.04421E+05-1.86064E+03-5.48852E+05 3.38678E-08 1.20176E-07
 -1       278-1.40252E+06-2.77341E+05-6.61279E+02-6.37673E+05-1.78552E-08 6.34479E-08
 -1       279-1.47990E+06-2.02208E+05-8.27617E+02-5.46926E+05-4.55402E-08 9.23756E-08
 -1       280-1.40165E+06-2.79704E+05-8.93419E+02-6.41943E+05-4.17053E-08 1.23042E-07
 -1       281-1.48085E+06-2.00854E+05-1.65660E+03-5.45865E+05 1.96778E-08-4.81994E-08
 -1       282-1.40202E+06-2.81716E+05-3.84385E+03-6.43633E+05-4.29011E-08 2.03273E-07
 -1       283-1.48039E+06-1.99756E+05-6.84705E+03-5.45771E+05-1.67294E-08 2.26564E-08
 -1       284-1.40819E+06-2.90550E+05-1.86402E+04-6.41423E+05 5.39476E-08-3.26028E-07
 -1       285-1.47449E+06-1.93159E+05-2.91623E+04-5.47530E+05-4.62760E-08-2.07861E-07
 -1       301-9.93176E+03-6.53053E+05 1.66433E+05-1.15112E+06 2.47383E-10-1.20126E-07
 -1       302-1.24222E+04-6.05569E+05 1.00166E+05-1.67979E+06 2.16096E-09-8.11960E-08
 -1       303-2.40387E+04-6.46241E+05 5.64282E+04-1.14792E+06 1.24346E-08-8.01738E-08
 -1       304-2.81343E+04-6.13222E+05 5.64933E+04-1.67927E+06-3.55649E-08 6.11180E-09
 -1       305-2.85451E+04-6.34843E+05 6.90698E+04-1.15100E+06-5.04588E-09-6.46542E-08
 -1       306-3.00974E+07-6.20589E+06-8.59737E+06-4.69172E+05-9.10368E-08-1.54367E-07
 -1       307 2.51842E+07 3.29433E+06 5.49311E+06-1.53066E+07-8.03280E-07 6.45232E-08
 -1       308-6.88071E+06-9.99268E+05-4.23514E+05 5.20545E+06-9.32778E-08 1.35813E-07
 -1       309-3.14296E+06 8.71385E+06 2.29728E+06-2.07114E+07 6.11704E-07 1.64961E-07
 -1       310-1.27104E+07-1.95932E+06-2.07962E+06 5.21078E+06 8.79518E-08-5.50644E-08
 -1       311 3.87985E+07-1.89947E+04 7.33077E+06-8.64178E+06 4.79398E-07-1.87574E-07
 -1       312-3.19925E+07-6.84345E+06-8.57583E+06-5.15623E+06-1.74623E-09 3.05590E-09
 -1       313 4.53304E+07 1.52743E+07 1.06931E+07 2.40028E+07-1.97411E-07 4.03961E-08
 -1       314-1.71014E+07-1.78980E+07-7.52288E+06-1.25322E+07 1.63564E-07 5.39003E-08
 -1       315-2.01061E+06 2.98326E+07 5.65685E+06 1.03791E+07-4.91753E-07-9.61591E-08
 -1       316 1.45652E+06-9.81029E+06-4.18225E+05-2.46927E+06-1.13173E-06-3.25323E-07
 -1       317-1.70751E+07 2.24384E+07 2.24952E+06-8.91550E+06 6.49539E-07-8.06867E-07
 -1       318-1.10016E+06-1.28800E+07-2.07661E+06-4.24740E+06-1.01334E-06 7.95117E-08
 -1       319 7.34311E+06 3.21303E+07 7.08397E+06 1.67259E+07-8.26840E-08 2.57307E-07
 -1       320-2.26636E+07-1.77008E+07-9.89225E+06-1.28501E+07 1.96625E-07-4.22297E-08
 -1       336-7.54591E+02-1.68388E+06-1.37841E+04 8.85883E+03-2.58606E-08-1.15106E-08
 -1       337-5.39172E+03-1.68339E+06-1.79791E+04-2.15272E+04-4.85907E-08-3.25163E-08
 -1       338 2.61558E+02-1.68336E+06-2.83303E+04 1.24173E+04-3.33039E-08-4.67844E-09
 -1       339-3.00661E+04-1.70054E+06-6.40157E+04-2.85000E+04-6.19475E-08 2.35977E-08
 -1       340 1.97857E+04-1.66889E+06-1.00852E+05 1.57008E+04-4.03597E-08 3.85407E-08
 -1       406 8.32610E+01 3.90043E+05 8.64538E+02 2.85041E+02 3.23053E-09-3.04863E-09
 -1       407 1.95709E+02 3.90221E+05 1.51481E+03-2.96194E+02 1.98452E-09 8.13361E-09
 -1       408 6.36657E+02 3.89962E+05 2.86579E+03 1.07902E+01 3.96938E-09 4.78212E-09
 -1       409 2.93568E+03 3.91117E+05 6.37896E+03 2.49537E+02 2.51737E-09-1.95723E-08
 -1       410 8.61009E+03 3.89146E+05 1.29721E+04-2.77393E+02 4.76030E-09-3.61433E-09
 -1       521-3.17167E+07-7.68737E+06-1.00788E+07-7.04659E+04-7.41566E-08 1.19500E-07
 -1       522 2.61294E+07 4.36491E+06 5.62142E+06-1.88704E+07-6.41652E-07-1.17725E-07
 -1       523-7.45082E+06-1.31867E+06-4.14914E+05 5.66734E+06 5.96046E-08-4.52957E-07
 -1       524-6.64829E+06 1.18404E+07 2.49487E+06-2.38293E+07 1.02567E-06-5.76325E-07
 -1       525-1.35159E+07-2.61569E+06-2.29428E+06 5.68124E+06 8.04604E-07-2.77651E-07
 -1       526 4.25205E+07-1.23551E+05 7.71514E+06-1.13040E+07 2.61702E-07-5.67816E-08
 -1       527-3.39239E+07-8.57120E+06-9.91714E+06-5.02789E+06 1.71713E-07 1.16896E-07
 -1       528 4.96343E+07 1.71119E+07 1.11866E+07 2.73947E+07-3.21888E-08 4.08938E-07
 -1       529-1.80610E+07-2.01785E+07-8.65284E+06-1.25801E+07 1.27766E-07-5.57629E-08
 -1       530-4.50315E+06 3.47531E+07 6.00687E+06 9.80091E+06-1.16255E-07 3.86150E-07
 -1       531 1.47242E+06-1.08960E+07-3.89282E+05-2.39502E+06-9.80552E-07 3.80445E-07
 -1       532-1.95641E+07 2.44789E+07 2.46833E+06-1.33029E+07 3.16795E-07-6.82863E-07
 -1       533-1.13762E+06-1.40684E+07-2.22158E+06-4.03442E+06-2.01253E-07-9.75153E-07
 -1       534 5.36761E+06 3.74273E+07 7.39676E+06 1.73585E+07-4.41505E-08 7.75792E-07
 -1       535-2.38943E+07-2.01683E+07-1.13789E+07-1.29465E+07 7.06641E-08 4.77303E-07
 -1       536-7.06555E+05-4.66652E+04-4.86014E+04-5.47381E+04-3.42561E-09 6.94145E-08
 -1       537-5.45001E+04 4.45793E+04 8.38032E+04 1.23964E+05-1.15179E-07 7.05572E-08
 -1       538-3.94464E+05 3.37143E+03 3.46232E+03-7.22646E+04 3.73432E-08 9.89826E-08
 -1       539-2.68941E+05 2.83181E+03 2.48953E+04 1.38868E+05 1.77658E-07 1.31748E-07
 -1       540-4.97502E+05-4.23591E+02-2.13712E+04-7.01788E+04-1.40271E-08 1.28422E-07
 -1       541 1.47342E+05 1.69905E+04 1.06516E+05 9.80421E+04-4.18268E-08 8.81847E-08
 -1       542-7.99530E+05-2.01626E+04-8.43601E+04-3.05617E+04 7.32507E-08 5.59255E-08
 -1       543 4.06459E+05 2.73649E+04 1.58197E+05-1.33621E+04-5.05679E-09-7.22548E-09
 -1       544-7.49669E+05-1.65630E+04-7.49497E+04 4.05545E+04 7.98218E-09-4.30574E-08
 -1       545 2.95802E+04 9.50122E+03 7.99372E+04-1.13732E+05-2.39615E-08-8.46919E-08
 -1       546-4.32773E+05 6.10187E+03-1.22471E+04 6.94606E+04-8.01560E-09-8.28937E-08
 -1       547-2.87008E+05-4.65476E+03 1.06172E+04-1.41713E+05-1.05068E-07-1.26255E-07
 -1       548-4.41593E+05 4.72147E+03-2.38939E+04 6.92287E+04-9.92159E-08-1.09669E-07
 -1       549 4.87405E+04 1.61371E+04 6.06577E+04-1.11600E+05-6.00105E-08-6.87878E-08
 -1       550-7.59538E+05-2.22085E+04-1.29072E+05 3.86299E+04 7.49424E-09-4.18986E-08
 -1       551 4.07417E+04-7.47975E+05-1.59593E+04-1.24633E+06-1.04585E-07 2.32831E-10
 -1       552 9.31760E+04-7.92936E+05 9.86133E+03-1.77707E+06-7.21921E-08 6.21076E-08
 -1       553 7.17057E+04-7.89343E+05 3.19768E+04-1.23969E+06-1.21305E-07 3.08210E-08
 -1       554 1.31952E+05-8.08839E+05 8.09459E+04-1.77902E+06-7.72270E-08 1.08248E-08
 -1       555 1.01432E+05-8.12992E+05 1.47847E+05-1.23951E+06-1.23349E-07-1.16233E-08
 -1       556 2.23717E+05-3.83671E+05 2.54133E+04-4.07111E+05-2.61934E-08-1.23400E-08
 -1       557 3.54199E+05-4.87988E+05 1.59731E+04-5.27557E+05-1.85100E-08 2.87400E-09
 -1       558 2.05470E+05-3.76407E+05 2.24872E+03-4.11591E+05-2.64263E-08 4.10364E-09
 -1       559 3.29225E+05-4.88014E+05 2.40335E+03-5.48008E+05 1.86410E-08-3.77986E-09
 -1       560 1.90162E+05-3.66808E+05-1.52301E+03-4.22622E+05 1.82481E-08 2.42871E-08
 -1       561 3.09996E+05-4.80316E+05 1.21201E+02-5.61121E+05 9.51695E-09 3.62161E-08
 -1       562 1.78059E+05-3.59289E+05-1.33173E+03-4.31386E+05 7.84348E-09-4.75120E-09
 -1       563 2.95620E+05-4.74048E+05-3.92718E+01-5.70511E+05 5.87170E-09-2.01908E-09
 -1       564 1.69420E+05-3.53907E+05-6.02630E+02-4.37508E+05 1.26020E-08-1.47611E-08
 -1       565 2.86083E+05-4.69894E+05 2.31207E+01-5.76605E+05 3.05299E-08 1.51913E-08
 -1       566 1.64368E+05-3.50711E+05-2.60893E+02-4.41042E+05 3.60160E-09 8.81482E-09
 -1       567 2.81444E+05-4.67876E+05-3.62986E+02-5.79422E+05 2.63517E-08 1.10958E-09
 -1       568 1.62994E+05-3.49869E+05-1.12622E+03-4.42098E+05 6.98583E-09-9.22591E-09
 -1       569 2.80316E+05-4.67801E+05-2.84434E+03-5.77998E+05-6.40375E-09 4.77121E-08
 -1       570 1.66390E+05-3.53101E+05-6.21742E+03-4.41080E+05 8.45466E-09 4.22551E-09
 -1       571 2.90340E+05 1.05035E+04 1.49823E+04-9.51437E+04 2.50566E-09 7.02312E-09
 -1       572 2.92511E+05 3.96003E+03 7.34251E+03-1.04382E+05 4.63388E-10 2.23672E-08
 -1       573 2.91202E+05 1.24672E+03 3.26251E+03-9.49674E+04-2.72848E-10 2.02008E-08
 -1       574 2.91416E+05 7.28623E+02 1.63610E+03-1.04606E+05 3.53134E-09 5.86533E-09
 -1       575 2.91296E+05 4.49416E+02 7.72160E+02-9.49432E+04-9.13090E-10 4.70209E-09
 -1       576 2.91280E+05 4.60919E+02 3.95273E+02-1.04636E+05-6.11431E-09 6.69570E-09
 -1       577 2.91336E+05 3.91366E+02 1.97188E+02-9.49399E+04-8.01083E-09 1.80989E-10
 -1       578 2.91311E+05 4.22904E+02 1.13647E+02-1.04640E+05-1.04128E-08-1.78261E-09
 -1       579 2.91408E+05 3.54735E+02 7.75879E+01-9.49396E+04-1.72986E-08-6.03904E-09
 -1       580 2.91412E+05 3.71884E+02 8.93976E+01-1.04636E+05-4.96275E-08-1.82081E-09
 -1       581 2.91522E+05 2.96039E+02 1.34346E+02-9.49455E+04-2.02854E-08 7.15318E-09
 -1       582 2.91587E+05 3.33522E+02 2.72882E+02-1.04574E+05-1.44246E-08-1.26238E-09
 -1       583 2.91662E+05 3.35361E+02 5.23279E+02-9.50020E+04-8.29459E-09-2.45905E-08
 -1       584 2.91958E+05 7.62826E+02 1.18427E+03-1.04098E+05 4.26371E-09 7.41738E-09
 -1       585 2.91692E+05 1.75776E+03 2.39765E+03-9.54210E+04-5.49335E-09 1.61890E-09
 -1       586-3.42511E+03 1.16840E+05-2.91306E+03-2.50547E+05-4.89672E-09-9.57721E-09
 -1       587-1.34153E+03 1.16592E+05 7.73458E+02-2.75745E+05-6.94126E-09 4.38615E-09
 -1       588 3.95824E+02 1.16398E+05 4.76093E+03-2.50409E+05-4.57294E-09 2.27401E-08
 -1       589 5.08258E+03 1.18872E+05 1.23462E+04-2.75512E+05-9.08949E-09-1.67347E-09
 -1       590 1.66086E+04 1.15064E+05 2.58979E+04-2.50840E+05-5.49335E-09 5.26234E-09
 -1       591-7.49828E+04-1.59719E+04-2.25216E+04-3.19582E+04-4.20550E-09 4.10182E-10
 -1       592-7.90696E+04-1.95294E+04-1.21995E+04-3.55835E+04-4.60716E-11 1.89391E-09
 -1       593-7.72352E+04-1.43376E+04-5.07805E+03-3.36095E+04-5.26421E-09-1.61374E-08
 -1       594-7.59600E+04-1.62246E+04-2.53255E+03-3.57012E+04-1.08322E-08-3.68587E-09
 -1       595-7.74069E+04-1.43323E+04-1.16270E+03-3.36846E+04-4.70219E-09-3.34211E-10
 -1       596-7.57471E+04-1.60735E+04-5.90848E+02-3.56759E+04 8.88829E-09 2.34760E-08
 -1       597-7.74284E+04-1.43477E+04-3.21285E+02-3.36874E+04 1.48668E-09 9.18720E-09
 -1       598-7.57261E+04-1.60675E+04-2.57451E+02-3.56688E+04-3.88218E-09-2.69088E-08
 -1       599-7.74272E+04-1.43482E+04-3.27837E+02-3.36871E+04 1.17575E-09-2.18263E-08
 -1       600-7.57471E+04-1.60740E+04-6.08193E+02-3.56738E+04 6.14943E-09 1.50436E-09
 -1       601-7.74025E+04-1.43337E+04-1.19941E+03-3.36836E+04 7.71706E-10 4.18299E-09
 -1       602-7.59667E+04-1.62288E+04-2.61376E+03-3.56960E+04-8.42010E-09 5.69923E-09
 -1       603-7.72226E+04-1.43421E+04-5.24155E+03-3.36070E+04 6.70070E-10 3.38036E-08
 -1       604-7.91940E+04-1.96203E+04-1.25914E+04-3.55497E+04 3.94516E-09 6.64818E-09
 -1       605-7.48777E+04-1.60467E+04-2.32453E+04-3.19220E+04 4.04827E-09 2.33376E-09
 -1       606 2.66908E+04-1.43542E+04-2.57317E+04 2.39820E+04 6.36192E-09-1.11190E-08
 -1       607 2.22942E+04-4.68828E+03-1.28143E+04 2.69509E+04-3.71438E-09-8.90168E-09
 -1       608 2.48000E+04-8.45969E+02-5.73653E+03 2.38135E+04-5.00404E-09 2.24099E-09
 -1       609 2.43197E+04-2.90056E+02-2.89795E+03 2.71649E+04 1.01136E-09-1.48341E-08
 -1       610 2.45861E+04-4.13440E+01-1.38265E+03 2.37935E+04 5.98357E-09 4.49677E-09
 -1       611 2.45107E+04-4.16779E+01-6.97131E+02 2.71880E+04 7.67977E-09 1.33527E-08
 -1       612 2.45390E+04-2.76408E+01-3.31418E+02 2.37914E+04 2.68847E-09-1.60890E-09
 -1       613 2.45224E+04-3.76066E+01-1.48531E+02 2.71907E+04 5.32782E-09-4.33874E-09
 -1       614 2.45168E+04-3.40915E+01-3.48530E+01 2.37907E+04 1.07284E-08 7.75208E-09
 -1       615 2.45172E+04-3.61349E+01 6.21796E+01 2.71912E+04 1.60649E-08 1.87356E-08
 -1       616 2.44994E+04-3.09816E+01 1.86528E+02 2.37910E+04 1.12150E-08 1.63209E-09
 -1       617 2.45396E+04 3.61522E+00 4.25589E+02 2.71907E+04 2.12253E-09 1.79170E-10
 -1       618 2.44625E+04 9.17079E+01 8.57855E+02 2.37913E+04 4.64570E-09-2.81761E-09
 -1       619 2.48424E+04 6.66914E+02 1.92638E+03 2.71901E+04 1.14915E-09 2.07592E-10
 -1       620 2.41776E+04 2.12593E+03 3.87198E+03 2.37929E+04-1.07298E-09 2.77623E-09
 -1       621 5.04089E+02 3.01318E+05 3.83092E+03 4.09922E+04 9.51331E-10 1.36779E-08
 -1       622 6.70443E+02 3.02201E+05 3.41733E+03 5.95102E+04 1.12459E-09 2.01303E-08
 -1       623 1.43254E+02 3.01507E+05 4.12818E+03 4.08067E+04 1.26613E-09 1.87028E-08
 -1       624 2.12627E+03 3.03425E+05 8.02104E+03 5.96927E+04 9.72648E-10 2.61366E-09
 -1       625 2.07746E+03 2.99914E+05 1.40248E+04 4.08035E+04 1.51203E-09-9.03401E-09
 -1       626 2.60743E+05 6.13558E+04 5.06277E+03 1.26688E+05-7.91715E-10-3.26127E-08
 -1       627 2.58419E+05 6.27688E+04 2.43971E+03 1.30949E+05-6.98492E-10 6.69274E-10
 -1       628 2.60870E+05 5.90382E+04 1.03183E+03 1.27547E+05-8.27822E-09-7.35281E-09
 -1       629 2.57789E+05 6.20976E+04 5.05066E+02 1.31188E+05-7.17409E-09 1.62955E-08
 -1       630 2.60884E+05 5.89263E+04 2.34446E+02 1.27583E+05-5.19321E-10 1.37528E-08
 -1       631 2.57723E+05 6.20722E+04 1.26421E+02 1.31190E+05 2.71939E-09-3.53339E-10
 -1       632 2.60881E+05 5.89302E+04 8.36568E+01 1.27579E+05 7.10179E-09-1.24510E-08
 -1       633 2.57715E+05 6.20740E+04 9.39024E+01 1.31186E+05 7.70387E-09 9.49512E-09
 -1       634 2.60876E+05 5.89273E+04 1.52380E+02 1.27578E+05-3.10229E-09 8.68272E-09
 -1       635 2.57729E+05 6.20723E+04 3.08731E+02 1.31192E+05-3.52156E-09 1.06002E-08
 -1       636 2.60867E+05 5.89215E+04 6.23679E+02 1.27578E+05-4.43174E-09 1.14960E-09
 -1       637 2.57864E+05 6.21692E+04 1.37143E+03 1.31191E+05 1.75874E-09-6.84167E-09
 -1       638 2.60818E+05 5.92245E+04 2.81781E+03 1.27441E+05 6.07542E-10-1.72145E-08
 -1       639 2.59344E+05 6.42279E+04 6.66709E+03 1.30755E+05 7.99628E-09 4.40491E-09
 -1       640 2.60614E+05 6.53719E+04 1.38354E+04 1.24851E+05 8.31778E-09 1.52927E-08
 -1       656 6.65498E+04-1.70317E+06-1.60647E+05-2.57048E+03 4.43833E-10 1.32461E-08
 -1       657-8.80396E+04-1.77576E+06-1.33087E+05 5.15144E+03 2.99224E-10 3.00582E-09
 -1       658 2.12137E+04-1.72378E+06-8.19650E+04-4.65261E+03-7.85121E-10 2.79232E-09
 -1       659-9.52021E+04-1.77916E+06-1.42500E+05 6.88128E+03-3.27418E-09-1.47066E-08
 -1       660 7.36963E+04-1.69978E+06-1.76830E+05-4.30031E+03-2.63390E-09-3.49388E-09
 -1       661 1.58543E+05 1.65894E+04 1.67129E+04 6.19763E+04-2.79670E-10 7.40783E-09
 -1       662 1.67992E+05 2.89665E+04 1.12633E+04 5.82269E+04 2.49884E-10 8.46421E-09
 -1       663 1.61826E+05 2.19512E+04 3.93919E+03 6.10236E+04-2.90311E-09-8.15317E-09
 -1       664 1.64186E+05 2.26963E+04 2.35646E+03 5.93907E+04-2.86036E-09-1.09192E-08
 -1       665 1.62324E+05 2.26835E+04 9.29607E+02 6.08783E+04 4.94595E-10-9.39480E-10
 -1       666 1.63596E+05 2.18589E+04 5.44150E+02 5.95803E+04 7.88739E-09-4.43871E-09
 -1       667 1.62412E+05 2.27667E+04 2.89219E+02 6.08418E+04-5.15485E-10-1.24506E-09
 -1       668 1.63500E+05 2.17991E+04 2.95138E+02 5.96332E+04-2.52420E-09 1.15787E-09
 -1       669 1.62419E+05 2.27416E+04 3.99939E+02 6.08256E+04-1.55725E-09-1.66830E-09
 -1       670 1.63597E+05 2.20163E+04 8.71212E+02 5.96362E+04-7.70190E-09-1.58724E-08
 -1       671 1.62314E+05 2.25540E+04 1.54702E+03 6.08369E+04 5.31249E-09-1.10863E-08
 -1       672 1.64499E+05 2.35214E+04 3.95810E+03 5.94177E+04 1.13746E-08 4.62194E-09
 -1       673 1.61522E+05 2.12746E+04 6.63317E+03 6.10294E+04 3.55840E-09-2.81125E-09
 -1       674 1.70812E+05 3.41784E+04 1.89695E+04 5.75630E+04-5.88670E-09 2.88878E-09
 -1       675 1.56042E+05 1.21955E+04 2.81574E+04 6.25796E+04-3.41061E-11-4.39468E-09
 -1       676 2.41066E+01-2.95798E+05-1.11316E+03-1.38034E+02 1.38368E-09 8.06694E-09
 -1       677-2.94446E+02-2.96068E+05-2.03728E+03 2.75845E+02 1.06769E-08 9.89999E-09
 -1       678 1.97499E+02-2.95607E+05-3.60141E+03-1.37721E+02 8.06722E-10 7.04298E-09
 -1       679-3.60146E+03-2.98242E+05-8.55546E+03 2.74654E+02 9.21682E-09 1.08746E-08
 -1       680 2.15029E+03-2.93626E+05-1.37885E+04-1.35321E+02 3.78077E-09-6.59145E-09
 -1       771-3.06106E+06-7.47328E+05-1.66266E+05-1.46563E+06-3.00060E-08-2.66300E-08
 -1       772-2.98393E+06-8.36264E+05-8.57267E+04-1.56845E+06-2.20025E-08 1.21436E-08
 -1       773-3.09260E+06-7.22737E+05-4.36921E+04-1.48021E+06-1.45810E-08 1.22673E-08
 -1       774-2.97438E+06-8.17682E+05-1.94953E+04-1.59424E+06 2.22353E-08-5.67525E-09
 -1       775-3.10907E+06-7.11185E+05-1.45769E+04-1.48728E+06-4.19095E-09 1.94996E-09
 -1       776-2.98675E+06-8.14636E+05-5.45218E+03-1.61376E+06-1.15106E-08-5.91535E-09
 -1       777-3.12336E+06-7.00873E+05-6.43868E+03-1.49351E+06 2.32831E-10 3.93629E-09
 -1       778-2.99967E+06-8.11804E+05-1.82076E+03-1.63053E+06 9.77889E-09 8.58563E-09
 -1       779-3.13565E+06-6.91862E+05-3.21691E+03-1.49883E+06-1.06083E-08-8.99308E-09
 -1       780-3.01104E+06-8.09103E+05-5.33309E+02-1.64419E+06-1.44937E-08-1.96451E-09
 -1       781-3.14541E+06-6.84598E+05-1.24904E+03-1.50300E+06-2.95840E-08-1.58070E-09
 -1       782-3.01981E+06-8.06810E+05 4.51975E+02-1.65427E+06-3.84171E-08-4.84533E-09
 -1       783-3.15229E+06-6.79550E+05 7.04337E+02-1.50592E+06-1.27693E-08-1.52454E-08
 -1       784-3.02466E+06-8.04519E+05 2.91420E+03-1.66049E+06-2.38506E-08 3.39423E-09
 -1       785-3.15636E+06-6.76538E+05 5.14520E+03-1.50777E+06-3.77368E-08 7.03585E-09
 -1       786 1.23887E+05-9.77751E+03 2.26212E+04-3.23466E+02 2.88764E-09-1.44209E-08
 -1       787 1.33698E+05 1.13202E+04 1.60036E+04-1.36921E+02 8.57626E-09-7.41284E-09
 -1       788 1.27670E+05-1.53216E+03 5.85261E+03-2.88327E+02 7.91140E-09 1.31051E-08
 -1       789 1.29291E+05 1.77344E+03 3.67407E+03-1.90743E+02-2.76142E-10 4.79127E-09
 -1       790 1.28295E+05-2.38550E+02 1.48761E+03-2.69662E+02-3.83047E-09-1.01558E-08
 -1       791 1.28561E+05 2.76025E+02 8.59279E+02-2.22676E+02-8.41889E-09 2.29814E-09
 -1       792 1.28400E+05-3.58579E+01 3.64272E+02-2.56396E+02-5.63526E-09 1.34496E-09
 -1       793 1.28434E+05 3.79676E+01 1.81912E+02-2.47630E+02-2.65731E-10-2.46034E-08
 -1       794 1.28421E+05-6.42960E-01 4.79081E+01-2.44708E+02 5.27152E-09-6.68601E-09
 -1       795 1.28398E+05-2.69595E+01-5.62041E+01-2.72022E+02-3.64979E-09 2.78399E-09
 -1       796 1.28437E+05 2.90328E+01-1.60097E+02-2.32004E+02 4.10610E-09 1.14721E-08
 -1       797 1.28304E+05-2.16751E+02-4.40250E+02-3.01200E+02 7.05684E-09 1.11513E-08
 -1       798 1.28515E+05 1.89006E+02-7.15175E+02-2.15529E+02 2.02230E-09 2.32389E-08
 -1       799 1.27761E+05-1.39308E+03-1.96772E+03-3.41998E+02 6.25353E-09 2.62945E-08
 -1       800 1.28980E+05 1.20440E+03-2.78478E+03-1.91208E+02-5.24077E-10 3.33237E-08
 -1       801-1.71692E+05-1.00088E+07-1.39525E+06 1.41830E+06 9.00764E-08-5.71526E-08
 -1       802 7.39969E+05 5.96908E+06 2.18640E+06-1.75104E+06 2.58122E-07-4.27290E-08
 -1       803-5.37746E+05-1.42901E+07-1.89459E+06 8.99462E+05 7.77327E-08 1.35078E-08
 -1       804 2.88028E+05 2.40985E+06 1.54096E+06 6.78506E+05-1.20766E-07-9.99244E-08
 -1       805 1.89558E+05-6.46369E+06-2.87334E+05-1.00557E+06-4.98330E-08-6.78510E-08
 -1       806-3.08692E+05-5.97190E+04-2.28277E+04-1.22334E+05-7.60974E-09 1.09926E-08
 -1       807-3.10486E+05-5.59950E+04-1.12150E+04-1.27876E+05 8.76889E-09 7.74088E-09
 -1       808-3.09319E+05-5.14920E+04-4.75777E+03-1.26223E+05-6.52381E-09 1.43798E-08
 -1       809-3.08128E+05-5.28438E+04-2.32643E+03-1.28151E+05-1.27682E-08 1.45814E-08
 -1       810-3.09414E+05-5.12055E+04-1.06634E+03-1.26395E+05 7.25959E-09 9.15406E-09
 -1       811-3.07946E+05-5.27172E+04-5.30313E+02-1.28116E+05 2.90447E-09-1.25151E-08
 -1       812-3.09428E+05-5.12302E+04-2.68296E+02-1.26394E+05-1.37607E-09-3.91537E-10
 -1       813-3.07921E+05-5.27194E+04-1.74515E+02-1.28097E+05-1.63664E-09-1.08994E-08
 -1       814-3.09421E+05-5.12399E+04-1.73186E+02-1.26390E+05-7.03130E-09-5.46561E-09
 -1       815-3.07924E+05-5.27217E+04-2.79250E+02-1.28089E+05 5.68252E-09 4.57476E-09
 -1       816-3.09400E+05-5.12390E+04-5.29412E+02-1.26386E+05 5.15593E-09 1.19098E-09
 -1       817-3.08014E+05-5.27721E+04-1.13624E+03-1.28078E+05-8.38236E-09 2.88667E-08
 -1       818-3.09331E+05-5.13995E+04-2.31757E+03-1.26311E+05 1.49430E-09-5.99812E-10
 -1       819-3.09283E+05-5.41722E+04-5.45306E+03-1.27777E+05 6.09680E-09-1.12595E-09
 -1       820-3.08894E+05-5.55190E+04-1.10990E+04-1.24551E+05 6.81212E-10 4.49813E-09
 -1       821-3.78872E+05 2.08639E+04-4.85649E+04 2.12475E+03 1.38865E-08 6.51198E-10
 -1       822-3.98583E+05-2.41694E+04-3.41324E+04-4.43903E+03 4.46941E-09 1.12027E-08
 -1       823-3.86339E+05 3.28868E+03-1.25441E+04 3.42837E+03-1.22941E-08 5.72072E-09
 -1       824-3.89570E+05-3.79251E+03-7.85213E+03-5.34497E+03 2.18789E-09 4.66002E-09
 -1       825-3.87891E+05 5.11031E+02-3.28782E+03 3.03081E+03 2.07467E-08 7.14408E-09
 -1       826-3.87145E+05-5.67339E+02-1.74502E+03-3.07893E+03 2.50975E-08 9.04322E-09
 -1       827-3.88740E+05 4.70979E+01-1.18842E+03 1.16219E+03 1.07818E-08-4.16401E-09
 -1       828-3.86444E+05-1.32403E+02-5.88266E+02 1.09815E+03 7.25436E-10 2.21216E-09
 -1       829-3.88580E+05 6.61289E+01-1.17746E+03-1.14630E+03 3.72648E-09 9.84954E-09
 -1       830-3.87493E+05-6.22046E+02-1.88284E+03 4.87119E+03-5.41576E-11-7.38416E-09
 -1       831-3.87714E+05 5.54240E+02-3.36972E+03-2.61088E+03-4.40630E-09-1.41276E-08
 -1       832-3.89650E+05-3.95923E+03-8.15467E+03 6.14599E+03-2.12180E-09 2.05614E-09
 -1       833-3.86438E+05 3.41276E+03-1.30476E+04-2.42114E+03-1.52863E-09-5.93900E-10
 -1       834-3.98644E+05-2.50827E+04-3.53548E+04 4.18087E+03-1.32510E-09 4.77257E-09
 -1       835-3.78703E+05 2.16449E+04-5.04339E+04-6.45676E+02 3.96247E-09 2.85581E-08
 -1       836-1.41361E+03 3.70055E+05 2.28982E+04-1.61511E+04-6.95763E-09 9.75933E-09
 -1       837 4.88069E+03 3.77227E+05 1.93726E+04-3.30079E+04-7.46854E-09-1.01425E-08
 -1       838-5.58014E+02 3.72066E+05 1.97333E+04-1.60795E+04-6.48743E-09-1.02327E-08
 -1       839 1.24162E+04 3.82839E+05 3.73246E+04-3.30604E+04-7.24640E-09-8.63525E-09
 -1       840-3.83925E+03 3.64383E+05 5.95169E+04-1.61045E+04-6.10089E-09 1.61586E-08
 -1       856-5.22366E+04 8.02353E+03-2.11437E+04-3.96900E+02 5.15092E-09 1.27684E-08
 -1       857-6.09472E+04-9.42746E+03-1.45551E+04 5.63218E+03 4.52286E-09 1.77342E-08
 -1       858-5.56863E+04 1.12523E+03-5.48628E+03-4.21030E+02 3.16692E-09 3.62888E-10
 -1       859-5.69884E+04-1.32386E+03-3.31071E+03 5.66807E+03-2.84628E-09 1.72590E-08
 -1       860-5.62016E+04 1.57591E+02-1.38752E+03-4.32518E+02-1.14298E-09-2.71541E-09
 -1       861-5.63956E+04-1.88209E+02-7.63285E+02 5.68371E+03-2.43817E-09-1.89250E-08
 -1       862-5.62823E+04 2.13548E+01-3.17257E+02-4.36653E+02-5.06100E-09-3.80950E-09
 -1       863-5.62967E+04-2.19357E+01-1.15499E+02 5.68611E+03-8.65391E-10 3.20119E-09
 -1       864-5.63010E+04-4.89958E+00 4.73498E+01-4.34918E+02-5.71562E-09 4.66231E-09
 -1       865-5.62410E+04 5.95967E+01 2.55554E+02 5.67621E+03-2.90737E-09-1.77338E-08
 -1       866-5.63359E+04-6.01948E+01 5.14937E+02-4.26746E+02-1.94143E-09-4.40127E-09
 -1       867-5.59988E+04 4.97039E+02 1.26742E+03 5.65402E+03 6.01435E-09 1.15680E-08
 -1       868-5.65382E+04-4.34443E+02 2.10606E+03-4.12734E+02-7.12294E-09 6.77414E-09
 -1       869-5.44548E+04 3.61565E+03 5.60770E+03 5.61754E+03-1.40051E-09-2.40050E-09
 -1       870-5.78721E+04-3.09411E+03 8.13804E+03-3.90153E+02-3.64366E-09-1.36424E-12
 -1       871-5.51439E+03-2.13245E+04-1.94819E+04 1.30361E+05-5.30963E-09-5.31873E-09
 -1       872-1.97925E+03-2.58551E+04-8.15746E+03 1.69033E+05-1.16443E-08-1.37879E-09
 -1       873 4.06617E+02-2.36635E+04 5.89760E+02 1.30074E+05-5.63750E-09-1.11835E-08
 -1       874 3.30680E+03-2.12542E+04 9.77551E+03 1.69062E+05-1.21581E-08 8.31437E-09
 -1       875 6.84530E+03-2.59923E+04 2.20526E+04 1.30313E+05-5.38057E-09-7.03494E-09
 -1       876 2.93640E+05 4.94869E+04 1.50934E+04 1.17834E+05 8.74013E-09 1.52850E-08
 -1       877 2.94637E+05 5.26656E+04 8.06047E+03 1.22164E+05 9.22341E-09 1.08885E-08
 -1       878 2.95051E+05 4.78149E+04 3.37694E+03 1.19070E+05-8.03584E-09-7.33394E-09
 -1       879 2.92586E+05 5.06180E+04 1.68260E+03 1.22266E+05 1.60253E-09 1.24469E-08
 -1       880 2.95152E+05 4.77977E+04 7.83736E+02 1.19121E+05-7.92352E-09-1.08071E-09
 -1       881 2.92450E+05 5.05304E+04 4.18550E+02 1.22242E+05-1.28316E-08-1.79463E-09
 -1       882 2.95161E+05 4.78109E+04 2.67800E+02 1.19122E+05-4.77553E-09-7.73159E-09
 -1       883 2.92440E+05 5.05259E+04 2.87957E+02 1.22235E+05-3.97961E-10-1.75911E-08
 -1       884 2.95155E+05 4.78081E+04 4.58127E+02 1.19123E+05 2.99224E-10 9.06141E-09
 -1       885 2.92476E+05 5.05322E+04 9.21121E+02 1.22246E+05-1.01721E-08 2.52733E-08
 -1       886 2.95119E+05 4.77812E+04 1.85650E+03 1.19119E+05-5.76060E-09-6.04450E-09
 -1       887 2.92803E+05 5.07462E+04 4.05526E+03 1.22293E+05 1.44414E-08 1.44618E-08
 -1       888 2.94863E+05 4.78264E+04 8.17147E+03 1.18989E+05 3.09797E-10 5.06543E-09
 -1       889 2.97667E+05 5.58052E+04 1.95201E+04 1.22144E+05-3.27823E-09-6.14637E-09
 -1       890 2.91527E+05 5.17883E+04 3.65607E+04 1.15880E+05-1.59298E-09-9.40781E-09
 -1       891-8.89312E+01-1.62702E+05-1.99560E+03 2.71384E+04 2.40561E-10 2.15800E-08
 -1       892-1.74707E+02-1.63229E+05-2.14328E+03 4.12117E+04 1.87629E-09 9.44601E-09
 -1       893 4.40704E+01-1.62766E+05-3.03462E+03 2.71457E+04-2.99588E-09 2.46660E-08
 -1       894-1.50883E+03-1.64376E+05-6.28049E+03 4.10592E+04 1.41154E-09 1.32641E-08
 -1       895-1.19835E+03-1.61458E+05-1.10599E+04 2.72927E+04-1.34446E-09 1.42336E-09
 -1       956-3.77042E+05-5.44773E+03-1.34475E+04 3.08431E+04 4.01542E-09-1.86585E-08
 -1       957-3.79681E+05-1.92195E+03-6.90238E+03 3.70648E+04-4.08545E-09-2.67009E-08
 -1       958-3.78251E+05-2.41018E+02-3.11043E+03 3.06755E+04 2.48656E-09-1.55756E-08
 -1       959-3.78447E+05-1.36446E+02-1.58824E+03 3.72603E+04 1.16797E-08-4.11956E-09
 -1       960-3.78369E+05-4.49918E+01-7.74500E+02 3.06582E+04 1.74077E-08 6.44218E-09
 -1       961-3.78367E+05-6.34498E+01-4.10631E+02 3.72807E+04 2.38686E-08 1.24169E-08
 -1       962-3.78396E+05-4.62219E+01-2.35096E+02 3.06554E+04 7.76799E-09 5.01655E-09
 -1       963-3.78367E+05-5.92630E+01-1.88725E+02 3.72844E+04 6.21355E-09 1.65992E-08
 -1       964-3.78402E+05-4.28697E+01-2.29505E+02 3.06546E+04 4.23454E-09-2.21257E-09
 -1       965-3.78379E+05-5.63028E+01-3.96950E+02 3.72837E+04-1.36242E-09 1.39596E-08
 -1       966-3.78386E+05-3.50297E+01-7.45860E+02 3.06561E+04 4.06135E-09-1.03068E-09
 -1       967-3.78469E+05-1.19815E+02-1.52974E+03 3.72693E+04-4.16867E-09-4.30919E-09
 -1       968-3.78282E+05-2.17440E+02-2.99469E+03 3.06688E+04 5.09090E-09 1.08629E-08
 -1       969-3.79669E+05-1.83395E+03-6.64813E+03 3.71210E+04 1.30785E-08 2.49310E-09
 -1       970-3.77126E+05-5.22838E+03-1.29509E+04 3.07958E+04 3.72711E-09 7.63612E-09
 -1       971-3.45238E+05-1.72707E+03-9.30697E+03 1.53761E+04 8.02083E-09-9.58162E-09
 -1       972-3.47478E+05-1.27158E+03-5.06848E+03 2.12645E+04 6.33054E-09-4.08863E-09
 -1       973-3.46275E+05-6.21621E+01-2.27022E+03 1.52551E+04 2.75122E-09-4.69436E-09
 -1       974-3.46410E+05-8.12635E+01-1.17681E+03 2.14016E+04-5.66160E-11 2.08156E-08
 -1       975-3.46357E+05-1.73027E+01-5.88708E+02 1.52427E+04-1.84218E-09 1.53203E-08
 -1       976-3.46348E+05-3.14371E+01-3.40483E+02 2.14173E+04 4.10637E-09 1.42387E-08
 -1       977-3.46373E+05-1.65583E+01-2.48622E+02 1.52393E+04 9.32459E-10 7.91022E-09
 -1       978-3.46354E+05-2.52151E+01-2.92992E+02 2.14222E+04 4.84079E-09-8.22365E-09
 -1       979-3.46373E+05-8.08391E+00-4.72509E+02 1.52379E+04-8.52594E-10 8.36189E-09
 -1       980-3.46389E+05-2.21550E+01-9.13462E+02 2.14232E+04-9.19641E-10-1.31429E-08
 -1       981-3.46344E+05 1.47487E+01-1.76974E+03 1.52384E+04 2.48110E-09-5.79121E-09
 -1       982-3.46632E+05-1.52919E+02-3.65835E+03 2.14166E+04 2.12913E-09 8.26834E-09
 -1       983-3.46121E+05-9.85720E+01-7.10836E+03 1.52444E+04-1.83445E-09 3.26600E-09
 -1       984-3.50051E+05-3.86540E+03-1.59190E+04 2.13309E+04-1.78261E-10-8.55289E-09
 -1       985-3.42903E+05-5.30003E+03-2.92321E+04 1.53158E+04-5.26552E-09-8.08359E-09
 -3
    1PSTEP                        25          13           1          
  100CL  113 6.62796E-01         409                     0   13           1
 -4  DISP        4    1
 -5  D1          1    2    1    0
 -5  D2          1    2    2    0
 -5  D3          1    2    3    0
 -5  ALL         1    2    0    0    1ALL
 -1         1 2.72935E-03 0.00000E+00 0.00000E+00
 -1         2 1.31565E-03-3.90034E-27 0.00000E+00
 -1         3 3.42727E-04-7.19962E-28-1.32349E-23
 -1         5 1.77128E-04-1.57387E-27-2.48154E-24
 -1         8 2.71875E-03-3.98983E-07 0.00000E+00
 -1         9 2.71191E-03-2.04750E-04 0.00000E+00
 -1        10 3.10774E-04-3.38833E-06-1.32349E-23
 -1        12 1.78961E-04 8.08981E-07 0.00000E+00
 -1        15 2.70668E-03-4.21713E-07 0.00000E+00
 -1        16 2.78360E-03-2.06650E-04 0.00000E+00
 -1        17 2.11497E-04-7.73092E-06 0.00000E+00
 -1        18 1.82901E-04 3.44900E-05 0.00000E+00
 -1        19 1.84494E-04 1.61947E-06 0.00000E+00
 -1        20 1.84633E-04-9.95023E-06 0.00000E+00
 -1        21 1.83740E-04-2.55522E-05 0.00000E+00
 -1        24 3.05951E-05-1.19513E-05 0.00000E+00
 -1        25 1.93709E-04 3.47155E-05 0.00000E+00
 -1        26 1.94390E-04 2.23937E-06 0.00000E+00
 -1        27 1.92190E-04-1.35074E-05 0.00000E+00
 -1        28 1.91874E-04-2.61742E-05 0.00000E+00
 -1        32 0.00000E+00 0.00000E+00 0.00000E+00
 -1        33 2.03282E-04 2.99288E-06 0.00000E+00
 -1        34 2.01164E-04-1.35636E-05 0.00000E+00
 -1        35 1.99233E-04-2.65166E-05 0.00000E+00
 -1        51 2.72863E-03-8.40924E-08 0.00000E+00
 -1        52 2.72733E-03-1.49684E-07 0.00000E+00
 -1        53 2.72556E-03-2.11757E-07 0.00000E+00
 -1        54 2.72346E-03-2.72543E-07 0.00000E+00
 -1        55 2.72114E-03-3.33808E-07-2.48154E-24
 -1        56 2.72107E-03 9.91591E-06-5.29396E-23
 -1        57 2.70431E-03 4.06672E-05 0.00000E+00
 -1        58 2.68158E-03 8.57525E-05-1.05879E-22
 -1        59 2.65603E-03 1.37316E-04-5.29396E-23
 -1        60 2.63155E-03 1.86391E-04 1.05879E-22
 -1        61 2.61185E-03 2.24211E-04 0.00000E+00
 -1        62 2.59948E-03 2.44015E-04 1.05879E-22
 -1        63 2.59605E-03 2.40645E-04 5.29396E-23
 -1        64 2.60129E-03 2.13208E-04 0.00000E+00
 -1        65 2.61412E-03 1.63104E-04 0.00000E+00
 -1        66 2.63230E-03 9.60647E-05 1.05879E-22
 -1        67 2.65335E-03 1.95065E-05 0.00000E+00
 -1        68 2.67448E-03-5.72910E-05-1.05879E-22
 -1        69 2.69291E-03-1.25018E-04-5.29396E-23
 -1        70 2.70609E-03-1.76142E-04 1.05879E-22
 -1        86 1.40348E-03-6.42310E-06 0.00000E+00
 -1        87 1.65723E-03-4.05857E-05-2.64698E-23
 -1        88 1.99847E-03-9.93990E-05 0.00000E+00
 -1        89 2.34449E-03-1.59904E-04 0.00000E+00
 -1        90 2.60978E-03-1.96942E-04 0.00000E+00
 -1       121 3.41830E-04-5.46987E-07 0.00000E+00
 -1       122 3.39142E-04-1.09706E-06 0.00000E+00
 -1       123 3.34672E-04-1.65326E-06 0.00000E+00
 -1       124 3.28438E-04-2.21863E-06 6.61744E-24
 -1       125 3.20462E-04-2.79582E-06-1.32349E-23
 -1       191 1.77179E-04 1.34882E-07 2.48154E-24
 -1       192 1.77332E-04 2.69753E-07-1.03398E-24
 -1       193 1.77587E-04 4.04606E-07 2.89513E-24
 -1       194 1.77944E-04 5.39431E-07 1.38940E-24
 -1       195 1.78402E-04 6.74220E-07-8.27181E-25
 -1       251 2.71845E-03 1.59215E-06 0.00000E+00
 -1       252 2.71815E-03 3.44639E-06 0.00000E+00
 -1       253 2.71784E-03 4.13405E-06 0.00000E+00
 -1       254 2.71754E-03 2.63990E-06 0.00000E+00
 -1       255 2.71722E-03-1.72155E-06 6.61744E-24
 -1       256 2.71689E-03-9.60004E-06 3.30872E-24
 -1       257 2.71652E-03-2.11141E-05 6.61744E-24
 -1       258 2.71610E-03-3.63370E-05 0.00000E+00
 -1       259 2.71564E-03-5.47822E-05 0.00000E+00
 -1       260 2.71512E-03-7.59228E-05 0.00000E+00
 -1       261 2.71456E-03-9.88247E-05 0.00000E+00
 -1       262 2.71398E-03-1.22533E-04 0.00000E+00
 -1       263 2.71341E-03-1.45969E-04 1.32349E-23
 -1       264 2.71287E-03-1.68059E-04-6.61744E-24
 -1       265 2.71237E-03-1.87934E-04-1.32349E-23
 -1       266 2.71674E-03-4.08305E-07-1.65436E-24
 -1       267 2.71473E-03-4.11419E-07 0.00000E+00
 -1       268 2.71272E-03-4.14926E-07 4.13590E-25
 -1       269 2.71070E-03-4.17268E-07 2.06795E-25
 -1       270 2.70869E-03-4.19583E-07 2.06795E-25
 -1       271 2.71797E-03-4.96358E-08 0.00000E+00
 -1       272 2.71820E-03-2.47902E-06 0.00000E+00
 -1       273 2.71941E-03-7.51856E-06 0.00000E+00
 -1       274 2.72150E-03-1.49865E-05-6.61744E-24
 -1       275 2.72441E-03-2.46796E-05-2.64698E-23
 -1       276 2.72805E-03-3.63789E-05-1.32349E-23
 -1       277 2.73233E-03-4.98487E-05 0.00000E+00
 -1       278 2.73716E-03-6.48398E-05 0.00000E+00
 -1       279 2.74243E-03-8.10911E-05-1.32349E-23
 -1       280 2.74807E-03-9.83315E-05 0.00000E+00
 -1       281 2.75395E-03-1.16282E-04 0.00000E+00
 -1       282 2.75999E-03-1.34657E-04 0.00000E+00
 -1       283 2.76607E-03-1.53170E-04 1.32349E-23
 -1       284 2.77210E-03-1.71532E-04 0.00000E+00
 -1       285 2.77798E-03-1.89454E-04-1.32349E-23
 -1       301 2.72493E-03-2.05103E-04 6.61744E-24
 -1       302 2.73627E-03-2.05407E-04 0.00000E+00
 -1       303 2.74686E-03-2.05701E-04 0.00000E+00
 -1       304 2.75765E-03-2.05995E-04 0.00000E+00
 -1       305 2.76958E-03-2.06303E-04 0.00000E+00
 -1       306 2.75008E-03-3.60636E-04 0.00000E+00
 -1       307 2.81394E-03-7.75943E-04 5.29396E-23
 -1       308 2.86050E-03-1.38196E-03 0.00000E+00
 -1       309 2.88441E-03-2.08233E-03 0.00000E+00
 -1       310 2.91601E-03-2.75116E-03 0.00000E+00
 -1       311 2.97572E-03-3.26536E-03-5.29396E-23
 -1       312 3.03324E-03-3.54453E-03 1.05879E-22
 -1       313 3.02733E-03-3.55134E-03-5.29396E-23
 -1       314 2.88407E-03-3.29834E-03-1.05879E-22
 -1       315 2.56287E-03-2.85045E-03 0.00000E+00
 -1       316 2.08265E-03-2.28441E-03 0.00000E+00
 -1       317 1.50990E-03-1.66941E-03-5.29396E-23
 -1       318 9.59263E-04-1.06580E-03 0.00000E+00
 -1       319 5.38835E-04-5.38467E-04 0.00000E+00
 -1       320 2.92259E-04-1.61629E-04 0.00000E+00
 -1       336 2.99186E-04-4.04352E-06 1.32349E-23
 -1       337 2.85523E-04-4.72440E-06 0.00000E+00
 -1       338 2.69844E-04-5.43320E-06 0.00000E+00
 -1       339 2.52225E-04-6.17076E-06 0.00000E+00
 -1       340 2.32745E-04-6.94156E-06 0.00000E+00
 -1       406 1.79622E-04 9.44940E-07 2.48154E-24
 -1       407 1.80387E-04 1.08081E-06-4.00666E-25
 -1       408 1.81256E-04 1.21652E-06-8.27181E-25
 -1       409 1.82231E-04 1.35189E-06-5.16988E-25
 -1       410 1.83310E-04 1.48664E-06 2.89513E-24
 -1       521 2.82236E-03-3.71855E-04 1.05879E-22
 -1       522 2.88439E-03-8.07795E-04 0.00000E+00
 -1       523 2.92433E-03-1.44228E-03 0.00000E+00
 -1       524 2.93877E-03-2.17206E-03 0.00000E+00
 -1       525 2.96226E-03-2.86828E-03 1.05879E-22
 -1       526 3.01837E-03-3.40508E-03 0.00000E+00
 -1       527 3.07550E-03-3.69504E-03 0.00000E+00
 -1       528 3.06720E-03-3.69991E-03 1.05879E-22
 -1       529 2.91149E-03-3.43231E-03-2.11758E-22
 -1       530 2.56548E-03-2.96533E-03 0.00000E+00
 -1       531 2.04897E-03-2.37962E-03-1.05879E-22
 -1       532 1.43504E-03-1.74695E-03 5.29396E-23
 -1       533 8.43994E-04-1.12500E-03 0.00000E+00
 -1       534 3.89308E-04-5.76290E-04 0.00000E+00
 -1       535 1.21009E-04-1.79482E-04 0.00000E+00
 -1       536 2.10742E-04 2.72093E-05-6.61744E-24
 -1       537 2.08821E-04 8.76852E-05 0.00000E+00
 -1       538 2.05854E-04 1.64424E-04 0.00000E+00
 -1       539 2.02353E-04 2.48070E-04-1.65436E-24
 -1       540 1.99203E-04 3.27111E-04 0.00000E+00
 -1       541 1.97155E-04 3.90059E-04 1.65436E-24
 -1       542 1.96211E-04 4.30156E-04 0.00000E+00
 -1       543 1.95985E-04 4.40791E-04-1.65436E-24
 -1       544 1.95663E-04 4.22740E-04 0.00000E+00
 -1       545 1.94489E-04 3.76995E-04 0.00000E+00
 -1       546 1.92301E-04 3.11689E-04-3.30872E-24
 -1       547 1.89340E-04 2.35074E-04 0.00000E+00
 -1       548 1.86405E-04 1.58833E-04 0.00000E+00
 -1       549 1.84288E-04 9.46527E-05-1.65436E-24
 -1       550 1.83188E-04 5.05682E-05 0.00000E+00
 -1       551 1.86290E-04-8.29947E-06 0.00000E+00
 -1       552 1.57839E-04-8.94849E-06 0.00000E+00
 -1       553 1.27085E-04-9.65978E-06 9.92617E-24
 -1       554 9.49876E-05-1.04123E-05-3.30872E-24
 -1       555 6.25062E-05-1.11785E-05 1.32349E-23
 -1       556 2.03846E-04 1.18312E-05 0.00000E+00
 -1       557 1.97665E-04 2.76973E-05 0.00000E+00
 -1       558 1.92818E-04 4.01554E-05 0.00000E+00
 -1       559 1.89174E-04 4.95159E-05-2.64698E-23
 -1       560 1.86601E-04 5.60896E-05 0.00000E+00
 -1       561 1.84973E-04 6.01897E-05 0.00000E+00
 -1       562 1.84163E-04 6.21308E-05 0.00000E+00
 -1       563 1.84048E-04 6.22286E-05 0.00000E+00
 -1       564 1.84506E-04 6.07994E-05 0.00000E+00
 -1       565 1.85416E-04 5.81602E-05-6.61744E-24
 -1       566 1.86658E-04 5.46286E-05 0.00000E+00
 -1       567 1.88114E-04 5.05228E-05 0.00000E+00
 -1       568 1.89664E-04 4.61608E-05 0.00000E+00
 -1       569 1.91192E-04 4.18609E-05-8.27181E-25
 -1       570 1.92579E-04 3.79412E-05 0.00000E+00
 -1       571 1.82998E-04 3.23578E-05-2.48154E-24
 -1       572 1.83097E-04 3.01600E-05 4.13590E-25
 -1       573 1.83196E-04 2.79122E-05 0.00000E+00
 -1       574 1.83295E-04 2.56307E-05-1.65436E-24
 -1       575 1.83394E-04 2.33320E-05 3.30872E-24
 -1       576 1.83494E-04 2.10325E-05-1.65436E-24
 -1       577 1.83593E-04 1.87487E-05 3.30872E-24
 -1       578 1.83693E-04 1.64971E-05 0.00000E+00
 -1       579 1.83792E-04 1.42942E-05 6.61744E-24
 -1       580 1.83892E-04 1.21565E-05 0.00000E+00
 -1       581 1.83992E-04 1.01005E-05 6.61744E-24
 -1       582 1.84092E-04 8.14277E-06 0.00000E+00
 -1       583 1.84192E-04 6.29968E-06 0.00000E+00
 -1       584 1.84293E-04 4.58757E-06 3.30872E-24
 -1       585 1.84393E-04 3.02257E-06 0.00000E+00
 -1       586 1.84662E-04 3.45297E-05 1.65436E-24
 -1       587 1.86381E-04 3.45688E-05 0.00000E+00
 -1       588 1.88102E-04 3.46076E-05 0.00000E+00
 -1       589 1.89868E-04 3.46457E-05 0.00000E+00
 -1       590 1.91723E-04 3.46826E-05 0.00000E+00
 -1       591 1.83632E-04 3.24514E-05 1.03398E-25
 -1       592 1.84366E-04 3.03929E-05 0.00000E+00
 -1       593 1.85105E-04 2.83203E-05 0.00000E+00
 -1       594 1.85848E-04 2.62384E-05 0.00000E+00
 -1       595 1.86591E-04 2.41518E-05 0.00000E+00
 -1       596 1.87335E-04 2.20653E-05 4.13590E-25
 -1       597 1.88076E-04 1.99837E-05-8.27181E-25
 -1       598 1.88815E-04 1.79115E-05-4.13590E-25
 -1       599 1.89547E-04 1.58535E-05 0.00000E+00
 -1       600 1.90273E-04 1.38143E-05 0.00000E+00
 -1       601 1.90990E-04 1.17987E-05 0.00000E+00
 -1       602 1.91697E-04 9.81127E-06 0.00000E+00
 -1       603 1.92392E-04 7.85679E-06 4.13590E-25
 -1       604 1.93073E-04 5.94005E-06 5.16988E-26
 -1       605 1.93738E-04 4.06562E-06-4.13590E-25
 -1       606 1.84507E-04 4.49538E-07 0.00000E+00
 -1       607 1.84516E-04-6.34527E-07 0.00000E+00
 -1       608 1.84525E-04-1.63776E-06 0.00000E+00
 -1       609 1.84534E-04-2.56586E-06 0.00000E+00
 -1       610 1.84542E-04-3.42455E-06 0.00000E+00
 -1       611 1.84550E-04-4.21963E-06 0.00000E+00
 -1       612 1.84559E-04-4.95690E-06 0.00000E+00
 -1       613 1.84567E-04-5.64219E-06 0.00000E+00
 -1       614 1.84575E-04-6.28129E-06-1.65436E-24
 -1       615 1.84584E-04-6.88003E-06 8.27181E-25
 -1       616 1.84592E-04-7.44421E-06 0.00000E+00
 -1       617 1.84600E-04-7.97965E-06 4.13590E-25
 -1       618 1.84609E-04-8.49216E-06 0.00000E+00
 -1       619 1.84617E-04-8.98755E-06 2.06795E-25
 -1       620 1.84625E-04-9.47164E-06-2.06795E-25
 -1       621 1.85858E-04 1.72336E-06 1.65436E-24
 -1       622 1.87380E-04 1.82749E-06-1.65436E-24
 -1       623 1.89028E-04 1.93141E-06 1.65436E-24
 -1       624 1.90768E-04 2.03499E-06 1.65436E-24
 -1       625 1.92567E-04 2.13828E-06-1.65436E-24
 -1       626 1.85044E-04 4.85633E-07 0.00000E+00
 -1       627 1.85572E-04-5.85122E-07 3.30872E-24
 -1       628 1.86080E-04-1.60064E-06 0.00000E+00
 -1       629 1.86570E-04-2.56910E-06 0.00000E+00
 -1       630 1.87045E-04-3.49869E-06-3.30872E-24
 -1       631 1.87509E-04-4.39762E-06 0.00000E+00
 -1       632 1.87965E-04-5.27408E-06 0.00000E+00
 -1       633 1.88416E-04-6.13632E-06-1.65436E-24
 -1       634 1.88864E-04-6.99253E-06-3.30872E-24
 -1       635 1.89313E-04-7.85091E-06 1.65436E-24
 -1       636 1.89765E-04-8.71970E-06 3.30872E-24
 -1       637 1.90225E-04-9.60710E-06 0.00000E+00
 -1       638 1.90695E-04-1.05213E-05 0.00000E+00
 -1       639 1.91177E-04-1.14706E-05 8.27181E-25
 -1       640 1.91675E-04-1.24632E-05 0.00000E+00
 -1       656 1.85344E-04-1.05284E-05-6.61744E-24
 -1       657 1.86475E-04-1.11300E-05-6.61744E-24
 -1       658 1.87887E-04-1.17303E-05 0.00000E+00
 -1       659 1.89433E-04-1.23302E-05 6.61744E-24
 -1       660 1.90928E-04-1.29320E-05 0.00000E+00
 -1       661 1.84899E-04-1.04739E-05-8.27181E-25
 -1       662 1.85203E-04-1.10894E-05 8.27181E-25
 -1       663 1.85539E-04-1.17914E-05 0.00000E+00
 -1       664 1.85906E-04-1.25736E-05 0.00000E+00
 -1       665 1.86300E-04-1.34300E-05 0.00000E+00
 -1       666 1.86720E-04-1.43547E-05 0.00000E+00
 -1       667 1.87164E-04-1.53422E-05 0.00000E+00
 -1       668 1.87629E-04-1.63868E-05-8.27181E-25
 -1       669 1.88113E-04-1.74831E-05 0.00000E+00
 -1       670 1.88615E-04-1.86258E-05 8.27181E-25
 -1       671 1.89132E-04-1.98097E-05 0.00000E+00
 -1       672 1.89662E-04-2.10298E-05 8.27181E-25
 -1       673 1.90204E-04-2.22810E-05-1.65436E-24
 -1       674 1.90755E-04-2.35586E-05 0.00000E+00
 -1       675 1.91314E-04-2.48573E-05 0.00000E+00
 -1       676 1.85101E-04-2.56565E-05 3.30872E-24
 -1       677 1.86460E-04-2.57607E-05 0.00000E+00
 -1       678 1.87818E-04-2.58649E-05 0.00000E+00
 -1       679 1.89174E-04-2.59687E-05-1.65436E-24
 -1       680 1.90526E-04-2.60726E-05 0.00000E+00
 -1       771 1.86376E-05 1.47911E-05 0.00000E+00
 -1       772 8.57819E-06 3.67543E-05 0.00000E+00
 -1       773 3.26028E-07 5.41687E-05 0.00000E+00
 -1       774-6.24332E-06 6.72925E-05 2.64698E-23
 -1       775-1.12516E-05 7.63941E-05 0.00000E+00
 -1       776-1.48255E-05 8.17589E-05-2.64698E-23
 -1       777-1.70913E-05 8.36823E-05 0.00000E+00
 -1       778-1.81782E-05 8.24736E-05-2.64698E-23
 -1       779-1.82145E-05 7.84505E-05 0.00000E+00
 -1       780-1.73306E-05 7.19422E-05 0.00000E+00
 -1       781-1.56560E-05 6.32847E-05-5.29396E-23
 -1       782-1.33217E-05 5.28230E-05 0.00000E+00
 -1       783-1.04577E-05 4.09065E-05 5.29396E-23
 -1       784-7.19562E-06 2.78910E-05 0.00000E+00
 -1       785-3.66565E-06 1.41351E-05-5.29396E-23
 -1       786 1.93747E-04 3.24584E-05-1.29247E-26
 -1       787 1.93789E-04 3.02513E-05 0.00000E+00
 -1       788 1.93831E-04 2.80859E-05 8.27181E-25
 -1       789 1.93873E-04 2.59540E-05-8.27181E-25
 -1       790 1.93916E-04 2.38508E-05 0.00000E+00
 -1       791 1.93959E-04 2.17718E-05 0.00000E+00
 -1       792 1.94001E-04 1.97145E-05 1.65436E-24
 -1       793 1.94044E-04 1.76770E-05 0.00000E+00
 -1       794 1.94087E-04 1.56589E-05 0.00000E+00
 -1       795 1.94130E-04 1.36601E-05 0.00000E+00
 -1       796 1.94173E-04 1.16826E-05 1.65436E-24
 -1       797 1.94216E-04 9.72808E-06 8.27181E-25
 -1       798 1.94260E-04 7.80090E-06-1.65436E-24
 -1       799 1.94303E-04 5.90536E-06 0.00000E+00
 -1       800 1.94346E-04 4.04897E-06 1.65436E-24
 -1       801 1.47862E-04 3.12105E-05 0.00000E+00
 -1       802 9.24678E-06 1.94710E-05 0.00000E+00
 -1       803-1.09125E-04 9.83793E-06 0.00000E+00
 -1       804-9.66760E-05 6.84865E-06 0.00000E+00
 -1       805-3.19317E-05 2.68927E-06-5.29396E-23
 -1       806 1.94440E-04 3.23897E-05-1.65436E-24
 -1       807 1.95157E-04 3.00900E-05-1.65436E-24
 -1       808 1.95862E-04 2.78216E-05 0.00000E+00
 -1       809 1.96553E-04 2.55886E-05 1.65436E-24
 -1       810 1.97229E-04 2.33952E-05-3.30872E-24
 -1       811 1.97889E-04 2.12450E-05 1.65436E-24
 -1       812 1.98532E-04 1.91423E-05-3.30872E-24
 -1       813 1.99155E-04 1.70908E-05 0.00000E+00
 -1       814 1.99758E-04 1.50945E-05 0.00000E+00
 -1       815 2.00338E-04 1.31573E-05-1.65436E-24
 -1       816 2.00896E-04 1.12831E-05 0.00000E+00
 -1       817 2.01428E-04 9.47581E-06 8.27181E-25
 -1       818 2.01934E-04 7.73927E-06-1.65436E-24
 -1       819 2.02412E-04 6.07739E-06 8.27181E-25
 -1       820 2.02861E-04 4.49400E-06 3.30872E-24
 -1       821 1.94261E-04-1.24178E-07 0.00000E+00
 -1       822 1.94121E-04-3.63698E-06 0.00000E+00
 -1       823 1.93978E-04-7.87245E-06 0.00000E+00
 -1       824 1.93833E-04-1.23995E-05-1.65436E-24
 -1       825 1.93689E-04-1.67082E-05 0.00000E+00
 -1       826 1.93548E-04-2.02900E-05-1.65436E-24
 -1       827 1.93409E-04-2.28341E-05 3.30872E-24
 -1       828 1.93272E-04-2.40362E-05 1.65436E-24
 -1       829 1.93137E-04-2.39573E-05 3.30872E-24
 -1       830 1.93000E-04-2.26661E-05 0.00000E+00
 -1       831 1.92863E-04-2.05611E-05 0.00000E+00
 -1       832 1.92724E-04-1.80461E-05 0.00000E+00
 -1       833 1.92587E-04-1.56364E-05 3.30872E-24
 -1       834 1.92451E-04-1.38468E-05 1.65436E-24
 -1       835 1.92317E-04-1.30236E-05 0.00000E+00
 -1       836 1.96084E-04 2.36432E-06 0.00000E+00
 -1       837 1.97652E-04 2.49242E-06 1.65436E-24
 -1       838 1.99123E-04 2.62046E-06 0.00000E+00
 -1       839 2.00531E-04 2.74780E-06 0.00000E+00
 -1       840 2.01907E-04 2.87498E-06 8.27181E-25
 -1       856 1.92174E-04-1.45740E-05 0.00000E+00
 -1       857 1.92155E-04-1.55049E-05 0.00000E+00
 -1       858 1.92136E-04-1.63212E-05-2.06795E-25
 -1       859 1.92116E-04-1.70440E-05 2.06795E-25
 -1       860 1.92096E-04-1.76946E-05 0.00000E+00
 -1       861 1.92076E-04-1.82943E-05 0.00000E+00
 -1       862 1.92057E-04-1.88642E-05 0.00000E+00
 -1       863 1.92037E-04-1.94259E-05-4.13590E-25
 -1       864 1.92017E-04-2.00005E-05 0.00000E+00
 -1       865 1.91997E-04-2.06095E-05 4.13590E-25
 -1       866 1.91977E-04-2.12742E-05 0.00000E+00
 -1       867 1.91957E-04-2.20158E-05 0.00000E+00
 -1       868 1.91937E-04-2.28555E-05-8.27181E-25
 -1       869 1.91917E-04-2.38144E-05 0.00000E+00
 -1       870 1.91896E-04-2.49137E-05 8.27181E-25
 -1       871 1.93545E-04-1.35123E-05 8.27181E-25
 -1       872 1.95046E-04-1.35206E-05 0.00000E+00
 -1       873 1.96627E-04-1.35297E-05 4.13590E-25
 -1       874 1.98219E-04-1.35394E-05-1.29247E-25
 -1       875 1.99754E-04-1.35498E-05 2.06795E-25
 -1       876 1.92717E-04-1.45595E-05 0.00000E+00
 -1       877 1.93222E-04-1.55447E-05 1.65436E-24
 -1       878 1.93706E-04-1.64712E-05 0.00000E+00
 -1       879 1.94170E-04-1.73462E-05 0.00000E+00
 -1       880 1.94618E-04-1.81771E-05 0.00000E+00
 -1       881 1.95052E-04-1.89715E-05 0.00000E+00
 -1       882 1.95475E-04-1.97365E-05 0.00000E+00
 -1       883 1.95890E-04-2.04795E-05 0.00000E+00
 -1       884 1.96300E-04-2.12079E-05-3.30872E-24
 -1       885 1.96706E-04-2.19290E-05 1.65436E-24
 -1       886 1.97113E-04-2.26502E-05 3.30872E-24
 -1       887 1.97523E-04-2.33788E-05 1.65436E-24
 -1       888 1.97937E-04-2.41221E-05 0.00000E+00
 -1       889 1.98360E-04-2.48876E-05-1.65436E-24
 -1       890 1.98792E-04-2.56827E-05 0.00000E+00
 -1       891 1.93243E-04-2.62317E-05 0.00000E+00
 -1       892 1.94588E-04-2.62894E-05 8.27181E-25
 -1       893 1.95885E-04-2.63469E-05-8.27181E-25
 -1       894 1.97108E-04-2.64043E-05 0.00000E+00
 -1       895 1.98232E-04-2.64613E-05 4.13590E-25
 -1       956 2.03151E-04 1.66635E-06 3.30872E-24
 -1       957 2.03019E-04 4.31336E-07 8.27181E-25
 -1       958 2.02887E-04-7.22901E-07-3.30872E-24
 -1       959 2.02754E-04-1.80769E-06 0.00000E+00
 -1       960 2.02621E-04-2.83441E-06 0.00000E+00
 -1       961 2.02488E-04-3.81448E-06 0.00000E+00
 -1       962 2.02355E-04-4.75930E-06 3.30872E-24
 -1       963 2.02223E-04-5.68034E-06 0.00000E+00
 -1       964 2.02090E-04-6.58902E-06 0.00000E+00
 -1       965 2.01957E-04-7.49678E-06 0.00000E+00
 -1       966 2.01825E-04-8.41506E-06 0.00000E+00
 -1       967 2.01692E-04-9.35531E-06 0.00000E+00
 -1       968 2.01559E-04-1.03289E-05 0.00000E+00
 -1       969 2.01427E-04-1.13474E-05-3.30872E-24
 -1       970 2.01295E-04-1.24219E-05-3.30872E-24
 -1       971 2.01044E-04-1.47047E-05 3.30872E-24
 -1       972 2.00923E-04-1.57514E-05 1.65436E-24
 -1       973 2.00802E-04-1.67138E-05-3.30872E-24
 -1       974 2.00680E-04-1.76030E-05 1.65436E-24
 -1       975 2.00559E-04-1.84298E-05 0.00000E+00
 -1       976 2.00438E-04-1.92049E-05 1.65436E-24
 -1       977 2.00316E-04-1.99394E-05 0.00000E+00
 -1       978 2.00195E-04-2.06440E-05 0.00000E+00
 -1       979 2.00074E-04-2.13298E-05 0.00000E+00
 -1       980 1.99952E-04-2.20075E-05 0.00000E+00
 -1       981 1.99831E-04-2.26882E-05 0.00000E+00
 -1       982 1.99710E-04-2.33827E-05 1.65436E-24
 -1       983 1.99589E-04-2.41019E-05 3.30872E-24
 -1       984 1.99468E-04-2.48568E-05 0.00000E+00
 -1       985 1.99348E-04-2.56581E-05-3.30872E-24
 -3
    1PSTEP                        26          13           1          
  100CL  113 6.62796E-01         409                     0   13           1
 -4  STRESS      6    1
 -5  SXX         1    4    1    1
 -5  SYY         1    4    2    2
 -5  SZZ         1    4    3    3
 -5  SXY         1    4    1    2
 -5  SYZ         1    4    2    3
 -5  SZX         1    4    3    1
 -1         1-5.34854E+06-1.55675E+06-1.13155E+06-1.30602E+06 8.29459E-10-2.01893E-07
 -1         2 1.57118E+06 2.29750E+07 5.32354E+06 6.97081E+06 2.67755E-08 1.90412E-07
 -1         3-1.48780E+03-1.55304E+06 4.04792E+02-2.20413E+03-6.22681E-10-4.07599E-08
 -1         5-7.46890E+01 3.86241E+05-1.59367E-01 7.38137E+00-3.82414E-10-2.35286E-08
 -1         8-5.49832E+05-1.99713E+05-6.25693E+04-2.40804E+05 5.80258E-10-4.76684E-08
 -1         9 1.18430E+07 4.03704E+06 2.84206E+06-2.74797E+05 1.04774E-09 4.56581E-08
 -1        10-2.30266E+03-1.61838E+06-3.93355E+03-1.49154E+04-1.42500E-08-2.01362E-08
 -1        12-7.86334E+01 3.88197E+05 3.17546E+02-1.50973E+01 1.82263E-09 7.22409E-09
 -1        15 9.17034E+02 5.03955E+02 2.96429E+03 7.97579E-01-4.67864E-10 2.59848E-07
 -1        16 2.29344E+07-3.40868E+05 3.11905E+06-2.31384E+06 1.35818E-10 1.82850E-07
 -1        17 8.40131E+06 6.29317E+06 2.26894E+06 6.01875E+06 2.50177E-08 3.96045E-08
 -1        18 1.42587E+05 3.35681E+04 4.23643E+03-1.19505E+05 1.17579E-08 4.78576E-09
 -1        19 1.22494E+05 1.42331E+05-8.84269E+02 2.19685E+04 1.35460E-09-6.67205E-10
 -1        20-8.18755E+04-5.73448E+05-1.28674E+05 2.51256E+04-2.86688E-09 6.29067E-09
 -1        21-4.55581E+01-2.95937E+05-9.23782E+02 2.76122E+02 1.37608E-08-4.38675E-09
 -1        24 1.41022E+07 1.21366E+07 3.90209E+06 1.12362E+07-1.64475E-07-5.36481E-08
 -1        25 1.25616E+05 2.69636E+05 1.00588E+05-6.47346E+05 1.32277E-09 8.38318E-09
 -1        26-5.53611E+04 9.22587E+04-2.46209E+04 1.27536E+03-1.98997E-10 1.30686E-08
 -1        27-7.55785E+04-3.09823E+05-1.13267E+05 6.89431E+04 4.51519E-09 6.28825E-09
 -1        28 2.22340E+04-8.53220E+04 1.68928E+04 2.06152E+04-4.00786E-09 6.62399E-09
 -1        32-1.68025E+06-3.18238E+06-1.97860E+05 4.61385E+05-4.25571E-08-9.96442E-09
 -1        33-1.78398E+05 9.29679E+04 3.23758E+04-3.84891E+04-3.08160E-09-1.13729E-08
 -1        34-2.23518E+05-2.50191E+04 6.89307E+02 7.56223E+04-3.74091E-09-3.39060E-09
 -1        35-2.29241E+04-3.38373E+04-1.34800E+03 5.14834E+04-4.29145E-09 6.03662E-09
 -1        51 6.09784E+04-1.69653E+05 1.28873E+05-4.31007E+05-5.82077E-11-4.77085E-08
 -1        52 2.05991E+04-1.47080E+05 6.75338E+04-5.02694E+05 2.54659E-10 4.59986E-08
 -1        53 4.14244E+03-1.62421E+05 3.50227E+04-4.29533E+05 4.23825E-10 4.48126E-08
 -1        54 7.20319E+03-1.58202E+05 2.84867E+04-5.04132E+05-3.63798E-11-2.67488E-07
 -1        55 1.57155E+04-1.65094E+05 3.43080E+04-4.29451E+05 2.94676E-10 2.73112E-07
 -1        56-9.82578E+06-1.41520E+06-9.33062E+05-4.12686E+06 4.45289E-09-1.85275E-07
 -1        57-1.11663E+07-7.20810E+05-5.42516E+05-2.62916E+06 3.55212E-08 8.90577E-09
 -1        58-9.57851E+06-1.89765E+06-2.02355E+05-4.34103E+06 1.33296E-08-1.95105E-07
 -1        59-1.14107E+07-1.56795E+05-1.06075E+05-2.55132E+06-4.24507E-08-1.38825E-07
 -1        60-9.68008E+06-1.90058E+06-5.98055E+04-4.29138E+06-1.32713E-08-2.48619E-08
 -1        61-1.06611E+07-5.36621E+05 2.52008E+04-2.80765E+06-3.93629E-09 1.05589E-07
 -1        62-1.01629E+07-1.62954E+06-9.10216E+04-3.95234E+06-1.62981E-09 1.04679E-07
 -1        63-9.63102E+06-1.33596E+06 6.91724E+04-3.57757E+06-1.20126E-08 2.43308E-08
 -1        64-1.05752E+07-1.19770E+06-8.38737E+04-3.43700E+06-1.67202E-08-8.06867E-08
 -1        65-9.24168E+06-2.00508E+06 2.12595E+04-4.60697E+06-5.44242E-08-1.42668E-07
 -1        66-1.07066E+07-8.53243E+05-4.83382E+04-3.04001E+06-5.73345E-09-1.01978E-07
 -1        67-9.28505E+06-2.27973E+06-9.53127E+04-5.10002E+06-1.98934E-08-1.50103E-07
 -1        68-1.06868E+07-8.13709E+05-1.88719E+05-3.03915E+06-8.24111E-08-1.82423E-07
 -1        69-9.43520E+06-2.34368E+06-4.80846E+05-4.57519E+06-4.87616E-08-3.16883E-07
 -1        70-1.04116E+07-9.03312E+05-8.59085E+05-3.47166E+06 3.05845E-08-1.17114E-07
 -1        86-1.60340E+06-1.61610E+07-2.91540E+06-3.27049E+06-2.79924E-07-1.43191E-07
 -1        87 2.53459E+06 6.67687E+06 2.42426E+06 5.98574E+06-4.77645E-07-2.31408E-07
 -1        88-4.84246E+05-1.88747E+06 2.30948E+05-2.63555E+06-4.24989E-07-4.25371E-08
 -1        89 3.39250E+06 6.35732E+06 2.48572E+06 6.19181E+06-6.08779E-07-1.31811E-07
 -1        90-2.35973E+06-1.59228E+07-3.14510E+06-3.50885E+06-1.41281E-07 8.71223E-08
 -1       121-2.03794E+03-1.55794E+06-5.48348E+02 1.09244E+03 1.43692E-09 2.97150E-08
 -1       122-1.30268E+03-1.55310E+06 7.67114E+02-4.41247E+03-5.28026E-09 2.82780E-08
 -1       123-2.05765E+03-1.55808E+06 2.56703E+02 3.26269E+03 4.54929E-09-1.60799E-09
 -1       124 3.27841E+02-1.55266E+06 2.93871E+03-9.23521E+03-1.08048E-08 1.44864E-08
 -1       125-2.86372E+03-1.55897E+06 3.44396E+03 5.86919E+03 6.15546E-09-2.48838E-09
 -1       191-7.90009E+01 3.86260E+05-4.13750E+00-3.66262E+00-5.69656E-10-5.19867E-09
 -1       192-7.93128E+01 3.86240E+05-1.77671E+00 3.72541E+01-8.26617E-10 1.29721E-08
 -1       193-9.33958E+01 3.86260E+05-9.25171E+00-3.34121E+01-1.10140E-09 1.79625E-08
 -1       194-1.28561E+02 3.86226E+05-2.25902E+01 3.03094E+02-6.20730E-10 2.15596E-08
 -1       195-2.30759E+02 3.86263E+05-5.65124E+01-2.69163E+02-1.25510E-09 1.13687E-08
 -1       251-8.62601E+05 1.63201E+04-3.80915E+04-1.47022E+04 4.30126E-09 1.42634E-07
 -1       252-8.76921E+05-1.88920E+04-2.64840E+04 5.22266E+04-4.23915E-09 1.45872E-07
 -1       253-8.71182E+05 2.50498E+03-1.02808E+04-1.03609E+04-2.93403E-09 2.68347E-07
 -1       254-8.63092E+05-3.04811E+03-4.51433E+03 3.72093E+04 9.86074E-09 5.17812E-08
 -1       255-8.75779E+05 4.08872E+01-3.62154E+03 3.10933E+02-7.07314E-09 7.91283E-08
 -1       256-8.57426E+05-2.73674E+02 1.30949E+03 1.29898E+04 6.71525E-09 2.14389E-07
 -1       257-8.76379E+05-6.16638E+02-1.47539E+03 1.38461E+04-8.37872E-10 4.09041E-07
 -1       258-8.60432E+05 9.57674E+02 2.82373E+03-1.24760E+04-5.65205E-09 2.66330E-08
 -1       259-8.73036E+05-9.87793E+02 1.33378E+03 2.57741E+04-4.71050E-09 4.82112E-09
 -1       260-8.67266E+05 3.03783E+03 5.63162E+03-3.08499E+04 1.08848E-08 1.10072E-09
 -1       261-8.70221E+05-2.17665E+03 8.68565E+03 3.22379E+04 6.94564E-09 1.32270E-07
 -1       262-8.66120E+05 1.19357E+04 2.15864E+04-3.62374E+04-1.88237E-08-1.06118E-07
 -1       263-8.74451E+05-9.64397E+03 3.41829E+04 3.11721E+04 1.43438E-08-3.16100E-07
 -1       264-8.35221E+05 6.73765E+04 9.47180E+04-2.67719E+04 3.62550E-09-4.96622E-07
 -1       265-9.00596E+05-5.77686E+04 1.31758E+05 2.27588E+04-1.30251E-09 7.55026E-08
 -1       266-1.66016E+04-7.76377E+03 3.89482E+04-1.70643E+01-5.82077E-11-1.69976E-07
 -1       267 1.92456E+04 9.04753E+03 2.75300E+04 1.96906E+01-8.00355E-11-1.06940E-10
 -1       268-2.58081E+03-1.28145E+03 1.02327E+04-2.50882E+00-4.13820E-11-2.21538E-07
 -1       269 3.04716E+03 1.53355E+03 6.65117E+03 2.92251E+00 1.72804E-11-1.74748E-07
 -1       270-4.57383E+02-2.51977E+02 3.21061E+03-3.96601E-01-4.97948E-11-2.66421E-07
 -1       271-1.45625E+06-1.86044E+05-1.09801E+05-5.67135E+05 1.51813E-08-6.71425E-08
 -1       272-1.44767E+06-3.00886E+05-6.87930E+04-6.08832E+05 2.81798E-08-3.84186E-07
 -1       273-1.47955E+06-2.09080E+05-2.66913E+04-5.59094E+05-2.17406E-08-3.15913E-07
 -1       274-1.42137E+06-2.73077E+05-1.37877E+04-6.24226E+05 3.58123E-08-4.93646E-08
 -1       275-1.48516E+06-2.08483E+05-6.68678E+03-5.55289E+05 4.93310E-09-2.46095E-07
 -1       276-1.41594E+06-2.74105E+05-2.76688E+03-6.33073E+05-3.33512E-08-1.29522E-07
 -1       277-1.48802E+06-2.05771E+05-1.86124E+03-5.52535E+05 2.22590E-08-2.00180E-09
 -1       278-1.41391E+06-2.77311E+05-6.76946E+02-6.39563E+05-4.36294E-08-1.35333E-08
 -1       279-1.48983E+06-2.03582E+05-8.38416E+02-5.50616E+05 4.02179E-09-7.02598E-08
 -1       280-1.41300E+06-2.79683E+05-9.22426E+02-6.43793E+05 9.09858E-09-1.84991E-07
 -1       281-1.49078E+06-2.02232E+05-1.70819E+03-5.49552E+05-2.01053E-08 3.66542E-08
 -1       282-1.41337E+06-2.81743E+05-3.96635E+03-6.45482E+05-2.43954E-08 3.28361E-07
 -1       283-1.49031E+06-2.01094E+05-7.06328E+03-5.49450E+05 1.04307E-08-1.41563E-07
 -1       284-1.41973E+06-2.90897E+05-1.92324E+04-6.43278E+05-9.28230E-09-5.43807E-07
 -1       285-1.48427E+06-1.94228E+05-3.00709E+04-5.51219E+05-2.98678E-09 3.02443E-08
 -1       301-9.14279E+03-6.51558E+05 1.66578E+05-1.14744E+06 1.27911E-08 1.70228E-07
 -1       302-1.14239E+04-6.04275E+05 1.00251E+05-1.67453E+06-8.06904E-09 4.84179E-08
 -1       303-2.33961E+04-6.44559E+05 5.65176E+04-1.14426E+06 3.65253E-09 3.09046E-09
 -1       304-2.71786E+04-6.11765E+05 5.66566E+04-1.67399E+06-6.75209E-09 1.46829E-08
 -1       305-2.78603E+04-6.33195E+05 6.93681E+04-1.14735E+06 3.56522E-09 1.62094E-07
 -1       306-3.01170E+07-6.21178E+06-8.60441E+06-4.77070E+05-1.00466E-07 1.42609E-08
 -1       307 2.52322E+07 3.29387E+06 5.50038E+06-1.52976E+07-8.12273E-07-7.99773E-08
 -1       308-6.89541E+06-1.00579E+06-4.28914E+05 5.20879E+06-1.41241E-07 1.92260E-07
 -1       309-3.16326E+06 8.73020E+06 2.29701E+06-2.07128E+07 3.54870E-07 2.85370E-07
 -1       310-1.26880E+07-1.95890E+06-2.07330E+06 5.21581E+06 2.45986E-07-7.30506E-08
 -1       311 3.87582E+07-1.13913E+04 7.32594E+06-8.67705E+06 8.63976E-07-1.39087E-07
 -1       312-3.19971E+07-6.83418E+06-8.57426E+06-5.13686E+06-2.17929E-07 5.60540E-08
 -1       313 4.53768E+07 1.52405E+07 1.06951E+07 2.39833E+07-1.97557E-07 2.26719E-08
 -1       314-1.71286E+07-1.78901E+07-7.52788E+06-1.25384E+07 4.16592E-07 9.13860E-09
 -1       315-1.97839E+06 2.98362E+07 5.66248E+06 1.04130E+07-2.35101E-07 7.74453E-08
 -1       316 1.44898E+06-9.81934E+06-4.22327E+05-2.47762E+06-1.15049E-06-4.65661E-08
 -1       317-1.70837E+07 2.24462E+07 2.24972E+06-8.90911E+06 8.70823E-07-6.17227E-07
 -1       318-1.09418E+06-1.28708E+07-2.07231E+06-4.24511E+06-1.00394E-06 2.96393E-07
 -1       319 7.32697E+06 3.21249E+07 7.08082E+06 1.67168E+07-1.22185E-07 3.00206E-07
 -1       320-2.26611E+07-1.77013E+07-9.89148E+06-1.28501E+07 2.03145E-07-8.50414E-08
 -1       336-7.52986E+02-1.68652E+06-1.38041E+04 8.87638E+03-2.65445E-08-1.44355E-08
 -1       337-5.39754E+03-1.68604E+06-1.80070E+04-2.15678E+04-4.84872E-08-9.18226E-09
 -1       338 2.64820E+02-1.68601E+06-2.83723E+04 1.24402E+04-3.44826E-08 4.73301E-09
 -1       339-3.01096E+04-1.70323E+06-6.41140E+04-2.85504E+04-6.21803E-08 5.81895E-09
 -1       340 1.98192E+04-1.67152E+06-1.01004E+05 1.57281E+04-4.12147E-08 1.06338E-08
 -1       406 8.32885E+01 3.90124E+05 8.64732E+02 2.85056E+02 3.13048E-09 1.52759E-08
 -1       407 1.95763E+02 3.90302E+05 1.51515E+03-2.96212E+02 1.88652E-09 1.16761E-08
 -1       408 6.36812E+02 3.90044E+05 2.86645E+03 1.07929E+01 4.14036E-09 1.42081E-08
 -1       409 2.93636E+03 3.91198E+05 6.38042E+03 2.49543E+02 2.49429E-09-1.33159E-08
 -1       410 8.61207E+03 3.89227E+05 1.29750E+04-2.77407E+02 4.62751E-09 7.13226E-09
 -1       521-3.17229E+07-7.68995E+06-1.00809E+07-7.91608E+04-2.57278E-08-2.42260E-07
 -1       522 2.61631E+07 4.35776E+06 5.62509E+06-1.88530E+07-5.06727E-07-1.73255E-07
 -1       523-7.46583E+06-1.32415E+06-4.20297E+05 5.66820E+06-1.10304E-08-3.29106E-07
 -1       524-6.66983E+06 1.18472E+07 2.49277E+06-2.38208E+07 7.67031E-07-7.08795E-07
 -1       525-1.34914E+07-2.61194E+06-2.28584E+06 5.68285E+06 3.75556E-07-1.77999E-07
 -1       526 4.24467E+07-1.13765E+05 7.70609E+06-1.13379E+07 1.76078E-07 2.91097E-07
 -1       527-3.39135E+07-8.55759E+06-9.90959E+06-5.00644E+06 1.92318E-07 1.94923E-07
 -1       528 4.96601E+07 1.70582E+07 1.11827E+07 2.73546E+07 2.92202E-08-2.10537E-07
 -1       529-1.80846E+07-2.01588E+07-8.65361E+06-1.25822E+07 2.43541E-07 5.35510E-09
 -1       530-4.47018E+06 3.47369E+07 6.00917E+06 9.83957E+06-2.41853E-08 7.38597E-07
 -1       531 1.46213E+06-1.09024E+07-3.93614E+05-2.40651E+06-7.85061E-07 3.77651E-07
 -1       532-1.95761E+07 2.44797E+07 2.46670E+06-1.32835E+07 5.53511E-07-7.30841E-07
 -1       533-1.13265E+06-1.40522E+07-2.21511E+06-4.03475E+06-3.06609E-07-9.50182E-07
 -1       534 5.34467E+06 3.73954E+07 7.38904E+06 1.73389E+07-7.39819E-08 7.48609E-07
 -1       535-2.38827E+07-2.01569E+07-1.13714E+07-1.29408E+07 9.95351E-08 4.65312E-07
 -1       536-7.06642E+05-4.67120E+04-4.85284E+04-5.47490E+04-3.76713E-09 4.41269E-08
 -1       537-5.44109E+04 4.46315E+04 8.38804E+04 1.23983E+05-1.17313E-07 9.54733E-08
 -1       538-3.94468E+05 3.36645E+03 3.48493E+03-7.22739E+04 2.94923E-08 1.09830E-07
 -1       539-2.68910E+05 2.83972E+03 2.49151E+04 1.38887E+05 1.62903E-07 1.05091E-07
 -1       540-4.97532E+05-4.25170E+02-2.13714E+04-7.01893E+04 2.77851E-08 9.95922E-08
 -1       541 1.47468E+05 1.69959E+04 1.06544E+05 9.80577E+04 1.60317E-08 8.19134E-08
 -1       542-7.99626E+05-2.01673E+04-8.43780E+04-3.05676E+04 1.12279E-07 3.38188E-08
 -1       543 4.06640E+05 2.73712E+04 1.58234E+05-1.33641E+04-2.83521E-08-5.45469E-09
 -1       544-7.49754E+05-1.65668E+04-7.49664E+04 4.05614E+04-7.00193E-08-3.17698E-08
 -1       545 2.96762E+04 9.50365E+03 7.99563E+04-1.13749E+05 6.91210E-08-6.89524E-08
 -1       546-4.32786E+05 6.10300E+03-1.22495E+04 6.94697E+04 6.38654E-08-7.76444E-08
 -1       547-2.86984E+05-4.65485E+03 1.06214E+04-1.41733E+05-1.23846E-07-1.11052E-07
 -1       548-4.41607E+05 4.72191E+03-2.38972E+04 6.92379E+04-1.05794E-07-9.98025E-08
 -1       549 4.88396E+04 1.61450E+04 6.06771E+04-1.11617E+05-5.98704E-08-8.68110E-08
 -1       550-7.59624E+05-2.22170E+04-1.29093E+05 3.86369E+04 1.08585E-08-3.85808E-08
 -1       551 4.07681E+04-7.48863E+05-1.59470E+04-1.24667E+06-1.04745E-07-1.11468E-08
 -1       552 9.32244E+04-7.93842E+05 9.87548E+03-1.77756E+06-7.31670E-08 2.88710E-08
 -1       553 7.17401E+04-7.90243E+05 3.19946E+04-1.24002E+06-1.19107E-07 3.03407E-08
 -1       554 1.32010E+05-8.09745E+05 8.09806E+04-1.77951E+06-7.25413E-08 1.91485E-08
 -1       555 1.01472E+05-8.13894E+05 1.47906E+05-1.23985E+06-1.23153E-07-1.25983E-08
 -1       556 2.23752E+05-3.83718E+05 2.55002E+04-4.07175E+05-2.30211E-08-2.11003E-08
 -1       557 3.54272E+05-4.88053E+05 1.60190E+04-5.27626E+05 9.54606E-09 5.27507E-09
 -1       558 2.05505E+05-3.76466E+05 2.26667E+03-4.11647E+05-2.70666E-08-1.46538E-08
 -1       559 3.29281E+05-4.88089E+05 2.41259E+03-5.48083E+05 1.07684E-08-5.21322E-09
 -1       560 1.90193E+05-3.66864E+05-1.51965E+03-4.22681E+05 6.72298E-09-2.14350E-08
 -1       561 3.10046E+05-4.80388E+05 1.23114E+02-5.61201E+05-5.99539E-09-1.89248E-08
 -1       562 1.78086E+05-3.59343E+05-1.33131E+03-4.31448E+05-9.89530E-10-5.75528E-09
 -1       563 2.95665E+05-4.74118E+05-3.88764E+01-5.70593E+05-3.02680E-09-4.55648E-08
 -1       564 1.69445E+05-3.53959E+05-6.02656E+02-4.37572E+05 1.13796E-08 3.26963E-10
 -1       565 2.86124E+05-4.69963E+05 2.32213E+01-5.76689E+05 2.61207E-08 1.37115E-08
 -1       566 1.64391E+05-3.50762E+05-2.60926E+02-4.41107E+05 2.03727E-09-2.34140E-08
 -1       567 2.81484E+05-4.67945E+05-3.63021E+02-5.79508E+05 1.46465E-08-2.22644E-09
 -1       568 1.63016E+05-3.49920E+05-1.12642E+03-4.42164E+05 4.52201E-09 1.31877E-08
 -1       569 2.80356E+05-4.67870E+05-2.84490E+03-5.78083E+05-1.24337E-08 3.32657E-08
 -1       570 1.66413E+05-3.53152E+05-6.21869E+03-4.41146E+05 8.30187E-09 9.86438E-09
 -1       571 2.90394E+05 1.05054E+04 1.49850E+04-9.51621E+04 2.33103E-09 2.02631E-08
 -1       572 2.92566E+05 3.96079E+03 7.34384E+03-1.04402E+05 6.03177E-09 8.72842E-09
 -1       573 2.91257E+05 1.24698E+03 3.26310E+03-9.49857E+04-1.86901E-09-1.22382E-08
 -1       574 2.91470E+05 7.28802E+02 1.63640E+03-1.04627E+05 5.16388E-09-1.26456E-08
 -1       575 2.91350E+05 4.49541E+02 7.72301E+02-9.49615E+04-1.05898E-09 6.12999E-10
 -1       576 2.91335E+05 4.61053E+02 3.95345E+02-1.04656E+05-1.05742E-08 5.19867E-09
 -1       577 2.91390E+05 3.91482E+02 1.97223E+02-9.49582E+04-9.79799E-09 2.34368E-08
 -1       578 2.91365E+05 4.23028E+02 1.13666E+02-1.04661E+05-8.72069E-09 8.99672E-09
 -1       579 2.91462E+05 3.54839E+02 7.75978E+01-9.49579E+04 4.74574E-09-1.45974E-09
 -1       580 2.91467E+05 3.71991E+02 8.94051E+01-1.04656E+05-6.30826E-09-3.81988E-11
 -1       581 2.91576E+05 2.96121E+02 1.34352E+02-9.49638E+04-1.99179E-08-1.20099E-08
 -1       582 2.91641E+05 3.33602E+02 2.72893E+02-1.04594E+05-5.25106E-08-2.11458E-09
 -1       583 2.91717E+05 3.35415E+02 5.23296E+02-9.50204E+04-1.84227E-08 1.71367E-08
 -1       584 2.92012E+05 7.62890E+02 1.18431E+03-1.04118E+05 2.25555E-08-7.31370E-09
 -1       585 2.91747E+05 1.75784E+03 2.39772E+03-9.54394E+04 6.36282E-09-1.05065E-08
 -1       586-3.42570E+03 1.16863E+05-2.91349E+03-2.50590E+05-5.11136E-09 2.44336E-09
 -1       587-1.34179E+03 1.16616E+05 7.73611E+02-2.75793E+05-7.77800E-09-1.33641E-08
 -1       588 3.95846E+02 1.16422E+05 4.76172E+03-2.50452E+05-4.10000E-09 7.92534E-09
 -1       589 5.08336E+03 1.18896E+05 1.23482E+04-2.75560E+05-1.02264E-08 1.11804E-08
 -1       590 1.66113E+04 1.15087E+05 2.59022E+04-2.50884E+05-1.22054E-09 2.04400E-08
 -1       591-7.49996E+04-1.59762E+04-2.25263E+04-3.19664E+04-3.36081E-09-5.41058E-09
 -1       592-7.90869E+04-1.95348E+04-1.22020E+04-3.55928E+04-1.60378E-09-2.00428E-08
 -1       593-7.72525E+04-1.43416E+04-5.07910E+03-3.36180E+04 4.22855E-10-9.99239E-09
 -1       594-7.59767E+04-1.62293E+04-2.53307E+03-3.57106E+04 1.13402E-08-4.29870E-09
 -1       595-7.74243E+04-1.43362E+04-1.16294E+03-3.36931E+04 5.34815E-09 1.57405E-08
 -1       596-7.57638E+04-1.60782E+04-5.90970E+02-3.56853E+04 4.57513E-09 2.87966E-08
 -1       597-7.74458E+04-1.43516E+04-3.21352E+02-3.36959E+04-5.37420E-09 5.46561E-09
 -1       598-7.57428E+04-1.60722E+04-2.57507E+02-3.56782E+04-7.05450E-09 5.66936E-09
 -1       599-7.74446E+04-1.43521E+04-3.27909E+02-3.36956E+04 2.78874E-10-1.01855E-08
 -1       600-7.57638E+04-1.60787E+04-6.08328E+02-3.56832E+04 5.09385E-09 1.20219E-08
 -1       601-7.74199E+04-1.43376E+04-1.19967E+03-3.36921E+04-1.09821E-10 2.04138E-08
 -1       602-7.59834E+04-1.62335E+04-2.61434E+03-3.57054E+04-6.46151E-09-3.47256E-09
 -1       603-7.72399E+04-1.43461E+04-5.24271E+03-3.36155E+04 2.62980E-09-1.69439E-09
 -1       604-7.92114E+04-1.96258E+04-1.25942E+04-3.55590E+04-1.21656E-09 4.18368E-11
 -1       605-7.48945E+04-1.60510E+04-2.32505E+04-3.19301E+04-1.24277E-09 1.95769E-08
 -1       606 2.66979E+04-1.43570E+04-2.57367E+04 2.39886E+04 8.16544E-09-1.58593E-09
 -1       607 2.23004E+04-4.68920E+03-1.28168E+04 2.69583E+04 2.69938E-09-2.70120E-09
 -1       608 2.48066E+04-8.46146E+02-5.73764E+03 2.38201E+04-1.20417E-09-2.04022E-09
 -1       609 2.43263E+04-2.90123E+02-2.89851E+03 2.71724E+04 1.41881E-09-6.68251E-10
 -1       610 2.45927E+04-4.13606E+01-1.38291E+03 2.38000E+04 2.36378E-09 6.54336E-09
 -1       611 2.45173E+04-4.16917E+01-6.97265E+02 2.71955E+04 6.96127E-09 2.26009E-10
 -1       612 2.45455E+04-2.76502E+01-3.31483E+02 2.37980E+04 1.21063E-08-8.64065E-09
 -1       613 2.45290E+04-3.76153E+01-1.48561E+02 2.71982E+04 1.94950E-08-1.76283E-09
 -1       614 2.45234E+04-3.40985E+01-3.48614E+01 2.37973E+04 1.97415E-08 6.26937E-09
 -1       615 2.45237E+04-3.61401E+01 6.21886E+01 2.71987E+04 1.76810E-08 8.39941E-09
 -1       616 2.45060E+04-3.09852E+01 1.86558E+02 2.37975E+04 1.18926E-08-3.76986E-10
 -1       617 2.45462E+04 3.61902E+00 4.25659E+02 2.71982E+04 3.98836E-09-4.77030E-09
 -1       618 2.44690E+04 9.17264E+01 8.57996E+02 2.37978E+04 2.38651E-09 1.31138E-08
 -1       619 2.48490E+04 6.67029E+02 1.92670E+03 2.71976E+04-3.85398E-11-1.12891E-09
 -1       620 2.41840E+04 2.12629E+03 3.87262E+03 2.37994E+04-9.17339E-10 1.36793E-08
 -1       621 5.04258E+02 3.01384E+05 3.83220E+03 4.09974E+04 9.44965E-10-9.80435E-10
 -1       622 6.70646E+02 3.02267E+05 3.41832E+03 5.95177E+04 9.47239E-10-1.15210E-08
 -1       623 1.43282E+02 3.01572E+05 4.12919E+03 4.08119E+04 1.16802E-09-1.49603E-08
 -1       624 2.12672E+03 3.03491E+05 8.02283E+03 5.97002E+04 1.52494E-09-1.57208E-08
 -1       625 2.07790E+03 2.99979E+05 1.40279E+04 4.08087E+04 1.38289E-09-7.01539E-09
 -1       626 2.60790E+05 6.13682E+04 5.06340E+03 1.26713E+05 4.57567E-09-6.37920E-09
 -1       627 2.58466E+05 6.27817E+04 2.44002E+03 1.30975E+05 2.44654E-09-4.73301E-09
 -1       628 2.60918E+05 5.90504E+04 1.03195E+03 1.27572E+05-4.35830E-09 4.36330E-10
 -1       629 2.57836E+05 6.21105E+04 5.05129E+02 1.31214E+05-4.75711E-09-3.96446E-09
 -1       630 2.60932E+05 5.89384E+04 2.34476E+02 1.27608E+05-1.48566E-09-2.18154E-09
 -1       631 2.57770E+05 6.20851E+04 1.26438E+02 1.31216E+05 2.93994E-09 1.41245E-09
 -1       632 2.60928E+05 5.89423E+04 8.36692E+01 1.27604E+05 8.56335E-09-8.05358E-09
 -1       633 2.57762E+05 6.20869E+04 9.39182E+01 1.31212E+05 6.92717E-09 4.62455E-09
 -1       634 2.60924E+05 5.89395E+04 1.52407E+02 1.27603E+05 1.54029E-09 2.21994E-08
 -1       635 2.57776E+05 6.20852E+04 3.08787E+02 1.31218E+05-7.93079E-09-6.91853E-09
 -1       636 2.60915E+05 5.89337E+04 6.23794E+02 1.27603E+05-2.04636E-11-6.12590E-09
 -1       637 2.57911E+05 6.21822E+04 1.37168E+03 1.31217E+05-3.03044E-09 1.37213E-08
 -1       638 2.60866E+05 5.92366E+04 2.81833E+03 1.27466E+05-6.33463E-10-1.45496E-08
 -1       639 2.59391E+05 6.42412E+04 6.66832E+03 1.30781E+05 2.15095E-09-2.00944E-08
 -1       640 2.60661E+05 6.53852E+04 1.38379E+04 1.24876E+05 5.60203E-09-7.08292E-09
 -1       656 6.65628E+04-1.70350E+06-1.60678E+05-2.57076E+03-7.56700E-10-2.15956E-08
 -1       657-8.80568E+04-1.77610E+06-1.33113E+05 5.15244E+03 8.29459E-10-1.01433E-08
 -1       658 2.12178E+04-1.72412E+06-8.19809E+04-4.65375E+03-4.32919E-10-1.36005E-08
 -1       659-9.52205E+04-1.77951E+06-1.42527E+05 6.88295E+03-2.37924E-09 6.52962E-09
 -1       660 7.37105E+04-1.70010E+06-1.76864E+05-4.30126E+03-2.53203E-09 5.84481E-09
 -1       661 1.58586E+05 1.65939E+04 1.67170E+04 6.19929E+04 1.33423E-09 2.07665E-08
 -1       662 1.68037E+05 2.89743E+04 1.12661E+04 5.82427E+04-3.84858E-09-6.02950E-09
 -1       663 1.61869E+05 2.19571E+04 3.94017E+03 6.10399E+04-7.03722E-11 3.36991E-09
 -1       664 1.64229E+05 2.27025E+04 2.35704E+03 5.94068E+04-2.14891E-09-1.49370E-09
 -1       665 1.62368E+05 2.26895E+04 9.29837E+02 6.08945E+04 2.38219E-09-1.43086E-08
 -1       666 1.63640E+05 2.18649E+04 5.44285E+02 5.95964E+04 1.02747E-08-3.86443E-09
 -1       667 1.62455E+05 2.27728E+04 2.89290E+02 6.08581E+04 8.12292E-10-1.53350E-08
 -1       668 1.63544E+05 2.18051E+04 2.95210E+02 5.96494E+04-5.45197E-09-8.82274E-10
 -1       669 1.62463E+05 2.27477E+04 4.00034E+02 6.08418E+04-1.60739E-09 6.49371E-09
 -1       670 1.63641E+05 2.20224E+04 8.71420E+02 5.96523E+04-5.92225E-09-1.89998E-08
 -1       671 1.62358E+05 2.25601E+04 1.54739E+03 6.08532E+04 2.28444E-09-1.35981E-08
 -1       672 1.64543E+05 2.35278E+04 3.95904E+03 5.94338E+04 5.96991E-09 1.60867E-09
 -1       673 1.61566E+05 2.12804E+04 6.63475E+03 6.10457E+04-1.55831E-09 3.32966E-08
 -1       674 1.70857E+05 3.41873E+04 1.89740E+04 5.75787E+04 8.24002E-10 6.90852E-09
 -1       675 1.56084E+05 1.21991E+04 2.81641E+04 6.25963E+04-5.05543E-09 8.90577E-09
 -1       676 2.41117E+01-2.95860E+05-1.11340E+03-1.38065E+02 6.36675E-10-1.72143E-08
 -1       677-2.94509E+02-2.96129E+05-2.03772E+03 2.75908E+02 1.02946E-08-1.25843E-08
 -1       678 1.97541E+02-2.95668E+05-3.60218E+03-1.37752E+02 1.25306E-09-2.73608E-09
 -1       679-3.60222E+03-2.98304E+05-8.55728E+03 2.74716E+02 8.36917E-09-2.60844E-08
 -1       680 2.15074E+03-2.93686E+05-1.37914E+04-1.35352E+02 2.18552E-09-9.97716E-09
 -1       771-3.06172E+06-7.47444E+05-1.66204E+05-1.46590E+06-4.06289E-08-2.18570E-08
 -1       772-2.98457E+06-8.36373E+05-8.56927E+04-1.56872E+06-3.77186E-08 1.99325E-08
 -1       773-3.09326E+06-7.22855E+05-4.36792E+04-1.48048E+06-1.66474E-08 6.35919E-09
 -1       774-2.97503E+06-8.17803E+05-1.94885E+04-1.59452E+06 3.66999E-08-5.93718E-09
 -1       775-3.10973E+06-7.11301E+05-1.45748E+04-1.48755E+06-8.73115E-11 2.69210E-10
 -1       776-2.98740E+06-8.14757E+05-5.45090E+03-1.61404E+06-6.35919E-09-1.45519E-09
 -1       777-3.12402E+06-7.00988E+05-6.43875E+03-1.49378E+06 8.09086E-09 6.40284E-09
 -1       778-3.00032E+06-8.11926E+05-1.82061E+03-1.63081E+06 1.35187E-08 4.62023E-09
 -1       779-3.13631E+06-6.91975E+05-3.21728E+03-1.49911E+06-8.29459E-09-3.38332E-09
 -1       780-3.01169E+06-8.09225E+05-5.33368E+02-1.64447E+06-1.50831E-08 3.24326E-09
 -1       781-3.14608E+06-6.84710E+05-1.24936E+03-1.50327E+06-2.30648E-08 3.89991E-09
 -1       782-3.02046E+06-8.06932E+05 4.51774E+02-1.65456E+06-3.15995E-08-6.54836E-09
 -1       783-3.15296E+06-6.79661E+05 7.03863E+02-1.50619E+06-7.56700E-09-1.42704E-08
 -1       784-3.02531E+06-8.04641E+05 2.91327E+03-1.66078E+06-2.24645E-08-3.23689E-09
 -1       785-3.15703E+06-6.76648E+05 5.14342E+03-1.50804E+06-3.74930E-08 1.03173E-08
 -1       786 1.23957E+05-9.78085E+03 2.26290E+04-3.23650E+02 5.73303E-09-5.92900E-09
 -1       787 1.33771E+05 1.13241E+04 1.60091E+04-1.37069E+02 7.30295E-09-1.46308E-08
 -1       788 1.27741E+05-1.53268E+03 5.85462E+03-2.88496E+02 2.21219E-09 4.93515E-09
 -1       789 1.29363E+05 1.77405E+03 3.67533E+03-1.90911E+02-1.14312E-10 6.66506E-09
 -1       790 1.28366E+05-2.38632E+02 1.48812E+03-2.69825E+02-5.04388E-09 5.24540E-09
 -1       791 1.28632E+05 2.76121E+02 8.59582E+02-2.22854E+02-7.73645E-09 2.68263E-08
 -1       792 1.28471E+05-3.58710E+01 3.64414E+02-2.56555E+02-4.19664E-09-1.16684E-09
 -1       793 1.28505E+05 3.79887E+01 1.82013E+02-2.47816E+02-1.29564E-09-1.24452E-08
 -1       794 1.28492E+05-6.49847E-01 4.79937E+01-2.44862E+02 4.13148E-09-1.56823E-08
 -1       795 1.28469E+05-2.69175E+01-5.60639E+01-2.72220E+02-5.59363E-09 1.85578E-08
 -1       796 1.28508E+05 2.89988E+01-1.59877E+02-2.32151E+02 2.85953E-09 2.13649E-08
 -1       797 1.28375E+05-2.16498E+02-4.39724E+02-3.01421E+02 3.88988E-09-1.69933E-08
 -1       798 1.28586E+05 1.88788E+02-7.14341E+02-2.15661E+02 2.45481E-09-5.53356E-09
 -1       799 1.27833E+05-1.39147E+03-1.96544E+03-3.42256E+02 5.69407E-09-4.51541E-09
 -1       800 1.29050E+05 1.20301E+03-2.78156E+03-1.91316E+02 3.06084E-10 3.91401E-09
 -1       801-1.71764E+05-1.00097E+07-1.39540E+06 1.41847E+06 9.15607E-08-5.29762E-08
 -1       802 7.40101E+05 5.97007E+06 2.18666E+06-1.75128E+06 2.61367E-07-3.06645E-08
 -1       803-5.37802E+05-1.42909E+07-1.89471E+06 8.99655E+05 7.75763E-08 1.19981E-08
 -1       804 2.88067E+05 2.41020E+06 1.54110E+06 6.78497E+05-1.20504E-07-1.00631E-07
 -1       805 1.89559E+05-6.46387E+06-2.87273E+05-1.00563E+06-5.03205E-08-6.69324E-08
 -1       806-3.08748E+05-5.97330E+04-2.28328E+04-1.22360E+05-9.13587E-09 8.28868E-09
 -1       807-3.10542E+05-5.60086E+04-1.12175E+04-1.27903E+05 1.20142E-08 1.41568E-08
 -1       808-3.09375E+05-5.15041E+04-4.75882E+03-1.26249E+05-7.42875E-09 7.27414E-09
 -1       809-3.08183E+05-5.28567E+04-2.32694E+03-1.28178E+05-1.45246E-08-1.46555E-08
 -1       810-3.09470E+05-5.12176E+04-1.06657E+03-1.26422E+05 1.40562E-09-9.48057E-09
 -1       811-3.08001E+05-5.27301E+04-5.30430E+02-1.28143E+05 5.70162E-09 9.43828E-09
 -1       812-3.09484E+05-5.12423E+04-2.68354E+02-1.26421E+05-6.48743E-09 7.01402E-09
 -1       813-3.07976E+05-5.27323E+04-1.74552E+02-1.28124E+05-1.46010E-08-1.74132E-08
 -1       814-3.09477E+05-5.12520E+04-1.73221E+02-1.26417E+05-1.10686E-09-4.56157E-09
 -1       815-3.07979E+05-5.27345E+04-2.79305E+02-1.28117E+05-2.06273E-09-1.15367E-08
 -1       816-3.09456E+05-5.12511E+04-5.29515E+02-1.26413E+05 7.69705E-09 1.41426E-08
 -1       817-3.08069E+05-5.27850E+04-1.13646E+03-1.28105E+05-8.95261E-09 2.25782E-08
 -1       818-3.09387E+05-5.14116E+04-2.31801E+03-1.26337E+05-8.15544E-09 3.22825E-09
 -1       819-3.09338E+05-5.41854E+04-5.45411E+03-1.27805E+05-1.51113E-09-1.13953E-08
 -1       820-3.08949E+05-5.55319E+04-1.11011E+04-1.24578E+05-5.02951E-10 4.66116E-10
 -1       821-3.78921E+05 2.08666E+04-4.85728E+04 2.12773E+03 1.41445E-08-1.56651E-08
 -1       822-3.98628E+05-2.41727E+04-3.41368E+04-4.44877E+03 5.15436E-09-1.78688E-08
 -1       823-3.86387E+05 3.28920E+03-1.25460E+04 3.43521E+03-1.18292E-08-1.45033E-08
 -1       824-3.89617E+05-3.79308E+03-7.85314E+03-5.35843E+03 1.39785E-10-9.93168E-10
 -1       825-3.87939E+05 5.11127E+02-3.28845E+03 3.03751E+03 2.06085E-08 3.43834E-09
 -1       826-3.87187E+05-5.67283E+02-1.74441E+03-3.08824E+03 2.69845E-08-6.89045E-09
 -1       827-3.88791E+05 4.69197E+01-1.18933E+03 1.16487E+03 1.25802E-08-1.41771E-08
 -1       828-3.86484E+05-1.32172E+02-5.86961E+02 1.09838E+03-2.79783E-09-5.17274E-09
 -1       829-3.88630E+05 6.59931E+01-1.17829E+03-1.14915E+03 4.88856E-09-4.06149E-09
 -1       830-3.87536E+05-6.22070E+02-1.88241E+03 4.88081E+03 3.61297E-10-2.74136E-08
 -1       831-3.87761E+05 5.54393E+02-3.37026E+03-2.61757E+03-4.31614E-09-1.52340E-09
 -1       832-3.89697E+05-3.95985E+03-8.15569E+03 6.15938E+03-2.39730E-09 1.36084E-08
 -1       833-3.86486E+05 3.41328E+03-1.30496E+04-2.42777E+03-1.61113E-09 4.50927E-09
 -1       834-3.98689E+05-2.50859E+04-3.53590E+04 4.19021E+03-9.27891E-10 6.36601E-09
 -1       835-3.78752E+05 2.16476E+04-5.04419E+04-6.48319E+02 6.45267E-09 8.30551E-09
 -1       836-1.41393E+03 3.70132E+05 2.29029E+04-1.61597E+04-7.07587E-09 1.51149E-08
 -1       837 4.88165E+03 3.77306E+05 1.93766E+04-3.30255E+04-7.82484E-09-6.87214E-09
 -1       838-5.58141E+02 3.72144E+05 1.97373E+04-1.60882E+04-6.41194E-09-5.94127E-10
 -1       839 1.24187E+04 3.82919E+05 3.73321E+04-3.30780E+04-6.87805E-09-2.72576E-09
 -1       840-3.84003E+03 3.64459E+05 5.95288E+04-1.61131E+04-6.18456E-09-2.81943E-10
 -1       856-5.22571E+04 8.02541E+03-2.11487E+04-3.96978E+02 4.09489E-09-1.84718E-09
 -1       857-6.09697E+04-9.42967E+03-1.45586E+04 5.63338E+03 5.95170E-09-1.11950E-08
 -1       858-5.57075E+04 1.12549E+03-5.48757E+03-4.21118E+02 5.44526E-09-1.35044E-08
 -1       859-5.70100E+04-1.32417E+03-3.31149E+03 5.66928E+03-3.11680E-09 1.99087E-08
 -1       860-5.62230E+04 1.57628E+02-1.38784E+03-4.32613E+02-1.18163E-09 1.92165E-09
 -1       861-5.64170E+04-1.88252E+02-7.63467E+02 5.68494E+03 8.15284E-10 4.96584E-10
 -1       862-5.63037E+04 2.13599E+01-3.17336E+02-4.36751E+02-4.78898E-09 8.89133E-09
 -1       863-5.63182E+04-2.19406E+01-1.15536E+02 5.68734E+03-1.23922E-09-8.33595E-09
 -1       864-5.63224E+04-4.89967E+00 4.73415E+01-4.35014E+02-4.64185E-09-5.05911E-09
 -1       865-5.62624E+04 5.96021E+01 2.55571E+02 5.67743E+03-3.44238E-09 1.38895E-09
 -1       866-5.63573E+04-6.02006E+01 5.14980E+02-4.26838E+02 2.65135E-09-3.65131E-09
 -1       867-5.60202E+04 4.97085E+02 1.26753E+03 5.65523E+03 4.19169E-09-2.65740E-09
 -1       868-5.65596E+04-4.34484E+02 2.10625E+03-4.12818E+02 1.74566E-10 5.16343E-09
 -1       869-5.44760E+04 3.61599E+03 5.60822E+03 5.61872E+03 1.80421E-09-1.87543E-08
 -1       870-5.78936E+04-3.09439E+03 8.13879E+03-3.90224E+02-5.29508E-09-6.45286E-10
 -1       871-5.51544E+03-2.13281E+04-1.94856E+04 1.30385E+05-5.30417E-09 7.85531E-09
 -1       872-1.97961E+03-2.58595E+04-8.15897E+03 1.69064E+05-1.14942E-08 5.12955E-09
 -1       873 4.06706E+02-2.36676E+04 5.89923E+02 1.30098E+05-6.10544E-09 4.15298E-10
 -1       874 3.30747E+03-2.12578E+04 9.77747E+03 1.69093E+05-1.12859E-08 3.06659E-09
 -1       875 6.84665E+03-2.59969E+04 2.20570E+04 1.30337E+05-4.86943E-09 3.30147E-10
 -1       876 2.93697E+05 4.94968E+04 1.50965E+04 1.17857E+05 1.12909E-08 1.61517E-08
 -1       877 2.94695E+05 5.26762E+04 8.06213E+03 1.22188E+05 1.28916E-08-5.02860E-09
 -1       878 2.95109E+05 4.78245E+04 3.37763E+03 1.19094E+05-1.53973E-08-1.41390E-08
 -1       879 2.92643E+05 5.06282E+04 1.68295E+03 1.22290E+05-6.24436E-09-6.61743E-09
 -1       880 2.95210E+05 4.78072E+04 7.83897E+02 1.19145E+05 2.71120E-09-1.11747E-08
 -1       881 2.92507E+05 5.05406E+04 4.18635E+02 1.22267E+05-3.76099E-09-5.92011E-09
 -1       882 2.95219E+05 4.78205E+04 2.67854E+02 1.19146E+05-5.51063E-09-2.40502E-09
 -1       883 2.92497E+05 5.05360E+04 2.88015E+02 1.22259E+05-7.46400E-09-3.98470E-09
 -1       884 2.95213E+05 4.78177E+04 4.58218E+02 1.19146E+05-6.45593E-09-1.07162E-08
 -1       885 2.92534E+05 5.05424E+04 9.21304E+02 1.22270E+05-1.44195E-08-4.54497E-09
 -1       886 2.95177E+05 4.77908E+04 1.85686E+03 1.19143E+05-8.65580E-09 8.84938E-10
 -1       887 2.92860E+05 5.07564E+04 4.05607E+03 1.22317E+05 1.07941E-08 8.00446E-09
 -1       888 2.94921E+05 4.78360E+04 8.17309E+03 1.19013E+05-5.95605E-10 1.09731E-09
 -1       889 2.97726E+05 5.58164E+04 1.95240E+04 1.22168E+05-9.05432E-09 7.65613E-09
 -1       890 2.91585E+05 5.17987E+04 3.65680E+04 1.15903E+05-6.93763E-09 6.29370E-09
 -1       891-8.89450E+01-1.62735E+05-1.99599E+03 2.71443E+04-2.97018E-09 7.46491E-09
 -1       892-1.74738E+02-1.63262E+05-2.14370E+03 4.12208E+04-3.26736E-10 1.20485E-09
 -1       893 4.40784E+01-1.62799E+05-3.03522E+03 2.71517E+04-2.90038E-09-1.11004E-08
 -1       894-1.50914E+03-1.64409E+05-6.28174E+03 4.10682E+04 2.22417E-09-1.11368E-09
 -1       895-1.19860E+03-1.61490E+05-1.10621E+04 2.72987E+04 7.28619E-10-2.82089E-08
 -1       956-3.77115E+05-5.44887E+03-1.34503E+04 3.08489E+04 1.20399E-08-2.26160E-08
 -1       957-3.79754E+05-1.92236E+03-6.90382E+03 3.70718E+04 1.10999E-08-1.37311E-08
 -1       958-3.78324E+05-2.41072E+02-3.11108E+03 3.06813E+04-4.20914E-09-7.06586E-09
 -1       959-3.78520E+05-1.36475E+02-1.58857E+03 3.72673E+04-6.50698E-09 9.42964E-09
 -1       960-3.78442E+05-4.50012E+01-7.74662E+02 3.06640E+04-1.48884E-09 3.54021E-10
 -1       961-3.78440E+05-6.34608E+01-4.10716E+02 3.72878E+04-1.80171E-09 1.60503E-09
 -1       962-3.78470E+05-4.62291E+01-2.35144E+02 3.06611E+04-2.12822E-09 9.27321E-09
 -1       963-3.78440E+05-5.92712E+01-1.88762E+02 3.72914E+04 5.33510E-09 1.44157E-08
 -1       964-3.78475E+05-4.28750E+01-2.29550E+02 3.06604E+04-3.24904E-09 5.43378E-09
 -1       965-3.78453E+05-5.63097E+01-3.97026E+02 3.72907E+04-1.79784E-09 5.98880E-09
 -1       966-3.78459E+05-3.50334E+01-7.46002E+02 3.06619E+04 5.05634E-09-1.81799E-08
 -1       967-3.78542E+05-1.19834E+02-1.53003E+03 3.72764E+04-1.24601E-09 2.01057E-08
 -1       968-3.78355E+05-2.17479E+02-2.99526E+03 3.06745E+04 5.50608E-09 3.11570E-09
 -1       969-3.79742E+05-1.83430E+03-6.64940E+03 3.71280E+04 4.78758E-09-1.97742E-08
 -1       970-3.77199E+05-5.22938E+03-1.29534E+04 3.08016E+04-7.87622E-10-6.07179E-09
 -1       971-3.45307E+05-1.72744E+03-9.30893E+03 1.53794E+04 4.03634E-09-8.11170E-10
 -1       972-3.47547E+05-1.27185E+03-5.06955E+03 2.12691E+04 4.99494E-09-1.25401E-08
 -1       973-3.46344E+05-6.21759E+01-2.27070E+03 1.52583E+04 8.56107E-09-8.04448E-10
 -1       974-3.46479E+05-8.12789E+01-1.17705E+03 2.14062E+04 8.20000E-09 9.94578E-09
 -1       975-3.46426E+05-1.73050E+01-5.88831E+02 1.52460E+04 1.87629E-09-6.71730E-09
 -1       976-3.46417E+05-3.14402E+01-3.40554E+02 2.14220E+04 5.65910E-09-2.03061E-08
 -1       977-3.46442E+05-1.65590E+01-2.48673E+02 1.52426E+04 1.88379E-09 1.01371E-08
 -1       978-3.46423E+05-2.52159E+01-2.93051E+02 2.14268E+04-2.49531E-09 2.00419E-09
 -1       979-3.46442E+05-8.08236E+00-4.72603E+02 1.52412E+04 1.52971E-09-7.47366E-09
 -1       980-3.46458E+05-2.21549E+01-9.13643E+02 2.14278E+04-6.87282E-09-5.68798E-09
 -1       981-3.46413E+05 1.47546E+01-1.77009E+03 1.52417E+04-5.08408E-10 1.60161E-08
 -1       982-3.46701E+05-1.52945E+02-3.65907E+03 2.14212E+04 3.85796E-09 3.91847E-09
 -1       983-3.46190E+05-9.85894E+01-7.10977E+03 1.52477E+04 3.23553E-09-1.02166E-08
 -1       984-3.50121E+05-3.86617E+03-1.59221E+04 2.13355E+04-5.81917E-09 2.51932E-08
 -1       985-3.42971E+05-5.30108E+03-2.92379E+04 1.53191E+04-5.62977E-09 7.65067E-09
 -3
    1PSTEP                        27          14           1          
  100CL  114 6.62933E-01         409                     0   14           1
 -4  DISP        4    1
 -5  D1          1    2    1    0
 -5  D2          1    2    2    0
 -5  D3          1    2    3    0
 -5  ALL         1    2    0    0    1ALL
 -1         1 2.72663E-03 0.00000E+00 0.00000E+00
 -1         2 1.32902E-03 3.41160E-28 0.00000E+00
 -1         3 3.42785E-04-5.05727E-28 0.00000E+00
 -1         5 1.77155E-04-1.92776E-27 0.00000E+00
 -1         8 2.71593E-03-4.01342E-07 0.00000E+00
 -1         9 2.70918E-03-2.00140E-04 0.00000E+00
 -1        10 3.10823E-04-3.39436E-06 6.61744E-24
 -1        12 1.78989E-04 8.09136E-07-1.65436E-24
 -1        15 2.70373E-03-4.24415E-07-1.03398E-25
 -1        16 2.77903E-03-2.02014E-04 0.00000E+00
 -1        17 2.11526E-04-7.74367E-06 0.00000E+00
 -1        18 1.82927E-04 3.44885E-05 0.00000E+00
 -1        19 1.84520E-04 1.61978E-06 0.00000E+00
 -1        20 1.84659E-04-9.94426E-06 0.00000E+00
 -1        21 1.83766E-04-2.55405E-05-3.30872E-24
 -1        24 3.06058E-05-1.19667E-05 0.00000E+00
 -1        25 1.93734E-04 3.47141E-05 0.00000E+00
 -1        26 1.94415E-04 2.23981E-06 0.00000E+00
 -1        27 1.92215E-04-1.35021E-05 0.00000E+00
 -1        28 1.91899E-04-2.61626E-05 0.00000E+00
 -1        32 0.00000E+00 0.00000E+00 0.00000E+00
 -1        33 2.03305E-04 2.99347E-06 0.00000E+00
 -1        34 2.01187E-04-1.35582E-05 0.00000E+00
 -1        35 1.99255E-04-2.65050E-05 0.00000E+00
 -1        51 2.72591E-03-8.44282E-08 6.61744E-24
 -1        52 2.72460E-03-1.50389E-07 0.00000E+00
 -1        53 2.72281E-03-2.12846E-07 0.00000E+00
 -1        54 2.72069E-03-2.74034E-07 1.65436E-24
 -1        55 2.71835E-03-3.35716E-07-8.27181E-25
 -1        56 2.71855E-03 9.43036E-06 0.00000E+00
 -1        57 2.70237E-03 3.87943E-05-5.29396E-23
 -1        58 2.68051E-03 8.18558E-05 1.05879E-22
 -1        59 2.65598E-03 1.31080E-04 0.00000E+00
 -1        60 2.63250E-03 1.77875E-04-1.05879E-22
 -1        61 2.61358E-03 2.13844E-04-5.29396E-23
 -1        62 2.60167E-03 2.32523E-04 0.00000E+00
 -1        63 2.59831E-03 2.28986E-04-5.29396E-23
 -1        64 2.60326E-03 2.02394E-04 0.00000E+00
 -1        65 2.61552E-03 1.54099E-04 5.29396E-23
 -1        66 2.63294E-03 8.95919E-05 0.00000E+00
 -1        67 2.65312E-03 1.59709E-05-5.29396E-23
 -1        68 2.67339E-03-5.78875E-05 0.00000E+00
 -1        69 2.69104E-03-1.23076E-04 0.00000E+00
 -1        70 2.70365E-03-1.72385E-04 0.00000E+00
 -1        86 1.41583E-03-6.29871E-06-5.29396E-23
 -1        87 1.66675E-03-3.97144E-05 0.00000E+00
 -1        88 2.00417E-03-9.72044E-05-2.64698E-23
 -1        89 2.34624E-03-1.56322E-04-1.32349E-23
 -1        90 2.60842E-03-1.92506E-04-5.29396E-23
 -1       121 3.41888E-04-5.47982E-07-1.32349E-23
 -1       122 3.39199E-04-1.09905E-06 0.00000E+00
 -1       123 3.34728E-04-1.65626E-06-1.32349E-23
 -1       124 3.28492E-04-2.22263E-06 6.61744E-24
 -1       125 3.20513E-04-2.80083E-06 0.00000E+00
 -1       191 1.77206E-04 1.34908E-07-2.48154E-24
 -1       192 1.77359E-04 2.69805E-07 6.20385E-25
 -1       193 1.77614E-04 4.04683E-07-1.65436E-24
 -1       194 1.77971E-04 5.39534E-07 1.61882E-24
 -1       195 1.78429E-04 6.74349E-07 0.00000E+00
 -1       251 2.71563E-03 1.60713E-06 0.00000E+00
 -1       252 2.71533E-03 3.46920E-06 3.30872E-24
 -1       253 2.71503E-03 4.17781E-06 6.61744E-24
 -1       254 2.71472E-03 2.74021E-06-3.30872E-24
 -1       255 2.71441E-03-1.51257E-06-6.61744E-24
 -1       256 2.71408E-03-9.21443E-06 0.00000E+00
 -1       257 2.71371E-03-2.04792E-05 0.00000E+00
 -1       258 2.71330E-03-3.53763E-05-3.30872E-24
 -1       259 2.71284E-03-5.34280E-05 0.00000E+00
 -1       260 2.71233E-03-7.41169E-05 6.61744E-24
 -1       261 2.71178E-03-9.65280E-05 0.00000E+00
 -1       262 2.71122E-03-1.19725E-04-6.61744E-24
 -1       263 2.71066E-03-1.42654E-04 0.00000E+00
 -1       264 2.71013E-03-1.64262E-04 0.00000E+00
 -1       265 2.70964E-03-1.83699E-04-1.32349E-23
 -1       266 2.71390E-03-4.10759E-07 0.00000E+00
 -1       267 2.71186E-03-4.13925E-07-4.13590E-25
 -1       268 2.70983E-03-4.17487E-07 4.13590E-25
 -1       269 2.70780E-03-4.19877E-07 0.00000E+00
 -1       270 2.70576E-03-4.22239E-07-2.06795E-25
 -1       271 2.71512E-03 5.20518E-10 1.32349E-23
 -1       272 2.71531E-03-2.31816E-06-6.61744E-24
 -1       273 2.71645E-03-7.19377E-06-1.32349E-23
 -1       274 2.71846E-03-1.44499E-05 0.00000E+00
 -1       275 2.72128E-03-2.38890E-05 0.00000E+00
 -1       276 2.72480E-03-3.52977E-05 0.00000E+00
 -1       277 2.72896E-03-4.84464E-05 0.00000E+00
 -1       278 2.73366E-03-6.30920E-05 0.00000E+00
 -1       279 2.73880E-03-7.89796E-05 0.00000E+00
 -1       280 2.74429E-03-9.58444E-05-6.61744E-24
 -1       281 2.75004E-03-1.13413E-04 0.00000E+00
 -1       282 2.75593E-03-1.31409E-04 6.61744E-24
 -1       283 2.76188E-03-1.49549E-04-1.32349E-23
 -1       284 2.76778E-03-1.67550E-04 0.00000E+00
 -1       285 2.77353E-03-1.85132E-04-1.32349E-23
 -1       301 2.72187E-03-2.00488E-04 6.61744E-24
 -1       302 2.73289E-03-2.00788E-04-3.30872E-24
 -1       303 2.74318E-03-2.01077E-04-1.32349E-23
 -1       304 2.75367E-03-2.01367E-04 6.61744E-24
 -1       305 2.76531E-03-2.01671E-04 0.00000E+00
 -1       306 2.74729E-03-3.55705E-04-1.05879E-22
 -1       307 2.81114E-03-7.70780E-04-5.29396E-23
 -1       308 2.85771E-03-1.37677E-03-1.05879E-22
 -1       309 2.88155E-03-2.07735E-03 5.29396E-23
 -1       310 2.91303E-03-2.74666E-03 0.00000E+00
 -1       311 2.97266E-03-3.26156E-03 5.29396E-23
 -1       312 3.03027E-03-3.54157E-03 2.11758E-22
 -1       313 3.02468E-03-3.54922E-03 0.00000E+00
 -1       314 2.88194E-03-3.29695E-03-1.05879E-22
 -1       315 2.56136E-03-2.84960E-03 0.00000E+00
 -1       316 2.08174E-03-2.28392E-03 0.00000E+00
 -1       317 1.50945E-03-1.66914E-03 0.00000E+00
 -1       318 9.59104E-04-1.06567E-03 0.00000E+00
 -1       319 5.38815E-04-5.38429E-04 0.00000E+00
 -1       320 2.92281E-04-1.61632E-04 1.05879E-22
 -1       336 2.99232E-04-4.05065E-06 0.00000E+00
 -1       337 2.85565E-04-4.73265E-06 6.61744E-24
 -1       338 2.69884E-04-5.44258E-06 0.00000E+00
 -1       339 2.52260E-04-6.18128E-06-6.61744E-24
 -1       340 2.32777E-04-6.95320E-06 0.00000E+00
 -1       406 1.79649E-04 9.45120E-07-2.48154E-24
 -1       407 1.80414E-04 1.08102E-06-1.10506E-24
 -1       408 1.81283E-04 1.21676E-06 2.89513E-24
 -1       409 1.82257E-04 1.35215E-06 1.65436E-24
 -1       410 1.83336E-04 1.48693E-06-1.65436E-24
 -1       521 2.81772E-03-3.66887E-04 0.00000E+00
 -1       522 2.87976E-03-8.02494E-04 0.00000E+00
 -1       523 2.91975E-03-1.43677E-03 0.00000E+00
 -1       524 2.93418E-03-2.16656E-03 0.00000E+00
 -1       525 2.95760E-03-2.86304E-03 1.05879E-22
 -1       526 3.01365E-03-3.40039E-03-5.29396E-23
 -1       527 3.07085E-03-3.69113E-03 0.00000E+00
 -1       528 3.06289E-03-3.69689E-03 0.00000E+00
 -1       529 2.90781E-03-3.43012E-03 0.00000E+00
 -1       530 2.56263E-03-2.96383E-03-5.29396E-23
 -1       531 2.04701E-03-2.37860E-03-1.05879E-22
 -1       532 1.43388E-03-1.74627E-03 0.00000E+00
 -1       533 8.43434E-04-1.12459E-03 0.00000E+00
 -1       534 3.89115E-04-5.76096E-04-5.29396E-23
 -1       535 1.20977E-04-1.79438E-04 0.00000E+00
 -1       536 2.10771E-04 2.71999E-05 6.61744E-24
 -1       537 2.08850E-04 8.76805E-05 0.00000E+00
 -1       538 2.05882E-04 1.64425E-04 3.30872E-24
 -1       539 2.02381E-04 2.48076E-04 0.00000E+00
 -1       540 1.99231E-04 3.27123E-04 0.00000E+00
 -1       541 1.97183E-04 3.90075E-04 0.00000E+00
 -1       542 1.96238E-04 4.30174E-04 3.30872E-24
 -1       543 1.96013E-04 4.40811E-04-1.65436E-24
 -1       544 1.95690E-04 4.22759E-04 3.30872E-24
 -1       545 1.94516E-04 3.77011E-04 1.65436E-24
 -1       546 1.92328E-04 3.11702E-04 0.00000E+00
 -1       547 1.89366E-04 2.35082E-04 0.00000E+00
 -1       548 1.86431E-04 1.58838E-04 0.00000E+00
 -1       549 1.84314E-04 9.46542E-05-1.65436E-24
 -1       550 1.83214E-04 5.05674E-05 0.00000E+00
 -1       551 1.86316E-04-8.31266E-06 0.00000E+00
 -1       552 1.57861E-04-8.96214E-06 0.00000E+00
 -1       553 1.27104E-04-9.67389E-06-3.30872E-24
 -1       554 9.50030E-05-1.04268E-05 0.00000E+00
 -1       555 6.25188E-05-1.11935E-05 1.32349E-23
 -1       556 2.03875E-04 1.18209E-05 0.00000E+00
 -1       557 1.97692E-04 2.76891E-05 0.00000E+00
 -1       558 1.92845E-04 4.01490E-05 0.00000E+00
 -1       559 1.89200E-04 4.95109E-05-2.64698E-23
 -1       560 1.86627E-04 5.60856E-05 0.00000E+00
 -1       561 1.84998E-04 6.01866E-05 0.00000E+00
 -1       562 1.84188E-04 6.21285E-05 0.00000E+00
 -1       563 1.84073E-04 6.22267E-05 0.00000E+00
 -1       564 1.84531E-04 6.07977E-05 0.00000E+00
 -1       565 1.85441E-04 5.81587E-05 0.00000E+00
 -1       566 1.86683E-04 5.46272E-05 0.00000E+00
 -1       567 1.88138E-04 5.05214E-05 0.00000E+00
 -1       568 1.89689E-04 4.61594E-05 0.00000E+00
 -1       569 1.91217E-04 4.18594E-05 8.27181E-25
 -1       570 1.92604E-04 3.79398E-05 0.00000E+00
 -1       571 1.83024E-04 3.23565E-05 3.30872E-24
 -1       572 1.83123E-04 3.01589E-05-1.65436E-24
 -1       573 1.83222E-04 2.79112E-05-1.65436E-24
 -1       574 1.83321E-04 2.56298E-05 8.27181E-25
 -1       575 1.83420E-04 2.33311E-05-3.30872E-24
 -1       576 1.83520E-04 2.10317E-05 0.00000E+00
 -1       577 1.83619E-04 1.87480E-05 0.00000E+00
 -1       578 1.83719E-04 1.64965E-05 0.00000E+00
 -1       579 1.83818E-04 1.42936E-05 6.61744E-24
 -1       580 1.83918E-04 1.21560E-05 0.00000E+00
 -1       581 1.84018E-04 1.01002E-05 0.00000E+00
 -1       582 1.84118E-04 8.14253E-06 0.00000E+00
 -1       583 1.84218E-04 6.29956E-06 0.00000E+00
 -1       584 1.84319E-04 4.58758E-06-3.30872E-24
 -1       585 1.84419E-04 3.02272E-06-6.61744E-24
 -1       586 1.84687E-04 3.45282E-05 0.00000E+00
 -1       587 1.86406E-04 3.45674E-05-8.27181E-25
 -1       588 1.88127E-04 3.46062E-05-8.27181E-25
 -1       589 1.89893E-04 3.46443E-05 0.00000E+00
 -1       590 1.91748E-04 3.46812E-05 0.00000E+00
 -1       591 1.83658E-04 3.24501E-05-1.03398E-25
 -1       592 1.84392E-04 3.03917E-05 0.00000E+00
 -1       593 1.85131E-04 2.83193E-05-8.27181E-25
 -1       594 1.85873E-04 2.62374E-05-4.13590E-25
 -1       595 1.86617E-04 2.41510E-05-8.27181E-25
 -1       596 1.87360E-04 2.20646E-05-4.13590E-25
 -1       597 1.88102E-04 1.99830E-05-8.27181E-25
 -1       598 1.88840E-04 1.79109E-05 4.13590E-25
 -1       599 1.89573E-04 1.58530E-05 8.27181E-25
 -1       600 1.90299E-04 1.38139E-05 4.13590E-25
 -1       601 1.91016E-04 1.17984E-05 0.00000E+00
 -1       602 1.91723E-04 9.81112E-06 2.06795E-25
 -1       603 1.92417E-04 7.85677E-06 4.13590E-25
 -1       604 1.93098E-04 5.94016E-06-5.16988E-26
 -1       605 1.93763E-04 4.06589E-06 0.00000E+00
 -1       606 1.84533E-04 4.50053E-07 0.00000E+00
 -1       607 1.84543E-04-6.33780E-07 0.00000E+00
 -1       608 1.84552E-04-1.63676E-06 0.00000E+00
 -1       609 1.84560E-04-2.56457E-06 0.00000E+00
 -1       610 1.84568E-04-3.42295E-06 0.00000E+00
 -1       611 1.84577E-04-4.21770E-06 0.00000E+00
 -1       612 1.84585E-04-4.95462E-06 0.00000E+00
 -1       613 1.84593E-04-5.63954E-06 0.00000E+00
 -1       614 1.84602E-04-6.27827E-06 1.65436E-24
 -1       615 1.84610E-04-6.87660E-06-8.27181E-25
 -1       616 1.84618E-04-7.44038E-06 0.00000E+00
 -1       617 1.84627E-04-7.97540E-06 0.00000E+00
 -1       618 1.84635E-04-8.48749E-06 0.00000E+00
 -1       619 1.84644E-04-8.98245E-06-2.06795E-25
 -1       620 1.84652E-04-9.46611E-06-2.06795E-25
 -1       621 1.85884E-04 1.72369E-06 0.00000E+00
 -1       622 1.87406E-04 1.82784E-06 8.27181E-25
 -1       623 1.89054E-04 1.93178E-06 1.65436E-24
 -1       624 1.90794E-04 2.03539E-06 8.27181E-25
 -1       625 1.92592E-04 2.13870E-06 0.00000E+00
 -1       626 1.85070E-04 4.86153E-07 0.00000E+00
 -1       627 1.85598E-04-5.84368E-07 0.00000E+00
 -1       628 1.86106E-04-1.59964E-06 6.61744E-24
 -1       629 1.86596E-04-2.56781E-06 4.96308E-24
 -1       630 1.87071E-04-3.49711E-06 3.30872E-24
 -1       631 1.87535E-04-4.39573E-06-1.65436E-24
 -1       632 1.87991E-04-5.27187E-06-3.30872E-24
 -1       633 1.88441E-04-6.13377E-06-1.65436E-24
 -1       634 1.88889E-04-6.98964E-06 3.30872E-24
 -1       635 1.89338E-04-7.84768E-06 0.00000E+00
 -1       636 1.89791E-04-8.71611E-06 0.00000E+00
 -1       637 1.90250E-04-9.60315E-06 0.00000E+00
 -1       638 1.90720E-04-1.05170E-05 0.00000E+00
 -1       639 1.91202E-04-1.14660E-05 0.00000E+00
 -1       640 1.91700E-04-1.24582E-05-3.30872E-24
 -1       656 1.85370E-04-1.05225E-05 6.61744E-24
 -1       657 1.86501E-04-1.11243E-05 6.61744E-24
 -1       658 1.87912E-04-1.17246E-05 0.00000E+00
 -1       659 1.89458E-04-1.23247E-05-6.61744E-24
 -1       660 1.90953E-04-1.29265E-05 0.00000E+00
 -1       661 1.84925E-04-1.04675E-05 8.27181E-25
 -1       662 1.85229E-04-1.10825E-05-8.27181E-25
 -1       663 1.85565E-04-1.17842E-05 1.65436E-24
 -1       664 1.85932E-04-1.25659E-05 0.00000E+00
 -1       665 1.86326E-04-1.34220E-05-1.65436E-24
 -1       666 1.86746E-04-1.43464E-05 0.00000E+00
 -1       667 1.87189E-04-1.53335E-05 1.65436E-24
 -1       668 1.87654E-04-1.63777E-05 8.27181E-25
 -1       669 1.88138E-04-1.74737E-05 0.00000E+00
 -1       670 1.88640E-04-1.86160E-05-8.27181E-25
 -1       671 1.89157E-04-1.97996E-05 1.65436E-24
 -1       672 1.89687E-04-2.10194E-05 0.00000E+00
 -1       673 1.90229E-04-2.22702E-05-1.65436E-24
 -1       674 1.90779E-04-2.35475E-05 0.00000E+00
 -1       675 1.91338E-04-2.48460E-05 0.00000E+00
 -1       676 1.85127E-04-2.56448E-05 0.00000E+00
 -1       677 1.86486E-04-2.57490E-05 0.00000E+00
 -1       678 1.87843E-04-2.58532E-05 3.30872E-24
 -1       679 1.89199E-04-2.59571E-05 0.00000E+00
 -1       680 1.90551E-04-2.60609E-05-1.65436E-24
 -1       771 1.86476E-05 1.47766E-05 0.00000E+00
 -1       772 8.58750E-06 3.67409E-05 0.00000E+00
 -1       773 3.34613E-07 5.41563E-05 0.00000E+00
 -1       774-6.23546E-06 6.72812E-05 2.64698E-23
 -1       775-1.12444E-05 7.63838E-05 0.00000E+00
 -1       776-1.48190E-05 8.17497E-05 0.00000E+00
 -1       777-1.70856E-05 8.36741E-05 5.29396E-23
 -1       778-1.81732E-05 8.24664E-05-2.64698E-23
 -1       779-1.82101E-05 7.84442E-05-5.29396E-23
 -1       780-1.73269E-05 7.19369E-05 0.00000E+00
 -1       781-1.56529E-05 6.32804E-05 0.00000E+00
 -1       782-1.33192E-05 5.28196E-05 0.00000E+00
 -1       783-1.04559E-05 4.09040E-05 5.29396E-23
 -1       784-7.19439E-06 2.78892E-05 0.00000E+00
 -1       785-3.66504E-06 1.41342E-05 5.29396E-23
 -1       786 1.93772E-04 3.24572E-05 1.29247E-26
 -1       787 1.93814E-04 3.02502E-05 0.00000E+00
 -1       788 1.93856E-04 2.80849E-05 8.27181E-25
 -1       789 1.93898E-04 2.59531E-05 0.00000E+00
 -1       790 1.93941E-04 2.38501E-05 0.00000E+00
 -1       791 1.93983E-04 2.17711E-05-8.27181E-25
 -1       792 1.94026E-04 1.97140E-05-1.65436E-24
 -1       793 1.94069E-04 1.76765E-05-8.27181E-25
 -1       794 1.94112E-04 1.56585E-05 0.00000E+00
 -1       795 1.94155E-04 1.36599E-05-8.27181E-25
 -1       796 1.94198E-04 1.16824E-05 1.65436E-24
 -1       797 1.94241E-04 9.72799E-06 0.00000E+00
 -1       798 1.94285E-04 7.80092E-06 0.00000E+00
 -1       799 1.94328E-04 5.90549E-06 8.27181E-25
 -1       800 1.94371E-04 4.04924E-06-1.65436E-24
 -1       801 1.47887E-04 3.12092E-05 0.00000E+00
 -1       802 9.27300E-06 1.94699E-05-2.64698E-23
 -1       803-1.09101E-04 9.83673E-06 5.29396E-23
 -1       804-9.66616E-05 6.84772E-06-2.64698E-23
 -1       805-3.19276E-05 2.68906E-06-5.29396E-23
 -1       806 1.94465E-04 3.23884E-05 0.00000E+00
 -1       807 1.95182E-04 3.00888E-05 0.00000E+00
 -1       808 1.95887E-04 2.78206E-05 0.00000E+00
 -1       809 1.96578E-04 2.55877E-05 0.00000E+00
 -1       810 1.97254E-04 2.33943E-05-3.30872E-24
 -1       811 1.97914E-04 2.12443E-05 0.00000E+00
 -1       812 1.98556E-04 1.91417E-05 0.00000E+00
 -1       813 1.99179E-04 1.70903E-05 0.00000E+00
 -1       814 1.99782E-04 1.50941E-05 0.00000E+00
 -1       815 2.00363E-04 1.31570E-05 0.00000E+00
 -1       816 2.00920E-04 1.12829E-05 0.00000E+00
 -1       817 2.01452E-04 9.47574E-06 0.00000E+00
 -1       818 2.01958E-04 7.73934E-06-1.65436E-24
 -1       819 2.02436E-04 6.07761E-06 1.65436E-24
 -1       820 2.02885E-04 4.49439E-06 0.00000E+00
 -1       821 1.94286E-04-1.24918E-07 1.65436E-24
 -1       822 1.94146E-04-3.64162E-06 0.00000E+00
 -1       823 1.94003E-04-7.88289E-06 0.00000E+00
 -1       824 1.93858E-04-1.24168E-05 0.00000E+00
 -1       825 1.93714E-04-1.67324E-05 0.00000E+00
 -1       826 1.93572E-04-2.03198E-05 0.00000E+00
 -1       827 1.93434E-04-2.28676E-05 0.00000E+00
 -1       828 1.93297E-04-2.40707E-05 0.00000E+00
 -1       829 1.93162E-04-2.39901E-05 3.30872E-24
 -1       830 1.93025E-04-2.26943E-05 0.00000E+00
 -1       831 1.92888E-04-2.05830E-05 3.30872E-24
 -1       832 1.92749E-04-1.80605E-05 0.00000E+00
 -1       833 1.92611E-04-1.56434E-05 0.00000E+00
 -1       834 1.92476E-04-1.38475E-05 0.00000E+00
 -1       835 1.92342E-04-1.30199E-05 8.27181E-25
 -1       836 1.96109E-04 2.36479E-06 0.00000E+00
 -1       837 1.97676E-04 2.49291E-06-1.65436E-24
 -1       838 1.99148E-04 2.62097E-06 3.30872E-24
 -1       839 2.00555E-04 2.74834E-06-8.27181E-25
 -1       840 2.01930E-04 2.87554E-06 8.27181E-25
 -1       856 1.92199E-04-1.45683E-05 8.27181E-25
 -1       857 1.92180E-04-1.54989E-05-5.16988E-26
 -1       858 1.92160E-04-1.63148E-05-2.06795E-25
 -1       859 1.92141E-04-1.70372E-05 0.00000E+00
 -1       860 1.92121E-04-1.76874E-05 0.00000E+00
 -1       861 1.92101E-04-1.82866E-05 2.06795E-25
 -1       862 1.92081E-04-1.88561E-05 0.00000E+00
 -1       863 1.92061E-04-1.94173E-05 0.00000E+00
 -1       864 1.92042E-04-1.99915E-05 0.00000E+00
 -1       865 1.92022E-04-2.06001E-05 0.00000E+00
 -1       866 1.92002E-04-2.12643E-05 0.00000E+00
 -1       867 1.91982E-04-2.20055E-05 0.00000E+00
 -1       868 1.91962E-04-2.28448E-05 0.00000E+00
 -1       869 1.91941E-04-2.38034E-05 0.00000E+00
 -1       870 1.91921E-04-2.49024E-05 0.00000E+00
 -1       871 1.93569E-04-1.35070E-05-8.27181E-25
 -1       872 1.95070E-04-1.35153E-05 0.00000E+00
 -1       873 1.96651E-04-1.35243E-05 0.00000E+00
 -1       874 1.98243E-04-1.35341E-05-3.10193E-25
 -1       875 1.99778E-04-1.35444E-05-1.24077E-24
 -1       876 1.92742E-04-1.45538E-05 3.30872E-24
 -1       877 1.93247E-04-1.55387E-05 0.00000E+00
 -1       878 1.93730E-04-1.64648E-05 0.00000E+00
 -1       879 1.94194E-04-1.73394E-05 0.00000E+00
 -1       880 1.94642E-04-1.81700E-05 3.30872E-24
 -1       881 1.95076E-04-1.89639E-05 0.00000E+00
 -1       882 1.95499E-04-1.97285E-05-3.30872E-24
 -1       883 1.95914E-04-2.04712E-05 1.65436E-24
 -1       884 1.96323E-04-2.11992E-05-3.30872E-24
 -1       885 1.96730E-04-2.19199E-05-1.65436E-24
 -1       886 1.97137E-04-2.26407E-05 0.00000E+00
 -1       887 1.97546E-04-2.33688E-05 1.65436E-24
 -1       888 1.97960E-04-2.41117E-05 0.00000E+00
 -1       889 1.98383E-04-2.48768E-05 1.65436E-24
 -1       890 1.98815E-04-2.56715E-05 1.65436E-24
 -1       891 1.93267E-04-2.62201E-05 1.65436E-24
 -1       892 1.94612E-04-2.62778E-05 8.27181E-25
 -1       893 1.95908E-04-2.63354E-05 8.27181E-25
 -1       894 1.97131E-04-2.63927E-05-4.13590E-25
 -1       895 1.98255E-04-2.64498E-05-8.27181E-25
 -1       956 2.03175E-04 1.66717E-06-1.65436E-24
 -1       957 2.03043E-04 4.32394E-07-1.65436E-24
 -1       958 2.02910E-04-7.21584E-07 0.00000E+00
 -1       959 2.02777E-04-1.80610E-06 0.00000E+00
 -1       960 2.02644E-04-2.83254E-06 3.30872E-24
 -1       961 2.02512E-04-3.81231E-06 0.00000E+00
 -1       962 2.02379E-04-4.75683E-06-3.30872E-24
 -1       963 2.02246E-04-5.67755E-06-1.65436E-24
 -1       964 2.02113E-04-6.58591E-06 3.30872E-24
 -1       965 2.01981E-04-7.49335E-06 1.65436E-24
 -1       966 2.01848E-04-8.41131E-06 0.00000E+00
 -1       967 2.01715E-04-9.35124E-06 1.65436E-24
 -1       968 2.01583E-04-1.03245E-05 6.61744E-24
 -1       969 2.01450E-04-1.13426E-05 0.00000E+00
 -1       970 2.01318E-04-1.24169E-05-3.30872E-24
 -1       971 2.01068E-04-1.46991E-05 0.00000E+00
 -1       972 2.00946E-04-1.57454E-05-1.65436E-24
 -1       973 2.00825E-04-1.67075E-05 3.30872E-24
 -1       974 2.00704E-04-1.75963E-05 0.00000E+00
 -1       975 2.00582E-04-1.84227E-05 0.00000E+00
 -1       976 2.00461E-04-1.91974E-05 1.65436E-24
 -1       977 2.00339E-04-1.99315E-05-3.30872E-24
 -1       978 2.00218E-04-2.06357E-05 1.65436E-24
 -1       979 2.00097E-04-2.13211E-05 3.30872E-24
 -1       980 1.99975E-04-2.19984E-05-1.65436E-24
 -1       981 1.99854E-04-2.26787E-05 0.00000E+00
 -1       982 1.99733E-04-2.33728E-05 1.65436E-24
 -1       983 1.99612E-04-2.40916E-05 0.00000E+00
 -1       984 1.99491E-04-2.48460E-05 0.00000E+00
 -1       985 1.99371E-04-2.56470E-05 3.30872E-24
 -3
    1PSTEP                        28          14           1          
  100CL  114 6.62933E-01         409                     0   14           1
 -4  STRESS      6    1
 -5  SXX         1    4    1    1
 -5  SYY         1    4    2    2
 -5  SZZ         1    4    3    3
 -5  SXY         1    4    1    2
 -5  SYZ         1    4    2    3
 -5  SZX         1    4    3    1
 -1         1-5.34726E+06-1.57250E+06-1.13263E+06-1.32662E+06-3.46336E-09 1.55211E-07
 -1         2 1.53043E+06 2.24120E+07 5.20677E+06 6.78668E+06 2.61643E-08 9.31905E-08
 -1         3-1.48869E+03-1.55587E+06 4.05387E+02-2.20879E+03-5.16064E-10-2.88128E-08
 -1         5-7.46676E+01 3.86315E+05-1.59346E-01 7.37980E+00-4.82572E-10 4.94347E-08
 -1         8-5.52762E+05-2.00323E+05-6.26747E+04-2.42548E+05 2.94676E-10-8.07886E-08
 -1         9 1.18119E+07 3.93469E+06 2.81712E+06-3.03493E+05 8.73115E-09 2.77883E-07
 -1        10-2.30428E+03-1.62134E+06-3.94044E+03-1.49464E+04-1.35587E-08-6.71553E-08
 -1        12-7.86069E+01 3.88271E+05 3.17623E+02-1.50980E+01 1.99361E-09-3.81661E-08
 -1        15 9.23101E+02 5.07289E+02 2.98390E+03 8.12086E-01-2.74099E-10-2.08707E-07
 -1        16 2.29277E+07-3.35536E+05 3.11955E+06-2.29810E+06 1.64340E-08 1.18433E-07
 -1        17 8.39606E+06 6.29122E+06 2.26787E+06 6.01777E+06 2.61061E-08 1.55531E-08
 -1        18 1.42617E+05 3.35744E+04 4.23863E+03-1.19523E+05 1.42759E-08-8.61155E-09
 -1        19 1.22516E+05 1.42359E+05-8.84281E+02 2.19725E+04 1.52995E-09 6.53818E-09
 -1        20-8.18819E+04-5.73549E+05-1.28696E+05 2.51339E+04-2.58600E-09-1.18804E-08
 -1        21-4.55685E+01-2.95998E+05-9.23982E+02 2.76125E+02 1.66903E-08 1.19635E-08
 -1        24 1.40819E+07 1.21240E+07 3.89742E+06 1.12249E+07-1.72896E-07-4.83124E-08
 -1        25 1.25638E+05 2.69662E+05 1.00601E+05-6.47322E+05 3.91537E-10 4.65516E-09
 -1        26-5.53523E+04 9.22812E+04-2.46212E+04 1.26947E+03-2.03727E-10 1.83657E-08
 -1        27-7.55899E+04-3.09878E+05-1.13287E+05 6.89565E+04 3.85535E-09 2.86764E-09
 -1        28 2.22387E+04-8.53386E+04 1.68962E+04 2.06211E+04-5.86266E-09 2.50876E-09
 -1        32-1.68051E+06-3.18247E+06-1.97782E+05 4.61168E+05-4.25644E-08-6.07622E-09
 -1        33-1.78428E+05 9.29853E+04 3.23818E+04-3.85020E+04-3.24455E-09-5.76923E-10
 -1        34-2.23560E+05-2.50233E+04 6.89381E+02 7.56348E+04-5.25749E-09 1.11828E-08
 -1        35-2.29290E+04-3.38440E+04-1.34826E+03 5.14940E+04-5.08986E-09 2.28538E-08
 -1        51 6.08736E+04-1.70595E+05 1.28684E+05-4.34162E+05-1.01863E-10 7.41056E-08
 -1        52 2.05787E+04-1.48076E+05 6.74585E+04-5.06368E+05 2.71939E-10-7.69069E-08
 -1        53 4.15711E+03-1.63428E+05 3.50229E+04-4.32674E+05 3.31056E-10 1.56855E-07
 -1        54 7.26486E+03-1.59212E+05 2.85663E+04-5.07822E+05-1.30967E-10-1.85146E-07
 -1        55 1.58429E+04-1.66146E+05 3.44979E+04-4.32588E+05 6.54836E-11-6.35191E-08
 -1        56-9.81066E+06-1.39618E+06-9.25556E+05-4.10886E+06 1.49012E-08-6.26605E-08
 -1        57-1.11261E+07-7.66830E+05-5.44955E+05-2.66810E+06 3.77768E-08 2.12167E-07
 -1        58-9.58804E+06-1.87112E+06-2.01913E+05-4.31260E+06-9.57516E-09 4.82542E-08
 -1        59-1.13402E+07-2.15870E+05-1.07083E+05-2.59228E+06 5.77256E-09-9.23428E-08
 -1        60-9.68632E+06-1.87453E+06-5.87999E+04-4.26364E+06-3.46845E-08 1.44355E-08
 -1        61-1.06332E+07-5.76911E+05 2.10670E+04-2.84647E+06 4.58931E-08 1.03675E-07
 -1        62-1.01428E+07-1.61299E+06-8.46341E+04-3.93700E+06-2.38797E-08 6.31844E-08
 -1        63-9.65856E+06-1.33956E+06 6.26681E+04-3.58805E+06-6.94854E-09-1.45454E-07
 -1        64-1.05377E+07-1.19989E+06-7.79190E+04-3.44449E+06-4.43833E-09-1.34911E-07
 -1        65-9.27344E+06-1.98234E+06 1.75417E+04-4.56587E+06-1.73895E-08-3.23562E-08
 -1        66-1.06698E+07-8.71698E+05-4.78070E+04-3.06656E+06-7.05768E-10 3.29046E-07
 -1        67-9.30304E+06-2.25009E+06-9.62991E+04-5.03232E+06-1.05684E-07 1.87487E-07
 -1        68-1.06500E+07-8.32198E+05-1.87900E+05-3.06581E+06-6.21294E-08 1.28930E-08
 -1        69-9.46669E+06-2.32145E+06-4.83761E+05-4.53354E+06-7.44531E-08-1.28224E-07
 -1        70-1.03739E+07-9.05206E+05-8.51158E+05-3.47938E+06 1.43700E-10 8.23056E-08
 -1        86-1.56161E+06-1.58772E+07-2.85076E+06-3.18600E+06-2.69341E-07-6.65023E-08
 -1        87 2.46127E+06 6.48231E+06 2.37082E+06 5.86263E+06-4.44648E-07-1.27058E-07
 -1        88-4.66601E+05-1.92121E+06 2.24954E+05-2.59886E+06-4.35017E-07-2.76146E-07
 -1        89 3.29511E+06 6.17463E+06 2.43030E+06 6.06176E+06-5.71548E-07-4.06020E-07
 -1        90-2.29776E+06-1.56482E+07-3.07669E+06-3.41576E+06-1.28355E-07-1.74332E-08
 -1       121-2.03921E+03-1.56078E+06-5.48268E+02 1.09475E+03 1.50865E-09-1.09940E-08
 -1       122-1.30318E+03-1.55594E+06 7.68379E+02-4.42173E+03-5.50864E-09-3.57977E-09
 -1       123-2.05892E+03-1.56091E+06 2.58290E+02 3.26958E+03 4.39866E-09 2.30211E-08
 -1       124 3.30459E+02-1.55549E+06 2.94400E+03-9.25355E+03-1.02609E-08 4.29482E-08
 -1       125-2.86640E+03-1.56181E+06 3.45149E+03 5.88057E+03 6.77210E-09 1.35915E-08
 -1       191-7.89785E+01 3.86334E+05-4.13633E+00-3.66185E+00-5.54081E-10 1.39880E-08
 -1       192-7.92922E+01 3.86314E+05-1.77680E+00 3.72477E+01-8.18147E-10-1.73468E-08
 -1       193-9.33760E+01 3.86334E+05-9.25060E+00-3.34065E+01-9.71795E-10-4.00178E-09
 -1       194-1.28550E+02 3.86299E+05-2.25915E+01 3.03047E+02-5.38421E-10 2.80825E-08
 -1       195-2.30764E+02 3.86336E+05-5.65151E+01-2.69122E+02-1.18234E-09 4.92400E-09
 -1       251-8.61208E+05 1.61515E+04-3.77049E+04-1.44332E+04 3.74044E-09-7.85803E-09
 -1       252-8.75427E+05-1.86941E+04-2.62223E+04 5.10439E+04-4.90644E-09 1.75232E-08
 -1       253-8.69651E+05 2.47758E+03-1.01663E+04-1.01477E+04-3.59159E-09-8.95488E-08
 -1       254-8.61921E+05-3.00917E+03-4.50918E+03 3.62957E+04 1.24865E-08 2.55692E-07
 -1       255-8.74089E+05 4.95233E+01-3.54830E+03 3.11162E+02-1.16002E-08 3.67766E-07
 -1       256-8.56468E+05-2.72209E+02 1.22642E+03 1.25846E+04 2.21703E-08 1.40391E-07
 -1       257-8.74656E+05-5.90517E+02-1.41210E+03 1.35516E+04-9.18453E-09 7.52198E-09
 -1       258-8.59362E+05 9.27341E+02 2.74542E+03-1.23165E+04 7.72980E-09-3.06673E-09
 -1       259-8.71449E+05-9.53846E+02 1.36535E+03 2.52098E+04-1.28571E-08 1.53566E-07
 -1       260-8.65887E+05 2.97643E+03 5.60225E+03-3.02695E+04 1.46842E-08-2.22986E-07
 -1       261-8.68779E+05-2.14044E+03 8.68501E+03 3.15214E+04 1.92192E-08-2.83301E-07
 -1       262-8.64604E+05 1.18588E+04 2.15758E+04-3.55194E+04-1.73015E-08-8.40139E-08
 -1       263-8.72988E+05-9.60414E+03 3.41803E+04 3.04695E+04 1.96868E-08 5.70617E-08
 -1       264-8.33916E+05 6.72877E+04 9.46514E+04-2.62465E+04 2.76118E-08 3.65893E-07
 -1       265-8.98963E+05-5.77070E+04 1.31767E+05 2.22359E+04 7.65442E-09 3.13456E-07
 -1       266-1.67115E+04-7.81512E+03 3.92059E+04-1.73747E+01-7.27596E-12-5.29529E-08
 -1       267 1.93729E+04 9.10739E+03 2.77122E+04 2.00487E+01 6.41194E-11 5.29903E-08
 -1       268-2.59788E+03-1.28993E+03 1.03004E+04-2.55445E+00 1.59162E-11 1.07555E-07
 -1       269 3.06732E+03 1.54369E+03 6.69518E+03 2.97566E+00 7.54881E-11-2.15130E-07
 -1       270-4.60409E+02-2.53644E+02 3.23186E+03-4.03813E-01 1.69393E-11 1.00965E-07
 -1       271-1.46817E+06-1.87205E+05-1.10644E+05-5.71528E+05 5.27507E-10 1.21567E-07
 -1       272-1.46181E+06-3.01321E+05-6.94144E+04-6.11538E+05 1.65674E-08-2.89792E-07
 -1       273-1.49159E+06-2.10571E+05-2.68613E+04-5.63499E+05-1.71276E-08-2.53018E-07
 -1       274-1.43525E+06-2.73152E+05-1.39294E+04-6.26798E+05 1.78134E-08 9.97243E-08
 -1       275-1.49719E+06-2.10066E+05-6.70957E+03-5.59719E+05 4.19823E-09 1.69530E-09
 -1       276-1.42972E+06-2.74121E+05-2.80644E+03-6.35510E+05 1.08776E-08-2.99169E-08
 -1       277-1.50002E+06-2.07404E+05-1.86246E+03-5.56983E+05 2.30375E-08-3.06782E-07
 -1       278-1.42762E+06-2.77318E+05-6.95319E+02-6.41905E+05-1.40044E-08-9.46836E-08
 -1       279-1.50182E+06-2.05242E+05-8.51404E+02-5.55071E+05-4.07781E-08 4.34638E-08
 -1       280-1.42666E+06-2.79701E+05-9.56954E+02-6.46088E+05-2.64276E-08-1.04957E-07
 -1       281-1.50277E+06-2.03894E+05-1.76992E+03-5.54004E+05 2.21280E-08 1.26154E-07
 -1       282-1.42703E+06-2.81819E+05-4.11311E+03-6.47778E+05 2.05391E-08 2.42428E-07
 -1       283-1.50228E+06-2.02710E+05-7.32263E+03-5.53892E+05-1.35267E-09 5.02769E-09
 -1       284-1.43360E+06-2.91358E+05-1.99427E+04-6.45582E+05 1.33077E-08-3.03004E-07
 -1       285-1.49607E+06-1.95521E+05-3.11614E+04-5.55672E+05-4.51746E-08-1.13132E-07
 -1       301-8.22137E+03-6.49683E+05 1.66746E+05-1.14294E+06 1.30531E-08 3.10974E-08
 -1       302-1.02625E+04-6.02631E+05 1.00350E+05-1.66809E+06 4.00905E-09-1.71785E-08
 -1       303-2.26489E+04-6.42462E+05 5.66264E+04-1.13979E+06-1.31986E-08 2.03821E-07
 -1       304-2.60638E+04-6.09929E+05 5.68592E+04-1.66753E+06-3.98722E-09 1.24535E-07
 -1       305-2.70571E+04-6.31146E+05 6.97400E+04-1.14288E+06 2.04491E-08-1.04483E-08
 -1       306-3.01349E+07-6.21746E+06-8.61087E+06-4.86948E+05-7.63685E-08-2.00729E-07
 -1       307 2.52827E+07 3.29147E+06 5.50769E+06-1.52840E+07-8.87914E-07-1.99158E-07
 -1       308-6.91323E+06-1.01278E+06-4.35200E+05 5.21176E+06-2.15659E-07 5.28045E-07
 -1       309-3.18660E+06 8.74545E+06 2.29605E+06-2.07118E+07 4.12794E-07 5.11478E-07
 -1       310-1.26605E+07-1.95744E+06-2.06530E+06 5.22039E+06-8.73115E-09 5.99975E-08
 -1       311 3.87011E+07-3.03158E+03 7.31864E+06-8.71690E+06 8.25996E-07 2.04076E-07
 -1       312-3.19968E+07-6.82207E+06-8.57052E+06-5.11332E+06 1.27126E-07 2.71160E-07
 -1       313 4.54216E+07 1.51961E+07 1.06953E+07 2.39542E+07-1.56317E-07 4.19095E-09
 -1       314-1.71589E+07-1.78765E+07-7.53212E+06-1.25437E+07 5.45697E-07-1.50700E-07
 -1       315-1.94048E+06 2.98330E+07 5.66793E+06 1.04517E+07-5.16317E-07-1.56433E-07
 -1       316 1.43913E+06-9.82882E+06-4.27084E+05-2.48843E+06-1.21897E-06-1.97295E-07
 -1       317-1.70937E+07 2.24517E+07 2.24931E+06-8.89792E+06 8.62376E-07-6.91449E-07
 -1       318-1.08762E+06-1.28574E+07-2.06668E+06-4.24287E+06-9.05537E-07 2.26835E-07
 -1       319 7.30581E+06 3.21099E+07 7.07544E+06 1.67027E+07-1.24244E-07 2.26981E-07
 -1       320-2.26549E+07-1.76979E+07-9.88847E+06-1.28478E+07 1.80211E-07-5.84405E-08
 -1       336-7.50718E+02-1.68960E+06-1.38267E+04 8.89593E+03-2.64936E-08-2.97150E-08
 -1       337-5.40397E+03-1.68913E+06-1.80384E+04-2.16128E+04-4.90279E-08-1.79862E-08
 -1       338 2.68812E+02-1.68908E+06-2.84190E+04 1.24655E+04-3.45726E-08-9.54606E-09
 -1       339-3.01579E+04-1.70634E+06-6.42235E+04-2.86061E+04-6.24677E-08 6.53745E-09
 -1       340 1.98568E+04-1.67456E+06-1.01174E+05 1.57584E+04-4.24916E-08 1.91503E-08
 -1       406 8.33454E+01 3.90199E+05 8.64915E+02 2.85016E+02 3.26872E-09-2.36523E-08
 -1       407 1.95842E+02 3.90377E+05 1.51547E+03-2.96173E+02 1.99361E-09-2.02090E-09
 -1       408 6.36985E+02 3.90118E+05 2.86704E+03 1.07932E+01 4.09523E-09-1.10285E-08
 -1       409 2.93701E+03 3.91273E+05 6.38175E+03 2.49501E+02 2.52987E-09-2.68992E-08
 -1       410 8.61389E+03 3.89302E+05 1.29777E+04-2.77367E+02 4.63297E-09-1.79607E-08
 -1       521-3.17255E+07-7.69156E+06-1.00815E+07-9.00276E+04-8.88249E-08-2.93367E-08
 -1       522 2.61972E+07 4.34723E+06 5.62826E+06-1.88294E+07-4.86587E-07-9.46748E-08
 -1       523-7.48422E+06-1.32989E+06-4.26580E+05 5.66833E+06-4.65370E-08-5.33284E-07
 -1       524-6.69400E+06 1.18508E+07 2.48968E+06-2.38084E+07 8.25545E-07-5.75430E-07
 -1       525-1.34617E+07-2.60648E+06-2.27536E+06 5.68353E+06 5.74451E-07-1.97120E-07
 -1       526 4.23503E+07-1.02876E+05 7.69392E+06-1.13758E+07 3.21772E-07-4.34549E-07
 -1       527-3.38961E+07-8.54020E+06-9.89873E+06-4.98062E+06 1.54600E-07-1.19835E-07
 -1       528 4.96806E+07 1.69902E+07 1.11760E+07 2.73010E+07-1.28464E-07 1.01078E-07
 -1       529-1.81110E+07-2.01314E+07-8.65281E+06-1.25831E+07-1.41154E-07-7.61356E-08
 -1       530-4.43114E+06 3.47102E+07 6.01076E+06 9.88447E+06-1.29221E-08 4.67349E-07
 -1       531 1.44910E+06-1.09090E+07-3.98664E+05-2.42118E+06-8.65068E-07 3.66301E-07
 -1       532-1.95907E+07 2.44778E+07 2.46415E+06-1.32563E+07 3.47689E-07-5.66681E-07
 -1       533-1.12725E+06-1.40310E+07-2.20694E+06-4.03585E+06-3.95114E-07-8.40228E-07
 -1       534 5.31591E+06 3.73490E+07 7.37841E+06 1.73128E+07-8.48377E-08 7.48783E-07
 -1       535-2.38661E+07-2.01393E+07-1.13603E+07-1.29323E+07 1.35857E-07 4.67699E-07
 -1       536-7.06695E+05-4.67633E+04-4.84264E+04-5.47551E+04-2.93949E-09 4.89854E-08
 -1       537-5.43534E+04 4.46901E+04 8.39644E+04 1.23992E+05-1.15593E-07 6.55541E-08
 -1       538-3.94471E+05 3.35958E+03 3.51319E+03-7.22784E+04 3.01710E-08 1.06979E-07
 -1       539-2.68890E+05 2.84888E+03 2.49357E+04 1.38896E+05 1.76301E-07 1.19512E-07
 -1       540-4.97548E+05-4.26778E+02-2.13675E+04-7.01947E+04-1.32773E-08 1.19432E-07
 -1       541 1.47534E+05 1.69995E+04 1.06562E+05 9.80653E+04-3.99125E-08 6.45961E-08
 -1       542-7.99674E+05-2.01698E+04-8.43861E+04-3.05706E+04 5.80358E-08 4.10835E-08
 -1       543 4.06732E+05 2.73745E+04 1.58254E+05-1.33654E+04-3.15667E-08-5.06088E-09
 -1       544-7.49795E+05-1.65687E+04-7.49745E+04 4.05648E+04-4.89808E-09-3.79957E-08
 -1       545 2.97244E+04 9.50479E+03 7.99659E+04-1.13758E+05 4.96698E-10-8.40400E-08
 -1       546-4.32792E+05 6.10363E+03-1.22507E+04 6.94742E+04 1.50903E-08-8.82502E-08
 -1       547-2.86972E+05-4.65502E+03 1.06233E+04-1.41742E+05-1.25081E-07-8.51254E-08
 -1       548-4.41613E+05 4.72220E+03-2.38991E+04 6.92424E+04-1.31230E-07-9.11009E-08
 -1       549 4.88903E+04 1.61485E+04 6.06864E+04-1.11626E+05-4.88535E-08-4.96584E-08
 -1       550-7.59667E+05-2.22209E+04-1.29105E+05 3.86402E+04 9.84710E-09-5.76820E-08
 -1       551 4.07947E+04-7.49889E+05-1.59236E+04-1.24701E+06-1.04395E-07-1.13796E-08
 -1       552 9.32706E+04-7.94881E+05 9.89686E+03-1.77807E+06-7.42730E-08 3.42916E-08
 -1       553 7.17718E+04-7.91279E+05 3.20184E+04-1.24036E+06-1.20068E-07 2.57714E-08
 -1       554 1.32064E+05-8.10782E+05 8.10243E+04-1.78001E+06-7.84057E-08 1.34496E-08
 -1       555 1.01510E+05-8.14930E+05 1.47980E+05-1.24019E+06-1.26107E-07-1.15051E-08
 -1       556 2.23772E+05-3.83740E+05 2.56118E+04-4.07225E+05-2.27883E-08-1.72004E-08
 -1       557 3.54329E+05-4.88090E+05 1.60774E+04-5.27675E+05 7.49424E-09 4.01269E-09
 -1       558 2.05528E+05-3.76507E+05 2.29040E+03-4.11686E+05-9.45874E-09 1.41590E-08
 -1       559 3.29319E+05-4.88140E+05 2.42455E+03-5.48136E+05 1.45519E-08-1.31913E-08
 -1       560 1.90214E+05-3.66904E+05-1.51473E+03-4.22722E+05 8.23638E-09 2.99042E-09
 -1       561 3.10079E+05-4.80438E+05 1.25693E+02-5.61256E+05 1.01427E-08 1.14087E-08
 -1       562 1.78105E+05-3.59381E+05-1.33041E+03-4.31491E+05 7.56700E-09-1.76806E-09
 -1       563 2.95695E+05-4.74167E+05-3.83082E+01-5.70650E+05-8.63656E-09-1.93504E-08
 -1       564 1.69461E+05-3.53996E+05-6.02511E+02-4.37616E+05 6.83940E-09 2.05318E-09
 -1       565 2.86153E+05-4.70011E+05 2.33677E+01-5.76748E+05 1.51485E-08 1.05865E-08
 -1       566 1.64407E+05-3.50798E+05-2.60894E+02-4.41152E+05-9.28412E-09-3.60851E-08
 -1       567 2.81511E+05-4.67992E+05-3.63003E+02-5.79567E+05 1.68366E-08 1.54250E-09
 -1       568 1.63032E+05-3.49956E+05-1.12651E+03-4.42209E+05 2.05273E-09 3.71801E-09
 -1       569 2.80383E+05-4.67917E+05-2.84517E+03-5.78142E+05-1.35115E-08 1.70839E-08
 -1       570 1.66428E+05-3.53188E+05-6.21936E+03-4.41190E+05 7.06495E-09-3.72711E-09
 -1       571 2.90443E+05 1.05072E+04 1.49876E+04-9.51756E+04 3.00042E-09-1.16793E-08
 -1       572 2.92615E+05 3.96143E+03 7.34510E+03-1.04417E+05 4.05498E-09-2.07519E-08
 -1       573 2.91306E+05 1.24716E+03 3.26366E+03-9.49992E+04 2.50475E-09-1.34332E-08
 -1       574 2.91519E+05 7.28893E+02 1.63668E+03-1.04641E+05 4.40468E-09-2.11148E-08
 -1       575 2.91399E+05 4.49589E+02 7.72433E+02-9.49751E+04-5.10370E-09-5.94991E-09
 -1       576 2.91384E+05 4.61102E+02 3.95412E+02-1.04671E+05-1.12559E-08-1.41454E-08
 -1       577 2.91439E+05 3.91523E+02 1.97256E+02-9.49717E+04-6.02540E-09-6.22458E-09
 -1       578 2.91414E+05 4.23073E+02 1.13683E+02-1.04676E+05-5.25006E-09 2.18733E-09
 -1       579 2.91511E+05 3.54875E+02 7.76056E+01-9.49714E+04 5.64614E-09 7.98173E-09
 -1       580 2.91516E+05 3.72025E+02 8.94087E+01-1.04671E+05-1.32568E-08 7.98536E-10
 -1       581 2.91625E+05 2.96142E+02 1.34352E+02-9.49773E+04-6.43195E-09 8.92487E-09
 -1       582 2.91690E+05 3.33617E+02 2.72889E+02-1.04609E+05-1.67338E-08-1.00845E-08
 -1       583 2.91766E+05 3.35412E+02 5.23284E+02-9.50339E+04-1.74077E-08-1.02334E-08
 -1       584 2.92061E+05 7.62870E+02 1.18429E+03-1.04133E+05-1.09139E-08-2.87400E-10
 -1       585 2.91796E+05 1.75778E+03 2.39767E+03-9.54529E+04-8.79299E-09 4.28918E-09
 -1       586-3.42623E+03 1.16882E+05-2.91410E+03-2.50631E+05-5.44787E-09 3.47609E-09
 -1       587-1.34193E+03 1.16634E+05 7.73610E+02-2.75838E+05-7.97809E-09-3.12957E-09
 -1       588 3.95970E+02 1.16440E+05 4.76231E+03-2.50493E+05-4.99676E-09 3.39332E-09
 -1       589 5.08413E+03 1.18915E+05 1.23498E+04-2.75605E+05-6.64841E-09-2.78878E-08
 -1       590 1.66135E+04 1.15106E+05 2.59056E+04-2.50924E+05-6.38101E-09-1.52104E-08
 -1       591-7.50129E+04-1.59802E+04-2.25302E+04-3.19737E+04-6.98469E-09-9.38508E-09
 -1       592-7.91004E+04-1.95400E+04-1.22042E+04-3.56014E+04-4.99668E-10-2.56435E-08
 -1       593-7.72663E+04-1.43453E+04-5.07999E+03-3.36256E+04 6.48813E-09-1.47249E-08
 -1       594-7.59896E+04-1.62340E+04-2.53351E+03-3.57192E+04 1.68291E-09 6.83531E-09
 -1       595-7.74380E+04-1.43399E+04-1.16314E+03-3.37007E+04-1.11918E-09 5.37671E-09
 -1       596-7.57766E+04-1.60828E+04-5.91074E+02-3.56939E+04 6.05115E-09-9.10015E-09
 -1       597-7.74596E+04-1.43554E+04-3.21410E+02-3.37035E+04 7.99753E-09-1.02017E-08
 -1       598-7.57557E+04-1.60768E+04-2.57555E+02-3.56868E+04 3.14139E-09 1.93029E-09
 -1       599-7.74583E+04-1.43559E+04-3.27973E+02-3.37032E+04 7.14340E-09-2.28079E-09
 -1       600-7.57767E+04-1.60833E+04-6.08449E+02-3.56918E+04 7.48344E-09 2.88537E-09
 -1       601-7.74337E+04-1.43413E+04-1.19991E+03-3.36997E+04 1.84173E-09-1.21534E-08
 -1       602-7.59964E+04-1.62382E+04-2.61486E+03-3.57140E+04-6.28097E-09-6.42103E-10
 -1       603-7.72536E+04-1.43498E+04-5.24376E+03-3.36231E+04 1.92654E-09 2.02499E-09
 -1       604-7.92250E+04-1.96311E+04-1.25967E+04-3.55676E+04 2.62378E-09 7.65795E-10
 -1       605-7.49078E+04-1.60551E+04-2.32551E+04-3.19374E+04 3.31011E-09 1.31131E-08
 -1       606 2.67060E+04-1.43594E+04-2.57410E+04 2.39966E+04 7.75799E-09 1.31195E-09
 -1       607 2.23078E+04-4.69001E+03-1.28190E+04 2.69674E+04 6.71207E-10-1.27511E-09
 -1       608 2.48145E+04-8.46300E+02-5.73862E+03 2.38280E+04-5.04588E-09-1.39357E-08
 -1       609 2.43341E+04-2.90177E+02-2.89900E+03 2.71815E+04-3.30965E-09 3.93129E-10
 -1       610 2.46005E+04-4.13706E+01-1.38315E+03 2.38080E+04-3.18596E-09 7.95694E-09
 -1       611 2.45251E+04-4.16963E+01-6.97385E+02 2.72046E+04 3.22871E-10 1.71683E-08
 -1       612 2.45533E+04-2.76514E+01-3.31541E+02 2.38059E+04-1.67111E-08 3.69937E-09
 -1       613 2.45368E+04-3.76133E+01-1.48587E+02 2.72073E+04-3.16522E-08-1.68598E-08
 -1       614 2.45311E+04-3.40956E+01-3.48699E+01 2.38052E+04-3.10538E-08 3.93334E-09
 -1       615 2.45315E+04-3.61333E+01 6.21947E+01 2.72078E+04-3.78550E-08-2.50111E-10
 -1       616 2.45137E+04-3.09780E+01 1.86581E+02 2.38055E+04-1.59816E-08 5.62227E-09
 -1       617 2.45539E+04 3.63438E+00 4.25713E+02 2.72073E+04-5.25688E-10 8.42988E-09
 -1       618 2.44768E+04 9.17520E+01 8.58106E+02 2.38058E+04-5.01996E-09 6.81507E-09
 -1       619 2.48568E+04 6.67131E+02 1.92695E+03 2.72067E+04-8.86348E-09 9.34733E-10
 -1       620 2.41918E+04 2.12657E+03 3.87312E+03 2.38074E+04-3.01100E-09-9.53696E-09
 -1       621 5.04390E+02 3.01443E+05 3.83337E+03 4.09981E+04 9.12223E-10 3.69710E-09
 -1       622 6.70786E+02 3.02327E+05 3.41921E+03 5.95188E+04 1.14460E-09 2.81898E-09
 -1       623 1.43277E+02 3.01632E+05 4.13009E+03 4.08126E+04 1.26420E-09-4.18368E-10
 -1       624 2.12708E+03 3.03551E+05 8.02442E+03 5.97013E+04 1.33832E-09-6.90989E-10
 -1       625 2.07826E+03 3.00039E+05 1.40306E+04 4.08094E+04 1.63072E-09 4.07749E-09
 -1       626 2.60834E+05 6.13809E+04 5.06399E+03 1.26737E+05 1.77261E-09 1.23528E-08
 -1       627 2.58508E+05 6.27950E+04 2.44030E+03 1.31000E+05-1.62208E-09-9.32698E-09
 -1       628 2.60961E+05 5.90627E+04 1.03208E+03 1.27597E+05-2.56296E-09 9.62473E-10
 -1       629 2.57879E+05 6.21237E+04 5.05189E+02 1.31239E+05-3.00315E-09 1.11515E-09
 -1       630 2.60975E+05 5.89507E+04 2.34504E+02 1.27633E+05-1.57934E-09 4.69868E-10
 -1       631 2.57812E+05 6.20983E+04 1.26454E+02 1.31241E+05 3.85762E-09 2.46133E-08
 -1       632 2.60972E+05 5.89547E+04 8.36807E+01 1.27628E+05 8.01037E-09-9.08722E-09
 -1       633 2.57804E+05 6.21001E+04 9.39328E+01 1.31238E+05 5.15683E-10-2.02558E-08
 -1       634 2.60967E+05 5.89518E+04 1.52432E+02 1.27628E+05-1.02449E-09 7.30893E-09
 -1       635 2.57818E+05 6.20984E+04 3.08839E+02 1.31243E+05-6.43058E-09-2.62207E-09
 -1       636 2.60958E+05 5.89460E+04 6.23898E+02 1.27628E+05-1.16006E-09 8.01401E-09
 -1       637 2.57953E+05 6.21954E+04 1.37191E+03 1.31242E+05 3.23780E-10-1.03164E-08
 -1       638 2.60909E+05 5.92490E+04 2.81880E+03 1.27491E+05-1.55705E-09-1.13346E-08
 -1       639 2.59434E+05 6.42548E+04 6.66944E+03 1.30807E+05 1.14169E-08 8.63065E-09
 -1       640 2.60704E+05 6.53986E+04 1.38402E+04 1.24900E+05 6.88988E-09 1.53286E-08
 -1       656 6.65750E+04-1.70380E+06-1.60708E+05-2.57059E+03-5.89353E-10-1.10622E-08
 -1       657-8.80729E+04-1.77642E+06-1.33137E+05 5.15412E+03-1.55705E-09-2.71790E-08
 -1       658 2.12217E+04-1.72443E+06-8.19958E+04-4.65445E+03-2.13277E-10 1.52366E-08
 -1       659-9.52377E+04-1.77983E+06-1.42553E+05 6.88527E+03-1.33150E-09 1.59719E-08
 -1       660 7.37238E+04-1.70041E+06-1.76896E+05-4.30173E+03-2.63390E-09 4.20340E-09
 -1       661 1.58636E+05 1.65994E+04 1.67217E+04 6.20125E+04-4.96129E-10-1.54969E-08
 -1       662 1.68089E+05 2.89835E+04 1.12693E+04 5.82615E+04-2.39197E-10-6.83485E-10
 -1       663 1.61921E+05 2.19641E+04 3.94128E+03 6.10593E+04 1.24805E-09-7.50333E-11
 -1       664 1.64281E+05 2.27100E+04 2.35771E+03 5.94259E+04 6.21242E-10-5.15911E-10
 -1       665 1.62419E+05 2.26968E+04 9.30098E+02 6.09138E+04 3.13491E-10-6.19315E-09
 -1       666 1.63691E+05 2.18722E+04 5.44437E+02 5.96156E+04 8.25557E-09-8.22821E-09
 -1       667 1.62506E+05 2.27801E+04 2.89370E+02 6.08774E+04 2.40058E-09-2.09417E-08
 -1       668 1.63595E+05 2.18123E+04 2.95290E+02 5.96686E+04-2.71666E-09-2.80655E-08
 -1       669 1.62514E+05 2.27549E+04 4.00141E+02 6.08611E+04-9.87569E-10 9.24300E-09
 -1       670 1.63692E+05 2.20297E+04 8.71650E+02 5.96716E+04-8.44800E-10 4.99269E-09
 -1       671 1.62409E+05 2.25672E+04 1.54779E+03 6.08724E+04 1.77823E-09-6.30376E-09
 -1       672 1.64594E+05 2.35355E+04 3.96008E+03 5.94530E+04 7.83599E-09-8.72660E-10
 -1       673 1.61617E+05 2.12872E+04 6.63650E+03 6.10651E+04 1.92244E-09 6.95672E-09
 -1       674 1.70911E+05 3.41978E+04 1.89790E+04 5.75974E+04-1.84275E-09-1.58389E-09
 -1       675 1.56133E+05 1.22035E+04 2.81715E+04 6.26160E+04-4.32101E-09 7.68705E-09
 -1       676 2.41169E+01-2.95921E+05-1.11364E+03-1.38067E+02 3.46660E-10 1.57544E-08
 -1       677-2.94573E+02-2.96191E+05-2.03816E+03 2.75911E+02 8.78504E-09-1.46126E-08
 -1       678 1.97584E+02-2.95729E+05-3.60296E+03-1.37754E+02 1.51840E-09-1.24665E-08
 -1       679-3.60301E+03-2.98366E+05-8.55913E+03 2.74720E+02 6.73333E-09 3.12161E-09
 -1       680 2.15121E+03-2.93747E+05-1.37944E+04-1.35353E+02 1.55524E-09 2.63196E-09
 -1       771-3.06240E+06-7.47535E+05-1.66113E+05-1.46617E+06-3.40224E-08-2.41271E-08
 -1       772-2.98523E+06-8.36449E+05-8.56432E+04-1.56897E+06-2.52621E-08 1.17325E-08
 -1       773-3.09393E+06-7.22951E+05-4.36586E+04-1.48073E+06-1.94996E-08 1.26602E-08
 -1       774-2.97570E+06-8.17894E+05-1.94783E+04-1.59476E+06 1.89757E-08 1.24419E-09
 -1       775-3.11040E+06-7.11397E+05-1.45702E+04-1.48780E+06-4.13274E-09 7.28323E-09
 -1       776-2.98807E+06-8.14851E+05-5.44867E+03-1.61428E+06-5.87897E-09 2.96859E-09
 -1       777-3.12469E+06-7.01083E+05-6.43779E+03-1.49403E+06 7.21775E-09 2.56841E-09
 -1       778-3.00099E+06-8.12021E+05-1.82015E+03-1.63106E+06 5.57338E-09 6.38101E-09
 -1       779-3.13698E+06-6.92071E+05-3.21714E+03-1.49936E+06-1.16124E-08-5.26052E-09
 -1       780-3.01236E+06-8.09321E+05-5.33343E+02-1.64472E+06-2.08747E-08-1.49521E-09
 -1       781-3.14675E+06-6.84805E+05-1.24949E+03-1.50352E+06-3.64234E-08 3.74712E-10
 -1       782-3.02113E+06-8.07028E+05 4.51478E+02-1.65481E+06-3.41097E-08-6.38101E-09
 -1       783-3.15363E+06-6.79755E+05 7.03228E+02-1.50644E+06-7.87986E-09-1.75792E-08
 -1       784-3.02598E+06-8.04737E+05 2.91175E+03-1.66103E+06-1.76515E-08-5.81895E-09
 -1       785-3.15770E+06-6.76743E+05 5.14061E+03-1.50829E+06-3.22434E-08 9.37507E-09
 -1       786 1.24036E+05-9.78450E+03 2.26374E+04-3.23817E+02 2.71888E-09-4.82396E-09
 -1       787 1.33854E+05 1.13283E+04 1.60150E+04-1.37202E+02 5.37965E-09-7.11225E-10
 -1       788 1.27821E+05-1.53325E+03 5.85680E+03-2.88648E+02 2.08427E-09 1.25804E-08
 -1       789 1.29444E+05 1.77471E+03 3.67671E+03-1.91065E+02-5.79949E-10 6.37829E-09
 -1       790 1.28447E+05-2.38721E+02 1.48868E+03-2.69971E+02-3.86526E-10 8.92396E-09
 -1       791 1.28713E+05 2.76226E+02 8.59914E+02-2.23018E+02-8.59935E-09-4.75012E-09
 -1       792 1.28553E+05-3.58857E+01 3.64572E+02-2.56698E+02-4.50095E-09 6.33214E-09
 -1       793 1.28587E+05 3.80131E+01 1.82129E+02-2.47990E+02-5.99325E-11-1.86827E-08
 -1       794 1.28573E+05-6.58738E-01 4.80999E+01-2.44999E+02 5.60153E-09-6.34997E-09
 -1       795 1.28550E+05-2.68624E+01-5.58816E+01-2.72408E+02-3.60593E-09-1.35494E-09
 -1       796 1.28589E+05 2.89535E+01-1.59587E+02-2.32280E+02 4.64467E-09 6.75870E-09
 -1       797 1.28457E+05-2.16162E+02-4.39025E+02-3.01632E+02 4.25209E-09-1.71485E-09
 -1       798 1.28667E+05 1.88498E+02-7.13233E+02-2.15775E+02 2.14360E-09 7.87534E-09
 -1       799 1.27915E+05-1.38933E+03-1.96242E+03-3.42510E+02 6.46266E-09-3.15586E-09
 -1       800 1.29131E+05 1.20116E+03-2.77729E+03-1.91403E+02-1.55609E-11 1.73225E-09
 -1       801-1.71779E+05-1.00094E+07-1.39537E+06 1.41837E+06 9.35979E-08-5.35547E-08
 -1       802 7.40066E+05 5.96935E+06 2.18650E+06-1.75117E+06 2.58646E-07-3.58677E-08
 -1       803-5.37760E+05-1.42898E+07-1.89450E+06 8.99690E+05 7.77181E-08 1.79898E-08
 -1       804 2.88041E+05 2.40937E+06 1.54094E+06 6.78397E+05-1.20941E-07-1.00400E-07
 -1       805 1.89537E+05-6.46350E+06-2.87152E+05-1.00552E+06-5.01095E-08-6.85859E-08
 -1       806-3.08799E+05-5.97463E+04-2.28375E+04-1.22384E+05-9.94169E-09 1.19371E-09
 -1       807-3.10593E+05-5.60215E+04-1.12198E+04-1.27929E+05 5.69162E-09 3.11709E-09
 -1       808-3.09426E+05-5.15157E+04-4.75981E+03-1.26274E+05-4.90627E-09-8.71580E-09
 -1       809-3.08234E+05-5.28690E+04-2.32743E+03-1.28204E+05-1.13396E-08 2.09820E-09
 -1       810-3.09521E+05-5.12291E+04-1.06680E+03-1.26447E+05 3.67527E-09 1.15547E-08
 -1       811-3.08051E+05-5.27424E+04-5.30539E+02-1.28169E+05-5.38421E-10-5.14774E-10
 -1       812-3.09535E+05-5.12538E+04-2.68409E+02-1.26446E+05-1.31959E-08-1.53132E-08
 -1       813-3.08026E+05-5.27446E+04-1.74586E+02-1.28150E+05-6.14955E-09 1.58502E-09
 -1       814-3.09528E+05-5.12635E+04-1.73253E+02-1.26442E+05-8.04903E-10-3.88854E-09
 -1       815-3.08030E+05-5.27468E+04-2.79355E+02-1.28143E+05 4.76075E-09 3.34694E-10
 -1       816-3.09507E+05-5.12627E+04-5.29608E+02-1.26438E+05 3.34694E-09 3.04940E-08
 -1       817-3.08120E+05-5.27973E+04-1.13666E+03-1.28131E+05-3.24835E-08 1.73059E-08
 -1       818-3.09438E+05-5.14232E+04-2.31842E+03-1.26362E+05-7.06132E-09 1.64691E-08
 -1       819-3.09389E+05-5.41979E+04-5.45506E+03-1.27830E+05 7.16682E-10 1.17709E-08
 -1       820-3.09000E+05-5.55442E+04-1.11031E+04-1.24602E+05-3.88354E-10 5.63682E-09
 -1       821-3.78966E+05 2.08692E+04-4.85802E+04 2.13040E+03 1.41202E-08 2.65172E-08
 -1       822-3.98670E+05-2.41758E+04-3.41409E+04-4.45798E+03 5.43856E-09 1.11263E-08
 -1       823-3.86430E+05 3.28969E+03-1.25478E+04 3.44151E+03-1.27427E-08 1.44123E-08
 -1       824-3.89660E+05-3.79361E+03-7.85409E+03-5.37114E+03-6.94186E-10 6.50198E-09
 -1       825-3.87984E+05 5.11218E+02-3.28904E+03 3.04368E+03 2.12517E-08 1.92586E-10
 -1       826-3.87227E+05-5.67232E+02-1.74384E+03-3.09708E+03 2.93728E-08-3.13426E-09
 -1       827-3.88838E+05 4.67533E+01-1.19019E+03 1.16730E+03 1.38579E-08-1.23137E-09
 -1       828-3.86521E+05-1.31954E+02-5.85735E+02 1.09848E+03-1.14744E-09 1.80368E-08
 -1       829-3.88677E+05 6.58646E+01-1.17906E+03-1.15191E+03 1.69194E-10 6.35254E-10
 -1       830-3.87576E+05-6.22090E+02-1.88200E+03 4.88970E+03 2.74269E-12 1.83348E-09
 -1       831-3.87805E+05 5.54535E+02-3.37077E+03-2.62393E+03-7.15974E-09-5.52109E-09
 -1       832-3.89740E+05-3.96042E+03-8.15663E+03 6.17183E+03-5.04320E-09 1.08495E-08
 -1       833-3.86530E+05 3.41376E+03-1.30514E+04-2.43409E+03-2.22440E-09-7.94989E-09
 -1       834-3.98730E+05-2.50889E+04-3.53629E+04 4.19889E+03-1.12841E-09-1.84514E-08
 -1       835-3.78798E+05 2.16501E+04-5.04493E+04-6.50915E+02 5.48499E-09-4.33647E-09
 -1       836-1.41421E+03 3.70204E+05 2.29071E+04-1.61696E+04-7.17864E-09-9.10677E-09
 -1       837 4.88253E+03 3.77379E+05 1.93802E+04-3.30454E+04-7.85445E-09-2.02849E-08
 -1       838-5.58255E+02 3.72216E+05 1.97410E+04-1.60980E+04-6.32690E-09-8.36553E-09
 -1       839 1.24210E+04 3.82993E+05 3.73390E+04-3.30979E+04-6.92489E-09 2.17105E-08
 -1       840-3.84075E+03 3.64530E+05 5.95399E+04-1.61230E+04-6.08634E-09-5.14191E-09
 -1       856-5.22849E+04 8.02748E+03-2.11541E+04-3.97066E+02 4.61750E-09 2.40861E-08
 -1       857-6.09999E+04-9.43210E+03-1.45623E+04 5.63458E+03 4.88251E-09-3.81533E-09
 -1       858-5.57363E+04 1.12578E+03-5.48899E+03-4.21219E+02 2.40607E-09 8.69704E-10
 -1       859-5.70391E+04-1.32451E+03-3.31235E+03 5.67051E+03-3.25034E-09 1.59632E-08
 -1       860-5.62519E+04 1.57668E+02-1.38820E+03-4.32721E+02-1.55711E-09-5.73891E-10
 -1       861-5.64460E+04-1.88296E+02-7.63668E+02 5.68618E+03-4.45162E-10 7.85221E-10
 -1       862-5.63326E+04 2.13653E+01-3.17427E+02-4.36862E+02-3.34934E-09 2.35300E-09
 -1       863-5.63471E+04-2.19438E+01-1.15585E+02 5.68858E+03-5.54208E-09-2.01011E-08
 -1       864-5.63513E+04-4.89917E+00 4.73191E+01-4.35124E+02-8.22723E-10 4.05137E-09
 -1       865-5.62913E+04 5.96042E+01 2.55560E+02 5.67866E+03-2.19808E-09 7.58143E-09
 -1       866-5.63862E+04-6.02011E+01 5.14976E+02-4.26941E+02-2.36241E-09-4.74517E-09
 -1       867-5.60491E+04 4.97088E+02 1.26753E+03 5.65645E+03-3.90202E-10-8.81036E-09
 -1       868-5.65886E+04-4.34486E+02 2.10625E+03-4.12911E+02-3.44431E-09 3.78395E-09
 -1       869-5.45050E+04 3.61599E+03 5.60823E+03 5.61991E+03 5.08967E-09-1.51244E-08
 -1       870-5.79226E+04-3.09440E+03 8.13880E+03-3.90302E+02-3.86501E-09 1.03205E-08
 -1       871-5.51646E+03-2.13302E+04-1.94889E+04 1.30406E+05-6.57383E-09 1.30167E-08
 -1       872-1.98003E+03-2.58623E+04-8.16030E+03 1.69091E+05-1.04874E-08 1.13755E-08
 -1       873 4.06714E+02-2.36701E+04 5.90143E+02 1.30119E+05-5.90626E-09-6.78642E-09
 -1       874 3.30801E+03-2.12597E+04 9.77940E+03 1.69120E+05-1.12805E-08 6.67842E-09
 -1       875 6.84788E+03-2.59998E+04 2.20612E+04 1.30358E+05-5.38057E-09 1.14251E-08
 -1       876 2.93753E+05 4.95065E+04 1.50995E+04 1.17880E+05 6.69570E-09-3.12348E-08
 -1       877 2.94751E+05 5.26865E+04 8.06375E+03 1.22212E+05 8.83711E-09-4.33351E-09
 -1       878 2.95165E+05 4.78338E+04 3.37831E+03 1.19117E+05-6.08225E-09-1.84768E-08
 -1       879 2.92698E+05 5.06381E+04 1.68329E+03 1.22314E+05 2.79738E-09 4.92957E-09
 -1       880 2.95266E+05 4.78165E+04 7.84055E+02 1.19167E+05-1.70212E-09 1.02869E-08
 -1       881 2.92562E+05 5.05505E+04 4.18719E+02 1.22290E+05-5.74278E-09-9.46508E-09
 -1       882 2.95275E+05 4.78298E+04 2.67907E+02 1.19169E+05 4.52928E-10-1.37506E-09
 -1       883 2.92553E+05 5.05459E+04 2.88071E+02 1.22283E+05 3.59069E-09-1.72011E-08
 -1       884 2.95268E+05 4.78270E+04 4.58306E+02 1.19169E+05 6.29973E-09-1.06807E-08
 -1       885 2.92589E+05 5.05523E+04 9.21481E+02 1.22294E+05-1.88152E-09 9.40088E-09
 -1       886 2.95233E+05 4.78001E+04 1.85722E+03 1.19166E+05-1.95235E-09 3.81533E-10
 -1       887 2.92915E+05 5.07663E+04 4.05684E+03 1.22341E+05 6.32213E-09 7.82404E-09
 -1       888 2.94976E+05 4.78453E+04 8.17465E+03 1.19036E+05 2.23528E-09 1.27779E-08
 -1       889 2.97782E+05 5.58274E+04 1.95277E+04 1.22192E+05-6.90321E-10-1.51349E-08
 -1       890 2.91640E+05 5.18087E+04 3.65750E+04 1.15925E+05 5.50244E-10 8.11087E-09
 -1       891-8.89712E+01-1.62767E+05-1.99635E+03 2.71506E+04-2.05705E-09-4.53656E-09
 -1       892-1.74787E+02-1.63294E+05-2.14411E+03 4.12303E+04 2.22622E-09-1.07962E-08
 -1       893 4.40720E+01-1.62831E+05-3.03580E+03 2.71580E+04-3.06250E-09-2.66027E-10
 -1       894-1.50945E+03-1.64441E+05-6.28295E+03 4.10778E+04 3.97995E-09 1.04833E-08
 -1       895-1.19885E+03-1.61522E+05-1.10642E+04 2.73050E+04-1.61003E-09 2.42198E-09
 -1       956-3.77184E+05-5.44993E+03-1.34529E+04 3.08535E+04 1.48430E-09 4.46357E-09
 -1       957-3.79824E+05-1.92272E+03-6.90519E+03 3.70774E+04-1.36383E-08-4.84033E-09
 -1       958-3.78393E+05-2.41104E+02-3.11170E+03 3.06859E+04-9.20591E-09-1.42522E-08
 -1       959-3.78590E+05-1.36482E+02-1.58888E+03 3.72729E+04 3.87399E-09-3.32602E-09
 -1       960-3.78511E+05-4.49924E+01-7.74815E+02 3.06686E+04 6.06360E-09-9.34938E-09
 -1       961-3.78509E+05-6.34500E+01-4.10797E+02 3.72933E+04 1.04328E-08-1.02082E-08
 -1       962-3.78539E+05-4.62185E+01-2.35190E+02 3.06657E+04 2.28056E-09 6.38238E-10
 -1       963-3.78510E+05-5.92578E+01-1.88798E+02 3.72970E+04 7.77891E-09 1.40426E-09
 -1       964-3.78544E+05-4.28625E+01-2.29592E+02 3.06649E+04 1.11335E-09-9.38189E-09
 -1       965-3.78522E+05-5.62948E+01-3.97098E+02 3.72963E+04-7.42722E-09-2.22399E-08
 -1       966-3.78528E+05-3.50189E+01-7.46136E+02 3.06664E+04 6.27460E-09-6.72162E-09
 -1       967-3.78611E+05-1.19831E+02-1.53031E+03 3.72819E+04 3.53157E-09 1.44864E-08
 -1       968-3.78424E+05-2.17498E+02-2.99580E+03 3.06791E+04 5.38967E-09-7.02300E-09
 -1       969-3.79812E+05-1.83461E+03-6.65059E+03 3.71335E+04 1.40881E-08-1.92955E-09
 -1       970-3.77268E+05-5.23030E+03-1.29558E+04 3.08062E+04 4.28372E-10 2.74722E-08
 -1       971-3.45373E+05-1.72781E+03-9.31094E+03 1.53828E+04 4.66935E-09-1.12662E-08
 -1       972-3.47614E+05-1.27211E+03-5.07064E+03 2.12738E+04 8.56198E-09-2.12108E-08
 -1       973-3.46411E+05-6.21819E+01-2.27119E+03 1.52617E+04 1.12714E-08-1.37493E-08
 -1       974-3.46546E+05-8.12831E+01-1.17731E+03 2.14109E+04 1.02964E-08 2.40555E-08
 -1       975-3.46493E+05-1.72991E+01-5.88958E+02 1.52493E+04 6.59520E-09-1.00201E-08
 -1       976-3.46484E+05-3.14317E+01-3.40626E+02 2.14267E+04 1.33441E-08-4.43375E-08
 -1       977-3.46509E+05-1.65515E+01-2.48724E+02 1.52460E+04 1.95837E-09-1.05327E-08
 -1       978-3.46489E+05-2.52049E+01-2.93108E+02 2.14316E+04-3.62797E-09 1.37813E-08
 -1       979-3.46509E+05-8.07249E+00-4.72694E+02 1.52445E+04-2.23434E-09 4.99767E-09
 -1       980-3.46525E+05-2.21430E+01-9.13818E+02 2.14326E+04-1.12471E-08-4.93731E-09
 -1       981-3.46480E+05 1.47687E+01-1.77043E+03 1.52450E+04 9.72022E-11 5.44020E-09
 -1       982-3.46768E+05-1.52959E+02-3.65977E+03 2.14259E+04 7.04824E-09 6.42743E-09
 -1       983-3.46257E+05-9.85980E+01-7.11113E+03 1.52511E+04-3.70619E-09 4.37740E-09
 -1       984-3.50188E+05-3.86689E+03-1.59252E+04 2.13403E+04 6.25732E-10-6.64238E-09
 -1       985-3.43037E+05-5.30208E+03-2.92435E+04 1.53224E+04-6.55746E-10-2.90493E-09
 -3
    1PSTEP                        29          15           1          
  100CL  115 6.63036E-01         409                     0   15           1
 -4  DISP        4    1
 -5  D1          1    2    1    0
 -5  D2          1    2    2    0
 -5  D3          1    2    3    0
 -5  ALL         1    2    0    0    1ALL
 -1         1 2.72349E-03 0.00000E+00 0.00000E+00
 -1         2 1.34116E-03-1.26869E-27-5.29396E-23
 -1         3 3.42808E-04-6.01682E-28-1.32349E-23
 -1         5 1.77168E-04-1.75497E-27 8.27181E-25
 -1         8 2.71269E-03-4.03646E-07 0.00000E+00
 -1         9 2.70600E-03-1.95806E-04 0.00000E+00
 -1        10 3.10840E-04-3.39993E-06-6.61744E-24
 -1        12 1.79001E-04 8.09234E-07 0.00000E+00
 -1        15 2.70034E-03-4.27062E-07 1.03398E-25
 -1        16 2.77413E-03-1.97655E-04 0.00000E+00
 -1        17 2.11536E-04-7.75531E-06 0.00000E+00
 -1        18 1.82938E-04 3.44813E-05 0.00000E+00
 -1        19 1.84531E-04 1.61998E-06 0.00000E+00
 -1        20 1.84670E-04-9.93421E-06 0.00000E+00
 -1        21 1.83777E-04-2.55200E-05-3.30872E-24
 -1        24 3.06143E-05-1.19804E-05 0.00000E+00
 -1        25 1.93741E-04 3.47069E-05 0.00000E+00
 -1        26 1.94423E-04 2.24009E-06 0.00000E+00
 -1        27 1.92223E-04-1.34924E-05 0.00000E+00
 -1        28 1.91906E-04-2.61422E-05 0.00000E+00
 -1        32 0.00000E+00 0.00000E+00 0.00000E+00
 -1        33 2.03310E-04 2.99385E-06 0.00000E+00
 -1        34 2.01192E-04-1.35486E-05 0.00000E+00
 -1        35 1.99259E-04-2.64847E-05 0.00000E+00
 -1        51 2.72276E-03-8.47525E-08-4.96308E-24
 -1        52 2.72144E-03-1.51073E-07 3.30872E-24
 -1        53 2.71964E-03-2.13905E-07 0.00000E+00
 -1        54 2.71749E-03-2.75486E-07 1.65436E-24
 -1        55 2.71513E-03-3.37577E-07-8.27181E-25
 -1        56 2.71560E-03 8.96611E-06 0.00000E+00
 -1        57 2.69997E-03 3.70025E-05 0.00000E+00
 -1        58 2.67894E-03 7.81268E-05-1.05879E-22
 -1        59 2.65539E-03 1.25111E-04 0.00000E+00
 -1        60 2.63284E-03 1.69722E-04 1.05879E-22
 -1        61 2.61467E-03 2.03918E-04 5.29396E-23
 -1        62 2.60320E-03 2.21518E-04 0.00000E+00
 -1        63 2.59992E-03 2.17818E-04-5.29396E-23
 -1        64 2.60460E-03 1.92030E-04 0.00000E+00
 -1        65 2.61630E-03 1.45459E-04 0.00000E+00
 -1        66 2.63298E-03 8.33671E-05 0.00000E+00
 -1        67 2.65233E-03 1.25471E-05 0.00000E+00
 -1        68 2.67176E-03-5.85092E-05-1.05879E-22
 -1        69 2.68868E-03-1.21280E-04 0.00000E+00
 -1        70 2.70074E-03-1.68859E-04 0.00000E+00
 -1        86 1.42699E-03-6.18173E-06 5.29396E-23
 -1        87 1.67522E-03-3.88943E-05 0.00000E+00
 -1        88 2.00900E-03-9.51395E-05 0.00000E+00
 -1        89 2.34732E-03-1.52953E-04 1.32349E-23
 -1        90 2.60653E-03-1.88334E-04 0.00000E+00
 -1       121 3.41910E-04-5.48904E-07-1.32349E-23
 -1       122 3.39221E-04-1.10090E-06 0.00000E+00
 -1       123 3.34749E-04-1.65903E-06 1.32349E-23
 -1       124 3.28512E-04-2.22633E-06-6.61744E-24
 -1       125 3.20532E-04-2.80546E-06 0.00000E+00
 -1       191 1.77219E-04 1.34924E-07 2.48154E-24
 -1       192 1.77372E-04 2.69837E-07 2.06795E-25
 -1       193 1.77627E-04 4.04732E-07 8.27181E-25
 -1       194 1.77984E-04 5.39600E-07 3.00499E-25
 -1       195 1.78442E-04 6.74431E-07 2.48154E-24
 -1       251 2.71239E-03 1.63044E-06 0.00000E+00
 -1       252 2.71208E-03 3.52506E-06 0.00000E+00
 -1       253 2.71178E-03 4.28835E-06 6.61744E-24
 -1       254 2.71147E-03 2.94247E-06-3.30872E-24
 -1       255 2.71116E-03-1.17183E-06-6.61744E-24
 -1       256 2.71083E-03-8.67933E-06 0.00000E+00
 -1       257 2.71047E-03-1.96926E-05 6.61744E-24
 -1       258 2.71006E-03-3.42803E-05-3.30872E-24
 -1       259 2.70960E-03-5.19723E-05 0.00000E+00
 -1       260 2.70910E-03-7.22593E-05 6.61744E-24
 -1       261 2.70857E-03-9.42400E-05 0.00000E+00
 -1       262 2.70801E-03-1.16993E-04 6.61744E-24
 -1       263 2.70746E-03-1.39480E-04 1.32349E-23
 -1       264 2.70694E-03-1.60665E-04 0.00000E+00
 -1       265 2.70646E-03-1.79711E-04-1.32349E-23
 -1       266 2.71063E-03-4.13156E-07 1.65436E-24
 -1       267 2.70857E-03-4.16375E-07-4.13590E-25
 -1       268 2.70651E-03-4.19993E-07-8.27181E-25
 -1       269 2.70446E-03-4.22430E-07 0.00000E+00
 -1       270 2.70240E-03-4.24840E-07-2.06795E-25
 -1       271 2.71185E-03 4.86877E-08 0.00000E+00
 -1       272 2.71200E-03-2.16485E-06 0.00000E+00
 -1       273 2.71307E-03-6.88537E-06 0.00000E+00
 -1       274 2.71501E-03-1.39415E-05-1.32349E-23
 -1       275 2.71773E-03-2.31409E-05 2.64698E-23
 -1       276 2.72115E-03-3.42759E-05 1.32349E-23
 -1       277 2.72519E-03-4.71222E-05-2.64698E-23
 -1       278 2.72977E-03-6.14428E-05 0.00000E+00
 -1       279 2.73478E-03-7.69884E-05 0.00000E+00
 -1       280 2.74014E-03-9.35003E-05 6.61744E-24
 -1       281 2.74576E-03-1.10711E-04 1.32349E-23
 -1       282 2.75152E-03-1.28350E-04 6.61744E-24
 -1       283 2.75734E-03-1.46140E-04 0.00000E+00
 -1       284 2.76311E-03-1.63804E-04 0.00000E+00
 -1       285 2.76874E-03-1.81068E-04 0.00000E+00
 -1       301 2.71838E-03-1.96149E-04 0.00000E+00
 -1       302 2.72911E-03-1.96445E-04 3.30872E-24
 -1       303 2.73911E-03-1.96731E-04 1.32349E-23
 -1       304 2.74932E-03-1.97017E-04 0.00000E+00
 -1       305 2.76068E-03-1.97317E-04 0.00000E+00
 -1       306 2.74403E-03-3.51053E-04 0.00000E+00
 -1       307 2.80790E-03-7.65860E-04 0.00000E+00
 -1       308 2.85447E-03-1.37174E-03 1.05879E-22
 -1       309 2.87828E-03-2.07245E-03-5.29396E-23
 -1       310 2.90967E-03-2.74213E-03 1.05879E-22
 -1       311 2.96924E-03-3.25763E-03 5.29396E-23
 -1       312 3.02693E-03-3.53840E-03-2.11758E-22
 -1       313 3.02163E-03-3.54686E-03-5.29396E-23
 -1       314 2.87941E-03-3.29532E-03 1.05879E-22
 -1       315 2.55949E-03-2.84854E-03 5.29396E-23
 -1       316 2.08053E-03-2.28325E-03 0.00000E+00
 -1       317 1.50878E-03-1.66872E-03 0.00000E+00
 -1       318 9.58807E-04-1.06544E-03 0.00000E+00
 -1       319 5.38726E-04-5.38333E-04 1.05879E-22
 -1       320 2.92270E-04-1.61615E-04 1.05879E-22
 -1       336 2.99248E-04-4.05724E-06 1.32349E-23
 -1       337 2.85579E-04-4.74026E-06-6.61744E-24
 -1       338 2.69896E-04-5.45121E-06-1.32349E-23
 -1       339 2.52271E-04-6.19092E-06 6.61744E-24
 -1       340 2.32787E-04-6.96386E-06 1.32349E-23
 -1       406 1.79662E-04 9.45236E-07-1.65436E-24
 -1       407 1.80426E-04 1.08115E-06 7.75482E-26
 -1       408 1.81295E-04 1.21691E-06 0.00000E+00
 -1       409 1.82269E-04 1.35232E-06-1.55096E-24
 -1       410 1.83348E-04 1.48711E-06-1.65436E-24
 -1       521 2.81276E-03-3.62201E-04 0.00000E+00
 -1       522 2.87481E-03-7.97447E-04 0.00000E+00
 -1       523 2.91485E-03-1.43145E-03 0.00000E+00
 -1       524 2.92930E-03-2.16118E-03 0.00000E+00
 -1       525 2.95268E-03-2.85783E-03 0.00000E+00
 -1       526 3.00867E-03-3.39564E-03 0.00000E+00
 -1       527 3.06595E-03-3.68710E-03 2.11758E-22
 -1       528 3.05831E-03-3.69370E-03-5.29396E-23
 -1       529 2.90385E-03-3.42777E-03 0.00000E+00
 -1       530 2.55952E-03-2.96217E-03-5.29396E-23
 -1       531 2.04483E-03-2.37745E-03 0.00000E+00
 -1       532 1.43256E-03-1.74548E-03 0.00000E+00
 -1       533 8.42776E-04-1.12409E-03 0.00000E+00
 -1       534 3.88878E-04-5.75856E-04 5.29396E-23
 -1       535 1.20933E-04-1.79377E-04 2.11758E-22
 -1       536 2.10780E-04 2.71881E-05 0.00000E+00
 -1       537 2.08860E-04 8.76676E-05 0.00000E+00
 -1       538 2.05892E-04 1.64410E-04 3.30872E-24
 -1       539 2.02391E-04 2.48060E-04-1.65436E-24
 -1       540 1.99240E-04 3.27104E-04 0.00000E+00
 -1       541 1.97192E-04 3.90054E-04 0.00000E+00
 -1       542 1.96248E-04 4.30152E-04 3.30872E-24
 -1       543 1.96022E-04 4.40789E-04-1.65436E-24
 -1       544 1.95700E-04 4.22737E-04-3.30872E-24
 -1       545 1.94526E-04 3.76992E-04-1.65436E-24
 -1       546 1.92338E-04 3.11684E-04 3.30872E-24
 -1       547 1.89377E-04 2.35068E-04-1.65436E-24
 -1       548 1.86442E-04 1.58826E-04 3.30872E-24
 -1       549 1.84325E-04 9.46443E-05 0.00000E+00
 -1       550 1.83225E-04 5.05593E-05 0.00000E+00
 -1       551 1.86325E-04-8.32465E-06 0.00000E+00
 -1       552 1.57869E-04-8.97448E-06 0.00000E+00
 -1       553 1.27111E-04-9.68657E-06-3.30872E-24
 -1       554 9.50099E-05-1.04398E-05-3.30872E-24
 -1       555 6.25261E-05-1.12068E-05 1.32349E-23
 -1       556 2.03884E-04 1.18095E-05 5.29396E-23
 -1       557 1.97701E-04 2.76780E-05 2.64698E-23
 -1       558 1.92854E-04 4.01381E-05 0.00000E+00
 -1       559 1.89209E-04 4.95002E-05-2.64698E-23
 -1       560 1.86636E-04 5.60752E-05 0.00000E+00
 -1       561 1.85007E-04 6.01763E-05 0.00000E+00
 -1       562 1.84197E-04 6.21184E-05 0.00000E+00
 -1       563 1.84081E-04 6.22168E-05 0.00000E+00
 -1       564 1.84539E-04 6.07881E-05 0.00000E+00
 -1       565 1.85449E-04 5.81493E-05 0.00000E+00
 -1       566 1.86691E-04 5.46181E-05 0.00000E+00
 -1       567 1.88146E-04 5.05126E-05 0.00000E+00
 -1       568 1.89697E-04 4.61509E-05 0.00000E+00
 -1       569 1.91225E-04 4.18513E-05 0.00000E+00
 -1       570 1.92611E-04 3.79321E-05 0.00000E+00
 -1       571 1.83035E-04 3.23498E-05-8.27181E-25
 -1       572 1.83133E-04 3.01527E-05-1.24077E-24
 -1       573 1.83232E-04 2.79054E-05-3.30872E-24
 -1       574 1.83332E-04 2.56246E-05-1.65436E-24
 -1       575 1.83431E-04 2.33264E-05 0.00000E+00
 -1       576 1.83530E-04 2.10274E-05 1.65436E-24
 -1       577 1.83630E-04 1.87441E-05 0.00000E+00
 -1       578 1.83729E-04 1.64931E-05 0.00000E+00
 -1       579 1.83829E-04 1.42907E-05 0.00000E+00
 -1       580 1.83929E-04 1.21536E-05 0.00000E+00
 -1       581 1.84029E-04 1.00982E-05-6.61744E-24
 -1       582 1.84129E-04 8.14096E-06-3.30872E-24
 -1       583 1.84229E-04 6.29843E-06 0.00000E+00
 -1       584 1.84330E-04 4.58689E-06 0.00000E+00
 -1       585 1.84430E-04 3.02248E-06 0.00000E+00
 -1       586 1.84698E-04 3.45210E-05 0.00000E+00
 -1       587 1.86416E-04 3.45602E-05-4.13590E-25
 -1       588 1.88136E-04 3.45990E-05-8.27181E-25
 -1       589 1.89902E-04 3.46371E-05 0.00000E+00
 -1       590 1.91756E-04 3.46740E-05 0.00000E+00
 -1       591 1.83669E-04 3.24434E-05 0.00000E+00
 -1       592 1.84403E-04 3.03855E-05 0.00000E+00
 -1       593 1.85141E-04 2.83135E-05-8.27181E-25
 -1       594 1.85883E-04 2.62322E-05 0.00000E+00
 -1       595 1.86627E-04 2.41462E-05-8.27181E-25
 -1       596 1.87370E-04 2.20602E-05 4.13590E-25
 -1       597 1.88111E-04 1.99791E-05 0.00000E+00
 -1       598 1.88849E-04 1.79075E-05 0.00000E+00
 -1       599 1.89582E-04 1.58500E-05 8.27181E-25
 -1       600 1.90308E-04 1.38113E-05 4.13590E-25
 -1       601 1.91025E-04 1.17963E-05-8.27181E-25
 -1       602 1.91731E-04 9.80944E-06-2.06795E-25
 -1       603 1.92425E-04 7.85556E-06 4.13590E-25
 -1       604 1.93106E-04 5.93944E-06-1.80946E-25
 -1       605 1.93771E-04 4.06566E-06 0.00000E+00
 -1       606 1.84544E-04 4.50720E-07 0.00000E+00
 -1       607 1.84554E-04-6.32616E-07 1.65436E-24
 -1       608 1.84562E-04-1.63507E-06 0.00000E+00
 -1       609 1.84571E-04-2.56233E-06 0.00000E+00
 -1       610 1.84579E-04-3.42014E-06 3.30872E-24
 -1       611 1.84587E-04-4.21430E-06 0.00000E+00
 -1       612 1.84596E-04-4.95061E-06 0.00000E+00
 -1       613 1.84604E-04-5.63491E-06 0.00000E+00
 -1       614 1.84612E-04-6.27298E-06 0.00000E+00
 -1       615 1.84621E-04-6.87066E-06 0.00000E+00
 -1       616 1.84629E-04-7.43377E-06 0.00000E+00
 -1       617 1.84638E-04-7.96812E-06-4.13590E-25
 -1       618 1.84646E-04-8.47951E-06 0.00000E+00
 -1       619 1.84654E-04-8.97379E-06 2.06795E-25
 -1       620 1.84663E-04-9.45675E-06 0.00000E+00
 -1       621 1.85894E-04 1.72391E-06 1.65436E-24
 -1       622 1.87416E-04 1.82807E-06-1.65436E-24
 -1       623 1.89063E-04 1.93202E-06-3.30872E-24
 -1       624 1.90803E-04 2.03564E-06-1.65436E-24
 -1       625 1.92600E-04 2.13897E-06-3.30872E-24
 -1       626 1.85081E-04 4.86823E-07-3.30872E-24
 -1       627 1.85609E-04-5.83201E-07 3.30872E-24
 -1       628 1.86116E-04-1.59795E-06 0.00000E+00
 -1       629 1.86606E-04-2.56559E-06-1.65436E-24
 -1       630 1.87081E-04-3.49432E-06 0.00000E+00
 -1       631 1.87545E-04-4.39236E-06 1.65436E-24
 -1       632 1.88000E-04-5.26791E-06-3.30872E-24
 -1       633 1.88450E-04-6.12921E-06 0.00000E+00
 -1       634 1.88898E-04-6.98446E-06-3.30872E-24
 -1       635 1.89347E-04-7.84187E-06 0.00000E+00
 -1       636 1.89799E-04-8.70967E-06-3.30872E-24
 -1       637 1.90259E-04-9.59607E-06 0.00000E+00
 -1       638 1.90728E-04-1.05093E-05 1.65436E-24
 -1       639 1.91210E-04-1.14576E-05 1.65436E-24
 -1       640 1.91708E-04-1.24492E-05 1.65436E-24
 -1       656 1.85381E-04-1.05125E-05-6.61744E-24
 -1       657 1.86511E-04-1.11144E-05 0.00000E+00
 -1       658 1.87921E-04-1.17148E-05-1.32349E-23
 -1       659 1.89466E-04-1.23149E-05 6.61744E-24
 -1       660 1.90961E-04-1.29168E-05 0.00000E+00
 -1       661 1.84936E-04-1.04567E-05 0.00000E+00
 -1       662 1.85240E-04-1.10711E-05 8.27181E-25
 -1       663 1.85575E-04-1.17721E-05 1.65436E-24
 -1       664 1.85942E-04-1.25531E-05 0.00000E+00
 -1       665 1.86336E-04-1.34085E-05 0.00000E+00
 -1       666 1.86756E-04-1.43322E-05 0.00000E+00
 -1       667 1.87199E-04-1.53187E-05 0.00000E+00
 -1       668 1.87663E-04-1.63622E-05-8.27181E-25
 -1       669 1.88147E-04-1.74575E-05 0.00000E+00
 -1       670 1.88649E-04-1.85993E-05 8.27181E-25
 -1       671 1.89165E-04-1.97823E-05 1.65436E-24
 -1       672 1.89695E-04-2.10014E-05-8.27181E-25
 -1       673 1.90237E-04-2.22516E-05 0.00000E+00
 -1       674 1.90787E-04-2.35283E-05-4.13590E-25
 -1       675 1.91346E-04-2.48261E-05 2.06795E-25
 -1       676 1.85137E-04-2.56243E-05 0.00000E+00
 -1       677 1.86495E-04-2.57286E-05 1.65436E-24
 -1       678 1.87853E-04-2.58328E-05 0.00000E+00
 -1       679 1.89207E-04-2.59366E-05 0.00000E+00
 -1       680 1.90559E-04-2.60405E-05-1.65436E-24
 -1       771 1.86565E-05 1.47613E-05 5.29396E-23
 -1       772 8.59665E-06 3.67243E-05 5.29396E-23
 -1       773 3.43832E-07 5.41390E-05-5.29396E-23
 -1       774-6.22634E-06 6.72635E-05 0.00000E+00
 -1       775-1.12356E-05 7.63663E-05 0.00000E+00
 -1       776-1.48105E-05 8.17326E-05 0.00000E+00
 -1       777-1.70776E-05 8.36578E-05 5.29396E-23
 -1       778-1.81658E-05 8.24511E-05 0.00000E+00
 -1       779-1.82035E-05 7.84303E-05-5.29396E-23
 -1       780-1.73211E-05 7.19245E-05 0.00000E+00
 -1       781-1.56479E-05 6.32698E-05 0.00000E+00
 -1       782-1.33152E-05 5.28109E-05 2.64698E-23
 -1       783-1.04528E-05 4.08973E-05 5.29396E-23
 -1       784-7.19233E-06 2.78848E-05 2.64698E-23
 -1       785-3.66400E-06 1.41319E-05-5.29396E-23
 -1       786 1.93779E-04 3.24505E-05 0.00000E+00
 -1       787 1.93821E-04 3.02440E-05 0.00000E+00
 -1       788 1.93863E-04 2.80792E-05 0.00000E+00
 -1       789 1.93906E-04 2.59479E-05-8.27181E-25
 -1       790 1.93948E-04 2.38453E-05 0.00000E+00
 -1       791 1.93991E-04 2.17668E-05-8.27181E-25
 -1       792 1.94034E-04 1.97102E-05 1.65436E-24
 -1       793 1.94077E-04 1.76731E-05-8.27181E-25
 -1       794 1.94120E-04 1.56556E-05 1.65436E-24
 -1       795 1.94163E-04 1.36574E-05 0.00000E+00
 -1       796 1.94206E-04 1.16803E-05 1.65436E-24
 -1       797 1.94249E-04 9.72637E-06 8.27181E-25
 -1       798 1.94292E-04 7.79974E-06 1.65436E-24
 -1       799 1.94336E-04 5.90478E-06 8.27181E-25
 -1       800 1.94379E-04 4.04901E-06 0.00000E+00
 -1       801 1.47900E-04 3.12026E-05 2.64698E-23
 -1       802 9.30120E-06 1.94658E-05 0.00000E+00
 -1       803-1.09064E-04 9.83416E-06 0.00000E+00
 -1       804-9.66356E-05 6.84580E-06 0.00000E+00
 -1       805-3.19196E-05 2.68854E-06 0.00000E+00
 -1       806 1.94472E-04 3.23817E-05-1.65436E-24
 -1       807 1.95189E-04 3.00826E-05 0.00000E+00
 -1       808 1.95893E-04 2.78148E-05-3.30872E-24
 -1       809 1.96584E-04 2.55824E-05 0.00000E+00
 -1       810 1.97260E-04 2.33895E-05 0.00000E+00
 -1       811 1.97920E-04 2.12400E-05-1.65436E-24
 -1       812 1.98562E-04 1.91378E-05 3.30872E-24
 -1       813 1.99185E-04 1.70869E-05 0.00000E+00
 -1       814 1.99788E-04 1.50911E-05 0.00000E+00
 -1       815 2.00368E-04 1.31545E-05-1.65436E-24
 -1       816 2.00925E-04 1.12809E-05-1.65436E-24
 -1       817 2.01457E-04 9.47415E-06-8.27181E-25
 -1       818 2.01963E-04 7.73823E-06 0.00000E+00
 -1       819 2.02440E-04 6.07699E-06 0.00000E+00
 -1       820 2.02889E-04 4.49427E-06-3.30872E-24
 -1       821 1.94294E-04-1.25014E-07 0.00000E+00
 -1       822 1.94154E-04-3.64389E-06-1.65436E-24
 -1       823 1.94011E-04-7.88860E-06 0.00000E+00
 -1       824 1.93866E-04-1.24267E-05 1.65436E-24
 -1       825 1.93722E-04-1.67464E-05 0.00000E+00
 -1       826 1.93580E-04-2.03372E-05 1.65436E-24
 -1       827 1.93441E-04-2.28871E-05-3.30872E-24
 -1       828 1.93305E-04-2.40905E-05 0.00000E+00
 -1       829 1.93169E-04-2.40083E-05 0.00000E+00
 -1       830 1.93033E-04-2.27093E-05-1.65436E-24
 -1       831 1.92895E-04-2.05934E-05 3.30872E-24
 -1       832 1.92757E-04-1.80656E-05 1.65436E-24
 -1       833 1.92619E-04-1.56432E-05-3.30872E-24
 -1       834 1.92484E-04-1.38427E-05-1.65436E-24
 -1       835 1.92349E-04-1.30118E-05 0.00000E+00
 -1       836 1.96117E-04 2.36509E-06 0.00000E+00
 -1       837 1.97683E-04 2.49323E-06-1.65436E-24
 -1       838 1.99154E-04 2.62131E-06 0.00000E+00
 -1       839 2.00561E-04 2.74869E-06 0.00000E+00
 -1       840 2.01935E-04 2.87591E-06-8.27181E-25
 -1       856 1.92207E-04-1.45581E-05 0.00000E+00
 -1       857 1.92187E-04-1.54880E-05 0.00000E+00
 -1       858 1.92168E-04-1.63032E-05-2.06795E-25
 -1       859 1.92148E-04-1.70249E-05 0.00000E+00
 -1       860 1.92128E-04-1.76744E-05 0.00000E+00
 -1       861 1.92109E-04-1.82729E-05 2.06795E-25
 -1       862 1.92089E-04-1.88417E-05 4.13590E-25
 -1       863 1.92069E-04-1.94022E-05 0.00000E+00
 -1       864 1.92049E-04-1.99757E-05 0.00000E+00
 -1       865 1.92029E-04-2.05836E-05 4.13590E-25
 -1       866 1.92009E-04-2.12471E-05 8.27181E-25
 -1       867 1.91989E-04-2.19876E-05 0.00000E+00
 -1       868 1.91969E-04-2.28263E-05 8.27181E-25
 -1       869 1.91949E-04-2.37842E-05 4.13590E-25
 -1       870 1.91928E-04-2.48826E-05 0.00000E+00
 -1       871 1.93576E-04-1.34974E-05 0.00000E+00
 -1       872 1.95077E-04-1.35057E-05 0.00000E+00
 -1       873 1.96657E-04-1.35147E-05 4.13590E-25
 -1       874 1.98248E-04-1.35245E-05 2.84343E-25
 -1       875 1.99782E-04-1.35348E-05-1.03398E-24
 -1       876 1.92749E-04-1.45435E-05-3.30872E-24
 -1       877 1.93254E-04-1.55278E-05-1.65436E-24
 -1       878 1.93737E-04-1.64532E-05 3.30872E-24
 -1       879 1.94201E-04-1.73272E-05 0.00000E+00
 -1       880 1.94648E-04-1.81571E-05 3.30872E-24
 -1       881 1.95082E-04-1.89503E-05-1.65436E-24
 -1       882 1.95505E-04-1.97143E-05 0.00000E+00
 -1       883 1.95920E-04-2.04562E-05 0.00000E+00
 -1       884 1.96329E-04-2.11836E-05 0.00000E+00
 -1       885 1.96735E-04-2.19036E-05-1.65436E-24
 -1       886 1.97142E-04-2.26237E-05 3.30872E-24
 -1       887 1.97551E-04-2.33511E-05 0.00000E+00
 -1       888 1.97965E-04-2.40933E-05 3.30872E-24
 -1       889 1.98387E-04-2.48578E-05 0.00000E+00
 -1       890 1.98819E-04-2.56518E-05 0.00000E+00
 -1       891 1.93274E-04-2.61997E-05-1.65436E-24
 -1       892 1.94618E-04-2.62574E-05 8.27181E-25
 -1       893 1.95914E-04-2.63150E-05-8.27181E-25
 -1       894 1.97136E-04-2.63723E-05 4.13590E-25
 -1       895 1.98259E-04-2.64294E-05-4.13590E-25
 -1       956 2.03179E-04 1.66808E-06 1.65436E-24
 -1       957 2.03047E-04 4.33848E-07-1.65436E-24
 -1       958 2.02914E-04-7.19580E-07 3.30872E-24
 -1       959 2.02781E-04-1.80354E-06 0.00000E+00
 -1       960 2.02649E-04-2.82941E-06 0.00000E+00
 -1       961 2.02516E-04-3.80860E-06 0.00000E+00
 -1       962 2.02383E-04-4.75254E-06 0.00000E+00
 -1       963 2.02250E-04-5.67268E-06 0.00000E+00
 -1       964 2.02118E-04-6.58046E-06 0.00000E+00
 -1       965 2.01985E-04-7.48730E-06 0.00000E+00
 -1       966 2.01852E-04-8.40467E-06-3.30872E-24
 -1       967 2.01719E-04-9.34399E-06 1.65436E-24
 -1       968 2.01587E-04-1.03167E-05 0.00000E+00
 -1       969 2.01454E-04-1.13342E-05 0.00000E+00
 -1       970 2.01322E-04-1.24079E-05 3.30872E-24
 -1       971 2.01072E-04-1.46889E-05 3.30872E-24
 -1       972 2.00950E-04-1.57345E-05 0.00000E+00
 -1       973 2.00829E-04-1.66960E-05-3.30872E-24
 -1       974 2.00708E-04-1.75842E-05 0.00000E+00
 -1       975 2.00586E-04-1.84098E-05 0.00000E+00
 -1       976 2.00465E-04-1.91839E-05-1.65436E-24
 -1       977 2.00343E-04-1.99173E-05-3.30872E-24
 -1       978 2.00222E-04-2.06208E-05 0.00000E+00
 -1       979 2.00100E-04-2.13055E-05 3.30872E-24
 -1       980 1.99979E-04-2.19821E-05-1.65436E-24
 -1       981 1.99858E-04-2.26617E-05 0.00000E+00
 -1       982 1.99737E-04-2.33551E-05-1.65436E-24
 -1       983 1.99616E-04-2.40732E-05-3.30872E-24
 -1       984 1.99495E-04-2.48270E-05 1.65436E-24
 -1       985 1.99375E-04-2.56273E-05 0.00000E+00
 -3
    1PSTEP                        30          15           1          
  100CL  115 6.63036E-01         409                     0   15           1
 -4  STRESS      6    1
 -5  SXX         1    4    1    1
 -5  SYY         1    4    2    2
 -5  SZZ         1    4    3    3
 -5  SXY         1    4    1    2
 -5  SYZ         1    4    2    3
 -5  SZX         1    4    3    1
 -1         1-5.34444E+06-1.58698E+06-1.13335E+06-1.34584E+06-2.03727E-10 7.96572E-08
 -1         2 1.49229E+06 2.18811E+07 5.09671E+06 6.61468E+06 2.77942E-08 3.28204E-07
 -1         3-1.48920E+03-1.55850E+06 4.05923E+02-2.21288E+03-5.96117E-10-7.03585E-09
 -1         5-7.46146E+01 3.86362E+05-1.59493E-01 7.37683E+00-5.83562E-10 1.51922E-08
 -1         8-5.56212E+05-2.01074E+05-6.29162E+04-2.44212E+05-1.05501E-10-6.86086E-08
 -1         9 1.17795E+07 3.83818E+06 2.79311E+06-3.29647E+05-3.31784E-09 2.45334E-07
 -1        10-2.30553E+03-1.62408E+06-3.94657E+03-1.49737E+04-1.37879E-08-2.96407E-08
 -1        12-7.85443E+01 3.88318E+05 3.17683E+02-1.50945E+01 1.83536E-09 7.02116E-09
 -1        15 9.29150E+02 5.10614E+02 3.00346E+03 8.26609E-01-3.98288E-10-1.00240E-07
 -1        16 2.29156E+07-3.30482E+05 3.11927E+06-2.28276E+06 2.07607E-08 1.68569E-07
 -1        17 8.38906E+06 6.28738E+06 2.26629E+06 6.01506E+06 2.65602E-08 3.88711E-08
 -1        18 1.42611E+05 3.35713E+04 4.23413E+03-1.19531E+05 1.55151E-08 1.45656E-09
 -1        19 1.22530E+05 1.42377E+05-8.84259E+02 2.19755E+04 1.36133E-09-5.12591E-10
 -1        20-8.18804E+04-5.73613E+05-1.28709E+05 2.51423E+04-2.18688E-09-2.84975E-10
 -1        21-4.55772E+01-2.96044E+05-9.24138E+02 2.76051E+02 1.41734E-08 2.20781E-08
 -1        24 1.40595E+07 1.21086E+07 3.89211E+06 1.12112E+07-1.68919E-07-4.80407E-08
 -1        25 1.25600E+05 2.69473E+05 1.00558E+05-6.47176E+05-2.63026E-10 2.51321E-08
 -1        26-5.53416E+04 9.22965E+04-2.46204E+04 1.26295E+03-2.11003E-11 1.19202E-08
 -1        27-7.55996E+04-3.09913E+05-1.13300E+05 6.89655E+04 3.73878E-09 4.16518E-09
 -1        28 2.22424E+04-8.53505E+04 1.68988E+04 2.06265E+04-3.42629E-09-5.53960E-09
 -1        32-1.68069E+06-3.18235E+06-1.97686E+05 4.60748E+05-4.22588E-08-1.15040E-08
 -1        33-1.78449E+05 9.29962E+04 3.23857E+04-3.85127E+04-3.05412E-09 2.44948E-08
 -1        34-2.23588E+05-2.50256E+04 6.89402E+02 7.56422E+04-5.01601E-09-6.91747E-09
 -1        35-2.29327E+04-3.38487E+04-1.34845E+03 5.15020E+04-2.09927E-09 6.65750E-09
 -1        51 6.07620E+04-1.71510E+05 1.28480E+05-4.37344E+05-4.36557E-11-8.66276E-08
 -1        52 2.05564E+04-1.49048E+05 6.73762E+04-5.10072E+05 9.18590E-11-2.46491E-07
 -1        53 4.17178E+03-1.64410E+05 3.50204E+04-4.35842E+05 4.12911E-10-2.59752E-08
 -1        54 7.32707E+03-1.60196E+05 2.86451E+04-5.11543E+05 8.36735E-11-4.48927E-07
 -1        55 1.59714E+04-1.67173E+05 3.46890E+04-4.35752E+05 1.67347E-10 3.63741E-07
 -1        56-9.79500E+06-1.37815E+06-9.18487E+05-4.09107E+06-1.26602E-08-1.51602E-07
 -1        57-1.10855E+07-8.10027E+05-5.47049E+05-2.70459E+06 3.13157E-08-8.44302E-08
 -1        58-9.59542E+06-1.84561E+06-2.01465E+05-4.28466E+06-3.37677E-08 1.87720E-09
 -1        59-1.12715E+07-2.71591E+05-1.07978E+05-2.63121E+06-3.23867E-08 6.37410E-08
 -1        60-9.69063E+06-1.84950E+06-5.78646E+04-4.23638E+06 3.85626E-09 2.84999E-08
 -1        61-1.06041E+07-6.14790E+05 1.72847E+04-2.88270E+06-7.73798E-09-4.81377E-08
 -1        62-1.01224E+07-1.59722E+06-7.87790E+04-3.92176E+06-5.33764E-08-2.30881E-07
 -1        63-9.68151E+06-1.34255E+06 5.67129E+04-3.59683E+06 4.08763E-08-2.80837E-07
 -1        64-1.05006E+07-1.20204E+06-7.24644E+04-3.45103E+06-3.23053E-09 5.96374E-08
 -1        65-9.30153E+06-1.95994E+06 1.41445E+04-4.52591E+06-7.81620E-08-3.09527E-07
 -1        66-1.06328E+07-8.89291E+05-4.73103E+04-3.09120E+06-2.95404E-09-8.47649E-09
 -1        67-9.31909E+06-2.22078E+06-9.71730E+04-4.96733E+06-5.77020E-08 8.76080E-08
 -1        68-1.06132E+07-8.49822E+05-1.87103E+05-3.09054E+06-3.90701E-08-2.57569E-07
 -1        69-9.49446E+06-2.29944E+06-4.86295E+05-4.49314E+06-3.71065E-08-3.20797E-07
 -1        70-1.03368E+07-9.07144E+05-8.43699E+05-3.48610E+06 2.02035E-08 1.08732E-07
 -1        86-1.52251E+06-1.56096E+07-2.78987E+06-3.10702E+06-2.73656E-07 1.71858E-08
 -1        87 2.39289E+06 6.29825E+06 2.32045E+06 5.74700E+06-4.57971E-07 3.32493E-08
 -1        88-4.50242E+05-1.95261E+06 2.19324E+05-2.56403E+06-3.90210E-07-5.89525E-08
 -1        89 3.20429E+06 6.00153E+06 2.37807E+06 5.93968E+06-5.84987E-07-3.44553E-07
 -1        90-2.23980E+06-1.53889E+07-3.01227E+06-3.32885E+06-1.41146E-07 1.44326E-07
 -1       121-2.03998E+03-1.56341E+06-5.48002E+02 1.09680E+03 1.57597E-09-3.27418E-09
 -1       122-1.30335E+03-1.55857E+06 7.69546E+02-4.42987E+03-5.54091E-09 2.37924E-09
 -1       123-2.05970E+03-1.56354E+06 2.59969E+02 3.27565E+03 4.15071E-09-1.95942E-08
 -1       124 3.33144E+02-1.55812E+06 2.94894E+03-9.26962E+03-1.06538E-08-1.03810E-08
 -1       125-2.86851E+03-1.56444E+06 3.45876E+03 5.89053E+03 6.44104E-09-7.83984E-09
 -1       191-7.89229E+01 3.86381E+05-4.13369E+00-3.66039E+00-5.84862E-10 2.56587E-08
 -1       192-7.92397E+01 3.86360E+05-1.77704E+00 3.72336E+01-7.25038E-10 3.43898E-08
 -1       193-9.33217E+01 3.86381E+05-9.24757E+00-3.33940E+01-1.00954E-09 1.60526E-08
 -1       194-1.28502E+02 3.86346E+05-2.25906E+01 3.02937E+02-5.17048E-10 1.49175E-08
 -1       195-2.30723E+02 3.86383E+05-5.65111E+01-2.69024E+02-1.16415E-09 7.50879E-09
 -1       251-8.62256E+05 1.60771E+04-3.75387E+04-1.42627E+04 5.57177E-09 8.80482E-08
 -1       252-8.76481E+05-1.86046E+04-2.61180E+04 5.02203E+04-2.42608E-09-1.76773E-07
 -1       253-8.70599E+05 2.46637E+03-1.01082E+04-1.00543E+04-3.24235E-10 1.61152E-07
 -1       254-8.63203E+05-2.98824E+03-4.53228E+03 3.57123E+04-4.21176E-09 1.28490E-07
 -1       255-8.74929E+05 5.85675E+01-3.49898E+03 2.41734E+02-4.52474E-10 9.13802E-08
 -1       256-8.57880E+05-2.73277E+02 1.15679E+03 1.23632E+04 7.58291E-11 2.50141E-07
 -1       257-8.75488E+05-5.69591E+02-1.36820E+03 1.32836E+04 2.51976E-09-1.22570E-07
 -1       258-8.60668E+05 9.01740E+02 2.68513E+03-1.21674E+04-2.03302E-08 2.17178E-07
 -1       259-8.72386E+05-9.26597E+02 1.38339E+03 2.47700E+04 1.19715E-08 6.81171E-08
 -1       260-8.66964E+05 2.92484E+03 5.57231E+03-2.98551E+04-1.97787E-09 4.19908E-09
 -1       261-8.69819E+05-2.10902E+03 8.66887E+03 3.09872E+04 2.30423E-08-7.70933E-09
 -1       262-8.65592E+05 1.17805E+04 2.15303E+04-3.50197E+04-1.42051E-08 1.38647E-07
 -1       263-8.74006E+05-9.55704E+03 3.41175E+04 2.99439E+04 7.69546E-09 8.60109E-08
 -1       264-8.35102E+05 6.71031E+04 9.44377E+04-2.58689E+04 5.05580E-08-5.79348E-09
 -1       265-8.99817E+05-5.75598E+04 1.31539E+05 2.18244E+04 4.07260E-09 4.09636E-08
 -1       266-1.68210E+04-7.86631E+03 3.94628E+04-1.76854E+01 4.72937E-11-1.50386E-07
 -1       267 1.94999E+04 9.16707E+03 2.78938E+04 2.04072E+01 6.82121E-12-3.44746E-07
 -1       268-2.61491E+03-1.29838E+03 1.03679E+04-2.60014E+00 7.04858E-11 1.76268E-08
 -1       269 3.08742E+03 1.55381E+03 6.73905E+03 3.02888E+00 1.54614E-11 1.13612E-07
 -1       270-4.63426E+02-2.55306E+02 3.25303E+03-4.11035E-01-1.23919E-11 7.02786E-08
 -1       271-1.47974E+06-1.88344E+05-1.11461E+05-5.75797E+05 1.82335E-08 1.68991E-07
 -1       272-1.47547E+06-3.01783E+05-7.00122E+04-6.14211E+05 1.66237E-08 6.44741E-08
 -1       273-1.50327E+06-2.12027E+05-2.70273E+04-5.67780E+05 1.30422E-08 7.80383E-08
 -1       274-1.44867E+06-2.73268E+05-1.40651E+04-6.29346E+05-1.83936E-08 2.75181E-07
 -1       275-1.50885E+06-2.11608E+05-6.73277E+03-5.64024E+05 1.37770E-08 2.01204E-07
 -1       276-1.44305E+06-2.74181E+05-2.84404E+03-6.37932E+05-5.28671E-08 1.18894E-08
 -1       277-1.51167E+06-2.08991E+05-1.86424E+03-5.61304E+05 6.39193E-09-1.27789E-07
 -1       278-1.44088E+06-2.77368E+05-7.12756E+02-6.44240E+05-2.24827E-09 1.63380E-07
 -1       279-1.51346E+06-2.06854E+05-8.64118E+02-5.59398E+05-4.37649E-09-4.20368E-08
 -1       280-1.43987E+06-2.79763E+05-9.90141E+02-6.48381E+05-2.39379E-09-3.48405E-07
 -1       281-1.51441E+06-2.05509E+05-1.82946E+03-5.58327E+05 5.86624E-10 1.96011E-07
 -1       282-1.44024E+06-2.81938E+05-4.25463E+03-6.50074E+05 2.06965E-08 6.99561E-08
 -1       283-1.51391E+06-2.04279E+05-7.57287E+03-5.58206E+05-9.92770E-11 1.69803E-07
 -1       284-1.44703E+06-2.91848E+05-2.06279E+04-6.47883E+05-9.29583E-09 1.39403E-07
 -1       285-1.50753E+06-1.96779E+05-3.22139E+04-5.59997E+05-6.01285E-08 1.54634E-07
 -1       301-7.35896E+03-6.47789E+05 1.66902E+05-1.13851E+06 5.12227E-09 1.29265E-07
 -1       302-9.18027E+03-6.00949E+05 1.00444E+05-1.66173E+06-2.05619E-08-7.44858E-08
 -1       303-2.19529E+04-6.40355E+05 5.67331E+04-1.13537E+06 3.46336E-09-5.44842E-08
 -1       304-2.50214E+04-6.08063E+05 5.70616E+04-1.66115E+06 1.29949E-08 1.85304E-07
 -1       305-2.63015E+04-6.29092E+05 7.01137E+04-1.13847E+06 1.23910E-08-9.59990E-08
 -1       306-3.01461E+07-6.22144E+06-8.61497E+06-4.96916E+05-1.04541E-07-1.10827E-07
 -1       307 2.53239E+07 3.28715E+06 5.51324E+06-1.52680E+07-9.26666E-07 1.98022E-07
 -1       308-6.93064E+06-1.01862E+06-4.41056E+05 5.21349E+06-4.36907E-07 3.73577E-07
 -1       309-3.20804E+06 8.75545E+06 2.29445E+06-2.07077E+07 4.46555E-07 1.10293E-07
 -1       310-1.26333E+07-1.95500E+06-2.05712E+06 5.22325E+06 5.79166E-08-3.44240E-07
 -1       311 3.86365E+07 4.20195E+03 7.30995E+06-8.75273E+06-5.40167E-08 6.63567E-08
 -1       312-3.19904E+07-6.80931E+06-8.56490E+06-5.09029E+06-2.42260E-07 5.33910E-08
 -1       313 4.54532E+07 1.51491E+07 1.06931E+07 2.39198E+07-7.72125E-08-2.58675E-07
 -1       314-1.71858E+07-1.78589E+07-7.53433E+06-1.25464E+07 5.31785E-07-1.40339E-07
 -1       315-1.90466E+06 2.98218E+07 5.67176E+06 1.04871E+07-4.07032E-07-2.42231E-07
 -1       316 1.42875E+06-9.83646E+06-4.31500E+05-2.49975E+06-1.21752E-06-4.06551E-07
 -1       317-1.71029E+07 2.24527E+07 2.24821E+06-8.88331E+06 7.13590E-07-5.92467E-07
 -1       318-1.08195E+06-1.28420E+07-2.06073E+06-4.24126E+06-9.70671E-07 2.53145E-07
 -1       319 7.28342E+06 3.20862E+07 7.06851E+06 1.66856E+07-3.32075E-08 2.44007E-07
 -1       320-2.26455E+07-1.76901E+07-9.88330E+06-1.28432E+07 1.81724E-07-7.77072E-08
 -1       336-7.48155E+02-1.69245E+06-1.38469E+04 8.91318E+03-2.65591E-08 2.17406E-08
 -1       337-5.40958E+03-1.69198E+06-1.80664E+04-2.16523E+04-4.89242E-08 2.54840E-08
 -1       338 2.72753E+02-1.69193E+06-2.84600E+04 1.24878E+04-3.44653E-08 1.13469E-08
 -1       339-3.02004E+04-1.70922E+06-6.43199E+04-2.86549E+04-6.29370E-08 6.58474E-09
 -1       340 1.98903E+04-1.67739E+06-1.01323E+05 1.57848E+04-4.23825E-08 2.63717E-08
 -1       406 8.34262E+01 3.90246E+05 8.65035E+02 2.84914E+02 3.25781E-09 3.13466E-08
 -1       407 1.95934E+02 3.90424E+05 1.51567E+03-2.96068E+02 2.19256E-09 2.45891E-08
 -1       408 6.37135E+02 3.90165E+05 2.86742E+03 1.07904E+01 4.11262E-09-7.63976E-09
 -1       409 2.93745E+03 3.91320E+05 6.38258E+03 2.49407E+02 2.52078E-09-4.75020E-08
 -1       410 8.61506E+03 3.89348E+05 1.29794E+04-2.77267E+02 4.61841E-09 7.83803E-09
 -1       521-3.17230E+07-7.69151E+06-1.00799E+07-1.00992E+05-9.42964E-08 5.25033E-08
 -1       522 2.62231E+07 4.33494E+06 5.62998E+06-1.88036E+07-5.42117E-07-3.91330E-07
 -1       523-7.50238E+06-1.33454E+06-4.32456E+05 5.66748E+06 1.97906E-07-2.37502E-07
 -1       524-6.71556E+06 1.18492E+07 2.48608E+06-2.37940E+07 1.03228E-06-6.02911E-07
 -1       525-1.34328E+07-2.60018E+06-2.26485E+06 5.68283E+06 2.94414E-07-3.84462E-07
 -1       526 4.22485E+07-9.32953E+04 7.68074E+06-1.14096E+07 1.90863E-07 3.22179E-08
 -1       527-3.38740E+07-8.52225E+06-9.88628E+06-4.95560E+06 1.34460E-07-1.15542E-08
 -1       528 4.96894E+07 1.69209E+07 1.11674E+07 2.72432E+07 1.89408E-07 3.95230E-08
 -1       529-1.81344E+07-2.01008E+07-8.65018E+06-1.25821E+07 1.54832E-07-4.42378E-08
 -1       530-4.39399E+06 3.46764E+07 6.01100E+06 9.92623E+06-7.04313E-08 6.14906E-07
 -1       531 1.43575E+06-1.09142E+07-4.03383E+05-2.43629E+06-9.14355E-07 4.04252E-07
 -1       532-1.96047E+07 2.44725E+07 2.46105E+06-1.32258E+07 5.29282E-07-7.52523E-07
 -1       533-1.12266E+06-1.40084E+07-2.19862E+06-4.03766E+06-3.23285E-07-9.13278E-07
 -1       534 5.28677E+06 3.72953E+07 7.36664E+06 1.72847E+07-4.86034E-08 7.58795E-07
 -1       535-2.38472E+07-2.01183E+07-1.13475E+07-1.29221E+07 1.17114E-07 4.52739E-07
 -1       536-7.06693E+05-4.68078E+04-4.83127E+04-5.47534E+04-4.43606E-09 5.67434E-08
 -1       537-5.43515E+04 4.47422E+04 8.40361E+04 1.23988E+05-1.10021E-07 8.85320E-08
 -1       538-3.94472E+05 3.35197E+03 3.54167E+03-7.22758E+04 2.85196E-08 1.14359E-07
 -1       539-2.68891E+05 2.85735E+03 2.49521E+04 1.38890E+05 1.81340E-07 1.25754E-07
 -1       540-4.97542E+05-4.28022E+02-2.13592E+04-7.01919E+04 2.10512E-08 1.07386E-07
 -1       541 1.47506E+05 1.69999E+04 1.06560E+05 9.80606E+04-1.76913E-08 8.10728E-08
 -1       542-7.99649E+05-2.01688E+04-8.43794E+04-3.05690E+04 2.24022E-08 4.85536E-08
 -1       543 4.06686E+05 2.73730E+04 1.58245E+05-1.33653E+04-4.91018E-08-2.10989E-08
 -1       544-7.49770E+05-1.65676E+04-7.49693E+04 4.05628E+04-2.48433E-08-4.30140E-08
 -1       545 2.96985E+04 9.50396E+03 7.99607E+04-1.13753E+05 3.51865E-08-5.67884E-08
 -1       546-4.32787E+05 6.10345E+03-1.22499E+04 6.94715E+04 6.74966E-08-6.86919E-08
 -1       547-2.86977E+05-4.65524E+03 1.06219E+04-1.41737E+05-1.47422E-07-9.40563E-08
 -1       548-4.41609E+05 4.72222E+03-2.38988E+04 6.92396E+04-1.13297E-07-8.40419E-08
 -1       549 4.88655E+04 1.61454E+04 6.06801E+04-1.11621E+05-7.08351E-08-6.27033E-08
 -1       550-7.59642E+05-2.22178E+04-1.29101E+05 3.86380E+04 1.09994E-08-2.49693E-08
 -1       551 4.08148E+04-7.50837E+05-1.58918E+04-1.24728E+06-9.87930E-08-6.40284E-10
 -1       552 9.33025E+04-7.95835E+05 9.92225E+03-1.77846E+06-7.25122E-08 4.14439E-08
 -1       553 7.17922E+04-7.92231E+05 3.20440E+04-1.24063E+06-1.19267E-07 3.75003E-08
 -1       554 1.32101E+05-8.11729E+05 8.10686E+04-1.78041E+06-7.54662E-08 2.96113E-08
 -1       555 1.01536E+05-8.15881E+05 1.48054E+05-1.24046E+06-1.22862E-07-8.68931E-09
 -1       556 2.23767E+05-3.83726E+05 2.57274E+04-4.07247E+05-3.05299E-08-4.47035E-08
 -1       557 3.54348E+05-4.88083E+05 1.61374E+04-5.27684E+05-1.31113E-08-3.75730E-08
 -1       558 2.05529E+05-3.76513E+05 2.31570E+03-4.11694E+05-2.47965E-08-9.85165E-09
 -1       559 3.29325E+05-4.88148E+05 2.43704E+03-5.48145E+05 2.05328E-08-4.62023E-10
 -1       560 1.90216E+05-3.66910E+05-1.50901E+03-4.22729E+05 1.57161E-08 8.44739E-09
 -1       561 3.10083E+05-4.80446E+05 1.28492E+02-5.61265E+05 7.79983E-09 7.72525E-09
 -1       562 1.78106E+05-3.59387E+05-1.32909E+03-4.31498E+05 2.34286E-09 8.74934E-09
 -1       563 2.95699E+05-4.74175E+05-3.76580E+01-5.70660E+05 3.43425E-09-1.81899E-12
 -1       564 1.69463E+05-3.54002E+05-6.02182E+02-4.37624E+05 2.95404E-09-2.35468E-09
 -1       565 2.86156E+05-4.70019E+05 2.35371E+01-5.76757E+05 5.15138E-09-1.14542E-08
 -1       566 1.64408E+05-3.50804E+05-2.60787E+02-4.41159E+05-1.21072E-08-1.56542E-08
 -1       567 2.81515E+05-4.68000E+05-3.62922E+02-5.79577E+05 2.01253E-08 2.15659E-08
 -1       568 1.63033E+05-3.49962E+05-1.12642E+03-4.42216E+05-6.16728E-09 1.73168E-08
 -1       569 2.80387E+05-4.67925E+05-2.84499E+03-5.78152E+05-9.33142E-10 1.66910E-08
 -1       570 1.66430E+05-3.53195E+05-6.21907E+03-4.41198E+05 5.21686E-09-8.69477E-09
 -1       571 2.90473E+05 1.05082E+04 1.49893E+04-9.51796E+04 3.12975E-08 4.90309E-09
 -1       572 2.92645E+05 3.96174E+03 7.34594E+03-1.04421E+05 6.33481E-08 1.67493E-08
 -1       573 2.91335E+05 1.24718E+03 3.26403E+03-9.50031E+04 2.88883E-08 7.48423E-09
 -1       574 2.91549E+05 7.28845E+02 1.63687E+03-1.04646E+05 6.52108E-09-1.56206E-08
 -1       575 2.91429E+05 4.49525E+02 7.72520E+02-9.49790E+04 3.43937E-09 3.14230E-09
 -1       576 2.91413E+05 4.61030E+02 3.95456E+02-1.04676E+05-6.12386E-09 1.09867E-09
 -1       577 2.91469E+05 3.91458E+02 1.97277E+02-9.49756E+04-2.86218E-09 1.36970E-09
 -1       578 2.91444E+05 4.23003E+02 1.13692E+02-1.04680E+05-1.24373E-09-6.17820E-09
 -1       579 2.91541E+05 3.54812E+02 7.76087E+01-9.49753E+04 8.76753E-09 4.72755E-09
 -1       580 2.91545E+05 3.71955E+02 8.94063E+01-1.04675E+05-9.02310E-09 9.20045E-09
 -1       581 2.91655E+05 2.96078E+02 1.34343E+02-9.49812E+04 1.57252E-08 1.39107E-08
 -1       582 2.91720E+05 3.33542E+02 2.72868E+02-1.04613E+05 2.41926E-08 1.61208E-08
 -1       583 2.91796E+05 3.35335E+02 5.23240E+02-9.50378E+04 1.99070E-08-1.26711E-08
 -1       584 2.92091E+05 7.62748E+02 1.18419E+03-1.04137E+05 2.81143E-08-1.78711E-08
 -1       585 2.91825E+05 1.75757E+03 2.39746E+03-9.54568E+04 1.01645E-08-7.25777E-09
 -1       586-3.42656E+03 1.16888E+05-2.91479E+03-2.50656E+05-6.05860E-09 1.28191E-08
 -1       587-1.34187E+03 1.16640E+05 7.73410E+02-2.75866E+05-8.15271E-09 3.82826E-08
 -1       588 3.96195E+02 1.16446E+05 4.76250E+03-2.50518E+05-6.31371E-09 2.94349E-08
 -1       589 5.08468E+03 1.18921E+05 1.23505E+04-2.75633E+05-8.22001E-09 1.06411E-08
 -1       590 1.66148E+04 1.15112E+05 2.59072E+04-2.50950E+05-7.22230E-09-4.83669E-09
 -1       591-7.50184E+04-1.59830E+04-2.25322E+04-3.19781E+04 1.75260E-09-1.60744E-08
 -1       592-7.91055E+04-1.95437E+04-1.22053E+04-3.56069E+04-5.83379E-09-3.73000E-08
 -1       593-7.72719E+04-1.43479E+04-5.08044E+03-3.36301E+04 2.07496E-09-7.17091E-09
 -1       594-7.59945E+04-1.62374E+04-2.53374E+03-3.57247E+04 1.37388E-09 1.51567E-08
 -1       595-7.74437E+04-1.43425E+04-1.16325E+03-3.37052E+04 2.86070E-09 1.03293E-08
 -1       596-7.57815E+04-1.60862E+04-5.91128E+02-3.56994E+04 7.07345E-09-4.14232E-09
 -1       597-7.74652E+04-1.43579E+04-3.21440E+02-3.37080E+04 5.75369E-09 1.11510E-08
 -1       598-7.57605E+04-1.60802E+04-2.57582E+02-3.56923E+04-2.58069E-09 5.18352E-09
 -1       599-7.74640E+04-1.43585E+04-3.28011E+02-3.37077E+04 8.10564E-09-4.71039E-09
 -1       600-7.57815E+04-1.60867E+04-6.08521E+02-3.56972E+04 5.66968E-09-2.84708E-08
 -1       601-7.74393E+04-1.43439E+04-1.20006E+03-3.37042E+04 2.33058E-10-2.37994E-08
 -1       602-7.60012E+04-1.62416E+04-2.61518E+03-3.57195E+04-4.75904E-09-5.81224E-09
 -1       603-7.72593E+04-1.43524E+04-5.24440E+03-3.36275E+04 1.79352E-09-1.51431E-10
 -1       604-7.92302E+04-1.96349E+04-1.25983E+04-3.55730E+04 8.85069E-09 5.61749E-09
 -1       605-7.49131E+04-1.60579E+04-2.32579E+04-3.19417E+04 5.15905E-09 4.89490E-09
 -1       606 2.67137E+04-1.43609E+04-2.57436E+04 2.40046E+04 6.95672E-09 3.18437E-09
 -1       607 2.23151E+04-4.69048E+03-1.28202E+04 2.69762E+04 2.64481E-09-1.25592E-08
 -1       608 2.48220E+04-8.46387E+02-5.73919E+03 2.38359E+04-3.77258E-09-1.46365E-08
 -1       609 2.43415E+04-2.90201E+02-2.89929E+03 2.71905E+04 4.96766E-09 1.47925E-08
 -1       610 2.46079E+04-4.13694E+01-1.38329E+03 2.38158E+04 6.95036E-09-4.59613E-09
 -1       611 2.45325E+04-4.16879E+01-6.97454E+02 2.72136E+04 6.59202E-09-2.29061E-08
 -1       612 2.45607E+04-2.76417E+01-3.31575E+02 2.38138E+04 1.19162E-08-1.71508E-08
 -1       613 2.45442E+04-3.75979E+01-1.48603E+02 2.72163E+04 2.63681E-08-2.43131E-08
 -1       614 2.45385E+04-3.40807E+01-3.48764E+01 2.38131E+04 1.30894E-08-1.99839E-09
 -1       615 2.45389E+04-3.61125E+01 6.21954E+01 2.72168E+04-2.25555E-09-2.27965E-09
 -1       616 2.45211E+04-3.09586E+01 1.86589E+02 2.38134E+04-1.33195E-09-5.57134E-09
 -1       617 2.45613E+04 3.66091E+00 4.25733E+02 2.72163E+04 2.03090E-09-1.16813E-08
 -1       618 2.44842E+04 9.17804E+01 8.58147E+02 2.38137E+04-5.97538E-10-4.26780E-10
 -1       619 2.48643E+04 6.67192E+02 1.92704E+03 2.72157E+04 1.53568E-09-4.47699E-09
 -1       620 2.41992E+04 2.12670E+03 3.87331E+03 2.38153E+04-6.05041E-10-2.50307E-08
 -1       621 5.04441E+02 3.01482E+05 3.83410E+03 4.09928E+04 9.94987E-10 7.79437E-10
 -1       622 6.70811E+02 3.02365E+05 3.41976E+03 5.95111E+04 1.26056E-09-1.55301E-08
 -1       623 1.43229E+02 3.01670E+05 4.13062E+03 4.08074E+04 1.10890E-09-1.38170E-08
 -1       624 2.12721E+03 3.03590E+05 8.02535E+03 5.96937E+04 1.15000E-09 2.27669E-09
 -1       625 2.07842E+03 3.00077E+05 1.40322E+04 4.08042E+04 1.54705E-09-5.50176E-09
 -1       626 2.60860E+05 6.13906E+04 5.06440E+03 1.26755E+05 7.19865E-10 4.67026E-09
 -1       627 2.58534E+05 6.28053E+04 2.44050E+03 1.31019E+05 9.64064E-10 3.19972E-09
 -1       628 2.60987E+05 5.90722E+04 1.03216E+03 1.27614E+05-8.55380E-09 8.20705E-09
 -1       629 2.57904E+05 6.21341E+04 5.05230E+02 1.31258E+05-9.52286E-09-2.31050E-09
 -1       630 2.61001E+05 5.89602E+04 2.34522E+02 1.27650E+05-4.44788E-09 8.42022E-09
 -1       631 2.57838E+05 6.21086E+04 1.26464E+02 1.31260E+05 9.45329E-09 9.80430E-09
 -1       632 2.60998E+05 5.89642E+04 8.36882E+01 1.27646E+05 3.37923E-09-1.22698E-08
 -1       633 2.57829E+05 6.21104E+04 9.39420E+01 1.31256E+05 5.93718E-09 1.11822E-09
 -1       634 2.60993E+05 5.89613E+04 1.52448E+02 1.27645E+05-3.20529E-09-1.06479E-09
 -1       635 2.57844E+05 6.21087E+04 3.08871E+02 1.31262E+05-2.06688E-09 1.20008E-09
 -1       636 2.60984E+05 5.89555E+04 6.23963E+02 1.27645E+05 6.51403E-09-9.54606E-09
 -1       637 2.57979E+05 6.22057E+04 1.37205E+03 1.31261E+05-4.07726E-09-1.39516E-09
 -1       638 2.60936E+05 5.92586E+04 2.81909E+03 1.27508E+05 4.06544E-10 1.03846E-08
 -1       639 2.59460E+05 6.42653E+04 6.67012E+03 1.30825E+05 7.18774E-09 1.98243E-08
 -1       640 2.60730E+05 6.54088E+04 1.38417E+04 1.24917E+05 1.11581E-08 8.43511E-09
 -1       656 6.65832E+04-1.70401E+06-1.60728E+05-2.56990E+03-1.74623E-10-4.77257E-10
 -1       657-8.80837E+04-1.77664E+06-1.33153E+05 5.15629E+03 4.91127E-10 1.37816E-08
 -1       658 2.12243E+04-1.72463E+06-8.20057E+04-4.65440E+03-5.69116E-10-1.84924E-08
 -1       659-9.52491E+04-1.78004E+06-1.42570E+05 6.88784E+03-3.14867E-09-1.75049E-08
 -1       660 7.37326E+04-1.70061E+06-1.76917E+05-4.30144E+03-2.08820E-09 1.11248E-08
 -1       661 1.58684E+05 1.66048E+04 1.67260E+04 6.20312E+04-1.93722E-09-4.38467E-09
 -1       662 1.68139E+05 2.89923E+04 1.12721E+04 5.82796E+04 2.81074E-09-5.59760E-09
 -1       663 1.61969E+05 2.19708E+04 3.94228E+03 6.10777E+04 4.63388E-10 7.55085E-09
 -1       664 1.64330E+05 2.27172E+04 2.35830E+03 5.94443E+04 1.58926E-09 2.92141E-09
 -1       665 1.62468E+05 2.27036E+04 9.30334E+02 6.09322E+04-1.23401E-09 1.46701E-09
 -1       666 1.63740E+05 2.18792E+04 5.44574E+02 5.96340E+04 9.36964E-09-9.63533E-09
 -1       667 1.62555E+05 2.27870E+04 2.89441E+02 6.08957E+04 9.75774E-10 5.70598E-09
 -1       668 1.63644E+05 2.18193E+04 2.95360E+02 5.96871E+04-4.43420E-09 2.35198E-09
 -1       669 1.62563E+05 2.27618E+04 4.00234E+02 6.08795E+04-8.56858E-10 1.92008E-08
 -1       670 1.63741E+05 2.20367E+04 8.71852E+02 5.96900E+04-1.16250E-08 1.99839E-09
 -1       671 1.62458E+05 2.25741E+04 1.54815E+03 6.08908E+04 4.99151E-09-8.52054E-09
 -1       672 1.64643E+05 2.35429E+04 3.96100E+03 5.94714E+04 5.23575E-09 8.81300E-09
 -1       673 1.61665E+05 2.12937E+04 6.63803E+03 6.10835E+04 6.11703E-09 8.77344E-09
 -1       674 1.70961E+05 3.42077E+04 1.89834E+04 5.76154E+04-2.16619E-09 8.53038E-09
 -1       675 1.56181E+05 1.22080E+04 2.81780E+04 6.26347E+04-5.27052E-09-4.43833E-09
 -1       676 2.41208E+01-2.95967E+05-1.11383E+03-1.38030E+02 1.94774E-09-3.45810E-09
 -1       677-2.94624E+02-2.96237E+05-2.03850E+03 2.75837E+02 9.52264E-09-2.88269E-09
 -1       678 1.97617E+02-2.95775E+05-3.60357E+03-1.37717E+02 1.04092E-09-3.99814E-09
 -1       679-3.60361E+03-2.98412E+05-8.56058E+03 2.74646E+02 7.89362E-09-1.11507E-08
 -1       680 2.15157E+03-2.93793E+05-1.37967E+04-1.35317E+02-1.81899E-11 7.15950E-09
 -1       771-3.06293E+06-7.47570E+05-1.66005E+05-1.46634E+06-3.24799E-08-3.06172E-08
 -1       772-2.98576E+06-8.36464E+05-8.55860E+04-1.56912E+06-2.38942E-08 8.40009E-09
 -1       773-3.09445E+06-7.22995E+05-4.36332E+04-1.48090E+06-1.79571E-08 1.09139E-08
 -1       774-2.97624E+06-8.17926E+05-1.94662E+04-1.59492E+06 2.38360E-08 6.54836E-11
 -1       775-3.11091E+06-7.11443E+05-1.45636E+04-1.48796E+06-3.52156E-09 1.86992E-09
 -1       776-2.98860E+06-8.14885E+05-5.44578E+03-1.61443E+06-5.87897E-09 3.22689E-09
 -1       777-3.12520E+06-7.01130E+05-6.43572E+03-1.49419E+06 3.60887E-09 4.80213E-10
 -1       778-3.00151E+06-8.12057E+05-1.81941E+03-1.63121E+06 8.19273E-09 1.22382E-08
 -1       779-3.13749E+06-6.92119E+05-3.21639E+03-1.49952E+06-6.73754E-09-6.39557E-09
 -1       780-3.01288E+06-8.09358E+05-5.33218E+02-1.64487E+06-3.84171E-09 6.22094E-10
 -1       781-3.14726E+06-6.84854E+05-1.24935E+03-1.50368E+06-2.64699E-08-9.00400E-10
 -1       782-3.02165E+06-8.07067E+05 4.51132E+02-1.65495E+06-3.80314E-08-4.61841E-09
 -1       783-3.15414E+06-6.79805E+05 7.02541E+02-1.50660E+06-8.14907E-09-2.57910E-08
 -1       784-3.02650E+06-8.04777E+05 2.90986E+03-1.66118E+06-1.20235E-08-4.94765E-10
 -1       785-3.15821E+06-6.76793E+05 5.13716E+03-1.50845E+06-3.03189E-08 8.60746E-09
 -1       786 1.24109E+05-9.78764E+03 2.26447E+04-3.23921E+02 3.51440E-09 1.37225E-08
 -1       787 1.33930E+05 1.13319E+04 1.60202E+04-1.37284E+02 8.12705E-09 3.94721E-10
 -1       788 1.27895E+05-1.53374E+03 5.85868E+03-2.88742E+02 1.39339E-09 1.24296E-08
 -1       789 1.29518E+05 1.77528E+03 3.67789E+03-1.91163E+02-1.78633E-09 1.17996E-08
 -1       790 1.28521E+05-2.38798E+02 1.48917E+03-2.70060E+02-3.23282E-09-3.53617E-09
 -1       791 1.28787E+05 2.76316E+02 8.60203E+02-2.23125E+02-8.73881E-09 1.78202E-08
 -1       792 1.28627E+05-3.58987E+01 3.64712E+02-2.56783E+02-5.68075E-09-8.57412E-10
 -1       793 1.28661E+05 3.80357E+01 1.82238E+02-2.48104E+02 1.40805E-09-2.02366E-09
 -1       794 1.28647E+05-6.68022E-01 4.82063E+01-2.45080E+02 5.57829E-09-6.26292E-09
 -1       795 1.28624E+05-2.68042E+01-5.56903E+01-2.72534E+02-4.44023E-09-1.10754E-08
 -1       796 1.28663E+05 2.89049E+01-1.59278E+02-2.32353E+02 3.47949E-09 8.90168E-09
 -1       797 1.28531E+05-2.15802E+02-4.38277E+02-3.01779E+02 3.40575E-09 2.19040E-08
 -1       798 1.28740E+05 1.88188E+02-7.12047E+02-2.15834E+02 2.46157E-09 3.92743E-09
 -1       799 1.27991E+05-1.38704E+03-1.95918E+03-3.42694E+02 6.20396E-09 4.63274E-09
 -1       800 1.29204E+05 1.19918E+03-2.77271E+03-1.91439E+02 1.32133E-10 1.54159E-10
 -1       801-1.71715E+05-1.00078E+07-1.39511E+06 1.41796E+06 9.32778E-08-4.74247E-08
 -1       802 7.39823E+05 5.96661E+06 2.18582E+06-1.75062E+06 2.61192E-07-3.16104E-08
 -1       803-5.37600E+05-1.42864E+07-1.89390E+06 8.99510E+05 7.75399E-08 1.94850E-08
 -1       804 2.87937E+05 2.40722E+06 1.54043E+06 6.78204E+05-1.21774E-07-9.25102E-08
 -1       805 1.89492E+05-6.46253E+06-2.86984E+05-1.00519E+06-5.01386E-08-6.67105E-08
 -1       806-3.08832E+05-5.97554E+04-2.28407E+04-1.22400E+05-5.36420E-09 4.99585E-09
 -1       807-3.10626E+05-5.60305E+04-1.12214E+04-1.27946E+05 5.82713E-09-1.91263E-08
 -1       808-3.09459E+05-5.15237E+04-4.76048E+03-1.26291E+05-1.19007E-09-1.05535E-09
 -1       809-3.08267E+05-5.28776E+04-2.32776E+03-1.28222E+05-1.52495E-08 4.11956E-09
 -1       810-3.09554E+05-5.12371E+04-1.06695E+03-1.26463E+05 6.82530E-09 1.57124E-08
 -1       811-3.08084E+05-5.27509E+04-5.30614E+02-1.28187E+05-4.36739E-09 7.38555E-09
 -1       812-3.09568E+05-5.12618E+04-2.68445E+02-1.26463E+05-4.82669E-09-2.12949E-08
 -1       813-3.08059E+05-5.27531E+04-1.74609E+02-1.28168E+05 2.63935E-09-2.49909E-08
 -1       814-3.09561E+05-5.12715E+04-1.73273E+02-1.26458E+05 5.74801E-10 2.03363E-09
 -1       815-3.08062E+05-5.27554E+04-2.79386E+02-1.28160E+05 1.18857E-08-1.67818E-08
 -1       816-3.09540E+05-5.12706E+04-5.29666E+02-1.26455E+05 8.65566E-09 3.19055E-08
 -1       817-3.08152E+05-5.28059E+04-1.13678E+03-1.28149E+05-1.38930E-08 5.91263E-09
 -1       818-3.09471E+05-5.14311E+04-2.31867E+03-1.26379E+05-8.60655E-09-8.37736E-09
 -1       819-3.09421E+05-5.42066E+04-5.45565E+03-1.27848E+05-2.00089E-09 6.59929E-09
 -1       820-3.09033E+05-5.55526E+04-1.11043E+04-1.24619E+05-4.28372E-10 3.75985E-09
 -1       821-3.78996E+05 2.08709E+04-4.85851E+04 2.13200E+03 1.42833E-08-1.87356E-09
 -1       822-3.98697E+05-2.41778E+04-3.41436E+04-4.46419E+03 4.77689E-09-8.63611E-09
 -1       823-3.86459E+05 3.29002E+03-1.25490E+04 3.44552E+03-1.29656E-08 1.70589E-08
 -1       824-3.89688E+05-3.79397E+03-7.85472E+03-5.37968E+03-8.52420E-11 5.90944E-09
 -1       825-3.88013E+05 5.11281E+02-3.28944E+03 3.04762E+03 2.07008E-08 8.54777E-09
 -1       826-3.87253E+05-5.67201E+02-1.74346E+03-3.10309E+03 2.42921E-08 1.93995E-08
 -1       827-3.88869E+05 4.66442E+01-1.19075E+03 1.16878E+03 1.16798E-08-3.06372E-09
 -1       828-3.86545E+05-1.31809E+02-5.84923E+02 1.09836E+03 8.52424E-10 3.88962E-09
 -1       829-3.88708E+05 6.57783E+01-1.17958E+03-1.15386E+03 1.84028E-09 9.70093E-09
 -1       830-3.87603E+05-6.22098E+02-1.88173E+03 4.89540E+03 5.81181E-10-3.39864E-09
 -1       831-3.87834E+05 5.54626E+02-3.37110E+03-2.62827E+03-5.99663E-09-1.32911E-08
 -1       832-3.89768E+05-3.96079E+03-8.15725E+03 6.17991E+03-5.26556E-09 8.44352E-09
 -1       833-3.86559E+05 3.41407E+03-1.30527E+04-2.43842E+03-1.58725E-09-3.45335E-09
 -1       834-3.98757E+05-2.50909E+04-3.53655E+04 4.20451E+03-3.27543E-09-5.77938E-09
 -1       835-3.78828E+05 2.16518E+04-5.04542E+04-6.52799E+02 6.08154E-09 9.62245E-09
 -1       836-1.41438E+03 3.70250E+05 2.29097E+04-1.61786E+04-6.95672E-09 9.26502E-09
 -1       837 4.88308E+03 3.77426E+05 1.93824E+04-3.30633E+04-7.39220E-09 1.97374E-08
 -1       838-5.58320E+02 3.72262E+05 1.97433E+04-1.61070E+04-6.33509E-09 7.78027E-09
 -1       839 1.24225E+04 3.83041E+05 3.73435E+04-3.31158E+04-6.82803E-09-1.99493E-08
 -1       840-3.84122E+03 3.64575E+05 5.95471E+04-1.61320E+04-6.19912E-09-3.35778E-09
 -1       856-5.23155E+04 8.02927E+03-2.11588E+04-3.97146E+02 4.23529E-09 1.12177E-08
 -1       857-6.10324E+04-9.43419E+03-1.45656E+04 5.63550E+03 4.36023E-09-2.23515E-08
 -1       858-5.57676E+04 1.12603E+03-5.49021E+03-4.21310E+02 5.76131E-09-3.99041E-10
 -1       859-5.70707E+04-1.32480E+03-3.31309E+03 5.67144E+03 2.19785E-09 3.61166E-09
 -1       860-5.62834E+04 1.57703E+02-1.38852E+03-4.32819E+02 3.15134E-09 2.45313E-09
 -1       861-5.64775E+04-1.88330E+02-7.63844E+02 5.68712E+03 6.90244E-09-7.54369E-09
 -1       862-5.63641E+04 2.13699E+01-3.17509E+02-4.36963E+02-6.35296E-10 1.33597E-08
 -1       863-5.63786E+04-2.19439E+01-1.15635E+02 5.68952E+03-2.64820E-09 1.19965E-09
 -1       864-5.63828E+04-4.89804E+00 4.72839E+01-4.35224E+02-3.19194E-09 8.11798E-09
 -1       865-5.63228E+04 5.96016E+01 2.55515E+02 5.67959E+03-4.18682E-09 1.09538E-08
 -1       866-5.64177E+04-6.01947E+01 5.14908E+02-4.27035E+02 9.99080E-10 3.81124E-09
 -1       867-5.60806E+04 4.97035E+02 1.26738E+03 5.65737E+03 1.06334E-09-2.10633E-09
 -1       868-5.66200E+04-4.34437E+02 2.10601E+03-4.12995E+02-4.59022E-09 9.07551E-09
 -1       869-5.45366E+04 3.61558E+03 5.60759E+03 5.62080E+03 6.11101E-09-2.46916E-09
 -1       870-5.79539E+04-3.09404E+03 8.13786E+03-3.90369E+02-1.91051E-09 6.03177E-09
 -1       871-5.51719E+03-2.13297E+04-1.94909E+04 1.30418E+05-5.69526E-09 2.74686E-08
 -1       872-1.98042E+03-2.58623E+04-8.16106E+03 1.69107E+05-1.05310E-08 2.57619E-08
 -1       873 4.06614E+02-2.36698E+04 5.90382E+02 1.30131E+05-5.76620E-09 7.78789E-09
 -1       874 3.30826E+03-2.12591E+04 9.78081E+03 1.69136E+05-1.11049E-08 2.31194E-09
 -1       875 6.84866E+03-2.59998E+04 2.20643E+04 1.30370E+05-4.87125E-09-1.57952E-08
 -1       876 2.93791E+05 4.95133E+04 1.51018E+04 1.17896E+05-6.17661E-10 1.46774E-08
 -1       877 2.94789E+05 5.26939E+04 8.06494E+03 1.22228E+05 6.71366E-09 1.31794E-08
 -1       878 2.95203E+05 4.78404E+04 3.37881E+03 1.19133E+05-7.17591E-09-6.99629E-09
 -1       879 2.92737E+05 5.06452E+04 1.68353E+03 1.22330E+05 3.92629E-09 1.96485E-09
 -1       880 2.95305E+05 4.78232E+04 7.84170E+02 1.19184E+05 1.17871E-09-2.54408E-09
 -1       881 2.92600E+05 5.05576E+04 4.18780E+02 1.22307E+05-5.95355E-09-1.24259E-08
 -1       882 2.95314E+05 4.78364E+04 2.67946E+02 1.19185E+05-1.72804E-10 3.36566E-09
 -1       883 2.92591E+05 5.05530E+04 2.88111E+02 1.22299E+05 8.18829E-10 1.16576E-08
 -1       884 2.95307E+05 4.78336E+04 4.58368E+02 1.19185E+05-2.58012E-09 1.06630E-08
 -1       885 2.92627E+05 5.05594E+04 9.21605E+02 1.22310E+05-3.93399E-09 2.34763E-09
 -1       886 2.95271E+05 4.78068E+04 1.85747E+03 1.19182E+05 3.58597E-09 2.10134E-08
 -1       887 2.92954E+05 5.07734E+04 4.05739E+03 1.22357E+05 2.03312E-09-3.98461E-09
 -1       888 2.95015E+05 4.78519E+04 8.17575E+03 1.19052E+05-7.17506E-11 7.32780E-09
 -1       889 2.97821E+05 5.58352E+04 1.95303E+04 1.22208E+05-1.39778E-10 3.15185E-09
 -1       890 2.91678E+05 5.18159E+04 3.65799E+04 1.15940E+05-8.57654E-10 7.63976E-10
 -1       891-8.90070E+01-1.62789E+05-1.99660E+03 2.71558E+04-2.44222E-09-4.75711E-09
 -1       892-1.74848E+02-1.63317E+05-2.14438E+03 4.12382E+04 7.20775E-11-1.73054E-09
 -1       893 4.40486E+01-1.62854E+05-3.03621E+03 2.71632E+04-1.84423E-09 2.42926E-09
 -1       894-1.50970E+03-1.64464E+05-6.28380E+03 4.10856E+04 6.93490E-10 6.73026E-09
 -1       895-1.19905E+03-1.61544E+05-1.10657E+04 2.73103E+04 1.72349E-10 8.70205E-09
 -1       956-3.77230E+05-5.45063E+03-1.34547E+04 3.08554E+04 3.12684E-09-1.65464E-08
 -1       957-3.79870E+05-1.92293E+03-6.90611E+03 3.70797E+04-6.71480E-09-2.89592E-08
 -1       958-3.78439E+05-2.41102E+02-3.11211E+03 3.06878E+04-1.00308E-08-1.49294E-09
 -1       959-3.78636E+05-1.36456E+02-1.58909E+03 3.72752E+04 2.54477E-09-9.39554E-09
 -1       960-3.78557E+05-4.49623E+01-7.74919E+02 3.06705E+04 8.80209E-09 5.78416E-09
 -1       961-3.78556E+05-6.34137E+01-4.10852E+02 3.72957E+04 1.38916E-08 6.40102E-09
 -1       962-3.78585E+05-4.61875E+01-2.35221E+02 3.06676E+04 2.18233E-09 6.16660E-09
 -1       963-3.78556E+05-5.92198E+01-1.88822E+02 3.72993E+04 1.55524E-09-1.57011E-08
 -1       964-3.78591E+05-4.28301E+01-2.29620E+02 3.06668E+04-2.56640E-09 9.99466E-09
 -1       965-3.78568E+05-5.62553E+01-3.97146E+02 3.72986E+04-4.76388E-09 1.08980E-09
 -1       966-3.78574E+05-3.49845E+01-7.46226E+02 3.06683E+04 5.62750E-09 1.67620E-09
 -1       967-3.78658E+05-1.19798E+02-1.53049E+03 3.72843E+04-1.53477E-10-2.43283E-08
 -1       968-3.78471E+05-2.17484E+02-2.99616E+03 3.06810E+04-3.43789E-09 5.56707E-09
 -1       969-3.79858E+05-1.83478E+03-6.65139E+03 3.71359E+04 4.35375E-09 1.68979E-08
 -1       970-3.77314E+05-5.23089E+03-1.29573E+04 3.08081E+04-1.34787E-09 1.12805E-08
 -1       971-3.45420E+05-1.72808E+03-9.31251E+03 1.53854E+04 7.49515E-09 6.29807E-09
 -1       972-3.47662E+05-1.27230E+03-5.07149E+03 2.12775E+04 6.02995E-10-7.09861E-09
 -1       973-3.46458E+05-6.21761E+01-2.27157E+03 1.52643E+04 1.50067E-09-6.72048E-09
 -1       974-3.46593E+05-8.12717E+01-1.17751E+03 2.14147E+04 5.23210E-09-1.04669E-08
 -1       975-3.46540E+05-1.72839E+01-5.89056E+02 1.52519E+04-4.84124E-09 1.00431E-09
 -1       976-3.46531E+05-3.14102E+01-3.40681E+02 2.14305E+04-4.96743E-09 2.04739E-09
 -1       977-3.46556E+05-1.65350E+01-2.48762E+02 1.52485E+04-9.29253E-09-4.65297E-09
 -1       978-3.46537E+05-2.51813E+01-2.93150E+02 2.14353E+04-1.05755E-08-4.87148E-10
 -1       979-3.46556E+05-8.05431E+00-4.72758E+02 1.52471E+04-2.91953E-09-2.49418E-09
 -1       980-3.46572E+05-2.21188E+01-9.13940E+02 2.14363E+04-1.90744E-09 1.56233E-08
 -1       981-3.46527E+05 1.47898E+01-1.77067E+03 1.52476E+04 2.31171E-09 9.54356E-09
 -1       982-3.46815E+05-1.52953E+02-3.66026E+03 2.14297E+04 2.49292E-09 2.54798E-08
 -1       983-3.46304E+05-9.85929E+01-7.11207E+03 1.52537E+04-4.50746E-09 7.71843E-09
 -1       984-3.50236E+05-3.86738E+03-1.59273E+04 2.13440E+04-2.97405E-09 2.32126E-09
 -1       985-3.43084E+05-5.30277E+03-2.92474E+04 1.53250E+04-6.83440E-09 2.17187E-09
 -3
    1PSTEP                        31          16           1          
  100CL  116 6.63139E-01         409                     0   16           1
 -4  DISP        4    1
 -5  D1          1    2    1    0
 -5  D2          1    2    2    0
 -5  D3          1    2    3    0
 -5  ALL         1    2    0    0    1ALL
 -1         1 2.70721E-03 0.00000E+00 0.00000E+00
 -1         2 1.37790E-03 4.54221E-28 0.00000E+00
 -1         3 3.42582E-04-5.82440E-28 0.00000E+00
 -1         5 1.77099E-04-2.01921E-27 2.48154E-24
 -1         8 2.69601E-03-4.12171E-07 0.00000E+00
 -1         9 2.68939E-03-1.81109E-04 0.00000E+00
 -1        10 3.10627E-04-3.41788E-06 0.00000E+00
 -1        12 1.78926E-04 8.09123E-07-1.65436E-24
 -1        15 2.68313E-03-4.36936E-07 0.00000E+00
 -1        16 2.75182E-03-1.82876E-04 0.00000E+00
 -1        17 2.11392E-04-7.79147E-06 0.00000E+00
 -1        18 1.82844E-04 3.44017E-05 0.00000E+00
 -1        19 1.84436E-04 1.61977E-06 0.00000E+00
 -1        20 1.84576E-04-9.85816E-06 0.00000E+00
 -1        21 1.83684E-04-2.53609E-05-3.30872E-24
 -1        24 3.06271E-05-1.20185E-05 0.00000E+00
 -1        25 1.93616E-04 3.46273E-05 0.00000E+00
 -1        26 1.94300E-04 2.23984E-06 0.00000E+00
 -1        27 1.92100E-04-1.34161E-05 0.00000E+00
 -1        28 1.91782E-04-2.59832E-05 0.00000E+00
 -1        32 0.00000E+00 0.00000E+00 0.00000E+00
 -1        33 2.03156E-04 2.99355E-06 0.00000E+00
 -1        34 2.01038E-04-1.34721E-05 0.00000E+00
 -1        35 1.99105E-04-2.63256E-05 0.00000E+00
 -1        51 2.70646E-03-8.59183E-08 0.00000E+00
 -1        52 2.70509E-03-1.53560E-07-3.30872E-24
 -1        53 2.70322E-03-2.17784E-07 0.00000E+00
 -1        54 2.70100E-03-2.80824E-07 0.00000E+00
 -1        55 2.69855E-03-3.44438E-07 0.00000E+00
 -1        56 2.69999E-03 7.34791E-06 0.00000E+00
 -1        57 2.68628E-03 3.07492E-05-5.29396E-23
 -1        58 2.66812E-03 6.51041E-05 0.00000E+00
 -1        59 2.64793E-03 1.04257E-04 0.00000E+00
 -1        60 2.62865E-03 1.41232E-04 0.00000E+00
 -1        61 2.61306E-03 1.69229E-04 0.00000E+00
 -1        62 2.60313E-03 1.83055E-04 0.00000E+00
 -1        63 2.60010E-03 1.78776E-04 0.00000E+00
 -1        64 2.60385E-03 1.55776E-04 0.00000E+00
 -1        65 2.61362E-03 1.15195E-04 5.29396E-23
 -1        66 2.62770E-03 6.14894E-05 0.00000E+00
 -1        67 2.64411E-03 3.91903E-07-5.29396E-23
 -1        68 2.66059E-03-6.09437E-05-1.05879E-22
 -1        69 2.67491E-03-1.15333E-04 0.00000E+00
 -1        70 2.68505E-03-1.56935E-04 1.05879E-22
 -1        86 1.46033E-03-5.78469E-06 5.29396E-23
 -1        87 1.69915E-03-3.61054E-05 0.00000E+00
 -1        88 2.02022E-03-8.81226E-05-2.64698E-23
 -1        89 2.34545E-03-1.41516E-04 0.00000E+00
 -1        90 2.59435E-03-1.74182E-04 0.00000E+00
 -1       121 3.41684E-04-5.51909E-07 1.32349E-23
 -1       122 3.38996E-04-1.10691E-06 0.00000E+00
 -1       123 3.34526E-04-1.66803E-06 0.00000E+00
 -1       124 3.28291E-04-2.23833E-06 0.00000E+00
 -1       125 3.20315E-04-2.82044E-06-1.32349E-23
 -1       191 1.77150E-04 1.34905E-07 1.65436E-24
 -1       192 1.77302E-04 2.69800E-07-4.13590E-25
 -1       193 1.77556E-04 4.04676E-07 4.13590E-25
 -1       194 1.77912E-04 5.39525E-07 8.40105E-26
 -1       195 1.78368E-04 6.74337E-07-8.27181E-25
 -1       251 2.69570E-03 1.79188E-06 6.61744E-24
 -1       252 2.69538E-03 4.02144E-06 3.30872E-24
 -1       253 2.69507E-03 5.28234E-06 6.61744E-24
 -1       254 2.69476E-03 4.59274E-06 0.00000E+00
 -1       255 2.69444E-03 1.27381E-06 0.00000E+00
 -1       256 2.69410E-03-5.31951E-06 0.00000E+00
 -1       257 2.69374E-03-1.53240E-05-1.32349E-23
 -1       258 2.69334E-03-2.88324E-05 6.61744E-24
 -1       259 2.69290E-03-4.53944E-05 0.00000E+00
 -1       260 2.69241E-03-6.45195E-05 0.00000E+00
 -1       261 2.69188E-03-8.53199E-05 0.00000E+00
 -1       262 2.69135E-03-1.06886E-04-6.61744E-24
 -1       263 2.69081E-03-1.28190E-04 0.00000E+00
 -1       264 2.69030E-03-1.48207E-04-6.61744E-24
 -1       265 2.68983E-03-1.66113E-04 0.00000E+00
 -1       266 2.69386E-03-4.22048E-07-3.30872E-24
 -1       267 2.69172E-03-4.25475E-07 8.27181E-25
 -1       268 2.68957E-03-4.29310E-07 8.27181E-25
 -1       269 2.68743E-03-4.31935E-07-2.06795E-25
 -1       270 2.68528E-03-4.34532E-07 0.00000E+00
 -1       271 2.69509E-03 2.21196E-07 0.00000E+00
 -1       272 2.69508E-03-1.62624E-06 0.00000E+00
 -1       273 2.69593E-03-5.81176E-06 1.32349E-23
 -1       274 2.69760E-03-1.21814E-05 0.00000E+00
 -1       275 2.70000E-03-2.05610E-05 0.00000E+00
 -1       276 2.70306E-03-3.07615E-05 0.00000E+00
 -1       277 2.70671E-03-4.25781E-05 0.00000E+00
 -1       278 2.71087E-03-5.57935E-05 0.00000E+00
 -1       279 2.71545E-03-7.01786E-05 0.00000E+00
 -1       280 2.72037E-03-8.54949E-05 1.32349E-23
 -1       281 2.72552E-03-1.01496E-04 0.00000E+00
 -1       282 2.73084E-03-1.17930E-04 0.00000E+00
 -1       283 2.73622E-03-1.34542E-04-1.32349E-23
 -1       284 2.74157E-03-1.51074E-04 0.00000E+00
 -1       285 2.74680E-03-1.67270E-04-1.32349E-23
 -1       301 2.70074E-03-1.81437E-04 6.61744E-24
 -1       302 2.71048E-03-1.81719E-04 0.00000E+00
 -1       303 2.71953E-03-1.81992E-04 1.32349E-23
 -1       304 2.72883E-03-1.82266E-04 0.00000E+00
 -1       305 2.73928E-03-1.82553E-04 0.00000E+00
 -1       306 2.72715E-03-3.35113E-04-1.05879E-22
 -1       307 2.79104E-03-7.48552E-04 5.29396E-23
 -1       308 2.83781E-03-1.35339E-03 1.05879E-22
 -1       309 2.86171E-03-2.05373E-03 0.00000E+00
 -1       310 2.89298E-03-2.72393E-03 1.05879E-22
 -1       311 2.95240E-03-3.24094E-03 0.00000E+00
 -1       312 3.01035E-03-3.52411E-03-2.11758E-22
 -1       313 3.00613E-03-3.53542E-03 5.29396E-23
 -1       314 2.86595E-03-3.28674E-03-1.05879E-22
 -1       315 2.54884E-03-2.84240E-03 5.29396E-23
 -1       316 2.07300E-03-2.27896E-03 0.00000E+00
 -1       317 1.50413E-03-1.66579E-03 0.00000E+00
 -1       318 9.56412E-04-1.06361E-03 0.00000E+00
 -1       319 5.37746E-04-5.37445E-04 5.29396E-23
 -1       320 2.91946E-04-1.61376E-04 0.00000E+00
 -1       336 2.99041E-04-4.07837E-06-1.32349E-23
 -1       337 2.85380E-04-4.76453E-06 6.61744E-24
 -1       338 2.69706E-04-5.47859E-06 0.00000E+00
 -1       339 2.52094E-04-6.22133E-06 0.00000E+00
 -1       340 2.32626E-04-6.99722E-06 0.00000E+00
 -1       406 1.79584E-04 9.45106E-07 8.27181E-25
 -1       407 1.80345E-04 1.08100E-06-5.34759E-25
 -1       408 1.81211E-04 1.21674E-06-2.89513E-24
 -1       409 1.82182E-04 1.35214E-06 6.20385E-25
 -1       410 1.83257E-04 1.48691E-06-2.06795E-24
 -1       521 2.79019E-03-3.46154E-04 0.00000E+00
 -1       522 2.85232E-03-7.79738E-04 0.00000E+00
 -1       523 2.89270E-03-1.41219E-03 1.05879E-22
 -1       524 2.90745E-03-2.14093E-03-5.29396E-23
 -1       525 2.93087E-03-2.83750E-03 0.00000E+00
 -1       526 2.98675E-03-3.37638E-03 5.29396E-23
 -1       527 3.04427E-03-3.67009E-03 0.00000E+00
 -1       528 3.03777E-03-3.67966E-03 5.29396E-23
 -1       529 2.88571E-03-3.41696E-03-2.11758E-22
 -1       530 2.54486E-03-2.95418E-03 5.29396E-23
 -1       531 2.03421E-03-2.37166E-03-1.05879E-22
 -1       532 1.42587E-03-1.74137E-03 0.00000E+00
 -1       533 8.39312E-04-1.12141E-03-1.05879E-22
 -1       534 3.87552E-04-5.74491E-04 5.29396E-23
 -1       535 1.20648E-04-1.78985E-04 0.00000E+00
 -1       536 2.10638E-04 2.71196E-05 0.00000E+00
 -1       537 2.08721E-04 8.75433E-05 0.00000E+00
 -1       538 2.05758E-04 1.64215E-04 3.30872E-24
 -1       539 2.02264E-04 2.47787E-04 1.65436E-24
 -1       540 1.99119E-04 3.26757E-04 3.30872E-24
 -1       541 1.97074E-04 3.89649E-04 1.65436E-24
 -1       542 1.96131E-04 4.29709E-04 0.00000E+00
 -1       543 1.95906E-04 4.40334E-04 1.65436E-24
 -1       544 1.95584E-04 4.22297E-04-3.30872E-24
 -1       545 1.94412E-04 3.76592E-04 0.00000E+00
 -1       546 1.92228E-04 3.11343E-04 0.00000E+00
 -1       547 1.89271E-04 2.34797E-04 1.65436E-24
 -1       548 1.86342E-04 1.58626E-04-3.30872E-24
 -1       549 1.84228E-04 9.45045E-05 1.65436E-24
 -1       550 1.83130E-04 5.04621E-05 1.65436E-24
 -1       551 1.86202E-04-8.36139E-06 0.00000E+00
 -1       552 1.57769E-04-9.01167E-06 0.00000E+00
 -1       553 1.27035E-04-9.72411E-06 9.92617E-24
 -1       554 9.49610E-05-1.04776E-05 0.00000E+00
 -1       555 6.25065E-05-1.12447E-05 0.00000E+00
 -1       556 2.03748E-04 1.17549E-05 0.00000E+00
 -1       557 1.97572E-04 2.76080E-05 2.64698E-23
 -1       558 1.92729E-04 4.00555E-05 0.00000E+00
 -1       559 1.89088E-04 4.94078E-05 0.00000E+00
 -1       560 1.86518E-04 5.59754E-05 0.00000E+00
 -1       561 1.84891E-04 6.00715E-05 0.00000E+00
 -1       562 1.84082E-04 6.20105E-05 0.00000E+00
 -1       563 1.83967E-04 6.21076E-05 0.00000E+00
 -1       564 1.84425E-04 6.06793E-05 0.00000E+00
 -1       565 1.85334E-04 5.80422E-05 0.00000E+00
 -1       566 1.86575E-04 5.45139E-05 0.00000E+00
 -1       567 1.88029E-04 5.04123E-05 0.00000E+00
 -1       568 1.89578E-04 4.60552E-05 0.00000E+00
 -1       569 1.91104E-04 4.17607E-05 8.27181E-25
 -1       570 1.92489E-04 3.78469E-05 0.00000E+00
 -1       571 1.82941E-04 3.22755E-05 3.30872E-24
 -1       572 1.83039E-04 3.00836E-05-1.24077E-24
 -1       573 1.83138E-04 2.78417E-05 3.30872E-24
 -1       574 1.83238E-04 2.55660E-05-8.27181E-25
 -1       575 1.83337E-04 2.32731E-05-3.30872E-24
 -1       576 1.83436E-04 2.09794E-05 1.65436E-24
 -1       577 1.83536E-04 1.87013E-05 0.00000E+00
 -1       578 1.83635E-04 1.64553E-05 0.00000E+00
 -1       579 1.83735E-04 1.42580E-05 0.00000E+00
 -1       580 1.83835E-04 1.21258E-05-6.61744E-24
 -1       581 1.83935E-04 1.00753E-05 0.00000E+00
 -1       582 1.84035E-04 8.12288E-06 3.30872E-24
 -1       583 1.84135E-04 6.28502E-06 0.00000E+00
 -1       584 1.84235E-04 4.57802E-06 0.00000E+00
 -1       585 1.84336E-04 3.01801E-06 0.00000E+00
 -1       586 1.84598E-04 3.44415E-05-1.65436E-24
 -1       587 1.86312E-04 3.44806E-05 0.00000E+00
 -1       588 1.88027E-04 3.45194E-05 8.27181E-25
 -1       589 1.89787E-04 3.45575E-05 0.00000E+00
 -1       590 1.91636E-04 3.45943E-05 0.00000E+00
 -1       591 1.83573E-04 3.23690E-05 1.03398E-25
 -1       592 1.84305E-04 3.03162E-05 0.00000E+00
 -1       593 1.85042E-04 2.82492E-05 0.00000E+00
 -1       594 1.85782E-04 2.61728E-05-4.13590E-25
 -1       595 1.86523E-04 2.40918E-05-8.27181E-25
 -1       596 1.87265E-04 2.20107E-05-4.13590E-25
 -1       597 1.88004E-04 1.99345E-05 0.00000E+00
 -1       598 1.88741E-04 1.78677E-05-4.13590E-25
 -1       599 1.89472E-04 1.58151E-05 8.27181E-25
 -1       600 1.90195E-04 1.37813E-05 4.13590E-25
 -1       601 1.90910E-04 1.17712E-05 0.00000E+00
 -1       602 1.91615E-04 9.78923E-06 0.00000E+00
 -1       603 1.92308E-04 7.84028E-06-8.27181E-25
 -1       604 1.92986E-04 5.92912E-06 0.00000E+00
 -1       605 1.93650E-04 4.06035E-06 0.00000E+00
 -1       606 1.84450E-04 4.54713E-07 0.00000E+00
 -1       607 1.84459E-04-6.24312E-07 0.00000E+00
 -1       608 1.84468E-04-1.62235E-06 0.00000E+00
 -1       609 1.84477E-04-2.54511E-06-1.65436E-24
 -1       610 1.84485E-04-3.39833E-06 0.00000E+00
 -1       611 1.84493E-04-4.18781E-06 0.00000E+00
 -1       612 1.84502E-04-4.91938E-06 0.00000E+00
 -1       613 1.84510E-04-5.59885E-06 0.00000E+00
 -1       614 1.84518E-04-6.23206E-06 0.00000E+00
 -1       615 1.84527E-04-6.82482E-06 0.00000E+00
 -1       616 1.84535E-04-7.38296E-06-1.65436E-24
 -1       617 1.84544E-04-7.91230E-06 4.13590E-25
 -1       618 1.84552E-04-8.41867E-06 0.00000E+00
 -1       619 1.84560E-04-8.90789E-06 0.00000E+00
 -1       620 1.84569E-04-9.38578E-06 0.00000E+00
 -1       621 1.85796E-04 1.72369E-06 3.30872E-24
 -1       622 1.87313E-04 1.82785E-06-1.65436E-24
 -1       623 1.88955E-04 1.93179E-06 1.65436E-24
 -1       624 1.90690E-04 2.03540E-06 8.27181E-25
 -1       625 1.92482E-04 2.13872E-06-1.65436E-24
 -1       626 1.84985E-04 4.90810E-07-3.30872E-24
 -1       627 1.85511E-04-5.74912E-07 0.00000E+00
 -1       628 1.86017E-04-1.58525E-06 0.00000E+00
 -1       629 1.86505E-04-2.54839E-06 1.65436E-24
 -1       630 1.86979E-04-3.47253E-06 0.00000E+00
 -1       631 1.87441E-04-4.36590E-06 0.00000E+00
 -1       632 1.87894E-04-5.23670E-06 0.00000E+00
 -1       633 1.88343E-04-6.09317E-06 1.65436E-24
 -1       634 1.88789E-04-6.94354E-06 0.00000E+00
 -1       635 1.89235E-04-7.79600E-06-1.65436E-24
 -1       636 1.89686E-04-8.65881E-06 0.00000E+00
 -1       637 1.90143E-04-9.54018E-06 0.00000E+00
 -1       638 1.90611E-04-1.04483E-05 0.00000E+00
 -1       639 1.91091E-04-1.13915E-05 0.00000E+00
 -1       640 1.91587E-04-1.23780E-05-3.30872E-24
 -1       656 1.85282E-04-1.04364E-05-6.61744E-24
 -1       657 1.86407E-04-1.10382E-05 6.61744E-24
 -1       658 1.87813E-04-1.16386E-05 0.00000E+00
 -1       659 1.89353E-04-1.22387E-05 6.61744E-24
 -1       660 1.90843E-04-1.28405E-05 6.61744E-24
 -1       661 1.84840E-04-1.03756E-05 0.00000E+00
 -1       662 1.85142E-04-1.09848E-05 0.00000E+00
 -1       663 1.85476E-04-1.16806E-05-1.65436E-24
 -1       664 1.85840E-04-1.24565E-05 8.27181E-25
 -1       665 1.86232E-04-1.33066E-05 0.00000E+00
 -1       666 1.86650E-04-1.42251E-05 8.27181E-25
 -1       667 1.87092E-04-1.52063E-05-1.65436E-24
 -1       668 1.87554E-04-1.62446E-05 8.27181E-25
 -1       669 1.88036E-04-1.73347E-05 0.00000E+00
 -1       670 1.88536E-04-1.84712E-05 0.00000E+00
 -1       671 1.89051E-04-1.96489E-05 0.00000E+00
 -1       672 1.89579E-04-2.08628E-05 0.00000E+00
 -1       673 1.90118E-04-2.21079E-05 1.65436E-24
 -1       674 1.90667E-04-2.33794E-05 0.00000E+00
 -1       675 1.91224E-04-2.46722E-05-2.06795E-25
 -1       676 1.85038E-04-2.54652E-05-3.30872E-24
 -1       677 1.86392E-04-2.55695E-05 0.00000E+00
 -1       678 1.87744E-04-2.56737E-05 0.00000E+00
 -1       679 1.89093E-04-2.57776E-05 0.00000E+00
 -1       680 1.90440E-04-2.58815E-05 0.00000E+00
 -1       771 1.86816E-05 1.46925E-05 0.00000E+00
 -1       772 8.63144E-06 3.66308E-05 0.00000E+00
 -1       773 3.85946E-07 5.40267E-05 0.00000E+00
 -1       774-6.17912E-06 6.71378E-05 0.00000E+00
 -1       775-1.11853E-05 7.62322E-05 5.29396E-23
 -1       776-1.47590E-05 8.15950E-05 0.00000E+00
 -1       777-1.70265E-05 8.35210E-05 0.00000E+00
 -1       778-1.81167E-05 8.23192E-05 0.00000E+00
 -1       779-1.81576E-05 7.83068E-05 0.00000E+00
 -1       780-1.72796E-05 7.18126E-05 0.00000E+00
 -1       781-1.56119E-05 6.31723E-05 0.00000E+00
 -1       782-1.32854E-05 5.27300E-05 0.00000E+00
 -1       783-1.04299E-05 4.08350E-05 0.00000E+00
 -1       784-7.17676E-06 2.78424E-05 0.00000E+00
 -1       785-3.65614E-06 1.41105E-05 0.00000E+00
 -1       786 1.93655E-04 3.23759E-05 1.29247E-26
 -1       787 1.93697E-04 3.01745E-05 0.00000E+00
 -1       788 1.93738E-04 2.80148E-05-8.27181E-25
 -1       789 1.93781E-04 2.58885E-05 0.00000E+00
 -1       790 1.93824E-04 2.37909E-05 0.00000E+00
 -1       791 1.93867E-04 2.17174E-05-8.27181E-25
 -1       792 1.93910E-04 1.96656E-05 1.65436E-24
 -1       793 1.93953E-04 1.76335E-05 8.27181E-25
 -1       794 1.93996E-04 1.56208E-05-1.65436E-24
 -1       795 1.94039E-04 1.36275E-05 8.27181E-25
 -1       796 1.94082E-04 1.16554E-05 0.00000E+00
 -1       797 1.94125E-04 9.70627E-06 8.27181E-25
 -1       798 1.94169E-04 7.78454E-06 1.65436E-24
 -1       799 1.94212E-04 5.89451E-06-8.27181E-25
 -1       800 1.94256E-04 4.04371E-06 0.00000E+00
 -1       801 1.47839E-04 3.11295E-05 0.00000E+00
 -1       802 9.43049E-06 1.94218E-05 0.00000E+00
 -1       803-1.08791E-04 9.81175E-06-5.29396E-23
 -1       804-9.64280E-05 6.82933E-06 0.00000E+00
 -1       805-3.18541E-05 2.68363E-06 5.29396E-23
 -1       806 1.94345E-04 3.23072E-05-3.30872E-24
 -1       807 1.95060E-04 3.00132E-05 0.00000E+00
 -1       808 1.95763E-04 2.77504E-05-3.30872E-24
 -1       809 1.96452E-04 2.55231E-05 1.65436E-24
 -1       810 1.97126E-04 2.33352E-05 3.30872E-24
 -1       811 1.97784E-04 2.11906E-05 1.65436E-24
 -1       812 1.98424E-04 1.90934E-05 0.00000E+00
 -1       813 1.99045E-04 1.70475E-05 0.00000E+00
 -1       814 1.99646E-04 1.50567E-05 3.30872E-24
 -1       815 2.00225E-04 1.31250E-05-8.27181E-25
 -1       816 2.00780E-04 1.12562E-05-1.65436E-24
 -1       817 2.01310E-04 9.45441E-06-8.27181E-25
 -1       818 2.01814E-04 7.72336E-06-1.65436E-24
 -1       819 2.02290E-04 6.06699E-06 1.65436E-24
 -1       820 2.02737E-04 4.48912E-06 3.30872E-24
 -1       821 1.94170E-04-1.19648E-07 0.00000E+00
 -1       822 1.94030E-04-3.63185E-06-1.65436E-24
 -1       823 1.93888E-04-7.86920E-06 0.00000E+00
 -1       824 1.93743E-04-1.23996E-05 0.00000E+00
 -1       825 1.93599E-04-1.67117E-05 0.00000E+00
 -1       826 1.93457E-04-2.02954E-05-1.65436E-24
 -1       827 1.93318E-04-2.28392E-05-3.30872E-24
 -1       828 1.93182E-04-2.40375E-05 1.65436E-24
 -1       829 1.93046E-04-2.39514E-05 0.00000E+00
 -1       830 1.92910E-04-2.26495E-05 0.00000E+00
 -1       831 1.92772E-04-2.05314E-05 3.30872E-24
 -1       832 1.92634E-04-1.80017E-05 0.00000E+00
 -1       833 1.92496E-04-1.55774E-05-3.30872E-24
 -1       834 1.92361E-04-1.37743E-05 0.00000E+00
 -1       835 1.92226E-04-1.29400E-05 0.00000E+00
 -1       836 1.95988E-04 2.36483E-06 3.30872E-24
 -1       837 1.97549E-04 2.49296E-06 0.00000E+00
 -1       838 1.99015E-04 2.62103E-06 3.30872E-24
 -1       839 2.00416E-04 2.74840E-06 8.27181E-25
 -1       840 2.01786E-04 2.87561E-06 0.00000E+00
 -1       856 1.92083E-04-1.44766E-05-8.27181E-25
 -1       857 1.92064E-04-1.54013E-05 0.00000E+00
 -1       858 1.92045E-04-1.62113E-05 2.06795E-25
 -1       859 1.92025E-04-1.69278E-05-2.06795E-25
 -1       860 1.92005E-04-1.75721E-05 0.00000E+00
 -1       861 1.91985E-04-1.81653E-05 0.00000E+00
 -1       862 1.91965E-04-1.87289E-05-4.13590E-25
 -1       863 1.91945E-04-1.92842E-05 0.00000E+00
 -1       864 1.91926E-04-1.98525E-05 0.00000E+00
 -1       865 1.91906E-04-2.04552E-05 0.00000E+00
 -1       866 1.91886E-04-2.11136E-05 0.00000E+00
 -1       867 1.91866E-04-2.18489E-05-4.13590E-25
 -1       868 1.91845E-04-2.26824E-05 8.27181E-25
 -1       869 1.91825E-04-2.36353E-05 4.13590E-25
 -1       870 1.91804E-04-2.47285E-05 0.00000E+00
 -1       871 1.93448E-04-1.34210E-05 0.00000E+00
 -1       872 1.94943E-04-1.34293E-05 0.00000E+00
 -1       873 1.96518E-04-1.34383E-05 0.00000E+00
 -1       874 1.98104E-04-1.34481E-05 1.03398E-25
 -1       875 1.99633E-04-1.34584E-05-1.03398E-24
 -1       876 1.92624E-04-1.44620E-05 6.61744E-24
 -1       877 1.93127E-04-1.54411E-05 0.00000E+00
 -1       878 1.93608E-04-1.63614E-05 3.30872E-24
 -1       879 1.94070E-04-1.72302E-05 0.00000E+00
 -1       880 1.94515E-04-1.80549E-05-3.30872E-24
 -1       881 1.94947E-04-1.88430E-05 0.00000E+00
 -1       882 1.95368E-04-1.96017E-05-3.30872E-24
 -1       883 1.95781E-04-2.03385E-05 0.00000E+00
 -1       884 1.96188E-04-2.10607E-05 3.30872E-24
 -1       885 1.96593E-04-2.17755E-05 1.65436E-24
 -1       886 1.96997E-04-2.24904E-05 3.30872E-24
 -1       887 1.97404E-04-2.32127E-05 0.00000E+00
 -1       888 1.97817E-04-2.39497E-05 0.00000E+00
 -1       889 1.98237E-04-2.47091E-05 0.00000E+00
 -1       890 1.98667E-04-2.54979E-05 0.00000E+00
 -1       891 1.93145E-04-2.60407E-05 1.65436E-24
 -1       892 1.94484E-04-2.60984E-05 0.00000E+00
 -1       893 1.95775E-04-2.61560E-05-8.27181E-25
 -1       894 1.96992E-04-2.62133E-05-8.27181E-25
 -1       895 1.98110E-04-2.62704E-05-8.27181E-25
 -1       956 2.03025E-04 1.67258E-06 1.65436E-24
 -1       957 2.02893E-04 4.43128E-07 0.00000E+00
 -1       958 2.02760E-04-7.05543E-07 0.00000E+00
 -1       959 2.02627E-04-1.78476E-06 0.00000E+00
 -1       960 2.02495E-04-2.80590E-06 3.30872E-24
 -1       961 2.02362E-04-3.78037E-06 1.65436E-24
 -1       962 2.02229E-04-4.71958E-06 0.00000E+00
 -1       963 2.02096E-04-5.63499E-06 0.00000E+00
 -1       964 2.01963E-04-6.53802E-06 3.30872E-24
 -1       965 2.01831E-04-7.44010E-06 0.00000E+00
 -1       966 2.01698E-04-8.35268E-06 0.00000E+00
 -1       967 2.01565E-04-9.28719E-06 0.00000E+00
 -1       968 2.01433E-04-1.02551E-05 6.61744E-24
 -1       969 2.01300E-04-1.12677E-05 0.00000E+00
 -1       970 2.01168E-04-1.23364E-05 3.30872E-24
 -1       971 2.00918E-04-1.46074E-05 0.00000E+00
 -1       972 2.00796E-04-1.56480E-05 1.65436E-24
 -1       973 2.00675E-04-1.66043E-05 0.00000E+00
 -1       974 2.00554E-04-1.74874E-05 1.65436E-24
 -1       975 2.00432E-04-1.83079E-05 0.00000E+00
 -1       976 2.00311E-04-1.90768E-05 0.00000E+00
 -1       977 2.00189E-04-1.98050E-05 0.00000E+00
 -1       978 2.00068E-04-2.05033E-05-1.65436E-24
 -1       979 1.99946E-04-2.11827E-05 0.00000E+00
 -1       980 1.99825E-04-2.18542E-05 0.00000E+00
 -1       981 1.99704E-04-2.25286E-05-3.30872E-24
 -1       982 1.99583E-04-2.32167E-05 0.00000E+00
 -1       983 1.99462E-04-2.39297E-05 0.00000E+00
 -1       984 1.99341E-04-2.46783E-05-1.65436E-24
 -1       985 1.99221E-04-2.54734E-05 3.30872E-24
 -3
    1PSTEP                        32          16           1          
  100CL  116 6.63139E-01         409                     0   16           1
 -4  STRESS      6    1
 -5  SXX         1    4    1    1
 -5  SYY         1    4    2    2
 -5  SZZ         1    4    3    3
 -5  SXY         1    4    1    2
 -5  SYZ         1    4    2    3
 -5  SZX         1    4    3    1
 -1         1-5.32069E+06-1.63260E+06-1.13307E+06-1.40920E+06-1.48430E-09 5.44242E-08
 -1         2 1.36419E+06 2.00683E+07 4.72126E+06 6.03920E+06 2.56405E-08 1.18889E-08
 -1         3-1.48792E+03-1.56709E+06 4.07530E+02-2.22407E+03-6.09742E-10-2.53203E-08
 -1         5-7.41251E+01 3.86305E+05-1.61567E-01 7.35256E+00-4.07042E-10 1.94414E-08
 -1         8-5.74372E+05-2.05254E+05-6.50690E+04-2.50062E+05-4.91127E-11-8.91232E-08
 -1         9 1.16385E+07 3.50834E+06 2.70635E+06-4.11620E+05 5.82077E-09-3.15486E-08
 -1        10-2.30729E+03-1.63303E+06-3.96418E+03-1.50477E+04-1.35024E-08-3.19825E-08
 -1        12-7.79766E+01 3.88261E+05 3.17766E+02-1.50431E+01 1.73895E-09-1.54697E-08
 -1        15 9.52692E+02 5.23558E+02 3.07951E+03 8.83792E-01-3.65461E-10 1.94984E-07
 -1        16 2.28195E+07-3.12978E+05 3.11136E+06-2.22571E+06 2.21577E-08 2.45403E-07
 -1        17 8.34592E+06 6.25550E+06 2.25534E+06 5.98890E+06 2.34402E-08 4.33996E-08
 -1        18 1.42270E+05 3.34740E+04 4.15675E+03-1.19474E+05 1.73945E-08-5.95674E-09
 -1        19 1.22513E+05 1.42362E+05-8.83883E+02 2.19779E+04 1.30203E-09-9.28776E-09
 -1        20-8.18044E+04-5.73549E+05-1.28690E+05 2.51755E+04-2.23857E-09-6.22579E-09
 -1        21-4.55972E+01-2.96090E+05-9.24358E+02 2.75068E+02 1.67801E-08-3.39581E-08
 -1        24 1.39517E+07 1.20239E+07 3.86540E+06 1.11352E+07-1.70801E-07-5.75868E-08
 -1        25 1.24920E+05 2.66835E+05 9.98973E+04-6.45497E+05-2.47546E-09 1.55658E-08
 -1        26-5.52832E+04 9.22934E+04-2.46083E+04 1.23153E+03-1.04774E-10 6.69613E-09
 -1        27-7.56223E+04-3.09887E+05-1.13297E+05 6.89631E+04 4.26492E-09-8.98884E-10
 -1        28 2.22477E+04-8.53552E+04 1.69010E+04 2.06430E+04-5.14007E-09-7.13015E-09
 -1        32-1.68066E+06-3.17989E+06-1.97140E+05 4.57285E+05-4.23752E-08-8.00651E-09
 -1        33-1.78437E+05 9.29811E+04 3.23823E+04-3.85353E+04-2.81261E-09 2.76365E-09
 -1        34-2.23586E+05-2.50183E+04 6.89011E+02 7.56253E+04-4.55747E-09-2.11761E-09
 -1        35-2.29372E+04-3.38507E+04-1.34849E+03 5.15102E+04-6.01189E-09 5.96143E-09
 -1        51 6.02651E+04-1.74853E+05 1.27558E+05-4.50048E+05-1.60071E-10 2.31725E-07
 -1        52 2.04519E+04-1.52636E+05 6.69933E+04-5.24869E+05 9.18590E-11-2.83835E-07
 -1        53 4.22952E+03-1.68026E+05 3.49864E+04-4.48492E+05 2.43745E-10-4.22908E-07
 -1        54 7.57620E+03-1.63826E+05 2.89487E+04-5.26402E+05-2.91038E-11-2.68446E-07
 -1        55 1.64854E+04-1.70970E+05 3.54477E+04-4.48387E+05 1.81899E-10 1.46045E-07
 -1        56-9.72830E+06-1.31602E+06-8.94416E+05-4.02349E+06 8.29459E-09 1.67231E-07
 -1        57-1.09238E+07-9.54111E+05-5.52323E+05-2.82534E+06 7.42148E-09 2.27301E-08
 -1        58-9.60490E+06-1.75519E+06-1.99611E+05-4.18053E+06-2.21553E-08 1.04243E-07
 -1        59-1.10182E+07-4.59536E+05-1.10477E+05-2.76416E+06-1.77170E-09 2.22222E-07
 -1        60-9.68981E+06-1.76084E+06-5.47409E+04-4.13481E+06-8.13088E-09 1.00037E-07
 -1        61-1.04813E+07-7.41493E+05 5.41646E+03-3.00128E+06-4.21533E-08 3.48518E-09
 -1        62-1.00393E+07-1.54240E+06-6.02732E+04-3.86337E+06-2.77942E-09 1.63498E-07
 -1        63-9.73285E+06-1.34912E+06 3.79616E+04-3.61674E+06-9.31323E-09 1.79944E-07
 -1        64-1.03590E+07-1.20969E+06-5.52504E+04-3.46827E+06 4.94765E-10-1.90808E-07
 -1        65-9.37896E+06-1.87617E+06 3.55214E+03-4.38038E+06-2.68919E-08-8.97444E-10
 -1        66-1.04871E+07-9.49719E+05-4.55880E+04-3.17038E+06 9.40054E-09-1.66699E-07
 -1        67-9.36293E+06-2.11063E+06-9.95769E+04-4.73778E+06-6.37465E-08-3.64846E-07
 -1        68-1.04679E+07-9.10347E+05-1.84089E+05-3.16990E+06-3.83288E-08 8.72678E-08
 -1        69-9.57020E+06-2.21638E+06-4.92969E+05-4.34674E+06-3.42443E-08 5.64687E-08
 -1        70-1.01957E+07-9.14587E+05-8.18318E+05-3.50350E+06 3.34603E-08 1.10071E-07
 -1        86-1.39110E+06-1.46947E+07-2.58242E+06-2.84248E+06-2.61000E-07-6.40139E-08
 -1        87 2.16528E+06 5.66572E+06 2.14877E+06 5.35536E+06-4.49603E-07 6.43922E-09
 -1        88-3.96059E+05-2.05638E+06 2.00412E+05-2.44327E+06-3.94324E-07-1.30161E-07
 -1        89 2.90192E+06 5.40468E+06 2.20000E+06 5.52693E+06-5.45318E-07-4.87937E-07
 -1        90-2.04518E+06-1.45014E+07-2.79289E+06-3.03847E+06-1.36228E-07-1.15586E-07
 -1       121-2.03853E+03-1.57199E+06-5.45297E+02 1.10240E+03 1.46355E-09-1.95359E-08
 -1       122-1.30109E+03-1.56715E+06 7.73293E+02-4.45203E+03-5.69946E-09-1.84264E-08
 -1       123-2.05843E+03-1.57213E+06 2.67429E+02 3.29228E+03 4.12797E-09 5.19503E-09
 -1       124 3.44346E+02-1.56670E+06 2.96547E+03-9.31286E+03-1.03096E-08 1.81371E-08
 -1       125-2.87187E+03-1.57303E+06 3.48518E+03 5.91734E+03 6.50653E-09-8.38554E-09
 -1       191-7.84088E+01 3.86325E+05-4.11022E+00-3.64853E+00-4.98005E-10 1.13432E-08
 -1       192-7.87490E+01 3.86304E+05-1.77928E+00 3.71097E+01-7.81654E-10-1.02445E-08
 -1       193-9.28019E+01 3.86324E+05-9.21858E+00-3.32837E+01-9.97261E-10-1.02591E-09
 -1       194-1.27998E+02 3.86290E+05-2.25685E+01 3.01926E+02-4.54747E-10 3.77622E-09
 -1       195-2.30160E+02 3.86327E+05-5.64372E+01-2.68128E+02-1.22964E-09-8.46558E-09
 -1       251-8.88013E+05 1.66204E+04-3.88456E+04-1.44179E+04 3.81442E-09-1.35307E-07
 -1       252-9.03175E+05-1.92112E+04-2.71006E+04 4.99593E+04-2.36400E-09 1.54347E-07
 -1       253-8.96277E+05 2.56417E+03-1.03808E+04-1.07075E+04 1.41881E-09-4.63751E-09
 -1       254-8.90032E+05-3.06094E+03-4.88115E+03 3.61794E+04-1.61949E-08-1.77949E-07
 -1       255-9.00587E+05 1.00833E+02-3.50708E+03-6.40602E+02 7.39260E-09 2.84287E-07
 -1       256-8.84549E+05-2.96561E+02 9.80395E+02 1.30360E+04-1.74159E-08 4.25669E-07
 -1       257-9.01314E+05-5.25522E+02-1.35220E+03 1.24260E+04 1.21381E-08 1.71668E-08
 -1       258-8.86958E+05 8.40059E+02 2.58747E+03-1.16735E+04-2.47642E-08-3.38250E-08
 -1       259-8.98390E+05-8.68562E+02 1.34385E+03 2.40661E+04 7.79914E-09 1.07758E-08
 -1       260-8.92985E+05 2.79834E+03 5.44321E+03-2.96379E+04-4.03787E-09-2.46511E-07
 -1       261-8.95890E+05-2.01717E+03 8.47009E+03 3.04046E+04 2.83964E-08 7.99355E-08
 -1       262-8.91636E+05 1.14471E+04 2.10426E+04-3.49151E+04-6.52882E-09 9.90635E-08
 -1       263-8.99981E+05-9.29689E+03 3.33430E+04 2.93519E+04-8.42357E-09 5.07880E-08
 -1       264-8.61871E+05 6.55192E+04 9.22910E+04-2.56483E+04 5.24497E-08 2.65493E-07
 -1       265-9.25175E+05-5.62143E+04 1.28559E+05 2.11268E+04-3.04760E-09 2.36403E-07
 -1       266-1.72468E+04-8.06542E+03 4.04622E+04-1.89093E+01 7.63976E-11 2.66190E-07
 -1       267 1.99936E+04 9.39921E+03 2.86001E+04 2.18194E+01 1.85537E-10 7.55157E-08
 -1       268-2.68110E+03-1.33124E+03 1.06304E+04-2.78007E+00-1.13687E-10 1.29889E-07
 -1       269 3.16561E+03 1.59317E+03 6.90969E+03 3.23846E+00-2.81943E-11-4.59468E-08
 -1       270-4.75144E+02-2.61755E+02 3.33541E+03-4.39473E-01-2.79670E-11 1.51761E-07
 -1       271-1.52195E+06-1.92608E+05-1.14415E+05-5.91424E+05-1.60944E-08-1.66474E-08
 -1       272-1.52489E+06-3.03776E+05-7.21472E+04-6.24320E+05 3.42425E-08-3.15462E-07
 -1       273-1.54590E+06-2.17402E+05-2.76375E+04-5.83442E+05 1.07757E-08-2.12585E-08
 -1       274-1.49725E+06-2.74030E+05-1.45451E+04-6.39054E+05 3.88900E-08-1.66012E-07
 -1       275-1.55145E+06-2.17275E+05-6.82456E+03-5.79768E+05-1.46574E-08 1.12690E-07
 -1       276-1.49132E+06-2.74741E+05-2.97415E+03-6.47227E+05 2.61534E-08-7.92584E-08
 -1       277-1.55419E+06-2.14809E+05-1.87438E+03-5.77103E+05-1.51504E-08 3.67791E-08
 -1       278-1.48893E+06-2.77897E+05-7.72236E+02-6.53251E+05-5.05870E-08-1.41932E-07
 -1       279-1.55595E+06-2.12750E+05-9.10202E+02-5.75214E+05-3.00006E-08-1.72744E-07
 -1       280-1.48776E+06-2.80336E+05-1.10740E+03-6.57264E+05-1.80089E-08-1.22767E-07
 -1       281-1.55689E+06-2.11406E+05-2.04238E+03-5.74127E+05-4.95947E-09 2.68929E-07
 -1       282-1.48813E+06-2.82720E+05-4.76196E+03-6.58975E+05-5.02012E-08 3.40087E-08
 -1       283-1.55636E+06-2.10011E+05-8.47217E+03-5.73967E+05 1.79882E-08 1.72149E-07
 -1       284-1.49567E+06-2.93974E+05-2.30904E+04-6.56808E+05-4.15957E-08 5.79007E-08
 -1       285-1.54939E+06-2.01396E+05-3.60019E+04-5.75794E+05 8.73797E-09 7.47023E-08
 -1       301-4.46898E+03-6.40193E+05 1.67419E+05-1.12169E+06-6.72298E-09 1.36060E-09
 -1       302-5.59242E+03-5.94032E+05 1.00767E+05-1.63757E+06-9.95351E-09-7.36509E-09
 -1       303-1.96467E+04-6.32010E+05 5.71362E+04-1.11865E+06 3.77622E-09 2.18924E-07
 -1       304-2.15303E+04-6.00509E+05 5.78555E+04-1.63693E+06-6.86850E-09 2.24856E-07
 -1       305-2.37266E+04-6.21000E+05 7.15960E+04-1.12175E+06 7.81984E-09-1.68366E-08
 -1       306-3.01320E+07-6.22215E+06-8.61021E+06-5.37052E+05-1.14669E-07 8.75443E-08
 -1       307 2.54034E+07 3.25318E+06 5.51938E+06-1.51830E+07-8.25734E-07 2.31899E-07
 -1       308-6.99559E+06-1.03152E+06-4.60337E+05 5.20932E+06-8.46048E-08 4.17844E-07
 -1       309-3.27599E+06 8.74836E+06 2.28228E+06-2.06654E+07 3.71827E-07 4.09844E-07
 -1       310-1.25290E+07-1.93660E+06-2.02329E+06 5.21936E+06 1.99652E-08-4.30737E-08
 -1       311 3.83141E+07 2.25781E+04 7.26333E+06-8.85849E+06 3.99537E-07 3.32861E-07
 -1       312-3.19105E+07-6.75311E+06-8.52608E+06-5.00381E+06 7.34581E-08 2.10144E-07
 -1       313 4.54600E+07 1.49411E+07 1.06624E+07 2.37376E+07-3.37895E-08-2.41445E-07
 -1       314-1.72613E+07-1.77539E+07-7.52496E+06-1.25351E+07 3.67989E-07-1.92667E-07
 -1       315-1.78194E+06 2.97064E+07 5.67255E+06 1.05965E+07-2.22281E-07-2.10712E-08
 -1       316 1.38302E+06-9.85023E+06-4.45875E+05-2.54885E+06-1.03754E-06-2.27126E-07
 -1       317-1.71320E+07 2.24181E+07 2.23777E+06-8.79530E+06 5.84871E-07-7.34784E-07
 -1       318-1.06742E+06-1.27633E+07-2.03438E+06-4.24046E+06-9.67702E-07 7.74744E-08
 -1       319 7.18395E+06 3.19161E+07 7.02739E+06 1.65913E+07 1.20199E-08 2.86847E-07
 -1       320-2.25798E+07-1.76214E+07-9.84372E+06-1.28033E+07 1.91503E-07-6.89761E-08
 -1       336-7.35419E+02-1.70174E+06-1.39054E+04 8.96083E+03-2.65463E-08-1.72440E-08
 -1       337-5.42446E+03-1.70132E+06-1.81471E+04-2.17598E+04-4.84722E-08-9.18044E-09
 -1       338 2.87870E+02-1.70123E+06-2.85718E+04 1.25484E+04-3.35131E-08 1.21145E-08
 -1       339-3.03160E+04-1.71862E+06-6.45855E+04-2.87857E+04-6.29225E-08 2.07074E-08
 -1       340 1.99863E+04-1.68662E+06-1.01731E+05 1.58557E+04-4.11383E-08 2.69429E-08
 -1       406 8.39581E+01 3.90189E+05 8.64966E+02 2.83961E+02 3.18141E-09-1.03319E-09
 -1       407 1.96405E+02 3.90367E+05 1.51542E+03-2.95079E+02 1.95359E-09 1.94523E-08
 -1       408 6.37540E+02 3.90108E+05 2.86695E+03 1.07513E+01 4.01883E-09 8.89304E-09
 -1       409 2.93738E+03 3.91263E+05 6.38145E+03 2.48577E+02 2.53385E-09-1.98461E-08
 -1       410 8.61394E+03 3.89292E+05 1.29771E+04-2.76343E+02 4.56021E-09-1.18780E-08
 -1       521-3.16665E+07-7.67648E+06-1.00545E+07-1.45201E+05-1.25030E-07 2.74449E-07
 -1       522 2.62536E+07 4.27082E+06 5.62394E+06-1.86826E+07-6.31902E-07-8.25676E-08
 -1       523-7.57208E+06-1.34315E+06-4.52047E+05 5.65542E+06-1.12632E-07-2.88346E-07
 -1       524-6.77773E+06 1.17972E+07 2.46728E+06-2.37183E+07 9.27437E-07-5.04595E-07
 -1       525-1.33261E+07-2.56774E+06-2.22314E+06 5.66789E+06 8.96573E-07-1.43482E-07
 -1       526 4.17988E+07-6.72268E+04 7.61972E+06-1.15054E+07 3.68746E-07 5.78002E-08
 -1       527-3.37451E+07-8.44624E+06-9.82305E+06-4.86383E+06 1.88244E-07 8.27276E-08
 -1       528 4.96187E+07 1.66345E+07 1.11164E+07 2.69776E+07-1.08557E-07-2.64641E-07
 -1       529-1.82001E+07-1.99523E+07-8.62357E+06-1.25620E+07 2.58849E-07-2.02795E-07
 -1       530-4.26404E+06 3.44810E+07 6.00014E+06 1.00631E+07-5.09608E-08 6.59435E-07
 -1       531 1.38011E+06-1.09214E+07-4.19057E+05-2.49994E+06-8.76229E-07 4.20958E-07
 -1       532-1.96562E+07 2.44231E+07 2.44399E+06-1.30760E+07 5.00586E-07-6.60657E-07
 -1       533-1.11169E+06-1.39085E+07-2.16434E+06-4.05111E+06-2.53815E-07-9.99134E-07
 -1       534 5.16805E+06 3.70185E+07 7.31008E+06 1.71566E+07-4.41214E-08 7.29749E-07
 -1       535-2.37522E+07-2.00040E+07-1.12803E+07-1.28671E+07 1.07568E-07 4.79165E-07
 -1       536-7.06180E+05-4.69225E+04-4.77574E+04-5.46781E+04-3.72120E-09 5.77011E-08
 -1       537-5.48377E+04 4.48913E+04 8.42107E+04 1.23841E+05-1.17147E-07 9.34506E-08
 -1       538-3.94453E+05 3.31529E+03 3.65643E+03-7.22016E+04 3.20820E-08 1.03804E-07
 -1       539-2.69079E+05 2.88482E+03 2.49799E+04 1.38737E+05 1.57462E-07 1.28833E-07
 -1       540-4.97319E+05-4.29712E+02-2.12881E+04-7.01090E+04-1.57584E-08 1.15410E-07
 -1       541 1.46562E+05 1.69734E+04 1.06385E+05 9.79323E+04-8.60293E-08 1.09111E-07
 -1       542-7.98894E+05-2.01341E+04-8.42213E+04-3.05218E+04 4.33211E-08 4.75884E-08
 -1       543 4.05269E+05 2.73249E+04 1.57963E+05-1.33536E+04-6.80666E-09-1.65423E-08
 -1       544-7.49087E+05-1.65368E+04-7.48312E+04 4.05076E+04 3.81383E-08-3.98909E-08
 -1       545 2.89373E+04 9.48329E+03 7.98086E+04-1.13619E+05 7.97263E-09-7.61847E-08
 -1       546-4.32669E+05 6.09551E+03-1.22290E+04 6.93970E+04 3.67668E-08-7.16639E-08
 -1       547-2.87154E+05-4.65665E+03 1.05870E+04-1.41584E+05-1.15008E-07-8.52691E-08
 -1       548-4.41494E+05 4.71989E+03-2.38769E+04 6.91642E+04-9.80215E-08-9.66816E-08
 -1       549 4.80961E+04 1.60755E+04 6.05172E+04-1.11483E+05-7.03881E-08-7.16500E-08
 -1       550-7.58949E+05-2.21436E+04-1.28951E+05 3.85796E+04 9.26138E-09-3.68236E-08
 -1       551 4.08361E+04-7.53897E+05-1.56904E+04-1.24768E+06-1.03610E-07-6.11180E-09
 -1       552 9.33011E+04-7.98842E+05 1.00584E+04-1.77907E+06-7.27305E-08 3.87299E-08
 -1       553 7.17716E+04-7.95255E+05 3.21614E+04-1.24104E+06-1.20359E-07 2.49856E-08
 -1       554 1.32090E+05-8.14674E+05 8.12497E+04-1.78102E+06-7.58446E-08 8.30551E-09
 -1       555 1.01531E+05-8.18892E+05 1.48349E+05-1.24087E+06-1.22731E-07-1.21017E-08
 -1       556 2.23521E+05-3.83340E+05 2.62210E+04-4.07072E+05-2.05182E-08-1.55997E-08
 -1       557 3.54101E+05-4.87659E+05 1.63888E+04-5.27368E+05-1.86265E-09 1.45519E-09
 -1       558 2.05342E+05-3.76231E+05 2.42965E+03-4.11445E+05-2.13622E-08 6.82485E-09
 -1       559 3.29054E+05-4.87794E+05 2.49111E+03-5.47799E+05 1.62399E-08-1.27475E-08
 -1       560 1.90055E+05-3.66644E+05-1.47943E+03-4.22460E+05 1.60653E-08 4.72937E-09
 -1       561 3.09839E+05-4.80107E+05 1.41499E+02-5.60900E+05 1.42609E-08 1.31549E-08
 -1       562 1.77966E+05-3.59133E+05-1.32022E+03-4.31215E+05 4.72937E-09-9.28412E-09
 -1       563 2.95478E+05-4.73846E+05-3.43600E+01-5.70279E+05-3.41970E-10 1.40881E-09
 -1       564 1.69338E+05-3.53756E+05-5.99244E+02-4.37329E+05-3.92902E-10-3.01611E-08
 -1       565 2.85953E+05-4.69698E+05 2.44100E+01-5.76365E+05 1.08048E-08-9.09949E-10
 -1       566 1.64293E+05-3.50565E+05-2.59685E+02-4.40858E+05-5.84259E-09-2.69210E-09
 -1       567 2.81322E+05-4.67684E+05-3.62037E+02-5.79177E+05 1.80953E-08 3.08501E-09
 -1       568 1.62923E+05-3.49726E+05-1.12449E+03-4.41911E+05 1.32877E-09-1.19799E-08
 -1       569 2.80199E+05-4.67609E+05-2.84029E+03-5.77750E+05 7.14044E-09 1.99361E-08
 -1       570 1.66320E+05-3.52957E+05-6.20944E+03-4.40893E+05 1.53959E-08 5.78075E-09
 -1       571 2.90420E+05 1.05064E+04 1.49884E+04-9.51096E+04-5.63068E-09 1.41868E-08
 -1       572 2.92592E+05 3.96017E+03 7.34552E+03-1.04345E+05-1.44860E-08 4.71846E-09
 -1       573 2.91282E+05 1.24588E+03 3.26385E+03-9.49332E+04-4.98858E-09-4.81123E-10
 -1       574 2.91496E+05 7.27439E+02 1.63677E+03-1.04569E+05 4.15184E-10-1.01691E-08
 -1       575 2.91376E+05 4.48271E+02 7.72473E+02-9.49090E+04-3.54466E-09 7.96717E-09
 -1       576 2.91360E+05 4.59664E+02 3.95428E+02-1.04599E+05-9.13769E-09-1.29785E-09
 -1       577 2.91416E+05 3.90253E+02 1.97258E+02-9.49057E+04-6.85577E-09-6.97582E-10
 -1       578 2.91391E+05 4.21705E+02 1.13669E+02-1.04603E+05-7.50879E-09 9.52969E-09
 -1       579 2.91488E+05 3.53693E+02 7.75793E+01-9.49054E+04 5.92809E-09-6.41194E-10
 -1       580 2.91492E+05 3.70764E+02 8.93436E+01-1.04598E+05-5.11045E-09 8.78572E-09
 -1       581 2.91602E+05 2.95079E+02 1.34233E+02-9.49113E+04 1.68129E-08 1.85337E-08
 -1       582 2.91666E+05 3.32459E+02 2.72622E+02-1.04537E+05 2.06928E-08-2.46891E-08
 -1       583 2.91742E+05 3.34374E+02 5.22771E+02-9.49678E+04 2.04127E-08-7.91033E-10
 -1       584 2.92037E+05 7.61349E+02 1.18311E+03-1.04061E+05 2.86673E-08 5.44242E-09
 -1       585 2.91772E+05 1.75536E+03 2.39530E+03-9.53865E+04 1.04264E-08-1.13396E-08
 -1       586-3.42606E+03 1.16811E+05-2.91821E+03-2.50628E+05-5.63887E-09-1.45887E-08
 -1       587-1.33997E+03 1.16563E+05 7.70851E+02-2.75834E+05-5.95537E-09-5.25679E-08
 -1       588 3.97979E+02 1.16369E+05 4.75959E+03-2.50489E+05-5.91172E-09-1.03910E-08
 -1       589 5.08495E+03 1.18843E+05 1.23451E+04-2.75601E+05-6.94854E-09-6.78119E-09
 -1       590 1.66102E+04 1.15036E+05 2.58965E+04-2.50921E+05-7.30870E-09-7.54881E-10
 -1       591-7.49695E+04-1.59821E+04-2.25233E+04-3.19691E+04-1.13846E-09 6.87214E-09
 -1       592-7.90514E+04-1.95451E+04-1.22004E+04-3.56006E+04 3.67828E-09 9.66679E-10
 -1       593-7.72222E+04-1.43477E+04-5.07844E+03-3.36205E+04 3.73037E-09-1.25829E-09
 -1       594-7.59415E+04-1.62401E+04-2.53274E+03-3.57185E+04 6.86043E-10-6.00409E-09
 -1       595-7.73939E+04-1.43423E+04-1.16279E+03-3.36955E+04-1.84221E-09 7.47718E-09
 -1       596-7.57286E+04-1.60890E+04-5.90899E+02-3.56932E+04 3.48516E-09-2.48316E-08
 -1       597-7.74154E+04-1.43577E+04-3.21324E+02-3.36983E+04 6.24891E-09-2.28403E-08
 -1       598-7.57076E+04-1.60830E+04-2.57503E+02-3.56861E+04 4.83027E-09 1.61289E-08
 -1       599-7.74142E+04-1.43582E+04-3.27928E+02-3.36980E+04 1.32775E-09 8.53254E-09
 -1       600-7.57286E+04-1.60895E+04-6.08382E+02-3.56910E+04 6.18456E-11-1.18101E-08
 -1       601-7.73895E+04-1.43437E+04-1.19979E+03-3.36945E+04 9.98853E-10-9.31936E-09
 -1       602-7.59483E+04-1.62444E+04-2.61460E+03-3.57133E+04-1.18916E-09-1.30491E-08
 -1       603-7.72095E+04-1.43522E+04-5.24324E+03-3.36179E+04 1.95564E-09-7.66295E-09
 -1       604-7.91767E+04-1.96369E+04-1.25955E+04-3.55668E+04 2.29295E-09 2.16187E-08
 -1       605-7.48638E+04-1.60574E+04-2.32528E+04-3.19324E+04 8.18829E-10 1.28639E-08
 -1       606 2.67395E+04-1.43574E+04-2.57374E+04 2.40348E+04 8.27640E-09-1.74127E-08
 -1       607 2.23419E+04-4.68928E+03-1.28171E+04 2.70101E+04-1.72076E-09-1.46310E-08
 -1       608 2.48482E+04-8.46129E+02-5.73781E+03 2.38659E+04-5.22232E-09 6.58861E-09
 -1       609 2.43678E+04-2.90031E+02-2.89859E+03 2.72246E+04 3.62616E-09 1.46633E-08
 -1       610 2.46341E+04-4.12655E+01-1.38296E+03 2.38458E+04 1.18416E-09 5.91740E-09
 -1       611 2.45587E+04-4.15386E+01-6.97289E+02 2.72478E+04 6.42240E-09-4.05612E-09
 -1       612 2.45869E+04-2.75061E+01-3.31502E+02 2.38437E+04-1.02227E-08 1.66965E-08
 -1       613 2.45703E+04-3.74171E+01-1.48575E+02 2.72505E+04-2.01326E-08-1.45681E-08
 -1       614 2.45647E+04-3.39149E+01-3.48842E+01 2.38430E+04-9.12678E-09 1.33618E-08
 -1       615 2.45650E+04-3.59067E+01 6.21515E+01 2.72509E+04 1.96906E-10 4.07567E-09
 -1       616 2.45472E+04-3.07726E+01 1.86486E+02 2.38433E+04-4.84306E-09-1.00601E-08
 -1       617 2.45874E+04 3.86541E+00 4.25512E+02 2.72504E+04-1.36051E-08-5.38876E-11
 -1       618 2.45102E+04 9.19184E+01 8.57705E+02 2.38436E+04-8.01765E-09-4.02179E-09
 -1       619 2.48901E+04 6.67068E+02 1.92605E+03 2.72498E+04-3.03851E-09 9.13155E-09
 -1       620 2.42254E+04 2.12580E+03 3.87132E+03 2.38452E+04-2.01578E-09-9.31368E-09
 -1       621 5.03928E+02 3.01439E+05 3.83306E+03 4.09188E+04 1.25647E-09 2.39925E-09
 -1       622 6.69881E+02 3.02323E+05 3.41881E+03 5.94039E+04 1.20099E-09-6.85213E-09
 -1       623 1.42660E+02 3.01628E+05 4.12952E+03 4.07337E+04 1.19257E-09 1.95087E-09
 -1       624 2.12578E+03 3.03547E+05 8.02322E+03 5.95861E+04 1.34150E-09-9.47693E-09
 -1       625 2.07727E+03 3.00035E+05 1.40285E+04 4.07305E+04 1.48884E-09 1.03296E-09
 -1       626 2.60814E+05 6.14034E+04 5.06435E+03 1.26763E+05 3.86171E-09 6.54836E-09
 -1       627 2.58485E+05 6.28203E+04 2.44048E+03 1.31030E+05 3.27054E-09 7.21673E-09
 -1       628 2.60941E+05 5.90849E+04 1.03214E+03 1.27622E+05-2.62025E-09 1.16415E-08
 -1       629 2.57855E+05 6.21492E+04 5.05225E+02 1.31269E+05-6.08134E-09-4.55555E-09
 -1       630 2.60955E+05 5.89729E+04 2.34517E+02 1.27658E+05-8.59472E-10-2.79425E-09
 -1       631 2.57789E+05 6.21238E+04 1.26460E+02 1.31270E+05 6.76596E-09-5.73766E-09
 -1       632 2.60952E+05 5.89769E+04 8.36828E+01 1.27654E+05 9.33369E-09-2.34377E-09
 -1       633 2.57781E+05 6.21257E+04 9.39313E+01 1.31267E+05 6.18979E-09 1.35367E-08
 -1       634 2.60947E+05 5.89740E+04 1.52426E+02 1.27653E+05-5.03422E-09 2.02770E-08
 -1       635 2.57795E+05 6.21239E+04 3.08824E+02 1.31272E+05-1.66731E-08-8.65839E-10
 -1       636 2.60938E+05 5.89682E+04 6.23867E+02 1.27653E+05 2.28601E-09 7.31688E-10
 -1       637 2.57930E+05 6.22210E+04 1.37184E+03 1.31272E+05-4.13820E-09 1.13910E-08
 -1       638 2.60889E+05 5.92713E+04 2.81866E+03 1.27516E+05 1.37834E-09 1.77165E-08
 -1       639 2.59411E+05 6.42802E+04 6.66909E+03 1.30836E+05 2.10343E-09 1.36674E-09
 -1       640 2.60684E+05 6.54205E+04 1.38395E+04 1.24925E+05 5.13501E-09 7.10520E-09
 -1       656 6.65797E+04-1.70387E+06-1.60719E+05-2.56248E+03-4.36557E-10 4.49688E-09
 -1       657-8.80788E+04-1.77650E+06-1.33146E+05 5.16912E+03-9.09495E-12 1.56362E-08
 -1       658 2.12229E+04-1.72450E+06-8.20004E+04-4.64751E+03 1.08685E-09 8.27528E-09
 -1       659-9.52421E+04-1.77990E+06-1.42560E+05 6.90027E+03-2.93403E-09 5.30850E-09
 -1       660 7.37270E+04-1.70048E+06-1.76904E+05-4.29362E+03-1.96451E-09 3.96014E-09
 -1       661 1.58852E+05 1.66245E+04 1.67386E+04 6.20966E+04 6.81666E-10 2.05182E-09
 -1       662 1.68312E+05 2.90234E+04 1.12807E+04 5.83445E+04-1.95007E-09 5.68730E-09
 -1       663 1.62139E+05 2.19946E+04 3.94527E+03 6.11424E+04 1.00965E-09-1.22400E-08
 -1       664 1.64500E+05 2.27435E+04 2.36009E+03 5.95101E+04 1.98020E-09 1.68311E-09
 -1       665 1.62638E+05 2.27280E+04 9.31038E+02 6.09968E+04 2.54090E-10-7.02158E-10
 -1       666 1.63910E+05 2.19049E+04 5.44981E+02 5.97000E+04 1.16266E-08 2.39297E-08
 -1       667 1.62726E+05 2.28114E+04 2.89650E+02 6.09603E+04 1.65127E-09 5.27832E-09
 -1       668 1.63813E+05 2.18450E+04 2.95558E+02 5.97531E+04-4.87518E-09-1.21063E-08
 -1       669 1.62734E+05 2.27862E+04 4.00488E+02 6.09440E+04-5.08453E-09 8.38955E-09
 -1       670 1.63911E+05 2.20625E+04 8.72394E+02 5.97560E+04-9.87365E-09-1.01502E-08
 -1       671 1.62628E+05 2.25984E+04 1.54911E+03 6.09554E+04-3.32143E-10 3.25326E-09
 -1       672 1.64814E+05 2.35697E+04 3.96345E+03 5.95373E+04 4.83143E-09-5.12898E-10
 -1       673 1.61836E+05 2.13172E+04 6.64213E+03 6.11481E+04 2.58569E-09 5.03451E-09
 -1       674 1.71135E+05 3.42411E+04 1.89951E+04 5.76802E+04-8.34928E-09 1.80480E-08
 -1       675 1.56347E+05 1.22259E+04 2.81954E+04 6.27004E+04-3.94311E-09-4.28008E-09
 -1       676 2.41256E+01-2.96013E+05-1.11410E+03-1.37538E+02-9.75433E-11-8.55904E-09
 -1       677-2.94703E+02-2.96283E+05-2.03899E+03 2.74855E+02 8.05389E-09 1.49127E-08
 -1       678 1.97664E+02-2.95821E+05-3.60442E+03-1.37227E+02 5.71845E-10 5.07622E-09
 -1       679-3.60448E+03-2.98459E+05-8.56262E+03 2.73668E+02 1.19795E-08 4.94747E-09
 -1       680 2.15209E+03-2.93838E+05-1.38000E+04-1.34835E+02-4.18368E-10-3.09183E-09
 -1       771-3.06375E+06-7.47216E+05-1.65442E+05-1.46631E+06-3.18396E-08-2.67173E-08
 -1       772-2.98662E+06-8.35976E+05-8.52916E+04-1.56893E+06-2.46655E-08 9.38235E-09
 -1       773-3.09518E+06-7.22702E+05-4.34904E+04-1.48080E+06-9.63337E-09 1.09721E-08
 -1       774-2.97714E+06-8.17519E+05-1.94008E+04-1.59467E+06 3.78932E-08-1.60071E-09
 -1       775-3.11161E+06-7.11174E+05-1.45193E+04-1.48784E+06 1.10595E-09 2.45927E-09
 -1       776-2.98946E+06-8.14494E+05-5.42843E+03-1.61415E+06-2.27010E-09 4.74756E-09
 -1       777-3.12586E+06-7.00883E+05-6.41774E+03-1.49405E+06 8.76025E-09-6.47560E-10
 -1       778-3.00234E+06-8.11679E+05-1.81400E+03-1.63089E+06 4.54020E-09 4.01633E-09
 -1       779-3.13812E+06-6.91892E+05-3.20792E+03-1.49936E+06-1.01718E-08-6.82849E-09
 -1       780-3.01367E+06-8.08992E+05-5.31824E+02-1.64452E+06-2.09548E-09 2.32831E-09
 -1       781-3.14787E+06-6.84643E+05-1.24639E+03-1.50351E+06-3.18832E-08 1.57161E-09
 -1       782-3.02241E+06-8.06711E+05 4.49326E+02-1.65458E+06-4.31392E-08 1.74077E-09
 -1       783-3.15473E+06-6.79606E+05 6.99362E+02-1.50642E+06-1.10958E-08-1.54751E-08
 -1       784-3.02725E+06-8.04430E+05 2.89906E+03-1.66080E+06-2.24136E-08 1.00044E-09
 -1       785-3.15879E+06-6.76602E+05 5.11777E+03-1.50826E+06-3.86099E-08 1.14178E-08
 -1       786 1.24335E+05-9.79553E+03 2.26629E+04-3.23776E+02 9.59020E-11 1.01682E-08
 -1       787 1.34164E+05 1.13411E+04 1.60331E+04-1.37147E+02 6.28459E-09 2.94879E-08
 -1       788 1.28125E+05-1.53498E+03 5.86341E+03-2.88587E+02 4.57026E-09 2.63728E-08
 -1       789 1.29749E+05 1.77671E+03 3.68087E+03-1.91046E+02 2.37766E-09 7.88395E-09
 -1       790 1.28751E+05-2.38994E+02 1.49039E+03-2.69895E+02-2.96839E-09-1.49380E-08
 -1       791 1.29017E+05 2.76545E+02 8.60947E+02-2.23024E+02-8.71157E-09-2.25600E-08
 -1       792 1.28857E+05-3.59353E+01 3.65102E+02-2.56611E+02-4.80621E-09 4.11156E-09
 -1       793 1.28891E+05 3.81084E+01 1.82596E+02-2.48022E+02-2.12329E-10-4.50607E-09
 -1       794 1.28877E+05-7.08148E-01 4.86283E+01-2.44897E+02 5.70134E-09-8.66851E-09
 -1       795 1.28854E+05-2.65458E+01-5.48536E+01-2.72483E+02-3.54926E-09 2.14306E-08
 -1       796 1.28893E+05 2.86827E+01-1.57888E+02-2.32150E+02 4.11024E-09 9.64451E-09
 -1       797 1.28762E+05-2.14172E+02-4.34886E+02-3.01786E+02 3.87087E-09 4.81457E-10
 -1       798 1.28970E+05 1.86777E+02-7.06658E+02-2.15593E+02 2.53409E-09 2.54551E-09
 -1       799 1.28225E+05-1.37663E+03-1.94445E+03-3.42802E+02 6.41512E-09 1.41076E-08
 -1       800 1.29430E+05 1.19019E+03-2.75190E+03-1.91135E+02 4.85878E-10 5.46834E-09
 -1       801-1.70768E+05-9.98986E+06-1.39210E+06 1.41347E+06 9.31905E-08-5.84587E-08
 -1       802 7.37009E+05 5.93769E+06 2.17858E+06-1.74461E+06 2.60727E-07-2.82716E-08
 -1       803-5.35931E+05-1.42528E+07-1.88809E+06 8.96901E+05 7.67795E-08 1.29039E-08
 -1       804 2.86833E+05 2.38699E+06 1.53524E+06 6.76616E+05-1.20806E-07-1.01486E-07
 -1       805 1.89099E+05-6.45328E+06-2.85905E+05-1.00209E+06-4.99858E-08-6.47151E-08
 -1       806-3.08800E+05-5.97548E+04-2.28398E+04-1.22394E+05-9.66793E-10 1.76087E-08
 -1       807-3.10593E+05-5.60306E+04-1.12210E+04-1.27940E+05 2.12945E-08-3.37961E-09
 -1       808-3.09427E+05-5.15234E+04-4.76029E+03-1.26285E+05 3.09501E-09 3.04409E-08
 -1       809-3.08234E+05-5.28778E+04-2.32766E+03-1.28216E+05-1.19701E-08 9.90178E-09
 -1       810-3.09522E+05-5.12368E+04-1.06690E+03-1.26457E+05 3.99632E-09 1.32854E-08
 -1       811-3.08051E+05-5.27512E+04-5.30591E+02-1.28181E+05 1.40376E-08 1.54103E-08
 -1       812-3.09536E+05-5.12615E+04-2.68430E+02-1.26456E+05-3.63707E-09-7.41466E-09
 -1       813-3.08026E+05-5.27534E+04-1.74594E+02-1.28162E+05-6.49197E-09-2.54317E-08
 -1       814-3.09529E+05-5.12712E+04-1.73250E+02-1.26452E+05 3.77531E-09-2.74258E-09
 -1       815-3.08030E+05-5.27556E+04-2.79342E+02-1.28154E+05 5.96629E-09 1.29205E-08
 -1       816-3.09508E+05-5.12703E+04-5.29578E+02-1.26448E+05 5.76892E-09 2.32785E-09
 -1       817-3.08119E+05-5.28061E+04-1.13659E+03-1.28143E+05-1.33095E-08 1.19237E-08
 -1       818-3.09439E+05-5.14308E+04-2.31828E+03-1.26373E+05-7.68523E-10-6.91671E-09
 -1       819-3.09388E+05-5.42066E+04-5.45474E+03-1.27842E+05-9.05857E-10-9.95010E-09
 -1       820-3.09001E+05-5.55516E+04-1.11024E+04-1.24613E+05 2.54659E-11 7.27323E-09
 -1       821-3.78974E+05 2.08701E+04-4.85825E+04 2.12883E+03 1.43410E-08-7.16682E-09
 -1       822-3.98677E+05-2.41768E+04-3.41422E+04-4.46195E+03 4.33000E-09 2.08092E-09
 -1       823-3.86438E+05 3.28988E+03-1.25484E+04 3.44105E+03-1.16699E-08 4.39604E-09
 -1       824-3.89667E+05-3.79383E+03-7.85440E+03-5.37638E+03 9.31408E-10 2.43348E-08
 -1       825-3.87991E+05 5.11282E+02-3.28921E+03 3.04337E+03 1.92710E-08 3.06834E-08
 -1       826-3.87233E+05-5.67260E+02-1.74373E+03-3.10166E+03 2.49062E-08-3.55249E-09
 -1       827-3.88847E+05 4.67265E+01-1.19040E+03 1.16618E+03 1.23391E-08 1.41894E-08
 -1       828-3.86526E+05-1.31886E+02-5.85420E+02 1.09603E+03-1.38598E-09-2.61933E-09
 -1       829-3.88685E+05 6.58145E+01-1.17927E+03-1.15434E+03 1.98185E-09-5.43548E-09
 -1       830-3.87583E+05-6.22035E+02-1.88186E+03 4.88962E+03 1.58067E-10 7.61582E-09
 -1       831-3.87812E+05 5.54538E+02-3.37089E+03-2.62742E+03-6.26603E-09 2.95063E-09
 -1       832-3.89747E+05-3.96048E+03-8.15684E+03 6.17303E+03-3.48987E-09 5.25245E-09
 -1       833-3.86537E+05 3.41384E+03-1.30518E+04-2.43780E+03-2.68429E-09 8.56198E-09
 -1       834-3.98737E+05-2.50896E+04-3.53638E+04 4.19959E+03-2.92249E-09 5.82804E-09
 -1       835-3.78806E+05 2.16507E+04-5.04510E+04-6.53906E+02 6.02103E-09 1.25510E-09
 -1       836-1.41404E+03 3.70202E+05 2.29053E+04-1.62062E+04-6.97946E-09-2.22872E-09
 -1       837 4.88233E+03 3.77376E+05 1.93792E+04-3.31171E+04-7.55222E-09-2.24022E-08
 -1       838-5.58160E+02 3.72213E+05 1.97408E+04-1.61345E+04-6.48606E-09-1.55958E-08
 -1       839 1.24214E+04 3.82991E+05 3.73395E+04-3.31695E+04-7.29506E-09-1.12932E-08
 -1       840-3.84075E+03 3.64527E+05 5.95410E+04-1.61596E+04-6.27188E-09-5.75967E-09
 -1       856-5.24604E+04 8.03385E+03-2.11709E+04-3.97391E+02 5.33419E-09 9.55970E-09
 -1       857-6.11823E+04-9.43952E+03-1.45739E+04 5.63651E+03 6.21003E-09 1.25453E-08
 -1       858-5.59145E+04 1.12667E+03-5.49335E+03-4.21586E+02 3.23763E-09 1.00397E-08
 -1       859-5.72184E+04-1.32550E+03-3.31499E+03 5.67251E+03 1.44405E-09-2.13566E-09
 -1       860-5.64305E+04 1.57789E+02-1.38933E+03-4.33121E+02 1.83161E-09-1.12698E-08
 -1       861-5.66248E+04-1.88381E+02-7.64317E+02 5.68822E+03 5.53769E-09-2.79662E-08
 -1       862-5.65112E+04 2.13800E+01-3.17760E+02-4.37276E+02-4.23184E-09 4.71698E-09
 -1       863-5.65258E+04-2.19173E+01-1.15850E+02 5.69063E+03-1.59385E-10 3.69459E-09
 -1       864-5.65300E+04-4.88795E+00 4.70313E+01-4.35530E+02-6.54271E-09-1.32698E-08
 -1       865-5.64701E+04 5.95491E+01 2.55039E+02 5.68067E+03-1.42123E-09-2.24557E-08
 -1       866-5.65648E+04-6.01082E+01 5.14091E+02-4.27319E+02-3.43317E-09-2.39754E-09
 -1       867-5.62282E+04 4.96330E+02 1.26547E+03 5.65838E+03-5.33834E-09 1.49595E-08
 -1       868-5.67669E+04-4.33793E+02 2.10284E+03-4.13237E+02-3.51207E-09-2.87855E-10
 -1       869-5.46866E+04 3.61020E+03 5.59920E+03 5.62171E+03 2.38131E-09-5.59965E-09
 -1       870-5.80987E+04-3.08942E+03 8.12567E+03-3.90545E+02-4.38502E-09-5.30235E-10
 -1       871-5.51755E+03-2.13051E+04-1.94873E+04 1.30389E+05-5.71345E-09 5.01495E-09
 -1       872-1.98178E+03-2.58365E+04-8.15905E+03 1.69069E+05-1.00108E-08-8.63065E-09
 -1       873 4.05261E+02-2.36449E+04 5.91500E+02 1.30103E+05-4.89217E-09-1.29967E-09
 -1       874 3.30665E+03-2.12336E+04 9.78186E+03 1.69099E+05-9.78434E-09 2.59017E-08
 -1       875 6.84768E+03-2.59751E+04 2.20657E+04 1.30341E+05-4.56930E-09-7.39146E-09
 -1       876 2.93791E+05 4.95162E+04 1.51031E+04 1.17899E+05 1.52170E-09-5.28235E-09
 -1       877 2.94789E+05 5.26974E+04 8.06566E+03 1.22232E+05-3.61570E-09-1.09619E-08
 -1       878 2.95204E+05 4.78431E+04 3.37911E+03 1.19136E+05-1.58025E-09 5.21754E-09
 -1       879 2.92736E+05 5.06485E+04 1.68369E+03 1.22334E+05 4.93492E-09 2.05248E-08
 -1       880 2.95305E+05 4.78258E+04 7.84239E+02 1.19187E+05 8.21046E-10 1.23111E-08
 -1       881 2.92600E+05 5.05609E+04 4.18815E+02 1.22311E+05-7.23685E-09-1.32650E-09
 -1       882 2.95314E+05 4.78391E+04 2.67963E+02 1.19189E+05 5.78893E-10-1.84805E-08
 -1       883 2.92590E+05 5.05563E+04 2.88123E+02 1.22303E+05 6.26903E-09 8.86658E-09
 -1       884 2.95307E+05 4.78363E+04 4.58381E+02 1.19189E+05 4.52735E-09-4.44118E-10
 -1       885 2.92627E+05 5.05626E+04 9.21627E+02 1.22314E+05-4.33147E-11 1.13861E-08
 -1       886 2.95271E+05 4.78094E+04 1.85751E+03 1.19185E+05 4.12967E-10 1.92774E-08
 -1       887 2.92953E+05 5.07767E+04 4.05748E+03 1.22361E+05 8.71160E-09 2.40459E-09
 -1       888 2.95015E+05 4.78546E+04 8.17594E+03 1.19055E+05-3.46262E-10-7.68659E-09
 -1       889 2.97820E+05 5.58385E+04 1.95308E+04 1.22212E+05 2.24542E-09 9.71340E-10
 -1       890 2.91678E+05 5.18187E+04 3.65807E+04 1.15944E+05 8.57199E-10-4.60204E-09
 -1       891-8.92341E+01-1.62799E+05-1.99655E+03 2.71665E+04-3.20188E-09 3.59023E-10
 -1       892-1.75199E+02-1.63327E+05-2.14439E+03 4.12539E+04 1.29148E-09-3.65253E-09
 -1       893 4.38047E+01-1.62863E+05-3.03628E+03 2.71738E+04 3.57204E-10 8.22820E-09
 -1       894-1.51012E+03-1.64473E+05-6.28399E+03 4.11013E+04 3.56044E-09 9.91804E-09
 -1       895-1.19935E+03-1.61554E+05-1.10661E+04 2.73209E+04-4.03134E-10 1.09112E-08
 -1       956-3.77213E+05-5.45011E+03-1.34543E+04 3.08389E+04 1.19417E-09-6.59566E-09
 -1       957-3.79852E+05-1.92248E+03-6.90587E+03 3.70600E+04-9.48603E-09-4.94788E-09
 -1       958-3.78422E+05-2.40776E+02-3.11201E+03 3.06713E+04-1.09521E-08-6.38329E-09
 -1       959-3.78618E+05-1.36075E+02-1.58904E+03 3.72555E+04 1.00044E-11 1.79491E-08
 -1       960-3.78540E+05-4.46543E+01-7.74892E+02 3.06540E+04 2.91584E-09-1.09872E-08
 -1       961-3.78538E+05-6.30428E+01-4.10838E+02 3.72759E+04 9.75888E-09 3.56022E-09
 -1       962-3.78567E+05-4.58839E+01-2.35212E+02 3.06511E+04-7.92397E-09 6.62976E-09
 -1       963-3.78538E+05-5.88504E+01-1.88814E+02 3.72796E+04-1.30223E-08-5.38603E-09
 -1       964-3.78573E+05-4.25250E+01-2.29609E+02 3.06503E+04-9.95782E-09-1.06909E-08
 -1       965-3.78550E+05-5.58811E+01-3.97125E+02 3.72789E+04-7.25828E-09 5.99289E-09
 -1       966-3.78557E+05-3.46719E+01-7.46185E+02 3.06518E+04 4.57339E-09-1.62058E-08
 -1       967-3.78640E+05-1.19409E+02-1.53041E+03 3.72646E+04 1.26920E-09-1.31481E-08
 -1       968-3.78453E+05-2.17148E+02-2.99599E+03 3.06645E+04-1.18280E-09 3.91077E-09
 -1       969-3.79841E+05-1.83428E+03-6.65103E+03 3.71163E+04 4.03861E-09 1.24235E-08
 -1       970-3.77296E+05-5.23026E+03-1.29566E+04 3.07915E+04-8.24912E-10-6.56655E-09
 -1       971-3.45432E+05-1.72838E+03-9.31485E+03 1.53891E+04 3.65617E-09-7.80931E-09
 -1       972-3.47674E+05-1.27242E+03-5.07277E+03 2.12833E+04 3.93129E-09 5.65342E-09
 -1       973-3.46470E+05-6.20497E+01-2.27214E+03 1.52679E+04 7.79437E-09 5.26256E-09
 -1       974-3.46605E+05-8.10874E+01-1.17780E+03 2.14205E+04-1.12618E-09 4.00041E-09
 -1       975-3.46552E+05-1.71421E+01-5.89199E+02 1.52556E+04-7.66704E-10-1.15074E-08
 -1       976-3.46544E+05-3.12094E+01-3.40754E+02 2.14363E+04 3.39060E-09-4.67355E-09
 -1       977-3.46569E+05-1.63907E+01-2.48799E+02 1.52522E+04-3.49087E-09-8.43795E-09
 -1       978-3.46549E+05-2.49772E+01-2.93172E+02 2.14411E+04-6.03211E-09 4.61262E-09
 -1       979-3.46568E+05-7.90840E+00-4.72776E+02 1.52507E+04-3.95573E-09 5.51677E-09
 -1       980-3.46585E+05-2.19138E+01-9.13963E+02 2.14421E+04-4.71596E-09-5.27450E-09
 -1       981-3.46539E+05 1.49357E+01-1.77071E+03 1.52512E+04 7.29869E-10-1.37062E-08
 -1       982-3.46828E+05-1.52752E+02-3.66033E+03 2.14355E+04 5.16593E-09 1.31301E-09
 -1       983-3.46316E+05-9.84519E+01-7.11222E+03 1.52573E+04-3.64889E-09 2.24554E-09
 -1       984-3.50248E+05-3.86726E+03-1.59276E+04 2.13498E+04-8.86757E-12 1.43671E-08
 -1       985-3.43096E+05-5.30274E+03-2.92480E+04 1.53287E+04-2.76987E-09-2.16096E-09
 -3
    1PSTEP                        33          17           1          
  100CL  117 6.63178E-01         409                     0   17           1
 -4  DISP        4    1
 -5  D1          1    2    1    0
 -5  D2          1    2    2    0
 -5  D3          1    2    3    0
 -5  ALL         1    2    0    0    1ALL
 -1         1 2.75367E-03 0.00000E+00 0.00000E+00
 -1         2 1.29819E-03-3.99005E-27-5.29396E-23
 -1         3 3.43484E-04-6.09876E-28-1.32349E-23
 -1         5 1.77403E-04-2.83602E-27-1.65436E-24
 -1         8 2.74338E-03-3.91679E-07 0.00000E+00
 -1         9 2.73638E-03-2.16624E-04 0.00000E+00
 -1        10 3.11460E-04-3.37569E-06 0.00000E+00
 -1        12 1.79249E-04 8.09912E-07 0.00000E+00
 -1        15 2.73173E-03-4.13360E-07-1.03398E-25
 -1        16 2.81279E-03-2.18598E-04 0.00000E+00
 -1        17 2.11942E-04-7.70814E-06 0.00000E+00
 -1        18 1.83224E-04 3.46583E-05 0.00000E+00
 -1        19 1.84818E-04 1.62130E-06 0.00000E+00
 -1        20 1.84957E-04-1.00908E-05 0.00000E+00
 -1        21 1.84063E-04-2.58497E-05 3.30872E-24
 -1        24 3.06146E-05-1.19362E-05 0.00000E+00
 -1        25 1.94094E-04 3.48843E-05 0.00000E+00
 -1        26 1.94774E-04 2.24186E-06 0.00000E+00
 -1        27 1.92571E-04-1.36515E-05 0.00000E+00
 -1        28 1.92256E-04-2.64721E-05 0.00000E+00
 -1        32 0.00000E+00 0.00000E+00 0.00000E+00
 -1        33 2.03726E-04 2.99616E-06 0.00000E+00
 -1        34 2.01606E-04-1.37078E-05 0.00000E+00
 -1        35 1.99673E-04-2.68148E-05 0.00000E+00
 -1        51 2.75297E-03-8.30928E-08 6.61744E-24
 -1        52 2.75170E-03-1.47545E-07 0.00000E+00
 -1        53 2.74998E-03-2.08420E-07 3.30872E-24
 -1        54 2.74794E-03-2.67954E-07 1.65436E-24
 -1        55 2.74570E-03-3.27917E-07-8.27181E-25
 -1        56 2.74488E-03 1.11263E-05 0.00000E+00
 -1        57 2.72666E-03 4.53417E-05 0.00000E+00
 -1        58 2.70176E-03 9.54752E-05-1.05879E-22
 -1        59 2.67368E-03 1.52865E-04 0.00000E+00
 -1        60 2.64674E-03 2.07608E-04 1.05879E-22
 -1        61 2.62510E-03 2.50015E-04-5.29396E-23
 -1        62 2.61160E-03 2.72584E-04-1.05879E-22
 -1        63 2.60799E-03 2.69581E-04-5.29396E-23
 -1        64 2.61394E-03 2.39983E-04-1.05879E-22
 -1        65 2.62822E-03 1.85322E-04 0.00000E+00
 -1        66 2.64834E-03 1.11938E-04-1.05879E-22
 -1        67 2.67156E-03 2.80416E-05-5.29396E-23
 -1        68 2.69487E-03-5.60952E-05 0.00000E+00
 -1        69 2.71522E-03-1.30170E-04-5.29396E-23
 -1        70 2.72985E-03-1.85854E-04 0.00000E+00
 -1        86 1.38870E-03-6.75191E-06 0.00000E+00
 -1        87 1.64986E-03-4.28496E-05 0.00000E+00
 -1        88 2.00107E-03-1.05071E-04 0.00000E+00
 -1        89 2.35734E-03-1.69135E-04 0.00000E+00
 -1        90 2.63073E-03-2.08367E-04 0.00000E+00
 -1       121 3.42585E-04-5.44803E-07 0.00000E+00
 -1       122 3.39891E-04-1.09271E-06 6.61744E-24
 -1       123 3.35412E-04-1.64677E-06-1.32349E-23
 -1       124 3.29164E-04-2.21003E-06-6.61744E-24
 -1       125 3.21170E-04-2.78517E-06-1.32349E-23
 -1       191 1.77454E-04 1.35038E-07-2.48154E-24
 -1       192 1.77608E-04 2.70065E-07 0.00000E+00
 -1       193 1.77865E-04 4.05073E-07-2.48154E-24
 -1       194 1.78224E-04 5.40053E-07 8.53030E-25
 -1       195 1.78686E-04 6.74996E-07-1.65436E-24
 -1       251 2.74308E-03 1.50775E-06-6.61744E-24
 -1       252 2.74278E-03 3.22273E-06 0.00000E+00
 -1       253 2.74248E-03 3.69348E-06-6.61744E-24
 -1       254 2.74218E-03 1.87555E-06-3.30872E-24
 -1       255 2.74186E-03-2.93212E-06-6.61744E-24
 -1       256 2.74153E-03-1.13936E-05 0.00000E+00
 -1       257 2.74115E-03-2.36255E-05 0.00000E+00
 -1       258 2.74073E-03-3.96975E-05 0.00000E+00
 -1       259 2.74024E-03-5.91045E-05-6.61744E-24
 -1       260 2.73971E-03-8.12999E-05-6.61744E-24
 -1       261 2.73913E-03-1.05319E-04 0.00000E+00
 -1       262 2.73853E-03-1.30175E-04 6.61744E-24
 -1       263 2.73794E-03-1.54757E-04 1.32349E-23
 -1       264 2.73737E-03-1.77954E-04 0.00000E+00
 -1       265 2.73686E-03-1.98868E-04 0.00000E+00
 -1       266 2.74144E-03-4.00711E-07 1.65436E-24
 -1       267 2.73950E-03-4.03664E-07 0.00000E+00
 -1       268 2.73756E-03-4.07002E-07 0.00000E+00
 -1       269 2.73561E-03-4.09200E-07 2.06795E-25
 -1       270 2.73367E-03-4.11371E-07 2.06795E-25
 -1       271 2.74267E-03-1.85369E-07 0.00000E+00
 -1       272 2.74303E-03-2.90492E-06 0.00000E+00
 -1       273 2.74440E-03-8.36913E-06 1.32349E-23
 -1       274 2.74672E-03-1.63827E-05 0.00000E+00
 -1       275 2.74988E-03-2.67284E-05-1.32349E-23
 -1       276 2.75381E-03-3.91727E-05 0.00000E+00
 -1       277 2.75840E-03-5.34649E-05 0.00000E+00
 -1       278 2.76356E-03-6.93407E-05 0.00000E+00
 -1       279 2.76919E-03-8.65235E-05 0.00000E+00
 -1       280 2.77518E-03-1.04726E-04-6.61744E-24
 -1       281 2.78143E-03-1.23654E-04-1.32349E-23
 -1       282 2.78783E-03-1.43008E-04 0.00000E+00
 -1       283 2.79428E-03-1.62482E-04 1.32349E-23
 -1       284 2.80066E-03-1.81774E-04 0.00000E+00
 -1       285 2.80686E-03-2.00579E-04 1.32349E-23
 -1       301 2.75025E-03-2.16991E-04 1.32349E-23
 -1       302 2.76240E-03-2.17307E-04 3.30872E-24
 -1       303 2.77377E-03-2.17612E-04 0.00000E+00
 -1       304 2.78532E-03-2.17917E-04 0.00000E+00
 -1       305 2.79801E-03-2.18237E-04 0.00000E+00
 -1       306 2.77483E-03-3.73860E-04 0.00000E+00
 -1       307 2.83862E-03-7.91168E-04 5.29396E-23
 -1       308 2.88476E-03-1.39933E-03 1.05879E-22
 -1       309 2.90817E-03-2.10145E-03 0.00000E+00
 -1       310 2.93951E-03-2.77121E-03 1.05879E-22
 -1       311 2.99923E-03-3.28514E-03 0.00000E+00
 -1       312 3.05655E-03-3.56272E-03 1.05879E-22
 -1       313 3.04966E-03-3.56700E-03 0.00000E+00
 -1       314 2.90418E-03-3.31094E-03 0.00000E+00
 -1       315 2.57955E-03-2.86013E-03-5.29396E-23
 -1       316 2.09514E-03-2.29163E-03 0.00000E+00
 -1       317 1.51810E-03-1.67462E-03 5.29396E-23
 -1       318 9.63807E-04-1.06922E-03-1.05879E-22
 -1       319 5.40895E-04-5.40238E-04 0.00000E+00
 -1       320 2.93070E-04-1.62163E-04 0.00000E+00
 -1       336 2.99846E-04-4.02881E-06 0.00000E+00
 -1       337 2.86151E-04-4.70775E-06 0.00000E+00
 -1       338 2.70435E-04-5.41474E-06 0.00000E+00
 -1       339 2.52773E-04-6.15067E-06 0.00000E+00
 -1       340 2.33245E-04-6.92001E-06 0.00000E+00
 -1       406 1.79914E-04 9.46024E-07 8.27181E-25
 -1       407 1.80684E-04 1.08205E-06-1.29247E-25
 -1       408 1.81559E-04 1.21791E-06 0.00000E+00
 -1       409 1.82540E-04 1.35344E-06 4.13590E-25
 -1       410 1.83626E-04 1.48833E-06-3.30872E-24
 -1       521 2.85180E-03-3.85186E-04-1.05879E-22
 -1       522 2.91372E-03-8.23360E-04 0.00000E+00
 -1       523 2.95310E-03-1.46037E-03 1.05879E-22
 -1       524 2.96683E-03-2.19236E-03-5.29396E-23
 -1       525 2.98991E-03-2.88992E-03-1.05879E-22
 -1       526 3.04599E-03-3.42676E-03 0.00000E+00
 -1       527 3.10293E-03-3.71520E-03 2.11758E-22
 -1       528 3.09358E-03-3.71740E-03 5.29396E-23
 -1       529 2.93532E-03-3.44642E-03-2.11758E-22
 -1       530 2.58529E-03-2.97623E-03-5.29396E-23
 -1       531 2.06379E-03-2.38782E-03 1.05879E-22
 -1       532 1.44470E-03-1.75299E-03 0.00000E+00
 -1       533 8.49178E-04-1.12907E-03 1.05879E-22
 -1       534 3.91389E-04-5.78446E-04 0.00000E+00
 -1       535 1.21503E-04-1.80155E-04 2.11758E-22
 -1       536 2.11184E-04 2.73182E-05-6.61744E-24
 -1       537 2.09255E-04 8.79374E-05-1.65436E-24
 -1       538 2.06274E-04 1.64856E-04-3.30872E-24
 -1       539 2.02758E-04 2.48698E-04 1.65436E-24
 -1       540 1.99594E-04 3.27924E-04 0.00000E+00
 -1       541 1.97537E-04 3.91019E-04 0.00000E+00
 -1       542 1.96588E-04 4.31210E-04 0.00000E+00
 -1       543 1.96362E-04 4.41875E-04 0.00000E+00
 -1       544 1.96039E-04 4.23788E-04-3.30872E-24
 -1       545 1.94861E-04 3.77946E-04 0.00000E+00
 -1       546 1.92664E-04 3.12496E-04-3.30872E-24
 -1       547 1.89690E-04 2.35708E-04 0.00000E+00
 -1       548 1.86742E-04 1.59294E-04 0.00000E+00
 -1       549 1.84616E-04 9.49659E-05 0.00000E+00
 -1       550 1.83512E-04 5.07782E-05 1.65436E-24
 -1       551 1.86675E-04-8.27735E-06 0.00000E+00
 -1       552 1.58158E-04-8.92739E-06 0.00000E+00
 -1       553 1.27335E-04-9.63996E-06-1.32349E-23
 -1       554 9.51641E-05-1.03939E-05 6.61744E-24
 -1       555 6.26057E-05-1.11617E-05-1.32349E-23
 -1       556 2.04271E-04 1.19054E-05 0.00000E+00
 -1       557 1.98072E-04 2.78146E-05 0.00000E+00
 -1       558 1.93212E-04 4.03079E-05 0.00000E+00
 -1       559 1.89556E-04 4.96963E-05 0.00000E+00
 -1       560 1.86976E-04 5.62911E-05 0.00000E+00
 -1       561 1.85341E-04 6.04064E-05 0.00000E+00
 -1       562 1.84528E-04 6.23573E-05 0.00000E+00
 -1       563 1.84411E-04 6.24598E-05 0.00000E+00
 -1       564 1.84868E-04 6.10312E-05 0.00000E+00
 -1       565 1.85779E-04 5.83889E-05 0.00000E+00
 -1       566 1.87023E-04 5.48513E-05 0.00000E+00
 -1       567 1.88482E-04 5.07369E-05 0.00000E+00
 -1       568 1.90037E-04 4.63647E-05 1.65436E-24
 -1       569 1.91568E-04 4.20534E-05 0.00000E+00
 -1       570 1.92960E-04 3.81218E-05 0.00000E+00
 -1       571 1.83321E-04 3.25153E-05 1.65436E-24
 -1       572 1.83420E-04 3.03065E-05 1.24077E-24
 -1       573 1.83519E-04 2.80476E-05 0.00000E+00
 -1       574 1.83618E-04 2.57550E-05 1.65436E-24
 -1       575 1.83718E-04 2.34452E-05-3.30872E-24
 -1       576 1.83817E-04 2.11346E-05 0.00000E+00
 -1       577 1.83917E-04 1.88398E-05 0.00000E+00
 -1       578 1.84016E-04 1.65773E-05 0.00000E+00
 -1       579 1.84116E-04 1.43637E-05 0.00000E+00
 -1       580 1.84216E-04 1.22155E-05 6.61744E-24
 -1       581 1.84316E-04 1.01492E-05-6.61744E-24
 -1       582 1.84416E-04 8.18144E-06 0.00000E+00
 -1       583 1.84516E-04 6.32860E-06 0.00000E+00
 -1       584 1.84617E-04 4.60708E-06 3.30872E-24
 -1       585 1.84717E-04 3.03305E-06 0.00000E+00
 -1       586 1.84995E-04 3.46981E-05 1.65436E-24
 -1       587 1.86724E-04 3.47373E-05-4.13590E-25
 -1       588 1.88456E-04 3.47762E-05-8.27181E-25
 -1       589 1.90232E-04 3.48144E-05 0.00000E+00
 -1       590 1.92097E-04 3.48513E-05 0.00000E+00
 -1       591 1.83959E-04 3.26091E-05 2.06795E-25
 -1       592 1.84697E-04 3.05400E-05 0.00000E+00
 -1       593 1.85440E-04 2.84570E-05 8.27181E-25
 -1       594 1.86186E-04 2.63646E-05-4.13590E-25
 -1       595 1.86933E-04 2.42676E-05 0.00000E+00
 -1       596 1.87681E-04 2.21708E-05 4.13590E-25
 -1       597 1.88426E-04 2.00788E-05-8.27181E-25
 -1       598 1.89168E-04 1.79963E-05-4.13590E-25
 -1       599 1.89905E-04 1.59280E-05 8.27181E-25
 -1       600 1.90634E-04 1.38785E-05 0.00000E+00
 -1       601 1.91355E-04 1.18527E-05 8.27181E-25
 -1       602 1.92066E-04 9.85500E-06 2.06795E-25
 -1       603 1.92764E-04 7.89025E-06-8.27181E-25
 -1       604 1.93449E-04 5.96321E-06 0.00000E+00
 -1       605 1.94118E-04 4.07846E-06-4.13590E-25
 -1       606 1.84831E-04 4.43045E-07 0.00000E+00
 -1       607 1.84841E-04-6.49456E-07 1.65436E-24
 -1       608 1.84850E-04-1.66123E-06 0.00000E+00
 -1       609 1.84858E-04-2.59796E-06 0.00000E+00
 -1       610 1.84866E-04-3.46538E-06-3.30872E-24
 -1       611 1.84875E-04-4.26927E-06 0.00000E+00
 -1       612 1.84883E-04-5.01542E-06 0.00000E+00
 -1       613 1.84891E-04-5.70965E-06 0.00000E+00
 -1       614 1.84900E-04-6.35776E-06 0.00000E+00
 -1       615 1.84908E-04-6.96555E-06 0.00000E+00
 -1       616 1.84916E-04-7.53884E-06 0.00000E+00
 -1       617 1.84925E-04-8.08342E-06 0.00000E+00
 -1       618 1.84933E-04-8.60509E-06 0.00000E+00
 -1       619 1.84941E-04-9.10968E-06 0.00000E+00
 -1       620 1.84950E-04-9.60298E-06 0.00000E+00
 -1       621 1.86191E-04 1.72531E-06 1.65436E-24
 -1       622 1.87723E-04 1.82955E-06 8.27181E-25
 -1       623 1.89381E-04 1.93358E-06 3.30872E-24
 -1       624 1.91131E-04 2.03727E-06-8.27181E-25
 -1       625 1.92940E-04 2.14067E-06 1.65436E-24
 -1       626 1.85372E-04 4.79181E-07 0.00000E+00
 -1       627 1.85903E-04-5.99989E-07 0.00000E+00
 -1       628 1.86414E-04-1.62405E-06 0.00000E+00
 -1       629 1.86907E-04-2.60117E-06 0.00000E+00
 -1       630 1.87386E-04-3.53955E-06 3.30872E-24
 -1       631 1.87854E-04-4.44737E-06 0.00000E+00
 -1       632 1.88313E-04-5.33284E-06 3.30872E-24
 -1       633 1.88767E-04-6.20419E-06-1.65436E-24
 -1       634 1.89219E-04-7.06961E-06 0.00000E+00
 -1       635 1.89671E-04-7.93731E-06 0.00000E+00
 -1       636 1.90128E-04-8.81550E-06-3.30872E-24
 -1       637 1.90591E-04-9.71239E-06 0.00000E+00
 -1       638 1.91064E-04-1.06362E-05 1.65436E-24
 -1       639 1.91551E-04-1.15951E-05-8.27181E-25
 -1       640 1.92053E-04-1.25975E-05 0.00000E+00
 -1       656 1.85678E-04-1.06695E-05 0.00000E+00
 -1       657 1.86818E-04-1.12717E-05 0.00000E+00
 -1       658 1.88239E-04-1.18726E-05 1.32349E-23
 -1       659 1.89794E-04-1.24731E-05 0.00000E+00
 -1       660 1.91299E-04-1.30755E-05 0.00000E+00
 -1       661 1.85227E-04-1.06237E-05 0.00000E+00
 -1       662 1.85534E-04-1.12486E-05 0.00000E+00
 -1       663 1.85874E-04-1.19602E-05 0.00000E+00
 -1       664 1.86244E-04-1.27521E-05-8.27181E-25
 -1       665 1.86642E-04-1.36182E-05 1.65436E-24
 -1       666 1.87066E-04-1.45528E-05 0.00000E+00
 -1       667 1.87513E-04-1.55502E-05 1.65436E-24
 -1       668 1.87982E-04-1.66048E-05 0.00000E+00
 -1       669 1.88470E-04-1.77111E-05 0.00000E+00
 -1       670 1.88975E-04-1.88639E-05-8.27181E-25
 -1       671 1.89495E-04-2.00578E-05-1.65436E-24
 -1       672 1.90029E-04-2.12879E-05 0.00000E+00
 -1       673 1.90575E-04-2.25491E-05 1.65436E-24
 -1       674 1.91129E-04-2.38367E-05 4.13590E-25
 -1       675 1.91692E-04-2.51453E-05 2.06795E-25
 -1       676 1.85433E-04-2.59540E-05 3.30872E-24
 -1       677 1.86803E-04-2.60583E-05-1.65436E-24
 -1       678 1.88170E-04-2.61626E-05-3.30872E-24
 -1       679 1.89536E-04-2.62665E-05 0.00000E+00
 -1       680 1.90898E-04-2.63704E-05-3.30872E-24
 -1       771 1.86269E-05 1.48784E-05 0.00000E+00
 -1       772 8.54285E-06 3.69005E-05 0.00000E+00
 -1       773 2.71307E-07 5.43613E-05 0.00000E+00
 -1       774-6.31252E-06 6.75194E-05 0.00000E+00
 -1       775-1.13308E-05 7.66440E-05 5.29396E-23
 -1       776-1.49105E-05 8.20213E-05-2.64698E-23
 -1       777-1.71784E-05 8.39474E-05 5.29396E-23
 -1       778-1.82640E-05 8.27324E-05 0.00000E+00
 -1       779-1.82961E-05 7.86951E-05 0.00000E+00
 -1       780-1.74054E-05 7.21654E-05 2.64698E-23
 -1       781-1.57217E-05 6.34805E-05 0.00000E+00
 -1       782-1.33764E-05 5.29860E-05 0.00000E+00
 -1       783-1.05001E-05 4.10325E-05-5.29396E-23
 -1       784-7.22451E-06 2.79768E-05 0.00000E+00
 -1       785-3.68029E-06 1.41785E-05 0.00000E+00
 -1       786 1.94132E-04 3.26166E-05 0.00000E+00
 -1       787 1.94173E-04 3.03989E-05-4.13590E-25
 -1       788 1.94215E-04 2.82230E-05-8.27181E-25
 -1       789 1.94258E-04 2.60806E-05 0.00000E+00
 -1       790 1.94300E-04 2.39670E-05 0.00000E+00
 -1       791 1.94343E-04 2.18775E-05-8.27181E-25
 -1       792 1.94386E-04 1.98099E-05 1.65436E-24
 -1       793 1.94428E-04 1.77620E-05-8.27181E-25
 -1       794 1.94471E-04 1.57336E-05-1.65436E-24
 -1       795 1.94514E-04 1.37245E-05 0.00000E+00
 -1       796 1.94557E-04 1.17366E-05 0.00000E+00
 -1       797 1.94600E-04 9.77183E-06 0.00000E+00
 -1       798 1.94643E-04 7.83435E-06 0.00000E+00
 -1       799 1.94686E-04 5.92851E-06-8.27181E-25
 -1       800 1.94730E-04 4.06180E-06-1.65436E-24
 -1       801 1.48108E-04 3.13651E-05-2.64698E-23
 -1       802 9.08071E-06 1.95627E-05-2.64698E-23
 -1       803-1.09617E-04 9.88180E-06 5.29396E-23
 -1       804-9.70672E-05 6.88067E-06-2.64698E-23
 -1       805-3.20571E-05 2.69912E-06-5.29396E-23
 -1       806 1.94828E-04 3.25477E-05 0.00000E+00
 -1       807 1.95550E-04 3.02374E-05 1.65436E-24
 -1       808 1.96258E-04 2.79584E-05 0.00000E+00
 -1       809 1.96953E-04 2.57148E-05 0.00000E+00
 -1       810 1.97633E-04 2.35107E-05 0.00000E+00
 -1       811 1.98297E-04 2.13501E-05-1.65436E-24
 -1       812 1.98943E-04 1.92369E-05 3.30872E-24
 -1       813 1.99570E-04 1.71750E-05 1.65436E-24
 -1       814 2.00177E-04 1.51683E-05 0.00000E+00
 -1       815 2.00761E-04 1.32208E-05-1.65436E-24
 -1       816 2.01322E-04 1.13363E-05 3.30872E-24
 -1       817 2.01858E-04 9.51884E-06-8.27181E-25
 -1       818 2.02367E-04 7.77222E-06 0.00000E+00
 -1       819 2.02849E-04 6.10035E-06 0.00000E+00
 -1       820 2.03302E-04 4.50706E-06 0.00000E+00
 -1       821 1.94644E-04-1.39258E-07 0.00000E+00
 -1       822 1.94504E-04-3.68402E-06 0.00000E+00
 -1       823 1.94361E-04-7.96144E-06 3.30872E-24
 -1       824 1.94216E-04-1.25360E-05-1.65436E-24
 -1       825 1.94072E-04-1.68918E-05 0.00000E+00
 -1       826 1.93930E-04-2.05141E-05 0.00000E+00
 -1       827 1.93791E-04-2.30883E-05 3.30872E-24
 -1       828 1.93654E-04-2.43058E-05 1.65436E-24
 -1       829 1.93519E-04-2.42277E-05 0.00000E+00
 -1       830 1.93382E-04-2.29230E-05 1.65436E-24
 -1       831 1.93244E-04-2.07947E-05 0.00000E+00
 -1       832 1.93106E-04-1.82506E-05-1.65436E-24
 -1       833 1.92968E-04-1.58123E-05 0.00000E+00
 -1       834 1.92832E-04-1.40002E-05 0.00000E+00
 -1       835 1.92698E-04-1.31651E-05-8.27181E-25
 -1       836 1.96478E-04 2.36694E-06 0.00000E+00
 -1       837 1.98056E-04 2.49517E-06-1.65436E-24
 -1       838 1.99538E-04 2.62334E-06 0.00000E+00
 -1       839 2.00955E-04 2.75081E-06-8.27181E-25
 -1       840 2.02341E-04 2.87813E-06 0.00000E+00
 -1       856 1.92555E-04-1.47279E-05 0.00000E+00
 -1       857 1.92536E-04-1.56686E-05-2.58494E-26
 -1       858 1.92517E-04-1.64945E-05 2.06795E-25
 -1       859 1.92497E-04-1.72270E-05-2.06795E-25
 -1       860 1.92477E-04-1.78872E-05-4.13590E-25
 -1       861 1.92458E-04-1.84963E-05-2.06795E-25
 -1       862 1.92438E-04-1.90758E-05 4.13590E-25
 -1       863 1.92418E-04-1.96470E-05 4.13590E-25
 -1       864 1.92398E-04-2.02312E-05 0.00000E+00
 -1       865 1.92379E-04-2.08497E-05 0.00000E+00
 -1       866 1.92359E-04-2.15239E-05 0.00000E+00
 -1       867 1.92339E-04-2.22750E-05 0.00000E+00
 -1       868 1.92319E-04-2.31243E-05-8.27181E-25
 -1       869 1.92298E-04-2.40929E-05 4.13590E-25
 -1       870 1.92278E-04-2.52018E-05 0.00000E+00
 -1       871 1.93936E-04-1.36564E-05-8.27181E-25
 -1       872 1.95447E-04-1.36648E-05 0.00000E+00
 -1       873 1.97039E-04-1.36738E-05 0.00000E+00
 -1       874 1.98641E-04-1.36837E-05 1.03398E-25
 -1       875 2.00186E-04-1.36940E-05-1.03398E-24
 -1       876 1.93102E-04-1.47133E-05 0.00000E+00
 -1       877 1.93611E-04-1.57084E-05-1.65436E-24
 -1       878 1.94098E-04-1.66445E-05 3.30872E-24
 -1       879 1.94566E-04-1.75292E-05 1.65436E-24
 -1       880 1.95017E-04-1.83699E-05 0.00000E+00
 -1       881 1.95455E-04-1.91738E-05-1.65436E-24
 -1       882 1.95882E-04-1.99485E-05-3.30872E-24
 -1       883 1.96301E-04-2.07011E-05 0.00000E+00
 -1       884 1.96714E-04-2.14391E-05-3.30872E-24
 -1       885 1.97125E-04-2.21698E-05 1.65436E-24
 -1       886 1.97535E-04-2.29005E-05 3.30872E-24
 -1       887 1.97948E-04-2.36387E-05 1.65436E-24
 -1       888 1.98367E-04-2.43915E-05 3.30872E-24
 -1       889 1.98793E-04-2.51667E-05 0.00000E+00
 -1       890 1.99229E-04-2.59713E-05 0.00000E+00
 -1       891 1.93635E-04-2.65297E-05 0.00000E+00
 -1       892 1.94990E-04-2.65874E-05-8.27181E-25
 -1       893 1.96296E-04-2.66450E-05 0.00000E+00
 -1       894 1.97529E-04-2.67024E-05 8.27181E-25
 -1       895 1.98662E-04-2.67595E-05 4.13590E-25
 -1       956 2.03595E-04 1.66007E-06 1.65436E-24
 -1       957 2.03463E-04 4.15640E-07 0.00000E+00
 -1       958 2.03330E-04-7.47898E-07-3.30872E-24
 -1       959 2.03197E-04-1.84189E-06 1.65436E-24
 -1       960 2.03064E-04-2.87774E-06 3.30872E-24
 -1       961 2.02932E-04-3.86687E-06 0.00000E+00
 -1       962 2.02799E-04-4.82072E-06 0.00000E+00
 -1       963 2.02666E-04-5.75077E-06 0.00000E+00
 -1       964 2.02533E-04-6.66847E-06-3.30872E-24
 -1       965 2.02400E-04-7.58526E-06 0.00000E+00
 -1       966 2.02267E-04-8.51263E-06 0.00000E+00
 -1       967 2.02134E-04-9.46201E-06 0.00000E+00
 -1       968 2.02002E-04-1.04449E-05 0.00000E+00
 -1       969 2.01869E-04-1.14726E-05 0.00000E+00
 -1       970 2.01737E-04-1.25566E-05 0.00000E+00
 -1       971 2.01486E-04-1.48587E-05 3.30872E-24
 -1       972 2.01365E-04-1.59150E-05 0.00000E+00
 -1       973 2.01244E-04-1.68872E-05 0.00000E+00
 -1       974 2.01122E-04-1.77860E-05 1.65436E-24
 -1       975 2.01001E-04-1.86224E-05 0.00000E+00
 -1       976 2.00879E-04-1.94071E-05 0.00000E+00
 -1       977 2.00758E-04-2.01512E-05 3.30872E-24
 -1       978 2.00636E-04-2.08654E-05-1.65436E-24
 -1       979 2.00515E-04-2.15608E-05-3.30872E-24
 -1       980 2.00393E-04-2.22481E-05 0.00000E+00
 -1       981 2.00272E-04-2.29384E-05-3.30872E-24
 -1       982 2.00151E-04-2.36425E-05-1.65436E-24
 -1       983 2.00029E-04-2.43713E-05 3.30872E-24
 -1       984 1.99909E-04-2.51358E-05-1.65436E-24
 -1       985 1.99789E-04-2.59467E-05-3.30872E-24
 -3
    1PSTEP                        34          17           1          
  100CL  117 6.63178E-01         409                     0   17           1
 -4  FORC        4    1
 -5  F1          1    2    1    0
 -5  F2          1    2    2    0
 -5  F3          1    2    3    0
 -5  ALL         1    2    0    0    1ALL
 -1         1 1.09793E-02 0.00000E+00 0.00000E+00
 -1         2 0.00000E+00 0.00000E+00 0.00000E+00
 -1         3 0.00000E+00 0.00000E+00 0.00000E+00
 -1         5 0.00000E+00 0.00000E+00 0.00000E+00
 -1         8 5.34693E-04-4.06874E-04 0.00000E+00
 -1         9-3.38024E-02 8.01871E-03 0.00000E+00
 -1        10-1.08474E-07 6.44857E-07 0.00000E+00
 -1        12 1.37435E-09 1.65421E-07 0.00000E+00
 -1        15 0.00000E+00 0.00000E+00 0.00000E+00
 -1        16-5.75562E-03-5.47434E-02 0.00000E+00
 -1        17-7.51140E-04 4.19355E-04 0.00000E+00
 -1        18 7.07009E-06 5.83967E-06 0.00000E+00
 -1        19 2.01824E-06-4.29550E-07 0.00000E+00
 -1        20-3.32759E-06 3.69597E-07 0.00000E+00
 -1        21 0.00000E+00 1.32333E-06 0.00000E+00
 -1        24-2.09459E-03 6.68992E-04 0.00000E+00
 -1        25 3.88550E-06-3.62039E-06 0.00000E+00
 -1        26-2.15163E-06-1.53483E-06 0.00000E+00
 -1        27-1.10679E-06 2.11045E-06 0.00000E+00
 -1        28-1.03160E-06 6.29567E-07 0.00000E+00
 -1        32 0.00000E+00 0.00000E+00 0.00000E+00
 -1        33-1.43653E-07-2.70720E-06 0.00000E+00
 -1        34-7.87874E-07-2.79086E-06 0.00000E+00
 -1        35-4.68065E-06-3.00912E-06 0.00000E+00
 -1        51 0.00000E+00 0.00000E+00 0.00000E+00
 -1        52 0.00000E+00 0.00000E+00 0.00000E+00
 -1        53 0.00000E+00 0.00000E+00 0.00000E+00
 -1        54 0.00000E+00 0.00000E+00 0.00000E+00
 -1        55 0.00000E+00 0.00000E+00 0.00000E+00
 -1        56 0.00000E+00 0.00000E+00 0.00000E+00
 -1        57 0.00000E+00 0.00000E+00 0.00000E+00
 -1        58 0.00000E+00 0.00000E+00 0.00000E+00
 -1        59 0.00000E+00 0.00000E+00 0.00000E+00
 -1        60 0.00000E+00 0.00000E+00 0.00000E+00
 -1        61 0.00000E+00 0.00000E+00 0.00000E+00
 -1        62 0.00000E+00 0.00000E+00 0.00000E+00
 -1        63 0.00000E+00 0.00000E+00 0.00000E+00
 -1        64 0.00000E+00 0.00000E+00 0.00000E+00
 -1        65 0.00000E+00 0.00000E+00 0.00000E+00
 -1        66 0.00000E+00 0.00000E+00 0.00000E+00
 -1        67 0.00000E+00 0.00000E+00 0.00000E+00
 -1        68 0.00000E+00 0.00000E+00 0.00000E+00
 -1        69 0.00000E+00 0.00000E+00 0.00000E+00
 -1        70 0.00000E+00 0.00000E+00 0.00000E+00
 -1        86 0.00000E+00 0.00000E+00 0.00000E+00
 -1        87 0.00000E+00 0.00000E+00 0.00000E+00
 -1        88 0.00000E+00 0.00000E+00 0.00000E+00
 -1        89 0.00000E+00 0.00000E+00 0.00000E+00
 -1        90 0.00000E+00 0.00000E+00 0.00000E+00
 -1       121 0.00000E+00 0.00000E+00 0.00000E+00
 -1       122 0.00000E+00 0.00000E+00 0.00000E+00
 -1       123 0.00000E+00 0.00000E+00 0.00000E+00
 -1       124 0.00000E+00 0.00000E+00 0.00000E+00
 -1       125 0.00000E+00 0.00000E+00 0.00000E+00
 -1       191 0.00000E+00 0.00000E+00 0.00000E+00
 -1       192 0.00000E+00 0.00000E+00 0.00000E+00
 -1       193 0.00000E+00 0.00000E+00 0.00000E+00
 -1       194 0.00000E+00 0.00000E+00 0.00000E+00
 -1       195 0.00000E+00 0.00000E+00 0.00000E+00
 -1       251 0.00000E+00 0.00000E+00 0.00000E+00
 -1       252 0.00000E+00 0.00000E+00 0.00000E+00
 -1       253 0.00000E+00 0.00000E+00 0.00000E+00
 -1       254 0.00000E+00 0.00000E+00 0.00000E+00
 -1       255 0.00000E+00 0.00000E+00 0.00000E+00
 -1       256 0.00000E+00 0.00000E+00 0.00000E+00
 -1       257 0.00000E+00 0.00000E+00 0.00000E+00
 -1       258 0.00000E+00 0.00000E+00 0.00000E+00
 -1       259 0.00000E+00 0.00000E+00 0.00000E+00
 -1       260 0.00000E+00 0.00000E+00 0.00000E+00
 -1       261 0.00000E+00 0.00000E+00 0.00000E+00
 -1       262 0.00000E+00 0.00000E+00 0.00000E+00
 -1       263 0.00000E+00 0.00000E+00 0.00000E+00
 -1       264 0.00000E+00 0.00000E+00 0.00000E+00
 -1       265 0.00000E+00 0.00000E+00 0.00000E+00
 -1       266 0.00000E+00 0.00000E+00 0.00000E+00
 -1       267 0.00000E+00 0.00000E+00 0.00000E+00
 -1       268 0.00000E+00 0.00000E+00 0.00000E+00
 -1       269 0.00000E+00 0.00000E+00 0.00000E+00
 -1       270 0.00000E+00 0.00000E+00 0.00000E+00
 -1       271 0.00000E+00 0.00000E+00 0.00000E+00
 -1       272 0.00000E+00 0.00000E+00 0.00000E+00
 -1       273 0.00000E+00 0.00000E+00 0.00000E+00
 -1       274 0.00000E+00 0.00000E+00 0.00000E+00
 -1       275 0.00000E+00 0.00000E+00 0.00000E+00
 -1       276 0.00000E+00 0.00000E+00 0.00000E+00
 -1       277 0.00000E+00 0.00000E+00 0.00000E+00
 -1       278 0.00000E+00 0.00000E+00 0.00000E+00
 -1       279 0.00000E+00 0.00000E+00 0.00000E+00
 -1       280 0.00000E+00 0.00000E+00 0.00000E+00
 -1       281 0.00000E+00 0.00000E+00 0.00000E+00
 -1       282 0.00000E+00 0.00000E+00 0.00000E+00
 -1       283 0.00000E+00 0.00000E+00 0.00000E+00
 -1       284 0.00000E+00 0.00000E+00 0.00000E+00
 -1       285 0.00000E+00 0.00000E+00 0.00000E+00
 -1       301 0.00000E+00 0.00000E+00 0.00000E+00
 -1       302 0.00000E+00 0.00000E+00 0.00000E+00
 -1       303 0.00000E+00 0.00000E+00 0.00000E+00
 -1       304 0.00000E+00 0.00000E+00 0.00000E+00
 -1       305 0.00000E+00 0.00000E+00 0.00000E+00
 -1       306 0.00000E+00 0.00000E+00 0.00000E+00
 -1       307 0.00000E+00 0.00000E+00 0.00000E+00
 -1       308 0.00000E+00 0.00000E+00 0.00000E+00
 -1       309 0.00000E+00 0.00000E+00 0.00000E+00
 -1       310 0.00000E+00 0.00000E+00 0.00000E+00
 -1       311 0.00000E+00 0.00000E+00 0.00000E+00
 -1       312 0.00000E+00 0.00000E+00 0.00000E+00
 -1       313 0.00000E+00 0.00000E+00 0.00000E+00
 -1       314 0.00000E+00 0.00000E+00 0.00000E+00
 -1       315 0.00000E+00 0.00000E+00 0.00000E+00
 -1       316 0.00000E+00 0.00000E+00 0.00000E+00
 -1       317 0.00000E+00 0.00000E+00 0.00000E+00
 -1       318 0.00000E+00 0.00000E+00 0.00000E+00
 -1       319 0.00000E+00 0.00000E+00 0.00000E+00
 -1       320 0.00000E+00 0.00000E+00 0.00000E+00
 -1       336 0.00000E+00 0.00000E+00 0.00000E+00
 -1       337 0.00000E+00 0.00000E+00 0.00000E+00
 -1       338 0.00000E+00 0.00000E+00 0.00000E+00
 -1       339 0.00000E+00 0.00000E+00 0.00000E+00
 -1       340 0.00000E+00 0.00000E+00 0.00000E+00
 -1       406 0.00000E+00 0.00000E+00 0.00000E+00
 -1       407 0.00000E+00 0.00000E+00 0.00000E+00
 -1       408 0.00000E+00 0.00000E+00 0.00000E+00
 -1       409 0.00000E+00 0.00000E+00 0.00000E+00
 -1       410 0.00000E+00 0.00000E+00 0.00000E+00
 -1       521 0.00000E+00 0.00000E+00 0.00000E+00
 -1       522 0.00000E+00 0.00000E+00 0.00000E+00
 -1       523 0.00000E+00 0.00000E+00 0.00000E+00
 -1       524 0.00000E+00 0.00000E+00 0.00000E+00
 -1       525 0.00000E+00 0.00000E+00 0.00000E+00
 -1       526 0.00000E+00 0.00000E+00 0.00000E+00
 -1       527 0.00000E+00 0.00000E+00 0.00000E+00
 -1       528 0.00000E+00 0.00000E+00 0.00000E+00
 -1       529 0.00000E+00 0.00000E+00 0.00000E+00
 -1       530 0.00000E+00 0.00000E+00 0.00000E+00
 -1       531 0.00000E+00 0.00000E+00 0.00000E+00
 -1       532 0.00000E+00 0.00000E+00 0.00000E+00
 -1       533 0.00000E+00 0.00000E+00 0.00000E+00
 -1       534 0.00000E+00 0.00000E+00 0.00000E+00
 -1       535 0.00000E+00 0.00000E+00 0.00000E+00
 -1       536 0.00000E+00 0.00000E+00 0.00000E+00
 -1       537 0.00000E+00 0.00000E+00 0.00000E+00
 -1       538 0.00000E+00 0.00000E+00 0.00000E+00
 -1       539 0.00000E+00 0.00000E+00 0.00000E+00
 -1       540 0.00000E+00 0.00000E+00 0.00000E+00
 -1       541 0.00000E+00 0.00000E+00 0.00000E+00
 -1       542 0.00000E+00 0.00000E+00 0.00000E+00
 -1       543 0.00000E+00 0.00000E+00 0.00000E+00
 -1       544 0.00000E+00 0.00000E+00 0.00000E+00
 -1       545 0.00000E+00 0.00000E+00 0.00000E+00
 -1       546 0.00000E+00 0.00000E+00 0.00000E+00
 -1       547 0.00000E+00 0.00000E+00 0.00000E+00
 -1       548 0.00000E+00 0.00000E+00 0.00000E+00
 -1       549 0.00000E+00 0.00000E+00 0.00000E+00
 -1       550 0.00000E+00 0.00000E+00 0.00000E+00
 -1       551 0.00000E+00 0.00000E+00 0.00000E+00
 -1       552 0.00000E+00 0.00000E+00 0.00000E+00
 -1       553 0.00000E+00 0.00000E+00 0.00000E+00
 -1       554 0.00000E+00 0.00000E+00 0.00000E+00
 -1       555 0.00000E+00 0.00000E+00 0.00000E+00
 -1       556 0.00000E+00 0.00000E+00 0.00000E+00
 -1       557 0.00000E+00 0.00000E+00 0.00000E+00
 -1       558 0.00000E+00 0.00000E+00 0.00000E+00
 -1       559 0.00000E+00 0.00000E+00 0.00000E+00
 -1       560 0.00000E+00 0.00000E+00 0.00000E+00
 -1       561 0.00000E+00 0.00000E+00 0.00000E+00
 -1       562 0.00000E+00 0.00000E+00 0.00000E+00
 -1       563 0.00000E+00 0.00000E+00 0.00000E+00
 -1       564 0.00000E+00 0.00000E+00 0.00000E+00
 -1       565 0.00000E+00 0.00000E+00 0.00000E+00
 -1       566 0.00000E+00 0.00000E+00 0.00000E+00
 -1       567 0.00000E+00 0.00000E+00 0.00000E+00
 -1       568 0.00000E+00 0.00000E+00 0.00000E+00
 -1       569 0.00000E+00 0.00000E+00 0.00000E+00
 -1       570 0.00000E+00 0.00000E+00 0.00000E+00
 -1       571 0.00000E+00 0.00000E+00 0.00000E+00
 -1       572 0.00000E+00 0.00000E+00 0.00000E+00
 -1       573 0.00000E+00 0.00000E+00 0.00000E+00
 -1       574 0.00000E+00 0.00000E+00 0.00000E+00
 -1       575 0.00000E+00 0.00000E+00 0.00000E+00
 -1       576 0.00000E+00 0.00000E+00 0.00000E+00
 -1       577 0.00000E+00 0.00000E+00 0.00000E+00
 -1       578 0.00000E+00 0.00000E+00 0.00000E+00
 -1       579 0.00000E+00 0.00000E+00 0.00000E+00
 -1       580 0.00000E+00 0.00000E+00 0.00000E+00
 -1       581 0.00000E+00 0.00000E+00 0.00000E+00
 -1       582 0.00000E+00 0.00000E+00 0.00000E+00
 -1       583 0.00000E+00 0.00000E+00 0.00000E+00
 -1       584 0.00000E+00 0.00000E+00 0.00000E+00
 -1       585 0.00000E+00 0.00000E+00 0.00000E+00
 -1       586 0.00000E+00 0.00000E+00 0.00000E+00
 -1       587 0.00000E+00 0.00000E+00 0.00000E+00
 -1       588 0.00000E+00 0.00000E+00 0.00000E+00
 -1       589 0.00000E+00 0.00000E+00 0.00000E+00
 -1       590 0.00000E+00 0.00000E+00 0.00000E+00
 -1       591 0.00000E+00 0.00000E+00 0.00000E+00
 -1       592 0.00000E+00 0.00000E+00 0.00000E+00
 -1       593 0.00000E+00 0.00000E+00 0.00000E+00
 -1       594 0.00000E+00 0.00000E+00 0.00000E+00
 -1       595 0.00000E+00 0.00000E+00 0.00000E+00
 -1       596 0.00000E+00 0.00000E+00 0.00000E+00
 -1       597 0.00000E+00 0.00000E+00 0.00000E+00
 -1       598 0.00000E+00 0.00000E+00 0.00000E+00
 -1       599 0.00000E+00 0.00000E+00 0.00000E+00
 -1       600 0.00000E+00 0.00000E+00 0.00000E+00
 -1       601 0.00000E+00 0.00000E+00 0.00000E+00
 -1       602 0.00000E+00 0.00000E+00 0.00000E+00
 -1       603 0.00000E+00 0.00000E+00 0.00000E+00
 -1       604 0.00000E+00 0.00000E+00 0.00000E+00
 -1       605 0.00000E+00 0.00000E+00 0.00000E+00
 -1       606 0.00000E+00 0.00000E+00 0.00000E+00
 -1       607 0.00000E+00 0.00000E+00 0.00000E+00
 -1       608 0.00000E+00 0.00000E+00 0.00000E+00
 -1       609 0.00000E+00 0.00000E+00 0.00000E+00
 -1       610 0.00000E+00 0.00000E+00 0.00000E+00
 -1       611 0.00000E+00 0.00000E+00 0.00000E+00
 -1       612 0.00000E+00 0.00000E+00 0.00000E+00
 -1       613 0.00000E+00 0.00000E+00 0.00000E+00
 -1       614 0.00000E+00 0.00000E+00 0.00000E+00
 -1       615 0.00000E+00 0.00000E+00 0.00000E+00
 -1       616 0.00000E+00 0.00000E+00 0.00000E+00
 -1       617 0.00000E+00 0.00000E+00 0.00000E+00
 -1       618 0.00000E+00 0.00000E+00 0.00000E+00
 -1       619 0.00000E+00 0.00000E+00 0.00000E+00
 -1       620 0.00000E+00 0.00000E+00 0.00000E+00
 -1       621 0.00000E+00 0.00000E+00 0.00000E+00
 -1       622 0.00000E+00 0.00000E+00 0.00000E+00
 -1       623 0.00000E+00 0.00000E+00 0.00000E+00
 -1       624 0.00000E+00 0.00000E+00 0.00000E+00
 -1       625 0.00000E+00 0.00000E+00 0.00000E+00
 -1       626 0.00000E+00 0.00000E+00 0.00000E+00
 -1       627 0.00000E+00 0.00000E+00 0.00000E+00
 -1       628 0.00000E+00 0.00000E+00 0.00000E+00
 -1       629 0.00000E+00 0.00000E+00 0.00000E+00
 -1       630 0.00000E+00 0.00000E+00 0.00000E+00
 -1       631 0.00000E+00 0.00000E+00 0.00000E+00
 -1       632 0.00000E+00 0.00000E+00 0.00000E+00
 -1       633 0.00000E+00 0.00000E+00 0.00000E+00
 -1       634 0.00000E+00 0.00000E+00 0.00000E+00
 -1       635 0.00000E+00 0.00000E+00 0.00000E+00
 -1       636 0.00000E+00 0.00000E+00 0.00000E+00
 -1       637 0.00000E+00 0.00000E+00 0.00000E+00
 -1       638 0.00000E+00 0.00000E+00 0.00000E+00
 -1       639 0.00000E+00 0.00000E+00 0.00000E+00
 -1       640 0.00000E+00 0.00000E+00 0.00000E+00
 -1       656 0.00000E+00 0.00000E+00 0.00000E+00
 -1       657 0.00000E+00 0.00000E+00 0.00000E+00
 -1       658 0.00000E+00 0.00000E+00 0.00000E+00
 -1       659 0.00000E+00 0.00000E+00 0.00000E+00
 -1       660 0.00000E+00 0.00000E+00 0.00000E+00
 -1       661 0.00000E+00 0.00000E+00 0.00000E+00
 -1       662 0.00000E+00 0.00000E+00 0.00000E+00
 -1       663 0.00000E+00 0.00000E+00 0.00000E+00
 -1       664 0.00000E+00 0.00000E+00 0.00000E+00
 -1       665 0.00000E+00 0.00000E+00 0.00000E+00
 -1       666 0.00000E+00 0.00000E+00 0.00000E+00
 -1       667 0.00000E+00 0.00000E+00 0.00000E+00
 -1       668 0.00000E+00 0.00000E+00 0.00000E+00
 -1       669 0.00000E+00 0.00000E+00 0.00000E+00
 -1       670 0.00000E+00 0.00000E+00 0.00000E+00
 -1       671 0.00000E+00 0.00000E+00 0.00000E+00
 -1       672 0.00000E+00 0.00000E+00 0.00000E+00
 -1       673 0.00000E+00 0.00000E+00 0.00000E+00
 -1       674 0.00000E+00 0.00000E+00 0.00000E+00
 -1       675 0.00000E+00 0.00000E+00 0.00000E+00
 -1       676 0.00000E+00 0.00000E+00 0.00000E+00
 -1       677 0.00000E+00 0.00000E+00 0.00000E+00
 -1       678 0.00000E+00 0.00000E+00 0.00000E+00
 -1       679 0.00000E+00 0.00000E+00 0.00000E+00
 -1       680 0.00000E+00 0.00000E+00 0.00000E+00
 -1       771 0.00000E+00 0.00000E+00 0.00000E+00
 -1       772 0.00000E+00 0.00000E+00 0.00000E+00
 -1       773 0.00000E+00 0.00000E+00 0.00000E+00
 -1       774 0.00000E+00 0.00000E+00 0.00000E+00
 -1       775 0.00000E+00 0.00000E+00 0.00000E+00
 -1       776 0.00000E+00 0.00000E+00 0.00000E+00
 -1       777 0.00000E+00 0.00000E+00 0.00000E+00
 -1       778 0.00000E+00 0.00000E+00 0.00000E+00
 -1       779 0.00000E+00 0.00000E+00 0.00000E+00
 -1       780 0.00000E+00 0.00000E+00 0.00000E+00
 -1       781 0.00000E+00 0.00000E+00 0.00000E+00
 -1       782 0.00000E+00 0.00000E+00 0.00000E+00
 -1       783 0.00000E+00 0.00000E+00 0.00000E+00
 -1       784 0.00000E+00 0.00000E+00 0.00000E+00
 -1       785 0.00000E+00 0.00000E+00 0.00000E+00
 -1       786 0.00000E+00 0.00000E+00 0.00000E+00
 -1       787 0.00000E+00 0.00000E+00 0.00000E+00
 -1       788 0.00000E+00 0.00000E+00 0.00000E+00
 -1       789 0.00000E+00 0.00000E+00 0.00000E+00
 -1       790 0.00000E+00 0.00000E+00 0.00000E+00
 -1       791 0.00000E+00 0.00000E+00 0.00000E+00
 -1       792 0.00000E+00 0.00000E+00 0.00000E+00
 -1       793 0.00000E+00 0.00000E+00 0.00000E+00
 -1       794 0.00000E+00 0.00000E+00 0.00000E+00
 -1       795 0.00000E+00 0.00000E+00 0.00000E+00
 -1       796 0.00000E+00 0.00000E+00 0.00000E+00
 -1       797 0.00000E+00 0.00000E+00 0.00000E+00
 -1       798 0.00000E+00 0.00000E+00 0.00000E+00
 -1       799 0.00000E+00 0.00000E+00 0.00000E+00
 -1       800 0.00000E+00 0.00000E+00 0.00000E+00
 -1       801 0.00000E+00 0.00000E+00 0.00000E+00
 -1       802 0.00000E+00 0.00000E+00 0.00000E+00
 -1       803 0.00000E+00 0.00000E+00 0.00000E+00
 -1       804 0.00000E+00 0.00000E+00 0.00000E+00
 -1       805 0.00000E+00 0.00000E+00 0.00000E+00
 -1       806 0.00000E+00 0.00000E+00 0.00000E+00
 -1       807 0.00000E+00 0.00000E+00 0.00000E+00
 -1       808 0.00000E+00 0.00000E+00 0.00000E+00
 -1       809 0.00000E+00 0.00000E+00 0.00000E+00
 -1       810 0.00000E+00 0.00000E+00 0.00000E+00
 -1       811 0.00000E+00 0.00000E+00 0.00000E+00
 -1       812 0.00000E+00 0.00000E+00 0.00000E+00
 -1       813 0.00000E+00 0.00000E+00 0.00000E+00
 -1       814 0.00000E+00 0.00000E+00 0.00000E+00
 -1       815 0.00000E+00 0.00000E+00 0.00000E+00
 -1       816 0.00000E+00 0.00000E+00 0.00000E+00
 -1       817 0.00000E+00 0.00000E+00 0.00000E+00
 -1       818 0.00000E+00 0.00000E+00 0.00000E+00
 -1       819 0.00000E+00 0.00000E+00 0.00000E+00
 -1       820 0.00000E+00 0.00000E+00 0.00000E+00
 -1       821 0.00000E+00 0.00000E+00 0.00000E+00
 -1       822 0.00000E+00 0.00000E+00 0.00000E+00
 -1       823 0.00000E+00 0.00000E+00 0.00000E+00
 -1       824 0.00000E+00 0.00000E+00 0.00000E+00
 -1       825 0.00000E+00 0.00000E+00 0.00000E+00
 -1       826 0.00000E+00 0.00000E+00 0.00000E+00
 -1       827 0.00000E+00 0.00000E+00 0.00000E+00
 -1       828 0.00000E+00 0.00000E+00 0.00000E+00
 -1       829 0.00000E+00 0.00000E+00 0.00000E+00
 -1       830 0.00000E+00 0.00000E+00 0.00000E+00
 -1       831 0.00000E+00 0.00000E+00 0.00000E+00
 -1       832 0.00000E+00 0.00000E+00 0.00000E+00
 -1       833 0.00000E+00 0.00000E+00 0.00000E+00
 -1       834 0.00000E+00 0.00000E+00 0.00000E+00
 -1       835 0.00000E+00 0.00000E+00 0.00000E+00
 -1       836 0.00000E+00 0.00000E+00 0.00000E+00
 -1       837 0.00000E+00 0.00000E+00 0.00000E+00
 -1       838 0.00000E+00 0.00000E+00 0.00000E+00
 -1       839 0.00000E+00 0.00000E+00 0.00000E+00
 -1       840 0.00000E+00 0.00000E+00 0.00000E+00
 -1       856 0.00000E+00 0.00000E+00 0.00000E+00
 -1       857 0.00000E+00 0.00000E+00 0.00000E+00
 -1       858 0.00000E+00 0.00000E+00 0.00000E+00
 -1       859 0.00000E+00 0.00000E+00 0.00000E+00
 -1       860 0.00000E+00 0.00000E+00 0.00000E+00
 -1       861 0.00000E+00 0.00000E+00 0.00000E+00
 -1       862 0.00000E+00 0.00000E+00 0.00000E+00
 -1       863 0.00000E+00 0.00000E+00 0.00000E+00
 -1       864 0.00000E+00 0.00000E+00 0.00000E+00
 -1       865 0.00000E+00 0.00000E+00 0.00000E+00
 -1       866 0.00000E+00 0.00000E+00 0.00000E+00
 -1       867 0.00000E+00 0.00000E+00 0.00000E+00
 -1       868 0.00000E+00 0.00000E+00 0.00000E+00
 -1       869 0.00000E+00 0.00000E+00 0.00000E+00
 -1       870 0.00000E+00 0.00000E+00 0.00000E+00
 -1       871 0.00000E+00 0.00000E+00 0.00000E+00
 -1       872 0.00000E+00 0.00000E+00 0.00000E+00
 -1       873 0.00000E+00 0.00000E+00 0.00000E+00
 -1       874 0.00000E+00 0.00000E+00 0.00000E+00
 -1       875 0.00000E+00 0.00000E+00 0.00000E+00
 -1       876 0.00000E+00 0.00000E+00 0.00000E+00
 -1       877 0.00000E+00 0.00000E+00 0.00000E+00
 -1       878 0.00000E+00 0.00000E+00 0.00000E+00
 -1       879 0.00000E+00 0.00000E+00 0.00000E+00
 -1       880 0.00000E+00 0.00000E+00 0.00000E+00
 -1       881 0.00000E+00 0.00000E+00 0.00000E+00
 -1       882 0.00000E+00 0.00000E+00 0.00000E+00
 -1       883 0.00000E+00 0.00000E+00 0.00000E+00
 -1       884 0.00000E+00 0.00000E+00 0.00000E+00
 -1       885 0.00000E+00 0.00000E+00 0.00000E+00
 -1       886 0.00000E+00 0.00000E+00 0.00000E+00
 -1       887 0.00000E+00 0.00000E+00 0.00000E+00
 -1       888 0.00000E+00 0.00000E+00 0.00000E+00
 -1       889 0.00000E+00 0.00000E+00 0.00000E+00
 -1       890 0.00000E+00 0.00000E+00 0.00000E+00
 -1       891 0.00000E+00 0.00000E+00 0.00000E+00
 -1       892 0.00000E+00 0.00000E+00 0.00000E+00
 -1       893 0.00000E+00 0.00000E+00 0.00000E+00
 -1       894 0.00000E+00 0.00000E+00 0.00000E+00
 -1       895 0.00000E+00 0.00000E+00 0.00000E+00
 -1       956 0.00000E+00 0.00000E+00 0.00000E+00
 -1       957 0.00000E+00 0.00000E+00 0.00000E+00
 -1       958 0.00000E+00 0.00000E+00 0.00000E+00
 -1       959 0.00000E+00 0.00000E+00 0.00000E+00
 -1       960 0.00000E+00 0.00000E+00 0.00000E+00
 -1       961 0.00000E+00 0.00000E+00 0.00000E+00
 -1       962 0.00000E+00 0.00000E+00 0.00000E+00
 -1       963 0.00000E+00 0.00000E+00 0.00000E+00
 -1       964 0.00000E+00 0.00000E+00 0.00000E+00
 -1       965 0.00000E+00 0.00000E+00 0.00000E+00
 -1       966 0.00000E+00 0.00000E+00 0.00000E+00
 -1       967 0.00000E+00 0.00000E+00 0.00000E+00
 -1       968 0.00000E+00 0.00000E+00 0.00000E+00
 -1       969 0.00000E+00 0.00000E+00 0.00000E+00
 -1       970 0.00000E+00 0.00000E+00 0.00000E+00
 -1       971 0.00000E+00 0.00000E+00 0.00000E+00
 -1       972 0.00000E+00 0.00000E+00 0.00000E+00
 -1       973 0.00000E+00 0.00000E+00 0.00000E+00
 -1       974 0.00000E+00 0.00000E+00 0.00000E+00
 -1       975 0.00000E+00 0.00000E+00 0.00000E+00
 -1       976 0.00000E+00 0.00000E+00 0.00000E+00
 -1       977 0.00000E+00 0.00000E+00 0.00000E+00
 -1       978 0.00000E+00 0.00000E+00 0.00000E+00
 -1       979 0.00000E+00 0.00000E+00 0.00000E+00
 -1       980 0.00000E+00 0.00000E+00 0.00000E+00
 -1       981 0.00000E+00 0.00000E+00 0.00000E+00
 -1       982 0.00000E+00 0.00000E+00 0.00000E+00
 -1       983 0.00000E+00 0.00000E+00 0.00000E+00
 -1       984 0.00000E+00 0.00000E+00 0.00000E+00
 -1       985 0.00000E+00 0.00000E+00 0.00000E+00
 -3
