
 stresses (elem, integ.pnt.,sxx,syy,szz,sxy,sxz,syz) for set ELALL and time  0.1000000E+01

         1   1  1.068614E+07  5.796243E+05  7.360369E+05  1.777248E+05  5.015523E+05  1.412614E+02
         1   2  1.058605E+07 -8.726187E+04  3.269594E+05  5.097401E+04  3.246366E+05  2.622655E+01
         1   3  1.068928E+07 -2.850768E+04  2.131340E+05 -7.575752E+04  1.477084E+05 -1.773193E+01
         1   4  1.068611E+07  5.795659E+05  7.360286E+05  1.423110E-07  5.015523E+05  1.746533E-09
         1   5  1.058605E+07 -8.726668E+04  3.269587E+05 -9.632595E-09  3.246366E+05 -8.166141E-11
         1   6  1.068928E+07 -2.851828E+04  2.131325E+05  6.334282E-08  1.477084E+05 -1.253325E-08
         1   7  1.068614E+07  5.796243E+05  7.360369E+05 -1.777248E+05  5.015523E+05 -1.412614E+02
         1   8  1.058605E+07 -8.726187E+04  3.269594E+05 -5.097401E+04  3.246366E+05 -2.622655E+01
         1   9  1.068928E+07 -2.850768E+04  2.131340E+05  7.575752E+04  1.477084E+05  1.773193E+01
         1  10  1.068588E+07  5.795581E+05  7.355721E+05  1.777248E+05  2.068302E-08 -2.153335E-09
         1  11  1.058594E+07 -8.728958E+04  3.267647E+05  5.097401E+04  1.287081E-08 -4.539686E-09
         1  12  1.068926E+07 -2.851341E+04  2.130937E+05 -7.575752E+04 -7.387456E-10  1.703197E-10
         1  13  1.068584E+07  5.794998E+05  7.355638E+05  1.417248E-07  1.357848E-10 -2.664151E-09
         1  14  1.058594E+07 -8.729438E+04  3.267640E+05 -7.885409E-08  8.714274E-09 -6.556477E-09
         1  15  1.068925E+07 -2.852402E+04  2.130922E+05 -5.716046E-08 -1.964387E-08 -2.664377E-09
         1  16  1.068588E+07  5.795581E+05  7.355721E+05 -1.777248E+05 -1.225784E-08 -3.314175E-09
         1  17  1.058594E+07 -8.728958E+04  3.267647E+05 -5.097401E+04 -3.888731E-08 -8.043168E-09
         1  18  1.068926E+07 -2.851341E+04  2.130937E+05  7.575752E+04 -4.531230E-10 -4.352360E-09
         1  19  1.068614E+07  5.796243E+05  7.360369E+05  1.777248E+05 -5.015523E+05 -1.412614E+02
         1  20  1.058605E+07 -8.726187E+04  3.269594E+05  5.097401E+04 -3.246366E+05 -2.622655E+01
         1  21  1.068928E+07 -2.850768E+04  2.131340E+05 -7.575752E+04 -1.477084E+05  1.773193E+01
         1  22  1.068611E+07  5.795659E+05  7.360286E+05 -6.656553E-08 -5.015523E+05 -6.777244E-09
         1  23  1.058605E+07 -8.726668E+04  3.269587E+05 -7.883372E-08 -3.246366E+05 -1.303018E-08
         1  24  1.068928E+07 -2.851828E+04  2.131325E+05  1.423545E-07 -1.477084E+05  7.329796E-09
         1  25  1.068614E+07  5.796243E+05  7.360369E+05 -1.777248E+05 -5.015523E+05  1.412614E+02
         1  26  1.058605E+07 -8.726187E+04  3.269594E+05 -5.097401E+04 -3.246366E+05  2.622655E+01
         1  27  1.068928E+07 -2.850768E+04  2.131340E+05  7.575752E+04 -1.477084E+05 -1.773193E+01
         2   1  1.064992E+07  6.247494E+04  1.798325E+05  1.872498E+04  1.135369E+05  3.369077E+00
         2   2  1.063539E+07 -1.105375E+04  1.093734E+05  4.152936E+03  5.747092E+04  3.782349E-01
         2   3  1.065032E+07  4.959712E+03  9.735256E+04 -1.041911E+04  1.406142E+03 -2.321710E-02
         2   4  1.064992E+07  6.247429E+04  1.798324E+05 -3.994172E-08  1.135369E+05 -1.175030E-08
         2   5  1.063539E+07 -1.105378E+04  1.093734E+05 -9.251477E-08  5.747092E+04  1.499699E-09
         2   6  1.065032E+07  4.959511E+03  9.735253E+04 -2.316746E-07  1.406142E+03  3.932702E-09
         2   7  1.064992E+07  6.247494E+04  1.798325E+05 -1.872498E+04  1.135369E+05 -3.369077E+00
         2   8  1.063539E+07 -1.105375E+04  1.093734E+05 -4.152936E+03  5.747092E+04 -3.782349E-01
         2   9  1.065032E+07  4.959712E+03  9.735256E+04  1.041911E+04  1.406142E+03  2.321710E-02
         2  10  1.064991E+07  6.247155E+04  1.798087E+05  1.872498E+04 -1.077107E-08  2.493246E-10
         2  11  1.063538E+07 -1.105462E+04  1.093673E+05  4.152936E+03  3.023235E-08 -3.039404E-09
         2  12  1.065032E+07  4.959711E+03  9.735256E+04 -1.041911E+04 -1.114482E-08  4.610628E-09
         2  13  1.064991E+07  6.247090E+04  1.798086E+05  9.865804E-08  1.638902E-08  1.084418E-09
         2  14  1.063538E+07 -1.105465E+04  1.093673E+05 -9.259121E-08  2.536181E-08  2.077646E-09
         2  15  1.065032E+07  4.959511E+03  9.735253E+04 -1.454747E-07  2.387561E-09 -4.265275E-10
         2  16  1.064991E+07  6.247155E+04  1.798087E+05 -1.872498E+04  3.584916E-08  3.596024E-09
         2  17  1.063538E+07 -1.105462E+04  1.093673E+05 -4.152936E+03 -5.079886E-09  7.419159E-09
         2  18  1.065032E+07  4.959711E+03  9.735256E+04  1.041911E+04 -2.677500E-09 -6.345972E-09
         2  19  1.064992E+07  6.247494E+04  1.798325E+05  1.872498E+04 -1.135369E+05 -3.369077E+00
         2  20  1.063539E+07 -1.105375E+04  1.093734E+05  4.152936E+03 -5.747092E+04 -3.782349E-01
         2  21  1.065032E+07  4.959712E+03  9.735256E+04 -1.041911E+04 -1.406142E+03  2.321710E-02
         2  22  1.064992E+07  6.247429E+04  1.798324E+05  2.954832E-08 -1.135369E+05  1.418356E-08
         2  23  1.063539E+07 -1.105378E+04  1.093734E+05 -9.264225E-08 -5.747092E+04  2.831985E-09
         2  24  1.065032E+07  4.959511E+03  9.735253E+04 -3.619078E-07 -1.406142E+03 -4.955651E-09
         2  25  1.064992E+07  6.247494E+04  1.798325E+05 -1.872498E+04 -1.135369E+05  3.369077E+00
         2  26  1.063539E+07 -1.105375E+04  1.093734E+05 -4.152936E+03 -5.747092E+04  3.782349E-01
         2  27  1.065032E+07  4.959712E+03  9.735256E+04  1.041911E+04 -1.406142E+03 -2.321711E-02
         3   1  1.065134E+07  2.906656E+03  9.962128E+04  1.194578E+04 -1.619067E+04 -3.064977E-01
         3   2  1.063408E+07 -1.284627E+04  1.224669E+05 -5.091116E+03 -7.904620E+04  6.377543E-01
         3   3  1.065082E+07  7.562672E+04  2.117912E+05 -2.212770E+04 -1.419027E+05  4.975999E+00
         3   4  1.065134E+07  2.906392E+03  9.962124E+04  4.794951E-08 -1.619067E+04 -5.632119E-09
         3   5  1.063408E+07 -1.284632E+04  1.224669E+05  8.605095E-08 -7.904620E+04 -9.413865E-09
         3   6  1.065082E+07  7.562581E+04  2.117911E+05 -5.766894E-07 -1.419027E+05  2.494339E-08
         3   7  1.065134E+07  2.906656E+03  9.962128E+04 -1.194578E+04 -1.619067E+04  3.064976E-01
         3   8  1.063408E+07 -1.284627E+04  1.224669E+05  5.091116E+03 -7.904620E+04 -6.377543E-01
         3   9  1.065082E+07  7.562672E+04  2.117912E+05  2.212770E+04 -1.419027E+05 -4.975999E+00
         3  10  1.065134E+07  2.906587E+03  9.962079E+04  1.194578E+04  1.740844E-08  2.960265E-09
         3  11  1.063407E+07 -1.284791E+04  1.224554E+05 -5.091116E+03  6.102659E-09 -4.470821E-09
         3  12  1.065080E+07  7.562142E+04  2.117540E+05 -2.212770E+04  9.338138E-09  2.080905E-09
         3  13  1.065134E+07  2.906324E+03  9.962075E+04  1.170144E-07 -5.106918E-10 -3.320170E-09
         3  14  1.063407E+07 -1.284796E+04  1.224554E+05 -1.212404E-07 -2.582435E-08 -1.950980E-09
         3  15  1.065080E+07  7.562052E+04  2.117539E+05 -1.518147E-07 -9.061087E-09  7.580204E-09
         3  16  1.065134E+07  2.906587E+03  9.962079E+04 -1.194578E+04  1.516486E-08 -1.103684E-08
         3  17  1.063407E+07 -1.284791E+04  1.224554E+05  5.091116E+03  1.150303E-08 -1.194260E-09
         3  18  1.065080E+07  7.562142E+04  2.117540E+05  2.212770E+04  2.562208E-08  1.335415E-08
         3  19  1.065134E+07  2.906656E+03  9.962128E+04  1.194578E+04  1.619067E+04  3.064977E-01
         3  20  1.063408E+07 -1.284627E+04  1.224669E+05 -5.091116E+03  7.904620E+04 -6.377543E-01
         3  21  1.065082E+07  7.562672E+04  2.117912E+05 -2.212770E+04  1.419027E+05 -4.975999E+00
         3  22  1.065134E+07  2.906392E+03  9.962124E+04 -1.600770E-07  1.619067E+04 -7.654071E-10
         3  23  1.063408E+07 -1.284632E+04  1.224669E+05  1.752226E-08  7.904620E+04  4.958056E-09
         3  24  1.065082E+07  7.562581E+04  2.117911E+05 -3.673263E-07  1.419027E+05 -9.442558E-09
         3  25  1.065134E+07  2.906656E+03  9.962128E+04 -1.194578E+04  1.619067E+04 -3.064977E-01
         3  26  1.063408E+07 -1.284627E+04  1.224669E+05  5.091116E+03  7.904620E+04  6.377543E-01
         3  27  1.065082E+07  7.562672E+04  2.117912E+05  2.212770E+04  1.419027E+05  4.975999E+00
         4   1  1.069868E+07 -3.475338E+04  2.534438E+05  9.151643E+04 -1.823314E+05 -2.644116E+01
         4   2  1.057408E+07 -1.053606E+05  3.932073E+05 -6.153793E+04 -3.951376E+05  3.853854E+01
         4   3  1.069490E+07  7.002926E+05  8.889889E+05 -2.146253E+05 -6.079325E+05  2.067746E+02
         4   4  1.069867E+07 -3.476885E+04  2.534416E+05 -4.999443E-07 -1.823314E+05  2.472232E-08
         4   5  1.057407E+07 -1.053676E+05  3.932063E+05 -2.260817E-07 -3.951376E+05 -7.766248E-09
         4   6  1.069486E+07  7.002075E+05  8.889768E+05 -2.464951E-07 -6.079325E+05 -6.223118E-09
         4   7  1.069868E+07 -3.475338E+04  2.534438E+05 -9.151643E+04 -1.823314E+05  2.644116E+01
         4   8  1.057408E+07 -1.053606E+05  3.932073E+05  6.153793E+04 -3.951376E+05 -3.853854E+01
         4   9  1.069490E+07  7.002926E+05  8.889889E+05  2.146253E+05 -6.079325E+05 -2.067746E+02
         4  10  1.069864E+07 -3.476211E+04  2.533824E+05  9.151643E+04 -2.550439E-09  7.536572E-09
         4  11  1.057391E+07 -1.054016E+05  3.929188E+05 -6.153792E+04 -2.738289E-08  7.430646E-09
         4  12  1.069451E+07  7.001954E+05  8.883061E+05 -2.146252E+05 -1.070501E-08  2.250188E-09
         4  13  1.069864E+07 -3.477759E+04  2.533802E+05 -1.545480E-07 -1.656352E-08  8.398766E-09
         4  14  1.057391E+07 -1.054086E+05  3.929178E+05 -1.225706E-07 -4.375098E-08  1.170428E-10
         4  15  1.069446E+07  7.001103E+05  8.882940E+05  8.249876E-08 -3.110252E-08 -1.140621E-09
         4  16  1.069864E+07 -3.476211E+04  2.533824E+05 -9.151643E+04 -5.290807E-09  1.033718E-08
         4  17  1.057391E+07 -1.054016E+05  3.929188E+05  6.153792E+04  2.423980E-08 -6.115078E-09
         4  18  1.069451E+07  7.001954E+05  8.883061E+05  2.146252E+05  6.463544E-10 -4.211863E-09
         4  19  1.069868E+07 -3.475338E+04  2.534438E+05  9.151643E+04  1.823314E+05  2.644116E+01
         4  20  1.057408E+07 -1.053606E+05  3.932073E+05 -6.153793E+04  3.951376E+05 -3.853854E+01
         4  21  1.069490E+07  7.002926E+05  8.889889E+05 -2.146253E+05  6.079325E+05 -2.067746E+02
         4  22  1.069867E+07 -3.476885E+04  2.534416E+05 -1.552789E-07  1.823314E+05 -8.223502E-09
         4  23  1.057407E+07 -1.053676E+05  3.932063E+05  8.475628E-08  3.951376E+05  8.533383E-09
         4  24  1.069486E+07  7.002075E+05  8.889768E+05 -2.548876E-07  6.079325E+05  4.053967E-09
         4  25  1.069868E+07 -3.475338E+04  2.534438E+05 -9.151643E+04  1.823314E+05 -2.644116E+01
         4  26  1.057408E+07 -1.053606E+05  3.932073E+05  6.153793E+04  3.951376E+05  3.853854E+01
         4  27  1.069490E+07  7.002926E+05  8.889889E+05  2.146253E+05  6.079325E+05  2.067746E+02
         5   1 -7.820685E+06 -2.508125E+07 -7.892284E+06  2.722033E+06 -2.727239E+05 -8.986603E+05
         5   2 -5.910966E+06 -2.023607E+07 -6.095786E+06  4.362926E+05 -7.521392E+05 -3.866389E+05
         5   3 -4.437982E+06 -1.506710E+07 -4.649564E+06  2.116851E+06 -5.564557E+05  1.169350E+05
         5   4 -6.153543E+05  3.414346E+06 -7.519630E+05  2.757434E+06 -2.680440E+05 -5.303873E+05
         5   5 -1.640003E+04  3.245033E+06 -3.921809E+05  7.698723E+05 -7.487449E+05 -3.229660E+05
         5   6  2.253426E+05  3.454367E+06 -1.536958E+05  2.742368E+06 -5.650062E+05 -1.280341E+05
         5   7  6.528338E+06  3.266290E+07  6.327560E+06  2.791027E+06 -2.634657E+05 -1.442217E+05
         5   8  5.837682E+06  2.723908E+07  5.271698E+06  1.113141E+06 -7.453592E+05 -2.566305E+05
         5   9  4.864131E+06  2.229353E+07  4.317695E+06  3.383148E+06 -5.739224E+05 -3.803709E+05
         5  10 -7.820991E+06 -2.508217E+07 -7.893998E+06  2.721832E+06 -1.238486E-08 -7.541030E-09
         5  11 -5.911617E+06 -2.023639E+07 -6.097140E+06  4.360548E+05  1.246095E-08 -2.713652E-09
         5  12 -4.438320E+06 -1.506720E+07 -4.650174E+06  2.116904E+06 -5.221923E-08  1.365653E-08
         5  13 -6.155057E+05  3.414027E+06 -7.526211E+05  2.757320E+06  1.369447E-08 -8.561225E-11
         5  14 -1.703060E+04  3.244771E+06 -3.934298E+05  7.696779E+05 -4.201462E-08  1.642329E-10
         5  15  2.249954E+05  3.454264E+06 -1.543256E+05  2.742310E+06 -1.123735E-08  3.485012E-10
         5  16  6.528259E+06  3.266286E+07  6.327393E+06  2.790997E+06 -2.923010E-08  7.655639E-09
         5  17  5.837069E+06  2.723886E+07  5.270535E+06  1.112989E+06  5.131188E-09  3.479115E-09
         5  18  4.863741E+06  2.229330E+07  4.316818E+06  3.382975E+06 -1.320020E-08 -1.481476E-08
         5  19 -7.820685E+06 -2.508125E+07 -7.892284E+06  2.722033E+06  2.727239E+05  8.986603E+05
         5  20 -5.910966E+06 -2.023607E+07 -6.095786E+06  4.362926E+05  7.521392E+05  3.866389E+05
         5  21 -4.437982E+06 -1.506710E+07 -4.649564E+06  2.116851E+06  5.564557E+05 -1.169350E+05
         5  22 -6.153543E+05  3.414346E+06 -7.519630E+05  2.757434E+06  2.680440E+05  5.303873E+05
         5  23 -1.640003E+04  3.245033E+06 -3.921809E+05  7.698723E+05  7.487449E+05  3.229660E+05
         5  24  2.253426E+05  3.454367E+06 -1.536958E+05  2.742368E+06  5.650062E+05  1.280341E+05
         5  25  6.528338E+06  3.266290E+07  6.327560E+06  2.791027E+06  2.634657E+05  1.442217E+05
         5  26  5.837682E+06  2.723908E+07  5.271698E+06  1.113141E+06  7.453592E+05  2.566305E+05
         5  27  4.864131E+06  2.229353E+07  4.317695E+06  3.383148E+06  5.739224E+05  3.803709E+05
         6   1 -2.828705E+06 -8.288352E+06 -2.970812E+06  2.352001E+06 -3.496533E+05 -5.498140E+04
         6   2 -1.641551E+06 -3.345514E+06 -1.703780E+06  5.931397E+05 -2.092217E+05 -2.416123E+04
         6   3 -2.289402E+05  1.302957E+06 -4.819443E+05  2.596877E+06 -4.724307E+04  3.430835E+03
         6   4  8.892717E+04  3.361015E+06 -1.540216E+05  2.706685E+06 -3.520197E+05 -1.172793E+05
         6   5  7.551884E+04  3.522825E+06 -4.875499E+04  8.226109E+05 -2.125181E+05 -9.636638E+04
         6   6  2.919319E+05  3.372424E+06  2.074335E+04  2.697901E+06 -5.164782E+04 -7.894320E+04
         6   7  2.996822E+06  1.513522E+07  2.653067E+06  3.066453E+06 -3.544347E+05 -1.807358E+05
         6   8  1.789243E+06  1.043439E+07  1.602929E+06  1.054099E+06 -2.158495E+05 -1.693662E+05
         6   9  8.125121E+05  5.445804E+06  5.231475E+05  2.799204E+06 -5.607151E+04 -1.615906E+05
         6  10 -2.828837E+06 -8.288388E+06 -2.971048E+06  2.351985E+06 -1.553659E-08  2.768044E-09
         6  11 -1.641598E+06 -3.345526E+06 -1.703863E+06  5.931356E+05 -4.492568E-09 -4.970771E-09
         6  12 -2.289426E+05  1.302956E+06 -4.819485E+05  2.596877E+06 -9.174320E-09  6.980635E-09
         6  13  8.879051E+04  3.360967E+06 -1.542796E+05  2.706652E+06  1.633024E-08 -1.317490E-10
         6  14  7.546783E+04  3.522803E+06 -4.885721E+04  8.225944E+05  6.271286E-09 -8.975436E-11
         6  15  2.919274E+05  3.372416E+06  2.072676E+04  2.697898E+06 -4.066565E-09 -3.761734E-10
         6  16  2.996679E+06  1.513516E+07  2.652772E+06  3.066402E+06  2.525909E-09 -3.395808E-09
         6  17  1.789185E+06  1.043435E+07  1.602789E+06  1.054070E+06 -3.758380E-08  4.441643E-09
         6  18  8.125018E+05  5.445776E+06  5.230932E+05  2.799196E+06  1.717403E-08 -8.088799E-09
         6  19 -2.828705E+06 -8.288352E+06 -2.970812E+06  2.352001E+06  3.496533E+05  5.498140E+04
         6  20 -1.641551E+06 -3.345514E+06 -1.703780E+06  5.931397E+05  2.092217E+05  2.416123E+04
         6  21 -2.289402E+05  1.302957E+06 -4.819443E+05  2.596877E+06  4.724307E+04 -3.430835E+03
         6  22  8.892717E+04  3.361015E+06 -1.540216E+05  2.706685E+06  3.520197E+05  1.172793E+05
         6  23  7.551884E+04  3.522825E+06 -4.875499E+04  8.226109E+05  2.125181E+05  9.636638E+04
         6  24  2.919319E+05  3.372424E+06  2.074335E+04  2.697901E+06  5.164782E+04  7.894320E+04
         6  25  2.996822E+06  1.513522E+07  2.653067E+06  3.066453E+06  3.544347E+05  1.807358E+05
         6  26  1.789243E+06  1.043439E+07  1.602929E+06  1.054099E+06  2.158495E+05  1.693662E+05
         6  27  8.125121E+05  5.445804E+06  5.231475E+05  2.799204E+06  5.607151E+04  1.615906E+05
         7   1  1.422186E+06  8.139912E+06  1.186050E+06  2.876720E+06  1.273428E+05  7.645728E+04
         7   2  2.393617E+06  1.305874E+07  2.373288E+06  1.159517E+06  2.950187E+05 -1.572015E+05
         7   3  3.987610E+06  1.789074E+07  3.797330E+06  3.202418E+06  1.050333E+05 -3.761601E+05
         7   4  2.441950E+05  3.406054E+06  4.713785E+04  2.704156E+06  1.182013E+05 -9.683703E+04
         7   5  1.757512E+04  3.466761E+06  8.881096E+04  8.196616E+05  2.954008E+05 -1.554999E+05
         7   6  3.871386E+05  3.390122E+06  2.498891E+05  2.697918E+06  1.125787E+05 -1.975994E+05
         7   7 -9.353577E+05 -1.307449E+06 -1.093256E+06  2.532594E+06  1.091182E+05 -2.688241E+05
         7   8 -2.364865E+06 -6.042135E+06 -2.202105E+06  4.840083E+05  2.957857E+05 -1.538112E+05
         7   9 -3.228312E+06 -1.092282E+07 -3.312768E+06  2.202674E+06  1.199366E+05 -2.307388E+04
         7  10  1.422167E+06  8.139902E+06  1.186009E+06  2.876712E+06 -6.034296E-09  9.900583E-09
         7  11  2.393517E+06  1.305869E+07  2.373079E+06  1.159554E+06  5.739500E-09  1.594228E-09
         7  12  3.987561E+06  1.789059E+07  3.797050E+06  3.202449E+06  1.627748E-08  5.129598E-11
         7  13  2.441774E+05  3.406040E+06  4.709379E+04  2.704166E+06  2.976820E-08 -5.066119E-10
         7  14  1.747473E+04  3.466712E+06  8.860124E+04  8.196986E+05 -9.711478E-09  1.104525E-10
         7  15  3.871144E+05  3.390077E+06  2.497918E+05  2.697936E+06 -4.603822E-09 -7.047566E-11
         7  16 -9.353901E+05 -1.307530E+06 -1.093415E+06  2.532617E+06  5.554819E-09 -9.974290E-09
         7  17 -2.364965E+06 -6.042184E+06 -2.202315E+06  4.840452E+05 -1.241061E-08 -1.651158E-09
         7  18 -3.228328E+06 -1.092282E+07 -3.312796E+06  2.202676E+06 -2.344177E-09 -1.605078E-10
         7  19  1.422186E+06  8.139912E+06  1.186050E+06  2.876720E+06 -1.273428E+05 -7.645728E+04
         7  20  2.393617E+06  1.305874E+07  2.373288E+06  1.159517E+06 -2.950187E+05  1.572015E+05
         7  21  3.987610E+06  1.789074E+07  3.797330E+06  3.202418E+06 -1.050333E+05  3.761601E+05
         7  22  2.441950E+05  3.406054E+06  4.713785E+04  2.704156E+06 -1.182013E+05  9.683703E+04
         7  23  1.757512E+04  3.466761E+06  8.881096E+04  8.196616E+05 -2.954008E+05  1.554999E+05
         7  24  3.871386E+05  3.390122E+06  2.498891E+05  2.697918E+06 -1.125787E+05  1.975994E+05
         7  25 -9.353577E+05 -1.307449E+06 -1.093256E+06  2.532594E+06 -1.091182E+05  2.688241E+05
         7  26 -2.364865E+06 -6.042135E+06 -2.202105E+06  4.840083E+05 -2.957857E+05  1.538112E+05
         7  27 -3.228312E+06 -1.092282E+07 -3.312768E+06  2.202674E+06 -1.199366E+05  2.307388E+04
         8   1  8.821778E+06  3.997771E+05  5.076681E+05  1.223614E+05  3.447906E+05  6.704683E+01
         8   2  8.752450E+06 -6.025715E+04  2.259360E+05  3.509676E+04  2.225962E+05  1.241617E+01
         8   3  8.823572E+06 -1.955367E+04  1.481645E+05 -5.215778E+04  1.003971E+05 -8.321375E+00
         8   4  8.821762E+06  3.997493E+05  5.076642E+05 -2.765329E-07  3.447906E+05 -3.849059E-09
         8   5  8.752449E+06 -6.025943E+04  2.259357E+05 -6.638681E-08  2.225962E+05 -7.849657E-09
         8   6  8.823569E+06 -1.955872E+04  1.481638E+05 -5.514683E-08  1.003971E+05  8.777605E-10
         8   7  8.821778E+06  3.997771E+05  5.076681E+05 -1.223614E+05  3.447906E+05 -6.704683E+01
         8   8  8.752450E+06 -6.025715E+04  2.259360E+05 -3.509676E+04  2.225962E+05 -1.241617E+01
         8   9  8.823572E+06 -1.955367E+04  1.481645E+05  5.215778E+04  1.003971E+05  8.321375E+00
         8  10  8.821652E+06  3.997457E+05  5.074478E+05  1.223614E+05 -2.931888E-09 -5.233535E-09
         8  11  8.752397E+06 -6.027022E+04  2.258442E+05  3.509675E+04 -2.230897E-08 -9.518421E-09
         8  12  8.823561E+06 -1.955633E+04  1.481458E+05 -5.215778E+04 -2.607988E-08  5.922268E-09
         8  13  8.821636E+06  3.997180E+05  5.074439E+05 -1.862218E-07 -1.808321E-08 -3.222817E-09
         8  14  8.752396E+06 -6.027251E+04  2.258439E+05  2.468174E-08  3.419801E-08 -5.485300E-09
         8  15  8.823558E+06 -1.956138E+04  1.481451E+05  2.528741E-07  3.196159E-08  6.051240E-09
         8  16  8.821652E+06  3.997457E+05  5.074478E+05 -1.223614E+05  2.005211E-08 -1.923707E-09
         8  17  8.752397E+06 -6.027022E+04  2.258442E+05 -3.509675E+04  2.224447E-08 -5.828911E-09
         8  18  8.823561E+06 -1.955633E+04  1.481458E+05  5.215778E+04  3.145020E-08 -3.328626E-09
         8  19  8.821778E+06  3.997771E+05  5.076681E+05  1.223614E+05 -3.447906E+05 -6.704683E+01
         8  20  8.752450E+06 -6.025715E+04  2.259360E+05  3.509676E+04 -2.225962E+05 -1.241617E+01
         8  21  8.823572E+06 -1.955367E+04  1.481645E+05 -5.215778E+04 -1.003971E+05  8.321375E+00
         8  22  8.821762E+06  3.997493E+05  5.076642E+05 -1.841579E-07 -3.447906E+05 -2.497327E-09
         8  23  8.752449E+06 -6.025943E+04  2.259357E+05  2.004463E-07 -2.225962E+05 -3.079981E-09
         8  24  8.823569E+06 -1.955872E+04  1.481638E+05  2.997743E-07 -1.003971E+05  1.102000E-08
         8  25  8.821778E+06  3.997771E+05  5.076681E+05 -1.223614E+05 -3.447906E+05  6.704683E+01
         8  26  8.752450E+06 -6.025715E+04  2.259360E+05 -3.509676E+04 -2.225962E+05  1.241617E+01
         8  27  8.823572E+06 -1.955367E+04  1.481645E+05  5.215778E+04 -1.003971E+05 -8.321375E+00
         9   1  8.796587E+06  4.306308E+04  1.256581E+05  1.305555E+04  7.661411E+04  1.589563E+00
         9   2  8.786259E+06 -7.796718E+03  7.840931E+04  2.836047E+03  3.646866E+04  1.643657E-01
         9   3  8.796801E+06  4.419269E+03  7.279819E+04 -7.383289E+03 -3.675678E+03  4.312793E-02
         9   4  8.796586E+06  4.306277E+04  1.256580E+05 -1.173905E-08  7.661411E+04  5.070719E-09
         9   5  8.786259E+06 -7.796733E+03  7.840931E+04  1.334533E-09  3.646866E+04  1.580305E-09
         9   6  8.796801E+06  4.419168E+03  7.279818E+04 -5.481844E-08 -3.675678E+03 -2.553304E-09
         9   7  8.796587E+06  4.306308E+04  1.256581E+05 -1.305555E+04  7.661411E+04 -1.589563E+00
         9   8  8.786259E+06 -7.796718E+03  7.840931E+04 -2.836047E+03  3.646866E+04 -1.643657E-01
         9   9  8.796801E+06  4.419269E+03  7.279819E+04  7.383289E+03 -3.675678E+03 -4.312792E-02
         9  10  8.796580E+06  4.306153E+04  1.256472E+05  1.305555E+04  2.387823E-08  3.122999E-09
         9  11  8.786258E+06 -7.797069E+03  7.840685E+04  2.836047E+03  1.372461E-08 -1.356308E-08
         9  12  8.796801E+06  4.419265E+03  7.279817E+04 -7.383289E+03 -2.267511E-08  4.381730E-09
         9  13  8.796580E+06  4.306122E+04  1.256471E+05 -6.298838E-08  1.862712E-08  4.969629E-09
         9  14  8.786258E+06 -7.797084E+03  7.840684E+04 -9.922842E-08  9.437710E-09 -7.960166E-09
         9  15  8.796801E+06  4.419164E+03  7.279815E+04 -3.173684E-08  1.572490E-08 -3.843737E-09
         9  16  8.796580E+06  4.306153E+04  1.256472E+05 -1.305555E+04  1.948063E-08 -3.775671E-10
         9  17  8.786258E+06 -7.797069E+03  7.840685E+04 -2.836047E+03  1.726206E-08 -2.086011E-09
         9  18  8.796801E+06  4.419265E+03  7.279817E+04  7.383289E+03 -2.605061E-09 -5.208792E-09
         9  19  8.796587E+06  4.306308E+04  1.256581E+05  1.305555E+04 -7.661411E+04 -1.589563E+00
         9  20  8.786259E+06 -7.796718E+03  7.840931E+04  2.836047E+03 -3.646866E+04 -1.643657E-01
         9  21  8.796801E+06  4.419269E+03  7.279819E+04 -7.383289E+03  3.675678E+03 -4.312792E-02
         9  22  8.796586E+06  4.306277E+04  1.256580E+05 -7.621082E-08 -7.661411E+04  4.759482E-09
         9  23  8.786259E+06 -7.796733E+03  7.840931E+04 -2.341018E-08 -3.646866E+04 -1.803621E-08
         9  24  8.796801E+06  4.419168E+03  7.279818E+04 -1.608771E-07  3.675678E+03 -4.893496E-09
         9  25  8.796587E+06  4.306308E+04  1.256581E+05 -1.305555E+04 -7.661411E+04  1.589563E+00
         9  26  8.786259E+06 -7.796718E+03  7.840931E+04 -2.836047E+03 -3.646866E+04  1.643657E-01
         9  27  8.796801E+06  4.419269E+03  7.279819E+04  7.383289E+03  3.675678E+03  4.312792E-02
        10   1  8.798226E+06  1.543601E+03  7.596852E+04  9.515796E+03 -1.694586E+04 -2.562590E-01
        10   2  8.784441E+06 -1.030875E+04  9.671273E+04 -4.148233E+03 -6.657846E+04  4.389111E-01
        10   3  8.797867E+06  6.148159E+04  1.703534E+05 -1.781242E+04 -1.162131E+05  3.289674E+00
        10   4  8.798226E+06  1.543433E+03  7.596850E+04  1.932571E-07 -1.694586E+04 -3.740586E-09
        10   5  8.784441E+06 -1.030878E+04  9.671272E+04  6.538798E-08 -6.657846E+04 -3.206476E-09
        10   6  8.797866E+06  6.148100E+04  1.703533E+05 -3.391944E-07 -1.162131E+05 -4.046625E-09
        10   7  8.798226E+06  1.543601E+03  7.596852E+04 -9.515796E+03 -1.694586E+04  2.562590E-01
        10   8  8.784441E+06 -1.030875E+04  9.671273E+04  4.148233E+03 -6.657846E+04 -4.389111E-01
        10   9  8.797867E+06  6.148159E+04  1.703534E+05  1.781242E+04 -1.162131E+05 -3.289674E+00
        10  10  8.798226E+06  1.543525E+03  7.596799E+04  9.515796E+03  2.568514E-08  1.059648E-08
        10  11  8.784436E+06 -1.030992E+04  9.670452E+04 -4.148233E+03  4.619295E-08 -9.017831E-10
        10  12  8.797852E+06  6.147803E+04  1.703284E+05 -1.781242E+04  4.024222E-08 -5.366047E-09
        10  13  8.798226E+06  1.543358E+03  7.596797E+04  4.551724E-08 -1.197282E-09 -5.550946E-10
        10  14  8.784436E+06 -1.030995E+04  9.670451E+04 -2.365591E-07  3.498263E-08 -4.023323E-09
        10  15  8.797852E+06  6.147744E+04  1.703283E+05 -1.209499E-07  1.436722E-08 -7.077836E-09
        10  16  8.798226E+06  1.543525E+03  7.596799E+04 -9.515796E+03 -3.423005E-08 -3.269860E-09
        10  17  8.784436E+06 -1.030992E+04  9.670452E+04  4.148233E+03 -2.124066E-08 -1.892204E-09
        10  18  8.797852E+06  6.147803E+04  1.703284E+05  1.781242E+04  1.440185E-08 -6.437480E-09
        10  19  8.798226E+06  1.543601E+03  7.596852E+04  9.515796E+03  1.694586E+04  2.562590E-01
        10  20  8.784441E+06 -1.030875E+04  9.671273E+04 -4.148233E+03  6.657846E+04 -4.389111E-01
        10  21  8.797867E+06  6.148159E+04  1.703534E+05 -1.781242E+04  1.162131E+05 -3.289674E+00
        10  22  8.798226E+06  1.543433E+03  7.596850E+04 -3.286916E-07  1.694586E+04  2.713258E-09
        10  23  8.784441E+06 -1.030878E+04  9.671272E+04 -3.500306E-07  6.657846E+04 -4.615923E-09
        10  24  8.797866E+06  6.148100E+04  1.703533E+05 -4.318930E-07  1.162131E+05 -1.017747E-08
        10  25  8.798226E+06  1.543601E+03  7.596852E+04 -9.515796E+03  1.694586E+04 -2.562590E-01
        10  26  8.784441E+06 -1.030875E+04  9.671273E+04  4.148233E+03  6.657846E+04  4.389111E-01
        10  27  8.797867E+06  6.148159E+04  1.703534E+05  1.781242E+04  1.162131E+05  3.289674E+00
        11   1  8.836730E+06 -2.829514E+04  2.045363E+05  7.417785E+04 -1.487273E+05 -1.753124E+01
        11   2  8.735738E+06 -8.561700E+04  3.185770E+05 -4.985346E+04 -3.211003E+05  2.544205E+01
        11   3  8.834195E+06  5.686752E+05  7.216746E+05 -1.739050E+05 -4.934642E+05  1.363793E+02
        11   4  8.836724E+06 -2.830534E+04  2.045348E+05  4.539774E-08 -1.487273E+05 -4.234775E-09
        11   5  8.735735E+06 -8.562160E+04  3.185764E+05  2.762877E-07 -3.211003E+05 -1.545876E-09
        11   6  8.834163E+06  5.686192E+05  7.216666E+05  2.314902E-08 -4.934641E+05  4.924785E-11
        11   7  8.836730E+06 -2.829514E+04  2.045363E+05 -7.417785E+04 -1.487273E+05  1.753124E+01
        11   8  8.735738E+06 -8.561700E+04  3.185770E+05  4.985346E+04 -3.211003E+05 -2.544205E+01
        11   9  8.834195E+06  5.686752E+05  7.216746E+05  1.739050E+05 -4.934642E+05 -1.363793E+02
        11  10  8.836706E+06 -2.830098E+04  2.044953E+05  7.417784E+04 -6.034242E-09 -1.836494E-09
        11  11  8.735628E+06 -8.564420E+04  3.183860E+05 -4.985346E+04  2.823862E-08  5.323364E-09
        11  12  8.833936E+06  5.686110E+05  7.212234E+05 -1.739049E+05  2.449200E-08  2.542772E-09
        11  13  8.836700E+06 -2.831118E+04  2.044938E+05  3.228803E-07  1.355897E-10 -3.328521E-09
        11  14  8.735626E+06 -8.564881E+04  3.183853E+05 -3.471111E-08 -9.040336E-09  5.534008E-09
        11  15  8.833904E+06  5.685549E+05  7.212154E+05  5.362123E-09  1.334315E-08  2.839968E-09
        11  16  8.836706E+06 -2.830098E+04  2.044953E+05 -7.417784E+04  1.580492E-08 -5.244986E-09
        11  17  8.735628E+06 -8.564420E+04  3.183860E+05  4.985346E+04 -1.049766E-09  6.612127E-09
        11  18  8.833936E+06  5.686110E+05  7.212234E+05  1.739049E+05  1.706336E-08  4.188129E-09
        11  19  8.836730E+06 -2.829514E+04  2.045363E+05  7.417785E+04  1.487273E+05  1.753124E+01
        11  20  8.735738E+06 -8.561700E+04  3.185770E+05 -4.985346E+04  3.211003E+05 -2.544205E+01
        11  21  8.834195E+06  5.686752E+05  7.216746E+05 -1.739050E+05  4.934642E+05 -1.363793E+02
        11  22  8.836724E+06 -2.830534E+04  2.045348E+05  4.705331E-08  1.487273E+05 -2.918034E-09
        11  23  8.735735E+06 -8.562160E+04  3.185764E+05 -6.909439E-08  3.211003E+05  1.215957E-08
        11  24  8.834163E+06  5.686192E+05  7.216666E+05 -1.248687E-07  4.934641E+05  5.535964E-09
        11  25  8.836730E+06 -2.829514E+04  2.045363E+05 -7.417785E+04  1.487273E+05 -1.753124E+01
        11  26  8.735738E+06 -8.561700E+04  3.185770E+05  4.985346E+04  3.211003E+05  2.544205E+01
        11  27  8.834195E+06  5.686752E+05  7.216746E+05  1.739050E+05  4.934642E+05  1.363793E+02
        12   1 -8.115279E+06 -2.806562E+07 -8.336678E+06  2.899978E+06 -2.675996E+05 -1.318297E+06
        12   2 -5.535166E+06 -2.291541E+07 -6.118684E+06  4.507946E+05 -7.243583E+05 -6.582104E+05
        12   3 -4.089307E+06 -1.770188E+07 -4.541485E+06  2.111679E+06 -5.164300E+05 -5.004569E+03
        12   4 -1.143891E+06 -5.938306E+05 -1.424692E+06  2.768325E+06 -2.627596E+05 -9.753677E+05
        12   5  7.508975E+04 -6.337250E+05 -6.871287E+05  7.054203E+05 -7.213850E+05 -6.078888E+05
        12   6  2.494658E+05 -5.528505E+05 -3.604906E+05  2.747221E+06 -5.249345E+05 -2.528878E+05
        12   7  5.769849E+06  2.758190E+07  5.430253E+06  2.627379E+06 -2.582153E+05 -6.159151E+05
        12   8  5.648526E+06  2.211248E+07  4.708337E+06  9.666263E+05 -7.184330E+05 -5.553791E+05
        12   9  4.567179E+06  1.687014E+07  3.799347E+06  3.397599E+06 -5.338282E+05 -5.076681E+05
        12  10 -8.115847E+06 -2.806757E+07 -8.340220E+06  2.899690E+06  1.038672E-08 -7.390435E-09
        12  11 -5.535852E+06 -2.291603E+07 -6.120513E+06  4.504044E+05  2.220652E-08  7.724334E-09
        12  12 -4.089594E+06 -1.770195E+07 -4.541986E+06  2.111677E+06  1.639792E-08  4.033913E-09
        12  13 -1.144219E+06 -5.948707E+05 -1.426606E+06  2.768120E+06  1.011094E-08  7.508021E-10
        12  14  7.443211E+04 -6.342613E+05 -6.887994E+05  7.050671E+05 -3.260642E-08 -2.936238E-11
        12  15  2.491537E+05 -5.529922E+05 -3.611256E+05  2.747115E+06  2.245682E-08  6.728981E-09
        12  16  5.769682E+06  2.758149E+07  5.429448E+06  2.627254E+06  1.004848E-09  8.141643E-09
        12  17  5.647894E+06  2.211202E+07  4.706810E+06  9.663099E+05 -4.920615E-08 -5.148668E-09
        12  18  4.566809E+06  1.686979E+07  3.798347E+06  3.397384E+06 -1.242854E-08 -8.191401E-09
        12  19 -8.115279E+06 -2.806562E+07 -8.336678E+06  2.899978E+06  2.675996E+05  1.318297E+06
        12  20 -5.535166E+06 -2.291541E+07 -6.118684E+06  4.507946E+05  7.243583E+05  6.582104E+05
        12  21 -4.089307E+06 -1.770188E+07 -4.541485E+06  2.111679E+06  5.164300E+05  5.004569E+03
        12  22 -1.143891E+06 -5.938306E+05 -1.424692E+06  2.768325E+06  2.627596E+05  9.753677E+05
        12  23  7.508975E+04 -6.337250E+05 -6.871287E+05  7.054203E+05  7.213850E+05  6.078888E+05
        12  24  2.494658E+05 -5.528505E+05 -3.604906E+05  2.747221E+06  5.249345E+05  2.528878E+05
        12  25  5.769849E+06  2.758190E+07  5.430253E+06  2.627379E+06  2.582153E+05  6.159151E+05
        12  26  5.648526E+06  2.211248E+07  4.708337E+06  9.666263E+05  7.184330E+05  5.553791E+05
        12  27  4.567179E+06  1.687014E+07  3.799347E+06  3.397599E+06  5.338282E+05  5.076681E+05
        13   1 -2.400388E+06 -1.035383E+07 -2.693635E+06  2.507662E+06 -3.006514E+05 -1.356952E+05
        13   2 -1.039390E+06 -4.921507E+06 -1.260338E+06  5.629570E+05 -1.391691E+05 -4.641917E+04
        13   3  4.136456E+05  1.434426E+05  4.692350E+04  2.742791E+06  3.698430E+04  4.122371E+04
        13   4  4.371840E+04 -6.091668E+05 -3.313346E+05  2.762968E+06 -3.034823E+05 -2.088089E+05
        13   5  9.016614E+04 -4.098183E+05 -1.702355E+05  6.982077E+05 -1.426090E+05 -1.255054E+05
        13   6  2.329534E+05 -6.006221E+05 -1.276210E+05  2.755441E+06  3.279397E+04 -4.462428E+04
        13   7  2.480920E+06  9.223307E+06  2.024138E+06  3.021220E+06 -3.063498E+05 -2.830604E+05
        13   8  1.218263E+06  4.120616E+06  9.184293E+05  8.342355E+05 -1.460705E+05 -2.051658E+05
        13   9  5.222857E+04 -1.344158E+06 -3.021747E+05  2.768070E+06  2.859738E+04 -1.303698E+05
        13  10 -2.400490E+06 -1.035387E+07 -2.693839E+06  2.507629E+06  1.881569E-08 -7.606656E-09
        13  11 -1.039412E+06 -4.921515E+06 -1.260378E+06  5.629517E+05  1.227068E-08  8.115333E-09
        13  12  4.136437E+05  1.434404E+05  4.691777E+04  2.742790E+06  3.053084E-08  3.078578E-09
        13  13  4.360822E+04 -6.092380E+05 -3.315883E+05  2.762917E+06  7.488067E-09  4.317804E-09
        13  14  9.014010E+04 -4.098407E+05 -1.703032E+05  6.981933E+05 -3.275748E-08 -1.214939E-09
        13  15  2.329517E+05 -6.006246E+05 -1.276268E+05  2.755442E+06  6.438270E-09  9.251029E-09
        13  16  2.480799E+06  9.223198E+06  2.023816E+06  3.021150E+06  1.041122E-08  9.042286E-09
        13  17  1.218229E+06  4.120565E+06  9.183108E+05  8.342114E+05  1.325743E-08 -4.337242E-09
        13  18  5.222309E+04 -1.344177E+06 -3.022084E+05  2.768073E+06 -1.433219E-08 -7.141858E-09
        13  19 -2.400388E+06 -1.035383E+07 -2.693635E+06  2.507662E+06  3.006514E+05  1.356952E+05
        13  20 -1.039390E+06 -4.921507E+06 -1.260338E+06  5.629570E+05  1.391691E+05  4.641917E+04
        13  21  4.136456E+05  1.434426E+05  4.692350E+04  2.742791E+06 -3.698430E+04 -4.122371E+04
        13  22  4.371840E+04 -6.091668E+05 -3.313346E+05  2.762968E+06  3.034823E+05  2.088089E+05
        13  23  9.016614E+04 -4.098183E+05 -1.702355E+05  6.982077E+05  1.426090E+05  1.255054E+05
        13  24  2.329534E+05 -6.006221E+05 -1.276210E+05  2.755441E+06 -3.279397E+04  4.462428E+04
        13  25  2.480920E+06  9.223307E+06  2.024138E+06  3.021220E+06  3.063498E+05  2.830604E+05
        13  26  1.218263E+06  4.120616E+06  9.184293E+05  8.342355E+05  1.460705E+05  2.051658E+05
        13  27  5.222857E+04 -1.344158E+06 -3.021747E+05  2.768070E+06 -2.859738E+04  1.303698E+05
        14   1  2.307471E+06  7.716900E+06  1.886616E+06  3.077719E+06  2.388373E+05  1.671499E+05
        14   2  3.390815E+06  1.305517E+07  3.098647E+06  1.052456E+06  4.265959E+05  8.257923E+03
        14   3  4.645027E+06  1.835886E+07  4.420857E+06  3.134793E+06  1.586652E+05 -1.351104E+05
        14   4  2.424376E+05 -5.557564E+05 -1.041339E+05  2.753086E+06  2.293501E+05 -3.790378E+04
        14   5  3.511948E+04 -5.171012E+05 -1.387128E+05  7.008198E+05  4.277977E+05  2.427068E+04
        14   6 -4.088579E+04 -5.805690E+05 -2.149801E+05  2.761909E+06  1.661482E+05  1.034042E+05
        14   7 -1.827379E+06 -8.766102E+06 -2.099610E+06  2.431908E+06  2.200082E+05 -2.402551E+05
        14   8 -3.333646E+06 -1.392256E+07 -3.389034E+06  3.551764E+05  4.289979E+05  3.993200E+04
        14   9 -4.752995E+06 -1.919911E+07 -4.876867E+06  2.397124E+06  1.734773E+05  3.347709E+05
        14  10  2.307403E+06  7.716855E+06  1.886458E+06  3.077687E+06  1.606938E-08 -4.448359E-09
        14  11  3.390620E+06  1.305512E+07  3.098305E+06  1.052454E+06 -8.656435E-09  7.114807E-09
        14  12  4.644995E+06  1.835884E+07  4.420776E+06  3.134810E+06 -6.937534E-09  6.491525E-09
        14  13  2.423806E+05 -5.557721E+05 -1.042356E+05  2.753094E+06  7.186110E-10  5.987062E-09
        14  14  3.492284E+04 -5.171510E+05 -1.390577E+05  7.008115E+05 -2.779782E-08  6.993575E-10
        14  15 -4.091818E+04 -5.805878E+05 -2.150518E+05  2.761895E+06  1.428067E-09  5.602350E-09
        14  16 -1.827447E+06 -8.766178E+06 -2.099811E+06  2.431950E+06 -1.482033E-08  8.052853E-09
        14  17 -3.333845E+06 -1.392262E+07 -3.389383E+06  3.551625E+05 -4.942792E-09 -2.097138E-09
        14  18 -4.753058E+06 -1.919925E+07 -4.877140E+06  2.397077E+06 -4.932859E-09 -8.630807E-09
        14  19  2.307471E+06  7.716900E+06  1.886616E+06  3.077719E+06 -2.388373E+05 -1.671499E+05
        14  20  3.390815E+06  1.305517E+07  3.098647E+06  1.052456E+06 -4.265959E+05 -8.257923E+03
        14  21  4.645027E+06  1.835886E+07  4.420857E+06  3.134793E+06 -1.586652E+05  1.351104E+05
        14  22  2.424376E+05 -5.557564E+05 -1.041339E+05  2.753086E+06 -2.293501E+05  3.790378E+04
        14  23  3.511948E+04 -5.171012E+05 -1.387128E+05  7.008198E+05 -4.277977E+05 -2.427068E+04
        14  24 -4.088579E+04 -5.805690E+05 -2.149801E+05  2.761909E+06 -1.661482E+05 -1.034042E+05
        14  25 -1.827379E+06 -8.766102E+06 -2.099610E+06  2.431908E+06 -2.200082E+05  2.402551E+05
        14  26 -3.333646E+06 -1.392256E+07 -3.389034E+06  3.551764E+05 -4.289979E+05 -3.993200E+04
        14  27 -4.752995E+06 -1.919911E+07 -4.876867E+06  2.397124E+06 -1.734773E+05 -3.347709E+05
        15   1  7.199806E+06  3.059163E+05  3.884783E+05  9.347836E+04  2.632327E+05  3.920097E+01
        15   2  7.146566E+06 -4.615081E+04  1.730389E+05  2.681156E+04  1.696909E+05  7.248459E+00
        15   3  7.200927E+06 -1.491434E+04  1.138340E+05 -3.984831E+04  7.614782E+04 -4.833876E+00
        15   4  7.199797E+06  3.059000E+05  3.884760E+05 -4.540358E-08  2.632327E+05 -4.111538E-09
        15   5  7.146565E+06 -4.615214E+04  1.730387E+05  1.147698E-07  1.696909E+05 -7.238975E-09
        15   6  7.200925E+06 -1.491729E+04  1.138336E+05  1.571784E-08  7.614782E+04  8.367192E-09
        15   7  7.199806E+06  3.059163E+05  3.884783E+05 -9.347836E+04  2.632327E+05 -3.920097E+01
        15   8  7.146566E+06 -4.615081E+04  1.730389E+05 -2.681156E+04  1.696909E+05 -7.248459E+00
        15   9  7.200927E+06 -1.491434E+04  1.138340E+05  3.984831E+04  7.614782E+04  4.833876E+00
        15  10  7.199732E+06  3.058979E+05  3.883496E+05  9.347836E+04 -1.580927E-08 -7.399553E-10
        15  11  7.146535E+06 -4.615843E+04  1.729854E+05  2.681156E+04  1.354633E-09  1.232509E-09
        15  12  7.200921E+06 -1.491587E+04  1.138233E+05 -3.984831E+04  1.039276E-08  6.009431E-09
        15  13  7.199723E+06  3.058817E+05  3.883473E+05  9.283091E-08 -7.101844E-10 -7.913373E-10
        15  14  7.146534E+06 -4.615977E+04  1.729852E+05  1.841497E-07  1.728371E-08  3.546908E-10
        15  15  7.200919E+06 -1.491882E+04  1.138228E+05  3.446281E-07  3.417719E-08  8.321102E-09
        15  16  7.199732E+06  3.058979E+05  3.883496E+05 -9.347836E+04 -8.324911E-09 -9.944781E-10
        15  17  7.146535E+06 -4.615843E+04  1.729854E+05 -2.681156E+04 -2.008379E-08 -1.206312E-09
        15  18  7.200921E+06 -1.491587E+04  1.138233E+05  3.984831E+04 -1.838071E-08  8.810550E-09
        15  19  7.199806E+06  3.059163E+05  3.884783E+05  9.347836E+04 -2.632327E+05 -3.920097E+01
        15  20  7.146566E+06 -4.615081E+04  1.730389E+05  2.681156E+04 -1.696909E+05 -7.248459E+00
        15  21  7.200927E+06 -1.491434E+04  1.138340E+05 -3.984831E+04 -7.614782E+04  4.833876E+00
        15  22  7.199797E+06  3.059000E+05  3.884760E+05  2.359724E-08 -2.632327E+05  2.409827E-09
        15  23  7.146565E+06 -4.615214E+04  1.730387E+05  8.074870E-08 -1.696909E+05  8.199986E-09
        15  24  7.200925E+06 -1.491729E+04  1.138336E+05 -1.212864E-07 -7.614782E+04  8.107178E-09
        15  25  7.199806E+06  3.059163E+05  3.884783E+05 -9.347836E+04 -2.632327E+05  3.920097E+01
        15  26  7.146566E+06 -4.615081E+04  1.730389E+05 -2.681156E+04 -1.696909E+05  7.248459E+00
        15  27  7.200927E+06 -1.491434E+04  1.138340E+05  3.984831E+04 -7.614782E+04 -4.833876E+00
        16   1  7.180360E+06  3.294505E+04  9.680634E+04  1.004437E+04  5.787232E+04  9.260539E-01
        16   2  7.172322E+06 -6.041695E+03  6.121750E+04  2.156817E+03  2.655539E+04  9.124561E-02
        16   3  7.180490E+06  3.806326E+03  5.805547E+04 -5.730842E+03 -4.761709E+03  4.347322E-02
        16   4  7.180360E+06  3.294486E+04  9.680631E+04 -1.143772E-07  5.787232E+04  8.642594E-09
        16   5  7.172322E+06 -6.041703E+03  6.121749E+04 -1.033053E-07  2.655539E+04 -5.118360E-09
        16   6  7.180489E+06  3.806265E+03  5.805546E+04 -2.477871E-07 -4.761709E+03  1.103635E-09
        16   7  7.180360E+06  3.294505E+04  9.680634E+04 -1.004437E+04  5.787232E+04 -9.260538E-01
        16   8  7.172322E+06 -6.041695E+03  6.121750E+04 -2.156817E+03  2.655539E+04 -9.124562E-02
        16   9  7.180490E+06  3.806326E+03  5.805547E+04  5.730842E+03 -4.761709E+03 -4.347322E-02
        16  10  7.180356E+06  3.294417E+04  9.680012E+04  1.004437E+04  2.813948E-08  4.350538E-09
        16  11  7.172321E+06 -6.041882E+03  6.121618E+04  2.156817E+03  6.624025E-09 -7.197946E-09
        16  12  7.180490E+06  3.806320E+03  5.805542E+04 -5.730842E+03 -3.038668E-08 -1.005024E-08
        16  13  7.180356E+06  3.294398E+04  9.680009E+04  1.607223E-07  1.605807E-08  3.993822E-09
        16  14  7.172321E+06 -6.041890E+03  6.121618E+04  1.038342E-07  1.129265E-08 -9.842285E-09
        16  15  7.180489E+06  3.806259E+03  5.805542E+04 -2.122734E-07 -8.802496E-09 -3.616881E-09
        16  16  7.180356E+06  3.294417E+04  9.680012E+04 -1.004437E+04 -1.139875E-08  3.775923E-09
        16  17  7.172321E+06 -6.041882E+03  6.121618E+04 -2.156817E+03  1.146552E-08 -1.194266E-08
        16  18  7.180490E+06  3.806320E+03  5.805542E+04  5.730842E+03 -1.330522E-08  1.903136E-09
        16  19  7.180360E+06  3.294505E+04  9.680634E+04  1.004437E+04 -5.787232E+04 -9.260539E-01
        16  20  7.172322E+06 -6.041695E+03  6.121750E+04  2.156817E+03 -2.655539E+04 -9.124562E-02
        16  21  7.180490E+06  3.806326E+03  5.805547E+04 -5.730842E+03  4.761709E+03 -4.347324E-02
        16  22  7.180360E+06  3.294486E+04  9.680631E+04 -1.863195E-07 -5.787232E+04 -4.217509E-10
        16  23  7.172322E+06 -6.041703E+03  6.121749E+04  1.727371E-07 -2.655539E+04 -1.383876E-08
        16  24  7.180489E+06  3.806265E+03  5.805546E+04 -1.163190E-07  4.761709E+03 -8.416749E-09
        16  25  7.180360E+06  3.294505E+04  9.680634E+04 -1.004437E+04 -5.787232E+04  9.260539E-01
        16  26  7.172322E+06 -6.041695E+03  6.121750E+04 -2.156817E+03 -2.655539E+04  9.124559E-02
        16  27  7.180490E+06  3.806326E+03  5.805547E+04  5.730842E+03  4.761709E+03  4.347323E-02
        17   1  7.181885E+06  9.873152E+02  6.115714E+04  7.816473E+03 -1.538027E+04 -1.915202E-01
        17   2  7.170548E+06 -8.505470E+03  7.913041E+04 -3.441486E+03 -5.597941E+04  3.069177E-01
        17   3  7.181639E+06  5.099825E+04  1.405660E+05 -1.469941E+04 -9.657946E+04  2.261664E+00
        17   4  7.181885E+06  9.872017E+02  6.115713E+04  8.860315E-08 -1.538027E+04  9.729302E-09
        17   5  7.170548E+06 -8.505492E+03  7.913041E+04  1.380424E-07 -5.597941E+04  7.847676E-09
        17   6  7.181639E+06  5.099785E+04  1.405659E+05 -2.564944E-09 -9.657946E+04 -1.069411E-08
        17   7  7.181885E+06  9.873152E+02  6.115714E+04 -7.816473E+03 -1.538027E+04  1.915202E-01
        17   8  7.170548E+06 -8.505470E+03  7.913041E+04  3.441486E+03 -5.597941E+04 -3.069176E-01
        17   9  7.181639E+06  5.099825E+04  1.405660E+05  1.469941E+04 -9.657946E+04 -2.261664E+00
        17  10  7.181885E+06  9.872526E+02  6.115671E+04  7.816473E+03 -1.015022E-08 -2.126356E-09
        17  11  7.170545E+06 -8.506299E+03  7.912459E+04 -3.441486E+03  1.585656E-08  7.632795E-09
        17  12  7.181629E+06  5.099578E+04  1.405486E+05 -1.469941E+04  1.121767E-08  3.816449E-10
        17  13  7.181885E+06  9.871390E+02  6.115669E+04 -2.394804E-08  6.770092E-11  1.161061E-09
        17  14  7.170545E+06 -8.506321E+03  7.912459E+04  1.291512E-07  6.704495E-09 -1.796908E-09
        17  15  7.181629E+06  5.099538E+04  1.405486E+05 -1.325504E-07  6.032305E-08 -5.560633E-09
        17  16  7.181885E+06  9.872526E+02  6.115671E+04 -7.816473E+03 -1.561943E-08  7.198207E-09
        17  17  7.170545E+06 -8.506299E+03  7.912459E+04  3.441486E+03  1.425733E-09 -8.396931E-10
        17  18  7.181629E+06  5.099578E+04  1.405486E+05  1.469941E+04 -7.358999E-10  5.759819E-09
        17  19  7.181885E+06  9.873152E+02  6.115714E+04  7.816473E+03  1.538027E+04  1.915202E-01
        17  20  7.170548E+06 -8.505470E+03  7.913041E+04 -3.441486E+03  5.597941E+04 -3.069176E-01
        17  21  7.181639E+06  5.099825E+04  1.405660E+05 -1.469941E+04  9.657946E+04 -2.261664E+00
        17  22  7.181885E+06  9.872017E+02  6.115713E+04 -1.674666E-07  1.538027E+04 -7.470300E-09
        17  23  7.170548E+06 -8.505492E+03  7.913041E+04 -1.181537E-07  5.597941E+04 -1.164833E-08
        17  24  7.181639E+06  5.099785E+04  1.405659E+05 -1.897837E-07  9.657946E+04 -3.647084E-10
        17  25  7.181885E+06  9.873152E+02  6.115714E+04 -7.816473E+03  1.538027E+04 -1.915202E-01
        17  26  7.170548E+06 -8.505470E+03  7.913041E+04  3.441486E+03  5.597941E+04  3.069176E-01
        17  27  7.181639E+06  5.099825E+04  1.405660E+05  1.469941E+04  9.657946E+04  2.261664E+00
        18   1  7.213822E+06 -2.347765E+04  1.690248E+05  6.138885E+04 -1.233893E+05 -1.206669E+01
        18   2  7.130236E+06 -7.101785E+04  2.637418E+05 -4.124352E+04 -2.660491E+05  1.748216E+01
        18   3  7.212108E+06  4.713944E+05  5.981025E+05 -1.438882E+05 -4.087005E+05  9.368690E+01
        18   4  7.213818E+06 -2.348465E+04  1.690238E+05 -1.990820E-07 -1.233893E+05 -9.565908E-09
        18   5  7.130234E+06 -7.102101E+04  2.637413E+05 -4.581869E-08 -2.660491E+05  9.008149E-09
        18   6  7.212086E+06  4.713560E+05  5.980970E+05 -7.393860E-08 -4.087005E+05  6.356699E-09
        18   7  7.213822E+06 -2.347765E+04  1.690248E+05 -6.138885E+04 -1.233893E+05  1.206669E+01
        18   8  7.130236E+06 -7.101785E+04  2.637418E+05  4.124352E+04 -2.660491E+05 -1.748216E+01
        18   9  7.212108E+06  4.713944E+05  5.981025E+05  1.438882E+05 -4.087005E+05 -9.368690E+01
        18  10  7.213805E+06 -2.348168E+04  1.689965E+05  6.138885E+04  1.936202E-08 -1.105065E-09
        18  11  7.130160E+06 -7.103658E+04  2.636103E+05 -4.124352E+04  2.737751E-08  3.784430E-09
        18  12  7.211930E+06  4.713502E+05  5.977921E+05 -1.438882E+05 -5.977921E-09  1.807184E-09
        18  13  7.213801E+06 -2.348868E+04  1.689955E+05  5.153821E-08  1.890211E-08 -6.721622E-09
        18  14  7.130158E+06 -7.103974E+04  2.636098E+05  6.668730E-08  4.193290E-08 -5.305070E-09
        18  15  7.211908E+06  4.713117E+05  5.977867E+05  3.003561E-08  4.936946E-09 -1.444108E-09
        18  16  7.213805E+06 -2.348168E+04  1.689965E+05 -6.138885E+04 -1.172916E-08  5.384103E-09
        18  17  7.130160E+06 -7.103658E+04  2.636103E+05  4.124352E+04 -7.051174E-09 -4.306711E-09
        18  18  7.211930E+06  4.713502E+05  5.977921E+05  1.438882E+05  1.890168E-08 -2.686982E-09
        18  19  7.213822E+06 -2.347765E+04  1.690248E+05  6.138885E+04  1.233893E+05  1.206669E+01
        18  20  7.130236E+06 -7.101785E+04  2.637418E+05 -4.124352E+04  2.660491E+05 -1.748216E+01
        18  21  7.212108E+06  4.713944E+05  5.981025E+05 -1.438882E+05  4.087005E+05 -9.368690E+01
        18  22  7.213818E+06 -2.348465E+04  1.690238E+05 -3.579429E-07  1.233893E+05 -3.946755E-09
        18  23  7.130234E+06 -7.102101E+04  2.637413E+05  2.909908E-09  2.660491E+05 -1.882910E-08
        18  24  7.212086E+06  4.713560E+05  5.980970E+05 -1.027884E-07  4.087005E+05 -9.028581E-09
        18  25  7.213822E+06 -2.347765E+04  1.690248E+05 -6.138885E+04  1.233893E+05 -1.206669E+01
        18  26  7.130236E+06 -7.101785E+04  2.637418E+05  4.124352E+04  2.660491E+05  1.748216E+01
        18  27  7.212108E+06  4.713944E+05  5.981025E+05  1.438882E+05  4.087005E+05  9.368690E+01
        19   1 -7.074396E+06 -2.455660E+07 -7.244345E+06  2.519186E+06 -2.347844E+05 -1.083609E+06
        19   2 -4.924176E+06 -2.006997E+07 -5.371733E+06  4.201325E+05 -6.404741E+05 -5.306053E+05
        19   3 -3.681614E+06 -1.553555E+07 -4.026885E+06  1.891448E+06 -4.618774E+05  1.686650E+04
        19   4 -9.084766E+05 -2.023198E+05 -1.131827E+06  2.410869E+06 -2.310732E+05 -7.746616E+05
        19   5  5.955240E+04 -2.348936E+05 -5.463773E+05  6.205366E+05 -6.380900E+05 -4.826305E+05
        19   6  1.928596E+05 -1.708565E+05 -2.882268E+05  2.396124E+06 -4.684450E+05 -2.002013E+05
        19   7  5.212288E+06  2.470331E+07  4.936043E+06  2.295943E+06 -2.275718E+05 -4.527200E+05
        19   8  5.014182E+06  1.996719E+07  4.250479E+06  8.255343E+05 -6.357204E+05 -4.328794E+05
        19   9  4.050350E+06  1.541320E+07  3.433497E+06  2.911331E+06 -4.752835E+05 -4.226767E+05
        19  10 -7.074785E+06 -2.455792E+07 -7.246739E+06  2.518979E+06  4.997778E-09  1.260604E-08
        19  11 -4.924696E+06 -2.007039E+07 -5.373049E+06  4.198549E+05 -2.218917E-08  1.881892E-08
        19  12 -3.681844E+06 -1.553560E+07 -4.027286E+06  1.891455E+06  3.504284E-08 -4.229951E-09
        19  13 -9.086941E+05 -2.029781E+05 -1.133052E+06  2.410725E+06  5.304585E-09  1.244260E-09
        19  14  5.905287E+04 -2.352527E+05 -5.475790E+05  6.202886E+05  1.318059E-08 -2.375139E-10
        19  15  1.926137E+05 -1.709579E+05 -2.887127E+05  2.396049E+06 -1.909512E-08  1.657903E-08
        19  16  5.212181E+06  2.470308E+07  4.935576E+06  2.295861E+06 -1.207485E-08 -1.273876E-08
        19  17  5.013700E+06  1.996688E+07  4.249380E+06  8.253158E+05  4.032246E-09 -2.721836E-08
        19  18  4.050063E+06  1.541296E+07  3.432749E+06  2.911172E+06  8.842570E-10  5.443290E-09
        19  19 -7.074396E+06 -2.455660E+07 -7.244345E+06  2.519186E+06  2.347844E+05  1.083609E+06
        19  20 -4.924176E+06 -2.006997E+07 -5.371733E+06  4.201325E+05  6.404741E+05  5.306053E+05
        19  21 -3.681614E+06 -1.553555E+07 -4.026885E+06  1.891448E+06  4.618774E+05 -1.686650E+04
        19  22 -9.084766E+05 -2.023198E+05 -1.131827E+06  2.410869E+06  2.310732E+05  7.746616E+05
        19  23  5.955240E+04 -2.348936E+05 -5.463773E+05  6.205366E+05  6.380900E+05  4.826305E+05
        19  24  1.928596E+05 -1.708565E+05 -2.882268E+05  2.396124E+06  4.684450E+05  2.002013E+05
        19  25  5.212288E+06  2.470331E+07  4.936043E+06  2.295943E+06  2.275718E+05  4.527200E+05
        19  26  5.014182E+06  1.996719E+07  4.250479E+06  8.255343E+05  6.357204E+05  4.328794E+05
        19  27  4.050350E+06  1.541320E+07  3.433497E+06  2.911331E+06  4.752835E+05  4.226767E+05
        20   1 -2.208643E+06 -9.152520E+06 -2.429788E+06  2.195911E+06 -2.732174E+05 -1.022431E+05
        20   2 -1.031148E+06 -4.465714E+06 -1.202292E+06  4.989288E+05 -1.348507E+05 -2.809716E+04
        20   3  2.141136E+05 -6.147378E+04 -7.539830E+04  2.373386E+06  1.788334E+04  4.454637E+04
        20   4  2.939773E+04 -2.139836E+05 -2.650481E+05  2.405287E+06 -2.753361E+05 -1.645530E+05
        20   5  6.999404E+04 -6.073104E+04 -1.386969E+05  6.178767E+05 -1.374990E+05 -9.651273E+04
        20   6  1.818763E+05 -2.068573E+05 -1.061974E+05  2.399893E+06  1.459189E+04 -3.053871E+04
        20   7  2.261625E+06  8.798324E+06  1.893956E+06  2.616883E+06 -2.774808E+05 -2.277532E+05
        20   8  1.169740E+06  4.362103E+06  9.235255E+05  7.374925E+05 -1.401641E+05 -1.654131E+05
        20   9  1.496438E+05 -3.522068E+05 -1.369760E+05  2.426393E+06  1.129358E+04 -1.056064E+05
        20  10 -2.208726E+06 -9.152551E+06 -2.429948E+06  2.195889E+06 -2.724478E-08 -8.012597E-09
        20  11 -1.031168E+06 -4.465719E+06 -1.202328E+06  4.989258E+05 -2.870025E-08  1.469205E-08
        20  12  2.141128E+05 -6.147599E+04 -7.540261E+04  2.373385E+06 -6.220564E-09  1.408439E-08
        20  13  2.930932E+04 -2.140328E+05 -2.652406E+05  2.405250E+06  5.204235E-09  1.036256E-08
        20  14  6.997126E+04 -6.074610E+04 -1.387498E+05  6.178660E+05 -4.762631E-08  1.453478E-09
        20  15  1.818758E+05 -2.068584E+05 -1.061996E+05  2.399893E+06  1.757696E-08  2.177981E-08
        20  16  2.261529E+06  8.798249E+06  1.893717E+06  2.616832E+06 -6.059827E-10  9.159917E-09
        20  17  1.169712E+06  4.362068E+06  9.234377E+05  7.374739E+05 -4.548394E-08 -2.875138E-08
        20  18  1.496407E+05 -3.522188E+05 -1.369972E+05  2.426394E+06  2.599490E-09 -1.232626E-08
        20  19 -2.208643E+06 -9.152520E+06 -2.429788E+06  2.195911E+06  2.732174E+05  1.022431E+05
        20  20 -1.031148E+06 -4.465714E+06 -1.202292E+06  4.989288E+05  1.348507E+05  2.809716E+04
        20  21  2.141136E+05 -6.147378E+04 -7.539830E+04  2.373386E+06 -1.788334E+04 -4.454637E+04
        20  22  2.939773E+04 -2.139836E+05 -2.650481E+05  2.405287E+06  2.753361E+05  1.645530E+05
        20  23  6.999404E+04 -6.073104E+04 -1.386969E+05  6.178767E+05  1.374990E+05  9.651273E+04
        20  24  1.818763E+05 -2.068573E+05 -1.061974E+05  2.399893E+06 -1.459189E+04  3.053871E+04
        20  25  2.261625E+06  8.798324E+06  1.893956E+06  2.616883E+06  2.774808E+05  2.277532E+05
        20  26  1.169740E+06  4.362103E+06  9.235255E+05  7.374925E+05  1.401641E+05  1.654131E+05
        20  27  1.496438E+05 -3.522068E+05 -1.369760E+05  2.426393E+06 -1.129358E+04  1.056064E+05
        21   1  1.850932E+06  6.478350E+06  1.512373E+06  2.638722E+06  1.906973E+05  1.514279E+05
        21   2  2.816765E+06  1.111415E+07  2.566539E+06  8.862575E+05  3.542819E+05  1.892624E+04
        21   3  3.891912E+06  1.568793E+07  3.700564E+06  2.695182E+06  1.330575E+05 -1.013733E+05
        21   4  1.907575E+05 -1.785602E+05 -9.052787E+04  2.398549E+06  1.833585E+05 -2.366337E+04
        21   5  3.611385E+04 -1.295491E+05 -1.175265E+05  6.191617E+05  3.550851E+05  3.017895E+04
        21   6 -4.222832E+04 -1.963519E+05 -1.928639E+05  2.405249E+06  1.389212E+05  9.724948E+04
        21   7 -1.472530E+06 -6.795091E+06 -1.696478E+06  2.160447E+06  1.761123E+05 -1.968961E+05
        21   8 -2.753537E+06 -1.125861E+07 -2.810495E+06  3.558414E+05  3.558879E+05  4.122559E+04
        21   9 -3.994845E+06 -1.585446E+07 -4.104648E+06  2.120609E+06  1.446854E+05  2.908658E+05
        21  10  1.850887E+06  6.478316E+06  1.512263E+06  2.638699E+06  1.847035E-08  1.299125E-08
        21  11  2.816631E+06  1.111412E+07  2.566303E+06  8.862522E+05  1.769848E-08  2.399677E-08
        21  12  3.891890E+06  1.568791E+07  3.700511E+06  2.695193E+06 -5.808877E-09  3.934896E-09
        21  13  1.907213E+05 -1.785699E+05 -9.059216E+04  2.398553E+06  1.114475E-08  1.079171E-08
        21  14  3.597822E+04 -1.295839E+05 -1.177651E+05  6.191531E+05 -5.843773E-09  2.662244E-10
        21  15 -4.225150E+04 -1.963672E+05 -1.929177E+05  2.405239E+06 -1.911325E-08  1.320347E-08
        21  16 -1.472574E+06 -6.795141E+06 -1.696610E+06  2.160475E+06  1.211372E-08 -1.236695E-08
        21  17 -2.753673E+06 -1.125865E+07 -2.810736E+06  3.558295E+05 -2.683779E-08 -3.655894E-08
        21  18 -3.994890E+06 -1.585456E+07 -4.104850E+06  2.120575E+06 -2.724083E-08 -3.396785E-09
        21  19  1.850932E+06  6.478350E+06  1.512373E+06  2.638722E+06 -1.906973E+05 -1.514279E+05
        21  20  2.816765E+06  1.111415E+07  2.566539E+06  8.862575E+05 -3.542819E+05 -1.892624E+04
        21  21  3.891912E+06  1.568793E+07  3.700564E+06  2.695182E+06 -1.330575E+05  1.013733E+05
        21  22  1.907575E+05 -1.785602E+05 -9.052787E+04  2.398549E+06 -1.833585E+05  2.366337E+04
        21  23  3.611385E+04 -1.295491E+05 -1.175265E+05  6.191617E+05 -3.550851E+05 -3.017895E+04
        21  24 -4.222832E+04 -1.963519E+05 -1.928639E+05  2.405249E+06 -1.389212E+05 -9.724948E+04
        21  25 -1.472530E+06 -6.795091E+06 -1.696478E+06  2.160447E+06 -1.761123E+05  1.968961E+05
        21  26 -2.753537E+06 -1.125861E+07 -2.810495E+06  3.558414E+05 -3.558879E+05 -4.122559E+04
        21  27 -3.994845E+06 -1.585446E+07 -4.104648E+06  2.120609E+06 -1.446854E+05 -2.908658E+05
        22   1  5.740297E+06  2.343483E+05  2.975992E+05  7.150052E+04  2.012367E+05  2.297345E+01
        22   2  5.699380E+06 -3.538348E+04  1.326527E+05  2.050749E+04  1.295592E+05  4.242337E+00
        22   3  5.740981E+06 -1.139237E+04  8.750271E+04 -3.048280E+04  5.787901E+04 -2.816904E+00
        22   4  5.740291E+06  2.343388E+05  2.975978E+05 -7.531128E-08  2.012367E+05 -2.033771E-09
        22   5  5.699380E+06 -3.538427E+04  1.326526E+05  5.119088E-07  1.295592E+05 -1.416933E-09
        22   6  5.740980E+06 -1.139410E+04  8.750247E+04  1.972642E-08  5.787901E+04  7.475748E-09
        22   7  5.740297E+06  2.343483E+05  2.975992E+05 -7.150052E+04  2.012367E+05 -2.297345E+01
        22   8  5.699380E+06 -3.538348E+04  1.326527E+05 -2.050749E+04  1.295592E+05 -4.242337E+00
        22   9  5.740981E+06 -1.139237E+04  8.750271E+04  3.048280E+04  5.787901E+04  2.816904E+00
        22  10  5.740254E+06  2.343375E+05  2.975238E+05  7.150052E+04  1.363198E-08 -7.463434E-09
        22  11  5.699362E+06 -3.538794E+04  1.326215E+05  2.050749E+04  1.757659E-08 -1.291649E-08
        22  12  5.740978E+06 -1.139326E+04  8.749648E+04 -3.048280E+04  8.850871E-09  1.013883E-08
        22  13  5.740248E+06  2.343280E+05  2.975224E+05  1.312996E-07  6.762320E-11 -3.983362E-09
        22  14  5.699362E+06 -3.538872E+04  1.326214E+05  2.358362E-07  3.608392E-08 -7.972327E-09
        22  15  5.740977E+06 -1.139499E+04  8.749623E+04  2.885773E-07  1.251662E-08  4.153455E-09
        22  16  5.740254E+06  2.343375E+05  2.975238E+05 -7.150052E+04 -2.351423E-08 -4.986889E-10
        22  17  5.699362E+06 -3.538794E+04  1.326215E+05 -2.050749E+04 -3.155673E-08 -2.635582E-09
        22  18  5.740978E+06 -1.139326E+04  8.749648E+04  3.048280E+04 -3.817584E-09 -1.842596E-09
        22  19  5.740297E+06  2.343483E+05  2.975992E+05  7.150052E+04 -2.012367E+05 -2.297345E+01
        22  20  5.699380E+06 -3.538348E+04  1.326527E+05  2.050749E+04 -1.295592E+05 -4.242337E+00
        22  21  5.740981E+06 -1.139237E+04  8.750271E+04 -3.048280E+04 -5.787901E+04  2.816904E+00
        22  22  5.740291E+06  2.343388E+05  2.975978E+05 -2.838518E-07 -2.012367E+05 -6.467816E-09
        22  23  5.699380E+06 -3.538427E+04  1.326526E+05 -4.023289E-08 -1.295592E+05 -1.439079E-08
        22  24  5.740980E+06 -1.139410E+04  8.750247E+04 -1.161096E-07 -5.787901E+04  7.933530E-10
        22  25  5.740297E+06  2.343483E+05  2.975992E+05 -7.150052E+04 -2.012367E+05  2.297345E+01
        22  26  5.699380E+06 -3.538348E+04  1.326527E+05 -2.050749E+04 -1.295592E+05  4.242337E+00
        22  27  5.740981E+06 -1.139237E+04  8.750271E+04  3.048280E+04 -5.787901E+04 -2.816904E+00
        23   1  5.725281E+06  2.523336E+04  7.458817E+04  7.730334E+03  4.383137E+04  5.409916E-01
        23   2  5.719033E+06 -4.678801E+03  4.770161E+04  1.643209E+03  1.944622E+04  5.101968E-02
        23   3  5.725358E+06  3.199368E+03  4.603213E+04 -4.443908E+03 -4.938772E+03  3.504205E-02
        23   4  5.725281E+06  2.523325E+04  7.458815E+04 -2.840376E-08  4.383137E+04  1.662107E-08
        23   5  5.719033E+06 -4.678807E+03  4.770161E+04  2.297559E-08  1.944622E+04  1.388660E-08
        23   6  5.725358E+06  3.199331E+03  4.603213E+04 -2.278895E-07 -4.938772E+03 -1.785117E-08
        23   7  5.725281E+06  2.523336E+04  7.458817E+04 -7.730334E+03  4.383137E+04 -5.409916E-01
        23   8  5.719033E+06 -4.678801E+03  4.770161E+04 -1.643209E+03  1.944622E+04 -5.101965E-02
        23   9  5.725358E+06  3.199368E+03  4.603213E+04  4.443908E+03 -4.938772E+03 -3.504209E-02
        23  10  5.725279E+06  2.523285E+04  7.458459E+04  7.730334E+03 -1.170350E-08  1.466030E-08
        23  11  5.719033E+06 -4.678902E+03  4.770090E+04  1.643209E+03 -2.734472E-09 -1.012602E-09
        23  12  5.725358E+06  3.199362E+03  4.603209E+04 -4.443908E+03 -3.270989E-08  2.699936E-09
        23  13  5.725279E+06  2.523274E+04  7.458457E+04  2.474038E-07 -1.857310E-08  7.662526E-09
        23  14  5.719033E+06 -4.678907E+03  4.770090E+04 -4.626823E-08  2.700594E-08  1.939644E-09
        23  15  5.725358E+06  3.199325E+03  4.603208E+04 -2.017550E-07 -6.758404E-09  2.309042E-09
        23  16  5.725279E+06  2.523285E+04  7.458459E+04 -7.730334E+03  1.163596E-08  6.771185E-10
        23  17  5.719033E+06 -4.678902E+03  4.770090E+04 -1.643209E+03  2.222937E-08  3.958036E-09
        23  18  5.725358E+06  3.199362E+03  4.603209E+04  4.443908E+03 -3.195631E-09  2.285181E-09
        23  19  5.725281E+06  2.523336E+04  7.458817E+04  7.730334E+03 -4.383137E+04 -5.409916E-01
        23  20  5.719033E+06 -4.678801E+03  4.770161E+04  1.643209E+03 -1.944622E+04 -5.101968E-02
        23  21  5.725358E+06  3.199368E+03  4.603213E+04 -4.443908E+03  4.938772E+03 -3.504205E-02
        23  22  5.725281E+06  2.523325E+04  7.458815E+04 -2.942282E-08 -4.383137E+04 -1.027846E-09
        23  23  5.719033E+06 -4.678807E+03  4.770161E+04  1.262662E-07 -1.944622E+04 -1.035823E-08
        23  24  5.725358E+06  3.199331E+03  4.603213E+04 -2.023281E-08  4.938772E+03  2.213874E-08
        23  25  5.725281E+06  2.523336E+04  7.458817E+04 -7.730334E+03 -4.383137E+04  5.409916E-01
        23  26  5.719033E+06 -4.678801E+03  4.770161E+04 -1.643209E+03 -1.944622E+04  5.101966E-02
        23  27  5.725358E+06  3.199368E+03  4.603213E+04  4.443908E+03  4.938772E+03  3.504209E-02
        24   1  5.726630E+06  6.271811E+02  4.885731E+04  6.343159E+03 -1.338029E+04 -1.355115E-01
        24   2  5.717423E+06 -6.927927E+03  6.402220E+04 -2.814048E+03 -4.621922E+04  2.076660E-01
        24   3  5.726468E+06  4.170393E+04  1.144722E+05 -1.197109E+04 -7.905827E+04  1.511086E+00
        24   4  5.726630E+06  6.271062E+02  4.885730E+04 -3.115937E-07 -1.338029E+04 -1.831435E-08
        24   5  5.717423E+06 -6.927942E+03  6.402220E+04 -1.429111E-07 -4.621922E+04  8.832549E-09
        24   6  5.726468E+06  4.170366E+04  1.144722E+05  8.468839E-09 -7.905827E+04  2.421727E-09
        24   7  5.726630E+06  6.271811E+02  4.885731E+04 -6.343159E+03 -1.338029E+04  1.355114E-01
        24   8  5.717423E+06 -6.927927E+03  6.402220E+04  2.814048E+03 -4.621922E+04 -2.076660E-01
        24   9  5.726468E+06  4.170393E+04  1.144722E+05  1.197109E+04 -7.905827E+04 -1.511086E+00
        24  10  5.726630E+06  6.271335E+02  4.885698E+04  6.343159E+03 -3.716422E-08 -9.807327E-10
        24  11  5.717420E+06 -6.928495E+03  6.401822E+04 -2.814048E+03  3.999331E-10 -1.000678E-08
        24  12  5.726462E+06  4.170227E+04  1.144606E+05 -1.197109E+04 -3.152391E-08  2.280436E-09
        24  13  5.726630E+06  6.270586E+02  4.885697E+04 -1.742553E-07 -3.454375E-08 -1.209465E-09
        24  14  5.717420E+06 -6.928509E+03  6.401822E+04  6.448434E-08 -1.069557E-08 -7.120877E-09
        24  15  5.726462E+06  4.170200E+04  1.144605E+05  7.864328E-08 -1.491709E-08  3.774175E-09
        24  16  5.726630E+06  6.271335E+02  4.885698E+04 -6.343159E+03  1.968948E-08 -1.572766E-09
        24  17  5.717420E+06 -6.928495E+03  6.401822E+04  2.814048E+03  1.007202E-08 -4.499615E-09
        24  18  5.726462E+06  4.170227E+04  1.144606E+05  1.197109E+04  1.358157E-09  5.082031E-09
        24  19  5.726630E+06  6.271811E+02  4.885731E+04  6.343159E+03  1.338029E+04  1.355115E-01
        24  20  5.717423E+06 -6.927927E+03  6.402220E+04 -2.814048E+03  4.621922E+04 -2.076660E-01
        24  21  5.726468E+06  4.170393E+04  1.144722E+05 -1.197109E+04  7.905827E+04 -1.511086E+00
        24  22  5.726630E+06  6.271062E+02  4.885730E+04 -3.132039E-07  1.338029E+04  1.549348E-08
        24  23  5.717423E+06 -6.927942E+03  6.402220E+04  1.337138E-07  4.621922E+04 -2.300946E-08
        24  24  5.726468E+06  4.170366E+04  1.144722E+05 -1.015945E-07  7.905827E+04  5.205287E-09
        24  25  5.726630E+06  6.271811E+02  4.885731E+04 -6.343159E+03  1.338029E+04 -1.355114E-01
        24  26  5.717423E+06 -6.927927E+03  6.402220E+04  2.814048E+03  4.621922E+04  2.076660E-01
        24  27  5.726468E+06  4.170393E+04  1.144722E+05  1.197109E+04  7.905827E+04  1.511086E+00
        25   1  5.752743E+06 -1.920091E+04  1.378062E+05  5.009775E+04 -1.008772E+05 -8.068650E+00
        25   2  5.684525E+06 -5.807584E+04  2.153304E+05 -3.364824E+04 -2.173147E+05  1.167582E+01
        25   3  5.751627E+06  3.852682E+05  4.887442E+05 -1.174047E+05 -3.337498E+05  6.256315E+01
        25   4  5.752740E+06 -1.920558E+04  1.378055E+05 -4.652146E-08 -1.008772E+05 -8.125307E-09
        25   5  5.684523E+06 -5.807795E+04  2.153301E+05  2.249091E-08 -2.173147E+05 -1.022667E-08
        25   6  5.751612E+06  3.852425E+05  4.887405E+05 -1.330359E-07 -3.337498E+05 -2.779045E-09
        25   7  5.752743E+06 -1.920091E+04  1.378062E+05 -5.009775E+04 -1.008772E+05  8.068650E+00
        25   8  5.684525E+06 -5.807584E+04  2.153304E+05  3.364824E+04 -2.173147E+05 -1.167582E+01
        25   9  5.751627E+06  3.852682E+05  4.887442E+05  1.174047E+05 -3.337498E+05 -6.256315E+01
        25  10  5.752732E+06 -1.920361E+04  1.377873E+05  5.009775E+04  4.174346E-08  7.494069E-09
        25  11  5.684474E+06 -5.808837E+04  2.152425E+05 -3.364824E+04 -7.330353E-09  1.409778E-09
        25  12  5.751508E+06  3.852386E+05  4.885368E+05 -1.174047E+05 -7.000335E-09 -5.606165E-10
        25  13  5.752729E+06 -1.920828E+04  1.377866E+05  9.075165E-08 -3.257384E-08  5.294144E-09
        25  14  5.684473E+06 -5.809048E+04  2.152422E+05 -4.681349E-08 -1.421316E-08 -3.875150E-09
        25  15  5.751494E+06  3.852129E+05  4.885331E+05 -1.325506E-07  8.517877E-09 -2.340230E-09
        25  16  5.752732E+06 -1.920361E+04  1.377873E+05 -5.009775E+04 -3.171133E-08  3.160383E-09
        25  17  5.684474E+06 -5.808837E+04  2.152425E+05  3.364824E+04  3.266612E-09 -8.206877E-09
        25  18  5.751508E+06  3.852386E+05  4.885368E+05  1.174047E+05 -2.438014E-08 -4.360519E-09
        25  19  5.752743E+06 -1.920091E+04  1.378062E+05  5.009775E+04  1.008772E+05  8.068650E+00
        25  20  5.684525E+06 -5.807584E+04  2.153304E+05 -3.364824E+04  2.173147E+05 -1.167582E+01
        25  21  5.751627E+06  3.852682E+05  4.887442E+05 -1.174047E+05  3.337498E+05 -6.256315E+01
        25  22  5.752740E+06 -1.920558E+04  1.378055E+05 -5.318853E-07  1.008772E+05  1.859087E-08
        25  23  5.684523E+06 -5.807795E+04  2.153301E+05 -2.542518E-07  2.173147E+05  2.899960E-09
        25  24  5.751612E+06  3.852425E+05  4.887405E+05 -2.703236E-07  3.337498E+05 -2.038990E-09
        25  25  5.752743E+06 -1.920091E+04  1.378062E+05 -5.009775E+04  1.008772E+05 -8.068650E+00
        25  26  5.684525E+06 -5.807584E+04  2.153304E+05  3.364824E+04  2.173147E+05  1.167582E+01
        25  27  5.751627E+06  3.852682E+05  4.887442E+05  1.174047E+05  3.337498E+05  6.256315E+01
        26   1 -6.339945E+06 -2.232641E+07 -6.471064E+06  2.255153E+06 -2.121666E+05 -9.092354E+05
        26   2 -4.496076E+06 -1.828414E+07 -4.841330E+06  3.913175E+05 -5.817104E+05 -4.336687E+05
        26   3 -3.383447E+06 -1.419594E+07 -3.653754E+06  1.741371E+06 -4.221035E+05  3.718606E+04
        26   4 -7.339100E+05 -1.535197E+05 -9.141870E+05  2.170007E+06 -2.091566E+05 -6.247411E+05
        26   5  4.605360E+04 -1.850541E+05 -4.434358E+05  5.595534E+05 -5.797114E+05 -3.879523E+05
        26   6  1.569264E+05 -1.276985E+05 -2.343605E+05  2.159121E+06 -4.274916E+05 -1.590208E+05
        26   7  4.834755E+06  2.247546E+07  4.605764E+06  2.080074E+06 -2.062999E+05 -3.294700E+05
        26   8  4.563988E+06  1.821909E+07  3.930774E+06  7.313194E+05 -5.777230E+05 -3.407369E+05
        26   9  3.683011E+06  1.412421E+07  3.170857E+06  2.584830E+06 -4.330823E+05 -3.597038E+05
        26  10 -6.340225E+06 -2.232733E+07 -6.472755E+06  2.254996E+06 -8.860909E-09 -1.447944E-08
        26  11 -4.496492E+06 -1.828444E+07 -4.842329E+06  3.911117E+05 -3.287828E-08  1.099912E-09
        26  12 -3.383639E+06 -1.419599E+07 -3.654092E+06  1.741383E+06  1.359543E-08  1.527906E-08
        26  13 -7.340612E+05 -1.539502E+05 -9.150007E+05  2.169902E+06 -2.600794E-08 -4.210328E-11
        26  14  4.565247E+04 -1.853057E+05 -4.443493E+05  5.593723E+05 -1.087270E-08 -8.753132E-09
        26  15  1.567237E+05 -1.277743E+05 -2.347502E+05  2.159066E+06  1.906343E-08  2.396451E-08
        26  16  4.834682E+06  2.247533E+07  4.605488E+06  2.080020E+06  2.600152E-08  1.162132E-08
        26  17  4.563600E+06  1.821888E+07  3.929936E+06  7.311629E+05 -1.956460E-08 -9.332148E-09
        26  18  3.682777E+06  1.412402E+07  3.170270E+06  2.584706E+06  2.407013E-08 -8.159029E-09
        26  19 -6.339945E+06 -2.232641E+07 -6.471064E+06  2.255153E+06  2.121666E+05  9.092354E+05
        26  20 -4.496076E+06 -1.828414E+07 -4.841330E+06  3.913175E+05  5.817104E+05  4.336687E+05
        26  21 -3.383447E+06 -1.419594E+07 -3.653754E+06  1.741371E+06  4.221035E+05 -3.718606E+04
        26  22 -7.339100E+05 -1.535197E+05 -9.141870E+05  2.170007E+06  2.091566E+05  6.247411E+05
        26  23  4.605360E+04 -1.850541E+05 -4.434358E+05  5.595534E+05  5.797114E+05  3.879523E+05
        26  24  1.569264E+05 -1.276985E+05 -2.343605E+05  2.159121E+06  4.274916E+05  1.590208E+05
        26  25  4.834755E+06  2.247546E+07  4.605764E+06  2.080074E+06  2.062999E+05  3.294700E+05
        26  26  4.563988E+06  1.821909E+07  3.930774E+06  7.313194E+05  5.777230E+05  3.407369E+05
        26  27  3.683011E+06  1.412421E+07  3.170857E+06  2.584830E+06  4.330823E+05  3.597038E+05
        27   1 -2.045314E+06 -8.441096E+06 -2.220269E+06  1.988637E+06 -2.514512E+05 -7.446746E+04
        27   2 -9.896955E+05 -4.231909E+06 -1.128984E+06  4.529337E+05 -1.276331E+05 -1.105712E+04
        27   3  1.203627E+05 -2.544276E+05 -1.218820E+05  2.133143E+06  9.902466E+03  5.100640E+04
        27   4  2.488875E+04 -1.647885E+05 -2.169423E+05  2.166223E+06 -2.531630E+05 -1.300195E+05
        27   5  5.748430E+04 -3.914349E+04 -1.169362E+05  5.571325E+05 -1.298060E+05 -7.259558E+04
        27   6  1.475196E+05 -1.587202E+05 -9.499306E+04  2.162286E+06  7.173308E+03 -1.695098E+04
        27   7  2.090103E+06  8.174716E+06  1.781470E+06  2.345556E+06 -2.548947E+05 -1.863079E+05
        27   8  1.103397E+06  4.169788E+06  8.938666E+05  6.618892E+05 -1.319922E+05 -1.345493E+05
        27   9  1.746812E+05 -6.299329E+04 -6.808720E+04  2.191434E+06  4.437971E+03 -8.491896E+04
        27  10 -2.045384E+06 -8.441118E+06 -2.220398E+06  1.988622E+06  2.660585E-08 -1.846810E-08
        27  11 -9.897131E+05 -4.231913E+06 -1.129015E+06  4.529325E+05 -2.322849E-09  3.093908E-09
        27  12  1.203619E+05 -2.544304E+05 -1.218870E+05  2.133142E+06  6.197207E-09  2.200368E-08
        27  13  2.481556E+04 -1.648236E+05 -2.170940E+05  2.166197E+06 -9.387697E-10  3.481846E-10
        27  14  5.746480E+04 -3.915366E+04 -1.169777E+05  5.571249E+05  2.148361E-08 -1.849733E-08
        27  15  1.475195E+05 -1.587205E+05 -9.499370E+04  2.162286E+06  2.644153E-08  3.099302E-08
        27  16  2.090025E+06  8.174662E+06  1.781285E+06  2.345518E+06 -3.280738E-08 -6.187008E-09
        27  17  1.103373E+06  4.169764E+06  8.938002E+05  6.618750E+05 -1.881033E-08 -2.056781E-08
        27  18  1.746793E+05 -6.300104E+04 -6.810080E+04  2.191434E+06  5.428978E-08 -1.444492E-08
        27  19 -2.045314E+06 -8.441096E+06 -2.220269E+06  1.988637E+06  2.514512E+05  7.446746E+04
        27  20 -9.896955E+05 -4.231909E+06 -1.128984E+06  4.529337E+05  1.276331E+05  1.105712E+04
        27  21  1.203627E+05 -2.544276E+05 -1.218820E+05  2.133143E+06 -9.902466E+03 -5.100640E+04
        27  22  2.488875E+04 -1.647885E+05 -2.169423E+05  2.166223E+06  2.531630E+05  1.300195E+05
        27  23  5.748430E+04 -3.914349E+04 -1.169362E+05  5.571325E+05  1.298060E+05  7.259558E+04
        27  24  1.475196E+05 -1.587202E+05 -9.499306E+04  2.162286E+06 -7.173308E+03  1.695098E+04
        27  25  2.090103E+06  8.174716E+06  1.781470E+06  2.345556E+06  2.548947E+05  1.863079E+05
        27  26  1.103397E+06  4.169788E+06  8.938666E+05  6.618892E+05  1.319922E+05  1.345493E+05
        27  27  1.746812E+05 -6.299329E+04 -6.808720E+04  2.191434E+06 -4.437971E+03  8.491896E+04
        28   1  1.596572E+06  5.625301E+06  1.303828E+06  2.356632E+06  1.645237E+05  1.468366E+05
        28   2  2.482980E+06  9.802872E+06  2.249665E+06  7.736777E+05  3.124774E+05  3.463437E+04
        28   3  3.422879E+06  1.390891E+07  3.251984E+06  2.398119E+06  1.183424E+05 -6.743106E+04
        28   4  1.594664E+05 -1.397191E+05 -8.502598E+04  2.160755E+06  1.584874E+05 -9.676833E+03
        28   5  3.652284E+04 -8.798131E+04 -1.129443E+05  5.583993E+05  3.130840E+05  4.350870E+04
        28   6 -6.228995E+04 -1.538191E+05 -1.984009E+05  2.166694E+06  1.231806E+05  1.076084E+05
        28   7 -1.279982E+06 -5.874432E+06 -1.476163E+06  1.966352E+06  1.525193E+05 -1.647506E+05
        28   8 -2.416919E+06 -9.890023E+06 -2.482449E+06  3.457937E+05  3.136905E+05  5.223833E+04
        28   9 -3.561979E+06 -1.403900E+07 -3.663195E+06  1.938970E+06  1.279506E+05  2.787313E+05
        28  10  1.596538E+06  5.625271E+06  1.303738E+06  2.356613E+06 -1.081349E-08 -4.228676E-08
        28  11  2.482875E+06  9.802844E+06  2.249479E+06  7.736690E+05 -6.297835E-09 -1.847066E-08
        28  12  3.422863E+06  1.390890E+07  3.251949E+06  2.398126E+06 -4.539567E-09  1.076419E-08
        28  13  1.594394E+05 -1.397259E+05 -8.507337E+04  2.160757E+06  1.340426E-08 -6.052538E-10
        28  14  3.641709E+04 -8.800964E+04 -1.131320E+05  5.583883E+05 -3.651843E-09 -1.578194E-08
        28  15 -6.230929E+04 -1.538355E+05 -1.984510E+05  2.166683E+06 -1.700913E-08  2.071377E-08
        28  16 -1.280014E+06 -5.874468E+06 -1.476258E+06  1.966372E+06  3.280656E-08  1.146930E-08
        28  17 -2.417026E+06 -9.890053E+06 -2.482639E+06  3.457804E+05 -3.256826E-08  3.356199E-09
        28  18 -3.562018E+06 -1.403909E+07 -3.663374E+06  1.938941E+06 -1.847409E-08 -3.701189E-09
        28  19  1.596572E+06  5.625301E+06  1.303828E+06  2.356632E+06 -1.645237E+05 -1.468366E+05
        28  20  2.482980E+06  9.802872E+06  2.249665E+06  7.736777E+05 -3.124774E+05 -3.463437E+04
        28  21  3.422879E+06  1.390891E+07  3.251984E+06  2.398119E+06 -1.183424E+05  6.743106E+04
        28  22  1.594664E+05 -1.397191E+05 -8.502598E+04  2.160755E+06 -1.584874E+05  9.676833E+03
        28  23  3.652284E+04 -8.798131E+04 -1.129443E+05  5.583993E+05 -3.130840E+05 -4.350870E+04
        28  24 -6.228995E+04 -1.538191E+05 -1.984009E+05  2.166694E+06 -1.231806E+05 -1.076084E+05
        28  25 -1.279982E+06 -5.874432E+06 -1.476163E+06  1.966352E+06 -1.525193E+05  1.647506E+05
        28  26 -2.416919E+06 -9.890023E+06 -2.482449E+06  3.457937E+05 -3.136905E+05 -5.223833E+04
        28  27 -3.561979E+06 -1.403900E+07 -3.663195E+06  1.938970E+06 -1.279506E+05 -2.787313E+05
        29   1  4.402885E+06  1.676921E+05  2.129653E+05  5.109515E+04  1.436769E+05  1.174523E+01
        29   2  4.373517E+06 -2.533945E+04  9.503471E+04  1.465477E+04  9.234810E+04  2.165272E+00
        29   3  4.403260E+06 -8.121744E+03  6.291772E+04 -2.178380E+04  4.101848E+04 -1.429547E+00
        29   4  4.402882E+06  1.676873E+05  2.129646E+05 -1.894434E-07  1.436769E+05 -6.295378E-10
        29   5  4.373517E+06 -2.533985E+04  9.503465E+04 -2.159303E-07  9.234810E+04  2.487978E-10
        29   6  4.403260E+06 -8.122630E+03  6.291759E+04 -2.511109E-07  4.101848E+04  4.176293E-09
        29   7  4.402885E+06  1.676921E+05  2.129653E+05 -5.109515E+04  1.436769E+05 -1.174523E+01
        29   8  4.373517E+06 -2.533945E+04  9.503471E+04 -1.465477E+04  9.234810E+04 -2.165272E+00
        29   9  4.403260E+06 -8.121744E+03  6.291772E+04  2.178380E+04  4.101848E+04  1.429547E+00
        29  10  4.402862E+06  1.676866E+05  2.129268E+05  5.109515E+04 -6.689159E-09 -3.402793E-09
        29  11  4.373508E+06 -2.534172E+04  9.501879E+04  1.465477E+04  4.064134E-09 -3.911098E-09
        29  12  4.403259E+06 -8.122192E+03  6.291458E+04 -2.178380E+04 -1.605121E-08  1.338217E-08
        29  13  4.402860E+06  1.676818E+05  2.129261E+05  8.650365E-08  1.736518E-08 -1.438967E-09
        29  14  4.373508E+06 -2.534212E+04  9.501874E+04  1.296011E-07 -1.106038E-08 -4.581788E-10
        29  15  4.403258E+06 -8.123077E+03  6.291445E+04  1.381955E-07 -4.082268E-09  9.453499E-09
        29  16  4.402862E+06  1.676866E+05  2.129268E+05 -5.109515E+04 -1.049042E-08  5.752619E-10
        29  17  4.373508E+06 -2.534172E+04  9.501879E+04 -1.465477E+04  2.796607E-09  2.590729E-09
        29  18  4.403259E+06 -8.122192E+03  6.291458E+04  2.178380E+04 -1.394220E-08  4.910331E-09
        29  19  4.402885E+06  1.676921E+05  2.129653E+05  5.109515E+04 -1.436769E+05 -1.174523E+01
        29  20  4.373517E+06 -2.533945E+04  9.503471E+04  1.465477E+04 -9.234810E+04 -2.165272E+00
        29  21  4.403260E+06 -8.121744E+03  6.291772E+04 -2.178380E+04 -4.101848E+04  1.429547E+00
        29  22  4.402882E+06  1.676873E+05  2.129646E+05 -3.280383E-07 -1.436769E+05 -2.319917E-09
        29  23  4.373517E+06 -2.533985E+04  9.503465E+04 -1.117024E-07 -9.234810E+04 -1.382796E-09
        29  24  4.403260E+06 -8.122630E+03  6.291759E+04 -1.111808E-07 -4.101848E+04  1.485613E-08
        29  25  4.402885E+06  1.676921E+05  2.129653E+05 -5.109515E+04 -1.436769E+05  1.174523E+01
        29  26  4.373517E+06 -2.533945E+04  9.503471E+04 -1.465477E+04 -9.234810E+04  2.165272E+00
        29  27  4.403260E+06 -8.121744E+03  6.291772E+04  2.178380E+04 -4.101848E+04 -1.429547E+00
        30   1  4.392071E+06  1.804940E+04  5.379842E+04  5.568212E+03  3.091197E+04  2.753820E-01
        30   2  4.387519E+06 -3.394863E+03  3.491718E+04  1.167840E+03  1.307597E+04  2.443159E-02
        30   3  4.392112E+06  2.558562E+03  3.443734E+04 -3.232461E+03 -4.759694E+03  2.461527E-02
        30   4  4.392071E+06  1.804934E+04  5.379841E+04 -1.981882E-07  3.091197E+04 -3.147941E-09
        30   5  4.387519E+06 -3.394866E+03  3.491718E+04 -2.728240E-07  1.307597E+04 -1.333894E-08
        30   6  4.392111E+06  2.558543E+03  3.443734E+04 -3.733527E-07 -4.759694E+03  1.193042E-08
        30   7  4.392071E+06  1.804940E+04  5.379842E+04 -5.568212E+03  3.091197E+04 -2.753820E-01
        30   8  4.387519E+06 -3.394863E+03  3.491718E+04 -1.167840E+03  1.307597E+04 -2.443162E-02
        30   9  4.392112E+06  2.558562E+03  3.443734E+04  3.232461E+03 -4.759694E+03 -2.461525E-02
        30  10  4.392070E+06  1.804915E+04  5.379664E+04  5.568212E+03 -2.707308E-08  6.466632E-09
        30  11  4.387519E+06 -3.394909E+03  3.491687E+04  1.167840E+03 -2.029364E-08 -1.699756E-08
        30  12  4.392111E+06  2.558556E+03  3.443730E+04 -3.232461E+03 -2.026207E-08  6.117389E-09
        30  13  4.392070E+06  1.804909E+04  5.379663E+04 -1.312642E-07 -6.754960E-11  2.536514E-09
        30  14  4.387519E+06 -3.394911E+03  3.491686E+04 -3.118154E-08 -8.563685E-09 -1.513967E-08
        30  15  4.392111E+06  2.558537E+03  3.443730E+04 -3.799233E-07 -1.164255E-08  2.070305E-09
        30  16  4.392070E+06  1.804915E+04  5.379664E+04 -5.568212E+03  1.523986E-09 -1.534263E-09
        30  17  4.387519E+06 -3.394909E+03  3.491687E+04 -1.167840E+03  4.577500E-08 -1.288903E-08
        30  18  4.392111E+06  2.558556E+03  3.443730E+04  3.232461E+03 -1.152415E-08 -1.812446E-09
        30  19  4.392071E+06  1.804940E+04  5.379842E+04  5.568212E+03 -3.091197E+04 -2.753820E-01
        30  20  4.387519E+06 -3.394863E+03  3.491718E+04  1.167840E+03 -1.307597E+04 -2.443162E-02
        30  21  4.392112E+06  2.558562E+03  3.443734E+04 -3.232461E+03  4.759694E+03 -2.461526E-02
        30  22  4.392071E+06  1.804934E+04  5.379841E+04  4.745012E-09 -3.091197E+04  8.509066E-09
        30  23  4.387519E+06 -3.394866E+03  3.491718E+04 -6.573848E-08 -1.307597E+04 -1.654322E-08
        30  24  4.392111E+06  2.558543E+03  3.443734E+04 -3.001956E-07  4.759694E+03 -7.613289E-09
        30  25  4.392071E+06  1.804940E+04  5.379842E+04 -5.568212E+03 -3.091197E+04  2.753820E-01
        30  26  4.387519E+06 -3.394863E+03  3.491718E+04 -1.167840E+03 -1.307597E+04  2.443159E-02
        30  27  4.392112E+06  2.558562E+03  3.443734E+04  3.232461E+03  4.759694E+03  2.461525E-02
        31   1  4.393214E+06  3.252478E+02  3.688629E+04  4.878281E+03 -1.109796E+04 -8.661664E-02
        31   2  4.386127E+06 -5.348400E+03  4.906800E+04 -2.183363E+03 -3.626087E+04  1.266661E-01
        31   3  4.393117E+06  3.234855E+04  8.839123E+04 -9.245095E+03 -6.142452E+04  9.085460E-01
        31   4  4.393214E+06  3.252034E+02  3.688629E+04 -3.783697E-07 -1.109796E+04  9.980298E-09
        31   5  4.386127E+06 -5.348408E+03  4.906800E+04 -7.748566E-08 -3.626087E+04 -1.708796E-08
        31   6  4.393117E+06  3.234839E+04  8.839120E+04  2.490290E-08 -6.142452E+04 -1.823962E-09
        31   7  4.393214E+06  3.252478E+02  3.688629E+04 -4.878281E+03 -1.109796E+04  8.661666E-02
        31   8  4.386127E+06 -5.348400E+03  4.906800E+04  2.183363E+03 -3.626087E+04 -1.266661E-01
        31   9  4.393117E+06  3.234855E+04  8.839123E+04  9.245095E+03 -6.142452E+04 -9.085460E-01
        31  10  4.393214E+06  3.252150E+02  3.688606E+04  4.878281E+03  8.327642E-09  1.595107E-08
        31  11  4.386125E+06 -5.348750E+03  4.906555E+04 -2.183363E+03  4.225787E-08  8.440365E-10
        31  12  4.393113E+06  3.234755E+04  8.838419E+04 -9.245095E+03  2.717353E-08 -6.863422E-09
        31  13  4.393214E+06  3.251706E+02  3.688606E+04 -1.031273E-07 -2.026491E-10  8.619662E-09
        31  14  4.386125E+06 -5.348758E+03  4.906554E+04 -8.864298E-09  4.394689E-08 -3.020455E-09
        31  15  4.393113E+06  3.234739E+04  8.838416E+04 -8.844027E-10  6.733647E-09 -5.864656E-09
        31  16  4.393214E+06  3.252150E+02  3.688606E+04 -4.878281E+03 -2.474922E-08  1.831291E-09
        31  17  4.386125E+06 -5.348750E+03  4.906555E+04  2.183363E+03 -3.756400E-08 -6.922797E-09
        31  18  4.393113E+06  3.234755E+04  8.838419E+04  9.245095E+03 -3.011621E-08 -4.660975E-09
        31  19  4.393214E+06  3.252478E+02  3.688629E+04  4.878281E+03  1.109796E+04  8.661667E-02
        31  20  4.386127E+06 -5.348400E+03  4.906800E+04 -2.183363E+03  3.626087E+04 -1.266661E-01
        31  21  4.393117E+06  3.234855E+04  8.839123E+04 -9.245095E+03  6.142452E+04 -9.085460E-01
        31  22  4.393214E+06  3.252034E+02  3.688629E+04 -5.874440E-07  1.109796E+04  7.120210E-09
        31  23  4.386127E+06 -5.348408E+03  4.906800E+04 -2.164224E-07  3.626087E+04  1.103018E-08
        31  24  4.393117E+06  3.234839E+04  8.839120E+04 -2.510295E-07  6.142452E+04 -9.895899E-09
        31  25  4.393214E+06  3.252478E+02  3.688629E+04 -4.878281E+03  1.109796E+04 -8.661666E-02
        31  26  4.386127E+06 -5.348400E+03  4.906800E+04  2.183363E+03  3.626087E+04  1.266661E-01
        31  27  4.393117E+06  3.234855E+04  8.839123E+04  9.245095E+03  6.142452E+04  9.085460E-01
        32   1  4.413470E+06 -1.489734E+04  1.065470E+05  3.878450E+04 -7.826177E+04 -4.856095E+00
        32   2  4.360653E+06 -4.504665E+04  1.667451E+05 -2.604177E+04 -1.684068E+05  7.016903E+00
        32   3  4.412807E+06  2.986671E+05  3.788181E+05 -9.087361E+04 -2.585494E+05  3.759048E+01
        32   4  4.413468E+06 -1.490015E+04  1.065466E+05  3.016843E-08 -7.826177E+04  5.550930E-09
        32   5  4.360653E+06 -4.504792E+04  1.667449E+05  1.174400E-07 -1.684068E+05 -5.007805E-09
        32   6  4.412798E+06  2.986517E+05  3.788159E+05  1.011886E-07 -2.585494E+05 -1.478137E-09
        32   7  4.413470E+06 -1.489734E+04  1.065470E+05 -3.878450E+04 -7.826177E+04  4.856095E+00
        32   8  4.360653E+06 -4.504665E+04  1.667451E+05  2.604177E+04 -1.684068E+05 -7.016903E+00
        32   9  4.412807E+06  2.986671E+05  3.788181E+05  9.087361E+04 -2.585494E+05 -3.759048E+01
        32  10  4.413463E+06 -1.489897E+04  1.065356E+05  3.878450E+04  5.028255E-09 -6.060600E-09
        32  11  4.360623E+06 -4.505420E+04  1.666922E+05 -2.604177E+04  2.584297E-09 -2.366718E-09
        32  12  4.412735E+06  2.986493E+05  3.786933E+05 -9.087361E+04  2.146933E-08 -4.127436E-10
        32  13  4.413462E+06 -1.490178E+04  1.065352E+05  1.687058E-07  3.282658E-08 -2.684792E-09
        32  14  4.360622E+06 -4.505546E+04  1.666920E+05 -2.051604E-08  7.829099E-10  2.041624E-09
        32  15  4.412726E+06  2.986339E+05  3.786911E+05  1.465898E-08 -2.734075E-08  1.244515E-09
        32  16  4.413463E+06 -1.489897E+04  1.065356E+05 -3.878450E+04 -3.801006E-08  8.538969E-10
        32  17  4.360623E+06 -4.505420E+04  1.666922E+05  2.604177E+04 -1.709824E-08  6.049000E-09
        32  18  4.412735E+06  2.986493E+05  3.786933E+05  9.087361E+04 -4.048766E-08  3.077837E-09
        32  19  4.413470E+06 -1.489734E+04  1.065470E+05  3.878450E+04  7.826177E+04  4.856095E+00
        32  20  4.360653E+06 -4.504665E+04  1.667451E+05 -2.604177E+04  1.684068E+05 -7.016903E+00
        32  21  4.412807E+06  2.986671E+05  3.788181E+05 -9.087361E+04  2.585494E+05 -3.759048E+01
        32  22  4.413468E+06 -1.490015E+04  1.065466E+05 -3.141629E-07  7.826177E+04 -1.105274E-08
        32  23  4.360653E+06 -4.504792E+04  1.667449E+05 -1.930050E-07  1.684068E+05  8.864690E-09
        32  24  4.412798E+06  2.986517E+05  3.788159E+05  1.093714E-07  2.585494E+05  3.937597E-09
        32  25  4.413470E+06 -1.489734E+04  1.065470E+05 -3.878450E+04  7.826177E+04 -4.856095E+00
        32  26  4.360653E+06 -4.504665E+04  1.667451E+05  2.604177E+04  1.684068E+05  7.016903E+00
        32  27  4.412807E+06  2.986671E+05  3.788181E+05  9.087361E+04  2.585494E+05  3.759048E+01
        33   1 -5.765103E+06 -2.065909E+07 -5.859838E+06  2.045917E+06 -1.953162E+05 -7.562967E+05
        33   2 -4.182345E+06 -1.696045E+07 -4.431697E+06  3.638755E+05 -5.379204E+05 -3.465027E+05
        33   3 -3.162717E+06 -1.320358E+07 -3.366807E+06  1.626292E+06 -3.925613E+05  5.910351E+04
        33   4 -5.771296E+05 -1.193279E+05 -7.179097E+05  1.987770E+06 -1.927951E+05 -4.900839E+05
        33   5  3.115648E+04 -1.567402E+05 -3.520608E+05  5.132210E+05 -5.361871E+05 -3.024034E+05
        33   6  1.304896E+05 -9.736960E+04 -1.839226E+05  1.979657E+06 -3.971401E+05 -1.213852E+05
        33   7  4.578804E+06  2.081124E+07  4.392383E+06  1.926345E+06 -1.903819E+05 -2.146144E+05
        33   8  4.223824E+06  1.690959E+07  3.707187E+06  6.655121E+05 -5.344611E+05 -2.569949E+05
        33   9  3.411256E+06  1.316808E+07  2.986672E+06  2.339261E+06 -4.018757E+05 -3.057115E+05
        33  10 -5.765303E+06 -2.065973E+07 -5.861018E+06  2.045797E+06 -8.228323E-09 -1.188760E-08
        33  11 -4.182689E+06 -1.696065E+07 -4.432472E+06  3.637237E+05 -5.362884E-08  1.800654E-08
        33  12 -3.162883E+06 -1.320362E+07 -3.367103E+06  1.626311E+06  1.239608E-08 -1.636217E-09
        33  13 -5.772336E+05 -1.195955E+05 -7.184296E+05  1.987694E+06 -8.496855E-09  5.318490E-11
        33  14  3.082331E+04 -1.569154E+05 -3.527723E+05  5.130905E+05 -4.844356E-08  1.721224E-08
        33  15  1.303166E+05 -9.742751E+04 -1.842458E+05  1.979618E+06 -7.999752E-09 -1.551243E-09
        33  16  4.578753E+06  2.081118E+07  4.392232E+06  1.926313E+06 -7.732880E-09  1.345917E-08
        33  17  4.223500E+06  1.690944E+07  3.706530E+06  6.654029E+05  2.902410E-09  8.201645E-09
        33  18  3.411059E+06  1.316793E+07  2.986198E+06  2.339163E+06 -3.357448E-08  4.026783E-09
        33  19 -5.765103E+06 -2.065909E+07 -5.859838E+06  2.045917E+06  1.953162E+05  7.562967E+05
        33  20 -4.182345E+06 -1.696045E+07 -4.431697E+06  3.638755E+05  5.379204E+05  3.465027E+05
        33  21 -3.162717E+06 -1.320358E+07 -3.366807E+06  1.626292E+06  3.925613E+05 -5.910351E+04
        33  22 -5.771296E+05 -1.193279E+05 -7.179097E+05  1.987770E+06  1.927951E+05  4.900839E+05
        33  23  3.115648E+04 -1.567402E+05 -3.520608E+05  5.132210E+05  5.361871E+05  3.024034E+05
        33  24  1.304896E+05 -9.736960E+04 -1.839226E+05  1.979657E+06  3.971401E+05  1.213852E+05
        33  25  4.578804E+06  2.081124E+07  4.392383E+06  1.926345E+06  1.903819E+05  2.146144E+05
        33  26  4.223824E+06  1.690959E+07  3.707187E+06  6.655121E+05  5.344611E+05  2.569949E+05
        33  27  3.411256E+06  1.316808E+07  2.986672E+06  2.339261E+06  4.018757E+05  3.057115E+05
        34   1 -1.922751E+06 -7.927438E+06 -2.058699E+06  1.828092E+06 -2.355399E+05 -4.867352E+04
        34   2 -9.632860E+05 -4.078833E+06 -1.073101E+06  4.165429E+05 -1.227754E+05  3.954071E+03
        34   3  4.799423E+04 -4.248405E+05 -1.565289E+05  1.951986E+06  3.265104E+03  5.532738E+04
        34   4  2.574173E+04 -1.327661E+05 -1.726164E+05  1.985224E+06 -2.369721E+05 -9.907919E+04
        34   5  4.807288E+04 -2.715576E+04 -9.530693E+04  5.109839E+05 -1.246218E+05 -5.238224E+04
        34   6  1.248492E+05 -1.274177E+05 -8.133589E+04  1.982290E+06  9.215438E+02 -7.268160E+03
        34   7  1.969808E+06  7.717932E+06  1.709109E+06  2.143820E+06 -2.384205E+05 -1.501153E+05
        34   8  1.058246E+06  4.039614E+06  8.813241E+05  6.059146E+05 -1.264793E+05 -1.090861E+05
        34   9  2.017021E+05  1.700948E+05 -6.134647E+03  2.012607E+06 -1.427544E+03 -6.989375E+04
        34  10 -1.922812E+06 -7.927456E+06 -2.058808E+06  1.828082E+06  1.842715E-08 -1.794286E-08
        34  11 -9.633022E+05 -4.078837E+06 -1.073130E+06  4.165432E+05 -3.022694E-08  5.792880E-08
        34  12  4.799339E+04 -4.248438E+05 -1.565347E+05  1.951986E+06 -2.282876E-08  1.424389E-08
        34  13  2.567891E+04 -1.327916E+05 -1.727400E+05  1.985205E+06 -5.458753E-10  5.642384E-10
        34  14  4.805547E+04 -2.716287E+04 -9.534124E+04  5.109787E+05 -2.317454E-08  3.607572E-08
        34  15  1.248492E+05 -1.274177E+05 -8.133599E+04  1.982290E+06 -3.551137E-08 -2.379025E-09
        34  16  1.969741E+06  7.717893E+06  1.708961E+06  2.143791E+06 -4.083777E-08  2.720950E-08
        34  17  1.058226E+06  4.039597E+06  8.812719E+05  6.059035E+05 -2.127852E-08 -3.520983E-09
        34  18  2.017008E+05  1.700895E+05 -6.143828E+03  2.012607E+06  4.364763E-08 -1.283360E-08
        34  19 -1.922751E+06 -7.927438E+06 -2.058699E+06  1.828092E+06  2.355399E+05  4.867352E+04
        34  20 -9.632860E+05 -4.078833E+06 -1.073101E+06  4.165429E+05  1.227754E+05 -3.954071E+03
        34  21  4.799423E+04 -4.248405E+05 -1.565289E+05  1.951986E+06 -3.265104E+03 -5.532738E+04
        34  22  2.574173E+04 -1.327661E+05 -1.726164E+05  1.985224E+06  2.369721E+05  9.907919E+04
        34  23  4.807288E+04 -2.715576E+04 -9.530693E+04  5.109839E+05  1.246218E+05  5.238224E+04
        34  24  1.248492E+05 -1.274177E+05 -8.133589E+04  1.982290E+06 -9.215438E+02  7.268160E+03
        34  25  1.969808E+06  7.717932E+06  1.709109E+06  2.143820E+06  2.384205E+05  1.501153E+05
        34  26  1.058246E+06  4.039614E+06  8.813241E+05  6.059146E+05  1.264793E+05  1.090861E+05
        34  27  2.017021E+05  1.700948E+05 -6.134647E+03  2.012607E+06  1.427544E+03  6.989375E+04
        35   1  1.401752E+06  4.957198E+06  1.147018E+06  2.144557E+06  1.440988E+05  1.416139E+05
        35   2  2.224453E+06  8.786650E+06  2.011859E+06  6.925986E+05  2.800702E+05  4.133544E+04
        35   3  3.075486E+06  1.254167E+07  2.921706E+06  2.180164E+06  1.067247E+05 -5.025893E+04
        35   4  1.378805E+05 -1.144056E+05 -7.535081E+04  1.980726E+06  1.389585E+05 -7.531848E+02
        35   5  3.514210E+04 -6.277173E+04 -1.030468E+05  5.122160E+05  2.805417E+05  4.836697E+04
        35   6 -6.572130E+04 -1.259685E+05 -1.888347E+05  1.985897E+06  1.108566E+05  1.068037E+05
        35   7 -1.127809E+06 -5.162541E+06 -1.299482E+06  1.817984E+06  1.338705E+05 -1.419675E+05
        35   8 -2.159772E+06 -8.841038E+06 -2.223476E+06  3.338361E+05  2.810133E+05  5.529505E+04
        35   9 -3.218732E+06 -1.264937E+07 -3.311082E+06  1.794417E+06  1.149377E+05  2.606956E+05
        35  10  1.401725E+06  4.957172E+06  1.146942E+06  2.144541E+06 -4.481721E-09 -2.272191E-08
        35  11  2.224369E+06  8.786627E+06  2.011708E+06  6.925894E+05  1.036150E-08  3.690812E-08
        35  12  3.075473E+06  1.254166E+07  2.921680E+06  2.180168E+06  5.707725E-10  3.009509E-09
        35  13  1.378598E+05 -1.144108E+05 -7.538709E+04  1.980726E+06 -7.374161E-09 -9.994881E-11
        35  14  3.505697E+04 -6.279535E+04 -1.031991E+05  5.122051E+05  8.975781E-09  3.135827E-08
        35  15 -6.573750E+04 -1.259840E+05 -1.888791E+05  1.985887E+06 -8.031700E-09 -1.367846E-09
        35  16 -1.127833E+06 -5.162568E+06 -1.299554E+06  1.817999E+06  2.872656E-08  3.097767E-08
        35  17 -2.159858E+06 -8.841063E+06 -2.223630E+06  3.338235E+05 -3.312042E-09  1.010859E-08
        35  18 -3.218765E+06 -1.264944E+07 -3.311236E+06  1.794393E+06 -2.349203E-08 -1.808173E-09
        35  19  1.401752E+06  4.957198E+06  1.147018E+06  2.144557E+06 -1.440988E+05 -1.416139E+05
        35  20  2.224453E+06  8.786650E+06  2.011859E+06  6.925986E+05 -2.800702E+05 -4.133544E+04
        35  21  3.075486E+06  1.254167E+07  2.921706E+06  2.180164E+06 -1.067247E+05  5.025893E+04
        35  22  1.378805E+05 -1.144056E+05 -7.535081E+04  1.980726E+06 -1.389585E+05  7.531848E+02
        35  23  3.514210E+04 -6.277173E+04 -1.030468E+05  5.122160E+05 -2.805417E+05 -4.836697E+04
        35  24 -6.572130E+04 -1.259685E+05 -1.888347E+05  1.985897E+06 -1.108566E+05 -1.068037E+05
        35  25 -1.127809E+06 -5.162541E+06 -1.299482E+06  1.817984E+06 -1.338705E+05  1.419675E+05
        35  26 -2.159772E+06 -8.841038E+06 -2.223476E+06  3.338361E+05 -2.810133E+05 -5.529505E+04
        35  27 -3.218732E+06 -1.264937E+07 -3.311082E+06  1.794417E+06 -1.149377E+05 -2.606956E+05
        36   1  3.144557E+06  9.377886E+04  1.190799E+05  2.853318E+04  8.029231E+04  3.672421E+00
        36   2  3.128095E+06 -1.417772E+04  5.309850E+04  8.182829E+03  5.162064E+04  6.771131E-01
        36   3  3.144708E+06 -4.544481E+03  3.511327E+04 -1.216666E+04  2.294916E+04 -4.475701E-01
        36   4  3.144557E+06  9.377733E+04  1.190797E+05 -4.023934E-07  8.029231E+04  4.225952E-10
        36   5  3.128095E+06 -1.417785E+04  5.309848E+04  3.448425E-08  5.162064E+04 -3.783349E-10
        36   6  3.144708E+06 -4.544758E+03  3.511323E+04  1.004255E-07  2.294916E+04 -7.518387E-09
        36   7  3.144557E+06  9.377886E+04  1.190799E+05 -2.853318E+04  8.029231E+04 -3.672421E+00
        36   8  3.128095E+06 -1.417772E+04  5.309850E+04 -8.182829E+03  5.162064E+04 -6.771131E-01
        36   9  3.144708E+06 -4.544481E+03  3.511327E+04  1.216666E+04  2.294916E+04  4.475701E-01
        36  10  3.144551E+06  9.377714E+04  1.190678E+05  2.853318E+04 -7.206612E-09  2.196274E-11
        36  11  3.128092E+06 -1.417844E+04  5.309352E+04  8.182829E+03 -1.317328E-08  1.517433E-09
        36  12  3.144708E+06 -4.544622E+03  3.511228E+04 -1.216666E+04  9.265144E-09  5.419012E-09
        36  13  3.144550E+06  9.377561E+04  1.190676E+05 -8.309379E-08 -1.848254E-08  7.241779E-10
        36  14  3.128092E+06 -1.417856E+04  5.309350E+04 -1.290792E-07 -5.288919E-08  5.336366E-09
        36  15  3.144708E+06 -4.544898E+03  3.511224E+04 -2.553103E-09 -2.206749E-08  1.316475E-08
        36  16  3.144551E+06  9.377714E+04  1.190678E+05 -2.853318E+04  7.105402E-09 -5.336397E-10
        36  17  3.128092E+06 -1.417844E+04  5.309352E+04 -8.182829E+03  3.982790E-09 -1.526087E-10
        36  18  3.144708E+06 -4.544622E+03  3.511228E+04  1.216666E+04  1.841522E-08  3.058215E-09
        36  19  3.144557E+06  9.377886E+04  1.190799E+05  2.853318E+04 -8.029231E+04 -3.672421E+00
        36  20  3.128095E+06 -1.417772E+04  5.309850E+04  8.182829E+03 -5.162064E+04 -6.771131E-01
        36  21  3.144708E+06 -4.544481E+03  3.511327E+04 -1.216666E+04 -2.294916E+04  4.475701E-01
        36  22  3.144557E+06  9.377733E+04  1.190797E+05 -2.848385E-07 -8.029231E+04  8.729076E-10
        36  23  3.128095E+06 -1.417785E+04  5.309848E+04  8.346896E-08 -5.162064E+04  1.072138E-08
        36  24  3.144708E+06 -4.544758E+03  3.511323E+04  1.180228E-08 -2.294916E+04  3.403557E-08
        36  25  3.144557E+06  9.377886E+04  1.190799E+05 -2.853318E+04 -8.029231E+04  3.672421E+00
        36  26  3.128095E+06 -1.417772E+04  5.309850E+04 -8.182829E+03 -5.162064E+04  6.771131E-01
        36  27  3.144708E+06 -4.544481E+03  3.511327E+04  1.216666E+04 -2.294916E+04 -4.475701E-01
        37   1  3.138457E+06  1.009858E+04  2.999715E+04  3.104796E+03  1.731738E+04  8.618719E-02
        37   2  3.135916E+06 -1.893890E+03  1.938675E+04  6.532037E+02  7.417488E+03  7.766655E-03
        37   3  3.138473E+06  1.394629E+03  1.901802E+04 -1.798424E+03 -2.482525E+03  7.156678E-03
        37   4  3.138457E+06  1.009857E+04  2.999715E+04  6.117084E-09  1.731738E+04 -6.708407E-09
        37   5  3.135916E+06 -1.893891E+03  1.938675E+04  2.088844E-07  7.417488E+03 -2.051013E-09
        37   6  3.138473E+06  1.394623E+03  1.901801E+04  1.787669E-07 -2.482525E+03 -1.243164E-08
        37   7  3.138457E+06  1.009858E+04  2.999715E+04 -3.104796E+03  1.731738E+04 -8.618722E-02
        37   8  3.135916E+06 -1.893890E+03  1.938675E+04 -6.532037E+02  7.417488E+03 -7.766669E-03
        37   9  3.138473E+06  1.394629E+03  1.901802E+04  1.798424E+03 -2.482525E+03 -7.156705E-03
        37  10  3.138457E+06  1.009850E+04  2.999659E+04  3.104796E+03  4.796287E-09  2.131526E-09
        37  11  3.135916E+06 -1.893905E+03  1.938664E+04  6.532037E+02  3.225402E-08 -1.131931E-08
        37  12  3.138473E+06  1.394627E+03  1.901800E+04 -1.798424E+03  2.610001E-08 -1.410745E-08
        37  13  3.138457E+06  1.009849E+04  2.999659E+04  3.091375E-08 -3.327488E-08  1.050969E-08
        37  14  3.135916E+06 -1.893906E+03  1.938664E+04 -1.108277E-07  4.479711E-08 -3.417723E-09
        37  15  3.138473E+06  1.394621E+03  1.901800E+04  1.270140E-07 -4.793905E-08 -8.541789E-09
        37  16  3.138457E+06  1.009850E+04  2.999659E+04 -3.104796E+03 -6.109120E-09  1.413607E-09
        37  17  3.135916E+06 -1.893905E+03  1.938664E+04 -6.532037E+02 -4.393954E-09 -6.204481E-09
        37  18  3.138473E+06  1.394627E+03  1.901800E+04  1.798424E+03 -3.000926E-08 -4.984182E-09
        37  19  3.138457E+06  1.009858E+04  2.999715E+04  3.104796E+03 -1.731738E+04 -8.618719E-02
        37  20  3.135916E+06 -1.893890E+03  1.938675E+04  6.532037E+02 -7.417488E+03 -7.766678E-03
        37  21  3.138473E+06  1.394629E+03  1.901802E+04 -1.798424E+03  2.482525E+03 -7.156707E-03
        37  22  3.138457E+06  1.009857E+04  2.999715E+04 -1.823677E-07 -1.731738E+04  2.773124E-08
        37  23  3.135916E+06 -1.893891E+03  1.938675E+04 -8.202974E-08 -7.417488E+03 -4.837209E-09
        37  24  3.138473E+06  1.394623E+03  1.901801E+04 -2.146092E-07  2.482525E+03 -4.698964E-09
        37  25  3.138457E+06  1.009858E+04  2.999715E+04 -3.104796E+03 -1.731738E+04  8.618722E-02
        37  26  3.135916E+06 -1.893890E+03  1.938675E+04 -6.532037E+02 -7.417488E+03  7.766658E-03
        37  27  3.138473E+06  1.394629E+03  1.901802E+04  1.798424E+03  2.482525E+03  7.156695E-03
        38   1  3.139062E+06  2.001421E+02  2.032576E+04  2.677091E+03 -5.974845E+03 -2.563990E-02
        38   2  3.135174E+06 -2.939157E+03  2.694521E+04 -1.195806E+03 -1.978749E+04  3.792982E-02
        38   3  3.139024E+06  1.774563E+04  4.848036E+04 -5.068698E+03 -3.360024E+04  2.730025E-01
        38   4  3.139062E+06  2.001287E+02  2.032576E+04  6.548508E-08 -5.974845E+03 -5.998806E-09
        38   5  3.135174E+06 -2.939159E+03  2.694521E+04  2.541307E-07 -1.978749E+04  1.331981E-08
        38   6  3.139024E+06  1.774558E+04  4.848036E+04  2.869412E-08 -3.360024E+04 -2.292843E-09
        38   7  3.139062E+06  2.001421E+02  2.032576E+04 -2.677091E+03 -5.974845E+03  2.563989E-02
        38   8  3.135174E+06 -2.939157E+03  2.694521E+04  1.195806E+03 -1.978749E+04 -3.792979E-02
        38   9  3.139024E+06  1.774563E+04  4.848036E+04  5.068698E+03 -3.360024E+04 -2.730025E-01
        38  10  3.139062E+06  2.001326E+02  2.032569E+04  2.677091E+03  4.312613E-08 -1.875486E-09
        38  11  3.135174E+06 -2.939261E+03  2.694448E+04 -1.195806E+03  1.204884E-08  1.616741E-08
        38  12  3.139023E+06  1.774533E+04  4.847825E+04 -5.068698E+03  3.041932E-08  4.469771E-09
        38  13  3.139062E+06  2.001192E+02  2.032569E+04 -3.474170E-07 -3.443974E-08 -1.976312E-09
        38  14  3.135174E+06 -2.939264E+03  2.694448E+04  4.714462E-08  1.781896E-08  8.034892E-09
        38  15  3.139023E+06  1.774528E+04  4.847825E+04 -1.621607E-07 -4.576901E-10 -4.213816E-10
        38  16  3.139062E+06  2.001326E+02  2.032569E+04 -2.677091E+03 -1.598023E-08 -1.675979E-09
        38  17  3.135174E+06 -2.939261E+03  2.694448E+04  1.195806E+03  2.678884E-08  3.051698E-10
        38  18  3.139023E+06  1.774533E+04  4.847825E+04  5.068698E+03 -7.787341E-09 -5.897408E-09
        38  19  3.139062E+06  2.001421E+02  2.032576E+04  2.677091E+03  5.974845E+03  2.563989E-02
        38  20  3.135174E+06 -2.939157E+03  2.694521E+04 -1.195806E+03  1.978749E+04 -3.792979E-02
        38  21  3.139024E+06  1.774563E+04  4.848036E+04 -5.068698E+03  3.360024E+04 -2.730025E-01
        38  22  3.139062E+06  2.001287E+02  2.032576E+04 -2.082654E-07  5.974845E+03  1.980781E-09
        38  23  3.135174E+06 -2.939159E+03  2.694521E+04 -2.182758E-08  1.978749E+04  2.696782E-09
        38  24  3.139024E+06  1.774558E+04  4.848036E+04 -1.200820E-07  3.360024E+04  1.244036E-09
        38  25  3.139062E+06  2.001421E+02  2.032576E+04 -2.677091E+03  5.974845E+03 -2.563989E-02
        38  26  3.135174E+06 -2.939157E+03  2.694521E+04  1.195806E+03  1.978749E+04  3.792980E-02
        38  27  3.139024E+06  1.774563E+04  4.848036E+04  5.068698E+03  3.360024E+04  2.730025E-01
        39   1  3.150167E+06 -8.166650E+03  5.842419E+04  2.124445E+04 -4.282348E+04 -1.458302E+00
        39   2  3.121231E+06 -2.472044E+04  9.141224E+04 -1.426216E+04 -9.223294E+04  2.108682E+00
        39   3  3.149905E+06  1.637990E+05  2.077241E+05 -4.976992E+04 -1.416409E+05  1.130017E+01
        39   4  3.150167E+06 -8.167494E+03  5.842407E+04 -2.301409E-08 -4.282348E+04 -7.142144E-09
        39   5  3.121231E+06 -2.472082E+04  9.141218E+04  1.236031E-07 -9.223294E+04  5.318077E-09
        39   6  3.149902E+06  1.637944E+05  2.077235E+05  2.868700E-08 -1.416409E+05  3.518699E-09
        39   7  3.150167E+06 -8.166650E+03  5.842419E+04 -2.124445E+04 -4.282348E+04  1.458302E+00
        39   8  3.121231E+06 -2.472044E+04  9.141224E+04  1.426216E+04 -9.223294E+04 -2.108682E+00
        39   9  3.149905E+06  1.637990E+05  2.077241E+05  4.976992E+04 -1.416409E+05 -1.130017E+01
        39  10  3.150165E+06 -8.167139E+03  5.842076E+04  2.124445E+04  5.515510E-09 -5.197079E-09
        39  11  3.121222E+06 -2.472270E+04  9.139633E+04 -1.426216E+04  2.008713E-08 -5.702935E-09
        39  12  3.149883E+06  1.637937E+05  2.076866E+05 -4.976992E+04  3.805412E-09 -2.245560E-09
        39  13  3.150165E+06 -8.167983E+03  5.842064E+04 -2.271911E-08  3.219614E-08 -4.975051E-09
        39  14  3.121222E+06 -2.472309E+04  9.139628E+04  1.237511E-07  3.450930E-08 -1.003170E-09
        39  15  3.149881E+06  1.637891E+05  2.076860E+05  2.184735E-07  1.460984E-08  1.440339E-10
        39  16  3.150165E+06 -8.167139E+03  5.842076E+04 -2.124445E+04  1.102568E-08 -4.226604E-09
        39  17  3.121222E+06 -2.472270E+04  9.139633E+04  1.426216E+04 -3.674233E-09  3.674604E-09
        39  18  3.149883E+06  1.637937E+05  2.076866E+05  4.976992E+04 -1.861789E-08  2.294958E-09
        39  19  3.150167E+06 -8.166650E+03  5.842419E+04  2.124445E+04  4.282348E+04  1.458302E+00
        39  20  3.121231E+06 -2.472044E+04  9.141224E+04 -1.426216E+04  9.223294E+04 -2.108682E+00
        39  21  3.149905E+06  1.637990E+05  2.077241E+05 -4.976992E+04  1.416409E+05 -1.130017E+01
        39  22  3.150167E+06 -8.167494E+03  5.842407E+04 -2.984576E-07  4.282348E+04 -2.812433E-09
        39  23  3.121231E+06 -2.472082E+04  9.141218E+04  5.488923E-08  9.223294E+04 -7.466025E-09
        39  24  3.149902E+06  1.637944E+05  2.077235E+05  1.753059E-07  1.416409E+05 -3.110301E-09
        39  25  3.150167E+06 -8.166650E+03  5.842419E+04 -2.124445E+04  4.282348E+04 -1.458302E+00
        39  26  3.121231E+06 -2.472044E+04  9.141224E+04  1.426216E+04  9.223294E+04  2.108682E+00
        39  27  3.149905E+06  1.637990E+05  2.077241E+05  4.976992E+04  1.416409E+05  1.130017E+01
        40   1 -5.311193E+06 -1.932472E+07 -5.365806E+06  1.889186E+06 -1.833439E+05 -6.040812E+05
        40   2 -3.971321E+06 -1.586917E+07 -4.114779E+06  3.423164E+05 -5.069043E+05 -2.562906E+05
        40   3 -3.007126E+06 -1.232549E+07 -3.143390E+06  1.557910E+06 -3.713427E+05  8.757003E+04
        40   4 -4.138377E+05  8.106051E+04 -5.124847E+05  1.867074E+06 -1.811545E+05 -3.501438E+05
        40   5  1.230871E+04  2.919772E+04 -2.579631E+05  4.845299E+05 -5.053456E+05 -2.131129E+05
        40   6  1.108047E+05  1.005102E+05 -1.281975E+05  1.861178E+06 -3.753976E+05 -8.196741E+04
        40   7  4.454940E+06  1.983523E+07  4.312641E+06  1.843164E+06 -1.790301E+05 -8.793777E+04
        40   8  3.977313E+06  1.616238E+07  3.580628E+06  6.294607E+05 -5.037918E+05 -1.687514E+05
        40   9  3.217526E+06  1.266950E+07  2.875961E+06  2.169469E+06 -3.795772E+05 -2.549249E+05
        40  10 -5.311331E+06 -1.932513E+07 -5.366574E+06  1.889096E+06  1.039782E-08 -3.744195E-09
        40  11 -3.971616E+06 -1.586931E+07 -4.115388E+06  3.422106E+05  2.161115E-08 -4.694699E-09
        40  12 -3.007276E+06 -1.232553E+07 -3.143664E+06  1.557937E+06 -2.229157E-08 -5.426061E-09
        40  13 -4.139055E+05  8.092030E+04 -5.127758E+05  1.867023E+06 -1.560818E-08  3.877051E-09
        40  14  1.202234E+04  2.908050E+04 -2.585279E+05  4.844432E+05  1.376533E-08  9.300802E-11
        40  15  1.106517E+05  1.004653E+05 -1.284745E+05  1.861153E+06 -3.563853E-08 -5.902898E-09
        40  16  4.454904E+06  1.983521E+07  4.312567E+06  1.843151E+06 -2.437155E-08 -1.226863E-09
        40  17  3.977033E+06  1.616228E+07  3.580099E+06  6.293931E+05 -3.752673E-08  1.739468E-08
        40  18  3.217355E+06  1.266939E+07  2.875572E+06  2.169392E+06 -4.590950E-08 -1.527101E-08
        40  19 -5.311193E+06 -1.932472E+07 -5.365806E+06  1.889186E+06  1.833439E+05  6.040812E+05
        40  20 -3.971321E+06 -1.586917E+07 -4.114779E+06  3.423164E+05  5.069043E+05  2.562906E+05
        40  21 -3.007126E+06 -1.232549E+07 -3.143390E+06  1.557910E+06  3.713427E+05 -8.757003E+04
        40  22 -4.138377E+05  8.106051E+04 -5.124847E+05  1.867074E+06  1.811545E+05  3.501438E+05
        40  23  1.230871E+04  2.919772E+04 -2.579631E+05  4.845299E+05  5.053456E+05  2.131129E+05
        40  24  1.108047E+05  1.005102E+05 -1.281975E+05  1.861178E+06  3.753976E+05  8.196741E+04
        40  25  4.454940E+06  1.983523E+07  4.312641E+06  1.843164E+06  1.790301E+05  8.793777E+04
        40  26  3.977313E+06  1.616238E+07  3.580628E+06  6.294607E+05  5.037918E+05  1.687514E+05
        40  27  3.217526E+06  1.266950E+07  2.875961E+06  2.169469E+06  3.795772E+05  2.549249E+05
        41   1 -1.827605E+06 -7.384858E+06 -1.925479E+06  1.718527E+06 -2.238397E+05 -2.088963E+04
        41   2 -9.427628E+05 -3.788992E+06 -1.019760E+06  3.963646E+05 -1.189388E+05  1.833007E+04
        41   3  4.065039E+03 -3.597613E+05 -1.660333E+05  1.833007E+06 -1.147147E+03  5.633461E+04
        41   4  3.300534E+04  6.232536E+04 -1.242566E+05  1.864053E+06 -2.250909E+05 -6.767379E+04
        41   5  4.065578E+04  1.529819E+05 -6.876113E+04  4.841974E+05 -1.205718E+05 -3.435850E+04
        41   6  1.126367E+05  6.717251E+04 -5.989540E+04  1.861837E+06 -3.236522E+03 -2.488750E+03
        41   7  1.889576E+06  7.560616E+06  1.672992E+06  2.010886E+06 -2.263563E+05 -1.150183E+05
        41   8  1.022952E+06  4.109236E+06  8.811369E+05  5.724741E+05 -1.222145E+05 -8.738157E+04
        41   9  2.211988E+05  4.942802E+05  4.624201E+04  1.890687E+06 -5.330603E+03 -6.135257E+04
        41  10 -1.827658E+06 -7.384872E+06 -1.925574E+06  1.718523E+06 -1.074505E-08  2.188641E-08
        41  11 -9.427781E+05 -3.788997E+06 -1.019788E+06  3.963663E+05  3.498854E-08  2.542906E-08
        41  12  4.064184E+03 -3.597647E+05 -1.660393E+05  1.833007E+06  3.402706E-08  1.053642E-08
        41  13  3.294977E+04  6.230691E+04 -1.243602E+05  1.864041E+06 -1.728305E-08  3.044917E-08
        41  14  4.063986E+04  1.529768E+05 -6.879065E+04  4.841941E+05  3.757556E-08 -4.275931E-10
        41  15  1.126367E+05  6.717250E+04 -5.989543E+04  1.861837E+06  4.611106E-09 -8.862475E-09
        41  16  1.889517E+06  7.560588E+06  1.672871E+06  2.010865E+06 -4.670911E-08 -5.850196E-08
        41  17  1.022934E+06  4.109224E+06  8.810946E+05  5.724656E+05 -6.818575E-08 -6.303783E-10
        41  18  2.211977E+05  4.942761E+05  4.623489E+04  1.890686E+06 -1.068016E-08 -4.076033E-08
        41  19 -1.827605E+06 -7.384858E+06 -1.925479E+06  1.718527E+06  2.238397E+05  2.088963E+04
        41  20 -9.427628E+05 -3.788992E+06 -1.019760E+06  3.963646E+05  1.189388E+05 -1.833007E+04
        41  21  4.065039E+03 -3.597613E+05 -1.660333E+05  1.833007E+06  1.147147E+03 -5.633461E+04
        41  22  3.300534E+04  6.232536E+04 -1.242566E+05  1.864053E+06  2.250909E+05  6.767379E+04
        41  23  4.065578E+04  1.529819E+05 -6.876113E+04  4.841974E+05  1.205718E+05  3.435850E+04
        41  24  1.126367E+05  6.717251E+04 -5.989540E+04  1.861837E+06  3.236522E+03  2.488750E+03
        41  25  1.889576E+06  7.560616E+06  1.672992E+06  2.010886E+06  2.263563E+05  1.150183E+05
        41  26  1.022952E+06  4.109236E+06  8.811369E+05  5.724741E+05  1.222145E+05  8.738157E+04
        41  27  2.211988E+05  4.942802E+05  4.624201E+04  1.890687E+06  5.330603E+03  6.135257E+04
        42   1  1.268299E+06  4.675514E+06  1.052316E+06  2.000424E+06  1.300210E+05  1.338542E+05
        42   2  2.042591E+06  8.258513E+06  1.864198E+06  6.450204E+05  2.573591E+05  3.308616E+04
        42   3  2.862756E+06  1.177569E+07  2.727565E+06  2.042724E+06  9.815413E+04 -6.000986E+04
        42   4  1.232458E+05  7.774909E+04 -5.594541E+04  1.860714E+06  1.254677E+05  1.307590E+03
        42   5  3.005367E+04  1.239333E+05 -8.019462E+04  4.850393E+05  2.577481E+05  3.897168E+04
        42   6 -4.148697E+04  6.782017E+04 -1.483832E+05  1.864734E+06  1.018249E+05  8.489929E+04
        42   7 -1.023305E+06 -4.500726E+06 -1.165652E+06  1.721845E+06  1.209557E+05 -1.302659E+05
        42   8 -1.987222E+06 -7.950503E+06 -2.029254E+06  3.266957E+05  2.581373E+05  4.477791E+04
        42   9 -2.955817E+06 -1.151678E+07 -3.034335E+06  1.689135E+06  1.054516E+05  2.271053E+05
        42  10  1.268276E+06  4.675491E+06  1.052251E+06  2.000410E+06  3.671639E-09  8.942801E-09
        42  11  2.042520E+06  8.258494E+06  1.864071E+06  6.450136E+05  4.515881E-09  2.198623E-08
        42  12  2.862745E+06  1.177569E+07  2.727540E+06  2.042728E+06  2.208222E-09  2.184457E-09
        42  13  1.232289E+05  7.774486E+04 -5.597499E+04  1.860714E+06 -3.332428E-08  3.439692E-08
        42  14  2.998193E+04  1.239139E+05 -8.032228E+04  4.850313E+05  1.586405E-08  6.096436E-11
        42  15 -4.150000E+04  6.780969E+04 -1.484161E+05  1.864727E+06  2.266952E-08 -5.733717E-09
        42  16 -1.023325E+06 -4.500748E+06 -1.165712E+06  1.721858E+06  1.388232E-08 -5.238984E-08
        42  17 -1.987294E+06 -7.950523E+06 -2.029383E+06  3.266863E+05  8.316886E-09  4.739384E-10
        42  18 -2.955843E+06 -1.151684E+07 -3.034454E+06  1.689116E+06 -2.050503E-08 -2.169781E-08
        42  19  1.268299E+06  4.675514E+06  1.052316E+06  2.000424E+06 -1.300210E+05 -1.338542E+05
        42  20  2.042591E+06  8.258513E+06  1.864198E+06  6.450204E+05 -2.573591E+05 -3.308616E+04
        42  21  2.862756E+06  1.177569E+07  2.727565E+06  2.042724E+06 -9.815413E+04  6.000986E+04
        42  22  1.232458E+05  7.774909E+04 -5.594541E+04  1.860714E+06 -1.254677E+05 -1.307590E+03
        42  23  3.005367E+04  1.239333E+05 -8.019462E+04  4.850393E+05 -2.577481E+05 -3.897168E+04
        42  24 -4.148697E+04  6.782017E+04 -1.483832E+05  1.864734E+06 -1.018249E+05 -8.489929E+04
        42  25 -1.023305E+06 -4.500726E+06 -1.165652E+06  1.721845E+06 -1.209557E+05  1.302659E+05
        42  26 -1.987222E+06 -7.950503E+06 -2.029254E+06  3.266957E+05 -2.581373E+05 -4.477791E+04
        42  27 -2.955817E+06 -1.151678E+07 -3.034335E+06  1.689135E+06 -1.054516E+05 -2.271053E+05
        43   1  1.921831E+06 -3.491121E+04 -4.399469E+04 -1.053146E+04 -3.148526E+04  5.325155E-01
        43   2  1.927877E+06  5.231173E+03 -1.820357E+04 -3.007726E+03 -2.159426E+04  1.043064E-01
        43   3  1.921793E+06  1.958546E+03 -9.690483E+03  4.516190E+03 -1.170315E+04 -8.488154E-02
        43   4  1.921830E+06 -3.491142E+04 -4.399472E+04 -2.222471E-07 -3.148526E+04  2.403128E-09
        43   5  1.927877E+06  5.231156E+03 -1.820358E+04  3.462832E-07 -2.159426E+04  3.826719E-09
        43   6  1.921793E+06  1.958508E+03 -9.690488E+03  8.704691E-08 -1.170315E+04 -4.287540E-09
        43   7  1.921831E+06 -3.491121E+04 -4.399469E+04  1.053146E+04 -3.148526E+04 -5.325155E-01
        43   8  1.927877E+06  5.231173E+03 -1.820357E+04  3.007726E+03 -2.159426E+04 -1.043064E-01
        43   9  1.921793E+06  1.958546E+03 -9.690483E+03 -4.516190E+03 -1.170315E+04  8.488153E-02
        43  10  1.921829E+06 -3.491147E+04 -4.399655E+04 -1.053146E+04 -1.226059E-08 -1.407137E-09
        43  11  1.927876E+06  5.231048E+03 -1.820445E+04 -3.007726E+03  8.689244E-09 -3.287291E-09
        43  12  1.921793E+06  1.958510E+03 -9.690740E+03  4.516190E+03 -5.316539E-09 -3.685009E-10
        43  13  1.921829E+06 -3.491168E+04 -4.399658E+04 -4.702960E-08  6.973344E-10 -5.204474E-10
        43  14  1.927876E+06  5.231031E+03 -1.820445E+04  2.774238E-07 -2.513594E-08 -1.871391E-10
        43  15  1.921793E+06  1.958471E+03 -9.690745E+03 -1.708630E-09  1.371072E-09  3.559306E-09
        43  16  1.921829E+06 -3.491147E+04 -4.399655E+04  1.053146E+04 -2.182924E-08  3.102727E-10
        43  17  1.927876E+06  5.231048E+03 -1.820445E+04  3.007726E+03  1.676463E-09  2.708610E-09
        43  18  1.921793E+06  1.958510E+03 -9.690740E+03 -4.516190E+03 -1.132504E-08  7.504875E-09
        43  19  1.921831E+06 -3.491121E+04 -4.399469E+04 -1.053146E+04  3.148526E+04 -5.325155E-01
        43  20  1.927877E+06  5.231173E+03 -1.820357E+04 -3.007726E+03  2.159426E+04 -1.043064E-01
        43  21  1.921793E+06  1.958546E+03 -9.690483E+03  4.516190E+03  1.170315E+04  8.488154E-02
        43  22  1.921830E+06 -3.491142E+04 -4.399472E+04 -1.477164E-07  3.148526E+04 -3.563962E-09
        43  23  1.927877E+06  5.231156E+03 -1.820358E+04  7.060625E-08  2.159426E+04 -4.250966E-09
        43  24  1.921793E+06  1.958508E+03 -9.690488E+03 -1.163189E-07  1.170315E+04  1.153326E-08
        43  25  1.921831E+06 -3.491121E+04 -4.399469E+04  1.053146E+04  3.148526E+04  5.325155E-01
        43  26  1.927877E+06  5.231173E+03 -1.820357E+04  3.007726E+03  2.159426E+04  1.043064E-01
        43  27  1.921793E+06  1.958546E+03 -9.690483E+03 -4.516190E+03  1.170315E+04 -8.488151E-02
        44   1  1.924376E+06 -3.885048E+03 -6.618519E+03 -7.437044E+02 -1.032124E+04  1.232732E-02
        44   2  1.924642E+06  2.768645E+02  8.146982E+02 -3.069776E+02 -1.067519E+04  5.262839E-03
        44   3  1.924365E+06  2.079446E+03  7.888026E+03  1.297481E+02 -1.102914E+04 -2.298184E-03
        44   4  1.924376E+06 -3.885049E+03 -6.618519E+03 -1.274488E-08 -1.032124E+04  3.816080E-09
        44   5  1.924642E+06  2.768644E+02  8.146981E+02 -7.742005E-08 -1.067519E+04  1.515680E-08
        44   6  1.924365E+06  2.079446E+03  7.888026E+03 -1.593352E-07 -1.102914E+04 -2.167341E-08
        44   7  1.924376E+06 -3.885048E+03 -6.618519E+03  7.437044E+02 -1.032124E+04 -1.232732E-02
        44   8  1.924642E+06  2.768645E+02  8.146982E+02  3.069776E+02 -1.067519E+04 -5.262808E-03
        44   9  1.924365E+06  2.079446E+03  7.888026E+03 -1.297481E+02 -1.102914E+04  2.298141E-03
        44  10  1.924376E+06 -3.885077E+03 -6.618718E+03 -7.437044E+02  1.027558E-08  1.812751E-09
        44  11  1.924642E+06  2.768341E+02  8.144847E+02 -3.069776E+02 -8.493417E-09 -2.451419E-09
        44  12  1.924365E+06  2.079413E+03  7.887798E+03  1.297481E+02  1.493969E-09 -1.548125E-08
        44  13  1.924376E+06 -3.885078E+03 -6.618719E+03  5.600519E-08  1.783891E-08  4.350673E-09
        44  14  1.924642E+06  2.768339E+02  8.144847E+02  2.557983E-08 -7.545999E-09 -1.523612E-09
        44  15  1.924365E+06  2.079413E+03  7.887798E+03  1.331180E-07 -2.854980E-08 -1.146214E-08
        44  16  1.924376E+06 -3.885077E+03 -6.618718E+03  7.437044E+02 -1.050519E-08  7.123927E-09
        44  17  1.924642E+06  2.768341E+02  8.144847E+02  3.069776E+02  2.246988E-08 -5.968011E-10
        44  18  1.924365E+06  2.079413E+03  7.887798E+03 -1.297481E+02  4.541556E-10 -7.123626E-09
        44  19  1.924376E+06 -3.885048E+03 -6.618519E+03 -7.437044E+02  1.032124E+04 -1.232732E-02
        44  20  1.924642E+06  2.768645E+02  8.146982E+02 -3.069776E+02  1.067519E+04 -5.262844E-03
        44  21  1.924365E+06  2.079446E+03  7.888026E+03  1.297481E+02  1.102914E+04  2.298153E-03
        44  22  1.924376E+06 -3.885049E+03 -6.618519E+03  1.247353E-07  1.032124E+04  4.898474E-09
        44  23  1.924642E+06  2.768644E+02  8.146981E+02  1.975560E-07  1.067519E+04 -1.828199E-08
        44  24  1.924365E+06  2.079446E+03  7.888026E+03 -2.278663E-08  1.102914E+04 -1.277535E-09
        44  25  1.924376E+06 -3.885048E+03 -6.618519E+03  7.437044E+02  1.032124E+04  1.232733E-02
        44  26  1.924642E+06  2.768645E+02  8.146982E+02  3.069776E+02  1.067519E+04  5.262807E-03
        44  27  1.924365E+06  2.079446E+03  7.888026E+03 -1.297481E+02  1.102914E+04 -2.298155E-03
        45   1  1.926025E+06 -1.288831E+03  1.157025E+04  2.343777E+03 -1.275453E+04 -4.800837E-02
        45   2  1.922559E+06 -2.671775E+03  2.210215E+04 -1.221601E+03 -2.412451E+04  4.732895E-02
        45   3  1.925998E+06  1.767638E+04  4.545284E+04 -4.786916E+03 -3.549445E+04  2.728688E-01
        45   4  1.926025E+06 -1.288841E+03  1.157025E+04 -1.144058E-08 -1.275453E+04 -1.716691E-08
        45   5  1.922559E+06 -2.671778E+03  2.210215E+04  2.685091E-07 -2.412451E+04  2.082313E-08
        45   6  1.925998E+06  1.767634E+04  4.545284E+04  1.388262E-08 -3.549445E+04 -1.161265E-08
        45   7  1.926025E+06 -1.288831E+03  1.157025E+04 -2.343777E+03 -1.275453E+04  4.800834E-02
        45   8  1.922559E+06 -2.671775E+03  2.210215E+04  1.221601E+03 -2.412451E+04 -4.732892E-02
        45   9  1.925998E+06  1.767638E+04  4.545284E+04  4.786916E+03 -3.549445E+04 -2.728688E-01
        45  10  1.926025E+06 -1.288874E+03  1.156994E+04  2.343777E+03 -3.085169E-08 -1.004390E-08
        45  11  1.922558E+06 -2.671931E+03  2.210106E+04 -1.221601E+03  1.425411E-09  1.015452E-08
        45  12  1.925997E+06  1.767605E+04  4.545048E+04 -4.786916E+03  2.634539E-08  2.292714E-09
        45  13  1.926025E+06 -1.288885E+03  1.156994E+04  3.635778E-07 -6.594049E-10 -4.148830E-09
        45  14  1.922558E+06 -2.671934E+03  2.210106E+04  3.471781E-07 -1.722838E-08  1.417729E-08
        45  15  1.925997E+06  1.767600E+04  4.545048E+04  2.962987E-07 -1.649285E-08  2.871884E-09
        45  16  1.926025E+06 -1.288874E+03  1.156994E+04 -2.343777E+03  1.279442E-08  6.389968E-10
        45  17  1.922558E+06 -2.671931E+03  2.210106E+04  1.221601E+03 -1.230907E-08  1.330428E-08
        45  18  1.925997E+06  1.767605E+04  4.545048E+04  4.786916E+03 -1.244778E-08 -5.309388E-09
        45  19  1.926025E+06 -1.288831E+03  1.157025E+04  2.343777E+03  1.275453E+04  4.800835E-02
        45  20  1.922559E+06 -2.671775E+03  2.210215E+04 -1.221601E+03  2.412451E+04 -4.732893E-02
        45  21  1.925998E+06  1.767638E+04  4.545284E+04 -4.786916E+03  3.549445E+04 -2.728688E-01
        45  22  1.926025E+06 -1.288841E+03  1.157025E+04  9.881134E-08  1.275453E+04  8.908824E-09
        45  23  1.922559E+06 -2.671778E+03  2.210215E+04  1.999500E-07  2.412451E+04  7.733419E-09
        45  24  1.925998E+06  1.767634E+04  4.545284E+04  4.241883E-08  3.549445E+04  1.739792E-08
        45  25  1.926025E+06 -1.288831E+03  1.157025E+04 -2.343777E+03  1.275453E+04 -4.800833E-02
        45  26  1.922559E+06 -2.671775E+03  2.210215E+04  1.221601E+03  2.412451E+04  4.732895E-02
        45  27  1.925998E+06  1.767638E+04  4.545284E+04  4.786916E+03  3.549445E+04  2.728688E-01
        46   1  1.937182E+06 -8.249895E+03  5.598205E+04  2.103923E+04 -4.422124E+04 -1.494137E+00
        46   2  1.908570E+06 -2.450147E+04  8.974199E+04 -1.410480E+04 -9.274443E+04  2.100894E+00
        46   3  1.937024E+06  1.624576E+05  2.058305E+05 -4.925098E+04 -1.412677E+05  1.117369E+01
        46   4  1.937181E+06 -8.250724E+03  5.598193E+04 -1.142554E-08 -4.422124E+04 -2.482557E-08
        46   5  1.908570E+06 -2.450184E+04  8.974194E+04  1.179278E-07 -9.274443E+04 -3.601974E-09
        46   6  1.937022E+06  1.624531E+05  2.058298E+05 -3.724515E-08 -1.412677E+05  2.030821E-09
        46   7  1.937182E+06 -8.249895E+03  5.598205E+04 -2.103923E+04 -4.422124E+04  1.494137E+00
        46   8  1.908570E+06 -2.450147E+04  8.974199E+04  1.410480E+04 -9.274443E+04 -2.100894E+00
        46   9  1.937024E+06  1.624576E+05  2.058305E+05  4.925098E+04 -1.412677E+05 -1.117369E+01
        46  10  1.937180E+06 -8.250418E+03  5.597838E+04  2.103923E+04 -9.657110E-09 -3.791429E-09
        46  11  1.908561E+06 -2.450377E+04  8.972588E+04 -1.410480E+04 -1.615133E-09 -1.025452E-09
        46  12  1.937003E+06  1.624523E+05  2.057931E+05 -4.925098E+04 -7.183081E-09  1.597862E-10
        46  13  1.937179E+06 -8.251247E+03  5.597827E+04  3.430693E-07 -1.731327E-08 -3.737810E-09
        46  14  1.908561E+06 -2.450414E+04  8.972582E+04  1.775633E-07 -3.592545E-10  1.027001E-09
        46  15  1.937000E+06  1.624478E+05  2.057924E+05 -5.691614E-08 -3.558111E-09  9.167309E-10
        46  16  1.937180E+06 -8.250418E+03  5.597838E+04 -2.103923E+04  9.940655E-09 -1.233388E-08
        46  17  1.908561E+06 -2.450377E+04  8.972588E+04  1.410480E+04  5.233451E-09 -2.165066E-09
        46  18  1.937003E+06  1.624523E+05  2.057931E+05  4.925098E+04 -1.683788E-08  6.505730E-10
        46  19  1.937182E+06 -8.249895E+03  5.598205E+04  2.103923E+04  4.422124E+04  1.494137E+00
        46  20  1.908570E+06 -2.450147E+04  8.974199E+04 -1.410480E+04  9.274443E+04 -2.100894E+00
        46  21  1.937024E+06  1.624576E+05  2.058305E+05 -4.925098E+04  1.412677E+05 -1.117369E+01
        46  22  1.937181E+06 -8.250724E+03  5.598193E+04  1.647056E-07  4.422124E+04  1.733376E-08
        46  23  1.908570E+06 -2.450184E+04  8.974194E+04  8.371830E-08  9.274443E+04  5.537757E-09
        46  24  1.937022E+06  1.624531E+05  2.058298E+05 -1.438425E-07  1.412677E+05 -1.700399E-10
        46  25  1.937182E+06 -8.249895E+03  5.598205E+04 -2.103923E+04  4.422124E+04 -1.494137E+00
        46  26  1.908570E+06 -2.450147E+04  8.974199E+04  1.410480E+04  9.274443E+04  2.100894E+00
        46  27  1.937024E+06  1.624576E+05  2.058305E+05  4.925098E+04  1.412677E+05  1.117369E+01
        47   1 -4.831209E+06 -1.729600E+07 -4.815762E+06  1.748517E+06 -1.737429E+05 -3.684167E+05
        47   2 -3.839248E+06 -1.403602E+07 -3.797290E+06  3.295577E+05 -4.828471E+05 -1.109735E+05
        47   3 -2.895191E+06 -1.061075E+07 -2.919200E+06  1.546572E+06 -3.550543E+05  1.424956E+05
        47   4 -1.455104E+05  1.303397E+06 -1.731149E+05  1.798162E+06 -1.718018E+05 -1.216207E+05
        47   5 -2.399465E+04  1.214064E+06 -1.041671E+05  4.802572E+05 -4.814024E+05 -6.747241E+04
        47   6  9.089898E+04  1.321081E+06 -2.958577E+04  1.795035E+06 -3.587390E+05 -1.864493E+04
        47   7  4.514022E+06  2.022195E+07  4.443733E+06  1.848371E+06 -1.698603E+05  1.327687E+05
        47   8  3.774188E+06  1.667962E+07  3.572249E+06  6.338465E+05 -4.799588E+05 -2.286924E+04
        47   9  3.066644E+06  1.338441E+07  2.849894E+06  2.047328E+06 -3.625168E+05 -1.829088E+05
        47  10 -4.831279E+06 -1.729615E+07 -4.816080E+06  1.748465E+06 -1.969121E-08 -7.109425E-09
        47  11 -3.839503E+06 -1.403609E+07 -3.797752E+06  3.295141E+05 -2.880504E-08  2.855684E-09
        47  12 -2.895332E+06 -1.061080E+07 -2.919477E+06  1.546613E+06  5.222155E-09  6.220733E-08
        47  13 -1.455460E+05  1.303374E+06 -1.731979E+05  1.798146E+06 -2.407073E-09  3.847258E-09
        47  14 -2.424486E+04  1.213996E+06 -1.046113E+05  4.802311E+05 -1.104476E-08 -1.537552E-08
        47  15  9.076065E+04  1.321046E+06 -2.982829E+04  1.795030E+06 -1.171668E-08  8.885678E-09
        47  16  4.513987E+06  2.022193E+07  4.443646E+06  1.848389E+06 -2.292064E-09  1.107308E-08
        47  17  3.773941E+06  1.667956E+07  3.571815E+06  6.338378E+05 -1.133623E-08 -3.333734E-08
        47  18  3.066495E+06  1.338434E+07  2.849587E+06  2.047275E+06 -1.611460E-08 -4.337321E-08
        47  19 -4.831209E+06 -1.729600E+07 -4.815762E+06  1.748517E+06  1.737429E+05  3.684167E+05
        47  20 -3.839248E+06 -1.403602E+07 -3.797290E+06  3.295577E+05  4.828471E+05  1.109735E+05
        47  21 -2.895191E+06 -1.061075E+07 -2.919200E+06  1.546572E+06  3.550543E+05 -1.424956E+05
        47  22 -1.455104E+05  1.303397E+06 -1.731149E+05  1.798162E+06  1.718018E+05  1.216207E+05
        47  23 -2.399465E+04  1.214064E+06 -1.041671E+05  4.802572E+05  4.814024E+05  6.747241E+04
        47  24  9.089898E+04  1.321081E+06 -2.958577E+04  1.795035E+06  3.587390E+05  1.864493E+04
        47  25  4.514022E+06  2.022195E+07  4.443733E+06  1.848371E+06  1.698603E+05 -1.327687E+05
        47  26  3.774188E+06  1.667962E+07  3.572249E+06  6.338465E+05  4.799588E+05  2.286924E+04
        47  27  3.066644E+06  1.338441E+07  2.849894E+06  2.047328E+06  3.625168E+05  1.829088E+05
        48   1 -1.749954E+06 -5.958683E+06 -1.784982E+06  1.642830E+06 -2.153133E+05  2.380725E+04
        48   2 -9.485351E+05 -2.589932E+06 -9.623784E+05  4.062730E+05 -1.180354E+05  3.543691E+04
        48   3 -4.406055E+04  6.448693E+05 -1.588410E+05  1.760373E+06 -8.087797E+03  4.577904E+04
        48   4  5.409546E+04  1.271651E+06 -3.869769E+04  1.787070E+06 -2.164152E+05 -1.954919E+04
        48   5  3.171143E+04  1.345208E+06 -1.434120E+04  4.915525E+05 -1.195018E+05 -1.398932E+04
        48   6  1.144106E+05  1.276148E+06 -3.944367E+03  1.785451E+06 -9.986504E+03 -9.786245E+03
        48   7  1.854352E+06  8.550047E+06  1.703851E+06  1.932592E+06 -2.175307E+05 -6.341121E+04
        48   8  1.010842E+06  5.294548E+06  9.326009E+05  5.772626E+05 -1.209771E+05 -6.372853E+04
        48   9  2.728551E+05  1.907796E+06  1.509347E+05  1.810551E+06 -1.188867E+04 -6.540791E+04
        48  10 -1.750004E+06 -5.958696E+06 -1.785070E+06  1.642834E+06  2.286457E-11  4.608115E-08
        48  11 -9.485504E+05 -2.589938E+06 -9.624070E+05  4.062763E+05 -2.363665E-08 -6.504628E-09
        48  12 -4.406119E+04  6.448670E+05 -1.588451E+05  1.760373E+06  1.278087E-08  4.624522E-08
        48  13  5.404506E+04  1.271638E+06 -3.878640E+04  1.787067E+06  1.573788E-08  2.779989E-08
        48  14  3.169603E+04  1.345204E+06 -1.436841E+04  4.915511E+05 -4.233349E-08 -3.269394E-08
        48  15  1.144105E+05  1.276148E+06 -3.944733E+03  1.785451E+06 -1.121046E-08  1.322368E-08
        48  16  1.854300E+06  8.550030E+06  1.703755E+06  1.932581E+06  2.608354E-08 -1.940322E-08
        48  17  1.010825E+06  5.294539E+06  9.325658E+05  5.772564E+05 -1.468270E-08 -5.896553E-08
        48  18  2.728539E+05  1.907791E+06  1.509264E+05  1.810550E+06 -1.827380E-08 -1.822960E-08
        48  19 -1.749954E+06 -5.958683E+06 -1.784982E+06  1.642830E+06  2.153133E+05 -2.380725E+04
        48  20 -9.485351E+05 -2.589932E+06 -9.623784E+05  4.062730E+05  1.180354E+05 -3.543691E+04
        48  21 -4.406055E+04  6.448693E+05 -1.588410E+05  1.760373E+06  8.087797E+03 -4.577904E+04
        48  22  5.409546E+04  1.271651E+06 -3.869769E+04  1.787070E+06  2.164152E+05  1.954919E+04
        48  23  3.171143E+04  1.345208E+06 -1.434120E+04  4.915525E+05  1.195018E+05  1.398932E+04
        48  24  1.144106E+05  1.276148E+06 -3.944367E+03  1.785451E+06  9.986504E+03  9.786245E+03
        48  25  1.854352E+06  8.550047E+06  1.703851E+06  1.932592E+06  2.175307E+05  6.341121E+04
        48  26  1.010842E+06  5.294548E+06  9.326009E+05  5.772626E+05  1.209771E+05  6.372853E+04
        48  27  2.728551E+05  1.907796E+06  1.509347E+05  1.810551E+06  1.188867E+04  6.540791E+04
        49   1  1.123474E+06  5.369589E+06  9.840563E+05  1.892401E+06  1.139447E+05  1.082411E+05
        49   2  1.845098E+06  8.727450E+06  1.765785E+06  6.424275E+05  2.328464E+05 -2.236528E+04
        49   3  2.749966E+06  1.205635E+07  2.652903E+06  1.983870E+06  8.766163E+04 -1.462473E+05
        49   4  1.099108E+05  1.289602E+06  1.673176E+03  1.786645E+06  1.098499E+05 -1.515882E+04
        49   5  1.263761E+04  1.316076E+06 -4.188709E+03  4.904176E+05  2.331581E+05 -1.770498E+04
        49   6  7.729737E+04  1.281155E+06  7.755021E+03  1.787392E+06  9.099720E+04 -1.281136E+04
        49   7 -9.048359E+05 -2.775218E+06 -9.818395E+05  1.681436E+06  1.057826E+05 -1.377554E+05
        49   8 -1.823742E+06 -6.045443E+06 -1.778027E+06  3.398480E+05  2.334700E+05 -1.309897E+04
        49   9 -2.603876E+06 -9.389741E+06 -2.645850E+06  1.593511E+06  9.428126E+04  1.183467E+05
        49  10  1.123457E+06  5.369573E+06  9.840102E+05  1.892392E+06  5.986888E-10  6.809571E-08
        49  11  1.845040E+06  8.727435E+06  1.765682E+06  6.424317E+05  8.618231E-09  2.675609E-09
        49  12  2.749952E+06  1.205632E+07  2.652849E+06  1.983881E+06 -7.234373E-09  5.429127E-09
        49  13  1.098977E+05  1.289599E+06  1.650036E+03  1.786646E+06  1.632442E-09  3.393533E-08
        49  14  1.257911E+04  1.316061E+06 -4.291532E+03  4.904209E+05  2.344270E-09 -2.897197E-08
        49  15  7.728843E+04  1.281153E+06  7.739129E+03  1.787393E+06  1.443754E-08  8.795236E-09
        49  16 -9.048531E+05 -2.775242E+06 -9.818966E+05  1.681448E+06 -4.970359E-08 -3.339519E-08
        49  17 -1.823801E+06 -6.045457E+06 -1.778130E+06  3.398505E+05 -5.827941E-09 -6.016786E-08
        49  18 -2.603889E+06 -9.389758E+06 -2.645894E+06  1.593502E+06  1.577846E-09  1.362156E-08
        49  19  1.123474E+06  5.369589E+06  9.840563E+05  1.892401E+06 -1.139447E+05 -1.082411E+05
        49  20  1.845098E+06  8.727450E+06  1.765785E+06  6.424275E+05 -2.328464E+05  2.236528E+04
        49  21  2.749966E+06  1.205635E+07  2.652903E+06  1.983870E+06 -8.766163E+04  1.462473E+05
        49  22  1.099108E+05  1.289602E+06  1.673176E+03  1.786645E+06 -1.098499E+05  1.515882E+04
        49  23  1.263761E+04  1.316076E+06 -4.188709E+03  4.904176E+05 -2.331581E+05  1.770498E+04
        49  24  7.729737E+04  1.281155E+06  7.755021E+03  1.787392E+06 -9.099720E+04  1.281136E+04
        49  25 -9.048359E+05 -2.775218E+06 -9.818395E+05  1.681436E+06 -1.057826E+05  1.377554E+05
        49  26 -1.823742E+06 -6.045443E+06 -1.778027E+06  3.398480E+05 -2.334700E+05  1.309897E+04
        49  27 -2.603876E+06 -9.389741E+06 -2.645850E+06  1.593511E+06 -9.428126E+04 -1.183467E+05
        50   1  7.428497E+05 -3.103938E+04 -3.918005E+04 -9.365979E+03 -2.764205E+04  4.165323E-01
        50   2  7.482579E+05  4.663215E+03 -1.648776E+04 -2.677120E+03 -1.870042E+04  8.054574E-02
        50   3  7.428368E+05  1.687996E+03 -9.280759E+03  4.011795E+03 -9.758809E+03 -6.298869E-02
        50   4  7.428496E+05 -3.103955E+04 -3.918007E+04 -5.889466E-08 -2.764205E+04  4.567567E-09
        50   5  7.482579E+05  4.663202E+03 -1.648776E+04  1.332536E-07 -1.870042E+04  1.202944E-08
        50   6  7.428368E+05  1.687966E+03 -9.280763E+03 -7.104357E-08 -9.758809E+03  8.133618E-09
        50   7  7.428497E+05 -3.103938E+04 -3.918005E+04  9.365979E+03 -2.764205E+04 -4.165323E-01
        50   8  7.482579E+05  4.663215E+03 -1.648776E+04  2.677120E+03 -1.870042E+04 -8.054571E-02
        50   9  7.428368E+05  1.687996E+03 -9.280759E+03 -4.011795E+03 -9.758809E+03  6.298871E-02
        50  10  7.428488E+05 -3.103959E+04 -3.918148E+04 -9.365979E+03 -3.729499E-09  2.499157E-09
        50  11  7.482575E+05  4.663122E+03 -1.648842E+04 -2.677120E+03  5.153350E-09  6.720224E-09
        50  12  7.428367E+05  1.687971E+03 -9.280938E+03  4.011795E+03 -2.615098E-09  3.885259E-09
        50  13  7.428487E+05 -3.103975E+04 -3.918151E+04 -8.686748E-08  5.676995E-10  9.040201E-10
        50  14  7.482575E+05  4.663108E+03 -1.648842E+04  8.921172E-08  5.424462E-10  1.336316E-09
        50  15  7.428367E+05  1.687940E+03 -9.280942E+03  1.791046E-07  2.231027E-09 -2.369635E-09
        50  16  7.428488E+05 -3.103959E+04 -3.918148E+04  9.365979E+03  1.247909E-08  4.059840E-10
        50  17  7.482575E+05  4.663122E+03 -1.648842E+04  2.677120E+03 -5.017751E-09  8.613180E-10
        50  18  7.428367E+05  1.687971E+03 -9.280938E+03 -4.011795E+03  2.441385E-09  6.744989E-11
        50  19  7.428497E+05 -3.103938E+04 -3.918005E+04 -9.365979E+03  2.764205E+04 -4.165323E-01
        50  20  7.482579E+05  4.663215E+03 -1.648776E+04 -2.677120E+03  1.870042E+04 -8.054573E-02
        50  21  7.428368E+05  1.687996E+03 -9.280759E+03  4.011795E+03  9.758809E+03  6.298870E-02
        50  22  7.428496E+05 -3.103955E+04 -3.918007E+04 -9.589683E-08  2.764205E+04 -2.769849E-09
        50  23  7.482579E+05  4.663202E+03 -1.648776E+04  1.330585E-07  1.870042E+04 -9.390788E-09
        50  24  7.428368E+05  1.687966E+03 -9.280763E+03  1.465507E-07  9.758809E+03 -1.286070E-08
        50  25  7.428497E+05 -3.103938E+04 -3.918005E+04  9.365979E+03  2.764205E+04  4.165323E-01
        50  26  7.482579E+05  4.663215E+03 -1.648776E+04  2.677120E+03  1.870042E+04  8.054571E-02
        50  27  7.428368E+05  1.687996E+03 -9.280759E+03 -4.011795E+03  9.758809E+03 -6.298871E-02
        51   1  7.450789E+05 -3.430478E+03 -6.782271E+03 -7.420117E+02 -8.391046E+03  1.001734E-02
        51   2  7.454535E+05  3.312906E+02 -8.663015E+02 -2.601891E+02 -7.906266E+03  3.309676E-03
        51   3  7.450757E+05  1.334642E+03  4.044803E+03  2.216256E+02 -7.421493E+03 -2.646278E-03
        51   4  7.450789E+05 -3.430479E+03 -6.782271E+03 -1.059540E-07 -8.391046E+03  3.983053E-09
        51   5  7.454535E+05  3.312905E+02 -8.663016E+02 -8.236174E-08 -7.906266E+03  3.673961E-09
        51   6  7.450757E+05  1.334642E+03  4.044803E+03 -1.567432E-08 -7.421493E+03  7.278860E-09
        51   7  7.450789E+05 -3.430478E+03 -6.782271E+03  7.420117E+02 -8.391046E+03 -1.001732E-02
        51   8  7.454535E+05  3.312906E+02 -8.663015E+02  2.601891E+02 -7.906266E+03 -3.309659E-03
        51   9  7.450757E+05  1.334642E+03  4.044803E+03 -2.216256E+02 -7.421493E+03  2.646303E-03
        51  10  7.450788E+05 -3.430497E+03 -6.782403E+03 -7.420117E+02 -2.739268E-08 -3.119830E-09
        51  11  7.454534E+05  3.312739E+02 -8.664189E+02 -2.601891E+02 -2.501148E-08 -4.615579E-09
        51  12  7.450757E+05  1.334627E+03  4.044700E+03  2.216256E+02  1.760900E-08  1.770307E-08
        51  13  7.450788E+05 -3.430498E+03 -6.782403E+03 -7.468003E-08 -1.728720E-08 -6.611876E-09
        51  14  7.454534E+05  3.312737E+02 -8.664189E+02 -1.306684E-08  2.557730E-08 -6.841117E-09
        51  15  7.450757E+05  1.334627E+03  4.044700E+03  6.579040E-08  1.065514E-08  5.168913E-09
        51  16  7.450788E+05 -3.430497E+03 -6.782403E+03  7.420117E+02  1.856808E-08 -2.136866E-10
        51  17  7.454534E+05  3.312739E+02 -8.664189E+02  2.601891E+02  1.989409E-08  7.871695E-10
        51  18  7.450757E+05  1.334627E+03  4.044700E+03 -2.216256E+02 -8.927457E-09  2.471049E-09
        51  19  7.450789E+05 -3.430478E+03 -6.782271E+03 -7.420117E+02  8.391046E+03 -1.001734E-02
        51  20  7.454535E+05  3.312906E+02 -8.663015E+02 -2.601891E+02  7.906266E+03 -3.309686E-03
        51  21  7.450757E+05  1.334642E+03  4.044803E+03  2.216256E+02  7.421493E+03  2.646313E-03
        51  22  7.450789E+05 -3.430479E+03 -6.782271E+03  9.447835E-08  8.391046E+03 -1.721788E-08
        51  23  7.454535E+05  3.312905E+02 -8.663016E+02 -1.271651E-08  7.906266E+03 -1.733179E-08
        51  24  7.450757E+05  1.334642E+03  4.044803E+03 -3.181370E-07  7.421493E+03  3.023577E-09
        51  25  7.450789E+05 -3.430478E+03 -6.782271E+03  7.420117E+02  8.391046E+03  1.001732E-02
        51  26  7.454535E+05  3.312906E+02 -8.663015E+02  2.601891E+02  7.906266E+03  3.309661E-03
        51  27  7.450757E+05  1.334642E+03  4.044803E+03 -2.216256E+02  7.421493E+03 -2.646297E-03
        52   1  7.461781E+05 -9.055741E+02  6.490357E+03  1.420702E+03 -8.354783E+03 -1.909692E-02
        52   2  7.440732E+05 -1.630475E+03  1.327511E+04 -7.555084E+02 -1.518537E+04  1.845828E-02
        52   3  7.461717E+05  1.090866E+04  2.781909E+04 -2.931747E+03 -2.201609E+04  1.038468E-01
        52   4  7.461781E+05 -9.055779E+02  6.490357E+03  8.003897E-09 -8.354783E+03  7.344408E-09
        52   5  7.440732E+05 -1.630476E+03  1.327511E+04  1.186512E-07 -1.518537E+04  3.684408E-09
        52   6  7.461716E+05  1.090864E+04  2.781909E+04 -1.201737E-08 -2.201609E+04  3.597208E-09
        52   7  7.461781E+05 -9.055741E+02  6.490357E+03 -1.420702E+03 -8.354783E+03  1.909694E-02
        52   8  7.440732E+05 -1.630475E+03  1.327511E+04  7.555084E+02 -1.518537E+04 -1.845825E-02
        52   9  7.461717E+05  1.090866E+04  2.781909E+04  2.931747E+03 -2.201609E+04 -1.038467E-01
        52  10  7.461780E+05 -9.055928E+02  6.490226E+03  1.420702E+03  1.835738E-08  1.891621E-08
        52  11  7.440729E+05 -1.630536E+03  1.327468E+04 -7.555084E+02  6.321820E-09 -1.696198E-09
        52  12  7.461711E+05  1.090853E+04  2.781818E+04 -2.931747E+03 -1.552259E-08 -2.420592E-09
        52  13  7.461780E+05 -9.055966E+02  6.490226E+03  2.396227E-08  1.724528E-08  6.952345E-09
        52  14  7.440729E+05 -1.630538E+03  1.327468E+04 -1.891856E-08  3.447389E-08 -4.811758E-09
        52  15  7.461711E+05  1.090851E+04  2.781818E+04 -1.009291E-08  2.384341E-08 -1.344202E-08
        52  16  7.461780E+05 -9.055928E+02  6.490226E+03 -1.420702E+03 -1.822336E-08  6.017367E-09
        52  17  7.440729E+05 -1.630536E+03  1.327468E+04  7.555084E+02 -1.427865E-08  6.824894E-09
        52  18  7.461711E+05  1.090853E+04  2.781818E+04  2.931747E+03  4.069888E-08 -5.849577E-09
        52  19  7.461781E+05 -9.055741E+02  6.490357E+03  1.420702E+03  8.354783E+03  1.909696E-02
        52  20  7.440732E+05 -1.630475E+03  1.327511E+04 -7.555084E+02  1.518537E+04 -1.845828E-02
        52  21  7.461717E+05  1.090866E+04  2.781909E+04 -2.931747E+03  2.201609E+04 -1.038468E-01
        52  22  7.461781E+05 -9.055779E+02  6.490357E+03 -2.169273E-07  8.354783E+03  6.554874E-09
        52  23  7.440732E+05 -1.630476E+03  1.327511E+04 -6.860591E-08  1.518537E+04 -1.339049E-08
        52  24  7.461716E+05  1.090864E+04  2.781909E+04 -1.508696E-08  2.201609E+04 -3.049126E-08
        52  25  7.461781E+05 -9.055741E+02  6.490357E+03 -1.420702E+03  8.354783E+03 -1.909693E-02
        52  26  7.440732E+05 -1.630475E+03  1.327511E+04  7.555084E+02  1.518537E+04  1.845827E-02
        52  27  7.461717E+05  1.090866E+04  2.781909E+04  2.931747E+03  2.201609E+04  1.038467E-01
        53   1  7.530697E+05 -5.097377E+03  3.435893E+04  1.295790E+04 -2.735839E+04 -5.703567E-01
        53   2  7.354492E+05 -1.511497E+04  5.524953E+04 -8.684066E+03 -5.722654E+04  7.995654E-01
        53   3  7.530333E+05  1.001789E+05  1.268994E+05 -3.032665E+04 -8.709444E+04  4.249540E+00
        53   4  7.530695E+05 -5.097692E+03  3.435888E+04  3.981153E-08 -2.735839E+04  2.120467E-09
        53   5  7.354491E+05 -1.511511E+04  5.524951E+04  2.826002E-09 -5.722654E+04 -1.939697E-09
        53   6  7.530323E+05  1.001772E+05  1.268991E+05 -2.410065E-07 -8.709444E+04 -4.221897E-10
        53   7  7.530697E+05 -5.097377E+03  3.435893E+04 -1.295790E+04 -2.735839E+04  5.703567E-01
        53   8  7.354492E+05 -1.511497E+04  5.524953E+04  8.684066E+03 -5.722654E+04 -7.995654E-01
        53   9  7.530333E+05  1.001789E+05  1.268994E+05  3.032665E+04 -8.709444E+04 -4.249540E+00
        53  10  7.530688E+05 -5.097578E+03  3.435752E+04  1.295790E+04 -1.610961E-08  4.557047E-09
        53  11  7.354456E+05 -1.511585E+04  5.524339E+04 -8.684066E+03 -8.751780E-09  9.450027E-09
        53  12  7.530251E+05  1.001769E+05  1.268851E+05 -3.032665E+04  2.830745E-08  3.693240E-09
        53  13  7.530687E+05 -5.097893E+03  3.435748E+04  2.220382E-07 -5.251738E-08 -8.213963E-09
        53  14  7.354456E+05 -1.511599E+04  5.524337E+04 -1.951094E-07  9.407361E-09  5.846215E-09
        53  15  7.530241E+05  1.001751E+05  1.268849E+05 -6.069796E-08  1.949960E-08  3.685856E-09
        53  16  7.530688E+05 -5.097578E+03  3.435752E+04 -1.295790E+04  1.621586E-08 -3.431193E-09
        53  17  7.354456E+05 -1.511585E+04  5.524339E+04  8.684066E+03 -1.684168E-08  1.213545E-08
        53  18  7.530251E+05  1.001769E+05  1.268851E+05  3.032665E+04 -1.127006E-08  5.900973E-09
        53  19  7.530697E+05 -5.097377E+03  3.435893E+04  1.295790E+04  2.735839E+04  5.703567E-01
        53  20  7.354492E+05 -1.511497E+04  5.524953E+04 -8.684066E+03  5.722654E+04 -7.995654E-01
        53  21  7.530333E+05  1.001789E+05  1.268994E+05 -3.032665E+04  8.709444E+04 -4.249540E+00
        53  22  7.530695E+05 -5.097692E+03  3.435888E+04  1.595364E-07  2.735839E+04 -1.854479E-08
        53  23  7.354491E+05 -1.511511E+04  5.524951E+04 -1.551476E-07  5.722654E+04  1.364770E-08
        53  24  7.530323E+05  1.001772E+05  1.268991E+05 -3.061113E-07  8.709444E+04  8.083974E-09
        53  25  7.530697E+05 -5.097377E+03  3.435893E+04 -1.295790E+04  2.735839E+04 -5.703567E-01
        53  26  7.354492E+05 -1.511497E+04  5.524953E+04  8.684066E+03  5.722654E+04  7.995654E-01
        53  27  7.530333E+05  1.001789E+05  1.268994E+05  3.032665E+04  8.709444E+04  4.249540E+00
        54   1 -4.779366E+06 -1.828092E+07 -4.766150E+06  1.711701E+06 -1.717481E+05 -3.674061E+05
        54   2 -3.791651E+06 -1.506155E+07 -3.756479E+06  3.099562E+05 -4.771149E+05 -1.104571E+05
        54   3 -2.861976E+06 -1.168473E+07 -2.890592E+06  1.510901E+06 -3.502219E+05  1.426130E+05
        54   4 -1.502198E+05  7.147052E+04 -1.795270E+05  1.757377E+06 -1.698570E+05 -1.237949E+05
        54   5 -2.241735E+04 -1.398750E+04 -1.078485E+05  4.561036E+05 -4.757061E+05 -6.769517E+04
        54   6  8.820934E+04  8.884478E+04 -3.546980E+04  1.754308E+06 -3.538262E+05 -1.680438E+04
        54   7  4.453376E+06  1.873521E+07  4.381904E+06  1.803521E+06 -1.679677E+05  1.272240E+05
        54   8  3.730145E+06  1.524379E+07  3.524468E+06  6.050195E+05 -4.742985E+05 -2.386248E+04
        54   9  3.028290E+06  1.199071E+07  2.809755E+06  2.001430E+06 -3.575211E+05 -1.792759E+05
        54  10 -4.779435E+06 -1.828107E+07 -4.766466E+06  1.711649E+06 -3.077636E-08 -2.465228E-09
        54  11 -3.791899E+06 -1.506162E+07 -3.756930E+06  3.099133E+05 -2.601876E-08 -1.146393E-08
        54  12 -2.862114E+06 -1.168479E+07 -2.890862E+06  1.510942E+06 -1.313303E-08 -1.910340E-08
        54  13 -1.502548E+05  7.144640E+04 -1.796097E+05  1.757360E+06 -4.762508E-09  3.805002E-09
        54  14 -2.266158E+04 -1.405314E+04 -1.082823E+05  4.560777E+05 -3.782383E-08  1.520735E-08
        54  15  8.807486E+04  8.881090E+04 -3.570549E+04  1.754304E+06 -4.226549E-08  4.541606E-08
        54  16  4.453342E+06  1.873518E+07  4.381821E+06  1.803538E+06 -4.694648E-09  4.525661E-09
        54  17  3.729903E+06  1.524372E+07  3.524045E+06  6.050105E+05 -2.938939E-08 -3.523432E-09
        54  18  3.028145E+06  1.199064E+07  2.809456E+06  2.001379E+06  1.429250E-08  1.597962E-08
        54  19 -4.779366E+06 -1.828092E+07 -4.766150E+06  1.711701E+06  1.717481E+05  3.674061E+05
        54  20 -3.791651E+06 -1.506155E+07 -3.756479E+06  3.099562E+05  4.771149E+05  1.104571E+05
        54  21 -2.861976E+06 -1.168473E+07 -2.890592E+06  1.510901E+06  3.502219E+05 -1.426130E+05
        54  22 -1.502198E+05  7.147052E+04 -1.795270E+05  1.757377E+06  1.698570E+05  1.237949E+05
        54  23 -2.241735E+04 -1.398750E+04 -1.078485E+05  4.561036E+05  4.757061E+05  6.769517E+04
        54  24  8.820934E+04  8.884478E+04 -3.546980E+04  1.754308E+06  3.538262E+05  1.680438E+04
        54  25  4.453376E+06  1.873521E+07  4.381904E+06  1.803521E+06  1.679677E+05 -1.272240E+05
        54  26  3.730145E+06  1.524379E+07  3.524468E+06  6.050195E+05  4.742985E+05  2.386248E+04
        54  27  3.028290E+06  1.199071E+07  2.809755E+06  2.001430E+06  3.575211E+05  1.792759E+05
        55   1 -1.715214E+06 -7.037607E+06 -1.756566E+06  1.617598E+06 -2.111739E+05  2.720753E+04
        55   2 -9.092525E+05 -3.657727E+06 -9.337369E+05  3.745946E+05 -1.130443E+05  4.345248E+04
        55   3 -1.111094E+04 -4.144642E+05 -1.356201E+05  1.732034E+06 -2.600833E+03  5.848649E+04
        55   4  5.280178E+04  4.009766E+04 -4.505718E+04  1.755805E+06 -2.122782E+05 -1.650430E+04
        55   5  3.166875E+04  1.149861E+05 -2.368510E+04  4.555140E+05 -1.144984E+05 -6.129246E+03
        55   6  1.047304E+05  4.445446E+04 -2.204520E+04  1.754466E+06 -4.470524E+03  2.940858E+03
        55   7  1.817170E+06  7.163950E+06  1.662862E+06  1.895214E+06 -2.133957E+05 -6.071608E+04
        55   8  9.715610E+05  3.900777E+06  8.853579E+05  5.368264E+05 -1.159610E+05 -5.601257E+04
        55   9  2.205587E+05  5.035717E+05  9.152566E+04  1.776914E+06 -6.343496E+03 -5.264583E+04
        55  10 -1.715262E+06 -7.037620E+06 -1.756651E+06  1.617602E+06 -2.941324E-08 -3.967056E-09
        55  11 -9.092667E+05 -3.657732E+06 -9.337645E+05  3.745986E+05 -6.283549E-09 -1.770051E-08
        55  12 -1.111186E+04 -4.144679E+05 -1.356265E+05  1.732034E+06  8.208225E-09 -3.083157E-08
        55  13  5.275334E+04  4.008529E+04 -4.514232E+04  1.755802E+06 -1.223976E-09  2.801610E-08
        55  14  3.165466E+04  1.149825E+05 -2.370980E+04  4.555134E+05 -4.550381E-08  3.207664E-08
        55  15  1.047303E+05  4.445445E+04 -2.204526E+04  1.754466E+06 -2.451987E-08  6.210984E-08
        55  16  1.817121E+06  7.163934E+06  1.662770E+06  1.895203E+06 -3.520490E-09  1.802739E-08
        55  17  9.715458E+05  3.900770E+06  8.853268E+05  5.368212E+05 -9.894456E-09 -1.308189E-08
        55  18  2.205579E+05  5.035687E+05  9.152038E+04  1.776913E+06  4.540495E-09  2.702917E-08
        55  19 -1.715214E+06 -7.037607E+06 -1.756566E+06  1.617598E+06  2.111739E+05 -2.720753E+04
        55  20 -9.092525E+05 -3.657727E+06 -9.337369E+05  3.745946E+05  1.130443E+05 -4.345248E+04
        55  21 -1.111094E+04 -4.144642E+05 -1.356201E+05  1.732034E+06  2.600833E+03 -5.848649E+04
        55  22  5.280178E+04  4.009766E+04 -4.505718E+04  1.755805E+06  2.122782E+05  1.650430E+04
        55  23  3.166875E+04  1.149861E+05 -2.368510E+04  4.555140E+05  1.144984E+05  6.129246E+03
        55  24  1.047304E+05  4.445446E+04 -2.204520E+04  1.754466E+06  4.470524E+03 -2.940858E+03
        55  25  1.817170E+06  7.163950E+06  1.662862E+06  1.895214E+06  2.133957E+05  6.071608E+04
        55  26  9.715610E+05  3.900777E+06  8.853579E+05  5.368264E+05  1.159610E+05  5.601257E+04
        55  27  2.205587E+05  5.035717E+05  9.152566E+04  1.776914E+06  6.343496E+03  5.264583E+04
        56   1  1.174985E+06  4.333667E+06  1.011511E+06  1.870350E+06  1.205667E+05  1.256264E+05
        56   2  1.903106E+06  7.699276E+06  1.780703E+06  6.028498E+05  2.403023E+05  1.190329E+04
        56   3  2.735422E+06  1.102265E+07  2.626573E+06  1.929884E+06  9.113935E+04 -9.507382E+04
        56   4  1.102805E+05  5.488917E+04 -1.994041E+04  1.753521E+06  1.165068E+05  9.884666E+02
        56   5  1.961641E+04  8.826868E+04 -3.911784E+04  4.564432E+05  2.406418E+05  1.730066E+04
        56   6  1.090805E+04  4.615621E+04 -7.101388E+04  1.755831E+06  9.442325E+04  4.098418E+04
        56   7 -9.557273E+05 -4.207177E+06 -1.052642E+06  1.637339E+06  1.124786E+05 -1.227976E+05
        56   8 -1.868024E+06 -7.470061E+06 -1.863026E+06  3.114504E+05  2.409814E+05  2.263125E+04
        56   9 -2.722474E+06 -1.082191E+07 -2.777401E+06  1.584047E+06  9.766366E+04  1.746660E+05
        56  10  1.174965E+06  4.333646E+06  1.011454E+06  1.870338E+06  5.829788E-09 -9.458985E-09
        56  11  1.903044E+06  7.699260E+06  1.780594E+06  6.028476E+05  4.305496E-09 -1.036164E-08
        56  12  2.735411E+06  1.102264E+07  2.626541E+06  1.929891E+06 -1.028148E-08  4.574891E-10
        56  13  1.102659E+05  5.488552E+04 -1.996591E+04  1.753521E+06  2.632474E-09  3.261003E-08
        56  14  1.955415E+04  8.825282E+04 -3.922721E+04  4.564398E+05  3.375466E-08  2.828918E-08
        56  15  1.089804E+04  4.615203E+04 -7.103373E+04  1.755828E+06 -9.485082E-09  4.164309E-08
        56  16 -9.557450E+05 -4.207197E+06 -1.052694E+06  1.637350E+06  7.224478E-09  2.510608E-08
        56  17 -1.868086E+06 -7.470077E+06 -1.863137E+06  3.114459E+05  1.697380E-08 -1.828205E-08
        56  18 -2.722492E+06 -1.082194E+07 -2.777477E+06  1.584033E+06  1.121621E-08 -3.350967E-09
        56  19  1.174985E+06  4.333667E+06  1.011511E+06  1.870350E+06 -1.205667E+05 -1.256264E+05
        56  20  1.903106E+06  7.699276E+06  1.780703E+06  6.028498E+05 -2.403023E+05 -1.190329E+04
        56  21  2.735422E+06  1.102265E+07  2.626573E+06  1.929884E+06 -9.113935E+04  9.507382E+04
        56  22  1.102805E+05  5.488917E+04 -1.994041E+04  1.753521E+06 -1.165068E+05 -9.884666E+02
        56  23  1.961641E+04  8.826868E+04 -3.911784E+04  4.564432E+05 -2.406418E+05 -1.730066E+04
        56  24  1.090805E+04  4.615621E+04 -7.101388E+04  1.755831E+06 -9.442325E+04 -4.098418E+04
        56  25 -9.557273E+05 -4.207177E+06 -1.052642E+06  1.637339E+06 -1.124786E+05  1.227976E+05
        56  26 -1.868024E+06 -7.470061E+06 -1.863026E+06  3.114504E+05 -2.409814E+05 -2.263125E+04
        56  27 -2.722474E+06 -1.082191E+07 -2.777401E+06  1.584047E+06 -9.766366E+04 -1.746660E+05
        57   1 -3.940065E+06 -1.571094E+07 -3.926629E+06  1.091737E+06 -1.444271E+05 -3.016665E+05
        57   2 -3.290754E+06 -1.366605E+07 -3.252669E+06  1.776929E+05 -4.127441E+05 -9.483034E+04
        57   3 -2.705986E+06 -1.149498E+07 -2.696338E+06  9.228639E+05 -3.325057E+05  1.096330E+05
        57   4 -1.148591E+05 -5.251417E+05 -1.372372E+05  1.113953E+06 -1.432167E+05 -9.408475E+04
        57   5 -1.956308E+04 -5.974459E+05 -8.543387E+04  2.843867E+05 -4.116106E+05 -4.995065E+04
        57   6  4.322506E+04 -5.154808E+05 -3.511896E+04  1.112243E+06 -3.346303E+05 -8.872253E+03
        57   7  3.692882E+06  1.487346E+07  3.634946E+06  1.136292E+06 -1.420110E+05  1.186949E+05
        57   8  3.239050E+06  1.262959E+07  3.069502E+06  3.928519E+05 -4.104765E+05 -4.103110E+03
        57   9  2.783619E+06  1.057561E+07  2.617464E+06  1.304345E+06 -3.368091E+05 -1.294946E+05
        57  10 -3.940112E+06 -1.571104E+07 -3.926843E+06  1.091701E+06  1.584942E-09 -4.301724E-09
        57  11 -3.290939E+06 -1.366611E+07 -3.253006E+06  1.776611E+05  9.118976E-09  8.789647E-09
        57  12 -2.706109E+06 -1.149502E+07 -2.696569E+06  9.228935E+05 -9.477981E-09 -1.569345E-09
        57  13 -1.148835E+05 -5.251567E+05 -1.372923E+05  1.113942E+06 -1.572052E-08 -3.713219E-12
        57  14 -1.974563E+04 -5.974940E+05 -8.575683E+04  2.843702E+05  9.691826E-09  2.528048E-08
        57  15  4.310483E+04 -5.155109E+05 -3.532945E+04  1.112241E+06 -5.332685E-09  2.882277E-08
        57  16  3.692857E+06  1.487344E+07  3.634882E+06  1.136306E+06  1.603776E-09  4.401870E-09
        57  17  3.238869E+06  1.262954E+07  3.069185E+06  3.928505E+05  1.050536E-09  3.001222E-08
        57  18  2.783493E+06  1.057556E+07  2.617221E+06  1.304310E+06 -1.262470E-08  2.009112E-08
        57  19 -3.940065E+06 -1.571094E+07 -3.926629E+06  1.091737E+06  1.444271E+05  3.016665E+05
        57  20 -3.290754E+06 -1.366605E+07 -3.252669E+06  1.776929E+05  4.127441E+05  9.483034E+04
        57  21 -2.705986E+06 -1.149498E+07 -2.696338E+06  9.228639E+05  3.325057E+05 -1.096330E+05
        57  22 -1.148591E+05 -5.251417E+05 -1.372372E+05  1.113953E+06  1.432167E+05  9.408475E+04
        57  23 -1.956308E+04 -5.974459E+05 -8.543387E+04  2.843867E+05  4.116106E+05  4.995065E+04
        57  24  4.322506E+04 -5.154808E+05 -3.511896E+04  1.112243E+06  3.346303E+05  8.872253E+03
        57  25  3.692882E+06  1.487346E+07  3.634946E+06  1.136292E+06  1.420110E+05 -1.186949E+05
        57  26  3.239050E+06  1.262959E+07  3.069502E+06  3.928519E+05  4.104765E+05  4.103110E+03
        57  27  2.783619E+06  1.057561E+07  2.617464E+06  1.304345E+06  3.368091E+05  1.294946E+05
        58   1 -1.970584E+06 -8.505335E+06 -1.970041E+06  9.813500E+05 -2.340379E+05  1.656015E+04
        58   2 -1.441696E+06 -6.341562E+06 -1.442616E+06  1.602011E+05 -1.757745E+05  4.193609E+04
        58   3 -8.645639E+05 -4.234797E+06 -9.349594E+05  1.019793E+06 -9.828424E+04  6.593370E+04
        58   4  1.914005E+04 -5.465201E+05 -4.201074E+04  1.118114E+06 -2.344065E+05 -6.346213E+03
        58   5  1.388285E+04 -5.147283E+05 -3.439424E+04  2.777910E+05 -1.765522E+05  1.001172E+04
        58   6  5.911961E+04 -5.421715E+05 -3.975406E+04  1.117199E+06 -9.956418E+04  2.490469E+04
        58   7  2.004231E+06  7.470739E+06  1.881459E+06  1.256246E+06 -2.347833E+05 -2.954762E+04
        58   8  1.466993E+06  5.343384E+06  1.371395E+06  3.962746E+05 -1.773385E+05 -2.221390E+04
        58   9  9.818173E+05  3.162982E+06  8.544741E+05  1.215078E+06 -1.008531E+05 -1.636932E+04
        58  10 -1.970643E+06 -8.505350E+06 -1.970144E+06  9.813532E+05 -2.162374E-08  1.084953E-08
        58  11 -1.441729E+06 -6.341573E+06 -1.442677E+06  1.602071E+05  3.276506E-08  4.974797E-08
        58  12 -8.645754E+05 -4.234804E+06 -9.349858E+05  1.019799E+06 -5.554580E-10  1.663109E-08
        58  13  1.908105E+04 -5.465348E+05 -4.211403E+04  1.118113E+06  2.190747E-09  4.170248E-10
        58  14  1.384936E+04 -5.147368E+05 -3.445300E+04  2.777925E+05  1.159577E-09  5.933459E-08
        58  15  5.910880E+04 -5.421748E+05 -3.977387E+04  1.117201E+06  2.169692E-08  4.449800E-08
        58  16  2.004172E+06  7.470723E+06  1.881354E+06  1.256240E+06 -4.793285E-09 -1.021018E-08
        58  17  1.466959E+06  5.343375E+06  1.371335E+06  3.962714E+05  6.720910E-09  3.920084E-08
        58  18  9.818063E+05  3.162979E+06  8.544545E+05  1.215077E+06  3.388146E-08  1.079807E-08
        58  19 -1.970584E+06 -8.505335E+06 -1.970041E+06  9.813500E+05  2.340379E+05 -1.656015E+04
        58  20 -1.441696E+06 -6.341562E+06 -1.442616E+06  1.602011E+05  1.757745E+05 -4.193609E+04
        58  21 -8.645639E+05 -4.234797E+06 -9.349594E+05  1.019793E+06  9.828424E+04 -6.593370E+04
        58  22  1.914005E+04 -5.465201E+05 -4.201074E+04  1.118114E+06  2.344065E+05  6.346213E+03
        58  23  1.388285E+04 -5.147283E+05 -3.439424E+04  2.777910E+05  1.765522E+05 -1.001172E+04
        58  24  5.911961E+04 -5.421715E+05 -3.975406E+04  1.117199E+06  9.956418E+04 -2.490469E+04
        58  25  2.004231E+06  7.470739E+06  1.881459E+06  1.256246E+06  2.347833E+05  2.954762E+04
        58  26  1.466993E+06  5.343384E+06  1.371395E+06  3.962746E+05  1.773385E+05  2.221390E+04
        58  27  9.818173E+05  3.162982E+06  8.544741E+05  1.215078E+06  1.008531E+05  1.636932E+04
        59   1 -8.467058E+04 -1.194859E+06 -1.984789E+05  1.120072E+06 -2.812811E+04  9.364007E+04
        59   2  4.117476E+05  1.023292E+06  2.905215E+05  3.021635E+05  5.251128E+04  7.951227E+04
        59   3  8.565939E+05  3.110446E+06  7.485436E+05  1.166675E+06  2.863045E+04  6.859522E+04
        59   4  7.202564E+04 -5.572361E+05 -4.885242E+04  1.116786E+06 -3.023852E+04  2.965317E+04
        59   5  3.720787E+04 -4.857754E+05 -7.110087E+04  2.774144E+05  5.208414E+04  6.558024E+04
        59   6 -5.778886E+04 -5.584999E+05 -1.590191E+05  1.120685E+06  2.976830E+04  1.047609E+05
        59   7  2.286956E+05  8.077098E+04  1.007619E+05  1.113494E+06 -3.234709E+04 -3.439922E+04
        59   8 -3.374962E+05 -1.992756E+06 -4.328837E+05  2.527090E+05  5.165758E+04  5.168176E+04
        59   9 -9.731731E+05 -4.215242E+06 -1.067577E+06  1.074862E+06  3.090430E+04  1.407122E+05
        59  10 -8.467380E+04 -1.194868E+06 -1.984969E+05  1.120074E+06  2.348529E-08 -2.433914E-09
        59  11  4.117430E+05  1.023284E+06  2.905044E+05  3.021601E+05 -1.526869E-08  5.301769E-08
        59  12  8.565918E+05  3.110441E+06  7.485332E+05  1.166673E+06 -2.142324E-08  1.201125E-08
        59  13  7.202442E+04 -5.572373E+05 -4.885579E+04  1.116787E+06  2.489800E-08 -2.425910E-10
        59  14  3.720380E+04 -4.857808E+05 -7.111405E+04  2.774116E+05  4.722288E-09  6.719576E-08
        59  15 -5.779275E+04 -5.585120E+05 -1.590414E+05  1.120683E+06 -1.807678E-10  4.332059E-08
        59  16  2.286942E+05  8.076944E+04  1.007577E+05  1.113493E+06  2.198542E-08  1.974657E-09
        59  17 -3.374998E+05 -1.992760E+06 -4.328938E+05  2.527068E+05  9.895508E-10  4.770089E-08
        59  18 -9.731795E+05 -4.215264E+06 -1.067616E+06  1.074858E+06  4.208608E-09  1.600523E-08
        59  19 -8.467058E+04 -1.194859E+06 -1.984789E+05  1.120072E+06  2.812811E+04 -9.364007E+04
        59  20  4.117476E+05  1.023292E+06  2.905215E+05  3.021635E+05 -5.251128E+04 -7.951227E+04
        59  21  8.565939E+05  3.110446E+06  7.485436E+05  1.166675E+06 -2.863045E+04 -6.859522E+04
        59  22  7.202564E+04 -5.572361E+05 -4.885242E+04  1.116786E+06  3.023852E+04 -2.965317E+04
        59  23  3.720787E+04 -4.857754E+05 -7.110087E+04  2.774144E+05 -5.208414E+04 -6.558024E+04
        59  24 -5.778886E+04 -5.584999E+05 -1.590191E+05  1.120685E+06 -2.976830E+04 -1.047609E+05
        59  25  2.286956E+05  8.077098E+04  1.007619E+05  1.113494E+06  3.234709E+04  3.439922E+04
        59  26 -3.374962E+05 -1.992756E+06 -4.328837E+05  2.527090E+05 -5.165758E+04 -5.168176E+04
        59  27 -9.731731E+05 -4.215242E+06 -1.067577E+06  1.074862E+06 -3.090430E+04 -1.407122E+05
        60   1  2.535875E+07  5.608035E+06  5.624938E+06  1.348238E+06  1.208201E+05 -2.251372E+05
        60   2  2.133753E+07  4.943777E+06  4.689380E+06  2.228258E+05 -6.785638E+04 -6.327141E+05
        60   3  1.794989E+07  4.118837E+06  3.953115E+06  1.923085E+06 -2.448747E+05 -5.014946E+05
        60   4  1.094416E+06 -3.719873E+05 -2.831946E+05  1.901262E+06 -2.107540E+05 -2.168358E+05
        60   5  8.240664E+05 -8.381237E+04 -1.755694E+05  4.872590E+05 -1.342772E+05 -6.330742E+05
        60   6  1.119813E+06 -1.001347E+04 -5.055895E+04  1.906434E+06 -4.705895E+04 -5.025674E+05
        60   7 -2.264698E+07 -6.394345E+06 -6.233636E+06  2.435971E+06 -5.296598E+05 -2.089702E+05
        60   8 -1.931176E+07 -5.141270E+06 -5.069816E+06  7.443984E+05 -1.985184E+05 -6.335076E+05
        60   9 -1.545538E+07 -4.159106E+06 -4.073907E+06  1.889927E+06  1.455463E+05 -5.036650E+05
        60  10  2.535872E+07  5.607977E+06  5.624816E+06  1.348260E+06  1.353648E-08  1.105078E-09
        60  11  2.133742E+07  4.943346E+06  4.688619E+06  2.227917E+05  1.071477E-09  3.145302E-09
        60  12  1.794976E+07  4.118552E+06  3.952535E+06  1.922987E+06 -1.249966E-09  5.395232E-09
        60  13  1.094356E+06 -3.720496E+05 -2.833657E+05  1.901226E+06 -7.919039E-11 -4.408209E-10
        60  14  8.239395E+05 -8.424776E+04 -1.763565E+05  4.871906E+05  2.429636E-09 -3.281004E-10
        60  15  1.119743E+06 -1.028533E+04 -5.103766E+04  1.906415E+06 -1.502119E-08  3.565491E-09
        60  16 -2.264730E+07 -6.394470E+06 -6.234263E+06  2.435881E+06  1.692798E-09 -1.531422E-09
        60  17 -1.931191E+07 -5.141713E+06 -5.070646E+06  7.442959E+05  5.262784E-09 -3.273034E-09
        60  18 -1.545547E+07 -4.159386E+06 -4.074426E+06  1.889987E+06  1.012549E-08  1.476185E-09
        60  19  2.535875E+07  5.608035E+06  5.624938E+06  1.348238E+06 -1.208201E+05  2.251372E+05
        60  20  2.133753E+07  4.943777E+06  4.689380E+06  2.228258E+05  6.785638E+04  6.327141E+05
        60  21  1.794989E+07  4.118837E+06  3.953115E+06  1.923085E+06  2.448747E+05  5.014946E+05
        60  22  1.094416E+06 -3.719873E+05 -2.831946E+05  1.901262E+06  2.107540E+05  2.168358E+05
        60  23  8.240664E+05 -8.381237E+04 -1.755694E+05  4.872590E+05  1.342772E+05  6.330742E+05
        60  24  1.119813E+06 -1.001347E+04 -5.055895E+04  1.906434E+06  4.705895E+04  5.025674E+05
        60  25 -2.264698E+07 -6.394345E+06 -6.233636E+06  2.435971E+06  5.296598E+05  2.089702E+05
        60  26 -1.931176E+07 -5.141270E+06 -5.069816E+06  7.443984E+05  1.985184E+05  6.335076E+05
        60  27 -1.545538E+07 -4.159106E+06 -4.073907E+06  1.889927E+06 -1.455463E+05  5.036650E+05
        61   1  1.265970E+07  2.790802E+06  2.710601E+06  1.912460E+06 -8.090488E+04 -3.402125E+05
        61   2  9.031593E+06  1.975887E+06  1.883826E+06  5.330986E+05 -8.439967E+04 -2.416710E+05
        61   3  5.447201E+06  1.139663E+06  1.059659E+06  1.957630E+06 -9.033209E+04 -1.037871E+05
        61   4  1.041354E+06 -6.909959E+04 -6.438072E+04  1.899255E+06 -4.201997E+04 -3.404676E+05
        61   5  1.032380E+06  2.747051E+03 -2.888802E+04  4.957460E+05 -2.671742E+04 -2.414123E+05
        61   6  1.051116E+06  5.004989E+04 -3.343741E+03  1.898569E+06 -1.388324E+04 -1.027498E+05
        61   7 -1.045501E+07 -2.938713E+06 -2.848859E+06  1.885996E+06 -3.842864E+03 -3.407277E+05
        61   8 -6.908794E+06 -1.975004E+06 -1.946101E+06  4.587341E+05  3.023472E+04 -2.411591E+05
        61   9 -3.327411E+06 -1.040965E+06 -1.067711E+06  1.839838E+06  6.202991E+04 -1.017228E+05
        61  10  1.265966E+07  2.790677E+06  2.710372E+06  1.912438E+06  7.257671E-09  1.791344E-09
        61  11  9.031569E+06  1.975822E+06  1.883703E+06  5.330823E+05  1.256466E-08 -5.565451E-09
        61  12  5.447189E+06  1.139650E+06  1.059624E+06  1.957623E+06 -6.823157E-09  5.039375E-09
        61  13  1.041321E+06 -6.922455E+04 -6.460179E+04  1.899243E+06  1.723157E-08  6.762640E-10
        61  14  1.032363E+06  2.684254E+03 -2.899891E+04  4.957408E+05  4.232029E-08 -6.107148E-09
        61  15  1.051113E+06  5.003850E+04 -3.363929E+03  1.898568E+06  1.919181E-08  2.416935E-09
        61  16 -1.045504E+07 -2.938838E+06 -2.849078E+06  1.885995E+06 -3.000626E-09  2.026963E-09
        61  17 -6.908810E+06 -1.975066E+06 -1.946212E+06  4.587400E+05 -9.023831E-09 -1.431697E-09
        61  18 -3.327418E+06 -1.040977E+06 -1.067738E+06  1.839843E+06  6.832453E-09  8.429187E-09
        61  19  1.265970E+07  2.790802E+06  2.710601E+06  1.912460E+06  8.090488E+04  3.402125E+05
        61  20  9.031593E+06  1.975887E+06  1.883826E+06  5.330986E+05  8.439967E+04  2.416710E+05
        61  21  5.447201E+06  1.139663E+06  1.059659E+06  1.957630E+06  9.033209E+04  1.037871E+05
        61  22  1.041354E+06 -6.909959E+04 -6.438072E+04  1.899255E+06  4.201997E+04  3.404676E+05
        61  23  1.032380E+06  2.747051E+03 -2.888802E+04  4.957460E+05  2.671742E+04  2.414123E+05
        61  24  1.051116E+06  5.004989E+04 -3.343741E+03  1.898569E+06  1.388324E+04  1.027498E+05
        61  25 -1.045501E+07 -2.938713E+06 -2.848859E+06  1.885996E+06  3.842864E+03  3.407277E+05
        61  26 -6.908794E+06 -1.975004E+06 -1.946101E+06  4.587341E+05 -3.023472E+04  2.411591E+05
        61  27 -3.327411E+06 -1.040965E+06 -1.067711E+06  1.839838E+06 -6.202991E+04  1.017228E+05
        62   1  3.470048E+05 -1.352585E+05 -1.783646E+05  1.880215E+06 -9.079777E+04 -9.703661E+03
        62   2 -3.203623E+06 -1.047601E+06 -1.018088E+06  4.664190E+05 -8.007166E+04  1.288990E+05
        62   3 -6.780977E+06 -1.943209E+06 -1.872385E+06  1.852884E+06 -6.792116E+04  2.341159E+05
        62   4  1.042393E+06  3.944395E+04 -1.972327E+03  1.897131E+06 -1.650956E+04 -8.602242E+03
        62   5  1.057542E+06  1.143970E+04  8.194950E+03  4.977357E+05 -2.197005E+04  1.294814E+05
        62   6  1.037155E+06  4.029424E+03  1.582031E+04  1.897383E+06 -2.593942E+04  2.343196E+05
        62   7  1.738230E+06  2.141130E+05  1.744035E+05  1.914063E+06  5.786195E+04 -7.497486E+03
        62   8  5.335368E+06  1.069159E+06  1.033197E+06  5.292169E+05  3.653079E+04  1.300676E+05
        62   9  8.911525E+06  1.946797E+06  1.899657E+06  1.942234E+06  1.657503E+04  2.345280E+05
        62  10  3.469959E+05 -1.352608E+05 -1.783803E+05  1.880214E+06 -8.438050E-09  3.795850E-09
        62  11 -3.203635E+06 -1.047620E+06 -1.018132E+06  4.664273E+05 -1.548159E-08 -2.349650E-09
        62  12 -6.780997E+06 -1.943269E+06 -1.872497E+06  1.852897E+06 -1.025569E-08  4.573510E-10
        62  13  1.042393E+06  3.944380E+04 -1.972975E+03  1.897131E+06  2.084940E-11 -7.415265E-10
        62  14  1.057537E+06  1.142155E+04  8.162513E+03  4.977380E+05 -1.834685E-08 -6.359207E-09
        62  15  1.037139E+06  3.970227E+03  1.571572E+04  1.897388E+06 -4.459888E-09  1.931745E-09
        62  16  1.738226E+06  2.141121E+05  1.743971E+05  1.914064E+06  1.210902E-08  4.213104E-09
        62  17  5.335362E+06  1.069141E+06  1.033162E+06  5.292131E+05  1.661201E-08 -4.336597E-09
        62  18  8.911510E+06  1.946738E+06  1.899553E+06  1.942231E+06 -3.394034E-09  5.060187E-09
        62  19  3.470048E+05 -1.352585E+05 -1.783646E+05  1.880215E+06  9.079777E+04  9.703661E+03
        62  20 -3.203623E+06 -1.047601E+06 -1.018088E+06  4.664190E+05  8.007166E+04 -1.288990E+05
        62  21 -6.780977E+06 -1.943209E+06 -1.872385E+06  1.852884E+06  6.792116E+04 -2.341159E+05
        62  22  1.042393E+06  3.944395E+04 -1.972327E+03  1.897131E+06  1.650956E+04  8.602242E+03
        62  23  1.057542E+06  1.143970E+04  8.194950E+03  4.977357E+05  2.197005E+04 -1.294814E+05
        62  24  1.037155E+06  4.029424E+03  1.582031E+04  1.897383E+06  2.593942E+04 -2.343196E+05
        62  25  1.738230E+06  2.141130E+05  1.744035E+05  1.914063E+06 -5.786195E+04  7.497486E+03
        62  26  5.335368E+06  1.069159E+06  1.033197E+06  5.292169E+05 -3.653079E+04 -1.300676E+05
        62  27  8.911525E+06  1.946797E+06  1.899657E+06  1.942234E+06 -1.657503E+04 -2.345280E+05
        63   1 -1.177384E+07 -3.210534E+06 -3.079718E+06  1.856741E+06 -2.093149E+05  3.845266E+05
        63   2 -1.556091E+07 -4.201875E+06 -3.981128E+06  5.674386E+05  4.056623E+03  5.191507E+05
        63   3 -1.894435E+07 -5.078855E+06 -4.915724E+06  2.109081E+06  2.120384E+05  1.818993E+05
        63   4  1.111533E+06  8.242733E+03  4.229555E+04  1.903209E+06 -3.541813E+04  3.849858E+05
        63   5  8.837687E+05 -8.506727E+04  5.257390E+03  4.903685E+05 -4.411718E+04  5.185163E+05
        63   6  1.090916E+06 -2.242362E+04  9.154315E+04  1.904673E+06 -5.693197E+04  1.856019E+05
        63   7  1.415042E+07  3.214827E+06  3.152482E+06  1.950217E+06  1.421339E+05  3.854650E+05
        63   8  1.757943E+07  4.011822E+06  3.972184E+06  4.114877E+05 -9.357317E+04  5.179085E+05
        63   9  2.149729E+07  5.003664E+06  5.068813E+06  1.694384E+06 -3.347582E+05  1.894383E+05
        63  10 -1.177393E+07 -3.210705E+06 -3.080081E+06  1.856807E+06  2.871262E-08  3.488052E-09
        63  11 -1.556098E+07 -4.202165E+06 -3.981634E+06  5.674369E+05  4.666914E-09  8.300879E-10
        63  12 -1.894440E+07 -5.078903E+06 -4.915872E+06  2.109049E+06  1.696512E-09 -7.605641E-10
        63  13  1.111492E+06  8.083099E+03  4.201433E+04  1.903220E+06  3.271778E-11  5.422005E-09
        63  14  8.836943E+05 -8.535668E+04  4.748133E+03  4.903869E+05  1.120989E-09  1.105243E-09
        63  15  1.090904E+06 -2.246155E+04  9.147214E+04  1.904681E+06  1.097860E-08  2.063852E-09
        63  16  1.415036E+07  3.214662E+06  3.152167E+06  1.950173E+06 -1.621725E-08  6.997952E-09
        63  17  1.757935E+07  4.011532E+06  3.971663E+06  4.115263E+05  1.789385E-08 -2.829477E-09
        63  18  2.149716E+07  5.003597E+06  5.068541E+06  1.694434E+06  1.226406E-08 -1.872525E-09
        63  19 -1.177384E+07 -3.210534E+06 -3.079718E+06  1.856741E+06  2.093149E+05 -3.845266E+05
        63  20 -1.556091E+07 -4.201875E+06 -3.981128E+06  5.674386E+05 -4.056623E+03 -5.191507E+05
        63  21 -1.894435E+07 -5.078855E+06 -4.915724E+06  2.109081E+06 -2.120384E+05 -1.818993E+05
        63  22  1.111533E+06  8.242733E+03  4.229555E+04  1.903209E+06  3.541813E+04 -3.849858E+05
        63  23  8.837687E+05 -8.506727E+04  5.257390E+03  4.903685E+05  4.411718E+04 -5.185163E+05
        63  24  1.090916E+06 -2.242362E+04  9.154315E+04  1.904673E+06  5.693197E+04 -1.856019E+05
        63  25  1.415042E+07  3.214827E+06  3.152482E+06  1.950217E+06 -1.421339E+05 -3.854650E+05
        63  26  1.757943E+07  4.011822E+06  3.972184E+06  4.114877E+05  9.357317E+04 -5.179085E+05
        63  27  2.149729E+07  5.003664E+06  5.068813E+06  1.694384E+06  3.347582E+05 -1.894383E+05
        64   1 -1.752743E+06 -5.045494E+06 -1.807647E+06  9.550329E+05 -6.676565E+04 -1.018147E+05
        64   2 -1.283335E+06 -2.978160E+06 -1.259430E+06  2.117953E+05 -1.656313E+05 -1.208269E+04
        64   3 -7.052701E+05 -1.010973E+06 -7.648831E+05  1.045674E+06 -8.735533E+04  7.086060E+04
        64   4  6.661287E+04  2.197425E+06 -1.137385E+04  1.154678E+06 -6.332160E+04 -1.086364E+04
        64   5  2.022532E+04  2.243680E+06 -3.185350E+03  3.660330E+05 -1.652786E+05 -5.556738E+03
        64   6  9.763043E+04  2.201080E+06  1.059207E+04  1.153578E+06 -9.075774E+04 -7.295279E+03
        64   7  1.882108E+06  9.488185E+06  1.781022E+06  1.356180E+06 -5.983970E+04  8.115545E+04
        64   8  1.321841E+06  7.490524E+06  1.251120E+06  5.213218E+05 -1.649243E+05  1.024527E+03
        64   9  8.998006E+05  5.422580E+06  7.853523E+05  1.261932E+06 -9.417821E+04 -8.585486E+04
        64  10 -1.752750E+06 -5.045506E+06 -1.807675E+06  9.550275E+05  1.510382E-09 -9.838795E-09
        64  11 -1.283365E+06 -2.978168E+06 -1.259482E+06  2.117937E+05  2.146531E-08 -6.320190E-09
        64  12 -7.052797E+05 -1.010980E+06 -7.649069E+05  1.045679E+06 -1.158513E-08  6.561395E-09
        64  13  6.660853E+04  2.197424E+06 -1.138160E+04  1.154677E+06  1.761432E-08  2.226635E-10
        64  14  2.019595E+04  2.243673E+06 -3.236792E+03  3.660322E+05 -1.140235E-08  4.805302E-10
        64  15  9.762156E+04  2.201077E+06  1.057648E+04  1.153578E+06 -1.033937E-08  5.247763E-10
        64  16  1.882102E+06  9.488177E+06  1.781003E+06  1.356184E+06 -1.069224E-08  9.534822E-09
        64  17  1.321812E+06  7.490517E+06  1.251069E+06  5.213219E+05 -3.281065E-08  6.930403E-09
        64  18  8.997892E+05  5.422569E+06  7.853219E+05  1.261926E+06 -2.263516E-08 -4.725598E-09
        64  19 -1.752743E+06 -5.045494E+06 -1.807647E+06  9.550329E+05  6.676565E+04  1.018147E+05
        64  20 -1.283335E+06 -2.978160E+06 -1.259430E+06  2.117953E+05  1.656313E+05  1.208269E+04
        64  21 -7.052701E+05 -1.010973E+06 -7.648831E+05  1.045674E+06  8.735533E+04 -7.086060E+04
        64  22  6.661287E+04  2.197425E+06 -1.137385E+04  1.154678E+06  6.332160E+04  1.086364E+04
        64  23  2.022532E+04  2.243680E+06 -3.185350E+03  3.660330E+05  1.652786E+05  5.556738E+03
        64  24  9.763043E+04  2.201080E+06  1.059207E+04  1.153578E+06  9.075774E+04  7.295279E+03
        64  25  1.882108E+06  9.488185E+06  1.781022E+06  1.356180E+06  5.983970E+04 -8.115545E+04
        64  26  1.321841E+06  7.490524E+06  1.251120E+06  5.213218E+05  1.649243E+05 -1.024527E+03
        64  27  8.998006E+05  5.422580E+06  7.853523E+05  1.261932E+06  9.417821E+04  8.585486E+04
        65   1  4.959596E+02  1.826556E+06 -7.471760E+04  1.139172E+06 -1.477054E+04  1.917534E+04
        65   2  4.326773E+05  3.891639E+06  4.168776E+05  4.224350E+05  4.938137E+04  1.446354E+03
        65   3  1.007649E+06  5.837587E+06  9.209336E+05  1.268618E+06  1.083382E+05 -1.586466E+04
        65   4  9.239460E+04  2.196334E+06  1.276239E+04  1.151158E+06 -1.621664E+04 -1.327728E+04
        65   5  2.577063E+04  2.257372E+06  2.458004E+04  3.694274E+05  4.810416E+04 -2.850880E+04
        65   6  1.018273E+05  2.195200E+06  4.742569E+04  1.150706E+06  1.072143E+05 -4.327380E+04
        65   7  1.842843E+05  2.566239E+06  1.002369E+05  1.163151E+06 -1.766353E+04 -4.574910E+04
        65   8 -3.813244E+05  6.255413E+05 -3.679035E+05  3.165327E+05  4.683035E+04 -5.838564E+04
        65   9 -8.049313E+05 -1.435123E+06 -8.270186E+05  1.033347E+06  1.060975E+05 -7.052326E+04
        65  10  4.956259E+02  1.826556E+06 -7.471871E+04  1.139172E+06  7.802143E-10  1.477368E-08
        65  11  4.326747E+05  3.891638E+06  4.168730E+05  4.224349E+05  1.173361E-08  2.562995E-09
        65  12  1.007637E+06  5.837583E+06  9.209110E+05  1.268619E+06  2.190837E-09 -9.721635E-09
        65  13  9.239427E+04  2.196334E+06  1.276157E+04  1.151158E+06  1.033712E-08  5.243957E-10
        65  14  2.576793E+04  2.257371E+06  2.457416E+04  3.694285E+05  1.869711E-08  3.244009E-10
        65  15  1.018144E+05  2.195194E+06  4.740053E+04  1.150710E+06  2.153544E-09  4.962711E-10
        65  16  1.842834E+05  2.566237E+06  1.002324E+05  1.163150E+06 -5.790375E-09 -1.436433E-08
        65  17 -3.813277E+05  6.255370E+05 -3.679140E+05  3.165349E+05  5.645205E-09 -3.105092E-09
        65  18 -8.049448E+05 -1.435131E+06 -8.270492E+05  1.033353E+06  1.581299E-08  9.507088E-09
        65  19  4.959596E+02  1.826556E+06 -7.471760E+04  1.139172E+06  1.477054E+04 -1.917534E+04
        65  20  4.326773E+05  3.891639E+06  4.168776E+05  4.224350E+05 -4.938137E+04 -1.446354E+03
        65  21  1.007649E+06  5.837587E+06  9.209336E+05  1.268618E+06 -1.083382E+05  1.586466E+04
        65  22  9.239460E+04  2.196334E+06  1.276239E+04  1.151158E+06  1.621664E+04  1.327728E+04
        65  23  2.577063E+04  2.257372E+06  2.458004E+04  3.694274E+05 -4.810416E+04  2.850880E+04
        65  24  1.018273E+05  2.195200E+06  4.742569E+04  1.150706E+06 -1.072143E+05  4.327380E+04
        65  25  1.842843E+05  2.566239E+06  1.002369E+05  1.163151E+06  1.766353E+04  4.574910E+04
        65  26 -3.813244E+05  6.255413E+05 -3.679035E+05  3.165327E+05 -4.683035E+04  5.838564E+04
        65  27 -8.049313E+05 -1.435123E+06 -8.270186E+05  1.033347E+06 -1.060975E+05  7.052326E+04
        66   1  1.697665E+06  8.755048E+06  1.627356E+06  1.339089E+06  1.947961E+05  3.789856E+04
        66   2  2.104356E+06  1.079058E+07  2.135649E+06  5.948398E+05  2.630616E+05 -1.319012E+05
        66   3  2.879725E+06  1.289973E+07  2.834253E+06  1.448963E+06  8.727859E+04 -2.941256E+05
        66   4  7.988294E+04  2.225322E+06  6.426267E+04  1.160813E+06  1.910558E+05 -5.732994E+04
        66   5 -2.167667E+04  2.197409E+06  8.517991E+04  3.587719E+05  2.641426E+05 -1.077245E+05
        66   6  2.266570E+05  2.219227E+06  2.154740E+05  1.156302E+06  9.171908E+04 -1.499312E+05
        66   7 -1.540921E+06 -4.265729E+06 -1.501806E+06  9.839761E+05  1.873496E+05 -1.515687E+05
        66   8 -2.152923E+06 -6.328900E+06 -1.970474E+06  1.253509E+05  2.652140E+05 -8.386966E+04
        66   9 -2.434651E+06 -8.358896E+06 -2.411582E+06  8.677563E+05  9.606643E+04 -8.158495E+03
        66  10  1.697624E+06  8.755037E+06  1.627282E+06  1.339083E+06  9.747850E-09 -2.523739E-09
        66  11  2.104277E+06  1.079054E+07  2.135487E+06  5.948675E+05  1.164476E-08  3.064216E-09
        66  12  2.879695E+06  1.289964E+07  2.834079E+06  1.448983E+06 -7.128872E-09  1.337353E-09
        66  13  7.984279E+04  2.225308E+06  6.418776E+04  1.160822E+06  1.678028E-08  7.046495E-10
        66  14 -2.175480E+04  2.197378E+06  8.502685E+04  3.587949E+05  3.812757E-08  9.365809E-10
        66  15  2.266419E+05  2.219200E+06  2.154160E+05  1.156313E+06  7.575432E-09  2.981325E-10
        66  16 -1.540965E+06 -4.265763E+06 -1.501916E+06  9.839991E+05  1.395283E-08  3.793173E-09
        66  17 -2.153000E+06 -6.328926E+06 -1.970620E+06  1.253690E+05  2.501463E-08 -1.876470E-09
        66  18 -2.434661E+06 -8.358898E+06 -2.411599E+06  8.677569E+05 -1.939624E-09 -1.286348E-09
        66  19  1.697665E+06  8.755048E+06  1.627356E+06  1.339089E+06 -1.947961E+05 -3.789856E+04
        66  20  2.104356E+06  1.079058E+07  2.135649E+06  5.948398E+05 -2.630616E+05  1.319012E+05
        66  21  2.879725E+06  1.289973E+07  2.834253E+06  1.448963E+06 -8.727859E+04  2.941256E+05
        66  22  7.988294E+04  2.225322E+06  6.426267E+04  1.160813E+06 -1.910558E+05  5.732994E+04
        66  23 -2.167667E+04  2.197409E+06  8.517991E+04  3.587719E+05 -2.641426E+05  1.077245E+05
        66  24  2.266570E+05  2.219227E+06  2.154740E+05  1.156302E+06 -9.171908E+04  1.499312E+05
        66  25 -1.540921E+06 -4.265729E+06 -1.501806E+06  9.839761E+05 -1.873496E+05  1.515687E+05
        66  26 -2.152923E+06 -6.328900E+06 -1.970474E+06  1.253509E+05 -2.652140E+05  8.386966E+04
        66  27 -2.434651E+06 -8.358896E+06 -2.411582E+06  8.677563E+05 -9.606643E+04  8.158495E+03
        67   1  1.959371E+07  4.522267E+06  4.595672E+06  1.369292E+06  3.666332E+05 -1.704794E+05
        67   2  1.639092E+07  3.613524E+06  3.633140E+06  3.098252E+05  1.284707E+05 -4.672294E+05
        67   3  1.362251E+07  2.964848E+06  2.949809E+06  1.546650E+06 -1.041669E+05 -3.595443E+05
        67   4  1.520135E+06  6.752098E+04  1.840490E+05  1.543929E+06  1.176969E+05 -1.667675E+05
        67   5  1.332236E+06 -8.367058E+04  5.329366E+04  3.926309E+05  8.003565E+04 -4.675883E+05
        67   6  1.535307E+06 -7.592333E+03  6.722671E+04  1.541532E+06  4.680691E+04 -3.596080E+05
        67   7 -1.626191E+07 -4.411056E+06 -4.251116E+06  1.714426E+06 -1.242151E+05 -1.631468E+05
        67   8 -1.352213E+07 -3.797073E+06 -3.542388E+06  4.737900E+05  3.272752E+04 -4.679686E+05
        67   9 -1.041996E+07 -2.990509E+06 -2.825527E+06  1.536276E+06  1.948957E+05 -3.596742E+05
        67  10  1.959356E+07  4.522201E+06  4.595372E+06  1.369342E+06 -1.858276E-09 -3.787811E-09
        67  11  1.639084E+07  3.613285E+06  3.632699E+06  3.098731E+05 -1.682509E-08 -7.443513E-09
        67  12  1.362247E+07  2.964707E+06  2.949546E+06  1.546620E+06  1.784440E-08  2.430049E-09
        67  13  1.520112E+06  6.748731E+04  1.839705E+05  1.543945E+06  3.428208E-08  3.221603E-09
        67  14  1.332170E+06 -8.390727E+04  5.287036E+04  3.926610E+05  3.572227E-08 -1.577336E-10
        67  15  1.535270E+06 -7.731943E+03  6.697921E+04  1.541546E+06 -1.301810E-08  8.087855E-09
        67  16 -1.626193E+07 -4.411089E+06 -4.251196E+06  1.714409E+06 -1.001881E-08 -1.521014E-09
        67  17 -1.352219E+07 -3.797309E+06 -3.542802E+06  4.738025E+05  9.403314E-09 -6.362003E-10
        67  18 -1.042004E+07 -2.990659E+06 -2.825844E+06  1.536333E+06 -2.189612E-08  6.202217E-09
        67  19  1.959371E+07  4.522267E+06  4.595672E+06  1.369292E+06 -3.666332E+05  1.704794E+05
        67  20  1.639092E+07  3.613524E+06  3.633140E+06  3.098252E+05 -1.284707E+05  4.672294E+05
        67  21  1.362251E+07  2.964848E+06  2.949809E+06  1.546650E+06  1.041669E+05  3.595443E+05
        67  22  1.520135E+06  6.752098E+04  1.840490E+05  1.543929E+06 -1.176969E+05  1.667675E+05
        67  23  1.332236E+06 -8.367058E+04  5.329366E+04  3.926309E+05 -8.003565E+04  4.675883E+05
        67  24  1.535307E+06 -7.592333E+03  6.722671E+04  1.541532E+06 -4.680691E+04  3.596080E+05
        67  25 -1.626191E+07 -4.411056E+06 -4.251116E+06  1.714426E+06  1.242151E+05  1.631468E+05
        67  26 -1.352213E+07 -3.797073E+06 -3.542388E+06  4.737900E+05 -3.272752E+04  4.679686E+05
        67  27 -1.041996E+07 -2.990509E+06 -2.825527E+06  1.536276E+06 -1.948957E+05  3.596742E+05
        68   1  9.384215E+06  1.953274E+06  1.934962E+06  1.564436E+06  1.890256E+03 -2.331199E+05
        68   2  6.485159E+06  1.239862E+06  1.226511E+06  4.326962E+05 -2.582492E+04 -1.515488E+05
        68   3  3.597689E+06  5.592989E+05  5.410948E+05  1.555634E+06 -5.473572E+04 -4.080541E+04
        68   4  1.472060E+06  2.194848E+03  4.237425E+04  1.532298E+06  3.421421E+04 -2.331116E+05
        68   5  1.473847E+06  2.042560E+03  2.674882E+04  4.042886E+05  2.073131E+04 -1.512347E+05
        68   6  1.477001E+06  3.277869E+04  2.494199E+04  1.532101E+06  5.922952E+03 -4.005507E+04
        68   7 -6.383366E+06 -1.953396E+06 -1.854625E+06  1.500413E+06  6.613051E+04 -2.331068E+05
        68   8 -3.514638E+06 -1.237589E+06 -1.174778E+06  3.760544E+05  6.691579E+04 -1.509236E+05
        68   9 -6.395962E+05 -4.940688E+05 -4.915228E+05  1.508631E+06  6.637586E+04 -3.930784E+04
        68  10  9.384200E+06  1.953215E+06  1.934860E+06  1.564436E+06  6.060190E-09  5.915720E-09
        68  11  6.485152E+06  1.239837E+06  1.226466E+06  4.326930E+05 -4.705799E-09 -6.790224E-10
        68  12  3.597685E+06  5.592963E+05  5.410861E+05  1.555633E+06  1.291955E-08 -2.885974E-09
        68  13  1.472045E+06  2.136112E+03  4.226977E+04  1.532304E+06  3.465397E-08  9.863041E-09
        68  14  1.473841E+06  2.017865E+03  2.670499E+04  4.042911E+05 -2.654921E-08  5.071422E-10
        68  15  1.477001E+06  3.277696E+04  2.493890E+04  1.532101E+06 -4.356969E-09  4.119881E-10
        68  16 -6.383385E+06 -1.953456E+06 -1.854736E+06  1.500426E+06 -1.038131E-08  3.928688E-09
        68  17 -3.514649E+06 -1.237614E+06 -1.174830E+06  3.760626E+05 -9.066253E-09 -5.518346E-09
        68  18 -6.396014E+05 -4.940717E+05 -4.915341E+05  1.508633E+06 -5.049286E-09 -4.570724E-09
        68  19  9.384215E+06  1.953274E+06  1.934962E+06  1.564436E+06 -1.890256E+03  2.331199E+05
        68  20  6.485159E+06  1.239862E+06  1.226511E+06  4.326962E+05  2.582492E+04  1.515488E+05
        68  21  3.597689E+06  5.592989E+05  5.410948E+05  1.555634E+06  5.473572E+04  4.080541E+04
        68  22  1.472060E+06  2.194848E+03  4.237425E+04  1.532298E+06 -3.421421E+04  2.331116E+05
        68  23  1.473847E+06  2.042560E+03  2.674882E+04  4.042886E+05 -2.073131E+04  1.512347E+05
        68  24  1.477001E+06  3.277869E+04  2.494199E+04  1.532101E+06 -5.922952E+03  4.005507E+04
        68  25 -6.383366E+06 -1.953396E+06 -1.854625E+06  1.500413E+06 -6.613051E+04  2.331068E+05
        68  26 -3.514638E+06 -1.237589E+06 -1.174778E+06  3.760544E+05 -6.691579E+04  1.509236E+05
        68  27 -6.395962E+05 -4.940688E+05 -4.915228E+05  1.508631E+06 -6.637586E+04  3.930784E+04
        69   1 -4.901033E+05 -4.561968E+05 -4.563042E+05  1.509331E+06 -6.085523E+04  3.485584E+04
        69   2 -3.362911E+06 -1.199032E+06 -1.143019E+06  3.768672E+05 -5.915349E+04  1.464337E+05
        69   3 -6.233496E+06 -1.919209E+06 -1.829587E+06  1.500904E+06 -5.616891E+04  2.288444E+05
        69   4  1.476265E+06  3.334332E+04  2.398677E+04  1.532001E+06 -4.620145E+02  3.560550E+04
        69   5  1.475237E+06  3.128688E+03  2.218397E+04  4.044035E+05 -1.287948E+04  1.467560E+05
        69   6  1.471480E+06 -1.256803E+03  3.086399E+04  1.532227E+06 -2.400346E+04  2.288650E+05
        69   7  3.446163E+06  5.226010E+05  5.040099E+05  1.554727E+06  6.012213E+04  3.635820E+04
        69   8  6.334853E+06  1.203586E+06  1.185728E+06  4.321034E+05  3.375550E+04  1.470811E+05
        69   9  9.231025E+06  1.912355E+06  1.887073E+06  1.563791E+06  8.564177E+03  2.288889E+05
        69  10 -4.901077E+05 -4.561991E+05 -4.563135E+05  1.509333E+06  1.363714E-08  8.899455E-11
        69  11 -3.362920E+06 -1.199056E+06 -1.143066E+06  3.768742E+05 -8.827744E-09  3.557642E-09
        69  12 -6.233514E+06 -1.919266E+06 -1.829692E+06  1.500915E+06 -1.268606E-08 -2.868291E-09
        69  13  1.476265E+06  3.334196E+04  2.398439E+04  1.532001E+06 -1.391489E-10 -3.675897E-09
        69  14  1.475231E+06  3.105499E+03  2.214315E+04  4.044050E+05  2.508790E-08 -7.909102E-10
        69  15  1.471465E+06 -1.313263E+03  3.076435E+04  1.532231E+06 -3.247703E-08 -2.345630E-09
        69  16  3.446159E+06  5.225987E+05  5.040007E+05  1.554726E+06 -1.425905E-08 -1.451251E-09
        69  17  6.334846E+06  1.203562E+06  1.185685E+06  4.320994E+05 -1.129580E-08 -1.015120E-08
        69  18  9.231011E+06  1.912299E+06  1.886974E+06  1.563790E+06  7.894405E-09 -1.130535E-09
        69  19 -4.901033E+05 -4.561968E+05 -4.563042E+05  1.509331E+06  6.085523E+04 -3.485584E+04
        69  20 -3.362911E+06 -1.199032E+06 -1.143019E+06  3.768672E+05  5.915349E+04 -1.464337E+05
        69  21 -6.233496E+06 -1.919209E+06 -1.829587E+06  1.500904E+06  5.616891E+04 -2.288444E+05
        69  22  1.476265E+06  3.334332E+04  2.398677E+04  1.532001E+06  4.620145E+02 -3.560550E+04
        69  23  1.475237E+06  3.128688E+03  2.218397E+04  4.044035E+05  1.287948E+04 -1.467560E+05
        69  24  1.471480E+06 -1.256803E+03  3.086399E+04  1.532227E+06  2.400346E+04 -2.288650E+05
        69  25  3.446163E+06  5.226010E+05  5.040099E+05  1.554727E+06 -6.012213E+04 -3.635820E+04
        69  26  6.334853E+06  1.203586E+06  1.185728E+06  4.321034E+05 -3.375550E+04 -1.470811E+05
        69  27  9.231025E+06  1.912355E+06  1.887073E+06  1.563791E+06 -8.564177E+03 -2.288889E+05
        70   1 -1.027338E+07 -2.949235E+06 -2.803610E+06  1.528288E+06 -1.818182E+05  3.548788E+05
        70   2 -1.336261E+07 -3.750560E+06 -3.528552E+06  4.728700E+05 -8.610681E+03  4.630237E+05
        70   3 -1.611271E+07 -4.414504E+06 -4.268187E+06  1.718645E+06  1.595331E+05  1.611051E+05
        70   4  1.530839E+06 -4.220826E+03  5.243214E+04  1.541296E+06 -3.432530E+04  3.548609E+05
        70   5  1.339465E+06 -7.562436E+04  2.990981E+04  3.929804E+05 -5.484486E+04  4.626335E+05
        70   6  1.515853E+06  2.542219E+04  1.284768E+05  1.543004E+06 -7.958041E+04  1.645731E+05
        70   7  1.346366E+07  2.930582E+06  2.898560E+06  1.554312E+06  1.160023E+05  3.548487E+05
        70   8  1.624166E+07  3.583437E+06  3.572862E+06  3.114700E+05 -1.021744E+05  4.622642E+05
        70   9  1.943088E+07  4.441933E+06  4.502003E+06  1.363068E+06 -3.255881E+05  1.681375E+05
        70  10 -1.027345E+07 -2.949380E+06 -2.803910E+06  1.528340E+06 -1.185773E-08 -2.072810E-09
        70  11 -1.336266E+07 -3.750791E+06 -3.528956E+06  4.728733E+05 -7.966201E-09  2.806861E-09
        70  12 -1.611274E+07 -4.414539E+06 -4.268284E+06  1.718624E+06 -5.847138E-09  4.546549E-09
        70  13  1.530804E+06 -4.356503E+03  5.219297E+04  1.541306E+06 -3.443530E-08  1.902000E-10
        70  14  1.339404E+06 -7.585518E+04  2.950159E+04  3.930008E+05  9.897668E-09  5.275258E-09
        70  15  1.515839E+06  2.539134E+04  1.284138E+05  1.543015E+06  1.986228E-08  1.073677E-09
        70  16  1.346362E+07  2.930443E+06  2.898299E+06  1.554280E+06  7.787010E-09  3.995045E-09
        70  17  1.624159E+07  3.583205E+06  3.572441E+06  3.115077E+05  6.744117E-09  1.407269E-09
        70  18  1.943076E+07  4.441875E+06  4.501756E+06  1.363111E+06 -1.403938E-08  1.352776E-09
        70  19 -1.027338E+07 -2.949235E+06 -2.803610E+06  1.528288E+06  1.818182E+05 -3.548788E+05
        70  20 -1.336261E+07 -3.750560E+06 -3.528552E+06  4.728700E+05  8.610681E+03 -4.630237E+05
        70  21 -1.611271E+07 -4.414504E+06 -4.268187E+06  1.718645E+06 -1.595331E+05 -1.611051E+05
        70  22  1.530839E+06 -4.220826E+03  5.243214E+04  1.541296E+06  3.432530E+04 -3.548609E+05
        70  23  1.339465E+06 -7.562436E+04  2.990981E+04  3.929804E+05  5.484486E+04 -4.626335E+05
        70  24  1.515853E+06  2.542219E+04  1.284768E+05  1.543004E+06  7.958041E+04 -1.645731E+05
        70  25  1.346366E+07  2.930582E+06  2.898560E+06  1.554312E+06 -1.160023E+05 -3.548487E+05
        70  26  1.624166E+07  3.583437E+06  3.572862E+06  3.114700E+05  1.021744E+05 -4.622642E+05
        70  27  1.943088E+07  4.441933E+06  4.502003E+06  1.363068E+06  3.255881E+05 -1.681375E+05
        71   1 -4.413905E+06 -1.762301E+07 -4.489083E+06  1.790781E+06 -1.651916E+05 -3.242928E+05
        71   2 -3.331016E+06 -1.359294E+07 -3.317049E+06  2.045485E+05 -4.253150E+05 -7.570310E+04
        71   3 -2.154799E+06 -9.604228E+06 -2.292266E+06  1.780791E+06 -2.657411E+05  1.598178E+05
        71   4 -3.406248E+04 -2.968553E+05 -1.568816E+05  2.126652E+06 -1.584654E+05 -1.016209E+05
        71   5  1.360318E+04 -2.786901E+05 -8.940724E+04  5.437698E+05 -4.237308E+05 -4.864346E+04
        71   6  1.936393E+05 -2.779290E+05 -2.834595E+04  2.119420E+06 -2.732475E+05 -1.019171E+04
        71   7  4.323150E+06  1.730675E+07  4.152825E+06  2.469650E+06 -1.515972E+05  1.274373E+05
        71   8  3.345334E+06  1.320002E+07  3.125457E+06  8.888718E+05 -4.221366E+05 -2.098251E+04
        71   9  2.535867E+06  9.128789E+06  2.229398E+06  2.462175E+06 -2.808819E+05 -1.827784E+05
        71  10 -4.413963E+06 -1.762313E+07 -4.489336E+06  1.790738E+06  3.098791E-09 -2.177363E-09
        71  11 -3.331212E+06 -1.359299E+07 -3.317400E+06  2.045223E+05  3.190608E-08  1.478591E-08
        71  12 -2.154882E+06 -9.604275E+06 -2.292448E+06  1.780826E+06  2.413070E-08  2.103183E-08
        71  13 -3.409213E+04 -2.968730E+05 -1.569480E+05  2.126639E+06  1.391669E-09  3.431685E-09
        71  14  1.340978E+04 -2.787408E+05 -8.974896E+04  5.437533E+05  2.357125E-09 -4.664418E-10
        71  15  1.935591E+05 -2.779491E+05 -2.848635E+04  2.119418E+06 -4.617082E-09  8.312602E-09
        71  16  4.323121E+06  1.730673E+07  4.152752E+06  2.469665E+06  7.669327E-09  4.198500E-09
        71  17  3.345142E+06  1.319997E+07  3.125122E+06  8.888648E+05  9.590027E-09 -1.230483E-08
        71  18  2.535774E+06  9.128732E+06  2.229189E+06  2.462134E+06  1.167702E-08 -2.736513E-08
        71  19 -4.413905E+06 -1.762301E+07 -4.489083E+06  1.790781E+06  1.651916E+05  3.242928E+05
        71  20 -3.331016E+06 -1.359294E+07 -3.317049E+06  2.045485E+05  4.253150E+05  7.570310E+04
        71  21 -2.154799E+06 -9.604228E+06 -2.292266E+06  1.780791E+06  2.657411E+05 -1.598178E+05
        71  22 -3.406248E+04 -2.968553E+05 -1.568816E+05  2.126652E+06  1.584654E+05  1.016209E+05
        71  23  1.360318E+04 -2.786901E+05 -8.940724E+04  5.437698E+05  4.237308E+05  4.864346E+04
        71  24  1.936393E+05 -2.779290E+05 -2.834595E+04  2.119420E+06  2.732475E+05  1.019171E+04
        71  25  4.323150E+06  1.730675E+07  4.152825E+06  2.469650E+06  1.515972E+05 -1.274373E+05
        71  26  3.345334E+06  1.320002E+07  3.125457E+06  8.888718E+05  4.221366E+05  2.098251E+04
        71  27  2.535867E+06  9.128789E+06  2.229398E+06  2.462175E+06  2.808819E+05  1.827784E+05
        72   1 -7.358172E+05 -3.922949E+06 -9.042612E+05  2.008055E+06 -1.118132E+05  4.602748E+04
        72   2  1.676146E+05  2.605665E+05  8.771006E+04  5.574894E+05  1.534258E+04  4.913031E+04
        72   3  1.284693E+06  4.160342E+06  1.053761E+06  2.266393E+06  1.411105E+05  5.248082E+04
        72   4  1.659700E+05 -3.193233E+05 -3.563833E+04  2.121998E+06 -1.147115E+05 -1.502398E+04
        72   5  5.987420E+04 -1.702118E+05 -1.607598E+04  5.424364E+05  1.252211E+04 -1.138450E+04
        72   6  1.684671E+05 -3.199171E+05 -2.173857E+04  2.121839E+06  1.383192E+05 -7.548296E+03
        72   7  1.066829E+06  3.296254E+06  8.320704E+05  2.236446E+06 -1.176233E+05 -7.643045E+04
        72   8 -4.787742E+04 -6.008124E+05 -1.198615E+05  5.273921E+05  9.703563E+03 -7.185744E+04
        72   9 -9.491842E+05 -4.781846E+06 -1.098651E+06  1.978083E+06  1.355450E+05 -6.714748E+04
        72  10 -7.358312E+05 -3.922954E+06 -9.042887E+05  2.008059E+06  2.261126E-08 -1.981907E-09
        72  11  1.676137E+05  2.605639E+05  8.770509E+04  5.574888E+05 -1.884994E-09 -1.313020E-09
        72  12  1.284671E+06  4.160334E+06  1.053719E+06  2.266387E+06 -2.861659E-09 -6.417721E-09
        72  13  1.659558E+05 -3.193271E+05 -3.566344E+04  2.121996E+06 -1.945269E-08  4.672217E-09
        72  14  5.987399E+04 -1.702120E+05 -1.607652E+04  5.424365E+05  7.126404E-09 -5.216182E-10
        72  15  1.684465E+05 -3.199223E+05 -2.177463E+04  2.121840E+06 -6.698549E-09  1.011042E-08
        72  16  1.066812E+06  3.296244E+06  8.320337E+05  2.236439E+06  2.225626E-08  2.982110E-09
        72  17 -4.787891E+04 -6.008180E+05 -1.198714E+05  5.273926E+05  7.739007E-09  4.662667E-09
        72  18 -9.492052E+05 -4.781856E+06 -1.098694E+06  1.978090E+06  1.709017E-08  1.543300E-09
        72  19 -7.358172E+05 -3.922949E+06 -9.042612E+05  2.008055E+06  1.118132E+05 -4.602748E+04
        72  20  1.676146E+05  2.605665E+05  8.771006E+04  5.574894E+05 -1.534258E+04 -4.913031E+04
        72  21  1.284693E+06  4.160342E+06  1.053761E+06  2.266393E+06 -1.411105E+05 -5.248082E+04
        72  22  1.659700E+05 -3.193233E+05 -3.563833E+04  2.121998E+06  1.147115E+05  1.502398E+04
        72  23  5.987420E+04 -1.702118E+05 -1.607598E+04  5.424364E+05 -1.252211E+04  1.138450E+04
        72  24  1.684671E+05 -3.199171E+05 -2.173857E+04  2.121839E+06 -1.383192E+05  7.548296E+03
        72  25  1.066829E+06  3.296254E+06  8.320704E+05  2.236446E+06  1.176233E+05  7.643045E+04
        72  26 -4.787742E+04 -6.008124E+05 -1.198615E+05  5.273921E+05 -9.703563E+03  7.185744E+04
        72  27 -9.491842E+05 -4.781846E+06 -1.098651E+06  1.978083E+06 -1.355450E+05  6.714748E+04
        73   1  2.740630E+06  1.001005E+07  2.457947E+06  2.476366E+06  3.066679E+05  1.610481E+05
        73   2  3.539975E+06  1.404944E+07  3.366843E+06  9.032565E+05  4.469290E+05 -2.920585E+04
        73   3  4.599874E+06  1.819170E+07  4.456461E+06  2.482570E+06  1.582845E+05 -2.064303E+05
        73   4  1.852864E+05 -2.666902E+05 -6.287625E+03  2.119966E+06  2.990569E+05 -1.560534E+04
        73   5 -4.911835E+03 -3.010643E+05 -5.423128E+04  5.438935E+05  4.487319E+05  3.401679E+03
        73   6  2.876135E+04 -2.867365E+05 -6.461400E+04  2.124947E+06  1.651168E+05  3.678966E+04
        73   7 -2.377488E+06 -1.044753E+07 -2.477898E+06  1.768208E+06  2.915806E+05 -1.893777E+05
        73   8 -3.564406E+06 -1.446529E+07 -3.489777E+06  1.910704E+05  4.505224E+05  3.526620E+04
        73   9 -4.567260E+06 -1.845968E+07 -4.610447E+06  1.775244E+06  1.717868E+05  2.729228E+05
        73  10  2.740522E+06  1.001000E+07  2.457723E+06  2.476326E+06  6.008165E-09  7.411068E-09
        73  11  3.539761E+06  1.404939E+07  3.366466E+06  9.032670E+05  3.161986E-08  5.365999E-09
        73  12  4.599835E+06  1.819165E+07  4.456336E+06  2.482596E+06  1.286351E-08 -9.873826E-09
        73  13  1.851903E+05 -2.667145E+05 -6.456158E+03  2.119970E+06 -4.458280E-09  5.042077E-09
        73  14 -5.128046E+03 -3.011183E+05 -5.460965E+04  5.438924E+05  8.390834E-09 -9.991298E-10
        73  15  2.873174E+04 -2.867453E+05 -6.466767E+04  2.124942E+06  5.309302E-09  4.426471E-09
        73  16 -2.377590E+06 -1.044759E+07 -2.478127E+06  1.768253E+06 -3.081292E-09 -5.472682E-09
        73  17 -3.564624E+06 -1.446535E+07 -3.490161E+06  1.910575E+05 -1.324047E-08 -3.838106E-09
        73  18 -4.567312E+06 -1.845977E+07 -4.610646E+06  1.775206E+06 -9.201914E-09  7.493612E-09
        73  19  2.740630E+06  1.001005E+07  2.457947E+06  2.476366E+06 -3.066679E+05 -1.610481E+05
        73  20  3.539975E+06  1.404944E+07  3.366843E+06  9.032565E+05 -4.469290E+05  2.920585E+04
        73  21  4.599874E+06  1.819170E+07  4.456461E+06  2.482570E+06 -1.582845E+05  2.064303E+05
        73  22  1.852864E+05 -2.666902E+05 -6.287625E+03  2.119966E+06 -2.990569E+05  1.560534E+04
        73  23 -4.911835E+03 -3.010643E+05 -5.423128E+04  5.438935E+05 -4.487319E+05 -3.401679E+03
        73  24  2.876135E+04 -2.867365E+05 -6.461400E+04  2.124947E+06 -1.651168E+05 -3.678966E+04
        73  25 -2.377488E+06 -1.044753E+07 -2.477898E+06  1.768208E+06 -2.915806E+05  1.893777E+05
        73  26 -3.564406E+06 -1.446529E+07 -3.489777E+06  1.910704E+05 -4.505224E+05 -3.526620E+04
        73  27 -4.567260E+06 -1.845968E+07 -4.610447E+06  1.775244E+06 -1.717868E+05 -2.729228E+05
        74   1  1.916223E+07  4.361990E+06  4.429330E+06  1.317447E+06  3.485556E+05 -1.644194E+05
        74   2  1.608526E+07  3.493420E+06  3.507277E+06  2.958397E+05  1.202924E+05 -4.512808E+05
        74   3  1.341516E+07  2.865898E+06  2.849487E+06  1.484559E+06 -1.027185E+05 -3.477411E+05
        74   4  1.715482E+06  6.110414E+04  1.700495E+05  1.484119E+06  1.083772E+05 -1.608957E+05
        74   5  1.539873E+06 -7.802338E+04  4.917391E+04  3.760607E+05  7.346327E+04 -4.516028E+05
        74   6  1.729601E+06 -7.837471E+03  6.266303E+04  1.481954E+06  4.279128E+04 -3.478412E+05
        74   7 -1.545955E+07 -4.261991E+06 -4.111170E+06  1.646976E+06 -1.252531E+05 -1.574562E+05
        74   8 -1.281487E+07 -3.664587E+06 -3.423702E+06  4.547420E+05  2.768831E+04 -4.519445E+05
        74   9 -9.832641E+06 -2.891363E+06 -2.733667E+06  1.479191E+06  1.856127E+05 -3.479431E+05
        74  10  1.916210E+07  4.361929E+06  4.429057E+06  1.317492E+06 -1.450393E-08  1.064736E-09
        74  11  1.608519E+07  3.493197E+06  3.506867E+06  2.958830E+05 -4.967301E-09  9.290056E-09
        74  12  1.341512E+07  2.865766E+06  2.849241E+06  1.484531E+06  1.544526E-08 -2.315008E-09
        74  13  1.715462E+06  6.107312E+04  1.699786E+05  1.484133E+06 -4.924494E-11  5.797504E-09
        74  14  1.539812E+06 -7.824403E+04  4.878012E+04  3.760875E+05  2.724502E-08  1.262180E-09
        74  15  1.729567E+06 -7.968042E+03  6.243187E+04  1.481966E+06  1.071761E-08 -6.857356E-09
        74  16 -1.545957E+07 -4.262022E+06 -4.111247E+06  1.646960E+06 -2.555976E-09 -6.988204E-09
        74  17 -1.281492E+07 -3.664807E+06 -3.424088E+06  4.547523E+05  1.640574E-08  2.032342E-09
        74  18 -9.832711E+06 -2.891503E+06 -2.733961E+06  1.479243E+06 -2.435837E-08 -2.196151E-09
        74  19  1.916223E+07  4.361990E+06  4.429330E+06  1.317447E+06 -3.485556E+05  1.644194E+05
        74  20  1.608526E+07  3.493420E+06  3.507277E+06  2.958397E+05 -1.202924E+05  4.512808E+05
        74  21  1.341516E+07  2.865898E+06  2.849487E+06  1.484559E+06  1.027185E+05  3.477411E+05
        74  22  1.715482E+06  6.110414E+04  1.700495E+05  1.484119E+06 -1.083772E+05  1.608957E+05
        74  23  1.539873E+06 -7.802338E+04  4.917391E+04  3.760607E+05 -7.346327E+04  4.516028E+05
        74  24  1.729601E+06 -7.837471E+03  6.266303E+04  1.481954E+06 -4.279128E+04  3.478412E+05
        74  25 -1.545955E+07 -4.261991E+06 -4.111170E+06  1.646976E+06  1.252531E+05  1.574562E+05
        74  26 -1.281487E+07 -3.664587E+06 -3.423702E+06  4.547420E+05 -2.768831E+04  4.519445E+05
        74  27 -9.832641E+06 -2.891363E+06 -2.733667E+06  1.479191E+06 -1.856127E+05  3.479431E+05
        75   1  9.346923E+06  1.893698E+06  1.875752E+06  1.500217E+06  1.243821E+02 -2.260609E+05
        75   2  6.564434E+06  1.209880E+06  1.196973E+06  4.151184E+05 -2.653911E+04 -1.479244E+05
        75   3  3.794613E+06  5.562515E+05  5.405262E+05  1.493517E+06 -5.431763E+04 -4.168711E+04
        75   4  1.670834E+06  1.000789E+03  3.974423E+04  1.471550E+06  3.106110E+04 -2.260646E+05
        75   5  1.671529E+06  1.515921E+03  2.573033E+04  3.891755E+05  1.810376E+04 -1.476457E+05
        75   6  1.675459E+06  3.033155E+04  2.516612E+04  1.471371E+06  3.911929E+03 -4.100398E+04
        75   7 -5.951868E+06 -1.895942E+06 -1.800414E+06  1.443100E+06  6.161945E+04 -2.260713E+05
        75   8 -3.199621E+06 -1.208575E+06 -1.147195E+06  3.633868E+05  6.239868E+04 -1.473697E+05
        75   9 -4.396116E+05 -4.959152E+05 -4.905061E+05  1.449284E+06  6.194419E+04 -4.032365E+04
        75  10  9.346909E+06  1.893643E+06  1.875656E+06  1.500217E+06 -8.481965E-09 -4.211307E-10
        75  11  6.564427E+06  1.209857E+06  1.196931E+06  4.151153E+05  2.013107E-08  1.102456E-08
        75  12  3.794610E+06  5.562489E+05  5.405175E+05  1.493515E+06 -2.225027E-09 -7.612772E-09
        75  13  1.670819E+06  9.455851E+02  3.964623E+04  1.471556E+06  1.691815E-08 -5.968297E-09
        75  14  1.671523E+06  1.492405E+03  2.568871E+04  3.891776E+05 -8.918512E-09  1.437217E-08
        75  15  1.675459E+06  3.032974E+04  2.516293E+04  1.471371E+06 -8.817960E-09 -2.238421E-09
        75  16 -5.951886E+06 -1.895998E+06 -1.800518E+06  1.443112E+06 -2.196429E-08  2.014551E-09
        75  17 -3.199631E+06 -1.208599E+06 -1.147243E+06  3.633942E+05 -3.145622E-08  1.057914E-08
        75  18 -4.396162E+05 -4.959180E+05 -4.905164E+05  1.449286E+06 -1.064957E-08  5.464079E-09
        75  19  9.346923E+06  1.893698E+06  1.875752E+06  1.500217E+06 -1.243821E+02  2.260609E+05
        75  20  6.564434E+06  1.209880E+06  1.196973E+06  4.151184E+05  2.653911E+04  1.479244E+05
        75  21  3.794613E+06  5.562515E+05  5.405262E+05  1.493517E+06  5.431763E+04  4.168711E+04
        75  22  1.670834E+06  1.000789E+03  3.974423E+04  1.471550E+06 -3.106110E+04  2.260646E+05
        75  23  1.671529E+06  1.515921E+03  2.573033E+04  3.891755E+05 -1.810376E+04  1.476457E+05
        75  24  1.675459E+06  3.033155E+04  2.516612E+04  1.471371E+06 -3.911929E+03  4.100398E+04
        75  25 -5.951868E+06 -1.895942E+06 -1.800414E+06  1.443100E+06 -6.161945E+04  2.260713E+05
        75  26 -3.199621E+06 -1.208575E+06 -1.147195E+06  3.633868E+05 -6.239868E+04  1.473697E+05
        75  27 -4.396116E+05 -4.959152E+05 -4.905061E+05  1.449284E+06 -6.194419E+04  4.032365E+04
        76   1 -1.255174E+05 -4.179145E+05 -4.151520E+05  1.451628E+06 -6.027735E+04  3.086569E+04
        76   2 -2.882338E+06 -1.129026E+06 -1.071754E+06  3.644439E+05 -6.057058E+04  1.378301E+05
        76   3 -5.636647E+06 -1.815383E+06 -1.726177E+06  1.441788E+06 -5.969570E+04  2.169952E+05
        76   4  1.674640E+06  3.012533E+04  2.470991E+04  1.471147E+06 -2.386280E+03  3.155076E+04
        76   5  1.673495E+06  2.526550E+03  2.501920E+04  3.894581E+05 -1.615147E+04  1.381281E+05
        76   6  1.670316E+06  2.642358E+03  3.731614E+04  1.471318E+06 -2.874718E+04  2.170195E+05
        76   7  3.477754E+06  4.779285E+05  4.643483E+05  1.490711E+06  5.567228E+04  3.223833E+04
        76   8  6.248352E+06  1.132570E+06  1.120322E+06  4.146125E+05  2.859377E+04  1.384285E+05
        76   9  9.026322E+06  1.816768E+06  1.796997E+06  1.501067E+06  2.568283E+03  2.170467E+05
        76  10 -1.255215E+05 -4.179165E+05 -4.151606E+05  1.451630E+06 -2.429527E-08 -4.140895E-09
        76  11 -2.882347E+06 -1.129048E+06 -1.071796E+06  3.644506E+05 -2.869485E-09  1.893902E-09
        76  12 -5.636664E+06 -1.815435E+06 -1.726272E+06  1.441799E+06  1.394653E-08 -9.686036E-09
        76  13  1.674639E+06  3.012425E+04  2.470802E+04  1.471147E+06  1.716516E-08 -2.460377E-09
        76  14  1.673489E+06  2.505974E+03  2.498282E+04  3.894599E+05 -4.444904E-08 -3.977178E-09
        76  15  1.670303E+06  2.591501E+03  3.722594E+04  1.471323E+06 -1.346614E-08 -1.377107E-08
        76  16  3.477750E+06  4.779266E+05  4.643406E+05  1.490709E+06  1.494456E-08  5.234753E-10
        76  17  6.248346E+06  1.132549E+06  1.120284E+06  4.146094E+05  6.206501E-09  2.776285E-09
        76  18  9.026309E+06  1.816717E+06  1.796908E+06  1.501067E+06 -2.417675E-08 -7.069480E-09
        76  19 -1.255174E+05 -4.179145E+05 -4.151520E+05  1.451628E+06  6.027735E+04 -3.086569E+04
        76  20 -2.882338E+06 -1.129026E+06 -1.071754E+06  3.644439E+05  6.057058E+04 -1.378301E+05
        76  21 -5.636647E+06 -1.815383E+06 -1.726177E+06  1.441788E+06  5.969570E+04 -2.169952E+05
        76  22  1.674640E+06  3.012533E+04  2.470991E+04  1.471147E+06  2.386280E+03 -3.155076E+04
        76  23  1.673495E+06  2.526550E+03  2.501920E+04  3.894581E+05  1.615147E+04 -1.381281E+05
        76  24  1.670316E+06  2.642358E+03  3.731614E+04  1.471318E+06  2.874718E+04 -2.170195E+05
        76  25  3.477754E+06  4.779285E+05  4.643483E+05  1.490711E+06 -5.567228E+04 -3.223833E+04
        76  26  6.248352E+06  1.132570E+06  1.120322E+06  4.146125E+05 -2.859377E+04 -1.384285E+05
        76  27  9.026322E+06  1.816768E+06  1.796997E+06  1.501067E+06 -2.568283E+03 -2.170467E+05
        77   1 -9.517564E+06 -2.808846E+06 -2.660016E+06  1.473181E+06 -1.812318E+05  3.377602E+05
        77   2 -1.248753E+07 -3.579300E+06 -3.349485E+06  4.460058E+05 -2.420033E+04  4.418247E+05
        77   3 -1.513838E+07 -4.185520E+06 -4.041991E+06  1.633096E+06  1.282869E+05  1.542703E+05
        77   4  1.726734E+06 -5.114770E+03  5.904120E+04  1.481493E+06 -3.993219E+04  3.377591E+05
        77   5  1.546755E+06 -7.366487E+04  4.511323E+04  3.766516E+05 -6.828243E+04  4.414666E+05
        77   6  1.712954E+06  5.498972E+04  1.577311E+05  1.483406E+06 -1.004382E+05  1.574185E+05
        77   7  1.308763E+07  2.789360E+06  2.769112E+06  1.489744E+06  1.039525E+05  3.377613E+05
        77   8  1.576321E+07  3.417520E+06  3.425596E+06  3.059650E+05 -1.133576E+05  4.411263E+05
        77   9  1.882577E+07  4.274120E+06  4.336339E+06  1.330260E+06 -3.354527E+05  1.606429E+05
        77  10 -9.517631E+06 -2.808978E+06 -2.660294E+06  1.473231E+06 -3.270271E-09 -7.979074E-09
        77  11 -1.248758E+07 -3.579511E+06 -3.349854E+06  4.460145E+05 -7.998829E-11  1.411257E-08
        77  12 -1.513840E+07 -4.185550E+06 -4.042067E+06  1.633080E+06 -7.483532E-09  2.991606E-09
        77  13  1.726701E+06 -5.237844E+03  5.882350E+04  1.481504E+06  1.935188E-10 -5.858447E-09
        77  14  1.546697E+06 -7.387559E+04  4.473786E+04  3.766759E+05  1.032539E-09  1.381640E-08
        77  15  1.712936E+06  5.496034E+04  1.576654E+05  1.483419E+06 -1.245521E-08  2.129102E-09
        77  16  1.308759E+07  2.789234E+06  2.768878E+06  1.489716E+06  1.609272E-08 -6.277070E-09
        77  17  1.576315E+07  3.417308E+06  3.425206E+06  3.060049E+05 -4.273088E-09  1.025749E-08
        77  18  1.882565E+07  4.274063E+06  4.336085E+06  1.330303E+06  4.346543E-09  9.819314E-10
        77  19 -9.517564E+06 -2.808846E+06 -2.660016E+06  1.473181E+06  1.812318E+05 -3.377602E+05
        77  20 -1.248753E+07 -3.579300E+06 -3.349485E+06  4.460058E+05  2.420033E+04 -4.418247E+05
        77  21 -1.513838E+07 -4.185520E+06 -4.041991E+06  1.633096E+06 -1.282869E+05 -1.542703E+05
        77  22  1.726734E+06 -5.114770E+03  5.904120E+04  1.481493E+06  3.993219E+04 -3.377591E+05
        77  23  1.546755E+06 -7.366487E+04  4.511323E+04  3.766516E+05  6.828243E+04 -4.414666E+05
        77  24  1.712954E+06  5.498972E+04  1.577311E+05  1.483406E+06  1.004382E+05 -1.574185E+05
        77  25  1.308763E+07  2.789360E+06  2.769112E+06  1.489744E+06 -1.039525E+05 -3.377613E+05
        77  26  1.576321E+07  3.417520E+06  3.425596E+06  3.059650E+05  1.133576E+05 -4.411263E+05
        77  27  1.882577E+07  4.274120E+06  4.336339E+06  1.330260E+06  3.354527E+05 -1.606429E+05
        78   1 -4.412012E+06 -1.738281E+07 -4.490368E+06  1.789760E+06 -1.647040E+05 -3.394989E+05
        78   2 -3.315341E+06 -1.339082E+07 -3.315472E+06  2.129062E+05 -4.240021E+05 -8.651392E+04
        78   3 -2.155500E+06 -9.443381E+06 -2.297284E+06  1.766944E+06 -2.660771E+05  1.537495E+05
        78   4 -5.600023E+04 -1.437935E+05 -1.810774E+05  2.111046E+06 -1.581319E+05 -1.180066E+05
        78   5  1.600354E+04 -1.242723E+05 -1.001402E+05  5.436970E+05 -4.224352E+05 -5.938830E+04
        78   6  1.902437E+05 -1.251355E+05 -3.582873E+04  2.103386E+06 -2.734201E+05 -1.496730E+04
        78   7  4.277606E+06  1.736978E+07  4.105958E+06  2.439059E+06 -1.514268E+05  1.098091E+05
        78   8  3.334550E+06  1.330550E+07  3.102512E+06  8.801902E+05 -4.208587E+05 -3.166039E+04
        78   9  2.529788E+06  9.273366E+06  2.219463E+06  2.443929E+06 -2.808897E+05 -1.862383E+05
        78  10 -4.412073E+06 -1.738294E+07 -4.490641E+06  1.789715E+06 -1.153631E-08 -4.907909E-09
        78  11 -3.315536E+06 -1.339087E+07 -3.315824E+06  2.128764E+05 -2.015934E-08  2.812788E-08
        78  12 -2.155582E+06 -9.443426E+06 -2.297463E+06  1.766978E+06  3.148820E-08  1.583345E-08
        78  13 -5.603072E+04 -1.438151E+05 -1.811503E+05  2.111031E+06 -4.501910E-09  7.010938E-09
        78  14  1.581100E+04 -1.243240E+05 -1.004820E+05  5.436769E+05  2.229636E-09  8.828014E-10
        78  15  1.901634E+05 -1.251557E+05 -3.596952E+04  2.103383E+06 -1.154327E-08  2.238169E-08
        78  16  4.277578E+06  1.736977E+07  4.105892E+06  2.439072E+06  1.959088E-09  5.218359E-09
        78  17  3.334360E+06  1.330545E+07  3.102178E+06  8.801796E+05 -1.478806E-08 -4.172822E-08
        78  18  2.529695E+06  9.273308E+06  2.219252E+06  2.443887E+06 -1.021201E-08 -1.655310E-08
        78  19 -4.412012E+06 -1.738281E+07 -4.490368E+06  1.789760E+06  1.647040E+05  3.394989E+05
        78  20 -3.315341E+06 -1.339082E+07 -3.315472E+06  2.129062E+05  4.240021E+05  8.651392E+04
        78  21 -2.155500E+06 -9.443381E+06 -2.297284E+06  1.766944E+06  2.660771E+05 -1.537495E+05
        78  22 -5.600023E+04 -1.437935E+05 -1.810774E+05  2.111046E+06  1.581319E+05  1.180066E+05
        78  23  1.600354E+04 -1.242723E+05 -1.001402E+05  5.436970E+05  4.224352E+05  5.938830E+04
        78  24  1.902437E+05 -1.251355E+05 -3.582873E+04  2.103386E+06  2.734201E+05  1.496730E+04
        78  25  4.277606E+06  1.736978E+07  4.105958E+06  2.439059E+06  1.514268E+05 -1.098091E+05
        78  26  3.334550E+06  1.330550E+07  3.102512E+06  8.801902E+05  4.208587E+05  3.166039E+04
        78  27  2.529788E+06  9.273366E+06  2.219463E+06  2.443929E+06  2.808897E+05  1.862383E+05
        79   1 -7.557069E+05 -3.823765E+06 -9.239044E+05  1.991615E+06 -1.134771E+05  4.183626E+04
        79   2  1.421037E+05  3.122945E+05  5.924199E+04  5.549309E+05  1.220071E+04  4.742581E+04
        79   3  1.244123E+06  4.169409E+06  1.014212E+06  2.242621E+06  1.368118E+05  5.323056E+04
        79   4  1.595999E+05 -1.648816E+05 -4.202647E+04  2.105376E+06 -1.162976E+05 -1.839493E+04
        79   5  5.942664E+04 -1.827938E+04 -2.039556E+04  5.433154E+05  9.443552E+03 -1.240944E+04
        79   6  1.645101E+05 -1.653266E+05 -2.615898E+04  2.105118E+06  1.340701E+05 -6.274165E+03
        79   7  1.073949E+06  3.506319E+06  8.389085E+05  2.219648E+06 -1.191316E+05 -7.898160E+04
        79   8 -2.325620E+04 -3.487455E+05 -1.000274E+05  5.317052E+05  6.687885E+03 -7.221291E+04
        79   9 -9.164376E+05 -4.482906E+06 -1.067851E+06  1.968347E+06  1.313446E+05 -6.536659E+04
        79  10 -7.557212E+05 -3.823770E+06 -9.239319E+05  1.991619E+06  3.290502E-08 -7.409309E-09
        79  11  1.421029E+05  3.122921E+05  5.923748E+04  5.549305E+05 -1.159148E-08  2.402430E-08
        79  12  1.244102E+06  4.169401E+06  1.014171E+06  2.242615E+06  1.095259E-08  3.768914E-09
        79  13  1.595853E+05 -1.648856E+05 -4.205248E+04  2.105374E+06 -3.469776E-08  1.188435E-08
        79  14  5.942650E+04 -1.827957E+04 -2.039602E+04  5.433155E+05  1.195020E-08  2.354257E-10
        79  15  1.644908E+05 -1.653315E+05 -2.619283E+04  2.105119E+06 -1.044593E-08  2.271544E-08
        79  16  1.073932E+06  3.506309E+06  8.388703E+05  2.219640E+06 -1.928093E-09  6.110749E-09
        79  17 -2.325765E+04 -3.487511E+05 -1.000373E+05  5.317056E+05  6.297241E-10 -4.254290E-08
        79  18 -9.164573E+05 -4.482915E+06 -1.067891E+06  1.968354E+06  7.901077E-09 -5.328422E-09
        79  19 -7.557069E+05 -3.823765E+06 -9.239044E+05  1.991615E+06  1.134771E+05 -4.183626E+04
        79  20  1.421037E+05  3.122945E+05  5.924199E+04  5.549309E+05 -1.220071E+04 -4.742581E+04
        79  21  1.244123E+06  4.169409E+06  1.014212E+06  2.242621E+06 -1.368118E+05 -5.323056E+04
        79  22  1.595999E+05 -1.648816E+05 -4.202647E+04  2.105376E+06  1.162976E+05  1.839493E+04
        79  23  5.942664E+04 -1.827938E+04 -2.039556E+04  5.433154E+05 -9.443552E+03  1.240944E+04
        79  24  1.645101E+05 -1.653266E+05 -2.615898E+04  2.105118E+06 -1.340701E+05  6.274165E+03
        79  25  1.073949E+06  3.506319E+06  8.389085E+05  2.219648E+06  1.191316E+05  7.898160E+04
        79  26 -2.325620E+04 -3.487455E+05 -1.000274E+05  5.317052E+05 -6.687885E+03  7.221291E+04
        79  27 -9.164376E+05 -4.482906E+06 -1.067851E+06  1.968347E+06 -1.313446E+05  6.536659E+04
        80   1  2.685082E+06  9.951989E+06  2.402212E+06  2.451557E+06  3.003006E+05  1.610879E+05
        80   2  3.480465E+06  1.395555E+07  3.301531E+06  8.933470E+05  4.393372E+05 -2.281316E+04
        80   3  4.516532E+06  1.805136E+07  4.371749E+06  2.456337E+06  1.559156E+05 -1.939238E+05
        80   4  1.822742E+05 -1.145719E+05 -1.155020E+04  2.104033E+06  2.928526E+05 -1.324488E+04
        80   5 -2.012308E+03 -1.438116E+05 -5.953691E+04  5.437095E+05  4.410772E+05  8.874548E+03
        80   6  1.815203E+04 -1.340667E+05 -7.767039E+04  2.109167E+06  1.626016E+05  4.507672E+04
        80   7 -2.327664E+06 -1.008912E+07 -2.432387E+06  1.760949E+06  2.855344E+05 -1.847927E+05
        80   8 -3.498591E+06 -1.406337E+07 -3.434572E+06  2.003189E+05  4.428055E+05  3.985174E+04
        80   9 -4.504357E+06 -1.802362E+07 -4.551066E+06  1.769542E+06  1.691336E+05  2.772201E+05
        80  10  2.684979E+06  9.951937E+06  2.401995E+06  2.451518E+06  2.535348E-08 -1.126880E-08
        80  11  3.480258E+06  1.395550E+07  3.301167E+06  8.933551E+05 -1.430605E-09  1.447538E-08
        80  12  4.516496E+06  1.805131E+07  4.371634E+06  2.456361E+06  6.995601E-10  1.625371E-09
        80  13  1.821820E+05 -1.145952E+05 -1.171171E+04  2.104037E+06  2.854164E-08  1.003624E-08
        80  14 -2.221237E+03 -1.438639E+05 -5.990263E+04  5.437064E+05  2.905288E-08 -5.808689E-10
        80  15  1.812313E+04 -1.340760E+05 -7.772377E+04  2.109161E+06 -6.031251E-09  1.214199E-08
        80  16 -2.327761E+06 -1.008918E+07 -2.432606E+06  1.760992E+06  1.747950E-08  8.924950E-09
        80  17 -3.498803E+06 -1.406342E+07 -3.434943E+06  2.003045E+05  2.758385E-09 -2.847492E-08
        80  18 -4.504409E+06 -1.802371E+07 -4.551268E+06  1.769504E+06 -5.186358E-09 -6.359480E-10
        80  19  2.685082E+06  9.951989E+06  2.402212E+06  2.451557E+06 -3.003006E+05 -1.610879E+05
        80  20  3.480465E+06  1.395555E+07  3.301531E+06  8.933470E+05 -4.393372E+05  2.281316E+04
        80  21  4.516532E+06  1.805136E+07  4.371749E+06  2.456337E+06 -1.559156E+05  1.939238E+05
        80  22  1.822742E+05 -1.145719E+05 -1.155020E+04  2.104033E+06 -2.928526E+05  1.324488E+04
        80  23 -2.012308E+03 -1.438116E+05 -5.953691E+04  5.437095E+05 -4.410772E+05 -8.874548E+03
        80  24  1.815203E+04 -1.340667E+05 -7.767039E+04  2.109167E+06 -1.626016E+05 -4.507672E+04
        80  25 -2.327664E+06 -1.008912E+07 -2.432387E+06  1.760949E+06 -2.855344E+05  1.847927E+05
        80  26 -3.498591E+06 -1.406337E+07 -3.434572E+06  2.003189E+05 -4.428055E+05 -3.985174E+04
        80  27 -4.504357E+06 -1.802362E+07 -4.551066E+06  1.769542E+06 -1.691336E+05 -2.772201E+05
        81   1  1.839412E+07  4.170048E+06  4.231589E+06  1.272654E+06  3.333268E+05 -1.567529E+05
        81   2  1.545569E+07  3.337364E+06  3.349762E+06  2.882693E+05  1.149600E+05 -4.307712E+05
        81   3  1.289143E+07  2.733859E+06  2.717814E+06  1.421866E+06 -9.864799E+04 -3.316150E+05
        81   4  1.735893E+06  6.204357E+04  1.630687E+05  1.421687E+06  1.041939E+05 -1.535616E+05
        81   5  1.574835E+06 -7.202815E+04  4.849520E+04  3.600730E+05  7.041417E+04 -4.310693E+05
        81   6  1.748808E+06 -7.183992E+03  5.964867E+04  1.419723E+06  4.047004E+04 -3.316951E+05
        81   7 -1.467446E+07 -4.066227E+06 -3.925464E+06  1.567467E+06 -1.189677E+05 -1.504416E+05
        81   8 -1.213230E+07 -3.495199E+06 -3.266232E+06  4.305622E+05  2.682665E+04 -4.313842E+05
        81   9 -9.281632E+06 -2.757132E+06 -2.607163E+06  1.417437E+06  1.771360E+05 -3.317764E+05
        81  10  1.839400E+07  4.169993E+06  4.231339E+06  1.272696E+06 -1.886159E-08  6.290241E-09
        81  11  1.545563E+07  3.337161E+06  3.349388E+06  2.883088E+05 -5.366940E-09  1.141701E-08
        81  12  1.289139E+07  2.733738E+06  2.717590E+06  1.421840E+06  1.483456E-08 -1.121736E-09
        81  13  1.735875E+06  6.201527E+04  1.630039E+05  1.421700E+06  1.722604E-08 -4.973897E-10
        81  14  1.574780E+06 -7.222920E+04  4.813634E+04  3.600975E+05 -6.979233E-09 -7.866502E-09
        81  15  1.748776E+06 -7.302714E+03  5.943853E+04  1.419734E+06  1.928316E-08 -2.246380E-09
        81  16 -1.467448E+07 -4.066255E+06 -3.925534E+06  1.567453E+06  1.944568E-08  2.998811E-09
        81  17 -1.213235E+07 -3.495399E+06 -3.266583E+06  4.305717E+05  6.006017E-09 -6.254678E-09
        81  18 -9.281696E+06 -2.757259E+06 -2.607431E+06  1.417485E+06 -5.186170E-09  5.586232E-09
        81  19  1.839412E+07  4.170048E+06  4.231589E+06  1.272654E+06 -3.333268E+05  1.567529E+05
        81  20  1.545569E+07  3.337364E+06  3.349762E+06  2.882693E+05 -1.149600E+05  4.307712E+05
        81  21  1.289143E+07  2.733859E+06  2.717814E+06  1.421866E+06  9.864799E+04  3.316150E+05
        81  22  1.735893E+06  6.204357E+04  1.630687E+05  1.421687E+06 -1.041939E+05  1.535616E+05
        81  23  1.574835E+06 -7.202815E+04  4.849520E+04  3.600730E+05 -7.041417E+04  4.310693E+05
        81  24  1.748808E+06 -7.183992E+03  5.964867E+04  1.419723E+06 -4.047004E+04  3.316951E+05
        81  25 -1.467446E+07 -4.066227E+06 -3.925464E+06  1.567467E+06  1.189677E+05  1.504416E+05
        81  26 -1.213230E+07 -3.495199E+06 -3.266232E+06  4.305622E+05 -2.682665E+04  4.313842E+05
        81  27 -9.281632E+06 -2.757132E+06 -2.607163E+06  1.417437E+06 -1.771360E+05  3.317764E+05
        82   1  8.998775E+06  1.803134E+06  1.785777E+06  1.436100E+06 -3.330929E+02 -2.151986E+05
        82   2  6.334719E+06  1.147212E+06  1.135769E+06  3.966116E+05 -2.607208E+04 -1.402775E+05
        82   3  3.682128E+06  5.201060E+05  5.072314E+05  1.429133E+06 -5.282324E+04 -3.851973E+04
        82   4  1.694761E+06  1.837544E+03  3.843685E+04  1.409508E+06  2.935604E+04 -2.151982E+05
        82   5  1.695512E+06  1.373521E+03  2.512006E+04  3.729401E+05  1.669847E+04 -1.400196E+05
        82   6  1.698962E+06  2.790615E+04  2.476670E+04  1.409354E+06  2.918256E+03 -3.789357E+04
        82   7 -5.560902E+06 -1.803304E+06 -1.712662E+06  1.383109E+06  5.869963E+04 -2.152004E+05
        82   8 -2.924133E+06 -1.146017E+06 -1.087041E+06  3.494022E+05  5.915289E+04 -1.397640E+05
        82   9 -2.806270E+05 -4.645800E+05 -4.579711E+05  1.389625E+06  5.848297E+04 -3.726979E+04
        82  10  8.998763E+06  1.803084E+06  1.785690E+06  1.436100E+06  2.585821E-08 -2.627948E-09
        82  11  6.334713E+06  1.147191E+06  1.135730E+06  3.966087E+05  1.776368E-08 -4.061959E-09
        82  12  3.682124E+06  5.201037E+05  5.072235E+05  1.429131E+06  6.636673E-10 -1.844053E-09
        82  13  1.694748E+06  1.787524E+03  3.834807E+04  1.409513E+06  3.417685E-08 -7.501394E-09
        82  14  1.695507E+06  1.352375E+03  2.508266E+04  3.729420E+05 -4.576393E-10 -1.981992E-09
        82  15  1.698962E+06  2.790460E+04  2.476398E+04  1.409354E+06 -6.131359E-09  6.977748E-09
        82  16 -5.560918E+06 -1.803355E+06 -1.712756E+06  1.383119E+06 -1.142198E-08  2.535578E-09
        82  17 -2.924142E+06 -1.146039E+06 -1.087084E+06  3.494089E+05  1.945238E-08 -1.116899E-08
        82  18 -2.806310E+05 -4.645824E+05 -4.579801E+05  1.389627E+06  1.255565E-08  4.576150E-09
        82  19  8.998775E+06  1.803134E+06  1.785777E+06  1.436100E+06  3.330929E+02  2.151986E+05
        82  20  6.334719E+06  1.147212E+06  1.135769E+06  3.966116E+05  2.607208E+04  1.402775E+05
        82  21  3.682128E+06  5.201060E+05  5.072314E+05  1.429133E+06  5.282324E+04  3.851973E+04
        82  22  1.694761E+06  1.837544E+03  3.843685E+04  1.409508E+06 -2.935604E+04  2.151982E+05
        82  23  1.695512E+06  1.373521E+03  2.512006E+04  3.729401E+05 -1.669847E+04  1.400196E+05
        82  24  1.698962E+06  2.790615E+04  2.476670E+04  1.409354E+06 -2.918256E+03  3.789357E+04
        82  25 -5.560902E+06 -1.803304E+06 -1.712662E+06  1.383109E+06 -5.869963E+04  2.152004E+05
        82  26 -2.924133E+06 -1.146017E+06 -1.087041E+06  3.494022E+05 -5.915289E+04  1.397640E+05
        82  27 -2.806270E+05 -4.645800E+05 -4.579711E+05  1.389625E+06 -5.848297E+04  3.726979E+04
        83   1 -7.177217E+04 -4.129151E+05 -4.076925E+05  1.391254E+06 -5.865411E+04  3.096928E+04
        83   2 -2.713377E+06 -1.093334E+06 -1.035776E+06  3.499816E+05 -5.979450E+04  1.334087E+05
        83   3 -5.351129E+06 -1.748667E+06 -1.660522E+06  1.381987E+06 -5.985109E+04  2.091490E+05
        83   4  1.698526E+06  2.759978E+04  2.466782E+04  1.409223E+06 -3.184235E+03  3.159608E+04
        83   5  1.696656E+06  1.863049E+03  2.577497E+04  3.731086E+05 -1.726602E+04  1.336782E+05
        83   6  1.694517E+06  4.005634E+03  3.960093E+04  1.409363E+06 -3.026628E+04  2.091663E+05
        83   7  3.471684E+06  4.678858E+05  4.568116E+05  1.427232E+06  5.244344E+04  3.222506E+04
        83   8  6.124511E+06  1.095646E+06  1.085948E+06  3.963613E+05  2.556468E+04  1.339499E+05
        83   9  8.785746E+06  1.753053E+06  1.736181E+06  1.436936E+06 -3.432782E+02  2.091863E+05
        83  10 -7.177613E+04 -4.129171E+05 -4.077008E+05  1.391256E+06 -2.132115E-09 -5.406707E-09
        83  11 -2.713385E+06 -1.093354E+06 -1.035816E+06  3.499881E+05 -2.262606E-08  6.961171E-09
        83  12 -5.351144E+06 -1.748715E+06 -1.660612E+06  1.381997E+06 -1.873107E-08  1.157954E-09
        83  13  1.698526E+06  2.759870E+04  2.466592E+04  1.409223E+06 -1.717556E-08 -4.398825E-10
        83  14  1.696651E+06  1.843763E+03  2.574080E+04  3.731105E+05  3.318608E-08 -9.457485E-09
        83  15  1.694504E+06  3.958351E+03  3.951686E+04  1.409368E+06  4.321096E-09  2.383714E-09
        83  16  3.471681E+06  4.678839E+05  4.568045E+05  1.427231E+06 -6.240432E-09  4.110581E-09
        83  17  6.124506E+06  1.095626E+06  1.085913E+06  3.963585E+05  2.169022E-08 -2.441494E-09
        83  18  8.785734E+06  1.753006E+06  1.736099E+06  1.436936E+06 -2.396304E-09  2.898796E-09
        83  19 -7.177217E+04 -4.129151E+05 -4.076925E+05  1.391254E+06  5.865411E+04 -3.096928E+04
        83  20 -2.713377E+06 -1.093334E+06 -1.035776E+06  3.499816E+05  5.979450E+04 -1.334087E+05
        83  21 -5.351129E+06 -1.748667E+06 -1.660522E+06  1.381987E+06  5.985109E+04 -2.091490E+05
        83  22  1.698526E+06  2.759978E+04  2.466782E+04  1.409223E+06  3.184235E+03 -3.159608E+04
        83  23  1.696656E+06  1.863049E+03  2.577497E+04  3.731086E+05  1.726602E+04 -1.336782E+05
        83  24  1.694517E+06  4.005634E+03  3.960093E+04  1.409363E+06  3.026628E+04 -2.091663E+05
        83  25  3.471684E+06  4.678858E+05  4.568116E+05  1.427232E+06 -5.244344E+04 -3.222506E+04
        83  26  6.124511E+06  1.095646E+06  1.085948E+06  3.963613E+05 -2.556468E+04 -1.339499E+05
        83  27  8.785746E+06  1.753053E+06  1.736181E+06  1.436936E+06  3.432782E+02 -2.091863E+05
        84   1 -9.070964E+06 -2.702823E+06 -2.554624E+06  1.414772E+06 -1.771798E+05  3.249930E+05
        84   2 -1.191574E+07 -3.440181E+06 -3.211165E+06  4.242925E+05 -3.053650E+04  4.246892E+05
        84   3 -1.446020E+07 -4.004904E+06 -3.866160E+06  1.555539E+06  1.118924E+05  1.484507E+05
        84   4  1.747782E+06 -5.982049E+03  6.076082E+04  1.419276E+06 -4.156047E+04  3.249763E+05
        84   5  1.578216E+06 -7.080236E+04  5.152985E+04  3.606305E+05 -7.306468E+04  4.243642E+05
        84   6  1.735071E+06  6.842602E+04  1.682306E+05  1.421217E+06 -1.081285E+05  1.513869E+05
        84   7  1.267442E+07  2.682294E+06  2.667831E+06  1.423671E+06  9.644492E+04  3.249612E+05
        84   8  1.524050E+07  3.285225E+06  3.301182E+06  2.958000E+05 -1.165126E+05  4.240549E+05
        84   9  1.817171E+07  4.122018E+06  4.183133E+06  1.283941E+06 -3.339568E+05  1.543875E+05
        84  10 -9.071026E+06 -2.702945E+06 -2.554883E+06  1.414819E+06  1.342279E-08  9.973963E-10
        84  11 -1.191579E+07 -3.440376E+06 -3.211506E+06  4.243030E+05 -4.794270E-09  2.392572E-09
        84  12 -1.446022E+07 -4.004931E+06 -3.866225E+06  1.555526E+06 -2.848708E-09  4.959734E-09
        84  13  1.747752E+06 -6.096054E+03  6.055881E+04  1.419286E+06  5.295554E-10  4.334404E-09
        84  14  1.578162E+06 -7.099735E+04  5.118106E+04  3.606555E+05  1.980777E-09 -1.082979E-08
        84  15  1.735052E+06  6.839820E+04  1.681655E+05  1.421230E+06 -1.932045E-09  2.070158E-09
        84  16  1.267438E+07  2.682178E+06  2.667615E+06  1.423646E+06  8.148414E-10  5.224120E-09
        84  17  1.524044E+07  3.285028E+06  3.300819E+06  2.958394E+05  6.741831E-09 -2.456721E-09
        84  18  1.817158E+07  4.121964E+06  4.182884E+06  1.283982E+06 -6.245733E-09  4.147144E-09
        84  19 -9.070964E+06 -2.702823E+06 -2.554624E+06  1.414772E+06  1.771798E+05 -3.249930E+05
        84  20 -1.191574E+07 -3.440181E+06 -3.211165E+06  4.242925E+05  3.053650E+04 -4.246892E+05
        84  21 -1.446020E+07 -4.004904E+06 -3.866160E+06  1.555539E+06 -1.118924E+05 -1.484507E+05
        84  22  1.747782E+06 -5.982049E+03  6.076082E+04  1.419276E+06  4.156047E+04 -3.249763E+05
        84  23  1.578216E+06 -7.080236E+04  5.152985E+04  3.606305E+05  7.306468E+04 -4.243642E+05
        84  24  1.735071E+06  6.842602E+04  1.682306E+05  1.421217E+06  1.081285E+05 -1.513869E+05
        84  25  1.267442E+07  2.682294E+06  2.667831E+06  1.423671E+06 -9.644492E+04 -3.249612E+05
        84  26  1.524050E+07  3.285225E+06  3.301182E+06  2.958000E+05  1.165126E+05 -4.240549E+05
        84  27  1.817171E+07  4.122018E+06  4.183133E+06  1.283941E+06  3.339568E+05 -1.543875E+05
        85   1 -4.512842E+06 -1.771505E+07 -4.588651E+06  1.817509E+06 -1.681137E+05 -3.491828E+05
        85   2 -3.397841E+06 -1.369177E+07 -3.399159E+06  2.189455E+05 -4.342342E+05 -8.998163E+04
        85   3 -2.227804E+06 -9.701337E+06 -2.369700E+06  1.781370E+06 -2.748754E+05  1.566266E+05
        85   4 -6.601262E+04 -1.167944E+05 -1.889237E+05  2.132196E+06 -1.616020E+05 -1.227812E+05
        85   5  1.432255E+04 -1.031475E+05 -1.052851E+05  5.497870E+05 -4.326153E+05 -6.163223E+04
        85   6  1.897031E+05 -9.751408E+04 -3.882645E+04  2.124421E+06 -2.822230E+05 -1.460633E+04
        85   7  4.357450E+06  1.776766E+07  4.187607E+06  2.453574E+06 -1.549587E+05  1.102227E+05
        85   8  3.413048E+06  1.365676E+07  3.175283E+06  8.864658E+05 -4.309866E+05 -3.263772E+04
        85   9  2.600620E+06  9.591575E+06  2.285496E+06  2.471783E+06 -2.897017E+05 -1.885118E+05
        85  10 -4.512906E+06 -1.771519E+07 -4.588939E+06  1.817461E+06  7.506747E-09 -1.478684E-08
        85  11 -3.398046E+06 -1.369183E+07 -3.399529E+06  2.189137E+05  5.504694E-09 -5.465252E-09
        85  12 -2.227892E+06 -9.701384E+06 -2.369889E+06  1.781405E+06  3.820840E-08  3.130919E-09
        85  13 -6.604461E+04 -1.168175E+05 -1.890008E+05  2.132180E+06  1.867971E-08  2.119107E-10
        85  14  1.412058E+04 -1.032018E+05 -1.056438E+05  5.497656E+05 -1.516797E-08 -1.806107E-08
        85  15  1.896176E+05 -9.753566E+04 -3.897641E+04  2.124418E+06  3.204797E-08  3.585431E-08
        85  16  4.357421E+06  1.776764E+07  4.187540E+06  2.453587E+06  3.381998E-09 -4.122966E-09
        85  17  3.412848E+06  1.365671E+07  3.174933E+06  8.864546E+05 -1.040815E-08 -1.241241E-08
        85  18  2.600521E+06  9.591515E+06  2.285274E+06  2.471739E+06  1.144548E-08  5.870715E-09
        85  19 -4.512842E+06 -1.771505E+07 -4.588651E+06  1.817509E+06  1.681137E+05  3.491828E+05
        85  20 -3.397841E+06 -1.369177E+07 -3.399159E+06  2.189455E+05  4.342342E+05  8.998163E+04
        85  21 -2.227804E+06 -9.701337E+06 -2.369700E+06  1.781370E+06  2.748754E+05 -1.566266E+05
        85  22 -6.601262E+04 -1.167944E+05 -1.889237E+05  2.132196E+06  1.616020E+05  1.227812E+05
        85  23  1.432255E+04 -1.031475E+05 -1.052851E+05  5.497870E+05  4.326153E+05  6.163223E+04
        85  24  1.897031E+05 -9.751408E+04 -3.882645E+04  2.124421E+06  2.822230E+05  1.460633E+04
        85  25  4.357450E+06  1.776766E+07  4.187607E+06  2.453574E+06  1.549587E+05 -1.102227E+05
        85  26  3.413048E+06  1.365676E+07  3.175283E+06  8.864658E+05  4.309866E+05  3.263772E+04
        85  27  2.600620E+06  9.591575E+06  2.285496E+06  2.471783E+06  2.897017E+05  1.885118E+05
        86   1 -8.160059E+05 -4.032157E+06 -9.843645E+05  2.006349E+06 -1.202634E+05  4.292511E+04
        86   2  9.358548E+04  1.415954E+05  7.598235E+03  5.544512E+05  6.371702E+03  5.099749E+04
        86   3  1.202747E+06  4.034600E+06  9.684472E+05  2.256337E+06  1.325905E+05  5.921282E+04
        86   4  1.578446E+05 -1.394071E+05 -4.585361E+04  2.126311E+06 -1.230633E+05 -1.754723E+04
        86   5  6.023309E+04  8.339656E+03 -2.451377E+04  5.495753E+05  3.608444E+03 -9.389384E+03
        86   6  1.633198E+05 -1.395820E+05 -3.326717E+04  2.126048E+06  1.298148E+05 -1.170252E+03
        86   7  1.130610E+06  3.767287E+06  8.915878E+05  2.246846E+06 -1.258774E+05 -7.839938E+04
        86   8  2.688141E+04 -1.248920E+05 -5.661331E+04  5.447006E+05  8.458308E+02 -6.976333E+04
        86   9 -8.773455E+05 -4.297852E+06 -1.036205E+06  1.996424E+06  1.270545E+05 -6.115047E+04
        86  10 -8.160220E+05 -4.032163E+06 -9.843952E+05  2.006353E+06  1.966917E-08 -4.581110E-08
        86  11  9.358474E+04  1.415926E+05  7.593274E+03  5.544510E+05 -6.580117E-09 -1.552618E-08
        86  12  1.202727E+06  4.034591E+06  9.684078E+05  2.256330E+06 -1.269942E-08  1.643841E-08
        86  13  1.578283E+05 -1.394114E+05 -4.588260E+04  2.126309E+06 -3.779703E-09  3.559446E-11
        86  14  6.023305E+04  8.339558E+03 -2.451396E+04  5.495754E+05 -2.173059E-08 -2.428684E-08
        86  15  1.633017E+05 -1.395865E+05 -3.329883E+04  2.126048E+06 -1.379238E-08  3.820053E-08
        86  16  1.130592E+06  3.767276E+06  8.915467E+05  2.246838E+06  1.230849E-08  1.031568E-08
        86  17  2.688011E+04 -1.248973E+05 -5.662246E+04  5.447006E+05 -2.139554E-08 -6.424372E-09
        86  18 -8.773639E+05 -4.297860E+06 -1.036242E+06  1.996431E+06  2.645940E-08 -5.636174E-09
        86  19 -8.160059E+05 -4.032157E+06 -9.843645E+05  2.006349E+06  1.202634E+05 -4.292511E+04
        86  20  9.358548E+04  1.415954E+05  7.598235E+03  5.544512E+05 -6.371702E+03 -5.099749E+04
        86  21  1.202747E+06  4.034600E+06  9.684472E+05  2.256337E+06 -1.325905E+05 -5.921282E+04
        86  22  1.578446E+05 -1.394071E+05 -4.585361E+04  2.126311E+06  1.230633E+05  1.754723E+04
        86  23  6.023309E+04  8.339656E+03 -2.451377E+04  5.495753E+05 -3.608444E+03  9.389384E+03
        86  24  1.633198E+05 -1.395820E+05 -3.326717E+04  2.126048E+06 -1.298148E+05  1.170252E+03
        86  25  1.130610E+06  3.767287E+06  8.915878E+05  2.246846E+06  1.258774E+05  7.839938E+04
        86  26  2.688141E+04 -1.248920E+05 -5.661331E+04  5.447006E+05 -8.458308E+02  6.976333E+04
        86  27 -8.773455E+05 -4.297852E+06 -1.036205E+06  1.996424E+06 -1.270545E+05  6.115047E+04
        87   1  2.660904E+06  9.867727E+06  2.367885E+06  2.471023E+06  2.970620E+05  1.682366E+05
        87   2  3.467460E+06  1.391574E+07  3.271710E+06  8.943479E+05  4.377633E+05 -8.356779E+03
        87   3  4.484953E+06  1.804420E+07  4.333506E+06  2.469012E+06  1.560192E+05 -1.721368E+05
        87   4  1.845710E+05 -9.087372E+04 -2.026251E+04  2.124872E+06  2.895983E+05 -6.813740E+03
        87   5  2.435086E+03 -1.140380E+05 -7.273165E+04  5.498005E+05  4.394636E+05  2.244190E+04
        87   6 -5.306606E+03 -1.104719E+05 -1.083657E+05  2.130702E+06  1.626614E+05  6.576327E+04
        87   7 -2.298736E+06 -9.959424E+06 -2.415332E+06  1.783104E+06  2.822650E+05 -1.790981E+05
        87   8 -3.476556E+06 -1.396578E+07 -3.431002E+06  2.113673E+05  4.411530E+05  5.255057E+04
        87   9 -4.519623E+06 -1.797029E+07 -4.574133E+06  1.799674E+06  1.691565E+05  2.968423E+05
        87  10  2.660802E+06  9.867674E+06  2.367668E+06  2.470983E+06  1.914945E-08 -3.165206E-08
        87  11  3.467255E+06  1.391569E+07  3.271350E+06  8.943509E+05  2.562952E-09 -1.728787E-08
        87  12  4.484919E+06  1.804417E+07  4.333406E+06  2.469033E+06  1.909352E-09  1.704980E-10
        87  13  1.844809E+05 -9.089628E+04 -2.042018E+04  2.124873E+06  3.572112E-08 -3.492628E-10
        87  14  2.227574E+03 -1.140903E+05 -7.309547E+04  5.497926E+05 -5.843058E-09 -1.764432E-08
        87  15 -5.336123E+03 -1.104836E+05 -1.084234E+05  2.130693E+06  1.442191E-08  2.069393E-08
        87  16 -2.298831E+06 -9.959481E+06 -2.415543E+06  1.783145E+06  1.635832E-08 -2.136240E-09
        87  17 -3.476766E+06 -1.396584E+07 -3.431373E+06  2.113485E+05  1.135538E-08  2.627025E-10
        87  18 -4.519678E+06 -1.797039E+07 -4.574356E+06  1.799634E+06 -1.621823E-08  7.477566E-09
        87  19  2.660904E+06  9.867727E+06  2.367885E+06  2.471023E+06 -2.970620E+05 -1.682366E+05
        87  20  3.467460E+06  1.391574E+07  3.271710E+06  8.943479E+05 -4.377633E+05  8.356779E+03
        87  21  4.484953E+06  1.804420E+07  4.333506E+06  2.469012E+06 -1.560192E+05  1.721368E+05
        87  22  1.845710E+05 -9.087372E+04 -2.026251E+04  2.124872E+06 -2.895983E+05  6.813740E+03
        87  23  2.435086E+03 -1.140380E+05 -7.273165E+04  5.498005E+05 -4.394636E+05 -2.244190E+04
        87  24 -5.306606E+03 -1.104719E+05 -1.083657E+05  2.130702E+06 -1.626614E+05 -6.576327E+04
        87  25 -2.298736E+06 -9.959424E+06 -2.415332E+06  1.783104E+06 -2.822650E+05  1.790981E+05
        87  26 -3.476556E+06 -1.396578E+07 -3.431002E+06  2.113673E+05 -4.411530E+05 -5.255057E+04
        87  27 -4.519623E+06 -1.797029E+07 -4.574133E+06  1.799674E+06 -1.691565E+05 -2.968423E+05
        88   1  1.776799E+07  4.035696E+06  4.090549E+06  1.238342E+06  3.144518E+05 -1.517089E+05
        88   2  1.492544E+07  3.239073E+06  3.243017E+06  2.828281E+05  1.057873E+05 -4.176259E+05
        88   3  1.243310E+07  2.651328E+06  2.630976E+06  1.381205E+06 -9.843800E+04 -3.214675E+05
        88   4  1.621258E+06  5.218666E+04  1.452738E+05  1.379493E+06  9.253643E+04 -1.487258E+05
        88   5  1.471111E+06 -6.672065E+04  4.202167E+04  3.501554E+05  6.272440E+04 -4.179100E+05
        88   6  1.633397E+06 -6.244962E+03  5.374049E+04  1.377792E+06  3.649278E+04 -3.215330E+05
        88   7 -1.429245E+07 -3.950378E+06 -3.818819E+06  1.517646E+06 -1.237658E+05 -1.458087E+05
        88   8 -1.181991E+07 -3.385468E+06 -3.171628E+06  4.162848E+05  2.056147E+04 -4.182096E+05
        88   9 -9.060870E+06 -2.672188E+06 -2.531622E+06  1.374271E+06  1.691176E+05 -3.216002E+05
        88  10  1.776788E+07  4.035645E+06  4.090325E+06  1.238380E+06  2.826697E-09 -3.873890E-09
        88  11  1.492538E+07  3.238883E+06  3.242668E+06  2.828633E+05 -1.054090E-08  1.072202E-10
        88  12  1.243306E+07  2.651214E+06  2.630764E+06  1.381180E+06  6.895314E-09 -5.292210E-09
        88  13  1.621243E+06  5.216056E+04  1.452160E+05  1.379504E+06 -8.644477E-11 -2.312455E-09
        88  14  1.471060E+06 -6.690940E+04  4.168577E+04  3.501765E+05  1.764568E-08  7.183624E-09
        88  15  1.633368E+06 -6.356456E+03  5.354344E+04  1.377801E+06 -2.149908E-08 -1.713782E-09
        88  16 -1.429247E+07 -3.950405E+06 -3.818888E+06  1.517632E+06 -1.876570E-08 -7.401261E-10
        88  17 -1.181996E+07 -3.385657E+06 -3.171958E+06  4.162919E+05 -2.496000E-08 -1.016511E-09
        88  18 -9.060929E+06 -2.672307E+06 -2.531872E+06  1.374315E+06  1.954483E-08  1.343539E-09
        88  19  1.776799E+07  4.035696E+06  4.090549E+06  1.238342E+06 -3.144518E+05  1.517089E+05
        88  20  1.492544E+07  3.239073E+06  3.243017E+06  2.828281E+05 -1.057873E+05  4.176259E+05
        88  21  1.243310E+07  2.651328E+06  2.630976E+06  1.381205E+06  9.843800E+04  3.214675E+05
        88  22  1.621258E+06  5.218666E+04  1.452738E+05  1.379493E+06 -9.253643E+04  1.487258E+05
        88  23  1.471111E+06 -6.672065E+04  4.202167E+04  3.501554E+05 -6.272440E+04  4.179100E+05
        88  24  1.633397E+06 -6.244962E+03  5.374049E+04  1.377792E+06 -3.649278E+04  3.215330E+05
        88  25 -1.429245E+07 -3.950378E+06 -3.818819E+06  1.517646E+06  1.237658E+05  1.458087E+05
        88  26 -1.181991E+07 -3.385468E+06 -3.171628E+06  4.162848E+05 -2.056147E+04  4.182096E+05
        88  27 -9.060870E+06 -2.672188E+06 -2.531622E+06  1.374271E+06 -1.691176E+05  3.216002E+05
        89   1  8.656472E+06  1.746154E+06  1.726777E+06  1.393818E+06 -2.468194E+03 -2.084975E+05
        89   2  6.069101E+06  1.109482E+06  1.096362E+06  3.839692E+05 -2.643474E+04 -1.356542E+05
        89   3  3.491862E+06  4.991868E+05  4.857098E+05  1.387209E+06 -5.135759E+04 -3.674801E+04
        89   4  1.582994E+06  1.264879E+03  3.415201E+04  1.368690E+06  2.641011E+04 -2.084943E+05
        89   5  1.584088E+06  1.498392E+03  2.239839E+04  3.616171E+05  1.513021E+04 -1.354082E+05
        89   6  1.586941E+06  2.632047E+04  2.212397E+04  1.368547E+06  2.793853E+03 -3.615492E+04
        89   7 -5.445118E+06 -1.747232E+06 -1.662000E+06  1.343738E+06  5.496292E+04 -2.084936E+05
        89   8 -2.882636E+06 -1.107937E+06 -1.052979E+06  3.393871E+05  5.639809E+04 -1.351642E+05
        89   9 -3.146798E+05 -4.468102E+05 -4.417137E+05  1.349929E+06  5.678029E+04 -3.556402E+04
        89  10  8.656460E+06  1.746107E+06  1.726695E+06  1.393818E+06 -9.773310E-09 -1.360538E-10
        89  11  6.069095E+06  1.109462E+06  1.096326E+06  3.839663E+05  2.343403E-08  1.117044E-08
        89  12  3.491859E+06  4.991847E+05  4.857024E+05  1.387207E+06 -8.432598E-10 -4.822000E-09
        89  13  1.582982E+06  1.217961E+03  3.406890E+04  1.368694E+06  8.324424E-11  1.274171E-09
        89  14  1.584083E+06  1.478626E+03  2.236348E+04  3.616188E+05  7.850273E-09  8.258462E-10
        89  15  1.586941E+06  2.631906E+04  2.212149E+04  1.368547E+06  3.182934E-08 -7.305974E-09
        89  16 -5.445133E+06 -1.747280E+06 -1.662088E+06  1.343747E+06 -8.651464E-09  3.238642E-09
        89  17 -2.882644E+06 -1.107957E+06 -1.053020E+06  3.393932E+05  1.976439E-09 -1.079259E-08
        89  18 -3.146836E+05 -4.468124E+05 -4.417222E+05  1.349931E+06  1.717019E-08  1.212165E-09
        89  19  8.656472E+06  1.746154E+06  1.726777E+06  1.393818E+06  2.468194E+03  2.084975E+05
        89  20  6.069101E+06  1.109482E+06  1.096362E+06  3.839692E+05  2.643474E+04  1.356542E+05
        89  21  3.491862E+06  4.991868E+05  4.857098E+05  1.387209E+06  5.135759E+04  3.674801E+04
        89  22  1.582994E+06  1.264879E+03  3.415201E+04  1.368690E+06 -2.641011E+04  2.084943E+05
        89  23  1.584088E+06  1.498392E+03  2.239839E+04  3.616171E+05 -1.513021E+04  1.354082E+05
        89  24  1.586941E+06  2.632047E+04  2.212397E+04  1.368547E+06 -2.793853E+03  3.615492E+04
        89  25 -5.445118E+06 -1.747232E+06 -1.662000E+06  1.343738E+06 -5.496292E+04  2.084936E+05
        89  26 -2.882636E+06 -1.107937E+06 -1.052979E+06  3.393871E+05 -5.639809E+04  1.351642E+05
        89  27 -3.146798E+05 -4.468102E+05 -4.417137E+05  1.349929E+06 -5.678029E+04  3.556402E+04
        90   1 -1.564503E+05 -4.076242E+05 -4.036540E+05  1.351103E+06 -5.665955E+04  3.079337E+04
        90   2 -2.723000E+06 -1.068012E+06 -1.014382E+06  3.398358E+05 -5.651599E+04  1.303539E+05
        90   3 -5.286304E+06 -1.706137E+06 -1.623088E+06  1.342971E+06 -5.534891E+04  2.039171E+05
        90   4  1.586603E+06  2.612996E+04  2.201341E+04  1.368447E+06 -2.745044E+03  3.138649E+04
        90   5  1.584951E+06  1.889254E+03  2.266167E+04  3.617443E+05 -1.519013E+04  1.306081E+05
        90   6  1.582797E+06  2.637320E+03  3.447311E+04  1.368582E+06 -2.660914E+04  2.039323E+05
        90   7  3.332429E+06  4.596622E+05  4.474706E+05  1.385829E+06  5.132049E+04  3.198166E+04
        90   8  5.909911E+06  1.070441E+06  1.058390E+06  3.837690E+05  2.642258E+04  1.308644E+05
        90   9  8.495229E+06  1.707966E+06  1.688666E+06  1.394373E+06  2.450746E+03  2.039499E+05
        90  10 -1.564540E+05 -4.076261E+05 -4.036619E+05  1.351105E+06 -1.852788E-08  6.512015E-09
        90  11 -2.723008E+06 -1.068031E+06 -1.014420E+06  3.398417E+05  1.485680E-08  4.605068E-09
        90  12 -5.286319E+06 -1.706183E+06 -1.623173E+06  1.342981E+06  1.764130E-08 -1.522786E-08
        90  13  1.586603E+06  2.612889E+04  2.201154E+04  1.368447E+06  5.665038E-11 -8.544266E-10
        90  14  1.584946E+06  1.870859E+03  2.262916E+04  3.617459E+05 -3.496381E-08  2.465691E-09
        90  15  1.582785E+06  2.592422E+03  3.439352E+04  1.368587E+06 -2.354920E-08 -7.106194E-09
        90  16  3.332426E+06  4.596604E+05  4.474638E+05  1.385828E+06  4.580191E-09 -2.751583E-09
        90  17  5.909906E+06  1.070422E+06  1.058357E+06  3.837662E+05 -5.055418E-11 -5.886816E-09
        90  18  8.495217E+06  1.707921E+06  1.688588E+06  1.394372E+06 -1.118760E-08 -7.977762E-09
        90  19 -1.564503E+05 -4.076242E+05 -4.036540E+05  1.351103E+06  5.665955E+04 -3.079337E+04
        90  20 -2.723000E+06 -1.068012E+06 -1.014382E+06  3.398358E+05  5.651599E+04 -1.303539E+05
        90  21 -5.286304E+06 -1.706137E+06 -1.623088E+06  1.342971E+06  5.534891E+04 -2.039171E+05
        90  22  1.586603E+06  2.612996E+04  2.201341E+04  1.368447E+06  2.745044E+03 -3.138649E+04
        90  23  1.584951E+06  1.889254E+03  2.266167E+04  3.617443E+05  1.519013E+04 -1.306081E+05
        90  24  1.582797E+06  2.637320E+03  3.447311E+04  1.368582E+06  2.660914E+04 -2.039323E+05
        90  25  3.332429E+06  4.596622E+05  4.474706E+05  1.385829E+06 -5.132049E+04 -3.198166E+04
        90  26  5.909911E+06  1.070441E+06  1.058390E+06  3.837690E+05 -2.642258E+04 -1.308644E+05
        90  27  8.495229E+06  1.707966E+06  1.688666E+06  1.394373E+06 -2.450746E+03 -2.039499E+05
        91   1 -8.901647E+06 -2.631039E+06 -2.492589E+06  1.372121E+06 -1.685618E+05  3.164736E+05
        91   2 -1.165599E+07 -3.343594E+06 -3.131165E+06  4.117672E+05 -2.215056E+04  4.131435E+05
        91   3 -1.413047E+07 -3.906209E+06 -3.776657E+06  1.509533E+06  1.202467E+05  1.442788E+05
        91   4  1.632487E+06 -5.255582E+03  5.388423E+04  1.377533E+06 -3.672016E+04  3.164539E+05
        91   5  1.473791E+06 -6.551415E+04  4.314315E+04  3.504798E+05 -6.349922E+04  4.128365E+05
        91   6  1.620501E+06  5.484581E+04  1.465025E+05  1.379195E+06 -9.365504E+04  1.470606E+05
        91   7  1.226891E+07  2.612407E+06  2.592473E+06  1.382866E+06  9.737906E+04  3.164362E+05
        91   8  1.476291E+07  3.199926E+06  3.205104E+06  2.880951E+05 -1.057194E+05  4.125440E+05
        91   9  1.759973E+07  3.997233E+06  4.051230E+06  1.246057E+06 -3.130494E+05  1.499038E+05
        91  10 -8.901705E+06 -2.631155E+06 -2.492832E+06  1.372164E+06  1.622700E-08 -9.025370E-09
        91  11 -1.165603E+07 -3.343778E+06 -3.131487E+06  4.117746E+05  2.109883E-08  1.600376E-08
        91  12 -1.413050E+07 -3.906236E+06 -3.776723E+06  1.509519E+06  1.735246E-08  1.347584E-08
        91  13  1.632459E+06 -5.363598E+03  5.369325E+04  1.377542E+06  1.669612E-08 -8.988185E-09
        91  14  1.473740E+06 -6.569840E+04  4.281499E+04  3.505010E+05 -1.582845E-08 -2.527584E-09
        91  15  1.620486E+06  5.482017E+04  1.464452E+05  1.379206E+06  2.204148E-08 -6.787547E-09
        91  16  1.226887E+07  2.612297E+06  2.592268E+06  1.382841E+06 -1.491266E-08 -5.166721E-09
        91  17  1.476285E+07  3.199740E+06  3.204763E+06  2.881299E+05  9.983789E-10 -6.447367E-09
        91  18  1.759962E+07  3.997183E+06  4.051008E+06  1.246095E+06  5.135190E-10 -1.584211E-08
        91  19 -8.901647E+06 -2.631039E+06 -2.492589E+06  1.372121E+06  1.685618E+05 -3.164736E+05
        91  20 -1.165599E+07 -3.343594E+06 -3.131165E+06  4.117672E+05  2.215056E+04 -4.131435E+05
        91  21 -1.413047E+07 -3.906209E+06 -3.776657E+06  1.509533E+06 -1.202467E+05 -1.442788E+05
        91  22  1.632487E+06 -5.255582E+03  5.388423E+04  1.377533E+06  3.672016E+04 -3.164539E+05
        91  23  1.473791E+06 -6.551415E+04  4.314315E+04  3.504798E+05  6.349922E+04 -4.128365E+05
        91  24  1.620501E+06  5.484581E+04  1.465025E+05  1.379195E+06  9.365504E+04 -1.470606E+05
        91  25  1.226891E+07  2.612407E+06  2.592473E+06  1.382866E+06 -9.737906E+04 -3.164362E+05
        91  26  1.476291E+07  3.199926E+06  3.205104E+06  2.880951E+05  1.057194E+05 -4.125440E+05
        91  27  1.759973E+07  3.997233E+06  4.051230E+06  1.246057E+06  3.130494E+05 -1.499038E+05
        92   1 -4.581355E+06 -1.798844E+07 -4.653456E+06  1.839408E+06 -1.705092E+05 -3.489591E+05
        92   2 -3.459906E+06 -1.393255E+07 -3.456631E+06  2.229282E+05 -4.416189E+05 -8.725832E+04
        92   3 -2.278120E+06 -9.898714E+06 -2.418287E+06  1.798015E+06 -2.808048E+05  1.618916E+05
        92   4 -6.461464E+04 -1.150626E+05 -1.843031E+05  2.152697E+06 -1.640251E+05 -1.187724E+05
        92   5  1.198770E+04 -1.067432E+05 -1.048137E+05  5.551174E+05 -4.399621E+05 -5.806099E+04
        92   6  1.895516E+05 -9.526834E+04 -3.882589E+04  2.145068E+06 -2.881814E+05 -1.146060E+04
        92   7  4.428011E+06  1.805361E+07  4.260918E+06  2.472744E+06 -1.574081E+05  1.182328E+05
        92   8  3.469962E+06  1.389643E+07  3.233228E+06  8.932704E+05 -4.382954E+05 -2.818839E+04
        92   9  2.650352E+06  9.797041E+06  2.333807E+06  2.496569E+06 -2.956924E+05 -1.875755E+05
        92  10 -4.581420E+06 -1.798858E+07 -4.653746E+06  1.839360E+06 -4.963569E-10 -1.385217E-08
        92  11 -3.460118E+06 -1.393261E+07 -3.457012E+06  2.228969E+05 -3.681258E-10  4.437638E-08
        92  12 -2.278212E+06 -9.898764E+06 -2.418486E+06  1.798052E+06  1.834835E-08  5.651282E-09
        92  13 -6.464722E+04 -1.150848E+05 -1.843799E+05  2.152682E+06 -2.210888E-09  1.502977E-10
        92  14  1.177896E+04 -1.067987E+05 -1.051836E+05  5.550969E+05 -1.049459E-09  3.672064E-08
        92  15  1.894625E+05 -9.529075E+04 -3.898210E+04  2.145066E+06 -2.034076E-08 -2.922121E-09
        92  16  4.427981E+06  1.805359E+07  4.260846E+06  2.472759E+06  2.537797E-10  2.094127E-08
        92  17  3.469756E+06  1.389637E+07  3.232865E+06  8.932607E+05 -1.820252E-08  8.987067E-09
        92  18  2.650249E+06  9.796980E+06  2.333579E+06  2.496525E+06  1.938608E-08 -3.383267E-09
        92  19 -4.581355E+06 -1.798844E+07 -4.653456E+06  1.839408E+06  1.705092E+05  3.489591E+05
        92  20 -3.459906E+06 -1.393255E+07 -3.456631E+06  2.229282E+05  4.416189E+05  8.725832E+04
        92  21 -2.278120E+06 -9.898714E+06 -2.418287E+06  1.798015E+06  2.808048E+05 -1.618916E+05
        92  22 -6.461464E+04 -1.150626E+05 -1.843031E+05  2.152697E+06  1.640251E+05  1.187724E+05
        92  23  1.198770E+04 -1.067432E+05 -1.048137E+05  5.551174E+05  4.399621E+05  5.806099E+04
        92  24  1.895516E+05 -9.526834E+04 -3.882589E+04  2.145068E+06  2.881814E+05  1.146060E+04
        92  25  4.428011E+06  1.805361E+07  4.260918E+06  2.472744E+06  1.574081E+05 -1.182328E+05
        92  26  3.469962E+06  1.389643E+07  3.233228E+06  8.932704E+05  4.382954E+05  2.818839E+04
        92  27  2.650352E+06  9.797041E+06  2.333807E+06  2.496569E+06  2.956924E+05  1.875755E+05
        93   1 -8.518954E+05 -4.177511E+06 -1.020927E+06  2.023130E+06 -1.243884E+05  4.647960E+04
        93   2  6.767851E+04  3.608191E+04 -2.158551E+04  5.560052E+05  3.375189E+03  5.651428E+04
        93   3  1.183795E+06  3.966524E+06  9.442105E+05  2.273293E+06  1.310876E+05  6.665662E+04
        93   4  1.583455E+05 -1.394464E+05 -4.721841E+04  2.146882E+06 -1.271888E+05 -1.439200E+04
        93   5  6.106198E+04  9.707000E+03 -2.794887E+04  5.549094E+05  5.967486E+02 -4.451781E+03
        93   6  1.615017E+05 -1.394782E+05 -4.106745E+04  2.146736E+06  1.282808E+05  5.501023E+03
        93   7  1.167418E+06  3.913623E+06  9.253377E+05  2.271247E+06 -1.300040E+05 -7.566029E+04
        93   8  5.444741E+04 -1.665928E+04 -3.429829E+04  5.538140E+05 -2.181537E+03 -6.541526E+04
        93   9 -8.619901E+05 -4.230082E+06 -1.027528E+06  2.020812E+06  1.254890E+05 -5.525331E+04
        93  10 -8.519127E+05 -4.177518E+06 -1.020960E+06  2.023135E+06  1.135482E-08 -1.904344E-08
        93  11  6.767764E+04  3.607847E+04 -2.159153E+04  5.560050E+05  1.983219E-08  6.346403E-08
        93  12  1.183775E+06  3.966515E+06  9.441701E+05  2.273286E+06 -1.011445E-08 -1.371323E-09
        93  13  1.583281E+05 -1.394510E+05 -4.724916E+04  2.146880E+06 -4.546677E-09  6.417070E-12
        93  14  6.106197E+04  9.706978E+03 -2.794891E+04  5.549095E+05 -2.080685E-08  4.810706E-08
        93  15  1.614840E+05 -1.394827E+05 -4.109841E+04  2.146735E+06 -2.252776E-08 -2.610141E-09
        93  16  1.167399E+06  3.913613E+06  9.252955E+05  2.271239E+06  1.570787E-08  2.969240E-08
        93  17  5.444626E+04 -1.666388E+04 -3.430634E+04  5.538139E+05 -8.245793E-09  8.584123E-09
        93  18 -8.620079E+05 -4.230090E+06 -1.027564E+06  2.020817E+06  2.736405E-08  3.368129E-09
        93  19 -8.518954E+05 -4.177511E+06 -1.020927E+06  2.023130E+06  1.243884E+05 -4.647960E+04
        93  20  6.767851E+04  3.608191E+04 -2.158551E+04  5.560052E+05 -3.375189E+03 -5.651428E+04
        93  21  1.183795E+06  3.966524E+06  9.442105E+05  2.273293E+06 -1.310876E+05 -6.665662E+04
        93  22  1.583455E+05 -1.394464E+05 -4.721841E+04  2.146882E+06  1.271888E+05  1.439200E+04
        93  23  6.106198E+04  9.707000E+03 -2.794887E+04  5.549094E+05 -5.967486E+02  4.451781E+03
        93  24  1.615017E+05 -1.394782E+05 -4.106745E+04  2.146736E+06 -1.282808E+05 -5.501023E+03
        93  25  1.167418E+06  3.913623E+06  9.253377E+05  2.271247E+06  1.300040E+05  7.566029E+04
        93  26  5.444741E+04 -1.665928E+04 -3.429829E+04  5.538140E+05  2.181537E+03  6.541526E+04
        93  27 -8.619901E+05 -4.230082E+06 -1.027528E+06  2.020812E+06 -1.254890E+05  5.525331E+04
        94   1  2.660916E+06  9.853186E+06  2.355263E+06  2.494187E+06  2.968744E+05  1.775687E+05
        94   2  3.478128E+06  1.394583E+07  3.261884E+06  8.964139E+05  4.392395E+05  8.818943E+03
        94   3  4.471680E+06  1.810932E+07  4.312691E+06  2.480885E+06  1.571781E+05 -1.470456E+05
        94   4  1.874043E+05 -9.255298E+04 -2.996510E+04  2.145266E+06  2.893698E+05  1.281479E+03
        94   5  6.908990E+03 -1.106636E+05 -8.879930E+04  5.551284E+05  4.409241E+05  3.917288E+04
        94   6 -3.437214E+04 -1.123971E+05 -1.453797E+05  2.151968E+06  1.638001E+05  9.115912E+04
        94   7 -2.293059E+06 -9.948472E+06 -2.422096E+06  1.800770E+06  2.819981E+05 -1.722246E+05
        94   8 -3.478333E+06 -1.398845E+07 -3.453364E+06  2.198969E+05  4.425983E+05  6.884205E+04
        94   9 -4.564670E+06 -1.803710E+07 -4.627521E+06  1.830085E+06  1.702819E+05  3.225008E+05
        94  10  2.660813E+06  9.853129E+06  2.355040E+06  2.494145E+06  4.533244E-09 -1.985308E-08
        94  11  3.477921E+06  1.394578E+07  3.261522E+06  8.964109E+05  1.060101E-08  4.692000E-08
        94  12  4.471648E+06  1.810929E+07  4.312604E+06  2.480904E+06  3.736733E-09  2.232476E-09
        94  13  1.873144E+05 -9.257545E+04 -3.012240E+04  2.145266E+06  1.607849E-08 -3.060172E-10
        94  14  6.699827E+03 -1.107174E+05 -8.916744E+04  5.551145E+05 -1.495157E-08  3.590329E-08
        94  15 -3.440311E+04 -1.124131E+05 -1.454455E+05  2.151956E+06  1.025140E-09 -1.249309E-09
        94  16 -2.293153E+06 -9.948526E+06 -2.422303E+06  1.800809E+06  1.430836E-08  2.986354E-08
        94  17 -3.478545E+06 -1.398851E+07 -3.453741E+06  2.198721E+05 -2.440704E-09  6.697989E-09
        94  18 -4.564730E+06 -1.803722E+07 -4.627776E+06  1.830040E+06 -1.623812E-08 -4.505781E-10
        94  19  2.660916E+06  9.853186E+06  2.355263E+06  2.494187E+06 -2.968744E+05 -1.775687E+05
        94  20  3.478128E+06  1.394583E+07  3.261884E+06  8.964139E+05 -4.392395E+05 -8.818943E+03
        94  21  4.471680E+06  1.810932E+07  4.312691E+06  2.480885E+06 -1.571781E+05  1.470456E+05
        94  22  1.874043E+05 -9.255298E+04 -2.996510E+04  2.145266E+06 -2.893698E+05 -1.281479E+03
        94  23  6.908990E+03 -1.106636E+05 -8.879930E+04  5.551284E+05 -4.409241E+05 -3.917288E+04
        94  24 -3.437214E+04 -1.123971E+05 -1.453797E+05  2.151968E+06 -1.638001E+05 -9.115912E+04
        94  25 -2.293059E+06 -9.948472E+06 -2.422096E+06  1.800770E+06 -2.819981E+05  1.722246E+05
        94  26 -3.478333E+06 -1.398845E+07 -3.453364E+06  2.198969E+05 -4.425983E+05 -6.884205E+04
        94  27 -4.564670E+06 -1.803710E+07 -4.627521E+06  1.830085E+06 -1.702819E+05 -3.225008E+05
        95   1  1.743811E+07  3.978427E+06  4.021660E+06  1.232231E+06  2.818478E+05 -1.502462E+05
        95   2  1.461200E+07  3.224560E+06  3.201989E+06  2.860322E+05  8.572715E+04 -4.148675E+05
        95   3  1.211826E+07  2.635046E+06  2.597837E+06  1.387667E+06 -1.062025E+05 -3.190373E+05
        95   4  1.387970E+06  1.723323E+04  9.865802E+04  1.377574E+06  6.169777E+04 -1.473895E+05
        95   5  1.246739E+06 -6.029787E+04  2.122903E+04  3.515206E+05  4.329196E+04 -4.151677E+05
        95   6  1.399977E+06 -3.331939E+03  3.917945E+04  1.376385E+06  2.827114E+04 -3.190444E+05
        95   7 -1.443182E+07 -3.962800E+06 -3.842951E+06  1.519798E+06 -1.529067E+05 -1.446029E+05
        95   8 -1.195730E+07 -3.357946E+06 -3.172027E+06  4.158378E+05  1.741586E+03 -4.154829E+05
        95   9 -9.214415E+06 -2.649961E+06 -2.527489E+06  1.365122E+06  1.604639E+05 -3.190560E+05
        95  10  1.743802E+07  3.978382E+06  4.021472E+06  1.232264E+06 -5.917742E-09 -3.300674E-10
        95  11  1.461194E+07  3.224373E+06  3.201652E+06  2.860606E+05 -2.706582E-09 -9.196387E-09
        95  12  1.211823E+07  2.634934E+06  2.597625E+06  1.387640E+06 -7.752358E-09 -6.423319E-09
        95  13  1.387960E+06  1.720884E+04  9.860993E+04  1.377581E+06 -4.529197E-10  1.471233E-08
        95  14  1.246691E+06 -6.048359E+04  2.090135E+04  3.515351E+05  6.683536E-10  3.317412E-09
        95  15  1.399948E+06 -3.441557E+03  3.898644E+04  1.376392E+06 -5.835002E-09  3.647439E-09
        95  16 -1.443185E+07 -3.962829E+06 -3.843035E+06  1.519780E+06 -1.230305E-08 -4.434058E-09
        95  17 -1.195735E+07 -3.358132E+06 -3.172351E+06  4.158385E+05  3.488011E-09  5.462357E-10
        95  18 -9.214470E+06 -2.650077E+06 -2.527730E+06  1.365163E+06 -3.609583E-09  2.122145E-09
        95  19  1.743811E+07  3.978427E+06  4.021660E+06  1.232231E+06 -2.818478E+05  1.502462E+05
        95  20  1.461200E+07  3.224560E+06  3.201989E+06  2.860322E+05 -8.572715E+04  4.148675E+05
        95  21  1.211826E+07  2.635046E+06  2.597837E+06  1.387667E+06  1.062025E+05  3.190373E+05
        95  22  1.387970E+06  1.723323E+04  9.865802E+04  1.377574E+06 -6.169777E+04  1.473895E+05
        95  23  1.246739E+06 -6.029787E+04  2.122903E+04  3.515206E+05 -4.329196E+04  4.151677E+05
        95  24  1.399977E+06 -3.331939E+03  3.917945E+04  1.376385E+06 -2.827114E+04  3.190444E+05
        95  25 -1.443182E+07 -3.962800E+06 -3.842951E+06  1.519798E+06  1.529067E+05  1.446029E+05
        95  26 -1.195730E+07 -3.357946E+06 -3.172027E+06  4.158378E+05 -1.741586E+03  4.154829E+05
        95  27 -9.214415E+06 -2.649961E+06 -2.527489E+06  1.365122E+06 -1.604639E+05  3.190560E+05
        96   1  8.344990E+06  1.724163E+06  1.695229E+06  1.394568E+06 -8.510431E+03 -2.063227E+05
        96   2  5.757516E+06  1.090487E+06  1.067521E+06  3.835215E+05 -2.772302E+04 -1.332210E+05
        96   3  3.175576E+06  4.776847E+05  4.545844E+05  1.388062E+06 -4.790468E+04 -3.411428E+04
        96   4  1.352391E+06 -1.297202E+03  2.147620E+04  1.369058E+06  2.052934E+04 -2.063046E+05
        96   5  1.355720E+06  2.721064E+03  1.316536E+04  3.607378E+05  1.392834E+04 -1.329586E+05
        96   6  1.356269E+06  2.583188E+04  1.137962E+04  1.368903E+06  6.277791E+03 -3.350517E+04
        96   7 -5.595854E+06 -1.730285E+06 -1.655726E+06  1.343724E+06  4.924571E+04 -2.062889E+05
        96   8 -3.028450E+06 -1.086444E+06 -1.042553E+06  3.380762E+05  5.528742E+04 -1.326983E+05
        96   9 -4.600260E+05 -4.262621E+05 -4.320543E+05  1.349788E+06  6.030249E+04 -3.289836E+04
        96  10  8.344979E+06  1.724117E+06  1.695149E+06  1.394567E+06 -1.318096E-08 -8.857172E-09
        96  11  5.757510E+06  1.090467E+06  1.067486E+06  3.835185E+05 -4.299688E-09 -2.275186E-09
        96  12  3.175573E+06  4.776828E+05  4.545779E+05  1.388060E+06  1.570976E-08  1.784996E-10
        96  13  1.352379E+06 -1.343062E+03  2.139533E+04  1.369062E+06  1.774413E-08  7.382308E-09
        96  14  1.355716E+06  2.702016E+03  1.313175E+04  3.607392E+05  3.442242E-08  1.061111E-08
        96  15  1.356269E+06  2.583066E+04  1.137743E+04  1.368903E+06 -4.659474E-09 -4.104019E-09
        96  16 -5.595868E+06 -1.730332E+06 -1.655811E+06  1.343732E+06  2.059549E-08 -1.569113E-09
        96  17 -3.028458E+06 -1.086463E+06 -1.042592E+06  3.380821E+05  5.447094E-09  8.346527E-09
        96  18 -4.600302E+05 -4.262642E+05 -4.320632E+05  1.349790E+06  2.171519E-09  2.694898E-09
        96  19  8.344990E+06  1.724163E+06  1.695229E+06  1.394568E+06  8.510431E+03  2.063227E+05
        96  20  5.757516E+06  1.090487E+06  1.067521E+06  3.835215E+05  2.772302E+04  1.332210E+05
        96  21  3.175576E+06  4.776847E+05  4.545844E+05  1.388062E+06  4.790468E+04  3.411428E+04
        96  22  1.352391E+06 -1.297202E+03  2.147620E+04  1.369058E+06 -2.052934E+04  2.063046E+05
        96  23  1.355720E+06  2.721064E+03  1.316536E+04  3.607378E+05 -1.392834E+04  1.329586E+05
        96  24  1.356269E+06  2.583188E+04  1.137962E+04  1.368903E+06 -6.277791E+03  3.350517E+04
        96  25 -5.595854E+06 -1.730285E+06 -1.655726E+06  1.343724E+06 -4.924571E+04  2.062889E+05
        96  26 -3.028450E+06 -1.086444E+06 -1.042553E+06  3.380762E+05 -5.528742E+04  1.326983E+05
        96  27 -4.600260E+05 -4.262621E+05 -4.320543E+05  1.349788E+06 -6.030249E+04  3.289836E+04
        97   1 -4.795708E+05 -4.296950E+05 -4.380084E+05  1.348677E+06 -5.130752E+04  3.357353E+04
        97   2 -3.046759E+06 -1.090089E+06 -1.055253E+06  3.386137E+05 -4.212364E+04  1.333793E+05
        97   3 -5.615568E+06 -1.743390E+06 -1.680180E+06  1.345929E+06 -3.192626E+04  2.069520E+05
        97   4  1.355680E+06  2.713302E+04  9.995471E+03  1.368884E+06  2.735938E+03  3.418015E+04
        97   5  1.356406E+06  3.794158E+03  5.054575E+03  3.607393E+05 -7.213711E+02  1.336387E+05
        97   6  1.351795E+06 -9.647516E+03  1.672649E+03  1.369101E+06 -3.125309E+03  2.069664E+05
        97   7  3.194006E+06  4.837149E+05  4.577652E+05  1.389139E+06  5.693884E+04  3.478926E+04
        97   8  5.777349E+06  1.096266E+06  1.063987E+06  3.829836E+05  4.097448E+04  1.339001E+05
        97   9  8.363756E+06  1.720547E+06  1.680057E+06  1.392425E+06  2.600001E+04  2.069831E+05
        97  10 -4.795739E+05 -4.296969E+05 -4.380155E+05  1.348678E+06  2.980264E-08  1.367428E-08
        97  11 -3.046765E+06 -1.090108E+06 -1.055289E+06  3.386182E+05 -3.721453E-09 -1.842016E-09
        97  12 -5.615581E+06 -1.743437E+06 -1.680262E+06  1.345934E+06 -5.119833E-10 -4.922584E-09
        97  13  1.355680E+06  2.713177E+04  9.993261E+03  1.368884E+06  1.728827E-08 -1.849725E-09
        97  14  1.356402E+06  3.774968E+03  5.020991E+03  3.607394E+05 -9.132963E-09 -2.240196E-09
        97  15  1.351783E+06 -9.693548E+03  1.592076E+03  1.369101E+06 -6.720905E-09 -3.654361E-09
        97  16  3.194003E+06  4.837128E+05  4.577569E+05  1.389138E+06 -1.689089E-08 -6.143399E-09
        97  17  5.777343E+06  1.096246E+06  1.063950E+06  3.829792E+05 -1.712431E-08 -1.082850E-08
        97  18  8.363744E+06  1.720501E+06  1.679975E+06  1.392421E+06  5.423598E-09  1.847444E-09
        97  19 -4.795708E+05 -4.296950E+05 -4.380084E+05  1.348677E+06  5.130752E+04 -3.357353E+04
        97  20 -3.046759E+06 -1.090089E+06 -1.055253E+06  3.386137E+05  4.212364E+04 -1.333793E+05
        97  21 -5.615568E+06 -1.743390E+06 -1.680180E+06  1.345929E+06  3.192626E+04 -2.069520E+05
        97  22  1.355680E+06  2.713302E+04  9.995471E+03  1.368884E+06 -2.735938E+03 -3.418015E+04
        97  23  1.356406E+06  3.794158E+03  5.054575E+03  3.607393E+05  7.213711E+02 -1.336387E+05
        97  24  1.351795E+06 -9.647516E+03  1.672649E+03  1.369101E+06  3.125309E+03 -2.069664E+05
        97  25  3.194006E+06  4.837149E+05  4.577652E+05  1.389139E+06 -5.693884E+04 -3.478926E+04
        97  26  5.777349E+06  1.096266E+06  1.063987E+06  3.829836E+05 -4.097448E+04 -1.339001E+05
        97  27  8.363756E+06  1.720547E+06  1.680057E+06  1.392425E+06 -2.600001E+04 -2.069831E+05
        98   1 -9.239861E+06 -2.651212E+06 -2.557273E+06  1.355811E+06 -1.395215E+05  3.197672E+05
        98   2 -1.196945E+07 -3.351691E+06 -3.217842E+06  4.228189E+05  4.137744E+04  4.158645E+05
        98   3 -1.445671E+07 -4.043897E+06 -3.943085E+06  1.542230E+06  2.180734E+05  1.438838E+05
        98   4  1.394239E+06  4.235753E+02  1.423279E+04  1.376464E+06 -7.026876E+03  3.197478E+05
        98   5  1.253743E+06 -4.915022E+04 -1.988168E+04  3.515031E+05  1.850864E+02  4.155466E+05
        98   6  1.382260E+06 -5.800631E+04  3.663047E+03  1.376693E+06  3.989620E+03  1.466689E+05
        98   7  1.213262E+07  2.643778E+06  2.577698E+06  1.397300E+06  1.277556E+05  3.197369E+05
        98   8  1.463862E+07  3.240565E+06  3.165546E+06  2.788649E+05 -4.189367E+04  4.152447E+05
        98   9  1.745213E+07  3.909012E+06  3.931755E+06  1.207430E+06 -2.156507E+05  1.495405E+05
        98  10 -9.239909E+06 -2.651328E+06 -2.557503E+06  1.355847E+06 -2.451102E-09 -4.389467E-09
        98  11 -1.196950E+07 -3.351878E+06 -3.218171E+06  4.228049E+05 -1.815109E-08 -2.077632E-09
        98  12 -1.445676E+07 -4.043932E+06 -3.943215E+06  1.542205E+06 -9.031427E-09 -7.485685E-09
        98  13  1.394212E+06  3.136972E+02  1.404042E+04  1.376466E+06 -8.315763E-10 -5.027258E-09
        98  14  1.253697E+06 -4.933577E+04 -2.020640E+04  3.515031E+05  9.724759E-09 -6.458053E-09
        98  15  1.382254E+06 -5.802943E+04  3.622568E+03  1.376692E+06 -1.072561E-08  3.566394E-09
        98  16  1.213258E+07  2.643664E+06  2.577476E+06  1.397267E+06  1.311259E-08 -9.087204E-12
        98  17  1.463857E+07  3.240380E+06  3.165219E+06  2.788788E+05 -1.016864E-08 -5.518979E-09
        98  18  1.745207E+07  3.908976E+06  3.931627E+06  1.207456E+06  7.815309E-09 -1.635148E-08
        98  19 -9.239861E+06 -2.651212E+06 -2.557273E+06  1.355811E+06  1.395215E+05 -3.197672E+05
        98  20 -1.196945E+07 -3.351691E+06 -3.217842E+06  4.228189E+05 -4.137744E+04 -4.158645E+05
        98  21 -1.445671E+07 -4.043897E+06 -3.943085E+06  1.542230E+06 -2.180734E+05 -1.438838E+05
        98  22  1.394239E+06  4.235753E+02  1.423279E+04  1.376464E+06  7.026876E+03 -3.197478E+05
        98  23  1.253743E+06 -4.915022E+04 -1.988168E+04  3.515031E+05 -1.850864E+02 -4.155466E+05
        98  24  1.382260E+06 -5.800631E+04  3.663047E+03  1.376693E+06 -3.989620E+03 -1.466689E+05
        98  25  1.213262E+07  2.643778E+06  2.577698E+06  1.397300E+06 -1.277556E+05 -3.197369E+05
        98  26  1.463862E+07  3.240565E+06  3.165546E+06  2.788649E+05  4.189367E+04 -4.152447E+05
        98  27  1.745213E+07  3.909012E+06  3.931755E+06  1.207430E+06  2.156507E+05 -1.495405E+05
        99   1 -4.664198E+06 -1.825894E+07 -4.727616E+06  1.881452E+06 -1.737897E+05 -3.316546E+05
        99   2 -3.549988E+06 -1.412173E+07 -3.525515E+06  2.322730E+05 -4.517217E+05 -7.211543E+04
        99   3 -2.336760E+06 -9.988022E+06 -2.469176E+06  1.846537E+06 -2.875542E+05  1.746564E+05
        99   4 -3.904333E+04  4.095225E+04 -1.514215E+05  2.206007E+06 -1.672266E+05 -9.563765E+04
        99   5  6.549256E+03  4.035895E+04 -9.202949E+04  5.729198E+05 -4.500056E+05 -4.194136E+04
        99   6  1.924525E+05  6.164319E+04 -3.014044E+04  2.199034E+06 -2.950991E+05 -2.586802E+03
        99   7  4.560837E+06  1.865044E+07  4.399686E+06  2.537778E+06 -1.605201E+05  1.475310E+05
        99   8  3.548483E+06  1.438856E+07  3.327003E+06  9.198399E+05 -4.482793E+05 -1.105583E+04
        99   9  2.714440E+06  1.020469E+07  2.401720E+06  2.556146E+06 -3.027829E+05 -1.827268E+05
        99  10 -4.664261E+06 -1.825907E+07 -4.727885E+06  1.881405E+06  1.812603E-08  1.195902E-08
        99  11 -3.550209E+06 -1.412179E+07 -3.525909E+06  2.322465E+05  4.723526E-08  1.444507E-08
        99  12 -2.336858E+06 -9.988077E+06 -2.469390E+06  1.846578E+06 -2.529627E-08 -2.416993E-09
        99  13 -3.907573E+04  4.093501E+04 -1.514910E+05  2.205994E+06  3.747922E-08  2.418972E-08
        99  14  6.331331E+03  4.030272E+04 -9.241328E+04  5.729046E+05  3.579348E-08 -5.503019E-10
        99  15  1.923590E+05  6.161982E+04 -3.030405E+04  2.199034E+06 -2.835136E-08 -1.037166E-08
        99  16  4.560803E+06  1.865041E+07  4.399597E+06  2.537796E+06  1.659339E-08 -4.417689E-08
        99  17  3.548268E+06  1.438850E+07  3.326625E+06  9.198360E+05  1.718504E-08  1.037983E-08
        99  18  2.714333E+06  1.020463E+07  2.401487E+06  2.556102E+06  1.152941E-08 -3.526171E-08
        99  19 -4.664198E+06 -1.825894E+07 -4.727616E+06  1.881452E+06  1.737897E+05  3.316546E+05
        99  20 -3.549988E+06 -1.412173E+07 -3.525515E+06  2.322730E+05  4.517217E+05  7.211543E+04
        99  21 -2.336760E+06 -9.988022E+06 -2.469176E+06  1.846537E+06  2.875542E+05 -1.746564E+05
        99  22 -3.904333E+04  4.095225E+04 -1.514215E+05  2.206007E+06  1.672266E+05  9.563765E+04
        99  23  6.549256E+03  4.035895E+04 -9.202949E+04  5.729198E+05  4.500056E+05  4.194136E+04
        99  24  1.924525E+05  6.164319E+04 -3.014044E+04  2.199034E+06  2.950991E+05  2.586802E+03
        99  25  4.560837E+06  1.865044E+07  4.399686E+06  2.537778E+06  1.605201E+05 -1.475310E+05
        99  26  3.548483E+06  1.438856E+07  3.327003E+06  9.198399E+05  4.482793E+05  1.105583E+04
        99  27  2.714440E+06  1.020469E+07  2.401720E+06  2.556146E+06  3.027829E+05  1.827268E+05
       100   1 -8.758729E+05 -4.147834E+06 -1.044616E+06  2.071280E+06 -1.277059E+05  5.500225E+04
       100   2  6.037825E+04  1.559447E+05 -2.894183E+04  5.734235E+05  2.654565E+03  6.439727E+04
       100   3  1.198461E+06  4.170671E+06  9.531322E+05  2.327931E+06  1.331059E+05  7.388090E+04
       100   4  1.650750E+05  1.298091E+04 -4.136030E+04  2.199664E+06 -1.305679E+05 -7.079860E+03
       100   5  6.276251E+04  1.654376E+05 -2.665986E+04  5.738460E+05 -1.906534E+02  2.130851E+03
       100   6  1.635185E+05  1.299102E+04 -4.431937E+04  2.199736E+06  1.302251E+05  1.133688E+04
       100   7  1.204783E+06  4.189724E+06  9.606722E+05  2.328705E+06 -1.334455E+05 -6.957896E+04
       100   8  6.514886E+04  1.749388E+05 -2.436329E+04  5.742687E+05 -3.035935E+03 -6.013651E+04
       100   9 -8.726521E+05 -4.128906E+06 -1.042983E+06  2.072190E+06  1.273598E+05 -5.079182E+04
       100  10 -8.758912E+05 -4.147841E+06 -1.044652E+06  2.071285E+06 -2.037429E-08  3.725672E-08
       100  11  6.037713E+04  1.559402E+05 -2.894963E+04  5.734234E+05  1.149366E-08  3.967266E-08
       100  12  1.198440E+06  4.170661E+06  9.530889E+05  2.327923E+06  7.311785E-09  1.162858E-08
       100  13  1.650567E+05  1.297629E+04 -4.139241E+04  2.199663E+06 -3.891106E-08  4.822476E-08
       100  14  6.276251E+04  1.654376E+05 -2.665987E+04  5.738460E+05 -8.295430E-09  3.797370E-10
       100  15  1.635002E+05  1.298633E+04 -4.435145E+04  2.199735E+06  8.233508E-09 -1.158525E-08
       100  16  1.204763E+06  4.189714E+06  9.606299E+05  2.328697E+06 -5.250758E-09 -9.389391E-08
       100  17  6.514788E+04  1.749350E+05 -2.437010E+04  5.742686E+05  5.142891E-10 -3.195640E-09
       100  18 -8.726702E+05 -4.128913E+06 -1.043018E+06  2.072195E+06  3.518807E-08 -5.167256E-08
       100  19 -8.758729E+05 -4.147834E+06 -1.044616E+06  2.071280E+06  1.277059E+05 -5.500225E+04
       100  20  6.037825E+04  1.559447E+05 -2.894183E+04  5.734235E+05 -2.654565E+03 -6.439727E+04
       100  21  1.198461E+06  4.170671E+06  9.531322E+05  2.327931E+06 -1.331059E+05 -7.388090E+04
       100  22  1.650750E+05  1.298091E+04 -4.136030E+04  2.199664E+06  1.305679E+05  7.079860E+03
       100  23  6.276251E+04  1.654376E+05 -2.665986E+04  5.738460E+05  1.906534E+02 -2.130851E+03
       100  24  1.635185E+05  1.299102E+04 -4.431937E+04  2.199736E+06 -1.302251E+05 -1.133688E+04
       100  25  1.204783E+06  4.189724E+06  9.606722E+05  2.328705E+06  1.334455E+05  6.957896E+04
       100  26  6.514886E+04  1.749388E+05 -2.436329E+04  5.742687E+05  3.035935E+03  6.013651E+04
       100  27 -8.726521E+05 -4.128906E+06 -1.042983E+06  2.072190E+06 -1.273598E+05  5.079182E+04
       101   1  2.710912E+06  1.018415E+07  2.392945E+06  2.557454E+06  3.024137E+05  1.875504E+05
       101   2  3.546068E+06  1.437111E+07  3.314733E+06  9.183934E+05  4.480188E+05  2.032185E+04
       101   3  4.541363E+06  1.863014E+07  4.376381E+06  2.533814E+06  1.606888E+05 -1.337842E+05
       101   4  1.934551E+05  6.037680E+04 -3.438675E+04  2.198938E+06  2.947268E+05  7.460985E+03
       101   5  8.933222E+03  4.213382E+04 -9.974135E+04  5.729177E+05  4.497379E+05  5.100664E+04
       101   6 -5.363554E+04  3.970319E+04 -1.701088E+05  2.206351E+06  1.673925E+05  1.089011E+05
       101   7 -2.331197E+06 -9.970368E+06 -2.468865E+06  1.845053E+06  2.871796E+05 -1.697383E+05
       101   8 -3.542767E+06 -1.410124E+07 -3.528631E+06  2.336747E+05  4.514469E+05  8.098357E+04
       101   9 -4.673862E+06 -1.824176E+07 -4.741635E+06  1.885969E+06  1.739563E+05  3.444514E+05
       101  10  2.710805E+06  1.018409E+07  2.392709E+06  2.557408E+06  8.042351E-09  9.083843E-09
       101  11  3.545853E+06  1.437106E+07  3.314355E+06  9.183862E+05  1.805229E-08  2.260300E-08
       101  12  4.541331E+06  1.863011E+07  4.376299E+06  2.533832E+06  8.162783E-09 -4.591683E-09
       101  13  1.933619E+05  6.035344E+04 -3.455001E+04  2.198937E+06  1.167613E-08  4.368293E-08
       101  14  8.715334E+03  4.207675E+04 -1.001262E+05  5.728993E+05  2.889707E-08 -5.017709E-10
       101  15 -5.366872E+04  3.968304E+04 -1.701834E+05  2.206336E+06  2.230968E-08 -6.351697E-09
       101  16 -2.331294E+06 -9.970422E+06 -2.469076E+06  1.845092E+06  1.992110E-08 -6.440944E-08
       101  17 -3.542988E+06 -1.410130E+07 -3.529026E+06  2.336450E+05  1.607777E-08  2.774476E-09
       101  18 -4.673927E+06 -1.824190E+07 -4.741921E+06  1.885921E+06 -5.772243E-09 -1.523894E-08
       101  19  2.710912E+06  1.018415E+07  2.392945E+06  2.557454E+06 -3.024137E+05 -1.875504E+05
       101  20  3.546068E+06  1.437111E+07  3.314733E+06  9.183934E+05 -4.480188E+05 -2.032185E+04
       101  21  4.541363E+06  1.863014E+07  4.376381E+06  2.533814E+06 -1.606888E+05  1.337842E+05
       101  22  1.934551E+05  6.037680E+04 -3.438675E+04  2.198938E+06 -2.947268E+05 -7.460985E+03
       101  23  8.933222E+03  4.213382E+04 -9.974135E+04  5.729177E+05 -4.497379E+05 -5.100664E+04
       101  24 -5.363554E+04  3.970319E+04 -1.701088E+05  2.206351E+06 -1.673925E+05 -1.089011E+05
       101  25 -2.331197E+06 -9.970368E+06 -2.468865E+06  1.845053E+06 -2.871796E+05  1.697383E+05
       101  26 -3.542767E+06 -1.410124E+07 -3.528631E+06  2.336747E+05 -4.514469E+05 -8.098357E+04
       101  27 -4.673862E+06 -1.824176E+07 -4.741635E+06  1.885969E+06 -1.739563E+05 -3.444514E+05
       102   1  1.637774E+07  3.681029E+06  3.686580E+06  1.118709E+06  1.576610E+05 -1.423838E+05
       102   2  1.373515E+07  3.112718E+06  3.001460E+06  2.537028E+05  8.268658E+03 -3.973901E+05
       102   3  1.135918E+07  2.540365E+06  2.456920E+06  1.320328E+06 -1.371385E+05 -3.072214E+05
       102   4  1.037937E+06 -1.096172E+05 -6.625748E+04  1.300149E+06 -5.166382E+04 -1.395790E+05
       102   5  9.283449E+05 -3.729134E+04 -4.860015E+04  3.331708E+05 -3.198269E+04 -3.976334E+05
       102   6  1.048749E+06  7.656781E+02 -5.930902E+03  1.300703E+06 -8.875697E+03 -3.073445E+05
       102   7 -1.409121E+07 -3.917474E+06 -3.836122E+06  1.477734E+06 -2.559152E+05 -1.368650E+05
       102   8 -1.173027E+07 -3.199055E+06 -3.110150E+06  4.112465E+05 -7.141654E+04 -3.978923E+05
       102   9 -9.165451E+06 -2.546477E+06 -2.476205E+06  1.281268E+06  1.172963E+05 -3.074763E+05
       102  10  1.637771E+07  3.681001E+06  3.686496E+06  1.118726E+06 -1.538840E-08  1.668887E-08
       102  11  1.373510E+07  3.112548E+06  3.001163E+06  2.537055E+05  7.103763E-09  6.619188E-09
       102  12  1.135914E+07  2.540259E+06  2.456708E+06  1.320294E+06  3.843324E-08  1.388116E-09
       102  13  1.037929E+06 -1.096388E+05 -6.629906E+04  1.300143E+06  1.758735E-08 -1.154951E-08
       102  14  9.283013E+05 -3.746148E+04 -4.889931E+04  3.331605E+05  1.026055E-08  2.992774E-09
       102  15  1.048723E+06  6.641811E+02 -6.108621E+03  1.300701E+06  1.907085E-09 -2.790868E-09
       102  16 -1.409129E+07 -3.917512E+06 -3.836283E+06  1.477706E+06 -2.387548E-09 -1.337185E-08
       102  17 -1.173032E+07 -3.199227E+06 -3.110457E+06  4.112235E+05  3.682321E-09  2.735440E-10
       102  18 -9.165492E+06 -2.546583E+06 -2.476410E+06  1.281298E+06 -2.043567E-08  4.273859E-09
       102  19  1.637774E+07  3.681029E+06  3.686580E+06  1.118709E+06 -1.576610E+05  1.423838E+05
       102  20  1.373515E+07  3.112718E+06  3.001460E+06  2.537028E+05 -8.268658E+03  3.973901E+05
       102  21  1.135918E+07  2.540365E+06  2.456920E+06  1.320328E+06  1.371385E+05  3.072214E+05
       102  22  1.037937E+06 -1.096172E+05 -6.625748E+04  1.300149E+06  5.166382E+04  1.395790E+05
       102  23  9.283449E+05 -3.729134E+04 -4.860015E+04  3.331708E+05  3.198269E+04  3.976334E+05
       102  24  1.048749E+06  7.656781E+02 -5.930902E+03  1.300703E+06  8.875697E+03  3.073445E+05
       102  25 -1.409121E+07 -3.917474E+06 -3.836122E+06  1.477734E+06  2.559152E+05  1.368650E+05
       102  26 -1.173027E+07 -3.199055E+06 -3.110150E+06  4.112465E+05  7.141654E+04  3.978923E+05
       102  27 -9.165451E+06 -2.546477E+06 -2.476205E+06  1.281268E+06 -1.172963E+05  3.074763E+05
       103   1  7.794879E+06  1.656860E+06  1.610199E+06  1.311797E+06 -3.692786E+04 -2.001567E+05
       103   2  5.340499E+06  1.072312E+06  1.033171E+06  3.570474E+05 -4.726453E+04 -1.309830E+05
       103   3  2.890837E+06  4.888145E+05  4.616165E+05  1.314901E+06 -5.851622E+04 -3.684157E+04
       103   4  1.013871E+06 -1.715315E+04 -1.378094E+04  1.295940E+06 -9.396423E+03 -2.001695E+05
       103   5  1.017177E+06  3.557245E+03 -2.827990E+03  3.391102E+05 -7.721114E+03 -1.307790E+05
       103   6  1.017477E+06  2.350905E+04  5.610553E+03  1.295737E+06 -7.003183E+03 -3.632520E+04
       103   7 -5.725395E+06 -1.694488E+06 -1.641009E+06  1.280166E+06  1.783884E+04 -2.001840E+05
       103   8 -3.289133E+06 -1.066548E+06 -1.040143E+06  3.212652E+05  3.155002E+04 -1.305767E+05
       103   9 -8.526880E+05 -4.420522E+05 -4.506399E+05  1.276620E+06  4.435540E+04 -3.581109E+04
       103  10  7.794867E+06  1.656817E+06  1.610122E+06  1.311791E+06  4.046418E-08 -6.667262E-09
       103  11  5.340492E+06  1.072293E+06  1.033134E+06  3.570424E+05  2.609753E-08  1.104289E-08
       103  12  2.890833E+06  4.888121E+05  4.616076E+05  1.314899E+06  9.468294E-09  3.984869E-09
       103  13  1.013860E+06 -1.719622E+04 -1.385642E+04  1.295939E+06  1.755706E-08 -3.275391E-09
       103  14  1.017172E+06  3.538855E+03 -2.860254E+03  3.391094E+05  8.514483E-09  9.922987E-09
       103  15  1.017476E+06  2.350762E+04  5.607983E+03  1.295737E+06  3.831390E-08 -3.840293E-09
       103  16 -5.725406E+06 -1.694531E+06 -1.641085E+06  1.280169E+06 -1.538739E-08 -1.219078E-09
       103  17 -3.289139E+06 -1.066567E+06 -1.040177E+06  3.212685E+05 -2.106162E-08  3.619487E-09
       103  18 -8.526905E+05 -4.420541E+05 -4.506460E+05  1.276621E+06 -5.885270E-09  6.203815E-09
       103  19  7.794879E+06  1.656860E+06  1.610199E+06  1.311797E+06  3.692786E+04  2.001567E+05
       103  20  5.340499E+06  1.072312E+06  1.033171E+06  3.570474E+05  4.726453E+04  1.309830E+05
       103  21  2.890837E+06  4.888145E+05  4.616165E+05  1.314901E+06  5.851622E+04  3.684157E+04
       103  22  1.013871E+06 -1.715315E+04 -1.378094E+04  1.295940E+06  9.396423E+03  2.001695E+05
       103  23  1.017177E+06  3.557245E+03 -2.827990E+03  3.391102E+05  7.721114E+03  1.307790E+05
       103  24  1.017477E+06  2.350905E+04  5.610553E+03  1.295737E+06  7.003183E+03  3.632520E+04
       103  25 -5.725395E+06 -1.694488E+06 -1.641009E+06  1.280166E+06 -1.783884E+04  2.001840E+05
       103  26 -3.289133E+06 -1.066548E+06 -1.040143E+06  3.212652E+05 -3.155002E+04  1.305767E+05
       103  27 -8.526880E+05 -4.420522E+05 -4.506399E+05  1.276620E+06 -4.435540E+04  3.581109E+04
       104   1 -5.795496E+05 -3.769858E+05 -3.825802E+05  1.280293E+06 -6.087613E+04  2.743492E+04
       104   2 -3.016612E+06 -1.000115E+06 -9.588763E+05  3.207658E+05 -5.616151E+04  1.221467E+05
       104   3 -5.451767E+06 -1.608922E+06 -1.537552E+06  1.274967E+06 -5.055940E+04  1.921612E+05
       104   4  1.018093E+06  2.082756E+04  8.024428E+03  1.295667E+06 -9.657378E+03  2.795261E+04
       104   5  1.017123E+06  2.116133E+03  1.260067E+04  3.392351E+05 -1.687655E+04  1.223652E+05
       104   6  1.014703E+06  2.784007E+02  2.343569E+04  1.295767E+06 -2.318803E+04  1.921696E+05
       104   7  2.618067E+06  4.184542E+05  3.984527E+05  1.311073E+06  4.169299E+04  2.847206E+04
       104   8  5.065781E+06  1.003163E+06  9.829237E+05  3.577958E+05  2.266389E+04  1.225854E+05
       104   9  7.519596E+06  1.606422E+06  1.581435E+06  1.316698E+06  4.470285E+03  1.921800E+05
       104  10 -5.795538E+05 -3.769876E+05 -3.825886E+05  1.280294E+06  2.005757E-08 -5.213561E-09
       104  11 -3.016619E+06 -1.000132E+06 -9.589103E+05  3.207713E+05  6.948834E-09 -1.289897E-08
       104  12 -5.451779E+06 -1.608963E+06 -1.537627E+06  1.274975E+06 -2.531371E-08 -1.441104E-09
       104  13  1.018093E+06  2.082670E+04  8.022781E+03  1.295668E+06  3.409894E-08 -4.272997E-09
       104  14  1.017118E+06  2.099969E+03  1.257198E+04  3.392368E+05  3.378136E-08  2.298607E-09
       104  15  1.014693E+06  2.385683E+02  2.336521E+04  1.295770E+06 -3.091214E-08 -6.913063E-09
       104  16  2.618065E+06  4.184529E+05  3.984480E+05  1.311072E+06 -4.549600E-09  1.992639E-09
       104  17  5.065776E+06  1.003146E+06  9.828945E+05  3.577936E+05  2.822122E-08 -5.622604E-09
       104  18  7.519586E+06  1.606382E+06  1.581366E+06  1.316698E+06  6.965428E-10  3.508414E-09
       104  19 -5.795496E+05 -3.769858E+05 -3.825802E+05  1.280293E+06  6.087613E+04 -2.743492E+04
       104  20 -3.016612E+06 -1.000115E+06 -9.588763E+05  3.207658E+05  5.616151E+04 -1.221467E+05
       104  21 -5.451767E+06 -1.608922E+06 -1.537552E+06  1.274967E+06  5.055940E+04 -1.921612E+05
       104  22  1.018093E+06  2.082756E+04  8.024428E+03  1.295667E+06  9.657378E+03 -2.795261E+04
       104  23  1.017123E+06  2.116133E+03  1.260067E+04  3.392351E+05  1.687655E+04 -1.223652E+05
       104  24  1.014703E+06  2.784007E+02  2.343569E+04  1.295767E+06  2.318803E+04 -1.921696E+05
       104  25  2.618067E+06  4.184542E+05  3.984527E+05  1.311073E+06 -4.169299E+04 -2.847206E+04
       104  26  5.065781E+06  1.003163E+06  9.829237E+05  3.577958E+05 -2.266389E+04 -1.225854E+05
       104  27  7.519596E+06  1.606422E+06  1.581435E+06  1.316698E+06 -4.470285E+03 -1.921800E+05
       105   1 -8.881432E+06 -2.483110E+06 -2.362907E+06  1.295642E+06 -1.553657E+05  2.985794E+05
       105   2 -1.146516E+07 -3.148757E+06 -2.965267E+06  3.916010E+05 -1.096172E+04  3.897388E+05
       105   3 -1.380584E+07 -3.701967E+06 -3.588105E+06  1.424914E+06  1.297565E+05  1.359736E+05
       105   4  1.058142E+06 -4.815154E+03  4.059034E+04  1.300397E+06 -3.087721E+04  2.985292E+05
       105   5  9.190718E+05 -5.631067E+04  2.929193E+04  3.333844E+05 -4.981125E+04  3.894744E+05
       105   6  1.047515E+06  3.377682E+04  1.118427E+05  1.301631E+06 -7.184073E+04  1.385006E+05
       105   7  1.108882E+07  2.466243E+06  2.437062E+06  1.305090E+06  9.562216E+04  2.984810E+05
       105   8  1.344510E+07  3.024882E+06  3.012858E+06  2.741809E+05 -8.943526E+04  3.892225E+05
       105   9  1.610388E+07  3.752909E+06  3.795388E+06  1.175835E+06 -2.783232E+05  1.410833E+05
       105  10 -8.881482E+06 -2.483213E+06 -2.363121E+06  1.295679E+06 -1.604191E-08  3.333198E-09
       105  11 -1.146520E+07 -3.148920E+06 -2.965553E+06  3.916045E+05  9.705306E-09  1.911451E-08
       105  12 -1.380587E+07 -3.701992E+06 -3.588172E+06  1.424900E+06  9.429330E-09  1.941804E-08
       105  13  1.058117E+06 -4.911184E+03  4.042090E+04  1.300404E+06  1.721305E-08  7.039719E-09
       105  14  9.190284E+05 -5.647431E+04  2.900203E+04  3.334000E+05 -1.615927E-08  1.834328E-08
       105  15  1.047505E+06  3.375480E+04  1.117968E+05  1.301639E+06  2.660674E-08 -1.184068E-08
       105  16  1.108879E+07  2.466145E+06  2.436878E+06  1.305068E+06 -3.219896E-09  1.192492E-08
       105  17  1.344505E+07  3.024717E+06  3.012558E+06  2.742087E+05 -1.325050E-08  1.757572E-08
       105  18  1.610380E+07  3.752868E+06  3.795208E+06  1.175866E+06 -2.321077E-09 -2.764565E-09
       105  19 -8.881432E+06 -2.483110E+06 -2.362907E+06  1.295642E+06  1.553657E+05 -2.985794E+05
       105  20 -1.146516E+07 -3.148757E+06 -2.965267E+06  3.916010E+05  1.096172E+04 -3.897388E+05
       105  21 -1.380584E+07 -3.701967E+06 -3.588105E+06  1.424914E+06 -1.297565E+05 -1.359736E+05
       105  22  1.058142E+06 -4.815154E+03  4.059034E+04  1.300397E+06  3.087721E+04 -2.985292E+05
       105  23  9.190718E+05 -5.631067E+04  2.929193E+04  3.333844E+05  4.981125E+04 -3.894744E+05
       105  24  1.047515E+06  3.377682E+04  1.118427E+05  1.301631E+06  7.184073E+04 -1.385006E+05
       105  25  1.108882E+07  2.466243E+06  2.437062E+06  1.305090E+06 -9.562216E+04 -2.984810E+05
       105  26  1.344510E+07  3.024882E+06  3.012858E+06  2.741809E+05  8.943526E+04 -3.892225E+05
       105  27  1.610388E+07  3.752909E+06  3.795388E+06  1.175835E+06  2.783232E+05 -1.410833E+05
       106   1 -4.589499E+06 -1.724798E+07 -4.618376E+06  1.917483E+06 -1.727693E+05 -2.251137E+05
       106   2 -3.605897E+06 -1.305311E+07 -3.487763E+06  2.682840E+05 -4.538015E+05 -1.513594E+03
       106   3 -2.351573E+06 -8.813851E+06 -2.435903E+06  1.943616E+06 -2.881582E+05  2.088345E+05
       106   4  9.398339E+04  1.296322E+06  1.340857E+04  2.288310E+06 -1.660598E+05  1.533864E+04
       106   5 -1.166297E+04  1.272704E+06 -1.889682E+04  6.266405E+05 -4.520356E+05  2.962258E+04
       106   6  1.932069E+05  1.317507E+06  1.918743E+04  2.284963E+06 -2.958665E+05  2.931556E+04
       106   7  4.751644E+06  2.015795E+07  4.619505E+06  2.667782E+06 -1.591711E+05  2.631218E+05
       106   8  3.567690E+06  1.578857E+07  3.435224E+06  9.917107E+05 -4.502581E+05  6.148448E+04
       106   9  2.730647E+06  1.154356E+07  2.467013E+06  2.630745E+06 -3.037076E+05 -1.531596E+05
       106  10 -4.589545E+06 -1.724804E+07 -4.618529E+06  1.917451E+06 -3.690635E-09  4.592311E-09
       106  11 -3.606119E+06 -1.305316E+07 -3.488151E+06  2.682835E+05 -3.715080E-09 -9.951303E-09
       106  12 -2.351674E+06 -8.813921E+06 -2.436143E+06  1.943665E+06 -2.034513E-08  7.967912E-08
       106  13  9.395368E+04  1.296314E+06  1.335624E+04  2.288312E+06 -9.510647E-09  2.449000E-08
       106  14 -1.188279E+04  1.272648E+06 -1.928276E+04  6.266513E+05  1.651372E-08 -3.641619E-08
       106  15  1.931126E+05  1.317482E+06  1.902111E+04  2.284971E+06 -7.847945E-09  1.668669E-08
       106  16  4.751599E+06  2.015787E+07  4.619331E+06  2.667816E+06  9.451275E-09  2.095354E-08
       106  17  3.567472E+06  1.578851E+07  3.434836E+06  9.917329E+05  2.063056E-08 -6.257436E-08
       106  18  2.730542E+06  1.154352E+07  2.466797E+06  2.630708E+06  5.446837E-09 -4.380959E-08
       106  19 -4.589499E+06 -1.724798E+07 -4.618376E+06  1.917483E+06  1.727693E+05  2.251137E+05
       106  20 -3.605897E+06 -1.305311E+07 -3.487763E+06  2.682840E+05  4.538015E+05  1.513594E+03
       106  21 -2.351573E+06 -8.813851E+06 -2.435903E+06  1.943616E+06  2.881582E+05 -2.088345E+05
       106  22  9.398339E+04  1.296322E+06  1.340857E+04  2.288310E+06  1.660598E+05 -1.533864E+04
       106  23 -1.166297E+04  1.272704E+06 -1.889682E+04  6.266405E+05  4.520356E+05 -2.962258E+04
       106  24  1.932069E+05  1.317507E+06  1.918743E+04  2.284963E+06  2.958665E+05 -2.931556E+04
       106  25  4.751644E+06  2.015795E+07  4.619505E+06  2.667782E+06  1.591711E+05 -2.631218E+05
       106  26  3.567690E+06  1.578857E+07  3.435224E+06  9.917107E+05  4.502581E+05 -6.148448E+04
       106  27  2.730647E+06  1.154356E+07  2.467013E+06  2.630745E+06  3.037076E+05  1.531596E+05
       107   1 -8.596783E+05 -2.916501E+06 -1.005239E+06  2.142674E+06 -1.267933E+05  7.936956E+04
       107   2  6.755615E+04  1.428227E+06  4.843884E+03  6.365114E+05  3.975176E+03  7.477679E+04
       107   3  1.226027E+06  5.487726E+06  9.965953E+05  2.412735E+06  1.347812E+05  7.019124E+04
       107   4  1.843331E+05  1.259769E+06  4.617855E+02  2.277165E+06 -1.297024E+05  1.674006E+04
       107   5  6.319335E+04  1.410458E+06  5.747667E+02  6.365424E+05  1.083353E+03  1.191624E+04
       107   6  1.745293E+05  1.259732E+06 -1.642311E+04  2.277612E+06  1.318565E+05  7.098795E+03
       107   7  1.227102E+06  5.452052E+06  1.004934E+06  2.412352E+06 -1.326284E+05 -4.631133E+04
       107   8  5.883265E+04  1.392698E+06 -3.679525E+03  6.365737E+05 -1.808519E+03 -5.094251E+04
       107   9 -8.782325E+05 -2.951975E+06 -1.030691E+06  2.143189E+06  1.289485E+05 -5.556833E+04
       107  10 -8.596973E+05 -2.916512E+06 -1.005281E+06  2.142682E+06 -2.411053E-08  8.592601E-08
       107  11  6.755464E+04  1.428221E+06  4.833372E+03  6.365111E+05 -3.169904E-09  6.941345E-09
       107  12  1.226006E+06  5.487716E+06  9.965521E+05  2.412727E+06  2.375602E-09  8.288727E-08
       107  13  1.843150E+05  1.259764E+06  4.295984E+02  2.277167E+06 -2.282994E-08  4.726201E-08
       107  14  6.319331E+04  1.410458E+06  5.744983E+02  6.365424E+05 -8.341219E-09 -4.834162E-08
       107  15  1.745106E+05  1.259728E+06 -1.645587E+04  2.277612E+06  1.091346E-08  1.749544E-08
       107  16  1.227083E+06  5.452045E+06  1.004897E+06  2.412347E+06 -3.888959E-09 -3.829945E-08
       107  17  5.883196E+04  1.392695E+06 -3.684397E+03  6.365736E+05 -1.167500E-08 -1.035810E-07
       107  18 -8.782512E+05 -2.951983E+06 -1.030728E+06  2.143195E+06 -9.330462E-09 -4.488466E-08
       107  19 -8.596783E+05 -2.916501E+06 -1.005239E+06  2.142674E+06  1.267933E+05 -7.936956E+04
       107  20  6.755615E+04  1.428227E+06  4.843884E+03  6.365114E+05 -3.975176E+03 -7.477679E+04
       107  21  1.226027E+06  5.487726E+06  9.965953E+05  2.412735E+06 -1.347812E+05 -7.019124E+04
       107  22  1.843331E+05  1.259769E+06  4.617855E+02  2.277165E+06  1.297024E+05 -1.674006E+04
       107  23  6.319335E+04  1.410458E+06  5.747667E+02  6.365424E+05 -1.083353E+03 -1.191624E+04
       107  24  1.745293E+05  1.259732E+06 -1.642311E+04  2.277612E+06 -1.318565E+05 -7.098795E+03
       107  25  1.227102E+06  5.452052E+06  1.004934E+06  2.412352E+06  1.326284E+05  4.631133E+04
       107  26  5.883265E+04  1.392698E+06 -3.679525E+03  6.365737E+05  1.808519E+03  5.094251E+04
       107  27 -8.782325E+05 -2.951975E+06 -1.030691E+06  2.143189E+06 -1.289485E+05  5.556833E+04
       108   1  2.745625E+06  1.157305E+07  2.451911E+06  2.641946E+06  3.061028E+05  1.809024E+05
       108   2  3.588145E+06  1.583285E+07  3.399594E+06  9.845444E+05  4.532075E+05 -9.810751E+03
       108   3  4.675285E+06  2.019066E+07  4.523024E+06  2.643860E+06  1.615726E+05 -1.873358E+05
       108   4  1.982366E+05  1.311311E+06 -4.634063E+03  2.284506E+06  2.982478E+05 -2.013766E+03
       108   5  5.092473E+02  1.280131E+06 -6.311361E+04  6.265534E+05  4.549739E+05  2.164706E+04
       108   6  9.635750E+03  1.290070E+06 -9.234624E+04  2.290358E+06  1.684224E+05  5.991071E+04
       108   7 -2.356529E+06 -8.855063E+06 -2.468496E+06  1.931702E+06  2.905324E+05 -1.819593E+05
       108   8 -3.602092E+06 -1.308158E+07 -3.540641E+06  2.751274E+05  4.567294E+05  5.237569E+04
       108   9 -4.681978E+06 -1.729191E+07 -4.733509E+06  1.944746E+06  1.751127E+05  2.998004E+05
       108  10  2.745517E+06  1.157299E+07  2.451676E+06  2.641902E+06  1.437991E-08  6.865941E-08
       108  11  3.587924E+06  1.583279E+07  3.399207E+06  9.845481E+05 -6.949442E-09 -2.454163E-09
       108  12  4.675248E+06  2.019062E+07  4.522911E+06  2.643884E+06 -1.778171E-08  1.322948E-08
       108  13  1.981410E+05  1.311287E+06 -4.801292E+03  2.284506E+06  3.099031E-10  4.419522E-08
       108  14  2.867048E+02  1.280075E+06 -6.350368E+04  6.265455E+05 -9.191846E-09 -3.524803E-08
       108  15  9.604366E+03  1.290059E+06 -9.240614E+04  2.290349E+06 -2.955938E-09  9.192147E-09
       108  16 -2.356629E+06 -8.855122E+06 -2.468719E+06  1.931745E+06 -1.903549E-08 -2.408365E-08
       108  17 -3.602317E+06 -1.308164E+07 -3.541038E+06  2.751079E+05 -1.304152E-09 -6.819686E-08
       108  18 -4.682036E+06 -1.729202E+07 -4.733739E+06  1.944703E+06 -4.170983E-09  7.211356E-09
       108  19  2.745625E+06  1.157305E+07  2.451911E+06  2.641946E+06 -3.061028E+05 -1.809024E+05
       108  20  3.588145E+06  1.583285E+07  3.399594E+06  9.845444E+05 -4.532075E+05  9.810751E+03
       108  21  4.675285E+06  2.019066E+07  4.523024E+06  2.643860E+06 -1.615726E+05  1.873358E+05
       108  22  1.982366E+05  1.311311E+06 -4.634063E+03  2.284506E+06 -2.982478E+05  2.013766E+03
       108  23  5.092473E+02  1.280131E+06 -6.311361E+04  6.265534E+05 -4.549739E+05 -2.164706E+04
       108  24  9.635750E+03  1.290070E+06 -9.234624E+04  2.290358E+06 -1.684224E+05 -5.991071E+04
       108  25 -2.356529E+06 -8.855063E+06 -2.468496E+06  1.931702E+06 -2.905324E+05  1.819593E+05
       108  26 -3.602092E+06 -1.308158E+07 -3.540641E+06  2.751274E+05 -4.567294E+05 -5.237569E+04
       108  27 -4.681978E+06 -1.729191E+07 -4.733509E+06  1.944746E+06 -1.751127E+05 -2.998004E+05
       109   1  1.812206E+07  4.264914E+06  4.297736E+06  1.466285E+06  2.511844E+05 -1.613690E+05
       109   2  1.482364E+07  3.459924E+06  3.394780E+06  3.641886E+05  5.530068E+04 -4.444755E+05
       109   3  1.187678E+07  2.768373E+06  2.700011E+06  1.665818E+06 -1.367825E+05 -3.316957E+05
       109   4  6.596866E+05 -4.488842E+04  2.929697E+04  1.624046E+06  1.406721E+04 -1.586587E+05
       109   5  5.135172E+05 -5.776521E+04 -1.151400E+04  4.199029E+05  1.312088E+04 -4.449452E+05
       109   6  6.747529E+05  9.153306E+03  2.373335E+04  1.623453E+06  1.503067E+04 -3.312791E+05
       109   7 -1.653004E+07 -4.377005E+06 -4.261188E+06  1.777978E+06 -2.165418E+05 -1.560367E+05
       109   8 -1.361172E+07 -3.590134E+06 -3.432148E+06  4.745040E+05 -2.811172E+04 -4.454315E+05
       109   9 -1.041370E+07 -2.759090E+06 -2.661299E+06  1.581557E+06  1.641536E+05 -3.308781E+05
       109  10  1.812199E+07  4.264869E+06  4.297571E+06  1.466318E+06  9.535866E-09  9.316832E-09
       109  11  1.482359E+07  3.459711E+06  3.394403E+06  3.642082E+05 -1.039735E-08 -1.425006E-08
       109  12  1.187673E+07  2.768250E+06  2.699771E+06  1.665782E+06 -2.350472E-08 -2.738789E-09
       109  13  6.596796E+05 -4.491552E+04  2.924924E+04  1.624048E+06  1.750666E-08 -3.430190E-08
       109  14  5.134638E+05 -5.797792E+04 -1.188651E+04  4.199076E+05 -3.324547E-08 -2.013701E-08
       109  15  6.747232E+05  9.035343E+03  2.352657E+04  1.623457E+06  2.176546E-09  2.278908E-10
       109  16 -1.653010E+07 -4.377044E+06 -4.261324E+06  1.777951E+06  1.489122E-09 -2.480748E-08
       109  17 -1.361177E+07 -3.590348E+06 -3.432522E+06  4.744938E+05  2.184400E-08 -7.755211E-09
       109  18 -1.041375E+07 -2.759216E+06 -2.661557E+06  1.581601E+06  5.017217E-09 -2.447293E-09
       109  19  1.812206E+07  4.264914E+06  4.297736E+06  1.466285E+06 -2.511844E+05  1.613690E+05
       109  20  1.482364E+07  3.459924E+06  3.394780E+06  3.641886E+05 -5.530068E+04  4.444755E+05
       109  21  1.187678E+07  2.768373E+06  2.700011E+06  1.665818E+06  1.367825E+05  3.316957E+05
       109  22  6.596866E+05 -4.488842E+04  2.929697E+04  1.624046E+06 -1.406721E+04  1.586587E+05
       109  23  5.135172E+05 -5.776521E+04 -1.151400E+04  4.199029E+05 -1.312088E+04  4.449452E+05
       109  24  6.747529E+05  9.153306E+03  2.373335E+04  1.623453E+06 -1.503067E+04  3.312791E+05
       109  25 -1.653004E+07 -4.377005E+06 -4.261188E+06  1.777978E+06  2.165418E+05  1.560367E+05
       109  26 -1.361172E+07 -3.590134E+06 -3.432148E+06  4.745040E+05  2.811172E+04  4.454315E+05
       109  27 -1.041370E+07 -2.759090E+06 -2.661299E+06  1.581557E+06 -1.641536E+05  3.308781E+05
       110   1  7.414638E+06  1.678530E+06  1.634089E+06  1.656430E+06 -2.740718E+04 -2.025528E+05
       110   2  4.353707E+06  9.280995E+05  9.001671E+05  4.472607E+05 -4.564719E+04 -1.131423E+05
       110   3  1.275853E+06  1.963415E+05  1.742426E+05  1.634141E+06 -6.491894E+04  4.712388E+03
       110   4  6.224150E+05  9.454284E+02  7.320701E+03  1.621272E+06  8.989262E+03 -2.023851E+05
       110   5  6.383876E+05  8.787475E+03  9.237162E+03  4.226916E+05  4.455879E+03 -1.126877E+05
       110   6  6.263129E+05  3.347251E+04  1.023557E+04  1.621038E+06 -1.199827E+03  5.558413E+03
       110   7 -6.127894E+06 -1.679973E+06 -1.622704E+06  1.586356E+06  4.499234E+04 -2.022205E+05
       110   8 -3.064349E+06 -9.115226E+05 -8.826612E+05  3.982343E+05  5.426185E+04 -1.122356E+05
       110   9 -2.283835E+04 -1.294261E+05 -1.537885E+05  1.607946E+06  6.245266E+04  6.402258E+03
       110  10  7.414626E+06  1.678485E+06  1.634010E+06  1.656426E+06 -4.549767E-09  1.497605E-08
       110  11  4.353701E+06  9.280852E+05  9.001391E+05  4.472566E+05 -1.306536E-08 -1.186440E-08
       110  12  1.275849E+06  1.963404E+05  1.742347E+05  1.634141E+06  1.871360E-08  6.452976E-10
       110  13  6.224039E+05  9.014028E+02  7.243532E+03  1.621274E+06 -4.347463E-11  7.483806E-09
       110  14  6.383841E+05  8.773830E+03  9.213253E+03  4.226920E+05  7.294367E-09  1.405181E-09
       110  15  6.263128E+05  3.347248E+04  1.023550E+04  1.621038E+06  1.858941E-09 -4.587589E-09
       110  16 -6.127907E+06 -1.680017E+06 -1.622785E+06  1.586364E+06  1.013251E-08 -3.767170E-09
       110  17 -3.064355E+06 -9.115369E+05 -8.826905E+05  3.982392E+05 -1.054503E-08  3.874845E-09
       110  18 -2.284255E+04 -1.294272E+05 -1.537959E+05  1.607946E+06 -1.142504E-08  9.499842E-09
       110  19  7.414638E+06  1.678530E+06  1.634089E+06  1.656430E+06  2.740718E+04  2.025528E+05
       110  20  4.353707E+06  9.280995E+05  9.001671E+05  4.472607E+05  4.564719E+04  1.131423E+05
       110  21  1.275853E+06  1.963415E+05  1.742426E+05  1.634141E+06  6.491894E+04 -4.712388E+03
       110  22  6.224150E+05  9.454284E+02  7.320701E+03  1.621272E+06 -8.989262E+03  2.023851E+05
       110  23  6.383876E+05  8.787475E+03  9.237162E+03  4.226916E+05 -4.455879E+03  1.126877E+05
       110  24  6.263129E+05  3.347251E+04  1.023557E+04  1.621038E+06  1.199827E+03 -5.558413E+03
       110  25 -6.127894E+06 -1.679973E+06 -1.622704E+06  1.586356E+06 -4.499234E+04  2.022205E+05
       110  26 -3.064349E+06 -9.115226E+05 -8.826612E+05  3.982343E+05 -5.426185E+04  1.122356E+05
       110  27 -2.283835E+04 -1.294261E+05 -1.537885E+05  1.607946E+06 -6.245266E+04 -6.402258E+03
       111   1 -3.065522E+06 -8.847874E+05 -8.858948E+05  1.580705E+06 -7.057511E+04  8.541124E+04
       111   2 -6.131417E+06 -1.681435E+06 -1.620724E+06  3.900844E+05 -6.001100E+04  2.046707E+05
       111   3 -9.166327E+06 -2.468294E+06 -2.358039E+06  1.601583E+06 -4.768652E+04  2.898899E+05
       111   4  6.344798E+05  3.693499E+04  1.364821E+04  1.621802E+06 -5.631098E+03  8.620221E+04
       111   5  6.180604E+05 -9.013225E+02  8.325955E+03  4.216855E+05 -1.144888E+04  2.048868E+05
       111   6  6.273556E+05 -2.505334E+04  1.259323E+04  1.622158E+06 -1.545213E+04  2.897226E+05
       111   7  4.347020E+06  9.576549E+05  9.122165E+05  1.663090E+06  5.970038E+04  8.699910E+04
       111   8  7.409450E+06  1.676302E+06  1.634126E+06  4.535423E+05  3.764372E+04  2.051069E+05
       111   9  1.050949E+07  2.411143E+06  2.376338E+06  1.642860E+06  1.729629E+04  2.895594E+05
       111  10 -3.065530E+06 -8.847967E+05 -8.859180E+05  1.580710E+06  1.720839E-08 -5.642033E-09
       111  11 -6.131432E+06 -1.681481E+06 -1.620809E+06  3.900943E+05 -5.410348E-09 -1.403825E-08
       111  12 -9.166352E+06 -2.468385E+06 -2.358202E+06  1.601595E+06  1.271537E-08 -6.474356E-09
       111  13  6.344778E+05  3.692700E+04  1.363418E+04  1.621802E+06  8.565347E-11 -7.634670E-09
       111  14  6.180490E+05 -9.464506E+02  8.246792E+03  4.216874E+05 -9.242975E-09 -1.330533E-08
       111  15  6.273327E+05 -2.514359E+04  1.243493E+04  1.622162E+06  2.378665E-08 -7.306013E-09
       111  16  4.347015E+06  9.576459E+05  9.121957E+05  1.663086E+06 -5.866882E-09 -2.769153E-09
       111  17  7.409437E+06  1.676256E+06  1.634044E+06  4.535361E+05  1.843545E-08  6.760399E-09
       111  18  1.050947E+07  2.411053E+06  2.376180E+06  1.642856E+06  1.552859E-08 -6.639165E-09
       111  19 -3.065522E+06 -8.847874E+05 -8.858948E+05  1.580705E+06  7.057511E+04 -8.541124E+04
       111  20 -6.131417E+06 -1.681435E+06 -1.620724E+06  3.900844E+05  6.001100E+04 -2.046707E+05
       111  21 -9.166327E+06 -2.468294E+06 -2.358039E+06  1.601583E+06  4.768652E+04 -2.898899E+05
       111  22  6.344798E+05  3.693499E+04  1.364821E+04  1.621802E+06  5.631098E+03 -8.620221E+04
       111  23  6.180604E+05 -9.013225E+02  8.325955E+03  4.216855E+05  1.144888E+04 -2.048868E+05
       111  24  6.273556E+05 -2.505334E+04  1.259323E+04  1.622158E+06  1.545213E+04 -2.897226E+05
       111  25  4.347020E+06  9.576549E+05  9.122165E+05  1.663090E+06 -5.970038E+04 -8.699910E+04
       111  26  7.409450E+06  1.676302E+06  1.634126E+06  4.535423E+05 -3.764372E+04 -2.051069E+05
       111  27  1.050949E+07  2.411143E+06  2.376338E+06  1.642860E+06 -1.729629E+04 -2.895594E+05
       112   1 -1.343379E+07 -3.550044E+06 -3.390667E+06  1.632991E+06 -1.865565E+05  4.286658E+05
       112   2 -1.671959E+07 -4.396113E+06 -4.177262E+06  5.789101E+05  3.390597E+04  5.411877E+05
       112   3 -1.955885E+07 -5.172316E+06 -4.999699E+06  1.942256E+06  2.457022E+05  1.843619E+05
       112   4  6.987461E+05 -1.591036E+04  3.619233E+04  1.624778E+06 -2.324559E+04  4.279829E+05
       112   5  4.487547E+05 -9.214566E+04 -1.082326E+04  4.183372E+05 -2.304311E+04  5.408744E+05
       112   6  6.803510E+05 -5.665057E+04  6.178562E+04  1.626035E+06 -3.033878E+04  1.900467E+05
       112   7  1.501629E+07  3.503523E+06  3.448766E+06  1.616155E+06  1.438375E+05  4.273032E+05
       112   8  1.789106E+07  4.190103E+06  4.134364E+06  2.539592E+05 -8.158455E+04  5.406021E+05
       112   9  2.129867E+07  5.028111E+06  5.092624E+06  1.300873E+06 -3.155822E+05  1.959376E+05
       112  10 -1.343387E+07 -3.550252E+06 -3.391080E+06  1.633056E+06 -3.876868E-09  1.101605E-08
       112  11 -1.671967E+07 -4.396428E+06 -4.177815E+06  5.788952E+05  2.044683E-09  4.527906E-08
       112  12 -1.955893E+07 -5.172369E+06 -4.999879E+06  1.942219E+06  3.599227E-08  1.717921E-08
       112  13  6.986962E+05 -1.610730E+04  3.584686E+04  1.624786E+06  1.704308E-08  1.138072E-08
       112  14  4.486755E+05 -9.246006E+04 -1.137425E+04  4.183473E+05  4.559146E-08 -1.568013E-08
       112  15  6.803403E+05 -5.668963E+04  6.171592E+04  1.626040E+06  2.658351E-08  1.113160E-09
       112  16  1.501622E+07  3.503322E+06  3.448386E+06  1.616106E+06  1.599072E-08  1.232874E-09
       112  17  1.789097E+07  4.189787E+06  4.133802E+06  2.539943E+05 -3.345052E-09 -7.762098E-09
       112  18  2.129855E+07  5.028044E+06  5.092370E+06  1.300922E+06 -1.369459E-08  2.574708E-08
       112  19 -1.343379E+07 -3.550044E+06 -3.390667E+06  1.632991E+06  1.865565E+05 -4.286658E+05
       112  20 -1.671959E+07 -4.396113E+06 -4.177262E+06  5.789101E+05 -3.390597E+04 -5.411877E+05
       112  21 -1.955885E+07 -5.172316E+06 -4.999699E+06  1.942256E+06 -2.457022E+05 -1.843619E+05
       112  22  6.987461E+05 -1.591036E+04  3.619233E+04  1.624778E+06  2.324559E+04 -4.279829E+05
       112  23  4.487547E+05 -9.214566E+04 -1.082326E+04  4.183372E+05  2.304311E+04 -5.408744E+05
       112  24  6.803510E+05 -5.665057E+04  6.178562E+04  1.626035E+06  3.033878E+04 -1.900467E+05
       112  25  1.501629E+07  3.503523E+06  3.448766E+06  1.616155E+06 -1.438375E+05 -4.273032E+05
       112  26  1.789106E+07  4.190103E+06  4.134364E+06  2.539592E+05  8.158455E+04 -5.406021E+05
       112  27  2.129867E+07  5.028111E+06  5.092624E+06  1.300873E+06  3.155822E+05 -1.959376E+05
       113   1 -4.987362E+06 -1.986183E+07 -5.041213E+06  1.976283E+06 -1.861694E+05 -3.266148E+05
       113   2 -3.840622E+06 -1.549981E+07 -3.791178E+06  2.258890E+05 -4.865349E+05 -5.552328E+04
       113   3 -2.543626E+06 -1.110408E+07 -2.676785E+06  1.934553E+06 -3.122055E+05  2.018721E+05
       113   4 -1.618525E+04 -2.156826E+05 -1.229602E+05  2.328650E+06 -1.791747E+05 -7.245557E+04
       113   5 -2.712424E+03 -2.340935E+05 -8.636123E+04  5.981094E+05 -4.845848E+05 -2.203876E+04
       113   6  2.053348E+05 -1.920239E+05 -2.638214E+04  2.321817E+06 -3.204112E+05  1.295185E+04
       113   7  4.925811E+06  1.978791E+07  4.766324E+06  2.689476E+06 -1.720104E+05  1.899794E+05
       113   8  3.818205E+06  1.524819E+07  3.601632E+06  9.777397E+05 -4.826227E+05  1.229340E+04
       113   9  2.945768E+06  1.083026E+07  2.615545E+06  2.714569E+06 -3.287794E+05 -1.793278E+05
       113  10 -4.987429E+06 -1.986196E+07 -5.041484E+06  1.976233E+06 -7.330333E-09  7.330446E-09
       113  11 -3.840877E+06 -1.549988E+07 -3.791629E+06  2.258670E+05 -2.769961E-08 -1.347717E-08
       113  12 -2.543743E+06 -1.110415E+07 -2.677047E+06  1.934605E+06  4.208730E-08 -2.129813E-08
       113  13 -1.622106E+04 -2.156967E+05 -1.230302E+05  2.328639E+06 -4.486768E-09  2.402847E-08
       113  14 -2.964695E+03 -2.341570E+05 -8.680334E+04  5.981009E+05  2.874245E-08  3.624322E-08
       113  15  2.052245E+05 -1.920516E+05 -2.657538E+04  2.321820E+06 -9.400424E-09  8.370335E-08
       113  16  4.925770E+06  1.978787E+07  4.766202E+06  2.689502E+06  1.855498E-09  5.018525E-09
       113  17  3.817955E+06  1.524813E+07  3.601194E+06  9.777445E+05 -1.475220E-08 -2.195759E-08
       113  18  2.945644E+06  1.083020E+07  2.615284E+06  2.714522E+06  1.028785E-08  1.461144E-08
       113  19 -4.987362E+06 -1.986183E+07 -5.041213E+06  1.976283E+06  1.861694E+05  3.266148E+05
       113  20 -3.840622E+06 -1.549981E+07 -3.791178E+06  2.258890E+05  4.865349E+05  5.552328E+04
       113  21 -2.543626E+06 -1.110408E+07 -2.676785E+06  1.934553E+06  3.122055E+05 -2.018721E+05
       113  22 -1.618525E+04 -2.156826E+05 -1.229602E+05  2.328650E+06  1.791747E+05  7.245557E+04
       113  23 -2.712424E+03 -2.340935E+05 -8.636123E+04  5.981094E+05  4.845848E+05  2.203876E+04
       113  24  2.053348E+05 -1.920239E+05 -2.638214E+04  2.321817E+06  3.204112E+05 -1.295185E+04
       113  25  4.925811E+06  1.978791E+07  4.766324E+06  2.689476E+06  1.720104E+05 -1.899794E+05
       113  26  3.818205E+06  1.524819E+07  3.601632E+06  9.777397E+05  4.826227E+05 -1.229340E+04
       113  27  2.945768E+06  1.083026E+07  2.615545E+06  2.714569E+06  3.287794E+05  1.793278E+05
       114   1 -9.864173E+05 -4.917020E+06 -1.169675E+06  2.175522E+06 -1.420354E+05  7.270250E+04
       114   2  4.627274E+03 -3.425811E+05 -1.006422E+05  5.874743E+05 -3.688383E+03  8.822111E+04
       114   3  1.205414E+06  3.913365E+06  9.255371E+05  2.453185E+06  1.356463E+05  1.037555E+05
       114   4  1.817293E+05 -2.523022E+05 -4.398525E+04  2.323495E+06 -1.451286E+05  7.248212E+03
       114   5  6.943327E+04 -8.394620E+04 -3.830522E+04  5.973628E+05 -6.800905E+03  2.211680E+04
       114   6  1.683387E+05 -2.519397E+05 -7.382453E+04  2.324153E+06  1.324538E+05  3.685673E+04
       114   7  1.348317E+06  4.432453E+06  1.080163E+06  2.472316E+06 -1.482408E+05 -5.869979E+04
       114   8  1.342369E+05  1.747594E+05  2.404341E+04  6.072551E+05 -9.914869E+03 -4.401501E+04
       114   9 -8.699699E+05 -4.401393E+06 -1.074401E+06  2.195768E+06  1.292776E+05 -2.959718E+04
       114  10 -9.864404E+05 -4.917031E+06 -1.169723E+06  2.175531E+06  2.945311E-08 -1.094922E-08
       114  11  4.625168E+03 -3.425894E+05 -1.006568E+05  5.874745E+05  3.727008E-08 -2.721249E-08
       114  12  1.205391E+06  3.913348E+06  9.254827E+05  2.453174E+06 -2.207279E-08 -4.017803E-08
       114  13  1.817067E+05 -2.523080E+05 -4.402494E+04  2.323496E+06  2.667326E-09  4.780276E-08
       114  14  6.943309E+04 -8.394674E+04 -3.830623E+04  5.973629E+05  2.946642E-09  5.044280E-08
       114  15  1.683195E+05 -2.519459E+05 -7.385996E+04  2.324149E+06 -3.289869E-09  9.171375E-08
       114  16  1.348293E+06  4.432443E+06  1.080115E+06  2.472309E+06  9.078166E-09  3.450635E-08
       114  17  1.342363E+05  1.747573E+05  2.403958E+04  6.072548E+05 -2.147422E-08 -2.273899E-08
       114  18 -8.699881E+05 -4.401398E+06 -1.074434E+06  2.195771E+06  1.434778E-09  3.399088E-08
       114  19 -9.864173E+05 -4.917020E+06 -1.169675E+06  2.175522E+06  1.420354E+05 -7.270250E+04
       114  20  4.627274E+03 -3.425811E+05 -1.006422E+05  5.874743E+05  3.688383E+03 -8.822111E+04
       114  21  1.205414E+06  3.913365E+06  9.255371E+05  2.453185E+06 -1.356463E+05 -1.037555E+05
       114  22  1.817293E+05 -2.523022E+05 -4.398525E+04  2.323495E+06  1.451286E+05 -7.248212E+03
       114  23  6.943327E+04 -8.394620E+04 -3.830522E+04  5.973628E+05  6.800905E+03 -2.211680E+04
       114  24  1.683387E+05 -2.519397E+05 -7.382453E+04  2.324153E+06 -1.324538E+05 -3.685673E+04
       114  25  1.348317E+06  4.432453E+06  1.080163E+06  2.472316E+06  1.482408E+05  5.869979E+04
       114  26  1.342369E+05  1.747594E+05  2.404341E+04  6.072551E+05  9.914869E+03  4.401501E+04
       114  27 -8.699699E+05 -4.401393E+06 -1.074401E+06  2.195768E+06 -1.292776E+05  2.959718E+04
       115   1  2.831111E+06  1.029132E+07  2.447936E+06  2.719250E+06  3.149899E+05  2.276989E+05
       115   2  3.717009E+06  1.474875E+07  3.400488E+06  9.607763E+05  4.701346E+05  8.411008E+04
       115   3  4.651715E+06  1.924916E+07  4.449249E+06  2.653517E+06  1.705873E+05 -4.502005E+04
       115   4  2.171924E+05 -2.073201E+05 -7.021168E+04  2.320777E+06  3.065755E+05  3.752666E+04
       115   5  2.484104E+04 -2.094742E+05 -1.636194E+05  5.980394E+05  4.719475E+05  1.146679E+05
       115   6 -1.606090E+05 -2.303194E+05 -3.135495E+05  2.332206E+06  1.777750E+05  2.073976E+05
       115   7 -2.404430E+06 -1.060590E+07 -2.596048E+06  1.927683E+06  2.983274E+05 -1.494841E+05
       115   8 -3.683200E+06 -1.496546E+07 -3.743437E+06  2.420846E+05  4.737507E+05  1.444747E+05
       115   9 -5.000656E+06 -1.937072E+07 -5.103834E+06  2.017901E+06  1.848308E+05  4.520062E+05
       115  10  2.830992E+06  1.029124E+07  2.447656E+06  2.719192E+06 -1.063600E-08 -2.323834E-09
       115  11  3.716770E+06  1.474869E+07  3.400060E+06  9.607449E+05  1.370730E-08 -1.382173E-08
       115  12  4.651684E+06  1.924915E+07  4.449191E+06  2.653523E+06  4.568014E-09 -3.035277E-09
       115  13  2.170912E+05 -2.073467E+05 -7.039067E+04  2.320767E+06  5.021571E-09  4.610939E-08
       115  14  2.459840E+04 -2.095480E+05 -1.640624E+05  5.979959E+05  3.481189E-08  3.658888E-08
       115  15 -1.606543E+05 -2.303739E+05 -3.136891E+05  2.332176E+06 -3.930508E-10  4.715621E-08
       115  16 -2.404532E+06 -1.060594E+07 -2.596259E+06  1.927720E+06  2.673393E-08  2.532871E-08
       115  17 -3.683448E+06 -1.496554E+07 -3.743899E+06  2.420289E+05  2.494655E-08 -2.436095E-08
       115  18 -5.000749E+06 -1.937095E+07 -5.104293E+06  2.017833E+06  7.249154E-09  1.529024E-09
       115  19  2.831111E+06  1.029132E+07  2.447936E+06  2.719250E+06 -3.149899E+05 -2.276989E+05
       115  20  3.717009E+06  1.474875E+07  3.400488E+06  9.607763E+05 -4.701346E+05 -8.411008E+04
       115  21  4.651715E+06  1.924916E+07  4.449249E+06  2.653517E+06 -1.705873E+05  4.502005E+04
       115  22  2.171924E+05 -2.073201E+05 -7.021168E+04  2.320777E+06 -3.065755E+05 -3.752666E+04
       115  23  2.484104E+04 -2.094742E+05 -1.636194E+05  5.980394E+05 -4.719475E+05 -1.146679E+05
       115  24 -1.606090E+05 -2.303194E+05 -3.135495E+05  2.332206E+06 -1.777750E+05 -2.073976E+05
       115  25 -2.404430E+06 -1.060590E+07 -2.596048E+06  1.927683E+06 -2.983274E+05  1.494841E+05
       115  26 -3.683200E+06 -1.496546E+07 -3.743437E+06  2.420846E+05 -4.737507E+05 -1.444747E+05
       115  27 -5.000656E+06 -1.937072E+07 -5.103834E+06  2.017901E+06 -1.848308E+05 -4.520062E+05
       116   1 -3.520543E+06 -1.410976E+07 -3.578049E+06  1.664009E+06 -1.332697E+05 -1.297219E+05
       116   2 -2.692923E+06 -1.023997E+07 -2.591686E+06  2.281617E+05 -3.400012E+05  3.866585E+04
       116   3 -1.558572E+06 -6.444494E+06 -1.665394E+06  1.805855E+06 -1.891670E+05  1.938243E+05
       116   4  1.669788E+05  4.825547E+05  6.326878E+04  2.054984E+06 -1.266559E+05  5.587618E+04
       116   5  7.323981E+03  5.182154E+05  1.038501E+04  5.496295E+05 -3.389270E+05  5.558551E+04
       116   6  1.852241E+05  4.969799E+05  1.691955E+04  2.054355E+06 -1.963881E+05  4.116840E+04
       116   7  3.838642E+06  1.527096E+07  3.688683E+06  2.453311E+06 -1.198899E+05  2.459020E+05
       116   8  2.699240E+06  1.138339E+07  2.604146E+06  8.756450E+05 -3.378465E+05  7.279663E+04
       116   9  1.925589E+06  7.482855E+06  1.695850E+06  2.305066E+06 -2.036898E+05 -1.132062E+05
       116  10 -3.520567E+06 -1.410979E+07 -3.578115E+06  1.663995E+06  7.833918E-09  3.186079E-09
       116  11 -2.693048E+06 -1.024000E+07 -2.591906E+06  2.281723E+05  2.805632E-08  7.821726E-08
       116  12 -1.558621E+06 -6.444545E+06 -1.665533E+06  1.805885E+06  9.936990E-09  3.727504E-08
       116  13  1.669607E+05  4.825470E+05  6.323266E+04  2.054990E+06 -1.451317E-08  1.122537E-10
       116  14  7.199746E+03  5.181812E+05  1.016321E+04  5.496447E+05 -6.337110E-08  8.512762E-08
       116  15  1.851822E+05  4.969677E+05  1.684376E+04  2.054362E+06 -2.478317E-08  6.582700E-08
       116  16  3.838610E+06  1.527090E+07  3.688545E+06  2.453335E+06 -8.689022E-09 -2.424615E-09
       116  17  2.699116E+06  1.138336E+07  2.603922E+06  8.756647E+05  2.096925E-09  4.875499E-08
       116  18  1.925541E+06  7.482830E+06  1.695749E+06  2.305048E+06  1.360605E-08  3.185874E-09
       116  19 -3.520543E+06 -1.410976E+07 -3.578049E+06  1.664009E+06  1.332697E+05  1.297219E+05
       116  20 -2.692923E+06 -1.023997E+07 -2.591686E+06  2.281617E+05  3.400012E+05 -3.866585E+04
       116  21 -1.558572E+06 -6.444494E+06 -1.665394E+06  1.805855E+06  1.891670E+05 -1.938243E+05
       116  22  1.669788E+05  4.825547E+05  6.326878E+04  2.054984E+06  1.266559E+05 -5.587618E+04
       116  23  7.323981E+03  5.182154E+05  1.038501E+04  5.496295E+05  3.389270E+05 -5.558551E+04
       116  24  1.852241E+05  4.969799E+05  1.691955E+04  2.054355E+06  1.963881E+05 -4.116840E+04
       116  25  3.838642E+06  1.527096E+07  3.688683E+06  2.453311E+06  1.198899E+05 -2.459020E+05
       116  26  2.699240E+06  1.138339E+07  2.604146E+06  8.756450E+05  3.378465E+05 -7.279663E+04
       116  27  1.925589E+06  7.482855E+06  1.695850E+06  2.305066E+06  2.036898E+05  1.132062E+05
       117   1 -1.776901E+05 -1.028415E+06 -3.555907E+05  2.008224E+06 -4.802258E+04  9.131760E+04
       117   2  6.455401E+05  2.955509E+06  5.485238E+05  6.298824E+05  7.558163E+04  9.218774E+04
       117   3  1.677066E+06  6.672942E+06  1.431193E+06  2.255022E+06  1.917743E+05  9.411964E+04
       117   4  1.932860E+05  4.603817E+05  6.674661E+02  2.051983E+06 -5.105634E+04  3.027210E+04
       117   5  5.787112E+04  5.992422E+05 -1.792383E+04  5.515243E+05  7.288190E+04  3.447446E+04
       117   6  1.310505E+05  4.571594E+05 -5.955644E+04  2.054682E+06  1.893524E+05  3.970386E+04
       117   7  5.641063E+05  1.951221E+06  3.567832E+05  2.095819E+06 -5.409486E+04 -3.091963E+04
       117   8 -5.301899E+05 -1.751948E+06 -5.847541E+05  4.734028E+05  7.019145E+04 -2.302131E+04
       117   9 -1.417703E+06 -5.723463E+06 -1.553034E+06  1.855878E+06  1.869527E+05 -1.417493E+04
       117  10 -1.776949E+05 -1.028425E+06 -3.556108E+05  2.008227E+06  3.747681E-09  2.224608E-08
       117  11  6.455317E+05  2.955498E+06  5.484972E+05  6.298768E+05  3.014354E-08  7.408858E-08
       117  12  1.677025E+06  6.672922E+06  1.431107E+06  2.255008E+06  1.671398E-08 -6.174248E-09
       117  13  1.932830E+05  4.603800E+05  6.608222E+02  2.051984E+06 -2.632556E-08 -7.692760E-10
       117  14  5.786510E+04  5.992395E+05 -1.793604E+04  5.515223E+05  6.576917E-09  9.871948E-08
       117  15  1.310116E+05  4.571481E+05 -5.962666E+04  2.054676E+06  7.069633E-09  6.395573E-08
       117  16  5.641029E+05  1.951220E+06  3.567759E+05  2.095818E+06  2.340305E-08 -2.416180E-08
       117  17 -5.301953E+05 -1.751950E+06 -5.847643E+05  4.734041E+05 -6.543283E-10  7.424707E-08
       117  18 -1.417741E+06 -5.723472E+06 -1.553100E+06  1.855880E+06  1.755783E-09  4.485010E-08
       117  19 -1.776901E+05 -1.028415E+06 -3.555907E+05  2.008224E+06  4.802258E+04 -9.131760E+04
       117  20  6.455401E+05  2.955509E+06  5.485238E+05  6.298824E+05 -7.558163E+04 -9.218774E+04
       117  21  1.677066E+06  6.672942E+06  1.431193E+06  2.255022E+06 -1.917743E+05 -9.411964E+04
       117  22  1.932860E+05  4.603817E+05  6.674661E+02  2.051983E+06  5.105634E+04 -3.027210E+04
       117  23  5.787112E+04  5.992422E+05 -1.792383E+04  5.515243E+05 -7.288190E+04 -3.447446E+04
       117  24  1.310505E+05  4.571594E+05 -5.955644E+04  2.054682E+06 -1.893524E+05 -3.970386E+04
       117  25  5.641063E+05  1.951221E+06  3.567832E+05  2.095819E+06  5.409486E+04  3.091963E+04
       117  26 -5.301899E+05 -1.751948E+06 -5.847541E+05  4.734028E+05 -7.019145E+04  2.302131E+04
       117  27 -1.417703E+06 -5.723463E+06 -1.553034E+06  1.855878E+06 -1.869527E+05  1.417493E+04
       118   1  3.099423E+06  1.225158E+07  2.754767E+06  2.472286E+06  3.555013E+05  2.182477E+05
       118   2  3.867810E+06  1.612429E+07  3.573447E+06  8.990186E+05  4.895742E+05  7.190834E+04
       118   3  4.676251E+06  2.011285E+07  4.505220E+06  2.349894E+06  1.741250E+05 -6.164479E+04
       118   4  1.829459E+05  5.048584E+05 -5.601483E+04  2.056039E+06  3.481230E+05  3.922681E+04
       118   5  9.014779E+03  4.651127E+05 -1.533528E+05  5.462538E+05  4.916687E+05  1.116591E+05
       118   6 -1.667736E+05  4.839373E+05 -2.888273E+05  2.065925E+06  1.806720E+05  1.979054E+05
       118   7 -2.743189E+06 -1.111690E+07 -2.876429E+06  1.646054E+06  3.409086E+05 -1.364750E+05
       118   8 -3.867165E+06 -1.497284E+07 -3.897327E+06  2.003906E+05  4.937496E+05  1.503981E+05
       118   9 -5.037917E+06 -1.880113E+07 -5.110709E+06  1.788175E+06  1.871009E+05  4.493805E+05
       118  10  3.099276E+06  1.225149E+07  2.754443E+06  2.472224E+06  2.440683E-08  1.249568E-08
       118  11  3.867552E+06  1.612422E+07  3.572987E+06  8.989907E+05  2.915349E-08  5.934971E-08
       118  12  4.676218E+06  2.011284E+07  4.505156E+06  2.349902E+06  4.367984E-09 -2.786447E-09
       118  13  1.828154E+05  5.048243E+05 -5.624523E+04  2.056029E+06  2.605552E-08 -5.396678E-10
       118  14  8.751828E+03  4.650344E+05 -1.538304E+05  5.462096E+05  3.773987E-08  6.784838E-08
       118  15 -1.668190E+05  4.838867E+05 -2.889616E+05  2.065896E+06  8.700025E-09  3.012073E-08
       118  16 -2.743320E+06 -1.111695E+07 -2.876683E+06  1.646092E+06 -2.276774E-09 -1.388402E-08
       118  17 -3.867433E+06 -1.497293E+07 -3.897829E+06  2.003302E+05 -6.205029E-09  4.155292E-08
       118  18 -5.038010E+06 -1.880136E+07 -5.111165E+06  1.788107E+06 -2.228130E-08  2.183654E-08
       118  19  3.099423E+06  1.225158E+07  2.754767E+06  2.472286E+06 -3.555013E+05 -2.182477E+05
       118  20  3.867810E+06  1.612429E+07  3.573447E+06  8.990186E+05 -4.895742E+05 -7.190834E+04
       118  21  4.676251E+06  2.011285E+07  4.505220E+06  2.349894E+06 -1.741250E+05  6.164479E+04
       118  22  1.829459E+05  5.048584E+05 -5.601483E+04  2.056039E+06 -3.481230E+05 -3.922681E+04
       118  23  9.014779E+03  4.651127E+05 -1.533528E+05  5.462538E+05 -4.916687E+05 -1.116591E+05
       118  24 -1.667736E+05  4.839373E+05 -2.888273E+05  2.065925E+06 -1.806720E+05 -1.979054E+05
       118  25 -2.743189E+06 -1.111690E+07 -2.876429E+06  1.646054E+06 -3.409086E+05  1.364750E+05
       118  26 -3.867165E+06 -1.497284E+07 -3.897327E+06  2.003906E+05 -4.937496E+05 -1.503981E+05
       118  27 -5.037917E+06 -1.880113E+07 -5.110709E+06  1.788175E+06 -1.871009E+05 -4.493805E+05
       119   1  1.871824E+07  4.312440E+06  4.300669E+06  1.155986E+06  8.286743E+04 -1.718620E+05
       119   2  1.565868E+07  3.805506E+06  3.590053E+06  2.314926E+05 -5.898388E+04 -4.843390E+05
       119   3  1.295900E+07  3.143173E+06  3.001680E+06  1.515884E+06 -1.940266E+05 -3.811814E+05
       119   4  1.647983E+05 -2.740546E+05 -2.353280E+05  1.494742E+06 -1.703541E+05 -1.670339E+05
       119   5  1.604689E+04 -4.101746E+04 -1.333101E+05  3.898374E+05 -1.090660E+05 -4.845648E+05
       119   6  1.800254E+05 -2.673973E+03 -4.901081E+04  1.498098E+06 -4.152872E+04 -3.817910E+05
       119   7 -1.808089E+07 -4.885589E+06 -4.796230E+06  1.824781E+06 -4.161308E+05 -1.624147E+05
       119   8 -1.540572E+07 -3.905045E+06 -3.873814E+06  5.448081E+05 -1.578904E+05 -4.848239E+05
       119   9 -1.245123E+07 -3.160262E+06 -3.111111E+06  1.480531E+06  1.078990E+05 -3.824152E+05
       119  10  1.871822E+07  4.312406E+06  4.300601E+06  1.155997E+06 -3.853021E-09  1.272775E-09
       119  11  1.565861E+07  3.805253E+06  3.589605E+06  2.314698E+05 -1.849919E-09  2.209508E-09
       119  12  1.295892E+07  3.143007E+06  3.001338E+06  1.515825E+06  8.150766E-09 -4.057596E-09
       119  13  1.647598E+05 -2.740923E+05 -2.354347E+05  1.494719E+06  2.344759E-08 -7.396926E-11
       119  14  1.597112E+04 -4.127279E+04 -1.337736E+05  3.897949E+05  1.654141E-08 -4.639128E-10
       119  15  1.799844E+05 -2.830923E+03 -4.928781E+04  1.498085E+06  1.741363E-09 -2.795383E-09
       119  16 -1.808109E+07 -4.885665E+06 -4.796613E+06  1.824726E+06 -3.581043E-09 -1.916460E-09
       119  17 -1.540581E+07 -3.905305E+06 -3.874304E+06  5.447458E+05  1.159679E-08 -4.732240E-09
       119  18 -1.245128E+07 -3.160422E+06 -3.111408E+06  1.480565E+06  3.979700E-09 -1.100783E-09
       119  19  1.871824E+07  4.312440E+06  4.300669E+06  1.155986E+06 -8.286743E+04  1.718620E+05
       119  20  1.565868E+07  3.805506E+06  3.590053E+06  2.314926E+05  5.898388E+04  4.843390E+05
       119  21  1.295900E+07  3.143173E+06  3.001680E+06  1.515884E+06  1.940266E+05  3.811814E+05
       119  22  1.647983E+05 -2.740546E+05 -2.353280E+05  1.494742E+06  1.703541E+05  1.670339E+05
       119  23  1.604689E+04 -4.101746E+04 -1.333101E+05  3.898374E+05  1.090660E+05  4.845648E+05
       119  24  1.800254E+05 -2.673973E+03 -4.901081E+04  1.498098E+06  4.152872E+04  3.817910E+05
       119  25 -1.808089E+07 -4.885589E+06 -4.796230E+06  1.824781E+06  4.161308E+05  1.624147E+05
       119  26 -1.540572E+07 -3.905045E+06 -3.873814E+06  5.448081E+05  1.578904E+05  4.848239E+05
       119  27 -1.245123E+07 -3.160262E+06 -3.111111E+06  1.480531E+06 -1.078990E+05  3.824152E+05
       120   1  8.821738E+06  2.097726E+06  2.025813E+06  1.505641E+06 -6.676705E+04 -2.554399E+05
       120   2  5.959517E+06  1.443414E+06  1.370173E+06  4.069161E+05 -6.785342E+04 -1.763358E+05
       120   3  3.116689E+06  7.668581E+05  7.120601E+05  1.531639E+06 -7.035620E+04 -6.666863E+04
       120   4  1.370457E+05 -4.587078E+04 -5.402535E+04  1.499879E+06 -3.553069E+04 -2.555737E+05
       120   5  1.353705E+05  3.594028E+03 -2.561169E+04  3.873093E+05 -2.204069E+04 -1.761699E+05
       120   6  1.427158E+05  2.843547E+04 -9.468525E+03  1.499575E+06 -9.977042E+03 -6.605094E+04
       120   7 -8.479197E+06 -2.194920E+06 -2.139195E+06  1.494065E+06 -4.722176E+03 -2.557093E+05
       120   8 -5.657899E+06 -1.438681E+06 -1.423790E+06  3.678309E+05  2.334788E+04 -1.760061E+05
       120   9 -2.823201E+06 -7.106320E+05 -7.316218E+05  1.467634E+06  5.011490E+04 -6.543774E+04
       120  10  8.821716E+06  2.097655E+06  2.025682E+06  1.505628E+06  6.081080E-09 -1.839363E-09
       120  11  5.959504E+06  1.443380E+06  1.370106E+06  4.069065E+05 -1.688814E-09  5.202266E-09
       120  12  3.116683E+06  7.668520E+05  7.120426E+05  1.531635E+06 -1.097104E-08  1.353949E-09
       120  13  1.370269E+05 -4.594123E+04 -5.415038E+04  1.499872E+06  8.566539E-09 -1.661652E-09
       120  14  1.353617E+05  3.560571E+03 -2.567091E+04  3.873062E+05 -1.829347E-08 -1.136007E-09
       120  15  1.427146E+05  2.843076E+04 -9.476903E+03  1.499574E+06  9.317945E-10  2.415133E-09
       120  16 -8.479214E+06 -2.194991E+06 -2.139318E+06  1.494064E+06  2.561407E-09 -9.567116E-10
       120  17 -5.657908E+06 -1.438715E+06 -1.423849E+06  3.678342E+05 -3.719754E-09 -4.296923E-09
       120  18 -2.823205E+06 -7.106373E+05 -7.316346E+05  1.467637E+06  2.655393E-09  3.132268E-09
       120  19  8.821738E+06  2.097726E+06  2.025813E+06  1.505641E+06  6.676705E+04  2.554399E+05
       120  20  5.959517E+06  1.443414E+06  1.370173E+06  4.069161E+05  6.785342E+04  1.763358E+05
       120  21  3.116689E+06  7.668581E+05  7.120601E+05  1.531639E+06  7.035620E+04  6.666863E+04
       120  22  1.370457E+05 -4.587078E+04 -5.402535E+04  1.499879E+06  3.553069E+04  2.555737E+05
       120  23  1.353705E+05  3.594028E+03 -2.561169E+04  3.873093E+05  2.204069E+04  1.761699E+05
       120  24  1.427158E+05  2.843547E+04 -9.468525E+03  1.499575E+06  9.977042E+03  6.605094E+04
       120  25 -8.479197E+06 -2.194920E+06 -2.139195E+06  1.494065E+06  4.722176E+03  2.557093E+05
       120  26 -5.657899E+06 -1.438681E+06 -1.423790E+06  3.678309E+05 -2.334788E+04  1.760061E+05
       120  27 -2.823201E+06 -7.106320E+05 -7.316218E+05  1.467634E+06 -5.011490E+04  6.543774E+04
       121   1 -9.344038E+05 -2.453404E+05 -2.735692E+05  1.484329E+06 -6.961188E+04  8.216045E+03
       121   2 -3.760848E+06 -9.651540E+05 -9.448651E+05  3.686487E+05 -5.541603E+04  1.185004E+05
       121   3 -6.596609E+06 -1.686254E+06 -1.630796E+06  1.478172E+06 -4.025436E+04  2.012805E+05
       121   4  1.397036E+05  2.303624E+04 -7.677901E+03  1.499529E+06 -1.034334E+04  8.860593E+03
       121   5  1.449552E+05  6.158622E+03 -3.400725E+03  3.874370E+05 -9.403610E+03  1.187982E+05
       121   6  1.358826E+05 -9.005554E+03 -4.014383E+03  1.499688E+06 -7.431283E+03  2.013325E+05
       121   7  1.214868E+06  2.913289E+05  2.581408E+05  1.514753E+06  4.902777E+04  9.507395E+03
       121   8  4.064771E+06  9.763583E+05  9.369821E+05  4.063140E+05  3.689870E+04  1.190979E+05
       121   9  6.910100E+06  1.664921E+06  1.619522E+06  1.521331E+06  2.574970E+04  2.013867E+05
       121  10 -9.344090E+05 -2.453418E+05 -2.735785E+05  1.484329E+06  2.781754E-10 -2.088402E-09
       121  11 -3.760855E+06 -9.651699E+05 -9.448974E+05  3.686540E+05  3.048787E-09  1.341655E-09
       121  12 -6.596622E+06 -1.686298E+06 -1.630876E+06  1.478178E+06 -4.393878E-09  1.601345E-09
       121  13  1.397035E+05  2.303613E+04 -7.678250E+03  1.499530E+06 -1.071128E-08  1.345425E-09
       121  14  1.449513E+05  6.143441E+03 -3.427418E+03  3.874379E+05  2.833946E-09  2.185103E-09
       121  15  1.358717E+05 -9.049105E+03 -4.090684E+03  1.499690E+06  4.879070E-09  5.593189E-10
       121  16  1.214865E+06  2.913282E+05  2.581362E+05  1.514752E+06  5.243363E-09  5.238409E-09
       121  17  4.064766E+06  9.763427E+05  9.369529E+05  4.063105E+05 -1.103991E-08  3.231812E-09
       121  18  6.910089E+06  1.664877E+06  1.619445E+06  1.521327E+06  4.997472E-09 -1.245792E-10
       121  19 -9.344038E+05 -2.453404E+05 -2.735692E+05  1.484329E+06  6.961188E+04 -8.216045E+03
       121  20 -3.760848E+06 -9.651540E+05 -9.448651E+05  3.686487E+05  5.541603E+04 -1.185004E+05
       121  21 -6.596609E+06 -1.686254E+06 -1.630796E+06  1.478172E+06  4.025436E+04 -2.012805E+05
       121  22  1.397036E+05  2.303624E+04 -7.677901E+03  1.499529E+06  1.034334E+04 -8.860593E+03
       121  23  1.449552E+05  6.158622E+03 -3.400725E+03  3.874370E+05  9.403610E+03 -1.187982E+05
       121  24  1.358826E+05 -9.005554E+03 -4.014383E+03  1.499688E+06  7.431283E+03 -2.013325E+05
       121  25  1.214868E+06  2.913289E+05  2.581408E+05  1.514753E+06 -4.902777E+04 -9.507395E+03
       121  26  4.064771E+06  9.763583E+05  9.369821E+05  4.063140E+05 -3.689870E+04 -1.190979E+05
       121  27  6.910100E+06  1.664921E+06  1.619522E+06  1.521331E+06 -2.574970E+04 -2.013867E+05
       122   1 -1.056879E+07 -2.683397E+06 -2.593209E+06  1.475727E+06 -1.508804E+05  3.220286E+05
       122   2 -1.351664E+07 -3.441217E+06 -3.305859E+06  4.644990E+05  3.889509E+04  4.271277E+05
       122   3 -1.620733E+07 -4.194797E+06 -4.087117E+06  1.674133E+06  2.242293E+05  1.485097E+05
       122   4  1.821085E+05  1.308836E+03  1.077999E+04  1.498267E+06 -1.073188E+04  3.220435E+05
       122   5  3.325450E+04 -5.172973E+04 -2.380793E+04  3.891783E+05 -1.665377E+03  4.267781E+05
       122   6  1.687731E+05 -6.653257E+04  5.965749E+02  1.498458E+06  3.856823E+03  1.514345E+05
       122   7  1.103983E+07  2.677522E+06  2.606528E+06  1.521008E+06  1.318684E+05  3.220678E+05
       122   8  1.375334E+07  3.324244E+06  3.245038E+06  3.124169E+05 -4.312175E+04  4.264457E+05
       122   9  1.679236E+07  4.041486E+06  4.068291E+06  1.318665E+06 -2.224441E+05  1.544546E+05
       122  10 -1.056884E+07 -2.683515E+06 -2.593448E+06  1.475766E+06 -5.019202E-09  1.410403E-09
       122  11 -1.351669E+07 -3.441413E+06 -3.306205E+06  4.644856E+05 -9.376028E-09 -6.879638E-10
       122  12 -1.620739E+07 -4.194834E+06 -4.087255E+06  1.674106E+06 -7.536922E-09 -1.220291E-09
       122  13  1.820805E+05  1.197414E+03  1.058482E+04  1.498270E+06  9.111710E-11  4.554279E-10
       122  14  3.320559E+04 -5.192534E+04 -2.415025E+04  3.891789E+05  3.685846E-08  1.856582E-09
       122  15  1.687669E+05 -6.655720E+04  5.534509E+02  1.498457E+06  6.184726E-09  2.498689E-09
       122  16  1.103978E+07  2.677407E+06  2.606301E+06  1.520974E+06  9.364240E-09 -2.705224E-10
       122  17  1.375329E+07  3.324049E+06  3.244693E+06  3.124316E+05 -1.005029E-08  1.258574E-10
       122  18  1.679230E+07  4.041447E+06  4.068155E+06  1.318692E+06 -4.867611E-09  2.399435E-10
       122  19 -1.056879E+07 -2.683397E+06 -2.593209E+06  1.475727E+06  1.508804E+05 -3.220286E+05
       122  20 -1.351664E+07 -3.441217E+06 -3.305859E+06  4.644990E+05 -3.889509E+04 -4.271277E+05
       122  21 -1.620733E+07 -4.194797E+06 -4.087117E+06  1.674133E+06 -2.242293E+05 -1.485097E+05
       122  22  1.821085E+05  1.308836E+03  1.077999E+04  1.498267E+06  1.073188E+04 -3.220435E+05
       122  23  3.325450E+04 -5.172973E+04 -2.380793E+04  3.891783E+05  1.665377E+03 -4.267781E+05
       122  24  1.687731E+05 -6.653257E+04  5.965749E+02  1.498458E+06 -3.856823E+03 -1.514345E+05
       122  25  1.103983E+07  2.677522E+06  2.606528E+06  1.521008E+06 -1.318684E+05 -3.220678E+05
       122  26  1.375334E+07  3.324244E+06  3.245038E+06  3.124169E+05  4.312175E+04 -4.264457E+05
       122  27  1.679236E+07  4.041486E+06  4.068291E+06  1.318665E+06  2.224441E+05 -1.544546E+05
       123   1 -1.712708E+06 -5.827284E+06 -1.738863E+06  7.985533E+05 -6.485576E+04 -8.729747E+04
       123   2 -1.314879E+06 -4.069975E+06 -1.274076E+06  1.510401E+05 -1.675849E+05 -5.726035E+03
       123   3 -8.277857E+05 -2.367450E+06 -8.526784E+05  8.571670E+05 -1.009604E+05  7.073912E+04
       123   4  5.390864E+04  1.211946E+06  7.637892E+03  9.531120E+05 -6.218850E+04  3.194801E+03
       123   5  8.305677E+03  1.235151E+06  3.323410E+03  2.765069E+05 -1.671780E+05  4.104251E+03
       123   6  6.630568E+04  1.215123E+06  1.215256E+04  9.527730E+05 -1.034556E+05 -2.941770E+02
       123   7  1.816851E+06  8.296429E+06  1.750473E+06  1.109077E+06 -5.949179E+04  9.471986E+04
       123   8  1.329464E+06  6.566126E+06  1.278717E+06  4.028454E+05 -1.667690E+05  1.401876E+04
       123   9  9.594769E+05  4.809467E+06  8.760841E+05  1.048822E+06 -1.059652E+05 -7.173733E+04
       123  10 -1.712715E+06 -5.827294E+06 -1.738885E+06  7.985488E+05 -4.347892E-10 -3.034708E-09
       123  11 -1.314909E+06 -4.069982E+06 -1.274128E+06  1.510393E+05  1.323073E-08 -7.073035E-09
       123  12 -8.277980E+05 -2.367458E+06 -8.527070E+05  8.571727E+05  1.487607E-08 -3.350130E-10
       123  13  5.390449E+04  1.211945E+06  7.630600E+03  9.531122E+05 -1.749351E-08  1.698623E-10
       123  14  8.275644E+03  1.235144E+06  3.270827E+03  2.765075E+05  1.554118E-08  1.112929E-10
       123  15  6.629419E+04  1.215120E+06  1.213243E+04  9.527730E+05  2.692277E-09  1.771887E-10
       123  16  1.816845E+06  8.296419E+06  1.750450E+06  1.109081E+06  8.214089E-09  3.426951E-09
       123  17  1.329434E+06  6.566118E+06  1.278665E+06  4.028473E+05 -2.503272E-08  4.809542E-09
       123  18  9.594635E+05  4.809458E+06  8.760535E+05  1.048816E+06 -1.306382E-08  8.829465E-10
       123  19 -1.712708E+06 -5.827284E+06 -1.738863E+06  7.985533E+05  6.485576E+04  8.729747E+04
       123  20 -1.314879E+06 -4.069975E+06 -1.274076E+06  1.510401E+05  1.675849E+05  5.726035E+03
       123  21 -8.277857E+05 -2.367450E+06 -8.526784E+05  8.571670E+05  1.009604E+05 -7.073912E+04
       123  22  5.390864E+04  1.211946E+06  7.637892E+03  9.531120E+05  6.218850E+04 -3.194801E+03
       123  23  8.305677E+03  1.235151E+06  3.323410E+03  2.765069E+05  1.671780E+05 -4.104251E+03
       123  24  6.630568E+04  1.215123E+06  1.215256E+04  9.527730E+05  1.034556E+05  2.941770E+02
       123  25  1.816851E+06  8.296429E+06  1.750473E+06  1.109077E+06  5.949179E+04 -9.471986E+04
       123  26  1.329464E+06  6.566126E+06  1.278717E+06  4.028454E+05  1.667690E+05 -1.401876E+04
       123  27  9.594769E+05  4.809467E+06  8.760841E+05  1.048822E+06  1.059652E+05  7.173733E+04
       124   1 -2.190725E+05  7.229110E+04 -2.605760E+05  9.200211E+05 -3.612674E+04  2.131561E+04
       124   2  1.625910E+05  1.836614E+06  1.592232E+05  2.949226E+05  1.796192E+04  9.009142E+03
       124   3  6.466027E+05  3.514280E+06  5.874840E+05  1.014004E+06  7.017008E+04 -3.184391E+03
       124   4  6.378153E+04  1.208125E+06  1.192960E+04  9.510363E+05 -3.709501E+04 -5.304928E+03
       124   5  1.723210E+04  1.252703E+06  1.886558E+04  2.787873E+05  1.704593E+04 -1.673022E+04
       124   6  7.310014E+04  1.207781E+06  3.385685E+04  9.506929E+05  6.929820E+04 -2.801364E+04
       124   7  3.465439E+05  2.345141E+06  2.843464E+05  9.820970E+05 -3.806502E+04 -3.197400E+04
       124   8 -1.281507E+05  6.691051E+05 -1.215138E+05  2.626645E+05  1.613083E+04 -4.244549E+04
       124   9 -5.007813E+05 -1.093867E+06 -5.201453E+05  8.875702E+05  6.842970E+04 -5.275120E+04
       124  10 -2.190740E+05  7.229026E+04 -2.605793E+05  9.200217E+05  1.376461E-09  7.956727E-10
       124  11  1.625906E+05  1.836614E+06  1.592224E+05  2.949225E+05 -5.180703E-09  6.702760E-09
       124  12  6.465974E+05  3.514279E+06  5.874747E+05  1.014004E+06 -1.485835E-08  1.203075E-08
       124  13  6.378005E+04  1.208125E+06  1.192696E+04  9.510362E+05 -5.286689E-09  1.983880E-10
       124  14  1.723172E+04  1.252703E+06  1.886450E+04  2.787876E+05  5.519549E-10  4.302313E-10
       124  15  7.309476E+04  1.207779E+06  3.384634E+04  9.506944E+05 -3.598819E-10 -1.052883E-10
       124  16  3.465421E+05  2.345140E+06  2.843418E+05  9.820960E+05 -6.750665E-09 -1.355342E-10
       124  17 -1.281515E+05  6.691031E+05 -1.215177E+05  2.626651E+05  1.064207E-08 -6.121598E-09
       124  18 -5.007871E+05 -1.093871E+06 -5.201594E+05  8.875731E+05 -1.757615E-09 -1.196039E-08
       124  19 -2.190725E+05  7.229110E+04 -2.605760E+05  9.200211E+05  3.612674E+04 -2.131561E+04
       124  20  1.625910E+05  1.836614E+06  1.592232E+05  2.949226E+05 -1.796192E+04 -9.009142E+03
       124  21  6.466027E+05  3.514280E+06  5.874840E+05  1.014004E+06 -7.017008E+04  3.184391E+03
       124  22  6.378153E+04  1.208125E+06  1.192960E+04  9.510363E+05  3.709501E+04  5.304928E+03
       124  23  1.723210E+04  1.252703E+06  1.886558E+04  2.787873E+05 -1.704593E+04  1.673022E+04
       124  24  7.310014E+04  1.207781E+06  3.385685E+04  9.506929E+05 -6.929820E+04  2.801364E+04
       124  25  3.465439E+05  2.345141E+06  2.843464E+05  9.820970E+05  3.806502E+04  3.197400E+04
       124  26 -1.281507E+05  6.691051E+05 -1.215138E+05  2.626645E+05 -1.613083E+04  4.244549E+04
       124  27 -5.007813E+05 -1.093867E+06 -5.201453E+05  8.875702E+05 -6.842970E+04  5.275120E+04
       125   1  1.240601E+06  5.999337E+06  1.189647E+06  1.063626E+06  1.414141E+05  3.937028E+04
       125   2  1.601032E+06  7.731814E+06  1.618032E+06  4.298927E+05  2.009686E+05 -8.944243E+04
       125   3  2.218797E+06  9.501683E+06  2.182977E+06  1.151284E+06  6.839025E+04 -2.130233E+05
       125   4  5.728921E+04  1.226909E+06  4.460344E+04  9.545114E+05  1.388215E+05 -3.781349E+04
       125   5 -1.282164E+04  1.215545E+06  5.998775E+04  2.751832E+05  2.015959E+05 -7.315620E+04
       125   6  1.593009E+05  1.223024E+06  1.481430E+05  9.517509E+05  7.136346E+04 -1.028813E+05
       125   7 -1.127651E+06 -3.524794E+06 -1.102032E+06  8.460412E+05  1.362457E+05 -1.144095E+05
       125   8 -1.629698E+06 -5.262146E+06 -1.501049E+06  1.217955E+05  2.022188E+05 -5.703583E+04
       125   9 -1.905189E+06 -6.993894E+06 -1.891687E+06  7.544040E+05  7.428771E+04  5.817762E+03
       125  10  1.240579E+06  5.999330E+06  1.189606E+06  1.063621E+06  1.558200E-09 -1.035631E-09
       125  11  1.600986E+06  7.731795E+06  1.617941E+06  4.299071E+05 -2.286811E-08 -1.884667E-09
       125  12  2.218780E+06  9.501633E+06  2.182884E+06  1.151296E+06 -5.886597E-09  4.011820E-09
       125  13  5.726811E+04  1.226902E+06  4.456448E+04  9.545156E+05 -5.936602E-09 -2.418230E-10
       125  14 -1.286674E+04  1.215528E+06  5.990127E+04  2.751950E+05 -1.285112E-08  2.830763E-10
       125  15  1.592925E+05  1.223012E+06  1.481136E+05  9.517568E+05 -5.403191E-09 -6.306804E-11
       125  16 -1.127675E+06 -3.524813E+06 -1.102092E+06  8.460538E+05  9.835596E-09  7.876164E-11
       125  17 -1.629743E+06 -5.262160E+06 -1.501132E+06  1.218048E+05 -1.003633E-08  2.150774E-09
       125  18 -1.905195E+06 -6.993896E+06 -1.891697E+06  7.544037E+05 -1.299021E-08 -3.075530E-09
       125  19  1.240601E+06  5.999337E+06  1.189647E+06  1.063626E+06 -1.414141E+05 -3.937028E+04
       125  20  1.601032E+06  7.731814E+06  1.618032E+06  4.298927E+05 -2.009686E+05  8.944243E+04
       125  21  2.218797E+06  9.501683E+06  2.182977E+06  1.151284E+06 -6.839025E+04  2.130233E+05
       125  22  5.728921E+04  1.226909E+06  4.460344E+04  9.545114E+05 -1.388215E+05  3.781349E+04
       125  23 -1.282164E+04  1.215545E+06  5.998775E+04  2.751832E+05 -2.015959E+05  7.315620E+04
       125  24  1.593009E+05  1.223024E+06  1.481430E+05  9.517509E+05 -7.136346E+04  1.028813E+05
       125  25 -1.127651E+06 -3.524794E+06 -1.102032E+06  8.460412E+05 -1.362457E+05  1.144095E+05
       125  26 -1.629698E+06 -5.262146E+06 -1.501049E+06  1.217955E+05 -2.022188E+05  5.703583E+04
       125  27 -1.905189E+06 -6.993894E+06 -1.891687E+06  7.544040E+05 -7.428771E+04 -5.817762E+03
       126   1  1.694034E+07  4.053479E+06  4.091773E+06  1.241293E+06  2.653052E+05 -1.541456E+05
       126   2  1.406924E+07  3.316808E+06  3.275442E+06  2.901147E+05  7.245193E+04 -4.263540E+05
       126   3  1.153818E+07  2.716762E+06  2.668554E+06  1.418850E+06 -1.159708E+05 -3.286654E+05
       126   4  4.874105E+05 -1.069626E+04  6.723308E+04  1.405165E+06  3.958151E+04 -1.510955E+05
       126   5  3.432698E+05 -5.941818E+04  6.270880E+03  3.631229E+05  2.882368E+04 -4.266657E+05
       126   6  4.999248E+05 -2.574541E+03  3.134351E+04  1.404251E+06  2.169832E+04 -3.286950E+05
       126   7 -1.572318E+07 -4.094698E+06 -3.976898E+06  1.565397E+06 -1.803029E+05 -1.481282E+05
       126   8 -1.321245E+07 -3.449160E+06 -3.276106E+06  4.347811E+05 -1.386684E+04 -4.269942E+05
       126   9 -1.042800E+07 -2.730680E+06 -2.614382E+06  1.389723E+06  1.569613E+05 -3.287308E+05
       126  10  1.694026E+07  4.053435E+06  4.091599E+06  1.241325E+06  2.056805E-09 -1.930526E-09
       126  11  1.406919E+07  3.316612E+06  3.275091E+06  2.901394E+05 -6.179600E-09 -4.796688E-09
       126  12  1.153814E+07  2.716643E+06  2.668327E+06  1.418820E+06  1.148522E-08 -3.211830E-09
       126  13  4.874026E+05 -1.072123E+04  6.718716E+04  1.405169E+06 -3.942865E-09  2.925253E-09
       126  14  3.432200E+05 -5.961394E+04  5.927102E+03  3.631328E+05 -6.272849E-09 -2.620103E-09
       126  15  4.998953E+05 -2.690734E+03  3.113947E+04  1.404257E+06  1.294412E-08 -4.008054E-09
       126  16 -1.572322E+07 -4.094731E+06 -3.977001E+06  1.565375E+06 -3.307910E-10 -1.724791E-09
       126  17 -1.321250E+07 -3.449357E+06 -3.276449E+06  4.347763E+05  8.548423E-09 -3.367920E-09
       126  18 -1.042806E+07 -2.730803E+06 -2.614632E+06  1.389765E+06 -1.607954E-08 -2.910504E-09
       126  19  1.694034E+07  4.053479E+06  4.091773E+06  1.241293E+06 -2.653052E+05  1.541456E+05
       126  20  1.406924E+07  3.316808E+06  3.275442E+06  2.901147E+05 -7.245193E+04  4.263540E+05
       126  21  1.153818E+07  2.716762E+06  2.668554E+06  1.418850E+06  1.159708E+05  3.286654E+05
       126  22  4.874105E+05 -1.069626E+04  6.723308E+04  1.405165E+06 -3.958151E+04  1.510955E+05
       126  23  3.432698E+05 -5.941818E+04  6.270880E+03  3.631229E+05 -2.882368E+04  4.266657E+05
       126  24  4.999248E+05 -2.574541E+03  3.134351E+04  1.404251E+06 -2.169832E+04  3.286950E+05
       126  25 -1.572318E+07 -4.094698E+06 -3.976898E+06  1.565397E+06  1.803029E+05  1.481282E+05
       126  26 -1.321245E+07 -3.449160E+06 -3.276106E+06  4.347811E+05  1.386684E+04  4.269942E+05
       126  27 -1.042800E+07 -2.730680E+06 -2.614382E+06  1.389723E+06 -1.569613E+05  3.287308E+05
       127   1  7.668656E+06  1.777411E+06  1.743558E+06  1.428880E+06 -1.477969E+04 -2.131519E+05
       127   2  5.004496E+06  1.128290E+06  1.100743E+06  3.881448E+05 -3.285858E+04 -1.378407E+05
       127   3  2.345739E+06  4.972810E+05  4.712997E+05  1.423742E+06 -5.197446E+04 -3.558975E+04
       127   4  4.518293E+05 -4.899739E+03  1.464496E+04  1.403215E+06  1.510884E+04 -2.131377E+05
       127   5  4.556350E+05  3.161256E+03  1.017333E+04  3.644721E+05  1.006345E+04 -1.375674E+05
       127   6  4.559661E+05  2.746018E+04  1.051085E+04  1.403024E+06  3.902296E+03 -3.494772E+04
       127   7 -6.717689E+06 -1.790977E+06 -1.717950E+06  1.377727E+06  4.465379E+04 -2.131260E+05
       127   8 -4.074377E+06 -1.123464E+06 -1.081855E+06  3.409303E+05  5.267396E+04 -1.372963E+05
       127   9 -1.430552E+06 -4.426213E+05 -4.505260E+05  1.382356E+06  5.960985E+04 -3.430828E+04
       127  10  7.668643E+06  1.777363E+06  1.743473E+06  1.428877E+06  2.543346E-09 -9.079968E-10
       127  11  5.004490E+06  1.128269E+06  1.100705E+06  3.881412E+05 -7.282845E-09  2.730969E-09
       127  12  2.345735E+06  4.972789E+05  4.712923E+05  1.423741E+06 -1.054720E-08  8.540054E-09
       127  13  4.518169E+05 -4.948603E+03  1.455911E+04  1.403217E+06  1.646533E-08  8.491190E-10
       127  14  4.556298E+05  3.140902E+03  1.013756E+04  3.644732E+05  7.037923E-09  5.337477E-09
       127  15  4.559658E+05  2.745886E+04  1.050852E+04  1.403024E+06 -3.056567E-08  5.113634E-09
       127  16 -6.717703E+06 -1.791026E+06 -1.718039E+06  1.377735E+06  2.201404E-09  4.265354E-10
       127  17 -4.074385E+06 -1.123485E+06 -1.081896E+06  3.409361E+05  1.191813E-08  4.517659E-09
       127  18 -1.430556E+06 -4.426235E+05 -4.505349E+05  1.382358E+06 -7.722042E-09 -4.664110E-09
       127  19  7.668656E+06  1.777411E+06  1.743558E+06  1.428880E+06  1.477969E+04  2.131519E+05
       127  20  5.004496E+06  1.128290E+06  1.100743E+06  3.881448E+05  3.285858E+04  1.378407E+05
       127  21  2.345739E+06  4.972810E+05  4.712997E+05  1.423742E+06  5.197446E+04  3.558975E+04
       127  22  4.518293E+05 -4.899739E+03  1.464496E+04  1.403215E+06 -1.510884E+04  2.131377E+05
       127  23  4.556350E+05  3.161256E+03  1.017333E+04  3.644721E+05 -1.006345E+04  1.375674E+05
       127  24  4.559661E+05  2.746018E+04  1.051085E+04  1.403024E+06 -3.902296E+03  3.494772E+04
       127  25 -6.717689E+06 -1.790977E+06 -1.717950E+06  1.377727E+06 -4.465379E+04  2.131260E+05
       127  26 -4.074377E+06 -1.123464E+06 -1.081855E+06  3.409303E+05 -5.267396E+04  1.372963E+05
       127  27 -1.430552E+06 -4.426213E+05 -4.505260E+05  1.382356E+06 -5.960985E+04  3.430828E+04
       128   1 -1.428392E+06 -4.414198E+05 -4.505967E+05  1.381925E+06 -5.535830E+04  3.428462E+04
       128   2 -4.071538E+06 -1.122311E+06 -1.085074E+06  3.412105E+05 -4.647146E+04  1.372724E+05
       128   3 -6.715564E+06 -1.794207E+06 -1.726697E+06  1.378721E+06 -3.650892E+04  2.131101E+05
       128   4  4.556634E+05  2.806156E+04  9.849222E+03  1.403015E+06  3.535175E+02  3.492414E+04
       128   5  4.560210E+05  3.696945E+03  6.361821E+03  3.644740E+05 -3.835714E+03  1.375438E+05
       128   6  4.515302E+05 -8.747085E+03  5.313215E+03  1.403234E+06 -6.909499E+03  2.131223E+05
       128   7  2.342964E+06  4.972830E+05  4.700479E+05  1.424156E+06  5.623431E+04  3.556634E+04
       128   8  5.002408E+06  1.128209E+06  1.096341E+06  3.878662E+05  3.911142E+04  1.378175E+05
       128   9  7.665901E+06  1.772950E+06  1.733645E+06  1.427913E+06  2.303358E+04  2.131369E+05
       128  10 -1.428396E+06 -4.414219E+05 -4.506047E+05  1.381927E+06  1.394777E-09  8.551447E-09
       128  11 -4.071546E+06 -1.122332E+06 -1.085114E+06  3.412156E+05  1.070920E-08  2.275361E-09
       128  12 -6.715578E+06 -1.794257E+06 -1.726785E+06  1.378727E+06 -7.558985E-09 -3.063049E-09
       128  13  4.556630E+05  2.806025E+04  9.846929E+03  1.403015E+06 -1.103095E-08 -6.777643E-10
       128  14  4.560159E+05  3.676622E+03  6.326233E+03  3.644744E+05 -1.581181E-09  9.199545E-10
       128  15  4.515179E+05 -8.795888E+03  5.227734E+03  1.403235E+06  3.757116E-09 -1.063671E-09
       128  16  2.342961E+06  4.972808E+05  4.700396E+05  1.424154E+06  4.094827E-09 -4.588224E-09
       128  17  5.002402E+06  1.128188E+06  1.096302E+06  3.878619E+05  1.822843E-08 -5.107626E-09
       128  18  7.665888E+06  1.772901E+06  1.733558E+06  1.427909E+06  9.139666E-09  1.815633E-09
       128  19 -1.428392E+06 -4.414198E+05 -4.505967E+05  1.381925E+06  5.535830E+04 -3.428462E+04
       128  20 -4.071538E+06 -1.122311E+06 -1.085074E+06  3.412105E+05  4.647146E+04 -1.372724E+05
       128  21 -6.715564E+06 -1.794207E+06 -1.726697E+06  1.378721E+06  3.650892E+04 -2.131101E+05
       128  22  4.556634E+05  2.806156E+04  9.849222E+03  1.403015E+06 -3.535175E+02 -3.492414E+04
       128  23  4.560210E+05  3.696945E+03  6.361821E+03  3.644740E+05  3.835714E+03 -1.375438E+05
       128  24  4.515302E+05 -8.747085E+03  5.313215E+03  1.403234E+06  6.909499E+03 -2.131223E+05
       128  25  2.342964E+06  4.972830E+05  4.700479E+05  1.424156E+06 -5.623431E+04 -3.556634E+04
       128  26  5.002408E+06  1.128209E+06  1.096341E+06  3.878662E+05 -3.911142E+04 -1.378175E+05
       128  27  7.665901E+06  1.772950E+06  1.733645E+06  1.427913E+06 -2.303358E+04 -2.131369E+05
       129   1 -1.042857E+07 -2.728309E+06 -2.625642E+06  1.385144E+06 -1.470411E+05  3.286985E+05
       129   2 -1.320648E+07 -3.443208E+06 -3.294857E+06  4.377910E+05  3.410490E+04  4.268081E+05
       129   3 -1.572349E+07 -4.129904E+06 -4.021234E+06  1.575357E+06  2.108148E+05  1.476664E+05
       129   4  4.971477E+05 -7.286790E+02  1.956935E+04  1.404239E+06 -1.168845E+04  3.286624E+05
       129   5  3.467675E+05 -5.406170E+04 -1.307067E+04  3.631781E+05 -8.352436E+03  4.264776E+05
       129   6  4.846386E+05 -4.605975E+04  2.243114E+04  1.404682E+06 -8.644921E+03  1.506227E+05
       129   7  1.153315E+07  2.718087E+06  2.656270E+06  1.423487E+06  1.260701E+05  3.286346E+05
       129   8  1.407020E+07  3.321575E+06  3.255515E+06  2.871494E+05 -5.174614E+04  4.261645E+05
       129   9  1.693503E+07  4.017970E+06  4.046509E+06  1.230090E+06 -2.339404E+05  1.536696E+05
       129  10 -1.042862E+07 -2.728431E+06 -2.625887E+06  1.385183E+06  2.403722E-09 -3.741445E-09
       129  11 -1.320653E+07 -3.443404E+06 -3.295202E+06  4.377792E+05  7.176027E-09 -5.142156E-09
       129  12 -1.572355E+07 -4.129939E+06 -4.021360E+06  1.575331E+06  1.218264E-08  9.744457E-10
       129  13  4.971186E+05 -8.447483E+02  1.936602E+04  1.404242E+06  6.730103E-11 -2.424452E-09
       129  14  3.467185E+05 -5.425708E+04 -1.341269E+04  3.631810E+05  6.637429E-09 -4.345390E-09
       129  15  4.846324E+05 -4.608414E+04  2.238834E+04  1.404683E+06 -6.778471E-09 -2.478597E-09
       129  16  1.153311E+07  2.717967E+06  2.656038E+06  1.423454E+06 -6.795198E-09 -8.863684E-11
       129  17  1.407014E+07  3.321380E+06  3.255169E+06  2.871670E+05 -1.674082E-08 -8.407710E-09
       129  18  1.693497E+07  4.017930E+06  4.046364E+06  1.230118E+06  4.332022E-10 -2.797857E-09
       129  19 -1.042857E+07 -2.728309E+06 -2.625642E+06  1.385144E+06  1.470411E+05 -3.286985E+05
       129  20 -1.320648E+07 -3.443208E+06 -3.294857E+06  4.377910E+05 -3.410490E+04 -4.268081E+05
       129  21 -1.572349E+07 -4.129904E+06 -4.021234E+06  1.575357E+06 -2.108148E+05 -1.476664E+05
       129  22  4.971477E+05 -7.286790E+02  1.956935E+04  1.404239E+06  1.168845E+04 -3.286624E+05
       129  23  3.467675E+05 -5.406170E+04 -1.307067E+04  3.631781E+05  8.352436E+03 -4.264776E+05
       129  24  4.846386E+05 -4.605975E+04  2.243114E+04  1.404682E+06  8.644921E+03 -1.506227E+05
       129  25  1.153315E+07  2.718087E+06  2.656270E+06  1.423487E+06 -1.260701E+05 -3.286346E+05
       129  26  1.407020E+07  3.321575E+06  3.255515E+06  2.871494E+05  5.174614E+04 -4.261645E+05
       129  27  1.693503E+07  4.017970E+06  4.046509E+06  1.230090E+06  2.339404E+05 -1.536696E+05
       130   1 -3.310304E+06 -1.343113E+07 -3.348816E+06  1.416776E+06 -1.234893E+05 -1.997749E+05
       130   2 -2.525411E+06 -1.028795E+07 -2.477359E+06  2.020399E+05 -3.210545E+05 -2.848291E+04
       130   3 -1.631345E+06 -7.181224E+06 -1.699408E+06  1.445645E+06 -1.987603E+05  1.341153E+05
       130   4  2.634710E+04 -1.925881E+05 -4.751050E+04  1.654429E+06 -1.190258E+05 -2.914734E+04
       130   5  6.223315E+03 -1.783895E+05 -3.227265E+04  4.251465E+05 -3.200901E+05 -8.343717E+03
       130   6  1.235177E+05 -1.815034E+05 -3.566139E+03  1.651766E+06 -2.035920E+05  2.982245E+03
       130   7  3.349831E+06  1.320730E+07  3.240717E+06  1.896017E+06 -1.144819E+05  1.451848E+05
       130   8  2.530427E+06  1.002568E+07  2.405474E+06  6.511954E+05 -3.191205E+05  1.212885E+04
       130   9  1.874856E+06  6.863402E+06  1.688812E+06  1.859757E+06 -2.084828E+05 -1.296385E+05
       130  10 -3.310331E+06 -1.343118E+07 -3.348921E+06  1.416756E+06 -3.058558E-09 -3.407143E-09
       130  11 -2.525522E+06 -1.028798E+07 -2.477554E+06  2.020325E+05  1.563308E-08  6.602268E-09
       130  12 -1.631393E+06 -7.181254E+06 -1.699517E+06  1.445667E+06  7.810547E-09  1.411261E-08
       130  13  2.633168E+04 -1.925928E+05 -4.753867E+04  1.654426E+06 -2.827859E-08  3.121346E-09
       130  14  6.113283E+03 -1.784171E+05 -3.246529E+04  4.251443E+05 -7.641901E-09  8.285942E-10
       130  15  1.234732E+05 -1.815146E+05 -3.644034E+03  1.651766E+06  1.054543E-08  7.099720E-09
       130  16  3.349812E+06  1.320728E+07  3.240653E+06  1.896030E+06 -1.143700E-08  5.225841E-09
       130  17  2.530318E+06  1.002566E+07  2.405282E+06  6.511985E+05 -3.627824E-08 -6.832451E-09
       130  18  1.874805E+06  6.863373E+06  1.688699E+06  1.859735E+06  1.307018E-08 -1.849217E-08
       130  19 -3.310304E+06 -1.343113E+07 -3.348816E+06  1.416776E+06  1.234893E+05  1.997749E+05
       130  20 -2.525411E+06 -1.028795E+07 -2.477359E+06  2.020399E+05  3.210545E+05  2.848291E+04
       130  21 -1.631345E+06 -7.181224E+06 -1.699408E+06  1.445645E+06  1.987603E+05 -1.341153E+05
       130  22  2.634710E+04 -1.925881E+05 -4.751050E+04  1.654429E+06  1.190258E+05  2.914734E+04
       130  23  6.223315E+03 -1.783895E+05 -3.227265E+04  4.251465E+05  3.200901E+05  8.343717E+03
       130  24  1.235177E+05 -1.815034E+05 -3.566139E+03  1.651766E+06  2.035920E+05 -2.982245E+03
       130  25  3.349831E+06  1.320730E+07  3.240717E+06  1.896017E+06  1.144819E+05 -1.451848E+05
       130  26  2.530427E+06  1.002568E+07  2.405474E+06  6.511954E+05  3.191205E+05 -1.212885E+04
       130  27  1.874856E+06  6.863402E+06  1.688812E+06  1.859757E+06  2.084828E+05  1.296385E+05
       131   1 -5.207741E+05 -2.746631E+06 -6.207123E+05  1.585892E+06 -7.918754E+04  4.554216E+04
       131   2  1.871372E+05  4.880355E+05  1.424427E+05  4.407014E+05  1.984862E+04  4.286893E+04
       131   3  1.042193E+06  3.543159E+06  8.946268E+05  1.754706E+06  1.169559E+05  4.041408E+04
       131   4  1.129318E+05 -2.074653E+05 -9.582137E+03  1.653261E+06 -8.107190E+04 -2.368238E+03
       131   5  3.716683E+04 -1.134053E+05 -2.353276E+03  4.238089E+05  1.804183E+04 -4.213804E+03
       131   6  1.090861E+05 -2.081215E+05 -6.049735E+03  1.653372E+06  1.151978E+05 -5.843299E+03
       131   7  7.461752E+05  2.337628E+06  6.010970E+05  1.720842E+06 -8.296260E+04 -5.047466E+04
       131   8 -1.128283E+05 -7.145102E+05 -1.471667E+05  4.069298E+05  1.623671E+04 -5.125108E+04
       131   9 -8.250272E+05 -3.946550E+06 -9.077180E+05  1.552510E+06  1.134492E+05 -5.182319E+04
       131  10 -5.207814E+05 -2.746635E+06 -6.207280E+05  1.585895E+06  1.591661E-08  5.664114E-09
       131  11  1.871363E+05  4.880334E+05  1.424385E+05  4.407007E+05  2.168414E-08  3.729115E-09
       131  12  1.042178E+06  3.543154E+06  8.945981E+05  1.754703E+06 -1.771611E-09 -3.306970E-09
       131  13  1.129247E+05 -2.074670E+05 -9.594493E+03  1.653261E+06  1.952286E-08  4.205184E-09
       131  14  3.716647E+04 -1.134054E+05 -2.353921E+03  4.238090E+05  1.462021E-08 -1.548512E-09
       131  15  1.090718E+05 -2.081251E+05 -6.074740E+03  1.653373E+06  1.203463E-08  8.165512E-09
       131  16  7.461671E+05  2.337623E+06  6.010794E+05  1.720839E+06  2.461258E-08 -4.756191E-09
       131  17 -1.128293E+05 -7.145131E+05 -1.471722E+05  4.069304E+05  3.106873E-08 -6.114265E-10
       131  18 -8.250417E+05 -3.946556E+06 -9.077474E+05  1.552515E+06  8.008200E-09 -4.566520E-10
       131  19 -5.207741E+05 -2.746631E+06 -6.207123E+05  1.585892E+06  7.918754E+04 -4.554216E+04
       131  20  1.871372E+05  4.880355E+05  1.424427E+05  4.407014E+05 -1.984862E+04 -4.286893E+04
       131  21  1.042193E+06  3.543159E+06  8.946268E+05  1.754706E+06 -1.169559E+05 -4.041408E+04
       131  22  1.129318E+05 -2.074653E+05 -9.582137E+03  1.653261E+06  8.107190E+04  2.368238E+03
       131  23  3.716683E+04 -1.134053E+05 -2.353276E+03  4.238089E+05 -1.804183E+04  4.213804E+03
       131  24  1.090861E+05 -2.081215E+05 -6.049735E+03  1.653372E+06 -1.151978E+05  5.843299E+03
       131  25  7.461752E+05  2.337628E+06  6.010970E+05  1.720842E+06  8.296260E+04  5.047466E+04
       131  26 -1.128283E+05 -7.145102E+05 -1.471667E+05  4.069298E+05 -1.623671E+04  5.125108E+04
       131  27 -8.250272E+05 -3.946550E+06 -9.077180E+05  1.552510E+06 -1.134492E+05  5.182319E+04
       132   1  2.167773E+06  8.082778E+06  1.984891E+06  1.883954E+06  2.458184E+05  1.261723E+05
       132   2  2.816272E+06  1.122097E+07  2.701518E+06  6.636879E+05  3.557196E+05 -3.252464E+04
       132   3  3.658792E+06  1.443259E+07  3.564121E+06  1.896008E+06  1.260075E+05 -1.826980E+05
       132   4  1.180120E+05 -1.737130E+05  4.006710E+03  1.651916E+06  2.409303E+05 -1.232460E+04
       132   5 -5.288605E+03 -1.971408E+05 -2.431454E+04  4.252834E+05  3.569153E+05 -5.715609E+03
       132   6  3.698108E+04 -1.860810E+05 -1.990659E+04  1.654102E+06  1.305284E+05  1.028111E+04
       132   7 -1.936595E+06 -8.368215E+06 -1.981644E+06  1.422306E+06  2.361108E+05 -1.490031E+05
       132   8 -2.836155E+06 -1.149705E+07 -2.759326E+06  1.903501E+05  3.581038E+05  2.060795E+04
       132   9 -3.600496E+06 -1.461292E+07 -3.619474E+06  1.416501E+06  1.349600E+05  1.987979E+05
       132  10  2.167704E+06  8.082744E+06  1.984748E+06  1.883929E+06  2.310258E-10  1.914093E-09
       132  11  2.816136E+06  1.122094E+07  2.701278E+06  6.636972E+05 -1.000644E-08 -1.830976E-09
       132  12  3.658767E+06  1.443255E+07  3.564029E+06  1.896026E+06  8.163137E-10 -1.562352E-09
       132  13  1.179497E+05 -1.737287E+05  3.897333E+03  1.651918E+06 -6.744541E-09  4.588534E-09
       132  14 -5.425402E+03 -1.971750E+05 -2.455398E+04  4.252851E+05  3.820709E-09 -5.949686E-11
       132  15  3.696276E+04 -1.860857E+05 -1.993878E+04  1.654101E+06  1.419192E-09  4.458180E-09
       132  16 -1.936661E+06 -8.368254E+06 -1.981792E+06  1.422335E+06  1.662719E-08 -8.434474E-10
       132  17 -2.836293E+06 -1.149708E+07 -2.759568E+06  1.903442E+05 -9.127057E-09  4.762623E-09
       132  18 -3.600526E+06 -1.461297E+07 -3.619584E+06  1.416479E+06 -4.117264E-09  1.383259E-09
       132  19  2.167773E+06  8.082778E+06  1.984891E+06  1.883954E+06 -2.458184E+05 -1.261723E+05
       132  20  2.816272E+06  1.122097E+07  2.701518E+06  6.636879E+05 -3.557196E+05  3.252464E+04
       132  21  3.658792E+06  1.443259E+07  3.564121E+06  1.896008E+06 -1.260075E+05  1.826980E+05
       132  22  1.180120E+05 -1.737130E+05  4.006710E+03  1.651916E+06 -2.409303E+05  1.232460E+04
       132  23 -5.288605E+03 -1.971408E+05 -2.431454E+04  4.252834E+05 -3.569153E+05  5.715609E+03
       132  24  3.698108E+04 -1.860810E+05 -1.990659E+04  1.654102E+06 -1.305284E+05 -1.028111E+04
       132  25 -1.936595E+06 -8.368215E+06 -1.981644E+06  1.422306E+06 -2.361108E+05  1.490031E+05
       132  26 -2.836155E+06 -1.149705E+07 -2.759326E+06  1.903501E+05 -3.581038E+05 -2.060795E+04
       132  27 -3.600496E+06 -1.461292E+07 -3.619474E+06  1.416501E+06 -1.349600E+05 -1.987979E+05
       133   1  1.712115E+07  4.036373E+06  4.078701E+06  1.237106E+06  2.766038E+05 -1.530609E+05
       133   2  1.426407E+07  3.286832E+06  3.256739E+06  2.868995E+05  8.040891E+04 -4.228034E+05
       133   3  1.174791E+07  2.690777E+06  2.649795E+06  1.405231E+06 -1.113466E+05 -3.257097E+05
       133   4  7.950627E+05  4.769514E+03  8.627204E+04  1.395339E+06  5.254715E+04 -1.500275E+05
       133   5  6.501633E+05 -6.092117E+04  1.514130E+04  3.589204E+05  3.708722E+04 -4.231025E+05
       133   6  8.074097E+05 -3.704637E+03  3.670240E+04  1.394238E+06  2.525526E+04 -3.257596E+05
       133   7 -1.529250E+07 -4.046345E+06 -3.925434E+06  1.550106E+06 -1.657631E+05 -1.470726E+05
       133   8 -1.279633E+07 -3.421962E+06 -3.239438E+06  4.296269E+05 -5.312731E+03 -4.234180E+05
       133   9 -1.002475E+07 -2.706794E+06 -2.584748E+06  1.383259E+06  1.594911E+05 -3.258143E+05
       133  10  1.712106E+07  4.036328E+06  4.078516E+06  1.237140E+06 -3.679514E-09 -2.640825E-09
       133  11  1.426401E+07  3.286639E+06  3.256391E+06  2.869266E+05 -7.639180E-09  1.082539E-09
       133  12  1.174787E+07  2.690660E+06  2.649573E+06  1.405202E+06  2.840387E-09  1.690231E-10
       133  13  7.950537E+05  4.744569E+03  8.622446E+04  1.395345E+06 -3.976715E-09  3.982939E-09
       133  14  6.501137E+05 -6.111385E+04  1.480213E+04  3.589331E+05  2.396003E-08 -1.651839E-09
       133  15  8.073805E+05 -3.818831E+03  3.650162E+04  1.394244E+06 -1.071802E-08 -1.877894E-09
       133  16 -1.529253E+07 -4.046376E+06 -3.925527E+06  1.550086E+06 -4.058890E-09 -5.524415E-09
       133  17 -1.279638E+07 -3.422155E+06 -3.239775E+06  4.296251E+05 -3.304110E-09  1.859525E-09
       133  18 -1.002481E+07 -2.706916E+06 -2.584997E+06  1.383301E+06 -1.026339E-08 -2.446932E-09
       133  19  1.712115E+07  4.036373E+06  4.078701E+06  1.237106E+06 -2.766038E+05  1.530609E+05
       133  20  1.426407E+07  3.286832E+06  3.256739E+06  2.868995E+05 -8.040891E+04  4.228034E+05
       133  21  1.174791E+07  2.690777E+06  2.649795E+06  1.405231E+06  1.113466E+05  3.257097E+05
       133  22  7.950627E+05  4.769514E+03  8.627204E+04  1.395339E+06 -5.254715E+04  1.500275E+05
       133  23  6.501633E+05 -6.092117E+04  1.514130E+04  3.589204E+05 -3.708722E+04  4.231025E+05
       133  24  8.074097E+05 -3.704637E+03  3.670240E+04  1.394238E+06 -2.525526E+04  3.257596E+05
       133  25 -1.529250E+07 -4.046345E+06 -3.925434E+06  1.550106E+06  1.657631E+05  1.470726E+05
       133  26 -1.279633E+07 -3.421962E+06 -3.239438E+06  4.296269E+05  5.312731E+03  4.234180E+05
       133  27 -1.002475E+07 -2.706794E+06 -2.584748E+06  1.383259E+06 -1.594911E+05  3.258143E+05
       134   1  7.911658E+06  1.762358E+06  1.732393E+06  1.415915E+06 -1.171477E+04 -2.111569E+05
       134   2  5.273754E+06  1.118273E+06  1.094416E+06  3.857924E+05 -3.114134E+04 -1.366480E+05
       134   3  2.642612E+06  4.937844E+05  4.712691E+05  1.410769E+06 -5.157531E+04 -3.550832E+04
       134   4  7.590309E+05 -3.562839E+03  1.937295E+04  1.391060E+06  1.785235E+04 -2.111478E+05
       134   5  7.619921E+05  2.683969E+03  1.308454E+04  3.629529E+05  1.132925E+04 -1.363869E+05
       134   6  7.630882E+05  2.669852E+04  1.317962E+04  1.390887E+06  3.715616E+03 -3.488774E+04
       134   7 -6.347148E+06 -1.773180E+06 -1.697260E+06  1.366377E+06  4.708258E+04 -2.111411E+05
       134   8 -3.731237E+06 -1.114377E+06 -1.069681E+06  3.402386E+05  5.349421E+04 -1.361279E+05
       134   9 -1.113218E+06 -4.406451E+05 -4.451550E+05  1.371053E+06  5.884009E+04 -3.426962E+04
       134  10  7.911646E+06  1.762310E+06  1.732308E+06  1.415913E+06  6.023812E-09  1.448772E-09
       134  11  5.273748E+06  1.118253E+06  1.094379E+06  3.857890E+05  2.545070E-09  4.122620E-09
       134  12  2.642609E+06  4.937824E+05  4.712618E+05  1.410767E+06  1.501240E-08 -2.163189E-09
       134  13  7.590185E+05 -3.610829E+03  1.928850E+04  1.391063E+06  7.730732E-09 -2.791030E-09
       134  14  7.619870E+05  2.663951E+03  1.304933E+04  3.629542E+05 -1.312277E-09  9.701628E-09
       134  15  7.630878E+05  2.669721E+04  1.317730E+04  1.390887E+06  1.684121E-08 -1.108960E-09
       134  16 -6.347162E+06 -1.773229E+06 -1.697348E+06  1.366385E+06 -1.248968E-09 -1.184371E-09
       134  17 -3.731245E+06 -1.114398E+06 -1.069721E+06  3.402445E+05 -1.254146E-08  3.161291E-09
       134  18 -1.113222E+06 -4.406473E+05 -4.451638E+05  1.371055E+06  1.418281E-09  1.207372E-09
       134  19  7.911658E+06  1.762358E+06  1.732393E+06  1.415915E+06  1.171477E+04  2.111569E+05
       134  20  5.273754E+06  1.118273E+06  1.094416E+06  3.857924E+05  3.114134E+04  1.366480E+05
       134  21  2.642612E+06  4.937844E+05  4.712691E+05  1.410769E+06  5.157531E+04  3.550832E+04
       134  22  7.590309E+05 -3.562839E+03  1.937295E+04  1.391060E+06 -1.785235E+04  2.111478E+05
       134  23  7.619921E+05  2.683969E+03  1.308454E+04  3.629529E+05 -1.132925E+04  1.363869E+05
       134  24  7.630882E+05  2.669852E+04  1.317962E+04  1.390887E+06 -3.715616E+03  3.488774E+04
       134  25 -6.347148E+06 -1.773180E+06 -1.697260E+06  1.366377E+06 -4.708258E+04  2.111411E+05
       134  26 -3.731237E+06 -1.114377E+06 -1.069681E+06  3.402386E+05 -5.349421E+04  1.361279E+05
       134  27 -1.113218E+06 -4.406451E+05 -4.451550E+05  1.371053E+06 -5.884009E+04  3.426962E+04
       135   1 -1.089720E+06 -4.342819E+05 -4.399747E+05  1.370867E+06 -5.538712E+04  3.359337E+04
       135   2 -3.707045E+06 -1.107963E+06 -1.066982E+06  3.405311E+05 -4.849904E+04  1.354474E+05
       135   3 -6.323740E+06 -1.770168E+06 -1.699005E+06  1.367069E+06 -4.055614E+04  2.105023E+05
       135   4  7.627963E+05  2.715782E+04  1.262969E+04  1.390863E+06 -2.694298E+02  3.421187E+04
       135   5  7.624251E+05  3.171614E+03  1.004244E+04  3.629757E+05 -6.305146E+03  1.357081E+05
       135   6  7.587623E+05 -6.479541E+03  1.187952E+04  1.391057E+06 -1.125496E+04  2.105113E+05
       135   7  2.618449E+06  4.883464E+05  4.649953E+05  1.410906E+06  5.501256E+04  3.483286E+04
       135   8  5.250233E+06  1.112850E+06  1.085648E+06  3.855429E+05  3.619286E+04  1.359709E+05
       135   9  7.887403E+06  1.753536E+06  1.719174E+06  1.415208E+06  1.838245E+04  2.105228E+05
       135  10 -1.089723E+06 -4.342840E+05 -4.399826E+05  1.370868E+06  4.842816E-09 -5.108088E-10
       135  11 -3.707053E+06 -1.107983E+06 -1.067021E+06  3.405364E+05  1.047674E-08 -6.631064E-09
       135  12 -6.323753E+06 -1.770216E+06 -1.699091E+06  1.367076E+06 -6.985541E-10 -4.013480E-09
       135  13  7.627960E+05  2.715657E+04  1.262749E+04  1.390863E+06  6.298562E-09 -2.666217E-09
       135  14  7.624201E+05  3.151819E+03  1.000774E+04  3.629763E+05  6.896000E-09 -9.101779E-09
       135  15  7.587503E+05 -6.527187E+03  1.179595E+04  1.391059E+06 -6.054293E-09 -5.979615E-09
       135  16  2.618445E+06  4.883443E+05  4.649874E+05  1.410905E+06  4.733831E-10 -3.598579E-09
       135  17  5.250226E+06  1.112830E+06  1.085611E+06  3.855389E+05 -7.712513E-09  4.481696E-10
       135  18  7.887391E+06  1.753489E+06  1.719090E+06  1.415205E+06 -9.679124E-09  2.243544E-09
       135  19 -1.089720E+06 -4.342819E+05 -4.399747E+05  1.370867E+06  5.538712E+04 -3.359337E+04
       135  20 -3.707045E+06 -1.107963E+06 -1.066982E+06  3.405311E+05  4.849904E+04 -1.354474E+05
       135  21 -6.323740E+06 -1.770168E+06 -1.699005E+06  1.367069E+06  4.055614E+04 -2.105023E+05
       135  22  7.627963E+05  2.715782E+04  1.262969E+04  1.390863E+06  2.694298E+02 -3.421187E+04
       135  23  7.624251E+05  3.171614E+03  1.004244E+04  3.629757E+05  6.305146E+03 -1.357081E+05
       135  24  7.587623E+05 -6.479541E+03  1.187952E+04  1.391057E+06  1.125496E+04 -2.105113E+05
       135  25  2.618449E+06  4.883464E+05  4.649953E+05  1.410906E+06 -5.501256E+04 -3.483286E+04
       135  26  5.250233E+06  1.112850E+06  1.085648E+06  3.855429E+05 -3.619286E+04 -1.359709E+05
       135  27  7.887403E+06  1.753536E+06  1.719174E+06  1.415208E+06 -1.838245E+04 -2.105228E+05
       136   1 -1.000362E+07 -2.699288E+06 -2.588544E+06  1.379357E+06 -1.514034E+05  3.250902E+05
       136   2 -1.276928E+07 -3.411468E+06 -3.249092E+06  4.313067E+05  2.144697E+04  4.225812E+05
       136   3 -1.527073E+07 -4.068763E+06 -3.955501E+06  1.557133E+06  1.899336E+05  1.464960E+05
       136   4  8.050424E+05 -2.075148E+03  2.721201E+04  1.394293E+06 -1.719875E+04  3.250418E+05
       136   5  6.533571E+05 -5.642737E+04 -3.271384E+02  3.588837E+05 -2.065606E+04  4.222632E+05
       136   6  7.927278E+05 -2.343004E+04  5.025577E+04  1.395012E+06 -2.770944E+04  1.494238E+05
       136   7  1.172157E+07  2.686568E+06  2.634647E+06  1.409312E+06  1.193651E+05  3.249999E+05
       136   8  1.424281E+07  3.285375E+06  3.235502E+06  2.851079E+05 -6.367579E+04  4.219618E+05
       136   9  1.709398E+07  4.002454E+06  4.036792E+06  1.229231E+06 -2.510794E+05  1.524355E+05
       136  10 -1.000368E+07 -2.699408E+06 -2.588787E+06  1.379397E+06  7.261108E-09  6.056603E-10
       136  11 -1.276933E+07 -3.411661E+06 -3.249428E+06  4.312994E+05 -3.838793E-09  8.150938E-09
       136  12 -1.527077E+07 -4.068796E+06 -3.955610E+06  1.557110E+06 -4.808489E-09 -7.113132E-10
       136  13  8.050137E+05 -2.188739E+03  2.701278E+04  1.394297E+06 -8.402251E-09  1.568553E-09
       136  14  6.533087E+05 -5.661903E+04 -6.631690E+02  3.588908E+05 -1.060853E-08  7.647776E-09
       136  15  7.927210E+05 -2.345424E+04  5.021231E+04  1.395016E+06 -2.402831E-09 -1.782545E-09
       136  16  1.172153E+07  2.686451E+06  2.634423E+06  1.409281E+06 -1.182462E-08  8.184162E-10
       136  17  1.424276E+07  3.285183E+06  3.235160E+06  2.851294E+05  2.977210E-09  2.920610E-09
       136  18  1.709391E+07  4.002412E+06  4.036632E+06  1.229262E+06 -6.255150E-09 -3.375804E-09
       136  19 -1.000362E+07 -2.699288E+06 -2.588544E+06  1.379357E+06  1.514034E+05 -3.250902E+05
       136  20 -1.276928E+07 -3.411468E+06 -3.249092E+06  4.313067E+05 -2.144697E+04 -4.225812E+05
       136  21 -1.527073E+07 -4.068763E+06 -3.955501E+06  1.557133E+06 -1.899336E+05 -1.464960E+05
       136  22  8.050424E+05 -2.075148E+03  2.721201E+04  1.394293E+06  1.719875E+04 -3.250418E+05
       136  23  6.533571E+05 -5.642737E+04 -3.271384E+02  3.588837E+05  2.065606E+04 -4.222632E+05
       136  24  7.927278E+05 -2.343004E+04  5.025577E+04  1.395012E+06  2.770944E+04 -1.494238E+05
       136  25  1.172157E+07  2.686568E+06  2.634647E+06  1.409312E+06 -1.193651E+05 -3.249999E+05
       136  26  1.424281E+07  3.285375E+06  3.235502E+06  2.851079E+05  6.367579E+04 -4.219618E+05
       136  27  1.709398E+07  4.002454E+06  4.036792E+06  1.229231E+06  2.510794E+05 -1.524355E+05
       137   1 -3.304349E+06 -1.323853E+07 -3.348612E+06  1.423044E+06 -1.229072E+05 -2.154030E+05
       137   2 -2.499154E+06 -1.010022E+07 -2.465836E+06  2.079473E+05 -3.185491E+05 -3.959458E+04
       137   3 -1.610901E+06 -7.006816E+06 -1.686387E+06  1.443883E+06 -1.965614E+05  1.276290E+05
       137   4  6.661566E+03 -9.812022E+04 -7.234703E+04  1.652635E+06 -1.184888E+05 -4.634033E+04
       137   5  9.575149E+03 -7.974168E+04 -4.272991E+04  4.267300E+05 -3.176059E+05 -1.989739E+04
       137   6  1.237962E+05 -8.715989E+04 -1.012983E+04  1.649463E+06 -2.013514E+05 -2.846347E+03
       137   7  3.304698E+06  1.320121E+07  3.191037E+06  1.885967E+06 -1.139949E+05  1.263679E+05
       137   8  2.511005E+06  1.003357E+07  2.373168E+06  6.483657E+05 -3.166578E+05  1.241335E+02
       137   9  1.855051E+06  6.876643E+06  1.662744E+06  1.856893E+06 -2.062005E+05 -1.347844E+05
       137  10 -3.304378E+06 -1.323859E+07 -3.348729E+06  1.423023E+06 -9.726477E-09 -3.144351E-09
       137  11 -2.499264E+06 -1.010025E+07 -2.466030E+06  2.079371E+05 -9.620373E-09  1.961394E-08
       137  12 -1.610947E+06 -7.006844E+06 -1.686491E+06  1.443903E+06  1.396072E-08  2.124205E-08
       137  13  6.645936E+03 -9.812627E+04 -7.237738E+04  1.652631E+06 -3.055061E-08  6.071393E-09
       137  14  9.466729E+03 -7.976918E+04 -4.292019E+04  4.267249E+05 -2.893009E-09  5.470159E-10
       137  15  1.237526E+05 -8.717078E+04 -1.020600E+04  1.649462E+06  1.020873E-08  1.857566E-08
       137  16  3.304680E+06  1.320119E+07  3.190983E+06  1.885979E+06 -5.134047E-09  3.319671E-09
       137  17  2.510897E+06  1.003354E+07  2.372980E+06  6.483658E+05 -2.319326E-08 -3.544674E-08
       137  18  1.855001E+06  6.876613E+06  1.662630E+06  1.856870E+06 -3.273747E-09 -2.198054E-08
       137  19 -3.304349E+06 -1.323853E+07 -3.348612E+06  1.423044E+06  1.229072E+05  2.154030E+05
       137  20 -2.499154E+06 -1.010022E+07 -2.465836E+06  2.079473E+05  3.185491E+05  3.959458E+04
       137  21 -1.610901E+06 -7.006816E+06 -1.686387E+06  1.443883E+06  1.965614E+05 -1.276290E+05
       137  22  6.661566E+03 -9.812022E+04 -7.234703E+04  1.652635E+06  1.184888E+05  4.634033E+04
       137  23  9.575149E+03 -7.974168E+04 -4.272991E+04  4.267300E+05  3.176059E+05  1.989739E+04
       137  24  1.237962E+05 -8.715989E+04 -1.012983E+04  1.649463E+06  2.013514E+05  2.846347E+03
       137  25  3.304698E+06  1.320121E+07  3.191037E+06  1.885967E+06  1.139949E+05 -1.263679E+05
       137  26  2.511005E+06  1.003357E+07  2.373168E+06  6.483657E+05  3.166578E+05 -1.241335E+02
       137  27  1.855051E+06  6.876643E+06  1.662744E+06  1.856893E+06  2.062005E+05  1.347844E+05
       138   1 -5.075088E+05 -2.586586E+06 -6.102394E+05  1.586055E+06 -7.750955E+04  4.068728E+04
       138   2  2.002047E+05  6.360267E+05  1.530570E+05  4.442921E+05  2.127202E+04  3.894983E+04
       138   3  1.051737E+06  3.680237E+06  9.043966E+05  1.752534E+06  1.179460E+05  3.745338E+04
       138   4  1.100879E+05 -1.112041E+05 -1.461524E+04  1.650767E+06 -7.938306E+04 -7.140764E+03
       138   5  3.719429E+04 -1.776948E+04 -4.322444E+03  4.258525E+05  1.948198E+04 -7.956393E+03
       138   6  1.086399E+05 -1.119106E+05 -6.000295E+03  1.650782E+06  1.162104E+05 -8.537893E+03
       138   7  7.272451E+05  2.369811E+06  5.805809E+05  1.715676E+06 -8.126261E+04 -5.515950E+04
       138   8 -1.258455E+05 -6.711698E+05 -1.617241E+05  4.074287E+05  1.769376E+04 -5.481339E+04
       138   9 -8.354847E+05 -3.890927E+06 -9.174107E+05  1.549509E+06  1.144843E+05 -5.425029E+04
       138  10 -5.075157E+05 -2.586590E+06 -6.102538E+05  1.586058E+06  2.786288E-08  1.461247E-09
       138  11  2.002038E+05  6.360250E+05  1.530533E+05  4.442914E+05  8.518639E-09  2.310302E-08
       138  12  1.051721E+06  3.680232E+06  9.043679E+05  1.752531E+06  7.269409E-09  1.433999E-08
       138  13  1.100812E+05 -1.112059E+05 -1.462717E+04  1.650766E+06  2.114722E-08  9.282822E-09
       138  14  3.719386E+04 -1.776966E+04 -4.323276E+03  4.258527E+05  5.497638E-09 -8.132031E-10
       138  15  1.086254E+05 -1.119143E+05 -6.025818E+03  1.650783E+06  1.804620E-08  1.908365E-08
       138  16  7.272372E+05  2.369806E+06  5.805628E+05  1.715672E+06  1.345587E-08 -3.467629E-09
       138  17 -1.258467E+05 -6.711731E+05 -1.617304E+05  4.074295E+05  8.268345E-09 -4.001381E-08
       138  18 -8.354996E+05 -3.890934E+06 -9.174409E+05  1.549515E+06  3.644510E-09 -1.481492E-08
       138  19 -5.075088E+05 -2.586586E+06 -6.102394E+05  1.586055E+06  7.750955E+04 -4.068728E+04
       138  20  2.002047E+05  6.360267E+05  1.530570E+05  4.442921E+05 -2.127202E+04 -3.894983E+04
       138  21  1.051737E+06  3.680237E+06  9.043966E+05  1.752534E+06 -1.179460E+05 -3.745338E+04
       138  22  1.100879E+05 -1.112041E+05 -1.461524E+04  1.650767E+06  7.938306E+04  7.140764E+03
       138  23  3.719429E+04 -1.776948E+04 -4.322444E+03  4.258525E+05 -1.948198E+04  7.956393E+03
       138  24  1.086399E+05 -1.119106E+05 -6.000295E+03  1.650782E+06 -1.162104E+05  8.537893E+03
       138  25  7.272451E+05  2.369811E+06  5.805809E+05  1.715676E+06  8.126261E+04  5.515950E+04
       138  26 -1.258455E+05 -6.711698E+05 -1.617241E+05  4.074287E+05 -1.769376E+04  5.481339E+04
       138  27 -8.354847E+05 -3.890927E+06 -9.174107E+05  1.549509E+06 -1.144843E+05  5.425029E+04
       139   1  2.171817E+06  8.204423E+06  1.991377E+06  1.880224E+06  2.464956E+05  1.232460E+05
       139   2  2.818550E+06  1.133148E+07  2.707673E+06  6.638176E+05  3.560200E+05 -3.692304E+04
       139   3  3.664975E+06  1.453595E+07  3.572813E+06  1.892711E+06  1.260094E+05 -1.886710E+05
       139   4  1.163652E+05 -7.688931E+04  4.859671E+03  1.649843E+06  2.416519E+05 -1.504360E+04
       139   5 -6.463298E+03 -1.023524E+05 -2.158613E+04  4.267696E+05  3.572158E+05 -9.893740E+03
       139   6  4.201941E+04 -8.922879E+04 -1.238585E+04  1.651854E+06  1.304838E+05  4.546550E+03
       139   7 -1.943963E+06 -8.295851E+06 -1.986452E+06  1.421877E+06  2.368762E+05 -1.515122E+05
       139   8 -2.840806E+06 -1.141768E+07 -2.760047E+06  1.931784E+05  3.584044E+05  1.664607E+04
       139   9 -3.596613E+06 -1.452245E+07 -3.613135E+06  1.415291E+06  1.348689E+05  1.932961E+05
       139  10  2.171748E+06  8.204390E+06  1.991235E+06  1.880200E+06  8.045952E-09  3.860664E-10
       139  11  2.818414E+06  1.133144E+07  2.707432E+06  6.638282E+05 -2.740771E-08  1.053649E-08
       139  12  3.664949E+06  1.453591E+07  3.572718E+06  1.892730E+06 -3.094879E-09  6.582593E-09
       139  13  1.163024E+05 -7.690524E+04  4.749485E+03  1.649846E+06 -4.855412E-09  9.356259E-09
       139  14 -6.600350E+03 -1.023867E+05 -2.182611E+04  4.267725E+05 -2.558793E-08  1.475463E-10
       139  15  4.200113E+04 -8.923338E+04 -1.241788E+04  1.651854E+06 -1.249202E-08  1.062487E-08
       139  16 -1.944030E+06 -8.295891E+06 -1.986602E+06  1.421906E+06  2.068144E-08 -1.708719E-09
       139  17 -2.840945E+06 -1.141771E+07 -2.760289E+06  1.931736E+05 -2.042698E-08 -2.125006E-08
       139  18 -3.596642E+06 -1.452249E+07 -3.613240E+06  1.415270E+06 -1.846360E-08 -4.234969E-09
       139  19  2.171817E+06  8.204423E+06  1.991377E+06  1.880224E+06 -2.464956E+05 -1.232460E+05
       139  20  2.818550E+06  1.133148E+07  2.707673E+06  6.638176E+05 -3.560200E+05  3.692304E+04
       139  21  3.664975E+06  1.453595E+07  3.572813E+06  1.892711E+06 -1.260094E+05  1.886710E+05
       139  22  1.163652E+05 -7.688931E+04  4.859671E+03  1.649843E+06 -2.416519E+05  1.504360E+04
       139  23 -6.463298E+03 -1.023524E+05 -2.158613E+04  4.267696E+05 -3.572158E+05  9.893740E+03
       139  24  4.201941E+04 -8.922879E+04 -1.238585E+04  1.651854E+06 -1.304838E+05 -4.546550E+03
       139  25 -1.943963E+06 -8.295851E+06 -1.986452E+06  1.421877E+06 -2.368762E+05  1.515122E+05
       139  26 -2.840806E+06 -1.141768E+07 -2.760047E+06  1.931784E+05 -3.584044E+05 -1.664607E+04
       139  27 -3.596613E+06 -1.452245E+07 -3.613135E+06  1.415291E+06 -1.348689E+05 -1.932961E+05
       140   1  1.736261E+07  4.038125E+06  4.087668E+06  1.239914E+06  2.986847E+05 -1.523706E+05
       140   2  1.451234E+07  3.260887E+06  3.250303E+06  2.858603E+05  9.525568E+04 -4.200344E+05
       140   3  1.200851E+07  2.669261E+06  2.639884E+06  1.393561E+06 -1.037412E+05 -3.233424E+05
       140   4  1.133729E+06  3.214885E+04  1.203420E+05  1.388210E+06  7.576646E+04 -1.493674E+05
       140   5  9.857116E+05 -6.431823E+04  3.052365E+04  3.550426E+05  5.208882E+04 -4.203263E+05
       140   6  1.145960E+06 -5.130958E+03  4.629339E+04  1.386762E+06  3.200742E+04 -3.233984E+05
       140   7 -1.485957E+07 -3.993097E+06 -3.866016E+06  1.533311E+06 -1.414768E+05 -1.464354E+05
       140   8 -1.237573E+07 -3.402631E+06 -3.202061E+06  4.229795E+05  9.831436E+03 -4.206341E+05
       140   9 -9.609847E+06 -2.688002E+06 -2.555529E+06  1.379908E+06  1.654217E+05 -3.234574E+05
       140  10  1.736251E+07  4.038077E+06  4.087460E+06  1.239951E+06 -9.997932E-10  5.134436E-09
       140  11  1.451228E+07  3.260695E+06  3.249954E+06  2.858922E+05  1.302247E-08  1.067131E-08
       140  12  1.200847E+07  2.669146E+06  2.639668E+06  1.393535E+06  9.924616E-09  6.587228E-09
       140  13  1.133717E+06  3.212330E+04  1.202892E+05  1.388219E+06 -3.924422E-09 -4.249104E-10
       140  14  9.856612E+05 -6.450879E+04  3.018631E+04  3.550603E+05  1.989610E-08 -4.570439E-09
       140  15  1.145931E+06 -5.243633E+03  4.609472E+04  1.386770E+06  2.150974E-08  7.189864E-09
       140  16 -1.485960E+07 -3.993125E+06 -3.866094E+06  1.533294E+06 -5.691477E-09  2.838330E-09
       140  17 -1.237578E+07 -3.402822E+06 -3.202394E+06  4.229829E+05 -1.072251E-08 -4.565312E-09
       140  18 -9.609905E+06 -2.688122E+06 -2.555779E+06  1.379952E+06 -9.631414E-09  7.232635E-09
       140  19  1.736261E+07  4.038125E+06  4.087668E+06  1.239914E+06 -2.986847E+05  1.523706E+05
       140  20  1.451234E+07  3.260887E+06  3.250303E+06  2.858603E+05 -9.525568E+04  4.200344E+05
       140  21  1.200851E+07  2.669261E+06  2.639884E+06  1.393561E+06  1.037412E+05  3.233424E+05
       140  22  1.133729E+06  3.214885E+04  1.203420E+05  1.388210E+06 -7.576646E+04  1.493674E+05
       140  23  9.857116E+05 -6.431823E+04  3.052365E+04  3.550426E+05 -5.208882E+04  4.203263E+05
       140  24  1.145960E+06 -5.130958E+03  4.629339E+04  1.386762E+06 -3.200742E+04  3.233984E+05
       140  25 -1.485957E+07 -3.993097E+06 -3.866016E+06  1.533311E+06  1.414768E+05  1.464354E+05
       140  26 -1.237573E+07 -3.402631E+06 -3.202061E+06  4.229795E+05 -9.831436E+03  4.206341E+05
       140  27 -9.609847E+06 -2.688002E+06 -2.555529E+06  1.379908E+06 -1.654217E+05  3.234574E+05
       141   1  8.198581E+06  1.752203E+06  1.727926E+06  1.406160E+06 -6.165598E+03 -2.095443E+05
       141   2  5.582853E+06  1.110529E+06  1.092257E+06  3.847628E+05 -2.792795E+04 -1.357394E+05
       141   3  2.975490E+06  4.921186E+05  4.739556E+05  1.400039E+06 -5.067005E+04 -3.557540E+04
       141   4  1.096329E+06 -6.870377E+02  2.755062E+04  1.381087E+06  2.310780E+04 -2.095373E+05
       141   5  1.098400E+06  2.086909E+03  1.785262E+04  3.622104E+05  1.414652E+04 -1.354850E+05
       141   6  1.100324E+06  2.632011E+04  1.715746E+04  1.380933E+06  4.113352E+03 -3.496820E+04
       141   7 -5.960152E+06 -1.757219E+06 -1.676385E+06  1.356188E+06  5.204987E+04 -2.095327E+05
       141   8 -3.367753E+06 -1.107808E+06 -1.057967E+06  3.397810E+05  5.592011E+04 -1.352328E+05
       141   9 -7.716419E+05 -4.397347E+05 -4.398846E+05  1.361873E+06  5.873230E+04 -3.436331E+04
       141  10  8.198570E+06  1.752156E+06  1.727843E+06  1.406159E+06  1.647525E-08  4.608066E-09
       141  11  5.582847E+06  1.110509E+06  1.092220E+06  3.847597E+05 -2.308995E-09 -4.282084E-09
       141  12  2.975487E+06  4.921166E+05  4.739484E+05  1.400037E+06 -7.911467E-09 -1.616298E-10
       141  13  1.096316E+06 -7.343684E+02  2.746701E+04  1.381091E+06  2.498098E-08  3.581242E-09
       141  14  1.098395E+06  2.067133E+03  1.781773E+04  3.622119E+05 -9.922578E-09 -1.189270E-09
       141  15  1.100323E+06  2.631879E+04  1.715512E+04  1.380933E+06 -1.102021E-09  6.600142E-09
       141  16 -5.960167E+06 -1.757267E+06 -1.676473E+06  1.356197E+06 -5.981639E-09  4.836780E-09
       141  17 -3.367761E+06 -1.107828E+06 -1.058007E+06  3.397871E+05  1.305352E-08 -1.194929E-08
       141  18 -7.716459E+05 -4.397369E+05 -4.398933E+05  1.361875E+06  1.881703E-09  4.615024E-10
       141  19  8.198581E+06  1.752203E+06  1.727926E+06  1.406160E+06  6.165598E+03  2.095443E+05
       141  20  5.582853E+06  1.110529E+06  1.092257E+06  3.847628E+05  2.792795E+04  1.357394E+05
       141  21  2.975490E+06  4.921186E+05  4.739556E+05  1.400039E+06  5.067005E+04  3.557540E+04
       141  22  1.096329E+06 -6.870377E+02  2.755062E+04  1.381087E+06 -2.310780E+04  2.095373E+05
       141  23  1.098400E+06  2.086909E+03  1.785262E+04  3.622104E+05 -1.414652E+04  1.354850E+05
       141  24  1.100324E+06  2.632011E+04  1.715746E+04  1.380933E+06 -4.113352E+03  3.496820E+04
       141  25 -5.960152E+06 -1.757219E+06 -1.676385E+06  1.356188E+06 -5.204987E+04  2.095327E+05
       141  26 -3.367753E+06 -1.107808E+06 -1.057967E+06  3.397810E+05 -5.592011E+04  1.352328E+05
       141  27 -7.716419E+05 -4.397347E+05 -4.398846E+05  1.361873E+06 -5.873230E+04  3.436331E+04
       142   1 -7.202658E+05 -4.264474E+05 -4.280134E+05  1.361903E+06 -5.514117E+04  3.284690E+04
       142   2 -3.315406E+06 -1.094338E+06 -1.048566E+06  3.401321E+05 -5.077304E+04  1.337043E+05
       142   3 -5.908666E+06 -1.747041E+06 -1.671503E+06  1.356792E+06 -4.536329E+04  2.080843E+05
       142   4  1.099964E+06  2.676250E+04  1.656974E+04  1.380913E+06 -5.401461E+02  3.345258E+04
       142   5  1.098997E+06  2.657772E+03  1.475231E+04  3.622285E+05 -8.960327E+03  1.339601E+05
       142   6  1.096018E+06 -3.465072E+03  1.985825E+04  1.381087E+06 -1.631839E+04  2.080939E+05
       142   7  2.923219E+06  4.797300E+05  4.609227E+05  1.399967E+06  5.422072E+04  3.406058E+04
       142   8  5.531277E+06  1.098235E+06  1.076688E+06  3.844443E+05  3.314992E+04  1.342179E+05
       142   9  8.145803E+06  1.736523E+06  1.707711E+06  1.405547E+06  1.305619E+04  2.081059E+05
       142  10 -7.202694E+05 -4.264494E+05 -4.280212E+05  1.361904E+06  6.442996E-09 -2.659933E-09
       142  11 -3.315414E+06 -1.094358E+06 -1.048604E+06  3.401376E+05 -6.902951E-09  6.251254E-09
       142  12 -5.908680E+06 -1.747088E+06 -1.671588E+06  1.356800E+06  2.876309E-09  6.587483E-10
       142  13  1.099963E+06  2.676130E+04  1.656764E+04  1.380913E+06 -2.285663E-09 -2.095012E-09
       142  14  1.098992E+06  2.638470E+03  1.471842E+04  3.622294E+05 -1.890939E-09 -1.308333E-08
       142  15  1.096006E+06 -3.511679E+03  1.977630E+04  1.381090E+06  1.032368E-08 -3.381980E-10
       142  16  2.923216E+06  4.797280E+05  4.609151E+05  1.399966E+06  4.075400E-09 -8.239944E-10
       142  17  5.531271E+06  1.098215E+06  1.076652E+06  3.844407E+05 -1.242172E-08 -5.236488E-09
       142  18  8.145791E+06  1.736476E+06  1.707630E+06  1.405545E+06 -2.243366E-09  6.194245E-09
       142  19 -7.202658E+05 -4.264474E+05 -4.280134E+05  1.361903E+06  5.514117E+04 -3.284690E+04
       142  20 -3.315406E+06 -1.094338E+06 -1.048566E+06  3.401321E+05  5.077304E+04 -1.337043E+05
       142  21 -5.908666E+06 -1.747041E+06 -1.671503E+06  1.356792E+06  4.536329E+04 -2.080843E+05
       142  22  1.099964E+06  2.676250E+04  1.656974E+04  1.380913E+06  5.401461E+02 -3.345258E+04
       142  23  1.098997E+06  2.657772E+03  1.475231E+04  3.622285E+05  8.960327E+03 -1.339601E+05
       142  24  1.096018E+06 -3.465072E+03  1.985825E+04  1.381087E+06  1.631839E+04 -2.080939E+05
       142  25  2.923219E+06  4.797300E+05  4.609227E+05  1.399967E+06 -5.422072E+04 -3.406058E+04
       142  26  5.531277E+06  1.098235E+06  1.076688E+06  3.844443E+05 -3.314992E+04 -1.342179E+05
       142  27  8.145803E+06  1.736523E+06  1.707711E+06  1.405547E+06 -1.305619E+04 -2.081059E+05
       143   1 -9.560580E+06 -2.673154E+06 -2.552730E+06  1.375350E+06 -1.569611E+05  3.218279E+05
       143   2 -1.231979E+07 -3.384639E+06 -3.205136E+06  4.241315E+05  6.581237E+03  4.189038E+05
       143   3 -1.480984E+07 -4.008827E+06 -3.890006E+06  1.539042E+06  1.658774E+05  1.455809E+05
       143   4  1.143357E+06 -3.276893E+03  3.650605E+04  1.386620E+06 -2.371458E+04  3.217834E+05
       143   5  9.894766E+05 -5.946957E+04  1.472334E+04  3.552529E+05 -3.523039E+04  4.185923E+05
       143   6  1.131184E+06  3.457256E+03  8.331819E+04  1.387670E+06 -5.027564E+04  1.484626E+05
       143   7  1.195301E+07  2.658204E+06  2.617590E+06  1.397913E+06  1.118509E+05  3.217438E+05
       143   8  1.446263E+07  3.252695E+06  3.221877E+06  2.851070E+05 -7.794142E+04  4.182968E+05
       143   9  1.730623E+07  3.996601E+06  4.037733E+06  1.232938E+06 -2.720633E+05  1.514202E+05
       143  10 -9.560635E+06 -2.673273E+06 -2.552973E+06  1.375391E+06 -1.972647E-09  9.121725E-10
       143  11 -1.231984E+07 -3.384828E+06 -3.205466E+06  4.241293E+05 -3.586722E-09  2.391125E-09
       143  12 -1.480987E+07 -4.008857E+06 -3.890098E+06  1.539022E+06  2.008756E-10  4.907580E-09
       143  13  1.143328E+06 -3.388316E+03  3.631023E+04  1.386626E+06 -8.219916E-09  1.724637E-09
       143  14  9.894282E+05 -5.965816E+04  1.439151E+04  3.552648E+05  2.012428E-08 -1.327173E-08
       143  15  1.131175E+06  3.432874E+03  8.327193E+04  1.387676E+06  2.900198E-09  1.314313E-09
       143  16  1.195297E+07  2.658089E+06  2.617372E+06  1.397884E+06  3.326488E-09  9.327114E-09
       143  17  1.446258E+07  3.252506E+06  3.221537E+06  2.851330E+05  2.325326E-09 -1.863459E-09
       143  18  1.730615E+07  3.996557E+06  4.037555E+06  1.232971E+06  4.629945E-10  3.883288E-09
       143  19 -9.560580E+06 -2.673154E+06 -2.552730E+06  1.375350E+06  1.569611E+05 -3.218279E+05
       143  20 -1.231979E+07 -3.384639E+06 -3.205136E+06  4.241315E+05 -6.581237E+03 -4.189038E+05
       143  21 -1.480984E+07 -4.008827E+06 -3.890006E+06  1.539042E+06 -1.658774E+05 -1.455809E+05
       143  22  1.143357E+06 -3.276893E+03  3.650605E+04  1.386620E+06  2.371458E+04 -3.217834E+05
       143  23  9.894766E+05 -5.946957E+04  1.472334E+04  3.552529E+05  3.523039E+04 -4.185923E+05
       143  24  1.131184E+06  3.457256E+03  8.331819E+04  1.387670E+06  5.027564E+04 -1.484626E+05
       143  25  1.195301E+07  2.658204E+06  2.617590E+06  1.397913E+06 -1.118509E+05 -3.217438E+05
       143  26  1.446263E+07  3.252695E+06  3.221877E+06  2.851070E+05  7.794142E+04 -4.182968E+05
       143  27  1.730623E+07  3.996601E+06  4.037733E+06  1.232938E+06  2.720633E+05 -1.514202E+05
       144   1 -3.275661E+06 -1.300350E+07 -3.326330E+06  1.412411E+06 -1.214045E+05 -2.335427E+05
       144   2 -2.453265E+06 -9.906158E+06 -2.438702E+06  2.098410E+05 -3.136950E+05 -5.315678E+04
       144   3 -1.582646E+06 -6.863507E+06 -1.666233E+06  1.422078E+06 -1.934161E+05  1.188791E+05
       144   4 -1.879570E+04 -7.390659E+04 -1.031953E+05  1.629229E+06 -1.170885E+05 -6.743302E+04
       144   5  1.350859E+04 -5.076617E+04 -5.588301E+04  4.210969E+05 -3.127821E+05 -3.394067E+04
       144   6  1.220644E+05 -6.327501E+04 -1.902748E+04  1.625473E+06 -1.980885E+05 -9.620306E+03
       144   7  3.225505E+06  1.300951E+07  3.107472E+06  1.849484E+06 -1.127039E+05  1.022038E+05
       144   8  2.473220E+06  9.894400E+06  2.319965E+06  6.350547E+05 -3.118646E+05 -1.441202E+04
       144   9  1.823453E+06  6.779588E+06  1.624911E+06  1.830675E+06 -2.028186E+05 -1.395347E+05
       144  10 -3.275691E+06 -1.300357E+07 -3.326462E+06  1.412388E+06 -1.500264E-08 -3.178364E-08
       144  11 -2.453372E+06 -9.906187E+06 -2.438892E+06  2.098275E+05 -2.485392E-08 -9.870994E-09
       144  12 -1.582690E+06 -6.863533E+06 -1.666331E+06  1.422096E+06  1.063691E-08  2.229334E-08
       144  13 -1.881161E+04 -7.391512E+04 -1.032296E+05  1.629222E+06 -2.245565E-08  1.021348E-11
       144  14  1.340323E+04 -5.079366E+04 -5.606898E+04  4.210884E+05 -1.380125E-08 -1.535547E-08
       144  15  1.220223E+05 -6.328563E+04 -1.910135E+04  1.625472E+06 -5.632585E-09  2.945801E-08
       144  16  3.225488E+06  1.300949E+07  3.107429E+06  1.849494E+06 -1.399284E-08  1.482586E-08
       144  17  2.473115E+06  9.894374E+06  2.319782E+06  6.350511E+05 -4.854851E-08 -8.016244E-09
       144  18  1.823404E+06  6.779556E+06  1.624798E+06  1.830652E+06 -4.471578E-09 -1.391960E-08
       144  19 -3.275661E+06 -1.300350E+07 -3.326330E+06  1.412411E+06  1.214045E+05  2.335427E+05
       144  20 -2.453265E+06 -9.906158E+06 -2.438702E+06  2.098410E+05  3.136950E+05  5.315678E+04
       144  21 -1.582646E+06 -6.863507E+06 -1.666233E+06  1.422078E+06  1.934161E+05 -1.188791E+05
       144  22 -1.879570E+04 -7.390659E+04 -1.031953E+05  1.629229E+06  1.170885E+05  6.743302E+04
       144  23  1.350859E+04 -5.076617E+04 -5.588301E+04  4.210969E+05  3.127821E+05  3.394067E+04
       144  24  1.220644E+05 -6.327501E+04 -1.902748E+04  1.625473E+06  1.980885E+05  9.620306E+03
       144  25  3.225505E+06  1.300951E+07  3.107472E+06  1.849484E+06  1.127039E+05 -1.022038E+05
       144  26  2.473220E+06  9.894400E+06  2.319965E+06  6.350547E+05  3.118646E+05  1.441202E+04
       144  27  1.823453E+06  6.779588E+06  1.624911E+06  1.830675E+06  2.028186E+05  1.395347E+05
       145   1 -4.996049E+05 -2.507507E+06 -6.046222E+05  1.565014E+06 -7.611795E+04  3.477736E+04
       145   2  2.011446E+05  6.663236E+05  1.504881E+05  4.389085E+05  2.127960E+04  3.509239E+04
       145   3  1.038404E+06  3.664973E+06  8.917025E+05  1.725982E+06  1.165414E+05  3.565723E+04
       145   4  1.046892E+05 -8.475634E+04 -2.173462E+04  1.626890E+06 -7.794621E+04 -1.236676E+04
       145   5  3.674662E+04  6.934406E+03 -8.232074E+03  4.203333E+05  1.953469E+04 -1.110531E+04
       145   6  1.058125E+05 -8.545458E+04 -8.664127E+03  1.626809E+06  1.148513E+05 -9.610579E+03
       145   7  7.085621E+05  2.343390E+06  5.607431E+05  1.688951E+06 -7.978011E+04 -5.969480E+04
       145   8 -1.276814E+05 -6.520523E+05 -1.669753E+05  4.017742E+05  1.779159E+04 -5.725412E+04
       145   9 -8.277847E+05 -3.823039E+06 -9.100221E+05  1.528097E+06  1.131703E+05 -5.460689E+04
       145  10 -4.996115E+05 -2.507510E+06 -6.046354E+05  1.565016E+06  1.991387E-08 -2.555736E-08
       145  11  2.011438E+05  6.663222E+05  1.504850E+05  4.389079E+05 -1.068808E-08 -5.763458E-09
       145  12  1.038389E+06  3.664968E+06  8.916746E+05  1.725978E+06  6.224640E-09  1.730281E-08
       145  13  1.046826E+05 -8.475813E+04 -2.174631E+04  1.626889E+06  1.358787E-08 -1.013235E-09
       145  14  3.674618E+04  6.934171E+03 -8.233023E+03  4.203335E+05 -9.737485E-10 -2.046568E-08
       145  15  1.057983E+05 -8.545823E+04 -8.689098E+03  1.626810E+06  2.274261E-08  3.123163E-08
       145  16  7.085543E+05  2.343384E+06  5.607245E+05  1.688947E+06  8.135269E-09 -5.322508E-09
       145  17 -1.276826E+05 -6.520559E+05 -1.669820E+05  4.017750E+05  1.166527E-08 -1.518023E-08
       145  18 -8.277993E+05 -3.823046E+06 -9.100519E+05  1.528102E+06  1.474974E-08 -9.253359E-09
       145  19 -4.996049E+05 -2.507507E+06 -6.046222E+05  1.565014E+06  7.611795E+04 -3.477736E+04
       145  20  2.011446E+05  6.663236E+05  1.504881E+05  4.389085E+05 -2.127960E+04 -3.509239E+04
       145  21  1.038404E+06  3.664973E+06  8.917025E+05  1.725982E+06 -1.165414E+05 -3.565723E+04
       145  22  1.046892E+05 -8.475634E+04 -2.173462E+04  1.626890E+06  7.794621E+04  1.236676E+04
       145  23  3.674662E+04  6.934406E+03 -8.232074E+03  4.203333E+05 -1.953469E+04  1.110531E+04
       145  24  1.058125E+05 -8.545458E+04 -8.664127E+03  1.626809E+06 -1.148513E+05  9.610579E+03
       145  25  7.085621E+05  2.343390E+06  5.607431E+05  1.688951E+06  7.978011E+04  5.969480E+04
       145  26 -1.276814E+05 -6.520523E+05 -1.669753E+05  4.017742E+05 -1.779159E+04  5.725412E+04
       145  27 -8.277847E+05 -3.823039E+06 -9.100221E+05  1.528097E+06 -1.131703E+05  5.460689E+04
       146   1  2.141434E+06  8.120354E+06  1.962514E+06  1.851305E+06  2.431945E+05  1.207952E+05
       146   2  2.780481E+06  1.120153E+07  2.668873E+06  6.525381E+05  3.511624E+05 -3.608148E+04
       146   3  3.611187E+06  1.435692E+07  3.519968E+06  1.862698E+06  1.243291E+05 -1.847229E+05
       146   4  1.132925E+05 -5.134639E+04  2.256479E+03  1.625983E+06  2.384707E+05 -1.548312E+04
       146   5 -5.778656E+03 -7.539097E+04 -2.307687E+04  4.211230E+05  3.523300E+05 -9.385814E+03
       146   6  3.880275E+04 -6.333469E+04 -1.530271E+04  1.627968E+06  1.287030E+05  5.785307E+03
       146   7 -1.919598E+06 -8.162333E+06 -1.962670E+06  1.402994E+06  2.338124E+05 -1.499904E+05
       146   8 -2.801116E+06 -1.123702E+07 -2.723979E+06  1.930363E+05  3.534906E+05  1.683295E+04
       146   9 -3.548825E+06 -1.429694E+07 -3.565692E+06  1.397361E+06  1.329913E+05  1.919488E+05
       146  10  2.141367E+06  8.120322E+06  1.962376E+06  1.851282E+06  7.409964E-09 -2.379740E-08
       146  11  2.780348E+06  1.120149E+07  2.668639E+06  6.525483E+05 -2.607517E-08 -1.705338E-08
       146  12  3.611162E+06  1.435688E+07  3.519876E+06  1.862717E+06 -7.187071E-09  1.543469E-09
       146  13  1.132314E+05 -5.136192E+04  2.149136E+03  1.625986E+06 -7.245736E-10 -2.574888E-10
       146  14 -5.911984E+03 -7.542440E+04 -2.331032E+04  4.211257E+05 -2.435593E-08 -1.428278E-08
       146  15  3.878496E+04 -6.333917E+04 -1.533389E+04  1.627967E+06 -3.322974E-09  1.712841E-08
       146  16 -1.919663E+06 -8.162373E+06 -1.962816E+06  1.403023E+06  2.914614E-08 -6.036290E-09
       146  17 -2.801251E+06 -1.123705E+07 -2.724214E+06  1.930315E+05 -2.844853E-08  3.357675E-09
       146  18 -3.548854E+06 -1.429699E+07 -3.565796E+06  1.397340E+06 -1.663179E-08  5.230528E-09
       146  19  2.141434E+06  8.120354E+06  1.962514E+06  1.851305E+06 -2.431945E+05 -1.207952E+05
       146  20  2.780481E+06  1.120153E+07  2.668873E+06  6.525381E+05 -3.511624E+05  3.608148E+04
       146  21  3.611187E+06  1.435692E+07  3.519968E+06  1.862698E+06 -1.243291E+05  1.847229E+05
       146  22  1.132925E+05 -5.134639E+04  2.256479E+03  1.625983E+06 -2.384707E+05  1.548312E+04
       146  23 -5.778656E+03 -7.539097E+04 -2.307687E+04  4.211230E+05 -3.523300E+05  9.385814E+03
       146  24  3.880275E+04 -6.333469E+04 -1.530271E+04  1.627968E+06 -1.287030E+05 -5.785307E+03
       146  25 -1.919598E+06 -8.162333E+06 -1.962670E+06  1.402994E+06 -2.338124E+05  1.499904E+05
       146  26 -2.801116E+06 -1.123702E+07 -2.723979E+06  1.930363E+05 -3.534906E+05 -1.683295E+04
       146  27 -3.548825E+06 -1.429694E+07 -3.565692E+06  1.397361E+06 -1.329913E+05 -1.919488E+05
       147   1  1.762288E+07  4.040620E+06  4.098599E+06  1.243024E+06  3.254557E+05 -1.515293E+05
       147   2  1.478328E+07  3.230306E+06  3.243091E+06  2.855176E+05  1.133855E+05 -4.167716E+05
       147   3  1.229666E+07  2.644763E+06  2.628937E+06  1.378974E+06 -9.427846E+04 -3.206584E+05
       147   4  1.511265E+06  6.542815E+04  1.614124E+05  1.378443E+06  1.038889E+05 -1.485790E+05
       147   5  1.359622E+06 -6.838080E+04  4.896026E+04  3.505032E+05  7.037302E+04 -4.170584E+05
       147   6  1.523364E+06 -6.670201E+03  5.763890E+04  1.376585E+06  4.038998E+04 -3.207115E+05
       147   7 -1.436828E+07 -3.928745E+06 -3.794514E+06  1.511009E+06 -1.120877E+05 -1.456911E+05
       147   8 -1.190144E+07 -3.379967E+06 -3.157771E+06  4.143386E+05  2.825620E+04 -4.173603E+05
       147   9 -9.144989E+06 -2.666436E+06 -2.521749E+06  1.374068E+06  1.727616E+05 -3.207657E+05
       147  10  1.762276E+07  4.040568E+06  4.098362E+06  1.243063E+06 -1.148850E-09 -5.257476E-09
       147  11  1.478322E+07  3.230116E+06  3.242741E+06  2.855553E+05 -6.928376E-09 -1.832584E-09
       147  12  1.229662E+07  2.644651E+06  2.628728E+06  1.378950E+06 -3.588104E-09 -9.693783E-10
       147  13  1.511248E+06  6.540149E+04  1.613505E+05  1.378456E+06  4.635958E-09 -2.746763E-09
       147  14  1.359570E+06 -6.856906E+04  4.862379E+04  3.505269E+05 -1.125382E-08  7.523401E-09
       147  15  1.523335E+06 -6.781206E+03  5.744228E+04  1.376595E+06 -8.548117E-09  1.118576E-09
       147  16 -1.436830E+07 -3.928771E+06 -3.794578E+06  1.510996E+06  7.373387E-09  6.605260E-10
       147  17 -1.190149E+07 -3.380154E+06 -3.158100E+06  4.143482E+05  2.676452E-09  4.109863E-10
       147  18 -9.145049E+06 -2.666555E+06 -2.522000E+06  1.374113E+06 -2.816067E-09  2.567004E-09
       147  19  1.762288E+07  4.040620E+06  4.098599E+06  1.243024E+06 -3.254557E+05  1.515293E+05
       147  20  1.478328E+07  3.230306E+06  3.243091E+06  2.855176E+05 -1.133855E+05  4.167716E+05
       147  21  1.229666E+07  2.644763E+06  2.628937E+06  1.378974E+06  9.427846E+04  3.206584E+05
       147  22  1.511265E+06  6.542815E+04  1.614124E+05  1.378443E+06 -1.038889E+05  1.485790E+05
       147  23  1.359622E+06 -6.838080E+04  4.896026E+04  3.505032E+05 -7.037302E+04  4.170584E+05
       147  24  1.523364E+06 -6.670201E+03  5.763890E+04  1.376585E+06 -4.038998E+04  3.207115E+05
       147  25 -1.436828E+07 -3.928745E+06 -3.794514E+06  1.511009E+06  1.120877E+05  1.456911E+05
       147  26 -1.190144E+07 -3.379967E+06 -3.157771E+06  4.143386E+05 -2.825620E+04  4.173603E+05
       147  27 -9.144989E+06 -2.666436E+06 -2.521749E+06  1.374068E+06 -1.727616E+05  3.207657E+05
       148   1  8.520846E+06  1.741999E+06  1.724018E+06  1.394061E+06  8.318540E+02 -2.078045E+05
       148   2  5.933214E+06  1.103355E+06  1.091149E+06  3.835232E+05 -2.349258E+04 -1.348973E+05
       148   3  3.355531E+06  4.925711E+05  4.785162E+05  1.386556E+06 -4.876862E+04 -3.594306E+04
       148   4  1.472205E+06  2.992596E+03  3.711531E+04  1.368278E+06  2.972167E+04 -2.077980E+05
       148   5  1.473377E+06  1.434016E+03  2.306913E+04  3.609742E+05  1.808046E+04 -1.346479E+05
       148   6  1.476133E+06  2.595728E+04  2.098558E+04  1.368147E+06  5.386034E+03 -3.534709E+04
       148   7 -5.531380E+06 -1.739598E+06 -1.653290E+06  1.342678E+06  5.828679E+04 -2.077939E+05
       148   8 -2.968372E+06 -1.101922E+06 -1.046410E+06  3.385479E+05  5.935792E+04 -1.344006E+05
       148   9 -4.000512E+05 -4.409138E+05 -4.367900E+05  1.349782E+06  5.937784E+04 -3.475329E+04
       148  10  8.520835E+06  1.741953E+06  1.723936E+06  1.394061E+06  3.247533E-09  1.505101E-09
       148  11  5.933208E+06  1.103335E+06  1.091114E+06  3.835206E+05  1.173034E-08  2.365377E-09
       148  12  3.355528E+06  4.925691E+05  4.785093E+05  1.386554E+06 -3.284625E-09 -6.085898E-09
       148  13  1.472192E+06  2.945940E+03  3.703239E+04  1.368283E+06 -9.397895E-09  1.967727E-09
       148  14  1.473372E+06  1.414445E+03  2.303442E+04  3.609762E+05 -5.796957E-09 -3.921102E-09
       148  15  1.476133E+06  2.595593E+04  2.098318E+04  1.368147E+06 -6.063267E-09 -1.135434E-08
       148  16 -5.531395E+06 -1.739645E+06 -1.653378E+06  1.342688E+06 -8.202230E-09  3.556508E-09
       148  17 -2.968381E+06 -1.101943E+06 -1.046450E+06  3.385543E+05 -1.073607E-08 -1.188431E-08
       148  18 -4.000554E+05 -4.409161E+05 -4.367989E+05  1.349784E+06  2.423435E-10 -5.591069E-09
       148  19  8.520846E+06  1.741999E+06  1.724018E+06  1.394061E+06 -8.318540E+02  2.078045E+05
       148  20  5.933214E+06  1.103355E+06  1.091149E+06  3.835232E+05  2.349258E+04  1.348973E+05
       148  21  3.355531E+06  4.925711E+05  4.785162E+05  1.386556E+06  4.876862E+04  3.594306E+04
       148  22  1.472205E+06  2.992596E+03  3.711531E+04  1.368278E+06 -2.972167E+04  2.077980E+05
       148  23  1.473377E+06  1.434016E+03  2.306913E+04  3.609742E+05 -1.808046E+04  1.346479E+05
       148  24  1.476133E+06  2.595728E+04  2.098558E+04  1.368147E+06 -5.386034E+03  3.534709E+04
       148  25 -5.531380E+06 -1.739598E+06 -1.653290E+06  1.342678E+06 -5.828679E+04  2.077939E+05
       148  26 -2.968372E+06 -1.101922E+06 -1.046410E+06  3.385479E+05 -5.935792E+04  1.344006E+05
       148  27 -4.000512E+05 -4.409138E+05 -4.367900E+05  1.349782E+06 -5.937784E+04  3.475329E+04
       149   1 -2.950378E+05 -4.140487E+05 -4.122864E+05  1.349993E+06 -5.383353E+04  3.163767E+04
       149   2 -2.861595E+06 -1.074648E+06 -1.025606E+06  3.391961E+05 -5.146125E+04  1.312593E+05
       149   3 -5.426066E+06 -1.717196E+06 -1.639383E+06  1.343465E+06 -4.806746E+04  2.048145E+05
       149   4  1.475526E+06  2.660589E+04  2.006448E+04  1.368074E+06  1.171933E+02  3.223300E+04
       149   5  1.474431E+06  2.373376E+03  1.834493E+04  3.610547E+05 -1.011472E+04  1.315136E+05
       149   6  1.471698E+06 -1.057252E+03  2.534295E+04  1.368235E+06 -1.931341E+04  2.048285E+05
       149   7  3.248952E+06  4.670314E+05  4.521981E+05  1.386197E+06  5.422145E+04  3.283049E+04
       149   8  5.827692E+06  1.078026E+06  1.060964E+06  3.830296E+05  3.152064E+04  1.317700E+05
       149   9  8.413163E+06  1.711605E+06  1.686672E+06  1.393176E+06  9.761951E+03  2.048448E+05
       149  10 -2.950412E+05 -4.140506E+05 -4.122938E+05  1.349994E+06 -5.611775E-10  6.478330E-09
       149  11 -2.861603E+06 -1.074667E+06 -1.025644E+06  3.392015E+05  1.223190E-08  2.868145E-10
       149  12 -5.426080E+06 -1.717242E+06 -1.639467E+06  1.343473E+06 -7.774289E-10 -4.731964E-09
       149  13  1.475526E+06  2.660477E+04  2.006253E+04  1.368074E+06 -2.256044E-09 -4.062061E-09
       149  14  1.474426E+06  2.354762E+03  1.831221E+04  3.610558E+05 -3.143252E-08  1.011802E-09
       149  15  1.471686E+06 -1.102448E+03  2.526331E+04  1.368238E+06 -5.823058E-09  2.760267E-10
       149  16  3.248948E+06  4.670295E+05  4.521906E+05  1.386195E+06 -1.153638E-08 -9.358519E-09
       149  17  5.827687E+06  1.078007E+06  1.060929E+06  3.830262E+05 -6.814781E-09 -4.897038E-09
       149  18  8.413151E+06  1.711560E+06  1.686593E+06  1.393174E+06  2.443684E-09 -3.362077E-09
       149  19 -2.950378E+05 -4.140487E+05 -4.122864E+05  1.349993E+06  5.383353E+04 -3.163767E+04
       149  20 -2.861595E+06 -1.074648E+06 -1.025606E+06  3.391961E+05  5.146125E+04 -1.312593E+05
       149  21 -5.426066E+06 -1.717196E+06 -1.639383E+06  1.343465E+06  4.806746E+04 -2.048145E+05
       149  22  1.475526E+06  2.660589E+04  2.006448E+04  1.368074E+06 -1.171933E+02 -3.223300E+04
       149  23  1.474431E+06  2.373376E+03  1.834493E+04  3.610547E+05  1.011472E+04 -1.315136E+05
       149  24  1.471698E+06 -1.057252E+03  2.534295E+04  1.368235E+06  1.931341E+04 -2.048285E+05
       149  25  3.248952E+06  4.670314E+05  4.521981E+05  1.386197E+06 -5.422145E+04 -3.283049E+04
       149  26  5.827692E+06  1.078026E+06  1.060964E+06  3.830296E+05 -3.152064E+04 -1.317700E+05
       149  27  8.413163E+06  1.711605E+06  1.686672E+06  1.393176E+06 -9.761951E+03 -2.048448E+05
       150   1 -9.042913E+06 -2.636821E+06 -2.511000E+06  1.366809E+06 -1.596523E+05  3.174123E+05
       150   2 -1.178799E+07 -3.345311E+06 -3.155731E+06  4.152810E+05 -3.279303E+03  4.138541E+05
       150   3 -1.426420E+07 -3.945418E+06 -3.824216E+06  1.518604E+06  1.490152E+05  1.441228E+05
       150   4  1.519215E+06 -3.662536E+03  4.261694E+04  1.376412E+06 -2.767367E+04  3.173879E+05
       150   5  1.365845E+06 -6.073293E+04  2.485437E+04  3.507696E+05 -4.457880E+04  4.135456E+05
       150   6  1.507245E+06  2.176545E+04  1.047078E+05  1.377656E+06 -6.488057E+04  1.469127E+05
       150   7  1.218419E+07  2.621329E+06  2.588305E+06  1.386009E+06  1.065703E+05  3.173675E+05
       150   8  1.467964E+07  3.211156E+06  3.193044E+06  2.850905E+05 -8.675397E+04  4.132521E+05
       150   9  1.750758E+07  3.970231E+06  4.015144E+06  1.233635E+06 -2.842845E+05  1.497714E+05
       150  10 -9.042968E+06 -2.636937E+06 -2.511238E+06  1.366850E+06  6.007828E-09 -4.364791E-10
       150  11 -1.178804E+07 -3.345495E+06 -3.156054E+06  4.152821E+05  1.785470E-09  6.560280E-09
       150  12 -1.426423E+07 -3.945447E+06 -3.824297E+06  1.518586E+06 -6.468145E-09  8.731832E-09
       150  13  1.519187E+06 -3.771017E+03  4.242598E+04  1.376420E+06 -4.316271E-10 -2.192095E-09
       150  14  1.365797E+06 -6.091725E+04  2.452897E+04  3.507845E+05 -1.826233E-09 -4.887917E-09
       150  15  1.507234E+06  2.174110E+04  1.046592E+05  1.377664E+06  2.029492E-08 -8.280088E-09
       150  16  1.218415E+07  2.621218E+06  2.588095E+06  1.385982E+06 -2.995286E-10  9.291732E-11
       150  17  1.467958E+07  3.210971E+06  3.192709E+06  2.851191E+05 -1.526245E-08 -1.175709E-09
       150  18  1.750749E+07  3.970186E+06  4.014954E+06  1.233669E+06  9.752290E-09 -1.452769E-08
       150  19 -9.042913E+06 -2.636821E+06 -2.511000E+06  1.366809E+06  1.596523E+05 -3.174123E+05
       150  20 -1.178799E+07 -3.345311E+06 -3.155731E+06  4.152810E+05  3.279303E+03 -4.138541E+05
       150  21 -1.426420E+07 -3.945418E+06 -3.824216E+06  1.518604E+06 -1.490152E+05 -1.441228E+05
       150  22  1.519215E+06 -3.662536E+03  4.261694E+04  1.376412E+06  2.767367E+04 -3.173879E+05
       150  23  1.365845E+06 -6.073293E+04  2.485437E+04  3.507696E+05  4.457880E+04 -4.135456E+05
       150  24  1.507245E+06  2.176545E+04  1.047078E+05  1.377656E+06  6.488057E+04 -1.469127E+05
       150  25  1.218419E+07  2.621329E+06  2.588305E+06  1.386009E+06 -1.065703E+05 -3.173675E+05
       150  26  1.467964E+07  3.211156E+06  3.193044E+06  2.850905E+05  8.675397E+04 -4.132521E+05
       150  27  1.750758E+07  3.970231E+06  4.015144E+06  1.233635E+06  2.842845E+05 -1.497714E+05
       151   1 -3.232993E+06 -1.271455E+07 -3.290759E+06  1.392746E+06 -1.192870E+05 -2.545783E+05
       151   2 -2.393615E+06 -9.680698E+06 -2.401250E+06  2.104226E+05 -3.072336E+05 -6.927852E+04
       151   3 -1.548267E+06 -6.712478E+06 -1.640645E+06  1.388492E+06 -1.895596E+05  1.080008E+05
       151   4 -4.943830E+04 -7.110933E+04 -1.396129E+05  1.592935E+06 -1.151170E+05 -9.236964E+04
       151   5  1.801158E+04 -4.268166E+04 -7.138232E+04  4.116189E+05 -3.063582E+05 -5.059333E+04
       151   6  1.190985E+05 -6.093270E+04 -2.958167E+04  1.588526E+06 -1.940608E+05 -1.766975E+04
       151   7  3.122097E+06  1.271937E+07  2.999616E+06  1.796180E+06 -1.108872E+05  7.321013E+04
       151   8  2.422882E+06  9.681173E+06  2.251821E+06  6.153224E+05 -3.054786E+05 -3.160941E+04
       151   9  1.783287E+06  6.631393E+06  1.578356E+06  1.790306E+06 -1.986182E+05 -1.446933E+05
       151  10 -3.233026E+06 -1.271463E+07 -3.290910E+06  1.392722E+06 -3.750752E-09 -9.550042E-09
       151  11 -2.393718E+06 -9.680729E+06 -2.401437E+06  2.104054E+05 -3.766538E-09  3.684510E-08
       151  12 -1.548308E+06 -6.712500E+06 -1.640735E+06  1.388509E+06  4.086220E-09  3.550860E-09
       151  13 -4.945478E+04 -7.112201E+04 -1.396537E+05  1.592927E+06 -2.914333E-09  1.762832E-10
       151  14  1.791013E+04 -4.270958E+04 -7.156345E+04  4.116065E+05 -1.596078E-08  3.155690E-08
       151  15  1.190580E+05 -6.094313E+04 -2.965297E+04  1.588523E+06 -5.504373E-09 -2.318061E-09
       151  16  3.122083E+06  1.271936E+07  2.999583E+06  1.796187E+06 -3.310771E-09  1.618310E-08
       151  17  2.422782E+06  9.681147E+06  2.251644E+06  6.153147E+05 -2.685878E-08  6.889895E-09
       151  18  1.783239E+06  6.631360E+06  1.578244E+06  1.790283E+06  1.714034E-09 -1.353848E-09
       151  19 -3.232993E+06 -1.271455E+07 -3.290759E+06  1.392746E+06  1.192870E+05  2.545783E+05
       151  20 -2.393615E+06 -9.680698E+06 -2.401250E+06  2.104226E+05  3.072336E+05  6.927852E+04
       151  21 -1.548267E+06 -6.712478E+06 -1.640645E+06  1.388492E+06  1.895596E+05 -1.080008E+05
       151  22 -4.943830E+04 -7.110933E+04 -1.396129E+05  1.592935E+06  1.151170E+05  9.236964E+04
       151  23  1.801158E+04 -4.268166E+04 -7.138232E+04  4.116189E+05  3.063582E+05  5.059333E+04
       151  24  1.190985E+05 -6.093270E+04 -2.958167E+04  1.588526E+06  1.940608E+05  1.766975E+04
       151  25  3.122097E+06  1.271937E+07  2.999616E+06  1.796180E+06  1.108872E+05 -7.321013E+04
       151  26  2.422882E+06  9.681173E+06  2.251821E+06  6.153224E+05  3.054786E+05  3.160941E+04
       151  27  1.783287E+06  6.631393E+06  1.578356E+06  1.790306E+06  1.986182E+05  1.446933E+05
       152   1 -4.943809E+05 -2.452585E+06 -6.011105E+05  1.531402E+06 -7.481313E+04  2.754053E+04
       152   2  1.952308E+05  6.486825E+05  1.409313E+05  4.288176E+05  2.046413E+04  3.035220E+04
       152   3  1.011772E+06  3.579686E+06  8.668236E+05  1.684773E+06  1.136597E+05  3.341346E+04
       152   4  9.739598E+04 -7.929403E+04 -3.016343E+04  1.590170E+06 -7.657275E+04 -1.853977E+04
       152   5  3.593706E+04  9.755815E+03 -1.286376E+04  4.108644E+05  1.878437E+04 -1.479411E+04
       152   6  1.018829E+05 -7.995076E+04 -1.175775E+04  1.589966E+06  1.120323E+05 -1.082650E+04
       152   7  6.887683E+05  2.299174E+06  5.403904E+05  1.649108E+06 -7.833755E+04 -6.479611E+04
       152   8 -1.233848E+05 -6.287930E+05 -1.666803E+05  3.929263E+05  1.710634E+04 -5.989413E+04
       152   9 -8.089648E+05 -3.727358E+06 -8.912830E+05  1.495589E+06  1.104133E+05 -5.480751E+04
       152  10 -4.943871E+05 -2.452588E+06 -6.011225E+05  1.531404E+06  2.441094E-08 -7.755497E-09
       152  11  1.952301E+05  6.486814E+05  1.409288E+05  4.288171E+05  1.207260E-08  5.489806E-08
       152  12  1.011758E+06  3.579681E+06  8.667973E+05  1.684770E+06 -9.599015E-10 -5.692157E-10
       152  13  9.738959E+04 -7.929596E+04 -3.017507E+04  1.590169E+06  1.532183E-08  5.362236E-11
       152  14  3.593662E+04  9.755485E+03 -1.286484E+04  4.108646E+05  5.842497E-09  3.887713E-08
       152  15  1.018694E+05 -7.995426E+04 -1.178156E+04  1.589967E+06  1.269898E-08 -2.507559E-09
       152  16  6.887606E+05  2.299168E+06  5.403711E+05  1.649104E+06  7.745658E-09  1.641391E-08
       152  17 -1.233860E+05 -6.287969E+05 -1.666876E+05  3.929271E+05  1.444711E-08  2.034540E-09
       152  18 -8.089787E+05 -3.727364E+06 -8.913117E+05  1.495594E+06  1.087732E-08  2.253015E-09
       152  19 -4.943809E+05 -2.452585E+06 -6.011105E+05  1.531402E+06  7.481313E+04 -2.754053E+04
       152  20  1.952308E+05  6.486825E+05  1.409313E+05  4.288176E+05 -2.046413E+04 -3.035220E+04
       152  21  1.011772E+06  3.579686E+06  8.668236E+05  1.684773E+06 -1.136597E+05 -3.341346E+04
       152  22  9.739598E+04 -7.929403E+04 -3.016343E+04  1.590170E+06  7.657275E+04  1.853977E+04
       152  23  3.593706E+04  9.755815E+03 -1.286376E+04  4.108644E+05 -1.878437E+04  1.479411E+04
       152  24  1.018829E+05 -7.995076E+04 -1.175775E+04  1.589966E+06 -1.120323E+05  1.082650E+04
       152  25  6.887683E+05  2.299174E+06  5.403904E+05  1.649108E+06  7.833755E+04  6.479611E+04
       152  26 -1.233848E+05 -6.287930E+05 -1.666803E+05  3.929263E+05 -1.710634E+04  5.989413E+04
       152  27 -8.089648E+05 -3.727358E+06 -8.912830E+05  1.495589E+06 -1.104133E+05  5.480751E+04
       153   1  2.089440E+06  7.932536E+06  1.913531E+06  1.806437E+06  2.374032E+05  1.172332E+05
       153   2  2.716749E+06  1.094498E+07  2.604969E+06  6.348014E+05  3.430389E+05 -3.483554E+04
       153   3  3.524968E+06  1.402611E+07  3.435166E+06  1.817412E+06  1.215208E+05 -1.789342E+05
       153   4  1.089312E+05 -4.733092E+04 -8.859797E+02  1.589150E+06  2.328532E+05 -1.589811E+04
       153   5 -4.731049E+03 -6.888934E+04 -2.454919E+04  4.116653E+05  3.441606E+05 -8.782262E+03
       153   6  3.513571E+04 -5.877406E+04 -1.853763E+04  1.591077E+06  1.257519E+05  7.097815E+03
       153   7 -1.876109E+06 -7.969293E+06 -1.919756E+06  1.374062E+06  2.283650E+05 -1.473396E+05
       153   8 -2.734874E+06 -1.097276E+07 -2.662608E+06  1.916643E+05  3.452757E+05  1.681628E+04
       153   9 -3.469245E+06 -1.396554E+07 -3.486668E+06  1.368627E+06  1.299023E+05  1.889839E+05
       153  10  2.089376E+06  7.932506E+06  1.913400E+06  1.806415E+06 -5.113245E-09 -1.830030E-08
       153  11  2.716622E+06  1.094495E+07  2.604746E+06  6.348109E+05 -2.534922E-08  3.862370E-08
       153  12  3.524943E+06  1.402607E+07  3.435079E+06  1.817429E+06  1.426213E-09  1.122306E-08
       153  13  1.088729E+05 -4.734576E+04 -9.883726E+02  1.589153E+06 -1.136810E-08  2.354332E-10
       153  14 -4.858264E+03 -6.892122E+04 -2.477192E+04  4.116678E+05 -6.519728E-09  2.951258E-08
       153  15  3.511872E+04 -5.877835E+04 -1.856743E+04  1.591077E+06 -5.373253E-09 -1.498849E-09
       153  16 -1.876171E+06 -7.969331E+06 -1.919896E+06  1.374090E+06  2.068549E-08  2.620974E-08
       153  17 -2.735002E+06 -1.097279E+07 -2.662832E+06  1.916596E+05 -2.493886E-08  6.360820E-09
       153  18 -3.469273E+06 -1.396558E+07 -3.486768E+06  1.368607E+06 -7.648249E-09 -8.038528E-09
       153  19  2.089440E+06  7.932536E+06  1.913531E+06  1.806437E+06 -2.374032E+05 -1.172332E+05
       153  20  2.716749E+06  1.094498E+07  2.604969E+06  6.348014E+05 -3.430389E+05  3.483554E+04
       153  21  3.524968E+06  1.402611E+07  3.435166E+06  1.817412E+06 -1.215208E+05  1.789342E+05
       153  22  1.089312E+05 -4.733092E+04 -8.859797E+02  1.589150E+06 -2.328532E+05  1.589811E+04
       153  23 -4.731049E+03 -6.888934E+04 -2.454919E+04  4.116653E+05 -3.441606E+05  8.782262E+03
       153  24  3.513571E+04 -5.877406E+04 -1.853763E+04  1.591077E+06 -1.257519E+05 -7.097815E+03
       153  25 -1.876109E+06 -7.969293E+06 -1.919756E+06  1.374062E+06 -2.283650E+05  1.473396E+05
       153  26 -2.734874E+06 -1.097276E+07 -2.662608E+06  1.916643E+05 -3.452757E+05 -1.681628E+04
       153  27 -3.469245E+06 -1.396554E+07 -3.486668E+06  1.368627E+06 -1.299023E+05 -1.889839E+05
       154   1  1.828026E+07  4.118260E+06  4.183333E+06  1.280299E+06  3.520824E+05 -1.535525E+05
       154   2  1.537862E+07  3.264178E+06  3.294150E+06  2.972306E+05  1.299985E+05 -4.216807E+05
       154   3  1.284399E+07  2.670763E+06  2.662239E+06  1.406806E+06 -8.775212E+04 -3.238238E+05
       154   4  1.948000E+06  9.152333E+04  1.947364E+05  1.404676E+06  1.273632E+05 -1.506670E+05
       154   5  1.789820E+06 -7.308265E+04  6.260175E+04  3.557014E+05  8.645383E+04 -4.220001E+05
       154   6  1.960530E+06 -6.305894E+03  6.608880E+04  1.402509E+06  4.893713E+04 -3.237938E+05
       154   7 -1.414601E+07 -3.954697E+06 -3.813091E+06  1.526425E+06 -9.161991E+04 -1.478379E+05
       154   8 -1.163251E+07 -3.423547E+06 -3.181843E+06  4.131304E+05  4.382339E+04 -4.223342E+05
       154   9 -8.815919E+06 -2.691868E+06 -2.538307E+06  1.398097E+06  1.832721E+05 -3.237650E+05
       154  10  1.828012E+07  4.118202E+06  4.183062E+06  1.280342E+06 -2.713599E-10 -3.595975E-09
       154  11  1.537855E+07  3.263982E+06  3.293784E+06  2.972743E+05 -7.773022E-09 -1.249160E-08
       154  12  1.284395E+07  2.670648E+06  2.662028E+06  1.406784E+06  1.315390E-08  9.636180E-09
       154  13  1.947976E+06  9.149453E+04  1.946631E+05  1.404691E+06 -1.335157E-08  1.191793E-08
       154  14  1.789764E+06 -7.327607E+04  6.225268E+04  3.557308E+05  1.022591E-08  2.264028E-12
       154  15  1.960499E+06 -6.419270E+03  6.588695E+04  1.402522E+06 -1.417378E-08  7.082332E-09
       154  16 -1.414602E+07 -3.954723E+06 -3.813148E+06  1.526414E+06 -8.565731E-09 -4.064207E-09
       154  17 -1.163256E+07 -3.423739E+06 -3.182182E+06  4.131454E+05 -7.646366E-09  1.324275E-09
       154  18 -8.815984E+06 -2.691990E+06 -2.538569E+06  1.398145E+06 -5.022995E-09  1.438051E-09
       154  19  1.828026E+07  4.118260E+06  4.183333E+06  1.280299E+06 -3.520824E+05  1.535525E+05
       154  20  1.537862E+07  3.264178E+06  3.294150E+06  2.972306E+05 -1.299985E+05  4.216807E+05
       154  21  1.284399E+07  2.670763E+06  2.662239E+06  1.406806E+06  8.775212E+04  3.238238E+05
       154  22  1.948000E+06  9.152333E+04  1.947364E+05  1.404676E+06 -1.273632E+05  1.506670E+05
       154  23  1.789820E+06 -7.308265E+04  6.260175E+04  3.557014E+05 -8.645383E+04  4.220001E+05
       154  24  1.960530E+06 -6.305894E+03  6.608880E+04  1.402509E+06 -4.893713E+04  3.237938E+05
       154  25 -1.414601E+07 -3.954697E+06 -3.813091E+06  1.526425E+06  9.161991E+04  1.478379E+05
       154  26 -1.163251E+07 -3.423547E+06 -3.181843E+06  4.131304E+05 -4.382339E+04  4.223342E+05
       154  27 -8.815919E+06 -2.691868E+06 -2.538307E+06  1.398097E+06 -1.832721E+05  3.237650E+05
       155   1  9.006494E+06  1.758191E+06  1.741505E+06  1.420938E+06  7.574848E+03 -2.092206E+05
       155   2  6.384349E+06  1.107104E+06  1.095739E+06  3.950783E+05 -1.761257E+04 -1.352835E+05
       155   3  3.770085E+06  4.886105E+05  4.711585E+05  1.410014E+06 -4.378005E+04 -3.507290E+04
       155   4  1.906343E+06  7.323707E+03  4.315198E+04  1.391036E+06  3.688904E+04 -2.091948E+05
       155   5  1.908630E+06  1.759990E+03  2.437563E+04  3.701214E+05  2.451562E+04 -1.350032E+05
       155   6  1.910341E+06  2.703510E+04  1.847703E+04  1.390918E+06  1.105612E+04 -3.443301E+04
       155   7 -5.148127E+06 -1.747175E+06 -1.658751E+06  1.361356E+06  6.587123E+04 -2.091718E+05
       155   8 -2.548887E+06 -1.105028E+06 -1.048395E+06  3.453017E+05  6.634328E+04 -1.347252E+05
       155   9  5.374194E+04 -4.347919E+05 -4.344437E+05  1.371867E+06  6.572918E+04 -3.379538E+04
       155  10  9.006483E+06  1.758144E+06  1.741422E+06  1.420939E+06  9.940678E-09  7.106669E-09
       155  11  6.384344E+06  1.107084E+06  1.095704E+06  3.950764E+05  1.187032E-08 -2.824525E-09
       155  12  3.770082E+06  4.886087E+05  4.711526E+05  1.410013E+06 -1.817901E-09 -4.426317E-09
       155  13  1.906330E+06  7.276282E+03  4.306704E+04  1.391042E+06 -8.813606E-09  1.173073E-08
       155  14  1.908624E+06  1.740237E+03  2.434021E+04  3.701241E+05  2.949630E-08  9.656782E-09
       155  15  1.910341E+06  2.703379E+04  1.847457E+04  1.390918E+06 -9.397950E-09 -6.676961E-09
       155  16 -5.148143E+06 -1.747224E+06 -1.658842E+06  1.361367E+06 -2.336283E-08 -1.070200E-09
       155  17 -2.548897E+06 -1.105049E+06 -1.048437E+06  3.453089E+05 -1.553875E-08  1.137808E-08
       155  18  5.373698E+04 -4.347943E+05 -4.344539E+05  1.371868E+06  2.104741E-09  3.219272E-09
       155  19  9.006494E+06  1.758191E+06  1.741505E+06  1.420938E+06 -7.574848E+03  2.092206E+05
       155  20  6.384349E+06  1.107104E+06  1.095739E+06  3.950783E+05  1.761257E+04  1.352835E+05
       155  21  3.770085E+06  4.886105E+05  4.711585E+05  1.410014E+06  4.378005E+04  3.507290E+04
       155  22  1.906343E+06  7.323707E+03  4.315198E+04  1.391036E+06 -3.688904E+04  2.091948E+05
       155  23  1.908630E+06  1.759990E+03  2.437563E+04  3.701214E+05 -2.451562E+04  1.350032E+05
       155  24  1.910341E+06  2.703510E+04  1.847703E+04  1.390918E+06 -1.105612E+04  3.443301E+04
       155  25 -5.148127E+06 -1.747175E+06 -1.658751E+06  1.361356E+06 -6.587123E+04  2.091718E+05
       155  26 -2.548887E+06 -1.105028E+06 -1.048395E+06  3.453017E+05 -6.634328E+04  1.347252E+05
       155  27  5.374194E+04 -4.347919E+05 -4.344437E+05  1.371867E+06 -6.572918E+04  3.379538E+04
       156   1  7.393748E+04 -4.270858E+05 -4.319961E+05  1.370183E+06 -4.837173E+04  3.335934E+04
       156   2 -2.525792E+06 -1.097455E+06 -1.058723E+06  3.465039E+05 -4.105320E+04  1.342881E+05
       156   3 -5.127994E+06 -1.757347E+06 -1.691559E+06  1.365344E+06 -3.268518E+04  2.087876E+05
       156   4  1.909085E+06  2.946649E+04  1.577368E+04  1.390854E+06  6.311970E+03  3.399742E+04
       156   5  1.910268E+06  3.965984E+03  8.871275E+03  3.701594E+05  8.792956E+02  1.345682E+05
       156   6  1.905132E+06 -8.224729E+03  5.183196E+03  1.391093E+06 -3.471063E+03  2.088138E+05
       156   7  3.747303E+06  4.857731E+05  4.633099E+05  1.411573E+06  6.115685E+04  3.463805E+04
       156   8  6.364356E+06  1.103957E+06  1.075072E+06  3.939431E+05  4.311110E+04  1.348505E+05
       156   9  8.983661E+06  1.737287E+06  1.698396E+06  1.417018E+06  2.607495E+04  2.088424E+05
       156  10  7.393466E+04 -4.270877E+05 -4.320026E+05  1.370185E+06  1.547631E-08  1.283041E-08
       156  11 -2.525798E+06 -1.097475E+06 -1.058760E+06  3.465084E+05 -1.328276E-08 -7.213516E-10
       156  12 -5.128007E+06 -1.757394E+06 -1.691643E+06  1.365350E+06 -2.307655E-08  3.025786E-10
       156  13  1.909084E+06  2.946524E+04  1.577144E+04  1.390853E+06  6.189993E-09 -2.438393E-09
       156  14  1.910263E+06  3.946522E+03  8.837214E+03  3.701593E+05 -1.425194E-08 -3.485692E-10
       156  15  1.905120E+06 -8.271600E+03  5.101152E+03  1.391094E+06 -1.912092E-08 -1.312714E-09
       156  16  3.747299E+06  4.857709E+05  4.633007E+05  1.411571E+06 -5.643605E-10 -6.118099E-09
       156  17  6.364349E+06  1.103937E+06  1.075035E+06  3.939384E+05 -6.270299E-09 -8.268475E-09
       156  18  8.983648E+06  1.737240E+06  1.698313E+06  1.417013E+06  1.438615E-08  2.781487E-09
       156  19  7.393748E+04 -4.270858E+05 -4.319961E+05  1.370183E+06  4.837173E+04 -3.335934E+04
       156  20 -2.525792E+06 -1.097455E+06 -1.058723E+06  3.465039E+05  4.105320E+04 -1.342881E+05
       156  21 -5.127994E+06 -1.757347E+06 -1.691559E+06  1.365344E+06  3.268518E+04 -2.087876E+05
       156  22  1.909085E+06  2.946649E+04  1.577368E+04  1.390854E+06 -6.311970E+03 -3.399742E+04
       156  23  1.910268E+06  3.965984E+03  8.871275E+03  3.701594E+05 -8.792956E+02 -1.345682E+05
       156  24  1.905132E+06 -8.224729E+03  5.183196E+03  1.391093E+06  3.471063E+03 -2.088138E+05
       156  25  3.747303E+06  4.857731E+05  4.633099E+05  1.411573E+06 -6.115685E+04 -3.463805E+04
       156  26  6.364356E+06  1.103957E+06  1.075072E+06  3.939431E+05 -4.311110E+04 -1.348505E+05
       156  27  8.983661E+06  1.737287E+06  1.698396E+06  1.417018E+06 -2.607495E+04 -2.088424E+05
       157   1 -8.806628E+06 -2.679244E+06 -2.581318E+06  1.379336E+06 -1.427735E+05  3.232763E+05
       157   2 -1.159602E+07 -3.396233E+06 -3.255183E+06  4.250004E+05  3.853600E+04  4.212410E+05
       157   3 -1.413492E+07 -4.094536E+06 -3.990304E+06  1.566569E+06  2.156715E+05  1.459157E+05
       157   4  1.949165E+06  1.278691E+03  1.816313E+04  1.402491E+06 -8.139903E+03  3.233067E+05
       157   5  1.804284E+06 -5.121263E+04 -1.605213E+04  3.558727E+05 -3.096993E+03  4.209002E+05
       157   6  1.936781E+06 -5.216419E+04  1.251776E+04  1.402827E+06 -1.415415E+03  1.486976E+05
       157   7  1.281155E+07  2.673341E+06  2.609429E+06  1.425858E+06  1.288436E+05  3.233466E+05
       157   8  1.537050E+07  3.280652E+06  3.210225E+06  2.854451E+05 -4.563673E+04  4.205757E+05
       157   9  1.824604E+07  3.970798E+06  3.996154E+06  1.235349E+06 -2.242152E+05  1.515659E+05
       157  10 -8.806679E+06 -2.679362E+06 -2.581554E+06  1.379374E+06 -1.427786E-09 -1.435678E-09
       157  11 -1.159607E+07 -3.396425E+06 -3.255520E+06  4.249873E+05  1.448810E-08 -5.745851E-09
       157  12 -1.413498E+07 -4.094572E+06 -3.990433E+06  1.566543E+06 -1.285282E-09 -9.321957E-09
       157  13  1.949137E+06  1.166319E+03  1.796638E+04  1.402493E+06 -1.850358E-08 -3.893645E-09
       157  14  1.804237E+06 -5.140305E+04 -1.638537E+04  3.558738E+05  2.375706E-08 -5.999807E-09
       157  15  1.936775E+06 -5.218795E+04  1.247617E+04  1.402827E+06 -3.793598E-09  3.268163E-09
       157  16  1.281151E+07  2.673224E+06  2.609203E+06  1.425825E+06 -1.395891E-08  1.589711E-09
       157  17  1.537045E+07  3.280462E+06  3.209888E+06  2.854605E+05 -1.067348E-09 -4.179161E-10
       157  18  1.824598E+07  3.970760E+06  3.996018E+06  1.235376E+06  1.241024E-08 -1.446446E-08
       157  19 -8.806628E+06 -2.679244E+06 -2.581318E+06  1.379336E+06  1.427735E+05 -3.232763E+05
       157  20 -1.159602E+07 -3.396233E+06 -3.255183E+06  4.250004E+05 -3.853600E+04 -4.212410E+05
       157  21 -1.413492E+07 -4.094536E+06 -3.990304E+06  1.566569E+06 -2.156715E+05 -1.459157E+05
       157  22  1.949165E+06  1.278691E+03  1.816313E+04  1.402491E+06  8.139903E+03 -3.233067E+05
       157  23  1.804284E+06 -5.121263E+04 -1.605213E+04  3.558727E+05  3.096993E+03 -4.209002E+05
       157  24  1.936781E+06 -5.216419E+04  1.251776E+04  1.402827E+06  1.415415E+03 -1.486976E+05
       157  25  1.281155E+07  2.673341E+06  2.609429E+06  1.425858E+06 -1.288436E+05 -3.233466E+05
       157  26  1.537050E+07  3.280652E+06  3.210225E+06  2.854451E+05  4.563673E+04 -4.205757E+05
       157  27  1.824604E+07  3.970798E+06  3.996154E+06  1.235349E+06  2.242152E+05 -1.515659E+05
       158   1 -3.183695E+06 -1.229134E+07 -3.246455E+06  1.375029E+06 -1.169454E+05 -2.714093E+05
       158   2 -2.334014E+06 -9.325397E+06 -2.359455E+06  2.150743E+05 -3.005565E+05 -8.317152E+04
       158   3 -1.514278E+06 -6.432990E+06 -1.611967E+06  1.358583E+06 -1.857422E+05  9.742097E+04
       158   4 -7.510318E+04  6.098607E+04 -1.689659E+05  1.558621E+06 -1.129485E+05 -1.131051E+05
       158   5  2.159635E+04  9.319996E+04 -8.335267E+04  4.054735E+05 -2.997200E+05 -6.496578E+04
       158   6  1.155648E+05  7.068738E+04 -3.711495E+04  1.553745E+06 -1.900482E+05 -2.530273E+04
       158   7  3.022016E+06  1.255359E+07  2.897156E+06  1.744905E+06 -1.089001E+05  4.841481E+04
       158   8  2.370755E+06  9.593734E+06  2.186389E+06  5.981825E+05 -2.988796E+05 -4.647442E+04
       158   9  1.742372E+06  6.613338E+06  1.534751E+06  1.750580E+06 -1.944080E+05 -1.493175E+05
       158  10 -3.183730E+06 -1.229142E+07 -3.246622E+06  1.375004E+06  1.278213E-09 -7.814284E-09
       158  11 -2.334113E+06 -9.325429E+06 -2.359638E+06  2.150540E+05  1.987613E-08  9.518669E-09
       158  12 -1.514317E+06 -6.433010E+06 -1.612051E+06  1.358597E+06 -2.805479E-09  1.426024E-08
       158  13 -7.512027E+04  6.096895E+04 -1.690137E+05  1.558611E+06 -6.131784E-09  2.372753E-08
       158  14  2.149876E+04  9.317133E+04 -8.352936E+04  4.054579E+05  7.784684E-09 -3.050744E-10
       158  15  1.155259E+05  7.067702E+04 -3.718396E+04  1.553741E+06 -1.032108E-08 -8.751355E-09
       158  16  3.022003E+06  1.255358E+07  2.897130E+06  1.744909E+06 -7.720298E-09 -2.134801E-08
       158  17  2.370658E+06  9.593707E+06  2.186217E+06  5.981714E+05 -2.791206E-08  1.109339E-08
       158  18  1.742326E+06  6.613304E+06  1.534639E+06  1.750557E+06 -4.514447E-09 -4.350885E-08
       158  19 -3.183695E+06 -1.229134E+07 -3.246455E+06  1.375029E+06  1.169454E+05  2.714093E+05
       158  20 -2.334014E+06 -9.325397E+06 -2.359455E+06  2.150743E+05  3.005565E+05  8.317152E+04
       158  21 -1.514278E+06 -6.432990E+06 -1.611967E+06  1.358583E+06  1.857422E+05 -9.742097E+04
       158  22 -7.510318E+04  6.098607E+04 -1.689659E+05  1.558621E+06  1.129485E+05  1.131051E+05
       158  23  2.159635E+04  9.319996E+04 -8.335267E+04  4.054735E+05  2.997200E+05  6.496578E+04
       158  24  1.155648E+05  7.068738E+04 -3.711495E+04  1.553745E+06  1.900482E+05  2.530273E+04
       158  25  3.022016E+06  1.255359E+07  2.897156E+06  1.744905E+06  1.089001E+05 -4.841481E+04
       158  26  2.370755E+06  9.593734E+06  2.186389E+06  5.981825E+05  2.988796E+05  4.647442E+04
       158  27  1.742372E+06  6.613338E+06  1.534751E+06  1.750580E+06  1.944080E+05  1.493175E+05
       159   1 -4.912555E+05 -2.276973E+06 -5.965399E+05  1.499064E+06 -7.371719E+04  2.011434E+04
       159   2  1.854384E+05  7.452528E+05  1.313456E+05  4.222853E+05  1.915979E+04  2.375858E+04
       159   3  9.817440E+05  3.604121E+06  8.427418E+05  1.644912E+06  1.100532E+05  2.763866E+04
       159   4  9.004350E+04  5.523983E+04 -3.557405E+04  1.555121E+06 -7.539678E+04 -2.479496E+04
       159   5  3.471977E+04  1.406456E+05 -1.416960E+04  4.052919E+05  1.755491E+04 -2.025013E+04
       159   6  9.946365E+04  5.463927E+04 -9.287974E+03  1.554745E+06  1.084968E+05 -1.549970E+04
       159   7  6.709517E+05  2.392450E+06  5.250121E+05  1.611338E+06 -7.708115E+04 -6.987278E+04
       159   8 -1.160240E+05 -4.636230E+05 -1.597036E+05  3.883121E+05  1.595164E+04 -6.421613E+04
       159   9 -7.837183E+05 -3.483340E+06 -8.622053E+05  1.464974E+06  1.069482E+05 -5.839313E+04
       159  10 -4.912615E+05 -2.276975E+06 -5.965509E+05  1.499066E+06 -1.095467E-08  3.839897E-08
       159  11  1.854379E+05  7.452521E+05  1.313439E+05  4.222849E+05  6.643614E-10  3.407203E-08
       159  12  9.817308E+05  3.604117E+06  8.427176E+05  1.644910E+06  1.269934E-09  1.745608E-09
       159  13  9.003724E+04  5.523765E+04 -3.558586E+04  1.555120E+06 -7.198342E-10  3.776774E-08
       159  14  3.471933E+04  1.406451E+05 -1.417095E+04  4.052922E+05  2.316045E-08 -1.099117E-09
       159  15  9.945094E+04  5.463585E+04 -9.310564E+03  1.554746E+06 -1.800989E-09 -1.015582E-08
       159  16  6.709440E+05  2.392443E+06  5.249919E+05  1.611334E+06 -2.957932E-10 -8.595689E-08
       159  17 -1.160254E+05 -4.636275E+05 -1.597119E+05  3.883129E+05  3.171220E-08 -7.607428E-09
       159  18 -7.837316E+05 -3.483346E+06 -8.622333E+05  1.464979E+06  7.242392E-09 -3.442819E-08
       159  19 -4.912555E+05 -2.276973E+06 -5.965399E+05  1.499064E+06  7.371719E+04 -2.011434E+04
       159  20  1.854384E+05  7.452528E+05  1.313456E+05  4.222853E+05 -1.915979E+04 -2.375858E+04
       159  21  9.817440E+05  3.604121E+06  8.427418E+05  1.644912E+06 -1.100532E+05 -2.763866E+04
       159  22  9.004350E+04  5.523983E+04 -3.557405E+04  1.555121E+06  7.539678E+04  2.479496E+04
       159  23  3.471977E+04  1.406456E+05 -1.416960E+04  4.052919E+05 -1.755491E+04  2.025013E+04
       159  24  9.946365E+04  5.463927E+04 -9.287974E+03  1.554745E+06 -1.084968E+05  1.549970E+04
       159  25  6.709517E+05  2.392450E+06  5.250121E+05  1.611338E+06  7.708115E+04  6.987278E+04
       159  26 -1.160240E+05 -4.636230E+05 -1.597036E+05  3.883121E+05 -1.595164E+04  6.421613E+04
       159  27 -7.837183E+05 -3.483340E+06 -8.622053E+05  1.464974E+06 -1.069482E+05  5.839313E+04
       160   1  2.029101E+06  7.848334E+06  1.864463E+06  1.760076E+06  2.306152E+05  1.089380E+05
       160   2  2.642976E+06  1.078658E+07  2.544067E+06  6.202623E+05  3.336949E+05 -4.351472E+04
       160   3  3.448535E+06  1.379414E+07  3.365182E+06  1.777913E+06  1.180794E+05 -1.883474E+05
       160   4  1.033230E+05  8.679757E+04  2.545700E+03  1.554655E+06  2.262649E+05 -2.078570E+04
       160   5 -6.312614E+03  6.455005E+04 -1.580997E+04  4.053895E+05  3.347650E+05 -1.813282E+04
       160   6  4.925743E+04  7.593814E+04  1.145386E+03  1.556086E+06  1.221420E+05 -7.084719E+03
       160   7 -1.826746E+06 -7.619962E+06 -1.863582E+06  1.351252E+06  2.219713E+05 -1.489074E+05
       160   8 -2.663812E+06 -1.055323E+07 -2.583780E+06  1.934605E+05  3.358288E+05  6.818881E+03
       160   9 -3.363819E+06 -1.347328E+07 -3.376577E+06  1.337991E+06  1.261265E+05  1.702453E+05
       160  10  2.029041E+06  7.848307E+06  1.864341E+06  1.760056E+06  3.532821E-09  1.645489E-08
       160  11  2.642856E+06  1.078654E+07  2.543854E+06  6.202739E+05 -4.724988E-10  1.928185E-08
       160  12  3.448511E+06  1.379410E+07  3.365091E+06  1.777931E+06  3.975895E-09 -2.515562E-09
       160  13  1.032679E+05  8.678334E+04  2.448636E+03  1.554659E+06 -1.968639E-08  3.475972E-08
       160  14 -6.433057E+03  6.451961E+04 -1.602121E+04  4.053944E+05  1.053198E-08  8.908834E-11
       160  15  4.924139E+04  7.593408E+04  1.117247E+03  1.556087E+06  4.153710E-10 -5.117684E-09
       160  16 -1.826805E+06 -7.620000E+06 -1.863718E+06  1.351279E+06  5.607906E-09 -6.067495E-08
       160  17 -2.663933E+06 -1.055326E+07 -2.583992E+06  1.934586E+05 -1.285667E-08  2.648911E-09
       160  18 -3.363844E+06 -1.347332E+07 -3.376663E+06  1.337974E+06 -7.682700E-09 -1.342302E-08
       160  19  2.029101E+06  7.848334E+06  1.864463E+06  1.760076E+06 -2.306152E+05 -1.089380E+05
       160  20  2.642976E+06  1.078658E+07  2.544067E+06  6.202623E+05 -3.336949E+05  4.351472E+04
       160  21  3.448535E+06  1.379414E+07  3.365182E+06  1.777913E+06 -1.180794E+05  1.883474E+05
       160  22  1.033230E+05  8.679757E+04  2.545700E+03  1.554655E+06 -2.262649E+05  2.078570E+04
       160  23 -6.312614E+03  6.455005E+04 -1.580997E+04  4.053895E+05 -3.347650E+05  1.813282E+04
       160  24  4.925743E+04  7.593814E+04  1.145386E+03  1.556086E+06 -1.221420E+05  7.084719E+03
       160  25 -1.826746E+06 -7.619962E+06 -1.863582E+06  1.351252E+06 -2.219713E+05  1.489074E+05
       160  26 -2.663812E+06 -1.055323E+07 -2.583780E+06  1.934605E+05 -3.358288E+05 -6.818881E+03
       160  27 -3.363819E+06 -1.347328E+07 -3.376577E+06  1.337991E+06 -1.261265E+05 -1.702453E+05
       161   1  1.784888E+07  3.828494E+06  3.877586E+06  1.194648E+06  2.911302E+05 -1.437129E+05
       161   2  1.510914E+07  3.071183E+06  3.068866E+06  2.666893E+05  9.452003E+04 -3.955507E+05
       161   3  1.268735E+07  2.497651E+06  2.477022E+06  1.326070E+06 -9.794972E+04 -3.028121E+05
       161   4  2.494569E+06  4.229487E+04  1.276508E+05  1.327680E+06  8.075259E+04 -1.409424E+05
       161   5  2.359005E+06 -5.986419E+04  3.709045E+04  3.318866E+05  5.425065E+04 -3.957897E+05
       161   6  2.505717E+06 -6.359920E+03  4.869207E+04  1.326243E+06  3.111013E+04 -3.029231E+05
       161   7 -1.264920E+07 -3.761111E+06 -3.639276E+06  1.458023E+06 -1.245633E+05 -1.382312E+05
       161   8 -1.024461E+07 -3.202525E+06 -3.006032E+06  3.959859E+05  1.477982E+04 -3.960422E+05
       161   9 -7.582296E+06 -2.517798E+06 -2.386848E+06  1.326283E+06  1.580921E+05 -3.030346E+05
       161  10  1.784878E+07  3.828450E+06  3.877392E+06  1.194681E+06 -2.492644E-08  1.646863E-08
       161  11  1.510909E+07  3.071013E+06  3.068555E+06  2.667192E+05 -3.399388E-09  5.278753E-09
       161  12  1.268732E+07  2.497550E+06  2.476832E+06  1.326046E+06  1.383593E-08 -2.873495E-09
       161  13  2.494556E+06  4.227173E+04  1.276011E+05  1.327689E+06  1.396691E-08 -9.726157E-09
       161  14  2.358960E+06 -6.003340E+04  3.679016E+04  3.319040E+05 -9.546591E-09  7.263555E-09
       161  15  2.505691E+06 -6.458860E+03  4.851752E+04  1.326251E+06 -7.569914E-10 -2.253899E-09
       161  16 -1.264922E+07 -3.761136E+06 -3.639341E+06  1.458009E+06 -4.856143E-09 -1.089748E-08
       161  17 -1.024465E+07 -3.202694E+06 -3.006327E+06  3.959907E+05  1.530916E-09  3.846235E-09
       161  18 -7.582348E+06 -2.517904E+06 -2.387069E+06  1.326322E+06 -1.379910E-08  4.672803E-10
       161  19  1.784888E+07  3.828494E+06  3.877586E+06  1.194648E+06 -2.911302E+05  1.437129E+05
       161  20  1.510914E+07  3.071183E+06  3.068866E+06  2.666893E+05 -9.452003E+04  3.955507E+05
       161  21  1.268735E+07  2.497651E+06  2.477022E+06  1.326070E+06  9.794972E+04  3.028121E+05
       161  22  2.494569E+06  4.229487E+04  1.276508E+05  1.327680E+06 -8.075259E+04  1.409424E+05
       161  23  2.359005E+06 -5.986419E+04  3.709045E+04  3.318866E+05 -5.425065E+04  3.957897E+05
       161  24  2.505717E+06 -6.359920E+03  4.869207E+04  1.326243E+06 -3.111013E+04  3.029231E+05
       161  25 -1.264920E+07 -3.761111E+06 -3.639276E+06  1.458023E+06  1.245633E+05  1.382312E+05
       161  26 -1.024461E+07 -3.202525E+06 -3.006032E+06  3.959859E+05 -1.477982E+04  3.960422E+05
       161  27 -7.582296E+06 -2.517798E+06 -2.386848E+06  1.326283E+06 -1.580921E+05  3.030346E+05
       162   1  9.069647E+06  1.628952E+06  1.611918E+06  1.331549E+06 -5.859657E+03 -1.948535E+05
       162   2  6.597274E+06  1.022270E+06  1.012249E+06  3.676497E+05 -2.907779E+04 -1.250417E+05
       162   3  4.135220E+06  4.373114E+05  4.311965E+05  1.326590E+06 -5.312100E+04 -3.069564E+04
       162   4  2.460375E+06 -2.585586E+02  3.151369E+04  1.311846E+06  2.196012E+04 -1.948582E+05
       162   5  2.460777E+06  1.204049E+03  2.250339E+04  3.499671E+05  1.068530E+04 -1.248381E+05
       162   6  2.463842E+06  2.271032E+04  2.430723E+04  1.311732E+06 -1.506952E+03 -3.019245E+04
       162   7 -4.109334E+06 -1.632613E+06 -1.551965E+06  1.292268E+06  4.948734E+04 -1.948647E+05
       162   8 -1.660183E+06 -1.021095E+06 -9.684425E+05  3.323726E+05  5.018657E+04 -1.246361E+05
       162   9  7.950024E+05 -3.920939E+05 -3.827743E+05  1.296905E+06  4.996924E+04 -2.969094E+04
       162  10  9.069637E+06  1.628911E+06  1.611847E+06  1.331548E+06  7.384342E-09 -1.149325E-08
       162  11  6.597269E+06  1.022253E+06  1.012218E+06  3.676468E+05  7.850939E-09  8.763304E-09
       162  12  4.135216E+06  4.373097E+05  4.311894E+05  1.326589E+06 -7.171550E-09  6.490732E-09
       162  13  2.460364E+06 -2.995206E+02  3.144131E+04  1.311850E+06  8.988334E-09 -3.266157E-09
       162  14  2.460772E+06  1.187263E+03  2.247385E+04  3.499682E+05 -1.719674E-08  9.245536E-09
       162  15  2.463842E+06  2.270934E+04  2.430551E+04  1.311732E+06  1.289546E-08 -4.900113E-09
       162  16 -4.109347E+06 -1.632655E+06 -1.552041E+06  1.292275E+06  3.298976E-10 -7.300597E-09
       162  17 -1.660190E+06 -1.021112E+06 -9.684765E+05  3.323776E+05 -1.785834E-08 -5.682136E-11
       162  18  7.949995E+05 -3.920955E+05 -3.827807E+05  1.296906E+06  2.154823E-09  1.713385E-10
       162  19  9.069647E+06  1.628952E+06  1.611918E+06  1.331549E+06  5.859657E+03  1.948535E+05
       162  20  6.597274E+06  1.022270E+06  1.012249E+06  3.676497E+05  2.907779E+04  1.250417E+05
       162  21  4.135220E+06  4.373114E+05  4.311965E+05  1.326590E+06  5.312100E+04  3.069564E+04
       162  22  2.460375E+06 -2.585586E+02  3.151369E+04  1.311846E+06 -2.196012E+04  1.948582E+05
       162  23  2.460777E+06  1.204049E+03  2.250339E+04  3.499671E+05 -1.068530E+04  1.248381E+05
       162  24  2.463842E+06  2.271032E+04  2.430723E+04  1.311732E+06  1.506952E+03  3.019245E+04
       162  25 -4.109334E+06 -1.632613E+06 -1.551965E+06  1.292268E+06 -4.948734E+04  1.948647E+05
       162  26 -1.660183E+06 -1.021095E+06 -9.684425E+05  3.323726E+05 -5.018657E+04  1.246361E+05
       162  27  7.950024E+05 -3.920939E+05 -3.827743E+05  1.296905E+06 -4.996924E+04  2.969094E+04
       163   1  6.593406E+05 -4.270352E+05 -4.141436E+05  1.297011E+06 -5.891278E+04  3.370722E+04
       163   2 -1.798667E+06 -1.056592E+06 -9.937758E+05  3.314351E+05 -6.299033E+04  1.286954E+05
       163   3 -4.245965E+06 -1.660029E+06 -1.566154E+06  1.290960E+06 -6.611150E+04  1.987264E+05
       163   4  2.464737E+06  2.161832E+04  2.576827E+04  1.311891E+06 -7.381425E+03  3.420687E+04
       163   5  2.459292E+06 -2.125720E+02  3.020508E+04  3.497833E+05 -2.358209E+04  1.288888E+05
       163   6  2.461136E+06  6.617875E+03  5.061243E+04  1.311965E+06 -3.884050E+04  1.987076E+05
       163   7  4.273102E+06  4.700341E+05  4.654538E+05  1.326804E+06  4.429926E+04  3.470815E+04
       163   8  6.733842E+06  1.054851E+06  1.052904E+06  3.682273E+05  1.609634E+04  1.290839E+05
       163   9  9.209477E+06  1.669987E+06  1.664175E+06  1.333111E+06 -1.127273E+04  1.986909E+05
       163  10  6.593366E+05 -4.270374E+05 -4.141523E+05  1.297013E+06  5.831794E-11 -1.356639E-09
       163  11 -1.798676E+06 -1.056611E+06 -9.938144E+05  3.314416E+05 -4.868711E-09 -9.882687E-09
       163  12 -4.245981E+06 -1.660073E+06 -1.566237E+06  1.290970E+06  4.104794E-09 -2.790773E-10
       163  13  2.464736E+06  2.161705E+04  2.576596E+04  1.311891E+06 -1.148755E-08 -3.736725E-09
       163  14  2.459287E+06 -2.305821E+02  3.017278E+04  3.497858E+05 -5.565172E-09  4.994580E-09
       163  15  2.461124E+06  6.574999E+03  5.053524E+04  1.311971E+06 -6.473973E-09 -4.910171E-09
       163  16  4.273100E+06  4.700322E+05  4.654479E+05  1.326803E+06  7.421541E-09 -1.624620E-09
       163  17  6.733837E+06  1.054833E+06  1.052872E+06  3.682257E+05 -9.682367E-09 -1.254864E-09
       163  18  9.209467E+06  1.669945E+06  1.664101E+06  1.333113E+06  5.356727E-09  3.948168E-09
       163  19  6.593406E+05 -4.270352E+05 -4.141436E+05  1.297011E+06  5.891278E+04 -3.370722E+04
       163  20 -1.798667E+06 -1.056592E+06 -9.937758E+05  3.314351E+05  6.299033E+04 -1.286954E+05
       163  21 -4.245965E+06 -1.660029E+06 -1.566154E+06  1.290960E+06  6.611150E+04 -1.987264E+05
       163  22  2.464737E+06  2.161832E+04  2.576827E+04  1.311891E+06  7.381425E+03 -3.420687E+04
       163  23  2.459292E+06 -2.125720E+02  3.020508E+04  3.497833E+05  2.358209E+04 -1.288888E+05
       163  24  2.461136E+06  6.617875E+03  5.061243E+04  1.311965E+06  3.884050E+04 -1.987076E+05
       163  25  4.273102E+06  4.700341E+05  4.654538E+05  1.326804E+06 -4.429926E+04 -3.470815E+04
       163  26  6.733842E+06  1.054851E+06  1.052904E+06  3.682273E+05 -1.609634E+04 -1.290839E+05
       163  27  9.209477E+06  1.669987E+06  1.664175E+06  1.333111E+06  1.127273E+04 -1.986909E+05
       164   1 -7.714478E+06 -2.557102E+06 -2.396123E+06  1.337649E+06 -1.792213E+05  3.074112E+05
       164   2 -1.039518E+07 -3.250046E+06 -3.001161E+06  3.933125E+05 -5.553120E+04  4.007206E+05
       164   3 -1.278632E+07 -3.725526E+06 -3.583096E+06  1.443995E+06  6.410687E+04  1.404925E+05
       164   4  2.512208E+06 -1.097116E+04  7.300210E+04  1.326552E+06 -5.173144E+04  3.072630E+05
       164   5  2.349573E+06 -7.192240E+04  7.630562E+04  3.314072E+05 -9.613608E+04  4.004772E+05
       164   6  2.500845E+06  1.134223E+05  2.195316E+05  1.329007E+06 -1.440753E+05  1.433287E+05
       164   7  1.283512E+07  2.527527E+06  2.534716E+06  1.315138E+06  7.787591E+04  3.071111E+05
       164   8  1.524417E+07  3.094323E+06  3.142169E+06  2.684526E+05 -1.375648E+05  4.002471E+05
       164   9  1.800261E+07  3.934830E+06  4.004847E+06  1.211717E+06 -3.574236E+05  1.462131E+05
       164  10 -7.714539E+06 -2.557213E+06 -2.396362E+06  1.337694E+06 -2.422562E-09  1.127031E-09
       164  11 -1.039522E+07 -3.250220E+06 -3.001469E+06  3.933306E+05 -1.001278E-08  1.097901E-08
       164  12 -1.278633E+07 -3.725549E+06 -3.583141E+06  1.443987E+06  1.490197E-08  1.690179E-08
       164  13  2.512180E+06 -1.107342E+04  7.281930E+04  1.326564E+06 -8.277939E-09  3.223504E-09
       164  14  2.349520E+06 -7.209731E+04  7.598647E+04  3.314382E+05  2.154900E-09  9.855027E-09
       164  15  2.500817E+06  1.133946E+05  2.194539E+05  1.329024E+06  8.176182E-09 -1.692468E-08
       164  16  1.283509E+07  2.527424E+06  2.534527E+06  1.315119E+06  3.818531E-10  5.523123E-09
       164  17  1.524411E+07  3.094146E+06  3.141833E+06  2.684965E+05 -9.821466E-09  8.581476E-09
       164  18  1.800247E+07  3.934774E+06  4.004572E+06  1.211759E+06  3.374009E-10 -7.502401E-09
       164  19 -7.714478E+06 -2.557102E+06 -2.396123E+06  1.337649E+06  1.792213E+05 -3.074112E+05
       164  20 -1.039518E+07 -3.250046E+06 -3.001161E+06  3.933125E+05  5.553120E+04 -4.007206E+05
       164  21 -1.278632E+07 -3.725526E+06 -3.583096E+06  1.443995E+06 -6.410687E+04 -1.404925E+05
       164  22  2.512208E+06 -1.097116E+04  7.300210E+04  1.326552E+06  5.173144E+04 -3.072630E+05
       164  23  2.349573E+06 -7.192240E+04  7.630562E+04  3.314072E+05  9.613608E+04 -4.004772E+05
       164  24  2.500845E+06  1.134223E+05  2.195316E+05  1.329007E+06  1.440753E+05 -1.433287E+05
       164  25  1.283512E+07  2.527527E+06  2.534716E+06  1.315138E+06 -7.787591E+04 -3.071111E+05
       164  26  1.524417E+07  3.094323E+06  3.142169E+06  2.684526E+05  1.375648E+05 -4.002471E+05
       164  27  1.800261E+07  3.934830E+06  4.004847E+06  1.211717E+06  3.574236E+05 -1.462131E+05
       165   1 -2.875595E+06 -1.003199E+07 -2.916182E+06  1.288620E+06 -1.065735E+05 -2.006916E+05
       165   2 -2.162856E+06 -7.302033E+06 -2.140036E+06  2.351351E+05 -2.765116E+05 -4.723263E+04
       165   3 -1.402693E+06 -4.622445E+06 -1.460914E+06  1.304936E+06 -1.717902E+05  9.925480E+04
       165   4 -6.011361E+03  1.390618E+06 -7.605151E+04  1.473790E+06 -1.029502E+05 -5.374300E+04
       165   5  1.227520E+04  1.411229E+06 -3.839437E+04  4.116813E+05 -2.757645E+05 -2.999051E+04
       165   6  1.022512E+05  1.398787E+06 -5.840319E+03  1.471052E+06 -1.756125E+05 -1.382526E+04
       165   7  2.853814E+06  1.293280E+07  2.754399E+06  1.661563E+06 -9.927459E+04  9.594892E+04
       165   8  2.181907E+06  1.019441E+07  2.057826E+06  5.902185E+05 -2.750136E+05 -1.250189E+04
       165   9  1.604595E+06  7.453330E+06  1.446684E+06  1.638470E+06 -1.794761E+05 -1.280043E+05
       165  10 -2.875618E+06 -1.003203E+07 -2.916280E+06  1.288603E+06  1.709289E-09  4.737696E-09
       165  11 -2.162939E+06 -7.302056E+06 -2.140184E+06  2.351245E+05  2.164032E-08 -7.967723E-09
       165  12 -1.402728E+06 -4.622463E+06 -1.460989E+06  1.304950E+06  6.450320E-09  6.188806E-08
       165  13 -6.023503E+03  1.390612E+06 -7.607679E+04  1.473785E+06 -1.423162E-08  2.321362E-08
       165  14  1.219325E+04  1.411208E+06 -3.853902E+04  4.116746E+05 -1.261192E-09 -2.991036E-08
       165  15  1.022180E+05  1.398778E+06 -5.898632E+03  1.471050E+06 -3.225666E-08  1.300051E-08
       165  16  2.853801E+06  1.293279E+07  2.754363E+06  1.661570E+06 -2.542800E-09  1.876528E-08
       165  17  2.181826E+06  1.019439E+07  2.057683E+06  5.902158E+05 -2.633309E-08 -5.570282E-08
       165  18  1.604556E+06  7.453304E+06  1.446593E+06  1.638451E+06 -8.399085E-09 -3.406811E-08
       165  19 -2.875595E+06 -1.003199E+07 -2.916182E+06  1.288620E+06  1.065735E+05  2.006916E+05
       165  20 -2.162856E+06 -7.302033E+06 -2.140036E+06  2.351351E+05  2.765116E+05  4.723263E+04
       165  21 -1.402693E+06 -4.622445E+06 -1.460914E+06  1.304936E+06  1.717902E+05 -9.925480E+04
       165  22 -6.011361E+03  1.390618E+06 -7.605151E+04  1.473790E+06  1.029502E+05  5.374300E+04
       165  23  1.227520E+04  1.411229E+06 -3.839437E+04  4.116813E+05  2.757645E+05  2.999051E+04
       165  24  1.022512E+05  1.398787E+06 -5.840319E+03  1.471052E+06  1.756125E+05  1.382526E+04
       165  25  2.853814E+06  1.293280E+07  2.754399E+06  1.661563E+06  9.927459E+04 -9.594892E+04
       165  26  2.181907E+06  1.019441E+07  2.057826E+06  5.902185E+05  2.750136E+05  1.250189E+04
       165  27  1.604595E+06  7.453330E+06  1.446684E+06  1.638470E+06  1.794761E+05  1.280043E+05
       166   1 -4.618796E+05 -8.193154E+05 -5.346892E+05  1.412783E+06 -6.907946E+04  2.303712E+04
       166   2  1.495564E+05  1.938457E+06  1.285375E+05  4.305391E+05  1.509197E+04  1.361091E+04
       166   3  8.915213E+05  4.559490E+06  7.917599E+05  1.549373E+06  9.767885E+04  4.307934E+03
       166   4  8.646583E+04  1.383211E+06 -5.610132E+03  1.467614E+06 -7.054916E+04 -1.789064E+04
       166   5  2.912338E+04  1.454702E+06  1.227005E+04  4.168450E+05  1.367902E+04 -2.660554E+04
       166   6  1.027129E+05  1.382764E+06  3.015776E+04  1.467025E+06  9.630250E+04 -3.516764E+04
       166   7  6.344642E+05  3.590182E+06  5.231308E+05  1.522597E+06 -7.202333E+04 -5.896316E+04
       166   8 -9.132543E+04  9.711630E+05 -1.040079E+05  4.031598E+05  1.226728E+04 -6.679082E+04
       166   9 -6.868148E+05 -1.784767E+06 -7.321530E+05  1.385006E+06  9.493288E+04 -7.444270E+04
       166  10 -4.618849E+05 -8.193172E+05 -5.346992E+05  1.412784E+06 -1.753390E-11  6.804461E-08
       166  11  1.495561E+05  1.938457E+06  1.285367E+05  4.305389E+05  1.695275E-08  6.773560E-09
       166  12  8.915111E+05  4.559488E+06  7.917420E+05  1.549372E+06  7.295558E-09  6.240882E-08
       166  13  8.646040E+04  1.383209E+06 -5.620076E+03  1.467613E+06 -4.642584E-09  3.656448E-08
       166  14  2.912299E+04  1.454701E+06  1.226837E+04  4.168453E+05  3.560635E-08 -3.751627E-08
       166  15  1.027026E+05  1.382760E+06  3.013796E+04  1.467028E+06  2.231801E-08  1.340859E-08
       166  16  6.344577E+05  3.590177E+06  5.231146E+05  1.522593E+06 -2.654302E-09 -3.213181E-08
       166  17 -9.132679E+04  9.711582E+05 -1.040166E+05  4.031605E+05  2.420188E-08 -8.027068E-08
       166  18 -6.868260E+05 -1.784776E+06 -7.321805E+05  1.385012E+06  3.316878E-09 -3.386621E-08
       166  19 -4.618796E+05 -8.193154E+05 -5.346892E+05  1.412783E+06  6.907946E+04 -2.303712E+04
       166  20  1.495564E+05  1.938457E+06  1.285375E+05  4.305391E+05 -1.509197E+04 -1.361091E+04
       166  21  8.915213E+05  4.559490E+06  7.917599E+05  1.549373E+06 -9.767885E+04 -4.307934E+03
       166  22  8.646583E+04  1.383211E+06 -5.610132E+03  1.467614E+06  7.054916E+04  1.789064E+04
       166  23  2.912338E+04  1.454702E+06  1.227005E+04  4.168450E+05 -1.367902E+04  2.660554E+04
       166  24  1.027129E+05  1.382764E+06  3.015776E+04  1.467025E+06 -9.630250E+04  3.516764E+04
       166  25  6.344642E+05  3.590182E+06  5.231308E+05  1.522597E+06  7.202333E+04  5.896316E+04
       166  26 -9.132543E+04  9.711630E+05 -1.040079E+05  4.031598E+05 -1.226728E+04  6.679082E+04
       166  27 -6.868148E+05 -1.784767E+06 -7.321530E+05  1.385006E+06 -9.493288E+04  7.444270E+04
       167   1  1.829886E+06  8.450620E+06  1.731834E+06  1.637716E+06  2.077732E+05  7.186724E+04
       167   2  2.391838E+06  1.115185E+07  2.384749E+06  6.137807E+05  3.019800E+05 -1.046032E+05
       167   3  3.273145E+06  1.394440E+07  3.224412E+06  1.711685E+06  1.053682E+05 -2.743307E+05
       167   4  8.827691E+04  1.416908E+06  4.663255E+04  1.473097E+06  2.039080E+05 -4.690125E+04
       167   5 -2.052526E+04  1.382244E+06  5.426316E+04  4.103780E+05  3.029194E+05 -8.127906E+04
       167   6  1.671427E+05  1.407766E+06  1.521510E+05  1.471456E+06  1.091121E+05 -1.080930E+05
       167   7 -1.656859E+06 -5.571893E+06 -1.642015E+06  1.309904E+06  2.000823E+05 -1.643406E+05
       167   8 -2.439683E+06 -8.300933E+06 -2.282925E+06  2.095449E+05  3.038527E+05 -5.830864E+04
       167   9 -2.950323E+06 -1.098789E+07 -2.931514E+06  1.235092E+06  1.127711E+05  5.486619E+04
       167  10  1.829839E+06  8.450603E+06  1.731743E+06  1.637704E+06  1.064685E-08  5.659615E-08
       167  11  2.391738E+06  1.115181E+07  2.384557E+06  6.138060E+05 -2.933389E-08 -4.150913E-09
       167  12  3.273114E+06  1.394431E+07  3.224252E+06  1.711708E+06 -8.406109E-09  1.199795E-08
       167  13  8.823161E+04  1.416894E+06  4.655014E+04  1.473104E+06 -7.970393E-09  3.401398E-08
       167  14 -2.062565E+04  1.382212E+06  5.407814E+04  4.103978E+05 -1.429680E-08 -2.795846E-08
       167  15  1.671268E+05  1.407750E+06  1.521065E+05  1.471465E+06 -8.342877E-09  7.831243E-09
       167  16 -1.656909E+06 -5.571933E+06 -1.642141E+06  1.309931E+06  7.862929E-09 -2.294023E-08
       167  17 -2.439783E+06 -8.300961E+06 -2.283105E+06  2.095593E+05 -1.437487E-08 -5.159804E-08
       167  18 -2.950338E+06 -1.098790E+07 -2.931544E+06  1.235087E+06 -4.353532E-09  6.411707E-09
       167  19  1.829886E+06  8.450620E+06  1.731834E+06  1.637716E+06 -2.077732E+05 -7.186724E+04
       167  20  2.391838E+06  1.115185E+07  2.384749E+06  6.137807E+05 -3.019800E+05  1.046032E+05
       167  21  3.273145E+06  1.394440E+07  3.224412E+06  1.711685E+06 -1.053682E+05  2.743307E+05
       167  22  8.827691E+04  1.416908E+06  4.663255E+04  1.473097E+06 -2.039080E+05  4.690125E+04
       167  23 -2.052526E+04  1.382244E+06  5.426316E+04  4.103780E+05 -3.029194E+05  8.127906E+04
       167  24  1.671427E+05  1.407766E+06  1.521510E+05  1.471456E+06 -1.091121E+05  1.080930E+05
       167  25 -1.656859E+06 -5.571893E+06 -1.642015E+06  1.309904E+06 -2.000823E+05  1.643406E+05
       167  26 -2.439683E+06 -8.300933E+06 -2.282925E+06  2.095449E+05 -3.038527E+05  5.830864E+04
       167  27 -2.950323E+06 -1.098789E+07 -2.931514E+06  1.235092E+06 -1.127711E+05 -5.486619E+04
       168   1  1.869869E+07  4.044322E+06  4.144720E+06  1.221510E+06  4.554289E+05 -1.476766E+05
       168   2  1.595905E+07  3.085508E+06  3.212656E+06  2.674372E+05  2.016249E+05 -4.015603E+05
       168   3  1.360756E+07  2.539568E+06  2.592039E+06  1.274759E+06 -4.761215E+04 -3.098412E+05
       168   4  3.192095E+06  2.260697E+05  3.615542E+05  1.304736E+06  2.405979E+05 -1.447964E+05
       168   5  3.020876E+06 -8.887247E+04  1.388239E+05  3.207190E+05  1.588471E+05 -4.017862E+05
       168   6  3.203518E+06 -1.675251E+04  1.132209E+05  1.300756E+06  8.065106E+04 -3.100001E+05
       168   7 -1.210000E+07 -3.609708E+06 -3.438896E+06  1.386499E+06  3.094248E+04 -1.419416E+05
       168   8 -9.766613E+06 -3.275193E+06 -2.946668E+06  3.731494E+05  1.169119E+05 -4.020243E+05
       168   9 -7.102893E+06 -2.580809E+06 -2.373112E+06  1.326194E+06  2.068013E+05 -3.101495E+05
       168  10  1.869847E+07  4.044245E+06  4.144300E+06  1.221564E+06  8.205370E-09  6.857240E-09
       168  11  1.595896E+07  3.085324E+06  3.212278E+06  2.675018E+05  5.822758E-09 -2.512143E-08
       168  12  1.360753E+07  2.539464E+06  2.591855E+06  1.274747E+06 -5.702923E-09 -3.377996E-09
       168  13  3.192027E+06  2.260316E+05  3.614062E+05  1.304764E+06  6.751705E-09 -3.876946E-08
       168  14  3.020805E+06 -8.905284E+04  1.384727E+05  3.207704E+05 -8.460460E-09 -2.840390E-08
       168  15  3.203485E+06 -1.685767E+04  1.130276E+05  1.300776E+06  9.104763E-09  2.329295E-10
       168  16 -1.210000E+07 -3.609730E+06 -3.438936E+06  1.386502E+06 -2.467653E-08 -2.716703E-08
       168  17 -9.766671E+06 -3.275371E+06 -2.946999E+06  3.731876E+05 -1.156452E-08 -8.990010E-09
       168  18 -7.102965E+06 -2.580925E+06 -2.373375E+06  1.326246E+06  9.526007E-09 -6.262763E-09
       168  19  1.869869E+07  4.044322E+06  4.144720E+06  1.221510E+06 -4.554289E+05  1.476766E+05
       168  20  1.595905E+07  3.085508E+06  3.212656E+06  2.674372E+05 -2.016249E+05  4.015603E+05
       168  21  1.360756E+07  2.539568E+06  2.592039E+06  1.274759E+06  4.761215E+04  3.098412E+05
       168  22  3.192095E+06  2.260697E+05  3.615542E+05  1.304736E+06 -2.405979E+05  1.447964E+05
       168  23  3.020876E+06 -8.887247E+04  1.388239E+05  3.207190E+05 -1.588471E+05  4.017862E+05
       168  24  3.203518E+06 -1.675251E+04  1.132209E+05  1.300756E+06 -8.065106E+04  3.100001E+05
       168  25 -1.210000E+07 -3.609708E+06 -3.438896E+06  1.386499E+06 -3.094248E+04  1.419416E+05
       168  26 -9.766613E+06 -3.275193E+06 -2.946668E+06  3.731494E+05 -1.169119E+05  4.020243E+05
       168  27 -7.102893E+06 -2.580809E+06 -2.373112E+06  1.326194E+06 -2.068013E+05  3.101495E+05
       169   1  1.005745E+07  1.720775E+06  1.735697E+06  1.306599E+06  3.508907E+04 -2.028268E+05
       169   2  7.644432E+06  1.108203E+06  1.126091E+06  3.663990E+05 -2.043992E+03 -1.357547E+05
       169   3  5.253907E+06  5.440969E+05  5.516031E+05  1.296495E+06 -3.999906E+04 -4.416896E+04
       169   4  3.145117E+06  1.837401E+04  8.421935E+04  1.281097E+06  6.138508E+04 -2.028547E+05
       169   5  3.139387E+06 -2.794965E+03  4.918464E+04  3.455101E+05  3.635587E+04 -1.355666E+05
       169   6  3.148829E+06  2.288199E+04  4.148400E+04  1.281061E+06  1.036207E+04 -4.366854E+04
       169   7 -3.724000E+06 -1.687459E+06 -1.570614E+06  1.255786E+06  8.739027E+04 -2.028850E+05
       169   8 -1.347256E+06 -1.115252E+06 -1.029144E+06  3.247370E+05  7.448020E+04 -1.353805E+05
       169   9  1.047769E+06 -4.986544E+05 -4.689440E+05  1.265664E+06  6.055405E+04 -4.316963E+04
       169  10  1.005743E+07  1.720730E+06  1.735617E+06  1.306605E+06  6.124180E-10  1.111047E-08
       169  11  7.644427E+06  1.108183E+06  1.126057E+06  3.663987E+05  1.051819E-09 -1.088516E-08
       169  12  5.253905E+06  5.440944E+05  5.515964E+05  1.296494E+06  2.150602E-08  1.647774E-09
       169  13  3.145102E+06  1.832871E+04  8.413474E+04  1.281107E+06  8.137652E-09  9.537460E-09
       169  14  3.139381E+06 -2.815085E+03  4.914757E+04  3.455140E+05 -1.106316E-08  5.150765E-09
       169  15  3.148828E+06  2.287991E+04  4.148021E+04  1.281061E+06 -9.372936E-09 -6.134104E-09
       169  16 -3.724019E+06 -1.687506E+06 -1.570706E+06  1.255800E+06  5.767300E-09 -2.216430E-09
       169  17 -1.347267E+06 -1.115273E+06 -1.029189E+06  3.247452E+05  2.105819E-09  5.861104E-09
       169  18  1.047765E+06 -4.986574E+05 -4.689544E+05  1.265666E+06 -1.904652E-08 -8.837536E-10
       169  19  1.005745E+07  1.720775E+06  1.735697E+06  1.306599E+06 -3.508907E+04  2.028268E+05
       169  20  7.644432E+06  1.108203E+06  1.126091E+06  3.663990E+05  2.043992E+03  1.357547E+05
       169  21  5.253907E+06  5.440969E+05  5.516031E+05  1.296495E+06  3.999906E+04  4.416896E+04
       169  22  3.145117E+06  1.837401E+04  8.421935E+04  1.281097E+06 -6.138508E+04  2.028547E+05
       169  23  3.139387E+06 -2.794965E+03  4.918464E+04  3.455101E+05 -3.635587E+04  1.355666E+05
       169  24  3.148829E+06  2.288199E+04  4.148400E+04  1.281061E+06 -1.036207E+04  4.366854E+04
       169  25 -3.724000E+06 -1.687459E+06 -1.570614E+06  1.255786E+06 -8.739027E+04  2.028850E+05
       169  26 -1.347256E+06 -1.115252E+06 -1.029144E+06  3.247370E+05 -7.448020E+04  1.353805E+05
       169  27  1.047769E+06 -4.986544E+05 -4.689440E+05  1.265664E+06 -6.055405E+04  4.316963E+04
       170   1  1.878709E+06 -2.914058E+05 -2.711112E+05  1.269533E+06 -4.798109E+04  1.825237E+04
       170   2 -5.044027E+05 -9.037431E+05 -8.367428E+05  3.283472E+05 -5.763540E+04  1.101788E+05
       170   3 -2.883860E+06 -1.481636E+06 -1.391316E+06  1.254238E+06 -6.643872E+04  1.787996E+05
       170   4  3.146357E+06  2.360777E+04  3.909392E+04  1.279996E+06  1.817265E+03  1.876172E+04
       170   5  3.144630E+06  5.814720E+02  3.978763E+04  3.468298E+05 -1.917987E+04  1.104149E+05
       170   6  3.143363E+06  1.435975E+04  5.970037E+04  1.280049E+06 -3.936090E+04  1.788403E+05
       170   7  4.415467E+06  3.385044E+05  3.491912E+05  1.290474E+06  5.171682E+04  1.927214E+04
       170   8  6.805827E+06  9.039421E+05  9.153800E+05  3.653962E+05  1.950110E+04  1.106526E+05
       170   9  9.203830E+06  1.507716E+06  1.508137E+06  1.306033E+06 -1.201893E+04  1.788831E+05
       170  10  1.878707E+06 -2.914068E+05 -2.711162E+05  1.269534E+06  8.278782E-10  2.215993E-10
       170  11 -5.044095E+05 -9.037571E+05 -8.367719E+05  3.283523E+05 -2.663522E-09 -1.048377E-08
       170  12 -2.883873E+06 -1.481672E+06 -1.391385E+06  1.254248E+06 -2.069915E-09 -1.404952E-08
       170  13  3.146357E+06  2.360739E+04  3.909325E+04  1.279996E+06 -2.048447E-09 -5.947770E-09
       170  14  3.144627E+06  5.682618E+02  3.976399E+04  3.468315E+05  1.582170E-08 -6.231537E-09
       170  15  3.143352E+06  1.432492E+04  5.963722E+04  1.280055E+06  2.247741E-09 -1.058395E-08
       170  16  4.415464E+06  3.385033E+05  3.491855E+05  1.290473E+06 -3.826416E-09 -7.241967E-09
       170  17  6.805824E+06  9.039289E+05  9.153563E+05  3.653945E+05 -5.568177E-09  1.568495E-08
       170  18  9.203821E+06  1.507681E+06  1.508076E+06  1.306035E+06 -1.355781E-08 -5.831522E-09
       170  19  1.878709E+06 -2.914058E+05 -2.711112E+05  1.269533E+06  4.798109E+04 -1.825237E+04
       170  20 -5.044027E+05 -9.037431E+05 -8.367428E+05  3.283472E+05  5.763540E+04 -1.101788E+05
       170  21 -2.883860E+06 -1.481636E+06 -1.391316E+06  1.254238E+06  6.643872E+04 -1.787996E+05
       170  22  3.146357E+06  2.360777E+04  3.909392E+04  1.279996E+06 -1.817265E+03 -1.876172E+04
       170  23  3.144630E+06  5.814720E+02  3.978763E+04  3.468298E+05  1.917987E+04 -1.104149E+05
       170  24  3.143363E+06  1.435975E+04  5.970037E+04  1.280049E+06  3.936090E+04 -1.788403E+05
       170  25  4.415467E+06  3.385044E+05  3.491912E+05  1.290474E+06 -5.171682E+04 -1.927214E+04
       170  26  6.805827E+06  9.039421E+05  9.153800E+05  3.653962E+05 -1.950110E+04 -1.106526E+05
       170  27  9.203830E+06  1.507716E+06  1.508137E+06  1.306033E+06  1.201893E+04 -1.788831E+05
       171   1 -6.259467E+06 -2.356791E+06 -2.198143E+06  1.301285E+06 -1.756660E+05  2.828937E+05
       171   2 -8.871655E+06 -3.035225E+06 -2.783202E+06  3.613944E+05 -6.832037E+04  3.742747E+05
       171   3 -1.122266E+07 -3.470690E+06 -3.335612E+06  1.372244E+06  3.604719E+04  1.321760E+05
       171   4  3.191161E+06 -6.786060E+03  8.095692E+04  1.297782E+06 -5.367669E+04  2.829726E+05
       171   5  3.044097E+06 -6.793907E+04  9.027937E+04  3.245980E+05 -1.053164E+05  3.739980E+05
       171   6  3.180689E+06  1.407083E+05  2.424223E+05  1.300024E+06 -1.595001E+05  1.343458E+05
       171   7  1.272381E+07  2.336717E+06  2.353746E+06  1.294085E+06  7.018128E+04  2.830490E+05
       171   8  1.509058E+07  2.888987E+06  2.953644E+06  2.872296E+05 -1.430112E+05  3.737306E+05
       171   9  1.777415E+07  3.736566E+06  3.805128E+06  1.226495E+06 -3.596062E+05  1.365408E+05
       171  10 -6.259523E+06 -2.356886E+06 -2.198353E+06  1.301325E+06 -6.321390E-09 -2.640432E-09
       171  11 -8.871697E+06 -3.035377E+06 -2.783474E+06  3.614152E+05  9.198148E-09  2.507188E-08
       171  12 -1.122266E+07 -3.470709E+06 -3.335648E+06  1.372240E+06  2.057107E-08  1.159182E-08
       171  13  3.191136E+06 -6.872987E+03  8.080068E+04  1.297795E+06 -3.259906E-09 -1.044646E-08
       171  14  3.044048E+06 -6.809247E+04  8.999528E+04  3.246297E+05  9.679310E-10 -1.419303E-09
       171  15  3.180657E+06  1.406820E+05  2.423405E+05  1.300041E+06  8.434476E-09  2.962855E-09
       171  16  1.272378E+07  2.336630E+06  2.353587E+06  1.294069E+06  1.315242E-08 -5.496037E-09
       171  17  1.509052E+07  2.888832E+06  2.953344E+06  2.872723E+05  1.181086E-09  2.339593E-09
       171  18  1.777401E+07  3.736512E+06  3.804856E+06  1.226534E+06 -1.729956E-08  1.721088E-08
       171  19 -6.259467E+06 -2.356791E+06 -2.198143E+06  1.301285E+06  1.756660E+05 -2.828937E+05
       171  20 -8.871655E+06 -3.035225E+06 -2.783202E+06  3.613944E+05  6.832037E+04 -3.742747E+05
       171  21 -1.122266E+07 -3.470690E+06 -3.335612E+06  1.372244E+06 -3.604719E+04 -1.321760E+05
       171  22  3.191161E+06 -6.786060E+03  8.095692E+04  1.297782E+06  5.367669E+04 -2.829726E+05
       171  23  3.044097E+06 -6.793907E+04  9.027937E+04  3.245980E+05  1.053164E+05 -3.739980E+05
       171  24  3.180689E+06  1.407083E+05  2.424223E+05  1.300024E+06  1.595001E+05 -1.343458E+05
       171  25  1.272381E+07  2.336717E+06  2.353746E+06  1.294085E+06 -7.018128E+04 -2.830490E+05
       171  26  1.509058E+07  2.888987E+06  2.953644E+06  2.872296E+05  1.430112E+05 -3.737306E+05
       171  27  1.777415E+07  3.736566E+06  3.805128E+06  1.226495E+06  3.596062E+05 -1.365408E+05
       172   1 -2.751726E+06 -1.035640E+07 -2.842569E+06  1.204981E+06 -9.881328E+04 -3.353403E+05
       172   2 -1.887464E+06 -7.814121E+06 -2.002027E+06  1.995472E+05 -2.482448E+05 -1.419516E+05
       172   3 -1.217896E+06 -5.396040E+06 -1.347153E+06  1.143344E+06 -1.505748E+05  4.543471E+04
       172   4 -1.888003E+05 -1.522765E+05 -3.032654E+05  1.314700E+06 -9.558917E+04 -2.057288E+05
       172   5  4.020542E+04 -9.514709E+04 -1.384433E+05  3.372382E+05 -2.476527E+05 -1.281916E+05
       172   6  9.772447E+04 -1.454662E+05 -7.606938E+04  1.307667E+06 -1.539430E+05 -5.740016E+04
       172   7  2.366295E+06  1.014742E+07  2.228295E+06  1.425581E+06 -9.234711E+04 -7.393737E+04
       172   8  1.963538E+06  7.678790E+06  1.720873E+06  4.762677E+05 -2.470587E+05 -1.142508E+05
       172   9  1.411375E+06  5.130491E+06  1.193071E+06  1.473158E+06 -1.573510E+05 -1.611064E+05
       172  10 -2.751768E+06 -1.035653E+07 -2.842802E+06  1.204954E+06 -5.351418E-09  1.280667E-08
       172  11 -1.887536E+06 -7.814159E+06 -2.002181E+06  1.995187E+05 -2.033839E-09 -7.542926E-09
       172  12 -1.217921E+06 -5.396048E+06 -1.347200E+06  1.143350E+06  1.521235E-08 -1.536625E-08
       172  13 -1.888214E+05 -1.523244E+05 -3.033619E+05  1.314684E+06 -1.225395E-08  2.355442E-08
       172  14  4.013517E+04 -9.518118E+04 -1.385894E+05  3.372127E+05 -1.061687E-08  3.025582E-08
       172  15  9.769817E+04 -1.454761E+05 -7.612001E+04  1.307660E+06 -9.432726E-09  6.321820E-08
       172  16  2.366285E+06  1.014741E+07  2.228269E+06  1.425576E+06 -1.355185E-08 -9.891553E-10
       172  17  1.963469E+06  7.678759E+06  1.720734E+06  4.762451E+05 -4.809166E-08 -2.493789E-08
       172  18  1.411342E+06  5.130456E+06  1.192977E+06  1.473138E+06  5.797134E-09  9.855037E-09
       172  19 -2.751726E+06 -1.035640E+07 -2.842569E+06  1.204981E+06  9.881328E+04  3.353403E+05
       172  20 -1.887464E+06 -7.814121E+06 -2.002027E+06  1.995472E+05  2.482448E+05  1.419516E+05
       172  21 -1.217896E+06 -5.396040E+06 -1.347153E+06  1.143344E+06  1.505748E+05 -4.543471E+04
       172  22 -1.888003E+05 -1.522765E+05 -3.032654E+05  1.314700E+06  9.558917E+04  2.057288E+05
       172  23  4.020542E+04 -9.514709E+04 -1.384433E+05  3.372382E+05  2.476527E+05  1.281916E+05
       172  24  9.772447E+04 -1.454662E+05 -7.606938E+04  1.307667E+06  1.539430E+05  5.740016E+04
       172  25  2.366295E+06  1.014742E+07  2.228295E+06  1.425581E+06  9.234711E+04  7.393737E+04
       172  26  1.963538E+06  7.678790E+06  1.720873E+06  4.762677E+05  2.470587E+05  1.142508E+05
       172  27  1.411375E+06  5.130491E+06  1.193071E+06  1.473158E+06  1.573510E+05  1.611064E+05
       173   1 -3.703063E+05 -1.862081E+06 -4.776362E+05  1.276815E+06 -5.604596E+04 -1.113341E+04
       173   2  2.208120E+05  6.945910E+05  1.564572E+05  3.569218E+05  2.333888E+04  3.684369E+02
       173   3  8.901448E+05  3.118198E+06  7.682817E+05  1.384744E+06  1.001541E+05  1.215476E+04
       173   4  5.682107E+04 -1.455097E+05 -6.518038E+04  1.310464E+06 -5.737811E+04 -4.961801E+04
       173   5  2.868598E+04 -7.637463E+04 -2.910471E+04  3.362223E+05  2.208847E+04 -3.688901E+04
       173   6  7.899932E+04 -1.461446E+05 -1.568091E+04  1.309684E+06  9.896505E+04 -2.393008E+04
       173   7  4.837362E+05  1.573769E+06  3.470716E+05  1.344181E+06 -5.871248E+04 -8.820877E+04
       173   8 -1.634819E+05 -8.467934E+05 -2.147038E+05  3.155441E+05  2.083974E+04 -7.410035E+04
       173   9 -7.329114E+05 -3.400754E+06 -8.003959E+05  1.234928E+06  9.778147E+04 -5.982628E+04
       173  10 -3.703097E+05 -1.862082E+06 -4.776423E+05  1.276815E+06  1.587642E-08 -1.624863E-08
       173  11  2.208114E+05  6.945909E+05  1.564562E+05  3.569217E+05 -1.433191E-08 -2.139026E-08
       173  12  8.901340E+05  3.118195E+06  7.682626E+05  1.384743E+06 -2.014984E-09 -2.704209E-08
       173  13  5.681688E+04 -1.455132E+05 -6.519117E+04  1.310462E+06  1.639130E-08  3.472682E-08
       173  14  2.868509E+04 -7.637622E+04 -2.910819E+04  3.362230E+05 -1.212001E-09  3.510139E-08
       173  15  7.898864E+04 -1.461478E+05 -1.570041E+04  1.309686E+06  4.877540E-09  6.392702E-08
       173  16  4.837305E+05  1.573760E+06  3.470506E+05  1.344177E+06  1.852938E-08  3.185202E-08
       173  17 -1.634839E+05 -8.467994E+05 -2.147149E+05  3.155453E+05  4.558362E-08 -1.528898E-08
       173  18 -7.329227E+05 -3.400761E+06 -8.004207E+05  1.234933E+06  2.100935E-09  2.202470E-08
       173  19 -3.703063E+05 -1.862081E+06 -4.776362E+05  1.276815E+06  5.604596E+04  1.113341E+04
       173  20  2.208120E+05  6.945910E+05  1.564572E+05  3.569218E+05 -2.333888E+04 -3.684369E+02
       173  21  8.901448E+05  3.118198E+06  7.682817E+05  1.384744E+06 -1.001541E+05 -1.215476E+04
       173  22  5.682107E+04 -1.455097E+05 -6.518038E+04  1.310464E+06  5.737811E+04  4.961801E+04
       173  23  2.868598E+04 -7.637463E+04 -2.910471E+04  3.362223E+05 -2.208847E+04  3.688901E+04
       173  24  7.899932E+04 -1.461446E+05 -1.568091E+04  1.309684E+06 -9.896505E+04  2.393008E+04
       173  25  4.837362E+05  1.573769E+06  3.470716E+05  1.344181E+06  5.871248E+04  8.820877E+04
       173  26 -1.634819E+05 -8.467934E+05 -2.147038E+05  3.155441E+05 -2.083974E+04  7.410035E+04
       173  27 -7.329114E+05 -3.400754E+06 -8.003959E+05  1.234928E+06 -9.778147E+04  5.982628E+04
       174   1  1.772033E+06  6.707723E+06  1.635491E+06  1.473269E+06  2.027936E+05  8.408407E+04
       174   2  2.300453E+06  9.189811E+06  2.218540E+06  5.127958E+05  2.901940E+05 -4.875510E+04
       174   3  2.991492E+06  1.172560E+07  2.923494E+06  1.493642E+06  1.023756E+05 -1.754274E+05
       174   4  7.796044E+04 -1.199931E+05 -3.337630E+03  1.308794E+06  1.993847E+05 -2.675407E+04
       174   5 -5.586417E+03 -1.361774E+05 -1.028655E+04  3.375724E+05  2.910612E+05 -2.587997E+04
       174   6  5.073267E+04 -1.279716E+05  1.297551E+04  1.309487E+06  1.056965E+05 -1.826846E+04
       174   7 -1.619445E+06 -6.905273E+06 -1.645431E+06  1.145744E+06  1.960145E+05 -1.363861E+05
       174   8 -2.317855E+06 -9.383174E+06 -2.245246E+06  1.644471E+05  2.919234E+05 -3.341866E+03
       174   9 -2.900354E+06 -1.185512E+07 -2.907783E+06  1.128044E+06  1.089600E+05  1.359383E+05
       174  10  1.771988E+06  6.707705E+06  1.635400E+06  1.473255E+06  1.457825E-08 -3.713748E-09
       174  11  2.300362E+06  9.189786E+06  2.218377E+06  5.128071E+05 -8.563163E-09 -1.363875E-08
       174  12  2.991473E+06  1.172556E+07  2.923418E+06  1.493656E+06  2.337953E-09 -1.795907E-10
       174  13  7.791755E+04 -1.200045E+05 -3.413723E+03  1.308799E+06 -1.049210E-08  3.201835E-08
       174  14 -5.677570E+03 -1.362008E+05 -1.044702E+04  3.375785E+05  6.913268E-09  2.659827E-08
       174  15  5.072058E+04 -1.279749E+05  1.295387E+04  1.309489E+06  3.814506E-09  3.690458E-08
       174  16 -1.619492E+06 -6.905303E+06 -1.645538E+06  1.145765E+06  7.940040E-09  1.881595E-08
       174  17 -2.317947E+06 -9.383197E+06 -2.245406E+06  1.644479E+05  1.160440E-08 -1.356444E-08
       174  18 -2.900372E+06 -1.185514E+07 -2.907840E+06  1.128032E+06 -3.192926E-09 -1.401816E-09
       174  19  1.772033E+06  6.707723E+06  1.635491E+06  1.473269E+06 -2.027936E+05 -8.408407E+04
       174  20  2.300453E+06  9.189811E+06  2.218540E+06  5.127958E+05 -2.901940E+05  4.875510E+04
       174  21  2.991492E+06  1.172560E+07  2.923494E+06  1.493642E+06 -1.023756E+05  1.754274E+05
       174  22  7.796044E+04 -1.199931E+05 -3.337630E+03  1.308794E+06 -1.993847E+05  2.675407E+04
       174  23 -5.586417E+03 -1.361774E+05 -1.028655E+04  3.375724E+05 -2.910612E+05  2.587997E+04
       174  24  5.073267E+04 -1.279716E+05  1.297551E+04  1.309487E+06 -1.056965E+05  1.826846E+04
       174  25 -1.619445E+06 -6.905273E+06 -1.645431E+06  1.145744E+06 -1.960145E+05  1.363861E+05
       174  26 -2.317855E+06 -9.383174E+06 -2.245246E+06  1.644471E+05 -2.919234E+05  3.341866E+03
       174  27 -2.900354E+06 -1.185512E+07 -2.907783E+06  1.128044E+06 -1.089600E+05 -1.359383E+05
       175   1  2.146605E+07  4.597472E+06  4.680372E+06  1.306608E+06  4.570994E+05 -1.690133E+05
       175   2  1.856836E+07  3.631473E+06  3.721097E+06  3.351605E+05  1.926081E+05 -4.698784E+05
       175   3  1.611763E+07  3.078835E+06  3.091322E+06  1.417770E+06 -6.817551E+04 -3.764222E+05
       175   4  3.545235E+06  1.926709E+05  3.163878E+05  1.381557E+06  2.068324E+05 -1.665161E+05
       175   5  3.348860E+06 -9.593298E+04  1.113349E+05  3.513524E+05  1.391286E+05 -4.704771E+05
       175   6  3.559227E+06 -1.655664E+03  1.050150E+05  1.378576E+06  7.400584E+04 -3.758428E+05
       175   7 -1.408989E+07 -4.235473E+06 -4.070609E+06  1.454904E+06 -3.647965E+04 -1.640495E+05
       175   8 -1.166269E+07 -3.839820E+06 -3.514515E+06  3.672410E+05  8.689169E+04 -4.710905E+05
       175   9 -8.857298E+06 -3.093389E+06 -2.892220E+06  1.339751E+06  2.133693E+05 -3.752753E+05
       175  10  2.146583E+07  4.597387E+06  4.679937E+06  1.306670E+06 -1.836114E-08  3.209900E-09
       175  11  1.856826E+07  3.631226E+06  3.720614E+06  3.352326E+05 -9.970057E-09  4.407100E-09
       175  12  1.611759E+07  3.078682E+06  3.091047E+06  1.417750E+06  2.249850E-08 -1.962468E-08
       175  13  3.545182E+06  1.926296E+05  3.162553E+05  1.381585E+06  4.904674E-09 -9.306776E-09
       175  14  3.348779E+06 -9.617626E+04  1.108819E+05  3.514051E+05  9.939459E-09  4.173835E-09
       175  15  3.559182E+06 -1.809145E+03  1.047386E+05  1.378598E+06  2.068256E-08 -7.398483E-09
       175  16 -1.408990E+07 -4.235503E+06 -4.070662E+06  1.454899E+06  9.875851E-09 -1.902194E-09
       175  17 -1.166275E+07 -3.840061E+06 -3.514948E+06  3.672743E+05  4.490423E-09  1.153983E-08
       175  18 -8.857385E+06 -3.093554E+06 -2.892573E+06  1.339816E+06 -8.727980E-09 -2.431925E-08
       175  19  2.146605E+07  4.597472E+06  4.680372E+06  1.306608E+06 -4.570994E+05  1.690133E+05
       175  20  1.856836E+07  3.631473E+06  3.721097E+06  3.351605E+05 -1.926081E+05  4.698784E+05
       175  21  1.611763E+07  3.078835E+06  3.091322E+06  1.417770E+06  6.817551E+04  3.764222E+05
       175  22  3.545235E+06  1.926709E+05  3.163878E+05  1.381557E+06 -2.068324E+05  1.665161E+05
       175  23  3.348860E+06 -9.593298E+04  1.113349E+05  3.513524E+05 -1.391286E+05  4.704771E+05
       175  24  3.559227E+06 -1.655664E+03  1.050150E+05  1.378576E+06 -7.400584E+04  3.758428E+05
       175  25 -1.408989E+07 -4.235473E+06 -4.070609E+06  1.454904E+06  3.647965E+04  1.640495E+05
       175  26 -1.166269E+07 -3.839820E+06 -3.514515E+06  3.672410E+05 -8.689169E+04  4.710905E+05
       175  27 -8.857298E+06 -3.093389E+06 -2.892220E+06  1.339751E+06 -2.133693E+05  3.752753E+05
       176   1  1.241579E+07  2.219207E+06  2.204577E+06  1.426626E+06  2.973079E+04 -2.594501E+05
       176   2  9.927196E+06  1.585107E+06  1.581694E+06  4.535480E+05 -7.731510E+03 -1.934964E+05
       176   3  7.455509E+06  1.029770E+06  9.988374E+05  1.408034E+06 -4.664218E+04 -9.961357E+04
       176   4  3.492538E+06  2.405556E+04  7.529678E+04  1.350642E+06  5.479452E+04 -2.594054E+05
       176   5  3.490835E+06 -6.845203E+02  4.521836E+04  3.860574E+05  3.119003E+04 -1.930571E+05
       176   6  3.497957E+06  5.136756E+04  4.623784E+04  1.350271E+06  5.988529E+03 -9.863263E+04
       176   7 -5.358883E+06 -2.176796E+06 -2.059567E+06  1.275462E+06  7.950089E+04 -2.593670E+05
       176   8 -2.908054E+06 -1.589442E+06 -1.494159E+06  3.191133E+05  6.971358E+04 -1.926241E+05
       176   9 -4.454148E+05 -9.281627E+05 -9.074650E+05  1.292792E+06  5.828798E+04 -9.765804E+04
       176  10  1.241577E+07  2.219135E+06  2.204449E+06  1.426632E+06  8.482713E-10 -3.033429E-08
       176  11  9.927186E+06  1.585067E+06  1.581623E+06  4.535468E+05 -3.970580E-09  1.001032E-08
       176  12  7.455504E+06  1.029759E+06  9.988147E+05  1.408030E+06 -2.004387E-08  2.841504E-08
       176  13  3.492517E+06  2.398234E+04  7.516437E+04  1.350653E+06 -2.316013E-09 -2.542079E-08
       176  14  3.490824E+06 -7.248718E+02  4.514638E+04  3.860623E+05 -7.646392E-09 -6.137372E-09
       176  15  3.497955E+06  5.135709E+04  4.621946E+04  1.350272E+06 -7.021170E-10 -7.345212E-09
       176  16 -5.358908E+06 -2.176871E+06 -2.059706E+06  1.275479E+06  3.783251E-10 -1.456697E-08
       176  17 -2.908069E+06 -1.589484E+06 -1.494238E+06  3.191242E+05 -6.026546E-09 -2.542493E-09
       176  18 -4.454211E+05 -9.281739E+05 -9.074894E+05  1.292796E+06 -1.183235E-09  1.723077E-08
       176  19  1.241579E+07  2.219207E+06  2.204577E+06  1.426626E+06 -2.973079E+04  2.594501E+05
       176  20  9.927196E+06  1.585107E+06  1.581694E+06  4.535480E+05  7.731510E+03  1.934964E+05
       176  21  7.455509E+06  1.029770E+06  9.988374E+05  1.408034E+06  4.664218E+04  9.961357E+04
       176  22  3.492538E+06  2.405556E+04  7.529678E+04  1.350642E+06 -5.479452E+04  2.594054E+05
       176  23  3.490835E+06 -6.845203E+02  4.521836E+04  3.860574E+05 -3.119003E+04  1.930571E+05
       176  24  3.497957E+06  5.136756E+04  4.623784E+04  1.350271E+06 -5.988529E+03  9.863263E+04
       176  25 -5.358883E+06 -2.176796E+06 -2.059567E+06  1.275462E+06 -7.950089E+04  2.593670E+05
       176  26 -2.908054E+06 -1.589442E+06 -1.494159E+06  3.191133E+05 -6.971358E+04  1.926241E+05
       176  27 -4.454148E+05 -9.281627E+05 -9.074650E+05  1.292792E+06 -5.828798E+04  9.765804E+04
       177   1  3.989308E+06  1.684005E+05  1.570564E+05  1.351602E+06 -5.417423E+04 -3.583098E+04
       177   2  1.584599E+06 -4.681108E+05 -4.099055E+05  3.668629E+05 -7.235883E+04  5.745317E+04
       177   3 -8.668096E+05 -1.018718E+06 -9.609926E+05  1.282189E+06 -8.976574E+04  1.298716E+05
       177   4  3.489165E+06  4.587311E+04  4.336199E+04  1.343999E+06 -4.074313E+03 -3.482049E+04
       177   5  3.513541E+06  9.765284E+03  5.275272E+04  3.940494E+05 -3.243779E+04  5.816930E+04
       177   6  3.487512E+06  6.167038E+04  8.534605E+04  1.343693E+06 -6.008845E+04  1.303392E+05
       177   7  2.989258E+06 -7.667000E+04 -7.033921E+04  1.336401E+06  4.598581E+04 -3.381076E+04
       177   8  5.445877E+06  4.873744E+05  5.151539E+05  4.213041E+05  7.606640E+03  5.888778E+04
       177   9  7.859154E+06  1.140690E+06  1.130344E+06  1.405536E+06 -3.020254E+04  1.308109E+05
       177  10  3.989305E+06  1.683983E+05  1.570485E+05  1.351600E+06  9.652028E-09  4.091533E-08
       177  11  1.584593E+06 -4.681158E+05 -4.099216E+05  3.668662E+05 -1.110121E-10  2.537613E-08
       177  12 -8.668228E+05 -1.018738E+06 -9.610396E+05  1.282198E+06 -1.014390E-09  3.765073E-09
       177  13  3.489165E+06  4.587181E+04  4.335968E+04  1.343999E+06  1.338327E-09 -1.036767E-08
       177  14  3.513539E+06  9.761362E+03  5.274438E+04  3.940509E+05  1.671920E-08  2.521867E-08
       177  15  3.487504E+06  6.165112E+04  8.530725E+04  1.343700E+06 -2.001310E-08  4.596754E-08
       177  16  2.989256E+06 -7.667180E+04 -7.034533E+04  1.336402E+06 -1.637599E-09  3.072418E-08
       177  17  5.445876E+06  4.873706E+05  5.151473E+05  4.213037E+05 -1.368906E-08  3.015498E-08
       177  18  7.859148E+06  1.140672E+06  1.130310E+06  1.405539E+06 -1.238180E-08  2.602650E-08
       177  19  3.989308E+06  1.684005E+05  1.570564E+05  1.351602E+06  5.417423E+04  3.583098E+04
       177  20  1.584599E+06 -4.681108E+05 -4.099055E+05  3.668629E+05  7.235883E+04 -5.745317E+04
       177  21 -8.668096E+05 -1.018718E+06 -9.609926E+05  1.282189E+06  8.976574E+04 -1.298716E+05
       177  22  3.489165E+06  4.587311E+04  4.336199E+04  1.343999E+06  4.074313E+03  3.482049E+04
       177  23  3.513541E+06  9.765284E+03  5.275272E+04  3.940494E+05  3.243779E+04 -5.816930E+04
       177  24  3.487512E+06  6.167038E+04  8.534605E+04  1.343693E+06  6.008845E+04 -1.303392E+05
       177  25  2.989258E+06 -7.667000E+04 -7.033921E+04  1.336401E+06 -4.598581E+04  3.381076E+04
       177  26  5.445877E+06  4.873744E+05  5.151539E+05  4.213041E+05 -7.606640E+03 -5.888778E+04
       177  27  7.859154E+06  1.140690E+06  1.130344E+06  1.405536E+06  3.020254E+04 -1.308109E+05
       178   1 -4.297270E+06 -1.921055E+06 -1.776610E+06  1.304217E+06 -1.955102E+05  2.288624E+05
       178   2 -6.910040E+06 -2.633353E+06 -2.343365E+06  2.899329E+05 -1.328365E+05  3.231999E+05
       178   3 -9.327112E+06 -2.946473E+06 -2.832336E+06  1.249963E+06 -6.836156E+04  1.166213E+05
       178   4  3.534313E+06  2.429721E+04  1.102966E+05  1.360494E+06 -8.008110E+04  2.304831E+05
       178   5  3.422453E+06 -6.302561E+04  1.447986E+05  3.740783E+05 -1.616585E+05  3.226005E+05
       178   6  3.524880E+06  2.718963E+05  3.563152E+05  1.359911E+06 -2.412080E+05  1.160060E+05
       178   7  1.142211E+07  1.965198E+06  1.992889E+06  1.417210E+06  3.681071E+04  2.321139E+05
       178   8  1.385304E+07  2.499542E+06  2.625374E+06  4.594085E+05 -1.909445E+05  3.219999E+05
       178   9  1.652794E+07  3.477945E+06  3.532789E+06  1.471907E+06 -4.176265E+05  1.153393E+05
       178  10 -4.297326E+06 -1.921122E+06 -1.776781E+06  1.304253E+06  2.758344E-08  3.364092E-09
       178  11 -6.910087E+06 -2.633470E+06 -2.343595E+06  2.899677E+05 -4.023571E-09  1.970868E-08
       178  12 -9.327120E+06 -2.946489E+06 -2.832370E+06  1.249969E+06 -1.494592E-08  3.004641E-09
       178  13  3.534291E+06  2.423831E+04  1.101844E+05  1.360509E+06 -3.873828E-09  1.561497E-08
       178  14  3.422397E+06 -6.314455E+04  1.445537E+05  3.741203E+05  1.364652E-08  9.329853E-09
       178  15  3.524814E+06  2.718662E+05  3.561808E+05  1.359933E+06 -1.402194E-09 -6.393019E-09
       178  16  1.142209E+07  1.965140E+06  1.992785E+06  1.417203E+06 -2.778082E-08  2.436982E-08
       178  17  1.385297E+07  2.499421E+06  2.625111E+06  4.594577E+05  6.401374E-09 -6.041259E-09
       178  18  1.652775E+07  3.477885E+06  3.532444E+06  1.471945E+06  1.323730E-08 -8.708046E-09
       178  19 -4.297270E+06 -1.921055E+06 -1.776610E+06  1.304217E+06  1.955102E+05 -2.288624E+05
       178  20 -6.910040E+06 -2.633353E+06 -2.343365E+06  2.899329E+05  1.328365E+05 -3.231999E+05
       178  21 -9.327112E+06 -2.946473E+06 -2.832336E+06  1.249963E+06  6.836156E+04 -1.166213E+05
       178  22  3.534313E+06  2.429721E+04  1.102966E+05  1.360494E+06  8.008110E+04 -2.304831E+05
       178  23  3.422453E+06 -6.302561E+04  1.447986E+05  3.740783E+05  1.616585E+05 -3.226005E+05
       178  24  3.524880E+06  2.718963E+05  3.563152E+05  1.359911E+06  2.412080E+05 -1.160060E+05
       178  25  1.142211E+07  1.965198E+06  1.992889E+06  1.417210E+06 -3.681071E+04 -2.321139E+05
       178  26  1.385304E+07  2.499542E+06  2.625374E+06  4.594085E+05  1.909445E+05 -3.219999E+05
       178  27  1.652794E+07  3.477945E+06  3.532789E+06  1.471907E+06  4.176265E+05 -1.153393E+05
       179   1 -3.122208E+06 -1.123591E+07 -3.207055E+06  1.409954E+06 -1.116268E+05 -3.516409E+05
       179   2 -2.169947E+06 -8.329741E+06 -2.268851E+06  2.549450E+05 -2.834080E+05 -1.431512E+05
       179   3 -1.392866E+06 -5.529609E+06 -1.518946E+06  1.342940E+06 -1.717953E+05  5.899906E+04
       179   4 -1.840034E+05  4.596342E+05 -2.959348E+05  1.528738E+06 -1.082490E+05 -2.032642E+05
       179   5  3.667825E+04  5.078788E+05 -1.352624E+05  4.047964E+05 -2.827255E+05 -1.275039E+05
       179   6  1.089053E+05  4.684446E+05 -6.743026E+04  1.522095E+06 -1.755542E+05 -5.900521E+04
       179   7  2.743912E+06  1.228075E+07  2.605014E+06  1.648964E+06 -1.048484E+05 -5.202475E+04
       179   8  2.237617E+06  9.417542E+06  1.992737E+06  5.563156E+05 -2.820411E+05 -1.116211E+05
       179   9  1.608102E+06  6.499609E+06  1.381553E+06  1.702692E+06 -1.793625E+05 -1.781516E+05
       179  10 -3.122256E+06 -1.123605E+07 -3.207315E+06  1.409922E+06 -1.199524E-08 -5.766712E-09
       179  11 -2.170039E+06 -8.329785E+06 -2.269041E+06  2.549121E+05  2.192759E-09  3.503746E-08
       179  12 -1.392898E+06 -5.529621E+06 -1.519008E+06  1.342948E+06  9.438160E-09  9.220880E-09
       179  13 -1.840270E+05  4.595868E+05 -2.960342E+05  1.528720E+06 -1.048823E-08  3.308041E-10
       179  14  3.658806E+04  5.078399E+05 -1.354430E+05  4.047674E+05 -1.699974E-10  5.598066E-08
       179  15  1.088713E+05  4.684326E+05 -6.749460E+04  1.522087E+06 -1.011844E-09  4.540742E-08
       179  16  2.743900E+06  1.228075E+07  2.604989E+06  1.648960E+06 -1.435689E-08  6.261165E-09
       179  17  2.237529E+06  9.417508E+06  1.992564E+06  5.562904E+05 -4.028102E-08  4.609479E-08
       179  18  1.608059E+06  6.499566E+06  1.381434E+06  1.702667E+06 -2.386729E-09  1.894395E-08
       179  19 -3.122208E+06 -1.123591E+07 -3.207055E+06  1.409954E+06  1.116268E+05  3.516409E+05
       179  20 -2.169947E+06 -8.329741E+06 -2.268851E+06  2.549450E+05  2.834080E+05  1.431512E+05
       179  21 -1.392866E+06 -5.529609E+06 -1.518946E+06  1.342940E+06  1.717953E+05 -5.899906E+04
       179  22 -1.840034E+05  4.596342E+05 -2.959348E+05  1.528738E+06  1.082490E+05  2.032642E+05
       179  23  3.667825E+04  5.078788E+05 -1.352624E+05  4.047964E+05  2.827255E+05  1.275039E+05
       179  24  1.089053E+05  4.684446E+05 -6.743026E+04  1.522095E+06  1.755542E+05  5.900521E+04
       179  25  2.743912E+06  1.228075E+07  2.605014E+06  1.648964E+06  1.048484E+05  5.202475E+04
       179  26  2.237617E+06  9.417542E+06  1.992737E+06  5.563156E+05  2.820411E+05  1.116211E+05
       179  27  1.608102E+06  6.499609E+06  1.381553E+06  1.702692E+06  1.793625E+05  1.781516E+05
       180   1 -4.174879E+05 -1.482468E+06 -5.241687E+05  1.484312E+06 -6.342524E+04 -9.290524E+03
       180   2  2.570957E+05  1.445126E+06  2.016755E+05  4.299645E+05  2.725735E+04 -4.702569E+03
       180   3  1.029892E+06  4.230179E+06  9.107130E+05  1.608558E+06  1.149187E+05  2.098523E+02
       180   4  6.656483E+04  4.636934E+05 -5.680588E+04  1.523018E+06 -6.492535E+04 -5.344352E+04
       180   5  3.133691E+04  5.383414E+05 -1.639909E+04  4.060714E+05  2.585890E+04 -4.741452E+04
       180   6  9.466913E+04  4.628198E+05  6.824683E+03  1.522054E+06  1.135960E+05 -4.109328E+04
       180   7  5.503453E+05  2.413332E+06  4.102954E+05  1.561813E+06 -6.642846E+04 -9.773450E+04
       180   8 -1.944798E+05 -3.676876E+05 -2.345253E+05  3.822071E+05  2.446268E+04 -9.006435E+04
       180   9 -8.415708E+05 -3.291596E+06 -8.980638E+05  1.435953E+06  1.122806E+05 -8.214736E+04
       180  10 -4.174923E+05 -1.482469E+06 -5.241764E+05  1.484311E+06  6.125430E-09  1.432688E-08
       180  11  2.570949E+05  1.445126E+06  2.016740E+05  4.299646E+05  4.230693E-09  6.408780E-08
       180  12  1.029878E+06  4.230176E+06  9.106882E+05  1.608558E+06  5.075294E-09  1.349675E-08
       180  13  6.655955E+04  4.636892E+05 -5.681913E+04  1.523016E+06  1.657249E-08  4.963069E-11
       180  14  3.133559E+04  5.383388E+05 -1.640457E+04  4.060724E+05  3.799560E-08  6.931669E-08
       180  15  9.465480E+04  4.628145E+05  6.797206E+03  1.522058E+06  1.751486E-08  4.587157E-08
       180  16  5.503380E+05  2.413321E+06  4.102693E+05  1.561808E+06  1.626357E-08 -1.468833E-08
       180  17 -1.944826E+05 -3.676964E+05 -2.345417E+05  3.822089E+05  1.866009E-08  4.095586E-08
       180  18 -8.415862E+05 -3.291607E+06 -8.981004E+05  1.435960E+06  1.024377E-08  1.469023E-08
       180  19 -4.174879E+05 -1.482468E+06 -5.241687E+05  1.484312E+06  6.342524E+04  9.290524E+03
       180  20  2.570957E+05  1.445126E+06  2.016755E+05  4.299645E+05 -2.725735E+04  4.702569E+03
       180  21  1.029892E+06  4.230179E+06  9.107130E+05  1.608558E+06 -1.149187E+05 -2.098523E+02
       180  22  6.656483E+04  4.636934E+05 -5.680588E+04  1.523018E+06  6.492535E+04  5.344352E+04
       180  23  3.133691E+04  5.383414E+05 -1.639909E+04  4.060714E+05 -2.585890E+04  4.741452E+04
       180  24  9.466913E+04  4.628198E+05  6.824683E+03  1.522054E+06 -1.135960E+05  4.109328E+04
       180  25  5.503453E+05  2.413332E+06  4.102954E+05  1.561813E+06  6.642846E+04  9.773450E+04
       180  26 -1.944798E+05 -3.676876E+05 -2.345253E+05  3.822071E+05 -2.446268E+04  9.006435E+04
       180  27 -8.415708E+05 -3.291596E+06 -8.980638E+05  1.435953E+06 -1.122806E+05  8.214736E+04
       181   1  2.029988E+06  8.362793E+06  1.910357E+06  1.697823E+06  2.326295E+05  7.837709E+04
       181   2  2.629731E+06  1.119997E+07  2.593592E+06  5.952668E+05  3.329439E+05 -9.731253E+04
       181   3  3.507108E+06  1.415636E+07  3.460194E+06  1.730594E+06  1.171768E+05 -2.668261E+05
       181   4  8.329030E+04  5.016210E+05  2.625622E+04  1.524396E+06  2.288662E+05 -4.918450E+04
       181   5 -2.284476E+04  4.539492E+05  2.938763E+04  4.040106E+05  3.339472E+05 -7.055888E+04
       181   6  1.233068E+05  4.910471E+05  1.108768E+05  1.523890E+06  1.205404E+05 -8.489508E+04
       181   7 -1.867825E+06 -7.303410E+06 -1.862160E+06  1.352658E+06  2.251486E+05 -1.751502E+05
       181   8 -2.683674E+06 -1.018744E+07 -2.542936E+06  2.153981E+05  3.349449E+05 -4.425306E+04
       181   9 -3.274175E+06 -1.300669E+07 -3.252003E+06  1.320747E+06  1.238266E+05  9.312135E+04
       181  10  2.029928E+06  8.362772E+06  1.910244E+06  1.697808E+06  1.037302E-08  8.881620E-09
       181  11  2.629610E+06  1.119993E+07  2.593366E+06  5.952927E+05 -8.718894E-09  3.585744E-08
       181  12  3.507074E+06  1.415628E+07  3.460037E+06  1.730619E+06 -4.071186E-09  4.436888E-10
       181  13  8.323336E+04  5.016043E+05  2.615310E+04  1.524405E+06 -3.250465E-09  1.032731E-10
       181  14 -2.296590E+04  4.539139E+05  2.916859E+04  4.040296E+05 -1.496485E-08  4.926315E-08
       181  15  1.232892E+05  4.910355E+05  1.108358E+05  1.523898E+06 -1.848006E-10  2.231519E-08
       181  16 -1.867888E+06 -7.303457E+06 -1.862314E+06  1.352690E+06  2.518200E-08 -9.592199E-09
       181  17 -2.683795E+06 -1.018747E+07 -2.543151E+06  2.154102E+05 -8.598713E-09  3.748686E-08
       181  18 -3.274194E+06 -1.300670E+07 -3.252049E+06  1.320737E+06 -1.141485E-08  1.466164E-08
       181  19  2.029988E+06  8.362793E+06  1.910357E+06  1.697823E+06 -2.326295E+05 -7.837709E+04
       181  20  2.629731E+06  1.119997E+07  2.593592E+06  5.952668E+05 -3.329439E+05  9.731253E+04
       181  21  3.507108E+06  1.415636E+07  3.460194E+06  1.730594E+06 -1.171768E+05  2.668261E+05
       181  22  8.329030E+04  5.016210E+05  2.625622E+04  1.524396E+06 -2.288662E+05  4.918450E+04
       181  23 -2.284476E+04  4.539492E+05  2.938763E+04  4.040106E+05 -3.339472E+05  7.055888E+04
       181  24  1.233068E+05  4.910471E+05  1.108768E+05  1.523890E+06 -1.205404E+05  8.489508E+04
       181  25 -1.867825E+06 -7.303410E+06 -1.862160E+06  1.352658E+06 -2.251486E+05  1.751502E+05
       181  26 -2.683674E+06 -1.018744E+07 -2.542936E+06  2.153981E+05 -3.349449E+05  4.425306E+04
       181  27 -3.274175E+06 -1.300669E+07 -3.252003E+06  1.320747E+06 -1.238266E+05 -9.312135E+04
       182   1  9.942657E+06  1.995131E+06  1.992839E+06  7.925557E+05  1.396658E+05 -7.152199E+04
       182   2  8.438115E+06  1.572002E+06  1.555109E+06  2.305062E+05  4.067571E+04 -2.001714E+05
       182   3  7.011646E+06  1.238935E+06  1.211716E+06  8.034560E+05 -5.866897E+04 -1.476364E+05
       182   4  2.032098E+06  3.575006E+04  5.136817E+04  7.756409E+05  3.300529E+04 -7.166056E+04
       182   5  2.003215E+06 -1.458701E+04  1.873381E+04  2.077441E+05  2.230588E+04 -2.003860E+05
       182   6  2.035332E+06  1.032200E+04  2.008696E+04  7.755906E+05  1.101511E+04 -1.471010E+05
       182   7 -5.822170E+06 -1.928241E+06 -1.894649E+06  7.588961E+05 -7.231707E+04 -7.179508E+04
       182   8 -4.394126E+06 -1.604154E+06 -1.520550E+06  1.851704E+05  4.122753E+03 -2.006007E+05
       182   9 -2.918495E+06 -1.220075E+06 -1.173272E+06  7.478851E+05  8.014753E+04 -1.465695E+05
       182  10  9.942635E+06  1.995120E+06  1.992793E+06  7.925637E+05  7.225310E-09  1.301156E-09
       182  11  8.438103E+06  1.571959E+06  1.555030E+06  2.305128E+05 -4.196699E-10 -6.200481E-09
       182  12  7.011637E+06  1.238910E+06  1.211668E+06  8.034491E+05  4.714024E-09 -1.077759E-08
       182  13  2.032095E+06  3.574424E+04  5.135646E+04  7.756428E+05  1.695883E-09 -3.194778E-09
       182  14  2.003204E+06 -1.463030E+04  1.865734E+04  2.077477E+05  2.573547E-08  1.191844E-09
       182  15  2.035326E+06  1.029871E+04  2.004602E+04  7.755919E+05  1.484110E-08 -8.791063E-09
       182  16 -5.822177E+06 -1.928248E+06 -1.894668E+06  7.588919E+05 -5.765310E-09 -1.946313E-09
       182  17 -4.394137E+06 -1.604198E+06 -1.520626E+06  1.851711E+05 -1.183085E-08 -8.700926E-10
       182  18 -2.918508E+06 -1.220100E+06 -1.173325E+06  7.478946E+05  3.961850E-09 -1.058110E-08
       182  19  9.942657E+06  1.995131E+06  1.992839E+06  7.925557E+05 -1.396658E+05  7.152199E+04
       182  20  8.438115E+06  1.572002E+06  1.555109E+06  2.305062E+05 -4.067571E+04  2.001714E+05
       182  21  7.011646E+06  1.238935E+06  1.211716E+06  8.034560E+05  5.866897E+04  1.476364E+05
       182  22  2.032098E+06  3.575006E+04  5.136817E+04  7.756409E+05 -3.300529E+04  7.166056E+04
       182  23  2.003215E+06 -1.458701E+04  1.873381E+04  2.077441E+05 -2.230588E+04  2.003860E+05
       182  24  2.035332E+06  1.032200E+04  2.008696E+04  7.755906E+05 -1.101511E+04  1.471010E+05
       182  25 -5.822170E+06 -1.928241E+06 -1.894649E+06  7.588961E+05  7.231707E+04  7.179508E+04
       182  26 -4.394126E+06 -1.604154E+06 -1.520550E+06  1.851704E+05 -4.122753E+03  2.006007E+05
       182  27 -2.918495E+06 -1.220075E+06 -1.173272E+06  7.478851E+05 -8.014753E+04  1.465695E+05
       183   1  4.954394E+06  7.387355E+05  7.181084E+05  7.921285E+05 -1.024476E+04 -8.778425E+04
       183   2  3.540474E+06  3.769891E+05  3.754427E+05  2.264514E+05 -2.360055E+04 -4.605534E+04
       183   3  2.111632E+06  4.068317E+04  4.222460E+04  7.712681E+05 -3.722037E+04  8.462456E+03
       183   4  2.022363E+06  1.387268E+04  1.539009E+04  7.700037E+05  6.853875E+03 -8.763645E+04
       183   5  2.031647E+06  3.684459E+03  1.371148E+04  2.146632E+05 -3.282875E+02 -4.581305E+04
       183   6  2.023094E+06  1.801525E+04  1.734829E+04  7.699670E+05 -7.804214E+03  8.818983E+03
       183   7 -9.018477E+05 -7.116108E+05 -6.879349E+05  7.479588E+05  2.387253E+04 -8.748950E+04
       183   8  5.248951E+05 -3.697844E+05 -3.481787E+05  2.028977E+05  2.288790E+04 -4.557134E+04
       183   9  1.934565E+06 -4.652867E+03 -7.525470E+03  7.686662E+05  2.160771E+04  9.175412E+03
       183  10  4.954391E+06  7.387272E+05  7.180937E+05  7.921278E+05 -4.339957E-09  3.113585E-09
       183  11  3.540472E+06  3.769867E+05  3.754376E+05  2.264505E+05 -9.207059E-09  3.758725E-09
       183  12  2.111630E+06  4.068272E+04  4.222186E+04  7.712683E+05  4.946784E-09  8.826117E-09
       183  13  2.022361E+06  1.386441E+04  1.537555E+04  7.700042E+05  6.178270E-09 -2.417357E-09
       183  14  2.031646E+06  3.682203E+03  1.370754E+04  2.146632E+05 -1.992280E-08  6.975163E-09
       183  15  2.023094E+06  1.801515E+04  1.734803E+04  7.699671E+05 -2.985827E-09  1.560227E-08
       183  16 -9.018503E+05 -7.116191E+05 -6.879504E+05  7.479605E+05  1.499211E-08  4.263500E-09
       183  17  5.248940E+05 -3.697868E+05 -3.481836E+05  2.028986E+05  1.161487E-08 -2.779220E-08
       183  18  1.934565E+06 -4.653082E+03 -7.526501E+03  7.686660E+05  1.298447E-08 -2.496809E-10
       183  19  4.954394E+06  7.387355E+05  7.181084E+05  7.921285E+05  1.024476E+04  8.778425E+04
       183  20  3.540474E+06  3.769891E+05  3.754427E+05  2.264514E+05  2.360055E+04  4.605534E+04
       183  21  2.111632E+06  4.068317E+04  4.222460E+04  7.712681E+05  3.722037E+04 -8.462456E+03
       183  22  2.022363E+06  1.387268E+04  1.539009E+04  7.700037E+05 -6.853875E+03  8.763645E+04
       183  23  2.031647E+06  3.684459E+03  1.371148E+04  2.146632E+05  3.282875E+02  4.581305E+04
       183  24  2.023094E+06  1.801525E+04  1.734829E+04  7.699670E+05  7.804214E+03 -8.818983E+03
       183  25 -9.018477E+05 -7.116108E+05 -6.879349E+05  7.479588E+05 -2.387253E+04  8.748950E+04
       183  26  5.248951E+05 -3.697844E+05 -3.481787E+05  2.028977E+05 -2.288790E+04  4.557134E+04
       183  27  1.934565E+06 -4.652867E+03 -7.525470E+03  7.686662E+05 -2.160771E+04 -9.175412E+03
       184   1  1.009209E+05 -4.616335E+05 -4.454369E+05  7.559836E+05 -4.221498E+04  4.579106E+04
       184   2 -1.325544E+06 -8.324476E+05 -7.765396E+05  1.896571E+05 -5.009590E+04  1.009516E+05
       184   3 -2.748918E+06 -1.163348E+06 -1.095161E+06  7.411365E+05 -5.745306E+04  1.401520E+05
       184   4  2.026570E+06  1.656114E+04  2.101496E+04  7.715072E+05 -1.192909E+04  4.613876E+04
       184   5  2.024472E+06 -1.206322E+03  2.912197E+04  2.127737E+05 -2.755749E+04  1.011237E+05
       184   6  2.024906E+06  2.237687E+04  5.514046E+04  7.714619E+05 -4.267915E+04  1.401928E+05
       184   7  3.955601E+06  4.944854E+05  4.872038E+05  7.870671E+05  1.845045E+04  4.648739E+04
       184   8  5.384756E+06  8.292204E+05  8.339879E+05  2.359903E+05 -4.897461E+03  1.012971E+05
       184   9  6.819601E+06  1.206443E+06  1.203818E+06  8.019704E+05 -2.779072E+04  1.402349E+05
       184  10  1.009184E+05 -4.616362E+05 -4.454442E+05  7.559852E+05  1.266744E-09  2.523254E-08
       184  11 -1.325549E+06 -8.324593E+05 -7.765635E+05  1.896612E+05 -3.579503E-09  4.400687E-09
       184  12 -2.748927E+06 -1.163370E+06 -1.095204E+06  7.411430E+05  3.450818E-09  7.402446E-09
       184  13  2.026569E+06  1.655881E+04  2.101068E+04  7.715076E+05 -1.155009E-08  1.466083E-08
       184  14  2.024469E+06 -1.217518E+03  2.910131E+04  2.127759E+05 -1.091470E-08  1.475891E-08
       184  15  2.024899E+06  2.235525E+04  5.510005E+04  7.714667E+05  4.013115E-09 -2.201095E-09
       184  16  3.955600E+06  4.944830E+05  4.871991E+05  7.870664E+05  1.476329E-08  1.043793E-08
       184  17  5.384753E+06  8.292094E+05  8.339685E+05  2.359907E+05 -1.786623E-10 -3.244605E-09
       184  18  6.819595E+06  1.206421E+06  1.203780E+06  8.019735E+05 -2.220670E-08 -1.047084E-08
       184  19  1.009209E+05 -4.616335E+05 -4.454369E+05  7.559836E+05  4.221498E+04 -4.579106E+04
       184  20 -1.325544E+06 -8.324476E+05 -7.765396E+05  1.896571E+05  5.009590E+04 -1.009516E+05
       184  21 -2.748918E+06 -1.163348E+06 -1.095161E+06  7.411365E+05  5.745306E+04 -1.401520E+05
       184  22  2.026570E+06  1.656114E+04  2.101496E+04  7.715072E+05  1.192909E+04 -4.613876E+04
       184  23  2.024472E+06 -1.206322E+03  2.912197E+04  2.127737E+05  2.755749E+04 -1.011237E+05
       184  24  2.024906E+06  2.237687E+04  5.514046E+04  7.714619E+05  4.267915E+04 -1.401928E+05
       184  25  3.955601E+06  4.944854E+05  4.872038E+05  7.870671E+05 -1.845045E+04 -4.648739E+04
       184  26  5.384756E+06  8.292204E+05  8.339879E+05  2.359903E+05  4.897461E+03 -1.012971E+05
       184  27  6.819601E+06  1.206443E+06  1.203818E+06  8.019704E+05  2.779072E+04 -1.402349E+05
       185   1 -4.770763E+06 -1.700377E+06 -1.572764E+06  7.766170E+05 -1.330926E+05  2.054879E+05
       185   2 -6.319864E+06 -2.108565E+06 -1.899049E+06  1.892112E+05 -8.119883E+04  2.595805E+05
       185   3 -7.723397E+06 -2.268634E+06 -2.179280E+06  7.587982E+05 -2.991002E+04  9.099753E+04
       185   4  2.053547E+06 -4.172310E+03  7.191920E+04  7.799450E+05 -5.481960E+04  2.057720E+05
       185   5  1.970438E+06 -4.630893E+04  9.820015E+04  2.023629E+05 -1.094892E+05  2.593559E+05
       185   6  2.049136E+06  1.770529E+05  2.440883E+05  7.808187E+05 -1.646499E+05  9.157450E+04
       185   7  8.920608E+06  1.688641E+06  1.713306E+06  7.832262E+05  2.431809E+04  2.060553E+05
       185   8  1.032393E+07  2.010935E+06  2.090556E+06  2.156862E+05 -1.381508E+05  2.591324E+05
       185   9  1.190899E+07  2.615598E+06  2.660415E+06  8.032471E+05 -3.015116E+05  9.213863E+04
       185  10 -4.770794E+06 -1.700427E+06 -1.572878E+06  7.766391E+05 -6.310642E-09  1.069362E-08
       185  11 -6.319889E+06 -2.108639E+06 -1.899188E+06  1.892282E+05  9.251568E-09  1.100773E-08
       185  12 -7.723400E+06 -2.268644E+06 -2.179297E+06  7.588004E+05  4.967464E-09  6.045818E-09
       185  13  2.053533E+06 -4.218645E+03  7.183386E+04  7.799541E+05  9.031485E-09  1.254060E-08
       185  14  1.970407E+06 -4.638444E+04  9.805112E+04  2.023857E+05  3.259427E-09  1.050446E-08
       185  15  2.049105E+06  1.770366E+05  2.440217E+05  7.808308E+05  1.070601E-08 -1.336478E-09
       185  16  8.920596E+06  1.688595E+06  1.713226E+06  7.832222E+05 -2.486111E-09  7.425205E-09
       185  17  1.032389E+07  2.010858E+06  2.090394E+06  2.157148E+05 -6.232379E-09  1.161487E-08
       185  18  1.190890E+07  2.615565E+06  2.660231E+06  8.032693E+05 -6.596664E-09  4.584495E-09
       185  19 -4.770763E+06 -1.700377E+06 -1.572764E+06  7.766170E+05  1.330926E+05 -2.054879E+05
       185  20 -6.319864E+06 -2.108565E+06 -1.899049E+06  1.892112E+05  8.119883E+04 -2.595805E+05
       185  21 -7.723397E+06 -2.268634E+06 -2.179280E+06  7.587982E+05  2.991002E+04 -9.099753E+04
       185  22  2.053547E+06 -4.172310E+03  7.191920E+04  7.799450E+05  5.481960E+04 -2.057720E+05
       185  23  1.970438E+06 -4.630893E+04  9.820015E+04  2.023629E+05  1.094892E+05 -2.593559E+05
       185  24  2.049136E+06  1.770529E+05  2.440883E+05  7.808187E+05  1.646499E+05 -9.157450E+04
       185  25  8.920608E+06  1.688641E+06  1.713306E+06  7.832262E+05 -2.431809E+04 -2.060553E+05
       185  26  1.032393E+07  2.010935E+06  2.090556E+06  2.156862E+05  1.381508E+05 -2.591324E+05
       185  27  1.190899E+07  2.615598E+06  2.660415E+06  8.032471E+05  3.015116E+05 -9.213863E+04
       186   1 -5.524084E+06 -2.082475E+07 -5.567242E+06  2.170200E+06 -1.929261E+05 -5.597716E+05
       186   2 -4.097858E+06 -1.671492E+07 -4.189270E+06  3.833033E+05 -5.225705E+05 -2.167701E+05
       186   3 -2.927138E+06 -1.250151E+07 -3.062331E+06  1.886039E+06 -3.600801E+05  1.204937E+05
       186   4 -3.389024E+05 -3.036078E+05 -4.286126E+05  2.215408E+06 -1.899075E+05 -2.944107E+05
       186   5  4.462994E+03 -3.599776E+05 -2.188984E+05  5.692361E+05 -5.209121E+05 -1.775978E+05
       186   6  1.427749E+05 -2.796395E+05 -9.426568E+04  2.208517E+06 -3.653275E+05 -6.878826E+04
       186   7  4.814236E+06  2.060778E+07  4.678407E+06  2.260549E+06 -1.869147E+05 -1.991685E+04
       186   8  4.087063E+06  1.624375E+07  3.732158E+06  7.589228E+05 -5.192570E+05 -1.373215E+05
       186   9  3.201855E+06  1.208064E+07  2.863139E+06  2.536189E+06 -3.707186E+05 -2.618315E+05
       186  10 -5.524211E+06 -2.082511E+07 -5.567919E+06  2.170112E+06  8.832192E-10  6.918225E-10
       186  11 -4.098165E+06 -1.671505E+07 -4.189874E+06  3.832110E+05  8.036539E-10 -1.192188E-09
       186  12 -2.927282E+06 -1.250156E+07 -3.062603E+06  1.886075E+06  2.342831E-08  3.577278E-08
       186  13 -3.389641E+05 -3.037103E+05 -4.288424E+05  2.215363E+06 -1.175366E-08  1.302096E-08
       186  14  4.163251E+03 -3.600841E+05 -2.194672E+05  5.691616E+05 -1.213445E-08 -3.730440E-08
       186  15  1.426305E+05 -2.796802E+05 -9.452488E+04  2.208497E+06  7.032829E-09  3.025750E-08
       186  16  4.814198E+06  2.060777E+07  4.678341E+06  2.260547E+06 -1.586022E-08  4.084863E-09
       186  17  4.086770E+06  1.624366E+07  3.731618E+06  7.588661E+05 -4.393599E-08 -3.048466E-08
       186  18  3.201690E+06  1.208053E+07  2.862756E+06  2.536112E+06 -2.627924E-08 -9.439286E-09
       186  19 -5.524084E+06 -2.082475E+07 -5.567242E+06  2.170200E+06  1.929261E+05  5.597716E+05
       186  20 -4.097858E+06 -1.671492E+07 -4.189270E+06  3.833033E+05  5.225705E+05  2.167701E+05
       186  21 -2.927138E+06 -1.250151E+07 -3.062331E+06  1.886039E+06  3.600801E+05 -1.204937E+05
       186  22 -3.389024E+05 -3.036078E+05 -4.286126E+05  2.215408E+06  1.899075E+05  2.944107E+05
       186  23  4.462994E+03 -3.599776E+05 -2.188984E+05  5.692361E+05  5.209121E+05  1.775978E+05
       186  24  1.427749E+05 -2.796395E+05 -9.426568E+04  2.208517E+06  3.653275E+05  6.878826E+04
       186  25  4.814236E+06  2.060778E+07  4.678407E+06  2.260549E+06  1.869147E+05  1.991685E+04
       186  26  4.087063E+06  1.624375E+07  3.732158E+06  7.589228E+05  5.192570E+05  1.373215E+05
       186  27  3.201855E+06  1.208064E+07  2.863139E+06  2.536189E+06  3.707186E+05  2.618315E+05
       187   1 -1.494844E+06 -6.604917E+06 -1.610735E+06  2.079635E+06 -1.913766E+05 -1.978101E+03
       187   2 -4.697820E+05 -2.296904E+06 -5.410388E+05  5.184044E+05 -6.249640E+04  1.854514E+04
       187   3  6.686909E+05  1.798983E+06  4.867006E+05  2.252604E+06  7.308310E+04  3.834745E+04
       187   4  7.319271E+04 -3.290353E+05 -9.415691E+04  2.213915E+06 -1.932646E+05 -6.180597E+04
       187   5  4.958474E+04 -2.137583E+05 -3.883944E+04  5.657100E+05 -6.460460E+04 -4.443726E+04
       187   6  1.414212E+05 -3.259397E+05 -2.181373E+04  2.211823E+06  7.069136E+04 -2.794672E+04
       187   7  1.638368E+06  5.983140E+06  1.419609E+06  2.349202E+06 -1.951683E+05 -1.222390E+05
       187   8  5.686400E+05  1.873378E+06  4.630646E+05  6.131406E+05 -6.671877E+04 -1.076308E+05
       187   9 -3.861712E+05 -2.446720E+06 -5.306305E+05  2.171138E+06  6.830387E+04 -9.401514E+04
       187  10 -1.494884E+06 -6.604927E+06 -1.610804E+06  2.079635E+06  2.796627E-08  4.728544E-08
       187  11 -4.697863E+05 -2.296906E+06 -5.410467E+05  5.184054E+05 -1.407865E-08 -5.304415E-09
       187  12  6.686848E+05  1.798980E+06  4.866878E+05  2.252602E+06 -9.198755E-09  1.531000E-08
       187  13  7.315165E+04 -3.290494E+05 -9.423406E+04  2.213905E+06  1.969541E-08  6.455777E-08
       187  14  4.957973E+04 -2.137615E+05 -3.885098E+04  5.657077E+05 -1.585957E-09 -7.363876E-08
       187  15  1.414156E+05 -3.259419E+05 -2.182462E+04  2.211825E+06  2.853091E-09  3.108583E-08
       187  16  1.638323E+06  5.983114E+06  1.419510E+06  2.349183E+06  7.746841E-09 -3.248944E-08
       187  17  5.686321E+05  1.873365E+06  4.630346E+05  6.131348E+05  4.225451E-08 -3.582837E-08
       187  18 -3.861786E+05 -2.446731E+06 -5.306560E+05  2.171143E+06  9.208707E-09  1.603292E-08
       187  19 -1.494844E+06 -6.604917E+06 -1.610735E+06  2.079635E+06  1.913766E+05  1.978101E+03
       187  20 -4.697820E+05 -2.296904E+06 -5.410388E+05  5.184044E+05  6.249640E+04 -1.854514E+04
       187  21  6.686909E+05  1.798983E+06  4.867006E+05  2.252604E+06 -7.308310E+04 -3.834745E+04
       187  22  7.319271E+04 -3.290353E+05 -9.415691E+04  2.213915E+06  1.932646E+05  6.180597E+04
       187  23  4.958474E+04 -2.137583E+05 -3.883944E+04  5.657100E+05  6.460460E+04  4.443726E+04
       187  24  1.414212E+05 -3.259397E+05 -2.181373E+04  2.211823E+06 -7.069136E+04  2.794672E+04
       187  25  1.638368E+06  5.983140E+06  1.419609E+06  2.349202E+06  1.951683E+05  1.222390E+05
       187  26  5.686400E+05  1.873378E+06  4.630646E+05  6.131406E+05  6.671877E+04  1.076308E+05
       187  27 -3.861712E+05 -2.446720E+06 -5.306305E+05  2.171138E+06 -6.830387E+04  9.401514E+04
       188   1  2.163699E+06  7.868236E+06  1.953553E+06  2.425621E+06  2.369664E+05  1.370417E+05
       188   2  3.048362E+06  1.206719E+07  2.930269E+06  7.951810E+05  3.864560E+05 -5.057641E+04
       188   3  4.176615E+06  1.636680E+07  4.082469E+06  2.447330E+06  1.409057E+05 -2.296550E+05
       188   4  1.409427E+05 -2.817869E+05 -3.671847E+03  2.210280E+06  2.312666E+05 -3.418500E+04
       188   5 -8.109243E+03 -3.155852E+05 -2.376352E+04  5.679424E+05  3.874979E+05 -2.934940E+04
       188   6  5.389447E+04 -2.996898E+05  3.679528E+02  2.212367E+06  1.452062E+05 -1.464505E+04
       188   7 -1.886547E+06 -8.371390E+06 -1.965509E+06  1.997138E+06  2.256446E+05 -2.031906E+05
       188   8 -3.075542E+06 -1.255944E+07 -2.988582E+06  3.442621E+05  3.885376E+05 -8.535247E+03
       188   9 -4.089195E+06 -1.671729E+07 -4.101911E+06  1.982024E+06  1.494137E+05  1.947177E+05
       188  10  2.163634E+06  7.868201E+06  1.953413E+06  2.425595E+06 -5.941843E-10  5.373937E-08
       188  11  3.048202E+06  1.206715E+07  2.929984E+06  7.951966E+05 -1.488092E-08 -5.899272E-09
       188  12  4.176580E+06  1.636674E+07  4.082334E+06  2.447355E+06 -2.350467E-09  5.067656E-09
       188  13  1.408849E+05 -2.818026E+05 -3.774653E+03  2.210287E+06 -1.246307E-08  6.794148E-08
       188  14 -8.270713E+03 -3.156265E+05 -2.404733E+04  5.679516E+05 -1.115772E-08 -4.793019E-08
       188  15  5.387176E+04 -2.996957E+05  3.278987E+02  2.212368E+06  3.492077E-09  1.677570E-08
       188  16 -1.886613E+06 -8.371448E+06 -1.965684E+06  1.997175E+06  6.940267E-09 -3.662460E-08
       188  17 -3.075704E+06 -1.255948E+07 -2.988866E+06  3.442648E+05 -2.312276E-09 -2.517492E-08
       188  18 -4.089229E+06 -1.671733E+07 -4.102026E+06  1.982001E+06 -6.415333E-09  1.102706E-08
       188  19  2.163699E+06  7.868236E+06  1.953553E+06  2.425621E+06 -2.369664E+05 -1.370417E+05
       188  20  3.048362E+06  1.206719E+07  2.930269E+06  7.951810E+05 -3.864560E+05  5.057641E+04
       188  21  4.176615E+06  1.636680E+07  4.082469E+06  2.447330E+06 -1.409057E+05  2.296550E+05
       188  22  1.409427E+05 -2.817869E+05 -3.671847E+03  2.210280E+06 -2.312666E+05  3.418500E+04
       188  23 -8.109243E+03 -3.155852E+05 -2.376352E+04  5.679424E+05 -3.874979E+05  2.934940E+04
       188  24  5.389447E+04 -2.996898E+05  3.679528E+02  2.212367E+06 -1.452062E+05  1.464505E+04
       188  25 -1.886547E+06 -8.371390E+06 -1.965509E+06  1.997138E+06 -2.256446E+05  2.031906E+05
       188  26 -3.075542E+06 -1.255944E+07 -2.988582E+06  3.442621E+05 -3.885376E+05  8.535247E+03
       188  27 -4.089195E+06 -1.671729E+07 -4.101911E+06  1.982024E+06 -1.494137E+05 -1.947177E+05
       189   1  6.358260E+06  1.348866E+06  1.350394E+06  5.161294E+05  8.500474E+04 -4.948740E+04
       189   2  5.304367E+06  1.071413E+06  1.052853E+06  1.247661E+05  1.968408E+04 -1.364788E+05
       189   3  4.299796E+06  8.252273E+05  8.113795E+05  5.324716E+05 -4.497317E+04 -9.861170E+04
       189   4  9.541897E+05  6.594218E+03  2.044840E+04  5.363449E+05  1.250069E+04 -4.906535E+04
       189   5  9.359884E+05 -8.216372E+03  7.373511E+03  1.365855E+05  7.673695E+03 -1.364963E+05
       189   6  9.557282E+05 -2.065712E+03  8.751314E+03  5.362567E+05  3.403845E+03 -9.868105E+04
       189   7 -4.423502E+06 -1.337840E+06 -1.311630E+06  5.564155E+05 -5.937845E+04 -4.864641E+04
       189   8 -3.415017E+06 -1.089225E+06 -1.039453E+06  1.483364E+05 -4.253244E+03 -1.365144E+05
       189   9 -2.378151E+06 -8.301681E+05 -7.946612E+05  5.400191E+05  5.152264E+04 -9.874996E+04
       189  10  6.358252E+06  1.348862E+06  1.350376E+06  5.161328E+05 -2.450111E-09  2.167976E-09
       189  11  5.304362E+06  1.071393E+06  1.052818E+06  1.247683E+05  5.483320E-09 -7.160320E-09
       189  12  4.299791E+06  8.252163E+05  8.113575E+05  5.324681E+05  1.074476E-08 -3.922520E-09
       189  13  9.541889E+05  6.591589E+03  2.044358E+04  5.363453E+05  9.897298E-09  1.600075E-08
       189  14  9.359833E+05 -8.236404E+03  7.338371E+03  1.365863E+05  1.250031E-08  1.974564E-08
       189  15  9.557256E+05 -2.076177E+03  8.732983E+03  5.362570E+05  2.149291E-08 -8.307005E-09
       189  16 -4.423506E+06 -1.337844E+06 -1.311641E+06  5.564132E+05  3.993191E-09 -3.069173E-09
       189  17 -3.415022E+06 -1.089245E+06 -1.039488E+06  1.483360E+05 -1.248977E-08 -2.047424E-09
       189  18 -2.378156E+06 -8.301793E+05 -7.946846E+05  5.400232E+05 -1.157150E-08  1.779316E-10
       189  19  6.358260E+06  1.348866E+06  1.350394E+06  5.161294E+05 -8.500474E+04  4.948740E+04
       189  20  5.304367E+06  1.071413E+06  1.052853E+06  1.247661E+05 -1.968408E+04  1.364788E+05
       189  21  4.299796E+06  8.252273E+05  8.113795E+05  5.324716E+05  4.497317E+04  9.861170E+04
       189  22  9.541897E+05  6.594218E+03  2.044840E+04  5.363449E+05 -1.250069E+04  4.906535E+04
       189  23  9.359884E+05 -8.216372E+03  7.373511E+03  1.365855E+05 -7.673695E+03  1.364963E+05
       189  24  9.557282E+05 -2.065712E+03  8.751314E+03  5.362567E+05 -3.403845E+03  9.868105E+04
       189  25 -4.423502E+06 -1.337840E+06 -1.311630E+06  5.564155E+05  5.937845E+04  4.864641E+04
       189  26 -3.415017E+06 -1.089225E+06 -1.039453E+06  1.483364E+05  4.253244E+03  1.365144E+05
       189  27 -2.378151E+06 -8.301681E+05 -7.946612E+05  5.400191E+05 -5.152264E+04  9.874996E+04
       190   1  2.842067E+06  4.676594E+05  4.610643E+05  5.349956E+05 -1.062643E+04 -5.699632E+04
       190   2  1.826351E+06  2.172075E+05  2.174465E+05  1.383885E+05 -1.823916E+04 -2.673760E+04
       190   3  8.140139E+05 -3.194965E+04 -2.085646E+04  5.351138E+05 -2.590753E+04  1.235375E+04
       190   4  9.498172E+05 -8.041588E+02  6.850179E+03  5.349418E+05  1.812253E+03 -5.700468E+04
       190   5  9.491257E+05 -8.137991E+01  6.839994E+03  1.382398E+05 -1.552763E+03 -2.673214E+04
       190   6  9.501212E+05  1.268836E+03  9.264338E+03  5.349409E+05 -4.985883E+03  1.238174E+04
       190   7 -9.391668E+05 -4.695273E+05 -4.476173E+05  5.348866E+05  1.421330E+04 -5.701306E+04
       190   8  7.260390E+04 -2.174260E+05 -2.038201E+05  1.380911E+05  1.511021E+04 -2.672669E+04
       190   9  1.086247E+06  3.448631E+04  3.938564E+04  5.347680E+05  1.594030E+04  1.240971E+04
       190  10  2.842066E+06  4.676558E+05  4.610579E+05  5.349951E+05  8.528962E-09 -1.908512E-09
       190  11  1.826350E+06  2.172067E+05  2.174446E+05  1.383881E+05 -4.909718E-09  5.033611E-09
       190  12  8.140131E+05 -3.195000E+04 -2.085801E+04  5.351140E+05 -1.219244E-09  3.945358E-09
       190  13  9.498163E+05 -8.076508E+02  6.844063E+03  5.349418E+05  9.508076E-09 -3.602021E-09
       190  14  9.491255E+05 -8.214824E+01  6.838646E+03  1.382398E+05 -1.971470E-09  4.730528E-09
       190  15  9.501212E+05  1.268664E+03  9.264003E+03  5.349410E+05  8.197169E-09  6.870003E-09
       190  16 -9.391679E+05 -4.695309E+05 -4.476238E+05  5.348872E+05  2.816462E-09  5.285309E-11
       190  17  7.260347E+04 -2.174268E+05 -2.038219E+05  1.380915E+05  9.233625E-09  7.252300E-09
       190  18  1.086246E+06  3.448608E+04  3.938487E+04  5.347679E+05  1.404775E-08  2.109400E-09
       190  19  2.842067E+06  4.676594E+05  4.610643E+05  5.349956E+05  1.062643E+04  5.699632E+04
       190  20  1.826351E+06  2.172075E+05  2.174465E+05  1.383885E+05  1.823916E+04  2.673760E+04
       190  21  8.140139E+05 -3.194965E+04 -2.085646E+04  5.351138E+05  2.590753E+04 -1.235375E+04
       190  22  9.498172E+05 -8.041588E+02  6.850179E+03  5.349418E+05 -1.812253E+03  5.700468E+04
       190  23  9.491257E+05 -8.137991E+01  6.839994E+03  1.382398E+05  1.552763E+03  2.673214E+04
       190  24  9.501212E+05  1.268836E+03  9.264338E+03  5.349409E+05  4.985883E+03 -1.238174E+04
       190  25 -9.391668E+05 -4.695273E+05 -4.476173E+05  5.348866E+05 -1.421330E+04  5.701306E+04
       190  26  7.260390E+04 -2.174260E+05 -2.038201E+05  1.380911E+05 -1.511021E+04  2.672669E+04
       190  27  1.086247E+06  3.448631E+04  3.938564E+04  5.347680E+05 -1.594030E+04 -1.240971E+04
       191   1 -6.249384E+05 -3.914793E+05 -3.704808E+05  5.353198E+05 -2.873024E+04  3.908572E+04
       191   2 -1.647650E+06 -6.466715E+05 -6.073823E+05  1.392733E+05 -3.153397E+04  7.853067E+04
       191   3 -2.655304E+06 -8.918541E+05 -8.378584E+05  5.396910E+05 -3.414548E+04  1.061581E+05
       191   4  9.524021E+05  3.690032E+02  1.158628E+04  5.355720E+05 -7.009078E+03  3.910175E+04
       191   5  9.443927E+05 -3.228776E+03  1.642650E+04  1.374489E+05 -1.551812E+04  7.849439E+04
       191   6  9.514899E+05  4.233487E+03  3.169368E+04  5.355877E+05 -2.383958E+04  1.060945E+05
       191   7  2.532016E+06  3.920353E+05  3.934762E+05  5.358234E+05  1.476715E+04  3.911777E+04
       191   8  3.542589E+06  6.397247E+05  6.397579E+05  1.356176E+05  5.645858E+02  7.845811E+04
       191   9  4.570206E+06  8.993718E+05  9.003173E+05  5.314622E+05 -1.347351E+04  1.060310E+05
       191  10 -6.249397E+05 -3.914811E+05 -3.704852E+05  5.353207E+05  5.278918E-09  4.710912E-09
       191  11 -1.647653E+06 -6.466784E+05 -6.073958E+05  1.392753E+05  4.493364E-09  3.798717E-09
       191  12 -2.655309E+06 -8.918665E+05 -8.378818E+05  5.396940E+05  1.342514E-08 -7.160155E-09
       191  13  9.524016E+05  3.673471E+02  1.158331E+04  5.355722E+05  8.621287E-09  3.644787E-09
       191  14  9.443907E+05 -3.235460E+03  1.641446E+04  1.374499E+05 -2.141731E-08 -1.590626E-09
       191  15  9.514862E+05  4.221239E+03  3.167145E+04  5.355898E+05 -1.282258E-08 -7.997579E-09
       191  16  2.532015E+06  3.920336E+05  3.934729E+05  5.358229E+05  4.833496E-09 -2.880244E-09
       191  17  3.542588E+06  6.397181E+05  6.397463E+05  1.356176E+05 -1.233024E-08 -8.725870E-09
       191  18  4.570203E+06  8.993596E+05  9.002958E+05  5.314634E+05 -8.049028E-09 -1.916989E-08
       191  19 -6.249384E+05 -3.914793E+05 -3.704808E+05  5.353198E+05  2.873024E+04 -3.908572E+04
       191  20 -1.647650E+06 -6.466715E+05 -6.073823E+05  1.392733E+05  3.153397E+04 -7.853067E+04
       191  21 -2.655304E+06 -8.918541E+05 -8.378584E+05  5.396910E+05  3.414548E+04 -1.061581E+05
       191  22  9.524021E+05  3.690032E+02  1.158628E+04  5.355720E+05  7.009078E+03 -3.910175E+04
       191  23  9.443927E+05 -3.228776E+03  1.642650E+04  1.374489E+05  1.551812E+04 -7.849439E+04
       191  24  9.514899E+05  4.233487E+03  3.169368E+04  5.355877E+05  2.383958E+04 -1.060945E+05
       191  25  2.532016E+06  3.920353E+05  3.934762E+05  5.358234E+05 -1.476715E+04 -3.911777E+04
       191  26  3.542589E+06  6.397247E+05  6.397579E+05  1.356176E+05 -5.645858E+02 -7.845811E+04
       191  27  4.570206E+06  8.993718E+05  9.003173E+05  5.314622E+05  1.347351E+04 -1.060310E+05
       192   1 -4.092477E+06 -1.269530E+06 -1.178459E+06  5.667021E+05 -8.673679E+04  1.534328E+05
       192   2 -5.170607E+06 -1.542034E+06 -1.408977E+06  1.623241E+05 -4.069779E+04  1.908382E+05
       192   3 -6.158744E+06 -1.687638E+06 -1.624868E+06  5.666865E+05  3.729139E+03  6.640800E+04
       192   4  9.672932E+05 -1.141944E+04  4.117541E+04  5.378954E+05 -3.037205E+04  1.531375E+05
       192   5  9.150174E+05 -2.825761E+04  5.696608E+04  1.343756E+05 -6.171963E+04  1.908820E+05
       192   6  9.650864E+05  9.479832E+04  1.410220E+05  5.391098E+05 -9.460071E+04  6.749020E+04
       192   7  6.050570E+06  1.244826E+06  1.258994E+06  5.088646E+05  2.645347E+04  1.528381E+05
       192   8  7.034684E+06  1.482817E+06  1.520270E+06  1.062149E+05 -8.294559E+04  1.909277E+05
       192   9  8.135293E+06  1.873437E+06  1.903168E+06  5.113287E+05 -1.940612E+05  6.857541E+04
       192  10 -4.092491E+06 -1.269558E+06 -1.178517E+06  5.667129E+05  1.127608E-08  5.147940E-09
       192  11 -5.170619E+06 -1.542074E+06 -1.409048E+06  1.623304E+05  5.523683E-09 -1.293751E-09
       192  12 -6.158745E+06 -1.687643E+06 -1.624876E+06  5.666863E+05  2.070203E-08 -1.008409E-09
       192  13  9.672859E+05 -1.144489E+04  4.112957E+04  5.378992E+05  1.318541E-09 -1.113526E-08
       192  14  9.150035E+05 -2.829778E+04  5.689042E+04  1.343851E+05 -2.456006E-09  2.480096E-08
       192  15  9.650755E+05  9.479102E+04  1.409966E+05  5.391150E+05 -4.657701E-09  2.311804E-08
       192  16  6.050563E+06  1.244801E+06  1.258949E+06  5.088613E+05  3.402669E-10 -1.443963E-08
       192  17  7.034667E+06  1.482776E+06  1.520189E+06  1.062275E+05 -3.458411E-08 -8.417027E-09
       192  18  8.135251E+06  1.873422E+06  1.903089E+06  5.113394E+05 -1.711340E-08 -8.960202E-10
       192  19 -4.092477E+06 -1.269530E+06 -1.178459E+06  5.667021E+05  8.673679E+04 -1.534328E+05
       192  20 -5.170607E+06 -1.542034E+06 -1.408977E+06  1.623241E+05  4.069779E+04 -1.908382E+05
       192  21 -6.158744E+06 -1.687638E+06 -1.624868E+06  5.666865E+05 -3.729139E+03 -6.640800E+04
       192  22  9.672932E+05 -1.141944E+04  4.117541E+04  5.378954E+05  3.037205E+04 -1.531375E+05
       192  23  9.150174E+05 -2.825761E+04  5.696608E+04  1.343756E+05  6.171963E+04 -1.908820E+05
       192  24  9.650864E+05  9.479832E+04  1.410220E+05  5.391098E+05  9.460071E+04 -6.749020E+04
       192  25  6.050570E+06  1.244826E+06  1.258994E+06  5.088646E+05 -2.645347E+04 -1.528381E+05
       192  26  7.034684E+06  1.482817E+06  1.520270E+06  1.062149E+05  8.294559E+04 -1.909277E+05
       192  27  8.135293E+06  1.873437E+06  1.903168E+06  5.113287E+05  1.940612E+05 -6.857541E+04
       193   1 -3.905356E+06 -1.524363E+07 -3.951702E+06  1.536485E+06 -1.389739E+05 -3.789985E+05
       193   2 -2.900910E+06 -1.217685E+07 -2.959394E+06  2.629215E+05 -3.714874E+05 -1.400477E+05
       193   3 -2.059019E+06 -9.115677E+06 -2.152663E+06  1.403373E+06 -2.522835E+05  9.358090E+04
       193   4 -1.965908E+05 -5.187624E+05 -2.767281E+05  1.620156E+06 -1.361394E+05 -1.875919E+05
       193   5  1.534678E+04 -5.216720E+05 -1.375940E+05  4.119458E+05 -3.704684E+05 -1.124357E+05
       193   6  9.821863E+04 -5.061845E+05 -6.588379E+04  1.615365E+06 -2.559336E+05 -4.374697E+04
       193   7  3.495761E+06  1.440606E+07  3.382048E+06  1.704923E+06 -1.332917E+05  8.482972E+03
       193   8  2.921635E+06  1.125934E+07  2.674435E+06  5.631546E+05 -3.694474E+05 -8.428171E+04
       193   9  2.250085E+06  8.171787E+06  2.015624E+06  1.829776E+06 -2.596515E+05 -1.829914E+05
       193  10 -3.905416E+06 -1.524379E+07 -3.952014E+06  1.536442E+06  1.351525E-08 -4.885577E-08
       193  11 -2.901064E+06 -1.217691E+07 -2.959691E+06  2.628793E+05  2.547084E-08 -6.513332E-08
       193  12 -2.059090E+06 -9.115704E+06 -2.152800E+06  1.403392E+06 -1.790988E-08 -1.287346E-08
       193  13 -1.966201E+05 -5.188051E+05 -2.768288E+05  1.620135E+06 -1.250359E-09  4.099458E-11
       193  14  1.519606E+04 -5.217224E+05 -1.378755E+05  4.119123E+05  8.731544E-09  4.857831E-08
       193  15  9.814784E+04 -5.062041E+05 -6.601029E+04  1.615356E+06 -3.375333E-08 -2.377925E-09
       193  16  3.495742E+06  1.440605E+07  3.382015E+06  1.704924E+06 -4.721456E-09  1.395010E-08
       193  17  2.921487E+06  1.125930E+07  2.674166E+06  5.631297E+05 -2.952777E-08  6.396521E-08
       193  18  2.250004E+06  8.171734E+06  2.015436E+06  1.829738E+06 -7.387822E-09  1.962076E-08
       193  19 -3.905356E+06 -1.524363E+07 -3.951702E+06  1.536485E+06  1.389739E+05  3.789985E+05
       193  20 -2.900910E+06 -1.217685E+07 -2.959394E+06  2.629215E+05  3.714874E+05  1.400477E+05
       193  21 -2.059019E+06 -9.115677E+06 -2.152663E+06  1.403373E+06  2.522835E+05 -9.358090E+04
       193  22 -1.965908E+05 -5.187624E+05 -2.767281E+05  1.620156E+06  1.361394E+05  1.875919E+05
       193  23  1.534678E+04 -5.216720E+05 -1.375940E+05  4.119458E+05  3.704684E+05  1.124357E+05
       193  24  9.821863E+04 -5.061845E+05 -6.588379E+04  1.615365E+06  2.559336E+05  4.374697E+04
       193  25  3.495761E+06  1.440606E+07  3.382048E+06  1.704923E+06  1.332917E+05 -8.482972E+03
       193  26  2.921635E+06  1.125934E+07  2.674435E+06  5.631546E+05  3.694474E+05  8.428171E+04
       193  27  2.250085E+06  8.171787E+06  2.015624E+06  1.829776E+06  2.596515E+05  1.829914E+05
       194   1 -9.979272E+05 -4.754780E+06 -1.083467E+06  1.537458E+06 -1.291838E+05  6.331810E+03
       194   2 -2.507199E+05 -1.588483E+06 -3.051221E+05  3.843162E+05 -3.379375E+04  2.198572E+04
       194   3  5.754982E+05  1.431241E+06  4.444835E+05  1.655543E+06  6.528042E+04  3.735342E+04
       194   4  5.638853E+04 -5.286503E+05 -6.355066E+04  1.620210E+06 -1.304937E+05 -3.824541E+04
       194   5  3.273569E+04 -4.505626E+05 -3.091110E+04  4.078106E+05 -3.519975E+04 -2.434790E+04
       194   6  8.916122E+04 -5.274013E+05 -2.504004E+04  1.619285E+06  6.374650E+04 -1.082432E+04
       194   7  1.109407E+06  3.713913E+06  9.550942E+05  1.703385E+06 -1.318108E+05 -8.312615E+04
       194   8  3.160987E+05  6.885504E+05  2.432155E+05  4.313390E+05 -3.660794E+04 -7.076632E+04
       194   9 -3.974513E+05 -2.482526E+06 -4.948267E+05  1.583111E+06  6.221560E+04 -5.885081E+04
       194  10 -9.979451E+05 -4.754785E+06 -1.083498E+06  1.537459E+06 -4.526277E-09 -7.685725E-08
       194  11 -2.507213E+05 -1.588484E+06 -3.051252E+05  3.843168E+05  3.944904E-08 -8.339876E-08
       194  12  5.754932E+05  1.431238E+06  4.444729E+05  1.655541E+06 -1.599513E-08 -3.002556E-08
       194  13  5.636988E+04 -5.286564E+05 -6.358534E+04  1.620206E+06 -1.665394E-08  4.518867E-09
       194  14  3.273420E+04 -4.505636E+05 -3.091454E+04  4.078099E+05  5.745973E-08  6.289626E-08
       194  15  8.915682E+04 -5.274025E+05 -2.504790E+04  1.619286E+06  2.963915E-09 -1.773200E-08
       194  16  1.109387E+06  3.713901E+06  9.550488E+05  1.703376E+06  1.713412E-09 -1.015358E-08
       194  17  3.160959E+05  6.885447E+05  2.432036E+05  4.313369E+05  1.635830E-08  8.774330E-08
       194  18 -3.974564E+05 -2.482531E+06 -4.948405E+05  1.583114E+06  7.989453E-09  3.271208E-08
       194  19 -9.979272E+05 -4.754780E+06 -1.083467E+06  1.537458E+06  1.291838E+05 -6.331810E+03
       194  20 -2.507199E+05 -1.588483E+06 -3.051221E+05  3.843162E+05  3.379375E+04 -2.198572E+04
       194  21  5.754982E+05  1.431241E+06  4.444835E+05  1.655543E+06 -6.528042E+04 -3.735342E+04
       194  22  5.638853E+04 -5.286503E+05 -6.355066E+04  1.620210E+06  1.304937E+05  3.824541E+04
       194  23  3.273569E+04 -4.505626E+05 -3.091110E+04  4.078106E+05  3.519975E+04  2.434790E+04
       194  24  8.916122E+04 -5.274013E+05 -2.504004E+04  1.619285E+06 -6.374650E+04  1.082432E+04
       194  25  1.109407E+06  3.713913E+06  9.550942E+05  1.703385E+06  1.318108E+05  8.312615E+04
       194  26  3.160987E+05  6.885504E+05  2.432155E+05  4.313390E+05  3.660794E+04  7.076632E+04
       194  27 -3.974513E+05 -2.482526E+06 -4.948267E+05  1.583111E+06 -6.221560E+04  5.885081E+04
       195   1  1.680687E+06  5.883930E+06  1.519348E+06  1.770525E+06  1.867576E+05  1.151349E+05
       195   2  2.349143E+06  8.980470E+06  2.233510E+06  5.714464E+05  2.970672E+05 -1.644731E+04
       195   3  3.138980E+06  1.211159E+07  3.055187E+06  1.783827E+06  1.081461E+05 -1.417591E+05
       195   4  9.459304E+04 -5.034179E+05 -1.609257E+04  1.616787E+06  1.829739E+05 -1.254601E+04
       195   5  3.209598E+03 -5.084046E+05 -3.449884E+04  4.107847E+05  2.977767E+05  9.728444E+02
       195   6  8.221625E+03 -5.135275E+05 -4.506172E+04  1.618586E+06  1.113271E+05  2.144836E+04
       195   7 -1.494421E+06 -6.853585E+06 -1.554378E+06  1.464299E+06  1.792324E+05 -1.389265E+05
       195   8 -2.349187E+06 -9.915465E+06 -2.308860E+06  2.520593E+05  2.984838E+05  1.812977E+04
       195   9 -3.134279E+06 -1.299525E+07 -3.156936E+06  1.455826E+06  1.144586E+05  1.813855E+05
       195  10  1.680647E+06  5.883907E+06  1.519259E+06  1.770508E+06 -1.976208E-08 -7.403958E-08
       195  11  2.349048E+06  8.980446E+06  2.233344E+06  5.714503E+05  2.395321E-09 -6.632505E-08
       195  12  3.138962E+06  1.211156E+07  3.055128E+06  1.783839E+06  4.934583E-09 -3.232197E-08
       195  13  9.455705E+04 -5.034270E+05 -1.615578E+04  1.616789E+06 -1.547739E-08  6.946939E-09
       195  14  3.114401E+03 -5.084284E+05 -3.466543E+04  4.107845E+05  1.025565E-09  4.594429E-08
       195  15  8.208205E+03 -5.135314E+05 -4.508584E+04  1.618585E+06  1.420433E-09 -6.086919E-09
       195  16 -1.494461E+06 -6.853614E+06 -1.554475E+06  1.464319E+06  8.298781E-09 -1.560385E-08
       195  17 -2.349282E+06 -9.915489E+06 -2.309028E+06  2.520549E+05 -1.445314E-08  6.737832E-08
       195  18 -3.134302E+06 -1.299529E+07 -3.157023E+06  1.455809E+06 -6.299454E-09  3.253135E-08
       195  19  1.680687E+06  5.883930E+06  1.519348E+06  1.770525E+06 -1.867576E+05 -1.151349E+05
       195  20  2.349143E+06  8.980470E+06  2.233510E+06  5.714464E+05 -2.970672E+05  1.644731E+04
       195  21  3.138980E+06  1.211159E+07  3.055187E+06  1.783827E+06 -1.081461E+05  1.417591E+05
       195  22  9.459304E+04 -5.034179E+05 -1.609257E+04  1.616787E+06 -1.829739E+05  1.254601E+04
       195  23  3.209598E+03 -5.084046E+05 -3.449884E+04  4.107847E+05 -2.977767E+05 -9.728444E+02
       195  24  8.221625E+03 -5.135275E+05 -4.506172E+04  1.618586E+06 -1.113271E+05 -2.144836E+04
       195  25 -1.494421E+06 -6.853585E+06 -1.554378E+06  1.464299E+06 -1.792324E+05  1.389265E+05
       195  26 -2.349187E+06 -9.915465E+06 -2.308860E+06  2.520593E+05 -2.984838E+05 -1.812977E+04
       195  27 -3.134279E+06 -1.299525E+07 -3.156936E+06  1.455826E+06 -1.144586E+05 -1.813855E+05
       196   1  2.629036E+06  5.790109E+05  5.816820E+05  2.508827E+05  3.161131E+04 -2.138163E+04
       196   2  2.093826E+06  4.481537E+05  4.374625E+05  5.217708E+04  3.756120E+03 -5.714730E+04
       196   3  1.578517E+06  3.156447E+05  3.138870E+05  2.624828E+05 -2.340686E+04 -3.727408E+04
       196   4  2.816540E+05 -5.859980E+03  2.329352E+03  2.729542E+05  8.286868E+02 -2.099172E+04
       196   5  2.743145E+05 -2.759511E+03  1.016699E+03  6.840536E+04 -2.221932E+02 -5.711118E+04
       196   6  2.819815E+05 -5.931773E+03  1.801770E+03  2.729467E+05 -6.036232E+02 -3.751951E+04
       196   7 -2.060731E+06 -5.911402E+05 -5.774278E+05  2.949573E+05 -2.983806E+04 -2.060328E+04
       196   8 -1.542172E+06 -4.539125E+05 -4.356637E+05  8.459476E+04 -4.188924E+03 -5.707521E+04
       196   9 -1.013017E+06 -3.276302E+05 -3.104013E+05  2.833924E+05  2.215226E+04 -3.776444E+04
       196  10  2.629035E+06  5.790102E+05  5.816792E+05  2.508833E+05 -6.456571E-09 -3.035177E-09
       196  11  2.093825E+06  4.481502E+05  4.374563E+05  5.217725E+04 -1.050048E-08  1.762397E-08
       196  12  1.578516E+06  3.156430E+05  3.138833E+05  2.624821E+05  1.321544E-08  9.539769E-09
       196  13  2.816539E+05 -5.860454E+03  2.328522E+03  2.729542E+05  3.710888E-09 -2.124692E-08
       196  14  2.743136E+05 -2.763014E+03  1.010569E+03  6.840535E+04  7.752015E-09  8.030098E-09
       196  15  2.819811E+05 -5.933285E+03  1.799123E+03  2.729467E+05 -1.528351E-08  1.863105E-08
       196  16 -2.060732E+06 -5.911409E+05 -5.774303E+05  2.949568E+05  1.709662E-08 -4.139302E-09
       196  17 -1.542173E+06 -4.539161E+05 -4.356699E+05  8.459456E+04  7.548720E-09  5.142786E-08
       196  18 -1.013018E+06 -3.276318E+05 -3.104049E+05  2.833930E+05 -2.172849E-08  3.200552E-08
       196  19  2.629036E+06  5.790109E+05  5.816820E+05  2.508827E+05 -3.161131E+04  2.138163E+04
       196  20  2.093826E+06  4.481537E+05  4.374625E+05  5.217708E+04 -3.756120E+03  5.714730E+04
       196  21  1.578517E+06  3.156447E+05  3.138870E+05  2.624828E+05  2.340686E+04  3.727408E+04
       196  22  2.816540E+05 -5.859980E+03  2.329352E+03  2.729542E+05 -8.286868E+02  2.099172E+04
       196  23  2.743145E+05 -2.759511E+03  1.016699E+03  6.840536E+04  2.221932E+02  5.711118E+04
       196  24  2.819815E+05 -5.931773E+03  1.801770E+03  2.729467E+05  6.036232E+02  3.751951E+04
       196  25 -2.060731E+06 -5.911402E+05 -5.774278E+05  2.949573E+05  2.983806E+04  2.060328E+04
       196  26 -1.542172E+06 -4.539125E+05 -4.356637E+05  8.459476E+04  4.188924E+03  5.707521E+04
       196  27 -1.013017E+06 -3.276302E+05 -3.104013E+05  2.833924E+05 -2.215226E+04  3.776444E+04
       197   1  8.313062E+05  1.305484E+05  1.338150E+05  2.687631E+05 -7.685722E+03 -1.724538E+04
       197   2  3.036776E+05  5.256374E+03  8.966908E+03  6.807507E+04 -1.058627E+04 -8.739461E+02
       197   3 -2.144679E+05 -1.282347E+05 -1.138090E+05  2.769297E+05 -1.344401E+04  1.932907E+04
       197   4  2.810191E+05 -5.908504E+03  1.733262E+03  2.730504E+05 -7.571124E+02 -1.731706E+04
       197   5  2.765612E+05 -1.461618E+03  2.496643E+03  6.827906E+04 -1.820158E+03 -9.646479E+02
       197   6  2.810238E+05 -5.511736E+03  4.075372E+03  2.730544E+05 -2.842920E+03  1.922030E+04
       197   7 -2.689909E+05 -1.423873E+05 -1.303698E+05  2.773346E+05  6.165387E+03 -1.738867E+04
       197   8  2.494457E+05 -8.179621E+03 -3.973386E+03  6.848305E+04  6.945578E+03 -1.055346E+03
       197   9  7.767411E+05  1.171936E+05  1.219430E+05  2.691765E+05  7.766593E+03  1.911144E+04
       197  10  8.313061E+05  1.305480E+05  1.338143E+05  2.687630E+05  1.211213E-08  5.441974E-09
       197  11  3.036774E+05  5.256343E+03  8.966696E+03  6.807506E+04  1.216130E-09  3.071761E-08
       197  12 -2.144682E+05 -1.282351E+05 -1.138100E+05  2.769299E+05 -2.532366E-09  6.463351E-09
       197  13  2.810190E+05 -5.908826E+03  1.732698E+03  2.730504E+05 -5.670685E-09  7.041635E-09
       197  14  2.765612E+05 -1.461620E+03  2.496635E+03  6.827906E+04  1.147130E-08 -5.604263E-09
       197  15  2.810237E+05 -5.512135E+03  4.074662E+03  2.730544E+05  7.083948E-09 -1.235800E-08
       197  16 -2.689910E+05 -1.423876E+05 -1.303704E+05  2.773347E+05 -2.417884E-08 -9.387093E-09
       197  17  2.494456E+05 -8.179635E+03 -3.973478E+03  6.848305E+04 -2.012503E-08  1.335536E-08
       197  18  7.767409E+05  1.171932E+05  1.219422E+05  2.691764E+05 -1.833085E-09 -2.685897E-08
       197  19  8.313062E+05  1.305484E+05  1.338150E+05  2.687631E+05  7.685722E+03  1.724538E+04
       197  20  3.036776E+05  5.256374E+03  8.966908E+03  6.807507E+04  1.058627E+04  8.739461E+02
       197  21 -2.144679E+05 -1.282347E+05 -1.138090E+05  2.769297E+05  1.344401E+04 -1.932907E+04
       197  22  2.810191E+05 -5.908504E+03  1.733262E+03  2.730504E+05  7.571124E+02  1.731706E+04
       197  23  2.765612E+05 -1.461618E+03  2.496643E+03  6.827906E+04  1.820158E+03  9.646479E+02
       197  24  2.810238E+05 -5.511736E+03  4.075372E+03  2.730544E+05  2.842920E+03 -1.922030E+04
       197  25 -2.689909E+05 -1.423873E+05 -1.303698E+05  2.773346E+05 -6.165387E+03  1.738867E+04
       197  26  2.494457E+05 -8.179621E+03 -3.973386E+03  6.848305E+04 -6.945578E+03  1.055346E+03
       197  27  7.767411E+05  1.171936E+05  1.219430E+05  2.691765E+05 -7.766593E+03 -1.911144E+04
       198   1 -9.579355E+05 -3.143672E+05 -2.945027E+05  2.836453E+05 -1.499266E+04  3.315891E+04
       198   2 -1.489163E+06 -4.412187E+05 -4.163332E+05  8.352710E+04 -1.570305E+04  5.355812E+04
       198   3 -2.004522E+06 -5.709489E+05 -5.350581E+05  2.938169E+05 -1.642389E+04  6.709284E+04
       198   4  2.822706E+05 -6.095318E+03  5.401731E+03  2.732111E+05 -3.583307E+03  3.303502E+04
       198   5  2.740192E+05 -3.196567E+03  8.163933E+03  6.806625E+04 -7.596302E+03  5.345279E+04
       198   6  2.819524E+05 -2.589090E+03  1.633397E+04  2.732607E+05 -1.162042E+04  6.701556E+04
       198   7  1.523884E+06  3.020642E+05  3.051963E+05  2.627592E+05  7.848799E+03  3.291086E+04
       198   8  2.040050E+06  4.345994E+05  4.324397E+05  5.256944E+04  5.334584E+02  5.334722E+04
       198   9  2.573218E+06  5.653896E+05  5.673524E+05  2.526425E+05 -6.799205E+03  6.693811E+04
       198  10 -9.579361E+05 -3.143684E+05 -2.945052E+05  2.836457E+05 -1.451367E-08  3.409755E-09
       198  11 -1.489164E+06 -4.412219E+05 -4.163391E+05  8.352778E+04 -2.455652E-09 -1.914108E-08
       198  12 -2.004524E+06 -5.709538E+05 -5.350671E+05  2.938178E+05  1.659174E-08  1.713421E-08
       198  13  2.822703E+05 -6.096494E+03  5.399656E+03  2.732112E+05  1.156654E-08  2.595503E-08
       198  14  2.740183E+05 -3.199651E+03  8.158454E+03  6.806658E+04  7.916336E-09 -1.663427E-08
       198  15  2.819510E+05 -2.593950E+03  1.632527E+04  2.732613E+05  4.354107E-09 -1.926141E-09
       198  16  1.523884E+06  3.020630E+05  3.051941E+05  2.627590E+05  3.405979E-08  1.091714E-08
       198  17  2.040049E+06  4.345963E+05  4.324344E+05  5.256941E+04  9.863360E-09  6.413101E-08
       198  18  2.573217E+06  5.653848E+05  5.673439E+05  2.526429E+05 -1.553380E-08 -1.506221E-08
       198  19 -9.579355E+05 -3.143672E+05 -2.945027E+05  2.836453E+05  1.499266E+04 -3.315891E+04
       198  20 -1.489163E+06 -4.412187E+05 -4.163332E+05  8.352710E+04  1.570305E+04 -5.355812E+04
       198  21 -2.004522E+06 -5.709489E+05 -5.350581E+05  2.938169E+05  1.642389E+04 -6.709284E+04
       198  22  2.822706E+05 -6.095318E+03  5.401731E+03  2.732111E+05  3.583307E+03 -3.303502E+04
       198  23  2.740192E+05 -3.196567E+03  8.163933E+03  6.806625E+04  7.596302E+03 -5.345279E+04
       198  24  2.819524E+05 -2.589090E+03  1.633397E+04  2.732607E+05  1.162042E+04 -6.701556E+04
       198  25  1.523884E+06  3.020642E+05  3.051963E+05  2.627592E+05 -7.848799E+03 -3.291086E+04
       198  26  2.040050E+06  4.345994E+05  4.324397E+05  5.256944E+04 -5.334584E+02 -5.334722E+04
       198  27  2.573218E+06  5.653896E+05  5.673524E+05  2.526425E+05  6.799205E+03 -6.693811E+04
       199   1 -2.744727E+06 -7.656119E+05 -7.100020E+05  3.117855E+05 -4.556972E+04  9.287890E+04
       199   2 -3.293396E+06 -8.985745E+05 -8.258016E+05  1.062419E+05 -1.798536E+04  1.114686E+05
       199   3 -3.798783E+06 -9.754501E+05 -9.388127E+05  3.123837E+05  8.004763E+03  3.826079E+04
       199   4  2.884659E+05 -1.113268E+04  2.077413E+04  2.731662E+05 -1.460821E+04  9.242604E+04
       199   5  2.628480E+05 -1.412276E+04  3.030213E+04  6.791512E+04 -3.096565E+04  1.116353E+05
       199   6  2.878316E+05  4.646051E+04  7.312001E+04  2.742034E+05 -4.889068E+04  3.927910E+04
       199   7  3.330101E+06  7.426783E+05  7.508973E+05  2.343839E+05  1.650469E+04  9.197045E+04
       199   8  3.830704E+06  8.694088E+05  8.855050E+05  2.941301E+04 -4.401987E+04  1.118032E+05
       199   9  4.389684E+06  1.067124E+06  1.083822E+06  2.358364E+05 -1.061612E+05  4.030115E+04
       199  10 -2.744732E+06 -7.656217E+05 -7.100222E+05  3.117889E+05 -2.520895E-08  1.789401E-08
       199  11 -3.293399E+06 -8.985880E+05 -8.258256E+05  1.062435E+05 -3.131894E-08  5.410859E-09
       199  12 -3.798783E+06 -9.754516E+05 -9.388156E+05  3.123834E+05 -9.687058E-09 -4.169918E-08
       199  13  2.884633E+05 -1.114191E+04  2.075767E+04  2.731673E+05  1.223005E-08 -1.584358E-08
       199  14  2.628436E+05 -1.413640E+04  3.027690E+04  6.791790E+04 -3.403815E-12 -8.303173E-09
       199  15  2.878286E+05  4.645821E+04  7.311262E+04  2.742050E+05 -2.325334E-09 -2.672623E-08
       199  16  3.330099E+06  7.426692E+05  7.508809E+05  2.343827E+05  1.749820E-08 -3.448859E-08
       199  17  3.830698E+06  8.693948E+05  8.854779E+05  2.941696E+04  2.969961E-08 -3.091953E-08
       199  18  4.389671E+06  1.067119E+06  1.083798E+06  2.358398E+05  1.437524E-08  8.492591E-09
       199  19 -2.744727E+06 -7.656119E+05 -7.100020E+05  3.117855E+05  4.556972E+04 -9.287890E+04
       199  20 -3.293396E+06 -8.985745E+05 -8.258016E+05  1.062419E+05  1.798536E+04 -1.114686E+05
       199  21 -3.798783E+06 -9.754501E+05 -9.388127E+05  3.123837E+05 -8.004763E+03 -3.826079E+04
       199  22  2.884659E+05 -1.113268E+04  2.077413E+04  2.731662E+05  1.460821E+04 -9.242604E+04
       199  23  2.628480E+05 -1.412276E+04  3.030213E+04  6.791512E+04  3.096565E+04 -1.116353E+05
       199  24  2.878316E+05  4.646051E+04  7.312001E+04  2.742034E+05  4.889068E+04 -3.927910E+04
       199  25  3.330101E+06  7.426783E+05  7.508973E+05  2.343839E+05 -1.650469E+04 -9.197045E+04
       199  26  3.830704E+06  8.694088E+05  8.855050E+05  2.941301E+04  4.401987E+04 -1.118032E+05
       199  27  4.389684E+06  1.067124E+06  1.083822E+06  2.358364E+05  1.061612E+05 -4.030115E+04
       200   1 -2.401678E+06 -9.686681E+06 -2.437577E+06  9.260569E+05 -8.711529E+04 -2.200899E+05
       200   2 -1.800448E+06 -7.742952E+06 -1.828792E+06  1.512716E+05 -2.311499E+05 -7.663938E+04
       200   3 -1.283815E+06 -5.845767E+06 -1.336162E+06  8.843070E+05 -1.568362E+05  6.284041E+04
       200   4 -9.135671E+04 -4.854212E+05 -1.489292E+05  1.008657E+06 -8.496276E+04 -9.964865E+04
       200   5  1.540889E+04 -4.675845E+05 -7.214666E+04  2.538889E+05 -2.305994E+05 -5.911343E+04
       200   6  5.711720E+04 -4.804972E+05 -3.842645E+04  1.005939E+06 -1.590034E+05 -2.297350E+04
       200   7  2.212595E+06  8.793523E+06  2.133426E+06  1.092104E+06 -8.279516E+04  2.260720E+04
       200   8  1.827401E+06  6.856615E+06  1.680707E+06  3.574587E+05 -2.300468E+05 -4.137719E+04
       200   9  1.395966E+06  4.911286E+06  1.257268E+06  1.128440E+06 -1.611948E+05 -1.095313E+05
       200  10 -2.401700E+06 -9.686735E+06 -2.437683E+06  9.260414E+05 -3.243259E-09 -2.112849E-08
       200  11 -1.800507E+06 -7.742972E+06 -1.828904E+06  1.512572E+05  2.282680E-08 -9.967571E-08
       200  12 -1.283843E+06 -5.845778E+06 -1.336215E+06  8.843150E+05 -8.036924E-10  3.396438E-09
       200  13 -9.136711E+04 -4.854338E+05 -1.489614E+05  1.008650E+06 -1.560219E-08 -3.232833E-08
       200  14  1.535087E+04 -4.676026E+05 -7.225311E+04  2.538779E+05  9.853041E-09 -3.160051E-09
       200  15  5.708993E+04 -4.805046E+05 -3.847491E+04  1.005936E+06 -1.029035E-08 -5.055018E-08
       200  16  2.212587E+06  8.793521E+06  2.133412E+06  1.092106E+06  1.145097E-09  2.135525E-08
       200  17  1.827343E+06  6.856599E+06  1.680605E+06  3.574511E+05 -2.018863E-08  8.569132E-08
       200  18  1.395935E+06  4.911266E+06  1.257197E+06  1.128426E+06 -2.021125E-08  9.684333E-08
       200  19 -2.401678E+06 -9.686681E+06 -2.437577E+06  9.260569E+05  8.711529E+04  2.200899E+05
       200  20 -1.800448E+06 -7.742952E+06 -1.828792E+06  1.512716E+05  2.311499E+05  7.663938E+04
       200  21 -1.283815E+06 -5.845767E+06 -1.336162E+06  8.843070E+05  1.568362E+05 -6.284041E+04
       200  22 -9.135671E+04 -4.854212E+05 -1.489292E+05  1.008657E+06  8.496276E+04  9.964865E+04
       200  23  1.540889E+04 -4.675845E+05 -7.214666E+04  2.538889E+05  2.305994E+05  5.911343E+04
       200  24  5.711720E+04 -4.804972E+05 -3.842645E+04  1.005939E+06  1.590034E+05  2.297350E+04
       200  25  2.212595E+06  8.793523E+06  2.133426E+06  1.092104E+06  8.279516E+04 -2.260720E+04
       200  26  1.827401E+06  6.856615E+06  1.680707E+06  3.574587E+05  2.300468E+05  4.137719E+04
       200  27  1.395966E+06  4.911286E+06  1.257268E+06  1.128440E+06  1.611948E+05  1.095313E+05
       201   1 -6.165631E+05 -3.107044E+06 -6.674912E+05  9.611709E+05 -7.992032E+04  8.438278E+03
       201   2 -1.531614E+05 -1.130453E+06 -1.858638E+05  2.379639E+05 -2.031488E+04  1.856605E+04
       201   3  3.593265E+05  7.602106E+05  2.796240E+05  1.029831E+06  4.153045E+04  2.856830E+04
       201   4  3.615561E+04 -4.872475E+05 -3.592587E+04  1.008841E+06 -8.067327E+04 -1.944374E+04
       201   5  1.811568E+04 -4.424433E+05 -2.012807E+04  2.512223E+05 -2.111340E+04 -1.039073E+04
       201   6  4.963814E+04 -4.867761E+05 -1.944162E+04  1.008492E+06  4.067399E+04 -1.498464E+03
       201   7  6.883763E+05  2.138855E+06  5.951518E+05  1.056666E+06 -8.142886E+04 -4.744334E+04
       201   8  1.893589E+05  2.460019E+05  1.455770E+05  2.644924E+05 -2.191271E+04 -3.937955E+04
       201   9 -2.601621E+05 -1.732337E+06 -3.186141E+05  9.871844E+05  3.981869E+04 -3.150511E+04
       201  10 -6.165700E+05 -3.107046E+06 -6.675034E+05  9.611715E+05  1.075205E-08 -1.616224E-08
       201  11 -1.531619E+05 -1.130453E+06 -1.858652E+05  2.379642E+05  2.233420E-08 -1.273755E-07
       201  12  3.593244E+05  7.602093E+05  2.796192E+05  1.029830E+06  7.593606E-09 -2.289582E-08
       201  13  3.614853E+04 -4.872496E+05 -3.593880E+04  1.008840E+06 -1.136761E-08 -5.538860E-08
       201  14  1.811517E+04 -4.424435E+05 -2.012911E+04  2.512221E+05  1.198908E-08 -2.507689E-09
       201  15  4.963636E+04 -4.867766E+05 -1.944473E+04  1.008492E+06 -5.239441E-09 -5.955270E-08
       201  16  6.883686E+05  2.138851E+06  5.951351E+05  1.056663E+06 -1.178771E-08  1.504416E-08
       201  17  1.893580E+05  2.460001E+05  1.455732E+05  2.644917E+05  2.105293E-08  1.135564E-07
       201  18 -2.601640E+05 -1.732338E+06 -3.186189E+05  9.871855E+05 -3.333407E-09  1.273094E-07
       201  19 -6.165631E+05 -3.107044E+06 -6.674912E+05  9.611709E+05  7.992032E+04 -8.438278E+03
       201  20 -1.531614E+05 -1.130453E+06 -1.858638E+05  2.379639E+05  2.031488E+04 -1.856605E+04
       201  21  3.593265E+05  7.602106E+05  2.796240E+05  1.029831E+06 -4.153045E+04 -2.856830E+04
       201  22  3.615561E+04 -4.872475E+05 -3.592587E+04  1.008841E+06  8.067327E+04  1.944374E+04
       201  23  1.811568E+04 -4.424433E+05 -2.012807E+04  2.512223E+05  2.111340E+04  1.039073E+04
       201  24  4.963814E+04 -4.867761E+05 -1.944162E+04  1.008492E+06 -4.067399E+04  1.498464E+03
       201  25  6.883763E+05  2.138855E+06  5.951518E+05  1.056666E+06  8.142886E+04  4.744334E+04
       201  26  1.893589E+05  2.460019E+05  1.455770E+05  2.644924E+05  2.191271E+04  3.937955E+04
       201  27 -2.601621E+05 -1.732337E+06 -3.186141E+05  9.871844E+05 -3.981869E+04  3.150511E+04
       202   1  1.052044E+06  3.532258E+06  9.485876E+05  1.096192E+06  1.174381E+05  7.872066E+04
       202   2  1.481840E+06  5.480375E+06  1.395507E+06  3.522625E+05  1.866862E+05  5.469016E+02
       202   3  1.959422E+06  7.413458E+06  1.895220E+06  1.115652E+06  6.801409E+04 -7.354190E+04
       202   4  5.515699E+04 -4.787212E+05 -1.687430E+04  1.006711E+06  1.152758E+05 -1.063790E+03
       202   5  9.374062E+03 -4.634868E+05 -2.813394E+04  2.532161E+05  1.870590E+05  1.148567E+04
       202   6 -4.335845E+03 -4.827003E+05 -4.925170E+04  1.007937E+06  7.012795E+04  2.837470E+04
       202   7 -9.428854E+05 -4.475008E+06 -9.834601E+05  9.176967E+05  1.131292E+05 -8.033665E+04
       202   8 -1.465636E+06 -6.375145E+06 -1.454275E+06  1.549233E+05  1.874305E+05  2.232018E+04
       202   9 -1.972704E+06 -8.322531E+06 -1.998290E+06  9.012568E+05  7.222112E+04  1.290061E+05
       202  10  1.052028E+06  3.532248E+06  9.485502E+05  1.096185E+06  8.992326E-09 -1.807676E-08
       202  11  1.481803E+06  5.480365E+06  1.395441E+06  3.522625E+05  4.941097E-09 -9.707855E-08
       202  12  1.959416E+06  7.413451E+06  1.895201E+06  1.115656E+06 -6.626822E-10  3.254367E-09
       202  13  5.514272E+04 -4.787247E+05 -1.689927E+04  1.006712E+06 -9.903172E-09 -5.039394E-08
       202  14  9.336461E+03 -4.634963E+05 -2.819993E+04  2.532144E+05  1.316041E-08  1.123426E-09
       202  15 -4.341336E+03 -4.827025E+05 -4.926243E+04  1.007936E+06  7.379992E-09 -3.854508E-08
       202  16 -9.429009E+05 -4.475018E+06 -9.834964E+05  9.177041E+05 -1.327872E-08  2.031621E-08
       202  17 -1.465674E+06 -6.375155E+06 -1.454342E+06  1.549199E+05 -3.527165E-09  8.337379E-08
       202  18 -1.972714E+06 -8.322550E+06 -1.998332E+06  9.012493E+05  4.170787E-09  6.898651E-08
       202  19  1.052044E+06  3.532258E+06  9.485876E+05  1.096192E+06 -1.174381E+05 -7.872066E+04
       202  20  1.481840E+06  5.480375E+06  1.395507E+06  3.522625E+05 -1.866862E+05 -5.469016E+02
       202  21  1.959422E+06  7.413458E+06  1.895220E+06  1.115652E+06 -6.801409E+04  7.354190E+04
       202  22  5.515699E+04 -4.787212E+05 -1.687430E+04  1.006711E+06 -1.152758E+05  1.063790E+03
       202  23  9.374062E+03 -4.634868E+05 -2.813394E+04  2.532161E+05 -1.870590E+05 -1.148567E+04
       202  24 -4.335845E+03 -4.827003E+05 -4.925170E+04  1.007937E+06 -7.012795E+04 -2.837470E+04
       202  25 -9.428854E+05 -4.475008E+06 -9.834601E+05  9.176967E+05 -1.131292E+05  8.033665E+04
       202  26 -1.465636E+06 -6.375145E+06 -1.454275E+06  1.549233E+05 -1.874305E+05 -2.232018E+04
       202  27 -1.972704E+06 -8.322531E+06 -1.998290E+06  9.012568E+05 -7.222112E+04 -1.290061E+05
       203   1 -1.016335E+06 -4.347786E+06 -1.039188E+06  3.760082E+05 -3.721690E+04 -1.008209E+05
       203   2 -7.539476E+05 -3.515385E+06 -7.751872E+05  5.453917E+04 -9.757413E+04 -3.724466E+04
       203   3 -5.422995E+05 -2.726549E+06 -5.693454E+05  3.674671E+05 -6.625757E+04  2.438635E+04
       203   4 -4.318062E+04 -4.601744E+05 -7.533297E+04  4.187427E+05 -3.613521E+04 -4.967312E+04
       203   5  1.142412E+04 -4.415356E+05 -3.489895E+04  1.009396E+05 -9.737303E+04 -2.973402E+04
       203   6  2.317658E+04 -4.592714E+05 -2.199841E+04  4.173472E+05 -6.713568E+04 -1.181938E+04
       203   7  9.288428E+05  3.441239E+06  8.874045E+05  4.616705E+05 -3.504994E+04  1.797299E+03
       203   8  7.761091E+05  2.640997E+06  7.047151E+05  1.475224E+05 -9.717133E+04 -2.218584E+04
       203   9  5.882816E+05  1.812727E+06  5.249852E+05  4.673804E+05 -6.801798E+04 -4.815730E+04
       203  10 -1.016339E+06 -4.347798E+06 -1.039210E+06  3.760052E+05 -2.083609E-11 -2.205289E-08
       203  11 -7.539582E+05 -3.515389E+06 -7.752077E+05  5.453624E+04  7.437427E-09 -2.859675E-08
       203  12 -5.423044E+05 -2.726551E+06 -5.693547E+05  3.674684E+05  5.592308E-09  2.444611E-08
       203  13 -4.318269E+04 -4.601774E+05 -7.534006E+04  4.187413E+05 -1.237975E-08 -2.082865E-10
       203  14  1.141370E+04 -4.415391E+05 -3.491842E+04  1.009373E+05  1.349625E-08  4.727855E-08
       203  15  2.317170E+04 -4.592728E+05 -2.200714E+04  4.173466E+05  5.218572E-09  5.149623E-09
       203  16  9.288414E+05  3.441239E+06  8.874022E+05  4.616706E+05 -4.489932E-09 -2.139792E-08
       203  17  7.760988E+05  2.640994E+06  7.046965E+05  1.475207E+05 -1.158528E-08  9.948931E-08
       203  18  5.882760E+05  1.812723E+06  5.249722E+05  4.673778E+05  1.790160E-08 -4.236820E-08
       203  19 -1.016335E+06 -4.347786E+06 -1.039188E+06  3.760082E+05  3.721690E+04  1.008209E+05
       203  20 -7.539476E+05 -3.515385E+06 -7.751872E+05  5.453917E+04  9.757413E+04  3.724466E+04
       203  21 -5.422995E+05 -2.726549E+06 -5.693454E+05  3.674671E+05  6.625757E+04 -2.438635E+04
       203  22 -4.318062E+04 -4.601744E+05 -7.533297E+04  4.187427E+05  3.613521E+04  4.967312E+04
       203  23  1.142412E+04 -4.415356E+05 -3.489895E+04  1.009396E+05  9.737303E+04  2.973402E+04
       203  24  2.317658E+04 -4.592714E+05 -2.199841E+04  4.173472E+05  6.713568E+04  1.181938E+04
       203  25  9.288428E+05  3.441239E+06  8.874045E+05  4.616705E+05  3.504994E+04 -1.797299E+03
       203  26  7.761091E+05  2.640997E+06  7.047151E+05  1.475224E+05  9.717133E+04  2.218584E+04
       203  27  5.882816E+05  1.812727E+06  5.249852E+05  4.673804E+05  6.801798E+04  4.815730E+04
       204   1 -2.621836E+05 -1.567571E+06 -2.868780E+05  4.003704E+05 -3.383308E+04  2.543941E+03
       204   2 -6.639876E+04 -7.356409E+05 -8.441753E+04  9.439570E+04 -8.713489E+03  9.227618E+03
       204   3  1.460767E+05  6.064877E+04  1.094278E+05  4.261446E+05  1.737035E+04  1.587843E+04
       204   4  1.387110E+04 -4.581272E+05 -1.968411E+04  4.186470E+05 -3.412617E+04 -9.184733E+03
       204   5  7.162252E+03 -4.400028E+05 -1.322130E+04  9.976003E+04 -9.021103E+03 -2.961648E+03
       204   6  1.727563E+04 -4.580414E+05 -1.500311E+04  4.185648E+05  1.704597E+04  3.219210E+03
       204   7  2.898365E+05  6.524461E+05  2.474224E+05  4.369490E+05 -3.441968E+04 -2.093433E+04
       204   8  8.071702E+04 -1.442842E+05  5.796926E+04  1.051264E+05 -9.328854E+03 -1.515671E+04
       204   9 -1.115448E+05 -9.764847E+05 -1.394525E+05  4.109897E+05  1.672176E+04 -9.429475E+03
       204  10 -2.621848E+05 -1.567572E+06 -2.868801E+05  4.003704E+05  2.945343E-09 -3.304469E-08
       204  11 -6.639887E+04 -7.356410E+05 -8.441784E+04  9.439577E+04  6.095303E-09 -3.105609E-08
       204  12  1.460763E+05  6.064841E+04  1.094268E+05  4.261444E+05  1.346258E-08  3.690208E-08
       204  13  1.386983E+04 -4.581276E+05 -1.968645E+04  4.186467E+05  2.638044E-09 -8.062663E-10
       204  14  7.162163E+03 -4.400028E+05 -1.322147E+04  9.976001E+04  1.530218E-08  5.319251E-08
       204  15  1.727532E+04 -4.580415E+05 -1.500367E+04  4.185647E+05  1.366885E-08  6.052825E-09
       204  16  2.898351E+05  6.524453E+05  2.474194E+05  4.369484E+05  1.029061E-08 -2.080886E-08
       204  17  8.071686E+04 -1.442845E+05  5.796866E+04  1.051263E+05 -1.195969E-08  1.117365E-07
       204  18 -1.115451E+05 -9.764849E+05 -1.394532E+05  4.109898E+05  5.075232E-09 -5.456094E-08
       204  19 -2.621836E+05 -1.567571E+06 -2.868780E+05  4.003704E+05  3.383308E+04 -2.543941E+03
       204  20 -6.639876E+04 -7.356409E+05 -8.441753E+04  9.439570E+04  8.713489E+03 -9.227618E+03
       204  21  1.460767E+05  6.064877E+04  1.094278E+05  4.261446E+05 -1.737035E+04 -1.587843E+04
       204  22  1.387110E+04 -4.581272E+05 -1.968411E+04  4.186470E+05  3.412617E+04  9.184733E+03
       204  23  7.162252E+03 -4.400028E+05 -1.322130E+04  9.976003E+04  9.021103E+03  2.961648E+03
       204  24  1.727563E+04 -4.580414E+05 -1.500311E+04  4.185648E+05 -1.704597E+04 -3.219210E+03
       204  25  2.898365E+05  6.524461E+05  2.474224E+05  4.369490E+05  3.441968E+04  2.093433E+04
       204  26  8.071702E+04 -1.442842E+05  5.796926E+04  1.051264E+05  9.328854E+03  1.515671E+04
       204  27 -1.115448E+05 -9.764847E+05 -1.394525E+05  4.109897E+05 -1.672176E+04  9.429475E+03
       205   1  4.404682E+05  1.222027E+06  3.893391E+05  4.546058E+05  4.930216E+04  3.846011E+04
       205   2  6.275467E+05  2.050151E+06  5.755376E+05  1.410900E+05  7.868066E+04  1.164410E+04
       205   3  8.064863E+05  2.851405E+06  7.708029E+05  4.623888E+05  2.890892E+04 -1.335941E+04
       205   4  2.230340E+04 -4.583066E+05 -1.569254E+04  4.176677E+05  4.846312E+04  4.965929E+03
       205   5  9.060422E+03 -4.416002E+05 -2.249275E+04  1.006368E+05  7.880841E+04  1.620051E+04
       205   6 -1.896764E+04 -4.590319E+05 -4.663243E+04  4.185790E+05  2.986315E+04  2.928417E+04
       205   7 -3.960645E+05 -2.136056E+06 -4.209219E+05  3.808128E+05  4.762689E+04 -2.843803E+04
       205   8 -6.098745E+05 -2.927674E+06 -6.209639E+05  6.031272E+04  7.893584E+04  2.073862E+04
       205   9 -8.452353E+05 -3.759527E+06 -8.648737E+05  3.749444E+05  3.081399E+04  7.170098E+04
       205  10  4.404652E+05  1.222025E+06  3.893318E+05  4.546043E+05 -3.367980E-09 -4.126106E-08
       205  11  6.275400E+05  2.050149E+06  5.755258E+05  1.410893E+05 -2.112417E-08 -4.069959E-08
       205  12  8.064853E+05  2.851404E+06  7.708010E+05  4.623892E+05  1.955769E-09  1.977071E-08
       205  13  2.230088E+04 -4.583072E+05 -1.569700E+04  4.176675E+05 -3.730395E-09 -4.243749E-10
       205  14  9.053684E+03 -4.416021E+05 -2.250491E+04  1.006358E+05 -7.009068E-09  4.968417E-08
       205  15 -1.896882E+04 -4.590330E+05 -4.663571E+04  4.185783E+05 -1.135529E-08  5.536138E-09
       205  16 -3.960672E+05 -2.136057E+06 -4.209276E+05  3.808139E+05 -2.540446E-09 -1.245666E-08
       205  17 -6.098813E+05 -2.927676E+06 -6.209764E+05  6.031140E+04 -3.315994E-08  1.157913E-07
       205  18 -8.452377E+05 -3.759532E+06 -8.648852E+05  3.749426E+05 -8.845434E-09 -3.415187E-08
       205  19  4.404682E+05  1.222027E+06  3.893391E+05  4.546058E+05 -4.930216E+04 -3.846011E+04
       205  20  6.275467E+05  2.050151E+06  5.755376E+05  1.410900E+05 -7.868066E+04 -1.164410E+04
       205  21  8.064863E+05  2.851405E+06  7.708029E+05  4.623888E+05 -2.890892E+04  1.335941E+04
       205  22  2.230340E+04 -4.583066E+05 -1.569254E+04  4.176677E+05 -4.846312E+04 -4.965929E+03
       205  23  9.060422E+03 -4.416002E+05 -2.249275E+04  1.006368E+05 -7.880841E+04 -1.620051E+04
       205  24 -1.896764E+04 -4.590319E+05 -4.663243E+04  4.185790E+05 -2.986315E+04 -2.928417E+04
       205  25 -3.960645E+05 -2.136056E+06 -4.209219E+05  3.808128E+05 -4.762689E+04  2.843803E+04
       205  26 -6.098745E+05 -2.927674E+06 -6.209639E+05  6.031272E+04 -7.893584E+04 -2.073862E+04
       205  27 -8.452353E+05 -3.759527E+06 -8.648737E+05  3.749444E+05 -3.081399E+04 -7.170098E+04
       206   1  1.589486E+07  3.767815E+06  3.766860E+06  1.022499E+06  1.264743E+05 -1.483756E+05
       206   2  1.331528E+07  3.268734E+06  3.123613E+06  2.100147E+05 -1.445633E+04 -4.165231E+05
       206   3  1.102097E+07  2.705315E+06  2.607030E+06  1.271975E+06 -1.499789E+05 -3.285812E+05
       206   4  8.687291E+03 -1.636790E+05 -1.231299E+05  1.269519E+06 -9.134098E+04 -1.446209E+05
       206   5 -1.094583E+05 -3.678469E+04 -7.636756E+04  3.315945E+05 -5.825132E+04 -4.166450E+05
       206   6  1.977591E+04 -6.252432E+03 -2.242855E+04  1.271114E+06 -2.024320E+04 -3.291453E+05
       206   7 -1.565126E+07 -4.113625E+06 -4.031422E+06  1.511135E+06 -3.036743E+05 -1.409946E+05
       206   8 -1.337117E+07 -3.355233E+06 -3.289001E+06  4.509642E+05 -1.011090E+05 -4.167884E+05
       206   9 -1.087173E+07 -2.726540E+06 -2.660361E+06  1.270203E+06  1.072358E+05 -3.297148E+05
       206  10  1.589484E+07  3.767787E+06  3.766789E+06  1.022514E+06  6.017480E-09  2.109733E-09
       206  11  1.331523E+07  3.268548E+06  3.123286E+06  2.100099E+05  1.940503E-09  4.962716E-09
       206  12  1.102091E+07  2.705193E+06  2.606786E+06  1.271936E+06 -3.508386E-09 -1.090659E-09
       206  13  8.672757E+03 -1.637037E+05 -1.231848E+05  1.269508E+06 -6.983670E-09  1.343887E-09
       206  14 -1.095086E+05 -3.697200E+04 -7.670010E+04  3.315750E+05  4.472751E-09  2.788386E-09
       206  15  1.974640E+04 -6.368860E+03 -2.263284E+04  1.271109E+06 -9.423276E-09 -1.574862E-09
       206  16 -1.565137E+07 -4.113672E+06 -4.031637E+06  1.511100E+06 -9.016588E-09  4.973707E-10
       206  17 -1.337122E+07 -3.355423E+06 -3.289347E+06  4.509299E+05  7.573673E-10  1.164190E-09
       206  18 -1.087177E+07 -2.726660E+06 -2.660588E+06  1.270232E+06  3.169471E-09 -3.715963E-10
       206  19  1.589486E+07  3.767815E+06  3.766860E+06  1.022499E+06 -1.264743E+05  1.483756E+05
       206  20  1.331528E+07  3.268734E+06  3.123613E+06  2.100147E+05  1.445633E+04  4.165231E+05
       206  21  1.102097E+07  2.705315E+06  2.607030E+06  1.271975E+06  1.499789E+05  3.285812E+05
       206  22  8.687291E+03 -1.636790E+05 -1.231299E+05  1.269519E+06  9.134098E+04  1.446209E+05
       206  23 -1.094583E+05 -3.678469E+04 -7.636756E+04  3.315945E+05  5.825132E+04  4.166450E+05
       206  24  1.977591E+04 -6.252432E+03 -2.242855E+04  1.271114E+06  2.024320E+04  3.291453E+05
       206  25 -1.565126E+07 -4.113625E+06 -4.031422E+06  1.511135E+06  3.036743E+05  1.409946E+05
       206  26 -1.337117E+07 -3.355233E+06 -3.289001E+06  4.509642E+05  1.011090E+05  4.167884E+05
       206  27 -1.087173E+07 -2.726540E+06 -2.660361E+06  1.270203E+06 -1.072358E+05  3.297148E+05
       207   1  7.516421E+06  1.828676E+06  1.776500E+06  1.274592E+06 -4.407154E+04 -2.214060E+05
       207   2  5.084011E+06  1.263336E+06  1.210217E+06  3.405557E+05 -4.950954E+04 -1.544108E+05
       207   3  2.672138E+06  6.849594E+05  6.469932E+05  1.295872E+06 -5.596484E+04 -6.114339E+04
       207   4 -1.438420E+04 -3.171968E+04 -2.858775E+04  1.273590E+06 -1.786611E+04 -2.215310E+05
       207   5 -1.864710E+04  1.157034E+03 -1.339149E+04  3.283280E+05 -1.071170E+04 -1.543234E+05
       207   6 -1.015790E+04  1.898224E+04 -3.589907E+03  1.273444E+06 -4.598709E+03 -6.072987E+04
       207   7 -7.493652E+06 -1.896222E+06 -1.837690E+06  1.272527E+06  8.026603E+03 -2.216571E+05
       207   8 -5.097582E+06 -1.262909E+06 -1.238840E+06  3.161687E+05  2.777078E+04 -1.542374E+05
       207   9 -2.685896E+06 -6.475203E+05 -6.546822E+05  1.251092E+06  4.654690E+04 -6.031900E+04
       207  10  7.516406E+06  1.828623E+06  1.776404E+06  1.274584E+06 -1.582913E-09 -3.299440E-09
       207  11  5.084002E+06  1.263310E+06  1.210168E+06  3.405496E+05  9.551111E-10 -4.812319E-10
       207  12  2.672134E+06  6.849545E+05  6.469803E+05  1.295869E+06  1.190445E-09  1.589847E-09
       207  13 -1.439771E+04 -3.177245E+04 -2.868054E+04  1.273587E+06 -4.638633E-09 -1.098539E-09
       207  14 -1.865361E+04  1.131430E+03 -1.343645E+04  3.283266E+05 -1.398383E-09 -7.545391E-10
       207  15 -1.015891E+04  1.897828E+04 -3.596874E+03  1.273443E+06  3.344086E-10  2.193572E-09
       207  16 -7.493666E+06 -1.896275E+06 -1.837783E+06  1.272528E+06 -4.390928E-10 -7.030942E-10
       207  17 -5.097590E+06 -1.262935E+06 -1.238887E+06  3.161722E+05 -7.822920E-09  5.094699E-10
       207  18 -2.685900E+06 -6.475248E+05 -6.546931E+05  1.251095E+06 -5.360909E-09  1.449956E-09
       207  19  7.516421E+06  1.828676E+06  1.776500E+06  1.274592E+06  4.407154E+04  2.214060E+05
       207  20  5.084011E+06  1.263336E+06  1.210217E+06  3.405557E+05  4.950954E+04  1.544108E+05
       207  21  2.672138E+06  6.849594E+05  6.469932E+05  1.295872E+06  5.596484E+04  6.114339E+04
       207  22 -1.438420E+04 -3.171968E+04 -2.858775E+04  1.273590E+06  1.786611E+04  2.215310E+05
       207  23 -1.864710E+04  1.157034E+03 -1.339149E+04  3.283280E+05  1.071170E+04  1.543234E+05
       207  24 -1.015790E+04  1.898224E+04 -3.589907E+03  1.273444E+06  4.598709E+03  6.072987E+04
       207  25 -7.493652E+06 -1.896222E+06 -1.837690E+06  1.272527E+06 -8.026603E+03  2.216571E+05
       207  26 -5.097582E+06 -1.262909E+06 -1.238840E+06  3.161687E+05 -2.777078E+04  1.542374E+05
       207  27 -2.685896E+06 -6.475203E+05 -6.546822E+05  1.251092E+06 -4.654690E+04  6.031900E+04
       208   1 -7.726585E+05 -1.744699E+05 -1.922415E+05  1.263942E+06 -5.564403E+04  2.511262E+03
       208   2 -3.176675E+06 -7.829938E+05 -7.642277E+05  3.164097E+05 -4.445522E+04  9.616706E+04
       208   3 -5.587053E+06 -1.394057E+06 -1.347597E+06  1.259933E+06 -3.260580E+04  1.667303E+05
       208   4 -1.328243E+04  1.542192E+04 -3.226457E+03  1.273491E+06 -5.323063E+03  2.949730E+03
       208   5 -9.731412E+03  4.311314E+03 -1.089878E+03  3.283036E+05 -5.258518E+03  9.636852E+04
       208   6 -1.591556E+04 -6.925099E+03 -2.227483E+03  1.273578E+06 -4.488819E+03  1.667646E+05
       208   7  7.466227E+05  2.052719E+05  1.857549E+05  1.283051E+06  4.505949E+04  3.389432E+03
       208   8  3.166422E+06  7.908849E+05  7.613376E+05  3.402426E+05  3.413822E+04  9.657097E+04
       208   9  5.583772E+06  1.377934E+06  1.340921E+06  1.287285E+06  2.388145E+04  1.668000E+05
       208  10 -7.726618E+05 -1.744707E+05 -1.922474E+05  1.263942E+06  4.136456E-09  5.017900E-11
       208  11 -3.176679E+06 -7.830043E+05 -7.642488E+05  3.164132E+05 -8.125704E-09 -4.828631E-10
       208  12 -5.587062E+06 -1.394087E+06 -1.347651E+06  1.259937E+06 -1.429647E-09  3.061196E-10
       208  13 -1.328246E+04  1.542190E+04 -3.226527E+03  1.273491E+06 -9.986640E-10 -1.684988E-11
       208  14 -9.733935E+03  4.301334E+03 -1.107383E+03  3.283040E+05 -8.423982E-11 -9.145947E-10
       208  15 -1.592305E+04 -6.954971E+03 -2.279790E+03  1.273578E+06 -1.421586E-09 -4.807970E-10
       208  16  7.466205E+05  2.052714E+05  1.857511E+05  1.283051E+06 -3.568554E-10  2.897978E-10
       208  17  3.166418E+06  7.908746E+05  7.613179E+05  3.402400E+05 -8.316481E-09 -1.058990E-09
       208  18  5.583763E+06  1.377904E+06  1.340868E+06  1.287282E+06 -3.412817E-09 -1.251372E-09
       208  19 -7.726585E+05 -1.744699E+05 -1.922415E+05  1.263942E+06  5.564403E+04 -2.511262E+03
       208  20 -3.176675E+06 -7.829938E+05 -7.642277E+05  3.164097E+05  4.445522E+04 -9.616706E+04
       208  21 -5.587053E+06 -1.394057E+06 -1.347597E+06  1.259933E+06  3.260580E+04 -1.667303E+05
       208  22 -1.328243E+04  1.542192E+04 -3.226457E+03  1.273491E+06  5.323063E+03 -2.949730E+03
       208  23 -9.731412E+03  4.311314E+03 -1.089878E+03  3.283036E+05  5.258518E+03 -9.636852E+04
       208  24 -1.591556E+04 -6.925099E+03 -2.227483E+03  1.273578E+06  4.488819E+03 -1.667646E+05
       208  25  7.466227E+05  2.052719E+05  1.857549E+05  1.283051E+06 -4.505949E+04 -3.389432E+03
       208  26  3.166422E+06  7.908849E+05  7.613376E+05  3.402426E+05 -3.413822E+04 -9.657097E+04
       208  27  5.583772E+06  1.377934E+06  1.340921E+06  1.287285E+06 -2.388145E+04 -1.668000E+05
       209   1 -8.971864E+06 -2.242169E+06 -2.167268E+06  1.257451E+06 -1.253300E+05  2.688328E+05
       209   2 -1.145553E+07 -2.876360E+06 -2.766647E+06  3.862129E+05  3.324030E+04  3.579825E+05
       209   3 -1.376127E+07 -3.513653E+06 -3.431910E+06  1.398413E+06  1.886061E+05  1.249805E+05
       209   4  1.667858E+04  4.348746E+02  8.004598E+03  1.271562E+06 -6.886168E+03  2.688165E+05
       209   5 -8.857650E+04 -3.650806E+04 -1.671790E+04  3.308040E+05 -4.861029E+02  3.577450E+05
       209   6  7.196110E+03 -4.843126E+04 -1.401039E+02  1.271655E+06  3.342724E+03  1.270909E+05
       209   7  9.079794E+06  2.237110E+06  2.177524E+06  1.285769E+06  1.132862E+05  2.688054E+05
       209   8  1.139793E+07  2.793849E+06  2.723935E+06  2.745094E+05 -3.483612E+04  3.575178E+05
       209   9  1.395023E+07  3.402498E+06  3.417508E+06  1.142406E+06 -1.860978E+05  1.292588E+05
       209  10 -8.971900E+06 -2.242251E+06 -2.167434E+06  1.257478E+06 -1.673007E-09  1.866566E-09
       209  11 -1.145557E+07 -2.876498E+06 -2.766890E+06  3.862033E+05  1.821312E-09  1.728193E-09
       209  12 -1.376132E+07 -3.513680E+06 -3.432007E+06  1.398394E+06  5.032714E-09  3.187371E-10
       209  13  1.665912E+04  3.572585E+02  7.868694E+03  1.271563E+06 -2.881742E-10  1.049827E-09
       209  14 -8.861086E+04 -3.664549E+04 -1.695841E+04  3.308041E+05  4.181162E-09  4.036559E-09
       209  15  7.191762E+03 -4.844861E+04 -1.704763E+02  1.271654E+06 -3.924467E-09  3.129331E-09
       209  16  9.079761E+06  2.237029E+06  2.177365E+06  1.285745E+06  5.117524E-09  3.670411E-10
       209  17  1.139790E+07  2.793712E+06  2.723692E+06  2.745194E+05 -4.782345E-09  1.695299E-09
       209  18  1.395019E+07  3.402471E+06  3.417412E+06  1.142426E+06 -1.387992E-09  9.961153E-10
       209  19 -8.971864E+06 -2.242169E+06 -2.167268E+06  1.257451E+06  1.253300E+05 -2.688328E+05
       209  20 -1.145553E+07 -2.876360E+06 -2.766647E+06  3.862129E+05 -3.324030E+04 -3.579825E+05
       209  21 -1.376127E+07 -3.513653E+06 -3.431910E+06  1.398413E+06 -1.886061E+05 -1.249805E+05
       209  22  1.667858E+04  4.348746E+02  8.004598E+03  1.271562E+06  6.886168E+03 -2.688165E+05
       209  23 -8.857650E+04 -3.650806E+04 -1.671790E+04  3.308040E+05  4.861029E+02 -3.577450E+05
       209  24  7.196110E+03 -4.843126E+04 -1.401039E+02  1.271655E+06 -3.342724E+03 -1.270909E+05
       209  25  9.079794E+06  2.237110E+06  2.177524E+06  1.285769E+06 -1.132862E+05 -2.688054E+05
       209  26  1.139793E+07  2.793849E+06  2.723935E+06  2.745094E+05  3.483612E+04 -3.575178E+05
       209  27  1.395023E+07  3.402498E+06  3.417508E+06  1.142406E+06  1.860978E+05 -1.292588E+05
       210   1 -1.650327E+06 -6.305098E+06 -1.682359E+06  8.517864E+05 -6.104153E+04 -1.095093E+05
       210   2 -1.194035E+06 -4.448963E+06 -1.173088E+06  1.606697E+05 -1.537864E+05 -2.517288E+04
       210   3 -6.889014E+05 -2.657962E+06 -7.197024E+05  8.978894E+05 -8.347153E+04  5.476090E+04
       210   4  2.176913E+04  3.585438E+05 -2.786451E+04  9.753292E+05 -5.880814E+04 -2.557603E+04
       210   5  1.192306E+04  3.872554E+05 -8.143238E+03  2.609681E+05 -1.535250E+05 -1.879889E+04
       210   6  6.489501E+04  3.616155E+05  1.022803E+04  9.742105E+05 -8.574596E+04 -1.665319E+04
       210   7  1.690556E+06  7.062778E+06  1.623338E+06  1.099915E+06 -5.655375E+04  5.926597E+04
       210   8  1.216190E+06  5.244976E+06  1.155132E+06  3.618979E+05 -1.532626E+05 -1.237455E+04
       210   9  8.180362E+05  3.389564E+06  7.395234E+05  1.050832E+06 -8.803222E+04 -8.841459E+04
       210  10 -1.650335E+06 -6.305112E+06 -1.682389E+06  8.517810E+05 -1.301357E-09  3.539210E-09
       210  11 -1.194061E+06 -4.448970E+06 -1.173133E+06  1.606665E+05  7.969204E-09  5.090065E-10
       210  12 -6.889097E+05 -2.657967E+06 -7.197211E+05  8.978931E+05 -1.009339E-08 -4.712308E-09
       210  13  2.176524E+04  3.585422E+05 -2.787222E+04  9.753280E+05 -9.094711E-09  8.227868E-11
       210  14  1.189765E+04  3.872487E+05 -8.188195E+03  2.609658E+05  2.647314E-08 -2.819635E-10
       210  15  6.488705E+04  3.616133E+05  1.021370E+04  9.742093E+05 -8.808301E-09  3.661380E-10
       210  16  1.690551E+06  7.062774E+06  1.623326E+06  1.099917E+06  5.062105E-09 -3.366596E-09
       210  17  1.216165E+06  5.244969E+06  1.155088E+06  3.618964E+05  4.090836E-09 -5.798071E-10
       210  18  8.180258E+05  3.389554E+06  7.394943E+05  1.050826E+06 -4.596881E-09  6.086786E-09
       210  19 -1.650327E+06 -6.305098E+06 -1.682359E+06  8.517864E+05  6.104153E+04  1.095093E+05
       210  20 -1.194035E+06 -4.448963E+06 -1.173088E+06  1.606697E+05  1.537864E+05  2.517288E+04
       210  21 -6.889014E+05 -2.657962E+06 -7.197024E+05  8.978894E+05  8.347153E+04 -5.476090E+04
       210  22  2.176913E+04  3.585438E+05 -2.786451E+04  9.753292E+05  5.880814E+04  2.557603E+04
       210  23  1.192306E+04  3.872554E+05 -8.143238E+03  2.609681E+05  1.535250E+05  1.879889E+04
       210  24  6.489501E+04  3.616155E+05  1.022803E+04  9.742105E+05  8.574596E+04  1.665319E+04
       210  25  1.690556E+06  7.062778E+06  1.623338E+06  1.099915E+06  5.655375E+04 -5.926597E+04
       210  26  1.216190E+06  5.244976E+06  1.155132E+06  3.618979E+05  1.532626E+05  1.237455E+04
       210  27  8.180362E+05  3.389564E+06  7.395234E+05  1.050832E+06  8.803222E+04  8.841459E+04
       211   1 -4.910155E+04 -6.531683E+04 -8.592721E+04  9.633116E+05 -1.659996E+04  7.834911E+03
       211   2  3.613562E+05  1.797350E+06  3.700151E+05  2.951943E+05  4.189507E+04 -1.319019E+04
       211   3  8.811302E+05  3.586707E+06  8.437979E+05  1.053544E+06  9.585150E+04 -3.393902E+04
       211   4  5.644348E+04  3.591799E+05  1.500812E+04  9.746072E+05 -1.756796E+04 -2.164116E+04
       211   5  1.300124E+04  3.970894E+05  3.335122E+04  2.609663E+05  4.104444E+04 -4.047445E+04
       211   6  7.878384E+04  3.583163E+05  6.829123E+04  9.738867E+05  9.510607E+04 -5.897525E+04
       211   7  1.619762E+05  7.838440E+05  1.159341E+05  9.859090E+05 -1.853669E+04 -5.113730E+04
       211   8 -3.354940E+05 -1.001378E+06 -3.034494E+05  2.268014E+05  4.019583E+04 -6.769741E+04
       211   9 -7.243088E+05 -2.860565E+06 -7.079537E+05  8.945629E+05  9.436507E+04 -8.388169E+04
       211  10 -4.910186E+04 -6.531697E+04 -8.592784E+04  9.633118E+05 -3.621542E-10  1.007920E-08
       211  11  3.613543E+05  1.797350E+06  3.700114E+05  2.951948E+05 -2.101972E-09  2.739473E-09
       211  12  8.811200E+05  3.586703E+06  8.437784E+05  1.053547E+06  1.443222E-08 -4.657134E-09
       211  13  5.644303E+04  3.591793E+05  1.500666E+04  9.746068E+05 -8.108828E-09  3.777834E-10
       211  14  1.299899E+04  3.970871E+05  3.334497E+04  2.609677E+05 -1.498780E-08  1.339505E-11
       211  15  7.877318E+04  3.583101E+05  6.826765E+04  9.738912E+05 -2.243266E-08  1.889847E-10
       211  16  1.619751E+05  7.838411E+05  1.159286E+05  9.859082E+05 -4.116577E-09 -9.881505E-09
       211  17 -3.354970E+05 -1.001384E+06 -3.034610E+05  2.268036E+05  2.196662E-08 -3.482800E-09
       211  18 -7.243203E+05 -2.860575E+06 -7.079838E+05  8.945693E+05  7.065186E-09  4.536833E-09
       211  19 -4.910155E+04 -6.531683E+04 -8.592721E+04  9.633116E+05  1.659996E+04 -7.834911E+03
       211  20  3.613562E+05  1.797350E+06  3.700151E+05  2.951943E+05 -4.189507E+04  1.319019E+04
       211  21  8.811302E+05  3.586707E+06  8.437979E+05  1.053544E+06 -9.585150E+04  3.393902E+04
       211  22  5.644348E+04  3.591799E+05  1.500812E+04  9.746072E+05  1.756796E+04  2.164116E+04
       211  23  1.300124E+04  3.970894E+05  3.335122E+04  2.609663E+05 -4.104444E+04  4.047445E+04
       211  24  7.878384E+04  3.583163E+05  6.829123E+04  9.738867E+05 -9.510607E+04  5.897525E+04
       211  25  1.619762E+05  7.838440E+05  1.159341E+05  9.859090E+05  1.853669E+04  5.113730E+04
       211  26 -3.354940E+05 -1.001378E+06 -3.034494E+05  2.268014E+05 -4.019583E+04  6.769741E+04
       211  27 -7.243088E+05 -2.860565E+06 -7.079537E+05  8.945629E+05 -9.436507E+04  8.388169E+04
       212   1  1.489433E+06  6.235019E+06  1.490898E+06  1.073857E+06  1.730913E+05  9.595473E+03
       212   2  1.861292E+06  8.019643E+06  1.966253E+06  4.182023E+05  2.355718E+05 -1.703889E+05
       212   3  2.649075E+06  9.924143E+06  2.658127E+06  1.189040E+06  7.922335E+04 -3.459082E+05
       212   4  4.255306E+04  3.907036E+05  8.920698E+04  9.762597E+05  1.706915E+05 -7.555958E+04
       212   5 -3.973825E+04  3.386539E+05  1.295199E+05  2.601468E+05  2.362948E+05 -1.485790E+05
       212   6  2.776726E+05  3.859345E+05  3.140101E+05  9.714478E+05  8.190486E+04 -2.165675E+05
       212   7 -1.406784E+06 -5.422519E+06 -1.314877E+06  8.793280E+05  1.683067E+05 -1.599194E+05
       212   8 -1.944986E+06 -7.288713E+06 -1.711374E+06  1.037067E+05  2.370122E+05 -1.270268E+05
       212   9 -2.100361E+06 -9.070278E+06 -2.036738E+06  7.567015E+05  8.451933E+04 -8.916753E+04
       212  10  1.489400E+06  6.235010E+06  1.490841E+06  1.073856E+06  4.227725E-10  2.376766E-09
       212  11  1.861225E+06  8.019597E+06  1.966095E+06  4.182345E+05 -4.823290E-09  2.444986E-10
       212  12  2.649037E+06  9.924015E+06  2.657894E+06  1.189062E+06  3.315377E-09 -2.060629E-09
       212  13  4.252021E+04  3.906896E+05  8.914141E+04  9.762701E+05  1.745502E-08 -1.549812E-10
       212  14 -3.980416E+04  3.386152E+05  1.293734E+05  2.601751E+05 -7.238768E-09 -1.975727E-10
       212  15  2.776528E+05  3.858823E+05  3.139093E+05  9.714621E+05  6.217113E-09 -2.917139E-12
       212  16 -1.406821E+06 -5.422555E+06 -1.314979E+06  8.793498E+05 -8.311621E-09 -2.528022E-09
       212  17 -1.945051E+06 -7.288746E+06 -1.711510E+06  1.037311E+05  4.380822E-09 -7.427311E-12
       212  18 -2.100371E+06 -9.070289E+06 -2.036767E+06  7.567076E+05  9.813827E-09  2.087439E-09
       212  19  1.489433E+06  6.235019E+06  1.490898E+06  1.073857E+06 -1.730913E+05 -9.595473E+03
       212  20  1.861292E+06  8.019643E+06  1.966253E+06  4.182023E+05 -2.355718E+05  1.703889E+05
       212  21  2.649075E+06  9.924143E+06  2.658127E+06  1.189040E+06 -7.922335E+04  3.459082E+05
       212  22  4.255306E+04  3.907036E+05  8.920698E+04  9.762597E+05 -1.706915E+05  7.555958E+04
       212  23 -3.973825E+04  3.386539E+05  1.295199E+05  2.601468E+05 -2.362948E+05  1.485790E+05
       212  24  2.776726E+05  3.859345E+05  3.140101E+05  9.714478E+05 -8.190486E+04  2.165675E+05
       212  25 -1.406784E+06 -5.422519E+06 -1.314877E+06  8.793280E+05 -1.683067E+05  1.599194E+05
       212  26 -1.944986E+06 -7.288713E+06 -1.711374E+06  1.037067E+05 -2.370122E+05  1.270268E+05
       212  27 -2.100361E+06 -9.070278E+06 -2.036738E+06  7.567015E+05 -8.451933E+04  8.916753E+04
       213   1  1.400807E+07  3.418024E+06  3.431363E+06  1.059524E+06  1.898655E+05 -1.304203E+05
       213   2  1.161095E+07  2.840714E+06  2.772447E+06  2.532194E+05  3.821011E+04 -3.633219E+05
       213   3  9.452157E+06  2.323244E+06  2.263617E+06  1.204003E+06 -1.102657E+05 -2.807786E+05
       213   4  2.556103E+04 -4.246695E+04  4.431144E+03  1.189180E+06 -1.528836E+03 -1.282059E+05
       213   5 -7.291465E+04 -3.788900E+04 -1.500706E+04  3.093885E+05  1.207607E+03 -3.635493E+05
       213   6  3.457760E+04 -2.779574E+02  1.024939E+04  1.189009E+06  6.593292E+03 -2.808049E+05
       213   7 -1.378140E+07 -3.517329E+06 -3.436698E+06  1.316348E+06 -1.886917E+05 -1.260494E+05
       213   8 -1.163311E+07 -2.926314E+06 -2.812058E+06  3.646626E+05 -3.511183E+04 -3.637877E+05
       213   9 -9.302509E+06 -2.330199E+06 -2.249333E+06  1.174126E+06  1.217065E+05 -2.808366E+05
       213  10  1.400803E+07  3.417996E+06  3.431264E+06  1.059544E+06 -1.323981E-09  1.268986E-09
       213  11  1.161092E+07  2.840572E+06  2.772197E+06  2.532305E+05  1.825003E-09  1.630575E-09
       213  12  9.452123E+06  2.323156E+06  2.263447E+06  1.203978E+06 -3.161086E-09  8.712846E-10
       213  13  2.555661E+04 -4.248460E+04  4.400251E+03  1.189180E+06 -8.000680E-09  4.342614E-09
       213  14 -7.295013E+04 -3.803093E+04 -1.525544E+04  3.093889E+05  1.055058E-08  2.049930E-09
       213  15  3.455637E+04 -3.626481E+02  1.010112E+04  1.189011E+06 -1.151628E-09 -1.788454E-09
       213  16 -1.378145E+07 -3.517356E+06 -3.436796E+06  1.316328E+06  6.160262E-09 -3.490155E-10
       213  17 -1.163315E+07 -2.926457E+06 -2.812309E+06  3.646523E+05  9.846432E-10 -2.430064E-10
       213  18 -9.302547E+06 -2.330288E+06 -2.249510E+06  1.174154E+06 -1.883820E-09 -2.430828E-09
       213  19  1.400807E+07  3.418024E+06  3.431363E+06  1.059524E+06 -1.898655E+05  1.304203E+05
       213  20  1.161095E+07  2.840714E+06  2.772447E+06  2.532194E+05 -3.821011E+04  3.633219E+05
       213  21  9.452157E+06  2.323244E+06  2.263617E+06  1.204003E+06  1.102657E+05  2.807786E+05
       213  22  2.556103E+04 -4.246695E+04  4.431144E+03  1.189180E+06  1.528836E+03  1.282059E+05
       213  23 -7.291465E+04 -3.788900E+04 -1.500706E+04  3.093885E+05 -1.207607E+03  3.635493E+05
       213  24  3.457760E+04 -2.779574E+02  1.024939E+04  1.189009E+06 -6.593292E+03  2.808049E+05
       213  25 -1.378140E+07 -3.517329E+06 -3.436698E+06  1.316348E+06  1.886917E+05  1.260494E+05
       213  26 -1.163311E+07 -2.926314E+06 -2.812058E+06  3.646626E+05  3.511183E+04  3.637877E+05
       213  27 -9.302509E+06 -2.330199E+06 -2.249333E+06  1.174126E+06 -1.217065E+05  2.808366E+05
       214   1  6.179740E+06  1.519899E+06  1.481917E+06  1.208507E+06 -2.160915E+04 -1.826528E+05
       214   2  3.915660E+06  9.707689E+05  9.398780E+05  3.242310E+05 -3.343622E+04 -1.185855E+05
       214   3  1.654484E+06  4.302348E+05  4.056592E+05  1.206652E+06 -4.603596E+04 -3.144750E+04
       214   4  2.118327E+03 -7.433782E+03  2.866497E+02  1.190862E+06  3.786686E+03 -1.826445E+05
       214   5  5.547293E+03  2.826625E+03  1.621232E+03  3.070919E+05  3.071064E+03 -1.183877E+05
       214   6  5.148467E+03  2.002162E+04  3.383533E+03  1.190724E+06  1.538595E+03 -3.097997E+04
       214   7 -6.140779E+06 -1.537532E+06 -1.484047E+06  1.173319E+06  2.893257E+04 -1.826378E+05
       214   8 -3.890620E+06 -9.662241E+05 -9.377153E+05  2.900341E+05  3.935038E+04 -1.181914E+05
       214   9 -1.641705E+06 -3.903905E+05 -3.990816E+05  1.174831E+06  4.898731E+04 -3.051415E+04
       214  10  6.179730E+06  1.519863E+06  1.481854E+06  1.208504E+06  6.404083E-10 -1.441812E-09
       214  11  3.915655E+06  9.707535E+05  9.398495E+05  3.242278E+05  9.697546E-10  2.910350E-10
       214  12  1.654481E+06  4.302332E+05  4.056534E+05  1.206651E+06 -2.443613E-10  4.412121E-09
       214  13  2.109354E+03 -7.469610E+03  2.239271E+02  1.190863E+06  1.002535E-08  1.829717E-10
       214  14  5.543520E+03  2.811572E+03  1.594875E+03  3.070922E+05 -1.135800E-08  2.415136E-09
       214  15  5.148207E+03  2.002059E+04  3.381725E+03  1.190724E+06  9.066874E-10  5.342626E-09
       214  16 -6.140788E+06 -1.537568E+06 -1.484112E+06  1.173323E+06 -2.663926E-10 -1.953572E-09
       214  17 -3.890625E+06 -9.662395E+05 -9.377445E+05  2.900378E+05  6.717482E-10  1.882063E-09
       214  18 -1.641708E+06 -3.903922E+05 -3.990879E+05  1.174832E+06 -3.874957E-09 -3.821018E-10
       214  19  6.179740E+06  1.519899E+06  1.481917E+06  1.208507E+06  2.160915E+04  1.826528E+05
       214  20  3.915660E+06  9.707689E+05  9.398780E+05  3.242310E+05  3.343622E+04  1.185855E+05
       214  21  1.654484E+06  4.302348E+05  4.056592E+05  1.206652E+06  4.603596E+04  3.144750E+04
       214  22  2.118327E+03 -7.433782E+03  2.866497E+02  1.190862E+06 -3.786686E+03  1.826445E+05
       214  23  5.547293E+03  2.826625E+03  1.621232E+03  3.070919E+05 -3.071064E+03  1.183877E+05
       214  24  5.148467E+03  2.002162E+04  3.383533E+03  1.190724E+06 -1.538595E+03  3.097997E+04
       214  25 -6.140779E+06 -1.537532E+06 -1.484047E+06  1.173319E+06 -2.893257E+04  1.826378E+05
       214  26 -3.890620E+06 -9.662241E+05 -9.377153E+05  2.900341E+05 -3.935038E+04  1.181914E+05
       214  27 -1.641705E+06 -3.903905E+05 -3.990816E+05  1.174831E+06 -4.898731E+04  3.051415E+04
       215   1 -1.560664E+06 -3.700923E+05 -3.797241E+05  1.175287E+06 -4.772362E+04  2.807896E+04
       215   2 -3.809016E+06 -9.456774E+05 -9.190756E+05  2.902679E+05 -3.764725E+04  1.157444E+05
       215   3 -6.060001E+06 -1.517780E+06 -1.466896E+06  1.173316E+06 -2.680518E+04  1.803243E+05
       215   4  4.911375E+03  2.011062E+04  3.146776E+03  1.190723E+06 -3.083363E+02  2.854581E+04
       215   5  6.042326E+03  3.153370E+03  6.564727E+02  3.070926E+05 -1.329373E+03  1.159455E+05
       215   6  1.944385E+03 -7.924164E+03 -2.222783E+03  1.190865E+06 -1.547126E+03  1.803376E+05
       215   7  1.572729E+06  4.101338E+05  3.858470E+05  1.206190E+06  4.722648E+04  2.901434E+04
       215   8  3.834471E+06  9.509215E+05  9.193536E+05  3.239957E+05  3.521192E+04  1.161479E+05
       215   9  6.097703E+06  1.499239E+06  1.459818E+06  1.208514E+06  2.395857E+04  1.803524E+05
       215  10 -1.560667E+06 -3.700938E+05 -3.797298E+05  1.175288E+06  3.188508E-10  2.717951E-09
       215  11 -3.809021E+06 -9.456922E+05 -9.191035E+05  2.902714E+05 -4.149634E-10 -2.485573E-09
       215  12 -6.060011E+06 -1.517816E+06 -1.466959E+06  1.173320E+06 -6.747742E-09  2.376981E-09
       215  13  4.911156E+03  2.010974E+04  3.145244E+03  1.190723E+06  4.061238E-09 -2.852639E-09
       215  14  6.038715E+03  3.138933E+03  6.312064E+02  3.070927E+05  5.880418E-09 -4.492131E-09
       215  15  1.935650E+03 -7.959088E+03 -2.283906E+03  1.190866E+06  9.528470E-09  1.719010E-09
       215  16  1.572727E+06  4.101323E+05  3.858413E+05  1.206188E+06 -3.420585E-09 -3.579816E-09
       215  17  3.834466E+06  9.509067E+05  9.193259E+05  3.239924E+05  4.058998E-09 -1.106999E-08
       215  18  6.097694E+06  1.499204E+06  1.459756E+06  1.208511E+06  1.087058E-08  1.937823E-09
       215  19 -1.560664E+06 -3.700923E+05 -3.797241E+05  1.175287E+06  4.772362E+04 -2.807896E+04
       215  20 -3.809016E+06 -9.456774E+05 -9.190756E+05  2.902679E+05  3.764725E+04 -1.157444E+05
       215  21 -6.060001E+06 -1.517780E+06 -1.466896E+06  1.173316E+06  2.680518E+04 -1.803243E+05
       215  22  4.911375E+03  2.011062E+04  3.146776E+03  1.190723E+06  3.083363E+02 -2.854581E+04
       215  23  6.042326E+03  3.153370E+03  6.564727E+02  3.070926E+05  1.329373E+03 -1.159455E+05
       215  24  1.944385E+03 -7.924164E+03 -2.222783E+03  1.190865E+06  1.547126E+03 -1.803376E+05
       215  25  1.572729E+06  4.101338E+05  3.858470E+05  1.206190E+06 -4.722648E+04 -2.901434E+04
       215  26  3.834471E+06  9.509215E+05  9.193536E+05  3.239957E+05 -3.521192E+04 -1.161479E+05
       215  27  6.097703E+06  1.499239E+06  1.459818E+06  1.208514E+06 -2.395857E+04 -1.803524E+05
       216   1 -9.223003E+06 -2.309011E+06 -2.233018E+06  1.172006E+06 -1.186172E+05  2.782684E+05
       216   2 -1.155049E+07 -2.903995E+06 -2.797440E+06  3.633846E+05  4.012058E+04  3.612454E+05
       216   3 -1.370215E+07 -3.505875E+06 -3.428724E+06  1.315841E+06  1.957028E+05  1.251984E+05
       216   4  3.340234E+04  6.842714E+02  6.972654E+03  1.189024E+06 -3.853478E+03  2.782575E+05
       216   5 -7.077097E+04 -3.584490E+04 -2.001177E+04  3.093766E+05  4.264886E+03  3.610034E+05
       216   6  2.444777E+04 -5.137901E+04 -7.757767E+03  1.189088E+06  9.823992E+03  1.272937E+05
       216   7  9.368909E+06  2.304091E+06  2.240857E+06  1.206181E+06  1.126353E+05  2.782528E+05
       216   8  1.153090E+07  2.822620E+06  2.747955E+06  2.544965E+05 -3.226116E+04  3.607720E+05
       216   9  1.392453E+07  3.388914E+06  3.399177E+06  1.059857E+06 -1.802341E+05  1.294467E+05
       216  10 -9.223040E+06 -2.309098E+06 -2.233191E+06  1.172033E+06  1.276697E-09  5.058605E-09
       216  11 -1.155053E+07 -2.904136E+06 -2.797689E+06  3.633729E+05  4.403092E-09 -6.862616E-10
       216  12 -1.370219E+07 -3.505903E+06 -3.428827E+06  1.315821E+06 -1.231798E-10  1.568781E-09
       216  13  3.338154E+04  6.011199E+02  6.827112E+03  1.189025E+06  8.551628E-09  4.578464E-09
       216  14 -7.080598E+04 -3.598486E+04 -2.025671E+04  3.093753E+05  1.042749E-08  3.534955E-11
       216  15  2.444332E+04 -5.139643E+04 -7.788390E+03  1.189087E+06 -6.027132E-09 -1.284193E-09
       216  16  9.368875E+06  2.304004E+06  2.240688E+06  1.206156E+06 -2.331431E-10  4.710579E-09
       216  17  1.153086E+07  2.822480E+06  2.747708E+06  2.545058E+05  1.012107E-09 -3.485077E-09
       216  18  1.392449E+07  3.388887E+06  3.399085E+06  1.059876E+06  2.945843E-09 -1.421151E-09
       216  19 -9.223003E+06 -2.309011E+06 -2.233018E+06  1.172006E+06  1.186172E+05 -2.782684E+05
       216  20 -1.155049E+07 -2.903995E+06 -2.797440E+06  3.633846E+05 -4.012058E+04 -3.612454E+05
       216  21 -1.370215E+07 -3.505875E+06 -3.428724E+06  1.315841E+06 -1.957028E+05 -1.251984E+05
       216  22  3.340234E+04  6.842714E+02  6.972654E+03  1.189024E+06  3.853478E+03 -2.782575E+05
       216  23 -7.077097E+04 -3.584490E+04 -2.001177E+04  3.093766E+05 -4.264886E+03 -3.610034E+05
       216  24  2.444777E+04 -5.137901E+04 -7.757767E+03  1.189088E+06 -9.823992E+03 -1.272937E+05
       216  25  9.368909E+06  2.304091E+06  2.240857E+06  1.206181E+06 -1.126353E+05 -2.782528E+05
       216  26  1.153090E+07  2.822620E+06  2.747955E+06  2.544965E+05  3.226116E+04 -3.607720E+05
       216  27  1.392453E+07  3.388914E+06  3.399177E+06  1.059857E+06  1.802341E+05 -1.294467E+05
       217   1 -2.983524E+06 -1.216827E+07 -3.006900E+06  1.429777E+06 -1.101493E+05 -1.622097E+05
       217   2 -2.239996E+06 -9.083890E+06 -2.172774E+06  2.453562E+05 -2.847164E+05 -1.788631E+04
       217   3 -1.372393E+06 -6.029324E+06 -1.411540E+06  1.474016E+06 -1.657996E+05  1.194353E+05
       217   4  4.829386E+04 -1.251103E+05 -6.019831E+03  1.625604E+06 -1.066432E+05 -8.690918E+03
       217   5  2.916793E+03 -1.137448E+05 -5.407757E+03  4.194355E+05 -2.840436E+05 -2.925477E+03
       217   6  1.071336E+05 -1.154948E+05  2.046254E+04  1.624169E+06 -1.698354E+05 -4.819205E+03
       217   7  3.069216E+06  1.205140E+07  2.984048E+06  1.824392E+06 -1.030767E+05  1.478516E+05
       217   8  2.239973E+06  8.930715E+06  2.156189E+06  5.955504E+05 -2.833683E+05  1.225431E+04
       217   9  1.584135E+06  5.830551E+06  1.450006E+06  1.775462E+06 -1.739113E+05 -1.302626E+05
       217  10 -2.983544E+06 -1.216830E+07 -3.006973E+06  1.429762E+06 -1.649996E-09  1.623835E-09
       217  11 -2.240083E+06 -9.083912E+06 -2.172927E+06  2.453521E+05  4.860768E-09  2.494903E-09
       217  12 -1.372427E+06 -6.029347E+06 -1.411619E+06  1.474032E+06 -1.642084E-08 -2.544845E-09
       217  13  4.828164E+04 -1.251135E+05 -6.041331E+03  1.625604E+06 -5.035117E-09  2.698625E-09
       217  14  2.830159E+03 -1.137664E+05 -5.559377E+03  4.194349E+05  3.550151E-08 -8.738822E-11
       217  15  1.071027E+05 -1.155026E+05  2.040832E+04  1.624168E+06 -8.136761E-09  7.853230E-09
       217  16  3.069199E+06  1.205138E+07  2.983988E+06  1.824404E+06 -5.533639E-10 -7.969469E-10
       217  17  2.239887E+06  8.930693E+06  2.156038E+06  5.955532E+05  8.602169E-09 -8.044659E-10
       217  18  1.584098E+06  5.830525E+06  1.449918E+06  1.775444E+06  2.017847E-09  1.491608E-09
       217  19 -2.983524E+06 -1.216827E+07 -3.006900E+06  1.429777E+06  1.101493E+05  1.622097E+05
       217  20 -2.239996E+06 -9.083890E+06 -2.172774E+06  2.453562E+05  2.847164E+05  1.788631E+04
       217  21 -1.372393E+06 -6.029324E+06 -1.411540E+06  1.474016E+06  1.657996E+05 -1.194353E+05
       217  22  4.829386E+04 -1.251103E+05 -6.019831E+03  1.625604E+06  1.066432E+05  8.690918E+03
       217  23  2.916793E+03 -1.137448E+05 -5.407757E+03  4.194355E+05  2.840436E+05  2.925477E+03
       217  24  1.071336E+05 -1.154948E+05  2.046254E+04  1.624169E+06  1.698354E+05  4.819205E+03
       217  25  3.069216E+06  1.205140E+07  2.984048E+06  1.824392E+06  1.030767E+05 -1.478516E+05
       217  26  2.239973E+06  8.930715E+06  2.156189E+06  5.955504E+05  2.833683E+05 -1.225431E+04
       217  27  1.584135E+06  5.830551E+06  1.450006E+06  1.775462E+06  1.739113E+05  1.302626E+05
       218   1 -2.817331E+05 -1.666075E+06 -3.480907E+05  1.588967E+06 -5.066133E+04  3.473635E+04
       218   2  4.137335E+05  1.490198E+06  4.084980E+05  4.565606E+05  4.737823E+04  1.192147E+04
       218   3  1.263568E+06  4.511636E+06  1.177503E+06  1.738066E+06  1.403633E+05 -1.046911E+04
       218   4  9.952844E+04 -1.352696E+05  1.906419E+04  1.625409E+06 -5.233910E+04 -1.383235E+04
       218   5  2.686601E+04 -6.412178E+04  3.463579E+04  4.182244E+05  4.587270E+04 -3.427495E+04
       218   6  1.088725E+05 -1.369068E+05  6.164313E+04  1.625041E+06  1.390003E+05 -5.419463E+04
       218   7  4.806229E+05  1.397692E+06  3.860618E+05  1.661920E+06 -5.402037E+04 -6.252061E+04
       218   8 -3.601739E+05 -1.616227E+06 -3.393905E+05  3.799658E+05  4.437093E+04 -8.035621E+04
       218   9 -1.047371E+06 -4.765740E+06 -1.055744E+06  1.512678E+06  1.376479E+05 -9.759453E+04
       218  10 -2.817362E+05 -1.666077E+06 -3.480978E+05  1.588968E+06 -3.300896E-09  1.873972E-08
       218  11  4.137311E+05  1.490197E+06  4.084935E+05  4.565602E+05 -4.821260E-09  7.574041E-09
       218  12  1.263547E+06  4.511630E+06  1.177466E+06  1.738067E+06  1.450249E-08 -1.099311E-08
       218  13  9.952545E+04 -1.352705E+05  1.905869E+04  1.625408E+06 -3.841949E-09  4.556572E-09
       218  14  2.686343E+04 -6.412361E+04  3.462962E+04  4.182257E+05 -2.514260E-08  1.723431E-11
       218  15  1.088509E+05 -1.369152E+05  6.160121E+04  1.625047E+06 -2.391877E-08  8.124494E-09
       218  16  4.806187E+05  1.397687E+06  3.860490E+05  1.661917E+06 -4.431136E-09 -1.739476E-08
       218  17 -3.601777E+05 -1.616235E+06 -3.394063E+05  3.799687E+05  1.927461E-08 -4.376526E-09
       218  18 -1.047394E+06 -4.765756E+06 -1.055798E+06  1.512689E+06  6.507243E-09  8.995575E-09
       218  19 -2.817331E+05 -1.666075E+06 -3.480907E+05  1.588967E+06  5.066133E+04 -3.473635E+04
       218  20  4.137335E+05  1.490198E+06  4.084980E+05  4.565606E+05 -4.737823E+04 -1.192147E+04
       218  21  1.263568E+06  4.511636E+06  1.177503E+06  1.738066E+06 -1.403633E+05  1.046911E+04
       218  22  9.952844E+04 -1.352696E+05  1.906419E+04  1.625409E+06  5.233910E+04  1.383235E+04
       218  23  2.686601E+04 -6.412178E+04  3.463579E+04  4.182244E+05 -4.587270E+04  3.427495E+04
       218  24  1.088725E+05 -1.369068E+05  6.164313E+04  1.625041E+06 -1.390003E+05  5.419463E+04
       218  25  4.806229E+05  1.397692E+06  3.860618E+05  1.661920E+06  5.402037E+04  6.252061E+04
       218  26 -3.601739E+05 -1.616227E+06 -3.393905E+05  3.799658E+05 -4.437093E+04  8.035621E+04
       218  27 -1.047371E+06 -4.765740E+06 -1.055744E+06  1.512678E+06 -1.376479E+05  9.759453E+04
       219   1  2.328498E+06  8.992932E+06  2.261690E+06  1.804375E+06  2.686674E+05  6.722062E+04
       219   2  2.954497E+06  1.200272E+07  3.008609E+06  6.301686E+05  3.759517E+05 -1.670628E+05
       219   3  4.035345E+06  1.522678E+07  4.028903E+06  1.861828E+06  1.312975E+05 -3.954834E+05
       219   4  8.280862E+04 -8.286684E+04  8.730382E+04  1.625154E+06  2.646874E+05 -7.295984E+04
       219   5 -5.125019E+04 -1.773689E+05  1.027482E+05  4.197269E+05  3.771438E+05 -1.345015E+05
       219   6  2.427751E+05 -9.570014E+04  2.751170E+05  1.622996E+06  1.346306E+05 -1.889481E+05
       219   7 -2.168785E+06 -9.083844E+06 -2.092841E+06  1.447887E+06  2.607572E+05 -2.111149E+05
       219   8 -3.067608E+06 -1.222306E+07 -2.813544E+06  2.126126E+05  3.783288E+05 -1.025484E+05
       219   9 -3.566977E+06 -1.520756E+07 -3.495713E+06  1.388926E+06  1.378555E+05  1.263535E+04
       219  10  2.328420E+06  8.992907E+06  2.261547E+06  1.804360E+06  9.582007E-10  4.585167E-09
       219  11  2.954338E+06  1.200266E+07  3.008291E+06  6.302188E+05 -4.381545E-09  1.901380E-09
       219  12  4.035286E+06  1.522661E+07  4.028583E+06  1.861869E+06  1.891783E-09 -3.368686E-09
       219  13  8.273189E+04 -8.289144E+04  8.716194E+04  1.625170E+06  1.754565E-08  3.409219E-09
       219  14 -5.140782E+04 -1.774265E+05  1.024467E+05  4.197678E+05 -5.553140E-09  1.385410E-09
       219  15  2.427460E+05 -9.574345E+04  2.750155E+05  1.623017E+06  4.732914E-09  2.489424E-09
       219  16 -2.168870E+06 -9.083911E+06 -2.093054E+06  1.447931E+06 -1.000474E-08 -2.389325E-09
       219  17 -3.067765E+06 -1.222311E+07 -2.813833E+06  2.126442E+05  5.017475E-09  8.761566E-10
       219  18 -3.566998E+06 -1.520757E+07 -3.495749E+06  1.388925E+06  8.685125E-09  2.150618E-09
       219  19  2.328498E+06  8.992932E+06  2.261690E+06  1.804375E+06 -2.686674E+05 -6.722062E+04
       219  20  2.954497E+06  1.200272E+07  3.008609E+06  6.301686E+05 -3.759517E+05  1.670628E+05
       219  21  4.035345E+06  1.522678E+07  4.028903E+06  1.861828E+06 -1.312975E+05  3.954834E+05
       219  22  8.280862E+04 -8.286684E+04  8.730382E+04  1.625154E+06 -2.646874E+05  7.295984E+04
       219  23 -5.125019E+04 -1.773689E+05  1.027482E+05  4.197269E+05 -3.771438E+05  1.345015E+05
       219  24  2.427751E+05 -9.570014E+04  2.751170E+05  1.622996E+06 -1.346306E+05  1.889481E+05
       219  25 -2.168785E+06 -9.083844E+06 -2.092841E+06  1.447887E+06 -2.607572E+05  2.111149E+05
       219  26 -3.067608E+06 -1.222306E+07 -2.813544E+06  2.126126E+05 -3.783288E+05  1.025484E+05
       219  27 -3.566977E+06 -1.520756E+07 -3.495713E+06  1.388926E+06 -1.378555E+05 -1.263535E+04
       220   1  1.375405E+07  3.343641E+06  3.355780E+06  1.040270E+06  1.847819E+05 -1.275283E+05
       220   2  1.140637E+07  2.778959E+06  2.711067E+06  2.483705E+05  3.663321E+04 -3.553061E+05
       220   3  9.287293E+06  2.270357E+06  2.211722E+06  1.179293E+06 -1.084395E+05 -2.743634E+05
       220   4  7.547959E+04 -4.201181E+04  2.919637E+03  1.165701E+06 -2.377865E+03 -1.253913E+05
       220   5 -1.872365E+04 -3.614856E+04 -1.490590E+04  3.031042E+05  5.163370E+02 -3.555202E+05
       220   6  8.412626E+04 -4.290647E+02  9.485812E+03  1.165556E+06  5.976136E+03 -2.743999E+05
       220   7 -1.343507E+07 -3.441421E+06 -3.363529E+06  1.288775E+06 -1.854883E+05 -1.233090E+05
       220   8 -1.132554E+07 -2.860649E+06 -2.750056E+06  3.569853E+05 -3.494832E+04 -3.557446E+05
       220   9 -9.042164E+06 -2.277327E+06 -2.198685E+06  1.151916E+06  1.187211E+05 -2.744414E+05
       220  10  1.375401E+07  3.343615E+06  3.355686E+06  1.040289E+06  6.274606E-09 -6.299421E-10
       220  11  1.140633E+07  2.778823E+06  2.710828E+06  2.483809E+05 -2.681254E-09  4.162604E-09
       220  12  9.287260E+06  2.270274E+06  2.211559E+06  1.179270E+06  4.261079E-09  2.458500E-10
       220  13  7.547536E+04 -4.202869E+04  2.890079E+03  1.165700E+06 -1.219343E-08  3.790303E-09
       220  14 -1.875758E+04 -3.628429E+04 -1.514344E+04  3.031044E+05  1.482882E-08  1.132693E-09
       220  15  8.410600E+04 -5.099359E+02  9.344230E+03  1.165558E+06 -4.421860E-09 -3.312602E-10
       220  16 -1.343511E+07 -3.441447E+06 -3.363624E+06  1.288757E+06  1.089356E-09 -4.287263E-09
       220  17 -1.132558E+07 -2.860785E+06 -2.750296E+06  3.569752E+05  1.898189E-09  3.565150E-09
       220  18 -9.042199E+06 -2.277412E+06 -2.198854E+06  1.151943E+06  1.514767E-09 -1.399625E-09
       220  19  1.375405E+07  3.343641E+06  3.355780E+06  1.040270E+06 -1.847819E+05  1.275283E+05
       220  20  1.140637E+07  2.778959E+06  2.711067E+06  2.483705E+05 -3.663321E+04  3.553061E+05
       220  21  9.287293E+06  2.270357E+06  2.211722E+06  1.179293E+06  1.084395E+05  2.743634E+05
       220  22  7.547959E+04 -4.201181E+04  2.919637E+03  1.165701E+06  2.377865E+03  1.253913E+05
       220  23 -1.872365E+04 -3.614856E+04 -1.490590E+04  3.031042E+05 -5.163370E+02  3.555202E+05
       220  24  8.412626E+04 -4.290647E+02  9.485812E+03  1.165556E+06 -5.976136E+03  2.743999E+05
       220  25 -1.343507E+07 -3.441421E+06 -3.363529E+06  1.288775E+06  1.854883E+05  1.233090E+05
       220  26 -1.132554E+07 -2.860649E+06 -2.750056E+06  3.569853E+05  3.494832E+04  3.557446E+05
       220  27 -9.042164E+06 -2.277327E+06 -2.198685E+06  1.151916E+06 -1.187211E+05  2.744414E+05
       221   1  6.081517E+06  1.483027E+06  1.445903E+06  1.183405E+06 -2.156367E+04 -1.782716E+05
       221   2  3.863323E+06  9.451076E+05  9.150159E+05  3.171334E+05 -3.307241E+04 -1.154567E+05
       221   3  1.648076E+06  4.148337E+05  3.916466E+05  1.181938E+06 -4.531608E+04 -3.008351E+04
       221   4  5.312019E+04 -7.451828E+03  2.304357E+01  1.167114E+06  3.348339E+03 -1.782656E+05
       221   5  5.630510E+04  2.690940E+03  1.494682E+03  3.011757E+05  2.703307E+03 -1.152710E+05
       221   6  5.600990E+04  1.886899E+04  3.266902E+03  1.166987E+06  1.281541E+03 -2.964162E+04
       221   7 -5.942208E+06 -1.500565E+06 -1.448431E+06  1.150912E+06  2.802107E+04 -1.782610E+05
       221   8 -3.737493E+06 -9.407764E+05 -9.130500E+05  2.852915E+05  3.826150E+04 -1.150867E+05
       221   9 -1.533744E+06 -3.772811E+05 -3.852891E+05  1.152067E+06  4.776019E+04 -2.920131E+04
       221  10  6.081508E+06  1.482993E+06  1.445842E+06  1.183402E+06 -9.732111E-10 -1.264729E-09
       221  11  3.863319E+06  9.450930E+05  9.149889E+05  3.171303E+05 -1.585853E-09 -1.064165E-09
       221  12  1.648074E+06  4.148322E+05  3.916411E+05  1.181937E+06  2.103414E-09 -1.624401E-09
       221  13  5.311164E+04 -7.485958E+03 -3.670362E+01  1.167114E+06  5.622709E-09 -2.725092E-09
       221  14  5.630152E+04  2.676669E+03  1.469698E+03  3.011760E+05 -4.756101E-09  6.419202E-09
       221  15  5.600967E+04  1.886805E+04  3.265247E+03  1.166987E+06  2.969485E-09  8.938358E-10
       221  16 -5.942218E+06 -1.500599E+06 -1.448492E+06  1.150916E+06  1.394607E-09 -2.070035E-09
       221  17 -3.737498E+06 -9.407910E+05 -9.130777E+05  2.852951E+05 -6.187460E-09  1.102798E-09
       221  18 -1.533747E+06 -3.772827E+05 -3.852950E+05  1.152068E+06  3.438116E-09  3.821687E-09
       221  19  6.081517E+06  1.483027E+06  1.445903E+06  1.183405E+06  2.156367E+04  1.782716E+05
       221  20  3.863323E+06  9.451076E+05  9.150159E+05  3.171334E+05  3.307241E+04  1.154567E+05
       221  21  1.648076E+06  4.148337E+05  3.916466E+05  1.181938E+06  4.531608E+04  3.008351E+04
       221  22  5.312019E+04 -7.451828E+03  2.304357E+01  1.167114E+06 -3.348339E+03  1.782656E+05
       221  23  5.630510E+04  2.690940E+03  1.494682E+03  3.011757E+05 -2.703307E+03  1.152710E+05
       221  24  5.600990E+04  1.886899E+04  3.266902E+03  1.166987E+06 -1.281541E+03  2.964162E+04
       221  25 -5.942208E+06 -1.500565E+06 -1.448431E+06  1.150912E+06 -2.802107E+04  1.782610E+05
       221  26 -3.737493E+06 -9.407764E+05 -9.130500E+05  2.852915E+05 -3.826150E+04  1.150867E+05
       221  27 -1.533744E+06 -3.772811E+05 -3.852891E+05  1.152067E+06 -4.776019E+04  2.920131E+04
       222   1 -1.501446E+06 -3.691452E+05 -3.776164E+05  1.152200E+06 -4.695834E+04  2.823308E+04
       222   2 -3.704933E+06 -9.325491E+05 -9.058875E+05  2.854103E+05 -3.714767E+04  1.141141E+05
       222   3 -5.910060E+06 -1.492976E+06 -1.442259E+06  1.150971E+06 -2.660152E+04  1.773431E+05
       222   4  5.589594E+04  1.894739E+04  3.126697E+03  1.166977E+06 -4.933471E+02  2.867378E+04
       222   5  5.652519E+04  2.857025E+03  8.417130E+02  3.011874E+05 -1.572522E+03  1.143004E+05
       222   6  5.303077E+04 -7.923864E+03 -1.632932E+03  1.167107E+06 -1.880264E+03  1.773503E+05
       222   7  1.615456E+06  4.068621E+05  3.837008E+05  1.181784E+06  4.608816E+04  2.911606E+04
       222   8  3.830979E+06  9.372303E+05  9.065649E+05  3.170368E+05  3.421838E+04  1.144878E+05
       222   9  6.048835E+06  1.474523E+06  1.436447E+06  1.183331E+06  2.307939E+04  1.773589E+05
       222  10 -1.501449E+06 -3.691467E+05 -3.776220E+05  1.152201E+06 -2.871370E-09  2.784182E-09
       222  11 -3.704938E+06 -9.325635E+05 -9.059146E+05  2.854138E+05 -1.145331E-08 -2.559846E-09
       222  12 -5.910069E+06 -1.493010E+06 -1.442320E+06  1.150975E+06  8.924777E-10 -2.706440E-09
       222  13  5.589572E+04  1.894650E+04  3.125151E+03  1.166977E+06  3.899147E-09  1.168761E-09
       222  14  5.652168E+04  2.842994E+03  8.171565E+02  3.011875E+05  1.460610E-08 -5.446805E-09
       222  15  5.302232E+04 -7.957642E+03 -1.692051E+03  1.167107E+06  7.817239E-09 -6.338718E-09
       222  16  1.615454E+06  4.068607E+05  3.836953E+05  1.181783E+06  7.703540E-10  5.913397E-10
       222  17  3.830974E+06  9.372160E+05  9.065381E+05  3.170336E+05 -6.986922E-10  1.654464E-09
       222  18  6.048826E+06  1.474490E+06  1.436387E+06  1.183328E+06  9.525322E-09 -1.449616E-09
       222  19 -1.501446E+06 -3.691452E+05 -3.776164E+05  1.152200E+06  4.695834E+04 -2.823308E+04
       222  20 -3.704933E+06 -9.325491E+05 -9.058875E+05  2.854103E+05  3.714767E+04 -1.141141E+05
       222  21 -5.910060E+06 -1.492976E+06 -1.442259E+06  1.150971E+06  2.660152E+04 -1.773431E+05
       222  22  5.589594E+04  1.894739E+04  3.126697E+03  1.166977E+06  4.933471E+02 -2.867378E+04
       222  23  5.652519E+04  2.857025E+03  8.417130E+02  3.011874E+05  1.572522E+03 -1.143004E+05
       222  24  5.303077E+04 -7.923864E+03 -1.632932E+03  1.167107E+06  1.880264E+03 -1.773503E+05
       222  25  1.615456E+06  4.068621E+05  3.837008E+05  1.181784E+06 -4.608816E+04 -2.911606E+04
       222  26  3.830979E+06  9.372303E+05  9.065649E+05  3.170368E+05 -3.421838E+04 -1.144878E+05
       222  27  6.048835E+06  1.474523E+06  1.436447E+06  1.183331E+06 -2.307939E+04 -1.773589E+05
       223   1 -9.010733E+06 -2.268778E+06 -2.193029E+06  1.150819E+06 -1.167932E+05  2.734212E+05
       223   2 -1.129233E+07 -2.851373E+06 -2.745581E+06  3.566249E+05  3.837093E+04  3.547238E+05
       223   3 -1.340345E+07 -3.439325E+06 -3.363454E+06  1.289372E+06  1.904309E+05  1.229433E+05
       223   4  8.346699E+04  7.949561E+01  7.353570E+03  1.165626E+06 -4.181601E+03  2.733879E+05
       223   5 -1.763675E+04 -3.496233E+04 -1.826165E+04  3.030221E+05  3.103326E+03  3.544979E+05
       223   6  7.484698E+04 -4.805694E+04 -5.085302E+03  1.165700E+06  7.857904E+03  1.250010E+05
       223   7  9.254002E+06  2.262868E+06  2.201843E+06  1.180546E+06  1.100926E+05  2.733599E+05
       223   8  1.137465E+07  2.772109E+06  2.699934E+06  2.485715E+05 -3.281148E+04  3.542821E+05
       223   9  1.372036E+07  3.329521E+06  3.339760E+06  1.039660E+06 -1.787438E+05  1.271139E+05
       223  10 -9.010768E+06 -2.268862E+06 -2.193196E+06  1.150845E+06  1.861014E-09 -1.072735E-09
       223  11 -1.129236E+07 -2.851509E+06 -2.745821E+06  3.566139E+05 -2.692491E-09  4.470002E-09
       223  12 -1.340349E+07 -3.439351E+06 -3.363552E+06  1.289353E+06  2.515547E-09 -1.130565E-09
       223  13  8.344690E+04 -7.739560E-01  7.213069E+03  1.165627E+06 -4.451518E-09 -1.380450E-09
       223  14 -1.767050E+04 -3.509729E+04 -1.849783E+04  3.030212E+05 -2.447596E-09  3.862570E-09
       223  15  7.484272E+04 -4.807373E+04 -5.114776E+03  1.165699E+06 -1.513645E-08 -1.872519E-09
       223  16  9.253969E+06  2.262785E+06  2.201680E+06  1.180522E+06 -1.839302E-09 -3.646841E-09
       223  17  1.137462E+07  2.771974E+06  2.699696E+06  2.485808E+05 -5.270884E-09  2.231012E-10
       223  18  1.372032E+07  3.329495E+06  3.339671E+06  1.039678E+06 -4.398255E-09 -3.368296E-09
       223  19 -9.010733E+06 -2.268778E+06 -2.193029E+06  1.150819E+06  1.167932E+05 -2.734212E+05
       223  20 -1.129233E+07 -2.851373E+06 -2.745581E+06  3.566249E+05 -3.837093E+04 -3.547238E+05
       223  21 -1.340345E+07 -3.439325E+06 -3.363454E+06  1.289372E+06 -1.904309E+05 -1.229433E+05
       223  22  8.346699E+04  7.949561E+01  7.353570E+03  1.165626E+06  4.181601E+03 -2.733879E+05
       223  23 -1.763675E+04 -3.496233E+04 -1.826165E+04  3.030221E+05 -3.103326E+03 -3.544979E+05
       223  24  7.484698E+04 -4.805694E+04 -5.085302E+03  1.165700E+06 -7.857904E+03 -1.250010E+05
       223  25  9.254002E+06  2.262868E+06  2.201843E+06  1.180546E+06 -1.100926E+05 -2.733599E+05
       223  26  1.137465E+07  2.772109E+06  2.699934E+06  2.485715E+05  3.281148E+04 -3.542821E+05
       223  27  1.372036E+07  3.329521E+06  3.339760E+06  1.039660E+06  1.787438E+05 -1.271139E+05
       224   1 -2.880915E+06 -1.169628E+07 -2.903980E+06  1.391636E+06 -1.061617E+05 -1.540103E+05
       224   2 -2.158941E+06 -8.705349E+06 -2.097709E+06  2.437853E+05 -2.744217E+05 -1.318853E+04
       224   3 -1.322497E+06 -5.745838E+06 -1.364281E+06  1.434301E+06 -1.592378E+05  1.210194E+05
       224   4  4.577832E+04 -6.618000E+04 -6.964094E+03  1.576734E+06 -1.028445E+05 -5.803177E+03
       224   5  3.421217E+03 -5.413054E+04 -7.998411E+03  4.079275E+05 -2.737940E+05  1.129864E+03
       224   6  1.001449E+05 -5.719946E+04  1.290319E+04  1.575449E+06 -1.630461E+05  8.257704E+02
       224   7  2.962315E+06  1.168822E+07  2.879974E+06  1.764534E+06 -9.947239E+04  1.452207E+05
       224   8  2.160337E+06  8.666184E+06  2.076349E+06  5.739201E+05 -2.731640E+05  1.564990E+04
       224   9  1.520450E+06  5.661239E+06  1.387814E+06  1.717628E+06 -1.668908E+05 -1.204738E+05
       224  10 -2.880934E+06 -1.169630E+07 -2.904046E+06  1.391623E+06 -5.773428E-09  4.842699E-09
       224  11 -2.159022E+06 -8.705369E+06 -2.097851E+06  2.437824E+05 -4.106305E-09  1.614547E-08
       224  12 -1.322529E+06 -5.745861E+06 -1.364357E+06  1.434317E+06 -5.198534E-09  2.911568E-09
       224  13  4.576696E+04 -6.618287E+04 -6.984024E+03  1.576734E+06 -5.595807E-09  5.394836E-09
       224  14  3.340720E+03 -5.415067E+04 -8.139281E+03  4.079278E+05  2.473919E-08 -3.381026E-10
       224  15  1.001164E+05 -5.720659E+04  1.285324E+04  1.575449E+06  1.512984E-09  1.675846E-08
       224  16  2.962299E+06  1.168819E+07  2.879916E+06  1.764545E+06 -4.251281E-10 -4.883670E-09
       224  17  2.160257E+06  8.666164E+06  2.076208E+06  5.739235E+05  9.902457E-09 -2.809564E-08
       224  18  1.520416E+06  5.661216E+06  1.387735E+06  1.717612E+06  2.015626E-09 -2.361165E-10
       224  19 -2.880915E+06 -1.169628E+07 -2.903980E+06  1.391636E+06  1.061617E+05  1.540103E+05
       224  20 -2.158941E+06 -8.705349E+06 -2.097709E+06  2.437853E+05  2.744217E+05  1.318853E+04
       224  21 -1.322497E+06 -5.745838E+06 -1.364281E+06  1.434301E+06  1.592378E+05 -1.210194E+05
       224  22  4.577832E+04 -6.618000E+04 -6.964094E+03  1.576734E+06  1.028445E+05  5.803177E+03
       224  23  3.421217E+03 -5.413054E+04 -7.998411E+03  4.079275E+05  2.737940E+05 -1.129864E+03
       224  24  1.001449E+05 -5.719946E+04  1.290319E+04  1.575449E+06  1.630461E+05 -8.257704E+02
       224  25  2.962315E+06  1.168822E+07  2.879974E+06  1.764534E+06  9.947239E+04 -1.452207E+05
       224  26  2.160337E+06  8.666184E+06  2.076349E+06  5.739201E+05  2.731640E+05 -1.564990E+04
       224  27  1.520450E+06  5.661239E+06  1.387814E+06  1.717628E+06  1.668908E+05  1.204738E+05
       225   1 -2.642198E+05 -1.518198E+06 -3.359103E+05  1.544522E+06 -4.767751E+04  4.073241E+04
       225   2  4.119888E+05  1.540187E+06  3.907431E+05  4.433130E+05  4.760993E+04  2.632523E+04
       225   3  1.220486E+06  4.467178E+06  1.121193E+06  1.681055E+06  1.378954E+05  1.236614E+04
       225   4  9.464289E+04 -7.632221E+04  9.773610E+03  1.576430E+06 -4.926357E+04 -6.375634E+03
       225   5  2.703065E+04 -7.117662E+03  1.861216E+04  4.069083E+05  4.618923E+04 -1.845198E+04
       225   6  9.194125E+04 -7.791417E+04  3.021243E+04  1.576450E+06  1.366107E+05 -3.002382E+04
       225   7  4.533571E+05  1.367467E+06  3.553186E+05  1.608393E+06 -5.085251E+04 -5.359290E+04
       225   8 -3.580986E+05 -1.552229E+06 -3.536817E+05  3.705767E+05  4.477197E+04 -6.311810E+04
       225   9 -1.038086E+06 -4.604166E+06 -1.062228E+06  1.472438E+06  1.353354E+05 -7.210561E+04
       225  10 -2.642227E+05 -1.518200E+06 -3.359177E+05  1.544524E+06  7.835350E-09  7.395533E-09
       225  11  4.119862E+05  1.540185E+06  3.907375E+05  4.433120E+05 -8.305350E-09  1.853758E-08
       225  12  1.220466E+06  4.467172E+06  1.121157E+06  1.681053E+06  1.690277E-08  2.701116E-09
       225  13  9.464027E+04 -7.632290E+04  9.768977E+03  1.576429E+06  1.468027E-09  7.941705E-09
       225  14  2.702827E+04 -7.118601E+03  1.860751E+04  4.069090E+05 -2.219515E-08 -3.815150E-10
       225  15  9.192096E+04 -7.792016E+04  3.017562E+04  1.576453E+06 -2.290891E-08  1.539906E-08
       225  16  4.533536E+05  1.367463E+06  3.553084E+05  1.608391E+06 -2.001831E-09 -7.616812E-09
       225  17 -3.581018E+05 -1.552234E+06 -3.536930E+05  3.705789E+05  1.258230E-08 -3.229618E-08
       225  18 -1.038107E+06 -4.604176E+06 -1.062273E+06  1.472446E+06  4.007888E-09 -3.103268E-09
       225  19 -2.642198E+05 -1.518198E+06 -3.359103E+05  1.544522E+06  4.767751E+04 -4.073241E+04
       225  20  4.119888E+05  1.540187E+06  3.907431E+05  4.433130E+05 -4.760993E+04 -2.632523E+04
       225  21  1.220486E+06  4.467178E+06  1.121193E+06  1.681055E+06 -1.378954E+05 -1.236614E+04
       225  22  9.464289E+04 -7.632221E+04  9.773610E+03  1.576430E+06  4.926357E+04  6.375634E+03
       225  23  2.703065E+04 -7.117662E+03  1.861216E+04  4.069083E+05 -4.618923E+04  1.845198E+04
       225  24  9.194125E+04 -7.791417E+04  3.021243E+04  1.576450E+06 -1.366107E+05  3.002382E+04
       225  25  4.533571E+05  1.367467E+06  3.553186E+05  1.608393E+06  5.085251E+04  5.359290E+04
       225  26 -3.580986E+05 -1.552229E+06 -3.536817E+05  3.705767E+05 -4.477197E+04  6.311810E+04
       225  27 -1.038086E+06 -4.604166E+06 -1.062228E+06  1.472438E+06 -1.353354E+05  7.210561E+04
       226   1  2.269674E+06  8.800065E+06  2.164853E+06  1.758696E+06  2.624292E+05  9.388252E+04
       226   2  2.888491E+06  1.173682E+07  2.867902E+06  5.985608E+05  3.669791E+05 -1.021315E+05
       226   3  3.815338E+06  1.484295E+07  3.782805E+06  1.771323E+06  1.291412E+05 -2.924283E+05
       226   4  8.306265E+04 -3.362478E+04  4.814528E+04  1.576071E+06  2.586648E+05 -4.238573E+04
       226   5 -3.351229E+04 -1.056279E+05  4.233450E+04  4.080601E+05  3.680942E+05 -7.096657E+04
       226   6  1.305626E+05 -4.575814E+04  1.346280E+05  1.575734E+06  1.322554E+05 -9.282959E+04
       226   7 -2.109137E+06 -8.796424E+06 -2.074019E+06  1.395428E+06  2.549518E+05 -1.767397E+05
       226   8 -2.965556E+06 -1.182101E+07 -2.793096E+06  2.204585E+05  3.692035E+05 -4.037659E+04
       226   9 -3.570475E+06 -1.473557E+07 -3.529647E+06  1.383808E+06  1.352892E+05  1.020955E+05
       226  10  2.269598E+06  8.800037E+06  2.164707E+06  1.758677E+06  5.420847E-09  4.875218E-09
       226  11  2.888344E+06  1.173677E+07  2.867630E+06  5.985908E+05 -7.288962E-09  1.016383E-08
       226  12  3.815298E+06  1.484286E+07  3.782616E+06  1.771354E+06 -5.694537E-10  4.788004E-10
       226  13  8.299029E+04 -3.364472E+04  4.801606E+04  1.576080E+06  1.909681E-08  7.352595E-09
       226  14 -3.365915E+04 -1.056697E+05  4.207034E+04  4.080812E+05 -9.497816E-09  8.954107E-10
       226  15  1.305415E+05 -4.577214E+04  1.345788E+05  1.575743E+06  2.845646E-09  6.089058E-09
       226  16 -2.109215E+06 -8.796476E+06 -2.074201E+06  1.395464E+06 -1.010175E-08 -4.594094E-09
       226  17 -2.965703E+06 -1.182105E+07 -2.793355E+06  2.204706E+05  1.536979E-09 -1.700891E-08
       226  18 -3.570497E+06 -1.473559E+07 -3.529701E+06  1.383796E+06  6.889734E-09  8.296359E-12
       226  19  2.269674E+06  8.800065E+06  2.164853E+06  1.758696E+06 -2.624292E+05 -9.388252E+04
       226  20  2.888491E+06  1.173682E+07  2.867902E+06  5.985608E+05 -3.669791E+05  1.021315E+05
       226  21  3.815338E+06  1.484295E+07  3.782805E+06  1.771323E+06 -1.291412E+05  2.924283E+05
       226  22  8.306265E+04 -3.362478E+04  4.814528E+04  1.576071E+06 -2.586648E+05  4.238573E+04
       226  23 -3.351229E+04 -1.056279E+05  4.233450E+04  4.080601E+05 -3.680942E+05  7.096657E+04
       226  24  1.305626E+05 -4.575814E+04  1.346280E+05  1.575734E+06 -1.322554E+05  9.282959E+04
       226  25 -2.109137E+06 -8.796424E+06 -2.074019E+06  1.395428E+06 -2.549518E+05  1.767397E+05
       226  26 -2.965556E+06 -1.182101E+07 -2.793096E+06  2.204585E+05 -3.692035E+05  4.037659E+04
       226  27 -3.570475E+06 -1.473557E+07 -3.529647E+06  1.383808E+06 -1.352892E+05 -1.020955E+05
       227   1  1.369602E+07  3.319770E+06  3.331953E+06  1.034332E+06  1.845053E+05 -1.265483E+05
       227   2  1.136497E+07  2.757471E+06  2.690934E+06  2.467285E+05  3.703680E+04 -3.525538E+05
       227   3  9.259719E+06  2.252114E+06  2.194516E+06  1.170696E+06 -1.073988E+05 -2.721653E+05
       227   4  1.215082E+05 -4.012527E+04  4.570284E+03  1.157655E+06 -1.215700E+03 -1.244403E+05
       227   5  2.846976E+04 -3.580509E+04 -1.390205E+04  3.006993E+05  1.212755E+03 -3.527638E+05
       227   6  1.300268E+05 -5.262937E+02  9.877282E+03  1.157501E+06  6.173808E+03 -2.722035E+05
       227   7 -1.328752E+07 -3.413569E+06 -3.336195E+06  1.278681E+06 -1.829491E+05 -1.223857E+05
       227   8 -1.119159E+07 -2.838329E+06 -2.727773E+06  3.538363E+05 -3.396944E+04 -3.529839E+05
       227   9 -8.924012E+06 -2.259181E+06 -2.180602E+06  1.144395E+06  1.181012E+05 -2.722466E+05
       227  10  1.369598E+07  3.319744E+06  3.331860E+06  1.034350E+06 -9.647956E-09  6.796094E-09
       227  11  1.136494E+07  2.757337E+06  2.690698E+06  2.467390E+05 -3.006316E-09  1.455687E-08
       227  12  9.259687E+06  2.252032E+06  2.194356E+06  1.170673E+06  5.782566E-09 -1.902825E-10
       227  13  1.215040E+05 -4.014190E+04  4.541179E+03  1.157655E+06 -1.215484E-08  1.828459E-09
       227  14  2.843634E+04 -3.593873E+04 -1.413592E+04  3.006997E+05  6.203499E-09 -5.987505E-11
       227  15  1.300069E+05 -6.058780E+02  9.737948E+03  1.157502E+06  3.634638E-09  3.202463E-10
       227  16 -1.328756E+07 -3.413594E+06 -3.336287E+06  1.278663E+06  2.763370E-09  3.455082E-09
       227  17 -1.119162E+07 -2.838463E+06 -2.728009E+06  3.538266E+05 -1.051124E-08 -2.201890E-09
       227  18 -8.924047E+06 -2.259265E+06 -2.180768E+06  1.144421E+06 -1.317834E-09  1.447139E-09
       227  19  1.369602E+07  3.319770E+06  3.331953E+06  1.034332E+06 -1.845053E+05  1.265483E+05
       227  20  1.136497E+07  2.757471E+06  2.690934E+06  2.467285E+05 -3.703680E+04  3.525538E+05
       227  21  9.259719E+06  2.252114E+06  2.194516E+06  1.170696E+06  1.073988E+05  2.721653E+05
       227  22  1.215082E+05 -4.012527E+04  4.570284E+03  1.157655E+06  1.215700E+03  1.244403E+05
       227  23  2.846976E+04 -3.580509E+04 -1.390205E+04  3.006993E+05 -1.212755E+03  3.527638E+05
       227  24  1.300268E+05 -5.262937E+02  9.877282E+03  1.157501E+06 -6.173808E+03  2.722035E+05
       227  25 -1.328752E+07 -3.413569E+06 -3.336195E+06  1.278681E+06  1.829491E+05  1.223857E+05
       227  26 -1.119159E+07 -2.838329E+06 -2.727773E+06  3.538363E+05  3.396944E+04  3.529839E+05
       227  27 -8.924012E+06 -2.259181E+06 -2.180602E+06  1.144395E+06 -1.181012E+05  2.722466E+05
       228   1  6.077387E+06  1.470738E+06  1.434252E+06  1.174652E+06 -2.123376E+04 -1.767810E+05
       228   2  3.875619E+06  9.366155E+05  9.071979E+05  3.148536E+05 -3.282622E+04 -1.144243E+05
       228   3  1.676931E+06  4.101770E+05  3.877739E+05  1.173188E+06 -4.514024E+04 -2.969368E+04
       228   4  9.940203E+04 -7.244414E+03  4.953910E+02  1.158690E+06  3.500436E+03 -1.767754E+05
       228   5  1.024709E+05  2.614556E+03  1.832517E+03  2.992310E+05  2.684115E+03 -1.142423E+05
       228   6  1.022443E+05  1.855170E+04  3.632039E+03  1.158567E+06  1.104325E+03 -2.925990E+04
       228   7 -5.846067E+06 -1.487816E+06 -1.435792E+06  1.142814E+06  2.799904E+04 -1.767713E+05
       228   8 -3.657692E+06 -9.324185E+05 -9.045381E+05  2.836797E+05  3.798047E+04 -1.140616E+05
       228   9 -1.470181E+06 -3.732549E+05 -3.806822E+05  1.143976E+06  4.723211E+04 -2.882767E+04
       228  10  6.077379E+06  1.470704E+06  1.434192E+06  1.174649E+06  3.371541E-09 -3.969557E-09
       228  11  3.875615E+06  9.366012E+05  9.071713E+05  3.148506E+05 -1.023076E-08 -3.535659E-09
       228  12  1.676928E+06  4.101755E+05  3.877684E+05  1.173187E+06  7.553617E-09  1.045517E-09
       228  13  9.939362E+04 -7.277978E+03  4.366347E+02  1.158690E+06  5.592687E-09 -3.339420E-09
       228  14  1.024674E+05  2.600539E+03  1.807976E+03  2.992312E+05 -9.000458E-09  2.587991E-09
       228  15  1.022441E+05  1.855078E+04  3.630427E+03  1.158567E+06  3.543470E-09  9.602426E-09
       228  16 -5.846076E+06 -1.487850E+06 -1.435853E+06  1.142819E+06 -5.985851E-09 -1.747486E-09
       228  17 -3.657697E+06 -9.324328E+05 -9.045652E+05  2.836832E+05 -6.839246E-09 -1.023277E-08
       228  18 -1.470183E+06 -3.732564E+05 -3.806880E+05  1.143977E+06  3.758019E-09 -6.789900E-10
       228  19  6.077387E+06  1.470738E+06  1.434252E+06  1.174652E+06  2.123376E+04  1.767810E+05
       228  20  3.875619E+06  9.366155E+05  9.071979E+05  3.148536E+05  3.282622E+04  1.144243E+05
       228  21  1.676931E+06  4.101770E+05  3.877739E+05  1.173188E+06  4.514024E+04  2.969368E+04
       228  22  9.940203E+04 -7.244414E+03  4.953910E+02  1.158690E+06 -3.500436E+03  1.767754E+05
       228  23  1.024709E+05  2.614556E+03  1.832517E+03  2.992310E+05 -2.684115E+03  1.142423E+05
       228  24  1.022443E+05  1.855170E+04  3.632039E+03  1.158567E+06 -1.104325E+03  2.925990E+04
       228  25 -5.846067E+06 -1.487816E+06 -1.435792E+06  1.142814E+06 -2.799904E+04  1.767713E+05
       228  26 -3.657692E+06 -9.324185E+05 -9.045381E+05  2.836797E+05 -3.798047E+04  1.140616E+05
       228  27 -1.470181E+06 -3.732549E+05 -3.806822E+05  1.143976E+06 -4.723211E+04  2.882767E+04
       229   1 -1.448666E+06 -3.678579E+05 -3.755519E+05  1.144091E+06 -4.684073E+04  2.818151E+04
       229   2 -3.636008E+06 -9.269548E+05 -8.996382E+05  2.837321E+05 -3.744509E+04  1.134117E+05
       229   3 -5.824559E+06 -1.482613E+06 -1.431350E+06  1.142833E+06 -2.732382E+04  1.761553E+05
       229   4  1.021784E+05  1.858401E+04  3.560717E+03  1.158574E+06 -7.212742E+02  2.861402E+04
       229   5  1.026046E+05  2.706957E+03  1.524681E+03  2.992220E+05 -2.138630E+03  1.135937E+05
       229   6  9.935256E+04 -7.429925E+03 -2.961648E+02  1.158698E+06 -2.796000E+03  1.761612E+05
       229   7  1.655223E+06  4.048495E+05  3.825058E+05  1.173086E+06  4.551334E+04  2.904806E+04
       229   8  3.854054E+06  9.313485E+05  9.016939E+05  3.147825E+05  3.338064E+04  1.137769E+05
       229   9  6.055545E+06  1.465183E+06  1.428245E+06  1.174649E+06  2.196681E+04  1.761684E+05
       229  10 -1.448669E+06 -3.678593E+05 -3.755575E+05  1.144092E+06 -2.809333E-09 -3.671245E-09
       229  11 -3.636013E+06 -9.269690E+05 -8.996650E+05  2.837355E+05 -6.841060E-09  3.321692E-09
       229  12 -5.824569E+06 -1.482647E+06 -1.431410E+06  1.142837E+06 -8.981141E-09  2.346655E-09
       229  13  1.021782E+05  1.858313E+04  3.559177E+03  1.158574E+06  8.218458E-09  2.054054E-09
       229  14  1.026012E+05  2.693099E+03  1.500423E+03  2.992222E+05  3.886010E-09 -7.087724E-09
       229  15  9.934422E+04 -7.463254E+03 -3.545042E+02  1.158698E+06 -4.558355E-09  2.441255E-09
       229  16  1.655220E+06  4.048481E+05  3.825003E+05  1.173085E+06  2.640613E-09 -1.364900E-09
       229  17  3.854049E+06  9.313343E+05  9.016675E+05  3.147795E+05  3.693820E-09 -3.665345E-09
       229  18  6.055536E+06  1.465149E+06  1.428186E+06  1.174646E+06  2.436298E-09  1.475597E-09
       229  19 -1.448666E+06 -3.678579E+05 -3.755519E+05  1.144091E+06  4.684073E+04 -2.818151E+04
       229  20 -3.636008E+06 -9.269548E+05 -8.996382E+05  2.837321E+05  3.744509E+04 -1.134117E+05
       229  21 -5.824559E+06 -1.482613E+06 -1.431350E+06  1.142833E+06  2.732382E+04 -1.761553E+05
       229  22  1.021784E+05  1.858401E+04  3.560717E+03  1.158574E+06  7.212742E+02 -2.861402E+04
       229  23  1.026046E+05  2.706957E+03  1.524681E+03  2.992220E+05  2.138630E+03 -1.135937E+05
       229  24  9.935256E+04 -7.429925E+03 -2.961648E+02  1.158698E+06  2.796000E+03 -1.761612E+05
       229  25  1.655223E+06  4.048495E+05  3.825058E+05  1.173086E+06 -4.551334E+04 -2.904806E+04
       229  26  3.854054E+06  9.313485E+05  9.016939E+05  3.147825E+05 -3.338064E+04 -1.137769E+05
       229  27  6.055545E+06  1.465183E+06  1.428245E+06  1.174649E+06 -2.196681E+04 -1.761684E+05
       230   1 -8.902820E+06 -2.253508E+06 -2.176402E+06  1.143707E+06 -1.171466E+05  2.715626E+05
       230   2 -1.116957E+07 -2.832329E+06 -2.724145E+06  3.536346E+05  3.557172E+04  3.523059E+05
       230   3 -1.326661E+07 -3.411038E+06 -3.334707E+06  1.278636E+06  1.852244E+05  1.221541E+05
       230   4  1.296806E+05 -2.497592E+02  8.849911E+03  1.157436E+06 -5.312381E+03  2.715249E+05
       230   5  2.907815E+04 -3.519603E+04 -1.549206E+04  3.007825E+05  5.153342E+02  3.520848E+05
       230   6  1.211757E+05 -4.296886E+04  7.333792E+02  1.157557E+06  3.833830E+03  1.241928E+05
       230   7  9.237474E+06  2.247022E+06  2.188289E+06  1.171263E+06  1.081617E+05  2.714922E+05
       230   8  1.134372E+07  2.752724E+06  2.684161E+06  2.471016E+05 -3.517960E+04  3.518737E+05
       230   9  1.367391E+07  3.311596E+06  3.322834E+06  1.034179E+06 -1.815310E+05  1.262849E+05
       230  10 -8.902855E+06 -2.253591E+06 -2.176567E+06  1.143733E+06  3.852236E-09  1.399300E-09
       230  11 -1.116960E+07 -2.832462E+06 -2.724381E+06  3.536245E+05  8.206028E-10 -2.922152E-09
       230  12 -1.326665E+07 -3.411064E+06 -3.334801E+06  1.278618E+06 -2.920797E-09  1.673773E-09
       230  13  1.296607E+05 -3.289440E+02  8.711291E+03  1.157437E+06  4.116715E-09  2.650104E-09
       230  14  2.904487E+04 -3.532916E+04 -1.572503E+04  3.007824E+05  1.811780E-09 -1.310269E-08
       230  15  1.211715E+05 -4.298543E+04  7.043676E+02  1.157557E+06 -2.220553E-09  1.653031E-10
       230  16  9.237442E+06  2.246940E+06  2.188129E+06  1.171240E+06 -1.872795E-09  2.490668E-09
       230  17  1.134369E+07  2.752591E+06  2.683926E+06  2.471115E+05 -4.563800E-09 -4.256331E-09
       230  18  1.367387E+07  3.311570E+06  3.322743E+06  1.034198E+06  1.215910E-09  2.847945E-09
       230  19 -8.902820E+06 -2.253508E+06 -2.176402E+06  1.143707E+06  1.171466E+05 -2.715626E+05
       230  20 -1.116957E+07 -2.832329E+06 -2.724145E+06  3.536346E+05 -3.557172E+04 -3.523059E+05
       230  21 -1.326661E+07 -3.411038E+06 -3.334707E+06  1.278636E+06 -1.852244E+05 -1.221541E+05
       230  22  1.296806E+05 -2.497592E+02  8.849911E+03  1.157436E+06  5.312381E+03 -2.715249E+05
       230  23  2.907815E+04 -3.519603E+04 -1.549206E+04  3.007825E+05 -5.153342E+02 -3.520848E+05
       230  24  1.211757E+05 -4.296886E+04  7.333792E+02  1.157557E+06 -3.833830E+03 -1.241928E+05
       230  25  9.237474E+06  2.247022E+06  2.188289E+06  1.171263E+06 -1.081617E+05 -2.714922E+05
       230  26  1.134372E+07  2.752724E+06  2.684161E+06  2.471016E+05  3.517960E+04 -3.518737E+05
       230  27  1.367391E+07  3.311596E+06  3.322834E+06  1.034179E+06  1.815310E+05 -1.262849E+05
       231   1 -2.851460E+06 -1.154755E+07 -2.875912E+06  1.379208E+06 -1.049056E+05 -1.524018E+05
       231   2 -2.132708E+06 -8.588846E+06 -2.078326E+06  2.431128E+05 -2.711452E+05 -1.052944E+04
       231   3 -1.308582E+06 -5.663577E+06 -1.356438E+06  1.419120E+06 -1.571955E+05  1.248688E+05
       231   4  4.114840E+04 -5.122386E+04 -1.251628E+04  1.559414E+06 -1.016513E+05 -5.899928E+03
       231   5  4.239248E+03 -3.821632E+04 -1.309218E+04  4.037092E+05 -2.705307E+05  3.629497E+03
       231   6  9.705914E+04 -4.244841E+04  4.323736E+03  1.558118E+06 -1.609266E+05  6.062588E+03
       231   7  2.923832E+06  1.156654E+07  2.841034E+06  1.742214E+06 -9.834418E+04  1.433537E+05
       231   8  2.135865E+06  8.579903E+06  2.046903E+06  5.660938E+05 -2.699139E+05  1.798527E+04
       231   9  1.500418E+06  5.607774E+06  1.362866E+06  1.698122E+06 -1.646933E+05 -1.138239E+05
       231  10 -2.851478E+06 -1.154758E+07 -2.875977E+06  1.379195E+06 -2.122796E-09 -4.020239E-09
       231  11 -2.132787E+06 -8.588865E+06 -2.078464E+06  2.431105E+05  1.067826E-08 -5.463050E-09
       231  12 -1.308613E+06 -5.663600E+06 -1.356514E+06  1.419136E+06 -7.357481E-09 -8.534460E-09
       231  13  4.113730E+04 -5.122667E+04 -1.253576E+04  1.559414E+06 -1.156916E-08  1.188894E-10
       231  14  4.160654E+03 -3.823598E+04 -1.322974E+04  4.037100E+05  2.422659E-08 -1.510777E-08
       231  15  9.703132E+04 -4.245541E+04  4.274997E+03  1.558119E+06 -3.844546E-10  2.582199E-08
       231  16  2.923816E+06  1.156652E+07  2.840978E+06  1.742225E+06  1.978081E-09 -1.127309E-08
       231  17  2.135787E+06  8.579883E+06  2.046765E+06  5.660977E+05  7.716820E-09 -8.586192E-09
       231  18  1.500386E+06  5.607753E+06  1.362791E+06  1.698107E+06  6.348640E-09  1.770953E-08
       231  19 -2.851460E+06 -1.154755E+07 -2.875912E+06  1.379208E+06  1.049056E+05  1.524018E+05
       231  20 -2.132708E+06 -8.588846E+06 -2.078326E+06  2.431128E+05  2.711452E+05  1.052944E+04
       231  21 -1.308582E+06 -5.663577E+06 -1.356438E+06  1.419120E+06  1.571955E+05 -1.248688E+05
       231  22  4.114840E+04 -5.122386E+04 -1.251628E+04  1.559414E+06  1.016513E+05  5.899928E+03
       231  23  4.239248E+03 -3.821632E+04 -1.309218E+04  4.037092E+05  2.705307E+05 -3.629497E+03
       231  24  9.705914E+04 -4.244841E+04  4.323736E+03  1.558118E+06  1.609266E+05 -6.062588E+03
       231  25  2.923832E+06  1.156654E+07  2.841034E+06  1.742214E+06  9.834418E+04 -1.433537E+05
       231  26  2.135865E+06  8.579903E+06  2.046903E+06  5.660938E+05  2.699139E+05 -1.798527E+04
       231  27  1.500418E+06  5.607774E+06  1.362866E+06  1.698122E+06  1.646933E+05  1.138239E+05
       232   1 -2.608954E+05 -1.484215E+06 -3.416448E+05  1.529580E+06 -4.682252E+04  4.721430E+04
       232   2  4.097636E+05  1.541619E+06  3.706030E+05  4.376861E+05  4.765110E+04  4.148855E+04
       232   3  1.194368E+06  4.433691E+06  1.077220E+06  1.658592E+06  1.371944E+05  3.624153E+04
       232   4  9.294812E+04 -6.179305E+04 -6.691428E+02  1.558995E+06 -4.837656E+04  6.442590E+02
       232   5  2.843440E+04  8.534838E+03  1.907508E+03  4.027314E+05  4.625841E+04 -2.804913E+03
       232   6  7.806063E+04 -6.336411E+04 -2.201374E+03  1.559392E+06  1.359332E+05 -5.760036E+03
       232   7  4.466470E+05  1.362490E+06  3.401714E+05  1.588460E+06 -4.993311E+04 -4.603231E+04
       232   8 -3.530629E+05 -1.522396E+06 -3.669480E+05  3.678458E+05  4.486893E+04 -4.698954E+04
       232   9 -1.039699E+06 -4.541975E+06 -1.083052E+06  1.460743E+06  1.346805E+05 -4.745998E+04
       232  10 -2.608984E+05 -1.484218E+06 -3.416531E+05  1.529582E+06 -3.442474E-10 -1.300630E-08
       232  11  4.097607E+05  1.541616E+06  3.705955E+05  4.376845E+05 -1.620570E-08 -5.223113E-09
       232  12  1.194347E+06  4.433685E+06  1.077182E+06  1.658588E+06  2.036251E-08  6.604622E-09
       232  13  9.294560E+04 -6.179368E+04 -6.735411E+02  1.558995E+06 -1.113322E-09  3.521683E-11
       232  14  2.843210E+04  8.534255E+03  1.903472E+03  4.027315E+05 -2.888186E-08 -1.612449E-08
       232  15  7.804078E+04 -6.336910E+04 -2.236164E+03  1.559392E+06 -2.151627E-08  2.535262E-08
       232  16  4.466438E+05  1.362487E+06  3.401627E+05  1.588458E+06 -2.314770E-10 -1.210775E-08
       232  17 -3.530657E+05 -1.522399E+06 -3.669559E+05  3.678475E+05  1.351668E-08 -1.059178E-08
       232  18 -1.039719E+06 -4.541983E+06 -1.083090E+06  1.460748E+06  1.055499E-08  1.421280E-09
       232  19 -2.608954E+05 -1.484215E+06 -3.416448E+05  1.529580E+06  4.682252E+04 -4.721430E+04
       232  20  4.097636E+05  1.541619E+06  3.706030E+05  4.376861E+05 -4.765110E+04 -4.148855E+04
       232  21  1.194368E+06  4.433691E+06  1.077220E+06  1.658592E+06 -1.371944E+05 -3.624153E+04
       232  22  9.294812E+04 -6.179305E+04 -6.691428E+02  1.558995E+06  4.837656E+04 -6.442590E+02
       232  23  2.843440E+04  8.534838E+03  1.907508E+03  4.027314E+05 -4.625841E+04  2.804913E+03
       232  24  7.806063E+04 -6.336411E+04 -2.201374E+03  1.559392E+06 -1.359332E+05  5.760036E+03
       232  25  4.466470E+05  1.362490E+06  3.401714E+05  1.588460E+06  4.993311E+04  4.603231E+04
       232  26 -3.530629E+05 -1.522396E+06 -3.669480E+05  3.678458E+05 -4.486893E+04  4.698954E+04
       232  27 -1.039699E+06 -4.541975E+06 -1.083052E+06  1.460743E+06 -1.346805E+05  4.745998E+04
       233   1  2.250587E+06  8.708952E+06  2.102056E+06  1.751838E+06  2.604761E+05  1.231938E+05
       233   2  2.873385E+06  1.163353E+07  2.774312E+06  5.809789E+05  3.643760E+05 -3.672170E+04
       233   3  3.660328E+06  1.468553E+07  3.599184E+06  1.717825E+06  1.291917E+05 -1.908409E+05
       233   4  8.698425E+04 -2.760602E+04  8.308697E+03  1.558322E+06  2.567770E+05 -1.179663E+04
       233   5 -1.593245E+04 -7.834110E+04 -2.017665E+04  4.038016E+05  3.654557E+05 -6.490991E+03
       233   6  1.680310E+04 -3.950121E+04 -9.157087E+03  1.559835E+06  1.322197E+05  5.420358E+03
       233   7 -2.082076E+06 -8.694820E+06 -2.090777E+06  1.366931E+06  2.531339E+05 -1.449137E+05
       233   8 -2.915078E+06 -1.166593E+07 -2.824312E+06  2.292558E+05  3.665309E+05  2.317931E+04
       233   9 -3.642656E+06 -1.456999E+07 -3.633247E+06  1.404609E+06  1.351908E+05  1.971142E+05
       233  10  2.250511E+06  8.708918E+06  2.101900E+06  1.751813E+06  7.274992E-09 -9.445650E-09
       233  11  2.873242E+06  1.163349E+07  2.774060E+06  5.809896E+05 -1.436133E-08 -1.200072E-08
       233  12  3.660300E+06  1.468549E+07  3.599085E+06  1.717845E+06 -4.160956E-09 -7.395025E-09
       233  13  8.691341E+04 -2.762388E+04  8.184513E+03  1.558325E+06  2.304663E-08 -7.175028E-10
       233  14 -1.607589E+04 -7.837700E+04 -2.042772E+04  4.038035E+05 -1.490031E-08 -1.192416E-08
       233  15  1.678432E+04 -3.950593E+04 -9.189984E+03  1.559834E+06  3.096195E-10  1.000046E-08
       233  16 -2.082150E+06 -8.694860E+06 -2.090938E+06  1.366961E+06 -5.481217E-09 -1.401700E-08
       233  17 -2.915222E+06 -1.166596E+07 -2.824566E+06  2.292489E+05 -3.438985E-09  1.823605E-09
       233  18 -3.642686E+06 -1.457003E+07 -3.633356E+06  1.404588E+06  3.719719E-09  1.033212E-08
       233  19  2.250587E+06  8.708952E+06  2.102056E+06  1.751838E+06 -2.604761E+05 -1.231938E+05
       233  20  2.873385E+06  1.163353E+07  2.774312E+06  5.809789E+05 -3.643760E+05  3.672170E+04
       233  21  3.660328E+06  1.468553E+07  3.599184E+06  1.717825E+06 -1.291917E+05  1.908409E+05
       233  22  8.698425E+04 -2.760602E+04  8.308697E+03  1.558322E+06 -2.567770E+05  1.179663E+04
       233  23 -1.593245E+04 -7.834110E+04 -2.017665E+04  4.038016E+05 -3.654557E+05  6.490991E+03
       233  24  1.680310E+04 -3.950121E+04 -9.157087E+03  1.559835E+06 -1.322197E+05 -5.420358E+03
       233  25 -2.082076E+06 -8.694820E+06 -2.090777E+06  1.366931E+06 -2.531339E+05  1.449137E+05
       233  26 -2.915078E+06 -1.166593E+07 -2.824312E+06  2.292558E+05 -3.665309E+05 -2.317931E+04
       233  27 -3.642656E+06 -1.456999E+07 -3.633247E+06  1.404609E+06 -1.351908E+05 -1.971142E+05
       234   1  1.369354E+07  3.315954E+06  3.327359E+06  1.032257E+06  1.826502E+05 -1.264512E+05
       234   2  1.136701E+07  2.756835E+06  2.688786E+06  2.465895E+05  3.594724E+04 -3.524137E+05
       234   3  9.265162E+06  2.252307E+06  2.193666E+06  1.169212E+06 -1.077445E+05 -2.721965E+05
       234   4  1.270464E+05 -4.195393E+04  1.947034E+03  1.155468E+06 -2.964413E+03 -1.243563E+05
       234   5  3.456295E+04 -3.542417E+04 -1.507308E+04  3.001639E+05  1.124814E+02 -3.526257E+05
       234   6  1.355476E+05 -3.016192E+02  9.066545E+03  1.155334E+06  5.701519E+03 -2.722282E+05
       234   7 -1.327416E+07 -3.413394E+06 -3.336831E+06  1.276384E+06 -1.845957E+05 -1.223148E+05
       234   8 -1.118152E+07 -2.836924E+06 -2.727960E+06  3.529102E+05 -3.508032E+04 -3.528476E+05
       234   9 -8.918416E+06 -2.258925E+06 -2.181373E+06  1.141556E+06  1.175043E+05 -2.722648E+05
       234  10  1.369350E+07  3.315928E+06  3.327267E+06  1.032275E+06  5.521305E-09 -2.289599E-09
       234  11  1.136698E+07  2.756701E+06  2.688550E+06  2.465996E+05 -4.281823E-10  3.141633E-09
       234  12  9.265130E+06  2.252225E+06  2.193506E+06  1.169189E+06  2.184357E-09  2.935568E-10
       234  13  1.270422E+05 -4.197054E+04  1.917956E+03  1.155468E+06 -3.514876E-09 -8.481250E-10
       234  14  3.452956E+04 -3.555770E+04 -1.530676E+04  3.001640E+05  6.151603E-09  9.178072E-09
       234  15  1.355277E+05 -3.812164E+02  8.927197E+03  1.155336E+06  4.204384E-09  5.520381E-10
       234  16 -1.327420E+07 -3.413419E+06 -3.336924E+06  1.276365E+06 -4.703801E-10  1.571412E-09
       234  17 -1.118156E+07 -2.837058E+06 -2.728196E+06  3.529002E+05 -5.179128E-09  2.968286E-09
       234  18 -8.918451E+06 -2.259008E+06 -2.181539E+06  1.141582E+06 -3.901587E-09  2.447767E-09
       234  19  1.369354E+07  3.315954E+06  3.327359E+06  1.032257E+06 -1.826502E+05  1.264512E+05
       234  20  1.136701E+07  2.756835E+06  2.688786E+06  2.465895E+05 -3.594724E+04  3.524137E+05
       234  21  9.265162E+06  2.252307E+06  2.193666E+06  1.169212E+06  1.077445E+05  2.721965E+05
       234  22  1.270464E+05 -4.195393E+04  1.947034E+03  1.155468E+06  2.964413E+03  1.243563E+05
       234  23  3.456295E+04 -3.542417E+04 -1.507308E+04  3.001639E+05 -1.124814E+02  3.526257E+05
       234  24  1.355476E+05 -3.016192E+02  9.066545E+03  1.155334E+06 -5.701519E+03  2.722282E+05
       234  25 -1.327416E+07 -3.413394E+06 -3.336831E+06  1.276384E+06  1.845957E+05  1.223148E+05
       234  26 -1.118152E+07 -2.836924E+06 -2.727960E+06  3.529102E+05  3.508032E+04  3.528476E+05
       234  27 -8.918416E+06 -2.258925E+06 -2.181373E+06  1.141556E+06 -1.175043E+05  2.722648E+05
       235   1  6.089009E+06  1.472102E+06  1.434972E+06  1.172702E+06 -2.151298E+04 -1.769358E+05
       235   2  3.891517E+06  9.391569E+05  9.091096E+05  3.145713E+05 -3.285034E+04 -1.147279E+05
       235   3  1.696900E+06  4.138257E+05  3.906696E+05  1.171217E+06 -4.491205E+04 -3.015795E+04
       235   4  1.051037E+05 -7.332802E+03 -1.976333E+02  1.156503E+06  3.154762E+03 -1.769293E+05
       235   5  1.082840E+05  2.668626E+03  1.334229E+03  2.987208E+05  2.586184E+03 -1.145442E+05
       235   6  1.079483E+05  1.866828E+04  3.115072E+03  1.156378E+06  1.252148E+03 -2.972165E+04
       235   7 -5.846221E+06 -1.489362E+06 -1.437903E+06  1.140392E+06  2.758733E+04 -1.769242E+05
       235   8 -3.661895E+06 -9.348572E+05 -9.074517E+05  2.829429E+05  3.780860E+04 -1.143617E+05
       235   9 -1.478701E+06 -3.766738E+05 -3.846152E+05  1.141570E+06  4.729872E+04 -2.928691E+04
       235  10  6.089000E+06  1.472068E+06  1.434912E+06  1.172699E+06  6.254167E-09 -4.038954E-10
       235  11  3.891513E+06  9.391425E+05  9.090828E+05  3.145682E+05  5.512725E-09  1.280907E-09
       235  12  1.696898E+06  4.138242E+05  3.906642E+05  1.171216E+06  6.140751E-09 -5.425711E-09
       235  13  1.050953E+05 -7.366424E+03 -2.564872E+02  1.156503E+06 -2.978957E-09  1.829830E-10
       235  14  1.082805E+05  2.654534E+03  1.309559E+03  2.987210E+05 -6.902782E-09 -3.523112E-09
       235  15  1.079480E+05  1.866733E+04  3.113408E+03  1.156378E+06 -4.047609E-09 -7.501356E-09
       235  16 -5.846231E+06 -1.489396E+06 -1.437964E+06  1.140396E+06 -2.406999E-09  1.345887E-09
       235  17 -3.661900E+06 -9.348716E+05 -9.074790E+05  2.829463E+05 -6.860498E-09 -1.046851E-08
       235  18 -1.478704E+06 -3.766753E+05 -3.846210E+05  1.141571E+06 -2.728746E-09  1.643890E-10
       235  19  6.089009E+06  1.472102E+06  1.434972E+06  1.172702E+06  2.151298E+04  1.769358E+05
       235  20  3.891517E+06  9.391569E+05  9.091096E+05  3.145713E+05  3.285034E+04  1.147279E+05
       235  21  1.696900E+06  4.138257E+05  3.906696E+05  1.171217E+06  4.491205E+04  3.015795E+04
       235  22  1.051037E+05 -7.332802E+03 -1.976333E+02  1.156503E+06 -3.154762E+03  1.769293E+05
       235  23  1.082840E+05  2.668626E+03  1.334229E+03  2.987208E+05 -2.586184E+03  1.145442E+05
       235  24  1.079483E+05  1.866828E+04  3.115072E+03  1.156378E+06 -1.252148E+03  2.972165E+04
       235  25 -5.846221E+06 -1.489362E+06 -1.437903E+06  1.140392E+06 -2.758733E+04  1.769242E+05
       235  26 -3.661895E+06 -9.348572E+05 -9.074517E+05  2.829429E+05 -3.780860E+04  1.143617E+05
       235  27 -1.478701E+06 -3.766738E+05 -3.846152E+05  1.141570E+06 -4.729872E+04  2.928691E+04
       236   1 -1.422787E+06 -3.626823E+05 -3.712517E+05  1.141874E+06 -4.649904E+04  2.760619E+04
       236   2 -3.605599E+06 -9.206953E+05 -8.945306E+05  2.830954E+05 -3.673770E+04  1.126726E+05
       236   3 -5.790457E+06 -1.475679E+06 -1.425913E+06  1.140373E+06 -2.625525E+04  1.753266E+05
       236   4  1.077929E+05  1.872101E+04  2.963878E+03  1.156375E+06 -4.758153E+02  2.804163E+04
       236   5  1.086113E+05  2.881466E+03  7.307205E+02  2.987240E+05 -1.489369E+03  1.128582E+05
       236   6  1.049907E+05 -7.617653E+03 -1.773773E+03  1.156502E+06 -1.746543E+03  1.753362E+05
       236   7  1.640516E+06  3.999525E+05  3.770164E+05  1.170904E+06  4.566082E+04  2.847860E+04
       236   8  3.835490E+06  9.254514E+05  8.950114E+05  3.144234E+05  3.397001E+04  1.130451E+05
       236   9  6.032409E+06  1.457898E+06  1.419877E+06  1.172719E+06  2.299578E+04  1.753471E+05
       236  10 -1.422790E+06 -3.626837E+05 -3.712573E+05  1.141875E+06  9.564968E-09  5.191591E-09
       236  11 -3.605604E+06 -9.207093E+05 -8.945570E+05  2.830988E+05 -3.517261E-09 -3.186176E-10
       236  12 -5.790466E+06 -1.475713E+06 -1.425972E+06  1.140377E+06  3.408159E-09 -3.148350E-09
       236  13  1.077927E+05  1.872016E+04  2.962400E+03  1.156375E+06  3.903145E-09 -1.756674E-09
       236  14  1.086079E+05  2.867787E+03  7.067796E+02  2.987242E+05 -4.757021E-09 -6.232499E-10
       236  15  1.049824E+05 -7.650669E+03 -1.831557E+03  1.156503E+06 -4.526375E-09  1.590488E-10
       236  16  1.640513E+06  3.999511E+05  3.770110E+05  1.170903E+06 -1.318778E-08 -4.174405E-09
       236  17  3.835486E+06  9.254373E+05  8.949853E+05  3.144204E+05 -6.157440E-09 -6.251461E-09
       236  18  6.032400E+06  1.457865E+06  1.419818E+06  1.172716E+06 -4.570985E-09 -3.119687E-09
       236  19 -1.422787E+06 -3.626823E+05 -3.712517E+05  1.141874E+06  4.649904E+04 -2.760619E+04
       236  20 -3.605599E+06 -9.206953E+05 -8.945306E+05  2.830954E+05  3.673770E+04 -1.126726E+05
       236  21 -5.790457E+06 -1.475679E+06 -1.425913E+06  1.140373E+06  2.625525E+04 -1.753266E+05
       236  22  1.077929E+05  1.872101E+04  2.963878E+03  1.156375E+06  4.758153E+02 -2.804163E+04
       236  23  1.086113E+05  2.881466E+03  7.307205E+02  2.987240E+05  1.489369E+03 -1.128582E+05
       236  24  1.049907E+05 -7.617653E+03 -1.773773E+03  1.156502E+06  1.746543E+03 -1.753362E+05
       236  25  1.640516E+06  3.999525E+05  3.770164E+05  1.170904E+06 -4.566082E+04 -2.847860E+04
       236  26  3.835490E+06  9.254514E+05  8.950114E+05  3.144234E+05 -3.397001E+04 -1.130451E+05
       236  27  6.032409E+06  1.457898E+06  1.419877E+06  1.172719E+06 -2.299578E+04 -1.753471E+05
       237   1 -8.863436E+06 -2.244333E+06 -2.169908E+06  1.140176E+06 -1.155367E+05  2.704909E+05
       237   2 -1.112449E+07 -2.821606E+06 -2.717537E+06  3.520230E+05  3.820015E+04  3.510925E+05
       237   3 -1.321927E+07 -3.404877E+06 -3.330549E+06  1.275918E+06  1.889241E+05  1.217331E+05
       237   4  1.347907E+05  3.223668E+02  7.003601E+03  1.155338E+06 -3.978456E+03  2.704682E+05
       237   5  3.596167E+04 -3.411444E+04 -1.820791E+04  3.001638E+05  3.323497E+03  3.508682E+05
       237   6  1.263317E+05 -4.752436E+04 -5.714155E+03  1.155406E+06  8.173707E+03  1.237336E+05
       237   7  9.207737E+06  2.239038E+06  2.178147E+06  1.170616E+06  1.092091E+05  2.704510E+05
       237   8  1.131162E+07  2.744228E+06  2.672183E+06  2.474923E+05 -3.218660E+04  3.506536E+05
       237   9  1.363584E+07  3.296409E+06  3.305865E+06  1.032607E+06 -1.765249E+05  1.257873E+05
       237  10 -8.863470E+06 -2.244416E+06 -2.170071E+06  1.140202E+06  8.558563E-10  1.756772E-09
       237  11 -1.112453E+07 -2.821739E+06 -2.717771E+06  3.520121E+05  2.205368E-09  8.153119E-09
       237  12 -1.321931E+07 -3.404903E+06 -3.330645E+06  1.275899E+06  4.054957E-09  8.344010E-09
       237  13  1.347711E+05  2.438012E+02  6.866084E+03  1.155338E+06 -8.744536E-09 -8.116094E-10
       237  14  3.592860E+04 -3.424665E+04 -1.843929E+04  3.001629E+05  8.213126E-09 -3.976623E-09
       237  15  1.263275E+05 -4.754082E+04 -5.743046E+03  1.155405E+06  2.160854E-09 -7.237027E-09
       237  16  9.207704E+06  2.238956E+06  2.177987E+06  1.170593E+06 -5.821780E-10  2.439872E-10
       237  17  1.131158E+07  2.744096E+06  2.671950E+06  2.475013E+05 -9.324948E-09 -3.028986E-09
       237  18  1.363580E+07  3.296384E+06  3.305778E+06  1.032625E+06  3.165192E-09 -1.294257E-08
       237  19 -8.863436E+06 -2.244333E+06 -2.169908E+06  1.140176E+06  1.155367E+05 -2.704909E+05
       237  20 -1.112449E+07 -2.821606E+06 -2.717537E+06  3.520230E+05 -3.820015E+04 -3.510925E+05
       237  21 -1.321927E+07 -3.404877E+06 -3.330549E+06  1.275918E+06 -1.889241E+05 -1.217331E+05
       237  22  1.347907E+05  3.223668E+02  7.003601E+03  1.155338E+06  3.978456E+03 -2.704682E+05
       237  23  3.596167E+04 -3.411444E+04 -1.820791E+04  3.001638E+05 -3.323497E+03 -3.508682E+05
       237  24  1.263317E+05 -4.752436E+04 -5.714155E+03  1.155406E+06 -8.173707E+03 -1.237336E+05
       237  25  9.207737E+06  2.239038E+06  2.178147E+06  1.170616E+06 -1.092091E+05 -2.704510E+05
       237  26  1.131162E+07  2.744228E+06  2.672183E+06  2.474923E+05  3.218660E+04 -3.506536E+05
       237  27  1.363584E+07  3.296409E+06  3.305865E+06  1.032607E+06  1.765249E+05 -1.257873E+05
       238   1 -2.913683E+06 -1.178526E+07 -2.939673E+06  1.399682E+06 -1.071354E+05 -1.549959E+05
       238   2 -2.180649E+06 -8.783465E+06 -2.130308E+06  2.449772E+05 -2.771512E+05 -7.727450E+03
       238   3 -1.345031E+06 -5.814805E+06 -1.400572E+06  1.436738E+06 -1.613712E+05  1.329332E+05
       238   4  3.842219E+04 -5.396060E+04 -1.735592E+04  1.582529E+06 -1.038068E+05 -5.359793E+03
       238   5  4.511633E+03 -4.108690E+04 -1.848736E+04  4.096333E+05 -2.765090E+05  6.997438E+03
       238   6  9.808632E+04 -4.485384E+04 -3.683515E+03  1.581150E+06 -1.651933E+05  1.209117E+04
       238   7  2.980189E+06  1.180382E+07  2.894707E+06  1.768054E+06 -1.004238E+05  1.471452E+05
       238   8  2.184109E+06  8.771855E+06  2.087856E+06  5.761633E+05 -2.758644E+05  2.193142E+04
       238   9  1.538800E+06  5.755756E+06  1.390865E+06  1.726636E+06 -1.690531E+05 -1.098791E+05
       238  10 -2.913701E+06 -1.178529E+07 -2.939740E+06  1.399669E+06  2.755771E-09 -3.879317E-09
       238  11 -2.180731E+06 -8.783486E+06 -2.130452E+06  2.449755E+05  8.864243E-09  3.552876E-08
       238  12 -1.345064E+06 -5.814831E+06 -1.400654E+06  1.436756E+06 -1.802876E-08 -8.752565E-10
       238  13  3.841061E+04 -5.396352E+04 -1.737621E+04  1.582529E+06 -6.648996E-09  4.729215E-10
       238  14  4.429517E+03 -4.110748E+04 -1.863114E+04  4.096349E+05  2.268620E-08  2.723127E-08
       238  15  9.805697E+04 -4.486133E+04 -3.735087E+03  1.581152E+06 -1.051337E-08 -1.717437E-09
       238  16  2.980173E+06  1.180379E+07  2.894648E+06  1.768066E+06 -3.462068E-09  9.614416E-09
       238  17  2.184027E+06  8.771834E+06  2.087712E+06  5.761682E+05  5.917616E-09  5.434262E-09
       238  18  1.538766E+06  5.755736E+06  1.390789E+06  1.726621E+06  3.480342E-09  5.034737E-09
       238  19 -2.913683E+06 -1.178526E+07 -2.939673E+06  1.399682E+06  1.071354E+05  1.549959E+05
       238  20 -2.180649E+06 -8.783465E+06 -2.130308E+06  2.449772E+05  2.771512E+05  7.727450E+03
       238  21 -1.345031E+06 -5.814805E+06 -1.400572E+06  1.436738E+06  1.613712E+05 -1.329332E+05
       238  22  3.842219E+04 -5.396060E+04 -1.735592E+04  1.582529E+06  1.038068E+05  5.359793E+03
       238  23  4.511633E+03 -4.108690E+04 -1.848736E+04  4.096333E+05  2.765090E+05 -6.997438E+03
       238  24  9.808632E+04 -4.485384E+04 -3.683515E+03  1.581150E+06  1.651933E+05 -1.209117E+04
       238  25  2.980189E+06  1.180382E+07  2.894707E+06  1.768054E+06  1.004238E+05 -1.471452E+05
       238  26  2.184109E+06  8.771855E+06  2.087856E+06  5.761633E+05  2.758644E+05 -2.193142E+04
       238  27  1.538800E+06  5.755756E+06  1.390865E+06  1.726636E+06  1.690531E+05  1.098791E+05
       239   1 -2.802577E+05 -1.575607E+06 -3.730400E+05  1.552039E+06 -4.915057E+04  5.529186E+04
       239   2  4.016549E+05  1.498421E+06  3.434654E+05  4.421030E+05  4.688291E+04  5.818683E+04
       239   3  1.183960E+06  4.430016E+06  1.044390E+06  1.679484E+06  1.381548E+05  6.159321E+04
       239   4  9.522848E+04 -6.590457E+04 -1.103007E+04  1.581966E+06 -5.073730E+04  8.149770E+03
       239   5  3.119405E+04  8.903200E+03 -1.475884E+04  4.086441E+05  4.545440E+04  1.321526E+04
       239   6  6.774857E+04 -6.746576E+04 -3.507947E+04  1.582760E+06  1.368532E+05  1.876644E+04
       239   7  4.705515E+05  1.445895E+06  3.508267E+05  1.611946E+06 -5.232651E+04 -3.910680E+04
       239   8 -3.394255E+05 -1.478582E+06 -3.731335E+05  3.752491E+05  4.402898E+04 -3.164899E+04
       239   9 -1.049917E+06 -4.546500E+06 -1.115978E+06  1.486568E+06  1.355600E+05 -2.375327E+04
       239  10 -2.802612E+05 -1.575611E+06 -3.730503E+05  1.552042E+06 -7.200124E-09  8.773360E-10
       239  11  4.016516E+05  1.498417E+06  3.434549E+05  4.421008E+05  1.475798E-09  4.757381E-08
       239  12  1.183939E+06  4.430007E+06  1.044347E+06  1.679477E+06  1.172280E-08 -3.570710E-09
       239  13  9.522570E+04 -6.590533E+04 -1.103504E+04  1.581967E+06  2.665755E-10  3.296278E-10
       239  14  3.119178E+04  8.902458E+03 -1.476305E+04  4.086436E+05 -1.013747E-08  3.397379E-08
       239  15  6.772837E+04 -6.747116E+04 -3.511529E+04  1.582758E+06 -1.900205E-08 -1.535125E-09
       239  16  4.705482E+05  1.445893E+06  3.508187E+05  1.611945E+06  7.811562E-09  7.959077E-09
       239  17 -3.394278E+05 -1.478584E+06 -3.731390E+05  3.752502E+05  1.878230E-08  2.037337E-09
       239  18 -1.049937E+06 -4.546505E+06 -1.116014E+06  1.486571E+06  9.611084E-09  5.491928E-09
       239  19 -2.802577E+05 -1.575607E+06 -3.730400E+05  1.552039E+06  4.915057E+04 -5.529186E+04
       239  20  4.016549E+05  1.498421E+06  3.434654E+05  4.421030E+05 -4.688291E+04 -5.818683E+04
       239  21  1.183960E+06  4.430016E+06  1.044390E+06  1.679484E+06 -1.381548E+05 -6.159321E+04
       239  22  9.522848E+04 -6.590457E+04 -1.103007E+04  1.581966E+06  5.073730E+04 -8.149770E+03
       239  23  3.119405E+04  8.903200E+03 -1.475884E+04  4.086441E+05 -4.545440E+04 -1.321526E+04
       239  24  6.774857E+04 -6.746576E+04 -3.507947E+04  1.582760E+06 -1.368532E+05 -1.876644E+04
       239  25  4.705515E+05  1.445895E+06  3.508267E+05  1.611946E+06  5.232651E+04  3.910680E+04
       239  26 -3.394255E+05 -1.478582E+06 -3.731335E+05  3.752491E+05 -4.402898E+04  3.164899E+04
       239  27 -1.049917E+06 -4.546500E+06 -1.115978E+06  1.486568E+06 -1.355600E+05  2.375327E+04
       240   1  2.275478E+06  8.760562E+06  2.077369E+06  1.793153E+06  2.632687E+05  1.557857E+05
       240   2  2.916604E+06  1.174975E+07  2.735525E+06  5.806652E+05  3.691923E+05  2.902863E+04
       240   3  3.582483E+06  1.482808E+07  3.490252E+06  1.711006E+06  1.319146E+05 -9.159844E+04
       240   4  9.511390E+04 -3.884799E+04 -3.168673E+04  1.580904E+06  2.594657E+05  1.885611E+04
       240   5  1.367902E+03 -6.984936E+04 -8.442505E+04  4.097185E+05  3.702791E+05  5.875663E+04
       240   6 -9.789343E+04 -5.105579E+04 -1.555424E+05  1.584409E+06  1.349953E+05  1.054416E+05
       240   7 -2.090772E+06 -8.767914E+06 -2.146159E+06  1.371047E+06  2.557271E+05 -1.161621E+05
       240   8 -2.923882E+06 -1.176288E+07 -2.914199E+06  2.412947E+05  3.713623E+05  8.791926E+04
       240   9 -3.794553E+06 -1.473160E+07 -3.817416E+06  1.459842E+06  1.380391E+05  2.978262E+05
       240  10  2.275398E+06  8.760518E+06  2.077195E+06  1.793120E+06 -4.240432E-09 -1.209230E-09
       240  11  2.916458E+06  1.174971E+07  2.735267E+06  5.806567E+05 -1.298612E-09  3.010819E-08
       240  12  3.582462E+06  1.482807E+07  3.490203E+06  1.711015E+06  3.266031E-09 -4.163573E-09
       240  13  9.504154E+04 -3.886642E+04 -3.181383E+04  1.580900E+06  2.003443E-08 -1.114092E-09
       240  14  1.219760E+03 -6.988985E+04 -8.468912E+04  4.097010E+05 -6.490984E-09  2.113642E-08
       240  15 -9.791593E+04 -5.107257E+04 -1.555974E+05  1.584397E+06  4.142009E-09 -1.419667E-09
       240  16 -2.090846E+06 -8.767946E+06 -2.146308E+06  1.371071E+06 -2.115665E-09  7.448174E-09
       240  17 -2.924032E+06 -1.176293E+07 -2.914473E+06  2.412682E+05 -8.760156E-10  3.478211E-09
       240  18 -3.794598E+06 -1.473170E+07 -3.817622E+06  1.459809E+06  5.004804E-09  4.812797E-09
       240  19  2.275478E+06  8.760562E+06  2.077369E+06  1.793153E+06 -2.632687E+05 -1.557857E+05
       240  20  2.916604E+06  1.174975E+07  2.735525E+06  5.806652E+05 -3.691923E+05 -2.902863E+04
       240  21  3.582483E+06  1.482808E+07  3.490252E+06  1.711006E+06 -1.319146E+05  9.159844E+04
       240  22  9.511390E+04 -3.884799E+04 -3.168673E+04  1.580904E+06 -2.594657E+05 -1.885611E+04
       240  23  1.367902E+03 -6.984936E+04 -8.442505E+04  4.097185E+05 -3.702791E+05 -5.875663E+04
       240  24 -9.789343E+04 -5.105579E+04 -1.555424E+05  1.584409E+06 -1.349953E+05 -1.054416E+05
       240  25 -2.090772E+06 -8.767914E+06 -2.146159E+06  1.371047E+06 -2.557271E+05  1.161621E+05
       240  26 -2.923882E+06 -1.176288E+07 -2.914199E+06  2.412947E+05 -3.713623E+05 -8.791926E+04
       240  27 -3.794553E+06 -1.473160E+07 -3.817416E+06  1.459842E+06 -1.380391E+05 -2.978262E+05
       241   1  1.427262E+07  3.458470E+06  3.464167E+06  1.089568E+06  1.724525E+05 -1.323956E+05
       241   2  1.181445E+07  2.892843E+06  2.804994E+06  2.658798E+05  2.597742E+04 -3.694864E+05
       241   3  9.590850E+06  2.360813E+06  2.286699E+06  1.247116E+06 -1.175356E+05 -2.848481E+05
       241   4  2.535416E+04 -6.702907E+04 -2.716753E+04  1.221555E+06 -2.219072E+04 -1.302866E+05
       241   5 -7.051027E+04 -3.485506E+04 -3.007159E+04  3.178947E+05 -1.130290E+04 -3.697586E+05
       241   6  3.478058E+04  3.247801E+03  3.148865E+02  1.221610E+06  2.018037E+03 -2.847591E+05
       241   7 -1.403970E+07 -3.607445E+06 -3.533239E+06  1.350926E+06 -2.124464E+05 -1.282392E+05
       241   8 -1.182752E+07 -2.972716E+06 -2.875064E+06  3.690537E+05 -4.788153E+04 -3.700419E+05
       241   9 -9.438423E+06 -2.360906E+06 -2.292467E+06  1.196353E+06  1.197601E+05 -2.846789E+05
       241  10  1.427258E+07  3.458443E+06  3.464079E+06  1.089586E+06 -5.498530E-09  3.264240E-11
       241  11  1.181441E+07  2.892697E+06  2.804736E+06  2.658875E+05 -5.807496E-09 -6.093519E-09
       241  12  9.590814E+06  2.360723E+06  2.286521E+06  1.247089E+06 -2.708249E-09  3.156099E-09
       241  13  2.534909E+04 -6.704742E+04 -2.720033E+04  1.221553E+06 -7.651750E-09  1.075051E-08
       241  14 -7.054710E+04 -3.500191E+04 -3.032875E+04  3.178914E+05  7.989245E-09  4.797569E-10
       241  15  3.475880E+04  3.160723E+03  1.624912E+02  1.221610E+06  7.710321E-09  1.086422E-09
       241  16 -1.403976E+07 -3.607475E+06 -3.533357E+06  1.350903E+06  8.917986E-10 -3.437781E-09
       241  17 -1.182756E+07 -2.972863E+06 -2.875326E+06  3.690394E+05  1.368368E-08  8.091498E-10
       241  18 -9.438461E+06 -2.360997E+06 -2.292647E+06  1.196381E+06 -2.685695E-09  3.232596E-09
       241  19  1.427262E+07  3.458470E+06  3.464167E+06  1.089568E+06 -1.724525E+05  1.323956E+05
       241  20  1.181445E+07  2.892843E+06  2.804994E+06  2.658798E+05 -2.597742E+04  3.694864E+05
       241  21  9.590850E+06  2.360813E+06  2.286699E+06  1.247116E+06  1.175356E+05  2.848481E+05
       241  22  2.535416E+04 -6.702907E+04 -2.716753E+04  1.221555E+06  2.219072E+04  1.302866E+05
       241  23 -7.051027E+04 -3.485506E+04 -3.007159E+04  3.178947E+05  1.130290E+04  3.697586E+05
       241  24  3.478058E+04  3.247801E+03  3.148865E+02  1.221610E+06 -2.018037E+03  2.847591E+05
       241  25 -1.403970E+07 -3.607445E+06 -3.533239E+06  1.350926E+06  2.124464E+05  1.282392E+05
       241  26 -1.182752E+07 -2.972716E+06 -2.875064E+06  3.690537E+05  4.788153E+04  3.700419E+05
       241  27 -9.438423E+06 -2.360906E+06 -2.292467E+06  1.196353E+06 -1.197601E+05  2.846789E+05
       242   1  6.229484E+06  1.531553E+06  1.484324E+06  1.244911E+06 -2.554335E+04 -1.842947E+05
       242   2  3.906423E+06  9.691554E+05  9.293717E+05  3.352487E+05 -3.382108E+04 -1.182603E+05
       242   3  1.580398E+06  4.133713E+05  3.783128E+05  1.240789E+06 -4.292524E+04 -2.871242E+04
       242   4  2.595700E+03 -7.937044E+03 -9.042067E+03  1.223546E+06  7.121806E+02 -1.842577E+05
       242   5  9.113803E+03  4.340280E+03 -5.819203E+03  3.155003E+05  3.730318E+03 -1.180182E+05
       242   6  5.698588E+03  2.155439E+04 -6.209121E+03  1.223378E+06  5.890115E+03 -2.818322E+04
       242   7 -6.189013E+06 -1.550236E+06 -1.505155E+06  1.202308E+06  2.670739E+04 -1.842224E+05
       242   8 -3.874341E+06 -9.615758E+05 -9.420825E+05  2.958459E+05  4.104798E+04 -1.177778E+05
       242   9 -1.566739E+06 -3.704437E+05 -3.909029E+05  1.206003E+06  5.458215E+04 -2.765599E+04
       242  10  6.229474E+06  1.531516E+06  1.484259E+06  1.244908E+06  9.582974E-09 -9.131390E-12
       242  11  3.906418E+06  9.691401E+05  9.293433E+05  3.352455E+05  3.349423E-09  2.158226E-09
       242  12  1.580396E+06  4.133699E+05  3.783078E+05  1.240788E+06  1.155293E-08  8.457776E-10
       242  13  2.586584E+03 -7.973502E+03 -9.105871E+03  1.223546E+06  1.049424E-08  4.276543E-09
       242  14  9.110048E+03  4.325319E+03 -5.845404E+03  3.155007E+05 -3.294742E-09  9.373854E-09
       242  15  5.698337E+03  2.155352E+04 -6.210680E+03  1.223378E+06  7.143571E-09 -4.189594E-09
       242  16 -6.189023E+06 -1.550273E+06 -1.505220E+06  1.202312E+06 -8.644847E-09  6.281302E-10
       242  17 -3.874346E+06 -9.615912E+05 -9.421118E+05  2.958498E+05 -4.757377E-09  1.223972E-08
       242  18 -1.566742E+06 -3.704454E+05 -3.909099E+05  1.206004E+06  4.459135E-10  3.894606E-09
       242  19  6.229484E+06  1.531553E+06  1.484324E+06  1.244911E+06  2.554335E+04  1.842947E+05
       242  20  3.906423E+06  9.691554E+05  9.293717E+05  3.352487E+05  3.382108E+04  1.182603E+05
       242  21  1.580398E+06  4.133713E+05  3.783128E+05  1.240789E+06  4.292524E+04  2.871242E+04
       242  22  2.595700E+03 -7.937044E+03 -9.042067E+03  1.223546E+06 -7.121806E+02  1.842577E+05
       242  23  9.113803E+03  4.340280E+03 -5.819203E+03  3.155003E+05 -3.730318E+03  1.180182E+05
       242  24  5.698588E+03  2.155439E+04 -6.209121E+03  1.223378E+06 -5.890115E+03  2.818322E+04
       242  25 -6.189013E+06 -1.550236E+06 -1.505155E+06  1.202308E+06 -2.670739E+04  1.842224E+05
       242  26 -3.874341E+06 -9.615758E+05 -9.420825E+05  2.958459E+05 -4.104798E+04  1.177778E+05
       242  27 -1.566739E+06 -3.704437E+05 -3.909029E+05  1.206003E+06 -5.458215E+04  2.765599E+04
       243   1 -1.722618E+06 -4.072898E+05 -4.300854E+05  1.203525E+06 -4.301134E+04  3.246505E+04
       243   2 -4.029143E+06 -9.991068E+05 -9.902964E+05  2.962214E+05 -2.387130E+04  1.226142E+05
       243   3 -6.344532E+06 -1.600780E+06 -1.568752E+06  1.205549E+06 -3.918274E+03  1.888196E+05
       243   4  5.180680E+03  2.338004E+04 -7.926752E+03  1.223345E+06  5.759252E+03  3.299042E+04
       243   5  9.371407E+03  5.451407E+03 -1.654703E+04  3.155118E+05  1.344333E+04  1.228458E+05
       243   6  1.953450E+03 -1.978072E+04 -3.500418E+04  1.223596E+06  2.201290E+04  1.888423E+05
       243   7  1.735711E+06  4.538311E+05  4.140231E+05  1.243210E+06  5.466554E+04  3.351809E+04
       243   8  4.062871E+06  1.008819E+06  9.560420E+05  3.348967E+05  5.100076E+04  1.230790E+05
       243   9  6.385510E+06  1.558266E+06  1.495857E+06  1.241741E+06  4.820935E+04  1.888665E+05
       243  10 -1.722620E+06 -4.072914E+05 -4.300909E+05  1.203526E+06  1.641763E-08  1.113062E-08
       243  11 -4.029148E+06 -9.991231E+05 -9.903257E+05  2.962238E+05  3.332781E-09 -4.399415E-09
       243  12 -6.344542E+06 -1.600818E+06 -1.568819E+06  1.205550E+06 -9.615862E-09  1.796118E-09
       243  13  5.180353E+03  2.337886E+04 -7.928858E+03  1.223345E+06  1.747436E-08 -2.256125E-09
       243  14  9.367163E+03  5.435154E+03 -1.657572E+04  3.155105E+05  9.789685E-09 -2.765217E-09
       243  15  1.943369E+03 -1.981913E+04 -3.507207E+04  1.223592E+06 -2.110851E-09  2.074511E-10
       243  16  1.735707E+06  4.538291E+05  4.140154E+05  1.243209E+06 -5.754568E-09 -5.029178E-09
       243  17  4.062864E+06  1.008802E+06  9.560087E+05  3.348917E+05  9.106125E-10 -8.778603E-09
       243  18  6.385497E+06  1.558227E+06  1.495786E+06  1.241734E+06  9.446981E-09  3.001396E-09
       243  19 -1.722618E+06 -4.072898E+05 -4.300854E+05  1.203525E+06  4.301134E+04 -3.246505E+04
       243  20 -4.029143E+06 -9.991068E+05 -9.902964E+05  2.962214E+05  2.387130E+04 -1.226142E+05
       243  21 -6.344532E+06 -1.600780E+06 -1.568752E+06  1.205549E+06  3.918274E+03 -1.888196E+05
       243  22  5.180680E+03  2.338004E+04 -7.926752E+03  1.223345E+06 -5.759252E+03 -3.299042E+04
       243  23  9.371407E+03  5.451407E+03 -1.654703E+04  3.155118E+05 -1.344333E+04 -1.228458E+05
       243  24  1.953450E+03 -1.978072E+04 -3.500418E+04  1.223596E+06 -2.201290E+04 -1.888423E+05
       243  25  1.735711E+06  4.538311E+05  4.140231E+05  1.243210E+06 -5.466554E+04 -3.351809E+04
       243  26  4.062871E+06  1.008819E+06  9.560420E+05  3.348967E+05 -5.100076E+04 -1.230790E+05
       243  27  6.385510E+06  1.558266E+06  1.495857E+06  1.241741E+06 -4.820935E+04 -1.888665E+05
       244   1 -9.600252E+06 -2.395705E+06 -2.362713E+06  1.185440E+06 -9.299084E+04  2.897397E+05
       244   2 -1.197404E+07 -2.997881E+06 -2.966818E+06  3.815892E+05  1.051375E+05  3.746208E+05
       244   3 -1.420014E+07 -3.747335E+06 -3.696541E+06  1.385570E+06  2.998881E+05  1.286505E+05
       244   4  2.794640E+04  7.415207E+03 -3.221017E+04  1.221612E+06  2.571189E+04  2.897776E+05
       244   5 -6.329282E+04 -2.120023E+04 -8.428309E+04  3.179842E+05  6.830904E+04  3.743382E+05
       244   6  1.839255E+04 -1.667005E+05 -1.515197E+05  1.220462E+06  1.083005E+05  1.307848E+05
       244   7  9.741757E+06  2.403731E+06  2.291682E+06  1.258212E+06  1.462685E+05  2.898290E+05
       244   8  1.197878E+07  2.945054E+06  2.788061E+06  2.532828E+05  3.075620E+04  3.740684E+05
       244   9  1.442315E+07  3.398709E+06  3.378436E+06  1.051901E+06 -8.777317E+04  1.330029E+05
       244  10 -9.600284E+06 -2.395798E+06 -2.362887E+06  1.185462E+06 -3.024624E-11  3.475603E-09
       244  11 -1.197409E+07 -2.998035E+06 -2.967103E+06  3.815572E+05 -1.859992E-09 -3.319466E-09
       244  12 -1.420024E+07 -3.747378E+06 -3.696745E+06  1.385538E+06 -1.698942E-09 -7.841937E-09
       244  13  2.792317E+04  7.324879E+03 -3.236915E+04  1.221606E+06  4.549200E-09 -1.872322E-10
       244  14 -6.333543E+04 -2.135195E+04 -8.455514E+04  3.179636E+05  1.458652E-08 -3.653820E-09
       244  15  1.837540E+04 -1.667220E+05 -1.515738E+05  1.220451E+06 -8.738041E-09  3.130561E-09
       244  16  9.741712E+06  2.403636E+06  2.291485E+06  1.258178E+06  1.884606E-09  2.433164E-09
       244  17  1.197874E+07  2.944903E+06  2.787796E+06  2.532736E+05 -4.068369E-09  8.924244E-11
       244  18  1.442313E+07  3.398688E+06  3.378389E+06  1.051910E+06  2.722102E-09 -1.224902E-08
       244  19 -9.600252E+06 -2.395705E+06 -2.362713E+06  1.185440E+06  9.299084E+04 -2.897397E+05
       244  20 -1.197404E+07 -2.997881E+06 -2.966818E+06  3.815892E+05 -1.051375E+05 -3.746208E+05
       244  21 -1.420014E+07 -3.747335E+06 -3.696541E+06  1.385570E+06 -2.998881E+05 -1.286505E+05
       244  22  2.794640E+04  7.415207E+03 -3.221017E+04  1.221612E+06 -2.571189E+04 -2.897776E+05
       244  23 -6.329282E+04 -2.120023E+04 -8.428309E+04  3.179842E+05 -6.830904E+04 -3.743382E+05
       244  24  1.839255E+04 -1.667005E+05 -1.515197E+05  1.220462E+06 -1.083005E+05 -1.307848E+05
       244  25  9.741757E+06  2.403731E+06  2.291682E+06  1.258212E+06 -1.462685E+05 -2.898290E+05
       244  26  1.197878E+07  2.945054E+06  2.788061E+06  2.532828E+05 -3.075620E+04 -3.740684E+05
       244  27  1.442315E+07  3.398709E+06  3.378436E+06  1.051901E+06  8.777317E+04 -1.330029E+05
       245   1 -3.144100E+06 -1.265667E+07 -3.169402E+06  1.503262E+06 -1.157616E+05 -1.573500E+05
       245   2 -2.365349E+06 -9.433192E+06 -2.306938E+06  2.601628E+05 -3.000033E+05  9.174020E+02
       245   3 -1.461755E+06 -6.234735E+06 -1.525223E+06  1.542274E+06 -1.752341E+05  1.519278E+05
       245   4  4.923020E+04  2.622505E+04 -8.484455E+03  1.705092E+06 -1.121168E+05  4.606149E+03
       245   5  2.461322E+03  3.539654E+04 -1.880931E+04  4.429838E+05 -2.992673E+05  1.715727E+04
       245   6  1.075061E+05  3.683694E+04 -6.576717E+03  1.703703E+06 -1.794881E+05  2.169639E+04
       245   7  3.230472E+06  1.285707E+07  3.140441E+06  1.910120E+06 -1.084069E+05  1.699213E+05
       245   8  2.363746E+06  9.586804E+06  2.262891E+06  6.280600E+05 -2.985284E+05  3.364622E+04
       245   9  1.673928E+06  6.344642E+06  1.509303E+06  1.866432E+06 -1.837875E+05 -1.098579E+05
       245  10 -3.144122E+06 -1.265670E+07 -3.169475E+06  1.503247E+06  8.608130E-09  6.494475E-09
       245  11 -2.365446E+06 -9.433216E+06 -2.307108E+06  2.601630E+05  1.776486E-08  1.710962E-08
       245  12 -1.461794E+06 -6.234768E+06 -1.525325E+06  1.542296E+06 -2.787852E-08  5.159503E-09
       245  13  4.921669E+04  2.622165E+04 -8.508122E+03  1.705092E+06  3.152808E-09  2.050247E-08
       245  14  2.365060E+03  3.537217E+04 -1.897819E+04  4.429880E+05  3.953842E-08 -5.243461E-10
       245  15  1.074714E+05  3.682777E+04 -6.638184E+03  1.703706E+06 -1.792763E-08 -6.906253E-09
       245  16  3.230452E+06  1.285703E+07  3.140365E+06  1.910135E+06  1.113185E-08 -3.268288E-08
       245  17  2.363650E+06  9.586779E+06  2.262722E+06  6.280681E+05  2.146555E-08  3.261985E-09
       245  18  1.673889E+06  6.344620E+06  1.509218E+06  1.866416E+06  3.390046E-09 -3.027282E-08
       245  19 -3.144100E+06 -1.265667E+07 -3.169402E+06  1.503262E+06  1.157616E+05  1.573500E+05
       245  20 -2.365349E+06 -9.433192E+06 -2.306938E+06  2.601628E+05  3.000033E+05 -9.174020E+02
       245  21 -1.461755E+06 -6.234735E+06 -1.525223E+06  1.542274E+06  1.752341E+05 -1.519278E+05
       245  22  4.923020E+04  2.622505E+04 -8.484455E+03  1.705092E+06  1.121168E+05 -4.606149E+03
       245  23  2.461322E+03  3.539654E+04 -1.880931E+04  4.429838E+05  2.992673E+05 -1.715727E+04
       245  24  1.075061E+05  3.683694E+04 -6.576717E+03  1.703703E+06  1.794881E+05 -2.169639E+04
       245  25  3.230472E+06  1.285707E+07  3.140441E+06  1.910120E+06  1.084069E+05 -1.699213E+05
       245  26  2.363746E+06  9.586804E+06  2.262891E+06  6.280600E+05  2.985284E+05 -3.364622E+04
       245  27  1.673928E+06  6.344642E+06  1.509303E+06  1.866432E+06  1.837875E+05  1.098579E+05
       246   1 -3.134703E+05 -1.680389E+06 -4.232486E+05  1.670431E+06 -5.439627E+04  6.850832E+04
       246   2  4.181984E+05  1.630787E+06  3.403738E+05  4.771492E+05  4.898196E+04  7.831217E+04
       246   3  1.248237E+06  4.779732E+06  1.079009E+06  1.808613E+06  1.474984E+05  8.871111E+04
       246   4  1.071339E+05  1.067260E+04 -1.763677E+04  1.704107E+06 -5.616033E+04  1.793496E+04
       246   5  3.650049E+04  9.597344E+04 -2.870613E+04  4.423245E+05  4.738949E+04  2.991694E+04
       246   6  6.448797E+04  8.930927E+03 -6.574913E+04  1.705412E+06  1.460410E+05  4.242969E+04
       246   7  5.275331E+05  1.704365E+06  3.877820E+05  1.737849E+06 -5.792731E+04 -3.277603E+04
       246   8 -3.453657E+05 -1.436682E+06 -3.979450E+05  4.075678E+05  4.580042E+04 -1.835932E+04
       246   9 -1.120896E+06 -4.741120E+06 -1.212114E+06  1.602806E+06  1.445930E+05 -3.500411E+03
       246  10 -3.134747E+05 -1.680395E+06 -4.232631E+05  1.670434E+06 -1.210642E-08  2.829141E-08
       246  11  4.181942E+05  1.630780E+06  3.403578E+05  4.771461E+05  5.627301E-09  2.371789E-08
       246  12  1.248212E+06  4.779718E+06  1.078953E+06  1.808603E+06  7.429351E-09 -8.355534E-10
       246  13  1.071304E+05  1.067141E+04 -1.764331E+04  1.704108E+06 -1.429973E-08  3.625263E-08
       246  14  3.649784E+04  9.597188E+04 -2.871203E+04  4.423234E+05 -1.088115E-08  5.916345E-10
       246  15  6.446461E+04  8.923295E+03 -6.579250E+04  1.705407E+06 -2.873000E-08 -7.896700E-09
       246  16  5.275292E+05  1.704363E+06  3.877738E+05  1.737848E+06 -7.601110E-09 -7.087326E-08
       246  17 -3.453681E+05 -1.436683E+06 -3.979496E+05  4.075685E+05  2.262679E-08  2.443610E-09
       246  18 -1.120918E+06 -4.741126E+06 -1.212153E+06  1.602806E+06  1.042125E-08 -2.657277E-08
       246  19 -3.134703E+05 -1.680389E+06 -4.232486E+05  1.670431E+06  5.439627E+04 -6.850832E+04
       246  20  4.181984E+05  1.630787E+06  3.403738E+05  4.771492E+05 -4.898196E+04 -7.831217E+04
       246  21  1.248237E+06  4.779732E+06  1.079009E+06  1.808613E+06 -1.474984E+05 -8.871111E+04
       246  22  1.071339E+05  1.067260E+04 -1.763677E+04  1.704107E+06  5.616033E+04 -1.793496E+04
       246  23  3.650049E+04  9.597344E+04 -2.870613E+04  4.423245E+05 -4.738949E+04 -2.991694E+04
       246  24  6.448797E+04  8.930927E+03 -6.574913E+04  1.705412E+06 -1.460410E+05 -4.242969E+04
       246  25  5.275331E+05  1.704365E+06  3.877820E+05  1.737849E+06  5.792731E+04  3.277603E+04
       246  26 -3.453657E+05 -1.436682E+06 -3.979450E+05  4.075678E+05 -4.580042E+04  1.835932E+04
       246  27 -1.120896E+06 -4.741120E+06 -1.212114E+06  1.602806E+06 -1.445930E+05  3.500411E+03
       247   1  2.440608E+06  9.435396E+06  2.184370E+06  1.950714E+06  2.821438E+05  1.949144E+05
       247   2  3.133829E+06  1.266806E+07  2.869285E+06  6.204805E+05  3.964383E+05  9.010323E+04
       247   3  3.733315E+06  1.597373E+07  3.609674E+06  1.813081E+06  1.425716E+05 -7.876166E+03
       247   4  1.108555E+05  3.528670E+04 -6.800769E+04  1.703205E+06  2.779101E+05  4.756063E+04
       247   5  1.489253E+04  1.378553E+04 -1.480087E+05  4.427935E+05  3.976356E+05  1.211246E+05
       247   6 -2.088166E+05  2.121874E+04 -2.963274E+05  1.708873E+06  1.458743E+05  2.021073E+05
       247   7 -2.225176E+06 -9.284597E+06 -2.326563E+06  1.458710E+06  2.737589E+05 -9.760030E+04
       247   8 -3.115513E+06 -1.249555E+07 -3.176552E+06  2.678685E+05  3.988301E+05  1.515046E+05
       247   9 -4.169654E+06 -1.570328E+07 -4.220790E+06  1.606179E+06  1.491565E+05  4.067542E+05
       247  10  2.440513E+06  9.435335E+06  2.184151E+06  1.950670E+06 -1.072203E-08  1.890918E-08
       247  11  3.133658E+06  1.266801E+07  2.868974E+06  6.204520E+05  4.558028E-09  1.925977E-08
       247  12  3.733293E+06  1.597373E+07  3.609636E+06  1.813082E+06  7.121055E-09 -4.726848E-09
       247  13  1.107720E+05  3.526360E+04 -6.815688E+04  1.703195E+06  1.421803E-08  2.961305E-08
       247  14  1.471883E+04  1.372737E+04 -1.483333E+05  4.427547E+05 -1.454391E-09  1.777145E-10
       247  15 -2.088503E+05  2.116928E+04 -2.964437E+05  1.708849E+06  6.726490E-09 -3.096240E-09
       247  16 -2.225259E+06 -9.284627E+06 -2.326722E+06  1.458731E+06 -1.014683E-08 -5.614197E-08
       247  17 -3.115690E+06 -1.249562E+07 -3.176895E+06  2.678195E+05  3.008739E-09 -6.974943E-10
       247  18 -4.169724E+06 -1.570347E+07 -4.221150E+06  1.606129E+06  8.909015E-09 -6.146573E-09
       247  19  2.440608E+06  9.435396E+06  2.184370E+06  1.950714E+06 -2.821438E+05 -1.949144E+05
       247  20  3.133829E+06  1.266806E+07  2.869285E+06  6.204805E+05 -3.964383E+05 -9.010323E+04
       247  21  3.733315E+06  1.597373E+07  3.609674E+06  1.813081E+06 -1.425716E+05  7.876166E+03
       247  22  1.108555E+05  3.528670E+04 -6.800769E+04  1.703205E+06 -2.779101E+05 -4.756063E+04
       247  23  1.489253E+04  1.378553E+04 -1.480087E+05  4.427935E+05 -3.976356E+05 -1.211246E+05
       247  24 -2.088166E+05  2.121874E+04 -2.963274E+05  1.708873E+06 -1.458743E+05 -2.021073E+05
       247  25 -2.225176E+06 -9.284597E+06 -2.326563E+06  1.458710E+06 -2.737589E+05  9.760030E+04
       247  26 -3.115513E+06 -1.249555E+07 -3.176552E+06  2.678685E+05 -3.988301E+05 -1.515046E+05
       247  27 -4.169654E+06 -1.570328E+07 -4.220790E+06  1.606179E+06 -1.491565E+05 -4.067542E+05
       248   1  1.245617E+07  2.941762E+06  2.909983E+06  8.964756E+05  3.626355E+04 -1.164950E+05
       248   2  1.034459E+07  2.602589E+06  2.430223E+06  2.071014E+05 -5.433223E+04 -3.290212E+05
       248   3  8.381783E+06  2.118282E+06  2.004696E+06  1.088896E+06 -1.420538E+05 -2.554662E+05
       248   4 -1.876397E+05 -1.924768E+05 -1.925250E+05  1.064289E+06 -1.356257E+05 -1.144329E+05
       248   5 -2.435758E+05 -8.574937E+03 -9.809151E+04  2.785916E+05 -8.735862E+04 -3.291641E+05
       248   6 -1.802874E+05  4.286442E+03 -4.551203E+04  1.066033E+06 -3.648145E+04 -2.556437E+05
       248   7 -1.268770E+07 -3.338457E+06 -3.306665E+06  1.229074E+06 -3.040499E+05 -1.124448E+05
       248   8 -1.073004E+07 -2.627811E+06 -2.634299E+06  3.490236E+05 -1.198215E+05 -3.293174E+05
       248   9 -8.675750E+06 -2.115004E+06 -2.100865E+06  1.043422E+06  6.765824E+04 -2.558299E+05
       248  10  1.245616E+07  2.941747E+06  2.909955E+06  8.964790E+05 -1.230934E-08  1.607228E-08
       248  11  1.034456E+07  2.602472E+06  2.430014E+06  2.070871E+05  1.204678E-08  6.911009E-09
       248  12  8.381744E+06  2.118207E+06  2.004536E+06  1.088867E+06  2.583606E-08 -2.578511E-09
       248  13 -1.876630E+05 -1.924958E+05 -1.925841E+05  1.064277E+06 -8.083366E-09 -7.889320E-09
       248  14 -2.436131E+05 -8.693314E+03 -9.830939E+04  2.785684E+05 -6.295615E-09  6.976368E-09
       248  15 -1.803063E+05  4.215934E+03 -4.563726E+04  1.066026E+06 -5.829579E-09 -1.050497E-09
       248  16 -1.268780E+07 -3.338496E+06 -3.306866E+06  1.229046E+06  3.584622E-09 -1.005142E-08
       248  17 -1.073009E+07 -2.627932E+06 -2.634530E+06  3.489916E+05 -1.399343E-08  2.809153E-09
       248  18 -8.675773E+06 -2.115076E+06 -2.100996E+06  1.043436E+06 -2.882492E-08 -6.674966E-10
       248  19  1.245617E+07  2.941762E+06  2.909983E+06  8.964756E+05 -3.626355E+04  1.164950E+05
       248  20  1.034459E+07  2.602589E+06  2.430223E+06  2.071014E+05  5.433223E+04  3.290212E+05
       248  21  8.381783E+06  2.118282E+06  2.004696E+06  1.088896E+06  1.420538E+05  2.554662E+05
       248  22 -1.876397E+05 -1.924768E+05 -1.925250E+05  1.064289E+06  1.356257E+05  1.144329E+05
       248  23 -2.435758E+05 -8.574937E+03 -9.809151E+04  2.785916E+05  8.735862E+04  3.291641E+05
       248  24 -1.802874E+05  4.286442E+03 -4.551203E+04  1.066033E+06  3.648145E+04  2.556437E+05
       248  25 -1.268770E+07 -3.338457E+06 -3.306665E+06  1.229074E+06  3.040499E+05  1.124448E+05
       248  26 -1.073004E+07 -2.627811E+06 -2.634299E+06  3.490236E+05  1.198215E+05  3.293174E+05
       248  27 -8.675750E+06 -2.115004E+06 -2.100865E+06  1.043422E+06 -6.765824E+04  2.558299E+05
       249   1  5.459426E+06  1.372747E+06  1.313392E+06  1.072689E+06 -5.305706E+04 -1.672666E+05
       249   2  3.427000E+06  9.002871E+05  8.477592E+05  2.842938E+05 -5.201857E+04 -1.098403E+05
       249   3  1.395651E+06  4.095772E+05  3.766653E+05  1.083080E+06 -5.163085E+04 -3.145818E+04
       249   4 -1.962193E+05 -2.621497E+04 -4.382458E+04  1.068878E+06 -3.022718E+04 -1.672971E+05
       249   5 -1.926650E+05  3.967407E+03 -2.114694E+04  2.749186E+05 -1.920098E+04 -1.097281E+05
       249   6 -1.936954E+05  1.430272E+04 -1.070103E+04  1.068745E+06 -8.823776E+03 -3.113636E+04
       249   7 -5.822737E+06 -1.427497E+06 -1.403309E+06  1.065055E+06 -7.602109E+03 -1.673281E+05
       249   8 -3.800373E+06 -8.933032E+05 -8.909794E+05  2.655816E+05  1.342708E+04 -1.096165E+05
       249   9 -1.780737E+06 -3.811566E+05 -3.982441E+05  1.054440E+06  3.387419E+04 -3.081604E+04
       249  10  5.459415E+06  1.372716E+06  1.313334E+06  1.072682E+06  2.462766E-09 -1.015629E-08
       249  11  3.426994E+06  9.002735E+05  8.477315E+05  2.842892E+05 -2.851598E-10  7.403546E-09
       249  12  1.395648E+06  4.095754E+05  3.766584E+05  1.083079E+06  1.341106E-09  3.765529E-09
       249  13 -1.962278E+05 -2.624526E+04 -4.387885E+04  1.068873E+06  9.038015E-09 -3.151504E-09
       249  14 -1.926687E+05  3.954381E+03 -2.117025E+04  2.749169E+05  2.455024E-09  1.048033E-08
       249  15 -1.936958E+05  1.430165E+04 -1.070299E+04  1.068745E+06  5.132287E-09 -4.535129E-09
       249  16 -5.822745E+06 -1.427527E+06 -1.403362E+06  1.065054E+06 -8.633279E-09 -2.618966E-09
       249  17 -3.800376E+06 -8.933162E+05 -8.910023E+05  2.655828E+05 -3.786012E-09  5.516764E-09
       249  18 -1.780738E+06 -3.811579E+05 -3.982480E+05  1.054441E+06  1.491388E-09 -2.865826E-10
       249  19  5.459426E+06  1.372747E+06  1.313392E+06  1.072689E+06  5.305706E+04  1.672666E+05
       249  20  3.427000E+06  9.002871E+05  8.477592E+05  2.842938E+05  5.201857E+04  1.098403E+05
       249  21  1.395651E+06  4.095772E+05  3.766653E+05  1.083080E+06  5.163085E+04  3.145818E+04
       249  22 -1.962193E+05 -2.621497E+04 -4.382458E+04  1.068878E+06  3.022718E+04  1.672971E+05
       249  23 -1.926650E+05  3.967407E+03 -2.114694E+04  2.749186E+05  1.920098E+04  1.097281E+05
       249  24 -1.936954E+05  1.430272E+04 -1.070103E+04  1.068745E+06  8.823776E+03  3.113636E+04
       249  25 -5.822737E+06 -1.427497E+06 -1.403309E+06  1.065055E+06  7.602109E+03  1.673281E+05
       249  26 -3.800373E+06 -8.933032E+05 -8.909794E+05  2.655816E+05 -1.342708E+04  1.096165E+05
       249  27 -1.780737E+06 -3.811566E+05 -3.982441E+05  1.054440E+06 -3.387419E+04  3.081604E+04
       250   1 -1.493708E+06 -3.126070E+05 -3.267273E+05  1.057836E+06 -5.066508E+04  2.206085E+04
       250   2 -3.514953E+06 -8.236859E+05 -8.063217E+05  2.646659E+05 -3.843669E+04  1.008351E+05
       250   3 -5.536658E+06 -1.338852E+06 -1.296300E+06  1.059924E+06 -2.564237E+04  1.590191E+05
       250   4 -1.929903E+05  1.162493E+04 -8.220973E+03  1.068800E+06 -8.105368E+03  2.238449E+04
       250   5 -1.929173E+05  2.407731E+03 -5.524457E+03  2.748765E+05 -5.768745E+03  1.009610E+05
       250   6 -1.953117E+05 -8.819150E+03 -6.061418E+03  1.068866E+06 -2.825730E+03  1.590083E+05
       250   7  1.109275E+06  3.357327E+05  3.101683E+05  1.079783E+06  3.454351E+04  2.270924E+04
       250   8  3.139255E+06  8.276954E+05  7.944883E+05  2.851277E+05  2.707419E+04  1.010876E+05
       250   9  5.172278E+06  1.319123E+06  1.282134E+06  1.077841E+06  2.018795E+04  1.589983E+05
       250  10 -1.493711E+06 -3.126083E+05 -3.267330E+05  1.057837E+06 -8.995795E-09 -2.166231E-09
       250  11 -3.514957E+06 -8.236972E+05 -8.063436E+05  2.646690E+05  7.794536E-10 -6.166370E-09
       250  12 -5.536666E+06 -1.338879E+06 -1.296349E+06  1.059928E+06  5.265680E-09 -1.521413E-09
       250  13 -1.929905E+05  1.162437E+04 -8.222040E+03  1.068800E+06 -1.266926E-09 -5.338711E-09
       250  14 -1.929201E+05  2.396777E+03 -5.543674E+03  2.748770E+05 -1.863611E-09  3.318969E-09
       250  15 -1.953185E+05 -8.846302E+03 -6.108946E+03  1.068866E+06  9.757754E-09 -5.278594E-09
       250  16  1.109274E+06  3.357318E+05  3.101651E+05  1.079783E+06  1.681167E-09 -4.863635E-09
       250  17  3.139252E+06  8.276843E+05  7.944677E+05  2.851255E+05 -3.747589E-09 -3.778644E-09
       250  18  5.172271E+06  1.319096E+06  1.282086E+06  1.077838E+06 -3.202959E-09  1.562560E-09
       250  19 -1.493708E+06 -3.126070E+05 -3.267273E+05  1.057836E+06  5.066508E+04 -2.206085E+04
       250  20 -3.514953E+06 -8.236859E+05 -8.063217E+05  2.646659E+05  3.843669E+04 -1.008351E+05
       250  21 -5.536658E+06 -1.338852E+06 -1.296300E+06  1.059924E+06  2.564237E+04 -1.590191E+05
       250  22 -1.929903E+05  1.162493E+04 -8.220973E+03  1.068800E+06  8.105368E+03 -2.238449E+04
       250  23 -1.929173E+05  2.407731E+03 -5.524457E+03  2.748765E+05  5.768745E+03 -1.009610E+05
       250  24 -1.953117E+05 -8.819150E+03 -6.061418E+03  1.068866E+06  2.825730E+03 -1.590083E+05
       250  25  1.109275E+06  3.357327E+05  3.101683E+05  1.079783E+06 -3.454351E+04 -2.270924E+04
       250  26  3.139255E+06  8.276954E+05  7.944883E+05  2.851277E+05 -2.707419E+04 -1.010876E+05
       250  27  5.172278E+06  1.319123E+06  1.282134E+06  1.077841E+06 -2.018795E+04 -1.589983E+05
       251   1 -8.381064E+06 -2.049515E+06 -1.984393E+06  1.058713E+06 -1.063658E+05  2.466861E+05
       251   2 -1.045759E+07 -2.576220E+06 -2.486500E+06  3.296181E+05  3.612125E+04  3.209472E+05
       251   3 -1.239588E+07 -3.120025E+06 -3.054615E+06  1.177448E+06  1.758105E+05  1.113528E+05
       251   4 -1.704714E+05 -1.633189E+03  1.764834E+03  1.066108E+06 -3.847249E+03  2.465704E+05
       251   5 -2.537149E+05 -2.825886E+04 -1.917963E+04  2.783208E+05  4.423423E+03  3.207895E+05
       251   6 -1.776021E+05 -4.732020E+04 -1.168119E+04  1.066069E+06  1.037427E+04  1.131865E+05
       251   7  8.102320E+06  2.041303E+06  1.983120E+06  1.073537E+06  1.000369E+05  2.464576E+05
       251   8  1.004643E+07  2.512056E+06  2.440670E+06  2.262933E+05 -2.780048E+04  3.206398E+05
       251   9  1.217800E+07  3.014140E+06  3.020145E+06  9.527612E+05 -1.583676E+05  1.150651E+05
       251  10 -8.381093E+06 -2.049584E+06 -1.984529E+06  1.058734E+06 -7.936547E-10  1.962668E-10
       251  11 -1.045762E+07 -2.576331E+06 -2.486696E+06  3.296087E+05  7.048490E-09  1.321539E-08
       251  12 -1.239592E+07 -3.120047E+06 -3.054697E+06  1.177432E+06  9.475218E-09  1.561885E-08
       251  13 -1.704877E+05 -1.698476E+03  1.650558E+03  1.066109E+06  8.004955E-09  2.624911E-09
       251  14 -2.537425E+05 -2.836936E+04 -1.937303E+04  2.783197E+05 -8.392999E-11  1.225306E-08
       251  15 -1.776057E+05 -4.733398E+04 -1.170545E+04  1.066068E+06 -1.629168E-09 -1.142088E-08
       251  16  8.102293E+06  2.041235E+06  1.982988E+06  1.073517E+06  8.184145E-09  5.000986E-09
       251  17  1.004640E+07  2.511946E+06  2.440476E+06  2.263004E+05 -5.776383E-09  1.125054E-08
       251  18  1.217796E+07  3.014119E+06  3.020073E+06  9.527757E+05 -1.930769E-09 -4.086824E-09
       251  19 -8.381064E+06 -2.049515E+06 -1.984393E+06  1.058713E+06  1.063658E+05 -2.466861E+05
       251  20 -1.045759E+07 -2.576220E+06 -2.486500E+06  3.296181E+05 -3.612125E+04 -3.209472E+05
       251  21 -1.239588E+07 -3.120025E+06 -3.054615E+06  1.177448E+06 -1.758105E+05 -1.113528E+05
       251  22 -1.704714E+05 -1.633189E+03  1.764834E+03  1.066108E+06  3.847249E+03 -2.465704E+05
       251  23 -2.537149E+05 -2.825886E+04 -1.917963E+04  2.783208E+05 -4.423423E+03 -3.207895E+05
       251  24 -1.776021E+05 -4.732020E+04 -1.168119E+04  1.066069E+06 -1.037427E+04 -1.131865E+05
       251  25  8.102320E+06  2.041303E+06  1.983120E+06  1.073537E+06 -1.000369E+05 -2.464576E+05
       251  26  1.004643E+07  2.512056E+06  2.440670E+06  2.262933E+05  2.780048E+04 -3.206398E+05
       251  27  1.217800E+07  3.014140E+06  3.020145E+06  9.527612E+05  1.583676E+05 -1.150651E+05
       252   1 -3.102076E+06 -1.159958E+07 -3.085902E+06  1.514367E+06 -1.172884E+05 -5.609779E+04
       252   2 -2.474969E+06 -8.345312E+06 -2.298002E+06  2.829964E+05 -3.091760E+05  5.766581E+04
       252   3 -1.527520E+06 -5.059882E+06 -1.512002E+06  1.619971E+06 -1.839059E+05  1.634891E+05
       252   4  1.944277E+05  1.501354E+06  1.749067E+05  1.773063E+06 -1.133857E+05  1.126062E+05
       252   5 -1.938012E+04  1.482974E+06  7.393887E+04  4.910692E+05 -3.083549E+05  7.571307E+04
       252   6  1.133398E+05  1.512555E+06  7.660475E+04  1.774761E+06 -1.883912E+05  3.036193E+04
       252   7  3.478125E+06  1.475983E+07  3.422963E+06  2.036210E+06 -1.093871E+05  2.848989E+05
       252   8  2.429214E+06  1.140030E+07  2.438976E+06  7.018400E+05 -3.075297E+05  9.404140E+04
       252   9  1.751083E+06  8.124695E+06  1.662183E+06  1.930810E+06 -1.929180E+05 -1.041803E+05
       252  10 -3.102092E+06 -1.159959E+07 -3.085934E+06  1.514361E+06  7.019352E-09  1.688313E-08
       252  11 -2.475073E+06 -8.345341E+06 -2.298188E+06  2.830108E+05  2.227660E-08 -7.146671E-09
       252  12 -1.527563E+06 -5.059920E+06 -1.512117E+06  1.619996E+06 -1.469366E-08  4.148263E-08
       252  13  1.944105E+05  1.501337E+06  1.748586E+05  1.773073E+06 -1.552793E-10  2.035728E-08
       252  14 -1.948385E+04  1.482942E+06  7.374923E+04  4.910881E+05  4.670000E-08 -2.934728E-08
       252  15  1.133014E+05  1.512545E+06  7.653622E+04  1.774766E+06 -1.304435E-08  1.288916E-08
       252  16  3.478091E+06  1.475975E+07  3.422791E+06  2.036235E+06  7.493477E-09  3.577143E-09
       252  17  2.429110E+06  1.140026E+07  2.438781E+06  7.018631E+05  6.804293E-09 -5.210250E-08
       252  18  1.751040E+06  8.124674E+06  1.662093E+06  1.930794E+06 -6.916843E-09 -1.220942E-08
       252  19 -3.102076E+06 -1.159958E+07 -3.085902E+06  1.514367E+06  1.172884E+05  5.609779E+04
       252  20 -2.474969E+06 -8.345312E+06 -2.298002E+06  2.829964E+05  3.091760E+05 -5.766581E+04
       252  21 -1.527520E+06 -5.059882E+06 -1.512002E+06  1.619971E+06  1.839059E+05 -1.634891E+05
       252  22  1.944277E+05  1.501354E+06  1.749067E+05  1.773063E+06  1.133857E+05 -1.126062E+05
       252  23 -1.938012E+04  1.482974E+06  7.393887E+04  4.910692E+05  3.083549E+05 -7.571307E+04
       252  24  1.133398E+05  1.512555E+06  7.660475E+04  1.774761E+06  1.883912E+05 -3.036193E+04
       252  25  3.478125E+06  1.475983E+07  3.422963E+06  2.036210E+06  1.093871E+05 -2.848989E+05
       252  26  2.429214E+06  1.140030E+07  2.438976E+06  7.018400E+05  3.075297E+05 -9.404140E+04
       252  27  1.751083E+06  8.124695E+06  1.662183E+06  1.930810E+06  1.929180E+05  1.041803E+05
       253   1 -3.597141E+05 -4.682588E+05 -4.007491E+05  1.715355E+06 -6.177342E+04  6.239698E+04
       253   2  3.538040E+05  2.863344E+06  3.817909E+05  5.303519E+05  4.028806E+04  2.298482E+04
       253   3  1.265157E+06  6.053381E+06  1.193868E+06  1.890637E+06  1.381843E+05 -1.615585E+04
       253   4  1.254196E+05  1.479470E+06  6.637213E+04  1.769468E+06 -6.359358E+04  1.175499E+04
       253   5  2.846346E+04  1.554517E+06  6.747656E+04  4.967382E+05  3.861919E+04 -2.575363E+04
       253   6  1.298119E+05  1.477999E+06  9.750290E+04  1.769270E+06  1.366392E+05 -6.280217E+04
       253   7  6.102841E+05  3.430677E+06  5.332344E+05  1.823715E+06 -6.541951E+04 -3.904545E+04
       253   8 -2.969982E+05  2.472583E+05 -2.469504E+05  4.631817E+05  3.695378E+04 -7.438998E+04
       253   9 -1.007023E+06 -3.078339E+06 -1.000335E+06  1.648605E+06  1.351062E+05 -1.091072E+05
       253  10 -3.597193E+05 -4.682641E+05 -4.007636E+05  1.715358E+06 -7.301836E-09  7.607875E-08
       253  11  3.538021E+05  2.863343E+06  3.817868E+05  5.303511E+05 -9.846126E-09  6.110522E-09
       253  12  1.265137E+06  6.053376E+06  1.193832E+06  1.890639E+06  1.772429E-08  4.771425E-08
       253  13  1.254152E+05  1.479468E+06  6.636426E+04  1.769468E+06 -1.103292E-08  3.602275E-08
       253  14  2.846168E+04  1.554516E+06  6.747251E+04  4.967390E+05 -1.755563E-08 -3.682859E-08
       253  15  1.297907E+05  1.477989E+06  9.746028E+04  1.769276E+06 -2.557446E-08  1.268428E-08
       253  16  6.102791E+05  3.430674E+06  5.332235E+05  1.823713E+06 -8.790866E-09 -4.024579E-08
       253  17 -2.970012E+05  2.472520E+05 -2.469634E+05  4.631839E+05  2.470478E-08 -7.922967E-08
       253  18 -1.007046E+06 -3.078357E+06 -1.000392E+06  1.648617E+06  6.567364E-09 -1.967974E-08
       253  19 -3.597141E+05 -4.682588E+05 -4.007491E+05  1.715355E+06  6.177342E+04 -6.239698E+04
       253  20  3.538040E+05  2.863344E+06  3.817909E+05  5.303519E+05 -4.028806E+04 -2.298482E+04
       253  21  1.265157E+06  6.053381E+06  1.193868E+06  1.890637E+06 -1.381843E+05  1.615585E+04
       253  22  1.254196E+05  1.479470E+06  6.637213E+04  1.769468E+06  6.359358E+04 -1.175499E+04
       253  23  2.846346E+04  1.554517E+06  6.747656E+04  4.967382E+05 -3.861919E+04  2.575363E+04
       253  24  1.298119E+05  1.477999E+06  9.750290E+04  1.769270E+06 -1.366392E+05  6.280217E+04
       253  25  6.102841E+05  3.430677E+06  5.332344E+05  1.823715E+06  6.541951E+04  3.904545E+04
       253  26 -2.969982E+05  2.472583E+05 -2.469504E+05  4.631817E+05 -3.695378E+04  7.438998E+04
       253  27 -1.007023E+06 -3.078339E+06 -1.000335E+06  1.648605E+06 -1.351062E+05  1.091072E+05
       254   1  2.381698E+06  1.080175E+07  2.341579E+06  1.964134E+06  2.732543E+05  5.877389E+04
       254   2  3.039828E+06  1.402288E+07  3.151059E+06  7.253208E+05  3.868533E+05 -2.106428E+05
       254   3  4.277851E+06  1.748929E+07  4.285532E+06  2.063712E+06  1.343539E+05 -4.736057E+05
       254   4  9.408263E+04  1.539088E+06  1.266057E+05  1.778948E+06  2.687944E+05 -8.874894E+04
       254   5 -6.295299E+04  1.429249E+06  1.524286E+05  4.869757E+05  3.881390E+05 -1.775907E+05
       254   6  3.331822E+05  1.524717E+06  3.825079E+05  1.775227E+06  1.381492E+05 -2.584664E+05
       254   7 -2.199655E+06 -7.645866E+06 -2.094335E+06  1.595781E+06  2.643867E+05 -2.341006E+05
       254   8 -3.177011E+06 -1.102114E+07 -2.857306E+06  2.525326E+05  3.894162E+05 -1.451682E+05
       254   9 -3.630010E+06 -1.421195E+07 -3.538933E+06  1.492793E+06  1.418058E+05 -4.866743E+04
       254  10  2.381617E+06  1.080173E+07  2.341433E+06  1.964121E+06 -4.207740E-11  5.795767E-08
       254  11  3.039656E+06  1.402279E+07  3.150696E+06  7.253859E+05 -1.651962E-08  7.004473E-10
       254  12  4.277773E+06  1.748905E+07  4.285087E+06  2.063763E+06 -3.147185E-09  4.015799E-09
       254  13  9.400279E+04  1.539060E+06  1.264547E+05  1.778968E+06  1.707726E-08  3.147831E-08
       254  14 -6.312339E+04  1.429174E+06  1.520859E+05  4.870312E+05 -1.365734E-08 -2.417403E-08
       254  15  3.331436E+05  1.524640E+06  3.823463E+05  1.775256E+06  1.926357E-09  5.495067E-09
       254  16 -2.199746E+06 -7.645944E+06 -2.094571E+06  1.595831E+06 -1.234788E-08 -2.599846E-08
       254  17 -3.177180E+06 -1.102121E+07 -2.857632E+06  2.525786E+05 -9.964537E-10 -4.753660E-08
       254  18 -3.630032E+06 -1.421196E+07 -3.538976E+06  1.492798E+06  7.972834E-09  7.797093E-09
       254  19  2.381698E+06  1.080175E+07  2.341579E+06  1.964134E+06 -2.732543E+05 -5.877389E+04
       254  20  3.039828E+06  1.402288E+07  3.151059E+06  7.253208E+05 -3.868533E+05  2.106428E+05
       254  21  4.277851E+06  1.748929E+07  4.285532E+06  2.063712E+06 -1.343539E+05  4.736057E+05
       254  22  9.408263E+04  1.539088E+06  1.266057E+05  1.778948E+06 -2.687944E+05  8.874894E+04
       254  23 -6.295299E+04  1.429249E+06  1.524286E+05  4.869757E+05 -3.881390E+05  1.775907E+05
       254  24  3.331822E+05  1.524717E+06  3.825079E+05  1.775227E+06 -1.381492E+05  2.584664E+05
       254  25 -2.199655E+06 -7.645866E+06 -2.094335E+06  1.595781E+06 -2.643867E+05  2.341006E+05
       254  26 -3.177011E+06 -1.102114E+07 -2.857306E+06  2.525326E+05 -3.894162E+05  1.451682E+05
       254  27 -3.630010E+06 -1.421195E+07 -3.538933E+06  1.492793E+06 -1.418058E+05  4.866743E+04
       255   1  1.190395E+07  2.961859E+06  2.959796E+06  8.755678E+05  1.368475E+05 -1.141611E+05
       255   2  9.913362E+06  2.516913E+06  2.430038E+06  2.064167E+05  1.503994E+04 -3.205383E+05
       255   3  8.100242E+06  2.076352E+06  2.009655E+06  1.005528E+06 -1.040492E+05 -2.516034E+05
       255   4 -3.187280E+05 -6.761335E+04 -4.002483E+04  9.957040E+05 -3.085688E+04 -1.122674E+05
       255   5 -3.904471E+05 -2.473012E+04 -3.113155E+04  2.608545E+05 -1.847329E+04 -3.206771E+05
       255   6 -3.120622E+05 -1.127221E+03 -4.959612E+03  9.959787E+05 -3.723511E+03 -2.517408E+05
       255   7 -1.240698E+07 -3.108091E+06 -3.050719E+06  1.113808E+06 -1.953071E+05 -1.104219E+05
       255   8 -1.059790E+07 -2.574027E+06 -2.499779E+06  3.145256E+05 -5.143759E+04 -3.208244E+05
       255   9 -8.660044E+06 -2.083722E+06 -2.024544E+06  9.864965E+05  9.526170E+04 -2.518821E+05
       255  10  1.190393E+07  2.961840E+06  2.959736E+06  8.755802E+05  1.639865E-10  1.108707E-08
       255  11  9.913334E+06  2.516803E+06  2.429844E+06  2.064206E+05 -6.170310E-09 -1.021830E-08
       255  12  8.100213E+06  2.076282E+06  2.009516E+06  1.005507E+06 -9.043614E-09 -5.778963E-09
       255  13 -3.187324E+05 -6.762713E+04 -4.005028E+04  9.957012E+05 -7.978579E-09 -2.922277E-08
       255  14 -3.904751E+05 -2.484062E+04 -3.132540E+04  2.608498E+05 -2.701662E-09 -1.602073E-08
       255  15 -3.120792E+05 -1.195265E+03 -5.078706E+03  9.959779E+05  3.860344E-09 -1.482999E-09
       255  16 -1.240703E+07 -3.108115E+06 -3.050815E+06  1.113790E+06 -4.908049E-10 -2.013641E-08
       255  17 -1.059793E+07 -2.574139E+06 -2.499978E+06  3.145122E+05  2.211281E-09 -1.265383E-09
       255  18 -8.660071E+06 -2.083793E+06 -2.024681E+06  9.865160E+05  1.283722E-08  3.489302E-10
       255  19  1.190395E+07  2.961859E+06  2.959796E+06  8.755678E+05 -1.368475E+05  1.141611E+05
       255  20  9.913362E+06  2.516913E+06  2.430038E+06  2.064167E+05 -1.503994E+04  3.205383E+05
       255  21  8.100242E+06  2.076352E+06  2.009655E+06  1.005528E+06  1.040492E+05  2.516034E+05
       255  22 -3.187280E+05 -6.761335E+04 -4.002483E+04  9.957040E+05  3.085688E+04  1.122674E+05
       255  23 -3.904471E+05 -2.473012E+04 -3.113155E+04  2.608545E+05  1.847329E+04  3.206771E+05
       255  24 -3.120622E+05 -1.127221E+03 -4.959612E+03  9.959787E+05  3.723511E+03  2.517408E+05
       255  25 -1.240698E+07 -3.108091E+06 -3.050719E+06  1.113808E+06  1.953071E+05  1.104219E+05
       255  26 -1.059790E+07 -2.574027E+06 -2.499779E+06  3.145256E+05  5.143759E+04  3.208244E+05
       255  27 -8.660044E+06 -2.083722E+06 -2.024544E+06  9.864965E+05 -9.526170E+04  2.518821E+05
       256   1  5.360920E+06  1.397044E+06  1.356434E+06  1.008895E+06 -2.448667E+04 -1.679080E+05
       256   2  3.455878E+06  9.401237E+05  9.038763E+05  2.688370E+05 -3.114752E+04 -1.148388E+05
       256   3  1.557363E+06  4.835510E+05  4.556230E+05  1.014191E+06 -3.843355E+04 -4.143662E+04
       256   4 -3.343562E+05 -1.195902E+04 -1.059824E+04  9.994939E+05 -3.736667E+03 -1.679378E+05
       256   5 -3.338216E+05  1.615131E+03 -5.915945E+03  2.564467E+05 -6.322836E+02 -1.147254E+05
       256   6 -3.318831E+05  1.400076E+04 -3.503973E+03  9.993948E+05  1.825371E+03 -4.111394E+04
       256   7 -6.000091E+06 -1.423316E+06 -1.379933E+06  9.901309E+05  1.682508E+04 -1.679684E+05
       256   8 -4.110413E+06 -9.379360E+05 -9.167246E+05  2.441124E+05  2.969819E+04 -1.146129E+05
       256   9 -2.217872E+06 -4.558107E+05 -4.628832E+05  9.846345E+05  4.196233E+04 -4.079261E+04
       256  10  5.360912E+06  1.397013E+06  1.356380E+06  1.008892E+06 -7.087108E-09  2.188465E-09
       256  11  3.455874E+06  9.401093E+05  9.038497E+05  2.688341E+05 -1.441217E-08 -7.323620E-09
       256  12  1.557361E+06  4.835488E+05  4.556171E+05  1.014190E+06  8.421548E-09  2.617548E-09
       256  13 -3.343638E+05 -1.198930E+04 -1.065125E+04  9.994934E+05  9.384708E-09  1.358518E-09
       256  14 -3.338251E+05  1.600999E+03 -5.940676E+03  2.564466E+05  1.312898E-08  1.861501E-09
       256  15 -3.318836E+05  1.399894E+04 -3.507156E+03  9.993948E+05 -2.181305E-09 -2.347225E-09
       256  16 -6.000098E+06 -1.423346E+06 -1.379986E+06  9.901332E+05  1.611531E-08 -5.263094E-10
       256  17 -4.110418E+06 -9.379504E+05 -9.167510E+05  2.441151E+05 -3.066329E-09  1.995331E-09
       256  18 -2.217874E+06 -4.558130E+05 -4.628897E+05  9.846359E+05 -6.778735E-09  4.748492E-09
       256  19  5.360920E+06  1.397044E+06  1.356434E+06  1.008895E+06  2.448667E+04  1.679080E+05
       256  20  3.455878E+06  9.401237E+05  9.038763E+05  2.688370E+05  3.114752E+04  1.148388E+05
       256  21  1.557363E+06  4.835510E+05  4.556230E+05  1.014191E+06  3.843355E+04  4.143662E+04
       256  22 -3.343562E+05 -1.195902E+04 -1.059824E+04  9.994939E+05  3.736667E+03  1.679378E+05
       256  23 -3.338216E+05  1.615131E+03 -5.915945E+03  2.564467E+05  6.322836E+02  1.147254E+05
       256  24 -3.318831E+05  1.400076E+04 -3.503973E+03  9.993948E+05 -1.825371E+03  4.111394E+04
       256  25 -6.000091E+06 -1.423316E+06 -1.379933E+06  9.901309E+05 -1.682508E+04  1.679684E+05
       256  26 -4.110413E+06 -9.379360E+05 -9.167246E+05  2.441124E+05 -2.969819E+04  1.146129E+05
       256  27 -2.217872E+06 -4.558107E+05 -4.628832E+05  9.846345E+05 -4.196233E+04  4.079261E+04
       257   1 -1.151894E+06 -1.907100E+05 -2.064594E+05  9.908560E+05 -3.804434E+04  8.664867E+03
       257   2 -3.040641E+06 -6.701537E+05 -6.609289E+05  2.458154E+05 -2.572689E+04  8.236264E+04
       257   3 -4.938625E+06 -1.154033E+06 -1.127526E+06  9.878271E+05 -1.295064E+04  1.375029E+05
       257   4 -3.337960E+05  1.355177E+04 -4.548030E+03  9.995420E+05  1.639736E+03  8.997633E+03
       257   5 -3.292352E+05  3.964854E+03 -7.490029E+03  2.562657E+05  5.049404E+03  8.252655E+04
       257   6 -3.355725E+05 -8.182868E+03 -1.609813E+04  9.996411E+05  8.955951E+03  1.375447E+05
       257   7  4.849147E+05  2.177646E+05  1.973197E+05  1.008238E+06  4.137611E+04  9.331259E+03
       257   8  2.388921E+06  6.775469E+05  6.454272E+05  2.667504E+05  3.596008E+04  8.269114E+04
       257   9  4.286962E+06  1.136115E+06  1.093814E+06  1.011505E+06  3.102517E+04  1.375873E+05
       257  10 -1.151895E+06 -1.907105E+05 -2.064623E+05  9.908563E+05  4.380971E-09 -1.361060E-09
       257  11 -3.040643E+06 -6.701612E+05 -6.609429E+05  2.458171E+05 -6.626005E-09 -1.157198E-08
       257  12 -4.938630E+06 -1.154053E+06 -1.127562E+06  9.878286E+05  1.551744E-11 -7.485335E-09
       257  13 -3.337960E+05  1.355168E+04 -4.548187E+03  9.995420E+05 -8.617860E-10 -3.838395E-09
       257  14 -3.292371E+05  3.957535E+03 -7.502872E+03  2.562654E+05 -3.177715E-10 -9.373543E-09
       257  15 -3.355776E+05 -8.203199E+03 -1.613382E+04  9.996401E+05  2.025959E-09 -4.158281E-09
       257  16  4.849128E+05  2.177640E+05  1.973163E+05  1.008237E+06 -6.608685E-09 -2.535628E-09
       257  17  2.388918E+06  6.775392E+05  6.454120E+05  2.667480E+05  2.663550E-09  8.403073E-09
       257  18  4.286956E+06  1.136095E+06  1.093777E+06  1.011501E+06  3.672813E-09  1.039850E-09
       257  19 -1.151894E+06 -1.907100E+05 -2.064594E+05  9.908560E+05  3.804434E+04 -8.664867E+03
       257  20 -3.040641E+06 -6.701537E+05 -6.609289E+05  2.458154E+05  2.572689E+04 -8.236264E+04
       257  21 -4.938625E+06 -1.154033E+06 -1.127526E+06  9.878271E+05  1.295064E+04 -1.375029E+05
       257  22 -3.337960E+05  1.355177E+04 -4.548030E+03  9.995420E+05 -1.639736E+03 -8.997633E+03
       257  23 -3.292352E+05  3.964854E+03 -7.490029E+03  2.562657E+05 -5.049404E+03 -8.252655E+04
       257  24 -3.355725E+05 -8.182868E+03 -1.609813E+04  9.996411E+05 -8.955951E+03 -1.375447E+05
       257  25  4.849147E+05  2.177646E+05  1.973197E+05  1.008238E+06 -4.137611E+04 -9.331259E+03
       257  26  2.388921E+06  6.775469E+05  6.454272E+05  2.667504E+05 -3.596008E+04 -8.269114E+04
       257  27  4.286962E+06  1.136115E+06  1.093814E+06  1.011505E+06 -3.102517E+04 -1.375873E+05
       258   1 -7.608549E+06 -1.812558E+06 -1.776125E+06  9.742751E+05 -8.402854E+04  2.182030E+05
       258   2 -9.530056E+06 -2.299559E+06 -2.252861E+06  2.925449E+05  5.764529E+04  2.879524E+05
       258   3 -1.136351E+07 -2.856158E+06 -2.815761E+06  1.084696E+06  1.974997E+05  1.004297E+05
       258   4 -3.184232E+05  5.138277E+03 -1.311616E+04  9.965927E+05  1.015696E+04  2.182946E+05
       258   5 -3.750882E+05 -1.489581E+04 -4.035937E+04  2.600592E+05  3.018270E+04  2.877680E+05
       258   6 -3.244115E+05 -8.188288E+04 -6.799106E+04  9.962508E+05  4.883248E+04  1.016189E+05
       258   7  7.020708E+06  1.818938E+06  1.746110E+06  1.019104E+06  1.054545E+05  2.183923E+05
       258   8  8.857312E+06  2.263615E+06  2.166133E+06  2.271416E+05  2.309270E+03  2.875889E+05
       258   9  1.082668E+07  2.683217E+06  2.670717E+06  9.063708E+05 -1.025200E+05  1.028426E+05
       258  10 -7.608569E+06 -1.812611E+06 -1.776228E+06  9.742900E+05 -7.298349E-09  2.067906E-09
       258  11 -9.530082E+06 -2.299649E+06 -2.253023E+06  2.925315E+05  1.276620E-09  1.800030E-08
       258  12 -1.136356E+07 -2.856180E+06 -2.815854E+06  1.084680E+06  3.053811E-09  7.836151E-09
       258  13 -3.184360E+05  5.087092E+03 -1.320588E+04  9.965909E+05 -7.765027E-09 -5.474543E-09
       258  14 -3.751114E+05 -1.498497E+04 -4.051666E+04  2.600522E+05 -4.139092E-09 -3.445620E-09
       258  15 -3.244168E+05 -8.189460E+04 -6.801491E+04  9.962468E+05  1.727904E-09  3.518163E-10
       258  16  7.020683E+06  1.818884E+06  1.745999E+06  1.019086E+06  2.140484E-09  1.067440E-09
       258  17  8.857290E+06  2.263526E+06  2.165978E+06  2.271410E+05  1.965966E-09 -3.431036E-09
       258  18  1.082667E+07  2.683203E+06  2.670677E+06  9.063792E+05 -6.584250E-09  9.333828E-09
       258  19 -7.608549E+06 -1.812558E+06 -1.776125E+06  9.742751E+05  8.402854E+04 -2.182030E+05
       258  20 -9.530056E+06 -2.299559E+06 -2.252861E+06  2.925449E+05 -5.764529E+04 -2.879524E+05
       258  21 -1.136351E+07 -2.856158E+06 -2.815761E+06  1.084696E+06 -1.974997E+05 -1.004297E+05
       258  22 -3.184232E+05  5.138277E+03 -1.311616E+04  9.965927E+05 -1.015696E+04 -2.182946E+05
       258  23 -3.750882E+05 -1.489581E+04 -4.035937E+04  2.600592E+05 -3.018270E+04 -2.877680E+05
       258  24 -3.244115E+05 -8.188288E+04 -6.799106E+04  9.962508E+05 -4.883248E+04 -1.016189E+05
       258  25  7.020708E+06  1.818938E+06  1.746110E+06  1.019104E+06 -1.054545E+05 -2.183923E+05
       258  26  8.857312E+06  2.263615E+06  2.166133E+06  2.271416E+05 -2.309270E+03 -2.875889E+05
       258  27  1.082668E+07  2.683217E+06  2.670717E+06  9.063708E+05  1.025200E+05 -1.028426E+05
       259   1 -2.838855E+06 -1.162651E+07 -2.848040E+06  1.331964E+06 -1.054401E+05 -1.445256E+05
       259   2 -2.170415E+06 -8.757700E+06 -2.078799E+06  2.306851E+05 -2.750316E+05 -1.812499E+04
       259   3 -1.358281E+06 -5.901319E+06 -1.363443E+06  1.378943E+06 -1.647544E+05  1.019274E+05
       259   4  6.498940E+04 -8.674071E+04  2.622813E+04  1.516089E+06 -1.022662E+05  3.385298E+03
       259   5 -2.625724E+03 -8.443531E+04  1.633909E+04  3.918957E+05 -2.743845E+05 -2.596168E+03
       259   6  9.747329E+04 -7.808572E+04  4.605358E+04  1.515263E+06 -1.683643E+05 -1.545951E+04
       259   7  2.958836E+06  1.157541E+07  2.890577E+06  1.702916E+06 -9.903616E+04  1.540838E+05
       259   8  2.159687E+06  8.658283E+06  2.106086E+06  5.549344E+05 -2.737347E+05  1.315214E+04
       259   9  1.550774E+06  5.776377E+06  1.453163E+06  1.652595E+06 -1.720081E+05 -1.339517E+05
       259  10 -2.838872E+06 -1.162654E+07 -2.848101E+06  1.331951E+06  2.276599E-09  1.307438E-08
       259  11 -2.170496E+06 -8.757721E+06 -2.078942E+06  2.306811E+05 -4.857097E-09 -1.160528E-08
       259  12 -1.358313E+06 -5.901337E+06 -1.363514E+06  1.378957E+06 -1.284283E-08 -2.718562E-08
       259  13  6.497816E+04 -8.674353E+04  2.620846E+04  1.516090E+06 -7.723337E-09  1.943591E-08
       259  14 -2.706565E+03 -8.445552E+04  1.619761E+04  3.918952E+05  1.856220E-08  2.632333E-08
       259  15  9.744281E+04 -7.809358E+04  4.599991E+04  1.515261E+06 -7.344187E-11  5.877372E-08
       259  16  2.958819E+06  1.157538E+07  2.890515E+06  1.702929E+06 -4.117388E-09 -3.176530E-09
       259  17  2.159607E+06  8.658262E+06  2.105945E+06  5.549373E+05  1.195190E-10 -1.592258E-08
       259  18  1.550738E+06  5.776350E+06  1.453075E+06  1.652576E+06  9.601833E-10  2.410178E-08
       259  19 -2.838855E+06 -1.162651E+07 -2.848040E+06  1.331964E+06  1.054401E+05  1.445256E+05
       259  20 -2.170415E+06 -8.757700E+06 -2.078799E+06  2.306851E+05  2.750316E+05  1.812499E+04
       259  21 -1.358281E+06 -5.901319E+06 -1.363443E+06  1.378943E+06  1.647544E+05 -1.019274E+05
       259  22  6.498940E+04 -8.674071E+04  2.622813E+04  1.516089E+06  1.022662E+05 -3.385298E+03
       259  23 -2.625724E+03 -8.443531E+04  1.633909E+04  3.918957E+05  2.743845E+05  2.596168E+03
       259  24  9.747329E+04 -7.808572E+04  4.605358E+04  1.515263E+06  1.683643E+05  1.545951E+04
       259  25  2.958836E+06  1.157541E+07  2.890577E+06  1.702916E+06  9.903616E+04 -1.540838E+05
       259  26  2.159687E+06  8.658283E+06  2.106086E+06  5.549344E+05  2.737347E+05 -1.315214E+04
       259  27  1.550774E+06  5.776377E+06  1.453163E+06  1.652595E+06  1.720081E+05  1.339517E+05
       260   1 -3.443542E+05 -1.832032E+06 -3.679076E+05  1.471035E+06 -5.668425E+04  1.606293E+04
       260   2  3.020916E+05  1.100142E+06  3.527707E+05  4.202323E+05  3.353930E+04 -2.850356E+04
       260   3  1.133311E+06  3.925059E+06  1.111736E+06  1.619353E+06  1.199754E+05 -7.290107E+04
       260   4  8.857051E+04 -9.574142E+04  4.913531E+04  1.516473E+06 -5.815402E+04 -2.875955E+04
       260   5  1.844683E+04 -3.879003E+04  7.875104E+04  3.908074E+05  3.219279E+04 -7.152180E+04
       260   6  1.334798E+05 -9.681986E+04  1.460829E+05  1.515047E+06  1.187323E+05 -1.139225E+05
       260   7  5.212801E+05  1.643321E+06  4.659715E+05  1.562014E+06 -5.962817E+04 -7.370715E+04
       260   8 -2.652900E+05 -1.176531E+06 -1.953540E+05  3.614272E+05  3.084909E+04 -1.144614E+05
       260   9 -8.675081E+05 -4.103936E+06 -8.207128E+05  1.411283E+06  1.174988E+05 -1.546786E+05
       260  10 -3.443577E+05 -1.832033E+06 -3.679141E+05  1.471035E+06  4.591371E-09 -4.282516E-09
       260  11  3.020902E+05  1.100141E+06  3.527670E+05  4.202331E+05 -1.054180E-08 -1.524576E-08
       260  12  1.133294E+06  3.925050E+06  1.111699E+06  1.619360E+06  1.146628E-08 -2.530134E-08
       260  13  8.856666E+04 -9.574321E+04  4.912742E+04  1.516472E+06  9.232857E-09  3.284341E-08
       260  14  1.844434E+04 -3.879580E+04  7.873947E+04  3.908093E+05 -1.054044E-08  3.403695E-08
       260  15  1.334611E+05 -9.683763E+04  1.460319E+05  1.515058E+06 -2.410436E-08  5.937552E-08
       260  16  5.212749E+05  1.643314E+06  4.659547E+05  1.562011E+06  3.278306E-09  1.986943E-08
       260  17 -2.652945E+05 -1.176546E+06 -1.953805E+05  3.614301E+05  2.309164E-08 -1.766016E-08
       260  18 -8.675294E+05 -4.103965E+06 -8.207842E+05  1.411298E+06  1.684154E-09  2.231641E-08
       260  19 -3.443542E+05 -1.832032E+06 -3.679076E+05  1.471035E+06  5.668425E+04 -1.606293E+04
       260  20  3.020916E+05  1.100142E+06  3.527707E+05  4.202323E+05 -3.353930E+04  2.850356E+04
       260  21  1.133311E+06  3.925059E+06  1.111736E+06  1.619353E+06 -1.199754E+05  7.290107E+04
       260  22  8.857051E+04 -9.574142E+04  4.913531E+04  1.516473E+06  5.815402E+04  2.875955E+04
       260  23  1.844683E+04 -3.879003E+04  7.875104E+04  3.908074E+05 -3.219279E+04  7.152180E+04
       260  24  1.334798E+05 -9.681986E+04  1.460829E+05  1.515047E+06 -1.187323E+05  1.139225E+05
       260  25  5.212801E+05  1.643321E+06  4.659715E+05  1.562014E+06  5.962817E+04  7.370715E+04
       260  26 -2.652900E+05 -1.176531E+06 -1.953540E+05  3.614272E+05 -3.084909E+04  1.144614E+05
       260  27 -8.675081E+05 -4.103936E+06 -8.207128E+05  1.411283E+06 -1.174988E+05  1.546786E+05
       261   1  2.073829E+06  8.118219E+06  2.140456E+06  1.632038E+06  2.382286E+05 -1.931784E+04
       261   2  2.637325E+06  1.087831E+07  2.903261E+06  6.095965E+05  3.370792E+05 -3.278209E+05
       261   3  3.997615E+06  1.392087E+07  4.067872E+06  1.827867E+06  1.149325E+05 -6.313188E+05
       261   4  5.990820E+04 -2.980932E+04  1.878748E+05  1.517286E+06  2.346578E+05 -1.478703E+05
       261   5 -9.002891E+04 -1.603820E+05  2.678529E+05  3.921068E+05  3.381461E+05 -2.976892E+05
       261   6  5.358628E+05 -4.051075E+04  6.445856E+05  1.509652E+06  1.182036E+05 -4.410014E+05
       261   7 -1.958792E+06 -8.117480E+06 -1.769343E+06  1.403525E+06  2.311097E+05 -2.747484E+05
       261   8 -2.826084E+06 -1.108856E+07 -2.376131E+06  1.778305E+05  3.392044E+05 -2.680484E+05
       261   9 -2.940031E+06 -1.382673E+07 -2.792857E+06  1.197614E+06  1.213265E+05 -2.547988E+05
       261  10  2.073768E+06  8.118204E+06  2.140348E+06  1.632042E+06  4.368372E-09  7.817015E-10
       261  11  2.637175E+06  1.087816E+07  2.902848E+06  6.096849E+05  5.053969E-09 -9.105036E-09
       261  12  3.997496E+06  1.392045E+07  4.067114E+06  1.827926E+06  6.021716E-09 -3.670769E-09
       261  13  5.984308E+04 -2.984771E+04  1.877299E+05  1.517314E+06  1.732546E-08  2.846403E-08
       261  14 -9.017555E+04 -1.605079E+05  2.674712E+05  3.921878E+05  2.723389E-09  2.287651E-08
       261  15  5.357954E+05 -4.072345E+04  6.441933E+05  1.509694E+06  8.910967E-09  2.619074E-08
       261  16 -1.958870E+06 -8.117577E+06 -1.769587E+06  1.403577E+06 -1.223894E-08  1.354514E-08
       261  17 -2.826227E+06 -1.108867E+07 -2.376485E+06  1.779043E+05  1.404001E-08 -1.271532E-08
       261  18 -2.940065E+06 -1.382681E+07 -2.793010E+06  1.197639E+06  1.413546E-08  1.795280E-09
       261  19  2.073829E+06  8.118219E+06  2.140456E+06  1.632038E+06 -2.382286E+05  1.931784E+04
       261  20  2.637325E+06  1.087831E+07  2.903261E+06  6.095965E+05 -3.370792E+05  3.278209E+05
       261  21  3.997615E+06  1.392087E+07  4.067872E+06  1.827867E+06 -1.149325E+05  6.313188E+05
       261  22  5.990820E+04 -2.980932E+04  1.878748E+05  1.517286E+06 -2.346578E+05  1.478703E+05
       261  23 -9.002891E+04 -1.603820E+05  2.678529E+05  3.921068E+05 -3.381461E+05  2.976892E+05
       261  24  5.358628E+05 -4.051075E+04  6.445856E+05  1.509652E+06 -1.182036E+05  4.410014E+05
       261  25 -1.958792E+06 -8.117480E+06 -1.769343E+06  1.403525E+06 -2.311097E+05  2.747484E+05
       261  26 -2.826084E+06 -1.108856E+07 -2.376131E+06  1.778305E+05 -3.392044E+05  2.680484E+05
       261  27 -2.940031E+06 -1.382673E+07 -2.792857E+06  1.197614E+06 -1.213265E+05  2.547988E+05
       262   1  1.702350E+07  4.200468E+06  4.181497E+06  1.365217E+06  1.576537E+05 -1.616315E+05
       262   2  1.402994E+07  3.570753E+06  3.419883E+06  3.858304E+05 -7.775652E+02 -4.554796E+05
       262   3  1.133229E+07  2.950430E+06  2.813550E+06  1.595809E+06 -1.578495E+05 -3.541896E+05
       262   4 -5.205803E+05 -1.337679E+05 -1.116811E+05  1.481430E+06 -8.186406E+04 -1.602633E+05
       262   5 -6.395055E+05 -3.865547E+04 -7.573287E+04  3.846944E+05 -4.680308E+04 -4.562477E+05
       262   6 -5.064362E+05  3.037704E+04 -1.703378E+04  1.481093E+06 -1.110193E+04 -3.529309E+05
       262   7 -1.778896E+07 -4.490608E+06 -4.427169E+06  1.594583E+06 -3.147370E+05 -1.589718E+05
       262   8 -1.511434E+07 -3.663536E+06 -3.586456E+06  3.834597E+05 -9.175383E+04 -4.570290E+05
       262   9 -1.221812E+07 -2.899763E+06 -2.857433E+06  1.368040E+06  1.328988E+05 -3.517131E+05
       262  10  1.702347E+07  4.200434E+06  4.181402E+06  1.365237E+06 -2.383090E-09  2.090102E-09
       262  11  1.402989E+07  3.570530E+06  3.419493E+06  3.858301E+05 -1.497664E-10 -2.606067E-09
       262  12  1.133223E+07  2.950290E+06  2.813269E+06  1.595764E+06  1.828348E-08 -1.921646E-08
       262  13 -5.205944E+05 -1.337972E+05 -1.117418E+05  1.481419E+06  3.121302E-09 -5.841139E-09
       262  14 -6.395637E+05 -3.887953E+04 -7.612802E+04  3.846773E+05 -1.042347E-08 -6.037434E-10
       262  15 -5.064697E+05  3.024330E+04 -1.726798E+04  1.481090E+06  1.612910E-09 -1.061438E-09
       262  16 -1.778907E+07 -4.490662E+06 -4.427408E+06  1.594542E+06  3.941042E-10 -1.123752E-09
       262  17 -1.511441E+07 -3.663762E+06 -3.586865E+06  3.834256E+05  1.644704E-10 -3.184344E-10
       262  18 -1.221817E+07 -2.899901E+06 -2.857700E+06  1.368078E+06 -9.309327E-09 -2.799685E-08
       262  19  1.702350E+07  4.200468E+06  4.181497E+06  1.365217E+06 -1.576537E+05  1.616315E+05
       262  20  1.402994E+07  3.570753E+06  3.419883E+06  3.858304E+05  7.775652E+02  4.554796E+05
       262  21  1.133229E+07  2.950430E+06  2.813550E+06  1.595809E+06  1.578495E+05  3.541896E+05
       262  22 -5.205803E+05 -1.337679E+05 -1.116811E+05  1.481430E+06  8.186406E+04  1.602633E+05
       262  23 -6.395055E+05 -3.865547E+04 -7.573287E+04  3.846944E+05  4.680308E+04  4.562477E+05
       262  24 -5.064362E+05  3.037704E+04 -1.703378E+04  1.481093E+06  1.110193E+04  3.529309E+05
       262  25 -1.778896E+07 -4.490608E+06 -4.427169E+06  1.594583E+06  3.147370E+05  1.589718E+05
       262  26 -1.511434E+07 -3.663536E+06 -3.586456E+06  3.834597E+05  9.175383E+04  4.570290E+05
       262  27 -1.221812E+07 -2.899763E+06 -2.857433E+06  1.368040E+06 -1.328988E+05  3.517131E+05
       263   1  7.219201E+06  1.926079E+06  1.836258E+06  1.564520E+06 -4.342689E+04 -2.302604E+05
       263   2  4.394475E+06  1.231301E+06  1.168096E+06  4.360093E+05 -5.159154E+04 -1.498320E+05
       263   3  1.530148E+06  5.756416E+05  5.015994E+05  1.527408E+06 -6.126936E+04 -4.034357E+04
       263   4 -5.511857E+05  4.531550E+03 -2.691237E+04  1.487683E+06 -1.139071E+04 -2.299640E+05
       263   5 -5.239582E+05  1.276793E+04 -1.227967E+04  3.768136E+05 -5.636120E+03 -1.491123E+05
       263   6 -5.463730E+05  5.805867E+04 -5.218057E+03  1.486914E+06 -1.432540E+03 -3.907378E+04
       263   7 -8.266659E+06 -1.921384E+06 -1.894361E+06  1.411536E+06  2.025041E+04 -2.296738E+05
       263   8 -5.420324E+06 -1.207515E+06 -1.194365E+06  3.179852E+05  3.995870E+04 -1.483986E+05
       263   9 -2.618958E+06 -4.598379E+05 -5.123363E+05  1.446531E+06  5.820493E+04 -3.780947E+04
       263  10  7.219185E+06  1.926022E+06  1.836155E+06  1.564512E+06 -1.385382E-09 -3.722924E-08
       263  11  4.394466E+06  1.231276E+06  1.168049E+06  4.360031E+05  3.184028E-09  3.082069E-09
       263  12  1.530144E+06  5.756388E+05  5.015893E+05  1.527406E+06 -1.810212E-08  3.353141E-08
       263  13 -5.512000E+05  4.474750E+03 -2.701194E+04  1.487681E+06  2.588717E-09 -2.805165E-08
       263  14 -5.239642E+05  1.274405E+04 -1.232150E+04  3.768130E+05 -1.010417E-08 -1.132316E-08
       263  15 -5.463735E+05  5.805703E+04 -5.220928E+03  1.486914E+06  7.344027E-09 -8.749237E-10
       263  16 -8.266674E+06 -1.921441E+06 -1.894461E+06  1.411540E+06 -8.070141E-09 -1.230336E-08
       263  17 -5.420331E+06 -1.207539E+06 -1.194409E+06  3.179900E+05 -2.655323E-09 -7.964160E-09
       263  18 -2.618962E+06 -4.598403E+05 -5.123454E+05  1.446533E+06  2.351752E-08  1.889758E-08
       263  19  7.219201E+06  1.926079E+06  1.836258E+06  1.564520E+06  4.342689E+04  2.302604E+05
       263  20  4.394475E+06  1.231301E+06  1.168096E+06  4.360093E+05  5.159154E+04  1.498320E+05
       263  21  1.530148E+06  5.756416E+05  5.015994E+05  1.527408E+06  6.126936E+04  4.034357E+04
       263  22 -5.511857E+05  4.531550E+03 -2.691237E+04  1.487683E+06  1.139071E+04  2.299640E+05
       263  23 -5.239582E+05  1.276793E+04 -1.227967E+04  3.768136E+05  5.636120E+03  1.491123E+05
       263  24 -5.463730E+05  5.805867E+04 -5.218057E+03  1.486914E+06  1.432540E+03  3.907378E+04
       263  25 -8.266659E+06 -1.921384E+06 -1.894361E+06  1.411536E+06 -2.025041E+04  2.296738E+05
       263  26 -5.420324E+06 -1.207515E+06 -1.194365E+06  3.179852E+05 -3.995870E+04  1.483986E+05
       263  27 -2.618958E+06 -4.598379E+05 -5.123363E+05  1.446531E+06 -5.820493E+04  3.780947E+04
       264   1 -2.514363E+06 -4.345667E+05 -4.864454E+05  1.448692E+06 -6.282506E+04  3.455720E+04
       264   2 -5.315970E+06 -1.181816E+06 -1.164703E+06  3.186148E+05 -4.692138E+04  1.451126E+05
       264   3 -8.162698E+06 -1.890122E+06 -1.858458E+06  1.410605E+06 -2.956843E+04  2.265389E+05
       264   4 -5.462891E+05  5.725283E+04 -4.562676E+03  1.486944E+06 -3.237246E+03  3.582267E+04
       264   5 -5.237415E+05  1.246270E+04 -7.836184E+03  3.768045E+05 -1.311224E+03  1.458338E+05
       264   6 -5.509965E+05  9.824953E+03 -1.627862E+04  1.487622E+06  2.142199E+03  2.268401E+05
       264   7  1.425334E+06  5.487895E+05  4.770498E+05  1.525296E+06  5.653972E+04  3.709333E+04
       264   8  4.289625E+06  1.205065E+06  1.147393E+06  4.353503E+05  4.465210E+04  1.465608E+05
       264   9  7.114147E+06  1.905521E+06  1.821738E+06  1.565331E+06  3.424396E+04  2.271475E+05
       264  10 -2.514368E+06 -4.345691E+05 -4.864551E+05  1.448694E+06  1.395849E-09  4.728815E-08
       264  11 -5.315978E+06 -1.181839E+06 -1.164747E+06  3.186203E+05 -4.048219E-09  2.082881E-08
       264  12 -8.162713E+06 -1.890178E+06 -1.858556E+06  1.410611E+06  1.323194E-08  2.333631E-09
       264  13 -5.462895E+05  5.725145E+04 -4.565108E+03  1.486944E+06  9.960293E-09 -2.131255E-09
       264  14 -5.237472E+05  1.243987E+04 -7.876143E+03  3.768047E+05 -1.502276E-08  2.568209E-08
       264  15 -5.510103E+05  9.769712E+03 -1.637529E+04  1.487621E+06 -3.389949E-09  3.720499E-08
       264  16  1.425330E+06  5.487872E+05  4.770413E+05  1.525294E+06 -8.506947E-09  3.475282E-08
       264  17  4.289617E+06  1.205041E+06  1.147349E+06  4.353450E+05 -1.319273E-09  2.870987E-08
       264  18  7.114132E+06  1.905466E+06  1.821639E+06  1.565325E+06 -7.355070E-09  2.240454E-08
       264  19 -2.514363E+06 -4.345667E+05 -4.864454E+05  1.448692E+06  6.282506E+04 -3.455720E+04
       264  20 -5.315970E+06 -1.181816E+06 -1.164703E+06  3.186148E+05  4.692138E+04 -1.451126E+05
       264  21 -8.162698E+06 -1.890122E+06 -1.858458E+06  1.410605E+06  2.956843E+04 -2.265389E+05
       264  22 -5.462891E+05  5.725283E+04 -4.562676E+03  1.486944E+06  3.237246E+03 -3.582267E+04
       264  23 -5.237415E+05  1.246270E+04 -7.836184E+03  3.768045E+05  1.311224E+03 -1.458338E+05
       264  24 -5.509965E+05  9.824953E+03 -1.627862E+04  1.487622E+06 -2.142199E+03 -2.268401E+05
       264  25  1.425334E+06  5.487895E+05  4.770498E+05  1.525296E+06 -5.653972E+04 -3.709333E+04
       264  26  4.289625E+06  1.205065E+06  1.147393E+06  4.353503E+05 -4.465210E+04 -1.465608E+05
       264  27  7.114147E+06  1.905521E+06  1.821738E+06  1.565331E+06 -3.424396E+04 -2.271475E+05
       265   1 -1.211248E+07 -2.875002E+06 -2.819004E+06  1.372631E+06 -1.435981E+05  3.482583E+05
       265   2 -1.501399E+07 -3.642823E+06 -3.539029E+06  3.770851E+05  6.815618E+04  4.537500E+05
       265   3 -1.768420E+07 -4.422869E+06 -4.350407E+06  1.578463E+06  2.784211E+05  1.582594E+05
       265   4 -5.039803E+05  2.905508E+04 -3.798796E+03  1.481319E+06 -1.834769E+02  3.495057E+05
       265   5 -6.414911E+05 -4.376647E+04 -5.336798E+04  3.844256E+05  2.346253E+04  4.529689E+05
       265   6 -5.180121E+05 -9.245992E+04 -6.085050E+04  1.481867E+06  4.659021E+04  1.594803E+05
       265   7  1.122932E+07  2.923202E+06  2.801765E+06  1.591569E+06  1.459440E+05  3.507915E+05
       265   8  1.392286E+07  3.540037E+06  3.417400E+06  3.918013E+05 -2.228696E+04  4.521999E+05
       265   9  1.692061E+07  4.215607E+06  4.206663E+06  1.382676E+06 -1.918045E+05  1.607658E+05
       265  10 -1.211254E+07 -2.875138E+06 -2.819272E+06  1.372672E+06  2.035596E-08  4.614163E-10
       265  11 -1.501405E+07 -3.643046E+06 -3.539425E+06  3.770600E+05  6.961953E-09 -1.433902E-09
       265  12 -1.768430E+07 -4.422917E+06 -4.350604E+06  1.578427E+06 -1.046521E-08 -7.223769E-09
       265  13 -5.040130E+05  2.892394E+04 -4.028285E+03  1.481319E+06  2.827052E-10  1.503127E-08
       265  14 -6.415467E+05 -4.398689E+04 -5.375447E+04  3.844171E+05 -2.390664E-09 -2.969868E-10
       265  15 -5.180213E+05 -9.248779E+04 -6.090229E+04  1.481861E+06 -4.969376E-10 -2.800583E-09
       265  16  1.122927E+07  2.923064E+06  2.801495E+06  1.591528E+06 -2.733908E-08  2.607846E-08
       265  17  1.392281E+07  3.539818E+06  3.417015E+06  3.918093E+05 -4.414375E-09  3.019959E-09
       265  18  1.692057E+07  4.215570E+06  4.206547E+06  1.382701E+06  3.806703E-09 -3.339685E-09
       265  19 -1.211248E+07 -2.875002E+06 -2.819004E+06  1.372631E+06  1.435981E+05 -3.482583E+05
       265  20 -1.501399E+07 -3.642823E+06 -3.539029E+06  3.770851E+05 -6.815618E+04 -4.537500E+05
       265  21 -1.768420E+07 -4.422869E+06 -4.350407E+06  1.578463E+06 -2.784211E+05 -1.582594E+05
       265  22 -5.039803E+05  2.905508E+04 -3.798796E+03  1.481319E+06  1.834769E+02 -3.495057E+05
       265  23 -6.414911E+05 -4.376647E+04 -5.336798E+04  3.844256E+05 -2.346253E+04 -4.529689E+05
       265  24 -5.180121E+05 -9.245992E+04 -6.085050E+04  1.481867E+06 -4.659021E+04 -1.594803E+05
       265  25  1.122932E+07  2.923202E+06  2.801765E+06  1.591569E+06 -1.459440E+05 -3.507915E+05
       265  26  1.392286E+07  3.540037E+06  3.417400E+06  3.918013E+05  2.228696E+04 -4.521999E+05
       265  27  1.692061E+07  4.215607E+06  4.206663E+06  1.382676E+06  1.918045E+05 -1.607658E+05
       266   1 -3.365231E+06 -1.351771E+07 -3.362616E+06  1.614297E+06 -1.242103E+05 -1.551016E+05
       266   2 -2.577293E+06 -1.012819E+07 -2.462479E+06  2.945141E+05 -3.253552E+05 -6.328026E+03
       266   3 -1.610254E+06 -6.716039E+06 -1.617305E+06  1.650770E+06 -1.943014E+05  1.356454E+05
       266   4  7.718850E+04  1.529892E+05  4.570285E+04  1.808942E+06 -1.208803E+05  2.006524E+04
       266   5 -1.013194E+04  1.387291E+05  1.926471E+04  4.718399E+05 -3.245658E+05  1.204384E+04
       266   6  1.103048E+05  1.651667E+05  4.881009E+04  1.808054E+06 -1.984794E+05 -3.529532E+03
       266   7  3.505543E+06  1.399570E+07  3.440084E+06  2.006934E+06 -1.174809E+05  1.991487E+05
       266   8  2.549340E+06  1.050308E+07  2.493448E+06  6.515408E+05 -3.237740E+05  3.072206E+04
       266   9  1.827434E+06  7.090004E+06  1.711593E+06  1.966706E+06 -2.027037E+05 -1.442550E+05
       266  10 -3.365254E+06 -1.351774E+07 -3.362691E+06  1.614281E+06 -4.186748E-10  5.886660E-09
       266  11 -2.577407E+06 -1.012822E+07 -2.462678E+06  2.945124E+05  7.104345E-09  3.540825E-08
       266  12 -1.610300E+06 -6.716069E+06 -1.617412E+06  1.650791E+06 -1.481782E-08 -1.581224E-09
       266  13  7.717269E+04  1.529849E+05  4.567460E+04  1.808944E+06 -4.376414E-09 -2.103000E-10
       266  14 -1.024511E+04  1.387006E+05  1.906644E+04  4.718430E+05  3.157701E-08  4.800533E-08
       266  15  1.102625E+05  1.651561E+05  4.873605E+04  1.808054E+06 -5.735857E-09  4.125041E-08
       266  16  3.505518E+06  1.399565E+07  3.439985E+06  2.006953E+06 -5.047474E-09 -6.345147E-09
       266  17  2.549228E+06  1.050305E+07  2.493249E+06  6.515488E+05  5.181794E-09  3.679869E-08
       266  18  1.827385E+06  7.089971E+06  1.711477E+06  1.966682E+06  6.390056E-09  2.902557E-08
       266  19 -3.365231E+06 -1.351771E+07 -3.362616E+06  1.614297E+06  1.242103E+05  1.551016E+05
       266  20 -2.577293E+06 -1.012819E+07 -2.462479E+06  2.945141E+05  3.253552E+05  6.328026E+03
       266  21 -1.610254E+06 -6.716039E+06 -1.617305E+06  1.650770E+06  1.943014E+05 -1.356454E+05
       266  22  7.718850E+04  1.529892E+05  4.570285E+04  1.808942E+06  1.208803E+05 -2.006524E+04
       266  23 -1.013194E+04  1.387291E+05  1.926471E+04  4.718399E+05  3.245658E+05 -1.204384E+04
       266  24  1.103048E+05  1.651667E+05  4.881009E+04  1.808054E+06  1.984794E+05  3.529532E+03
       266  25  3.505543E+06  1.399570E+07  3.440084E+06  2.006934E+06  1.174809E+05 -1.991487E+05
       266  26  2.549340E+06  1.050308E+07  2.493448E+06  6.515408E+05  3.237740E+05 -3.072206E+04
       266  27  1.827434E+06  7.090004E+06  1.711593E+06  1.966706E+06  2.027037E+05  1.442550E+05
       267   1 -4.017842E+05 -1.893846E+06 -4.410857E+05  1.759432E+06 -6.587266E+04  3.524512E+04
       267   2  3.694200E+05  1.590253E+06  4.017048E+05  5.049006E+05  4.166237E+04 -4.870852E+03
       267   3  1.325422E+06  4.945218E+06  1.274032E+06  1.922740E+06  1.446574E+05 -4.469907E+04
       267   4  1.042637E+05  1.373289E+05  4.663907E+04  1.808329E+06 -6.759884E+04 -1.798789E+04
       267   5  2.516526E+04  2.065594E+05  6.897205E+04  4.716941E+05  4.009708E+04 -5.598132E+04
       267   6  1.314121E+05  1.357263E+05  1.202370E+05  1.807450E+06  1.432216E+05 -9.348411E+04
       267   7  6.100166E+05  2.172297E+06  5.340816E+05  1.857350E+06 -6.933037E+04 -7.139479E+04
       267   8 -3.192255E+05 -1.175378E+06 -2.638872E+05  4.385478E+05  3.853547E+04 -1.069783E+05
       267   9 -1.064254E+06 -4.652679E+06 -1.035190E+06  1.692862E+06  1.417981E+05 -1.418927E+05
       267  10 -4.017892E+05 -1.893849E+06 -4.410963E+05  1.759434E+06  8.606100E-10  1.831264E-08
       267  11  3.694181E+05  1.590252E+06  4.017015E+05  5.049008E+05 -1.643613E-09  5.416338E-08
       267  12  1.325399E+06  4.945210E+06  1.273989E+06  1.922745E+06  1.609430E-08 -2.137669E-09
       267  13  1.042587E+05  1.373273E+05  4.662989E+04  1.808328E+06 -3.746229E-09 -4.250419E-10
       267  14  2.516269E+04  2.065556E+05  6.896313E+04  4.716959E+05 -1.175526E-08  6.450454E-08
       267  15  1.313877E+05  1.357113E+05  1.201819E+05  1.807461E+06 -2.372778E-08  4.205852E-08
       267  16  6.100101E+05  2.172290E+06  5.340631E+05  1.857346E+06  3.276770E-09 -1.877201E-08
       267  17 -3.192302E+05 -1.175391E+06 -2.639115E+05  4.385511E+05  1.541101E-08  4.226903E-08
       267  18 -1.064281E+06 -4.652707E+06 -1.035266E+06  1.692878E+06  3.629264E-09  2.842341E-08
       267  19 -4.017842E+05 -1.893846E+06 -4.410857E+05  1.759432E+06  6.587266E+04 -3.524512E+04
       267  20  3.694200E+05  1.590253E+06  4.017048E+05  5.049006E+05 -4.166237E+04  4.870852E+03
       267  21  1.325422E+06  4.945218E+06  1.274032E+06  1.922740E+06 -1.446574E+05  4.469907E+04
       267  22  1.042637E+05  1.373289E+05  4.663907E+04  1.808329E+06  6.759884E+04  1.798789E+04
       267  23  2.516526E+04  2.065594E+05  6.897205E+04  4.716941E+05 -4.009708E+04  5.598132E+04
       267  24  1.314121E+05  1.357263E+05  1.202370E+05  1.807450E+06 -1.432216E+05  9.348411E+04
       267  25  6.100166E+05  2.172297E+06  5.340816E+05  1.857350E+06  6.933037E+04  7.139479E+04
       267  26 -3.192255E+05 -1.175378E+06 -2.638872E+05  4.385478E+05 -3.853547E+04  1.069783E+05
       267  27 -1.064254E+06 -4.652679E+06 -1.035190E+06  1.692862E+06 -1.417981E+05  1.418927E+05
       268   1  2.476488E+06  9.925113E+06  2.485209E+06  1.964665E+06  2.854039E+05  2.938248E+04
       268   2  3.158118E+06  1.322509E+07  3.346380E+06  6.870974E+05  4.045261E+05 -2.786996E+05
       268   3  4.543317E+06  1.684827E+07  4.596718E+06  2.079955E+06  1.416714E+05 -5.818980E+05
       268   4  7.661235E+04  2.094663E+05  1.595327E+05  1.810119E+06  2.813565E+05 -1.240442E+05
       268   5 -8.707454E+04  6.080768E+04  2.086550E+05  4.712979E+05  4.057749E+05 -2.432618E+05
       268   6  4.263230E+05  1.940716E+05  5.214800E+05  1.806134E+06  1.446902E+05 -3.558152E+05
       268   7 -2.330039E+06 -9.420529E+06 -2.172726E+06  1.657258E+06  2.773514E+05 -2.750961E+05
       268   8 -3.344649E+06 -1.294668E+07 -2.941235E+06  2.592320E+05  4.070168E+05 -2.085194E+05
       268   9 -3.710892E+06 -1.621166E+07 -3.573844E+06  1.538460E+06  1.475636E+05 -1.355650E+05
       268  10  2.476400E+06  9.925090E+06  2.485054E+06  1.964658E+06  3.827069E-09  1.539473E-08
       268  11  3.157922E+06  1.322496E+07  3.345929E+06  6.871874E+05 -8.675246E-11  3.493614E-08
       268  12  4.543207E+06  1.684791E+07  4.596059E+06  2.080021E+06  9.797430E-10 -3.808064E-09
       268  13  7.652306E+04  2.094284E+05  1.593546E+05  1.810147E+06  1.371257E-08 -1.631180E-10
       268  14 -8.726733E+04  6.069983E+04  2.082340E+05  4.713774E+05 -4.112659E-09  3.867078E-08
       268  15  4.262664E+05  1.939299E+05  5.212021E+05  1.806175E+06  2.975750E-09  1.275388E-08
       268  16 -2.330143E+06 -9.420632E+06 -2.173015E+06  1.657320E+06 -7.496165E-09 -1.544686E-08
       268  17 -3.344839E+06 -1.294678E+07 -2.941630E+06  2.593010E+05  2.029705E-09  2.525278E-08
       268  18 -3.710921E+06 -1.621169E+07 -3.573921E+06  1.538476E+06  6.582984E-09  1.186023E-08
       268  19  2.476488E+06  9.925113E+06  2.485209E+06  1.964665E+06 -2.854039E+05 -2.938248E+04
       268  20  3.158118E+06  1.322509E+07  3.346380E+06  6.870974E+05 -4.045261E+05  2.786996E+05
       268  21  4.543317E+06  1.684827E+07  4.596718E+06  2.079955E+06 -1.416714E+05  5.818980E+05
       268  22  7.661235E+04  2.094663E+05  1.595327E+05  1.810119E+06 -2.813565E+05  1.240442E+05
       268  23 -8.707454E+04  6.080768E+04  2.086550E+05  4.712979E+05 -4.057749E+05  2.432618E+05
       268  24  4.263230E+05  1.940716E+05  5.214800E+05  1.806134E+06 -1.446902E+05  3.558152E+05
       268  25 -2.330039E+06 -9.420529E+06 -2.172726E+06  1.657258E+06 -2.773514E+05  2.750961E+05
       268  26 -3.344649E+06 -1.294668E+07 -2.941235E+06  2.592320E+05 -4.070168E+05  2.085194E+05
       268  27 -3.710892E+06 -1.621166E+07 -3.573844E+06  1.538460E+06 -1.475636E+05  1.355650E+05
       269   1  1.470428E+07  3.660981E+06  3.661163E+06  1.210298E+06  1.920463E+05 -1.385232E+05
       269   2  1.210181E+07  3.039235E+06  2.954560E+06  3.281042E+05  3.496723E+04 -3.882074E+05
       269   3  9.742734E+06  2.489667E+06  2.405217E+06  1.359102E+06 -1.205515E+05 -2.991346E+05
       269   4 -2.899975E+05 -4.760632E+04 -1.256563E+04  1.294634E+06 -1.283333E+04 -1.372341E+05
       269   5 -3.886625E+05 -3.719929E+04 -2.480914E+04  3.365092E+05 -4.032963E+03 -3.887076E+05
       269   6 -2.794980E+05  1.637028E+04  6.981763E+03  1.294276E+06  5.711573E+03 -2.983896E+05
       269   7 -1.508250E+07 -3.772739E+06 -3.702617E+06  1.377133E+06 -2.128571E+05 -1.359893E+05
       269   8 -1.273782E+07 -3.124866E+06 -3.015146E+06  3.447195E+05 -4.226274E+04 -3.892165E+05
       269   9 -1.021057E+07 -2.464171E+06 -2.398293E+06  1.230210E+06  1.299681E+05 -2.976643E+05
       269  10  1.470424E+07  3.660951E+06  3.661059E+06  1.210320E+06 -1.080429E-08  5.704581E-09
       269  11  1.210177E+07  3.039073E+06  2.954275E+06  3.281150E+05 -1.315804E-08  2.373095E-09
       269  12  9.742695E+06  2.489568E+06  2.405022E+06  1.359073E+06  8.483573E-09 -1.280708E-08
       269  13 -2.900027E+05 -4.762659E+04 -1.260131E+04  1.294632E+06 -1.295084E-09 -1.611772E-08
       269  14 -3.887030E+05 -3.736153E+04 -2.509307E+04  3.365080E+05  3.124404E-09  1.235666E-09
       269  15 -2.795219E+05  1.627467E+04  6.814393E+03  1.294277E+06 -6.846720E-10 -1.869146E-08
       269  16 -1.508255E+07 -3.772771E+06 -3.702739E+06  1.377110E+06 -1.321981E-09 -5.937189E-09
       269  17 -1.273786E+07 -3.125029E+06 -3.015434E+06  3.447062E+05 -6.955748E-10 -2.715120E-11
       269  18 -1.021061E+07 -2.464271E+06 -2.398492E+06  1.230241E+06 -5.770961E-09 -1.459073E-08
       269  19  1.470428E+07  3.660981E+06  3.661163E+06  1.210298E+06 -1.920463E+05  1.385232E+05
       269  20  1.210181E+07  3.039235E+06  2.954560E+06  3.281042E+05 -3.496723E+04  3.882074E+05
       269  21  9.742734E+06  2.489667E+06  2.405217E+06  1.359102E+06  1.205515E+05  2.991346E+05
       269  22 -2.899975E+05 -4.760632E+04 -1.256563E+04  1.294634E+06  1.283333E+04  1.372341E+05
       269  23 -3.886625E+05 -3.719929E+04 -2.480914E+04  3.365092E+05  4.032963E+03  3.887076E+05
       269  24 -2.794980E+05  1.637028E+04  6.981763E+03  1.294276E+06 -5.711573E+03  2.983896E+05
       269  25 -1.508250E+07 -3.772739E+06 -3.702617E+06  1.377133E+06  2.128571E+05  1.359893E+05
       269  26 -1.273782E+07 -3.124866E+06 -3.015146E+06  3.447195E+05  4.226274E+04  3.892165E+05
       269  27 -1.021057E+07 -2.464171E+06 -2.398293E+06  1.230210E+06 -1.299681E+05  2.976643E+05
       270   1  6.167517E+06  1.609769E+06  1.551617E+06  1.346826E+06 -2.551695E+04 -1.922479E+05
       270   2  3.705333E+06  9.999494E+05  9.612732E+05  3.682893E+05 -3.771477E+04 -1.218178E+05
       270   3  1.220588E+06  4.201324E+05  3.775250E+05  1.321319E+06 -5.092965E+04 -2.660448E+04
       270   4 -3.160688E+05  6.053818E+03 -3.631105E+03  1.298122E+06  2.585523E+03 -1.920586E+05
       270   5 -2.991956E+05  7.941693E+03  2.947638E+01  3.317915E+05  2.308689E+03 -1.213425E+05
       270   6 -3.126683E+05  3.809437E+04  2.385617E+03  1.297782E+06  9.661456E+02 -2.575378E+04
       270   7 -6.761394E+06 -1.600707E+06 -1.561858E+06  1.249779E+06  3.039779E+04 -1.918728E+05
       270   8 -4.289089E+06 -9.852278E+05 -9.623469E+05  2.954777E+05  4.207611E+04 -1.208705E+05
       270   9 -1.843778E+06 -3.441152E+05 -3.729156E+05  1.274293E+06  5.273421E+04 -2.490586E+04
       270  10  6.167507E+06  1.609729E+06  1.551546E+06  1.346822E+06  3.317243E-09  2.207730E-09
       270  11  3.705328E+06  9.999331E+05  9.612426E+05  3.682856E+05 -1.238759E-09  9.195238E-09
       270  12  1.220585E+06  4.201309E+05  3.775188E+05  1.321318E+06 -6.425104E-09  1.396422E-08
       270  13 -3.160787E+05  6.014210E+03 -3.700429E+03  1.298122E+06  4.778193E-09 -1.375479E-08
       270  14 -2.991996E+05  7.925883E+03  1.800579E+00  3.317918E+05 -4.025691E-09  1.215520E-08
       270  15 -3.126685E+05  3.809366E+04  2.384368E+03  1.297782E+06  3.384875E-09  1.718324E-08
       270  16 -6.761404E+06 -1.600746E+06 -1.561929E+06  1.249784E+06 -2.228091E-09 -3.660244E-10
       270  17 -4.289095E+06 -9.852440E+05 -9.623777E+05  2.954818E+05  6.726217E-10 -2.242936E-08
       270  18 -1.843781E+06 -3.441166E+05 -3.729220E+05  1.274294E+06  1.182278E-08  1.844168E-09
       270  19  6.167517E+06  1.609769E+06  1.551617E+06  1.346826E+06  2.551695E+04  1.922479E+05
       270  20  3.705333E+06  9.999494E+05  9.612732E+05  3.682893E+05  3.771477E+04  1.218178E+05
       270  21  1.220588E+06  4.201324E+05  3.775250E+05  1.321319E+06  5.092965E+04  2.660448E+04
       270  22 -3.160688E+05  6.053818E+03 -3.631105E+03  1.298122E+06 -2.585523E+03  1.920586E+05
       270  23 -2.991956E+05  7.941693E+03  2.947638E+01  3.317915E+05 -2.308689E+03  1.213425E+05
       270  24 -3.126683E+05  3.809437E+04  2.385617E+03  1.297782E+06 -9.661456E+02  2.575378E+04
       270  25 -6.761394E+06 -1.600707E+06 -1.561858E+06  1.249779E+06 -3.039779E+04  1.918728E+05
       270  26 -4.289089E+06 -9.852278E+05 -9.623469E+05  2.954777E+05 -4.207611E+04  1.208705E+05
       270  27 -1.843778E+06 -3.441152E+05 -3.729156E+05  1.274293E+06 -5.273421E+04  2.490586E+04
       271   1 -2.294743E+06 -4.561494E+05 -4.816053E+05  1.268836E+06 -5.332198E+04  3.851549E+04
       271   2 -4.742064E+06 -1.098758E+06 -1.071905E+06  2.926886E+05 -4.207515E+04  1.345432E+05
       271   3 -7.210171E+06 -1.716677E+06 -1.671561E+06  1.249594E+06 -2.972346E+04  2.048006E+05
       271   4 -3.117261E+05  3.856716E+04  2.714334E+03  1.297739E+06 -1.364855E+03  3.935815E+04
       271   5 -3.015817E+05  6.846379E+03 -5.266933E+02  3.318354E+05 -2.495915E+03  1.349859E+05
       271   6 -3.155106E+05  2.530635E+03 -4.085905E+03  1.298113E+06 -2.474274E+03  2.049435E+05
       271   7  1.674892E+06  5.329957E+05  4.867573E+05  1.326717E+06  5.075833E+04  4.020419E+04
       271   8  4.157034E+06  1.111011E+06  1.069446E+06  3.712026E+05  3.736709E+04  1.354321E+05
       271   9  6.622949E+06  1.718251E+06  1.659978E+06  1.347016E+06  2.507923E+04  2.050900E+05
       271  10 -2.294746E+06 -4.561518E+05 -4.816134E+05  1.268838E+06 -1.240869E-08  3.136558E-08
       271  11 -4.742071E+06 -1.098778E+06 -1.071942E+06  2.926932E+05 -6.508643E-09  7.190482E-09
       271  12 -7.210184E+06 -1.716722E+06 -1.671642E+06  1.249599E+06  6.496572E-09  2.201121E-08
       271  13 -3.117265E+05  3.856550E+04  2.711420E+03  1.297739E+06  7.209653E-09  1.287491E-08
       271  14 -3.015866E+05  6.826813E+03 -5.609419E+02  3.318357E+05  9.018865E-09  1.685410E-08
       271  15 -3.155219E+05  2.485535E+03 -4.164839E+03  1.298113E+06 -3.134654E-09  1.382873E-09
       271  16  1.674888E+06  5.329933E+05  4.867495E+05  1.326715E+06  1.184810E-08  9.628081E-09
       271  17  4.157028E+06  1.110991E+06  1.069409E+06  3.711985E+05 -3.871258E-09 -2.619366E-09
       271  18  6.622937E+06  1.718206E+06  1.659898E+06  1.347012E+06 -1.055914E-08 -2.193470E-08
       271  19 -2.294743E+06 -4.561494E+05 -4.816053E+05  1.268836E+06  5.332198E+04 -3.851549E+04
       271  20 -4.742064E+06 -1.098758E+06 -1.071905E+06  2.926886E+05  4.207515E+04 -1.345432E+05
       271  21 -7.210171E+06 -1.716677E+06 -1.671561E+06  1.249594E+06  2.972346E+04 -2.048006E+05
       271  22 -3.117261E+05  3.856716E+04  2.714334E+03  1.297739E+06  1.364855E+03 -3.935815E+04
       271  23 -3.015817E+05  6.846379E+03 -5.266933E+02  3.318354E+05  2.495915E+03 -1.349859E+05
       271  24 -3.155106E+05  2.530635E+03 -4.085905E+03  1.298113E+06  2.474274E+03 -2.049435E+05
       271  25  1.674892E+06  5.329957E+05  4.867573E+05  1.326717E+06 -5.075833E+04 -4.020419E+04
       271  26  4.157034E+06  1.111011E+06  1.069446E+06  3.712026E+05 -3.736709E+04 -1.354321E+05
       271  27  6.622949E+06  1.718251E+06  1.659978E+06  1.347016E+06 -2.507923E+04 -2.050900E+05
       272   1 -1.065521E+07 -2.579156E+06 -2.506934E+06  1.233375E+06 -1.318962E+05  3.119635E+05
       272   2 -1.318972E+07 -3.240431E+06 -3.125903E+06  3.560508E+05  4.565530E+04  4.031523E+05
       272   3 -1.552380E+07 -3.891126E+06 -3.815555E+06  1.395182E+06  2.210578E+05  1.401247E+05
       272   4 -2.770214E+05  1.360011E+04  7.080258E+03  1.293962E+06 -5.601426E+03  3.125720E+05
       272   5 -3.958382E+05 -4.061928E+04 -2.695051E+04  3.369384E+05  5.145944E+03  4.026505E+05
       272   6 -2.878993E+05 -5.297182E+04 -1.389150E+04  1.294300E+06  1.445616E+04  1.416907E+05
       272   7  1.020076E+07  2.598440E+06  2.513401E+06  1.355292E+06  1.228258E+05  3.132000E+05
       272   8  1.254977E+07  3.147132E+06  3.060226E+06  3.174356E+05 -3.620974E+04  4.021593E+05
       272   9  1.516216E+07  3.767629E+06  3.770450E+06  1.191145E+06 -1.973146E+05  1.433111E+05
       272  10 -1.065525E+07 -2.579265E+06 -2.507150E+06  1.233408E+06  4.168252E-09  1.353510E-08
       272  11 -1.318976E+07 -3.240606E+06 -3.126212E+06  3.560359E+05  1.223197E-08  6.292443E-09
       272  12 -1.552386E+07 -3.891160E+06 -3.815685E+06  1.395157E+06  7.178453E-09  3.553280E-09
       272  13 -2.770477E+05  1.349520E+04  6.896609E+03  1.293963E+06  6.707701E-09  1.394289E-08
       272  14 -3.958817E+05 -4.079336E+04 -2.725519E+04  3.369367E+05  4.144417E-09  6.679408E-09
       272  15 -2.879049E+05 -5.299343E+04 -1.392960E+04  1.294298E+06  2.498366E-09 -1.127585E-08
       272  16  1.020072E+07  2.598331E+06  2.513189E+06  1.355261E+06 -5.844112E-09  4.841778E-09
       272  17  1.254973E+07  3.146958E+06  3.059920E+06  3.174473E+05 -3.420519E-10  7.852374E-09
       272  18  1.516211E+07  3.767597E+06  3.770339E+06  1.191168E+06 -5.970152E-09  8.167011E-09
       272  19 -1.065521E+07 -2.579156E+06 -2.506934E+06  1.233375E+06  1.318962E+05 -3.119635E+05
       272  20 -1.318972E+07 -3.240431E+06 -3.125903E+06  3.560508E+05 -4.565530E+04 -4.031523E+05
       272  21 -1.552380E+07 -3.891126E+06 -3.815555E+06  1.395182E+06 -2.210578E+05 -1.401247E+05
       272  22 -2.770214E+05  1.360011E+04  7.080258E+03  1.293962E+06  5.601426E+03 -3.125720E+05
       272  23 -3.958382E+05 -4.061928E+04 -2.695051E+04  3.369384E+05 -5.145944E+03 -4.026505E+05
       272  24 -2.878993E+05 -5.297182E+04 -1.389150E+04  1.294300E+06 -1.445616E+04 -1.416907E+05
       272  25  1.020076E+07  2.598440E+06  2.513401E+06  1.355292E+06 -1.228258E+05 -3.132000E+05
       272  26  1.254977E+07  3.147132E+06  3.060226E+06  3.174356E+05  3.620974E+04 -4.021593E+05
       272  27  1.516216E+07  3.767629E+06  3.770450E+06  1.191145E+06  1.973146E+05 -1.433111E+05
       273   1 -3.399008E+06 -1.391967E+07 -3.401432E+06  1.689025E+06 -1.245726E+05 -1.590035E+05
       273   2 -2.562444E+06 -1.038126E+07 -2.460804E+06  3.113791E+05 -3.240324E+05 -3.178909E+03
       273   3 -1.560295E+06 -6.828645E+06 -1.584506E+06  1.724579E+06 -1.870610E+05  1.458699E+05
       273   4  6.807731E+04 -1.556991E+05  3.166217E+04  1.879201E+06 -1.212719E+05  1.628465E+04
       273   5 -7.425152E+03 -1.652497E+05  9.288559E+03  4.846648E+05 -3.232909E+05  1.347100E+04
       273   6  1.118654E+05 -1.430551E+05  3.504285E+04  1.878150E+06 -1.913250E+05  3.053603E+03
       273   7  3.520887E+06  1.378273E+07  3.450613E+06  2.072638E+06 -1.179044E+05  1.955219E+05
       273   8  2.539974E+06  1.014727E+07  2.471890E+06  6.602556E+05 -3.225475E+05  3.039705E+04
       273   9  1.780787E+06  6.583737E+06  1.651450E+06  2.033021E+06 -1.956354E+05 -1.413092E+05
       273  10 -3.399031E+06 -1.391970E+07 -3.401509E+06  1.689009E+06 -4.161648E-09  2.295726E-08
       273  11 -2.562557E+06 -1.038129E+07 -2.461001E+06  3.113783E+05  2.081194E-09 -3.497328E-09
       273  12 -1.560338E+06 -6.828677E+06 -1.584612E+06  1.724601E+06 -1.316690E-08  1.825112E-08
       273  13  6.806144E+04 -1.557034E+05  3.163401E+04  1.879202E+06 -7.704985E-09  2.935279E-08
       273  14 -7.537430E+03 -1.652780E+05  9.091807E+03  4.846683E+05  2.707822E-08 -4.989916E-08
       273  15  1.118261E+05 -1.430649E+05  3.497405E+04  1.878150E+06 -7.743909E-09  3.001951E-08
       273  16  3.520862E+06  1.378269E+07  3.450516E+06  2.072656E+06 -2.189772E-09 -1.400027E-08
       273  17  2.539862E+06  1.014724E+07  2.471693E+06  6.602635E+05  5.980736E-10 -2.909609E-08
       273  18  1.780741E+06  6.583705E+06  1.651342E+06  2.032999E+06 -5.807818E-09  1.338782E-08
       273  19 -3.399008E+06 -1.391967E+07 -3.401432E+06  1.689025E+06  1.245726E+05  1.590035E+05
       273  20 -2.562444E+06 -1.038126E+07 -2.460804E+06  3.113791E+05  3.240324E+05  3.178909E+03
       273  21 -1.560295E+06 -6.828645E+06 -1.584506E+06  1.724579E+06  1.870610E+05 -1.458699E+05
       273  22  6.807731E+04 -1.556991E+05  3.166217E+04  1.879201E+06  1.212719E+05 -1.628465E+04
       273  23 -7.425152E+03 -1.652497E+05  9.288559E+03  4.846648E+05  3.232909E+05 -1.347100E+04
       273  24  1.118654E+05 -1.430551E+05  3.504285E+04  1.878150E+06  1.913250E+05 -3.053603E+03
       273  25  3.520887E+06  1.378273E+07  3.450613E+06  2.072638E+06  1.179044E+05 -1.955219E+05
       273  26  2.539974E+06  1.014727E+07  2.471890E+06  6.602556E+05  3.225475E+05 -3.039705E+04
       273  27  1.780787E+06  6.583737E+06  1.651450E+06  2.033021E+06  1.956354E+05  1.413092E+05
       274   1 -2.949330E+05 -1.789587E+06 -3.574219E+05  1.844540E+06 -5.409097E+04  4.740951E+04
       274   2  5.132912E+05  1.851881E+06  5.125615E+05  5.263612E+05  5.950050E+04  1.932315E+04
       274   3  1.481419E+06  5.357097E+06  1.397707E+06  2.000529E+06  1.667756E+05 -8.199265E+03
       274   4  1.078772E+05 -1.710855E+05  3.049637E+04  1.879454E+06 -5.590527E+04 -8.980263E+03
       274   5  2.842544E+04 -9.807409E+04  4.370475E+04  4.831124E+05  5.791073E+04 -3.411235E+04
       274   6  1.093048E+05 -1.734735E+05  7.089262E+04  1.879324E+06  1.653692E+05 -5.853697E+04
       274   7  5.105005E+05  1.449828E+06  4.182411E+05  1.914437E+06 -5.772336E+04 -6.551681E+04
       274   8 -4.567125E+05 -2.044548E+06 -4.254120E+05  4.399727E+05  5.632582E+04 -8.738082E+04
       274   9 -1.265005E+06 -5.676170E+06 -1.258082E+06  1.758949E+06  1.639757E+05 -1.084290E+05
       274  10 -2.949368E+05 -1.789590E+06 -3.574316E+05  1.844543E+06 -4.488100E-10  5.081001E-08
       274  11  5.132873E+05  1.851880E+06  5.125542E+05  5.263603E+05 -7.247975E-09 -5.636168E-09
       274  12  1.481389E+06  5.357090E+06  1.397654E+06  2.000530E+06  3.812176E-09  1.110000E-08
       274  13  1.078738E+05 -1.710864E+05  3.049035E+04  1.879454E+06 -2.017333E-09  6.257574E-08
       274  14  2.842153E+04 -9.807624E+04  4.369626E+04  4.831140E+05 -1.603452E-08 -6.510335E-08
       274  15  1.092745E+05 -1.734846E+05  7.083466E+04  1.879331E+06 -2.781160E-08  2.717365E-08
       274  16  5.104958E+05  1.449823E+06  4.182268E+05  1.914434E+06 -1.339432E-09 -3.489916E-08
       274  17 -4.567180E+05 -2.044557E+06 -4.254324E+05  4.399767E+05  2.411152E-08 -3.282255E-08
       274  18 -1.265037E+06 -5.676190E+06 -1.258155E+06  1.758964E+06  2.604820E-09  1.526368E-08
       274  19 -2.949330E+05 -1.789587E+06 -3.574219E+05  1.844540E+06  5.409097E+04 -4.740951E+04
       274  20  5.132912E+05  1.851881E+06  5.125615E+05  5.263612E+05 -5.950050E+04 -1.932315E+04
       274  21  1.481419E+06  5.357097E+06  1.397707E+06  2.000529E+06 -1.667756E+05  8.199265E+03
       274  22  1.078772E+05 -1.710855E+05  3.049637E+04  1.879454E+06  5.590527E+04  8.980263E+03
       274  23  2.842544E+04 -9.807409E+04  4.370475E+04  4.831124E+05 -5.791073E+04  3.411235E+04
       274  24  1.093048E+05 -1.734735E+05  7.089262E+04  1.879324E+06 -1.653692E+05  5.853697E+04
       274  25  5.105005E+05  1.449828E+06  4.182411E+05  1.914437E+06  5.772336E+04  6.551681E+04
       274  26 -4.567125E+05 -2.044548E+06 -4.254120E+05  4.399727E+05 -5.632582E+04  8.738082E+04
       274  27 -1.265005E+06 -5.676170E+06 -1.258082E+06  1.758949E+06 -1.639757E+05  1.084290E+05
       275   1  2.715838E+06  1.055178E+07  2.651885E+06  2.064454E+06  3.151964E+05  8.270826E+04
       275   2  3.439786E+06  1.400306E+07  3.505617E+06  6.778798E+05  4.402901E+05 -1.855495E+05
       275   3  4.662001E+06  1.777002E+07  4.681157E+06  2.073775E+06  1.560408E+05 -4.492636E+05
       275   4  8.317118E+04 -1.039108E+05  1.017220E+05  1.878828E+06  3.111669E+05 -8.023555E+04
       275   5 -7.011150E+04 -2.472678E+05  1.102807E+05  4.851721E+05  4.416069E+05 -1.468835E+05
       275   6  2.437808E+05 -1.212871E+05  3.052997E+05  1.877989E+06  1.585582E+05 -2.073717E+05
       275   7 -2.557637E+06 -1.065662E+07 -2.456368E+06  1.695532E+06  3.071974E+05 -2.404201E+05
       275   8 -3.594545E+06 -1.431397E+07 -3.299306E+06  2.960025E+05  4.429196E+05 -1.090581E+05
       275   9 -4.197877E+06 -1.772608E+07 -4.093735E+06  1.686692E+06  1.609728E+05  2.777610E+04
       275  10  2.715729E+06  1.055175E+07  2.651687E+06  2.064433E+06 -1.645079E-09  4.454253E-08
       275  11  3.439569E+06  1.400298E+07  3.505189E+06  6.779450E+05  2.549962E-09 -3.235374E-09
       275  12  4.661922E+06  1.776980E+07  4.680741E+06  2.073831E+06  2.592972E-09 -2.085206E-09
       275  13  8.306539E+04 -1.039438E+05  1.015276E+05  1.878848E+06  1.604656E-08  5.195403E-08
       275  14 -7.032676E+04 -2.473434E+05  1.098735E+05  4.852243E+05  1.680031E-09 -3.384347E-08
       275  15  2.437421E+05 -1.213402E+05  3.051711E+05  1.878016E+06  5.452707E-09  7.097572E-09
       275  16 -2.557755E+06 -1.065671E+07 -2.456656E+06  1.695592E+06 -1.126810E-08 -2.999102E-08
       275  17 -3.594760E+06 -1.431404E+07 -3.299698E+06  2.960418E+05  9.549255E-09 -1.698330E-08
       275  18 -4.197905E+06 -1.772609E+07 -4.093785E+06  1.686688E+06  9.806272E-09  6.314372E-09
       275  19  2.715838E+06  1.055178E+07  2.651885E+06  2.064454E+06 -3.151964E+05 -8.270826E+04
       275  20  3.439786E+06  1.400306E+07  3.505617E+06  6.778798E+05 -4.402901E+05  1.855495E+05
       275  21  4.662001E+06  1.777002E+07  4.681157E+06  2.073775E+06 -1.560408E+05  4.492636E+05
       275  22  8.317118E+04 -1.039108E+05  1.017220E+05  1.878828E+06 -3.111669E+05  8.023555E+04
       275  23 -7.011150E+04 -2.472678E+05  1.102807E+05  4.851721E+05 -4.416069E+05  1.468835E+05
       275  24  2.437808E+05 -1.212871E+05  3.052997E+05  1.877989E+06 -1.585582E+05  2.073717E+05
       275  25 -2.557637E+06 -1.065662E+07 -2.456368E+06  1.695532E+06 -3.071974E+05  2.404201E+05
       275  26 -3.594545E+06 -1.431397E+07 -3.299306E+06  2.960025E+05 -4.429196E+05  1.090581E+05
       275  27 -4.197877E+06 -1.772608E+07 -4.093735E+06  1.686692E+06 -1.609728E+05 -2.777610E+04
       276   1  9.198978E+06  2.310570E+06  2.316647E+06  7.755453E+05  1.342517E+05 -8.707098E+04
       276   2  7.524599E+06  1.893770E+06  1.850709E+06  1.836043E+05  2.845375E+04 -2.415918E+05
       276   3  5.971285E+06  1.514033E+06  1.480310E+06  8.412803E+05 -7.544049E+04 -1.823584E+05
       276   4 -1.721592E+05 -1.507440E+04  1.309971E+04  8.462275E+05  6.869627E+03 -8.581156E+04
       276   5 -2.203052E+05 -1.915636E+04 -1.615956E+03  2.208449E+05  5.040566E+03 -2.416447E+05
       276   6 -1.679036E+05 -3.996600E+03  7.884569E+03  8.461327E+05  4.850977E+03 -1.825398E+05
       276   7 -9.464096E+06 -2.347209E+06 -2.296855E+06  9.160095E+05 -1.186144E+05 -8.457259E+04
       276   8 -7.910658E+06 -1.936415E+06 -1.858174E+06  2.576975E+05 -1.808484E+04 -2.417013E+05
       276   9 -6.272773E+06 -1.524756E+06 -1.467190E+06  8.509220E+05  8.435710E+04 -1.827208E+05
       276  10  9.198957E+06  2.310557E+06  2.316600E+06  7.755546E+05  5.481229E-09 -1.066340E-09
       276  11  7.524583E+06  1.893707E+06  1.850598E+06  1.836098E+05 -5.188460E-09 -1.431877E-08
       276  12  5.971270E+06  1.513996E+06  1.480237E+06  8.412693E+05 -3.624653E-09 -1.163935E-08
       276  13 -1.721612E+05 -1.508232E+04  1.308579E+04  8.462280E+05 -2.114695E-09  1.771297E-08
       276  14 -2.203209E+05 -1.921906E+04 -1.725728E+03  2.208459E+05  6.535866E-09  1.774755E-08
       276  15 -1.679126E+05 -4.032386E+03  7.821907E+03  8.461334E+05  4.076378E-09 -5.759519E-09
       276  16 -9.464113E+06 -2.347221E+06 -2.296895E+06  9.160014E+05 -3.871842E-10 -2.037293E-10
       276  17 -7.910674E+06 -1.936478E+06 -1.858285E+06  2.576940E+05 -4.295526E-09 -1.594889E-08
       276  18 -6.272789E+06 -1.524793E+06 -1.467266E+06  8.509345E+05  5.700401E-09 -6.815140E-09
       276  19  9.198978E+06  2.310570E+06  2.316647E+06  7.755453E+05 -1.342517E+05  8.707098E+04
       276  20  7.524599E+06  1.893770E+06  1.850709E+06  1.836043E+05 -2.845375E+04  2.415918E+05
       276  21  5.971285E+06  1.514033E+06  1.480310E+06  8.412803E+05  7.544049E+04  1.823584E+05
       276  22 -1.721592E+05 -1.507440E+04  1.309971E+04  8.462275E+05 -6.869627E+03  8.581156E+04
       276  23 -2.203052E+05 -1.915636E+04 -1.615956E+03  2.208449E+05 -5.040566E+03  2.416447E+05
       276  24 -1.679036E+05 -3.996600E+03  7.884569E+03  8.461327E+05 -4.850977E+03  1.825398E+05
       276  25 -9.464096E+06 -2.347209E+06 -2.296855E+06  9.160095E+05  1.186144E+05  8.457259E+04
       276  26 -7.910658E+06 -1.936415E+06 -1.858174E+06  2.576975E+05  1.808484E+04  2.417013E+05
       276  27 -6.272773E+06 -1.524756E+06 -1.467190E+06  8.509220E+05 -8.435710E+04  1.827208E+05
       277   1  3.655422E+06  9.447324E+05  9.247847E+05  8.487139E+05 -1.552356E+04 -1.142670E+05
       277   2  2.042603E+06  5.523903E+05  5.374037E+05  2.206479E+05 -2.408426E+04 -6.761711E+04
       277   3  4.356352E+05  1.582121E+05  1.552634E+05  8.516136E+05 -3.291843E+04 -5.465188E+03
       277   4 -1.833118E+05 -5.787047E+03  2.828069E+03  8.480824E+05  3.212628E+03 -1.142938E+05
       277   5 -1.837690E+05  6.514418E+02  2.559383E+03  2.184175E+05  2.103245E+03 -6.758221E+04
       277   6 -1.820811E+05  4.119813E+03  2.524344E+03  8.480733E+05  6.977240E+02 -5.335914E+03
       277   7 -4.008603E+06 -9.573770E+05 -9.201743E+05  8.474426E+05  2.183387E+04 -1.143208E+05
       277   8 -2.405611E+06 -5.514474E+05 -5.326347E+05  2.161921E+05  2.819742E+04 -6.754744E+04
       277   9 -7.994483E+05 -1.500004E+05 -1.502388E+05  8.445359E+05  3.428049E+04 -5.206942E+03
       277  10  3.655418E+06  9.447184E+05  9.247597E+05  8.487125E+05 -4.540219E-09 -4.821819E-09
       277  11  2.042601E+06  5.523852E+05  5.373940E+05  2.206466E+05  1.638336E-09 -5.111194E-10
       277  12  4.356341E+05  1.582118E+05  1.552613E+05  8.516134E+05  9.969371E-10  6.735622E-09
       277  13 -1.833153E+05 -5.801077E+03  2.803501E+03  8.480827E+05  8.121807E-09 -1.507550E-09
       277  14 -1.837702E+05  6.465365E+02  2.550792E+03  2.184176E+05  8.619504E-09 -8.671518E-09
       277  15 -1.820811E+05  4.119782E+03  2.524289E+03  8.480733E+05  3.926474E-11  4.943022E-09
       277  16 -4.008607E+06 -9.573912E+05 -9.201998E+05  8.474447E+05  9.643682E-09 -7.903561E-09
       277  17 -2.405613E+06 -5.514525E+05 -5.326448E+05  2.161937E+05  7.712005E-09 -7.905533E-10
       277  18 -7.994496E+05 -1.500007E+05 -1.502411E+05  8.445361E+05 -2.454111E-09  1.889502E-09
       277  19  3.655422E+06  9.447324E+05  9.247847E+05  8.487139E+05  1.552356E+04  1.142670E+05
       277  20  2.042603E+06  5.523903E+05  5.374037E+05  2.206479E+05  2.408426E+04  6.761711E+04
       277  21  4.356352E+05  1.582121E+05  1.552634E+05  8.516136E+05  3.291843E+04  5.465188E+03
       277  22 -1.833118E+05 -5.787047E+03  2.828069E+03  8.480824E+05 -3.212628E+03  1.142938E+05
       277  23 -1.837690E+05  6.514418E+02  2.559383E+03  2.184175E+05 -2.103245E+03  6.758221E+04
       277  24 -1.820811E+05  4.119813E+03  2.524344E+03  8.480733E+05 -6.977240E+02  5.335914E+03
       277  25 -4.008603E+06 -9.573770E+05 -9.201743E+05  8.474426E+05 -2.183387E+04  1.143208E+05
       277  26 -2.405611E+06 -5.514474E+05 -5.326347E+05  2.161921E+05 -2.819742E+04  6.754744E+04
       277  27 -7.994483E+05 -1.500004E+05 -1.502388E+05  8.445359E+05 -3.428049E+04  5.206942E+03
       278   1 -1.853568E+06 -4.114821E+05 -4.042280E+05  8.416270E+05 -3.432977E+04  3.698052E+04
       278   2 -3.462597E+06 -8.153124E+05 -7.885270E+05  2.175292E+05 -2.667490E+04  9.944240E+04
       278   3 -5.059364E+06 -1.225927E+06 -1.177541E+06  8.527369E+05 -1.862406E+04  1.444671E+05
       278   4 -1.807052E+05  4.955026E+03  2.901147E+03  8.479813E+05 -2.883080E+02  3.709850E+04
       278   5 -1.873264E+05 -9.162000E+02  1.000096E+03  2.185295E+05 -1.002525E+03  9.943559E+04
       278   6 -1.825200E+05 -1.187486E+04  3.883424E+02  8.479879E+05 -1.301141E+03  1.443839E+05
       278   7  1.494719E+06  4.211866E+05  4.098317E+05  8.543488E+05  3.384484E+04  3.721697E+04
       278   8  3.097796E+06  8.126963E+05  7.897632E+05  2.195309E+05  2.480538E+04  9.942890E+04
       278   9  4.716190E+06  1.200435E+06  1.176614E+06  8.431898E+05  1.615827E+04  1.443009E+05
       278  10 -1.853570E+06 -4.114839E+05 -4.042328E+05  8.416280E+05  6.359765E-09 -5.542941E-09
       278  11 -3.462600E+06 -8.153232E+05 -7.885469E+05  2.175313E+05 -2.303568E-09  3.242272E-09
       278  12 -5.059370E+06 -1.225949E+06 -1.177581E+06  8.527390E+05  9.573850E-10 -1.022301E-08
       278  13 -1.807055E+05  4.953549E+03  2.898560E+03  8.479813E+05 -3.265586E-09 -2.534601E-10
       278  14 -1.873291E+05 -9.268167E+02  9.815153E+02  2.185296E+05 -2.023749E-09 -5.221283E-09
       278  15 -1.825256E+05 -1.189725E+04  3.491655E+02  8.479881E+05 -4.975030E-09 -1.123503E-08
       278  16  1.494718E+06  4.211848E+05  4.098269E+05  8.543478E+05 -2.966337E-10 -8.755992E-09
       278  17  3.097792E+06  8.126856E+05  7.897435E+05  2.195290E+05 -8.537411E-09 -4.835910E-09
       278  18  4.716184E+06  1.200412E+06  1.176574E+06  8.431879E+05 -1.373923E-09 -1.636839E-08
       278  19 -1.853568E+06 -4.114821E+05 -4.042280E+05  8.416270E+05  3.432977E+04 -3.698052E+04
       278  20 -3.462597E+06 -8.153124E+05 -7.885270E+05  2.175292E+05  2.667490E+04 -9.944240E+04
       278  21 -5.059364E+06 -1.225927E+06 -1.177541E+06  8.527369E+05  1.862406E+04 -1.444671E+05
       278  22 -1.807052E+05  4.955026E+03  2.901147E+03  8.479813E+05  2.883080E+02 -3.709850E+04
       278  23 -1.873264E+05 -9.162000E+02  1.000096E+03  2.185295E+05  1.002525E+03 -9.943559E+04
       278  24 -1.825200E+05 -1.187486E+04  3.883424E+02  8.479879E+05  1.301141E+03 -1.443839E+05
       278  25  1.494719E+06  4.211866E+05  4.098317E+05  8.543488E+05 -3.384484E+04 -3.721697E+04
       278  26  3.097796E+06  8.126963E+05  7.897632E+05  2.195309E+05 -2.480538E+04 -9.942890E+04
       278  27  4.716190E+06  1.200435E+06  1.176614E+06  8.431898E+05 -1.615827E+04 -1.443009E+05
       279   1 -7.317722E+06 -1.790809E+06 -1.723099E+06  8.603731E+05 -8.693360E+04  2.160687E+05
       279   2 -8.965121E+06 -2.202737E+06 -2.118689E+06  2.809192E+05  2.918289E+04  2.742377E+05
       279   3 -1.050365E+07 -2.626047E+06 -2.567918E+06  9.509958E+05  1.424451E+05  9.437934E+04
       279   4 -1.646496E+05 -7.860052E+03  5.833636E+03  8.456903E+05 -2.582319E+03  2.156764E+05
       279   5 -2.305915E+05 -2.337602E+04 -8.500942E+03  2.214088E+05  7.115274E+02  2.742295E+05
       279   6 -1.694819E+05 -2.988490E+04  2.690892E+03  8.456990E+05  1.465252E+03  9.621771E+04
       279   7  7.035585E+06  1.771339E+06  1.731123E+06  8.308375E+05  8.274644E+04  2.152823E+05
       279   8  8.574378E+06  2.150392E+06  2.096221E+06  1.611904E+05 -2.816323E+04  2.742278E+05
       279   9  1.026275E+07  2.558251E+06  2.565369E+06  7.388996E+05 -1.418904E+05  9.809071E+04
       279  10 -7.317742E+06 -1.790861E+06 -1.723202E+06  8.603883E+05  6.494482E-09  1.945191E-09
       279  11 -8.965142E+06 -2.202818E+06 -2.118832E+06  2.809128E+05  1.580121E-08  5.568897E-09
       279  12 -1.050367E+07 -2.626062E+06 -2.567973E+06  9.509849E+05  6.780953E-09 -6.901127E-10
       279  13 -1.646621E+05 -7.910002E+03  5.746212E+03  8.456908E+05 -2.392512E-09 -1.301017E-08
       279  14 -2.306116E+05 -2.345677E+04 -8.642252E+03  2.214086E+05 -8.269308E-10  3.157030E-08
       279  15 -1.694844E+05 -2.989484E+04  2.673493E+03  8.456989E+05 -6.625192E-09  2.398075E-08
       279  16  7.035565E+06  1.771287E+06  1.731023E+06  8.308232E+05 -7.853998E-10 -5.581548E-09
       279  17  8.574357E+06  2.150311E+06  2.096078E+06  1.611966E+05 -1.556920E-08 -1.387059E-08
       279  18  1.026272E+07  2.558235E+06  2.565313E+06  7.389107E+05 -7.401052E-09 -2.139427E-09
       279  19 -7.317722E+06 -1.790809E+06 -1.723099E+06  8.603731E+05  8.693360E+04 -2.160687E+05
       279  20 -8.965121E+06 -2.202737E+06 -2.118689E+06  2.809192E+05 -2.918289E+04 -2.742377E+05
       279  21 -1.050365E+07 -2.626047E+06 -2.567918E+06  9.509958E+05 -1.424451E+05 -9.437934E+04
       279  22 -1.646496E+05 -7.860052E+03  5.833636E+03  8.456903E+05  2.582319E+03 -2.156764E+05
       279  23 -2.305915E+05 -2.337602E+04 -8.500942E+03  2.214088E+05 -7.115274E+02 -2.742295E+05
       279  24 -1.694819E+05 -2.988490E+04  2.690892E+03  8.456990E+05 -1.465252E+03 -9.621771E+04
       279  25  7.035585E+06  1.771339E+06  1.731123E+06  8.308375E+05 -8.274644E+04 -2.152823E+05
       279  26  8.574378E+06  2.150392E+06  2.096221E+06  1.611904E+05  2.816323E+04 -2.742278E+05
       279  27  1.026275E+07  2.558251E+06  2.565369E+06  7.388996E+05  1.418904E+05 -9.809071E+04
       280   1 -2.659665E+06 -1.099200E+07 -2.666681E+06  1.298322E+06 -9.775777E+04 -1.260300E+05
       280   2 -2.011682E+06 -8.245992E+06 -1.938096E+06  2.405618E+05 -2.548497E+05 -2.571104E+03
       280   3 -1.249260E+06 -5.511810E+06 -1.267470E+06  1.335673E+06 -1.494086E+05  1.156794E+05
       280   4  5.383963E+04 -2.008663E+05  2.014239E+04  1.448282E+06 -9.516322E+04  1.186158E+04
       280   5 -1.938280E+03 -1.988728E+05  5.066310E+03  3.724422E+05 -2.543258E+05  1.108691E+04
       280   6  7.925179E+04 -1.931913E+05  1.971675E+04  1.447725E+06 -1.524604E+05  4.596812E+03
       280   7  2.758594E+06  1.069722E+07  2.698296E+06  1.600286E+06 -9.252652E+04  1.521802E+05
       280   8  2.003085E+06  7.908008E+06  1.943590E+06  5.057075E+05 -2.538001E+05  2.492291E+04
       280   9  1.405712E+06  5.151470E+06  1.304916E+06  1.560537E+06 -1.555387E+05 -1.074411E+05
       280  10 -2.659679E+06 -1.099202E+07 -2.666730E+06  1.298312E+06  5.555016E-09 -5.787836E-08
       280  11 -2.011752E+06 -8.246010E+06 -1.938218E+06  2.405612E+05  2.520025E-08 -7.107859E-08
       280  12 -1.249287E+06 -5.511830E+06 -1.267538E+06  1.335687E+06 -3.246920E-08 -2.620065E-08
       280  13  5.382987E+04 -2.008689E+05  2.012510E+04  1.448283E+06  3.427635E-10 -2.089180E-09
       280  14 -2.007765E+03 -1.988903E+05  4.944533E+03  3.724445E+05  4.177426E-08  5.048840E-08
       280  15  7.922683E+04 -1.931976E+05  1.967303E+04  1.447726E+06 -8.167480E-09 -8.940298E-09
       280  16  2.758579E+06  1.069720E+07  2.698237E+06  1.600297E+06  7.639878E-09  1.021424E-08
       280  17  2.003016E+06  7.907990E+06  1.943468E+06  5.057126E+05  1.428141E-08  6.921866E-08
       280  18  1.405683E+06  5.151452E+06  1.304850E+06  1.560523E+06  1.114751E-08  2.886682E-08
       280  19 -2.659665E+06 -1.099200E+07 -2.666681E+06  1.298322E+06  9.775777E+04  1.260300E+05
       280  20 -2.011682E+06 -8.245992E+06 -1.938096E+06  2.405618E+05  2.548497E+05  2.571104E+03
       280  21 -1.249260E+06 -5.511810E+06 -1.267470E+06  1.335673E+06  1.494086E+05 -1.156794E+05
       280  22  5.383963E+04 -2.008663E+05  2.014239E+04  1.448282E+06  9.516322E+04 -1.186158E+04
       280  23 -1.938280E+03 -1.988728E+05  5.066310E+03  3.724422E+05  2.543258E+05 -1.108691E+04
       280  24  7.925179E+04 -1.931913E+05  1.971675E+04  1.447725E+06  1.524604E+05 -4.596812E+03
       280  25  2.758594E+06  1.069722E+07  2.698296E+06  1.600286E+06  9.252652E+04 -1.521802E+05
       280  26  2.003085E+06  7.908008E+06  1.943590E+06  5.057075E+05  2.538001E+05 -2.492291E+04
       280  27  1.405712E+06  5.151470E+06  1.304916E+06  1.560537E+06  1.555387E+05  1.074411E+05
       281   1 -2.719307E+05 -1.614615E+06 -3.205033E+05  1.420941E+06 -4.616186E+04  4.050840E+04
       281   2  3.567517E+05  1.194249E+06  3.472901E+05  3.985738E+05  4.152404E+04  2.499976E+04
       281   3  1.097096E+06  3.900326E+06  1.022075E+06  1.532349E+06  1.248401E+05  9.830746E+03
       281   4  7.729312E+04 -2.109786E+05  1.614502E+04  1.448997E+06 -4.743173E+04 -2.788492E+03
       281   5  2.087828E+04 -1.565680E+05  2.237823E+04  3.708664E+05  4.038429E+04 -1.626241E+04
       281   6  7.632064E+04 -2.122578E+05  3.468602E+04  1.448980E+06  1.238061E+05 -2.933761E+04
       281   7  4.263759E+05  1.194471E+06  3.526608E+05  1.477102E+06 -4.870397E+04 -4.618311E+04
       281   8 -3.151259E+05 -1.505713E+06 -3.026572E+05  3.432076E+05  3.924693E+04 -5.743520E+04
       281   9 -9.456714E+05 -4.309407E+06 -9.538981E+05  1.366040E+06  1.227791E+05 -6.824817E+04
       281  10 -2.719334E+05 -1.614618E+06 -3.205105E+05  1.420942E+06 -1.567711E-08 -5.969633E-08
       281  11  3.567497E+05  1.194248E+06  3.472857E+05  3.985729E+05  1.698337E-08 -7.707006E-08
       281  12  1.097079E+06  3.900322E+06  1.022045E+06  1.532348E+06 -3.250017E-10 -4.209601E-08
       281  13  7.729071E+04 -2.109792E+05  1.614078E+04  1.448997E+06 -1.489062E-08  4.516814E-09
       281  14  2.087646E+04 -1.565687E+05  2.237467E+04  3.708669E+05 -2.857982E-09  5.178241E-08
       281  15  7.630394E+04 -2.122629E+05  3.465556E+04  1.448983E+06 -2.394446E-08 -1.869445E-08
       281  16  4.263728E+05  1.194468E+06  3.526523E+05  1.477100E+06 -4.103557E-09 -2.673374E-08
       281  17 -3.151284E+05 -1.505717E+06 -3.026663E+05  3.432094E+05  2.122608E-08  7.454318E-08
       281  18 -9.456889E+05 -4.309416E+06 -9.539354E+05  1.366047E+06  9.555656E-09  3.626066E-08
       281  19 -2.719307E+05 -1.614615E+06 -3.205033E+05  1.420941E+06  4.616186E+04 -4.050840E+04
       281  20  3.567517E+05  1.194249E+06  3.472901E+05  3.985738E+05 -4.152404E+04 -2.499976E+04
       281  21  1.097096E+06  3.900326E+06  1.022075E+06  1.532349E+06 -1.248401E+05 -9.830746E+03
       281  22  7.729312E+04 -2.109786E+05  1.614502E+04  1.448997E+06  4.743173E+04  2.788492E+03
       281  23  2.087828E+04 -1.565680E+05  2.237823E+04  3.708664E+05 -4.038429E+04  1.626241E+04
       281  24  7.632064E+04 -2.122578E+05  3.468602E+04  1.448980E+06 -1.238061E+05  2.933761E+04
       281  25  4.263759E+05  1.194471E+06  3.526608E+05  1.477102E+06  4.870397E+04  4.618311E+04
       281  26 -3.151259E+05 -1.505713E+06 -3.026572E+05  3.432076E+05 -3.924693E+04  5.743520E+04
       281  27 -9.456714E+05 -4.309407E+06 -9.538981E+05  1.366040E+06 -1.227791E+05  6.824817E+04
       282   1  2.059928E+06  7.888063E+06  1.983670E+06  1.588391E+06  2.390220E+05  8.373518E+04
       282   2  2.639160E+06  1.058588E+07  2.636101E+06  5.235116E+05  3.358749E+05 -1.018505E+05
       282   3  3.507062E+06  1.344266E+07  3.488952E+06  1.605297E+06  1.187428E+05 -2.830947E+05
       282   4  6.483561E+04 -1.734289E+05  5.103261E+04  1.447792E+06  2.360314E+05 -4.129082E+04
       282   5 -3.317321E+04 -2.412692E+05  5.105707E+04  3.730184E+05  3.367668E+05 -7.350770E+04
       282   6  1.325625E+05 -1.836277E+05  1.472383E+05  1.447236E+06  1.211040E+05 -1.005187E+05
       282   7 -1.934928E+06 -8.175831E+06 -1.886153E+06  1.308571E+06  2.330765E+05 -1.647123E+05
       282   8 -2.713921E+06 -1.096208E+07 -2.542240E+06  2.246278E+05  3.376548E+05 -4.564303E+04
       282   9 -3.255588E+06 -1.364309E+07 -3.207978E+06  1.291919E+06  1.234042E+05  7.813965E+04
       282  10  2.059865E+06  7.888040E+06  1.983550E+06  1.588375E+06 -1.687231E-08 -4.956417E-08
       282  11  2.639036E+06  1.058583E+07  2.635870E+06  5.235390E+05  1.065513E-08 -4.735841E-08
       282  12  3.507026E+06  1.344257E+07  3.488778E+06  1.605324E+06  1.106477E-08 -3.230567E-08
       282  13  6.477530E+04 -1.734457E+05  5.092463E+04  1.447800E+06  1.112581E-08 -6.419811E-09
       282  14 -3.329645E+04 -2.413055E+05  5.083373E+04  3.730383E+05  3.281370E-09  3.823122E-08
       282  15  1.325439E+05 -1.836426E+05  1.471916E+05  1.447246E+06  7.388598E-09 -5.767303E-09
       282  16 -1.934994E+06 -8.175875E+06 -1.886307E+06  1.308602E+06 -1.012839E-08 -2.748192E-08
       282  17 -2.714044E+06 -1.096212E+07 -2.542458E+06  2.246403E+05 -4.350787E-09  4.355120E-08
       282  18 -3.255606E+06 -1.364310E+07 -3.208019E+06  1.291911E+06  5.534175E-09  2.972604E-08
       282  19  2.059928E+06  7.888063E+06  1.983670E+06  1.588391E+06 -2.390220E+05 -8.373518E+04
       282  20  2.639160E+06  1.058588E+07  2.636101E+06  5.235116E+05 -3.358749E+05  1.018505E+05
       282  21  3.507062E+06  1.344266E+07  3.488952E+06  1.605297E+06 -1.187428E+05  2.830947E+05
       282  22  6.483561E+04 -1.734289E+05  5.103261E+04  1.447792E+06 -2.360314E+05  4.129082E+04
       282  23 -3.317321E+04 -2.412692E+05  5.105707E+04  3.730184E+05 -3.367668E+05  7.350770E+04
       282  24  1.325625E+05 -1.836277E+05  1.472383E+05  1.447236E+06 -1.211040E+05  1.005187E+05
       282  25 -1.934928E+06 -8.175831E+06 -1.886153E+06  1.308571E+06 -2.330765E+05  1.647123E+05
       282  26 -2.713921E+06 -1.096208E+07 -2.542240E+06  2.246278E+05 -3.376548E+05  4.564303E+04
       282  27 -3.255588E+06 -1.364309E+07 -3.207978E+06  1.291919E+06 -1.234042E+05 -7.813965E+04
       283   1  4.526685E+06  1.148871E+06  1.159274E+06  3.969588E+05  7.962110E+04 -4.307003E+04
       283   2  3.656927E+06  9.171732E+05  9.077489E+05  7.959002E+04  2.134369E+04 -1.173182E+05
       283   3  2.841054E+06  7.088240E+05  7.070382E+05  4.171656E+05 -3.536775E+04 -8.560873E+04
       283   4 -6.449398E+04  5.995564E+03  2.747199E+04  4.437797E+05  1.772824E+04 -4.213089E+04
       283   5 -8.616377E+04 -9.859665E+03  1.044856E+04  1.160329E+05  1.067769E+04 -1.172216E+05
       283   6 -6.341988E+04 -1.110173E+04  8.923490E+03  4.434881E+05  5.117927E+03 -8.607195E+04
       283   7 -4.636583E+06 -1.138443E+06 -1.105874E+06  4.903229E+05 -4.371034E+04 -4.119770E+04
       283   8 -3.816468E+06 -9.379064E+05 -8.878439E+05  1.522976E+05  7.528008E+01 -1.171260E+05
       283   9 -2.960191E+06 -7.316388E+05 -6.897852E+05  4.697055E+05  4.541550E+04 -8.653282E+04
       283  10  4.526678E+06  1.148867E+06  1.159258E+06  3.969616E+05 -9.872518E-09  6.072092E-10
       283  11  3.656922E+06  9.171583E+05  9.077222E+05  7.959203E+04 -7.157551E-09  2.414605E-08
       283  12  2.841051E+06  7.088158E+05  7.070221E+05  4.171631E+05  2.438839E-08  4.944576E-09
       283  13 -6.449480E+04  5.993573E+03  2.746806E+04  4.437803E+05 -8.980749E-09 -2.423065E-08
       283  14 -8.616758E+04 -9.874451E+03  1.042252E+04  1.160339E+05  7.801620E-09  1.898995E-08
       283  15 -6.342190E+04 -1.110969E+04  8.909518E+03  4.434885E+05 -5.374893E-09  1.559985E-08
       283  16 -4.636586E+06 -1.138445E+06 -1.105881E+06  4.903214E+05  8.775545E-09 -4.503943E-09
       283  17 -3.816471E+06 -9.379211E+05 -8.878697E+05  1.522976E+05 -1.038892E-08  5.864805E-08
       283  18 -2.960195E+06 -7.316474E+05 -6.898032E+05  4.697087E+05 -2.482961E-08  2.780098E-08
       283  19  4.526685E+06  1.148871E+06  1.159274E+06  3.969588E+05 -7.962110E+04  4.307003E+04
       283  20  3.656927E+06  9.171732E+05  9.077489E+05  7.959002E+04 -2.134369E+04  1.173182E+05
       283  21  2.841054E+06  7.088240E+05  7.070382E+05  4.171656E+05  3.536775E+04  8.560873E+04
       283  22 -6.449398E+04  5.995564E+03  2.747199E+04  4.437797E+05 -1.772824E+04  4.213089E+04
       283  23 -8.616377E+04 -9.859665E+03  1.044856E+04  1.160329E+05 -1.067769E+04  1.172216E+05
       283  24 -6.341988E+04 -1.110173E+04  8.923490E+03  4.434881E+05 -5.117927E+03  8.607195E+04
       283  25 -4.636583E+06 -1.138443E+06 -1.105874E+06  4.903229E+05  4.371034E+04  4.119770E+04
       283  26 -3.816468E+06 -9.379064E+05 -8.878439E+05  1.522976E+05 -7.528008E+01  1.171260E+05
       283  27 -2.960191E+06 -7.316388E+05 -6.897852E+05  4.697055E+05 -4.541550E+04  8.653282E+04
       284   1  1.635719E+06  4.140875E+05  4.162706E+05  4.315530E+05 -6.178047E+03 -5.111909E+04
       284   2  7.867761E+05  2.114753E+05  2.115757E+05  1.087836E+05 -1.166762E+04 -2.615251E+04
       284   3 -4.608378E+04 -2.656767E+03  1.112758E+04  4.443168E+05 -1.712921E+04  6.398917E+03
       284   4 -6.843218E+04 -8.508372E+03  6.596732E+03  4.442916E+05  3.967725E+03 -5.122916E+04
       284   5 -7.571668E+04 -2.489805E+03  4.238394E+03  1.151066E+05  2.122541E+03 -2.628812E+04
       284   6 -6.818296E+04 -8.570111E+03  3.650226E+03  4.442885E+05  2.976915E+02  6.244686E+03
       284   7 -1.769929E+06 -4.313153E+05 -4.032834E+05  4.570009E+05  1.408579E+04 -5.133897E+04
       284   8 -9.375286E+05 -2.165089E+05 -2.031511E+05  1.214224E+05  1.589363E+04 -2.642356E+04
       284   9 -9.028109E+04 -1.448334E+04 -3.826040E+03  4.442603E+05  1.772395E+04  6.090451E+03
       284  10  1.635718E+06  4.140847E+05  4.162657E+05  4.315527E+05  1.112733E-08 -2.979992E-09
       284  11  7.867758E+05  2.114746E+05  2.115742E+05  1.087834E+05  1.734016E-08  2.586299E-08
       284  12 -4.608410E+04 -2.656890E+03  1.112695E+04  4.443169E+05  5.319649E-09  8.198993E-10
       284  13 -6.843290E+04 -8.511195E+03  6.591770E+03  4.442918E+05 -5.800009E-09  1.381288E-09
       284  14 -7.571687E+04 -2.490548E+03  4.237087E+03  1.151067E+05  7.685682E-09  4.571404E-10
       284  15 -6.818297E+04 -8.570153E+03  3.650152E+03  4.442885E+05 -3.425251E-09 -1.580171E-08
       284  16 -1.769930E+06 -4.313181E+05 -4.032888E+05  4.570015E+05 -1.960924E-08 -1.481700E-08
       284  17 -9.375291E+05 -2.165097E+05 -2.031529E+05  1.214227E+05 -9.963261E-09  1.993770E-08
       284  18 -9.028144E+04 -1.448346E+04 -3.826700E+03  4.442602E+05 -2.874213E-09 -2.848421E-08
       284  19  1.635719E+06  4.140875E+05  4.162706E+05  4.315530E+05  6.178047E+03  5.111909E+04
       284  20  7.867761E+05  2.114753E+05  2.115757E+05  1.087836E+05  1.166762E+04  2.615251E+04
       284  21 -4.608378E+04 -2.656767E+03  1.112758E+04  4.443168E+05  1.712921E+04 -6.398917E+03
       284  22 -6.843218E+04 -8.508372E+03  6.596732E+03  4.442916E+05 -3.967725E+03  5.122916E+04
       284  23 -7.571668E+04 -2.489805E+03  4.238394E+03  1.151066E+05 -2.122541E+03  2.628812E+04
       284  24 -6.818296E+04 -8.570111E+03  3.650226E+03  4.442885E+05 -2.976915E+02 -6.244686E+03
       284  25 -1.769929E+06 -4.313153E+05 -4.032834E+05  4.570009E+05 -1.408579E+04  5.133897E+04
       284  26 -9.375286E+05 -2.165089E+05 -2.031511E+05  1.214224E+05 -1.589363E+04  2.642356E+04
       284  27 -9.028109E+04 -1.448334E+04 -3.826040E+03  4.442603E+05 -1.772395E+04 -6.090451E+03
       285   1 -1.242529E+06 -3.005121E+05 -2.812000E+05  4.521237E+05 -1.821798E+04  2.860167E+04
       285   2 -2.091472E+06 -5.039431E+05 -4.811616E+05  1.316077E+05 -1.529755E+04  6.122826E+04
       285   3 -2.920277E+06 -7.209410E+05 -6.816788E+05  4.693027E+05 -1.235492E+04  8.422804E+04
       285   4 -6.735734E+04 -8.175005E+03  3.956880E+03  4.442359E+05 -2.741317E+02  2.843554E+04
       285   5 -7.779773E+04 -3.459315E+03  3.876740E+03  1.151778E+05 -1.976442E+03  6.107400E+04
       285   6 -6.794033E+04 -1.144980E+04  6.496441E+03  4.442083E+05 -3.652926E+03  8.410159E+04
       285   7  1.109078E+06  2.840609E+05  2.890153E+05  4.363355E+05  1.770364E+04  2.826910E+04
       285   8  1.939595E+06  4.967290E+05  4.886263E+05  9.870374E+04  1.138784E+04  6.091930E+04
       285   9  2.791861E+06  6.974476E+05  6.940899E+05  4.190168E+05  5.089098E+03  8.397474E+04
       285  10 -1.242529E+06 -3.005131E+05 -2.812022E+05  4.521241E+05 -1.820925E-08 -2.698211E-09
       285  11 -2.091473E+06 -5.039472E+05 -4.811690E+05  1.316085E+05  5.427634E-09 -1.623588E-08
       285  12 -2.920279E+06 -7.209486E+05 -6.816924E+05  4.693035E+05  2.336216E-08  1.349289E-08
       285  13 -6.735756E+04 -8.175873E+03  3.955361E+03  4.442359E+05  3.394206E-09  1.611448E-08
       285  14 -7.779874E+04 -3.463321E+03  3.869723E+03  1.151779E+05  1.029183E-08 -1.285509E-08
       285  15 -6.794224E+04 -1.145739E+04  6.483123E+03  4.442085E+05 -2.630450E-09 -3.438986E-09
       285  16  1.109077E+06  2.840600E+05  2.890132E+05  4.363351E+05  2.242904E-08  2.492904E-09
       285  17  1.939594E+06  4.967250E+05  4.886191E+05  9.870318E+04 -1.185863E-08  5.564072E-08
       285  18  2.791859E+06  6.974400E+05  6.940766E+05  4.190165E+05 -1.579972E-08 -1.585674E-08
       285  19 -1.242529E+06 -3.005121E+05 -2.812000E+05  4.521237E+05  1.821798E+04 -2.860167E+04
       285  20 -2.091472E+06 -5.039431E+05 -4.811616E+05  1.316077E+05  1.529755E+04 -6.122826E+04
       285  21 -2.920277E+06 -7.209410E+05 -6.816788E+05  4.693027E+05  1.235492E+04 -8.422804E+04
       285  22 -6.735734E+04 -8.175005E+03  3.956880E+03  4.442359E+05  2.741317E+02 -2.843554E+04
       285  23 -7.779773E+04 -3.459315E+03  3.876740E+03  1.151778E+05  1.976442E+03 -6.107400E+04
       285  24 -6.794033E+04 -1.144980E+04  6.496441E+03  4.442083E+05  3.652926E+03 -8.410159E+04
       285  25  1.109078E+06  2.840609E+05  2.890153E+05  4.363355E+05 -1.770364E+04 -2.826910E+04
       285  26  1.939595E+06  4.967290E+05  4.886263E+05  9.870374E+04 -1.138784E+04 -6.091930E+04
       285  27  2.791861E+06  6.974476E+05  6.940899E+05  4.190168E+05 -5.089098E+03 -8.397474E+04
       286   1 -4.106975E+06 -1.020650E+06 -9.665530E+05  4.851191E+05 -5.046449E+04  1.229383E+05
       286   2 -4.969349E+06 -1.227576E+06 -1.166220E+06  1.746077E+05  6.676858E+03  1.527332E+05
       286   3 -5.780696E+06 -1.430461E+06 -1.390510E+06  5.183836E+05  6.146972E+04  5.220320E+04
       286   4 -6.117743E+04 -1.355704E+04  9.384977E+03  4.431873E+05 -4.813507E+03  1.222980E+05
       286   5 -9.252489E+04 -1.301976E+04  9.195365E+03  1.163690E+05 -9.838607E+03  1.529217E+05
       286   6 -6.257991E+04  2.431417E+03  2.773562E+04  4.435429E+05 -1.712720E+04  5.366948E+04
       286   7  3.999663E+06  9.923427E+05  9.841601E+05  4.010230E+05  4.113556E+04  1.216537E+05
       286   8  4.806177E+06  1.199804E+06  1.182913E+06  5.775464E+04 -2.648382E+04  1.531126E+05
       286   9  5.685430E+06  1.432881E+06  1.443564E+06  3.681393E+05 -9.645208E+04  5.514829E+04
       286  10 -4.106982E+06 -1.020667E+06 -9.665863E+05  4.851241E+05 -2.113942E-08  1.471360E-08
       286  11 -4.969356E+06 -1.227601E+06 -1.166264E+06  1.746069E+05 -2.455874E-08  7.736023E-09
       286  12 -5.780701E+06 -1.430465E+06 -1.390523E+06  5.183810E+05 -8.614327E-09 -4.283455E-08
       286  13 -6.118147E+04 -1.357311E+04  9.356825E+03  4.431878E+05 -7.583594E-09 -1.617848E-08
       286  14 -9.253128E+04 -1.304490E+04  9.151238E+03  1.163702E+05  4.780638E-09 -6.868729E-09
       286  15 -6.258100E+04  2.428244E+03  2.772965E+04  4.435436E+05 -9.596578E-09 -2.695032E-08
       286  16  3.999658E+06  9.923263E+05  9.841291E+05  4.010190E+05  2.754935E-08 -3.237310E-08
       286  17  4.806170E+06  1.199778E+06  1.182868E+06  5.775790E+04  1.578288E-08 -3.009667E-08
       286  18  5.685420E+06  1.432875E+06  1.443541E+06  3.681436E+05  5.256116E-10  9.471467E-09
       286  19 -4.106975E+06 -1.020650E+06 -9.665530E+05  4.851191E+05  5.046449E+04 -1.229383E+05
       286  20 -4.969349E+06 -1.227576E+06 -1.166220E+06  1.746077E+05 -6.676858E+03 -1.527332E+05
       286  21 -5.780696E+06 -1.430461E+06 -1.390510E+06  5.183836E+05 -6.146972E+04 -5.220320E+04
       286  22 -6.117743E+04 -1.355704E+04  9.384977E+03  4.431873E+05  4.813507E+03 -1.222980E+05
       286  23 -9.252489E+04 -1.301976E+04  9.195365E+03  1.163690E+05  9.838607E+03 -1.529217E+05
       286  24 -6.257991E+04  2.431417E+03  2.773562E+04  4.435429E+05  1.712720E+04 -5.366948E+04
       286  25  3.999663E+06  9.923427E+05  9.841601E+05  4.010230E+05 -4.113556E+04 -1.216537E+05
       286  26  4.806177E+06  1.199804E+06  1.182913E+06  5.775464E+04  2.648382E+04 -1.531126E+05
       286  27  5.685430E+06  1.432881E+06  1.443564E+06  3.681393E+05  9.645208E+04 -5.514829E+04
       287   1 -1.544045E+06 -6.497091E+06 -1.554992E+06  7.508333E+05 -5.699804E+04 -7.486145E+04
       287   2 -1.164262E+06 -4.874485E+06 -1.126641E+06  1.392014E+05 -1.480908E+05 -1.886697E+03
       287   3 -7.266659E+05 -3.283982E+06 -7.387243E+05  7.861887E+05 -8.658789E+04  6.793415E+04
       287   4  3.483043E+04 -2.024154E+05  8.105893E+03  8.452212E+05 -5.538111E+04  5.609432E+03
       287   5  3.209686E+03 -1.902910E+05  2.139537E+03  2.161495E+05 -1.478434E+05  5.958029E+03
       287   6  4.230735E+04 -1.998078E+05  6.669533E+03  8.450797E+05 -8.822051E+04  2.977257E+03
       287   7  1.610743E+06  6.128504E+06  1.568265E+06  9.403737E+05 -5.374829E+04  8.690210E+04
       287   8  1.169087E+06  4.514090E+06  1.129354E+06  2.935696E+05 -1.475950E+05  1.386206E+04
       287   9  8.105914E+05  2.893106E+06  7.513967E+05  9.042045E+05 -8.986125E+04 -6.230268E+04
       287  10 -1.544050E+06 -6.497098E+06 -1.555009E+06  7.508298E+05  9.088645E-09 -4.422537E-09
       287  11 -1.164285E+06 -4.874491E+06 -1.126683E+06  1.392012E+05  1.256423E-08 -1.012297E-07
       287  12 -7.266752E+05 -3.283989E+06 -7.387471E+05  7.861934E+05 -2.546422E-08 -1.755367E-08
       287  13  3.482713E+04 -2.024163E+05  8.100069E+03  8.452215E+05  1.011849E-09 -4.078567E-08
       287  14  3.186207E+03 -1.902969E+05  2.098398E+03  2.161502E+05  3.130799E-08  2.606491E-09
       287  15  4.229899E+04 -1.998099E+05  6.654892E+03  8.450799E+05 -2.754533E-08 -4.714565E-08
       287  16  1.610738E+06  6.128495E+06  1.568246E+06  9.403774E+05  8.614205E-09  3.015312E-09
       287  17  1.169063E+06  4.514084E+06  1.129312E+06  2.935713E+05  1.870708E-08  8.639566E-08
       287  18  8.105818E+05  2.893099E+06  7.513744E+05  9.042000E+05 -1.575942E-08  1.173034E-07
       287  19 -1.544045E+06 -6.497091E+06 -1.554992E+06  7.508333E+05  5.699804E+04  7.486145E+04
       287  20 -1.164262E+06 -4.874485E+06 -1.126641E+06  1.392014E+05  1.480908E+05  1.886697E+03
       287  21 -7.266659E+05 -3.283982E+06 -7.387243E+05  7.861887E+05  8.658789E+04 -6.793415E+04
       287  22  3.483043E+04 -2.024154E+05  8.105893E+03  8.452212E+05  5.538111E+04 -5.609432E+03
       287  23  3.209686E+03 -1.902910E+05  2.139537E+03  2.161495E+05  1.478434E+05 -5.958029E+03
       287  24  4.230735E+04 -1.998078E+05  6.669533E+03  8.450797E+05  8.822051E+04 -2.977257E+03
       287  25  1.610743E+06  6.128504E+06  1.568265E+06  9.403737E+05  5.374829E+04 -8.690210E+04
       287  26  1.169087E+06  4.514090E+06  1.129354E+06  2.935696E+05  1.475950E+05 -1.386206E+04
       287  27  8.105914E+05  2.893106E+06  7.513967E+05  9.042045E+05  8.986125E+04  6.230268E+04
       288   1 -1.545527E+05 -9.963911E+05 -1.841663E+05  8.314136E+05 -2.615038E+04  2.531796E+04
       288   2  2.152818E+05  6.453554E+05  2.044515E+05  2.304338E+05  2.531704E+04  1.938956E+04
       288   3  6.454672E+05  2.229065E+06  5.954161E+05  8.911374E+05  7.412739E+04  1.361467E+04
       288   4  4.195423E+04 -2.059475E+05  5.285269E+03  8.459286E+05 -2.681576E+04 -7.346857E+01
       288   5  1.111737E+04 -1.758545E+05  6.873797E+03  2.150757E+05  2.470931E+04 -4.751193E+03
       288   6  4.060062E+04 -2.064034E+05  1.010557E+04  8.459492E+05  7.356869E+04 -9.263073E+03
       288   7  2.384165E+05  5.850708E+05  1.946950E+05  8.604581E+05 -2.748187E+04 -2.549714E+04
       288   8 -1.930955E+05 -9.964460E+05 -1.907498E+05  1.997341E+05  2.410237E+04 -2.886014E+04
       288   9 -5.646939E+05 -2.636451E+06 -5.756250E+05  8.009012E+05  7.301217E+04 -3.205158E+04
       288  10 -1.545537E+05 -9.963920E+05 -1.841688E+05  8.314141E+05 -1.051246E-08  6.119473E-09
       288  11  2.152810E+05  6.453548E+05  2.044496E+05  2.304334E+05  7.442728E-09 -1.104003E-07
       288  12  6.454612E+05  2.229063E+06  5.954055E+05  8.911366E+05  7.656891E-09 -2.738788E-08
       288  13  4.195346E+04 -2.059477E+05  5.283918E+03  8.459286E+05 -2.192577E-08 -5.263284E-08
       288  14  1.111671E+04 -1.758547E+05  6.872607E+03  2.150758E+05 -4.197211E-09  2.860853E-09
       288  15  4.059479E+04 -2.064050E+05  1.009523E+04  8.459498E+05 -3.018461E-08 -5.278333E-08
       288  16  2.384155E+05  5.850699E+05  1.946923E+05  8.604575E+05 -2.106789E-08 -3.419114E-09
       288  17 -1.930963E+05 -9.964470E+05 -1.907525E+05  1.997346E+05  3.205848E-08  9.980493E-08
       288  18 -5.646999E+05 -2.636453E+06 -5.756370E+05  8.009031E+05 -6.644349E-09  1.272607E-07
       288  19 -1.545527E+05 -9.963911E+05 -1.841663E+05  8.314136E+05  2.615038E+04 -2.531796E+04
       288  20  2.152818E+05  6.453554E+05  2.044515E+05  2.304338E+05 -2.531704E+04 -1.938956E+04
       288  21  6.454672E+05  2.229065E+06  5.954161E+05  8.911374E+05 -7.412739E+04 -1.361467E+04
       288  22  4.195423E+04 -2.059475E+05  5.285269E+03  8.459286E+05  2.681576E+04  7.346857E+01
       288  23  1.111737E+04 -1.758545E+05  6.873797E+03  2.150757E+05 -2.470931E+04  4.751193E+03
       288  24  4.060062E+04 -2.064034E+05  1.010557E+04  8.459492E+05 -7.356869E+04  9.263073E+03
       288  25  2.384165E+05  5.850708E+05  1.946950E+05  8.604581E+05  2.748187E+04  2.549714E+04
       288  26 -1.930955E+05 -9.964460E+05 -1.907498E+05  1.997341E+05 -2.410237E+04  2.886014E+04
       288  27 -5.646939E+05 -2.636451E+06 -5.756250E+05  8.009012E+05 -7.301217E+04  3.205158E+04
       289   1  1.213236E+06  4.546987E+06  1.154067E+06  9.261725E+05  1.410465E+05  5.958808E+04
       289   2  1.565647E+06  6.147616E+06  1.534559E+06  3.104998E+05  1.978735E+05 -3.966553E+04
       289   3  2.038029E+06  7.784784E+06  2.006433E+06  9.504526E+05  6.964398E+04 -1.357352E+05
       289   4  3.771914E+04 -1.934515E+05  1.529342E+04  8.448958E+05  1.393648E+05 -1.361234E+04
       289   5 -6.572450E+03 -2.045301E+05  1.385402E+04  2.165768E+05  1.983263E+05 -2.322199E+04
       289   6  5.398355E+04 -1.969563E+05  4.216712E+04  8.446618E+05  7.139879E+04 -2.937624E+04
       289   7 -1.139418E+06 -4.913395E+06 -1.125058E+06  7.641043E+05  1.376955E+05 -8.625861E+04
       289   8 -1.581698E+06 -6.519929E+06 -1.509704E+06  1.234288E+05  1.987769E+05 -6.944033E+03
       289   9 -1.934766E+06 -8.121167E+06 -1.926757E+06  7.399562E+05  7.312987E+04  7.563174E+04
       289  10  1.213214E+06  4.546977E+06  1.154023E+06  9.261658E+05 -5.036925E-09 -7.851154E-09
       289  11  1.565604E+06  6.147604E+06  1.534483E+06  3.105061E+05  5.901110E-09 -7.922999E-08
       289  12  2.038018E+06  7.784763E+06  2.006390E+06  9.504602E+05  7.249112E-09 -3.428984E-09
       289  13  3.769824E+04 -1.934569E+05  1.525657E+04  8.448973E+05  3.626464E-09 -4.563823E-08
       289  14 -6.614830E+03 -2.045412E+05  1.377909E+04  2.165805E+05  5.422467E-09 -1.444321E-10
       289  15  5.397784E+04 -1.969586E+05  4.215590E+04  8.446635E+05  1.164041E-08 -3.025400E-08
       289  16 -1.139440E+06 -4.913408E+06 -1.125108E+06  7.641139E+05 -2.581178E-08  1.050066E-08
       289  17 -1.581740E+06 -6.519940E+06 -1.509778E+06  1.234299E+05  1.036740E-08  7.013359E-08
       289  18 -1.934773E+06 -8.121175E+06 -1.926778E+06  7.399517E+05  1.471258E-08  6.719203E-08
       289  19  1.213236E+06  4.546987E+06  1.154067E+06  9.261725E+05 -1.410465E+05 -5.958808E+04
       289  20  1.565647E+06  6.147616E+06  1.534559E+06  3.104998E+05 -1.978735E+05  3.966553E+04
       289  21  2.038029E+06  7.784784E+06  2.006433E+06  9.504526E+05 -6.964398E+04  1.357352E+05
       289  22  3.771914E+04 -1.934515E+05  1.529342E+04  8.448958E+05 -1.393648E+05  1.361234E+04
       289  23 -6.572450E+03 -2.045301E+05  1.385402E+04  2.165768E+05 -1.983263E+05  2.322199E+04
       289  24  5.398355E+04 -1.969563E+05  4.216712E+04  8.446618E+05 -7.139879E+04  2.937624E+04
       289  25 -1.139418E+06 -4.913395E+06 -1.125058E+06  7.641043E+05 -1.376955E+05  8.625861E+04
       289  26 -1.581698E+06 -6.519929E+06 -1.509704E+06  1.234288E+05 -1.987769E+05  6.944033E+03
       289  27 -1.934766E+06 -8.121167E+06 -1.926757E+06  7.399562E+05 -7.312987E+04 -7.563174E+04
       290   1 -4.832590E+05 -2.183454E+06 -4.873935E+05  2.667239E+05 -1.788749E+04 -1.452796E+04
       290   2 -3.588180E+05 -1.593156E+06 -3.411357E+05  5.100893E+04 -4.562985E+04  6.281818E+03
       290   3 -2.020856E+05 -1.019674E+06 -2.045503E+05  2.899104E+05 -2.349913E+04  2.599157E+04
       290   4  2.504623E+04 -1.530316E+05  1.564065E+04  3.034807E+05 -1.733109E+04  1.092855E+04
       290   5  1.122371E+03 -1.463993E+05  6.774218E+03  7.633650E+04 -4.558744E+04  7.856277E+03
       290   6  1.364904E+04 -1.527478E+05  4.866953E+03  3.037339E+05 -2.402266E+04  3.665869E+03
       290   7  5.330451E+05  1.881147E+06  5.183700E+05  3.403371E+05 -1.677260E+04  3.646844E+04
       290   8  3.609113E+05  1.302277E+06  3.545351E+05  1.017126E+05 -4.554497E+04  9.434385E+03
       290   9  2.293293E+05  7.148674E+05  2.142322E+05  3.175725E+05 -2.454680E+04 -1.869095E+04
       290  10 -4.832594E+05 -2.183454E+06 -4.873945E+05  2.667237E+05  9.347106E-09 -2.276028E-08
       290  11 -3.588202E+05 -1.593157E+06 -3.411397E+05  5.100916E+04  1.274345E-08 -3.316267E-08
       290  12 -2.020864E+05 -1.019675E+06 -2.045526E+05  2.899109E+05 -8.788747E-09  1.378615E-08
       290  13  2.504587E+04 -1.530318E+05  1.563986E+04  3.034809E+05 -9.051115E-09 -4.434980E-10
       290  14  1.120122E+03 -1.464000E+05  6.770197E+03  7.633679E+04  2.659523E-08  4.783657E-08
       290  15  1.364842E+04 -1.527479E+05  4.865844E+03  3.037339E+05  1.725609E-09  5.935067E-09
       290  16  5.330445E+05  1.881145E+06  5.183670E+05  3.403375E+05 -1.633908E-09 -2.320016E-08
       290  17  3.609090E+05  1.302277E+06  3.545311E+05  1.017130E+05 -8.207396E-09  1.044552E-07
       290  18  2.293285E+05  7.148669E+05  2.142304E+05  3.175721E+05  2.226721E-08 -2.910882E-08
       290  19 -4.832590E+05 -2.183454E+06 -4.873935E+05  2.667239E+05  1.788749E+04  1.452796E+04
       290  20 -3.588180E+05 -1.593156E+06 -3.411357E+05  5.100893E+04  4.562985E+04 -6.281818E+03
       290  21 -2.020856E+05 -1.019674E+06 -2.045503E+05  2.899104E+05  2.349913E+04 -2.599157E+04
       290  22  2.504623E+04 -1.530316E+05  1.564065E+04  3.034807E+05  1.733109E+04 -1.092855E+04
       290  23  1.122371E+03 -1.463993E+05  6.774218E+03  7.633650E+04  4.558744E+04 -7.856277E+03
       290  24  1.364904E+04 -1.527478E+05  4.866953E+03  3.037339E+05  2.402266E+04 -3.665869E+03
       290  25  5.330451E+05  1.881147E+06  5.183700E+05  3.403371E+05  1.677260E+04 -3.646844E+04
       290  26  3.609113E+05  1.302277E+06  3.545351E+05  1.017126E+05  4.554497E+04 -9.434385E+03
       290  27  2.293293E+05  7.148674E+05  2.142322E+05  3.175725E+05  2.454680E+04  1.869095E+04
       291   1  6.457294E+03 -1.908079E+05 -4.335757E+03  3.030608E+05 -2.280520E+03  1.190750E+04
       291   2  1.390162E+05  4.015991E+05  1.339451E+05  8.534073E+04  1.671518E+04  9.281741E+03
       291   3  2.941248E+05  9.745326E+05  2.740748E+05  3.235545E+05  3.394310E+04  6.718586E+03
       291   4  1.551405E+04 -1.540775E+05  4.054059E+03  3.039412E+05 -2.507400E+03  2.338830E+03
       291   5  3.363084E+03 -1.441660E+05  2.629086E+03  7.598618E+04  1.651390E+04  5.583846E+02
       291   6  1.364012E+04 -1.541880E+05  2.486532E+03  3.039822E+05  3.376581E+04 -1.157380E+03
       291   7  2.457077E+04 -1.173457E+05  1.244413E+04  3.048217E+05 -2.734299E+03 -7.230406E+03
       291   8 -1.323116E+05 -6.896585E+05 -1.287079E+05  6.663831E+04  1.631279E+04 -8.157333E+03
       291   9 -2.669368E+05 -1.281743E+06 -2.691923E+05  2.844386E+05  3.358885E+04 -9.019093E+03
       291  10  6.457250E+03 -1.908080E+05 -4.336033E+03  3.030608E+05 -1.269480E-09 -2.008470E-08
       291  11  1.390159E+05  4.015990E+05  1.339444E+05  8.534060E+04  3.825595E-10 -3.825391E-08
       291  12  2.941236E+05  9.745323E+05  2.740726E+05  3.235544E+05  4.584811E-09  9.675320E-09
       291  13  1.551405E+04 -1.540775E+05  4.054037E+03  3.039412E+05  2.206009E-09 -4.741160E-10
       291  14  3.362791E+03 -1.441661E+05  2.628573E+03  7.598617E+04 -1.907928E-08  4.877824E-08
       291  15  1.363890E+04 -1.541883E+05  2.484387E+03  3.039822E+05 -1.115232E-08  6.272667E-09
       291  16  2.457075E+04 -1.173457E+05  1.244402E+04  3.048217E+05  1.686325E-08 -3.045915E-08
       291  17 -1.323119E+05 -6.896586E+05 -1.287085E+05  6.663842E+04  6.072615E-09  1.113770E-07
       291  18 -2.669380E+05 -1.281744E+06 -2.691946E+05  2.844389E+05  1.128281E-08 -2.494052E-08
       291  19  6.457294E+03 -1.908079E+05 -4.335757E+03  3.030608E+05  2.280520E+03 -1.190750E+04
       291  20  1.390162E+05  4.015991E+05  1.339451E+05  8.534073E+04 -1.671518E+04 -9.281741E+03
       291  21  2.941248E+05  9.745326E+05  2.740748E+05  3.235545E+05 -3.394310E+04 -6.718586E+03
       291  22  1.551405E+04 -1.540775E+05  4.054059E+03  3.039412E+05  2.507400E+03 -2.338830E+03
       291  23  3.363084E+03 -1.441660E+05  2.629086E+03  7.598618E+04 -1.651390E+04 -5.583846E+02
       291  24  1.364012E+04 -1.541880E+05  2.486532E+03  3.039822E+05 -3.376581E+04  1.157380E+03
       291  25  2.457077E+04 -1.173457E+05  1.244413E+04  3.048217E+05  2.734299E+03  7.230406E+03
       291  26 -1.323116E+05 -6.896585E+05 -1.287079E+05  6.663831E+04 -1.631279E+04  8.157333E+03
       291  27 -2.669368E+05 -1.281743E+06 -2.691923E+05  2.844386E+05 -3.358885E+04  9.019093E+03
       292   1  5.001436E+05  1.807800E+06  4.745640E+05  3.359125E+05  5.883087E+04  2.532623E+04
       292   2  6.311102E+05  2.391936E+06  6.120617E+05  1.162923E+05  7.928982E+04 -1.135911E+04
       292   3  7.958936E+05  2.974421E+06  7.785000E+05  3.502882E+05  2.755119E+04 -4.661586E+04
       292   4  1.338322E+04 -1.522580E+05  3.077336E+03  3.034998E+05  5.822316E+04 -2.276823E+03
       292   5  8.049575E+02 -1.485225E+05  2.458527E+03  7.660879E+04  7.945945E+04 -4.188762E+03
       292   6  1.606169E+04 -1.527646E+05  6.709486E+03  3.034436E+05  2.836847E+04 -4.635689E+03
       292   7 -4.736548E+05 -2.108803E+06 -4.686801E+05  2.711693E+05  5.761736E+04 -2.979322E+04
       292   8 -6.299664E+05 -2.683083E+06 -6.076024E+05  3.705728E+04  7.962853E+04  2.952452E+03
       292   9 -7.644946E+05 -3.271081E+06 -7.657990E+05  2.567900E+05  2.918155E+04  3.713404E+04
       292  10  5.001397E+05  1.807798E+06  4.745563E+05  3.359113E+05 -1.023491E-08 -2.133366E-08
       292  11  6.311034E+05  2.391934E+06  6.120496E+05  1.162930E+05 -4.904097E-09 -3.154803E-08
       292  12  7.958922E+05  2.974419E+06  7.784945E+05  3.502893E+05  6.242934E-09  1.082951E-08
       292  13  1.337958E+04 -1.522589E+05  3.070957E+03  3.034999E+05  2.014921E-08 -9.119419E-10
       292  14  7.981733E+02 -1.485242E+05  2.446629E+03  7.660906E+04 -1.364842E-08  4.447230E-08
       292  15  1.606082E+04 -1.527649E+05  6.707934E+03  3.034437E+05  1.785763E-09  4.316606E-09
       292  16 -4.736586E+05 -2.108805E+06 -4.686881E+05  2.711706E+05  2.250965E-09 -2.520586E-08
       292  17 -6.299732E+05 -2.683085E+06 -6.076144E+05  3.705709E+04 -9.897336E-09  9.706174E-08
       292  18 -7.644959E+05 -3.271083E+06 -7.658032E+05  2.567891E+05  3.838811E-10 -2.376070E-08
       292  19  5.001436E+05  1.807800E+06  4.745640E+05  3.359125E+05 -5.883087E+04 -2.532623E+04
       292  20  6.311102E+05  2.391936E+06  6.120617E+05  1.162923E+05 -7.928982E+04  1.135911E+04
       292  21  7.958936E+05  2.974421E+06  7.785000E+05  3.502882E+05 -2.755119E+04  4.661586E+04
       292  22  1.338322E+04 -1.522580E+05  3.077336E+03  3.034998E+05 -5.822316E+04  2.276823E+03
       292  23  8.049575E+02 -1.485225E+05  2.458527E+03  7.660879E+04 -7.945945E+04  4.188762E+03
       292  24  1.606169E+04 -1.527646E+05  6.709486E+03  3.034436E+05 -2.836847E+04  4.635689E+03
       292  25 -4.736548E+05 -2.108803E+06 -4.686801E+05  2.711693E+05 -5.761736E+04  2.979322E+04
       292  26 -6.299664E+05 -2.683083E+06 -6.076024E+05  3.705728E+04 -7.962853E+04 -2.952452E+03
       292  27 -7.644946E+05 -3.271081E+06 -7.657990E+05  2.567900E+05 -2.918155E+04 -3.713404E+04
       293   1  7.245375E+06  2.184106E+06  2.116493E+06  5.707825E+05 -8.628501E+04 -9.110862E+04
       293   2  5.833593E+06  2.121006E+06  1.885454E+06  1.341313E+05 -1.154243E+05 -2.641193E+05
       293   3  4.469483E+06  1.768372E+06  1.622751E+06  7.692630E+05 -1.421381E+05 -2.138007E+05
       293   4 -2.651716E+06 -2.815437E+05 -3.226753E+05  7.473764E+05 -2.219279E+05 -8.939096E+04
       293   5 -2.662272E+06  1.711631E+04 -1.514401E+05  2.125304E+05 -1.438351E+05 -2.641217E+05
       293   6 -2.647292E+06  5.155764E+03 -8.716227E+04  7.505828E+05 -6.335340E+04 -2.141660E+05
       293   7 -1.246013E+07 -2.754416E+06 -2.769031E+06  9.214192E+05 -3.554069E+05 -8.773793E+04
       293   8 -1.109226E+07 -2.092007E+06 -2.193457E+06  2.899871E+05 -1.718508E+05 -2.641321E+05
       293   9 -9.717790E+06 -1.761745E+06 -1.800660E+06  7.321206E+05  1.453947E+04 -2.145383E+05
       293  10  7.245365E+06  2.184095E+06  2.116464E+06  5.707762E+05 -5.931316E-09  1.393920E-10
       293  11  5.833560E+06  2.120928E+06  1.885298E+06  1.341069E+05 -4.670507E-09 -5.599496E-10
       293  12  4.469449E+06  1.768317E+06  1.622627E+06  7.692386E+05 -2.192760E-09 -2.450599E-10
       293  13 -2.651771E+06 -2.815655E+05 -3.227832E+05  7.473605E+05  3.629268E-11  2.423336E-10
       293  14 -2.662313E+06  1.703592E+04 -1.516100E+05  2.124998E+05  4.937219E-09  2.936462E-10
       293  15 -2.647309E+06  5.105511E+03 -8.725585E+04  7.505719E+05 -2.886350E-10 -1.122223E-09
       293  16 -1.246027E+07 -2.754459E+06 -2.769287E+06  9.213939E+05  6.155295E-09  5.023834E-10
       293  17 -1.109231E+07 -2.092090E+06 -2.193645E+06  2.899503E+05  9.238935E-09  1.514275E-09
       293  18 -9.717803E+06 -1.761795E+06 -1.800747E+06  7.321231E+05  6.962418E-10 -6.431636E-11
       293  19  7.245375E+06  2.184106E+06  2.116493E+06  5.707825E+05  8.628501E+04  9.110862E+04
       293  20  5.833593E+06  2.121006E+06  1.885454E+06  1.341313E+05  1.154243E+05  2.641193E+05
       293  21  4.469483E+06  1.768372E+06  1.622751E+06  7.692630E+05  1.421381E+05  2.138007E+05
       293  22 -2.651716E+06 -2.815437E+05 -3.226753E+05  7.473764E+05  2.219279E+05  8.939096E+04
       293  23 -2.662272E+06  1.711631E+04 -1.514401E+05  2.125304E+05  1.438351E+05  2.641217E+05
       293  24 -2.647292E+06  5.155764E+03 -8.716227E+04  7.505828E+05  6.335340E+04  2.141660E+05
       293  25 -1.246013E+07 -2.754416E+06 -2.769031E+06  9.214192E+05  3.554069E+05  8.773793E+04
       293  26 -1.109226E+07 -2.092007E+06 -2.193457E+06  2.899871E+05  1.718508E+05  2.641321E+05
       293  27 -9.717790E+06 -1.761745E+06 -1.800660E+06  7.321206E+05 -1.453947E+04  2.145383E+05
       294   1  2.421106E+06  1.218457E+06  1.143281E+06  7.524475E+05 -6.508398E+04 -1.489888E+05
       294   2  9.617923E+05  8.988430E+05  8.243263E+05  1.948249E+05 -5.056650E+04 -1.094328E+05
       294   3 -4.927901E+05  5.401183E+05  4.889019E+05  7.771704E+05 -3.650259E+04 -5.267031E+04
       294   4 -2.645784E+06 -3.884000E+04 -7.677806E+04  7.646931E+05 -4.993579E+04 -1.490764E+05
       294   5 -2.645448E+06  3.186664E+03 -4.401580E+04  1.944829E+05 -2.731663E+04 -1.094420E+05
       294   6 -2.643914E+06  4.649525E+03 -3.337192E+04  7.646874E+05 -5.118461E+03 -5.255104E+04
       294   7 -7.689185E+06 -1.298012E+06 -1.298672E+06  7.768274E+05 -3.490915E+04 -1.491637E+05
       294   8 -6.240763E+06 -8.934204E+05 -9.132857E+05  1.941369E+05 -4.200865E+03 -1.094513E+05
       294   9 -4.790798E+06 -5.311595E+05 -5.559770E+05  7.522410E+05  2.615716E+04 -5.243277E+04
       294  10  2.421095E+06  1.218432E+06  1.143232E+06  7.524397E+05 -1.178535E-09  1.540265E-10
       294  11  9.617864E+05  8.988295E+05  8.242991E+05  1.948205E+05 -9.146361E-11  1.917529E-10
       294  12 -4.927922E+05  5.401150E+05  4.888942E+05  7.771689E+05  1.549940E-09 -4.488069E-10
       294  13 -2.645792E+06 -3.886449E+04 -7.682443E+04  7.646871E+05  1.598415E-10  6.094285E-12
       294  14 -2.645452E+06  3.173618E+03 -4.403968E+04  1.944805E+05 -5.030782E-10  1.064894E-09
       294  15 -2.643915E+06  4.646556E+03 -3.337715E+04  7.646872E+05  8.664596E-11  1.134882E-10
       294  16 -7.689192E+06 -1.298036E+06 -1.298716E+06  7.768232E+05  1.110742E-09 -7.013813E-10
       294  17 -6.240766E+06 -8.934333E+05 -9.133082E+05  1.941366E+05 -3.789023E-10 -1.586066E-10
       294  18 -4.790799E+06 -5.311627E+05 -5.559835E+05  7.522421E+05 -3.314153E-10  5.134118E-10
       294  19  2.421106E+06  1.218457E+06  1.143281E+06  7.524475E+05  6.508398E+04  1.489888E+05
       294  20  9.617923E+05  8.988430E+05  8.243263E+05  1.948249E+05  5.056650E+04  1.094328E+05
       294  21 -4.927901E+05  5.401183E+05  4.889019E+05  7.771704E+05  3.650259E+04  5.267031E+04
       294  22 -2.645784E+06 -3.884000E+04 -7.677806E+04  7.646931E+05  4.993579E+04  1.490764E+05
       294  23 -2.645448E+06  3.186664E+03 -4.401580E+04  1.944829E+05  2.731663E+04  1.094420E+05
       294  24 -2.643914E+06  4.649525E+03 -3.337192E+04  7.646874E+05  5.118461E+03  5.255104E+04
       294  25 -7.689185E+06 -1.298012E+06 -1.298672E+06  7.768274E+05  3.490915E+04  1.491637E+05
       294  26 -6.240763E+06 -8.934204E+05 -9.132857E+05  1.941369E+05  4.200865E+03  1.094513E+05
       294  27 -4.790798E+06 -5.311595E+05 -5.559770E+05  7.522410E+05 -2.615716E+04  5.243277E+04
       295   1 -2.596070E+06  1.422140E+04 -2.514518E+04  7.619016E+05 -3.010455E+04 -1.383316E+04
       295   2 -4.053784E+06 -3.466572E+05 -3.788711E+05  1.901623E+05 -4.809537E+03  4.328033E+04
       295   3 -5.525808E+06 -7.414058E+05 -7.590642E+05  7.696600E+05  2.061970E+04  8.717439E+04
       295   4 -2.646242E+06  2.553300E+03 -3.343911E+04  7.670491E+05  3.152414E+02 -1.369416E+04
       295   5 -2.639043E+06  5.664527E+03 -3.736405E+04  1.915363E+05  1.929685E+04  4.335135E+04
       295   6 -2.647000E+06 -2.378859E+04 -6.318115E+04  7.671087E+05  3.847227E+04  8.719690E+04
       295   7 -2.696410E+06 -9.114330E+03 -4.172962E+04  7.721961E+05  3.073265E+04 -1.355465E+04
       295   8 -1.222459E+06  3.578396E+05  3.040016E+05  1.929118E+05  4.345824E+04  4.342238E+04
       295   9  2.394494E+05  6.932194E+05  6.321072E+05  7.645358E+05  5.640760E+04  8.721921E+04
       295  10 -2.596071E+06  1.422095E+04 -2.514724E+04  7.619013E+05  1.477290E-09 -3.173736E-11
       295  11 -4.053785E+06 -3.466592E+05 -3.788747E+05  1.901624E+05  7.502446E-10  8.328760E-10
       295  12 -5.525811E+06 -7.414140E+05 -7.590792E+05  7.696585E+05  7.831410E-10 -2.609964E-10
       295  13 -2.646243E+06  2.553098E+03 -3.343947E+04  7.670491E+05  9.433730E-11  7.130939E-10
       295  14 -2.639044E+06  5.662411E+03 -3.736828E+04  1.915357E+05 -1.377684E-09  1.145099E-10
       295  15 -2.647003E+06 -2.379714E+04 -6.319819E+04  7.671060E+05 -4.347020E-11  1.803890E-10
       295  16 -2.696411E+06 -9.114783E+03 -4.173175E+04  7.721964E+05 -1.176225E-09 -8.103388E-10
       295  17 -1.222461E+06  3.578371E+05  3.039945E+05  1.929103E+05 -2.464462E-09 -2.056352E-10
       295  18  2.394439E+05  6.932104E+05  6.320870E+05  7.645318E+05 -3.807284E-10  6.543780E-10
       295  19 -2.596070E+06  1.422140E+04 -2.514518E+04  7.619016E+05  3.010455E+04  1.383316E+04
       295  20 -4.053784E+06 -3.466572E+05 -3.788711E+05  1.901623E+05  4.809537E+03 -4.328033E+04
       295  21 -5.525808E+06 -7.414058E+05 -7.590642E+05  7.696600E+05 -2.061970E+04 -8.717439E+04
       295  22 -2.646242E+06  2.553300E+03 -3.343911E+04  7.670491E+05 -3.152414E+02  1.369416E+04
       295  23 -2.639043E+06  5.664527E+03 -3.736405E+04  1.915363E+05 -1.929685E+04 -4.335135E+04
       295  24 -2.647000E+06 -2.378859E+04 -6.318115E+04  7.671087E+05 -3.847227E+04 -8.719690E+04
       295  25 -2.696410E+06 -9.114330E+03 -4.172962E+04  7.721961E+05 -3.073265E+04  1.355465E+04
       295  26 -1.222459E+06  3.578396E+05  3.040016E+05  1.929118E+05 -4.345824E+04 -4.342238E+04
       295  27  2.394494E+05  6.932194E+05  6.321072E+05  7.645358E+05 -5.640760E+04 -8.721921E+04
       296   1 -7.597193E+06 -1.224409E+06 -1.270008E+06  7.263747E+05 -1.946994E+04  1.470792E+05
       296   2 -8.998759E+06 -1.566863E+06 -1.656203E+06  2.377330E+05  1.307242E+05  1.999966E+05
       296   3 -1.042421E+07 -2.175267E+06 -2.195533E+06  8.571119E+05  2.797938E+05  6.978371E+04
       296   4 -2.650251E+06  1.059814E+04 -7.180236E+04  7.577035E+05  4.944843E+04  1.470911E+05
       296   5 -2.647282E+06  1.954745E+04 -1.199718E+05  2.033362E+05  1.133490E+05  1.999107E+05
       296   6 -2.653670E+06 -2.205338E+05 -2.598377E+05  7.564459E+05  1.764810E+05  7.039725E+04
       296   7  2.319300E+06  1.243807E+06  1.124656E+06  7.892649E+05  1.189182E+05  1.471099E+05
       296   8  3.741517E+06  1.602990E+06  1.413357E+06  1.686059E+05  9.578973E+04  1.998274E+05
       296   9  5.172413E+06  1.729658E+06  1.671354E+06  6.545631E+05  7.184743E+04  7.104180E+04
       296  10 -7.597199E+06 -1.224433E+06 -1.270049E+06  7.263770E+05 -7.572353E-10 -1.006865E-09
       296  11 -8.998788E+06 -1.566911E+06 -1.656310E+06  2.377118E+05 -2.714003E-09 -1.479161E-09
       296  12 -1.042429E+07 -2.175294E+06 -2.195692E+06  8.570961E+05 -2.735192E-09 -7.639522E-10
       296  13 -2.650260E+06  1.057428E+04 -7.184754E+04  7.576976E+05 -8.602628E-11 -9.287828E-11
       296  14 -2.647307E+06  1.950113E+04 -1.200711E+05  2.033180E+05  2.262250E-09  1.244021E-10
       296  15 -2.653705E+06 -2.205475E+05 -2.599057E+05  7.564359E+05 -6.737593E-10  1.165078E-09
       296  16  2.319279E+06  1.243780E+06  1.124589E+06  7.892509E+05  5.729998E-10  5.568530E-10
       296  17  3.741497E+06  1.602944E+06  1.413265E+06  1.685905E+05  4.078370E-09 -2.239667E-10
       296  18  5.172406E+06  1.729651E+06  1.671335E+06  6.545590E+05 -4.761483E-10 -1.470336E-10
       296  19 -7.597193E+06 -1.224409E+06 -1.270008E+06  7.263747E+05  1.946994E+04 -1.470792E+05
       296  20 -8.998759E+06 -1.566863E+06 -1.656203E+06  2.377330E+05 -1.307242E+05 -1.999966E+05
       296  21 -1.042421E+07 -2.175267E+06 -2.195533E+06  8.571119E+05 -2.797938E+05 -6.978371E+04
       296  22 -2.650251E+06  1.059814E+04 -7.180236E+04  7.577035E+05 -4.944843E+04 -1.470911E+05
       296  23 -2.647282E+06  1.954745E+04 -1.199718E+05  2.033362E+05 -1.133490E+05 -1.999107E+05
       296  24 -2.653670E+06 -2.205338E+05 -2.598377E+05  7.564459E+05 -1.764810E+05 -7.039725E+04
       296  25  2.319300E+06  1.243807E+06  1.124656E+06  7.892649E+05 -1.189182E+05 -1.471099E+05
       296  26  3.741517E+06  1.602990E+06  1.413357E+06  1.686059E+05 -9.578973E+04 -1.998274E+05
       296  27  5.172413E+06  1.729658E+06  1.671354E+06  6.545631E+05 -7.184743E+04 -7.104180E+04
       297   1  6.235533E+06  1.897575E+06  1.886442E+06  6.099998E+05  8.443913E+04 -7.240147E+04
       297   2  4.954616E+06  1.608467E+06  1.545223E+06  1.555177E+05  7.875563E+03 -2.038992E+05
       297   3  3.745335E+06  1.312349E+06  1.263684E+06  6.664970E+05 -6.771981E+04 -1.582401E+05
       297   4 -1.549674E+06 -3.898638E+04 -3.179728E+04  6.578838E+05 -2.201681E+04 -7.171851E+04
       297   5 -1.575832E+06 -7.936972E+03 -2.014850E+04  1.748751E+05 -1.285925E+04 -2.039738E+05
       297   6 -1.546868E+06  1.116229E+03 -8.008771E+03  6.580144E+05 -2.882709E+03 -1.582436E+05
       297   7 -9.280012E+06 -1.980050E+06 -1.954479E+06  7.052382E+05 -1.271480E+05 -7.104827E+04
       297   8 -8.067362E+06 -1.627436E+06 -1.588544E+06  1.940550E+05 -3.337757E+04 -2.040505E+05
       297   9 -6.813486E+06 -1.312153E+06 -1.281680E+06  6.495830E+05  6.140628E+04 -1.582489E+05
       297  10  6.235524E+06  1.897567E+06  1.886419E+06  6.100047E+05 -3.249009E-09  4.301967E-10
       297  11  4.954605E+06  1.608422E+06  1.545145E+06  1.555190E+05 -4.418691E-09 -2.413625E-10
       297  12  3.745323E+06  1.312321E+06  1.263629E+06  6.664884E+05 -3.553402E-09 -1.553696E-09
       297  13 -1.549676E+06 -3.899203E+04 -3.180785E+04  6.578825E+05  2.759430E-10  2.107384E-09
       297  14 -1.575843E+06 -7.981661E+03 -2.022693E+04  1.748730E+05  1.958719E-09  1.727689E-09
       297  15 -1.546874E+06  1.089357E+03 -8.055807E+03  6.580140E+05 -3.361622E-12 -2.557500E-09
       297  16 -9.280031E+06 -1.980060E+06 -1.954519E+06  7.052308E+05  2.985216E-09  1.108785E-10
       297  17 -8.067374E+06 -1.627481E+06 -1.588624E+06  1.940494E+05  6.561634E-09  2.418773E-10
       297  18 -6.813497E+06 -1.312181E+06 -1.281734E+06  6.495908E+05  3.182213E-09 -7.641531E-10
       297  19  6.235533E+06  1.897575E+06  1.886442E+06  6.099998E+05 -8.443913E+04  7.240147E+04
       297  20  4.954616E+06  1.608467E+06  1.545223E+06  1.555177E+05 -7.875563E+03  2.038992E+05
       297  21  3.745335E+06  1.312349E+06  1.263684E+06  6.664970E+05  6.771981E+04  1.582401E+05
       297  22 -1.549674E+06 -3.898638E+04 -3.179728E+04  6.578838E+05  2.201681E+04  7.171851E+04
       297  23 -1.575832E+06 -7.936972E+03 -2.014850E+04  1.748751E+05  1.285925E+04  2.039738E+05
       297  24 -1.546868E+06  1.116229E+03 -8.008771E+03  6.580144E+05  2.882709E+03  1.582436E+05
       297  25 -9.280012E+06 -1.980050E+06 -1.954479E+06  7.052382E+05  1.271480E+05  7.104827E+04
       297  26 -8.067362E+06 -1.627436E+06 -1.588544E+06  1.940550E+05  3.337757E+04  2.040505E+05
       297  27 -6.813486E+06 -1.312153E+06 -1.281680E+06  6.495830E+05 -6.140628E+04  1.582489E+05
       298   1  1.933195E+06  8.604175E+05  8.293040E+05  6.693416E+05 -1.611966E+04 -1.034576E+05
       298   2  6.625326E+05  5.515800E+05  5.247781E+05  1.723663E+05 -1.815189E+04 -6.732655E+04
       298   3 -6.088733E+05  2.406008E+05  2.203656E+05  6.703652E+05 -2.044279E+04 -1.802832E+04
       298   4 -1.555412E+06 -4.950100E+03 -1.020708E+04  6.644466E+05 -1.898237E+03 -1.034542E+05
       298   5 -1.553243E+06  1.602886E+03 -8.370345E+03  1.668337E+05  2.370922E+03 -6.726164E+04
       298   6 -1.554439E+06  5.002469E+03 -1.071197E+04  6.644208E+05  6.376866E+03 -1.787611E+04
       298   7 -5.032888E+06 -8.712054E+05 -8.505858E+05  6.595655E+05  1.224376E+04 -1.034510E+05
       298   8 -3.764522E+06 -5.487322E+05 -5.418674E+05  1.613160E+05  2.282079E+04 -6.719699E+04
       298   9 -2.499186E+06 -2.306617E+05 -2.418522E+05  6.584839E+05  3.315573E+04 -1.772427E+04
       298  10  1.933192E+06  8.604059E+05  8.292834E+05  6.693402E+05  4.744119E-09  1.497449E-10
       298  11  6.625311E+05  5.515750E+05  5.247690E+05  1.723653E+05  4.105198E-09  2.636890E-09
       298  12 -6.088739E+05  2.406004E+05  2.203642E+05  6.703649E+05  2.728458E-09  1.277682E-09
       298  13 -1.555415E+06 -4.961585E+03 -1.022719E+04  6.644464E+05 -1.514907E-10 -5.126943E-10
       298  14 -1.553245E+06  1.598030E+03 -8.378851E+03  1.668338E+05 -1.755655E-09  2.507882E-09
       298  15 -1.554439E+06  5.002115E+03 -1.071265E+04  6.644209E+05  1.545736E-10  1.576943E-09
       298  16 -5.032891E+06 -8.712169E+05 -8.506062E+05  6.595665E+05 -4.829668E-09 -1.294769E-09
       298  17 -3.764524E+06 -5.487372E+05 -5.418769E+05  1.613172E+05 -5.851686E-09  1.708795E-09
       298  18 -2.499187E+06 -2.306623E+05 -2.418548E+05  6.584844E+05 -5.227844E-10 -7.947579E-10
       298  19  1.933195E+06  8.604175E+05  8.293040E+05  6.693416E+05  1.611966E+04  1.034576E+05
       298  20  6.625326E+05  5.515800E+05  5.247781E+05  1.723663E+05  1.815189E+04  6.732655E+04
       298  21 -6.088733E+05  2.406008E+05  2.203656E+05  6.703652E+05  2.044279E+04  1.802832E+04
       298  22 -1.555412E+06 -4.950100E+03 -1.020708E+04  6.644466E+05  1.898237E+03  1.034542E+05
       298  23 -1.553243E+06  1.602886E+03 -8.370345E+03  1.668337E+05 -2.370922E+03  6.726164E+04
       298  24 -1.554439E+06  5.002469E+03 -1.071197E+04  6.644208E+05 -6.376866E+03  1.787611E+04
       298  25 -5.032888E+06 -8.712054E+05 -8.505858E+05  6.595655E+05 -1.224376E+04  1.034510E+05
       298  26 -3.764522E+06 -5.487322E+05 -5.418674E+05  1.613160E+05 -2.282079E+04  6.719699E+04
       298  27 -2.499186E+06 -2.306617E+05 -2.418522E+05  6.584839E+05 -3.315573E+04  1.772427E+04
       299   1 -2.428018E+06 -2.106821E+05 -2.266878E+05  6.573101E+05 -1.869515E+04  1.563264E+04
       299   2 -3.691168E+06 -5.289112E+05 -5.374055E+05  1.622764E+05 -1.771607E+03  6.510478E+04
       299   3 -4.962441E+06 -8.662070E+05 -8.649290E+05  6.628687E+05  1.537398E+04  1.014956E+05
       299   4 -1.555527E+06  7.021813E+03 -1.297843E+04  6.644511E+05  8.062644E+03  1.578504E+04
       299   5 -1.551789E+06  3.495990E+03 -2.128044E+04  1.667786E+05  1.874915E+04  6.517190E+04
       299   6 -1.556487E+06 -1.782863E+04 -4.188964E+04  6.645265E+05  2.969220E+04  1.015021E+05
       299   7 -6.823375E+05  2.246697E+05  2.006779E+05  6.716008E+05  3.485808E+04  1.593793E+04
       299   8  5.918004E+05  5.355681E+05  4.945184E+05  1.712918E+05  3.934062E+04  6.523920E+04
       299   9  1.860145E+06  8.296983E+05  7.803175E+05  6.661799E+05  4.408884E+04  1.015086E+05
       299  10 -2.428018E+06 -2.106824E+05 -2.266890E+05  6.573104E+05  3.537044E-09  5.774556E-10
       299  11 -3.691169E+06 -5.289157E+05 -5.374135E+05  1.622765E+05  1.054570E-09  1.361950E-09
       299  12 -4.962444E+06 -8.662181E+05 -8.649488E+05  6.628675E+05 -6.871223E-10  4.625236E-10
       299  13 -1.555527E+06  7.021528E+03 -1.297902E+04  6.644510E+05  3.605547E-10 -1.199859E-09
       299  14 -1.551790E+06  3.491338E+03 -2.128908E+04  1.667777E+05 -2.380854E-09 -2.529401E-10
       299  15 -1.556490E+06 -1.783992E+04 -4.191063E+04  6.645241E+05 -5.030438E-11 -1.485565E-10
       299  16 -6.823388E+05  2.246691E+05  2.006751E+05  6.716003E+05 -3.118775E-09 -8.666766E-10
       299  17  5.917976E+05  5.355631E+05  4.945075E+05  1.712897E+05 -2.941506E-09 -3.922155E-09
       299  18  1.860140E+06  8.296867E+05  7.802946E+05  6.661763E+05  1.829992E-09  3.797521E-10
       299  19 -2.428018E+06 -2.106821E+05 -2.266878E+05  6.573101E+05  1.869515E+04 -1.563264E+04
       299  20 -3.691168E+06 -5.289112E+05 -5.374055E+05  1.622764E+05  1.771607E+03 -6.510478E+04
       299  21 -4.962441E+06 -8.662070E+05 -8.649290E+05  6.628687E+05 -1.537398E+04 -1.014956E+05
       299  22 -1.555527E+06  7.021813E+03 -1.297843E+04  6.644511E+05 -8.062644E+03 -1.578504E+04
       299  23 -1.551789E+06  3.495990E+03 -2.128044E+04  1.667786E+05 -1.874915E+04 -6.517190E+04
       299  24 -1.556487E+06 -1.782863E+04 -4.188964E+04  6.645265E+05 -2.969220E+04 -1.015021E+05
       299  25 -6.823375E+05  2.246697E+05  2.006779E+05  6.716008E+05 -3.485808E+04 -1.593793E+04
       299  26  5.918004E+05  5.355681E+05  4.945184E+05  1.712918E+05 -3.934062E+04 -6.523920E+04
       299  27  1.860145E+06  8.296983E+05  7.803175E+05  6.661799E+05 -4.408884E+04 -1.015086E+05
       300   1 -6.752730E+06 -1.288172E+06 -1.304700E+06  6.338003E+05 -2.732874E+04  1.560831E+05
       300   2 -7.985213E+06 -1.591527E+06 -1.637208E+06  2.032720E+05  1.020760E+05  2.017156E+05
       300   3 -9.220631E+06 -2.083334E+06 -2.089732E+06  7.391090E+05  2.304379E+05  6.970556E+04
       300   4 -1.556458E+06  7.566069E+03 -4.802080E+04  6.581361E+05  3.681460E+04  1.560879E+05
       300   5 -1.563550E+06  1.050675E+04 -8.574519E+04  1.747794E+05  8.227727E+04  2.016341E+05
       300   6 -1.559334E+06 -1.589736E+05 -1.840489E+05  6.572836E+05  1.269661E+05  7.032755E+04
       300   7  3.664718E+06  1.301323E+06  1.206733E+06  6.826567E+05  1.014965E+05  1.560978E+05
       300   8  4.896194E+06  1.609512E+06  1.462759E+06  1.460115E+05  6.226889E+04  2.015551E+05
       300   9  6.155852E+06  1.760976E+06  1.717270E+06  5.744986E+05  2.219570E+04  7.097404E+04
       300  10 -6.752737E+06 -1.288198E+06 -1.304747E+06  6.338037E+05 -4.822167E-10 -3.119284E-10
       300  11 -7.985235E+06 -1.591573E+06 -1.637304E+06  2.032554E+05 -1.269133E-09 -1.735072E-09
       300  12 -9.220690E+06 -2.083354E+06 -2.089842E+06  7.390960E+05 -2.776488E-09  5.678848E-10
       300  13 -1.556466E+06  7.539570E+03 -4.806908E+04  6.581315E+05 -1.672713E-11  1.844418E-10
       300  14 -1.563568E+06  1.046130E+04 -8.583427E+04  1.747660E+05  1.906672E-09 -1.132346E-09
       300  15 -1.559353E+06 -1.589833E+05 -1.840885E+05  6.572764E+05 -9.218110E-11 -3.100311E-10
       300  16  3.664701E+06  1.301294E+06  1.206668E+06  6.826440E+05  2.123828E-10  6.030907E-10
       300  17  4.896179E+06  1.609468E+06  1.462675E+06  1.460015E+05  4.701759E-09 -2.450080E-09
       300  18  6.155850E+06  1.760971E+06  1.717260E+06  5.744973E+05  1.908437E-10 -8.613469E-10
       300  19 -6.752730E+06 -1.288172E+06 -1.304700E+06  6.338003E+05  2.732874E+04 -1.560831E+05
       300  20 -7.985213E+06 -1.591527E+06 -1.637208E+06  2.032720E+05 -1.020760E+05 -2.017156E+05
       300  21 -9.220631E+06 -2.083334E+06 -2.089732E+06  7.391090E+05 -2.304379E+05 -6.970556E+04
       300  22 -1.556458E+06  7.566069E+03 -4.802080E+04  6.581361E+05 -3.681460E+04 -1.560879E+05
       300  23 -1.563550E+06  1.050675E+04 -8.574519E+04  1.747794E+05 -8.227727E+04 -2.016341E+05
       300  24 -1.559334E+06 -1.589736E+05 -1.840489E+05  6.572836E+05 -1.269661E+05 -7.032755E+04
       300  25  3.664718E+06  1.301323E+06  1.206733E+06  6.826567E+05 -1.014965E+05 -1.560978E+05
       300  26  4.896194E+06  1.609512E+06  1.462759E+06  1.460115E+05 -6.226889E+04 -2.015551E+05
       300  27  6.155852E+06  1.760976E+06  1.717270E+06  5.744986E+05 -2.219570E+04 -7.097404E+04
       301   1  7.039909E+06  1.885753E+06  1.889305E+06  6.129261E+05  1.273053E+05 -7.010083E+04
       301   2  5.775208E+06  1.541604E+06  1.518175E+06  1.541842E+05  3.705206E+04 -1.964662E+05
       301   3  4.596106E+06  1.256000E+06  1.231063E+06  6.427261E+05 -5.224952E+04 -1.517993E+05
       301   4 -4.876852E+05  1.550809E+04  3.648935E+04  6.421832E+05  2.430658E+04 -6.945802E+04
       301   5 -5.213107E+05 -1.526623E+04  1.044669E+04  1.681293E+05  1.706697E+04 -1.965332E+05
       301   6 -4.850666E+05 -1.605595E+03  1.139144E+04  6.419851E+05  1.060258E+04 -1.518082E+05
       301   7 -7.964062E+06 -1.858938E+06 -1.820469E+06  6.711494E+05 -7.745699E+04 -6.882155E+04
       301   8 -6.781707E+06 -1.575007E+06 -1.500085E+06  1.819574E+05 -2.718398E+03 -1.966018E+05
       301   9 -5.542694E+06 -1.261084E+06 -1.210099E+06  6.412319E+05  7.294481E+04 -1.518171E+05
       301  10  7.039891E+06  1.885743E+06  1.889266E+06  6.129332E+05 -3.477412E-09 -8.735606E-10
       301  11  5.775196E+06  1.541562E+06  1.518099E+06  1.541900E+05 -2.718034E-09  1.783671E-09
       301  12  4.596097E+06  1.255974E+06  1.231015E+06  6.427198E+05  1.418569E-09  4.365754E-11
       301  13 -4.876872E+05  1.550275E+04  3.647917E+04  6.421846E+05  3.408424E-10  2.846607E-09
       301  14 -5.213213E+05 -1.530778E+04  1.037357E+04  1.681320E+05  2.745904E-09  1.746472E-09
       301  15 -4.850729E+05 -1.630369E+03  1.134792E+04  6.419864E+05  1.840141E-10  1.670910E-10
       301  16 -7.964070E+06 -1.858945E+06 -1.820489E+06  6.711451E+05  3.295252E-09 -1.772805E-09
       301  17 -6.781718E+06 -1.575049E+06 -1.500157E+06  1.819570E+05  4.490527E-09  2.985370E-09
       301  18 -5.542706E+06 -1.261110E+06 -1.210152E+06  6.412408E+05 -8.347819E-10  3.365696E-10
       301  19  7.039909E+06  1.885753E+06  1.889305E+06  6.129261E+05 -1.273053E+05  7.010083E+04
       301  20  5.775208E+06  1.541604E+06  1.518175E+06  1.541842E+05 -3.705206E+04  1.964662E+05
       301  21  4.596106E+06  1.256000E+06  1.231063E+06  6.427261E+05  5.224952E+04  1.517993E+05
       301  22 -4.876852E+05  1.550809E+04  3.648935E+04  6.421832E+05 -2.430658E+04  6.945802E+04
       301  23 -5.213107E+05 -1.526623E+04  1.044669E+04  1.681293E+05 -1.706697E+04  1.965332E+05
       301  24 -4.850666E+05 -1.605595E+03  1.139144E+04  6.419851E+05 -1.060258E+04  1.518082E+05
       301  25 -7.964062E+06 -1.858938E+06 -1.820469E+06  6.711494E+05  7.745699E+04  6.882155E+04
       301  26 -6.781707E+06 -1.575007E+06 -1.500085E+06  1.819574E+05  2.718398E+03  1.966018E+05
       301  27 -5.542694E+06 -1.261084E+06 -1.210099E+06  6.412319E+05 -7.294481E+04  1.518171E+05
       302   1  2.836344E+06  8.267685E+05  8.074262E+05  6.504216E+05 -5.202016E+03 -9.873062E+04
       302   2  1.609255E+06  5.224599E+05  5.073889E+05  1.700790E+05 -1.197401E+04 -6.386882E+04
       302   3  3.841147E+05  2.236638E+05  2.125226E+05  6.489924E+05 -1.897174E+04 -1.644857E+04
       302   4 -4.965508E+05  9.148243E+02  6.266921E+03  6.446012E+05  8.542772E+03 -9.872818E+04
       302   5 -4.958768E+05  5.240568E+02  1.426385E+03  1.648673E+05  7.811338E+03 -6.381084E+04
       302   6 -4.956649E+05  4.703178E+03 -2.323987E+03  6.445933E+05  6.840790E+03 -1.631154E+04
       302   7 -3.819303E+06 -8.257470E+05 -7.956822E+05  6.388003E+05  2.221420E+04 -9.872601E+04
       302   8 -2.596956E+06 -5.217341E+05 -5.048499E+05  1.596691E+05  2.752995E+04 -6.375309E+04
       302   9 -1.374737E+06 -2.143142E+05 -2.172245E+05  6.401991E+05  3.261683E+04 -1.617477E+04
       302  10  2.836342E+06  8.267580E+05  8.074078E+05  6.504212E+05  7.431834E-10  3.506325E-10
       302  11  1.609253E+06  5.224555E+05  5.073809E+05  1.700784E+05  1.569281E-09  2.363982E-09
       302  12  3.841142E+05  2.236634E+05  2.125214E+05  6.489922E+05  2.833606E-09 -1.899468E-09
       302  13 -4.965535E+05  9.043389E+02  6.248467E+03  6.446019E+05  7.508044E-11 -1.212258E-09
       302  14 -4.958780E+05  5.196688E+02  1.418619E+03  1.648677E+05 -1.932789E-09  5.387124E-09
       302  15 -4.956650E+05  4.702879E+03 -2.324576E+03  6.445934E+05 -2.247593E-10 -1.869214E-09
       302  16 -3.819307E+06 -8.257576E+05 -7.957015E+05  6.388020E+05 -4.815738E-10  6.971251E-11
       302  17 -2.596958E+06 -5.217387E+05 -5.048590E+05  1.596705E+05 -3.333213E-09  1.415686E-09
       302  18 -1.374739E+06 -2.143148E+05 -2.172270E+05  6.401995E+05 -1.278941E-09  2.076667E-10
       302  19  2.836344E+06  8.267685E+05  8.074262E+05  6.504216E+05  5.202016E+03  9.873062E+04
       302  20  1.609255E+06  5.224599E+05  5.073889E+05  1.700790E+05  1.197401E+04  6.386882E+04
       302  21  3.841147E+05  2.236638E+05  2.125226E+05  6.489924E+05  1.897174E+04  1.644857E+04
       302  22 -4.965508E+05  9.148243E+02  6.266921E+03  6.446012E+05 -8.542772E+03  9.872818E+04
       302  23 -4.958768E+05  5.240568E+02  1.426385E+03  1.648673E+05 -7.811338E+03  6.381084E+04
       302  24 -4.956649E+05  4.703178E+03 -2.323987E+03  6.445933E+05 -6.840790E+03  1.631154E+04
       302  25 -3.819303E+06 -8.257470E+05 -7.956822E+05  6.388003E+05 -2.221420E+04  9.872601E+04
       302  26 -2.596956E+06 -5.217341E+05 -5.048499E+05  1.596691E+05 -2.752995E+04  6.375309E+04
       302  27 -1.374737E+06 -2.143142E+05 -2.172245E+05  6.401991E+05 -3.261683E+04  1.617477E+04
       303   1 -1.364469E+06 -2.095615E+05 -2.166791E+05  6.387781E+05 -1.870883E+04  1.591248E+04
       303   2 -2.584498E+06 -5.171857E+05 -5.146234E+05  1.605808E+05 -7.206606E+03  6.349042E+04
       303   3 -3.809165E+06 -8.355876E+05 -8.235474E+05  6.420405E+05  4.511039E+03  9.848938E+04
       303   4 -4.966498E+05  6.677489E+03 -4.486611E+03  6.445771E+05  7.070097E+03  1.604935E+04
       303   5 -4.946321E+05  2.272458E+03 -1.105179E+04  1.648721E+05  1.255341E+04  6.354864E+04
       303   6 -4.975367E+05 -1.171570E+04 -2.428569E+04  6.446285E+05  1.827486E+04  9.849217E+04
       303   7  3.718581E+05  2.228612E+05  2.076534E+05  6.503829E+05  3.288503E+04  1.618659E+04
       303   8  1.599243E+06  5.214117E+05  4.922093E+05  1.691738E+05  3.237985E+04  6.360704E+04
       303   9  2.824166E+06  8.113535E+05  7.741915E+05  6.472186E+05  3.211198E+04  9.849507E+04
       303  10 -1.364469E+06 -2.095619E+05 -2.166803E+05  6.387783E+05 -4.967582E-09 -7.180833E-10
       303  11 -2.584500E+06 -5.171900E+05 -5.146311E+05  1.605812E+05  7.994636E-10 -8.935894E-10
       303  12 -3.809167E+06 -8.355980E+05 -8.235657E+05  6.420402E+05  6.525408E-09  8.708978E-10
       303  13 -4.966499E+05  6.677199E+03 -4.487189E+03  6.445770E+05 -2.867582E-10 -1.571162E-09
       303  14 -4.946334E+05  2.268080E+03 -1.105967E+04  1.648715E+05 -1.774786E-09 -2.701464E-09
       303  15 -4.975396E+05 -1.172620E+04 -2.430454E+04  6.446270E+05 -1.115325E-10 -1.475373E-09
       303  16  3.718569E+05  2.228606E+05  2.076509E+05  6.503825E+05  4.769091E-09 -9.812959E-10
       303  17  1.599241E+06  5.214071E+05  4.921998E+05  1.691721E+05 -2.946441E-09  2.269647E-09
       303  18  2.824162E+06  8.113428E+05  7.741713E+05  6.472160E+05 -6.042920E-09  1.317373E-09
       303  19 -1.364469E+06 -2.095615E+05 -2.166791E+05  6.387781E+05  1.870883E+04 -1.591248E+04
       303  20 -2.584498E+06 -5.171857E+05 -5.146234E+05  1.605808E+05  7.206606E+03 -6.349042E+04
       303  21 -3.809165E+06 -8.355876E+05 -8.235474E+05  6.420405E+05 -4.511039E+03 -9.848938E+04
       303  22 -4.966498E+05  6.677489E+03 -4.486611E+03  6.445771E+05 -7.070097E+03 -1.604935E+04
       303  23 -4.946321E+05  2.272458E+03 -1.105179E+04  1.648721E+05 -1.255341E+04 -6.354864E+04
       303  24 -4.975367E+05 -1.171570E+04 -2.428569E+04  6.446285E+05 -1.827486E+04 -9.849217E+04
       303  25  3.718581E+05  2.228612E+05  2.076534E+05  6.503829E+05 -3.288503E+04 -1.618659E+04
       303  26  1.599243E+06  5.214117E+05  4.922093E+05  1.691738E+05 -3.237985E+04 -6.360704E+04
       303  27  2.824166E+06  8.113535E+05  7.741915E+05  6.472186E+05 -3.211198E+04 -9.849507E+04
       304   1 -5.541042E+06 -1.252422E+06 -1.246084E+06  6.262783E+05 -4.030963E+04  1.515339E+05
       304   2 -6.759196E+06 -1.554740E+06 -1.560743E+06  1.917989E+05  6.932244E+04  1.960915E+05
       304   3 -7.962028E+06 -1.972720E+06 -1.964636E+06  7.050289E+05  1.779630E+05  6.805216E+04
       304   4 -4.941414E+05  4.422600E+03 -2.715066E+04  6.420126E+05  2.213486E+04  1.515254E+05
       304   5 -5.099279E+05  2.262501E+03 -5.288547E+04  1.681548E+05  4.992683E+04  1.960206E+05
       304   6 -4.967875E+05 -1.003716E+05 -1.102251E+05  6.415022E+05  7.695073E+04  6.867137E+04
       304   7  4.576205E+06  1.259403E+06  1.189972E+06  6.578577E+05  8.508809E+04  1.515202E+05
       304   8  5.775332E+06  1.556405E+06  1.452179E+06  1.442935E+05  3.033305E+04  1.959518E+05
       304   9  7.019514E+06  1.767794E+06  1.740055E+06  5.772641E+05 -2.529177E+04  6.930839E+04
       304  10 -5.541050E+06 -1.252447E+06 -1.246130E+06  6.262833E+05  1.944176E-09 -6.652838E-11
       304  11 -6.759211E+06 -1.554783E+06 -1.560824E+06  1.917879E+05 -4.350785E-10 -4.006024E-11
       304  12 -7.962063E+06 -1.972733E+06 -1.964705E+06  7.050192E+05 -3.145675E-09 -1.591604E-09
       304  13 -4.941481E+05  4.397824E+03 -2.719470E+04  6.420099E+05 -8.518732E-11 -3.400076E-10
       304  14 -5.099409E+05  2.220582E+03 -5.296233E+04  1.681469E+05  2.003102E-09  5.095472E-10
       304  15 -4.967951E+05 -1.003783E+05 -1.102450E+05  6.414980E+05 -6.895462E-10 -2.071678E-09
       304  16  4.576191E+06  1.259376E+06  1.189915E+06  6.578474E+05 -2.380169E-09 -1.465093E-09
       304  17  5.775321E+06  1.556364E+06  1.452105E+06  1.442888E+05  9.886010E-10 -1.438092E-09
       304  18  7.019512E+06  1.767789E+06  1.740044E+06  5.772655E+05 -4.352717E-10 -2.583189E-09
       304  19 -5.541042E+06 -1.252422E+06 -1.246084E+06  6.262783E+05  4.030963E+04 -1.515339E+05
       304  20 -6.759196E+06 -1.554740E+06 -1.560743E+06  1.917989E+05 -6.932244E+04 -1.960915E+05
       304  21 -7.962028E+06 -1.972720E+06 -1.964636E+06  7.050289E+05 -1.779630E+05 -6.805216E+04
       304  22 -4.941414E+05  4.422600E+03 -2.715066E+04  6.420126E+05 -2.213486E+04 -1.515254E+05
       304  23 -5.099279E+05  2.262501E+03 -5.288547E+04  1.681548E+05 -4.992683E+04 -1.960206E+05
       304  24 -4.967875E+05 -1.003716E+05 -1.102251E+05  6.415022E+05 -7.695073E+04 -6.867137E+04
       304  25  4.576205E+06  1.259403E+06  1.189972E+06  6.578577E+05 -8.508809E+04 -1.515202E+05
       304  26  5.775332E+06  1.556405E+06  1.452179E+06  1.442935E+05 -3.033305E+04 -1.959518E+05
       304  27  7.019514E+06  1.767794E+06  1.740055E+06  5.772641E+05  2.529177E+04 -6.930839E+04
       305   1  8.091876E+06  1.939457E+06  1.958448E+06  6.360092E+05  1.756573E+05 -7.022131E+04
       305   2  6.800134E+06  1.527377E+06  1.544012E+06  1.580332E+05  6.827262E+04 -1.958101E+05
       305   3  5.613218E+06  1.243473E+06  1.241863E+06  6.408514E+05 -3.813556E+04 -1.506540E+05
       305   4  5.632856E+05  7.146106E+04  1.075973E+05  6.478971E+05  7.255393E+04 -6.958858E+04
       305   5  5.199512E+05 -2.364993E+04  4.193270E+04  1.669275E+05  4.833207E+04 -1.958772E+05
       305   6  5.659537E+05 -4.293998E+03  3.174524E+04  6.473590E+05  2.487442E+04 -1.506608E+05
       305   7 -6.914164E+06 -1.800726E+06 -1.747385E+06  6.597024E+05 -2.931751E+04 -6.895655E+04
       305   8 -5.724361E+06 -1.577526E+06 -1.462928E+06  1.757558E+05  2.858874E+04 -1.959456E+05
       305   9 -4.458120E+06 -1.253904E+06 -1.180162E+06  6.537958E+05  8.737703E+04 -1.506662E+05
       305  10  8.091842E+06  1.939443E+06  1.958381E+06  6.360191E+05 -5.034767E-09  2.739692E-09
       305  11  6.800119E+06  1.527334E+06  1.543931E+06  1.580439E+05 -4.056726E-09  5.497131E-09
       305  12  5.613211E+06  1.243449E+06  1.241818E+06  6.408468E+05  1.246002E-09  1.040579E-10
       305  13  5.632787E+05  7.145444E+04  1.075783E+05  6.479012E+05  5.346812E-10  1.296651E-09
       305  14  5.199384E+05 -2.369177E+04  4.185618E+04  1.669351E+05  2.334749E-09 -1.858482E-10
       305  15  5.659469E+05 -4.318550E+03  3.170139E+04  6.473620E+05  1.107793E-09  6.930445E-10
       305  16 -6.914166E+06 -1.800732E+06 -1.747396E+06  6.597008E+05  4.494470E-09  2.566183E-09
       305  17 -5.724372E+06 -1.577567E+06 -1.463002E+06  1.757603E+05  3.159715E-09 -4.237797E-10
       305  18 -4.458134E+06 -1.253931E+06 -1.180219E+06  6.538064E+05  5.202128E-10 -2.348575E-10
       305  19  8.091876E+06  1.939457E+06  1.958448E+06  6.360092E+05 -1.756573E+05  7.022131E+04
       305  20  6.800134E+06  1.527377E+06  1.544012E+06  1.580332E+05 -6.827262E+04  1.958101E+05
       305  21  5.613218E+06  1.243473E+06  1.241863E+06  6.408514E+05  3.813556E+04  1.506540E+05
       305  22  5.632856E+05  7.146106E+04  1.075973E+05  6.478971E+05 -7.255393E+04  6.958858E+04
       305  23  5.199512E+05 -2.364993E+04  4.193270E+04  1.669275E+05 -4.833207E+04  1.958772E+05
       305  24  5.659537E+05 -4.293998E+03  3.174524E+04  6.473590E+05 -2.487442E+04  1.506608E+05
       305  25 -6.914164E+06 -1.800726E+06 -1.747385E+06  6.597024E+05  2.931751E+04  6.895655E+04
       305  26 -5.724361E+06 -1.577526E+06 -1.462928E+06  1.757558E+05 -2.858874E+04  1.959456E+05
       305  27 -4.458120E+06 -1.253904E+06 -1.180162E+06  6.537958E+05 -8.737703E+04  1.506662E+05
       306   1  3.845568E+06  8.225251E+05  8.144504E+05  6.539089E+05  5.850632E+03 -9.748893E+04
       306   2  2.619959E+06  5.121319E+05  5.084638E+05  1.736155E+05 -6.037694E+03 -6.270777E+04
       306   3  1.398960E+06  2.156192E+05  2.130303E+05  6.496710E+05 -1.813665E+04 -1.553396E+04
       306   4  5.507090E+05  7.016789E+03  2.334723E+04  6.464065E+05  1.958589E+04 -9.748573E+04
       306   5  5.500352E+05 -4.939782E+02  1.153167E+04  1.681371E+05  1.368927E+04 -6.265015E+04
       306   6  5.515797E+05  4.957217E+03  6.244374E+03  6.464135E+05  7.558710E+03 -1.539904E+04
       306   7 -2.734256E+06 -8.092792E+05 -7.685259E+05  6.389325E+05  3.324867E+04 -9.748286E+04
       306   8 -1.515977E+06 -5.134306E+05 -4.857031E+05  1.626731E+05  3.335088E+04 -6.259277E+04
       306   9 -2.951462E+05 -2.057573E+05 -2.005913E+05  6.431593E+05  3.321914E+04 -1.526429E+04
       306  10  3.845566E+06  8.225149E+05  8.144325E+05  6.539093E+05  6.490795E-10  3.534802E-10
       306  11  2.619958E+06  5.121277E+05  5.084563E+05  1.736152E+05  1.391716E-09 -7.149861E-10
       306  12  1.398960E+06  2.156188E+05  2.130292E+05  6.496708E+05  3.737099E-09 -1.355151E-09
       306  13  5.507060E+05  7.006475E+03  2.332863E+04  6.464080E+05  1.738659E-10 -8.330805E-10
       306  14  5.500339E+05 -4.982446E+02  1.152394E+04  1.681378E+05 -8.214298E-10  1.641669E-09
       306  15  5.515796E+05  4.956947E+03  6.243821E+03  6.464136E+05  7.408873E-10  2.191841E-09
       306  16 -2.734260E+06 -8.092897E+05 -7.685458E+05  6.389351E+05  1.236205E-09 -1.396104E-09
       306  17 -1.515980E+06 -5.134352E+05 -4.857125E+05  1.626748E+05 -2.727911E-09 -4.032042E-09
       306  18 -2.951474E+05 -2.057579E+05 -2.005938E+05  6.431597E+05 -1.540415E-09 -5.655950E-10
       306  19  3.845568E+06  8.225251E+05  8.144504E+05  6.539089E+05 -5.850632E+03  9.748893E+04
       306  20  2.619959E+06  5.121319E+05  5.084638E+05  1.736155E+05  6.037694E+03  6.270777E+04
       306  21  1.398960E+06  2.156192E+05  2.130303E+05  6.496710E+05  1.813665E+04  1.553396E+04
       306  22  5.507090E+05  7.016789E+03  2.334723E+04  6.464065E+05 -1.958589E+04  9.748573E+04
       306  23  5.500352E+05 -4.939782E+02  1.153167E+04  1.681371E+05 -1.368927E+04  6.265015E+04
       306  24  5.515797E+05  4.957217E+03  6.244374E+03  6.464135E+05 -7.558710E+03  1.539904E+04
       306  25 -2.734256E+06 -8.092792E+05 -7.685259E+05  6.389325E+05 -3.324867E+04  9.748286E+04
       306  26 -1.515977E+06 -5.134306E+05 -4.857031E+05  1.626731E+05 -3.335088E+04  6.259277E+04
       306  27 -2.951462E+05 -2.057573E+05 -2.005913E+05  6.431593E+05 -3.321914E+04  1.526429E+04
       307   1 -3.395139E+05 -2.145709E+05 -2.131844E+05  6.415533E+05 -1.941580E+04  1.664592E+04
       307   2 -1.558332E+06 -5.225529E+05 -5.086196E+05  1.635044E+05 -1.310732E+04  6.398086E+04
       307   3 -2.778672E+06 -8.328512E+05 -8.094520E+05  6.422750E+05 -6.573485E+03  9.880689E+04
       307   4  5.506566E+05  6.947108E+03  4.113152E+03  6.464138E+05  6.272711E+03  1.678037E+04
       307   5  5.511332E+05  1.176639E+03 -9.096179E+02  1.681216E+05  6.574183E+03  6.403703E+04
       307   6  5.497737E+05 -5.741892E+03 -7.053213E+03  6.464498E+05  7.113647E+03  9.880812E+04
       307   7  1.441551E+06  2.284071E+05  2.213554E+05  6.512800E+05  3.199797E+04  1.691512E+04
       307   8  2.664676E+06  5.245822E+05  5.064848E+05  1.727504E+05  2.632240E+04  6.409341E+04
       307   9  3.888378E+06  8.205587E+05  7.945551E+05  6.506354E+05  2.087405E+04  9.880954E+04
       307  10 -3.395144E+05 -2.145713E+05 -2.131856E+05  6.415536E+05  8.116943E-10 -3.490896E-09
       307  11 -1.558333E+06 -5.225573E+05 -5.086276E+05  1.635050E+05  1.288429E-09  5.029296E-09
       307  12 -2.778675E+06 -8.328617E+05 -8.094704E+05  6.422755E+05  1.978633E-09  1.912368E-09
       307  13  5.506565E+05  6.946795E+03  4.112550E+03  6.464137E+05 -5.551697E-10 -2.323452E-09
       307  14  5.511321E+05  1.172223E+03 -9.174066E+02  1.681212E+05 -1.903565E-09 -3.170772E-09
       307  15  5.497711E+05 -5.752391E+03 -7.071656E+03  6.464492E+05  5.132258E-10  1.549022E-09
       307  16  1.441550E+06  2.284065E+05  2.213530E+05  6.512795E+05 -2.980804E-10 -8.683351E-10
       307  17  2.664674E+06  5.245776E+05  5.064758E+05  1.727490E+05 -3.464501E-09 -7.241144E-10
       307  18  3.888375E+06  8.205481E+05  7.945359E+05  6.506338E+05 -1.055723E-09  1.333896E-09
       307  19 -3.395139E+05 -2.145709E+05 -2.131844E+05  6.415533E+05  1.941580E+04 -1.664592E+04
       307  20 -1.558332E+06 -5.225529E+05 -5.086196E+05  1.635044E+05  1.310732E+04 -6.398086E+04
       307  21 -2.778672E+06 -8.328512E+05 -8.094520E+05  6.422750E+05  6.573485E+03 -9.880689E+04
       307  22  5.506566E+05  6.947108E+03  4.113152E+03  6.464138E+05 -6.272711E+03 -1.678037E+04
       307  23  5.511332E+05  1.176639E+03 -9.096179E+02  1.681216E+05 -6.574183E+03 -6.403703E+04
       307  24  5.497737E+05 -5.741892E+03 -7.053213E+03  6.464498E+05 -7.113647E+03 -9.880812E+04
       307  25  1.441551E+06  2.284071E+05  2.213554E+05  6.512800E+05 -3.199797E+04 -1.691512E+04
       307  26  2.664676E+06  5.245822E+05  5.064848E+05  1.727504E+05 -2.632240E+04 -6.409341E+04
       307  27  3.888378E+06  8.205587E+05  7.945551E+05  6.506354E+05 -2.087405E+04 -9.880954E+04
       308   1 -4.510859E+06 -1.259064E+06 -1.229102E+06  6.391851E+05 -5.514544E+04  1.521136E+05
       308   2 -5.757059E+06 -1.571267E+06 -1.536591E+06  1.863963E+05  3.801276E+04  1.971366E+05
       308   3 -6.966901E+06 -1.927956E+06 -1.904429E+06  6.945785E+05  1.301920E+05  6.871137E+04
       308   4  5.570884E+05  1.531156E+03 -6.563914E+03  6.473276E+05  7.715955E+03  1.521002E+05
       308   5  5.308473E+05 -6.448457E+03 -2.115433E+04  1.670277E+05  1.837776E+04  1.970681E+05
       308   6  5.544293E+05 -4.400847E+04 -3.828771E+04  6.471585E+05  2.824934E+04  6.935358E+04
       308   7  5.648634E+06  1.260251E+06  1.214153E+06  6.555190E+05  7.109123E+04  1.520885E+05
       308   8  6.855126E+06  1.555482E+06  1.491461E+06  1.474858E+05 -1.457489E+03  1.970016E+05
       308   9  8.127499E+06  1.835700E+06  1.823671E+06  5.992217E+05 -7.493941E+04  7.000824E+04
       308  10 -4.510868E+06 -1.259090E+06 -1.229152E+06  6.391919E+05  1.323529E-09 -5.016892E-10
       308  11 -5.757071E+06 -1.571309E+06 -1.536666E+06  1.863902E+05 -1.584512E-09 -2.992129E-09
       308  12 -6.966921E+06 -1.927965E+06 -1.904470E+06  6.945713E+05 -2.950470E-09  5.939761E-10
       308  13  5.570821E+05  1.506293E+03 -6.607505E+03  6.473266E+05  4.398781E-10  6.057260E-10
       308  14  5.308365E+05 -6.490261E+03 -2.122796E+04  1.670247E+05  2.664392E-09 -8.256495E-09
       308  15  5.544272E+05 -4.401385E+04 -3.829824E+04  6.471569E+05 -2.029720E-10  1.807867E-12
       308  16  5.648623E+06  1.260225E+06  1.214101E+06  6.555104E+05 -9.717830E-10  9.691209E-10
       308  17  6.855116E+06  1.555440E+06  1.491388E+06  1.474860E+05  4.878598E-09 -2.888149E-09
       308  18  8.127492E+06  1.835694E+06  1.823651E+06  5.992259E+05  1.815672E-10  1.559650E-09
       308  19 -4.510859E+06 -1.259064E+06 -1.229102E+06  6.391851E+05  5.514544E+04 -1.521136E+05
       308  20 -5.757059E+06 -1.571267E+06 -1.536591E+06  1.863963E+05 -3.801276E+04 -1.971366E+05
       308  21 -6.966901E+06 -1.927956E+06 -1.904429E+06  6.945785E+05 -1.301920E+05 -6.871137E+04
       308  22  5.570884E+05  1.531156E+03 -6.563914E+03  6.473276E+05 -7.715955E+03 -1.521002E+05
       308  23  5.308473E+05 -6.448457E+03 -2.115433E+04  1.670277E+05 -1.837776E+04 -1.970681E+05
       308  24  5.544293E+05 -4.400847E+04 -3.828771E+04  6.471585E+05 -2.824934E+04 -6.935358E+04
       308  25  5.648634E+06  1.260251E+06  1.214153E+06  6.555190E+05 -7.109123E+04 -1.520885E+05
       308  26  6.855126E+06  1.555482E+06  1.491461E+06  1.474858E+05  1.457489E+03 -1.970016E+05
       308  27  8.127499E+06  1.835700E+06  1.823671E+06  5.992217E+05  7.493941E+04 -7.000824E+04
       309   1  9.248613E+06  2.017777E+06  2.053060E+06  6.567394E+05  2.280874E+05 -7.128472E+04
       309   2  7.931495E+06  1.534914E+06  1.593169E+06  1.608833E+05  1.018323E+05 -1.979765E+05
       309   3  6.741343E+06  1.253988E+06  1.276273E+06  6.364722E+05 -2.337842E+04 -1.524911E+05
       309   4  1.630306E+06  1.301853E+05  1.825432E+05  6.516692E+05  1.234924E+05 -7.064006E+04
       309   5  1.575945E+06 -3.279759E+04  7.491379E+04  1.651916E+05  8.141366E+04 -1.980442E+05
       309   6  1.633119E+06 -7.288472E+03  5.311084E+04  6.507544E+05  4.012384E+04 -1.525014E+05
       309   7 -5.935730E+06 -1.761685E+06 -1.692192E+06  6.467235E+05  2.015699E+04 -6.999041E+04
       309   8 -4.742937E+06 -1.603419E+06 -1.446182E+06  1.694810E+05  6.119776E+04 -1.981129E+05
       309   9 -3.451395E+06 -1.270446E+06 -1.171879E+06  6.649014E+05  1.031090E+05 -1.525088E+05
       309  10  9.248556E+06  2.017758E+06  2.052954E+06  6.567525E+05 -2.809943E-09 -1.451274E-09
       309  11  7.931473E+06  1.534869E+06  1.593076E+06  1.608994E+05 -2.915340E-09  1.533580E-09
       309  12  6.741336E+06  1.253962E+06  1.276229E+06  6.364693E+05  2.584897E-09 -1.869247E-09
       309  13  1.630288E+06  1.301759E+05  1.825052E+05  6.516762E+05 -4.047295E-11  1.962429E-10
       309  14  1.575928E+06 -3.284152E+04  7.482759E+04  1.652046E+05  1.402963E-09  5.253601E-09
       309  15  1.633111E+06 -7.313905E+03  5.306405E+04  6.507593E+05 -1.706782E-10 -1.427038E-09
       309  16 -5.935732E+06 -1.761690E+06 -1.692202E+06  6.467246E+05  2.423057E-09  1.727487E-09
       309  17 -4.742951E+06 -1.603462E+06 -1.446263E+06  1.694908E+05  1.273506E-09  1.642650E-09
       309  18 -3.451413E+06 -1.270474E+06 -1.171943E+06  6.649141E+05 -2.825629E-09 -1.070862E-09
       309  19  9.248613E+06  2.017777E+06  2.053060E+06  6.567394E+05 -2.280874E+05  7.128472E+04
       309  20  7.931495E+06  1.534914E+06  1.593169E+06  1.608833E+05 -1.018323E+05  1.979765E+05
       309  21  6.741343E+06  1.253988E+06  1.276273E+06  6.364722E+05  2.337842E+04  1.524911E+05
       309  22  1.630306E+06  1.301853E+05  1.825432E+05  6.516692E+05 -1.234924E+05  7.064006E+04
       309  23  1.575945E+06 -3.279759E+04  7.491379E+04  1.651916E+05 -8.141366E+04  1.980442E+05
       309  24  1.633119E+06 -7.288472E+03  5.311084E+04  6.507544E+05 -4.012384E+04  1.525014E+05
       309  25 -5.935730E+06 -1.761685E+06 -1.692192E+06  6.467235E+05 -2.015699E+04  6.999041E+04
       309  26 -4.742937E+06 -1.603419E+06 -1.446182E+06  1.694810E+05 -6.119776E+04  1.981129E+05
       309  27 -3.451395E+06 -1.270446E+06 -1.171879E+06  6.649014E+05 -1.031090E+05  1.525088E+05
       310   1  4.970592E+06  8.431162E+05  8.461977E+05  6.555905E+05  1.789957E+04 -9.906852E+04
       310   2  3.750056E+06  5.273670E+05  5.346014E+05  1.770309E+05  7.302508E+02 -6.466458E+04
       310   3  2.537363E+06  2.343749E+05  2.392593E+05  6.487832E+05 -1.664455E+04 -1.788655E+04
       310   4  1.613702E+06  1.324598E+04  4.115015E+04  6.461831E+05  3.144408E+04 -9.906733E+04
       310   5  1.611422E+06 -1.637152E+03  2.179316E+04  1.709383E+05  2.029153E+04 -6.460809E+04
       310   6  1.614606E+06  5.329671E+03  1.467209E+04  6.462047E+05  8.900097E+03 -1.775145E+04
       310   7 -1.732938E+06 -8.174395E+05 -7.646944E+05  6.368146E+05  4.491574E+04 -9.906657E+04
       310   8 -5.230463E+05 -5.309722E+05 -4.913373E+05  1.648624E+05  3.978591E+04 -6.455189E+04
       310   9  6.926240E+05 -2.237778E+05 -2.099744E+05  6.436286E+05  3.440699E+04 -1.761645E+04
       310  10  4.970589E+06  8.431055E+05  8.461786E+05  6.555919E+05  6.029790E-09 -1.048859E-09
       310  11  3.750055E+06  5.273626E+05  5.345935E+05  1.770309E+05  3.028632E-09  4.592559E-09
       310  12  2.537363E+06  2.343745E+05  2.392582E+05  6.487830E+05 -2.170460E-09 -2.844619E-09
       310  13  1.613698E+06  1.323516E+04  4.112983E+04  6.461856E+05  6.949506E-12 -1.474197E-09
       310  14  1.611420E+06 -1.641748E+03  2.178454E+04  1.709394E+05 -1.830553E-09  1.386126E-09
       310  15  1.614606E+06  5.329311E+03  1.467135E+04  6.462048E+05 -2.201787E-10 -4.140757E-09
       310  16 -1.732943E+06 -8.174506E+05 -7.647167E+05  6.368182E+05 -6.736362E-09 -1.396789E-09
       310  17 -5.230491E+05 -5.309771E+05 -4.913481E+05  1.648645E+05 -3.902955E-09 -2.869498E-09
       310  18  6.926226E+05 -2.237784E+05 -2.099772E+05  6.436291E+05  3.652222E-09  6.069077E-10
       310  19  4.970592E+06  8.431162E+05  8.461977E+05  6.555905E+05 -1.789957E+04  9.906852E+04
       310  20  3.750056E+06  5.273670E+05  5.346014E+05  1.770309E+05 -7.302508E+02  6.466458E+04
       310  21  2.537363E+06  2.343749E+05  2.392593E+05  6.487832E+05  1.664455E+04  1.788655E+04
       310  22  1.613702E+06  1.324598E+04  4.115015E+04  6.461831E+05 -3.144408E+04  9.906733E+04
       310  23  1.611422E+06 -1.637152E+03  2.179316E+04  1.709383E+05 -2.029153E+04  6.460809E+04
       310  24  1.614606E+06  5.329671E+03  1.467209E+04  6.462047E+05 -8.900097E+03  1.775145E+04
       310  25 -1.732938E+06 -8.174395E+05 -7.646944E+05  6.368146E+05 -4.491574E+04  9.906657E+04
       310  26 -5.230463E+05 -5.309722E+05 -4.913373E+05  1.648624E+05 -3.978591E+04  6.455189E+04
       310  27  6.926240E+05 -2.237778E+05 -2.099744E+05  6.436286E+05 -3.440699E+04  1.761645E+04
       311   1  8.145495E+05 -1.912157E+05 -1.827508E+05  6.424528E+05 -1.931454E+04  1.399968E+04
       311   2 -3.980114E+05 -4.983150E+05 -4.749855E+05  1.660576E+05 -1.790442E+04  6.090935E+04
       311   3 -1.610345E+06 -7.997810E+05 -7.676075E+05  6.400225E+05 -1.626919E+04  9.561533E+04
       311   4  1.613434E+06  7.388898E+03  1.230474E+04  6.461114E+05  6.142096E+03  1.413544E+04
       311   5  1.613053E+06  3.699242E+02  8.436789E+03  1.710387E+05  1.671546E+03  6.096948E+04
       311   6  1.612601E+06  1.195892E+02  8.358727E+03  6.461349E+05 -2.570984E+03  9.562182E+04
       311   7  2.412900E+06  2.059469E+05  2.073162E+05  6.497737E+05  3.163137E+04  1.427140E+04
       311   8  3.627816E+06  4.987612E+05  4.915732E+05  1.760322E+05  2.131068E+04  6.102983E+04
       311   9  4.845053E+06  7.992641E+05  7.835860E+05  6.522678E+05  1.119822E+04  9.562857E+04
       311  10  8.145490E+05 -1.912161E+05 -1.827518E+05  6.424530E+05  2.932894E-09  1.574915E-09
       311  11 -3.980128E+05 -4.983191E+05 -4.749931E+05  1.660585E+05 -1.385362E-09  1.013595E-09
       311  12 -1.610348E+06 -7.997909E+05 -7.676252E+05  6.400238E+05 -5.113543E-09 -7.708862E-10
       311  13  1.613434E+06  7.388673E+03  1.230429E+04  6.461114E+05 -2.264485E-11 -2.269568E-09
       311  14  1.613052E+06  3.659288E+02  8.429793E+03  1.710386E+05 -1.364024E-09  3.128563E-11
       311  15  1.612598E+06  1.097611E+02  8.341518E+03  6.461351E+05  3.401981E-10  6.161314E-10
       311  16  2.412899E+06  2.059464E+05  2.073140E+05  6.497733E+05 -2.412419E-09 -3.132695E-09
       311  17  3.627815E+06  4.987571E+05  4.915654E+05  1.760311E+05 -3.438037E-10 -4.520809E-09
       311  18  4.845050E+06  7.992542E+05  7.835685E+05  6.522670E+05  5.573113E-09 -1.309268E-09
       311  19  8.145495E+05 -1.912157E+05 -1.827508E+05  6.424528E+05  1.931454E+04 -1.399968E+04
       311  20 -3.980114E+05 -4.983150E+05 -4.749855E+05  1.660576E+05  1.790442E+04 -6.090935E+04
       311  21 -1.610345E+06 -7.997810E+05 -7.676075E+05  6.400225E+05  1.626919E+04 -9.561533E+04
       311  22  1.613434E+06  7.388898E+03  1.230474E+04  6.461114E+05 -6.142096E+03 -1.413544E+04
       311  23  1.613053E+06  3.699242E+02  8.436789E+03  1.710387E+05 -1.671546E+03 -6.096948E+04
       311  24  1.612601E+06  1.195892E+02  8.358727E+03  6.461349E+05  2.570984E+03 -9.562182E+04
       311  25  2.412900E+06  2.059469E+05  2.073162E+05  6.497737E+05 -3.163137E+04 -1.427140E+04
       311  26  3.627816E+06  4.987612E+05  4.915732E+05  1.760322E+05 -2.131068E+04 -6.102983E+04
       311  27  4.845053E+06  7.992641E+05  7.835860E+05  6.522678E+05 -1.119822E+04 -9.562857E+04
       312   1 -3.336998E+06 -1.232678E+06 -1.183350E+06  6.478984E+05 -6.740381E+04  1.486335E+05
       312   2 -4.603722E+06 -1.552772E+06 -1.483554E+06  1.788326E+05  9.768935E+03  1.940080E+05
       312   3 -5.818280E+06 -1.854203E+06 -1.818223E+06  6.803761E+05  8.606992E+04  6.803422E+04
       312   4  1.623057E+06 -4.748353E+02  1.165761E+04  6.505149E+05 -4.873530E+03  1.486407E+05
       312   5  1.589123E+06 -1.356033E+04  7.097327E+03  1.655572E+05 -9.450117E+03  1.939366E+05
       312   6  1.620399E+06  6.415062E+03  2.507835E+04  6.506502E+05 -1.474134E+04  6.863207E+04
       312   7  6.605673E+06  1.229937E+06  1.204926E+06  6.531336E+05  5.815653E+04  1.486484E+05
       312   8  7.817181E+06  1.522857E+06  1.495020E+06  1.521695E+05 -2.886078E+04  1.938667E+05
       312   9  9.109589E+06  1.862896E+06  1.864301E+06  6.206219E+05 -1.167668E+05  6.923666E+04
       312  10 -3.337009E+06 -1.232703E+06 -1.183400E+06  6.479065E+05  4.917067E-09 -2.467173E-11
       312  11 -4.603732E+06 -1.552812E+06 -1.483625E+06  1.788311E+05  2.052066E-09  1.619253E-09
       312  12 -5.818289E+06 -1.854210E+06 -1.818246E+06  6.803714E+05 -2.872358E-09  3.538638E-09
       312  13  1.623051E+06 -4.985858E+02  1.161601E+04  6.505154E+05 -8.408488E-10 -1.383966E-09
       312  14  1.589113E+06 -1.360077E+04  7.026424E+03  1.655587E+05  2.622495E-09 -4.856409E-09
       312  15  1.620397E+06  6.409940E+03  2.506908E+04  6.506510E+05 -1.709782E-10 -4.879160E-09
       312  16  6.605664E+06  1.229912E+06  1.204878E+06  6.531267E+05 -2.717194E-09 -1.980900E-10
       312  17  7.817170E+06  1.522816E+06  1.494948E+06  1.521740E+05 -9.804704E-10 -4.198655E-09
       312  18  9.109574E+06  1.862887E+06  1.864266E+06  6.206283E+05  3.110207E-09 -7.898608E-09
       312  19 -3.336998E+06 -1.232678E+06 -1.183350E+06  6.478984E+05  6.740381E+04 -1.486335E+05
       312  20 -4.603722E+06 -1.552772E+06 -1.483554E+06  1.788326E+05 -9.768935E+03 -1.940080E+05
       312  21 -5.818280E+06 -1.854203E+06 -1.818223E+06  6.803761E+05 -8.606992E+04 -6.803422E+04
       312  22  1.623057E+06 -4.748353E+02  1.165761E+04  6.505149E+05  4.873530E+03 -1.486407E+05
       312  23  1.589123E+06 -1.356033E+04  7.097327E+03  1.655572E+05  9.450117E+03 -1.939366E+05
       312  24  1.620399E+06  6.415062E+03  2.507835E+04  6.506502E+05  1.474134E+04 -6.863207E+04
       312  25  6.605673E+06  1.229937E+06  1.204926E+06  6.531336E+05 -5.815653E+04 -1.486484E+05
       312  26  7.817181E+06  1.522857E+06  1.495020E+06  1.521695E+05  2.886078E+04 -1.938667E+05
       312  27  9.109589E+06  1.862896E+06  1.864301E+06  6.206219E+05  1.167668E+05 -6.923666E+04
       313   1  1.151132E+07  2.349669E+06  2.402447E+06  8.048493E+05  2.941750E+05 -8.116912E+04
       313   2  9.926383E+06  1.732421E+06  1.832965E+06  2.039786E+05  1.351106E+05 -2.243973E+05
       313   3  8.507459E+06  1.403727E+06  1.451422E+06  7.656577E+05 -2.289855E+04 -1.702903E+05
       313   4  2.780359E+06  1.907700E+05  2.628496E+05  7.806107E+05  1.745197E+05 -8.055030E+04
       313   5  2.708276E+06 -4.490562E+04  1.117414E+05  1.983707E+05  1.124623E+05 -2.245257E+05
       313   6  2.784298E+06 -6.996303E+03  8.319224E+04  7.794702E+05  5.107199E+04 -1.701701E+05
       313   7 -5.882148E+06 -1.973723E+06 -1.882266E+06  7.567700E+05  5.650684E+04 -7.991897E+04
       313   8 -4.462664E+06 -1.825971E+06 -1.613132E+06  1.928433E+05  9.006704E+04 -2.246550E+05
       313   9 -2.909175E+06 -1.420073E+06 -1.287322E+06  7.931168E+05  1.243690E+05 -1.700459E+05
       313  10  1.151123E+07  2.349639E+06  2.402275E+06  8.048684E+05 -4.349528E-09  7.614646E-10
       313  11  9.926350E+06  1.732362E+06  1.832836E+06  2.040029E+05 -4.154776E-09 -1.900491E-09
       313  12  8.507450E+06  1.403696E+06  1.451367E+06  7.656546E+05  1.263705E-09 -2.545065E-10
       313  13  2.780325E+06  1.907548E+05  2.627803E+05  7.806220E+05 -8.318647E-10  7.299475E-09
       313  14  2.708249E+06 -4.496321E+04  1.116229E+05  1.983910E+05  5.868758E-12  1.642772E-09
       313  15  2.784287E+06 -7.028151E+03  8.313282E+04  7.794773E+05  1.170515E-09  2.200203E-09
       313  16 -5.882154E+06 -1.973730E+06 -1.882285E+06  7.567737E+05  2.744728E-09 -5.851380E-10
       313  17 -4.462687E+06 -1.826028E+06 -1.613243E+06  1.928596E+05  4.379859E-09  2.323342E-09
       313  18 -2.909200E+06 -1.420108E+06 -1.287406E+06  7.931339E+05 -1.160536E-09 -5.896697E-10
       313  19  1.151132E+07  2.349669E+06  2.402447E+06  8.048493E+05 -2.941750E+05  8.116912E+04
       313  20  9.926383E+06  1.732421E+06  1.832965E+06  2.039786E+05 -1.351106E+05  2.243973E+05
       313  21  8.507459E+06  1.403727E+06  1.451422E+06  7.656577E+05  2.289855E+04  1.702903E+05
       313  22  2.780359E+06  1.907700E+05  2.628496E+05  7.806107E+05 -1.745197E+05  8.055030E+04
       313  23  2.708276E+06 -4.490562E+04  1.117414E+05  1.983707E+05 -1.124623E+05  2.245257E+05
       313  24  2.784298E+06 -6.996303E+03  8.319224E+04  7.794702E+05 -5.107199E+04  1.701701E+05
       313  25 -5.882148E+06 -1.973723E+06 -1.882266E+06  7.567700E+05 -5.650684E+04  7.991897E+04
       313  26 -4.462664E+06 -1.825971E+06 -1.613132E+06  1.928433E+05 -9.006704E+04  2.246550E+05
       313  27 -2.909175E+06 -1.420073E+06 -1.287322E+06  7.931168E+05 -1.243690E+05  1.700459E+05
       314   1  6.406843E+06  9.226815E+05  9.425092E+05  7.878773E+05  2.069904E+04 -1.078163E+05
       314   2  4.967500E+06  5.440491E+05  5.781157E+05  2.198293E+05 -1.084998E+04 -6.689951E+04
       314   3  3.536972E+06  2.074084E+05  2.426694E+05  7.717047E+05 -4.264190E+04 -1.203966E+04
       314   4  2.758096E+06  2.189468E+04  6.882829E+04  7.700993E+05  3.705453E+04 -1.077807E+05
       314   5  2.755732E+06 -2.368873E+03  4.847718E+04  2.100340E+05  1.234172E+04 -6.678427E+04
       314   6  2.759196E+06  1.439257E+04  5.257585E+04  7.701255E+05 -1.268557E+04 -1.181698E+04
       314   7 -8.785670E+05 -8.798517E+05 -8.057909E+05  7.524042E+05  5.331456E+04 -1.077460E+05
       314   8  5.484119E+05 -5.491395E+05 -4.815045E+05  2.002665E+05  3.545159E+04 -6.666955E+04
       314   9  1.981970E+06 -1.786673E+05 -1.375584E+05  7.685470E+05  1.723349E+04 -1.159429E+04
       314  10  6.406840E+06  9.226688E+05  9.424865E+05  7.878791E+05 -2.006599E-10 -2.628314E-09
       314  11  4.967499E+06  5.440442E+05  5.781070E+05  2.198288E+05  4.636337E-09  4.571591E-09
       314  12  3.536970E+06  2.074078E+05  2.426658E+05  7.717043E+05  8.627119E-09 -2.421436E-09
       314  13  2.758091E+06  2.188182E+04  6.880384E+04  7.701025E+05  6.426463E-10  4.467251E-09
       314  14  2.755731E+06 -2.373710E+03  4.846850E+04  2.100347E+05 -1.748037E-09  1.089336E-08
       314  15  2.759196E+06  1.439237E+04  5.257528E+04  7.701254E+05  7.925108E-11 -4.994275E-09
       314  16 -8.785732E+05 -8.798650E+05 -8.058181E+05  7.524088E+05 -1.391515E-09 -3.250814E-09
       314  17  5.484093E+05 -5.491446E+05 -4.815152E+05  2.002684E+05 -6.138906E-09  1.036117E-08
       314  18  1.981969E+06 -1.786675E+05 -1.375592E+05  7.685472E+05 -5.597937E-09  7.862286E-10
       314  19  6.406843E+06  9.226815E+05  9.425092E+05  7.878773E+05 -2.069904E+04  1.078163E+05
       314  20  4.967500E+06  5.440491E+05  5.781157E+05  2.198293E+05  1.084998E+04  6.689951E+04
       314  21  3.536972E+06  2.074084E+05  2.426694E+05  7.717047E+05  4.264190E+04  1.203966E+04
       314  22  2.758096E+06  2.189468E+04  6.882829E+04  7.700993E+05 -3.705453E+04  1.077807E+05
       314  23  2.755732E+06 -2.368873E+03  4.847718E+04  2.100340E+05 -1.234172E+04  6.678427E+04
       314  24  2.759196E+06  1.439257E+04  5.257585E+04  7.701255E+05  1.268557E+04  1.181698E+04
       314  25 -8.785670E+05 -8.798517E+05 -8.057909E+05  7.524042E+05 -5.331456E+04  1.077460E+05
       314  26  5.484119E+05 -5.491395E+05 -4.815045E+05  2.002665E+05 -3.545159E+04  6.666955E+04
       314  27  1.981970E+06 -1.786673E+05 -1.375584E+05  7.685470E+05 -1.723349E+04  1.159429E+04
       315   1  1.515205E+06 -2.996926E+05 -2.446702E+05  7.702601E+05 -5.320023E+04  2.543200E+04
       315   2  7.173946E+04 -6.713598E+05 -5.636142E+05  1.963549E+05 -8.726793E+04  8.063181E+04
       315   3 -1.350280E+06 -9.678653E+05 -8.428720E+05  7.452057E+05 -1.208945E+05  1.210389E+05
       315   4  2.762235E+06  9.676184E+03  5.827623E+04  7.706869E+05 -2.307278E+04  2.565178E+04
       315   5  2.751189E+06 -7.424377E+03  7.993603E+04  2.093863E+05 -6.442447E+04  8.072865E+04
       315   6  2.760825E+06  5.187689E+04  1.462869E+05  7.705168E+05 -1.054121E+05  1.210462E+05
       315   7  4.010681E+06  3.189316E+05  3.611139E+05  7.711110E+05  7.114928E+03  2.587136E+04
       315   8  5.437195E+06  6.559911E+05  7.229794E+05  2.224643E+05 -4.148238E+04  8.082624E+04
       315   9  6.887381E+06  1.070393E+06  1.134246E+06  7.959718E+05 -8.982564E+04  1.210548E+05
       315  10  1.515201E+06 -2.996941E+05 -2.446767E+05  7.702612E+05  7.255954E-09  4.621298E-09
       315  11  7.172952E+04 -6.713688E+05 -5.636408E+05  1.963606E+05  1.531868E-09 -3.508441E-10
       315  12 -1.350299E+06 -9.678851E+05 -8.429271E+05  7.452175E+05 -5.325390E-09  7.114205E-10
       315  13  2.762234E+06  9.675333E+03  5.827399E+04  7.706873E+05  9.166749E-11 -4.568442E-09
       315  14  2.751183E+06 -7.432495E+03  7.991599E+04  2.093904E+05 -2.125516E-09 -4.727260E-10
       315  15  2.760810E+06  5.185815E+04  1.462385E+05  7.705271E+05 -1.420702E-10  1.600926E-10
       315  16  4.010680E+06  3.189309E+05  3.611125E+05  7.711109E+05 -6.101909E-09 -6.282250E-09
       315  17  5.437192E+06  6.559836E+05  7.229639E+05  2.224670E+05 -3.092749E-09 -6.310634E-09
       315  18  6.887369E+06  1.070375E+06  1.134203E+06  7.959806E+05  8.132256E-09  2.503038E-09
       315  19  1.515205E+06 -2.996926E+05 -2.446702E+05  7.702601E+05  5.320023E+04 -2.543200E+04
       315  20  7.173946E+04 -6.713598E+05 -5.636142E+05  1.963549E+05  8.726793E+04 -8.063181E+04
       315  21 -1.350280E+06 -9.678653E+05 -8.428720E+05  7.452057E+05  1.208945E+05 -1.210389E+05
       315  22  2.762235E+06  9.676184E+03  5.827623E+04  7.706869E+05  2.307278E+04 -2.565178E+04
       315  23  2.751189E+06 -7.424377E+03  7.993603E+04  2.093863E+05  6.442447E+04 -8.072865E+04
       315  24  2.760825E+06  5.187689E+04  1.462869E+05  7.705168E+05  1.054121E+05 -1.210462E+05
       315  25  4.010681E+06  3.189316E+05  3.611139E+05  7.711110E+05 -7.114928E+03 -2.587136E+04
       315  26  5.437195E+06  6.559911E+05  7.229794E+05  2.224643E+05  4.148238E+04 -8.082624E+04
       315  27  6.887381E+06  1.070393E+06  1.134246E+06  7.959718E+05  8.982564E+04 -1.210548E+05
       316   1 -3.365678E+06 -1.556626E+06 -1.305078E+06  8.354732E+05 -2.098440E+05  1.850490E+05
       316   2 -4.986401E+06 -1.994756E+06 -1.571731E+06  1.728591E+05 -2.565802E+05  2.404268E+05
       316   3 -6.357074E+06 -1.806067E+06 -1.633506E+06  6.844838E+05 -3.041725E+05  8.685319E+04
       316   4  2.808891E+06 -2.390994E+04  1.813405E+05  7.810794E+05 -1.345477E+05  1.851134E+05
       316   5  2.674818E+06 -9.142855E+04  2.716166E+05  1.961847E+05 -2.824909E+05  2.402957E+05
       316   6  2.804311E+06  4.816859E+05  6.350505E+05  7.844751E+05 -4.314218E+05  8.764977E+04
       316   7  9.018400E+06  1.506049E+06  1.665072E+06  7.261009E+05 -5.849720E+04  1.851640E+05
       316   8  1.038991E+07  1.807632E+06  2.110797E+06  2.198353E+05 -3.087046E+05  2.401641E+05
       316   9  1.204236E+07  2.763233E+06  2.897448E+06  8.860533E+05 -5.605229E+05  8.840064E+04
       316  10 -3.365735E+06 -1.556675E+06 -1.305226E+06  8.355046E+05 -4.555742E-10 -9.722789E-10
       316  11 -4.986488E+06 -1.994836E+06 -1.571964E+06  1.729090E+05 -2.839499E-09 -4.163682E-09
       316  12 -6.357176E+06 -1.806101E+06 -1.633696E+06  6.845052E+05 -6.668545E-09 -5.868890E-09
       316  13  2.808862E+06 -2.395166E+04  1.812420E+05  7.810995E+05 -1.895965E-09 -3.112132E-09
       316  14  2.674717E+06 -9.151196E+04  2.713586E+05  1.962394E+05  1.826422E-09 -5.047078E-09
       316  15  2.804109E+06  4.816279E+05  6.346877E+05  7.845056E+05 -9.981508E-10  1.051554E-09
       316  16  9.018387E+06  1.506011E+06  1.665001E+06  7.261096E+05  8.751177E-10  5.781591E-10
       316  17  1.038979E+07  1.807545E+06  2.110512E+06  2.198947E+05  3.426951E-09 -3.211076E-09
       316  18  1.204202E+07  2.763142E+06  2.896854E+06  8.860930E+05  5.391999E-09 -8.539720E-09
       316  19 -3.365678E+06 -1.556626E+06 -1.305078E+06  8.354732E+05  2.098440E+05 -1.850490E+05
       316  20 -4.986401E+06 -1.994756E+06 -1.571731E+06  1.728591E+05  2.565802E+05 -2.404268E+05
       316  21 -6.357074E+06 -1.806067E+06 -1.633506E+06  6.844838E+05  3.041725E+05 -8.685319E+04
       316  22  2.808891E+06 -2.390994E+04  1.813405E+05  7.810794E+05  1.345477E+05 -1.851134E+05
       316  23  2.674818E+06 -9.142855E+04  2.716166E+05  1.961847E+05  2.824909E+05 -2.402957E+05
       316  24  2.804311E+06  4.816859E+05  6.350505E+05  7.844751E+05  4.314218E+05 -8.764977E+04
       316  25  9.018400E+06  1.506049E+06  1.665072E+06  7.261009E+05  5.849720E+04 -1.851640E+05
       316  26  1.038991E+07  1.807632E+06  2.110797E+06  2.198353E+05  3.087046E+05 -2.401641E+05
       316  27  1.204236E+07  2.763233E+06  2.897448E+06  8.860533E+05  5.605229E+05 -8.840064E+04
       317   1  1.921865E+06  9.802286E+05  7.559157E+05  3.133133E+05 -6.061710E+05 -6.200260E+04
       317   2  9.172572E+05  1.627533E+06  1.010310E+06  8.440718E+04 -4.391961E+05 -1.892519E+05
       317   3 -2.980813E+05  1.279852E+06  9.193463E+05  7.134559E+05 -2.715693E+05 -1.493706E+05
       317   4 -5.291467E+06 -8.279615E+05 -1.030921E+06  6.038040E+05 -7.014948E+05 -6.151073E+04
       317   5 -5.174757E+06  1.124084E+05 -4.565539E+05  1.775045E+05 -4.566623E+05 -1.893459E+05
       317   6 -5.286985E+06  3.854845E+04 -2.848962E+05  6.099849E+05 -2.108422E+05 -1.494313E+05
       317   7 -1.245726E+07 -2.639788E+06 -2.821585E+06  8.909942E+05 -7.956758E+05 -6.110719E+04
       317   8 -1.123267E+07 -1.405410E+06 -1.926073E+06  2.697198E+05 -4.739403E+05 -1.894463E+05
       317   9 -1.025298E+07 -1.204543E+06 -1.490909E+06  5.073413E+05 -1.505963E+05 -1.495124E+05
       317  10  1.921471E+06  9.801262E+05  7.552201E+05  3.132831E+05 -8.105812E-09  8.896146E-09
       317  11  9.170408E+05  1.627443E+06  1.009881E+06  8.434039E+04  5.958332E-10  1.300363E-09
       317  12 -2.981664E+05  1.279809E+06  9.191660E+05  7.134233E+05  9.393447E-09  1.356780E-09
       317  13 -5.292000E+06 -8.280990E+05 -1.031860E+06  6.037692E+05 -1.832438E-09 -5.921845E-09
       317  14 -5.174991E+06  1.123134E+05 -4.570162E+05  1.774347E+05  8.559247E-10  3.111272E-09
       317  15 -5.287039E+06  3.851251E+04 -2.850222E+05  6.099595E+05  1.904339E-09  1.854974E-09
       317  16 -1.245795E+07 -2.639966E+06 -2.822805E+06  8.909550E+05  3.781631E-09 -6.126994E-09
       317  17 -1.123292E+07 -1.405510E+06 -1.926570E+06  2.696471E+05 -1.639136E-09  1.854665E-09
       317  18 -1.025301E+07 -1.204573E+06 -1.490994E+06  5.073230E+05 -1.413786E-08 -9.033567E-10
       317  19  1.921865E+06  9.802286E+05  7.559157E+05  3.133133E+05  6.061710E+05  6.200260E+04
       317  20  9.172572E+05  1.627533E+06  1.010310E+06  8.440718E+04  4.391961E+05  1.892519E+05
       317  21 -2.980813E+05  1.279852E+06  9.193463E+05  7.134559E+05  2.715693E+05  1.493706E+05
       317  22 -5.291467E+06 -8.279615E+05 -1.030921E+06  6.038040E+05  7.014948E+05  6.151073E+04
       317  23 -5.174757E+06  1.124084E+05 -4.565539E+05  1.775045E+05  4.566623E+05  1.893459E+05
       317  24 -5.286985E+06  3.854845E+04 -2.848962E+05  6.099849E+05  2.108422E+05  1.494313E+05
       317  25 -1.245726E+07 -2.639788E+06 -2.821585E+06  8.909942E+05  7.956758E+05  6.110719E+04
       317  26 -1.123267E+07 -1.405410E+06 -1.926073E+06  2.697198E+05  4.739403E+05  1.894463E+05
       317  27 -1.025298E+07 -1.204543E+06 -1.490909E+06  5.073413E+05  1.505963E+05  1.495124E+05
       318   1 -1.938837E+06  7.299577E+05  5.603920E+05  6.046985E+05 -1.805009E+05 -9.858085E+04
       318   2 -3.130093E+06  5.360823E+05  3.771812E+05  1.505743E+05 -1.205708E+05 -6.405317E+04
       318   3 -4.354796E+06  2.256668E+05  1.260347E+05  6.446934E+05 -6.097107E+04 -1.669611E+04
       318   4 -5.240716E+06 -9.251271E+04 -2.375990E+05  6.283198E+05 -1.665519E+05 -9.860769E+04
       318   5 -5.222074E+06  1.471540E+04 -1.282963E+05  1.540227E+05 -1.008201E+05 -6.402757E+04
       318   6 -5.239511E+06  4.204036E+03 -9.120908E+04  6.282108E+05 -3.530350E+04 -1.659848E+04
       318   7 -8.532558E+06 -9.157836E+05 -1.036375E+06  6.518069E+05 -1.526752E+05 -9.863357E+04
       318   8 -7.310020E+06 -5.069736E+05 -6.340875E+05  1.574567E+05 -8.113552E+04 -6.400172E+04
       318   9 -6.123506E+06 -2.173161E+05 -3.085080E+05  6.117509E+05 -9.672631E+03 -1.650214E+04
       318  10 -1.938874E+06  7.299385E+05  5.603125E+05  6.046842E+05  3.997343E-09 -3.143542E-09
       318  11 -3.130109E+06  5.360740E+05  3.771461E+05  1.505681E+05  1.341381E-09  2.710459E-09
       318  12 -4.354800E+06  2.256655E+05  1.260271E+05  6.446926E+05  3.046583E-10  3.052042E-09
       318  13 -5.240749E+06 -9.253063E+04 -2.376697E+05  6.283065E+05 -1.816410E-09 -1.721043E-09
       318  14 -5.222086E+06  1.470825E+04 -1.283232E+05  1.540175E+05 -4.033409E-09  4.288376E-09
       318  15 -5.239513E+06  4.203404E+03 -9.121196E+04  6.282103E+05  2.069134E-09 -7.907621E-10
       318  16 -8.532586E+06 -9.158004E+05 -1.036437E+06  6.517947E+05 -3.559048E-09 -1.852416E-09
       318  17 -7.310028E+06 -5.069798E+05 -6.341077E+05  1.574525E+05 -4.626880E-09  2.320799E-09
       318  18 -6.123506E+06 -2.173164E+05 -3.085087E+05  6.117508E+05  1.415616E-09  1.697637E-09
       318  19 -1.938837E+06  7.299577E+05  5.603920E+05  6.046985E+05  1.805009E+05  9.858085E+04
       318  20 -3.130093E+06  5.360823E+05  3.771812E+05  1.505743E+05  1.205708E+05  6.405317E+04
       318  21 -4.354796E+06  2.256668E+05  1.260347E+05  6.446934E+05  6.097107E+04  1.669611E+04
       318  22 -5.240716E+06 -9.251271E+04 -2.375990E+05  6.283198E+05  1.665519E+05  9.860769E+04
       318  23 -5.222074E+06  1.471540E+04 -1.282963E+05  1.540227E+05  1.008201E+05  6.402757E+04
       318  24 -5.239511E+06  4.204036E+03 -9.120908E+04  6.282108E+05  3.530350E+04  1.659848E+04
       318  25 -8.532558E+06 -9.157836E+05 -1.036375E+06  6.518069E+05  1.526752E+05  9.863357E+04
       318  26 -7.310020E+06 -5.069736E+05 -6.340875E+05  1.574567E+05  8.113552E+04  6.400172E+04
       318  27 -6.123506E+06 -2.173161E+05 -3.085080E+05  6.117509E+05  9.672631E+03  1.650214E+04
       319   1 -6.100520E+06 -2.205102E+05 -2.952024E+05  6.176994E+05 -4.590507E+04  1.570798E+04
       319   2 -7.295962E+06 -5.092833E+05 -5.792765E+05  1.537807E+05 -2.927704E+02  6.324814E+04
       319   3 -8.509664E+06 -8.597999E+05 -9.086969E+05  6.387403E+05  4.544640E+04  9.793277E+04
       319   4 -5.235614E+06 -3.811330E+03 -8.254099E+04  6.282933E+05 -2.031327E+04  1.580354E+04
       319   5 -5.226864E+06  7.713239E+03 -7.806584E+04  1.539556E+05  1.925466E+04  6.327517E+04
       319   6 -5.236578E+06 -4.121806E+04 -1.145277E+05  6.283206E+05  5.903787E+04  9.791302E+04
       319   7 -4.370017E+06  2.128322E+05  1.300676E+05  6.389012E+05  5.314431E+03  1.589990E+04
       319   8 -3.153804E+06  5.243934E+05  4.228368E+05  1.541286E+05  3.886757E+04  6.330217E+04
       319   9 -1.953569E+06  7.765706E+05  6.788657E+05  6.178375E+05  7.270091E+04  9.789287E+04
       319  10 -6.100522E+06 -2.205111E+05 -2.952068E+05  6.177000E+05  2.096871E-09 -3.571231E-10
       319  11 -7.295963E+06 -5.092876E+05 -5.792840E+05  1.537807E+05  6.069234E-09 -2.495632E-09
       319  12 -8.509669E+06 -8.598108E+05 -9.087188E+05  6.387367E+05  2.515520E-09 -1.517078E-09
       319  13 -5.235614E+06 -3.811710E+03 -8.254224E+04  6.282936E+05  2.014892E-09 -9.895900E-10
       319  14 -5.226866E+06  7.708850E+03 -7.807404E+04  1.539547E+05 -1.587629E-09  1.026644E-09
       319  15 -5.236584E+06 -4.122927E+04 -1.145523E+05  6.283160E+05  3.498669E-09 -1.832820E-09
       319  16 -4.370017E+06  2.128319E+05  1.300670E+05  6.389011E+05  2.142958E-10 -2.911875E-10
       319  17 -3.153807E+06  5.243887E+05  4.228264E+05  1.541266E+05 -8.256413E-10 -1.811812E-09
       319  18 -1.953577E+06  7.765589E+05  6.788378E+05  6.178317E+05 -2.908850E-09  1.414328E-10
       319  19 -6.100520E+06 -2.205102E+05 -2.952024E+05  6.176994E+05  4.590507E+04 -1.570798E+04
       319  20 -7.295962E+06 -5.092833E+05 -5.792765E+05  1.537807E+05  2.927704E+02 -6.324814E+04
       319  21 -8.509664E+06 -8.597999E+05 -9.086969E+05  6.387403E+05 -4.544640E+04 -9.793277E+04
       319  22 -5.235614E+06 -3.811330E+03 -8.254099E+04  6.282933E+05  2.031327E+04 -1.580354E+04
       319  23 -5.226864E+06  7.713239E+03 -7.806584E+04  1.539556E+05 -1.925466E+04 -6.327517E+04
       319  24 -5.236578E+06 -4.121806E+04 -1.145277E+05  6.283206E+05 -5.903787E+04 -9.791302E+04
       319  25 -4.370017E+06  2.128322E+05  1.300676E+05  6.389012E+05 -5.314431E+03 -1.589990E+04
       319  26 -3.153804E+06  5.243934E+05  4.228368E+05  1.541286E+05 -3.886757E+04 -6.330217E+04
       319  27 -1.953569E+06  7.765706E+05  6.788657E+05  6.178375E+05 -7.270091E+04 -9.789287E+04
       320   1 -1.019691E+07 -1.223829E+06 -1.330857E+06  5.671856E+05  2.003360E+04  1.489057E+05
       320   2 -1.126089E+07 -1.471505E+06 -1.666740E+06  2.289211E+05  2.059077E+05  1.899460E+05
       320   3 -1.240367E+07 -2.164326E+06 -2.225076E+06  7.544071E+05  3.904462E+05  6.400241E+04
       320   4 -5.250510E+06  1.442393E+04 -1.297052E+05  6.100434E+05  7.960704E+04  1.488036E+05
       320   5 -5.219883E+06  4.172393E+04 -2.014613E+05  1.770363E+05  1.874173E+05  1.898960E+05
       320   6 -5.253788E+06 -3.598182E+05 -4.394111E+05  6.074404E+05  2.942434E+05  6.466946E+04
       320   7 -2.813984E+05  1.250870E+06  1.069686E+06  6.532405E+05  1.396579E+05  1.487103E+05
       320   8  8.550289E+05  1.552255E+06  1.261175E+06  1.246713E+05  1.687378E+05  1.898498E+05
       320   9  1.943328E+06  1.440861E+06  1.342422E+06  4.588245E+05  1.968992E+05  6.537983E+04
       320  10 -1.019692E+07 -1.223853E+06 -1.330899E+06  5.671832E+05 -2.842262E-09 -4.820695E-10
       320  11 -1.126094E+07 -1.471555E+06 -1.666888E+06  2.288894E+05 -1.035619E-10  7.029181E-09
       320  12 -1.240384E+07 -2.164372E+06 -2.225376E+06  7.543869E+05  3.786340E-09  9.921254E-09
       320  13 -5.250522E+06  1.439851E+04 -1.297586E+05  6.100339E+05 -6.471631E-11  1.558040E-09
       320  14 -5.219931E+06  4.167578E+04 -2.015955E+05  1.770076E+05  3.499820E-09  8.218755E-09
       320  15 -5.253883E+06 -3.598462E+05 -4.395830E+05  6.074251E+05 -2.467641E-09 -8.160735E-09
       320  16 -2.814252E+05  1.250841E+06  1.069608E+06  6.532238E+05  2.648931E-09  2.537998E-09
       320  17  8.549887E+05  1.552208E+06  1.261054E+06  1.246455E+05  5.735007E-09  8.752210E-09
       320  18  1.943286E+06  1.440846E+06  1.342342E+06  4.588141E+05 -2.960716E-09 -2.422730E-09
       320  19 -1.019691E+07 -1.223829E+06 -1.330857E+06  5.671856E+05 -2.003360E+04 -1.489057E+05
       320  20 -1.126089E+07 -1.471505E+06 -1.666740E+06  2.289211E+05 -2.059077E+05 -1.899460E+05
       320  21 -1.240367E+07 -2.164326E+06 -2.225076E+06  7.544071E+05 -3.904462E+05 -6.400241E+04
       320  22 -5.250510E+06  1.442393E+04 -1.297052E+05  6.100434E+05 -7.960704E+04 -1.488036E+05
       320  23 -5.219883E+06  4.172393E+04 -2.014613E+05  1.770363E+05 -1.874173E+05 -1.898960E+05
       320  24 -5.253788E+06 -3.598182E+05 -4.394111E+05  6.074404E+05 -2.942434E+05 -6.466946E+04
       320  25 -2.813984E+05  1.250870E+06  1.069686E+06  6.532405E+05 -1.396579E+05 -1.487103E+05
       320  26  8.550289E+05  1.552255E+06  1.261175E+06  1.246713E+05 -1.687378E+05 -1.898498E+05
       320  27  1.943328E+06  1.440861E+06  1.342422E+06  4.588245E+05 -1.968992E+05 -6.537983E+04
       321   1  3.110092E+06  1.640695E+06  1.587232E+06  4.548588E+05 -5.218861E+04 -6.825133E+04
       321   2  2.084017E+06  1.581451E+06  1.410654E+06  1.208790E+05 -7.667988E+04 -1.969732E+05
       321   3  1.071505E+06  1.321698E+06  1.211391E+06  5.771694E+05 -1.001192E+05 -1.594439E+05
       321   4 -4.224055E+06 -1.907620E+05 -2.258017E+05  5.535955E+05 -1.531301E+05 -6.747933E+04
       321   5 -4.221686E+06  1.565651E+04 -1.056435E+05  1.588213E+05 -9.798032E+04 -1.970120E+05
       321   6 -4.221439E+06  6.466639E+03 -6.403849E+04  5.549112E+05 -4.180842E+04 -1.595412E+05
       321   7 -1.150926E+07 -2.026224E+06 -2.042805E+06  6.512466E+05 -2.528756E+05 -6.673544E+04
       321   8 -1.049093E+07 -1.553042E+06 -1.624780E+06  1.964137E+05 -1.190617E+05 -1.970539E+05
       321   9 -9.488673E+06 -1.310814E+06 -1.341463E+06  5.328337E+05  1.600858E+04 -1.596431E+05
       321  10  3.110088E+06  1.640690E+06  1.587218E+06  4.548560E+05 -3.967304E-09  5.656677E-09
       321  11  2.084000E+06  1.581408E+06  1.410570E+06  1.208669E+05 -6.818964E-09 -9.597916E-09
       321  12  1.071487E+06  1.321668E+06  1.211325E+06  5.771565E+05 -7.066184E-09 -3.801991E-09
       321  13 -4.224082E+06 -1.907732E+05 -2.258546E+05  5.535872E+05 -3.525556E-09 -2.023708E-08
       321  14 -4.221707E+06  1.561232E+04 -1.057345E+05  1.588057E+05 -6.546491E-10 -1.382414E-08
       321  15 -4.221448E+06  6.438895E+03 -6.408951E+04  5.549058E+05  5.445964E-10 -2.570397E-09
       321  16 -1.150933E+07 -2.026247E+06 -2.042936E+06  6.512330E+05 -2.809255E-09 -1.354292E-08
       321  17 -1.049095E+07 -1.553087E+06 -1.624880E+06  1.963947E+05  9.337058E-09 -6.406330E-10
       321  18 -9.488680E+06 -1.310841E+06 -1.341511E+06  5.328358E+05  7.045585E-09 -1.522039E-09
       321  19  3.110092E+06  1.640695E+06  1.587232E+06  4.548588E+05  5.218861E+04  6.825133E+04
       321  20  2.084017E+06  1.581451E+06  1.410654E+06  1.208790E+05  7.667988E+04  1.969732E+05
       321  21  1.071505E+06  1.321698E+06  1.211391E+06  5.771694E+05  1.001192E+05  1.594439E+05
       321  22 -4.224055E+06 -1.907620E+05 -2.258017E+05  5.535955E+05  1.531301E+05  6.747933E+04
       321  23 -4.221686E+06  1.565651E+04 -1.056435E+05  1.588213E+05  9.798032E+04  1.970120E+05
       321  24 -4.221439E+06  6.466639E+03 -6.403849E+04  5.549112E+05  4.180842E+04  1.595412E+05
       321  25 -1.150926E+07 -2.026224E+06 -2.042805E+06  6.512466E+05  2.528756E+05  6.673544E+04
       321  26 -1.049093E+07 -1.553042E+06 -1.624780E+06  1.964137E+05  1.190617E+05  1.970539E+05
       321  27 -9.488673E+06 -1.310814E+06 -1.341463E+06  5.328337E+05 -1.600858E+04  1.596431E+05
       322   1 -4.617981E+05  9.111382E+05  8.498491E+05  5.680489E+05 -4.332792E+04 -1.108842E+05
       322   2 -1.563755E+06  6.631874E+05  6.030289E+05  1.419656E+05 -3.078334E+04 -8.067052E+04
       322   3 -2.668921E+06  3.888353E+05  3.420874E+05  5.810299E+05 -1.851951E+04 -3.739266E+04
       322   4 -4.218374E+06 -2.335003E+04 -5.696576E+04  5.711445E+05 -3.185882E+04 -1.109118E+05
       322   5 -4.215088E+06  3.334690E+03 -3.668709E+04  1.384275E+05 -1.315321E+04 -8.064308E+04
       322   6 -4.217309E+06  2.528995E+03 -3.483031E+04  5.711034E+05  5.293209E+03 -3.728199E+04
       322   7 -7.961988E+06 -9.588747E+05 -9.647942E+05  5.742108E+05 -2.045849E+04 -1.109394E+05
       322   8 -6.859956E+06 -6.570342E+05 -6.769067E+05  1.348993E+05  4.401808E+03 -8.061579E+04
       322   9 -5.763492E+06 -3.839544E+05 -4.119204E+05  5.611981E+05  2.904646E+04 -3.717193E+04
       322  10 -4.618034E+05  9.111245E+05  8.498225E+05  5.680451E+05 -4.740182E-09  2.495539E-09
       322  11 -1.563758E+06  6.631802E+05  6.030149E+05  1.419636E+05  1.275586E-09 -3.282402E-09
       322  12 -2.668922E+06  3.888337E+05  3.420842E+05  5.810293E+05  6.222236E-09 -1.479614E-09
       322  13 -4.218378E+06 -2.336348E+04 -5.699074E+04  5.711417E+05 -7.396350E-10  5.606320E-10
       322  14 -4.215090E+06  3.327674E+03 -3.669961E+04  1.384266E+05 -1.459147E-09  1.170309E-09
       322  15 -4.217309E+06  2.527497E+03 -3.483297E+04  5.711035E+05 -2.621872E-10 -2.679177E-09
       322  16 -7.961992E+06 -9.588880E+05 -9.648181E+05  5.742089E+05  7.477791E-09 -2.174483E-09
       322  17 -6.859957E+06 -6.570412E+05 -6.769189E+05  1.348996E+05  1.922161E-10  7.422083E-10
       322  18 -5.763494E+06 -3.839561E+05 -4.119246E+05  5.611990E+05 -5.370598E-09  1.811888E-09
       322  19 -4.617981E+05  9.111382E+05  8.498491E+05  5.680489E+05  4.332792E+04  1.108842E+05
       322  20 -1.563755E+06  6.631874E+05  6.030289E+05  1.419656E+05  3.078334E+04  8.067052E+04
       322  21 -2.668921E+06  3.888353E+05  3.420874E+05  5.810299E+05  1.851951E+04  3.739266E+04
       322  22 -4.218374E+06 -2.335003E+04 -5.696576E+04  5.711445E+05  3.185882E+04  1.109118E+05
       322  23 -4.215088E+06  3.334690E+03 -3.668709E+04  1.384275E+05  1.315321E+04  8.064308E+04
       322  24 -4.217309E+06  2.528995E+03 -3.483031E+04  5.711034E+05 -5.293209E+03  3.728199E+04
       322  25 -7.961988E+06 -9.588747E+05 -9.647942E+05  5.742108E+05  2.045849E+04  1.109394E+05
       322  26 -6.859956E+06 -6.570342E+05 -6.769067E+05  1.348993E+05 -4.401808E+03  8.061579E+04
       322  27 -5.763492E+06 -3.839544E+05 -4.119204E+05  5.611981E+05 -2.904646E+04  3.717193E+04
       323   1 -4.274958E+06 -1.017621E+04 -5.408287E+04  5.674050E+05 -1.184001E+04 -7.735943E+03
       323   2 -5.379975E+06 -2.847934E+05 -3.333133E+05  1.343129E+05  1.870932E+04  3.591047E+04
       323   3 -6.504852E+06 -6.033940E+05 -6.451265E+05  5.782082E+05  4.934216E+04  6.927846E+04
       323   4 -4.219863E+06  4.217720E+03 -3.783355E+04  5.736328E+05  1.138234E+04 -7.615706E+03
       323   5 -4.210104E+06  7.011070E+03 -5.045132E+04  1.352491E+05  3.705456E+04  3.598072E+04
       323   6 -4.220418E+06 -3.317014E+04 -9.210338E+04  5.737606E+05  6.286502E+04  6.931046E+04
       323   7 -4.164764E+06  1.861182E+04 -2.158245E+04  5.798611E+05  3.460680E+04 -7.495006E+03
       323   8 -3.038970E+06  2.987149E+05  2.323134E+05  1.361857E+05  5.543445E+04  3.605096E+04
       323   9 -1.931163E+06  5.366689E+05  4.605439E+05  5.692899E+05  7.643757E+04  6.934221E+04
       323  10 -4.274958E+06 -1.017632E+04 -5.408325E+04  5.674049E+05  3.536155E-09 -2.773739E-09
       323  11 -5.379976E+06 -2.847949E+05 -3.333164E+05  1.343123E+05 -3.749665E-10 -6.160186E-09
       323  12 -6.504856E+06 -6.033998E+05 -6.451401E+05  5.782054E+05  2.547545E-09 -5.477904E-09
       323  13 -4.219863E+06  4.217623E+03 -3.783390E+04  5.736329E+05 -9.266565E-10 -3.511903E-09
       323  14 -4.210106E+06  7.009312E+03 -5.045635E+04  1.352480E+05 -3.070972E-09 -5.030961E-09
       323  15 -4.220424E+06 -3.317636E+04 -9.211985E+04  5.737571E+05 -1.794180E-09 -2.550376E-09
       323  16 -4.164766E+06  1.861144E+04 -2.158482E+04  5.798613E+05 -4.494583E-09 -1.804782E-09
       323  17 -3.038973E+06  2.987127E+05  2.323051E+05  1.361841E+05 -5.576744E-09  6.201038E-09
       323  18 -1.931170E+06  5.366622E+05  4.605239E+05  5.692857E+05 -2.319910E-09  1.375885E-09
       323  19 -4.274958E+06 -1.017621E+04 -5.408287E+04  5.674050E+05  1.184001E+04  7.735943E+03
       323  20 -5.379975E+06 -2.847934E+05 -3.333133E+05  1.343129E+05 -1.870932E+04 -3.591047E+04
       323  21 -6.504852E+06 -6.033940E+05 -6.451265E+05  5.782082E+05 -4.934216E+04 -6.927846E+04
       323  22 -4.219863E+06  4.217720E+03 -3.783355E+04  5.736328E+05 -1.138234E+04  7.615706E+03
       323  23 -4.210104E+06  7.011070E+03 -5.045132E+04  1.352491E+05 -3.705456E+04 -3.598072E+04
       323  24 -4.220418E+06 -3.317014E+04 -9.210338E+04  5.737606E+05 -6.286502E+04 -6.931046E+04
       323  25 -4.164764E+06  1.861182E+04 -2.158245E+04  5.798611E+05 -3.460680E+04  7.495006E+03
       323  26 -3.038970E+06  2.987149E+05  2.323134E+05  1.361857E+05 -5.543445E+04 -3.605096E+04
       323  27 -1.931163E+06  5.366689E+05  4.605439E+05  5.692899E+05 -7.643757E+04 -6.934221E+04
       324   1 -8.086276E+06 -9.451132E+05 -1.043047E+06  5.149696E+05  2.722523E+04  1.147641E+05
       324   2 -9.096504E+06 -1.183297E+06 -1.362497E+06  1.805468E+05  1.880472E+05  1.545183E+05
       324   3 -1.019401E+07 -1.819084E+06 -1.880706E+06  6.716224E+05  3.483349E+05  5.390213E+04
       324   4 -4.235318E+06  1.753685E+04 -1.092275E+05  5.624228E+05  7.968703E+04  1.148509E+05
       324   5 -4.198790E+06  4.094388E+04 -1.768712E+05  1.493134E+05  1.745806E+05  1.544406E+05
       324   6 -4.237801E+06 -3.198151E+05 -3.959996E+05  5.614420E+05  2.692272E+05  5.410961E+04
       324   7 -3.706336E+05  9.790989E+05  8.235303E+05  6.101603E+05  1.324754E+05  1.149456E+05
       324   8  7.211472E+05  1.263417E+06  1.007025E+06  1.178323E+05  1.610025E+05  1.543647E+05
       324   9  1.751095E+06  1.176804E+06  1.086057E+06  4.502052E+05  1.893407E+05  5.434507E+04
       324  10 -8.086280E+06 -9.451275E+05 -1.043073E+06  5.149670E+05 -8.857130E-10 -1.731298E-09
       324  11 -9.096548E+06 -1.183333E+06 -1.362609E+06  1.805232E+05  1.600838E-09  5.246368E-09
       324  12 -1.019414E+07 -1.819120E+06 -1.880943E+06  6.716072E+05  5.975990E-10  3.226434E-09
       324  13 -4.235329E+06  1.752101E+04 -1.092642E+05  5.624155E+05  4.022995E-09 -8.184345E-09
       324  14 -4.198830E+06  4.091008E+04 -1.769736E+05  1.492917E+05 -3.595565E-09 -2.807912E-10
       324  15 -4.237880E+06 -3.198379E+05 -3.961422E+05  5.614303E+05 -6.475890E-10  3.137586E-11
       324  16 -3.706560E+05  9.790800E+05  8.234726E+05  6.101481E+05  5.790402E-10  7.407418E-10
       324  17  7.211130E+05  1.263384E+06  1.006931E+06  1.178124E+05  4.529809E-09 -3.546462E-11
       324  18  1.751056E+06  1.176791E+06  1.085985E+06  4.501969E+05 -2.416611E-09  3.884366E-09
       324  19 -8.086276E+06 -9.451132E+05 -1.043047E+06  5.149696E+05 -2.722523E+04 -1.147641E+05
       324  20 -9.096504E+06 -1.183297E+06 -1.362497E+06  1.805468E+05 -1.880472E+05 -1.545183E+05
       324  21 -1.019401E+07 -1.819084E+06 -1.880706E+06  6.716224E+05 -3.483349E+05 -5.390213E+04
       324  22 -4.235318E+06  1.753685E+04 -1.092275E+05  5.624228E+05 -7.968703E+04 -1.148509E+05
       324  23 -4.198790E+06  4.094388E+04 -1.768712E+05  1.493134E+05 -1.745806E+05 -1.544406E+05
       324  24 -4.237801E+06 -3.198151E+05 -3.959996E+05  5.614420E+05 -2.692272E+05 -5.410961E+04
       324  25 -3.706336E+05  9.790989E+05  8.235303E+05  6.101603E+05 -1.324754E+05 -1.149456E+05
       324  26  7.211472E+05  1.263417E+06  1.007025E+06  1.178323E+05 -1.610025E+05 -1.543647E+05
       324  27  1.751095E+06  1.176804E+06  1.086057E+06  4.502052E+05 -1.893407E+05 -5.434507E+04
       325   1  8.161754E+06  2.650416E+06  2.607590E+06  8.216707E+05  5.440413E+04 -1.036895E+05
       325   2  6.424799E+06  2.339417E+06  2.193717E+06  2.306725E+05 -2.926792E+04 -2.956122E+05
       325   3  4.785569E+06  1.950194E+06  1.835063E+06  9.459146E+05 -1.129723E+05 -2.344322E+05
       325   4 -3.010291E+06 -1.270863E+05 -1.438423E+05  8.743546E+05 -9.881089E+04 -1.034585E+05
       325   5 -3.043761E+06 -3.751506E+03 -7.564921E+04  2.204440E+05 -6.008460E+04 -2.960087E+05
       325   6 -3.004632E+06  1.887161E+04 -3.714545E+04  8.741888E+05 -2.162088E+04 -2.337338E+05
       325   7 -1.406941E+07 -2.913868E+06 -2.904428E+06  9.260871E+05 -2.492858E+05 -1.032532E+05
       325   8 -1.243052E+07 -2.353436E+06 -2.351377E+06  2.102929E+05 -9.043100E+04 -2.964085E+05
       325   9 -1.073938E+07 -1.916862E+06 -1.913650E+06  8.031917E+05  6.859627E+04 -2.330518E+05
       325  10  8.161748E+06  2.650403E+06  2.607565E+06  8.216752E+05 -3.940279E-09  2.580369E-09
       325  11  6.424775E+06  2.339323E+06  2.193551E+06  2.306656E+05  4.782070E-09 -4.013075E-09
       325  12  4.785541E+06  1.950131E+06  1.834937E+06  9.458934E+05  1.715691E-08 -2.131365E-08
       325  13 -3.010305E+06 -1.271004E+05 -1.438808E+05  8.743464E+05 -4.854187E-10 -6.322247E-10
       325  14 -3.043788E+06 -3.846435E+03 -7.582042E+04  2.204297E+05 -1.053379E-09 -2.062055E-11
       325  15 -3.004647E+06  1.881291E+04 -3.724881E+04  8.741847E+05 -1.490180E-09 -5.193322E-09
       325  16 -1.406948E+07 -2.913897E+06 -2.904567E+06  9.260662E+05  2.164016E-09  1.648627E-09
       325  17 -1.243055E+07 -2.353532E+06 -2.351558E+06  2.102712E+05  1.920407E-09 -3.733071E-09
       325  18 -1.073940E+07 -1.916922E+06 -1.913761E+06  8.032047E+05 -8.632655E-09 -2.826045E-08
       325  19  8.161754E+06  2.650416E+06  2.607590E+06  8.216707E+05 -5.440413E+04  1.036895E+05
       325  20  6.424799E+06  2.339417E+06  2.193717E+06  2.306725E+05  2.926792E+04  2.956122E+05
       325  21  4.785569E+06  1.950194E+06  1.835063E+06  9.459146E+05  1.129723E+05  2.344322E+05
       325  22 -3.010291E+06 -1.270863E+05 -1.438423E+05  8.743546E+05  9.881089E+04  1.034585E+05
       325  23 -3.043761E+06 -3.751506E+03 -7.564921E+04  2.204440E+05  6.008460E+04  2.960087E+05
       325  24 -3.004632E+06  1.887161E+04 -3.714545E+04  8.741888E+05  2.162088E+04  2.337338E+05
       325  25 -1.406941E+07 -2.913868E+06 -2.904428E+06  9.260871E+05  2.492858E+05  1.032532E+05
       325  26 -1.243052E+07 -2.353436E+06 -2.351377E+06  2.102929E+05  9.043100E+04  2.964085E+05
       325  27 -1.073938E+07 -1.916862E+06 -1.913650E+06  8.031917E+05 -6.859627E+04  2.330518E+05
       326   1  2.281829E+06  1.312655E+06  1.238981E+06  9.326381E+05 -3.629665E+04 -1.571454E+05
       326   2  5.254828E+05  8.838636E+05  8.256324E+05  2.330700E+05 -3.357524E+04 -1.076026E+05
       326   3 -1.254760E+06  4.661821E+05  4.067186E+05  9.176355E+05 -3.159919E+04 -3.875770E+04
       326   4 -3.017991E+06 -3.209727E+03 -3.731286E+04  8.915436E+05 -1.702645E+04 -1.569996E+05
       326   5 -3.002663E+06  6.920758E+03 -2.410706E+04  1.990607E+05 -5.129165E+03 -1.072489E+05
       326   6 -3.015801E+06  2.667713E+04 -2.272218E+04  8.911967E+05  6.030104E+03 -3.813776E+04
       326   7 -8.292099E+06 -1.321126E+06 -1.315614E+06  8.507056E+05  2.080779E+03 -1.568557E+05
       326   8 -6.519390E+06 -8.709307E+05 -8.747340E+05  1.652046E+05  2.315595E+04 -1.068973E+05
       326   9 -4.773999E+06 -4.130556E+05 -4.523838E+05  8.648197E+05  4.355269E+04 -3.752009E+04
       326  10  2.281821E+06  1.312628E+06  1.238932E+06  9.326336E+05  3.139164E-09 -3.168961E-08
       326  11  5.254785E+05  8.838509E+05  8.256086E+05  2.330671E+05  9.568318E-10  1.121019E-08
       326  12 -1.254761E+06  4.661802E+05  4.067139E+05  9.176345E+05 -9.171908E-09  2.181108E-08
       326  13 -3.017998E+06 -3.236232E+03 -3.735964E+04  8.915414E+05  7.806014E-10 -2.477363E-08
       326  14 -3.002666E+06  6.908417E+03 -2.412869E+04  1.990603E+05 -7.926281E-09 -4.352924E-09
       326  15 -3.015802E+06  2.667556E+04 -2.272498E+04  8.911969E+05  7.282911E-10 -7.449380E-09
       326  16 -8.292105E+06 -1.321152E+06 -1.315660E+06  8.507059E+05 -6.063985E-09 -1.206401E-08
       326  17 -6.519394E+06 -8.709431E+05 -8.747565E+05  1.652066E+05 -9.102315E-09 -1.008225E-09
       326  18 -4.774002E+06 -4.130576E+05 -4.523900E+05  8.648210E+05  1.475789E-08  1.327796E-08
       326  19  2.281829E+06  1.312655E+06  1.238981E+06  9.326381E+05  3.629665E+04  1.571454E+05
       326  20  5.254828E+05  8.838636E+05  8.256324E+05  2.330700E+05  3.357524E+04  1.076026E+05
       326  21 -1.254760E+06  4.661821E+05  4.067186E+05  9.176355E+05  3.159919E+04  3.875770E+04
       326  22 -3.017991E+06 -3.209727E+03 -3.731286E+04  8.915436E+05  1.702645E+04  1.569996E+05
       326  23 -3.002663E+06  6.920758E+03 -2.410706E+04  1.990607E+05  5.129165E+03  1.072489E+05
       326  24 -3.015801E+06  2.667713E+04 -2.272218E+04  8.911967E+05 -6.030104E+03  3.813776E+04
       326  25 -8.292099E+06 -1.321126E+06 -1.315614E+06  8.507056E+05 -2.080779E+03  1.568557E+05
       326  26 -6.519390E+06 -8.709307E+05 -8.747340E+05  1.652046E+05 -2.315595E+04  1.068973E+05
       326  27 -4.773999E+06 -4.130556E+05 -4.523838E+05  8.648197E+05 -4.355269E+04  3.752009E+04
       327   1 -3.801346E+06 -1.683455E+05 -2.192952E+05  8.764301E+05 -2.809508E+04  8.354575E+03
       327   2 -5.547603E+06 -6.257398E+05 -6.525222E+05  1.726259E+05 -2.230416E+03  7.782699E+04
       327   3 -7.335450E+06 -1.088672E+06 -1.113299E+06  8.590978E+05  2.415452E+04  1.297108E+05
       327   4 -3.018298E+06  2.806598E+04 -2.545759E+04  8.923150E+05  9.073803E+03  8.979544E+03
       327   5 -2.997672E+06  1.039957E+04 -3.615433E+04  1.976146E+05  2.657713E+04  7.822788E+04
       327   6 -3.019934E+06 -1.100461E+04 -6.827222E+04  8.928209E+05  4.467618E+04  1.299293E+05
       327   7 -2.234687E+06  2.244327E+05  1.683395E+05  9.082174E+05  4.628975E+04  9.606002E+03
       327   8 -4.417418E+05  6.460620E+05  5.797489E+05  2.226843E+05  5.550327E+04  7.863027E+04
       327   9  1.312784E+06  1.065292E+06  9.754133E+05  9.267118E+05  6.534046E+04  1.301494E+05
       327  10 -3.801347E+06 -1.683458E+05 -2.192969E+05  8.764303E+05  4.471123E-09  3.292542E-08
       327  11 -5.547605E+06 -6.257463E+05 -6.525335E+05  1.726261E+05  6.888445E-09  2.522138E-08
       327  12 -7.335456E+06 -1.088691E+06 -1.113332E+06  8.590953E+05  1.770409E-08 -1.333873E-09
       327  13 -3.018298E+06  2.806587E+04 -2.545790E+04  8.923149E+05  2.004731E-09 -9.500468E-09
       327  14 -2.997674E+06  1.039282E+04 -3.616714E+04  1.976129E+05 -7.750355E-09  2.348716E-08
       327  15 -3.019941E+06 -1.102324E+04 -6.830763E+04  8.928163E+05 -4.484028E-10  3.489796E-08
       327  16 -2.234689E+06  2.244320E+05  1.683353E+05  9.082170E+05 -5.519018E-09  2.462445E-08
       327  17 -4.417467E+05  6.460546E+05  5.797316E+05  2.226808E+05 -1.478959E-08  2.495564E-08
       327  18  1.312775E+06  1.065272E+06  9.753736E+05  9.267050E+05 -1.205413E-08  1.935077E-08
       327  19 -3.801346E+06 -1.683455E+05 -2.192952E+05  8.764301E+05  2.809508E+04 -8.354575E+03
       327  20 -5.547603E+06 -6.257398E+05 -6.525222E+05  1.726259E+05  2.230416E+03 -7.782699E+04
       327  21 -7.335450E+06 -1.088672E+06 -1.113299E+06  8.590978E+05 -2.415452E+04 -1.297108E+05
       327  22 -3.018298E+06  2.806598E+04 -2.545759E+04  8.923150E+05 -9.073803E+03 -8.979544E+03
       327  23 -2.997672E+06  1.039957E+04 -3.615433E+04  1.976146E+05 -2.657713E+04 -7.822788E+04
       327  24 -3.019934E+06 -1.100461E+04 -6.827222E+04  8.928209E+05 -4.467618E+04 -1.299293E+05
       327  25 -2.234687E+06  2.244327E+05  1.683395E+05  9.082174E+05 -4.628975E+04 -9.606002E+03
       327  26 -4.417418E+05  6.460620E+05  5.797489E+05  2.226843E+05 -5.550327E+04 -7.863027E+04
       327  27  1.312784E+06  1.065292E+06  9.754133E+05  9.267118E+05 -6.534046E+04 -1.301494E+05
       328   1 -9.814771E+06 -1.671603E+06 -1.725852E+06  7.891339E+05 -3.122475E+04  2.035937E+05
       328   2 -1.149271E+07 -2.099769E+06 -2.190563E+06  2.029899E+05  1.528820E+05  2.682924E+05
       328   3 -1.318709E+07 -2.799360E+06 -2.830044E+06  9.418894E+05  3.373933E+05  9.491267E+04
       328   4 -3.017607E+06  2.938006E+04 -7.714221E+04  8.776076E+05  5.537731E+04  2.044396E+05
       328   5 -3.021585E+06  1.936943E+04 -1.380946E+05  2.158916E+05  1.278247E+05  2.679026E+05
       328   6 -3.022968E+06 -2.396471E+05 -2.939508E+05  8.783291E+05  2.011930E+05  9.467895E+04
       328   7  3.822343E+06  1.726967E+06  1.568256E+06  9.669150E+05  1.429336E+05  2.053055E+05
       328   8  5.516103E+06  2.133207E+06  1.909196E+06  2.288694E+05  1.024117E+05  2.675153E+05
       328   9  7.236457E+06  2.312243E+06  2.234416E+06  8.136284E+05  6.270429E+04  9.447727E+04
       328  10 -9.814783E+06 -1.671647E+06 -1.725932E+06  7.891391E+05  1.867906E-08 -2.442155E-09
       328  11 -1.149275E+07 -2.099853E+06 -2.190742E+06  2.029566E+05 -3.769909E-10  1.531423E-08
       328  12 -1.318722E+07 -2.799401E+06 -2.830279E+06  9.418634E+05 -3.583991E-09  3.592864E-09
       328  13 -3.017622E+06  2.933444E+04 -7.722635E+04  8.775985E+05 -3.302795E-11  8.447579E-09
       328  14 -3.021622E+06  1.928807E+04 -1.382601E+05  2.158640E+05 -5.049074E-09  1.540308E-08
       328  15 -3.023014E+06 -2.396676E+05 -2.940440E+05  8.783138E+05  9.060441E-10 -1.122932E-09
       328  16  3.822310E+06  1.726917E+06  1.568139E+06  9.668914E+05 -1.772733E-08  1.786967E-08
       328  17  5.516073E+06  2.133128E+06  1.909042E+06  2.288475E+05 -5.683152E-09  1.474116E-09
       328  18  7.236450E+06  2.312233E+06  2.234392E+06  8.136236E+05  3.958716E-10 -5.199375E-09
       328  19 -9.814771E+06 -1.671603E+06 -1.725852E+06  7.891339E+05  3.122475E+04 -2.035937E+05
       328  20 -1.149271E+07 -2.099769E+06 -2.190563E+06  2.029899E+05 -1.528820E+05 -2.682924E+05
       328  21 -1.318709E+07 -2.799360E+06 -2.830044E+06  9.418894E+05 -3.373933E+05 -9.491267E+04
       328  22 -3.017607E+06  2.938006E+04 -7.714221E+04  8.776076E+05 -5.537731E+04 -2.044396E+05
       328  23 -3.021585E+06  1.936943E+04 -1.380946E+05  2.158916E+05 -1.278247E+05 -2.679026E+05
       328  24 -3.022968E+06 -2.396471E+05 -2.939508E+05  8.783291E+05 -2.011930E+05 -9.467895E+04
       328  25  3.822343E+06  1.726967E+06  1.568256E+06  9.669150E+05 -1.429336E+05 -2.053055E+05
       328  26  5.516103E+06  2.133207E+06  1.909196E+06  2.288694E+05 -1.024117E+05 -2.675153E+05
       328  27  7.236457E+06  2.312243E+06  2.234416E+06  8.136284E+05 -6.270429E+04 -9.447727E+04
       329   1  6.213821E+06  1.950173E+06  1.931017E+06  7.160632E+05  8.764984E+04 -7.288806E+04
       329   2  4.793678E+06  1.617584E+06  1.552759E+06  1.976453E+05  8.807814E+03 -2.049416E+05
       329   3  3.433104E+06  1.294371E+06  1.236881E+06  7.582660E+05 -7.031799E+04 -1.541745E+05
       329   4 -1.744206E+06 -2.912053E+04 -3.007012E+04  7.229755E+05 -2.018904E+04 -7.294669E+04
       329   5 -1.763757E+06 -5.751614E+03 -1.930160E+04  1.830113E+05 -1.056687E+04 -2.051560E+05
       329   6 -1.741058E+06  1.158424E+04 -7.203517E+03  7.228441E+05 -1.406939E+03 -1.536870E+05
       329   7 -9.644894E+06 -2.013125E+06 -1.995801E+06  7.297683E+05 -1.266562E+05 -7.300887E+04
       329   8 -8.281938E+06 -1.632210E+06 -1.594412E+06  1.684902E+05 -2.973838E+04 -2.053711E+05
       329   9 -6.890755E+06 -1.273149E+06 -1.253179E+06  6.876538E+05  6.693426E+04 -1.532051E+05
       329  10  6.213812E+06  1.950165E+06  1.930993E+06  7.160684E+05 -6.083044E-09  2.483492E-09
       329  11  4.793666E+06  1.617539E+06  1.552680E+06  1.976468E+05  5.147763E-09  4.159142E-10
       329  12  3.433093E+06  1.294344E+06  1.236827E+06  7.582573E+05  1.550897E-08 -1.534563E-08
       329  13 -1.744208E+06 -2.912634E+04 -3.008088E+04  7.229743E+05 -1.179163E-09  3.839306E-10
       329  14 -1.763768E+06 -5.796803E+03 -1.938084E+04  1.830096E+05  4.954602E-11  2.387484E-09
       329  15 -1.741065E+06  1.155889E+04 -7.247868E+03  7.228439E+05  1.046511E-09 -1.795552E-08
       329  16 -9.644913E+06 -2.013135E+06 -1.995842E+06  7.297608E+05  1.414462E-09 -1.949520E-09
       329  17 -8.281951E+06 -1.632256E+06 -1.594493E+06  1.684853E+05 -6.485294E-09 -7.549373E-09
       329  18 -6.890766E+06 -1.273175E+06 -1.253231E+06  6.876621E+05 -1.236855E-08 -1.667239E-08
       329  19  6.213821E+06  1.950173E+06  1.931017E+06  7.160632E+05 -8.764984E+04  7.288806E+04
       329  20  4.793678E+06  1.617584E+06  1.552759E+06  1.976453E+05 -8.807814E+03  2.049416E+05
       329  21  3.433104E+06  1.294371E+06  1.236881E+06  7.582660E+05  7.031799E+04  1.541745E+05
       329  22 -1.744206E+06 -2.912053E+04 -3.007012E+04  7.229755E+05  2.018904E+04  7.294669E+04
       329  23 -1.763757E+06 -5.751614E+03 -1.930160E+04  1.830113E+05  1.056687E+04  2.051560E+05
       329  24 -1.741058E+06  1.158424E+04 -7.203517E+03  7.228441E+05  1.406939E+03  1.536870E+05
       329  25 -9.644894E+06 -2.013125E+06 -1.995801E+06  7.297683E+05  1.266562E+05  7.300887E+04
       329  26 -8.281938E+06 -1.632210E+06 -1.594412E+06  1.684902E+05  2.973838E+04  2.053711E+05
       329  27 -6.890755E+06 -1.273149E+06 -1.253179E+06  6.876538E+05 -6.693426E+04  1.532051E+05
       330   1  1.410582E+06  7.903617E+05  7.511174E+05  7.500232E+05 -1.774874E+04 -9.477358E+04
       330   2  2.804589E+03  4.374715E+05  4.117810E+05  1.874860E+05 -2.049340E+04 -5.326070E+04
       330   3 -1.423104E+06  9.620419E+04  7.192008E+04  7.346813E+05 -2.355526E+04  1.619361E+03
       330   4 -1.750418E+06  5.788934E+03 -9.637280E+03  7.296107E+05 -9.934948E+02 -9.464058E+04
       330   5 -1.739438E+06  4.686439E+03 -7.619859E+03  1.746175E+05  2.653340E+03 -5.302765E+04
       330   6 -1.749563E+06  1.422045E+04 -1.045224E+04  7.295405E+05  5.976944E+03  1.975248E+03
       330   7 -4.902272E+06 -7.795124E+05 -7.711041E+05  7.092750E+05  1.567690E+04 -9.450833E+04
       330   8 -3.478897E+06 -4.283197E+05 -4.272354E+05  1.617776E+05  2.573534E+04 -5.279523E+04
       330   9 -2.075924E+06 -6.777091E+04 -9.282944E+04  7.244021E+05  3.549358E+04  2.330744E+03
       330  10  1.410579E+06  7.903520E+05  7.510999E+05  7.500218E+05 -5.716028E-09  4.063419E-10
       330  11  2.803378E+03  4.374683E+05  4.117749E+05  1.874851E+05  1.444088E-09  1.018913E-08
       330  12 -1.423104E+06  9.620404E+04  7.191903E+04  7.346813E+05  4.132948E-09  6.542810E-09
       330  13 -1.750420E+06  5.779323E+03 -9.654099E+03  7.296106E+05  4.098843E-11 -9.504714E-09
       330  14 -1.739439E+06  4.683420E+03 -7.625152E+03  1.746176E+05 -6.812847E-09  6.467667E-09
       330  15 -1.749563E+06  1.422043E+04 -1.045231E+04  7.295405E+05 -3.686816E-10  1.113183E-08
       330  16 -4.902275E+06 -7.795221E+05 -7.711213E+05  7.092762E+05  4.545902E-09 -9.978201E-10
       330  17 -3.478899E+06 -4.283229E+05 -4.272419E+05  1.617787E+05 -3.858752E-09 -2.180350E-08
       330  18 -2.075926E+06 -6.777126E+04 -9.283182E+04  7.244020E+05  5.837233E-10  2.602148E-09
       330  19  1.410582E+06  7.903617E+05  7.511174E+05  7.500232E+05  1.774874E+04  9.477358E+04
       330  20  2.804589E+03  4.374715E+05  4.117810E+05  1.874860E+05  2.049340E+04  5.326070E+04
       330  21 -1.423104E+06  9.620419E+04  7.192008E+04  7.346813E+05  2.355526E+04 -1.619361E+03
       330  22 -1.750418E+06  5.788934E+03 -9.637280E+03  7.296107E+05  9.934948E+02  9.464058E+04
       330  23 -1.739438E+06  4.686439E+03 -7.619859E+03  1.746175E+05 -2.653340E+03  5.302765E+04
       330  24 -1.749563E+06  1.422045E+04 -1.045224E+04  7.295405E+05 -5.976944E+03 -1.975248E+03
       330  25 -4.902272E+06 -7.795124E+05 -7.711041E+05  7.092750E+05 -1.567690E+04  9.450833E+04
       330  26 -3.478897E+06 -4.283197E+05 -4.272354E+05  1.617776E+05 -2.573534E+04  5.279523E+04
       330  27 -2.075924E+06 -6.777091E+04 -9.282944E+04  7.244021E+05 -3.549358E+04 -2.330744E+03
       331   1 -3.445448E+06 -4.062517E+05 -4.252164E+05  7.099805E+05 -2.283359E+04  3.911462E+04
       331   2 -4.844787E+06 -7.683223E+05 -7.703277E+05  1.563962E+05 -5.059599E+03  9.431686E+04
       331   3 -6.258261E+06 -1.137112E+06 -1.131844E+06  7.088983E+05  1.315301E+04  1.336187E+05
       331   4 -1.748892E+06  1.700484E+04 -1.206399E+04  7.285522E+05  7.249237E+03  3.946217E+04
       331   5 -1.742384E+06  4.547168E+03 -2.119913E+04  1.757987E+05  1.745992E+04  9.449673E+04
       331   6 -1.750433E+06 -1.307627E+04 -4.127919E+04  7.287921E+05  2.815019E+04  1.336720E+05
       331   7 -4.969480E+04  4.400498E+05  4.008827E+05  7.471659E+05  3.741440E+04  3.981102E+04
       331   8  1.368881E+06  7.767113E+05  7.272409E+05  1.952774E+05  4.009210E+04  9.467759E+04
       331   9  2.776121E+06  1.109466E+06  1.047825E+06  7.487849E+05  4.325616E+04  1.337261E+05
       331  10 -3.445449E+06 -4.062535E+05 -4.252203E+05  7.099812E+05 -1.133059E-08  1.511764E-08
       331  11 -4.844790E+06 -7.683319E+05 -7.703444E+05  1.563966E+05  2.979908E-09  8.106214E-09
       331  12 -6.258266E+06 -1.137132E+06 -1.131878E+06  7.088969E+05  1.423937E-08  1.416553E-08
       331  13 -1.748893E+06  1.700315E+04 -1.206701E+04  7.285520E+05 -1.073242E-09  9.205216E-09
       331  14 -1.742387E+06  4.537506E+03 -2.121647E+04  1.757974E+05 -4.108457E-09  1.003142E-08
       331  15 -1.750439E+06 -1.309565E+04 -4.131422E+04  7.287890E+05  3.625352E-09 -3.722253E-09
       331  16 -4.969673E+04  4.400477E+05  4.008771E+05  7.471647E+05  1.145582E-08  3.777988E-09
       331  17  1.368877E+06  7.767013E+05  7.272210E+05  1.952743E+05 -5.244077E-09 -8.727900E-09
       331  18  2.776115E+06  1.109446E+06  1.047788E+06  7.487803E+05 -1.386381E-08 -1.656827E-08
       331  19 -3.445448E+06 -4.062517E+05 -4.252164E+05  7.099805E+05  2.283359E+04 -3.911462E+04
       331  20 -4.844787E+06 -7.683223E+05 -7.703277E+05  1.563962E+05  5.059599E+03 -9.431686E+04
       331  21 -6.258261E+06 -1.137112E+06 -1.131844E+06  7.088983E+05 -1.315301E+04 -1.336187E+05
       331  22 -1.748892E+06  1.700484E+04 -1.206399E+04  7.285522E+05 -7.249237E+03 -3.946217E+04
       331  23 -1.742384E+06  4.547168E+03 -2.119913E+04  1.757987E+05 -1.745992E+04 -9.449673E+04
       331  24 -1.750433E+06 -1.307627E+04 -4.127919E+04  7.287921E+05 -2.815019E+04 -1.336720E+05
       331  25 -4.969480E+04  4.400498E+05  4.008827E+05  7.471659E+05 -3.741440E+04 -3.981102E+04
       331  26  1.368881E+06  7.767113E+05  7.272409E+05  1.952774E+05 -4.009210E+04 -9.467759E+04
       331  27  2.776121E+06  1.109466E+06  1.047825E+06  7.487849E+05 -4.325616E+04 -1.337261E+05
       332   1 -8.234188E+06 -1.606968E+06 -1.616409E+06  6.731249E+05 -3.978756E+04  1.959618E+05
       332   2 -9.601853E+06 -1.950982E+06 -1.982526E+06  1.987224E+05  1.056581E+05  2.466302E+05
       332   3 -1.095368E+07 -2.468967E+06 -2.472260E+06  7.902271E+05  2.504619E+05  8.521100E+04
       332   4 -1.746048E+06  1.282783E+04 -4.599912E+04  7.197150E+05  3.453935E+04  1.962557E+05
       332   5 -1.764466E+06  6.177236E+03 -8.693019E+04  1.869461E+05  8.001146E+04  2.464099E+05
       332   6 -1.749892E+06 -1.552087E+05 -1.805716E+05  7.193941E+05  1.251710E+05  8.563251E+04
       332   7  4.780976E+06  1.629532E+06  1.521401E+06  7.667213E+05  1.096469E+05  1.965593E+05
       332   8  6.129737E+06  1.958816E+06  1.804251E+06  1.750052E+05  5.403313E+04  2.461927E+05
       332   9  7.531808E+06  2.152163E+06  2.104809E+06  6.475331E+05 -2.012961E+03  8.608107E+04
       332  10 -8.234200E+06 -1.607010E+06 -1.616484E+06  6.731313E+05  5.125498E-10  8.924894E-09
       332  11 -9.601881E+06 -1.951051E+06 -1.982661E+06  1.987013E+05  5.870074E-09  9.002166E-09
       332  12 -1.095375E+07 -2.468992E+06 -2.472393E+06  7.902098E+05  5.840006E-09  3.336439E-09
       332  13 -1.746060E+06  1.278620E+04 -4.607365E+04  7.197095E+05  8.107091E-10  8.056745E-09
       332  14 -1.764490E+06  6.110369E+03 -8.705623E+04  1.869303E+05  2.140069E-09  2.318003E-09
       332  15 -1.749910E+06 -1.552208E+05 -1.806149E+05  7.193854E+05 -1.102452E-09 -6.115134E-09
       332  16  4.780953E+06  1.629488E+06  1.521307E+06  7.667041E+05 -1.555299E-09  1.207936E-08
       332  17  6.129717E+06  1.958751E+06  1.804132E+06  1.749946E+05 -1.656277E-09  1.335212E-09
       332  18  7.531806E+06  2.152155E+06  2.104795E+06  6.475333E+05 -9.039321E-09  4.233334E-09
       332  19 -8.234188E+06 -1.606968E+06 -1.616409E+06  6.731249E+05  3.978756E+04 -1.959618E+05
       332  20 -9.601853E+06 -1.950982E+06 -1.982526E+06  1.987224E+05 -1.056581E+05 -2.466302E+05
       332  21 -1.095368E+07 -2.468967E+06 -2.472260E+06  7.902271E+05 -2.504619E+05 -8.521100E+04
       332  22 -1.746048E+06  1.282783E+04 -4.599912E+04  7.197150E+05 -3.453935E+04 -1.962557E+05
       332  23 -1.764466E+06  6.177236E+03 -8.693019E+04  1.869461E+05 -8.001146E+04 -2.464099E+05
       332  24 -1.749892E+06 -1.552087E+05 -1.805716E+05  7.193941E+05 -1.251710E+05 -8.563251E+04
       332  25  4.780976E+06  1.629532E+06  1.521401E+06  7.667213E+05 -1.096469E+05 -1.965593E+05
       332  26  6.129737E+06  1.958816E+06  1.804251E+06  1.750052E+05 -5.403313E+04 -2.461927E+05
       332  27  7.531808E+06  2.152163E+06  2.104809E+06  6.475331E+05  2.012961E+03 -8.608107E+04
       333   1  3.906436E+06  1.173984E+06  1.175374E+06  4.670366E+05  7.838774E+04 -4.279449E+04
       333   2  2.976956E+06  9.234613E+05  9.090873E+05  1.182047E+05  2.088898E+04 -1.177029E+05
       333   3  2.087805E+06  7.049673E+05  6.926055E+05  4.766442E+05 -3.610599E+04 -8.387947E+04
       333   4 -7.650920E+05  1.099707E+04  2.301580E+04  4.804324E+05  1.584392E+04 -4.247753E+04
       333   5 -7.797693E+05 -7.087897E+03  7.976148E+03  1.266155E+05  1.086506E+04 -1.177165E+05
       333   6 -7.639284E+05 -2.106845E+03  6.511079E+03  4.803429E+05  6.306696E+03 -8.393290E+04
       333   7 -5.416836E+06 -1.153614E+06 -1.130945E+06  4.937470E+05 -4.623240E+04 -4.216223E+04
       333   8 -4.523600E+06 -9.386621E+05 -8.941360E+05  1.349848E+05  9.011799E+02 -1.177306E+05
       333   9 -3.608226E+06 -7.097726E+05 -6.801563E+05  4.840231E+05  4.852571E+04 -8.398592E+04
       333  10  3.906429E+06  1.173980E+06  1.175359E+06  4.670393E+05  2.787280E-09  4.336142E-09
       333  11  2.976952E+06  9.234464E+05  9.090605E+05  1.182067E+05 -6.862452E-09 -5.033817E-09
       333  12  2.087801E+06  7.049595E+05  6.925899E+05  4.766418E+05 -1.114084E-08 -4.196066E-09
       333  13 -7.650928E+05  1.099507E+04  2.301193E+04  4.804329E+05  2.715490E-09  1.017562E-08
       333  14 -7.797731E+05 -7.102804E+03  7.949894E+03  1.266165E+05  3.539321E-09  1.725401E-08
       333  15 -7.639303E+05 -2.114419E+03  6.497768E+03  4.803433E+05  4.076575E-10 -9.987362E-09
       333  16 -5.416839E+06 -1.153616E+06 -1.130952E+06  4.937454E+05 -4.290192E-09 -3.737454E-10
       333  17 -4.523604E+06 -9.386770E+05 -8.941620E+05  1.349848E+05  2.772978E-09 -6.883848E-09
       333  18 -3.608231E+06 -7.097808E+05 -6.801740E+05  4.840264E+05  1.025576E-08 -2.662474E-09
       333  19  3.906436E+06  1.173984E+06  1.175374E+06  4.670366E+05 -7.838774E+04  4.279449E+04
       333  20  2.976956E+06  9.234613E+05  9.090873E+05  1.182047E+05 -2.088898E+04  1.177029E+05
       333  21  2.087805E+06  7.049673E+05  6.926055E+05  4.766442E+05  3.610599E+04  8.387947E+04
       333  22 -7.650920E+05  1.099707E+04  2.301580E+04  4.804324E+05 -1.584392E+04  4.247753E+04
       333  23 -7.797693E+05 -7.087897E+03  7.976148E+03  1.266155E+05 -1.086506E+04  1.177165E+05
       333  24 -7.639284E+05 -2.106845E+03  6.511079E+03  4.803429E+05 -6.306696E+03  8.393290E+04
       333  25 -5.416836E+06 -1.153614E+06 -1.130945E+06  4.937470E+05  4.623240E+04  4.216223E+04
       333  26 -4.523600E+06 -9.386621E+05 -8.941360E+05  1.349848E+05 -9.011799E+02  1.177306E+05
       333  27 -3.608226E+06 -7.097726E+05 -6.801563E+05  4.840231E+05 -4.852571E+04  8.398592E+04
       334   1  7.798937E+05  3.843730E+05  3.764060E+05  4.821221E+05 -6.157151E+03 -4.703375E+04
       334   2 -1.351111E+05  1.575246E+05  1.532805E+05  1.243338E+05 -1.019155E+04 -1.942131E+04
       334   3 -1.048080E+06 -7.008447E+04 -6.737324E+04  4.826416E+05 -1.426274E+04  1.591810E+04
       334   4 -7.689526E+05  1.323560E+02  3.923827E+03  4.822786E+05  5.242467E+03 -4.703974E+04
       334   5 -7.691608E+05  1.509895E+02  7.615295E+02  1.242078E+05  4.912839E+03 -1.941862E+04
       334   6 -7.687546E+05 -1.177938E+03 -2.448989E+03  4.822797E+05  4.540373E+03  1.593556E+04
       334   7 -2.315603E+06 -3.842831E+05 -3.687287E+05  4.824339E+05  1.661376E+04 -4.704573E+04
       334   8 -1.402842E+06 -1.572518E+05 -1.517853E+05  1.240819E+05  2.000185E+04 -1.941593E+04
       334   9 -4.893559E+05  6.772328E+04  6.247133E+04  4.819176E+05  2.335190E+04  1.595299E+04
       334  10  7.798931E+05  3.843706E+05  3.764018E+05  4.821219E+05 -3.936293E-09 -1.335836E-09
       334  11 -1.351113E+05  1.575242E+05  1.532796E+05  1.243336E+05 -9.901266E-10  6.028344E-10
       334  12 -1.048081E+06 -7.008480E+04 -6.737409E+04  4.826418E+05  1.318959E-09  4.064729E-09
       334  13 -7.689533E+05  1.299730E+02  3.919617E+03  4.822788E+05 -2.687057E-09 -3.870644E-09
       334  14 -7.691609E+05  1.505782E+02  7.607757E+02  1.242079E+05  1.892359E-09 -3.748345E-09
       334  15 -7.687547E+05 -1.178216E+03 -2.449505E+03  4.822796E+05  2.054158E-10 -8.091668E-10
       334  16 -2.315604E+06 -3.842855E+05 -3.687334E+05  4.824345E+05  4.785024E-09 -6.782058E-09
       334  17 -1.402842E+06 -1.572523E+05 -1.517867E+05  1.240822E+05  3.312515E-09 -1.521105E-10
       334  18 -4.893565E+05  6.772286E+04  6.246983E+04  4.819173E+05 -2.906712E-09  8.792680E-10
       334  19  7.798937E+05  3.843730E+05  3.764060E+05  4.821221E+05  6.157151E+03  4.703375E+04
       334  20 -1.351111E+05  1.575246E+05  1.532805E+05  1.243338E+05  1.019155E+04  1.942131E+04
       334  21 -1.048080E+06 -7.008447E+04 -6.737324E+04  4.826416E+05  1.426274E+04 -1.591810E+04
       334  22 -7.689526E+05  1.323560E+02  3.923827E+03  4.822786E+05 -5.242467E+03  4.703974E+04
       334  23 -7.691608E+05  1.509895E+02  7.615295E+02  1.242078E+05 -4.912839E+03  1.941862E+04
       334  24 -7.687546E+05 -1.177938E+03 -2.448989E+03  4.822797E+05 -4.540373E+03 -1.593556E+04
       334  25 -2.315603E+06 -3.842831E+05 -3.687287E+05  4.824339E+05 -1.661376E+04  4.704573E+04
       334  26 -1.402842E+06 -1.572518E+05 -1.517853E+05  1.240819E+05 -2.000185E+04  1.941593E+04
       334  27 -4.893559E+05  6.772328E+04  6.247133E+04  4.819176E+05 -2.335190E+04 -1.595299E+04
       335   1 -2.349264E+06 -3.925982E+05 -3.869790E+05  4.794558E+05 -1.469780E+04  4.005369E+04
       335   2 -3.261292E+06 -6.194028E+05 -6.090822E+05  1.285205E+05 -4.930999E+03  7.553128E+04
       335   3 -4.166464E+06 -8.598116E+05 -8.389281E+05  4.911722E+05  4.979256E+03  9.995571E+04
       335   4 -7.680080E+05  9.304059E+02 -3.467730E+03  4.816806E+05  4.925770E+03  4.005896E+04
       335   5 -7.719351E+05 -3.015803E+02 -8.865837E+03  1.249585E+05  9.415933E+03  7.549330E+04
       335   6 -7.687958E+05 -1.411639E+04 -1.825373E+04  4.816542E+05  1.406365E+04  9.989646E+04
       335   7  8.155402E+05  3.942754E+05  3.798645E+05  4.839100E+05  2.459930E+04  4.006435E+04
       335   8  1.723114E+06  6.183464E+05  5.909082E+05  1.213833E+05  2.382036E+04  7.545525E+04
       335   9  2.639482E+06  8.307329E+05  8.015932E+05  4.720864E+05  2.319769E+04  9.983713E+04
       335  10 -2.349265E+06 -3.926000E+05 -3.869824E+05  4.794562E+05  3.174746E-09  4.090832E-09
       335  11 -3.261294E+06 -6.194089E+05 -6.090930E+05  1.285208E+05  1.367880E-09  3.957860E-09
       335  12 -4.166467E+06 -8.598223E+05 -8.389470E+05  4.911718E+05 -1.475369E-09 -6.781674E-09
       335  13 -7.680085E+05  9.286770E+02 -3.470789E+03  4.816805E+05 -1.816940E-11 -3.731604E-09
       335  14 -7.719367E+05 -3.077217E+02 -8.876709E+03  1.249579E+05  2.394056E-09  1.371303E-09
       335  15 -7.687987E+05 -1.412716E+04 -1.827284E+04  4.816531E+05  6.435140E-10  1.188667E-09
       335  16  8.155391E+05  3.942735E+05  3.798603E+05  4.839092E+05 -2.677860E-09 -1.904253E-10
       335  17  1.723112E+06  6.183402E+05  5.908964E+05  1.213819E+05  1.923426E-10 -6.687413E-09
       335  18  2.639479E+06  8.307221E+05  8.015734E+05  4.720846E+05  4.271978E-10 -1.038989E-08
       335  19 -2.349264E+06 -3.925982E+05 -3.869790E+05  4.794558E+05  1.469780E+04 -4.005369E+04
       335  20 -3.261292E+06 -6.194028E+05 -6.090822E+05  1.285205E+05  4.930999E+03 -7.553128E+04
       335  21 -4.166464E+06 -8.598116E+05 -8.389281E+05  4.911722E+05 -4.979256E+03 -9.995571E+04
       335  22 -7.680080E+05  9.304059E+02 -3.467730E+03  4.816806E+05 -4.925770E+03 -4.005896E+04
       335  23 -7.719351E+05 -3.015803E+02 -8.865837E+03  1.249585E+05 -9.415933E+03 -7.549330E+04
       335  24 -7.687958E+05 -1.411639E+04 -1.825373E+04  4.816542E+05 -1.406365E+04 -9.989646E+04
       335  25  8.155402E+05  3.942754E+05  3.798645E+05  4.839100E+05 -2.459930E+04 -4.006435E+04
       335  26  1.723114E+06  6.183464E+05  5.909082E+05  1.213833E+05 -2.382036E+04 -7.545525E+04
       335  27  2.639482E+06  8.307329E+05  8.015932E+05  4.720864E+05 -2.319769E+04 -9.983713E+04
       336   1 -5.450798E+06 -1.168574E+06 -1.151456E+06  4.842081E+05 -3.345021E+04  1.421899E+05
       336   2 -6.353174E+06 -1.388075E+06 -1.383910E+06  1.684053E+05  5.748163E+04  1.742482E+05
       336   3 -7.237198E+06 -1.701079E+06 -1.688478E+06  5.506673E+05  1.469081E+05  5.908619E+04
       336   4 -7.665909E+05 -2.079021E+03 -2.045311E+04  4.783855E+05  1.719066E+04  1.419141E+05
       336   5 -7.826090E+05  3.176374E+01 -3.981268E+04  1.291672E+05  3.823708E+04  1.742945E+05
       336   6 -7.683482E+05 -7.856150E+04 -8.217913E+04  4.776797E+05  5.791741E+04  6.002837E+04
       336   7  3.937816E+06  1.162809E+06  1.108987E+06  4.725315E+05  6.821448E+04  1.416385E+05
       336   8  4.816551E+06  1.385868E+06  1.302065E+06  8.962600E+04  1.881792E+04  1.743433E+05
       336   9  5.738829E+06  1.540821E+06  1.521020E+06  4.040160E+05 -3.201074E+04  6.098712E+04
       336  10 -5.450805E+06 -1.168596E+06 -1.151496E+06  4.842120E+05  1.600649E-09  6.026000E-09
       336  11 -6.353186E+06 -1.388109E+06 -1.383974E+06  1.683972E+05  2.484266E-09 -2.785888E-09
       336  12 -7.237222E+06 -1.701089E+06 -1.688526E+06  5.506603E+05 -2.256453E-09 -2.952087E-09
       336  13 -7.665966E+05 -2.100717E+03 -2.049149E+04  4.783836E+05 -4.250696E-11 -2.590065E-09
       336  14 -7.826187E+05 -1.237933E+00 -3.987249E+04  1.291619E+05  5.708011E-09  1.794875E-08
       336  15 -7.683528E+05 -7.856627E+04 -8.219220E+04  4.776769E+05  2.602936E-10  1.766499E-08
       336  16  3.937806E+06  1.162786E+06  1.108940E+06  4.725237E+05  4.649504E-12 -4.526603E-10
       336  17  4.816542E+06  1.385835E+06  1.302007E+06  8.962337E+04  2.142871E-09 -1.417267E-08
       336  18  5.738827E+06  1.540816E+06  1.521011E+06  4.040176E+05 -1.588779E-09 -6.251023E-09
       336  19 -5.450798E+06 -1.168574E+06 -1.151456E+06  4.842081E+05  3.345021E+04 -1.421899E+05
       336  20 -6.353174E+06 -1.388075E+06 -1.383910E+06  1.684053E+05 -5.748163E+04 -1.742482E+05
       336  21 -7.237198E+06 -1.701079E+06 -1.688478E+06  5.506673E+05 -1.469081E+05 -5.908619E+04
       336  22 -7.665909E+05 -2.079021E+03 -2.045311E+04  4.783855E+05 -1.719066E+04 -1.419141E+05
       336  23 -7.826090E+05  3.176373E+01 -3.981268E+04  1.291672E+05 -3.823708E+04 -1.742945E+05
       336  24 -7.683482E+05 -7.856150E+04 -8.217913E+04  4.776797E+05 -5.791741E+04 -6.002837E+04
       336  25  3.937816E+06  1.162809E+06  1.108987E+06  4.725315E+05 -6.821448E+04 -1.416385E+05
       336  26  4.816551E+06  1.385868E+06  1.302065E+06  8.962600E+04 -1.881792E+04 -1.743433E+05
       336  27  5.738829E+06  1.540821E+06  1.521020E+06  4.040160E+05  3.201074E+04 -6.098712E+04
       337   1  1.495509E+06  4.452953E+05  4.549322E+05  2.081361E+05  4.703004E+04 -1.561114E+04
       337   2  1.080082E+06  3.130655E+05  3.248501E+05  4.854161E+04  1.859373E+04 -4.069499E+04
       337   3  6.881036E+05  2.136681E+05  2.235196E+05  2.038463E+05 -9.345068E+03 -2.524349E+04
       337   4 -1.971882E+05  2.343188E+04  3.680201E+04  2.151137E+05  2.501608E+04 -1.534132E+04
       337   5 -2.070731E+05 -6.113735E+03  1.586826E+04  5.746120E+04  1.609902E+04 -4.067135E+04
       337   6 -1.970175E+05 -6.157440E+03  1.018857E+04  2.147470E+05  7.661109E+03 -2.542925E+04
       337   7 -1.887283E+06 -3.986451E+05 -3.815389E+05  2.220798E+05  3.061900E+03 -1.507163E+04
       337   8 -1.492713E+06 -3.254133E+05 -2.932312E+05  6.636659E+04  1.360944E+04 -4.064777E+04
       337   9 -1.081422E+06 -2.260397E+05 -2.031974E+05  2.256338E+05  2.464314E+04 -2.561455E+04
       337  10  1.495506E+06  4.452945E+05  4.549276E+05  2.081367E+05 -1.037495E-08 -3.037636E-09
       337  11  1.080081E+06  3.130637E+05  3.248463E+05  4.854222E+04 -4.670008E-09  1.467631E-08
       337  12  6.881034E+05  2.136674E+05  2.235183E+05  2.038461E+05  6.085479E-09  1.246837E-08
       337  13 -1.971889E+05  2.343146E+04  3.680039E+04  2.151140E+05  8.271727E-10 -2.198733E-08
       337  14 -2.070738E+05 -6.115581E+03  1.586466E+04  5.746173E+04  7.136341E-09  8.485965E-09
       337  15 -1.970177E+05 -6.158151E+03  1.018724E+04  2.147471E+05 -9.507442E-10  2.138224E-08
       337  16 -1.887283E+06 -3.986453E+05 -3.815393E+05  2.220799E+05  9.610459E-09 -3.978897E-09
       337  17 -1.492713E+06 -3.254151E+05 -2.932346E+05  6.636703E+04  1.291310E-08  4.630894E-08
       337  18 -1.081422E+06 -2.260406E+05 -2.031997E+05  2.256343E+05 -1.043461E-08  2.709279E-08
       337  19  1.495509E+06  4.452953E+05  4.549322E+05  2.081361E+05 -4.703004E+04  1.561114E+04
       337  20  1.080082E+06  3.130655E+05  3.248501E+05  4.854161E+04 -1.859373E+04  4.069499E+04
       337  21  6.881036E+05  2.136681E+05  2.235196E+05  2.038463E+05  9.345068E+03  2.524349E+04
       337  22 -1.971882E+05  2.343188E+04  3.680201E+04  2.151137E+05 -2.501608E+04  1.534132E+04
       337  23 -2.070731E+05 -6.113735E+03  1.586826E+04  5.746120E+04 -1.609902E+04  4.067135E+04
       337  24 -1.970175E+05 -6.157440E+03  1.018857E+04  2.147470E+05 -7.661109E+03  2.542925E+04
       337  25 -1.887283E+06 -3.986451E+05 -3.815389E+05  2.220798E+05 -3.061900E+03  1.507163E+04
       337  26 -1.492713E+06 -3.254133E+05 -2.932312E+05  6.636659E+04 -1.360944E+04  4.064777E+04
       337  27 -1.081422E+06 -2.260397E+05 -2.031974E+05  2.256338E+05 -2.464314E+04  2.561455E+04
       338   1  1.104102E+05  7.525941E+04  8.250176E+04  2.134026E+05  7.333740E+02 -1.011663E+04
       338   2 -2.971399E+05 -2.487795E+04 -1.849189E+04  5.808193E+04 -2.535948E+03  2.724062E+03
       338   3 -6.962632E+05 -1.283653E+05 -1.164037E+05  2.188247E+05 -5.769414E+03  1.831857E+04
       338   4 -1.994616E+05 -1.592891E+03  8.187391E+03  2.151355E+05  6.217254E+03 -1.017488E+04
       338   5 -2.034963E+05 -1.612307E+03  4.086276E+03  5.708522E+04  4.269055E+03  2.650903E+03
       338   6 -1.994756E+05 -5.197625E+03  2.162826E+03  2.150969E+05  2.354543E+03  1.823084E+04
       338   7 -5.092454E+05 -7.845214E+04 -6.613368E+04  2.168677E+05  1.169841E+04 -1.023311E+04
       338   8 -1.098446E+05  2.165273E+04  2.666399E+04  5.608839E+04  1.107508E+04  2.577727E+03
       338   9  2.975388E+05  1.179522E+05  1.207122E+05  2.113667E+05  1.048498E+04  1.814305E+04
       338  10  1.104102E+05  7.525930E+04  8.250157E+04  2.134026E+05  1.171329E-08  5.622730E-09
       338  11 -2.971399E+05 -2.487796E+04 -1.849191E+04  5.808193E+04  1.397965E-10  2.665514E-08
       338  12 -6.962633E+05 -1.283657E+05 -1.164043E+05  2.188248E+05 -1.285344E-08  3.367988E-09
       338  13 -1.994617E+05 -1.593012E+03  8.187123E+03  2.151355E+05  1.160576E-09  8.916656E-09
       338  14 -2.034963E+05 -1.612320E+03  4.086229E+03  5.708522E+04  6.449515E-09 -1.300052E-09
       338  15 -1.994757E+05 -5.197983E+03  2.162191E+03  2.150969E+05 -5.976598E-10 -1.538784E-08
       338  16 -5.092456E+05 -7.845229E+04 -6.613413E+04  2.168678E+05 -1.124424E-08 -1.265790E-08
       338  17 -1.098447E+05  2.165269E+04  2.666374E+04  5.608837E+04  8.251392E-09  1.714212E-08
       338  18  2.975385E+05  1.179519E+05  1.207114E+05  2.113665E+05  9.904916E-09 -3.055580E-08
       338  19  1.104102E+05  7.525941E+04  8.250176E+04  2.134026E+05 -7.333740E+02  1.011663E+04
       338  20 -2.971399E+05 -2.487795E+04 -1.849189E+04  5.808193E+04  2.535948E+03 -2.724062E+03
       338  21 -6.962632E+05 -1.283653E+05 -1.164037E+05  2.188247E+05  5.769414E+03 -1.831857E+04
       338  22 -1.994616E+05 -1.592891E+03  8.187391E+03  2.151355E+05 -6.217254E+03  1.017488E+04
       338  23 -2.034963E+05 -1.612307E+03  4.086276E+03  5.708522E+04 -4.269055E+03 -2.650903E+03
       338  24 -1.994756E+05 -5.197625E+03  2.162826E+03  2.150969E+05 -2.354543E+03 -1.823084E+04
       338  25 -5.092454E+05 -7.845214E+04 -6.613368E+04  2.168677E+05 -1.169841E+04  1.023311E+04
       338  26 -1.098446E+05  2.165273E+04  2.666399E+04  5.608839E+04 -1.107508E+04 -2.577727E+03
       338  27  2.975388E+05  1.179522E+05  1.207122E+05  2.113667E+05 -1.048498E+04 -1.814305E+04
       339   1 -1.270343E+06 -2.706743E+05 -2.572823E+05  2.236593E+05 -6.744826E+03  2.897799E+04
       339   2 -1.677505E+06 -3.678202E+05 -3.546281E+05  7.082680E+04 -4.020683E+03  4.464658E+04
       339   3 -2.074664E+06 -4.735924E+05 -4.533366E+05  2.333840E+05 -1.319851E+03  5.480386E+04
       339   4 -1.992286E+05 -4.350407E+03  1.721864E+03  2.149617E+05  2.098349E+03  2.887774E+04
       339   5 -2.044893E+05 -1.733424E+03  1.438839E+02  5.727245E+04  2.181243E+03  4.456503E+04
       339   6 -1.994336E+05 -7.267008E+03 -9.485939E+02  2.149291E+05  2.242536E+03  5.474726E+04
       339   7  8.729365E+05  2.618896E+05  2.606439E+05  2.062518E+05  1.095675E+04  2.877732E+04
       339   8  1.270516E+06  3.641953E+05  3.547612E+05  4.369161E+04  8.397859E+03  4.448330E+04
       339   9  1.679021E+06  4.588019E+05  4.511879E+05  1.964278E+05  5.815669E+03  5.469055E+04
       339  10 -1.270343E+06 -2.706752E+05 -2.572839E+05  2.236594E+05 -2.760567E-08  1.023343E-11
       339  11 -1.677505E+06 -3.678223E+05 -3.546319E+05  7.082694E+04 -2.012221E-09 -2.292990E-08
       339  12 -2.074665E+06 -4.735956E+05 -4.533423E+05  2.333840E+05  1.941020E-09  2.003858E-08
       339  13 -1.992288E+05 -4.351304E+03  1.720289E+03  2.149617E+05  2.487403E-09  1.882476E-08
       339  14 -2.044898E+05 -1.735558E+03  1.401432E+02  5.727237E+04  9.086807E-09 -2.030462E-08
       339  15 -1.994344E+05 -7.270227E+03 -9.542351E+02  2.149290E+05  3.257001E-10  9.234882E-10
       339  16  8.729361E+05  2.618887E+05  2.606421E+05  2.062515E+05  2.761825E-08  4.033413E-09
       339  17  1.270515E+06  3.641932E+05  3.547573E+05  4.369131E+04  8.577798E-09  5.847927E-08
       339  18  1.679020E+06  4.587986E+05  4.511822E+05  1.964276E+05 -6.176487E-09 -1.291384E-08
       339  19 -1.270343E+06 -2.706743E+05 -2.572823E+05  2.236593E+05  6.744826E+03 -2.897799E+04
       339  20 -1.677505E+06 -3.678202E+05 -3.546281E+05  7.082680E+04  4.020683E+03 -4.464658E+04
       339  21 -2.074664E+06 -4.735924E+05 -4.533366E+05  2.333840E+05  1.319851E+03 -5.480386E+04
       339  22 -1.992286E+05 -4.350407E+03  1.721864E+03  2.149617E+05 -2.098349E+03 -2.887774E+04
       339  23 -2.044893E+05 -1.733424E+03  1.438839E+02  5.727245E+04 -2.181243E+03 -4.456503E+04
       339  24 -1.994336E+05 -7.267008E+03 -9.485939E+02  2.149291E+05 -2.242536E+03 -5.474726E+04
       339  25  8.729365E+05  2.618896E+05  2.606439E+05  2.062518E+05 -1.095675E+04 -2.877732E+04
       339  26  1.270516E+06  3.641953E+05  3.547612E+05  4.369161E+04 -8.397859E+03 -4.448330E+04
       339  27  1.679021E+06  4.588019E+05  4.511879E+05  1.964278E+05 -5.815669E+03 -5.469055E+04
       340   1 -2.645459E+06 -6.145608E+05 -5.905849E+05  2.385674E+05 -2.169318E+04  7.484502E+04
       340   2 -3.052150E+06 -7.105767E+05 -6.885738E+05  9.207526E+04  1.516067E+04  8.868386E+04
       340   3 -3.446004E+06 -8.259541E+05 -8.108259E+05  2.575109E+05  5.079615E+04  2.974279E+04
       340   4 -1.982540E+05 -5.969060E+03 -9.521460E+02  2.141969E+05  2.579023E+03  7.449491E+04
       340   5 -2.078430E+05 -2.994406E+03 -3.754458E+03  5.821935E+04  4.654778E+03  8.882025E+04
       340   6 -1.986489E+05 -1.327561E+04 -6.577630E+03  2.140882E+05  5.539024E+03  3.051182E+04
       340   7  2.254448E+06  6.021865E+05  5.882552E+05  1.897473E+05  2.694686E+04  7.414359E+04
       340   8  2.643893E+06  7.039993E+05  6.804883E+05  2.423555E+04 -5.899278E+03  8.895750E+04
       340   9  3.058328E+06  7.986168E+05  7.968929E+05  1.704769E+05 -3.995569E+04  3.128522E+04
       340  10 -2.645461E+06 -6.145669E+05 -5.905963E+05  2.385687E+05 -2.257298E-08  1.994703E-08
       340  11 -3.052152E+06 -7.105852E+05 -6.885890E+05  9.207418E+04 -2.343647E-08 -1.227329E-09
       340  12 -3.446007E+06 -8.259558E+05 -8.108324E+05  2.575097E+05 -2.078529E-08 -4.260042E-08
       340  13 -1.982555E+05 -5.975020E+03 -9.625859E+02  2.141967E+05 -1.252719E-09 -1.261952E-08
       340  14 -2.078452E+05 -3.002882E+03 -3.769322E+03  5.821902E+04  8.852849E-09 -1.363718E-08
       340  15 -1.986492E+05 -1.327662E+04 -6.579436E+03  2.140881E+05 -4.476876E-10 -2.780472E-08
       340  16  2.254446E+06  6.021804E+05  5.882435E+05  1.897457E+05  2.286949E-08 -3.107408E-08
       340  17  2.643891E+06  7.039908E+05  6.804733E+05  2.423598E+04  3.170834E-08 -3.474942E-08
       340  18  3.058326E+06  7.986154E+05  7.968880E+05  1.704779E+05  9.611166E-09  5.570715E-09
       340  19 -2.645459E+06 -6.145608E+05 -5.905849E+05  2.385674E+05  2.169318E+04 -7.484502E+04
       340  20 -3.052150E+06 -7.105767E+05 -6.885738E+05  9.207526E+04 -1.516067E+04 -8.868386E+04
       340  21 -3.446004E+06 -8.259541E+05 -8.108259E+05  2.575109E+05 -5.079615E+04 -2.974279E+04
       340  22 -1.982540E+05 -5.969060E+03 -9.521460E+02  2.141969E+05 -2.579023E+03 -7.449491E+04
       340  23 -2.078430E+05 -2.994406E+03 -3.754458E+03  5.821935E+04 -4.654778E+03 -8.882025E+04
       340  24 -1.986489E+05 -1.327561E+04 -6.577630E+03  2.140882E+05 -5.539024E+03 -3.051182E+04
       340  25  2.254448E+06  6.021865E+05  5.882552E+05  1.897473E+05 -2.694686E+04 -7.414359E+04
       340  26  2.643893E+06  7.039993E+05  6.804883E+05  2.423555E+04  5.899278E+03 -8.895750E+04
       340  27  3.058328E+06  7.986168E+05  7.968929E+05  1.704769E+05  3.995569E+04 -3.128522E+04
