    1C
    1UUSER                                                              
    1UDATE              12.september.2022                               
    1UTIME              21:48:31                                        
    1UHOST                                                              
    1UPGM               CalculiX                                        
    1UVERSION           Version 2.19                             
    1UCOMPILETIME       Fri Dec 17 13:15:26 CET 2021                    
    1UDIR                                                               
    1UDBN                                                               
    1UMAT    1MESH_MATERIAL                                             
    2C                          1001                                     1
 -1         1 0.00000E+00 0.00000E+00 0.00000E+00
 -1         2 8.33333E-03 0.00000E+00 0.00000E+00
 -1         3 1.66667E-02 0.00000E+00 0.00000E+00
 -1         4 2.50000E-02 0.00000E+00 0.00000E+00
 -1         5 3.33333E-02 0.00000E+00 0.00000E+00
 -1         6 4.16667E-02 0.00000E+00 0.00000E+00
 -1         7 5.00000E-02 0.00000E+00 0.00000E+00
 -1         8 5.83333E-02 0.00000E+00 0.00000E+00
 -1         9 6.66667E-02 0.00000E+00 0.00000E+00
 -1        14 0.00000E+00 6.25000E-03 0.00000E+00
 -1        15 8.33333E-03 6.25000E-03 0.00000E+00
 -1        16 1.66667E-02 6.25000E-03 0.00000E+00
 -1        17 2.50000E-02 6.25000E-03 0.00000E+00
 -1        18 3.33333E-02 6.25000E-03 0.00000E+00
 -1        19 4.16667E-02 6.25000E-03 0.00000E+00
 -1        20 5.00000E-02 6.25000E-03 0.00000E+00
 -1        21 5.83333E-02 6.25000E-03 0.00000E+00
 -1        22 6.66667E-02 6.25000E-03 0.00000E+00
 -1        27 0.00000E+00 1.25000E-02 0.00000E+00
 -1        28 8.33333E-03 1.25000E-02 0.00000E+00
 -1        29 1.66667E-02 1.25000E-02 0.00000E+00
 -1        30 2.50000E-02 1.25000E-02 0.00000E+00
 -1        31 3.33333E-02 1.25000E-02 0.00000E+00
 -1        32 4.16667E-02 1.25000E-02 0.00000E+00
 -1        33 5.00000E-02 1.25000E-02 0.00000E+00
 -1        34 5.83333E-02 1.25000E-02 0.00000E+00
 -1        35 6.66667E-02 1.25000E-02 0.00000E+00
 -1        36 7.50000E-02 1.25000E-02 0.00000E+00
 -1        37 8.33333E-02 1.25000E-02 0.00000E+00
 -1        38 9.16667E-02 1.25000E-02 0.00000E+00
 -1        39 1.00000E-01 1.25000E-02 0.00000E+00
 -1        40 0.00000E+00 1.87500E-02 0.00000E+00
 -1        41 8.33333E-03 1.87500E-02 0.00000E+00
 -1        42 1.66667E-02 1.87500E-02 0.00000E+00
 -1        43 2.50000E-02 1.87500E-02 0.00000E+00
 -1        44 3.33333E-02 1.87500E-02 0.00000E+00
 -1        45 4.16667E-02 1.87500E-02 0.00000E+00
 -1        46 5.00000E-02 1.87500E-02 0.00000E+00
 -1        47 5.83333E-02 1.87500E-02 0.00000E+00
 -1        48 6.66667E-02 1.87500E-02 0.00000E+00
 -1        49 7.50000E-02 1.87500E-02 0.00000E+00
 -1        50 8.33333E-02 1.87500E-02 0.00000E+00
 -1        51 9.16667E-02 1.87500E-02 0.00000E+00
 -1        52 1.00000E-01 1.87500E-02 0.00000E+00
 -1        53 0.00000E+00 2.50000E-02 0.00000E+00
 -1        54 8.33333E-03 2.50000E-02 0.00000E+00
 -1        55 1.66667E-02 2.50000E-02 0.00000E+00
 -1        56 2.50000E-02 2.50000E-02 0.00000E+00
 -1        57 3.33333E-02 2.50000E-02 0.00000E+00
 -1        58 4.16667E-02 2.50000E-02 0.00000E+00
 -1        59 5.00000E-02 2.50000E-02 0.00000E+00
 -1        60 5.83333E-02 2.50000E-02 0.00000E+00
 -1        61 6.66667E-02 2.50000E-02 0.00000E+00
 -1        62 7.50000E-02 2.50000E-02 0.00000E+00
 -1        63 8.33333E-02 2.50000E-02 0.00000E+00
 -1        64 9.16667E-02 2.50000E-02 0.00000E+00
 -1        65 1.00000E-01 2.50000E-02 0.00000E+00
 -1        66 1.04167E-03 0.00000E+00 0.00000E+00
 -1        67 2.08333E-03 0.00000E+00 0.00000E+00
 -1        68 3.12500E-03 0.00000E+00 0.00000E+00
 -1        69 4.16667E-03 0.00000E+00 0.00000E+00
 -1        70 5.20833E-03 0.00000E+00 0.00000E+00
 -1        71 6.25000E-03 0.00000E+00 0.00000E+00
 -1        72 7.29167E-03 0.00000E+00 0.00000E+00
 -1        73 0.00000E+00 1.04167E-03 0.00000E+00
 -1        74 0.00000E+00 2.08333E-03 0.00000E+00
 -1        75 0.00000E+00 3.12500E-03 0.00000E+00
 -1        76 0.00000E+00 4.16667E-03 0.00000E+00
 -1        77 0.00000E+00 5.20833E-03 0.00000E+00
 -1        78 8.33330E-04 6.25000E-04 0.00000E+00
 -1        79 1.66667E-03 1.25000E-03 0.00000E+00
 -1        80 2.50000E-03 1.87500E-03 0.00000E+00
 -1        81 3.33333E-03 2.50000E-03 0.00000E+00
 -1        82 4.16667E-03 3.12500E-03 0.00000E+00
 -1        83 5.00000E-03 3.75000E-03 0.00000E+00
 -1        84 5.83333E-03 4.37500E-03 0.00000E+00
 -1        85 6.66667E-03 5.00000E-03 0.00000E+00
 -1        86 7.50000E-03 5.62500E-03 0.00000E+00
 -1        87 9.37500E-03 0.00000E+00 0.00000E+00
 -1        88 1.04167E-02 0.00000E+00 0.00000E+00
 -1        89 1.14583E-02 0.00000E+00 0.00000E+00
 -1        90 1.25000E-02 0.00000E+00 0.00000E+00
 -1        91 1.35417E-02 0.00000E+00 0.00000E+00
 -1        92 1.45833E-02 0.00000E+00 0.00000E+00
 -1        93 1.56250E-02 0.00000E+00 0.00000E+00
 -1        94 8.33333E-03 1.04167E-03 0.00000E+00
 -1        95 8.33333E-03 2.08333E-03 0.00000E+00
 -1        96 8.33333E-03 3.12500E-03 0.00000E+00
 -1        97 8.33333E-03 4.16667E-03 0.00000E+00
 -1        98 8.33333E-03 5.20833E-03 0.00000E+00
 -1        99 9.16667E-03 6.25000E-04 0.00000E+00
 -1       100 1.00000E-02 1.25000E-03 0.00000E+00
 -1       101 1.08333E-02 1.87500E-03 0.00000E+00
 -1       102 1.16667E-02 2.50000E-03 0.00000E+00
 -1       103 1.25000E-02 3.12500E-03 0.00000E+00
 -1       104 1.33333E-02 3.75000E-03 0.00000E+00
 -1       105 1.41667E-02 4.37500E-03 0.00000E+00
 -1       106 1.50000E-02 5.00000E-03 0.00000E+00
 -1       107 1.58333E-02 5.62500E-03 0.00000E+00
 -1       108 1.77083E-02 0.00000E+00 0.00000E+00
 -1       109 1.87500E-02 0.00000E+00 0.00000E+00
 -1       110 1.97917E-02 0.00000E+00 0.00000E+00
 -1       111 2.08333E-02 0.00000E+00 0.00000E+00
 -1       112 2.18750E-02 0.00000E+00 0.00000E+00
 -1       113 2.29167E-02 0.00000E+00 0.00000E+00
 -1       114 2.39583E-02 0.00000E+00 0.00000E+00
 -1       115 1.66667E-02 1.04167E-03 0.00000E+00
 -1       116 1.66667E-02 2.08333E-03 0.00000E+00
 -1       117 1.66667E-02 3.12500E-03 0.00000E+00
 -1       118 1.66667E-02 4.16667E-03 0.00000E+00
 -1       119 1.66667E-02 5.20833E-03 0.00000E+00
 -1       120 1.75000E-02 6.25000E-04 0.00000E+00
 -1       121 1.83333E-02 1.25000E-03 0.00000E+00
 -1       122 1.91667E-02 1.87500E-03 0.00000E+00
 -1       123 2.00000E-02 2.50000E-03 0.00000E+00
 -1       124 2.08333E-02 3.12500E-03 0.00000E+00
 -1       125 2.16667E-02 3.75000E-03 0.00000E+00
 -1       126 2.25000E-02 4.37500E-03 0.00000E+00
 -1       127 2.33333E-02 5.00000E-03 0.00000E+00
 -1       128 2.41667E-02 5.62500E-03 0.00000E+00
 -1       129 2.60417E-02 0.00000E+00 0.00000E+00
 -1       130 2.70833E-02 0.00000E+00 0.00000E+00
 -1       131 2.81250E-02 0.00000E+00 0.00000E+00
 -1       132 2.91667E-02 0.00000E+00 0.00000E+00
 -1       133 3.02083E-02 0.00000E+00 0.00000E+00
 -1       134 3.12500E-02 0.00000E+00 0.00000E+00
 -1       135 3.22917E-02 0.00000E+00 0.00000E+00
 -1       136 2.50000E-02 1.04167E-03 0.00000E+00
 -1       137 2.50000E-02 2.08333E-03 0.00000E+00
 -1       138 2.50000E-02 3.12500E-03 0.00000E+00
 -1       139 2.50000E-02 4.16667E-03 0.00000E+00
 -1       140 2.50000E-02 5.20833E-03 0.00000E+00
 -1       141 2.58333E-02 6.25000E-04 0.00000E+00
 -1       142 2.66667E-02 1.25000E-03 0.00000E+00
 -1       143 2.75000E-02 1.87500E-03 0.00000E+00
 -1       144 2.83333E-02 2.50000E-03 0.00000E+00
 -1       145 2.91667E-02 3.12500E-03 0.00000E+00
 -1       146 3.00000E-02 3.75000E-03 0.00000E+00
 -1       147 3.08333E-02 4.37500E-03 0.00000E+00
 -1       148 3.16667E-02 5.00000E-03 0.00000E+00
 -1       149 3.25000E-02 5.62500E-03 0.00000E+00
 -1       150 3.43750E-02 0.00000E+00 0.00000E+00
 -1       151 3.54167E-02 0.00000E+00 0.00000E+00
 -1       152 3.64583E-02 0.00000E+00 0.00000E+00
 -1       153 3.75000E-02 0.00000E+00 0.00000E+00
 -1       154 3.85417E-02 0.00000E+00 0.00000E+00
 -1       155 3.95833E-02 0.00000E+00 0.00000E+00
 -1       156 4.06250E-02 0.00000E+00 0.00000E+00
 -1       157 3.33333E-02 1.04167E-03 0.00000E+00
 -1       158 3.33333E-02 2.08333E-03 0.00000E+00
 -1       159 3.33333E-02 3.12500E-03 0.00000E+00
 -1       160 3.33333E-02 4.16667E-03 0.00000E+00
 -1       161 3.33333E-02 5.20833E-03 0.00000E+00
 -1       162 3.41667E-02 6.25000E-04 0.00000E+00
 -1       163 3.50000E-02 1.25000E-03 0.00000E+00
 -1       164 3.58333E-02 1.87500E-03 0.00000E+00
 -1       165 3.66667E-02 2.50000E-03 0.00000E+00
 -1       166 3.75000E-02 3.12500E-03 0.00000E+00
 -1       167 3.83333E-02 3.75000E-03 0.00000E+00
 -1       168 3.91667E-02 4.37500E-03 0.00000E+00
 -1       169 4.00000E-02 5.00000E-03 0.00000E+00
 -1       170 4.08333E-02 5.62500E-03 0.00000E+00
 -1       171 4.27083E-02 0.00000E+00 0.00000E+00
 -1       172 4.37500E-02 0.00000E+00 0.00000E+00
 -1       173 4.47917E-02 0.00000E+00 0.00000E+00
 -1       174 4.58333E-02 0.00000E+00 0.00000E+00
 -1       175 4.68750E-02 0.00000E+00 0.00000E+00
 -1       176 4.79167E-02 0.00000E+00 0.00000E+00
 -1       177 4.89583E-02 0.00000E+00 0.00000E+00
 -1       178 4.16667E-02 1.04167E-03 0.00000E+00
 -1       179 4.16667E-02 2.08333E-03 0.00000E+00
 -1       180 4.16667E-02 3.12500E-03 0.00000E+00
 -1       181 4.16667E-02 4.16667E-03 0.00000E+00
 -1       182 4.16667E-02 5.20833E-03 0.00000E+00
 -1       183 4.25000E-02 6.25000E-04 0.00000E+00
 -1       184 4.33333E-02 1.25000E-03 0.00000E+00
 -1       185 4.41667E-02 1.87500E-03 0.00000E+00
 -1       186 4.50000E-02 2.50000E-03 0.00000E+00
 -1       187 4.58333E-02 3.12500E-03 0.00000E+00
 -1       188 4.66667E-02 3.75000E-03 0.00000E+00
 -1       189 4.75000E-02 4.37500E-03 0.00000E+00
 -1       190 4.83333E-02 5.00000E-03 0.00000E+00
 -1       191 4.91667E-02 5.62500E-03 0.00000E+00
 -1       192 5.10417E-02 0.00000E+00 0.00000E+00
 -1       193 5.20833E-02 0.00000E+00 0.00000E+00
 -1       194 5.31250E-02 0.00000E+00 0.00000E+00
 -1       195 5.41667E-02 0.00000E+00 0.00000E+00
 -1       196 5.52083E-02 0.00000E+00 0.00000E+00
 -1       197 5.62500E-02 0.00000E+00 0.00000E+00
 -1       198 5.72917E-02 0.00000E+00 0.00000E+00
 -1       199 5.00000E-02 1.04167E-03 0.00000E+00
 -1       200 5.00000E-02 2.08333E-03 0.00000E+00
 -1       201 5.00000E-02 3.12500E-03 0.00000E+00
 -1       202 5.00000E-02 4.16667E-03 0.00000E+00
 -1       203 5.00000E-02 5.20833E-03 0.00000E+00
 -1       204 5.08333E-02 6.25000E-04 0.00000E+00
 -1       205 5.16667E-02 1.25000E-03 0.00000E+00
 -1       206 5.25000E-02 1.87500E-03 0.00000E+00
 -1       207 5.33333E-02 2.50000E-03 0.00000E+00
 -1       208 5.41667E-02 3.12500E-03 0.00000E+00
 -1       209 5.50000E-02 3.75000E-03 0.00000E+00
 -1       210 5.58333E-02 4.37500E-03 0.00000E+00
 -1       211 5.66667E-02 5.00000E-03 0.00000E+00
 -1       212 5.75000E-02 5.62500E-03 0.00000E+00
 -1       213 5.93750E-02 0.00000E+00 0.00000E+00
 -1       214 6.04167E-02 0.00000E+00 0.00000E+00
 -1       215 6.14583E-02 0.00000E+00 0.00000E+00
 -1       216 6.25000E-02 0.00000E+00 0.00000E+00
 -1       217 6.35417E-02 0.00000E+00 0.00000E+00
 -1       218 6.45833E-02 0.00000E+00 0.00000E+00
 -1       219 6.56250E-02 0.00000E+00 0.00000E+00
 -1       220 5.83333E-02 1.04167E-03 0.00000E+00
 -1       221 5.83333E-02 2.08333E-03 0.00000E+00
 -1       222 5.83333E-02 3.12500E-03 0.00000E+00
 -1       223 5.83333E-02 4.16667E-03 0.00000E+00
 -1       224 5.83333E-02 5.20833E-03 0.00000E+00
 -1       225 5.91667E-02 6.25000E-04 0.00000E+00
 -1       226 6.00000E-02 1.25000E-03 0.00000E+00
 -1       227 6.08333E-02 1.87500E-03 0.00000E+00
 -1       228 6.16667E-02 2.50000E-03 0.00000E+00
 -1       229 6.25000E-02 3.12500E-03 0.00000E+00
 -1       230 6.33333E-02 3.75000E-03 0.00000E+00
 -1       231 6.41667E-02 4.37500E-03 0.00000E+00
 -1       232 6.50000E-02 5.00000E-03 0.00000E+00
 -1       233 6.58333E-02 5.62500E-03 0.00000E+00
 -1       241 6.66667E-02 1.04167E-03 0.00000E+00
 -1       242 6.66667E-02 2.08333E-03 0.00000E+00
 -1       243 6.66667E-02 3.12500E-03 0.00000E+00
 -1       244 6.66667E-02 4.16667E-03 0.00000E+00
 -1       245 6.66667E-02 5.20833E-03 0.00000E+00
 -1       323 1.04167E-03 6.25000E-03 0.00000E+00
 -1       324 2.08333E-03 6.25000E-03 0.00000E+00
 -1       325 3.12500E-03 6.25000E-03 0.00000E+00
 -1       326 4.16667E-03 6.25000E-03 0.00000E+00
 -1       327 5.20833E-03 6.25000E-03 0.00000E+00
 -1       328 6.25000E-03 6.25000E-03 0.00000E+00
 -1       329 7.29167E-03 6.25000E-03 0.00000E+00
 -1       330 0.00000E+00 7.29167E-03 0.00000E+00
 -1       331 0.00000E+00 8.33333E-03 0.00000E+00
 -1       332 0.00000E+00 9.37500E-03 0.00000E+00
 -1       333 0.00000E+00 1.04167E-02 0.00000E+00
 -1       334 0.00000E+00 1.14583E-02 0.00000E+00
 -1       335 8.33330E-04 6.87500E-03 0.00000E+00
 -1       336 1.66667E-03 7.50000E-03 0.00000E+00
 -1       337 2.50000E-03 8.12500E-03 0.00000E+00
 -1       338 3.33333E-03 8.75000E-03 0.00000E+00
 -1       339 4.16667E-03 9.37500E-03 0.00000E+00
 -1       340 5.00000E-03 1.00000E-02 0.00000E+00
 -1       341 5.83333E-03 1.06250E-02 0.00000E+00
 -1       342 6.66667E-03 1.12500E-02 0.00000E+00
 -1       343 7.50000E-03 1.18750E-02 0.00000E+00
 -1       344 9.37500E-03 6.25000E-03 0.00000E+00
 -1       345 1.04167E-02 6.25000E-03 0.00000E+00
 -1       346 1.14583E-02 6.25000E-03 0.00000E+00
 -1       347 1.25000E-02 6.25000E-03 0.00000E+00
 -1       348 1.35417E-02 6.25000E-03 0.00000E+00
 -1       349 1.45833E-02 6.25000E-03 0.00000E+00
 -1       350 1.56250E-02 6.25000E-03 0.00000E+00
 -1       351 8.33333E-03 7.29167E-03 0.00000E+00
 -1       352 8.33333E-03 8.33333E-03 0.00000E+00
 -1       353 8.33333E-03 9.37500E-03 0.00000E+00
 -1       354 8.33333E-03 1.04167E-02 0.00000E+00
 -1       355 8.33333E-03 1.14583E-02 0.00000E+00
 -1       356 9.16667E-03 6.87500E-03 0.00000E+00
 -1       357 1.00000E-02 7.50000E-03 0.00000E+00
 -1       358 1.08333E-02 8.12500E-03 0.00000E+00
 -1       359 1.16667E-02 8.75000E-03 0.00000E+00
 -1       360 1.25000E-02 9.37500E-03 0.00000E+00
 -1       361 1.33333E-02 1.00000E-02 0.00000E+00
 -1       362 1.41667E-02 1.06250E-02 0.00000E+00
 -1       363 1.50000E-02 1.12500E-02 0.00000E+00
 -1       364 1.58333E-02 1.18750E-02 0.00000E+00
 -1       365 1.77083E-02 6.25000E-03 0.00000E+00
 -1       366 1.87500E-02 6.25000E-03 0.00000E+00
 -1       367 1.97917E-02 6.25000E-03 0.00000E+00
 -1       368 2.08333E-02 6.25000E-03 0.00000E+00
 -1       369 2.18750E-02 6.25000E-03 0.00000E+00
 -1       370 2.29167E-02 6.25000E-03 0.00000E+00
 -1       371 2.39583E-02 6.25000E-03 0.00000E+00
 -1       372 1.66667E-02 7.29167E-03 0.00000E+00
 -1       373 1.66667E-02 8.33333E-03 0.00000E+00
 -1       374 1.66667E-02 9.37500E-03 0.00000E+00
 -1       375 1.66667E-02 1.04167E-02 0.00000E+00
 -1       376 1.66667E-02 1.14583E-02 0.00000E+00
 -1       377 1.75000E-02 6.87500E-03 0.00000E+00
 -1       378 1.83333E-02 7.50000E-03 0.00000E+00
 -1       379 1.91667E-02 8.12500E-03 0.00000E+00
 -1       380 2.00000E-02 8.75000E-03 0.00000E+00
 -1       381 2.08333E-02 9.37500E-03 0.00000E+00
 -1       382 2.16667E-02 1.00000E-02 0.00000E+00
 -1       383 2.25000E-02 1.06250E-02 0.00000E+00
 -1       384 2.33333E-02 1.12500E-02 0.00000E+00
 -1       385 2.41667E-02 1.18750E-02 0.00000E+00
 -1       386 2.60417E-02 6.25000E-03 0.00000E+00
 -1       387 2.70833E-02 6.25000E-03 0.00000E+00
 -1       388 2.81250E-02 6.25000E-03 0.00000E+00
 -1       389 2.91667E-02 6.25000E-03 0.00000E+00
 -1       390 3.02083E-02 6.25000E-03 0.00000E+00
 -1       391 3.12500E-02 6.25000E-03 0.00000E+00
 -1       392 3.22917E-02 6.25000E-03 0.00000E+00
 -1       393 2.50000E-02 7.29167E-03 0.00000E+00
 -1       394 2.50000E-02 8.33333E-03 0.00000E+00
 -1       395 2.50000E-02 9.37500E-03 0.00000E+00
 -1       396 2.50000E-02 1.04167E-02 0.00000E+00
 -1       397 2.50000E-02 1.14583E-02 0.00000E+00
 -1       398 2.58333E-02 6.87500E-03 0.00000E+00
 -1       399 2.66667E-02 7.50000E-03 0.00000E+00
 -1       400 2.75000E-02 8.12500E-03 0.00000E+00
 -1       401 2.83333E-02 8.75000E-03 0.00000E+00
 -1       402 2.91667E-02 9.37500E-03 0.00000E+00
 -1       403 3.00000E-02 1.00000E-02 0.00000E+00
 -1       404 3.08333E-02 1.06250E-02 0.00000E+00
 -1       405 3.16667E-02 1.12500E-02 0.00000E+00
 -1       406 3.25000E-02 1.18750E-02 0.00000E+00
 -1       407 3.43750E-02 6.25000E-03 0.00000E+00
 -1       408 3.54167E-02 6.25000E-03 0.00000E+00
 -1       409 3.64583E-02 6.25000E-03 0.00000E+00
 -1       410 3.75000E-02 6.25000E-03 0.00000E+00
 -1       411 3.85417E-02 6.25000E-03 0.00000E+00
 -1       412 3.95833E-02 6.25000E-03 0.00000E+00
 -1       413 4.06250E-02 6.25000E-03 0.00000E+00
 -1       414 3.33333E-02 7.29167E-03 0.00000E+00
 -1       415 3.33333E-02 8.33333E-03 0.00000E+00
 -1       416 3.33333E-02 9.37500E-03 0.00000E+00
 -1       417 3.33333E-02 1.04167E-02 0.00000E+00
 -1       418 3.33333E-02 1.14583E-02 0.00000E+00
 -1       419 3.41667E-02 6.87500E-03 0.00000E+00
 -1       420 3.50000E-02 7.50000E-03 0.00000E+00
 -1       421 3.58333E-02 8.12500E-03 0.00000E+00
 -1       422 3.66667E-02 8.75000E-03 0.00000E+00
 -1       423 3.75000E-02 9.37500E-03 0.00000E+00
 -1       424 3.83333E-02 1.00000E-02 0.00000E+00
 -1       425 3.91667E-02 1.06250E-02 0.00000E+00
 -1       426 4.00000E-02 1.12500E-02 0.00000E+00
 -1       427 4.08333E-02 1.18750E-02 0.00000E+00
 -1       428 4.27083E-02 6.25000E-03 0.00000E+00
 -1       429 4.37500E-02 6.25000E-03 0.00000E+00
 -1       430 4.47917E-02 6.25000E-03 0.00000E+00
 -1       431 4.58333E-02 6.25000E-03 0.00000E+00
 -1       432 4.68750E-02 6.25000E-03 0.00000E+00
 -1       433 4.79167E-02 6.25000E-03 0.00000E+00
 -1       434 4.89583E-02 6.25000E-03 0.00000E+00
 -1       435 4.16667E-02 7.29167E-03 0.00000E+00
 -1       436 4.16667E-02 8.33333E-03 0.00000E+00
 -1       437 4.16667E-02 9.37500E-03 0.00000E+00
 -1       438 4.16667E-02 1.04167E-02 0.00000E+00
 -1       439 4.16667E-02 1.14583E-02 0.00000E+00
 -1       440 4.25000E-02 6.87500E-03 0.00000E+00
 -1       441 4.33333E-02 7.50000E-03 0.00000E+00
 -1       442 4.41667E-02 8.12500E-03 0.00000E+00
 -1       443 4.50000E-02 8.75000E-03 0.00000E+00
 -1       444 4.58333E-02 9.37500E-03 0.00000E+00
 -1       445 4.66667E-02 1.00000E-02 0.00000E+00
 -1       446 4.75000E-02 1.06250E-02 0.00000E+00
 -1       447 4.83333E-02 1.12500E-02 0.00000E+00
 -1       448 4.91667E-02 1.18750E-02 0.00000E+00
 -1       449 5.10417E-02 6.25000E-03 0.00000E+00
 -1       450 5.20833E-02 6.25000E-03 0.00000E+00
 -1       451 5.31250E-02 6.25000E-03 0.00000E+00
 -1       452 5.41667E-02 6.25000E-03 0.00000E+00
 -1       453 5.52083E-02 6.25000E-03 0.00000E+00
 -1       454 5.62500E-02 6.25000E-03 0.00000E+00
 -1       455 5.72917E-02 6.25000E-03 0.00000E+00
 -1       456 5.00000E-02 7.29167E-03 0.00000E+00
 -1       457 5.00000E-02 8.33333E-03 0.00000E+00
 -1       458 5.00000E-02 9.37500E-03 0.00000E+00
 -1       459 5.00000E-02 1.04167E-02 0.00000E+00
 -1       460 5.00000E-02 1.14583E-02 0.00000E+00
 -1       461 5.08333E-02 6.87500E-03 0.00000E+00
 -1       462 5.16667E-02 7.50000E-03 0.00000E+00
 -1       463 5.25000E-02 8.12500E-03 0.00000E+00
 -1       464 5.33333E-02 8.75000E-03 0.00000E+00
 -1       465 5.41667E-02 9.37500E-03 0.00000E+00
 -1       466 5.50000E-02 1.00000E-02 0.00000E+00
 -1       467 5.58333E-02 1.06250E-02 0.00000E+00
 -1       468 5.66667E-02 1.12500E-02 0.00000E+00
 -1       469 5.75000E-02 1.18750E-02 0.00000E+00
 -1       470 5.93750E-02 6.25000E-03 0.00000E+00
 -1       471 6.04167E-02 6.25000E-03 0.00000E+00
 -1       472 6.14583E-02 6.25000E-03 0.00000E+00
 -1       473 6.25000E-02 6.25000E-03 0.00000E+00
 -1       474 6.35417E-02 6.25000E-03 0.00000E+00
 -1       475 6.45833E-02 6.25000E-03 0.00000E+00
 -1       476 6.56250E-02 6.25000E-03 0.00000E+00
 -1       477 5.83333E-02 7.29167E-03 0.00000E+00
 -1       478 5.83333E-02 8.33333E-03 0.00000E+00
 -1       479 5.83333E-02 9.37500E-03 0.00000E+00
 -1       480 5.83333E-02 1.04167E-02 0.00000E+00
 -1       481 5.83333E-02 1.14583E-02 0.00000E+00
 -1       482 5.91667E-02 6.87500E-03 0.00000E+00
 -1       483 6.00000E-02 7.50000E-03 0.00000E+00
 -1       484 6.08333E-02 8.12500E-03 0.00000E+00
 -1       485 6.16667E-02 8.75000E-03 0.00000E+00
 -1       486 6.25000E-02 9.37500E-03 0.00000E+00
 -1       487 6.33333E-02 1.00000E-02 0.00000E+00
 -1       488 6.41667E-02 1.06250E-02 0.00000E+00
 -1       489 6.50000E-02 1.12500E-02 0.00000E+00
 -1       490 6.58333E-02 1.18750E-02 0.00000E+00
 -1       498 6.66667E-02 7.29167E-03 0.00000E+00
 -1       499 6.66667E-02 8.33333E-03 0.00000E+00
 -1       500 6.66667E-02 9.37500E-03 0.00000E+00
 -1       501 6.66667E-02 1.04167E-02 0.00000E+00
 -1       502 6.66667E-02 1.14583E-02 0.00000E+00
 -1       580 1.04167E-03 1.25000E-02 0.00000E+00
 -1       581 2.08333E-03 1.25000E-02 0.00000E+00
 -1       582 3.12500E-03 1.25000E-02 0.00000E+00
 -1       583 4.16667E-03 1.25000E-02 0.00000E+00
 -1       584 5.20833E-03 1.25000E-02 0.00000E+00
 -1       585 6.25000E-03 1.25000E-02 0.00000E+00
 -1       586 7.29167E-03 1.25000E-02 0.00000E+00
 -1       587 0.00000E+00 1.35417E-02 0.00000E+00
 -1       588 0.00000E+00 1.45833E-02 0.00000E+00
 -1       589 0.00000E+00 1.56250E-02 0.00000E+00
 -1       590 0.00000E+00 1.66667E-02 0.00000E+00
 -1       591 0.00000E+00 1.77083E-02 0.00000E+00
 -1       592 8.33330E-04 1.31250E-02 0.00000E+00
 -1       593 1.66667E-03 1.37500E-02 0.00000E+00
 -1       594 2.50000E-03 1.43750E-02 0.00000E+00
 -1       595 3.33333E-03 1.50000E-02 0.00000E+00
 -1       596 4.16667E-03 1.56250E-02 0.00000E+00
 -1       597 5.00000E-03 1.62500E-02 0.00000E+00
 -1       598 5.83333E-03 1.68750E-02 0.00000E+00
 -1       599 6.66667E-03 1.75000E-02 0.00000E+00
 -1       600 7.50000E-03 1.81250E-02 0.00000E+00
 -1       601 9.37500E-03 1.25000E-02 0.00000E+00
 -1       602 1.04167E-02 1.25000E-02 0.00000E+00
 -1       603 1.14583E-02 1.25000E-02 0.00000E+00
 -1       604 1.25000E-02 1.25000E-02 0.00000E+00
 -1       605 1.35417E-02 1.25000E-02 0.00000E+00
 -1       606 1.45833E-02 1.25000E-02 0.00000E+00
 -1       607 1.56250E-02 1.25000E-02 0.00000E+00
 -1       608 8.33333E-03 1.35417E-02 0.00000E+00
 -1       609 8.33333E-03 1.45833E-02 0.00000E+00
 -1       610 8.33333E-03 1.56250E-02 0.00000E+00
 -1       611 8.33333E-03 1.66667E-02 0.00000E+00
 -1       612 8.33333E-03 1.77083E-02 0.00000E+00
 -1       613 9.16667E-03 1.31250E-02 0.00000E+00
 -1       614 1.00000E-02 1.37500E-02 0.00000E+00
 -1       615 1.08333E-02 1.43750E-02 0.00000E+00
 -1       616 1.16667E-02 1.50000E-02 0.00000E+00
 -1       617 1.25000E-02 1.56250E-02 0.00000E+00
 -1       618 1.33333E-02 1.62500E-02 0.00000E+00
 -1       619 1.41667E-02 1.68750E-02 0.00000E+00
 -1       620 1.50000E-02 1.75000E-02 0.00000E+00
 -1       621 1.58333E-02 1.81250E-02 0.00000E+00
 -1       622 1.77083E-02 1.25000E-02 0.00000E+00
 -1       623 1.87500E-02 1.25000E-02 0.00000E+00
 -1       624 1.97917E-02 1.25000E-02 0.00000E+00
 -1       625 2.08333E-02 1.25000E-02 0.00000E+00
 -1       626 2.18750E-02 1.25000E-02 0.00000E+00
 -1       627 2.29167E-02 1.25000E-02 0.00000E+00
 -1       628 2.39583E-02 1.25000E-02 0.00000E+00
 -1       629 1.66667E-02 1.35417E-02 0.00000E+00
 -1       630 1.66667E-02 1.45833E-02 0.00000E+00
 -1       631 1.66667E-02 1.56250E-02 0.00000E+00
 -1       632 1.66667E-02 1.66667E-02 0.00000E+00
 -1       633 1.66667E-02 1.77083E-02 0.00000E+00
 -1       634 1.75000E-02 1.31250E-02 0.00000E+00
 -1       635 1.83333E-02 1.37500E-02 0.00000E+00
 -1       636 1.91667E-02 1.43750E-02 0.00000E+00
 -1       637 2.00000E-02 1.50000E-02 0.00000E+00
 -1       638 2.08333E-02 1.56250E-02 0.00000E+00
 -1       639 2.16667E-02 1.62500E-02 0.00000E+00
 -1       640 2.25000E-02 1.68750E-02 0.00000E+00
 -1       641 2.33333E-02 1.75000E-02 0.00000E+00
 -1       642 2.41667E-02 1.81250E-02 0.00000E+00
 -1       643 2.60417E-02 1.25000E-02 0.00000E+00
 -1       644 2.70833E-02 1.25000E-02 0.00000E+00
 -1       645 2.81250E-02 1.25000E-02 0.00000E+00
 -1       646 2.91667E-02 1.25000E-02 0.00000E+00
 -1       647 3.02083E-02 1.25000E-02 0.00000E+00
 -1       648 3.12500E-02 1.25000E-02 0.00000E+00
 -1       649 3.22917E-02 1.25000E-02 0.00000E+00
 -1       650 2.50000E-02 1.35417E-02 0.00000E+00
 -1       651 2.50000E-02 1.45833E-02 0.00000E+00
 -1       652 2.50000E-02 1.56250E-02 0.00000E+00
 -1       653 2.50000E-02 1.66667E-02 0.00000E+00
 -1       654 2.50000E-02 1.77083E-02 0.00000E+00
 -1       655 2.58333E-02 1.31250E-02 0.00000E+00
 -1       656 2.66667E-02 1.37500E-02 0.00000E+00
 -1       657 2.75000E-02 1.43750E-02 0.00000E+00
 -1       658 2.83333E-02 1.50000E-02 0.00000E+00
 -1       659 2.91667E-02 1.56250E-02 0.00000E+00
 -1       660 3.00000E-02 1.62500E-02 0.00000E+00
 -1       661 3.08333E-02 1.68750E-02 0.00000E+00
 -1       662 3.16667E-02 1.75000E-02 0.00000E+00
 -1       663 3.25000E-02 1.81250E-02 0.00000E+00
 -1       664 3.43750E-02 1.25000E-02 0.00000E+00
 -1       665 3.54167E-02 1.25000E-02 0.00000E+00
 -1       666 3.64583E-02 1.25000E-02 0.00000E+00
 -1       667 3.75000E-02 1.25000E-02 0.00000E+00
 -1       668 3.85417E-02 1.25000E-02 0.00000E+00
 -1       669 3.95833E-02 1.25000E-02 0.00000E+00
 -1       670 4.06250E-02 1.25000E-02 0.00000E+00
 -1       671 3.33333E-02 1.35417E-02 0.00000E+00
 -1       672 3.33333E-02 1.45833E-02 0.00000E+00
 -1       673 3.33333E-02 1.56250E-02 0.00000E+00
 -1       674 3.33333E-02 1.66667E-02 0.00000E+00
 -1       675 3.33333E-02 1.77083E-02 0.00000E+00
 -1       676 3.41667E-02 1.31250E-02 0.00000E+00
 -1       677 3.50000E-02 1.37500E-02 0.00000E+00
 -1       678 3.58333E-02 1.43750E-02 0.00000E+00
 -1       679 3.66667E-02 1.50000E-02 0.00000E+00
 -1       680 3.75000E-02 1.56250E-02 0.00000E+00
 -1       681 3.83333E-02 1.62500E-02 0.00000E+00
 -1       682 3.91667E-02 1.68750E-02 0.00000E+00
 -1       683 4.00000E-02 1.75000E-02 0.00000E+00
 -1       684 4.08333E-02 1.81250E-02 0.00000E+00
 -1       685 4.27083E-02 1.25000E-02 0.00000E+00
 -1       686 4.37500E-02 1.25000E-02 0.00000E+00
 -1       687 4.47917E-02 1.25000E-02 0.00000E+00
 -1       688 4.58333E-02 1.25000E-02 0.00000E+00
 -1       689 4.68750E-02 1.25000E-02 0.00000E+00
 -1       690 4.79167E-02 1.25000E-02 0.00000E+00
 -1       691 4.89583E-02 1.25000E-02 0.00000E+00
 -1       692 4.16667E-02 1.35417E-02 0.00000E+00
 -1       693 4.16667E-02 1.45833E-02 0.00000E+00
 -1       694 4.16667E-02 1.56250E-02 0.00000E+00
 -1       695 4.16667E-02 1.66667E-02 0.00000E+00
 -1       696 4.16667E-02 1.77083E-02 0.00000E+00
 -1       697 4.25000E-02 1.31250E-02 0.00000E+00
 -1       698 4.33333E-02 1.37500E-02 0.00000E+00
 -1       699 4.41667E-02 1.43750E-02 0.00000E+00
 -1       700 4.50000E-02 1.50000E-02 0.00000E+00
 -1       701 4.58333E-02 1.56250E-02 0.00000E+00
 -1       702 4.66667E-02 1.62500E-02 0.00000E+00
 -1       703 4.75000E-02 1.68750E-02 0.00000E+00
 -1       704 4.83333E-02 1.75000E-02 0.00000E+00
 -1       705 4.91667E-02 1.81250E-02 0.00000E+00
 -1       706 5.10417E-02 1.25000E-02 0.00000E+00
 -1       707 5.20833E-02 1.25000E-02 0.00000E+00
 -1       708 5.31250E-02 1.25000E-02 0.00000E+00
 -1       709 5.41667E-02 1.25000E-02 0.00000E+00
 -1       710 5.52083E-02 1.25000E-02 0.00000E+00
 -1       711 5.62500E-02 1.25000E-02 0.00000E+00
 -1       712 5.72917E-02 1.25000E-02 0.00000E+00
 -1       713 5.00000E-02 1.35417E-02 0.00000E+00
 -1       714 5.00000E-02 1.45833E-02 0.00000E+00
 -1       715 5.00000E-02 1.56250E-02 0.00000E+00
 -1       716 5.00000E-02 1.66667E-02 0.00000E+00
 -1       717 5.00000E-02 1.77083E-02 0.00000E+00
 -1       718 5.08333E-02 1.31250E-02 0.00000E+00
 -1       719 5.16667E-02 1.37500E-02 0.00000E+00
 -1       720 5.25000E-02 1.43750E-02 0.00000E+00
 -1       721 5.33333E-02 1.50000E-02 0.00000E+00
 -1       722 5.41667E-02 1.56250E-02 0.00000E+00
 -1       723 5.50000E-02 1.62500E-02 0.00000E+00
 -1       724 5.58333E-02 1.68750E-02 0.00000E+00
 -1       725 5.66667E-02 1.75000E-02 0.00000E+00
 -1       726 5.75000E-02 1.81250E-02 0.00000E+00
 -1       727 5.93750E-02 1.25000E-02 0.00000E+00
 -1       728 6.04167E-02 1.25000E-02 0.00000E+00
 -1       729 6.14583E-02 1.25000E-02 0.00000E+00
 -1       730 6.25000E-02 1.25000E-02 0.00000E+00
 -1       731 6.35417E-02 1.25000E-02 0.00000E+00
 -1       732 6.45833E-02 1.25000E-02 0.00000E+00
 -1       733 6.56250E-02 1.25000E-02 0.00000E+00
 -1       734 5.83333E-02 1.35417E-02 0.00000E+00
 -1       735 5.83333E-02 1.45833E-02 0.00000E+00
 -1       736 5.83333E-02 1.56250E-02 0.00000E+00
 -1       737 5.83333E-02 1.66667E-02 0.00000E+00
 -1       738 5.83333E-02 1.77083E-02 0.00000E+00
 -1       739 5.91667E-02 1.31250E-02 0.00000E+00
 -1       740 6.00000E-02 1.37500E-02 0.00000E+00
 -1       741 6.08333E-02 1.43750E-02 0.00000E+00
 -1       742 6.16667E-02 1.50000E-02 0.00000E+00
 -1       743 6.25000E-02 1.56250E-02 0.00000E+00
 -1       744 6.33333E-02 1.62500E-02 0.00000E+00
 -1       745 6.41667E-02 1.68750E-02 0.00000E+00
 -1       746 6.50000E-02 1.75000E-02 0.00000E+00
 -1       747 6.58333E-02 1.81250E-02 0.00000E+00
 -1       748 6.77083E-02 1.25000E-02 0.00000E+00
 -1       749 6.87500E-02 1.25000E-02 0.00000E+00
 -1       750 6.97917E-02 1.25000E-02 0.00000E+00
 -1       751 7.08333E-02 1.25000E-02 0.00000E+00
 -1       752 7.18750E-02 1.25000E-02 0.00000E+00
 -1       753 7.29167E-02 1.25000E-02 0.00000E+00
 -1       754 7.39583E-02 1.25000E-02 0.00000E+00
 -1       755 6.66667E-02 1.35417E-02 0.00000E+00
 -1       756 6.66667E-02 1.45833E-02 0.00000E+00
 -1       757 6.66667E-02 1.56250E-02 0.00000E+00
 -1       758 6.66667E-02 1.66667E-02 0.00000E+00
 -1       759 6.66667E-02 1.77083E-02 0.00000E+00
 -1       760 6.75000E-02 1.31250E-02 0.00000E+00
 -1       761 6.83333E-02 1.37500E-02 0.00000E+00
 -1       762 6.91667E-02 1.43750E-02 0.00000E+00
 -1       763 7.00000E-02 1.50000E-02 0.00000E+00
 -1       764 7.08333E-02 1.56250E-02 0.00000E+00
 -1       765 7.16667E-02 1.62500E-02 0.00000E+00
 -1       766 7.25000E-02 1.68750E-02 0.00000E+00
 -1       767 7.33333E-02 1.75000E-02 0.00000E+00
 -1       768 7.41667E-02 1.81250E-02 0.00000E+00
 -1       769 7.60417E-02 1.25000E-02 0.00000E+00
 -1       770 7.70833E-02 1.25000E-02 0.00000E+00
 -1       771 7.81250E-02 1.25000E-02 0.00000E+00
 -1       772 7.91667E-02 1.25000E-02 0.00000E+00
 -1       773 8.02083E-02 1.25000E-02 0.00000E+00
 -1       774 8.12500E-02 1.25000E-02 0.00000E+00
 -1       775 8.22917E-02 1.25000E-02 0.00000E+00
 -1       776 7.50000E-02 1.35417E-02 0.00000E+00
 -1       777 7.50000E-02 1.45833E-02 0.00000E+00
 -1       778 7.50000E-02 1.56250E-02 0.00000E+00
 -1       779 7.50000E-02 1.66667E-02 0.00000E+00
 -1       780 7.50000E-02 1.77083E-02 0.00000E+00
 -1       781 7.58333E-02 1.31250E-02 0.00000E+00
 -1       782 7.66667E-02 1.37500E-02 0.00000E+00
 -1       783 7.75000E-02 1.43750E-02 0.00000E+00
 -1       784 7.83333E-02 1.50000E-02 0.00000E+00
 -1       785 7.91667E-02 1.56250E-02 0.00000E+00
 -1       786 8.00000E-02 1.62500E-02 0.00000E+00
 -1       787 8.08333E-02 1.68750E-02 0.00000E+00
 -1       788 8.16667E-02 1.75000E-02 0.00000E+00
 -1       789 8.25000E-02 1.81250E-02 0.00000E+00
 -1       790 8.43750E-02 1.25000E-02 0.00000E+00
 -1       791 8.54167E-02 1.25000E-02 0.00000E+00
 -1       792 8.64583E-02 1.25000E-02 0.00000E+00
 -1       793 8.75000E-02 1.25000E-02 0.00000E+00
 -1       794 8.85417E-02 1.25000E-02 0.00000E+00
 -1       795 8.95833E-02 1.25000E-02 0.00000E+00
 -1       796 9.06250E-02 1.25000E-02 0.00000E+00
 -1       797 8.33333E-02 1.35417E-02 0.00000E+00
 -1       798 8.33333E-02 1.45833E-02 0.00000E+00
 -1       799 8.33333E-02 1.56250E-02 0.00000E+00
 -1       800 8.33333E-02 1.66667E-02 0.00000E+00
 -1       801 8.33333E-02 1.77083E-02 0.00000E+00
 -1       802 8.41667E-02 1.31250E-02 0.00000E+00
 -1       803 8.50000E-02 1.37500E-02 0.00000E+00
 -1       804 8.58333E-02 1.43750E-02 0.00000E+00
 -1       805 8.66667E-02 1.50000E-02 0.00000E+00
 -1       806 8.75000E-02 1.56250E-02 0.00000E+00
 -1       807 8.83333E-02 1.62500E-02 0.00000E+00
 -1       808 8.91667E-02 1.68750E-02 0.00000E+00
 -1       809 9.00000E-02 1.75000E-02 0.00000E+00
 -1       810 9.08333E-02 1.81250E-02 0.00000E+00
 -1       811 9.27083E-02 1.25000E-02 0.00000E+00
 -1       812 9.37500E-02 1.25000E-02 0.00000E+00
 -1       813 9.47917E-02 1.25000E-02 0.00000E+00
 -1       814 9.58333E-02 1.25000E-02 0.00000E+00
 -1       815 9.68750E-02 1.25000E-02 0.00000E+00
 -1       816 9.79167E-02 1.25000E-02 0.00000E+00
 -1       817 9.89583E-02 1.25000E-02 0.00000E+00
 -1       818 9.16667E-02 1.35417E-02 0.00000E+00
 -1       819 9.16667E-02 1.45833E-02 0.00000E+00
 -1       820 9.16667E-02 1.56250E-02 0.00000E+00
 -1       821 9.16667E-02 1.66667E-02 0.00000E+00
 -1       822 9.16667E-02 1.77083E-02 0.00000E+00
 -1       823 9.25000E-02 1.31250E-02 0.00000E+00
 -1       824 9.33333E-02 1.37500E-02 0.00000E+00
 -1       825 9.41667E-02 1.43750E-02 0.00000E+00
 -1       826 9.50000E-02 1.50000E-02 0.00000E+00
 -1       827 9.58333E-02 1.56250E-02 0.00000E+00
 -1       828 9.66667E-02 1.62500E-02 0.00000E+00
 -1       829 9.75000E-02 1.68750E-02 0.00000E+00
 -1       830 9.83333E-02 1.75000E-02 0.00000E+00
 -1       831 9.91667E-02 1.81250E-02 0.00000E+00
 -1       832 1.00000E-01 1.35417E-02 0.00000E+00
 -1       833 1.00000E-01 1.45833E-02 0.00000E+00
 -1       834 1.00000E-01 1.56250E-02 0.00000E+00
 -1       835 1.00000E-01 1.66667E-02 0.00000E+00
 -1       836 1.00000E-01 1.77083E-02 0.00000E+00
 -1       837 1.04167E-03 1.87500E-02 0.00000E+00
 -1       838 2.08333E-03 1.87500E-02 0.00000E+00
 -1       839 3.12500E-03 1.87500E-02 0.00000E+00
 -1       840 4.16667E-03 1.87500E-02 0.00000E+00
 -1       841 5.20833E-03 1.87500E-02 0.00000E+00
 -1       842 6.25000E-03 1.87500E-02 0.00000E+00
 -1       843 7.29167E-03 1.87500E-02 0.00000E+00
 -1       844 0.00000E+00 1.97917E-02 0.00000E+00
 -1       845 0.00000E+00 2.08333E-02 0.00000E+00
 -1       846 0.00000E+00 2.18750E-02 0.00000E+00
 -1       847 0.00000E+00 2.29167E-02 0.00000E+00
 -1       848 0.00000E+00 2.39583E-02 0.00000E+00
 -1       849 8.33330E-04 1.93750E-02 0.00000E+00
 -1       850 1.66667E-03 2.00000E-02 0.00000E+00
 -1       851 2.50000E-03 2.06250E-02 0.00000E+00
 -1       852 3.33333E-03 2.12500E-02 0.00000E+00
 -1       853 4.16667E-03 2.18750E-02 0.00000E+00
 -1       854 5.00000E-03 2.25000E-02 0.00000E+00
 -1       855 5.83333E-03 2.31250E-02 0.00000E+00
 -1       856 6.66667E-03 2.37500E-02 0.00000E+00
 -1       857 7.50000E-03 2.43750E-02 0.00000E+00
 -1       858 9.37500E-03 1.87500E-02 0.00000E+00
 -1       859 1.04167E-02 1.87500E-02 0.00000E+00
 -1       860 1.14583E-02 1.87500E-02 0.00000E+00
 -1       861 1.25000E-02 1.87500E-02 0.00000E+00
 -1       862 1.35417E-02 1.87500E-02 0.00000E+00
 -1       863 1.45833E-02 1.87500E-02 0.00000E+00
 -1       864 1.56250E-02 1.87500E-02 0.00000E+00
 -1       865 8.33333E-03 1.97917E-02 0.00000E+00
 -1       866 8.33333E-03 2.08333E-02 0.00000E+00
 -1       867 8.33333E-03 2.18750E-02 0.00000E+00
 -1       868 8.33333E-03 2.29167E-02 0.00000E+00
 -1       869 8.33333E-03 2.39583E-02 0.00000E+00
 -1       870 9.16667E-03 1.93750E-02 0.00000E+00
 -1       871 1.00000E-02 2.00000E-02 0.00000E+00
 -1       872 1.08333E-02 2.06250E-02 0.00000E+00
 -1       873 1.16667E-02 2.12500E-02 0.00000E+00
 -1       874 1.25000E-02 2.18750E-02 0.00000E+00
 -1       875 1.33333E-02 2.25000E-02 0.00000E+00
 -1       876 1.41667E-02 2.31250E-02 0.00000E+00
 -1       877 1.50000E-02 2.37500E-02 0.00000E+00
 -1       878 1.58333E-02 2.43750E-02 0.00000E+00
 -1       879 1.77083E-02 1.87500E-02 0.00000E+00
 -1       880 1.87500E-02 1.87500E-02 0.00000E+00
 -1       881 1.97917E-02 1.87500E-02 0.00000E+00
 -1       882 2.08333E-02 1.87500E-02 0.00000E+00
 -1       883 2.18750E-02 1.87500E-02 0.00000E+00
 -1       884 2.29167E-02 1.87500E-02 0.00000E+00
 -1       885 2.39583E-02 1.87500E-02 0.00000E+00
 -1       886 1.66667E-02 1.97917E-02 0.00000E+00
 -1       887 1.66667E-02 2.08333E-02 0.00000E+00
 -1       888 1.66667E-02 2.18750E-02 0.00000E+00
 -1       889 1.66667E-02 2.29167E-02 0.00000E+00
 -1       890 1.66667E-02 2.39583E-02 0.00000E+00
 -1       891 1.75000E-02 1.93750E-02 0.00000E+00
 -1       892 1.83333E-02 2.00000E-02 0.00000E+00
 -1       893 1.91667E-02 2.06250E-02 0.00000E+00
 -1       894 2.00000E-02 2.12500E-02 0.00000E+00
 -1       895 2.08333E-02 2.18750E-02 0.00000E+00
 -1       896 2.16667E-02 2.25000E-02 0.00000E+00
 -1       897 2.25000E-02 2.31250E-02 0.00000E+00
 -1       898 2.33333E-02 2.37500E-02 0.00000E+00
 -1       899 2.41667E-02 2.43750E-02 0.00000E+00
 -1       900 2.60417E-02 1.87500E-02 0.00000E+00
 -1       901 2.70833E-02 1.87500E-02 0.00000E+00
 -1       902 2.81250E-02 1.87500E-02 0.00000E+00
 -1       903 2.91667E-02 1.87500E-02 0.00000E+00
 -1       904 3.02083E-02 1.87500E-02 0.00000E+00
 -1       905 3.12500E-02 1.87500E-02 0.00000E+00
 -1       906 3.22917E-02 1.87500E-02 0.00000E+00
 -1       907 2.50000E-02 1.97917E-02 0.00000E+00
 -1       908 2.50000E-02 2.08333E-02 0.00000E+00
 -1       909 2.50000E-02 2.18750E-02 0.00000E+00
 -1       910 2.50000E-02 2.29167E-02 0.00000E+00
 -1       911 2.50000E-02 2.39583E-02 0.00000E+00
 -1       912 2.58333E-02 1.93750E-02 0.00000E+00
 -1       913 2.66667E-02 2.00000E-02 0.00000E+00
 -1       914 2.75000E-02 2.06250E-02 0.00000E+00
 -1       915 2.83333E-02 2.12500E-02 0.00000E+00
 -1       916 2.91667E-02 2.18750E-02 0.00000E+00
 -1       917 3.00000E-02 2.25000E-02 0.00000E+00
 -1       918 3.08333E-02 2.31250E-02 0.00000E+00
 -1       919 3.16667E-02 2.37500E-02 0.00000E+00
 -1       920 3.25000E-02 2.43750E-02 0.00000E+00
 -1       921 3.43750E-02 1.87500E-02 0.00000E+00
 -1       922 3.54167E-02 1.87500E-02 0.00000E+00
 -1       923 3.64583E-02 1.87500E-02 0.00000E+00
 -1       924 3.75000E-02 1.87500E-02 0.00000E+00
 -1       925 3.85417E-02 1.87500E-02 0.00000E+00
 -1       926 3.95833E-02 1.87500E-02 0.00000E+00
 -1       927 4.06250E-02 1.87500E-02 0.00000E+00
 -1       928 3.33333E-02 1.97917E-02 0.00000E+00
 -1       929 3.33333E-02 2.08333E-02 0.00000E+00
 -1       930 3.33333E-02 2.18750E-02 0.00000E+00
 -1       931 3.33333E-02 2.29167E-02 0.00000E+00
 -1       932 3.33333E-02 2.39583E-02 0.00000E+00
 -1       933 3.41667E-02 1.93750E-02 0.00000E+00
 -1       934 3.50000E-02 2.00000E-02 0.00000E+00
 -1       935 3.58333E-02 2.06250E-02 0.00000E+00
 -1       936 3.66667E-02 2.12500E-02 0.00000E+00
 -1       937 3.75000E-02 2.18750E-02 0.00000E+00
 -1       938 3.83333E-02 2.25000E-02 0.00000E+00
 -1       939 3.91667E-02 2.31250E-02 0.00000E+00
 -1       940 4.00000E-02 2.37500E-02 0.00000E+00
 -1       941 4.08333E-02 2.43750E-02 0.00000E+00
 -1       942 4.27083E-02 1.87500E-02 0.00000E+00
 -1       943 4.37500E-02 1.87500E-02 0.00000E+00
 -1       944 4.47917E-02 1.87500E-02 0.00000E+00
 -1       945 4.58333E-02 1.87500E-02 0.00000E+00
 -1       946 4.68750E-02 1.87500E-02 0.00000E+00
 -1       947 4.79167E-02 1.87500E-02 0.00000E+00
 -1       948 4.89583E-02 1.87500E-02 0.00000E+00
 -1       949 4.16667E-02 1.97917E-02 0.00000E+00
 -1       950 4.16667E-02 2.08333E-02 0.00000E+00
 -1       951 4.16667E-02 2.18750E-02 0.00000E+00
 -1       952 4.16667E-02 2.29167E-02 0.00000E+00
 -1       953 4.16667E-02 2.39583E-02 0.00000E+00
 -1       954 4.25000E-02 1.93750E-02 0.00000E+00
 -1       955 4.33333E-02 2.00000E-02 0.00000E+00
 -1       956 4.41667E-02 2.06250E-02 0.00000E+00
 -1       957 4.50000E-02 2.12500E-02 0.00000E+00
 -1       958 4.58333E-02 2.18750E-02 0.00000E+00
 -1       959 4.66667E-02 2.25000E-02 0.00000E+00
 -1       960 4.75000E-02 2.31250E-02 0.00000E+00
 -1       961 4.83333E-02 2.37500E-02 0.00000E+00
 -1       962 4.91667E-02 2.43750E-02 0.00000E+00
 -1       963 5.10417E-02 1.87500E-02 0.00000E+00
 -1       964 5.20833E-02 1.87500E-02 0.00000E+00
 -1       965 5.31250E-02 1.87500E-02 0.00000E+00
 -1       966 5.41667E-02 1.87500E-02 0.00000E+00
 -1       967 5.52083E-02 1.87500E-02 0.00000E+00
 -1       968 5.62500E-02 1.87500E-02 0.00000E+00
 -1       969 5.72917E-02 1.87500E-02 0.00000E+00
 -1       970 5.00000E-02 1.97917E-02 0.00000E+00
 -1       971 5.00000E-02 2.08333E-02 0.00000E+00
 -1       972 5.00000E-02 2.18750E-02 0.00000E+00
 -1       973 5.00000E-02 2.29167E-02 0.00000E+00
 -1       974 5.00000E-02 2.39583E-02 0.00000E+00
 -1       975 5.08333E-02 1.93750E-02 0.00000E+00
 -1       976 5.16667E-02 2.00000E-02 0.00000E+00
 -1       977 5.25000E-02 2.06250E-02 0.00000E+00
 -1       978 5.33333E-02 2.12500E-02 0.00000E+00
 -1       979 5.41667E-02 2.18750E-02 0.00000E+00
 -1       980 5.50000E-02 2.25000E-02 0.00000E+00
 -1       981 5.58333E-02 2.31250E-02 0.00000E+00
 -1       982 5.66667E-02 2.37500E-02 0.00000E+00
 -1       983 5.75000E-02 2.43750E-02 0.00000E+00
 -1       984 5.93750E-02 1.87500E-02 0.00000E+00
 -1       985 6.04167E-02 1.87500E-02 0.00000E+00
 -1       986 6.14583E-02 1.87500E-02 0.00000E+00
 -1       987 6.25000E-02 1.87500E-02 0.00000E+00
 -1       988 6.35417E-02 1.87500E-02 0.00000E+00
 -1       989 6.45833E-02 1.87500E-02 0.00000E+00
 -1       990 6.56250E-02 1.87500E-02 0.00000E+00
 -1       991 5.83333E-02 1.97917E-02 0.00000E+00
 -1       992 5.83333E-02 2.08333E-02 0.00000E+00
 -1       993 5.83333E-02 2.18750E-02 0.00000E+00
 -1       994 5.83333E-02 2.29167E-02 0.00000E+00
 -1       995 5.83333E-02 2.39583E-02 0.00000E+00
 -1       996 5.91667E-02 1.93750E-02 0.00000E+00
 -1       997 6.00000E-02 2.00000E-02 0.00000E+00
 -1       998 6.08333E-02 2.06250E-02 0.00000E+00
 -1       999 6.16667E-02 2.12500E-02 0.00000E+00
 -1      1000 6.25000E-02 2.18750E-02 0.00000E+00
 -1      1001 6.33333E-02 2.25000E-02 0.00000E+00
 -1      1002 6.41667E-02 2.31250E-02 0.00000E+00
 -1      1003 6.50000E-02 2.37500E-02 0.00000E+00
 -1      1004 6.58333E-02 2.43750E-02 0.00000E+00
 -1      1005 6.77083E-02 1.87500E-02 0.00000E+00
 -1      1006 6.87500E-02 1.87500E-02 0.00000E+00
 -1      1007 6.97917E-02 1.87500E-02 0.00000E+00
 -1      1008 7.08333E-02 1.87500E-02 0.00000E+00
 -1      1009 7.18750E-02 1.87500E-02 0.00000E+00
 -1      1010 7.29167E-02 1.87500E-02 0.00000E+00
 -1      1011 7.39583E-02 1.87500E-02 0.00000E+00
 -1      1012 6.66667E-02 1.97917E-02 0.00000E+00
 -1      1013 6.66667E-02 2.08333E-02 0.00000E+00
 -1      1014 6.66667E-02 2.18750E-02 0.00000E+00
 -1      1015 6.66667E-02 2.29167E-02 0.00000E+00
 -1      1016 6.66667E-02 2.39583E-02 0.00000E+00
 -1      1017 6.75000E-02 1.93750E-02 0.00000E+00
 -1      1018 6.83333E-02 2.00000E-02 0.00000E+00
 -1      1019 6.91667E-02 2.06250E-02 0.00000E+00
 -1      1020 7.00000E-02 2.12500E-02 0.00000E+00
 -1      1021 7.08333E-02 2.18750E-02 0.00000E+00
 -1      1022 7.16667E-02 2.25000E-02 0.00000E+00
 -1      1023 7.25000E-02 2.31250E-02 0.00000E+00
 -1      1024 7.33333E-02 2.37500E-02 0.00000E+00
 -1      1025 7.41667E-02 2.43750E-02 0.00000E+00
 -1      1026 7.60417E-02 1.87500E-02 0.00000E+00
 -1      1027 7.70833E-02 1.87500E-02 0.00000E+00
 -1      1028 7.81250E-02 1.87500E-02 0.00000E+00
 -1      1029 7.91667E-02 1.87500E-02 0.00000E+00
 -1      1030 8.02083E-02 1.87500E-02 0.00000E+00
 -1      1031 8.12500E-02 1.87500E-02 0.00000E+00
 -1      1032 8.22917E-02 1.87500E-02 0.00000E+00
 -1      1033 7.50000E-02 1.97917E-02 0.00000E+00
 -1      1034 7.50000E-02 2.08333E-02 0.00000E+00
 -1      1035 7.50000E-02 2.18750E-02 0.00000E+00
 -1      1036 7.50000E-02 2.29167E-02 0.00000E+00
 -1      1037 7.50000E-02 2.39583E-02 0.00000E+00
 -1      1038 7.58333E-02 1.93750E-02 0.00000E+00
 -1      1039 7.66667E-02 2.00000E-02 0.00000E+00
 -1      1040 7.75000E-02 2.06250E-02 0.00000E+00
 -1      1041 7.83333E-02 2.12500E-02 0.00000E+00
 -1      1042 7.91667E-02 2.18750E-02 0.00000E+00
 -1      1043 8.00000E-02 2.25000E-02 0.00000E+00
 -1      1044 8.08333E-02 2.31250E-02 0.00000E+00
 -1      1045 8.16667E-02 2.37500E-02 0.00000E+00
 -1      1046 8.25000E-02 2.43750E-02 0.00000E+00
 -1      1047 8.43750E-02 1.87500E-02 0.00000E+00
 -1      1048 8.54167E-02 1.87500E-02 0.00000E+00
 -1      1049 8.64583E-02 1.87500E-02 0.00000E+00
 -1      1050 8.75000E-02 1.87500E-02 0.00000E+00
 -1      1051 8.85417E-02 1.87500E-02 0.00000E+00
 -1      1052 8.95833E-02 1.87500E-02 0.00000E+00
 -1      1053 9.06250E-02 1.87500E-02 0.00000E+00
 -1      1054 8.33333E-02 1.97917E-02 0.00000E+00
 -1      1055 8.33333E-02 2.08333E-02 0.00000E+00
 -1      1056 8.33333E-02 2.18750E-02 0.00000E+00
 -1      1057 8.33333E-02 2.29167E-02 0.00000E+00
 -1      1058 8.33333E-02 2.39583E-02 0.00000E+00
 -1      1059 8.41667E-02 1.93750E-02 0.00000E+00
 -1      1060 8.50000E-02 2.00000E-02 0.00000E+00
 -1      1061 8.58333E-02 2.06250E-02 0.00000E+00
 -1      1062 8.66667E-02 2.12500E-02 0.00000E+00
 -1      1063 8.75000E-02 2.18750E-02 0.00000E+00
 -1      1064 8.83333E-02 2.25000E-02 0.00000E+00
 -1      1065 8.91667E-02 2.31250E-02 0.00000E+00
 -1      1066 9.00000E-02 2.37500E-02 0.00000E+00
 -1      1067 9.08333E-02 2.43750E-02 0.00000E+00
 -1      1068 9.27083E-02 1.87500E-02 0.00000E+00
 -1      1069 9.37500E-02 1.87500E-02 0.00000E+00
 -1      1070 9.47917E-02 1.87500E-02 0.00000E+00
 -1      1071 9.58333E-02 1.87500E-02 0.00000E+00
 -1      1072 9.68750E-02 1.87500E-02 0.00000E+00
 -1      1073 9.79167E-02 1.87500E-02 0.00000E+00
 -1      1074 9.89583E-02 1.87500E-02 0.00000E+00
 -1      1075 9.16667E-02 1.97917E-02 0.00000E+00
 -1      1076 9.16667E-02 2.08333E-02 0.00000E+00
 -1      1077 9.16667E-02 2.18750E-02 0.00000E+00
 -1      1078 9.16667E-02 2.29167E-02 0.00000E+00
 -1      1079 9.16667E-02 2.39583E-02 0.00000E+00
 -1      1080 9.25000E-02 1.93750E-02 0.00000E+00
 -1      1081 9.33333E-02 2.00000E-02 0.00000E+00
 -1      1082 9.41667E-02 2.06250E-02 0.00000E+00
 -1      1083 9.50000E-02 2.12500E-02 0.00000E+00
 -1      1084 9.58333E-02 2.18750E-02 0.00000E+00
 -1      1085 9.66667E-02 2.25000E-02 0.00000E+00
 -1      1086 9.75000E-02 2.31250E-02 0.00000E+00
 -1      1087 9.83333E-02 2.37500E-02 0.00000E+00
 -1      1088 9.91667E-02 2.43750E-02 0.00000E+00
 -1      1089 1.00000E-01 1.97917E-02 0.00000E+00
 -1      1090 1.00000E-01 2.08333E-02 0.00000E+00
 -1      1091 1.00000E-01 2.18750E-02 0.00000E+00
 -1      1092 1.00000E-01 2.29167E-02 0.00000E+00
 -1      1093 1.00000E-01 2.39583E-02 0.00000E+00
 -1      1094 1.04167E-03 2.50000E-02 0.00000E+00
 -1      1095 2.08333E-03 2.50000E-02 0.00000E+00
 -1      1096 3.12500E-03 2.50000E-02 0.00000E+00
 -1      1097 4.16667E-03 2.50000E-02 0.00000E+00
 -1      1098 5.20833E-03 2.50000E-02 0.00000E+00
 -1      1099 6.25000E-03 2.50000E-02 0.00000E+00
 -1      1100 7.29167E-03 2.50000E-02 0.00000E+00
 -1      1101 9.37500E-03 2.50000E-02 0.00000E+00
 -1      1102 1.04167E-02 2.50000E-02 0.00000E+00
 -1      1103 1.14583E-02 2.50000E-02 0.00000E+00
 -1      1104 1.25000E-02 2.50000E-02 0.00000E+00
 -1      1105 1.35417E-02 2.50000E-02 0.00000E+00
 -1      1106 1.45833E-02 2.50000E-02 0.00000E+00
 -1      1107 1.56250E-02 2.50000E-02 0.00000E+00
 -1      1108 1.77083E-02 2.50000E-02 0.00000E+00
 -1      1109 1.87500E-02 2.50000E-02 0.00000E+00
 -1      1110 1.97917E-02 2.50000E-02 0.00000E+00
 -1      1111 2.08333E-02 2.50000E-02 0.00000E+00
 -1      1112 2.18750E-02 2.50000E-02 0.00000E+00
 -1      1113 2.29167E-02 2.50000E-02 0.00000E+00
 -1      1114 2.39583E-02 2.50000E-02 0.00000E+00
 -1      1115 2.60417E-02 2.50000E-02 0.00000E+00
 -1      1116 2.70833E-02 2.50000E-02 0.00000E+00
 -1      1117 2.81250E-02 2.50000E-02 0.00000E+00
 -1      1118 2.91667E-02 2.50000E-02 0.00000E+00
 -1      1119 3.02083E-02 2.50000E-02 0.00000E+00
 -1      1120 3.12500E-02 2.50000E-02 0.00000E+00
 -1      1121 3.22917E-02 2.50000E-02 0.00000E+00
 -1      1122 3.43750E-02 2.50000E-02 0.00000E+00
 -1      1123 3.54167E-02 2.50000E-02 0.00000E+00
 -1      1124 3.64583E-02 2.50000E-02 0.00000E+00
 -1      1125 3.75000E-02 2.50000E-02 0.00000E+00
 -1      1126 3.85417E-02 2.50000E-02 0.00000E+00
 -1      1127 3.95833E-02 2.50000E-02 0.00000E+00
 -1      1128 4.06250E-02 2.50000E-02 0.00000E+00
 -1      1129 4.27083E-02 2.50000E-02 0.00000E+00
 -1      1130 4.37500E-02 2.50000E-02 0.00000E+00
 -1      1131 4.47917E-02 2.50000E-02 0.00000E+00
 -1      1132 4.58333E-02 2.50000E-02 0.00000E+00
 -1      1133 4.68750E-02 2.50000E-02 0.00000E+00
 -1      1134 4.79167E-02 2.50000E-02 0.00000E+00
 -1      1135 4.89583E-02 2.50000E-02 0.00000E+00
 -1      1136 5.10417E-02 2.50000E-02 0.00000E+00
 -1      1137 5.20833E-02 2.50000E-02 0.00000E+00
 -1      1138 5.31250E-02 2.50000E-02 0.00000E+00
 -1      1139 5.41667E-02 2.50000E-02 0.00000E+00
 -1      1140 5.52083E-02 2.50000E-02 0.00000E+00
 -1      1141 5.62500E-02 2.50000E-02 0.00000E+00
 -1      1142 5.72917E-02 2.50000E-02 0.00000E+00
 -1      1143 5.93750E-02 2.50000E-02 0.00000E+00
 -1      1144 6.04167E-02 2.50000E-02 0.00000E+00
 -1      1145 6.14583E-02 2.50000E-02 0.00000E+00
 -1      1146 6.25000E-02 2.50000E-02 0.00000E+00
 -1      1147 6.35417E-02 2.50000E-02 0.00000E+00
 -1      1148 6.45833E-02 2.50000E-02 0.00000E+00
 -1      1149 6.56250E-02 2.50000E-02 0.00000E+00
 -1      1150 6.77083E-02 2.50000E-02 0.00000E+00
 -1      1151 6.87500E-02 2.50000E-02 0.00000E+00
 -1      1152 6.97917E-02 2.50000E-02 0.00000E+00
 -1      1153 7.08333E-02 2.50000E-02 0.00000E+00
 -1      1154 7.18750E-02 2.50000E-02 0.00000E+00
 -1      1155 7.29167E-02 2.50000E-02 0.00000E+00
 -1      1156 7.39583E-02 2.50000E-02 0.00000E+00
 -1      1157 7.60417E-02 2.50000E-02 0.00000E+00
 -1      1158 7.70833E-02 2.50000E-02 0.00000E+00
 -1      1159 7.81250E-02 2.50000E-02 0.00000E+00
 -1      1160 7.91667E-02 2.50000E-02 0.00000E+00
 -1      1161 8.02083E-02 2.50000E-02 0.00000E+00
 -1      1162 8.12500E-02 2.50000E-02 0.00000E+00
 -1      1163 8.22917E-02 2.50000E-02 0.00000E+00
 -1      1164 8.43750E-02 2.50000E-02 0.00000E+00
 -1      1165 8.54167E-02 2.50000E-02 0.00000E+00
 -1      1166 8.64583E-02 2.50000E-02 0.00000E+00
 -1      1167 8.75000E-02 2.50000E-02 0.00000E+00
 -1      1168 8.85417E-02 2.50000E-02 0.00000E+00
 -1      1169 8.95833E-02 2.50000E-02 0.00000E+00
 -1      1170 9.06250E-02 2.50000E-02 0.00000E+00
 -1      1171 9.27083E-02 2.50000E-02 0.00000E+00
 -1      1172 9.37500E-02 2.50000E-02 0.00000E+00
 -1      1173 9.47917E-02 2.50000E-02 0.00000E+00
 -1      1174 9.58333E-02 2.50000E-02 0.00000E+00
 -1      1175 9.68750E-02 2.50000E-02 0.00000E+00
 -1      1176 9.79167E-02 2.50000E-02 0.00000E+00
 -1      1177 9.89583E-02 2.50000E-02 0.00000E+00
 -3
    3C                           540                                     1
 -1         1   12    0    1
 -2         1        67        66
 -1         2   12    0    1
 -2        67        69        68
 -1         3   12    0    1
 -2        69        71        70
 -1         4   12    0    1
 -2        71         2        72
 -1         5   12    0    1
 -2         1        74        73
 -1         6   12    0    1
 -2        74        76        75
 -1         7   12    0    1
 -2        76        14        77
 -1         8   12    0    1
 -2         1        79        78
 -1         9   12    0    1
 -2        79        81        80
 -1        10   12    0    1
 -2        81        83        82
 -1        11   12    0    1
 -2        83        85        84
 -1        12   12    0    1
 -2        85        15        86
 -1        13   12    0    1
 -2         2        88        87
 -1        14   12    0    1
 -2        88        90        89
 -1        15   12    0    1
 -2        90        92        91
 -1        16   12    0    1
 -2        92         3        93
 -1        17   12    0    1
 -2         2        95        94
 -1        18   12    0    1
 -2        95        97        96
 -1        19   12    0    1
 -2        97        15        98
 -1        20   12    0    1
 -2         2       100        99
 -1        21   12    0    1
 -2       100       102       101
 -1        22   12    0    1
 -2       102       104       103
 -1        23   12    0    1
 -2       104       106       105
 -1        24   12    0    1
 -2       106        16       107
 -1        25   12    0    1
 -2         3       109       108
 -1        26   12    0    1
 -2       109       111       110
 -1        27   12    0    1
 -2       111       113       112
 -1        28   12    0    1
 -2       113         4       114
 -1        29   12    0    1
 -2         3       116       115
 -1        30   12    0    1
 -2       116       118       117
 -1        31   12    0    1
 -2       118        16       119
 -1        32   12    0    1
 -2         3       121       120
 -1        33   12    0    1
 -2       121       123       122
 -1        34   12    0    1
 -2       123       125       124
 -1        35   12    0    1
 -2       125       127       126
 -1        36   12    0    1
 -2       127        17       128
 -1        37   12    0    1
 -2         4       130       129
 -1        38   12    0    1
 -2       130       132       131
 -1        39   12    0    1
 -2       132       134       133
 -1        40   12    0    1
 -2       134         5       135
 -1        41   12    0    1
 -2         4       137       136
 -1        42   12    0    1
 -2       137       139       138
 -1        43   12    0    1
 -2       139        17       140
 -1        44   12    0    1
 -2         4       142       141
 -1        45   12    0    1
 -2       142       144       143
 -1        46   12    0    1
 -2       144       146       145
 -1        47   12    0    1
 -2       146       148       147
 -1        48   12    0    1
 -2       148        18       149
 -1        49   12    0    1
 -2         5       151       150
 -1        50   12    0    1
 -2       151       153       152
 -1        51   12    0    1
 -2       153       155       154
 -1        52   12    0    1
 -2       155         6       156
 -1        53   12    0    1
 -2         5       158       157
 -1        54   12    0    1
 -2       158       160       159
 -1        55   12    0    1
 -2       160        18       161
 -1        56   12    0    1
 -2         5       163       162
 -1        57   12    0    1
 -2       163       165       164
 -1        58   12    0    1
 -2       165       167       166
 -1        59   12    0    1
 -2       167       169       168
 -1        60   12    0    1
 -2       169        19       170
 -1        61   12    0    1
 -2         6       172       171
 -1        62   12    0    1
 -2       172       174       173
 -1        63   12    0    1
 -2       174       176       175
 -1        64   12    0    1
 -2       176         7       177
 -1        65   12    0    1
 -2         6       179       178
 -1        66   12    0    1
 -2       179       181       180
 -1        67   12    0    1
 -2       181        19       182
 -1        68   12    0    1
 -2         6       184       183
 -1        69   12    0    1
 -2       184       186       185
 -1        70   12    0    1
 -2       186       188       187
 -1        71   12    0    1
 -2       188       190       189
 -1        72   12    0    1
 -2       190        20       191
 -1        73   12    0    1
 -2         7       193       192
 -1        74   12    0    1
 -2       193       195       194
 -1        75   12    0    1
 -2       195       197       196
 -1        76   12    0    1
 -2       197         8       198
 -1        77   12    0    1
 -2         7       200       199
 -1        78   12    0    1
 -2       200       202       201
 -1        79   12    0    1
 -2       202        20       203
 -1        80   12    0    1
 -2         7       205       204
 -1        81   12    0    1
 -2       205       207       206
 -1        82   12    0    1
 -2       207       209       208
 -1        83   12    0    1
 -2       209       211       210
 -1        84   12    0    1
 -2       211        21       212
 -1        85   12    0    1
 -2         8       214       213
 -1        86   12    0    1
 -2       214       216       215
 -1        87   12    0    1
 -2       216       218       217
 -1        88   12    0    1
 -2       218         9       219
 -1        89   12    0    1
 -2         8       221       220
 -1        90   12    0    1
 -2       221       223       222
 -1        91   12    0    1
 -2       223        21       224
 -1        92   12    0    1
 -2         8       226       225
 -1        93   12    0    1
 -2       226       228       227
 -1        94   12    0    1
 -2       228       230       229
 -1        95   12    0    1
 -2       230       232       231
 -1        96   12    0    1
 -2       232        22       233
 -1        97   12    0    1
 -2         9       242       241
 -1        98   12    0    1
 -2       242       244       243
 -1        99   12    0    1
 -2       244        22       245
 -1       100   12    0    1
 -2        14       324       323
 -1       101   12    0    1
 -2       324       326       325
 -1       102   12    0    1
 -2       326       328       327
 -1       103   12    0    1
 -2       328        15       329
 -1       104   12    0    1
 -2        14       331       330
 -1       105   12    0    1
 -2       331       333       332
 -1       106   12    0    1
 -2       333        27       334
 -1       107   12    0    1
 -2        14       336       335
 -1       108   12    0    1
 -2       336       338       337
 -1       109   12    0    1
 -2       338       340       339
 -1       110   12    0    1
 -2       340       342       341
 -1       111   12    0    1
 -2       342        28       343
 -1       112   12    0    1
 -2        15       345       344
 -1       113   12    0    1
 -2       345       347       346
 -1       114   12    0    1
 -2       347       349       348
 -1       115   12    0    1
 -2       349        16       350
 -1       116   12    0    1
 -2        15       352       351
 -1       117   12    0    1
 -2       352       354       353
 -1       118   12    0    1
 -2       354        28       355
 -1       119   12    0    1
 -2        15       357       356
 -1       120   12    0    1
 -2       357       359       358
 -1       121   12    0    1
 -2       359       361       360
 -1       122   12    0    1
 -2       361       363       362
 -1       123   12    0    1
 -2       363        29       364
 -1       124   12    0    1
 -2        16       366       365
 -1       125   12    0    1
 -2       366       368       367
 -1       126   12    0    1
 -2       368       370       369
 -1       127   12    0    1
 -2       370        17       371
 -1       128   12    0    1
 -2        16       373       372
 -1       129   12    0    1
 -2       373       375       374
 -1       130   12    0    1
 -2       375        29       376
 -1       131   12    0    1
 -2        16       378       377
 -1       132   12    0    1
 -2       378       380       379
 -1       133   12    0    1
 -2       380       382       381
 -1       134   12    0    1
 -2       382       384       383
 -1       135   12    0    1
 -2       384        30       385
 -1       136   12    0    1
 -2        17       387       386
 -1       137   12    0    1
 -2       387       389       388
 -1       138   12    0    1
 -2       389       391       390
 -1       139   12    0    1
 -2       391        18       392
 -1       140   12    0    1
 -2        17       394       393
 -1       141   12    0    1
 -2       394       396       395
 -1       142   12    0    1
 -2       396        30       397
 -1       143   12    0    1
 -2        17       399       398
 -1       144   12    0    1
 -2       399       401       400
 -1       145   12    0    1
 -2       401       403       402
 -1       146   12    0    1
 -2       403       405       404
 -1       147   12    0    1
 -2       405        31       406
 -1       148   12    0    1
 -2        18       408       407
 -1       149   12    0    1
 -2       408       410       409
 -1       150   12    0    1
 -2       410       412       411
 -1       151   12    0    1
 -2       412        19       413
 -1       152   12    0    1
 -2        18       415       414
 -1       153   12    0    1
 -2       415       417       416
 -1       154   12    0    1
 -2       417        31       418
 -1       155   12    0    1
 -2        18       420       419
 -1       156   12    0    1
 -2       420       422       421
 -1       157   12    0    1
 -2       422       424       423
 -1       158   12    0    1
 -2       424       426       425
 -1       159   12    0    1
 -2       426        32       427
 -1       160   12    0    1
 -2        19       429       428
 -1       161   12    0    1
 -2       429       431       430
 -1       162   12    0    1
 -2       431       433       432
 -1       163   12    0    1
 -2       433        20       434
 -1       164   12    0    1
 -2        19       436       435
 -1       165   12    0    1
 -2       436       438       437
 -1       166   12    0    1
 -2       438        32       439
 -1       167   12    0    1
 -2        19       441       440
 -1       168   12    0    1
 -2       441       443       442
 -1       169   12    0    1
 -2       443       445       444
 -1       170   12    0    1
 -2       445       447       446
 -1       171   12    0    1
 -2       447        33       448
 -1       172   12    0    1
 -2        20       450       449
 -1       173   12    0    1
 -2       450       452       451
 -1       174   12    0    1
 -2       452       454       453
 -1       175   12    0    1
 -2       454        21       455
 -1       176   12    0    1
 -2        20       457       456
 -1       177   12    0    1
 -2       457       459       458
 -1       178   12    0    1
 -2       459        33       460
 -1       179   12    0    1
 -2        20       462       461
 -1       180   12    0    1
 -2       462       464       463
 -1       181   12    0    1
 -2       464       466       465
 -1       182   12    0    1
 -2       466       468       467
 -1       183   12    0    1
 -2       468        34       469
 -1       184   12    0    1
 -2        21       471       470
 -1       185   12    0    1
 -2       471       473       472
 -1       186   12    0    1
 -2       473       475       474
 -1       187   12    0    1
 -2       475        22       476
 -1       188   12    0    1
 -2        21       478       477
 -1       189   12    0    1
 -2       478       480       479
 -1       190   12    0    1
 -2       480        34       481
 -1       191   12    0    1
 -2        21       483       482
 -1       192   12    0    1
 -2       483       485       484
 -1       193   12    0    1
 -2       485       487       486
 -1       194   12    0    1
 -2       487       489       488
 -1       195   12    0    1
 -2       489        35       490
 -1       196   12    0    1
 -2        22       499       498
 -1       197   12    0    1
 -2       499       501       500
 -1       198   12    0    1
 -2       501        35       502
 -1       199   12    0    1
 -2        27       581       580
 -1       200   12    0    1
 -2       581       583       582
 -1       201   12    0    1
 -2       583       585       584
 -1       202   12    0    1
 -2       585        28       586
 -1       203   12    0    1
 -2        27       588       587
 -1       204   12    0    1
 -2       588       590       589
 -1       205   12    0    1
 -2       590        40       591
 -1       206   12    0    1
 -2        27       593       592
 -1       207   12    0    1
 -2       593       595       594
 -1       208   12    0    1
 -2       595       597       596
 -1       209   12    0    1
 -2       597       599       598
 -1       210   12    0    1
 -2       599        41       600
 -1       211   12    0    1
 -2        28       602       601
 -1       212   12    0    1
 -2       602       604       603
 -1       213   12    0    1
 -2       604       606       605
 -1       214   12    0    1
 -2       606        29       607
 -1       215   12    0    1
 -2        28       609       608
 -1       216   12    0    1
 -2       609       611       610
 -1       217   12    0    1
 -2       611        41       612
 -1       218   12    0    1
 -2        28       614       613
 -1       219   12    0    1
 -2       614       616       615
 -1       220   12    0    1
 -2       616       618       617
 -1       221   12    0    1
 -2       618       620       619
 -1       222   12    0    1
 -2       620        42       621
 -1       223   12    0    1
 -2        29       623       622
 -1       224   12    0    1
 -2       623       625       624
 -1       225   12    0    1
 -2       625       627       626
 -1       226   12    0    1
 -2       627        30       628
 -1       227   12    0    1
 -2        29       630       629
 -1       228   12    0    1
 -2       630       632       631
 -1       229   12    0    1
 -2       632        42       633
 -1       230   12    0    1
 -2        29       635       634
 -1       231   12    0    1
 -2       635       637       636
 -1       232   12    0    1
 -2       637       639       638
 -1       233   12    0    1
 -2       639       641       640
 -1       234   12    0    1
 -2       641        43       642
 -1       235   12    0    1
 -2        30       644       643
 -1       236   12    0    1
 -2       644       646       645
 -1       237   12    0    1
 -2       646       648       647
 -1       238   12    0    1
 -2       648        31       649
 -1       239   12    0    1
 -2        30       651       650
 -1       240   12    0    1
 -2       651       653       652
 -1       241   12    0    1
 -2       653        43       654
 -1       242   12    0    1
 -2        30       656       655
 -1       243   12    0    1
 -2       656       658       657
 -1       244   12    0    1
 -2       658       660       659
 -1       245   12    0    1
 -2       660       662       661
 -1       246   12    0    1
 -2       662        44       663
 -1       247   12    0    1
 -2        31       665       664
 -1       248   12    0    1
 -2       665       667       666
 -1       249   12    0    1
 -2       667       669       668
 -1       250   12    0    1
 -2       669        32       670
 -1       251   12    0    1
 -2        31       672       671
 -1       252   12    0    1
 -2       672       674       673
 -1       253   12    0    1
 -2       674        44       675
 -1       254   12    0    1
 -2        31       677       676
 -1       255   12    0    1
 -2       677       679       678
 -1       256   12    0    1
 -2       679       681       680
 -1       257   12    0    1
 -2       681       683       682
 -1       258   12    0    1
 -2       683        45       684
 -1       259   12    0    1
 -2        32       686       685
 -1       260   12    0    1
 -2       686       688       687
 -1       261   12    0    1
 -2       688       690       689
 -1       262   12    0    1
 -2       690        33       691
 -1       263   12    0    1
 -2        32       693       692
 -1       264   12    0    1
 -2       693       695       694
 -1       265   12    0    1
 -2       695        45       696
 -1       266   12    0    1
 -2        32       698       697
 -1       267   12    0    1
 -2       698       700       699
 -1       268   12    0    1
 -2       700       702       701
 -1       269   12    0    1
 -2       702       704       703
 -1       270   12    0    1
 -2       704        46       705
 -1       271   12    0    1
 -2        33       707       706
 -1       272   12    0    1
 -2       707       709       708
 -1       273   12    0    1
 -2       709       711       710
 -1       274   12    0    1
 -2       711        34       712
 -1       275   12    0    1
 -2        33       714       713
 -1       276   12    0    1
 -2       714       716       715
 -1       277   12    0    1
 -2       716        46       717
 -1       278   12    0    1
 -2        33       719       718
 -1       279   12    0    1
 -2       719       721       720
 -1       280   12    0    1
 -2       721       723       722
 -1       281   12    0    1
 -2       723       725       724
 -1       282   12    0    1
 -2       725        47       726
 -1       283   12    0    1
 -2        34       728       727
 -1       284   12    0    1
 -2       728       730       729
 -1       285   12    0    1
 -2       730       732       731
 -1       286   12    0    1
 -2       732        35       733
 -1       287   12    0    1
 -2        34       735       734
 -1       288   12    0    1
 -2       735       737       736
 -1       289   12    0    1
 -2       737        47       738
 -1       290   12    0    1
 -2        34       740       739
 -1       291   12    0    1
 -2       740       742       741
 -1       292   12    0    1
 -2       742       744       743
 -1       293   12    0    1
 -2       744       746       745
 -1       294   12    0    1
 -2       746        48       747
 -1       295   12    0    1
 -2        35       749       748
 -1       296   12    0    1
 -2       749       751       750
 -1       297   12    0    1
 -2       751       753       752
 -1       298   12    0    1
 -2       753        36       754
 -1       299   12    0    1
 -2        35       756       755
 -1       300   12    0    1
 -2       756       758       757
 -1       301   12    0    1
 -2       758        48       759
 -1       302   12    0    1
 -2        35       761       760
 -1       303   12    0    1
 -2       761       763       762
 -1       304   12    0    1
 -2       763       765       764
 -1       305   12    0    1
 -2       765       767       766
 -1       306   12    0    1
 -2       767        49       768
 -1       307   12    0    1
 -2        36       770       769
 -1       308   12    0    1
 -2       770       772       771
 -1       309   12    0    1
 -2       772       774       773
 -1       310   12    0    1
 -2       774        37       775
 -1       311   12    0    1
 -2        36       777       776
 -1       312   12    0    1
 -2       777       779       778
 -1       313   12    0    1
 -2       779        49       780
 -1       314   12    0    1
 -2        36       782       781
 -1       315   12    0    1
 -2       782       784       783
 -1       316   12    0    1
 -2       784       786       785
 -1       317   12    0    1
 -2       786       788       787
 -1       318   12    0    1
 -2       788        50       789
 -1       319   12    0    1
 -2        37       791       790
 -1       320   12    0    1
 -2       791       793       792
 -1       321   12    0    1
 -2       793       795       794
 -1       322   12    0    1
 -2       795        38       796
 -1       323   12    0    1
 -2        37       798       797
 -1       324   12    0    1
 -2       798       800       799
 -1       325   12    0    1
 -2       800        50       801
 -1       326   12    0    1
 -2        37       803       802
 -1       327   12    0    1
 -2       803       805       804
 -1       328   12    0    1
 -2       805       807       806
 -1       329   12    0    1
 -2       807       809       808
 -1       330   12    0    1
 -2       809        51       810
 -1       331   12    0    1
 -2        38       812       811
 -1       332   12    0    1
 -2       812       814       813
 -1       333   12    0    1
 -2       814       816       815
 -1       334   12    0    1
 -2       816        39       817
 -1       335   12    0    1
 -2        38       819       818
 -1       336   12    0    1
 -2       819       821       820
 -1       337   12    0    1
 -2       821        51       822
 -1       338   12    0    1
 -2        38       824       823
 -1       339   12    0    1
 -2       824       826       825
 -1       340   12    0    1
 -2       826       828       827
 -1       341   12    0    1
 -2       828       830       829
 -1       342   12    0    1
 -2       830        52       831
 -1       343   12    0    1
 -2        39       833       832
 -1       344   12    0    1
 -2       833       835       834
 -1       345   12    0    1
 -2       835        52       836
 -1       346   12    0    1
 -2        40       838       837
 -1       347   12    0    1
 -2       838       840       839
 -1       348   12    0    1
 -2       840       842       841
 -1       349   12    0    1
 -2       842        41       843
 -1       350   12    0    1
 -2        40       845       844
 -1       351   12    0    1
 -2       845       847       846
 -1       352   12    0    1
 -2       847        53       848
 -1       353   12    0    1
 -2        40       850       849
 -1       354   12    0    1
 -2       850       852       851
 -1       355   12    0    1
 -2       852       854       853
 -1       356   12    0    1
 -2       854       856       855
 -1       357   12    0    1
 -2       856        54       857
 -1       358   12    0    1
 -2        41       859       858
 -1       359   12    0    1
 -2       859       861       860
 -1       360   12    0    1
 -2       861       863       862
 -1       361   12    0    1
 -2       863        42       864
 -1       362   12    0    1
 -2        41       866       865
 -1       363   12    0    1
 -2       866       868       867
 -1       364   12    0    1
 -2       868        54       869
 -1       365   12    0    1
 -2        41       871       870
 -1       366   12    0    1
 -2       871       873       872
 -1       367   12    0    1
 -2       873       875       874
 -1       368   12    0    1
 -2       875       877       876
 -1       369   12    0    1
 -2       877        55       878
 -1       370   12    0    1
 -2        42       880       879
 -1       371   12    0    1
 -2       880       882       881
 -1       372   12    0    1
 -2       882       884       883
 -1       373   12    0    1
 -2       884        43       885
 -1       374   12    0    1
 -2        42       887       886
 -1       375   12    0    1
 -2       887       889       888
 -1       376   12    0    1
 -2       889        55       890
 -1       377   12    0    1
 -2        42       892       891
 -1       378   12    0    1
 -2       892       894       893
 -1       379   12    0    1
 -2       894       896       895
 -1       380   12    0    1
 -2       896       898       897
 -1       381   12    0    1
 -2       898        56       899
 -1       382   12    0    1
 -2        43       901       900
 -1       383   12    0    1
 -2       901       903       902
 -1       384   12    0    1
 -2       903       905       904
 -1       385   12    0    1
 -2       905        44       906
 -1       386   12    0    1
 -2        43       908       907
 -1       387   12    0    1
 -2       908       910       909
 -1       388   12    0    1
 -2       910        56       911
 -1       389   12    0    1
 -2        43       913       912
 -1       390   12    0    1
 -2       913       915       914
 -1       391   12    0    1
 -2       915       917       916
 -1       392   12    0    1
 -2       917       919       918
 -1       393   12    0    1
 -2       919        57       920
 -1       394   12    0    1
 -2        44       922       921
 -1       395   12    0    1
 -2       922       924       923
 -1       396   12    0    1
 -2       924       926       925
 -1       397   12    0    1
 -2       926        45       927
 -1       398   12    0    1
 -2        44       929       928
 -1       399   12    0    1
 -2       929       931       930
 -1       400   12    0    1
 -2       931        57       932
 -1       401   12    0    1
 -2        44       934       933
 -1       402   12    0    1
 -2       934       936       935
 -1       403   12    0    1
 -2       936       938       937
 -1       404   12    0    1
 -2       938       940       939
 -1       405   12    0    1
 -2       940        58       941
 -1       406   12    0    1
 -2        45       943       942
 -1       407   12    0    1
 -2       943       945       944
 -1       408   12    0    1
 -2       945       947       946
 -1       409   12    0    1
 -2       947        46       948
 -1       410   12    0    1
 -2        45       950       949
 -1       411   12    0    1
 -2       950       952       951
 -1       412   12    0    1
 -2       952        58       953
 -1       413   12    0    1
 -2        45       955       954
 -1       414   12    0    1
 -2       955       957       956
 -1       415   12    0    1
 -2       957       959       958
 -1       416   12    0    1
 -2       959       961       960
 -1       417   12    0    1
 -2       961        59       962
 -1       418   12    0    1
 -2        46       964       963
 -1       419   12    0    1
 -2       964       966       965
 -1       420   12    0    1
 -2       966       968       967
 -1       421   12    0    1
 -2       968        47       969
 -1       422   12    0    1
 -2        46       971       970
 -1       423   12    0    1
 -2       971       973       972
 -1       424   12    0    1
 -2       973        59       974
 -1       425   12    0    1
 -2        46       976       975
 -1       426   12    0    1
 -2       976       978       977
 -1       427   12    0    1
 -2       978       980       979
 -1       428   12    0    1
 -2       980       982       981
 -1       429   12    0    1
 -2       982        60       983
 -1       430   12    0    1
 -2        47       985       984
 -1       431   12    0    1
 -2       985       987       986
 -1       432   12    0    1
 -2       987       989       988
 -1       433   12    0    1
 -2       989        48       990
 -1       434   12    0    1
 -2        47       992       991
 -1       435   12    0    1
 -2       992       994       993
 -1       436   12    0    1
 -2       994        60       995
 -1       437   12    0    1
 -2        47       997       996
 -1       438   12    0    1
 -2       997       999       998
 -1       439   12    0    1
 -2       999      1001      1000
 -1       440   12    0    1
 -2      1001      1003      1002
 -1       441   12    0    1
 -2      1003        61      1004
 -1       442   12    0    1
 -2        48      1006      1005
 -1       443   12    0    1
 -2      1006      1008      1007
 -1       444   12    0    1
 -2      1008      1010      1009
 -1       445   12    0    1
 -2      1010        49      1011
 -1       446   12    0    1
 -2        48      1013      1012
 -1       447   12    0    1
 -2      1013      1015      1014
 -1       448   12    0    1
 -2      1015        61      1016
 -1       449   12    0    1
 -2        48      1018      1017
 -1       450   12    0    1
 -2      1018      1020      1019
 -1       451   12    0    1
 -2      1020      1022      1021
 -1       452   12    0    1
 -2      1022      1024      1023
 -1       453   12    0    1
 -2      1024        62      1025
 -1       454   12    0    1
 -2        49      1027      1026
 -1       455   12    0    1
 -2      1027      1029      1028
 -1       456   12    0    1
 -2      1029      1031      1030
 -1       457   12    0    1
 -2      1031        50      1032
 -1       458   12    0    1
 -2        49      1034      1033
 -1       459   12    0    1
 -2      1034      1036      1035
 -1       460   12    0    1
 -2      1036        62      1037
 -1       461   12    0    1
 -2        49      1039      1038
 -1       462   12    0    1
 -2      1039      1041      1040
 -1       463   12    0    1
 -2      1041      1043      1042
 -1       464   12    0    1
 -2      1043      1045      1044
 -1       465   12    0    1
 -2      1045        63      1046
 -1       466   12    0    1
 -2        50      1048      1047
 -1       467   12    0    1
 -2      1048      1050      1049
 -1       468   12    0    1
 -2      1050      1052      1051
 -1       469   12    0    1
 -2      1052        51      1053
 -1       470   12    0    1
 -2        50      1055      1054
 -1       471   12    0    1
 -2      1055      1057      1056
 -1       472   12    0    1
 -2      1057        63      1058
 -1       473   12    0    1
 -2        50      1060      1059
 -1       474   12    0    1
 -2      1060      1062      1061
 -1       475   12    0    1
 -2      1062      1064      1063
 -1       476   12    0    1
 -2      1064      1066      1065
 -1       477   12    0    1
 -2      1066        64      1067
 -1       478   12    0    1
 -2        51      1069      1068
 -1       479   12    0    1
 -2      1069      1071      1070
 -1       480   12    0    1
 -2      1071      1073      1072
 -1       481   12    0    1
 -2      1073        52      1074
 -1       482   12    0    1
 -2        51      1076      1075
 -1       483   12    0    1
 -2      1076      1078      1077
 -1       484   12    0    1
 -2      1078        64      1079
 -1       485   12    0    1
 -2        51      1081      1080
 -1       486   12    0    1
 -2      1081      1083      1082
 -1       487   12    0    1
 -2      1083      1085      1084
 -1       488   12    0    1
 -2      1085      1087      1086
 -1       489   12    0    1
 -2      1087        65      1088
 -1       490   12    0    1
 -2        52      1090      1089
 -1       491   12    0    1
 -2      1090      1092      1091
 -1       492   12    0    1
 -2      1092        65      1093
 -1       493   12    0    1
 -2        53      1095      1094
 -1       494   12    0    1
 -2      1095      1097      1096
 -1       495   12    0    1
 -2      1097      1099      1098
 -1       496   12    0    1
 -2      1099        54      1100
 -1       497   12    0    1
 -2        54      1102      1101
 -1       498   12    0    1
 -2      1102      1104      1103
 -1       499   12    0    1
 -2      1104      1106      1105
 -1       500   12    0    1
 -2      1106        55      1107
 -1       501   12    0    1
 -2        55      1109      1108
 -1       502   12    0    1
 -2      1109      1111      1110
 -1       503   12    0    1
 -2      1111      1113      1112
 -1       504   12    0    1
 -2      1113        56      1114
 -1       505   12    0    1
 -2        56      1116      1115
 -1       506   12    0    1
 -2      1116      1118      1117
 -1       507   12    0    1
 -2      1118      1120      1119
 -1       508   12    0    1
 -2      1120        57      1121
 -1       509   12    0    1
 -2        57      1123      1122
 -1       510   12    0    1
 -2      1123      1125      1124
 -1       511   12    0    1
 -2      1125      1127      1126
 -1       512   12    0    1
 -2      1127        58      1128
 -1       513   12    0    1
 -2        58      1130      1129
 -1       514   12    0    1
 -2      1130      1132      1131
 -1       515   12    0    1
 -2      1132      1134      1133
 -1       516   12    0    1
 -2      1134        59      1135
 -1       517   12    0    1
 -2        59      1137      1136
 -1       518   12    0    1
 -2      1137      1139      1138
 -1       519   12    0    1
 -2      1139      1141      1140
 -1       520   12    0    1
 -2      1141        60      1142
 -1       521   12    0    1
 -2        60      1144      1143
 -1       522   12    0    1
 -2      1144      1146      1145
 -1       523   12    0    1
 -2      1146      1148      1147
 -1       524   12    0    1
 -2      1148        61      1149
 -1       525   12    0    1
 -2        61      1151      1150
 -1       526   12    0    1
 -2      1151      1153      1152
 -1       527   12    0    1
 -2      1153      1155      1154
 -1       528   12    0    1
 -2      1155        62      1156
 -1       529   12    0    1
 -2        62      1158      1157
 -1       530   12    0    1
 -2      1158      1160      1159
 -1       531   12    0    1
 -2      1160      1162      1161
 -1       532   12    0    1
 -2      1162        63      1163
 -1       533   12    0    1
 -2        63      1165      1164
 -1       534   12    0    1
 -2      1165      1167      1166
 -1       535   12    0    1
 -2      1167      1169      1168
 -1       536   12    0    1
 -2      1169        64      1170
 -1       537   12    0    1
 -2        64      1172      1171
 -1       538   12    0    1
 -2      1172      1174      1173
 -1       539   12    0    1
 -2      1174      1176      1175
 -1       540   12    0    1
 -2      1176        65      1177
 -3
    1PSTEP                         1           1           1          
  100CL  101 1.000000000        1001                     0    1           1
 -4  DISP        4    1
 -5  D1          1    2    1    0
 -5  D2          1    2    2    0
 -5  D3          1    2    3    0
 -5  ALL         1    2    0    0    1ALL
 -1         1-7.30266E-05 0.00000E+00 0.00000E+00
 -1         2-5.36295E-05 0.00000E+00 0.00000E+00
 -1         3-4.13672E-05 0.00000E+00 0.00000E+00
 -1         4-3.30262E-05 0.00000E+00 0.00000E+00
 -1         5-2.71039E-05 0.00000E+00 0.00000E+00
 -1         6-2.28555E-05 0.00000E+00 0.00000E+00
 -1         7-2.00127E-05 0.00000E+00 0.00000E+00
 -1         8-1.88632E-05 0.00000E+00 0.00000E+00
 -1         9-1.88893E-05 0.00000E+00 0.00000E+00
 -1        14-3.89665E-05 2.42119E-06 0.00000E+00
 -1        15-4.18438E-05-4.56214E-06 0.00000E+00
 -1        16-3.74903E-05-3.53977E-06 0.00000E+00
 -1        17-3.20647E-05-2.33897E-06 0.00000E+00
 -1        18-2.72982E-05-1.29634E-06 0.00000E+00
 -1        19-2.33196E-05-5.86161E-07 0.00000E+00
 -1        20-1.97314E-05-4.11267E-07 0.00000E+00
 -1        21-1.68477E-05 2.19611E-07 0.00000E+00
 -1        22-1.75546E-05 1.28061E-06 0.00000E+00
 -1        27-2.42123E-05 2.44300E-06 0.00000E+00
 -1        28-2.56983E-05-5.26029E-06 0.00000E+00
 -1        29-2.67227E-05-6.43697E-06 0.00000E+00
 -1        30-2.53138E-05-4.98882E-06 0.00000E+00
 -1        31-2.30211E-05-2.97963E-06 0.00000E+00
 -1        32-2.11768E-05-1.35291E-06 0.00000E+00
 -1        33-1.88718E-05-1.20861E-06 0.00000E+00
 -1        34-1.47269E-05-1.54218E-06 0.00000E+00
 -1        35-8.85425E-06 3.31357E-06 0.00000E+00
 -1        36-2.93177E-06 3.81243E-05 0.00000E+00
 -1        37-3.35102E-07 7.57022E-05 0.00000E+00
 -1        38 3.08961E-07 1.13953E-04 0.00000E+00
 -1        39 2.43781E-07 1.50480E-04 0.00000E+00
 -1        40-1.39127E-05 1.60968E-06 0.00000E+00
 -1        41-1.52256E-05-5.80121E-06 0.00000E+00
 -1        42-1.67978E-05-8.00523E-06 0.00000E+00
 -1        43-1.72115E-05-7.13660E-06 0.00000E+00
 -1        44-1.60947E-05-4.88111E-06 0.00000E+00
 -1        45-1.45787E-05-1.80133E-06 0.00000E+00
 -1        46-1.64758E-05-9.83361E-07 0.00000E+00
 -1        47-1.75179E-05-2.46628E-06 0.00000E+00
 -1        48-1.84459E-05 4.88595E-06 0.00000E+00
 -1        49-2.18755E-05 3.52228E-05 0.00000E+00
 -1        50-2.33402E-05 7.33556E-05 0.00000E+00
 -1        51-2.42808E-05 1.12282E-04 0.00000E+00
 -1        52-2.49605E-05 1.49149E-04 0.00000E+00
 -1        53 0.00000E+00 0.00000E+00 0.00000E+00
 -1        54-5.45403E-06-6.53631E-06 0.00000E+00
 -1        55-9.53796E-06-8.97717E-06 0.00000E+00
 -1        56-1.17891E-05-8.46974E-06 0.00000E+00
 -1        57-1.15292E-05-6.58802E-06 0.00000E+00
 -1        58-8.03722E-06-4.11937E-06 0.00000E+00
 -1        59 0.00000E+00 0.00000E+00 0.00000E+00
 -1        60-1.23908E-05-3.24676E-06 0.00000E+00
 -1        61-2.34494E-05 4.95209E-06 0.00000E+00
 -1        62-3.44950E-05 3.35374E-05 0.00000E+00
 -1        63-4.24320E-05 7.13599E-05 0.00000E+00
 -1        64-4.67302E-05 1.10821E-04 0.00000E+00
 -1        65-4.83975E-05 1.48221E-04 0.00000E+00
 -1        66-7.06200E-05 5.95570E-21 0.00000E+00
 -1        67-6.81826E-05 2.91829E-21 2.64698E-23
 -1        68-6.57465E-05 2.89844E-21-5.29396E-23
 -1        69-6.33071E-05-3.08373E-21 0.00000E+00
 -1        70-6.08683E-05-3.58666E-21-5.29396E-23
 -1        71-5.84376E-05-6.80273E-21-2.64698E-23
 -1        72-5.60051E-05-4.04988E-21 5.29396E-23
 -1        73-7.09331E-05 4.68780E-07 0.00000E+00
 -1        74-6.57807E-05 8.73842E-07-1.32349E-23
 -1        75-5.87918E-05 1.27045E-06 0.00000E+00
 -1        76-5.11836E-05 1.65270E-06 0.00000E+00
 -1        77-4.41701E-05 2.03785E-06 0.00000E+00
 -1        78-7.09461E-05 9.14878E-07 0.00000E+00
 -1        79-6.83440E-05 1.17093E-06 2.64698E-23
 -1        80-6.53541E-05 9.06909E-07-5.29396E-23
 -1        81-6.20783E-05 2.65353E-07 0.00000E+00
 -1        82-5.86171E-05-6.24935E-07 0.00000E+00
 -1        83-5.50646E-05-1.64024E-06 2.64698E-23
 -1        84-5.15112E-05-2.65893E-06 0.00000E+00
 -1        85-4.80559E-05-3.56581E-06-2.64698E-23
 -1        86-4.47804E-05-4.22833E-06 0.00000E+00
 -1        87-5.21077E-05-2.49478E-21 0.00000E+00
 -1        88-5.05666E-05-5.84320E-21 2.64698E-23
 -1        89-4.90263E-05-7.90785E-21-5.29396E-23
 -1        90-4.74840E-05 5.61821E-21 0.00000E+00
 -1        91-4.59421E-05 2.79256E-21 5.29396E-23
 -1        92-4.44055E-05-8.21225E-21 0.00000E+00
 -1        93-4.28678E-05-5.03588E-21 2.64698E-23
 -1        94-5.29759E-05-7.02060E-07 3.30872E-24
 -1        95-5.13265E-05-1.48162E-06 3.30872E-24
 -1        96-4.90310E-05-2.25914E-06 1.32349E-23
 -1        97-4.64462E-05-3.04155E-06-6.61744E-24
 -1        98-4.39312E-05-3.82685E-06-3.30872E-24
 -1        99-5.25844E-05 4.14093E-07 0.00000E+00
 -1       100-5.12467E-05 4.38184E-07 0.00000E+00
 -1       101-4.96819E-05 1.58787E-07 2.64698E-23
 -1       102-4.79525E-05-3.40808E-07 1.32349E-23
 -1       103-4.61190E-05-9.80009E-07-2.64698E-23
 -1       104-4.42411E-05-1.68024E-06 0.00000E+00
 -1       105-4.23768E-05-2.36308E-06 0.00000E+00
 -1       106-4.05884E-05-2.95260E-06 1.32349E-23
 -1       107-3.89308E-05-3.36581E-06 0.00000E+00
 -1       108-4.03354E-05 2.03156E-21 2.64698E-23
 -1       109-3.92871E-05 7.26926E-21 0.00000E+00
 -1       110-3.82394E-05 1.04754E-20 2.64698E-23
 -1       111-3.71898E-05 1.35360E-20 0.00000E+00
 -1       112-3.61403E-05 1.21463E-20 0.00000E+00
 -1       113-3.50944E-05 5.18808E-21 1.32349E-23
 -1       114-3.40477E-05 2.40544E-21 0.00000E+00
 -1       115-4.11865E-05-5.53004E-07 0.00000E+00
 -1       116-4.07139E-05-1.15771E-06 3.30872E-24
 -1       117-4.00275E-05-1.76027E-06-1.32349E-23
 -1       118-3.92075E-05-2.36490E-06 0.00000E+00
 -1       119-3.83347E-05-2.97177E-06-3.30872E-24
 -1       120-4.07729E-05 2.21602E-07 0.00000E+00
 -1       121-4.00021E-05 2.04541E-07 0.00000E+00
 -1       122-3.90929E-05 2.65572E-09-1.32349E-23
 -1       123-3.80841E-05-3.32706E-07 6.61744E-24
 -1       124-3.70136E-05-7.50725E-07-1.32349E-23
 -1       125-3.59192E-05-1.20146E-06 6.61744E-24
 -1       126-3.48381E-05-1.63490E-06 0.00000E+00
 -1       127-3.38092E-05-2.00212E-06 0.00000E+00
 -1       128-3.28683E-05-2.25118E-06 0.00000E+00
 -1       129-3.22944E-05 7.29242E-21 0.00000E+00
 -1       130-3.15502E-05 1.38669E-20 1.32349E-23
 -1       131-3.08064E-05 1.40455E-20 0.00000E+00
 -1       132-3.00612E-05 6.66377E-21-1.32349E-23
 -1       133-2.93161E-05 1.91906E-21-2.64698E-23
 -1       134-2.85733E-05-1.26724E-21-1.32349E-23
 -1       135-2.78300E-05-9.39677E-22 0.00000E+00
 -1       136-3.30142E-05-3.65568E-07-8.27181E-25
 -1       137-3.29639E-05-7.65846E-07 3.30872E-24
 -1       138-3.28592E-05-1.16457E-06 0.00000E+00
 -1       139-3.26846E-05-1.56433E-06 3.30872E-24
 -1       140-3.24247E-05-1.96565E-06 0.00000E+00
 -1       141-3.26521E-05 1.41752E-07 0.00000E+00
 -1       142-3.21700E-05 1.34930E-07 0.00000E+00
 -1       143-3.16026E-05 1.43683E-08-1.32349E-23
 -1       144-3.09749E-05-1.87463E-07 6.61744E-24
 -1       145-3.03109E-05-4.37920E-07-1.32349E-23
 -1       146-2.96348E-05-7.04866E-07 6.61744E-24
 -1       147-2.89707E-05-9.56075E-07 1.32349E-23
 -1       148-2.83433E-05-1.15980E-06 0.00000E+00
 -1       149-2.77761E-05-1.28296E-06-1.32349E-23
 -1       150-2.65786E-05-7.19647E-22 0.00000E+00
 -1       151-2.60449E-05-4.43203E-21 0.00000E+00
 -1       152-2.55115E-05-9.28262E-21 1.32349E-23
 -1       153-2.49771E-05-5.83659E-21-6.61744E-24
 -1       154-2.44428E-05-3.79345E-21 0.00000E+00
 -1       155-2.39101E-05-3.53702E-21 6.61744E-24
 -1       156-2.33770E-05 3.17637E-22 1.32349E-23
 -1       157-2.71502E-05-2.00322E-07 1.65436E-24
 -1       158-2.72492E-05-4.23402E-07 0.00000E+00
 -1       159-2.73573E-05-6.45447E-07 3.30872E-24
 -1       160-2.74306E-05-8.68066E-07-1.65436E-24
 -1       161-2.74254E-05-1.09171E-06-4.13590E-25
 -1       162-2.68454E-05 1.06575E-07 6.61744E-24
 -1       163-2.65199E-05 1.19289E-07 0.00000E+00
 -1       164-2.61411E-05 6.09909E-08 0.00000E+00
 -1       165-2.57252E-05-4.75957E-08 0.00000E+00
 -1       166-2.52874E-05-1.85380E-07 0.00000E+00
 -1       167-2.48435E-05-3.31620E-07 0.00000E+00
 -1       168-2.44089E-05-4.65512E-07 0.00000E+00
 -1       169-2.39995E-05-5.66428E-07-3.30872E-24
 -1       170-2.36306E-05-6.13234E-07 6.61744E-24
 -1       171-2.25027E-05-8.25526E-22 6.61744E-24
 -1       172-2.21457E-05-1.13820E-21-6.61744E-24
 -1       173-2.17888E-05-4.86548E-21 0.00000E+00
 -1       174-2.14314E-05-4.51641E-22 0.00000E+00
 -1       175-2.10742E-05-2.06299E-21-1.32349E-23
 -1       176-2.07180E-05-1.15971E-21 6.61744E-24
 -1       177-2.03615E-05-5.37667E-22-6.61744E-24
 -1       178-2.29074E-05-8.78157E-08 3.30872E-24
 -1       179-2.30252E-05-1.90231E-07-2.58494E-26
 -1       180-2.31671E-05-2.91964E-07 8.27181E-25
 -1       181-2.32913E-05-3.93933E-07 1.03398E-25
 -1       182-2.33560E-05-4.96576E-07-1.65436E-24
 -1       183-2.26422E-05 9.34077E-08 0.00000E+00
 -1       184-2.23766E-05 1.15150E-07 0.00000E+00
 -1       185-2.20695E-05 8.15755E-08 0.00000E+00
 -1       186-2.17327E-05 8.04416E-09 0.00000E+00
 -1       187-2.13776E-05-8.99494E-08-6.61744E-24
 -1       188-2.10157E-05-1.97094E-07 3.30872E-24
 -1       189-2.06585E-05-2.98056E-07 0.00000E+00
 -1       190-2.03176E-05-3.77614E-07 0.00000E+00
 -1       191-2.00044E-05-4.20242E-07-6.61744E-24
 -1       192-1.98673E-05-2.29956E-22 6.61744E-24
 -1       193-1.97231E-05 3.65200E-22 1.65436E-24
 -1       194-1.95790E-05 2.29625E-21 0.00000E+00
 -1       195-1.94351E-05 3.07091E-21 0.00000E+00
 -1       196-1.92913E-05 5.06814E-21 0.00000E+00
 -1       197-1.91479E-05 3.62264E-21 0.00000E+00
 -1       198-1.90044E-05 1.84751E-21 0.00000E+00
 -1       199-2.00081E-05-6.22306E-08 0.00000E+00
 -1       200-1.99911E-05-1.34508E-07 0.00000E+00
 -1       201-1.99584E-05-2.06270E-07-4.13590E-25
 -1       202-1.99065E-05-2.77897E-07 0.00000E+00
 -1       203-1.98319E-05-3.50045E-07 0.00000E+00
 -1       204-1.97863E-05 1.36489E-07 6.61744E-24
 -1       205-1.95281E-05 2.37056E-07 0.00000E+00
 -1       206-1.92448E-05 3.04076E-07 0.00000E+00
 -1       207-1.89395E-05 3.42655E-07 3.30872E-24
 -1       208-1.86161E-05 3.57062E-07 0.00000E+00
 -1       209-1.82778E-05 3.51794E-07 3.30872E-24
 -1       210-1.79282E-05 3.31287E-07 0.00000E+00
 -1       211-1.75709E-05 2.99668E-07 0.00000E+00
 -1       212-1.72087E-05 2.61694E-07 0.00000E+00
 -1       213-1.88636E-05 3.33664E-22 0.00000E+00
 -1       214-1.88679E-05-2.57678E-21 0.00000E+00
 -1       215-1.88721E-05-3.14574E-21 0.00000E+00
 -1       216-1.88768E-05-1.71774E-21 0.00000E+00
 -1       217-1.88814E-05-3.35654E-21-4.13590E-25
 -1       218-1.88855E-05-2.06530E-21 0.00000E+00
 -1       219-1.88897E-05-9.57151E-22 0.00000E+00
 -1       220-1.87439E-05 3.69838E-08 0.00000E+00
 -1       221-1.84477E-05 7.18289E-08-8.27181E-25
 -1       222-1.80422E-05 1.06840E-07 0.00000E+00
 -1       223-1.75952E-05 1.42474E-07 8.27181E-25
 -1       224-1.71745E-05 1.77905E-07 0.00000E+00
 -1       225-1.87722E-05 1.74902E-07 0.00000E+00
 -1       226-1.87522E-05 4.50943E-07 0.00000E+00
 -1       227-1.87756E-05 7.84604E-07 0.00000E+00
 -1       228-1.88109E-05 1.13523E-06 3.30872E-24
 -1       229-1.88279E-05 1.46146E-06-6.61744E-24
 -1       230-1.87956E-05 1.72221E-06 0.00000E+00
 -1       231-1.86832E-05 1.87619E-06 6.61744E-24
 -1       232-1.84598E-05 1.88188E-06 3.30872E-24
 -1       233-1.80938E-05 1.69755E-06 0.00000E+00
 -1       241-1.89090E-05 2.09913E-07 0.00000E+00
 -1       242-1.89130E-05 4.24370E-07-3.30872E-24
 -1       243-1.88405E-05 6.38658E-07 0.00000E+00
 -1       244-1.86308E-05 8.53310E-07-3.30872E-24
 -1       245-1.82227E-05 1.06805E-06 0.00000E+00
 -1       323-3.93150E-05-5.32294E-07 0.00000E+00
 -1       324-3.96830E-05-2.21494E-06 0.00000E+00
 -1       325-4.00490E-05-2.96095E-06 0.00000E+00
 -1       326-4.04172E-05-3.10941E-06 0.00000E+00
 -1       327-4.07851E-05-3.00164E-06 6.61744E-24
 -1       328-4.11483E-05-2.98010E-06 0.00000E+00
 -1       329-4.15127E-05-3.38702E-06 4.13590E-25
 -1       330-3.54812E-05 2.42874E-06 3.30872E-24
 -1       331-3.24656E-05 2.43076E-06 0.00000E+00
 -1       332-2.98753E-05 2.43409E-06-1.65436E-24
 -1       333-2.76658E-05 2.43700E-06 2.06795E-25
 -1       334-2.57930E-05 2.44045E-06 0.00000E+00
 -1       335-3.65286E-05 1.40048E-07-1.32349E-23
 -1       336-3.45403E-05-1.50758E-06 0.00000E+00
 -1       337-3.29332E-05-2.64558E-06-1.32349E-23
 -1       338-3.16232E-05-3.38140E-06-6.61744E-24
 -1       339-3.05331E-05-3.82304E-06 1.32349E-23
 -1       340-2.95851E-05-4.07506E-06 6.61744E-24
 -1       341-2.87021E-05-4.24060E-06 0.00000E+00
 -1       342-2.78099E-05-4.42383E-06-6.61744E-24
 -1       343-2.68287E-05-4.72502E-06-1.32349E-23
 -1       344-4.13026E-05-5.71912E-06 0.00000E+00
 -1       345-4.07566E-05-6.00074E-06-6.61744E-24
 -1       346-4.02106E-05-5.66405E-06 0.00000E+00
 -1       347-3.96644E-05-4.96282E-06-6.61744E-24
 -1       348-3.91183E-05-4.14847E-06 0.00000E+00
 -1       349-3.85732E-05-3.47175E-06 0.00000E+00
 -1       350-3.80278E-05-3.18430E-06 1.32349E-23
 -1       351-3.96139E-05-4.65850E-06-3.30872E-24
 -1       352-3.66943E-05-4.77986E-06-4.13590E-25
 -1       353-3.34635E-05-4.90126E-06 8.27181E-25
 -1       354-3.03011E-05-5.02472E-06-4.13590E-25
 -1       355-2.75867E-05-5.14776E-06 0.00000E+00
 -1       356-4.00281E-05-5.19146E-06-2.64698E-23
 -1       357-3.83152E-05-5.63704E-06 0.00000E+00
 -1       358-3.67062E-05-5.94517E-06-2.64698E-23
 -1       359-3.51764E-05-6.14045E-06 1.32349E-23
 -1       360-3.37094E-05-6.25137E-06 2.64698E-23
 -1       361-3.22868E-05-6.30339E-06 1.32349E-23
 -1       362-3.08908E-05-6.32104E-06-2.64698E-23
 -1       363-2.95075E-05-6.33145E-06 1.32349E-23
 -1       364-2.81136E-05-6.35424E-06 2.64698E-23
 -1       365-3.68220E-05-4.03693E-06 0.00000E+00
 -1       366-3.61399E-05-4.07125E-06 0.00000E+00
 -1       367-3.54584E-05-3.78355E-06 0.00000E+00
 -1       368-3.47753E-05-3.31249E-06-1.32349E-23
 -1       369-3.40922E-05-2.79524E-06 0.00000E+00
 -1       370-3.34113E-05-2.36860E-06-6.61744E-24
 -1       371-3.27299E-05-2.17015E-06 0.00000E+00
 -1       372-3.62529E-05-3.99735E-06 0.00000E+00
 -1       373-3.43952E-05-4.49063E-06-3.30872E-24
 -1       374-3.22142E-05-4.98294E-06-1.32349E-23
 -1       375-3.00091E-05-5.47642E-06 3.30872E-24
 -1       376-2.80795E-05-5.97092E-06-3.30872E-24
 -1       377-3.63011E-05-3.67675E-06 0.00000E+00
 -1       378-3.50677E-05-3.83520E-06 0.00000E+00
 -1       379-3.38174E-05-4.01729E-06 2.64698E-23
 -1       380-3.25556E-05-4.20911E-06 1.32349E-23
 -1       381-3.12934E-05-4.40118E-06 2.64698E-23
 -1       382-3.00395E-05-4.58239E-06 0.00000E+00
 -1       383-2.88027E-05-4.74139E-06 0.00000E+00
 -1       384-2.75949E-05-4.86887E-06-1.32349E-23
 -1       385-2.64211E-05-4.94970E-06-1.32349E-23
 -1       386-3.14783E-05-2.58287E-06-1.32349E-23
 -1       387-3.08791E-05-2.55712E-06 0.00000E+00
 -1       388-3.02803E-05-2.34402E-06 0.00000E+00
 -1       389-2.96799E-05-2.02479E-06 0.00000E+00
 -1       390-2.90796E-05-1.67989E-06 1.32349E-23
 -1       391-2.84812E-05-1.38959E-06 0.00000E+00
 -1       392-2.78824E-05-1.23459E-06 1.32349E-23
 -1       393-3.13538E-05-2.75971E-06 3.30872E-24
 -1       394-3.02246E-05-3.21116E-06 0.00000E+00
 -1       395-2.88657E-05-3.66144E-06 0.00000E+00
 -1       396-2.74675E-05-4.11226E-06 0.00000E+00
 -1       397-2.62204E-05-4.56431E-06 3.30872E-24
 -1       398-3.12488E-05-2.30772E-06 0.00000E+00
 -1       399-3.03731E-05-2.32841E-06 6.61744E-24
 -1       400-2.94627E-05-2.39636E-06 0.00000E+00
 -1       401-2.85260E-05-2.49511E-06 0.00000E+00
 -1       402-2.75757E-05-2.61165E-06-2.64698E-23
 -1       403-2.66228E-05-2.73189E-06 0.00000E+00
 -1       404-2.56781E-05-2.84170E-06 2.64698E-23
 -1       405-2.47543E-05-2.92837E-06 0.00000E+00
 -1       406-2.38597E-05-2.97530E-06 1.32349E-23
 -1       407-2.68088E-05-1.40918E-06-1.32349E-23
 -1       408-2.63087E-05-1.37418E-06 0.00000E+00
 -1       409-2.58090E-05-1.23688E-06 1.32349E-23
 -1       410-2.53080E-05-1.04233E-06 0.00000E+00
 -1       411-2.48070E-05-8.35228E-07-1.32349E-23
 -1       412-2.43075E-05-6.60220E-07-6.61744E-24
 -1       413-2.38077E-05-5.62134E-07 0.00000E+00
 -1       414-2.68939E-05-1.56236E-06 0.00000E+00
 -1       415-2.62051E-05-1.85030E-06 0.00000E+00
 -1       416-2.53523E-05-2.13729E-06 6.61744E-24
 -1       417-2.44565E-05-2.42445E-06-1.65436E-24
 -1       418-2.36392E-05-2.71259E-06-4.13590E-25
 -1       419-2.67696E-05-1.20435E-06 0.00000E+00
 -1       420-2.61969E-05-1.15434E-06 0.00000E+00
 -1       421-2.55956E-05-1.14285E-06 1.32349E-23
 -1       422-2.49715E-05-1.15925E-06 0.00000E+00
 -1       423-2.43327E-05-1.19503E-06 1.32349E-23
 -1       424-2.36863E-05-1.24103E-06 0.00000E+00
 -1       425-2.30394E-05-1.28809E-06 0.00000E+00
 -1       426-2.24001E-05-1.32802E-06-6.61744E-24
 -1       427-2.17736E-05-1.35027E-06 0.00000E+00
 -1       428-2.28782E-05-6.45055E-07 0.00000E+00
 -1       429-2.24272E-05-6.32370E-07 0.00000E+00
 -1       430-2.19766E-05-5.72509E-07-1.32349E-23
 -1       431-2.15247E-05-4.89686E-07 0.00000E+00
 -1       432-2.10728E-05-4.07983E-07 1.32349E-23
 -1       433-2.06224E-05-3.51492E-07 0.00000E+00
 -1       434-2.01716E-05-3.44443E-07 0.00000E+00
 -1       435-2.31314E-05-7.04386E-07 1.65436E-24
 -1       436-2.28180E-05-8.36994E-07 4.13590E-25
 -1       437-2.24224E-05-9.68937E-07 0.00000E+00
 -1       438-2.19881E-05-1.10101E-06 0.00000E+00
 -1       439-2.15584E-05-1.23377E-06-1.65436E-24
 -1       440-2.29689E-05-5.28299E-07-6.61744E-24
 -1       441-2.25579E-05-5.43877E-07-3.30872E-24
 -1       442-2.21039E-05-6.16991E-07 6.61744E-24
 -1       443-2.16202E-05-7.28836E-07 0.00000E+00
 -1       444-2.11207E-05-8.61566E-07-1.32349E-23
 -1       445-2.06192E-05-9.97101E-07 0.00000E+00
 -1       446-2.01292E-05-1.11734E-06 0.00000E+00
 -1       447-1.96651E-05-1.20461E-06 0.00000E+00
 -1       448-1.92398E-05-1.23996E-06 0.00000E+00
 -1       449-1.93762E-05-4.41015E-07 6.61744E-24
 -1       450-1.90140E-05-3.44254E-07 0.00000E+00
 -1       451-1.86521E-05-1.68884E-07 0.00000E+00
 -1       452-1.82892E-05 3.74333E-08-6.61744E-24
 -1       453-1.79264E-05 2.27175E-07 0.00000E+00
 -1       454-1.75645E-05 3.52758E-07 0.00000E+00
 -1       455-1.72024E-05 3.66311E-07-6.61744E-24
 -1       456-1.96072E-05-5.35135E-07 0.00000E+00
 -1       457-1.94688E-05-6.72588E-07 0.00000E+00
 -1       458-1.93212E-05-8.09389E-07-1.65436E-24
 -1       459-1.91693E-05-9.46307E-07-8.27181E-25
 -1       460-1.90178E-05-1.08387E-06 0.00000E+00
 -1       461-1.93418E-05-3.84808E-07 6.61744E-24
 -1       462-1.88546E-05-4.78835E-07 0.00000E+00
 -1       463-1.83008E-05-6.62060E-07-1.32349E-23
 -1       464-1.77054E-05-8.99235E-07 0.00000E+00
 -1       465-1.70949E-05-1.15645E-06 0.00000E+00
 -1       466-1.64951E-05-1.39940E-06 0.00000E+00
 -1       467-1.59318E-05-1.59374E-06 0.00000E+00
 -1       468-1.54315E-05-1.70537E-06-3.30872E-24
 -1       469-1.50196E-05-1.69882E-06-6.61744E-24
 -1       470-1.69270E-05 1.74686E-07 0.00000E+00
 -1       471-1.70178E-05 4.26338E-07-2.06795E-25
 -1       472-1.71083E-05 8.51868E-07-1.65436E-24
 -1       473-1.72004E-05 1.32817E-06 8.27181E-25
 -1       474-1.72924E-05 1.73211E-06 0.00000E+00
 -1       475-1.73830E-05 1.94065E-06-4.13590E-25
 -1       476-1.74741E-05 1.83091E-06 8.27181E-25
 -1       477-1.65029E-05-6.13662E-08 0.00000E+00
 -1       478-1.60424E-05-3.62164E-07 0.00000E+00
 -1       479-1.55505E-05-6.61981E-07 0.00000E+00
 -1       480-1.51113E-05-9.61640E-07 0.00000E+00
 -1       481-1.48089E-05-1.26225E-06 0.00000E+00
 -1       482-1.59819E-05 3.97007E-07 0.00000E+00
 -1       483-1.49854E-05 4.44902E-07-1.32349E-23
 -1       484-1.39285E-05 4.11045E-07-2.64698E-23
 -1       485-1.28550E-05 3.62086E-07 1.32349E-23
 -1       486-1.18155E-05 3.59268E-07 2.64698E-23
 -1       487-1.08578E-05 4.66575E-07 1.32349E-23
 -1       488-1.00311E-05 7.48642E-07 0.00000E+00
 -1       489-9.38613E-06 1.27129E-06-1.32349E-23
 -1       490-8.97364E-06 2.10415E-06 0.00000E+00
 -1       498-1.61380E-05 1.60966E-06 0.00000E+00
 -1       499-1.40158E-05 1.94543E-06-6.61744E-24
 -1       500-1.17069E-05 2.28094E-06 1.32349E-23
 -1       501-9.72999E-06 2.62023E-06 6.61744E-24
 -1       502-8.60503E-06 2.96043E-06-1.32349E-23
 -1       580-2.43943E-05 1.14650E-06 0.00000E+00
 -1       581-2.45829E-05 9.77461E-08-1.65436E-24
 -1       582-2.47710E-05-7.79105E-07 0.00000E+00
 -1       583-2.49599E-05-1.56041E-06 3.30872E-24
 -1       584-2.51485E-05-2.32268E-06-3.30872E-24
 -1       585-2.53355E-05-3.14251E-06 0.00000E+00
 -1       586-2.55230E-05-4.09637E-06 0.00000E+00
 -1       587-2.26759E-05 2.30832E-06 3.30872E-24
 -1       588-2.10130E-05 2.16862E-06 0.00000E+00
 -1       589-1.92643E-05 2.02894E-06-3.30872E-24
 -1       590-1.74707E-05 1.88871E-06 0.00000E+00
 -1       591-1.56732E-05 1.74831E-06 0.00000E+00
 -1       592-2.31943E-05 1.44412E-06 0.00000E+00
 -1       593-2.22153E-05 5.14918E-07 0.00000E+00
 -1       594-2.12766E-05-3.60892E-07-6.61744E-24
 -1       595-2.03694E-05-1.19194E-06 3.30872E-24
 -1       596-1.94877E-05-1.98874E-06 6.61744E-24
 -1       597-1.86244E-05-2.76091E-06 0.00000E+00
 -1       598-1.77726E-05-3.51800E-06 6.61744E-24
 -1       599-1.69262E-05-4.27031E-06-3.30872E-24
 -1       600-1.60768E-05-5.02617E-06 0.00000E+00
 -1       601-2.58199E-05-6.19286E-06-1.55096E-25
 -1       602-2.59510E-05-6.54456E-06 0.00000E+00
 -1       603-2.60816E-05-6.49289E-06 3.30872E-24
 -1       604-2.62135E-05-6.21638E-06 0.00000E+00
 -1       605-2.63453E-05-5.89381E-06 0.00000E+00
 -1       606-2.64752E-05-5.70404E-06 0.00000E+00
 -1       607-2.66056E-05-5.82579E-06-4.13590E-25
 -1       608-2.41650E-05-5.34345E-06 1.29247E-25
 -1       609-2.23240E-05-5.43531E-06 0.00000E+00
 -1       610-2.03422E-05-5.52714E-06 1.65436E-24
 -1       611-1.83871E-05-5.61972E-06 0.00000E+00
 -1       612-1.66259E-05-5.71223E-06 0.00000E+00
 -1       613-2.45573E-05-5.89561E-06 1.32349E-23
 -1       614-2.35148E-05-6.36810E-06 0.00000E+00
 -1       615-2.25649E-05-6.71778E-06 1.32349E-23
 -1       616-2.16842E-05-6.97044E-06 0.00000E+00
 -1       617-2.08543E-05-7.15484E-06-1.32349E-23
 -1       618-2.00554E-05-7.29795E-06 0.00000E+00
 -1       619-1.92679E-05-7.42638E-06 0.00000E+00
 -1       620-1.84743E-05-7.56834E-06 0.00000E+00
 -1       621-1.76517E-05-7.74801E-06 0.00000E+00
 -1       622-2.65465E-05-7.00581E-06 0.00000E+00
 -1       623-2.63707E-05-7.00283E-06 3.30872E-24
 -1       624-2.61949E-05-6.60723E-06 0.00000E+00
 -1       625-2.60193E-05-5.99780E-06 3.30872E-24
 -1       626-2.58436E-05-5.35284E-06 6.61744E-24
 -1       627-2.56676E-05-4.85058E-06 0.00000E+00
 -1       628-2.54916E-05-4.66962E-06 0.00000E+00
 -1       629-2.54277E-05-6.68403E-06 0.00000E+00
 -1       630-2.36475E-05-6.95052E-06 0.00000E+00
 -1       631-2.16376E-05-7.21662E-06 6.61744E-24
 -1       632-1.96551E-05-7.48366E-06 3.30872E-24
 -1       633-1.79567E-05-7.75099E-06 0.00000E+00
 -1       634-2.56326E-05-6.72331E-06 0.00000E+00
 -1       635-2.45810E-05-6.92080E-06-6.61744E-24
 -1       636-2.35775E-05-7.05514E-06 0.00000E+00
 -1       637-2.26104E-05-7.13528E-06 1.32349E-23
 -1       638-2.16739E-05-7.17406E-06 0.00000E+00
 -1       639-2.07605E-05-7.18230E-06 0.00000E+00
 -1       640-1.98624E-05-7.17049E-06-2.64698E-23
 -1       641-1.89750E-05-7.15098E-06-6.61744E-24
 -1       642-1.80869E-05-7.13111E-06 0.00000E+00
 -1       643-2.50295E-05-5.33756E-06 0.00000E+00
 -1       644-2.47422E-05-5.21827E-06 3.30872E-24
 -1       645-2.44552E-05-4.77991E-06-6.61744E-24
 -1       646-2.41678E-05-4.17072E-06 0.00000E+00
 -1       647-2.38804E-05-3.53831E-06 6.61744E-24
 -1       648-2.35933E-05-3.03022E-06 0.00000E+00
 -1       649-2.33059E-05-2.79446E-06 6.61744E-24
 -1       650-2.43210E-05-5.32976E-06-3.30872E-24
 -1       651-2.28627E-05-5.69512E-06 0.00000E+00
 -1       652-2.11801E-05-6.05971E-06 6.61744E-24
 -1       653-1.95159E-05-6.42493E-06 0.00000E+00
 -1       654-1.81127E-05-6.79086E-06 0.00000E+00
 -1       655-2.43495E-05-5.06571E-06 1.32349E-23
 -1       656-2.33807E-05-5.11154E-06 0.00000E+00
 -1       657-2.24253E-05-5.14054E-06 0.00000E+00
 -1       658-2.14799E-05-5.15069E-06 0.00000E+00
 -1       659-2.05466E-05-5.14410E-06-2.64698E-23
 -1       660-1.96257E-05-5.12104E-06 1.32349E-23
 -1       661-1.87174E-05-5.08162E-06 2.64698E-23
 -1       662-1.78244E-05-5.02760E-06-6.61744E-24
 -1       663-1.69438E-05-4.95615E-06 0.00000E+00
 -1       664-2.27905E-05-3.21852E-06-6.61744E-24
 -1       665-2.25596E-05-3.10947E-06 3.30872E-24
 -1       666-2.23288E-05-2.76363E-06 6.61744E-24
 -1       667-2.20981E-05-2.29176E-06 0.00000E+00
 -1       668-2.18674E-05-1.80426E-06 0.00000E+00
 -1       669-2.16369E-05-1.41147E-06 3.30872E-24
 -1       670-2.14062E-05-1.22403E-06 0.00000E+00
 -1       671-2.22322E-05-3.28120E-06 0.00000E+00
 -1       672-2.09963E-05-3.60570E-06 0.00000E+00
 -1       673-1.95384E-05-3.92939E-06 0.00000E+00
 -1       674-1.80849E-05-4.25328E-06 3.30872E-24
 -1       675-1.68620E-05-4.57797E-06 0.00000E+00
 -1       676-2.21740E-05-2.89700E-06 1.32349E-23
 -1       677-2.13297E-05-2.77397E-06 0.00000E+00
 -1       678-2.05000E-05-2.63241E-06 2.64698E-23
 -1       679-1.96757E-05-2.47813E-06 1.32349E-23
 -1       680-1.88531E-05-2.32110E-06 0.00000E+00
 -1       681-1.80264E-05-2.16956E-06-1.32349E-23
 -1       682-1.71896E-05-2.03180E-06 0.00000E+00
 -1       683-1.63390E-05-1.91784E-06 0.00000E+00
 -1       684-1.54651E-05-1.83385E-06 0.00000E+00
 -1       685-2.08913E-05-1.58580E-06 0.00000E+00
 -1       686-2.06021E-05-1.65239E-06 0.00000E+00
 -1       687-2.03130E-05-1.60024E-06 0.00000E+00
 -1       688-2.00235E-05-1.47666E-06-3.30872E-24
 -1       689-1.97340E-05-1.32869E-06-6.61744E-24
 -1       690-1.94452E-05-1.20330E-06 3.30872E-24
 -1       691-1.91562E-05-1.14754E-06 0.00000E+00
 -1       692-2.05136E-05-1.42047E-06 0.00000E+00
 -1       693-1.93925E-05-1.49975E-06 0.00000E+00
 -1       694-1.80257E-05-1.57868E-06 0.00000E+00
 -1       695-1.66260E-05-1.65730E-06 4.13590E-25
 -1       696-1.54063E-05-1.73633E-06 0.00000E+00
 -1       697-2.07081E-05-1.32426E-06 0.00000E+00
 -1       698-2.03039E-05-1.19563E-06-6.61744E-24
 -1       699-1.99446E-05-1.00752E-06 0.00000E+00
 -1       700-1.96027E-05-7.94155E-07 6.61744E-24
 -1       701-1.92529E-05-5.91222E-07-1.32349E-23
 -1       702-1.88691E-05-4.33889E-07 0.00000E+00
 -1       703-1.84250E-05-3.57447E-07-1.32349E-23
 -1       704-1.78953E-05-3.98664E-07 0.00000E+00
 -1       705-1.72509E-05-5.92217E-07 6.61744E-24
 -1       706-1.83649E-05-1.33795E-06 0.00000E+00
 -1       707-1.78437E-05-1.44336E-06 0.00000E+00
 -1       708-1.73229E-05-1.52447E-06 0.00000E+00
 -1       709-1.68003E-05-1.58076E-06 0.00000E+00
 -1       710-1.62776E-05-1.61156E-06 0.00000E+00
 -1       711-1.57566E-05-1.61607E-06-6.61744E-24
 -1       712-1.52352E-05-1.59332E-06 0.00000E+00
 -1       713-1.87265E-05-1.16598E-06 0.00000E+00
 -1       714-1.85351E-05-1.12928E-06-8.27181E-25
 -1       715-1.82559E-05-1.09240E-06 0.00000E+00
 -1       716-1.78474E-05-1.05628E-06 0.00000E+00
 -1       717-1.72679E-05-1.02042E-06 0.00000E+00
 -1       718-1.87370E-05-1.32176E-06-3.30872E-24
 -1       719-1.85796E-05-1.47515E-06 0.00000E+00
 -1       720-1.84044E-05-1.65205E-06-1.65436E-24
 -1       721-1.82221E-05-1.84008E-06 8.27181E-25
 -1       722-1.80418E-05-2.02574E-06 0.00000E+00
 -1       723-1.78734E-05-2.19608E-06 0.00000E+00
 -1       724-1.77265E-05-2.33796E-06-8.27181E-25
 -1       725-1.76114E-05-2.43877E-06 0.00000E+00
 -1       726-1.75373E-05-2.48486E-06-8.27181E-25
 -1       727-1.40135E-05-1.40927E-06 0.00000E+00
 -1       728-1.32778E-05-1.14342E-06-6.61744E-24
 -1       729-1.25428E-05-7.44734E-07 0.00000E+00
 -1       730-1.18044E-05-2.12276E-07-1.32349E-23
 -1       731-1.10657E-05 4.56013E-07-2.64698E-23
 -1       732-1.03272E-05 1.26332E-06 1.32349E-23
 -1       733-9.58850E-06 2.21401E-06 2.64698E-23
 -1       734-1.49807E-05-1.68309E-06 8.27181E-25
 -1       735-1.54923E-05-1.83923E-06 0.00000E+00
 -1       736-1.61321E-05-1.99498E-06 0.00000E+00
 -1       737-1.67697E-05-2.15269E-06 1.65436E-24
 -1       738-1.72749E-05-2.31075E-06 0.00000E+00
 -1       739-1.47063E-05-1.41317E-06 0.00000E+00
 -1       740-1.47338E-05-1.22823E-06 1.65436E-24
 -1       741-1.48210E-05-9.63497E-07 0.00000E+00
 -1       742-1.49843E-05-5.98606E-07 0.00000E+00
 -1       743-1.52391E-05-1.12161E-07 0.00000E+00
 -1       744-1.56012E-05 5.16899E-07 0.00000E+00
 -1       745-1.60865E-05 1.30991E-06-3.30872E-24
 -1       746-1.67114E-05 2.28808E-06 0.00000E+00
 -1       747-1.74919E-05 3.47325E-06 1.65436E-24
 -1       748-8.10696E-06 5.27045E-06 0.00000E+00
 -1       749-7.35776E-06 8.50194E-06 1.32349E-23
 -1       750-6.61218E-06 1.27054E-05 2.64698E-23
 -1       751-5.86931E-06 1.75856E-05 0.00000E+00
 -1       752-5.12855E-06 2.28533E-05-2.64698E-23
 -1       753-4.39134E-06 2.82227E-05 0.00000E+00
 -1       754-3.65266E-06 3.34085E-05 0.00000E+00
 -1       755-1.01259E-05 3.59279E-06 1.32349E-23
 -1       756-1.15632E-05 3.85594E-06 0.00000E+00
 -1       757-1.31399E-05 4.11909E-06-6.61744E-24
 -1       758-1.48297E-05 4.37812E-06-3.30872E-24
 -1       759-1.66069E-05 4.63690E-06 6.61744E-24
 -1       760-9.11241E-06 5.11251E-06 0.00000E+00
 -1       761-9.78938E-06 7.48527E-06 0.00000E+00
 -1       762-1.08167E-05 1.03222E-05 2.64698E-23
 -1       763-1.21189E-05 1.35258E-05 1.32349E-23
 -1       764-1.36257E-05 1.70002E-05-2.64698E-23
 -1       765-1.52682E-05 2.06530E-05 1.32349E-23
 -1       766-1.69782E-05 2.43939E-05 0.00000E+00
 -1       767-1.86923E-05 2.81306E-05 0.00000E+00
 -1       768-2.03374E-05 3.17779E-05 1.32349E-23
 -1       769-2.60636E-06 4.25874E-05 0.00000E+00
 -1       770-2.27922E-06 4.72305E-05-6.61744E-24
 -1       771-1.95279E-06 5.19968E-05 0.00000E+00
 -1       772-1.62658E-06 5.68296E-05-6.61744E-24
 -1       773-1.30057E-06 6.16729E-05 0.00000E+00
 -1       774-9.75955E-07 6.64704E-05 0.00000E+00
 -1       775-6.50580E-07 7.11657E-05 0.00000E+00
 -1       776-6.84949E-06 3.76615E-05 3.30872E-24
 -1       777-1.01350E-05 3.71694E-05-3.30872E-24
 -1       778-1.30329E-05 3.66798E-05-1.32349E-23
 -1       779-1.57904E-05 3.61889E-05 0.00000E+00
 -1       780-1.86556E-05 3.56964E-05 0.00000E+00
 -1       781-5.12318E-06 4.18374E-05 1.32349E-23
 -1       782-7.24354E-06 4.54716E-05 0.00000E+00
 -1       783-9.31241E-06 4.90372E-05 0.00000E+00
 -1       784-1.13404E-05 5.25509E-05-6.61744E-24
 -1       785-1.33401E-05 5.60272E-05 0.00000E+00
 -1       786-1.53232E-05 5.94811E-05-6.61744E-24
 -1       787-1.73012E-05 6.29276E-05 0.00000E+00
 -1       788-1.92878E-05 6.63798E-05 0.00000E+00
 -1       789-2.12911E-05 6.98552E-05-6.61744E-24
 -1       790-2.52885E-07 8.02530E-05-3.30872E-24
 -1       791-1.71175E-07 8.49902E-05 0.00000E+00
 -1       792-9.00921E-08 8.98535E-05 0.00000E+00
 -1       793-9.39889E-09 9.47826E-05 1.65436E-24
 -1       794 7.11823E-08 9.97173E-05-3.30872E-24
 -1       795 1.51293E-07 1.04597E-04 8.27181E-25
 -1       796 2.32056E-07 1.09363E-04 8.27181E-25
 -1       797-4.54242E-06 7.53234E-05 0.00000E+00
 -1       798-8.42570E-06 7.49264E-05 0.00000E+00
 -1       799-1.21155E-05 7.45311E-05 6.61744E-24
 -1       800-1.57434E-05 7.41352E-05 3.30872E-24
 -1       801-1.94412E-05 7.37383E-05 0.00000E+00
 -1       802-2.77252E-06 7.94060E-05 0.00000E+00
 -1       803-5.19616E-06 8.31060E-05 0.00000E+00
 -1       804-7.61261E-06 8.67960E-05 6.61744E-24
 -1       805-1.00201E-05 9.04764E-05 0.00000E+00
 -1       806-1.24191E-05 9.41456E-05 6.61744E-24
 -1       807-1.48091E-05 9.78027E-05-3.30872E-24
 -1       808-1.71895E-05 1.01447E-04 0.00000E+00
 -1       809-1.95612E-05 1.05076E-04-3.30872E-24
 -1       810-2.19216E-05 1.08691E-04 0.00000E+00
 -1       811 3.01134E-07 1.18470E-04 0.00000E+00
 -1       812 2.93898E-07 1.23052E-04 0.00000E+00
 -1       813 2.86430E-07 1.27672E-04 0.00000E+00
 -1       814 2.78910E-07 1.32306E-04-1.03398E-25
 -1       815 2.71366E-07 1.36929E-04 0.00000E+00
 -1       816 2.63292E-07 1.41515E-04 4.13590E-25
 -1       817 2.55609E-07 1.46041E-04-1.65436E-24
 -1       818-4.01946E-06 1.13680E-04 3.30872E-24
 -1       819-8.13779E-06 1.13398E-04-3.30872E-24
 -1       820-1.21344E-05 1.13117E-04 0.00000E+00
 -1       821-1.60979E-05 1.12836E-04 3.30872E-24
 -1       822-2.01171E-05 1.12554E-04 0.00000E+00
 -1       823-2.29914E-06 1.17573E-04-1.65436E-24
 -1       824-4.88673E-06 1.21175E-04 8.27181E-25
 -1       825-7.45762E-06 1.24755E-04 0.00000E+00
 -1       826-1.00108E-05 1.28312E-04-1.65436E-24
 -1       827-1.25465E-05 1.31846E-04 0.00000E+00
 -1       828-1.50646E-05 1.35357E-04 0.00000E+00
 -1       829-1.75645E-05 1.38844E-04 3.30872E-24
 -1       830-2.00470E-05 1.42305E-04 8.27181E-25
 -1       831-2.25103E-05 1.45742E-04 0.00000E+00
 -1       832-4.08593E-06 1.50260E-04-6.61744E-24
 -1       833-8.32982E-06 1.50036E-04 0.00000E+00
 -1       834-1.25135E-05 1.49813E-04 6.61744E-24
 -1       835-1.66626E-05 1.49590E-04 3.30872E-24
 -1       836-2.08030E-05 1.49367E-04-3.30872E-24
 -1       837-1.40760E-05 1.03690E-07 0.00000E+00
 -1       838-1.42417E-05-1.05111E-06 1.65436E-24
 -1       839-1.44070E-05-1.94696E-06-3.30872E-24
 -1       840-1.45725E-05-2.67681E-06 1.65436E-24
 -1       841-1.47379E-05-3.33384E-06 3.30872E-24
 -1       842-1.49023E-05-4.01143E-06-1.65436E-24
 -1       843-1.50671E-05-4.80290E-06 0.00000E+00
 -1       844-1.19275E-05 1.35104E-06 0.00000E+00
 -1       845-9.57590E-06 1.08421E-06 3.30872E-24
 -1       846-7.03224E-06 8.16932E-07 0.00000E+00
 -1       847-4.47168E-06 5.47082E-07 0.00000E+00
 -1       848-2.06945E-06 2.77662E-07 0.00000E+00
 -1       849-1.27874E-05 4.06847E-07 0.00000E+00
 -1       850-1.17456E-05-6.64306E-07 0.00000E+00
 -1       851-1.07859E-05-1.62626E-06 0.00000E+00
 -1       852-9.89543E-06-2.49266E-06-3.30872E-24
 -1       853-9.06462E-06-3.27921E-06 0.00000E+00
 -1       854-8.28285E-06-4.00058E-06 0.00000E+00
 -1       855-7.53945E-06-4.67120E-06 0.00000E+00
 -1       856-6.82598E-06-5.30698E-06 0.00000E+00
 -1       857-6.12892E-06-5.91991E-06-1.65436E-24
 -1       858-1.54170E-05-6.67793E-06 3.30872E-24
 -1       859-1.56159E-05-7.13271E-06 0.00000E+00
 -1       860-1.58144E-05-7.28993E-06 6.61744E-24
 -1       861-1.60138E-05-7.27490E-06 0.00000E+00
 -1       862-1.62131E-05-7.21328E-06-6.61744E-24
 -1       863-1.64111E-05-7.23082E-06 1.65436E-24
 -1       864-1.66094E-05-7.45317E-06-3.30872E-24
 -1       865-1.38194E-05-5.91740E-06 0.00000E+00
 -1       866-1.20652E-05-6.03884E-06 0.00000E+00
 -1       867-1.01570E-05-6.16057E-06-3.30872E-24
 -1       868-8.28952E-06-6.28401E-06 0.00000E+00
 -1       869-6.65722E-06-6.40701E-06 0.00000E+00
 -1       870-1.43928E-05-6.48610E-06 3.30872E-24
 -1       871-1.36520E-05-7.02844E-06 0.00000E+00
 -1       872-1.29971E-05-7.45660E-06 0.00000E+00
 -1       873-1.24109E-05-7.79011E-06 0.00000E+00
 -1       874-1.18794E-05-8.05045E-06 0.00000E+00
 -1       875-1.13877E-05-8.25806E-06-3.30872E-24
 -1       876-1.09207E-05-8.43309E-06-6.61744E-24
 -1       877-1.04655E-05-8.59709E-06-3.30872E-24
 -1       878-1.00046E-05-8.76801E-06-1.65436E-24
 -1       879-1.68472E-05-8.49001E-06 2.06795E-25
 -1       880-1.69005E-05-8.52450E-06-4.13590E-25
 -1       881-1.69536E-05-8.24874E-06-8.27181E-25
 -1       882-1.70073E-05-7.80332E-06 4.13590E-25
 -1       883-1.70608E-05-7.32882E-06 8.27181E-25
 -1       884-1.71133E-05-6.96586E-06 0.00000E+00
 -1       885-1.71660E-05-6.85507E-06 8.27181E-25
 -1       886-1.57763E-05-8.15905E-06 0.00000E+00
 -1       887-1.44292E-05-8.32187E-06-1.65436E-24
 -1       888-1.29439E-05-8.48465E-06 0.00000E+00
 -1       889-1.15085E-05-8.64880E-06 0.00000E+00
 -1       890-1.03108E-05-8.81286E-06-3.30872E-24
 -1       891-1.60879E-05-8.34958E-06 0.00000E+00
 -1       892-1.54434E-05-8.58320E-06 0.00000E+00
 -1       893-1.48651E-05-8.72934E-06-1.32349E-23
 -1       894-1.43400E-05-8.80078E-06 0.00000E+00
 -1       895-1.38594E-05-8.81268E-06 0.00000E+00
 -1       896-1.34132E-05-8.77888E-06 0.00000E+00
 -1       897-1.29912E-05-8.71301E-06 0.00000E+00
 -1       898-1.25855E-05-8.62986E-06 3.30872E-24
 -1       899-1.21835E-05-8.54090E-06 6.61744E-24
 -1       900-1.70731E-05-7.39473E-06-3.30872E-24
 -1       901-1.69339E-05-7.21566E-06 1.65436E-24
 -1       902-1.67948E-05-6.74103E-06 3.30872E-24
 -1       903-1.66556E-05-6.11232E-06 0.00000E+00
 -1       904-1.65164E-05-5.47070E-06 0.00000E+00
 -1       905-1.63766E-05-4.95733E-06 1.65436E-24
 -1       906-1.62369E-05-4.71362E-06 6.61744E-24
 -1       907-1.64490E-05-7.34778E-06 1.65436E-24
 -1       908-1.54004E-05-7.57352E-06 1.65436E-24
 -1       909-1.42376E-05-7.79880E-06 0.00000E+00
 -1       910-1.31334E-05-8.02499E-06-3.30872E-24
 -1       911-1.22600E-05-8.25151E-06 0.00000E+00
 -1       912-1.65253E-05-7.26159E-06-6.61744E-24
 -1       913-1.58605E-05-7.33215E-06 0.00000E+00
 -1       914-1.52277E-05-7.36082E-06 1.32349E-23
 -1       915-1.46225E-05-7.34867E-06-6.61744E-24
 -1       916-1.40448E-05-7.29956E-06-1.32349E-23
 -1       917-1.34929E-05-7.21590E-06 0.00000E+00
 -1       918-1.29653E-05-7.09995E-06 1.32349E-23
 -1       919-1.24622E-05-6.95483E-06 6.61744E-24
 -1       920-1.19802E-05-6.78087E-06 0.00000E+00
 -1       921-1.59055E-05-5.01227E-06 6.61744E-24
 -1       922-1.57165E-05-4.67658E-06-3.30872E-24
 -1       923-1.55276E-05-4.03405E-06 6.61744E-24
 -1       924-1.53387E-05-3.24432E-06 0.00000E+00
 -1       925-1.51498E-05-2.46666E-06 0.00000E+00
 -1       926-1.49604E-05-1.86040E-06 0.00000E+00
 -1       927-1.47709E-05-1.58526E-06 0.00000E+00
 -1       928-1.54560E-05-5.15229E-06 0.00000E+00
 -1       929-1.45579E-05-5.44352E-06-1.65436E-24
 -1       930-1.35581E-05-5.73388E-06-6.61744E-24
 -1       931-1.26149E-05-6.02437E-06 0.00000E+00
 -1       932-1.18863E-05-6.31565E-06 1.65436E-24
 -1       933-1.52765E-05-4.85407E-06-1.32349E-23
 -1       934-1.44153E-05-4.84952E-06 0.00000E+00
 -1       935-1.35405E-05-4.86407E-06 0.00000E+00
 -1       936-1.26611E-05-4.87935E-06-1.32349E-23
 -1       937-1.17915E-05-4.88103E-06 0.00000E+00
 -1       938-1.09438E-05-4.85295E-06-1.32349E-23
 -1       939-1.01306E-05-4.77890E-06-2.64698E-23
 -1       940-9.36568E-06-4.64303E-06 1.32349E-23
 -1       941-8.66050E-06-4.42694E-06 1.32349E-23
 -1       942-1.47982E-05-2.06369E-06 0.00000E+00
 -1       943-1.50386E-05-1.91795E-06-1.65436E-24
 -1       944-1.52783E-05-1.51543E-06 0.00000E+00
 -1       945-1.55210E-05-1.00850E-06 0.00000E+00
 -1       946-1.57638E-05-5.49709E-07 0.00000E+00
 -1       947-1.60051E-05-2.91502E-07-3.30872E-24
 -1       948-1.62469E-05-3.85848E-07-3.30872E-24
 -1       949-1.37136E-05-2.17231E-06 0.00000E+00
 -1       950-1.24183E-05-2.57001E-06 3.30872E-24
 -1       951-1.09475E-05-2.96645E-06-6.61744E-24
 -1       952-9.55698E-06-3.36155E-06 0.00000E+00
 -1       953-8.50241E-06-3.75781E-06 0.00000E+00
 -1       954-1.32711E-05-1.48111E-06 0.00000E+00
 -1       955-1.19289E-05-1.13510E-06 0.00000E+00
 -1       956-1.05781E-05-8.02597E-07 2.64698E-23
 -1       957-9.20281E-06-4.91878E-07-1.32349E-23
 -1       958-7.79789E-06-2.19853E-07-2.64698E-23
 -1       959-6.35341E-06-7.00313E-10-1.32349E-23
 -1       960-4.85881E-06 1.50629E-07 2.64698E-23
 -1       961-3.30741E-06 2.14791E-07 0.00000E+00
 -1       962-1.68019E-06 1.79767E-07 0.00000E+00
 -1       963-1.65983E-05-1.75211E-06 8.27181E-25
 -1       964-1.67293E-05-2.26422E-06-8.27181E-25
 -1       965-1.68598E-05-2.56425E-06-3.30872E-24
 -1       966-1.69917E-05-2.69725E-06 1.65436E-24
 -1       967-1.71237E-05-2.70845E-06 3.30872E-24
 -1       968-1.72556E-05-2.64332E-06-1.65436E-24
 -1       969-1.73876E-05-2.54740E-06 0.00000E+00
 -1       970-1.47530E-05-8.21565E-07-3.30872E-24
 -1       971-1.19083E-05-6.57977E-07 1.65436E-24
 -1       972-8.47632E-06-4.96053E-07 0.00000E+00
 -1       973-4.99143E-06-3.33265E-07 3.30872E-24
 -1       974-1.98789E-06-1.69076E-07-6.61744E-24
 -1       975-1.58215E-05-1.53553E-06-3.30872E-24
 -1       976-1.52508E-05-1.96726E-06-3.30872E-24
 -1       977-1.47554E-05-2.29884E-06 6.61744E-24
 -1       978-1.43221E-05-2.54669E-06-3.30872E-24
 -1       979-1.39388E-05-2.72797E-06-6.61744E-24
 -1       980-1.35940E-05-2.85967E-06 1.65436E-24
 -1       981-1.32750E-05-2.95806E-06 0.00000E+00
 -1       982-1.29738E-05-3.04269E-06 4.13590E-25
 -1       983-1.26727E-05-3.12563E-06 0.00000E+00
 -1       984-1.76336E-05-2.31434E-06 0.00000E+00
 -1       985-1.77506E-05-1.95735E-06-1.65436E-24
 -1       986-1.78676E-05-1.38783E-06 3.30872E-24
 -1       987-1.79848E-05-5.98694E-07-1.65436E-24
 -1       988-1.81020E-05 4.16897E-07 0.00000E+00
 -1       989-1.82184E-05 1.66544E-06 0.00000E+00
 -1       990-1.83354E-05 3.15320E-06 0.00000E+00
 -1       991-1.71988E-05-2.58768E-06 0.00000E+00
 -1       992-1.63501E-05-2.71170E-06-1.65436E-24
 -1       993-1.52080E-05-2.83648E-06 6.61744E-24
 -1       994-1.40095E-05-2.96554E-06 3.30872E-24
 -1       995-1.29916E-05-3.09382E-06 1.32349E-23
 -1       996-1.76357E-05-2.35359E-06 0.00000E+00
 -1       997-1.78749E-05-2.07483E-06-4.13590E-25
 -1       998-1.82309E-05-1.64070E-06 0.00000E+00
 -1       999-1.86966E-05-1.06011E-06-4.13590E-25
 -1      1000-1.92654E-05-3.42484E-07 0.00000E+00
 -1      1001-1.99309E-05 5.02627E-07-8.27181E-25
 -1      1002-2.06861E-05 1.46613E-06 0.00000E+00
 -1      1003-2.15272E-05 2.53640E-06 0.00000E+00
 -1      1004-2.24429E-05 3.70725E-06 1.32349E-23
 -1      1005-1.88549E-05 7.23945E-06-6.61744E-24
 -1      1006-1.92857E-05 1.04079E-05 0.00000E+00
 -1      1007-1.97178E-05 1.41924E-05 0.00000E+00
 -1      1008-2.01540E-05 1.83904E-05 6.61744E-24
 -1      1009-2.05912E-05 2.27978E-05 1.32349E-23
 -1      1010-2.10260E-05 2.72090E-05-6.61744E-24
 -1      1011-2.14606E-05 3.14187E-05 6.61744E-24
 -1      1012-1.98575E-05 4.90573E-06-3.61892E-25
 -1      1013-2.06448E-05 4.92413E-06 0.00000E+00
 -1      1014-2.11027E-05 4.94213E-06-1.65436E-24
 -1      1015-2.15261E-05 4.95522E-06 0.00000E+00
 -1      1016-2.22101E-05 4.96887E-06-1.32349E-23
 -1      1017-1.93695E-05 6.83117E-06-6.61744E-24
 -1      1018-2.05425E-05 9.13553E-06 0.00000E+00
 -1      1019-2.19364E-05 1.17319E-05-1.32349E-23
 -1      1020-2.35071E-05 1.45667E-05 6.61744E-24
 -1      1021-2.52160E-05 1.75844E-05 1.32349E-23
 -1      1022-2.70235E-05 2.07316E-05 6.61744E-24
 -1      1023-2.88900E-05 2.39557E-05 1.32349E-23
 -1      1024-3.07809E-05 2.72014E-05 3.30872E-24
 -1      1025-3.26509E-05 3.04212E-05-1.65436E-24
 -1      1026-2.20487E-05 3.91179E-05-1.65436E-24
 -1      1027-2.22321E-05 4.36214E-05 0.00000E+00
 -1      1028-2.24172E-05 4.85547E-05 0.00000E+00
 -1      1029-2.26045E-05 5.37376E-05 0.00000E+00
 -1      1030-2.27922E-05 5.89896E-05 0.00000E+00
 -1      1031-2.29785E-05 6.41301E-05-1.65436E-24
 -1      1032-2.31636E-05 6.89786E-05-3.30872E-24
 -1      1033-2.47293E-05 3.49544E-05 0.00000E+00
 -1      1034-2.66800E-05 3.46756E-05 0.00000E+00
 -1      1035-2.81788E-05 3.43978E-05 0.00000E+00
 -1      1036-2.96791E-05 3.41162E-05-6.61744E-24
 -1      1037-3.16341E-05 3.38337E-05-1.32349E-23
 -1      1038-2.36389E-05 3.84229E-05 6.61744E-24
 -1      1039-2.54962E-05 4.17841E-05-6.61744E-24
 -1      1040-2.74485E-05 4.52698E-05 1.32349E-23
 -1      1041-2.94760E-05 4.88603E-05-6.61744E-24
 -1      1042-3.15649E-05 5.25324E-05 0.00000E+00
 -1      1043-3.36999E-05 5.62648E-05-6.61744E-24
 -1      1044-3.58656E-05 6.00368E-05 0.00000E+00
 -1      1045-3.80507E-05 6.38252E-05 0.00000E+00
 -1      1046-4.02347E-05 6.76138E-05 0.00000E+00
 -1      1047-2.34525E-05 7.76788E-05 0.00000E+00
 -1      1048-2.35702E-05 8.24126E-05 0.00000E+00
 -1      1049-2.36891E-05 8.74296E-05 3.30872E-24
 -1      1050-2.38093E-05 9.26020E-05 1.65436E-24
 -1      1051-2.39296E-05 9.78015E-05 0.00000E+00
 -1      1052-2.40490E-05 1.02900E-04-1.65436E-24
 -1      1053-2.41674E-05 1.07769E-04 1.65436E-24
 -1      1054-2.69571E-05 7.30335E-05 0.00000E+00
 -1      1055-2.99760E-05 7.27002E-05 0.00000E+00
 -1      1056-3.27144E-05 7.23680E-05 0.00000E+00
 -1      1057-3.54911E-05 7.20337E-05 3.30872E-24
 -1      1058-3.86247E-05 7.16981E-05-1.32349E-23
 -1      1059-2.55225E-05 7.68724E-05 0.00000E+00
 -1      1060-2.77548E-05 8.04839E-05 3.30872E-24
 -1      1061-3.00411E-05 8.41658E-05 0.00000E+00
 -1      1062-3.23688E-05 8.79068E-05 6.61744E-24
 -1      1063-3.47300E-05 9.16923E-05 0.00000E+00
 -1      1064-3.71153E-05 9.55093E-05 0.00000E+00
 -1      1065-3.95151E-05 9.93451E-05 0.00000E+00
 -1      1066-4.19224E-05 1.03185E-04 0.00000E+00
 -1      1067-4.43245E-05 1.07019E-04 0.00000E+00
 -1      1068-2.43628E-05 1.16689E-04-1.65436E-24
 -1      1069-2.44477E-05 1.21293E-04 0.00000E+00
 -1      1070-2.45331E-05 1.26025E-04 1.65436E-24
 -1      1071-2.46191E-05 1.30814E-04-8.27181E-25
 -1      1072-2.47051E-05 1.35591E-04 0.00000E+00
 -1      1073-2.47909E-05 1.40285E-04-1.65436E-24
 -1      1074-2.48759E-05 1.44828E-04 0.00000E+00
 -1      1075-2.82801E-05 1.12045E-04 0.00000E+00
 -1      1076-3.19077E-05 1.11800E-04 0.00000E+00
 -1      1077-3.53649E-05 1.11556E-04 0.00000E+00
 -1      1078-3.88534E-05 1.11311E-04 0.00000E+00
 -1      1079-4.25749E-05 1.11065E-04 0.00000E+00
 -1      1080-2.66831E-05 1.15848E-04 3.30872E-24
 -1      1081-2.90918E-05 1.19441E-04-3.30872E-24
 -1      1082-3.15117E-05 1.23048E-04 6.61744E-24
 -1      1083-3.39370E-05 1.26665E-04 0.00000E+00
 -1      1084-3.63644E-05 1.30285E-04 0.00000E+00
 -1      1085-3.87897E-05 1.33903E-04 0.00000E+00
 -1      1086-4.12089E-05 1.37512E-04 0.00000E+00
 -1      1087-4.36187E-05 1.41105E-04 0.00000E+00
 -1      1088-4.60133E-05 1.44679E-04 0.00000E+00
 -1      1089-2.90022E-05 1.48995E-04 3.30872E-24
 -1      1090-3.28597E-05 1.48839E-04 0.00000E+00
 -1      1091-3.66304E-05 1.48683E-04-3.30872E-24
 -1      1092-4.04120E-05 1.48528E-04 1.65436E-24
 -1      1093-4.43019E-05 1.48372E-04 0.00000E+00
 -1      1094-6.77551E-07-1.57410E-06 0.00000E+00
 -1      1095-1.36337E-06-2.73454E-06-1.32349E-23
 -1      1096-2.04850E-06-3.57754E-06 2.64698E-23
 -1      1097-2.73439E-06-4.20208E-06 1.32349E-23
 -1      1098-3.42004E-06-4.70872E-06 0.00000E+00
 -1      1099-4.10326E-06-5.19900E-06 6.61744E-24
 -1      1100-4.78705E-06-5.77458E-06 1.32349E-23
 -1      1101-5.95827E-06-7.27440E-06 0.00000E+00
 -1      1102-6.47207E-06-7.74929E-06 0.00000E+00
 -1      1103-6.98541E-06-8.02962E-06 1.32349E-23
 -1      1104-7.49986E-06-8.18536E-06 0.00000E+00
 -1      1105-8.01421E-06-8.28712E-06 0.00000E+00
 -1      1106-8.52656E-06-8.40586E-06 6.61744E-24
 -1      1107-9.03940E-06-8.61246E-06 1.32349E-23
 -1      1108-9.81715E-06-9.29330E-06-6.61744E-24
 -1      1109-1.01010E-05-9.35570E-06 3.30872E-24
 -1      1110-1.03845E-05-9.23642E-06-6.61744E-24
 -1      1111-1.06686E-05-9.00827E-06-3.30872E-24
 -1      1112-1.09525E-05-8.74438E-06 6.61744E-24
 -1      1113-1.12348E-05-8.51797E-06 0.00000E+00
 -1      1114-1.15174E-05-8.40221E-06 0.00000E+00
 -1      1115-1.17601E-05-8.51937E-06 4.13590E-25
 -1      1116-1.17288E-05-8.34780E-06 4.13590E-25
 -1      1117-1.16975E-05-8.02490E-06 0.00000E+00
 -1      1118-1.16657E-05-7.62064E-06-4.13590E-25
 -1      1119-1.16337E-05-7.20491E-06-1.65436E-24
 -1      1120-1.16008E-05-6.84762E-06 0.00000E+00
 -1      1121-1.15679E-05-6.61870E-06 0.00000E+00
 -1      1122-1.11037E-05-6.54629E-06-1.32349E-23
 -1      1123-1.06669E-05-6.28646E-06 6.61744E-24
 -1      1124-1.02305E-05-5.87993E-06-1.32349E-23
 -1      1125-9.79235E-06-5.39753E-06 6.61744E-24
 -1      1126-9.35395E-06-4.90969E-06 1.32349E-23
 -1      1127-8.91518E-06-4.48680E-06 0.00000E+00
 -1      1128-8.47628E-06-4.19960E-06-1.32349E-23
 -1      1129-7.04871E-06-3.83302E-06-2.64698E-23
 -1      1130-6.03652E-06-3.05973E-06 1.32349E-23
 -1      1131-5.02545E-06-2.01171E-06-2.64698E-23
 -1      1132-4.01161E-06-8.98292E-07 0.00000E+00
 -1      1133-2.99781E-06 7.20176E-08 2.64698E-23
 -1      1134-1.98827E-06 6.89028E-07 0.00000E+00
 -1      1135-9.77573E-07 7.38487E-07-2.64698E-23
 -1      1136-1.48339E-06-1.05529E-06 2.64698E-23
 -1      1137-3.04160E-06-1.80102E-06 0.00000E+00
 -1      1138-4.59736E-06-2.29462E-06-5.29396E-23
 -1      1139-6.16394E-06-2.59821E-06 0.00000E+00
 -1      1140-7.73125E-06-2.77719E-06 0.00000E+00
 -1      1141-9.29513E-06-2.89921E-06 0.00000E+00
 -1      1142-1.08606E-05-3.03295E-06 2.64698E-23
 -1      1143-1.37513E-05-3.29899E-06 0.00000E+00
 -1      1144-1.51398E-05-2.92784E-06-1.32349E-23
 -1      1145-1.65276E-05-2.18456E-06 5.29396E-23
 -1      1146-1.79192E-05-1.12661E-06-2.64698E-23
 -1      1147-1.93111E-05 1.83686E-07-5.29396E-23
 -1      1148-2.06994E-05 1.68001E-06 1.32349E-23
 -1      1149-2.20889E-05 3.29316E-06 2.64698E-23
 -1      1150-2.48052E-05 7.05874E-06 0.00000E+00
 -1      1151-2.61917E-05 9.93826E-06 0.00000E+00
 -1      1152-2.75788E-05 1.34231E-05 5.29396E-23
 -1      1153-2.89711E-05 1.73355E-05 0.00000E+00
 -1      1154-3.03641E-05 2.14914E-05 0.00000E+00
 -1      1155-3.17527E-05 2.57026E-05-1.32349E-23
 -1      1156-3.31419E-05 2.97801E-05 0.00000E+00
 -1      1157-3.54714E-05 3.73921E-05 2.64698E-23
 -1      1158-3.64684E-05 4.17967E-05 0.00000E+00
 -1      1159-3.74664E-05 4.66053E-05 0.00000E+00
 -1      1160-3.84677E-05 5.16668E-05 0.00000E+00
 -1      1161-3.94692E-05 5.68273E-05-2.64698E-23
 -1      1162-4.04667E-05 6.19322E-05 0.00000E+00
 -1      1163-4.14640E-05 6.68269E-05 2.64698E-23
 -1      1164-4.29624E-05 7.58561E-05 1.32349E-23
 -1      1165-4.35028E-05 8.06814E-05 0.00000E+00
 -1      1166-4.40438E-05 8.57346E-05 1.32349E-23
 -1      1167-4.45864E-05 9.09135E-05 6.61744E-24
 -1      1168-4.51289E-05 9.61146E-05 1.32349E-23
 -1      1169-4.56688E-05 1.01235E-04 0.00000E+00
 -1      1170-4.62082E-05 1.06171E-04 0.00000E+00
 -1      1171-4.69372E-05 1.15386E-04 6.61744E-24
 -1      1172-4.71473E-05 1.20100E-04 0.00000E+00
 -1      1173-4.73577E-05 1.24906E-04-6.61744E-24
 -1      1174-4.75684E-05 1.29742E-04 0.00000E+00
 -1      1175-4.77789E-05 1.34551E-04 6.61744E-24
 -1      1176-4.79879E-05 1.39273E-04-3.30872E-24
 -1      1177-4.81966E-05 1.43849E-04 3.30872E-24
 -3
    1PSTEP                         2           1           1          
  100CL  101 1.000000000        1001                     0    1           1
 -4  STRESS      6    1
 -5  SXX         1    4    1    1
 -5  SYY         1    4    2    2
 -5  SZZ         1    4    3    3
 -5  SXY         1    4    1    2
 -5  SYZ         1    4    2    3
 -5  SZX         1    4    3    1
 -1         1 3.51682E+06 1.36913E+06 3.24706E+03 1.18661E+06-3.17717E-10-1.44306E-09
 -1         2 3.07322E+06-6.48665E+03-4.49529E+03 4.14455E+05-2.47269E-10-2.97177E-10
 -1         3 1.94024E+06-8.97884E+04-3.50433E+03 2.19617E+05 4.11774E-10 1.08957E-09
 -1         4 1.32632E+06-6.02125E+04-2.38408E+03 1.32179E+05-4.44061E-10-1.70257E-09
 -1         5 9.49536E+05-5.33101E+03-1.54690E+03 8.99793E+04-4.96129E-10 4.42469E-10
 -1         6 6.85154E+05 3.84740E+04-1.04970E+03 7.32434E+04-3.56408E-10-9.00855E-10
 -1         7 4.47377E+05 4.85177E+04-1.02397E+03 8.40558E+04-1.86446E-11-2.72848E-11
 -1         8 1.72274E+05 8.09187E+04-8.30711E+02 6.66290E+04-4.91127E-11 3.56977E-10
 -1         9 2.83959E+04 2.72839E+05 2.46977E+02-1.64657E+04 2.91038E-10 3.29518E-09
 -1        14 3.40551E+04 4.27235E+05-6.74549E+03 3.87269E+05 4.36557E-11-2.10639E-09
 -1        15 1.02412E+06 2.16803E+05-7.01288E+03 7.57525E+05 5.51760E-10 2.00574E-09
 -1        16 1.05622E+06-6.05006E+04-5.64209E+03 4.55104E+05-5.80258E-10-4.12911E-10
 -1        17 8.89184E+05-7.35550E+04-4.14899E+03 2.93945E+05 5.00980E-10 1.32241E-09
 -1        18 7.02997E+05-1.22576E+04-2.82380E+03 1.97087E+05-2.21765E-10 8.53106E-10
 -1        19 5.72000E+05 4.67846E+04-1.72319E+03 1.32079E+05-3.07333E-10 6.92353E-10
 -1        20 5.07226E+05 4.50216E+04-1.39780E+03 1.24557E+05-6.88184E-11 9.17529E-10
 -1        21 4.31407E+05 9.07809E+04-1.78321E+03 2.41099E+05-9.57395E-10 4.45046E-10
 -1        22 4.83252E+04 4.11196E+05-1.17577E+03 1.42355E+05 1.77351E-11 4.29274E-11
 -1        27-3.23966E+04-3.70410E+04-1.22052E+03 6.92066E+04-4.82032E-11-2.76486E-10
 -1        28 1.78102E+05 1.18882E+05-2.21020E+03 2.93713E+05 5.64493E-10-2.43138E-10
 -1        29 5.10842E+05 1.59870E+04-3.68732E+03 4.28457E+05-2.97708E-10-5.35389E-10
 -1        30 6.36908E+05-2.75665E+04-3.63719E+03 3.82961E+05 3.48336E-10-8.45224E-10
 -1        31 6.11976E+05 2.52243E+04-3.05117E+03 3.34339E+05-1.85840E-10-1.28284E-09
 -1        32 4.70118E+05 9.82320E+04-1.90727E+03 2.17422E+05 1.04592E-10-6.66053E-10
 -1        33 4.49823E+05 5.58861E+04-7.99040E+02 8.09027E+04 1.39153E-10 5.52973E-10
 -1        34 6.44590E+05-6.27169E+04-1.38702E+03 9.01983E+04-1.21266E-09-1.13232E-09
 -1        35 1.18149E+06 6.43485E+05 2.14225E+03 4.45341E+05-1.51780E-09-6.39375E-10
 -1        36 8.98423E+05-1.16599E+05-1.85301E+03 2.36400E+05-8.93306E-09-2.87491E-09
 -1        37 3.75481E+05-1.41820E+05-1.44998E+03 1.19940E+05 2.66482E-10-1.36333E-09
 -1        38 7.96006E+04-1.37326E+05-9.47975E+02 4.99600E+04 1.71676E-08-7.45331E-10
 -1        39-3.18387E+04-2.74561E+05-1.14197E+03 1.46559E+04 4.62933E-08-1.07186E-09
 -1        40-4.96964E+04-2.18555E+05 3.52760E+02 8.62520E+04-5.54792E-11 1.46792E-09
 -1        41-2.50662E+04-1.30960E+04-2.48911E+02 1.40164E+05 2.46018E-10 3.16201E-10
 -1        42 1.36205E+05-2.03125E+04-1.52597E+03 2.34894E+05-5.92384E-10 1.85598E-09
 -1        43 3.59337E+05-2.43114E+04-2.42196E+03 2.91878E+05 4.15033E-10 9.90743E-10
 -1        44 5.32225E+05 1.42227E+04-3.05638E+03 3.38294E+05 9.94381E-11 1.13687E-09
 -1        45 5.48211E+05 1.66052E+05-3.55810E+03 4.60066E+05 9.21621E-10 1.74199E-09
 -1        46 2.21324E+04 1.81540E+05-8.67217E+02 1.78261E+05-9.73463E-10 2.74667E-10
 -1        47-1.19990E+05-1.28319E+05 5.12170E+02 5.46656E+03 8.18545E-12-2.43820E-10
 -1        48-6.22062E+04 1.93961E+05 7.63015E+02 1.42396E+05-8.94943E-10 6.86365E-10
 -1        49 1.01955E+05-7.83931E+04-1.95622E+03 3.56110E+05-1.05144E-08-3.33663E-09
 -1        50 9.59408E+04-1.54957E+05-1.58508E+03 2.24375E+05 4.89369E-09-3.22325E-09
 -1        51 4.60392E+04-1.26973E+05-1.05944E+03 1.36367E+05 1.64314E-08-5.68616E-09
 -1        52-2.92218E+04-2.14703E+05-1.03018E+03 4.73487E+04 4.17017E-08-6.29094E-09
 -1        53-9.14539E+05-4.48956E+05-2.48678E+03 7.31184E+04-1.73657E-10 1.36424E-10
 -1        54-7.19232E+05-8.86191E+04-1.11771E+03 7.99089E+04 6.31978E-10 1.11140E-09
 -1        55-4.24922E+05-7.27083E+04-1.46003E+03 1.03962E+05-1.59432E-10 3.09228E-11
 -1        56-1.97346E+04-5.58243E+04-1.79720E+03 1.41844E+05 6.54062E-10 3.41061E-10
 -1        57 5.05732E+05-3.00460E+04-2.10126E+03 1.84723E+05 3.95950E-11 3.60160E-10
 -1        58 1.24378E+06 7.12114E+03-1.83359E+03 2.91853E+05-1.47939E-10-2.69210E-10
 -1        59 2.48755E+05 4.02415E+05-5.56406E+02 4.73585E+05 6.83627E-10-6.86123E-09
 -1        60-1.87973E+06-1.86997E+05-3.31833E+03 4.55720E+04 2.56608E-09 2.38106E-09
 -1        61-1.84380E+06-1.46705E+05-2.15465E+03 8.58774E+03-6.95472E-10 4.40718E-09
 -1        62-1.40083E+06-1.77812E+05-3.09030E+03 1.80210E+05-7.21762E-09 9.33869E-09
 -1        63-7.94934E+05-1.44022E+05-2.41728E+03 1.93462E+05 7.72753E-09-3.72529E-09
 -1        64-3.30492E+05-8.41559E+04-1.33890E+03 1.41601E+05 1.98361E-08 2.91038E-09
 -1        65-4.93865E+04-5.52897E+04-4.03489E+02 1.09807E+05 2.85605E-08-1.15203E-09
 -1        66 6.98915E+06-5.32481E+04 2.00392E+05-1.64000E-08 2.42851E-10-2.53931E-09
 -1        67 7.06342E+06 6.92312E+04 1.39786E+05-8.32661E-08 6.29989E-10-5.85169E-09
 -1        68 7.01867E+06-7.15936E+03 7.42054E+04-3.00337E-08 1.11755E-09 2.58296E-10
 -1        69 7.03726E+06 2.08553E+04 8.15440E+04 3.53634E-09 7.03396E-10-3.31511E-10
 -1        70 7.01557E+06-1.14774E+04 1.05619E+05 2.25400E-08 8.51134E-10-1.34605E-09
 -1        71 7.09462E+06 1.24281E+05 2.39595E+05 5.51154E-09-1.00373E-09 2.99769E-09
 -1        72 6.96064E+06-9.67974E+04 3.59616E+05-2.91038E-11 3.70358E-10-2.18279E-10
 -1        73 8.80030E+04 1.22957E+06-3.33711E+05 1.20080E+05 1.01863E-10-4.67844E-09
 -1        74-1.06699E+05 1.10479E+06-2.08730E+05 6.70557E+05 6.54836E-11-4.61296E-09
 -1        75 1.00980E+04 1.17493E+06-6.96548E+04 1.22174E+05-1.70985E-10-1.91812E-09
 -1        76 1.81873E+04 1.16723E+06-5.88009E+03 6.68760E+05-2.03727E-10 9.71340E-10
 -1        77-1.57222E+04 1.15925E+06 4.42644E+04 1.21846E+05 0.00000E+00-1.30603E-09
 -1        78 4.11389E+06 2.25944E+06 1.44126E+05 3.08967E+06-1.45519E-11-7.67614E-10
 -1        79 4.26254E+06 2.25347E+06 9.71548E+04 3.04877E+06 1.38243E-10 4.01269E-09
 -1        80 4.14491E+06 2.28489E+06 4.48036E+04 3.08229E+06-1.70803E-09-4.83669E-09
 -1        81 4.22520E+06 2.22468E+06 3.76074E+04 3.05949E+06-1.28216E-09-3.98751E-09
 -1        82 4.14902E+06 2.28476E+06 4.03774E+04 3.08112E+06 8.44921E-10 2.51839E-09
 -1        83 4.23118E+06 2.23648E+06 7.43458E+04 3.05811E+06-2.79942E-09 3.89082E-09
 -1        84 4.13917E+06 2.27385E+06 1.24338E+05 3.08279E+06-8.84029E-10 1.85173E-09
 -1        85 4.33654E+06 2.35564E+06 3.07235E+05 3.02715E+06-6.40284E-10-4.63115E-09
 -1        86 4.05005E+06 2.17750E+06 4.69511E+05 3.10273E+06 4.94765E-10-2.41562E-09
 -1        87 4.41202E+06-3.33223E+04 1.25217E+05 6.25187E-09-2.83018E-10-3.13594E-09
 -1        88 4.45841E+06 4.33384E+04 8.75877E+04-4.12911E-09 7.83110E-10-6.06451E-09
 -1        89 4.43038E+06-4.51665E+03 4.69131E+04 1.02020E-08 3.31084E-11-1.09139E-09
 -1        90 4.44227E+06 1.34349E+04 5.23366E+04 4.97459E-08 2.56119E-10 4.05862E-10
 -1        91 4.42826E+06-7.49310E+03 6.84875E+04-2.40732E-09 2.85223E-10 7.67614E-10
 -1        92 4.47992E+06 8.12456E+04 1.56206E+05-2.57751E-08 5.68712E-10-1.84082E-09
 -1        93 4.39246E+06-6.33369E+04 2.34612E+05-4.32374E-09 3.63868E-10-2.45927E-09
 -1        94 1.33933E+05-2.18718E+06-5.02174E+05 2.99664E+04 3.20142E-10 1.11868E-09
 -1        95-1.81090E+05-2.37862E+06-3.62042E+05 1.87022E+05 7.13044E-10 7.18956E-10
 -1        96 2.48530E+04-2.25655E+06-2.06703E+05 2.81231E+04 9.27685E-10-2.78351E-09
 -1        97-1.29723E+05-2.35083E+06-2.77786E+05 1.88667E+05 1.12050E-09 1.33284E-09
 -1        98 8.98109E+04-2.21605E+06-3.46139E+05 2.83452E+04 3.78350E-10-6.39375E-10
 -1        99 2.00194E+06 1.10747E+06 2.83234E+03 1.48979E+06 4.06544E-10 2.12458E-09
 -1       100 2.04979E+06 1.06214E+06 3.04854E+03 1.47576E+06 6.36646E-11 5.83896E-10
 -1       101 2.00355E+06 1.10668E+06 3.66946E+03 1.48927E+06 3.63798E-12-2.88310E-09
 -1       102 2.04791E+06 1.06400E+06 6.98372E+03 1.47623E+06-2.04727E-09-1.69689E-09
 -1       103 2.00368E+06 1.10560E+06 1.26372E+04 1.48910E+06 3.45381E-10-2.62389E-09
 -1       104 2.05218E+06 1.07002E+06 2.80943E+04 1.47524E+06-2.44654E-10-7.54881E-10
 -1       105 1.99947E+06 1.10110E+06 4.93350E+04 1.48984E+06 2.32467E-09 6.37010E-09
 -1       106 2.09508E+06 1.11860E+06 1.23912E+05 1.46270E+06 8.92214E-10 8.60382E-10
 -1       107 1.96348E+06 1.06186E+06 1.89718E+05 1.49796E+06 2.18279E-10-1.06229E-09
 -1       108 2.99686E+06-2.84383E+04 1.06290E+05 7.17591E-10-1.44347E-10 1.28784E-09
 -1       109 3.03633E+06 3.68314E+04 7.33440E+04-2.11166E-08-6.51397E-11 6.80302E-10
 -1       110 3.01260E+06-3.71657E+03 3.73262E+04 6.21560E-09 2.88673E-10-3.11866E-09
 -1       111 3.02167E+06 9.92595E+03 3.85890E+04 1.88552E-08 6.60895E-10-3.13423E-09
 -1       112 3.01158E+06-5.15826E+03 4.77549E+04 7.84132E-09-2.75955E-10-4.98767E-09
 -1       113 3.04674E+06 5.51818E+04 1.06533E+05 9.64246E-09 2.05467E-10-1.02773E-09
 -1       114 2.98741E+06-4.29750E+04 1.59184E+05-1.80898E-08-6.95300E-10-9.96806E-10
 -1       115 9.09828E+04-1.70420E+06-3.41958E+05 6.73022E+03-6.69388E-10-7.03039E-10
 -1       116-1.24355E+05-1.83478E+06-2.50169E+05 4.18934E+04-3.72893E-10-7.67614E-10
 -1       117 1.78020E+04-1.75040E+06-1.48970E+05 6.24643E+03-1.13141E-09-1.55410E-09
 -1       118-1.00534E+05-1.82152E+06-2.10903E+05 4.25011E+04-5.82077E-10-3.19687E-10
 -1       119 7.02941E+04-1.71759E+06-2.69279E+05 6.13113E+03-1.67347E-09 6.29939E-10
 -1       120 1.12024E+06 6.21187E+05-1.15935E+04 8.30898E+05 5.61208E-10-4.40286E-09
 -1       121 1.14314E+06 5.86568E+05-7.06212E+03 8.23931E+05 7.58064E-10-3.89628E-09
 -1       122 1.11841E+06 6.18281E+05-1.74794E+03 8.31252E+05 1.85469E-09 4.96584E-09
 -1       123 1.14538E+06 5.90513E+05 1.11633E+03 8.23250E+05-7.85008E-10 2.94131E-09
 -1       124 1.11813E+06 6.17565E+05 4.60316E+03 8.31248E+05 2.22428E-09-1.37607E-09
 -1       125 1.14764E+06 5.93419E+05 1.16666E+04 8.22728E+05-7.42034E-10 1.53238E-09
 -1       126 1.11626E+06 6.15599E+05 2.10661E+04 8.31577E+05-7.25777E-10-2.16460E-10
 -1       127 1.16617E+06 6.14493E+05 5.33690E+04 8.17325E+05 3.75621E-10 8.22638E-10
 -1       128 1.10078E+06 5.98590E+05 8.18046E+04 8.35082E+05-2.36469E-10-7.45786E-10
 -1       129 2.12587E+06-2.13707E+04 7.96898E+04-1.18221E-08 6.26952E-11-1.04774E-09
 -1       130 2.15548E+06 2.76344E+04 5.47299E+04 6.30507E-09 9.45920E-10-1.80444E-09
 -1       131 2.13771E+06-2.75708E+03 2.73313E+04-3.66504E-09-2.72877E-10-8.62201E-10
 -1       132 2.14424E+06 7.05906E+03 2.74091E+04-1.09236E-08-5.08046E-10 2.90584E-10
 -1       133 2.13715E+06-3.55522E+03 3.30974E+04-2.58689E-09 4.11551E-10-2.67391E-10
 -1       134 2.16125E+06 3.77892E+04 7.30867E+04 8.50741E-09-3.35343E-10-3.35604E-09
 -1       135 2.12065E+06-2.94167E+04 1.08940E+05-1.00526E-08 4.91020E-10-1.21508E-09
 -1       136 6.13250E+04-1.12867E+06-2.31078E+05-1.52612E+03-1.01863E-10-2.79999E-09
 -1       137-8.42291E+04-1.21696E+06-1.70198E+05-8.62835E+03-2.36469E-11-5.12159E-11
 -1       138 1.23348E+04-1.15956E+06-1.03359E+05-1.60495E+03 1.55978E-10 2.86934E-09
 -1       139-7.17780E+04-1.20997E+06-1.49634E+05-8.40780E+03 1.86446E-10-2.28658E-09
 -1       140 5.04735E+04-1.13566E+06-1.93008E+05-1.74351E+03-4.36557E-11-7.76708E-10
 -1       141 7.05840E+05 3.92769E+05-1.68291E+04 5.21744E+05-8.00355E-10-2.65845E-09
 -1       142 7.15840E+05 3.65907E+05-1.07754E+04 5.18475E+05 4.01073E-10-2.88560E-09
 -1       143 7.02816E+05 3.89057E+05-3.82847E+03 5.22405E+05 5.91101E-10 1.27193E-09
 -1       144 7.19483E+05 3.70644E+05-1.27036E+03 5.17397E+05 5.34087E-10-4.27463E-10
 -1       145 7.02424E+05 3.88475E+05 1.19638E+03 5.22453E+05 1.68711E-10 5.14547E-10
 -1       146 7.20778E+05 3.72225E+05 4.59304E+03 5.17099E+05 1.38942E-09-2.87343E-09
 -1       147 7.01586E+05 3.87601E+05 8.84880E+03 5.22599E+05-5.70253E-10-3.73052E-09
 -1       148 7.28774E+05 3.81318E+05 2.28171E+04 5.14777E+05 4.66343E-10 2.04682E-09
 -1       149 6.94940E+05 3.80286E+05 3.50790E+04 5.24106E+05-6.56655E-10 7.11225E-10
 -1       150 1.52426E+06-1.44342E+04 5.37949E+04 1.94568E-08-2.01604E-10 1.92449E-09
 -1       151 1.54424E+06 1.86634E+04 3.69530E+04 3.63798E-12-5.29239E-10 4.22006E-10
 -1       152 1.53225E+06-1.86329E+03 1.84613E+04 2.01121E-08-1.46161E-10-1.42427E-09
 -1       153 1.53666E+06 4.77844E+03 1.85377E+04 6.06781E-09 7.42848E-10-1.38863E-09
 -1       154 1.53186E+06-2.40996E+03 2.24072E+04 9.86870E-09-1.39676E-10-2.30830E-09
 -1       155 1.54819E+06 2.56173E+04 4.95184E+04 2.36214E-08 7.20241E-10-2.81125E-09
 -1       156 1.52069E+06-1.99456E+04 7.38119E+04 2.00407E-09-6.61742E-10-1.45519E-10
 -1       157 4.02437E+04-6.27739E+05-1.51916E+05-4.05986E+03-1.16415E-10 1.25704E-09
 -1       158-5.54105E+04-6.85808E+05-1.12265E+05-2.36827E+04-3.31056E-10-1.07575E-09
 -1       159 8.21277E+03-6.47939E+05-6.88565E+04-4.04156E+03-1.31422E-10-2.94250E-09
 -1       160-4.84469E+04-6.81886E+05-1.00757E+05-2.36156E+04-1.10049E-10 2.00606E-09
 -1       161 3.41713E+04-6.31651E+05-1.30601E+05-4.12599E+03 2.11003E-10-5.51154E-10
 -1       162 4.96118E+05 2.77149E+05-1.68682E+04 3.66015E+05-1.40972E-11 4.33829E-10
 -1       163 4.99661E+05 2.56740E+05-1.09419E+04 3.64641E+05 5.90745E-10 2.23190E-09
 -1       164 4.93022E+05 2.73528E+05-4.18613E+03 3.66704E+05 5.08464E-10-1.62163E-09
 -1       165 5.03370E+05 2.61270E+05-2.05410E+03 3.63548E+05 5.00904E-10-2.85240E-09
 -1       166 4.92646E+05 2.73057E+05-2.83642E+02 3.66762E+05 6.24141E-11 4.42583E-10
 -1       167 5.04115E+05 2.62155E+05 1.26649E+03 3.63377E+05 5.07043E-11-2.40473E-09
 -1       168 4.92314E+05 2.72714E+05 2.99274E+03 3.66818E+05 1.33696E-10 1.39153E-10
 -1       169 5.07024E+05 2.65441E+05 8.08522E+03 3.62540E+05 4.32919E-10-1.24055E-09
 -1       170 4.89924E+05 2.70096E+05 1.25290E+04 3.67361E+05-1.88493E-09-1.26965E-09
 -1       171 1.02013E+06-7.35361E+03 2.75068E+04-1.36577E-08-4.35099E-10 1.79352E-09
 -1       172 1.03032E+06 9.54441E+03 1.91499E+04-1.89611E-08 6.29154E-10 1.19257E-09
 -1       173 1.02417E+06-9.84881E+02 1.00665E+04-2.70515E-09 3.48006E-11 4.54747E-12
 -1       174 1.02669E+06 2.82769E+03 1.09618E+04 3.01333E-09-1.31349E-10-1.97275E-09
 -1       175 1.02378E+06-1.54405E+03 1.40995E+04 6.66805E-09 2.99284E-10 1.45928E-09
 -1       176 1.03436E+06 1.66556E+04 3.19955E+04-8.03266E-09-1.30767E-10 2.12140E-09
 -1       177 1.01648E+06-1.29910E+04 4.79663E+04-2.69347E-09-1.38169E-10 3.01952E-10
 -1       178 2.58737E+04-2.86462E+05-9.79260E+04-3.89985E+03-2.18279E-11-7.69091E-10
 -1       179-3.58025E+04-3.23936E+05-7.28902E+04-2.26361E+04-1.38243E-10 3.74962E-09
 -1       180 5.43670E+03-2.99345E+05-4.55998E+04-3.87743E+03-4.18368E-11-2.28033E-09
 -1       181-3.29425E+04-3.22324E+05-6.81622E+04-2.26168E+04-8.95852E-11-1.75839E-09
 -1       182 2.33797E+04-2.88068E+05-8.91666E+04-3.91879E+03-3.63798E-11 2.48815E-09
 -1       183 4.16120E+05 2.32097E+05-7.61412E+03 3.08611E+05-2.66482E-10-3.76076E-10
 -1       184 4.20953E+05 2.19625E+05-4.92569E+03 3.07032E+05 1.40147E-10-5.62636E-10
 -1       185 4.14732E+05 2.30452E+05-1.85673E+03 3.08920E+05 2.33202E-09 4.32124E-09
 -1       186 4.22616E+05 2.21696E+05-8.54452E+02 3.06541E+05 9.24700E-10 3.21279E-10
 -1       187 4.14564E+05 2.30225E+05 1.00130E+01 3.08944E+05-1.21954E-10-6.62595E-10
 -1       188 4.23000E+05 2.22165E+05 8.82383E+02 3.06453E+05-8.73399E-10-1.42184E-09
 -1       189 4.14367E+05 2.30021E+05 1.89804E+03 3.08978E+05 3.98927E-10 3.63571E-10
 -1       190 4.24784E+05 2.24196E+05 5.02667E+03 3.05937E+05 8.45830E-11 3.40719E-10
 -1       191 4.12894E+05 2.28395E+05 7.76297E+03 3.09311E+05 4.22915E-11 1.25033E-09
 -1       192 4.13222E+05 2.20676E+03-7.93597E+03 3.62411E-09-1.11040E-10 8.98581E-10
 -1       193 4.10197E+05-2.76153E+03-4.83465E+03-1.99428E-08 1.27888E-10 3.48109E-10
 -1       194 4.11931E+05 1.98538E+02-1.19469E+03-6.81026E-09 1.49570E-11 1.41426E-10
 -1       195 4.11907E+05 2.25325E+02 8.72764E+02 3.93754E-10-1.92969E-10 1.34014E-09
 -1       196 4.11510E+05-4.00069E+02 3.11871E+03 6.46880E-09 1.37293E-10 1.52045E-09
 -1       197 4.14518E+05 4.84899E+03 8.90791E+03 9.54060E-10-2.70334E-10-5.72868E-10
 -1       198 4.09317E+05-3.82776E+03 1.39473E+04 7.15545E-09 1.32418E-10-1.61981E-09
 -1       199 1.79641E+04-2.02478E+05-6.84424E+04-3.22214E+02-4.00178E-11 6.71832E-10
 -1       200-2.52515E+04-2.28759E+05-5.21361E+04-1.86339E+03-9.27685E-11 1.46962E-09
 -1       201 4.12186E+03-2.11178E+05-3.45862E+04-3.27840E+02-9.31664E-11 3.37252E-10
 -1       202-2.68910E+04-2.29678E+05-5.48442E+04-1.84671E+03-1.67802E-10 1.61458E-09
 -1       203 1.93904E+04-2.01558E+05-7.34619E+04-3.38551E+02-2.29193E-10-2.55454E-10
 -1       204 4.85889E+05 2.69514E+05 2.41831E+04 3.68734E+05-2.00089E-11-9.82254E-11
 -1       205 4.99589E+05 2.79773E+05 1.59256E+04 3.65123E+05-2.66027E-10 1.50976E-09
 -1       206 4.90396E+05 2.74560E+05 6.60842E+03 3.67713E+05 4.09500E-10-7.77163E-10
 -1       207 4.94241E+05 2.73617E+05 4.30475E+03 3.66706E+05-1.88550E-10-4.61228E-10
 -1       208 4.90892E+05 2.75053E+05 2.98988E+03 3.67617E+05-1.54495E-09-9.30456E-10
 -1       209 4.94127E+05 2.73581E+05 4.00029E+03 3.66734E+05 3.35461E-10 1.42973E-09
 -1       210 4.90506E+05 2.74589E+05 5.95048E+03 3.67689E+05 4.08136E-10 1.67279E-09
 -1       211 4.98787E+05 2.79100E+05 1.41810E+04 3.65349E+05-8.00355E-11 7.83302E-10
 -1       212 4.86536E+05 2.70081E+05 2.14881E+04 3.68587E+05 4.22006E-10-4.96584E-10
 -1       213-1.03915E+04 6.76222E+03-2.50993E+04 4.23029E-09 1.07574E-10-1.30331E-09
 -1       214-1.97853E+04-8.71993E+03-1.71062E+04-1.69807E-08 3.75932E-10-3.79714E-09
 -1       215-1.41416E+04 8.53935E+02-8.26875E+03 3.08066E-09-1.10543E-10-1.61890E-10
 -1       216-1.61098E+04-2.02661E+03-7.84460E+03-6.99706E-09 4.23035E-10 4.43620E-10
 -1       217-1.40680E+04 9.58808E+02-9.02394E+03-5.13944E-09 1.44524E-11 3.34239E-11
 -1       218-2.05424E+04-1.00530E+04-1.95127E+04-5.54110E-10-3.83882E-11 4.34738E-10
 -1       219-9.70773E+03 7.81946E+03-2.89306E+04-3.55976E-09 1.87589E-10 8.82210E-10
 -1       220 4.07018E+03 1.00370E+05-1.64550E+04 6.41205E+03-6.43468E-10-3.01497E-10
 -1       221-6.50099E+03 9.38509E+04-1.49270E+04 3.68056E+04-2.08729E-10 1.10811E-09
 -1       222 1.64601E+03 9.88829E+04-1.37718E+04 6.38885E+03-1.15369E-09 1.18462E-10
 -1       223-1.42008E+04 8.95022E+04-2.76632E+04 3.68115E+04-4.62023E-10-7.85363E-10
 -1       224 1.07879E+04 1.04694E+05-4.00601E+04 6.40653E+03-8.93124E-10-1.07207E-09
 -1       225 3.24274E+05 1.86941E+05 2.40851E+04 2.53074E+05 5.63887E-11-2.89219E-10
 -1       226 3.13223E+05 2.21928E+05 1.57681E+04 2.56682E+05 1.16813E-09 7.57836E-10
 -1       227 3.28740E+05 1.92031E+05 6.33432E+03 2.52061E+05 2.00373E-09 2.31944E-09
 -1       228 3.07877E+05 2.15675E+05 3.73306E+03 2.58248E+05-3.01952E-10-1.18349E-09
 -1       229 3.29271E+05 1.92576E+05 1.92160E+03 2.51966E+05 7.03722E-11 4.14786E-10
 -1       230 3.07310E+05 2.15218E+05 1.60968E+03 2.58410E+05-1.27716E-09-2.38003E-09
 -1       231 3.29298E+05 1.92439E+05 1.73428E+03 2.51968E+05 9.01309E-10 2.64254E-09
 -1       232 3.08270E+05 2.16672E+05 3.59856E+03 2.58179E+05 1.91994E-09 3.46608E-09
 -1       233 3.28421E+05 1.91245E+05 5.25534E+03 2.52177E+05-3.40151E-10-7.18501E-11
 -1       241-7.89409E+03 6.11600E+05 2.94623E+04-5.69524E+03 3.27418E-11-1.42205E-09
 -1       242 1.05208E+04 6.22734E+05 2.06801E+04-3.29914E+04 7.79892E-11-2.57910E-09
 -1       243-1.30468E+03 6.15791E+05 1.08884E+04-5.63620E+03 3.30033E-10 1.20508E-10
 -1       244 5.85319E+03 6.20200E+05 1.30058E+04-3.31461E+04 7.40329E-10-1.13505E-09
 -1       245-3.88924E+03 6.14220E+05 1.52042E+04-5.54096E+03 1.17279E-09-1.06684E-09
 -1       323-1.03633E+06 3.78286E+04-1.44271E+05 3.37341E+04-3.38332E-10 1.05501E-09
 -1       324-1.08839E+06-5.05921E+04-9.91390E+04 1.83671E+05-5.42968E-10-5.09317E-11
 -1       325-1.05781E+06 4.90497E+03-5.03868E+04 3.23035E+04 5.42968E-10-1.83718E-10
 -1       326-1.07018E+06-1.34885E+04-5.18863E+04 1.85459E+05 6.47560E-10-1.43785E-09
 -1       327-1.05653E+06 6.99772E+03-6.41116E+04 3.19758E+04-1.43018E-10 1.88084E-09
 -1       328-1.10372E+06-7.45163E+04-1.43230E+05 1.85056E+05-3.15140E-10 1.95723E-09
 -1       329-1.02398E+06 5.77391E+04-2.14019E+05 3.26876E+04-4.69299E-10-2.91038E-09
 -1       330 1.16794E+04 2.22085E+04-4.29961E+04-4.21149E+03-2.00089E-11 7.72161E-10
 -1       331-1.49597E+04 6.52254E+03-2.72156E+04-2.39703E+04-2.45564E-10-7.25777E-10
 -1       332 1.02757E+03 1.53580E+04-9.29062E+03-4.12595E+03-2.06455E-10 1.31422E-09
 -1       333 7.18422E+02 1.51504E+04-1.39078E+03-2.41045E+04-1.40062E-10 2.05910E-09
 -1       334-1.85107E+03 1.34096E+04 4.93563E+03-4.08537E+03 2.72848E-11 3.47882E-10
 -1       335 1.08364E+06 6.08929E+05 1.14152E+05 8.44957E+05-3.05590E-10 3.44153E-09
 -1       336 1.07652E+06 7.30090E+05 7.54757E+04 8.49579E+05-1.03125E-09-2.63026E-09
 -1       337 1.10367E+06 6.34089E+05 3.16479E+04 8.40404E+05-2.11969E-09 2.03727E-10
 -1       338 1.05319E+06 6.98935E+05 2.13875E+04 8.56059E+05 9.04947E-11 6.59384E-10
 -1       339 1.10510E+06 6.37216E+05 1.60625E+04 8.40145E+05 1.92813E-10 2.56478E-10
 -1       340 1.05443E+06 6.98461E+05 2.32591E+04 8.55516E+05 4.66571E-10 2.39561E-09
 -1       341 1.10234E+06 6.34629E+05 3.57765E+04 8.40664E+05-4.05635E-10-2.15550E-09
 -1       342 1.08307E+06 7.32098E+05 8.62272E+04 8.47042E+05-3.20142E-10-1.30058E-09
 -1       343 1.07831E+06 6.06927E+05 1.30968E+05 8.46090E+05 1.56433E-10 1.45519E-11
 -1       344 1.56234E+06-7.66665E+03 2.71546E+04 2.35144E+04-2.47383E-10 1.16961E-09
 -1       345 1.57301E+06 9.43356E+03 1.91605E+04 1.38998E+05 8.67658E-10-9.94532E-10
 -1       346 1.56625E+06-1.00082E+03 1.01300E+04 2.44812E+04-7.12134E-10 3.63066E-10
 -1       347 1.56864E+06 3.07058E+03 1.12361E+04 1.37824E+05 2.54670E-09-6.49834E-10
 -1       348 1.56579E+06-1.55833E+03 1.45833E+04 2.46869E+04 1.70985E-10-2.05000E-09
 -1       349 1.57694E+06 1.73956E+04 3.32340E+04 1.38197E+05-2.03727E-10-2.58387E-09
 -1       350 1.55826E+06-1.36661E+04 4.96992E+04 2.41103E+04 2.93767E-10 2.87400E-10
 -1       351 4.04266E+04-3.23921E+05-1.50405E+05 3.47141E+04 5.96629E-10 3.04135E-09
 -1       352-5.23294E+04-3.81618E+05-1.04332E+05 2.04763E+05 1.16779E-09 4.30873E-10
 -1       353 6.55398E+03-3.45663E+05-5.29408E+04 3.44741E+04 1.13596E-09 3.36172E-10
 -1       354-2.51965E+04-3.66132E+05-5.93867E+04 2.04651E+05 1.20144E-09-3.96540E-10
 -1       355 1.66394E+04-3.39168E+05-6.71989E+04 3.48216E+04 1.06229E-09-2.72485E-09
 -1       356 2.00004E+06 1.10294E+06 1.74106E+05 1.53444E+06-4.40195E-10-9.96806E-10
 -1       357 2.06456E+06 1.21073E+06 1.15138E+05 1.51868E+06 1.93722E-10 5.31145E-10
 -1       358 2.03160E+06 1.13992E+06 4.89436E+04 1.52740E+06 3.09228E-10-4.03816E-10
 -1       359 2.02783E+06 1.16547E+06 3.39792E+04 1.52960E+06 7.33962E-10-1.80444E-09
 -1       360 2.03436E+06 1.14379E+06 2.71743E+04 1.52690E+06-4.18595E-10-1.22282E-09
 -1       361 2.03007E+06 1.16688E+06 4.14430E+04 1.52904E+06 1.64391E-09 7.19410E-10
 -1       362 2.02944E+06 1.13867E+06 6.50897E+04 1.52781E+06-6.62112E-10-1.09139E-10
 -1       363 2.08276E+06 1.22850E+06 1.57868E+05 1.51343E+06-1.45519E-10-3.94175E-09
 -1       364 1.98501E+06 1.08829E+06 2.40230E+05 1.53777E+06 1.00408E-09 2.25555E-10
 -1       365 1.94699E+06-2.33836E+04 8.65974E+04 1.30102E+04-3.44698E-10-2.68483E-09
 -1       366 1.97938E+06 3.00566E+04 5.91530E+04 7.63087E+04 2.01680E-10-2.39015E-09
 -1       367 1.95990E+06-2.95178E+03 2.87879E+04 1.36563E+04 3.29237E-10 1.00499E-09
 -1       368 1.96657E+06 7.18081E+03 2.76258E+04 7.55522E+04-2.57955E-10 1.25283E-09
 -1       369 1.95957E+06-3.39736E+03 3.21023E+04 1.37630E+04-8.19682E-10 2.55568E-10
 -1       370 1.98258E+06 3.59205E+04 6.96813E+04 7.58947E+04 1.42336E-10-2.53294E-09
 -1       371 1.94398E+06-2.79607E+04 1.03401E+05 1.33166E+04-7.13044E-10-3.41970E-10
 -1       372 6.14080E+04-1.38940E+06-2.31636E+05 2.56417E+04-2.48838E-09 1.43609E-09
 -1       373-8.37324E+04-1.47812E+06-1.70157E+05 1.58865E+05-1.28057E-09 3.56886E-09
 -1       374 1.24021E+04-1.42048E+06-1.02778E+05 2.50045E+04-3.37150E-09 2.79897E-09
 -1       375-7.02199E+04-1.47061E+06-1.47883E+05 1.58946E+05-1.70985E-09-3.34444E-09
 -1       376 4.96852E+04-1.39698E+06-1.90378E+05 2.55613E+04-2.27737E-09-1.10958E-09
 -1       377 1.61801E+06 8.88154E+05 1.41113E+05 1.23870E+06-6.40284E-10-4.80213E-09
 -1       378 1.68931E+06 9.56539E+05 9.32103E+04 1.22029E+06 9.79526E-10-2.35468E-09
 -1       379 1.64416E+06 9.17589E+05 3.93860E+04 1.23281E+06 8.12179E-10-4.72937E-10
 -1       380 1.65860E+06 9.20648E+05 2.69199E+04 1.22943E+06 4.23256E-10-1.58479E-10
 -1       381 1.64675E+06 9.20466E+05 2.08561E+04 1.23232E+06-2.94222E-10-4.91752E-10
 -1       382 1.65962E+06 9.21620E+05 3.09752E+04 1.22919E+06-3.26054E-10-6.08225E-10
 -1       383 1.64319E+06 9.16701E+05 4.81547E+04 1.23298E+06 5.45697E-10 9.05857E-10
 -1       384 1.69859E+06 9.66846E+05 1.16432E+05 1.21765E+06 1.40699E-09-2.30466E-09
 -1       385 1.61026E+06 8.79752E+05 1.77028E+05 1.24039E+06-1.60071E-10-1.09139E-10
 -1       386 1.70991E+06-2.20605E+04 8.18909E+04 7.69973E+03-1.77806E-10 1.09139E-10
 -1       387 1.74045E+06 2.84201E+04 5.58025E+04 4.46925E+04-3.00020E-10 6.83940E-10
 -1       388 1.72215E+06-2.77772E+03 2.69587E+04 8.02529E+03 7.79892E-11-3.32875E-10
 -1       389 1.72838E+06 6.60014E+03 2.55124E+04 4.43134E+04-1.28284E-09-1.01318E-09
 -1       390 1.72192E+06-3.09515E+03 2.92819E+04 8.07686E+03 3.55044E-10 1.07048E-09
 -1       391 1.74273E+06 3.25213E+04 6.31918E+04 4.44881E+04 6.63931E-11-1.97542E-09
 -1       392 1.70780E+06-2.52874E+04 9.36747E+04 7.85200E+03 5.14319E-10 9.16771E-10
 -1       393 5.38272E+04-1.27526E+06-2.03659E+05 1.65034E+04 2.91038E-11-2.81216E-09
 -1       394-7.42956E+04-1.35326E+06-1.51600E+05 1.01187E+05 1.27329E-09 2.58478E-09
 -1       395 1.13737E+04-1.30207E+06-9.48384E+04 1.60821E+04-4.72937E-11 2.91715E-09
 -1       396-6.83800E+04-1.35002E+06-1.41869E+05 1.01321E+05 1.06593E-09 9.75433E-11
 -1       397 4.87237E+04-1.27858E+06-1.85619E+05 1.63704E+04 1.60071E-10-3.10683E-09
 -1       398 1.24867E+06 6.85820E+05 1.04503E+05 9.55000E+05 2.11003E-10-2.32831E-09
 -1       399 1.30489E+06 7.33103E+05 6.89749E+04 9.40357E+05-5.80712E-10-2.32467E-09
 -1       400 1.26811E+06 7.07582E+05 2.90077E+04 9.50612E+05 4.71118E-10-2.73212E-09
 -1       401 1.28199E+06 7.06577E+05 1.95883E+04 9.47159E+05-7.09406E-11-4.17583E-09
 -1       402 1.27011E+06 7.09691E+05 1.47881E+04 9.50227E+05 2.20932E-09 1.22648E-09
 -1       403 1.28240E+06 7.07091E+05 2.14705E+04 9.47066E+05 6.87578E-10-3.69414E-09
 -1       404 1.26772E+06 7.07107E+05 3.30776E+04 9.50672E+05-6.73026E-11-1.55251E-09
 -1       405 1.30903E+06 7.38060E+05 7.97556E+04 9.39178E+05-9.54060E-10-1.01500E-09
 -1       406 1.24518E+06 6.81810E+05 1.21172E+05 9.55754E+05 5.45697E-10-1.74623E-09
 -1       407 1.42669E+06-1.82113E+04 6.76263E+04 4.29652E+03-8.19909E-10-1.47338E-09
 -1       408 1.45188E+06 2.34708E+04 4.60036E+04 2.47557E+04-1.08230E-10 1.23600E-09
 -1       409 1.43681E+06-2.28592E+03 2.20857E+04 4.43929E+03 3.16049E-11-3.39242E-10
 -1       410 1.44189E+06 5.33418E+03 2.06571E+04 2.45912E+04 1.12212E-09 2.87829E-09
 -1       411 1.43668E+06-2.47430E+03 2.34538E+04 4.46021E+03 1.16131E-10 3.10229E-09
 -1       412 1.45324E+06 2.58843E+04 5.03583E+04 2.46742E+04 5.58146E-10 2.10184E-09
 -1       413 1.42545E+06-2.01180E+04 7.45663E+04 4.35690E+03-1.14142E-10 8.18545E-10
 -1       414 3.87135E+04-8.13152E+05-1.46862E+05 1.08579E+04 8.14907E-10-1.06593E-09
 -1       415-5.38052E+04-8.69427E+05-1.10227E+05 6.48959E+04 2.12458E-09-9.52582E-10
 -1       416 8.42668E+03-8.32249E+05-7.04628E+04 1.06461E+04 1.38300E-09-1.78261E-10
 -1       417-5.23052E+04-8.68637E+05-1.07775E+05 6.49968E+04 2.19825E-09-2.17346E-09
 -1       418 3.74413E+04-8.13993E+05-1.42305E+05 1.07584E+04 1.25146E-09-9.93168E-10
 -1       419 8.86690E+05 4.88870E+05 6.38304E+04 6.76474E+05 2.34650E-10 2.29193E-10
 -1       420 9.21331E+05 5.17456E+05 4.21421E+04 6.67427E+05-6.36646E-11 2.23008E-09
 -1       421 8.98561E+05 5.02169E+05 1.77343E+04 6.73788E+05-6.23004E-11-7.64430E-10
 -1       422 9.07339E+05 5.01254E+05 1.20071E+04 6.71583E+05 8.67658E-10-2.34104E-09
 -1       423 8.99781E+05 5.03450E+05 9.11510E+03 6.73551E+05 4.23242E-10-9.02020E-10
 -1       424 9.07597E+05 5.01632E+05 1.33060E+04 6.71526E+05-8.72546E-11-8.69022E-10
 -1       425 8.98317E+05 5.01817E+05 2.05432E+04 6.73823E+05 3.76531E-10-9.58607E-10
 -1       426 9.24110E+05 5.20957E+05 4.95838E+04 6.66634E+05-1.03228E-10 3.54703E-11
 -1       427 8.84334E+05 4.86048E+05 7.53339E+04 6.76980E+05-1.40062E-10 4.18368E-10
 -1       428 1.28651E+06-1.66207E+04 6.17384E+04 2.29735E+03-3.69596E-10-4.54747E-10
 -1       429 1.30950E+06 2.14263E+04 4.19892E+04 1.32661E+04-1.47338E-10-1.11322E-09
 -1       430 1.29575E+06-2.08667E+03 2.01471E+04 2.35373E+03-6.58247E-11-1.23873E-09
 -1       431 1.30038E+06 4.85594E+03 1.88247E+04 1.32110E+04 5.13825E-10 1.82251E-09
 -1       432 1.29563E+06-2.25391E+03 2.13535E+04 2.35212E+03 4.67821E-10 1.48793E-09
 -1       433 1.31070E+06 2.35528E+04 4.58314E+04 1.32732E+04 6.21014E-11-9.45874E-11
 -1       434 1.28541E+06-1.83067E+04 6.78583E+04 2.29194E+03-1.48702E-10-1.70621E-09
 -1       435 2.55027E+04-3.72861E+05-9.67059E+04 3.97099E+03 2.18279E-11 1.07138E-09
 -1       436-3.54371E+04-4.09896E+05-7.24468E+04 2.33557E+04 4.62023E-10 2.25327E-09
 -1       437 5.49796E+03-3.85464E+05-4.60937E+04 3.91092E+03 1.29944E-10-3.34069E-10
 -1       438-3.40337E+04-4.09125E+05-7.01367E+04 2.34054E+04 3.56522E-10 3.81327E-10
 -1       439 2.42922E+04-3.73649E+05-9.24201E+04 3.92209E+03 1.45519E-11-4.58158E-10
 -1       440 5.83618E+05 3.21549E+05 2.64533E+04 4.40706E+05-1.34605E-10 5.58430E-10
 -1       441 6.05764E+05 3.25585E+05 1.75037E+04 4.34663E+05-1.66665E-09-4.75916E-09
 -1       442 5.88565E+05 3.27028E+05 7.43962E+03 4.39581E+05 1.55978E-10-1.40926E-09
 -1       443 5.99938E+05 3.18933E+05 5.17878E+03 4.36390E+05 4.70948E-10-1.76607E-09
 -1       444 5.89065E+05 3.27530E+05 4.16288E+03 4.39480E+05-2.58218E-10-6.44519E-10
 -1       445 6.00210E+05 3.19253E+05 6.38355E+03 4.36328E+05-3.07864E-10-5.42116E-10
 -1       446 5.88307E+05 3.26733E+05 1.00441E+04 4.39623E+05 3.04226E-10-8.10815E-10
 -1       447 6.08433E+05 3.28745E+05 2.44066E+04 4.33902E+05 4.03816E-10 3.47609E-09
 -1       448 5.81374E+05 3.18987E+05 3.71205E+04 4.41194E+05 3.16504E-10 1.31695E-09
 -1       449 1.03343E+06-1.19666E+04 4.43938E+04 4.58450E+03-2.72848E-11 1.12414E-09
 -1       450 1.04996E+06 1.54175E+04 3.01516E+04 2.61159E+04 5.12728E-10-3.41061E-11
 -1       451 1.04008E+06-1.49374E+03 1.43733E+04 4.65341E+03 9.21432E-11-5.52063E-10
 -1       452 1.04335E+06 3.43160E+03 1.32683E+04 2.60668E+04 1.30754E-10-1.38152E-09
 -1       453 1.04003E+06-1.56503E+03 1.48756E+04 4.63321E+03 3.93584E-10 6.38465E-10
 -1       454 1.05047E+06 1.62998E+04 3.17542E+04 2.61910E+04 1.14596E-10 1.20554E-09
 -1       455 1.03297E+06-1.26743E+04 4.69435E+04 4.52989E+03 2.76259E-10 6.20275E-10
 -1       456 2.41348E+04-3.87164E+05-9.14904E+04 4.05963E+02-3.23780E-10-1.37453E-09
 -1       457-3.35359E+04-4.22196E+05-6.85185E+04 2.59041E+03-4.99767E-10-7.82364E-10
 -1       458 5.19250E+03-3.99092E+05-4.35543E+04 3.99731E+02-3.40606E-10-2.94570E-10
 -1       459-3.21395E+04-4.21412E+05-6.62119E+04 2.59608E+03-2.34650E-10 1.82888E-09
 -1       460 2.29195E+04-3.87949E+05-8.72157E+04 4.00366E+02-2.18279E-10 1.06630E-09
 -1       461 6.09603E+05 3.31939E+05 3.63458E+04 4.60195E+05-2.45564E-10 1.58616E-09
 -1       462 6.45159E+05 3.32435E+05 2.39484E+04 4.50407E+05-5.07043E-11-4.93856E-10
 -1       463 6.16426E+05 3.39480E+05 9.95568E+03 4.58641E+05 7.25777E-10-2.77851E-10
 -1       464 6.37080E+05 3.23217E+05 6.52017E+03 4.52782E+05 9.72932E-10-1.70246E-09
 -1       465 6.17154E+05 3.40231E+05 4.58703E+03 4.58501E+05 6.43084E-10-1.32331E-09
 -1       466 6.37051E+05 3.23103E+05 6.22032E+03 4.52791E+05 1.18007E-10 7.49935E-10
 -1       467 6.16455E+05 3.39588E+05 9.30585E+03 4.58644E+05 6.77574E-11-7.68296E-10
 -1       468 6.44609E+05 3.31543E+05 2.22298E+04 4.50578E+05-1.78647E-09-1.74350E-09
 -1       469 6.10091E+05 3.32645E+05 3.36862E+04 4.60099E+05-3.23780E-10-1.14323E-09
 -1       470-2.53890E+05 1.97830E+04-7.33557E+04 1.15339E+04 1.05865E-09 5.27507E-10
 -1       471-2.81320E+05-2.54504E+04-4.95530E+04 6.66247E+04 1.49021E-09-9.49512E-10
 -1       472-2.64941E+05 2.45528E+03-2.31036E+04 1.14162E+04-1.23862E-09 1.11595E-09
 -1       473-2.70226E+05-5.22993E+03-2.04298E+04 6.67185E+04-9.72705E-10 1.76487E-09
 -1       474-2.65048E+05 2.27589E+03-2.19459E+04 1.14416E+04-4.32010E-11 5.50699E-10
 -1       475-2.79999E+05-2.34409E+04-4.58300E+04 6.65029E+04 4.63842E-10-1.53705E-09
 -1       476-2.54928E+05 1.80941E+04-6.74689E+04 1.16289E+04-7.36691E-11-4.91127E-10
 -1       477 3.53086E+04-8.51313E+05-1.34216E+05 7.54672E+03-1.18598E-09-2.98769E-10
 -1       478-4.94077E+04-9.02810E+05-1.01727E+05 4.52630E+04-3.41061E-10 4.63842E-11
 -1       479 7.95600E+03-8.68506E+05-6.66279E+04 7.49232E+03-1.09355E-09 4.89763E-10
 -1       480-5.10474E+04-9.03686E+05-1.04414E+05 4.51343E+04-3.71074E-10 8.77208E-10
 -1       481 3.67073E+04-8.50393E+05-1.39205E+05 7.67376E+03-2.32831E-10 9.46329E-10
 -1       482 1.49778E+06 8.09317E+05 1.68509E+05 1.14893E+06-1.28057E-09-1.81899E-10
 -1       483 1.61033E+06 8.63960E+05 1.10346E+05 1.11893E+06-1.10776E-09 8.22183E-10
 -1       484 1.52930E+06 8.44492E+05 4.45713E+04 1.14182E+06-3.58341E-10 9.53150E-10
 -1       485 1.57305E+06 8.20407E+05 2.66560E+04 1.12991E+06-6.82121E-12 2.41380E-09
 -1       486 1.53268E+06 8.48558E+05 1.44706E+04 1.14125E+06 3.76019E-10 9.37234E-10
 -1       487 1.57082E+06 8.16258E+05 1.35309E+04 1.13045E+06-2.49997E-10-1.75419E-09
 -1       488 1.53143E+06 8.48357E+05 1.61611E+04 1.14160E+06 1.72804E-10 1.58025E-11
 -1       489 1.58343E+06 8.27638E+05 3.51717E+04 1.12681E+06 2.53294E-09 1.57615E-09
 -1       490 1.52088E+06 8.38454E+05 5.22110E+04 1.14409E+06 3.74712E-09 2.53203E-09
 -1       498-1.23165E+04 9.62220E+05 4.20066E+04 5.06661E+04 3.33603E-09 1.81899E-10
 -1       499 1.42898E+04 9.76568E+05 1.93638E+04 2.84117E+05 6.47924E-09 8.02288E-10
 -1       500 1.14392E+03 9.70773E+05-7.81011E+03 5.06991E+04 4.93856E-09 5.00222E-12
 -1       501-2.41388E+04 9.56755E+05-4.33347E+04 2.84789E+05 4.03816E-09-1.76624E-09
 -1       502 1.99772E+04 9.83809E+05-7.47532E+04 4.99905E+04 8.44011E-10-1.12777E-10
 -1       580-5.34484E+05 1.18746E+04-4.45243E+04 7.75453E+03-9.36780E-11 2.49565E-09
 -1       581-5.50966E+05-1.55444E+04-3.09878E+04 4.17723E+04-3.84716E-10-2.45564E-11
 -1       582-5.41019E+05 1.58299E+03-1.62880E+04 7.59115E+03 2.26919E-10-8.17636E-10
 -1       583-5.45138E+05-4.65342E+03-1.77518E+04 4.19509E+04-8.02615E-10 1.67051E-09
 -1       584-5.40381E+05 2.49771E+03-2.28474E+04 7.57854E+03-1.20053E-10-2.31012E-09
 -1       585-5.57572E+05-2.71241E+04-5.19007E+04 4.18219E+04-1.39153E-10-3.22871E-10
 -1       586-5.28546E+05 2.10755E+04-7.78051E+04 7.71588E+03 4.84306E-10 1.47338E-09
 -1       587 8.36622E+03-3.93416E+05-3.10652E+04 3.21841E+03 9.82254E-11-6.80302E-10
 -1       588-1.09766E+04-4.05187E+05-2.14954E+04 2.14966E+04 6.29370E-10-4.05151E-09
 -1       589 1.29685E+03-3.97909E+05-1.07829E+04 3.15723E+03 3.52657E-10-1.08173E-09
 -1       590-5.13668E+03-4.01929E+05-1.18573E+04 2.15499E+04-1.28239E-10-1.86640E-09
 -1       591 3.29682E+03-3.96691E+05-1.31899E+04 3.16418E+03-3.82897E-10 1.59810E-09
 -1       592 4.04734E+05 2.20343E+05 6.54974E+04 3.17218E+05-4.76575E-10 1.86265E-09
 -1       593 4.29677E+05 2.60392E+05 4.31546E+04 3.11081E+05 1.05501E-10-1.51431E-10
 -1       594 4.16816E+05 2.34114E+05 1.79704E+04 3.14484E+05 7.35326E-10 3.50065E-09
 -1       595 4.15434E+05 2.43521E+05 1.18256E+04 3.15300E+05-2.82512E-10 9.88621E-10
 -1       596 4.18040E+05 2.35537E+05 8.41727E+03 3.14255E+05 2.24657E-09 3.02933E-09
 -1       597 4.15415E+05 2.43406E+05 1.15564E+04 3.15300E+05 1.52795E-10 1.30410E-09
 -1       598 4.16831E+05 2.34223E+05 1.73895E+04 3.14486E+05 1.97315E-09 2.40107E-10
 -1       599 4.29200E+05 2.59562E+05 4.16129E+04 3.11208E+05 9.27685E-11 1.17325E-09
 -1       600 4.05154E+05 2.20996E+05 6.31160E+04 3.17130E+05-1.03682E-10 9.49512E-10
 -1       601-3.69716E+05 1.69501E+04-6.37148E+04 1.69743E+04 9.09495E-11 1.59343E-09
 -1       602-3.93215E+05-2.21640E+04-4.36274E+04 9.66432E+04 6.09816E-10 9.54969E-10
 -1       603-3.79214E+05 2.19325E+03-2.16718E+04 1.66745E+04-3.77440E-11-1.49703E-09
 -1       604-3.84515E+05-5.52492E+03-2.15473E+04 9.69697E+04 4.32181E-10 2.56813E-09
 -1       605-3.78812E+05 2.79132E+03-2.58521E+04 1.66521E+04-4.92719E-10-4.94765E-10
 -1       606-3.97556E+05-2.95145E+04-5.69820E+04 9.67448E+04 1.29603E-10 1.84082E-09
 -1       607-3.65938E+05 2.28687E+04-8.49332E+04 1.68952E+04 2.87400E-10 1.60071E-09
 -1       608 1.42354E+04-2.54092E+05-5.28869E+04 1.52842E+04 2.03727E-10-1.33559E-09
 -1       609-1.84832E+04-2.74317E+05-3.66470E+04 9.02769E+04 4.34738E-10-2.86650E-09
 -1       610 2.26986E+03-2.61733E+05-1.85091E+04 1.51814E+04 9.70431E-10-2.62196E-09
 -1       611-8.78036E+03-2.68827E+05-2.05960E+04 9.02441E+04 9.97716E-10-1.03569E-09
 -1       612 5.76335E+03-2.59538E+05-2.31430E+04 1.53157E+04 1.13687E-10 2.98860E-09
 -1       613 9.90550E+05 5.45923E+05 1.16937E+05 7.68486E+05 2.22644E-09 3.72165E-09
 -1       614 1.02919E+06 6.23223E+05 7.71719E+04 7.59265E+05 2.30557E-10 7.77618E-10
 -1       615 1.01193E+06 5.70657E+05 3.24204E+04 7.63671E+05 7.95808E-10 2.92039E-09
 -1       616 1.00412E+06 5.92930E+05 2.18473E+04 7.66687E+05 9.99762E-10-1.24760E-09
 -1       617 1.01396E+06 5.73237E+05 1.64145E+04 7.63297E+05-7.97172E-10 1.01097E-09
 -1       618 1.00473E+06 5.93235E+05 2.37351E+04 7.66524E+05-4.96584E-10-2.58296E-09
 -1       619 1.01133E+06 5.70393E+05 3.65060E+04 7.63789E+05 1.56433E-10-1.29330E-09
 -1       620 1.03393E+06 6.27580E+05 8.79861E+04 7.57875E+05 5.16593E-10 2.02635E-09
 -1       621 9.86653E+05 5.42308E+05 1.33670E+05 7.69353E+05-4.03816E-10 1.04774E-09
 -1       622 5.03566E+05 8.76513E+02-3.97351E+03 1.68669E+04 1.55524E-10 1.09648E-09
 -1       623 5.02284E+05-1.33560E+03-2.79209E+03 9.73390E+04 9.30413E-10 3.69369E-09
 -1       624 5.02973E+05 1.57935E+02-1.70298E+03 1.69780E+04 3.86535E-10-4.80895E-11
 -1       625 5.02360E+05-4.60398E+02-2.19333E+03 9.72073E+04-6.47930E-10-1.69416E-09
 -1       626 5.03110E+05 3.73076E+02-3.15808E+03 1.69989E+04-4.22006E-10 6.76437E-10
 -1       627 5.00711E+05-3.87784E+03-7.45190E+03 9.72719E+04 7.16682E-10 1.85764E-09
 -1       628 5.04876E+05 2.96076E+03-1.13649E+04 1.69130E+04-1.72804E-11-1.01682E-09
 -1       629 3.28630E+04-7.48962E+05-1.23485E+05 2.28647E+04-2.48838E-09-8.75843E-10
 -1       630-4.41315E+04-7.96238E+05-8.91327E+04 1.37654E+05-8.34916E-10-3.20506E-09
 -1       631 6.22009E+03-7.65914E+05-5.12866E+04 2.25704E+04-3.11002E-09-3.32085E-09
 -1       632-3.22759E+04-7.89514E+05-6.95187E+04 1.37586E+05-1.72440E-09-1.45337E-09
 -1       633 2.24972E+04-7.55618E+05-8.71615E+04 2.29312E+04-2.05182E-09 1.46338E-09
 -1       634 1.30473E+06 7.16889E+05 1.40536E+05 1.00691E+06 6.00267E-10 1.73895E-09
 -1       635 1.36315E+06 7.97690E+05 9.27198E+04 9.92294E+05 2.47383E-10-2.25282E-09
 -1       636 1.33055E+06 7.46470E+05 3.89376E+04 1.00111E+06 5.95719E-10-2.40652E-09
 -1       637 1.33286E+06 7.61491E+05 2.61859E+04 1.00129E+06-2.10321E-10-9.74978E-10
 -1       638 1.33305E+06 7.49512E+05 1.95918E+04 1.00065E+06-4.55088E-10 1.45761E-10
 -1       639 1.33351E+06 7.61833E+05 2.82093E+04 1.00113E+06 1.63777E-09 7.31006E-10
 -1       640 1.32992E+06 7.46171E+05 4.33145E+04 1.00123E+06 3.53793E-10 1.56797E-09
 -1       641 1.36820E+06 8.02412E+05 1.04309E+05 9.90841E+05-4.43833E-10-1.16415E-10
 -1       642 1.30059E+06 7.12976E+05 1.58464E+05 1.00784E+06 7.63976E-11 2.43017E-09
 -1       643 8.20903E+05-4.99586E+03 1.80842E+04 1.40694E+04 1.04592E-10 7.93989E-10
 -1       644 8.27749E+05 6.32696E+03 1.22566E+04 8.09866E+04-4.54747E-12-1.60804E-09
 -1       645 8.23609E+05-5.93975E+02 5.66793E+03 1.42835E+04-1.19599E-10-6.99742E-10
 -1       646 8.24755E+05 1.36538E+03 4.94885E+03 8.07502E+04-1.37186E-09 8.35598E-11
 -1       647 8.23650E+05-5.25283E+02 5.22432E+03 1.43051E+04-9.32459E-10-1.67506E-09
 -1       648 8.27242E+05 5.55808E+03 1.08305E+04 8.09010E+04-3.18323E-11 1.49157E-10
 -1       649 8.21301E+05-4.34903E+03 1.58286E+04 1.41332E+04-1.29148E-10-9.05857E-10
 -1       650 4.22155E+04-1.03088E+06-1.59436E+05 2.13701E+04-1.89175E-10-1.91267E-09
 -1       651-5.77277E+04-1.09196E+06-1.17561E+05 1.29645E+05 2.00089E-09-4.30782E-09
 -1       652 8.64775E+03-1.05214E+06-7.17779E+04 2.10106E+04 3.52884E-10-1.03250E-09
 -1       653-4.98403E+04-1.08749E+06-1.04516E+05 1.29587E+05 1.49066E-09 3.00952E-09
 -1       654 3.53190E+04-1.03530E+06-1.35283E+05 2.14265E+04-7.05768E-10 4.52019E-10
 -1       655 1.35110E+06 7.41598E+05 1.39397E+05 1.04046E+06 3.27418E-10-2.53203E-09
 -1       656 1.41509E+06 8.15700E+05 9.18958E+04 1.02417E+06-1.86992E-09-2.84490E-09
 -1       657 1.37683E+06 7.70835E+05 3.84417E+04 1.03467E+06-7.00311E-11 6.45741E-10
 -1       658 1.38481E+06 7.79938E+05 2.55667E+04 1.03316E+06-1.03819E-09-2.37833E-09
 -1       659 1.37943E+06 7.73812E+05 1.86594E+04 1.03418E+06 5.39785E-10-2.67093E-09
 -1       660 1.38506E+06 7.80016E+05 2.62381E+04 1.03310E+06 5.09317E-10-2.52112E-09
 -1       661 1.37659E+06 7.70771E+05 3.98934E+04 1.03472E+06-1.03682E-10 1.84809E-09
 -1       662 1.41689E+06 8.17146E+05 9.57413E+04 1.02366E+06-1.22509E-09 1.21236E-09
 -1       663 1.34964E+06 7.40384E+05 1.45343E+05 1.04079E+06-3.41970E-10 2.83762E-10
 -1       664 6.60739E+05-2.79767E+02 8.82057E+02 1.05134E+04-8.39464E-10-3.91765E-10
 -1       665 6.61083E+05 3.33383E+02 7.94969E+02 6.04375E+04 2.97177E-10-1.47020E-09
 -1       666 6.60829E+05-4.67413E+01 7.01650E+02 1.06262E+04 1.56888E-11-9.08244E-10
 -1       667 6.60983E+05 3.70545E+02 1.23724E+03 6.03130E+04 1.35947E-09-3.62490E-09
 -1       668 6.60700E+05-2.25481E+02 2.01604E+03 1.06379E+04-9.52696E-11-6.58929E-10
 -1       669 6.62368E+05 2.65876E+03 4.97570E+03 6.03944E+04-1.39039E-10 1.68575E-09
 -1       670 6.59546E+05-2.10485E+03 7.54701E+03 1.05449E+04 1.29148E-10 1.63709E-11
 -1       671 3.99638E+04-9.15797E+05-1.51574E+05 2.01918E+04 1.59343E-09 1.04592E-10
 -1       672-5.52458E+04-9.73954E+05-1.13389E+05 1.21189E+05 4.44288E-09-1.85628E-09
 -1       673 8.65053E+03-9.35603E+05-7.19332E+04 1.98664E+04 2.90356E-09-7.19766E-10
 -1       674-5.26883E+04-9.72509E+05-1.09161E+05 1.21177E+05 3.55249E-09-1.17211E-09
 -1       675 3.77306E+04-9.17233E+05-1.43745E+05 2.02042E+04 1.09867E-09 1.73713E-09
 -1       676 1.35308E+06 7.44956E+05 1.37458E+05 1.04290E+06-3.41970E-10 1.45519E-09
 -1       677 1.41195E+06 8.22283E+05 9.05412E+04 1.02807E+06 1.61526E-09 3.88172E-09
 -1       678 1.37847E+06 7.73799E+05 3.77067E+04 1.03719E+06 5.52973E-10-3.25599E-10
 -1       679 1.38200E+06 7.87001E+05 2.47622E+04 1.03696E+06 6.50061E-10 5.76620E-10
 -1       680 1.38110E+06 7.76738E+05 1.75466E+04 1.03670E+06-6.94087E-10-1.86665E-09
 -1       681 1.38178E+06 7.86823E+05 2.39525E+04 1.03701E+06-1.04205E-09-1.98725E-09
 -1       682 1.37868E+06 7.73959E+05 3.59557E+04 1.03715E+06 2.45564E-10-2.73758E-10
 -1       683 1.41004E+06 8.20278E+05 8.59037E+04 1.02862E+06-2.24645E-10-4.56566E-10
 -1       684 1.35466E+06 7.46598E+05 1.30286E+05 1.04255E+06-4.43833E-10 1.74623E-09
 -1       685 8.26030E+05-6.27966E+03 2.33026E+04 4.41124E+03-4.84306E-11-3.74712E-10
 -1       686 8.34699E+05 8.08920E+03 1.59510E+04 2.57767E+04 4.51791E-10 2.43608E-09
 -1       687 8.29499E+05-8.00939E+02 7.83847E+03 4.49265E+03-3.24690E-10-1.08685E-10
 -1       688 8.31320E+05 1.98205E+03 7.65915E+03 2.56713E+04 7.36520E-10-3.14628E-11
 -1       689 8.29381E+05-9.65765E+02 9.04420E+03 4.51622E+03 2.15778E-10-6.77574E-11
 -1       690 8.35886E+05 1.02202E+04 1.97874E+04 2.56904E+04 9.50422E-11-1.20804E-09
 -1       691 8.24937E+05-7.95681E+03 2.94175E+04 4.47376E+03 4.54747E-12-9.13133E-10
 -1       692 2.03477E+04-2.20275E+05-7.80819E+04 1.97802E+04-5.09317E-11-2.05000E-09
 -1       693-2.86732E+04-2.50412E+05-6.02212E+04 1.15068E+05 1.01863E-09-1.14051E-09
 -1       694 4.97778E+03-2.30022E+05-4.12498E+04 1.96234E+04 2.18733E-10-5.54451E-10
 -1       695-3.29727E+04-2.52895E+05-6.73576E+04 1.15100E+05 7.13044E-10-1.61208E-09
 -1       696 2.41353E+04-2.17859E+05-9.12873E+04 1.97488E+04 1.49157E-10 1.06229E-09
 -1       697 7.22239E+05 4.06002E+05 5.24504E+04 5.56332E+05 6.74845E-10 7.02130E-10
 -1       698 7.27353E+05 4.52817E+05 3.47771E+04 5.55722E+05-7.63976E-10-1.57524E-09
 -1       699 7.31848E+05 4.17033E+05 1.49443E+04 5.54158E+05-3.25372E-10-2.11503E-09
 -1       700 7.16076E+05 4.39466E+05 1.06980E+04 5.59080E+05-9.86120E-10-5.97424E-11
 -1       701 7.32772E+05 4.18024E+05 9.06933E+03 5.53972E+05 3.68107E-10-1.15028E-09
 -1       702 7.16814E+05 4.40605E+05 1.44931E+04 5.58937E+05 4.00235E-10-1.86878E-09
 -1       703 7.31164E+05 4.15973E+05 2.31424E+04 5.54259E+05 1.57797E-10-1.21872E-10
 -1       704 7.35425E+05 4.63137E+05 5.65165E+04 5.53478E+05 3.85626E-10-8.40373E-10
 -1       705 7.15411E+05 3.97692E+05 8.60398E+04 5.57813E+05 2.98314E-10-2.13186E-09
 -1       706 1.48540E+06-2.45868E+04 9.11895E+04-1.94103E+02 3.14117E-10 2.05546E-09
 -1       707 1.51940E+06 3.16425E+04 6.16119E+04-3.78902E+02 1.25556E-09-8.44921E-10
 -1       708 1.49912E+06-3.03187E+03 2.87663E+04-1.53947E+02 5.15172E-10-6.59384E-10
 -1       709 1.50556E+06 6.56370E+03 2.54630E+04-4.64268E+02-3.76275E-10-3.70676E-10
 -1       710 1.49926E+06-2.83852E+03 2.73703E+04-1.09236E+02-1.14710E-10 5.63887E-10
 -1       711 1.51800E+06 2.91821E+04 5.71665E+04-5.52705E+02 3.53452E-10 1.87902E-09
 -1       712 1.48666E+06-2.26367E+04 8.41074E+04-6.57622E+01 8.57199E-11 1.12050E-09
 -1       713 1.01527E+04 1.08053E+05-3.75564E+04-3.87485E+03-3.58341E-10-7.55335E-10
 -1       714-1.32735E+04 9.38853E+04-2.55088E+04-2.25608E+04-8.13998E-10 2.25236E-09
 -1       715 1.41380E+03 1.02501E+05-1.19455E+04-3.86742E+03-8.24912E-10 4.72937E-10
 -1       716-4.76293E+03 9.87148E+04-1.14206E+04-2.25487E+04-1.43382E-09-1.13687E-12
 -1       717 2.71287E+03 1.03274E+05-1.14512E+04-3.88679E+03-1.51203E-09 2.67846E-10
 -1       718 6.93357E+04 4.11847E+04-3.77382E+04 4.27066E+04 1.46701E-09 3.52520E-09
 -1       719 5.88275E+04 1.40499E+04-2.44672E+04 4.51100E+04 1.37106E-10 1.01386E-09
 -1       720 6.22726E+04 3.32051E+04-9.31334E+03 4.42997E+04 4.68390E-10 1.00317E-09
 -1       721 6.73532E+04 2.40122E+04-4.48626E+03 4.26234E+04 8.35087E-10-1.53068E-09
 -1       722 6.13584E+04 3.22026E+04-4.25934E+02 4.44537E+04 6.36646E-10 6.61771E-10
 -1       723 6.91541E+04 2.60442E+04 3.30316E+03 4.22143E+04 2.37549E-10 2.65061E-10
 -1       724 6.05666E+04 3.13400E+04 7.52371E+03 4.45857E+04 3.83807E-10-1.07775E-10
 -1       725 7.62496E+04 3.43508E+04 2.01765E+04 4.01591E+04-1.99179E-10-7.31234E-10
 -1       726 5.47251E+04 2.47109E+04 3.12347E+04 4.59040E+04 4.91127E-11-8.51287E-10
 -1       727 2.09607E+06-3.79241E+04 1.39629E+05 5.00786E+02-2.51453E-09-3.39060E-09
 -1       728 2.14824E+06 4.84451E+04 9.18664E+04 4.33140E+02 6.00039E-10 2.22644E-09
 -1       729 2.11755E+06-4.33955E+03 3.79532E+04 8.09126E+02-1.25146E-09-3.86353E-09
 -1       730 2.12473E+06 6.33015E+03 2.46027E+04-2.10543E+02-7.77618E-10-2.71029E-10
 -1       731 2.11967E+06-1.33946E+03 1.62776E+04 1.14463E+03-5.71845E-10-3.56408E-10
 -1       732 2.12658E+06 1.02660E+04 2.28602E+04-8.84340E+02-3.77986E-09-1.36401E-09
 -1       733 2.11571E+06-7.67445E+03 2.96835E+04 1.48194E+03 1.98952E-10 1.16779E-09
 -1       734 2.59507E+04-4.38495E+05-9.57649E+04-1.20402E+04 1.19326E-09-7.23048E-10
 -1       735-3.36295E+04-4.74598E+05-6.44048E+04-7.03180E+04 5.32054E-10 7.68409E-10
 -1       736 3.47552E+03-4.52829E+05-2.89964E+04-1.19211E+04 1.89812E-09 8.78366E-10
 -1       737-9.95123E+03-4.61308E+05-2.52902E+04-7.03104E+04 8.62201E-10 6.21299E-10
 -1       738 5.34253E+03-4.51783E+05-2.32635E+04-1.20481E+04 4.10182E-10 1.93722E-10
 -1       739 1.69944E+05 9.56475E+04-3.05692E+04 1.18801E+05-2.01908E-10-9.84983E-10
 -1       740 1.67032E+05 6.80939E+04-1.99018E+04 1.19118E+05 6.94627E-10 4.42924E-10
 -1       741 1.64219E+05 8.92143E+04-7.76385E+03 1.20099E+05 4.32010E-10-1.04887E-09
 -1       742 1.73956E+05 7.60463E+04-4.11626E+03 1.17113E+05-1.25624E-10-7.35668E-10
 -1       743 1.63475E+05 8.84818E+04-1.27193E+03 1.20237E+05-1.07912E-09 8.66976E-10
 -1       744 1.75164E+05 7.71900E+04 6.07588E+02 1.16864E+05-5.67820E-09 7.35099E-10
 -1       745 1.63086E+05 8.81676E+04 2.43248E+03 1.20310E+05-3.94766E-09-2.08354E-09
 -1       746 1.77894E+05 8.01718E+04 7.16170E+03 1.16122E+05 5.59726E-09-5.36829E-10
 -1       747 1.60936E+05 8.57912E+04 1.12137E+04 1.20805E+05 4.88399E-09-5.35465E-10
 -1       748 2.15923E+06-9.27995E+03 3.30560E+04 3.46454E+04-1.31386E-08-4.24734E-09
 -1       749 2.17197E+06 1.26153E+04 2.51048E+04 1.70437E+05-7.14863E-09 1.34037E-10
 -1       750 2.16365E+06-1.28548E+03 1.63012E+04 3.68608E+04 1.44883E-08 8.00355E-10
 -1       751 2.16743E+06 7.46057E+03 2.31229E+04 1.67225E+05-5.83532E-09-1.45337E-09
 -1       752 2.16178E+06-3.56463E+03 3.45164E+04 3.78475E+04-2.97275E-08-8.45648E-09
 -1       753 2.18815E+06 4.51157E+04 8.26703E+04 1.66511E+05-4.87540E-08-5.64614E-09
 -1       754 2.14256E+06-3.37997E+04 1.25283E+05 3.75545E+04-2.07510E-08-6.73754E-09
 -1       755 2.61978E+04 7.65261E+05-9.38244E+04-3.50098E+03-3.06318E-09-4.41332E-10
 -1       756-3.14437E+04 7.30425E+05-5.51336E+04-1.53855E+04-4.09364E-09 2.69006E-09
 -1       757 1.22937E+03 7.49180E+05-1.02852E+04-3.60683E+03-3.89809E-09 2.40925E-09
 -1       758 1.60385E+04 7.57034E+05 2.33348E+04-1.51925E+04-3.64798E-09 1.68501E-09
 -1       759-1.50892E+04 7.38566E+05 5.16761E+04-3.68575E+03-4.15457E-09-1.88686E-09
 -1       760 1.59587E+06 9.15774E+05 6.67437E+04 1.22790E+06-8.01447E-09-6.73026E-10
 -1       761 1.57151E+06 1.00664E+06 4.50930E+04 1.23608E+06-1.20929E-08-2.19325E-09
 -1       762 1.60659E+06 9.31232E+05 2.08561E+04 1.22547E+06 3.93084E-09-1.46247E-09
 -1       763 1.55979E+06 9.87616E+05 1.77610E+04 1.23930E+06 1.22382E-08-2.36162E-09
 -1       764 1.60645E+06 9.33182E+05 1.93515E+04 1.22550E+06 3.47791E-09 2.08593E-09
 -1       765 1.56518E+06 9.91028E+05 3.59952E+04 1.23783E+06-1.07034E-08-2.77578E-09
 -1       766 1.60130E+06 9.28220E+05 6.03548E+04 1.22643E+06 1.58980E-09-5.56247E-09
 -1       767 1.61578E+06 1.04999E+06 1.49530E+05 1.22291E+06-1.08339E-08-9.76797E-10
 -1       768 1.55910E+06 8.80046E+05 2.28429E+05 1.23591E+06-5.81349E-09-4.51109E-09
 -1       769 9.64976E+05-4.37579E+03 1.69671E+04 9.64611E+03-3.40606E-09-2.80852E-09
 -1       770 9.70999E+05 6.17840E+03 1.27348E+04 3.51677E+04 1.66692E-08 2.31063E-09
 -1       771 9.67295E+05-6.52371E+02 8.47218E+03 9.74368E+03-1.43783E-08-3.81192E-09
 -1       772 9.69593E+05 3.42613E+03 1.21010E+04 3.50578E+04-8.77726E-10 8.42192E-10
 -1       773 9.66345E+05-2.00019E+03 1.82027E+04 9.75703E+03 1.17319E-09-3.36695E-09
 -1       774 9.80731E+05 2.33381E+04 4.37260E+04 3.50886E+04 4.64905E-09 1.12050E-09
 -1       775 9.56165E+05-1.79718E+04 6.63330E+04 9.70192E+03 9.84642E-09-2.32467E-09
 -1       776 5.48152E+04-1.37666E+06-2.06708E+05 2.78376E+04 6.12636E-09-2.11367E-09
 -1       777-7.54904E+04-1.45438E+06-1.48754E+05 1.37336E+05 4.34011E-09 5.29599E-09
 -1       778 9.98583E+03-1.40517E+06-8.47385E+04 2.70181E+04 8.95398E-09 3.19119E-09
 -1       779-5.40075E+04-1.44266E+06-1.13446E+05 1.37888E+05 2.74667E-09-1.14596E-10
 -1       780 3.63323E+04-1.38871E+06-1.41221E+05 2.73043E+04 1.93540E-09-4.31828E-09
 -1       781 8.90535E+05 4.99901E+05 5.72975E+04 6.83364E+05-1.51340E-08-5.93172E-09
 -1       782 9.25585E+05 5.21480E+05 3.82278E+04 6.74177E+05-2.19161E-08-2.23281E-10
 -1       783 9.01206E+05 5.11695E+05 1.69378E+04 6.80937E+05 2.87810E-09-3.88536E-09
 -1       784 9.13144E+05 5.07345E+05 1.30544E+04 6.77904E+05 9.10450E-09 5.04315E-09
 -1       785 9.02161E+05 5.12604E+05 1.25074E+04 6.80727E+05-7.73537E-09-1.26465E-09
 -1       786 9.15039E+05 5.09682E+05 2.16789E+04 6.77473E+05-1.35960E-08-6.99310E-09
 -1       787 8.99410E+05 5.09540E+05 3.55856E+04 6.81221E+05-1.54432E-09-4.21096E-09
 -1       788 9.44609E+05 5.44147E+05 8.76342E+04 6.68749E+05 8.04539E-09 2.36105E-09
 -1       789 8.74521E+05 4.81548E+05 1.33684E+05 6.86840E+05 3.42807E-08-9.45874E-10
 -1       790 2.64520E+05-5.72565E+02 2.56344E+03 6.89333E+03-2.42180E-08-3.60774E-09
 -1       791 2.65214E+05 1.19331E+03 2.40208E+03 3.39727E+04-2.21188E-08 4.83055E-10
 -1       792 2.64781E+05-1.08985E+02 2.44587E+03 6.89317E+03-2.63163E-08-3.34819E-09
 -1       793 2.65421E+05 1.49794E+03 4.57957E+03 3.39698E+04 4.03645E-09 1.02648E-09
 -1       794 2.64274E+05-8.30122E+02 7.64687E+03 6.89573E+03 1.08877E-08-2.76395E-09
 -1       795 2.70420E+05 1.03722E+04 1.89716E+04 3.39496E+04-2.04064E-08 7.67159E-10
 -1       796 2.59812E+05-7.84676E+03 2.89525E+04 6.90867E+03 1.64760E-08-2.82489E-09
 -1       797 3.41449E+04-1.10518E+06-1.29199E+05 1.66557E+04-2.05982E-08-4.19686E-09
 -1       798-4.75186E+04-1.15394E+06-9.46734E+04 7.50362E+04-3.65217E-08 7.31143E-09
 -1       799 6.67964E+03-1.12255E+06-5.67941E+04 1.62962E+04-1.27011E-08 3.48007E-09
 -1       800-3.92481E+04-1.14938E+06-8.10530E+04 7.52375E+04-3.51720E-08 2.08249E-09
 -1       801 2.69977E+04-1.10982E+06-1.03940E+05 1.64610E+04-5.35510E-09-6.79347E-09
 -1       802 5.20367E+05 2.91720E+05 5.44419E+04 4.04988E+05-9.48603E-09-2.90311E-09
 -1       803 5.45143E+05 3.20875E+05 3.60556E+04 3.98680E+05 5.65092E-09-3.65981E-09
 -1       804 5.30447E+05 3.03069E+05 1.54125E+04 4.02702E+05-2.81671E-09 5.87534E-10
 -1       805 5.33312E+05 3.07099E+05 1.08879E+04 4.02208E+05-4.82232E-08 7.93307E-10
 -1       806 5.31416E+05 3.04123E+05 9.00723E+03 4.02509E+05-7.41181E-10 1.28580E-10
 -1       807 5.34032E+05 3.07972E+05 1.41303E+04 4.02045E+05 7.07200E-09-2.64913E-09
 -1       808 5.29765E+05 3.02265E+05 2.24224E+04 4.02812E+05-1.41945E-08-6.52744E-09
 -1       809 5.52321E+05 3.29385E+05 5.46345E+04 3.96638E+05-1.74200E-08-2.71257E-09
 -1       810 5.14332E+05 2.84827E+05 8.31601E+04 4.06302E+05-1.97524E-08 2.03363E-09
 -1       811 7.74724E+03-1.52579E+03 5.97526E+03 2.39599E+03 2.35156E-08-2.56568E-09
 -1       812 9.86990E+03 2.19146E+03 4.60331E+03 1.35891E+04 4.78517E-08 1.05244E-09
 -1       813 8.54220E+03-2.47516E+02 3.28085E+03 2.37992E+03 1.05879E-08-2.59436E-09
 -1       814 9.49871E+03 1.40413E+03 4.96628E+03 1.36046E+04 9.89667E-09 1.06866E-09
 -1       815 8.11508E+03-8.57016E+02 7.66661E+03 2.38092E+03 9.24024E-09-2.82671E-09
 -1       816 1.42714E+04 9.93121E+03 1.85791E+04 1.35715E+04-1.32795E-08 1.05865E-09
 -1       817 3.77948E+03-7.66588E+03 2.82313E+04 2.40839E+03 1.70664E-08-2.76486E-09
 -1       818 1.84213E+04-7.78469E+05-7.02560E+04 1.15190E+04-1.70257E-09-1.58616E-09
 -1       819-2.61671E+04-8.04992E+05-5.27374E+04 5.10264E+04 7.95762E-09 1.20153E-08
 -1       820 3.95217E+03-7.87593E+05-3.37500E+04 1.13413E+04 1.11708E-08 2.67300E-09
 -1       821-2.55161E+04-8.04656E+05-5.16752E+04 5.11010E+04 3.99677E-09 2.02402E-09
 -1       822 1.78737E+04-7.78835E+05-6.82789E+04 1.14454E+04 2.91038E-09-7.12316E-09
 -1       823 1.78024E+05 9.83488E+04 3.13980E+04 1.41197E+05 7.90897E-09-5.80258E-10
 -1       824 1.92332E+05 1.15171E+05 2.07967E+04 1.37563E+05 4.41742E-09-7.67614E-10
 -1       825 1.83837E+05 1.04896E+05 8.89087E+03 1.39876E+05 1.55524E-09 1.53523E-09
 -1       826 1.85505E+05 1.07226E+05 6.28755E+03 1.39599E+05 1.30215E-08 4.23211E-09
 -1       827 1.84398E+05 1.05500E+05 5.21133E+03 1.39764E+05-1.13177E-09 4.72653E-10
 -1       828 1.85926E+05 1.07741E+05 8.19073E+03 1.39504E+05-3.26921E-09-5.51267E-09
 -1       829 1.83439E+05 1.04422E+05 1.30049E+04 1.39941E+05 7.98900E-09-9.95624E-09
 -1       830 1.96547E+05 1.20170E+05 3.17033E+04 1.36364E+05 2.85945E-09-1.77351E-10
 -1       831 1.74480E+05 9.43023E+04 4.82541E+04 1.41971E+05 1.48266E-08-7.25049E-09
 -1       832 7.97472E+03-6.13660E+05-3.06298E+04 4.95975E+03 1.21327E-09-1.13437E-09
 -1       833-1.14875E+04-6.25298E+05-2.36587E+04 1.63765E+04 3.21522E-08 7.73070E-12
 -1       834 1.90614E+03-6.17467E+05-1.62282E+04 4.88983E+03-8.07324E-09 2.57688E-09
 -1       835-1.32319E+04-6.26286E+05-2.65434E+04 1.64356E+04 7.22366E-10-1.13126E-09
 -1       836 9.49841E+03-6.12682E+05-3.59754E+04 4.89990E+03-2.19770E-08 1.41208E-09
 -1       837-4.70707E+05 4.99911E+03-1.90653E+04 9.30276E+03 5.02041E-10 1.12686E-09
 -1       838-4.77590E+05-6.72057E+03-1.34091E+04 5.06897E+04-8.19000E-10 9.12451E-10
 -1       839-4.73482E+05 6.80536E+02-7.38053E+03 9.08772E+03-5.43423E-11 6.40966E-10
 -1       840-4.75362E+05-2.28492E+03-8.56028E+03 5.09487E+04 8.03539E-10 7.05342E-10
 -1       841-4.73086E+05 1.26714E+03-1.14998E+04 9.04528E+03-1.33582E-12 2.49202E-10
 -1       842-4.81842E+05-1.39690E+04-2.65632E+04 5.08752E+04-1.23350E-10 4.42242E-10
 -1       843-4.66987E+05 1.08201E+04-3.99783E+04 9.15931E+03-1.12323E-10 2.55568E-09
 -1       844 1.19697E+04-7.50738E+05-4.17611E+04 1.47873E+04-1.70985E-10 9.89530E-10
 -1       845-1.29820E+04-7.66160E+05-2.14128E+04 9.30078E+04-8.00355E-11 9.73728E-10
 -1       846-2.10467E+02-7.58665E+05 2.45668E+03 1.45479E+04 4.09273E-10-2.69890E-09
 -1       847 1.75604E+04-7.49048E+05 2.90191E+04 9.30139E+04 3.69255E-10-3.78486E-09
 -1       848-1.45847E+04-7.67847E+05 5.17715E+04 1.47752E+04 1.89175E-10-2.37105E-09
 -1       849 3.39077E+05 1.83218E+05 7.55600E+04 2.70665E+05 1.32786E-10 1.61526E-09
 -1       850 3.65858E+05 2.31359E+05 5.00921E+04 2.64205E+05 2.74895E-10 1.48430E-09
 -1       851 3.52946E+05 1.99072E+05 2.15149E+04 2.67518E+05-4.77485E-11-1.72258E-09
 -1       852 3.49665E+05 2.12064E+05 1.54012E+04 2.69025E+05-6.65068E-11 8.92442E-11
 -1       853 3.54189E+05 2.00589E+05 1.30513E+04 2.67272E+05 2.44131E-09 5.87244E-09
 -1       854 3.51015E+05 2.13388E+05 2.08586E+04 2.68701E+05-4.83851E-10-6.42103E-10
 -1       855 3.51654E+05 1.97866E+05 3.33183E+04 2.67741E+05-6.56655E-10-2.61025E-10
 -1       856 3.78314E+05 2.45295E+05 8.13692E+04 2.60628E+05-4.25644E-10-4.54747E-12
 -1       857 3.28674E+05 1.71872E+05 1.23927E+05 2.72947E+05 3.23780E-10 6.25732E-10
 -1       858-5.64502E+05 1.32429E+04-4.95892E+04 1.20794E+04-6.54836E-11 6.96673E-10
 -1       859-5.82820E+05-1.72719E+04-3.39213E+04 6.78819E+04 2.45564E-11 1.72804E-09
 -1       860-5.71893E+05 1.69756E+03-1.67391E+04 1.17919E+04 3.15140E-10 2.92857E-10
 -1       861-5.75909E+05-4.25773E+03-1.64646E+04 6.82054E+04 9.49512E-10-1.74327E-09
 -1       862-5.71621E+05 2.10302E+03-1.95684E+04 1.17588E+04 2.54659E-11 4.79304E-10
 -1       863-5.85763E+05-2.22465E+04-4.29614E+04 6.80263E+04 2.26464E-10-3.96540E-10
 -1       864-5.61947E+05 1.72511E+04-6.39534E+04 1.19685E+04 1.79170E-10 4.87489E-10
 -1       865 7.51420E+03-3.40030E+05-2.59453E+04 1.77373E+04-6.18456E-11-6.07542E-10
 -1       866-7.79745E+03-3.49611E+05-1.24210E+04 1.04880E+05 2.85127E-10 1.84059E-10
 -1       867-3.45547E+02-3.45179E+05 3.50506E+03 1.76027E+04 5.62977E-10-1.52733E-09
 -1       868 1.37866E+04-3.37419E+05 2.32742E+04 1.04819E+05 3.44698E-10-2.51384E-09
 -1       869-1.13153E+04-3.52133E+05 4.02291E+04 1.77964E+04 3.85626E-10-2.09002E-09
 -1       870 4.77400E+05 2.62456E+05 7.40447E+04 3.74940E+05 5.52973E-10 2.00089E-09
 -1       871 5.00259E+05 3.13019E+05 4.90542E+04 3.69584E+05-4.34284E-10 7.63976E-11
 -1       872 4.90969E+05 2.78037E+05 2.09917E+04 3.71867E+05 2.31466E-10 2.11912E-10
 -1       873 4.84414E+05 2.94031E+05 1.48810E+04 3.74290E+05 7.57041E-10 1.80080E-10
 -1       874 4.92184E+05 2.79562E+05 1.23869E+04 3.71629E+05 5.22959E-11-5.37966E-10
 -1       875 4.85592E+05 2.95129E+05 1.95283E+04 3.74004E+05 6.00267E-11 1.15870E-09
 -1       876 4.89839E+05 2.77039E+05 3.10428E+04 3.72064E+05 5.36602E-10 9.49512E-10
 -1       877 5.10946E+05 3.24792E+05 7.56835E+04 3.66506E+05-2.27374E-11-3.03771E-10
 -1       878 4.68484E+05 2.52859E+05 1.15225E+05 3.76896E+05 1.60071E-10-2.91038E-11
 -1       879-1.50431E+05 6.82192E+03-2.59004E+04 1.32679E+04 2.45564E-11 1.01409E-09
 -1       880-1.59942E+05-8.97422E+03-1.79996E+04 7.61375E+04-1.06661E-09 1.62800E-09
 -1       881-1.54246E+05 9.31071E+02-9.50732E+03 1.31157E+04-5.38876E-10 1.19599E-09
 -1       882-1.56746E+05-2.62960E+03-1.04112E+04 7.62964E+04 1.80080E-10 1.92614E-10
 -1       883-1.53864E+05 1.48851E+03-1.34592E+04 1.31101E+04-5.37739E-10-1.64664E-09
 -1       884-1.63978E+05-1.59353E+04-3.06089E+04 7.61733E+04-1.93722E-10-5.82077E-11
 -1       885-1.46858E+05 1.23867E+04-4.59556E+04 1.32374E+04 6.64841E-10 5.51154E-10
 -1       886 1.46654E+04-4.58603E+05-5.36500E+04 1.70903E+04-2.94312E-09 1.00226E-09
 -1       887-1.83439E+04-4.78848E+05-3.47213E+04 1.01244E+05-5.64341E-10 8.07631E-10
 -1       888 1.62901E+03-4.66971E+05-1.32044E+04 1.69485E+04-2.14732E-09-7.02585E-10
 -1       889-1.05286E+03-4.69050E+05-6.11340E+03 1.01164E+05-5.18355E-10-5.51836E-10
 -1       890-4.41369E+02-4.68302E+05-6.36834E+02 1.71700E+04-1.38698E-09-1.47884E-09
 -1       891 6.73796E+05 3.70248E+05 8.76582E+04 5.24305E+05-2.40107E-10 3.23780E-10
 -1       892 7.06405E+05 4.24558E+05 5.78784E+04 5.16311E+05 1.53750E-09 1.86628E-09
 -1       893 6.89890E+05 3.88710E+05 2.43692E+04 5.20669E+05 2.07547E-09 2.89310E-09
 -1       894 6.87528E+05 4.01966E+05 1.65341E+04 5.21911E+05 7.71934E-11 6.47560E-10
 -1       895 6.91423E+05 3.90606E+05 1.26061E+04 5.20383E+05-1.97588E-10 3.93953E-10
 -1       896 6.88113E+05 4.02331E+05 1.84792E+04 5.21762E+05 3.89150E-10 5.78439E-10
 -1       897 6.89324E+05 3.88388E+05 2.85776E+04 5.20778E+05 1.11231E-09 2.84672E-10
 -1       898 7.11144E+05 4.29212E+05 6.90237E+04 5.14938E+05 6.98492E-10 6.18456E-11
 -1       899 6.69888E+05 3.66408E+05 1.04896E+05 5.25172E+05-5.09317E-11-2.43745E-10
 -1       900 3.97929E+05-1.37230E+03 4.51378E+03 1.34076E+04-1.60981E-10-9.41327E-11
 -1       901 3.99716E+05 1.62433E+03 2.63017E+03 7.70223E+04 3.67436E-10-4.77655E-10
 -1       902 3.98676E+05-8.47011E+01 2.75701E+02 1.34568E+04-5.48653E-10-1.58236E-09
 -1       903 3.98385E+05-2.91154E+02-1.46453E+03 7.69677E+04-1.99515E-09-1.52625E-10
 -1       904 3.99045E+05 4.45896E+02-3.52003E+03 1.34620E+04-5.37511E-10 5.75028E-10
 -1       905 3.95880E+05-5.06584E+03-9.47017E+03 7.70000E+04 1.19826E-10-1.84684E-10
 -1       906 4.01364E+05 3.95228E+03-1.47453E+04 1.34241E+04 5.37511E-10 1.19235E-09
 -1       907 2.49908E+04-6.37260E+05-9.35217E+04 1.55871E+04 2.43745E-10-1.30603E-09
 -1       908-3.34400E+04-6.72891E+05-6.66511E+04 9.27996E+04 1.50612E-09 2.24674E-09
 -1       909 4.43560E+03-6.50305E+05-3.68657E+04 1.54438E+04 1.78261E-10-1.06706E-09
 -1       910-2.18061E+04-6.66261E+05-4.73871E+04 9.26841E+04 1.07502E-09-1.33241E-09
 -1       911 1.47995E+04-6.43790E+05-5.78473E+04 1.57014E+04 2.98314E-10-1.99725E-09
 -1       912 8.82811E+05 4.84622E+05 9.70473E+04 6.81599E+05 6.58474E-10 5.82077E-11
 -1       913 9.26010E+05 5.37652E+05 6.38829E+04 6.70648E+05 8.40373E-10-6.74845E-10
 -1       914 9.00704E+05 5.05043E+05 2.64956E+04 6.77565E+05-4.22006E-10-5.64796E-10
 -1       915 9.04926E+05 5.12592E+05 1.72151E+04 6.76895E+05 2.27374E-10-5.81622E-10
 -1       916 9.02518E+05 5.07204E+05 1.18835E+04 6.77234E+05-1.57826E-10 6.68479E-11
 -1       917 9.04732E+05 5.12084E+05 1.57875E+04 6.76930E+05-3.00133E-10-1.45201E-09
 -1       918 9.00881E+05 5.05521E+05 2.34098E+04 6.77553E+05 3.21052E-10 9.85892E-10
 -1       919 9.23228E+05 5.33530E+05 5.57062E+04 6.71434E+05-5.93900E-10 1.16415E-10
 -1       920 8.85216E+05 4.87905E+05 8.44065E+04 6.81094E+05 5.45697E-11 4.14730E-10
 -1       921 5.41219E+05 4.17145E+02-2.10994E+03 1.52221E+04-7.81256E-10-5.28019E-10
 -1       922 5.40499E+05-6.42013E+02-1.75153E+03 8.70884E+04-1.55524E-10-1.16006E-09
 -1       923 5.40950E+05 1.33383E+02-1.59361E+03 1.53199E+04-1.97815E-11-4.60318E-10
 -1       924 5.40240E+05-6.01051E+02-2.80100E+03 8.69981E+04 2.46321E-09-2.84331E-10
 -1       925 5.41245E+05 5.46704E+02-4.60124E+03 1.53125E+04-2.75350E-10-3.30374E-10
 -1       926 5.37521E+05-5.95576E+03-1.13263E+04 8.71152E+04 3.15140E-10-5.74516E-10
 -1       927 5.43946E+05 4.60988E+03-1.73636E+04 1.52023E+04 3.05590E-10 3.37423E-10
 -1       928 3.53111E+04-8.22925E+05-1.33815E+05 1.41648E+04 1.30240E-09 2.02226E-09
 -1       929-4.89056E+04-8.74235E+05-1.00177E+05 8.49029E+04 2.08820E-09-1.89760E-09
 -1       930 7.62118E+03-8.40384E+05-6.36275E+04 1.40158E+04 1.96894E-09-2.08183E-09
 -1       931-4.68094E+04-8.72969E+05-9.66723E+04 8.47679E+04 2.63390E-09-4.11092E-10
 -1       932 3.34281E+04-8.24104E+05-1.27347E+05 1.42980E+04 1.15688E-09-1.24965E-09
 -1       933 1.25132E+06 6.84039E+05 1.30462E+05 9.62203E+05 6.25732E-10-1.04046E-09
 -1       934 1.32028E+06 7.44472E+05 8.55953E+04 9.44290E+05-5.09317E-11-9.11314E-10
 -1       935 1.27556E+06 7.11384E+05 3.49135E+04 9.56746E+05 4.54747E-12-6.93035E-10
 -1       936 1.29157E+06 7.10801E+05 2.15527E+04 9.52770E+05 2.43745E-10-7.74889E-10
 -1       937 1.27819E+06 7.14373E+05 1.29502E+04 9.56278E+05-2.43517E-10-4.25189E-10
 -1       938 1.29010E+06 7.08772E+05 1.44044E+04 9.53101E+05-1.33696E-10 1.41935E-09
 -1       939 1.27696E+06 7.13263E+05 1.94554E+04 9.56541E+05 3.51065E-10-3.69255E-10
 -1       940 1.30485E+06 7.25377E+05 4.46522E+04 9.48698E+05-3.46063E-10-2.08456E-09
 -1       941 1.26438E+06 6.99459E+05 6.71604E+04 9.59397E+05-1.38243E-10-1.95723E-09
 -1       942-6.76543E+05 3.54811E+04-1.31112E+05 1.42670E+04 1.03410E-09-1.00408E-09
 -1       943-7.25550E+05-4.55533E+04-8.76767E+04 8.21756E+04 2.84672E-10-1.27875E-09
 -1       944-6.96464E+05 4.26982E+03-3.90536E+04 1.39692E+04-1.56206E-10-4.74756E-10
 -1       945-7.04885E+05-8.00706E+03-3.12272E+04 8.24360E+04 8.64475E-10-3.64071E-09
 -1       946-6.97360E+05 2.96768E+03-2.97986E+04 1.40106E+04 6.68933E-10-2.18733E-10
 -1       947-7.16132E+05-2.92313E+04-5.81455E+04 8.19996E+04 4.87489E-10 6.72117E-10
 -1       948-6.84920E+05 2.24532E+04-8.41542E+04 1.44014E+04 1.01136E-09-1.02591E-09
 -1       949 4.75025E+04-1.12397E+06-1.82182E+05 2.26621E+04-2.61934E-10 1.85446E-09
 -1       950-6.75591E+04-1.19439E+06-1.42205E+05 1.36907E+05 4.84761E-10 1.31308E-10
 -1       951 1.19939E+04-1.14629E+06-9.98645E+04 2.23478E+04 6.43013E-10-9.05857E-10
 -1       952-8.25073E+04-1.20257E+06-1.66788E+05 1.36662E+05 9.40418E-10-2.97382E-09
 -1       953 6.03879E+04-1.11558E+06-2.27756E+05 2.29030E+04 9.31323E-10-1.85992E-09
 -1       954 2.31149E+06 1.26756E+06 2.70716E+05 1.78821E+06 1.51340E-09-1.06229E-09
 -1       955 2.42924E+06 1.41770E+06 1.78380E+05 1.75858E+06-2.56114E-09-3.13412E-09
 -1       956 2.36161E+06 1.32409E+06 7.46287E+04 1.77698E+06 1.20963E-09-1.45519E-11
 -1       957 2.37004E+06 1.34881E+06 4.95380E+04 1.77617E+06-1.99634E-10-3.42516E-09
 -1       958 2.36695E+06 1.32958E+06 3.60039E+04 1.77597E+06 3.99950E-10-3.75621E-10
 -1       959 2.36968E+06 1.34958E+06 5.03717E+04 1.77630E+06 2.86491E-10 3.80169E-10
 -1       960 2.36198E+06 1.32334E+06 7.64287E+04 1.77685E+06 9.64064E-10-4.51109E-10
 -1       961 2.42942E+06 1.42157E+06 1.83150E+05 1.75857E+06 3.11047E-10 1.25328E-09
 -1       962 2.31107E+06 1.26466E+06 2.78093E+05 1.78822E+06 1.72440E-09-3.07045E-09
 -1       963-3.69582E+05 1.45254E+04-5.34798E+04 4.45182E+03-2.03272E-10 1.03682E-09
 -1       964-3.89518E+05-1.86185E+04-3.52094E+04 2.44431E+04-4.77257E-10 1.13141E-09
 -1       965-3.77799E+05 1.65498E+03-1.45843E+04 4.30853E+03 3.43562E-10 3.18323E-10
 -1       966-3.80578E+05-2.47529E+03-9.54441E+03 2.46458E+04-8.31392E-10 8.09450E-11
 -1       967-3.78593E+05 5.38533E+02-6.46604E+03 4.25127E+03 1.02546E-10-1.39511E-09
 -1       968-3.81474E+05-4.26138E+03-9.35636E+03 2.47080E+04 5.53541E-10-7.85349E-10
 -1       969-3.76937E+05 3.19666E+03-1.22985E+04 4.24638E+03 1.41853E-10-2.16778E-09
 -1       970-7.05945E+03 4.77263E+05 2.38201E+04 5.16015E+04-4.89308E-09 1.99725E-09
 -1       971 9.80698E+03 4.85406E+05 1.42405E+04 2.91849E+05-1.08503E-08 1.38607E-09
 -1       972 9.62268E+01 4.81226E+05 2.51514E+03 5.16857E+04-7.51788E-09-3.64741E-09
 -1       973-2.58369E+03 4.78169E+05-6.37266E+03 2.91820E+05-1.18980E-08-4.89763E-09
 -1       974 3.90437E+03 4.84226E+05-1.43251E+04 5.16303E+04-5.37966E-09-4.62751E-09
 -1       975 3.55750E+05 1.98616E+05 3.36504E+04 2.75189E+05-8.93124E-10 2.05546E-10
 -1       976 3.61968E+05 2.25401E+05 2.34135E+04 2.74001E+05 2.05677E-09 3.76417E-09
 -1       977 3.61724E+05 2.05518E+05 1.24105E+04 2.73812E+05 6.44263E-10 3.57659E-10
 -1       978 3.55519E+05 2.17532E+05 1.31823E+04 2.76030E+05 1.20292E-09-4.86438E-10
 -1       979 3.61737E+05 2.05675E+05 1.78293E+04 2.73753E+05 4.61569E-10-3.62888E-10
 -1       980 3.60929E+05 2.23501E+05 3.63466E+04 2.74782E+05-8.86757E-11-6.73026E-10
 -1       981 3.56586E+05 2.00046E+05 6.24991E+04 2.74673E+05-5.74801E-10 1.34787E-09
 -1       982 4.13928E+05 2.85535E+05 1.56163E+05 2.59189E+05-7.45786E-10 5.52973E-10
 -1       983 3.12232E+05 1.49837E+05 2.38962E+05 2.84725E+05 8.22183E-10 6.98492E-10
 -1       984-3.33958E+05 2.08941E+03-8.19681E+03-7.52985E+02-4.88853E-10-7.89669E-10
 -1       985-3.36895E+05-2.85097E+03-6.38783E+03-4.12394E+03 2.20712E-09-1.55927E-09
 -1       986-3.35029E+05 3.60115E+02-4.71897E+03-8.67584E+02-1.90585E-09-8.45887E-10
 -1       987-3.36462E+05-1.90927E+03-7.30579E+03-3.91156E+03-1.06456E-09 8.00242E-10
 -1       988-3.34376E+05 1.28753E+03-1.14185E+04-9.65174E+02-1.23373E-09-2.38924E-09
 -1       989-3.43588E+05-1.46858E+04-2.77334E+04-3.67220E+03-5.28962E-09 1.50976E-10
 -1       990-3.27892E+05 1.14597E+04-4.21873E+04-1.10377E+03 8.80391E-10 9.64064E-10
 -1       991 1.92392E+03-3.50163E+05-1.57633E+03 2.20430E+04-1.86901E-09 3.54703E-10
 -1       992 2.87465E+03-3.49404E+05 1.56029E+04 1.28064E+05-5.59794E-10 1.05661E-09
 -1       993-4.37900E+03-3.54609E+05 3.72509E+04 2.18118E+04-2.79761E-09-7.90237E-10
 -1       994 5.37747E+04-3.20974E+05 9.96298E+04 1.28110E+05-1.09867E-09-3.55567E-09
 -1       995-4.22578E+04-3.78664E+05 1.54370E+05 2.19972E+04-1.63709E-09 1.31149E-09
 -1       996-4.74445E+04-2.70769E+04 1.72767E+04-3.10563E+04 1.32354E-09 3.32057E-09
 -1       997-4.43626E+04-1.32137E+04 1.23388E+04-3.15864E+04 1.58667E-09 5.00677E-10
 -1       998-4.43456E+04-2.36569E+04 7.16275E+03-3.17825E+04 6.65068E-10-1.02978E-09
 -1       999-4.76004E+04-1.69224E+04 8.55085E+03-3.05421E+04 5.88898E-10 9.95698E-10
 -1      1000-4.44428E+04-2.37713E+04 1.25339E+04-3.18140E+04 7.25322E-10 7.98764E-10
 -1      1001-4.35411E+04-1.22589E+04 2.62927E+04-3.14767E+04-2.21507E-09-1.71281E-09
 -1      1002-4.81942E+04-2.79364E+04 4.55230E+04-3.11474E+04-9.65883E-10-5.38421E-10
 -1      1003-4.80916E+03 3.31318E+04 1.14033E+05-4.28736E+04 5.89080E-09 1.01045E-09
 -1      1004-8.06000E+04-6.46427E+04 1.74522E+05-2.37902E+04-1.86992E-09 4.63479E-09
 -1      1005-1.20750E+06 3.35701E+04-1.25008E+05 1.53432E+04-1.45137E-08 3.76895E-09
 -1      1006-1.25418E+06-4.27753E+04-8.43618E+04 1.04696E+05-7.97036E-09-4.91855E-09
 -1      1007-1.22634E+06 4.23729E+03-3.94388E+04 1.43210E+04 1.25083E-08-4.36739E-09
 -1      1008-1.23595E+06-8.17901E+03-3.49726E+04 1.06016E+05-1.03273E-09-2.84103E-09
 -1      1009-1.22653E+06 4.08378E+03-3.77092E+04 1.40133E+04-2.51809E-08 4.47471E-10
 -1      1010-1.25321E+06-3.95441E+04-7.90073E+04 1.05992E+05-3.62206E-08-1.47338E-09
 -1      1011-1.20911E+06 3.14571E+04-1.16307E+05 1.43567E+04-2.19497E-08-5.60249E-10
 -1      1012 9.60901E+02 5.75039E+04 2.61718E+03 2.77399E+04-2.78669E-09 2.63753E-11
 -1      1013 4.52977E+03 6.04865E+04 2.16538E+04 1.60097E+05-3.64253E-10-3.25826E-09
 -1      1014-5.46066E+03 5.28616E+04 4.58067E+04 2.76279E+04-1.18598E-09-1.26914E-09
 -1      1015 6.40909E+04 9.38069E+04 1.20025E+05 1.60124E+05-8.84029E-10 9.75433E-11
 -1      1016-5.07668E+04 2.41325E+04 1.85196E+05 2.77277E+04-2.58296E-09 2.59206E-09
 -1      1017 7.94457E+05 4.48897E+05 1.06583E+05 6.27269E+05-8.21819E-09-1.27329E-09
 -1      1018 8.13264E+05 5.35780E+05 7.12092E+04 6.23576E+05-1.10410E-08-1.51340E-09
 -1      1019 8.13618E+05 4.71534E+05 3.16741E+04 6.22914E+05 3.37718E-09-1.94723E-09
 -1      1020 7.91246E+05 5.08333E+05 2.46927E+04 6.30074E+05 9.28276E-09-3.11115E-09
 -1      1021 8.14892E+05 4.73681E+05 2.40250E+04 6.22643E+05 8.28823E-09 2.77214E-09
 -1      1022 7.95678E+05 5.12363E+05 4.20465E+04 6.28964E+05-5.73891E-09-4.13365E-10
 -1      1023 8.09348E+05 4.67879E+05 6.92296E+04 6.23650E+05 3.03771E-09-6.19912E-09
 -1      1024 8.53348E+05 5.79445E+05 1.70643E+05 6.11940E+05-5.82077E-09-8.43283E-09
 -1      1025 7.61014E+05 4.13284E+05 2.60481E+05 6.34585E+05 1.46392E-08 3.79805E-09
 -1      1026-4.92738E+05 1.32267E+04-4.91134E+04 1.48059E+04-6.64204E-09-1.70621E-09
 -1      1027-5.11494E+05-1.61961E+04-3.30055E+04 9.51128E+04 1.50899E-08-6.84759E-09
 -1      1028-5.00171E+05 1.75719E+03-1.52283E+04 1.44487E+04-1.25069E-08-3.50656E-09
 -1      1029-5.04346E+05-2.43486E+03-1.31255E+04 9.55039E+04-4.36984E-09-6.31553E-09
 -1      1030-5.00324E+05 1.57529E+03-1.37340E+04 1.44059E+04-5.20004E-10-3.26236E-09
 -1      1031-5.10219E+05-1.35067E+04-2.82898E+04 9.52923E+04 4.64024E-09-3.71665E-09
 -1      1032-4.94104E+05 1.12262E+04-4.15536E+04 1.46667E+04 2.13367E-09-2.45745E-09
 -1      1033 1.98444E+04-7.83705E+05-7.21615E+04 4.42253E+04 6.62476E-09-3.72711E-09
 -1      1034-2.44491E+04-8.08933E+05-3.93387E+04 2.46582E+05 4.81941E-09-1.65869E-09
 -1      1035 8.22962E+01-7.96843E+05-1.36905E+03 4.35978E+04 6.24823E-09-2.07126E-09
 -1      1036 2.06539E+04-7.83613E+05 3.51585E+04 2.46620E+05 6.43922E-09 1.84332E-09
 -1      1037-1.94040E+04-8.08973E+05 6.59809E+04 4.42105E+04 6.24641E-09 3.37968E-09
 -1      1038 9.56719E+05 5.34206E+05 1.39038E+05 7.54126E+05-1.73713E-08-6.25005E-09
 -1      1039 1.00869E+06 6.19945E+05 9.21489E+04 7.41294E+05-1.70694E-08-1.34878E-09
 -1      1040 9.82158E+05 5.63437E+05 3.95803E+04 7.48377E+05 5.85351E-09-5.82077E-11
 -1      1041 9.79023E+05 5.84352E+05 2.82919E+04 7.50133E+05 5.48590E-09-7.76231E-09
 -1      1042 9.84391E+05 5.66292E+05 2.39200E+04 7.47944E+05-2.55204E-09-6.53051E-09
 -1      1043 9.81548E+05 5.86648E+05 3.81357E+04 7.49528E+05-1.38755E-08 2.92857E-09
 -1      1044 9.79740E+05 5.61349E+05 6.08721E+04 7.48801E+05-4.14911E-09-5.27507E-09
 -1      1045 1.03148E+06 6.44713E+05 1.48543E+05 7.34766E+05-5.52427E-09 4.57840E-09
 -1      1046 9.37735E+05 5.14001E+05 2.26291E+05 7.58293E+05 5.43514E-09 3.56522E-10
 -1      1047-3.04126E+05 6.40175E+03-2.36367E+04 1.06643E+04-1.97397E-08-2.55113E-09
 -1      1048-3.13342E+05-7.56910E+03-1.59214E+04 6.78500E+04-3.30165E-08-1.45110E-09
 -1      1049-3.07696E+05 8.89751E+02-7.41732E+03 1.04864E+04-2.51703E-08-3.17050E-09
 -1      1050-3.09922E+05-1.00660E+03-6.52773E+03 6.80339E+04 8.01091E-09-5.17628E-09
 -1      1051-3.07740E+05 8.37030E+02-6.98602E+03 1.04756E+04 1.30331E-09-2.47326E-09
 -1      1052-3.12972E+05-6.79346E+03-1.45599E+04 6.78981E+04-1.39353E-08-8.29880E-09
 -1      1053-3.04520E+05 5.82382E+03-2.14541E+04 1.06261E+04 1.70821E-08-4.26189E-09
 -1      1054 2.19260E+04-9.33250E+05-8.16609E+04 3.28181E+04-5.72618E-09-5.17593E-09
 -1      1055-2.94003E+04-9.62830E+05-5.33257E+04 1.75048E+05-2.04855E-08-3.71597E-09
 -1      1056 2.39360E+03-9.45875E+05-2.12720E+04 3.23567E+04-7.73343E-09 1.61305E-09
 -1      1057-4.68941E+03-9.48840E+05-1.24589E+04 1.74982E+05-2.54861E-08 5.73436E-09
 -1      1058 3.41257E+02-9.47100E+05-5.93680E+03 3.28966E+04-1.67524E-08 1.66619E-09
 -1      1059 6.91676E+05 3.85605E+05 1.07501E+05 5.46808E+05 1.58398E-08 2.18643E-09
 -1      1060 7.34055E+05 4.49789E+05 7.10408E+04 5.36240E+05 1.07902E-08 4.73756E-09
 -1      1061 7.11481E+05 4.08150E+05 3.00590E+04 5.42328E+05-2.74395E-09 3.41515E-09
 -1      1062 7.10813E+05 4.22277E+05 2.06625E+04 5.43149E+05-4.58119E-08-7.30188E-09
 -1      1063 7.13369E+05 4.10397E+05 1.61957E+04 5.41967E+05 3.60706E-09-1.98435E-09
 -1      1064 7.11755E+05 4.23129E+05 2.43184E+04 5.42925E+05 1.49521E-09-1.13453E-08
 -1      1065 7.10580E+05 4.07376E+05 3.79647E+04 5.42487E+05-1.49776E-08-1.40790E-09
 -1      1066 7.42526E+05 4.58990E+05 9.19865E+04 5.33817E+05 2.59570E-09 5.15502E-09
 -1      1067 6.84622E+05 3.78095E+05 1.39895E+05 5.48358E+05-5.31873E-09-1.32422E-09
 -1      1068-2.12681E+05 3.48549E+03-1.26249E+04 5.63660E+03 7.78346E-09-3.67118E-09
 -1      1069-2.17650E+05-4.05309E+03-8.18178E+03 3.69143E+04 1.33640E-08-4.81577E-09
 -1      1070-2.14645E+05 4.33860E+02-3.13609E+03 5.56600E+03-4.17515E-09-3.64435E-09
 -1      1071-2.15444E+05-5.33584E+01-1.53479E+03 3.69783E+04-8.32887E-09-7.25709E-09
 -1      1072-2.14926E+05 3.13949E+01-2.51236E+02 5.57017E+03 1.06012E-08-4.51905E-09
 -1      1073-2.14741E+05 1.03646E+03 1.01483E+03 3.68893E+04-5.82497E-09-6.59861E-09
 -1      1074-2.15291E+05-5.59896E+02 2.01532E+03 5.65493E+03 2.29506E-08-4.72664E-09
 -1      1075 1.50774E+04-6.77935E+05-5.69370E+04 2.14273E+04 6.33008E-10-3.07955E-09
 -1      1076-2.10773E+04-6.98766E+05-3.97944E+04 1.11575E+05-7.34872E-10 9.84983E-10
 -1      1077 2.34549E+03-6.86074E+05-2.07195E+04 2.11925E+04 9.41782E-10 4.69009E-09
 -1      1078-1.17091E+04-6.93446E+05-2.42916E+04 1.11528E+05 1.06702E-08 1.04226E-08
 -1      1079 6.88368E+03-6.83188E+05-2.82155E+04 2.14790E+04-4.14184E-09 3.31784E-09
 -1      1080 4.21515E+05 2.34170E+05 6.96090E+04 3.33865E+05 1.56888E-08 2.45564E-09
 -1      1081 4.50597E+05 2.74142E+05 4.58919E+04 3.26548E+05-4.85306E-09-1.38607E-09
 -1      1082 4.34413E+05 2.48736E+05 1.91756E+04 3.30943E+05-3.89946E-09 4.90854E-09
 -1      1083 4.35374E+05 2.56343E+05 1.27388E+04 3.31064E+05 1.18435E-08 3.88309E-09
 -1      1084 4.35731E+05 2.50202E+05 9.27155E+03 3.30692E+05 9.81149E-09-1.84428E-09
 -1      1085 4.35434E+05 2.56418E+05 1.30147E+04 3.31051E+05 2.25937E-08-1.26774E-08
 -1      1086 4.34356E+05 2.48666E+05 1.97719E+04 3.30952E+05 1.82763E-08-8.88485E-09
 -1      1087 4.51200E+05 2.74874E+05 4.74724E+04 3.26376E+05 5.06952E-09-5.02678E-09
 -1      1088 4.21008E+05 2.33578E+05 7.20525E+04 3.33975E+05 1.17216E-08 9.02219E-10
 -1      1089 4.68766E+03-4.24426E+05-1.86238E+04 1.07828E+04 6.28370E-09-8.88122E-10
 -1      1090-7.47376E+03-4.31290E+05-1.52874E+04 5.44445E+04 3.14963E-08 3.10706E-09
 -1      1091 1.35311E+03-4.26514E+05-1.19348E+04 1.06943E+04-1.04803E-08 1.89398E-09
 -1      1092-1.13151E+04-4.33435E+05-2.16282E+04 5.44236E+04 1.34094E-08 1.06775E-09
 -1      1093 8.02320E+03-4.22271E+05-3.03829E+04 1.08016E+04-1.14869E-08 2.36741E-09
 -1      1094-1.95345E+06 1.51662E+04-5.70680E+04 1.15366E+04-7.36691E-11 4.54747E-10
 -1      1095-1.97435E+06-1.99485E+04-3.98546E+04 5.47059E+04 5.27507E-10 3.92902E-10
 -1      1096-1.96179E+06 2.03887E+03-2.12666E+04 1.07182E+04-7.86713E-11 3.44244E-10
 -1      1097-1.96713E+06-6.20496E+03-2.36920E+04 5.58044E+04-3.67208E-10-6.36646E-12
 -1      1098-1.96085E+06 3.41547E+03-3.09722E+04 1.04425E+04 6.37016E-10 3.06500E-10
 -1      1099-1.98431E+06-3.70713E+04-7.08512E+04 5.58289E+04 9.89587E-10 1.13232E-09
 -1      1100-1.94468E+06 2.88758E+04-1.06351E+05 1.06896E+04 7.52152E-10 7.63976E-10
 -1      1101-1.46344E+06 1.66947E+04-6.22493E+04 7.27946E+03-2.59206E-10-3.71074E-10
 -1      1102-1.48651E+06-2.16720E+04-4.28665E+04 3.80658E+04-6.44491E-10 5.27052E-10
 -1      1103-1.47265E+06 2.16997E+03-2.16260E+04 6.88758E+03 7.40556E-10 4.72937E-11
 -1      1104-1.47790E+06-5.73951E+03-2.21240E+04 3.85558E+04-1.66835E-10-4.27377E-10
 -1      1105-1.47212E+06 2.94627E+03-2.71468E+04 6.79186E+03-9.94476E-11-4.20187E-10
 -1      1106-1.49212E+06-3.14177E+04-6.04842E+04 3.84603E+04-3.46574E-10 1.60253E-09
 -1      1107-1.45845E+06 2.44672E+04-9.02726E+04 6.98113E+03 3.18323E-10 3.12866E-10
 -1      1108-8.09275E+05 8.03876E+03-3.03219E+04 6.92325E+03-5.91626E-10-6.14818E-10
 -1      1109-8.20468E+05-1.05293E+04-2.14780E+04 3.92516E+04-4.63842E-10-1.07320E-09
 -1      1110-8.13655E+05 1.13400E+03-1.20354E+04 6.69576E+03-2.26919E-10 5.80485E-10
 -1      1111-8.16892E+05-3.68720E+03-1.43203E+04 3.95148E+04 7.68949E-10 8.83631E-10
 -1      1112-8.12927E+05 2.18224E+03-1.95361E+04 6.66081E+03-3.73007E-10 1.08867E-09
 -1      1113-8.28042E+05-2.37703E+04-4.53975E+04 3.94044E+04-1.67233E-09-1.49612E-10
 -1      1114-8.02490E+05 1.85701E+04-6.83858E+04 6.80541E+03 6.45741E-11 2.91038E-10
 -1      1115 8.83554E+04-3.92199E+03 1.38952E+04 6.61370E+03 1.10958E-10 3.42880E-10
 -1      1116 9.36137E+04 4.85706E+03 8.19539E+03 3.79822E+04 4.90331E-10 8.96193E-10
 -1      1117 9.06618E+04-3.10102E+02 1.39843E+03 6.58440E+03-8.79254E-10 6.64613E-10
 -1      1118 9.02984E+04-7.90054E+02-3.16795E+03 3.80108E+04-2.11458E-11-1.76101E-09
 -1      1119 9.16150E+04 1.05002E+03-8.38557E+03 6.58503E+03 4.24734E-10-6.49834E-10
 -1      1120 8.37923E+04-1.24083E+04-2.29838E+04 3.79813E+04 4.93969E-10 1.11459E-09
 -1      1121 9.72120E+04 9.77818E+03-3.57457E+04 6.61364E+03-1.17780E-10 3.11047E-10
 -1      1122 1.24473E+06-1.91222E+04 7.01071E+04 6.99077E+03-1.53477E-09 9.96806E-10
 -1      1123 1.27093E+06 2.43734E+04 4.57906E+04 3.90769E+04-2.73758E-10-4.12001E-10
 -1      1124 1.25557E+06-2.12983E+03 1.81807E+04 7.16079E+03 4.68390E-10 3.13776E-10
 -1      1125 1.25872E+06 2.68693E+03 1.02869E+04 3.88986E+04 6.48281E-10 1.67006E-09
 -1      1126 1.25690E+06-2.31970E+02 4.49415E+03 7.16848E+03-8.50832E-10-1.20212E-09
 -1      1127 1.25722E+06 2.47372E+02 2.19928E+03 3.90489E+04-2.03727E-10-1.60136E-09
 -1      1128 1.25712E+06 6.66235E+00 6.80612E+02 7.01065E+03-4.50200E-11-5.62181E-10
 -1      1129 2.89021E+06-4.11131E+04 1.53094E+05 2.18261E+04-1.73350E-09-2.47383E-10
 -1      1130 2.94718E+06 5.32628E+04 1.05154E+05 1.17429E+05 5.29099E-10-1.45519E-11
 -1      1131 2.91294E+06-5.23689E+03 5.24620E+04 2.26460E+04-5.50358E-10-1.09685E-09
 -1      1132 2.92543E+06 1.37138E+04 5.24926E+04 1.17096E+05 1.15961E-09 1.43245E-09
 -1      1133 2.91190E+06-6.78872E+03 6.32298E+04 2.21561E+04 2.13913E-09 2.05910E-09
 -1      1134 2.95849E+06 7.20886E+04 1.39536E+05 1.19390E+05 7.91260E-10 3.52884E-10
 -1      1135 2.88050E+06-5.63597E+04 2.07765E+05 2.03655E+04-6.54836E-11-1.42609E-09
 -1      1136-4.40585E+06 1.28301E+05-4.70046E+05 9.08702E+03-3.28737E-09-3.78350E-09
 -1      1137-4.58192E+06-1.64137E+05-3.12919E+05 3.48464E+04-1.87902E-09 5.09681E-09
 -1      1138-4.47752E+06 1.50968E+04-1.35378E+05 7.67372E+03-5.37057E-10 2.18279E-11
 -1      1139-4.50535E+06-2.63350E+04-1.01192E+05 3.69465E+04 1.09412E-09 1.17552E-09
 -1      1140-4.48215E+06 8.43535E+03-8.76242E+04 7.01061E+03-2.65800E-10-3.71074E-09
 -1      1141-4.53389E+06-7.93939E+04-1.60451E+05 3.75206E+04-8.18595E-10-6.46287E-09
 -1      1142-4.44914E+06 6.10295E+04-2.27831E+05 7.09652E+03-6.25278E-12-3.15777E-09
 -1      1143-3.94822E+06 4.81036E+04-1.77943E+05 3.95925E+03 2.70029E-09 7.08678E-09
 -1      1144-4.01430E+06-6.19894E+04-1.20728E+05 2.72087E+04 3.09979E-09-4.53838E-09
 -1      1145-3.97482E+06 5.98318E+03-5.72337E+04 2.14877E+03-3.20597E-09 3.85626E-09
 -1      1146-3.98783E+06-1.35789E+04-5.24757E+04 3.02153E+04-1.96178E-09 8.51287E-10
 -1      1147-3.97471E+06 6.18659E+03-5.84641E+04 9.55873E+02-9.89985E-10-1.83172E-09
 -1      1148-4.01583E+06-6.41017E+04-1.24716E+05 3.19871E+04-6.23027E-09 2.80670E-09
 -1      1149-3.94712E+06 4.99436E+04-1.84222E+05 3.86524E+02 3.25298E-09-1.10595E-09
 -1      1150-3.93063E+06 4.93268E+04-1.83400E+05 5.73471E+03-1.15051E-08 9.16043E-09
 -1      1151-3.99880E+06-6.33799E+04-1.25093E+05 8.11451E+04-8.18773E-09-3.59432E-09
 -1      1152-3.95794E+06 6.29588E+03-6.08604E+04 2.80441E+03 1.26174E-08-8.81482E-09
 -1      1153-3.97277E+06-1.45104E+04-5.85215E+04 8.52078E+04-7.39601E-09-1.01727E-09
 -1      1154-3.95725E+06 7.40547E+03-6.81821E+04 1.66100E+03-2.22537E-08 9.90804E-09
 -1      1155-4.00698E+06-7.61608E+04-1.48633E+05 8.57522E+04-3.82303E-08 1.53777E-08
 -1      1156-3.92403E+06 5.99343E+04-2.20654E+05 2.28257E+03-2.09848E-08 7.40692E-09
 -1      1157-2.81140E+06 3.15583E+04-1.17590E+05 2.22504E+03-1.09139E-11 2.04454E-09
 -1      1158-2.85544E+06-4.02709E+04-8.10415E+04 6.78826E+04 1.59002E-08-9.72977E-09
 -1      1159-2.82877E+06 4.18394E+03-4.10771E+04 8.14218E+02-9.25456E-09 1.50794E-09
 -1      1160-2.83947E+06-1.02482E+04-4.23729E+04 6.96147E+04 2.77646E-09-8.95511E-10
 -1      1161-2.82768E+06 5.78370E+03-5.23411E+04 4.78062E+02 4.33101E-09 2.51930E-09
 -1      1162-2.86705E+06-6.01426E+04-1.17036E+05 6.92675E+04 6.10305E-09-3.06136E-09
 -1      1163-2.80122E+06 4.74903E+04-1.74789E+05 1.18658E+03 1.65055E-08-2.24827E-09
 -1      1164-1.50842E+06 1.47123E+04-5.49622E+04 2.62230E+03-2.05309E-08-4.17276E-09
 -1      1165-1.52916E+06-1.86144E+04-3.83793E+04 4.79584E+04-2.74454E-08-3.01316E-09
 -1      1166-1.51645E+06 2.04543E+03-2.04358E+04 2.16909E+03-3.09662E-08-2.47883E-09
 -1      1167-1.52213E+06-5.36188E+03-2.27115E+04 4.84462E+04-3.85435E-09-2.33877E-09
 -1      1168-1.51555E+06 3.33008E+03-2.96347E+04 2.12652E+03 1.47188E-08 1.01318E-09
 -1      1169-1.53844E+06-3.48670E+04-6.77196E+04 4.81586E+04-2.46174E-08 1.92995E-09
 -1      1170-1.50009E+06 2.76321E+04-1.01648E+05 2.47315E+03 2.25318E-08-2.89583E-09
 -1      1171-5.69257E+05 4.10280E+03-1.54012E+04 2.99298E+03 1.31670E-08-4.01815E-09
 -1      1172-5.75175E+05-5.06369E+03-1.11129E+04 2.94601E+04 2.25596E-08-5.86715E-09
 -1      1173-5.71443E+05 6.42016E+02-6.61214E+03 2.90395E+03 2.00771E-09-3.00247E-09
 -1      1174-5.73534E+05-1.90040E+03-8.45319E+03 2.95286E+04 1.89422E-08-2.15854E-09
 -1      1175-5.70916E+05 1.39097E+03-1.20251E+04 2.92248E+03 1.93744E-08-2.49156E-09
 -1      1176-5.80576E+05-1.46310E+04-2.83595E+04 2.93945E+04-3.28748E-09-6.22094E-10
 -1      1177-5.64357E+05 1.16737E+04-4.28653E+04 3.04509E+03 4.21778E-09-3.02862E-09
 -3
 9999
