    1C
    1UUSER                                                              
    1UDATE              21.september.2022                               
    1UTIME              09:10:45                                        
    1UHOST                                                              
    1UPGM               CalculiX                                        
    1UVERSION           Version 2.19                             
    1UCOMPILETIME       Fri Dec 17 13:15:26 CET 2021                    
    1UDIR                                                               
    1UDBN                                                               
    1UMAT    1MESH_MATERIAL                                             
    2C                           641                                     1
 -1         1 0.00000E+00 0.00000E+00 0.00000E+00
 -1         2 8.33333E-03 0.00000E+00 0.00000E+00
 -1         3 1.66667E-02 0.00000E+00 0.00000E+00
 -1         4 2.50000E-02 0.00000E+00 0.00000E+00
 -1         5 3.33333E-02 0.00000E+00 0.00000E+00
 -1         6 4.16667E-02 0.00000E+00 0.00000E+00
 -1         7 5.00000E-02 0.00000E+00 0.00000E+00
 -1         8 5.83333E-02 0.00000E+00 0.00000E+00
 -1         9 6.66667E-02 0.00000E+00 0.00000E+00
 -1        14 0.00000E+00 6.25000E-03 0.00000E+00
 -1        15 8.33333E-03 6.25000E-03 0.00000E+00
 -1        16 1.66667E-02 6.25000E-03 0.00000E+00
 -1        17 2.50000E-02 6.25000E-03 0.00000E+00
 -1        18 3.33333E-02 6.25000E-03 0.00000E+00
 -1        19 4.16667E-02 6.25000E-03 0.00000E+00
 -1        20 5.00000E-02 6.25000E-03 0.00000E+00
 -1        21 5.83333E-02 6.25000E-03 0.00000E+00
 -1        22 6.66667E-02 6.25000E-03 0.00000E+00
 -1        27 0.00000E+00 1.25000E-02 0.00000E+00
 -1        28 8.33333E-03 1.25000E-02 0.00000E+00
 -1        29 1.66667E-02 1.25000E-02 0.00000E+00
 -1        30 2.50000E-02 1.25000E-02 0.00000E+00
 -1        31 3.33333E-02 1.25000E-02 0.00000E+00
 -1        32 4.16667E-02 1.25000E-02 0.00000E+00
 -1        33 5.00000E-02 1.25000E-02 0.00000E+00
 -1        34 5.83333E-02 1.25000E-02 0.00000E+00
 -1        35 6.66667E-02 1.25000E-02 0.00000E+00
 -1        36 7.50000E-02 1.25000E-02 0.00000E+00
 -1        37 8.33333E-02 1.25000E-02 0.00000E+00
 -1        38 9.16667E-02 1.25000E-02 0.00000E+00
 -1        39 1.00000E-01 1.25000E-02 0.00000E+00
 -1        40 0.00000E+00 1.87500E-02 0.00000E+00
 -1        41 8.33333E-03 1.87500E-02 0.00000E+00
 -1        42 1.66667E-02 1.87500E-02 0.00000E+00
 -1        43 2.50000E-02 1.87500E-02 0.00000E+00
 -1        44 3.33333E-02 1.87500E-02 0.00000E+00
 -1        45 4.16667E-02 1.87500E-02 0.00000E+00
 -1        46 5.00000E-02 1.87500E-02 0.00000E+00
 -1        47 5.83333E-02 1.87500E-02 0.00000E+00
 -1        48 6.66667E-02 1.87500E-02 0.00000E+00
 -1        49 7.50000E-02 1.87500E-02 0.00000E+00
 -1        50 8.33333E-02 1.87500E-02 0.00000E+00
 -1        51 9.16667E-02 1.87500E-02 0.00000E+00
 -1        52 1.00000E-01 1.87500E-02 0.00000E+00
 -1        53 0.00000E+00 2.50000E-02 0.00000E+00
 -1        54 8.33333E-03 2.50000E-02 0.00000E+00
 -1        55 1.66667E-02 2.50000E-02 0.00000E+00
 -1        56 2.50000E-02 2.50000E-02 0.00000E+00
 -1        57 3.33333E-02 2.50000E-02 0.00000E+00
 -1        58 4.16667E-02 2.50000E-02 0.00000E+00
 -1        59 5.00000E-02 2.50000E-02 0.00000E+00
 -1        60 5.83333E-02 2.50000E-02 0.00000E+00
 -1        61 6.66667E-02 2.50000E-02 0.00000E+00
 -1        62 7.50000E-02 2.50000E-02 0.00000E+00
 -1        63 8.33333E-02 2.50000E-02 0.00000E+00
 -1        64 9.16667E-02 2.50000E-02 0.00000E+00
 -1        65 1.00000E-01 2.50000E-02 0.00000E+00
 -1        66 1.04167E-03 0.00000E+00 0.00000E+00
 -1        67 2.08333E-03 0.00000E+00 0.00000E+00
 -1        68 3.12500E-03 0.00000E+00 0.00000E+00
 -1        69 4.16667E-03 0.00000E+00 0.00000E+00
 -1        70 5.20833E-03 0.00000E+00 0.00000E+00
 -1        71 6.25000E-03 0.00000E+00 0.00000E+00
 -1        72 7.29167E-03 0.00000E+00 0.00000E+00
 -1        73 0.00000E+00 1.04167E-03 0.00000E+00
 -1        74 0.00000E+00 2.08333E-03 0.00000E+00
 -1        75 0.00000E+00 3.12500E-03 0.00000E+00
 -1        76 0.00000E+00 4.16667E-03 0.00000E+00
 -1        77 0.00000E+00 5.20833E-03 0.00000E+00
 -1        78 9.37500E-03 0.00000E+00 0.00000E+00
 -1        79 1.04167E-02 0.00000E+00 0.00000E+00
 -1        80 1.14583E-02 0.00000E+00 0.00000E+00
 -1        81 1.25000E-02 0.00000E+00 0.00000E+00
 -1        82 1.35417E-02 0.00000E+00 0.00000E+00
 -1        83 1.45833E-02 0.00000E+00 0.00000E+00
 -1        84 1.56250E-02 0.00000E+00 0.00000E+00
 -1        85 8.33333E-03 1.04167E-03 0.00000E+00
 -1        86 8.33333E-03 2.08333E-03 0.00000E+00
 -1        87 8.33333E-03 3.12500E-03 0.00000E+00
 -1        88 8.33333E-03 4.16667E-03 0.00000E+00
 -1        89 8.33333E-03 5.20833E-03 0.00000E+00
 -1        90 1.77083E-02 0.00000E+00 0.00000E+00
 -1        91 1.87500E-02 0.00000E+00 0.00000E+00
 -1        92 1.97917E-02 0.00000E+00 0.00000E+00
 -1        93 2.08333E-02 0.00000E+00 0.00000E+00
 -1        94 2.18750E-02 0.00000E+00 0.00000E+00
 -1        95 2.29167E-02 0.00000E+00 0.00000E+00
 -1        96 2.39583E-02 0.00000E+00 0.00000E+00
 -1        97 1.66667E-02 1.04167E-03 0.00000E+00
 -1        98 1.66667E-02 2.08333E-03 0.00000E+00
 -1        99 1.66667E-02 3.12500E-03 0.00000E+00
 -1       100 1.66667E-02 4.16667E-03 0.00000E+00
 -1       101 1.66667E-02 5.20833E-03 0.00000E+00
 -1       102 2.60417E-02 0.00000E+00 0.00000E+00
 -1       103 2.70833E-02 0.00000E+00 0.00000E+00
 -1       104 2.81250E-02 0.00000E+00 0.00000E+00
 -1       105 2.91667E-02 0.00000E+00 0.00000E+00
 -1       106 3.02083E-02 0.00000E+00 0.00000E+00
 -1       107 3.12500E-02 0.00000E+00 0.00000E+00
 -1       108 3.22917E-02 0.00000E+00 0.00000E+00
 -1       109 2.50000E-02 1.04167E-03 0.00000E+00
 -1       110 2.50000E-02 2.08333E-03 0.00000E+00
 -1       111 2.50000E-02 3.12500E-03 0.00000E+00
 -1       112 2.50000E-02 4.16667E-03 0.00000E+00
 -1       113 2.50000E-02 5.20833E-03 0.00000E+00
 -1       114 3.43750E-02 0.00000E+00 0.00000E+00
 -1       115 3.54167E-02 0.00000E+00 0.00000E+00
 -1       116 3.64583E-02 0.00000E+00 0.00000E+00
 -1       117 3.75000E-02 0.00000E+00 0.00000E+00
 -1       118 3.85417E-02 0.00000E+00 0.00000E+00
 -1       119 3.95833E-02 0.00000E+00 0.00000E+00
 -1       120 4.06250E-02 0.00000E+00 0.00000E+00
 -1       121 3.33333E-02 1.04167E-03 0.00000E+00
 -1       122 3.33333E-02 2.08333E-03 0.00000E+00
 -1       123 3.33333E-02 3.12500E-03 0.00000E+00
 -1       124 3.33333E-02 4.16667E-03 0.00000E+00
 -1       125 3.33333E-02 5.20833E-03 0.00000E+00
 -1       126 4.27083E-02 0.00000E+00 0.00000E+00
 -1       127 4.37500E-02 0.00000E+00 0.00000E+00
 -1       128 4.47917E-02 0.00000E+00 0.00000E+00
 -1       129 4.58333E-02 0.00000E+00 0.00000E+00
 -1       130 4.68750E-02 0.00000E+00 0.00000E+00
 -1       131 4.79167E-02 0.00000E+00 0.00000E+00
 -1       132 4.89583E-02 0.00000E+00 0.00000E+00
 -1       133 4.16667E-02 1.04167E-03 0.00000E+00
 -1       134 4.16667E-02 2.08333E-03 0.00000E+00
 -1       135 4.16667E-02 3.12500E-03 0.00000E+00
 -1       136 4.16667E-02 4.16667E-03 0.00000E+00
 -1       137 4.16667E-02 5.20833E-03 0.00000E+00
 -1       138 5.10417E-02 0.00000E+00 0.00000E+00
 -1       139 5.20833E-02 0.00000E+00 0.00000E+00
 -1       140 5.31250E-02 0.00000E+00 0.00000E+00
 -1       141 5.41667E-02 0.00000E+00 0.00000E+00
 -1       142 5.52083E-02 0.00000E+00 0.00000E+00
 -1       143 5.62500E-02 0.00000E+00 0.00000E+00
 -1       144 5.72917E-02 0.00000E+00 0.00000E+00
 -1       145 5.00000E-02 1.04167E-03 0.00000E+00
 -1       146 5.00000E-02 2.08333E-03 0.00000E+00
 -1       147 5.00000E-02 3.12500E-03 0.00000E+00
 -1       148 5.00000E-02 4.16667E-03 0.00000E+00
 -1       149 5.00000E-02 5.20833E-03 0.00000E+00
 -1       150 5.93750E-02 0.00000E+00 0.00000E+00
 -1       151 6.04167E-02 0.00000E+00 0.00000E+00
 -1       152 6.14583E-02 0.00000E+00 0.00000E+00
 -1       153 6.25000E-02 0.00000E+00 0.00000E+00
 -1       154 6.35417E-02 0.00000E+00 0.00000E+00
 -1       155 6.45833E-02 0.00000E+00 0.00000E+00
 -1       156 6.56250E-02 0.00000E+00 0.00000E+00
 -1       157 5.83333E-02 1.04167E-03 0.00000E+00
 -1       158 5.83333E-02 2.08333E-03 0.00000E+00
 -1       159 5.83333E-02 3.12500E-03 0.00000E+00
 -1       160 5.83333E-02 4.16667E-03 0.00000E+00
 -1       161 5.83333E-02 5.20833E-03 0.00000E+00
 -1       169 6.66667E-02 1.04167E-03 0.00000E+00
 -1       170 6.66667E-02 2.08333E-03 0.00000E+00
 -1       171 6.66667E-02 3.12500E-03 0.00000E+00
 -1       172 6.66667E-02 4.16667E-03 0.00000E+00
 -1       173 6.66667E-02 5.20833E-03 0.00000E+00
 -1       215 1.04167E-03 6.25000E-03 0.00000E+00
 -1       216 2.08333E-03 6.25000E-03 0.00000E+00
 -1       217 3.12500E-03 6.25000E-03 0.00000E+00
 -1       218 4.16667E-03 6.25000E-03 0.00000E+00
 -1       219 5.20833E-03 6.25000E-03 0.00000E+00
 -1       220 6.25000E-03 6.25000E-03 0.00000E+00
 -1       221 7.29167E-03 6.25000E-03 0.00000E+00
 -1       222 0.00000E+00 7.29167E-03 0.00000E+00
 -1       223 0.00000E+00 8.33333E-03 0.00000E+00
 -1       224 0.00000E+00 9.37500E-03 0.00000E+00
 -1       225 0.00000E+00 1.04167E-02 0.00000E+00
 -1       226 0.00000E+00 1.14583E-02 0.00000E+00
 -1       227 9.37500E-03 6.25000E-03 0.00000E+00
 -1       228 1.04167E-02 6.25000E-03 0.00000E+00
 -1       229 1.14583E-02 6.25000E-03 0.00000E+00
 -1       230 1.25000E-02 6.25000E-03 0.00000E+00
 -1       231 1.35417E-02 6.25000E-03 0.00000E+00
 -1       232 1.45833E-02 6.25000E-03 0.00000E+00
 -1       233 1.56250E-02 6.25000E-03 0.00000E+00
 -1       234 8.33333E-03 7.29167E-03 0.00000E+00
 -1       235 8.33333E-03 8.33333E-03 0.00000E+00
 -1       236 8.33333E-03 9.37500E-03 0.00000E+00
 -1       237 8.33333E-03 1.04167E-02 0.00000E+00
 -1       238 8.33333E-03 1.14583E-02 0.00000E+00
 -1       239 1.77083E-02 6.25000E-03 0.00000E+00
 -1       240 1.87500E-02 6.25000E-03 0.00000E+00
 -1       241 1.97917E-02 6.25000E-03 0.00000E+00
 -1       242 2.08333E-02 6.25000E-03 0.00000E+00
 -1       243 2.18750E-02 6.25000E-03 0.00000E+00
 -1       244 2.29167E-02 6.25000E-03 0.00000E+00
 -1       245 2.39583E-02 6.25000E-03 0.00000E+00
 -1       246 1.66667E-02 7.29167E-03 0.00000E+00
 -1       247 1.66667E-02 8.33333E-03 0.00000E+00
 -1       248 1.66667E-02 9.37500E-03 0.00000E+00
 -1       249 1.66667E-02 1.04167E-02 0.00000E+00
 -1       250 1.66667E-02 1.14583E-02 0.00000E+00
 -1       251 2.60417E-02 6.25000E-03 0.00000E+00
 -1       252 2.70833E-02 6.25000E-03 0.00000E+00
 -1       253 2.81250E-02 6.25000E-03 0.00000E+00
 -1       254 2.91667E-02 6.25000E-03 0.00000E+00
 -1       255 3.02083E-02 6.25000E-03 0.00000E+00
 -1       256 3.12500E-02 6.25000E-03 0.00000E+00
 -1       257 3.22917E-02 6.25000E-03 0.00000E+00
 -1       258 2.50000E-02 7.29167E-03 0.00000E+00
 -1       259 2.50000E-02 8.33333E-03 0.00000E+00
 -1       260 2.50000E-02 9.37500E-03 0.00000E+00
 -1       261 2.50000E-02 1.04167E-02 0.00000E+00
 -1       262 2.50000E-02 1.14583E-02 0.00000E+00
 -1       263 3.43750E-02 6.25000E-03 0.00000E+00
 -1       264 3.54167E-02 6.25000E-03 0.00000E+00
 -1       265 3.64583E-02 6.25000E-03 0.00000E+00
 -1       266 3.75000E-02 6.25000E-03 0.00000E+00
 -1       267 3.85417E-02 6.25000E-03 0.00000E+00
 -1       268 3.95833E-02 6.25000E-03 0.00000E+00
 -1       269 4.06250E-02 6.25000E-03 0.00000E+00
 -1       270 3.33333E-02 7.29167E-03 0.00000E+00
 -1       271 3.33333E-02 8.33333E-03 0.00000E+00
 -1       272 3.33333E-02 9.37500E-03 0.00000E+00
 -1       273 3.33333E-02 1.04167E-02 0.00000E+00
 -1       274 3.33333E-02 1.14583E-02 0.00000E+00
 -1       275 4.27083E-02 6.25000E-03 0.00000E+00
 -1       276 4.37500E-02 6.25000E-03 0.00000E+00
 -1       277 4.47917E-02 6.25000E-03 0.00000E+00
 -1       278 4.58333E-02 6.25000E-03 0.00000E+00
 -1       279 4.68750E-02 6.25000E-03 0.00000E+00
 -1       280 4.79167E-02 6.25000E-03 0.00000E+00
 -1       281 4.89583E-02 6.25000E-03 0.00000E+00
 -1       282 4.16667E-02 7.29167E-03 0.00000E+00
 -1       283 4.16667E-02 8.33333E-03 0.00000E+00
 -1       284 4.16667E-02 9.37500E-03 0.00000E+00
 -1       285 4.16667E-02 1.04167E-02 0.00000E+00
 -1       286 4.16667E-02 1.14583E-02 0.00000E+00
 -1       287 5.10417E-02 6.25000E-03 0.00000E+00
 -1       288 5.20833E-02 6.25000E-03 0.00000E+00
 -1       289 5.31250E-02 6.25000E-03 0.00000E+00
 -1       290 5.41667E-02 6.25000E-03 0.00000E+00
 -1       291 5.52083E-02 6.25000E-03 0.00000E+00
 -1       292 5.62500E-02 6.25000E-03 0.00000E+00
 -1       293 5.72917E-02 6.25000E-03 0.00000E+00
 -1       294 5.00000E-02 7.29167E-03 0.00000E+00
 -1       295 5.00000E-02 8.33333E-03 0.00000E+00
 -1       296 5.00000E-02 9.37500E-03 0.00000E+00
 -1       297 5.00000E-02 1.04167E-02 0.00000E+00
 -1       298 5.00000E-02 1.14583E-02 0.00000E+00
 -1       299 5.93750E-02 6.25000E-03 0.00000E+00
 -1       300 6.04167E-02 6.25000E-03 0.00000E+00
 -1       301 6.14583E-02 6.25000E-03 0.00000E+00
 -1       302 6.25000E-02 6.25000E-03 0.00000E+00
 -1       303 6.35417E-02 6.25000E-03 0.00000E+00
 -1       304 6.45833E-02 6.25000E-03 0.00000E+00
 -1       305 6.56250E-02 6.25000E-03 0.00000E+00
 -1       306 5.83333E-02 7.29167E-03 0.00000E+00
 -1       307 5.83333E-02 8.33333E-03 0.00000E+00
 -1       308 5.83333E-02 9.37500E-03 0.00000E+00
 -1       309 5.83333E-02 1.04167E-02 0.00000E+00
 -1       310 5.83333E-02 1.14583E-02 0.00000E+00
 -1       318 6.66667E-02 7.29167E-03 0.00000E+00
 -1       319 6.66667E-02 8.33333E-03 0.00000E+00
 -1       320 6.66667E-02 9.37500E-03 0.00000E+00
 -1       321 6.66667E-02 1.04167E-02 0.00000E+00
 -1       322 6.66667E-02 1.14583E-02 0.00000E+00
 -1       364 1.04167E-03 1.25000E-02 0.00000E+00
 -1       365 2.08333E-03 1.25000E-02 0.00000E+00
 -1       366 3.12500E-03 1.25000E-02 0.00000E+00
 -1       367 4.16667E-03 1.25000E-02 0.00000E+00
 -1       368 5.20833E-03 1.25000E-02 0.00000E+00
 -1       369 6.25000E-03 1.25000E-02 0.00000E+00
 -1       370 7.29167E-03 1.25000E-02 0.00000E+00
 -1       371 0.00000E+00 1.35417E-02 0.00000E+00
 -1       372 0.00000E+00 1.45833E-02 0.00000E+00
 -1       373 0.00000E+00 1.56250E-02 0.00000E+00
 -1       374 0.00000E+00 1.66667E-02 0.00000E+00
 -1       375 0.00000E+00 1.77083E-02 0.00000E+00
 -1       376 9.37500E-03 1.25000E-02 0.00000E+00
 -1       377 1.04167E-02 1.25000E-02 0.00000E+00
 -1       378 1.14583E-02 1.25000E-02 0.00000E+00
 -1       379 1.25000E-02 1.25000E-02 0.00000E+00
 -1       380 1.35417E-02 1.25000E-02 0.00000E+00
 -1       381 1.45833E-02 1.25000E-02 0.00000E+00
 -1       382 1.56250E-02 1.25000E-02 0.00000E+00
 -1       383 8.33333E-03 1.35417E-02 0.00000E+00
 -1       384 8.33333E-03 1.45833E-02 0.00000E+00
 -1       385 8.33333E-03 1.56250E-02 0.00000E+00
 -1       386 8.33333E-03 1.66667E-02 0.00000E+00
 -1       387 8.33333E-03 1.77083E-02 0.00000E+00
 -1       388 1.77083E-02 1.25000E-02 0.00000E+00
 -1       389 1.87500E-02 1.25000E-02 0.00000E+00
 -1       390 1.97917E-02 1.25000E-02 0.00000E+00
 -1       391 2.08333E-02 1.25000E-02 0.00000E+00
 -1       392 2.18750E-02 1.25000E-02 0.00000E+00
 -1       393 2.29167E-02 1.25000E-02 0.00000E+00
 -1       394 2.39583E-02 1.25000E-02 0.00000E+00
 -1       395 1.66667E-02 1.35417E-02 0.00000E+00
 -1       396 1.66667E-02 1.45833E-02 0.00000E+00
 -1       397 1.66667E-02 1.56250E-02 0.00000E+00
 -1       398 1.66667E-02 1.66667E-02 0.00000E+00
 -1       399 1.66667E-02 1.77083E-02 0.00000E+00
 -1       400 2.60417E-02 1.25000E-02 0.00000E+00
 -1       401 2.70833E-02 1.25000E-02 0.00000E+00
 -1       402 2.81250E-02 1.25000E-02 0.00000E+00
 -1       403 2.91667E-02 1.25000E-02 0.00000E+00
 -1       404 3.02083E-02 1.25000E-02 0.00000E+00
 -1       405 3.12500E-02 1.25000E-02 0.00000E+00
 -1       406 3.22917E-02 1.25000E-02 0.00000E+00
 -1       407 2.50000E-02 1.35417E-02 0.00000E+00
 -1       408 2.50000E-02 1.45833E-02 0.00000E+00
 -1       409 2.50000E-02 1.56250E-02 0.00000E+00
 -1       410 2.50000E-02 1.66667E-02 0.00000E+00
 -1       411 2.50000E-02 1.77083E-02 0.00000E+00
 -1       412 3.43750E-02 1.25000E-02 0.00000E+00
 -1       413 3.54167E-02 1.25000E-02 0.00000E+00
 -1       414 3.64583E-02 1.25000E-02 0.00000E+00
 -1       415 3.75000E-02 1.25000E-02 0.00000E+00
 -1       416 3.85417E-02 1.25000E-02 0.00000E+00
 -1       417 3.95833E-02 1.25000E-02 0.00000E+00
 -1       418 4.06250E-02 1.25000E-02 0.00000E+00
 -1       419 3.33333E-02 1.35417E-02 0.00000E+00
 -1       420 3.33333E-02 1.45833E-02 0.00000E+00
 -1       421 3.33333E-02 1.56250E-02 0.00000E+00
 -1       422 3.33333E-02 1.66667E-02 0.00000E+00
 -1       423 3.33333E-02 1.77083E-02 0.00000E+00
 -1       424 4.27083E-02 1.25000E-02 0.00000E+00
 -1       425 4.37500E-02 1.25000E-02 0.00000E+00
 -1       426 4.47917E-02 1.25000E-02 0.00000E+00
 -1       427 4.58333E-02 1.25000E-02 0.00000E+00
 -1       428 4.68750E-02 1.25000E-02 0.00000E+00
 -1       429 4.79167E-02 1.25000E-02 0.00000E+00
 -1       430 4.89583E-02 1.25000E-02 0.00000E+00
 -1       431 4.16667E-02 1.35417E-02 0.00000E+00
 -1       432 4.16667E-02 1.45833E-02 0.00000E+00
 -1       433 4.16667E-02 1.56250E-02 0.00000E+00
 -1       434 4.16667E-02 1.66667E-02 0.00000E+00
 -1       435 4.16667E-02 1.77083E-02 0.00000E+00
 -1       436 5.10417E-02 1.25000E-02 0.00000E+00
 -1       437 5.20833E-02 1.25000E-02 0.00000E+00
 -1       438 5.31250E-02 1.25000E-02 0.00000E+00
 -1       439 5.41667E-02 1.25000E-02 0.00000E+00
 -1       440 5.52083E-02 1.25000E-02 0.00000E+00
 -1       441 5.62500E-02 1.25000E-02 0.00000E+00
 -1       442 5.72917E-02 1.25000E-02 0.00000E+00
 -1       443 5.00000E-02 1.35417E-02 0.00000E+00
 -1       444 5.00000E-02 1.45833E-02 0.00000E+00
 -1       445 5.00000E-02 1.56250E-02 0.00000E+00
 -1       446 5.00000E-02 1.66667E-02 0.00000E+00
 -1       447 5.00000E-02 1.77083E-02 0.00000E+00
 -1       448 5.93750E-02 1.25000E-02 0.00000E+00
 -1       449 6.04167E-02 1.25000E-02 0.00000E+00
 -1       450 6.14583E-02 1.25000E-02 0.00000E+00
 -1       451 6.25000E-02 1.25000E-02 0.00000E+00
 -1       452 6.35417E-02 1.25000E-02 0.00000E+00
 -1       453 6.45833E-02 1.25000E-02 0.00000E+00
 -1       454 6.56250E-02 1.25000E-02 0.00000E+00
 -1       455 5.83333E-02 1.35417E-02 0.00000E+00
 -1       456 5.83333E-02 1.45833E-02 0.00000E+00
 -1       457 5.83333E-02 1.56250E-02 0.00000E+00
 -1       458 5.83333E-02 1.66667E-02 0.00000E+00
 -1       459 5.83333E-02 1.77083E-02 0.00000E+00
 -1       460 6.77083E-02 1.25000E-02 0.00000E+00
 -1       461 6.87500E-02 1.25000E-02 0.00000E+00
 -1       462 6.97917E-02 1.25000E-02 0.00000E+00
 -1       463 7.08333E-02 1.25000E-02 0.00000E+00
 -1       464 7.18750E-02 1.25000E-02 0.00000E+00
 -1       465 7.29167E-02 1.25000E-02 0.00000E+00
 -1       466 7.39583E-02 1.25000E-02 0.00000E+00
 -1       467 6.66667E-02 1.35417E-02 0.00000E+00
 -1       468 6.66667E-02 1.45833E-02 0.00000E+00
 -1       469 6.66667E-02 1.56250E-02 0.00000E+00
 -1       470 6.66667E-02 1.66667E-02 0.00000E+00
 -1       471 6.66667E-02 1.77083E-02 0.00000E+00
 -1       472 7.60417E-02 1.25000E-02 0.00000E+00
 -1       473 7.70833E-02 1.25000E-02 0.00000E+00
 -1       474 7.81250E-02 1.25000E-02 0.00000E+00
 -1       475 7.91667E-02 1.25000E-02 0.00000E+00
 -1       476 8.02083E-02 1.25000E-02 0.00000E+00
 -1       477 8.12500E-02 1.25000E-02 0.00000E+00
 -1       478 8.22917E-02 1.25000E-02 0.00000E+00
 -1       479 7.50000E-02 1.35417E-02 0.00000E+00
 -1       480 7.50000E-02 1.45833E-02 0.00000E+00
 -1       481 7.50000E-02 1.56250E-02 0.00000E+00
 -1       482 7.50000E-02 1.66667E-02 0.00000E+00
 -1       483 7.50000E-02 1.77083E-02 0.00000E+00
 -1       484 8.43750E-02 1.25000E-02 0.00000E+00
 -1       485 8.54167E-02 1.25000E-02 0.00000E+00
 -1       486 8.64583E-02 1.25000E-02 0.00000E+00
 -1       487 8.75000E-02 1.25000E-02 0.00000E+00
 -1       488 8.85417E-02 1.25000E-02 0.00000E+00
 -1       489 8.95833E-02 1.25000E-02 0.00000E+00
 -1       490 9.06250E-02 1.25000E-02 0.00000E+00
 -1       491 8.33333E-02 1.35417E-02 0.00000E+00
 -1       492 8.33333E-02 1.45833E-02 0.00000E+00
 -1       493 8.33333E-02 1.56250E-02 0.00000E+00
 -1       494 8.33333E-02 1.66667E-02 0.00000E+00
 -1       495 8.33333E-02 1.77083E-02 0.00000E+00
 -1       496 9.27083E-02 1.25000E-02 0.00000E+00
 -1       497 9.37500E-02 1.25000E-02 0.00000E+00
 -1       498 9.47917E-02 1.25000E-02 0.00000E+00
 -1       499 9.58333E-02 1.25000E-02 0.00000E+00
 -1       500 9.68750E-02 1.25000E-02 0.00000E+00
 -1       501 9.79167E-02 1.25000E-02 0.00000E+00
 -1       502 9.89583E-02 1.25000E-02 0.00000E+00
 -1       503 9.16667E-02 1.35417E-02 0.00000E+00
 -1       504 9.16667E-02 1.45833E-02 0.00000E+00
 -1       505 9.16667E-02 1.56250E-02 0.00000E+00
 -1       506 9.16667E-02 1.66667E-02 0.00000E+00
 -1       507 9.16667E-02 1.77083E-02 0.00000E+00
 -1       508 1.00000E-01 1.35417E-02 0.00000E+00
 -1       509 1.00000E-01 1.45833E-02 0.00000E+00
 -1       510 1.00000E-01 1.56250E-02 0.00000E+00
 -1       511 1.00000E-01 1.66667E-02 0.00000E+00
 -1       512 1.00000E-01 1.77083E-02 0.00000E+00
 -1       513 1.04167E-03 1.87500E-02 0.00000E+00
 -1       514 2.08333E-03 1.87500E-02 0.00000E+00
 -1       515 3.12500E-03 1.87500E-02 0.00000E+00
 -1       516 4.16667E-03 1.87500E-02 0.00000E+00
 -1       517 5.20833E-03 1.87500E-02 0.00000E+00
 -1       518 6.25000E-03 1.87500E-02 0.00000E+00
 -1       519 7.29167E-03 1.87500E-02 0.00000E+00
 -1       520 0.00000E+00 1.97917E-02 0.00000E+00
 -1       521 0.00000E+00 2.08333E-02 0.00000E+00
 -1       522 0.00000E+00 2.18750E-02 0.00000E+00
 -1       523 0.00000E+00 2.29167E-02 0.00000E+00
 -1       524 0.00000E+00 2.39583E-02 0.00000E+00
 -1       525 9.37500E-03 1.87500E-02 0.00000E+00
 -1       526 1.04167E-02 1.87500E-02 0.00000E+00
 -1       527 1.14583E-02 1.87500E-02 0.00000E+00
 -1       528 1.25000E-02 1.87500E-02 0.00000E+00
 -1       529 1.35417E-02 1.87500E-02 0.00000E+00
 -1       530 1.45833E-02 1.87500E-02 0.00000E+00
 -1       531 1.56250E-02 1.87500E-02 0.00000E+00
 -1       532 8.33333E-03 1.97917E-02 0.00000E+00
 -1       533 8.33333E-03 2.08333E-02 0.00000E+00
 -1       534 8.33333E-03 2.18750E-02 0.00000E+00
 -1       535 8.33333E-03 2.29167E-02 0.00000E+00
 -1       536 8.33333E-03 2.39583E-02 0.00000E+00
 -1       537 1.77083E-02 1.87500E-02 0.00000E+00
 -1       538 1.87500E-02 1.87500E-02 0.00000E+00
 -1       539 1.97917E-02 1.87500E-02 0.00000E+00
 -1       540 2.08333E-02 1.87500E-02 0.00000E+00
 -1       541 2.18750E-02 1.87500E-02 0.00000E+00
 -1       542 2.29167E-02 1.87500E-02 0.00000E+00
 -1       543 2.39583E-02 1.87500E-02 0.00000E+00
 -1       544 1.66667E-02 1.97917E-02 0.00000E+00
 -1       545 1.66667E-02 2.08333E-02 0.00000E+00
 -1       546 1.66667E-02 2.18750E-02 0.00000E+00
 -1       547 1.66667E-02 2.29167E-02 0.00000E+00
 -1       548 1.66667E-02 2.39583E-02 0.00000E+00
 -1       549 2.60417E-02 1.87500E-02 0.00000E+00
 -1       550 2.70833E-02 1.87500E-02 0.00000E+00
 -1       551 2.81250E-02 1.87500E-02 0.00000E+00
 -1       552 2.91667E-02 1.87500E-02 0.00000E+00
 -1       553 3.02083E-02 1.87500E-02 0.00000E+00
 -1       554 3.12500E-02 1.87500E-02 0.00000E+00
 -1       555 3.22917E-02 1.87500E-02 0.00000E+00
 -1       556 2.50000E-02 1.97917E-02 0.00000E+00
 -1       557 2.50000E-02 2.08333E-02 0.00000E+00
 -1       558 2.50000E-02 2.18750E-02 0.00000E+00
 -1       559 2.50000E-02 2.29167E-02 0.00000E+00
 -1       560 2.50000E-02 2.39583E-02 0.00000E+00
 -1       561 3.43750E-02 1.87500E-02 0.00000E+00
 -1       562 3.54167E-02 1.87500E-02 0.00000E+00
 -1       563 3.64583E-02 1.87500E-02 0.00000E+00
 -1       564 3.75000E-02 1.87500E-02 0.00000E+00
 -1       565 3.85417E-02 1.87500E-02 0.00000E+00
 -1       566 3.95833E-02 1.87500E-02 0.00000E+00
 -1       567 4.06250E-02 1.87500E-02 0.00000E+00
 -1       568 3.33333E-02 1.97917E-02 0.00000E+00
 -1       569 3.33333E-02 2.08333E-02 0.00000E+00
 -1       570 3.33333E-02 2.18750E-02 0.00000E+00
 -1       571 3.33333E-02 2.29167E-02 0.00000E+00
 -1       572 3.33333E-02 2.39583E-02 0.00000E+00
 -1       573 4.27083E-02 1.87500E-02 0.00000E+00
 -1       574 4.37500E-02 1.87500E-02 0.00000E+00
 -1       575 4.47917E-02 1.87500E-02 0.00000E+00
 -1       576 4.58333E-02 1.87500E-02 0.00000E+00
 -1       577 4.68750E-02 1.87500E-02 0.00000E+00
 -1       578 4.79167E-02 1.87500E-02 0.00000E+00
 -1       579 4.89583E-02 1.87500E-02 0.00000E+00
 -1       580 4.16667E-02 1.97917E-02 0.00000E+00
 -1       581 4.16667E-02 2.08333E-02 0.00000E+00
 -1       582 4.16667E-02 2.18750E-02 0.00000E+00
 -1       583 4.16667E-02 2.29167E-02 0.00000E+00
 -1       584 4.16667E-02 2.39583E-02 0.00000E+00
 -1       585 5.10417E-02 1.87500E-02 0.00000E+00
 -1       586 5.20833E-02 1.87500E-02 0.00000E+00
 -1       587 5.31250E-02 1.87500E-02 0.00000E+00
 -1       588 5.41667E-02 1.87500E-02 0.00000E+00
 -1       589 5.52083E-02 1.87500E-02 0.00000E+00
 -1       590 5.62500E-02 1.87500E-02 0.00000E+00
 -1       591 5.72917E-02 1.87500E-02 0.00000E+00
 -1       592 5.00000E-02 1.97917E-02 0.00000E+00
 -1       593 5.00000E-02 2.08333E-02 0.00000E+00
 -1       594 5.00000E-02 2.18750E-02 0.00000E+00
 -1       595 5.00000E-02 2.29167E-02 0.00000E+00
 -1       596 5.00000E-02 2.39583E-02 0.00000E+00
 -1       597 5.93750E-02 1.87500E-02 0.00000E+00
 -1       598 6.04167E-02 1.87500E-02 0.00000E+00
 -1       599 6.14583E-02 1.87500E-02 0.00000E+00
 -1       600 6.25000E-02 1.87500E-02 0.00000E+00
 -1       601 6.35417E-02 1.87500E-02 0.00000E+00
 -1       602 6.45833E-02 1.87500E-02 0.00000E+00
 -1       603 6.56250E-02 1.87500E-02 0.00000E+00
 -1       604 5.83333E-02 1.97917E-02 0.00000E+00
 -1       605 5.83333E-02 2.08333E-02 0.00000E+00
 -1       606 5.83333E-02 2.18750E-02 0.00000E+00
 -1       607 5.83333E-02 2.29167E-02 0.00000E+00
 -1       608 5.83333E-02 2.39583E-02 0.00000E+00
 -1       609 6.77083E-02 1.87500E-02 0.00000E+00
 -1       610 6.87500E-02 1.87500E-02 0.00000E+00
 -1       611 6.97917E-02 1.87500E-02 0.00000E+00
 -1       612 7.08333E-02 1.87500E-02 0.00000E+00
 -1       613 7.18750E-02 1.87500E-02 0.00000E+00
 -1       614 7.29167E-02 1.87500E-02 0.00000E+00
 -1       615 7.39583E-02 1.87500E-02 0.00000E+00
 -1       616 6.66667E-02 1.97917E-02 0.00000E+00
 -1       617 6.66667E-02 2.08333E-02 0.00000E+00
 -1       618 6.66667E-02 2.18750E-02 0.00000E+00
 -1       619 6.66667E-02 2.29167E-02 0.00000E+00
 -1       620 6.66667E-02 2.39583E-02 0.00000E+00
 -1       621 7.60417E-02 1.87500E-02 0.00000E+00
 -1       622 7.70833E-02 1.87500E-02 0.00000E+00
 -1       623 7.81250E-02 1.87500E-02 0.00000E+00
 -1       624 7.91667E-02 1.87500E-02 0.00000E+00
 -1       625 8.02083E-02 1.87500E-02 0.00000E+00
 -1       626 8.12500E-02 1.87500E-02 0.00000E+00
 -1       627 8.22917E-02 1.87500E-02 0.00000E+00
 -1       628 7.50000E-02 1.97917E-02 0.00000E+00
 -1       629 7.50000E-02 2.08333E-02 0.00000E+00
 -1       630 7.50000E-02 2.18750E-02 0.00000E+00
 -1       631 7.50000E-02 2.29167E-02 0.00000E+00
 -1       632 7.50000E-02 2.39583E-02 0.00000E+00
 -1       633 8.43750E-02 1.87500E-02 0.00000E+00
 -1       634 8.54167E-02 1.87500E-02 0.00000E+00
 -1       635 8.64583E-02 1.87500E-02 0.00000E+00
 -1       636 8.75000E-02 1.87500E-02 0.00000E+00
 -1       637 8.85417E-02 1.87500E-02 0.00000E+00
 -1       638 8.95833E-02 1.87500E-02 0.00000E+00
 -1       639 9.06250E-02 1.87500E-02 0.00000E+00
 -1       640 8.33333E-02 1.97917E-02 0.00000E+00
 -1       641 8.33333E-02 2.08333E-02 0.00000E+00
 -1       642 8.33333E-02 2.18750E-02 0.00000E+00
 -1       643 8.33333E-02 2.29167E-02 0.00000E+00
 -1       644 8.33333E-02 2.39583E-02 0.00000E+00
 -1       645 9.27083E-02 1.87500E-02 0.00000E+00
 -1       646 9.37500E-02 1.87500E-02 0.00000E+00
 -1       647 9.47917E-02 1.87500E-02 0.00000E+00
 -1       648 9.58333E-02 1.87500E-02 0.00000E+00
 -1       649 9.68750E-02 1.87500E-02 0.00000E+00
 -1       650 9.79167E-02 1.87500E-02 0.00000E+00
 -1       651 9.89583E-02 1.87500E-02 0.00000E+00
 -1       652 9.16667E-02 1.97917E-02 0.00000E+00
 -1       653 9.16667E-02 2.08333E-02 0.00000E+00
 -1       654 9.16667E-02 2.18750E-02 0.00000E+00
 -1       655 9.16667E-02 2.29167E-02 0.00000E+00
 -1       656 9.16667E-02 2.39583E-02 0.00000E+00
 -1       657 1.00000E-01 1.97917E-02 0.00000E+00
 -1       658 1.00000E-01 2.08333E-02 0.00000E+00
 -1       659 1.00000E-01 2.18750E-02 0.00000E+00
 -1       660 1.00000E-01 2.29167E-02 0.00000E+00
 -1       661 1.00000E-01 2.39583E-02 0.00000E+00
 -1       662 1.04167E-03 2.50000E-02 0.00000E+00
 -1       663 2.08333E-03 2.50000E-02 0.00000E+00
 -1       664 3.12500E-03 2.50000E-02 0.00000E+00
 -1       665 4.16667E-03 2.50000E-02 0.00000E+00
 -1       666 5.20833E-03 2.50000E-02 0.00000E+00
 -1       667 6.25000E-03 2.50000E-02 0.00000E+00
 -1       668 7.29167E-03 2.50000E-02 0.00000E+00
 -1       669 9.37500E-03 2.50000E-02 0.00000E+00
 -1       670 1.04167E-02 2.50000E-02 0.00000E+00
 -1       671 1.14583E-02 2.50000E-02 0.00000E+00
 -1       672 1.25000E-02 2.50000E-02 0.00000E+00
 -1       673 1.35417E-02 2.50000E-02 0.00000E+00
 -1       674 1.45833E-02 2.50000E-02 0.00000E+00
 -1       675 1.56250E-02 2.50000E-02 0.00000E+00
 -1       676 1.77083E-02 2.50000E-02 0.00000E+00
 -1       677 1.87500E-02 2.50000E-02 0.00000E+00
 -1       678 1.97917E-02 2.50000E-02 0.00000E+00
 -1       679 2.08333E-02 2.50000E-02 0.00000E+00
 -1       680 2.18750E-02 2.50000E-02 0.00000E+00
 -1       681 2.29167E-02 2.50000E-02 0.00000E+00
 -1       682 2.39583E-02 2.50000E-02 0.00000E+00
 -1       683 2.60417E-02 2.50000E-02 0.00000E+00
 -1       684 2.70833E-02 2.50000E-02 0.00000E+00
 -1       685 2.81250E-02 2.50000E-02 0.00000E+00
 -1       686 2.91667E-02 2.50000E-02 0.00000E+00
 -1       687 3.02083E-02 2.50000E-02 0.00000E+00
 -1       688 3.12500E-02 2.50000E-02 0.00000E+00
 -1       689 3.22917E-02 2.50000E-02 0.00000E+00
 -1       690 3.43750E-02 2.50000E-02 0.00000E+00
 -1       691 3.54167E-02 2.50000E-02 0.00000E+00
 -1       692 3.64583E-02 2.50000E-02 0.00000E+00
 -1       693 3.75000E-02 2.50000E-02 0.00000E+00
 -1       694 3.85417E-02 2.50000E-02 0.00000E+00
 -1       695 3.95833E-02 2.50000E-02 0.00000E+00
 -1       696 4.06250E-02 2.50000E-02 0.00000E+00
 -1       697 4.27083E-02 2.50000E-02 0.00000E+00
 -1       698 4.37500E-02 2.50000E-02 0.00000E+00
 -1       699 4.47917E-02 2.50000E-02 0.00000E+00
 -1       700 4.58333E-02 2.50000E-02 0.00000E+00
 -1       701 4.68750E-02 2.50000E-02 0.00000E+00
 -1       702 4.79167E-02 2.50000E-02 0.00000E+00
 -1       703 4.89583E-02 2.50000E-02 0.00000E+00
 -1       704 5.10417E-02 2.50000E-02 0.00000E+00
 -1       705 5.20833E-02 2.50000E-02 0.00000E+00
 -1       706 5.31250E-02 2.50000E-02 0.00000E+00
 -1       707 5.41667E-02 2.50000E-02 0.00000E+00
 -1       708 5.52083E-02 2.50000E-02 0.00000E+00
 -1       709 5.62500E-02 2.50000E-02 0.00000E+00
 -1       710 5.72917E-02 2.50000E-02 0.00000E+00
 -1       711 5.93750E-02 2.50000E-02 0.00000E+00
 -1       712 6.04167E-02 2.50000E-02 0.00000E+00
 -1       713 6.14583E-02 2.50000E-02 0.00000E+00
 -1       714 6.25000E-02 2.50000E-02 0.00000E+00
 -1       715 6.35417E-02 2.50000E-02 0.00000E+00
 -1       716 6.45833E-02 2.50000E-02 0.00000E+00
 -1       717 6.56250E-02 2.50000E-02 0.00000E+00
 -1       718 6.77083E-02 2.50000E-02 0.00000E+00
 -1       719 6.87500E-02 2.50000E-02 0.00000E+00
 -1       720 6.97917E-02 2.50000E-02 0.00000E+00
 -1       721 7.08333E-02 2.50000E-02 0.00000E+00
 -1       722 7.18750E-02 2.50000E-02 0.00000E+00
 -1       723 7.29167E-02 2.50000E-02 0.00000E+00
 -1       724 7.39583E-02 2.50000E-02 0.00000E+00
 -1       725 7.60417E-02 2.50000E-02 0.00000E+00
 -1       726 7.70833E-02 2.50000E-02 0.00000E+00
 -1       727 7.81250E-02 2.50000E-02 0.00000E+00
 -1       728 7.91667E-02 2.50000E-02 0.00000E+00
 -1       729 8.02083E-02 2.50000E-02 0.00000E+00
 -1       730 8.12500E-02 2.50000E-02 0.00000E+00
 -1       731 8.22917E-02 2.50000E-02 0.00000E+00
 -1       732 8.43750E-02 2.50000E-02 0.00000E+00
 -1       733 8.54167E-02 2.50000E-02 0.00000E+00
 -1       734 8.64583E-02 2.50000E-02 0.00000E+00
 -1       735 8.75000E-02 2.50000E-02 0.00000E+00
 -1       736 8.85417E-02 2.50000E-02 0.00000E+00
 -1       737 8.95833E-02 2.50000E-02 0.00000E+00
 -1       738 9.06250E-02 2.50000E-02 0.00000E+00
 -1       739 9.27083E-02 2.50000E-02 0.00000E+00
 -1       740 9.37500E-02 2.50000E-02 0.00000E+00
 -1       741 9.47917E-02 2.50000E-02 0.00000E+00
 -1       742 9.58333E-02 2.50000E-02 0.00000E+00
 -1       743 9.68750E-02 2.50000E-02 0.00000E+00
 -1       744 9.79167E-02 2.50000E-02 0.00000E+00
 -1       745 9.89583E-02 2.50000E-02 0.00000E+00
 -3
    3C                           340                                     1
 -1         1   12    0    1
 -2         1        67        66
 -1         2   12    0    1
 -2        67        69        68
 -1         3   12    0    1
 -2        69        71        70
 -1         4   12    0    1
 -2        71         2        72
 -1         5   12    0    1
 -2         1        74        73
 -1         6   12    0    1
 -2        74        76        75
 -1         7   12    0    1
 -2        76        14        77
 -1         8   12    0    1
 -2         2        79        78
 -1         9   12    0    1
 -2        79        81        80
 -1        10   12    0    1
 -2        81        83        82
 -1        11   12    0    1
 -2        83         3        84
 -1        12   12    0    1
 -2         2        86        85
 -1        13   12    0    1
 -2        86        88        87
 -1        14   12    0    1
 -2        88        15        89
 -1        15   12    0    1
 -2         3        91        90
 -1        16   12    0    1
 -2        91        93        92
 -1        17   12    0    1
 -2        93        95        94
 -1        18   12    0    1
 -2        95         4        96
 -1        19   12    0    1
 -2         3        98        97
 -1        20   12    0    1
 -2        98       100        99
 -1        21   12    0    1
 -2       100        16       101
 -1        22   12    0    1
 -2         4       103       102
 -1        23   12    0    1
 -2       103       105       104
 -1        24   12    0    1
 -2       105       107       106
 -1        25   12    0    1
 -2       107         5       108
 -1        26   12    0    1
 -2         4       110       109
 -1        27   12    0    1
 -2       110       112       111
 -1        28   12    0    1
 -2       112        17       113
 -1        29   12    0    1
 -2         5       115       114
 -1        30   12    0    1
 -2       115       117       116
 -1        31   12    0    1
 -2       117       119       118
 -1        32   12    0    1
 -2       119         6       120
 -1        33   12    0    1
 -2         5       122       121
 -1        34   12    0    1
 -2       122       124       123
 -1        35   12    0    1
 -2       124        18       125
 -1        36   12    0    1
 -2         6       127       126
 -1        37   12    0    1
 -2       127       129       128
 -1        38   12    0    1
 -2       129       131       130
 -1        39   12    0    1
 -2       131         7       132
 -1        40   12    0    1
 -2         6       134       133
 -1        41   12    0    1
 -2       134       136       135
 -1        42   12    0    1
 -2       136        19       137
 -1        43   12    0    1
 -2         7       139       138
 -1        44   12    0    1
 -2       139       141       140
 -1        45   12    0    1
 -2       141       143       142
 -1        46   12    0    1
 -2       143         8       144
 -1        47   12    0    1
 -2         7       146       145
 -1        48   12    0    1
 -2       146       148       147
 -1        49   12    0    1
 -2       148        20       149
 -1        50   12    0    1
 -2         8       151       150
 -1        51   12    0    1
 -2       151       153       152
 -1        52   12    0    1
 -2       153       155       154
 -1        53   12    0    1
 -2       155         9       156
 -1        54   12    0    1
 -2         8       158       157
 -1        55   12    0    1
 -2       158       160       159
 -1        56   12    0    1
 -2       160        21       161
 -1        57   12    0    1
 -2         9       170       169
 -1        58   12    0    1
 -2       170       172       171
 -1        59   12    0    1
 -2       172        22       173
 -1        60   12    0    1
 -2        14       216       215
 -1        61   12    0    1
 -2       216       218       217
 -1        62   12    0    1
 -2       218       220       219
 -1        63   12    0    1
 -2       220        15       221
 -1        64   12    0    1
 -2        14       223       222
 -1        65   12    0    1
 -2       223       225       224
 -1        66   12    0    1
 -2       225        27       226
 -1        67   12    0    1
 -2        15       228       227
 -1        68   12    0    1
 -2       228       230       229
 -1        69   12    0    1
 -2       230       232       231
 -1        70   12    0    1
 -2       232        16       233
 -1        71   12    0    1
 -2        15       235       234
 -1        72   12    0    1
 -2       235       237       236
 -1        73   12    0    1
 -2       237        28       238
 -1        74   12    0    1
 -2        16       240       239
 -1        75   12    0    1
 -2       240       242       241
 -1        76   12    0    1
 -2       242       244       243
 -1        77   12    0    1
 -2       244        17       245
 -1        78   12    0    1
 -2        16       247       246
 -1        79   12    0    1
 -2       247       249       248
 -1        80   12    0    1
 -2       249        29       250
 -1        81   12    0    1
 -2        17       252       251
 -1        82   12    0    1
 -2       252       254       253
 -1        83   12    0    1
 -2       254       256       255
 -1        84   12    0    1
 -2       256        18       257
 -1        85   12    0    1
 -2        17       259       258
 -1        86   12    0    1
 -2       259       261       260
 -1        87   12    0    1
 -2       261        30       262
 -1        88   12    0    1
 -2        18       264       263
 -1        89   12    0    1
 -2       264       266       265
 -1        90   12    0    1
 -2       266       268       267
 -1        91   12    0    1
 -2       268        19       269
 -1        92   12    0    1
 -2        18       271       270
 -1        93   12    0    1
 -2       271       273       272
 -1        94   12    0    1
 -2       273        31       274
 -1        95   12    0    1
 -2        19       276       275
 -1        96   12    0    1
 -2       276       278       277
 -1        97   12    0    1
 -2       278       280       279
 -1        98   12    0    1
 -2       280        20       281
 -1        99   12    0    1
 -2        19       283       282
 -1       100   12    0    1
 -2       283       285       284
 -1       101   12    0    1
 -2       285        32       286
 -1       102   12    0    1
 -2        20       288       287
 -1       103   12    0    1
 -2       288       290       289
 -1       104   12    0    1
 -2       290       292       291
 -1       105   12    0    1
 -2       292        21       293
 -1       106   12    0    1
 -2        20       295       294
 -1       107   12    0    1
 -2       295       297       296
 -1       108   12    0    1
 -2       297        33       298
 -1       109   12    0    1
 -2        21       300       299
 -1       110   12    0    1
 -2       300       302       301
 -1       111   12    0    1
 -2       302       304       303
 -1       112   12    0    1
 -2       304        22       305
 -1       113   12    0    1
 -2        21       307       306
 -1       114   12    0    1
 -2       307       309       308
 -1       115   12    0    1
 -2       309        34       310
 -1       116   12    0    1
 -2        22       319       318
 -1       117   12    0    1
 -2       319       321       320
 -1       118   12    0    1
 -2       321        35       322
 -1       119   12    0    1
 -2        27       365       364
 -1       120   12    0    1
 -2       365       367       366
 -1       121   12    0    1
 -2       367       369       368
 -1       122   12    0    1
 -2       369        28       370
 -1       123   12    0    1
 -2        27       372       371
 -1       124   12    0    1
 -2       372       374       373
 -1       125   12    0    1
 -2       374        40       375
 -1       126   12    0    1
 -2        28       377       376
 -1       127   12    0    1
 -2       377       379       378
 -1       128   12    0    1
 -2       379       381       380
 -1       129   12    0    1
 -2       381        29       382
 -1       130   12    0    1
 -2        28       384       383
 -1       131   12    0    1
 -2       384       386       385
 -1       132   12    0    1
 -2       386        41       387
 -1       133   12    0    1
 -2        29       389       388
 -1       134   12    0    1
 -2       389       391       390
 -1       135   12    0    1
 -2       391       393       392
 -1       136   12    0    1
 -2       393        30       394
 -1       137   12    0    1
 -2        29       396       395
 -1       138   12    0    1
 -2       396       398       397
 -1       139   12    0    1
 -2       398        42       399
 -1       140   12    0    1
 -2        30       401       400
 -1       141   12    0    1
 -2       401       403       402
 -1       142   12    0    1
 -2       403       405       404
 -1       143   12    0    1
 -2       405        31       406
 -1       144   12    0    1
 -2        30       408       407
 -1       145   12    0    1
 -2       408       410       409
 -1       146   12    0    1
 -2       410        43       411
 -1       147   12    0    1
 -2        31       413       412
 -1       148   12    0    1
 -2       413       415       414
 -1       149   12    0    1
 -2       415       417       416
 -1       150   12    0    1
 -2       417        32       418
 -1       151   12    0    1
 -2        31       420       419
 -1       152   12    0    1
 -2       420       422       421
 -1       153   12    0    1
 -2       422        44       423
 -1       154   12    0    1
 -2        32       425       424
 -1       155   12    0    1
 -2       425       427       426
 -1       156   12    0    1
 -2       427       429       428
 -1       157   12    0    1
 -2       429        33       430
 -1       158   12    0    1
 -2        32       432       431
 -1       159   12    0    1
 -2       432       434       433
 -1       160   12    0    1
 -2       434        45       435
 -1       161   12    0    1
 -2        33       437       436
 -1       162   12    0    1
 -2       437       439       438
 -1       163   12    0    1
 -2       439       441       440
 -1       164   12    0    1
 -2       441        34       442
 -1       165   12    0    1
 -2        33       444       443
 -1       166   12    0    1
 -2       444       446       445
 -1       167   12    0    1
 -2       446        46       447
 -1       168   12    0    1
 -2        34       449       448
 -1       169   12    0    1
 -2       449       451       450
 -1       170   12    0    1
 -2       451       453       452
 -1       171   12    0    1
 -2       453        35       454
 -1       172   12    0    1
 -2        34       456       455
 -1       173   12    0    1
 -2       456       458       457
 -1       174   12    0    1
 -2       458        47       459
 -1       175   12    0    1
 -2        35       461       460
 -1       176   12    0    1
 -2       461       463       462
 -1       177   12    0    1
 -2       463       465       464
 -1       178   12    0    1
 -2       465        36       466
 -1       179   12    0    1
 -2        35       468       467
 -1       180   12    0    1
 -2       468       470       469
 -1       181   12    0    1
 -2       470        48       471
 -1       182   12    0    1
 -2        36       473       472
 -1       183   12    0    1
 -2       473       475       474
 -1       184   12    0    1
 -2       475       477       476
 -1       185   12    0    1
 -2       477        37       478
 -1       186   12    0    1
 -2        36       480       479
 -1       187   12    0    1
 -2       480       482       481
 -1       188   12    0    1
 -2       482        49       483
 -1       189   12    0    1
 -2        37       485       484
 -1       190   12    0    1
 -2       485       487       486
 -1       191   12    0    1
 -2       487       489       488
 -1       192   12    0    1
 -2       489        38       490
 -1       193   12    0    1
 -2        37       492       491
 -1       194   12    0    1
 -2       492       494       493
 -1       195   12    0    1
 -2       494        50       495
 -1       196   12    0    1
 -2        38       497       496
 -1       197   12    0    1
 -2       497       499       498
 -1       198   12    0    1
 -2       499       501       500
 -1       199   12    0    1
 -2       501        39       502
 -1       200   12    0    1
 -2        38       504       503
 -1       201   12    0    1
 -2       504       506       505
 -1       202   12    0    1
 -2       506        51       507
 -1       203   12    0    1
 -2        39       509       508
 -1       204   12    0    1
 -2       509       511       510
 -1       205   12    0    1
 -2       511        52       512
 -1       206   12    0    1
 -2        40       514       513
 -1       207   12    0    1
 -2       514       516       515
 -1       208   12    0    1
 -2       516       518       517
 -1       209   12    0    1
 -2       518        41       519
 -1       210   12    0    1
 -2        40       521       520
 -1       211   12    0    1
 -2       521       523       522
 -1       212   12    0    1
 -2       523        53       524
 -1       213   12    0    1
 -2        41       526       525
 -1       214   12    0    1
 -2       526       528       527
 -1       215   12    0    1
 -2       528       530       529
 -1       216   12    0    1
 -2       530        42       531
 -1       217   12    0    1
 -2        41       533       532
 -1       218   12    0    1
 -2       533       535       534
 -1       219   12    0    1
 -2       535        54       536
 -1       220   12    0    1
 -2        42       538       537
 -1       221   12    0    1
 -2       538       540       539
 -1       222   12    0    1
 -2       540       542       541
 -1       223   12    0    1
 -2       542        43       543
 -1       224   12    0    1
 -2        42       545       544
 -1       225   12    0    1
 -2       545       547       546
 -1       226   12    0    1
 -2       547        55       548
 -1       227   12    0    1
 -2        43       550       549
 -1       228   12    0    1
 -2       550       552       551
 -1       229   12    0    1
 -2       552       554       553
 -1       230   12    0    1
 -2       554        44       555
 -1       231   12    0    1
 -2        43       557       556
 -1       232   12    0    1
 -2       557       559       558
 -1       233   12    0    1
 -2       559        56       560
 -1       234   12    0    1
 -2        44       562       561
 -1       235   12    0    1
 -2       562       564       563
 -1       236   12    0    1
 -2       564       566       565
 -1       237   12    0    1
 -2       566        45       567
 -1       238   12    0    1
 -2        44       569       568
 -1       239   12    0    1
 -2       569       571       570
 -1       240   12    0    1
 -2       571        57       572
 -1       241   12    0    1
 -2        45       574       573
 -1       242   12    0    1
 -2       574       576       575
 -1       243   12    0    1
 -2       576       578       577
 -1       244   12    0    1
 -2       578        46       579
 -1       245   12    0    1
 -2        45       581       580
 -1       246   12    0    1
 -2       581       583       582
 -1       247   12    0    1
 -2       583        58       584
 -1       248   12    0    1
 -2        46       586       585
 -1       249   12    0    1
 -2       586       588       587
 -1       250   12    0    1
 -2       588       590       589
 -1       251   12    0    1
 -2       590        47       591
 -1       252   12    0    1
 -2        46       593       592
 -1       253   12    0    1
 -2       593       595       594
 -1       254   12    0    1
 -2       595        59       596
 -1       255   12    0    1
 -2        47       598       597
 -1       256   12    0    1
 -2       598       600       599
 -1       257   12    0    1
 -2       600       602       601
 -1       258   12    0    1
 -2       602        48       603
 -1       259   12    0    1
 -2        47       605       604
 -1       260   12    0    1
 -2       605       607       606
 -1       261   12    0    1
 -2       607        60       608
 -1       262   12    0    1
 -2        48       610       609
 -1       263   12    0    1
 -2       610       612       611
 -1       264   12    0    1
 -2       612       614       613
 -1       265   12    0    1
 -2       614        49       615
 -1       266   12    0    1
 -2        48       617       616
 -1       267   12    0    1
 -2       617       619       618
 -1       268   12    0    1
 -2       619        61       620
 -1       269   12    0    1
 -2        49       622       621
 -1       270   12    0    1
 -2       622       624       623
 -1       271   12    0    1
 -2       624       626       625
 -1       272   12    0    1
 -2       626        50       627
 -1       273   12    0    1
 -2        49       629       628
 -1       274   12    0    1
 -2       629       631       630
 -1       275   12    0    1
 -2       631        62       632
 -1       276   12    0    1
 -2        50       634       633
 -1       277   12    0    1
 -2       634       636       635
 -1       278   12    0    1
 -2       636       638       637
 -1       279   12    0    1
 -2       638        51       639
 -1       280   12    0    1
 -2        50       641       640
 -1       281   12    0    1
 -2       641       643       642
 -1       282   12    0    1
 -2       643        63       644
 -1       283   12    0    1
 -2        51       646       645
 -1       284   12    0    1
 -2       646       648       647
 -1       285   12    0    1
 -2       648       650       649
 -1       286   12    0    1
 -2       650        52       651
 -1       287   12    0    1
 -2        51       653       652
 -1       288   12    0    1
 -2       653       655       654
 -1       289   12    0    1
 -2       655        64       656
 -1       290   12    0    1
 -2        52       658       657
 -1       291   12    0    1
 -2       658       660       659
 -1       292   12    0    1
 -2       660        65       661
 -1       293   12    0    1
 -2        53       663       662
 -1       294   12    0    1
 -2       663       665       664
 -1       295   12    0    1
 -2       665       667       666
 -1       296   12    0    1
 -2       667        54       668
 -1       297   12    0    1
 -2        54       670       669
 -1       298   12    0    1
 -2       670       672       671
 -1       299   12    0    1
 -2       672       674       673
 -1       300   12    0    1
 -2       674        55       675
 -1       301   12    0    1
 -2        55       677       676
 -1       302   12    0    1
 -2       677       679       678
 -1       303   12    0    1
 -2       679       681       680
 -1       304   12    0    1
 -2       681        56       682
 -1       305   12    0    1
 -2        56       684       683
 -1       306   12    0    1
 -2       684       686       685
 -1       307   12    0    1
 -2       686       688       687
 -1       308   12    0    1
 -2       688        57       689
 -1       309   12    0    1
 -2        57       691       690
 -1       310   12    0    1
 -2       691       693       692
 -1       311   12    0    1
 -2       693       695       694
 -1       312   12    0    1
 -2       695        58       696
 -1       313   12    0    1
 -2        58       698       697
 -1       314   12    0    1
 -2       698       700       699
 -1       315   12    0    1
 -2       700       702       701
 -1       316   12    0    1
 -2       702        59       703
 -1       317   12    0    1
 -2        59       705       704
 -1       318   12    0    1
 -2       705       707       706
 -1       319   12    0    1
 -2       707       709       708
 -1       320   12    0    1
 -2       709        60       710
 -1       321   12    0    1
 -2        60       712       711
 -1       322   12    0    1
 -2       712       714       713
 -1       323   12    0    1
 -2       714       716       715
 -1       324   12    0    1
 -2       716        61       717
 -1       325   12    0    1
 -2        61       719       718
 -1       326   12    0    1
 -2       719       721       720
 -1       327   12    0    1
 -2       721       723       722
 -1       328   12    0    1
 -2       723        62       724
 -1       329   12    0    1
 -2        62       726       725
 -1       330   12    0    1
 -2       726       728       727
 -1       331   12    0    1
 -2       728       730       729
 -1       332   12    0    1
 -2       730        63       731
 -1       333   12    0    1
 -2        63       733       732
 -1       334   12    0    1
 -2       733       735       734
 -1       335   12    0    1
 -2       735       737       736
 -1       336   12    0    1
 -2       737        64       738
 -1       337   12    0    1
 -2        64       740       739
 -1       338   12    0    1
 -2       740       742       741
 -1       339   12    0    1
 -2       742       744       743
 -1       340   12    0    1
 -2       744        65       745
 -3
    1PSTEP                         1           1           1          
  100CL  101 1.000000000         641                     0    1           1
 -4  DISP        4    1
 -5  D1          1    2    1    0
 -5  D2          1    2    2    0
 -5  D3          1    2    3    0
 -5  ALL         1    2    0    0    1ALL
 -1         1-8.57998E-04 0.00000E+00 0.00000E+00
 -1         2-8.28635E-04 0.00000E+00 0.00000E+00
 -1         3-8.04337E-04 0.00000E+00 0.00000E+00
 -1         4-7.84481E-04 0.00000E+00 0.00000E+00
 -1         5-7.68634E-04 0.00000E+00 0.00000E+00
 -1         6-7.56466E-04 0.00000E+00 0.00000E+00
 -1         7-7.47751E-04 0.00000E+00 0.00000E+00
 -1         8-7.42396E-04 0.00000E+00 0.00000E+00
 -1         9-7.40323E-04 0.00000E+00 0.00000E+00
 -1        14-6.18789E-04 2.35277E-06 0.00000E+00
 -1        15-6.16557E-04-4.72325E-06 0.00000E+00
 -1        16-6.12897E-04-3.26668E-06 0.00000E+00
 -1        17-6.08653E-04-2.72801E-06 0.00000E+00
 -1        18-6.04312E-04-2.37267E-06 0.00000E+00
 -1        19-6.00257E-04-1.78640E-06 0.00000E+00
 -1        20-5.96819E-04 8.10477E-07 0.00000E+00
 -1        21-5.94289E-04-1.68794E-06 0.00000E+00
 -1        22-5.93055E-04-3.01060E-06 0.00000E+00
 -1        27-3.75238E-04 2.29314E-06 0.00000E+00
 -1        28-3.75257E-04-9.87885E-06 0.00000E+00
 -1        29-3.74352E-04-7.98923E-06 0.00000E+00
 -1        30-3.72589E-04-7.30056E-06 0.00000E+00
 -1        31-3.69888E-04-6.88172E-06 0.00000E+00
 -1        32-3.66139E-04-5.96664E-06 0.00000E+00
 -1        33-3.61178E-04-8.40777E-07 0.00000E+00
 -1        34-3.54662E-04-6.61587E-06 0.00000E+00
 -1        35-3.46256E-04-6.77092E-06 0.00000E+00
 -1        36-3.37281E-04 7.11252E-05 0.00000E+00
 -1        37-3.31901E-04 1.19923E-04 0.00000E+00
 -1        38-3.29380E-04 9.35545E-05 0.00000E+00
 -1        39-3.29306E-04-1.12022E-05 0.00000E+00
 -1        40-1.73775E-04 1.64395E-06 0.00000E+00
 -1        41-1.74128E-04-1.34418E-05 0.00000E+00
 -1        42-1.74371E-04-1.13124E-05 0.00000E+00
 -1        43-1.74463E-04-1.05063E-05 0.00000E+00
 -1        44-1.74423E-04-9.98898E-06 0.00000E+00
 -1        45-1.74364E-04-8.67887E-06 0.00000E+00
 -1        46-1.74595E-04-6.46793E-07 0.00000E+00
 -1        47-1.75328E-04-9.37666E-06 0.00000E+00
 -1        48-1.76431E-04-8.01364E-06 0.00000E+00
 -1        49-1.78619E-04 6.84741E-05 0.00000E+00
 -1        50-1.79899E-04 1.17051E-04 0.00000E+00
 -1        51-1.80600E-04 9.08414E-05 0.00000E+00
 -1        52-1.81527E-04-1.38606E-05 0.00000E+00
 -1        53 0.00000E+00 0.00000E+00 0.00000E+00
 -1        54-7.47915E-06-1.59368E-05 0.00000E+00
 -1        55-1.18835E-05-1.35573E-05 0.00000E+00
 -1        56-1.33372E-05-1.26654E-05 0.00000E+00
 -1        57-1.18820E-05-1.21708E-05 0.00000E+00
 -1        58-7.47641E-06-1.07965E-05 0.00000E+00
 -1        59 0.00000E+00 0.00000E+00 0.00000E+00
 -1        60-1.45807E-05-1.16846E-05 0.00000E+00
 -1        61-2.63942E-05-9.57993E-06 0.00000E+00
 -1        62-3.52497E-05 6.64220E-05 0.00000E+00
 -1        63-4.03444E-05 1.15057E-04 0.00000E+00
 -1        64-4.25910E-05 8.89204E-05 0.00000E+00
 -1        65-4.38420E-05-1.56817E-05 0.00000E+00
 -1        66-8.54364E-04 2.08860E-19-1.05879E-22
 -1        67-8.50680E-04 3.29469E-19 0.00000E+00
 -1        68-8.46997E-04 2.80818E-19-1.05879E-22
 -1        69-8.43308E-04 1.75442E-19 0.00000E+00
 -1        70-8.39619E-04 2.43284E-19 0.00000E+00
 -1        71-8.35938E-04 2.03936E-19 0.00000E+00
 -1        72-8.32256E-04 8.47959E-20-1.05879E-22
 -1        73-8.44573E-04 1.14190E-06 0.00000E+00
 -1        74-8.11118E-04 1.82088E-06-2.64698E-23
 -1        75-7.64820E-04 2.05386E-06 5.29396E-23
 -1        76-7.12709E-04 2.00959E-06 1.32349E-23
 -1        77-6.61716E-04 2.01728E-06 0.00000E+00
 -1        78-8.25621E-04-1.60129E-19-1.05879E-22
 -1        79-8.22573E-04-2.42212E-19 5.29396E-23
 -1        80-8.19525E-04-2.32113E-19-1.05879E-22
 -1        81-8.16474E-04-1.86612E-19 0.00000E+00
 -1        82-8.13423E-04-1.97107E-19-1.05879E-22
 -1        83-8.10379E-04-2.87846E-19 0.00000E+00
 -1        84-8.07333E-04-1.37590E-19 5.29396E-23
 -1        85-8.15612E-04-1.74110E-07 0.00000E+00
 -1        86-7.83482E-04-8.21666E-07-6.61744E-24
 -1        87-7.39858E-04-1.84217E-06 3.30872E-24
 -1        88-6.92397E-04-3.03793E-06 1.65436E-24
 -1        89-6.48751E-04-4.08254E-06 0.00000E+00
 -1        90-8.01873E-04 8.39886E-20-5.29396E-23
 -1        91-7.99381E-04 1.91932E-19 0.00000E+00
 -1        92-7.96891E-04 2.88732E-19 0.00000E+00
 -1        93-7.94398E-04 2.49822E-19 2.64698E-23
 -1        94-7.91904E-04 2.66762E-19 5.29396E-23
 -1        95-7.89417E-04 2.25231E-19-2.64698E-23
 -1        96-7.86929E-04 1.04450E-19 0.00000E+00
 -1        97-7.92828E-04-4.33166E-08 0.00000E+00
 -1        98-7.64339E-04-4.60534E-07 3.30872E-24
 -1        99-7.25475E-04-1.17777E-06 0.00000E+00
 -1       100-6.82866E-04-2.04679E-06 3.30872E-24
 -1       101-6.43136E-04-2.81261E-06 0.00000E+00
 -1       102-7.82513E-04 4.77118E-21 0.00000E+00
 -1       103-7.80525E-04 4.77780E-20 2.64698E-23
 -1       104-7.78537E-04 1.84693E-20 5.29396E-23
 -1       105-7.76547E-04-2.95204E-20-2.64698E-23
 -1       106-7.74557E-04-1.24779E-19-5.29396E-23
 -1       107-7.72572E-04-3.71702E-20 0.00000E+00
 -1       108-7.70586E-04 1.83237E-20 0.00000E+00
 -1       109-7.74023E-04-3.35392E-08 1.32349E-23
 -1       110-7.48083E-04-3.75689E-07 6.61744E-24
 -1       111-7.12610E-04-9.69518E-07 0.00000E+00
 -1       112-6.73574E-04-1.69437E-06-3.30872E-24
 -1       113-6.36937E-04-2.34013E-06 0.00000E+00
 -1       114-7.67122E-04 6.46458E-20 0.00000E+00
 -1       115-7.65595E-04 1.01287E-19 0.00000E+00
 -1       116-7.64069E-04 9.57412E-20 0.00000E+00
 -1       117-7.62541E-04 4.91544E-20 0.00000E+00
 -1       118-7.61013E-04-1.24580E-19 0.00000E+00
 -1       119-7.59489E-04-1.96551E-19 0.00000E+00
 -1       120-7.57964E-04-7.06809E-20-2.64698E-23
 -1       121-7.58962E-04-3.15723E-08 0.00000E+00
 -1       122-7.34924E-04-3.23757E-07 1.65436E-24
 -1       123-7.01974E-04-8.34688E-07 0.00000E+00
 -1       124-6.65581E-04-1.46221E-06-3.30872E-24
 -1       125-6.31207E-04-2.02733E-06 0.00000E+00
 -1       126-7.55381E-04-1.15630E-19 0.00000E+00
 -1       127-7.54289E-04-2.06398E-19 1.32349E-23
 -1       128-7.53196E-04-2.44204E-19 0.00000E+00
 -1       129-7.52103E-04-2.86019E-19 0.00000E+00
 -1       130-7.51010E-04-4.05626E-19 2.64698E-23
 -1       131-7.49919E-04-3.22640E-19 1.32349E-23
 -1       132-7.48827E-04-1.28603E-19 0.00000E+00
 -1       133-7.47337E-04 2.37516E-08-3.30872E-24
 -1       134-7.24626E-04-1.76365E-07 3.30872E-24
 -1       135-6.93445E-04-5.73512E-07-3.30872E-24
 -1       136-6.58914E-04-1.07676E-06-3.30872E-24
 -1       137-6.26148E-04-1.52793E-06-1.32349E-23
 -1       138-7.47075E-04-1.20054E-19 2.64698E-23
 -1       139-7.46403E-04-1.13039E-19 1.32349E-23
 -1       140-7.45730E-04-7.51676E-20 0.00000E+00
 -1       141-7.45059E-04-7.01912E-20-1.32349E-23
 -1       142-7.44388E-04-4.85853E-20 0.00000E+00
 -1       143-7.43719E-04-1.19296E-19-6.61744E-24
 -1       144-7.43050E-04-4.47538E-20-1.32349E-23
 -1       145-7.39007E-04 4.19539E-07-6.61744E-24
 -1       146-7.17261E-04 6.54313E-07 0.00000E+00
 -1       147-6.87361E-04 7.06400E-07-1.32349E-23
 -1       148-6.54124E-04 6.58751E-07 0.00000E+00
 -1       149-6.22344E-04 6.53360E-07 0.00000E+00
 -1       150-7.42132E-04-3.50137E-20-6.61744E-24
 -1       151-7.41871E-04-2.86982E-20 0.00000E+00
 -1       152-7.41610E-04-9.34913E-20 0.00000E+00
 -1       153-7.41350E-04-1.66218E-19 0.00000E+00
 -1       154-7.41090E-04-1.11913E-19 0.00000E+00
 -1       155-7.40832E-04-2.93988E-20-3.30872E-24
 -1       156-7.40573E-04 6.18094E-20 3.30872E-24
 -1       157-7.33768E-04-8.65422E-09-6.61744E-24
 -1       158-7.12288E-04-1.98252E-07 8.27181E-25
 -1       159-6.82776E-04-5.65314E-07-1.24077E-24
 -1       160-6.50058E-04-1.02605E-06 1.65436E-24
 -1       161-6.18956E-04-1.44101E-06 0.00000E+00
 -1       169-7.33344E-04-2.07363E-07 0.00000E+00
 -1       170-7.15202E-04-5.48869E-07 0.00000E+00
 -1       171-6.88986E-04-1.04971E-06 0.00000E+00
 -1       172-6.57809E-04-1.68368E-06-1.65436E-24
 -1       173-6.24793E-04-2.37175E-06 1.03398E-25
 -1       215-6.18748E-04-2.22607E-05 2.64698E-23
 -1       216-6.18436E-04-2.96561E-05 0.00000E+00
 -1       217-6.18077E-04-2.50831E-05 0.00000E+00
 -1       218-6.17766E-04-1.37601E-05 0.00000E+00
 -1       219-6.17469E-04-8.73348E-07 0.00000E+00
 -1       220-6.17139E-04 8.39757E-06 1.65436E-24
 -1       221-6.16790E-04 8.85508E-06-6.61744E-24
 -1       222-5.79570E-04 2.40862E-06 0.00000E+00
 -1       223-5.35924E-04 2.29061E-06-1.32349E-23
 -1       224-4.90759E-04 2.10959E-06 0.00000E+00
 -1       225-4.46976E-04 1.98414E-06-1.32349E-23
 -1       226-4.07487E-04 2.02456E-06 0.00000E+00
 -1       227-6.16191E-04-1.94365E-05 0.00000E+00
 -1       228-6.15695E-04-2.14888E-05 0.00000E+00
 -1       229-6.15200E-04-1.51146E-05-1.32349E-23
 -1       230-6.14734E-04-4.50840E-06 0.00000E+00
 -1       231-6.14268E-04 6.16149E-06-1.32349E-23
 -1       232-6.13773E-04 1.27273E-05-6.61744E-24
 -1       233-6.13275E-04 1.09954E-05 6.61744E-24
 -1       234-5.85208E-04-5.25933E-06 0.00000E+00
 -1       235-5.42489E-04-6.19227E-06 0.00000E+00
 -1       236-4.94261E-04-7.35012E-06-5.16988E-26
 -1       237-4.46400E-04-8.49259E-06 0.00000E+00
 -1       238-4.04778E-04-9.38470E-06 0.00000E+00
 -1       239-6.12456E-04-1.77512E-05 0.00000E+00
 -1       240-6.11890E-04-2.00073E-05 0.00000E+00
 -1       241-6.11323E-04-1.41062E-05 0.00000E+00
 -1       242-6.10783E-04-4.07433E-06 0.00000E+00
 -1       243-6.10243E-04 6.09118E-06 0.00000E+00
 -1       244-6.09678E-04 1.23938E-05 0.00000E+00
 -1       245-6.09110E-04 1.08097E-05-9.92617E-24
 -1       246-5.82112E-04-3.73084E-06 0.00000E+00
 -1       247-5.40000E-04-4.58582E-06-8.27181E-25
 -1       248-4.92361E-04-5.66340E-06-1.65436E-24
 -1       249-4.45003E-04-6.72969E-06 0.00000E+00
 -1       250-4.03734E-04-7.55407E-06 0.00000E+00
 -1       251-6.08191E-04-1.64830E-05 0.00000E+00
 -1       252-6.07615E-04-1.85652E-05 1.32349E-23
 -1       253-6.07039E-04-1.28742E-05 0.00000E+00
 -1       254-6.06487E-04-3.26627E-06 0.00000E+00
 -1       255-6.05935E-04 6.43035E-06 0.00000E+00
 -1       256-6.05360E-04 1.23882E-05-6.61744E-24
 -1       257-6.04783E-04 1.07527E-05 0.00000E+00
 -1       258-5.78791E-04-3.15694E-06 0.00000E+00
 -1       259-5.37326E-04-3.97744E-06-2.06795E-25
 -1       260-4.90112E-04-5.02628E-06 0.00000E+00
 -1       261-4.43011E-04-6.07105E-06-3.30872E-24
 -1       262-4.01886E-04-6.87979E-06 0.00000E+00
 -1       263-6.03879E-04-1.56372E-05 0.00000E+00
 -1       264-6.03341E-04-1.75836E-05 0.00000E+00
 -1       265-6.02803E-04-1.19965E-05 1.32349E-23
 -1       266-6.02287E-04-2.62163E-06-6.61744E-24
 -1       267-6.01773E-04 6.82045E-06 1.32349E-23
 -1       268-6.01235E-04 1.26097E-05 6.61744E-24
 -1       269-6.00696E-04 1.10016E-05 0.00000E+00
 -1       270-5.75044E-04-2.78580E-06 0.00000E+00
 -1       271-5.33969E-04-3.59097E-06-1.65436E-24
 -1       272-4.86999E-04-4.62832E-06 0.00000E+00
 -1       273-4.40051E-04-5.66512E-06 0.00000E+00
 -1       274-3.99044E-04-6.46823E-06 0.00000E+00
 -1       275-5.99893E-04-1.45444E-05 2.64698E-23
 -1       276-5.99433E-04-1.60552E-05 6.61744E-24
 -1       277-5.98976E-04-1.00985E-05-1.32349E-23
 -1       278-5.98543E-04-4.23049E-07 0.00000E+00
 -1       279-5.98109E-04 9.24441E-06 0.00000E+00
 -1       280-5.97651E-04 1.51769E-05-6.61744E-24
 -1       281-5.97190E-04 1.36256E-05 0.00000E+00
 -1       282-5.71329E-04-2.13960E-06 6.61744E-24
 -1       283-5.30308E-04-2.88892E-06 0.00000E+00
 -1       284-4.83234E-04-3.87637E-06 0.00000E+00
 -1       285-4.36153E-04-4.86396E-06 0.00000E+00
 -1       286-3.95108E-04-5.61397E-06 0.00000E+00
 -1       287-5.96563E-04-1.23421E-05 0.00000E+00
 -1       288-5.96221E-04-1.47091E-05-6.61744E-24
 -1       289-5.95874E-04-9.86606E-06 0.00000E+00
 -1       290-5.95549E-04-1.36857E-06-6.61744E-24
 -1       291-5.95225E-04 7.24448E-06 0.00000E+00
 -1       292-5.94883E-04 1.24348E-05 0.00000E+00
 -1       293-5.94541E-04 1.06486E-05 4.54949E-24
 -1       294-5.67692E-04 8.73838E-07 1.32349E-23
 -1       295-5.26354E-04 5.46182E-07-6.61744E-24
 -1       296-4.78931E-04-2.29111E-08-1.32349E-23
 -1       297-4.31523E-04-5.90151E-07 0.00000E+00
 -1       298-3.90230E-04-9.14958E-07 0.00000E+00
 -1       299-5.94157E-04-1.28741E-05 0.00000E+00
 -1       300-5.93949E-04-1.20096E-05-6.61744E-24
 -1       301-5.93759E-04-3.55295E-06 6.61744E-24
 -1       302-5.93596E-04 8.04705E-06 0.00000E+00
 -1       303-5.93422E-04 1.83515E-05-3.30872E-24
 -1       304-5.93213E-04 2.29182E-05 0.00000E+00
 -1       305-5.93031E-04 1.72881E-05 0.00000E+00
 -1       306-5.65592E-04-2.12930E-06 0.00000E+00
 -1       307-5.23847E-04-2.99666E-06-8.27181E-25
 -1       308-4.75464E-04-4.13042E-06 0.00000E+00
 -1       309-4.26861E-04-5.27195E-06 0.00000E+00
 -1       310-3.84458E-04-6.16214E-06 0.00000E+00
 -1       318-5.56229E-04-3.46363E-06-4.96308E-24
 -1       319-5.10236E-04-4.26178E-06 0.00000E+00
 -1       320-4.60658E-04-5.21485E-06-6.61744E-24
 -1       321-4.13075E-04-6.07322E-06 6.61744E-24
 -1       322-3.73075E-04-6.63347E-06-2.64698E-23
 -1       364-3.75372E-04-1.64770E-05 0.00000E+00
 -1       365-3.75352E-04-2.20719E-05 0.00000E+00
 -1       366-3.75306E-04-1.86125E-05 0.00000E+00
 -1       367-3.75285E-04-1.02268E-05 0.00000E+00
 -1       368-3.75270E-04-1.03756E-06 8.27181E-25
 -1       369-3.75234E-04 4.83341E-06 0.00000E+00
 -1       370-3.75198E-04 3.25987E-06 0.00000E+00
 -1       371-3.44586E-04 2.28043E-06 0.00000E+00
 -1       372-3.09431E-04 2.12870E-06-6.61744E-24
 -1       373-2.72273E-04 1.90962E-06 0.00000E+00
 -1       374-2.35611E-04 1.70621E-06 0.00000E+00
 -1       375-2.01941E-04 1.60052E-06-1.32349E-23
 -1       376-3.75212E-04-2.31323E-05 0.00000E+00
 -1       377-3.75067E-04-2.48210E-05-3.30872E-24
 -1       378-3.74925E-04-1.88057E-05 6.61744E-24
 -1       379-3.74807E-04-8.94239E-06-1.65436E-24
 -1       380-3.74689E-04 9.22004E-07-1.65436E-24
 -1       381-3.74546E-04 6.94043E-06 1.03398E-24
 -1       382-3.74400E-04 5.25694E-06 0.00000E+00
 -1       383-3.48069E-04-1.02784E-05 0.00000E+00
 -1       384-3.12262E-04-1.09311E-05 0.00000E+00
 -1       385-2.72396E-04-1.17224E-05 8.27181E-25
 -1       386-2.33040E-04-1.24951E-05 0.00000E+00
 -1       387-1.98764E-04-1.30994E-05 0.00000E+00
 -1       388-3.74202E-04-2.12929E-05 0.00000E+00
 -1       389-3.73951E-04-2.31310E-05 0.00000E+00
 -1       390-3.73700E-04-1.73358E-05 0.00000E+00
 -1       391-3.73473E-04-7.72587E-06 0.00000E+00
 -1       392-3.73246E-04 1.89428E-06-6.61744E-24
 -1       393-3.72995E-04 7.71971E-06 3.30872E-24
 -1       394-3.72743E-04 5.93216E-06-1.65436E-24
 -1       395-3.47216E-04-8.35166E-06 0.00000E+00
 -1       396-3.11539E-04-8.96602E-06 0.00000E+00
 -1       397-2.71865E-04-9.71626E-06 0.00000E+00
 -1       398-2.32745E-04-1.04467E-05 0.00000E+00
 -1       399-1.98732E-04-1.10091E-05 0.00000E+00
 -1       400-3.72324E-04-2.05681E-05 0.00000E+00
 -1       401-3.71955E-04-2.24489E-05 6.61744E-24
 -1       402-3.71587E-04-1.67533E-05 0.00000E+00
 -1       403-3.71242E-04-7.26775E-06 0.00000E+00
 -1       404-3.70897E-04 2.23966E-06-1.32349E-23
 -1       405-3.70528E-04 8.00121E-06-3.30872E-24
 -1       406-3.70159E-04 6.23071E-06 2.48154E-24
 -1       407-3.45636E-04-7.64675E-06-3.30872E-24
 -1       408-3.10284E-04-8.24102E-06-4.13590E-25
 -1       409-2.71008E-04-8.96738E-06 0.00000E+00
 -1       410-2.32291E-04-9.67431E-06 0.00000E+00
 -1       411-1.98617E-04-1.02169E-05 0.00000E+00
 -1       412-3.69493E-04-2.00266E-05 0.00000E+00
 -1       413-3.68994E-04-2.18771E-05-6.61744E-24
 -1       414-3.68495E-04-1.62147E-05 0.00000E+00
 -1       415-3.68019E-04-6.78507E-06 6.61744E-24
 -1       416-3.67543E-04 2.68933E-06-1.32349E-23
 -1       417-3.67044E-04 8.48643E-06-6.61744E-24
 -1       418-3.66543E-04 6.86112E-06 0.00000E+00
 -1       419-3.43252E-04-7.21539E-06 0.00000E+00
 -1       420-3.08403E-04-7.79134E-06 6.20385E-25
 -1       421-2.69715E-04-8.49463E-06 0.00000E+00
 -1       422-2.31569E-04-9.17979E-06 0.00000E+00
 -1       423-1.98347E-04-9.70678E-06 0.00000E+00
 -1       424-3.65590E-04-1.86458E-05 0.00000E+00
 -1       425-3.64938E-04-1.99002E-05 0.00000E+00
 -1       426-3.64292E-04-1.35775E-05-2.64698E-23
 -1       427-3.63669E-04-3.47690E-06 0.00000E+00
 -1       428-3.63047E-04 6.63290E-06 1.32349E-23
 -1       429-3.62398E-04 1.29829E-05 1.32349E-23
 -1       430-3.61743E-04 1.17741E-05 0.00000E+00
 -1       431-3.40008E-04-6.23889E-06-8.27181E-25
 -1       432-3.05854E-04-6.74576E-06-8.27181E-25
 -1       433-2.67942E-04-7.37478E-06 3.30872E-24
 -1       434-2.30543E-04-7.98764E-06 0.00000E+00
 -1       435-1.97928E-04-8.44970E-06 0.00000E+00
 -1       436-3.60433E-04-1.38901E-05 0.00000E+00
 -1       437-3.59589E-04-1.62244E-05 0.00000E+00
 -1       438-3.58742E-04-1.14869E-05 2.64698E-23
 -1       439-3.57912E-04-3.26017E-06-1.32349E-23
 -1       440-3.57082E-04 4.90868E-06 2.64698E-23
 -1       441-3.56235E-04 9.47206E-06 6.61744E-24
 -1       442-3.55393E-04 6.84587E-06 1.32349E-23
 -1       443-3.35565E-04-6.46305E-07 1.32349E-23
 -1       444-3.02546E-04-6.57923E-07 0.00000E+00
 -1       445-2.66036E-04-7.79665E-07-1.32349E-23
 -1       446-2.29936E-04-8.90046E-07 0.00000E+00
 -1       447-1.98148E-04-8.67842E-07 1.32349E-23
 -1       448-3.53705E-04-2.00896E-05 2.64698E-23
 -1       449-3.52628E-04-2.27024E-05 1.32349E-23
 -1       450-3.51546E-04-1.80284E-05-2.64698E-23
 -1       451-3.50482E-04-9.55866E-06 1.32349E-23
 -1       452-3.49420E-04-7.36215E-07 2.64698E-23
 -1       453-3.48340E-04 5.00027E-06 0.00000E+00
 -1       454-3.47256E-04 4.17291E-06-2.64698E-23
 -1       455-3.29160E-04-6.93412E-06-6.61744E-24
 -1       456-2.97087E-04-7.44880E-06 0.00000E+00
 -1       457-2.62051E-04-8.05337E-06 0.00000E+00
 -1       458-2.27670E-04-8.64022E-06 0.00000E+00
 -1       459-1.97559E-04-9.10265E-06 0.00000E+00
 -1       460-3.45131E-04-1.62942E-05 0.00000E+00
 -1       461-3.43933E-04-1.30612E-05 0.00000E+00
 -1       462-3.42786E-04-8.00557E-07 0.00000E+00
 -1       463-3.41711E-04 1.68753E-05-1.32349E-23
 -1       464-3.40665E-04 3.64314E-05 2.64698E-23
 -1       465-3.39594E-04 5.43581E-05 1.32349E-23
 -1       466-3.38456E-04 6.71225E-05 0.00000E+00
 -1       467-3.22936E-04-6.82597E-06-1.32349E-23
 -1       468-2.92096E-04-7.08898E-06 0.00000E+00
 -1       469-2.57879E-04-7.45049E-06 0.00000E+00
 -1       470-2.24431E-04-7.79229E-06-3.30872E-24
 -1       471-1.95898E-04-7.99789E-06 0.00000E+00
 -1       472-3.36582E-04 7.27383E-05 0.00000E+00
 -1       473-3.35900E-04 7.97777E-05-1.32349E-23
 -1       474-3.35241E-04 9.01566E-05 0.00000E+00
 -1       475-3.34596E-04 1.01811E-04-1.32349E-23
 -1       476-3.33944E-04 1.12687E-04 1.32349E-23
 -1       477-3.33269E-04 1.20725E-04-6.61744E-24
 -1       478-3.32573E-04 1.23843E-04 0.00000E+00
 -1       479-3.25443E-04 7.09823E-05-6.61744E-24
 -1       480-2.99620E-04 7.05801E-05-8.27181E-25
 -1       481-2.65911E-04 6.99763E-05 0.00000E+00
 -1       482-2.30433E-04 6.93113E-05 0.00000E+00
 -1       483-1.99300E-04 6.87722E-05 0.00000E+00
 -1       484-3.31591E-04 1.14023E-04 0.00000E+00
 -1       485-3.31264E-04 1.11816E-04 0.00000E+00
 -1       486-3.30933E-04 1.11825E-04 0.00000E+00
 -1       487-3.30602E-04 1.12576E-04-3.30872E-24
 -1       488-3.30271E-04 1.12601E-04-6.61744E-24
 -1       489-3.29945E-04 1.10428E-04 0.00000E+00
 -1       490-3.29636E-04 1.04576E-04-3.30872E-24
 -1       491-3.16469E-04 1.19657E-04 0.00000E+00
 -1       492-2.91090E-04 1.19189E-04 0.00000E+00
 -1       493-2.60245E-04 1.18586E-04 0.00000E+00
 -1       494-2.28433E-04 1.17952E-04 8.27181E-25
 -1       495-2.00155E-04 1.17412E-04-3.30872E-24
 -1       496-3.29368E-04 8.03811E-05 3.30872E-24
 -1       497-3.29337E-04 6.87493E-05 1.65436E-24
 -1       498-3.29297E-04 5.79000E-05 3.30872E-24
 -1       499-3.29258E-04 4.70738E-05-1.65436E-24
 -1       500-3.29226E-04 3.55112E-05-3.30872E-24
 -1       501-3.29214E-04 2.24524E-05-4.13590E-25
 -1       502-3.29233E-04 7.13542E-06 0.00000E+00
 -1       503-3.10722E-04 9.32397E-05-6.61744E-24
 -1       504-2.85867E-04 9.27900E-05 0.00000E+00
 -1       505-2.57616E-04 9.22585E-05 3.30872E-24
 -1       506-2.28781E-04 9.17102E-05-1.65436E-24
 -1       507-2.02175E-04 9.12180E-05-2.48154E-24
 -1       508-3.07272E-04-1.15831E-05-3.30872E-24
 -1       509-2.82626E-04-1.20269E-05 1.65436E-24
 -1       510-2.56545E-04-1.25045E-05-3.30872E-24
 -1       511-2.30213E-04-1.29888E-05 1.65436E-24
 -1       512-2.04814E-04-1.34506E-05 0.00000E+00
 -1       513-1.73932E-04-1.53522E-05-1.32349E-23
 -1       514-1.73965E-04-2.10276E-05 3.30872E-24
 -1       515-1.73970E-04-1.88783E-05 0.00000E+00
 -1       516-1.73992E-04-1.24107E-05 0.00000E+00
 -1       517-1.74017E-04-5.12898E-06 0.00000E+00
 -1       518-1.74030E-04-5.37603E-07 0.00000E+00
 -1       519-1.74044E-04-2.14259E-06 0.00000E+00
 -1       520-1.46257E-04 1.42352E-06-3.30872E-24
 -1       521-1.14630E-04 1.08659E-06-1.65436E-24
 -1       522-8.15404E-05 7.05571E-07 0.00000E+00
 -1       523-4.96377E-05 3.57052E-07 0.00000E+00
 -1       524-2.15729E-05 1.14629E-07 0.00000E+00
 -1       525-1.74206E-04-2.47618E-05 0.00000E+00
 -1       526-1.74214E-04-2.62220E-05 0.00000E+00
 -1       527-1.74223E-04-2.10931E-05 0.00000E+00
 -1       528-1.74251E-04-1.26533E-05-5.16988E-26
 -1       529-1.74280E-04-4.17896E-06 0.00000E+00
 -1       530-1.74290E-04 1.05349E-06 0.00000E+00
 -1       531-1.74297E-04-2.34068E-07 0.00000E+00
 -1       532-1.50526E-04-1.37368E-05 0.00000E+00
 -1       533-1.19282E-04-1.42247E-05 3.30872E-24
 -1       534-8.48716E-05-1.48062E-05-1.65436E-24
 -1       535-5.17794E-05-1.53494E-05 8.27181E-25
 -1       536-2.44895E-05-1.57364E-05 7.23783E-25
 -1       537-1.74429E-04-2.24941E-05 0.00000E+00
 -1       538-1.74419E-04-2.40341E-05 0.00000E+00
 -1       539-1.74410E-04-1.91385E-05 0.00000E+00
 -1       540-1.74418E-04-1.10194E-05 0.00000E+00
 -1       541-1.74426E-04-2.88653E-06 0.00000E+00
 -1       542-1.74417E-04 2.05038E-06 0.00000E+00
 -1       543-1.74407E-04 5.79165E-07 0.00000E+00
 -1       544-1.51245E-04-1.15765E-05 0.00000E+00
 -1       545-1.20750E-04-1.20223E-05 0.00000E+00
 -1       546-8.72223E-05-1.25554E-05 4.13590E-25
 -1       547-5.50070E-05-1.30499E-05 0.00000E+00
 -1       548-2.84479E-05-1.33963E-05-3.30872E-24
 -1       549-1.74504E-04-2.16252E-05 0.00000E+00
 -1       550-1.74478E-04-2.31774E-05 0.00000E+00
 -1       551-1.74452E-04-1.83466E-05 0.00000E+00
 -1       552-1.74443E-04-1.03210E-05 4.13590E-25
 -1       553-1.74435E-04-2.28644E-06 0.00000E+00
 -1       554-1.74409E-04 2.57196E-06 0.00000E+00
 -1       555-1.74383E-04 1.06561E-06 0.00000E+00
 -1       556-1.51512E-04-1.07608E-05 0.00000E+00
 -1       557-1.21278E-04-1.11936E-05 0.00000E+00
 -1       558-8.80494E-05-1.17115E-05 0.00000E+00
 -1       559-5.61206E-05-1.21901E-05 0.00000E+00
 -1       560-2.97870E-05-1.25236E-05 0.00000E+00
 -1       561-1.74460E-04-2.10388E-05 0.00000E+00
 -1       562-1.74432E-04-2.25255E-05 0.00000E+00
 -1       563-1.74404E-04-1.76266E-05 0.00000E+00
 -1       564-1.74395E-04-9.52451E-06 0.00000E+00
 -1       565-1.74385E-04-1.39863E-06 8.27181E-25
 -1       566-1.74357E-04 3.57170E-06 0.00000E+00
 -1       567-1.74328E-04 2.20420E-06 0.00000E+00
 -1       568-1.51434E-04-1.02448E-05 0.00000E+00
 -1       569-1.20999E-04-1.06834E-05 0.00000E+00
 -1       570-8.74681E-05-1.12105E-05-1.65436E-24
 -1       571-5.52002E-05-1.16973E-05 0.00000E+00
 -1       572-2.85543E-05-1.20372E-05 0.00000E+00
 -1       573-1.74430E-04-1.92231E-05 0.00000E+00
 -1       574-1.74436E-04-1.97390E-05 0.00000E+00
 -1       575-1.74449E-04-1.35869E-05 3.30872E-24
 -1       576-1.74484E-04-4.13472E-06 0.00000E+00
 -1       577-1.74519E-04 5.25150E-06 0.00000E+00
 -1       578-1.74529E-04 1.12057E-05 0.00000E+00
 -1       579-1.74534E-04 1.03596E-05 0.00000E+00
 -1       580-1.51104E-04-8.91300E-06 0.00000E+00
 -1       581-1.19776E-04-9.34785E-06 4.13590E-25
 -1       582-8.50628E-05-9.88216E-06-3.30872E-24
 -1       583-5.16502E-05-1.03720E-05 0.00000E+00
 -1       584-2.42274E-05-1.07009E-05 1.32349E-23
 -1       585-1.74729E-04-1.24594E-05 0.00000E+00
 -1       586-1.74806E-04-1.53299E-05 0.00000E+00
 -1       587-1.74874E-04-1.21900E-05 0.00000E+00
 -1       588-1.74957E-04-5.98393E-06 0.00000E+00
 -1       589-1.75040E-04 3.43731E-07 0.00000E+00
 -1       590-1.75113E-04 3.84835E-06 0.00000E+00
 -1       591-1.75190E-04 1.58581E-06 6.61744E-24
 -1       592-1.50606E-04-4.01056E-07 0.00000E+00
 -1       593-1.18258E-04-3.59033E-07 0.00000E+00
 -1       594-8.22929E-05-4.28439E-07 0.00000E+00
 -1       595-4.74355E-05-4.63665E-07 6.61744E-24
 -1       596-1.84169E-05-3.32283E-07-1.32349E-23
 -1       597-1.75514E-04-2.04261E-05 3.30872E-24
 -1       598-1.75639E-04-2.27705E-05 0.00000E+00
 -1       599-1.75761E-04-1.91498E-05 8.27181E-25
 -1       600-1.75896E-04-1.23183E-05-1.65436E-24
 -1       601-1.76034E-04-5.03321E-06-6.61744E-24
 -1       602-1.76160E-04-5.21493E-08 6.61744E-24
 -1       603-1.76280E-04-1.31151E-07-6.61744E-24
 -1       604-1.53085E-04-9.63429E-06 0.00000E+00
 -1       605-1.23453E-04-1.00673E-05 1.65436E-24
 -1       606-9.06063E-05-1.05915E-05-3.30872E-24
 -1       607-5.87260E-05-1.10935E-05 0.00000E+00
 -1       608-3.19920E-05-1.14599E-05 0.00000E+00
 -1       609-1.76643E-04-1.30034E-05 0.00000E+00
 -1       610-1.76863E-04-5.62092E-06 8.27181E-25
 -1       611-1.77158E-04 1.00443E-05-6.61744E-24
 -1       612-1.77521E-04 2.98756E-05 3.30872E-24
 -1       613-1.77886E-04 4.97515E-05-6.61744E-24
 -1       614-1.78183E-04 6.55499E-05 0.00000E+00
 -1       615-1.78405E-04 7.31542E-05 0.00000E+00
 -1       616-1.56761E-04-8.14025E-06 0.00000E+00
 -1       617-1.28340E-04-8.45506E-06 0.00000E+00
 -1       618-9.61299E-05-8.87224E-06 1.24077E-24
 -1       619-6.50927E-05-9.26042E-06-8.27181E-25
 -1       620-4.01926E-05-9.49741E-06 0.00000E+00
 -1       621-1.78759E-04 6.26882E-05 0.00000E+00
 -1       622-1.78883E-04 6.74436E-05-1.65436E-24
 -1       623-1.79051E-04 7.91741E-05 2.48154E-24
 -1       624-1.79259E-04 9.42968E-05-1.65436E-24
 -1       625-1.79466E-04 1.09227E-04 6.61744E-24
 -1       626-1.79628E-04 1.20382E-04 0.00000E+00
 -1       627-1.79750E-04 1.24178E-04-1.32349E-23
 -1       628-1.59229E-04 6.82471E-05 0.00000E+00
 -1       629-1.31128E-04 6.78353E-05 0.00000E+00
 -1       630-9.94952E-05 6.73302E-05-3.30872E-24
 -1       631-6.95155E-05 6.68691E-05 4.13590E-25
 -1       632-4.63748E-05 6.65660E-05-3.20532E-24
 -1       633-1.80020E-04 1.07176E-04-3.30872E-24
 -1       634-1.80094E-04 1.03849E-04 6.20385E-25
 -1       635-1.80159E-04 1.04745E-04-1.65436E-24
 -1       636-1.80226E-04 1.07529E-04 8.27181E-25
 -1       637-1.80292E-04 1.09863E-04-3.30872E-24
 -1       638-1.80357E-04 1.09415E-04 0.00000E+00
 -1       639-1.80443E-04 1.03849E-04 0.00000E+00
 -1       640-1.60444E-04 1.16808E-04 0.00000E+00
 -1       641-1.34135E-04 1.16423E-04 0.00000E+00
 -1       642-1.04967E-04 1.15966E-04 0.00000E+00
 -1       643-7.69458E-05 1.15539E-04 6.20385E-25
 -1       644-5.40733E-05 1.15228E-04-1.65436E-24
 -1       645-1.80749E-04 7.51951E-05 8.27181E-25
 -1       646-1.80853E-04 6.27190E-05 1.55096E-25
 -1       647-1.80934E-04 5.21954E-05 8.27181E-25
 -1       648-1.81007E-04 4.24034E-05 8.27181E-25
 -1       649-1.81085E-04 3.21219E-05 0.00000E+00
 -1       650-1.81183E-04 2.01305E-05 0.00000E+00
 -1       651-1.81319E-04 5.20860E-06 6.61744E-24
 -1       652-1.59758E-04 9.05704E-05 0.00000E+00
 -1       653-1.34933E-04 9.02150E-05 0.00000E+00
 -1       654-1.08462E-04 8.98208E-05 1.65436E-24
 -1       655-8.26872E-05 8.94434E-05 2.06795E-25
 -1       656-5.99516E-05 8.91334E-05 3.30872E-24
 -1       657-1.58832E-04-1.41587E-05 0.00000E+00
 -1       658-1.34909E-04-1.44828E-05 8.27181E-25
 -1       659-1.10602E-04-1.48158E-05 1.65436E-24
 -1       660-8.67579E-05-1.51380E-05-4.13590E-25
 -1       661-6.42234E-05-1.54316E-05 1.44757E-24
 -1       662-9.85002E-07-1.25963E-05 1.32349E-23
 -1       663-1.92615E-06-1.79839E-05 1.32349E-23
 -1       664-2.84747E-06-1.82034E-05-2.64698E-23
 -1       665-3.77428E-06-1.53559E-05 0.00000E+00
 -1       666-4.70312E-06-1.15727E-05 0.00000E+00
 -1       667-5.62667E-06-8.99514E-06 0.00000E+00
 -1       668-6.55134E-06-9.75311E-06 2.64698E-23
 -1       669-8.04447E-06-2.21848E-05-1.32349E-23
 -1       670-8.59062E-06-2.28961E-05-6.61744E-24
 -1       671-9.13743E-06-1.98846E-05 1.32349E-23
 -1       672-9.69058E-06-1.49909E-05 6.61744E-24
 -1       673-1.02436E-05-1.00666E-05 0.00000E+00
 -1       674-1.07884E-05-6.96302E-06 6.61744E-24
 -1       675-1.13323E-05-7.52173E-06 0.00000E+00
 -1       676-1.20831E-05-1.96810E-05 3.30872E-24
 -1       677-1.22598E-05-2.04744E-05-1.65436E-24
 -1       678-1.24368E-05-1.77045E-05 0.00000E+00
 -1       679-1.26188E-05-1.31494E-05 0.00000E+00
 -1       680-1.28005E-05-8.58940E-06 6.61744E-24
 -1       681-1.29754E-05-5.80523E-06-6.61744E-24
 -1       682-1.31501E-05-6.57488E-06 0.00000E+00
 -1       683-1.31768E-05-1.87501E-05 0.00000E+00
 -1       684-1.29886E-05-1.95267E-05 0.00000E+00
 -1       685-1.28010E-05-1.67748E-05 6.61744E-24
 -1       686-1.26175E-05-1.22702E-05 3.30872E-24
 -1       687-1.24337E-05-7.78407E-06 3.30872E-24
 -1       688-1.22438E-05-5.08751E-06 1.65436E-24
 -1       689-1.20538E-05-5.95651E-06 3.30872E-24
 -1       690-1.13578E-05-1.83664E-05 0.00000E+00
 -1       691-1.08000E-05-1.91989E-05 0.00000E+00
 -1       692-1.02428E-05-1.64555E-05 0.00000E+00
 -1       693-9.68923E-06-1.19041E-05 0.00000E+00
 -1       694-9.13563E-06-7.30054E-06-1.32349E-23
 -1       695-8.57645E-06-4.40035E-06 0.00000E+00
 -1       696-8.01622E-06-4.97054E-06 1.32349E-23
 -1       697-6.55601E-06-1.60457E-05-2.64698E-23
 -1       698-5.60104E-06-1.52166E-05 1.32349E-23
 -1       699-4.65353E-06-1.04348E-05-2.64698E-23
 -1       700-3.71380E-06-3.78648E-06 1.32349E-23
 -1       701-2.77356E-06 2.66312E-06-2.64698E-23
 -1       702-1.82931E-06 6.84636E-06 1.32349E-23
 -1       703-8.79856E-07 6.67085E-06-6.61744E-24
 -1       704-1.78077E-06-7.58472E-06 0.00000E+00
 -1       705-3.60650E-06-9.97436E-06 2.64698E-23
 -1       706-5.42506E-06-8.83368E-06 0.00000E+00
 -1       707-7.25698E-06-5.90610E-06 2.64698E-23
 -1       708-9.08972E-06-2.97038E-06 5.29396E-23
 -1       709-1.09170E-05-1.80545E-06 2.64698E-23
 -1       710-1.27505E-05-4.15484E-06 5.29396E-23
 -1       711-1.60715E-05-1.91830E-05 2.64698E-23
 -1       712-1.75509E-05-2.13131E-05-2.64698E-23
 -1       713-1.90259E-05-1.95945E-05-5.29396E-23
 -1       714-2.05081E-05-1.56151E-05-2.64698E-23
 -1       715-2.19921E-05-1.09997E-05 0.00000E+00
 -1       716-2.34686E-05-7.38355E-06 0.00000E+00
 -1       717-2.49421E-05-6.38624E-06 0.00000E+00
 -1       718-2.74444E-05-1.04518E-05 0.00000E+00
 -1       719-2.85235E-05-3.28928E-06 1.32349E-23
 -1       720-2.96483E-05 9.42731E-06 2.64698E-23
 -1       721-3.08135E-05 2.51454E-05 1.32349E-23
 -1       722-3.19843E-05 4.12792E-05 2.64698E-23
 -1       723-3.31219E-05 5.52376E-05 0.00000E+00
 -1       724-3.42131E-05 6.44533E-05 0.00000E+00
 -1       725-3.58619E-05 6.73488E-05-1.32349E-23
 -1       726-3.64928E-05 7.38365E-05-6.61744E-24
 -1       727-3.71481E-05 8.38594E-05-1.32349E-23
 -1       728-3.78179E-05 9.53628E-05-6.61744E-24
 -1       729-3.84819E-05 1.06283E-04 0.00000E+00
 -1       730-3.91207E-05 1.14562E-04 0.00000E+00
 -1       731-3.97378E-05 1.18155E-04 2.64698E-23
 -1       732-4.06304E-05 1.09908E-04 0.00000E+00
 -1       733-4.09028E-05 1.07944E-04-3.30872E-24
 -1       734-4.11721E-05 1.07847E-04-6.61744E-24
 -1       735-4.14409E-05 1.08287E-04 0.00000E+00
 -1       736-4.17101E-05 1.07937E-04 6.61744E-24
 -1       737-4.19818E-05 1.05471E-04-3.30872E-24
 -1       738-4.22696E-05 9.95674E-05-1.32349E-23
 -1       739-4.27445E-05 7.61224E-05-3.30872E-24
 -1       740-4.28824E-05 6.44159E-05 0.00000E+00
 -1       741-4.30147E-05 5.32162E-05 3.30872E-24
 -1       742-4.31474E-05 4.19371E-05 0.00000E+00
 -1       743-4.32876E-05 2.99924E-05 3.30872E-24
 -1       744-4.34430E-05 1.67970E-05 0.00000E+00
 -1       745-4.36237E-05 1.76620E-06 0.00000E+00
 -3
    1PSTEP                         2           1           1          
  100CL  101 1.000000000         641                     0    1           1
 -4  STRESS      6    1
 -5  SXX         1    4    1    1
 -5  SYY         1    4    2    2
 -5  SZZ         1    4    3    3
 -5  SXY         1    4    1    2
 -5  SYZ         1    4    2    3
 -5  SZX         1    4    3    1
 -1         1 4.92039E+06 2.56319E+06-1.15255E+04 2.03798E+06 5.82077E-10-1.28657E-08
 -1         2 5.96569E+06 6.02833E+05-1.27436E+04 1.37631E+06-1.16415E-09-7.59731E-09
 -1         3 4.91587E+06 5.66565E+05-9.70143E+03 1.19801E+06 3.78350E-09 3.30268E-09
 -1         4 3.97133E+06 4.64904E+05-8.14344E+03 1.07867E+06-1.16415E-09 4.48769E-08
 -1         5 3.11336E+06 3.77539E+05-7.03683E+03 9.88449E+05-4.09394E-09-4.83305E-09
 -1         6 2.32592E+06 3.50477E+05-6.28119E+03 9.28428E+05 2.25070E-09-3.93108E-08
 -1         7 1.62696E+06 6.19319E+05-4.29831E+03 8.92060E+05 4.48199E-09-3.94278E-08
 -1         8 8.27137E+05 2.06754E+05-5.52397E+03 8.74747E+05 7.11104E-09-1.97185E-08
 -1         9 3.00239E+05-6.40000E+04-5.29391E+03 8.33212E+05-7.52334E-09 1.30915E-07
 -1        14 8.13538E+05 1.73257E+06-2.01493E+04 2.82304E+06 2.52233E-10 1.62011E-08
 -1        15 8.43338E+05-5.92712E+04-3.16817E+04 3.11920E+06 5.76256E-09-1.23709E-08
 -1        16 9.57026E+05 6.53692E+04-2.48135E+04 2.82093E+06-5.92263E-09 8.37531E-09
 -1        17 9.84502E+05 8.58620E+04-2.19757E+04 2.69399E+06 2.33849E-08-8.48513E-09
 -1        18 9.49333E+05 8.93862E+04-1.97931E+04 2.59488E+06 1.76187E-08-9.86688E-09
 -1        19 8.75347E+05 1.58417E+05-1.83020E+04 2.55147E+06 5.46788E-09-3.96690E-08
 -1        20 8.14696E+05 6.85884E+05-1.45707E+04 2.51374E+06-3.22070E-08 1.77024E-08
 -1        21 5.82531E+05 6.92342E+04-1.80876E+04 2.61986E+06-2.40943E-08-3.01302E-08
 -1        22 4.47503E+05-1.28368E+03-1.49365E+04 2.38991E+06-1.58810E-08-3.19235E-08
 -1        27 3.27832E+05 1.05539E+06-5.38539E+03 1.77383E+06 1.12535E-09 2.04379E-08
 -1        28 3.48268E+05-2.99924E+04-1.50963E+04 2.49799E+06 7.88714E-09 2.75213E-09
 -1        29 4.90250E+05 4.15269E+04-1.41226E+04 2.45221E+06-3.24508E-09-2.04004E-08
 -1        30 6.31692E+05 6.97463E+04-1.40592E+04 2.44563E+06 2.60698E-08-9.14451E-09
 -1        31 7.86548E+05 9.05822E+04-1.38792E+04 2.43419E+06 2.01617E-08 8.64975E-09
 -1        32 9.73537E+05 1.79486E+05-1.37760E+04 2.44721E+06 6.63567E-09-1.67915E-08
 -1        33 1.25971E+06 7.77122E+05-1.06426E+04 2.41868E+06-3.22143E-08 1.80593E-08
 -1        34 1.44128E+06 1.36147E+05-1.26494E+04 2.35202E+06-2.93367E-08 2.40236E-08
 -1        35 1.71262E+06 4.81363E+05-9.36600E+03 2.34374E+06 6.31917E-09-2.63238E-08
 -1        36 1.77633E+06 1.97666E+05-1.03364E+04 2.16140E+06-3.58947E-10-1.17822E-08
 -1        37 9.57907E+05-1.09874E+04-5.60494E+03 1.46492E+06-8.47892E-09-1.53192E-08
 -1        38 3.97016E+05-9.33519E+04-2.45724E+03 9.09921E+05-7.04604E-08-8.54379E-09
 -1        39 1.24990E+05-1.92425E+05-1.27019E+03 5.20935E+05-1.99841E-07-3.51298E-08
 -1        40 1.92050E+05 4.75972E+05-1.91388E+03 1.58249E+06-2.92979E-09 2.02575E-09
 -1        41 1.56798E+05-2.94779E+04-8.16921E+03 2.14460E+06 1.80080E-09-1.00040E-08
 -1        42 1.71462E+05 6.44527E+03-8.66638E+03 2.08540E+06-7.18865E-09-5.23778E-09
 -1        43 1.89623E+05 1.62575E+04-9.73675E+03 2.05822E+06 1.74259E-08 2.19945E-08
 -1        44 1.99193E+05 1.68267E+04-1.10445E+04 2.04920E+06 1.30094E-08 6.51187E-09
 -1        45 1.88738E+05 6.29717E+04-1.30801E+04 2.10501E+06 2.36105E-09 1.19043E-08
 -1        46 1.99879E+05 6.71097E+05-6.63667E+03 2.05477E+06-3.26072E-08 3.25929E-09
 -1        47 1.00337E+04-3.33728E+04-4.94112E+03 1.82513E+06-2.41453E-08 8.46921E-09
 -1        48-1.23694E+04 1.72618E+05-8.53658E+03 2.16797E+06 2.79033E-09-2.89333E-10
 -1        49-5.49897E+03-5.47334E+04-1.47831E+04 2.56650E+06 2.26282E-08 1.06591E-08
 -1        50 3.92336E+03-1.41048E+05-8.97585E+03 1.94631E+06 5.36420E-08-6.11203E-09
 -1        51-6.08077E+03-1.61060E+05-3.69374E+03 1.17485E+06-9.17153E-08 1.02659E-08
 -1        52-2.56279E+03-2.02539E+05-1.30620E+03 5.82208E+05-1.99927E-07 2.70153E-08
 -1        53-1.06274E+06 2.99108E+04-5.05074E+03 1.27561E+06-2.45063E-09 7.29415E-10
 -1        54-1.23200E+06-8.12748E+04-7.19397E+03 1.51114E+06 1.32059E-09 4.87004E-09
 -1        55-5.69956E+05-1.24821E+04-5.74364E+03 1.43116E+06-7.79088E-09 4.10364E-09
 -1        56 7.81597E+04 4.34564E+04-5.32834E+03 1.41912E+06 1.56616E-08 5.29690E-09
 -1        57 7.29560E+05 9.67127E+04-5.19960E+03 1.43705E+06 7.94838E-09 6.12151E-09
 -1        58 1.42106E+06 1.85903E+05-4.42824E+03 1.56517E+06-4.47896E-09 1.55220E-09
 -1        59-6.09723E+05 4.22574E+05-6.17913E+03 1.56790E+06-1.73550E-08-6.93641E-09
 -1        60-2.85452E+06-2.17884E+05-8.30158E+03 1.32367E+06-2.29141E-08 1.62496E-09
 -1        61-2.14488E+06-5.87504E+04-8.01361E+03 1.61564E+06-1.00319E-08 2.25555E-09
 -1        62-1.40465E+06-6.08284E+04-8.37048E+03 1.73732E+06 8.19712E-09 4.99616E-09
 -1        63-7.29593E+05-6.95448E+04-4.61036E+03 1.31848E+06 3.52802E-08-4.30737E-09
 -1        64-2.75148E+05-7.35620E+04-1.41937E+03 7.64669E+05-1.04001E-07-1.15930E-09
 -1        65-7.94193E+04-8.34433E+04 6.06147E+01 3.86342E+05-2.40698E-07 1.87174E-09
 -1        66 1.05867E+07-8.72120E+04 3.27150E+05-5.71308E-08-4.74617E-09 1.81899E-09
 -1        67 1.07082E+07 1.12777E+05 2.23363E+05 4.35231E-07-1.91252E-10-5.78584E-08
 -1        68 1.06359E+07-1.10520E+04 1.09387E+05 2.63602E-07 2.30841E-09 1.45155E-08
 -1        69 1.06610E+07 2.67514E+04 1.05134E+05 5.18690E-07-2.96668E-09 1.91819E-08
 -1        70 1.06346E+07-1.28437E+04 1.22486E+05 3.43997E-07-2.57475E-09-5.35001E-08
 -1        71 1.07211E+07 1.35650E+05 2.64923E+05-4.55795E-07 1.22718E-08 1.27766E-08
 -1        72 1.05748E+07-1.05288E+05 3.93483E+05-5.55756E-07-8.98801E-11-1.24710E-08
 -1        73-5.08372E+04 3.68028E+06-4.25806E+05 7.77095E+05 3.49246E-10-2.85218E-08
 -1        74 1.69847E+05 3.58730E+06-1.61508E+05 4.02036E+06-4.94765E-10-6.99656E-08
 -1        75 7.22275E+04 3.56609E+06-5.19998E+04 8.24604E+05-1.10686E-09-4.97239E-08
 -1        76 4.10625E+05 3.30998E+06 4.64437E+04 3.95422E+06-1.70257E-09 4.39941E-08
 -1        77 1.16419E+04 3.54318E+06 8.28741E+04 8.23542E+05-4.22006E-10 1.75787E-08
 -1        78 8.75294E+06-6.02329E+04 2.26031E+05 4.57239E-08-9.04010E-09 1.89175E-08
 -1        79 8.83672E+06 7.80218E+04 1.55520E+05 1.88413E-07 4.75414E-09-2.92657E-08
 -1        80 8.78670E+06-7.79582E+03 7.84173E+04-1.43384E-07-7.49993E-09-5.19831E-08
 -1        81 8.80522E+06 2.02615E+04 7.94192E+04 2.62399E-07 1.05491E-08 3.22937E-08
 -1        82 8.78488E+06-1.03070E+04 9.67266E+04-1.90962E-07 4.25277E-10 3.92902E-09
 -1        83 8.85487E+06 1.10055E+05 2.13657E+05-8.80038E-07-7.09901E-09 1.07168E-07
 -1        84 8.73628E+06-8.55687E+04 3.18763E+05-4.44406E-07 6.48808E-09 5.58794E-08
 -1        85 4.37740E+04-2.38086E+05-7.17355E+05 7.09815E+05 7.74162E-09-4.65370E-08
 -1        86 6.64032E+04-4.92179E+05-3.81241E+05 4.13421E+06 1.10012E-08-2.32394E-08
 -1        87 8.83228E+04-3.85720E+05-1.72015E+05 6.99176E+05 1.20790E-08 2.10566E-08
 -1        88 3.09646E+05-6.51174E+05-1.19998E+05 4.12652E+06 1.81972E-08 8.71132E-08
 -1        89 2.34566E+04-3.69830E+05-1.50252E+05 7.05821E+05 1.04756E-08-1.89175E-09
 -1        90 7.14695E+06-4.61363E+04 1.73096E+05 2.23537E-07 1.47670E-09 3.43862E-08
 -1        91 7.21106E+06 5.98134E+04 1.19592E+05 2.01291E-07 1.21898E-08 9.18935E-08
 -1        92 7.17268E+06-6.04113E+03 6.12230E+04 7.07258E-08-8.71458E-09 5.63869E-08
 -1        93 7.18736E+06 1.62763E+04 6.36527E+04-1.64077E-07 2.25830E-09-5.74062E-08
 -1        94 7.17091E+06-8.50419E+03 7.91408E+04 2.02250E-07 6.95800E-09 1.77752E-08
 -1        95 7.22886E+06 9.12128E+04 1.76523E+05-1.05327E-07 1.09903E-08 5.49717E-08
 -1        96 7.13067E+06-7.09843E+04 2.63872E+05-1.09674E-07 2.22500E-09 1.86265E-09
 -1        97 3.47997E+04 7.73295E+04-5.70319E+05 6.23627E+05-3.73984E-08 4.38595E-08
 -1        98 4.48648E+04-1.16905E+05-3.04947E+05 3.59568E+06-1.76315E-08 8.90577E-09
 -1        99 6.83618E+04-3.94927E+04-1.40278E+05 6.18658E+05-6.44659E-08-5.84769E-08
 -1       100 2.38883E+05-2.57936E+05-1.03083E+05 3.58795E+06-2.99042E-08-2.41052E-08
 -1       101 2.80403E+04-2.77919E+04-1.25498E+05 6.22346E+05-4.97603E-08-3.47936E-08
 -1       102 5.69968E+06-3.53747E+04 1.32688E+05 4.88248E-07-7.13887E-09 3.03335E-08
 -1       103 5.74879E+06 4.58951E+04 9.19997E+04 4.44741E-07 1.05427E-08-5.37948E-08
 -1       104 5.71932E+06-4.67844E+03 4.77055E+04-1.60466E-07 2.24983E-09 5.03060E-08
 -1       105 5.73092E+06 1.29842E+04 5.06734E+04-7.43201E-07 4.06844E-09 8.47765E-08
 -1       106 5.71771E+06-6.92703E+03 6.40298E+04-4.33925E-07-5.61249E-09 7.41693E-08
 -1       107 5.76504E+06 7.45429E+04 1.43898E+05 6.63167E-08 1.09546E-08-2.77487E-08
 -1       108 5.68486E+06-5.80531E+04 2.15420E+05-3.36562E-07-2.63132E-09 2.41271E-08
 -1       109 2.54629E+04 7.42795E+04-4.63393E+05 5.61961E+05 6.31553E-09-6.62403E-08
 -1       110 3.79932E+04-7.98338E+04-2.48402E+05 3.23774E+06 2.17988E-08 1.67929E-08
 -1       111 5.60479E+04-2.05157E+04-1.18330E+05 5.57772E+05 4.73210E-09-7.92352E-09
 -1       112 1.92156E+05-2.07485E+05-9.54341E+04 3.23193E+06 3.18905E-08-2.19370E-08
 -1       113 3.02391E+04-8.92336E+03-1.19136E+05 5.60662E+05 2.13186E-09-6.22967E-08
 -1       114 4.37375E+06-2.53347E+04 9.50545E+04-5.19477E-07-1.64415E-09 4.62351E-08
 -1       115 4.40889E+06 3.29064E+04 6.62149E+04-5.62766E-07 1.44304E-08 1.58279E-08
 -1       116 4.38774E+06-3.39465E+03 3.49197E+04-1.30932E-07-1.46055E-08 2.84836E-08
 -1       117 4.39637E+06 9.77953E+03 3.80940E+04-9.76582E-08 1.41095E-08 7.28255E-09
 -1       118 4.38635E+06-5.34782E+03 4.90732E+04-2.35231E-07-2.32332E-09 1.38843E-08
 -1       119 4.42300E+06 5.77783E+04 1.11235E+05-1.14230E-07-4.66237E-09-7.71688E-08
 -1       120 4.36090E+06-4.50326E+04 1.66801E+05 1.93952E-07 8.90774E-10-2.18279E-09
 -1       121 1.34180E+04 6.63635E+04-3.69292E+05 5.15281E+05 3.18687E-08-6.37374E-09
 -1       122 4.05933E+04-5.22728E+04-1.95452E+05 2.96697E+06 7.39165E-08-4.70027E-08
 -1       123 4.67660E+04-1.02509E+04-9.65769E+04 5.11536E+05 6.11471E-08-7.04968E-08
 -1       124 1.62843E+05-1.73312E+05-8.35794E+04 2.96242E+06 9.32778E-08-4.10537E-08
 -1       125 3.00859E+04 7.66199E+02-1.08023E+05 5.13922E+05 5.02441E-08 9.60426E-10
 -1       126 3.12825E+06-1.41760E+04 5.31061E+04-1.11773E-07-3.49054E-09 6.15146E-08
 -1       127 3.14783E+06 1.84016E+04 3.69493E+04-8.88958E-08-1.62785E-10 1.66910E-08
 -1       128 3.13607E+06-1.89380E+03 1.93880E+04 2.76398E-07-1.17794E-08 7.22653E-08
 -1       129 3.14079E+06 5.40504E+03 2.10165E+04 1.56688E-07-8.10615E-09 2.48907E-08
 -1       130 3.13533E+06-2.93894E+03 2.69474E+04 4.31966E-07 8.80644E-09 8.40164E-08
 -1       131 3.15538E+06 3.17033E+04 6.10080E+04 4.66945E-07-6.31582E-09-5.54701E-09
 -1       132 3.12140E+06-2.47158E+04 9.14315E+04 2.12556E-07-9.94450E-10-6.98819E-08
 -1       133-3.56196E+03 2.28580E+05-2.73419E+05 4.86503E+05-1.06229E-09-9.38307E-08
 -1       134 5.49090E+04 1.45739E+05-1.36832E+05 2.78487E+06 2.37706E-08 1.56579E-08
 -1       135 3.94409E+04 1.68681E+05-6.99430E+04 4.84696E+05 5.05315E-09-3.35349E-08
 -1       136 1.50145E+05 2.64152E+04-6.14783E+04 2.77977E+06 2.26792E-08 8.79481E-09
 -1       137 2.57669E+04 1.77781E+05-8.44122E+04 4.86451E+05 8.34007E-09-3.68891E-08
 -1       138 1.92797E+06 5.23118E+03-1.82039E+04 4.85825E-07-2.74907E-10-6.00676E-08
 -1       139 1.92089E+06-6.34378E+03-9.65339E+03-1.69876E-07 5.23162E-09-4.16401E-08
 -1       140 1.92474E+06 2.76875E+02 8.14878E+02-2.60880E-07-1.57342E-09 3.62070E-09
 -1       141 1.92618E+06 2.67805E+03 1.03955E+04-5.64694E-09-1.49201E-08 3.23407E-08
 -1       142 1.92266E+06-2.67155E+03 2.21043E+04-1.98903E-07 1.00707E-08 6.27970E-08
 -1       143 1.94218E+06 3.11627E+04 5.81351E+04-1.57195E-07-1.42060E-08-7.34417E-09
 -1       144 1.90868E+06-2.44969E+04 8.97612E+04 2.22450E-07-2.90745E-09 2.67719E-08
 -1       145-3.85561E+04 1.39701E+06-1.18388E+05 4.82492E+05-3.23780E-08 6.25732E-09
 -1       146 9.66142E+04 1.37313E+06-3.25371E+04 2.66364E+06-9.53296E-08 4.10364E-08
 -1       147 3.05363E+04 1.36045E+06-1.54849E+04 4.92037E+05-6.75482E-08-5.32091E-08
 -1       148 1.63554E+05 1.24850E+06 1.75589E+03 2.64964E+06-1.14356E-07-5.99002E-08
 -1       149 9.07364E+03 1.36099E+06-7.69948E+03 4.91712E+05-5.88243E-08-4.07745E-08
 -1       150 7.48296E+05 4.66320E+03-1.64882E+04 3.54949E-07 5.80755E-09-1.20144E-09
 -1       151 7.41997E+05-5.74287E+03-9.39191E+03 1.33332E-07 4.12211E-09-4.08891E-08
 -1       152 7.45491E+05 3.31291E+02-8.66276E+02-1.65326E-07 1.39495E-09-5.83441E-10
 -1       153 7.46172E+05 1.45260E+03 5.62903E+03-2.50449E-07 1.91652E-08 1.76344E-08
 -1       154 7.44111E+05-1.63037E+03 1.32762E+04 2.27062E-08 7.23836E-09 6.22185E-09
 -1       155 7.56161E+05 1.92014E+04 3.56593E+04-1.09359E-07 9.37603E-10-2.31539E-08
 -1       156 7.35490E+05-1.51130E+04 5.52581E+04-1.73081E-08 1.36062E-08 3.72675E-08
 -1       157-3.66380E+04 1.64425E+05-1.21735E+05 4.58241E+05-4.67699E-08-6.03031E-08
 -1       158 9.19497E+04 1.37498E+05-3.94103E+04 2.62364E+06-1.51704E-08-1.97324E-08
 -1       159 3.05630E+04 1.29259E+05-2.47608E+04 4.55963E+05-8.14471E-08-1.17652E-08
 -1       160 1.47964E+05 1.30589E+04-2.08841E+04 2.61974E+06-3.35640E-08-3.58632E-08
 -1       161 1.58568E+04 1.35476E+05-4.28169E+04 4.57686E+05-6.65309E-08-1.11759E-08
 -1       169-3.01840E+04-4.64172E+05-9.57950E+04 2.85782E+05 2.27810E-08 2.25555E-08
 -1       170 3.75420E+04-4.47015E+05-3.87679E+04 1.67319E+06 6.63422E-08-3.95448E-08
 -1       171 1.17368E+04-4.87280E+05-3.64942E+04 2.78575E+05 6.24204E-08 2.54659E-09
 -1       172 7.61510E+04-5.81064E+05-4.93816E+04 1.67714E+06 8.28149E-08-1.45683E-08
 -1       173 3.69576E+04-4.82655E+05-7.13436E+04 2.77494E+05 7.46586E-08 2.77905E-08
 -1       215 1.14264E+06-1.09068E+05-2.00312E+05 4.80654E+05 6.69388E-10 2.85127E-08
 -1       216 1.32844E+06-7.31997E+04-5.47203E+04 2.84423E+06 4.83124E-09 2.20025E-08
 -1       217 1.08472E+06-1.36521E+03-3.28684E+04 4.96019E+05-1.78989E-09-1.18234E-09
 -1       218 1.04494E+06 5.54469E+04-1.47798E+03 2.83210E+06 1.56360E-08 3.42698E-09
 -1       219 1.07538E+06 1.00492E+04 6.85957E+03 4.97931E+05-2.32831E-09-4.36412E-08
 -1       220 1.22024E+06 2.91704E+04 4.11443E+04 2.83860E+06 6.75209E-09-5.16302E-08
 -1       221 1.09678E+06-1.02050E+05-1.13026E+04 4.88619E+05-3.55067E-09-3.56449E-08
 -1       222 1.84949E+04 2.26584E+06-4.90960E+03 3.66978E+05 6.61203E-10 7.37855E-08
 -1       223 1.40920E+05 2.16476E+06 1.34653E+04 1.67557E+06-1.30967E-10 2.82098E-08
 -1       224 2.55260E+04 2.26074E+06 2.43402E+04 3.69610E+05-8.04903E-10-9.54969E-09
 -1       225 1.61579E+05 2.21650E+06 6.60995E+04 1.68382E+06-5.45697E-10-6.90270E-08
 -1       226-2.61386E+04 2.25448E+06 8.07679E+04 3.61048E+05 2.48110E-09-3.32948E-08
 -1       227 1.50508E+06-9.74346E+04 3.98864E+04 3.91127E+05-5.38421E-09-3.01225E-08
 -1       228 1.64233E+06 2.70189E+04 6.86187E+04 2.29632E+06 2.99042E-09-1.59198E-08
 -1       229 1.49548E+06 3.50789E+02 2.51168E+04 4.04469E+05-1.20199E-08 4.71082E-08
 -1       230 1.47436E+06 4.74600E+04 2.69471E+04 2.28388E+06 3.18823E-09-4.28190E-09
 -1       231 1.49573E+06 1.52612E+03 2.06381E+04 4.04576E+05 1.66619E-09-9.24992E-08
 -1       232 1.63297E+06 2.01925E+04 5.33476E+04 2.29592E+06-1.30676E-08 3.73038E-08
 -1       233 1.50880E+06-8.91106E+04 1.67658E+04 3.91491E+05 9.66247E-09 3.86008E-08
 -1       234 2.39307E+03-1.36804E+05-1.00493E+05 5.48650E+05 1.01718E-08 6.17874E-08
 -1       235 2.52070E+05-3.22914E+05-3.08237E+04 3.17479E+06 1.62690E-08 1.24965E-08
 -1       236 5.94932E+04-1.65084E+05-1.64434E+04 5.42717E+05 1.20381E-08-1.20872E-08
 -1       237 2.58878E+05-2.97458E+05-9.28335E+03 3.17524E+06 1.63564E-08-2.83944E-08
 -1       238-1.75592E+04-1.41018E+05-6.67330E+04 5.49317E+05 1.15851E-08-1.03028E-08
 -1       239 1.70115E+06-9.08630E+04 3.66664E+04 3.74661E+05-3.78350E-09-1.89175E-10
 -1       240 1.83030E+06 2.37676E+04 6.40544E+04 2.20655E+06-1.08412E-09-4.04543E-08
 -1       241 1.69207E+06-9.00361E+01 2.41809E+04 3.89338E+05 1.54469E-08 4.34320E-08
 -1       242 1.67337E+06 4.38841E+04 2.73837E+04 2.19257E+06-5.00791E-10 7.10497E-08
 -1       243 1.69176E+06 1.10012E+03 2.36440E+04 3.89612E+05-7.03585E-09 1.30276E-08
 -1       244 1.81993E+06 2.49696E+04 6.03166E+04 2.20569E+06-1.58616E-08 5.41331E-09
 -1       245 1.70097E+06-8.59450E+04 3.31511E+04 3.75432E+05 1.58616E-08 5.44242E-09
 -1       246 4.87812E+03 1.64989E+04-1.11134E+05 5.48418E+05-6.11399E-08 5.12227E-09
 -1       247 2.41741E+05-1.68643E+05-3.87766E+04 3.14736E+06-2.85072E-08 9.71340E-09
 -1       248 5.90581E+04-1.33134E+04-2.07506E+04 5.43584E+05-7.25231E-08 1.85501E-08
 -1       249 2.51453E+05-1.46771E+05-1.49225E+04 3.14772E+06-3.75003E-08 2.55677E-08
 -1       250-1.42281E+04 1.07551E+04-7.16091E+04 5.48890E+05-4.55930E-08-3.30911E-08
 -1       251 1.72181E+06-8.37301E+04 3.70975E+04 3.58881E+05 3.08501E-09 4.05998E-09
 -1       252 1.84039E+06 2.32658E+04 6.10605E+04 2.11368E+06 6.72298E-09 6.40284E-10
 -1       253 1.71404E+06-7.37068E+01 2.37240E+04 3.73085E+05-1.09503E-08 5.18630E-08
 -1       254 1.69741E+06 4.06837E+04 2.70859E+04 2.10014E+06-1.41740E-08-2.57569E-09
 -1       255 1.71373E+06 5.30134E+02 2.44900E+04 3.73249E+05-8.41101E-09 1.91903E-08
 -1       256 1.83489E+06 2.59850E+04 6.22088E+04 2.11295E+06 6.49743E-09 1.82627E-09
 -1       257 1.72070E+06-8.21480E+04 4.04813E+04 3.59567E+05 3.63798E-09-1.67202E-08
 -1       258 2.65346E+03 4.44323E+04-1.16808E+05 5.54605E+05 6.18820E-09-6.87141E-08
 -1       259 2.39090E+05-1.37792E+05-4.23285E+04 3.17836E+06 3.46554E-08 1.49885E-09
 -1       260 5.98629E+04 1.33286E+04-2.48702E+04 5.49842E+05 6.07179E-09 3.71983E-09
 -1       261 2.48272E+05-1.25953E+05-2.39733E+04 3.17843E+06 3.76021E-08-1.68366E-08
 -1       262-9.67576E+03 3.91508E+04-8.46964E+04 5.54864E+05 4.55111E-09-3.19269E-08
 -1       263 1.60927E+06-7.77226E+04 3.13050E+04 3.49070E+05-1.60653E-08-8.79663E-09
 -1       264 1.71909E+06 2.09413E+04 5.49464E+04 2.05178E+06 8.56380E-09 2.20025E-08
 -1       265 1.60143E+06 1.43678E+02 2.10916E+04 3.61752E+05 7.53062E-09 4.16894E-08
 -1       266 1.58534E+06 3.81823E+04 2.42209E+04 2.03971E+06 2.10430E-08 2.03254E-08
 -1       267 1.60122E+06 6.18677E+02 2.14366E+04 3.61875E+05 2.34286E-09 2.83690E-08
 -1       268 1.71484E+06 2.25550E+04 5.50951E+04 2.05132E+06-2.02126E-08-3.50701E-09
 -1       269 1.60865E+06-7.62543E+04 3.26825E+04 3.49483E+05-1.51340E-09-2.73685E-08
 -1       270-9.21029E+01 4.59863E+04-1.16739E+05 5.60033E+05 6.35191E-08 1.42027E-08
 -1       271 2.39681E+05-1.33526E+05-4.27742E+04 3.20923E+06 1.11322E-07-7.05768E-10
 -1       272 6.06853E+04 1.47795E+04-2.83114E+04 5.55178E+05 8.07740E-08 2.63694E-08
 -1       273 2.44617E+05-1.29417E+05-3.39765E+04 3.20919E+06 1.17150E-07-4.59113E-08
 -1       274-5.25787E+03 4.31833E+04-1.00814E+05 5.60129E+05 6.05487E-08-3.75439E-08
 -1       275 1.38315E+06-7.11636E+04 1.06402E+04 3.50451E+05-5.82077E-11-2.60261E-08
 -1       276 1.48230E+06 1.54034E+04 3.95061E+04 2.05077E+06-9.02219E-09-1.31477E-08
 -1       277 1.37250E+06 1.40937E+03 1.18997E+04 3.60873E+05-1.06083E-08-3.10010E-08
 -1       278 1.35298E+06 3.61268E+04 1.20673E+04 2.04101E+06 2.24486E-08-6.03504E-08
 -1       279 1.37331E+06 2.47229E+03 3.77837E+03 3.60870E+05 1.40062E-08 1.41517E-09
 -1       280 1.47472E+06 9.67579E+02 1.37538E+04 2.05088E+06 3.09956E-09 2.18279E-10
 -1       281 1.39054E+06-6.00447E+04-3.05075E+04 3.50289E+05 1.29221E-08 7.89441E-10
 -1       282-6.12298E+03 2.00603E+05-1.04542E+05 5.78094E+05 2.23008E-09 6.47560E-08
 -1       283 2.50508E+05 2.49683E+04-3.40532E+04 3.28597E+06 3.69109E-08 1.49557E-08
 -1       284 6.23697E+04 1.70736E+05-2.70378E+04 5.74125E+05 1.04919E-08 9.83164E-10
 -1       285 2.48097E+05 2.31217E+04-3.82720E+04 3.28599E+06 2.94967E-08-2.69829E-08
 -1       286-3.70722E+03 2.01967E+05-1.12220E+05 5.78053E+05 1.09867E-08-1.79280E-08
 -1       287 1.05365E+06-4.72705E+04-5.83373E+04 3.31902E+05-6.54836E-10 5.03314E-09
 -1       288 1.12283E+06-1.30819E+04-7.06576E+03 1.94002E+06-3.39060E-09-2.32758E-08
 -1       289 1.03323E+06 2.30039E+03-4.04193E+03 3.39214E+05 9.65520E-09-1.42027E-08
 -1       290 1.01559E+06 2.94530E+04 7.87542E+03 1.93340E+06 2.40107E-09-9.07312E-09
 -1       291 1.03143E+06 9.96817E+02 1.15213E+04 3.39343E+05 9.21136E-09-4.03816E-09
 -1       292 1.13094E+06 1.59909E+04 4.09598E+04 1.93950E+06 1.30603E-08-4.61732E-08
 -1       293 1.03906E+06-6.58727E+04 1.99765E+04 3.32493E+05-9.72068E-09 3.60506E-08
 -1       294-2.45841E+04 1.43649E+06-3.16704E+04 6.32239E+05-7.69687E-08 2.81143E-08
 -1       295 2.84738E+05 1.28482E+06 1.79817E+04 3.38289E+06-1.57466E-07-6.73754E-09
 -1       296 6.27945E+04 1.41592E+06 1.91494E+02 6.36839E+05-1.01285E-07 3.04044E-09
 -1       297 2.70130E+05 1.27754E+06-5.75360E+03 3.38321E+06-1.57284E-07-1.90739E-08
 -1       298-1.24835E+04 1.44472E+06-7.59501E+04 6.31991E+05-7.24358E-08-4.56639E-08
 -1       299 6.70388E+05-7.02800E+04-2.37166E+04 4.18829E+05 2.44472E-08 3.01952E-10
 -1       300 7.54079E+05 1.82274E+04 2.31529E+04 2.42361E+06 2.21189E-08 2.95040E-08
 -1       301 6.51765E+05 7.74326E+03 8.23399E+03 4.22834E+05-3.03990E-08 2.24827E-09
 -1       302 6.29526E+05 4.72589E+04 1.37686E+04 2.42099E+06-1.94932E-08 1.98925E-08
 -1       303 6.55890E+05-3.87502E+03 5.44902E+03 4.21910E+05-6.02449E-09-5.33328E-09
 -1       304 8.55675E+05-9.45827E+03 3.60194E+04 2.42617E+06 1.47411E-08-6.25878E-08
 -1       305 6.79819E+05-1.10528E+05-2.87774E+04 4.14916E+05-2.50875E-08-9.86402E-08
 -1       306-1.74399E+04-4.78462E+04-1.00909E+05 6.04206E+05-9.99389E-08-8.87667E-09
 -1       307 2.75277E+05-2.25902E+05-3.18453E+04 3.47572E+06-3.64671E-08-3.70492E-08
 -1       308 6.89864E+04-7.79324E+04-3.87351E+04 5.97679E+05-1.26718E-07-3.70042E-08
 -1       309 2.53126E+05-2.52553E+05-7.52148E+04 3.47566E+06-5.54137E-08-5.18412E-08
 -1       310 1.10528E+04-3.51323E+04-1.77220E+05 6.03572E+05-8.39354E-08 1.30967E-08
 -1       318-3.09839E+01 6.11834E+05 3.06635E+03 5.53551E+05 8.75443E-08 5.35510E-08
 -1       319 2.85515E+05 4.32536E+05 1.53070E+04 3.05572E+06 1.28399E-07 2.85290E-08
 -1       320 5.72119E+04 6.08013E+05-1.85684E+04 5.51971E+05 1.11133E-07-9.57880E-09
 -1       321 2.08199E+05 5.01426E+05-5.95242E+04 3.06364E+06 1.07131E-07-1.66110E-08
 -1       322-5.91178E+03 6.53926E+05-1.68051E+05 5.51856E+05 8.08432E-08 5.52973E-09
 -1       364 2.02431E+05-5.58370E+04-1.47795E+05 3.86788E+05-9.02219E-10 8.99672E-09
 -1       365 2.97300E+05-5.30498E+04-5.24734E+04 2.23946E+06-9.31323E-10 2.50511E-08
 -1       366 1.63575E+05 1.37526E+03-2.77578E+04 3.87430E+05-2.03727E-10 3.36586E-08
 -1       367 1.39089E+05 2.97990E+04-8.31380E+03 2.24106E+06 1.69257E-09 4.09236E-08
 -1       368 1.59104E+05 5.04946E+03-4.46871E+03 3.87547E+05 2.18279E-09 3.14576E-08
 -1       369 2.60941E+05 1.05929E+03 9.25515E+03 2.23977E+06 1.01136E-09 2.28902E-08
 -1       370 1.77429E+05-6.32309E+04-3.50276E+04 3.87846E+05-2.35741E-09 3.96212E-08
 -1       371 6.53385E+03 1.25764E+06 1.57210E+03 2.77278E+05-7.11680E-10-1.59125E-08
 -1       372 9.93615E+04 1.19300E+06 1.40827E+04 1.40152E+06-3.45608E-10-8.25239E-08
 -1       373 1.71459E+04 1.25393E+06 1.87829E+04 2.78859E+05-1.20781E-09-3.58350E-08
 -1       374 1.15244E+05 1.21432E+06 4.61458E+04 1.40302E+06-9.78616E-10-2.82216E-08
 -1       375-1.54249E+04 1.24865E+06 5.74234E+04 2.76340E+05-1.08412E-09 2.94385E-08
 -1       376 4.87216E+05-7.08951E+04-4.91792E+03 3.61889E+05-4.24916E-09 7.47241E-09
 -1       377 5.86739E+05 1.00939E+04 3.13286E+04 2.09737E+06-3.72529E-09-1.25947E-08
 -1       378 4.73514E+05 1.75854E+03 8.81946E+03 3.64614E+05-4.55475E-09-3.49064E-09
 -1       379 4.52735E+05 3.76587E+04 1.15881E+04 2.09541E+06 4.01531E-09 7.47968E-09
 -1       380 4.73883E+05 2.29553E+03 5.00893E+03 3.64613E+05 3.22325E-09 2.14059E-08
 -1       381 5.82850E+05 3.38753E+03 1.91733E+04 2.09736E+06-9.53150E-09-8.33825E-09
 -1       382 4.90660E+05-6.55332E+04-2.42584E+04 3.61880E+05 1.28057E-09-4.54747E-10
 -1       383-2.51216E+02-9.67090E+04-3.86559E+04 4.27632E+05 5.38421E-09 3.94357E-09
 -1       384 1.72036E+05-2.13635E+05-4.20882E+03 2.47215E+06 1.38825E-08-5.24451E-08
 -1       385 3.69202E+04-1.10113E+05-2.58979E+03 4.23975E+05 1.04883E-08-4.19213E-08
 -1       386 1.69560E+05-1.91538E+05 2.87013E+03 2.47264E+06 1.42900E-08 4.22006E-09
 -1       387-1.33303E+04-9.57309E+04-3.22310E+04 4.28187E+05 6.50289E-09 3.65399E-08
 -1       388 7.91737E+05-7.22051E+04 4.14249E+03 3.57722E+05-7.15954E-09 1.88229E-08
 -1       389 8.93424E+05 1.23772E+04 3.69838E+04 2.08078E+06 1.16415E-09 2.72848E-09
 -1       390 7.79579E+05 1.30570E+03 1.17545E+04 3.63090E+05 7.98900E-09-4.61114E-09
 -1       391 7.60409E+05 3.70966E+04 1.44773E+04 2.07617E+06 4.59488E-09 1.02991E-08
 -1       392 7.79849E+05 1.80618E+03 8.72459E+03 3.63110E+05-1.20926E-08 1.63127E-08
 -1       393 8.89694E+05 7.18492E+03 2.71865E+04 2.08083E+06-7.13044E-10 8.68749E-09
 -1       394 7.94431E+05-6.76710E+04-1.12903E+04 3.57647E+05 1.05938E-08 1.28603E-08
 -1       395 3.21184E+03 5.24932E+02-4.90018E+04 4.29136E+05-5.46970E-08 1.33441E-08
 -1       396 1.67162E+05-1.20065E+05-1.09316E+04 2.46698E+06-2.42508E-08-7.46477E-08
 -1       397 3.69455E+04-1.44450E+04-4.56121E+03 4.26019E+05-6.12017E-08-7.59355E-08
 -1       398 1.68576E+05-9.38352E+04 3.49438E+03 2.46756E+06-3.23344E-08 1.23691E-10
 -1       399-1.45238E+04-7.02435E+02-2.95198E+04 4.29661E+05-4.14184E-08 3.32220E-08
 -1       400 1.12544E+06-7.54509E+04 1.96764E+04 3.53911E+05 8.14907E-10 3.79005E-08
 -1       401 1.23173E+06 1.73882E+04 4.70471E+04 2.06777E+06 9.34961E-09 3.48446E-08
 -1       402 1.11577E+06 7.27282E+02 1.65409E+04 3.62346E+05-1.50030E-08-2.69010E-08
 -1       403 1.09812E+06 3.74450E+04 1.86869E+04 2.06007E+06-1.46607E-08-8.79299E-09
 -1       404 1.11602E+06 1.32589E+03 1.34672E+04 3.62361E+05-7.98900E-09-5.20231E-10
 -1       405 1.22714E+06 1.23006E+04 3.69439E+04 2.06758E+06 1.32422E-08-1.22745E-08
 -1       406 1.12812E+06-7.05161E+04 3.95586E+03 3.54097E+05 6.31553E-09 3.32475E-08
 -1       407 7.35161E+03 2.68732E+04-6.19484E+04 4.23370E+05 4.30009E-09-5.10190E-08
 -1       408 1.58111E+05-9.65099E+04-2.01973E+04 2.43084E+06 3.30183E-08-8.17599E-08
 -1       409 3.65040E+04 1.01760E+04-8.46498E+03 4.20494E+05 3.06500E-09-5.22859E-08
 -1       410 1.63370E+05-6.82900E+04 5.00066E+02 2.43140E+06 2.95549E-08 2.20025E-08
 -1       411-1.36207E+04 2.34909E+04-3.07941E+04 4.23908E+05-4.52928E-10 7.21775E-09
 -1       412 1.49718E+06-7.93366E+04 3.82912E+04 3.49462E+05-1.78406E-08-1.81899E-09
 -1       413 1.60883E+06 2.37131E+04 5.89156E+04 2.05053E+06 1.08848E-08-1.78698E-08
 -1       414 1.49054E+06 9.23331E+01 2.17751E+04 3.61110E+05 2.44472E-09-3.57250E-09
 -1       415 1.47418E+06 3.79413E+04 2.25746E+04 2.03951E+06 1.81674E-08-7.26868E-09
 -1       416 1.49089E+06 1.08767E+03 1.71048E+04 3.61185E+05 1.40426E-09 4.08181E-09
 -1       417 1.60109E+06 1.61518E+04 4.34096E+04 2.05024E+06-7.90897E-09 5.73491E-08
 -1       418 1.50121E+06-7.15141E+04 1.43484E+04 3.49705E+05-2.50293E-09 2.97005E-08
 -1       419 1.21222E+04 3.15530E+04-7.71796E+04 4.13721E+05 5.32164E-08 2.35887E-08
 -1       420 1.46090E+05-9.41558E+04-3.11951E+04 2.37581E+06 9.72359E-08-5.25397E-08
 -1       421 3.57056E+04 1.28466E+04-1.30859E+04 4.11016E+05 6.70971E-08-2.17460E-08
 -1       422 1.56214E+05-6.45424E+04-3.09061E+03 2.37625E+06 9.41800E-08 1.83827E-08
 -1       423-1.22149E+04 2.54568E+04-3.19125E+04 4.14290E+05 4.63097E-08 4.37867E-08
 -1       424 1.93072E+06-8.42996E+04 5.16839E+04 3.54752E+05 1.16415E-10-3.80533E-09
 -1       425 2.04730E+06 3.11266E+04 6.74729E+04 2.08635E+06 7.02130E-09 1.56724E-08
 -1       426 1.92597E+06 4.07335E+02 2.30713E+04 3.70271E+05-6.94126E-09-1.59125E-08
 -1       427 1.90685E+06 3.99525E+04 1.89482E+04 2.07139E+06 2.15140E-08 3.36149E-09
 -1       428 1.92746E+06 2.62460E+03 7.57641E+03 3.70300E+05 1.77679E-08-2.31157E-08
 -1       429 2.03118E+06 3.96820E+03 1.80036E+04 2.08634E+06 7.33417E-09-2.55750E-08
 -1       430 1.94471E+06-6.23906E+04-2.69536E+04 3.54673E+05 1.33878E-08 1.18871E-08
 -1       431 1.59731E+04 1.64062E+05-8.88827E+04 4.07404E+05 2.29193E-09-1.16706E-08
 -1       432 1.34652E+05 3.82433E+04-3.88297E+04 2.32154E+06 2.74231E-08-3.63980E-08
 -1       433 3.45011E+04 1.43572E+05-1.43792E+04 4.05435E+05 7.87622E-09-3.06336E-08
 -1       434 1.51942E+05 7.00265E+04 2.29784E+02 2.32198E+06 2.04964E-08-1.98634E-08
 -1       435-1.34066E+04 1.53984E+05-2.27880E+04 4.07862E+05 7.39965E-09 4.08909E-08
 -1       436 2.48310E+06-6.97360E+04 2.74731E+04 3.30898E+05-8.44011E-10 5.93864E-08
 -1       437 2.58197E+06 1.68229E+04 4.99473E+04 1.97135E+06-1.30458E-08 1.58398E-08
 -1       438 2.47569E+06 4.41798E+01 2.13852E+04 3.50072E+05 4.27099E-09-2.08674E-08
 -1       439 2.46440E+06 3.31927E+04 2.73163E+04 1.95310E+06 6.55319E-10 2.99842E-08
 -1       440 2.47508E+06-1.44147E+03 2.90209E+04 3.49895E+05 1.16124E-08-3.94502E-08
 -1       441 2.59342E+06 2.94293E+04 7.50376E+04 1.97192E+06 1.09721E-08-2.26646E-08
 -1       442 2.47645E+06-8.20136E+04 6.64876E+04 3.30473E+05-2.03727E-08 2.30502E-08
 -1       443 7.48320E+03 1.47175E+06-4.31106E+04 4.13372E+05-6.48506E-08 5.35510E-09
 -1       444 1.34044E+05 1.37274E+06-4.80413E+03 2.17339E+06-1.24426E-07-6.68042E-08
 -1       445 2.89458E+04 1.45716E+06 1.21012E+04 4.16971E+05-7.86640E-08-6.39675E-08
 -1       446 1.60863E+05 1.40392E+06 4.71207E+04 2.17481E+06-1.18664E-07-1.63855E-08
 -1       447-2.63970E+04 1.45653E+06 4.84910E+04 4.12581E+05-5.79603E-08 1.74186E-08
 -1       448 3.14844E+06-9.90043E+04 1.28995E+05 3.19976E+05 2.56841E-08-1.22091E-08
 -1       449 3.29054E+06 5.09388E+04 1.17155E+05 1.92969E+06 2.68483E-09-5.03496E-09
 -1       450 3.15662E+06-4.13399E+03 4.78952E+04 3.45639E+05-2.41125E-08 6.02540E-09
 -1       451 3.14883E+06 3.83175E+04 4.35667E+04 1.90341E+06-1.74241E-08 2.10821E-08
 -1       452 3.15666E+06-3.47786E+02 3.88943E+04 3.46937E+05-1.89175E-09-7.99264E-09
 -1       453 3.25874E+06 4.01101E+04 8.38641E+04 1.92460E+06-1.05501E-08-1.41590E-08
 -1       454 3.15500E+06-7.67545E+04 8.17107E+04 3.24087E+05-1.26893E-08-2.19661E-08
 -1       455 3.64201E+04-4.74893E+04-1.42144E+05 3.38340E+05-8.08650E-08-4.43397E-08
 -1       456 8.04695E+04-1.78664E+05-7.90488E+04 1.95834E+06-2.81034E-08-2.10421E-08
 -1       457 2.85094E+04-7.40304E+04-2.92740E+04 3.36331E+05-9.07030E-08-1.97088E-08
 -1       458 1.17147E+05-1.34228E+05-7.08837E+03 1.95822E+06-4.03779E-08 9.67702E-09
 -1       459-1.09573E+04-6.85338E+04-1.55638E+04 3.39345E+05-6.27915E-08 4.37576E-08
 -1       460 3.52432E+06-1.09872E+05 9.77936E+04 3.51017E+05 1.96451E-08 2.51603E-08
 -1       461 3.67979E+06 6.51716E+04 1.08947E+05 2.02936E+06-4.44124E-08-4.48254E-08
 -1       462 3.52409E+06-3.27675E+03 4.27062E+04 3.86546E+05 5.27798E-08-1.52986E-08
 -1       463 3.48878E+06 7.67808E+04 4.85412E+04 1.98523E+06-1.96032E-08-1.98706E-08
 -1       464 3.51834E+06 9.40941E+03 5.24165E+04 3.94177E+05-1.02471E-07-1.27002E-08
 -1       465 3.56489E+06 1.09149E+05 1.14430E+05 1.99762E+06-1.47600E-07 1.15979E-08
 -1       466 3.50625E+06-6.96690E+04 1.38356E+05 3.75111E+05-4.79486E-08 2.55823E-08
 -1       467 3.17116E+04 5.70398E+05-1.40120E+05 4.06162E+05 5.68616E-08 9.18226E-09
 -1       468 9.80000E+04 4.36591E+05-6.91067E+04 2.26842E+06 8.79263E-08-6.34518E-08
 -1       469 3.11022E+04 5.41485E+05-1.66223E+04 4.06210E+05 7.73857E-08-8.38445E-08
 -1       470 1.44845E+05 4.95028E+05 2.35506E+04 2.26945E+06 7.54517E-08-2.27883E-08
 -1       471-2.99604E+04 5.43594E+05 2.24086E+04 4.06244E+05 5.74291E-08 2.75031E-08
 -1       472 2.03523E+06-1.71318E+04 1.62552E+04 2.07914E+05 1.11540E-08-1.60489E-08
 -1       473 2.04730E+06 2.57139E+04 2.10517E+04 1.14727E+06 2.80852E-08 9.23683E-09
 -1       474 2.03409E+06 3.50212E+03 1.35371E+04 2.14710E+05-2.77396E-08-5.20777E-09
 -1       475 2.02236E+06 2.81438E+04 2.07122E+04 1.14206E+06 1.46883E-09 6.04086E-09
 -1       476 2.03375E+06-1.92680E+03 2.84264E+04 2.12880E+05 3.80169E-09-3.75076E-09
 -1       477 2.09171E+06 4.55460E+04 7.45485E+04 1.15455E+06-3.44880E-09 3.16504E-08
 -1       478 2.02383E+06-5.05490E+04 9.40920E+04 2.02523E+05-8.32370E-09 4.51109E-09
 -1       479-1.24736E+04-1.47427E+05-2.35427E+05 5.72051E+05-3.05881E-08-2.77942E-08
 -1       480 1.18585E+05-2.57558E+05-1.00100E+05 3.31039E+06-4.41287E-08 2.83762E-09
 -1       481 4.89175E+04-2.05030E+05-3.94783E+04 5.66020E+05-6.45705E-08-2.75832E-08
 -1       482 2.05857E+05-3.17529E+05-7.73358E+03 3.30828E+06-5.24014E-08-1.31549E-08
 -1       483-1.77426E+04-1.94570E+05-3.32261E+04 5.70917E+05-6.44468E-08 2.25264E-08
 -1       484 9.50819E+05-9.39680E+03 6.22368E+03 1.36538E+05 1.74914E-08-2.93585E-09
 -1       485 9.64304E+05 1.00677E+03 9.23157E+03 8.01046E+05 9.30595E-09-2.33649E-08
 -1       486 9.50072E+05-1.51446E+02 6.77365E+03 1.38254E+05 1.74441E-09-3.60797E-08
 -1       487 9.54336E+05 2.61783E+03 1.12637E+04 8.00184E+05 3.13594E-09-3.79187E-08
 -1       488 9.49884E+05-3.65734E+03 1.60129E+04 1.37456E+05 9.65520E-09-1.28875E-08
 -1       489 9.93039E+05 1.30320E+04 4.27035E+04 8.03949E+05-7.91624E-09 5.35510E-09
 -1       490 9.43741E+05-3.05412E+04 5.47500E+04 1.34210E+05-3.75658E-08-1.36988E-08
 -1       491 6.76619E+03-4.14010E+05-1.45978E+05 4.13678E+05 7.55899E-08-1.61526E-09
 -1       492 8.60428E+04-5.10649E+05-6.99524E+04 2.42466E+06 2.70949E-07-6.14164E-08
 -1       493 3.24375E+04-4.46663E+05-3.11963E+04 4.07958E+05 1.09449E-07-4.21496E-08
 -1       494 1.29208E+05-5.30187E+05-1.95043E+04 2.42453E+06 2.84672E-07-1.82063E-08
 -1       495-2.44662E+03-4.37417E+05-4.00506E+04 4.12420E+05 7.55172E-08 4.07017E-08
 -1       496 2.76930E+05-2.96745E+03 8.13841E+02 6.83790E+04-5.84150E-08 7.88145E-09
 -1       497 2.86063E+05-8.45849E+03 2.00408E+03 4.09423E+05-4.48595E-08 1.10731E-08
 -1       498 2.76659E+05-1.46813E+03 2.49099E+03 6.82856E+04 1.11447E-09 1.59516E-08
 -1       499 2.86330E+05-7.86605E+03 5.11343E+03 4.09763E+05 1.81444E-09 2.04254E-08
 -1       500 2.76491E+05-3.39010E+03 7.97672E+03 6.80423E+04-1.72513E-08 6.21822E-09
 -1       501 3.01674E+05-9.94778E+02 2.15919E+04 4.10017E+05 1.91485E-08-1.96924E-08
 -1       502 2.72617E+05-1.48982E+04 2.95484E+04 6.77758E+04-6.01285E-08-8.06358E-09
 -1       503 1.20807E+04-4.25815E+05-7.54038E+04 2.54682E+05-3.53975E-08 3.25963E-09
 -1       504 5.30392E+04-4.92453E+05-4.08301E+04 1.51124E+06-2.80852E-08-6.77392E-08
 -1       505 1.80015E+04-4.40959E+05-2.02381E+04 2.51287E+05-2.65336E-08-2.13058E-08
 -1       506 7.10112E+04-4.98918E+05-1.90420E+04 1.51148E+06-3.72311E-08-2.16969E-08
 -1       507 7.14891E+03-4.35567E+05-3.03188E+04 2.53871E+05-1.14542E-08 3.05299E-08
 -1       508 1.08330E+04-4.34127E+05-3.54788E+04 1.01101E+05 3.03680E-08 5.61340E-09
 -1       509 1.86159E+04-4.68737E+05-2.34065E+04 6.29947E+05-1.28694E-07-9.67157E-09
 -1       510 7.14208E+03-4.39755E+05-1.32415E+04 9.97775E+04 3.86299E-08-1.88365E-08
 -1       511 2.33265E+04-4.69100E+05-1.70682E+04 6.30173E+05-1.33568E-07 5.50790E-09
 -1       512 8.66825E+03-4.36695E+05-2.28785E+04 1.00756E+05 3.69218E-08-8.52015E-09
 -1       513 2.80637E+04-4.77326E+04-8.70615E+04 3.29621E+05 2.50293E-09-8.70250E-09
 -1       514 1.09691E+05-3.46966E+04-2.43947E+04 1.90067E+06-3.56522E-10 8.44739E-09
 -1       515 2.90130E+03-5.39388E+02-1.50326E+04 3.28401E+05 9.24047E-10-2.03836E-08
 -1       516-1.18956E+04 2.00746E+04-3.01871E+03 1.90359E+06 2.36014E-09-2.04891E-08
 -1       517-2.77860E+02 3.56996E+03-1.80301E+03 3.28373E+05-1.19690E-09-9.15679E-09
 -1       518 7.16669E+04-1.77902E+02 7.02134E+03 1.90143E+06 1.58616E-09-2.90893E-08
 -1       519 1.27376E+04-4.45945E+04-2.46039E+04 3.29997E+05 8.29459E-10 1.13941E-08
 -1       520 1.04219E+04 4.06189E+05-9.62258E+03 2.61536E+05 3.01952E-10 1.59562E-08
 -1       521 9.07730E+04 3.40036E+05 1.39868E+04 1.45011E+06 1.45519E-09 5.21504E-09
 -1       522 1.28101E+04 3.99620E+05 3.31686E+04 2.61080E+05-4.12001E-10-2.80197E-08
 -1       523 1.28890E+05 3.93122E+05 9.19968E+04 1.45131E+06 2.03727E-10-4.20405E-08
 -1       524-4.33416E+04 3.84357E+05 1.26003E+05 2.61559E+05-8.51287E-10-3.04863E-08
 -1       525 3.16100E+04-4.62283E+04-2.31378E+04 3.08577E+05 5.82077E-10-2.19370E-09
 -1       526 9.69363E+04 4.29414E+02 9.69187E+03 1.77794E+06-3.33603E-09-4.43833E-10
 -1       527 1.87249E+04 1.79084E+03 6.21137E+02 3.07188E+05-6.59929E-09-1.94013E-08
 -1       528 2.31379E+03 2.63634E+04 4.01118E+03 1.77982E+06 6.15159E-09-1.61635E-08
 -1       529 1.87403E+04 2.15545E+03-3.06913E+02 3.07187E+05-2.32103E-09 7.84166E-09
 -1       530 9.39721E+04-7.65577E+02 6.30862E+03 1.77796E+06 1.09139E-11-1.35551E-08
 -1       531 3.23167E+04-4.40699E+04-2.80315E+04 3.08584E+05 5.51518E-09 6.85941E-09
 -1       532-2.23094E+03-4.89884E+04-1.04707E+04 4.21182E+05 7.45968E-09 4.94765E-09
 -1       533 1.57093E+05-1.43126E+05 2.42074E+04 2.42918E+06 1.24855E-08 9.37143E-09
 -1       534 2.65051E+04-5.93719E+04 3.42911E+04 4.18428E+05 8.83301E-09-3.50810E-08
 -1       535 1.79516E+05-7.09900E+04 8.95885E+04 2.42991E+06 1.15779E-08-4.09491E-08
 -1       536-6.03643E+04-6.25716E+04 9.38320E+04 4.22543E+05 2.48838E-09-2.51894E-08
 -1       537 8.12468E+04-4.41242E+04-2.26821E+04 3.02333E+05-5.63159E-09-1.66146E-08
 -1       538 1.43705E+05-1.35994E+02 8.94107E+03 1.74265E+06-2.40470E-09-1.35624E-08
 -1       539 6.88180E+04 1.70765E+03 5.45365E+02 3.01265E+05 3.60160E-09 3.52156E-09
 -1       540 5.35238E+04 2.47885E+04 3.91631E+03 1.74419E+06 7.92761E-09 2.84490E-09
 -1       541 6.88509E+04 1.88852E+03-9.32894E+01 3.01276E+05-8.34552E-09 1.03682E-08
 -1       542 1.42272E+05-1.09092E+03 6.73945E+03 1.74273E+06-2.31739E-09 1.99361E-09
 -1       543 8.17713E+04-4.28931E+04-2.59944E+04 3.02255E+05 7.53789E-09 3.10592E-08
 -1       544-1.36863E+03 6.10723E+03-1.27080E+04 4.09519E+05-4.47826E-08 5.55883E-09
 -1       545 1.46314E+05-8.49320E+04 1.49609E+04 2.35536E+06-1.85682E-08 2.27083E-08
 -1       546 2.66837E+04-2.56130E+03 1.82794E+04 4.07096E+05-5.17048E-08-3.20197E-08
 -1       547 1.50346E+05-2.52449E+04 4.89232E+04 2.35636E+06-2.39452E-08-3.16068E-08
 -1       548-4.21405E+04 2.88626E+03 3.38848E+04 4.10488E+05-2.96277E-08-2.89583E-08
 -1       549 1.26901E+05-4.36576E+04-2.15579E+04 2.99946E+05 3.56522E-09-1.99398E-08
 -1       550 1.88716E+05 5.78176E+01 9.37349E+03 1.73036E+06 1.81899E-11-1.11613E-08
 -1       551 1.14768E+05 1.64843E+03 8.99812E+02 2.99318E+05-1.31113E-08-2.62335E-08
 -1       552 9.99021E+04 2.44248E+04 4.33510E+03 1.73147E+06-1.78125E-08-1.57743E-08
 -1       553 1.14778E+05 1.75061E+03 6.01459E+02 2.99309E+05-1.02154E-08 1.99052E-08
 -1       554 1.87889E+05-3.53251E+02 8.31288E+03 1.73029E+06 8.20364E-09-3.90719E-09
 -1       555 1.27138E+05-4.30189E+04-2.31193E+04 3.00033E+05 1.64437E-09 2.50839E-08
 -1       556-4.40169E+02 2.06244E+04-1.76927E+04 4.05246E+05 5.31327E-09 1.88302E-08
 -1       557 1.40313E+05-7.12075E+04 4.60818E+03 2.32921E+06 3.01152E-08 1.12777E-08
 -1       558 2.80943E+04 1.29969E+04 1.58027E+03 4.02909E+05 3.41970E-09-4.52692E-08
 -1       559 1.25868E+05-2.30678E+04 7.47096E+03 2.33042E+06 2.50584E-08-2.66882E-08
 -1       560-2.43796E+04 2.77970E+04-2.84518E+04 4.05975E+05-8.33097E-10-3.26545E-08
 -1       561 1.32919E+05-4.32706E+04-2.27231E+04 2.99415E+05-9.95351E-09-5.39512E-09
 -1       562 1.94139E+05-1.50208E+02 8.52012E+03 1.72709E+06 5.58794E-09 1.74623E-10
 -1       563 1.20634E+05 1.69838E+03 3.97465E+02 2.98809E+05-4.65661E-10-4.32556E-09
 -1       564 1.05402E+05 2.45097E+04 3.73797E+03 1.72815E+06 2.08234E-08-9.90985E-09
 -1       565 1.20640E+05 1.93657E+03-1.81464E+02 2.98811E+05-1.38243E-10 3.51065E-10
 -1       566 1.92195E+05-8.74916E+02 6.39015E+03 1.72709E+06-4.26371E-09-1.49594E-08
 -1       567 1.33354E+05-4.18841E+04-2.57834E+04 2.99428E+05-9.16771E-10 6.93944E-09
 -1       568-3.77313E+02 2.03922E+04-2.32941E+04 4.11239E+05 4.72000E-08-3.76895E-09
 -1       569 1.40481E+05-7.52676E+04-5.20188E+03 2.36368E+06 8.40300E-08 9.54606E-09
 -1       570 3.08555E+04 1.33450E+04-1.50847E+04 4.08818E+05 5.54755E-08-3.53884E-08
 -1       571 1.07002E+05-3.86057E+04-3.41772E+04 2.36508E+06 8.04503E-08-3.44298E-08
 -1       572-7.23966E+03 3.82747E+04-9.28519E+04 4.11766E+05 3.50856E-08-2.65718E-08
 -1       573 3.76555E+04-4.34855E+04-3.84870E+04 3.17107E+05 3.52156E-09-7.65976E-09
 -1       574 9.65029E+04-1.09246E+03-9.92308E+02 1.82677E+06 4.38013E-09-2.91038E-11
 -1       575 2.23020E+04 3.30407E+03-6.81995E+03 3.15608E+05-2.67028E-09-1.62981E-09
 -1       576 5.78786E+02 2.74897E+04-7.00276E+03 1.82862E+06 2.15853E-08-5.56247E-09
 -1       577 2.35019E+04 4.34080E+03-1.76203E+04 3.15618E+05 1.37370E-08-6.73754E-09
 -1       578 8.96745E+04-2.10275E+04-3.45739E+04 1.82679E+06 1.05210E-08-1.67383E-08
 -1       579 4.76965E+04-3.00492E+04-9.29142E+04 3.16972E+05 1.35624E-08 2.70666E-09
 -1       580-3.27078E+03 1.07515E+05-2.44467E+04 4.44908E+05 1.75419E-09 3.07627E-08
 -1       581 1.55760E+05 3.48941E+03-9.62182E+03 2.54537E+06 2.68265E-08 1.56142E-08
 -1       582 3.61215E+04 1.00956E+05-2.90702E+04 4.42517E+05 8.36371E-09-2.08329E-08
 -1       583 1.00358E+05 3.38455E+04-7.20041E+04 2.54746E+06 2.08602E-08-5.98520E-08
 -1       584 5.03432E+03 1.37664E+05-1.57646E+05 4.44988E+05 8.09450E-09-2.89292E-08
 -1       585-1.57659E+05-1.54218E+04-1.04770E+05 2.77636E+05-1.44064E-09 2.91693E-08
 -1       586-1.31737E+05-3.42864E+04-4.81429E+04 1.59467E+06-1.08812E-08 2.23190E-08
 -1       587-1.81454E+05 3.08489E+03-2.19998E+04 2.74972E+05 6.64295E-09-6.64295E-09
 -1       588-1.95468E+05 1.38555E+04-9.68669E+03 1.59803E+06-2.30830E-09 5.71526E-09
 -1       589-1.83224E+05 1.64503E+03-6.26059E+03 2.74935E+05 8.33461E-09 1.19508E-09
 -1       590-1.22380E+05-5.10055E+03 6.70503E+02 1.59484E+06 6.62840E-09-1.60071E-08
 -1       591-1.72328E+05-3.47544E+04-2.55134E+04 2.77670E+05-1.18598E-08 1.49539E-08
 -1       592-2.55091E+04 1.56046E+06 6.79100E+04 4.93415E+05-6.08343E-08 3.28437E-08
 -1       593 2.03198E+05 1.49005E+06 8.34580E+04 2.62439E+06-1.18031E-07 6.73572E-09
 -1       594 2.81217E+04 1.55914E+06 6.71526E+04 4.96954E+05-7.58209E-08-3.91283E-08
 -1       595 2.17633E+05 1.55108E+06 1.32196E+05 2.62948E+06-1.13258E-07-5.26488E-08
 -1       596-7.26553E+04 1.55192E+06 1.42940E+05 4.90306E+05-5.07716E-08-4.12983E-08
 -1       597-3.09149E+05-3.12170E+04-3.74572E+04 2.60172E+05 3.19415E-08-8.08541E-09
 -1       598-2.61000E+05-9.85129E+03-5.96398E+03 1.49056E+06-2.21189E-09-7.01402E-09
 -1       599-3.21814E+05 6.68723E+02-6.83120E+03 2.56515E+05-1.89830E-08 7.53244E-09
 -1       600-3.35042E+05 1.66921E+04-3.92128E+03 1.49488E+06-7.77072E-09 2.93949E-09
 -1       601-3.22525E+05 3.43681E+03-7.99906E+03 2.56321E+05-4.72210E-09-6.06815E-09
 -1       602-2.84557E+05-7.04209E+03-1.43888E+04 1.49155E+06 2.11003E-10-1.58179E-08
 -1       603-3.09546E+05-2.01301E+04-4.54628E+04 2.59666E+05-1.02882E-08-2.30284E-08
 -1       604-7.42277E+03-2.41027E+04 1.16256E+04 3.93471E+05-7.37800E-08-3.36149E-09
 -1       605 1.50318E+05-9.63590E+04 5.43049E+04 2.26579E+06-2.58078E-08 4.70936E-09
 -1       606 1.81826E+04-3.52686E+04 7.85078E+04 3.90976E+05-8.44002E-08-3.48955E-08
 -1       607 2.23543E+05-1.45483E+04 1.94693E+05 2.26569E+06-3.65462E-08-4.22733E-08
 -1       608-9.74840E+04-6.57877E+04 2.60638E+05 3.94927E+05-5.11645E-08-1.52504E-08
 -1       609-4.75076E+05-5.17856E+04-8.85307E+04 3.84458E+05-4.88944E-09-1.51267E-08
 -1       610-4.24079E+05 2.18893E+04-1.93490E+04 2.22135E+06-3.97558E-08-2.59752E-08
 -1       611-5.03137E+05 1.11330E+04-1.38636E+04 3.77172E+05 5.09317E-08-1.31404E-08
 -1       612-5.64781E+05 7.83982E+04-4.38769E+03 2.22712E+06-2.06246E-08-1.06302E-08
 -1       613-5.03696E+05 1.08890E+04-9.36054E+03 3.77156E+05-9.93678E-08 8.76025E-09
 -1       614-4.22835E+05 3.05553E+04-5.68433E+03 2.22153E+06-1.16423E-07-2.80779E-08
 -1       615-4.79362E+05-5.67153E+04-6.59884E+04 3.84314E+05-1.96742E-08-3.16504E-09
 -1       616-1.68698E+04 2.23400E+05 1.26522E+04 4.73863E+05 4.77730E-08 7.62520E-09
 -1       617 1.72391E+05 1.47203E+05 5.59704E+04 2.69957E+06 8.63947E-08 1.80225E-08
 -1       618 2.47851E+04 2.11599E+05 6.86155E+04 4.71909E+05 7.00807E-08-2.92057E-08
 -1       619 2.21514E+05 2.33483E+05 1.65047E+05 2.70071E+06 7.31579E-08-2.68265E-08
 -1       620-9.77119E+04 1.94966E+05 1.98307E+05 4.74497E+05 4.57658E-08-1.77242E-08
 -1       621-2.69182E+05-4.67416E+04-3.41081E+04 3.36269E+05 2.77068E-08-2.04400E-08
 -1       622-2.17952E+05 2.15893E+04 6.09917E+03 1.93816E+06 1.97469E-08-2.15659E-08
 -1       623-2.85155E+05 6.83884E+03-1.03645E+03 3.31987E+05-2.88128E-08-2.20589E-08
 -1       624-3.22656E+05 5.27075E+04 3.35679E+03 1.94177E+06 1.27500E-09-2.28174E-08
 -1       625-2.84626E+05 5.51346E+03-1.81626E+03 3.32058E+05-1.36788E-09-1.12268E-08
 -1       626-2.06404E+05 1.75257E+04 6.20280E+03 1.93776E+06-9.16771E-09-3.17086E-08
 -1       627-2.67677E+05-5.08522E+04-3.69228E+04 3.36524E+05-4.07454E-10-7.90897E-09
 -1       628-1.41328E+04-8.10477E+04 2.70642E+03 4.86629E+05-4.02406E-08 1.51631E-08
 -1       629 1.71478E+05-1.66221E+05 3.98308E+04 2.80919E+06-3.73839E-08 8.64748E-09
 -1       630 2.79066E+04-9.12874E+04 4.32100E+04 4.83367E+05-6.23113E-08-2.40216E-08
 -1       631 1.85762E+05-7.18483E+04 1.04523E+05 2.81013E+06-4.27390E-08-3.94648E-08
 -1       632-8.25914E+04-9.05053E+04 9.81029E+04 4.88114E+05-3.83516E-08-1.80153E-08
 -1       633-1.74112E+05-2.28450E+04-5.21159E+03 2.20513E+05 2.33995E-08-1.26565E-08
 -1       634-1.40159E+05-3.49659E+03 7.73652E+03 1.26542E+06 9.56061E-09-1.50540E-08
 -1       635-1.79213E+05 2.93063E+02 2.21468E+03 2.18443E+05-1.53450E-08-2.07983E-08
 -1       636-1.79523E+05 5.18611E+03 3.17373E+03 1.26772E+06-1.30663E-08-5.71163E-09
 -1       637-1.78336E+05-1.62481E+03 3.15223E+02 2.18548E+05 2.73212E-09 2.29993E-08
 -1       638-1.23297E+05-1.09310E+04 5.62149E+03 1.26471E+06 1.42427E-08-1.92776E-08
 -1       639-1.71168E+05-2.81152E+04-1.31231E+04 2.20799E+05-2.78233E-08-1.28330E-08
 -1       640-6.08501E+03-1.46828E+05 9.98076E+02 3.73641E+05 8.73060E-08 1.59052E-08
 -1       641 1.21206E+05-2.12902E+05 2.21044E+04 2.16641E+06 2.75824E-07-1.23982E-08
 -1       642 2.05951E+04-1.52864E+05 2.21082E+04 3.71009E+05 1.01978E-07-9.46602E-09
 -1       643 1.26217E+05-1.63890E+05 5.23777E+04 2.16661E+06 2.60581E-07-4.98367E-08
 -1       644-4.04055E+04-1.50444E+05 4.39870E+04 3.74791E+05 4.27099E-08-2.25555E-09
 -1       645-7.53072E+04-1.07259E+04 9.60377E+03 1.15892E+05-6.81684E-08 8.46558E-09
 -1       646-5.21688E+04-1.09198E+04 9.22179E+03 6.62735E+05-6.34536E-08 6.82303E-09
 -1       647-7.49371E+04-2.55122E+03 4.18004E+03 1.15110E+05 6.40830E-09 7.72434E-09
 -1       648-6.18282E+04-1.22754E+04 4.14705E+03 6.63661E+05-4.28918E-09-2.64754E-09
 -1       649-7.44864E+04-3.72033E+03 3.62421E+03 1.15150E+05-1.76187E-08-9.17225E-09
 -1       650-4.20072E+04-1.42259E+04 9.69956E+03 6.62213E+05 1.87665E-08 1.90867E-08
 -1       651-7.40975E+04-1.44862E+04 7.76344E+03 1.16061E+05-6.29298E-08 1.87479E-08
 -1       652 1.80892E+03-1.72708E+05 7.64479E+02 2.16575E+05-2.96714E-08 1.95068E-08
 -1       653 6.44626E+04-2.14310E+05 7.41083E+03 1.26549E+06-3.44262E-08-8.30914E-09
 -1       654 1.10177E+04-1.74555E+05 6.77827E+03 2.15133E+05-2.44509E-08-8.55835E-09
 -1       655 6.47202E+04-1.97717E+05 1.56749E+04 1.26534E+06-5.44132E-08-4.85088E-08
 -1       656-9.06947E+03-1.73158E+05 1.14089E+04 2.17248E+05-9.96442E-09-9.99717E-09
 -1       657 9.87303E+02-1.44706E+05 6.64152E+03 7.63882E+04 3.27229E-08 1.28239E-09
 -1       658 2.36986E+04-1.58815E+05 5.16280E+03 4.55593E+05-1.20619E-07 5.46743E-09
 -1       659 3.33776E+03-1.43842E+05 2.60445E+03 7.60027E+04 3.48218E-08-2.01535E-08
 -1       660 2.14260E+04-1.56128E+05 3.30322E+03 4.55393E+05-1.22836E-07 1.88820E-08
 -1       661 4.06783E+02-1.43517E+05 2.06815E+03 7.67286E+04 3.19069E-08-1.93795E-08
 -1       662-2.60695E+06 1.27042E+04-1.55734E+05 2.11701E+05-1.84809E-09 3.59432E-09
 -1       663-2.61402E+06-5.98441E+04-9.15805E+04 1.12694E+06-2.03727E-09 4.36557E-11
 -1       664-2.63499E+06 2.35093E+03-4.48258E+04 1.94492E+05-2.97587E-09-4.00178E-11
 -1       665-2.64686E+06-3.52753E+03-3.54375E+04 1.14778E+06-3.25508E-09-3.02498E-09
 -1       666-2.63698E+06 5.49266E+03-3.75295E+04 1.91555E+05-4.11092E-10-1.09139E-11
 -1       667-2.64124E+06-3.94933E+04-7.57290E+04 1.13908E+06 1.74077E-09-9.24047E-10
 -1       668-2.61571E+06 1.70179E+04-1.22431E+05 2.03032E+05 2.43017E-09 1.54978E-09
 -1       669-1.54304E+06-1.05641E+04-2.27090E+04 1.74726E+05-3.55067E-09 1.25146E-09
 -1       670-1.52809E+06-5.02004E+03-9.01131E+03 9.88175E+05-3.96540E-09-2.36105E-09
 -1       671-1.54908E+06 1.26897E+03-8.69316E+03 1.66863E+05-3.48155E-09-4.15639E-10
 -1       672-1.55726E+06 5.09132E+03-1.24867E+04 9.96185E+05 4.82942E-10-4.64570E-09
 -1       673-1.54786E+06 3.18106E+03-2.15850E+04 1.66804E+05 2.44108E-09-1.82172E-09
 -1       674-1.54204E+06-2.75937E+04-5.03294E+04 9.88404E+05-2.02272E-09 1.74623E-10
 -1       675-1.53144E+06 7.93894E+03-8.82452E+04 1.74535E+05 1.80444E-09 4.16185E-09
 -1       676-4.90810E+05-1.77041E+04 8.07293E+03 1.68037E+05-5.06407E-09-3.71074E-10
 -1       677-4.66087E+05 5.29243E+03 1.13431E+04 9.61174E+05-3.18687E-09-9.74978E-10
 -1       678-4.92066E+05 2.22423E+02 1.13534E+03 1.64896E+05 2.96131E-09-4.54747E-11
 -1       679-4.97389E+05 6.50516E+03-3.48302E+03 9.64386E+05 1.70417E-09-3.69437E-09
 -1       680-4.90857E+05 1.97363E+03-1.13406E+04 1.64897E+05-3.16140E-09 1.00135E-09
 -1       681-4.78752E+05-1.67068E+04-2.84518E+04 9.61217E+05 9.56788E-10-1.54796E-09
 -1       682-4.79532E+05-1.65106E+02-5.52515E+04 1.67966E+05 3.89991E-09 2.59388E-09
 -1       683 5.50309E+05-2.60694E+04 3.95815E+04 1.66885E+05 2.61934E-10 2.15732E-09
 -1       684 5.86428E+05 1.62518E+04 3.26626E+04 9.66463E+05-8.14907E-10-1.66256E-09
 -1       685 5.53778E+05-7.85762E+02 1.12509E+04 1.68167E+05-6.48652E-09 6.32554E-10
 -1       686 5.50805E+05 8.73091E+03 5.68419E+03 9.65255E+05-1.06214E-08-3.01588E-09
 -1       687 5.55014E+05 8.73817E+02-1.20196E+03 1.68148E+05-1.69894E-09-4.18368E-10
 -1       688 5.74545E+05-5.84468E+03-6.88650E+03 9.66451E+05 3.71074E-09-1.45883E-09
 -1       689 5.61622E+05-8.90165E+03-2.35455E+04 1.66882E+05 1.19326E-09 3.30692E-09
 -1       690 1.60703E+06-3.52668E+04 7.25216E+04 1.65194E+05-8.30187E-09-1.99361E-09
 -1       691 1.65606E+06 2.75983E+04 5.50144E+04 9.68749E+05-1.58980E-09-3.21961E-09
 -1       692 1.61542E+06-1.94494E+03 2.14976E+04 1.70971E+05 2.80488E-09 7.68523E-11
 -1       693 1.61451E+06 1.11178E+04 1.45552E+04 9.62918E+05 7.18023E-09-3.21961E-09
 -1       694 1.61667E+06 9.27567E+01 8.16978E+03 1.71067E+05 4.00178E-10-1.55433E-09
 -1       695 1.64104E+06 4.47999E+03 1.22249E+04 9.68361E+05-1.62618E-09-2.97223E-09
 -1       696 1.61899E+06-1.59357E+04 4.78372E+03 1.65469E+05-1.52068E-09 1.12504E-09
 -1       697 2.74837E+06-4.80830E+04 1.08669E+05 1.98465E+05-6.54836E-10-4.99131E-09
 -1       698 2.81281E+06 4.48164E+04 8.74484E+04 1.15519E+06-5.42786E-09-2.56478E-09
 -1       699 2.76020E+06-2.70782E+03 4.81536E+04 2.10083E+05-2.39743E-09-2.27283E-09
 -1       700 2.76458E+06 2.80361E+04 5.94067E+04 1.14415E+06 9.15497E-09-2.08092E-09
 -1       701 2.75742E+06-7.90072E+03 7.94859E+04 2.09451E+05 1.22964E-08 8.22183E-10
 -1       702 2.85178E+06 9.82751E+04 1.88731E+05 1.15780E+06 5.61704E-09-1.50249E-09
 -1       703 2.72057E+06-9.50206E+04 2.68233E+05 1.96519E+05 6.82485E-09-7.66886E-09
 -1       704-5.14603E+06 1.10211E+05-4.58484E+05 1.76689E+05-6.65750E-09 5.12227E-09
 -1       705-5.29472E+06-1.60636E+05-2.97749E+05 9.21344E+05-4.64206E-09 1.08048E-08
 -1       706-5.21851E+06 1.44171E+04-1.28576E+05 1.54019E+05 1.01500E-09-6.47560E-10
 -1       707-5.24675E+06-1.97098E+04-9.27218E+04 9.44447E+05 1.10026E-09-4.65661E-10
 -1       708-5.22337E+06 7.41724E+03-7.83536E+04 1.53965E+05 3.10683E-09-5.65183E-09
 -1       709-5.24426E+06-7.14334E+04-1.37385E+05 9.21608E+05 2.98314E-10-1.25647E-08
 -1       710-5.19150E+06 3.94515E+04-2.03648E+05 1.76604E+05-1.03828E-08-2.80852E-09
 -1       711-4.19121E+06 1.32074E+04-1.08026E+05 1.58516E+05 2.07219E-08 2.79033E-09
 -1       712-4.20548E+06-3.76949E+04-6.76589E+04 8.39291E+05-2.63026E-09-2.79033E-09
 -1       713-4.20954E+06 2.87924E+03-3.71293E+04 1.38448E+05-1.18562E-08 5.35874E-09
 -1       714-4.22252E+06-3.77207E+03-3.86850E+04 8.62732E+05-8.17818E-09 1.19144E-09
 -1       715-4.20888E+06 6.89866E+03-5.05595E+04 1.35262E+05-1.23691E-09-1.39516E-09
 -1       716-4.23656E+06-5.77193E+04-1.14348E+05 8.52036E+05-2.90493E-09-3.56022E-09
 -1       717-4.18012E+06 3.94480E+04-1.78303E+05 1.49083E+05-2.75759E-09-7.99628E-09
 -1       718-2.97493E+06-9.26751E+03-8.10223E+04 2.20474E+05-1.70839E-08 7.29051E-09
 -1       719-2.97171E+06-1.38202E+03-3.98220E+04 1.33209E+06-3.79623E-08-1.12850E-08
 -1       720-2.99234E+06 6.09645E+03-2.49068E+04 1.99215E+05 5.01823E-08-1.05956E-08
 -1       721-3.02936E+06 3.34311E+04-2.53916E+04 1.35410E+06-2.05337E-08-5.04406E-09
 -1       722-2.99186E+06 9.93176E+03-3.66069E+04 1.97711E+05-7.55390E-08 3.34330E-09
 -1       723-3.00212E+06-1.79833E+04-8.11399E+04 1.33806E+06-1.12243E-07 4.04998E-09
 -1       724-2.96541E+06 1.48705E+04-1.42466E+05 2.15911E+05-3.20579E-08 9.45874E-11
 -1       725-1.73058E+06-8.41227E+03-2.18948E+04 1.83107E+05 3.37604E-09-5.98538E-09
 -1       726-1.72932E+06 1.08218E+04-8.21926E+03 1.09131E+06 1.65965E-08-1.72404E-08
 -1       727-1.73659E+06 4.45672E+03-7.84140E+03 1.74665E+05-2.24354E-08 1.67347E-10
 -1       728-1.75521E+06 1.93464E+04-1.18031E+04 1.09829E+06-1.16506E-09-7.77800E-09
 -1       729-1.73448E+06 3.91744E+03-2.18096E+04 1.75881E+05-1.41154E-09-2.34104E-09
 -1       730-1.72222E+06-1.85029E+04-4.82751E+04 1.08641E+06-2.67391E-09-7.64885E-09
 -1       731-1.71667E+06 2.35443E+03-9.06516E+04 1.86787E+05 1.05647E-08-1.00117E-08
 -1       732-7.68822E+05-7.96646E+03 7.12063E+03 1.26591E+05 1.02300E-08 6.26642E-10
 -1       733-7.57716E+05 1.50974E+03 6.48343E+03 7.18566E+05-6.57747E-09 1.18962E-09
 -1       734-7.68636E+05 1.07273E+02 7.20246E+02 1.24221E+05 5.60249E-10 4.18186E-09
 -1       735-7.66604E+05-1.47792E+03-3.04946E+03 7.20233E+05-4.40195E-10 3.90537E-09
 -1       736-7.66976E+05-6.95717E+02-9.24783E+03 1.24958E+05 7.94535E-09 2.34650E-10
 -1       737-7.49082E+05-2.01320E+04-2.13541E+04 7.15248E+05 1.68948E-08 1.09503E-09
 -1       738-7.58591E+05-1.88572E+03-4.16829E+04 1.28913E+05-3.22325E-08 9.42237E-10
 -1       739-2.05772E+05-6.21854E+03 1.57673E+04 5.74558E+04-5.95101E-08 8.23093E-09
 -1       740-1.93331E+05-1.45946E+03 1.05795E+04 3.20071E+05-5.21327E-08 1.61754E-09
 -1       741-2.03450E+05-1.61669E+03 4.08262E+03 5.70907E+04 6.49766E-09 2.17824E-09
 -1       742-1.95851E+05-6.80961E+03 2.11024E+03 3.20253E+05-5.62068E-10 2.85263E-09
 -1       743-2.02792E+05-1.86796E+03 1.33532E+01 5.72555E+04-2.46946E-08-2.32831E-10
 -1       744-1.90448E+05-1.01402E+04-9.21706E+02 3.19046E+05 2.83417E-08 6.26278E-09
 -1       745-2.01618E+05-3.49029E+03-4.23888E+03 5.81169E+04-6.09834E-08 3.26690E-09
 -3
 9999
