    1C
    1UUSER                                                              
    1UDATE              11.october.2022                                 
    1UTIME              17:31:27                                        
    1UHOST                                                              
    1UPGM               CalculiX                                        
    1UVERSION           Version 2.20                             
    1UCOMPILETIME       Sun Jul 31 18:08:37 CEST 2022                    
    1UDIR                                                               
    1UDBN                                                               
    1UMAT    1MESH_MATERIAL                                             
    2C                           841                                     1
 -1         1 0.00000E+00 0.00000E+00 0.00000E+00
 -1         2 1.66667E-02 0.00000E+00 0.00000E+00
 -1         3 3.33333E-02 0.00000E+00 0.00000E+00
 -1         4 5.00000E-02 0.00000E+00 0.00000E+00
 -1         5 6.66667E-02 0.00000E+00 0.00000E+00
 -1         8 0.00000E+00 6.25000E-03 0.00000E+00
 -1         9 1.66667E-02 6.25000E-03 0.00000E+00
 -1        10 3.33333E-02 6.25000E-03 0.00000E+00
 -1        11 5.00000E-02 6.25000E-03 0.00000E+00
 -1        12 6.66667E-02 6.25000E-03 0.00000E+00
 -1        15 0.00000E+00 1.25000E-02 0.00000E+00
 -1        16 1.66667E-02 1.25000E-02 0.00000E+00
 -1        17 3.33333E-02 1.25000E-02 0.00000E+00
 -1        18 5.00000E-02 1.25000E-02 0.00000E+00
 -1        19 6.66667E-02 1.25000E-02 0.00000E+00
 -1        20 8.33333E-02 1.25000E-02 0.00000E+00
 -1        21 1.00000E-01 1.25000E-02 0.00000E+00
 -1        22 0.00000E+00 1.87500E-02 0.00000E+00
 -1        23 1.66667E-02 1.87500E-02 0.00000E+00
 -1        24 3.33333E-02 1.87500E-02 0.00000E+00
 -1        25 5.00000E-02 1.87500E-02 0.00000E+00
 -1        26 6.66667E-02 1.87500E-02 0.00000E+00
 -1        27 8.33333E-02 1.87500E-02 0.00000E+00
 -1        28 1.00000E-01 1.87500E-02 0.00000E+00
 -1        29 0.00000E+00 2.50000E-02 0.00000E+00
 -1        30 1.66667E-02 2.50000E-02 0.00000E+00
 -1        31 3.33333E-02 2.50000E-02 0.00000E+00
 -1        32 5.00000E-02 2.50000E-02 0.00000E+00
 -1        33 6.66667E-02 2.50000E-02 0.00000E+00
 -1        34 8.33333E-02 2.50000E-02 0.00000E+00
 -1        35 1.00000E-01 2.50000E-02 0.00000E+00
 -1        36 1.04167E-03 0.00000E+00 0.00000E+00
 -1        37 2.08333E-03 0.00000E+00 0.00000E+00
 -1        38 3.12500E-03 0.00000E+00 0.00000E+00
 -1        39 4.16667E-03 0.00000E+00 0.00000E+00
 -1        40 5.20833E-03 0.00000E+00 0.00000E+00
 -1        41 6.25000E-03 0.00000E+00 0.00000E+00
 -1        42 7.29167E-03 0.00000E+00 0.00000E+00
 -1        43 8.33333E-03 0.00000E+00 0.00000E+00
 -1        44 9.37500E-03 0.00000E+00 0.00000E+00
 -1        45 1.04167E-02 0.00000E+00 0.00000E+00
 -1        46 1.14583E-02 0.00000E+00 0.00000E+00
 -1        47 1.25000E-02 0.00000E+00 0.00000E+00
 -1        48 1.35417E-02 0.00000E+00 0.00000E+00
 -1        49 1.45833E-02 0.00000E+00 0.00000E+00
 -1        50 1.56250E-02 0.00000E+00 0.00000E+00
 -1        51 0.00000E+00 1.04167E-03 0.00000E+00
 -1        52 0.00000E+00 2.08333E-03 0.00000E+00
 -1        53 0.00000E+00 3.12500E-03 0.00000E+00
 -1        54 0.00000E+00 4.16667E-03 0.00000E+00
 -1        55 0.00000E+00 5.20833E-03 0.00000E+00
 -1        56 1.04167E-03 3.90630E-04 0.00000E+00
 -1        57 2.08333E-03 7.81250E-04 0.00000E+00
 -1        58 3.12500E-03 1.17188E-03 0.00000E+00
 -1        59 4.16667E-03 1.56250E-03 0.00000E+00
 -1        60 5.20833E-03 1.95312E-03 0.00000E+00
 -1        61 6.25000E-03 2.34375E-03 0.00000E+00
 -1        62 7.29167E-03 2.73438E-03 0.00000E+00
 -1        63 8.33333E-03 3.12500E-03 0.00000E+00
 -1        64 9.37500E-03 3.51563E-03 0.00000E+00
 -1        65 1.04167E-02 3.90625E-03 0.00000E+00
 -1        66 1.14583E-02 4.29688E-03 0.00000E+00
 -1        67 1.25000E-02 4.68750E-03 0.00000E+00
 -1        68 1.35417E-02 5.07813E-03 0.00000E+00
 -1        69 1.45833E-02 5.46875E-03 0.00000E+00
 -1        70 1.56250E-02 5.85938E-03 0.00000E+00
 -1        71 1.77083E-02 0.00000E+00 0.00000E+00
 -1        72 1.87500E-02 0.00000E+00 0.00000E+00
 -1        73 1.97917E-02 0.00000E+00 0.00000E+00
 -1        74 2.08333E-02 0.00000E+00 0.00000E+00
 -1        75 2.18750E-02 0.00000E+00 0.00000E+00
 -1        76 2.29167E-02 0.00000E+00 0.00000E+00
 -1        77 2.39583E-02 0.00000E+00 0.00000E+00
 -1        78 2.50000E-02 0.00000E+00 0.00000E+00
 -1        79 2.60417E-02 0.00000E+00 0.00000E+00
 -1        80 2.70833E-02 0.00000E+00 0.00000E+00
 -1        81 2.81250E-02 0.00000E+00 0.00000E+00
 -1        82 2.91667E-02 0.00000E+00 0.00000E+00
 -1        83 3.02083E-02 0.00000E+00 0.00000E+00
 -1        84 3.12500E-02 0.00000E+00 0.00000E+00
 -1        85 3.22917E-02 0.00000E+00 0.00000E+00
 -1        86 1.66667E-02 1.04167E-03 0.00000E+00
 -1        87 1.66667E-02 2.08333E-03 0.00000E+00
 -1        88 1.66667E-02 3.12500E-03 0.00000E+00
 -1        89 1.66667E-02 4.16667E-03 0.00000E+00
 -1        90 1.66667E-02 5.20833E-03 0.00000E+00
 -1        91 1.77083E-02 3.90630E-04 0.00000E+00
 -1        92 1.87500E-02 7.81250E-04 0.00000E+00
 -1        93 1.97917E-02 1.17188E-03 0.00000E+00
 -1        94 2.08333E-02 1.56250E-03 0.00000E+00
 -1        95 2.18750E-02 1.95312E-03 0.00000E+00
 -1        96 2.29167E-02 2.34375E-03 0.00000E+00
 -1        97 2.39583E-02 2.73438E-03 0.00000E+00
 -1        98 2.50000E-02 3.12500E-03 0.00000E+00
 -1        99 2.60417E-02 3.51563E-03 0.00000E+00
 -1       100 2.70833E-02 3.90625E-03 0.00000E+00
 -1       101 2.81250E-02 4.29688E-03 0.00000E+00
 -1       102 2.91667E-02 4.68750E-03 0.00000E+00
 -1       103 3.02083E-02 5.07813E-03 0.00000E+00
 -1       104 3.12500E-02 5.46875E-03 0.00000E+00
 -1       105 3.22917E-02 5.85938E-03 0.00000E+00
 -1       106 3.43750E-02 0.00000E+00 0.00000E+00
 -1       107 3.54167E-02 0.00000E+00 0.00000E+00
 -1       108 3.64583E-02 0.00000E+00 0.00000E+00
 -1       109 3.75000E-02 0.00000E+00 0.00000E+00
 -1       110 3.85417E-02 0.00000E+00 0.00000E+00
 -1       111 3.95833E-02 0.00000E+00 0.00000E+00
 -1       112 4.06250E-02 0.00000E+00 0.00000E+00
 -1       113 4.16667E-02 0.00000E+00 0.00000E+00
 -1       114 4.27083E-02 0.00000E+00 0.00000E+00
 -1       115 4.37500E-02 0.00000E+00 0.00000E+00
 -1       116 4.47917E-02 0.00000E+00 0.00000E+00
 -1       117 4.58333E-02 0.00000E+00 0.00000E+00
 -1       118 4.68750E-02 0.00000E+00 0.00000E+00
 -1       119 4.79167E-02 0.00000E+00 0.00000E+00
 -1       120 4.89583E-02 0.00000E+00 0.00000E+00
 -1       121 3.33333E-02 1.04167E-03 0.00000E+00
 -1       122 3.33333E-02 2.08333E-03 0.00000E+00
 -1       123 3.33333E-02 3.12500E-03 0.00000E+00
 -1       124 3.33333E-02 4.16667E-03 0.00000E+00
 -1       125 3.33333E-02 5.20833E-03 0.00000E+00
 -1       126 3.43750E-02 3.90630E-04 0.00000E+00
 -1       127 3.54167E-02 7.81250E-04 0.00000E+00
 -1       128 3.64583E-02 1.17188E-03 0.00000E+00
 -1       129 3.75000E-02 1.56250E-03 0.00000E+00
 -1       130 3.85417E-02 1.95312E-03 0.00000E+00
 -1       131 3.95833E-02 2.34375E-03 0.00000E+00
 -1       132 4.06250E-02 2.73438E-03 0.00000E+00
 -1       133 4.16667E-02 3.12500E-03 0.00000E+00
 -1       134 4.27083E-02 3.51563E-03 0.00000E+00
 -1       135 4.37500E-02 3.90625E-03 0.00000E+00
 -1       136 4.47917E-02 4.29688E-03 0.00000E+00
 -1       137 4.58333E-02 4.68750E-03 0.00000E+00
 -1       138 4.68750E-02 5.07813E-03 0.00000E+00
 -1       139 4.79167E-02 5.46875E-03 0.00000E+00
 -1       140 4.89583E-02 5.85938E-03 0.00000E+00
 -1       141 5.10417E-02 0.00000E+00 0.00000E+00
 -1       142 5.20833E-02 0.00000E+00 0.00000E+00
 -1       143 5.31250E-02 0.00000E+00 0.00000E+00
 -1       144 5.41667E-02 0.00000E+00 0.00000E+00
 -1       145 5.52083E-02 0.00000E+00 0.00000E+00
 -1       146 5.62500E-02 0.00000E+00 0.00000E+00
 -1       147 5.72917E-02 0.00000E+00 0.00000E+00
 -1       148 5.83333E-02 0.00000E+00 0.00000E+00
 -1       149 5.93750E-02 0.00000E+00 0.00000E+00
 -1       150 6.04167E-02 0.00000E+00 0.00000E+00
 -1       151 6.14583E-02 0.00000E+00 0.00000E+00
 -1       152 6.25000E-02 0.00000E+00 0.00000E+00
 -1       153 6.35417E-02 0.00000E+00 0.00000E+00
 -1       154 6.45833E-02 0.00000E+00 0.00000E+00
 -1       155 6.56250E-02 0.00000E+00 0.00000E+00
 -1       156 5.00000E-02 1.04167E-03 0.00000E+00
 -1       157 5.00000E-02 2.08333E-03 0.00000E+00
 -1       158 5.00000E-02 3.12500E-03 0.00000E+00
 -1       159 5.00000E-02 4.16667E-03 0.00000E+00
 -1       160 5.00000E-02 5.20833E-03 0.00000E+00
 -1       161 5.10417E-02 3.90630E-04 0.00000E+00
 -1       162 5.20833E-02 7.81250E-04 0.00000E+00
 -1       163 5.31250E-02 1.17188E-03 0.00000E+00
 -1       164 5.41667E-02 1.56250E-03 0.00000E+00
 -1       165 5.52083E-02 1.95312E-03 0.00000E+00
 -1       166 5.62500E-02 2.34375E-03 0.00000E+00
 -1       167 5.72917E-02 2.73438E-03 0.00000E+00
 -1       168 5.83333E-02 3.12500E-03 0.00000E+00
 -1       169 5.93750E-02 3.51563E-03 0.00000E+00
 -1       170 6.04167E-02 3.90625E-03 0.00000E+00
 -1       171 6.14583E-02 4.29688E-03 0.00000E+00
 -1       172 6.25000E-02 4.68750E-03 0.00000E+00
 -1       173 6.35417E-02 5.07813E-03 0.00000E+00
 -1       174 6.45833E-02 5.46875E-03 0.00000E+00
 -1       175 6.56250E-02 5.85938E-03 0.00000E+00
 -1       191 6.66667E-02 1.04167E-03 0.00000E+00
 -1       192 6.66667E-02 2.08333E-03 0.00000E+00
 -1       193 6.66667E-02 3.12500E-03 0.00000E+00
 -1       194 6.66667E-02 4.16667E-03 0.00000E+00
 -1       195 6.66667E-02 5.20833E-03 0.00000E+00
 -1       251 1.04167E-03 6.25000E-03 0.00000E+00
 -1       252 2.08333E-03 6.25000E-03 0.00000E+00
 -1       253 3.12500E-03 6.25000E-03 0.00000E+00
 -1       254 4.16667E-03 6.25000E-03 0.00000E+00
 -1       255 5.20833E-03 6.25000E-03 0.00000E+00
 -1       256 6.25000E-03 6.25000E-03 0.00000E+00
 -1       257 7.29167E-03 6.25000E-03 0.00000E+00
 -1       258 8.33333E-03 6.25000E-03 0.00000E+00
 -1       259 9.37500E-03 6.25000E-03 0.00000E+00
 -1       260 1.04167E-02 6.25000E-03 0.00000E+00
 -1       261 1.14583E-02 6.25000E-03 0.00000E+00
 -1       262 1.25000E-02 6.25000E-03 0.00000E+00
 -1       263 1.35417E-02 6.25000E-03 0.00000E+00
 -1       264 1.45833E-02 6.25000E-03 0.00000E+00
 -1       265 1.56250E-02 6.25000E-03 0.00000E+00
 -1       266 0.00000E+00 7.29167E-03 0.00000E+00
 -1       267 0.00000E+00 8.33333E-03 0.00000E+00
 -1       268 0.00000E+00 9.37500E-03 0.00000E+00
 -1       269 0.00000E+00 1.04167E-02 0.00000E+00
 -1       270 0.00000E+00 1.14583E-02 0.00000E+00
 -1       271 1.04167E-03 6.64063E-03 0.00000E+00
 -1       272 2.08333E-03 7.03125E-03 0.00000E+00
 -1       273 3.12500E-03 7.42188E-03 0.00000E+00
 -1       274 4.16667E-03 7.81250E-03 0.00000E+00
 -1       275 5.20833E-03 8.20313E-03 0.00000E+00
 -1       276 6.25000E-03 8.59375E-03 0.00000E+00
 -1       277 7.29167E-03 8.98438E-03 0.00000E+00
 -1       278 8.33333E-03 9.37500E-03 0.00000E+00
 -1       279 9.37500E-03 9.76562E-03 0.00000E+00
 -1       280 1.04167E-02 1.01562E-02 0.00000E+00
 -1       281 1.14583E-02 1.05469E-02 0.00000E+00
 -1       282 1.25000E-02 1.09375E-02 0.00000E+00
 -1       283 1.35417E-02 1.13281E-02 0.00000E+00
 -1       284 1.45833E-02 1.17188E-02 0.00000E+00
 -1       285 1.56250E-02 1.21094E-02 0.00000E+00
 -1       286 1.77083E-02 6.25000E-03 0.00000E+00
 -1       287 1.87500E-02 6.25000E-03 0.00000E+00
 -1       288 1.97917E-02 6.25000E-03 0.00000E+00
 -1       289 2.08333E-02 6.25000E-03 0.00000E+00
 -1       290 2.18750E-02 6.25000E-03 0.00000E+00
 -1       291 2.29167E-02 6.25000E-03 0.00000E+00
 -1       292 2.39583E-02 6.25000E-03 0.00000E+00
 -1       293 2.50000E-02 6.25000E-03 0.00000E+00
 -1       294 2.60417E-02 6.25000E-03 0.00000E+00
 -1       295 2.70833E-02 6.25000E-03 0.00000E+00
 -1       296 2.81250E-02 6.25000E-03 0.00000E+00
 -1       297 2.91667E-02 6.25000E-03 0.00000E+00
 -1       298 3.02083E-02 6.25000E-03 0.00000E+00
 -1       299 3.12500E-02 6.25000E-03 0.00000E+00
 -1       300 3.22917E-02 6.25000E-03 0.00000E+00
 -1       301 1.66667E-02 7.29167E-03 0.00000E+00
 -1       302 1.66667E-02 8.33333E-03 0.00000E+00
 -1       303 1.66667E-02 9.37500E-03 0.00000E+00
 -1       304 1.66667E-02 1.04167E-02 0.00000E+00
 -1       305 1.66667E-02 1.14583E-02 0.00000E+00
 -1       306 1.77083E-02 6.64063E-03 0.00000E+00
 -1       307 1.87500E-02 7.03125E-03 0.00000E+00
 -1       308 1.97917E-02 7.42188E-03 0.00000E+00
 -1       309 2.08333E-02 7.81250E-03 0.00000E+00
 -1       310 2.18750E-02 8.20313E-03 0.00000E+00
 -1       311 2.29167E-02 8.59375E-03 0.00000E+00
 -1       312 2.39583E-02 8.98438E-03 0.00000E+00
 -1       313 2.50000E-02 9.37500E-03 0.00000E+00
 -1       314 2.60417E-02 9.76562E-03 0.00000E+00
 -1       315 2.70833E-02 1.01562E-02 0.00000E+00
 -1       316 2.81250E-02 1.05469E-02 0.00000E+00
 -1       317 2.91667E-02 1.09375E-02 0.00000E+00
 -1       318 3.02083E-02 1.13281E-02 0.00000E+00
 -1       319 3.12500E-02 1.17188E-02 0.00000E+00
 -1       320 3.22917E-02 1.21094E-02 0.00000E+00
 -1       321 3.43750E-02 6.25000E-03 0.00000E+00
 -1       322 3.54167E-02 6.25000E-03 0.00000E+00
 -1       323 3.64583E-02 6.25000E-03 0.00000E+00
 -1       324 3.75000E-02 6.25000E-03 0.00000E+00
 -1       325 3.85417E-02 6.25000E-03 0.00000E+00
 -1       326 3.95833E-02 6.25000E-03 0.00000E+00
 -1       327 4.06250E-02 6.25000E-03 0.00000E+00
 -1       328 4.16667E-02 6.25000E-03 0.00000E+00
 -1       329 4.27083E-02 6.25000E-03 0.00000E+00
 -1       330 4.37500E-02 6.25000E-03 0.00000E+00
 -1       331 4.47917E-02 6.25000E-03 0.00000E+00
 -1       332 4.58333E-02 6.25000E-03 0.00000E+00
 -1       333 4.68750E-02 6.25000E-03 0.00000E+00
 -1       334 4.79167E-02 6.25000E-03 0.00000E+00
 -1       335 4.89583E-02 6.25000E-03 0.00000E+00
 -1       336 3.33333E-02 7.29167E-03 0.00000E+00
 -1       337 3.33333E-02 8.33333E-03 0.00000E+00
 -1       338 3.33333E-02 9.37500E-03 0.00000E+00
 -1       339 3.33333E-02 1.04167E-02 0.00000E+00
 -1       340 3.33333E-02 1.14583E-02 0.00000E+00
 -1       341 3.43750E-02 6.64063E-03 0.00000E+00
 -1       342 3.54167E-02 7.03125E-03 0.00000E+00
 -1       343 3.64583E-02 7.42188E-03 0.00000E+00
 -1       344 3.75000E-02 7.81250E-03 0.00000E+00
 -1       345 3.85417E-02 8.20313E-03 0.00000E+00
 -1       346 3.95833E-02 8.59375E-03 0.00000E+00
 -1       347 4.06250E-02 8.98438E-03 0.00000E+00
 -1       348 4.16667E-02 9.37500E-03 0.00000E+00
 -1       349 4.27083E-02 9.76562E-03 0.00000E+00
 -1       350 4.37500E-02 1.01562E-02 0.00000E+00
 -1       351 4.47917E-02 1.05469E-02 0.00000E+00
 -1       352 4.58333E-02 1.09375E-02 0.00000E+00
 -1       353 4.68750E-02 1.13281E-02 0.00000E+00
 -1       354 4.79167E-02 1.17188E-02 0.00000E+00
 -1       355 4.89583E-02 1.21094E-02 0.00000E+00
 -1       356 5.10417E-02 6.25000E-03 0.00000E+00
 -1       357 5.20833E-02 6.25000E-03 0.00000E+00
 -1       358 5.31250E-02 6.25000E-03 0.00000E+00
 -1       359 5.41667E-02 6.25000E-03 0.00000E+00
 -1       360 5.52083E-02 6.25000E-03 0.00000E+00
 -1       361 5.62500E-02 6.25000E-03 0.00000E+00
 -1       362 5.72917E-02 6.25000E-03 0.00000E+00
 -1       363 5.83333E-02 6.25000E-03 0.00000E+00
 -1       364 5.93750E-02 6.25000E-03 0.00000E+00
 -1       365 6.04167E-02 6.25000E-03 0.00000E+00
 -1       366 6.14583E-02 6.25000E-03 0.00000E+00
 -1       367 6.25000E-02 6.25000E-03 0.00000E+00
 -1       368 6.35417E-02 6.25000E-03 0.00000E+00
 -1       369 6.45833E-02 6.25000E-03 0.00000E+00
 -1       370 6.56250E-02 6.25000E-03 0.00000E+00
 -1       371 5.00000E-02 7.29167E-03 0.00000E+00
 -1       372 5.00000E-02 8.33333E-03 0.00000E+00
 -1       373 5.00000E-02 9.37500E-03 0.00000E+00
 -1       374 5.00000E-02 1.04167E-02 0.00000E+00
 -1       375 5.00000E-02 1.14583E-02 0.00000E+00
 -1       376 5.10417E-02 6.64063E-03 0.00000E+00
 -1       377 5.20833E-02 7.03125E-03 0.00000E+00
 -1       378 5.31250E-02 7.42188E-03 0.00000E+00
 -1       379 5.41667E-02 7.81250E-03 0.00000E+00
 -1       380 5.52083E-02 8.20313E-03 0.00000E+00
 -1       381 5.62500E-02 8.59375E-03 0.00000E+00
 -1       382 5.72917E-02 8.98438E-03 0.00000E+00
 -1       383 5.83333E-02 9.37500E-03 0.00000E+00
 -1       384 5.93750E-02 9.76562E-03 0.00000E+00
 -1       385 6.04167E-02 1.01562E-02 0.00000E+00
 -1       386 6.14583E-02 1.05469E-02 0.00000E+00
 -1       387 6.25000E-02 1.09375E-02 0.00000E+00
 -1       388 6.35417E-02 1.13281E-02 0.00000E+00
 -1       389 6.45833E-02 1.17188E-02 0.00000E+00
 -1       390 6.56250E-02 1.21094E-02 0.00000E+00
 -1       406 6.66667E-02 7.29167E-03 0.00000E+00
 -1       407 6.66667E-02 8.33333E-03 0.00000E+00
 -1       408 6.66667E-02 9.37500E-03 0.00000E+00
 -1       409 6.66667E-02 1.04167E-02 0.00000E+00
 -1       410 6.66667E-02 1.14583E-02 0.00000E+00
 -1       466 1.04167E-03 1.25000E-02 0.00000E+00
 -1       467 2.08333E-03 1.25000E-02 0.00000E+00
 -1       468 3.12500E-03 1.25000E-02 0.00000E+00
 -1       469 4.16667E-03 1.25000E-02 0.00000E+00
 -1       470 5.20833E-03 1.25000E-02 0.00000E+00
 -1       471 6.25000E-03 1.25000E-02 0.00000E+00
 -1       472 7.29167E-03 1.25000E-02 0.00000E+00
 -1       473 8.33333E-03 1.25000E-02 0.00000E+00
 -1       474 9.37500E-03 1.25000E-02 0.00000E+00
 -1       475 1.04167E-02 1.25000E-02 0.00000E+00
 -1       476 1.14583E-02 1.25000E-02 0.00000E+00
 -1       477 1.25000E-02 1.25000E-02 0.00000E+00
 -1       478 1.35417E-02 1.25000E-02 0.00000E+00
 -1       479 1.45833E-02 1.25000E-02 0.00000E+00
 -1       480 1.56250E-02 1.25000E-02 0.00000E+00
 -1       481 0.00000E+00 1.35417E-02 0.00000E+00
 -1       482 0.00000E+00 1.45833E-02 0.00000E+00
 -1       483 0.00000E+00 1.56250E-02 0.00000E+00
 -1       484 0.00000E+00 1.66667E-02 0.00000E+00
 -1       485 0.00000E+00 1.77083E-02 0.00000E+00
 -1       486 1.04167E-03 1.28906E-02 0.00000E+00
 -1       487 2.08333E-03 1.32813E-02 0.00000E+00
 -1       488 3.12500E-03 1.36719E-02 0.00000E+00
 -1       489 4.16667E-03 1.40625E-02 0.00000E+00
 -1       490 5.20833E-03 1.44531E-02 0.00000E+00
 -1       491 6.25000E-03 1.48437E-02 0.00000E+00
 -1       492 7.29167E-03 1.52344E-02 0.00000E+00
 -1       493 8.33333E-03 1.56250E-02 0.00000E+00
 -1       494 9.37500E-03 1.60156E-02 0.00000E+00
 -1       495 1.04167E-02 1.64062E-02 0.00000E+00
 -1       496 1.14583E-02 1.67969E-02 0.00000E+00
 -1       497 1.25000E-02 1.71875E-02 0.00000E+00
 -1       498 1.35417E-02 1.75781E-02 0.00000E+00
 -1       499 1.45833E-02 1.79687E-02 0.00000E+00
 -1       500 1.56250E-02 1.83594E-02 0.00000E+00
 -1       501 1.77083E-02 1.25000E-02 0.00000E+00
 -1       502 1.87500E-02 1.25000E-02 0.00000E+00
 -1       503 1.97917E-02 1.25000E-02 0.00000E+00
 -1       504 2.08333E-02 1.25000E-02 0.00000E+00
 -1       505 2.18750E-02 1.25000E-02 0.00000E+00
 -1       506 2.29167E-02 1.25000E-02 0.00000E+00
 -1       507 2.39583E-02 1.25000E-02 0.00000E+00
 -1       508 2.50000E-02 1.25000E-02 0.00000E+00
 -1       509 2.60417E-02 1.25000E-02 0.00000E+00
 -1       510 2.70833E-02 1.25000E-02 0.00000E+00
 -1       511 2.81250E-02 1.25000E-02 0.00000E+00
 -1       512 2.91667E-02 1.25000E-02 0.00000E+00
 -1       513 3.02083E-02 1.25000E-02 0.00000E+00
 -1       514 3.12500E-02 1.25000E-02 0.00000E+00
 -1       515 3.22917E-02 1.25000E-02 0.00000E+00
 -1       516 1.66667E-02 1.35417E-02 0.00000E+00
 -1       517 1.66667E-02 1.45833E-02 0.00000E+00
 -1       518 1.66667E-02 1.56250E-02 0.00000E+00
 -1       519 1.66667E-02 1.66667E-02 0.00000E+00
 -1       520 1.66667E-02 1.77083E-02 0.00000E+00
 -1       521 1.77083E-02 1.28906E-02 0.00000E+00
 -1       522 1.87500E-02 1.32813E-02 0.00000E+00
 -1       523 1.97917E-02 1.36719E-02 0.00000E+00
 -1       524 2.08333E-02 1.40625E-02 0.00000E+00
 -1       525 2.18750E-02 1.44531E-02 0.00000E+00
 -1       526 2.29167E-02 1.48437E-02 0.00000E+00
 -1       527 2.39583E-02 1.52344E-02 0.00000E+00
 -1       528 2.50000E-02 1.56250E-02 0.00000E+00
 -1       529 2.60417E-02 1.60156E-02 0.00000E+00
 -1       530 2.70833E-02 1.64062E-02 0.00000E+00
 -1       531 2.81250E-02 1.67969E-02 0.00000E+00
 -1       532 2.91667E-02 1.71875E-02 0.00000E+00
 -1       533 3.02083E-02 1.75781E-02 0.00000E+00
 -1       534 3.12500E-02 1.79687E-02 0.00000E+00
 -1       535 3.22917E-02 1.83594E-02 0.00000E+00
 -1       536 3.43750E-02 1.25000E-02 0.00000E+00
 -1       537 3.54167E-02 1.25000E-02 0.00000E+00
 -1       538 3.64583E-02 1.25000E-02 0.00000E+00
 -1       539 3.75000E-02 1.25000E-02 0.00000E+00
 -1       540 3.85417E-02 1.25000E-02 0.00000E+00
 -1       541 3.95833E-02 1.25000E-02 0.00000E+00
 -1       542 4.06250E-02 1.25000E-02 0.00000E+00
 -1       543 4.16667E-02 1.25000E-02 0.00000E+00
 -1       544 4.27083E-02 1.25000E-02 0.00000E+00
 -1       545 4.37500E-02 1.25000E-02 0.00000E+00
 -1       546 4.47917E-02 1.25000E-02 0.00000E+00
 -1       547 4.58333E-02 1.25000E-02 0.00000E+00
 -1       548 4.68750E-02 1.25000E-02 0.00000E+00
 -1       549 4.79167E-02 1.25000E-02 0.00000E+00
 -1       550 4.89583E-02 1.25000E-02 0.00000E+00
 -1       551 3.33333E-02 1.35417E-02 0.00000E+00
 -1       552 3.33333E-02 1.45833E-02 0.00000E+00
 -1       553 3.33333E-02 1.56250E-02 0.00000E+00
 -1       554 3.33333E-02 1.66667E-02 0.00000E+00
 -1       555 3.33333E-02 1.77083E-02 0.00000E+00
 -1       556 3.43750E-02 1.28906E-02 0.00000E+00
 -1       557 3.54167E-02 1.32813E-02 0.00000E+00
 -1       558 3.64583E-02 1.36719E-02 0.00000E+00
 -1       559 3.75000E-02 1.40625E-02 0.00000E+00
 -1       560 3.85417E-02 1.44531E-02 0.00000E+00
 -1       561 3.95833E-02 1.48437E-02 0.00000E+00
 -1       562 4.06250E-02 1.52344E-02 0.00000E+00
 -1       563 4.16667E-02 1.56250E-02 0.00000E+00
 -1       564 4.27083E-02 1.60156E-02 0.00000E+00
 -1       565 4.37500E-02 1.64062E-02 0.00000E+00
 -1       566 4.47917E-02 1.67969E-02 0.00000E+00
 -1       567 4.58333E-02 1.71875E-02 0.00000E+00
 -1       568 4.68750E-02 1.75781E-02 0.00000E+00
 -1       569 4.79167E-02 1.79687E-02 0.00000E+00
 -1       570 4.89583E-02 1.83594E-02 0.00000E+00
 -1       571 5.10417E-02 1.25000E-02 0.00000E+00
 -1       572 5.20833E-02 1.25000E-02 0.00000E+00
 -1       573 5.31250E-02 1.25000E-02 0.00000E+00
 -1       574 5.41667E-02 1.25000E-02 0.00000E+00
 -1       575 5.52083E-02 1.25000E-02 0.00000E+00
 -1       576 5.62500E-02 1.25000E-02 0.00000E+00
 -1       577 5.72917E-02 1.25000E-02 0.00000E+00
 -1       578 5.83333E-02 1.25000E-02 0.00000E+00
 -1       579 5.93750E-02 1.25000E-02 0.00000E+00
 -1       580 6.04167E-02 1.25000E-02 0.00000E+00
 -1       581 6.14583E-02 1.25000E-02 0.00000E+00
 -1       582 6.25000E-02 1.25000E-02 0.00000E+00
 -1       583 6.35417E-02 1.25000E-02 0.00000E+00
 -1       584 6.45833E-02 1.25000E-02 0.00000E+00
 -1       585 6.56250E-02 1.25000E-02 0.00000E+00
 -1       586 5.00000E-02 1.35417E-02 0.00000E+00
 -1       587 5.00000E-02 1.45833E-02 0.00000E+00
 -1       588 5.00000E-02 1.56250E-02 0.00000E+00
 -1       589 5.00000E-02 1.66667E-02 0.00000E+00
 -1       590 5.00000E-02 1.77083E-02 0.00000E+00
 -1       591 5.10417E-02 1.28906E-02 0.00000E+00
 -1       592 5.20833E-02 1.32813E-02 0.00000E+00
 -1       593 5.31250E-02 1.36719E-02 0.00000E+00
 -1       594 5.41667E-02 1.40625E-02 0.00000E+00
 -1       595 5.52083E-02 1.44531E-02 0.00000E+00
 -1       596 5.62500E-02 1.48437E-02 0.00000E+00
 -1       597 5.72917E-02 1.52344E-02 0.00000E+00
 -1       598 5.83333E-02 1.56250E-02 0.00000E+00
 -1       599 5.93750E-02 1.60156E-02 0.00000E+00
 -1       600 6.04167E-02 1.64062E-02 0.00000E+00
 -1       601 6.14583E-02 1.67969E-02 0.00000E+00
 -1       602 6.25000E-02 1.71875E-02 0.00000E+00
 -1       603 6.35417E-02 1.75781E-02 0.00000E+00
 -1       604 6.45833E-02 1.79687E-02 0.00000E+00
 -1       605 6.56250E-02 1.83594E-02 0.00000E+00
 -1       606 6.77083E-02 1.25000E-02 0.00000E+00
 -1       607 6.87500E-02 1.25000E-02 0.00000E+00
 -1       608 6.97917E-02 1.25000E-02 0.00000E+00
 -1       609 7.08333E-02 1.25000E-02 0.00000E+00
 -1       610 7.18750E-02 1.25000E-02 0.00000E+00
 -1       611 7.29167E-02 1.25000E-02 0.00000E+00
 -1       612 7.39583E-02 1.25000E-02 0.00000E+00
 -1       613 7.50000E-02 1.25000E-02 0.00000E+00
 -1       614 7.60417E-02 1.25000E-02 0.00000E+00
 -1       615 7.70833E-02 1.25000E-02 0.00000E+00
 -1       616 7.81250E-02 1.25000E-02 0.00000E+00
 -1       617 7.91667E-02 1.25000E-02 0.00000E+00
 -1       618 8.02083E-02 1.25000E-02 0.00000E+00
 -1       619 8.12500E-02 1.25000E-02 0.00000E+00
 -1       620 8.22917E-02 1.25000E-02 0.00000E+00
 -1       621 6.66667E-02 1.35417E-02 0.00000E+00
 -1       622 6.66667E-02 1.45833E-02 0.00000E+00
 -1       623 6.66667E-02 1.56250E-02 0.00000E+00
 -1       624 6.66667E-02 1.66667E-02 0.00000E+00
 -1       625 6.66667E-02 1.77083E-02 0.00000E+00
 -1       626 6.77083E-02 1.28906E-02 0.00000E+00
 -1       627 6.87500E-02 1.32813E-02 0.00000E+00
 -1       628 6.97917E-02 1.36719E-02 0.00000E+00
 -1       629 7.08333E-02 1.40625E-02 0.00000E+00
 -1       630 7.18750E-02 1.44531E-02 0.00000E+00
 -1       631 7.29167E-02 1.48437E-02 0.00000E+00
 -1       632 7.39583E-02 1.52344E-02 0.00000E+00
 -1       633 7.50000E-02 1.56250E-02 0.00000E+00
 -1       634 7.60417E-02 1.60156E-02 0.00000E+00
 -1       635 7.70833E-02 1.64062E-02 0.00000E+00
 -1       636 7.81250E-02 1.67969E-02 0.00000E+00
 -1       637 7.91667E-02 1.71875E-02 0.00000E+00
 -1       638 8.02083E-02 1.75781E-02 0.00000E+00
 -1       639 8.12500E-02 1.79687E-02 0.00000E+00
 -1       640 8.22917E-02 1.83594E-02 0.00000E+00
 -1       641 8.43750E-02 1.25000E-02 0.00000E+00
 -1       642 8.54167E-02 1.25000E-02 0.00000E+00
 -1       643 8.64583E-02 1.25000E-02 0.00000E+00
 -1       644 8.75000E-02 1.25000E-02 0.00000E+00
 -1       645 8.85417E-02 1.25000E-02 0.00000E+00
 -1       646 8.95833E-02 1.25000E-02 0.00000E+00
 -1       647 9.06250E-02 1.25000E-02 0.00000E+00
 -1       648 9.16667E-02 1.25000E-02 0.00000E+00
 -1       649 9.27083E-02 1.25000E-02 0.00000E+00
 -1       650 9.37500E-02 1.25000E-02 0.00000E+00
 -1       651 9.47917E-02 1.25000E-02 0.00000E+00
 -1       652 9.58333E-02 1.25000E-02 0.00000E+00
 -1       653 9.68750E-02 1.25000E-02 0.00000E+00
 -1       654 9.79167E-02 1.25000E-02 0.00000E+00
 -1       655 9.89583E-02 1.25000E-02 0.00000E+00
 -1       656 8.33333E-02 1.35417E-02 0.00000E+00
 -1       657 8.33333E-02 1.45833E-02 0.00000E+00
 -1       658 8.33333E-02 1.56250E-02 0.00000E+00
 -1       659 8.33333E-02 1.66667E-02 0.00000E+00
 -1       660 8.33333E-02 1.77083E-02 0.00000E+00
 -1       661 8.43750E-02 1.28906E-02 0.00000E+00
 -1       662 8.54167E-02 1.32813E-02 0.00000E+00
 -1       663 8.64583E-02 1.36719E-02 0.00000E+00
 -1       664 8.75000E-02 1.40625E-02 0.00000E+00
 -1       665 8.85417E-02 1.44531E-02 0.00000E+00
 -1       666 8.95833E-02 1.48437E-02 0.00000E+00
 -1       667 9.06250E-02 1.52344E-02 0.00000E+00
 -1       668 9.16667E-02 1.56250E-02 0.00000E+00
 -1       669 9.27083E-02 1.60156E-02 0.00000E+00
 -1       670 9.37500E-02 1.64062E-02 0.00000E+00
 -1       671 9.47917E-02 1.67969E-02 0.00000E+00
 -1       672 9.58333E-02 1.71875E-02 0.00000E+00
 -1       673 9.68750E-02 1.75781E-02 0.00000E+00
 -1       674 9.79167E-02 1.79687E-02 0.00000E+00
 -1       675 9.89583E-02 1.83594E-02 0.00000E+00
 -1       676 1.00000E-01 1.35417E-02 0.00000E+00
 -1       677 1.00000E-01 1.45833E-02 0.00000E+00
 -1       678 1.00000E-01 1.56250E-02 0.00000E+00
 -1       679 1.00000E-01 1.66667E-02 0.00000E+00
 -1       680 1.00000E-01 1.77083E-02 0.00000E+00
 -1       681 1.04167E-03 1.87500E-02 0.00000E+00
 -1       682 2.08333E-03 1.87500E-02 0.00000E+00
 -1       683 3.12500E-03 1.87500E-02 0.00000E+00
 -1       684 4.16667E-03 1.87500E-02 0.00000E+00
 -1       685 5.20833E-03 1.87500E-02 0.00000E+00
 -1       686 6.25000E-03 1.87500E-02 0.00000E+00
 -1       687 7.29167E-03 1.87500E-02 0.00000E+00
 -1       688 8.33333E-03 1.87500E-02 0.00000E+00
 -1       689 9.37500E-03 1.87500E-02 0.00000E+00
 -1       690 1.04167E-02 1.87500E-02 0.00000E+00
 -1       691 1.14583E-02 1.87500E-02 0.00000E+00
 -1       692 1.25000E-02 1.87500E-02 0.00000E+00
 -1       693 1.35417E-02 1.87500E-02 0.00000E+00
 -1       694 1.45833E-02 1.87500E-02 0.00000E+00
 -1       695 1.56250E-02 1.87500E-02 0.00000E+00
 -1       696 0.00000E+00 1.97917E-02 0.00000E+00
 -1       697 0.00000E+00 2.08333E-02 0.00000E+00
 -1       698 0.00000E+00 2.18750E-02 0.00000E+00
 -1       699 0.00000E+00 2.29167E-02 0.00000E+00
 -1       700 0.00000E+00 2.39583E-02 0.00000E+00
 -1       701 1.04167E-03 1.91406E-02 0.00000E+00
 -1       702 2.08333E-03 1.95312E-02 0.00000E+00
 -1       703 3.12500E-03 1.99219E-02 0.00000E+00
 -1       704 4.16667E-03 2.03125E-02 0.00000E+00
 -1       705 5.20833E-03 2.07031E-02 0.00000E+00
 -1       706 6.25000E-03 2.10938E-02 0.00000E+00
 -1       707 7.29167E-03 2.14844E-02 0.00000E+00
 -1       708 8.33333E-03 2.18750E-02 0.00000E+00
 -1       709 9.37500E-03 2.22656E-02 0.00000E+00
 -1       710 1.04167E-02 2.26563E-02 0.00000E+00
 -1       711 1.14583E-02 2.30469E-02 0.00000E+00
 -1       712 1.25000E-02 2.34375E-02 0.00000E+00
 -1       713 1.35417E-02 2.38281E-02 0.00000E+00
 -1       714 1.45833E-02 2.42187E-02 0.00000E+00
 -1       715 1.56250E-02 2.46094E-02 0.00000E+00
 -1       716 1.77083E-02 1.87500E-02 0.00000E+00
 -1       717 1.87500E-02 1.87500E-02 0.00000E+00
 -1       718 1.97917E-02 1.87500E-02 0.00000E+00
 -1       719 2.08333E-02 1.87500E-02 0.00000E+00
 -1       720 2.18750E-02 1.87500E-02 0.00000E+00
 -1       721 2.29167E-02 1.87500E-02 0.00000E+00
 -1       722 2.39583E-02 1.87500E-02 0.00000E+00
 -1       723 2.50000E-02 1.87500E-02 0.00000E+00
 -1       724 2.60417E-02 1.87500E-02 0.00000E+00
 -1       725 2.70833E-02 1.87500E-02 0.00000E+00
 -1       726 2.81250E-02 1.87500E-02 0.00000E+00
 -1       727 2.91667E-02 1.87500E-02 0.00000E+00
 -1       728 3.02083E-02 1.87500E-02 0.00000E+00
 -1       729 3.12500E-02 1.87500E-02 0.00000E+00
 -1       730 3.22917E-02 1.87500E-02 0.00000E+00
 -1       731 1.66667E-02 1.97917E-02 0.00000E+00
 -1       732 1.66667E-02 2.08333E-02 0.00000E+00
 -1       733 1.66667E-02 2.18750E-02 0.00000E+00
 -1       734 1.66667E-02 2.29167E-02 0.00000E+00
 -1       735 1.66667E-02 2.39583E-02 0.00000E+00
 -1       736 1.77083E-02 1.91406E-02 0.00000E+00
 -1       737 1.87500E-02 1.95312E-02 0.00000E+00
 -1       738 1.97917E-02 1.99219E-02 0.00000E+00
 -1       739 2.08333E-02 2.03125E-02 0.00000E+00
 -1       740 2.18750E-02 2.07031E-02 0.00000E+00
 -1       741 2.29167E-02 2.10938E-02 0.00000E+00
 -1       742 2.39583E-02 2.14844E-02 0.00000E+00
 -1       743 2.50000E-02 2.18750E-02 0.00000E+00
 -1       744 2.60417E-02 2.22656E-02 0.00000E+00
 -1       745 2.70833E-02 2.26563E-02 0.00000E+00
 -1       746 2.81250E-02 2.30469E-02 0.00000E+00
 -1       747 2.91667E-02 2.34375E-02 0.00000E+00
 -1       748 3.02083E-02 2.38281E-02 0.00000E+00
 -1       749 3.12500E-02 2.42187E-02 0.00000E+00
 -1       750 3.22917E-02 2.46094E-02 0.00000E+00
 -1       751 3.43750E-02 1.87500E-02 0.00000E+00
 -1       752 3.54167E-02 1.87500E-02 0.00000E+00
 -1       753 3.64583E-02 1.87500E-02 0.00000E+00
 -1       754 3.75000E-02 1.87500E-02 0.00000E+00
 -1       755 3.85417E-02 1.87500E-02 0.00000E+00
 -1       756 3.95833E-02 1.87500E-02 0.00000E+00
 -1       757 4.06250E-02 1.87500E-02 0.00000E+00
 -1       758 4.16667E-02 1.87500E-02 0.00000E+00
 -1       759 4.27083E-02 1.87500E-02 0.00000E+00
 -1       760 4.37500E-02 1.87500E-02 0.00000E+00
 -1       761 4.47917E-02 1.87500E-02 0.00000E+00
 -1       762 4.58333E-02 1.87500E-02 0.00000E+00
 -1       763 4.68750E-02 1.87500E-02 0.00000E+00
 -1       764 4.79167E-02 1.87500E-02 0.00000E+00
 -1       765 4.89583E-02 1.87500E-02 0.00000E+00
 -1       766 3.33333E-02 1.97917E-02 0.00000E+00
 -1       767 3.33333E-02 2.08333E-02 0.00000E+00
 -1       768 3.33333E-02 2.18750E-02 0.00000E+00
 -1       769 3.33333E-02 2.29167E-02 0.00000E+00
 -1       770 3.33333E-02 2.39583E-02 0.00000E+00
 -1       771 3.43750E-02 1.91406E-02 0.00000E+00
 -1       772 3.54167E-02 1.95312E-02 0.00000E+00
 -1       773 3.64583E-02 1.99219E-02 0.00000E+00
 -1       774 3.75000E-02 2.03125E-02 0.00000E+00
 -1       775 3.85417E-02 2.07031E-02 0.00000E+00
 -1       776 3.95833E-02 2.10938E-02 0.00000E+00
 -1       777 4.06250E-02 2.14844E-02 0.00000E+00
 -1       778 4.16667E-02 2.18750E-02 0.00000E+00
 -1       779 4.27083E-02 2.22656E-02 0.00000E+00
 -1       780 4.37500E-02 2.26563E-02 0.00000E+00
 -1       781 4.47917E-02 2.30469E-02 0.00000E+00
 -1       782 4.58333E-02 2.34375E-02 0.00000E+00
 -1       783 4.68750E-02 2.38281E-02 0.00000E+00
 -1       784 4.79167E-02 2.42187E-02 0.00000E+00
 -1       785 4.89583E-02 2.46094E-02 0.00000E+00
 -1       786 5.10417E-02 1.87500E-02 0.00000E+00
 -1       787 5.20833E-02 1.87500E-02 0.00000E+00
 -1       788 5.31250E-02 1.87500E-02 0.00000E+00
 -1       789 5.41667E-02 1.87500E-02 0.00000E+00
 -1       790 5.52083E-02 1.87500E-02 0.00000E+00
 -1       791 5.62500E-02 1.87500E-02 0.00000E+00
 -1       792 5.72917E-02 1.87500E-02 0.00000E+00
 -1       793 5.83333E-02 1.87500E-02 0.00000E+00
 -1       794 5.93750E-02 1.87500E-02 0.00000E+00
 -1       795 6.04167E-02 1.87500E-02 0.00000E+00
 -1       796 6.14583E-02 1.87500E-02 0.00000E+00
 -1       797 6.25000E-02 1.87500E-02 0.00000E+00
 -1       798 6.35417E-02 1.87500E-02 0.00000E+00
 -1       799 6.45833E-02 1.87500E-02 0.00000E+00
 -1       800 6.56250E-02 1.87500E-02 0.00000E+00
 -1       801 5.00000E-02 1.97917E-02 0.00000E+00
 -1       802 5.00000E-02 2.08333E-02 0.00000E+00
 -1       803 5.00000E-02 2.18750E-02 0.00000E+00
 -1       804 5.00000E-02 2.29167E-02 0.00000E+00
 -1       805 5.00000E-02 2.39583E-02 0.00000E+00
 -1       806 5.10417E-02 1.91406E-02 0.00000E+00
 -1       807 5.20833E-02 1.95312E-02 0.00000E+00
 -1       808 5.31250E-02 1.99219E-02 0.00000E+00
 -1       809 5.41667E-02 2.03125E-02 0.00000E+00
 -1       810 5.52083E-02 2.07031E-02 0.00000E+00
 -1       811 5.62500E-02 2.10938E-02 0.00000E+00
 -1       812 5.72917E-02 2.14844E-02 0.00000E+00
 -1       813 5.83333E-02 2.18750E-02 0.00000E+00
 -1       814 5.93750E-02 2.22656E-02 0.00000E+00
 -1       815 6.04167E-02 2.26563E-02 0.00000E+00
 -1       816 6.14583E-02 2.30469E-02 0.00000E+00
 -1       817 6.25000E-02 2.34375E-02 0.00000E+00
 -1       818 6.35417E-02 2.38281E-02 0.00000E+00
 -1       819 6.45833E-02 2.42187E-02 0.00000E+00
 -1       820 6.56250E-02 2.46094E-02 0.00000E+00
 -1       821 6.77083E-02 1.87500E-02 0.00000E+00
 -1       822 6.87500E-02 1.87500E-02 0.00000E+00
 -1       823 6.97917E-02 1.87500E-02 0.00000E+00
 -1       824 7.08333E-02 1.87500E-02 0.00000E+00
 -1       825 7.18750E-02 1.87500E-02 0.00000E+00
 -1       826 7.29167E-02 1.87500E-02 0.00000E+00
 -1       827 7.39583E-02 1.87500E-02 0.00000E+00
 -1       828 7.50000E-02 1.87500E-02 0.00000E+00
 -1       829 7.60417E-02 1.87500E-02 0.00000E+00
 -1       830 7.70833E-02 1.87500E-02 0.00000E+00
 -1       831 7.81250E-02 1.87500E-02 0.00000E+00
 -1       832 7.91667E-02 1.87500E-02 0.00000E+00
 -1       833 8.02083E-02 1.87500E-02 0.00000E+00
 -1       834 8.12500E-02 1.87500E-02 0.00000E+00
 -1       835 8.22917E-02 1.87500E-02 0.00000E+00
 -1       836 6.66667E-02 1.97917E-02 0.00000E+00
 -1       837 6.66667E-02 2.08333E-02 0.00000E+00
 -1       838 6.66667E-02 2.18750E-02 0.00000E+00
 -1       839 6.66667E-02 2.29167E-02 0.00000E+00
 -1       840 6.66667E-02 2.39583E-02 0.00000E+00
 -1       841 6.77083E-02 1.91406E-02 0.00000E+00
 -1       842 6.87500E-02 1.95312E-02 0.00000E+00
 -1       843 6.97917E-02 1.99219E-02 0.00000E+00
 -1       844 7.08333E-02 2.03125E-02 0.00000E+00
 -1       845 7.18750E-02 2.07031E-02 0.00000E+00
 -1       846 7.29167E-02 2.10938E-02 0.00000E+00
 -1       847 7.39583E-02 2.14844E-02 0.00000E+00
 -1       848 7.50000E-02 2.18750E-02 0.00000E+00
 -1       849 7.60417E-02 2.22656E-02 0.00000E+00
 -1       850 7.70833E-02 2.26563E-02 0.00000E+00
 -1       851 7.81250E-02 2.30469E-02 0.00000E+00
 -1       852 7.91667E-02 2.34375E-02 0.00000E+00
 -1       853 8.02083E-02 2.38281E-02 0.00000E+00
 -1       854 8.12500E-02 2.42187E-02 0.00000E+00
 -1       855 8.22917E-02 2.46094E-02 0.00000E+00
 -1       856 8.43750E-02 1.87500E-02 0.00000E+00
 -1       857 8.54167E-02 1.87500E-02 0.00000E+00
 -1       858 8.64583E-02 1.87500E-02 0.00000E+00
 -1       859 8.75000E-02 1.87500E-02 0.00000E+00
 -1       860 8.85417E-02 1.87500E-02 0.00000E+00
 -1       861 8.95833E-02 1.87500E-02 0.00000E+00
 -1       862 9.06250E-02 1.87500E-02 0.00000E+00
 -1       863 9.16667E-02 1.87500E-02 0.00000E+00
 -1       864 9.27083E-02 1.87500E-02 0.00000E+00
 -1       865 9.37500E-02 1.87500E-02 0.00000E+00
 -1       866 9.47917E-02 1.87500E-02 0.00000E+00
 -1       867 9.58333E-02 1.87500E-02 0.00000E+00
 -1       868 9.68750E-02 1.87500E-02 0.00000E+00
 -1       869 9.79167E-02 1.87500E-02 0.00000E+00
 -1       870 9.89583E-02 1.87500E-02 0.00000E+00
 -1       871 8.33333E-02 1.97917E-02 0.00000E+00
 -1       872 8.33333E-02 2.08333E-02 0.00000E+00
 -1       873 8.33333E-02 2.18750E-02 0.00000E+00
 -1       874 8.33333E-02 2.29167E-02 0.00000E+00
 -1       875 8.33333E-02 2.39583E-02 0.00000E+00
 -1       876 8.43750E-02 1.91406E-02 0.00000E+00
 -1       877 8.54167E-02 1.95312E-02 0.00000E+00
 -1       878 8.64583E-02 1.99219E-02 0.00000E+00
 -1       879 8.75000E-02 2.03125E-02 0.00000E+00
 -1       880 8.85417E-02 2.07031E-02 0.00000E+00
 -1       881 8.95833E-02 2.10938E-02 0.00000E+00
 -1       882 9.06250E-02 2.14844E-02 0.00000E+00
 -1       883 9.16667E-02 2.18750E-02 0.00000E+00
 -1       884 9.27083E-02 2.22656E-02 0.00000E+00
 -1       885 9.37500E-02 2.26563E-02 0.00000E+00
 -1       886 9.47917E-02 2.30469E-02 0.00000E+00
 -1       887 9.58333E-02 2.34375E-02 0.00000E+00
 -1       888 9.68750E-02 2.38281E-02 0.00000E+00
 -1       889 9.79167E-02 2.42187E-02 0.00000E+00
 -1       890 9.89583E-02 2.46094E-02 0.00000E+00
 -1       891 1.00000E-01 1.97917E-02 0.00000E+00
 -1       892 1.00000E-01 2.08333E-02 0.00000E+00
 -1       893 1.00000E-01 2.18750E-02 0.00000E+00
 -1       894 1.00000E-01 2.29167E-02 0.00000E+00
 -1       895 1.00000E-01 2.39583E-02 0.00000E+00
 -1       896 1.04167E-03 2.50000E-02 0.00000E+00
 -1       897 2.08333E-03 2.50000E-02 0.00000E+00
 -1       898 3.12500E-03 2.50000E-02 0.00000E+00
 -1       899 4.16667E-03 2.50000E-02 0.00000E+00
 -1       900 5.20833E-03 2.50000E-02 0.00000E+00
 -1       901 6.25000E-03 2.50000E-02 0.00000E+00
 -1       902 7.29167E-03 2.50000E-02 0.00000E+00
 -1       903 8.33333E-03 2.50000E-02 0.00000E+00
 -1       904 9.37500E-03 2.50000E-02 0.00000E+00
 -1       905 1.04167E-02 2.50000E-02 0.00000E+00
 -1       906 1.14583E-02 2.50000E-02 0.00000E+00
 -1       907 1.25000E-02 2.50000E-02 0.00000E+00
 -1       908 1.35417E-02 2.50000E-02 0.00000E+00
 -1       909 1.45833E-02 2.50000E-02 0.00000E+00
 -1       910 1.56250E-02 2.50000E-02 0.00000E+00
 -1       911 1.77083E-02 2.50000E-02 0.00000E+00
 -1       912 1.87500E-02 2.50000E-02 0.00000E+00
 -1       913 1.97917E-02 2.50000E-02 0.00000E+00
 -1       914 2.08333E-02 2.50000E-02 0.00000E+00
 -1       915 2.18750E-02 2.50000E-02 0.00000E+00
 -1       916 2.29167E-02 2.50000E-02 0.00000E+00
 -1       917 2.39583E-02 2.50000E-02 0.00000E+00
 -1       918 2.50000E-02 2.50000E-02 0.00000E+00
 -1       919 2.60417E-02 2.50000E-02 0.00000E+00
 -1       920 2.70833E-02 2.50000E-02 0.00000E+00
 -1       921 2.81250E-02 2.50000E-02 0.00000E+00
 -1       922 2.91667E-02 2.50000E-02 0.00000E+00
 -1       923 3.02083E-02 2.50000E-02 0.00000E+00
 -1       924 3.12500E-02 2.50000E-02 0.00000E+00
 -1       925 3.22917E-02 2.50000E-02 0.00000E+00
 -1       926 3.43750E-02 2.50000E-02 0.00000E+00
 -1       927 3.54167E-02 2.50000E-02 0.00000E+00
 -1       928 3.64583E-02 2.50000E-02 0.00000E+00
 -1       929 3.75000E-02 2.50000E-02 0.00000E+00
 -1       930 3.85417E-02 2.50000E-02 0.00000E+00
 -1       931 3.95833E-02 2.50000E-02 0.00000E+00
 -1       932 4.06250E-02 2.50000E-02 0.00000E+00
 -1       933 4.16667E-02 2.50000E-02 0.00000E+00
 -1       934 4.27083E-02 2.50000E-02 0.00000E+00
 -1       935 4.37500E-02 2.50000E-02 0.00000E+00
 -1       936 4.47917E-02 2.50000E-02 0.00000E+00
 -1       937 4.58333E-02 2.50000E-02 0.00000E+00
 -1       938 4.68750E-02 2.50000E-02 0.00000E+00
 -1       939 4.79167E-02 2.50000E-02 0.00000E+00
 -1       940 4.89583E-02 2.50000E-02 0.00000E+00
 -1       941 5.10417E-02 2.50000E-02 0.00000E+00
 -1       942 5.20833E-02 2.50000E-02 0.00000E+00
 -1       943 5.31250E-02 2.50000E-02 0.00000E+00
 -1       944 5.41667E-02 2.50000E-02 0.00000E+00
 -1       945 5.52083E-02 2.50000E-02 0.00000E+00
 -1       946 5.62500E-02 2.50000E-02 0.00000E+00
 -1       947 5.72917E-02 2.50000E-02 0.00000E+00
 -1       948 5.83333E-02 2.50000E-02 0.00000E+00
 -1       949 5.93750E-02 2.50000E-02 0.00000E+00
 -1       950 6.04167E-02 2.50000E-02 0.00000E+00
 -1       951 6.14583E-02 2.50000E-02 0.00000E+00
 -1       952 6.25000E-02 2.50000E-02 0.00000E+00
 -1       953 6.35417E-02 2.50000E-02 0.00000E+00
 -1       954 6.45833E-02 2.50000E-02 0.00000E+00
 -1       955 6.56250E-02 2.50000E-02 0.00000E+00
 -1       956 6.77083E-02 2.50000E-02 0.00000E+00
 -1       957 6.87500E-02 2.50000E-02 0.00000E+00
 -1       958 6.97917E-02 2.50000E-02 0.00000E+00
 -1       959 7.08333E-02 2.50000E-02 0.00000E+00
 -1       960 7.18750E-02 2.50000E-02 0.00000E+00
 -1       961 7.29167E-02 2.50000E-02 0.00000E+00
 -1       962 7.39583E-02 2.50000E-02 0.00000E+00
 -1       963 7.50000E-02 2.50000E-02 0.00000E+00
 -1       964 7.60417E-02 2.50000E-02 0.00000E+00
 -1       965 7.70833E-02 2.50000E-02 0.00000E+00
 -1       966 7.81250E-02 2.50000E-02 0.00000E+00
 -1       967 7.91667E-02 2.50000E-02 0.00000E+00
 -1       968 8.02083E-02 2.50000E-02 0.00000E+00
 -1       969 8.12500E-02 2.50000E-02 0.00000E+00
 -1       970 8.22917E-02 2.50000E-02 0.00000E+00
 -1       971 8.43750E-02 2.50000E-02 0.00000E+00
 -1       972 8.54167E-02 2.50000E-02 0.00000E+00
 -1       973 8.64583E-02 2.50000E-02 0.00000E+00
 -1       974 8.75000E-02 2.50000E-02 0.00000E+00
 -1       975 8.85417E-02 2.50000E-02 0.00000E+00
 -1       976 8.95833E-02 2.50000E-02 0.00000E+00
 -1       977 9.06250E-02 2.50000E-02 0.00000E+00
 -1       978 9.16667E-02 2.50000E-02 0.00000E+00
 -1       979 9.27083E-02 2.50000E-02 0.00000E+00
 -1       980 9.37500E-02 2.50000E-02 0.00000E+00
 -1       981 9.47917E-02 2.50000E-02 0.00000E+00
 -1       982 9.58333E-02 2.50000E-02 0.00000E+00
 -1       983 9.68750E-02 2.50000E-02 0.00000E+00
 -1       984 9.79167E-02 2.50000E-02 0.00000E+00
 -1       985 9.89583E-02 2.50000E-02 0.00000E+00
 -3
    3C                           440                                     1
 -1         1   12    0    1
 -2         1        37        36
 -1         2   12    0    1
 -2        37        39        38
 -1         3   12    0    1
 -2        39        41        40
 -1         4   12    0    1
 -2        41        43        42
 -1         5   12    0    1
 -2        43        45        44
 -1         6   12    0    1
 -2        45        47        46
 -1         7   12    0    1
 -2        47        49        48
 -1         8   12    0    1
 -2        49         2        50
 -1         9   12    0    1
 -2         1        52        51
 -1        10   12    0    1
 -2        52        54        53
 -1        11   12    0    1
 -2        54         8        55
 -1        12   12    0    1
 -2         1        57        56
 -1        13   12    0    1
 -2        57        59        58
 -1        14   12    0    1
 -2        59        61        60
 -1        15   12    0    1
 -2        61        63        62
 -1        16   12    0    1
 -2        63        65        64
 -1        17   12    0    1
 -2        65        67        66
 -1        18   12    0    1
 -2        67        69        68
 -1        19   12    0    1
 -2        69         9        70
 -1        20   12    0    1
 -2         2        72        71
 -1        21   12    0    1
 -2        72        74        73
 -1        22   12    0    1
 -2        74        76        75
 -1        23   12    0    1
 -2        76        78        77
 -1        24   12    0    1
 -2        78        80        79
 -1        25   12    0    1
 -2        80        82        81
 -1        26   12    0    1
 -2        82        84        83
 -1        27   12    0    1
 -2        84         3        85
 -1        28   12    0    1
 -2         2        87        86
 -1        29   12    0    1
 -2        87        89        88
 -1        30   12    0    1
 -2        89         9        90
 -1        31   12    0    1
 -2         2        92        91
 -1        32   12    0    1
 -2        92        94        93
 -1        33   12    0    1
 -2        94        96        95
 -1        34   12    0    1
 -2        96        98        97
 -1        35   12    0    1
 -2        98       100        99
 -1        36   12    0    1
 -2       100       102       101
 -1        37   12    0    1
 -2       102       104       103
 -1        38   12    0    1
 -2       104        10       105
 -1        39   12    0    1
 -2         3       107       106
 -1        40   12    0    1
 -2       107       109       108
 -1        41   12    0    1
 -2       109       111       110
 -1        42   12    0    1
 -2       111       113       112
 -1        43   12    0    1
 -2       113       115       114
 -1        44   12    0    1
 -2       115       117       116
 -1        45   12    0    1
 -2       117       119       118
 -1        46   12    0    1
 -2       119         4       120
 -1        47   12    0    1
 -2         3       122       121
 -1        48   12    0    1
 -2       122       124       123
 -1        49   12    0    1
 -2       124        10       125
 -1        50   12    0    1
 -2         3       127       126
 -1        51   12    0    1
 -2       127       129       128
 -1        52   12    0    1
 -2       129       131       130
 -1        53   12    0    1
 -2       131       133       132
 -1        54   12    0    1
 -2       133       135       134
 -1        55   12    0    1
 -2       135       137       136
 -1        56   12    0    1
 -2       137       139       138
 -1        57   12    0    1
 -2       139        11       140
 -1        58   12    0    1
 -2         4       142       141
 -1        59   12    0    1
 -2       142       144       143
 -1        60   12    0    1
 -2       144       146       145
 -1        61   12    0    1
 -2       146       148       147
 -1        62   12    0    1
 -2       148       150       149
 -1        63   12    0    1
 -2       150       152       151
 -1        64   12    0    1
 -2       152       154       153
 -1        65   12    0    1
 -2       154         5       155
 -1        66   12    0    1
 -2         4       157       156
 -1        67   12    0    1
 -2       157       159       158
 -1        68   12    0    1
 -2       159        11       160
 -1        69   12    0    1
 -2         4       162       161
 -1        70   12    0    1
 -2       162       164       163
 -1        71   12    0    1
 -2       164       166       165
 -1        72   12    0    1
 -2       166       168       167
 -1        73   12    0    1
 -2       168       170       169
 -1        74   12    0    1
 -2       170       172       171
 -1        75   12    0    1
 -2       172       174       173
 -1        76   12    0    1
 -2       174        12       175
 -1        77   12    0    1
 -2         5       192       191
 -1        78   12    0    1
 -2       192       194       193
 -1        79   12    0    1
 -2       194        12       195
 -1        80   12    0    1
 -2         8       252       251
 -1        81   12    0    1
 -2       252       254       253
 -1        82   12    0    1
 -2       254       256       255
 -1        83   12    0    1
 -2       256       258       257
 -1        84   12    0    1
 -2       258       260       259
 -1        85   12    0    1
 -2       260       262       261
 -1        86   12    0    1
 -2       262       264       263
 -1        87   12    0    1
 -2       264         9       265
 -1        88   12    0    1
 -2         8       267       266
 -1        89   12    0    1
 -2       267       269       268
 -1        90   12    0    1
 -2       269        15       270
 -1        91   12    0    1
 -2         8       272       271
 -1        92   12    0    1
 -2       272       274       273
 -1        93   12    0    1
 -2       274       276       275
 -1        94   12    0    1
 -2       276       278       277
 -1        95   12    0    1
 -2       278       280       279
 -1        96   12    0    1
 -2       280       282       281
 -1        97   12    0    1
 -2       282       284       283
 -1        98   12    0    1
 -2       284        16       285
 -1        99   12    0    1
 -2         9       287       286
 -1       100   12    0    1
 -2       287       289       288
 -1       101   12    0    1
 -2       289       291       290
 -1       102   12    0    1
 -2       291       293       292
 -1       103   12    0    1
 -2       293       295       294
 -1       104   12    0    1
 -2       295       297       296
 -1       105   12    0    1
 -2       297       299       298
 -1       106   12    0    1
 -2       299        10       300
 -1       107   12    0    1
 -2         9       302       301
 -1       108   12    0    1
 -2       302       304       303
 -1       109   12    0    1
 -2       304        16       305
 -1       110   12    0    1
 -2         9       307       306
 -1       111   12    0    1
 -2       307       309       308
 -1       112   12    0    1
 -2       309       311       310
 -1       113   12    0    1
 -2       311       313       312
 -1       114   12    0    1
 -2       313       315       314
 -1       115   12    0    1
 -2       315       317       316
 -1       116   12    0    1
 -2       317       319       318
 -1       117   12    0    1
 -2       319        17       320
 -1       118   12    0    1
 -2        10       322       321
 -1       119   12    0    1
 -2       322       324       323
 -1       120   12    0    1
 -2       324       326       325
 -1       121   12    0    1
 -2       326       328       327
 -1       122   12    0    1
 -2       328       330       329
 -1       123   12    0    1
 -2       330       332       331
 -1       124   12    0    1
 -2       332       334       333
 -1       125   12    0    1
 -2       334        11       335
 -1       126   12    0    1
 -2        10       337       336
 -1       127   12    0    1
 -2       337       339       338
 -1       128   12    0    1
 -2       339        17       340
 -1       129   12    0    1
 -2        10       342       341
 -1       130   12    0    1
 -2       342       344       343
 -1       131   12    0    1
 -2       344       346       345
 -1       132   12    0    1
 -2       346       348       347
 -1       133   12    0    1
 -2       348       350       349
 -1       134   12    0    1
 -2       350       352       351
 -1       135   12    0    1
 -2       352       354       353
 -1       136   12    0    1
 -2       354        18       355
 -1       137   12    0    1
 -2        11       357       356
 -1       138   12    0    1
 -2       357       359       358
 -1       139   12    0    1
 -2       359       361       360
 -1       140   12    0    1
 -2       361       363       362
 -1       141   12    0    1
 -2       363       365       364
 -1       142   12    0    1
 -2       365       367       366
 -1       143   12    0    1
 -2       367       369       368
 -1       144   12    0    1
 -2       369        12       370
 -1       145   12    0    1
 -2        11       372       371
 -1       146   12    0    1
 -2       372       374       373
 -1       147   12    0    1
 -2       374        18       375
 -1       148   12    0    1
 -2        11       377       376
 -1       149   12    0    1
 -2       377       379       378
 -1       150   12    0    1
 -2       379       381       380
 -1       151   12    0    1
 -2       381       383       382
 -1       152   12    0    1
 -2       383       385       384
 -1       153   12    0    1
 -2       385       387       386
 -1       154   12    0    1
 -2       387       389       388
 -1       155   12    0    1
 -2       389        19       390
 -1       156   12    0    1
 -2        12       407       406
 -1       157   12    0    1
 -2       407       409       408
 -1       158   12    0    1
 -2       409        19       410
 -1       159   12    0    1
 -2        15       467       466
 -1       160   12    0    1
 -2       467       469       468
 -1       161   12    0    1
 -2       469       471       470
 -1       162   12    0    1
 -2       471       473       472
 -1       163   12    0    1
 -2       473       475       474
 -1       164   12    0    1
 -2       475       477       476
 -1       165   12    0    1
 -2       477       479       478
 -1       166   12    0    1
 -2       479        16       480
 -1       167   12    0    1
 -2        15       482       481
 -1       168   12    0    1
 -2       482       484       483
 -1       169   12    0    1
 -2       484        22       485
 -1       170   12    0    1
 -2        15       487       486
 -1       171   12    0    1
 -2       487       489       488
 -1       172   12    0    1
 -2       489       491       490
 -1       173   12    0    1
 -2       491       493       492
 -1       174   12    0    1
 -2       493       495       494
 -1       175   12    0    1
 -2       495       497       496
 -1       176   12    0    1
 -2       497       499       498
 -1       177   12    0    1
 -2       499        23       500
 -1       178   12    0    1
 -2        16       502       501
 -1       179   12    0    1
 -2       502       504       503
 -1       180   12    0    1
 -2       504       506       505
 -1       181   12    0    1
 -2       506       508       507
 -1       182   12    0    1
 -2       508       510       509
 -1       183   12    0    1
 -2       510       512       511
 -1       184   12    0    1
 -2       512       514       513
 -1       185   12    0    1
 -2       514        17       515
 -1       186   12    0    1
 -2        16       517       516
 -1       187   12    0    1
 -2       517       519       518
 -1       188   12    0    1
 -2       519        23       520
 -1       189   12    0    1
 -2        16       522       521
 -1       190   12    0    1
 -2       522       524       523
 -1       191   12    0    1
 -2       524       526       525
 -1       192   12    0    1
 -2       526       528       527
 -1       193   12    0    1
 -2       528       530       529
 -1       194   12    0    1
 -2       530       532       531
 -1       195   12    0    1
 -2       532       534       533
 -1       196   12    0    1
 -2       534        24       535
 -1       197   12    0    1
 -2        17       537       536
 -1       198   12    0    1
 -2       537       539       538
 -1       199   12    0    1
 -2       539       541       540
 -1       200   12    0    1
 -2       541       543       542
 -1       201   12    0    1
 -2       543       545       544
 -1       202   12    0    1
 -2       545       547       546
 -1       203   12    0    1
 -2       547       549       548
 -1       204   12    0    1
 -2       549        18       550
 -1       205   12    0    1
 -2        17       552       551
 -1       206   12    0    1
 -2       552       554       553
 -1       207   12    0    1
 -2       554        24       555
 -1       208   12    0    1
 -2        17       557       556
 -1       209   12    0    1
 -2       557       559       558
 -1       210   12    0    1
 -2       559       561       560
 -1       211   12    0    1
 -2       561       563       562
 -1       212   12    0    1
 -2       563       565       564
 -1       213   12    0    1
 -2       565       567       566
 -1       214   12    0    1
 -2       567       569       568
 -1       215   12    0    1
 -2       569        25       570
 -1       216   12    0    1
 -2        18       572       571
 -1       217   12    0    1
 -2       572       574       573
 -1       218   12    0    1
 -2       574       576       575
 -1       219   12    0    1
 -2       576       578       577
 -1       220   12    0    1
 -2       578       580       579
 -1       221   12    0    1
 -2       580       582       581
 -1       222   12    0    1
 -2       582       584       583
 -1       223   12    0    1
 -2       584        19       585
 -1       224   12    0    1
 -2        18       587       586
 -1       225   12    0    1
 -2       587       589       588
 -1       226   12    0    1
 -2       589        25       590
 -1       227   12    0    1
 -2        18       592       591
 -1       228   12    0    1
 -2       592       594       593
 -1       229   12    0    1
 -2       594       596       595
 -1       230   12    0    1
 -2       596       598       597
 -1       231   12    0    1
 -2       598       600       599
 -1       232   12    0    1
 -2       600       602       601
 -1       233   12    0    1
 -2       602       604       603
 -1       234   12    0    1
 -2       604        26       605
 -1       235   12    0    1
 -2        19       607       606
 -1       236   12    0    1
 -2       607       609       608
 -1       237   12    0    1
 -2       609       611       610
 -1       238   12    0    1
 -2       611       613       612
 -1       239   12    0    1
 -2       613       615       614
 -1       240   12    0    1
 -2       615       617       616
 -1       241   12    0    1
 -2       617       619       618
 -1       242   12    0    1
 -2       619        20       620
 -1       243   12    0    1
 -2        19       622       621
 -1       244   12    0    1
 -2       622       624       623
 -1       245   12    0    1
 -2       624        26       625
 -1       246   12    0    1
 -2        19       627       626
 -1       247   12    0    1
 -2       627       629       628
 -1       248   12    0    1
 -2       629       631       630
 -1       249   12    0    1
 -2       631       633       632
 -1       250   12    0    1
 -2       633       635       634
 -1       251   12    0    1
 -2       635       637       636
 -1       252   12    0    1
 -2       637       639       638
 -1       253   12    0    1
 -2       639        27       640
 -1       254   12    0    1
 -2        20       642       641
 -1       255   12    0    1
 -2       642       644       643
 -1       256   12    0    1
 -2       644       646       645
 -1       257   12    0    1
 -2       646       648       647
 -1       258   12    0    1
 -2       648       650       649
 -1       259   12    0    1
 -2       650       652       651
 -1       260   12    0    1
 -2       652       654       653
 -1       261   12    0    1
 -2       654        21       655
 -1       262   12    0    1
 -2        20       657       656
 -1       263   12    0    1
 -2       657       659       658
 -1       264   12    0    1
 -2       659        27       660
 -1       265   12    0    1
 -2        20       662       661
 -1       266   12    0    1
 -2       662       664       663
 -1       267   12    0    1
 -2       664       666       665
 -1       268   12    0    1
 -2       666       668       667
 -1       269   12    0    1
 -2       668       670       669
 -1       270   12    0    1
 -2       670       672       671
 -1       271   12    0    1
 -2       672       674       673
 -1       272   12    0    1
 -2       674        28       675
 -1       273   12    0    1
 -2        21       677       676
 -1       274   12    0    1
 -2       677       679       678
 -1       275   12    0    1
 -2       679        28       680
 -1       276   12    0    1
 -2        22       682       681
 -1       277   12    0    1
 -2       682       684       683
 -1       278   12    0    1
 -2       684       686       685
 -1       279   12    0    1
 -2       686       688       687
 -1       280   12    0    1
 -2       688       690       689
 -1       281   12    0    1
 -2       690       692       691
 -1       282   12    0    1
 -2       692       694       693
 -1       283   12    0    1
 -2       694        23       695
 -1       284   12    0    1
 -2        22       697       696
 -1       285   12    0    1
 -2       697       699       698
 -1       286   12    0    1
 -2       699        29       700
 -1       287   12    0    1
 -2        22       702       701
 -1       288   12    0    1
 -2       702       704       703
 -1       289   12    0    1
 -2       704       706       705
 -1       290   12    0    1
 -2       706       708       707
 -1       291   12    0    1
 -2       708       710       709
 -1       292   12    0    1
 -2       710       712       711
 -1       293   12    0    1
 -2       712       714       713
 -1       294   12    0    1
 -2       714        30       715
 -1       295   12    0    1
 -2        23       717       716
 -1       296   12    0    1
 -2       717       719       718
 -1       297   12    0    1
 -2       719       721       720
 -1       298   12    0    1
 -2       721       723       722
 -1       299   12    0    1
 -2       723       725       724
 -1       300   12    0    1
 -2       725       727       726
 -1       301   12    0    1
 -2       727       729       728
 -1       302   12    0    1
 -2       729        24       730
 -1       303   12    0    1
 -2        23       732       731
 -1       304   12    0    1
 -2       732       734       733
 -1       305   12    0    1
 -2       734        30       735
 -1       306   12    0    1
 -2        23       737       736
 -1       307   12    0    1
 -2       737       739       738
 -1       308   12    0    1
 -2       739       741       740
 -1       309   12    0    1
 -2       741       743       742
 -1       310   12    0    1
 -2       743       745       744
 -1       311   12    0    1
 -2       745       747       746
 -1       312   12    0    1
 -2       747       749       748
 -1       313   12    0    1
 -2       749        31       750
 -1       314   12    0    1
 -2        24       752       751
 -1       315   12    0    1
 -2       752       754       753
 -1       316   12    0    1
 -2       754       756       755
 -1       317   12    0    1
 -2       756       758       757
 -1       318   12    0    1
 -2       758       760       759
 -1       319   12    0    1
 -2       760       762       761
 -1       320   12    0    1
 -2       762       764       763
 -1       321   12    0    1
 -2       764        25       765
 -1       322   12    0    1
 -2        24       767       766
 -1       323   12    0    1
 -2       767       769       768
 -1       324   12    0    1
 -2       769        31       770
 -1       325   12    0    1
 -2        24       772       771
 -1       326   12    0    1
 -2       772       774       773
 -1       327   12    0    1
 -2       774       776       775
 -1       328   12    0    1
 -2       776       778       777
 -1       329   12    0    1
 -2       778       780       779
 -1       330   12    0    1
 -2       780       782       781
 -1       331   12    0    1
 -2       782       784       783
 -1       332   12    0    1
 -2       784        32       785
 -1       333   12    0    1
 -2        25       787       786
 -1       334   12    0    1
 -2       787       789       788
 -1       335   12    0    1
 -2       789       791       790
 -1       336   12    0    1
 -2       791       793       792
 -1       337   12    0    1
 -2       793       795       794
 -1       338   12    0    1
 -2       795       797       796
 -1       339   12    0    1
 -2       797       799       798
 -1       340   12    0    1
 -2       799        26       800
 -1       341   12    0    1
 -2        25       802       801
 -1       342   12    0    1
 -2       802       804       803
 -1       343   12    0    1
 -2       804        32       805
 -1       344   12    0    1
 -2        25       807       806
 -1       345   12    0    1
 -2       807       809       808
 -1       346   12    0    1
 -2       809       811       810
 -1       347   12    0    1
 -2       811       813       812
 -1       348   12    0    1
 -2       813       815       814
 -1       349   12    0    1
 -2       815       817       816
 -1       350   12    0    1
 -2       817       819       818
 -1       351   12    0    1
 -2       819        33       820
 -1       352   12    0    1
 -2        26       822       821
 -1       353   12    0    1
 -2       822       824       823
 -1       354   12    0    1
 -2       824       826       825
 -1       355   12    0    1
 -2       826       828       827
 -1       356   12    0    1
 -2       828       830       829
 -1       357   12    0    1
 -2       830       832       831
 -1       358   12    0    1
 -2       832       834       833
 -1       359   12    0    1
 -2       834        27       835
 -1       360   12    0    1
 -2        26       837       836
 -1       361   12    0    1
 -2       837       839       838
 -1       362   12    0    1
 -2       839        33       840
 -1       363   12    0    1
 -2        26       842       841
 -1       364   12    0    1
 -2       842       844       843
 -1       365   12    0    1
 -2       844       846       845
 -1       366   12    0    1
 -2       846       848       847
 -1       367   12    0    1
 -2       848       850       849
 -1       368   12    0    1
 -2       850       852       851
 -1       369   12    0    1
 -2       852       854       853
 -1       370   12    0    1
 -2       854        34       855
 -1       371   12    0    1
 -2        27       857       856
 -1       372   12    0    1
 -2       857       859       858
 -1       373   12    0    1
 -2       859       861       860
 -1       374   12    0    1
 -2       861       863       862
 -1       375   12    0    1
 -2       863       865       864
 -1       376   12    0    1
 -2       865       867       866
 -1       377   12    0    1
 -2       867       869       868
 -1       378   12    0    1
 -2       869        28       870
 -1       379   12    0    1
 -2        27       872       871
 -1       380   12    0    1
 -2       872       874       873
 -1       381   12    0    1
 -2       874        34       875
 -1       382   12    0    1
 -2        27       877       876
 -1       383   12    0    1
 -2       877       879       878
 -1       384   12    0    1
 -2       879       881       880
 -1       385   12    0    1
 -2       881       883       882
 -1       386   12    0    1
 -2       883       885       884
 -1       387   12    0    1
 -2       885       887       886
 -1       388   12    0    1
 -2       887       889       888
 -1       389   12    0    1
 -2       889        35       890
 -1       390   12    0    1
 -2        28       892       891
 -1       391   12    0    1
 -2       892       894       893
 -1       392   12    0    1
 -2       894        35       895
 -1       393   12    0    1
 -2        29       897       896
 -1       394   12    0    1
 -2       897       899       898
 -1       395   12    0    1
 -2       899       901       900
 -1       396   12    0    1
 -2       901       903       902
 -1       397   12    0    1
 -2       903       905       904
 -1       398   12    0    1
 -2       905       907       906
 -1       399   12    0    1
 -2       907       909       908
 -1       400   12    0    1
 -2       909        30       910
 -1       401   12    0    1
 -2        30       912       911
 -1       402   12    0    1
 -2       912       914       913
 -1       403   12    0    1
 -2       914       916       915
 -1       404   12    0    1
 -2       916       918       917
 -1       405   12    0    1
 -2       918       920       919
 -1       406   12    0    1
 -2       920       922       921
 -1       407   12    0    1
 -2       922       924       923
 -1       408   12    0    1
 -2       924        31       925
 -1       409   12    0    1
 -2        31       927       926
 -1       410   12    0    1
 -2       927       929       928
 -1       411   12    0    1
 -2       929       931       930
 -1       412   12    0    1
 -2       931       933       932
 -1       413   12    0    1
 -2       933       935       934
 -1       414   12    0    1
 -2       935       937       936
 -1       415   12    0    1
 -2       937       939       938
 -1       416   12    0    1
 -2       939        32       940
 -1       417   12    0    1
 -2        32       942       941
 -1       418   12    0    1
 -2       942       944       943
 -1       419   12    0    1
 -2       944       946       945
 -1       420   12    0    1
 -2       946       948       947
 -1       421   12    0    1
 -2       948       950       949
 -1       422   12    0    1
 -2       950       952       951
 -1       423   12    0    1
 -2       952       954       953
 -1       424   12    0    1
 -2       954        33       955
 -1       425   12    0    1
 -2        33       957       956
 -1       426   12    0    1
 -2       957       959       958
 -1       427   12    0    1
 -2       959       961       960
 -1       428   12    0    1
 -2       961       963       962
 -1       429   12    0    1
 -2       963       965       964
 -1       430   12    0    1
 -2       965       967       966
 -1       431   12    0    1
 -2       967       969       968
 -1       432   12    0    1
 -2       969        34       970
 -1       433   12    0    1
 -2        34       972       971
 -1       434   12    0    1
 -2       972       974       973
 -1       435   12    0    1
 -2       974       976       975
 -1       436   12    0    1
 -2       976       978       977
 -1       437   12    0    1
 -2       978       980       979
 -1       438   12    0    1
 -2       980       982       981
 -1       439   12    0    1
 -2       982       984       983
 -1       440   12    0    1
 -2       984        35       985
 -3
    1PSTEP                         1           1           1          
  100CL  101 1.000000000         841                     0    1           1
 -4  DISP        4    1
 -5  D1          1    2    1    0
 -5  D2          1    2    2    0
 -5  D3          1    2    3    0
 -5  ALL         1    2    0    0    1ALL
 -1         1 5.81988E-05 0.00000E+00 0.00000E+00
 -1         2 4.70597E-05 0.00000E+00 0.00000E+00
 -1         3 4.33870E-05 0.00000E+00 0.00000E+00
 -1         4 4.28111E-05 0.00000E+00 0.00000E+00
 -1         5 4.27428E-05 0.00000E+00 0.00000E+00
 -1         8 3.59428E-05-1.50387E-06 0.00000E+00
 -1         9 3.89216E-05 1.11718E-06 0.00000E+00
 -1        10 3.90934E-05-1.36697E-07 0.00000E+00
 -1        11 4.02182E-05 1.81445E-08 0.00000E+00
 -1        12 4.12726E-05 3.36749E-06 0.00000E+00
 -1        15 1.86696E-05-1.80162E-06 0.00000E+00
 -1        16 2.36531E-05 1.38364E-06 0.00000E+00
 -1        17 2.68202E-05-3.07389E-07 0.00000E+00
 -1        18 3.11495E-05-8.62766E-08 0.00000E+00
 -1        19 3.56708E-05 6.67896E-06 0.00000E+00
 -1        20 3.71740E-05 6.08885E-05 0.00000E+00
 -1        21 3.71348E-05 1.17305E-04 0.00000E+00
 -1        22 8.58559E-06-1.14853E-06 0.00000E+00
 -1        23 1.10678E-05 1.73752E-06 0.00000E+00
 -1        24 1.31407E-05-4.27537E-07 0.00000E+00
 -1        25 1.80571E-05 2.08839E-08 0.00000E+00
 -1        26 2.20223E-05 8.88279E-06 0.00000E+00
 -1        27 1.93249E-05 6.01951E-05 0.00000E+00
 -1        28 1.80430E-05 1.16671E-04 0.00000E+00
 -1        29 0.00000E+00 0.00000E+00 0.00000E+00
 -1        30 4.25161E-06 2.13902E-06 0.00000E+00
 -1        31 5.17146E-06 2.89417E-07 0.00000E+00
 -1        32 0.00000E+00 0.00000E+00 0.00000E+00
 -1        33 6.01129E-06 1.05407E-05 0.00000E+00
 -1        34 3.09572E-06 6.00268E-05 0.00000E+00
 -1        35 6.07782E-07 1.16306E-04 0.00000E+00
 -1        36 5.75055E-05-8.73503E-22 2.64698E-23
 -1        37 5.68079E-05 8.06667E-21-1.32349E-23
 -1        38 5.61099E-05 1.61201E-20 2.64698E-23
 -1        39 5.54115E-05 2.41404E-20-1.32349E-23
 -1        40 5.47129E-05 3.00895E-20 0.00000E+00
 -1        41 5.40143E-05 3.50129E-20 0.00000E+00
 -1        42 5.33156E-05 3.77062E-20 0.00000E+00
 -1        43 5.26169E-05 3.85731E-20 0.00000E+00
 -1        44 5.19182E-05 3.34379E-20-2.64698E-23
 -1        45 5.12197E-05 3.48276E-20 0.00000E+00
 -1        46 5.05213E-05 2.99109E-20 2.64698E-23
 -1        47 4.98232E-05 2.07126E-20-1.32349E-23
 -1        48 4.91258E-05 1.72980E-20 2.64698E-23
 -1        49 4.84304E-05 1.52201E-20 6.61744E-24
 -1        50 4.77362E-05 7.74903E-21 0.00000E+00
 -1        51 5.66398E-05-2.63493E-07-5.79026E-24
 -1        52 5.36608E-05-5.12626E-07 0.00000E+00
 -1        53 4.96775E-05-7.61673E-07-1.65436E-24
 -1        54 4.51143E-05-1.01055E-06 3.30872E-24
 -1        55 4.03955E-05-1.25900E-06-6.61744E-24
 -1        56 5.71910E-05-4.01496E-07-2.64698E-23
 -1        57 5.61665E-05-8.17537E-07 0.00000E+00
 -1        58 5.51380E-05-1.22562E-06 0.00000E+00
 -1        59 5.40982E-05-1.61054E-06 0.00000E+00
 -1        60 5.30432E-05-1.95607E-06 0.00000E+00
 -1        61 5.19671E-05-2.24671E-06 1.32349E-23
 -1        62 5.08644E-05-2.46707E-06 0.00000E+00
 -1        63 4.97298E-05-2.60206E-06 0.00000E+00
 -1        64 4.85575E-05-2.63682E-06 0.00000E+00
 -1        65 4.73423E-05-2.55685E-06-1.32349E-23
 -1        66 4.60789E-05-2.34791E-06 0.00000E+00
 -1        67 4.47627E-05-1.99611E-06 1.32349E-23
 -1        68 4.33889E-05-1.48797E-06 0.00000E+00
 -1        69 4.19558E-05-8.09557E-07 0.00000E+00
 -1        70 4.04564E-05 5.06943E-08 0.00000E+00
 -1        71 4.68263E-05 2.36574E-21-6.61744E-24
 -1        72 4.65958E-05 4.42211E-21-3.30872E-24
 -1        73 4.63655E-05 4.77614E-21 0.00000E+00
 -1        74 4.61355E-05-1.25731E-21 3.30872E-24
 -1        75 4.59055E-05 7.59352E-22 6.61744E-24
 -1        76 4.56757E-05-2.59735E-21 0.00000E+00
 -1        77 4.54459E-05-5.75387E-21 0.00000E+00
 -1        78 4.52161E-05-9.70283E-21-3.30872E-24
 -1        79 4.49863E-05-5.08385E-21-6.61744E-24
 -1        80 4.47565E-05-9.14862E-22 3.30872E-24
 -1        81 4.45268E-05 3.81661E-21-6.61744E-24
 -1        82 4.42972E-05 8.45379E-21 0.00000E+00
 -1        83 4.40678E-05 5.11859E-21 6.61744E-24
 -1        84 4.38390E-05-6.78288E-23 3.30872E-24
 -1        85 4.36105E-05-1.51374E-21 0.00000E+00
 -1        86 4.65994E-05 1.71410E-07 8.27181E-25
 -1        87 4.55808E-05 3.63632E-07 0.00000E+00
 -1        88 4.41531E-05 5.56356E-07 0.00000E+00
 -1        89 4.24671E-05 7.49241E-07 0.00000E+00
 -1        90 4.06732E-05 9.41530E-07 0.00000E+00
 -1        91 4.66351E-05-1.86304E-07-1.32349E-23
 -1        92 4.62133E-05-3.99775E-07-6.61744E-24
 -1        93 4.57965E-05-6.27701E-07 1.32349E-23
 -1        94 4.53805E-05-8.59697E-07-6.61744E-24
 -1        95 4.49617E-05-1.08503E-06-1.32349E-23
 -1        96 4.45364E-05-1.29316E-06 6.61744E-24
 -1        97 4.41006E-05-1.47354E-06 0.00000E+00
 -1        98 4.36505E-05-1.61573E-06 0.00000E+00
 -1        99 4.31821E-05-1.70928E-06 0.00000E+00
 -1       100 4.26917E-05-1.74385E-06-6.61744E-24
 -1       101 4.21753E-05-1.70914E-06 0.00000E+00
 -1       102 4.16295E-05-1.59491E-06 0.00000E+00
 -1       103 4.10503E-05-1.39104E-06 0.00000E+00
 -1       104 4.04354E-05-1.08717E-06 0.00000E+00
 -1       105 3.97801E-05-6.73737E-07 6.61744E-24
 -1       106 4.33469E-05 1.22836E-22 0.00000E+00
 -1       107 4.33103E-05-3.51759E-22 0.00000E+00
 -1       108 4.32739E-05 2.62547E-21-1.65436E-24
 -1       109 4.32380E-05 7.43222E-21-8.27181E-25
 -1       110 4.32021E-05 1.57127E-20 0.00000E+00
 -1       111 4.31664E-05 2.21511E-20 0.00000E+00
 -1       112 4.31306E-05 2.51655E-20 0.00000E+00
 -1       113 4.30949E-05 2.69088E-20 4.13590E-25
 -1       114 4.30592E-05 2.34036E-20-8.27181E-25
 -1       115 4.30235E-05 1.68143E-20 4.13590E-25
 -1       116 4.29879E-05 1.12193E-20-8.27181E-25
 -1       117 4.29522E-05 3.76615E-21 0.00000E+00
 -1       118 4.29166E-05 2.31838E-21 8.27181E-25
 -1       119 4.28811E-05 2.05761E-21 0.00000E+00
 -1       120 4.28456E-05 1.64071E-21 0.00000E+00
 -1       121 4.31341E-05-2.50306E-08 0.00000E+00
 -1       122 4.25820E-05-4.60970E-08-6.20385E-25
 -1       123 4.18157E-05-6.71693E-08-1.65436E-24
 -1       124 4.09215E-05-8.84605E-08 0.00000E+00
 -1       125 3.99854E-05-1.10004E-07 0.00000E+00
 -1       126 4.32264E-05-9.22531E-08 0.00000E+00
 -1       127 4.30762E-05-2.19860E-07 3.30872E-24
 -1       128 4.29351E-05-3.71936E-07-6.61744E-24
 -1       129 4.27990E-05-5.38440E-07 0.00000E+00
 -1       130 4.26644E-05-7.09192E-07 0.00000E+00
 -1       131 4.25275E-05-8.74075E-07 0.00000E+00
 -1       132 4.23847E-05-1.02298E-06-6.61744E-24
 -1       133 4.22320E-05-1.14582E-06 0.00000E+00
 -1       134 4.20658E-05-1.23250E-06 0.00000E+00
 -1       135 4.18823E-05-1.27296E-06 0.00000E+00
 -1       136 4.16778E-05-1.25715E-06 0.00000E+00
 -1       137 4.14485E-05-1.17505E-06 0.00000E+00
 -1       138 4.11908E-05-1.01665E-06 3.30872E-24
 -1       139 4.09015E-05-7.71836E-07 0.00000E+00
 -1       140 4.05765E-05-4.30850E-07 0.00000E+00
 -1       141 4.28047E-05 9.47639E-23-4.13590E-25
 -1       142 4.27987E-05-2.52119E-21 1.03398E-25
 -1       143 4.27926E-05-2.94197E-21 2.06795E-25
 -1       144 4.27866E-05-2.28416E-21 0.00000E+00
 -1       145 4.27807E-05-6.39535E-21 2.06795E-25
 -1       146 4.27747E-05-1.20353E-20 1.03398E-25
 -1       147 4.27688E-05-1.45972E-20 2.06795E-25
 -1       148 4.27628E-05-1.56082E-20 0.00000E+00
 -1       149 4.27569E-05-1.04739E-20 0.00000E+00
 -1       150 4.27511E-05-2.06847E-21 0.00000E+00
 -1       151 4.27454E-05-3.29942E-22 0.00000E+00
 -1       152 4.27401E-05 3.90512E-21 0.00000E+00
 -1       153 4.27352E-05 1.87274E-21 0.00000E+00
 -1       154 4.27321E-05-6.37705E-22 0.00000E+00
 -1       155 4.27300E-05-1.47093E-21-6.61744E-24
 -1       156 4.26810E-05 2.77460E-09 0.00000E+00
 -1       157 4.23804E-05 6.25467E-09 0.00000E+00
 -1       158 4.19463E-05 9.69950E-09 0.00000E+00
 -1       159 4.14162E-05 1.30334E-08 0.00000E+00
 -1       160 4.08277E-05 1.62705E-08-4.13590E-25
 -1       161 4.27895E-05 7.00516E-09-4.13590E-25
 -1       162 4.27577E-05 4.06832E-08 0.00000E+00
 -1       163 4.27158E-05 1.01212E-07 0.00000E+00
 -1       164 4.26639E-05 1.88644E-07-2.06795E-25
 -1       165 4.26018E-05 3.03045E-07-4.13590E-25
 -1       166 4.25296E-05 4.44477E-07 2.06795E-25
 -1       167 4.24472E-05 6.12997E-07 4.13590E-25
 -1       168 4.23546E-05 8.08662E-07 2.06795E-25
 -1       169 4.22519E-05 1.03153E-06 0.00000E+00
 -1       170 4.21390E-05 1.28168E-06-2.06795E-25
 -1       171 4.20160E-05 1.55916E-06 1.03398E-25
 -1       172 4.18830E-05 1.86411E-06 0.00000E+00
 -1       173 4.17401E-05 2.19662E-06 8.27181E-25
 -1       174 4.15888E-05 2.55725E-06 0.00000E+00
 -1       175 4.14279E-05 2.94566E-06-6.61744E-24
 -1       191 4.26887E-05 5.54128E-07 0.00000E+00
 -1       192 4.25505E-05 1.11826E-06-6.61744E-24
 -1       193 4.23339E-05 1.68349E-06-1.32349E-23
 -1       194 4.20447E-05 2.24874E-06 0.00000E+00
 -1       195 4.16889E-05 2.81294E-06 0.00000E+00
 -1       251 3.61083E-05 1.40538E-06 0.00000E+00
 -1       252 3.62925E-05 3.45576E-06-8.27181E-25
 -1       253 3.64791E-05 4.75171E-06-2.06795E-24
 -1       254 3.66683E-05 5.39977E-06 1.65436E-24
 -1       255 3.68583E-05 5.50603E-06 0.00000E+00
 -1       256 3.70487E-05 5.17639E-06-1.65436E-24
 -1       257 3.72391E-05 4.51655E-06-6.61744E-24
 -1       258 3.74295E-05 3.63205E-06 0.00000E+00
 -1       259 3.76198E-05 2.62829E-06 0.00000E+00
 -1       260 3.78099E-05 1.61064E-06 0.00000E+00
 -1       261 3.80000E-05 6.84482E-07 0.00000E+00
 -1       262 3.81899E-05-4.48098E-08 0.00000E+00
 -1       263 3.83794E-05-4.71733E-07 0.00000E+00
 -1       264 3.85669E-05-4.90704E-07 6.61744E-24
 -1       265 3.87530E-05 4.17453E-09 0.00000E+00
 -1       266 3.24210E-05-1.56183E-06 0.00000E+00
 -1       267 2.90249E-05-1.61312E-06 0.00000E+00
 -1       268 2.58533E-05-1.66322E-06 0.00000E+00
 -1       269 2.30047E-05-1.71143E-06 0.00000E+00
 -1       270 2.05779E-05-1.75825E-06 0.00000E+00
 -1       271 3.42282E-05 1.24553E-06 0.00000E+00
 -1       272 3.27907E-05 3.20419E-06 0.00000E+00
 -1       273 3.16140E-05 4.46877E-06 0.00000E+00
 -1       274 3.06609E-05 5.13264E-06 0.00000E+00
 -1       275 2.98972E-05 5.29095E-06 0.00000E+00
 -1       276 2.92868E-05 5.03953E-06 1.32349E-23
 -1       277 2.87938E-05 4.47489E-06 2.64698E-23
 -1       278 2.83817E-05 3.69418E-06 0.00000E+00
 -1       279 2.80140E-05 2.79490E-06 1.32349E-23
 -1       280 2.76541E-05 1.87482E-06-6.61744E-24
 -1       281 2.72656E-05 1.03174E-06-1.32349E-23
 -1       282 2.68122E-05 3.63347E-07 0.00000E+00
 -1       283 2.62575E-05-3.29531E-08 1.32349E-23
 -1       284 2.55672E-05-5.97984E-08 0.00000E+00
 -1       285 2.47035E-05 3.78529E-07-6.61744E-24
 -1       286 3.89220E-05 2.38063E-06 0.00000E+00
 -1       287 3.89319E-05 3.20601E-06-3.30872E-24
 -1       288 3.89428E-05 3.64782E-06 0.00000E+00
 -1       289 3.89548E-05 3.76191E-06 0.00000E+00
 -1       290 3.89672E-05 3.60400E-06 0.00000E+00
 -1       291 3.89797E-05 3.22988E-06 0.00000E+00
 -1       292 3.89923E-05 2.69531E-06 2.06795E-25
 -1       293 3.90048E-05 2.05605E-06-2.58494E-26
 -1       294 3.90173E-05 1.36786E-06 4.13590E-25
 -1       295 3.90298E-05 6.86509E-07 0.00000E+00
 -1       296 3.90423E-05 6.77389E-08 0.00000E+00
 -1       297 3.90546E-05-4.32685E-07 0.00000E+00
 -1       298 3.90668E-05-7.58993E-07 0.00000E+00
 -1       299 3.90783E-05-8.55469E-07-4.13590E-25
 -1       300 3.90892E-05-6.66287E-07-6.20385E-25
 -1       301 3.67451E-05 1.15326E-06 1.65436E-24
 -1       302 3.41470E-05 1.19943E-06 0.00000E+00
 -1       303 3.13319E-05 1.24649E-06 0.00000E+00
 -1       304 2.85069E-05 1.29403E-06 0.00000E+00
 -1       305 2.58791E-05 1.34151E-06 0.00000E+00
 -1       306 3.77688E-05 2.14976E-06 1.32349E-23
 -1       307 3.67486E-05 2.76322E-06-1.32349E-23
 -1       308 3.58616E-05 3.01903E-06 2.64698E-23
 -1       309 3.50852E-05 2.97254E-06-1.32349E-23
 -1       310 3.44002E-05 2.68067E-06 0.00000E+00
 -1       311 3.37853E-05 2.20040E-06 0.00000E+00
 -1       312 3.32194E-05 1.58905E-06-2.64698E-23
 -1       313 3.26810E-05 9.04188E-07-1.32349E-23
 -1       314 3.21485E-05 2.03523E-07-2.64698E-23
 -1       315 3.16003E-05-4.55188E-07 0.00000E+00
 -1       316 3.10150E-05-1.01429E-06 0.00000E+00
 -1       317 3.03714E-05-1.41628E-06 0.00000E+00
 -1       318 2.96482E-05-1.60394E-06-2.64698E-23
 -1       319 2.88261E-05-1.51998E-06 0.00000E+00
 -1       320 2.78826E-05-1.10875E-06 0.00000E+00
 -1       321 3.91534E-05 4.83975E-07 0.00000E+00
 -1       322 3.92228E-05 8.84489E-07-2.06795E-25
 -1       323 3.92929E-05 1.09411E-06 1.24077E-24
 -1       324 3.93642E-05 1.14275E-06 0.00000E+00
 -1       325 3.94357E-05 1.06022E-06 0.00000E+00
 -1       326 3.95075E-05 8.76347E-07 0.00000E+00
 -1       327 3.95793E-05 6.20939E-07 0.00000E+00
 -1       328 3.96511E-05 3.23785E-07-8.27181E-25
 -1       329 3.97230E-05 1.46739E-08 0.00000E+00
 -1       330 3.97948E-05-2.76618E-07 0.00000E+00
 -1       331 3.98667E-05-5.20302E-07 0.00000E+00
 -1       332 3.99384E-05-6.86582E-07 0.00000E+00
 -1       333 4.00100E-05-7.45654E-07 0.00000E+00
 -1       334 4.00811E-05-6.67711E-07 0.00000E+00
 -1       335 4.01519E-05-4.22879E-07 0.00000E+00
 -1       336 3.77067E-05-1.67612E-07 3.30872E-24
 -1       337 3.57087E-05-1.94318E-07 3.87741E-25
 -1       338 3.33590E-05-2.21450E-07-1.65436E-24
 -1       339 3.09199E-05-2.48763E-07 0.00000E+00
 -1       340 2.86535E-05-2.75925E-07 0.00000E+00
 -1       341 3.84392E-05 3.24845E-07 0.00000E+00
 -1       342 3.78547E-05 5.61246E-07 0.00000E+00
 -1       343 3.73397E-05 6.10380E-07 0.00000E+00
 -1       344 3.68806E-05 5.06168E-07 0.00000E+00
 -1       345 3.64656E-05 2.83334E-07 0.00000E+00
 -1       346 3.60818E-05-2.35450E-08 0.00000E+00
 -1       347 3.57164E-05-3.79800E-07 0.00000E+00
 -1       348 3.53565E-05-7.50714E-07 0.00000E+00
 -1       349 3.49890E-05-1.10155E-06 1.32349E-23
 -1       350 3.46011E-05-1.39762E-06 6.61744E-24
 -1       351 3.41798E-05-1.60427E-06-1.32349E-23
 -1       352 3.37124E-05-1.68695E-06 0.00000E+00
 -1       353 3.31862E-05-1.61125E-06 1.32349E-23
 -1       354 3.25898E-05-1.34254E-06-3.30872E-24
 -1       355 3.19093E-05-8.47282E-07 6.61744E-24
 -1       356 4.02780E-05 5.26126E-07 2.06795E-25
 -1       357 4.03418E-05 9.32302E-07 4.13590E-25
 -1       358 4.04060E-05 1.24975E-06 0.00000E+00
 -1       359 4.04707E-05 1.49183E-06-8.27181E-25
 -1       360 4.05355E-05 1.67187E-06 0.00000E+00
 -1       361 4.06004E-05 1.80321E-06-8.27181E-25
 -1       362 4.06653E-05 1.89917E-06 0.00000E+00
 -1       363 4.07303E-05 1.97306E-06-8.27181E-25
 -1       364 4.07953E-05 2.03820E-06 0.00000E+00
 -1       365 4.08604E-05 2.10790E-06 8.27181E-25
 -1       366 4.09256E-05 2.19548E-06 0.00000E+00
 -1       367 4.09911E-05 2.31425E-06 0.00000E+00
 -1       368 4.10570E-05 2.47753E-06 0.00000E+00
 -1       369 4.11243E-05 2.69864E-06 1.65436E-24
 -1       370 4.11923E-05 2.99093E-06 0.00000E+00
 -1       371 3.92126E-05 9.27492E-10 0.00000E+00
 -1       372 3.77698E-05-1.62075E-08 4.13590E-25
 -1       373 3.60653E-05-3.36544E-08 0.00000E+00
 -1       374 3.42760E-05-5.12245E-08 0.00000E+00
 -1       375 3.25788E-05-6.86795E-08 0.00000E+00
 -1       376 3.99368E-05 4.35028E-07-3.30872E-24
 -1       377 3.97113E-05 6.91054E-07 1.65436E-24
 -1       378 3.95329E-05 8.21297E-07-3.30872E-24
 -1       379 3.93883E-05 8.59963E-07 0.00000E+00
 -1       380 3.92651E-05 8.41441E-07 3.30872E-24
 -1       381 3.91504E-05 8.00064E-07 0.00000E+00
 -1       382 3.90313E-05 7.70170E-07 0.00000E+00
 -1       383 3.88950E-05 7.86087E-07 0.00000E+00
 -1       384 3.87287E-05 8.82127E-07 0.00000E+00
 -1       385 3.85196E-05 1.09258E-06 1.65436E-24
 -1       386 3.82547E-05 1.45169E-06 0.00000E+00
 -1       387 3.79216E-05 1.99370E-06 8.27181E-25
 -1       388 3.75073E-05 2.75278E-06 8.27181E-25
 -1       389 3.70006E-05 3.76342E-06 4.13590E-25
 -1       390 3.63874E-05 5.05925E-06 0.00000E+00
 -1       406 4.08548E-05 3.91458E-06-1.32349E-23
 -1       407 4.02907E-05 4.47078E-06 6.61744E-24
 -1       408 3.95349E-05 5.02769E-06 0.00000E+00
 -1       409 3.85428E-05 5.58395E-06 0.00000E+00
 -1       410 3.72693E-05 6.13830E-06 1.32349E-23
 -1       466 1.89671E-05-5.58661E-07-3.30872E-24
 -1       467 1.92785E-05 2.57071E-07 3.30872E-24
 -1       468 1.95911E-05 7.06891E-07 6.61744E-24
 -1       469 1.99054E-05 8.53045E-07 3.30872E-24
 -1       470 2.02202E-05 7.57491E-07 0.00000E+00
 -1       471 2.05352E-05 4.82000E-07 3.30872E-24
 -1       472 2.08503E-05 8.82319E-08 6.61744E-24
 -1       473 2.11654E-05-3.62268E-07 0.00000E+00
 -1       474 2.14805E-05-8.08003E-07 0.00000E+00
 -1       475 2.17956E-05-1.18746E-06-6.61744E-24
 -1       476 2.21106E-05-1.43908E-06 1.32349E-23
 -1       477 2.24251E-05-1.50119E-06 0.00000E+00
 -1       478 2.27391E-05-1.31199E-06 0.00000E+00
 -1       479 2.30508E-05-8.09490E-07 0.00000E+00
 -1       480 2.33611E-05 6.86096E-08 0.00000E+00
 -1       481 1.69809E-05-1.69661E-06 1.65436E-24
 -1       482 1.51824E-05-1.58726E-06-1.65436E-24
 -1       483 1.33586E-05-1.47770E-06-3.30872E-24
 -1       484 1.15946E-05-1.36770E-06 8.27181E-25
 -1       485 9.97552E-06-1.25745E-06 0.00000E+00
 -1       486 1.78393E-05-5.87074E-07-6.61744E-24
 -1       487 1.71089E-05 3.14859E-07 0.00000E+00
 -1       488 1.64794E-05 9.45900E-07 1.32349E-23
 -1       489 1.59358E-05 1.34312E-06 6.61744E-24
 -1       490 1.54652E-05 1.54456E-06 0.00000E+00
 -1       491 1.50536E-05 1.58811E-06 0.00000E+00
 -1       492 1.46868E-05 1.51178E-06 1.32349E-23
 -1       493 1.43506E-05 1.35373E-06-6.61744E-24
 -1       494 1.40307E-05 1.15214E-06 1.32349E-23
 -1       495 1.37128E-05 9.45279E-07 6.61744E-24
 -1       496 1.33827E-05 7.71409E-07-1.32349E-23
 -1       497 1.30261E-05 6.68786E-07 0.00000E+00
 -1       498 1.26289E-05 6.75600E-07 0.00000E+00
 -1       499 1.21779E-05 8.30240E-07 0.00000E+00
 -1       500 1.16580E-05 1.17033E-06 6.61744E-24
 -1       501 2.38375E-05 2.65155E-06 8.27181E-25
 -1       502 2.40352E-05 3.40844E-06 0.00000E+00
 -1       503 2.42341E-05 3.72381E-06 0.00000E+00
 -1       504 2.44345E-05 3.66848E-06-1.65436E-24
 -1       505 2.46354E-05 3.31298E-06 3.30872E-24
 -1       506 2.48364E-05 2.72772E-06 0.00000E+00
 -1       507 2.50374E-05 1.98303E-06 6.61744E-24
 -1       508 2.52385E-05 1.14911E-06 0.00000E+00
 -1       509 2.54395E-05 2.96145E-07 0.00000E+00
 -1       510 2.56405E-05-5.05686E-07 3.30872E-24
 -1       511 2.58414E-05-1.18621E-06 0.00000E+00
 -1       512 2.60421E-05-1.67515E-06 0.00000E+00
 -1       513 2.62424E-05-1.90217E-06-1.32349E-23
 -1       514 2.64409E-05-1.79681E-06 0.00000E+00
 -1       515 2.66383E-05-1.28838E-06 0.00000E+00
 -1       516 2.16119E-05 1.43773E-06 0.00000E+00
 -1       517 1.92481E-05 1.49790E-06 0.00000E+00
 -1       518 1.67860E-05 1.55817E-06 2.06795E-25
 -1       519 1.44517E-05 1.61893E-06-4.13590E-25
 -1       520 1.24710E-05 1.68020E-06 0.00000E+00
 -1       521 2.25632E-05 2.49422E-06 0.00000E+00
 -1       522 2.16124E-05 3.16531E-06 6.61744E-24
 -1       523 2.08015E-05 3.46020E-06 0.00000E+00
 -1       524 2.01077E-05 3.43563E-06 0.00000E+00
 -1       525 1.95111E-05 3.14992E-06 0.00000E+00
 -1       526 1.89900E-05 2.66139E-06-1.32349E-23
 -1       527 1.85227E-05 2.02869E-06 0.00000E+00
 -1       528 1.80874E-05 1.31071E-06 6.61744E-24
 -1       529 1.76618E-05 5.66473E-07 0.00000E+00
 -1       530 1.72240E-05-1.44927E-07-6.61744E-24
 -1       531 1.67520E-05-7.64471E-07 0.00000E+00
 -1       532 1.62239E-05-1.23327E-06 0.00000E+00
 -1       533 1.56179E-05-1.49266E-06 0.00000E+00
 -1       534 1.49139E-05-1.48399E-06-6.61744E-24
 -1       535 1.40889E-05-1.14993E-06 0.00000E+00
 -1       536 2.70711E-05 7.37766E-07 0.00000E+00
 -1       537 2.73405E-05 1.39766E-06 3.30872E-24
 -1       538 2.76113E-05 1.72497E-06-6.61744E-24
 -1       539 2.78843E-05 1.77324E-06-3.30872E-24
 -1       540 2.81579E-05 1.59579E-06 0.00000E+00
 -1       541 2.84319E-05 1.24577E-06 3.30872E-24
 -1       542 2.87060E-05 7.76256E-07 0.00000E+00
 -1       543 2.89801E-05 2.40202E-07 0.00000E+00
 -1       544 2.92543E-05-3.09455E-07-6.61744E-24
 -1       545 2.95284E-05-8.19808E-07 3.30872E-24
 -1       546 2.98024E-05-1.23792E-06 0.00000E+00
 -1       547 3.00762E-05-1.51076E-06 0.00000E+00
 -1       548 3.03496E-05-1.58525E-06 6.61744E-24
 -1       549 3.06214E-05-1.40815E-06-3.30872E-24
 -1       550 3.08922E-05-9.26035E-07 0.00000E+00
 -1       551 2.48629E-05-3.30426E-07-3.30872E-24
 -1       552 2.24839E-05-3.48662E-07 0.00000E+00
 -1       553 1.99015E-05-3.66718E-07-1.65436E-24
 -1       554 1.73366E-05-3.84849E-07 0.00000E+00
 -1       555 1.50103E-05-4.03287E-07 0.00000E+00
 -1       556 2.59743E-05 5.54090E-07 0.00000E+00
 -1       557 2.52462E-05 1.05723E-06 0.00000E+00
 -1       558 2.46301E-05 1.25668E-06 0.00000E+00
 -1       559 2.41067E-05 1.20440E-06 0.00000E+00
 -1       560 2.36577E-05 9.52765E-07-1.32349E-23
 -1       561 2.32635E-05 5.54113E-07 0.00000E+00
 -1       562 2.29046E-05 6.08593E-08 0.00000E+00
 -1       563 2.25614E-05-4.74514E-07 0.00000E+00
 -1       564 2.22144E-05-9.99500E-07 0.00000E+00
 -1       565 2.18438E-05-1.46162E-06 0.00000E+00
 -1       566 2.14302E-05-1.80841E-06 0.00000E+00
 -1       567 2.09540E-05-1.98748E-06-6.61744E-24
 -1       568 2.03958E-05-1.94655E-06 0.00000E+00
 -1       569 1.97372E-05-1.63329E-06-6.61744E-24
 -1       570 1.89591E-05-9.95800E-07-6.61744E-24
 -1       571 3.14156E-05 7.70776E-07-3.30872E-24
 -1       572 3.16956E-05 1.35901E-06-1.65436E-24
 -1       573 3.19776E-05 1.72261E-06 0.00000E+00
 -1       574 3.22613E-05 1.90705E-06 3.30872E-24
 -1       575 3.25454E-05 1.95772E-06 6.61744E-24
 -1       576 3.28298E-05 1.92008E-06 0.00000E+00
 -1       577 3.31144E-05 1.83952E-06 0.00000E+00
 -1       578 3.33991E-05 1.76144E-06 3.30872E-24
 -1       579 3.36837E-05 1.73124E-06 0.00000E+00
 -1       580 3.39684E-05 1.79435E-06-6.61744E-24
 -1       581 3.42530E-05 1.99619E-06 1.32349E-23
 -1       582 3.45375E-05 2.38229E-06 0.00000E+00
 -1       583 3.48219E-05 2.99820E-06 0.00000E+00
 -1       584 3.51058E-05 3.88946E-06 0.00000E+00
 -1       585 3.53892E-05 5.10174E-06 0.00000E+00
 -1       586 2.94502E-05-6.81525E-08 0.00000E+00
 -1       587 2.73003E-05-4.85848E-08 0.00000E+00
 -1       588 2.48917E-05-2.93530E-08 0.00000E+00
 -1       589 2.24190E-05-1.06145E-08 0.00000E+00
 -1       590 2.00766E-05 7.64490E-09 0.00000E+00
 -1       591 3.05080E-05 7.03511E-07 0.00000E+00
 -1       592 2.99347E-05 1.27269E-06 0.00000E+00
 -1       593 2.94263E-05 1.66426E-06 0.00000E+00
 -1       594 2.89681E-05 1.91831E-06 6.61744E-24
 -1       595 2.85459E-05 2.07519E-06 1.32349E-23
 -1       596 2.81448E-05 2.17513E-06 6.61744E-24
 -1       597 2.77499E-05 2.25835E-06-6.61744E-24
 -1       598 2.73461E-05 2.36506E-06 3.30872E-24
 -1       599 2.69185E-05 2.53547E-06 0.00000E+00
 -1       600 2.64519E-05 2.80972E-06 3.30872E-24
 -1       601 2.59313E-05 3.22794E-06 6.61744E-24
 -1       602 2.53420E-05 3.83019E-06-3.30872E-24
 -1       603 2.46690E-05 4.65647E-06 6.61744E-24
 -1       604 2.38986E-05 5.74690E-06 0.00000E+00
 -1       605 2.30161E-05 7.14124E-06-8.27181E-25
 -1       606 3.57768E-05 8.74585E-06 0.00000E+00
 -1       607 3.58754E-05 1.11255E-05 0.00000E+00
 -1       608 3.59723E-05 1.37899E-05 0.00000E+00
 -1       609 3.60678E-05 1.67093E-05 0.00000E+00
 -1       610 3.61625E-05 1.98544E-05 0.00000E+00
 -1       611 3.62564E-05 2.31955E-05 0.00000E+00
 -1       612 3.63497E-05 2.67030E-05 0.00000E+00
 -1       613 3.64425E-05 3.03474E-05 0.00000E+00
 -1       614 3.65349E-05 3.40991E-05 3.30872E-24
 -1       615 3.66270E-05 3.79287E-05-1.65436E-24
 -1       616 3.67189E-05 4.18065E-05 0.00000E+00
 -1       617 3.68107E-05 4.57032E-05-1.65436E-24
 -1       618 3.69024E-05 4.95891E-05 0.00000E+00
 -1       619 3.69939E-05 5.34348E-05-8.27181E-25
 -1       620 3.70853E-05 5.72110E-05 0.00000E+00
 -1       621 3.36045E-05 7.04561E-06 0.00000E+00
 -1       622 3.13696E-05 7.41695E-06 0.00000E+00
 -1       623 2.90294E-05 7.78832E-06 0.00000E+00
 -1       624 2.66486E-05 8.15871E-06 0.00000E+00
 -1       625 2.42916E-05 8.52740E-06-6.61744E-24
 -1       626 3.51036E-05 8.83117E-06-1.32349E-23
 -1       627 3.44142E-05 1.13016E-05 0.00000E+00
 -1       628 3.36167E-05 1.40577E-05-1.32349E-23
 -1       629 3.27240E-05 1.70648E-05 3.30872E-24
 -1       630 3.17493E-05 2.02885E-05-6.61744E-24
 -1       631 3.07057E-05 2.36943E-05-3.30872E-24
 -1       632 2.96061E-05 2.72477E-05 6.61744E-24
 -1       633 2.84637E-05 3.09142E-05 0.00000E+00
 -1       634 2.72914E-05 3.46596E-05-6.61744E-24
 -1       635 2.61022E-05 3.84495E-05 3.30872E-24
 -1       636 2.49090E-05 4.22494E-05 0.00000E+00
 -1       637 2.37249E-05 4.60252E-05 0.00000E+00
 -1       638 2.25627E-05 4.97423E-05-3.30872E-24
 -1       639 2.14347E-05 5.33663E-05-1.65436E-24
 -1       640 2.03538E-05 5.68628E-05 0.00000E+00
 -1       641 3.71731E-05 6.44689E-05-8.27181E-25
 -1       642 3.71708E-05 6.80621E-05-2.06795E-25
 -1       643 3.71685E-05 7.16639E-05-2.06795E-25
 -1       644 3.71660E-05 7.52699E-05 0.00000E+00
 -1       645 3.71634E-05 7.88760E-05 1.03398E-25
 -1       646 3.71609E-05 8.24776E-05 0.00000E+00
 -1       647 3.71583E-05 8.60706E-05 0.00000E+00
 -1       648 3.71558E-05 8.96506E-05 0.00000E+00
 -1       649 3.71534E-05 9.32133E-05-5.16988E-26
 -1       650 3.71510E-05 9.67543E-05-2.58494E-26
 -1       651 3.71487E-05 1.00269E-04 0.00000E+00
 -1       652 3.71464E-05 1.03754E-04 0.00000E+00
 -1       653 3.71441E-05 1.07205E-04 0.00000E+00
 -1       654 3.71418E-05 1.10616E-04-4.13590E-25
 -1       655 3.71394E-05 1.13984E-04-8.27181E-25
 -1       656 3.38523E-05 6.07764E-05 0.00000E+00
 -1       657 3.07958E-05 6.06589E-05 0.00000E+00
 -1       658 2.79101E-05 6.05416E-05 3.30872E-24
 -1       659 2.50998E-05 6.04244E-05 0.00000E+00
 -1       660 2.22697E-05 6.03073E-05 8.27181E-25
 -1       661 3.59279E-05 6.44992E-05-1.65436E-24
 -1       662 3.46839E-05 6.81142E-05-1.65436E-24
 -1       663 3.34404E-05 7.17281E-05-3.30872E-24
 -1       664 3.21993E-05 7.53367E-05-1.65436E-24
 -1       665 3.09620E-05 7.89358E-05 0.00000E+00
 -1       666 2.97300E-05 8.25210E-05 0.00000E+00
 -1       667 2.85048E-05 8.60881E-05 0.00000E+00
 -1       668 2.72882E-05 8.96330E-05 1.65436E-24
 -1       669 2.60815E-05 9.31511E-05 0.00000E+00
 -1       670 2.48866E-05 9.66385E-05 0.00000E+00
 -1       671 2.37049E-05 1.00091E-04 3.30872E-24
 -1       672 2.25381E-05 1.03503E-04 0.00000E+00
 -1       673 2.13875E-05 1.06872E-04 3.30872E-24
 -1       674 2.02546E-05 1.10193E-04-8.27181E-25
 -1       675 1.91411E-05 1.13461E-04 0.00000E+00
 -1       676 3.38753E-05 1.17200E-04-3.30872E-24
 -1       677 3.06586E-05 1.17094E-04 1.65436E-24
 -1       678 2.74760E-05 1.16987E-04 0.00000E+00
 -1       679 2.43184E-05 1.16880E-04 1.65436E-24
 -1       680 2.11771E-05 1.16774E-04 1.65436E-24
 -1       681 8.73710E-06-1.61145E-07-3.30872E-24
 -1       682 8.89256E-06 5.44787E-07-1.65436E-24
 -1       683 9.04843E-06 1.00607E-06-3.30872E-24
 -1       684 9.20481E-06 1.26023E-06 0.00000E+00
 -1       685 9.36135E-06 1.34468E-06 3.30872E-24
 -1       686 9.51797E-06 1.29676E-06 1.65436E-24
 -1       687 9.67462E-06 1.15379E-06-3.30872E-24
 -1       688 9.83127E-06 9.53040E-07-1.65436E-24
 -1       689 9.98791E-06 7.31749E-07 0.00000E+00
 -1       690 1.01445E-05 5.27157E-07-3.30872E-24
 -1       691 1.03010E-05 3.76511E-07 0.00000E+00
 -1       692 1.04574E-05 3.17073E-07 3.30872E-24
 -1       693 1.06134E-05 3.86146E-07 6.61744E-24
 -1       694 1.07684E-05 6.21056E-07 0.00000E+00
 -1       695 1.09226E-05 1.05925E-06 0.00000E+00
 -1       696 7.24449E-06-9.62529E-07 0.00000E+00
 -1       697 5.76081E-06-7.71349E-07 0.00000E+00
 -1       698 4.21427E-06-5.79823E-07 0.00000E+00
 -1       699 2.68518E-06-3.87468E-07 0.00000E+00
 -1       700 1.25387E-06-1.94688E-07 6.61744E-24
 -1       701 8.03495E-06-1.65332E-07 0.00000E+00
 -1       702 7.55273E-06 6.03382E-07 0.00000E+00
 -1       703 7.14069E-06 1.18371E-06-6.61744E-24
 -1       704 6.78949E-06 1.59843E-06-3.30872E-24
 -1       705 6.49136E-06 1.87090E-06-6.61744E-24
 -1       706 6.23768E-06 2.02431E-06 3.30872E-24
 -1       707 6.01987E-06 2.08189E-06 0.00000E+00
 -1       708 5.82924E-06 2.06693E-06 0.00000E+00
 -1       709 5.65708E-06 2.00272E-06 0.00000E+00
 -1       710 5.49467E-06 1.91259E-06 0.00000E+00
 -1       711 5.33331E-06 1.81988E-06 0.00000E+00
 -1       712 5.16437E-06 1.74797E-06-1.65436E-24
 -1       713 4.97918E-06 1.72021E-06 0.00000E+00
 -1       714 4.76986E-06 1.76020E-06 1.65436E-24
 -1       715 4.52704E-06 1.89101E-06 1.65436E-24
 -1       716 1.11898E-05 2.34719E-06 4.13590E-25
 -1       717 1.13198E-05 2.61507E-06-8.27181E-25
 -1       718 1.14504E-05 2.59249E-06 0.00000E+00
 -1       719 1.15819E-05 2.33171E-06-1.65436E-24
 -1       720 1.17136E-05 1.88483E-06 3.30872E-24
 -1       721 1.18454E-05 1.30394E-06 0.00000E+00
 -1       722 1.19773E-05 6.41090E-07 0.00000E+00
 -1       723 1.21091E-05-5.17225E-08 0.00000E+00
 -1       724 1.22410E-05-7.22488E-07-3.30872E-24
 -1       725 1.23728E-05-1.31919E-06 0.00000E+00
 -1       726 1.25046E-05-1.78980E-06 6.61744E-24
 -1       727 1.26361E-05-2.08224E-06-3.30872E-24
 -1       728 1.27672E-05-2.14438E-06-3.30872E-24
 -1       729 1.28968E-05-1.92403E-06-3.30872E-24
 -1       730 1.30254E-05-1.36885E-06 0.00000E+00
 -1       731 9.96649E-06 1.79979E-06 0.00000E+00
 -1       732 8.67246E-06 1.86697E-06 0.00000E+00
 -1       733 7.31946E-06 1.93443E-06 0.00000E+00
 -1       734 6.04210E-06 2.00249E-06 0.00000E+00
 -1       735 4.97501E-06 2.07089E-06 0.00000E+00
 -1       736 1.04613E-05 2.32350E-06-6.61744E-24
 -1       737 9.91886E-06 2.69789E-06 0.00000E+00
 -1       738 9.44420E-06 2.88964E-06 0.00000E+00
 -1       739 9.02709E-06 2.92347E-06 6.61744E-24
 -1       740 8.65921E-06 2.82489E-06-1.32349E-23
 -1       741 8.33120E-06 2.61923E-06-6.61744E-24
 -1       742 8.03369E-06 2.33192E-06-1.32349E-23
 -1       743 7.75718E-06 1.98845E-06 0.00000E+00
 -1       744 7.49214E-06 1.61437E-06 0.00000E+00
 -1       745 7.22901E-06 1.23527E-06-6.61744E-24
 -1       746 6.95826E-06 8.76708E-07 0.00000E+00
 -1       747 6.67044E-06 5.64291E-07 0.00000E+00
 -1       748 6.35606E-06 3.23557E-07 1.32349E-23
 -1       749 6.00646E-06 1.80214E-07 0.00000E+00
 -1       750 5.61149E-06 1.59392E-07 0.00000E+00
 -1       751 1.34260E-05 5.01401E-07 8.27181E-25
 -1       752 1.37324E-05 1.03639E-06-1.65436E-24
 -1       753 1.40404E-05 1.23570E-06 0.00000E+00
 -1       754 1.43508E-05 1.15849E-06-3.30872E-24
 -1       755 1.46619E-05 8.63630E-07-6.61744E-24
 -1       756 1.49734E-05 4.09848E-07 3.30872E-24
 -1       757 1.52850E-05-1.44247E-07-6.61744E-24
 -1       758 1.55967E-05-7.40131E-07 0.00000E+00
 -1       759 1.59084E-05-1.31930E-06 0.00000E+00
 -1       760 1.62201E-05-1.82327E-06 0.00000E+00
 -1       761 1.65317E-05-2.19345E-06-1.32349E-23
 -1       762 1.68429E-05-2.37118E-06 0.00000E+00
 -1       763 1.71535E-05-2.29763E-06 0.00000E+00
 -1       764 1.74619E-05-1.91381E-06 0.00000E+00
 -1       765 1.77688E-05-1.16043E-06-6.61744E-24
 -1       766 1.17001E-05-3.17035E-07 1.29247E-25
 -1       767 1.01151E-05-1.94280E-07 8.27181E-25
 -1       768 8.52739E-06-7.10309E-08 8.27181E-25
 -1       769 7.07944E-06 5.25966E-08-5.16988E-26
 -1       770 5.91375E-06 1.76202E-07 0.00000E+00
 -1       771 1.20834E-05 3.06829E-07 0.00000E+00
 -1       772 1.11044E-05 7.58397E-07-1.32349E-23
 -1       773 1.02113E-05 9.72219E-07-2.64698E-23
 -1       774 9.39016E-06 9.87176E-07 0.00000E+00
 -1       775 8.62793E-06 8.42765E-07 2.64698E-23
 -1       776 7.91027E-06 5.78270E-07-1.32349E-23
 -1       777 7.22269E-06 2.33043E-07 2.64698E-23
 -1       778 6.55051E-06-1.53497E-07 1.32349E-23
 -1       779 5.87904E-06-5.41900E-07 0.00000E+00
 -1       780 5.19354E-06-8.92730E-07 0.00000E+00
 -1       781 4.47933E-06-1.16656E-06-2.64698E-23
 -1       782 3.72192E-06-1.32404E-06 0.00000E+00
 -1       783 2.90684E-06-1.32587E-06 0.00000E+00
 -1       784 2.02106E-06-1.13262E-06-6.61744E-24
 -1       785 1.05033E-06-7.05406E-07-1.32349E-23
 -1       786 1.82877E-05 1.24726E-06-1.65436E-24
 -1       787 1.85341E-05 2.12653E-06 0.00000E+00
 -1       788 1.87819E-05 2.71338E-06-6.61744E-24
 -1       789 1.90315E-05 3.06333E-06-3.30872E-24
 -1       790 1.92817E-05 3.23170E-06 6.61744E-24
 -1       791 1.95323E-05 3.27372E-06-3.30872E-24
 -1       792 1.97831E-05 3.24455E-06 0.00000E+00
 -1       793 2.00339E-05 3.19930E-06-3.30872E-24
 -1       794 2.02847E-05 3.19306E-06 0.00000E+00
 -1       795 2.05355E-05 3.28096E-06 0.00000E+00
 -1       796 2.07862E-05 3.51817E-06 0.00000E+00
 -1       797 2.10366E-05 3.95999E-06 3.30872E-24
 -1       798 2.12867E-05 4.66181E-06 0.00000E+00
 -1       799 2.15354E-05 5.67917E-06 0.00000E+00
 -1       800 2.17832E-05 7.06790E-06 6.61744E-24
 -1       801 1.56519E-05 1.71482E-08 0.00000E+00
 -1       802 1.24224E-05 1.61756E-08 0.00000E+00
 -1       803 8.80409E-06 1.41430E-08 0.00000E+00
 -1       804 5.23570E-06 1.16441E-08 0.00000E+00
 -1       805 2.15595E-06 9.86987E-09 0.00000E+00
 -1       806 1.71503E-05 1.13571E-06 0.00000E+00
 -1       807 1.63193E-05 2.00279E-06 6.61744E-24
 -1       808 1.55633E-05 2.66480E-06-1.32349E-23
 -1       809 1.48680E-05 3.16092E-06 6.61744E-24
 -1       810 1.42196E-05 3.53072E-06-1.32349E-23
 -1       811 1.36035E-05 3.81364E-06 0.00000E+00
 -1       812 1.30051E-05 4.04911E-06 1.32349E-23
 -1       813 1.24096E-05 4.27660E-06 0.00000E+00
 -1       814 1.18024E-05 4.53559E-06 0.00000E+00
 -1       815 1.11685E-05 4.86550E-06 0.00000E+00
 -1       816 1.04934E-05 5.30573E-06 0.00000E+00
 -1       817 9.76233E-06 5.89563E-06-6.61744E-24
 -1       818 8.96083E-06 6.67448E-06 1.32349E-23
 -1       819 8.07547E-06 7.68165E-06 6.61744E-24
 -1       820 7.09181E-06 8.95612E-06 6.61744E-24
 -1       821 2.18669E-05 1.11353E-05 0.00000E+00
 -1       822 2.17009E-05 1.36406E-05 8.27181E-25
 -1       823 2.15336E-05 1.63725E-05 0.00000E+00
 -1       824 2.13646E-05 1.93042E-05 0.00000E+00
 -1       825 2.11947E-05 2.24088E-05 0.00000E+00
 -1       826 2.10242E-05 2.56590E-05 1.65436E-24
 -1       827 2.08532E-05 2.90279E-05 3.30872E-24
 -1       828 2.06819E-05 3.24883E-05-3.30872E-24
 -1       829 2.05103E-05 3.60128E-05 0.00000E+00
 -1       830 2.03387E-05 3.95744E-05 3.30872E-24
 -1       831 2.01671E-05 4.31457E-05 6.61744E-24
 -1       832 1.99957E-05 4.66995E-05 0.00000E+00
 -1       833 1.98247E-05 5.02085E-05 0.00000E+00
 -1       834 1.96549E-05 5.36455E-05 1.65436E-24
 -1       835 1.94859E-05 5.69833E-05 0.00000E+00
 -1       836 1.95744E-05 9.15482E-06 0.00000E+00
 -1       837 1.68190E-05 9.43537E-06 0.00000E+00
 -1       838 1.39199E-05 9.71571E-06 6.61744E-24
 -1       839 1.10424E-05 9.99549E-06-3.30872E-24
 -1       840 8.35157E-06 1.02750E-05 0.00000E+00
 -1       841 2.11972E-05 1.11412E-05 0.00000E+00
 -1       842 2.02745E-05 1.36521E-05 0.00000E+00
 -1       843 1.92661E-05 1.63892E-05-1.65436E-24
 -1       844 1.81824E-05 1.93250E-05-1.65436E-24
 -1       845 1.70338E-05 2.24319E-05 0.00000E+00
 -1       846 1.58309E-05 2.56825E-05 0.00000E+00
 -1       847 1.45840E-05 2.90490E-05 0.00000E+00
 -1       848 1.33036E-05 3.25041E-05-4.13590E-25
 -1       849 1.20001E-05 3.60202E-05 0.00000E+00
 -1       850 1.06839E-05 3.95698E-05 2.06795E-25
 -1       851 9.36532E-06 4.31253E-05-4.13590E-25
 -1       852 8.05488E-06 4.66593E-05-1.55096E-25
 -1       853 6.76286E-06 5.01441E-05-2.06795E-25
 -1       854 5.49935E-06 5.35522E-05 0.00000E+00
 -1       855 4.27500E-06 5.68560E-05 0.00000E+00
 -1       856 1.92498E-05 6.33972E-05 4.13590E-25
 -1       857 1.91706E-05 6.67269E-05 0.00000E+00
 -1       858 1.90909E-05 7.01666E-05-1.65436E-24
 -1       859 1.90104E-05 7.36984E-05 8.27181E-25
 -1       860 1.89295E-05 7.73040E-05 0.00000E+00
 -1       861 1.88484E-05 8.09655E-05 8.27181E-25
 -1       862 1.87671E-05 8.46648E-05-1.65436E-24
 -1       863 1.86857E-05 8.83837E-05 0.00000E+00
 -1       864 1.86044E-05 9.21042E-05 1.65436E-24
 -1       865 1.85230E-05 9.58080E-05 0.00000E+00
 -1       866 1.84418E-05 9.94773E-05 3.30872E-24
 -1       867 1.83609E-05 1.03094E-04 0.00000E+00
 -1       868 1.82802E-05 1.06639E-04 0.00000E+00
 -1       869 1.82001E-05 1.10096E-04-1.65436E-24
 -1       870 1.81204E-05 1.13446E-04 1.65436E-24
 -1       871 1.64627E-05 6.01689E-05 0.00000E+00
 -1       872 1.37741E-05 6.01417E-05 8.27181E-25
 -1       873 1.11765E-05 6.01145E-05 0.00000E+00
 -1       874 8.58644E-06 6.00868E-05 0.00000E+00
 -1       875 5.92036E-06 6.00584E-05 1.44757E-24
 -1       876 1.82546E-05 6.34227E-05 0.00000E+00
 -1       877 1.71524E-05 6.67515E-05 0.00000E+00
 -1       878 1.60179E-05 7.01663E-05 3.30872E-24
 -1       879 1.48566E-05 7.36539E-05 1.65436E-24
 -1       880 1.36730E-05 7.72008E-05 0.00000E+00
 -1       881 1.24721E-05 8.07935E-05 1.65436E-24
 -1       882 1.12590E-05 8.44187E-05 0.00000E+00
 -1       883 1.00387E-05 8.80631E-05 0.00000E+00
 -1       884 8.81605E-06 9.17133E-05 0.00000E+00
 -1       885 7.59628E-06 9.53561E-05 0.00000E+00
 -1       886 6.38430E-06 9.89781E-05-3.30872E-24
 -1       887 5.18513E-06 1.02566E-04 0.00000E+00
 -1       888 4.00371E-06 1.06106E-04-3.30872E-24
 -1       889 2.84455E-06 1.09586E-04 1.65436E-24
 -1       890 1.71310E-06 1.12991E-04 0.00000E+00
 -1       891 1.50497E-05 1.16610E-04 1.65436E-24
 -1       892 1.21844E-05 1.16549E-04 0.00000E+00
 -1       893 9.37760E-06 1.16488E-04 0.00000E+00
 -1       894 6.55916E-06 1.16427E-04-4.13590E-25
 -1       895 3.65906E-06 1.16366E-04 4.13590E-25
 -1       896 2.64531E-07 9.20609E-07 6.61744E-24
 -1       897 5.30907E-07 1.61085E-06 3.30872E-24
 -1       898 7.97522E-07 2.09739E-06 0.00000E+00
 -1       899 1.06440E-06 2.40742E-06 0.00000E+00
 -1       900 1.33137E-06 2.56796E-06 6.61744E-24
 -1       901 1.59840E-06 2.60597E-06 0.00000E+00
 -1       902 1.86544E-06 2.54831E-06 0.00000E+00
 -1       903 2.13246E-06 2.42179E-06 3.30872E-24
 -1       904 2.39947E-06 2.25316E-06-6.61744E-24
 -1       905 2.66643E-06 2.06915E-06 0.00000E+00
 -1       906 2.93330E-06 1.89646E-06 0.00000E+00
 -1       907 3.19998E-06 1.76182E-06 0.00000E+00
 -1       908 3.46635E-06 1.69198E-06 6.61744E-24
 -1       909 3.73164E-06 1.71372E-06 3.30872E-24
 -1       910 3.99628E-06 1.85390E-06 0.00000E+00
 -1       911 4.30982E-06 2.42428E-06 1.65436E-24
 -1       912 4.36824E-06 2.55324E-06 8.27181E-25
 -1       913 4.42668E-06 2.54761E-06-1.65436E-24
 -1       914 4.48513E-06 2.42955E-06-8.27181E-25
 -1       915 4.54358E-06 2.22117E-06 0.00000E+00
 -1       916 4.60201E-06 1.94459E-06 0.00000E+00
 -1       917 4.66043E-06 1.62191E-06 0.00000E+00
 -1       918 4.71883E-06 1.27523E-06 0.00000E+00
 -1       919 4.77721E-06 9.26644E-07 0.00000E+00
 -1       920 4.83556E-06 5.98250E-07 0.00000E+00
 -1       921 4.89385E-06 3.12139E-07 1.65436E-24
 -1       922 4.95197E-06 9.04199E-08-8.27181E-25
 -1       923 5.00983E-06-4.47946E-08 0.00000E+00
 -1       924 5.06677E-06-7.13991E-08 4.13590E-25
 -1       925 5.12315E-06 3.27688E-08 0.00000E+00
 -1       926 4.85773E-06 5.08956E-07 6.61744E-24
 -1       927 4.53533E-06 5.32505E-07 0.00000E+00
 -1       928 4.21233E-06 3.94551E-07 1.32349E-23
 -1       929 3.88829E-06 1.30390E-07 6.61744E-24
 -1       930 3.56394E-06-2.24659E-07 0.00000E+00
 -1       931 3.23939E-06-6.35147E-07 0.00000E+00
 -1       932 2.91474E-06-1.06561E-06 1.32349E-23
 -1       933 2.59007E-06-1.48053E-06-6.61744E-24
 -1       934 2.26540E-06-1.84444E-06 1.32349E-23
 -1       935 1.94076E-06-2.12189E-06 0.00000E+00
 -1       936 1.61618E-06-2.27751E-06-6.61744E-24
 -1       937 1.29170E-06-2.27604E-06 3.30872E-24
 -1       938 9.67338E-07-2.08232E-06-6.61744E-24
 -1       939 6.43407E-07-1.66144E-06-3.30872E-24
 -1       940 3.19632E-07-9.78564E-07 0.00000E+00
 -1       941 3.47500E-07 1.00039E-06 1.65436E-24
 -1       942 7.21635E-07 1.76494E-06 3.30872E-24
 -1       943 1.09775E-06 2.33419E-06 0.00000E+00
 -1       944 1.47701E-06 2.74916E-06 0.00000E+00
 -1       945 1.85720E-06 3.05072E-06 0.00000E+00
 -1       946 2.23799E-06 3.27963E-06 0.00000E+00
 -1       947 2.61902E-06 3.47658E-06 0.00000E+00
 -1       948 3.00015E-06 3.68224E-06 6.61744E-24
 -1       949 3.38130E-06 3.93727E-06 0.00000E+00
 -1       950 3.76235E-06 4.28241E-06-6.61744E-24
 -1       951 4.14317E-06 4.75845E-06 0.00000E+00
 -1       952 4.52349E-06 5.40635E-06-6.61744E-24
 -1       953 4.90301E-06 6.26718E-06 1.32349E-23
 -1       954 5.28007E-06 7.38224E-06 0.00000E+00
 -1       955 5.65543E-06 8.79312E-06-6.61744E-24
 -1       956 5.83760E-06 1.26768E-05 1.65436E-24
 -1       957 5.65789E-06 1.50558E-05 8.27181E-25
 -1       958 5.47689E-06 1.76542E-05-3.30872E-24
 -1       959 5.29480E-06 2.04471E-05-3.30872E-24
 -1       960 5.11205E-06 2.34097E-05 3.30872E-24
 -1       961 4.92878E-06 2.65169E-05-1.65436E-24
 -1       962 4.74510E-06 2.97437E-05-3.30872E-24
 -1       963 4.56111E-06 3.30650E-05 0.00000E+00
 -1       964 4.37690E-06 3.64558E-05 6.61744E-24
 -1       965 4.19256E-06 3.98909E-05 3.30872E-24
 -1       966 4.00819E-06 4.33453E-05 0.00000E+00
 -1       967 3.82392E-06 4.67937E-05-3.30872E-24
 -1       968 3.63990E-06 5.02110E-05 6.61744E-24
 -1       969 3.45649E-06 5.35723E-05 0.00000E+00
 -1       970 3.27392E-06 5.68524E-05 0.00000E+00
 -1       971 2.94393E-06 6.31820E-05-3.30872E-24
 -1       972 2.78897E-06 6.64642E-05 0.00000E+00
 -1       973 2.63346E-06 6.98570E-05 0.00000E+00
 -1       974 2.47732E-06 7.33436E-05 0.00000E+00
 -1       975 2.32083E-06 7.69068E-05 0.00000E+00
 -1       976 2.16407E-06 8.05299E-05-1.65436E-24
 -1       977 2.00714E-06 8.41957E-05 3.30872E-24
 -1       978 1.85012E-06 8.78873E-05 0.00000E+00
 -1       979 1.69307E-06 9.15876E-05 0.00000E+00
 -1       980 1.53608E-06 9.52796E-05 0.00000E+00
 -1       981 1.37922E-06 9.89463E-05-3.30872E-24
 -1       982 1.22263E-06 1.02571E-04-1.65436E-24
 -1       983 1.06643E-06 1.06136E-04-3.30872E-24
 -1       984 9.11130E-07 1.09624E-04 0.00000E+00
 -1       985 7.56518E-07 1.13020E-04 0.00000E+00
 -3
    1PSTEP                         2           1           1          
  100CL  101 1.000000000         841                     0    1           1
 -4  STRESS      6    1
 -5  SXX         1    4    1    1
 -5  SYY         1    4    2    2
 -5  SZZ         1    4    3    3
 -5  SXY         1    4    1    2
 -5  SYZ         1    4    2    3
 -5  SZX         1    4    3    1
 -1         1-1.46686E+06-4.59475E+05-4.51459E+04-6.36112E+05 5.69950E-11 7.08193E-10
 -1         2-8.59242E+05 2.47698E+04 1.50227E+03-1.52439E+05-4.04725E-11 1.93086E-09
 -1         3-2.82237E+05-4.55021E+04 4.99035E+02-7.09883E+04-8.93579E-11 1.69484E-09
 -1         4-3.74661E+04-1.48310E+03 1.15210E+02-1.72004E+04 1.46315E-10-2.28513E-09
 -1         5 6.42962E+04 6.95534E+05-3.94758E+04-7.21636E+03 4.54747E-10-1.13300E-09
 -1         8-2.20245E+05-2.77511E+05 6.12985E+03-4.71356E+05 3.74712E-10-2.60115E-09
 -1         9-5.66010E+05-5.71918E+04-1.25471E+04-3.91944E+05 7.00917E-10-9.84680E-10
 -1        10-3.02243E+05-9.53048E+04 8.33242E+02-2.26658E+05 2.34043E-10 6.39678E-10
 -1        11-4.74163E+04-3.02324E+04 1.84847E+02-1.05335E+05 9.30640E-10 6.16789E-10
 -1        12 9.73429E+04 7.03112E+05-3.63206E+04 3.39058E+04-3.78577E-10 2.73950E-11
 -1        15 1.80857E+04 9.68236E+03 9.46895E+02-1.59177E+05-4.63842E-11-1.34605E-09
 -1        16-2.29331E+05-6.37759E+04-7.05801E+03-3.48454E+05 1.02470E-10-1.08533E-10
 -1        17-2.26064E+05-1.07729E+05 1.34439E+04-3.54697E+05-5.09317E-11 2.07850E-09
 -1        18-3.81600E+04-5.58752E+04-3.51447E+03-2.60032E+05-5.23869E-10 6.96067E-10
 -1        19 2.60190E+05 4.00329E+05-1.35491E+04 1.93656E+04-2.68938E-09 3.35300E-10
 -1        20 1.14208E+05-5.52045E+04-6.58805E+03 7.54971E+04 2.22777E-08 3.35149E-10
 -1        21-1.26501E+04-1.29246E+05-5.46060E+02 9.77348E+03 3.31493E-08 2.22630E-09
 -1        22 3.10308E+04 1.77310E+05 4.73026E+02-1.05630E+05 1.36424E-10-4.71118E-10
 -1        23-1.29575E+05-2.21734E+03 7.27062E+02-2.05671E+05-3.19839E-11-1.61587E-10
 -1        24-2.89479E+05-5.06064E+04 2.53614E+04-3.40846E+05-1.38607E-09-1.09139E-10
 -1        25-7.44446E+04-4.19971E+04 3.57896E+04-3.52631E+05 2.99345E-09 2.16763E-09
 -1        26-2.52142E+04 2.46420E+05 5.96546E+03-1.10175E+05-1.15286E-09 2.00574E-09
 -1        27 4.88408E+03-3.29784E+04-1.05409E+04 1.20516E+05 1.13899E-08 2.63147E-10
 -1        28-2.13396E+03-9.13318E+04-5.09761E+02 5.32191E+04 1.13871E-08-1.42544E-09
 -1        29 3.70835E+05 2.89569E+05 9.03979E+02-7.70940E+04 1.52681E-10 1.02818E-09
 -1        30 1.27763E+05 3.24848E+04 6.40433E+02-9.95152E+04 6.03329E-10 4.62933E-10
 -1        31-3.70435E+05 1.91178E+04 1.26796E+03-1.48629E+05 3.98259E-10-4.25644E-10
 -1        32-3.60537E+05-5.48015E+04 4.43472E+04-3.40748E+05 1.26974E-10 1.50249E-09
 -1        33-6.67940E+04 1.51581E+05 4.73582E+04-1.58948E+05 4.07846E-09-7.86258E-10
 -1        34-2.16684E+05-1.94610E+04 2.27912E+03 7.58759E+04 1.12242E-08-1.95575E-09
 -1        35-3.82950E+04-3.20823E+04-4.06290E+02 7.64729E+04 1.25985E-08-1.78989E-09
 -1        36-1.99293E+06-1.47690E+03-2.73011E+04-5.60431E-09-7.59537E-10 6.43922E-10
 -1        37-2.00030E+06-4.36777E+03-1.55270E+04 1.07943E-08-4.43187E-10 4.07908E-09
 -1        38-1.99627E+06 2.29284E+01-6.83085E+03-9.32189E-10 7.50789E-10-1.20826E-09
 -1        39-1.99669E+06-2.00126E+02-3.58906E+03-1.99688E-08-5.29339E-10-1.03597E-09
 -1        40-1.99651E+06 2.72641E+01-1.79737E+03-1.93583E-08-2.48312E-10-4.74620E-09
 -1        41-1.99642E+06-3.32915E+00-1.07814E+03-1.00359E-09-1.09291E-10-5.53014E-09
 -1        42-1.99653E+06 1.49202E+01-8.46314E+02-5.83199E-09 3.42744E-10 2.47454E-09
 -1        43-1.99642E+06 5.42923E+00-1.08392E+03-6.00295E-09-4.38884E-10-1.23634E-09
 -1        44-1.99651E+06 3.16808E+01-1.81954E+03 1.00583E-08-9.00315E-11-4.85898E-10
 -1        45-1.99656E+06-1.95623E+01-3.57120E+03-2.25718E-08 1.67443E-10 7.25606E-10
 -1        46-1.99639E+06 1.03987E+02-6.92942E+03-1.21741E-08 4.83655E-10-1.73213E-09
 -1        47-1.99769E+06-8.18332E+02-1.44420E+04-5.63449E-09-2.33639E-10-4.80190E-09
 -1        48-1.99541E+06 9.19001E+01-2.77759E+04 7.26837E-09-3.40906E-10 3.35785E-09
 -1        49-2.01240E+06-1.78257E+04-6.33167E+04 2.62844E-10-5.18449E-11-2.42289E-09
 -1        50-1.98176E+06-6.01854E+03-1.11364E+05 3.67436E-10-7.00706E-11 2.91766E-09
 -1        51 2.60504E+04-6.84637E+05 1.00366E+05-7.76744E+05 1.89175E-10 1.22236E-09
 -1        52 1.77057E+04-6.67344E+05 5.27501E+04-1.01435E+06 5.74801E-10-8.29459E-10
 -1        53 5.76950E+03-6.84744E+05 2.06468E+04-7.74034E+05 2.43745E-10-2.25555E-09
 -1        54 7.87415E+03-6.88670E+05 4.35575E+03-1.01619E+06 1.52795E-10 3.25963E-09
 -1        55 2.47339E+03-6.84301E+05-1.03361E+04-7.74800E+05-2.47383E-10 1.40244E-09
 -1        56-2.57959E+06-3.72861E+05-1.14244E+05-9.78449E+05 8.62201E-10 2.29193E-09
 -1        57-2.60682E+06-3.99782E+05-6.38873E+04-9.89928E+05-1.62345E-10 2.48838E-09
 -1        58-2.59291E+06-3.73150E+05-2.61526E+04-9.84124E+05 3.46972E-10 4.45652E-11
 -1        59-2.58972E+06-3.80262E+05-1.32061E+04-9.90939E+05-1.57456E-09 1.71769E-09
 -1        60-2.59391E+06-3.73481E+05-6.05589E+03-9.84474E+05 6.38920E-10 5.18867E-09
 -1        61-2.58852E+06-3.79113E+05-3.18269E+03-9.90752E+05 4.19504E-10 1.32900E-09
 -1        62-2.59396E+06-3.73611E+05-1.92408E+03-9.84546E+05-3.43789E-10 1.09867E-09
 -1        63-2.58853E+06-3.78944E+05-1.90288E+03-9.90578E+05 4.71346E-10 2.77396E-09
 -1        64-2.59386E+06-3.73675E+05-2.87796E+03-9.84620E+05-8.98126E-10 2.76714E-09
 -1        65-2.58893E+06-3.78897E+05-5.71028E+03-9.90435E+05-2.71484E-10-1.66438E-10
 -1        66-2.59351E+06-3.73631E+05-1.14323E+04-9.84680E+05 3.67436E-10-5.60249E-09
 -1        67-2.59156E+06-3.80750E+05-2.52332E+04-9.90343E+05 1.04137E-10-2.26146E-09
 -1        68-2.59139E+06-3.73190E+05-5.01076E+04-9.84189E+05-5.71504E-10 1.74259E-09
 -1        69-2.62470E+06-4.17788E+05-1.22467E+05-9.87924E+05-1.12323E-09 1.77351E-09
 -1        70-2.56561E+06-3.72805E+05-2.18950E+05-9.73496E+05 7.82165E-10-2.00089E-09
 -1        71-6.59548E+05 9.77809E+02 1.79480E+04-3.87558E-09 2.68256E-10 3.30147E-10
 -1        72-6.54523E+05 2.86850E+03 1.01979E+04 3.29464E-10 8.60830E-11-5.42968E-10
 -1        73-6.57346E+05-1.44126E+01 4.46978E+03-8.59897E-09-1.93337E-11 5.13796E-09
 -1        74-6.56891E+05 1.31677E+02 2.31150E+03-5.95726E-09-1.12293E-09-1.42640E-09
 -1        75-6.57186E+05-1.61493E+01 1.08370E+03 7.21921E-09 6.17456E-10 2.22030E-10
 -1        76-6.57074E+05 3.62571E+00 5.06430E+02 7.69331E-10-7.50482E-10 1.56945E-10
 -1        77-6.57164E+05-2.65182E+00 1.56001E+02-2.23100E-10 8.09803E-11 1.30929E-09
 -1        78-6.57107E+05 5.35343E-01-1.06350E+02-2.52726E-09 4.38935E-10 6.79279E-11
 -1        79-6.57153E+05 7.22295E+00-4.17518E+02-1.01974E-08-3.55285E-10-1.33011E-09
 -1        80-6.57154E+05-5.84281E+00-9.62304E+02 3.16940E-09 3.84789E-10-3.27424E-09
 -1        81-6.57117E+05 2.90079E+01-1.93907E+03 3.70158E-09 6.15881E-10 1.22554E-10
 -1        82-6.57474E+05-2.31148E+02-4.07798E+03-4.47142E-09-1.09191E-09 2.80647E-09
 -1        83-6.56836E+05 2.54999E+01-7.85925E+03-6.84412E-09-5.13557E-10-1.59798E-09
 -1        84-6.61631E+05-5.03829E+03-1.79158E+04-1.27147E-08 5.74247E-11-1.60662E-09
 -1        85-6.52966E+05-1.71589E+03-3.15203E+04-1.74623E-10 5.66787E-10-3.23780E-10
 -1        86 7.11961E+03 5.52088E+05 1.41130E+05-1.34250E+05 5.31145E-10-2.91766E-09
 -1        87 2.29033E+04 5.90793E+05 9.05327E+04-2.16723E+05 1.31422E-10-2.03727E-10
 -1        88 1.12673E+02 5.67111E+05 6.03397E+04-1.33711E+05 9.31777E-10 1.00226E-09
 -1        89 1.91803E+04 5.86419E+05 7.85587E+04-2.17091E+05 5.45697E-11-5.97993E-10
 -1        90 6.35373E+03 5.54731E+05 1.15603E+05-1.33835E+05 9.74978E-10-1.71019E-09
 -1        91-1.09629E+06-1.60524E+05-3.81337E+04-4.18764E+05 5.65706E-10 5.88261E-09
 -1        92-1.10348E+06-1.71354E+05-2.13213E+04-4.24749E+05-1.63709E-11-1.96451E-10
 -1        93-1.10076E+06-1.60583E+05-8.73590E+03-4.20645E+05 3.29464E-10-1.75669E-09
 -1        94-1.09775E+06-1.64879E+05-4.41350E+03-4.25122E+05-6.18058E-10 2.10466E-09
 -1        95-1.10111E+06-1.60684E+05-2.02748E+03-4.20754E+05-8.87326E-10-4.33573E-10
 -1        96-1.09734E+06-1.64514E+05-1.07118E+03-4.25080E+05-4.25359E-10-1.02114E-09
 -1        97-1.10113E+06-1.60718E+05-6.56974E+02-4.20768E+05 3.37150E-09 2.40391E-09
 -1        98-1.09732E+06-1.64474E+05-6.66175E+02-4.25043E+05 5.30690E-10 2.90675E-09
 -1        99-1.10111E+06-1.60730E+05-1.02269E+03-4.20782E+05-3.26054E-10 2.41607E-09
 -1       100-1.09744E+06-1.64480E+05-2.03903E+03-4.25018E+05-1.13459E-09 4.82044E-09
 -1       101-1.10099E+06-1.60702E+05-4.08625E+03-4.20789E+05 1.87356E-10 1.60708E-09
 -1       102-1.09836E+06-1.65166E+05-9.01678E+03-4.25012E+05-1.20053E-10 9.45874E-11
 -1       103-1.10024E+06-1.60534E+05-1.79017E+04-4.20596E+05-3.54930E-10 1.65528E-09
 -1       104-1.11017E+06-1.78361E+05-4.37172E+04-4.24141E+05 5.76961E-10-1.53250E-09
 -1       105-1.09101E+06-1.60460E+05-7.81915E+04-4.16788E+05-4.72937E-11-2.42289E-09
 -1       106-1.05049E+05 1.20335E+03 2.20374E+04-3.01088E-09-1.16448E-09-5.00222E-10
 -1       107-9.89406E+04 3.52021E+03 1.25248E+04 5.27325E-09 1.27910E-09 2.39561E-09
 -1       108-1.02342E+05-1.77136E+01 5.49696E+03-4.22410E-09 9.06365E-11 5.58657E-10
 -1       109-1.01845E+05 1.61403E+02 2.85476E+03 1.69829E-08 2.14011E-10-1.04336E-09
 -1       110-1.02145E+05-2.03939E+01 1.36241E+03 4.31399E-09 5.28345E-10-3.31062E-09
 -1       111-1.02068E+05 3.97834E+00 6.85806E+02-7.80042E-09-4.94098E-10 3.19420E-09
 -1       112-1.02120E+05-5.49934E+00 3.17100E+02-5.51172E-09-9.81224E-11 4.52104E-10
 -1       113-1.02099E+05-6.32546E-01 1.25496E+02 3.53780E-09 8.78000E-10 4.73289E-09
 -1       114-1.02114E+05 1.06877E-01-8.52304E+00-7.90067E-09-7.31655E-10 2.82232E-09
 -1       115-1.02113E+05-1.37534E+00-1.48001E+02-1.89036E-09-3.39750E-10-2.94302E-09
 -1       116-1.02106E+05 5.23269E+00-3.53454E+02 1.22224E-08 2.36278E-10-5.11004E-09
 -1       117-1.02176E+05-4.42532E+01-7.71525E+02-3.07802E-09-1.18682E-10-2.10166E-09
 -1       118-1.02052E+05 4.76823E+00-1.49975E+03-1.41805E-08 4.56557E-10 1.99935E-09
 -1       119-1.02971E+05-9.63517E+02-3.42579E+03-5.13239E-09-2.71667E-10 1.37817E-09
 -1       120-1.01311E+05-3.29208E+02-6.03023E+03-1.09782E-08-3.18629E-10-2.12140E-09
 -1       121 1.34518E+03-5.94756E+04 2.79503E+04-7.62144E+04 3.29237E-10-3.49610E-09
 -1       122 4.58645E+03-5.18304E+04 1.90738E+04-1.23334E+05-1.36424E-10-4.96766E-09
 -1       123 5.05675E+01-5.67446E+04 1.47237E+04-7.58966E+04 1.93268E-10 3.64071E-09
 -1       124 5.76353E+03-5.11345E+04 2.21964E+04-1.23558E+05 1.62345E-10-5.19321E-10
 -1       125 1.94084E+03-6.06588E+04 3.46813E+04-7.59838E+04 3.09228E-11 2.64367E-09
 -1       126-4.29913E+05-6.63319E+04-1.52703E+04-1.68716E+05-1.49703E-09-5.81167E-10
 -1       127-4.30704E+05-7.27514E+04-8.53751E+03-1.73509E+05 4.71800E-11 1.79966E-10
 -1       128-4.31726E+05-6.63350E+04-3.50032E+03-1.69452E+05-3.10820E-10 4.97266E-09
 -1       129-4.28396E+05-7.01790E+04-1.76997E+03-1.73682E+05-6.09262E-10 1.71131E-09
 -1       130-4.31867E+05-6.63725E+04-8.16514E+02-1.69494E+05-2.28624E-10-6.69729E-10
 -1       131-4.28227E+05-7.00366E+04-4.38074E+02-1.73669E+05 3.81988E-11-4.83919E-09
 -1       132-4.31879E+05-6.63843E+04-2.81607E+02-1.69498E+05 1.18462E-09 1.37925E-09
 -1       133-4.28220E+05-7.00256E+04-3.06448E+02-1.73658E+05-3.44244E-10-2.98860E-09
 -1       134-4.31866E+05-6.63871E+04-4.90575E+02-1.69500E+05-7.45558E-10-2.72394E-09
 -1       135-4.28270E+05-7.00354E+04-9.91529E+02-1.73652E+05-6.51198E-10 3.18596E-09
 -1       136-4.31813E+05-6.63719E+04-1.99359E+03-1.69499E+05 3.07864E-10 1.15392E-09
 -1       137-4.28704E+05-7.03767E+04-4.39981E+03-1.73653E+05 2.80215E-09 1.77943E-09
 -1       138-4.31446E+05-6.62887E+04-8.73713E+03-1.69398E+05 1.77351E-10-1.12004E-09
 -1       139-4.34478E+05-7.67930E+04-2.13275E+04-1.73203E+05-1.26192E-11 4.55657E-09
 -1       140-4.26908E+05-6.62851E+04-3.81498E+04-1.67561E+05-1.00835E-09 3.98541E-09
 -1       141-1.73586E+04 1.18731E+02 2.16870E+03-4.98864E-09 1.35041E-10-2.34240E-09
 -1       142-1.67561E+04 3.47168E+02 1.22447E+03-6.44343E-09 6.32996E-10-8.80050E-10
 -1       143-1.70913E+04-1.35408E+00 5.20216E+02 3.99279E-09-4.57368E-10-7.98991E-10
 -1       144-1.70441E+04 1.62587E+01 2.36456E+02 7.45970E-10-3.58428E-10-3.65702E-10
 -1       145-1.70706E+04-4.10825E-01 4.52933E+01-5.03415E-09-1.27479E-10-6.22393E-10
 -1       146-1.70721E+04 1.70510E+00-1.14228E+02 5.60742E-09 3.11197E-11 1.77768E-09
 -1       147-1.70632E+04 5.86253E+00-3.27186E+02-3.07182E-09 1.18725E-10 8.93152E-11
 -1       148-1.71011E+04 3.62892E+00-7.19672E+02-9.01207E-09 1.01076E-11-2.00907E-09
 -1       149-1.70416E+04 2.50627E+01-1.44235E+03 9.50102E-10 2.43104E-10 1.48395E-09
 -1       150-1.72286E+04-1.66205E+01-2.96973E+03 1.27121E-08 3.15344E-10-1.02318E-11
 -1       151-1.69357E+04 8.73590E+01-5.83073E+03-1.80262E-09-3.46599E-10 1.38584E-09
 -1       152-1.81744E+04-6.87918E+02-1.21817E+04-8.77480E-09-4.25921E-10 3.19551E-09
 -1       153-1.60953E+04 7.57340E+01-2.34375E+04-1.20251E-08 3.06988E-10-6.22094E-10
 -1       154-3.05556E+04-1.50056E+04-5.33937E+04-8.50378E-09 1.65242E-10 4.16640E-09
 -1       155-4.54071E+03-5.12104E+03-9.39055E+04-1.54378E-08 5.44862E-11 4.62023E-10
 -1       156 2.29012E+02 1.02328E+04 5.24304E+03-3.32408E+04 7.56245E-10 2.52930E-09
 -1       157 8.59049E+02 1.16693E+04 3.80966E+03-5.36959E+04 2.10002E-09-1.99543E-09
 -1       158 6.25764E+00 1.06928E+04 3.32221E+03-3.30720E+04 2.25987E-09 1.43791E-09
 -1       159 1.47613E+03 1.20982E+04 5.50839E+03-5.38584E+04 2.88219E-09 2.51953E-09
 -1       160 5.07873E+02 9.64449E+03 8.89538E+03-3.30770E+04 2.93130E-09 4.64524E-10
 -1       161-4.20762E+04-5.94690E+03-7.79020E+02-1.58001E+04 3.44471E-11 1.27000E-09
 -1       162-4.22445E+04-6.14318E+03-4.40176E+02-1.58943E+04-3.98700E-10 2.81055E-09
 -1       163-4.21521E+04-5.96257E+03-1.90646E+02-1.58556E+04 8.43556E-11 4.61398E-10
 -1       164-4.21444E+04-5.99564E+03-1.17032E+02-1.58841E+04 1.17188E-09-1.99989E-09
 -1       165-4.21583E+04-5.96519E+03-9.74675E+01-1.58589E+04 1.30331E-09-8.23491E-10
 -1       166-4.21413E+04-5.98700E+03-1.41354E+02-1.58837E+04-1.37447E-10-1.59295E-09
 -1       167-4.21539E+04-5.96229E+03-2.59500E+02-1.58594E+04-3.81283E-09-2.16119E-09
 -1       168-4.21622E+04-5.98865E+03-5.42034E+02-1.58905E+04 5.17787E-10 2.91573E-09
 -1       169-4.21349E+04-5.94709E+03-1.10636E+03-1.58582E+04 9.71113E-10 8.64588E-10
 -1       170-4.22824E+04-6.03646E+03-2.38805E+03-1.59211E+04 9.59915E-10-3.52259E-10
 -1       171-4.20291E+04-5.88092E+03-4.87153E+03-1.58414E+04-1.99827E-09-2.18984E-09
 -1       172-4.33270E+04-6.91066E+03-1.07959E+04-1.59927E+04 8.48104E-10 2.89492E-09
 -1       173-4.11696E+04-5.63808E+03-2.14475E+04-1.55743E+04 3.22416E-10 6.11180E-10
 -1       174-5.73401E+04-2.28393E+04-5.23684E+04-1.51245E+04-9.02219E-10-5.44424E-09
 -1       175-3.01907E+04-5.45669E+03-9.36491E+04-1.08828E+04-8.71296E-10-2.50657E-09
 -1       191 1.80634E+04 1.61892E+06 6.97936E+04-1.13431E+04 1.70985E-10 1.76442E-09
 -1       192 8.55429E+03 1.63456E+06 4.27885E+04-1.45140E+04-7.90806E-10 2.36923E-10
 -1       193 6.78280E+02 1.62520E+06 3.08568E+04-1.12333E+04 4.38547E-10 3.00861E-09
 -1       194 8.26085E+03 1.63427E+06 4.17597E+04-1.46853E+04-1.38016E-09 1.39426E-09
 -1       195 1.74017E+04 1.61917E+06 6.74202E+04-1.11568E+04 5.71163E-10-2.78760E-10
 -1       251 5.34451E+05 4.12171E+03 1.03546E+05-9.40384E+04-1.78261E-10 3.41970E-10
 -1       252 5.63801E+05 1.54451E+04 5.90289E+04-1.51512E+05 9.98625E-10 1.51704E-09
 -1       253 5.46302E+05-9.06142E+02 2.57696E+04-9.32809E+04 5.45697E-11-1.24055E-09
 -1       254 5.48671E+05 2.81697E+02 1.35134E+04-1.52133E+05-1.38243E-09-1.94086E-09
 -1       255 5.46535E+05-3.73353E+02 6.48330E+03-9.33469E+04-7.63976E-11-2.20098E-09
 -1       256 5.46695E+05 2.81899E+01 3.50845E+03-1.52018E+05 1.17234E-09-1.77806E-09
 -1       257 5.46222E+05 2.30856E+01 2.01029E+03-9.34025E+04 6.73026E-11-2.29284E-09
 -1       258 5.46104E+05 2.56149E+02 1.67663E+03-1.51940E+05-3.14685E-10-6.53381E-09
 -1       259 5.46068E+05 1.42606E+02 2.06915E+03-9.34251E+04-2.18961E-10-4.53292E-09
 -1       260 5.46190E+05 2.97577E+02 3.61183E+03-1.51933E+05 3.01952E-10 1.41881E-10
 -1       261 5.46070E+05-1.48765E+01 6.73944E+03-9.34086E+04 9.38599E-10-7.04404E-10
 -1       262 5.47680E+05 8.42093E+02 1.39301E+04-1.51973E+05-2.80124E-10-7.29415E-10
 -1       263 5.45501E+05-3.03760E+02 2.66426E+04-9.33835E+04-4.11092E-10-1.18234E-09
 -1       264 5.62665E+05 1.67072E+04 6.07739E+04-1.51475E+05-3.63798E-11 1.44701E-09
 -1       265 5.32992E+05 5.13510E+03 1.06748E+05-9.39461E+04-5.56611E-10 3.59432E-09
 -1       266 2.70068E+03-1.32183E+05 3.84947E+04-8.64414E+04-2.01908E-10 2.91038E-11
 -1       267 6.99122E+03-1.21664E+05 2.04616E+04-1.41218E+05-2.39908E-10-1.21508E-09
 -1       268 3.20926E+02-1.26969E+05 6.05881E+03-8.65245E+04 8.12861E-12-3.51793E-09
 -1       269-1.48661E+03-1.28071E+05-3.36787E+03-1.40648E+05 3.44698E-10 2.89219E-10
 -1       270-8.57557E+02-1.24370E+05-1.26723E+04-8.70477E+04-2.85581E-10 3.14685E-09
 -1       271-1.48417E+06-2.66488E+05-1.12689E+05-6.29394E+05 3.12866E-10 4.58385E-10
 -1       272-1.48345E+06-3.19611E+05-6.28721E+04-6.71572E+05-5.82077E-11 4.82578E-09
 -1       273-1.49847E+06-2.65659E+05-2.58853E+04-6.34591E+05-6.54836E-11-6.47560E-10
 -1       274-1.46651E+06-3.01153E+05-1.29879E+04-6.74241E+05-5.63887E-11-5.37057E-10
 -1       275-1.50012E+06-2.65425E+05-5.98122E+03-6.34930E+05-6.73026E-10 2.09002E-09
 -1       276-1.46548E+06-3.00245E+05-3.02770E+03-6.74950E+05-5.54792E-10 1.56956E-09
 -1       277-1.50062E+06-2.65175E+05-1.69550E+03-6.34973E+05-4.89308E-10-5.73493E-10
 -1       278-1.46549E+06-3.00258E+05-1.41273E+03-6.75337E+05-7.00311E-11 6.65295E-10
 -1       279-1.50075E+06-2.65049E+05-1.89937E+03-6.34984E+05 1.22918E-09 5.26825E-09
 -1       280-1.46566E+06-3.00332E+05-3.61694E+03-6.75411E+05 5.56156E-10 1.14869E-09
 -1       281-1.50051E+06-2.65035E+05-7.18628E+03-6.34954E+05 3.15595E-10 2.93949E-09
 -1       282-1.46710E+06-3.01548E+05-1.58118E+04-6.75168E+05-2.53749E-10 2.67028E-09
 -1       283-1.49892E+06-2.64975E+05-3.14351E+04-6.34561E+05 1.85537E-10 1.40062E-09
 -1       284-1.48774E+06-3.24439E+05-7.66672E+04-6.72832E+05-1.41426E-09-4.15639E-09
 -1       285-1.48206E+06-2.65416E+05-1.37233E+05-6.28024E+05 1.11231E-09-1.41881E-09
 -1       286 2.94002E+04 2.76858E+03 5.77147E+04-4.96031E+04 1.74805E-09 4.42014E-10
 -1       287 4.55452E+04 8.96687E+03 3.28503E+04-7.96632E+04 6.48470E-10-8.94943E-10
 -1       288 3.62551E+04-2.38707E+02 1.43859E+04-4.91701E+04-9.09495E-12-3.50246E-09
 -1       289 3.75446E+04 3.34024E+02 7.51323E+03-8.00901E+04 1.15233E-09-3.91083E-11
 -1       290 3.65874E+04-1.01976E+02 3.61214E+03-4.91565E+04-1.41881E-10-1.45383E-09
 -1       291 3.67205E+04 4.84741E+01 1.91559E+03-8.01029E+04 9.22228E-10-3.08910E-09
 -1       292 3.65414E+04 1.95156E+01 1.05510E+03-4.91583E+04 3.21052E-10-2.81625E-09
 -1       293 3.65358E+04 9.72380E+01 7.92007E+02-8.01011E+04 5.48198E-10 8.55835E-10
 -1       294 3.65116E+04 4.86486E+01 8.81284E+02-4.91584E+04 2.89850E-09-5.08408E-10
 -1       295 3.65848E+04 1.03828E+02 1.46025E+03-8.01012E+04 2.41971E-09-3.30647E-09
 -1       296 3.65094E+04-9.72964E+00 2.68447E+03-4.91581E+04-7.67614E-10-1.55819E-09
 -1       297 3.71417E+04 3.37295E+02 5.52582E+03-8.00893E+04-1.14596E-10 1.19371E-11
 -1       298 3.62490E+04-9.61494E+01 1.05659E+04-4.91698E+04-5.85715E-10 1.14323E-09
 -1       299 4.29938E+04 6.67038E+03 2.40900E+04-7.97484E+04-8.00355E-11 6.95536E-10
 -1       300 3.12271E+04 2.10560E+03 4.23225E+04-4.95072E+04-2.09184E-10-2.07365E-09
 -1       301 2.06298E+04 1.44157E+05 7.32793E+04-3.80772E+05 1.64437E-09 4.14730E-10
 -1       302 1.16529E+04 1.59453E+05 4.26800E+04-4.97858E+05 2.43745E-09-1.81899E-10
 -1       303 2.61578E+03 1.49952E+05 2.65564E+04-3.79992E+05 2.10457E-09-8.11156E-10
 -1       304 8.01516E+03 1.56114E+05 3.01306E+04-4.97893E+05 2.01908E-09-1.74623E-10
 -1       305 1.24638E+04 1.47318E+05 4.43170E+04-3.80750E+05 1.54614E-09 2.77942E-09
 -1       306-1.70125E+06-2.73573E+05-1.30233E+05-6.80513E+05 2.01908E-10 9.89530E-10
 -1       307-1.71925E+06-3.17106E+05-7.27895E+04-7.08526E+05 1.67074E-09 1.45519E-10
 -1       308-1.71698E+06-2.73377E+05-2.98342E+04-6.86681E+05 2.40107E-10 5.63887E-10
 -1       309-1.69949E+06-2.95372E+05-1.50269E+04-7.10490E+05 2.18279E-10 1.46474E-09
 -1       310-1.71840E+06-2.73503E+05-6.85471E+03-6.86984E+05-5.12046E-10-1.28239E-09
 -1       311-1.69800E+06-2.94280E+05-3.49099E+03-7.10712E+05 1.53932E-09-2.60292E-09
 -1       312-1.71867E+06-2.73480E+05-1.91309E+03-6.86978E+05 2.16005E-10 4.65047E-09
 -1       313-1.69786E+06-2.94264E+05-1.56540E+03-7.10803E+05-2.23804E-09 4.15275E-09
 -1       314-1.71868E+06-2.73464E+05-2.04325E+03-6.86974E+05-1.21531E-10-7.33507E-10
 -1       315-1.69802E+06-2.94309E+05-3.84098E+03-7.10771E+05 5.98220E-10-8.50378E-10
 -1       316-1.71843E+06-2.73449E+05-7.59268E+03-6.86970E+05 6.10271E-10 1.00954E-09
 -1       317-1.69967E+06-2.95558E+05-1.66925E+04-7.10614E+05-1.49885E-09-6.31735E-09
 -1       318-1.71690E+06-2.73260E+05-3.31402E+04-6.86619E+05 1.04410E-09-2.06455E-09
 -1       319-1.72159E+06-3.19806E+05-8.08971E+04-7.08587E+05 3.38787E-10-1.76806E-09
 -1       320-1.69951E+06-2.73376E+05-1.44709E+05-6.79701E+05 2.02272E-09 1.49157E-09
 -1       321 1.98176E+05 3.11308E+03 5.87083E+04-2.65118E+04 1.92813E-10 2.90129E-09
 -1       322 2.14445E+05 9.31146E+03 3.33792E+04-4.26527E+04 1.43245E-10 2.24463E-09
 -1       323 2.05324E+05-9.37572E+01 1.46495E+04-2.63059E+04-8.54925E-11 1.80989E-10
 -1       324 2.06606E+05 4.09764E+02 7.62931E+03-4.28499E+04-7.96717E-10-8.93579E-10
 -1       325 2.05802E+05-6.43596E+01 3.66965E+03-2.63041E+04-3.57431E-10-1.49021E-09
 -1       326 2.05956E+05 2.20579E+01 1.91425E+03-4.28472E+04 1.68075E-09-3.02407E-10
 -1       327 2.05840E+05-6.55444E+00 1.01326E+03-2.63091E+04-5.17275E-10 1.21713E-09
 -1       328 2.05859E+05 2.19550E+01 6.78139E+02-4.28415E+04-7.63407E-11 1.05319E-09
 -1       329 2.05843E+05 3.09085E+00 6.51298E+02-2.63099E+04 2.37151E-10-4.37376E-09
 -1       330 2.05891E+05 2.37218E+01 9.86111E+02-4.28431E+04-7.86940E-10-1.01204E-09
 -1       331 2.05832E+05-2.56124E+01 1.76099E+03-2.63075E+04 1.60526E-10 9.66224E-10
 -1       332 2.06210E+05 1.96158E+02 3.59246E+03-4.28445E+04-1.20053E-10-2.56932E-09
 -1       333 2.05626E+05-5.18173E+01 6.86254E+03-2.63082E+04-1.46065E-09-3.72393E-09
 -1       334 2.09916E+05 4.34346E+03 1.56233E+04-4.26692E+04 7.38964E-10 3.58034E-09
 -1       335 2.02307E+05 1.42634E+03 2.74607E+04-2.64866E+04-1.09139E-11 2.39743E-09
 -1       336 1.92644E+03-7.03047E+04 3.36780E+04-2.31606E+05 7.05768E-10 1.05501E-10
 -1       337 6.93211E+03-6.19488E+04 2.24003E+04-3.75496E+05 2.00089E-11-5.60885E-09
 -1       338 9.92121E+02-6.76868E+04 1.59999E+04-2.30903E+05 3.96540E-10-2.25737E-09
 -1       339 7.17955E+03-6.24241E+04 2.24581E+04-3.75653E+05 1.01136E-09 2.16914E-10
 -1       340 2.37414E+03-7.08675E+04 3.38884E+04-2.31443E+05-2.19188E-10 6.23004E-09
 -1       341-1.06949E+06-1.71036E+05-7.72095E+04-4.26780E+05 1.13914E-09 2.77214E-09
 -1       342-1.07972E+06-1.97335E+05-4.31605E+04-4.43959E+05-8.63110E-10 6.96764E-09
 -1       343-1.07873E+06-1.70990E+05-1.76881E+04-4.30471E+05 1.13050E-09 4.55293E-09
 -1       344-1.06803E+06-1.84388E+05-8.91932E+03-4.44975E+05-9.27685E-11-1.76578E-09
 -1       345-1.07951E+06-1.71121E+05-4.07489E+03-4.30665E+05-4.63842E-10-1.17097E-10
 -1       346-1.06716E+06-1.83708E+05-2.10011E+03-4.45011E+05-6.34827E-10 3.17564E-09
 -1       347-1.07962E+06-1.71146E+05-1.19100E+03-4.30671E+05-2.23952E-09-3.50906E-09
 -1       348-1.06708E+06-1.83677E+05-1.05082E+03-4.45009E+05 3.93584E-10 3.64685E-09
 -1       349-1.07960E+06-1.71152E+05-1.46134E+03-4.30673E+05-3.15822E-10 7.86713E-10
 -1       350-1.06721E+06-1.83706E+05-2.81423E+03-4.44981E+05-1.14323E-09-2.52794E-09
 -1       351-1.07943E+06-1.71126E+05-5.59490E+03-4.30668E+05-1.45019E-09-7.90897E-09
 -1       352-1.06842E+06-1.84648E+05-1.23154E+04-4.44929E+05-7.15318E-10-4.13638E-09
 -1       353-1.07836E+06-1.70936E+05-2.44499E+04-4.30395E+05 6.25732E-10-8.62201E-10
 -1       354-1.08456E+06-2.02597E+05-5.96816E+04-4.43585E+05 1.58389E-09 2.21189E-09
 -1       355-1.06562E+06-1.70942E+05-1.06747E+05-4.25245E+05-3.00133E-10-9.24047E-10
 -1       356 1.82559E+05 1.37148E+03 2.55536E+04-1.18114E+04 7.08496E-10-7.93079E-10
 -1       357 1.89628E+05 4.06003E+03 1.45199E+04-1.90247E+04-5.50926E-10 1.54773E-09
 -1       358 1.85687E+05-3.52786E+01 6.35817E+03-1.17191E+04 4.09273E-11 3.13503E-09
 -1       359 1.86237E+05 1.74845E+02 3.27812E+03-1.91140E+04-1.05501E-10-3.44016E-10
 -1       360 1.85906E+05-2.96549E+01 1.51332E+03-1.17188E+04 1.14960E-09-3.87308E-09
 -1       361 1.85962E+05-7.19863E-02 6.59997E+02-1.91127E+04 3.72893E-11 1.62800E-10
 -1       362 1.85934E+05-4.28550E+00 1.00019E+02-1.17205E+04-1.41949E-09-7.82052E-10
 -1       363 1.85900E+05-4.94527E-01-4.01276E+02-1.91105E+04-1.01375E-09-7.68011E-09
 -1       364 1.85955E+05 1.72713E+01-1.08724E+03-1.17211E+04 7.73980E-10-4.00894E-09
 -1       365 1.85791E+05-1.70650E+01-2.38043E+03-1.91110E+04 1.25942E-09 3.67049E-09
 -1       366 1.86046E+05 6.71265E+01-4.74267E+03-1.17201E+04 9.66338E-11-1.03773E-09
 -1       367 1.85025E+05-5.69557E+02-9.94321E+03-1.91108E+04 2.78646E-10-4.17958E-09
 -1       368 1.86741E+05 5.21150E+01-1.91484E+04-1.17214E+04 3.18323E-12 6.78483E-10
 -1       369 1.74926E+05-1.22737E+04-4.36254E+04-1.90363E+04-1.10344E-09 1.54341E-09
 -1       370 1.96195E+05-4.20777E+03-7.67359E+04-1.17871E+04 5.47516E-10 3.60160E-10
 -1       371 2.46238E+02-4.58322E+04 3.22266E+03-1.56384E+05 4.99858E-09-4.54747E-11
 -1       372 1.26190E+03-4.53957E+04 2.22527E+03-2.53483E+05 8.24548E-09-3.93629E-09
 -1       373 5.02926E+02-4.60044E+04 1.57527E+03-1.55895E+05 8.27458E-09-5.69798E-10
 -1       374 1.40143E+03-4.57164E+04 2.20716E+03-2.53629E+05 8.11633E-09-1.99748E-09
 -1       375 5.25951E+02-4.61761E+04 3.23925E+03-1.56237E+05 7.53630E-09 4.00178E-11
 -1       376-2.66534E+05-5.72828E+04-2.25624E+04-1.25777E+05 2.03704E-09-3.27964E-09
 -1       377-2.60875E+05-7.35978E+04-1.26104E+04-1.40714E+05-1.05592E-09-2.13970E-09
 -1       378-2.69314E+05-5.71918E+04-5.17763E+03-1.26807E+05-1.34787E-09 8.29232E-10
 -1       379-2.57433E+05-6.98636E+04-2.62415E+03-1.41086E+05-1.44860E-09 2.26601E-09
 -1       380-2.69544E+05-5.72288E+04-1.22897E+03-1.26873E+05-8.84484E-11 3.68118E-10
 -1       381-2.57191E+05-6.96569E+04-6.96693E+02-1.41087E+05 3.31398E-09-1.05729E-09
 -1       382-2.69560E+05-5.72439E+04-5.20785E+02-1.26875E+05 8.86757E-12 2.22440E-09
 -1       383-2.57166E+05-6.96495E+04-6.77228E+02-1.41065E+05-1.74487E-09 2.88901E-09
 -1       384-2.69520E+05-5.72564E+04-1.19473E+03-1.26865E+05 1.27329E-11 2.16005E-09
 -1       385-2.57245E+05-6.97053E+04-2.47173E+03-1.41039E+05 5.07498E-10-5.86920E-09
 -1       386-2.69353E+05-5.72281E+04-5.00913E+03-1.26829E+05-2.01908E-09-8.94033E-10
 -1       387-2.58261E+05-7.06008E+04-1.10573E+04-1.41012E+05-1.89584E-09 3.53884E-09
 -1       388-2.68394E+05-5.70526E+04-2.19769E+04-1.26541E+05 1.92267E-09 1.36060E-09
 -1       389-2.72689E+05-8.67336E+04-5.36037E+04-1.39799E+05-5.16775E-09-2.33558E-09
 -1       390-2.56914E+05-5.70890E+04-9.58949E+04-1.21883E+05-8.41055E-10 7.27596E-10
 -1       406 1.66339E+04 1.59698E+06 6.60657E+04 8.09742E+04 1.50612E-09 1.60617E-09
 -1       407 7.82991E+03 1.61197E+06 4.29374E+04 1.06969E+05-3.13230E-09 1.05110E-08
 -1       408 4.91001E+02 1.60285E+06 3.51646E+04 8.10915E+04 1.11254E-09 2.73212E-09
 -1       409 1.07278E+04 1.61508E+06 5.34761E+04 1.06405E+05-5.45333E-09-5.54610E-09
 -1       410 2.32035E+04 1.59476E+06 9.03534E+04 8.16041E+04 2.69210E-09 9.16771E-10
 -1       466 8.91863E+05 4.27385E+03 8.48322E+04-5.48763E+04 2.91038E-11 1.49885E-09
 -1       467 9.15413E+05 1.32912E+04 4.82673E+04-8.86735E+04 1.65528E-10 5.54792E-11
 -1       468 9.02043E+05-2.41913E+02 2.11817E+04-5.45443E+04 2.45564E-10-1.00226E-09
 -1       469 9.03838E+05 5.44160E+02 1.10714E+04-8.89207E+04 3.80169E-10 1.89402E-09
 -1       470 9.02622E+05-1.12109E+02 5.37419E+03-5.45997E+04-7.27596E-12-3.40151E-10
 -1       471 9.02767E+05 5.49501E+01 2.91587E+03-8.88332E+04 2.65118E-10 1.18689E-10
 -1       472 9.02624E+05 7.96012E+00 1.74878E+03-5.46333E+04-7.41238E-11-7.95808E-11
 -1       473 9.02613E+05 7.10786E+01 1.55577E+03-8.88010E+04-1.18533E-10-8.37645E-10
 -1       474 9.02622E+05-2.88843E-01 2.06445E+03-5.46321E+04 2.49656E-10 2.24645E-10
 -1       475 9.02823E+05 5.38309E+01 3.72513E+03-8.88406E+04 1.03682E-10-2.80124E-10
 -1       476 9.02595E+05-1.45424E+02 7.03821E+03-5.45933E+04-4.14730E-10-8.17408E-11
 -1       477 9.04181E+05 7.30646E+02 1.45899E+04-8.89316E+04 2.57387E-10-8.12321E-10
 -1       478 9.01778E+05-2.77547E+02 2.79685E+04-5.45392E+04-4.91127E-11-2.58296E-10
 -1       479 9.19355E+05 1.76175E+04 6.37370E+04-8.86732E+04-4.54747E-12-1.28739E-09
 -1       480 8.88262E+05 5.75155E+03 1.12065E+05-5.48927E+04-9.07676E-10-8.80391E-10
 -1       481 1.80520E+03 3.16870E+05 2.93473E+04-7.57040E+04-3.27418E-11 1.70576E-09
 -1       482 5.12274E+03 3.24780E+05 1.77137E+04-1.22583E+05-2.59888E-10 4.41190E-09
 -1       483 2.23442E+02 3.20292E+05 9.82864E+03-7.55654E+04-8.04903E-11 1.47838E-09
 -1       484 2.37084E+03 3.22544E+05 9.82539E+03-1.22495E+05 9.82254E-11 4.42924E-10
 -1       485 7.26948E+02 3.19332E+05 1.24284E+04-7.57988E+04 1.59389E-10-1.92813E-09
 -1       486-8.38206E+05-1.41006E+05-9.22595E+04-3.42889E+05-3.63571E-10-4.14730E-10
 -1       487-8.51693E+05-1.71156E+05-5.15683E+04-3.61965E+05 3.09228E-10 3.44698E-10
 -1       488-8.49288E+05-1.40922E+05-2.11406E+04-3.47307E+05-1.23691E-10 8.80391E-10
 -1       489-8.37736E+05-1.55698E+05-1.06455E+04-3.63225E+05-3.27418E-10-5.63887E-11
 -1       490-8.50244E+05-1.41063E+05-4.84784E+03-3.47551E+05-5.29326E-10 1.42336E-10
 -1       491-8.36716E+05-1.54885E+05-2.44639E+03-3.63307E+05 1.03228E-10 5.12841E-10
 -1       492-8.50408E+05-1.41066E+05-1.29384E+03-3.47560E+05-1.13550E-09-3.70335E-09
 -1       493-8.36623E+05-1.54863E+05-9.71570E+02-3.63359E+05 1.83718E-10 9.41327E-11
 -1       494-8.50435E+05-1.41048E+05-1.15975E+03-3.47558E+05-3.18323E-12-4.91127E-11
 -1       495-8.36704E+05-1.54902E+05-2.09764E+03-3.63381E+05 8.59472E-11 5.87534E-10
 -1       496-8.50332E+05-1.41012E+05-4.09805E+03-3.47546E+05-1.57570E-10-3.02407E-10
 -1       497-8.37570E+05-1.55604E+05-8.98839E+03-3.63368E+05-2.33740E-10 6.82121E-11
 -1       498-8.49557E+05-1.40869E+05-1.78288E+04-3.47338E+05 3.33785E-10 4.69299E-10
 -1       499-8.49334E+05-1.68675E+05-4.35078E+04-3.62366E+05-8.07177E-11 9.82254E-10
 -1       500-8.40236E+05-1.40912E+05-7.78281E+04-3.43597E+05 1.30058E-10 1.46247E-09
 -1       501 5.66546E+05 3.90245E+03 8.05560E+04-6.27084E+04 1.17871E-09-1.48793E-09
 -1       502 5.88997E+05 1.25528E+04 4.58535E+04-1.01028E+05 2.51021E-10-1.13141E-09
 -1       503 5.76103E+05-2.92766E+02 2.00973E+04-6.22664E+04 6.89397E-10 1.86628E-09
 -1       504 5.77822E+05 5.18145E+02 1.05093E+04-1.01403E+05 2.91038E-11 6.13909E-10
 -1       505 5.76568E+05-1.02783E+02 5.08451E+03-6.23042E+04 3.03771E-10-5.23869E-10
 -1       506 5.76689E+05 1.12704E+02 2.74694E+03-1.01337E+05 9.27685E-10 2.06091E-09
 -1       507 5.76518E+05 5.28025E+01 1.61414E+03-6.23346E+04 1.46338E-09 1.16870E-09
 -1       508 5.76479E+05 1.59760E+02 1.38560E+03-1.01303E+05 1.33076E-09 4.64297E-10
 -1       509 5.76498E+05 6.28148E+01 1.77718E+03-6.23381E+04 3.63798E-12-1.23919E-09
 -1       510 5.76657E+05 1.43908E+02 3.15933E+03-1.01322E+05 8.95398E-10-1.76033E-09
 -1       511 5.76499E+05-7.69826E+01 5.93770E+03-6.23151E+04 3.38332E-10 1.77124E-10
 -1       512 5.77876E+05 6.76548E+02 1.22988E+04-1.01375E+05 1.41881E-09-2.91413E-09
 -1       513 5.75877E+05-2.39388E+02 2.35572E+04-6.22833E+04-2.18279E-11 2.25555E-10
 -1       514 5.90814E+05 1.48425E+04 5.37125E+04-1.01018E+05-1.35879E-09-2.57887E-09
 -1       515 5.64593E+05 4.75185E+03 9.44056E+04-6.27017E+04 1.09139E-11 1.70985E-09
 -1       516 3.01286E+03 1.79201E+05 4.43474E+04-1.99986E+05 1.46429E-09 2.84854E-09
 -1       517 8.64545E+03 1.90703E+05 2.82025E+04-3.24383E+05 2.36469E-11 5.27075E-09
 -1       518 8.31300E+02 1.83951E+05 1.82125E+04-1.99578E+05 1.36788E-09 2.06091E-09
 -1       519 6.53271E+03 1.89721E+05 2.28537E+04-3.24182E+05 7.42148E-10-7.78527E-10
 -1       520 1.80413E+03 1.81461E+05 3.27799E+04-2.00200E+05 1.07730E-09-1.12050E-09
 -1       521-1.50078E+06-2.46222E+05-1.37097E+05-6.06260E+05 6.98037E-10-2.44472E-09
 -1       522-1.52027E+06-2.91527E+05-7.66254E+04-6.35176E+05 1.02955E-09 2.85581E-10
 -1       523-1.51733E+06-2.46033E+05-3.14082E+04-6.12789E+05-5.22050E-10 2.58296E-10
 -1       524-1.49951E+06-2.68612E+05-1.58119E+04-6.37206E+05-7.02130E-10-1.50249E-09
 -1       525-1.51882E+06-2.46176E+05-7.19885E+03-6.13127E+05-3.42880E-10 8.20819E-10
 -1       526-1.49797E+06-2.67442E+05-3.63232E+03-6.37423E+05 3.46972E-10 1.41057E-09
 -1       527-1.51910E+06-2.46154E+05-1.92418E+03-6.13130E+05 2.56478E-10 8.84711E-10
 -1       528-1.49783E+06-2.67419E+05-1.45297E+03-6.37519E+05-7.95808E-10-3.47472E-09
 -1       529-1.51913E+06-2.46136E+05-1.74849E+03-6.13126E+05-9.23194E-10-5.94355E-10
 -1       530-1.49795E+06-2.67460E+05-3.17400E+03-6.37496E+05 5.53882E-10 6.17547E-10
 -1       531-1.51892E+06-2.46130E+05-6.21612E+03-6.13118E+05 1.37607E-09-3.18141E-09
 -1       532-1.49927E+06-2.68480E+05-1.36313E+04-6.37345E+05 2.60115E-10 1.44428E-09
 -1       533-1.51764E+06-2.45997E+05-2.70538E+04-6.12826E+05-4.71118E-10-3.83807E-10
 -1       534-1.51717E+06-2.88217E+05-6.60137E+04-6.35594E+05 7.38510E-10 2.59024E-09
 -1       535-1.50337E+06-2.46179E+05-1.18105E+05-6.07219E+05 1.28466E-10-6.54836E-10
 -1       536 7.70539E+05 5.99047E+03 1.14610E+05-4.73247E+04 2.27374E-10 1.33150E-09
 -1       537 8.02303E+05 1.81011E+04 6.51703E+04-7.63281E+04-6.72117E-10-1.82990E-09
 -1       538 7.84425E+05-2.28892E+02 2.86042E+04-4.70026E+04-7.27596E-11 6.42103E-10
 -1       539 7.86892E+05 7.84424E+02 1.49146E+04-7.65753E+04-4.40195E-10 2.57296E-09
 -1       540 7.85307E+05-1.30742E+02 7.19382E+03-4.70427E+04 5.54792E-11-8.71296E-10
 -1       541 7.85559E+05 6.26019E+01 3.79940E+03-7.65052E+04-1.35969E-10 1.13459E-09
 -1       542 7.85355E+05 1.41235E+00 2.09512E+03-4.70743E+04-3.95630E-10 2.67437E-09
 -1       543 7.85356E+05 7.33993E+01 1.56016E+03-7.64705E+04-7.89782E-10 7.75162E-09
 -1       544 7.85354E+05 1.45740E+01 1.73189E+03-4.70778E+04 6.73253E-10-9.92259E-10
 -1       545 7.85479E+05 7.20526E+01 2.86676E+03-7.64895E+04-8.14453E-10-2.85672E-09
 -1       546 7.85325E+05-8.13418E+01 5.27735E+03-4.70552E+04 3.78350E-10-9.67248E-10
 -1       547 7.86464E+05 5.85703E+02 1.08584E+04-7.65483E+04-2.48292E-10 8.54882E-10
 -1       548 7.84707E+05-1.69351E+02 2.07822E+04-4.70178E+04 5.82077E-11 1.32513E-09
 -1       549 7.97709E+05 1.31356E+04 4.73326E+04-7.63191E+04-3.15595E-10-2.14322E-09
 -1       550 7.74658E+05 4.31317E+03 8.32118E+04-4.73057E+04-1.13323E-09-1.81899E-10
 -1       551 1.10694E+04-4.27311E+04 3.82620E+04-4.05617E+05-1.19326E-09-4.91127E-10
 -1       552 7.25206E+03-3.53397E+04 2.43467E+04-5.30581E+05-3.41606E-09 1.80444E-09
 -1       553 2.38137E+03-4.04734E+04 1.87419E+04-4.04807E+05-1.96087E-09 9.36780E-10
 -1       554 7.97561E+03-3.44976E+04 2.70519E+04-5.30529E+05-3.23053E-09 1.46611E-09
 -1       555 1.27151E+04-4.32415E+04 4.44905E+04-4.05670E+05-1.56888E-09-1.05138E-09
 -1       556-1.13288E+06-2.40101E+05-9.08463E+04-4.99805E+05-6.31189E-10 8.14907E-10
 -1       557-1.13305E+06-2.53535E+05-4.70751E+04-5.31664E+05-3.63798E-11 9.60426E-10
 -1       558-1.13992E+06-2.22631E+05-1.99076E+04-5.09749E+05-1.85537E-10 1.83536E-09
 -1       559-1.12186E+06-2.42238E+05-9.81308E+03-5.32657E+05 9.09495E-11-1.17279E-09
 -1       560-1.14071E+06-2.22135E+05-4.53898E+03-5.10187E+05-9.98625E-10-8.62201E-10
 -1       561-1.12125E+06-2.41802E+05-2.29986E+03-5.32736E+05-5.18412E-10-6.34600E-10
 -1       562-1.14090E+06-2.22134E+05-1.26445E+03-5.10232E+05 1.36424E-10-1.27420E-09
 -1       563-1.12122E+06-2.41788E+05-1.03280E+03-5.32761E+05-4.29054E-10-2.83399E-09
 -1       564-1.14088E+06-2.22139E+05-1.35091E+03-5.10227E+05 3.72302E-09 7.85622E-09
 -1       565-1.12125E+06-2.41805E+05-2.52767E+03-5.32714E+05 4.98403E-10 2.34832E-09
 -1       566-1.14066E+06-2.22149E+05-5.02670E+03-5.10174E+05-2.20098E-10 6.42103E-10
 -1       567-1.12192E+06-2.42292E+05-1.08836E+04-5.32624E+05 2.54659E-10 3.66344E-09
 -1       568-1.13979E+06-2.22691E+05-2.20828E+04-5.09684E+05-1.70985E-10-2.01908E-10
 -1       569-1.13433E+06-2.54857E+05-5.22308E+04-5.31564E+05 4.16730E-09-2.74667E-09
 -1       570-1.13200E+06-2.42029E+05-1.00775E+05-4.98626E+05-6.42103E-10 9.31323E-10
 -1       571 8.05667E+05 2.39123E+04 8.94187E+04-8.36033E+04 6.29370E-10-1.82990E-09
 -1       572 8.25765E+05 1.09302E+04 4.74193E+04-1.08792E+05-1.22600E-09-4.01815E-09
 -1       573 8.14417E+05 3.22308E+02 2.12981E+04-8.31542E+04-1.11140E-09 2.36469E-10
 -1       574 8.15871E+05 2.29519E+02 1.09213E+04-1.09205E+05 6.76664E-10-3.36513E-10
 -1       575 8.14887E+05-1.53062E+02 5.27850E+03-8.31460E+04 1.64073E-09 4.32010E-10
 -1       576 8.15023E+05-2.35284E+01 2.70494E+03-1.09210E+05 5.50699E-10-2.48292E-10
 -1       577 8.14923E+05-3.27937E+01 1.34935E+03-8.31502E+04-5.70793E-10 3.02862E-10
 -1       578 8.14926E+05-5.63433E+00 7.38953E+02-1.09214E+05-3.98131E-10 1.77988E-09
 -1       579 8.14996E+05-4.38414E+01 4.55231E+02-8.31431E+04-3.71983E-10-3.00133E-10
 -1       580 8.15059E+05-7.90683E+01 4.30567E+02-1.09240E+05 3.27418E-10-2.40925E-09
 -1       581 8.15158E+05-1.58278E+02 5.80727E+02-8.31240E+04-8.71296E-10-3.73802E-10
 -1       582 8.15412E+05-2.04004E+02 1.10133E+03-1.09252E+05-8.96762E-10-1.93904E-09
 -1       583 8.15370E+05-2.87810E+02 2.05900E+03-8.31299E+04-1.09503E-09-1.95996E-09
 -1       584 8.16791E+05 6.34956E+02 4.62405E+03-1.08735E+05-4.98403E-09-1.87811E-09
 -1       585 8.14844E+05 1.79960E+03 8.64539E+03-8.36456E+04 1.05501E-09 1.41517E-09
 -1       586 4.63043E+03 6.36522E+04 1.57133E+04-3.57537E+05 4.22551E-09-2.04454E-09
 -1       587 3.89226E+03 6.60940E+04 1.17952E+04-4.67355E+05 4.18004E-09-8.42192E-10
 -1       588 1.89831E+03 6.35839E+04 1.19445E+04-3.56710E+05 4.35466E-09-9.46784E-10
 -1       589 6.79883E+03 6.80398E+04 2.09696E+04-4.67534E+05 5.29690E-09 9.04947E-11
 -1       590 1.10617E+04 6.06436E+04 3.69398E+04-3.57341E+05 3.41970E-09-1.82263E-09
 -1       591-7.51038E+05-1.69572E+05-7.88469E+04-3.38715E+05 3.63389E-09-1.21508E-09
 -1       592-7.52923E+05-1.79617E+05-4.08751E+04-3.64454E+05 3.46154E-09 1.81899E-09
 -1       593-7.56955E+05-1.54561E+05-1.72728E+04-3.47397E+05 6.33918E-10-9.09495E-12
 -1       594-7.43191E+05-1.69728E+05-8.52557E+03-3.65071E+05-5.47516E-10-7.39192E-10
 -1       595-7.57523E+05-1.54215E+05-3.94626E+03-3.47745E+05-3.58341E-10 2.43256E-09
 -1       596-7.42590E+05-1.69358E+05-2.01947E+03-3.65026E+05 6.34373E-11 2.88173E-09
 -1       597-7.57607E+05-1.54266E+05-1.14224E+03-3.47754E+05-8.79936E-11-1.59434E-09
 -1       598-7.42514E+05-1.69357E+05-9.91841E+02-3.64983E+05 4.96129E-10-2.03909E-09
 -1       599-7.57548E+05-1.54295E+05-1.36713E+03-3.47731E+05-4.93856E-10 2.51293E-09
 -1       600-7.42529E+05-1.69385E+05-2.60461E+03-3.64925E+05 4.92946E-10 1.04865E-09
 -1       601-7.57329E+05-1.54291E+05-5.19961E+03-3.47675E+05 2.67391E-10-1.96633E-09
 -1       602-7.43251E+05-1.69890E+05-1.12668E+04-3.64883E+05 1.99998E-09-4.00996E-09
 -1       603-7.56498E+05-1.54808E+05-2.28548E+04-3.47186E+05 2.40289E-09-2.13731E-09
 -1       604-7.56094E+05-1.82934E+05-5.40511E+04-3.63952E+05 3.02680E-09 8.06722E-09
 -1       605-7.48603E+05-1.74679E+05-1.04267E+05-3.35694E+05 1.06957E-09 8.00355E-10
 -1       606 2.88845E+05-1.20341E+04-4.45121E+04 5.55036E+04-1.26820E-08 1.72088E-09
 -1       607 2.78743E+05-5.37943E+03-2.35801E+04 7.15062E+04-3.92902E-09-1.30967E-10
 -1       608 2.84174E+05-1.14154E+02-1.06215E+04 5.50360E+04 9.79344E-09-8.20364E-10
 -1       609 2.83250E+05 1.45817E+02-5.42314E+03 7.19676E+04-4.26007E-09 3.17959E-09
 -1       610 2.83689E+05 2.95750E+02-2.62139E+03 5.50150E+04-1.85137E-08-6.33008E-10
 -1       611 2.83405E+05 4.19335E+02-1.30027E+03 7.19781E+04-3.52420E-08 6.18456E-11
 -1       612 2.83517E+05 3.40588E+02-5.90459E+02 5.50214E+04-1.37134E-08-2.74940E-09
 -1       613 2.83323E+05 4.84156E+02-1.87641E+02 7.19660E+04-2.15841E-08-2.37060E-09
 -1       614 2.83421E+05 3.75737E+02 1.18263E+02 5.50252E+04-4.89854E-09 1.37334E-10
 -1       615 2.83278E+05 5.18757E+02 4.96633E+02 7.19578E+04 1.43473E-08 5.89807E-10
 -1       616 2.83363E+05 3.79067E+02 1.09475E+03 5.50287E+04-1.14785E-08-1.06365E-09
 -1       617 2.83415E+05 5.98883E+02 2.32979E+03 7.19432E+04-7.16682E-10 3.70073E-09
 -1       618 2.83235E+05 4.98191E+02 4.57438E+03 5.50387E+04-1.52886E-09 3.15822E-09
 -1       619 2.85526E+05 2.91010E+03 1.01984E+04 7.17598E+04 5.45879E-09 2.61934E-09
 -1       620 2.81350E+05 5.57216E+03 1.92347E+04 5.51873E+04 7.71797E-09-1.59935E-09
 -1       621 9.80308E+03 1.07217E+06 3.88517E+04-1.20996E+05 3.63616E-09-1.28421E-09
 -1       622 5.33306E+03 1.08062E+06 2.86581E+04-1.57419E+05-6.81666E-09 3.31056E-09
 -1       623 1.18045E+03 1.07488E+06 2.90391E+04-1.20729E+05 5.36784E-09 3.33603E-09
 -1       624 1.18947E+04 1.08632E+06 5.09184E+04-1.57517E+05-6.54472E-09-3.66470E-09
 -1       625 2.45077E+04 1.06623E+06 9.02528E+04-1.20850E+05 4.72573E-09-1.38425E-09
 -1       626 4.90754E+05 1.09341E+05-1.19833E+04 2.42007E+05-1.58088E-08-1.79170E-09
 -1       627 4.75807E+05 1.22521E+05-6.19234E+03 2.54683E+05-1.63982E-08-1.44780E-09
 -1       628 4.90035E+05 1.11357E+05-2.63778E+03 2.40208E+05 1.56433E-10-7.05313E-10
 -1       629 4.76741E+05 1.24433E+05-1.27787E+03 2.54854E+05-2.08001E-09-6.13090E-09
 -1       630 4.89832E+05 1.11480E+05-5.73064E+02 2.40062E+05-2.75031E-09-5.90603E-09
 -1       631 4.76690E+05 1.24544E+05-2.22203E+02 2.54760E+05-2.48510E-08-8.55289E-09
 -1       632 4.89717E+05 1.11535E+05 9.09758E-01 2.40011E+05-7.54699E-09 1.52590E-09
 -1       633 4.76636E+05 1.24569E+05 2.33912E+02 2.54690E+05 1.03450E-08 5.87261E-09
 -1       634 4.89647E+05 1.11552E+05 5.81352E+02 2.39984E+05 6.72844E-09-3.56749E-10
 -1       635 4.76663E+05 1.24580E+05 1.30165E+03 2.54682E+05 7.32427E-09 1.95678E-09
 -1       636 4.89587E+05 1.11509E+05 2.68657E+03 2.39980E+05 9.19437E-09-2.71939E-09
 -1       637 4.77131E+05 1.24822E+05 5.88172E+03 2.54767E+05 1.20108E-08-2.36196E-09
 -1       638 4.89285E+05 1.11681E+05 1.19295E+04 2.39781E+05-7.26504E-09-1.90630E-09
 -1       639 4.84019E+05 1.31591E+05 2.82531E+04 2.54464E+05-2.03436E-08-5.61704E-09
 -1       640 4.85359E+05 1.21967E+05 5.44848E+04 2.33853E+05-1.53946E-08-5.10045E-09
 -1       641 1.14469E+04-4.01622E+02-7.83813E+03 3.85963E+03-1.99904E-08-2.58751E-10
 -1       642 9.25952E+03-1.20915E+03-4.45407E+03 6.22055E+03-1.68398E-08-1.43700E-10
 -1       643 1.04833E+04 3.28970E+01-1.95261E+03 3.84090E+03-8.68786E-09 3.80646E-09
 -1       644 1.02925E+04-1.41663E+01-1.00961E+03 6.23460E+03 1.18531E-08 4.36992E-09
 -1       645 1.04130E+04 3.36867E+01-4.72934E+02 3.83999E+03-5.90893E-09 2.74150E-09
 -1       646 1.03727E+04 4.14989E+01-2.19996E+02 6.23542E+03-2.53266E-08 1.89598E-09
 -1       647 1.04038E+04 2.73913E+01-6.56497E+01 3.83989E+03 5.79030E-09-8.66009E-11
 -1       648 1.03884E+04 4.22201E+01 5.17554E+01 6.23571E+03 2.88831E-08 2.31995E-09
 -1       649 1.03997E+04 2.22176E+01 1.92650E+02 3.83972E+03 2.36836E-08 4.28065E-09
 -1       650 1.04120E+04 4.41302E+01 4.41688E+02 6.23566E+03 2.34978E-08 1.60651E-09
 -1       651 1.03844E+04 1.11804E+01 8.88443E+02 3.83998E+03 2.06387E-09-1.11413E-11
 -1       652 1.05605E+04 1.45780E+02 1.86813E+03 6.23383E+03 8.56971E-09 5.92615E-09
 -1       653 1.02571E+04 1.14633E+01 3.59929E+03 3.84123E+03-9.68157E-10 3.23530E-09
 -1       654 1.24670E+04 2.34380E+03 8.20370E+03 6.18901E+03-1.19098E-08 1.84946E-09
 -1       655 8.48557E+03 8.10078E+02 1.44335E+04 3.87543E+03 9.57334E-09 3.86535E-10
 -1       656-2.81453E+03-3.22460E+05-4.21579E+04 8.51643E+04 2.05728E-08 1.52613E-09
 -1       657-7.53495E+03-3.33842E+05-2.71215E+04 1.37411E+05 3.14831E-08 2.27692E-09
 -1       658-4.16504E+02-3.27324E+05-1.83275E+04 8.48913E+04 2.31744E-08-5.45697E-10
 -1       659-6.47158E+03-3.33130E+05-2.42199E+04 1.37554E+05 4.22824E-08 1.84312E-09
 -1       660-2.31882E+03-3.23490E+05-3.59174E+04 8.50317E+04 2.87309E-08-2.81807E-09
 -1       661 2.57376E+05 3.96098E+04 1.89050E+04 1.00612E+05 1.17911E-08-1.00681E-09
 -1       662 2.61285E+05 4.46527E+04 1.05693E+04 1.03205E+05 2.55879E-08 3.12787E-09
 -1       663 2.59585E+05 3.96472E+04 4.33346E+03 1.01565E+05 1.63070E-08 1.64005E-09
 -1       664 2.58457E+05 4.14423E+04 2.18929E+03 1.03383E+05 1.17758E-08-3.73234E-10
 -1       665 2.59758E+05 3.96954E+04 1.00466E+03 1.01619E+05 2.08433E-09 1.40388E-09
 -1       666 2.58247E+05 4.12675E+04 5.28004E+02 1.03372E+05 1.69530E-09-9.56550E-09
 -1       667 2.59780E+05 3.97055E+04 3.17605E+02 1.01621E+05 4.57976E-09-9.11257E-10
 -1       668 2.58229E+05 4.12620E+04 3.12628E+02 1.03374E+05-2.52744E-08-1.36936E-09
 -1       669 2.59779E+05 3.96999E+04 4.68934E+02 1.01619E+05-2.08661E-09 5.96572E-09
 -1       670 2.58267E+05 4.12831E+04 9.30175E+02 1.03390E+05-6.56200E-10 5.94264E-09
 -1       671 2.59744E+05 3.96724E+04 1.85874E+03 1.01611E+05 7.56245E-10-6.53927E-10
 -1       672 2.58660E+05 4.16182E+04 4.10047E+03 1.03424E+05-2.41023E-08 1.70064E-09
 -1       673 2.59422E+05 3.95762E+04 8.13717E+03 1.01507E+05-2.58876E-08-6.04723E-09
 -1       674 2.64000E+05 4.76336E+04 1.98621E+04 1.03071E+05-9.51860E-09-1.65028E-09
 -1       675 2.55249E+05 3.95275E+04 3.55307E+04 9.97446E+04-3.64457E-09 7.69433E-10
 -1       676-8.51020E+02-2.90960E+05-1.57393E+04 8.79786E+03 6.39466E-09-2.60502E-09
 -1       677-2.59715E+03-2.95255E+05-1.07829E+04 1.36650E+04 9.24996E-09-3.90730E-09
 -1       678-2.60618E+01-2.92609E+05-8.43479E+03 8.76072E+03 1.17041E-09-4.15866E-10
 -1       679-3.30345E+03-2.95873E+05-1.28491E+04 1.37119E+04 9.73819E-09-6.88544E-10
 -1       680-1.10291E+03-2.90352E+05-2.01639E+04 8.74867E+03 5.48880E-09-1.48481E-09
 -1       681 4.45574E+05 1.10655E+03 2.33742E+04-3.31247E+04-1.30967E-10-6.09816E-10
 -1       682 4.52082E+05 3.60985E+03 1.33106E+04-5.34302E+04-8.91305E-11 8.36735E-10
 -1       683 4.48347E+05-1.07897E+02 5.83747E+03-3.28931E+04 6.54836E-11 7.82165E-11
 -1       684 4.48836E+05 1.17828E+02 3.06338E+03-5.36419E+04 9.09495E-11-3.68345E-10
 -1       685 4.48479E+05-5.11519E+01 1.50205E+03-3.29071E+04-4.54747E-11 5.73436E-10
 -1       686 4.48504E+05 2.48114E+00 8.53344E+02-5.36155E+04-1.40972E-11-3.90628E-10
 -1       687 4.48460E+05-4.70852E+00 5.79275E+02-3.29198E+04-4.59295E-11-6.80984E-10
 -1       688 4.48444E+05 1.89813E+01 6.29513E+02-5.35996E+04 2.55795E-12-7.48969E-10
 -1       689 4.48443E+05-3.99852E+00 9.63966E+02-3.29231E+04 1.10276E-11-1.92813E-10
 -1       690 4.48526E+05 2.51138E+01 1.83541E+03-5.36043E+04 3.03089E-10-2.80352E-10
 -1       691 4.48405E+05-5.93323E+01 3.52546E+03-3.29150E+04 4.32010E-10-6.60179E-10
 -1       692 4.49161E+05 3.92200E+02 7.33129E+03-5.36191E+04 9.65429E-10-1.40979E-09
 -1       693 4.47958E+05-9.73871E+01 1.40759E+04-3.29077E+04-1.94632E-10-1.39153E-10
 -1       694 4.56724E+05 8.92788E+03 3.20721E+04-5.34257E+04-2.46655E-09 1.77306E-09
 -1       695 4.41111E+05 2.96678E+03 5.64018E+04-3.31196E+04-1.28239E-09-8.36735E-10
 -1       696 2.00951E+03 5.49378E+05 3.31101E+04-7.17963E+04 8.91305E-11-9.25866E-10
 -1       697 5.63269E+03 5.58344E+05 1.78519E+04-1.16002E+05 7.69660E-11-7.63066E-10
 -1       698 1.91520E+02 5.53544E+05 5.85542E+03-7.16402E+04-2.67619E-10 1.54773E-09
 -1       699-9.91669E+02 5.52644E+05-1.44828E+03-1.15982E+05-2.40561E-10 1.84150E-09
 -1       700-4.23038E+02 5.55149E+05-8.24210E+03-7.18257E+04-2.67391E-10 1.82990E-09
 -1       701-4.11652E+05-7.20841E+04-6.35000E+04-1.71773E+05-1.35969E-10-1.60435E-09
 -1       702-4.21926E+05-9.18787E+04-3.54961E+04-1.83818E+05-1.60071E-10 4.03816E-10
 -1       703-4.19243E+05-7.20544E+04-1.45521E+04-1.74826E+05-1.35424E-09-2.76668E-09
 -1       704-4.12328E+05-8.12157E+04-7.33163E+03-1.84620E+05 3.45608E-11 3.10138E-10
 -1       705-4.19873E+05-7.21778E+04-3.34123E+03-1.75002E+05 1.50976E-10 2.56932E-10
 -1       706-4.11631E+05-8.06408E+04-1.69273E+03-1.84636E+05 7.70797E-11-1.59673E-10
 -1       707-4.19970E+05-7.21938E+04-9.06744E+02-1.75012E+05 1.21872E-10 1.53761E-10
 -1       708-4.11571E+05-8.06185E+04-7.01554E+02-1.84657E+05 5.04770E-11 4.47727E-10
 -1       709-4.19986E+05-7.21819E+04-8.64214E+02-1.75013E+05 1.34150E-11 8.90168E-11
 -1       710-4.11636E+05-8.06493E+04-1.58450E+03-1.84684E+05 3.79032E-10-3.31966E-11
 -1       711-4.19923E+05-7.21420E+04-3.10566E+03-1.75002E+05-1.12126E-09-3.34671E-09
 -1       712-4.12293E+05-8.11955E+04-6.81860E+03-1.84714E+05-1.07434E-10-2.13731E-11
 -1       713-4.19366E+05-7.20041E+04-1.35220E+04-1.74838E+05 1.11186E-10 1.01863E-10
 -1       714-4.21184E+05-9.11639E+04-3.30027E+04-1.84060E+05-1.80535E-10-4.17458E-10
 -1       715-4.12366E+05-7.19717E+04-5.90272E+04-1.71957E+05 3.18323E-10 2.29193E-10
 -1       716 3.71835E+05 2.49993E+03 4.95758E+04-4.63789E+04 5.45697E-10 1.32786E-10
 -1       717 3.85594E+05 7.81165E+03 2.82138E+04-7.47043E+04-6.09361E-11 4.40195E-10
 -1       718 3.77760E+05-1.15348E+02 1.23805E+04-4.60730E+04-3.45608E-11 1.17143E-09
 -1       719 3.78796E+05 3.71546E+02 6.47784E+03-7.49902E+04-4.85670E-10-2.13049E-10
 -1       720 3.78086E+05-3.03597E+01 3.15616E+03-4.60828E+04 6.03904E-10-6.71207E-10
 -1       721 3.78160E+05 9.02407E+01 1.73591E+03-7.49710E+04 8.64475E-10-9.11314E-10
 -1       722 3.78086E+05 3.90151E+01 1.08460E+03-4.60928E+04 8.46740E-10 7.34872E-10
 -1       723 3.78084E+05 9.40648E+01 1.03626E+03-7.49637E+04 7.17137E-10-8.11269E-10
 -1       724 3.78093E+05 2.16514E+01 1.45463E+03-4.60902E+04 4.92946E-10-1.39312E-09
 -1       725 3.78259E+05 7.18258E+01 2.68764E+03-7.49818E+04 8.84029E-10-2.16801E-09
 -1       726 3.78083E+05-9.25614E+01 5.11062E+03-4.60744E+04 2.84672E-10 3.14230E-10
 -1       727 3.79266E+05 5.57246E+02 1.06190E+04-7.50104E+04 5.41149E-10 2.08047E-10
 -1       728 3.77498E+05-1.95876E+02 2.03644E+04-4.60604E+04 2.83762E-10-7.13044E-10
 -1       729 3.90338E+05 1.28602E+04 4.64324E+04-7.46920E+04-2.47383E-10 6.61657E-10
 -1       730 3.67663E+05 4.18115E+03 8.16342E+04-4.64157E+04-2.91038E-10-3.85626E-10
 -1       731 1.98037E+03 1.93955E+05 3.24570E+04-1.19169E+05 7.91260E-10-2.02817E-10
 -1       732 5.69871E+03 2.02673E+05 1.88208E+04-1.93295E+05 1.04592E-10-2.04523E-10
 -1       733 2.61921E+02 1.97801E+05 8.93787E+03-1.18925E+05 7.13499E-10 1.07730E-09
 -1       734 1.28617E+03 1.99148E+05 6.23009E+03-1.93179E+05 2.36469E-10 1.03773E-09
 -1       735 2.21290E+02 1.97932E+05 5.44524E+03-1.19290E+05 2.82398E-10 1.60253E-09
 -1       736-8.67835E+05-1.37556E+05-8.00560E+04-3.44277E+05-2.39652E-10-1.09867E-09
 -1       737-8.82188E+05-1.61114E+05-4.47533E+04-3.57837E+05 1.71121E-09 3.24553E-09
 -1       738-8.77379E+05-1.37544E+05-1.83368E+04-3.48128E+05 8.09450E-11 4.43833E-10
 -1       739-8.70075E+05-1.47664E+05-9.23709E+03-3.58836E+05-3.20142E-10-3.89264E-10
 -1       740-8.78175E+05-1.37695E+05-4.19857E+03-3.48333E+05-2.91038E-10 3.29237E-10
 -1       741-8.69166E+05-1.46957E+05-2.11356E+03-3.58866E+05 7.93534E-11 5.04258E-10
 -1       742-8.78299E+05-1.37716E+05-1.10224E+03-3.48336E+05-5.37511E-10 5.53769E-10
 -1       743-8.69071E+05-1.46937E+05-8.00046E+02-3.58890E+05 5.02951E-10-2.96609E-10
 -1       744-8.78316E+05-1.37707E+05-9.16907E+02-3.48332E+05 5.40524E-09 8.42090E-09
 -1       745-8.69130E+05-1.46968E+05-1.62597E+03-3.58908E+05 2.56250E-10 1.66438E-10
 -1       746-8.78243E+05-1.37676E+05-3.15787E+03-3.48324E+05-5.77757E-10-1.00044E-10
 -1       747-8.69806E+05-1.47508E+05-6.91769E+03-3.58912E+05-1.78261E-10 4.82032E-10
 -1       748-8.77660E+05-1.37553E+05-1.37133E+04-3.48168E+05 1.47566E-10 9.94987E-10
 -1       749-8.78863E+05-1.57576E+05-3.34704E+04-3.58181E+05-1.93950E-10-4.30191E-10
 -1       750-8.70524E+05-1.37560E+05-5.98682E+04-3.45289E+05 6.50289E-11-3.52884E-10
 -1       751 8.76084E+05 6.90671E+03 1.31324E+05-5.23506E+04-1.50976E-10 1.10595E-09
 -1       752 9.12446E+05 2.07768E+04 7.46700E+04-8.44496E+04-1.11049E-09-1.51522E-09
 -1       753 8.91999E+05-2.29228E+02 3.27847E+04-5.20237E+04-3.80169E-10 5.02041E-10
 -1       754 8.94807E+05 9.32127E+02 1.71001E+04-8.46934E+04-6.82121E-11 1.27329E-11
 -1       755 8.93021E+05-1.26432E+02 8.26601E+03-5.20693E+04 3.66526E-10-1.27511E-09
 -1       756 8.93306E+05 9.25764E+01 4.39295E+03-8.46197E+04-9.54969E-11-9.43146E-10
 -1       757 8.93092E+05 1.07604E+01 2.47774E+03-5.20994E+04-5.71845E-10-5.09317E-11
 -1       758 8.93112E+05 8.74592E+01 1.94148E+03-8.45953E+04 1.56206E-10-2.50884E-09
 -1       759 8.93108E+05 4.69673E+00 2.28471E+03-5.20942E+04 2.59661E-10-1.25829E-09
 -1       760 8.93319E+05 6.85269E+01 3.90243E+03-8.46380E+04-1.00272E-09-3.13776E-11
 -1       761 8.93080E+05-1.39565E+02 7.25341E+03-5.20564E+04 4.51109E-10-1.18445E-09
 -1       762 8.94694E+05 7.69750E+02 1.49705E+04-8.47315E+04 5.07498E-10 5.18924E-10
 -1       763 8.92230E+05-2.63591E+02 2.86702E+04-5.19987E+04 3.11047E-10 9.06766E-10
 -1       764 9.10208E+05 1.80889E+04 6.53145E+04-8.44835E+04 8.08541E-10-8.72205E-10
 -1       765 8.78358E+05 5.93383E+03 1.14839E+05-5.23432E+04-1.50612E-09 1.40426E-09
 -1       766 4.69578E+03 3.54273E+05 8.36931E+04-1.26357E+05 8.73115E-11 4.91127E-11
 -1       767 1.40118E+04 3.77110E+05 5.41363E+04-2.04924E+05 5.03405E-10-6.69758E-10
 -1       768 2.23642E+02 3.63525E+05 3.69393E+04-1.26155E+05-2.91038E-11 9.31323E-10
 -1       769 1.21843E+04 3.76112E+05 4.93660E+04-2.04714E+05 7.71252E-10-2.39379E-09
 -1       770 3.72568E+03 3.56153E+05 7.33954E+04-1.26585E+05-4.36557E-10 1.02227E-09
 -1       771-1.74174E+06-3.21844E+05-1.49287E+05-7.02546E+05-1.53250E-09 2.26282E-09
 -1       772-1.75886E+06-3.27334E+05-7.74054E+04-7.35661E+05 8.23093E-10 3.32057E-09
 -1       773-1.75272E+06-2.93643E+05-3.26904E+04-7.19070E+05 2.87400E-10 1.21690E-09
 -1       774-1.74047E+06-3.08502E+05-1.61225E+04-7.36646E+05 6.20275E-10-3.06318E-09
 -1       775-1.75378E+06-2.92986E+05-7.43466E+03-7.19695E+05-6.83940E-10-1.78352E-09
 -1       776-1.73930E+06-3.07828E+05-3.74554E+03-7.36601E+05 9.86802E-11-2.07342E-09
 -1       777-1.75399E+06-2.93048E+05-1.99979E+03-7.19714E+05-2.63299E-10-5.28416E-10
 -1       778-1.73919E+06-3.07823E+05-1.52795E+03-7.36604E+05 4.98630E-10 1.31195E-09
 -1       779-1.75399E+06-2.93051E+05-1.85929E+03-7.19714E+05 8.44921E-10 1.18507E-09
 -1       780-1.73928E+06-3.07827E+05-3.37594E+03-7.36596E+05 3.56749E-10 6.67569E-10
 -1       781-1.75380E+06-2.93003E+05-6.64437E+03-7.19697E+05-2.11912E-10-1.17143E-09
 -1       782-1.74032E+06-3.08427E+05-1.43790E+04-7.36623E+05 1.60526E-10 2.25009E-09
 -1       783-1.75284E+06-2.93596E+05-2.91408E+04-7.19137E+05-5.09317E-11-1.70439E-09
 -1       784-1.75675E+06-3.25187E+05-6.89980E+04-7.35693E+05 7.13044E-10-2.61934E-09
 -1       785-1.74300E+06-3.18771E+05-1.33066E+05-7.04437E+05-4.32010E-10-7.27596E-12
 -1       786 7.05447E+05 5.09610E+03 9.79981E+04-4.88760E+04 8.73115E-10-5.23869E-10
 -1       787 7.32602E+05 1.54413E+04 5.57259E+04-7.90310E+04-1.87356E-10 6.98492E-10
 -1       788 7.17309E+05-2.09053E+02 2.44590E+04-4.85737E+04-5.18412E-10 2.92493E-09
 -1       789 7.19416E+05 6.37473E+02 1.27456E+04-7.92721E+04-6.48015E-10 2.54204E-10
 -1       790 7.18066E+05-1.27059E+02 6.13697E+03-4.86026E+04 1.94632E-10-1.96815E-09
 -1       791 7.18292E+05 1.11797E+01 3.21117E+03-7.92287E+04 2.64436E-10 1.98270E-09
 -1       792 7.18126E+05-2.73027E+01 1.71577E+03-4.86184E+04 5.28985E-10 3.28146E-09
 -1       793 7.18156E+05-1.78230E+00 1.17540E+03-7.92225E+04 9.19727E-11 1.04183E-09
 -1       794 7.18163E+05-3.84129E+01 1.16376E+03-4.86090E+04-2.89219E-10-2.43836E-09
 -1       795 7.18303E+05-4.37960E+01 1.80600E+03-7.92676E+04 4.46107E-10 2.98451E-09
 -1       796 7.18211E+05-1.45795E+02 3.23819E+03-4.85729E+04-1.03682E-09-2.74758E-09
 -1       797 7.19038E+05 1.99986E+02 6.64244E+03-7.93436E+04-1.39153E-09-3.71483E-09
 -1       798 7.17931E+05-2.75336E+02 1.26721E+04-4.85318E+04-5.51154E-10-3.81988E-11
 -1       799 7.26103E+05 7.77619E+03 2.89074E+04-7.90725E+04-5.19140E-09 3.28669E-09
 -1       800 7.11914E+05 2.35917E+03 5.07671E+04-4.88662E+04 8.96762E-10 1.44428E-09
 -1       801 2.65754E+03 1.24570E+04 3.27804E+04-3.87723E+05 1.08903E-08 6.25732E-10
 -1       802 9.50276E+03 1.90258E+04 2.50938E+04-6.28892E+05 1.70803E-08-2.24099E-09
 -1       803 2.56851E+03 1.36343E+04 2.31207E+04-3.86730E+05 1.66401E-08 2.75031E-09
 -1       804 1.43120E+04 2.38389E+04 3.97496E+04-6.28797E+05 1.42754E-08-3.39060E-09
 -1       805 4.07106E+03 8.61819E+03 6.41042E+04-3.87819E+05 1.22909E-08 1.11322E-09
 -1       806-1.07179E+06-2.16869E+05-9.26933E+04-4.56935E+05 5.68411E-09-1.71713E-09
 -1       807-1.07691E+06-2.25759E+05-4.80549E+04-4.83805E+05 2.83126E-09-3.42607E-09
 -1       808-1.07872E+06-1.99254E+05-2.03043E+04-4.67152E+05 3.63798E-12 3.35240E-09
 -1       809-1.06547E+06-2.14128E+05-1.00178E+04-4.84526E+05-9.50422E-10 1.65505E-09
 -1       810-1.07940E+06-1.98837E+05-4.63118E+03-4.67558E+05 7.45786E-11 8.53561E-10
 -1       811-1.06476E+06-2.13697E+05-2.35440E+03-4.84499E+05 9.89530E-10-3.93356E-11
 -1       812-1.07952E+06-1.98880E+05-1.30146E+03-4.67574E+05 4.63842E-10 1.48475E-09
 -1       813-1.06470E+06-2.13691E+05-1.07774E+03-4.84480E+05 4.39968E-11 2.61298E-09
 -1       814-1.07949E+06-1.98895E+05-1.42266E+03-4.67565E+05-1.96087E-09 1.24237E-09
 -1       815-1.06474E+06-2.13705E+05-2.67081E+03-4.84444E+05-1.15460E-09-4.42924E-10
 -1       816-1.07930E+06-1.98876E+05-5.30687E+03-4.67529E+05 1.73713E-09-1.36060E-09
 -1       817-1.06553E+06-2.14201E+05-1.14997E+04-4.84423E+05 4.54475E-09-6.59384E-09
 -1       818-1.07848E+06-1.99386E+05-2.33194E+04-4.67054E+05 3.18141E-09-1.50976E-09
 -1       819-1.07866E+06-2.27534E+05-5.51763E+04-4.83537E+05-3.35876E-09 5.53700E-09
 -1       820-1.07049E+06-2.19621E+05-1.06430E+05-4.55318E+05-6.69843E-09-4.23097E-09
 -1       821-4.65159E+05-3.47977E+03-6.41025E+04 2.27359E+04-1.38916E-08 3.49428E-09
 -1       822-4.82879E+05-1.01100E+04-3.64324E+04 3.71142E+04-4.45925E-09-1.78261E-10
 -1       823-4.73097E+05 1.16299E+02-1.60149E+04 2.24557E+04 1.15942E-08-2.46382E-09
 -1       824-4.74545E+05-2.86258E+02-8.33389E+03 3.74079E+04-3.95630E-09 5.38967E-09
 -1       825-4.73724E+05 1.68908E+02-4.03192E+03 2.24169E+04-1.65719E-08 2.53294E-10
 -1       826-4.73983E+05 2.14734E+02-2.12148E+03 3.74632E+04-3.01061E-08 5.65569E-09
 -1       827-4.73833E+05 1.59611E+02-1.17607E+03 2.23978E+04-1.31176E-08-6.00721E-10
 -1       828-4.73960E+05 2.56604E+02-8.77662E+02 3.74926E+04-1.97388E-08 3.74803E-09
 -1       829-4.73857E+05 1.73050E+02-9.86865E+02 2.23868E+04-2.39402E-09-2.04636E-11
 -1       830-4.74028E+05 2.55433E+02-1.64354E+03 3.75043E+04 1.56306E-08 1.76078E-09
 -1       831-4.73810E+05 2.04088E+02-3.04240E+03 2.23858E+04-1.21987E-08-1.93859E-09
 -1       832-4.74498E+05-9.39532E+01-6.25965E+03 3.74926E+04-4.31226E-09 4.21234E-09
 -1       833-4.73368E+05 1.85951E+02-1.20037E+04 2.24000E+04-1.88584E-09 1.07229E-09
 -1       834-4.80791E+05-7.44084E+03-2.73193E+04 3.73438E+04 6.09771E-09 1.67165E-09
 -1       835-4.67436E+05-2.49432E+03-4.80558E+04 2.25641E+04 1.76260E-09-2.37560E-09
 -1       836 3.86913E+03 8.13602E+05 6.52147E+04-1.48244E+05 1.69530E-09-7.40329E-10
 -1       837 1.17178E+04 8.30930E+05 4.60179E+04-2.39154E+05 7.32780E-09-3.99723E-10
 -1       838 6.96244E+02 8.19959E+05 3.81203E+04-1.47925E+05 8.36735E-11 1.60401E-09
 -1       839 1.67310E+04 8.35381E+05 6.07589E+04-2.39123E+05 6.10271E-09-1.00727E-09
 -1       840 5.64637E+03 8.09306E+05 9.67958E+04-1.48266E+05 2.61934E-10-3.98359E-10
 -1       841 3.55809E+04 2.07020E+04-1.23886E+04 3.45283E+04-3.18687E-09 2.12185E-09
 -1       842 2.23251E+04 2.81605E+04-6.91208E+03 4.49810E+04 1.10595E-09 2.68585E-09
 -1       843 3.42338E+04 2.05612E+04-2.84297E+03 3.36993E+04 9.38599E-09 4.47380E-09
 -1       844 2.39380E+04 3.04459E+04-1.41827E+03 4.49918E+04 2.31285E-09-4.92037E-10
 -1       845 3.40876E+04 2.05538E+04-6.33833E+02 3.36304E+04 7.17591E-09-1.46031E-09
 -1       846 2.40140E+04 3.05860E+04-2.80058E+02 4.49679E+04 9.84937E-09-3.31409E-09
 -1       847 3.40454E+04 2.05650E+04-7.42817E+01 3.36101E+04-1.36288E-09 2.51910E-09
 -1       848 2.40031E+04 3.06063E+04 8.76008E+01 4.49498E+04 1.99452E-09 8.61624E-09
 -1       849 3.40221E+04 2.05683E+04 2.91781E+02 3.35994E+04 2.57137E-09 1.18757E-09
 -1       850 2.40291E+04 3.06260E+04 6.86407E+02 4.49508E+04-2.28385E-09-4.31123E-09
 -1       851 3.39887E+04 2.05497E+04 1.42406E+03 3.35936E+04 8.79106E-09-5.36670E-09
 -1       852 2.43496E+04 3.08768E+04 3.16886E+03 4.49746E+04 1.48756E-08 1.45610E-09
 -1       853 3.37437E+04 2.04719E+04 6.29653E+03 3.35257E+04 9.52195E-09 2.76896E-09
 -1       854 2.85845E+04 3.54585E+04 1.53822E+04 4.46424E+04 6.26869E-09 3.73166E-09
 -1       855 3.04702E+04 2.04806E+04 2.75108E+04 3.22499E+04-2.68824E-09 9.09495E-11
 -1       856-2.10854E+05-1.17952E+03-2.29838E+04 1.53392E+04-1.46365E-08 5.97538E-10
 -1       857-2.17250E+05-3.51914E+03-1.30619E+04 2.50791E+04-7.80119E-09 1.99998E-09
 -1       858-2.13698E+05 1.09855E+02-5.73899E+03 1.52021E+04-5.32600E-09-8.72660E-10
 -1       859-2.14257E+05 5.08308E-01-2.98520E+03 2.52144E+04-5.88443E-10 5.74596E-09
 -1       860-2.13919E+05 1.25527E+02-1.43866E+03 1.51896E+04-3.08773E-09-1.65983E-11
 -1       861-2.14047E+05 1.75706E+02-7.49786E+02 2.52287E+04-1.34585E-08 3.61649E-09
 -1       862-2.13953E+05 1.17448E+02-3.99854E+02 1.51868E+04 1.35879E-09-6.83031E-10
 -1       863-2.14026E+05 1.84804E+02-2.72318E+02 2.52316E+04 2.44373E-08 1.95462E-09
 -1       864-2.13955E+05 1.15493E+02-2.70767E+02 1.51867E+04 2.17236E-08-6.91330E-10
 -1       865-2.14030E+05 1.78426E+02-4.19335E+02 2.52287E+04 2.28824E-08 3.36604E-09
 -1       866-2.13936E+05 1.16172E+02-7.58542E+02 1.51898E+04-7.02858E-09 1.20622E-10
 -1       867-2.14128E+05 8.32274E+01-1.54805E+03 2.52154E+04-7.09042E-09 4.41514E-09
 -1       868-2.13815E+05 1.02250E+02-2.96599E+03 1.52005E+04 1.76342E-08-2.47780E-10
 -1       869-2.15656E+05-1.74019E+03-6.74037E+03 2.50831E+04 1.37006E-08 2.73758E-09
 -1       870-2.12338E+05-5.71155E+02-1.18614E+04 1.53297E+04 2.03981E-08 4.70209E-10
 -1       871-3.44106E+03-6.68916E+04-8.57931E+03 1.53542E+05-1.09885E-08 1.16415E-10
 -1       872-2.12409E+03-6.86840E+04-2.87414E+03 2.00751E+05-1.47948E-08 1.29148E-09
 -1       873-7.22862E+02-6.81506E+04 2.02056E+03 1.53228E+05-1.09621E-08 5.68616E-09
 -1       874 1.19289E+03-6.57662E+04 8.41629E+03 2.00772E+05-9.86165E-09-4.07226E-09
 -1       875 3.98289E+03-6.98616E+04 1.74787E+04 1.53554E+05-4.67480E-09-1.11049E-09
 -1       876 3.25671E+05 5.48105E+04 3.27967E+04 1.33331E+05 1.52414E-08-1.98997E-09
 -1       877 3.30366E+05 6.56671E+04 1.83354E+04 1.40211E+05 2.50875E-08 4.37421E-09
 -1       878 3.29542E+05 5.48337E+04 7.51429E+03 1.34923E+05 1.43064E-08 1.84764E-09
 -1       879 3.25401E+05 6.01452E+04 3.79219E+03 1.40559E+05-3.83625E-09-1.49669E-09
 -1       880 3.29832E+05 5.49261E+04 1.73028E+03 1.35016E+05 6.62521E-09 2.87628E-11
 -1       881 3.25036E+05 5.98371E+04 8.89776E+02 1.40522E+05 2.18179E-08 1.97588E-09
 -1       882 3.29861E+05 5.49537E+04 4.97108E+02 1.35022E+05-3.55055E-09-8.28734E-09
 -1       883 3.25003E+05 5.98191E+04 4.25371E+02 1.40508E+05-1.41309E-08 9.61688E-09
 -1       884 3.29857E+05 5.49533E+04 5.74191E+02 1.35022E+05-1.49723E-09-7.77845E-10
 -1       885 3.25049E+05 5.98400E+04 1.09425E+03 1.40522E+05 6.54308E-09 3.91117E-09
 -1       886 3.29816E+05 5.49220E+04 2.16489E+03 1.35015E+05-2.03511E-09-5.79053E-09
 -1       887 3.25509E+05 6.02266E+04 4.76362E+03 1.40562E+05-3.34708E-08-7.31097E-09
 -1       888 3.29446E+05 5.48079E+04 9.44740E+03 1.34897E+05-3.60553E-08-3.13412E-09
 -1       889 3.31731E+05 6.71919E+04 2.30573E+04 1.40142E+05-2.12684E-08 6.75118E-09
 -1       890 3.24592E+05 5.47614E+04 4.12437E+04 1.32870E+05-9.36279E-09-3.31602E-09
 -1       891-7.57291E+02-1.63487E+05-7.56255E+03 6.23427E+04 5.37648E-09-7.26686E-10
 -1       892-1.75240E+03-1.65375E+05-5.16311E+03 1.00863E+05 6.74663E-09-2.50475E-09
 -1       893-3.23337E+02-1.64325E+05-4.03132E+03 6.21909E+04 1.23505E-08-2.33331E-09
 -1       894-2.09135E+03-1.65645E+05-6.12952E+03 1.00842E+05 1.45446E-08-7.38282E-10
 -1       895-8.92710E+02-1.63181E+05-9.63556E+03 6.23620E+04 1.22620E-08 5.81804E-09
 -1       896 7.63194E+05 4.56381E+02 1.04599E+04-2.37917E+04-1.45519E-11 7.87281E-10
 -1       897 7.66081E+05 1.58211E+03 5.96367E+03-3.84962E+04-1.90994E-11 5.26370E-10
 -1       898 7.64421E+05-7.48708E+01 2.61693E+03-2.36305E+04-2.50111E-10 3.95630E-10
 -1       899 7.64601E+05 3.08996E+01 1.38732E+03-3.86262E+04 3.49246E-10 1.64846E-10
 -1       900 7.64466E+05-3.85368E+01 7.01556E+02-2.36595E+04-9.27685E-11 1.36424E-11
 -1       901 7.64432E+05-9.55365E+00 4.46932E+02-3.85745E+04-8.54925E-11 8.29914E-11
 -1       902 7.64443E+05-1.00978E+01 3.86442E+02-2.36824E+04-1.31877E-11-6.98037E-11
 -1       903 7.64397E+05 6.38229E+00 5.43939E+02-3.85405E+04-1.75532E-10-2.98996E-10
 -1       904 7.64418E+05-8.96192E+00 9.47581E+02-2.36934E+04-1.36424E-12-1.55410E-10
 -1       905 7.64464E+05 2.36677E+01 1.87932E+03-3.85322E+04 3.17385E-10-3.14230E-10
 -1       906 7.64356E+05-5.01127E+01 3.65268E+03-2.36906E+04 5.29781E-11-2.92573E-10
 -1       907 7.65073E+05 4.31361E+02 7.61125E+03-3.85441E+04-3.16732E-10 7.36691E-11
 -1       908 7.63851E+05-5.86781E+01 1.46304E+04-2.36812E+04 5.68434E-11 1.99179E-10
 -1       909 7.72845E+05 9.33492E+03 3.33187E+04-3.84402E+04-4.72937E-11-5.32964E-10
 -1       910 7.56680E+05 3.17310E+03 5.86126E+04-2.38002E+04-4.54747E-12 3.31056E-10
 -1       911 1.67249E+05 1.13867E+01 1.02326E+03-1.96672E+04 3.26509E-10 5.04770E-10
 -1       912 1.67534E+05 1.40787E+02 5.92367E+02-3.16540E+04 1.98270E-10 2.93312E-10
 -1       913 1.67342E+05-1.82630E+01 2.64383E+02-1.95271E+04 2.11003E-10 3.84148E-10
 -1       914 1.67347E+05 7.27617E+00 1.58473E+02-3.17952E+04 8.01265E-10-4.79758E-10
 -1       915 1.67327E+05-5.32575E-03 1.11141E+02-1.95259E+04-1.26420E-10-3.25031E-10
 -1       916 1.67309E+05 1.53538E+01 1.32331E+02-3.17940E+04-1.72383E-09 9.36780E-11
 -1       917 1.67313E+05 7.79658E+00 2.11302E+02-1.95283E+04 1.98270E-10-6.54836E-11
 -1       918 1.67311E+05 1.94971E+01 4.07040E+02-3.17915E+04 9.64334E-10-2.83535E-10
 -1       919 1.67301E+05-1.72804E+00 7.88009E+02-1.95284E+04 1.74850E-10-5.08066E-10
 -1       920 1.67388E+05 2.57146E+01 1.60882E+03-3.17936E+04 2.63299E-10-5.91172E-11
 -1       921 1.67255E+05-4.41664E+01 3.14959E+03-1.95262E+04 1.53705E-10-7.86258E-10
 -1       922 1.67927E+05 3.72956E+02 6.57891E+03-3.17943E+04 1.58252E-10-2.72536E-10
 -1       923 1.66825E+05-5.59176E+01 1.26521E+04-1.95274E+04 1.21872E-10-5.27507E-11
 -1       924 1.74662E+05 8.07840E+03 2.88286E+04-3.16531E+04-4.54747E-11 2.06910E-10
 -1       925 1.60628E+05 2.73239E+03 5.07151E+04-1.96720E+04 9.09495E-12 5.96629E-10
 -1       926-9.20833E+05-3.05452E+03-5.50162E+04-3.11391E+04 3.30147E-10 1.74623E-10
 -1       927-9.35965E+05-8.81624E+03-3.12668E+04-5.02265E+04 1.81899E-10 5.51609E-10
 -1       928-9.27648E+05 3.21410E+01-1.37312E+04-3.09108E+04-1.45519E-10-2.06910E-10
 -1       929-9.28802E+05-3.82721E+02-7.14121E+03-5.04983E+04-9.64064E-10-8.02217E-10
 -1       930-9.28176E+05 6.94858E+01-3.43829E+03-3.08727E+04 1.03682E-10 8.18545E-12
 -1       931-9.28289E+05 3.19834E+01-1.79084E+03-5.05423E+04-1.61094E-10-2.71484E-10
 -1       932-9.28244E+05 4.12603E+01-9.52878E+02-3.08663E+04-2.32262E-10-4.23142E-10
 -1       933-9.28211E+05 3.87249E+01-6.45876E+02-5.05332E+04-1.75078E-11-3.05363E-10
 -1       934-9.28228E+05 1.85875E+01-6.40838E+02-3.08817E+04 8.50378E-11-5.19094E-10
 -1       935-9.28172E+05-1.37995E+00-9.84864E+02-5.04783E+04-6.87578E-10-5.71163E-10
 -1       936-9.28148E+05-6.85344E+00-1.78560E+03-3.09213E+04 1.98270E-10-9.27685E-11
 -1       937-9.28336E+05-2.59325E+02-3.62959E+03-5.03678E+04 4.13820E-10-6.06633E-10
 -1       938-9.27820E+05-7.49342E+01-6.96463E+03-3.09924E+04 1.76442E-10-6.28006E-10
 -1       939-9.31834E+05-4.57260E+03-1.58006E+04-4.99501E+04 1.29512E-09 2.92403E-10
 -1       940-9.24310E+05-1.69271E+03-2.78253E+04-3.13310E+04-9.44056E-10 1.81262E-09
 -1       941 1.06964E+06 9.04849E+03 1.67149E+05-3.58357E+04 2.14459E-09 1.25146E-09
 -1       942 1.11582E+06 2.65454E+04 9.49921E+04-5.81673E+04-6.41649E-10-1.30422E-09
 -1       943 1.09008E+06-2.03719E+02 4.17356E+04-3.56246E+04-1.45428E-09 4.82032E-10
 -1       944 1.09369E+06 1.16534E+03 2.17439E+04-5.83036E+04-4.00632E-10-4.13365E-10
 -1       945 1.09152E+06-1.84212E+02 1.05010E+04-3.56554E+04 3.47427E-10 5.58430E-10
 -1       946 1.09196E+06 3.59897E+00 5.53448E+03-5.82629E+04 1.45883E-09 1.84536E-09
 -1       947 1.09169E+06-6.73929E+01 3.04918E+03-3.56665E+04 9.54344E-10 1.20554E-09
 -1       948 1.09178E+06-3.91858E+01 2.25936E+03-5.82703E+04 2.91038E-10 8.86757E-10
 -1       949 1.09173E+06-7.71662E+01 2.49875E+03-3.56484E+04-1.01272E-09-1.46883E-09
 -1       950 1.09197E+06-4.83672E+01 4.13293E+03-5.83359E+04 1.62618E-09 2.33013E-09
 -1       951 1.09166E+06-1.99079E+02 7.61019E+03-3.56002E+04-1.03410E-09-7.64203E-10
 -1       952 1.09331E+06 7.34761E+02 1.56571E+04-5.84428E+04-9.43146E-10 4.97266E-10
 -1       953 1.09069E+06-2.64003E+02 2.99806E+04-3.55401E+04 1.85537E-10 6.25732E-10
 -1       954 1.10933E+06 1.89122E+04 6.82492E+04-5.82892E+04-5.50608E-09 7.82165E-10
 -1       955 1.07607E+06 6.31658E+03 1.20033E+05-3.58052E+04-6.54836E-11 2.13913E-09
 -1       956-5.07165E+05-9.65400E+03-3.59308E+04 4.46900E+04-1.33605E-08 1.25533E-09
 -1       957-5.15265E+05-4.30212E+03-1.90392E+04 5.81330E+04-1.50249E-09-1.54068E-09
 -1       958-5.10896E+05-5.46397E+01-8.57370E+03 4.42884E+04 1.04301E-08-8.76753E-10
 -1       959-5.11578E+05 1.39463E+02-4.39299E+03 5.85514E+04-6.98492E-09-1.43791E-09
 -1       960-5.11255E+05 2.56032E+02-2.14706E+03 4.42472E+04-1.79552E-08-2.47837E-10
 -1       961-5.11418E+05 3.41566E+02-1.12470E+03 5.86025E+04-3.14249E-08 9.12678E-10
 -1       962-5.11366E+05 2.78253E+02-6.25488E+02 4.42345E+04-1.27975E-08 4.95220E-10
 -1       963-5.11464E+05 3.81496E+02-4.62283E+02 5.86217E+04-1.44551E-08-2.27374E-11
 -1       964-5.11414E+05 3.06455E+02-5.16845E+02 4.42270E+04-4.90991E-09-3.69255E-10
 -1       965-5.11524E+05 4.05148E+02-8.54446E+02 5.86295E+04 1.90737E-08-2.25327E-09
 -1       966-5.11403E+05 3.37195E+02-1.58436E+03 4.42262E+04-9.69703E-09 1.42791E-10
 -1       967-5.11727E+05 3.04032E+02-3.23306E+03 5.86154E+04-7.29415E-10-1.75964E-09
 -1       968-5.11199E+05 1.50315E+02-6.29456E+03 4.42422E+04 2.91266E-09-1.23691E-10
 -1       969-5.14516E+05-2.92556E+03-1.39990E+04 5.84181E+04 3.11411E-09-1.88248E-09
 -1       970-5.08500E+05-6.88274E+03-2.64084E+04 4.44537E+04 2.48383E-09-1.14960E-09
 -1       971-4.28186E+05-8.96514E+02-1.76346E+04 1.36360E+04-1.49139E-08 3.41015E-09
 -1       972-4.33075E+05-2.68009E+03-1.00230E+04 2.27356E+04-1.15847E-08 3.49951E-09
 -1       973-4.30371E+05 9.48654E+01-4.40909E+03 1.34949E+04-5.44878E-09 3.20529E-09
 -1       974-4.30786E+05 2.36919E+01-2.30226E+03 2.28838E+04 5.32418E-09 3.26008E-09
 -1       975-4.30543E+05 1.09772E+02-1.12849E+03 1.34770E+04-1.95269E-09 2.49906E-09
 -1       976-4.30631E+05 1.61036E+02-6.25307E+02 2.29072E+04-1.07256E-08 3.71040E-09
 -1       977-4.30570E+05 1.06821E+02-4.05851E+02 1.34708E+04 1.40817E-08 2.26305E-09
 -1       978-4.30626E+05 1.70484E+02-4.11183E+02 2.29145E+04 3.78164E-08 1.83240E-09
 -1       979-4.30568E+05 1.11690E+02-6.06176E+02 1.34695E+04 1.55832E-08 1.90641E-09
 -1       980-4.30666E+05 1.60943E+02-1.13886E+03 2.29116E+04 2.35317E-08 1.89459E-09
 -1       981-4.30524E+05 1.29802E+02-2.18488E+03 1.34737E+04-8.37258E-09 2.86570E-09
 -1       982-4.31002E+05-9.67428E+01-4.53652E+03 2.28942E+04-1.57543E-08 3.41630E-09
 -1       983-4.30201E+05 1.15824E+02-8.71922E+03 1.34880E+04 1.19626E-08 1.83081E-09
 -1       984-4.35579E+05-5.43515E+03-1.98536E+04 2.27687E+04-7.89714E-09 2.76077E-09
 -1       985-4.25894E+05-1.82893E+03-3.49279E+04 1.36214E+04-1.13687E-09 1.88993E-09
 -3
 9999
