
 stresses (elem, integ.pnt.,sxx,syy,szz,sxy,sxz,syz) for set ELALL and time  0.1000000E+01

         1   1 -1.999413E+06 -5.004259E+04 -5.939618E+04 -2.510766E+04 -4.083681E+04  1.656618E+00
         1   2 -1.992828E+06 -1.476963E+03 -2.730076E+04 -9.113502E+03 -2.643882E+04  3.893047E-01
         1   3 -1.999362E+06  2.168874E+03 -1.583112E+04  6.881134E+03 -1.204065E+04 -1.338681E-01
         1   4 -1.999413E+06 -5.004378E+04 -5.939635E+04  2.155182E-10 -4.083681E+04 -8.262962E-10
         1   5 -1.992828E+06 -1.477120E+03 -2.730078E+04  5.090084E-10 -2.643882E+04 -1.744765E-09
         1   6 -1.999362E+06  2.168785E+03 -1.583113E+04  1.184089E-08 -1.204065E+04  1.473000E-10
         1   7 -1.999413E+06 -5.004259E+04 -5.939618E+04  2.510766E+04 -4.083681E+04 -1.656618E+00
         1   8 -1.992828E+06 -1.476963E+03 -2.730076E+04  9.113502E+03 -2.643882E+04 -3.893047E-01
         1   9 -1.999362E+06  2.168874E+03 -1.583112E+04 -6.881134E+03 -1.204065E+04  1.338681E-01
         1  10 -1.999414E+06 -5.004304E+04 -5.939932E+04 -2.510766E+04  1.110821E-10 -2.827070E-10
         1  11 -1.992829E+06 -1.477151E+03 -2.730208E+04 -9.113502E+03  2.295231E-09 -1.020044E-09
         1  12 -1.999362E+06  2.168835E+03 -1.583139E+04  6.881134E+03 -2.410214E-09 -1.316431E-09
         1  13 -1.999415E+06 -5.004423E+04 -5.939949E+04 -4.275770E-09  2.034549E-09 -2.168621E-10
         1  14 -1.992829E+06 -1.477308E+03 -2.730210E+04 -3.845910E-09  5.268173E-10 -6.302858E-10
         1  15 -1.999363E+06  2.168746E+03 -1.583140E+04  8.967682E-09  1.247049E-09 -4.779502E-10
         1  16 -1.999414E+06 -5.004304E+04 -5.939932E+04  2.510766E+04 -1.271958E-10 -7.946355E-11
         1  17 -1.992829E+06 -1.477151E+03 -2.730208E+04  9.113502E+03 -9.402939E-10 -1.017868E-10
         1  18 -1.999362E+06  2.168835E+03 -1.583139E+04 -6.881134E+03  2.674316E-09  3.335009E-10
         1  19 -1.999413E+06 -5.004259E+04 -5.939618E+04 -2.510766E+04  4.083681E+04 -1.656618E+00
         1  20 -1.992828E+06 -1.476963E+03 -2.730076E+04 -9.113502E+03  2.643882E+04 -3.893047E-01
         1  21 -1.999362E+06  2.168874E+03 -1.583112E+04  6.881134E+03  1.204065E+04  1.338681E-01
         1  22 -1.999413E+06 -5.004378E+04 -5.939635E+04  2.037969E-09  4.083681E+04  4.255128E-10
         1  23 -1.992828E+06 -1.477120E+03 -2.730078E+04  4.354797E-10  2.643882E+04  5.774180E-10
         1  24 -1.999362E+06  2.168785E+03 -1.583113E+04  1.174196E-08  1.204065E+04 -1.097027E-09
         1  25 -1.999413E+06 -5.004259E+04 -5.939618E+04  2.510766E+04  4.083681E+04  1.656618E+00
         1  26 -1.992828E+06 -1.476963E+03 -2.730076E+04  9.113502E+03  2.643882E+04  3.893047E-01
         1  27 -1.999362E+06  2.168874E+03 -1.583112E+04 -6.881134E+03  1.204065E+04 -1.338681E-01
         2   1 -1.996682E+06 -2.393006E+03 -1.250849E+04 -8.153899E+02 -9.838119E+03  1.296112E-02
         2   2 -1.996168E+06  2.294015E+01 -6.830546E+03 -1.720255E+02 -6.419778E+03  1.784342E-03
         2   3 -1.996676E+06  1.378487E+02 -3.958670E+03  4.713375E+02 -3.001422E+03 -2.285727E-03
         2   4 -1.996682E+06 -2.393007E+03 -1.250849E+04  7.081859E-09 -9.838119E+03  1.376586E-09
         2   5 -1.996168E+06  2.294010E+01 -6.830546E+03 -6.573668E-09 -6.419778E+03  1.438807E-09
         2   6 -1.996676E+06  1.378483E+02 -3.958670E+03  1.917101E-10 -3.001422E+03  7.938126E-10
         2   7 -1.996682E+06 -2.393006E+03 -1.250849E+04  8.153899E+02 -9.838119E+03 -1.296112E-02
         2   8 -1.996168E+06  2.294015E+01 -6.830546E+03  1.720255E+02 -6.419778E+03 -1.784340E-03
         2   9 -1.996676E+06  1.378487E+02 -3.958670E+03 -4.713375E+02 -3.001422E+03  2.285728E-03
         2  10 -1.996682E+06 -2.393032E+03 -1.250867E+04 -8.153899E+02 -7.303943E-10 -4.466580E-10
         2  11 -1.996168E+06  2.292905E+01 -6.830624E+03 -1.720255E+02 -1.798655E-09  8.843746E-10
         2  12 -1.996676E+06  1.378462E+02 -3.958687E+03  4.713375E+02  7.023765E-10  7.074115E-10
         2  13 -1.996682E+06 -2.393033E+03 -1.250867E+04 -3.303321E-09 -1.098221E-09  1.453252E-10
         2  14 -1.996168E+06  2.292899E+01 -6.830624E+03 -5.497551E-09 -9.634050E-10  8.380035E-10
         2  15 -1.996676E+06  1.378458E+02 -3.958687E+03 -3.916984E-09 -1.622816E-09  1.490104E-10
         2  16 -1.996682E+06 -2.393032E+03 -1.250867E+04  8.153899E+02 -2.785000E-10  8.546817E-10
         2  17 -1.996168E+06  2.292905E+01 -6.830624E+03  1.720255E+02  1.412745E-09  7.169452E-10
         2  18 -1.996676E+06  1.378462E+02 -3.958687E+03 -4.713375E+02 -1.285453E-09 -4.796514E-10
         2  19 -1.996682E+06 -2.393006E+03 -1.250849E+04 -8.153899E+02  9.838119E+03 -1.296113E-02
         2  20 -1.996168E+06  2.294015E+01 -6.830546E+03 -1.720255E+02  6.419778E+03 -1.784341E-03
         2  21 -1.996676E+06  1.378487E+02 -3.958670E+03  4.713375E+02  3.001422E+03  2.285728E-03
         2  22 -1.996682E+06 -2.393007E+03 -1.250849E+04  7.804292E-09  9.838119E+03 -1.097864E-09
         2  23 -1.996168E+06  2.294010E+01 -6.830546E+03 -6.573660E-09  6.419778E+03  2.788981E-10
         2  24 -1.996676E+06  1.378483E+02 -3.958670E+03  1.667702E-09  3.001422E+03 -5.185695E-10
         2  25 -1.996682E+06 -2.393006E+03 -1.250849E+04  8.153899E+02  9.838119E+03  1.296112E-02
         2  26 -1.996168E+06  2.294015E+01 -6.830546E+03  1.720255E+02  6.419778E+03  1.784341E-03
         2  27 -1.996676E+06  1.378487E+02 -3.958670E+03 -4.713375E+02  3.001422E+03 -2.285730E-03
         3   1 -1.996482E+06 -8.403998E+01 -3.049359E+03  7.059103E+01 -2.384378E+03 -2.719508E-04
         3   2 -1.996408E+06  2.726344E+01 -1.797281E+03  5.824635E+01 -1.494878E+03 -1.406844E-04
         3   3 -1.996481E+06  1.650602E+01 -1.156202E+03  4.590187E+01 -6.053904E+02 -4.489987E-05
         3   4 -1.996482E+06 -8.403999E+01 -3.049359E+03 -1.199775E-09 -2.384378E+03 -1.215085E-10
         3   5 -1.996408E+06  2.726343E+01 -1.797281E+03 -3.223019E-09 -1.494878E+03 -1.533644E-09
         3   6 -1.996481E+06  1.650601E+01 -1.156202E+03  1.784139E-09 -6.053904E+02 -1.455840E-09
         3   7 -1.996482E+06 -8.403998E+01 -3.049359E+03 -7.059103E+01 -2.384378E+03  2.719500E-04
         3   8 -1.996408E+06  2.726344E+01 -1.797281E+03 -5.824635E+01 -1.494878E+03  1.406812E-04
         3   9 -1.996481E+06  1.650602E+01 -1.156202E+03 -4.590187E+01 -6.053904E+02  4.489716E-05
         3  10 -1.996482E+06 -8.404151E+01 -3.049369E+03  7.059103E+01 -1.138849E-09  1.202632E-11
         3  11 -1.996408E+06  2.726284E+01 -1.797285E+03  5.824635E+01 -4.248606E-10 -5.982807E-10
         3  12 -1.996481E+06  1.650592E+01 -1.156203E+03  4.590187E+01 -2.086599E-09 -3.205026E-10
         3  13 -1.996482E+06 -8.404152E+01 -3.049369E+03  3.163461E-09 -1.064599E-09 -3.082214E-10
         3  14 -1.996408E+06  2.726283E+01 -1.797285E+03 -6.403043E-09 -3.228318E-09 -1.626100E-10
         3  15 -1.996481E+06  1.650592E+01 -1.156203E+03  5.048163E-09 -1.815875E-09 -4.341463E-11
         3  16 -1.996482E+06 -8.404151E+01 -3.049369E+03 -7.059103E+01 -1.570403E-09 -6.654615E-10
         3  17 -1.996408E+06  2.726284E+01 -1.797285E+03 -5.824635E+01 -1.783735E-09  1.395339E-10
         3  18 -1.996481E+06  1.650592E+01 -1.156203E+03 -4.590187E+01 -2.156491E-09  1.256276E-10
         3  19 -1.996482E+06 -8.403998E+01 -3.049359E+03  7.059103E+01  2.384378E+03  2.719507E-04
         3  20 -1.996408E+06  2.726344E+01 -1.797281E+03  5.824635E+01  1.494878E+03  1.406835E-04
         3  21 -1.996481E+06  1.650602E+01 -1.156202E+03  4.590187E+01  6.053904E+02  4.489956E-05
         3  22 -1.996482E+06 -8.403999E+01 -3.049359E+03 -3.249090E-09  2.384378E+03 -4.900755E-10
         3  23 -1.996408E+06  2.726343E+01 -1.797281E+03 -9.599865E-09  1.494878E+03  1.150326E-09
         3  24 -1.996481E+06  1.650601E+01 -1.156202E+03 -3.365757E-10  6.053904E+02  1.362870E-09
         3  25 -1.996482E+06 -8.403998E+01 -3.049359E+03 -7.059103E+01  2.384378E+03 -2.719516E-04
         3  26 -1.996408E+06  2.726344E+01 -1.797281E+03 -5.824635E+01  1.494878E+03 -1.406812E-04
         3  27 -1.996481E+06  1.650602E+01 -1.156202E+03 -4.590187E+01  6.053904E+02 -4.489702E-05
         4   1 -1.996461E+06  7.070480E+00 -9.810569E+02  2.220728E+01 -4.124511E+02 -1.479935E-05
         4   2 -1.996432E+06  1.491953E+01 -8.462696E+02 -1.413618E+00  5.399510E+00 -1.163617E-08
         4   3 -1.996461E+06  1.268990E+01 -9.866987E+02 -2.503487E+01  4.232563E+02 -1.712160E-05
         4   4 -1.996461E+06  7.070479E+00 -9.810569E+02  1.499826E-09 -4.124511E+02 -6.271395E-10
         4   5 -1.996432E+06  1.491953E+01 -8.462696E+02 -1.103041E-09  5.399510E+00 -2.305196E-11
         4   6 -1.996461E+06  1.268990E+01 -9.866987E+02  7.862251E-09  4.232563E+02 -8.231032E-10
         4   7 -1.996461E+06  7.070480E+00 -9.810569E+02 -2.220728E+01 -4.124511E+02  1.479784E-05
         4   8 -1.996432E+06  1.491953E+01 -8.462696E+02  1.413618E+00  5.399510E+00  1.144475E-08
         4   9 -1.996461E+06  1.268990E+01 -9.866987E+02  2.503487E+01  4.232563E+02  1.711991E-05
         4  10 -1.996461E+06  7.070434E+00 -9.810572E+02  2.220728E+01 -9.988290E-11  5.579270E-10
         4  11 -1.996432E+06  1.491953E+01 -8.462696E+02 -1.413618E+00  2.800956E-10  1.096734E-09
         4  12 -1.996461E+06  1.268986E+01 -9.866990E+02 -2.503487E+01  1.064561E-09 -6.925194E-10
         4  13 -1.996461E+06  7.070433E+00 -9.810572E+02 -5.410851E-10 -2.242436E-09  1.894774E-10
         4  14 -1.996432E+06  1.491953E+01 -8.462696E+02 -2.237951E-09 -1.523936E-09  4.024953E-10
         4  15 -1.996461E+06  1.268986E+01 -9.866990E+02  4.144392E-09  1.883777E-09 -1.159629E-10
         4  16 -1.996461E+06  7.070434E+00 -9.810572E+02 -2.220728E+01 -6.459979E-10 -2.140369E-10
         4  17 -1.996432E+06  1.491953E+01 -8.462696E+02  1.413618E+00 -2.388842E-09 -3.416532E-10
         4  18 -1.996461E+06  1.268986E+01 -9.866990E+02  2.503487E+01 -1.300560E-09  4.622623E-10
         4  19 -1.996461E+06  7.070480E+00 -9.810569E+02  2.220728E+01  4.124511E+02  1.480048E-05
         4  20 -1.996432E+06  1.491953E+01 -8.462696E+02 -1.413618E+00 -5.399510E+00  1.405251E-08
         4  21 -1.996461E+06  1.268990E+01 -9.866987E+02 -2.503487E+01 -4.232563E+02  1.712071E-05
         4  22 -1.996461E+06  7.070479E+00 -9.810569E+02 -2.575696E-09  4.124511E+02  1.057021E-09
         4  23 -1.996432E+06  1.491953E+01 -8.462696E+02 -7.647891E-09 -5.399510E+00  7.834857E-10
         4  24 -1.996461E+06  1.268990E+01 -9.866987E+02  5.294219E-09 -4.232563E+02  5.621219E-10
         4  25 -1.996461E+06  7.070480E+00 -9.810569E+02 -2.220728E+01  4.124511E+02 -1.479874E-05
         4  26 -1.996432E+06  1.491953E+01 -8.462696E+02  1.413618E+00 -5.399510E+00 -1.224771E-08
         4  27 -1.996461E+06  1.268990E+01 -9.866987E+02  2.503487E+01 -4.232563E+02 -1.711946E-05
         5   1 -1.996476E+06  1.215813E+01 -1.166971E+03 -3.391227E+01  6.183865E+02 -3.388479E-05
         5   2 -1.996414E+06  3.167900E+01 -1.819450E+03 -8.130562E+01  1.516950E+03 -1.992770E-04
         5   3 -1.996477E+06  2.050475E+01 -3.066017E+03 -1.286990E+02  2.415512E+03 -5.022844E-04
         5   4 -1.996476E+06  1.215813E+01 -1.166971E+03 -3.988792E-09  6.183865E+02 -9.992841E-10
         5   5 -1.996414E+06  3.167899E+01 -1.819450E+03 -4.416105E-09  1.516950E+03 -9.815307E-11
         5   6 -1.996477E+06  2.050472E+01 -3.066017E+03  1.047877E-09  2.415512E+03  2.620603E-10
         5   7 -1.996476E+06  1.215813E+01 -1.166971E+03  3.391227E+01  6.183865E+02  3.388247E-05
         5   8 -1.996414E+06  3.167900E+01 -1.819450E+03  8.130562E+01  1.516950E+03  1.992765E-04
         5   9 -1.996477E+06  2.050475E+01 -3.066017E+03  1.286990E+02  2.415512E+03  5.022849E-04
         5  10 -1.996476E+06  1.215803E+01 -1.166972E+03 -3.391227E+01 -1.329313E-09 -9.177046E-10
         5  11 -1.996414E+06  3.167838E+01 -1.819454E+03 -8.130562E+01 -1.573138E-09  1.168541E-10
         5  12 -1.996477E+06  2.050318E+01 -3.066028E+03 -1.286990E+02  1.902656E-10  5.567108E-11
         5  13 -1.996476E+06  1.215803E+01 -1.166972E+03  4.017439E-10 -9.628804E-10 -3.277613E-10
         5  14 -1.996414E+06  3.167837E+01 -1.819454E+03 -6.488519E-09  1.704373E-09  3.819125E-12
         5  15 -1.996477E+06  2.050315E+01 -3.066028E+03 -5.333173E-09  1.379769E-09  1.490699E-10
         5  16 -1.996476E+06  1.215803E+01 -1.166972E+03  3.391227E+01  7.797544E-10  2.610273E-10
         5  17 -1.996414E+06  3.167838E+01 -1.819454E+03  8.130562E+01  1.309865E-09 -2.805354E-10
         5  18 -1.996477E+06  2.050318E+01 -3.066028E+03  1.286990E+02  2.205769E-09  3.568105E-10
         5  19 -1.996476E+06  1.215813E+01 -1.166971E+03 -3.391227E+01 -6.183865E+02  3.388292E-05
         5  20 -1.996414E+06  3.167900E+01 -1.819450E+03 -8.130562E+01 -1.516950E+03  1.992774E-04
         5  21 -1.996477E+06  2.050475E+01 -3.066017E+03 -1.286990E+02 -2.415512E+03  5.022847E-04
         5  22 -1.996476E+06  1.215813E+01 -1.166971E+03  4.773467E-10 -6.183865E+02  3.506857E-10
         5  23 -1.996414E+06  3.167899E+01 -1.819450E+03  2.164449E-09 -1.516950E+03 -6.261839E-11
         5  24 -1.996477E+06  2.050472E+01 -3.066017E+03  3.345000E-09 -2.415512E+03  6.561884E-12
         5  25 -1.996476E+06  1.215813E+01 -1.166971E+03  3.391227E+01 -6.183865E+02 -3.388211E-05
         5  26 -1.996414E+06  3.167900E+01 -1.819450E+03  8.130562E+01 -1.516950E+03 -1.992773E-04
         5  27 -1.996477E+06  2.050475E+01 -3.066017E+03  1.286990E+02 -2.415512E+03 -5.022844E-04
         6   1 -1.996576E+06  5.647145E+01 -4.008561E+03 -2.217077E+02  3.053413E+03 -1.093785E-03
         6   2 -1.996292E+06  1.039772E+02 -6.929119E+03 -2.595698E+02  6.483325E+03 -2.719050E-03
         6   3 -1.996581E+06 -3.450191E+02 -1.221216E+04 -2.974316E+02  9.913167E+03 -4.763923E-03
         6   4 -1.996576E+06  5.647136E+01 -4.008561E+03 -4.592883E-09  3.053413E+03  1.938762E-10
         6   5 -1.996292E+06  1.039771E+02 -6.929119E+03 -4.072805E-09  6.483325E+03 -1.169882E-10
         6   6 -1.996581E+06 -3.450193E+02 -1.221216E+04 -1.961662E-09  9.913167E+03 -5.111560E-10
         6   7 -1.996576E+06  5.647145E+01 -4.008561E+03  2.217077E+02  3.053413E+03  1.093785E-03
         6   8 -1.996292E+06  1.039772E+02 -6.929119E+03  2.595698E+02  6.483325E+03  2.719050E-03
         6   9 -1.996581E+06 -3.450191E+02 -1.221216E+04  2.974316E+02  9.913167E+03  4.763922E-03
         6  10 -1.996576E+06  5.646894E+01 -4.008578E+03 -2.217077E+02 -4.438964E-10 -6.367403E-11
         6  11 -1.996293E+06  1.039659E+02 -6.929198E+03 -2.595698E+02  7.692207E-11  5.158508E-10
         6  12 -1.996581E+06 -3.450456E+02 -1.221234E+04 -2.974316E+02 -1.026892E-09  4.296378E-10
         6  13 -1.996576E+06  5.646884E+01 -4.008578E+03 -1.308625E-08  1.063783E-09  3.373473E-10
         6  14 -1.996293E+06  1.039658E+02 -6.929198E+03 -8.400348E-09 -1.256427E-09  4.031411E-10
         6  15 -1.996581E+06 -3.450457E+02 -1.221234E+04 -3.201578E-09  5.037169E-10  6.790354E-11
         6  16 -1.996576E+06  5.646894E+01 -4.008578E+03  2.217077E+02  9.001851E-10  6.227358E-10
         6  17 -1.996293E+06  1.039659E+02 -6.929198E+03  2.595698E+02 -2.572475E-10  5.000779E-10
         6  18 -1.996581E+06 -3.450456E+02 -1.221234E+04  2.974316E+02 -2.346241E-09 -2.058007E-10
         6  19 -1.996576E+06  5.647145E+01 -4.008561E+03 -2.217077E+02 -3.053413E+03  1.093785E-03
         6  20 -1.996292E+06  1.039772E+02 -6.929119E+03 -2.595698E+02 -6.483325E+03  2.719052E-03
         6  21 -1.996581E+06 -3.450191E+02 -1.221216E+04 -2.974316E+02 -9.913167E+03  4.763924E-03
         6  22 -1.996576E+06  5.647136E+01 -4.008561E+03  2.103179E-09 -3.053413E+03  4.947530E-10
         6  23 -1.996292E+06  1.039771E+02 -6.929119E+03 -1.983592E-09 -6.483325E+03  1.058016E-09
         6  24 -1.996581E+06 -3.450193E+02 -1.221216E+04 -1.580542E-10 -9.913167E+03  6.832254E-10
         6  25 -1.996576E+06  5.647145E+01 -4.008561E+03  2.217077E+02 -3.053413E+03 -1.093784E-03
         6  26 -1.996292E+06  1.039772E+02 -6.929119E+03  2.595698E+02 -6.483325E+03 -2.719049E-03
         6  27 -1.996581E+06 -3.450191E+02 -1.221216E+04  2.974316E+02 -9.913167E+03 -4.763922E-03
         7   1 -1.997379E+06  5.598680E+02 -1.597982E+04 -1.932225E+03  1.239448E+04 -3.869473E-02
         7   2 -1.995308E+06  9.182112E+01 -2.777549E+04  6.966633E+02  2.629592E+04  2.959888E-02
         7   3 -1.997402E+06 -9.766973E+03 -5.098984E+04  3.325615E+03  4.019731E+04  2.159899E-01
         7   4 -1.997379E+06  5.598609E+02 -1.597983E+04  2.063283E-09  1.239448E+04 -8.823776E-10
         7   5 -1.995308E+06  9.182021E+01 -2.777549E+04 -1.119753E-09  2.629592E+04 -1.305847E-09
         7   6 -1.997402E+06 -9.766994E+03 -5.098985E+04  8.879672E-09  4.019731E+04 -1.473208E-09
         7   7 -1.997379E+06  5.598680E+02 -1.597982E+04  1.932225E+03  1.239448E+04  3.869473E-02
         7   8 -1.995308E+06  9.182112E+01 -2.777549E+04 -6.966633E+02  2.629592E+04 -2.959888E-02
         7   9 -1.997402E+06 -9.766973E+03 -5.098984E+04 -3.325615E+03  4.019731E+04 -2.159899E-01
         7  10 -1.997379E+06  5.598266E+02 -1.598011E+04 -1.932225E+03 -2.012357E-10  3.575466E-11
         7  11 -1.995309E+06  9.163476E+01 -2.777679E+04  6.966633E+02 -1.423632E-09 -7.035880E-11
         7  12 -1.997404E+06 -9.767409E+03 -5.099289E+04  3.325615E+03  1.468660E-10  2.216772E-11
         7  13 -1.997379E+06  5.598195E+02 -1.598011E+04 -2.065425E-10 -8.962372E-10 -2.461822E-10
         7  14 -1.995309E+06  9.163385E+01 -2.777679E+04  1.036715E-09 -2.242095E-09 -3.803110E-10
         7  15 -1.997404E+06 -9.767429E+03 -5.099289E+04  2.801232E-09 -1.568893E-09 -1.795106E-10
         7  16 -1.997379E+06  5.598266E+02 -1.598011E+04  1.932225E+03 -8.412573E-10 -7.110738E-10
         7  17 -1.995309E+06  9.163476E+01 -2.777679E+04 -6.966633E+02  1.102009E-09 -7.859466E-10
         7  18 -1.997404E+06 -9.767409E+03 -5.099289E+04 -3.325615E+03 -5.725587E-10 -3.838038E-10
         7  19 -1.997379E+06  5.598680E+02 -1.597982E+04 -1.932225E+03 -1.239448E+04  3.869473E-02
         7  20 -1.995308E+06  9.182112E+01 -2.777549E+04  6.966633E+02 -2.629592E+04 -2.959888E-02
         7  21 -1.997402E+06 -9.766973E+03 -5.098984E+04  3.325615E+03 -4.019731E+04 -2.159899E-01
         7  22 -1.997379E+06  5.598609E+02 -1.597983E+04  3.978206E-09 -1.239448E+04  3.700549E-10
         7  23 -1.995308E+06  9.182021E+01 -2.777549E+04 -1.119736E-09 -2.629592E+04  4.890486E-10
         7  24 -1.997402E+06 -9.766994E+03 -5.098985E+04  2.681276E-09 -4.019731E+04  1.060149E-09
         7  25 -1.997379E+06  5.598680E+02 -1.597982E+04  1.932225E+03 -1.239448E+04 -3.869473E-02
         7  26 -1.995308E+06  9.182112E+01 -2.777549E+04 -6.966633E+02 -2.629592E+04  2.959888E-02
         7  27 -1.997402E+06 -9.766973E+03 -5.098984E+04 -3.325615E+03 -4.019731E+04  2.159899E-01
         8   1 -2.008340E+06  8.852510E+03 -6.456210E+04 -2.808542E+04  4.917581E+04 -2.231539E+00
         8   2 -1.981673E+06 -6.026217E+03 -1.113779E+05  3.719346E+04  1.079292E+05  6.485715E+00
         8   3 -2.008534E+06 -2.042108E+05 -2.423516E+05  1.024683E+05  1.666832E+05  2.759573E+01
         8   4 -2.008341E+06  8.851023E+03 -6.456231E+04 -2.416215E-09  4.917581E+04 -6.054095E-10
         8   5 -1.981674E+06 -6.028824E+03 -1.113783E+05 -3.675179E-09  1.079292E+05  8.914489E-10
         8   6 -2.008546E+06 -2.042306E+05 -2.423545E+05 -5.995457E-09  1.666832E+05  4.432689E-10
         8   7 -2.008340E+06  8.852510E+03 -6.456210E+04  2.808542E+04  4.917581E+04  2.231539E+00
         8   8 -1.981673E+06 -6.026217E+03 -1.113779E+05 -3.719346E+04  1.079292E+05 -6.485715E+00
         8   9 -2.008534E+06 -2.042108E+05 -2.423516E+05 -1.024683E+05  1.666832E+05 -2.759573E+01
         8  10 -2.008343E+06  8.851858E+03 -6.456666E+04 -2.808542E+04  1.761987E-09  1.258783E-10
         8  11 -1.981685E+06 -6.029356E+03 -1.113999E+05  3.719346E+04 -1.522652E-10 -5.886567E-12
         8  12 -2.008564E+06 -2.042183E+05 -2.424040E+05  1.024683E+05 -2.001945E-10 -3.960418E-11
         8  13 -2.008344E+06  8.850371E+03 -6.456687E+04  8.439693E-09 -3.359998E-11  6.989212E-12
         8  14 -1.981687E+06 -6.031964E+03 -1.114003E+05 -4.299844E-10 -1.525537E-09  1.897223E-10
         8  15 -2.008575E+06 -2.042381E+05 -2.424068E+05 -2.843029E-09  1.795760E-10  6.907891E-11
         8  16 -2.008343E+06  8.851858E+03 -6.456666E+04  2.808542E+04 -4.257189E-10 -9.847247E-11
         8  17 -1.981685E+06 -6.029356E+03 -1.113999E+05 -3.719346E+04 -9.034397E-10  3.505126E-10
         8  18 -2.008564E+06 -2.042183E+05 -2.424040E+05 -1.024683E+05 -1.971433E-11  1.582429E-10
         8  19 -2.008340E+06  8.852510E+03 -6.456210E+04 -2.808542E+04 -4.917581E+04  2.231539E+00
         8  20 -1.981673E+06 -6.026217E+03 -1.113779E+05  3.719346E+04 -1.079292E+05 -6.485715E+00
         8  21 -2.008534E+06 -2.042108E+05 -2.423516E+05  1.024683E+05 -1.666832E+05 -2.759573E+01
         8  22 -2.008341E+06  8.851023E+03 -6.456231E+04 -2.250308E-09 -4.917581E+04  6.575492E-10
         8  23 -1.981674E+06 -6.028824E+03 -1.113783E+05 -1.495590E-09 -1.079292E+05 -5.797907E-10
         8  24 -2.008546E+06 -2.042306E+05 -2.423545E+05 -1.560954E-09 -1.666832E+05 -2.991192E-10
         8  25 -2.008340E+06  8.852510E+03 -6.456210E+04  2.808542E+04 -4.917581E+04 -2.231539E+00
         8  26 -1.981673E+06 -6.026217E+03 -1.113779E+05 -3.719346E+04 -1.079292E+05  6.485715E+00
         8  27 -2.008534E+06 -2.042108E+05 -2.423516E+05 -1.024683E+05 -1.666832E+05  2.759573E+01
         9   1  1.649381E+06  5.223364E+06  1.621017E+06 -1.037079E+06  7.309966E+04  4.756901E+05
         9   2  1.187596E+06  4.113260E+06  1.095054E+06 -8.317075E+05  2.288006E+05  2.081995E+05
         9   3  9.000938E+05  3.084876E+06  7.863641E+05 -9.087809E+05  2.313628E+05 -5.884265E+04
         9   4  1.900279E+05 -6.828060E+05  2.155037E+05 -9.173146E+05  7.383580E+04  1.503954E+05
         9   5  2.728701E+04 -7.032232E+05  1.013349E+05 -7.763342E+05  2.292619E+05  9.813660E+04
         9   6  2.415059E+03 -6.796266E+05  5.616198E+04 -9.177977E+05  2.310633E+05  4.583107E+04
         9   7 -1.271732E+06 -6.556866E+06 -1.192053E+06 -7.986507E+05  7.445263E+04 -1.718438E+05
         9   8 -1.134471E+06 -5.497755E+06 -8.935910E+05 -7.213685E+05  2.297061E+05 -1.109360E+04
         9   9 -8.961031E+05 -4.430530E+06 -6.746668E+05 -9.267367E+05  2.307596E+05  1.498860E+05
         9  10  1.649315E+06  5.223121E+06  1.620585E+06 -1.037107E+06  1.612775E-10  9.163605E-10
         9  11  1.187528E+06  4.113200E+06  1.094874E+06 -8.317458E+05  1.473620E-09  1.949955E-10
         9  12  9.000354E+05  3.084858E+06  7.862572E+05 -9.087700E+05 -2.435757E-10 -5.277324E-10
         9  13  1.900159E+05 -6.828318E+05  2.154508E+05 -9.173236E+05  1.290148E-09 -3.451509E-11
         9  14  2.722797E+04 -7.032477E+05  1.012180E+05 -7.763524E+05 -1.056348E-09 -5.303194E-11
         9  15  2.357160E+03 -6.796432E+05  5.605766E+04 -9.178063E+05  2.138413E-09  2.361984E-11
         9  16 -1.271746E+06 -6.556900E+06 -1.192119E+06 -7.986404E+05  1.264297E-09 -9.856798E-10
         9  17 -1.134528E+06 -5.497770E+06 -8.936903E+05 -7.213664E+05 -1.055965E-09 -1.892155E-10
         9  18 -8.961664E+05 -4.430569E+06 -6.748096E+05 -9.267647E+05  2.685072E-09  4.801138E-10
         9  19  1.649381E+06  5.223364E+06  1.621017E+06 -1.037079E+06 -7.309966E+04 -4.756901E+05
         9  20  1.187596E+06  4.113260E+06  1.095054E+06 -8.317075E+05 -2.288006E+05 -2.081995E+05
         9  21  9.000938E+05  3.084876E+06  7.863641E+05 -9.087809E+05 -2.313628E+05  5.884265E+04
         9  22  1.900279E+05 -6.828060E+05  2.155037E+05 -9.173146E+05 -7.383580E+04 -1.503954E+05
         9  23  2.728701E+04 -7.032232E+05  1.013349E+05 -7.763342E+05 -2.292619E+05 -9.813660E+04
         9  24  2.415059E+03 -6.796266E+05  5.616198E+04 -9.177977E+05 -2.310633E+05 -4.583107E+04
         9  25 -1.271732E+06 -6.556866E+06 -1.192053E+06 -7.986507E+05 -7.445263E+04  1.718438E+05
         9  26 -1.134471E+06 -5.497755E+06 -8.935910E+05 -7.213685E+05 -2.297061E+05  1.109360E+04
         9  27 -8.961031E+05 -4.430530E+06 -6.746668E+05 -9.267367E+05 -2.307596E+05 -1.498860E+05
        10   1  7.341287E+05  2.338450E+06  6.285709E+05 -9.305646E+05  1.873194E+05 -3.798745E+04
        10   2  4.714320E+05  1.268032E+06  3.925510E+05 -7.804700E+05  1.294455E+05 -5.763093E+04
        10   3  2.173338E+05  2.017910E+05  1.709289E+05 -9.219022E+05  6.501962E+04 -7.737239E+04
        10   4  1.216116E+04 -6.880708E+05  4.234951E+04 -9.197520E+05  1.870577E+05  3.822793E+04
        10   5  5.962189E+03 -6.881636E+05  2.075850E+04 -7.739802E+05  1.290759E+05  2.771878E+04
        10   6  6.856711E+03 -6.867341E+05  7.289181E+03 -9.197865E+05  6.452919E+04  1.707916E+04
        10   7 -7.103495E+05 -3.705795E+06 -5.442802E+05 -9.089779E+05  1.867979E+05  1.140808E+05
        10   8 -4.597281E+05 -2.640656E+06 -3.511782E+05 -7.675051E+05  1.287073E+05  1.128063E+05
        10   9 -2.036606E+05 -1.574474E+06 -1.563497E+05 -9.176725E+05  6.403895E+04  1.113991E+05
        10  10  7.340907E+05  2.338439E+06  6.285023E+05 -9.305589E+05 -2.090721E-10  2.938945E-10
        10  11  4.714131E+05  1.268024E+06  3.925133E+05 -7.804640E+05  2.721749E-10 -1.418879E-10
        10  12  2.173277E+05  2.017834E+05  1.709098E+05 -9.218981E+05 -6.911083E-10 -8.495033E-10
        10  13  1.212319E+04 -6.880818E+05  4.228098E+04 -9.197578E+05  1.737431E-09 -9.012477E-13
        10  14  5.944091E+03 -6.881689E+05  2.072573E+04 -7.739831E+05  2.063522E-09  4.835602E-11
        10  15  6.852160E+03 -6.867356E+05  7.280802E+03 -9.197874E+05 -6.408714E-11  4.676755E-11
        10  16 -7.103905E+05 -3.705818E+06 -5.443705E+05 -9.089952E+05 -1.579399E-10 -1.553294E-10
        10  17 -4.597493E+05 -2.640675E+06 -3.512334E+05 -7.675168E+05  2.285103E-09  2.668202E-10
        10  18 -2.036684E+05 -1.574488E+06 -1.563808E+05 -9.176782E+05  8.558880E-11  9.733305E-10
        10  19  7.341287E+05  2.338450E+06  6.285709E+05 -9.305646E+05 -1.873194E+05  3.798745E+04
        10  20  4.714320E+05  1.268032E+06  3.925510E+05 -7.804700E+05 -1.294455E+05  5.763093E+04
        10  21  2.173338E+05  2.017910E+05  1.709289E+05 -9.219022E+05 -6.501962E+04  7.737239E+04
        10  22  1.216116E+04 -6.880708E+05  4.234951E+04 -9.197520E+05 -1.870577E+05 -3.822793E+04
        10  23  5.962189E+03 -6.881636E+05  2.075850E+04 -7.739802E+05 -1.290759E+05 -2.771878E+04
        10  24  6.856711E+03 -6.867341E+05  7.289181E+03 -9.197865E+05 -6.452919E+04 -1.707916E+04
        10  25 -7.103495E+05 -3.705795E+06 -5.442802E+05 -9.089779E+05 -1.867979E+05 -1.140808E+05
        10  26 -4.597281E+05 -2.640656E+06 -3.511782E+05 -7.675051E+05 -1.287073E+05 -1.128063E+05
        10  27 -2.036606E+05 -1.574474E+06 -1.563497E+05 -9.176725E+05 -6.403895E+04 -1.113991E+05
        11   1  4.376121E+04 -5.328545E+05  2.208516E+04 -9.163612E+05  2.101219E+04 -8.758334E+04
        11   2 -2.193292E+05 -1.590114E+06 -2.138898E+05 -7.777691E+05 -2.524307E+04 -2.891648E+03
        11   3 -5.128241E+05 -2.667235E+06 -5.133972E+05 -9.281354E+05 -1.440440E+04  8.183873E+04
        11   4  8.586603E+03 -6.884973E+05  1.759657E+03 -9.191725E+05  2.046061E+04  1.580860E+04
        11   5  2.547659E+03 -6.852565E+05 -1.027536E+04 -7.747673E+05 -2.536128E+04  2.112561E+04
        11   6 -2.000452E+04 -6.891250E+05 -3.060943E+04 -9.192985E+05 -1.412607E+04  2.662760E+04
        11   7 -2.658324E+04 -8.440923E+05 -1.852578E+04 -9.219831E+05  1.990801E+04  1.191758E+05
        11   8  2.243688E+05  2.203657E+05  1.932891E+05 -7.717596E+05 -2.547915E+04  4.517757E+04
        11   9  4.725280E+05  1.292573E+06  4.519048E+05 -9.104263E+05 -1.384986E+04 -2.875972E+04
        11  10  4.375868E+04 -5.328628E+05  2.206992E+04 -9.163597E+05 -1.682918E-09  6.167563E-10
        11  11 -2.193299E+05 -1.590114E+06 -2.138910E+05 -7.777692E+05 -1.784050E-09  1.869799E-10
        11  12 -5.128262E+05 -2.667243E+06 -5.134102E+05 -9.281345E+05 -9.799726E-10 -3.989412E-11
        11  13  8.586085E+03 -6.884977E+05  1.758398E+03 -9.191728E+05 -2.109939E-10  3.937120E-11
        11  14  2.546850E+03 -6.852571E+05 -1.027740E+04 -7.747668E+05  1.936792E-09 -1.044437E-11
        11  15 -2.000492E+04 -6.891258E+05 -3.061114E+04 -9.192982E+05 -4.394373E-10  2.296877E-12
        11  16 -2.658749E+04 -8.441077E+05 -1.855326E+04 -9.219851E+05 -3.762013E-10 -6.696764E-10
        11  17  2.243676E+05  2.203633E+05  1.932841E+05 -7.717587E+05 -1.437090E-09 -2.192084E-10
        11  18  4.725275E+05  1.292572E+06  4.519029E+05 -9.104266E+05  4.833300E-10  4.292481E-11
        11  19  4.376121E+04 -5.328545E+05  2.208516E+04 -9.163612E+05 -2.101219E+04  8.758334E+04
        11  20 -2.193292E+05 -1.590114E+06 -2.138898E+05 -7.777691E+05  2.524307E+04  2.891648E+03
        11  21 -5.128241E+05 -2.667235E+06 -5.133972E+05 -9.281354E+05  1.440440E+04 -8.183873E+04
        11  22  8.586603E+03 -6.884973E+05  1.759657E+03 -9.191725E+05 -2.046061E+04 -1.580860E+04
        11  23  2.547659E+03 -6.852565E+05 -1.027536E+04 -7.747673E+05  2.536128E+04 -2.112561E+04
        11  24 -2.000452E+04 -6.891250E+05 -3.060943E+04 -9.192985E+05  1.412607E+04 -2.662760E+04
        11  25 -2.658324E+04 -8.440923E+05 -1.852578E+04 -9.219831E+05 -1.990801E+04 -1.191758E+05
        11  26  2.243688E+05  2.203657E+05  1.932891E+05 -7.717596E+05  2.547915E+04 -4.517757E+04
        11  27  4.725280E+05  1.292573E+06  4.519048E+05 -9.104263E+05  1.384986E+04  2.875972E+04
        12   1 -2.598732E+06 -6.560874E+05 -2.720525E+05 -1.010842E+06 -1.678791E+05 -6.255543E+04
        12   2 -2.570040E+06 -4.031865E+05 -1.180848E+05 -1.010802E+06 -1.056097E+05 -3.897009E+04
        12   3 -2.613697E+06 -3.459886E+05 -6.230950E+04 -9.705214E+05 -4.284312E+04 -1.670142E+04
        12   4 -2.629896E+06 -5.717817E+05 -2.616035E+05 -9.204028E+05 -1.670319E+05 -6.227061E+04
        12   5 -2.579472E+06 -3.728550E+05 -1.142599E+05 -9.784036E+05 -1.060191E+05 -3.913091E+04
        12   6 -2.601151E+06 -3.693998E+05 -6.411383E+04 -9.961667E+05 -4.450623E+04 -1.732253E+04
        12   7 -2.661036E+06 -4.874318E+05 -2.511486E+05 -8.299644E+05 -1.661847E+05 -6.198548E+04
        12   8 -2.588902E+06 -3.425179E+05 -1.104342E+05 -9.460047E+05 -1.064286E+05 -3.929178E+04
        12   9 -2.588603E+06 -3.928074E+05 -6.591764E+04 -1.021812E+06 -4.616937E+04 -1.794347E+04
        12  10 -2.598763E+06 -6.560992E+05 -2.721131E+05 -1.010850E+06 -1.690637E-09 -3.090959E-11
        12  11 -2.570052E+06 -4.031912E+05 -1.181087E+05 -1.010806E+06  1.561198E-09  1.194740E-09
        12  12 -2.613699E+06 -3.459894E+05 -6.231350E+04 -9.705220E+05  1.421109E-09  1.201086E-09
        12  13 -2.629927E+06 -5.717934E+05 -2.616635E+05 -9.204112E+05 -1.261610E-09  4.319758E-10
        12  14 -2.579485E+06 -3.728597E+05 -1.142840E+05 -9.784069E+05 -3.321851E-10  9.816178E-10
        12  15 -2.601154E+06 -3.694007E+05 -6.411814E+04 -9.961673E+05  3.895132E-10  3.181324E-10
        12  16 -2.661067E+06 -4.874433E+05 -2.512080E+05 -8.299727E+05  9.604703E-10  7.312763E-10
        12  17 -2.588915E+06 -3.425226E+05 -1.104585E+05 -9.460081E+05 -3.335251E-09  8.964254E-10
        12  18 -2.588606E+06 -3.928083E+05 -6.592228E+04 -1.021813E+06 -2.874273E-09 -3.578417E-10
        12  19 -2.598732E+06 -6.560874E+05 -2.720525E+05 -1.010842E+06  1.678791E+05  6.255543E+04
        12  20 -2.570040E+06 -4.031865E+05 -1.180848E+05 -1.010802E+06  1.056097E+05  3.897009E+04
        12  21 -2.613697E+06 -3.459886E+05 -6.230950E+04 -9.705214E+05  4.284312E+04  1.670142E+04
        12  22 -2.629896E+06 -5.717817E+05 -2.616035E+05 -9.204028E+05  1.670319E+05  6.227061E+04
        12  23 -2.579472E+06 -3.728550E+05 -1.142599E+05 -9.784036E+05  1.060191E+05  3.913091E+04
        12  24 -2.601151E+06 -3.693998E+05 -6.411383E+04 -9.961667E+05  4.450623E+04  1.732253E+04
        12  25 -2.661036E+06 -4.874318E+05 -2.511486E+05 -8.299644E+05  1.661847E+05  6.198548E+04
        12  26 -2.588902E+06 -3.425179E+05 -1.104342E+05 -9.460047E+05  1.064286E+05  3.929178E+04
        12  27 -2.588603E+06 -3.928074E+05 -6.591764E+04 -1.021812E+06  4.616937E+04  1.794347E+04
        13   1 -2.563679E+06 -3.799268E+05 -4.421606E+04 -9.806347E+05 -3.486761E+04 -1.480685E+04
        13   2 -2.542331E+06 -3.552746E+05 -1.440739E+04 -9.711443E+05 -2.105918E+04 -1.120843E+04
        13   3 -2.519874E+06 -3.479897E+05  2.643565E+03 -9.672366E+05 -7.229292E+03 -7.664331E+03
        13   4 -2.592990E+06 -3.871457E+05 -5.051905E+04 -9.848735E+05 -3.614199E+04 -1.528496E+04
        13   5 -2.592783E+06 -3.731316E+05 -2.615217E+04 -9.840759E+05 -2.238560E+04 -1.170587E+04
        13   6 -2.591458E+06 -3.764750E+05 -1.450161E+04 -9.888611E+05 -8.608289E+03 -8.181456E+03
        13   7 -2.622300E+06 -3.943646E+05 -5.682205E+04 -9.891122E+05 -3.741630E+04 -1.576306E+04
        13   8 -2.643233E+06 -3.909884E+05 -3.789703E+04 -9.970065E+05 -2.371190E+04 -1.220327E+04
        13   9 -2.663036E+06 -4.049594E+05 -3.164693E+04 -1.010483E+06 -9.987098E+03 -8.698500E+03
        13  10 -2.563681E+06 -3.799274E+05 -4.421877E+04 -9.806351E+05  5.154507E-10  1.457889E-10
        13  11 -2.542331E+06 -3.552749E+05 -1.440847E+04 -9.711445E+05  1.626793E-10 -1.489525E-11
        13  12 -2.519874E+06 -3.479898E+05  2.643356E+03 -9.672366E+05 -8.505501E-10 -1.267322E-09
        13  13 -2.592991E+06 -3.871463E+05 -5.052195E+04 -9.848740E+05  9.178562E-10  2.562038E-10
        13  14 -2.592784E+06 -3.731319E+05 -2.615338E+04 -9.840761E+05  8.822736E-11  3.084126E-10
        13  15 -2.591458E+06 -3.764751E+05 -1.450187E+04 -9.888612E+05 -6.617273E-09 -9.843395E-10
        13  16 -2.622301E+06 -3.943653E+05 -5.682517E+04 -9.891127E+05  3.441170E-10  6.975460E-11
        13  17 -2.643234E+06 -3.909887E+05 -3.789838E+04 -9.970067E+05 -1.716569E-09  3.320178E-10
        13  18 -2.663037E+06 -4.049595E+05 -3.164727E+04 -1.010483E+06 -4.109220E-09 -8.213249E-10
        13  19 -2.563679E+06 -3.799268E+05 -4.421606E+04 -9.806347E+05  3.486761E+04  1.480685E+04
        13  20 -2.542331E+06 -3.552746E+05 -1.440739E+04 -9.711443E+05  2.105918E+04  1.120843E+04
        13  21 -2.519874E+06 -3.479897E+05  2.643565E+03 -9.672366E+05  7.229292E+03  7.664331E+03
        13  22 -2.592990E+06 -3.871457E+05 -5.051905E+04 -9.848735E+05  3.614199E+04  1.528496E+04
        13  23 -2.592783E+06 -3.731316E+05 -2.615217E+04 -9.840759E+05  2.238560E+04  1.170587E+04
        13  24 -2.591458E+06 -3.764750E+05 -1.450161E+04 -9.888611E+05  8.608289E+03  8.181456E+03
        13  25 -2.622300E+06 -3.943646E+05 -5.682205E+04 -9.891122E+05  3.741630E+04  1.576306E+04
        13  26 -2.643233E+06 -3.909884E+05 -3.789703E+04 -9.970065E+05  2.371190E+04  1.220327E+04
        13  27 -2.663036E+06 -4.049594E+05 -3.164693E+04 -1.010483E+06  9.987098E+03  8.698500E+03
        14   1 -2.499399E+06 -3.432338E+05  1.066014E+04 -9.629174E+05 -4.895120E+03 -7.757459E+03
        14   2 -2.479595E+06 -3.308814E+05  2.092320E+04 -9.529238E+05 -1.341287E+03 -8.063712E+03
        14   3 -2.453741E+06 -3.258162E+05  2.878222E+04 -9.505444E+05  2.209477E+03 -8.360800E+03
        14   4 -2.590802E+06 -3.773475E+05 -1.101627E+04 -9.881472E+05 -6.249852E+03 -8.265568E+03
        14   5 -2.593790E+06 -3.734625E+05 -6.054663E+03 -9.844292E+05 -2.687914E+03 -8.568904E+03
        14   6 -2.590730E+06 -3.768665E+05 -3.503520E+03 -9.883259E+05  8.708271E+02 -8.863118E+03
        14   7 -2.682197E+06 -4.114610E+05 -3.269359E+04 -1.013374E+06 -7.604382E+03 -8.773600E+03
        14   8 -2.707973E+06 -4.160431E+05 -3.303375E+04 -1.015930E+06 -4.034283E+03 -9.073998E+03
        14   9 -2.727701E+06 -4.279157E+05 -3.579083E+04 -1.026100E+06 -4.675101E+02 -9.365318E+03
        14  10 -2.499399E+06 -3.432339E+05  1.065998E+04 -9.629175E+05 -5.550010E-09 -1.888820E-09
        14  11 -2.479595E+06 -3.308814E+05  2.092308E+04 -9.529238E+05  1.471277E-09  1.687017E-09
        14  12 -2.453741E+06 -3.258163E+05  2.878207E+04 -9.505444E+05  1.718296E-09  1.457976E-09
        14  13 -2.590802E+06 -3.773476E+05 -1.101648E+04 -9.881472E+05 -2.129371E-09 -8.196749E-10
        14  14 -2.593790E+06 -3.734626E+05 -6.054815E+03 -9.844292E+05  3.957233E-09  9.813032E-10
        14  15 -2.590730E+06 -3.768666E+05 -3.503669E+03 -9.883259E+05 -1.590551E-09  8.538174E-10
        14  16 -2.682197E+06 -4.114611E+05 -3.269384E+04 -1.013374E+06  1.892009E-09  1.652724E-10
        14  17 -2.707973E+06 -4.160432E+05 -3.303393E+04 -1.015930E+06  4.104949E-09 -1.728045E-10
        14  18 -2.727701E+06 -4.279158E+05 -3.579099E+04 -1.026100E+06  1.314697E-09  1.158373E-10
        14  19 -2.499399E+06 -3.432338E+05  1.066014E+04 -9.629174E+05  4.895120E+03  7.757459E+03
        14  20 -2.479595E+06 -3.308814E+05  2.092320E+04 -9.529238E+05  1.341287E+03  8.063712E+03
        14  21 -2.453741E+06 -3.258162E+05  2.878222E+04 -9.505444E+05 -2.209477E+03  8.360800E+03
        14  22 -2.590802E+06 -3.773475E+05 -1.101627E+04 -9.881472E+05  6.249852E+03  8.265568E+03
        14  23 -2.593790E+06 -3.734625E+05 -6.054663E+03 -9.844292E+05  2.687914E+03  8.568904E+03
        14  24 -2.590730E+06 -3.768665E+05 -3.503520E+03 -9.883259E+05 -8.708271E+02  8.863118E+03
        14  25 -2.682197E+06 -4.114610E+05 -3.269359E+04 -1.013374E+06  7.604382E+03  8.773600E+03
        14  26 -2.707973E+06 -4.160431E+05 -3.303375E+04 -1.015930E+06  4.034283E+03  9.073998E+03
        14  27 -2.727701E+06 -4.279157E+05 -3.579083E+04 -1.026100E+06  4.675101E+02  9.365318E+03
        15   1 -2.435549E+06 -3.191383E+05  3.393919E+04 -9.455776E+05  3.023677E+03 -8.996280E+03
        15   2 -2.416527E+06 -3.076816E+05  3.993415E+04 -9.358002E+05  4.491075E+03 -1.004484E+04
        15   3 -2.391160E+06 -3.027459E+05  4.522066E+04 -9.334636E+05  5.952759E+03 -1.107703E+04
        15   4 -2.590690E+06 -3.768584E+05 -2.768287E+03 -9.882274E+05  1.697859E+03 -9.493871E+03
        15   5 -2.593861E+06 -3.735941E+05 -1.922399E+03 -9.845080E+05  3.180302E+03 -1.053695E+04
        15   6 -2.590690E+06 -3.768539E+05 -1.797064E+03 -9.882297E+05  4.657001E+03 -1.156368E+04
        15   7 -2.745805E+06 -4.345761E+05 -3.947703E+04 -1.030867E+06  3.724161E+02 -9.991322E+03
        15   8 -2.771162E+06 -4.395041E+05 -4.378100E+04 -1.033203E+06  1.869942E+03 -1.102891E+04
        15   9 -2.790181E+06 -4.509593E+05 -4.881779E+04 -1.042980E+06  3.361693E+03 -1.205015E+04
        15  10 -2.435549E+06 -3.191384E+05  3.393902E+04 -9.455776E+05 -9.384455E-10  1.717913E-10
        15  11 -2.416527E+06 -3.076818E+05  3.993393E+04 -9.358001E+05 -2.539317E-09 -1.091144E-09
        15  12 -2.391160E+06 -3.027461E+05  4.522036E+04 -9.334635E+05 -1.797764E-09 -7.436671E-10
        15  13 -2.590690E+06 -3.768585E+05 -2.768461E+03 -9.882274E+05 -1.265027E-09  2.857593E-10
        15  14 -2.593861E+06 -3.735943E+05 -1.922626E+03 -9.845080E+05 -7.468391E-10 -1.966139E-10
        15  15 -2.590691E+06 -3.768540E+05 -1.797355E+03 -9.882296E+05 -2.527873E-09  8.397018E-11
        15  16 -2.745805E+06 -4.345762E+05 -3.947722E+04 -1.030867E+06 -4.526798E-10  5.016388E-11
        15  17 -2.771162E+06 -4.395043E+05 -4.378124E+04 -1.033203E+06 -2.357415E-09  5.272533E-10
        15  18 -2.790181E+06 -4.509594E+05 -4.881808E+04 -1.042980E+06  1.044832E-09  9.337569E-10
        15  19 -2.435549E+06 -3.191383E+05  3.393919E+04 -9.455776E+05 -3.023677E+03  8.996280E+03
        15  20 -2.416527E+06 -3.076816E+05  3.993415E+04 -9.358002E+05 -4.491075E+03  1.004484E+04
        15  21 -2.391160E+06 -3.027459E+05  4.522066E+04 -9.334636E+05 -5.952759E+03  1.107703E+04
        15  22 -2.590690E+06 -3.768584E+05 -2.768287E+03 -9.882274E+05 -1.697859E+03  9.493871E+03
        15  23 -2.593861E+06 -3.735941E+05 -1.922399E+03 -9.845080E+05 -3.180302E+03  1.053695E+04
        15  24 -2.590690E+06 -3.768539E+05 -1.797064E+03 -9.882297E+05 -4.657001E+03  1.156368E+04
        15  25 -2.745805E+06 -4.345761E+05 -3.947703E+04 -1.030867E+06 -3.724161E+02  9.991322E+03
        15  26 -2.771162E+06 -4.395041E+05 -4.378100E+04 -1.033203E+06 -1.869942E+03  1.102891E+04
        15  27 -2.790181E+06 -4.509593E+05 -4.881779E+04 -1.042980E+06 -3.361693E+03  1.205015E+04
        16   1 -2.373750E+06 -2.961818E+05  4.932498E+04 -9.286257E+05  6.547516E+03 -1.176269E+04
        16   2 -2.355463E+06 -2.851929E+05  5.335438E+04 -9.192437E+05  8.462542E+03 -1.258133E+04
        16   3 -2.331155E+06 -2.804991E+05  5.632160E+04 -9.170131E+05  1.036929E+04 -1.337650E+04
        16   4 -2.590764E+06 -3.767983E+05 -1.966894E+03 -9.881684E+05  5.268791E+03 -1.224306E+04
        16   5 -2.593776E+06 -3.736601E+05 -2.874732E+03 -9.845894E+05  7.205246E+03 -1.305388E+04
        16   6 -2.590772E+06 -3.768212E+05 -4.862037E+03 -9.881618E+05  9.133376E+03 -1.384124E+04
        16   7 -2.807730E+06 -4.574111E+05 -5.326178E+04 -1.047692E+06  3.990560E+03 -1.272325E+04
        16   8 -2.832032E+06 -4.621231E+05 -5.910785E+04 -1.049912E+06  5.948475E+03 -1.352623E+04
        16   9 -2.850323E+06 -4.731389E+05 -6.605081E+04 -1.059284E+06  7.898019E+03 -1.430576E+04
        16  10 -2.373750E+06 -2.961819E+05  4.932464E+04 -9.286256E+05  8.296106E-10  2.053369E-10
        16  11 -2.355463E+06 -2.851931E+05  5.335395E+04 -9.192436E+05  2.001747E-10 -8.551393E-10
        16  12 -2.331155E+06 -2.804993E+05  5.632106E+04 -9.170129E+05 -1.750632E-09 -5.601743E-10
        16  13 -2.590764E+06 -3.767985E+05 -1.967228E+03 -9.881684E+05 -9.373559E-10 -2.956696E-11
        16  14 -2.593776E+06 -3.736603E+05 -2.875149E+03 -9.845893E+05  1.559611E-09 -8.518807E-10
        16  15 -2.590772E+06 -3.768214E+05 -4.862554E+03 -9.881617E+05  1.850340E-09 -5.313294E-10
        16  16 -2.807730E+06 -4.574113E+05 -5.326211E+04 -1.047692E+06  5.479409E-10 -1.403470E-10
        16  17 -2.832032E+06 -4.621233E+05 -5.910826E+04 -1.049912E+06  1.241218E-09 -6.418146E-10
        16  18 -2.850323E+06 -4.731391E+05 -6.605131E+04 -1.059284E+06  1.213382E-09 -2.474634E-10
        16  19 -2.373750E+06 -2.961818E+05  4.932498E+04 -9.286257E+05 -6.547516E+03  1.176269E+04
        16  20 -2.355463E+06 -2.851929E+05  5.335438E+04 -9.192437E+05 -8.462542E+03  1.258133E+04
        16  21 -2.331155E+06 -2.804991E+05  5.632160E+04 -9.170131E+05 -1.036929E+04  1.337650E+04
        16  22 -2.590764E+06 -3.767983E+05 -1.966894E+03 -9.881684E+05 -5.268791E+03  1.224306E+04
        16  23 -2.593776E+06 -3.736601E+05 -2.874732E+03 -9.845894E+05 -7.205246E+03  1.305388E+04
        16  24 -2.590772E+06 -3.768212E+05 -4.862037E+03 -9.881618E+05 -9.133376E+03  1.384124E+04
        16  25 -2.807730E+06 -4.574111E+05 -5.326178E+04 -1.047692E+06 -3.990560E+03  1.272325E+04
        16  26 -2.832032E+06 -4.621231E+05 -5.910785E+04 -1.049912E+06 -5.948475E+03  1.352623E+04
        16  27 -2.850323E+06 -4.731389E+05 -6.605081E+04 -1.059284E+06 -7.898019E+03  1.430576E+04
        17   1 -2.314628E+06 -2.742876E+05  5.886906E+04 -9.126159E+05  1.156673E+04 -1.379422E+04
        17   2 -2.297023E+06 -2.637280E+05  5.849032E+04 -9.035335E+05  1.770264E+04 -1.293834E+04
        17   3 -2.274676E+06 -2.602355E+05  5.360014E+04 -9.011305E+05  2.381966E+04 -1.203038E+04
        17   4 -2.591016E+06 -3.766852E+05 -6.383121E+03 -9.881743E+05  1.034643E+04 -1.425324E+04
        17   5 -2.593456E+06 -3.736175E+05 -1.142732E+04 -9.846606E+05  1.652853E+04 -1.338026E+04
        17   6 -2.591164E+06 -3.776270E+05 -2.102132E+04 -9.878269E+05  2.269154E+04 -1.245525E+04
        17   7 -2.867328E+06 -4.790774E+05 -7.164068E+04 -1.063702E+06  9.126712E+03 -1.471203E+04
        17   8 -2.889801E+06 -4.835004E+05 -8.135093E+04 -1.065752E+06  1.535504E+04 -1.382194E+04
        17   9 -2.907550E+06 -4.950107E+05 -9.564935E+04 -1.074482E+06  2.156405E+04 -1.287990E+04
        17  10 -2.314628E+06 -2.742879E+05  5.886845E+04 -9.126158E+05 -5.987333E-10 -1.732254E-10
        17  11 -2.297024E+06 -2.637283E+05  5.848942E+04 -9.035333E+05 -4.740829E-09  7.751241E-10
        17  12 -2.274676E+06 -2.602358E+05  5.359880E+04 -9.011303E+05 -8.665514E-10  7.432045E-10
        17  13 -2.591016E+06 -3.766855E+05 -6.383704E+03 -9.881741E+05 -8.766915E-10  5.117511E-11
        17  14 -2.593457E+06 -3.736178E+05 -1.142817E+04 -9.846604E+05 -2.030308E-09  4.492653E-10
        17  15 -2.591164E+06 -3.776273E+05 -2.102258E+04 -9.878267E+05 -2.676878E-09  4.313088E-10
        17  16 -2.867328E+06 -4.790776E+05 -7.164124E+04 -1.063702E+06 -7.335928E-10  1.941042E-10
        17  17 -2.889801E+06 -4.835007E+05 -8.135173E+04 -1.065752E+06  8.374972E-10  2.531374E-10
        17  18 -2.907550E+06 -4.950110E+05 -9.565053E+04 -1.074482E+06 -1.006395E-09 -7.673263E-12
        17  19 -2.314628E+06 -2.742876E+05  5.886906E+04 -9.126159E+05 -1.156673E+04  1.379422E+04
        17  20 -2.297023E+06 -2.637280E+05  5.849032E+04 -9.035335E+05 -1.770264E+04  1.293834E+04
        17  21 -2.274676E+06 -2.602355E+05  5.360014E+04 -9.011305E+05 -2.381966E+04  1.203038E+04
        17  22 -2.591016E+06 -3.766852E+05 -6.383121E+03 -9.881743E+05 -1.034643E+04  1.425324E+04
        17  23 -2.593456E+06 -3.736175E+05 -1.142732E+04 -9.846606E+05 -1.652853E+04  1.338026E+04
        17  24 -2.591164E+06 -3.776270E+05 -2.102132E+04 -9.878269E+05 -2.269154E+04  1.245525E+04
        17  25 -2.867328E+06 -4.790774E+05 -7.164068E+04 -1.063702E+06 -9.126712E+03  1.471203E+04
        17  26 -2.889801E+06 -4.835004E+05 -8.135093E+04 -1.065752E+06 -1.535504E+04  1.382194E+04
        17  27 -2.907550E+06 -4.950107E+05 -9.564935E+04 -1.074482E+06 -2.156405E+04  1.287990E+04
        18   1 -2.257991E+06 -2.550496E+05  5.068739E+04 -9.008505E+05  2.812779E+04 -1.127274E+04
        18   2 -2.242107E+06 -2.415418E+05  3.273224E+04 -8.863781E+05  5.335367E+04 -2.979711E+03
        18   3 -2.231451E+06 -2.536555E+05 -9.150165E+03 -8.739444E+05  7.836682E+04  5.881813E+03
        18   4 -2.592558E+06 -3.758167E+05 -2.772654E+04 -9.890346E+05  2.687140E+04 -1.174586E+04
        18   5 -2.591368E+06 -3.731800E+05 -5.010170E+04 -9.841822E+05  5.261739E+04 -3.257848E+03
        18   6 -2.595517E+06 -3.962773E+05 -9.682818E+04 -9.813686E+05  7.814988E+04  5.798011E+03
        18   7 -2.927014E+06 -4.965781E+05 -1.061488E+05 -1.077176E+06  2.561575E+04 -1.221872E+04
        18   8 -2.940508E+06 -5.048090E+05 -1.329446E+05 -1.081936E+06  5.188156E+04 -3.535815E+03
        18   9 -2.959451E+06 -5.388857E+05 -1.845159E+05 -1.088734E+06  7.793307E+04  5.714263E+03
        18  10 -2.257992E+06 -2.550499E+05  5.068566E+04 -9.008502E+05 -8.437667E-10 -1.659725E-10
        18  11 -2.242110E+06 -2.415426E+05  3.272686E+04 -8.863780E+05  8.474514E-10 -7.243638E-10
        18  12 -2.231457E+06 -2.536572E+05 -9.161814E+03 -8.739448E+05  9.554376E-10 -2.638975E-10
        18  13 -2.592559E+06 -3.758170E+05 -2.772816E+04 -9.890344E+05 -3.114894E-09 -5.317554E-11
        18  14 -2.591371E+06 -3.731808E+05 -5.010695E+04 -9.841820E+05 -2.647453E-09 -2.830537E-10
        18  15 -2.595524E+06 -3.962790E+05 -9.683977E+04 -9.813690E+05  1.003436E-10 -1.164819E-09
        18  16 -2.927015E+06 -4.965784E+05 -1.061503E+05 -1.077176E+06 -1.334426E-09  1.899118E-10
        18  17 -2.940511E+06 -5.048097E+05 -1.329497E+05 -1.081936E+06 -1.502341E-10 -9.982367E-12
        18  18 -2.959457E+06 -5.388874E+05 -1.845275E+05 -1.088734E+06 -4.247280E-10 -1.134465E-09
        18  19 -2.257991E+06 -2.550496E+05  5.068739E+04 -9.008505E+05 -2.812779E+04  1.127274E+04
        18  20 -2.242107E+06 -2.415418E+05  3.273224E+04 -8.863781E+05 -5.335367E+04  2.979711E+03
        18  21 -2.231451E+06 -2.536555E+05 -9.150165E+03 -8.739444E+05 -7.836682E+04 -5.881813E+03
        18  22 -2.592558E+06 -3.758167E+05 -2.772654E+04 -9.890346E+05 -2.687140E+04  1.174586E+04
        18  23 -2.591368E+06 -3.731800E+05 -5.010170E+04 -9.841822E+05 -5.261739E+04  3.257848E+03
        18  24 -2.595517E+06 -3.962773E+05 -9.682818E+04 -9.813686E+05 -7.814988E+04 -5.798011E+03
        18  25 -2.927014E+06 -4.965781E+05 -1.061488E+05 -1.077176E+06 -2.561575E+04  1.221872E+04
        18  26 -2.940508E+06 -5.048090E+05 -1.329446E+05 -1.081936E+06 -5.188156E+04  3.535815E+03
        18  27 -2.959451E+06 -5.388857E+05 -1.845159E+05 -1.088734E+06 -7.793307E+04 -5.714263E+03
        19   1 -2.188055E+06 -2.586288E+05 -3.230208E+04 -9.421235E+05  9.772483E+04  1.127802E+04
        19   2 -2.213041E+06 -1.761894E+05 -1.224922E+05 -8.095086E+05  2.029100E+05  5.332755E+04
        19   3 -2.382455E+06 -4.574472E+05 -3.900682E+05 -5.898879E+05  3.036148E+05  1.072945E+05
        19   4 -2.611297E+06 -3.621185E+05 -1.228921E+05 -1.002862E+06  9.409856E+04  9.921990E+03
        19   5 -2.565654E+06 -3.728720E+05 -2.190126E+05 -9.735407E+05  2.103948E+05  5.611817E+04
        19   6 -2.666782E+06 -7.497251E+05 -5.014316E+05 -8.571709E+05  3.222201E+05  1.141882E+05
        19   7 -3.034354E+06 -4.656114E+05 -2.134899E+05 -1.063573E+06  9.047500E+04  8.566184E+03
        19   8 -2.918129E+06 -5.694905E+05 -3.155417E+05 -1.137472E+06  2.178750E+05  5.890505E+04
        19   9 -2.950943E+06 -1.041745E+06 -6.127870E+05 -1.124293E+06  3.408164E+05  1.210645E+05
        19  10 -2.188065E+06 -2.586315E+05 -3.232034E+04 -9.421244E+05 -8.324221E-10 -4.785222E-10
        19  11 -2.213087E+06 -1.762036E+05 -1.225753E+05 -8.095173E+05 -1.287064E-09 -5.335076E-10
        19  12 -2.382557E+06 -4.574844E+05 -3.902639E+05 -5.899142E+05 -1.547852E-09 -5.799487E-10
        19  13 -2.611307E+06 -3.621210E+05 -1.229090E+05 -1.002863E+06 -1.070234E-09 -6.210956E-10
        19  14 -2.565702E+06 -3.728874E+05 -2.191021E+05 -9.735502E+05 -7.282000E-10 -9.756441E-10
        19  15 -2.666897E+06 -7.497672E+05 -5.016523E+05 -8.572006E+05 -3.889740E-10 -3.252894E-10
        19  16 -3.034363E+06 -4.656137E+05 -2.135055E+05 -1.063574E+06 -2.165796E-10 -9.523552E-10
        19  17 -2.918181E+06 -5.695071E+05 -3.156379E+05 -1.137482E+06  1.549892E-09  2.298834E-10
        19  18 -2.951072E+06 -1.041792E+06 -6.130342E+05 -1.124326E+06 -1.098799E-09  2.312747E-10
        19  19 -2.188055E+06 -2.586288E+05 -3.230208E+04 -9.421235E+05 -9.772483E+04 -1.127802E+04
        19  20 -2.213041E+06 -1.761894E+05 -1.224922E+05 -8.095086E+05 -2.029100E+05 -5.332755E+04
        19  21 -2.382455E+06 -4.574472E+05 -3.900682E+05 -5.898879E+05 -3.036148E+05 -1.072945E+05
        19  22 -2.611297E+06 -3.621185E+05 -1.228921E+05 -1.002862E+06 -9.409856E+04 -9.921990E+03
        19  23 -2.565654E+06 -3.728720E+05 -2.190126E+05 -9.735407E+05 -2.103948E+05 -5.611817E+04
        19  24 -2.666782E+06 -7.497251E+05 -5.014316E+05 -8.571709E+05 -3.222201E+05 -1.141882E+05
        19  25 -3.034354E+06 -4.656114E+05 -2.134899E+05 -1.063573E+06 -9.047500E+04 -8.566184E+03
        19  26 -2.918129E+06 -5.694905E+05 -3.155417E+05 -1.137472E+06 -2.178750E+05 -5.890505E+04
        19  27 -2.950943E+06 -1.041745E+06 -6.127870E+05 -1.124293E+06 -3.408164E+05 -1.210645E+05
        20   1 -6.552024E+05  3.289008E+04  3.903865E+04  1.652358E+04  2.687311E+04  7.159597E-01
        20   2 -6.595152E+05  9.772107E+02  1.794647E+04  5.998417E+03  1.740528E+04  1.683393E-01
        20   3 -6.552139E+05 -1.424026E+03  1.040122E+04 -4.526484E+03  7.937574E+03 -5.793133E-02
        20   4 -6.552027E+05  3.288957E+04  3.903858E+04  7.153392E-09  2.687311E+04  2.191347E-10
        20   5 -6.595152E+05  9.771430E+02  1.794646E+04 -1.689312E-09  1.740528E+04  5.164049E-10
        20   6 -6.552139E+05 -1.424065E+03  1.040121E+04  2.399828E-09  7.937574E+03  1.368198E-10
        20   7 -6.552024E+05  3.289008E+04  3.903865E+04 -1.652358E+04  2.687311E+04 -7.159597E-01
        20   8 -6.595152E+05  9.772107E+02  1.794647E+04 -5.998417E+03  1.740528E+04 -1.683393E-01
        20   9 -6.552139E+05 -1.424026E+03  1.040122E+04  4.526484E+03  7.937574E+03  5.793133E-02
        20  10 -6.552032E+05  3.288989E+04  3.903729E+04  1.652358E+04 -3.273061E-10 -1.573864E-10
        20  11 -6.595155E+05  9.771293E+02  1.794590E+04  5.998417E+03  3.074583E-10 -2.417856E-10
        20  12 -6.552140E+05 -1.424043E+03  1.040110E+04 -4.526484E+03  1.446023E-10  2.324281E-10
        20  13 -6.552035E+05  3.288938E+04  3.903722E+04  2.911754E-09 -9.999502E-10  1.055344E-10
        20  14 -6.595156E+05  9.770616E+02  1.794589E+04  4.724520E-10 -3.601464E-28  2.883956E-10
        20  15 -6.552140E+05 -1.424082E+03  1.040109E+04  7.182886E-09 -1.820617E-09  1.767055E-10
        20  16 -6.552032E+05  3.288989E+04  3.903729E+04 -1.652358E+04 -3.435505E-10  3.568653E-10
        20  17 -6.595155E+05  9.771293E+02  1.794590E+04 -5.998417E+03  9.657650E-11  8.425460E-10
        20  18 -6.552140E+05 -1.424043E+03  1.040110E+04  4.526484E+03 -9.964076E-10  1.145416E-10
        20  19 -6.552024E+05  3.289008E+04  3.903865E+04  1.652358E+04 -2.687311E+04 -7.159597E-01
        20  20 -6.595152E+05  9.772107E+02  1.794647E+04  5.998417E+03 -1.740528E+04 -1.683393E-01
        20  21 -6.552139E+05 -1.424026E+03  1.040122E+04 -4.526484E+03 -7.937574E+03  5.793133E-02
        20  22 -6.552027E+05  3.288957E+04  3.903858E+04  7.301603E-09 -2.687311E+04 -9.729511E-12
        20  23 -6.595152E+05  9.771430E+02  1.794646E+04  4.840141E-10 -1.740528E+04  5.556313E-11
        20  24 -6.552139E+05 -1.424065E+03  1.040121E+04  2.552316E-09 -7.937574E+03  2.340018E-10
        20  25 -6.552024E+05  3.289008E+04  3.903865E+04 -1.652358E+04 -2.687311E+04  7.159597E-01
        20  26 -6.595152E+05  9.772107E+02  1.794647E+04 -5.998417E+03 -1.740528E+04  1.683393E-01
        20  27 -6.552139E+05 -1.424026E+03  1.040122E+04  4.526484E+03 -7.937574E+03 -5.793133E-02
        21   1 -6.569777E+05  1.571760E+03  8.212793E+03  5.352814E+02  6.489193E+03  5.600654E-03
        21   2 -6.573131E+05 -1.443141E+01  4.469512E+03  1.115430E+02  4.251311E+03  7.645939E-04
        21   3 -6.569790E+05 -8.987918E+01  2.562088E+03 -3.122024E+02  2.013401E+03 -1.013519E-03
        21   4 -6.569777E+05  1.571760E+03  8.212793E+03  8.953502E-09  6.489193E+03 -4.502879E-10
        21   5 -6.573131E+05 -1.443143E+01  4.469512E+03 -2.188260E-09  4.251311E+03 -4.824179E-10
        21   6 -6.569790E+05 -8.987936E+01  2.562088E+03 -6.601786E-09  2.013401E+03  1.147200E-09
        21   7 -6.569777E+05  1.571760E+03  8.212793E+03 -5.352814E+02  6.489193E+03 -5.600655E-03
        21   8 -6.573131E+05 -1.443141E+01  4.469512E+03 -1.115430E+02  4.251311E+03 -7.645949E-04
        21   9 -6.569790E+05 -8.987918E+01  2.562088E+03  3.122024E+02  2.013401E+03  1.013521E-03
        21  10 -6.569777E+05  1.571749E+03  8.212714E+03  5.352814E+02 -6.200454E-10  5.456173E-10
        21  11 -6.573131E+05 -1.443627E+01  4.469478E+03  1.115430E+02  3.950808E-10  5.772891E-11
        21  12 -6.569790E+05 -8.988027E+01  2.562081E+03 -3.122024E+02  2.258342E-09 -8.541500E-10
        21  13 -6.569777E+05  1.571748E+03  8.212714E+03  6.827461E-09 -2.000797E-09  1.447474E-10
        21  14 -6.573131E+05 -1.443629E+01  4.469478E+03  9.261733E-10 -2.379133E-10 -3.553715E-11
        21  15 -6.569790E+05 -8.988045E+01  2.562080E+03 -4.422062E-09 -1.835703E-09 -7.771984E-10
        21  16 -6.569777E+05  1.571749E+03  8.212714E+03 -5.352814E+02 -4.314215E-10 -2.211803E-10
        21  17 -6.573131E+05 -1.443627E+01  4.469478E+03 -1.115430E+02 -7.386019E-10 -9.318812E-11
        21  18 -6.569790E+05 -8.988027E+01  2.562081E+03  3.122024E+02 -1.645269E-09 -7.131845E-10
        21  19 -6.569777E+05  1.571760E+03  8.212793E+03  5.352814E+02 -6.489193E+03 -5.600653E-03
        21  20 -6.573131E+05 -1.443141E+01  4.469512E+03  1.115430E+02 -4.251311E+03 -7.645937E-04
        21  21 -6.569790E+05 -8.987918E+01  2.562088E+03 -3.122024E+02 -2.013401E+03  1.013517E-03
        21  22 -6.569777E+05  1.571760E+03  8.212793E+03  6.836918E-09 -6.489193E+03  7.355556E-10
        21  23 -6.573131E+05 -1.443143E+01  4.469512E+03 -2.629907E-10 -4.251311E+03  3.947732E-10
        21  24 -6.569790E+05 -8.987936E+01  2.562088E+03 -5.749976E-09 -2.013401E+03 -2.702370E-09
        21  25 -6.569777E+05  1.571760E+03  8.212793E+03 -5.352814E+02 -6.489193E+03  5.600655E-03
        21  26 -6.573131E+05 -1.443141E+01  4.469512E+03 -1.115430E+02 -4.251311E+03  7.645946E-04
        21  27 -6.569790E+05 -8.987918E+01  2.562088E+03  3.122024E+02 -2.013401E+03 -1.013522E-03
        22   1 -6.571077E+05  5.559288E+01  1.949884E+03 -4.892494E+01  1.615924E+03 -1.274711E-04
        22   2 -6.571528E+05 -1.614957E+01  1.083644E+03 -4.380842E+01  1.079231E+03 -7.623148E-05
        22   3 -6.571080E+05 -8.188417E+00  5.870197E+02 -3.869189E+01  5.425385E+02 -3.384701E-05
        22   4 -6.571077E+05  5.559288E+01  1.949884E+03  6.917589E-09  1.615924E+03  1.332552E-09
        22   5 -6.571528E+05 -1.614957E+01  1.083644E+03  1.326102E-09  1.079231E+03  8.616932E-11
        22   6 -6.571080E+05 -8.188419E+00  5.870197E+02 -4.797423E-09  5.425385E+02  6.324550E-11
        22   7 -6.571077E+05  5.559288E+01  1.949884E+03  4.892494E+01  1.615924E+03  1.274737E-04
        22   8 -6.571528E+05 -1.614957E+01  1.083644E+03  4.380842E+01  1.079231E+03  7.623162E-05
        22   9 -6.571080E+05 -8.188417E+00  5.870197E+02  3.869189E+01  5.425385E+02  3.384713E-05
        22  10 -6.571077E+05  5.559218E+01  1.949879E+03 -4.892494E+01 -1.848235E-09 -2.534360E-10
        22  11 -6.571528E+05 -1.614988E+01  1.083642E+03 -4.380842E+01  1.409304E-10  1.005816E-09
        22  12 -6.571080E+05 -8.188496E+00  5.870192E+02 -3.869189E+01  2.035293E-09 -6.171549E-10
        22  13 -6.571077E+05  5.559217E+01  1.949879E+03  4.166858E-09 -8.409413E-12 -4.617140E-10
        22  14 -6.571528E+05 -1.614988E+01  1.083642E+03 -7.883815E-10 -2.513518E-09  5.925457E-10
        22  15 -6.571080E+05 -8.188498E+00  5.870192E+02 -4.137000E-09  9.855036E-11 -1.887052E-10
        22  16 -6.571077E+05  5.559218E+01  1.949879E+03  4.892494E+01  7.754810E-10 -6.184871E-10
        22  17 -6.571528E+05 -1.614988E+01  1.083642E+03  4.380842E+01  1.240373E-10  1.926882E-10
        22  18 -6.571080E+05 -8.188496E+00  5.870192E+02  3.869189E+01 -1.067478E-09  2.048637E-10
        22  19 -6.571077E+05  5.559288E+01  1.949884E+03 -4.892494E+01 -1.615924E+03  1.274705E-04
        22  20 -6.571528E+05 -1.614957E+01  1.083644E+03 -4.380842E+01 -1.079231E+03  7.623367E-05
        22  21 -6.571080E+05 -8.188417E+00  5.870197E+02 -3.869189E+01 -5.425385E+02  3.384585E-05
        22  22 -6.571077E+05  5.559288E+01  1.949884E+03  7.879415E-09 -1.615924E+03 -2.239956E-09
        22  23 -6.571528E+05 -1.614957E+01  1.083644E+03  1.396530E-09 -1.079231E+03  1.116574E-09
        22  24 -6.571080E+05 -8.188419E+00  5.870197E+02 -5.626800E-09 -5.425385E+02 -4.176474E-10
        22  25 -6.571077E+05  5.559288E+01  1.949884E+03  4.892494E+01 -1.615924E+03 -1.274751E-04
        22  26 -6.571528E+05 -1.614957E+01  1.083644E+03  4.380842E+01 -1.079231E+03 -7.623131E-05
        22  27 -6.571080E+05 -8.188417E+00  5.870197E+02  3.869189E+01 -5.425385E+02 -3.384670E-05
        23   1 -6.571255E+05 -2.619479E+00  4.157658E+02 -2.401675E+01  4.520860E+02 -1.750704E-05
        23   2 -6.571311E+05 -2.651752E+00  1.559928E+02 -2.049031E+01  3.749808E+02 -1.238885E-05
        23   3 -6.571256E+05  1.375973E+00 -5.252897E+01 -1.696391E+01  2.978768E+02 -8.147188E-06
        23   4 -6.571255E+05 -2.619480E+00  4.157658E+02  2.778916E-09  4.520860E+02 -9.238417E-11
        23   5 -6.571311E+05 -2.651753E+00  1.559928E+02 -7.585088E-09  3.749808E+02 -4.736652E-10
        23   6 -6.571256E+05  1.375973E+00 -5.252897E+01 -1.792451E-09  2.978768E+02  4.948632E-10
        23   7 -6.571255E+05 -2.619479E+00  4.157658E+02  2.401675E+01  4.520860E+02  1.750686E-05
        23   8 -6.571311E+05 -2.651752E+00  1.559928E+02  2.049031E+01  3.749808E+02  1.238780E-05
        23   9 -6.571256E+05  1.375973E+00 -5.252897E+01  1.696391E+01  2.978768E+02  8.148184E-06
        23  10 -6.571255E+05 -2.619534E+00  4.157654E+02 -2.401675E+01  9.193735E-10 -9.427667E-10
        23  11 -6.571311E+05 -2.651790E+00  1.559925E+02 -2.049031E+01  6.666923E-10  4.237714E-10
        23  12 -6.571256E+05  1.375950E+00 -5.252914E+01 -1.696391E+01 -2.317057E-09  2.726866E-10
        23  13 -6.571255E+05 -2.619535E+00  4.157654E+02 -3.515131E-09 -1.237505E-09 -5.178415E-10
        23  14 -6.571311E+05 -2.651791E+00  1.559925E+02 -4.244648E-09  1.103583E-10  9.198229E-11
        23  15 -6.571256E+05  1.375949E+00 -5.252914E+01 -8.740474E-09  4.853975E-10  4.099719E-10
        23  16 -6.571255E+05 -2.619534E+00  4.157654E+02  2.401675E+01  1.844867E-09 -5.863339E-11
        23  17 -6.571311E+05 -2.651790E+00  1.559925E+02  2.049031E+01 -1.624614E-09 -2.556278E-10
        23  18 -6.571256E+05  1.375950E+00 -5.252914E+01  1.696391E+01 -1.341786E-09  5.231305E-10
        23  19 -6.571255E+05 -2.619479E+00  4.157658E+02 -2.401675E+01 -4.520860E+02  1.750519E-05
        23  20 -6.571311E+05 -2.651752E+00  1.559928E+02 -2.049031E+01 -3.749808E+02  1.238977E-05
        23  21 -6.571256E+05  1.375973E+00 -5.252897E+01 -1.696391E+01 -2.978768E+02  8.147769E-06
        23  22 -6.571255E+05 -2.619480E+00  4.157658E+02  9.850408E-10 -4.520860E+02 -9.303744E-10
        23  23 -6.571311E+05 -2.651753E+00  1.559928E+02 -5.203605E-09 -3.749808E+02  6.687053E-10
        23  24 -6.571256E+05  1.375973E+00 -5.252897E+01  2.600502E-09 -2.978768E+02  3.248880E-10
        23  25 -6.571255E+05 -2.619479E+00  4.157658E+02  2.401675E+01 -4.520860E+02 -1.750711E-05
        23  26 -6.571311E+05 -2.651752E+00  1.559928E+02  2.049031E+01 -3.749808E+02 -1.238835E-05
        23  27 -6.571256E+05  1.375973E+00 -5.252897E+01  1.696391E+01 -2.978768E+02 -8.147184E-06
        24   1 -6.571345E+05  1.063716E+00 -1.587878E+02 -1.783537E+01  3.170461E+02 -9.117481E-06
        24   2 -6.571201E+05  7.222615E+00 -4.174960E+02 -2.833489E+01  5.233493E+02 -2.391072E-05
        24   3 -6.571346E+05  5.335453E+00 -8.126321E+02 -3.883457E+01  7.296555E+02 -4.568725E-05
        24   4 -6.571345E+05  1.063715E+00 -1.587878E+02  6.977991E-09  3.170461E+02  3.637013E-10
        24   5 -6.571201E+05  7.222613E+00 -4.174960E+02 -7.675954E-09  5.233493E+02 -7.622244E-10
        24   6 -6.571346E+05  5.335450E+00 -8.126321E+02 -6.552210E-10  7.296555E+02  3.431637E-11
        24   7 -6.571345E+05  1.063716E+00 -1.587878E+02  1.783537E+01  3.170461E+02  9.118137E-06
        24   8 -6.571201E+05  7.222615E+00 -4.174960E+02  2.833489E+01  5.233493E+02  2.390914E-05
        24   9 -6.571346E+05  5.335453E+00 -8.126321E+02  3.883457E+01  7.296555E+02  4.568731E-05
        24  10 -6.571345E+05  1.063689E+00 -1.587880E+02 -1.783537E+01 -9.728798E-11 -3.231355E-10
        24  11 -6.571201E+05  7.222541E+00 -4.174965E+02 -2.833489E+01 -2.429804E-09 -3.893414E-10
        24  12 -6.571346E+05  5.335310E+00 -8.126331E+02 -3.883457E+01 -1.214816E-09  7.290671E-10
        24  13 -6.571345E+05  1.063688E+00 -1.587880E+02  5.649019E-09 -1.681881E-11  1.335872E-10
        24  14 -6.571201E+05  7.222540E+00 -4.174965E+02  9.344066E-10  1.983669E-09 -3.576559E-10
        24  15 -6.571346E+05  5.335307E+00 -8.126331E+02  3.201455E-09 -1.212778E-09  8.394054E-11
        24  16 -6.571345E+05  1.063689E+00 -1.587880E+02  1.783537E+01  1.355792E-09  5.503423E-10
        24  17 -6.571201E+05  7.222541E+00 -4.174965E+02  2.833489E+01  1.202688E-09 -3.404895E-10
        24  18 -6.571346E+05  5.335310E+00 -8.126331E+02  3.883457E+01  7.642991E-10 -5.601734E-10
        24  19 -6.571345E+05  1.063716E+00 -1.587878E+02 -1.783537E+01 -3.170461E+02  9.117000E-06
        24  20 -6.571201E+05  7.222615E+00 -4.174960E+02 -2.833489E+01 -5.233493E+02  2.391011E-05
        24  21 -6.571346E+05  5.335453E+00 -8.126321E+02 -3.883457E+01 -7.296555E+02  4.568878E-05
        24  22 -6.571345E+05  1.063715E+00 -1.587878E+02  1.509220E-08 -3.170461E+02 -8.534230E-11
        24  23 -6.571201E+05  7.222613E+00 -4.174960E+02  5.232754E-09 -5.233493E+02  5.514969E-11
        24  24 -6.571346E+05  5.335450E+00 -8.126321E+02  3.838575E-09 -7.296555E+02  1.430287E-10
        24  25 -6.571345E+05  1.063716E+00 -1.587878E+02  1.783537E+01 -3.170461E+02 -9.117117E-06
        24  26 -6.571201E+05  7.222615E+00 -4.174960E+02  2.833489E+01 -5.233493E+02 -2.390998E-05
        24  27 -6.571346E+05  5.335453E+00 -8.126321E+02  3.883457E+01 -7.296555E+02 -4.568849E-05
        25   1 -6.571638E+05  1.533982E+01 -1.093424E+03 -6.493671E+01  9.016705E+02 -9.440526E-05
        25   2 -6.570839E+05  2.900707E+01 -1.938972E+03 -7.502174E+01  1.861934E+03 -2.252242E-04
        25   3 -6.571642E+05 -9.746951E+01 -3.445221E+03 -8.510680E+01  2.822197E+03 -3.872738E-04
        25   4 -6.571638E+05  1.533981E+01 -1.093424E+03  2.288608E-09  9.016705E+02  9.108740E-10
        25   5 -6.570839E+05  2.900706E+01 -1.938972E+03 -5.056906E-09  1.861934E+03  8.698882E-10
        25   6 -6.571642E+05 -9.746953E+01 -3.445221E+03  1.020807E-08  2.822197E+03 -7.689975E-10
        25   7 -6.571638E+05  1.533982E+01 -1.093424E+03  6.493671E+01  9.016705E+02  9.440699E-05
        25   8 -6.570839E+05  2.900707E+01 -1.938972E+03  7.502174E+01  1.861934E+03  2.252259E-04
        25   9 -6.571642E+05 -9.746951E+01 -3.445221E+03  8.510680E+01  2.822197E+03  3.872723E-04
        25  10 -6.571638E+05  1.533960E+01 -1.093425E+03 -6.493671E+01 -1.205548E-09  1.295214E-09
        25  11 -6.570839E+05  2.900614E+01 -1.938979E+03 -7.502174E+01  7.463614E-10  8.852793E-10
        25  12 -6.571643E+05 -9.747165E+01 -3.445236E+03 -8.510680E+01  1.279978E-09 -6.033529E-10
        25  13 -6.571638E+05  1.533959E+01 -1.093425E+03 -2.945574E-09  1.270938E-10  6.147767E-10
        25  14 -6.570839E+05  2.900613E+01 -1.938979E+03 -5.189356E-09 -1.733715E-09  6.413851E-10
        25  15 -6.571643E+05 -9.747167E+01 -3.445236E+03  4.416762E-09 -3.358570E-10 -4.629094E-10
        25  16 -6.571638E+05  1.533960E+01 -1.093425E+03  6.493671E+01  7.176600E-10 -9.798468E-11
        25  17 -6.570839E+05  2.900614E+01 -1.938979E+03  7.502174E+01 -1.316508E-09  4.513370E-10
        25  18 -6.571643E+05 -9.747165E+01 -3.445236E+03  8.510680E+01 -2.480544E-09 -3.126479E-10
        25  19 -6.571638E+05  1.533982E+01 -1.093424E+03 -6.493671E+01 -9.016705E+02  9.440802E-05
        25  20 -6.570839E+05  2.900707E+01 -1.938972E+03 -7.502174E+01 -1.861934E+03  2.252260E-04
        25  21 -6.571642E+05 -9.746951E+01 -3.445221E+03 -8.510680E+01 -2.822197E+03  3.872726E-04
        25  22 -6.571638E+05  1.533981E+01 -1.093424E+03  4.723701E-09 -9.016705E+02  3.130920E-10
        25  23 -6.570839E+05  2.900706E+01 -1.938972E+03 -5.322856E-09 -1.861934E+03  4.322507E-10
        25  24 -6.571642E+05 -9.746953E+01 -3.445221E+03  8.313565E-09 -2.822197E+03 -1.740371E-10
        25  25 -6.571638E+05  1.533982E+01 -1.093424E+03  6.493671E+01 -9.016705E+02 -9.440733E-05
        25  26 -6.570839E+05  2.900707E+01 -1.938972E+03  7.502174E+01 -1.861934E+03 -2.252251E-04
        25  27 -6.571642E+05 -9.746951E+01 -3.445221E+03  8.510680E+01 -2.822197E+03 -3.872731E-04
        26   1 -6.573900E+05  1.581169E+02 -4.515500E+03 -5.476153E+02  3.523584E+03 -3.111187E-03
        26   2 -6.568029E+05  2.551168E+01 -7.858911E+03  1.964203E+02  7.458638E+03  2.362170E-03
        26   3 -6.573922E+05 -2.760707E+03 -1.442956E+04  9.404469E+02  1.139361E+04  1.727672E-02
        26   4 -6.573900E+05  1.581163E+02 -4.515500E+03  4.085818E-09  3.523584E+03 -1.218263E-09
        26   5 -6.568029E+05  2.551161E+01 -7.858911E+03  5.599326E-09  7.458638E+03 -3.815004E-10
        26   6 -6.573922E+05 -2.760709E+03 -1.442956E+04  2.540036E-09  1.139361E+04  1.584548E-10
        26   7 -6.573900E+05  1.581169E+02 -4.515500E+03  5.476153E+02  3.523584E+03  3.111185E-03
        26   8 -6.568029E+05  2.551168E+01 -7.858911E+03 -1.964203E+02  7.458638E+03 -2.362171E-03
        26   9 -6.573922E+05 -2.760707E+03 -1.442956E+04 -9.404469E+02  1.139361E+04 -1.727672E-02
        26  10 -6.573900E+05  1.581136E+02 -4.515524E+03 -5.476153E+02  1.293713E-09 -1.055340E-09
        26  11 -6.568030E+05  2.549673E+01 -7.859015E+03  1.964203E+02 -5.623549E-10 -6.215229E-10
        26  12 -6.573924E+05 -2.760742E+03 -1.442981E+04  9.404469E+02 -1.898792E-09 -3.528039E-10
        26  13 -6.573900E+05  1.581130E+02 -4.515524E+03  9.472006E-10 -8.409389E-12 -8.936511E-10
        26  14 -6.568030E+05  2.549665E+01 -7.859015E+03  1.393471E-09  2.284281E-10 -5.038619E-10
        26  15 -6.573924E+05 -2.760743E+03 -1.442981E+04  5.076121E-09  1.087104E-09 -7.598497E-11
        26  16 -6.573900E+05  1.581136E+02 -4.515524E+03  5.476153E+02 -7.890077E-10 -6.964816E-10
        26  17 -6.568030E+05  2.549673E+01 -7.859015E+03 -1.964203E+02  8.934632E-10 -3.501777E-10
        26  18 -6.573924E+05 -2.760742E+03 -1.442981E+04 -9.404469E+02 -1.350248E-09  1.933649E-10
        26  19 -6.573900E+05  1.581169E+02 -4.515500E+03 -5.476153E+02 -3.523584E+03  3.111185E-03
        26  20 -6.568029E+05  2.551168E+01 -7.858911E+03  1.964203E+02 -7.458638E+03 -2.362171E-03
        26  21 -6.573922E+05 -2.760707E+03 -1.442956E+04  9.404469E+02 -1.139361E+04 -1.727672E-02
        26  22 -6.573900E+05  1.581163E+02 -4.515500E+03  3.187832E-09 -3.523584E+03 -5.681951E-10
        26  23 -6.568029E+05  2.551161E+01 -7.858911E+03 -6.621511E-10 -7.458638E+03 -5.971306E-10
        26  24 -6.573922E+05 -2.760709E+03 -1.442956E+04  1.522175E-09 -1.139361E+04 -3.318298E-10
        26  25 -6.573900E+05  1.581169E+02 -4.515500E+03  5.476153E+02 -3.523584E+03 -3.111186E-03
        26  26 -6.568029E+05  2.551168E+01 -7.858911E+03 -1.964203E+02 -7.458638E+03  2.362170E-03
        26  27 -6.573922E+05 -2.760707E+03 -1.442956E+04 -9.404469E+02 -1.139361E+04  1.727672E-02
        27   1 -6.604897E+05  2.501573E+03 -1.827164E+04 -7.950415E+03  1.393808E+04 -1.786736E-01
        27   2 -6.529346E+05 -1.716067E+03 -3.152006E+04  1.053635E+04  3.056874E+04  5.193134E-01
        27   3 -6.605080E+05 -5.776630E+04 -6.856139E+04  2.902306E+04  4.719968E+04  2.208750E+00
        27   4 -6.604898E+05  2.501454E+03 -1.827166E+04  1.218933E-08  1.393808E+04  1.890623E-10
        27   5 -6.529348E+05 -1.716275E+03 -3.152009E+04  5.424513E-09  3.056874E+04  3.898274E-11
        27   6 -6.605089E+05 -5.776788E+04 -6.856162E+04  1.078067E-08  4.719968E+04 -5.472702E-11
        27   7 -6.604897E+05  2.501573E+03 -1.827164E+04  7.950415E+03  1.393808E+04  1.786736E-01
        27   8 -6.529346E+05 -1.716067E+03 -3.152006E+04 -1.053635E+04  3.056874E+04 -5.193134E-01
        27   9 -6.605080E+05 -5.776630E+04 -6.856139E+04 -2.902306E+04  4.719968E+04 -2.208750E+00
        27  10 -6.604899E+05  2.501521E+03 -1.827201E+04 -7.950415E+03 -4.730915E-10  3.465389E-10
        27  11 -6.529356E+05 -1.716318E+03 -3.152182E+04  1.053635E+04  8.842287E-10  1.287767E-09
        27  12 -6.605104E+05 -5.776689E+04 -6.856558E+04  2.902306E+04  1.469632E-09  5.397303E-10
        27  13 -6.604900E+05  2.501402E+03 -1.827202E+04  1.609458E-09 -2.420064E-10  2.969248E-10
        27  14 -6.529358E+05 -1.716527E+03 -3.152185E+04 -2.117666E-09 -1.427060E-09  6.576224E-10
        27  15 -6.605113E+05 -5.776848E+04 -6.856581E+04  4.385905E-09 -2.651917E-10  2.583506E-10
        27  16 -6.604899E+05  2.501521E+03 -1.827201E+04  7.950415E+03 -1.039536E-09  2.480806E-10
        27  17 -6.529356E+05 -1.716318E+03 -3.152182E+04 -1.053635E+04 -1.720916E-09 -2.711969E-12
        27  18 -6.605104E+05 -5.776689E+04 -6.856558E+04 -2.902306E+04 -5.328335E-10 -3.036776E-11
        27  19 -6.604897E+05  2.501573E+03 -1.827164E+04 -7.950415E+03 -1.393808E+04  1.786736E-01
        27  20 -6.529346E+05 -1.716067E+03 -3.152006E+04  1.053635E+04 -3.056874E+04 -5.193134E-01
        27  21 -6.605080E+05 -5.776630E+04 -6.856139E+04  2.902306E+04 -4.719968E+04 -2.208750E+00
        27  22 -6.604898E+05  2.501454E+03 -1.827166E+04 -3.505242E-10 -1.393808E+04  4.041318E-10
        27  23 -6.529348E+05 -1.716275E+03 -3.152009E+04 -3.196502E-09 -3.056874E+04  1.265552E-09
        27  24 -6.605089E+05 -5.776788E+04 -6.856162E+04  8.212099E-09 -4.719968E+04  5.707042E-10
        27  25 -6.604897E+05  2.501573E+03 -1.827164E+04  7.950415E+03 -1.393808E+04 -1.786736E-01
        27  26 -6.529346E+05 -1.716067E+03 -3.152006E+04 -1.053635E+04 -3.056874E+04  5.193134E-01
        27  27 -6.605080E+05 -5.776630E+04 -6.856139E+04 -2.902306E+04 -4.719968E+04  2.208750E+00
        28   1  6.583698E+05  2.232155E+06  6.951239E+05 -3.099449E+05  2.049891E+04  2.641858E+05
        28   2  3.426159E+05  1.926856E+06  4.434495E+05 -1.809016E+05  6.283346E+04  1.448154E+05
        28   3  2.592546E+05  1.695544E+06  3.274839E+05 -1.503590E+05  6.074371E+04  2.548855E+04
        28   4  2.495000E+05  5.835463E+05  2.972026E+05 -1.832931E+05  2.058488E+04  1.987301E+05
        28   5  7.206210E+03  5.505433E+05  1.411887E+05 -1.341462E+05  6.287096E+04  1.244267E+05
        28   6 -1.023005E+04  5.838303E+05  8.983977E+04 -1.834729E+05  6.071914E+04  5.010945E+04
        28   7 -1.595060E+05 -1.062541E+06 -1.008887E+05 -5.697722E+04  2.064439E+04  1.334466E+05
        28   8 -3.283218E+05 -8.239968E+05 -1.611849E+05 -8.749495E+04  6.290545E+04  1.040823E+05
        28   9 -2.797907E+05 -5.267190E+05 -1.478730E+05 -2.165264E+05  6.069193E+04  7.468693E+04
        28  10  6.583507E+05  2.232080E+06  6.949924E+05 -3.099493E+05  2.368227E-09  7.806589E-10
        28  11  3.426060E+05  1.926833E+06  4.434028E+05 -1.809089E+05 -2.699970E-10 -8.160090E-09
        28  12  2.592504E+05  1.695542E+06  3.274757E+05 -1.503602E+05  1.213410E-09 -1.660841E-08
        28  13  2.494890E+05  5.835038E+05  2.971276E+05 -1.832964E+05 -3.059867E-10 -5.552659E-11
        28  14  7.197811E+03  5.505256E+05  1.411522E+05 -1.341525E+05  4.781648E-10  1.904210E-11
        28  15 -1.023468E+04  5.838266E+05  8.982812E+04 -1.834754E+05  3.592596E-09 -3.442437E-10
        28  16 -1.595112E+05 -1.062560E+06 -1.009230E+05 -5.697944E+04  2.185909E-10 -7.997744E-10
        28  17 -3.283290E+05 -8.240096E+05 -1.612127E+05 -8.750022E+04 -6.815426E-11  8.523122E-09
        28  18 -2.797962E+05 -5.267260E+05 -1.478904E+05 -2.165300E+05 -7.615317E-10  1.655752E-08
        28  19  6.583698E+05  2.232155E+06  6.951239E+05 -3.099449E+05 -2.049891E+04 -2.641858E+05
        28  20  3.426159E+05  1.926856E+06  4.434495E+05 -1.809016E+05 -6.283346E+04 -1.448154E+05
        28  21  2.592546E+05  1.695544E+06  3.274839E+05 -1.503590E+05 -6.074371E+04 -2.548855E+04
        28  22  2.495000E+05  5.835463E+05  2.972026E+05 -1.832931E+05 -2.058488E+04 -1.987301E+05
        28  23  7.206210E+03  5.505433E+05  1.411887E+05 -1.341462E+05 -6.287096E+04 -1.244267E+05
        28  24 -1.023005E+04  5.838303E+05  8.983977E+04 -1.834729E+05 -6.071914E+04 -5.010945E+04
        28  25 -1.595060E+05 -1.062541E+06 -1.008887E+05 -5.697722E+04 -2.064439E+04 -1.334466E+05
        28  26 -3.283218E+05 -8.239968E+05 -1.611849E+05 -8.749495E+04 -6.290545E+04 -1.040823E+05
        28  27 -2.797907E+05 -5.267190E+05 -1.478730E+05 -2.165264E+05 -6.069193E+04 -7.468693E+04
        29   1  2.309110E+05  1.474367E+06  2.709429E+05 -1.907086E+05  4.820214E+04  2.432141E+04
        29   2  1.543101E+05  1.202499E+06  1.961074E+05 -1.345696E+05  3.508868E+04 -7.465689E+03
        29   3  9.887218E+04  9.399085E+05  1.471727E+05 -1.786595E+05  2.048349E+04 -3.925224E+04
        29   4  1.168851E+04  5.711681E+05  7.707256E+04 -1.838164E+05  4.818948E+04  3.682288E+04
        29   5  1.347106E+02  5.667424E+05  6.035380E+04 -1.337019E+05  3.506889E+04  6.573747E+03
        29   6  9.495792E+03  5.712717E+05  6.849398E+04 -1.838202E+05  2.045622E+04 -2.368806E+04
        29   7 -2.075872E+05 -3.312649E+05 -1.168448E+05 -1.769339E+05  4.817709E+04  4.930642E+04
        29   8 -1.540669E+05 -6.863398E+04 -7.542237E+04 -1.328350E+05  3.504914E+04  2.059903E+04
        29   9 -7.988921E+04  2.027633E+05 -1.019161E+04 -1.889778E+05  2.042869E+04 -8.132961E+03
        29  10  2.309084E+05  1.474366E+06  2.709374E+05 -1.907096E+05  3.108383E-09 -4.498965E-09
        29  11  1.543087E+05  1.202499E+06  1.961049E+05 -1.345694E+05  2.078098E-09  8.733156E-09
        29  12  9.887132E+04  9.399068E+05  1.471690E+05 -1.786589E+05 -1.377395E-09  1.624039E-08
        29  13  1.168565E+04  5.711660E+05  7.706565E+04 -1.838178E+05  4.289336E-09 -2.902306E-10
        29  14  1.333781E+02  5.667420E+05  6.035141E+04 -1.337021E+05  2.971894E-09 -3.824038E-11
        29  15  9.495192E+03  5.712710E+05  6.849214E+04 -1.838199E+05 -3.558123E-10 -5.757018E-10
        29  16 -2.075903E+05 -3.312681E+05 -1.168537E+05 -1.769358E+05  3.996451E-10  4.355569E-09
        29  17 -1.540683E+05 -6.863476E+04 -7.542547E+04 -1.328356E+05  2.349245E-09 -7.867749E-09
        29  18 -7.988967E+04  2.027631E+05 -1.019252E+04 -1.889776E+05  1.875534E-09 -1.636534E-08
        29  19  2.309110E+05  1.474367E+06  2.709429E+05 -1.907086E+05 -4.820214E+04 -2.432141E+04
        29  20  1.543101E+05  1.202499E+06  1.961074E+05 -1.345696E+05 -3.508868E+04  7.465689E+03
        29  21  9.887218E+04  9.399085E+05  1.471727E+05 -1.786595E+05 -2.048349E+04  3.925224E+04
        29  22  1.168851E+04  5.711681E+05  7.707256E+04 -1.838164E+05 -4.818948E+04 -3.682288E+04
        29  23  1.347106E+02  5.667424E+05  6.035380E+04 -1.337019E+05 -3.506889E+04 -6.573747E+03
        29  24  9.495792E+03  5.712717E+05  6.849398E+04 -1.838202E+05 -2.045622E+04  2.368806E+04
        29  25 -2.075872E+05 -3.312649E+05 -1.168448E+05 -1.769339E+05 -4.817709E+04 -4.930642E+04
        29  26 -1.540669E+05 -6.863398E+04 -7.542237E+04 -1.328350E+05 -3.504914E+04 -2.059903E+04
        29  27 -7.988921E+04  2.027633E+05 -1.019161E+04 -1.889778E+05 -2.042869E+04  8.132961E+03
        30   1  3.151416E+04  7.424255E+05  1.106897E+05 -2.111091E+05  1.017355E+04 -5.368608E+04
        30   2 -1.962512E+04  4.502849E+05  9.083975E+04 -9.669566E+04 -1.899772E+03 -1.023593E+05
        30   3  1.076098E+05  2.088024E+05  1.471836E+05 -8.181954E+04 -1.966995E+03 -1.509927E+05
        30   4 -7.612245E+03  5.810135E+05  7.695304E+04 -1.837446E+05  1.013697E+04 -3.536562E+04
        30   5  6.342111E+03  5.546580E+05  1.155806E+05 -1.338133E+05 -1.904849E+03 -9.617095E+04
        30   6  2.007370E+05  5.809451E+05  2.387967E+05 -1.833933E+05 -1.931505E+03 -1.569570E+05
        30   7 -4.673735E+04  4.196283E+05  4.321662E+04 -1.563873E+05  1.010199E+04 -1.704984E+04
        30   8  3.231374E+04  6.590440E+05  1.403215E+05 -1.709372E+05 -1.910665E+03 -8.998159E+04
        30   9  2.938925E+05  9.532357E+05  3.304051E+05 -2.850280E+05 -1.894080E+03 -1.629249E+05
        30  10  3.151328E+04  7.424224E+05  1.106841E+05 -2.111086E+05 -3.059763E-09  3.670276E-09
        30  11 -1.962793E+04  4.502737E+05  9.082007E+04 -9.669581E+04 -4.607492E-10  3.165425E-09
        30  12  1.076037E+05  2.087779E+05  1.471408E+05 -8.181978E+04 -9.781057E-10  9.842103E-11
        30  13 -7.612690E+03  5.810121E+05  7.695050E+04 -1.837443E+05 -1.757904E-09 -4.369747E-10
        30  14  6.339627E+03  5.546481E+05  1.155632E+05 -1.338134E+05 -6.273603E-10 -7.161381E-11
        30  15  2.007304E+05  5.809186E+05  2.387504E+05 -1.833936E+05  8.610672E-10 -5.185028E-10
        30  16 -4.673753E+04  4.196280E+05  4.321589E+04 -1.563871E+05  5.988236E-10 -3.924336E-09
        30  17  3.231156E+04  6.590353E+05  1.403063E+05 -1.709373E+05 -4.189373E-10 -2.214588E-09
        30  18  2.938854E+05  9.532072E+05  3.303553E+05 -2.850283E+05  1.143031E-09 -2.331311E-10
        30  19  3.151416E+04  7.424255E+05  1.106897E+05 -2.111091E+05 -1.017355E+04  5.368608E+04
        30  20 -1.962512E+04  4.502849E+05  9.083975E+04 -9.669566E+04  1.899772E+03  1.023593E+05
        30  21  1.076098E+05  2.088024E+05  1.471836E+05 -8.181954E+04  1.966995E+03  1.509927E+05
        30  22 -7.612245E+03  5.810135E+05  7.695304E+04 -1.837446E+05 -1.013697E+04  3.536562E+04
        30  23  6.342111E+03  5.546580E+05  1.155806E+05 -1.338133E+05  1.904849E+03  9.617095E+04
        30  24  2.007370E+05  5.809451E+05  2.387967E+05 -1.833933E+05  1.931505E+03  1.569570E+05
        30  25 -4.673735E+04  4.196283E+05  4.321662E+04 -1.563873E+05 -1.010199E+04  1.704984E+04
        30  26  3.231374E+04  6.590440E+05  1.403215E+05 -1.709372E+05  1.910665E+03  8.998159E+04
        30  27  2.938925E+05  9.532357E+05  3.304051E+05 -2.850280E+05  1.894080E+03  1.629249E+05
        31   1 -1.156056E+06 -2.766436E+05 -1.052783E+05 -4.457403E+05 -5.855068E+04 -2.097722E+04
        31   2 -1.139631E+06 -1.879649E+05 -5.065678E+04 -4.423275E+05 -3.683392E+04 -1.099167E+04
        31   3 -1.145383E+06 -1.670578E+05 -2.995978E+04 -4.280494E+05 -1.435080E+04 -3.049014E+03
        31   4 -1.111895E+06 -2.279555E+05 -8.726101E+04 -4.006681E+05 -5.606577E+04 -2.004923E+04
        31   5 -1.096234E+06 -1.605176E+05 -3.813368E+04 -4.187445E+05 -3.627434E+04 -1.078270E+04
        31   6 -1.102365E+06 -1.604677E+05 -2.140186E+04 -4.259565E+05 -1.571644E+04 -3.560780E+03
        31   7 -1.067730E+06 -1.792608E+05 -6.924377E+04 -3.555925E+05 -5.358071E+04 -1.912087E+04
        31   8 -1.052834E+06 -1.330691E+05 -2.561086E+04 -3.951599E+05 -3.571473E+04 -1.057369E+04
        31   9 -1.059344E+06 -1.538775E+05 -1.284398E+04 -4.238636E+05 -1.708218E+04 -4.072531E+03
        31  10 -1.156059E+06 -2.766450E+05 -1.052856E+05 -4.457413E+05  1.366254E-09 -3.157049E-11
        31  11 -1.139633E+06 -1.879654E+05 -5.065956E+04 -4.423278E+05  3.860210E-09  4.328106E-10
        31  12 -1.145383E+06 -1.670579E+05 -2.996018E+04 -4.280495E+05  2.957407E-09  6.613994E-10
        31  13 -1.111898E+06 -2.279568E+05 -8.726769E+04 -4.006690E+05  1.459546E-11  3.149544E-10
        31  14 -1.096235E+06 -1.605181E+05 -3.813638E+04 -4.187448E+05  3.786067E-09  9.218462E-10
        31  15 -1.102365E+06 -1.604678E+05 -2.140235E+04 -4.259566E+05  6.064748E-10  5.302473E-10
        31  16 -1.067733E+06 -1.792619E+05 -6.924986E+04 -3.555934E+05  2.737463E-09  6.009016E-10
        31  17 -1.052836E+06 -1.330696E+05 -2.561347E+04 -3.951602E+05  2.104982E-09  8.763890E-10
        31  18 -1.059345E+06 -1.538776E+05 -1.284456E+04 -4.238637E+05 -7.462601E-10  4.391177E-10
        31  19 -1.156056E+06 -2.766436E+05 -1.052783E+05 -4.457403E+05  5.855068E+04  2.097722E+04
        31  20 -1.139631E+06 -1.879649E+05 -5.065678E+04 -4.423275E+05  3.683392E+04  1.099167E+04
        31  21 -1.145383E+06 -1.670578E+05 -2.995978E+04 -4.280494E+05  1.435080E+04  3.049014E+03
        31  22 -1.111895E+06 -2.279555E+05 -8.726101E+04 -4.006681E+05  5.606577E+04  2.004923E+04
        31  23 -1.096234E+06 -1.605176E+05 -3.813368E+04 -4.187445E+05  3.627434E+04  1.078270E+04
        31  24 -1.102365E+06 -1.604677E+05 -2.140186E+04 -4.259565E+05  1.571644E+04  3.560780E+03
        31  25 -1.067730E+06 -1.792608E+05 -6.924377E+04 -3.555925E+05  5.358071E+04  1.912087E+04
        31  26 -1.052834E+06 -1.330691E+05 -2.561086E+04 -3.951599E+05  3.571473E+04  1.057369E+04
        31  27 -1.059344E+06 -1.538775E+05 -1.284398E+04 -4.238636E+05  1.708218E+04  4.072531E+03
        32   1 -1.122306E+06 -1.760419E+05 -2.246254E+04 -4.297001E+05 -1.198736E+04 -3.009894E+03
        32   2 -1.108411E+06 -1.637274E+05 -1.061656E+04 -4.230394E+05 -7.151988E+03 -2.185311E+03
        32   3 -1.091853E+06 -1.595182E+05 -3.079449E+03 -4.208824E+05 -2.281832E+03 -1.452678E+03
        32   4 -1.099620E+06 -1.663973E+05 -1.686454E+04 -4.222099E+05 -1.276078E+04 -3.299898E+03
        32   5 -1.100707E+06 -1.605752E+05 -8.735547E+03 -4.206236E+05 -8.011970E+03 -2.507743E+03
        32   6 -1.099115E+06 -1.628414E+05 -4.846616E+03 -4.235411E+05 -3.228552E+03 -1.807611E+03
        32   7 -1.076933E+06 -1.567524E+05 -1.126652E+04 -4.147194E+05 -1.353424E+04 -3.589920E+03
        32   8 -1.093004E+06 -1.574230E+05 -6.854547E+03 -4.182077E+05 -8.871961E+03 -2.830178E+03
        32   9 -1.106377E+06 -1.661645E+05 -6.613750E+03 -4.261997E+05 -4.175246E+03 -2.162531E+03
        32  10 -1.122306E+06 -1.760420E+05 -2.246283E+04 -4.297001E+05  2.663366E-09  2.902755E-10
        32  11 -1.108411E+06 -1.637274E+05 -1.061666E+04 -4.230394E+05  2.296750E-09  5.783015E-12
        32  12 -1.091853E+06 -1.595182E+05 -3.079463E+03 -4.208824E+05  3.387408E-10  6.392616E-10
        32  13 -1.099620E+06 -1.663973E+05 -1.686487E+04 -4.222100E+05 -1.112680E-10  3.520558E-10
        32  14 -1.100707E+06 -1.605752E+05 -8.735680E+03 -4.206236E+05 -1.198811E-09 -1.695810E-11
        32  15 -1.099115E+06 -1.628414E+05 -4.846642E+03 -4.235411E+05 -1.323820E-09 -2.474486E-10
        32  16 -1.076933E+06 -1.567525E+05 -1.126689E+04 -4.147195E+05  2.947072E-10  3.490505E-10
        32  17 -1.093004E+06 -1.574231E+05 -6.854711E+03 -4.182077E+05 -8.281885E-10 -1.300071E-10
        32  18 -1.106377E+06 -1.661645E+05 -6.613791E+03 -4.261997E+05 -5.400879E-10 -1.180488E-09
        32  19 -1.122306E+06 -1.760419E+05 -2.246254E+04 -4.297001E+05  1.198736E+04  3.009894E+03
        32  20 -1.108411E+06 -1.637274E+05 -1.061656E+04 -4.230394E+05  7.151988E+03  2.185311E+03
        32  21 -1.091853E+06 -1.595182E+05 -3.079449E+03 -4.208824E+05  2.281832E+03  1.452678E+03
        32  22 -1.099620E+06 -1.663973E+05 -1.686454E+04 -4.222099E+05  1.276078E+04  3.299898E+03
        32  23 -1.100707E+06 -1.605752E+05 -8.735547E+03 -4.206236E+05  8.011970E+03  2.507743E+03
        32  24 -1.099115E+06 -1.628414E+05 -4.846616E+03 -4.235411E+05  3.228552E+03  1.807611E+03
        32  25 -1.076933E+06 -1.567524E+05 -1.126652E+04 -4.147194E+05  1.353424E+04  3.589920E+03
        32  26 -1.093004E+06 -1.574230E+05 -6.854547E+03 -4.182077E+05  8.871961E+03  2.830178E+03
        32  27 -1.106377E+06 -1.661645E+05 -6.613750E+03 -4.261997E+05  4.175246E+03  2.162531E+03
        33   1 -1.078623E+06 -1.555613E+05  1.149593E+03 -4.176987E+05 -1.408170E+03 -1.786837E+03
        33   2 -1.065161E+06 -1.473070E+05  6.436010E+03 -4.108236E+05 -2.690813E+01 -2.383495E+03
        33   3 -1.047349E+06 -1.438187E+05  1.091470E+04 -4.091653E+05  1.355267E+03 -2.982348E+03
        33   4 -1.098890E+06 -1.631388E+05 -3.682924E+03 -4.233113E+05 -2.327920E+03 -2.131665E+03
        33   5 -1.101054E+06 -1.606756E+05 -2.027197E+03 -4.207328E+05 -9.487915E+02 -2.729153E+03
        33   6 -1.098866E+06 -1.629782E+05 -1.177440E+03 -4.233712E+05  4.312293E+02 -3.328846E+03
        33   7 -1.119156E+06 -1.707162E+05 -8.515507E+03 -4.289239E+05 -3.247644E+03 -2.476483E+03
        33   8 -1.136945E+06 -1.740444E+05 -1.049061E+04 -4.306416E+05 -1.870628E+03 -3.074794E+03
        33   9 -1.150382E+06 -1.821379E+05 -1.327001E+04 -4.375763E+05 -4.927415E+02 -3.675318E+03
        33  10 -1.078623E+06 -1.555613E+05  1.149583E+03 -4.176987E+05  2.014246E-09  2.106004E-10
        33  11 -1.065161E+06 -1.473070E+05  6.435999E+03 -4.108236E+05  7.571840E-10 -8.743067E-10
        33  12 -1.047349E+06 -1.438187E+05  1.091468E+04 -4.091653E+05  4.069725E-09  4.634523E-10
        33  13 -1.098890E+06 -1.631388E+05 -3.682943E+03 -4.233113E+05  1.265153E-09 -6.704918E-10
        33  14 -1.101054E+06 -1.606756E+05 -2.027213E+03 -4.207328E+05 -2.721215E-10 -1.041803E-09
        33  15 -1.098866E+06 -1.629782E+05 -1.177462E+03 -4.233712E+05  1.304917E-09 -7.716298E-10
        33  16 -1.119156E+06 -1.707163E+05 -8.515538E+03 -4.289239E+05  1.302078E-09 -1.350751E-09
        33  17 -1.136945E+06 -1.740444E+05 -1.049064E+04 -4.306416E+05 -1.051555E-09 -1.194666E-09
        33  18 -1.150382E+06 -1.821379E+05 -1.327004E+04 -4.375763E+05 -4.434757E-09 -2.126373E-09
        33  19 -1.078623E+06 -1.555613E+05  1.149593E+03 -4.176987E+05  1.408170E+03  1.786837E+03
        33  20 -1.065161E+06 -1.473070E+05  6.436010E+03 -4.108236E+05  2.690813E+01  2.383495E+03
        33  21 -1.047349E+06 -1.438187E+05  1.091470E+04 -4.091653E+05 -1.355267E+03  2.982348E+03
        33  22 -1.098890E+06 -1.631388E+05 -3.682924E+03 -4.233113E+05  2.327920E+03  2.131665E+03
        33  23 -1.101054E+06 -1.606756E+05 -2.027197E+03 -4.207328E+05  9.487915E+02  2.729153E+03
        33  24 -1.098866E+06 -1.629782E+05 -1.177440E+03 -4.233712E+05 -4.312293E+02  3.328846E+03
        33  25 -1.119156E+06 -1.707162E+05 -8.515507E+03 -4.289239E+05  3.247644E+03  2.476483E+03
        33  26 -1.136945E+06 -1.740444E+05 -1.049061E+04 -4.306416E+05  1.870628E+03  3.074794E+03
        33  27 -1.150382E+06 -1.821379E+05 -1.327001E+04 -4.375763E+05  4.927415E+02  3.675318E+03
        34   1 -1.034813E+06 -1.391962E+05  1.420721E+04 -4.057476E+05  1.740168E+03 -3.487978E+03
        34   2 -1.021524E+06 -1.311874E+05  1.808521E+04 -3.988988E+05  2.430513E+03 -4.341954E+03
        34   3 -1.003756E+06 -1.277210E+05  2.171854E+04 -3.972453E+05  3.119942E+03 -5.193207E+03
        34   4 -1.098847E+06 -1.629825E+05 -9.337066E+02 -4.233465E+05  8.194216E+02 -3.833266E+03
        34   5 -1.101085E+06 -1.607101E+05 -6.567539E+02 -4.207495E+05  1.512273E+03 -4.686349E+03
        34   6 -1.098847E+06 -1.629805E+05 -6.264058E+02 -4.233475E+05  2.204203E+03 -5.536712E+03
        34   7 -1.162875E+06 -1.867680E+05 -1.607462E+04 -4.409436E+05 -1.012071E+02 -4.178510E+03
        34   8 -1.180640E+06 -1.902321E+05 -1.939896E+04 -4.425973E+05  5.941694E+02 -5.030692E+03
        34   9 -1.193929E+06 -1.982393E+05 -2.297192E+04 -4.494460E+05  1.288619E+03 -5.880160E+03
        34  10 -1.034813E+06 -1.391962E+05  1.420718E+04 -4.057475E+05  1.858153E-08  7.423918E-09
        34  11 -1.021524E+06 -1.311874E+05  1.808517E+04 -3.988988E+05  2.799848E-09  3.002452E-09
        34  12 -1.003756E+06 -1.277210E+05  2.171847E+04 -3.972453E+05 -1.631023E-08 -5.107693E-09
        34  13 -1.098847E+06 -1.629825E+05 -9.337354E+02 -4.233465E+05  2.903419E-09  7.508992E-10
        34  14 -1.101085E+06 -1.607102E+05 -6.567995E+02 -4.207495E+05  3.041959E-09  3.365678E-09
        34  15 -1.098847E+06 -1.629806E+05 -6.264725E+02 -4.233475E+05  1.866815E-09  1.705030E-09
        34  16 -1.162875E+06 -1.867680E+05 -1.607466E+04 -4.409436E+05 -1.823509E-08 -5.759275E-09
        34  17 -1.180640E+06 -1.902322E+05 -1.939901E+04 -4.425973E+05  2.063890E-09  3.652262E-09
        34  18 -1.193929E+06 -1.982394E+05 -2.297199E+04 -4.494460E+05  1.718316E-08  8.142543E-09
        34  19 -1.034813E+06 -1.391962E+05  1.420721E+04 -4.057476E+05 -1.740168E+03  3.487978E+03
        34  20 -1.021524E+06 -1.311874E+05  1.808521E+04 -3.988988E+05 -2.430513E+03  4.341954E+03
        34  21 -1.003756E+06 -1.277210E+05  2.171854E+04 -3.972453E+05 -3.119942E+03  5.193207E+03
        34  22 -1.098847E+06 -1.629825E+05 -9.337066E+02 -4.233465E+05 -8.194216E+02  3.833266E+03
        34  23 -1.101085E+06 -1.607101E+05 -6.567539E+02 -4.207495E+05 -1.512273E+03  4.686349E+03
        34  24 -1.098847E+06 -1.629805E+05 -6.264058E+02 -4.233475E+05 -2.204203E+03  5.536712E+03
        34  25 -1.162875E+06 -1.867680E+05 -1.607462E+04 -4.409436E+05  1.012071E+02  4.178510E+03
        34  26 -1.180640E+06 -1.902321E+05 -1.939896E+04 -4.425973E+05 -5.941694E+02  5.030692E+03
        34  27 -1.193929E+06 -1.982393E+05 -2.297192E+04 -4.494460E+05 -1.288619E+03  5.880160E+03
        35   1 -9.913751E+05 -1.230973E+05  2.467940E+04 -3.938417E+05  3.437851E+03 -5.717872E+03
        35   2 -9.782309E+05 -1.151870E+05  2.790567E+04 -3.870758E+05  4.303424E+03 -6.494024E+03
        35   3 -9.606872E+05 -1.117759E+05  3.075258E+04 -3.854449E+05  5.167072E+03 -7.264504E+03
        35   4 -1.098865E+06 -1.629691E+05 -6.913863E+02 -4.233351E+05  2.525625E+03 -6.060102E+03
        35   5 -1.101065E+06 -1.607228E+05 -1.021749E+03 -4.207664E+05  3.396393E+03 -6.834389E+03
        35   6 -1.098867E+06 -1.629770E+05 -1.735710E+03 -4.233328E+05  4.265220E+03 -7.603006E+03
        35   7 -1.206343E+06 -2.028403E+05 -2.606315E+04 -4.528240E+05  1.613567E+03 -6.402270E+03
        35   8 -1.223884E+06 -2.062577E+05 -2.995032E+04 -4.544509E+05  2.489555E+03 -7.174682E+03
        35   9 -1.237029E+06 -2.141768E+05 -3.422535E+04 -4.612131E+05  3.363587E+03 -7.941427E+03
        35  10 -9.913751E+05 -1.230974E+05  2.467932E+04 -3.938417E+05 -2.387994E-09 -1.073540E-09
        35  11 -9.782309E+05 -1.151871E+05  2.790555E+04 -3.870758E+05 -9.805771E-10 -9.892124E-10
        35  12 -9.606873E+05 -1.117760E+05  3.075243E+04 -3.854448E+05  2.030915E-10 -1.456623E-09
        35  13 -1.098865E+06 -1.629691E+05 -6.914673E+02 -4.233351E+05 -1.407876E-09 -1.187149E-11
        35  14 -1.101065E+06 -1.607229E+05 -1.021859E+03 -4.207664E+05 -1.064414E-09 -3.239982E-10
        35  15 -1.098867E+06 -1.629771E+05 -1.735853E+03 -4.233328E+05 -2.393146E-10 -9.876065E-10
        35  16 -1.206343E+06 -2.028403E+05 -2.606324E+04 -4.528240E+05  2.883105E-09  1.381903E-09
        35  17 -1.223884E+06 -2.062577E+05 -2.995043E+04 -4.544509E+05  1.692579E-09 -1.699255E-10
        35  18 -1.237029E+06 -2.141768E+05 -3.422549E+04 -4.612131E+05 -3.199634E-11 -5.737912E-10
        35  19 -9.913751E+05 -1.230973E+05  2.467940E+04 -3.938417E+05 -3.437851E+03  5.717872E+03
        35  20 -9.782309E+05 -1.151870E+05  2.790567E+04 -3.870758E+05 -4.303424E+03  6.494024E+03
        35  21 -9.606872E+05 -1.117759E+05  3.075258E+04 -3.854449E+05 -5.167072E+03  7.264504E+03
        35  22 -1.098865E+06 -1.629691E+05 -6.913863E+02 -4.233351E+05 -2.525625E+03  6.060102E+03
        35  23 -1.101065E+06 -1.607228E+05 -1.021749E+03 -4.207664E+05 -3.396393E+03  6.834389E+03
        35  24 -1.098867E+06 -1.629770E+05 -1.735710E+03 -4.233328E+05 -4.265220E+03  7.603006E+03
        35  25 -1.206343E+06 -2.028403E+05 -2.606315E+04 -4.528240E+05 -1.613567E+03  6.402270E+03
        35  26 -1.223884E+06 -2.062577E+05 -2.995032E+04 -4.544509E+05 -2.489555E+03  7.174682E+03
        35  27 -1.237029E+06 -2.141768E+05 -3.422535E+04 -4.612131E+05 -3.363587E+03  7.941427E+03
        36   1 -9.485112E+05 -1.072398E+05  3.318619E+04 -3.821713E+05  5.707345E+03 -7.697436E+03
        36   2 -9.354775E+05 -9.940221E+04  3.487938E+04 -3.754430E+05  8.082716E+03 -7.884287E+03
        36   3 -9.184537E+05 -9.638367E+04  3.496452E+04 -3.737337E+05  1.045021E+04 -8.049393E+03
        36   4 -1.098945E+06 -1.629387E+05 -2.280658E+03 -4.233488E+05  4.806115E+03 -8.035762E+03
        36   5 -1.100963E+06 -1.606952E+05 -4.084570E+03 -4.207768E+05  7.201379E+03 -8.215255E+03
        36   6 -1.098995E+06 -1.632747E+05 -7.512630E+03 -4.232239E+05  9.588720E+03 -8.373015E+03
        36   7 -1.249355E+06 -2.186358E+05 -3.774887E+04 -4.645170E+05  3.905127E+03 -8.373998E+03
        36   8 -1.266420E+06 -2.219862E+05 -4.305044E+04 -4.660996E+05  6.320297E+03 -8.546126E+03
        36   9 -1.279504E+06 -2.301637E+05 -4.999234E+04 -4.727012E+05  8.727502E+03 -8.696537E+03
        36  10 -9.485112E+05 -1.072398E+05  3.318602E+04 -3.821712E+05 -2.674155E-09 -1.331492E-09
        36  11 -9.354776E+05 -9.940229E+04  3.487914E+04 -3.754429E+05 -3.076942E-09  4.479379E-10
        36  12 -9.184538E+05 -9.638376E+04  3.496419E+04 -3.737337E+05  4.047505E-10  2.592264E-10
        36  13 -1.098945E+06 -1.629388E+05 -2.280822E+03 -4.233488E+05 -1.920637E-09 -7.351608E-10
        36  14 -1.100963E+06 -1.606953E+05 -4.084794E+03 -4.207768E+05  9.615651E-10  1.050887E-10
        36  15 -1.098995E+06 -1.632748E+05 -7.512935E+03 -4.232239E+05  3.311426E-10 -4.273076E-11
        36  16 -1.249355E+06 -2.186359E+05 -3.774903E+04 -4.645170E+05  1.102402E-09 -2.228955E-10
        36  17 -1.266420E+06 -2.219863E+05 -4.305066E+04 -4.660996E+05  2.298835E-09 -5.621279E-10
        36  18 -1.279504E+06 -2.301638E+05 -4.999262E+04 -4.727012E+05  5.809411E-10 -4.371527E-10
        36  19 -9.485112E+05 -1.072398E+05  3.318619E+04 -3.821713E+05 -5.707345E+03  7.697436E+03
        36  20 -9.354775E+05 -9.940221E+04  3.487938E+04 -3.754430E+05 -8.082716E+03  7.884287E+03
        36  21 -9.184537E+05 -9.638367E+04  3.496452E+04 -3.737337E+05 -1.045021E+04  8.049393E+03
        36  22 -1.098945E+06 -1.629387E+05 -2.280658E+03 -4.233488E+05 -4.806115E+03  8.035762E+03
        36  23 -1.100963E+06 -1.606952E+05 -4.084570E+03 -4.207768E+05 -7.201379E+03  8.215255E+03
        36  24 -1.098995E+06 -1.632747E+05 -7.512630E+03 -4.232239E+05 -9.588720E+03  8.373015E+03
        36  25 -1.249355E+06 -2.186358E+05 -3.774887E+04 -4.645170E+05 -3.905127E+03  8.373998E+03
        36  26 -1.266420E+06 -2.219862E+05 -4.305044E+04 -4.660996E+05 -6.320297E+03  8.546126E+03
        36  27 -1.279504E+06 -2.301637E+05 -4.999234E+04 -4.727012E+05 -8.727502E+03  8.696537E+03
        37   1 -9.061014E+05 -9.216739E+04  3.547053E+04 -3.718933E+05  1.215081E+04 -8.064345E+03
        37   2 -8.935520E+05 -8.319845E+04  3.094999E+04 -3.631755E+05  2.120853E+04 -5.619027E+03
        37   3 -8.804961E+05 -8.568040E+04  1.799994E+04 -3.578740E+05  3.013777E+04 -2.830648E+03
        37   4 -1.099484E+06 -1.626394E+05 -9.908820E+03 -4.236651E+05  1.119870E+04 -8.422037E+03
        37   5 -1.100225E+06 -1.605285E+05 -1.789898E+04 -4.205900E+05  2.057675E+04 -5.856629E+03
        37   6 -1.100524E+06 -1.699340E+05 -3.457498E+04 -4.209313E+05  2.982606E+04 -2.948255E+03
        37   7 -1.292829E+06 -2.331090E+05 -5.529076E+04 -4.754222E+05  1.024692E+04 -8.779614E+03
        37   8 -1.306854E+06 -2.378551E+05 -6.675082E+04 -4.779868E+05  1.994520E+04 -6.094142E+03
        37   9 -1.320502E+06 -2.541827E+05 -8.715305E+04 -4.839677E+05  2.951447E+04 -3.065813E+03
        37  10 -9.061016E+05 -9.216750E+04  3.547013E+04 -3.718932E+05 -5.599565E-10 -2.808215E-10
        37  11 -8.935525E+05 -8.319861E+04  3.094908E+04 -3.631754E+05 -1.587442E-09 -3.683884E-10
        37  12 -8.804970E+05 -8.568065E+04  1.799821E+04 -3.578739E+05  1.279572E-09 -7.683941E-11
        37  13 -1.099484E+06 -1.626395E+05 -9.909189E+03 -4.236650E+05  1.252745E-09 -1.939319E-10
        37  14 -1.100225E+06 -1.605287E+05 -1.789985E+04 -4.205899E+05 -3.219668E-10 -3.832739E-10
        37  15 -1.100525E+06 -1.699342E+05 -3.457667E+04 -4.209313E+05  3.020395E-10  2.174369E-10
        37  16 -1.292829E+06 -2.331091E+05 -5.529111E+04 -4.754222E+05  1.390606E-09 -7.805938E-11
        37  17 -1.306854E+06 -2.378552E+05 -6.675164E+04 -4.779867E+05  3.940127E-10  1.712405E-10
        37  18 -1.320503E+06 -2.541830E+05 -8.715471E+04 -4.839676E+05 -3.380433E-10  4.343268E-10
        37  19 -9.061014E+05 -9.216739E+04  3.547053E+04 -3.718933E+05 -1.215081E+04  8.064345E+03
        37  20 -8.935520E+05 -8.319845E+04  3.094999E+04 -3.631755E+05 -2.120853E+04  5.619027E+03
        37  21 -8.804961E+05 -8.568040E+04  1.799994E+04 -3.578740E+05 -3.013777E+04  2.830648E+03
        37  22 -1.099484E+06 -1.626394E+05 -9.908820E+03 -4.236651E+05 -1.119870E+04  8.422037E+03
        37  23 -1.100225E+06 -1.605285E+05 -1.789898E+04 -4.205900E+05 -2.057675E+04  5.856629E+03
        37  24 -1.100524E+06 -1.699340E+05 -3.457498E+04 -4.209313E+05 -2.982606E+04  2.948255E+03
        37  25 -1.292829E+06 -2.331090E+05 -5.529076E+04 -4.754222E+05 -1.024692E+04  8.779614E+03
        37  26 -1.306854E+06 -2.378551E+05 -6.675082E+04 -4.779868E+05 -1.994520E+04  6.094142E+03
        37  27 -1.320502E+06 -2.541827E+05 -8.715305E+04 -4.839677E+05 -2.951447E+04  3.065813E+03
        38   1 -8.584541E+05 -8.500975E+04  1.115710E+04 -3.803787E+05  3.821214E+04 -1.115618E+03
        38   2 -8.604688E+05 -5.143576E+04 -1.858435E+04 -3.295090E+05  7.260713E+04  1.308407E+04
        38   3 -9.110459E+05 -1.492985E+05 -1.091715E+05 -2.502653E+05  1.042037E+05  3.473745E+04
        38   4 -1.106187E+06 -1.577386E+05 -4.388092E+04 -4.285717E+05  3.574646E+04 -2.040878E+03
        38   5 -1.091004E+06 -1.604674E+05 -7.819388E+04 -4.167955E+05  7.714884E+04  1.478667E+04
        38   6 -1.125798E+06 -2.960624E+05 -1.789293E+05 -3.766394E+05  1.157526E+05  3.906354E+04
        38   7 -1.353860E+06 -2.304682E+05 -9.892288E+04 -4.767499E+05  3.328183E+04 -2.965935E+03
        38   8 -1.321484E+06 -2.694851E+05 -1.378077E+05 -5.040493E+05  8.168872E+04  1.648817E+04
        38   9 -1.340493E+06 -4.427807E+05 -2.486896E+05 -5.029633E+05  1.272972E+05  4.338489E+04
        38  10 -8.584557E+05 -8.501014E+04  1.115435E+04 -3.803786E+05  9.109500E-10  1.732433E-10
        38  11 -8.604746E+05 -5.143736E+04 -1.859459E+04 -3.295098E+05  2.184562E-09 -1.084124E-10
        38  12 -9.110579E+05 -1.493028E+05 -1.091942E+05 -2.502682E+05  5.410196E-10 -2.454889E-11
        38  13 -1.106189E+06 -1.577389E+05 -4.388334E+04 -4.285716E+05  9.814676E-10  3.129401E-10
        38  14 -1.091010E+06 -1.604692E+05 -7.820549E+04 -4.167964E+05  1.675080E-09  4.180541E-11
        38  15 -1.125812E+06 -2.960676E+05 -1.789574E+05 -3.766430E+05 -1.219246E-10  6.945520E-11
        38  16 -1.353861E+06 -2.304685E+05 -9.892498E+04 -4.767498E+05 -1.118848E-09  6.752394E-10
        38  17 -1.321492E+06 -2.694872E+05 -1.378207E+05 -5.040504E+05 -1.392799E-09  3.816195E-10
        38  18 -1.340510E+06 -4.427870E+05 -2.487237E+05 -5.029677E+05 -9.519724E-10 -3.898204E-11
        38  19 -8.584541E+05 -8.500975E+04  1.115710E+04 -3.803787E+05 -3.821214E+04  1.115618E+03
        38  20 -8.604688E+05 -5.143576E+04 -1.858435E+04 -3.295090E+05 -7.260713E+04 -1.308407E+04
        38  21 -9.110459E+05 -1.492985E+05 -1.091715E+05 -2.502653E+05 -1.042037E+05 -3.473745E+04
        38  22 -1.106187E+06 -1.577386E+05 -4.388092E+04 -4.285717E+05 -3.574646E+04  2.040878E+03
        38  23 -1.091004E+06 -1.604674E+05 -7.819388E+04 -4.167955E+05 -7.714884E+04 -1.478667E+04
        38  24 -1.125798E+06 -2.960624E+05 -1.789293E+05 -3.766394E+05 -1.157526E+05 -3.906354E+04
        38  25 -1.353860E+06 -2.304682E+05 -9.892288E+04 -4.767499E+05 -3.328183E+04  2.965935E+03
        38  26 -1.321484E+06 -2.694851E+05 -1.378077E+05 -5.040493E+05 -8.168872E+04 -1.648817E+04
        38  27 -1.340493E+06 -4.427807E+05 -2.486896E+05 -5.029633E+05 -1.272972E+05 -4.338489E+04
        39   1 -9.975738E+04  4.037482E+04  4.792293E+04  2.029524E+04  3.300196E+04  1.079017E+00
        39   2 -1.050440E+05  1.202547E+03  2.203536E+04  7.368358E+03  2.137507E+04  2.537315E-01
        39   3 -9.976010E+04 -1.747616E+03  1.277435E+04 -5.558367E+03  9.748164E+03 -8.728955E-02
        39   4 -9.975782E+04  4.037405E+04  4.792282E+04  2.868981E-09  3.300196E+04 -1.030573E-09
        39   5 -1.050440E+05  1.202445E+03  2.203535E+04 -6.794927E-09  2.137507E+04 -2.227723E-09
        39   6 -9.976013E+04 -1.747674E+03  1.277434E+04  4.138954E-09  9.748164E+03 -4.156143E-11
        39   7 -9.975738E+04  4.037482E+04  4.792293E+04 -2.029524E+04  3.300196E+04 -1.079017E+00
        39   8 -1.050440E+05  1.202547E+03  2.203536E+04 -7.368358E+03  2.137507E+04 -2.537315E-01
        39   9 -9.976010E+04 -1.747616E+03  1.277435E+04  5.558367E+03  9.748164E+03  8.728955E-02
        39  10 -9.975854E+04  4.037453E+04  4.792089E+04  2.029524E+04  1.695401E-09 -4.413082E-10
        39  11 -1.050444E+05  1.202425E+03  2.203450E+04  7.368358E+03 -4.193559E-10 -8.922627E-10
        39  12 -9.976020E+04 -1.747641E+03  1.277417E+04 -5.558367E+03 -2.351111E-09  5.047334E-10
        39  13 -9.975899E+04  4.037375E+04  4.792078E+04 -3.967048E-09 -4.206605E-12 -5.224244E-10
        39  14 -1.050445E+05  1.202323E+03  2.203449E+04 -4.518007E-09 -1.021687E-09 -1.023764E-09
        39  15 -9.976024E+04 -1.747700E+03  1.277416E+04 -4.531674E-09  1.894792E-09  4.711673E-10
        39  16 -9.975854E+04  4.037453E+04  4.792089E+04 -2.029524E+04 -1.697502E-09 -5.755307E-10
        39  17 -1.050444E+05  1.202425E+03  2.203450E+04 -7.368358E+03  1.002431E-09 -1.177569E-09
        39  18 -9.976020E+04 -1.747641E+03  1.277417E+04  5.558367E+03  3.433268E-09  4.454855E-10
        39  19 -9.975738E+04  4.037482E+04  4.792293E+04  2.029524E+04 -3.300196E+04 -1.079017E+00
        39  20 -1.050440E+05  1.202547E+03  2.203536E+04  7.368358E+03 -2.137507E+04 -2.537315E-01
        39  21 -9.976010E+04 -1.747616E+03  1.277435E+04 -5.558367E+03 -9.748164E+03  8.728955E-02
        39  22 -9.975782E+04  4.037405E+04  4.792282E+04  4.278861E-09 -3.300196E+04 -9.428178E-12
        39  23 -1.050440E+05  1.202445E+03  2.203535E+04 -1.163683E-09 -2.137507E+04  1.714564E-10
        39  24 -9.976013E+04 -1.747674E+03  1.277434E+04  4.434947E-09 -9.748164E+03  9.826925E-10
        39  25 -9.975738E+04  4.037482E+04  4.792293E+04 -2.029524E+04 -3.300196E+04  1.079017E+00
        39  26 -1.050440E+05  1.202547E+03  2.203536E+04 -7.368358E+03 -2.137507E+04  2.537315E-01
        39  27 -9.976010E+04 -1.747616E+03  1.277435E+04  5.558367E+03 -9.748164E+03 -8.728954E-02
        40   1 -1.019261E+05  1.928899E+03  1.008868E+04  6.573154E+02  7.968278E+03  8.437854E-03
        40   2 -1.023372E+05 -1.773785E+01  5.496621E+03  1.372793E+02  5.215633E+03  1.153469E-03
        40   3 -1.019264E+05 -1.105251E+02  3.160333E+03 -3.827501E+02  2.463039E+03 -1.518728E-03
        40   4 -1.019261E+05  1.928898E+03  1.008868E+04  5.398838E-09  7.968278E+03  1.331551E-09
        40   5 -1.023372E+05 -1.773789E+01  5.496621E+03 -2.795838E-09  5.215633E+03  1.028910E-09
        40   6 -1.019264E+05 -1.105254E+02  3.160333E+03  8.660789E-09  2.463039E+03 -4.743989E-11
        40   7 -1.019261E+05  1.928899E+03  1.008868E+04 -6.573154E+02  7.968278E+03 -8.437852E-03
        40   8 -1.023372E+05 -1.773785E+01  5.496621E+03 -1.372793E+02  5.215633E+03 -1.153467E-03
        40   9 -1.019264E+05 -1.105251E+02  3.160333E+03  3.827501E+02  2.463039E+03  1.518728E-03
        40  10 -1.019262E+05  1.928881E+03  1.008856E+04  6.573154E+02  2.484214E-09  8.018932E-10
        40  11 -1.023372E+05 -1.774516E+01  5.496570E+03  1.372793E+02  9.029684E-10 -1.880510E-10
        40  12 -1.019264E+05 -1.105267E+02  3.160321E+03 -3.827501E+02 -1.195962E-09 -4.412227E-10
        40  13 -1.019262E+05  1.928881E+03  1.008856E+04 -1.357325E-09 -1.079041E-09  9.032337E-10
        40  14 -1.023372E+05 -1.774519E+01  5.496570E+03 -1.821713E-09 -3.230804E-09  9.664604E-11
        40  15 -1.019264E+05 -1.105270E+02  3.160321E+03  1.171423E-08 -1.589932E-09  7.003728E-11
        40  16 -1.019262E+05  1.928881E+03  1.008856E+04 -6.573154E+02 -1.153697E-09  1.002247E-09
        40  17 -1.023372E+05 -1.774516E+01  5.496570E+03 -1.372793E+02 -1.701324E-09  3.692130E-10
        40  18 -1.019264E+05 -1.105267E+02  3.160321E+03  3.827501E+02  1.303621E-10  5.847094E-10
        40  19 -1.019261E+05  1.928899E+03  1.008868E+04  6.573154E+02 -7.968278E+03 -8.437853E-03
        40  20 -1.023372E+05 -1.773785E+01  5.496621E+03  1.372793E+02 -5.215633E+03 -1.153470E-03
        40  21 -1.019264E+05 -1.105251E+02  3.160333E+03 -3.827501E+02 -2.463039E+03  1.518727E-03
        40  22 -1.019261E+05  1.928898E+03  1.008868E+04  2.654869E-09 -7.968278E+03  4.750242E-10
        40  23 -1.023372E+05 -1.773789E+01  5.496621E+03 -7.309802E-09 -5.215633E+03 -8.352317E-10
        40  24 -1.019264E+05 -1.105254E+02  3.160333E+03  8.975499E-09 -2.463039E+03  1.871951E-10
        40  25 -1.019261E+05  1.928899E+03  1.008868E+04 -6.573154E+02 -7.968278E+03  8.437854E-03
        40  26 -1.023372E+05 -1.773785E+01  5.496621E+03 -1.372793E+02 -5.215633E+03  1.153468E-03
        40  27 -1.019264E+05 -1.105251E+02  3.160333E+03  3.827501E+02 -2.463039E+03 -1.518727E-03
        41   1 -1.020840E+05  6.802171E+01  2.412830E+03 -5.945633E+01  1.971710E+03 -1.888581E-04
        41   2 -1.021402E+05 -2.039425E+01  1.362334E+03 -5.217999E+01  1.296911E+03 -1.090196E-04
        41   3 -1.020841E+05 -1.089312E+01  7.757051E+02 -4.490353E+01  6.221024E+02 -4.500187E-05
        41   4 -1.020840E+05  6.802170E+01  2.412830E+03  1.249205E-08  1.971710E+03 -1.916750E-10
        41   5 -1.021402E+05 -2.039426E+01  1.362334E+03  3.453909E-09  1.296911E+03  5.570944E-10
        41   6 -1.020841E+05 -1.089312E+01  7.757051E+02  1.030112E-08  6.221024E+02  8.209709E-10
        41   7 -1.020840E+05  6.802171E+01  2.412830E+03  5.945633E+01  1.971710E+03  1.888578E-04
        41   8 -1.021402E+05 -2.039425E+01  1.362334E+03  5.217999E+01  1.296911E+03  1.090206E-04
        41   9 -1.020841E+05 -1.089312E+01  7.757051E+02  4.490353E+01  6.221024E+02  4.500353E-05
        41  10 -1.020840E+05  6.802067E+01  2.412823E+03 -5.945633E+01 -1.326029E-09  1.570303E-10
        41  11 -1.021402E+05 -2.039470E+01  1.362331E+03 -5.217999E+01 -1.239489E-11  7.867884E-10
        41  12 -1.020841E+05 -1.089322E+01  7.757044E+02 -4.490353E+01 -1.036113E-10 -4.294243E-10
        41  13 -1.020840E+05  6.802066E+01  2.412823E+03  1.477921E-08 -1.089552E-09  4.001407E-10
        41  14 -1.021402E+05 -2.039471E+01  1.362331E+03  6.616865E-09 -1.095437E-09  5.330400E-10
        41  15 -1.020841E+05 -1.089323E+01  7.757044E+02  3.839689E-09 -2.296679E-09 -1.462970E-10
        41  16 -1.020840E+05  6.802067E+01  2.412823E+03  5.945633E+01 -1.378497E-09  6.420656E-10
        41  17 -1.021402E+05 -2.039470E+01  1.362331E+03  5.217999E+01 -1.882013E-09  2.657144E-10
        41  18 -1.020841E+05 -1.089322E+01  7.757044E+02  4.490353E+01 -9.438799E-10  1.333366E-10
        41  19 -1.020840E+05  6.802171E+01  2.412830E+03 -5.945633E+01 -1.971710E+03  1.888585E-04
        41  20 -1.021402E+05 -2.039425E+01  1.362334E+03 -5.217999E+01 -1.296911E+03  1.090212E-04
        41  21 -1.020841E+05 -1.089312E+01  7.757051E+02 -4.490353E+01 -6.221024E+02  4.500102E-05
        41  22 -1.020840E+05  6.802170E+01  2.412830E+03  1.383649E-08 -1.971710E+03  9.905628E-10
        41  23 -1.021402E+05 -2.039426E+01  1.362334E+03 -5.296926E-09 -1.296911E+03  5.065927E-10
        41  24 -1.020841E+05 -1.089312E+01  7.757051E+02  1.084040E-08 -6.221024E+02 -1.114490E-09
        41  25 -1.020840E+05  6.802171E+01  2.412830E+03  5.945633E+01 -1.971710E+03 -1.888565E-04
        41  26 -1.021402E+05 -2.039425E+01  1.362334E+03  5.217999E+01 -1.296911E+03 -1.090201E-04
        41  27 -1.020841E+05 -1.089312E+01  7.757051E+02  4.490353E+01 -6.221024E+02 -4.500327E-05
        42   1 -1.021042E+05 -3.867313E+00  5.827997E+02 -2.659943E+01  4.994307E+02 -2.140137E-05
        42   2 -1.021151E+05 -5.499152E+00  3.170827E+02 -1.849990E+01  3.427196E+02 -1.021416E-05
        42   3 -1.021042E+05 -1.350789E+00  1.548493E+02 -1.040038E+01  1.860086E+02 -3.115527E-06
        42   4 -1.021042E+05 -3.867314E+00  5.827997E+02  5.037822E-09  4.994307E+02  1.921231E-10
        42   5 -1.021151E+05 -5.499153E+00  3.170827E+02 -3.757534E-09  3.427196E+02 -5.426323E-10
        42   6 -1.021042E+05 -1.350789E+00  1.548493E+02  2.388458E-09  1.860086E+02  8.852106E-10
        42   7 -1.021042E+05 -3.867313E+00  5.827997E+02  2.659943E+01  4.994307E+02  2.140177E-05
        42   8 -1.021151E+05 -5.499152E+00  3.170827E+02  1.849990E+01  3.427196E+02  1.021306E-05
        42   9 -1.021042E+05 -1.350789E+00  1.548493E+02  1.040038E+01  1.860086E+02  3.117288E-06
        42  10 -1.021042E+05 -3.867380E+00  5.827992E+02 -2.659943E+01 -2.057914E-09 -6.764317E-10
        42  11 -1.021151E+05 -5.499184E+00  3.170825E+02 -1.849990E+01 -2.160988E-10  4.327276E-10
        42  12 -1.021042E+05 -1.350798E+00  1.548492E+02 -1.040038E+01 -1.008212E-09  7.604552E-10
        42  13 -1.021042E+05 -3.867381E+00  5.827992E+02  4.010977E-09 -2.114830E-09 -4.544663E-10
        42  14 -1.021151E+05 -5.499184E+00  3.170825E+02 -1.471167E-09 -1.846395E-11 -9.296485E-11
        42  15 -1.021042E+05 -1.350799E+00  1.548492E+02  1.662389E-09 -2.167066E-09  6.120028E-10
        42  16 -1.021042E+05 -3.867380E+00  5.827992E+02  2.659943E+01  1.229356E-09 -2.372835E-10
        42  17 -1.021151E+05 -5.499184E+00  3.170825E+02  1.849990E+01  2.525009E-10 -6.186824E-10
        42  18 -1.021042E+05 -1.350798E+00  1.548492E+02  1.040038E+01  2.185081E-09  4.618000E-10
        42  19 -1.021042E+05 -3.867313E+00  5.827997E+02 -2.659943E+01 -4.994307E+02  2.140002E-05
        42  20 -1.021151E+05 -5.499152E+00  3.170827E+02 -1.849990E+01 -3.427196E+02  1.021503E-05
        42  21 -1.021042E+05 -1.350789E+00  1.548493E+02 -1.040038E+01 -1.860086E+02  3.117062E-06
        42  22 -1.021042E+05 -3.867314E+00  5.827997E+02  6.212030E-09 -4.994307E+02 -1.098500E-09
        42  23 -1.021151E+05 -5.499153E+00  3.170827E+02 -2.416115E-09 -3.427196E+02  3.574043E-10
        42  24 -1.021042E+05 -1.350789E+00  1.548493E+02  9.280949E-09 -1.860086E+02  3.426491E-10
        42  25 -1.021042E+05 -3.867313E+00  5.827997E+02  2.659943E+01 -4.994307E+02 -2.140224E-05
        42  26 -1.021151E+05 -5.499152E+00  3.170827E+02  1.849990E+01 -3.427196E+02 -1.021432E-05
        42  27 -1.021042E+05 -1.350789E+00  1.548493E+02  1.040038E+01 -1.860086E+02 -3.116376E-06
        43   1 -1.021093E+05 -1.528016E+00  9.451422E+01 -9.371995E+00  1.633786E+02 -2.466054E-06
        43   2 -1.021088E+05  1.068778E-01 -8.522614E+00 -9.240099E+00  1.676101E+02 -2.495859E-06
        43   3 -1.021093E+05  6.579603E-01 -1.145865E+02 -9.108205E+00  1.718416E+02 -2.521556E-06
        43   4 -1.021093E+05 -1.528017E+00  9.451422E+01  2.626970E-09  1.633786E+02  8.750391E-10
        43   5 -1.021088E+05  1.068777E-01 -8.522614E+00 -2.669076E-09  1.676101E+02 -7.041932E-10
        43   6 -1.021093E+05  6.579602E-01 -1.145865E+02  2.668508E-09  1.718416E+02 -3.251782E-10
        43   7 -1.021093E+05 -1.528016E+00  9.451422E+01  9.371995E+00  1.633786E+02  2.467800E-06
        43   8 -1.021088E+05  1.068778E-01 -8.522614E+00  9.240099E+00  1.676101E+02  2.494412E-06
        43   9 -1.021093E+05  6.579603E-01 -1.145865E+02  9.108205E+00  1.718416E+02  2.520889E-06
        43  10 -1.021093E+05 -1.528024E+00  9.451417E+01 -9.371995E+00  1.038102E-09  1.359051E-10
        43  11 -1.021088E+05  1.068703E-01 -8.522667E+00 -9.240099E+00 -1.160938E-09 -8.672852E-10
        43  12 -1.021093E+05  6.579524E-01 -1.145865E+02 -9.108205E+00 -1.455230E-09 -3.556804E-10
        43  13 -1.021093E+05 -1.528024E+00  9.451417E+01  1.137532E-09  1.114884E-09  3.477180E-10
        43  14 -1.021088E+05  1.068701E-01 -8.522667E+00  4.443233E-10  1.112781E-09 -7.197249E-10
        43  15 -1.021093E+05  6.579522E-01 -1.145865E+02 -7.868250E-10 -1.135438E-09 -5.965905E-10
        43  16 -1.021093E+05 -1.528024E+00  9.451417E+01  9.371995E+00 -1.044938E-09  5.622718E-10
        43  17 -1.021088E+05  1.068703E-01 -8.522667E+00  9.240099E+00 -1.512936E-09 -5.701914E-10
        43  18 -1.021093E+05  6.579524E-01 -1.145865E+02  9.108205E+00 -8.547325E-10 -8.438689E-10
        43  19 -1.021093E+05 -1.528016E+00  9.451422E+01 -9.371995E+00 -1.633786E+02  2.466324E-06
        43  20 -1.021088E+05  1.068778E-01 -8.522614E+00 -9.240099E+00 -1.676101E+02  2.494123E-06
        43  21 -1.021093E+05  6.579603E-01 -1.145865E+02 -9.108205E+00 -1.718416E+02  2.520853E-06
        43  22 -1.021093E+05 -1.528017E+00  9.451422E+01  8.265242E-09 -1.633786E+02 -1.802807E-10
        43  23 -1.021088E+05  1.068777E-01 -8.522614E+00  1.404915E-09 -1.676101E+02 -7.370594E-10
        43  24 -1.021093E+05  6.579602E-01 -1.145865E+02  4.103918E-09 -1.718416E+02 -8.705570E-10
        43  25 -1.021093E+05 -1.528016E+00  9.451422E+01  9.371995E+00 -1.633786E+02 -2.466690E-06
        43  26 -1.021088E+05  1.068778E-01 -8.522614E+00  9.240099E+00 -1.676101E+02 -2.495598E-06
        43  27 -1.021093E+05  6.579603E-01 -1.145865E+02  9.108205E+00 -1.718416E+02 -2.522587E-06
        44   1 -1.021156E+05  2.460181E+00 -1.782953E+02 -1.394045E+01  1.982478E+02 -4.452180E-06
        44   2 -1.021009E+05  5.232668E+00 -3.534358E+02 -1.533176E+01  3.733406E+02 -9.222057E-06
        44   3 -1.021156E+05 -1.871523E+01 -6.492616E+02 -1.672310E+01  5.484358E+02 -1.477556E-05
        44   4 -1.021156E+05  2.460181E+00 -1.782953E+02  2.396136E-09  1.982478E+02 -1.107127E-10
        44   5 -1.021009E+05  5.232667E+00 -3.534358E+02  4.049194E-09  3.733406E+02 -4.563921E-10
        44   6 -1.021156E+05 -1.871523E+01 -6.492616E+02  5.970564E-09  5.484358E+02  7.291637E-11
        44   7 -1.021156E+05  2.460181E+00 -1.782953E+02  1.394045E+01  1.982478E+02  4.451957E-06
        44   8 -1.021009E+05  5.232668E+00 -3.534358E+02  1.533176E+01  3.733406E+02  9.221141E-06
        44   9 -1.021156E+05 -1.871523E+01 -6.492616E+02  1.672310E+01  5.484358E+02  1.477569E-05
        44  10 -1.021156E+05  2.460170E+00 -1.782954E+02 -1.394045E+01 -1.648398E-09  5.997448E-11
        44  11 -1.021009E+05  5.232630E+00 -3.534360E+02 -1.533176E+01 -1.177082E-09 -9.765659E-11
        44  12 -1.021156E+05 -1.871531E+01 -6.492622E+02 -1.672310E+01  8.235992E-10 -2.903678E-10
        44  13 -1.021156E+05  2.460170E+00 -1.782954E+02  2.556380E-09 -1.115908E-09 -1.253862E-10
        44  14 -1.021009E+05  5.232630E+00 -3.534360E+02  9.456323E-09 -1.670707E-09  2.430792E-10
        44  15 -1.021156E+05 -1.871531E+01 -6.492622E+02  5.048500E-09  4.187284E-10  4.829669E-11
        44  16 -1.021156E+05  2.460170E+00 -1.782954E+02  1.394045E+01  1.166543E-09 -2.967144E-10
        44  17 -1.021009E+05  5.232630E+00 -3.534360E+02  1.533176E+01  1.381783E-09  5.769038E-10
        44  18 -1.021156E+05 -1.871531E+01 -6.492622E+02  1.672310E+01 -6.048026E-10  3.849118E-10
        44  19 -1.021156E+05  2.460181E+00 -1.782953E+02 -1.394045E+01 -1.982478E+02  4.452293E-06
        44  20 -1.021009E+05  5.232668E+00 -3.534358E+02 -1.533176E+01 -3.733406E+02  9.221872E-06
        44  21 -1.021156E+05 -1.871523E+01 -6.492616E+02 -1.672310E+01 -5.484358E+02  1.477498E-05
        44  22 -1.021156E+05  2.460181E+00 -1.782953E+02  4.868907E-09 -1.982478E+02 -1.393515E-10
        44  23 -1.021009E+05  5.232667E+00 -3.534358E+02  1.055442E-08 -3.733406E+02  9.386508E-10
        44  24 -1.021156E+05 -1.871523E+01 -6.492616E+02  5.738676E-09 -5.484358E+02  2.517654E-11
        44  25 -1.021156E+05  2.460181E+00 -1.782953E+02  1.394045E+01 -1.982478E+02 -4.452566E-06
        44  26 -1.021009E+05  5.232668E+00 -3.534358E+02  1.533176E+01 -3.733406E+02 -9.220006E-06
        44  27 -1.021156E+05 -1.871523E+01 -6.492616E+02  1.672310E+01 -5.484358E+02 -1.477493E-05
        45   1 -1.021590E+05  3.012038E+01 -8.565753E+02 -1.051758E+02  6.811282E+02 -1.154087E-04
        45   2 -1.020467E+05  4.772572E+00 -1.499669E+03  3.730880E+01  1.432188E+03  8.607973E-05
        45   3 -1.021591E+05 -5.279749E+02 -2.758642E+03  1.797935E+02  2.183247E+03  6.323674E-04
        45   4 -1.021590E+05  3.012036E+01 -8.565753E+02  1.062729E-08  6.811282E+02 -6.959901E-12
        45   5 -1.020467E+05  4.772570E+00 -1.499669E+03 -2.080202E-09  1.432188E+03 -7.933864E-10
        45   6 -1.021591E+05 -5.279749E+02 -2.758642E+03  3.654347E-09  2.183247E+03 -6.926561E-10
        45   7 -1.021590E+05  3.012038E+01 -8.565753E+02  1.051758E+02  6.811282E+02  1.154087E-04
        45   8 -1.020467E+05  4.772572E+00 -1.499669E+03 -3.730880E+01  1.432188E+03 -8.608134E-05
        45   9 -1.021591E+05 -5.279749E+02 -2.758642E+03 -1.797935E+02  2.183247E+03 -6.323688E-04
        45  10 -1.021590E+05  3.012025E+01 -8.565761E+02 -1.051758E+02 -4.351532E-10  1.993916E-11
        45  11 -1.020467E+05  4.772022E+00 -1.499673E+03  3.730880E+01 -2.077431E-09  5.088333E-10
        45  12 -1.021591E+05 -5.279762E+02 -2.758651E+03  1.797935E+02 -1.293562E-09 -2.149711E-10
        45  13 -1.021590E+05  3.012023E+01 -8.565762E+02  2.192597E-09  5.258228E-12  1.325576E-10
        45  14 -1.020467E+05  4.772019E+00 -1.499673E+03 -3.172644E-09 -1.095315E-09  4.665823E-10
        45  15 -1.021591E+05 -5.279762E+02 -2.758651E+03  7.729605E-11  9.592563E-10  9.957835E-12
        45  16 -1.021590E+05  3.012025E+01 -8.565761E+02  1.051758E+02 -4.103678E-10  2.449402E-10
        45  17 -1.020467E+05  4.772022E+00 -1.499673E+03 -3.730880E+01 -7.695224E-11  4.156897E-10
        45  18 -1.021591E+05 -5.279762E+02 -2.758651E+03 -1.797935E+02  4.146825E-10  2.370461E-10
        45  19 -1.021590E+05  3.012038E+01 -8.565753E+02 -1.051758E+02 -6.811282E+02  1.154087E-04
        45  20 -1.020467E+05  4.772572E+00 -1.499669E+03  3.730880E+01 -1.432188E+03 -8.607872E-05
        45  21 -1.021591E+05 -5.279749E+02 -2.758642E+03  1.797935E+02 -2.183247E+03 -6.323678E-04
        45  22 -1.021590E+05  3.012036E+01 -8.565753E+02  7.758657E-09 -6.811282E+02  2.705310E-10
        45  23 -1.020467E+05  4.772570E+00 -1.499669E+03 -4.264957E-09 -1.432188E+03  1.726940E-09
        45  24 -1.021591E+05 -5.279749E+02 -2.758642E+03  7.538781E-09 -2.183247E+03  7.141745E-10
        45  25 -1.021590E+05  3.012038E+01 -8.565753E+02  1.051758E+02 -6.811282E+02 -1.154082E-04
        45  26 -1.020467E+05  4.772572E+00 -1.499669E+03 -3.730880E+01 -1.432188E+03  8.608216E-05
        45  27 -1.021591E+05 -5.279749E+02 -2.758642E+03 -1.797935E+02 -2.183247E+03  6.323693E-04
        46   1 -1.027520E+05  4.783387E+02 -3.494398E+03 -1.521501E+03  2.669962E+03 -6.544420E-03
        46   2 -1.013057E+05 -3.291216E+02 -6.029941E+03  2.016737E+03  5.851935E+03  1.901259E-02
        46   3 -1.027525E+05 -1.105052E+04 -1.311580E+04  5.554910E+03  9.033861E+03  8.084322E-02
        46   4 -1.027520E+05  4.783344E+02 -3.494399E+03  3.165855E-09  2.669962E+03 -3.715432E-10
        46   5 -1.013057E+05 -3.291292E+02 -6.029942E+03 -2.328921E-09  5.851935E+03 -8.335729E-11
        46   6 -1.027525E+05 -1.105058E+04 -1.311581E+04 -1.489646E-11  9.033861E+03  2.341637E-12
        46   7 -1.027520E+05  4.783387E+02 -3.494398E+03  1.521501E+03  2.669962E+03  6.544419E-03
        46   8 -1.013057E+05 -3.291216E+02 -6.029941E+03 -2.016737E+03  5.851935E+03 -1.901259E-02
        46   9 -1.027525E+05 -1.105052E+04 -1.311580E+04 -5.554910E+03  9.033861E+03 -8.084322E-02
        46  10 -1.027520E+05  4.783368E+02 -3.494412E+03 -1.521501E+03 -1.209671E-09 -5.052051E-10
        46  11 -1.013058E+05 -3.291308E+02 -6.030005E+03  2.016737E+03 -8.971568E-11 -1.181741E-10
        46  12 -1.027526E+05 -1.105054E+04 -1.311595E+04  5.554910E+03  4.445636E-10  8.558885E-12
        46  13 -1.027520E+05  4.783324E+02 -3.494412E+03 -9.569990E-11  7.335822E-11 -3.181857E-10
        46  14 -1.013058E+05 -3.291384E+02 -6.030007E+03 -5.533953E-09  5.395142E-10 -3.282623E-10
        46  15 -1.027526E+05 -1.105060E+04 -1.311596E+04 -1.278762E-09  1.635252E-09 -1.070162E-10
        46  16 -1.027520E+05  4.783368E+02 -3.494412E+03  1.521501E+03  1.496454E-09 -1.315457E-10
        46  17 -1.013058E+05 -3.291308E+02 -6.030005E+03 -2.016737E+03  9.255766E-10 -5.376078E-10
        46  18 -1.027526E+05 -1.105054E+04 -1.311595E+04 -5.554910E+03  1.028663E-09 -2.276477E-10
        46  19 -1.027520E+05  4.783387E+02 -3.494398E+03 -1.521501E+03 -2.669962E+03  6.544419E-03
        46  20 -1.013057E+05 -3.291216E+02 -6.029941E+03  2.016737E+03 -5.851935E+03 -1.901259E-02
        46  21 -1.027525E+05 -1.105052E+04 -1.311580E+04  5.554910E+03 -9.033861E+03 -8.084322E-02
        46  22 -1.027520E+05  4.783344E+02 -3.494399E+03  8.488729E-09 -2.669962E+03 -2.625832E-10
        46  23 -1.013057E+05 -3.291292E+02 -6.029942E+03 -2.276993E-09 -5.851935E+03 -5.725298E-10
        46  24 -1.027525E+05 -1.105058E+04 -1.311581E+04  2.303802E-09 -9.033861E+03 -2.175950E-10
        46  25 -1.027520E+05  4.783387E+02 -3.494398E+03  1.521501E+03 -2.669962E+03 -6.544420E-03
        46  26 -1.013057E+05 -3.291216E+02 -6.029941E+03 -2.016737E+03 -5.851935E+03  1.901259E-02
        46  27 -1.027525E+05 -1.105052E+04 -1.311580E+04 -5.554910E+03 -9.033861E+03  8.084322E-02
        47   1  2.699270E+05  8.386705E+05  2.734484E+05 -1.289550E+05  1.108775E+04  7.295142E+04
        47   2  1.811657E+05  6.771753E+05  1.900801E+05 -8.538543E+04  3.365267E+04  3.383413E+04
        47   3  1.403919E+05  5.328927E+05  1.441760E+05 -9.800220E+04  3.204402E+04 -5.277019E+03
        47   4  4.845266E+04 -5.344687E+04  5.781394E+04 -1.042835E+05  1.110033E+04  3.796791E+04
        47   5  1.375024E+03 -5.990333E+04  2.797503E+04 -7.619989E+04  3.366081E+04  2.326470E+04
        47   6 -1.917708E+03 -5.338129E+04  1.868034E+04 -1.043025E+05  3.203676E+04  8.557564E+03
        47   7 -1.730770E+05 -9.448334E+05 -1.578728E+05 -7.964750E+04  1.111016E+04  3.034423E+03
        47   8 -1.784517E+05 -7.964738E+05 -1.341628E+05 -6.702529E+04  3.366863E+04  1.270765E+04
        47   9 -1.442495E+05 -6.393315E+05 -1.068345E+05 -1.105966E+05  3.202922E+04  2.237928E+04
        47  10  2.699255E+05  8.386647E+05  2.734382E+05 -1.289556E+05  5.791201E-11  9.740889E-11
        47  11  1.811642E+05  6.771738E+05  1.900758E+05 -8.538635E+04  9.011217E-11 -6.136320E-10
        47  12  1.403908E+05  5.328924E+05  1.441740E+05 -9.800207E+04 -9.797720E-11 -5.903639E-10
        47  13  4.845214E+04 -5.344845E+04  5.781100E+04 -1.042839E+05 -1.013861E-09  5.847128E-11
        47  14  1.373662E+03 -5.990422E+04  2.797188E+04 -7.620052E+04 -1.540516E-09 -1.759938E-10
        47  15 -1.918830E+03 -5.338164E+04  1.867828E+04 -1.043027E+05  1.189005E-09  1.784354E-10
        47  16 -1.730771E+05 -9.448335E+05 -1.578730E+05 -7.964753E+04  3.244767E-10 -1.185398E-10
        47  17 -1.784529E+05 -7.964743E+05 -1.341653E+05 -6.702563E+04  3.474633E-10 -1.815712E-10
        47  18 -1.442507E+05 -6.393323E+05 -1.068374E+05 -1.105972E+05  3.682921E-10  6.874290E-10
        47  19  2.699270E+05  8.386705E+05  2.734484E+05 -1.289550E+05 -1.108775E+04 -7.295142E+04
        47  20  1.811657E+05  6.771753E+05  1.900801E+05 -8.538543E+04 -3.365267E+04 -3.383413E+04
        47  21  1.403919E+05  5.328927E+05  1.441760E+05 -9.800220E+04 -3.204402E+04  5.277019E+03
        47  22  4.845266E+04 -5.344687E+04  5.781394E+04 -1.042835E+05 -1.110033E+04 -3.796791E+04
        47  23  1.375024E+03 -5.990333E+04  2.797503E+04 -7.619989E+04 -3.366081E+04 -2.326470E+04
        47  24 -1.917708E+03 -5.338129E+04  1.868034E+04 -1.043025E+05 -3.203676E+04 -8.557564E+03
        47  25 -1.730770E+05 -9.448334E+05 -1.578728E+05 -7.964750E+04 -1.111016E+04 -3.034423E+03
        47  26 -1.784517E+05 -7.964738E+05 -1.341628E+05 -6.702529E+04 -3.366863E+04 -1.270765E+04
        47  27 -1.442495E+05 -6.393315E+05 -1.068345E+05 -1.105966E+05 -3.202922E+04 -2.237928E+04
        48   1  1.157831E+05  4.115673E+05  1.170671E+05 -1.061788E+05  2.495800E+04 -1.549440E+03
        48   2  7.640300E+04  2.577202E+05  8.195354E+04 -7.603564E+04  1.738014E+04 -9.685164E+03
        48   3  4.227359E+04  1.061975E+05  5.342929E+04 -1.032015E+05  9.056937E+03 -1.782255E+04
        48   4  2.250978E+03 -5.575527E+04  1.664061E+04 -1.045475E+05  2.495368E+04  5.720414E+03
        48   5  5.612024E+01 -5.682689E+04  1.472739E+04 -7.589206E+04  1.737392E+04 -1.660447E+03
        48   6  2.983894E+03 -5.572622E+04  1.888259E+04 -1.045469E+05  9.048586E+03 -9.044903E+03
        48   7 -1.112954E+05 -5.228725E+05 -8.379851E+04 -1.029175E+05  2.494940E+04  1.298487E+04
        48   8 -7.629718E+04 -3.712807E+05 -5.250424E+04 -7.574852E+04  1.736770E+04  6.360266E+03
        48   9 -3.630747E+04 -2.176250E+05 -1.566534E+04 -1.058921E+05  9.040195E+03 -2.695109E+02
        48  10  1.157824E+05  4.115671E+05  1.170660E+05 -1.061787E+05 -9.029183E-10  9.878180E-10
        48  11  7.640265E+04  2.577200E+05  8.195280E+04 -7.603551E+04 -5.176874E-10 -1.282528E-09
        48  12  4.227342E+04  1.061971E+05  5.342854E+04 -1.032013E+05 -1.821229E-10 -2.123801E-09
        48  13  2.250300E+03 -5.575547E+04  1.663938E+04 -1.045476E+05  5.002328E-10  3.448595E-10
        48  14  5.579538E+01 -5.682697E+04  1.472682E+04 -7.589203E+04  1.941391E-09 -3.870993E-10
        48  15  2.983784E+03 -5.572633E+04  1.888228E+04 -1.045469E+05  5.087923E-10  2.963961E-10
        48  16 -1.112961E+05 -5.228728E+05 -8.380000E+04 -1.029177E+05 -8.984304E-11 -1.127867E-09
        48  17 -7.629752E+04 -3.712809E+05 -5.250488E+04 -7.574861E+04  2.697214E-09 -4.589027E-10
        48  18 -3.630755E+04 -2.176251E+05 -1.566549E+04 -1.058921E+05  7.713953E-10  2.247594E-09
        48  19  1.157831E+05  4.115673E+05  1.170671E+05 -1.061788E+05 -2.495800E+04  1.549440E+03
        48  20  7.640300E+04  2.577202E+05  8.195354E+04 -7.603564E+04 -1.738014E+04  9.685164E+03
        48  21  4.227359E+04  1.061975E+05  5.342929E+04 -1.032015E+05 -9.056937E+03  1.782255E+04
        48  22  2.250978E+03 -5.575527E+04  1.664061E+04 -1.045475E+05 -2.495368E+04 -5.720414E+03
        48  23  5.612024E+01 -5.682689E+04  1.472739E+04 -7.589206E+04 -1.737392E+04  1.660447E+03
        48  24  2.983894E+03 -5.572622E+04  1.888259E+04 -1.045469E+05 -9.048586E+03  9.044903E+03
        48  25 -1.112954E+05 -5.228725E+05 -8.379851E+04 -1.029175E+05 -2.494940E+04 -1.298487E+04
        48  26 -7.629718E+04 -3.712807E+05 -5.250424E+04 -7.574852E+04 -1.736770E+04 -6.360266E+03
        48  27 -3.630747E+04 -2.176250E+05 -1.566534E+04 -1.058921E+05 -9.040195E+03  2.695109E+02
        49   1  8.089453E+03 -9.227728E+03  3.088662E+04 -1.128717E+05  3.059460E+03 -2.301785E+04
        49   2 -2.476961E+04 -1.692520E+05  9.845961E+03 -6.463144E+04 -3.503865E+03 -3.308816E+04
        49   3 -3.828806E+03 -3.145886E+05  8.789066E+03 -7.335245E+04 -1.941176E+03 -4.314950E+04
        49   4 -2.383475E+03 -5.263110E+04  2.202403E+04 -1.044818E+05  3.048507E+03 -1.229909E+04
        49   5  1.940335E+03 -6.067365E+04  3.467867E+04 -7.597615E+04 -3.505592E+03 -3.056350E+04
        49   6  6.147928E+04 -5.263886E+04  7.300261E+04 -1.044263E+05 -1.933706E+03 -4.882132E+04
        49   7 -1.285620E+04 -9.603228E+04  1.316181E+04 -9.609244E+04  3.037845E+03 -1.581066E+03
        49   8  2.864994E+04  4.791588E+04  5.951070E+04 -8.732285E+04 -3.507410E+03 -2.803839E+04
        49   9  1.267859E+05  2.093755E+05  1.372117E+05 -1.355133E+05 -1.925671E+03 -5.449553E+04
        49  10  8.089301E+03 -9.228299E+03  3.088560E+04 -1.128717E+05  5.256427E-10  1.085239E-09
        49  11 -2.476991E+04 -1.692531E+05  9.843879E+03 -6.463153E+04  2.088933E-09 -8.086912E-10
        49  12 -3.829310E+03 -3.145906E+05  8.785558E+03 -7.335251E+04 -9.083054E-10 -1.458706E-09
        49  13 -2.383526E+03 -5.263126E+04  2.202373E+04 -1.044818E+05  1.579428E-09  4.383718E-10
        49  14  1.940071E+03 -6.067465E+04  3.467689E+04 -7.597623E+04 -2.758147E-10 -4.325731E-10
        49  15  6.147863E+04 -5.264142E+04  7.299812E+04 -1.044264E+05 -1.167055E-10  2.528493E-10
        49  16 -1.285621E+04 -9.603229E+04  1.316179E+04 -9.609244E+04  1.288083E-09 -1.258597E-09
        49  17  2.864972E+04  4.791503E+04  5.950920E+04 -8.732293E+04  4.914262E-10 -1.187036E-09
        49  18  1.267851E+05  2.093723E+05  1.372062E+05 -1.355134E+05 -2.375141E-10  1.572382E-09
        49  19  8.089453E+03 -9.227728E+03  3.088662E+04 -1.128717E+05 -3.059460E+03  2.301785E+04
        49  20 -2.476961E+04 -1.692520E+05  9.845961E+03 -6.463144E+04  3.503865E+03  3.308816E+04
        49  21 -3.828806E+03 -3.145886E+05  8.789066E+03 -7.335245E+04  1.941176E+03  4.314950E+04
        49  22 -2.383475E+03 -5.263110E+04  2.202403E+04 -1.044818E+05 -3.048507E+03  1.229909E+04
        49  23  1.940335E+03 -6.067365E+04  3.467867E+04 -7.597615E+04  3.505592E+03  3.056350E+04
        49  24  6.147928E+04 -5.263886E+04  7.300261E+04 -1.044263E+05  1.933706E+03  4.882132E+04
        49  25 -1.285620E+04 -9.603228E+04  1.316181E+04 -9.609244E+04 -3.037845E+03  1.581066E+03
        49  26  2.864994E+04  4.791588E+04  5.951070E+04 -8.732285E+04  3.507410E+03  2.803839E+04
        49  27  1.267859E+05  2.093755E+05  1.372117E+05 -1.355133E+05  1.925671E+03  5.449553E+04
        50   1 -5.126807E+05 -1.366455E+05 -5.813053E+04 -1.973144E+05 -2.618243E+04 -8.489559E+03
        50   2 -4.984081E+05 -9.632747E+04 -3.262653E+04 -1.921728E+05 -1.645855E+04 -2.179095E+03
        50   3 -4.908482E+05 -8.594781E+04 -2.201394E+04 -1.855316E+05 -5.767697E+03  1.553397E+03
        50   4 -4.349126E+05 -9.456382E+04 -3.493174E+04 -1.628968E+05 -2.276500E+04 -7.208794E+03
        50   5 -4.298955E+05 -6.632909E+04 -1.526937E+04 -1.687095E+05 -1.547186E+04 -1.809321E+03
        50   6 -4.311079E+05 -6.754954E+04 -8.570581E+03 -1.730232E+05 -7.211907E+03  1.011953E+03
        50   7 -3.571395E+05 -5.248018E+04 -1.173385E+04 -1.284752E+05 -1.934716E+04 -5.927695E+03
        50   8 -3.613784E+05 -3.632997E+04  2.087344E+03 -1.452438E+05 -1.448506E+04 -1.439486E+03
        50   9 -3.713636E+05 -4.915111E+04  4.872688E+03 -1.605137E+05 -8.656280E+03  4.704706E+02
        50  10 -5.126815E+05 -1.366458E+05 -5.813196E+04 -1.973145E+05  3.905533E-10 -7.052249E-11
        50  11 -4.984084E+05 -9.632755E+04 -3.262705E+04 -1.921728E+05 -2.945491E-09 -1.644448E-09
        50  12 -4.908483E+05 -8.594782E+04 -2.201400E+04 -1.855316E+05 -4.386275E-09 -1.229800E-09
        50  13 -4.349132E+05 -9.456401E+04 -3.493281E+04 -1.628969E+05 -1.903547E-09 -6.709811E-10
        50  14 -4.298957E+05 -6.632916E+04 -1.526982E+04 -1.687095E+05 -4.887933E-09 -1.706514E-09
        50  15 -4.311080E+05 -6.754956E+04 -8.570680E+03 -1.730232E+05 -1.394671E-09 -5.283336E-10
        50  16 -3.571399E+05 -5.248032E+04 -1.173462E+04 -1.284753E+05 -3.971360E-09 -1.321752E-09
        50  17 -3.613786E+05 -3.633003E+04  2.086945E+03 -1.452438E+05 -4.974394E-09 -1.522460E-09
        50  18 -3.713637E+05 -4.915113E+04  4.872547E+03 -1.605137E+05  1.582770E-09  6.324973E-11
        50  19 -5.126807E+05 -1.366455E+05 -5.813053E+04 -1.973144E+05  2.618243E+04  8.489559E+03
        50  20 -4.984081E+05 -9.632747E+04 -3.262653E+04 -1.921728E+05  1.645855E+04  2.179095E+03
        50  21 -4.908482E+05 -8.594781E+04 -2.201394E+04 -1.855316E+05  5.767697E+03 -1.553397E+03
        50  22 -4.349126E+05 -9.456382E+04 -3.493174E+04 -1.628968E+05  2.276500E+04  7.208794E+03
        50  23 -4.298955E+05 -6.632909E+04 -1.526937E+04 -1.687095E+05  1.547186E+04  1.809321E+03
        50  24 -4.311079E+05 -6.754954E+04 -8.570581E+03 -1.730232E+05  7.211907E+03 -1.011953E+03
        50  25 -3.571395E+05 -5.248018E+04 -1.173385E+04 -1.284752E+05  1.934716E+04  5.927695E+03
        50  26 -3.613784E+05 -3.632997E+04  2.087344E+03 -1.452438E+05  1.448506E+04  1.439486E+03
        50  27 -3.713636E+05 -4.915111E+04  4.872688E+03 -1.605137E+05  8.656280E+03 -4.704706E+02
        51   1 -4.745355E+05 -8.694901E+04 -1.739304E+04 -1.842688E+05 -5.156409E+03  9.108535E+02
        51   2 -4.614775E+05 -7.748843E+04 -1.054756E+04 -1.777365E+05 -2.975454E+03  8.207806E+02
        51   3 -4.448185E+05 -7.383463E+04 -5.486185E+03 -1.759283E+05 -7.508669E+02  6.143561E+02
        51   4 -4.299942E+05 -6.993585E+04 -6.753956E+03 -1.715394E+05 -5.852425E+03  6.498948E+02
        51   5 -4.317049E+05 -6.633159E+04 -3.500048E+03 -1.694439E+05 -3.781078E+03  5.187516E+02
        51   6 -4.297931E+05 -6.851226E+04 -1.943233E+03 -1.720726E+05 -1.666172E+03  2.712376E+02
        51   7 -3.854509E+05 -5.292246E+04  3.885023E+03 -1.588091E+05 -6.548497E+03  3.889136E+02
        51   8 -4.019317E+05 -5.517480E+04  3.547329E+03 -1.611511E+05 -4.586736E+03  2.167092E+02
        51   9 -4.147679E+05 -6.318999E+04  1.599618E+03 -1.682169E+05 -2.581482E+03 -7.188165E+01
        51  10 -4.745355E+05 -8.694902E+04 -1.739309E+04 -1.842687E+05 -2.280082E-09  2.904368E-10
        51  11 -4.614775E+05 -7.748843E+04 -1.054758E+04 -1.777365E+05 -1.080460E-09 -1.208517E-10
        51  12 -4.448185E+05 -7.383463E+04 -5.486187E+03 -1.759283E+05 -1.379733E-09 -7.756338E-10
        51  13 -4.299943E+05 -6.993586E+04 -6.754022E+03 -1.715394E+05 -3.240228E-09  1.617010E-12
        51  14 -4.317049E+05 -6.633160E+04 -3.500075E+03 -1.694439E+05  6.594726E-10 -3.658234E-10
        51  15 -4.297931E+05 -6.851226E+04 -1.943239E+03 -1.720726E+05 -2.916789E-10 -2.918717E-10
        51  16 -3.854509E+05 -5.292248E+04  3.884943E+03 -1.588091E+05  1.164798E-09 -4.040646E-10
        51  17 -4.019317E+05 -5.517480E+04  3.547289E+03 -1.611511E+05  1.833269E-09 -6.412462E-10
        51  18 -4.147679E+05 -6.319000E+04  1.599606E+03 -1.682169E+05  1.201383E-10 -4.223791E-11
        51  19 -4.745355E+05 -8.694901E+04 -1.739304E+04 -1.842688E+05  5.156409E+03 -9.108535E+02
        51  20 -4.614775E+05 -7.748843E+04 -1.054756E+04 -1.777365E+05  2.975454E+03 -8.207806E+02
        51  21 -4.448185E+05 -7.383463E+04 -5.486185E+03 -1.759283E+05  7.508669E+02 -6.143561E+02
        51  22 -4.299942E+05 -6.993585E+04 -6.753956E+03 -1.715394E+05  5.852425E+03 -6.498948E+02
        51  23 -4.317049E+05 -6.633159E+04 -3.500048E+03 -1.694439E+05  3.781078E+03 -5.187516E+02
        51  24 -4.297931E+05 -6.851226E+04 -1.943233E+03 -1.720726E+05  1.666172E+03 -2.712376E+02
        51  25 -3.854509E+05 -5.292246E+04  3.885023E+03 -1.588091E+05  6.548497E+03 -3.889136E+02
        51  26 -4.019317E+05 -5.517480E+04  3.547329E+03 -1.611511E+05  4.586736E+03 -2.167092E+02
        51  27 -4.147679E+05 -6.318999E+04  1.599618E+03 -1.682169E+05  2.581482E+03  7.188165E+01
        52   1 -4.324826E+05 -6.963501E+04 -2.082452E+03 -1.727277E+05 -3.005291E+02  1.454660E+02
        52   2 -4.195926E+05 -6.180506E+04  2.070105E+03 -1.660990E+05  4.633219E+02 -6.371530E+02
        52   3 -4.024064E+05 -5.843907E+04  5.894813E+03 -1.644881E+05  1.229015E+03 -1.424540E+03
        52   4 -4.297016E+05 -6.863285E+04 -1.477747E+03 -1.719827E+05 -1.182336E+03 -1.850910E+02
        52   5 -4.318454E+05 -6.636909E+04 -8.164225E+02 -1.694856E+05 -4.230075E+02 -9.694227E+02
        52   6 -4.296923E+05 -6.856857E+04 -4.793857E+02 -1.720066E+05  3.381505E+02 -1.758525E+03
        52   7 -4.269206E+05 -6.763067E+04 -8.730264E+02 -1.712376E+05 -2.064162E+03 -5.156555E+02
        52   8 -4.440982E+05 -7.093319E+04 -3.703009E+03 -1.728722E+05 -1.309331E+03 -1.301690E+03
        52   9 -4.569778E+05 -7.869814E+04 -6.853728E+03 -1.795250E+05 -5.526828E+02 -2.092498E+03
        52  10 -4.324826E+05 -6.963501E+04 -2.082452E+03 -1.727277E+05 -6.200258E-10 -6.415393E-10
        52  11 -4.195926E+05 -6.180506E+04  2.070104E+03 -1.660990E+05 -2.431835E-10  3.171393E-10
        52  12 -4.024064E+05 -5.843908E+04  5.894806E+03 -1.644881E+05 -1.301891E-13  7.105184E-10
        52  13 -4.297016E+05 -6.863285E+04 -1.477750E+03 -1.719827E+05 -1.004456E-09 -2.643709E-10
        52  14 -4.318454E+05 -6.636909E+04 -8.164247E+02 -1.694856E+05  2.070573E-09 -4.635094E-11
        52  15 -4.296923E+05 -6.856857E+04 -4.793917E+02 -1.720066E+05  3.563702E-10  4.259017E-10
        52  16 -4.269206E+05 -6.763067E+04 -8.730349E+02 -1.712376E+05  1.998063E-10 -2.243754E-11
        52  17 -4.440982E+05 -7.093319E+04 -3.703016E+03 -1.728722E+05 -4.216595E-10 -4.018638E-10
        52  18 -4.569778E+05 -7.869814E+04 -6.853737E+03 -1.795250E+05  2.020531E-10  6.714160E-11
        52  19 -4.324826E+05 -6.963501E+04 -2.082452E+03 -1.727277E+05  3.005291E+02 -1.454660E+02
        52  20 -4.195926E+05 -6.180506E+04  2.070105E+03 -1.660990E+05 -4.633219E+02  6.371530E+02
        52  21 -4.024064E+05 -5.843907E+04  5.894813E+03 -1.644881E+05 -1.229015E+03  1.424540E+03
        52  22 -4.297016E+05 -6.863285E+04 -1.477747E+03 -1.719827E+05  1.182336E+03  1.850910E+02
        52  23 -4.318454E+05 -6.636909E+04 -8.164225E+02 -1.694856E+05  4.230075E+02  9.694227E+02
        52  24 -4.296923E+05 -6.856857E+04 -4.793857E+02 -1.720066E+05 -3.381505E+02  1.758525E+03
        52  25 -4.269206E+05 -6.763067E+04 -8.730264E+02 -1.712376E+05  2.064162E+03  5.156555E+02
        52  26 -4.440982E+05 -7.093319E+04 -3.703009E+03 -1.728722E+05  1.309331E+03  1.301690E+03
        52  27 -4.569778E+05 -7.869814E+04 -6.853728E+03 -1.795250E+05  5.526828E+02  2.092498E+03
        53   1 -3.903393E+05 -5.396886E+04  8.928054E+03 -1.611914E+05  1.504502E+03 -1.947754E+03
        53   2 -3.774998E+05 -4.622687E+04  1.251205E+04 -1.545634E+05  1.997397E+03 -2.837525E+03
        53   3 -3.603075E+05 -4.286556E+04  1.599078E+04 -1.529521E+05  2.490141E+03 -3.726708E+03
        53   4 -4.296835E+05 -6.857169E+04 -3.842712E+02 -1.719985E+05  6.155222E+02 -2.281044E+03
        53   5 -4.318598E+05 -6.638122E+04 -2.814893E+02 -1.694903E+05  1.108936E+03 -3.170648E+03
        53   6 -4.296836E+05 -6.857137E+04 -2.843354E+02 -1.719987E+05  1.602199E+03 -4.059672E+03
        53   7 -4.690254E+05 -8.317410E+04 -9.696472E+03 -1.828048E+05 -2.733774E+02 -2.614303E+03
        53   8 -4.862166E+05 -8.653523E+04 -1.307514E+04 -1.844159E+05  2.205648E+02 -3.503737E+03
        53   9 -4.990556E+05 -9.427706E+04 -1.655995E+04 -1.910435E+05  7.143570E+02 -4.392597E+03
        53  10 -3.903393E+05 -5.396886E+04  8.928042E+03 -1.611914E+05 -4.566210E-10  7.592827E-10
        53  11 -3.774998E+05 -4.622688E+04  1.251203E+04 -1.545634E+05  4.956535E-09  1.275830E-09
        53  12 -3.603075E+05 -4.286558E+04  1.599074E+04 -1.529521E+05  4.950644E-09  1.401098E-10
        53  13 -4.296835E+05 -6.857170E+04 -3.842817E+02 -1.719985E+05  3.945265E-09  1.032238E-09
        53  14 -4.318598E+05 -6.638123E+04 -2.815105E+02 -1.694903E+05  4.932484E-09  1.587981E-09
        53  15 -4.296837E+05 -6.857138E+04 -2.843712E+02 -1.719987E+05  1.633649E-09  3.483192E-10
        53  16 -4.690254E+05 -8.317411E+04 -9.696485E+03 -1.828048E+05  4.216780E-09  1.194955E-09
        53  17 -4.862166E+05 -8.653524E+04 -1.307516E+04 -1.844159E+05  3.904147E-09  1.645826E-09
        53  18 -4.990556E+05 -9.427708E+04 -1.655999E+04 -1.910435E+05  4.958655E-10  3.482713E-10
        53  19 -3.903393E+05 -5.396886E+04  8.928054E+03 -1.611914E+05 -1.504502E+03  1.947754E+03
        53  20 -3.774998E+05 -4.622687E+04  1.251205E+04 -1.545634E+05 -1.997397E+03  2.837525E+03
        53  21 -3.603075E+05 -4.286556E+04  1.599078E+04 -1.529521E+05 -2.490141E+03  3.726708E+03
        53  22 -4.296835E+05 -6.857169E+04 -3.842712E+02 -1.719985E+05 -6.155222E+02  2.281044E+03
        53  23 -4.318598E+05 -6.638122E+04 -2.814893E+02 -1.694903E+05 -1.108936E+03  3.170648E+03
        53  24 -4.296836E+05 -6.857137E+04 -2.843354E+02 -1.719987E+05 -1.602199E+03  4.059672E+03
        53  25 -4.690254E+05 -8.317410E+04 -9.696472E+03 -1.828048E+05  2.733774E+02  2.614303E+03
        53  26 -4.862166E+05 -8.653523E+04 -1.307514E+04 -1.844159E+05 -2.205648E+02  3.503737E+03
        53  27 -4.990556E+05 -9.427706E+04 -1.655995E+04 -1.910435E+05 -7.143570E+02  4.392597E+03
        54   1 -3.482904E+05 -3.839018E+04  1.888566E+04 -1.496576E+05  2.744926E+03 -4.255707E+03
        54   2 -3.354909E+05 -3.067683E+04  2.218486E+04 -1.430537E+05  3.339333E+03 -5.103999E+03
        54   3 -3.183683E+05 -2.733601E+04  2.530138E+04 -1.414503E+05  3.933082E+03 -5.950196E+03
        54   4 -4.296907E+05 -6.856848E+04 -3.215762E+02 -1.719958E+05  1.858001E+03 -4.588320E+03
        54   5 -4.318529E+05 -6.638437E+04 -4.901175E+02 -1.694949E+05  2.454323E+03 -5.435956E+03
        54   6 -4.296925E+05 -6.857323E+04 -8.428308E+02 -1.719945E+05  3.049979E+03 -6.281496E+03
        54   7 -5.110843E+05 -9.874630E+04 -1.952927E+04 -1.943314E+05  9.712036E+02 -4.920887E+03
        54   8 -5.282053E+05 -1.020911E+05 -2.316566E+04 -1.959322E+05  1.569465E+03 -5.767856E+03
        54   9 -5.410037E+05 -1.098093E+05 -2.698773E+04 -2.025336E+05  2.167053E+03 -6.612730E+03
        54  10 -3.482904E+05 -3.839020E+04  1.888561E+04 -1.496576E+05  1.134583E-09 -8.983071E-10
        54  11 -3.354909E+05 -3.067686E+04  2.218479E+04 -1.430537E+05 -2.969605E-10 -5.489231E-10
        54  12 -3.183683E+05 -2.733606E+04  2.530129E+04 -1.414503E+05  5.596992E-10 -5.053491E-10
        54  13 -4.296907E+05 -6.856850E+04 -3.216223E+02 -1.719958E+05  3.330502E-10 -4.276154E-10
        54  14 -4.318529E+05 -6.638441E+04 -4.901843E+02 -1.694949E+05  3.616741E-09 -6.217188E-10
        54  15 -4.296925E+05 -6.857328E+04 -8.429224E+02 -1.719945E+05 -5.133136E-10 -6.111859E-10
        54  16 -5.110843E+05 -9.874632E+04 -1.952932E+04 -1.943314E+05 -1.368412E-09  2.883563E-11
        54  17 -5.282053E+05 -1.020912E+05 -2.316573E+04 -1.959322E+05 -5.564090E-10 -7.485385E-10
        54  18 -5.410037E+05 -1.098094E+05 -2.698783E+04 -2.025336E+05  5.300412E-10 -6.486669E-10
        54  19 -3.482904E+05 -3.839018E+04  1.888566E+04 -1.496576E+05 -2.744926E+03  4.255707E+03
        54  20 -3.354909E+05 -3.067683E+04  2.218486E+04 -1.430537E+05 -3.339333E+03  5.103999E+03
        54  21 -3.183683E+05 -2.733601E+04  2.530138E+04 -1.414503E+05 -3.933082E+03  5.950196E+03
        54  22 -4.296907E+05 -6.856848E+04 -3.215762E+02 -1.719958E+05 -1.858001E+03  4.588320E+03
        54  23 -4.318529E+05 -6.638437E+04 -4.901175E+02 -1.694949E+05 -2.454323E+03  5.435956E+03
        54  24 -4.296925E+05 -6.857323E+04 -8.428308E+02 -1.719945E+05 -3.049979E+03  6.281496E+03
        54  25 -5.110843E+05 -9.874630E+04 -1.952927E+04 -1.943314E+05 -9.712036E+02  4.920887E+03
        54  26 -5.282053E+05 -1.020911E+05 -2.316566E+04 -1.959322E+05 -1.569465E+03  5.767856E+03
        54  27 -5.410037E+05 -1.098093E+05 -2.698773E+04 -2.025336E+05 -2.167053E+03  6.612730E+03
        55   1 -3.064114E+05 -2.288839E+04  2.795256E+04 -1.382072E+05  4.301669E+03 -6.434794E+03
        55   2 -2.936303E+05 -1.518865E+04  3.051982E+04 -1.316028E+05  5.631761E+03 -6.997360E+03
        55   3 -2.767106E+05 -1.202586E+04  3.230786E+04 -1.299535E+05  6.956161E+03 -7.544106E+03
        55   4 -4.297269E+05 -6.855703E+04 -1.109858E+03 -1.720046E+05  3.416271E+03 -6.767001E+03
        55   5 -4.318070E+05 -6.636958E+04 -1.992375E+03 -1.694963E+05  4.761008E+03 -7.324164E+03
        55   6 -4.297519E+05 -6.872230E+04 -3.665923E+03 -1.719434E+05  6.100022E+03 -7.865514E+03
        55   7 -5.530280E+05 -1.142248E+05 -3.017353E+04 -2.057962E+05  2.531060E+03 -7.099138E+03
        55   8 -5.699651E+05 -1.175493E+05 -3.450602E+04 -2.073823E+05  3.890462E+03 -7.650891E+03
        55   9 -5.827699E+05 -1.254171E+05 -3.964135E+04 -2.139239E+05  5.244112E+03 -8.186836E+03
        55  10 -3.064114E+05 -2.288844E+04  2.795245E+04 -1.382072E+05 -7.451001E-10 -1.066779E-09
        55  11 -2.936303E+05 -1.518871E+04  3.051967E+04 -1.316028E+05  7.633433E-09  3.254868E-09
        55  12 -2.767107E+05 -1.202593E+04  3.230766E+04 -1.299534E+05  1.672289E-08  6.916097E-09
        55  13 -4.297269E+05 -6.855708E+04 -1.109966E+03 -1.720046E+05 -1.627133E-09 -4.697846E-10
        55  14 -4.318070E+05 -6.636964E+04 -1.992518E+03 -1.694963E+05  1.365670E-09  1.265028E-10
        55  15 -4.297520E+05 -6.872237E+04 -3.666109E+03 -1.719434E+05  2.586079E-09  2.052316E-09
        55  16 -5.530281E+05 -1.142249E+05 -3.017364E+04 -2.057961E+05  1.395052E-09  1.212536E-10
        55  17 -5.699652E+05 -1.175494E+05 -3.450615E+04 -2.073822E+05 -7.381646E-09 -2.743886E-09
        55  18 -5.827700E+05 -1.254172E+05 -3.964153E+04 -2.139239E+05 -1.014664E-08 -2.552986E-09
        55  19 -3.064114E+05 -2.288839E+04  2.795256E+04 -1.382072E+05 -4.301669E+03  6.434794E+03
        55  20 -2.936303E+05 -1.518865E+04  3.051982E+04 -1.316028E+05 -5.631761E+03  6.997360E+03
        55  21 -2.767106E+05 -1.202586E+04  3.230786E+04 -1.299535E+05 -6.956161E+03  7.544106E+03
        55  22 -4.297269E+05 -6.855703E+04 -1.109858E+03 -1.720046E+05 -3.416271E+03  6.767001E+03
        55  23 -4.318070E+05 -6.636958E+04 -1.992375E+03 -1.694963E+05 -4.761008E+03  7.324164E+03
        55  24 -4.297519E+05 -6.872230E+04 -3.665923E+03 -1.719434E+05 -6.100022E+03  7.865514E+03
        55  25 -5.530280E+05 -1.142248E+05 -3.017353E+04 -2.057962E+05 -2.531060E+03  7.099138E+03
        55  26 -5.699651E+05 -1.175493E+05 -3.450602E+04 -2.073823E+05 -3.890462E+03  7.650891E+03
        55  27 -5.827699E+05 -1.254171E+05 -3.964135E+04 -2.139239E+05 -5.244112E+03  8.186836E+03
        56   1 -2.646293E+05 -7.720688E+03  3.402121E+04 -1.273980E+05  7.935273E+03 -7.822735E+03
        56   2 -2.520465E+05  5.586633E+02  3.359319E+04 -1.198034E+05  1.239175E+04 -7.114882E+03
        56   3 -2.369844E+05  1.080539E+03  2.915779E+04 -1.163956E+05  1.673450E+04 -6.103207E+03
        56   4 -4.299880E+05 -6.841539E+04 -4.835547E+03 -1.721613E+05  6.993838E+03 -8.176203E+03
        56   5 -4.314510E+05 -6.628734E+04 -8.735003E+03 -1.694008E+05  1.173562E+04 -7.361404E+03
        56   6 -4.304921E+05 -7.197399E+04 -1.686887E+04 -1.708271E+05  1.636359E+04 -6.242784E+03
        56   7 -5.953186E+05 -1.291079E+05 -4.369397E+04 -2.169136E+05  6.052681E+03 -8.529569E+03
        56   8 -6.108235E+05 -1.331310E+05 -5.106547E+04 -2.189852E+05  1.107970E+04 -7.607849E+03
        56   9 -6.239637E+05 -1.450259E+05 -6.289850E+04 -2.252433E+05  1.599280E+04 -6.382313E+03
        56  10 -2.646294E+05 -7.720771E+03  3.402098E+04 -1.273979E+05 -1.064892E-08 -3.253965E-09
        56  11 -2.520466E+05  5.585677E+02  3.359281E+04 -1.198033E+05 -8.612831E-09 -2.400545E-09
        56  12 -2.369847E+05  1.080424E+03  2.915720E+04 -1.163955E+05  2.977814E-09 -3.047281E-10
        56  13 -4.299881E+05 -6.841548E+04 -4.835765E+03 -1.721613E+05  3.277838E-09  2.061911E-09
        56  14 -4.314511E+05 -6.628743E+04 -8.735364E+03 -1.694008E+05 -2.567552E-09  4.657011E-10
        56  15 -4.304924E+05 -7.197411E+04 -1.686945E+04 -1.708270E+05  9.457011E-10 -8.048164E-10
        56  16 -5.953187E+05 -1.291080E+05 -4.369418E+04 -2.169136E+05  1.729935E-08  7.538984E-09
        56  17 -6.108236E+05 -1.331310E+05 -5.106581E+04 -2.189851E+05  5.920923E-09  3.152103E-09
        56  18 -6.239640E+05 -1.450260E+05 -6.289906E+04 -2.252432E+05 -2.011331E-09 -1.221694E-09
        56  19 -2.646293E+05 -7.720688E+03  3.402121E+04 -1.273980E+05 -7.935273E+03  7.822735E+03
        56  20 -2.520465E+05  5.586633E+02  3.359319E+04 -1.198034E+05 -1.239175E+04  7.114882E+03
        56  21 -2.369844E+05  1.080539E+03  2.915779E+04 -1.163956E+05 -1.673450E+04  6.103207E+03
        56  22 -4.299880E+05 -6.841539E+04 -4.835547E+03 -1.721613E+05 -6.993838E+03  8.176203E+03
        56  23 -4.314510E+05 -6.628734E+04 -8.735003E+03 -1.694008E+05 -1.173562E+04  7.361404E+03
        56  24 -4.304921E+05 -7.197399E+04 -1.686887E+04 -1.708271E+05 -1.636359E+04  6.242784E+03
        56  25 -5.953186E+05 -1.291079E+05 -4.369397E+04 -2.169136E+05 -6.052681E+03  8.529569E+03
        56  26 -6.108235E+05 -1.331310E+05 -5.106547E+04 -2.189852E+05 -1.107970E+04  7.607849E+03
        56  27 -6.239637E+05 -1.450259E+05 -6.289850E+04 -2.252433E+05 -1.599280E+04  6.382313E+03
        57   1 -2.200918E+05  3.690436E+03  2.714546E+04 -1.256489E+05  2.176809E+04 -5.464965E+03
        57   2 -2.147158E+05  2.396633E+04  1.492693E+04 -9.760413E+04  3.552801E+04  7.281869E+02
        57   3 -2.303128E+05 -2.139946E+04 -2.466746E+04 -5.815412E+04  4.677391E+04  1.361650E+04
        57   4 -4.332774E+05 -6.601015E+04 -2.140902E+04 -1.745311E+05  1.945470E+04 -6.333470E+03
        57   5 -4.269263E+05 -6.628852E+04 -3.814742E+04 -1.675721E+05  3.952479E+04  2.227878E+03
        57   6 -4.428084E+05 -1.334742E+05 -8.727033E+04 -1.492057E+05  5.708007E+04  1.748421E+04
        57   7 -6.464178E+05 -1.357098E+05 -6.996640E+04 -2.233990E+05  1.714217E+04 -7.201739E+03
        57   8 -6.390910E+05 -1.565359E+05 -9.122500E+04 -2.375167E+05  4.352008E+04  3.726821E+03
        57   9 -6.552558E+05 -2.455305E+05 -1.498765E+05 -2.402242E+05  6.738231E+04  2.134911E+04
        57  10 -2.200923E+05  3.690277E+03  2.714451E+04 -1.256488E+05 -1.478523E-09 -8.768938E-10
        57  11 -2.147171E+05  2.396599E+04  1.492455E+04 -9.760415E+04 -1.060581E-09 -9.542269E-10
        57  12 -2.303152E+05 -2.140025E+04 -2.467192E+04 -5.815464E+04 -1.336699E-09 -3.828227E-10
        57  13 -4.332778E+05 -6.601029E+04 -2.140981E+04 -1.745310E+05  1.403522E-10 -5.764042E-10
        57  14 -4.269280E+05 -6.628895E+04 -3.815037E+04 -1.675722E+05  3.084686E-10 -9.811088E-10
        57  15 -4.428120E+05 -1.334754E+05 -8.727703E+04 -1.492065E+05 -4.121235E-10 -3.966912E-10
        57  16 -6.464181E+05 -1.357099E+05 -6.996705E+04 -2.233989E+05 -1.879014E-10 -6.164601E-10
        57  17 -6.390931E+05 -1.565364E+05 -9.122859E+04 -2.375169E+05  1.087866E-09 -7.094140E-10
        57  18 -6.552608E+05 -2.455322E+05 -1.498859E+05 -2.402254E+05  1.457314E-09  6.916893E-11
        57  19 -2.200918E+05  3.690436E+03  2.714546E+04 -1.256489E+05 -2.176809E+04  5.464965E+03
        57  20 -2.147158E+05  2.396633E+04  1.492693E+04 -9.760413E+04 -3.552801E+04 -7.281869E+02
        57  21 -2.303128E+05 -2.139946E+04 -2.466746E+04 -5.815412E+04 -4.677391E+04 -1.361650E+04
        57  22 -4.332774E+05 -6.601015E+04 -2.140902E+04 -1.745311E+05 -1.945470E+04  6.333470E+03
        57  23 -4.269263E+05 -6.628852E+04 -3.814742E+04 -1.675721E+05 -3.952479E+04 -2.227878E+03
        57  24 -4.428084E+05 -1.334742E+05 -8.727033E+04 -1.492057E+05 -5.708007E+04 -1.748421E+04
        57  25 -6.464178E+05 -1.357098E+05 -6.996640E+04 -2.233990E+05 -1.714217E+04  7.201739E+03
        57  26 -6.390910E+05 -1.565359E+05 -9.122500E+04 -2.375167E+05 -4.352008E+04 -3.726821E+03
        57  27 -6.552558E+05 -2.455305E+05 -1.498765E+05 -2.402242E+05 -6.738231E+04 -2.134911E+04
        58   1 -1.683674E+04  3.980992E+03  4.724367E+03  2.001112E+03  3.258781E+03  1.050421E-02
        58   2 -1.735771E+04  1.186860E+02  2.168571E+03  7.262590E+02  2.114319E+03  2.473424E-03
        58   3 -1.683678E+04 -1.721778E+02  1.250767E+03 -5.486116E+02  9.698384E+02 -8.570382E-04
        58   4 -1.683674E+04  3.980984E+03  4.724366E+03  6.380424E-09  3.258781E+03 -9.279200E-11
        58   5 -1.735771E+04  1.186850E+02  2.168571E+03 -1.017851E-08  2.114319E+03  7.700282E-11
        58   6 -1.683678E+04 -1.721784E+02  1.250767E+03 -4.525478E-09  9.698384E+02  9.591731E-10
        58   7 -1.683674E+04  3.980992E+03  4.724367E+03 -2.001112E+03  3.258781E+03 -1.050421E-02
        58   8 -1.735771E+04  1.186860E+02  2.168571E+03 -7.262590E+02  2.114319E+03 -2.473424E-03
        58   9 -1.683678E+04 -1.721778E+02  1.250767E+03  5.486116E+02  9.698384E+02  8.570401E-04
        58  10 -1.683675E+04  3.980989E+03  4.724347E+03  2.001112E+03 -8.215888E-10 -9.503579E-11
        58  11 -1.735771E+04  1.186848E+02  2.168563E+03  7.262590E+02 -2.661578E-09 -5.983819E-11
        58  12 -1.683678E+04 -1.721781E+02  1.250765E+03 -5.486116E+02 -2.289444E-09  5.240427E-10
        58  13 -1.683675E+04  3.980982E+03  4.724346E+03  9.999209E-10 -6.964269E-12 -4.057418E-12
        58  14 -1.735771E+04  1.186838E+02  2.168563E+03 -1.502904E-09 -1.083407E-09  1.261823E-10
        58  15 -1.683678E+04 -1.721786E+02  1.250765E+03 -2.360853E-10 -1.473588E-09  4.810651E-10
        58  16 -1.683675E+04  3.980989E+03  4.724347E+03 -2.001112E+03  1.358694E-09  8.412128E-11
        58  17 -1.735771E+04  1.186848E+02  2.168563E+03 -7.262590E+02 -4.667681E-11  3.131731E-10
        58  18 -1.683678E+04 -1.721781E+02  1.250765E+03  5.486116E+02  8.359694E-10  4.368389E-10
        58  19 -1.683674E+04  3.980992E+03  4.724367E+03  2.001112E+03 -3.258781E+03 -1.050421E-02
        58  20 -1.735771E+04  1.186860E+02  2.168571E+03  7.262590E+02 -2.114319E+03 -2.473424E-03
        58  21 -1.683678E+04 -1.721778E+02  1.250767E+03 -5.486116E+02 -9.698384E+02  8.570392E-04
        58  22 -1.683674E+04  3.980984E+03  4.724366E+03  1.069717E-08 -3.258781E+03  8.416196E-11
        58  23 -1.735771E+04  1.186850E+02  2.168571E+03  1.788204E-09 -2.114319E+03  1.769376E-10
        58  24 -1.683678E+04 -1.721784E+02  1.250767E+03  5.398924E-09 -9.698384E+02  3.305523E-12
        58  25 -1.683674E+04  3.980992E+03  4.724367E+03 -2.001112E+03 -3.258781E+03  1.050421E-02
        58  26 -1.735771E+04  1.186860E+02  2.168571E+03 -7.262590E+02 -2.114319E+03  2.473425E-03
        58  27 -1.683678E+04 -1.721778E+02  1.250767E+03  5.486116E+02 -9.698384E+02 -8.570392E-04
        59   1 -1.705061E+04  1.902888E+02  9.826759E+02  6.427470E+01  7.962311E+02  8.243688E-05
        59   2 -1.709042E+04 -1.355910E+00  5.201874E+02  1.231927E+01  5.355676E+02  1.062763E-05
        59   3 -1.705062E+04 -1.029394E+01  2.730828E+02 -3.963617E+01  2.749042E+02 -1.755187E-05
        59   4 -1.705061E+04  1.902888E+02  9.826759E+02  1.570542E-09  7.962311E+02  7.202801E-10
        59   5 -1.709042E+04 -1.355910E+00  5.201874E+02 -4.072051E-09  5.355676E+02 -5.666657E-10
        59   6 -1.705062E+04 -1.029395E+01  2.730828E+02  3.882009E-09  2.749042E+02 -5.014163E-10
        59   7 -1.705061E+04  1.902888E+02  9.826759E+02 -6.427470E+01  7.962311E+02 -8.243542E-05
        59   8 -1.709042E+04 -1.355910E+00  5.201874E+02 -1.231927E+01  5.355676E+02 -1.062877E-05
        59   9 -1.705062E+04 -1.029394E+01  2.730828E+02  3.963617E+01  2.749042E+02  1.755087E-05
        59  10 -1.705061E+04  1.902886E+02  9.826747E+02  6.427470E+01 -1.117350E-09  6.701745E-10
        59  11 -1.709042E+04 -1.355987E+00  5.201868E+02  1.231927E+01  3.535070E-10  1.391511E-10
        59  12 -1.705062E+04 -1.029396E+01  2.730826E+02 -3.963617E+01 -1.481082E-10 -5.395505E-10
        59  13 -1.705061E+04  1.902886E+02  9.826747E+02 -5.162452E-09 -3.237642E-09  2.775026E-10
        59  14 -1.709042E+04 -1.355987E+00  5.201868E+02  1.414561E-10 -2.162992E-09 -4.612031E-10
        59  15 -1.705062E+04 -1.029397E+01  2.730826E+02  6.026920E-11 -9.371838E-10 -4.854609E-10
        59  16 -1.705061E+04  1.902886E+02  9.826747E+02 -6.427470E+01 -2.107948E-09 -1.172488E-10
        59  17 -1.709042E+04 -1.355987E+00  5.201868E+02 -1.231927E+01 -1.439795E-09 -1.062528E-09
        59  18 -1.705062E+04 -1.029396E+01  2.730826E+02  3.963617E+01  1.137716E-10 -4.322442E-10
        59  19 -1.705061E+04  1.902888E+02  9.826759E+02  6.427470E+01 -7.962311E+02 -8.243553E-05
        59  20 -1.709042E+04 -1.355910E+00  5.201874E+02  1.231927E+01 -5.355676E+02 -1.062735E-05
        59  21 -1.705062E+04 -1.029394E+01  2.730828E+02 -3.963617E+01 -2.749042E+02  1.755078E-05
        59  22 -1.705061E+04  1.902888E+02  9.826759E+02  4.259034E-09 -7.962311E+02 -1.658463E-10
        59  23 -1.709042E+04 -1.355910E+00  5.201874E+02 -1.030132E-09 -5.355676E+02 -3.556254E-10
        59  24 -1.705062E+04 -1.029395E+01  2.730828E+02  9.565893E-09 -2.749042E+02 -4.698006E-10
        59  25 -1.705061E+04  1.902888E+02  9.826759E+02 -6.427470E+01 -7.962311E+02  8.243520E-05
        59  26 -1.709042E+04 -1.355910E+00  5.201874E+02 -1.231927E+01 -5.355676E+02  1.062665E-05
        59  27 -1.705062E+04 -1.029394E+01  2.730828E+02  3.963617E+01 -2.749042E+02 -1.755173E-05
        60   1 -1.706714E+04  7.151196E+00  1.869029E+02 -7.924837E+00  2.345939E+02 -2.995173E-06
        60   2 -1.706977E+04 -4.109059E-01  4.529083E+01 -9.955234E+00  2.120353E+02 -3.400266E-06
        60   3 -1.706714E+04  1.314749E+00 -7.931361E+01 -1.198560E+01  1.894771E+02 -3.657681E-06
        60   4 -1.706714E+04  7.151195E+00  1.869029E+02  9.365590E-10  2.345939E+02 -3.582309E-10
        60   5 -1.706977E+04 -4.109061E-01  4.529083E+01 -2.618164E-09  2.120353E+02 -3.312937E-10
        60   6 -1.706714E+04  1.314748E+00 -7.931361E+01 -5.095921E-09  1.894771E+02  4.336577E-10
        60   7 -1.706714E+04  7.151196E+00  1.869029E+02  7.924837E+00  2.345939E+02  2.994454E-06
        60   8 -1.706977E+04 -4.109059E-01  4.529083E+01  9.955234E+00  2.120353E+02  3.399603E-06
        60   9 -1.706714E+04  1.314749E+00 -7.931361E+01  1.198560E+01  1.894771E+02  3.658552E-06
        60  10 -1.706714E+04  7.151181E+00  1.869028E+02 -7.924837E+00 -1.795874E-10 -4.788774E-10
        60  11 -1.706977E+04 -4.109180E-01  4.529075E+01 -9.955234E+00  6.762796E-10  7.329806E-11
        60  12 -1.706714E+04  1.314739E+00 -7.931368E+01 -1.198560E+01  8.738034E-10 -3.783602E-11
        60  13 -1.706714E+04  7.151181E+00  1.869028E+02 -4.400191E-09  5.383555E-12 -3.005187E-10
        60  14 -1.706977E+04 -4.109182E-01  4.529075E+01 -5.811728E-09 -5.387463E-10 -1.279183E-10
        60  15 -1.706714E+04  1.314739E+00 -7.931368E+01 -4.530718E-09  2.031394E-09  1.228730E-12
        60  16 -1.706714E+04  7.151181E+00  1.869028E+02  7.924837E+00 -3.507550E-10 -1.214677E-10
        60  17 -1.706977E+04 -4.109180E-01  4.529075E+01  9.955234E+00 -3.869779E-10 -3.296744E-10
        60  18 -1.706714E+04  1.314739E+00 -7.931368E+01  1.198560E+01  7.425324E-10  4.050768E-11
        60  19 -1.706714E+04  7.151196E+00  1.869029E+02 -7.924837E+00 -2.345939E+02  2.994219E-06
        60  20 -1.706977E+04 -4.109059E-01  4.529083E+01 -9.955234E+00 -2.120353E+02  3.400412E-06
        60  21 -1.706714E+04  1.314749E+00 -7.931361E+01 -1.198560E+01 -1.894771E+02  3.657614E-06
        60  22 -1.706714E+04  7.151195E+00  1.869029E+02  2.109807E-09 -2.345939E+02 -2.429420E-10
        60  23 -1.706977E+04 -4.109061E-01  4.529083E+01 -1.115906E-08 -2.120353E+02  7.497054E-11
        60  24 -1.706714E+04  1.314748E+00 -7.931361E+01 -6.119217E-09 -1.894771E+02 -4.311035E-10
        60  25 -1.706714E+04  7.151196E+00  1.869029E+02  7.924837E+00 -2.345939E+02 -2.994696E-06
        60  26 -1.706977E+04 -4.109059E-01  4.529083E+01  9.955234E+00 -2.120353E+02 -3.400266E-06
        60  27 -1.706714E+04  1.314749E+00 -7.931361E+01  1.198560E+01 -1.894771E+02 -3.658471E-06
        61   1 -1.707308E+04  1.453568E+00 -1.482973E+02 -1.099549E+01  2.102287E+02 -3.722688E-06
        61   2 -1.706235E+04  5.862222E+00 -3.271687E+02 -2.095392E+01  3.718398E+02 -1.254963E-05
        61   3 -1.707308E+04  8.558678E+00 -6.116843E+02 -3.091251E+01  5.334533E+02 -2.656242E-05
        61   4 -1.707308E+04  1.453567E+00 -1.482973E+02  5.027223E-09  2.102287E+02  9.349774E-10
        61   5 -1.706235E+04  5.862221E+00 -3.271687E+02 -2.127527E-09  3.718398E+02  1.000009E-09
        61   6 -1.707308E+04  8.558676E+00 -6.116843E+02 -4.570269E-09  5.334533E+02  4.168305E-10
        61   7 -1.707308E+04  1.453568E+00 -1.482973E+02  1.099549E+01  2.102287E+02  3.724555E-06
        61   8 -1.706235E+04  5.862222E+00 -3.271687E+02  2.095392E+01  3.718398E+02  1.255162E-05
        61   9 -1.707308E+04  8.558678E+00 -6.116843E+02  3.091251E+01  5.334533E+02  2.656325E-05
        61  10 -1.707308E+04  1.453556E+00 -1.482974E+02 -1.099549E+01  1.645909E-10 -1.284144E-10
        61  11 -1.706235E+04  5.862185E+00 -3.271689E+02 -2.095392E+01  2.810091E-10 -1.012746E-10
        61  12 -1.707308E+04  8.558601E+00 -6.116848E+02 -3.091251E+01 -1.962210E-09 -3.900894E-10
        61  13 -1.707308E+04  1.453555E+00 -1.482974E+02 -3.561315E-09 -1.076704E-09  6.821563E-11
        61  14 -1.706235E+04  5.862184E+00 -3.271689E+02 -4.283203E-09 -2.150861E-09  1.200881E-10
        61  15 -1.707308E+04  8.558599E+00 -6.116848E+02 -2.851421E-09 -1.488003E-09  5.304726E-11
        61  16 -1.707308E+04  1.453556E+00 -1.482974E+02  1.099549E+01 -7.058171E-10  2.639187E-10
        61  17 -1.706235E+04  5.862185E+00 -3.271689E+02  2.095392E+01 -5.624293E-12  3.409177E-10
        61  18 -1.707308E+04  8.558601E+00 -6.116848E+02  3.091251E+01  6.509857E-10  4.963406E-10
        61  19 -1.707308E+04  1.453568E+00 -1.482973E+02 -1.099549E+01 -2.102287E+02  3.722434E-06
        61  20 -1.706235E+04  5.862222E+00 -3.271687E+02 -2.095392E+01 -3.718398E+02  1.254943E-05
        61  21 -1.707308E+04  8.558678E+00 -6.116843E+02 -3.091251E+01 -5.334533E+02  2.656164E-05
        61  22 -1.707308E+04  1.453567E+00 -1.482973E+02  1.850667E-09 -2.102287E+02 -7.981102E-10
        61  23 -1.706235E+04  5.862221E+00 -3.271687E+02 -2.131290E-09 -3.718398E+02 -7.600587E-10
        61  24 -1.707308E+04  8.558676E+00 -6.116843E+02  3.983399E-09 -5.334533E+02 -3.104643E-10
        61  25 -1.707308E+04  1.453568E+00 -1.482973E+02  1.099549E+01 -2.102287E+02 -3.724033E-06
        61  26 -1.706235E+04  5.862222E+00 -3.271687E+02  2.095392E+01 -3.718398E+02 -1.255095E-05
        61  27 -1.707308E+04  8.558678E+00 -6.116843E+02  3.091251E+01 -5.334533E+02 -2.656226E-05
        62   1 -1.709034E+04  7.952111E+00 -8.183178E+02 -3.681033E+01  6.632363E+02 -3.932539E-05
        62   2 -1.704078E+04  2.506130E+01 -1.442273E+03 -7.405740E+01  1.376050E+03 -1.641484E-04
        62   3 -1.709035E+04  1.695494E+01 -2.536611E+03 -1.113045E+02  2.088863E+03 -3.745064E-04
        62   4 -1.709034E+04  7.952109E+00 -8.183178E+02 -3.621454E-09  6.632363E+02  2.670101E-10
        62   5 -1.704078E+04  2.506129E+01 -1.442273E+03 -5.765979E-10  1.376050E+03  3.900603E-10
        62   6 -1.709035E+04  1.695491E+01 -2.536611E+03  2.333869E-09  2.088863E+03 -6.104124E-11
        62   7 -1.709034E+04  7.952111E+00 -8.183178E+02  3.681033E+01  6.632363E+02  3.932593E-05
        62   8 -1.704078E+04  2.506130E+01 -1.442273E+03  7.405740E+01  1.376050E+03  1.641492E-04
        62   9 -1.709035E+04  1.695494E+01 -2.536611E+03  1.113045E+02  2.088863E+03  3.745063E-04
        62  10 -1.709034E+04  7.951993E+00 -8.183186E+02 -3.681033E+01 -1.819879E-09 -5.411332E-11
        62  11 -1.704079E+04  2.506079E+01 -1.442276E+03 -7.405740E+01 -1.463618E-09  7.740233E-10
        62  12 -1.709035E+04  1.695376E+01 -2.536619E+03 -1.113045E+02 -2.004344E-09  3.280836E-10
        62  13 -1.709034E+04  7.951991E+00 -8.183186E+02  7.415633E-10 -1.089078E-09  8.039181E-11
        62  14 -1.704079E+04  2.506078E+01 -1.442276E+03 -2.700033E-09 -1.627561E-09  2.531886E-10
        62  15 -1.709035E+04  1.695374E+01 -2.536619E+03  2.473781E-09 -2.008118E-12  3.261755E-10
        62  16 -1.709034E+04  7.951993E+00 -8.183186E+02  3.681033E+01  2.008761E-10  2.151642E-10
        62  17 -1.704079E+04  2.506079E+01 -1.442276E+03  7.405740E+01  1.999073E-09 -2.674915E-10
        62  18 -1.709035E+04  1.695376E+01 -2.536619E+03  1.113045E+02  1.199814E-09  3.242554E-10
        62  19 -1.709034E+04  7.952111E+00 -8.183178E+02 -3.681033E+01 -6.632363E+02  3.932528E-05
        62  20 -1.704078E+04  2.506130E+01 -1.442273E+03 -7.405740E+01 -1.376050E+03  1.641500E-04
        62  21 -1.709035E+04  1.695494E+01 -2.536611E+03 -1.113045E+02 -2.088863E+03  3.745070E-04
        62  22 -1.709034E+04  7.952109E+00 -8.183178E+02  6.181680E-09 -6.632363E+02 -1.061894E-10
        62  23 -1.704078E+04  2.506129E+01 -1.442273E+03  2.715205E-09 -1.376050E+03  1.162280E-10
        62  24 -1.709035E+04  1.695491E+01 -2.536611E+03  1.230703E-08 -2.088863E+03  7.099282E-10
        62  25 -1.709034E+04  7.952111E+00 -8.183178E+02  3.681033E+01 -6.632363E+02 -3.932551E-05
        62  26 -1.704078E+04  2.506130E+01 -1.442273E+03  7.405740E+01 -1.376050E+03 -1.641498E-04
        62  27 -1.709035E+04  1.695494E+01 -2.536611E+03  1.113045E+02 -2.088863E+03 -3.745057E-04
        63   1 -1.717509E+04  4.704621E+01 -3.346426E+03 -1.895468E+02  2.620185E+03 -7.999905E-04
        63   2 -1.693487E+04  8.735178E+01 -5.830466E+03 -2.212713E+02  5.508308E+03 -1.963268E-03
        63   3 -1.717509E+04 -2.898331E+02 -1.029916E+04 -2.529955E+02  8.396376E+03 -3.421693E-03
        63   4 -1.717509E+04  4.704614E+01 -3.346426E+03 -3.971593E-09  2.620185E+03 -3.593879E-11
        63   5 -1.693487E+04  8.735169E+01 -5.830466E+03 -6.756284E-10  5.508308E+03  5.071480E-11
        63   6 -1.717509E+04 -2.898332E+02 -1.029916E+04  7.870241E-09  8.396376E+03 -1.168906E-09
        63   7 -1.717509E+04  4.704621E+01 -3.346426E+03  1.895468E+02  2.620185E+03  7.999904E-04
        63   8 -1.693487E+04  8.735178E+01 -5.830466E+03  2.212713E+02  5.508308E+03  1.963268E-03
        63   9 -1.717509E+04 -2.898331E+02 -1.029916E+04  2.529955E+02  8.396376E+03  3.421691E-03
        63  10 -1.717509E+04  4.704437E+01 -3.346439E+03 -1.895468E+02 -1.016938E-09 -5.883423E-11
        63  11 -1.693490E+04  8.734364E+01 -5.830523E+03 -2.212713E+02  1.364760E-09 -3.679650E-10
        63  12 -1.717516E+04 -2.898520E+02 -1.029930E+04 -2.529955E+02 -2.907831E-10 -1.064612E-09
        63  13 -1.717509E+04  4.704430E+01 -3.346439E+03  1.255556E-09  1.077161E-09  1.281129E-10
        63  14 -1.693490E+04  8.734354E+01 -5.830523E+03  1.406596E-09  1.082272E-09 -3.365129E-10
        63  15 -1.717516E+04 -2.898521E+02 -1.029930E+04  3.173094E-09 -2.666499E-10 -4.530231E-10
        63  16 -1.717509E+04  4.704437E+01 -3.346439E+03  1.895468E+02  2.108350E-10  3.147770E-10
        63  17 -1.693490E+04  8.734364E+01 -5.830523E+03  2.212713E+02 -1.348154E-09 -3.038493E-10
        63  18 -1.717516E+04 -2.898520E+02 -1.029930E+04  2.529955E+02 -8.234379E-10  1.575098E-10
        63  19 -1.717509E+04  4.704621E+01 -3.346426E+03 -1.895468E+02 -2.620185E+03  7.999904E-04
        63  20 -1.693487E+04  8.735178E+01 -5.830466E+03 -2.212713E+02 -5.508308E+03  1.963267E-03
        63  21 -1.717509E+04 -2.898331E+02 -1.029916E+04 -2.529955E+02 -8.396376E+03  3.421691E-03
        63  22 -1.717509E+04  4.704614E+01 -3.346426E+03  1.078989E-08 -2.620185E+03  2.918182E-10
        63  23 -1.693487E+04  8.735169E+01 -5.830466E+03 -8.193496E-10 -5.508308E+03 -7.235356E-10
        63  24 -1.717509E+04 -2.898332E+02 -1.029916E+04  6.687281E-09 -8.396376E+03  2.776139E-10
        63  25 -1.717509E+04  4.704621E+01 -3.346426E+03  1.895468E+02 -2.620185E+03 -7.999898E-04
        63  26 -1.693487E+04  8.735178E+01 -5.830466E+03  2.212713E+02 -5.508308E+03 -1.963268E-03
        63  27 -1.717509E+04 -2.898331E+02 -1.029916E+04  2.529955E+02 -8.396376E+03 -3.421690E-03
        64   1 -1.784694E+04  4.713522E+02 -1.348258E+04 -1.631324E+03  1.049317E+04 -2.757299E-02
        64   2 -1.609490E+04  7.568956E+01 -2.343705E+04  5.855793E+02  2.223106E+04  2.096916E-02
        64   3 -1.784662E+04 -8.222727E+03 -4.300828E+04  2.802533E+03  3.396895E+04  1.533445E-01
        64   4 -1.784694E+04  4.713472E+02 -1.348258E+04  4.066528E-09  1.049317E+04 -9.071897E-10
        64   5 -1.609490E+04  7.568892E+01 -2.343705E+04  2.619937E-09  2.223106E+04  7.174475E-10
        64   6 -1.784663E+04 -8.222742E+03 -4.300828E+04  7.769752E-09  3.396895E+04  1.920119E-10
        64   7 -1.784694E+04  4.713522E+02 -1.348258E+04  1.631324E+03  1.049317E+04  2.757298E-02
        64   8 -1.609490E+04  7.568956E+01 -2.343705E+04 -5.855793E+02  2.223106E+04 -2.096916E-02
        64   9 -1.784662E+04 -8.222727E+03 -4.300828E+04 -2.802533E+03  3.396895E+04 -1.533445E-01
        64  10 -1.784706E+04  4.713227E+02 -1.348279E+04 -1.631324E+03 -1.029664E-09 -8.403202E-10
        64  11 -1.609543E+04  7.555688E+01 -2.343798E+04  5.855793E+02 -2.216685E-10  2.239805E-10
        64  12 -1.784786E+04 -8.223037E+03 -4.301045E+04  2.802533E+03  5.213303E-10  2.547926E-10
        64  13 -1.784706E+04  4.713177E+02 -1.348279E+04 -6.574617E-09  1.156883E-11 -2.583850E-10
        64  14 -1.609543E+04  7.555623E+01 -2.343798E+04  1.599708E-09  5.368958E-10  1.177652E-10
        64  15 -1.784787E+04 -8.223052E+03 -4.301045E+04  4.927594E-09 -9.438543E-10  2.045668E-10
        64  16 -1.784706E+04  4.713227E+02 -1.348279E+04  1.631324E+03  7.583632E-10  3.258657E-10
        64  17 -1.609543E+04  7.555688E+01 -2.343798E+04 -5.855793E+02 -8.666504E-10  1.839316E-11
        64  18 -1.784786E+04 -8.223037E+03 -4.301045E+04 -2.802533E+03 -1.239265E-09  1.602250E-10
        64  19 -1.784694E+04  4.713522E+02 -1.348258E+04 -1.631324E+03 -1.049317E+04  2.757298E-02
        64  20 -1.609490E+04  7.568956E+01 -2.343705E+04  5.855793E+02 -2.223106E+04 -2.096916E-02
        64  21 -1.784662E+04 -8.222727E+03 -4.300828E+04  2.802533E+03 -3.396895E+04 -1.533445E-01
        64  22 -1.784694E+04  4.713472E+02 -1.348258E+04  2.170260E-09 -1.049317E+04  3.912220E-10
        64  23 -1.609490E+04  7.568892E+01 -2.343705E+04  5.803540E-10 -2.223106E+04 -4.841796E-10
        64  24 -1.784663E+04 -8.222742E+03 -4.300828E+04  4.374966E-09 -3.396895E+04  2.196249E-10
        64  25 -1.784694E+04  4.713522E+02 -1.348258E+04  1.631324E+03 -1.049317E+04 -2.757298E-02
        64  26 -1.609490E+04  7.568956E+01 -2.343705E+04 -5.855793E+02 -2.223106E+04  2.096916E-02
        64  27 -1.784662E+04 -8.222727E+03 -4.300828E+04 -2.802533E+03 -3.396895E+04  1.533445E-01
        65   1 -2.707824E+04  7.451755E+03 -5.445346E+04 -2.369691E+04  4.155586E+04 -1.586229E+00
        65   2 -4.550614E+03 -5.126203E+03 -9.391425E+04  3.141650E+04  9.112639E+04  4.611339E+00
        65   3 -2.706870E+04 -1.720932E+05 -2.042370E+05  8.652705E+04  1.406973E+05  1.960964E+01
        65   4 -2.707884E+04  7.450700E+03 -5.445362E+04  5.975136E-09  4.155586E+04 -3.559057E-10
        65   5 -4.551673E+03 -5.128058E+03 -9.391452E+04  3.628081E-09  9.112639E+04 -2.575320E-10
        65   6 -2.707674E+04 -1.721073E+05 -2.042390E+05  5.592133E-09  1.406973E+05 -6.038253E-10
        65   7 -2.707824E+04  7.451755E+03 -5.445346E+04  2.369691E+04  4.155586E+04  1.586229E+00
        65   8 -4.550614E+03 -5.126203E+03 -9.391425E+04 -3.141650E+04  9.112639E+04 -4.611339E+00
        65   9 -2.706870E+04 -1.720932E+05 -2.042370E+05 -8.652705E+04  1.406973E+05 -1.960964E+01
        65  10 -2.708009E+04  7.451291E+03 -5.445671E+04 -2.369691E+04 -4.006794E-10 -4.372326E-11
        65  11 -4.559532E+03 -5.128433E+03 -9.392986E+04  3.141650E+04  5.936131E-11 -1.876131E-10
        65  12 -2.708996E+04 -1.720986E+05 -2.042742E+05  8.652705E+04 -1.054097E-09 -9.030465E-11
        65  13 -2.708069E+04  7.450236E+03 -5.445686E+04  2.563107E-09 -1.078724E-09 -5.828904E-11
        65  14 -4.560591E+03 -5.130288E+03 -9.393012E+04  4.690811E-09 -2.395078E-12 -4.576534E-10
        65  15 -2.709800E+04 -1.721126E+05 -2.042762E+05  4.660454E-09 -1.895058E-09 -1.973944E-10
        65  16 -2.708009E+04  7.451291E+03 -5.445671E+04  2.369691E+04 -1.206675E-09 -6.685432E-11
        65  17 -4.559532E+03 -5.128433E+03 -9.392986E+04 -3.141650E+04 -8.562463E-10 -7.588051E-10
        65  18 -2.708996E+04 -1.720986E+05 -2.042742E+05 -8.652705E+04 -6.143765E-10 -2.697202E-10
        65  19 -2.707824E+04  7.451755E+03 -5.445346E+04 -2.369691E+04 -4.155586E+04  1.586229E+00
        65  20 -4.550614E+03 -5.126203E+03 -9.391425E+04  3.141650E+04 -9.112639E+04 -4.611339E+00
        65  21 -2.706870E+04 -1.720932E+05 -2.042370E+05  8.652705E+04 -1.406973E+05 -1.960964E+01
        65  22 -2.707884E+04  7.450700E+03 -5.445362E+04  3.454231E-09 -4.155586E+04  2.345379E-10
        65  23 -4.551673E+03 -5.128058E+03 -9.391452E+04  2.517417E-09 -9.112639E+04 -6.447487E-10
        65  24 -2.707674E+04 -1.721073E+05 -2.042390E+05  1.073427E-08 -1.406973E+05 -3.426832E-11
        65  25 -2.707824E+04  7.451755E+03 -5.445346E+04  2.369691E+04 -4.155586E+04 -1.586229E+00
        65  26 -4.550614E+03 -5.126203E+03 -9.391425E+04 -3.141650E+04 -9.112639E+04  4.611339E+00
        65  27 -2.706870E+04 -1.720932E+05 -2.042370E+05 -8.652705E+04 -1.406973E+05  1.960964E+01
        66   1  1.299147E+05  4.988206E+05  1.283654E+05 -4.996527E+04  6.270189E+03  2.667203E+04
        66   2  1.026064E+05  4.298571E+05  9.743232E+04 -3.496031E+04  1.939896E+04  1.074368E+04
        66   3  8.564755E+04  3.655965E+05  7.946000E+04 -4.430426E+04  1.947090E+04 -5.183905E+03
        66   4  8.892939E+03  1.129358E+04  1.063738E+04 -4.541162E+04  6.273016E+03  6.844891E+03
        66   5  2.388426E+02  1.009366E+04  5.251433E+03 -3.323781E+04  1.940150E+04  4.089196E+03
        66   6 -3.476034E+02  1.131025E+04  3.685343E+03 -4.541349E+04  1.946933E+04  1.332625E+03
        66   7 -1.121459E+05 -4.760154E+05 -1.071062E+05 -4.086154E+04  6.275554E+03 -1.296674E+04
        66   8 -1.021405E+05 -4.095049E+05 -8.694003E+04 -3.151647E+04  1.940400E+04 -2.560845E+03
        66   9 -8.635092E+04 -3.428578E+05 -7.209643E+04 -4.652205E+04  1.946774E+04  7.845491E+03
        66  10  1.299144E+05  4.988199E+05  1.283640E+05 -4.996540E+04  1.158096E-09  1.165743E-09
        66  11  1.026060E+05  4.298569E+05  9.743139E+04 -3.496048E+04 -1.958455E-09  1.174255E-10
        66  12  8.564713E+04  3.655964E+05  7.945924E+04 -4.430418E+04 -1.439142E-09 -5.447045E-10
        66  13  8.892884E+03  1.129352E+04  1.063721E+04 -4.541166E+04  3.498054E-10  1.580010E-12
        66  14  2.384339E+02  1.009354E+04  5.250694E+03 -3.323787E+04  1.264909E-09 -9.796510E-11
        66  15 -3.480109E+02  1.131014E+04  3.684627E+03 -4.541351E+04 -2.878634E-10 -3.816856E-11
        66  16 -1.121460E+05 -4.760156E+05 -1.071066E+05 -4.086148E+04  1.156341E-09 -1.119276E-09
        66  17 -1.021409E+05 -4.095050E+05 -8.694075E+04 -3.151643E+04  1.806949E-09  7.646883E-11
        66  18 -8.635135E+04 -3.428580E+05 -7.209726E+04 -4.652218E+04  8.185671E-10  3.496689E-10
        66  19  1.299147E+05  4.988206E+05  1.283654E+05 -4.996527E+04 -6.270189E+03 -2.667203E+04
        66  20  1.026064E+05  4.298571E+05  9.743232E+04 -3.496031E+04 -1.939896E+04 -1.074368E+04
        66  21  8.564755E+04  3.655965E+05  7.946000E+04 -4.430426E+04 -1.947090E+04  5.183905E+03
        66  22  8.892939E+03  1.129358E+04  1.063738E+04 -4.541162E+04 -6.273016E+03 -6.844891E+03
        66  23  2.388426E+02  1.009366E+04  5.251433E+03 -3.323781E+04 -1.940150E+04 -4.089196E+03
        66  24 -3.476034E+02  1.131025E+04  3.685343E+03 -4.541349E+04 -1.946933E+04 -1.332625E+03
        66  25 -1.121459E+05 -4.760154E+05 -1.071062E+05 -4.086154E+04 -6.275554E+03  1.296674E+04
        66  26 -1.021405E+05 -4.095049E+05 -8.694003E+04 -3.151647E+04 -1.940400E+04  2.560845E+03
        66  27 -8.635092E+04 -3.428578E+05 -7.209643E+04 -4.652205E+04 -1.946774E+04 -7.845491E+03
        67   1  7.386560E+04  3.133238E+05  6.835448E+04 -4.593644E+04  1.621457E+04 -2.171208E+03
        67   2  5.726385E+04  2.465417E+05  5.373928E+04 -3.312848E+04  1.303033E+04 -4.401999E+03
        67   3  4.192142E+04  1.803593E+05  4.088831E+04 -4.527454E+04  9.286507E+03 -6.633797E+03
        67   4  3.998966E+02  1.089119E+04  3.401332E+03 -4.554749E+04  1.621391E+04  7.583036E+02
        67   5  9.242588E+00  1.064716E+04  3.324545E+03 -3.307012E+04  1.302899E+04 -9.077526E+02
        67   6  7.804225E+02  1.090065E+04  4.620409E+03 -4.554731E+04  9.284384E+03 -2.575046E+03
        67   7 -7.307180E+04 -2.914554E+05 -6.155713E+04 -4.515872E+04  1.621325E+04  3.686408E+03
        67   8 -5.724899E+04 -2.251950E+05 -4.709337E+04 -3.301177E+04  1.302765E+04  2.585186E+03
        67   9 -4.036244E+04 -1.585309E+05 -3.164910E+04 -4.582001E+04  9.282258E+03  1.482614E+03
        67  10  7.386532E+04  3.133237E+05  6.835398E+04 -4.593641E+04 -7.040406E-11  3.296377E-09
        67  11  5.726366E+04  2.465417E+05  5.373892E+04 -3.312843E+04 -1.766621E-10  9.444944E-10
        67  12  4.192132E+04  1.803592E+05  4.088806E+04 -4.527449E+04 -1.111671E-10 -8.025656E-10
        67  13  3.996142E+02  1.089112E+04  3.400837E+03 -4.554750E+04 -3.774682E-11 -2.345555E-12
        67  14  9.060081E+00  1.064712E+04  3.324225E+03 -3.307011E+04  1.992593E-09 -2.390317E-10
        67  15  7.803281E+02  1.090062E+04  4.620234E+03 -4.554729E+04 -9.468458E-10 -6.703120E-11
        67  16 -7.307208E+04 -2.914555E+05 -6.155765E+04 -4.515877E+04  2.012541E-10 -2.908349E-09
        67  17 -5.724917E+04 -2.251951E+05 -4.709370E+04 -3.301180E+04  2.229027E-09 -4.906312E-10
        67  18 -4.036254E+04 -1.585309E+05 -3.164926E+04 -4.582002E+04  2.301199E-10  4.636095E-10
        67  19  7.386560E+04  3.133238E+05  6.835448E+04 -4.593644E+04 -1.621457E+04  2.171208E+03
        67  20  5.726385E+04  2.465417E+05  5.373928E+04 -3.312848E+04 -1.303033E+04  4.401999E+03
        67  21  4.192142E+04  1.803593E+05  4.088831E+04 -4.527454E+04 -9.286507E+03  6.633797E+03
        67  22  3.998966E+02  1.089119E+04  3.401332E+03 -4.554749E+04 -1.621391E+04 -7.583036E+02
        67  23  9.242588E+00  1.064716E+04  3.324545E+03 -3.307012E+04 -1.302899E+04  9.077526E+02
        67  24  7.804225E+02  1.090065E+04  4.620409E+03 -4.554731E+04 -9.284384E+03  2.575046E+03
        67  25 -7.307180E+04 -2.914554E+05 -6.155713E+04 -4.515872E+04 -1.621325E+04 -3.686408E+03
        67  26 -5.724899E+04 -2.251950E+05 -4.709337E+04 -3.301177E+04 -1.302765E+04 -2.585186E+03
        67  27 -4.036244E+04 -1.585309E+05 -3.164910E+04 -4.582001E+04 -9.282258E+03 -1.482614E+03
        68   1  2.795832E+04  1.296398E+05  3.049683E+04 -4.776752E+04  6.843712E+03 -7.553643E+03
        68   2  1.296717E+04  6.117769E+04  1.967699E+04 -3.018132E+04  3.208126E+03 -1.122287E+04
        68   3  1.210237E+04 -3.301462E+03  1.476989E+04 -3.752324E+04  5.836875E+02 -1.489140E+04
        68   4 -6.255773E+02  1.171652E+04  5.506154E+03 -4.554368E+04  6.841294E+03 -3.376366E+03
        68   5  5.078462E+02  9.640375E+03  8.894894E+03 -3.307514E+04  3.206299E+03 -8.064935E+03
        68   6  1.594489E+04  1.171853E+04  1.890401E+04 -4.553421E+04  5.825374E+02 -1.275315E+04
        68   7 -2.921035E+04 -1.061936E+05 -1.948525E+04 -4.332027E+04  6.838906E+03  8.001298E+02
        68   8 -1.195161E+04 -4.189439E+04 -1.887305E+03 -3.596870E+04  3.204443E+03 -4.907257E+03
        68   9  1.978765E+04  2.673888E+04  2.303816E+04 -5.354538E+04  5.813321E+02 -1.061485E+04
        68  10  2.795825E+04  1.296397E+05  3.049664E+04 -4.776748E+04 -1.082090E-09  2.549140E-09
        68  11  1.296712E+04  6.117755E+04  1.967673E+04 -3.018129E+04 -1.153160E-09  2.460913E-10
        68  12  1.210231E+04 -3.301700E+03  1.476948E+04 -3.752323E+04  1.037732E-09 -9.934820E-10
        68  13 -6.256306E+02  1.171649E+04  5.506045E+03 -4.554366E+04 -1.101032E-09 -6.205084E-12
        68  14  5.078177E+02  9.640302E+03  8.894752E+03 -3.307512E+04  2.237561E-10 -3.037696E-10
        68  15  1.594485E+04  1.171836E+04  1.890370E+04 -4.553421E+04 -1.875444E-10 -7.741964E-11
        68  16 -2.921040E+04 -1.061936E+05 -1.948534E+04 -4.332028E+04 -5.807481E-10 -2.010610E-09
        68  17 -1.195162E+04 -4.189442E+04 -1.887370E+03 -3.596869E+04 -3.303281E-10  3.447568E-10
        68  18  1.978762E+04  2.673876E+04  2.303795E+04 -5.354537E+04  3.092765E-11  6.408532E-10
        68  19  2.795832E+04  1.296398E+05  3.049683E+04 -4.776752E+04 -6.843712E+03  7.553643E+03
        68  20  1.296717E+04  6.117769E+04  1.967699E+04 -3.018132E+04 -3.208126E+03  1.122287E+04
        68  21  1.210237E+04 -3.301462E+03  1.476989E+04 -3.752324E+04 -5.836875E+02  1.489140E+04
        68  22 -6.255773E+02  1.171652E+04  5.506154E+03 -4.554368E+04 -6.841294E+03  3.376366E+03
        68  23  5.078462E+02  9.640375E+03  8.894894E+03 -3.307514E+04 -3.206299E+03  8.064935E+03
        68  24  1.594489E+04  1.171853E+04  1.890401E+04 -4.553421E+04 -5.825374E+02  1.275315E+04
        68  25 -2.921035E+04 -1.061936E+05 -1.948525E+04 -4.332027E+04 -6.838906E+03 -8.001298E+02
        68  26 -1.195161E+04 -4.189439E+04 -1.887305E+03 -3.596870E+04 -3.204443E+03  4.907257E+03
        68  27  1.978765E+04  2.673888E+04  2.303816E+04 -5.354538E+04 -5.813321E+02  1.061485E+04
        69   1  1.398685E+04  1.321047E+04  1.302449E+04 -7.353819E+02  1.779692E+03 -3.179369E+02
        69   2  1.391536E+04  1.462245E+04  1.262622E+04 -6.804341E+02  1.476938E+03 -2.679703E+03
        69   3  1.367976E+04  1.496307E+04  1.272366E+04 -3.924186E+02  5.946392E+02 -3.496060E+03
        69   4 -4.240000E+04 -7.313403E+03 -1.776625E+03 -1.542643E+04 -8.098571E+02 -1.289051E+03
        69   5 -4.207682E+04 -5.946812E+03 -7.788395E+02 -1.580040E+04  3.459875E+02 -3.103866E+03
        69   6 -4.220666E+04 -5.940427E+03 -4.407400E+02 -1.594124E+04  9.222841E+02 -3.373203E+03
        69   7 -9.878320E+04 -2.783692E+04 -1.657783E+04 -3.011615E+04 -3.399122E+03 -2.260065E+03
        69   8 -9.806570E+04 -2.651580E+04 -1.418407E+04 -3.091909E+04 -7.848480E+02 -3.527987E+03
        69   9 -9.809018E+04 -2.684376E+04 -1.360541E+04 -3.148884E+04  1.249898E+03 -3.250359E+03
        69  10  1.398685E+04  1.321047E+04  1.302449E+04 -7.353815E+02 -6.545229E-10 -1.396425E-10
        69  11  1.391535E+04  1.462244E+04  1.262620E+04 -6.804310E+02 -1.312671E-09 -2.662192E-10
        69  12  1.367976E+04  1.496306E+04  1.272363E+04 -3.924169E+02 -1.025199E-09 -1.055877E-10
        69  13 -4.240000E+04 -7.313405E+03 -1.776629E+03 -1.542643E+04 -1.114867E-09  4.047457E-11
        69  14 -4.207682E+04 -5.946822E+03 -7.788579E+02 -1.580040E+04  4.989421E-10  8.694962E-11
        69  15 -4.220667E+04 -5.940439E+03 -4.407630E+02 -1.594124E+04  4.037662E-11 -1.322296E-10
        69  16 -9.878321E+04 -2.783693E+04 -1.657786E+04 -3.011616E+04 -1.598433E-10  2.218209E-10
        69  17 -9.806571E+04 -2.651581E+04 -1.418409E+04 -3.091909E+04  1.866495E-10  3.972997E-10
        69  18 -9.809019E+04 -2.684378E+04 -1.360543E+04 -3.148884E+04  1.265819E-10 -3.449489E-11
        69  19  1.398685E+04  1.321047E+04  1.302449E+04 -7.353819E+02 -1.779692E+03  3.179369E+02
        69  20  1.391536E+04  1.462245E+04  1.262622E+04 -6.804341E+02 -1.476938E+03  2.679703E+03
        69  21  1.367976E+04  1.496307E+04  1.272366E+04 -3.924186E+02 -5.946392E+02  3.496060E+03
        69  22 -4.240000E+04 -7.313403E+03 -1.776625E+03 -1.542643E+04  8.098571E+02  1.289051E+03
        69  23 -4.207682E+04 -5.946812E+03 -7.788395E+02 -1.580040E+04 -3.459875E+02  3.103866E+03
        69  24 -4.220666E+04 -5.940427E+03 -4.407400E+02 -1.594124E+04 -9.222841E+02  3.373203E+03
        69  25 -9.878320E+04 -2.783692E+04 -1.657783E+04 -3.011615E+04  3.399122E+03  2.260065E+03
        69  26 -9.806570E+04 -2.651580E+04 -1.418407E+04 -3.091909E+04  7.848480E+02  3.527987E+03
        69  27 -9.809018E+04 -2.684376E+04 -1.360541E+04 -3.148884E+04 -1.249898E+03  3.250359E+03
        70   1  1.391708E+04  1.472584E+04  1.291200E+04 -4.789406E+02  1.052068E+03 -3.180735E+03
        70   2  1.399509E+04  1.484644E+04  1.302883E+04 -4.402986E+02  1.118154E+03 -3.263152E+03
        70   3  1.407590E+04  1.487961E+04  1.310678E+04 -4.197568E+02  1.158170E+03 -3.276056E+03
        70   4 -4.216300E+04 -6.049077E+03 -3.502127E+02 -1.585138E+04  9.305862E+02 -3.226326E+03
        70   5 -4.215287E+04 -5.962580E+03 -1.905452E+02 -1.585594E+04  1.062273E+03 -3.284140E+03
        70   6 -4.215292E+04 -5.976541E+03 -1.217274E+02 -1.587864E+04  1.167889E+03 -3.272439E+03
        70   7 -9.823983E+04 -2.682373E+04 -1.361262E+04 -3.122253E+04  8.091169E+02 -3.271911E+03
        70   8 -9.829735E+04 -2.677124E+04 -1.341004E+04 -3.127023E+04  1.006398E+03 -3.305125E+03
        70   9 -9.837800E+04 -2.683225E+04 -1.335029E+04 -3.133610E+04  1.177607E+03 -3.268822E+03
        70  10  1.391707E+04  1.472583E+04  1.291198E+04 -4.789379E+02  3.846740E-10 -1.145306E-10
        70  11  1.399509E+04  1.484643E+04  1.302881E+04 -4.402956E+02  3.919529E-10  7.276519E-11
        70  12  1.407590E+04  1.487960E+04  1.310675E+04 -4.197537E+02  2.059997E-09  1.601276E-10
        70  13 -4.216300E+04 -6.049088E+03 -3.502339E+02 -1.585138E+04  1.142667E-09 -1.990730E-10
        70  14 -4.215288E+04 -5.962591E+03 -1.905676E+02 -1.585594E+04  2.112075E-09  2.002575E-10
        70  15 -4.215292E+04 -5.976553E+03 -1.217501E+02 -1.587864E+04  3.248612E-09  7.107106E-10
        70  16 -9.823984E+04 -2.682374E+04 -1.361264E+04 -3.122253E+04 -2.194618E-10 -3.394006E-10
        70  17 -9.829736E+04 -2.677126E+04 -1.341007E+04 -3.127022E+04  1.324005E-10  1.879939E-11
        70  18 -9.837801E+04 -2.683226E+04 -1.335031E+04 -3.133609E+04  3.070741E-10  1.230463E-09
        70  19  1.391708E+04  1.472584E+04  1.291200E+04 -4.789406E+02 -1.052068E+03  3.180735E+03
        70  20  1.399509E+04  1.484644E+04  1.302883E+04 -4.402986E+02 -1.118154E+03  3.263152E+03
        70  21  1.407590E+04  1.487961E+04  1.310678E+04 -4.197568E+02 -1.158170E+03  3.276056E+03
        70  22 -4.216300E+04 -6.049077E+03 -3.502127E+02 -1.585138E+04 -9.305862E+02  3.226326E+03
        70  23 -4.215287E+04 -5.962580E+03 -1.905452E+02 -1.585594E+04 -1.062273E+03  3.284140E+03
        70  24 -4.215292E+04 -5.976541E+03 -1.217274E+02 -1.587864E+04 -1.167889E+03  3.272439E+03
        70  25 -9.823983E+04 -2.682373E+04 -1.361262E+04 -3.122253E+04 -8.091169E+02  3.271911E+03
        70  26 -9.829735E+04 -2.677124E+04 -1.341004E+04 -3.127023E+04 -1.006398E+03  3.305125E+03
        70  27 -9.837800E+04 -2.683225E+04 -1.335029E+04 -3.133610E+04 -1.177607E+03  3.268822E+03
        71   1  1.415703E+04  1.489193E+04  1.314363E+04 -4.053770E+02  1.195717E+03 -3.259012E+03
        71   2  1.423349E+04  1.493980E+04  1.316909E+04 -3.680048E+02  1.244666E+03 -3.251376E+03
        71   3  1.432994E+04  1.495850E+04  1.316038E+04 -3.606583E+02  1.292408E+03 -3.240519E+03
        71   4 -4.214899E+04 -5.982069E+03 -1.056252E+02 -1.587318E+04  1.185335E+03 -3.262935E+03
        71   5 -4.215843E+04 -5.964924E+03 -9.716816E+01 -1.585902E+04  1.237319E+03 -3.254160E+03
        71   6 -4.214844E+04 -5.977572E+03 -1.252764E+02 -1.587491E+04  1.288095E+03 -3.242165E+03
        71   7 -9.845256E+04 -2.685610E+04 -1.335530E+04 -3.133990E+04  1.174953E+03 -3.266857E+03
        71   8 -9.854772E+04 -2.686962E+04 -1.336380E+04 -3.134890E+04  1.229972E+03 -3.256944E+03
        71   9 -9.862404E+04 -2.691356E+04 -1.341126E+04 -3.138797E+04  1.283783E+03 -3.243811E+03
        71  10  1.415703E+04  1.489192E+04  1.314361E+04 -4.053739E+02  3.657597E-10  7.999298E-10
        71  11  1.423348E+04  1.493979E+04  1.316907E+04 -3.680015E+02  4.325643E-10  9.714711E-10
        71  12  1.432994E+04  1.495849E+04  1.316036E+04 -3.606549E+02 -8.034093E-10 -9.746835E-10
        71  13 -4.214900E+04 -5.982080E+03 -1.056478E+02 -1.587318E+04  1.722340E-09  1.163062E-09
        71  14 -4.215844E+04 -5.964936E+03 -9.719094E+01 -1.585901E+04  6.070713E-10  1.512917E-09
        71  15 -4.214845E+04 -5.977584E+03 -1.252992E+02 -1.587490E+04  2.956700E-10 -6.263248E-11
        71  16 -9.845256E+04 -2.685611E+04 -1.335532E+04 -3.133989E+04 -4.655616E-10  1.748026E-09
        71  17 -9.854773E+04 -2.686963E+04 -1.336382E+04 -3.134889E+04  2.987621E-09  1.500255E-09
        71  18 -9.862405E+04 -2.691358E+04 -1.341129E+04 -3.138797E+04  2.394624E-09  7.349474E-10
        71  19  1.415703E+04  1.489193E+04  1.314363E+04 -4.053770E+02 -1.195717E+03  3.259012E+03
        71  20  1.423349E+04  1.493980E+04  1.316909E+04 -3.680048E+02 -1.244666E+03  3.251376E+03
        71  21  1.432994E+04  1.495850E+04  1.316038E+04 -3.606583E+02 -1.292408E+03  3.240519E+03
        71  22 -4.214899E+04 -5.982069E+03 -1.056252E+02 -1.587318E+04 -1.185335E+03  3.262935E+03
        71  23 -4.215843E+04 -5.964924E+03 -9.716816E+01 -1.585902E+04 -1.237319E+03  3.254160E+03
        71  24 -4.214844E+04 -5.977572E+03 -1.252764E+02 -1.587491E+04 -1.288095E+03  3.242165E+03
        71  25 -9.845256E+04 -2.685610E+04 -1.335530E+04 -3.133990E+04 -1.174953E+03  3.266857E+03
        71  26 -9.854772E+04 -2.686962E+04 -1.336380E+04 -3.134890E+04 -1.229972E+03  3.256944E+03
        71  27 -9.862404E+04 -2.691356E+04 -1.341126E+04 -3.138797E+04 -1.283783E+03  3.243811E+03
        72   1  1.439448E+04  1.498238E+04  1.314770E+04 -3.430118E+02  1.317628E+03 -3.234246E+03
        72   2  1.447816E+04  1.502387E+04  1.306170E+04 -3.105373E+02  1.448540E+03 -3.191234E+03
        72   3  1.456847E+04  1.503754E+04  1.287960E+04 -3.104733E+02  1.579367E+03 -3.147987E+03
        72   4 -4.215172E+04 -5.978258E+03 -1.545519E+02 -1.587510E+04  1.312471E+03 -3.236209E+03
        72   5 -4.215459E+04 -5.962248E+03 -2.593570E+02 -1.585968E+04  1.443592E+03 -3.193119E+03
        72   6 -4.215093E+04 -5.974051E+03 -4.604359E+02 -1.587660E+04  1.574627E+03 -3.149794E+03
        72   7 -9.869417E+04 -2.693845E+04 -1.345687E+04 -3.140575E+04  1.307315E+03 -3.238172E+03
        72   8 -9.878397E+04 -2.694807E+04 -1.358059E+04 -3.140747E+04  1.438644E+03 -3.195003E+03
        72   9 -9.886734E+04 -2.698549E+04 -1.380075E+04 -3.144148E+04  1.569888E+03 -3.151601E+03
        72  10  1.439447E+04  1.498237E+04  1.314768E+04 -3.430084E+02 -1.586564E-08 -8.911239E-09
        72  11  1.447816E+04  1.502386E+04  1.306168E+04 -3.105336E+02 -3.379605E-09 -4.365362E-09
        72  12  1.456847E+04  1.503753E+04  1.287957E+04 -3.104693E+02  1.265228E-08  5.389817E-09
        72  13 -4.215173E+04 -5.978270E+03 -1.545748E+02 -1.587510E+04 -1.535822E-09 -2.165383E-09
        72  14 -4.215460E+04 -5.962259E+03 -2.593800E+02 -1.585967E+04 -6.491668E-09 -4.091608E-09
        72  15 -4.215094E+04 -5.974062E+03 -4.604592E+02 -1.587659E+04 -3.929079E-09 -5.236195E-10
        72  16 -9.869417E+04 -2.693846E+04 -1.345689E+04 -3.140575E+04  1.360545E-08  4.534464E-09
        72  17 -9.878397E+04 -2.694808E+04 -1.358061E+04 -3.140747E+04 -4.614488E-09 -3.240250E-09
        72  18 -9.886735E+04 -2.698550E+04 -1.380077E+04 -3.144148E+04 -1.641514E-08 -6.829629E-09
        72  19  1.439448E+04  1.498238E+04  1.314770E+04 -3.430118E+02 -1.317628E+03  3.234246E+03
        72  20  1.447816E+04  1.502387E+04  1.306170E+04 -3.105373E+02 -1.448540E+03  3.191234E+03
        72  21  1.456847E+04  1.503754E+04  1.287960E+04 -3.104733E+02 -1.579367E+03  3.147987E+03
        72  22 -4.215172E+04 -5.978258E+03 -1.545519E+02 -1.587510E+04 -1.312471E+03  3.236209E+03
        72  23 -4.215459E+04 -5.962248E+03 -2.593570E+02 -1.585968E+04 -1.443592E+03  3.193119E+03
        72  24 -4.215093E+04 -5.974051E+03 -4.604359E+02 -1.587660E+04 -1.574627E+03  3.149794E+03
        72  25 -9.869417E+04 -2.693845E+04 -1.345687E+04 -3.140575E+04 -1.307315E+03  3.238172E+03
        72  26 -9.878397E+04 -2.694807E+04 -1.358059E+04 -3.140747E+04 -1.438644E+03  3.195003E+03
        72  27 -9.886734E+04 -2.698549E+04 -1.380075E+04 -3.144148E+04 -1.569888E+03  3.151601E+03
        73   1  1.462198E+04  1.505629E+04  1.274344E+04 -3.017041E+02  1.669845E+03 -3.117362E+03
        73   2  1.474696E+04  1.509625E+04  1.226757E+04 -2.774032E+02  2.222526E+03 -2.915548E+03
        73   3  1.481292E+04  1.507604E+04  1.137518E+04 -2.983303E+02  2.775110E+03 -2.713478E+03
        73   4 -4.216489E+04 -5.975797E+03 -6.122230E+02 -1.588155E+04  1.665093E+03 -3.119174E+03
        73   5 -4.213544E+04 -5.946994E+03 -1.106130E+03 -1.585845E+04  2.217964E+03 -2.917288E+03
        73   6 -4.216511E+04 -5.978365E+03 -2.016744E+03 -1.588052E+04  2.770742E+03 -2.715146E+03
        73   7 -9.894824E+04 -2.700754E+04 -1.396803E+04 -3.146002E+04  1.660342E+03 -3.120985E+03
        73   8 -9.901463E+04 -2.699001E+04 -1.448006E+04 -3.143820E+04  2.213403E+03 -2.919028E+03
        73   9 -9.914021E+04 -2.703266E+04 -1.540898E+04 -3.146150E+04  2.766374E+03 -2.716813E+03
        73  10  1.462197E+04  1.505628E+04  1.274341E+04 -3.016999E+02  1.992187E-09  2.674313E-09
        73  11  1.474696E+04  1.509624E+04  1.226755E+04 -2.773980E+02 -2.123852E-09  1.680131E-09
        73  12  1.481291E+04  1.507603E+04  1.137515E+04 -2.983242E+02  8.112016E-10  7.208841E-10
        73  13 -4.216490E+04 -5.975808E+03 -6.122465E+02 -1.588155E+04 -4.183072E-10  1.346896E-09
        73  14 -4.213545E+04 -5.947004E+03 -1.106155E+03 -1.585844E+04 -2.875384E-10  6.277332E-10
        73  15 -4.216512E+04 -5.978375E+03 -2.016772E+03 -1.588052E+04 -1.083668E-09  6.233987E-10
        73  16 -9.894825E+04 -2.700755E+04 -1.396805E+04 -3.146001E+04 -2.515763E-09 -5.203074E-10
        73  17 -9.901463E+04 -2.699002E+04 -1.448008E+04 -3.143819E+04  6.361916E-10  5.862932E-10
        73  18 -9.914022E+04 -2.703267E+04 -1.540901E+04 -3.146150E+04 -5.982798E-10  7.894685E-10
        73  19  1.462198E+04  1.505629E+04  1.274344E+04 -3.017041E+02 -1.669845E+03  3.117362E+03
        73  20  1.474696E+04  1.509625E+04  1.226757E+04 -2.774032E+02 -2.222526E+03  2.915548E+03
        73  21  1.481292E+04  1.507604E+04  1.137518E+04 -2.983303E+02 -2.775110E+03  2.713478E+03
        73  22 -4.216489E+04 -5.975797E+03 -6.122230E+02 -1.588155E+04 -1.665093E+03  3.119174E+03
        73  23 -4.213544E+04 -5.946994E+03 -1.106130E+03 -1.585845E+04 -2.217964E+03  2.917288E+03
        73  24 -4.216511E+04 -5.978365E+03 -2.016744E+03 -1.588052E+04 -2.770742E+03  2.715146E+03
        73  25 -9.894824E+04 -2.700754E+04 -1.396803E+04 -3.146002E+04 -1.660342E+03  3.120985E+03
        73  26 -9.901463E+04 -2.699001E+04 -1.448006E+04 -3.143820E+04 -2.213403E+03  2.919028E+03
        73  27 -9.914021E+04 -2.703266E+04 -1.540898E+04 -3.146150E+04 -2.766374E+03  2.716813E+03
        74   1  1.485943E+04  1.506520E+04  1.071926E+04 -3.920296E+02  3.166129E+03 -2.570187E+03
        74   2  1.513259E+04  1.517393E+04  8.553096E+03 -2.794322E+02  5.599101E+03 -1.661355E+03
        74   3  1.493295E+04  1.474523E+04  4.451354E+03 -1.821302E+02  8.030778E+03 -7.491442E+02
        74   4 -4.223870E+04 -5.952832E+03 -2.687361E+03 -1.592337E+04  3.160867E+03 -2.572189E+03
        74   5 -4.202983E+04 -5.880870E+03 -4.871171E+03 -1.584177E+04  5.596825E+03 -1.662237E+03
        74   6 -4.229437E+04 -6.346996E+03 -8.993058E+03 -1.577549E+04  8.031481E+03 -7.489073E+02
        74   7 -9.933359E+04 -2.697064E+04 -1.609421E+04 -3.145342E+04  3.155606E+03 -2.574192E+03
        74   8 -9.918883E+04 -2.693538E+04 -1.829562E+04 -3.140276E+04  5.594549E+03 -1.663118E+03
        74   9 -9.951811E+04 -2.743887E+04 -2.243761E+04 -3.136747E+04  8.032184E+03 -7.486705E+02
        74  10  1.485942E+04  1.506519E+04  1.071923E+04 -3.920230E+02  1.317577E-09  9.392092E-10
        74  11  1.513255E+04  1.517392E+04  8.553032E+03 -2.794248E+02 -2.652628E-09 -5.052844E-10
        74  12  1.493288E+04  1.474521E+04  4.451232E+03 -1.821254E+02 -3.825581E-09  3.723478E-11
        74  13 -4.223872E+04 -5.952842E+03 -2.687393E+03 -1.592337E+04 -2.210857E-09  2.537920E-10
        74  14 -4.202986E+04 -5.880881E+03 -4.871235E+03 -1.584176E+04 -3.416046E-09 -1.185018E-09
        74  15 -4.229444E+04 -6.347014E+03 -8.993181E+03 -1.577549E+04 -1.147426E-09  1.110022E-10
        74  16 -9.933360E+04 -2.697065E+04 -1.609424E+04 -3.145341E+04 -3.357786E-09 -2.770521E-10
        74  17 -9.918886E+04 -2.693539E+04 -1.829568E+04 -3.140276E+04 -3.086328E-09 -1.763712E-09
        74  18 -9.951818E+04 -2.743889E+04 -2.243773E+04 -3.136746E+04  1.421102E-09  4.250105E-10
        74  19  1.485943E+04  1.506520E+04  1.071926E+04 -3.920296E+02 -3.166129E+03  2.570187E+03
        74  20  1.513259E+04  1.517393E+04  8.553096E+03 -2.794322E+02 -5.599101E+03  1.661355E+03
        74  21  1.493295E+04  1.474523E+04  4.451354E+03 -1.821302E+02 -8.030778E+03  7.491442E+02
        74  22 -4.223870E+04 -5.952832E+03 -2.687361E+03 -1.592337E+04 -3.160867E+03  2.572189E+03
        74  23 -4.202983E+04 -5.880870E+03 -4.871171E+03 -1.584177E+04 -5.596825E+03  1.662237E+03
        74  24 -4.229437E+04 -6.346996E+03 -8.993058E+03 -1.577549E+04 -8.031481E+03  7.489073E+02
        74  25 -9.933359E+04 -2.697064E+04 -1.609421E+04 -3.145342E+04 -3.155606E+03  2.574192E+03
        74  26 -9.918883E+04 -2.693538E+04 -1.829562E+04 -3.140276E+04 -5.594549E+03  1.663118E+03
        74  27 -9.951811E+04 -2.743887E+04 -2.243761E+04 -3.136747E+04 -8.032184E+03  7.486705E+02
        75   1  1.548638E+04  1.444720E+04  1.585162E+03 -1.929391E+03  9.727480E+03 -1.220917E+02
        75   2  1.556134E+04  1.612166E+04 -7.963699E+03  7.613863E+02  2.051917E+04  3.946248E+03
        75   3  1.105933E+04  9.134177E+03 -2.785772E+04  5.202302E+03  3.128381E+04  8.086870E+03
        75   4 -4.285121E+04 -5.615388E+03 -1.186958E+04 -1.633656E+04  9.707301E+03 -1.296678E+02
        75   5 -4.117044E+04 -5.638034E+03 -2.144678E+04 -1.557474E+04  2.056614E+04  3.963822E+03
        75   6 -4.408031E+04 -1.433656E+04 -4.142302E+04 -1.306280E+04  3.139793E+04  8.129499E+03
        75   7 -1.011858E+05 -2.567797E+04 -2.532465E+04 -3.074263E+04  9.687124E+03 -1.372432E+02
        75   8 -9.789918E+04 -2.739750E+04 -3.493014E+04 -3.190953E+04  2.061311E+04  3.981395E+03
        75   9 -9.921690E+04 -3.780681E+04 -5.498856E+04 -3.132632E+04  3.151203E+04  8.172122E+03
        75  10  1.548628E+04  1.444718E+04  1.584985E+03 -1.929390E+03 -2.234873E-10  8.922842E-10
        75  11  1.556088E+04  1.612153E+04 -7.964519E+03  7.613211E+02 -1.649856E-09 -1.025745E-09
        75  12  1.105826E+04  9.133844E+03 -2.785968E+04  5.202098E+03 -1.891792E-09 -8.445553E-11
        75  13 -4.285131E+04 -5.615413E+03 -1.186976E+04 -1.633656E+04 -1.605320E-10  3.639469E-10
        75  14 -4.117090E+04 -5.638164E+03 -2.144761E+04 -1.557480E+04  1.129476E-09 -3.973772E-10
        75  15 -4.408139E+04 -1.433690E+04 -4.142500E+04 -1.306300E+04  2.033496E-10  3.809471E-10
        75  16 -1.011859E+05 -2.567799E+04 -2.532482E+04 -3.074263E+04 -6.014367E-10 -4.112922E-10
        75  17 -9.789964E+04 -2.739763E+04 -3.493097E+04 -3.190959E+04  5.127873E-10 -1.497741E-10
        75  18 -9.921799E+04 -3.780715E+04 -5.499055E+04 -3.132653E+04  2.392612E-09  7.451606E-10
        75  19  1.548638E+04  1.444720E+04  1.585162E+03 -1.929391E+03 -9.727480E+03  1.220917E+02
        75  20  1.556134E+04  1.612166E+04 -7.963699E+03  7.613863E+02 -2.051917E+04 -3.946248E+03
        75  21  1.105933E+04  9.134177E+03 -2.785772E+04  5.202302E+03 -3.128381E+04 -8.086870E+03
        75  22 -4.285121E+04 -5.615388E+03 -1.186958E+04 -1.633656E+04 -9.707301E+03  1.296678E+02
        75  23 -4.117044E+04 -5.638034E+03 -2.144678E+04 -1.557474E+04 -2.056614E+04 -3.963822E+03
        75  24 -4.408031E+04 -1.433656E+04 -4.142302E+04 -1.306280E+04 -3.139793E+04 -8.129499E+03
        75  25 -1.011858E+05 -2.567797E+04 -2.532465E+04 -3.074263E+04 -9.687124E+03  1.372432E+02
        75  26 -9.789918E+04 -2.739750E+04 -3.493014E+04 -3.190953E+04 -2.061311E+04 -3.981395E+03
        75  27 -9.921690E+04 -3.780681E+04 -5.498856E+04 -3.132632E+04 -3.151203E+04 -8.172122E+03
        76   1  2.345569E+04  4.653292E+03 -3.907576E+04 -2.576557E+04  3.838238E+04  1.059467E+04
        76   2  6.904861E+03  3.613920E+04 -7.987692E+04  2.806162E+04  8.683358E+04  2.928195E+04
        76   3 -7.385955E+04 -8.642933E+04 -1.989842E+05  1.212274E+05  1.346828E+05  4.957565E+04
        76   4 -5.078945E+04  1.737098E+02 -5.257229E+04 -2.231109E+04  3.803130E+04  1.046458E+04
        76   5 -3.020157E+04 -5.466521E+03 -9.365887E+04 -1.088708E+04  8.798824E+04  2.971058E+04
        76   6 -7.413881E+04 -1.654762E+05 -2.142490E+05  3.987998E+04  1.373459E+05  5.055403E+04
        76   7 -1.250280E+05 -4.305046E+03 -6.606868E+04 -1.885763E+04  3.768027E+04  1.033447E+04
        76   8 -6.730430E+04 -4.706621E+04 -1.074404E+05 -4.983226E+04  8.914282E+04  3.013905E+04
        76   9 -7.440291E+04 -2.444887E+05 -2.295098E+05 -4.146220E+04  1.400090E+05  5.153154E+04
        76  10  2.345408E+04  4.652776E+03 -3.907874E+04 -2.576590E+04 -3.837371E-10  5.240635E-10
        76  11  6.896534E+03  3.613626E+04 -7.989271E+04  2.805957E+04  7.330507E-10 -2.204370E-10
        76  12 -7.387969E+04 -8.643684E+04 -1.990229E+05  1.212220E+05 -4.246290E-10  1.526002E-10
        76  13 -5.079103E+04  1.732039E+02 -5.257522E+04 -2.231141E+04 -7.903195E-11 -4.175929E-11
        76  14 -3.021012E+04 -5.469548E+03 -9.367508E+04 -1.088919E+04 -3.664437E-11  1.880938E-11
        76  15 -7.415975E+04 -1.654840E+05 -2.142893E+05  3.987439E+04  5.894286E-10  5.560190E-10
        76  16 -1.250295E+05 -4.305542E+03 -6.607155E+04 -1.885794E+04  4.185890E-10  1.156307E-10
        76  17 -6.731308E+04 -4.706932E+04 -1.074571E+05 -4.983442E+04  1.774044E-09  1.079219E-09
        76  18 -7.442468E+04 -2.444968E+05 -2.295517E+05 -4.146801E+04  1.359908E-09 -2.732808E-10
        76  19  2.345569E+04  4.653292E+03 -3.907576E+04 -2.576557E+04 -3.838238E+04 -1.059467E+04
        76  20  6.904861E+03  3.613920E+04 -7.987692E+04  2.806162E+04 -8.683358E+04 -2.928195E+04
        76  21 -7.385955E+04 -8.642933E+04 -1.989842E+05  1.212274E+05 -1.346828E+05 -4.957565E+04
        76  22 -5.078945E+04  1.737098E+02 -5.257229E+04 -2.231109E+04 -3.803130E+04 -1.046458E+04
        76  23 -3.020157E+04 -5.466521E+03 -9.365887E+04 -1.088708E+04 -8.798824E+04 -2.971058E+04
        76  24 -7.413881E+04 -1.654762E+05 -2.142490E+05  3.987998E+04 -1.373459E+05 -5.055403E+04
        76  25 -1.250280E+05 -4.305046E+03 -6.606868E+04 -1.885763E+04 -3.768027E+04 -1.033447E+04
        76  26 -6.730430E+04 -4.706621E+04 -1.074404E+05 -4.983226E+04 -8.914282E+04 -3.013905E+04
        76  27 -7.440291E+04 -2.444887E+05 -2.295098E+05 -4.146220E+04 -1.400090E+05 -5.153154E+04
        77   1  1.980494E+05  1.933368E+06  2.125786E+05 -8.573929E+04  4.365469E+03  1.142418E+05
        77   2  8.660313E+04  1.904048E+06  1.277510E+05 -4.179992E+04  1.456982E+04  6.745312E+04
        77   3  6.375263E+04  1.902947E+06  9.547331E+04 -1.556075E+03  1.723705E+04  2.066596E+04
        77   4  1.236216E+05  1.631924E+06  1.413371E+05 -1.317015E+04  4.379710E+03  9.473675E+04
        77   5  1.805985E+04  1.618770E+06  6.978609E+04 -1.133055E+04  1.457456E+04  5.847170E+04
        77   6 -7.135476E+02  1.632023E+06  4.350444E+04 -1.318459E+04  1.723703E+04  2.220617E+04
        77   7  4.920728E+04  1.330575E+06  7.009364E+04  5.936367E+04  4.389409E+03  7.524114E+04
        77   8 -5.048498E+04  1.333572E+06  1.181772E+04  1.912461E+04  1.457841E+04  4.949432E+04
        77   9 -6.518354E+04  1.361169E+06 -8.467703E+03 -2.480792E+04  1.723695E+04  2.374572E+04
        77  10  1.980459E+05  1.933354E+06  2.125541E+05 -8.573969E+04 -4.528239E-10 -1.159872E-09
        77  11  8.660169E+04  1.904043E+06  1.277421E+05 -4.180071E+04 -1.622251E-10 -1.086841E-09
        77  12  6.375220E+04  1.902947E+06  9.547195E+04 -1.556362E+03 -4.616021E-10 -8.192398E-11
        77  13  1.236192E+05  1.631914E+06  1.413203E+05 -1.317048E+04 -2.584923E-10  2.593783E-11
        77  14  1.805870E+04  1.618767E+06  6.977929E+04 -1.133123E+04 -2.199577E-09  8.761209E-11
        77  15 -7.139988E+02  1.632022E+06  4.350296E+04 -1.318490E+04 -4.040128E-10  1.536397E-10
        77  16  4.920575E+04  1.330569E+06  7.008299E+04  5.936340E+04  8.588343E-10  1.209943E-09
        77  17 -5.048586E+04  1.333570E+06  1.181273E+04  1.912403E+04  4.362503E-10  1.090482E-09
        77  18 -6.518401E+04  1.361169E+06 -8.469319E+03 -2.480825E+04 -4.534575E-10  6.254285E-13
        77  19  1.980494E+05  1.933368E+06  2.125786E+05 -8.573929E+04 -4.365469E+03 -1.142418E+05
        77  20  8.660313E+04  1.904048E+06  1.277510E+05 -4.179992E+04 -1.456982E+04 -6.745312E+04
        77  21  6.375263E+04  1.902947E+06  9.547331E+04 -1.556075E+03 -1.723705E+04 -2.066596E+04
        77  22  1.236216E+05  1.631924E+06  1.413371E+05 -1.317015E+04 -4.379710E+03 -9.473675E+04
        77  23  1.805985E+04  1.618770E+06  6.978609E+04 -1.133055E+04 -1.457456E+04 -5.847170E+04
        77  24 -7.135476E+02  1.632023E+06  4.350444E+04 -1.318459E+04 -1.723703E+04 -2.220617E+04
        77  25  4.920728E+04  1.330575E+06  7.009364E+04  5.936367E+04 -4.389409E+03 -7.524114E+04
        77  26 -5.048498E+04  1.333572E+06  1.181772E+04  1.912461E+04 -1.457841E+04 -4.949432E+04
        77  27 -6.518354E+04  1.361169E+06 -8.467703E+03 -2.480792E+04 -1.723695E+04 -2.374572E+04
        78   1  6.643394E+04  1.887352E+06  8.705612E+04 -1.580544E+04  1.661940E+04  1.592547E+04
        78   2  5.896359E+04  1.870418E+06  7.740985E+04 -1.128740E+04  1.617742E+04 -6.177785E+02
        78   3  5.912835E+04  1.857547E+06  8.042171E+04 -1.083386E+04  1.492050E+04 -1.716102E+04
        78   4  4.488333E+03  1.627004E+06  3.716420E+04 -1.326485E+04  1.662003E+04  1.597377E+04
        78   5  6.808841E+02  1.625073E+06  3.085679E+04 -1.123272E+04  1.617766E+04  5.730433E+02
        78   6  4.312521E+03  1.627007E+06  3.641896E+04 -1.326513E+04  1.492031E+04 -1.482806E+04
        78   7 -5.746124E+04  1.366721E+06 -1.273082E+04 -1.072533E+04  1.662066E+04  1.602206E+04
        78   8 -5.760533E+04  1.379785E+06 -1.569896E+04 -1.117805E+04  1.617789E+04  1.763407E+03
        78   9 -5.050640E+04  1.396518E+06 -7.586177E+03 -1.569548E+04  1.492010E+04 -1.249594E+04
        78  10  6.643358E+04  1.887352E+06  8.705513E+04 -1.580565E+04  1.444557E-10  7.517705E-10
        78  11  5.896331E+04  1.870418E+06  7.740936E+04 -1.128739E+04  2.932309E-10 -7.183969E-10
        78  12  5.912803E+04  1.857546E+06  8.042074E+04 -1.083366E+04 -8.712377E-10 -8.297023E-10
        78  13  4.487968E+03  1.627004E+06  3.716320E+04 -1.326506E+04  3.226194E-11  2.949305E-10
        78  14  6.806027E+02  1.625073E+06  3.085630E+04 -1.123272E+04  1.980298E-09  1.746731E-10
        78  15  4.312223E+03  1.627007E+06  3.641813E+04 -1.326496E+04 -4.605802E-10  3.629857E-10
        78  16 -5.746161E+04  1.366721E+06 -1.273182E+04 -1.072555E+04  4.140265E-10 -7.765516E-10
        78  17 -5.760562E+04  1.379785E+06 -1.569946E+04 -1.117808E+04 -1.546619E-11  6.712008E-10
        78  18 -5.050669E+04  1.396518E+06 -7.586889E+03 -1.569533E+04 -1.196963E-09  7.403129E-10
        78  19  6.643394E+04  1.887352E+06  8.705612E+04 -1.580544E+04 -1.661940E+04 -1.592547E+04
        78  20  5.896359E+04  1.870418E+06  7.740985E+04 -1.128740E+04 -1.617742E+04  6.177785E+02
        78  21  5.912835E+04  1.857547E+06  8.042171E+04 -1.083386E+04 -1.492050E+04  1.716102E+04
        78  22  4.488333E+03  1.627004E+06  3.716420E+04 -1.326485E+04 -1.662003E+04 -1.597377E+04
        78  23  6.808841E+02  1.625073E+06  3.085679E+04 -1.123272E+04 -1.617766E+04 -5.730433E+02
        78  24  4.312521E+03  1.627007E+06  3.641896E+04 -1.326513E+04 -1.492031E+04  1.482806E+04
        78  25 -5.746124E+04  1.366721E+06 -1.273082E+04 -1.072533E+04 -1.662066E+04 -1.602206E+04
        78  26 -5.760533E+04  1.379785E+06 -1.569896E+04 -1.117805E+04 -1.617789E+04 -1.763407E+03
        78  27 -5.050640E+04  1.396518E+06 -7.586177E+03 -1.569548E+04 -1.492010E+04  1.249594E+04
        79   1  5.178350E+04  1.852417E+06  8.443215E+04 -2.457270E+04  1.431371E+04 -2.228896E+04
        79   2  6.663900E+04  1.824522E+06  1.086772E+05  1.811687E+04  1.105263E+04 -6.374045E+04
        79   3  1.661728E+05  1.823170E+06  1.810262E+05  5.654100E+04  3.189240E+03 -1.051931E+05
        79   4 -6.756519E+02  1.631811E+06  4.235379E+04 -1.331763E+04  1.431328E+04 -2.092585E+04
        79   5  1.739652E+04  1.619049E+06  6.741170E+04 -1.116385E+04  1.105297E+04 -5.595450E+04
        79   6  1.190426E+05  1.631720E+06  1.361286E+05 -1.327548E+04  3.195065E+03 -9.098470E+04
        79   7 -5.313719E+04  1.411252E+06  2.733026E+02 -2.066649E+03  1.431289E+04 -1.956321E+04
        79   8 -3.184529E+04  1.413619E+06  2.614472E+04 -4.043472E+04  1.105258E+04 -4.817107E+04
        79   9  7.192816E+04  1.440315E+06  9.123182E+04 -8.307035E+04  3.197706E+03 -7.678061E+04
        79  10  5.178315E+04  1.852416E+06  8.443083E+04 -2.457244E+04 -2.008632E-09  2.609199E-08
        79  11  6.663778E+04  1.824517E+06  1.086694E+05  1.811744E+04 -3.441210E-10  9.204973E-10
        79  12  1.661698E+05  1.823158E+06  1.810054E+05  5.654127E+04 -6.334822E-10 -2.348403E-08
        79  13 -6.759892E+02  1.631810E+06  4.235258E+04 -1.331739E+04 -1.627162E-09  3.542648E-10
        79  14  1.739556E+04  1.619046E+06  6.740560E+04 -1.116336E+04 -7.445179E-10  3.751495E-10
        79  15  1.190403E+05  1.631711E+06  1.361130E+05 -1.327524E+04 -7.727157E-10  4.669860E-10
        79  16 -5.313751E+04  1.411252E+06  2.721998E+02 -2.066424E+03 -1.543147E-09 -2.618180E-08
        79  17 -3.184605E+04  1.413616E+06  2.614014E+04 -4.043429E+04 -1.033218E-09 -5.694201E-10
        79  18  7.192657E+04  1.440309E+06  9.122074E+04 -8.307016E+04 -1.510185E-09  2.344464E-08
        79  19  5.178350E+04  1.852417E+06  8.443215E+04 -2.457270E+04 -1.431371E+04  2.228896E+04
        79  20  6.663900E+04  1.824522E+06  1.086772E+05  1.811687E+04 -1.105263E+04  6.374045E+04
        79  21  1.661728E+05  1.823170E+06  1.810262E+05  5.654100E+04 -3.189240E+03  1.051931E+05
        79  22 -6.756519E+02  1.631811E+06  4.235379E+04 -1.331763E+04 -1.431328E+04  2.092585E+04
        79  23  1.739652E+04  1.619049E+06  6.741170E+04 -1.116385E+04 -1.105297E+04  5.595450E+04
        79  24  1.190426E+05  1.631720E+06  1.361286E+05 -1.327548E+04 -3.195065E+03  9.098470E+04
        79  25 -5.313719E+04  1.411252E+06  2.733026E+02 -2.066649E+03 -1.431289E+04  1.956321E+04
        79  26 -3.184529E+04  1.413619E+06  2.614472E+04 -4.043472E+04 -1.105258E+04  4.817107E+04
        79  27  7.192816E+04  1.440315E+06  9.123182E+04 -8.307035E+04 -3.197706E+03  7.678061E+04
        80   1 -1.752827E+06 -3.836360E+05 -3.311691E+05 -3.781976E+04  5.612003E+04  3.139751E+04
        80   2 -1.583000E+06 -5.112461E+05 -3.598388E+05 -6.291486E+04  6.236938E+04  9.950580E+04
        80   3 -1.371959E+06 -4.778826E+05 -3.520785E+05 -1.568122E+05  6.880885E+04  1.069561E+05
        80   4  5.565874E+05  1.893218E+05  2.259788E+05 -1.285664E+05  1.555080E+05  3.167086E+04
        80   5  5.309101E+05  4.358253E+03  1.037384E+05 -9.393887E+04  1.006056E+05  9.956557E+04
        80   6  5.568723E+05 -9.320364E+03  6.027780E+04 -1.280895E+05  4.589612E+04  1.068965E+05
        80   7  2.870927E+06  7.619280E+05  7.827875E+05 -2.196556E+05  2.552643E+05  3.191464E+04
        80   8  2.649013E+06  5.196686E+05  5.670503E+05 -1.250721E+05  1.389702E+05  9.962143E+04
        80   9  2.489211E+06  4.590021E+05  4.724211E+05 -9.927720E+04  2.291294E+04  1.068349E+05
        80  10 -1.752831E+06 -3.836379E+05 -3.311769E+05 -3.782118E+04  5.053864E-10 -9.348827E-11
        80  11 -1.583007E+06 -5.112578E+05 -3.598648E+05 -6.291987E+04  4.280811E-10 -1.311012E-11
        80  12 -1.371967E+06 -4.778962E+05 -3.521090E+05 -1.568182E+05 -7.053111E-10  8.564219E-10
        80  13  5.565611E+05  1.893142E+05  2.259315E+05 -1.285704E+05 -2.455297E-12 -1.859251E-10
        80  14  5.308966E+05  4.344890E+03  1.037008E+05 -9.394694E+04 -7.040317E-10 -8.084784E-11
        80  15  5.568669E+05 -9.333204E+03  6.025236E+04 -1.280935E+05  8.334507E-10  6.159732E-10
        80  16  2.870857E+06  7.619095E+05  7.826636E+05 -2.196622E+05 -7.093187E-10 -1.913608E-10
        80  17  2.648989E+06  5.196528E+05  5.669954E+05 -1.250833E+05 -3.590311E-10 -2.476247E-10
        80  18  2.489208E+06  4.589897E+05  4.723986E+05 -9.927917E+04  5.310756E-10  4.140875E-10
        80  19 -1.752827E+06 -3.836360E+05 -3.311691E+05 -3.781976E+04 -5.612003E+04 -3.139751E+04
        80  20 -1.583000E+06 -5.112461E+05 -3.598388E+05 -6.291486E+04 -6.236938E+04 -9.950580E+04
        80  21 -1.371959E+06 -4.778826E+05 -3.520785E+05 -1.568122E+05 -6.880885E+04 -1.069561E+05
        80  22  5.565874E+05  1.893218E+05  2.259788E+05 -1.285664E+05 -1.555080E+05 -3.167086E+04
        80  23  5.309101E+05  4.358253E+03  1.037384E+05 -9.393887E+04 -1.006056E+05 -9.956557E+04
        80  24  5.568723E+05 -9.320364E+03  6.027780E+04 -1.280895E+05 -4.589612E+04 -1.068965E+05
        80  25  2.870927E+06  7.619280E+05  7.827875E+05 -2.196556E+05 -2.552643E+05 -3.191464E+04
        80  26  2.649013E+06  5.196686E+05  5.670503E+05 -1.250721E+05 -1.389702E+05 -9.962143E+04
        80  27  2.489211E+06  4.590021E+05  4.724211E+05 -9.927720E+04 -2.291294E+04 -1.068349E+05
        81   1 -1.234585E+06 -4.247571E+05 -3.349355E+05 -1.274317E+05  4.372383E+04  9.599827E+04
        81   2 -1.048381E+06 -3.874871E+05 -3.144684E+05 -9.377872E+04  3.363608E+04  8.833037E+04
        81   3 -8.578411E+05 -3.419663E+05 -2.851431E+05 -1.308581E+05  2.352995E+04  7.786431E+04
        81   4  5.465707E+05  8.138345E+03  4.758605E+04 -1.286417E+05  3.750101E+04  9.596930E+04
        81   5  5.442711E+05 -7.729459E+02  2.588068E+04 -9.327736E+04  2.456286E+04  8.830552E+04
        81   6  5.467573E+05 -9.502488E+02  1.499311E+04 -1.286337E+05  1.160936E+04  7.784699E+04
        81   7  2.330712E+06  4.408258E+05  4.299224E+05 -1.298559E+05  3.126044E+04  9.594040E+04
        81   8  2.139313E+06  3.857757E+05  3.660833E+05 -9.277503E+04  1.546661E+04  8.828070E+04
        81   9  1.953214E+06  3.399372E+05  3.150157E+05 -1.264043E+05 -3.378645E+02  7.782961E+04
        81  10 -1.234589E+06 -4.247675E+05 -3.349564E+05 -1.274351E+05  9.238027E-10  8.101542E-10
        81  11 -1.048384E+06 -3.874958E+05 -3.144852E+05 -9.378112E+04 -1.034083E-09  5.552464E-11
        81  12 -8.578433E+05 -3.419730E+05 -2.851555E+05 -1.308595E+05 -1.508158E-09 -7.545043E-10
        81  13  5.465667E+05  8.128074E+03  4.756610E+04 -1.286446E+05 -3.417014E-11  6.715656E-10
        81  14  5.442684E+05 -7.814837E+02  2.586489E+04 -9.327911E+04 -2.255946E-09  2.227265E-10
        81  15  5.467556E+05 -9.567944E+02  1.498146E+04 -1.286345E+05 -1.194631E-09 -4.852151E-10
        81  16  2.330708E+06  4.408156E+05  4.299033E+05 -1.298583E+05  7.338060E-10  7.014506E-10
        81  17  2.139310E+06  3.857673E+05  3.660682E+05 -9.277613E+04  5.341300E-10  1.976914E-11
        81  18  1.953212E+06  3.399307E+05  3.150043E+05 -1.264043E+05 -1.990861E-10 -3.499362E-10
        81  19 -1.234585E+06 -4.247571E+05 -3.349355E+05 -1.274317E+05 -4.372383E+04 -9.599827E+04
        81  20 -1.048381E+06 -3.874871E+05 -3.144684E+05 -9.377872E+04 -3.363608E+04 -8.833037E+04
        81  21 -8.578411E+05 -3.419663E+05 -2.851431E+05 -1.308581E+05 -2.352995E+04 -7.786431E+04
        81  22  5.465707E+05  8.138345E+03  4.758605E+04 -1.286417E+05 -3.750101E+04 -9.596930E+04
        81  23  5.442711E+05 -7.729459E+02  2.588068E+04 -9.327736E+04 -2.456286E+04 -8.830552E+04
        81  24  5.467573E+05 -9.502488E+02  1.499311E+04 -1.286337E+05 -1.160936E+04 -7.784699E+04
        81  25  2.330712E+06  4.408258E+05  4.299224E+05 -1.298559E+05 -3.126044E+04 -9.594040E+04
        81  26  2.139313E+06  3.857757E+05  3.660833E+05 -9.277503E+04 -1.546661E+04 -8.828070E+04
        81  27  1.953214E+06  3.399372E+05  3.150157E+05 -1.264043E+05  3.378645E+02 -7.782961E+04
        82   1 -7.131560E+05 -3.055622E+05 -2.567241E+05 -1.290629E+05  2.040981E+04  7.107880E+04
        82   2 -5.261350E+05 -2.603851E+05 -2.220578E+05 -9.351597E+04  1.730689E+04  5.995721E+04
        82   3 -3.382209E+05 -2.147258E+05 -1.851698E+05 -1.284580E+05  1.418908E+04  4.872008E+04
        82   4  5.459745E+05 -6.127846E+01  1.145881E+04 -1.285829E+05  9.280039E+03  7.106668E+04
        82   5  5.455945E+05 -3.129647E+02  6.533676E+03 -9.334217E+04  6.053332E+03  5.995148E+04
        82   6  5.460970E+05 -5.906106E+01  3.914069E+03 -1.285831E+05  2.812648E+03  4.872096E+04
        82   7  1.806599E+06  3.053366E+05  2.795510E+05 -1.281018E+05 -1.871999E+03  7.105456E+04
        82   8  1.618406E+06  2.596845E+05  2.350594E+05 -9.316795E+04 -5.219387E+03  5.994574E+04
        82   9  1.431151E+06  2.145567E+05  1.929531E+05 -1.287082E+05 -8.579762E+03  4.872184E+04
        82  10 -7.131578E+05 -3.055677E+05 -2.567344E+05 -1.290641E+05 -7.490113E-10 -8.351819E-10
        82  11 -5.261363E+05 -2.603891E+05 -2.220651E+05 -9.351680E+04  4.372339E-10  7.415809E-11
        82  12 -3.382218E+05 -2.147284E+05 -1.851746E+05 -1.284586E+05 -5.134466E-10  1.011886E-09
        82  13  5.459731E+05 -6.672642E+01  1.144915E+04 -1.285834E+05 -2.191710E-09 -5.492623E-10
        82  14  5.455935E+05 -3.168351E+02  6.526851E+03 -9.334246E+04 -1.608453E-09  2.534044E-10
        82  15  5.460964E+05 -6.161284E+01  3.909592E+03 -1.285832E+05 -1.229164E-10  8.204934E-10
        82  16  1.806598E+06  3.053312E+05  2.795415E+05 -1.281017E+05 -4.967149E-10 -5.366526E-10
        82  17  1.618405E+06  2.596806E+05  2.350526E+05 -9.316769E+04 -9.631345E-10 -1.336035E-10
        82  18  1.431150E+06  2.145541E+05  1.929485E+05 -1.287079E+05  5.957175E-10  4.067690E-10
        82  19 -7.131560E+05 -3.055622E+05 -2.567241E+05 -1.290629E+05 -2.040981E+04 -7.107880E+04
        82  20 -5.261350E+05 -2.603851E+05 -2.220578E+05 -9.351597E+04 -1.730689E+04 -5.995721E+04
        82  21 -3.382209E+05 -2.147258E+05 -1.851698E+05 -1.284580E+05 -1.418908E+04 -4.872008E+04
        82  22  5.459745E+05 -6.127846E+01  1.145881E+04 -1.285829E+05 -9.280039E+03 -7.106668E+04
        82  23  5.455945E+05 -3.129647E+02  6.533676E+03 -9.334217E+04 -6.053332E+03 -5.995148E+04
        82  24  5.460970E+05 -5.906106E+01  3.914069E+03 -1.285831E+05 -2.812648E+03 -4.872096E+04
        82  25  1.806599E+06  3.053366E+05  2.795510E+05 -1.281018E+05  1.871999E+03 -7.105456E+04
        82  26  1.618406E+06  2.596845E+05  2.350594E+05 -9.316795E+04  5.219387E+03 -5.994574E+04
        82  27  1.431151E+06  2.145567E+05  1.929531E+05 -1.287082E+05  8.579762E+03 -4.872184E+04
        83   1 -1.934458E+05 -1.792912E+05 -1.540956E+05 -1.283293E+05  1.350943E+04  4.215590E+04
        83   2 -6.583442E+03 -1.339954E+05 -1.157762E+05 -9.315782E+04  1.250663E+04  3.091257E+04
        83   3  1.804577E+05 -8.858030E+04 -7.678012E+04 -1.282743E+05  1.149626E+04  1.967135E+04
        83   4  5.459841E+05  1.505758E+00  3.059714E+03 -1.285392E+05  2.178496E+03  4.215978E+04
        83   5  5.459441E+05  3.955582E+01  2.023704E+03 -9.339709E+04  1.175130E+03  3.091975E+04
        83   6  5.460466E+05  1.980830E+02  1.664140E+03 -1.285392E+05  1.644918E+02  1.968194E+04
        83   7  1.285929E+06  1.792588E+05  1.601842E+05 -1.287493E+05 -9.165735E+03  4.216367E+04
        83   8  1.098759E+06  1.340547E+05  1.198065E+05 -9.363650E+04 -1.016630E+04  3.092693E+04
        83   9  9.117614E+05  8.896778E+04  8.010109E+04 -1.288041E+05 -1.117385E+04  1.969254E+04
        83  10 -1.934465E+05 -1.792932E+05 -1.540993E+05 -1.283298E+05 -4.396747E-12  9.231593E-10
        83  11 -6.583867E+03 -1.339965E+05 -1.157783E+05 -9.315813E+04 -2.237233E-10 -1.962345E-10
        83  12  1.804575E+05 -8.858075E+04 -7.678110E+04 -1.282745E+05 -2.400506E-10 -6.893729E-10
        83  13  5.459836E+05 -4.046968E-01  3.056364E+03 -1.285393E+05  1.135707E-09  2.767187E-10
        83  14  5.459438E+05  3.852857E+01  2.021904E+03 -9.339712E+04 -1.598829E-09 -1.008826E-10
        83  15  5.460465E+05  1.976669E+02  1.663411E+03 -1.285392E+05 -1.758537E-10 -4.260288E-10
        83  16  1.285929E+06  1.792569E+05  1.601807E+05 -1.287489E+05  4.533075E-10  1.693847E-10
        83  17  1.098759E+06  1.340536E+05  1.198045E+05 -9.363624E+04 -1.520975E-09 -4.897948E-10
        83  18  9.117612E+05  8.896733E+04  8.010012E+04 -1.288040E+05  3.915740E-10 -3.065622E-10
        83  19 -1.934458E+05 -1.792912E+05 -1.540956E+05 -1.283293E+05 -1.350943E+04 -4.215590E+04
        83  20 -6.583442E+03 -1.339954E+05 -1.157762E+05 -9.315782E+04 -1.250663E+04 -3.091257E+04
        83  21  1.804577E+05 -8.858030E+04 -7.678012E+04 -1.282743E+05 -1.149626E+04 -1.967135E+04
        83  22  5.459841E+05  1.505758E+00  3.059714E+03 -1.285392E+05 -2.178496E+03 -4.215978E+04
        83  23  5.459441E+05  3.955582E+01  2.023704E+03 -9.339709E+04 -1.175130E+03 -3.091975E+04
        83  24  5.460466E+05  1.980830E+02  1.664140E+03 -1.285392E+05 -1.644918E+02 -1.968194E+04
        83  25  1.285929E+06  1.792588E+05  1.601842E+05 -1.287493E+05  9.165735E+03 -4.216367E+04
        83  26  1.098759E+06  1.340547E+05  1.198065E+05 -9.363650E+04  1.016630E+04 -3.092693E+04
        83  27  9.117614E+05  8.896778E+04  8.010109E+04 -1.288041E+05  1.117385E+04 -1.969254E+04
        84   1  3.250992E+05 -5.327585E+04 -4.491824E+04 -1.283576E+05  1.118287E+04  1.313153E+04
        84   2  5.118783E+05 -8.138558E+03 -5.208426E+03 -9.333284E+04  1.014679E+04  1.901604E+03
        84   3  6.987140E+05  3.713567E+04  3.517036E+04 -1.285107E+05  9.109962E+03 -9.323462E+03
        84   4  5.460386E+05  2.076266E+02  1.664523E+03 -1.285210E+05 -1.457837E+02  1.314322E+04
        84   5  5.460289E+05  1.432544E+02  2.069153E+03 -9.341977E+04 -1.178598E+03  1.913429E+03
        84   6  5.460422E+05  2.172480E+02  3.141343E+03 -1.285209E+05 -2.211858E+03 -9.311372E+03
        84   7  7.670243E+05  5.368802E+04  4.824502E+04 -1.286845E+05 -1.147840E+04  1.315490E+04
        84   8  5.801809E+05  8.425060E+03  9.347147E+03 -9.350671E+04 -1.250460E+04  1.925256E+03
        84   9  3.933927E+05 -3.670260E+04 -2.888849E+04 -1.285311E+05 -1.353094E+04 -9.299281E+03
        84  10  3.250991E+05 -5.327606E+04 -4.491880E+04 -1.283577E+05 -1.616343E-10 -4.829409E-10
        84  11  5.118782E+05 -8.138590E+03 -5.208626E+03 -9.333285E+04 -2.304049E-10  5.234530E-11
        84  12  6.987139E+05  3.713556E+04  3.517004E+04 -1.285107E+05  3.758580E-10  4.364457E-10
        84  13  5.460385E+05  2.074411E+02  1.664198E+03 -1.285210E+05  2.079736E-09  1.095661E-10
        84  14  5.460289E+05  1.432501E+02  2.069144E+03 -9.341977E+04  2.408121E-11 -9.820480E-11
        84  15  5.460422E+05  2.171536E+02  3.141171E+03 -1.285210E+05  1.269090E-09  2.592968E-10
        84  16  7.670241E+05  5.368780E+04  4.824445E+04 -1.286843E+05  8.404131E-10 -2.502978E-11
        84  17  5.801808E+05  8.425014E+03  9.346846E+03 -9.350669E+04 -1.581621E-09 -9.952475E-11
        84  18  3.933925E+05 -3.670275E+04 -2.888900E+04 -1.285312E+05 -4.401829E-10 -4.097155E-10
        84  19  3.250992E+05 -5.327585E+04 -4.491824E+04 -1.283576E+05 -1.118287E+04 -1.313153E+04
        84  20  5.118783E+05 -8.138558E+03 -5.208426E+03 -9.333284E+04 -1.014679E+04 -1.901604E+03
        84  21  6.987140E+05  3.713567E+04  3.517036E+04 -1.285107E+05 -9.109962E+03  9.323462E+03
        84  22  5.460386E+05  2.076266E+02  1.664523E+03 -1.285210E+05  1.457837E+02 -1.314322E+04
        84  23  5.460289E+05  1.432544E+02  2.069153E+03 -9.341977E+04  1.178598E+03 -1.913429E+03
        84  24  5.460422E+05  2.172480E+02  3.141343E+03 -1.285209E+05  2.211858E+03  9.311372E+03
        84  25  7.670243E+05  5.368802E+04  4.824502E+04 -1.286845E+05  1.147840E+04 -1.315490E+04
        84  26  5.801809E+05  8.425060E+03  9.347147E+03 -9.350671E+04  1.250460E+04 -1.925256E+03
        84  27  3.933927E+05 -3.670260E+04 -2.888849E+04 -1.285311E+05  1.353094E+04  9.299281E+03
        85   1  8.435158E+05  7.237839E+04  6.788934E+04 -1.285556E+05  8.486384E+03 -1.586644E+04
        85   2  1.030255E+06  1.174378E+05  1.099807E+05 -9.343845E+04  5.038588E+03 -2.706822E+04
        85   3  1.217570E+06  1.630803E+05  1.544404E+05 -1.285788E+05  1.596206E+03 -3.817847E+04
        85   4  5.461407E+05  1.749919E+02  4.011012E+03 -1.285340E+05 -2.866674E+03 -1.585516E+04
        85   5  5.458477E+05 -2.092866E+00  6.749447E+03 -9.340338E+04 -6.221141E+03 -2.706002E+04
        85   6  5.460849E+05  3.908780E+02  1.179496E+04 -1.285336E+05 -9.569188E+03 -3.817320E+04
        85   7  2.488488E+05 -7.203413E+04 -5.987200E+04 -1.285124E+05 -1.421438E+04 -1.584387E+04
        85   8  6.166121E+04 -1.174572E+05 -9.649481E+04 -9.336826E+04 -1.747222E+04 -2.705182E+04
        85   9 -1.249757E+05 -1.623277E+05 -1.308758E+05 -1.284883E+05 -2.072270E+04 -3.816793E+04
        85  10  8.435157E+05  7.237810E+04  6.788873E+04 -1.285555E+05  7.941122E-11 -1.591837E-11
        85  11  1.030255E+06  1.174371E+05  1.099792E+05 -9.343834E+04  1.305925E-09 -3.735432E-10
        85  12  1.217570E+06  1.630787E+05  1.544377E+05 -1.285787E+05 -1.396194E-10 -2.372893E-10
        85  13  5.461406E+05  1.747197E+02  4.010524E+03 -1.285341E+05  5.756874E-11 -2.778578E-10
        85  14  5.458474E+05 -2.889785E+00  6.747998E+03 -9.340351E+04  3.317677E-09 -1.420981E-10
        85  15  5.460844E+05  3.892882E+02  1.179205E+04 -1.285339E+05  1.130412E-09 -2.833398E-10
        85  16  2.488486E+05 -7.203445E+04 -5.987286E+04 -1.285126E+05  8.989306E-10 -6.431717E-11
        85  17  6.166069E+04 -1.174581E+05 -9.649676E+04 -9.336865E+04 -7.827601E-10  2.271512E-10
        85  18 -1.249766E+05 -1.623294E+05 -1.308794E+05 -1.284889E+05 -8.564313E-10  7.079994E-11
        85  19  8.435158E+05  7.237839E+04  6.788934E+04 -1.285556E+05 -8.486384E+03  1.586644E+04
        85  20  1.030255E+06  1.174378E+05  1.099807E+05 -9.343845E+04 -5.038588E+03  2.706822E+04
        85  21  1.217570E+06  1.630803E+05  1.544404E+05 -1.285788E+05 -1.596206E+03  3.817847E+04
        85  22  5.461407E+05  1.749919E+02  4.011012E+03 -1.285340E+05  2.866674E+03  1.585516E+04
        85  23  5.458477E+05 -2.092866E+00  6.749447E+03 -9.340338E+04  6.221141E+03  2.706002E+04
        85  24  5.460849E+05  3.908780E+02  1.179496E+04 -1.285336E+05  9.569188E+03  3.817320E+04
        85  25  2.488488E+05 -7.203413E+04 -5.987200E+04 -1.285124E+05  1.421438E+04  1.584387E+04
        85  26  6.166121E+04 -1.174572E+05 -9.649481E+04 -9.336826E+04  1.747222E+04  2.705182E+04
        85  27 -1.249757E+05 -1.623277E+05 -1.308758E+05 -1.284883E+05  2.072270E+04  3.816793E+04
        86   1  1.363452E+06  1.975262E+05  1.898882E+05 -1.270497E+05 -2.164463E+02 -4.487448E+04
        86   2  1.548744E+06  2.431811E+05  2.409874E+05 -9.419259E+04 -1.572462E+04 -5.547198E+04
        86   3  1.738710E+06  2.982539E+05  3.045752E+05 -1.316787E+05 -3.122573E+04 -6.397060E+04
        86   4  5.468709E+05 -5.012929E+02  1.541959E+04 -1.285539E+05 -1.197507E+04 -4.487161E+04
        86   5  5.446721E+05 -2.506658E+02  2.668529E+04 -9.337773E+04 -2.534493E+04 -5.547595E+04
        86   6  5.467518E+05  9.058362E+03  4.897154E+04 -1.285510E+05 -3.870312E+04 -6.397981E+04
        86   7 -2.690839E+05 -1.985722E+05 -1.590870E+05 -1.300560E+05 -2.371847E+04 -4.486868E+04
        86   8 -4.584520E+05 -2.437481E+05 -1.876748E+05 -9.256406E+04 -3.494991E+04 -5.547994E+04
        86   9 -6.438731E+05 -2.802300E+05 -2.067147E+05 -1.254293E+05 -4.616634E+04 -6.398912E+04
        86  10  1.363452E+06  1.975240E+05  1.898844E+05 -1.270497E+05 -1.446900E-10 -1.935068E-10
        86  11  1.548742E+06  2.431778E+05  2.409812E+05 -9.419329E+04 -8.888307E-10 -1.216857E-10
        86  12  1.738708E+06  2.982492E+05  3.045657E+05 -1.316803E+05  6.747355E-10  8.445895E-11
        86  13  5.468702E+05 -5.034942E+02  1.541554E+04 -1.285543E+05 -1.134446E-09 -7.529167E-11
        86  14  5.446706E+05 -2.541439E+02  2.667830E+04 -9.337886E+04 -5.164982E-10 -1.115920E-10
        86  15  5.467491E+05  9.053563E+03  4.896103E+04 -1.285530E+05  1.706754E-09  1.652526E-10
        86  16 -2.690850E+05 -1.985745E+05 -1.590919E+05 -1.300568E+05  3.422245E-10 -2.742829E-10
        86  17 -4.584541E+05 -2.437517E+05 -1.876828E+05 -9.256562E+04 -1.614526E-09  6.081469E-11
        86  18 -6.438765E+05 -2.802350E+05 -2.067264E+05 -1.254316E+05 -5.061502E-10  2.531699E-10
        86  19  1.363452E+06  1.975262E+05  1.898882E+05 -1.270497E+05  2.164463E+02  4.487448E+04
        86  20  1.548744E+06  2.431811E+05  2.409874E+05 -9.419259E+04  1.572462E+04  5.547198E+04
        86  21  1.738710E+06  2.982539E+05  3.045752E+05 -1.316787E+05  3.122573E+04  6.397060E+04
        86  22  5.468709E+05 -5.012929E+02  1.541959E+04 -1.285539E+05  1.197507E+04  4.487161E+04
        86  23  5.446721E+05 -2.506658E+02  2.668529E+04 -9.337773E+04  2.534493E+04  5.547595E+04
        86  24  5.467518E+05  9.058362E+03  4.897154E+04 -1.285510E+05  3.870312E+04  6.397981E+04
        86  25 -2.690839E+05 -1.985722E+05 -1.590870E+05 -1.300560E+05  2.371847E+04  4.486868E+04
        86  26 -4.584520E+05 -2.437481E+05 -1.876748E+05 -9.256406E+04  3.494991E+04  5.547994E+04
        86  27 -6.438731E+05 -2.802300E+05 -2.067147E+05 -1.254293E+05  4.616634E+04  6.398912E+04
        87   1  1.896105E+06  3.157050E+05  3.478280E+05 -1.008405E+05 -2.733079E+04 -7.376151E+04
        87   2  2.055117E+06  3.763023E+05  4.406987E+05 -1.288510E+05 -1.296653E+05 -7.098900E+04
        87   3  2.274146E+06  6.206757E+05  6.461668E+05 -2.256186E+05 -2.320970E+05 -2.282601E+04
        87   4  5.573189E+05 -8.851400E+03  6.201995E+04 -1.281555E+05 -4.735529E+04 -7.377643E+04
        87   5  5.311329E+05  5.251549E+03  1.068362E+05 -9.386415E+04 -1.037051E+05 -7.099109E+04
        87   6  5.570984E+05  1.953928E+05  2.325056E+05 -1.283161E+05 -1.601146E+05 -2.278570E+04
        87   7 -7.797815E+05 -3.335215E+05 -2.238897E+05 -1.554108E+05 -6.733725E+04 -7.378960E+04
        87   8 -9.906791E+05 -3.659491E+05 -2.271640E+05 -5.896426E+04 -7.780745E+04 -7.099028E+04
        87   9 -1.157227E+06 -2.300661E+05 -1.813414E+05 -3.128335E+04 -8.832952E+04 -2.272288E+04
        87  10  1.896103E+06  3.156989E+05  3.478163E+05 -1.008422E+05  2.120011E-09  2.087425E-10
        87  11  2.055098E+06  3.762924E+05  4.406577E+05 -1.288584E+05  5.956331E-10  9.018627E-11
        87  12  2.274088E+06  6.206607E+05  6.460649E+05 -2.256229E+05 -6.342173E-11 -1.435644E-10
        87  13  5.573150E+05 -8.857849E+03  6.200551E+04 -1.281583E+05 -1.068971E-09  2.429545E-10
        87  14  5.311200E+05  5.243251E+03  1.068065E+05 -9.387008E+04 -6.134222E-10 -1.565346E-11
        87  15  5.570708E+05  1.953854E+05  2.324565E+05 -1.283191E+05  3.269009E-11  4.379270E-11
        87  16 -7.797879E+05 -3.335286E+05 -2.239085E+05 -1.554148E+05 -6.519820E-10  3.531420E-10
        87  17 -9.906869E+05 -3.659561E+05 -2.271849E+05 -5.896871E+04 -1.384762E-09  5.083104E-10
        87  18 -1.157236E+06 -2.300687E+05 -1.813570E+05 -3.128497E+04 -4.524745E-10  4.285341E-11
        87  19  1.896105E+06  3.157050E+05  3.478280E+05 -1.008405E+05  2.733079E+04  7.376151E+04
        87  20  2.055117E+06  3.763023E+05  4.406987E+05 -1.288510E+05  1.296653E+05  7.098900E+04
        87  21  2.274146E+06  6.206757E+05  6.461668E+05 -2.256186E+05  2.320970E+05  2.282601E+04
        87  22  5.573189E+05 -8.851400E+03  6.201995E+04 -1.281555E+05  4.735529E+04  7.377643E+04
        87  23  5.311329E+05  5.251549E+03  1.068362E+05 -9.386415E+04  1.037051E+05  7.099109E+04
        87  24  5.570984E+05  1.953928E+05  2.325056E+05 -1.283161E+05  1.601146E+05  2.278570E+04
        87  25 -7.797815E+05 -3.335215E+05 -2.238897E+05 -1.554108E+05  6.733725E+04  7.378960E+04
        87  26 -9.906791E+05 -3.659491E+05 -2.271640E+05 -5.896426E+04  7.780745E+04  7.099028E+04
        87  27 -1.157227E+06 -2.300661E+05 -1.813414E+05 -3.128335E+04  8.832952E+04  2.272288E+04
        88   1  3.974577E+04 -2.579469E+05  5.408648E+04 -1.548112E+05 -4.199011E+03  4.568721E+04
        88   2 -7.232916E+04 -4.415146E+05 -2.782999E+04 -9.872229E+04 -1.684494E+04  2.710895E+04
        88   3 -1.199222E+05 -6.070189E+05 -8.166049E+04 -1.082605E+05 -2.771265E+04  8.544561E+03
        88   4  7.262845E+04 -1.230695E+05  8.510633E+04 -1.191241E+05 -4.244464E+03  5.940704E+04
        88   5  2.703903E+03 -1.322633E+05  3.849412E+04 -8.643926E+04 -1.688417E+04  3.903178E+04
        88   6 -2.439772E+03 -1.231084E+05  2.121691E+04 -1.193727E+05 -2.774479E+04  1.866571E+04
        88   7  1.055148E+05  1.182801E+04  1.161264E+05 -8.342917E+04 -4.288333E+03  7.312983E+04
        88   8  7.773138E+04  1.770785E+05  1.048133E+05 -7.414994E+04 -1.692291E+04  5.096046E+04
        88   9  1.150279E+05  3.610234E+05  1.240813E+05 -1.304935E+05 -2.777728E+04  2.879464E+04
        88  10  3.974519E+04 -2.579492E+05  5.408252E+04 -1.548110E+05 -6.817649E-11  3.613698E-10
        88  11 -7.232966E+04 -4.415154E+05 -2.783191E+04 -9.872192E+04 -8.052155E-10 -5.716121E-10
        88  12 -1.199231E+05 -6.070192E+05 -8.166207E+04 -1.082603E+05 -8.530244E-10 -1.318241E-09
        88  13  7.262748E+04 -1.230733E+05  8.509966E+04 -1.191239E+05 -2.745112E-10 -4.011558E-11
        88  14  2.703188E+03 -1.322651E+05  3.849073E+04 -8.643873E+04  1.765004E-09 -5.958998E-11
        88  15 -2.440691E+03 -1.231090E+05  2.121481E+04 -1.193723E+05 -7.847529E-10  4.016827E-11
        88  16  1.055133E+05  1.182226E+04  1.161163E+05 -8.342892E+04  7.612635E-10 -3.126605E-10
        88  17  7.773037E+04  1.770757E+05  1.048079E+05 -7.414924E+04  4.461750E-10  4.939089E-10
        88  18  1.150269E+05  3.610223E+05  1.240783E+05 -1.304929E+05  2.265017E-10  1.345253E-09
        88  19  3.974577E+04 -2.579469E+05  5.408648E+04 -1.548112E+05  4.199011E+03 -4.568721E+04
        88  20 -7.232916E+04 -4.415146E+05 -2.782999E+04 -9.872229E+04  1.684494E+04 -2.710895E+04
        88  21 -1.199222E+05 -6.070189E+05 -8.166049E+04 -1.082605E+05  2.771265E+04 -8.544561E+03
        88  22  7.262845E+04 -1.230695E+05  8.510633E+04 -1.191241E+05  4.244464E+03 -5.940704E+04
        88  23  2.703903E+03 -1.322633E+05  3.849412E+04 -8.643926E+04  1.688417E+04 -3.903178E+04
        88  24 -2.439772E+03 -1.231084E+05  2.121691E+04 -1.193727E+05  2.774479E+04 -1.866571E+04
        88  25  1.055148E+05  1.182801E+04  1.161264E+05 -8.342917E+04  4.288333E+03 -7.312983E+04
        88  26  7.773138E+04  1.770785E+05  1.048133E+05 -7.414994E+04  1.692291E+04 -5.096046E+04
        88  27  1.150279E+05  3.610234E+05  1.240813E+05 -1.304935E+05  2.777728E+04 -2.879464E+04
        89   1 -1.462549E+05 -7.462945E+05 -1.167895E+05 -1.187173E+05 -3.382570E+04  4.707118E+03
        89   2 -1.924211E+05 -9.210887E+05 -1.636569E+05 -8.511582E+04 -4.387433E+04  3.528865E+03
        89   3 -2.364314E+05 -1.095438E+06 -2.092925E+05 -1.170920E+05 -5.203752E+04  2.365024E+03
        89   4  4.196627E+03 -1.270517E+05  1.591206E+04 -1.192967E+05 -3.385892E+04  1.579077E+04
        89   5  3.544588E+02 -1.274677E+05  6.086691E+03 -8.651809E+04 -4.389728E+04  1.271126E+04
        89   6 -1.000258E+03 -1.271363E+05 -1.184303E+03 -1.193118E+05 -5.205143E+04  9.645873E+03
        89   7  1.546231E+05  4.925524E+05  1.485918E+05 -1.198763E+05 -3.389214E+04  2.688531E+04
        89   8  1.930889E+05  6.667469E+05  1.757941E+05 -8.792171E+04 -4.392027E+04  2.190523E+04
        89   9  2.343693E+05  8.420482E+05  2.068692E+05 -1.215345E+05 -5.206539E+04  1.693792E+04
        89  10 -1.462562E+05 -7.462949E+05 -1.167917E+05 -1.187172E+05 -8.869670E-10  4.667016E-10
        89  11 -1.924232E+05 -9.210893E+05 -1.636605E+05 -8.511570E+04 -1.138876E-09 -4.603136E-11
        89  12 -2.364343E+05 -1.095439E+06 -2.092976E+05 -1.170919E+05  5.218908E-10 -5.083868E-10
        89  13  4.195330E+03 -1.270523E+05  1.590944E+04 -1.192962E+05 -9.141251E-10  1.723614E-11
        89  14  3.523465E+02 -1.274684E+05  6.082767E+03 -8.651764E+04 -8.952593E-10  5.631102E-11
        89  15 -1.003193E+03 -1.271372E+05 -1.189569E+03 -1.193114E+05 -9.103094E-11  1.056785E-10
        89  16  1.546217E+05  4.925513E+05  1.485883E+05 -1.198756E+05  9.604309E-14 -5.756516E-10
        89  17  1.930867E+05  6.667459E+05  1.757895E+05 -8.792094E+04 -2.455181E-10  5.195863E-11
        89  18  2.343663E+05  8.420471E+05  2.068636E+05 -1.215338E+05 -1.027812E-09  7.237160E-10
        89  19 -1.462549E+05 -7.462945E+05 -1.167895E+05 -1.187173E+05  3.382570E+04 -4.707118E+03
        89  20 -1.924211E+05 -9.210887E+05 -1.636569E+05 -8.511582E+04  4.387433E+04 -3.528865E+03
        89  21 -2.364314E+05 -1.095438E+06 -2.092925E+05 -1.170920E+05  5.203752E+04 -2.365024E+03
        89  22  4.196627E+03 -1.270517E+05  1.591206E+04 -1.192967E+05  3.385892E+04 -1.579077E+04
        89  23  3.544588E+02 -1.274677E+05  6.086691E+03 -8.651809E+04  4.389728E+04 -1.271126E+04
        89  24 -1.000258E+03 -1.271363E+05 -1.184303E+03 -1.193118E+05  5.205143E+04 -9.645873E+03
        89  25  1.546231E+05  4.925524E+05  1.485918E+05 -1.198763E+05  3.389214E+04 -2.688531E+04
        89  26  1.930889E+05  6.667469E+05  1.757941E+05 -8.792171E+04  4.392027E+04 -2.190523E+04
        89  27  2.343693E+05  8.420482E+05  2.068692E+05 -1.215345E+05  5.206539E+04 -1.693792E+04
        90   1 -2.667197E+05 -1.233219E+06 -2.407195E+05 -1.130756E+05 -6.086636E+04 -8.017680E+03
        90   2 -3.121827E+05 -1.401377E+06 -2.928711E+05 -8.967107E+04 -5.942109E+04  3.773363E+04
        90   3 -3.873077E+05 -1.582744E+06 -3.822278E+05 -1.299970E+05 -1.916791E+04  8.353330E+04
        90   4  1.649724E+03 -1.287930E+05 -4.339169E+03 -1.188833E+05 -6.090422E+04  9.952577E+03
        90   5 -7.658935E+02 -1.256437E+05 -1.259190E+04 -8.704852E+04 -5.936656E+04  1.667560E+04
        90   6 -2.602701E+04 -1.289274E+05 -3.089705E+04 -1.189404E+05 -1.905562E+04  2.346171E+04
        90   7  2.699396E+05  9.767833E+05  2.319715E+05 -1.247006E+05 -6.094237E+04  2.795438E+04
        90   8  3.105422E+05  1.151616E+06  2.675897E+05 -8.441960E+04 -5.931228E+04 -4.425289E+03
        90   9  3.351015E+05  1.326833E+06  3.202958E+05 -1.078568E+05 -1.894563E+04 -3.675040E+04
        90  10 -2.667237E+05 -1.233220E+06 -2.407266E+05 -1.130760E+05 -7.846495E-10 -4.942435E-10
        90  11 -3.121869E+05 -1.401380E+06 -2.928804E+05 -8.966926E+04 -2.157141E-10  1.626012E-10
        90  12 -3.873100E+05 -1.582752E+06 -3.822417E+05 -1.299957E+05  2.235070E-10  8.623504E-10
        90  13  1.645714E+03 -1.287941E+05 -4.346325E+03 -1.188828E+05 -1.202478E-09  5.214134E-11
        90  14 -7.697523E+02 -1.256450E+05 -1.259905E+04 -8.704772E+04 -2.120389E-09  3.851254E-11
        90  15 -2.602754E+04 -1.289281E+05 -3.089877E+04 -1.189401E+05  1.298238E-10  5.557228E-12
        90  16  2.699354E+05  9.767815E+05  2.319631E+05 -1.246992E+05  2.144437E-11  6.261203E-10
        90  17  3.105384E+05  1.151615E+06  2.675831E+05 -8.441981E+04 -4.899208E-10 -1.334969E-10
        90  18  3.351007E+05  1.326832E+06  3.202926E+05 -1.078574E+05  3.912472E-10 -9.168152E-10
        90  19 -2.667197E+05 -1.233219E+06 -2.407195E+05 -1.130756E+05  6.086636E+04  8.017680E+03
        90  20 -3.121827E+05 -1.401377E+06 -2.928711E+05 -8.967107E+04  5.942109E+04 -3.773363E+04
        90  21 -3.873077E+05 -1.582744E+06 -3.822278E+05 -1.299970E+05  1.916791E+04 -8.353330E+04
        90  22  1.649724E+03 -1.287930E+05 -4.339169E+03 -1.188833E+05  6.090422E+04 -9.952577E+03
        90  23 -7.658935E+02 -1.256437E+05 -1.259190E+04 -8.704852E+04  5.936656E+04 -1.667560E+04
        90  24 -2.602701E+04 -1.289274E+05 -3.089705E+04 -1.189404E+05  1.905562E+04 -2.346171E+04
        90  25  2.699396E+05  9.767833E+05  2.319715E+05 -1.247006E+05  6.094237E+04 -2.795438E+04
        90  26  3.105422E+05  1.151616E+06  2.675897E+05 -8.441960E+04  5.931228E+04  4.425289E+03
        90  27  3.351015E+05  1.326833E+06  3.202958E+05 -1.078568E+05  1.894563E+04  3.675040E+04
        91   1 -3.223601E+06 -1.217548E+06 -7.298867E+05 -1.155246E+06 -2.501588E+05 -6.510647E+04
        91   2 -3.093011E+06 -9.012068E+05 -5.068438E+05 -1.107887E+06 -1.635393E+05  3.167234E+04
        91   3 -3.010480E+06 -8.173394E+05 -4.171279E+05 -1.056140E+06 -5.761084E+04  7.756412E+04
        91   4 -1.519774E+06 -4.773433E+05 -2.572325E+05 -5.907181E+05 -1.739277E+05 -3.631215E+04
        91   5 -1.486258E+06 -2.667058E+05 -1.125460E+05 -6.303359E+05 -1.349600E+05  4.243954E+04
        91   6 -1.491121E+06 -2.787682E+05 -6.305995E+04 -6.656294E+05 -7.673461E+04  7.033437E+04
        91   7  1.868993E+05  2.633120E+05  2.151730E+05 -2.469201E+04 -9.746599E+04 -7.401027E+03
        91   8  1.230676E+05  3.680619E+05  2.815578E+05 -1.516241E+05 -1.062996E+05  5.324136E+04
        91   9  3.054720E+04  2.599194E+05  2.908526E+05 -2.742648E+05 -9.590953E+04  6.308753E+04
        91  10 -3.223669E+06 -1.217569E+06 -7.300130E+05 -1.155259E+06 -2.737772E-10  2.123790E-10
        91  11 -3.093040E+06 -9.012151E+05 -5.068962E+05 -1.107882E+06  1.196090E-09  9.425287E-10
        91  12 -3.010485E+06 -8.173468E+05 -4.171454E+05 -1.056137E+06  1.275517E-09  4.984963E-11
        91  13 -1.519807E+06 -4.773529E+05 -2.572919E+05 -5.907232E+05 -1.594073E-09  1.719659E-10
        91  14 -1.486278E+06 -2.667126E+05 -1.125837E+05 -6.303313E+05  1.687361E-09  1.614760E-10
        91  15 -1.491129E+06 -2.787751E+05 -6.308031E+04 -6.656250E+05 -6.082802E-10 -1.753149E-10
        91  16  1.868891E+05  2.633094E+05  2.151551E+05 -2.469259E+04  8.350863E-10  1.205540E-10
        91  17  1.230547E+05  3.680559E+05  2.815313E+05 -1.516196E+05 -1.904494E-09 -2.639395E-10
        91  18  3.053626E+04  2.599127E+05  2.908278E+05 -2.742599E+05 -1.341225E-09 -2.152771E-10
        91  19 -3.223601E+06 -1.217548E+06 -7.298867E+05 -1.155246E+06  2.501588E+05  6.510647E+04
        91  20 -3.093011E+06 -9.012068E+05 -5.068438E+05 -1.107887E+06  1.635393E+05 -3.167234E+04
        91  21 -3.010480E+06 -8.173394E+05 -4.171279E+05 -1.056140E+06  5.761084E+04 -7.756412E+04
        91  22 -1.519774E+06 -4.773433E+05 -2.572325E+05 -5.907181E+05  1.739277E+05  3.631215E+04
        91  23 -1.486258E+06 -2.667058E+05 -1.125460E+05 -6.303359E+05  1.349600E+05 -4.243954E+04
        91  24 -1.491121E+06 -2.787682E+05 -6.305995E+04 -6.656294E+05  7.673461E+04 -7.033437E+04
        91  25  1.868993E+05  2.633120E+05  2.151730E+05 -2.469201E+04  9.746599E+04  7.401027E+03
        91  26  1.230676E+05  3.680619E+05  2.815578E+05 -1.516241E+05  1.062996E+05 -5.324136E+04
        91  27  3.054720E+04  2.599194E+05  2.908526E+05 -2.742648E+05  9.590953E+04 -6.308753E+04
        92   1 -2.867210E+06 -8.164158E+05 -3.792338E+05 -1.040410E+06 -6.089052E+04  6.568837E+04
        92   2 -2.746534E+06 -7.306702E+05 -3.206403E+05 -9.791632E+05 -4.342692E+04  6.556341E+04
        92   3 -2.590333E+06 -6.964914E+05 -2.761570E+05 -9.622312E+05 -2.508522E+04  6.307709E+04
        92   4 -1.482553E+06 -2.967162E+05 -4.970950E+04 -6.552360E+05 -6.535420E+04  6.399007E+04
        92   5 -1.499700E+06 -2.657443E+05 -2.579965E+04 -6.350875E+05 -5.007959E+04  6.304661E+04
        92   6 -1.480896E+06 -2.858849E+05 -1.423633E+04 -6.592571E+05 -3.393143E+04  5.974272E+04
        92   7 -9.598995E+04  2.231273E+05  2.796752E+05 -2.692750E+05 -6.982867E+04  6.228766E+04
        92   8 -2.513143E+05  1.992964E+05  2.689310E+05 -2.903782E+05 -5.674683E+04  6.052431E+04
        92   9 -3.702245E+05  1.248101E+05  2.475994E+05 -3.557869E+05 -4.279494E+04  5.640192E+04
        92  10 -2.867215E+06 -8.164214E+05 -3.792489E+05 -1.040406E+06 -6.007734E-10 -7.603947E-10
        92  11 -2.746537E+06 -7.306753E+05 -3.206519E+05 -9.791609E+05 -1.740503E-09 -1.096257E-10
        92  12 -2.590334E+06 -6.964958E+05 -2.761657E+05 -9.622299E+05 -3.997549E-10 -1.801533E-10
        92  13 -1.482559E+06 -2.967218E+05 -4.972522E+04 -6.552327E+05  2.072988E-10 -4.561121E-10
        92  14 -1.499704E+06 -2.657493E+05 -2.581182E+04 -6.350849E+05 -2.372617E-10 -6.473144E-10
        92  15 -1.480898E+06 -2.858890E+05 -1.424519E+04 -6.592555E+05 -1.851682E-09  1.180996E-10
        92  16 -9.599623E+04  2.231218E+05  2.796587E+05 -2.692715E+05  2.536826E-10  2.405107E-10
        92  17 -2.513187E+05  1.992916E+05  2.689180E+05 -2.903755E+05  1.215230E-09 -1.037637E-10
        92  18 -3.702274E+05  1.248062E+05  2.475900E+05 -3.557850E+05 -5.902111E-10 -1.710464E-11
        92  19 -2.867210E+06 -8.164158E+05 -3.792338E+05 -1.040410E+06  6.089052E+04 -6.568837E+04
        92  20 -2.746534E+06 -7.306702E+05 -3.206403E+05 -9.791632E+05  4.342692E+04 -6.556341E+04
        92  21 -2.590333E+06 -6.964914E+05 -2.761570E+05 -9.622312E+05  2.508522E+04 -6.307709E+04
        92  22 -1.482553E+06 -2.967162E+05 -4.970950E+04 -6.552360E+05  6.535420E+04 -6.399007E+04
        92  23 -1.499700E+06 -2.657443E+05 -2.579965E+04 -6.350875E+05  5.007959E+04 -6.304661E+04
        92  24 -1.480896E+06 -2.858849E+05 -1.423633E+04 -6.592571E+05  3.393143E+04 -5.974272E+04
        92  25 -9.598995E+04  2.231273E+05  2.796752E+05 -2.692750E+05  6.982867E+04 -6.228766E+04
        92  26 -2.513143E+05  1.992964E+05  2.689310E+05 -2.903782E+05  5.674683E+04 -6.052431E+04
        92  27 -3.702245E+05  1.248101E+05  2.475994E+05 -3.557869E+05  4.279494E+04 -5.640192E+04
        93   1 -2.474720E+06 -6.563190E+05 -2.450718E+05 -9.319709E+05 -2.167155E+04  5.822681E+04
        93   2 -2.352745E+06 -5.817180E+05 -2.068907E+05 -8.689041E+05 -1.524737E+04  5.056875E+04
        93   3 -2.189415E+06 -5.493693E+05 -1.711083E+05 -8.534349E+05 -8.776527E+03  4.275650E+04
        93   4 -1.480066E+06 -2.869364E+05 -1.082165E+04 -6.588226E+05 -2.990803E+04  5.512547E+04
        93   5 -1.500654E+06 -2.654559E+05 -5.941102E+03 -6.351437E+05 -2.362323E+04  4.742020E+04
        93   6 -1.479882E+06 -2.861960E+05 -3.345447E+03 -6.590653E+05 -1.729263E+04  3.956065E+04
        93   7 -4.844236E+05  8.251766E+04  2.233591E+05 -3.852737E+05 -3.815890E+04  5.201873E+04
        93   8 -6.478401E+05  5.085745E+04  1.949569E+05 -4.010904E+05 -3.201161E+04  4.426696E+04
        93   9 -7.698505E+05 -2.298832E+04  1.643809E+05 -4.644937E+05 -2.581930E+04  3.636084E+04
        93  10 -2.474721E+06 -6.563227E+05 -2.450790E+05 -9.319699E+05 -9.601986E-10 -9.945746E-11
        93  11 -2.352745E+06 -5.817208E+05 -2.068960E+05 -8.689035E+05 -4.177138E-10 -2.283625E-11
        93  12 -2.189416E+06 -5.493712E+05 -1.711118E+05 -8.534346E+05  1.131583E-09 -2.955498E-11
        93  13 -1.480068E+06 -2.869399E+05 -1.082903E+04 -6.588212E+05 -1.234019E-09 -1.534529E-10
        93  14 -1.500655E+06 -2.654585E+05 -5.946372E+03 -6.351428E+05 -1.153933E-09 -3.767981E-10
        93  15 -1.479883E+06 -2.861977E+05 -3.348947E+03 -6.590648E+05 -6.962410E-10 -3.990021E-10
        93  16 -4.844259E+05  8.251436E+04  2.233513E+05 -3.852721E+05 -9.279308E-10 -2.178581E-10
        93  17 -6.478418E+05  5.085507E+04  1.949513E+05 -4.010892E+05 -1.761253E-09 -9.138460E-10
        93  18 -7.698516E+05 -2.298992E+04  1.643772E+05 -4.644930E+05 -9.432994E-10 -5.314668E-10
        93  19 -2.474720E+06 -6.563190E+05 -2.450718E+05 -9.319709E+05  2.167155E+04 -5.822681E+04
        93  20 -2.352745E+06 -5.817180E+05 -2.068907E+05 -8.689041E+05  1.524737E+04 -5.056875E+04
        93  21 -2.189415E+06 -5.493693E+05 -1.711083E+05 -8.534349E+05  8.776527E+03 -4.275650E+04
        93  22 -1.480066E+06 -2.869364E+05 -1.082165E+04 -6.588226E+05  2.990803E+04 -5.512547E+04
        93  23 -1.500654E+06 -2.654559E+05 -5.941102E+03 -6.351437E+05  2.362323E+04 -4.742020E+04
        93  24 -1.479882E+06 -2.861960E+05 -3.345447E+03 -6.590653E+05  1.729263E+04 -3.956065E+04
        93  25 -4.844236E+05  8.251766E+04  2.233591E+05 -3.852737E+05  3.815890E+04 -5.201873E+04
        93  26 -6.478401E+05  5.085745E+04  1.949569E+05 -4.010904E+05  3.201161E+04 -4.426696E+04
        93  27 -7.698505E+05 -2.298832E+04  1.643809E+05 -4.644937E+05  2.581930E+04 -3.636084E+04
        94   1 -2.073746E+06 -5.065322E+05 -1.421523E+05 -8.219904E+05 -6.305919E+03  3.766799E+04
        94   2 -1.950267E+06 -4.318453E+05 -1.076392E+05 -7.581906E+05 -2.039138E+03  2.892551E+04
        94   3 -1.784691E+06 -3.993211E+05 -7.376344E+04 -7.427147E+05  2.233292E+03  2.015143E+04
        94   4 -1.479710E+06 -2.863288E+05 -2.608285E+03 -6.591579E+05 -1.482591E+04  3.447317E+04
        94   5 -1.500716E+06 -2.651746E+05 -1.684249E+03 -6.350116E+05 -1.058815E+04  2.572254E+04
        94   6 -1.479646E+06 -2.861778E+05 -1.375435E+03 -6.591954E+05 -6.345029E+03  1.694037E+04
        94   7 -8.853168E+05 -6.609792E+04  1.369128E+05 -4.961813E+05 -2.335486E+04  3.127500E+04
        94   8 -1.050964E+06 -9.848998E+04  1.042563E+05 -5.117514E+05 -1.914388E+04  2.251704E+04
        94   9 -1.174512E+06 -1.730297E+05  7.100493E+04 -5.756399E+05 -1.492781E+04  1.372763E+04
        94  10 -2.073746E+06 -5.065337E+05 -1.421550E+05 -8.219902E+05  7.831000E-10 -3.844871E-10
        94  11 -1.950268E+06 -4.318462E+05 -1.076407E+05 -7.581905E+05 -3.532809E-10 -7.176308E-10
        94  12 -1.784691E+06 -3.993216E+05 -7.376421E+04 -7.427147E+05 -6.660884E-10 -3.254910E-11
        94  13 -1.479711E+06 -2.863301E+05 -2.610929E+03 -6.591574E+05 -3.160270E-11 -2.738927E-10
        94  14 -1.500716E+06 -2.651753E+05 -1.685702E+03 -6.350114E+05 -8.877362E-10 -4.037862E-10
        94  15 -1.479646E+06 -2.861781E+05 -1.376049E+03 -6.591953E+05 -8.934709E-11 -2.243581E-10
        94  16 -8.853177E+05 -6.609911E+04  1.369099E+05 -4.961807E+05 -5.771285E-10 -1.540843E-10
        94  17 -1.050964E+06 -9.849062E+04  1.042547E+05 -5.117510E+05  5.529381E-11 -1.980430E-10
        94  18 -1.174513E+06 -1.730300E+05  7.100416E+04 -5.756397E+05  1.095223E-09 -4.087249E-10
        94  19 -2.073746E+06 -5.065322E+05 -1.421523E+05 -8.219904E+05  6.305919E+03 -3.766799E+04
        94  20 -1.950267E+06 -4.318453E+05 -1.076392E+05 -7.581906E+05  2.039138E+03 -2.892551E+04
        94  21 -1.784691E+06 -3.993211E+05 -7.376344E+04 -7.427147E+05 -2.233292E+03 -2.015143E+04
        94  22 -1.479710E+06 -2.863288E+05 -2.608285E+03 -6.591579E+05  1.482591E+04 -3.447317E+04
        94  23 -1.500716E+06 -2.651746E+05 -1.684249E+03 -6.350116E+05  1.058815E+04 -2.572254E+04
        94  24 -1.479646E+06 -2.861778E+05 -1.375435E+03 -6.591954E+05  6.345029E+03 -1.694037E+04
        94  25 -8.853168E+05 -6.609792E+04  1.369128E+05 -4.961813E+05  2.335486E+04 -3.127500E+04
        94  26 -1.050964E+06 -9.848998E+04  1.042563E+05 -5.117514E+05  1.914388E+04 -2.251704E+04
        94  27 -1.174512E+06 -1.730297E+05  7.100493E+04 -5.756399E+05  1.492781E+04 -1.372763E+04
        95   1 -1.668180E+06 -3.560329E+05 -4.535922E+04 -7.109554E+05  4.464402E+03  1.493453E+04
        95   2 -1.543994E+06 -2.811433E+05 -1.211184E+04 -6.468789E+05  8.825150E+03  6.165213E+03
        95   3 -1.377646E+06 -2.486063E+05  2.041417E+04 -6.313823E+05  1.318525E+04 -2.602973E+03
        95   4 -1.479619E+06 -2.862153E+05 -1.422014E+03 -6.592503E+05 -4.127197E+03  1.171947E+04
        95   5 -1.500687E+06 -2.650363E+05 -1.899144E+03 -6.349556E+05  2.337186E+02  2.950381E+03
        95   6 -1.479613E+06 -2.862115E+05 -3.096849E+03 -6.592494E+05  4.593730E+03 -5.817598E+03
        95   7 -1.291020E+06 -2.163945E+05  4.251343E+04 -6.075304E+05 -1.272170E+04  8.503313E+03
        95   8 -1.457377E+06 -2.489289E+05  8.313885E+03 -6.230314E+05 -8.358471E+03 -2.647379E+02
        95   9 -1.581571E+06 -3.238165E+05 -2.660875E+04 -6.871128E+05 -3.996407E+03 -9.031708E+03
        95  10 -1.668180E+06 -3.560331E+05 -4.535968E+04 -7.109554E+05  3.569332E-10  7.316913E-10
        95  11 -1.543994E+06 -2.811433E+05 -1.211206E+04 -6.468789E+05  3.056024E-09  1.363343E-09
        95  12 -1.377646E+06 -2.486063E+05  2.041383E+04 -6.313823E+05  3.744260E-09  5.120748E-10
        95  13 -1.479619E+06 -2.862154E+05 -1.422304E+03 -6.592502E+05  2.028749E-09  6.760042E-10
        95  14 -1.500687E+06 -2.650363E+05 -1.899160E+03 -6.349556E+05  3.442020E-09  1.515149E-09
        95  15 -1.479613E+06 -2.862115E+05 -3.096952E+03 -6.592494E+05  8.360413E-10  3.458702E-10
        95  16 -1.291020E+06 -2.163946E+05  4.251299E+04 -6.075303E+05  2.862717E-09  5.725524E-10
        95  17 -1.457377E+06 -2.489289E+05  8.313754E+03 -6.230314E+05  3.798519E-09  1.174050E-09
        95  18 -1.581571E+06 -3.238166E+05 -2.660893E+04 -6.871128E+05  2.320419E-10  2.565533E-10
        95  19 -1.668180E+06 -3.560329E+05 -4.535922E+04 -7.109554E+05 -4.464402E+03 -1.493453E+04
        95  20 -1.543994E+06 -2.811433E+05 -1.211184E+04 -6.468789E+05 -8.825150E+03 -6.165213E+03
        95  21 -1.377646E+06 -2.486063E+05  2.041417E+04 -6.313823E+05 -1.318525E+04  2.602973E+03
        95  22 -1.479619E+06 -2.862153E+05 -1.422014E+03 -6.592503E+05  4.127197E+03 -1.171947E+04
        95  23 -1.500687E+06 -2.650363E+05 -1.899144E+03 -6.349556E+05 -2.337186E+02 -2.950381E+03
        95  24 -1.479613E+06 -2.862115E+05 -3.096849E+03 -6.592494E+05 -4.593730E+03  5.817598E+03
        95  25 -1.291020E+06 -2.163945E+05  4.251343E+04 -6.075304E+05  1.272170E+04 -8.503313E+03
        95  26 -1.457377E+06 -2.489289E+05  8.313885E+03 -6.230314E+05  8.358471E+03  2.647379E+02
        95  27 -1.581571E+06 -3.238165E+05 -2.660875E+04 -6.871128E+05  3.996407E+03  9.031708E+03
        96   1 -1.261112E+06 -2.052818E+05  4.793272E+04 -5.996603E+05  1.577752E+04 -7.693563E+03
        96   2 -1.137117E+06 -1.305235E+05  7.841313E+04 -5.355694E+05  2.267804E+04 -1.546925E+04
        96   3 -9.716017E+05 -9.867663E+04  1.061108E+05 -5.198428E+05  2.954783E+04 -2.314722E+04
        96   4 -1.479743E+06 -2.861490E+05 -4.032644E+03 -6.592775E+05  7.170837E+03 -1.091448E+04
        96   5 -1.500552E+06 -2.650305E+05 -7.179428E+03 -6.349690E+05  1.415929E+04 -1.865949E+04
        96   6 -1.479877E+06 -2.868432E+05 -1.317870E+04 -6.590340E+05  2.111613E+04 -2.630702E+04
        96   7 -1.698322E+06 -3.670115E+05 -5.600014E+04 -7.188746E+05 -1.432403E+03 -1.413411E+04
        96   8 -1.863851E+06 -3.995267E+05 -9.278005E+04 -7.343146E+05  5.646042E+03 -2.184767E+04
        96   9 -1.987893E+06 -4.749908E+05 -1.324857E+05 -7.981208E+05  1.269195E+04 -2.946401E+04
        96  10 -1.261113E+06 -2.052819E+05  4.793214E+04 -5.996602E+05  6.106245E-10 -5.265167E-10
        96  11 -1.137118E+06 -1.305239E+05  7.841171E+04 -5.355691E+05 -9.708708E-10  3.855665E-11
        96  12 -9.716028E+05 -9.867743E+04  1.061082E+05 -5.198423E+05 -9.756470E-11 -2.404280E-10
        96  13 -1.479743E+06 -2.861491E+05 -4.032964E+03 -6.592775E+05  1.617757E-10 -1.399859E-10
        96  14 -1.500552E+06 -2.650309E+05 -7.180459E+03 -6.349688E+05 -7.614123E-10 -4.509363E-10
        96  15 -1.479877E+06 -2.868440E+05 -1.318084E+04 -6.590335E+05 -1.193342E-09 -1.347907E-10
        96  16 -1.698322E+06 -3.670117E+05 -5.600052E+04 -7.188746E+05 -5.478601E-10  1.085234E-10
        96  17 -1.863851E+06 -3.995273E+05 -9.278101E+04 -7.343145E+05 -1.121449E-09 -2.971218E-10
        96  18 -1.987893E+06 -4.749918E+05 -1.324876E+05 -7.981205E+05  1.747063E-10 -8.938106E-11
        96  19 -1.261112E+06 -2.052818E+05  4.793272E+04 -5.996603E+05 -1.577752E+04  7.693563E+03
        96  20 -1.137117E+06 -1.305235E+05  7.841313E+04 -5.355694E+05 -2.267804E+04  1.546925E+04
        96  21 -9.716017E+05 -9.867663E+04  1.061108E+05 -5.198428E+05 -2.954783E+04  2.314722E+04
        96  22 -1.479743E+06 -2.861490E+05 -4.032644E+03 -6.592775E+05 -7.170837E+03  1.091448E+04
        96  23 -1.500552E+06 -2.650305E+05 -7.179428E+03 -6.349690E+05 -1.415929E+04  1.865949E+04
        96  24 -1.479877E+06 -2.868432E+05 -1.317870E+04 -6.590340E+05 -2.111613E+04  2.630702E+04
        96  25 -1.698322E+06 -3.670115E+05 -5.600014E+04 -7.188746E+05  1.432403E+03  1.413411E+04
        96  26 -1.863851E+06 -3.995267E+05 -9.278005E+04 -7.343146E+05 -5.646042E+03  2.184767E+04
        96  27 -1.987893E+06 -4.749908E+05 -1.324857E+05 -7.981208E+05 -1.269195E+04  2.946401E+04
        97   1 -8.550864E+05 -5.590949E+04  1.301164E+05 -4.905435E+05  3.448983E+04 -2.747191E+04
        97   2 -7.329229E+05  2.043226E+04  1.496268E+05 -4.232666E+05  5.197369E+04 -3.067943E+04
        97   3 -5.752193E+05  4.275318E+04  1.552549E+05 -4.011125E+05  6.881470E+04 -3.213668E+04
        97   4 -1.480782E+06 -2.856720E+05 -1.736356E+04 -6.597189E+05  2.559000E+04 -3.080915E+04
        97   5 -1.499337E+06 -2.649984E+05 -3.140205E+04 -6.347300E+05  4.470086E+04 -3.341166E+04
        97   6 -1.482704E+06 -2.986878E+05 -6.062895E+04 -6.548783E+05  6.316493E+04 -3.426421E+04
        97   7 -2.106092E+06 -5.154099E+05 -1.648717E+05 -8.287403E+05  1.669988E+04 -3.414284E+04
        97   8 -2.265167E+06 -5.503866E+05 -2.124729E+05 -8.459552E+05  3.743777E+04 -3.614021E+04
        97   9 -2.389369E+06 -6.400641E+05 -2.765718E+05 -9.083034E+05  5.752411E+04 -3.638828E+04
        97  10 -8.550878E+05 -5.591062E+04  1.301128E+05 -4.905428E+05 -8.975980E-10 -4.960104E-10
        97  11 -7.329261E+05  2.043052E+04  1.496200E+05 -4.232653E+05  1.232305E-09 -3.506094E-11
        97  12 -5.752247E+05  4.275081E+04  1.552440E+05 -4.011107E+05 -2.560263E-10 -4.980002E-10
        97  13 -1.480783E+06 -2.856732E+05 -1.736658E+04 -6.597182E+05 -6.460673E-11  3.226988E-11
        97  14 -1.499339E+06 -2.650001E+05 -3.140791E+04 -6.347288E+05 -3.309037E-10  1.530276E-10
        97  15 -1.482709E+06 -2.986901E+05 -6.063866E+04 -6.548766E+05 -3.135681E-09 -1.071197E-09
        97  16 -2.106093E+06 -5.154112E+05 -1.648745E+05 -8.287398E+05  8.887210E-10  3.859968E-10
        97  17 -2.265169E+06 -5.503883E+05 -2.124780E+05 -8.459541E+05 -8.661574E-10  2.776484E-10
        97  18 -2.389373E+06 -6.400664E+05 -2.765805E+05 -9.083017E+05 -5.522186E-09 -1.495470E-09
        97  19 -8.550864E+05 -5.590949E+04  1.301164E+05 -4.905435E+05 -3.448983E+04  2.747191E+04
        97  20 -7.329229E+05  2.043226E+04  1.496268E+05 -4.232666E+05 -5.197369E+04  3.067943E+04
        97  21 -5.752193E+05  4.275318E+04  1.552549E+05 -4.011125E+05 -6.881470E+04  3.213668E+04
        97  22 -1.480782E+06 -2.856720E+05 -1.736356E+04 -6.597189E+05 -2.559000E+04  3.080915E+04
        97  23 -1.499337E+06 -2.649984E+05 -3.140205E+04 -6.347300E+05 -4.470086E+04  3.341166E+04
        97  24 -1.482704E+06 -2.986878E+05 -6.062895E+04 -6.548783E+05 -6.316493E+04  3.426421E+04
        97  25 -2.106092E+06 -5.154099E+05 -1.648717E+05 -8.287403E+05 -1.669988E+04  3.414284E+04
        97  26 -2.265167E+06 -5.503866E+05 -2.124729E+05 -8.459552E+05 -3.743777E+04  3.614021E+04
        97  27 -2.389369E+06 -6.400641E+05 -2.765718E+05 -9.083034E+05 -5.752411E+04  3.638828E+04
        98   1 -4.424793E+05  7.923341E+04  1.648944E+05 -4.141084E+05  9.253869E+04 -3.278457E+04
        98   2 -3.490090E+05  1.976567E+05  1.436966E+05 -2.748270E+05  1.297343E+05 -1.718353E+04
        98   3 -3.025445E+05  5.786382E+04  3.456022E+04 -1.232225E+05  1.526669E+05  3.634205E+04
        98   4 -1.492906E+06 -2.770290E+05 -7.692899E+04 -6.679027E+05  7.591761E+04 -3.902977E+04
        98   5 -1.483079E+06 -2.655541E+05 -1.371768E+05 -6.285142E+05  1.487673E+05 -1.004670E+04
        98   6 -1.527523E+06 -5.196647E+05 -3.137918E+05 -5.767813E+05  2.073297E+05  5.688080E+04
        98   7 -2.542230E+06 -6.332539E+05 -3.188232E+05 -9.213229E+05  5.932719E+04 -4.526574E+04
        98   8 -2.615864E+06 -7.286001E+05 -4.181475E+05 -9.815852E+05  1.677622E+05 -2.927373E+03
        98   9 -2.751006E+06 -1.096836E+06 -6.622735E+05 -1.029446E+06  2.618743E+05  7.734925E+04
        98  10 -4.424887E+05  7.922995E+04  1.648763E+05 -4.141060E+05 -3.178276E-09 -1.477504E-09
        98  11 -3.490271E+05  1.976519E+05  1.436644E+05 -2.748252E+05  1.359727E-09  2.719104E-10
        98  12 -3.025699E+05  5.785614E+04  3.451391E+04 -1.232270E+05  1.423373E-09  2.088586E-10
        98  13 -1.492913E+06 -2.770322E+05 -7.694269E+04 -6.679003E+05 -1.635278E-09 -9.416451E-10
        98  14 -1.483103E+06 -2.655602E+05 -1.372187E+05 -6.285130E+05 -7.222658E-10  6.819401E-11
        98  15 -1.527570E+06 -5.196798E+05 -3.138789E+05 -5.767908E+05 -4.530102E-10  5.962898E-10
        98  16 -2.542234E+06 -6.332571E+05 -3.188336E+05 -9.213207E+05 -1.303686E-09 -4.920099E-10
        98  17 -2.615894E+06 -7.286077E+05 -4.182006E+05 -9.815848E+05  3.250502E-10  3.980596E-10
        98  18 -2.751081E+06 -1.096861E+06 -6.624143E+05 -1.029462E+06 -1.917139E-11  2.314352E-11
        98  19 -4.424793E+05  7.923341E+04  1.648944E+05 -4.141084E+05 -9.253869E+04  3.278457E+04
        98  20 -3.490090E+05  1.976567E+05  1.436966E+05 -2.748270E+05 -1.297343E+05  1.718353E+04
        98  21 -3.025445E+05  5.786382E+04  3.456022E+04 -1.232225E+05 -1.526669E+05 -3.634205E+04
        98  22 -1.492906E+06 -2.770290E+05 -7.692899E+04 -6.679027E+05 -7.591761E+04  3.902977E+04
        98  23 -1.483079E+06 -2.655541E+05 -1.371768E+05 -6.285142E+05 -1.487673E+05  1.004670E+04
        98  24 -1.527523E+06 -5.196647E+05 -3.137918E+05 -5.767813E+05 -2.073297E+05 -5.688080E+04
        98  25 -2.542230E+06 -6.332539E+05 -3.188232E+05 -9.213229E+05 -5.932719E+04  4.526574E+04
        98  26 -2.615864E+06 -7.286001E+05 -4.181475E+05 -9.815852E+05 -1.677622E+05  2.927373E+03
        98  27 -2.751006E+06 -1.096836E+06 -6.622735E+05 -1.029446E+06 -2.618743E+05 -7.734925E+04
        99   1 -1.137237E+06 -1.871990E+05 -1.589253E+05 -1.537198E+04  3.587887E+04  1.598043E+04
        99   2 -1.049464E+06 -2.601301E+05 -1.786371E+05 -3.104240E+04  3.663240E+04  5.068778E+04
        99   3 -9.388814E+05 -2.432365E+05 -1.763141E+05 -8.246081E+04  3.742827E+04  5.437562E+04
        99   4  4.254559E+04  1.056647E+05  1.257205E+05 -6.749882E+04  8.653973E+04  1.603991E+04
        99   5  2.848418E+04  2.828945E+03  5.776222E+04 -4.957194E+04  5.602738E+04  5.069885E+04
        99   6  4.260914E+04 -4.839654E+03  3.352290E+04 -6.738706E+04  2.555940E+04  5.436265E+04
        99   7  1.223614E+06  3.984384E+05  4.102779E+05 -1.197255E+05  1.372965E+05  1.609082E+04
        99   8  1.107522E+06  2.657119E+05  2.940925E+05 -6.813432E+04  7.545559E+04  5.070877E+04
        99   9  1.025008E+06  2.334952E+05  2.433047E+05 -5.228920E+04  1.367200E+04  5.434911E+04
        99  10 -1.137238E+06 -1.871996E+05 -1.589282E+05 -1.537244E+04  1.201047E-09  3.729394E-10
        99  11 -1.049466E+06 -2.601333E+05 -1.786445E+05 -3.104389E+04  1.660377E-09  7.717037E-11
        99  12 -9.388837E+05 -2.432401E+05 -1.763223E+05 -8.246245E+04 -1.260061E-09 -3.297052E-10
        99  13  4.253748E+04  1.056624E+05  1.257059E+05 -6.749994E+04  1.541992E-11 -3.038410E-10
        99  14  2.848012E+04  2.825342E+03  5.775149E+04 -4.957423E+04 -1.149001E-09  1.928281E-10
        99  15  4.260765E+04 -4.843003E+03  3.351612E+04 -6.738818E+04 -2.658891E-10 -5.530552E-11
        99  16  1.223594E+06  3.984331E+05  4.102420E+05 -1.197273E+05  1.076902E-09  5.571500E-10
        99  17  1.107515E+06  2.657076E+05  2.940770E+05 -6.813739E+04  1.526571E-09 -2.328790E-10
        99  18  1.025007E+06  2.334920E+05  2.432988E+05 -5.228980E+04  5.904911E-10  2.628539E-10
        99  19 -1.137237E+06 -1.871990E+05 -1.589253E+05 -1.537198E+04 -3.587887E+04 -1.598043E+04
        99  20 -1.049464E+06 -2.601301E+05 -1.786371E+05 -3.104240E+04 -3.663240E+04 -5.068778E+04
        99  21 -9.388814E+05 -2.432365E+05 -1.763141E+05 -8.246081E+04 -3.742827E+04 -5.437562E+04
        99  22  4.254559E+04  1.056647E+05  1.257205E+05 -6.749882E+04 -8.653973E+04 -1.603991E+04
        99  23  2.848418E+04  2.828945E+03  5.776222E+04 -4.957194E+04 -5.602738E+04 -5.069885E+04
        99  24  4.260914E+04 -4.839654E+03  3.352290E+04 -6.738706E+04 -2.555940E+04 -5.436265E+04
        99  25  1.223614E+06  3.984384E+05  4.102779E+05 -1.197255E+05 -1.372965E+05 -1.609082E+04
        99  26  1.107522E+06  2.657119E+05  2.940925E+05 -6.813432E+04 -7.545559E+04 -5.070877E+04
        99  27  1.025008E+06  2.334952E+05  2.433047E+05 -5.228920E+04 -1.367200E+04 -5.434911E+04
       100   1 -8.672789E+05 -2.149281E+05 -1.677279E+05 -6.633600E+04  2.422562E+04  4.870846E+04
       100   2 -7.695418E+05 -1.957554E+05 -1.576960E+05 -4.897579E+04  1.847504E+04  4.465003E+04
       100   3 -6.696682E+05 -1.719571E+05 -1.427076E+05 -6.871465E+04  1.271908E+04  3.914922E+04
       100   4  3.690468E+04  4.838457E+03  2.647100E+04 -6.771582E+04  2.088852E+04  4.870156E+04
       100   5  3.574063E+04 -2.046513E+02  1.441387E+04 -4.916728E+04  1.367585E+04  4.464457E+04
       100   6  3.695275E+04 -3.720589E+02  8.322857E+03 -6.771465E+04  6.458694E+03  3.914609E+04
       100   7  9.418576E+05  2.245514E+05  2.206221E+05 -6.909773E+04  1.754661E+04  4.869468E+04
       100   8  8.416340E+05  1.953038E+05  1.864863E+05 -4.935903E+04  8.870518E+03  4.463912E+04
       100   9  7.440441E+05  1.711804E+05  1.593246E+05 -6.671347E+04  1.912739E+02  3.914293E+04
       100  10 -8.672801E+05 -2.149308E+05 -1.677334E+05 -6.633695E+04 -8.990522E-10 -5.342559E-10
       100  11 -7.695427E+05 -1.957576E+05 -1.577004E+05 -4.897646E+04 -1.108675E-09  7.354412E-12
       100  12 -6.696688E+05 -1.719588E+05 -1.427108E+05 -6.871505E+04 -2.080887E-09  7.830738E-10
       100  13  3.690358E+04  4.835793E+03  2.646572E+04 -6.771664E+04 -4.726146E-12 -4.821482E-10
       100  14  3.573990E+04 -2.068419E+02  1.440977E+04 -4.916777E+04 -2.164391E-09 -2.796463E-11
       100  15  3.695229E+04 -3.737157E+02  8.319899E+03 -6.771486E+04 -1.349974E-10  3.997616E-10
       100  16  9.418567E+05  2.245487E+05  2.206171E+05 -6.909842E+04 -7.726263E-11  3.068550E-10
       100  17  8.416334E+05  1.953016E+05  1.864824E+05 -4.935935E+04 -3.642319E-10 -2.511724E-10
       100  18  7.440437E+05  1.711788E+05  1.593217E+05 -6.671347E+04 -1.000301E-10  9.427390E-11
       100  19 -8.672789E+05 -2.149281E+05 -1.677279E+05 -6.633600E+04 -2.422562E+04 -4.870846E+04
       100  20 -7.695418E+05 -1.957554E+05 -1.576960E+05 -4.897579E+04 -1.847504E+04 -4.465003E+04
       100  21 -6.696682E+05 -1.719571E+05 -1.427076E+05 -6.871465E+04 -1.271908E+04 -3.914922E+04
       100  22  3.690468E+04  4.838457E+03  2.647100E+04 -6.771582E+04 -2.088852E+04 -4.870156E+04
       100  23  3.574063E+04 -2.046513E+02  1.441387E+04 -4.916728E+04 -1.367585E+04 -4.464457E+04
       100  24  3.695275E+04 -3.720589E+02  8.322857E+03 -6.771465E+04 -6.458694E+03 -3.914609E+04
       100  25  9.418576E+05  2.245514E+05  2.206221E+05 -6.909773E+04 -1.754661E+04 -4.869468E+04
       100  26  8.416340E+05  1.953038E+05  1.864863E+05 -4.935903E+04 -8.870518E+03 -4.463912E+04
       100  27  7.440441E+05  1.711804E+05  1.593246E+05 -6.671347E+04 -1.912739E+02 -3.914293E+04
       101   1 -5.935532E+05 -1.527944E+05 -1.278566E+05 -6.783394E+04  1.102762E+04  3.558554E+04
       101   2 -4.949558E+05 -1.290513E+05 -1.097308E+05 -4.919049E+04  9.302898E+03  2.972789E+04
       101   3 -3.959921E+05 -1.050382E+05 -9.039856E+04 -6.769293E+04  7.574231E+03  2.380366E+04
       101   4  3.652896E+04  1.088793E+02  6.362650E+03 -6.772568E+04  5.164127E+03  3.558369E+04
       101   5  3.636063E+04 -8.710284E+01  3.624421E+03 -4.915374E+04  3.370256E+03  2.972773E+04
       101   6  3.656071E+04 -8.626140E-01  2.139759E+03 -6.772578E+04  1.572708E+03  2.380524E+04
       101   7  6.669854E+05  1.529863E+05  1.405592E+05 -6.761727E+04 -7.052345E+02  3.558184E+04
       101   8  5.679430E+05  1.288587E+05  1.169635E+05 -4.911693E+04 -2.567392E+03  2.972756E+04
       101   9  4.692897E+05  1.050242E+05  9.466736E+04 -6.775863E+04 -4.432938E+03  2.380682E+04
       101  10 -5.935537E+05 -1.527958E+05 -1.278593E+05 -6.783426E+04  2.088375E-09  8.022012E-10
       101  11 -4.949561E+05 -1.290522E+05 -1.097326E+05 -4.919071E+04 -4.866781E-10 -6.899513E-11
       101  12 -3.959923E+05 -1.050388E+05 -9.039973E+04 -6.769307E+04  2.024613E-10 -8.692403E-11
       101  13  3.652859E+04  1.075125E+02  6.360220E+03 -6.772583E+04 -1.076761E-09  3.301103E-10
       101  14  3.636038E+04 -8.805490E+01  3.622738E+03 -4.915382E+04  5.405101E-10 -4.157441E-10
       101  15  3.656056E+04 -1.471819E+00  2.138689E+03 -6.772581E+04  6.539698E-10  2.114306E-10
       101  16  6.669850E+05  1.529850E+05  1.405569E+05 -6.761725E+04 -7.641600E-10  2.708094E-11
       101  17  5.679428E+05  1.288577E+05  1.169618E+05 -4.911687E+04 -1.815465E-09 -1.163756E-09
       101  18  4.692896E+05  1.050236E+05  9.466626E+04 -6.775855E+04  6.158626E-10 -4.664210E-10
       101  19 -5.935532E+05 -1.527944E+05 -1.278566E+05 -6.783394E+04 -1.102762E+04 -3.558554E+04
       101  20 -4.949558E+05 -1.290513E+05 -1.097308E+05 -4.919049E+04 -9.302898E+03 -2.972789E+04
       101  21 -3.959921E+05 -1.050382E+05 -9.039856E+04 -6.769293E+04 -7.574231E+03 -2.380366E+04
       101  22  3.652896E+04  1.088793E+02  6.362650E+03 -6.772568E+04 -5.164127E+03 -3.558369E+04
       101  23  3.636063E+04 -8.710284E+01  3.624421E+03 -4.915374E+04 -3.370256E+03 -2.972773E+04
       101  24  3.656071E+04 -8.626140E-01  2.139759E+03 -6.772578E+04 -1.572708E+03 -2.380524E+04
       101  25  6.669854E+05  1.529863E+05  1.405592E+05 -6.761727E+04  7.052345E+02 -3.558184E+04
       101  26  5.679430E+05  1.288587E+05  1.169635E+05 -4.911693E+04  2.567392E+03 -2.972756E+04
       101  27  4.692897E+05  1.050242E+05  9.466736E+04 -6.775863E+04  4.432938E+03 -2.380682E+04
       102   1 -3.195474E+05 -8.633361E+04 -7.401751E+04 -6.765765E+04  7.210872E+03  2.033925E+04
       102   2 -2.207997E+05 -6.241478E+04 -5.381779E+04 -4.908512E+04  6.689441E+03  1.439978E+04
       102   3 -1.219896E+05 -3.844391E+04 -3.327286E+04 -6.765126E+04  6.166149E+03  8.457498E+03
       102   4  3.650429E+04  2.477980E+01  1.660548E+03 -6.772438E+04  1.227621E+03  2.034160E+04
       102   5  3.648441E+04  2.312718E+01  1.057985E+03 -4.915551E+04  7.026947E+02  1.440294E+04
       102   6  3.651966E+04  7.501355E+01  8.035025E+02 -6.772437E+04  1.759890E+02  8.461504E+03
       102   7  3.926755E+05  8.637495E+04  7.733148E+04 -6.779112E+04 -4.759012E+03  2.034395E+04
       102   8  2.938309E+05  6.245674E+04  5.593008E+04 -4.922591E+04 -5.286497E+03  1.440610E+04
       102   9  1.950526E+05  3.859231E+04  3.487853E+04 -6.779750E+04 -5.815679E+03  8.465512E+03
       102  10 -3.195475E+05 -8.633407E+04 -7.401839E+04 -6.765777E+04  2.866856E-09 -1.274020E-12
       102  11 -2.207998E+05 -6.241502E+04 -5.381826E+04 -4.908519E+04  2.000547E-09 -5.600203E-10
       102  12 -1.219896E+05 -3.844400E+04 -3.327307E+04 -6.765130E+04  2.151877E-09 -6.172973E-10
       102  13  3.650418E+04  2.433506E+01  1.659768E+03 -6.772440E+04  1.084728E-09 -4.229799E-10
       102  14  3.648436E+04  2.290428E+01  1.057594E+03 -4.915551E+04  2.718743E-09 -2.463240E-10
       102  15  3.651964E+04  7.493665E+01  8.033679E+02 -6.772437E+04  6.640269E-10 -6.474796E-10
       102  16  3.926754E+05  8.637450E+04  7.733066E+04 -6.779105E+04 -1.072907E-09 -1.694930E-10
       102  17  2.938308E+05  6.245651E+04  5.592963E+04 -4.922585E+04 -7.161963E-10 -5.571460E-10
       102  18  1.950525E+05  3.859223E+04  3.487833E+04 -6.779747E+04 -2.901663E-09 -7.200551E-10
       102  19 -3.195474E+05 -8.633361E+04 -7.401751E+04 -6.765765E+04 -7.210872E+03 -2.033925E+04
       102  20 -2.207997E+05 -6.241478E+04 -5.381779E+04 -4.908512E+04 -6.689441E+03 -1.439978E+04
       102  21 -1.219896E+05 -3.844391E+04 -3.327286E+04 -6.765126E+04 -6.166149E+03 -8.457498E+03
       102  22  3.650429E+04  2.477980E+01  1.660548E+03 -6.772438E+04 -1.227621E+03 -2.034160E+04
       102  23  3.648441E+04  2.312718E+01  1.057985E+03 -4.915551E+04 -7.026947E+02 -1.440294E+04
       102  24  3.651966E+04  7.501355E+01  8.035025E+02 -6.772437E+04 -1.759890E+02 -8.461504E+03
       102  25  3.926755E+05  8.637495E+04  7.733148E+04 -6.779112E+04  4.759012E+03 -2.034395E+04
       102  26  2.938309E+05  6.245674E+04  5.593008E+04 -4.922591E+04  5.286497E+03 -1.440610E+04
       102  27  1.950526E+05  3.859231E+04  3.487853E+04 -6.779750E+04  5.815679E+03 -8.465512E+03
       103   1 -4.548227E+04 -1.976593E+04 -1.644741E+04 -6.768714E+04  6.020688E+03  4.998369E+03
       103   2  5.329425E+04  4.122287E+03  4.461806E+03 -4.914239E+04  5.579488E+03 -9.429244E+02
       103   3  1.520980E+05  2.806414E+04  2.565764E+04 -6.773506E+04  5.138330E+03 -6.881848E+03
       103   4  3.651503E+04  7.699718E+01  7.690134E+02 -6.772432E+04  3.043796E+01  5.002613E+03
       103   5  3.650644E+04  4.882732E+01  8.812680E+02 -4.915557E+04 -4.088557E+02 -9.387530E+02
       103   6  3.651402E+04  7.414540E+01  1.278648E+03 -6.772431E+04 -8.480381E+02 -6.877714E+03
       103   7  1.185188E+05  1.991951E+04  1.798520E+04 -6.776150E+04 -5.960591E+03  5.006858E+03
       103   8  1.971897E+04 -4.024631E+03 -2.699152E+03 -4.916875E+04 -6.397039E+03 -9.345812E+02
       103   9 -7.905730E+04 -2.791669E+04 -2.310096E+04 -6.771355E+04 -6.833309E+03 -6.873581E+03
       103  10 -4.548231E+04 -1.976596E+04 -1.644753E+04 -6.768717E+04  1.861774E-08  1.017197E-09
       103  11  5.329422E+04  4.122278E+03  4.461746E+03 -4.914239E+04 -3.211463E-09  3.375915E-09
       103  12  1.520980E+05  2.806409E+04  2.565750E+04 -6.773504E+04 -2.027288E-08  1.433068E-09
       103  13  3.651502E+04  7.697030E+01  7.689664E+02 -6.772432E+04 -5.495008E-12  5.635233E-10
       103  14  3.650644E+04  4.882633E+01  8.812660E+02 -4.915557E+04 -1.574046E-09  1.902497E-09
       103  15  3.651401E+04  7.409441E+01  1.278558E+03 -6.772431E+04 -2.706616E-09  1.841413E-09
       103  16  1.185187E+05  1.991947E+04  1.798508E+04 -6.776147E+04 -1.929071E-08  6.510947E-10
       103  17  1.971893E+04 -4.024643E+03 -2.699230E+03 -4.916876E+04 -2.251699E-10  1.802326E-09
       103  18 -7.905737E+04 -2.791676E+04 -2.310114E+04 -6.771359E+04  2.012971E-08  1.750991E-09
       103  19 -4.548227E+04 -1.976593E+04 -1.644741E+04 -6.768714E+04 -6.020688E+03 -4.998369E+03
       103  20  5.329425E+04  4.122287E+03  4.461806E+03 -4.914239E+04 -5.579488E+03  9.429244E+02
       103  21  1.520980E+05  2.806414E+04  2.565764E+04 -6.773506E+04 -5.138330E+03  6.881848E+03
       103  22  3.651503E+04  7.699718E+01  7.690134E+02 -6.772432E+04 -3.043796E+01 -5.002613E+03
       103  23  3.650644E+04  4.882732E+01  8.812680E+02 -4.915557E+04  4.088557E+02  9.387530E+02
       103  24  3.651402E+04  7.414540E+01  1.278648E+03 -6.772431E+04  8.480381E+02  6.877714E+03
       103  25  1.185188E+05  1.991951E+04  1.798520E+04 -6.776150E+04  5.960591E+03 -5.006858E+03
       103  26  1.971897E+04 -4.024631E+03 -2.699152E+03 -4.916875E+04  6.397039E+03  9.345812E+02
       103  27 -7.905730E+04 -2.791669E+04 -2.310096E+04 -6.771355E+04  6.833309E+03  6.873581E+03
       104   1  2.286679E+05  4.672167E+04  4.284959E+04 -6.773997E+04  4.889408E+03 -1.034381E+04
       104   2  3.273687E+05  7.057675E+04  6.473019E+04 -4.917382E+04  3.500006E+03 -1.626824E+04
       104   3  4.262989E+05  9.466530E+04  8.756678E+04 -6.774479E+04  2.112420E+03 -2.213907E+04
       104   4  3.655215E+04  5.753179E+01  1.614154E+03 -6.772449E+04 -1.112191E+03 -1.033997E+04
       104   5  3.643800E+04 -5.158524E+00  2.688080E+03 -4.915535E+04 -2.447391E+03 -1.626539E+04
       104   6  3.653476E+04  1.568895E+02  4.681003E+03 -6.772437E+04 -3.780560E+03 -2.213715E+04
       104   7 -1.555288E+05 -4.660901E+04 -3.962330E+04 -6.770900E+04 -7.111960E+03 -1.033613E+04
       104   8 -2.544130E+05 -7.059256E+04 -5.935878E+04 -4.913687E+04 -8.392043E+03 -1.626253E+04
       104   9 -3.530862E+05 -9.436137E+04 -7.821336E+04 -6.770395E+04 -9.669897E+03 -2.213523E+04
       104  10  2.286678E+05  4.672155E+04  4.284934E+04 -6.773993E+04  1.100742E-09 -1.002679E-10
       104  11  3.273686E+05  7.057646E+04  6.472967E+04 -4.917378E+04 -9.271496E-09 -1.110066E-09
       104  12  4.262988E+05  9.466477E+04  8.756586E+04 -6.774475E+04 -1.945906E-08 -9.012064E-10
       104  13  3.655212E+04  5.741664E+01  1.613951E+03 -6.772450E+04 -1.086962E-09  5.701812E-10
       104  14  3.643792E+04 -5.444235E+00  2.687571E+03 -4.915538E+04  1.114206E-09 -1.515765E-09
       104  15  3.653461E+04  1.563594E+02  4.680055E+03 -6.772444E+04  5.424092E-12 -1.541849E-09
       104  16 -1.555289E+05 -4.660913E+04 -3.962359E+04 -6.770906E+04 -1.923370E-09  6.336880E-10
       104  17 -2.544131E+05 -7.059287E+04 -5.935941E+04 -4.913697E+04  9.745595E-09 -7.312530E-10
       104  18 -3.530865E+05 -9.436192E+04 -7.821446E+04 -6.770412E+04  1.760566E-08 -1.617220E-09
       104  19  2.286679E+05  4.672167E+04  4.284959E+04 -6.773997E+04 -4.889408E+03  1.034381E+04
       104  20  3.273687E+05  7.057675E+04  6.473019E+04 -4.917382E+04 -3.500006E+03  1.626824E+04
       104  21  4.262989E+05  9.466530E+04  8.756678E+04 -6.774479E+04 -2.112420E+03  2.213907E+04
       104  22  3.655215E+04  5.753179E+01  1.614154E+03 -6.772449E+04  1.112191E+03  1.033997E+04
       104  23  3.643800E+04 -5.158524E+00  2.688080E+03 -4.915535E+04  2.447391E+03  1.626539E+04
       104  24  3.653476E+04  1.568895E+02  4.681003E+03 -6.772437E+04  3.780560E+03  2.213715E+04
       104  25 -1.555288E+05 -4.660901E+04 -3.962330E+04 -6.770900E+04  7.111960E+03  1.033613E+04
       104  26 -2.544130E+05 -7.059256E+04 -5.935878E+04 -4.913687E+04  8.392043E+03  1.626253E+04
       104  27 -3.530862E+05 -9.436137E+04 -7.821336E+04 -6.770395E+04  9.669897E+03  2.213523E+04
       105   1  5.032011E+05  1.129860E+05  1.058132E+05 -6.712178E+04  1.478429E+03 -2.567921E+04
       105   2  6.011237E+05  1.370465E+05  1.312924E+05 -4.951405E+04 -4.992557E+03 -3.125962E+04
       105   3  7.009227E+05  1.649003E+05  1.619455E+05 -6.900013E+04 -1.146080E+04 -3.568325E+04
       105   4  3.684416E+04 -1.945776E+02  6.113737E+03 -6.771518E+04 -4.734111E+03 -2.567799E+04
       105   5  3.599346E+04 -7.931024E+01  1.057951E+04 -4.916684E+04 -1.003399E+04 -3.126054E+04
       105   6  3.681041E+04  3.629208E+03  1.941034E+04 -6.771422E+04 -1.533014E+04 -3.568579E+04
       105   7 -4.293081E+05 -1.133893E+05 -9.359822E+04 -6.830810E+04 -1.094205E+04 -2.567677E+04
       105   8 -5.288363E+05 -1.372259E+05 -1.101517E+05 -4.881991E+04 -1.507090E+04 -3.126147E+04
       105   9 -6.268874E+05 -1.576707E+05 -1.231505E+05 -6.642969E+04 -1.919539E+04 -3.568835E+04
       105  10  5.032009E+05  1.129853E+05  1.058120E+05 -6.712175E+04  1.485710E-08 -4.469751E-10
       105  11  6.011234E+05  1.370454E+05  1.312905E+05 -4.951418E+04  6.218149E-09 -6.907408E-10
       105  12  7.009222E+05  1.648989E+05  1.619428E+05 -6.900045E+04 -3.172005E-09 -1.237453E-10
       105  13  3.684396E+04 -1.952917E+02  6.112456E+03 -6.771528E+04 -1.070427E-09 -8.989120E-10
       105  14  3.599309E+04 -8.038667E+01  1.057749E+04 -4.916709E+04 -1.618908E-09 -5.910832E-10
       105  15  3.680981E+04  3.627778E+03  1.940750E+04 -6.771466E+04  1.752143E-09 -1.470172E-10
       105  16 -4.293084E+05 -1.133901E+05 -9.359969E+04 -6.830832E+04 -1.526350E-08 -1.389987E-09
       105  17 -5.288368E+05 -1.372270E+05 -1.101540E+05 -4.882029E+04 -7.307529E-09 -1.060643E-09
       105  18 -6.268882E+05 -1.576722E+05 -1.231536E+05 -6.643024E+04  2.346720E-09 -1.680333E-10
       105  19  5.032011E+05  1.129860E+05  1.058132E+05 -6.712178E+04 -1.478429E+03  2.567921E+04
       105  20  6.011237E+05  1.370465E+05  1.312924E+05 -4.951405E+04  4.992557E+03  3.125962E+04
       105  21  7.009227E+05  1.649003E+05  1.619455E+05 -6.900013E+04  1.146080E+04  3.568325E+04
       105  22  3.684416E+04 -1.945776E+02  6.113737E+03 -6.771518E+04  4.734111E+03  2.567799E+04
       105  23  3.599346E+04 -7.931024E+01  1.057951E+04 -4.916684E+04  1.003399E+04  3.126054E+04
       105  24  3.681041E+04  3.629208E+03  1.941034E+04 -6.771422E+04  1.533014E+04  3.568579E+04
       105  25 -4.293081E+05 -1.133893E+05 -9.359822E+04 -6.830810E+04  1.094205E+04  2.567677E+04
       105  26 -5.288363E+05 -1.372259E+05 -1.101517E+05 -4.881991E+04  1.507090E+04  3.126147E+04
       105  27 -6.268874E+05 -1.576707E+05 -1.231505E+05 -6.642969E+04  1.919539E+04  3.568835E+04
       106   1  7.823665E+05  1.764209E+05  1.829860E+05 -5.671007E+04 -8.032272E+03 -4.090428E+04
       106   2  8.690515E+05  2.064796E+05  2.261630E+05 -6.346983E+04 -5.548403E+04 -3.912438E+04
       106   3  9.806617E+05  3.106119E+05  3.187749E+05 -1.061988E+05 -1.029617E+05 -1.248544E+04
       106   4  4.099185E+04 -3.464637E+03  2.457906E+04 -6.745670E+04 -1.875752E+04 -4.090821E+04
       106   5  3.067260E+04  2.142312E+03  4.235145E+04 -4.948761E+04 -4.109711E+04 -3.912512E+04
       106   6  4.094194E+04  7.751766E+04  9.216063E+04 -6.748525E+04 -6.345320E+04 -1.247166E+04
       106   7 -6.998653E+05 -1.833855E+05 -1.338592E+05 -7.819031E+04 -2.947014E+04 -4.091178E+04
       106   8 -8.070483E+05 -2.022411E+05 -1.415019E+05 -3.552451E+04 -2.672933E+04 -3.912521E+04
       106   9 -8.979644E+05 -1.556345E+05 -1.345101E+05 -2.883048E+04 -2.400413E+04 -1.245295E+04
       106  10  7.823659E+05  1.764191E+05  1.829827E+05 -5.671033E+04  1.766898E-09  1.290593E-10
       106  11  8.690478E+05  2.064772E+05  2.261543E+05 -6.347158E+04 -9.524667E-11  1.434369E-11
       106  12  9.806503E+05  3.106089E+05  3.187547E+05 -1.061998E+05  4.872248E-10 -1.148998E-10
       106  13  4.099103E+04 -3.466529E+03  2.457525E+04 -6.745732E+04  1.087927E-09  2.468083E-10
       106  14  3.067038E+04  2.140215E+03  4.234540E+04 -4.948891E+04  1.059023E-09  6.062437E-10
       106  15  4.093758E+04  7.751642E+04  9.215277E+04 -6.748589E+04 -1.234129E-10 -7.425723E-11
       106  16 -6.998667E+05 -1.833876E+05 -1.338639E+05 -7.819128E+04  3.520151E-10  1.974478E-10
       106  17 -8.070494E+05 -2.022430E+05 -1.415062E+05 -3.552535E+04 -8.560186E-10  1.455556E-10
       106  18 -8.979650E+05 -1.556348E+05 -1.345115E+05 -2.883072E+04 -2.027672E-10 -2.115238E-10
       106  19  7.823665E+05  1.764209E+05  1.829860E+05 -5.671007E+04  8.032272E+03  4.090428E+04
       106  20  8.690515E+05  2.064796E+05  2.261630E+05 -6.346983E+04  5.548403E+04  3.912438E+04
       106  21  9.806617E+05  3.106119E+05  3.187749E+05 -1.061988E+05  1.029617E+05  1.248544E+04
       106  22  4.099185E+04 -3.464637E+03  2.457906E+04 -6.745670E+04  1.875752E+04  4.090821E+04
       106  23  3.067260E+04  2.142312E+03  4.235145E+04 -4.948761E+04  4.109711E+04  3.912512E+04
       106  24  4.094194E+04  7.751766E+04  9.216063E+04 -6.748525E+04  6.345320E+04  1.247166E+04
       106  25 -6.998653E+05 -1.833855E+05 -1.338592E+05 -7.819031E+04  2.947014E+04  4.091178E+04
       106  26 -8.070483E+05 -2.022411E+05 -1.415019E+05 -3.552451E+04  2.672933E+04  3.912521E+04
       106  27 -8.979644E+05 -1.556345E+05 -1.345101E+05 -2.883048E+04  2.400413E+04  1.245295E+04
       107   1  6.194022E+05  2.115395E+06  6.201702E+05 -5.311263E+05  2.153469E+04  1.976836E+05
       107   2  3.665563E+05  1.572719E+06  3.726410E+05 -4.157083E+05  6.371473E+04  8.664415E+04
       107   3  2.200066E+05  1.070928E+06  2.237512E+05 -4.398205E+05  5.366029E+04 -2.438509E+04
       107   4  1.338559E+05  1.562632E+05  1.509277E+05 -4.502695E+05  2.178633E+04  1.025992E+05
       107   5  2.073818E+04  1.424520E+05  7.336352E+04 -3.806729E+05  6.378781E+04  6.457017E+04
       107   6  1.423627E+03  1.567453E+05  4.395570E+04 -4.505869E+05  5.351632E+04  2.645414E+04
       107   7 -3.519403E+05 -1.799328E+06 -3.185491E+05 -3.696650E+05  2.201377E+04  7.812303E+03
       107   8 -3.252063E+05 -1.285880E+06 -2.260252E+05 -3.457176E+05  6.385852E+04  4.254599E+04
       107   9 -2.172080E+05 -7.566318E+05 -1.358706E+05 -4.613362E+05  5.337045E+04  7.722017E+04
       107  10  6.193912E+05  2.115353E+06  6.200961E+05 -5.311298E+05 -1.035465E-09  6.780652E-10
       107  11  3.665499E+05  1.572710E+06  3.726193E+05 -4.157128E+05 -1.503514E-09  3.454959E-10
       107  12  2.200033E+05  1.070926E+06  2.237446E+05 -4.398195E+05 -1.200161E-09  1.087681E-10
       107  13  1.338525E+05  1.562517E+05  1.509071E+05 -4.502713E+05  9.471459E-10 -4.954692E-10
       107  14  2.073269E+04  1.424464E+05  7.334803E+04 -3.806762E+05  2.383863E-09 -5.562205E-11
       107  15  1.420362E+03  1.567438E+05  4.394900E+04 -4.505880E+05  5.222911E-10 -9.637665E-10
       107  16 -3.519409E+05 -1.799328E+06 -3.185502E+05 -3.696651E+05  8.607093E-10 -3.901267E-10
       107  17 -3.252111E+05 -1.285883E+06 -2.260363E+05 -3.457198E+05  4.181699E-10 -8.629624E-10
       107  18 -2.172126E+05 -7.566390E+05 -1.358872E+05 -4.613395E+05  7.356240E-10  4.970157E-10
       107  19  6.194022E+05  2.115395E+06  6.201702E+05 -5.311263E+05 -2.153469E+04 -1.976836E+05
       107  20  3.665563E+05  1.572719E+06  3.726410E+05 -4.157083E+05 -6.371473E+04 -8.664415E+04
       107  21  2.200066E+05  1.070928E+06  2.237512E+05 -4.398205E+05 -5.366029E+04  2.438509E+04
       107  22  1.338559E+05  1.562632E+05  1.509277E+05 -4.502695E+05 -2.178633E+04 -1.025992E+05
       107  23  2.073818E+04  1.424520E+05  7.336352E+04 -3.806729E+05 -6.378781E+04 -6.457017E+04
       107  24  1.423627E+03  1.567453E+05  4.395570E+04 -4.505869E+05 -5.351632E+04 -2.645414E+04
       107  25 -3.519403E+05 -1.799328E+06 -3.185491E+05 -3.696650E+05 -2.201377E+04 -7.812303E+03
       107  26 -3.252063E+05 -1.285880E+06 -2.260252E+05 -3.457176E+05 -6.385852E+04 -4.254599E+04
       107  27 -2.172080E+05 -7.566318E+05 -1.358706E+05 -4.613362E+05 -5.337045E+04 -7.722017E+04
       108   1  1.401555E+05  7.063168E+05  1.458349E+05 -4.545768E+05  3.214840E+04 -2.127691E+04
       108   2  1.057247E+04  1.832668E+05  3.290641E+04 -3.801541E+05  2.311011E+03 -3.475000E+04
       108   3 -1.119391E+05 -3.367791E+05 -6.971647E+04 -4.481626E+05 -2.763906E+04 -4.821343E+04
       108   4  7.243792E+03  1.512076E+05  3.620259E+04 -4.511821E+05  3.202345E+04  2.025264E+04
       108   5  2.619628E+03  1.498537E+05  2.655227E+04 -3.799709E+05  2.185448E+03  6.928082E+03
       108   6  5.057023E+03  1.512190E+05  2.711337E+04 -4.511888E+05 -2.776585E+04 -6.397579E+03
       108   7 -1.256857E+05 -4.036033E+05 -7.343842E+04 -4.477902E+05  3.189889E+04  6.174586E+04
       108   8 -5.332346E+03  1.164454E+05  2.020461E+04 -3.797877E+05  2.059906E+03  4.860397E+04
       108   9  1.220396E+05  6.394487E+05  1.239380E+05 -4.542173E+05 -2.789298E+04  3.545048E+04
       108  10  1.401543E+05  7.063160E+05  1.458322E+05 -4.545762E+05  2.954759E-10  1.866319E-09
       108  11  1.057214E+04  1.832655E+05  3.290413E+04 -3.801541E+05  1.637287E-09 -4.613731E-11
       108  12 -1.119405E+05 -3.367818E+05 -6.972228E+04 -4.481637E+05  3.243600E-10 -1.268606E-09
       108  13  7.242580E+03  1.512068E+05  3.619989E+04 -4.511826E+05  2.649577E-09 -5.935233E-10
       108  14  2.619610E+03  1.498536E+05  2.655217E+04 -3.799709E+05 -1.174056E-11  3.133490E-11
       108  15  5.056184E+03  1.512188E+05  2.711184E+04 -4.511890E+05  8.792500E-10 -9.802921E-10
       108  16 -1.256878E+05 -4.036077E+05 -7.344750E+04 -4.477918E+05  9.339747E-10 -1.550331E-09
       108  17 -5.332985E+03  1.164428E+05  2.020016E+04 -3.797878E+05  1.262073E-10 -8.335048E-10
       108  18  1.220384E+05  6.394471E+05  1.239342E+05 -4.542165E+05 -4.856972E-10  1.855529E-09
       108  19  1.401555E+05  7.063168E+05  1.458349E+05 -4.545768E+05 -3.214840E+04  2.127691E+04
       108  20  1.057247E+04  1.832668E+05  3.290641E+04 -3.801541E+05 -2.311011E+03  3.475000E+04
       108  21 -1.119391E+05 -3.367791E+05 -6.971647E+04 -4.481626E+05  2.763906E+04  4.821343E+04
       108  22  7.243792E+03  1.512076E+05  3.620259E+04 -4.511821E+05 -3.202345E+04 -2.025264E+04
       108  23  2.619628E+03  1.498537E+05  2.655227E+04 -3.799709E+05 -2.185448E+03 -6.928082E+03
       108  24  5.057023E+03  1.512190E+05  2.711337E+04 -4.511888E+05  2.776585E+04  6.397579E+03
       108  25 -1.256857E+05 -4.036033E+05 -7.343842E+04 -4.477902E+05 -3.189889E+04 -6.174586E+04
       108  26 -5.332346E+03  1.164454E+05  2.020461E+04 -3.797877E+05 -2.059906E+03 -4.860397E+04
       108  27  1.220396E+05  6.394487E+05  1.239380E+05 -4.542173E+05  2.789298E+04 -3.545048E+04
       109   1 -2.008873E+05 -6.923608E+05 -1.370730E+05 -4.558653E+05 -4.911738E+04 -6.172581E+04
       109   2 -3.172572E+05 -1.215987E+06 -2.414665E+05 -3.592773E+05 -6.044271E+04 -1.426092E+04
       109   3 -3.912287E+05 -1.735264E+06 -3.663008E+05 -4.023758E+05 -2.108128E+04  3.325073E+04
       109   4  1.829282E+03  1.541412E+05  2.992672E+04 -4.506000E+05 -4.926450E+04 -1.096027E+04
       109   5  1.256783E+04  1.457656E+05  4.440063E+04 -3.806843E+05 -6.038016E+04 -3.397501E+04
       109   6  7.790329E+04  1.536844E+05  8.738577E+04 -4.504152E+05 -2.086365E+04 -5.690294E+04
       109   7  2.045039E+05  1.001335E+06  1.969011E+05 -4.453267E+05 -4.941064E+04  3.987308E+04
       109   8  3.422755E+05  1.509274E+06  3.301658E+05 -4.021375E+05 -6.031632E+04 -5.373165E+04
       109   9  5.467881E+05  2.045927E+06  5.408506E+05 -4.985987E+05 -2.063247E+04 -1.473302E+05
       109  10 -2.008909E+05 -6.923655E+05 -1.370847E+05 -4.558678E+05 -6.738986E-10  1.152910E-09
       109  11 -3.172612E+05 -1.215988E+06 -2.414738E+05 -3.592780E+05 -5.750235E-10  1.910345E-10
       109  12 -3.912294E+05 -1.735265E+06 -3.663038E+05 -4.023752E+05 -1.844255E-10 -4.090088E-10
       109  13  1.826643E+03  1.541405E+05  2.992193E+04 -4.506005E+05 -8.682402E-10 -5.913219E-10
       109  14  1.256361E+04  1.457634E+05  4.439160E+04 -3.806860E+05 -2.333187E-10  7.619781E-11
       109  15  7.790195E+04  1.536808E+05  8.737887E+04 -4.504162E+05 -9.948622E-10 -6.791173E-10
       109  16  2.045009E+05  1.001333E+06  1.968935E+05 -4.453251E+05  4.054822E-10 -7.642395E-10
       109  17  3.422708E+05  1.509270E+06  3.301536E+05 -4.021401E+05 -8.852689E-10 -7.392081E-10
       109  18  5.467818E+05  2.045904E+06  5.408091E+05 -4.986012E+05  6.637606E-10  7.393703E-10
       109  19 -2.008873E+05 -6.923608E+05 -1.370730E+05 -4.558653E+05  4.911738E+04  6.172581E+04
       109  20 -3.172572E+05 -1.215987E+06 -2.414665E+05 -3.592773E+05  6.044271E+04  1.426092E+04
       109  21 -3.912287E+05 -1.735264E+06 -3.663008E+05 -4.023758E+05  2.108128E+04 -3.325073E+04
       109  22  1.829282E+03  1.541412E+05  2.992672E+04 -4.506000E+05  4.926450E+04  1.096027E+04
       109  23  1.256783E+04  1.457656E+05  4.440063E+04 -3.806843E+05  6.038016E+04  3.397501E+04
       109  24  7.790329E+04  1.536844E+05  8.738577E+04 -4.504152E+05  2.086365E+04  5.690294E+04
       109  25  2.045039E+05  1.001335E+06  1.969011E+05 -4.453267E+05  4.941064E+04 -3.987308E+04
       109  26  3.422755E+05  1.509274E+06  3.301658E+05 -4.021375E+05  6.031632E+04  5.373165E+04
       109  27  5.467881E+05  2.045927E+06  5.408506E+05 -4.985987E+05  2.063247E+04  1.473302E+05
       110   1 -2.611581E+06 -9.416860E+05 -5.482488E+05 -9.705600E+05 -2.353300E+05 -7.305307E+04
       110   2 -2.529164E+06 -6.208705E+05 -3.368797E+05 -9.479500E+05 -1.513553E+05 -8.089323E+03
       110   3 -2.518708E+06 -5.425394E+05 -2.563397E+05 -8.964197E+05 -5.717575E+04  2.983058E+04
       110   4 -1.751584E+06 -5.074476E+05 -2.979383E+05 -6.230652E+05 -1.952917E+05 -5.803260E+04
       110   5 -1.701754E+06 -2.736555E+05 -1.302117E+05 -6.807714E+05 -1.366753E+05 -2.583665E+03
       110   6 -1.718728E+06 -2.771483E+05 -7.304367E+04 -7.095939E+05 -6.787035E+04  2.580906E+04
       110   7 -8.908296E+05 -7.296814E+04 -4.769013E+04 -2.750730E+05 -1.551924E+05 -4.297118E+04
       110   8 -8.736574E+05  7.366040E+04  7.640347E+04 -4.132487E+05 -1.219738E+05  2.932383E+03
       110   9 -9.181135E+05 -1.174311E+04  1.102097E+05 -5.225626E+05 -7.857991E+04  2.178332E+04
       110  10 -2.611642E+06 -9.417067E+05 -5.483635E+05 -9.705739E+05 -2.562075E-10  7.849706E-11
       110  11 -2.529189E+06 -6.208768E+05 -3.369230E+05 -9.479510E+05  5.701941E-10  7.192966E-10
       110  12 -2.518712E+06 -5.425413E+05 -2.563476E+05 -8.964184E+05  1.527891E-10  6.393226E-10
       110  13 -1.751626E+06 -5.074615E+05 -2.980166E+05 -6.230743E+05  9.290156E-10 -2.891704E-10
       110  14 -1.701774E+06 -2.736605E+05 -1.302469E+05 -6.807717E+05  1.792223E-09 -5.010953E-10
       110  15 -1.718733E+06 -2.771502E+05 -7.305359E+04 -7.095924E+05 -1.166717E-09  5.389842E-10
       110  16 -8.908560E+05 -7.297661E+04 -4.773894E+04 -2.750784E+05 -1.397808E-09  3.116436E-10
       110  17 -8.736734E+05  7.365640E+04  7.637546E+04 -4.132484E+05 -1.373514E-09  5.376451E-10
       110  18 -9.181203E+05 -1.174528E+04  1.101972E+05 -5.225612E+05  3.831863E-10  7.930204E-10
       110  19 -2.611581E+06 -9.416860E+05 -5.482488E+05 -9.705600E+05  2.353300E+05  7.305307E+04
       110  20 -2.529164E+06 -6.208705E+05 -3.368797E+05 -9.479500E+05  1.513553E+05  8.089323E+03
       110  21 -2.518708E+06 -5.425394E+05 -2.563397E+05 -8.964197E+05  5.717575E+04 -2.983058E+04
       110  22 -1.751584E+06 -5.074476E+05 -2.979383E+05 -6.230652E+05  1.952917E+05  5.803260E+04
       110  23 -1.701754E+06 -2.736555E+05 -1.302117E+05 -6.807714E+05  1.366753E+05  2.583665E+03
       110  24 -1.718728E+06 -2.771483E+05 -7.304367E+04 -7.095939E+05  6.787035E+04 -2.580906E+04
       110  25 -8.908296E+05 -7.296814E+04 -4.769013E+04 -2.750730E+05  1.551924E+05  4.297118E+04
       110  26 -8.736574E+05  7.366040E+04  7.640347E+04 -4.132487E+05  1.219738E+05 -2.932383E+03
       110  27 -9.181135E+05 -1.174311E+04  1.102097E+05 -5.225626E+05  7.857991E+04 -2.178332E+04
       111   1 -2.416083E+06 -5.647566E+05 -2.260948E+05 -8.956483E+05 -5.386973E+04  2.505940E+04
       111   2 -2.343256E+06 -5.069908E+05 -1.778723E+05 -8.597420E+05 -3.623302E+04  2.749359E+04
       111   3 -2.252664E+06 -4.857411E+05 -1.450252E+05 -8.490805E+05 -1.812617E+04  2.867240E+04
       111   4 -1.709120E+06 -2.976518E+05 -5.756171E+04 -6.971178E+05 -5.676668E+04  2.396666E+04
       111   5 -1.717225E+06 -2.733892E+05 -2.981287E+04 -6.867809E+05 -4.029393E+04  2.596577E+04
       111   6 -1.707336E+06 -2.854016E+05 -1.650098E+04 -7.016908E+05 -2.335364E+04  2.670906E+04
       111   7 -1.001654E+06 -3.050515E+04  1.109365E+05 -4.983777E+05 -5.966723E+04  2.287253E+04
       111   8 -1.090801E+06 -3.975766E+04  1.182193E+05 -5.136594E+05 -4.435931E+04  2.443625E+04
       111   9 -1.161711E+06 -8.504237E+04  1.120024E+05 -5.541833E+05 -2.858612E+04  2.474390E+04
       111  10 -2.416086E+06 -5.647581E+05 -2.261015E+05 -8.956472E+05  2.977505E-11  7.910836E-10
       111  11 -2.343257E+06 -5.069919E+05 -1.778762E+05 -8.597412E+05  1.375197E-09 -7.405551E-11
       111  12 -2.252664E+06 -4.857421E+05 -1.450273E+05 -8.490801E+05 -1.460742E-09  4.194108E-11
       111  13 -1.709123E+06 -2.976533E+05 -5.756885E+04 -6.971167E+05  1.057975E-09  5.517612E-10
       111  14 -1.717227E+06 -2.733903E+05 -2.981719E+04 -6.867801E+05 -1.791681E-09  3.545497E-11
       111  15 -1.707336E+06 -2.854025E+05 -1.650334E+04 -7.016903E+05 -4.467060E-10  2.012493E-10
       111  16 -1.001658E+06 -3.050666E+04  1.109289E+05 -4.983766E+05 -1.357366E-09  9.662412E-11
       111  17 -1.090804E+06 -3.975883E+04  1.182145E+05 -5.136585E+05 -8.081057E-10  3.304028E-10
       111  18 -1.161712E+06 -8.504324E+04  1.119997E+05 -5.541827E+05 -1.088658E-10  5.457441E-10
       111  19 -2.416083E+06 -5.647566E+05 -2.260948E+05 -8.956483E+05  5.386973E+04 -2.505940E+04
       111  20 -2.343256E+06 -5.069908E+05 -1.778723E+05 -8.597420E+05  3.623302E+04 -2.749359E+04
       111  21 -2.252664E+06 -4.857411E+05 -1.450252E+05 -8.490805E+05  1.812617E+04 -2.867240E+04
       111  22 -1.709120E+06 -2.976518E+05 -5.756171E+04 -6.971178E+05  5.676668E+04 -2.396666E+04
       111  23 -1.717225E+06 -2.733892E+05 -2.981287E+04 -6.867809E+05  4.029393E+04 -2.596577E+04
       111  24 -1.707336E+06 -2.854016E+05 -1.650098E+04 -7.016908E+05  2.335364E+04 -2.670906E+04
       111  25 -1.001654E+06 -3.050515E+04  1.109365E+05 -4.983777E+05  5.966723E+04 -2.287253E+04
       111  26 -1.090801E+06 -3.975766E+04  1.182193E+05 -5.136594E+05  4.435931E+04 -2.443625E+04
       111  27 -1.161711E+06 -8.504237E+04  1.120024E+05 -5.541833E+05  2.858612E+04 -2.474390E+04
       112   1 -2.182830E+06 -4.631369E+05 -1.246086E+05 -8.315797E+05 -1.493516E+04  2.624250E+04
       112   2 -2.110127E+06 -4.186611E+05 -9.917700E+04 -7.942395E+05 -9.474870E+03  2.230592E+04
       112   3 -2.013352E+06 -3.996188E+05 -7.651481E+04 -7.851895E+05 -3.987299E+03  1.828933E+04
       112   4 -1.706465E+06 -2.865199E+05 -1.252606E+04 -7.010354E+05 -1.983882E+04  2.440175E+04
       112   5 -1.718449E+06 -2.734984E+05 -6.846055E+03 -6.870012E+05 -1.445114E+04  2.043934E+04
       112   6 -1.706354E+06 -2.858951E+05 -3.875971E+03 -7.012591E+05 -9.036700E+03  1.639677E+04
       112   7 -1.229877E+06 -1.098876E+05  9.953997E+04 -5.704002E+05 -2.474654E+04  2.255947E+04
       112   8 -1.326619E+06 -1.283248E+05  8.547418E+04 -5.797011E+05 -1.943084E+04  1.857148E+04
       112   9 -1.399261E+06 -1.721642E+05  6.875675E+04 -6.172903E+05 -1.408885E+04  1.450319E+04
       112  10 -2.182830E+06 -4.631377E+05 -1.246103E+05 -8.315794E+05  1.280127E-09  4.807193E-10
       112  11 -2.110127E+06 -4.186617E+05 -9.917811E+04 -7.942394E+05  3.417751E-10 -2.289949E-10
       112  12 -2.013352E+06 -3.996191E+05 -7.651547E+04 -7.851894E+05 -1.490931E-09  4.212047E-10
       112  13 -1.706466E+06 -2.865206E+05 -1.252791E+04 -7.010350E+05 -1.109089E-09  1.326672E-10
       112  14 -1.718450E+06 -2.734989E+05 -6.847232E+03 -6.870010E+05  8.564595E-10  5.028933E-12
       112  15 -1.706354E+06 -2.858954E+05 -3.876629E+03 -7.012590E+05  1.178802E-09  1.531417E-09
       112  16 -1.229878E+06 -1.098883E+05  9.953786E+04 -5.703998E+05 -5.805022E-10 -7.030627E-14
       112  17 -1.326619E+06 -1.283252E+05  8.547283E+04 -5.797008E+05 -1.187098E-10  3.995755E-10
       112  18 -1.399261E+06 -1.721645E+05  6.875598E+04 -6.172902E+05  2.205339E-09  1.800709E-09
       112  19 -2.182830E+06 -4.631369E+05 -1.246086E+05 -8.315797E+05  1.493516E+04 -2.624250E+04
       112  20 -2.110127E+06 -4.186611E+05 -9.917700E+04 -7.942395E+05  9.474870E+03 -2.230592E+04
       112  21 -2.013352E+06 -3.996188E+05 -7.651481E+04 -7.851895E+05  3.987299E+03 -1.828933E+04
       112  22 -1.706465E+06 -2.865199E+05 -1.252606E+04 -7.010354E+05  1.983882E+04 -2.440175E+04
       112  23 -1.718449E+06 -2.734984E+05 -6.846055E+03 -6.870012E+05  1.445114E+04 -2.043934E+04
       112  24 -1.706354E+06 -2.858951E+05 -3.875971E+03 -7.012591E+05  9.036700E+03 -1.639677E+04
       112  25 -1.229877E+06 -1.098876E+05  9.953997E+04 -5.704002E+05  2.474654E+04 -2.255947E+04
       112  26 -1.326619E+06 -1.283248E+05  8.547418E+04 -5.797011E+05  1.943084E+04 -1.857148E+04
       112  27 -1.399261E+06 -1.721642E+05  6.875675E+04 -6.172903E+05  1.408885E+04 -1.450319E+04
       113   1 -1.944681E+06 -3.742938E+05 -5.891678E+04 -7.665631E+05 -2.249617E+03  1.537702E+04
       113   2 -1.871502E+06 -3.301256E+05 -3.794525E+04 -7.288140E+05  7.258391E+02  1.036825E+04
       113   3 -1.773515E+06 -3.109477E+05 -1.770100E+04 -7.196953E+05  3.704864E+03  5.346678E+03
       113   4 -1.706210E+06 -2.859807E+05 -3.002645E+03 -7.012626E+05 -7.298630E+03  1.348522E+04
       113   5 -1.718603E+06 -2.734674E+05 -1.911477E+03 -6.869518E+05 -4.334998E+03  8.472570E+03
       113   6 -1.706195E+06 -2.859417E+05 -1.537976E+03 -7.012733E+05 -1.367974E+03  3.447128E+03
       113   7 -1.467681E+06 -1.976633E+05  5.290785E+04 -6.359390E+05 -1.234977E+04  1.159262E+04
       113   8 -1.565682E+06 -2.168079E+05  3.412037E+04 -6.450806E+05 -9.397147E+03  6.576400E+03
       113   9 -1.638872E+06 -2.609358E+05  1.462443E+04 -6.828500E+05 -6.441304E+03  1.547394E+03
       113  10 -1.944681E+06 -3.742940E+05 -5.891724E+04 -7.665631E+05  2.637250E-09  2.686273E-09
       113  11 -1.871502E+06 -3.301257E+05 -3.794545E+04 -7.288140E+05 -4.347858E-09 -2.713055E-09
       113  12 -1.773515E+06 -3.109477E+05 -1.770108E+04 -7.196953E+05 -1.174940E-08 -6.871815E-09
       113  13 -1.706210E+06 -2.859809E+05 -3.003086E+03 -7.012626E+05  9.441238E-10  8.119829E-10
       113  14 -1.718603E+06 -2.734674E+05 -1.911647E+03 -6.869518E+05  4.543064E-10  3.192676E-11
       113  15 -1.706195E+06 -2.859417E+05 -1.538002E+03 -7.012733E+05  2.775567E-09 -1.677944E-09
       113  16 -1.467681E+06 -1.976635E+05  5.290731E+04 -6.359389E+05 -2.027756E-09 -2.136468E-10
       113  17 -1.565683E+06 -2.168080E+05  3.412012E+04 -6.450805E+05  8.188006E-09  2.183720E-09
       113  18 -1.638872E+06 -2.609359E+05  1.462435E+04 -6.828500E+05  1.590150E-08  3.995782E-09
       113  19 -1.944681E+06 -3.742938E+05 -5.891678E+04 -7.665631E+05  2.249617E+03 -1.537702E+04
       113  20 -1.871502E+06 -3.301256E+05 -3.794525E+04 -7.288140E+05 -7.258391E+02 -1.036825E+04
       113  21 -1.773515E+06 -3.109477E+05 -1.770100E+04 -7.196953E+05 -3.704864E+03 -5.346678E+03
       113  22 -1.706210E+06 -2.859807E+05 -3.002645E+03 -7.012626E+05  7.298630E+03 -1.348522E+04
       113  23 -1.718603E+06 -2.734674E+05 -1.911477E+03 -6.869518E+05  4.334998E+03 -8.472570E+03
       113  24 -1.706195E+06 -2.859417E+05 -1.537976E+03 -7.012733E+05  1.367974E+03 -3.447128E+03
       113  25 -1.467681E+06 -1.976633E+05  5.290785E+04 -6.359390E+05  1.234977E+04 -1.159262E+04
       113  26 -1.565682E+06 -2.168079E+05  3.412037E+04 -6.450806E+05  9.397147E+03 -6.576400E+03
       113  27 -1.638872E+06 -2.609358E+05  1.462443E+04 -6.828500E+05  6.441304E+03 -1.547394E+03
       114   1 -1.704633E+06 -2.853330E+05 -9.009735E+02 -7.008895E+05  5.139151E+03  2.306540E+03
       114   2 -1.631348E+06 -2.411531E+05  1.851235E+04 -6.630857E+05  8.165471E+03 -2.700852E+03
       114   3 -1.533243E+06 -2.219919E+05  3.716222E+04 -6.539483E+05  1.118955E+04 -7.699533E+03
       114   4 -1.706192E+06 -2.859480E+05 -1.562208E+03 -7.012821E+05  6.418271E+01  4.062716E+02
       114   5 -1.718602E+06 -2.734506E+05 -2.042419E+03 -6.869427E+05  3.098015E+03 -4.598694E+03
       114   6 -1.706200E+06 -2.859750E+05 -3.292140E+03 -7.012738E+05  6.129443E+03 -9.594968E+03
       114   7 -1.707752E+06 -2.865629E+05 -2.223340E+03 -7.016747E+05 -5.010861E+03 -1.494025E+03
       114   8 -1.805849E+06 -3.057479E+05 -2.259798E+04 -7.107970E+05 -1.968741E+03 -6.496276E+03
       114   9 -1.879130E+06 -3.499567E+05 -4.374907E+04 -7.485877E+05  1.070805E+03 -1.148985E+04
       114  10 -1.704633E+06 -2.853331E+05 -9.010333E+02 -7.008895E+05  1.633362E-08  3.715077E-09
       114  11 -1.631348E+06 -2.411532E+05  1.851221E+04 -6.630856E+05  7.862493E-09  3.010608E-09
       114  12 -1.533243E+06 -2.219920E+05  3.716188E+04 -6.539483E+05 -2.270109E-09 -7.099413E-10
       114  13 -1.706192E+06 -2.859480E+05 -1.562209E+03 -7.012821E+05  2.112785E-09 -1.503669E-09
       114  14 -1.718602E+06 -2.734506E+05 -2.042477E+03 -6.869427E+05  1.062283E-09  9.082066E-10
       114  15 -1.706200E+06 -2.859751E+05 -3.292384E+03 -7.012737E+05 -4.788026E-10  7.294166E-10
       114  16 -1.707752E+06 -2.865629E+05 -2.223392E+03 -7.016747E+05 -1.191968E-08 -6.008083E-09
       114  17 -1.805849E+06 -3.057480E+05 -2.259807E+04 -7.107970E+05 -7.483365E-09 -2.770712E-09
       114  18 -1.879130E+06 -3.499568E+05 -4.374932E+04 -7.485877E+05  9.009342E-10  1.685207E-09
       114  19 -1.704633E+06 -2.853330E+05 -9.009735E+02 -7.008895E+05 -5.139151E+03 -2.306540E+03
       114  20 -1.631348E+06 -2.411531E+05  1.851235E+04 -6.630857E+05 -8.165471E+03  2.700852E+03
       114  21 -1.533243E+06 -2.219919E+05  3.716222E+04 -6.539483E+05 -1.118955E+04  7.699533E+03
       114  22 -1.706192E+06 -2.859480E+05 -1.562208E+03 -7.012821E+05 -6.418271E+01 -4.062716E+02
       114  23 -1.718602E+06 -2.734506E+05 -2.042419E+03 -6.869427E+05 -3.098015E+03  4.598694E+03
       114  24 -1.706200E+06 -2.859750E+05 -3.292140E+03 -7.012738E+05 -6.129443E+03  9.594968E+03
       114  25 -1.707752E+06 -2.865629E+05 -2.223340E+03 -7.016747E+05  5.010861E+03  1.494025E+03
       114  26 -1.805849E+06 -3.057479E+05 -2.259798E+04 -7.107970E+05  1.968741E+03  6.496276E+03
       114  27 -1.879130E+06 -3.499567E+05 -4.374907E+04 -7.485877E+05 -1.070805E+03  1.148985E+04
       115   1 -1.464684E+06 -1.964664E+05  5.293293E+04 -6.353044E+05  1.299059E+04 -1.059436E+04
       115   2 -1.391736E+06 -1.524738E+05  6.937801E+04 -5.975898E+05  1.871630E+04 -1.453841E+04
       115   3 -1.294715E+06 -1.340527E+05  8.286162E+04 -5.882698E+05  2.441814E+04 -1.841024E+04
       115   4 -1.706349E+06 -2.858975E+05 -4.276163E+03 -7.012930E+05  7.926633E+03 -1.249169E+04
       115   5 -1.718433E+06 -2.734419E+05 -7.586912E+03 -6.869724E+05  1.371741E+04 -1.641253E+04
       115   6 -1.706464E+06 -2.865714E+05 -1.391155E+04 -7.010494E+05  1.948381E+04 -2.026133E+04
       115   7 -1.947951E+06 -3.753227E+05 -6.148788E+04 -7.672567E+05  2.864925E+03 -1.438819E+04
       115   8 -2.045021E+06 -3.944016E+05 -8.455869E+04 -7.763115E+05  8.721411E+03 -1.828558E+04
       115   9 -2.118047E+06 -4.390793E+05 -1.106975E+05 -8.137616E+05  1.455301E+04 -2.211110E+04
       115  10 -1.464684E+06 -1.964665E+05  5.293241E+04 -6.353043E+05  1.953376E-09  7.729300E-10
       115  11 -1.391737E+06 -1.524742E+05  6.937696E+04 -5.975896E+05  1.446778E-09  7.095787E-10
       115  12 -1.294716E+06 -1.340532E+05  8.285987E+04 -5.882695E+05 -2.426013E-10 -2.729334E-10
       115  13 -1.706349E+06 -2.858977E+05 -4.276574E+03 -7.012929E+05 -7.098422E-10  6.601255E-10
       115  14 -1.718433E+06 -2.734422E+05 -7.587772E+03 -6.869722E+05 -3.459837E-10  8.915219E-11
       115  15 -1.706464E+06 -2.865719E+05 -1.391303E+04 -7.010491E+05 -3.056258E-09 -1.078993E-09
       115  16 -1.947951E+06 -3.753229E+05 -6.148829E+04 -7.672567E+05 -1.860322E-09  4.322892E-10
       115  17 -2.045022E+06 -3.944020E+05 -8.455946E+04 -7.763114E+05 -1.933689E-09 -4.411820E-10
       115  18 -2.118047E+06 -4.390798E+05 -1.106988E+05 -8.137613E+05 -4.073561E-09 -1.497646E-09
       115  19 -1.464684E+06 -1.964664E+05  5.293293E+04 -6.353044E+05 -1.299059E+04  1.059436E+04
       115  20 -1.391736E+06 -1.524738E+05  6.937801E+04 -5.975898E+05 -1.871630E+04  1.453841E+04
       115  21 -1.294715E+06 -1.340527E+05  8.286162E+04 -5.882698E+05 -2.441814E+04  1.841024E+04
       115  22 -1.706349E+06 -2.858975E+05 -4.276163E+03 -7.012930E+05 -7.926633E+03  1.249169E+04
       115  23 -1.718433E+06 -2.734419E+05 -7.586912E+03 -6.869724E+05 -1.371741E+04  1.641253E+04
       115  24 -1.706464E+06 -2.865714E+05 -1.391155E+04 -7.010494E+05 -1.948381E+04  2.026133E+04
       115  25 -1.947951E+06 -3.753227E+05 -6.148788E+04 -7.672567E+05 -2.864925E+03  1.438819E+04
       115  26 -2.045021E+06 -3.944016E+05 -8.455869E+04 -7.763115E+05 -8.721411E+03  1.828558E+04
       115  27 -2.118047E+06 -4.390793E+05 -1.106975E+05 -8.137616E+05 -1.455301E+04  2.211110E+04
       116   1 -1.226152E+06 -1.091641E+05  9.495607E+04 -5.722719E+05  2.849935E+04 -2.051332E+04
       116   2 -1.154780E+06 -6.339529E+04  9.979527E+04 -5.311411E+05  4.604369E+04 -1.959948E+04
       116   3 -1.065811E+06 -5.516249E+04  8.945264E+04 -5.151584E+05  6.315305E+04 -1.751023E+04
       116   4 -1.707410E+06 -2.853518E+05 -1.833371E+04 -7.018073E+05  2.325884E+04 -2.248014E+04
       116   5 -1.717080E+06 -2.732670E+05 -3.312314E+04 -6.866930E+05  4.189407E+04 -2.115925E+04
       116   6 -1.709382E+06 -2.989462E+05 -6.397163E+04 -6.967318E+05  6.009185E+04 -1.866344E+04
       116   7 -2.188438E+06 -4.615244E+05 -1.316396E+05 -8.312515E+05  1.802275E+04 -2.444535E+04
       116   8 -2.279063E+06 -4.831144E+05 -1.660634E+05 -8.421154E+05  3.774854E+04 -2.271746E+04
       116   9 -2.352536E+06 -5.426946E+05 -2.174247E+05 -8.781305E+05  5.703410E+04 -1.981531E+04
       116  10 -1.226153E+06 -1.091648E+05  9.495375E+04 -5.722715E+05 -3.910919E-09 -1.513157E-09
       116  11 -1.154782E+06 -6.339627E+04  9.979056E+04 -5.311403E+05 -9.892642E-11  6.970822E-10
       116  12 -1.065815E+06 -5.516389E+04  8.944456E+04 -5.151575E+05  9.595830E-10  1.149263E-09
       116  13 -1.707411E+06 -2.853525E+05 -1.833568E+04 -7.018069E+05 -1.848162E-09 -5.809810E-10
       116  14 -1.717082E+06 -2.732679E+05 -3.312728E+04 -6.866923E+05  6.416910E-10  8.161609E-10
       116  15 -1.709386E+06 -2.989476E+05 -6.397908E+04 -6.967308E+05 -2.615116E-10  2.567141E-10
       116  16 -2.188438E+06 -4.615252E+05 -1.316414E+05 -8.312512E+05 -4.375872E-10  9.485579E-11
       116  17 -2.279064E+06 -4.831153E+05 -1.660671E+05 -8.421147E+05  6.608795E-10  7.878699E-10
       116  18 -2.352540E+06 -5.426958E+05 -2.174316E+05 -8.781295E+05 -3.016506E-10 -5.613981E-10
       116  19 -1.226152E+06 -1.091641E+05  9.495607E+04 -5.722719E+05 -2.849935E+04  2.051332E+04
       116  20 -1.154780E+06 -6.339529E+04  9.979527E+04 -5.311411E+05 -4.604369E+04  1.959948E+04
       116  21 -1.065811E+06 -5.516249E+04  8.945264E+04 -5.151584E+05 -6.315305E+04  1.751023E+04
       116  22 -1.707410E+06 -2.853518E+05 -1.833371E+04 -7.018073E+05 -2.325884E+04  2.248014E+04
       116  23 -1.717080E+06 -2.732670E+05 -3.312314E+04 -6.866930E+05 -4.189407E+04  2.115925E+04
       116  24 -1.709382E+06 -2.989462E+05 -6.397163E+04 -6.967318E+05 -6.009185E+04  1.866344E+04
       116  25 -2.188438E+06 -4.615244E+05 -1.316396E+05 -8.312515E+05 -1.802275E+04  2.444535E+04
       116  26 -2.279063E+06 -4.831144E+05 -1.660634E+05 -8.421154E+05 -3.774854E+04  2.271746E+04
       116  27 -2.352536E+06 -5.426946E+05 -2.174247E+05 -8.781305E+05 -5.703410E+04  1.981531E+04
       117   1 -9.799263E+05 -3.694694E+04  8.719914E+04 -5.440915E+05  8.254556E+04 -1.610609E+04
       117   2 -9.372821E+05  5.364592E+04  4.690763E+04 -4.260733E+05  1.354969E+05  5.755991E+03
       117   3 -9.663894E+05 -1.123267E+05 -9.728909E+04 -2.734300E+05  1.789238E+05  5.297047E+04
       117   4 -1.720007E+06 -2.762130E+05 -8.118055E+04 -7.106674E+05  7.216636E+04 -2.000380E+04
       117   5 -1.699934E+06 -2.734591E+05 -1.447005E+05 -6.799275E+05  1.489161E+05  1.078509E+04
       117   6 -1.756477E+06 -5.322160E+05 -3.311212E+05 -6.145420E+05  2.161289E+05  6.692281E+04
       117   7 -2.459547E+06 -5.154720E+05 -2.495965E+05 -8.770774E+05  6.180054E+04 -2.389799E+04
       117   8 -2.461999E+06 -6.004663E+05 -3.363528E+05 -9.334770E+05  1.623173E+05  1.580503E+04
       117   9 -2.545904E+06 -9.518492E+05 -5.650023E+05 -9.551938E+05  2.532817E+05  8.083692E+04
       117  10 -9.799337E+05 -3.694905E+04  8.718584E+04 -5.440904E+05 -1.328399E-09 -1.111256E-10
       117  11 -9.373018E+05  5.364094E+04  4.687301E+04 -4.260739E+05  4.190818E-09  7.638343E-10
       117  12 -9.664246E+05 -1.123383E+05 -9.735463E+04 -2.734376E+05  2.289318E-09  9.446014E-10
       117  13 -1.720012E+06 -2.762148E+05 -8.119111E+04 -7.106662E+05  1.773988E-09  2.803700E-10
       117  14 -1.699958E+06 -2.734652E+05 -1.447425E+05 -6.799288E+05  3.365789E-09  8.242030E-10
       117  15 -1.756529E+06 -5.322334E+05 -3.312177E+05 -6.145537E+05  1.172369E-09  4.563748E-10
       117  16 -2.459551E+06 -5.154736E+05 -2.496048E+05 -8.770762E+05  2.744916E-09  8.754379E-10
       117  17 -2.462028E+06 -6.004737E+05 -3.364030E+05 -9.334791E+05  3.886898E-09  1.814354E-09
       117  18 -2.545975E+06 -9.518736E+05 -5.651358E+05 -9.552104E+05  1.161283E-09  1.689633E-10
       117  19 -9.799263E+05 -3.694694E+04  8.719914E+04 -5.440915E+05 -8.254556E+04  1.610609E+04
       117  20 -9.372821E+05  5.364592E+04  4.690763E+04 -4.260733E+05 -1.354969E+05 -5.755991E+03
       117  21 -9.663894E+05 -1.123267E+05 -9.728909E+04 -2.734300E+05 -1.789238E+05 -5.297047E+04
       117  22 -1.720007E+06 -2.762130E+05 -8.118055E+04 -7.106674E+05 -7.216636E+04  2.000380E+04
       117  23 -1.699934E+06 -2.734591E+05 -1.447005E+05 -6.799275E+05 -1.489161E+05 -1.078509E+04
       117  24 -1.756477E+06 -5.322160E+05 -3.311212E+05 -6.145420E+05 -2.161289E+05 -6.692281E+04
       117  25 -2.459547E+06 -5.154720E+05 -2.495965E+05 -8.770774E+05 -6.180054E+04  2.389799E+04
       117  26 -2.461999E+06 -6.004663E+05 -3.363528E+05 -9.334770E+05 -1.623173E+05 -1.580503E+04
       117  27 -2.545904E+06 -9.518492E+05 -5.650023E+05 -9.551938E+05 -2.532817E+05 -8.083692E+04
       118   1 -3.844925E+05 -4.049141E+04 -1.617281E+04  1.767142E+04  6.245528E+04  8.059327E+03
       118   2 -3.440589E+05 -1.290270E+05 -6.011107E+04 -7.056574E+03  4.730848E+04  2.544082E+04
       118   3 -2.780693E+05 -1.237181E+05 -7.070123E+04 -5.100521E+04  3.217020E+04  2.712418E+04
       118   4  2.120564E+05  1.075157E+05  1.277035E+05 -3.613225E+04  8.794629E+04  8.069302E+03
       118   5  1.979314E+05  3.124895E+03  5.871352E+04 -2.649538E+04  5.695755E+04  2.544222E+04
       118   6  2.120833E+05 -4.720258E+03  3.404938E+04 -3.607678E+04  2.597962E+04  2.712150E+04
       118   7  8.089384E+05  2.555081E+05  2.715583E+05 -8.998787E+04  1.134617E+05  8.074856E+03
       118   8  7.401977E+05  1.352587E+05  1.775208E+05 -4.595140E+04  6.661493E+04  2.544302E+04
       118   9  7.024627E+05  1.142627E+05  1.387863E+05 -2.113640E+04  1.978422E+04  2.711852E+04
       118  10 -3.844967E+05 -4.049253E+04 -1.618027E+04  1.767102E+04 -6.821155E-10  2.151851E-10
       118  11 -3.440615E+05 -1.290283E+05 -6.011650E+04 -7.057544E+03  4.029709E-11 -4.812065E-11
       118  12 -2.780706E+05 -1.237191E+05 -7.070456E+04 -5.100592E+04  2.553897E-10  4.960949E-10
       118  13  2.120480E+05  1.075136E+05  1.276888E+05 -3.613282E+04  2.309114E-14 -2.435411E-11
       118  14  1.979277E+05  3.123329E+03  5.870621E+04 -2.649655E+04 -2.289926E-09 -7.140085E-10
       118  15  2.120824E+05 -4.721229E+03  3.404673E+04 -3.607735E+04  1.489062E-10  5.291732E-10
       118  16  8.089246E+05  2.555046E+05  2.715340E+05 -8.998860E+04  5.669404E-10 -2.650016E-10
       118  17  7.401927E+05  1.352568E+05  1.775113E+05 -4.595276E+04 -1.445556E-09 -3.929262E-10
       118  18  7.024621E+05  1.142618E+05  1.387842E+05 -2.113683E+04 -1.832581E-10  4.301685E-10
       118  19 -3.844925E+05 -4.049141E+04 -1.617281E+04  1.767142E+04 -6.245528E+04 -8.059327E+03
       118  20 -3.440589E+05 -1.290270E+05 -6.011107E+04 -7.056574E+03 -4.730848E+04 -2.544082E+04
       118  21 -2.780693E+05 -1.237181E+05 -7.070123E+04 -5.100521E+04 -3.217020E+04 -2.712418E+04
       118  22  2.120564E+05  1.075157E+05  1.277035E+05 -3.613225E+04 -8.794629E+04 -8.069302E+03
       118  23  1.979314E+05  3.124895E+03  5.871352E+04 -2.649538E+04 -5.695755E+04 -2.544222E+04
       118  24  2.120833E+05 -4.720258E+03  3.404938E+04 -3.607678E+04 -2.597962E+04 -2.712150E+04
       118  25  8.089384E+05  2.555081E+05  2.715583E+05 -8.998787E+04 -1.134617E+05 -8.074856E+03
       118  26  7.401977E+05  1.352587E+05  1.775208E+05 -4.595140E+04 -6.661493E+04 -2.544302E+04
       118  27  7.024627E+05  1.142627E+05  1.387863E+05 -2.113640E+04 -1.978422E+04 -2.711852E+04
       119   1 -2.424308E+05 -1.039340E+05 -6.944656E+04 -3.456224E+04  2.309989E+04  2.415505E+04
       119   2 -1.905728E+05 -9.614931E+04 -6.989649E+04 -2.597710E+04  1.650055E+04  2.192741E+04
       119   3 -1.365957E+05 -8.354975E+04 -6.483227E+04 -3.724784E+04  9.899642E+03  1.897124E+04
       119   4  2.063046E+05  5.083529E+03  2.689147E+04 -3.623213E+04  2.123387E+04  2.415328E+04
       119   5  2.051897E+05 -8.560113E+01  1.465537E+04 -2.630436E+04  1.389550E+04  2.192608E+04
       119   6  2.063184E+05 -3.133360E+02  8.443653E+03 -3.623159E+04  6.556117E+03  1.897055E+04
       119   7  6.552295E+05  1.140879E+05  1.232178E+05 -3.790324E+04  1.936651E+04  2.415152E+04
       119   8  6.010997E+05  9.596789E+04  9.919818E+04 -2.663184E+04  1.128880E+04  2.192475E+04
       119   9  5.493432E+05  8.291542E+04  8.171281E+04 -3.521478E+04  3.210771E+03  1.896985E+04
       119  10 -2.424316E+05 -1.039348E+05 -6.944866E+04 -3.456269E+04  5.280252E-10  4.054210E-10
       119  11 -1.905732E+05 -9.614990E+04 -6.989790E+04 -2.597739E+04 -2.958397E-10  9.240393E-11
       119  12 -1.365959E+05 -8.355017E+04 -6.483313E+04 -3.724799E+04  5.727103E-10 -9.881521E-10
       119  13  2.063040E+05  5.082781E+03  2.688953E+04 -3.623254E+04 -1.215464E-12  5.261656E-10
       119  14  2.051894E+05 -8.616925E+01  1.465410E+04 -2.630461E+04  5.262902E-10 -1.030670E-12
       119  15  2.063183E+05 -3.137341E+02  8.442896E+03 -3.623169E+04 -1.822508E-10 -6.706257E-10
       119  16  6.552289E+05  1.140871E+05  1.232160E+05 -3.790362E+04 -9.241219E-11  8.068739E-10
       119  17  6.010994E+05  9.596734E+04  9.919704E+04 -2.663204E+04 -1.286962E-09 -1.746834E-10
       119  18  5.493431E+05  8.291503E+04  8.171212E+04 -3.521482E+04 -6.211382E-10 -2.755251E-10
       119  19 -2.424308E+05 -1.039340E+05 -6.944656E+04 -3.456224E+04 -2.309989E+04 -2.415505E+04
       119  20 -1.905728E+05 -9.614931E+04 -6.989649E+04 -2.597710E+04 -1.650055E+04 -2.192741E+04
       119  21 -1.365957E+05 -8.354975E+04 -6.483227E+04 -3.724784E+04 -9.899642E+03 -1.897124E+04
       119  22  2.063046E+05  5.083529E+03  2.689147E+04 -3.623213E+04 -2.123387E+04 -2.415328E+04
       119  23  2.051897E+05 -8.560113E+01  1.465537E+04 -2.630436E+04 -1.389550E+04 -2.192608E+04
       119  24  2.063184E+05 -3.133360E+02  8.443653E+03 -3.623159E+04 -6.556117E+03 -1.897055E+04
       119  25  6.552295E+05  1.140879E+05  1.232178E+05 -3.790324E+04 -1.936651E+04 -2.415152E+04
       119  26  6.010997E+05  9.596789E+04  9.919818E+04 -2.663184E+04 -1.128880E+04 -2.192475E+04
       119  27  5.493432E+05  8.291542E+04  8.171281E+04 -3.521478E+04 -3.210771E+03 -1.896985E+04
       120   1 -9.605996E+04 -7.307942E+04 -5.782810E+04 -3.637835E+04  8.383138E+03  1.706825E+04
       120   2 -4.338839E+04 -6.050958E+04 -4.946029E+04 -2.641678E+04  6.598226E+03  1.393402E+04
       120   3  9.597945E+03 -4.767849E+04 -3.986161E+04 -3.631674E+04  4.812221E+03  1.076717E+04
       120   4  2.058960E+05  1.655810E+02  6.455400E+03 -3.623310E+04  5.242164E+03  1.706788E+04
       120   5  2.057416E+05 -6.108297E+01  3.672180E+03 -2.630261E+04  3.423413E+03  1.393408E+04
       120   6  2.059042E+05 -2.083868E+01  2.142646E+03 -3.623317E+04  1.603717E+03  1.076766E+04
       120   7  5.079378E+05  7.340466E+04  7.073370E+04 -3.608778E+04  2.099684E+03  1.706751E+04
       120   8  4.549301E+05  6.038338E+04  5.680111E+04 -2.618839E+04  2.473440E+02  1.393413E+04
       120   9  4.022467E+05  4.763431E+04  4.414470E+04 -3.614956E+04 -1.605788E+03  1.076815E+04
       120  10 -9.606011E+04 -7.307976E+04 -5.782878E+04 -3.637846E+04  1.219005E-09 -1.609716E-09
       120  11 -4.338849E+04 -6.050980E+04 -4.946074E+04 -2.641685E+04 -9.404196E-10 -1.143879E-09
       120  12  9.597889E+03 -4.767863E+04 -3.986187E+04 -3.631679E+04 -2.096884E-09  9.967093E-10
       120  13  2.058959E+05  1.652607E+02  6.454801E+03 -3.623317E+04 -1.081270E-09 -9.453412E-10
       120  14  2.057416E+05 -6.129463E+01  3.671793E+03 -2.630265E+04  1.120355E-09 -6.586292E-10
       120  15  2.059041E+05 -2.096389E+01  2.142423E+03 -3.623318E+04  1.231731E-09  9.865627E-10
       120  16  5.079378E+05  7.340435E+04  7.073314E+04 -3.608781E+04 -1.538620E-10 -3.029843E-10
       120  17  4.549300E+05  6.038317E+04  5.680074E+04 -2.618839E+04 -9.116836E-10 -3.606303E-11
       120  18  4.022467E+05  4.763418E+04  4.414448E+04 -3.614955E+04  1.591157E-09  1.382510E-09
       120  19 -9.605996E+04 -7.307942E+04 -5.782810E+04 -3.637835E+04 -8.383138E+03 -1.706825E+04
       120  20 -4.338839E+04 -6.050958E+04 -4.946029E+04 -2.641678E+04 -6.598226E+03 -1.393402E+04
       120  21  9.597945E+03 -4.767849E+04 -3.986161E+04 -3.631674E+04 -4.812221E+03 -1.076717E+04
       120  22  2.058960E+05  1.655810E+02  6.455400E+03 -3.623310E+04 -5.242164E+03 -1.706788E+04
       120  23  2.057416E+05 -6.108297E+01  3.672180E+03 -2.630261E+04 -3.423413E+03 -1.393408E+04
       120  24  2.059042E+05 -2.083868E+01  2.142646E+03 -3.623317E+04 -1.603717E+03 -1.076766E+04
       120  25  5.079378E+05  7.340466E+04  7.073370E+04 -3.608778E+04 -2.099684E+03 -1.706751E+04
       120  26  4.549301E+05  6.038338E+04  5.680111E+04 -2.618839E+04 -2.473440E+02 -1.393413E+04
       120  27  4.022467E+05  4.763431E+04  4.414470E+04 -3.614956E+04  1.605788E+03 -1.076815E+04
       121   1  5.043804E+04 -3.767771E+04 -3.134508E+04 -3.626865E+04  4.458908E+03  8.916189E+03
       121   2  1.031924E+05 -2.490484E+04 -2.086960E+04 -2.632797E+04  3.958558E+03  5.742847E+03
       121   3  1.560126E+05 -1.210715E+04 -1.006437E+04 -3.623070E+04  3.457785E+03  2.568533E+03
       121   4  2.058510E+05 -2.320595E-01  1.650735E+03 -3.622919E+04  1.260499E+03  8.916863E+03
       121   5  2.058210E+05 -5.958835E+00  1.013673E+03 -2.630759E+04  7.589300E+02  5.743692E+03
       121   6  2.058543E+05  1.349133E+01  7.071806E+02 -3.622920E+04  2.569808E+02  2.569559E+03
       121   7  3.612867E+05  3.767568E+04  3.464521E+04 -3.618972E+04 -1.938699E+03  8.917536E+03
       121   8  3.084595E+05  2.489225E+04  2.289638E+04 -2.628720E+04 -2.441219E+03  5.744537E+03
       121   9  2.556983E+05  1.213398E+04  1.147863E+04 -3.622770E+04 -2.944077E+03  2.570585E+03
       121  10  5.043800E+04 -3.767780E+04 -3.134527E+04 -3.626869E+04  1.771591E-09  1.245710E-09
       121  11  1.031924E+05 -2.490488E+04 -2.086969E+04 -2.632799E+04 -1.489731E-09  2.486072E-10
       121  12  1.560126E+05 -1.210716E+04 -1.006441E+04 -3.623071E+04 -2.554443E-09  1.682829E-10
       121  13  2.058510E+05 -3.178754E-01  1.650582E+03 -3.622920E+04 -2.219826E-09  1.282877E-09
       121  14  2.058210E+05 -5.994419E+00  1.013610E+03 -2.630759E+04  5.911269E-10 -5.356149E-10
       121  15  2.058543E+05  1.348423E+01  7.071681E+02 -3.622920E+04 -3.341570E-09 -4.843697E-10
       121  16  3.612867E+05  3.767559E+04  3.464505E+04 -3.618971E+04 -2.808176E-09  6.635562E-10
       121  17  3.084594E+05  2.489221E+04  2.289630E+04 -2.628719E+04 -7.533260E-10 -7.372818E-10
       121  18  2.556983E+05  1.213397E+04  1.147860E+04 -3.622769E+04  2.177924E-09 -8.577379E-10
       121  19  5.043804E+04 -3.767771E+04 -3.134508E+04 -3.626865E+04 -4.458908E+03 -8.916189E+03
       121  20  1.031924E+05 -2.490484E+04 -2.086960E+04 -2.632797E+04 -3.958558E+03 -5.742847E+03
       121  21  1.560126E+05 -1.210715E+04 -1.006437E+04 -3.623070E+04 -3.457785E+03 -2.568533E+03
       121  22  2.058510E+05 -2.320595E-01  1.650735E+03 -3.622919E+04 -1.260499E+03 -8.916863E+03
       121  23  2.058210E+05 -5.958835E+00  1.013673E+03 -2.630759E+04 -7.589300E+02 -5.743692E+03
       121  24  2.058543E+05  1.349133E+01  7.071806E+02 -3.622920E+04 -2.569808E+02 -2.569559E+03
       121  25  3.612867E+05  3.767568E+04  3.464521E+04 -3.618972E+04  1.938699E+03 -8.917536E+03
       121  26  3.084595E+05  2.489225E+04  2.289638E+04 -2.628720E+04  2.441219E+03 -5.744537E+03
       121  27  2.556983E+05  1.213398E+04  1.147863E+04 -3.622770E+04  2.944077E+03 -2.570585E+03
       122   1  1.968833E+05 -2.132449E+03 -1.127168E+03 -3.623548E+04  3.334721E+03  7.208427E+02
       122   2  2.496491E+05  1.063325E+04  9.994066E+03 -2.630817E+04  3.010869E+03 -2.452954E+03
       122   3  3.024515E+05  2.341679E+04  2.132713E+04 -3.622121E+04  2.687156E+03 -5.625652E+03
       122   4  2.058485E+05  1.356507E+01  6.398112E+02 -3.622858E+04  1.339870E+02  7.218999E+02
       122   5  2.058304E+05  3.238043E+00  6.513531E+02 -2.630836E+04 -1.888462E+02 -2.451977E+03
       122   6  2.058471E+05  1.093610E+01  8.743025E+02 -3.622858E+04 -5.115119E+02 -5.624746E+03
       122   7  2.148137E+05  2.159580E+03  2.406825E+03 -3.622168E+04 -3.066793E+03  7.229570E+02
       122   8  1.620136E+05 -1.062689E+04 -8.691432E+03 -2.630855E+04 -3.388338E+03 -2.451001E+03
       122   9  1.092514E+05 -2.339551E+04 -1.957902E+04 -3.623594E+04 -3.709690E+03 -5.623839E+03
       122  10  1.968833E+05 -2.132453E+03 -1.127190E+03 -3.623548E+04  9.643131E-12  2.727557E-10
       122  11  2.496491E+05  1.063324E+04  9.994038E+03 -2.630817E+04  7.184154E-10  1.876959E-10
       122  12  3.024515E+05  2.341675E+04  2.132706E+04 -3.622120E+04 -3.584754E-10 -8.811441E-11
       122  13  2.058485E+05  1.356450E+01  6.398102E+02 -3.622858E+04 -2.211585E-09  4.193965E-10
       122  14  2.058304E+05  3.231577E+00  6.513417E+02 -2.630836E+04 -3.824816E-09  4.308860E-10
       122  15  2.058470E+05  1.090205E+01  8.742426E+02 -3.622858E+04 -5.573836E-10 -6.753674E-10
       122  16  2.148137E+05  2.159577E+03  2.406807E+03 -3.622168E+04 -6.650244E-11 -7.722334E-11
       122  17  1.620136E+05 -1.062690E+04 -8.691465E+03 -2.630856E+04 -1.579284E-09  2.175238E-10
       122  18  1.092514E+05 -2.339555E+04 -1.957910E+04 -3.623596E+04 -1.360705E-09 -5.684688E-10
       122  19  1.968833E+05 -2.132449E+03 -1.127168E+03 -3.623548E+04 -3.334721E+03 -7.208427E+02
       122  20  2.496491E+05  1.063325E+04  9.994066E+03 -2.630817E+04 -3.010869E+03  2.452954E+03
       122  21  3.024515E+05  2.341679E+04  2.132713E+04 -3.622121E+04 -2.687156E+03  5.625652E+03
       122  22  2.058485E+05  1.356507E+01  6.398112E+02 -3.622858E+04 -1.339870E+02 -7.218999E+02
       122  23  2.058304E+05  3.238043E+00  6.513531E+02 -2.630836E+04  1.888462E+02  2.451977E+03
       122  24  2.058471E+05  1.093610E+01  8.743025E+02 -3.622858E+04  5.115119E+02  5.624746E+03
       122  25  2.148137E+05  2.159580E+03  2.406825E+03 -3.622168E+04  3.066793E+03 -7.229570E+02
       122  26  1.620136E+05 -1.062689E+04 -8.691432E+03 -2.630855E+04  3.388338E+03  2.451001E+03
       122  27  1.092514E+05 -2.339551E+04 -1.957902E+04 -3.623594E+04  3.709690E+03  5.623839E+03
       123   1  3.433676E+05  3.338313E+04  3.053826E+04 -3.620811E+04  2.519010E+03 -7.475580E+03
       123   2  3.961098E+05  4.614243E+04  4.234199E+04 -2.627157E+04  1.615094E+03 -1.064150E+04
       123   3  4.490093E+05  5.903660E+04  5.476778E+04 -3.618359E+04  7.117953E+02 -1.377768E+04
       123   4  2.058703E+05  6.957697E-01  1.080115E+03 -3.623047E+04 -6.888197E+02 -7.474795E+03
       123   5  2.057929E+05 -2.368019E+01  1.762502E+03 -2.630599E+04 -1.562642E+03 -1.064106E+04
       123   6  2.058641E+05  8.160197E+01  3.046076E+03 -3.623044E+04 -2.435771E+03 -1.377756E+04
       123   7  6.839076E+04 -3.338297E+04 -2.837909E+04 -3.625283E+04 -3.895950E+03 -7.474009E+03
       123   8  1.551001E+04 -4.619214E+04 -3.881904E+04 -2.634040E+04 -4.739419E+03 -1.064061E+04
       123   9 -3.722541E+04 -5.887723E+04 -4.867898E+04 -3.627726E+04 -5.582124E+03 -1.377744E+04
       123  10  3.433676E+05  3.338307E+04  3.053814E+04 -3.620810E+04 -1.487024E-09  8.298515E-11
       123  11  3.961098E+05  4.614231E+04  4.234177E+04 -2.627156E+04 -7.719275E-10 -3.555774E-10
       123  12  4.490092E+05  5.903640E+04  5.476742E+04 -3.618358E+04 -6.640669E-12 -5.248099E-10
       123  13  2.058703E+05  6.356388E-01  1.080009E+03 -3.623048E+04 -1.015491E-09 -4.866247E-10
       123  14  2.057928E+05 -2.380245E+01  1.762285E+03 -2.630601E+04 -1.495411E-09 -2.425162E-10
       123  15  2.058640E+05  8.139652E+01  3.045708E+03 -3.623046E+04 -9.783494E-10 -3.756370E-11
       123  16  6.839073E+04 -3.338304E+04 -2.837923E+04 -3.625285E+04  1.050975E-09 -1.607567E-10
       123  17  1.550996E+04 -4.619227E+04 -3.881929E+04 -2.634044E+04 -2.351527E-10  1.807767E-10
       123  18 -3.722549E+04 -5.887744E+04 -4.867940E+04 -3.627733E+04 -6.183728E-10  2.731376E-10
       123  19  3.433676E+05  3.338313E+04  3.053826E+04 -3.620811E+04 -2.519010E+03  7.475580E+03
       123  20  3.961098E+05  4.614243E+04  4.234199E+04 -2.627157E+04 -1.615094E+03  1.064150E+04
       123  21  4.490093E+05  5.903660E+04  5.476778E+04 -3.618359E+04 -7.117953E+02  1.377768E+04
       123  22  2.058703E+05  6.957697E-01  1.080115E+03 -3.623047E+04  6.888197E+02  7.474795E+03
       123  23  2.057929E+05 -2.368019E+01  1.762502E+03 -2.630599E+04  1.562642E+03  1.064106E+04
       123  24  2.058641E+05  8.160197E+01  3.046076E+03 -3.623044E+04  2.435771E+03  1.377756E+04
       123  25  6.839076E+04 -3.338297E+04 -2.837909E+04 -3.625283E+04  3.895950E+03  7.474009E+03
       123  26  1.551001E+04 -4.619214E+04 -3.881904E+04 -2.634040E+04  4.739419E+03  1.064061E+04
       123  27 -3.722541E+04 -5.887723E+04 -4.867898E+04 -3.627726E+04  5.582124E+03  1.377744E+04
       124   1  4.901609E+05  6.879504E+04  6.468079E+04 -3.577683E+04  2.761567E+02 -1.567390E+04
       124   2  5.424730E+05  8.170688E+04  7.882964E+04 -2.647493E+04 -3.829560E+03 -1.864748E+04
       124   3  5.959640E+05  9.704908E+04  9.626480E+04 -3.701869E+04 -7.934544E+03 -2.096205E+04
       124   4  2.060623E+05 -1.437039E+02  3.970876E+03 -3.622985E+04 -3.054923E+03 -1.567403E+04
       124   5  2.055259E+05 -4.585775E+01  6.867192E+03 -2.630669E+04 -6.494285E+03 -1.864821E+04
       124   6  2.060509E+05  2.367740E+03  1.258863E+04 -3.622981E+04 -9.932571E+03 -2.096321E+04
       124   7 -7.796047E+04 -6.908771E+04 -5.674367E+04 -3.668265E+04 -6.384502E+03 -1.567416E+04
       124   8 -1.313145E+05 -8.180600E+04 -6.510179E+04 -2.613855E+04 -9.157585E+03 -1.864894E+04
       124   9 -1.837193E+05 -9.232356E+04 -7.109640E+04 -3.544143E+04 -1.192936E+04 -2.096437E+04
       124  10  4.901609E+05  6.879477E+04  6.468033E+04 -3.577683E+04  1.872536E-09 -1.276057E-09
       124  11  5.424729E+05  8.170650E+04  7.882896E+04 -2.647499E+04  8.898359E-10 -1.570599E-09
       124  12  5.959638E+05  9.704859E+04  9.626386E+04 -3.701883E+04  4.211921E-10  1.498878E-10
       124  13  2.060622E+05 -1.439703E+02  3.970396E+03 -3.622989E+04 -1.070779E-09 -8.010214E-10
       124  14  2.055257E+05 -4.624254E+01  6.866459E+03 -2.630679E+04 -1.581576E-09 -1.413933E-09
       124  15  2.060507E+05  2.367241E+03  1.258762E+04 -3.622998E+04 -2.175153E-09 -6.445645E-11
       124  16 -7.796058E+04 -6.908798E+04 -5.674421E+04 -3.668273E+04 -1.558457E-09 -4.459514E-10
       124  17 -1.313147E+05 -8.180639E+04 -6.510261E+04 -2.613869E+04 -2.611454E-09 -1.247273E-09
       124  18 -1.837195E+05 -9.232407E+04 -7.109749E+04 -3.544163E+04 -6.134907E-10 -2.148993E-10
       124  19  4.901609E+05  6.879504E+04  6.468079E+04 -3.577683E+04 -2.761567E+02  1.567390E+04
       124  20  5.424730E+05  8.170688E+04  7.882964E+04 -2.647493E+04  3.829560E+03  1.864748E+04
       124  21  5.959640E+05  9.704908E+04  9.626480E+04 -3.701869E+04  7.934544E+03  2.096205E+04
       124  22  2.060623E+05 -1.437039E+02  3.970876E+03 -3.622985E+04  3.054923E+03  1.567403E+04
       124  23  2.055259E+05 -4.585775E+01  6.867192E+03 -2.630669E+04  6.494285E+03  1.864821E+04
       124  24  2.060509E+05  2.367740E+03  1.258863E+04 -3.622981E+04  9.932571E+03  2.096321E+04
       124  25 -7.796047E+04 -6.908771E+04 -5.674367E+04 -3.668265E+04  6.384502E+03  1.567416E+04
       124  26 -1.313145E+05 -8.180600E+04 -6.510179E+04 -2.613855E+04  9.157585E+03  1.864894E+04
       124  27 -1.837193E+05 -9.232356E+04 -7.109640E+04 -3.544143E+04  1.192936E+04  2.096437E+04
       125   1  6.400584E+05  1.024257E+05  1.080776E+05 -2.909791E+04 -6.241245E+03 -2.381989E+04
       125   2  6.853363E+05  1.192097E+05  1.333876E+05 -3.555903E+04 -3.506120E+04 -2.259699E+04
       125   3  7.463584E+05  1.836510E+05  1.893790E+05 -6.126337E+04 -6.389094E+04 -7.183081E+03
       125   4  2.087570E+05 -2.223213E+03  1.593700E+04 -3.609136E+04 -1.215428E+04 -2.382198E+04
       125   5  2.021129E+05  1.438096E+03  2.746922E+04 -2.647883E+04 -2.664764E+04 -2.259621E+04
       125   6  2.087368E+05  5.029019E+04  5.975095E+04 -3.610886E+04 -4.114799E+04 -7.175949E+03
       125   7 -2.223694E+05 -1.068840E+05 -7.621417E+04 -4.307989E+04 -1.806327E+04 -2.382393E+04
       125   8 -2.808918E+05 -1.163488E+05 -7.846302E+04 -1.740578E+04 -1.824054E+04 -2.259518E+04
       125   9 -3.286182E+05 -8.308903E+04 -6.989546E+04 -1.097620E+04 -1.842463E+04 -7.166973E+03
       125  10  6.400582E+05  1.024250E+05  1.080764E+05 -2.909803E+04  1.949559E-08  9.507176E-10
       125  11  6.853349E+05  1.192089E+05  1.333843E+05 -3.555967E+04  1.494400E-09  5.394116E-10
       125  12  7.463540E+05  1.836498E+05  1.893712E+05 -6.126374E+04 -1.615260E-08  3.321813E-10
       125  13  2.087567E+05 -2.223863E+03  1.593565E+04 -3.609159E+04 -1.215612E-09  4.275659E-10
       125  14  2.021120E+05  1.437357E+03  2.746693E+04 -2.647931E+04 -1.096404E-09  7.107629E-10
       125  15  2.087349E+05  5.028968E+04  5.974767E+04 -3.610909E+04 -4.252313E-10  1.351180E-11
       125  16 -2.223699E+05 -1.068847E+05 -7.621585E+04 -4.308024E+04 -2.170730E-08  5.220227E-10
       125  17 -2.808923E+05 -1.163494E+05 -7.846460E+04 -1.740611E+04 -2.817412E-09  5.836784E-10
       125  18 -3.286186E+05 -8.308917E+04 -6.989620E+04 -1.097631E+04  1.785803E-08  6.807231E-10
       125  19  6.400584E+05  1.024257E+05  1.080776E+05 -2.909791E+04  6.241245E+03  2.381989E+04
       125  20  6.853363E+05  1.192097E+05  1.333876E+05 -3.555903E+04  3.506120E+04  2.259699E+04
       125  21  7.463584E+05  1.836510E+05  1.893790E+05 -6.126337E+04  6.389094E+04  7.183081E+03
       125  22  2.087570E+05 -2.223213E+03  1.593700E+04 -3.609136E+04  1.215428E+04  2.382198E+04
       125  23  2.021129E+05  1.438096E+03  2.746922E+04 -2.647883E+04  2.664764E+04  2.259621E+04
       125  24  2.087368E+05  5.029019E+04  5.975095E+04 -3.610886E+04  4.114799E+04  7.175949E+03
       125  25 -2.223694E+05 -1.068840E+05 -7.621417E+04 -4.307989E+04  1.806327E+04  2.382393E+04
       125  26 -2.808918E+05 -1.163488E+05 -7.846302E+04 -1.740578E+04  1.824054E+04  2.259518E+04
       125  27 -3.286182E+05 -8.308903E+04 -6.989546E+04 -1.097620E+04  1.842463E+04  7.166973E+03
       126   1  5.505951E+05  1.912620E+06  5.492128E+05 -3.495358E+05  2.292164E+04  1.191093E+05
       126   2  3.696515E+05  1.434522E+06  3.661030E+05 -2.444237E+05  6.703314E+04  4.605726E+04
       126   3  2.526282E+05  9.821609E+05  2.464519E+05 -3.111561E+05  5.643869E+04 -2.700345E+04
       126   4  5.985066E+04 -6.432944E+04  7.066733E+04 -3.174420E+05  2.303502E+04  4.694135E+04
       126   5  2.058382E+03 -7.213102E+04  3.379334E+04 -2.315636E+05  6.707624E+04  2.922965E+04
       126   6 -1.303860E+03 -6.391310E+04  2.208532E+04 -3.175400E+05  5.635635E+04  1.145323E+04
       126   7 -4.311736E+05 -2.037702E+06 -4.081393E+05 -2.854483E+05  2.314119E+04 -2.499820E+04
       126   8 -3.656866E+05 -1.576665E+06 -2.986548E+05 -2.187336E+05  6.711872E+04  1.244227E+04
       126   9 -2.553066E+05 -1.108956E+06 -2.023395E+05 -3.239121E+05  5.627315E+04  4.984609E+04
       126  10  5.505908E+05  1.912605E+06  5.491852E+05 -3.495380E+05  1.604476E-10 -1.242124E-10
       126  11  3.696461E+05  1.434518E+06  3.660906E+05 -2.444262E+05 -2.037148E-09 -1.430438E-09
       126  12  2.526246E+05  9.821592E+05  2.464445E+05 -3.111549E+05 -1.585586E-10 -2.638188E-10
       126  13  5.984950E+04 -6.433195E+04  7.066219E+04 -3.174428E+05 -1.634031E-10  4.932711E-10
       126  14  2.053320E+03 -7.213315E+04  3.378328E+04 -2.315651E+05  1.495385E-09 -7.674420E-10
       126  15 -1.307307E+03 -6.391409E+04  2.207911E+04 -3.175405E+05 -6.007640E-10  6.242329E-10
       126  16 -4.311743E+05 -2.037703E+06 -4.081414E+05 -2.854478E+05 -3.246066E-10 -2.128712E-10
       126  17 -3.656915E+05 -1.576666E+06 -2.986635E+05 -2.187343E+05 -8.396136E-10 -2.072352E-09
       126  18 -2.553107E+05 -1.108959E+06 -2.023501E+05 -3.239144E+05 -1.008864E-09  4.543489E-10
       126  19  5.505951E+05  1.912620E+06  5.492128E+05 -3.495358E+05 -2.292164E+04 -1.191093E+05
       126  20  3.696515E+05  1.434522E+06  3.661030E+05 -2.444237E+05 -6.703314E+04 -4.605726E+04
       126  21  2.526282E+05  9.821609E+05  2.464519E+05 -3.111561E+05 -5.643869E+04  2.700345E+04
       126  22  5.985066E+04 -6.432944E+04  7.066733E+04 -3.174420E+05 -2.303502E+04 -4.694135E+04
       126  23  2.058382E+03 -7.213102E+04  3.379334E+04 -2.315636E+05 -6.707624E+04 -2.922965E+04
       126  24 -1.303860E+03 -6.391310E+04  2.208532E+04 -3.175400E+05 -5.635635E+04 -1.145323E+04
       126  25 -4.311736E+05 -2.037702E+06 -4.081393E+05 -2.854483E+05 -2.314119E+04  2.499820E+04
       126  26 -3.656866E+05 -1.576665E+06 -2.986548E+05 -2.187336E+05 -6.711872E+04 -1.244227E+04
       126  27 -2.553066E+05 -1.108956E+06 -2.023395E+05 -3.239121E+05 -5.627315E+04 -4.984609E+04
       127   1  1.703082E+05  6.175438E+05  1.666407E+05 -3.207662E+05  3.613161E+04 -1.580143E+04
       127   2  5.435123E+04  1.520023E+05  6.298179E+04 -2.312624E+05  1.220010E+04 -2.438774E+04
       127   3 -5.540069E+04 -3.115023E+05 -3.376268E+04 -3.161268E+05 -1.225168E+04 -3.297541E+04
       127   4  3.968019E+03 -6.694927E+04  1.926021E+04 -3.180744E+05  3.607509E+04  8.088864E+03
       127   5  9.985582E+02 -6.779016E+04  1.600266E+04 -2.308891E+05  1.213976E+04  2.444183E+01
       127   6  4.157885E+03 -6.688764E+04  1.930733E+04 -3.180741E+05 -1.231660E+04 -8.047541E+03
       127   7 -1.624026E+05 -7.510011E+05 -1.281457E+05 -3.153852E+05  3.601874E+04  3.195320E+04
       127   8 -5.235695E+04 -2.875359E+05 -3.097703E+04 -2.305158E+05  1.207945E+04  2.442810E+04
       127   9  6.371285E+04  1.777845E+05  7.237612E+04 -3.200221E+05 -1.238165E+04  1.689003E+04
       127  10  1.703067E+05  6.175432E+05  1.666378E+05 -3.207658E+05 -1.280739E-10 -2.415194E-09
       127  11  5.435091E+04  1.520016E+05  6.298039E+04 -2.312622E+05  8.660669E-10  3.955223E-09
       127  12 -5.540115E+04 -3.115035E+05 -3.376501E+04 -3.161271E+05  4.426622E-11  1.112585E-08
       127  13  3.966604E+03 -6.694968E+04  1.925764E+04 -3.180746E+05  2.282766E-10  1.053383E-09
       127  14  9.984000E+02 -6.779020E+04  1.600238E+04 -2.308891E+05  7.835174E-10 -1.186845E-09
       127  15  4.157704E+03 -6.688775E+04  1.930693E+04 -3.180742E+05 -5.678912E-10  7.329513E-10
       127  16 -1.624043E+05 -7.510026E+05 -1.281501E+05 -3.153861E+05 -1.661608E-11  1.812203E-09
       127  17 -5.235727E+04 -2.875366E+05 -3.097843E+04 -2.305160E+05  8.298525E-10 -9.034066E-09
       127  18  6.371261E+04  1.777842E+05  7.237530E+04 -3.200220E+05 -1.967257E-09 -1.077071E-08
       127  19  1.703082E+05  6.175438E+05  1.666407E+05 -3.207662E+05 -3.613161E+04  1.580143E+04
       127  20  5.435123E+04  1.520023E+05  6.298179E+04 -2.312624E+05 -1.220010E+04  2.438774E+04
       127  21 -5.540069E+04 -3.115023E+05 -3.376268E+04 -3.161268E+05  1.225168E+04  3.297541E+04
       127  22  3.968019E+03 -6.694927E+04  1.926021E+04 -3.180744E+05 -3.607509E+04 -8.088864E+03
       127  23  9.985582E+02 -6.779016E+04  1.600266E+04 -2.308891E+05 -1.213976E+04 -2.444183E+01
       127  24  4.157885E+03 -6.688764E+04  1.930733E+04 -3.180741E+05  1.231660E+04  8.047541E+03
       127  25 -1.624026E+05 -7.510011E+05 -1.281457E+05 -3.153852E+05 -3.601874E+04 -3.195320E+04
       127  26 -5.235695E+04 -2.875359E+05 -3.097703E+04 -2.305158E+05 -1.207945E+04 -2.442810E+04
       127  27  6.371285E+04  1.777845E+05  7.237612E+04 -3.200221E+05  1.238165E+04 -1.689003E+04
       128   1 -1.482827E+05 -6.693703E+05 -1.083794E+05 -3.246662E+05 -3.175081E+04 -4.765325E+04
       128   2 -2.582795E+05 -1.137878E+06 -2.025304E+05 -2.188276E+05 -4.602972E+04 -2.164312E+04
       128   3 -3.213943E+05 -1.598200E+06 -3.020234E+05 -2.854162E+05 -1.673250E+04  4.419203E+03
       128   4 -1.074002E+03 -6.388206E+04  2.212942E+04 -3.176647E+05 -3.184137E+04 -1.141750E+04
       128   5  2.442713E+03 -7.181459E+04  3.394790E+04 -2.314075E+05 -4.600712E+04 -2.929601E+04
       128   6  6.042894E+04 -6.417666E+04  7.090469E+04 -3.175450E+05 -1.663204E+04 -4.710288E+04
       128   7  1.461115E+05  5.419538E+05  1.526216E+05 -3.106561E+05 -3.193107E+04  2.485315E+04
       128   8  2.630886E+05  9.953110E+05  2.703559E+05 -2.440086E+05 -4.598424E+04 -3.696188E+04
       128   9  4.420840E+05  1.472007E+06  4.436729E+05 -3.497519E+05 -1.652639E+04 -9.875206E+04
       128  10 -1.482844E+05 -6.693730E+05 -1.083856E+05 -3.246674E+05 -7.207985E-10 -1.372762E-08
       128  11 -2.582819E+05 -1.137879E+06 -2.025352E+05 -2.188284E+05  1.238887E-09 -9.453333E-09
       128  12 -3.213946E+05 -1.598201E+06 -3.020240E+05 -2.854162E+05  5.060073E-10  2.942016E-10
       128  13 -1.075126E+03 -6.388247E+04  2.212727E+04 -3.176650E+05 -1.679994E-09  1.102691E-09
       128  14  2.440209E+03 -7.181608E+04  3.394231E+04 -2.314086E+05  5.752512E-10 -9.189960E-10
       128  15  6.042805E+04 -6.417911E+04  7.090000E+04 -3.175456E+05  8.784778E-11  4.673371E-10
       128  16  1.461102E+05  5.419529E+05  1.526186E+05 -3.106554E+05 -2.923263E-09  1.320686E-08
       128  17  2.630860E+05  9.953090E+05  2.703493E+05 -2.440099E+05  1.482913E-09  5.242268E-09
       128  18  4.420811E+05  1.471996E+06  4.436541E+05 -3.497533E+05  1.594025E-09 -2.071265E-10
       128  19 -1.482827E+05 -6.693703E+05 -1.083794E+05 -3.246662E+05  3.175081E+04  4.765325E+04
       128  20 -2.582795E+05 -1.137878E+06 -2.025304E+05 -2.188276E+05  4.602972E+04  2.164312E+04
       128  21 -3.213943E+05 -1.598200E+06 -3.020234E+05 -2.854162E+05  1.673250E+04 -4.419203E+03
       128  22 -1.074002E+03 -6.388206E+04  2.212942E+04 -3.176647E+05  3.184137E+04  1.141750E+04
       128  23  2.442713E+03 -7.181459E+04  3.394790E+04 -2.314075E+05  4.600712E+04  2.929601E+04
       128  24  6.042894E+04 -6.417666E+04  7.090469E+04 -3.175450E+05  1.663204E+04  4.710288E+04
       128  25  1.461115E+05  5.419538E+05  1.526216E+05 -3.106561E+05  3.193107E+04 -2.485315E+04
       128  26  2.630886E+05  9.953110E+05  2.703559E+05 -2.440086E+05  4.598424E+04  3.696188E+04
       128  27  4.420840E+05  1.472007E+06  4.436729E+05 -3.497519E+05  1.652639E+04  9.875206E+04
       129   1 -1.562709E+06 -5.497623E+05 -3.126567E+05 -5.864730E+05 -1.371317E+05 -4.317769E+04
       129   2 -1.512158E+06 -3.587219E+05 -1.880356E+05 -5.719543E+05 -8.782841E+04 -6.889647E+03
       129   3 -1.503374E+06 -3.118870E+05 -1.400072E+05 -5.411578E+05 -3.297738E+04  1.465413E+04
       129   4 -1.098771E+06 -3.100469E+05 -1.766383E+05 -3.930852E+05 -1.155737E+05 -3.509631E+04
       129   5 -1.069603E+06 -1.710570E+05 -7.720294E+04 -4.268445E+05 -8.013359E+04 -4.005257E+03
       129   6 -1.079412E+06 -1.734724E+05 -4.332036E+04 -4.443386E+05 -3.915094E+04  1.233640E+04
       129   7 -6.346130E+05 -7.025536E+04 -4.063872E+04 -1.995480E+05 -9.399800E+04 -2.700262E+04
       129   8 -6.268499E+05  1.663871E+04  3.361473E+04 -2.816341E+05 -7.243278E+04 -1.117895E+03
       129   9 -6.552691E+05 -3.505358E+04  5.335562E+04 -3.474629E+05 -4.532913E+04  1.001742E+04
       129  10 -1.562730E+06 -5.497693E+05 -3.126957E+05 -5.864778E+05 -1.859782E-09 -8.245892E-11
       129  11 -1.512167E+06 -3.587240E+05 -1.880502E+05 -5.719548E+05  8.659825E-12  6.013703E-10
       129  12 -1.503376E+06 -3.118875E+05 -1.400096E+05 -5.411574E+05  9.590364E-10  6.443039E-10
       129  13 -1.098786E+06 -3.100519E+05 -1.766658E+05 -3.930885E+05  1.096100E-09  3.266607E-10
       129  14 -1.069610E+06 -1.710588E+05 -7.721506E+04 -4.268447E+05 -2.993432E-10  7.722876E-10
       129  15 -1.079414E+06 -1.734730E+05 -4.332353E+04 -4.443382E+05  2.703645E-10 -4.511079E-10
       129  16 -6.346227E+05 -7.025852E+04 -4.065671E+04 -1.995501E+05  1.482401E-09  5.477384E-10
       129  17 -6.268555E+05  1.663730E+04  3.360485E+04 -2.816342E+05  1.252192E-09  3.932877E-10
       129  18 -6.552714E+05 -3.505423E+04  5.335157E+04 -3.474625E+05 -2.000350E-10 -1.506478E-09
       129  19 -1.562709E+06 -5.497623E+05 -3.126567E+05 -5.864730E+05  1.371317E+05  4.317769E+04
       129  20 -1.512158E+06 -3.587219E+05 -1.880356E+05 -5.719543E+05  8.782841E+04  6.889647E+03
       129  21 -1.503374E+06 -3.118870E+05 -1.400072E+05 -5.411578E+05  3.297738E+04 -1.465413E+04
       129  22 -1.098771E+06 -3.100469E+05 -1.766383E+05 -3.930852E+05  1.155737E+05  3.509631E+04
       129  23 -1.069603E+06 -1.710570E+05 -7.720294E+04 -4.268445E+05  8.013359E+04  4.005257E+03
       129  24 -1.079412E+06 -1.734724E+05 -4.332036E+04 -4.443386E+05  3.915094E+04 -1.233640E+04
       129  25 -6.346130E+05 -7.025536E+04 -4.063872E+04 -1.995480E+05  9.399800E+04  2.700262E+04
       129  26 -6.268499E+05  1.663871E+04  3.361473E+04 -2.816341E+05  7.243278E+04  1.117895E+03
       129  27 -6.552691E+05 -3.505358E+04  5.335562E+04 -3.474629E+05  4.532913E+04 -1.001742E+04
       130   1 -1.441106E+06 -3.245067E+05 -1.216625E+05 -5.403115E+05 -3.066857E+04  1.200235E+04
       130   2 -1.396516E+06 -2.895143E+05 -9.276870E+04 -5.183370E+05 -2.020059E+04  1.324654E+04
       130   3 -1.340980E+06 -2.766125E+05 -7.294953E+04 -5.118723E+05 -9.479708E+03  1.381547E+04
       130   4 -1.073747E+06 -1.855833E+05 -3.413695E+04 -4.368868E+05 -3.257676E+04  1.128503E+04
       130   5 -1.078764E+06 -1.709874E+05 -1.768187E+04 -4.304835E+05 -2.273957E+04  1.229320E+04
       130   6 -1.072710E+06 -1.783534E+05 -9.796353E+03 -4.395905E+05 -1.265039E+04  1.262590E+04
       130   7 -7.062535E+05 -4.664901E+04  5.337892E+04 -3.334057E+05 -3.448618E+04  1.056724E+04
       130   8 -7.609126E+05 -5.245332E+04  5.739758E+04 -3.425892E+05 -2.527995E+04  1.133932E+04
       130   9 -8.043702E+05 -8.009018E+04  5.335139E+04 -3.672807E+05 -1.582255E+04  1.143580E+04
       130  10 -1.441107E+06 -3.245071E+05 -1.216646E+05 -5.403112E+05 -1.600894E-09 -2.506022E-10
       130  11 -1.396517E+06 -2.895146E+05 -9.276980E+04 -5.183368E+05  2.656509E-09  1.456834E-09
       130  12 -1.340980E+06 -2.766127E+05 -7.295005E+04 -5.118722E+05  3.357303E-09  5.146643E-10
       130  13 -1.073748E+06 -1.855837E+05 -3.413919E+04 -4.368865E+05  1.112267E-09 -1.094193E-10
       130  14 -1.078765E+06 -1.709877E+05 -1.768313E+04 -4.304833E+05  2.779217E-09  1.338820E-09
       130  15 -1.072710E+06 -1.783536E+05 -9.796953E+03 -4.395904E+05  2.997712E-10  6.799906E-10
       130  16 -7.062548E+05 -4.664944E+04  5.337647E+04 -3.334054E+05  4.976559E-09 -2.243920E-12
       130  17 -7.609133E+05 -5.245363E+04  5.739613E+04 -3.425889E+05  4.038064E-09  1.282686E-09
       130  18 -8.043705E+05 -8.009039E+04  5.335068E+04 -3.672806E+05 -5.666967E-10  6.645311E-10
       130  19 -1.441106E+06 -3.245067E+05 -1.216625E+05 -5.403115E+05  3.066857E+04 -1.200235E+04
       130  20 -1.396516E+06 -2.895143E+05 -9.276870E+04 -5.183370E+05  2.020059E+04 -1.324654E+04
       130  21 -1.340980E+06 -2.766125E+05 -7.294953E+04 -5.118723E+05  9.479708E+03 -1.381547E+04
       130  22 -1.073747E+06 -1.855833E+05 -3.413695E+04 -4.368868E+05  3.257676E+04 -1.128503E+04
       130  23 -1.078764E+06 -1.709874E+05 -1.768187E+04 -4.304835E+05  2.273957E+04 -1.229320E+04
       130  24 -1.072710E+06 -1.783534E+05 -9.796353E+03 -4.395905E+05  1.265039E+04 -1.262590E+04
       130  25 -7.062535E+05 -4.664901E+04  5.337892E+04 -3.334057E+05  3.448618E+04 -1.056724E+04
       130  26 -7.609126E+05 -5.245332E+04  5.739758E+04 -3.425892E+05  2.527995E+04 -1.133932E+04
       130  27 -8.043702E+05 -8.009018E+04  5.335139E+04 -3.672807E+05  1.582255E+04 -1.143580E+04
       131   1 -1.298515E+06 -2.628037E+05 -6.058887E+04 -5.011766E+05 -7.560273E+03  1.233610E+04
       131   2 -1.254398E+06 -2.358772E+05 -4.526283E+04 -4.785338E+05 -4.296098E+03  9.924360E+03
       131   3 -1.195704E+06 -2.243618E+05 -3.158157E+04 -4.730480E+05 -1.018810E+03  7.475926E+03
       131   4 -1.072222E+06 -1.789903E+05 -7.438655E+03 -4.391695E+05 -1.054729E+04  1.121574E+04
       131   5 -1.079483E+06 -1.711148E+05 -4.073169E+03 -4.306538E+05 -7.317005E+03  8.791653E+03
       131   6 -1.072165E+06 -1.786438E+05 -2.325308E+03 -4.392961E+05 -4.073801E+03  6.330831E+03
       131   7 -8.458757E+05 -9.517285E+04  4.570836E+04 -3.771414E+05 -1.353552E+04  1.009492E+04
       131   8 -9.045381E+05 -1.063500E+05  3.711452E+04 -3.827613E+05 -1.033885E+04  7.658597E+03
       131   9 -9.486121E+05 -1.329247E+05  2.692992E+04 -4.055380E+05 -7.129454E+03  5.185488E+03
       131  10 -1.298515E+06 -2.628039E+05 -6.058926E+04 -5.011765E+05 -1.086742E-09 -6.157615E-10
       131  11 -1.254398E+06 -2.358773E+05 -4.526305E+04 -4.785338E+05  1.236959E-09  2.922131E-10
       131  12 -1.195704E+06 -2.243619E+05 -3.158168E+04 -4.730480E+05  4.535133E-10  1.764326E-11
       131  13 -1.072222E+06 -1.789905E+05 -7.439101E+03 -4.391694E+05 -2.151315E-09 -1.046649E-10
       131  14 -1.079484E+06 -1.711149E+05 -4.073414E+03 -4.306538E+05  8.812951E-10 -1.224879E-10
       131  15 -1.072165E+06 -1.786438E+05 -2.325414E+03 -4.392961E+05 -1.681877E-10  1.733397E-10
       131  16 -8.458759E+05 -9.517301E+04  4.570783E+04 -3.771413E+05 -2.272680E-09  4.515964E-10
       131  17 -9.045382E+05 -1.063501E+05  3.711421E+04 -3.827613E+05 -2.552796E-09 -4.216002E-10
       131  18 -9.486121E+05 -1.329247E+05  2.692977E+04 -4.055379E+05 -1.300097E-09  3.473366E-10
       131  19 -1.298515E+06 -2.628037E+05 -6.058887E+04 -5.011766E+05  7.560273E+03 -1.233610E+04
       131  20 -1.254398E+06 -2.358772E+05 -4.526283E+04 -4.785338E+05  4.296098E+03 -9.924360E+03
       131  21 -1.195704E+06 -2.243618E+05 -3.158157E+04 -4.730480E+05  1.018810E+03 -7.475926E+03
       131  22 -1.072222E+06 -1.789903E+05 -7.438655E+03 -4.391695E+05  1.054729E+04 -1.121574E+04
       131  23 -1.079483E+06 -1.711148E+05 -4.073169E+03 -4.306538E+05  7.317005E+03 -8.791653E+03
       131  24 -1.072165E+06 -1.786438E+05 -2.325308E+03 -4.392961E+05  4.073801E+03 -6.330831E+03
       131  25 -8.458757E+05 -9.517285E+04  4.570836E+04 -3.771414E+05  1.353552E+04 -1.009492E+04
       131  26 -9.045381E+05 -1.063500E+05  3.711452E+04 -3.827613E+05  1.033885E+04 -7.658597E+03
       131  27 -9.486121E+05 -1.329247E+05  2.692992E+04 -4.055380E+05  7.129454E+03 -5.185488E+03
       132   1 -1.154228E+06 -2.090492E+05 -2.097445E+04 -4.617650E+05  2.535648E+01  5.715452E+03
       132   2 -1.110089E+06 -1.824281E+05 -8.374952E+03 -4.389953E+05  1.834604E+03  2.700531E+03
       132   3 -1.051000E+06 -1.708764E+05  3.774315E+03 -4.334816E+05  3.644728E+03 -3.170919E+02
       132   4 -1.072097E+06 -1.786775E+05 -1.813523E+03 -4.392766E+05 -3.024807E+03  4.572307E+03
       132   5 -1.079569E+06 -1.711377E+05 -1.190854E+03 -4.306498E+05 -1.218147E+03  1.556485E+03
       132   6 -1.072095E+06 -1.786670E+05 -1.016380E+03 -4.392802E+05  5.893276E+02 -1.462042E+03
       132   7 -9.899593E+05 -1.483055E+05  1.734693E+04 -4.167855E+05 -6.075404E+03  3.429001E+03
       132   8 -1.049048E+06 -1.598473E+05  5.993167E+03 -4.223041E+05 -4.271043E+03  4.123850E+02
       132   9 -1.093188E+06 -1.864574E+05 -5.807004E+03 -4.450785E+05 -2.465929E+03 -2.606938E+03
       132  10 -1.154228E+06 -2.090492E+05 -2.097451E+04 -4.617650E+05  1.776665E-10 -3.082702E-10
       132  11 -1.110089E+06 -1.824281E+05 -8.374972E+03 -4.389953E+05 -3.759446E-09 -1.031546E-09
       132  12 -1.051000E+06 -1.708764E+05  3.774289E+03 -4.334816E+05 -3.099531E-09 -8.869171E-10
       132  13 -1.072097E+06 -1.786776E+05 -1.813579E+03 -4.392766E+05  1.436812E-11 -5.308306E-11
       132  14 -1.079569E+06 -1.711377E+05 -1.190861E+03 -4.306498E+05 -2.248505E-09 -5.156616E-10
       132  15 -1.072095E+06 -1.786670E+05 -1.016385E+03 -4.392802E+05 -1.671408E-09 -3.531987E-10
       132  16 -9.899594E+05 -1.483055E+05  1.734684E+04 -4.167855E+05 -2.799500E-09 -3.490804E-11
       132  17 -1.049048E+06 -1.598473E+05  5.993132E+03 -4.223041E+05 -3.530908E-09 -6.353995E-10
       132  18 -1.093188E+06 -1.864574E+05 -5.807028E+03 -4.450785E+05  1.174768E-09 -5.956801E-10
       132  19 -1.154228E+06 -2.090492E+05 -2.097445E+04 -4.617650E+05 -2.535648E+01 -5.715452E+03
       132  20 -1.110089E+06 -1.824281E+05 -8.374952E+03 -4.389953E+05 -1.834604E+03 -2.700531E+03
       132  21 -1.051000E+06 -1.708764E+05  3.774315E+03 -4.334816E+05 -3.644728E+03  3.170919E+02
       132  22 -1.072097E+06 -1.786775E+05 -1.813523E+03 -4.392766E+05  3.024807E+03 -4.572307E+03
       132  23 -1.079569E+06 -1.711377E+05 -1.190854E+03 -4.306498E+05  1.218147E+03 -1.556485E+03
       132  24 -1.072095E+06 -1.786670E+05 -1.016380E+03 -4.392802E+05 -5.893276E+02  1.462042E+03
       132  25 -9.899593E+05 -1.483055E+05  1.734693E+04 -4.167855E+05  6.075404E+03 -3.429001E+03
       132  26 -1.049048E+06 -1.598473E+05  5.993167E+03 -4.223041E+05  4.271043E+03 -4.123850E+02
       132  27 -1.093188E+06 -1.864574E+05 -5.807004E+03 -4.450785E+05  2.465929E+03  2.606938E+03
       133   1 -1.009578E+06 -1.554624E+05  1.383775E+04 -4.221483E+05  4.523341E+03 -2.139507E+03
       133   2 -9.654969E+05 -1.288931E+05  2.539612E+04 -3.994056E+05  6.458027E+03 -5.106181E+03
       133   3 -9.065039E+05 -1.173788E+05  3.641011E+04 -3.938946E+05  8.390959E+03 -8.066401E+03
       133   4 -1.072103E+06 -1.786628E+05 -1.064125E+03 -4.392755E+05  1.469345E+03 -3.283989E+03
       133   5 -1.079561E+06 -1.711443E+05 -1.460319E+03 -4.306562E+05  3.409771E+03 -6.248788E+03
       133   6 -1.072110E+06 -1.786823E+05 -2.405171E+03 -4.392698E+05  5.348372E+03 -9.207144E+03
       133   7 -1.134626E+06 -2.018632E+05 -1.596645E+04 -4.564014E+05 -1.584352E+03 -4.428359E+03
       133   8 -1.193614E+06 -2.133950E+05 -2.831794E+04 -4.619019E+05  3.620960E+02 -7.391178E+03
       133   9 -1.237689E+06 -2.399842E+05 -4.122264E+04 -4.846344E+05  2.306646E+03 -1.034756E+04
       133  10 -1.009578E+06 -1.554624E+05  1.383770E+04 -4.221483E+05  3.244849E-10  2.795838E-11
       133  11 -9.654970E+05 -1.288931E+05  2.539600E+04 -3.994056E+05  2.381769E-09 -8.226040E-10
       133  12 -9.065040E+05 -1.173789E+05  3.640986E+04 -3.938945E+05 -9.395696E-10 -1.505279E-09
       133  13 -1.072103E+06 -1.786628E+05 -1.064150E+03 -4.392755E+05  1.995666E-10 -5.197870E-10
       133  14 -1.079561E+06 -1.711443E+05 -1.460414E+03 -4.306562E+05 -6.101755E-11 -6.402427E-10
       133  15 -1.072110E+06 -1.786824E+05 -2.405384E+03 -4.392698E+05 -2.873085E-09 -1.130309E-09
       133  16 -1.134626E+06 -2.018632E+05 -1.596649E+04 -4.564014E+05  2.352946E-09 -8.114615E-10
       133  17 -1.193614E+06 -2.133951E+05 -2.831804E+04 -4.619019E+05  6.958472E-11 -2.402186E-10
       133  18 -1.237689E+06 -2.399843E+05 -4.122285E+04 -4.846344E+05 -3.208600E-09 -1.312585E-09
       133  19 -1.009578E+06 -1.554624E+05  1.383775E+04 -4.221483E+05 -4.523341E+03  2.139507E+03
       133  20 -9.654969E+05 -1.288931E+05  2.539612E+04 -3.994056E+05 -6.458027E+03  5.106181E+03
       133  21 -9.065039E+05 -1.173788E+05  3.641011E+04 -3.938946E+05 -8.390959E+03  8.066401E+03
       133  22 -1.072103E+06 -1.786628E+05 -1.064125E+03 -4.392755E+05 -1.469345E+03  3.283989E+03
       133  23 -1.079561E+06 -1.711443E+05 -1.460319E+03 -4.306562E+05 -3.409771E+03  6.248788E+03
       133  24 -1.072110E+06 -1.786823E+05 -2.405171E+03 -4.392698E+05 -5.348372E+03  9.207144E+03
       133  25 -1.134626E+06 -2.018632E+05 -1.596645E+04 -4.564014E+05  1.584352E+03  4.428359E+03
       133  26 -1.193614E+06 -2.133950E+05 -2.831794E+04 -4.619019E+05 -3.620960E+02  7.391178E+03
       133  27 -1.237689E+06 -2.399842E+05 -4.122264E+04 -4.846344E+05 -2.306646E+03  1.034756E+04
       134   1 -8.653032E+05 -1.020430E+05  4.573899E+04 -3.826996E+05  9.557804E+03 -9.774303E+03
       134   2 -8.213746E+05 -7.555966E+04  5.516502E+04 -3.599895E+05  1.351376E+04 -1.195082E+04
       134   3 -7.630664E+05 -6.456588E+04  6.240420E+04 -3.543456E+05  1.745445E+04 -1.408247E+04
       134   4 -1.072214E+06 -1.786310E+05 -3.138989E+03 -4.392912E+05  6.511599E+03 -1.091665E+04
       134   5 -1.079436E+06 -1.711217E+05 -5.591206E+03 -4.306695E+05  1.050824E+04 -1.307847E+04
       134   6 -1.072291E+06 -1.791110E+05 -1.026334E+04 -4.391154E+05  1.448939E+04 -1.519550E+04
       134   7 -1.279079E+06 -2.552152E+05 -5.201937E+04 -4.958649E+05  3.466530E+03 -1.205858E+04
       134   8 -1.337430E+06 -2.666788E+05 -6.635184E+04 -5.013225E+05  7.504093E+03 -1.420561E+04
       134   9 -1.381421E+06 -2.936496E+05 -8.293785E+04 -5.238471E+05  1.152593E+04 -1.630793E+04
       134  10 -8.653033E+05 -1.020432E+05  4.573864E+04 -3.826996E+05 -3.748553E-09 -1.613068E-09
       134  11 -8.213748E+05 -7.555986E+04  5.516441E+04 -3.599894E+05 -6.287356E-09 -1.277896E-09
       134  12 -7.630668E+05 -6.456618E+04  6.240325E+04 -3.543454E+05 -2.553049E-09 -8.998924E-10
       134  13 -1.072214E+06 -1.786311E+05 -3.139293E+03 -4.392911E+05 -5.292686E-09 -1.643442E-09
       134  14 -1.079436E+06 -1.711219E+05 -5.591735E+03 -4.306694E+05 -2.281741E-09 -1.062850E-09
       134  15 -1.072291E+06 -1.791113E+05 -1.026417E+04 -4.391153E+05 -6.432830E-10 -8.453249E-10
       134  16 -1.279079E+06 -2.552153E+05 -5.201967E+04 -4.958649E+05 -4.027189E-09 -1.410483E-09
       134  17 -1.337431E+06 -2.666790E+05 -6.635233E+04 -5.013224E+05 -3.192805E-09 -1.255406E-09
       134  18 -1.381421E+06 -2.936500E+05 -8.293860E+04 -5.238469E+05  8.925332E-10 -7.782970E-10
       134  19 -8.653032E+05 -1.020430E+05  4.573899E+04 -3.826996E+05 -9.557804E+03  9.774303E+03
       134  20 -8.213746E+05 -7.555966E+04  5.516502E+04 -3.599895E+05 -1.351376E+04  1.195082E+04
       134  21 -7.630664E+05 -6.456588E+04  6.240420E+04 -3.543456E+05 -1.745445E+04  1.408247E+04
       134  22 -1.072214E+06 -1.786310E+05 -3.138989E+03 -4.392912E+05 -6.511599E+03  1.091665E+04
       134  23 -1.079436E+06 -1.711217E+05 -5.591206E+03 -4.306695E+05 -1.050824E+04  1.307847E+04
       134  24 -1.072291E+06 -1.791110E+05 -1.026334E+04 -4.391154E+05 -1.448939E+04  1.519550E+04
       134  25 -1.279079E+06 -2.552152E+05 -5.201937E+04 -4.958649E+05 -3.466530E+03  1.205858E+04
       134  26 -1.337430E+06 -2.666788E+05 -6.635184E+04 -5.013225E+05 -7.504093E+03  1.420561E+04
       134  27 -1.381421E+06 -2.936496E+05 -8.293785E+04 -5.238471E+05 -1.152593E+04  1.630793E+04
       135   1 -7.216709E+05 -4.966123E+04  6.907093E+04 -3.450888E+05  2.029246E+04 -1.521287E+04
       135   2 -6.785615E+05 -2.168874E+04  7.001976E+04 -3.197120E+05  3.305929E+04 -1.381550E+04
       135   3 -6.257836E+05 -1.815234E+04  5.970283E+04 -3.091450E+05  4.553598E+04 -1.163814E+04
       135   4 -1.072967E+06 -1.782346E+05 -1.353033E+04 -4.397038E+05  1.711684E+04 -1.640529E+04
       135   5 -1.078442E+06 -1.709376E+05 -2.444066E+04 -4.304282E+05  3.061048E+04 -1.473609E+04
       135   6 -1.074399E+06 -1.882261E+05 -4.719914E+04 -4.359639E+05  4.381296E+04 -1.228712E+04
       135   7 -1.424138E+06 -3.067993E+05 -9.613968E+04 -5.342697E+05  1.394319E+04 -1.759700E+04
       135   8 -1.478163E+06 -3.201744E+05 -1.189124E+05 -5.410791E+05  2.816338E+04 -1.565604E+04
       135   9 -1.522816E+06 -3.582842E+05 -1.541163E+05 -5.626989E+05  4.209128E+04 -1.293556E+04
       135  10 -7.216714E+05 -4.966159E+04  6.906972E+04 -3.450886E+05 -1.763283E-09 -2.474979E-10
       135  11 -6.785627E+05 -2.168924E+04  7.001735E+04 -3.197116E+05 -1.238743E-10  8.234855E-10
       135  12 -6.257858E+05 -1.815304E+04  5.969867E+04 -3.091446E+05  8.400675E-10 -1.644063E-10
       135  13 -1.072967E+06 -1.782350E+05 -1.353139E+04 -4.397035E+05  6.310212E-10 -2.486924E-10
       135  14 -1.078443E+06 -1.709381E+05 -2.444283E+04 -4.304278E+05 -3.331688E-09  4.969765E-10
       135  15 -1.074401E+06 -1.882268E+05 -4.720303E+04 -4.359634E+05  4.468622E-10 -5.292825E-10
       135  16 -1.424139E+06 -3.067997E+05 -9.614063E+04 -5.342695E+05  1.339667E-09 -1.932539E-10
       135  17 -1.478164E+06 -3.201749E+05 -1.189143E+05 -5.410787E+05  5.694241E-10 -2.460420E-10
       135  18 -1.522818E+06 -3.582849E+05 -1.541199E+05 -5.626985E+05 -7.009444E-10 -8.597355E-10
       135  19 -7.216709E+05 -4.966123E+04  6.907093E+04 -3.450888E+05 -2.029246E+04  1.521287E+04
       135  20 -6.785615E+05 -2.168874E+04  7.001976E+04 -3.197120E+05 -3.305929E+04  1.381550E+04
       135  21 -6.257836E+05 -1.815234E+04  5.970283E+04 -3.091450E+05 -4.553598E+04  1.163814E+04
       135  22 -1.072967E+06 -1.782346E+05 -1.353033E+04 -4.397038E+05 -1.711684E+04  1.640529E+04
       135  23 -1.078442E+06 -1.709376E+05 -2.444066E+04 -4.304282E+05 -3.061048E+04  1.473609E+04
       135  24 -1.074399E+06 -1.882261E+05 -4.719914E+04 -4.359639E+05 -4.381296E+04  1.228712E+04
       135  25 -1.424138E+06 -3.067993E+05 -9.613968E+04 -5.342697E+05 -1.394319E+04  1.759700E+04
       135  26 -1.478163E+06 -3.201744E+05 -1.189124E+05 -5.410791E+05 -2.816338E+04  1.565604E+04
       135  27 -1.522816E+06 -3.582842E+05 -1.541163E+05 -5.626989E+05 -4.209128E+04  1.293556E+04
       136   1 -5.712421E+05 -8.087570E+03  5.595979E+04 -3.330079E+05  5.916349E+04 -1.023480E+04
       136   2 -5.486742E+05  5.327899E+04  2.350470E+04 -2.505436E+05  9.973481E+04  6.702566E+03
       136   3 -5.824522E+05 -7.195162E+04 -8.687503E+04 -1.391090E+05  1.339233E+05  4.062915E+04
       136   4 -1.082196E+06 -1.715163E+05 -5.989919E+04 -4.463109E+05  5.252392E+04 -1.272825E+04
       136   5 -1.065807E+06 -1.709819E+05 -1.067450E+05 -4.253474E+05  1.090680E+05  1.020238E+04
       136   6 -1.109001E+06 -3.603215E+05 -2.442371E+05 -3.754015E+05  1.592234E+05  5.011844E+04
       136   7 -1.592892E+06 -3.349420E+05 -1.757750E+05 -5.595364E+05  4.589028E+04 -1.522018E+04
       136   8 -1.582666E+06 -3.951932E+05 -2.370139E+05 -6.000070E+05  1.183926E+05  1.369776E+04
       136   9 -1.635246E+06 -6.485593E+05 -4.016180E+05 -6.114760E+05  1.844993E+05  5.958942E+04
       136  10 -5.712459E+05 -8.088623E+03  5.595302E+04 -3.330075E+05  3.626048E-10 -6.933001E-10
       136  11 -5.486849E+05  5.327627E+04  2.348590E+04 -2.505442E+05  2.085637E-09 -4.018097E-10
       136  12 -5.824720E+05 -7.195821E+04 -8.691188E+04 -1.391134E+05  6.678659E-10  3.420460E-10
       136  13 -1.082199E+06 -1.715172E+05 -5.990469E+04 -4.463104E+05  1.552709E-09 -1.042042E-09
       136  14 -1.065820E+06 -1.709852E+05 -1.067676E+05 -4.253483E+05 -1.035782E-09 -1.828576E-10
       136  15 -1.109029E+06 -3.603310E+05 -2.442895E+05 -3.754079E+05  1.583389E-10 -1.249809E-10
       136  16 -1.592894E+06 -3.349428E+05 -1.757794E+05 -5.595359E+05 -7.554581E-11 -6.999460E-11
       136  17 -1.582681E+06 -3.951972E+05 -2.370406E+05 -6.000083E+05 -2.094320E-09  5.070172E-10
       136  18 -1.635283E+06 -6.485723E+05 -4.016889E+05 -6.114849E+05 -1.093681E-09  3.538892E-10
       136  19 -5.712421E+05 -8.087570E+03  5.595979E+04 -3.330079E+05 -5.916349E+04  1.023480E+04
       136  20 -5.486742E+05  5.327899E+04  2.350470E+04 -2.505436E+05 -9.973481E+04 -6.702566E+03
       136  21 -5.824522E+05 -7.195162E+04 -8.687503E+04 -1.391090E+05 -1.339233E+05 -4.062915E+04
       136  22 -1.082196E+06 -1.715163E+05 -5.989919E+04 -4.463109E+05 -5.252392E+04  1.272825E+04
       136  23 -1.065807E+06 -1.709819E+05 -1.067450E+05 -4.253474E+05 -1.090680E+05 -1.020238E+04
       136  24 -1.109001E+06 -3.603215E+05 -2.442371E+05 -3.754015E+05 -1.592234E+05 -5.011844E+04
       136  25 -1.592892E+06 -3.349420E+05 -1.757750E+05 -5.595364E+05 -4.589028E+04  1.522018E+04
       136  26 -1.582666E+06 -3.951932E+05 -2.370139E+05 -6.000070E+05 -1.183926E+05 -1.369776E+04
       136  27 -1.635246E+06 -6.485593E+05 -4.016180E+05 -6.114760E+05 -1.844993E+05 -5.958942E+04
       137   1 -8.642250E+04 -2.143665E+04 -1.074213E+04  7.334999E+03  2.650970E+04  3.718341E+03
       137   2 -6.814849E+04 -5.973168E+04 -2.938282E+04 -3.342070E+03  2.031597E+04  1.177196E+04
       137   3 -3.884883E+04 -5.727026E+04 -3.379720E+04 -2.259383E+04  1.412555E+04  1.259315E+04
       137   4  1.886388E+05  4.680763E+04  5.558294E+04 -1.610550E+04  3.828690E+04  3.723133E+03
       137   5  1.824998E+05  1.373842E+03  2.555411E+04 -1.180774E+04  2.479864E+04  1.177326E+04
       137   6  1.886465E+05 -2.047130E+03  1.481194E+04 -1.608397E+04  1.131404E+04  1.259197E+04
       137   7  4.637707E+05  1.150485E+05  1.219034E+05 -3.955643E+04  5.006929E+04  3.727035E+03
       137   8  4.332070E+05  6.247545E+04  8.048734E+04 -2.027687E+04  2.928311E+04  1.177443E+04
       137   9  4.161906E+05  5.317279E+04  6.341814E+04 -9.571698E+03  8.501505E+03  1.259072E+04
       137  10 -8.642326E+04 -2.143685E+04 -1.074348E+04  7.334919E+03  8.254304E-10 -4.051891E-10
       137  11 -6.814897E+04 -5.973194E+04 -2.938385E+04 -3.342263E+03 -6.575050E-11  4.555938E-10
       137  12 -3.884909E+04 -5.727048E+04 -3.379787E+04 -2.259397E+04 -1.771146E-09 -7.934024E-11
       137  13  1.886372E+05  4.680722E+04  5.558016E+04 -1.610561E+04  1.135765E-09  4.584716E-10
       137  14  1.824991E+05  1.373528E+03  2.555270E+04 -1.180797E+04  1.112552E-09  3.618971E-10
       137  15  1.886463E+05 -2.047334E+03  1.481140E+04 -1.608409E+04  1.147109E-09 -7.074552E-11
       137  16  4.637680E+05  1.150478E+05  1.218987E+05 -3.955658E+04 -5.601882E-10  4.560906E-10
       137  17  4.332061E+05  6.247507E+04  8.048547E+04 -2.027715E+04 -8.636644E-10  4.901896E-10
       137  18  4.161905E+05  5.317260E+04  6.341771E+04 -9.571784E+03  1.167604E-09  1.187184E-09
       137  19 -8.642250E+04 -2.143665E+04 -1.074213E+04  7.334999E+03 -2.650970E+04 -3.718341E+03
       137  20 -6.814849E+04 -5.973168E+04 -2.938282E+04 -3.342070E+03 -2.031597E+04 -1.177196E+04
       137  21 -3.884883E+04 -5.727026E+04 -3.379720E+04 -2.259383E+04 -1.412555E+04 -1.259315E+04
       137  22  1.886388E+05  4.680763E+04  5.558294E+04 -1.610550E+04 -3.828690E+04 -3.723133E+03
       137  23  1.824998E+05  1.373842E+03  2.555411E+04 -1.180774E+04 -2.479864E+04 -1.177326E+04
       137  24  1.886465E+05 -2.047130E+03  1.481194E+04 -1.608397E+04 -1.131404E+04 -1.259197E+04
       137  25  4.637707E+05  1.150485E+05  1.219034E+05 -3.955643E+04 -5.006929E+04 -3.727035E+03
       137  26  4.332070E+05  6.247545E+04  8.048734E+04 -2.027687E+04 -2.928311E+04 -1.177443E+04
       137  27  4.161906E+05  5.317279E+04  6.341814E+04 -9.571698E+03 -8.501505E+03 -1.259072E+04
       138   1 -2.283970E+04 -4.854351E+04 -3.316329E+04 -1.544574E+04  1.006873E+04  1.125063E+04
       138   2  3.613684E+02 -4.500372E+04 -3.322106E+04 -1.159827E+04  7.223678E+03  1.026804E+04
       138   3  2.447185E+04 -3.937582E+04 -3.090062E+04 -1.662656E+04  4.378358E+03  8.949596E+03
       138   4  1.861323E+05  2.218341E+03  1.169380E+04 -1.615656E+04  9.250564E+03  1.125008E+04
       138   5  1.856502E+05 -3.350077E+01  6.359306E+03 -1.171847E+04  6.065991E+03  1.026751E+04
       138   6  1.861355E+05 -1.386936E+02  3.638140E+03 -1.615595E+04  2.881255E+03  8.949125E+03
       138   7  3.951454E+05  5.297733E+04  5.654834E+04 -1.686762E+04  8.432127E+03  1.124953E+04
       138   8  3.709713E+05  4.493448E+04  4.593769E+04 -1.183870E+04  4.907963E+03  1.026698E+04
       138   9  3.478237E+05  3.909673E+04  3.817540E+04 -1.568522E+04  1.383768E+03  8.948652E+03
       138  10 -2.283985E+04 -4.854368E+04 -3.316372E+04 -1.544583E+04 -5.783959E-10 -6.777199E-11
       138  11  3.612841E+02 -4.500385E+04 -3.322136E+04 -1.159833E+04  4.375819E-10  3.717434E-10
       138  12  2.447180E+04 -3.937592E+04 -3.090081E+04 -1.662659E+04  1.451553E-13  3.156068E-10
       138  13  1.861322E+05  2.218182E+03  1.169340E+04 -1.615664E+04  1.137200E-09  8.078665E-10
       138  14  1.856501E+05 -3.362386E+01  6.359039E+03 -1.171852E+04  6.192822E-10  4.400315E-10
       138  15  1.861354E+05 -1.387818E+02  3.637974E+03 -1.615597E+04 -1.676228E-09 -3.318817E-10
       138  16  3.951453E+05  5.297718E+04  5.654797E+04 -1.686770E+04  1.059117E-10  7.630867E-10
       138  17  3.709713E+05  4.493436E+04  4.593745E+04 -1.183874E+04  4.587356E-10  1.506966E-10
       138  18  3.478236E+05  3.909665E+04  3.817525E+04 -1.568523E+04 -3.574103E-10 -4.514097E-10
       138  19 -2.283970E+04 -4.854351E+04 -3.316329E+04 -1.544574E+04 -1.006873E+04 -1.125063E+04
       138  20  3.613684E+02 -4.500372E+04 -3.322106E+04 -1.159827E+04 -7.223678E+03 -1.026804E+04
       138  21  2.447185E+04 -3.937582E+04 -3.090062E+04 -1.662656E+04 -4.378358E+03 -8.949596E+03
       138  22  1.861323E+05  2.218341E+03  1.169380E+04 -1.615656E+04 -9.250564E+03 -1.125008E+04
       138  23  1.856502E+05 -3.350077E+01  6.359306E+03 -1.171847E+04 -6.065991E+03 -1.026751E+04
       138  24  1.861355E+05 -1.386936E+02  3.638140E+03 -1.615595E+04 -2.881255E+03 -8.949125E+03
       138  25  3.951454E+05  5.297733E+04  5.654834E+04 -1.686762E+04 -8.432127E+03 -1.124953E+04
       138  26  3.709713E+05  4.493448E+04  4.593769E+04 -1.183870E+04 -4.907963E+03 -1.026698E+04
       138  27  3.478237E+05  3.909673E+04  3.817540E+04 -1.568522E+04 -1.383768E+03 -8.948652E+03
       139   1  4.259801E+04 -3.470227E+04 -2.775859E+04 -1.624689E+04  3.721048E+03  8.098227E+03
       139   2  6.614929E+04 -2.907991E+04 -2.402099E+04 -1.179621E+04  2.986770E+03  6.697731E+03
       139   3  8.983128E+04 -2.334943E+04 -1.977655E+04 -1.622172E+04  2.252281E+03  5.282138E+03
       139   4  1.859513E+05  6.890582E+01  2.761259E+03 -1.615624E+04  2.317348E+03  8.097844E+03
       139   5  1.858856E+05 -2.889931E+01  1.513870E+03 -1.171819E+04  1.567677E+03  6.697435E+03
       139   6  1.859531E+05 -1.583335E+01  7.840127E+02 -1.615623E+04  8.178236E+02  5.281933E+03
       139   7  3.293239E+05  3.483874E+04  3.327993E+04 -1.606556E+04  9.133282E+02  8.097461E+03
       139   8  3.056354E+05  2.902117E+04  2.704791E+04 -1.164016E+04  1.483148E+02  6.697139E+03
       139   9  2.820836E+05  2.331716E+04  2.134405E+04 -1.609074E+04 -6.168531E+02  5.281727E+03
       139  10  4.259798E+04 -3.470234E+04 -2.775873E+04 -1.624691E+04 -1.637200E-09  4.699505E-10
       139  11  6.614926E+04 -2.907996E+04 -2.402109E+04 -1.179622E+04 -4.524190E-10  6.752764E-10
       139  12  8.983127E+04 -2.334946E+04 -1.977661E+04 -1.622172E+04 -2.101474E-10  3.741994E-10
       139  13  1.859512E+05  6.883396E+01  2.761125E+03 -1.615625E+04  1.005720E-09  1.973470E-10
       139  14  1.858856E+05 -2.894814E+01  1.513781E+03 -1.171820E+04  2.142874E-09  9.233926E-10
       139  15  1.859531E+05 -1.586349E+01  7.839590E+02 -1.615623E+04  3.960642E-10 -2.354147E-10
       139  16  3.293239E+05  3.483867E+04  3.327980E+04 -1.606557E+04  7.456751E-10 -1.744390E-11
       139  17  3.056354E+05  2.902113E+04  2.704783E+04 -1.164016E+04  2.551735E-10  5.444986E-10
       139  18  2.820836E+05  2.331713E+04  2.134400E+04 -1.609073E+04  8.857858E-10 -2.855707E-10
       139  19  4.259801E+04 -3.470227E+04 -2.775859E+04 -1.624689E+04 -3.721048E+03 -8.098227E+03
       139  20  6.614929E+04 -2.907991E+04 -2.402099E+04 -1.179621E+04 -2.986770E+03 -6.697731E+03
       139  21  8.983128E+04 -2.334943E+04 -1.977655E+04 -1.622172E+04 -2.252281E+03 -5.282138E+03
       139  22  1.859513E+05  6.890582E+01  2.761259E+03 -1.615624E+04 -2.317348E+03 -8.097844E+03
       139  23  1.858856E+05 -2.889931E+01  1.513870E+03 -1.171819E+04 -1.567677E+03 -6.697435E+03
       139  24  1.859531E+05 -1.583335E+01  7.840127E+02 -1.615623E+04 -8.178236E+02 -5.281933E+03
       139  25  3.293239E+05  3.483874E+04  3.327993E+04 -1.606556E+04 -9.133282E+02 -8.097461E+03
       139  26  3.056354E+05  2.902117E+04  2.704791E+04 -1.164016E+04 -1.483148E+02 -6.697139E+03
       139  27  2.820836E+05  2.331716E+04  2.134405E+04 -1.609074E+04  6.168531E+02 -5.281727E+03
       140   1  1.080860E+05 -1.888007E+04 -1.601109E+04 -1.619785E+04  2.129780E+03  4.454687E+03
       140   2  1.316767E+05 -1.316453E+04 -1.146634E+04 -1.175907E+04  2.080889E+03  3.036180E+03
       140   3  1.552785E+05 -7.445788E+03 -6.888178E+03 -1.619063E+04  2.031905E+03  1.617231E+03
       140   4  1.859265E+05 -7.738353E+00  5.226058E+02 -1.615495E+04  7.000179E+02  4.454523E+03
       140   5  1.859217E+05 -4.122772E+00  1.001438E+02 -1.171980E+04  6.506339E+02  3.036057E+03
       140   6  1.859273E+05  2.723147E+00 -2.886668E+02 -1.615495E+04  6.011593E+02  1.617151E+03
       140   7  2.637727E+05  1.886420E+04  1.705596E+04 -1.611204E+04 -7.299206E+02  4.454360E+03
       140   8  2.401696E+05  1.315610E+04  1.166646E+04 -1.168053E+04 -7.797441E+02  3.035934E+03
       140   9  2.165770E+05  7.451173E+03  6.310797E+03 -1.611927E+04 -8.296563E+02  1.617070E+03
       140  10  1.080860E+05 -1.888009E+04 -1.601114E+04 -1.619786E+04 -1.825962E-08 -8.559350E-10
       140  11  1.316767E+05 -1.316454E+04 -1.146636E+04 -1.175908E+04  2.370274E-10 -2.314040E-09
       140  12  1.552785E+05 -7.445791E+03 -6.888191E+03 -1.619064E+04  2.054257E-08 -1.472689E-09
       140  13  1.859265E+05 -7.759794E+00  5.225676E+02 -1.615495E+04 -5.709295E-13 -9.373484E-10
       140  14  1.859217E+05 -4.132784E+00  1.001257E+02 -1.171981E+04 -1.656919E-09 -1.889784E-09
       140  15  1.859273E+05  2.720242E+00 -2.886724E+02 -1.615495E+04 -1.968859E-10 -1.510769E-09
       140  16  2.637727E+05  1.886418E+04  1.705593E+04 -1.611204E+04  1.914335E-08 -9.597065E-10
       140  17  2.401696E+05  1.315609E+04  1.166645E+04 -1.168053E+04 -1.099056E-09 -1.393512E-09
       140  18  2.165770E+05  7.451170E+03  6.310791E+03 -1.611927E+04 -2.015500E-08 -1.696883E-09
       140  19  1.080860E+05 -1.888007E+04 -1.601109E+04 -1.619785E+04 -2.129780E+03 -4.454687E+03
       140  20  1.316767E+05 -1.316453E+04 -1.146634E+04 -1.175907E+04 -2.080889E+03 -3.036180E+03
       140  21  1.552785E+05 -7.445788E+03 -6.888178E+03 -1.619063E+04 -2.031905E+03 -1.617231E+03
       140  22  1.859265E+05 -7.738353E+00  5.226058E+02 -1.615495E+04 -7.000179E+02 -4.454523E+03
       140  23  1.859217E+05 -4.122772E+00  1.001438E+02 -1.171980E+04 -6.506339E+02 -3.036057E+03
       140  24  1.859273E+05  2.723147E+00 -2.886668E+02 -1.615495E+04 -6.011593E+02 -1.617151E+03
       140  25  2.637727E+05  1.886420E+04  1.705596E+04 -1.611204E+04  7.299206E+02 -4.454360E+03
       140  26  2.401696E+05  1.315610E+04  1.166646E+04 -1.168053E+04  7.797441E+02 -3.035934E+03
       140  27  2.165770E+05  7.451173E+03  6.310797E+03 -1.611927E+04  8.296563E+02 -1.617070E+03
       141   1  1.735316E+05 -2.987683E+03 -3.083219E+03 -1.619285E+04  2.104200E+03  7.913116E+02
       141   2  1.971603E+05  2.737992E+03  1.304095E+03 -1.178528E+04  2.641192E+03 -6.273738E+02
       141   3  2.207161E+05  8.442101E+03  5.336888E+03 -1.624572E+04  3.178223E+03 -2.045549E+03
       141   4  1.859089E+05  2.166201E+00 -5.087651E+02 -1.615445E+04  6.735642E+02  7.912414E+02
       141   5  1.859456E+05  1.728644E+01 -1.087180E+03 -1.172044E+04  1.211033E+03 -6.274535E+02
       141   6  1.859088E+05  1.078241E+01 -2.020457E+03 -1.615445E+04  1.748520E+03 -2.045636E+03
       141   7  1.982863E+05  2.992006E+03  2.065688E+03 -1.611604E+04 -7.570991E+02  7.911711E+02
       141   8  1.747310E+05 -2.703426E+03 -3.478455E+03 -1.165560E+04 -2.191002E+02 -6.275334E+02
       141   9  1.511026E+05 -8.420613E+03 -9.377862E+03 -1.606319E+04  3.188969E+02 -2.045724E+03
       141  10  1.735316E+05 -2.987684E+03 -3.083229E+03 -1.619286E+04  1.530395E-12 -3.548274E-10
       141  11  1.971603E+05  2.737989E+03  1.304081E+03 -1.178528E+04  1.446735E-09  7.811926E-10
       141  12  2.207161E+05  8.442094E+03  5.336861E+03 -1.624571E+04  2.186896E-09  7.880152E-10
       141  13  1.859089E+05  2.165406E+00 -5.087671E+02 -1.615445E+04  2.284491E-09 -4.283594E-10
       141  14  1.859456E+05  1.728562E+01 -1.087184E+03 -1.172044E+04  2.821713E-09  1.027285E-09
       141  15  1.859088E+05  1.077709E+01 -2.020470E+03 -1.615445E+04  5.692850E-10  8.234524E-10
       141  16  1.982863E+05  2.992005E+03  2.065686E+03 -1.611604E+04 -2.118270E-10 -7.599582E-10
       141  17  1.747310E+05 -2.703426E+03 -3.478456E+03 -1.165560E+04 -1.406789E-09  1.018540E-09
       141  18  1.511026E+05 -8.420618E+03 -9.377870E+03 -1.606319E+04 -1.523353E-09  1.064156E-09
       141  19  1.735316E+05 -2.987683E+03 -3.083219E+03 -1.619285E+04 -2.104200E+03 -7.913116E+02
       141  20  1.971603E+05  2.737992E+03  1.304095E+03 -1.178528E+04 -2.641192E+03  6.273738E+02
       141  21  2.207161E+05  8.442101E+03  5.336888E+03 -1.624572E+04 -3.178223E+03  2.045549E+03
       141  22  1.859089E+05  2.166201E+00 -5.087651E+02 -1.615445E+04 -6.735642E+02 -7.912414E+02
       141  23  1.859456E+05  1.728644E+01 -1.087180E+03 -1.172044E+04 -1.211033E+03  6.274535E+02
       141  24  1.859088E+05  1.078241E+01 -2.020457E+03 -1.615445E+04 -1.748520E+03  2.045636E+03
       141  25  1.982863E+05  2.992006E+03  2.065688E+03 -1.611604E+04  7.570991E+02 -7.911711E+02
       141  26  1.747310E+05 -2.703426E+03 -3.478455E+03 -1.165560E+04  2.191002E+02  6.275334E+02
       141  27  1.511026E+05 -8.420613E+03 -9.377862E+03 -1.606319E+04 -3.188969E+02  2.045724E+03
       142   1  2.389212E+05  1.292542E+04  8.687431E+03 -1.630946E+04  3.608067E+03 -2.872353E+03
       142   2  2.627175E+05  1.867112E+04  1.161045E+04 -1.189556E+04  5.944656E+03 -4.287365E+03
       142   3  2.861291E+05  2.407612E+04  1.292847E+04 -1.635348E+04  8.281413E+03 -5.689446E+03
       142   4  1.858387E+05  3.503698E+01 -2.694903E+03 -1.615533E+04  2.174440E+03 -2.872461E+03
       142   5  1.860319E+05  6.743745E+01 -4.742191E+03 -1.171937E+04  4.523786E+03 -4.287530E+03
       142   6  1.858379E+05 -2.430165E+02 -8.403428E+03 -1.615532E+04  6.873213E+03 -5.689666E+03
       142   7  1.327588E+05 -1.285553E+04 -1.407739E+04 -1.600120E+04  7.409327E+02 -2.872569E+03
       142   8  1.093519E+05 -1.853663E+04 -2.109517E+04 -1.154321E+04  3.103088E+03 -4.287696E+03
       142   9  8.555621E+04 -2.456281E+04 -2.973589E+04 -1.595720E+04  5.465237E+03 -5.689887E+03
       142  10  2.389212E+05  1.292541E+04  8.687391E+03 -1.630946E+04  1.306120E-09  6.197802E-10
       142  11  2.627175E+05  1.867109E+04  1.161035E+04 -1.189554E+04 -8.799532E-10  7.461464E-11
       142  12  2.861291E+05  2.407607E+04  1.292828E+04 -1.635345E+04  7.211447E-10  3.248736E-10
       142  13  1.858387E+05  3.502685E+01 -2.694927E+03 -1.615532E+04 -4.820027E-14  4.436962E-10
       142  14  1.860319E+05  6.741221E+01 -4.742264E+03 -1.171936E+04  4.674517E-10 -7.845302E-11
       142  15  1.858379E+05 -2.430639E+02 -8.403577E+03 -1.615529E+04  3.208078E-09  3.067139E-11
       142  16  1.327588E+05 -1.285554E+04 -1.407741E+04 -1.600120E+04 -1.828539E-09  3.679692E-10
       142  17  1.093519E+05 -1.853665E+04 -2.109522E+04 -1.154320E+04 -2.056949E-09 -4.336458E-11
       142  18  8.555616E+04 -2.456285E+04 -2.973601E+04 -1.595717E+04  9.514380E-10  5.039876E-11
       142  19  2.389212E+05  1.292542E+04  8.687431E+03 -1.630946E+04 -3.608067E+03  2.872353E+03
       142  20  2.627175E+05  1.867112E+04  1.161045E+04 -1.189556E+04 -5.944656E+03  4.287365E+03
       142  21  2.861291E+05  2.407612E+04  1.292847E+04 -1.635348E+04 -8.281413E+03  5.689446E+03
       142  22  1.858387E+05  3.503698E+01 -2.694903E+03 -1.615533E+04 -2.174440E+03  2.872461E+03
       142  23  1.860319E+05  6.743745E+01 -4.742191E+03 -1.171937E+04 -4.523786E+03  4.287530E+03
       142  24  1.858379E+05 -2.430165E+02 -8.403428E+03 -1.615532E+04 -6.873213E+03  5.689666E+03
       142  25  1.327588E+05 -1.285553E+04 -1.407739E+04 -1.600120E+04 -7.409327E+02  2.872569E+03
       142  26  1.093519E+05 -1.853663E+04 -2.109517E+04 -1.154321E+04 -3.103088E+03  4.287696E+03
       142  27  8.555621E+04 -2.456281E+04 -2.973589E+04 -1.595720E+04 -5.465237E+03  5.689887E+03
       143   1  3.038792E+05  2.915900E+04  1.434156E+04 -1.747585E+04  1.007277E+04 -6.535930E+03
       143   2  3.289146E+05  3.455985E+04  1.122854E+04 -1.122260E+04  1.937706E+04 -7.866045E+03
       143   3  3.511493E+05  3.355316E+04  4.616691E+02 -1.383490E+04  2.868187E+04 -8.910656E+03
       143   4  1.852892E+05  3.782415E+02 -1.100773E+04 -1.615432E+04  8.585018E+03 -6.536193E+03
       143   5  1.867153E+05  5.316499E+01 -1.914695E+04 -1.172081E+04  1.817513E+04 -7.866406E+03
       143   6  1.852891E+05 -6.730118E+03 -3.513995E+04 -1.615309E+04  2.776541E+04 -8.911137E+03
       143   7  6.671249E+04 -2.840342E+04 -3.635782E+04 -1.483305E+04  7.097542E+03 -6.536463E+03
       143   8  4.453496E+04 -3.445483E+04 -4.952360E+04 -1.221891E+04  1.697346E+04 -7.866765E+03
       143   9  1.945481E+04 -4.701518E+04 -7.074316E+04 -1.847065E+04  2.684920E+04 -8.911610E+03
       143  10  3.038791E+05  2.915892E+04  1.434129E+04 -1.747580E+04  9.814463E-10  2.489677E-10
       143  11  3.289142E+05  3.455968E+04  1.122772E+04 -1.122247E+04  1.727338E-09 -2.467339E-10
       143  12  3.511484E+05  3.355286E+04  4.599748E+02 -1.383469E+04  4.450865E-10 -7.115397E-10
       143  13  1.852892E+05  3.781758E+02 -1.100795E+04 -1.615428E+04  2.145668E-09 -2.514211E-11
       143  14  1.867149E+05  5.300989E+01 -1.914768E+04 -1.172070E+04  2.140685E-09 -4.154970E-10
       143  15  1.852883E+05 -6.730410E+03 -3.514154E+04 -1.615289E+04  2.974013E-10 -6.575864E-10
       143  16  6.671242E+04 -2.840348E+04 -3.635800E+04 -1.483301E+04  7.130751E-10  3.234011E-11
       143  17  4.453464E+04 -3.445498E+04 -4.952425E+04 -1.221880E+04 -2.665072E-09 -1.387600E-11
       143  18  1.945401E+04 -4.701546E+04 -7.074466E+04 -1.847046E+04 -4.028898E-10 -2.453890E-10
       143  19  3.038792E+05  2.915900E+04  1.434156E+04 -1.747585E+04 -1.007277E+04  6.535930E+03
       143  20  3.289146E+05  3.455985E+04  1.122854E+04 -1.122260E+04 -1.937706E+04  7.866045E+03
       143  21  3.511493E+05  3.355316E+04  4.616691E+02 -1.383490E+04 -2.868187E+04  8.910656E+03
       143  22  1.852892E+05  3.782415E+02 -1.100773E+04 -1.615432E+04 -8.585018E+03  6.536193E+03
       143  23  1.867153E+05  5.316499E+01 -1.914695E+04 -1.172081E+04 -1.817513E+04  7.866406E+03
       143  24  1.852891E+05 -6.730118E+03 -3.513995E+04 -1.615309E+04 -2.776541E+04  8.911137E+03
       143  25  6.671249E+04 -2.840342E+04 -3.635782E+04 -1.483305E+04 -7.097542E+03  6.536463E+03
       143  26  4.453496E+04 -3.445483E+04 -4.952360E+04 -1.221891E+04 -1.697346E+04  7.866765E+03
       143  27  1.945481E+04 -4.701518E+04 -7.074316E+04 -1.847065E+04 -2.684920E+04  8.911610E+03
       144   1  3.621036E+05  5.080004E+04 -5.099023E+03 -3.542753E+04  3.657593E+04 -1.017196E+04
       144   2  4.036713E+05  4.640293E+04 -3.123252E+04  1.393352E+04  7.090314E+04 -9.670707E+03
       144   3  4.095451E+05 -8.303132E+04 -1.109534E+05  5.473551E+04  1.052300E+05 -3.026522E+03
       144   4  1.777456E+05  6.072622E+03 -4.449248E+04 -1.609714E+04  3.396582E+04 -1.017169E+04
       144   5  1.961440E+05 -4.209785E+03 -7.673900E+04 -1.179401E+04  7.447176E+04 -9.672764E+03
       144   6  1.777586E+05 -1.406322E+05 -1.668752E+05 -1.604980E+04  1.149755E+05 -3.034964E+03
       144   7 -6.579482E+03 -3.865561E+04 -8.388768E+04  3.227440E+03  3.135648E+04 -1.017158E+04
       144   8 -1.134151E+04 -5.482289E+04 -1.222477E+05 -3.751283E+04  7.803920E+04 -9.675116E+03
       144   9 -5.396791E+04 -1.982181E+05 -2.227979E+05 -8.680860E+04  1.247174E+05 -3.045631E+03
       144  10  3.621021E+05  5.079957E+04 -5.101730E+03 -3.542723E+04  3.327870E-10 -1.060972E-09
       144  11  4.036659E+05  4.640149E+04 -3.124213E+04  1.393407E+04  1.495177E-11 -1.526794E-09
       144  12  4.095332E+05 -8.303430E+04 -1.109742E+05  5.473577E+04 -9.617561E-10 -4.267839E-10
       144  13  1.777444E+05  6.072202E+03 -4.449484E+04 -1.609686E+04 -2.465959E-10 -1.712513E-09
       144  14  1.961381E+05 -4.211374E+03 -7.674959E+04 -1.179343E+04 -1.403651E-09  1.857155E-10
       144  15  1.777444E+05 -1.406357E+05 -1.669001E+05 -1.604951E+04  4.310219E-10 -3.377294E-10
       144  16 -6.580565E+03 -3.865598E+04 -8.388973E+04  3.227697E+03  3.162995E-10 -4.270216E-10
       144  17 -1.134808E+04 -5.482463E+04 -1.222593E+05 -3.751222E+04  1.733400E-09  1.170499E-10
       144  18 -5.398462E+04 -1.982223E+05 -2.228271E+05 -8.680829E+04  1.354558E-09 -4.042864E-10
       144  19  3.621036E+05  5.080004E+04 -5.099023E+03 -3.542753E+04 -3.657593E+04  1.017196E+04
       144  20  4.036713E+05  4.640293E+04 -3.123252E+04  1.393352E+04 -7.090314E+04  9.670707E+03
       144  21  4.095451E+05 -8.303132E+04 -1.109534E+05  5.473551E+04 -1.052300E+05  3.026522E+03
       144  22  1.777456E+05  6.072622E+03 -4.449248E+04 -1.609714E+04 -3.396582E+04  1.017169E+04
       144  23  1.961440E+05 -4.209785E+03 -7.673900E+04 -1.179401E+04 -7.447176E+04  9.672764E+03
       144  24  1.777586E+05 -1.406322E+05 -1.668752E+05 -1.604980E+04 -1.149755E+05  3.034964E+03
       144  25 -6.579482E+03 -3.865561E+04 -8.388768E+04  3.227440E+03 -3.135648E+04  1.017158E+04
       144  26 -1.134151E+04 -5.482289E+04 -1.222477E+05 -3.751283E+04 -7.803920E+04  9.675116E+03
       144  27 -5.396791E+04 -1.982181E+05 -2.227979E+05 -8.680860E+04 -1.247174E+05  3.045631E+03
       145   1  3.522751E+05  1.348460E+06  3.444712E+05 -2.183686E+05  1.640723E+04  5.608738E+04
       145   2  2.630604E+05  1.030149E+06  2.407251E+05 -1.584380E+05  4.817034E+04  1.552910E+04
       145   3  1.863430E+05  7.203792E+05  1.664861E+05 -2.144510E+05  4.145143E+04 -2.504163E+04
       145   4  6.089222E+03 -4.599925E+04  6.931682E+03 -2.143461E+05  1.646253E+04  4.634274E+03
       145   5  3.140922E+02 -4.676092E+04  3.282799E+03 -1.563723E+05  4.819282E+04  2.943688E+03
       145   6  3.142703E+02 -4.579733E+04  2.195213E+03 -2.143530E+05  4.141135E+04  1.220221E+03
       145   7 -3.402376E+05 -1.438679E+06 -3.307378E+05 -2.103320E+05  1.651724E+04 -4.670382E+04
       145   8 -2.625100E+05 -1.122588E+06 -2.342302E+05 -1.543098E+05  4.821524E+04 -9.620181E+03
       145   9 -1.857525E+05 -8.114207E+05 -1.621273E+05 -2.142547E+05  4.137126E+04  2.745015E+04
       145  10  3.522739E+05  1.348457E+06  3.444648E+05 -2.183693E+05  1.406892E-09  2.550315E-09
       145  11  2.630578E+05  1.030148E+06  2.407203E+05 -1.584386E+05  1.474561E-09 -1.017819E-09
       145  12  1.863410E+05  7.203781E+05  1.664817E+05 -2.144502E+05  1.154409E-10 -2.655298E-09
       145  13  6.088925E+03 -4.599935E+04  6.931132E+03 -2.143462E+05  5.213823E-10 -1.323488E-12
       145  14  3.115959E+02 -4.676155E+04  3.278418E+03 -1.563724E+05  2.139035E-09 -5.911567E-10
       145  15  3.124284E+02 -4.579779E+04  2.191987E+03 -2.143530E+05  1.176336E-09 -1.902038E-10
       145  16 -3.402384E+05 -1.438681E+06 -3.307424E+05 -2.103314E+05  6.726812E-11 -1.813263E-09
       145  17 -2.625125E+05 -1.122589E+06 -2.342347E+05 -1.543094E+05 -5.875190E-10  2.115445E-09
       145  18 -1.857545E+05 -8.114219E+05 -1.621319E+05 -2.142556E+05 -6.953185E-11  1.731678E-09
       145  19  3.522751E+05  1.348460E+06  3.444712E+05 -2.183686E+05 -1.640723E+04 -5.608738E+04
       145  20  2.630604E+05  1.030149E+06  2.407251E+05 -1.584380E+05 -4.817034E+04 -1.552910E+04
       145  21  1.863430E+05  7.203792E+05  1.664861E+05 -2.144510E+05 -4.145143E+04  2.504163E+04
       145  22  6.089222E+03 -4.599925E+04  6.931682E+03 -2.143461E+05 -1.646253E+04 -4.634274E+03
       145  23  3.140922E+02 -4.676092E+04  3.282799E+03 -1.563723E+05 -4.819282E+04 -2.943688E+03
       145  24  3.142703E+02 -4.579733E+04  2.195213E+03 -2.143530E+05 -4.141135E+04 -1.220221E+03
       145  25 -3.402376E+05 -1.438679E+06 -3.307378E+05 -2.103320E+05 -1.651724E+04  4.670382E+04
       145  26 -2.625100E+05 -1.122588E+06 -2.342302E+05 -1.543098E+05 -4.821524E+04  9.620181E+03
       145  27 -1.857525E+05 -8.114207E+05 -1.621273E+05 -2.142547E+05 -4.137126E+04 -2.745015E+04
       146   1  1.277603E+05  4.759913E+05  1.142791E+05 -2.155300E+05  2.763866E+04 -1.512418E+04
       146   2  5.110249E+04  1.623721E+05  4.612906E+04 -1.561458E+05  1.154244E+04 -1.643336E+04
       146   3 -2.460714E+04 -1.511585E+05 -2.104099E+04 -2.144692E+05 -5.048268E+03 -1.774680E+04
       146   4  8.860323E+02 -4.613240E+04  1.902199E+03 -2.147412E+05  2.761182E+04  8.606850E+02
       146   5  5.070056E+02 -4.606753E+04  1.577822E+03 -1.558863E+05  1.151302E+04  4.688546E+01
       146   6  9.961079E+02 -4.609296E+04  1.892826E+03 -2.147411E+05 -5.080677E+03 -7.718172E+02
       146   7 -1.260060E+05 -5.679995E+05 -1.104898E+05 -2.139529E+05  2.758502E+04  1.683231E+04
       146   8 -5.009117E+04 -2.544657E+05 -4.297491E+04 -1.556268E+05  1.148362E+04  1.652168E+04
       146   9  2.659878E+04  5.898350E+04  2.482706E+04 -2.150130E+05 -5.113098E+03  1.620601E+04
       146  10  1.277594E+05  4.759908E+05  1.142773E+05 -2.155297E+05  3.986413E-10  4.147934E-09
       146  11  5.110227E+04  1.623718E+05  4.612830E+04 -1.561457E+05 -3.070810E-10  7.579177E-10
       146  12 -2.460725E+04 -1.511588E+05 -2.104163E+04 -2.144693E+05 -1.245326E-09  1.182345E-09
       146  13  8.852134E+02 -4.613261E+04  1.900764E+03 -2.147412E+05  9.207075E-11  4.254414E-12
       146  14  5.068633E+02 -4.606757E+04  1.577573E+03 -1.558863E+05 -4.836999E-10 -8.509550E-10
       146  15  9.960800E+02 -4.609297E+04  1.892777E+03 -2.147411E+05 -7.760677E-10 -1.838731E-10
       146  16 -1.260069E+05 -5.680000E+05 -1.104918E+05 -2.139533E+05 -1.275279E-09 -2.653424E-09
       146  17 -5.009138E+04 -2.544660E+05 -4.297568E+04 -1.556269E+05  4.271356E-10  8.396328E-10
       146  18  2.659868E+04  5.898321E+04  2.482652E+04 -2.150130E+05  9.220726E-10 -2.265406E-09
       146  19  1.277603E+05  4.759913E+05  1.142791E+05 -2.155300E+05 -2.763866E+04  1.512418E+04
       146  20  5.110249E+04  1.623721E+05  4.612906E+04 -1.561458E+05 -1.154244E+04  1.643336E+04
       146  21 -2.460714E+04 -1.511585E+05 -2.104099E+04 -2.144692E+05  5.048268E+03  1.774680E+04
       146  22  8.860323E+02 -4.613240E+04  1.902199E+03 -2.147412E+05 -2.761182E+04 -8.606850E+02
       146  23  5.070056E+02 -4.606753E+04  1.577822E+03 -1.558863E+05 -1.151302E+04 -4.688546E+01
       146  24  9.961079E+02 -4.609296E+04  1.892826E+03 -2.147411E+05  5.080677E+03  7.718172E+02
       146  25 -1.260060E+05 -5.679995E+05 -1.104898E+05 -2.139529E+05 -2.758502E+04 -1.683231E+04
       146  26 -5.009117E+04 -2.544657E+05 -4.297491E+04 -1.556268E+05 -1.148362E+04 -1.652168E+04
       146  27  2.659878E+04  5.898350E+04  2.482706E+04 -2.150130E+05  5.113098E+03 -1.620601E+04
       147   1 -8.432806E+04 -3.944454E+05 -7.309925E+04 -2.147810E+05 -1.811863E+04 -2.530214E+04
       147   2 -1.607796E+05 -7.063717E+05 -1.432458E+05 -1.544061E+05 -2.822734E+04  1.050620E+03
       147   3 -2.365149E+05 -1.021702E+06 -2.304519E+05 -2.105195E+05 -1.045746E+04  2.742559E+04
       147   4  4.716573E+02 -4.579060E+04  2.164253E+03 -2.144699E+05 -1.816318E+04 -1.127461E+03
       147   5  5.532440E+02 -4.654195E+04  3.263637E+03 -1.562258E+05 -2.821882E+04 -2.854193E+03
       147   6  6.232314E+03 -4.591462E+04  6.815101E+03 -2.144613E+05 -1.040939E+04 -4.544961E+03
       147   7  8.526368E+04  3.029796E+05  7.742277E+04 -2.141586E+05 -1.820769E+04  2.306062E+04
       147   8  1.618566E+05  6.136945E+05  1.497461E+05 -1.580472E+05 -2.821028E+04 -6.763113E+03
       147   9  2.489101E+05  9.307448E+05  2.440170E+05 -2.184087E+05 -1.036095E+04 -3.656568E+04
       147  10 -8.432858E+04 -3.944461E+05 -7.310107E+04 -2.147814E+05 -2.470876E-09  2.341464E-08
       147  11 -1.607804E+05 -7.063720E+05 -1.432473E+05 -1.544061E+05 -2.437915E-09  7.924382E-10
       147  12 -2.365153E+05 -1.021703E+06 -2.304535E+05 -2.105193E+05  9.315277E-10 -1.814728E-08
       147  13  4.713027E+02 -4.579069E+04  2.163630E+03 -2.144700E+05 -1.523823E-09  1.966972E-11
       147  14  5.523867E+02 -4.654217E+04  3.262125E+03 -1.562259E+05 -1.525132E-09 -7.349993E-10
       147  15  6.232192E+03 -4.591467E+04  6.814858E+03 -2.144613E+05  9.317674E-10 -1.410088E-10
       147  16  8.526318E+04  3.029790E+05  7.742115E+04 -2.141583E+05  5.673170E-10 -2.179871E-08
       147  17  1.618557E+05  6.136942E+05  1.497445E+05 -1.580474E+05 -1.152675E-09  7.643851E-10
       147  18  2.489096E+05  9.307434E+05  2.440142E+05 -2.184090E+05 -3.754632E-11  1.746360E-08
       147  19 -8.432806E+04 -3.944454E+05 -7.309925E+04 -2.147810E+05  1.811863E+04  2.530214E+04
       147  20 -1.607796E+05 -7.063717E+05 -1.432458E+05 -1.544061E+05  2.822734E+04 -1.050620E+03
       147  21 -2.365149E+05 -1.021702E+06 -2.304519E+05 -2.105195E+05  1.045746E+04 -2.742559E+04
       147  22  4.716573E+02 -4.579060E+04  2.164253E+03 -2.144699E+05  1.816318E+04  1.127461E+03
       147  23  5.532440E+02 -4.654195E+04  3.263637E+03 -1.562258E+05  2.821882E+04  2.854193E+03
       147  24  6.232314E+03 -4.591462E+04  6.815101E+03 -2.144613E+05  1.040939E+04  4.544961E+03
       147  25  8.526368E+04  3.029796E+05  7.742277E+04 -2.141586E+05  1.820769E+04 -2.306062E+04
       147  26  1.618566E+05  6.136945E+05  1.497461E+05 -1.580472E+05  2.821028E+04  6.763113E+03
       147  27  2.489101E+05  9.307448E+05  2.440170E+05 -2.184087E+05  1.036095E+04  3.656568E+04
       148   1 -6.412551E+05 -2.617168E+05 -1.540476E+05 -2.426559E+05 -5.070354E+04 -1.295417E+04
       148   2 -5.946649E+05 -1.860226E+05 -1.029136E+05 -2.227528E+05 -3.221556E+04  6.629716E+03
       148   3 -5.512017E+05 -1.640280E+05 -7.930717E+04 -2.099116E+05 -9.507105E+03  1.498442E+04
       148   4 -2.699426E+05 -1.030285E+05 -5.158264E+04 -1.218608E+05 -3.497348E+04 -7.049465E+03
       148   5 -2.666114E+05 -5.728939E+04 -2.255555E+04 -1.258118E+05 -2.706751E+04  8.561076E+03
       148   6 -2.643035E+05 -6.314074E+04 -1.265735E+04 -1.368282E+05 -1.494445E+04  1.294341E+04
       148   7  1.015070E+05  5.568073E+04  5.087130E+04 -9.956950E+02 -1.923299E+04 -1.139631E+03
       148   8  6.154990E+04  7.145511E+04  5.779478E+04 -2.882269E+04 -2.191649E+04  1.049370E+04
       148   9  2.267660E+04  3.775044E+04  5.398699E+04 -6.371487E+04 -2.038454E+04  1.090149E+04
       148  10 -6.412579E+05 -2.617177E+05 -1.540527E+05 -2.426564E+05  1.613138E-08  6.432427E-09
       148  11 -5.946660E+05 -1.860230E+05 -1.029157E+05 -2.227526E+05 -5.212217E-10  1.683610E-09
       148  12 -5.512019E+05 -1.640283E+05 -7.930776E+04 -2.099115E+05 -1.887580E-08 -6.028826E-09
       148  13 -2.699440E+05 -1.030289E+05 -5.158503E+04 -1.218610E+05  1.863423E-09  1.403398E-09
       148  14 -2.666123E+05 -5.728966E+04 -2.255707E+04 -1.258116E+05  1.241344E-09  2.549519E-09
       148  15 -2.643038E+05 -6.314098E+04 -1.265809E+04 -1.368281E+05  1.028884E-09  3.355349E-10
       148  16  1.015066E+05  5.568063E+04  5.087061E+04 -9.957126E+02 -1.511342E-08 -4.842928E-09
       148  17  6.154936E+04  7.145487E+04  5.779367E+04 -2.882251E+04  2.348582E-09  2.811382E-09
       148  18  2.267612E+04  3.775020E+04  5.398599E+04 -6.371469E+04  2.069590E-08  7.286165E-09
       148  19 -6.412551E+05 -2.617168E+05 -1.540476E+05 -2.426559E+05  5.070354E+04  1.295417E+04
       148  20 -5.946649E+05 -1.860226E+05 -1.029136E+05 -2.227528E+05  3.221556E+04 -6.629716E+03
       148  21 -5.512017E+05 -1.640280E+05 -7.930717E+04 -2.099116E+05  9.507105E+03 -1.498442E+04
       148  22 -2.699426E+05 -1.030285E+05 -5.158264E+04 -1.218608E+05  3.497348E+04  7.049465E+03
       148  23 -2.666114E+05 -5.728939E+04 -2.255555E+04 -1.258118E+05  2.706751E+04 -8.561076E+03
       148  24 -2.643035E+05 -6.314074E+04 -1.265735E+04 -1.368282E+05  1.494445E+04 -1.294341E+04
       148  25  1.015070E+05  5.568073E+04  5.087130E+04 -9.956950E+02  1.923299E+04  1.139631E+03
       148  26  6.154990E+04  7.145511E+04  5.779478E+04 -2.882269E+04  2.191649E+04 -1.049370E+04
       148  27  2.267660E+04  3.775044E+04  5.398699E+04 -6.371487E+04  2.038454E+04 -1.090149E+04
       149   1 -5.037922E+05 -1.569568E+05 -6.723398E+04 -2.016901E+05 -1.013078E+04  1.155366E+04
       149   2 -4.598506E+05 -1.280307E+05 -5.013419E+04 -1.793188E+05 -6.071515E+03  1.015559E+04
       149   3 -4.022410E+05 -1.161345E+05 -3.591766E+04 -1.735261E+05 -1.822773E+03  8.250891E+03
       149   4 -2.626035E+05 -6.671873E+04 -9.977007E+03 -1.347064E+05 -1.230874E+04  1.073602E+04
       149   5 -2.693315E+05 -5.719108E+04 -5.175358E+03 -1.268130E+05 -8.726298E+03  9.159427E+03
       149   6 -2.622990E+05 -6.459844E+04 -2.878096E+03 -1.354991E+05 -4.954663E+03  7.076177E+03
       149   7 -2.135838E+04  2.352327E+04  4.727547E+04 -6.769930E+04 -1.448761E+04  9.918039E+03
       149   8 -7.877618E+04  1.365116E+04  3.978094E+04 -7.429254E+04 -1.138197E+04  8.162928E+03
       149   9 -1.223367E+05 -1.306077E+04  3.016033E+04 -9.746416E+04 -8.087338E+03  5.901174E+03
       149  10 -5.037923E+05 -1.569570E+05 -6.723443E+04 -2.016901E+05 -7.415655E-10 -1.656837E-09
       149  11 -4.598507E+05 -1.280308E+05 -5.013446E+04 -1.793188E+05 -2.078771E-09 -1.659232E-09
       149  12 -4.022411E+05 -1.161346E+05 -3.591779E+04 -1.735261E+05  9.880256E-10 -1.725166E-09
       149  13 -2.626037E+05 -6.671890E+04 -9.977508E+03 -1.347063E+05  1.345134E-09 -7.166830E-10
       149  14 -2.693316E+05 -5.719119E+04 -5.175659E+03 -1.268130E+05  6.128720E-10 -1.454349E-09
       149  15 -2.622990E+05 -6.459850E+04 -2.878236E+03 -1.354991E+05 -2.076416E-10 -1.307455E-09
       149  16 -2.135863E+04  2.352310E+04  4.727489E+04 -6.769919E+04  2.687754E-09  4.098204E-11
       149  17 -7.877634E+04  1.365106E+04  3.978058E+04 -7.429247E+04  1.302538E-09 -9.502273E-10
       149  18 -1.223368E+05 -1.306082E+04  3.016014E+04 -9.746412E+04 -3.751398E-10 -9.213472E-10
       149  19 -5.037922E+05 -1.569568E+05 -6.723398E+04 -2.016901E+05  1.013078E+04 -1.155366E+04
       149  20 -4.598506E+05 -1.280307E+05 -5.013419E+04 -1.793188E+05  6.071515E+03 -1.015559E+04
       149  21 -4.022410E+05 -1.161345E+05 -3.591766E+04 -1.735261E+05  1.822773E+03 -8.250891E+03
       149  22 -2.626035E+05 -6.671873E+04 -9.977007E+03 -1.347064E+05  1.230874E+04 -1.073602E+04
       149  23 -2.693315E+05 -5.719108E+04 -5.175358E+03 -1.268130E+05  8.726298E+03 -9.159427E+03
       149  24 -2.622990E+05 -6.459844E+04 -2.878096E+03 -1.354991E+05  4.954663E+03 -7.076177E+03
       149  25 -2.135838E+04  2.352327E+04  4.727547E+04 -6.769930E+04  1.448761E+04 -9.918039E+03
       149  26 -7.877618E+04  1.365116E+04  3.978094E+04 -7.429254E+04  1.138197E+04 -8.162928E+03
       149  27 -1.223367E+05 -1.306077E+04  3.016033E+04 -9.746416E+04  8.087338E+03 -5.901174E+03
       150   1 -3.608795E+05 -1.013261E+05 -2.527051E+04 -1.624627E+05 -8.461727E+02  6.441042E+03
       150   2 -3.171666E+05 -7.485444E+04 -1.243651E+04 -1.399151E+05  9.813720E+02  3.502258E+03
       150   3 -2.586936E+05 -6.339621E+04 -1.076018E+02 -1.344154E+05  2.817391E+03  5.402346E+02
       150   4 -2.621598E+05 -6.478127E+04 -2.194816E+03 -1.353731E+05 -3.832673E+03  5.321012E+03
       150   5 -2.695330E+05 -5.722599E+04 -1.228756E+03 -1.268674E+05 -2.027017E+03  2.374119E+03
       150   6 -2.621440E+05 -6.467973E+04 -7.502046E+02 -1.354105E+05 -2.129501E+02 -5.960184E+02
       150   7 -1.634304E+05 -2.823575E+04  2.088023E+04 -1.082796E+05 -6.819689E+03  4.200789E+03
       150   8 -2.218971E+05 -3.959742E+04  9.978839E+03 -1.138189E+05 -5.035648E+03  1.245890E+03
       150   9 -2.655944E+05 -6.596323E+04 -1.392763E+03 -1.364057E+05 -3.243256E+03 -1.732258E+03
       150  10 -3.608795E+05 -1.013261E+05 -2.527059E+04 -1.624627E+05 -3.115956E-09 -2.193843E-09
       150  11 -3.171666E+05 -7.485445E+04 -1.243653E+04 -1.399151E+05  7.336595E-09  2.932226E-09
       150  12 -2.586936E+05 -6.339621E+04 -1.076173E+02 -1.344154E+05  1.266847E-08  7.337789E-09
       150  13 -2.621598E+05 -6.478131E+04 -2.194897E+03 -1.353731E+05  1.017797E-09 -1.096164E-09
       150  14 -2.695330E+05 -5.722599E+04 -1.228774E+03 -1.268674E+05 -1.092003E-09  2.883918E-11
       150  15 -2.621440E+05 -6.467973E+04 -7.502053E+02 -1.354105E+05 -2.449593E-10  2.394312E-09
       150  16 -1.634304E+05 -2.823578E+04  2.088011E+04 -1.082796E+05  3.355723E-09 -8.277545E-11
       150  17 -2.218972E+05 -3.959743E+04  9.978789E+03 -1.138189E+05 -8.392407E-09 -2.912635E-09
       150  18 -2.655944E+05 -6.596324E+04 -1.392788E+03 -1.364057E+05 -1.073457E-08 -2.585949E-09
       150  19 -3.608795E+05 -1.013261E+05 -2.527051E+04 -1.624627E+05  8.461727E+02 -6.441042E+03
       150  20 -3.171666E+05 -7.485444E+04 -1.243651E+04 -1.399151E+05 -9.813720E+02 -3.502258E+03
       150  21 -2.586936E+05 -6.339621E+04 -1.076018E+02 -1.344154E+05 -2.817391E+03 -5.402346E+02
       150  22 -2.621598E+05 -6.478127E+04 -2.194816E+03 -1.353731E+05  3.832673E+03 -5.321012E+03
       150  23 -2.695330E+05 -5.722599E+04 -1.228756E+03 -1.268674E+05  2.027017E+03 -2.374119E+03
       150  24 -2.621440E+05 -6.467973E+04 -7.502046E+02 -1.354105E+05  2.129501E+02  5.960184E+02
       150  25 -1.634304E+05 -2.823575E+04  2.088023E+04 -1.082796E+05  6.819689E+03 -4.200789E+03
       150  26 -2.218971E+05 -3.959742E+04  9.978839E+03 -1.138189E+05  5.035648E+03 -1.245890E+03
       150  27 -2.655944E+05 -6.596323E+04 -1.392763E+03 -1.364057E+05  3.243256E+03  1.732258E+03
       151   1 -2.176780E+05 -4.816681E+04  1.001199E+04 -1.231940E+05  3.624860E+03 -1.287853E+03
       151   2 -1.740156E+05 -2.182282E+04  2.196007E+04 -1.006340E+05  5.085843E+03 -4.395183E+03
       151   3 -1.155028E+05 -1.037257E+04  3.371376E+04 -9.512761E+04  6.547248E+03 -7.502349E+03
       151   4 -2.621300E+05 -6.468636E+04 -6.241586E+02 -1.354001E+05  6.012450E+02 -2.421619E+03
       151   5 -2.695555E+05 -5.724170E+04 -5.203870E+02 -1.268722E+05  2.062129E+03 -5.529206E+03
       151   6 -2.621346E+05 -6.469182E+04 -6.112827E+02 -1.353998E+05  3.523397E+03 -8.636607E+03
       151   7 -3.065804E+05 -8.120592E+04 -1.126052E+04 -1.476055E+05 -2.422162E+03 -3.555306E+03
       151   8 -3.650861E+05 -9.265979E+04 -2.300136E+04 -1.531066E+05 -9.610698E+02 -6.663035E+03
       151   9 -4.087427E+05 -1.190086E+05 -3.493714E+04 -1.756626E+05  5.003693E+02 -9.770557E+03
       151  10 -2.176780E+05 -4.816681E+04  1.001196E+04 -1.231940E+05 -1.296404E-08 -2.387953E-09
       151  11 -1.740156E+05 -2.182285E+04  2.195999E+04 -1.006339E+05 -5.531419E-09 -2.470587E-09
       151  12 -1.155028E+05 -1.037265E+04  3.371357E+04 -9.512758E+04  5.098422E-09  3.482417E-11
       151  13 -2.621300E+05 -6.468637E+04 -6.241703E+02 -1.354001E+05  2.024163E-09  2.433281E-09
       151  14 -2.695556E+05 -5.724173E+04 -5.204524E+02 -1.268722E+05  1.359398E-13  1.637540E-11
       151  15 -2.621346E+05 -6.469191E+04 -6.114461E+02 -1.353997E+05  1.255166E-09 -1.378211E-09
       151  16 -3.065804E+05 -8.120594E+04 -1.126055E+04 -1.476055E+05  1.445779E-08  7.358611E-09
       151  17 -3.650861E+05 -9.265984E+04 -2.300144E+04 -1.531066E+05  5.721788E-09  2.460761E-09
       151  18 -4.087427E+05 -1.190087E+05 -3.493732E+04 -1.756626E+05 -5.532776E-09 -2.903294E-09
       151  19 -2.176780E+05 -4.816681E+04  1.001199E+04 -1.231940E+05 -3.624860E+03  1.287853E+03
       151  20 -1.740156E+05 -2.182282E+04  2.196007E+04 -1.006340E+05 -5.085843E+03  4.395183E+03
       151  21 -1.155028E+05 -1.037257E+04  3.371376E+04 -9.512761E+04 -6.547248E+03  7.502349E+03
       151  22 -2.621300E+05 -6.468636E+04 -6.241586E+02 -1.354001E+05 -6.012450E+02  2.421619E+03
       151  23 -2.695555E+05 -5.724170E+04 -5.203870E+02 -1.268722E+05 -2.062129E+03  5.529206E+03
       151  24 -2.621346E+05 -6.469182E+04 -6.112827E+02 -1.353998E+05 -3.523397E+03  8.636607E+03
       151  25 -3.065804E+05 -8.120592E+04 -1.126052E+04 -1.476055E+05  2.422162E+03  3.555306E+03
       151  26 -3.650861E+05 -9.265979E+04 -2.300136E+04 -1.531066E+05  9.610698E+02  6.663035E+03
       151  27 -4.087427E+05 -1.190086E+05 -3.493714E+04 -1.756626E+05 -5.003693E+02  9.770557E+03
       152   1 -7.455965E+04  4.866868E+03  4.358080E+04 -8.390516E+04  7.356946E+03 -9.325628E+03
       152   2 -3.095511E+04  3.117450E+04  5.494325E+04 -6.136718E+04  9.146922E+03 -1.230512E+04
       152   3  2.745285E+04  4.258647E+04  6.586681E+04 -5.585828E+04  1.093639E+04 -1.527982E+04
       152   4 -2.621468E+05 -6.468915E+04 -7.292378E+02 -1.353964E+05  4.334350E+03 -1.045964E+04
       152   5 -2.695525E+05 -5.725606E+04 -1.190896E+03 -1.268768E+05  6.128279E+03 -1.343819E+04
       152   6 -2.621573E+05 -6.471981E+04 -2.094358E+03 -1.353877E+05  7.921654E+03 -1.641196E+04
       152   7 -4.497002E+05 -1.342431E+05 -4.504209E+04 -1.868739E+05  1.312726E+03 -1.159328E+04
       152   8 -5.080962E+05 -1.456837E+05 -5.732982E+04 -1.923644E+05  3.110860E+03 -1.457080E+04
       152   9 -5.516891E+05 -1.720220E+05 -7.006277E+04 -2.148847E+05  4.908390E+03 -1.754355E+04
       152  10 -7.455973E+04  4.866760E+03  4.358053E+04 -8.390511E+04 -1.827225E-09 -2.245749E-09
       152  11 -3.095524E+04  3.117431E+04  5.494281E+04 -6.136709E+04  7.062240E-09  2.742814E-09
       152  12  2.745266E+04  4.258619E+04  6.586615E+04 -5.585814E+04  1.131050E-08  6.284534E-09
       152  13 -2.621468E+05 -6.468927E+04 -7.294787E+02 -1.353964E+05  7.947301E-10 -9.510427E-10
       152  14 -2.695526E+05 -5.725627E+04 -1.191306E+03 -1.268768E+05 -1.331403E-10  3.043609E-10
       152  15 -2.621574E+05 -6.472012E+04 -2.094982E+03 -1.353876E+05 -3.551874E-09  6.298652E-10
       152  16 -4.497002E+05 -1.342433E+05 -4.504234E+04 -1.868739E+05  2.737436E-09  2.010034E-10
       152  17 -5.080962E+05 -1.456839E+05 -5.733023E+04 -1.923643E+05 -9.608741E-09 -1.662030E-09
       152  18 -5.516892E+05 -1.720223E+05 -7.006339E+04 -2.148846E+05 -2.023057E-08 -4.852538E-09
       152  19 -7.455965E+04  4.866868E+03  4.358080E+04 -8.390516E+04 -7.356946E+03  9.325628E+03
       152  20 -3.095511E+04  3.117450E+04  5.494325E+04 -6.136718E+04 -9.146922E+03  1.230512E+04
       152  21  2.745285E+04  4.258647E+04  6.586681E+04 -5.585828E+04 -1.093639E+04  1.527982E+04
       152  22 -2.621468E+05 -6.468915E+04 -7.292378E+02 -1.353964E+05 -4.334350E+03  1.045964E+04
       152  23 -2.695525E+05 -5.725606E+04 -1.190896E+03 -1.268768E+05 -6.128279E+03  1.343819E+04
       152  24 -2.621573E+05 -6.471981E+04 -2.094358E+03 -1.353877E+05 -7.921654E+03  1.641196E+04
       152  25 -4.497002E+05 -1.342431E+05 -4.504209E+04 -1.868739E+05 -1.312726E+03  1.159328E+04
       152  26 -5.080962E+05 -1.456837E+05 -5.732982E+04 -1.923644E+05 -3.110860E+03  1.457080E+04
       152  27 -5.516891E+05 -1.720220E+05 -7.006277E+04 -2.148847E+05 -4.908390E+03  1.754355E+04
       153   1  6.828167E+04  5.777831E+04  7.515040E+04 -4.474493E+04  1.204745E+04 -1.698846E+04
       153   2  1.118718E+05  8.410285E+04  8.471472E+04 -2.215695E+04  1.569987E+04 -1.924595E+04
       153   3  1.698402E+05  9.508795E+04  9.233491E+04 -1.650110E+04  1.933705E+04 -2.145746E+04
       153   4 -2.622434E+05 -6.468640E+04 -2.771106E+03 -1.354201E+05  9.023418E+03 -1.812451E+04
       153   5 -2.694645E+05 -5.723521E+04 -5.001842E+03 -1.268724E+05  1.271725E+04 -2.036725E+04
       153   6 -2.623179E+05 -6.513202E+04 -9.210057E+03 -1.352579E+05  1.639563E+04 -2.256409E+04
       153   7 -5.926545E+05 -1.871413E+05 -8.069881E+04 -2.260498E+05  6.001184E+03 -1.925989E+04
       153   8 -6.506527E+05 -1.985615E+05 -9.472762E+04 -2.315283E+05  9.736646E+03 -2.148781E+04
       153   9 -6.942891E+05 -2.253382E+05 -1.107678E+05 -2.539391E+05  1.345645E+04 -2.366989E+04
       153  10  6.828144E+04  5.777797E+04  7.514958E+04 -4.474477E+04 -2.009424E-08 -4.681356E-09
       153  11  1.118715E+05  8.410238E+04  8.471357E+04 -2.215670E+04 -9.867447E-09 -1.111274E-09
       153  12  1.698397E+05  9.508736E+04  9.233335E+04 -1.650077E+04  3.625606E-09  1.563339E-09
       153  13 -2.622436E+05 -6.468677E+04 -2.771876E+03 -1.354199E+05 -3.898554E-09  1.023789E-09
       153  14 -2.694648E+05 -5.723570E+04 -5.002925E+03 -1.268722E+05 -1.885155E-09  1.347110E-09
       153  15 -2.623183E+05 -6.513264E+04 -9.211519E+03 -1.352576E+05  5.103348E-10 -4.656134E-10
       153  16 -5.926547E+05 -1.871417E+05 -8.069957E+04 -2.260497E+05  1.216483E-08  6.879135E-09
       153  17 -6.506530E+05 -1.985621E+05 -9.472866E+04 -2.315282E+05  9.093047E-09  2.431287E-09
       153  18 -6.942895E+05 -2.253388E+05 -1.107692E+05 -2.539389E+05 -2.944199E-09 -2.037777E-09
       153  19  6.828167E+04  5.777831E+04  7.515040E+04 -4.474493E+04 -1.204745E+04  1.698846E+04
       153  20  1.118718E+05  8.410285E+04  8.471472E+04 -2.215695E+04 -1.569987E+04  1.924595E+04
       153  21  1.698402E+05  9.508795E+04  9.233491E+04 -1.650110E+04 -1.933705E+04  2.145746E+04
       153  22 -2.622434E+05 -6.468640E+04 -2.771106E+03 -1.354201E+05 -9.023418E+03  1.812451E+04
       153  23 -2.694645E+05 -5.723521E+04 -5.001842E+03 -1.268724E+05 -1.271725E+04  2.036725E+04
       153  24 -2.623179E+05 -6.513202E+04 -9.210057E+03 -1.352579E+05 -1.639563E+04  2.256409E+04
       153  25 -5.926545E+05 -1.871413E+05 -8.069881E+04 -2.260498E+05 -6.001184E+03  1.925989E+04
       153  26 -6.506527E+05 -1.985615E+05 -9.472762E+04 -2.315283E+05 -9.736646E+03  2.148781E+04
       153  27 -6.942891E+05 -2.253382E+05 -1.107678E+05 -2.539391E+05 -1.345645E+04  2.366989E+04
       154   1  2.110474E+05  1.099613E+05  9.927587E+04 -7.069829E+03  2.203735E+04 -2.264443E+04
       154   2  2.541448E+05  1.377984E+05  1.013552E+05  1.805127E+04  3.339743E+04 -2.171605E+04
       154   3  3.075417E+05  1.422394E+05  9.350452E+04  2.818634E+04  4.441293E+04 -1.986253E+04
       154   4 -2.629021E+05 -6.436513E+04 -1.214790E+04 -1.358046E+05  1.883275E+04 -2.385053E+04
       154   5 -2.686073E+05 -5.706661E+04 -2.196125E+04 -1.266269E+05  3.105624E+04 -2.259876E+04
       154   6 -2.641910E+05 -7.334252E+04 -4.239577E+04 -1.324377E+05  4.293411E+04 -2.042186E+04
       154   7 -7.366309E+05 -2.386774E+05 -1.235881E+05 -2.644511E+05  1.563079E+04 -2.505566E+04
       154   8 -7.910890E+05 -2.519119E+05 -1.452974E+05 -2.711943E+05  2.871718E+04 -2.348066E+04
       154   9 -8.355987E+05 -2.888984E+05 -1.783195E+05 -2.929261E+05  4.145676E+04 -2.098062E+04
       154  10  2.110468E+05  1.099606E+05  9.927400E+04 -7.069428E+03  3.977648E-10 -1.513079E-09
       154  11  2.541434E+05  1.377976E+05  1.013522E+05  1.805186E+04 -2.305295E-10 -2.095705E-09
       154  12  3.075395E+05  1.422385E+05  9.350008E+04  2.818705E+04  1.395211E-10 -1.747862E-10
       154  13 -2.629026E+05 -6.436584E+04 -1.214964E+04 -1.358043E+05  1.907908E-10 -5.815301E-10
       154  14 -2.686085E+05 -5.706742E+04 -2.196402E+04 -1.266263E+05 -1.224069E-09 -5.635281E-11
       154  15 -2.641930E+05 -7.334346E+04 -4.240002E+04 -1.324370E+05 -4.672256E-10  7.379310E-10
       154  16 -7.366314E+05 -2.386781E+05 -1.235898E+05 -2.644508E+05  8.148323E-10 -3.652555E-10
       154  17 -7.910900E+05 -2.519127E+05 -1.453000E+05 -2.711938E+05  1.942213E-09  1.116148E-09
       154  18 -8.356007E+05 -2.888993E+05 -1.783236E+05 -2.929254E+05 -9.517224E-10  1.728901E-09
       154  19  2.110474E+05  1.099613E+05  9.927587E+04 -7.069829E+03 -2.203735E+04  2.264443E+04
       154  20  2.541448E+05  1.377984E+05  1.013552E+05  1.805127E+04 -3.339743E+04  2.171605E+04
       154  21  3.075417E+05  1.422394E+05  9.350452E+04  2.818634E+04 -4.441293E+04  1.986253E+04
       154  22 -2.629021E+05 -6.436513E+04 -1.214790E+04 -1.358046E+05 -1.883275E+04  2.385053E+04
       154  23 -2.686073E+05 -5.706661E+04 -2.196125E+04 -1.266269E+05 -3.105624E+04  2.259876E+04
       154  24 -2.641910E+05 -7.334252E+04 -4.239577E+04 -1.324377E+05 -4.293411E+04  2.042186E+04
       154  25 -7.366309E+05 -2.386774E+05 -1.235881E+05 -2.644511E+05 -1.563079E+04  2.505566E+04
       154  26 -7.910890E+05 -2.519119E+05 -1.452974E+05 -2.711943E+05 -2.871718E+04  2.348066E+04
       154  27 -8.355987E+05 -2.888984E+05 -1.783195E+05 -2.929261E+05 -4.145676E+04  2.098062E+04
       155   1  3.610077E+05  1.528611E+05  9.092562E+04  8.060446E+03  5.841234E+04 -1.864939E+04
       155   2  3.857140E+05  2.109727E+05  6.396853E+04  8.441933E+04  8.957892E+04 -4.185759E+03
       155   3  3.623557E+05  1.011748E+05 -2.903385E+04  1.851930E+05  1.130574E+05  3.069008E+04
       155   4 -2.711928E+05 -5.835596E+04 -5.380264E+04 -1.417316E+05  5.100178E+04 -2.143945E+04
       155   5 -2.572603E+05 -5.714355E+04 -9.588082E+04 -1.220517E+05  1.013931E+05  2.558919E+02
       155   6 -2.952729E+05 -2.277652E+05 -2.192948E+05 -7.794308E+04  1.440893E+05  4.236614E+04
       155   7 -9.029955E+05 -2.695619E+05 -1.985567E+05 -2.913927E+05  4.359942E+04 -2.422714E+04
       155   8 -8.998159E+05 -3.251980E+05 -2.557599E+05 -3.283155E+05  1.131939E+05  4.691103E+03
       155   9 -9.524515E+05 -5.565649E+05 -4.095889E+05 -3.407897E+05  1.750848E+05  5.401824E+04
       155  10  3.610039E+05  1.528598E+05  9.091856E+04  8.061323E+03  5.449663E-11 -4.565017E-10
       155  11  3.857054E+05  2.109706E+05  6.395343E+04  8.441964E+04 -5.817717E-10  6.939663E-10
       155  12  3.623417E+05  1.011704E+05 -2.905962E+04  1.851902E+05  1.016076E-09  1.549359E-09
       155  13 -2.711957E+05 -5.835716E+04 -5.380839E+04 -1.417307E+05 -3.087174E-10 -1.008924E-09
       155  14 -2.572714E+05 -5.714631E+04 -9.590014E+04 -1.220517E+05  5.765636E-10  2.544899E-10
       155  15 -2.952957E+05 -2.277727E+05 -2.193372E+05 -7.794799E+04 -3.836867E-11  2.640034E-09
       155  16 -9.029977E+05 -2.695630E+05 -1.985614E+05 -2.913918E+05 -1.316842E-09  9.989700E-10
       155  17 -8.998297E+05 -3.252015E+05 -2.557841E+05 -3.283160E+05 -2.785683E-09  3.796400E-09
       155  18 -9.524852E+05 -5.565763E+05 -4.096521E+05 -3.407973E+05 -6.969723E-10 -1.941083E-09
       155  19  3.610077E+05  1.528611E+05  9.092562E+04  8.060446E+03 -5.841234E+04  1.864939E+04
       155  20  3.857140E+05  2.109727E+05  6.396853E+04  8.441933E+04 -8.957892E+04  4.185759E+03
       155  21  3.623557E+05  1.011748E+05 -2.903385E+04  1.851930E+05 -1.130574E+05 -3.069008E+04
       155  22 -2.711928E+05 -5.835596E+04 -5.380264E+04 -1.417316E+05 -5.100178E+04  2.143945E+04
       155  23 -2.572603E+05 -5.714355E+04 -9.588082E+04 -1.220517E+05 -1.013931E+05 -2.558919E+02
       155  24 -2.952729E+05 -2.277652E+05 -2.192948E+05 -7.794308E+04 -1.440893E+05 -4.236614E+04
       155  25 -9.029955E+05 -2.695619E+05 -1.985567E+05 -2.913927E+05 -4.359942E+04  2.422714E+04
       155  26 -8.998159E+05 -3.251980E+05 -2.557599E+05 -3.283155E+05 -1.131939E+05 -4.691103E+03
       155  27 -9.524515E+05 -5.565649E+05 -4.095889E+05 -3.407897E+05 -1.750848E+05 -5.401824E+04
       156   1  2.093957E+05  1.993577E+06  2.206030E+05  2.905882E+04  7.571565E+03  1.214798E+05
       156   2  1.353236E+05  2.092823E+06  1.642521E+05  5.237528E+04  2.820484E+04  7.516650E+04
       156   3  1.439828E+05  2.218855E+06  1.587017E+05  1.070516E+05  4.022997E+04  2.884551E+04
       156   4  1.147752E+05  1.609020E+06  1.315413E+05  9.669416E+04  7.594957E+03  8.667633E+04
       156   5  1.663902E+04  1.596698E+06  6.606388E+04  8.098638E+04  2.821932E+04  5.238430E+04
       156   6 -8.224936E+02  1.609071E+06  4.306597E+04  9.663394E+04  4.023816E+04  1.809119E+04
       156   7  2.016202E+04  1.224611E+06  4.247666E+04  1.642874E+05  7.610795E+03  5.189418E+04
       156   8 -1.020572E+05  1.100810E+06 -3.213415E+04  1.095742E+05  2.823171E+04  2.961986E+04
       156   9 -1.456490E+05  9.996444E+05 -7.258582E+04  8.622674E+04  4.024671E+04  7.347140E+03
       156  10  2.093917E+05  1.993561E+06  2.205753E+05  2.905808E+04 -8.791298E-10  1.289757E-08
       156  11  1.353213E+05  2.092817E+06  1.642401E+05  5.237357E+04  8.258437E-10 -2.733229E-08
       156  12  1.439808E+05  2.218854E+06  1.586971E+05  1.070507E+05  4.002962E-09 -6.082408E-08
       156  13  1.147731E+05  1.609012E+06  1.315271E+05  9.669363E+04 -1.910749E-10  5.401294E-10
       156  14  1.663743E+04  1.596694E+06  6.605724E+04  8.098519E+04  1.883177E-09  5.983409E-10
       156  15 -8.243208E+02  1.609070E+06  4.306231E+04  9.663336E+04  3.360620E-09  5.759947E-10
       156  16  2.016124E+04  1.224608E+06  4.247150E+04  1.642871E+05  2.091940E-10 -1.294454E-08
       156  17 -1.020583E+05  1.100808E+06 -3.213730E+04  1.095736E+05  1.400850E-09  2.784611E-08
       156  18 -1.456507E+05  9.996439E+05 -7.258896E+04  8.622650E+04  3.409934E-09  6.071609E-08
       156  19  2.093957E+05  1.993577E+06  2.206030E+05  2.905882E+04 -7.571565E+03 -1.214798E+05
       156  20  1.353236E+05  2.092823E+06  1.642521E+05  5.237528E+04 -2.820484E+04 -7.516650E+04
       156  21  1.439828E+05  2.218855E+06  1.587017E+05  1.070516E+05 -4.022997E+04 -2.884551E+04
       156  22  1.147752E+05  1.609020E+06  1.315413E+05  9.669416E+04 -7.594957E+03 -8.667633E+04
       156  23  1.663902E+04  1.596698E+06  6.606388E+04  8.098638E+04 -2.821932E+04 -5.238430E+04
       156  24 -8.224936E+02  1.609071E+06  4.306597E+04  9.663394E+04 -4.023816E+04 -1.809119E+04
       156  25  2.016202E+04  1.224611E+06  4.247666E+04  1.642874E+05 -7.610795E+03 -5.189418E+04
       156  26 -1.020572E+05  1.100810E+06 -3.213415E+04  1.095742E+05 -2.823171E+04 -2.961986E+04
       156  27 -1.456490E+05  9.996444E+05 -7.258582E+04  8.622674E+04 -4.024671E+04 -7.347140E+03
       157   1  1.670434E+05  2.291261E+06  1.687483E+05  9.346441E+04  4.488166E+04  2.453390E+04
       157   2  1.904550E+05  2.402044E+06  1.868928E+05  8.066964E+04  5.271542E+04  3.257644E+03
       157   3  2.229522E+05  2.518042E+06  2.211658E+05  9.879541E+04  5.789485E+04 -1.802014E+04
       157   4  3.885003E+03  1.604567E+06  3.814559E+04  9.654865E+04  4.489336E+04  1.175287E+04
       157   5  5.203180E+02  1.602255E+06  3.518284E+04  8.108763E+04  5.272805E+04 -5.799050E+03
       157   6  5.603886E+03  1.604505E+06  4.577980E+04  9.654911E+04  5.790692E+04 -2.334878E+04
       157   7 -1.593009E+05  9.183268E+05 -9.247768E+04  9.962945E+04  4.490493E+04 -1.014402E+03
       157   8 -1.894517E+05  8.030799E+05 -1.165554E+05  8.150516E+04  5.274069E+04 -1.484439E+04
       157   9 -2.117936E+05  6.917683E+05 -1.296445E+05  9.430632E+04  5.791904E+04 -2.866977E+04
       157  10  1.670411E+05  2.291259E+06  1.687434E+05  9.346352E+04  4.267269E-09  6.041668E-08
       157  11  1.904521E+05  2.402044E+06  1.868876E+05  8.066950E+04  3.241208E-09  2.314791E-08
       157  12  2.229485E+05  2.518040E+06  2.211589E+05  9.879624E+04 -6.352459E-10 -1.711805E-08
       157  13  3.882801E+03  1.604566E+06  3.814154E+04  9.654823E+04  1.470680E-09  6.536582E-10
       157  14  5.173213E+02  1.602254E+06  3.517755E+04  8.108788E+04  2.088815E-09  7.927716E-10
       157  15  5.600136E+03  1.604504E+06  4.577247E+04  9.655020E+04 -4.092152E-10  1.313385E-09
       157  16 -1.593031E+05  9.183263E+05 -9.248148E+04  9.962948E+04  3.822701E-09 -6.060372E-08
       157  17 -1.894547E+05  8.030789E+05 -1.165610E+05  8.150579E+04  4.261815E-10 -2.293061E-08
       157  18 -2.117975E+05  6.917665E+05 -1.296523E+05  9.430765E+04 -2.806026E-09  1.677170E-08
       157  19  1.670434E+05  2.291261E+06  1.687483E+05  9.346441E+04 -4.488166E+04 -2.453390E+04
       157  20  1.904550E+05  2.402044E+06  1.868928E+05  8.066964E+04 -5.271542E+04 -3.257644E+03
       157  21  2.229522E+05  2.518042E+06  2.211658E+05  9.879541E+04 -5.789485E+04  1.802014E+04
       157  22  3.885003E+03  1.604567E+06  3.814559E+04  9.654865E+04 -4.489336E+04 -1.175287E+04
       157  23  5.203180E+02  1.602255E+06  3.518284E+04  8.108763E+04 -5.272805E+04  5.799050E+03
       157  24  5.603886E+03  1.604505E+06  4.577980E+04  9.654911E+04 -5.790692E+04  2.334878E+04
       157  25 -1.593009E+05  9.183268E+05 -9.247768E+04  9.962945E+04 -4.490493E+04  1.014402E+03
       157  26 -1.894517E+05  8.030799E+05 -1.165554E+05  8.150516E+04 -5.274069E+04  1.484439E+04
       157  27 -2.117936E+05  6.917683E+05 -1.296445E+05  9.430632E+04 -5.791904E+04  2.866977E+04
       158   1  2.349117E+05  2.603747E+06  2.457073E+05  7.993600E+04  6.257583E+04 -1.974149E+04
       158   2  2.883658E+05  2.697418E+06  3.155617E+05  1.202305E+05  5.535678E+04 -1.099514E+05
       158   3  4.628892E+05  2.833318E+06  4.743071E+05  1.900595E+05  1.722808E+04 -2.002379E+05
       158   4 -1.329441E+03  1.611209E+06  5.486088E+04  9.619649E+04  6.259552E+04 -3.106642E+04
       158   5  2.325425E+04  1.593707E+06  9.038451E+04  8.153932E+04  5.532965E+04 -7.804911E+04
       158   6  1.615292E+05  1.611006E+06  1.849238E+05  9.640664E+04  1.714509E+04 -1.250869E+05
       158   7 -2.376278E+05  6.196160E+05 -1.360303E+05  1.124306E+05  6.261465E+04 -4.237369E+04
       158   8 -2.419270E+05  4.911549E+05 -1.348522E+05  4.291823E+04  5.529854E+04 -4.620217E+04
       158   9 -1.399015E+05  3.900923E+05 -1.045373E+05  2.938792E+03  1.703946E+04 -5.008231E+04
       158  10  2.349074E+05  2.603746E+06  2.456992E+05  7.993700E+04 -2.845022E-09  5.806604E-09
       158  11  2.883593E+05  2.697404E+06  3.155333E+05  1.202354E+05 -6.815494E-10 -3.938659E-10
       158  12  4.628782E+05  2.833275E+06  4.742316E+05  1.900623E+05  8.309151E-10 -3.293050E-09
       158  13 -1.333911E+03  1.611207E+06  5.485170E+04  9.619805E+04 -1.999958E-09  1.322939E-09
       158  14  2.324933E+04  1.593700E+06  9.036733E+04  8.154279E+04  1.598000E-09  1.923889E-09
       158  15  1.615247E+05  1.610989E+06  1.848939E+05  9.640837E+04  1.359362E-09  2.328238E-09
       158  16 -2.376325E+05  6.196130E+05 -1.360411E+05  1.124328E+05 -1.855443E-09 -6.055739E-09
       158  17 -2.419308E+05  4.911518E+05 -1.348620E+05  4.292029E+04  7.232599E-10  1.013138E-09
       158  18 -1.399025E+05  3.900895E+05 -1.045426E+05  2.939479E+03  3.773266E-10  2.661222E-09
       158  19  2.349117E+05  2.603747E+06  2.457073E+05  7.993600E+04 -6.257583E+04  1.974149E+04
       158  20  2.883658E+05  2.697418E+06  3.155617E+05  1.202305E+05 -5.535678E+04  1.099514E+05
       158  21  4.628892E+05  2.833318E+06  4.743071E+05  1.900595E+05 -1.722808E+04  2.002379E+05
       158  22 -1.329441E+03  1.611209E+06  5.486088E+04  9.619649E+04 -6.259552E+04  3.106642E+04
       158  23  2.325425E+04  1.593707E+06  9.038451E+04  8.153932E+04 -5.532965E+04  7.804911E+04
       158  24  1.615292E+05  1.611006E+06  1.849238E+05  9.640664E+04 -1.714509E+04  1.250869E+05
       158  25 -2.376278E+05  6.196160E+05 -1.360303E+05  1.124306E+05 -6.261465E+04  4.237369E+04
       158  26 -2.419270E+05  4.911549E+05 -1.348522E+05  4.291823E+04 -5.529854E+04  4.620217E+04
       158  27 -1.399015E+05  3.900923E+05 -1.045373E+05  2.938792E+03 -1.703946E+04  5.008231E+04
       159   1 -2.553250E+05 -1.340323E+05 -9.670963E+04  2.015595E+03  7.762497E+04  1.568272E+04
       159   2 -1.616840E+05 -2.522029E+05 -1.458562E+05 -2.719748E+04  6.385262E+04  4.930462E+04
       159   3 -3.220293E+04 -2.360078E+05 -1.523664E+05 -9.685058E+04  5.011720E+04  5.218062E+04
       159   4  9.114431E+05  1.552518E+05  1.846127E+05 -7.512766E+04  1.271803E+05  1.573267E+04
       159   5  8.909419E+05  4.326883E+03  8.486936E+04 -5.483171E+04  8.235880E+04  4.931305E+04
       159   6  9.115814E+05 -6.978861E+03  4.924814E+04 -7.496592E+04  3.757887E+04  5.216876E+04
       159   7  2.079474E+06  4.444606E+05  4.658503E+05 -1.524167E+05  1.768283E+05  1.577028E+04
       159   8  1.944607E+06  2.607858E+05  3.155293E+05 -8.251357E+04  1.008959E+05  4.931982E+04
       159   9  1.856205E+06  2.219938E+05  2.508121E+05 -5.304760E+04  2.502173E+04  5.215603E+04
       159  10 -2.553316E+05 -1.340342E+05 -9.672142E+04  2.014614E+03  4.558802E-10  2.009675E-11
       159  11 -1.616891E+05 -2.522066E+05 -1.458684E+05 -2.720002E+04 -1.274905E-10  7.063640E-11
       159  12 -3.220636E+04 -2.360114E+05 -1.523763E+05 -9.685269E+04  2.706715E-10  1.457681E-10
       159  13  9.114256E+05  1.552472E+05  1.845819E+05 -7.512927E+04  1.191601E-11 -5.264812E-11
       159  14  8.909340E+05  4.322453E+03  8.485205E+04 -5.483498E+04  6.927818E-10 -1.262861E-10
       159  15  9.115792E+05 -6.982163E+03  4.924037E+04 -7.496750E+04  2.217796E-10  1.030384E-11
       159  16  2.079440E+06  4.444519E+05  4.657913E+05 -1.524190E+05 -1.015924E-11 -1.360084E-10
       159  17  1.944595E+06  2.607805E+05  3.155057E+05 -8.251757E+04 -6.021137E-10 -2.821029E-10
       159  18  1.856204E+06  2.219907E+05  2.508058E+05 -5.304865E+04  1.235907E-10 -1.284141E-10
       159  19 -2.553250E+05 -1.340323E+05 -9.670963E+04  2.015595E+03 -7.762497E+04 -1.568272E+04
       159  20 -1.616840E+05 -2.522029E+05 -1.458562E+05 -2.719748E+04 -6.385262E+04 -4.930462E+04
       159  21 -3.220293E+04 -2.360078E+05 -1.523664E+05 -9.685058E+04 -5.011720E+04 -5.218062E+04
       159  22  9.114431E+05  1.552518E+05  1.846127E+05 -7.512766E+04 -1.271803E+05 -1.573267E+04
       159  23  8.909419E+05  4.326883E+03  8.486936E+04 -5.483171E+04 -8.235880E+04 -4.931305E+04
       159  24  9.115814E+05 -6.978861E+03  4.924814E+04 -7.496592E+04 -3.757887E+04 -5.216876E+04
       159  25  2.079474E+06  4.444606E+05  4.658503E+05 -1.524167E+05 -1.768283E+05 -1.577028E+04
       159  26  1.944607E+06  2.607858E+05  3.155293E+05 -8.251357E+04 -1.008959E+05 -4.931982E+04
       159  27  1.856205E+06  2.219938E+05  2.508121E+05 -5.304760E+04 -2.502173E+04 -5.215603E+04
       160   1  4.579201E+04 -2.009831E+05 -1.450899E+05 -7.300089E+04  3.476310E+04  4.612288E+04
       160   2  1.543733E+05 -1.814755E+05 -1.383431E+05 -5.418014E+04  2.558566E+04  4.136341E+04
       160   3  2.660848E+05 -1.550744E+05 -1.238505E+05 -7.669065E+04  1.640211E+04  3.519002E+04
       160   4  9.032086E+05  7.210353E+03  3.889535E+04 -7.520604E+04  3.071051E+04  4.611615E+04
       160   5  9.015559E+05 -2.126728E+02  2.120485E+04 -5.454119E+04  2.009408E+04  4.135832E+04
       160   6  9.032662E+05 -4.975885E+02  1.225016E+04 -7.520422E+04  9.473146E+03  3.518735E+04
       160   7  1.761316E+06  2.153557E+05  2.228378E+05 -7.741432E+04  2.665238E+04  4.610946E+04
       160   8  1.649264E+06  1.810138E+05  1.807206E+05 -5.490269E+04  1.459598E+04  4.135325E+04
       160   9  1.540829E+06  1.540528E+05  1.483275E+05 -7.371621E+04  2.537168E+03  3.518465E+04
       160  10  4.579014E+04 -2.009857E+05 -1.450961E+05 -7.300218E+04  7.659989E-11  1.761990E-10
       160  11  1.543721E+05 -1.814775E+05 -1.383475E+05 -5.418100E+04 -6.743269E-10  6.816087E-11
       160  12  2.660841E+05 -1.550758E+05 -1.238533E+05 -7.669112E+04 -4.386900E-10 -3.606379E-11
       160  13  9.032071E+05  7.207816E+03  3.888958E+04 -7.520718E+04  5.183700E-10  7.207874E-11
       160  14  9.015550E+05 -2.146186E+02  2.120088E+04 -5.454186E+04 -5.412083E-10  7.887674E-11
       160  15  9.032657E+05 -4.989427E+02  1.224766E+04 -7.520449E+04 -2.708247E-11  1.251788E-10
       160  16  1.761315E+06  2.153532E+05  2.228324E+05 -7.741531E+04  1.843980E-10  7.076096E-11
       160  17  1.649263E+06  1.810119E+05  1.807170E+05 -5.490318E+04  1.164257E-10  1.521439E-10
       160  18  1.540829E+06  1.540515E+05  1.483251E+05 -7.371628E+04  1.172523E-10  2.683509E-10
       160  19  4.579201E+04 -2.009831E+05 -1.450899E+05 -7.300089E+04 -3.476310E+04 -4.612288E+04
       160  20  1.543733E+05 -1.814755E+05 -1.383431E+05 -5.418014E+04 -2.558566E+04 -4.136341E+04
       160  21  2.660848E+05 -1.550744E+05 -1.238505E+05 -7.669065E+04 -1.640211E+04 -3.519002E+04
       160  22  9.032086E+05  7.210353E+03  3.889535E+04 -7.520604E+04 -3.071051E+04 -4.611615E+04
       160  23  9.015559E+05 -2.126728E+02  2.120485E+04 -5.454119E+04 -2.009408E+04 -4.135832E+04
       160  24  9.032662E+05 -4.975885E+02  1.225016E+04 -7.520422E+04 -9.473146E+03 -3.518735E+04
       160  25  1.761316E+06  2.153557E+05  2.228378E+05 -7.741432E+04 -2.665238E+04 -4.610946E+04
       160  26  1.649264E+06  1.810138E+05  1.807206E+05 -5.490269E+04 -1.459598E+04 -4.135325E+04
       160  27  1.540829E+06  1.540528E+05  1.483275E+05 -7.371621E+04 -2.537168E+03 -3.518465E+04
       161   1  3.504446E+05 -1.336542E+05 -1.080699E+05 -7.536708E+04  1.408686E+04  3.124716E+04
       161   2  4.596565E+05 -1.074617E+05 -8.898332E+04 -5.473667E+04  1.148061E+04  2.474722E+04
       161   3  5.693597E+05 -8.088815E+04 -6.809507E+04 -7.523513E+04  8.870563E+03  1.819116E+04
       161   4  9.026498E+05  2.020565E+02  9.379879E+03 -7.516017E+04  7.564382E+03  3.124575E+04
       161   5  9.024197E+05 -1.017195E+02  5.382532E+03 -5.459669E+04  4.898874E+03  2.474736E+04
       161   6  9.026806E+05 -1.356361E+01  3.227236E+03 -7.516033E+04  2.230025E+03  1.819290E+04
       161   7  1.455142E+06  1.340385E+05  1.268123E+05 -7.495304E+04  1.036189E+03  3.124434E+04
       161   8  1.345367E+06  1.072455E+05  9.973726E+04 -5.445660E+04 -1.687481E+03  2.474749E+04
       161   9  1.236106E+06  8.085380E+04  7.454326E+04 -7.508547E+04 -4.414024E+03  1.819464E+04
       161  10  3.504441E+05 -1.336553E+05 -1.080721E+05 -7.536743E+04  1.126359E-10 -3.720780E-11
       161  11  4.596562E+05 -1.074623E+05 -8.898472E+04 -5.473690E+04 -3.473642E-10 -1.975542E-10
       161  12  5.693595E+05 -8.088853E+04 -6.809584E+04 -7.523526E+04 -8.988363E-10 -2.071882E-10
       161  13  9.026495E+05  2.009923E+02  9.377936E+03 -7.516036E+04 -2.877783E-11  3.271225E-11
       161  14  9.024195E+05 -1.023838E+02  5.381336E+03 -5.459679E+04 -1.091734E-09 -8.968820E-11
       161  15  9.026805E+05 -1.392051E+01  3.226604E+03 -7.516036E+04 -3.195085E-10  3.779661E-11
       161  16  1.455142E+06  1.340375E+05  1.268105E+05 -7.495307E+04 -8.709875E-11  2.365940E-10
       161  17  1.345367E+06  1.072448E+05  9.973610E+04 -5.445657E+04 -1.609431E-10  5.686891E-11
       161  18  1.236106E+06  8.085343E+04  7.454260E+04 -7.508540E+04 -4.139461E-10  2.453852E-10
       161  19  3.504446E+05 -1.336542E+05 -1.080699E+05 -7.536708E+04 -1.408686E+04 -3.124716E+04
       161  20  4.596565E+05 -1.074617E+05 -8.898332E+04 -5.473667E+04 -1.148061E+04 -2.474722E+04
       161  21  5.693597E+05 -8.088815E+04 -6.809507E+04 -7.523513E+04 -8.870563E+03 -1.819116E+04
       161  22  9.026498E+05  2.020565E+02  9.379879E+03 -7.516017E+04 -7.564382E+03 -3.124575E+04
       161  23  9.024197E+05 -1.017195E+02  5.382532E+03 -5.459669E+04 -4.898874E+03 -2.474736E+04
       161  24  9.026806E+05 -1.356361E+01  3.227236E+03 -7.516033E+04 -2.230025E+03 -1.819290E+04
       161  25  1.455142E+06  1.340385E+05  1.268123E+05 -7.495304E+04 -1.036189E+03 -3.124434E+04
       161  26  1.345367E+06  1.072455E+05  9.973726E+04 -5.445660E+04  1.687481E+03 -2.474749E+04
       161  27  1.236106E+06  8.085380E+04  7.454326E+04 -7.508547E+04  4.414024E+03 -1.819464E+04
       162   1  6.538495E+05 -6.022936E+04 -5.015366E+04 -7.515631E+04  8.321731E+03  1.436420E+04
       162   2  7.629307E+05 -3.384076E+04 -2.800033E+04 -5.463265E+04  7.455540E+03  7.806054E+03
       162   3  8.721223E+05 -7.402671E+03 -5.278591E+03 -7.511631E+04  6.588118E+03  1.248249E+03
       162   4  9.026040E+05  1.983290E+01  2.552329E+03 -7.513357E+04  1.705549E+03  1.436657E+04
       162   5  9.025599E+05  9.174828E+00  1.749571E+03 -5.463019E+04  8.388360E+02  7.808892E+03
       162   6  9.026134E+05  4.829970E+01  1.515207E+03 -7.513358E+04 -2.895909E+01  1.251602E+03
       162   7  1.151417E+06  6.026504E+04  5.525496E+04 -7.511081E+04 -4.913241E+03  1.436893E+04
       162   8  1.042208E+06  3.385787E+04  3.149852E+04 -5.462773E+04 -5.779332E+03  7.811729E+03
       162   9  9.331055E+05  7.499231E+03  8.309111E+03 -7.515085E+04 -6.646358E+03  1.254955E+03
       162  10  6.538494E+05 -6.022960E+04 -5.015417E+04 -7.515640E+04 -6.034236E-10 -8.881247E-11
       162  11  7.629306E+05 -3.384084E+04 -2.800055E+04 -5.463270E+04  1.892060E-10 -3.731896E-11
       162  12  8.721223E+05 -7.402684E+03 -5.278675E+03 -7.511632E+04 -1.643808E-10 -1.867422E-10
       162  13  9.026039E+05  1.961039E+01  2.551936E+03 -7.513359E+04 -1.583712E-09  2.325301E-11
       162  14  9.025599E+05  9.109130E+00  1.749455E+03 -5.463020E+04 -8.937503E-10  1.006681E-11
       162  15  9.026134E+05  4.829801E+01  1.515204E+03 -7.513358E+04 -7.824306E-10 -1.876270E-10
       162  16  1.151417E+06  6.026482E+04  5.525452E+04 -7.511075E+04 -1.056082E-09  2.222392E-10
       162  17  1.042208E+06  3.385779E+04  3.149834E+04 -5.462769E+04 -1.145238E-09 -2.211675E-10
       162  18  9.331054E+05  7.499217E+03  8.309026E+03 -7.515085E+04 -3.930934E-10 -3.756934E-10
       162  19  6.538495E+05 -6.022936E+04 -5.015366E+04 -7.515631E+04 -8.321731E+03 -1.436420E+04
       162  20  7.629307E+05 -3.384076E+04 -2.800033E+04 -5.463265E+04 -7.455540E+03 -7.806054E+03
       162  21  8.721223E+05 -7.402671E+03 -5.278591E+03 -7.511631E+04 -6.588118E+03 -1.248249E+03
       162  22  9.026040E+05  1.983290E+01  2.552329E+03 -7.513357E+04 -1.705549E+03 -1.436657E+04
       162  23  9.025599E+05  9.174828E+00  1.749571E+03 -5.463019E+04 -8.388360E+02 -7.808892E+03
       162  24  9.026134E+05  4.829970E+01  1.515207E+03 -7.513358E+04  2.895909E+01 -1.251602E+03
       162  25  1.151417E+06  6.026504E+04  5.525496E+04 -7.511081E+04  4.913241E+03 -1.436893E+04
       162  26  1.042208E+06  3.385787E+04  3.149852E+04 -5.462773E+04  5.779332E+03 -7.811729E+03
       162  27  9.331055E+05  7.499231E+03  8.309111E+03 -7.515085E+04  6.646358E+03 -1.254955E+03
       163   1  9.565879E+05  1.318991E+04  1.336912E+04 -7.514081E+04  6.305794E+03 -2.568034E+03
       163   2  1.065693E+06  3.954387E+04  3.681862E+04 -5.460531E+04  5.282963E+03 -9.125249E+03
       163   3  1.174931E+06  6.595295E+04  6.093905E+04 -7.508036E+04  4.261205E+03 -1.568335E+04
       163   4  9.026185E+05  4.824952E+01  1.573953E+03 -7.513457E+04 -3.119765E+02 -2.564706E+03
       163   5  9.025518E+05  1.295302E+00  2.065534E+03 -5.462895E+04 -1.336007E+03 -9.122520E+03
       163   6  9.026074E+05  1.036872E+01  3.229329E+03 -7.513454E+04 -2.358789E+03 -1.568118E+04
       163   7  8.486519E+05 -1.309358E+04 -1.022123E+04 -7.512833E+04 -6.929180E+03 -2.561378E+03
       163   8  7.394357E+05 -3.954299E+04 -3.268892E+04 -5.465259E+04 -7.953265E+03 -9.119790E+03
       163   9  6.303534E+05 -6.593698E+04 -5.448445E+04 -7.518869E+04 -8.975927E+03 -1.567900E+04
       163  10  9.565879E+05  1.318989E+04  1.336904E+04 -7.514080E+04 -9.285532E-10 -3.719410E-11
       163  11  1.065693E+06  3.954378E+04  3.681841E+04 -5.460527E+04 -2.413457E-10  2.093542E-10
       163  12  1.174931E+06  6.595268E+04  6.093856E+04 -7.508031E+04  2.348643E-10  2.351887E-10
       163  13  9.026185E+05  4.824243E+01  1.573941E+03 -7.513457E+04 -6.538891E-10 -2.186144E-11
       163  14  9.025517E+05  1.205420E+00  2.065374E+03 -5.462896E+04 -1.161786E-09  2.997172E-10
       163  15  9.026073E+05  1.010306E+01  3.228856E+03 -7.513457E+04 -3.661101E-10  4.374814E-11
       163  16  8.486518E+05 -1.309360E+04 -1.022133E+04 -7.512834E+04  3.639407E-10 -1.095573E-10
       163  17  7.394356E+05 -3.954310E+04 -3.268920E+04 -5.465264E+04 -1.356925E-09  3.036503E-10
       163  18  6.303533E+05 -6.593727E+04 -5.448507E+04 -7.518881E+04  2.370412E-11 -1.196367E-10
       163  19  9.565879E+05  1.318991E+04  1.336912E+04 -7.514081E+04 -6.305794E+03  2.568034E+03
       163  20  1.065693E+06  3.954387E+04  3.681862E+04 -5.460531E+04 -5.282963E+03  9.125249E+03
       163  21  1.174931E+06  6.595295E+04  6.093905E+04 -7.508036E+04 -4.261205E+03  1.568335E+04
       163  22  9.026185E+05  4.824952E+01  1.573953E+03 -7.513457E+04  3.119765E+02  2.564706E+03
       163  23  9.025518E+05  1.295302E+00  2.065534E+03 -5.462895E+04  1.336007E+03  9.122520E+03
       163  24  9.026074E+05  1.036872E+01  3.229329E+03 -7.513454E+04  2.358789E+03  1.568118E+04
       163  25  8.486519E+05 -1.309358E+04 -1.022123E+04 -7.512833E+04  6.929180E+03  2.561378E+03
       163  26  7.394357E+05 -3.954299E+04 -3.268892E+04 -5.465259E+04  7.953265E+03  9.119790E+03
       163  27  6.303534E+05 -6.593698E+04 -5.448445E+04 -7.518869E+04  8.975927E+03  1.567900E+04
       164   1  1.259668E+06  8.653742E+04  8.048096E+04 -7.503381E+04  3.618059E+03 -1.951000E+04
       164   2  1.368899E+06  1.129253E+05  1.064224E+05 -5.437782E+04  6.529642E+01 -2.606444E+04
       164   3  1.478787E+06  1.398334E+05  1.348131E+05 -7.486957E+04 -3.484470E+03 -3.256227E+04
       164   4  9.027100E+05 -3.202087E+01  4.153645E+03 -7.516533E+04 -3.027990E+03 -1.950851E+04
       164   5  9.023751E+05 -1.339259E+02  7.047378E+03 -5.459041E+04 -6.521682E+03 -2.606464E+04
       164   6  9.026772E+05  2.756148E+02  1.235160E+04 -7.516512E+04 -1.001177E+04 -3.256408E+04
       164   7  5.458715E+05 -8.660975E+04 -7.218089E+04 -7.529675E+04 -9.670279E+03 -1.950701E+04
       164   8  4.360554E+05 -1.132073E+05 -9.234004E+04 -5.480282E+04 -1.310379E+04 -2.606482E+04
       164   9  3.268799E+05 -1.393036E+05 -1.101287E+05 -7.546037E+04 -1.653311E+04 -3.256589E+04
       164  10  1.259668E+06  8.653701E+04  8.048022E+04 -7.503375E+04 -2.408955E-10 -1.637310E-10
       164  11  1.368899E+06  1.129246E+05  1.064212E+05 -5.437782E+04 -4.332131E-10 -4.186990E-10
       164  12  1.478786E+06  1.398322E+05  1.348110E+05 -7.486966E+04 -3.807167E-10  1.628059E-10
       164  13  9.027099E+05 -3.243219E+01  4.152912E+03 -7.516537E+04 -4.573343E-10 -3.152654E-10
       164  14  9.023748E+05 -1.346672E+02  7.046021E+03 -5.459054E+04 -4.595557E-10 -4.287732E-10
       164  15  9.026768E+05  2.744487E+02  1.234942E+04 -7.516538E+04 -3.914050E-10 -6.501166E-11
       164  16  5.458713E+05 -8.661018E+04 -7.218178E+04 -7.529690E+04 -1.057097E-09 -3.318976E-10
       164  17  4.360550E+05 -1.132081E+05 -9.234164E+04 -5.480309E+04 -3.031384E-10 -5.408755E-10
       164  18  3.268793E+05 -1.393048E+05 -1.101312E+05 -7.546080E+04 -2.297760E-10 -3.306750E-10
       164  19  1.259668E+06  8.653742E+04  8.048096E+04 -7.503381E+04 -3.618059E+03  1.951000E+04
       164  20  1.368899E+06  1.129253E+05  1.064224E+05 -5.437782E+04 -6.529642E+01  2.606444E+04
       164  21  1.478787E+06  1.398334E+05  1.348131E+05 -7.486957E+04  3.484470E+03  3.256227E+04
       164  22  9.027100E+05 -3.202087E+01  4.153645E+03 -7.516533E+04  3.027990E+03  1.950851E+04
       164  23  9.023751E+05 -1.339259E+02  7.047378E+03 -5.459041E+04  6.521682E+03  2.606464E+04
       164  24  9.026772E+05  2.756148E+02  1.235160E+04 -7.516512E+04  1.001177E+04  3.256408E+04
       164  25  5.458715E+05 -8.660975E+04 -7.218089E+04 -7.529675E+04  9.670279E+03  1.950701E+04
       164  26  4.360554E+05 -1.132073E+05 -9.234004E+04 -5.480282E+04  1.310379E+04  2.606482E+04
       164  27  3.268799E+05 -1.393036E+05 -1.101287E+05 -7.546037E+04  1.653311E+04  3.256589E+04
       165   1  1.564717E+06  1.596379E+05  1.572637E+05 -7.322653E+04 -5.583617E+03 -3.650669E+04
       165   2  1.672704E+06  1.867291E+05  1.925655E+05 -5.503450E+04 -2.107313E+04 -4.267201E+04
       165   3  1.785343E+06  2.234907E+05  2.403967E+05 -7.818690E+04 -3.656109E+04 -4.739809E+04
       165   4  9.034888E+05 -6.447558E+02  1.614871E+04 -7.520813E+04 -1.252663E+04 -3.650986E+04
       165   5  9.012623E+05 -2.465215E+02  2.799241E+04 -5.453601E+04 -2.654699E+04 -4.267758E+04
       165   6  9.034272E+05  9.575546E+03  5.135802E+04 -7.521101E+04 -4.056309E+04 -4.740532E+04
       165   7  2.426717E+05 -1.609558E+05 -1.249913E+05 -7.718758E+04 -1.946236E+04 -3.651298E+04
       165   8  1.303799E+05 -1.872608E+05 -1.366149E+05 -5.403817E+04 -3.201414E+04 -4.268317E+04
       165   9  2.224159E+04 -2.043904E+05 -1.377259E+05 -7.223945E+04 -4.455946E+04 -4.741260E+04
       165  10  1.564716E+06  1.596364E+05  1.572611E+05 -7.322670E+04  1.176351E-09  3.969540E-10
       165  11  1.672703E+06  1.867270E+05  1.925613E+05 -5.503522E+04 -4.389156E-11  2.163681E-10
       165  12  1.785341E+06  2.234879E+05  2.403900E+05 -7.818830E+04 -6.152144E-10  3.365103E-10
       165  13  9.034883E+05 -6.462299E+02  1.614591E+04 -7.520850E+04 -5.564698E-11  2.561277E-11
       165  14  9.012611E+05 -2.486671E+02  2.798766E+04 -5.453692E+04 -7.132573E-10  8.537405E-11
       165  15  9.034249E+05  9.572691E+03  5.135070E+04 -7.521256E+04 -4.923234E-10  3.031684E-10
       165  16  2.426709E+05 -1.609573E+05 -1.249945E+05 -7.718815E+04 -8.626429E-10 -2.170914E-10
       165  17  1.303783E+05 -1.872631E+05 -1.366203E+05 -5.403927E+04  6.155497E-10 -1.713707E-10
       165  18  2.223885E+04 -2.043933E+05 -1.377339E+05 -7.224115E+04 -6.710113E-10  5.880957E-10
       165  19  1.564717E+06  1.596379E+05  1.572637E+05 -7.322653E+04  5.583617E+03  3.650669E+04
       165  20  1.672704E+06  1.867291E+05  1.925655E+05 -5.503450E+04  2.107313E+04  4.267201E+04
       165  21  1.785343E+06  2.234907E+05  2.403967E+05 -7.818690E+04  3.656109E+04  4.739809E+04
       165  22  9.034888E+05 -6.447558E+02  1.614871E+04 -7.520813E+04  1.252663E+04  3.650986E+04
       165  23  9.012623E+05 -2.465215E+02  2.799241E+04 -5.453601E+04  2.654699E+04  4.267758E+04
       165  24  9.034272E+05  9.575546E+03  5.135802E+04 -7.521101E+04  4.056309E+04  4.740532E+04
       165  25  2.426717E+05 -1.609558E+05 -1.249913E+05 -7.718758E+04  1.946236E+04  3.651298E+04
       165  26  1.303799E+05 -1.872608E+05 -1.366149E+05 -5.403817E+04  3.201414E+04  4.268317E+04
       165  27  2.224159E+04 -2.043904E+05 -1.377259E+05 -7.223945E+04  4.455946E+04  4.741260E+04
       166   1  1.882969E+06  2.256154E+05  2.716771E+05 -4.611615E+04 -3.696681E+04 -5.349304E+04
       166   2  1.964920E+06  2.680615E+05  3.479757E+05 -9.156305E+04 -1.278323E+05 -5.049114E+04
       166   3  2.106493E+06  5.001827E+05  5.308221E+05 -1.775069E+05 -2.187640E+05 -1.617056E+04
       166   4  9.144780E+05 -9.152001E+03  6.503028E+04 -7.496217E+04 -4.963257E+04 -5.350605E+04
       166   5  8.872942E+05  5.801547E+03  1.120946E+05 -5.483346E+04 -1.087755E+05 -5.048603E+04
       166   6  9.143172E+05  2.050957E+05  2.438124E+05 -7.518957E+04 -1.679636E+05 -1.614206E+04
       166   7 -5.312978E+04 -2.439772E+05 -1.416696E+05 -1.037627E+05 -6.227887E+04 -5.351789E+04
       166   8 -1.892438E+05 -2.565304E+05 -1.238547E+05 -1.816846E+04 -8.975107E+04 -5.047868E+04
       166   9 -2.765333E+05 -9.005381E+04 -4.328329E+04  2.693084E+04 -1.172598E+05 -1.609685E+04
       166  10  1.882966E+06  2.256119E+05  2.716692E+05 -4.611774E+04  6.437897E-10  5.676324E-10
       166  11  1.964902E+06  2.680544E+05  3.479403E+05 -9.156824E+04 -1.241982E-09 -1.974304E-12
       166  12  2.106441E+06  5.001697E+05  5.307320E+05 -1.775098E+05  7.843903E-10  1.535096E-10
       166  13  9.144746E+05 -9.155737E+03  6.502028E+04 -7.496431E+04 -1.724971E-11  5.128760E-10
       166  14  8.872808E+05  5.795638E+03  1.120676E+05 -5.483788E+04  3.815168E-10  1.856019E-10
       166  15  9.142869E+05  2.050878E+05  2.437589E+05 -7.519176E+04 -1.153756E-09  1.126406E-10
       166  16 -5.313472E+04 -2.439814E+05 -1.416823E+05 -1.037654E+05  5.811989E-10  6.918252E-10
       166  17 -1.892531E+05 -2.565353E+05 -1.238746E+05 -1.817211E+04  6.169895E-10  1.083355E-09
       166  18 -2.765481E+05 -9.005779E+04 -4.330962E+04  2.692932E+04 -2.052818E-11  1.939257E-10
       166  19  1.882969E+06  2.256154E+05  2.716771E+05 -4.611615E+04  3.696681E+04  5.349304E+04
       166  20  1.964920E+06  2.680615E+05  3.479757E+05 -9.156305E+04  1.278323E+05  5.049114E+04
       166  21  2.106493E+06  5.001827E+05  5.308221E+05 -1.775069E+05  2.187640E+05  1.617056E+04
       166  22  9.144780E+05 -9.152001E+03  6.503028E+04 -7.496217E+04  4.963257E+04  5.350605E+04
       166  23  8.872942E+05  5.801547E+03  1.120946E+05 -5.483346E+04  1.087755E+05  5.048603E+04
       166  24  9.143172E+05  2.050957E+05  2.438124E+05 -7.518957E+04  1.679636E+05  1.614206E+04
       166  25 -5.312978E+04 -2.439772E+05 -1.416696E+05 -1.037627E+05  6.227887E+04  5.351789E+04
       166  26 -1.892438E+05 -2.565304E+05 -1.238547E+05 -1.816846E+04  8.975107E+04  5.047868E+04
       166  27 -2.765333E+05 -9.005381E+04 -4.328329E+04  2.693084E+04  1.172598E+05  1.609685E+04
       167   1  1.583336E+05  7.463854E+05  1.656285E+05 -1.308153E+05  4.232373E+03  5.591896E+04
       167   2  6.801826E+04  5.875452E+05  8.957661E+04 -8.572659E+04  1.127743E+04  2.814282E+04
       167   3  2.748675E+04  4.445792E+05  4.400055E+04 -9.667553E+04  6.123573E+03  3.539095E+02
       167   4  5.317042E+04  3.236375E+05  6.282728E+04 -1.036664E+05  4.257116E+03  4.269113E+04
       167   5  1.808565E+03  3.167888E+05  2.934858E+04 -7.569473E+04  1.127981E+04  2.723133E+04
       167   6 -1.891304E+03  3.236702E+05  1.781198E+04 -1.037581E+05  6.102703E+03  1.175201E+04
       167   7 -5.200314E+04 -9.894554E+04 -3.998587E+04 -7.653594E+04  4.280712E+03  2.947226E+04
       167   8 -6.440573E+04  4.610084E+04 -3.088396E+04 -6.566727E+04  1.128215E+04  2.632024E+04
       167   9 -3.127006E+04  2.027752E+05 -8.376947E+03 -1.108393E+05  6.081571E+03  2.314791E+04
       167  10  1.583328E+05  7.463821E+05  1.656226E+05 -1.308155E+05  2.525166E-10  2.996422E-10
       167  11  6.801791E+04  5.875444E+05  8.957488E+04 -8.572684E+04  4.852555E-10 -2.431759E-10
       167  12  2.748671E+04  4.445792E+05  4.400048E+04 -9.667554E+04  2.708933E-11 -8.732006E-10
       167  13  5.316991E+04  3.236356E+05  6.282383E+04 -1.036665E+05  1.109148E-09 -4.076858E-11
       167  14  1.808229E+03  3.167879E+05  2.934695E+04 -7.569498E+04  9.793144E-10  8.158397E-11
       167  15 -1.891381E+03  3.236700E+05  1.781165E+04 -1.037582E+05 -8.764156E-11  1.103685E-11
       167  16 -5.200339E+04 -9.894648E+04 -3.998754E+04 -7.653604E+04  3.945241E-10 -2.378375E-10
       167  17 -6.440605E+04  4.610006E+04 -3.088550E+04 -6.566750E+04  1.810663E-09  3.664177E-10
       167  18 -3.127024E+04  2.027747E+05 -8.378024E+03 -1.108394E+05  1.520962E-10  8.670783E-10
       167  19  1.583336E+05  7.463854E+05  1.656285E+05 -1.308153E+05 -4.232373E+03 -5.591896E+04
       167  20  6.801826E+04  5.875452E+05  8.957661E+04 -8.572659E+04 -1.127743E+04 -2.814282E+04
       167  21  2.748675E+04  4.445792E+05  4.400055E+04 -9.667553E+04 -6.123573E+03 -3.539095E+02
       167  22  5.317042E+04  3.236375E+05  6.282728E+04 -1.036664E+05 -4.257116E+03 -4.269113E+04
       167  23  1.808565E+03  3.167888E+05  2.934858E+04 -7.569473E+04 -1.127981E+04 -2.723133E+04
       167  24 -1.891304E+03  3.236702E+05  1.781198E+04 -1.037581E+05 -6.102703E+03 -1.175201E+04
       167  25 -5.200314E+04 -9.894554E+04 -3.998587E+04 -7.653594E+04 -4.280712E+03 -2.947226E+04
       167  26 -6.440573E+04  4.610084E+04 -3.088396E+04 -6.566727E+04 -1.128215E+04 -2.632024E+04
       167  27 -3.127006E+04  2.027752E+05 -8.376947E+03 -1.108393E+05 -6.081571E+03 -2.314791E+04
       168   1  3.788602E+03  3.246613E+05  1.567382E+04 -1.049151E+05 -8.632356E+01  9.061721E+02
       168   2 -3.545399E+04  1.732338E+05 -2.158729E+04 -7.547788E+04 -8.112172E+03 -3.680645E+03
       168   3 -7.121611E+04  2.307187E+04 -5.504954E+04 -1.026432E+05 -1.579052E+04 -8.264396E+03
       168   4  2.835456E+03  3.209109E+05  1.468026E+04 -1.038602E+05 -1.016305E+02  9.182955E+03
       168   5  2.249427E+02  3.202519E+05  9.829185E+03 -7.556097E+04 -8.126154E+03  4.244749E+03
       168   6  1.157044E+03  3.208981E+05  9.021932E+03 -1.038632E+05 -1.580328E+04 -6.914640E+02
       168   7  1.882350E+03  3.171607E+05  1.368697E+04 -1.028054E+05 -1.169095E+02  1.745969E+04
       168   8  3.590250E+04  4.672904E+05  4.124464E+04 -7.564408E+04 -8.140136E+03  1.217199E+04
       168   9  7.352441E+04  6.188079E+05  7.308842E+04 -1.050837E+05 -1.581606E+04  6.885050E+03
       168  10  3.788602E+03  3.246613E+05  1.567381E+04 -1.049151E+05 -6.305538E-10  5.680869E-10
       168  11 -3.545406E+04  1.732338E+05 -2.158744E+04 -7.547790E+04 -2.594345E-10  2.100017E-10
       168  12 -7.121640E+04  2.307173E+04 -5.505014E+04 -1.026433E+05  1.100088E-10 -2.075446E-10
       168  13  2.835433E+03  3.209108E+05  1.468011E+04 -1.038602E+05 -1.300028E-10  7.462187E-11
       168  14  2.248670E+02  3.202518E+05  9.829027E+03 -7.556095E+04 -9.360406E-11 -6.521485E-11
       168  15  1.156776E+03  3.208981E+05  9.021462E+03 -1.038632E+05 -2.032018E-10  5.797504E-11
       168  16  1.882268E+03  3.171604E+05  1.368640E+04 -1.028054E+05 -6.289866E-10 -5.407952E-10
       168  17  3.590239E+04  4.672902E+05  4.124424E+04 -7.564400E+04 -1.720974E-09 -1.917119E-10
       168  18  7.352413E+04  6.188078E+05  7.308786E+04 -1.050836E+05  5.460117E-10  1.557040E-10
       168  19  3.788602E+03  3.246613E+05  1.567382E+04 -1.049151E+05  8.632356E+01 -9.061721E+02
       168  20 -3.545399E+04  1.732338E+05 -2.158729E+04 -7.547788E+04  8.112172E+03  3.680645E+03
       168  21 -7.121611E+04  2.307187E+04 -5.504954E+04 -1.026432E+05  1.579052E+04  8.264396E+03
       168  22  2.835456E+03  3.209109E+05  1.468026E+04 -1.038602E+05  1.016305E+02 -9.182955E+03
       168  23  2.249427E+02  3.202519E+05  9.829185E+03 -7.556097E+04  8.126154E+03 -4.244749E+03
       168  24  1.157044E+03  3.208981E+05  9.021932E+03 -1.038632E+05  1.580328E+04  6.914640E+02
       168  25  1.882350E+03  3.171607E+05  1.368697E+04 -1.028054E+05  1.169095E+02 -1.745969E+04
       168  26  3.590250E+04  4.672904E+05  4.124464E+04 -7.564408E+04  8.140136E+03 -1.217199E+04
       168  27  7.352441E+04  6.188079E+05  7.308842E+04 -1.050837E+05  1.581606E+04 -6.885050E+03
       169   1 -1.012943E+05 -9.336978E+04 -7.964805E+04 -1.058845E+05 -2.249764E+04 -1.506228E+04
       169   2 -1.370536E+05 -2.454284E+05 -1.119960E+05 -7.135796E+04 -2.541798E+04 -1.709194E+03
       169   3 -1.576338E+05 -3.955008E+05 -1.492661E+05 -9.258648E+04 -8.614744E+03  1.166564E+04
       169   4 -4.815519E+02  3.217924E+05  9.347408E+03 -1.036811E+05 -2.251840E+04 -2.204947E+03
       169   5  7.451319E+02  3.190608E+05  1.244393E+04 -7.579068E+04 -2.540572E+04 -8.730221E+03
       169   6  2.059481E+04  3.217384E+05  2.441894E+04 -1.036508E+05 -8.577794E+03 -1.523028E+04
       169   7  1.003200E+05  7.371171E+05  9.833346E+04 -1.014761E+05 -2.253907E+04  1.066087E+04
       169   8  1.385226E+05  8.838479E+05  1.368645E+05 -8.022736E+04 -2.539337E+04 -1.575756E+04
       169   9  1.987865E+05  1.039449E+06  1.980697E+05 -1.147278E+05 -8.539910E+03 -4.215718E+04
       169  10 -1.012949E+05 -9.337016E+04 -7.964943E+04 -1.058847E+05 -2.289333E-10 -1.771003E-10
       169  11 -1.370543E+05 -2.454285E+05 -1.119972E+05 -7.135800E+04  7.774747E-10  6.692545E-11
       169  12 -1.576339E+05 -3.955010E+05 -1.492665E+05 -9.258640E+04  8.871859E-12  1.222525E-10
       169  13 -4.820978E+02  3.217923E+05  9.346446E+03 -1.036811E+05  5.032156E-10 -3.281652E-11
       169  14  7.444183E+02  3.190605E+05  1.244258E+04 -7.579086E+04  4.369096E-10  1.008131E-10
       169  15  2.059467E+04  3.217381E+05  2.441836E+04 -1.036509E+05  1.378516E-10  1.524939E-11
       169  16  1.003194E+05  7.371168E+05  9.833229E+04 -1.014759E+05 -6.426108E-11  3.348183E-10
       169  17  1.385218E+05  8.838475E+05  1.368628E+05 -8.022768E+04  6.234075E-10 -1.515251E-10
       169  18  1.987860E+05  1.039448E+06  1.980663E+05 -1.147281E+05  3.260819E-10 -2.267247E-10
       169  19 -1.012943E+05 -9.336978E+04 -7.964805E+04 -1.058845E+05  2.249764E+04  1.506228E+04
       169  20 -1.370536E+05 -2.454284E+05 -1.119960E+05 -7.135796E+04  2.541798E+04  1.709194E+03
       169  21 -1.576338E+05 -3.955008E+05 -1.492661E+05 -9.258648E+04  8.614744E+03 -1.166564E+04
       169  22 -4.815519E+02  3.217924E+05  9.347408E+03 -1.036811E+05  2.251840E+04  2.204947E+03
       169  23  7.451319E+02  3.190608E+05  1.244393E+04 -7.579068E+04  2.540572E+04  8.730221E+03
       169  24  2.059481E+04  3.217384E+05  2.441894E+04 -1.036508E+05  8.577794E+03  1.523028E+04
       169  25  1.003200E+05  7.371171E+05  9.833346E+04 -1.014761E+05  2.253907E+04 -1.066087E+04
       169  26  1.385226E+05  8.838479E+05  1.368645E+05 -8.022736E+04  2.539337E+04  1.575756E+04
       169  27  1.987865E+05  1.039449E+06  1.980697E+05 -1.147278E+05  8.539910E+03  4.215718E+04
       170   1 -1.514551E+06 -6.255145E+05 -3.963974E+05 -5.566001E+05 -1.685363E+05 -5.188782E+04
       170   2 -1.458244E+06 -3.994567E+05 -2.465585E+05 -5.417012E+05 -1.086970E+05 -4.366672E+03
       170   3 -1.453800E+06 -3.444961E+05 -1.899519E+05 -5.054775E+05 -4.133151E+04  2.320017E+04
       170   4 -8.741268E+05 -3.062291E+05 -2.110175E+05 -3.017181E+05 -1.386034E+05 -4.064427E+04
       170   5 -8.384925E+05 -1.410497E+05 -9.224442E+04 -3.430326E+05 -9.751835E+04 -1.689023E+02
       170   6 -8.509386E+05 -1.431619E+05 -5.175705E+04 -3.630436E+05 -4.891533E+04  2.034691E+04
       170   7 -2.332906E+05  1.317991E+04 -2.567397E+04 -4.656884E+04 -1.086369E+05 -2.937857E+04
       170   8 -2.183579E+05  1.174116E+05  6.203998E+04 -1.441736E+05 -8.632749E+04  4.034701E+03
       170   9 -2.477131E+05  5.818278E+04  8.641471E+04 -2.204903E+05 -5.650720E+04  1.749133E+04
       170  10 -1.514583E+06 -6.255251E+05 -3.964560E+05 -5.566072E+05  3.045154E-10 -3.485622E-11
       170  11 -1.458257E+06 -3.994599E+05 -2.465808E+05 -5.417015E+05 -1.073289E-09 -3.552338E-10
       170  12 -1.453802E+06 -3.444972E+05 -1.899561E+05 -5.054767E+05 -6.823755E-10  2.926478E-11
       170  13 -8.741479E+05 -3.062360E+05 -2.110568E+05 -3.017226E+05  5.109880E-11 -1.310064E-10
       170  14 -8.385027E+05 -1.410523E+05 -9.226231E+04 -3.430326E+05  6.121144E-10 -2.964763E-10
       170  15 -8.509413E+05 -1.431630E+05 -5.176233E+04 -3.630428E+05  6.070176E-10  2.894347E-11
       170  16 -2.333035E+05  1.317582E+04 -2.569778E+04 -4.657141E+04 -6.536506E-10 -2.212524E-10
       170  17 -2.183660E+05  1.174096E+05  6.202594E+04 -1.441733E+05  1.336495E-10 -2.876531E-10
       170  18 -2.477166E+05  5.818159E+04  8.640813E+04 -2.204895E+05  2.299501E-10  1.263722E-10
       170  19 -1.514551E+06 -6.255145E+05 -3.963974E+05 -5.566001E+05  1.685363E+05  5.188782E+04
       170  20 -1.458244E+06 -3.994567E+05 -2.465585E+05 -5.417012E+05  1.086970E+05  4.366672E+03
       170  21 -1.453800E+06 -3.444961E+05 -1.899519E+05 -5.054775E+05  4.133151E+04 -2.320017E+04
       170  22 -8.741268E+05 -3.062291E+05 -2.110175E+05 -3.017181E+05  1.386034E+05  4.064427E+04
       170  23 -8.384925E+05 -1.410497E+05 -9.224442E+04 -3.430326E+05  9.751835E+04  1.689023E+02
       170  24 -8.509386E+05 -1.431619E+05 -5.175705E+04 -3.630436E+05  4.891533E+04 -2.034691E+04
       170  25 -2.332906E+05  1.317991E+04 -2.567397E+04 -4.656884E+04  1.086369E+05  2.937857E+04
       170  26 -2.183579E+05  1.174116E+05  6.203998E+04 -1.441736E+05  8.632749E+04 -4.034701E+03
       170  27 -2.477131E+05  5.818278E+04  8.641471E+04 -2.204903E+05  5.650720E+04 -1.749133E+04
       171   1 -1.383435E+06 -3.610906E+05 -1.691531E+05 -5.055110E+05 -3.924787E+04  1.976874E+04
       171   2 -1.334558E+06 -3.218454E+05 -1.357193E+05 -4.814865E+05 -2.681296E+04  2.175351E+04
       171   3 -1.274049E+06 -3.075287E+05 -1.131926E+05 -4.742596E+05 -1.403591E+04  2.282520E+04
       171   4 -8.441641E+05 -1.576312E+05 -4.078500E+04 -3.541492E+05 -4.105541E+04  1.908668E+04
       171   5 -8.494424E+05 -1.409297E+05 -2.112724E+04 -3.473692E+05 -2.947137E+04  2.075270E+04
       171   6 -8.429195E+05 -1.489826E+05 -1.169402E+04 -3.573879E+05 -1.754636E+04  2.150552E+04
       171   7 -3.046068E+05  4.585045E+04  8.756144E+04 -2.026672E+05 -4.286465E+04  1.840396E+04
       171   8 -3.640927E+05  4.000358E+04  9.344817E+04 -2.131559E+05 -3.213205E+04  1.975104E+04
       171   9 -4.116020E+05  9.576807E+03  8.979217E+04 -2.404417E+05 -2.105949E+04  2.018487E+04
       171  10 -1.383436E+06 -3.610915E+05 -1.691568E+05 -5.055103E+05  6.653607E-10  2.950449E-10
       171  11 -1.334558E+06 -3.218461E+05 -1.357215E+05 -4.814860E+05  6.443561E-10 -2.852626E-10
       171  12 -1.274050E+06 -3.075293E+05 -1.131939E+05 -4.742594E+05  4.143442E-10 -2.916688E-10
       171  13 -8.441660E+05 -1.576320E+05 -4.078886E+04 -3.541485E+05  2.126414E-10  1.585677E-10
       171  14 -8.494435E+05 -1.409304E+05 -2.112968E+04 -3.473687E+05  1.163567E-09 -4.580616E-11
       171  15 -8.429199E+05 -1.489832E+05 -1.169547E+04 -3.573876E+05 -5.198445E-10 -1.771753E-10
       171  16 -3.046089E+05  4.584959E+04  8.755735E+04 -2.026666E+05 -3.653707E-10  4.778873E-11
       171  17 -3.640939E+05  4.000289E+04  9.344550E+04 -2.131554E+05  1.261063E-10  8.932920E-11
       171  18 -4.116026E+05  9.576251E+03  8.979057E+04 -2.404414E+05  3.090976E-11 -1.507714E-10
       171  19 -1.383435E+06 -3.610906E+05 -1.691531E+05 -5.055110E+05  3.924787E+04 -1.976874E+04
       171  20 -1.334558E+06 -3.218454E+05 -1.357193E+05 -4.814865E+05  2.681296E+04 -2.175351E+04
       171  21 -1.274049E+06 -3.075287E+05 -1.131926E+05 -4.742596E+05  1.403591E+04 -2.282520E+04
       171  22 -8.441641E+05 -1.576312E+05 -4.078500E+04 -3.541492E+05  4.105541E+04 -1.908668E+04
       171  23 -8.494424E+05 -1.409297E+05 -2.112724E+04 -3.473692E+05  2.947137E+04 -2.075270E+04
       171  24 -8.429195E+05 -1.489826E+05 -1.169402E+04 -3.573879E+05  1.754636E+04 -2.150552E+04
       171  25 -3.046068E+05  4.585045E+04  8.756144E+04 -2.026672E+05  4.286465E+04 -1.840396E+04
       171  26 -3.640927E+05  4.000358E+04  9.344817E+04 -2.131559E+05  3.213205E+04 -1.975104E+04
       171  27 -4.116020E+05  9.576807E+03  8.979217E+04 -2.404417E+05  2.105949E+04 -2.018487E+04
       172   1 -1.227421E+06 -2.925401E+05 -9.942762E+04 -4.625812E+05 -1.183990E+04  2.122404E+04
       172   2 -1.179059E+06 -2.629358E+05 -8.227172E+04 -4.377382E+05 -8.066119E+03  1.866567E+04
       172   3 -1.114709E+06 -2.502766E+05 -6.706757E+04 -4.316861E+05 -4.274719E+03  1.605606E+04
       172   4 -8.423318E+05 -1.497445E+05 -8.873142E+03 -3.568877E+05 -1.510116E+04  1.999852E+04
       172   5 -8.502915E+05 -1.410620E+05 -4.841574E+03 -3.475699E+05 -1.137404E+04  1.742341E+04
       172   6 -8.422580E+05 -1.493144E+05 -2.723659E+03 -3.570432E+05 -7.629560E+03  1.479701E+04
       172   7 -4.570943E+05 -6.938391E+03  8.167096E+04 -2.511343E+05 -1.836463E+04  1.877217E+04
       172   8 -5.214172E+05 -1.918096E+04  7.258075E+04 -2.573583E+05 -1.468386E+04  1.618045E+04
       172   9 -5.697341E+05 -4.834761E+04  6.161463E+04 -2.823709E+05 -1.098599E+04  1.353736E+04
       172  10 -1.227422E+06 -2.925406E+05 -9.942873E+04 -4.625810E+05  8.150179E-10 -2.776602E-11
       172  11 -1.179059E+06 -2.629362E+05 -8.227250E+04 -4.377381E+05  6.823779E-10 -5.013361E-10
       172  12 -1.114710E+06 -2.502769E+05 -6.706809E+04 -4.316860E+05 -4.687651E-10 -3.954850E-10
       172  13 -8.423321E+05 -1.497450E+05 -8.874322E+03 -3.568875E+05 -4.102591E-10 -3.318381E-10
       172  14 -8.502917E+05 -1.410624E+05 -4.842387E+03 -3.475697E+05 -3.131048E-10 -4.399583E-10
       172  15 -8.422581E+05 -1.493147E+05 -2.724180E+03 -3.570432E+05  2.744356E-10 -6.510515E-11
       172  16 -4.570947E+05 -6.938860E+03  8.166967E+04 -2.511341E+05 -7.955744E-10 -5.586142E-10
       172  17 -5.214175E+05 -1.918129E+04  7.257986E+04 -2.573581E+05 -9.082304E-10 -5.279561E-10
       172  18 -5.697343E+05 -4.834784E+04  6.161406E+04 -2.823708E+05  9.477627E-11  1.778972E-10
       172  19 -1.227421E+06 -2.925401E+05 -9.942762E+04 -4.625812E+05  1.183990E+04 -2.122404E+04
       172  20 -1.179059E+06 -2.629358E+05 -8.227172E+04 -4.377382E+05  8.066119E+03 -1.866567E+04
       172  21 -1.114709E+06 -2.502766E+05 -6.706757E+04 -4.316861E+05  4.274719E+03 -1.605606E+04
       172  22 -8.423318E+05 -1.497445E+05 -8.873142E+03 -3.568877E+05  1.510116E+04 -1.999852E+04
       172  23 -8.502915E+05 -1.410620E+05 -4.841574E+03 -3.475699E+05  1.137404E+04 -1.742341E+04
       172  24 -8.422580E+05 -1.493144E+05 -2.723659E+03 -3.570432E+05  7.629560E+03 -1.479701E+04
       172  25 -4.570943E+05 -6.938391E+03  8.167096E+04 -2.511343E+05  1.836463E+04 -1.877217E+04
       172  26 -5.214172E+05 -1.918096E+04  7.258075E+04 -2.573583E+05  1.468386E+04 -1.618045E+04
       172  27 -5.697341E+05 -4.834761E+04  6.161463E+04 -2.823709E+05  1.098599E+04 -1.353736E+04
       173   1 -1.069159E+06 -2.334683E+05 -5.535529E+04 -4.192986E+05 -3.104015E+03  1.413145E+04
       173   2 -1.020640E+06 -2.041714E+05 -4.138195E+04 -3.942514E+05 -1.119055E+03  1.081713E+04
       173   3 -9.556623E+05 -1.914532E+05 -2.789726E+04 -3.881693E+05  8.677285E+02  7.495569E+03
       173   4 -8.421685E+05 -1.493632E+05 -2.095237E+03 -3.570321E+05 -6.454266E+03  1.287449E+04
       173   5 -8.503913E+05 -1.410609E+05 -1.292325E+03 -3.475525E+05 -4.475939E+03  9.558082E+03
       173   6 -8.421580E+05 -1.493362E+05 -9.730043E+02 -3.570392E+05 -2.495862E+03  6.234423E+03
       173   7 -6.151252E+05 -6.525386E+04  5.116162E+04 -2.947444E+05 -9.805869E+03  1.161703E+04
       173   8 -6.801128E+05 -7.794801E+04  3.879544E+04 -3.008418E+05 -7.833835E+03  8.298653E+03
       173   9 -7.286409E+05 -1.072183E+05  2.595038E+04 -3.259040E+05 -5.860122E+03  4.973025E+03
       173  10 -1.069159E+06 -2.334685E+05 -5.535568E+04 -4.192985E+05  3.881726E-10 -1.199590E-11
       173  11 -1.020641E+06 -2.041716E+05 -4.138217E+04 -3.942514E+05 -3.509848E-09 -1.141961E-09
       173  12 -9.556623E+05 -1.914532E+05 -2.789736E+04 -3.881693E+05 -3.465165E-09 -4.880921E-10
       173  13 -8.421686E+05 -1.493634E+05 -2.095627E+03 -3.570320E+05 -1.806896E-09 -4.413496E-10
       173  14 -8.503914E+05 -1.410610E+05 -1.292535E+03 -3.475525E+05 -3.617095E-09 -1.212799E-09
       173  15 -8.421581E+05 -1.493363E+05 -9.730890E+02 -3.570392E+05 -1.025250E-09 -4.118070E-10
       173  16 -6.151254E+05 -6.525403E+04  5.116118E+04 -2.947443E+05 -3.262168E-09 -7.793598E-10
       173  17 -6.801129E+05 -7.794810E+04  3.879520E+04 -3.008417E+05 -3.279560E-09 -1.327111E-09
       173  18 -7.286410E+05 -1.072183E+05  2.595027E+04 -3.259040E+05  4.272561E-10 -3.578480E-10
       173  19 -1.069159E+06 -2.334683E+05 -5.535529E+04 -4.192986E+05  3.104015E+03 -1.413145E+04
       173  20 -1.020640E+06 -2.041714E+05 -4.138195E+04 -3.942514E+05  1.119055E+03 -1.081713E+04
       173  21 -9.556623E+05 -1.914532E+05 -2.789726E+04 -3.881693E+05 -8.677285E+02 -7.495569E+03
       173  22 -8.421685E+05 -1.493632E+05 -2.095237E+03 -3.570321E+05  6.454266E+03 -1.287449E+04
       173  23 -8.503913E+05 -1.410609E+05 -1.292325E+03 -3.475525E+05  4.475939E+03 -9.558082E+03
       173  24 -8.421580E+05 -1.493362E+05 -9.730043E+02 -3.570392E+05  2.495862E+03 -6.234423E+03
       173  25 -6.151252E+05 -6.525386E+04  5.116162E+04 -2.947444E+05  9.805869E+03 -1.161703E+04
       173  26 -6.801128E+05 -7.794801E+04  3.879544E+04 -3.008418E+05  7.833835E+03 -8.298653E+03
       173  27 -7.286409E+05 -1.072183E+05  2.595038E+04 -3.259040E+05  5.860122E+03 -4.973025E+03
       174   1 -9.100387E+05 -1.744894E+05 -1.674315E+04 -3.756987E+05  1.809307E+03  5.478474E+03
       174   2 -8.613912E+05 -1.451481E+05 -3.754074E+03 -3.505896E+05  3.724882E+03  2.124067E+03
       174   3 -7.962513E+05 -1.324174E+05  8.798574E+03 -3.444935E+05  5.640069E+03 -1.229442E+03
       174   4 -8.421488E+05 -1.493439E+05 -9.503902E+02 -3.570490E+05 -1.556954E+03  4.216467E+03
       174   5 -8.503936E+05 -1.410408E+05 -1.159639E+03 -3.475409E+05  3.593292E+02  8.623504E+02
       174   6 -8.421493E+05 -1.493487E+05 -1.805798E+03 -3.570471E+05  2.275170E+03 -2.490884E+03
       174   7 -7.742547E+05 -1.241982E+05  1.484200E+04 -3.383974E+05 -4.923597E+03  2.954316E+03
       174   8 -8.393959E+05 -1.369335E+05  1.434836E+03 -3.444921E+05 -3.006288E+03 -3.993910E+02
       174   9 -8.880455E+05 -1.662799E+05 -1.241033E+04 -3.695999E+05 -1.089477E+03 -3.752233E+03
       174  10 -9.100387E+05 -1.744894E+05 -1.674321E+04 -3.756987E+05 -4.455179E-10  6.392657E-10
       174  11 -8.613912E+05 -1.451481E+05 -3.754108E+03 -3.505896E+05 -5.573295E-10 -1.051923E-10
       174  12 -7.962513E+05 -1.324174E+05  8.798512E+03 -3.444934E+05 -1.913244E-10 -2.197406E-10
       174  13 -8.421488E+05 -1.493439E+05 -9.504281E+02 -3.570489E+05 -2.976054E-10  1.668405E-10
       174  14 -8.503936E+05 -1.410408E+05 -1.159641E+03 -3.475409E+05  4.664662E-10  1.354977E-10
       174  15 -8.421493E+05 -1.493487E+05 -1.805819E+03 -3.570471E+05  2.205467E-10 -7.474819E-11
       174  16 -7.742547E+05 -1.241982E+05  1.484194E+04 -3.383974E+05  4.499159E-10 -1.811528E-10
       174  17 -8.393959E+05 -1.369335E+05  1.434818E+03 -3.444921E+05  8.397077E-10  3.379191E-10
       174  18 -8.880455E+05 -1.662800E+05 -1.241036E+04 -3.695999E+05  5.444317E-10  2.962780E-11
       174  19 -9.100387E+05 -1.744894E+05 -1.674315E+04 -3.756987E+05 -1.809307E+03 -5.478474E+03
       174  20 -8.613912E+05 -1.451481E+05 -3.754074E+03 -3.505896E+05 -3.724882E+03 -2.124067E+03
       174  21 -7.962513E+05 -1.324174E+05  8.798574E+03 -3.444935E+05 -5.640069E+03  1.229442E+03
       174  22 -8.421488E+05 -1.493439E+05 -9.503902E+02 -3.570490E+05  1.556954E+03 -4.216467E+03
       174  23 -8.503936E+05 -1.410408E+05 -1.159639E+03 -3.475409E+05 -3.593292E+02 -8.623504E+02
       174  24 -8.421493E+05 -1.493487E+05 -1.805798E+03 -3.570471E+05 -2.275170E+03  2.490884E+03
       174  25 -7.742547E+05 -1.241982E+05  1.484200E+04 -3.383974E+05  4.923597E+03 -2.954316E+03
       174  26 -8.393959E+05 -1.369335E+05  1.434836E+03 -3.444921E+05  3.006288E+03  3.993910E+02
       174  27 -8.880455E+05 -1.662799E+05 -1.241033E+04 -3.695999E+05  1.089477E+03  3.752233E+03
       175   1 -7.506371E+05 -1.154562E+05  1.940913E+04 -3.320829E+05  6.768635E+03 -3.179464E+03
       175   2 -7.019689E+05 -8.610860E+04  3.081728E+04 -3.069325E+05  1.011761E+04 -5.982621E+03
       175   3 -6.371556E+05 -7.373009E+04  4.062205E+04 -3.007281E+05  1.345435E+04 -8.750606E+03
       175   4 -8.422140E+05 -1.493208E+05 -2.327971E+03 -3.570738E+05  3.396770E+03 -4.443625E+03
       175   5 -8.503097E+05 -1.410064E+05 -4.096773E+03 -3.475364E+05  6.778109E+03 -7.235011E+03
       175   6 -8.422697E+05 -1.496681E+05 -7.494760E+03 -3.569466E+05  1.014700E+04 -9.991279E+03
       175   7 -9.337825E+05 -1.831848E+05 -2.406562E+04 -3.820613E+05  2.544794E+01 -5.707584E+03
       175   8 -9.986281E+05 -1.959025E+05 -3.901220E+04 -3.881313E+05  3.439485E+03 -8.487073E+03
       175   9 -1.047341E+06 -2.256028E+05 -5.561414E+04 -4.131478E+05  6.840856E+03 -1.123150E+04
       175  10 -7.506371E+05 -1.154562E+05  1.940903E+04 -3.320829E+05 -2.664669E-10 -1.057383E-10
       175  11 -7.019690E+05 -8.610866E+04  3.081702E+04 -3.069325E+05 -3.134247E-10 -1.963135E-10
       175  12 -6.371559E+05 -7.373022E+04  4.062156E+04 -3.007280E+05 -4.271351E-10 -1.952025E-11
       175  13 -8.422140E+05 -1.493208E+05 -2.328030E+03 -3.570738E+05  7.697423E-12 -1.485401E-10
       175  14 -8.503098E+05 -1.410065E+05 -4.096957E+03 -3.475364E+05 -3.519028E-11 -2.614832E-10
       175  15 -8.422698E+05 -1.496683E+05 -7.495141E+03 -3.569465E+05 -1.660901E-10 -1.589621E-10
       175  16 -9.337825E+05 -1.831848E+05 -2.406568E+04 -3.820613E+05  1.237549E-10 -1.541957E-10
       175  17 -9.986282E+05 -1.959026E+05 -3.901236E+04 -3.881313E+05  2.234793E-10 -2.528542E-10
       175  18 -1.047341E+06 -2.256029E+05 -5.561446E+04 -4.131478E+05  6.174690E-11 -2.857558E-10
       175  19 -7.506371E+05 -1.154562E+05  1.940913E+04 -3.320829E+05 -6.768635E+03  3.179464E+03
       175  20 -7.019689E+05 -8.610860E+04  3.081728E+04 -3.069325E+05 -1.011761E+04  5.982621E+03
       175  21 -6.371556E+05 -7.373009E+04  4.062205E+04 -3.007281E+05 -1.345435E+04  8.750606E+03
       175  22 -8.422140E+05 -1.493208E+05 -2.327971E+03 -3.570738E+05 -3.396770E+03  4.443625E+03
       175  23 -8.503097E+05 -1.410064E+05 -4.096773E+03 -3.475364E+05 -6.778109E+03  7.235011E+03
       175  24 -8.422697E+05 -1.496681E+05 -7.494760E+03 -3.569466E+05 -1.014700E+04  9.991279E+03
       175  25 -9.337825E+05 -1.831848E+05 -2.406562E+04 -3.820613E+05 -2.544794E+01  5.707584E+03
       175  26 -9.986281E+05 -1.959025E+05 -3.901220E+04 -3.881313E+05 -3.439485E+03  8.487073E+03
       175  27 -1.047341E+06 -2.256028E+05 -5.561414E+04 -4.131478E+05 -6.840856E+03  1.123150E+04
       176   1 -5.912922E+05 -5.704088E+04  4.930156E+04 -2.896943E+05  1.583407E+04 -1.028382E+04
       176   2 -5.431353E+05 -2.655888E+04  5.455904E+04 -2.625571E+05  2.547932E+04 -1.050260E+04
       176   3 -4.822133E+05 -1.956623E+04  5.169100E+04 -2.527464E+05  3.486902E+04 -1.003372E+04
       176   4 -8.427552E+05 -1.490348E+05 -9.873316E+03 -3.573803E+05  1.233600E+04 -1.159634E+04
       176   5 -8.495930E+05 -1.408680E+05 -1.782293E+04 -3.473526E+05  2.262461E+04 -1.157455E+04
       176   6 -8.437994E+05 -1.563224E+05 -3.441196E+04 -3.546539E+05  3.265680E+04 -1.086527E+04
       176   7 -1.094157E+06 -2.410252E+05 -6.905297E+04 -4.250419E+05  8.839457E+03 -1.290830E+04
       176   8 -1.155958E+06 -2.551704E+05 -9.021175E+04 -4.321100E+05  1.977144E+04 -1.264592E+04
       176   9 -1.205255E+06 -2.930680E+05 -1.205243E+05 -4.565067E+05  3.044598E+04 -1.169627E+04
       176  10 -5.912925E+05 -5.704107E+04  4.930089E+04 -2.896942E+05 -8.098371E-10  6.915023E-11
       176  11 -5.431360E+05 -2.655917E+04  5.455761E+04 -2.625569E+05  8.434053E-11  2.864649E-10
       176  12 -4.822147E+05 -1.956667E+04  5.168853E+04 -2.527461E+05  6.789283E-10  4.977102E-11
       176  13 -8.427554E+05 -1.490350E+05 -9.873855E+03 -3.573802E+05 -4.154703E-10  2.500116E-11
       176  14 -8.495936E+05 -1.408683E+05 -1.782414E+04 -3.473524E+05 -3.886028E-10  1.955578E-10
       176  15 -8.438006E+05 -1.563228E+05 -3.441419E+04 -3.546536E+05  9.117349E-11 -1.211650E-10
       176  16 -1.094157E+06 -2.410254E+05 -6.905343E+04 -4.250418E+05  1.496091E-10 -7.072193E-11
       176  17 -1.155958E+06 -2.551707E+05 -9.021279E+04 -4.321098E+05 -6.055034E-10  2.421851E-10
       176  18 -1.205256E+06 -2.930684E+05 -1.205263E+05 -4.565064E+05 -1.455342E-11 -3.730751E-11
       176  19 -5.912922E+05 -5.704088E+04  4.930156E+04 -2.896943E+05 -1.583407E+04  1.028382E+04
       176  20 -5.431353E+05 -2.655888E+04  5.455904E+04 -2.625571E+05 -2.547932E+04  1.050260E+04
       176  21 -4.822133E+05 -1.956623E+04  5.169100E+04 -2.527464E+05 -3.486902E+04  1.003372E+04
       176  22 -8.427552E+05 -1.490348E+05 -9.873316E+03 -3.573803E+05 -1.233600E+04  1.159634E+04
       176  23 -8.495930E+05 -1.408680E+05 -1.782293E+04 -3.473526E+05 -2.262461E+04  1.157455E+04
       176  24 -8.437994E+05 -1.563224E+05 -3.441196E+04 -3.546539E+05 -3.265680E+04  1.086527E+04
       176  25 -1.094157E+06 -2.410252E+05 -6.905297E+04 -4.250419E+05 -8.839457E+03  1.290830E+04
       176  26 -1.155958E+06 -2.551704E+05 -9.021175E+04 -4.321100E+05 -1.977144E+04  1.264592E+04
       176  27 -1.205255E+06 -2.930680E+05 -1.205243E+05 -4.565067E+05 -3.044598E+04  1.169627E+04
       177   1 -4.266697E+05 -6.355475E+03  5.266188E+04 -2.657869E+05  4.594482E+04 -9.659009E+03
       177   2 -3.935572E+05  4.846344E+04  3.401742E+04 -1.971142E+05  7.316446E+04  1.224632E+03
       177   3 -3.953587E+05 -3.787412E+04 -3.940808E+04 -1.137889E+05  9.472142E+04  2.718775E+04
       177   4 -8.495023E+05 -1.441274E+05 -4.366954E+04 -3.621759E+05  3.936311E+04 -1.212988E+04
       177   5 -8.403678E+05 -1.409346E+05 -7.782133E+04 -3.436676E+05  8.077678E+04  4.079252E+03
       177   6 -8.690061E+05 -2.817809E+05 -1.780419E+05 -3.105000E+05  1.165234E+05  3.536791E+04
       177   7 -1.272155E+06 -2.818952E+05 -1.400117E+05 -4.585088E+05  3.278630E+04 -1.459942E+04
       177   8 -1.286978E+06 -3.303011E+05 -1.896753E+05 -4.901187E+05  8.838312E+04  6.930908E+03
       177   9 -1.342425E+06 -5.256094E+05 -3.166954E+05 -5.070563E+05  1.383073E+05  4.353545E+04
       177  10 -4.266720E+05 -6.356142E+03  5.265773E+04 -2.657865E+05  5.084322E-11 -8.394845E-11
       177  11 -3.935630E+05  4.846200E+04  3.400735E+04 -1.971143E+05 -3.826781E-10  1.685815E-10
       177  12 -3.953686E+05 -3.787732E+04 -3.942634E+04 -1.137910E+05 -3.818750E-11 -8.136009E-11
       177  13 -8.495040E+05 -1.441280E+05 -4.367273E+04 -3.621755E+05 -2.696725E-10 -2.839353E-11
       177  14 -8.403748E+05 -1.409364E+05 -7.783364E+04 -3.436679E+05 -1.020646E-09  3.672534E-10
       177  15 -8.690210E+05 -2.817859E+05 -1.780698E+05 -3.105033E+05  4.618758E-10  2.105521E-10
       177  16 -1.272156E+06 -2.818957E+05 -1.400141E+05 -4.585084E+05 -3.953189E-11 -5.752580E-11
       177  17 -1.286986E+06 -3.303033E+05 -1.896901E+05 -4.901192E+05 -3.266629E-10 -1.169439E-10
       177  18 -1.342446E+06 -5.256166E+05 -3.167350E+05 -5.070612E+05 -1.747785E-10 -6.151020E-11
       177  19 -4.266697E+05 -6.355475E+03  5.266188E+04 -2.657869E+05 -4.594482E+04  9.659009E+03
       177  20 -3.935572E+05  4.846344E+04  3.401742E+04 -1.971142E+05 -7.316446E+04 -1.224632E+03
       177  21 -3.953587E+05 -3.787412E+04 -3.940808E+04 -1.137889E+05 -9.472142E+04 -2.718775E+04
       177  22 -8.495023E+05 -1.441274E+05 -4.366954E+04 -3.621759E+05 -3.936311E+04  1.212988E+04
       177  23 -8.403678E+05 -1.409346E+05 -7.782133E+04 -3.436676E+05 -8.077678E+04 -4.079252E+03
       177  24 -8.690061E+05 -2.817809E+05 -1.780419E+05 -3.105000E+05 -1.165234E+05 -3.536791E+04
       177  25 -1.272155E+06 -2.818952E+05 -1.400117E+05 -4.585088E+05 -3.278630E+04  1.459942E+04
       177  26 -1.286978E+06 -3.303011E+05 -1.896753E+05 -4.901187E+05 -8.838312E+04 -6.930908E+03
       177  27 -1.342425E+06 -5.256094E+05 -3.166954E+05 -5.070563E+05 -1.383073E+05 -4.353545E+04
       178   1 -8.030812E+05 -1.968782E+05 -1.593432E+05 -1.260423E+04  6.160408E+04  1.870009E+04
       178   2 -6.931028E+05 -3.028462E+05 -1.952924E+05 -3.657581E+04  5.589946E+04  5.902790E+04
       178   3 -5.501406E+05 -2.822915E+05 -1.957925E+05 -1.062926E+05  5.024365E+04  6.280782E+04
       178   4  5.848478E+05  1.474565E+05  1.754303E+05 -8.560137E+04  1.208108E+05  1.876590E+04
       178   5  5.652686E+05  3.982779E+03  8.061761E+04 -6.265815E+04  7.823013E+04  5.903727E+04
       178   6  5.849827E+05 -6.713862E+03  4.679283E+04 -8.544992E+04  3.570284E+04  6.279325E+04
       178   7  1.974559E+06  4.916728E+05  5.100823E+05 -1.587629E+05  1.801493E+05  1.881772E+04
       178   8  1.825125E+06  3.107089E+05  3.564336E+05 -8.879432E+04  1.006054E+05  5.904477E+04
       178   9  1.721320E+06  2.687814E+05  2.893046E+05 -6.456866E+04  2.113577E+04  6.277771E+04
       178  10 -8.030853E+05 -1.968796E+05 -1.593510E+05 -1.260516E+04  1.339814E-09  5.687751E-11
       178  11 -6.931071E+05 -3.028508E+05 -1.953048E+05 -3.657847E+04  2.656525E-10 -8.622217E-10
       178  12 -5.501444E+05 -2.822964E+05 -1.958046E+05 -1.062951E+05 -3.610534E-10 -3.753747E-10
       178  13  5.848320E+05  1.474522E+05  1.754023E+05 -8.560319E+04  4.726187E-10 -4.786391E-10
       178  14  5.652611E+05  3.977394E+03  8.059957E+04 -6.266187E+04 -3.964163E-10 -4.676951E-10
       178  15  5.849803E+05 -6.718440E+03  4.678303E+04 -8.545172E+04 -1.015890E-09 -4.942250E-10
       178  16  1.974524E+06  4.916637E+05  5.100208E+05 -1.587656E+05  2.431597E-10  4.980988E-10
       178  17  1.825113E+06  3.107024E+05  3.564081E+05 -8.879910E+04 -2.795231E-10 -4.491339E-10
       178  18  1.721319E+06  2.687771E+05  2.892963E+05 -6.456973E+04 -4.458909E-10 -6.644575E-10
       178  19 -8.030812E+05 -1.968782E+05 -1.593432E+05 -1.260423E+04 -6.160408E+04 -1.870009E+04
       178  20 -6.931028E+05 -3.028462E+05 -1.952924E+05 -3.657581E+04 -5.589946E+04 -5.902790E+04
       178  21 -5.501406E+05 -2.822915E+05 -1.957925E+05 -1.062926E+05 -5.024365E+04 -6.280782E+04
       178  22  5.848478E+05  1.474565E+05  1.754303E+05 -8.560137E+04 -1.208108E+05 -1.876590E+04
       178  23  5.652686E+05  3.982779E+03  8.061761E+04 -6.265815E+04 -7.823013E+04 -5.903727E+04
       178  24  5.849827E+05 -6.713862E+03  4.679283E+04 -8.544992E+04 -3.570284E+04 -6.279325E+04
       178  25  1.974559E+06  4.916728E+05  5.100823E+05 -1.587629E+05 -1.801493E+05 -1.881772E+04
       178  26  1.825125E+06  3.107089E+05  3.564336E+05 -8.879432E+04 -1.006054E+05 -5.904477E+04
       178  27  1.721320E+06  2.687814E+05  2.893046E+05 -6.456866E+04 -2.113577E+04 -6.277771E+04
       179   1 -4.599498E+05 -2.451228E+05 -1.856601E+05 -8.367359E+04  3.364787E+04  5.581208E+04
       179   2 -3.361892E+05 -2.215017E+05 -1.746073E+05 -6.185500E+04  2.528625E+04  5.049602E+04
       179   3 -2.094258E+05 -1.913613E+05 -1.564140E+05 -8.706028E+04  1.691621E+04  4.349276E+04
       179   4  5.770185E+05  6.787668E+03  3.695169E+04 -8.577269E+04  2.917774E+04  5.580350E+04
       179   5  5.754163E+05 -2.491527E+02  2.013278E+04 -6.226281E+04  1.910071E+04  5.048997E+04
       179   6  5.770921E+05 -4.750892E+02  1.163542E+04 -8.577219E+04  9.016895E+03  4.349040E+04
       179   7  1.614998E+06  2.586277E+05  2.595008E+05 -8.787536E+04  2.470022E+04  5.579496E+04
       179   8  1.487804E+06  2.209492E+05  2.148250E+05 -6.267120E+04  1.290620E+04  5.048393E+04
       179   9  1.364192E+06  1.903708E+05  1.796493E+05 -8.448238E+04  1.107707E+03  4.348800E+04
       179  10 -4.599518E+05 -2.451265E+05 -1.856681E+05 -8.367510E+04 -9.606901E-10  5.950910E-11
       179  11 -3.361906E+05 -2.215046E+05 -1.746133E+05 -6.185603E+04 -8.351793E-10  5.757022E-10
       179  12 -2.094266E+05 -1.913634E+05 -1.564181E+05 -8.706087E+04 -6.515574E-10  2.126690E-10
       179  13  5.770167E+05  6.784095E+03  3.694424E+04 -8.577400E+04 -9.052371E-11 -3.407103E-10
       179  14  5.754152E+05 -2.519888E+02  2.012730E+04 -6.226359E+04 -5.737291E-10  5.432585E-10
       179  15  5.770915E+05 -4.771427E+02  1.163171E+04 -8.577251E+04 -7.853035E-10  4.527670E-10
       179  16  1.614996E+06  2.586242E+05  2.594938E+05 -8.787647E+04 -1.731758E-10 -3.384955E-10
       179  17  1.487803E+06  2.209464E+05  2.148199E+05 -6.267172E+04 -7.731700E-11  1.532327E-10
       179  18  1.364192E+06  1.903687E+05  1.796457E+05 -8.448242E+04 -4.568765E-10  3.915820E-10
       179  19 -4.599498E+05 -2.451228E+05 -1.856601E+05 -8.367359E+04 -3.364787E+04 -5.581208E+04
       179  20 -3.361892E+05 -2.215017E+05 -1.746073E+05 -6.185500E+04 -2.528625E+04 -5.049602E+04
       179  21 -2.094258E+05 -1.913613E+05 -1.564140E+05 -8.706028E+04 -1.691621E+04 -4.349276E+04
       179  22  5.770185E+05  6.787668E+03  3.695169E+04 -8.577269E+04 -2.917774E+04 -5.580350E+04
       179  23  5.754163E+05 -2.491527E+02  2.013278E+04 -6.226281E+04 -1.910071E+04 -5.048997E+04
       179  24  5.770921E+05 -4.750892E+02  1.163542E+04 -8.577219E+04 -9.016895E+03 -4.349040E+04
       179  25  1.614998E+06  2.586277E+05  2.595008E+05 -8.787536E+04 -2.470022E+04 -5.579496E+04
       179  26  1.487804E+06  2.209492E+05  2.148250E+05 -6.267120E+04 -1.290620E+04 -5.048393E+04
       179  27  1.364192E+06  1.903708E+05  1.796493E+05 -8.448238E+04 -1.107707E+03 -4.348800E+04
       180   1 -1.132449E+05 -1.670822E+05 -1.378970E+05 -8.580899E+04  1.462603E+04  3.899666E+04
       180   2  1.123913E+04 -1.371564E+05 -1.153820E+05 -6.230037E+04  1.217497E+04  3.159318E+04
       180   3  1.362051E+05 -1.068397E+05 -9.116180E+04 -8.567706E+04  9.718486E+03  2.411918E+04
       180   4  5.765012E+05  1.956568E+02  8.903802E+03 -8.574204E+04  7.204205E+03  3.899599E+04
       180   5  5.762834E+05 -8.591108E+01  5.098326E+03 -6.230077E+04  4.678832E+03  3.159477E+04
       180   6  5.765447E+05  3.671117E+01  3.048233E+03 -8.574225E+04  2.148518E+03  2.412313E+04
       180   7  1.266696E+06  1.674426E+05  1.556775E+05 -8.567495E+04 -2.257496E+02  3.899532E+04
       180   8  1.141628E+06  1.369638E+05  1.255604E+05 -6.230113E+04 -2.824029E+03  3.159637E+04
       180   9  1.017067E+06  1.069005E+05  9.724724E+04 -8.580745E+04 -5.426741E+03  2.412708E+04
       180  10 -1.132456E+05 -1.670838E+05 -1.379003E+05 -8.580945E+04  7.349651E-10 -1.222793E-10
       180  11  1.123870E+04 -1.371575E+05 -1.153841E+05 -6.230068E+04 -8.770801E-10 -2.113676E-10
       180  12  1.362049E+05 -1.068404E+05 -9.116308E+04 -8.567725E+04 -1.626747E-09 -2.931357E-10
       180  13  5.765008E+05  1.940095E+02  8.900846E+03 -8.574227E+04  1.683974E-11 -7.078815E-11
       180  14  5.762831E+05 -8.698919E+01  5.096408E+03 -6.230089E+04 -1.283036E-09  1.539418E-10
       180  15  5.765445E+05  3.608486E+01  3.047130E+03 -8.574230E+04  2.709098E-11  4.334218E-10
       180  16  1.266695E+06  1.674409E+05  1.556747E+05 -8.567494E+04 -5.692298E-10  1.124073E-10
       180  17  1.141628E+06  1.369627E+05  1.255586E+05 -6.230106E+04  1.039036E-09 -3.558676E-10
       180  18  1.017067E+06  1.068999E+05  9.724609E+04 -8.580734E+04  3.754945E-10 -3.587934E-10
       180  19 -1.132449E+05 -1.670822E+05 -1.378970E+05 -8.580899E+04 -1.462603E+04 -3.899666E+04
       180  20  1.123913E+04 -1.371564E+05 -1.153820E+05 -6.230037E+04 -1.217497E+04 -3.159318E+04
       180  21  1.362051E+05 -1.068397E+05 -9.116180E+04 -8.567706E+04 -9.718486E+03 -2.411918E+04
       180  22  5.765012E+05  1.956568E+02  8.903802E+03 -8.574204E+04 -7.204205E+03 -3.899599E+04
       180  23  5.762834E+05 -8.591108E+01  5.098326E+03 -6.230077E+04 -4.678832E+03 -3.159477E+04
       180  24  5.765447E+05  3.671117E+01  3.048233E+03 -8.574225E+04 -2.148518E+03 -2.412313E+04
       180  25  1.266696E+06  1.674426E+05  1.556775E+05 -8.567495E+04  2.257496E+02 -3.899532E+04
       180  26  1.141628E+06  1.369638E+05  1.255604E+05 -6.230113E+04  2.824029E+03 -3.159637E+04
       180  27  1.017067E+06  1.069005E+05  9.724724E+04 -8.580745E+04  5.426741E+03 -2.412708E+04
       181   1  2.325603E+05 -8.327403E+04 -7.057235E+04 -8.562524E+04  9.196047E+03  1.975381E+04
       181   2  3.569817E+05 -5.317066E+04 -4.516312E+04 -6.225199E+04  8.394187E+03  1.227268E+04
       181   3  4.814773E+05 -2.298452E+04 -1.922847E+04 -8.565380E+04  7.590264E+03  4.791286E+03
       181   4  5.764684E+05  7.165280E+01  2.398666E+03 -8.571806E+04  1.652703E+03  1.975872E+04
       181   5  5.764461E+05  5.556728E+01  1.616207E+03 -6.233103E+04  8.495581E+02  1.227845E+04
       181   6  5.764850E+05  1.237615E+02  1.360662E+03 -8.571806E+04  4.450688E+01  4.797966E+03
       181   7  9.204881E+05  8.340971E+04  7.536314E+04 -8.581091E+04 -5.894755E+03  1.976363E+04
       181   8  7.959558E+05  5.327870E+04  4.839298E+04 -6.241009E+04 -6.697697E+03  1.228422E+04
       181   9  6.715014E+05  2.323148E+04  2.194947E+04 -8.578233E+04 -7.502389E+03  4.804648E+03
       181  10  2.325601E+05 -8.327448E+04 -7.057324E+04 -8.562539E+04 -6.425842E-10  3.276772E-10
       181  11  3.569816E+05 -5.317085E+04 -4.516354E+04 -6.225207E+04 -1.378115E-09  4.845366E-10
       181  12  4.814773E+05 -2.298456E+04 -1.922862E+04 -8.565383E+04 -9.434062E-11  3.476932E-10
       181  13  5.764683E+05  7.123272E+01  2.397927E+03 -8.571809E+04  1.147567E-09 -2.813690E-10
       181  14  5.764460E+05  5.540515E+01  1.615922E+03 -6.233104E+04 -1.948800E-10  6.657375E-10
       181  15  5.764850E+05  1.237368E+02  1.360618E+03 -8.571806E+04 -6.506616E-10  7.695613E-11
       181  16  9.204879E+05  8.340928E+04  7.536234E+04 -8.581081E+04  5.534336E-10  1.810689E-10
       181  17  7.959557E+05  5.327852E+04  4.839261E+04 -6.241002E+04  9.239236E-11  3.417858E-10
       181  18  6.715013E+05  2.323144E+04  2.194932E+04 -8.578230E+04  1.121916E-09 -1.460253E-10
       181  19  2.325603E+05 -8.327403E+04 -7.057235E+04 -8.562524E+04 -9.196047E+03 -1.975381E+04
       181  20  3.569817E+05 -5.317066E+04 -4.516312E+04 -6.225199E+04 -8.394187E+03 -1.227268E+04
       181  21  4.814773E+05 -2.298452E+04 -1.922847E+04 -8.565380E+04 -7.590264E+03 -4.791286E+03
       181  22  5.764684E+05  7.165280E+01  2.398666E+03 -8.571806E+04 -1.652703E+03 -1.975872E+04
       181  23  5.764461E+05  5.556728E+01  1.616207E+03 -6.233103E+04 -8.495581E+02 -1.227845E+04
       181  24  5.764850E+05  1.237615E+02  1.360662E+03 -8.571806E+04 -4.450688E+01 -4.797966E+03
       181  25  9.204881E+05  8.340971E+04  7.536314E+04 -8.581091E+04  5.894755E+03 -1.976363E+04
       181  26  7.959558E+05  5.327870E+04  4.839298E+04 -6.241009E+04  6.697697E+03 -1.228422E+04
       181  27  6.715014E+05  2.323148E+04  2.194947E+04 -8.578233E+04  7.502389E+03 -4.804648E+03
       182   1  5.778151E+05  5.150694E+02  2.013229E+03 -8.570986E+04  7.335778E+03  4.375203E+02
       182   2  7.022277E+05  3.056164E+04  2.858196E+04 -6.235083E+04  6.450068E+03 -7.041004E+03
       182   3  8.267165E+05  6.069740E+04  5.572849E+04 -8.575286E+04  5.565272E+03 -1.451814E+04
       182   4  5.764866E+05  1.248607E+02  1.389756E+03 -8.571530E+04 -2.098089E+02  4.443170E+02
       182   5  5.764520E+05  6.389720E+01  1.777812E+03 -6.233448E+04 -1.094725E+03 -7.034744E+03
       182   6  5.764770E+05  9.241054E+01  2.743085E+03 -8.571529E+04 -1.978555E+03 -1.451236E+04
       182   7  5.751582E+05 -2.653178E+02  7.664964E+02 -8.572074E+04 -7.755378E+03  4.511138E+02
       182   8  4.506913E+05 -3.043484E+04 -2.502704E+04 -6.231813E+04 -8.638014E+03 -7.028484E+03
       182   9  3.262966E+05 -6.051659E+04 -5.024566E+04 -8.567772E+04 -9.519391E+03 -1.450659E+04
       182  10  5.778151E+05  5.150548E+02  2.013128E+03 -8.570986E+04 -4.643227E-10  7.683525E-10
       182  11  7.022276E+05  3.056157E+04  2.858179E+04 -6.235079E+04  3.817803E-10  8.899903E-10
       182  12  8.267164E+05  6.069716E+04  5.572803E+04 -8.575279E+04  4.881336E-10 -1.271767E-09
       182  13  5.764866E+05  1.248604E+02  1.389756E+03 -8.571530E+04 -8.351455E-12  9.544104E-11
       182  14  5.764520E+05  6.384372E+01  1.777716E+03 -6.233448E+04  5.968713E-11 -1.050784E-09
       182  15  5.764769E+05  9.218326E+01  2.742682E+03 -8.571531E+04  9.302012E-10 -4.549156E-10
       182  16  5.751582E+05 -2.653341E+02  7.663831E+02 -8.572074E+04  3.159315E-10 -8.359332E-11
       182  17  4.506913E+05 -3.043492E+04 -2.502727E+04 -6.231817E+04 -1.442616E-09 -1.247522E-09
       182  18  3.262964E+05 -6.051684E+04 -5.024623E+04 -8.567783E+04 -1.748575E-09 -3.957564E-10
       182  19  5.778151E+05  5.150694E+02  2.013229E+03 -8.570986E+04 -7.335778E+03 -4.375203E+02
       182  20  7.022277E+05  3.056164E+04  2.858196E+04 -6.235083E+04 -6.450068E+03  7.041004E+03
       182  21  8.267165E+05  6.069740E+04  5.572849E+04 -8.575286E+04 -5.565272E+03  1.451814E+04
       182  22  5.764866E+05  1.248607E+02  1.389756E+03 -8.571530E+04  2.098089E+02 -4.443170E+02
       182  23  5.764520E+05  6.389720E+01  1.777812E+03 -6.233448E+04  1.094725E+03  7.034744E+03
       182  24  5.764770E+05  9.241054E+01  2.743085E+03 -8.571529E+04  1.978555E+03  1.451236E+04
       182  25  5.751582E+05 -2.653178E+02  7.664964E+02 -8.572074E+04  7.755378E+03 -4.511138E+02
       182  26  4.506913E+05 -3.043484E+04 -2.502704E+04 -6.231813E+04  8.638014E+03  7.028484E+03
       182  27  3.262966E+05 -6.051659E+04 -5.024566E+04 -8.567772E+04  9.519391E+03  1.450659E+04
       183   1  9.232435E+05  8.417329E+04  7.772657E+04 -8.574472E+04  5.020429E+03 -1.887890E+04
       183   2  1.047677E+06  1.142140E+05  1.063961E+05 -6.228704E+04  2.000253E+03 -2.634405E+04
       183   3  1.172647E+06  1.447361E+05  1.371482E+05 -8.567065E+04 -1.016389E+03 -3.374260E+04
       183   4  5.765644E+05  5.517094E+01  3.517811E+03 -8.573353E+04 -2.548382E+03 -1.887385E+04
       183   5  5.762912E+05 -6.517564E+01  5.947169E+03 -6.231165E+04 -5.499983E+03 -2.634097E+04
       183   6  5.765279E+05  2.854020E+02  1.041327E+04 -8.573323E+04 -8.447461E+03 -3.374142E+04
       183   7  2.299984E+05 -8.407076E+04 -7.069771E+04 -8.572232E+04 -1.011303E+04 -1.886879E+04
       183   8  1.051143E+05 -1.143587E+05 -9.451434E+04 -6.233621E+04 -1.299461E+04 -2.633789E+04
       183   9 -1.925636E+04 -1.441884E+05 -1.163418E+05 -8.579569E+04 -1.587151E+04 -3.374023E+04
       183  10  9.232434E+05  8.417290E+04  7.772585E+04 -8.574464E+04 -2.381745E-10 -1.361759E-09
       183  11  1.047677E+06  1.142132E+05  1.063948E+05 -6.228700E+04  3.513521E-10 -7.026157E-11
       183  12  1.172646E+06  1.447349E+05  1.371460E+05 -8.567068E+04  3.998204E-10  7.021808E-10
       183  13  5.765643E+05  5.478657E+01  3.517129E+03 -8.573357E+04 -6.259612E-10 -2.121681E-10
       183  14  5.762910E+05 -6.592904E+01  5.945808E+03 -6.231177E+04  3.923798E-11 -2.879298E-10
       183  15  5.765275E+05  2.841599E+02  1.041100E+04 -8.573346E+04  6.456632E-10  1.663584E-10
       183  16  2.299982E+05 -8.407117E+04 -7.069857E+04 -8.572248E+04 -3.726005E-10  2.354197E-10
       183  17  1.051140E+05 -1.143595E+05 -9.451596E+04 -6.233648E+04  7.053219E-11  7.548933E-10
       183  18 -1.925693E+04 -1.441896E+05 -1.163444E+05 -8.579612E+04  8.292453E-10  1.063016E-10
       183  19  9.232435E+05  8.417329E+04  7.772657E+04 -8.574472E+04 -5.020429E+03  1.887890E+04
       183  20  1.047677E+06  1.142140E+05  1.063961E+05 -6.228704E+04 -2.000253E+03  2.634405E+04
       183  21  1.172647E+06  1.447361E+05  1.371482E+05 -8.567065E+04  1.016389E+03  3.374260E+04
       183  22  5.765644E+05  5.517094E+01  3.517811E+03 -8.573353E+04  2.548382E+03  1.887385E+04
       183  23  5.762912E+05 -6.517564E+01  5.947169E+03 -6.231165E+04  5.499983E+03  2.634097E+04
       183  24  5.765279E+05  2.854020E+02  1.041327E+04 -8.573323E+04  8.447461E+03  3.374142E+04
       183  25  2.299984E+05 -8.407076E+04 -7.069771E+04 -8.572232E+04  1.011303E+04  1.886879E+04
       183  26  1.051143E+05 -1.143587E+05 -9.451434E+04 -6.233621E+04  1.299461E+04  2.633789E+04
       183  27 -1.925636E+04 -1.441884E+05 -1.163418E+05 -8.579569E+04  1.587151E+04  3.374023E+04
       184   1  1.270120E+06  1.675285E+05  1.615700E+05 -8.429648E+04 -2.691147E+03 -3.822226E+04
       184   2  1.393332E+06  1.981282E+05  1.981618E+05 -6.289715E+04 -1.610814E+04 -4.524158E+04
       184   3  1.520555E+06  2.369776E+05  2.455781E+05 -8.845192E+04 -2.952138E+04 -5.068741E+04
       184   4  5.772158E+05 -4.949570E+02  1.361396E+04 -8.575878E+04 -1.056876E+04 -3.822251E+04
       184   5  5.753187E+05 -2.043382E+02  2.358505E+04 -6.227953E+04 -2.238315E+04 -4.524539E+04
       184   6  5.771486E+05  8.066597E+03  4.328032E+04 -8.575778E+04 -3.419116E+04 -5.069385E+04
       184   7 -1.152373E+05 -1.685497E+05 -1.343696E+05 -8.721937E+04 -1.843772E+04 -3.822271E+04
       184   8 -2.420658E+05 -1.985804E+05 -1.510302E+05 -6.166269E+04 -2.865001E+04 -4.524921E+04
       184   9 -3.654223E+05 -2.209026E+05 -1.590693E+05 -8.306776E+04 -3.885393E+04 -5.070034E+04
       184  10  1.270120E+06  1.675270E+05  1.615673E+05 -8.429656E+04 -1.893108E-10  8.528277E-10
       184  11  1.393331E+06  1.981259E+05  1.981575E+05 -6.289774E+04  4.319975E-10 -9.056467E-11
       184  12  1.520553E+06  2.369746E+05  2.455717E+05 -8.845312E+04  2.284060E-10 -6.934630E-10
       184  13  5.772152E+05 -4.965562E+02  1.361101E+04 -8.575911E+04 -1.119254E-09  5.207557E-10
       184  14  5.753176E+05 -2.066715E+02  2.358026E+04 -6.228035E+04 -1.810528E-09  3.826767E-11
       184  15  5.771467E+05  8.063523E+03  4.327329E+04 -8.575918E+04 -3.649750E-10 -5.238964E-10
       184  16 -1.152381E+05 -1.685513E+05 -1.343730E+05 -8.721993E+04 -8.553484E-10  1.036805E-10
       184  17 -2.420673E+05 -1.985828E+05 -1.510356E+05 -6.166373E+04 -3.520033E-10  2.324886E-11
       184  18 -3.654246E+05 -2.209057E+05 -1.590770E+05 -8.306934E+04 -7.376204E-10 -3.733908E-10
       184  19  1.270120E+06  1.675285E+05  1.615700E+05 -8.429648E+04  2.691147E+03  3.822226E+04
       184  20  1.393332E+06  1.981282E+05  1.981618E+05 -6.289715E+04  1.610814E+04  4.524158E+04
       184  21  1.520555E+06  2.369776E+05  2.455781E+05 -8.845192E+04  2.952138E+04  5.068741E+04
       184  22  5.772158E+05 -4.949570E+02  1.361396E+04 -8.575878E+04  1.056876E+04  3.822251E+04
       184  23  5.753187E+05 -2.043382E+02  2.358505E+04 -6.227953E+04  2.238315E+04  4.524539E+04
       184  24  5.771486E+05  8.066597E+03  4.328032E+04 -8.575778E+04  3.419116E+04  5.069385E+04
       184  25 -1.152373E+05 -1.685497E+05 -1.343696E+05 -8.721937E+04  1.843772E+04  3.822271E+04
       184  26 -2.420658E+05 -1.985804E+05 -1.510302E+05 -6.166269E+04  2.865001E+04  4.524921E+04
       184  27 -3.654223E+05 -2.209026E+05 -1.590693E+05 -8.306776E+04  3.885393E+04  5.070034E+04
       185   1  1.628001E+06  2.447909E+05  2.771265E+05 -6.131328E+04 -2.774857E+04 -5.749294E+04
       185   2  1.728463E+06  2.884773E+05  3.495778E+05 -9.369844E+04 -1.120690E+05 -5.448337E+04
       185   3  1.880651E+06  4.934568E+05  5.172512E+05 -1.718492E+05 -1.964511E+05 -1.740021E+04
       185   4  5.864689E+05 -7.733901E+03  5.480572E+04 -8.545882E+04 -4.183510E+04 -5.750325E+04
       185   5  5.634917E+05  4.816806E+03  9.445143E+04 -6.264675E+04 -9.166112E+04 -5.448297E+04
       185   6  5.863345E+05  1.728338E+05  2.054890E+05 -8.558968E+04 -1.415268E+05 -1.737532E+04
       185   7 -4.540431E+05 -2.603271E+05 -1.675767E+05 -1.095634E+05 -5.589835E+04 -5.751248E+04
       185   8 -6.002091E+05 -2.789303E+05 -1.607551E+05 -3.165405E+04 -7.129084E+04 -5.448055E+04
       185   9 -7.064305E+05 -1.478814E+05 -1.063774E+05  4.895236E+02 -8.671604E+04 -1.733521E+04
       185  10  1.628000E+06  2.447871E+05  2.771188E+05 -6.131456E+04 -5.304447E-10 -1.309623E-10
       185  11  1.728449E+06  2.884707E+05  3.495486E+05 -9.370335E+04 -3.940209E-10  8.605375E-10
       185  12  1.880610E+06  4.934461E+05  5.171783E+05 -1.718519E+05  1.383474E-10  1.931341E-10
       185  13  5.864661E+05 -7.737922E+03  5.479621E+04 -8.546076E+04 -3.424055E-10  1.014150E-10
       185  14  5.634819E+05  4.811364E+03  9.443007E+04 -6.265077E+04  3.967379E-10  1.728950E-09
       185  15  5.863129E+05  1.728281E+05  2.054508E+05 -8.559166E+04  1.208967E-09  1.299937E-10
       185  16 -4.540473E+05 -2.603315E+05 -1.675888E+05 -1.095660E+05  1.042311E-09 -9.827983E-11
       185  17 -6.002153E+05 -2.789348E+05 -1.607703E+05 -3.165718E+04 -9.516995E-10  4.827338E-10
       185  18 -7.064386E+05 -1.478838E+05 -1.063921E+05  4.883124E+02 -1.610307E-09 -2.562154E-10
       185  19  1.628001E+06  2.447909E+05  2.771265E+05 -6.131328E+04  2.774857E+04  5.749294E+04
       185  20  1.728463E+06  2.884773E+05  3.495778E+05 -9.369844E+04  1.120690E+05  5.448337E+04
       185  21  1.880651E+06  4.934568E+05  5.172512E+05 -1.718492E+05  1.964511E+05  1.740021E+04
       185  22  5.864689E+05 -7.733901E+03  5.480572E+04 -8.545882E+04  4.183510E+04  5.750325E+04
       185  23  5.634917E+05  4.816806E+03  9.445143E+04 -6.264675E+04  9.166112E+04  5.448297E+04
       185  24  5.863345E+05  1.728338E+05  2.054890E+05 -8.558968E+04  1.415268E+05  1.737532E+04
       185  25 -4.540431E+05 -2.603271E+05 -1.675767E+05 -1.095634E+05  5.589835E+04  5.751248E+04
       185  26 -6.002091E+05 -2.789303E+05 -1.607551E+05 -3.165405E+04  7.129084E+04  5.448055E+04
       185  27 -7.064305E+05 -1.478814E+05 -1.063774E+05  4.895236E+02  8.671604E+04  1.733521E+04
       186   1  3.777536E+05  1.388061E+06  3.850042E+05 -3.157963E+05  1.238150E+04  1.015997E+05
       186   2  1.974078E+05  9.739956E+05  2.209539E+05 -2.157261E+05  3.363160E+04  4.357338E+04
       186   3  9.452868E+04  5.864665E+05  1.138817E+05 -2.643897E+05  2.055645E+04 -1.447916E+04
       186   4  7.966632E+04  1.887651E+05  9.369668E+04 -2.742317E+05  1.247066E+04  6.288103E+04
       186   5  3.050304E+03  1.786499E+05  4.437814E+04 -1.999528E+05  3.364487E+04  3.955410E+04
       186   6 -2.044879E+03  1.889624E+05  2.802910E+04 -2.744029E+05  2.047878E+04  1.616309E+04
       186   7 -2.185196E+05 -1.009213E+06 -1.977083E+05 -2.327466E+05  1.255474E+04  2.423667E+04
       186   8 -1.913491E+05 -6.161056E+05 -1.322368E+05 -1.841995E+05  3.365794E+04  3.553987E+04
       186   9 -9.862794E+04 -2.083911E+05 -5.782925E+04 -2.844095E+05  2.040009E+04  4.678600E+04
       186  10  3.777507E+05  1.388050E+06  3.849845E+05 -3.157973E+05 -7.067743E-11  7.252186E-10
       186  11  1.974061E+05  9.739933E+05  2.209482E+05 -2.157273E+05 -1.978665E-09  2.080598E-09
       186  12  9.452817E+04  5.864661E+05  1.138805E+05 -2.643895E+05 -1.270286E-09 -1.602407E-09
       186  13  7.966509E+04  1.887608E+05  9.368896E+04 -2.742324E+05  2.269111E-10 -4.490364E-10
       186  14  3.048668E+03  1.786480E+05  4.437308E+04 -1.999539E+05  8.586911E-11  3.886420E-12
       186  15 -2.045400E+03  1.889620E+05  2.802782E+04 -2.744032E+05 -2.414586E-10 -7.396734E-10
       186  16 -2.185199E+05 -1.009214E+06 -1.977097E+05 -2.327468E+05  1.010688E-09 -9.784286E-10
       186  17 -1.913506E+05 -6.161073E+05 -1.322413E+05 -1.842004E+05  3.681950E-09 -4.493021E-10
       186  18 -9.862898E+04 -2.083936E+05 -5.783415E+04 -2.844103E+05  1.749052E-10  1.321637E-09
       186  19  3.777536E+05  1.388061E+06  3.850042E+05 -3.157963E+05 -1.238150E+04 -1.015997E+05
       186  20  1.974078E+05  9.739956E+05  2.209539E+05 -2.157261E+05 -3.363160E+04 -4.357338E+04
       186  21  9.452868E+04  5.864665E+05  1.138817E+05 -2.643897E+05 -2.055645E+04  1.447916E+04
       186  22  7.966632E+04  1.887651E+05  9.369668E+04 -2.742317E+05 -1.247066E+04 -6.288103E+04
       186  23  3.050304E+03  1.786499E+05  4.437814E+04 -1.999528E+05 -3.364487E+04 -3.955410E+04
       186  24 -2.044879E+03  1.889624E+05  2.802910E+04 -2.744029E+05 -2.047878E+04 -1.616309E+04
       186  25 -2.185196E+05 -1.009213E+06 -1.977083E+05 -2.327466E+05 -1.255474E+04 -2.423667E+04
       186  26 -1.913491E+05 -6.161056E+05 -1.322368E+05 -1.841995E+05 -3.365794E+04 -3.553987E+04
       186  27 -9.862794E+04 -2.083911E+05 -5.782925E+04 -2.844095E+05 -2.040009E+04 -4.678600E+04
       187   1  2.599518E+04  2.712872E+05  4.290287E+04 -2.766585E+05  3.928547E+03 -9.798024E+03
       187   2 -7.536108E+04 -1.300918E+05 -4.887864E+04 -1.991019E+05 -1.729360E+04 -1.821837E+04
       187   3 -1.700390E+05 -5.292793E+05 -1.337060E+05 -2.718305E+05 -3.777309E+04 -2.662394E+04
       187   4  4.913692E+03  1.849369E+05  2.388046E+04 -2.747044E+05  3.871512E+03  1.199303E+04
       187   5  8.393250E+02  1.838136E+05  1.821696E+04 -1.995664E+05 -1.734474E+04  2.817164E+03
       187   6  3.582807E+03  1.848613E+05  2.003752E+04 -2.747074E+05 -3.781900E+04 -6.349141E+03
       187   7 -1.616803E+04  9.859473E+04  4.859375E+03 -2.727505E+05  3.814609E+03  3.378109E+04
       187   8  7.703354E+04  4.978126E+05  8.530851E+04 -2.000310E+05 -1.739590E+04  2.386318E+04
       187   9  1.771714E+05  8.994823E+05  1.737527E+05 -2.775873E+05 -3.786507E+04  1.394867E+04
       187  10  2.599514E+04  2.712871E+05  4.290266E+04 -2.766584E+05 -1.190191E-09  1.150249E-10
       187  11 -7.536149E+04 -1.300923E+05 -4.887983E+04 -1.991022E+05 -1.878107E-10  1.746191E-09
       187  12 -1.700408E+05 -5.292805E+05 -1.337100E+05 -2.718313E+05 -8.244740E-11 -1.531072E-09
       187  13  4.913637E+03  1.849368E+05  2.388016E+04 -2.747044E+05  1.999405E-10 -6.752933E-10
       187  14  8.389999E+02  1.838135E+05  1.821638E+04 -1.995663E+05  1.416087E-09 -1.436720E-10
       187  15  3.581260E+03  1.848609E+05  2.003475E+04 -2.747076E+05 -5.936758E-10 -8.203544E-10
       187  16 -1.616836E+04  9.859350E+04  4.857204E+03 -2.727506E+05 -2.460639E-10 -4.548291E-10
       187  17  7.703306E+04  4.978120E+05  8.530688E+04 -2.000306E+05 -1.227455E-09 -3.304156E-10
       187  18  1.771698E+05  8.994817E+05  1.737496E+05 -2.775868E+05 -1.569309E-10  1.250855E-09
       187  19  2.599518E+04  2.712872E+05  4.290287E+04 -2.766585E+05 -3.928547E+03  9.798024E+03
       187  20 -7.536108E+04 -1.300918E+05 -4.887864E+04 -1.991019E+05  1.729360E+04  1.821837E+04
       187  21 -1.700390E+05 -5.292793E+05 -1.337060E+05 -2.718305E+05  3.777309E+04  2.662394E+04
       187  22  4.913692E+03  1.849369E+05  2.388046E+04 -2.747044E+05 -3.871512E+03 -1.199303E+04
       187  23  8.393250E+02  1.838136E+05  1.821696E+04 -1.995664E+05  1.734474E+04 -2.817164E+03
       187  24  3.582807E+03  1.848613E+05  2.003752E+04 -2.747074E+05  3.781900E+04  6.349141E+03
       187  25 -1.616803E+04  9.859473E+04  4.859375E+03 -2.727505E+05 -3.814609E+03 -3.378109E+04
       187  26  7.703354E+04  4.978126E+05  8.530851E+04 -2.000310E+05  1.739590E+04 -2.386318E+04
       187  27  1.771714E+05  8.994823E+05  1.737527E+05 -2.775873E+05  3.786507E+04 -1.394867E+04
       188   1 -2.504812E+05 -8.377468E+05 -1.976883E+05 -2.802844E+05 -5.544267E+04 -4.352769E+04
       188   2 -3.453684E+05 -1.241711E+06 -2.808502E+05 -1.878772E+05 -6.381526E+04 -1.002734E+04
       188   3 -3.970107E+05 -1.638972E+06 -3.750336E+05 -2.435559E+05 -2.175512E+04  2.351190E+04
       188   4 -1.349558E+03  1.876703E+05  2.230891E+04 -2.742363E+05 -5.551304E+04 -9.805855E+03
       188   5  1.920729E+03  1.798282E+05  3.288153E+04 -2.001619E+05 -6.377399E+04 -2.708614E+04
       188   6  5.720830E+04  1.873246E+05  6.769840E+04 -2.741423E+05 -2.165604E+04 -4.430582E+04
       188   7  2.477139E+05  1.214080E+06  2.422491E+05 -2.681773E+05 -5.558267E+04  2.397096E+04
       188   8  3.490746E+05  1.603258E+06  3.464901E+05 -2.124740E+05 -6.373211E+04 -4.418355E+04
       188   9  5.111883E+05  2.016684E+06  5.102078E+05 -3.048175E+05 -2.155045E+04 -1.123227E+05
       188  10 -2.504850E+05 -8.377497E+05 -1.976977E+05 -2.802863E+05  1.793663E-11  8.086338E-10
       188  11 -3.453728E+05 -1.241712E+06 -2.808580E+05 -1.878777E+05  9.255173E-10  1.998105E-09
       188  12 -3.970113E+05 -1.638972E+06 -3.750356E+05 -2.435555E+05  5.040095E-10 -7.671581E-10
       188  13 -1.352893E+03  1.876694E+05  2.230294E+04 -2.742367E+05  8.164977E-10 -5.281359E-10
       188  14  1.916163E+03  1.798263E+05  3.287250E+04 -2.001633E+05  9.892059E-10  3.244913E-11
       188  15  5.720727E+04  1.873223E+05  6.769383E+04 -2.741431E+05  2.262372E-10 -3.723665E-10
       188  16  2.477105E+05  1.214078E+06  2.422423E+05 -2.681762E+05 -4.170255E-10 -1.012541E-09
       188  17  3.490697E+05  1.603255E+06  3.464788E+05 -2.124762E+05  1.768842E-09 -1.088131E-09
       188  18  5.111844E+05  2.016670E+06  5.101833E+05 -3.048195E+05  5.382474E-10  5.381622E-10
       188  19 -2.504812E+05 -8.377468E+05 -1.976883E+05 -2.802844E+05  5.544267E+04  4.352769E+04
       188  20 -3.453684E+05 -1.241711E+06 -2.808502E+05 -1.878772E+05  6.381526E+04  1.002734E+04
       188  21 -3.970107E+05 -1.638972E+06 -3.750336E+05 -2.435559E+05  2.175512E+04 -2.351190E+04
       188  22 -1.349558E+03  1.876703E+05  2.230891E+04 -2.742363E+05  5.551304E+04  9.805855E+03
       188  23  1.920729E+03  1.798282E+05  3.288153E+04 -2.001619E+05  6.377399E+04  2.708614E+04
       188  24  5.720830E+04  1.873246E+05  6.769840E+04 -2.741423E+05  2.165604E+04  4.430582E+04
       188  25  2.477139E+05  1.214080E+06  2.422491E+05 -2.681773E+05  5.558267E+04 -2.397096E+04
       188  26  3.490746E+05  1.603258E+06  3.464901E+05 -2.124740E+05  6.373211E+04  4.418355E+04
       188  27  5.111883E+05  2.016684E+06  5.102078E+05 -3.048175E+05  2.155045E+04  1.123227E+05
       189   1 -2.454016E+06 -9.471981E+05 -5.756241E+05 -9.098623E+05 -2.475592E+05 -7.691976E+04
       189   2 -2.369054E+06 -6.105775E+05 -3.537780E+05 -8.869488E+05 -1.592875E+05 -8.684023E+03
       189   3 -2.360378E+06 -5.285583E+05 -2.694989E+05 -8.329073E+05 -6.033847E+04  3.126319E+04
       189   4 -1.554084E+06 -4.920962E+05 -3.136135E+05 -5.454573E+05 -2.055841E+05 -6.117338E+04
       189   5 -1.501357E+06 -2.463160E+05 -1.370734E+05 -6.065506E+05 -1.438394E+05 -2.890570E+03
       189   6 -1.519519E+06 -2.496903E+05 -7.689405E+04 -6.365565E+05 -7.143531E+04  2.709000E+04
       189   7 -6.533206E+05 -3.672858E+04 -5.167108E+04 -1.805064E+05 -1.635419E+05 -4.538196E+04
       189   8 -6.329062E+05  1.180568E+05  7.957314E+04 -3.257739E+05 -1.283677E+05  2.914361E+03
       189   9 -6.779589E+05  2.919309E+04  1.156637E+05 -4.399788E+05 -8.254847E+04  2.291221E+04
       189  10 -2.454084E+06 -9.472210E+05 -5.757510E+05 -9.098777E+05 -7.661673E-11  1.355995E-10
       189  11 -2.369081E+06 -6.105844E+05 -3.538260E+05 -8.869500E+05 -1.977496E-09  1.738751E-10
       189  12 -2.360382E+06 -5.285603E+05 -2.695076E+05 -8.329058E+05 -1.025779E-09 -6.065468E-11
       189  13 -1.554130E+06 -4.921116E+05 -3.137002E+05 -5.454674E+05 -4.116794E-10 -3.559115E-10
       189  14 -1.501379E+06 -2.463216E+05 -1.371124E+05 -6.065510E+05  4.781135E-10 -7.747497E-10
       189  15 -1.519524E+06 -2.496925E+05 -7.690504E+04 -6.365549E+05  4.565740E-10 -5.257685E-11
       189  16 -6.533499E+05 -3.673798E+04 -5.172527E+04 -1.805123E+05 -6.707355E-10  8.238874E-11
       189  17 -6.329239E+05  1.180523E+05  7.954213E+04 -3.257736E+05  8.165693E-10 -1.563353E-11
       189  18 -6.779663E+05  2.919070E+04  1.156499E+05 -4.399773E+05  9.699853E-10 -2.255367E-11
       189  19 -2.454016E+06 -9.471981E+05 -5.756241E+05 -9.098623E+05  2.475592E+05  7.691976E+04
       189  20 -2.369054E+06 -6.105775E+05 -3.537780E+05 -8.869488E+05  1.592875E+05  8.684023E+03
       189  21 -2.360378E+06 -5.285583E+05 -2.694989E+05 -8.329073E+05  6.033847E+04 -3.126319E+04
       189  22 -1.554084E+06 -4.920962E+05 -3.136135E+05 -5.454573E+05  2.055841E+05  6.117338E+04
       189  23 -1.501357E+06 -2.463160E+05 -1.370734E+05 -6.065506E+05  1.438394E+05  2.890570E+03
       189  24 -1.519519E+06 -2.496903E+05 -7.689405E+04 -6.365565E+05  7.143531E+04 -2.709000E+04
       189  25 -6.533206E+05 -3.672858E+04 -5.167108E+04 -1.805064E+05  1.635419E+05  4.538196E+04
       189  26 -6.329062E+05  1.180568E+05  7.957314E+04 -3.257739E+05  1.283677E+05 -2.914361E+03
       189  27 -6.779589E+05  2.919309E+04  1.156637E+05 -4.399788E+05  8.254847E+04 -2.291221E+04
       190   1 -2.254125E+06 -5.525808E+05 -2.380839E+05 -8.325535E+05 -5.684755E+04  2.635381E+04
       190   2 -2.179431E+06 -4.929615E+05 -1.878663E+05 -7.957642E+05 -3.834185E+04  2.904572E+04
       190   3 -2.086695E+06 -4.711020E+05 -1.538195E+05 -7.847778E+05 -1.934577E+04  3.042808E+04
       190   4 -1.509421E+06 -2.712512E+05 -6.059569E+04 -6.234031E+05 -5.978014E+04  2.524715E+04
       190   5 -1.517624E+06 -2.460492E+05 -3.138441E+04 -6.129082E+05 -4.248776E+04  2.748558E+04
       190   6 -1.507545E+06 -2.583551E+05 -1.736508E+04 -6.282181E+05 -2.470782E+04  2.841402E+04
       190   7 -7.641592E+05  1.012471E+04  1.168538E+05 -4.140202E+05 -6.271656E+04  2.413899E+04
       190   8 -8.553776E+05  8.964307E+02  1.250671E+05 -4.298730E+05 -4.663850E+04  2.592362E+04
       190   9 -9.280601E+05 -4.558589E+04  1.190659E+05 -4.715256E+05 -3.007532E+04  2.639797E+04
       190  10 -2.254129E+06 -5.525824E+05 -2.380913E+05 -8.325522E+05  1.250377E-10  6.121282E-11
       190  11 -2.179433E+06 -4.929628E+05 -1.878707E+05 -7.957633E+05 -3.035572E-10 -6.263528E-10
       190  12 -2.086695E+06 -4.711031E+05 -1.538220E+05 -7.847773E+05 -7.957244E-10 -4.231928E-10
       190  13 -1.509425E+06 -2.712528E+05 -6.060361E+04 -6.234019E+05 -1.630174E-09 -2.611394E-10
       190  14 -1.517626E+06 -2.460505E+05 -3.138923E+04 -6.129073E+05 -7.513130E-10 -5.021620E-10
       190  15 -1.507546E+06 -2.583561E+05 -1.736774E+04 -6.282176E+05 -5.554695E-10 -6.314079E-11
       190  16 -7.641636E+05  1.012303E+04  1.168453E+05 -4.140190E+05  7.710363E-10 -7.440235E-10
       190  17 -8.553801E+05  8.951260E+02  1.250617E+05 -4.298720E+05  7.849771E-10 -4.280715E-10
       190  18 -9.280612E+05 -4.558688E+04  1.190629E+05 -4.715250E+05  8.545818E-10  9.132884E-11
       190  19 -2.254125E+06 -5.525808E+05 -2.380839E+05 -8.325535E+05  5.684755E+04 -2.635381E+04
       190  20 -2.179431E+06 -4.929615E+05 -1.878663E+05 -7.957642E+05  3.834185E+04 -2.904572E+04
       190  21 -2.086695E+06 -4.711020E+05 -1.538195E+05 -7.847778E+05  1.934577E+04 -3.042808E+04
       190  22 -1.509421E+06 -2.712512E+05 -6.059569E+04 -6.234031E+05  5.978014E+04 -2.524715E+04
       190  23 -1.517624E+06 -2.460492E+05 -3.138441E+04 -6.129082E+05  4.248776E+04 -2.748558E+04
       190  24 -1.507545E+06 -2.583551E+05 -1.736508E+04 -6.282181E+05  2.470782E+04 -2.841402E+04
       190  25 -7.641592E+05  1.012471E+04  1.168538E+05 -4.140202E+05  6.271656E+04 -2.413899E+04
       190  26 -8.553776E+05  8.964307E+02  1.250671E+05 -4.298730E+05  4.663850E+04 -2.592362E+04
       190  27 -9.280601E+05 -4.558589E+04  1.190659E+05 -4.715256E+05  3.007532E+04 -2.639797E+04
       191   1 -2.015124E+06 -4.480165E+05 -1.327992E+05 -7.668681E+05 -1.602158E+04  2.795835E+04
       191   2 -1.940693E+06 -4.024711E+05 -1.065952E+05 -7.286444E+05 -1.034260E+04  2.396378E+04
       191   3 -1.841636E+06 -3.829746E+05 -8.329549E+04 -7.193751E+05 -4.636046E+03  1.988765E+04
       191   4 -1.506640E+06 -2.595210E+05 -1.317747E+04 -6.275163E+05 -2.104172E+04  2.607375E+04
       191   5 -1.518897E+06 -2.461741E+05 -7.188860E+03 -6.131562E+05 -1.543648E+04  2.205307E+04
       191   6 -1.506521E+06 -2.588605E+05 -4.043894E+03 -6.277526E+05 -9.804221E+03  1.795068E+04
       191   7 -9.979002E+05 -7.100795E+04  1.064254E+05 -4.880608E+05 -2.606631E+04  2.418749E+04
       191   8 -1.096924E+06 -8.986433E+04  9.220507E+04 -4.975963E+05 -2.053414E+04  2.014096E+04
       191   9 -1.171293E+06 -1.347377E+05  7.520035E+04 -5.360843E+05 -1.497546E+04  1.601257E+04
       191  10 -2.015124E+06 -4.480174E+05 -1.328011E+05 -7.668678E+05  8.002331E-10  1.558390E-10
       191  11 -1.940693E+06 -4.024718E+05 -1.065965E+05 -7.286442E+05  9.668168E-11 -2.140335E-10
       191  12 -1.841636E+06 -3.829751E+05 -8.329628E+04 -7.193750E+05 -5.509061E-10 -9.539575E-11
       191  13 -1.506640E+06 -2.595218E+05 -1.317958E+04 -6.275158E+05  1.189906E-10 -1.633312E-10
       191  14 -1.518898E+06 -2.461747E+05 -7.190221E+03 -6.131559E+05  1.108159E-09 -2.304492E-10
       191  15 -1.506522E+06 -2.588608E+05 -4.044679E+03 -6.277524E+05  3.184356E-10  2.330423E-10
       191  16 -9.979011E+05 -7.100876E+04  1.064230E+05 -4.880603E+05 -3.702800E-10 -8.620499E-11
       191  17 -1.096925E+06 -8.986488E+04  9.220352E+04 -4.975960E+05 -6.453028E-10 -2.742839E-10
       191  18 -1.171293E+06 -1.347381E+05  7.519945E+04 -5.360842E+05  1.525333E-10 -3.917312E-10
       191  19 -2.015124E+06 -4.480165E+05 -1.327992E+05 -7.668681E+05  1.602158E+04 -2.795835E+04
       191  20 -1.940693E+06 -4.024711E+05 -1.065952E+05 -7.286444E+05  1.034260E+04 -2.396378E+04
       191  21 -1.841636E+06 -3.829746E+05 -8.329549E+04 -7.193751E+05  4.636046E+03 -1.988765E+04
       191  22 -1.506640E+06 -2.595210E+05 -1.317747E+04 -6.275163E+05  2.104172E+04 -2.607375E+04
       191  23 -1.518897E+06 -2.461741E+05 -7.188860E+03 -6.131562E+05  1.543648E+04 -2.205307E+04
       191  24 -1.506521E+06 -2.588605E+05 -4.043894E+03 -6.277526E+05  9.804221E+03 -1.795068E+04
       191  25 -9.979002E+05 -7.100795E+04  1.064254E+05 -4.880608E+05  2.606631E+04 -2.418749E+04
       191  26 -1.096924E+06 -8.986433E+04  9.220507E+04 -4.975963E+05  2.053414E+04 -2.014096E+04
       191  27 -1.171293E+06 -1.347377E+05  7.520035E+04 -5.360843E+05  1.497546E+04 -1.601257E+04
       192   1 -1.771371E+06 -3.570676E+05 -6.525568E+04 -7.003144E+05 -2.849423E+03  1.691115E+04
       192   2 -1.696490E+06 -3.118793E+05 -4.372798E+04 -6.616887E+05  1.776702E+02  1.178064E+04
       192   3 -1.596227E+06 -2.922553E+05 -2.293140E+04 -6.523548E+05  3.208116E+03  6.637232E+03
       192   4 -1.506373E+06 -2.589461E+05 -3.111960E+03 -6.277516E+05 -8.016222E+03  1.497539E+04
       192   5 -1.519052E+06 -2.461437E+05 -1.922256E+03 -6.131103E+05 -5.000970E+03  9.841090E+03
       192   6 -1.506356E+06 -2.589030E+05 -1.453765E+03 -6.277632E+05 -1.982529E+03  4.693888E+03
       192   7 -1.241304E+06 -1.608197E+05  5.902696E+04 -5.551604E+05 -1.318542E+04  1.303873E+04
       192   8 -1.341584E+06 -1.804060E+05  3.988123E+04 -5.645195E+05 -1.018121E+04  7.900948E+03
       192   9 -1.416478E+06 -2.255502E+05  2.002326E+04 -6.031685E+05 -7.173966E+03  2.750248E+03
       192  10 -1.771371E+06 -3.570679E+05 -6.525623E+04 -7.003144E+05  2.991310E-10  3.138464E-10
       192  11 -1.696490E+06 -3.118795E+05 -4.372824E+04 -6.616887E+05  1.468464E-09 -3.612122E-10
       192  12 -1.596227E+06 -2.922554E+05 -2.293150E+04 -6.523549E+05 -6.324734E-10 -8.040153E-10
       192  13 -1.506373E+06 -2.589464E+05 -3.112502E+03 -6.277515E+05 -2.631786E-10 -2.539269E-10
       192  14 -1.519052E+06 -2.461438E+05 -1.922485E+03 -6.131103E+05 -1.184803E-12 -8.063302E-11
       192  15 -1.506356E+06 -2.589030E+05 -1.453813E+03 -6.277632E+05 -1.712075E-09 -8.163836E-10
       192  16 -1.241304E+06 -1.608199E+05  5.902631E+04 -5.551603E+05  3.807133E-10 -2.160661E-10
       192  17 -1.341584E+06 -1.804061E+05  3.988091E+04 -5.645194E+05 -8.695321E-10 -4.592801E-10
       192  18 -1.416478E+06 -2.255502E+05  2.002315E+04 -6.031684E+05 -3.685774E-09 -1.957514E-09
       192  19 -1.771371E+06 -3.570676E+05 -6.525568E+04 -7.003144E+05  2.849423E+03 -1.691115E+04
       192  20 -1.696490E+06 -3.118793E+05 -4.372798E+04 -6.616887E+05 -1.776702E+02 -1.178064E+04
       192  21 -1.596227E+06 -2.922553E+05 -2.293140E+04 -6.523548E+05 -3.208116E+03 -6.637232E+03
       192  22 -1.506373E+06 -2.589461E+05 -3.111960E+03 -6.277516E+05  8.016222E+03 -1.497539E+04
       192  23 -1.519052E+06 -2.461437E+05 -1.922256E+03 -6.131103E+05  5.000970E+03 -9.841090E+03
       192  24 -1.506356E+06 -2.589030E+05 -1.453765E+03 -6.277632E+05  1.982529E+03 -4.693888E+03
       192  25 -1.241304E+06 -1.608197E+05  5.902696E+04 -5.551604E+05  1.318542E+04 -1.303873E+04
       192  26 -1.341584E+06 -1.804060E+05  3.988123E+04 -5.645195E+05  1.018121E+04 -7.900948E+03
       192  27 -1.416478E+06 -2.255502E+05  2.002326E+04 -6.031685E+05  7.173966E+03 -2.750248E+03
       193   1 -1.525765E+06 -2.660643E+05 -5.698418E+03 -6.331222E+05  4.651541E+03  3.518246E+03
       193   2 -1.450748E+06 -2.208451E+05  1.433941E+04 -5.944212E+05  7.580405E+03 -1.669059E+03
       193   3 -1.350307E+06 -2.012207E+05  3.372243E+04 -5.850617E+05  1.050763E+04 -6.850106E+03
       193   4 -1.506346E+06 -2.589115E+05 -1.423872E+03 -6.277737E+05 -5.420660E+02  1.573921E+03
       193   5 -1.519057E+06 -2.461240E+05 -1.748091E+03 -6.130976E+05  2.392081E+03 -3.611693E+03
       193   6 -1.506353E+06 -2.589340E+05 -2.731663E+03 -6.277671E+05  5.324442E+03 -8.791060E+03
       193   7 -1.486927E+06 -2.517587E+05  2.850797E+03 -6.224250E+05 -5.735877E+03 -3.704810E+02
       193   8 -1.587361E+06 -2.714027E+05 -1.783586E+04 -6.317722E+05 -2.795636E+03 -5.554101E+03
       193   9 -1.662376E+06 -3.166456E+05 -3.918734E+04 -6.704626E+05  1.426691E+02 -1.073149E+04
       193  10 -1.525765E+06 -2.660644E+05 -5.698482E+03 -6.331222E+05 -3.406361E-09 -1.576555E-09
       193  11 -1.450748E+06 -2.208451E+05  1.433930E+04 -5.944212E+05  7.107555E-10 -4.728399E-11
       193  12 -1.350307E+06 -2.012208E+05  3.372213E+04 -5.850617E+05  3.191670E-09  3.806163E-10
       193  13 -1.506346E+06 -2.589115E+05 -1.423877E+03 -6.277737E+05 -1.754385E-09 -1.895356E-09
       193  14 -1.519057E+06 -2.461240E+05 -1.748126E+03 -6.130976E+05  7.344233E-10 -7.229865E-11
       193  15 -1.506354E+06 -2.589341E+05 -2.731862E+03 -6.277670E+05  9.730356E-10 -1.587918E-10
       193  16 -1.486927E+06 -2.517587E+05  2.850735E+03 -6.224250E+05 -1.126209E-09 -1.379459E-09
       193  17 -1.587361E+06 -2.714027E+05 -1.783593E+04 -6.317722E+05 -1.215439E-11 -1.668109E-09
       193  18 -1.662376E+06 -3.166457E+05 -3.918755E+04 -6.704626E+05 -1.872594E-09 -1.181919E-09
       193  19 -1.525765E+06 -2.660643E+05 -5.698418E+03 -6.331222E+05 -4.651541E+03 -3.518246E+03
       193  20 -1.450748E+06 -2.208451E+05  1.433941E+04 -5.944212E+05 -7.580405E+03  1.669059E+03
       193  21 -1.350307E+06 -2.012207E+05  3.372243E+04 -5.850617E+05 -1.050763E+04  6.850106E+03
       193  22 -1.506346E+06 -2.589115E+05 -1.423872E+03 -6.277737E+05  5.420660E+02 -1.573921E+03
       193  23 -1.519057E+06 -2.461240E+05 -1.748091E+03 -6.130976E+05 -2.392081E+03  3.611693E+03
       193  24 -1.506353E+06 -2.589340E+05 -2.731663E+03 -6.277671E+05 -5.324442E+03  8.791060E+03
       193  25 -1.486927E+06 -2.517587E+05  2.850797E+03 -6.224250E+05  5.735877E+03  3.704810E+02
       193  26 -1.587361E+06 -2.714027E+05 -1.783586E+04 -6.317722E+05  2.795636E+03  5.554101E+03
       193  27 -1.662376E+06 -3.166456E+05 -3.918734E+04 -6.704626E+05 -1.426691E+02  1.073149E+04
       194   1 -1.280050E+06 -1.750740E+05  5.009285E+04 -5.659362E+05  1.223045E+04 -9.860743E+03
       194   2 -1.205317E+06 -1.300089E+05  6.765519E+04 -5.273013E+05  1.732014E+04 -1.419465E+04
       194   3 -1.105755E+06 -1.109836E+05  8.280307E+04 -5.177811E+05  2.238686E+04 -1.845900E+04
       194   4 -1.506472E+06 -2.588708E+05 -3.522727E+03 -6.277813E+05  7.041465E+03 -1.180431E+04
       194   5 -1.518925E+06 -2.461240E+05 -6.210459E+03 -6.131214E+05  1.219419E+04 -1.611578E+04
       194   6 -1.506570E+06 -2.594310E+05 -1.136337E+04 -6.275801E+05  1.732348E+04 -2.035783E+04
       194   7 -1.732841E+06 -3.426636E+05 -5.714149E+04 -6.896055E+05  1.854566E+03 -1.374709E+04
       194   8 -1.832435E+06 -3.622320E+05 -8.008292E+04 -6.989019E+05  7.071054E+03 -1.803586E+04
       194   9 -1.907227E+06 -4.078677E+05 -1.055416E+05 -7.373149E+05  1.226364E+04 -2.225534E+04
       194  10 -1.280050E+06 -1.750741E+05  5.009239E+04 -5.659361E+05  1.729293E-08  7.070164E-09
       194  11 -1.205317E+06 -1.300092E+05  6.765425E+04 -5.273011E+05 -3.460554E-09  1.655848E-09
       194  12 -1.105756E+06 -1.109841E+05  8.280149E+04 -5.177808E+05 -1.957976E-08 -5.974453E-09
       194  13 -1.506472E+06 -2.588710E+05 -3.523081E+03 -6.277812E+05 -8.310178E-10  4.970123E-10
       194  14 -1.518925E+06 -2.461243E+05 -6.211226E+03 -6.131213E+05 -2.854506E-09  1.321649E-09
       194  15 -1.506570E+06 -2.594315E+05 -1.136471E+04 -6.275798E+05 -2.032069E-09  5.012673E-10
       194  16 -1.732841E+06 -3.426638E+05 -5.714186E+04 -6.896055E+05 -1.938032E-08 -6.272430E-09
       194  17 -1.832435E+06 -3.622324E+05 -8.008362E+04 -6.989018E+05 -3.272025E-09  1.329059E-09
       194  18 -1.907227E+06 -4.078682E+05 -1.055428E+05 -7.373147E+05  1.697276E-08  7.546358E-09
       194  19 -1.280050E+06 -1.750740E+05  5.009285E+04 -5.659362E+05 -1.223045E+04  9.860743E+03
       194  20 -1.205317E+06 -1.300089E+05  6.765519E+04 -5.273013E+05 -1.732014E+04  1.419465E+04
       194  21 -1.105755E+06 -1.109836E+05  8.280307E+04 -5.177811E+05 -2.238686E+04  1.845900E+04
       194  22 -1.506472E+06 -2.588708E+05 -3.522727E+03 -6.277813E+05 -7.041465E+03  1.180431E+04
       194  23 -1.518925E+06 -2.461240E+05 -6.210459E+03 -6.131214E+05 -1.219419E+04  1.611578E+04
       194  24 -1.506570E+06 -2.594310E+05 -1.136337E+04 -6.275801E+05 -1.732348E+04  2.035783E+04
       194  25 -1.732841E+06 -3.426636E+05 -5.714149E+04 -6.896055E+05 -1.854566E+03  1.374709E+04
       194  26 -1.832435E+06 -3.622320E+05 -8.008292E+04 -6.989019E+05 -7.071054E+03  1.803586E+04
       194  27 -1.907227E+06 -4.078677E+05 -1.055416E+05 -7.373149E+05 -1.226364E+04  2.225534E+04
       195   1 -1.035543E+06 -8.536403E+04  9.614301E+04 -5.008118E+05  2.602988E+04 -2.081900E+04
       195   2 -9.621794E+05 -3.887882E+04  1.042397E+05 -4.594163E+05  4.054427E+04 -2.120487E+04
       195   3 -8.692403E+05 -2.813100E+04  1.001130E+05 -4.444503E+05  5.462402E+04 -2.041647E+04
       195   4 -1.507347E+06 -2.584314E+05 -1.496873E+04 -6.281905E+05  2.065595E+04 -2.283519E+04
       195   5 -1.517827E+06 -2.460044E+05 -2.703691E+04 -6.129007E+05  3.626351E+04 -2.281326E+04
       195   6 -1.508960E+06 -2.695414E+05 -5.220488E+04 -6.240453E+05  5.143433E+04 -2.161734E+04
       195   7 -1.978929E+06 -4.314842E+05 -1.260960E+05 -7.554814E+05  1.528646E+04 -2.484975E+04
       195   8 -2.073165E+06 -4.531065E+05 -1.583349E+05 -7.662590E+05  3.198692E+04 -2.442006E+04
       195   9 -2.148269E+06 -5.109177E+05 -2.045512E+05 -8.034691E+05  4.824822E+04 -2.281682E+04
       195  10 -1.035543E+06 -8.536468E+04  9.614092E+04 -5.008113E+05 -2.203280E-09 -9.136476E-10
       195  11 -9.621813E+05 -3.887975E+04  1.042358E+05 -4.594156E+05 -6.996710E-10 -5.309520E-10
       195  12 -8.692436E+05 -2.813225E+04  1.001067E+05 -4.444494E+05  1.530505E-09 -4.230437E-10
       195  13 -1.507347E+06 -2.584321E+05 -1.497051E+04 -6.281901E+05 -1.076716E-09 -9.977727E-11
       195  14 -1.517829E+06 -2.460053E+05 -2.704036E+04 -6.129001E+05  4.927039E-10 -4.858678E-10
       195  15 -1.508963E+06 -2.695427E+05 -5.221073E+04 -6.240444E+05  2.754009E-09 -1.311880E-10
       195  16 -1.978929E+06 -4.314849E+05 -1.260976E+05 -7.554811E+05  1.098568E-09  4.041281E-10
       195  17 -2.073167E+06 -4.531074E+05 -1.583379E+05 -7.662584E+05  1.479365E-09 -6.059090E-10
       195  18 -2.148272E+06 -5.109189E+05 -2.045565E+05 -8.034682E+05  4.123045E-09  1.657189E-10
       195  19 -1.035543E+06 -8.536403E+04  9.614301E+04 -5.008118E+05 -2.602988E+04  2.081900E+04
       195  20 -9.621794E+05 -3.887882E+04  1.042397E+05 -4.594163E+05 -4.054427E+04  2.120487E+04
       195  21 -8.692403E+05 -2.813100E+04  1.001130E+05 -4.444503E+05 -5.462402E+04  2.041647E+04
       195  22 -1.507347E+06 -2.584314E+05 -1.496873E+04 -6.281905E+05 -2.065595E+04  2.283519E+04
       195  23 -1.517827E+06 -2.460044E+05 -2.703691E+04 -6.129007E+05 -3.626351E+04  2.281326E+04
       195  24 -1.508960E+06 -2.695414E+05 -5.220488E+04 -6.240453E+05 -5.143433E+04  2.161734E+04
       195  25 -1.978929E+06 -4.314842E+05 -1.260960E+05 -7.554814E+05 -1.528646E+04  2.484975E+04
       195  26 -2.073165E+06 -4.531065E+05 -1.583349E+05 -7.662590E+05 -3.198692E+04  2.442006E+04
       195  27 -2.148269E+06 -5.109177E+05 -2.045512E+05 -8.034691E+05 -4.824822E+04  2.281682E+04
       196   1 -7.849155E+05 -7.938790E+03  1.014904E+05 -4.640582E+05  7.221770E+04 -1.979701E+04
       196   2 -7.353602E+05  7.499806E+04  7.349029E+04 -3.601950E+05  1.108919E+05 -3.462533E+03
       196   3 -7.384255E+05 -5.545011E+04 -3.572087E+04 -2.337674E+05  1.400141E+05  3.829572E+04
       196   4 -1.517675E+06 -2.509534E+05 -6.624556E+04 -6.353597E+05  6.168106E+04 -2.375407E+04
       196   5 -1.503802E+06 -2.462485E+05 -1.180854E+05 -6.074397E+05  1.242499E+05  1.545676E+03
       196   6 -1.547403E+06 -4.598480E+05 -2.701824E+05 -5.569418E+05  1.772548E+05  5.227283E+04
       196   7 -2.249905E+06 -4.939569E+05 -2.340177E+05 -8.064895E+05  5.115787E+04 -2.770733E+04
       196   8 -2.271650E+06 -5.674083E+05 -3.097057E+05 -8.543889E+05  1.375898E+05  6.545162E+03
       196   9 -2.355705E+06 -8.640367E+05 -5.046964E+05 -8.796802E+05  2.144418E+05  6.621462E+04
       196  10 -7.849212E+05 -7.940611E+03  1.014798E+05 -4.640571E+05  2.705586E-09  5.099639E-11
       196  11 -7.353735E+05  7.499474E+04  7.346714E+04 -3.601946E+05  8.306552E-10  9.678823E-12
       196  12 -7.384470E+05 -5.545696E+04 -3.576052E+04 -2.337717E+05 -2.302428E-10  1.310676E-10
       196  13 -1.517679E+06 -2.509550E+05 -6.625377E+04 -6.353585E+05  2.247650E-09  1.200021E-10
       196  14 -1.503818E+06 -2.462527E+05 -1.181145E+05 -6.074398E+05  1.590028E-09 -3.004783E-10
       196  15 -1.547438E+06 -4.598594E+05 -2.702467E+05 -5.569492E+05  6.449408E-10  2.055473E-11
       196  16 -2.249908E+06 -4.939584E+05 -2.340241E+05 -8.064884E+05  2.078699E-09  3.630030E-10
       196  17 -2.271670E+06 -5.674135E+05 -3.097415E+05 -8.543896E+05 -2.359426E-09  7.750712E-10
       196  18 -2.355756E+06 -8.640538E+05 -5.047915E+05 -8.796917E+05 -9.710074E-10 -4.585366E-11
       196  19 -7.849155E+05 -7.938790E+03  1.014904E+05 -4.640582E+05 -7.221770E+04  1.979701E+04
       196  20 -7.353602E+05  7.499806E+04  7.349029E+04 -3.601950E+05 -1.108919E+05  3.462533E+03
       196  21 -7.384255E+05 -5.545011E+04 -3.572087E+04 -2.337674E+05 -1.400141E+05 -3.829572E+04
       196  22 -1.517675E+06 -2.509534E+05 -6.624556E+04 -6.353597E+05 -6.168106E+04  2.375407E+04
       196  23 -1.503802E+06 -2.462485E+05 -1.180854E+05 -6.074397E+05 -1.242499E+05 -1.545676E+03
       196  24 -1.547403E+06 -4.598480E+05 -2.701824E+05 -5.569418E+05 -1.772548E+05 -5.227283E+04
       196  25 -2.249905E+06 -4.939569E+05 -2.340177E+05 -8.064895E+05 -5.115787E+04  2.770733E+04
       196  26 -2.271650E+06 -5.674083E+05 -3.097057E+05 -8.543889E+05 -1.375898E+05 -6.545162E+03
       196  27 -2.355705E+06 -8.640367E+05 -5.046964E+05 -8.796802E+05 -2.144418E+05 -6.621462E+04
       197   1 -2.499580E+05 -4.980412E+04 -3.189941E+03  4.005169E+04  1.270392E+05  1.418786E+04
       197   2 -1.793161E+05 -2.252676E+05 -9.338525E+04 -9.501618E+03  9.437303E+04  4.452894E+04
       197   3 -5.809795E+04 -2.169232E+05 -1.162867E+05 -9.379613E+04  6.173037E+04  4.732870E+04
       197   4  7.973642E+05  2.097969E+05  2.493003E+05 -6.472834E+04  1.717364E+05  1.421171E+04
       197   5  7.697783E+05  6.025405E+03  1.146258E+05 -4.727120E+04  1.112269E+05  4.453128E+04
       197   6  7.974971E+05 -9.277572E+03  6.648818E+04 -6.454743E+04  5.074941E+04  4.732142E+04
       197   7  1.845718E+06  4.693607E+05  5.017257E+05 -1.696860E+05  2.165085E+05  1.422048E+04
       197   8  1.719719E+06  2.372639E+05  3.225839E+05 -8.509937E+04  1.281062E+05  4.453157E+04
       197   9  1.653783E+06  1.983236E+05  2.492216E+05 -3.525789E+04  3.975351E+04  4.731311E+04
       197  10 -2.499754E+05 -4.980867E+04 -3.220658E+03  4.005024E+04 -4.705520E-10  5.696690E-11
       197  11 -1.793262E+05 -2.252721E+05 -9.340572E+04 -9.505004E+03 -3.431882E-10 -8.755295E-10
       197  12 -5.810265E+04 -2.169266E+05 -1.162980E+05 -9.379848E+04 -7.805416E-10  2.560939E-10
       197  13  7.973325E+05  2.097888E+05  2.492446E+05 -6.473031E+04 -2.107505E-11  1.388985E-11
       197  14  7.697645E+05  6.019959E+03  1.145988E+05 -4.727519E+04  7.880627E-10 -1.227852E-09
       197  15  7.974938E+05 -9.280668E+03  6.647914E+04 -6.454936E+04  2.386576E-10  2.284080E-10
       197  16  1.845667E+06  4.693479E+05  5.016375E+05 -1.696885E+05 -1.332347E-10 -3.349586E-11
       197  17  1.719701E+06  2.372573E+05  3.225494E+05 -8.510396E+04  1.358881E-09  7.004709E-11
       197  18  1.653781E+06  1.983208E+05  2.492144E+05 -3.525940E+04  7.944274E-10  2.946433E-11
       197  19 -2.499580E+05 -4.980412E+04 -3.189941E+03  4.005169E+04 -1.270392E+05 -1.418786E+04
       197  20 -1.793161E+05 -2.252676E+05 -9.338525E+04 -9.501618E+03 -9.437303E+04 -4.452894E+04
       197  21 -5.809795E+04 -2.169232E+05 -1.162867E+05 -9.379613E+04 -6.173037E+04 -4.732870E+04
       197  22  7.973642E+05  2.097969E+05  2.493003E+05 -6.472834E+04 -1.717364E+05 -1.421171E+04
       197  23  7.697783E+05  6.025405E+03  1.146258E+05 -4.727120E+04 -1.112269E+05 -4.453128E+04
       197  24  7.974971E+05 -9.277572E+03  6.648818E+04 -6.454743E+04 -5.074941E+04 -4.732142E+04
       197  25  1.845718E+06  4.693607E+05  5.017257E+05 -1.696860E+05 -2.165085E+05 -1.422048E+04
       197  26  1.719719E+06  2.372639E+05  3.225839E+05 -8.509937E+04 -1.281062E+05 -4.453157E+04
       197  27  1.653783E+06  1.983236E+05  2.492216E+05 -3.525789E+04 -3.975351E+04 -4.731311E+04
       198   1  4.901752E+03 -1.798633E+05 -1.151492E+05 -6.157994E+04  4.485827E+04  4.204126E+04
       198   2  9.754104E+04 -1.667537E+05 -1.179691E+05 -4.638435E+04  3.181975E+04  3.801357E+04
       198   3  1.944021E+05 -1.442166E+05 -1.099051E+05 -6.673626E+04  1.877599E+04  3.271816E+04
       198   4  7.862048E+05  9.863091E+03  5.251086E+04 -6.477279E+04  4.147661E+04  4.203593E+04
       198   5  7.840127E+05 -2.043610E+02  2.862258E+04 -4.699972E+04  2.714353E+04  3.800971E+04
       198   6  7.862531E+05 -6.260195E+02  1.650622E+04 -6.477137E+04  1.280717E+04  3.271635E+04
       198   7  1.568082E+06  1.995496E+05  2.201354E+05 -6.796973E+04  3.809074E+04  4.203064E+04
       198   8  1.470928E+06  1.663143E+05  1.751871E+05 -4.761578E+04  2.246220E+04  3.800586E+04
       198   9  1.378434E+06  1.429417E+05  1.428974E+05 -6.280454E+04  6.832741E+03  3.271451E+04
       198  10  4.899116E+03 -1.798658E+05 -1.151563E+05 -6.158146E+04  2.042113E-10  2.513163E-10
       198  11  9.753957E+04 -1.667556E+05 -1.179737E+05 -4.638532E+04 -5.907121E-10  6.569986E-11
       198  12  1.944014E+05 -1.442178E+05 -1.099078E+05 -6.673676E+04 -7.098952E-10 -3.334684E-10
       198  13  7.862025E+05  9.860732E+03  5.250431E+04 -6.477419E+04  8.306166E-12  2.297799E-10
       198  14  7.840115E+05 -2.061105E+02  2.861848E+04 -4.700055E+04  8.405882E-10  5.591533E-11
       198  15  7.862526E+05 -6.272133E+02  1.650390E+04 -6.477170E+04 -2.396570E-09 -2.709036E-10
       198  16  1.568080E+06  1.995473E+05  2.201293E+05 -6.797102E+04  1.996095E-10  3.699634E-10
       198  17  1.470927E+06  1.663126E+05  1.751835E+05 -4.761647E+04 -1.237341E-09 -2.418744E-10
       198  18  1.378433E+06  1.429406E+05  1.428953E+05 -6.280472E+04  1.113490E-09 -1.651344E-10
       198  19  4.901752E+03 -1.798633E+05 -1.151492E+05 -6.157994E+04 -4.485827E+04 -4.204126E+04
       198  20  9.754104E+04 -1.667537E+05 -1.179691E+05 -4.638435E+04 -3.181975E+04 -3.801357E+04
       198  21  1.944021E+05 -1.442166E+05 -1.099051E+05 -6.673626E+04 -1.877599E+04 -3.271816E+04
       198  22  7.862048E+05  9.863091E+03  5.251086E+04 -6.477279E+04 -4.147661E+04 -4.203593E+04
       198  23  7.840127E+05 -2.043610E+02  2.862258E+04 -4.699972E+04 -2.714353E+04 -3.800971E+04
       198  24  7.862531E+05 -6.260195E+02  1.650622E+04 -6.477137E+04 -1.280717E+04 -3.271635E+04
       198  25  1.568082E+06  1.995496E+05  2.201354E+05 -6.796973E+04 -3.809074E+04 -4.203064E+04
       198  26  1.470928E+06  1.663143E+05  1.751871E+05 -4.761578E+04 -2.246220E+04 -3.800586E+04
       198  27  1.378434E+06  1.429417E+05  1.428974E+05 -6.280454E+04 -6.832741E+03 -3.271451E+04
       199   1  2.666985E+05 -1.254474E+05 -9.773748E+04 -6.499673E+04  1.584252E+04  2.932191E+04
       199   2  3.605681E+05 -1.030783E+05 -8.329415E+04 -4.722921E+04  1.232966E+04  2.373192E+04
       199   3  4.550707E+05 -8.018940E+04 -6.642581E+04 -6.486142E+04  8.813447E+03  1.809116E+04
       199   4  7.854260E+05  3.119396E+02  1.262532E+04 -6.473927E+04  1.023648E+04  2.932106E+04
       199   5  7.851231E+05 -1.212294E+02  7.201332E+03 -4.704026E+04  6.669263E+03  2.373235E+04
       199   6  7.854519E+05 -2.547290E+01  4.238089E+03 -6.473950E+04  3.099206E+03  1.809292E+04
       199   7  1.304407E+06  1.260538E+05  1.229728E+05 -6.448157E+04  4.625836E+03  2.932021E+04
       199   8  1.209848E+06  1.028242E+05  9.768655E+04 -4.685115E+04  1.005055E+03  2.373278E+04
       199   9  1.115936E+06  8.013135E+04  7.489579E+04 -6.461751E+04 -2.618030E+03  1.809467E+04
       199  10  2.666980E+05 -1.254484E+05 -9.773957E+04 -6.499710E+04 -1.916530E-09 -2.318052E-10
       199  11  3.605678E+05 -1.030790E+05 -8.329549E+04 -4.722945E+04 -3.881288E-10  3.724308E-10
       199  12  4.550705E+05 -8.018977E+04 -6.642657E+04 -6.486155E+04  3.229751E-10  3.238012E-10
       199  13  7.854256E+05  3.109879E+02  1.262351E+04 -6.473951E+04 -1.754906E-15 -3.214262E-10
       199  14  7.851229E+05 -1.218464E+02  7.200190E+03 -4.704038E+04 -9.615394E-10 -1.156990E-10
       199  15  7.854518E+05 -2.582714E+01  4.237456E+03 -6.473955E+04  5.482116E-10  2.533892E-11
       199  16  1.304407E+06  1.260529E+05  1.229711E+05 -6.448168E+04 -3.595863E-10 -4.584484E-10
       199  17  1.209848E+06  1.028236E+05  9.768549E+04 -4.685117E+04 -3.012388E-10 -4.373305E-10
       199  18  1.115936E+06  8.013100E+04  7.489516E+04 -6.461747E+04  1.409150E-10  3.780067E-10
       199  19  2.666985E+05 -1.254474E+05 -9.773748E+04 -6.499673E+04 -1.584252E+04 -2.932191E+04
       199  20  3.605681E+05 -1.030783E+05 -8.329415E+04 -4.722921E+04 -1.232966E+04 -2.373192E+04
       199  21  4.550707E+05 -8.018940E+04 -6.642581E+04 -6.486142E+04 -8.813447E+03 -1.809116E+04
       199  22  7.854260E+05  3.119396E+02  1.262532E+04 -6.473927E+04 -1.023648E+04 -2.932106E+04
       199  23  7.851231E+05 -1.212294E+02  7.201332E+03 -4.704026E+04 -6.669263E+03 -2.373235E+04
       199  24  7.854519E+05 -2.547290E+01  4.238089E+03 -6.473950E+04 -3.099206E+03 -1.809292E+04
       199  25  1.304407E+06  1.260538E+05  1.229728E+05 -6.448157E+04 -4.625836E+03 -2.932021E+04
       199  26  1.209848E+06  1.028242E+05  9.768655E+04 -4.685115E+04 -1.005055E+03 -2.373278E+04
       199  27  1.115936E+06  8.013135E+04  7.489579E+04 -6.461751E+04  2.618030E+03 -1.809467E+04
       200   1  5.277408E+05 -6.239575E+04 -5.134934E+04 -6.475840E+04  8.109382E+03  1.479759E+04
       200   2  6.215785E+05 -3.969142E+04 -3.279021E+04 -4.708641E+04  7.071294E+03  9.154194E+03
       200   3  7.155462E+05 -1.692668E+04 -1.354823E+04 -6.470051E+04  6.031975E+03  3.511491E+03
       200   4  7.853479E+05  1.654030E+01  3.292021E+03 -6.471442E+04  2.416819E+03  1.479989E+04
       200   5  7.852921E+05  2.954114E+00  2.096201E+03 -4.707166E+04  1.378656E+03  9.156974E+03
       200   6  7.853576E+05  5.020824E+01  1.583210E+03 -6.471444E+04  3.394156E+02  3.514785E+03
       200   7  1.043018E+06  6.242455E+04  5.792971E+04 -6.467041E+04 -3.278069E+03  1.480218E+04
       200   8  9.490309E+05  3.969560E+04  3.698119E+04 -4.705691E+04 -4.315459E+03  9.159753E+03
       200   9  8.551736E+05  1.702679E+04  1.671448E+04 -6.472836E+04 -5.353775E+03  3.518079E+03
       200  10  5.277406E+05 -6.239600E+04 -5.134987E+04 -6.475849E+04 -2.899738E-10  2.616776E-11
       200  11  6.215784E+05 -3.969152E+04 -3.279046E+04 -4.708646E+04 -1.413791E-09  3.832311E-10
       200  12  7.155462E+05 -1.692670E+04 -1.354832E+04 -6.470053E+04  2.279702E-10  2.382441E-10
       200  13  7.853479E+05  1.630344E+01  3.291598E+03 -6.471445E+04 -2.498273E-10  5.349593E-10
       200  14  7.852920E+05  2.863530E+00  2.096040E+03 -4.707167E+04  3.542914E-10 -4.899320E-10
       200  15  7.853576E+05  5.019494E+01  1.583187E+03 -6.471444E+04 -1.372471E-09 -9.031496E-10
       200  16  1.043018E+06  6.242431E+04  5.792928E+04 -6.467037E+04  6.554054E-10 -2.208706E-10
       200  17  9.490308E+05  3.969551E+04  3.698100E+04 -4.705687E+04 -9.919306E-10 -3.162269E-10
       200  18  8.551736E+05  1.702677E+04  1.671440E+04 -6.472835E+04 -5.000649E-10 -1.568591E-09
       200  19  5.277408E+05 -6.239575E+04 -5.134934E+04 -6.475840E+04 -8.109382E+03 -1.479759E+04
       200  20  6.215785E+05 -3.969142E+04 -3.279021E+04 -4.708641E+04 -7.071294E+03 -9.154194E+03
       200  21  7.155462E+05 -1.692668E+04 -1.354823E+04 -6.470051E+04 -6.031975E+03 -3.511491E+03
       200  22  7.853479E+05  1.654030E+01  3.292021E+03 -6.471442E+04 -2.416819E+03 -1.479989E+04
       200  23  7.852921E+05  2.954114E+00  2.096201E+03 -4.707166E+04 -1.378656E+03 -9.156974E+03
       200  24  7.853576E+05  5.020824E+01  1.583210E+03 -6.471444E+04 -3.394156E+02 -3.514785E+03
       200  25  1.043018E+06  6.242455E+04  5.792971E+04 -6.467041E+04  3.278069E+03 -1.480218E+04
       200  26  9.490309E+05  3.969560E+04  3.698119E+04 -4.705691E+04  4.315459E+03 -9.159753E+03
       200  27  8.551736E+05  1.702679E+04  1.671448E+04 -6.472836E+04  5.353775E+03 -3.518079E+03
       201   1  7.882009E+05  7.926772E+02  2.378950E+03 -6.472000E+04  5.747932E+03  2.280190E+02
       201   2  8.820363E+05  2.346548E+04  2.234234E+04 -4.706956E+04  4.888489E+03 -5.412574E+03
       201   3  9.759678E+05  4.619160E+04  4.286770E+04 -6.469194E+04  4.029569E+03 -1.105273E+04
       201   4  7.853515E+05  5.055412E+01  1.515294E+03 -6.471169E+04  5.571785E+01  2.313753E+02
       201   5  7.853041E+05  1.520902E+01  1.732224E+03 -4.707510E+04 -8.035443E+02 -5.409528E+03
       201   6  7.853458E+05  3.402041E+01  2.511653E+03 -6.471168E+04 -1.662157E+03 -1.104997E+04
       201   7  7.825021E+05 -6.915523E+02  6.517583E+02 -6.470338E+04 -5.636469E+03  2.347316E+02
       201   8  6.885807E+05 -2.343566E+04 -1.887831E+04 -4.708064E+04 -6.494705E+03 -5.406482E+03
       201   9  5.947581E+05 -4.612589E+04 -3.784634E+04 -6.473139E+04 -7.352164E+03 -1.104720E+04
       201  10  7.882008E+05  7.926683E+02  2.378888E+03 -6.472000E+04 -8.180706E-10 -1.215221E-10
       201  11  8.820363E+05  2.346544E+04  2.234224E+04 -4.706954E+04 -6.868054E-10 -8.553042E-11
       201  12  9.759677E+05  4.619147E+04  4.286744E+04 -6.469191E+04 -4.947421E-10  9.828146E-11
       201  13  7.853515E+05  5.055406E+01  1.515293E+03 -6.471169E+04 -3.005163E-10  2.394855E-10
       201  14  7.853041E+05  1.517741E+01  1.732168E+03 -4.707510E+04 -6.129446E-10  9.715273E-10
       201  15  7.853457E+05  3.388851E+01  2.511418E+03 -6.471169E+04  5.375182E-10 -6.441433E-10
       201  16  7.825021E+05 -6.915609E+02  6.516986E+02 -6.470338E+04  3.273816E-10 -5.768069E-10
       201  17  6.885807E+05 -2.343570E+04 -1.887845E+04 -4.708067E+04 -1.040490E-09  1.131280E-09
       201  18  5.947580E+05 -4.612604E+04 -3.784667E+04 -6.473146E+04 -7.527125E-10 -1.605911E-10
       201  19  7.882009E+05  7.926772E+02  2.378950E+03 -6.472000E+04 -5.747932E+03 -2.280190E+02
       201  20  8.820363E+05  2.346548E+04  2.234234E+04 -4.706956E+04 -4.888489E+03  5.412574E+03
       201  21  9.759678E+05  4.619160E+04  4.286770E+04 -6.469194E+04 -4.029569E+03  1.105273E+04
       201  22  7.853515E+05  5.055412E+01  1.515294E+03 -6.471169E+04 -5.571785E+01 -2.313753E+02
       201  23  7.853041E+05  1.520902E+01  1.732224E+03 -4.707510E+04  8.035443E+02  5.409528E+03
       201  24  7.853458E+05  3.402041E+01  2.511653E+03 -6.471168E+04  1.662157E+03  1.104997E+04
       201  25  7.825021E+05 -6.915523E+02  6.517583E+02 -6.470338E+04  5.636469E+03 -2.347316E+02
       201  26  6.885807E+05 -2.343566E+04 -1.887831E+04 -4.708064E+04  6.494705E+03  5.406482E+03
       201  27  5.947581E+05 -4.612589E+04 -3.784634E+04 -6.473139E+04  7.352164E+03  1.104720E+04
       202   1  1.048799E+06  6.389710E+04  5.953491E+04 -6.466463E+04  3.533995E+03 -1.434273E+04
       202   2  1.142695E+06  8.658351E+04  8.145293E+04 -4.694827E+04  8.643719E+02 -1.997684E+04
       202   3  1.237060E+06  1.096708E+05  1.052082E+05 -6.458453E+04 -1.803332E+03 -2.556245E+04
       202   4  7.854192E+05  2.963093E+00  3.169777E+03 -6.472964E+04 -2.177829E+03 -1.434038E+04
       202   5  7.851823E+05 -7.455563E+01  5.282688E+03 -4.705262E+04 -4.797554E+03 -1.997562E+04
       202   6  7.853976E+05  2.405600E+02  9.199006E+03 -6.472945E+04 -7.414967E+03 -2.556230E+04
       202   7  5.221047E+05 -6.389568E+04 -5.319926E+04 -6.479462E+04 -7.887269E+03 -1.433803E+04
       202   8  4.277903E+05 -8.674092E+04 -7.089479E+04 -4.715689E+04 -1.045627E+04 -1.997439E+04
       202   9  3.339268E+05 -1.092029E+05 -8.682176E+04 -6.487425E+04 -1.302258E+04 -2.556215E+04
       202  10  1.048799E+06  6.389687E+04  5.953450E+04 -6.466459E+04 -9.445206E-10  6.997654E-10
       202  11  1.142694E+06  8.658309E+04  8.145218E+04 -4.694826E+04 -8.107144E-10  3.126618E-10
       202  12  1.237060E+06  1.096701E+05  1.052070E+05 -6.458457E+04 -4.336389E-10  3.807790E-10
       202  13  7.854191E+05  2.740907E+00  3.169382E+03 -6.472967E+04 -2.553300E-10 -3.908257E-10
       202  14  7.851822E+05 -7.499045E+01  5.281894E+03 -4.705269E+04  1.735297E-09 -2.372629E-10
       202  15  7.853973E+05  2.398433E+02  9.197674E+03 -6.472961E+04  1.912705E-10 -1.248632E-10
       202  16  5.221045E+05 -6.389592E+04 -5.319977E+04 -6.479471E+04  6.983635E-10  1.160387E-11
       202  17  4.277901E+05 -8.674137E+04 -7.089574E+04 -4.715706E+04 -1.099044E-10 -2.301635E-10
       202  18  3.339265E+05 -1.092036E+05 -8.682331E+04 -6.487451E+04 -4.850982E-10 -7.317501E-10
       202  19  1.048799E+06  6.389710E+04  5.953491E+04 -6.466463E+04 -3.533995E+03  1.434273E+04
       202  20  1.142695E+06  8.658351E+04  8.145293E+04 -4.694827E+04 -8.643719E+02  1.997684E+04
       202  21  1.237060E+06  1.096708E+05  1.052082E+05 -6.458453E+04  1.803332E+03  2.556245E+04
       202  22  7.854192E+05  2.963093E+00  3.169777E+03 -6.472964E+04  2.177829E+03  1.434038E+04
       202  23  7.851823E+05 -7.455563E+01  5.282688E+03 -4.705262E+04  4.797554E+03  1.997562E+04
       202  24  7.853976E+05  2.405600E+02  9.199006E+03 -6.472945E+04  7.414967E+03  2.556230E+04
       202  25  5.221047E+05 -6.389568E+04 -5.319926E+04 -6.479462E+04  7.887269E+03  1.433803E+04
       202  26  4.277903E+05 -8.674092E+04 -7.089479E+04 -4.715689E+04  1.045627E+04  1.997439E+04
       202  27  3.339268E+05 -1.092029E+05 -8.682176E+04 -6.487425E+04  1.302258E+04  2.556215E+04
       203   1  1.310747E+06  1.267880E+05  1.240436E+05 -6.337991E+04 -3.334903E+03 -2.894605E+04
       203   2  1.403676E+06  1.499893E+05  1.529527E+05 -4.750715E+04 -1.496181E+04 -3.425089E+04
       203   3  1.500046E+06  1.804069E+05  1.912488E+05 -6.712120E+04 -2.658704E+04 -3.836746E+04
       203   4  7.859990E+05 -4.421895E+02  1.201082E+04 -6.475936E+04 -9.287174E+03 -2.894675E+04
       203   5  7.843641E+05 -1.493170E+02  2.079757E+04 -4.701502E+04 -1.970506E+04 -3.425352E+04
       203   6  7.859569E+05  7.155427E+03  3.814002E+04 -6.475940E+04 -3.011954E+04 -3.837151E+04
       203   7  2.615095E+05 -1.276903E+05 -1.000377E+05 -6.613761E+04 -1.523449E+04 -2.894742E+04
       203   8  1.654128E+05 -1.503129E+05 -1.113796E+05 -4.652339E+04 -2.444364E+04 -3.425616E+04
       203   9  7.234667E+04 -1.661293E+05 -1.149984E+05 -6.240034E+04 -3.364802E+04 -3.837559E+04
       203  10  1.310747E+06  1.267871E+05  1.240420E+05 -6.337998E+04 -8.205907E-10  5.468418E-11
       203  11  1.403675E+06  1.499880E+05  1.529500E+05 -4.750756E+04 -4.361259E-10  6.556053E-11
       203  12  1.500045E+06  1.804051E+05  1.912447E+05 -6.712203E+04  9.333833E-10 -5.166486E-10
       203  13  7.859987E+05 -4.431127E+02  1.200908E+04 -6.475958E+04  5.975893E-10 -2.396710E-10
       203  14  7.843634E+05 -1.506815E+02  2.079464E+04 -4.701557E+04  6.945604E-10  8.432944E-11
       203  15  7.859556E+05  7.153602E+03  3.813554E+04 -6.476033E+04  8.049886E-10 -3.405149E-10
       203  16  2.615091E+05 -1.276912E+05 -1.000397E+05 -6.613796E+04 -2.079154E-10 -7.454437E-10
       203  17  1.654118E+05 -1.503143E+05 -1.113829E+05 -4.652406E+04 -3.132918E-10  1.421656E-10
       203  18  7.234506E+04 -1.661312E+05 -1.150033E+05 -6.240138E+04  6.544502E-10  5.632047E-11
       203  19  1.310747E+06  1.267880E+05  1.240436E+05 -6.337991E+04  3.334903E+03  2.894605E+04
       203  20  1.403676E+06  1.499893E+05  1.529527E+05 -4.750715E+04  1.496181E+04  3.425089E+04
       203  21  1.500046E+06  1.804069E+05  1.912488E+05 -6.712120E+04  2.658704E+04  3.836746E+04
       203  22  7.859990E+05 -4.421895E+02  1.201082E+04 -6.475936E+04  9.287174E+03  2.894675E+04
       203  23  7.843641E+05 -1.493170E+02  2.079757E+04 -4.701502E+04  1.970506E+04  3.425352E+04
       203  24  7.859569E+05  7.155427E+03  3.814002E+04 -6.475940E+04  3.011954E+04  3.837151E+04
       203  25  2.615095E+05 -1.276903E+05 -1.000377E+05 -6.613761E+04  1.523449E+04  2.894742E+04
       203  26  1.654128E+05 -1.503129E+05 -1.113796E+05 -4.652339E+04  2.444364E+04  3.425616E+04
       203  27  7.234667E+04 -1.661293E+05 -1.149984E+05 -6.240034E+04  3.364802E+04  3.837559E+04
       204   1  1.582474E+06  1.843683E+05  2.165446E+05 -4.331381E+04 -2.618933E+04 -4.351746E+04
       204   2  1.655811E+06  2.190453E+05  2.763357E+05 -7.474620E+04 -9.621061E+04 -4.123841E+04
       204   3  1.773828E+06  3.950350E+05  4.170211E+05 -1.408543E+05 -1.662691E+05 -1.316265E+04
       204   4  7.941604E+05 -6.749797E+03  4.828915E+04 -6.455216E+04 -3.685483E+04 -4.352409E+04
       204   5  7.740025E+05  4.348003E+03  8.323340E+04 -4.726855E+04 -8.077188E+04 -4.123779E+04
       204   6  7.940519E+05  1.523343E+05  1.810309E+05 -6.465424E+04 -1.247129E+05 -1.314928E+04
       204   7  6.431257E+03 -1.979066E+05 -1.200015E+05 -8.576322E+04 -4.750699E+04 -4.353000E+04
       204   8 -1.070776E+05 -2.103981E+05 -1.099148E+05 -1.983041E+04 -6.535470E+04 -4.123581E+04
       204   9 -1.848316E+05 -9.041345E+04 -5.501812E+04  1.142534E+04 -8.322178E+04 -1.312574E+04
       204  10  1.582473E+06  1.843661E+05  2.165397E+05 -4.331473E+04 -5.439657E-10 -1.956388E-10
       204  11  1.655801E+06  2.190410E+05  2.763152E+05 -7.474940E+04  4.220774E-10  5.432228E-10
       204  12  1.773798E+06  3.950275E+05  4.169690E+05 -1.408561E+05  7.193450E-10  6.750301E-10
       204  13  7.941584E+05 -6.752196E+03  4.828303E+04 -6.455345E+04 -1.076376E-09 -1.005907E-09
       204  14  7.739950E+05  4.344428E+03  8.321796E+04 -4.727124E+04 -1.757495E-10  2.062400E-10
       204  15  7.940352E+05  1.523300E+05  1.810014E+05 -6.465556E+04  2.413104E-10 -2.460776E-10
       204  16  6.428324E+03 -1.979092E+05 -1.200093E+05 -8.576489E+04 -8.953082E-10 -2.631805E-10
       204  17 -1.070827E+05 -2.104011E+05 -1.099260E+05 -1.983258E+04 -6.056705E-10 -6.235205E-10
       204  18 -1.848391E+05 -9.041549E+04 -5.503146E+04  1.142446E+04 -7.798948E-10  6.779487E-10
       204  19  1.582474E+06  1.843683E+05  2.165446E+05 -4.331381E+04  2.618933E+04  4.351746E+04
       204  20  1.655811E+06  2.190453E+05  2.763357E+05 -7.474620E+04  9.621061E+04  4.123841E+04
       204  21  1.773828E+06  3.950350E+05  4.170211E+05 -1.408543E+05  1.662691E+05  1.316265E+04
       204  22  7.941604E+05 -6.749797E+03  4.828915E+04 -6.455216E+04  3.685483E+04  4.352409E+04
       204  23  7.740025E+05  4.348003E+03  8.323340E+04 -4.726855E+04  8.077188E+04  4.123779E+04
       204  24  7.940519E+05  1.523343E+05  1.810309E+05 -6.465424E+04  1.247129E+05  1.314928E+04
       204  25  6.431257E+03 -1.979066E+05 -1.200015E+05 -8.576322E+04  4.750699E+04  4.353000E+04
       204  26 -1.070776E+05 -2.103981E+05 -1.099148E+05 -1.983041E+04  6.535470E+04  4.123581E+04
       204  27 -1.848316E+05 -9.041345E+04 -5.501812E+04  1.142534E+04  8.322178E+04  1.312574E+04
       205   1  5.632078E+05  1.957148E+06  5.552422E+05 -5.226919E+05  2.171244E+04  1.461059E+05
       205   2  3.572134E+05  1.386315E+06  3.384256E+05 -4.245805E+05  6.314325E+04  5.172234E+04
       205   3  2.123854E+05  8.430335E+05  1.981592E+05 -4.754705E+05  5.118650E+04 -4.265100E+04
       205   4  6.893056E+04 -3.747550E+04  7.709277E+04 -4.799801E+05  2.193062E+04  5.127549E+04
       205   5  1.118538E+04 -4.443287E+04  3.835578E+04 -4.055530E+05  6.320455E+04  3.145763E+04
       205   6  1.785079E+03 -3.697125E+04  2.455233E+04 -4.801271E+05  5.104200E+04  1.156344E+04
       205   7 -4.256242E+05 -2.028439E+06 -4.013040E+05 -4.374026E+05  2.213624E+04 -4.325239E+04
       205   8 -3.349725E+05 -1.473247E+06 -2.618267E+05 -3.865682E+05  6.326469E+04  1.123873E+04
       205   9 -2.088605E+05 -9.162289E+05 -1.490814E+05 -4.847762E+05  5.089655E+04  6.570273E+04
       205  10  5.632015E+05  1.957125E+06  5.552013E+05 -5.226945E+05  7.488952E-10  8.637701E-10
       205  11  3.572084E+05  1.386311E+06  3.384131E+05 -4.245831E+05  9.826942E-10 -7.629101E-10
       205  12  2.123821E+05  8.430309E+05  1.981508E+05 -4.754688E+05  3.994200E-10 -2.234179E-09
       205  13  6.892934E+04 -3.747845E+04  7.708692E+04 -4.799810E+05  1.321412E-09  9.337608E-12
       205  14  1.118082E+04 -4.443501E+04  3.834640E+04 -4.055546E+05  8.900616E-10  1.006531E-09
       205  15  1.782244E+03 -3.697210E+04  2.454718E+04 -4.801276E+05  5.076623E-10 -3.848437E-10
       205  16 -4.256252E+05 -2.028442E+06 -4.013084E+05 -4.374018E+05  5.127592E-10 -1.267665E-10
       205  17 -3.349769E+05 -1.473248E+06 -2.618344E+05 -3.865687E+05  1.487359E-09  2.156024E-09
       205  18 -2.088645E+05 -9.162343E+05 -1.490944E+05 -4.847789E+05 -1.305638E-09  1.507567E-09
       205  19  5.632078E+05  1.957148E+06  5.552422E+05 -5.226919E+05 -2.171244E+04 -1.461059E+05
       205  20  3.572134E+05  1.386315E+06  3.384256E+05 -4.245805E+05 -6.314325E+04 -5.172234E+04
       205  21  2.123854E+05  8.430335E+05  1.981592E+05 -4.754705E+05 -5.118650E+04  4.265100E+04
       205  22  6.893056E+04 -3.747550E+04  7.709277E+04 -4.799801E+05 -2.193062E+04 -5.127549E+04
       205  23  1.118538E+04 -4.443287E+04  3.835578E+04 -4.055530E+05 -6.320455E+04 -3.145763E+04
       205  24  1.785079E+03 -3.697125E+04  2.455233E+04 -4.801271E+05 -5.104200E+04 -1.156344E+04
       205  25 -4.256242E+05 -2.028439E+06 -4.013040E+05 -4.374026E+05 -2.213624E+04  4.325239E+04
       205  26 -3.349725E+05 -1.473247E+06 -2.618267E+05 -3.865682E+05 -6.326469E+04 -1.123873E+04
       205  27 -2.088605E+05 -9.162289E+05 -1.490814E+05 -4.847762E+05 -5.089655E+04 -6.570273E+04
       206   1  1.239107E+05  4.574608E+05  1.201286E+05 -4.831727E+05  2.822753E+04 -3.683107E+04
       206   2 -1.171811E+04 -9.982443E+04  7.476012E+03 -4.046497E+05 -3.785999E+03 -4.596291E+04
       206   3 -1.422724E+05 -6.550766E+05 -9.818158E+04 -4.780729E+05 -3.560018E+04 -5.508487E+04
       206   4  4.743333E+03 -3.967414E+04  2.135927E+04 -4.807572E+05  2.810079E+04  7.916036E+03
       206   5  2.385944E+03 -4.057689E+04  1.873806E+04 -4.047849E+05 -3.910298E+03 -1.509062E+03
       206   6  5.169529E+03 -3.969532E+04  2.331871E+04 -4.807558E+05 -3.572281E+04 -1.093204E+04
       206   7 -1.144380E+05 -5.365686E+05 -7.741479E+04 -4.783434E+05  2.797434E+04  5.262806E+04
       206   8  1.649086E+04  1.867829E+04  3.000739E+04 -4.049201E+05 -4.034609E+03  4.294893E+04
       206   9  1.525896E+05  5.760529E+05  1.448078E+05 -4.834412E+05 -3.584575E+04  3.326367E+04
       206  10  1.239095E+05  4.574591E+05  1.201245E+05 -4.831718E+05 -6.324894E-11  3.019523E-09
       206  11 -1.171869E+04 -9.982670E+04  7.472014E+03 -4.046498E+05  9.757489E-10 -8.356873E-10
       206  12 -1.422746E+05 -6.550802E+05 -9.818968E+04 -4.780744E+05  7.474503E-10 -3.521545E-09
       206  13  4.742468E+03 -3.967442E+04  2.135767E+04 -4.807573E+05  2.813540E-10  2.459354E-11
       206  14  2.385927E+03 -4.057689E+04  1.873803E+04 -4.047849E+05 -1.985260E-09  1.283844E-09
       206  15  5.168126E+03 -3.969579E+04  2.331609E+04 -4.807562E+05 -5.159907E-11 -3.839111E-10
       206  16 -1.144396E+05 -5.365718E+05 -7.742148E+04 -4.783446E+05 -1.119680E-09 -1.733850E-09
       206  17  1.649034E+04  1.867630E+04  3.000389E+04 -4.049200E+05 -4.831430E-10  1.802410E-09
       206  18  1.525879E+05  5.760514E+05  1.448033E+05 -4.834402E+05 -6.737293E-10  2.875321E-09
       206  19  1.239107E+05  4.574608E+05  1.201286E+05 -4.831727E+05 -2.822753E+04  3.683107E+04
       206  20 -1.171811E+04 -9.982443E+04  7.476012E+03 -4.046497E+05  3.785999E+03  4.596291E+04
       206  21 -1.422724E+05 -6.550766E+05 -9.818158E+04 -4.780729E+05  3.560018E+04  5.508487E+04
       206  22  4.743333E+03 -3.967414E+04  2.135927E+04 -4.807572E+05 -2.810079E+04 -7.916036E+03
       206  23  2.385944E+03 -4.057689E+04  1.873806E+04 -4.047849E+05  3.910298E+03  1.509062E+03
       206  24  5.169529E+03 -3.969532E+04  2.331871E+04 -4.807558E+05  3.572281E+04  1.093204E+04
       206  25 -1.144380E+05 -5.365686E+05 -7.741479E+04 -4.783434E+05 -2.797434E+04 -5.262806E+04
       206  26  1.649086E+04  1.867829E+04  3.000739E+04 -4.049201E+05  4.034609E+03 -4.294893E+04
       206  27  1.525896E+05  5.760529E+05  1.448078E+05 -4.834412E+05  3.584575E+04 -3.326367E+04
       207   1 -2.372982E+05 -1.034240E+06 -1.688079E+05 -4.857594E+05 -5.852123E+04 -6.910002E+04
       207   2 -3.617920E+05 -1.592186E+06 -2.795652E+05 -3.835830E+05 -6.945288E+04 -1.380835E+04
       207   3 -4.430206E+05 -2.146380E+06 -4.156260E+05 -4.302689E+05 -2.395119E+04  4.150879E+04
       207   4  1.631049E+03 -3.642684E+04  2.758082E+04 -4.800885E+05 -5.866288E+04 -1.493290E+04
       207   5  1.284885E+04 -4.522234E+04  4.459774E+04 -4.055957E+05 -6.938235E+04 -3.807327E+04
       207   6  8.090895E+04 -3.697234E+04  9.080501E+04 -4.799196E+05 -2.373734E+04 -6.113848E+04
       207   7  2.405017E+05  9.623470E+05  2.239322E+05 -4.744074E+05 -5.880340E+04  3.931954E+04
       207   8  3.873381E+05  1.504010E+06  3.686299E+05 -4.276623E+05 -6.931021E+04 -6.239769E+04
       207   9  6.045291E+05  2.076547E+06  5.969610E+05 -5.297365E+05 -2.350750E+04 -1.641338E+05
       207  10 -2.373032E+05 -1.034246E+06 -1.688233E+05 -4.857626E+05  1.152404E-09  1.481413E-09
       207  11 -3.617972E+05 -1.592188E+06 -2.795747E+05 -3.835838E+05  2.262956E-09 -1.705186E-10
       207  12 -4.430217E+05 -2.146382E+06 -4.156303E+05 -4.302681E+05  1.955446E-10 -1.630309E-09
       207  13  1.627293E+03 -3.642800E+04  2.757393E+04 -4.800893E+05  1.301655E-09  2.174655E-11
       207  14  1.284329E+04 -4.522519E+04  4.458596E+04 -4.055979E+05 -1.701247E-09  9.439395E-10
       207  15  8.090734E+04 -3.697650E+04  9.079692E+04 -4.799207E+05  5.991271E-10 -2.458924E-10
       207  16  2.404976E+05  9.623444E+05  2.239228E+05 -4.744056E+05 -3.200625E-10 -1.496647E-10
       207  17  3.873319E+05  1.504004E+06  3.686136E+05 -4.276658E+05  1.819481E-09  9.258923E-10
       207  18  6.045213E+05  2.076518E+06  5.969095E+05 -5.297396E+05  9.811808E-10  1.011840E-09
       207  19 -2.372982E+05 -1.034240E+06 -1.688079E+05 -4.857594E+05  5.852123E+04  6.910002E+04
       207  20 -3.617920E+05 -1.592186E+06 -2.795652E+05 -3.835830E+05  6.945288E+04  1.380835E+04
       207  21 -4.430206E+05 -2.146380E+06 -4.156260E+05 -4.302689E+05  2.395119E+04 -4.150879E+04
       207  22  1.631049E+03 -3.642684E+04  2.758082E+04 -4.800885E+05  5.866288E+04  1.493290E+04
       207  23  1.284885E+04 -4.522234E+04  4.459774E+04 -4.055957E+05  6.938235E+04  3.807327E+04
       207  24  8.090895E+04 -3.697234E+04  9.080501E+04 -4.799196E+05  2.373734E+04  6.113848E+04
       207  25  2.405017E+05  9.623470E+05  2.239322E+05 -4.744074E+05  5.880340E+04 -3.931954E+04
       207  26  3.873381E+05  1.504010E+06  3.686299E+05 -4.276623E+05  6.931021E+04  6.239769E+04
       207  27  6.045291E+05  2.076547E+06  5.969610E+05 -5.297365E+05  2.350750E+04  1.641338E+05
       208   1 -2.218563E+06 -8.780081E+05 -4.953957E+05 -8.503197E+05 -2.046706E+05 -5.772984E+04
       208   2 -2.117803E+06 -6.404778E+05 -3.176545E+05 -8.092698E+05 -1.299770E+05  1.320487E+04
       208   3 -2.054319E+06 -5.524886E+05 -2.407781E+05 -7.630895E+05 -4.338209E+04  5.259084E+04
       208   4 -1.159347E+06 -3.893195E+05 -2.009124E+05 -4.681695E+05 -1.355194E+05 -3.175738E+04
       208   5 -1.133649E+06 -2.402050E+05 -9.080458E+04 -5.001754E+05 -1.017561E+05  2.379508E+04
       208   6 -1.137013E+06 -2.323914E+05 -4.896099E+04 -5.270813E+05 -5.611674E+04  4.779985E+04
       208   7 -9.902425E+04  9.960789E+04  9.348235E+04 -8.537578E+04 -6.624003E+04 -5.711282E+03
       208   8 -1.485117E+05  1.601994E+05  1.359828E+05 -1.906106E+05 -7.348664E+04  3.440772E+04
       208   9 -2.188376E+05  8.775765E+04  1.428139E+05 -2.907573E+05 -6.887186E+04  4.300207E+04
       208  10 -2.218609E+06 -8.780230E+05 -4.954811E+05 -8.503292E+05 -3.575413E-10  3.467630E-10
       208  11 -2.117822E+06 -6.404825E+05 -3.176867E+05 -8.092685E+05  2.307258E-10  3.328191E-10
       208  12 -2.054322E+06 -5.524921E+05 -2.407868E+05 -7.630877E+05  6.789560E-10 -1.318684E-10
       208  13 -1.159367E+06 -3.893255E+05 -2.009489E+05 -4.681730E+05 -3.567148E-10  5.322600E-10
       208  14 -1.133660E+06 -2.402084E+05 -9.082513E+04 -5.001735E+05 -1.170044E-09  5.700816E-10
       208  15 -1.137017E+06 -2.323947E+05 -4.897120E+04 -5.270791E+05  1.708428E-09 -5.290908E-10
       208  16 -9.902897E+04  9.960668E+04  9.347404E+04 -8.537608E+04  2.582640E-10  1.385457E-10
       208  17 -1.485178E+05  1.601967E+05  1.359705E+05 -1.906085E+05 -1.070786E-10 -1.221259E-09
       208  18 -2.188432E+05  8.775440E+04  1.428016E+05 -2.907549E+05 -1.203849E-09 -7.007539E-10
       208  19 -2.218563E+06 -8.780081E+05 -4.953957E+05 -8.503197E+05  2.046706E+05  5.772984E+04
       208  20 -2.117803E+06 -6.404778E+05 -3.176545E+05 -8.092698E+05  1.299770E+05 -1.320487E+04
       208  21 -2.054319E+06 -5.524886E+05 -2.407781E+05 -7.630895E+05  4.338209E+04 -5.259084E+04
       208  22 -1.159347E+06 -3.893195E+05 -2.009124E+05 -4.681695E+05  1.355194E+05  3.175738E+04
       208  23 -1.133649E+06 -2.402050E+05 -9.080458E+04 -5.001754E+05  1.017561E+05 -2.379508E+04
       208  24 -1.137013E+06 -2.323914E+05 -4.896099E+04 -5.270813E+05  5.611674E+04 -4.779985E+04
       208  25 -9.902425E+04  9.960789E+04  9.348235E+04 -8.537578E+04  6.624003E+04  5.711282E+03
       208  26 -1.485117E+05  1.601994E+05  1.359828E+05 -1.906106E+05  7.348664E+04 -3.440772E+04
       208  27 -2.188376E+05  8.775765E+04  1.428139E+05 -2.907573E+05  6.887186E+04 -4.300207E+04
       209   1 -1.956368E+06 -5.454839E+05 -2.131780E+05 -7.519840E+05 -4.260881E+04  4.673922E+04
       209   2 -1.856942E+06 -4.859778E+05 -1.700993E+05 -7.084911E+05 -2.810197E+04  4.605359E+04
       209   3 -1.737774E+06 -4.555496E+05 -1.378118E+05 -6.907760E+05 -1.287838E+04  4.345032E+04
       209   4 -1.130666E+06 -2.400723E+05 -3.766394E+04 -5.216314E+05 -4.837215E+04  4.456790E+04
       209   5 -1.140308E+06 -2.226568E+05 -1.988652E+04 -5.098999E+05 -3.634421E+04  4.295502E+04
       209   6 -1.129722E+06 -2.338204E+05 -1.092172E+04 -5.239486E+05 -2.360236E+04  3.942477E+04
       209   7 -3.042677E+05  6.539756E+04  1.378118E+05 -2.909950E+05 -5.414377E+04  4.239343E+04
       209   8 -4.231497E+05  4.070616E+04  1.302978E+05 -3.110975E+05 -4.459669E+04  3.985260E+04
       209   9 -5.212959E+05 -1.206323E+04  1.159477E+05 -3.569719E+05 -3.433761E+04  3.539505E+04
       209  10 -1.956370E+06 -5.454867E+05 -2.131855E+05 -7.519824E+05  7.446239E-11 -4.939998E-10
       209  11 -1.856944E+06 -4.859803E+05 -1.701047E+05 -7.084901E+05  1.706837E-10  2.334184E-10
       209  12 -1.737775E+06 -4.555517E+05 -1.378157E+05 -6.907755E+05  5.945461E-10  3.192670E-10
       209  13 -1.130669E+06 -2.400751E+05 -3.767207E+04 -5.216296E+05 -7.055965E-10 -5.716916E-10
       209  14 -1.140310E+06 -2.226591E+05 -1.989247E+04 -5.098986E+05  2.149552E-10 -1.491220E-10
       209  15 -1.129723E+06 -2.338222E+05 -1.092569E+04 -5.239478E+05 -4.929703E-10  1.729135E-10
       209  16 -3.042713E+05  6.539484E+04  1.378029E+05 -2.909931E+05 -1.041787E-10 -1.635584E-10
       209  17 -4.231523E+05  4.070393E+04  1.302911E+05 -3.110960E+05 -8.706381E-10 -3.633722E-10
       209  18 -5.212975E+05 -1.206489E+04  1.159431E+05 -3.569709E+05 -1.185807E-09  2.588914E-11
       209  19 -1.956368E+06 -5.454839E+05 -2.131780E+05 -7.519840E+05  4.260881E+04 -4.673922E+04
       209  20 -1.856942E+06 -4.859778E+05 -1.700993E+05 -7.084911E+05  2.810197E+04 -4.605359E+04
       209  21 -1.737774E+06 -4.555496E+05 -1.378118E+05 -6.907760E+05  1.287838E+04 -4.345032E+04
       209  22 -1.130666E+06 -2.400723E+05 -3.766394E+04 -5.216314E+05  4.837215E+04 -4.456790E+04
       209  23 -1.140308E+06 -2.226568E+05 -1.988652E+04 -5.098999E+05  3.634421E+04 -4.295502E+04
       209  24 -1.129722E+06 -2.338204E+05 -1.092172E+04 -5.239486E+05  2.360236E+04 -3.942477E+04
       209  25 -3.042677E+05  6.539756E+04  1.378118E+05 -2.909950E+05  5.414377E+04 -4.239343E+04
       209  26 -4.231497E+05  4.070616E+04  1.302978E+05 -3.110975E+05  4.459669E+04 -3.985260E+04
       209  27 -5.212959E+05 -1.206323E+04  1.159477E+05 -3.569719E+05  3.433761E+04 -3.539505E+04
       210   1 -1.659477E+06 -4.280797E+05 -1.184085E+05 -6.699342E+05 -9.949645E+03  3.909106E+04
       210   2 -1.560313E+06 -3.755848E+05 -9.184083E+04 -6.259049E+05 -4.526514E+03  3.200079E+04
       210   3 -1.437968E+06 -3.469114E+05 -6.713399E+04 -6.088827E+05  9.406583E+02  2.478394E+04
       210   4 -1.129241E+06 -2.341403E+05 -8.233811E+03 -5.236956E+05 -2.027169E+04  3.521822E+04
       210   5 -1.140807E+06 -2.221370E+05 -4.532880E+03 -5.102229E+05 -1.501158E+04  2.806924E+04
       210   6 -1.129176E+06 -2.339236E+05 -2.563344E+03 -5.237617E+05 -9.707934E+03  2.079360E+04
       210   7 -5.987119E+05 -4.017599E+04  1.019275E+05 -3.773406E+05 -3.060333E+04  3.134180E+04
       210   8 -7.211191E+05 -6.867399E+04  8.276660E+04 -3.944683E+05 -2.550434E+04  2.413482E+04
       210   9 -8.202869E+05 -1.209279E+05  6.200265E+04 -4.386015E+05 -2.036224E+04  1.680111E+04
       210  10 -1.659478E+06 -4.280814E+05 -1.184115E+05 -6.699339E+05  6.628192E-10 -1.345780E-10
       210  11 -1.560313E+06 -3.755859E+05 -9.184279E+04 -6.259048E+05 -2.755590E-10 -5.583993E-10
       210  12 -1.437968E+06 -3.469120E+05 -6.713514E+04 -6.088827E+05 -6.208777E-10  8.253116E-11
       210  13 -1.129242E+06 -2.341417E+05 -8.236912E+03 -5.236951E+05  9.356706E-10  2.330171E-10
       210  14 -1.140808E+06 -2.221379E+05 -4.534783E+03 -5.102226E+05  5.800059E-12 -5.846018E-10
       210  15 -1.129177E+06 -2.339241E+05 -2.564333E+03 -5.237615E+05 -4.668696E-10 -1.141928E-10
       210  16 -5.987132E+05 -4.017730E+04  1.019239E+05 -3.773398E+05 -1.411356E-09 -1.436620E-11
       210  17 -7.211200E+05 -6.867479E+04  8.276428E+04 -3.944678E+05 -1.100103E-09 -1.435739E-10
       210  18 -8.202874E+05 -1.209283E+05  6.200134E+04 -4.386013E+05 -6.965956E-10  4.514360E-10
       210  19 -1.659477E+06 -4.280797E+05 -1.184085E+05 -6.699342E+05  9.949645E+03 -3.909106E+04
       210  20 -1.560313E+06 -3.755848E+05 -9.184083E+04 -6.259049E+05  4.526514E+03 -3.200079E+04
       210  21 -1.437968E+06 -3.469114E+05 -6.713399E+04 -6.088827E+05 -9.406583E+02 -2.478394E+04
       210  22 -1.129241E+06 -2.341403E+05 -8.233811E+03 -5.236956E+05  2.027169E+04 -3.521822E+04
       210  23 -1.140807E+06 -2.221370E+05 -4.532880E+03 -5.102229E+05  1.501158E+04 -2.806924E+04
       210  24 -1.129176E+06 -2.339236E+05 -2.563344E+03 -5.237617E+05  9.707934E+03 -2.079360E+04
       210  25 -5.987119E+05 -4.017599E+04  1.019275E+05 -3.773406E+05  3.060333E+04 -3.134180E+04
       210  26 -7.211191E+05 -6.867399E+04  8.276660E+04 -3.944683E+05  2.550434E+04 -2.413482E+04
       210  27 -8.202869E+05 -1.209279E+05  6.200265E+04 -4.386015E+05  2.036224E+04 -1.680111E+04
       211   1 -1.360384E+06 -3.184726E+05 -4.975510E+04 -5.875641E+05  3.087431E+03  2.015332E+04
       211   2 -1.261080E+06 -2.660937E+05 -2.626709E+04 -5.433697E+05  6.794682E+03  1.221567E+04
       211   3 -1.138255E+06 -2.373326E+05 -3.260642E+03 -5.262542E+05  1.050459E+04  4.267940E+03
       211   4 -1.129104E+06 -2.339366E+05 -1.982308E+03 -5.237544E+05 -7.545753E+03  1.616972E+04
       211   5 -1.140855E+06 -2.221240E+05 -1.264079E+03 -5.102123E+05 -3.852166E+03  8.227666E+03
       211   6 -1.129094E+06 -2.339273E+05 -1.016645E+03 -5.237540E+05 -1.560432E+02  2.754861E+02
       211   7 -8.977712E+05 -1.493968E+05  4.578768E+04 -4.599231E+05 -1.818313E+04  1.218455E+04
       211   8 -1.020615E+06 -1.781529E+05  2.373865E+04 -4.770490E+05 -1.450124E+04  4.238828E+03
       211   9 -1.119933E+06 -2.305218E+05  1.227853E+03 -5.212537E+05 -1.081692E+04 -3.717062E+03
       211  10 -1.360384E+06 -3.184730E+05 -4.975588E+04 -5.875641E+05 -9.634976E-11  3.500086E-10
       211  11 -1.261081E+06 -2.660939E+05 -2.626746E+04 -5.433697E+05 -1.049809E-10  7.832499E-10
       211  12 -1.138255E+06 -2.373327E+05 -3.260884E+03 -5.262542E+05  5.456421E-10  5.966797E-10
       211  13 -1.129105E+06 -2.339369E+05 -1.982906E+03 -5.237543E+05 -1.118907E-09 -2.704067E-11
       211  14 -1.140855E+06 -2.221241E+05 -1.264234E+03 -5.102123E+05 -7.018361E-10  4.935286E-10
       211  15 -1.129094E+06 -2.339273E+05 -1.016645E+03 -5.237540E+05 -3.064951E-10  6.261509E-11
       211  16 -8.977716E+05 -1.493970E+05  4.578678E+04 -4.599229E+05 -6.823034E-11  6.520179E-10
       211  17 -1.020615E+06 -1.781530E+05  2.373822E+04 -4.770490E+05 -1.338583E-09 -9.088914E-12
       211  18 -1.119934E+06 -2.305218E+05  1.227607E+03 -5.212537E+05 -1.321150E-09 -7.693581E-10
       211  19 -1.360384E+06 -3.184726E+05 -4.975510E+04 -5.875641E+05 -3.087431E+03 -2.015332E+04
       211  20 -1.261080E+06 -2.660937E+05 -2.626709E+04 -5.433697E+05 -6.794682E+03 -1.221567E+04
       211  21 -1.138255E+06 -2.373326E+05 -3.260642E+03 -5.262542E+05 -1.050459E+04 -4.267940E+03
       211  22 -1.129104E+06 -2.339366E+05 -1.982308E+03 -5.237544E+05  7.545753E+03 -1.616972E+04
       211  23 -1.140855E+06 -2.221240E+05 -1.264079E+03 -5.102123E+05  3.852166E+03 -8.227666E+03
       211  24 -1.129094E+06 -2.339273E+05 -1.016645E+03 -5.237540E+05  1.560432E+02 -2.754861E+02
       211  25 -8.977712E+05 -1.493968E+05  4.578768E+04 -4.599231E+05  1.818313E+04 -1.218455E+04
       211  26 -1.020615E+06 -1.781529E+05  2.373865E+04 -4.770490E+05  1.450124E+04 -4.238828E+03
       211  27 -1.119933E+06 -2.305218E+05  1.227853E+03 -5.212537E+05  1.081692E+04  3.717062E+03
       212   1 -1.060655E+06 -2.088253E+05  1.354172E+04 -5.048839E+05  1.246092E+04 -4.369570E+02
       212   2 -9.613633E+05 -1.564744E+05  3.597338E+04 -4.606883E+05  1.618502E+04 -8.375540E+03
       212   3 -8.385576E+05 -1.277306E+05  5.791342E+04 -4.435634E+05  1.990623E+04 -1.630196E+04
       212   4 -1.129098E+06 -2.339270E+05 -1.031930E+03 -5.237523E+05  1.800554E+03 -4.429430E+03
       212   5 -1.140856E+06 -2.221304E+05 -1.350152E+03 -5.102141E+05  5.539000E+03 -1.236371E+04
       212   6 -1.129115E+06 -2.339451E+05 -2.171271E+03 -5.237519E+05  9.274418E+03 -2.028583E+04
       212   7 -1.197536E+06 -2.590283E+05 -1.560535E+04 -5.426187E+05 -8.858540E+03 -8.421427E+03
       212   8 -1.320315E+06 -2.877833E+05 -3.867471E+04 -5.597264E+05 -5.103656E+03 -1.635062E+04
       212   9 -1.419583E+06 -3.401517E+05 -6.225929E+04 -6.039052E+05 -1.351950E+03 -2.426765E+04
       212  10 -1.060655E+06 -2.088253E+05  1.354143E+04 -5.048839E+05 -1.118338E-09 -3.586687E-10
       212  11 -9.613636E+05 -1.564745E+05  3.597275E+04 -4.606882E+05  6.737002E-09  2.210713E-09
       212  12 -8.385581E+05 -1.277310E+05  5.791217E+04 -4.435631E+05  7.767197E-09  8.445867E-10
       212  13 -1.129098E+06 -2.339271E+05 -1.031973E+03 -5.237523E+05  3.604154E-09  6.099830E-10
       212  14 -1.140856E+06 -2.221305E+05 -1.350497E+03 -5.102140E+05  4.906799E-09  2.291221E-09
       212  15 -1.129115E+06 -2.339456E+05 -2.172206E+03 -5.237518E+05  2.698915E-09  7.399477E-10
       212  16 -1.197536E+06 -2.590284E+05 -1.560563E+04 -5.426188E+05  5.464794E-09  1.273411E-09
       212  17 -1.320315E+06 -2.877836E+05 -3.867527E+04 -5.597264E+05  7.865623E-09  2.572752E-09
       212  18 -1.419583E+06 -3.401523E+05 -6.226040E+04 -6.039052E+05 -1.204680E-09  2.573520E-10
       212  19 -1.060655E+06 -2.088253E+05  1.354172E+04 -5.048839E+05 -1.246092E+04  4.369570E+02
       212  20 -9.613633E+05 -1.564744E+05  3.597338E+04 -4.606883E+05 -1.618502E+04  8.375540E+03
       212  21 -8.385576E+05 -1.277306E+05  5.791342E+04 -4.435634E+05 -1.990623E+04  1.630196E+04
       212  22 -1.129098E+06 -2.339270E+05 -1.031930E+03 -5.237523E+05 -1.800554E+03  4.429430E+03
       212  23 -1.140856E+06 -2.221304E+05 -1.350152E+03 -5.102141E+05 -5.539000E+03  1.236371E+04
       212  24 -1.129115E+06 -2.339451E+05 -2.171271E+03 -5.237519E+05 -9.274418E+03  2.028583E+04
       212  25 -1.197536E+06 -2.590283E+05 -1.560535E+04 -5.426187E+05  8.858540E+03  8.421427E+03
       212  26 -1.320315E+06 -2.877833E+05 -3.867471E+04 -5.597264E+05  5.103656E+03  1.635062E+04
       212  27 -1.419583E+06 -3.401517E+05 -6.225929E+04 -6.039052E+05  1.351950E+03  2.426765E+04
       213   1 -7.611209E+05 -9.927302E+04  7.404871E+04 -4.222476E+05  2.212135E+04 -2.090187E+04
       213   2 -6.620253E+05 -4.706152E+04  9.456780E+04 -3.781441E+05  2.749320E+04 -2.813897E+04
       213   3 -5.397425E+05 -1.860507E+04  1.133082E+05 -3.610162E+05  3.281957E+04 -3.524156E+04
       213   4 -1.129197E+06 -2.339294E+05 -2.822773E+03 -5.237565E+05  1.147332E+04 -2.489298E+04
       213   5 -1.140802E+06 -2.221543E+05 -5.017759E+03 -5.102278E+05  1.701618E+04 -3.206885E+04
       213   6 -1.129269E+06 -2.341719E+05 -9.128693E+03 -5.236824E+05  2.251306E+04 -3.911027E+04
       213   7 -1.497137E+06 -3.685757E+05 -7.970188E+04 -6.252106E+05  8.320186E+02 -2.888158E+04
       213   8 -1.619346E+06 -3.972288E+05 -1.046156E+05 -6.422182E+05  6.547821E+03 -3.599549E+04
       213   9 -1.718439E+06 -4.497102E+05 -1.315837E+05 -6.862061E+05  1.221711E+04 -4.297505E+04
       213  10 -7.611215E+05 -9.927362E+04  7.404697E+04 -4.222472E+05  1.025352E-09 -1.171864E-09
       213  11 -6.620263E+05 -4.706257E+04  9.456490E+04 -3.781434E+05 -5.569823E-11  9.964558E-11
       213  12 -5.397440E+05 -1.860669E+04  1.133038E+05 -3.610153E+05  3.295286E-11  3.981693E-11
       213  13 -1.129197E+06 -2.339301E+05 -2.824184E+03 -5.237563E+05 -1.009580E-09 -1.992479E-10
       213  14 -1.140803E+06 -2.221554E+05 -5.020234E+03 -5.102274E+05 -2.726005E-09 -6.452586E-10
       213  15 -1.129270E+06 -2.341737E+05 -9.132518E+03 -5.236817E+05 -1.202035E-09 -3.003212E-10
       213  16 -1.497137E+06 -3.685766E+05 -7.970345E+04 -6.252106E+05 -1.524848E-09  4.631336E-10
       213  17 -1.619347E+06 -3.972302E+05 -1.046182E+05 -6.422180E+05 -9.195918E-10 -3.949388E-10
       213  18 -1.718440E+06 -4.497122E+05 -1.315874E+05 -6.862057E+05 -9.377830E-10 -2.104433E-10
       213  19 -7.611209E+05 -9.927302E+04  7.404871E+04 -4.222476E+05 -2.212135E+04  2.090187E+04
       213  20 -6.620253E+05 -4.706152E+04  9.456780E+04 -3.781441E+05 -2.749320E+04  2.813897E+04
       213  21 -5.397425E+05 -1.860507E+04  1.133082E+05 -3.610162E+05 -3.281957E+04  3.524156E+04
       213  22 -1.129197E+06 -2.339294E+05 -2.822773E+03 -5.237565E+05 -1.147332E+04  2.489298E+04
       213  23 -1.140802E+06 -2.221543E+05 -5.017759E+03 -5.102278E+05 -1.701618E+04  3.206885E+04
       213  24 -1.129269E+06 -2.341719E+05 -9.128693E+03 -5.236824E+05 -2.251306E+04  3.911027E+04
       213  25 -1.497137E+06 -3.685757E+05 -7.970188E+04 -6.252106E+05 -8.320186E+02  2.888158E+04
       213  26 -1.619346E+06 -3.972288E+05 -1.046156E+05 -6.422182E+05 -6.547821E+03  3.599549E+04
       213  27 -1.718439E+06 -4.497102E+05 -1.315837E+05 -6.862061E+05 -1.221711E+04  4.297505E+04
       214   1 -4.624073E+05  9.444867E+03  1.270096E+05 -3.407734E+05  3.673999E+04 -3.922047E+04
       214   2 -3.644286E+05  6.223891E+04  1.403831E+05 -2.947245E+05  4.795002E+04 -4.325926E+04
       214   3 -2.460758E+05  8.643240E+04  1.460520E+05 -2.743029E+05  5.841187E+04 -4.528487E+04
       214   4 -1.129808E+06 -2.338211E+05 -1.211399E+04 -5.239689E+05  2.601039E+04 -4.325002E+04
       214   5 -1.140249E+06 -2.227239E+05 -2.205891E+04 -5.098657E+05  3.982677E+04 -4.631514E+04
       214   6 -1.130849E+06 -2.407523E+05 -4.178381E+04 -5.213967E+05  5.289291E+04 -4.736636E+04
       214   7 -1.796747E+06 -4.770494E+05 -1.512597E+05 -7.069818E+05  1.529330E+04 -4.727493E+04
       214   8 -1.915453E+06 -5.076363E+05 -1.845333E+05 -7.247587E+05  3.171444E+04 -4.936691E+04
       214   9 -2.014829E+06 -5.678725E+05 -2.296652E+05 -7.681667E+05  4.738238E+04 -4.944466E+04
       214  10 -4.624091E+05  9.442855E+03  1.270042E+05 -3.407722E+05  1.273407E-09 -1.172719E-10
       214  11 -3.644315E+05  6.223628E+04  1.403752E+05 -2.947228E+05  2.388624E-10 -4.562319E-10
       214  12 -2.460800E+05  8.642928E+04  1.460417E+05 -2.743008E+05 -1.625113E-10 -2.144630E-10
       214  13 -1.129809E+06 -2.338233E+05 -1.211877E+04 -5.239680E+05 -5.682919E-10 -3.677541E-10
       214  14 -1.140251E+06 -2.227266E+05 -2.206592E+04 -5.098642E+05  6.626015E-10 -5.469994E-10
       214  15 -1.130852E+06 -2.407555E+05 -4.179328E+04 -5.213947E+05 -5.462606E-10  1.253979E-09
       214  16 -1.796747E+06 -4.770518E+05 -1.512643E+05 -7.069812E+05 -1.104639E-09 -5.587511E-10
       214  17 -1.915454E+06 -5.076391E+05 -1.845398E+05 -7.247574E+05  1.095295E-10 -1.767837E-10
       214  18 -2.014832E+06 -5.678757E+05 -2.296741E+05 -7.681648E+05  3.589584E-10  1.422818E-09
       214  19 -4.624073E+05  9.444867E+03  1.270096E+05 -3.407734E+05 -3.673999E+04  3.922047E+04
       214  20 -3.644286E+05  6.223891E+04  1.403831E+05 -2.947245E+05 -4.795002E+04  4.325926E+04
       214  21 -2.460758E+05  8.643240E+04  1.460520E+05 -2.743029E+05 -5.841187E+04  4.528487E+04
       214  22 -1.129808E+06 -2.338211E+05 -1.211399E+04 -5.239689E+05 -2.601039E+04  4.325002E+04
       214  23 -1.140249E+06 -2.227239E+05 -2.205891E+04 -5.098657E+05 -3.982677E+04  4.631514E+04
       214  24 -1.130849E+06 -2.407523E+05 -4.178381E+04 -5.213967E+05 -5.289291E+04  4.736636E+04
       214  25 -1.796747E+06 -4.770494E+05 -1.512597E+05 -7.069818E+05 -1.529330E+04  4.727493E+04
       214  26 -1.915453E+06 -5.076363E+05 -1.845333E+05 -7.247587E+05 -3.171444E+04  4.936691E+04
       214  27 -2.014829E+06 -5.678725E+05 -2.296652E+05 -7.681667E+05 -4.738238E+04  4.944466E+04
       215   1 -1.598740E+05  1.080673E+05  1.497729E+05 -2.764246E+05  7.412699E+04 -4.555023E+04
       215   2 -9.259680E+04  1.827005E+05  1.389535E+05 -1.700213E+05  8.166311E+04 -3.503534E+04
       215   3 -5.145530E+04  1.117753E+05  8.662418E+04 -5.509633E+04  7.674126E+04  8.578853E+03
       215   4 -1.137869E+06 -2.322504E+05 -5.431703E+04 -5.274660E+05  6.127441E+04 -5.038736E+04
       215   5 -1.132880E+06 -2.421550E+05 -1.007333E+05 -4.990497E+05  1.118790E+05 -2.368835E+04
       215   6 -1.162670E+06 -4.063161E+05 -2.228868E+05 -4.621002E+05  1.500087E+05  3.613387E+04
       215   7 -2.114889E+06 -5.725141E+05 -2.584578E+05 -7.781535E+05  4.844366E+04 -5.521730E+04
       215   8 -2.172056E+06 -6.668553E+05 -3.404866E+05 -8.275455E+05  1.420398E+05 -1.236703E+04
       215   9 -2.272630E+06 -9.241143E+05 -5.324843E+05 -8.683708E+05  2.231318E+05  6.360474E+04
       215  10 -1.598805E+05  1.080636E+05  1.497586E+05 -2.764219E+05  7.181313E-10  9.351465E-10
       215  11 -9.260429E+04  1.826974E+05  1.389387E+05 -1.700190E+05  6.272427E-11 -5.192450E-10
       215  12 -5.146165E+04  1.117737E+05  8.661297E+04 -5.509686E+04  2.031072E-10  4.914308E-10
       215  13 -1.137874E+06 -2.322541E+05 -5.432885E+04 -5.274635E+05 -8.218131E-10  6.420990E-11
       215  14 -1.132894E+06 -2.421590E+05 -1.007579E+05 -4.990475E+05  5.542927E-10 -2.761587E-09
       215  15 -1.162694E+06 -4.063236E+05 -2.229316E+05 -4.621046E+05 -7.470784E-11  1.779505E-10
       215  16 -2.114893E+06 -5.725180E+05 -2.584679E+05 -7.781513E+05 -1.769910E-09  1.057715E-09
       215  17 -2.172078E+06 -6.668609E+05 -3.405249E+05 -8.275441E+05 -5.658085E-10 -3.156529E-10
       215  18 -2.272685E+06 -9.241321E+05 -5.325859E+05 -8.683823E+05 -3.754315E-10  6.067890E-10
       215  19 -1.598740E+05  1.080673E+05  1.497729E+05 -2.764246E+05 -7.412699E+04  4.555023E+04
       215  20 -9.259680E+04  1.827005E+05  1.389535E+05 -1.700213E+05 -8.166311E+04  3.503534E+04
       215  21 -5.145530E+04  1.117753E+05  8.662418E+04 -5.509633E+04 -7.674126E+04 -8.578853E+03
       215  22 -1.137869E+06 -2.322504E+05 -5.431703E+04 -5.274660E+05 -6.127441E+04  5.038736E+04
       215  23 -1.132880E+06 -2.421550E+05 -1.007333E+05 -4.990497E+05 -1.118790E+05  2.368835E+04
       215  24 -1.162670E+06 -4.063161E+05 -2.228868E+05 -4.621002E+05 -1.500087E+05 -3.613387E+04
       215  25 -2.114889E+06 -5.725141E+05 -2.584578E+05 -7.781535E+05 -4.844366E+04  5.521730E+04
       215  26 -2.172056E+06 -6.668553E+05 -3.404866E+05 -8.275455E+05 -1.420398E+05  1.236703E+04
       215  27 -2.272630E+06 -9.241143E+05 -5.324843E+05 -8.683708E+05 -2.231318E+05 -6.360474E+04
       216   1 -2.069302E+05 -8.956696E+04 -5.640719E+04 -2.761900E+03  6.861208E+04  1.409209E+04
       216   2 -1.061453E+05 -1.954765E+05 -9.721380E+04 -4.380041E+04  5.862774E+04  4.531130E+04
       216   3  2.355169E+04 -1.918049E+05 -1.040933E+05 -1.147875E+05  4.866574E+04  5.028354E+04
       216   4  8.224827E+05  1.649344E+05  1.881141E+05 -9.856831E+04  1.304848E+05  1.413021E+04
       216   5  8.049539E+05  2.394282E+04  8.943401E+04 -8.354700E+04  8.391506E+04  4.531814E+04
       216   6  8.226134E+05 -1.220974E+03  5.002771E+04 -9.846510E+04  3.737198E+04  5.027480E+04
       216   7  1.852896E+06  4.193963E+05  4.325809E+05 -1.945345E+05  1.924595E+05  1.414923E+04
       216   8  1.716846E+06  2.433164E+05  2.760410E+05 -1.233531E+05  1.092387E+05  4.532174E+04
       216   9  1.622290E+06  1.893261E+05  2.041197E+05 -8.212124E+04  2.606399E+04  5.026547E+04
       216  10 -2.069353E+05 -8.956844E+04 -5.641642E+04 -2.762678E+03  1.128693E-09 -7.861207E-10
       216  11 -1.061495E+05 -1.954796E+05 -9.722412E+04 -4.380255E+04 -8.873035E-10  4.900743E-10
       216  12  2.354846E+04 -1.918082E+05 -1.041025E+05 -1.147895E+05 -2.214285E-09 -4.125551E-10
       216  13  8.224643E+05  1.649296E+05  1.880818E+05 -9.856979E+04  2.542369E-10  6.091718E-10
       216  14  8.049458E+05  2.393873E+04  8.941694E+04 -8.355006E+04 -3.114543E-10 -1.068751E-10
       216  15  8.226113E+05 -1.224063E+03  5.002034E+04 -9.846661E+04  1.373941E-09 -8.392791E-10
       216  16  1.852856E+06  4.193861E+05  4.325111E+05 -1.945367E+05 -8.133312E-10  3.942323E-10
       216  17  1.716833E+06  2.433110E+05  2.760148E+05 -1.233570E+05  1.058766E-09 -3.734950E-10
       216  18  1.622288E+06  1.893232E+05  2.041137E+05 -8.212229E+04  1.648447E-09  3.721560E-10
       216  19 -2.069302E+05 -8.956696E+04 -5.640719E+04 -2.761900E+03 -6.861208E+04 -1.409209E+04
       216  20 -1.061453E+05 -1.954765E+05 -9.721380E+04 -4.380041E+04 -5.862774E+04 -4.531130E+04
       216  21  2.355169E+04 -1.918049E+05 -1.040933E+05 -1.147875E+05 -4.866574E+04 -5.028354E+04
       216  22  8.224827E+05  1.649344E+05  1.881141E+05 -9.856831E+04 -1.304848E+05 -1.413021E+04
       216  23  8.049539E+05  2.394282E+04  8.943401E+04 -8.354700E+04 -8.391506E+04 -4.531814E+04
       216  24  8.226134E+05 -1.220974E+03  5.002771E+04 -9.846510E+04 -3.737198E+04 -5.027480E+04
       216  25  1.852896E+06  4.193963E+05  4.325809E+05 -1.945345E+05 -1.924595E+05 -1.414923E+04
       216  26  1.716846E+06  2.433164E+05  2.760410E+05 -1.233531E+05 -1.092387E+05 -4.532174E+04
       216  27  1.622290E+06  1.893261E+05  2.041197E+05 -8.212124E+04 -2.606399E+04 -5.026547E+04
       217   1  9.575405E+04 -1.654891E+05 -9.994007E+04 -9.694503E+04  3.705084E+04  4.555125E+04
       217   2  2.091284E+05 -1.435459E+05 -9.350177E+04 -8.290845E+04  2.891225E+04  4.010587E+04
       217   3  3.248195E+05 -1.169764E+05 -8.058602E+04 -1.001357E+05  2.076939E+04  3.288301E+04
       217   4  8.154170E+05  6.083315E+03  3.861309E+04 -9.878115E+04  3.073477E+04  4.554478E+04
       217   5  8.140770E+05  3.391318E+02  2.130796E+04 -8.314990E+04  2.010980E+04  4.010087E+04
       217   6  8.154683E+05 -3.504614E+02  1.219875E+04 -9.878033E+04  9.482020E+03  3.288031E+04
       217   7  1.535578E+06  1.776251E+05  1.771425E+05 -1.006195E+05  2.441153E+04  4.553835E+04
       217   8  1.419379E+06  1.442028E+05  1.361016E+05 -8.339158E+04  1.129896E+04  4.009589E+04
       217   9  1.306350E+06  1.162615E+05  1.049733E+05 -9.742382E+04 -1.814057E+03  3.287757E+04
       217  10  9.575202E+04 -1.654917E+05 -9.994655E+04 -9.694639E+04  2.668457E-09 -7.152162E-10
       217  11  2.091271E+05 -1.435479E+05 -9.350636E+04 -8.290938E+04  2.167963E-09 -6.714044E-10
       217  12  3.248188E+05 -1.169777E+05 -8.058886E+04 -1.001363E+05 -8.357152E-10  3.093308E-11
       217  13  8.154154E+05  6.080833E+03  3.860741E+04 -9.878228E+04  3.347660E-10  1.215136E-10
       217  14  8.140762E+05  3.372958E+02  2.130417E+04 -8.315054E+04 -1.621049E-09 -4.559049E-10
       217  15  8.154679E+05 -3.516470E+02  1.219655E+04 -9.878058E+04 -1.185849E-09  1.371756E-10
       217  16  1.535577E+06  1.776227E+05  1.771374E+05 -1.006203E+05 -2.085531E-09 -2.230618E-10
       217  17  1.419378E+06  1.442011E+05  1.360984E+05 -8.339194E+04 -9.625755E-10 -5.981242E-10
       217  18  1.306349E+06  1.162604E+05  1.049713E+05 -9.742377E+04  4.760979E-10  4.107705E-10
       217  19  9.575405E+04 -1.654891E+05 -9.994007E+04 -9.694503E+04 -3.705084E+04 -4.555125E+04
       217  20  2.091284E+05 -1.435459E+05 -9.350177E+04 -8.290845E+04 -2.891225E+04 -4.010587E+04
       217  21  3.248195E+05 -1.169764E+05 -8.058602E+04 -1.001357E+05 -2.076939E+04 -3.288301E+04
       217  22  8.154170E+05  6.083315E+03  3.861309E+04 -9.878115E+04 -3.073477E+04 -4.554478E+04
       217  23  8.140770E+05  3.391318E+02  2.130796E+04 -8.314990E+04 -2.010980E+04 -4.010087E+04
       217  24  8.154683E+05 -3.504614E+02  1.219875E+04 -9.878033E+04 -9.482020E+03 -3.288031E+04
       217  25  1.535578E+06  1.776251E+05  1.771425E+05 -1.006195E+05 -2.441153E+04 -4.553835E+04
       217  26  1.419379E+06  1.442028E+05  1.361016E+05 -8.339158E+04 -1.129896E+04 -4.009589E+04
       217  27  1.306350E+06  1.162615E+05  1.049733E+05 -9.742382E+04  1.814057E+03 -3.287757E+04
       218   1  4.025421E+05 -9.793808E+04 -6.823669E+04 -9.925241E+04  1.853204E+04  2.816526E+04
       218   2  5.166199E+05 -7.096146E+04 -5.085171E+04 -8.347274E+04  1.608636E+04  2.024675E+04
       218   3  6.311000E+05 -4.378891E+04 -3.182072E+04 -9.898532E+04  1.363824E+04  1.221076E+04
       218   4  8.149688E+05 -5.665393E+00  9.274664E+03 -9.878732E+04  7.588762E+03  2.816379E+04
       218   5  8.147707E+05 -1.489065E+02  5.280606E+03 -8.314172E+04  4.976984E+03  2.024661E+04
       218   6  8.149921E+05 -6.670322E+01  3.046970E+03 -9.878749E+04  2.363207E+03  1.221203E+04
       218   7  1.227560E+06  9.791695E+04  8.677906E+04 -9.832191E+04 -3.361605E+03  2.816230E+04
       218   8  1.113008E+06  7.065855E+04  6.140950E+04 -8.281052E+04 -6.137588E+03  2.024647E+04
       218   9  9.989171E+05  4.365359E+04  3.791363E+04 -9.858959E+04 -8.915079E+03  1.221329E+04
       218  10  4.025415E+05 -9.793902E+04 -6.823883E+04 -9.925283E+04  2.416837E-08  9.319657E-10
       218  11  5.166195E+05 -7.096197E+04 -5.085297E+04 -8.347301E+04  5.890601E-10  1.698427E-09
       218  12  6.310997E+05 -4.378912E+04 -3.182135E+04 -9.898545E+04 -2.488869E-08  1.021372E-09
       218  13  8.149685E+05 -6.532958E+00  9.273065E+03 -9.878750E+04  2.621021E-10  1.143109E-09
       218  14  8.147705E+05 -1.493535E+02  5.279789E+03 -8.314180E+04  2.189276E-09  1.853320E-09
       218  15  8.149921E+05 -6.686493E+01  3.046679E+03 -9.878751E+04  4.060571E-10  1.295973E-09
       218  16  1.227560E+06  9.791610E+04  8.677755E+04 -9.832183E+04 -2.573257E-08  1.397690E-09
       218  17  1.113007E+06  7.065810E+04  6.140865E+04 -8.281042E+04  1.091097E-09  1.980800E-09
       218  18  9.989170E+05  4.365341E+04  3.791320E+04 -9.858950E+04  2.610562E-08  1.439088E-09
       218  19  4.025421E+05 -9.793808E+04 -6.823669E+04 -9.925241E+04 -1.853204E+04 -2.816526E+04
       218  20  5.166199E+05 -7.096146E+04 -5.085171E+04 -8.347274E+04 -1.608636E+04 -2.024675E+04
       218  21  6.311000E+05 -4.378891E+04 -3.182072E+04 -9.898532E+04 -1.363824E+04 -1.221076E+04
       218  22  8.149688E+05 -5.665393E+00  9.274664E+03 -9.878732E+04 -7.588762E+03 -2.816379E+04
       218  23  8.147707E+05 -1.489065E+02  5.280606E+03 -8.314172E+04 -4.976984E+03 -2.024661E+04
       218  24  8.149921E+05 -6.670322E+01  3.046970E+03 -9.878749E+04 -2.363207E+03 -1.221203E+04
       218  25  1.227560E+06  9.791695E+04  8.677906E+04 -9.832191E+04  3.361605E+03 -2.816230E+04
       218  26  1.113008E+06  7.065855E+04  6.140950E+04 -8.281052E+04  6.137588E+03 -2.024647E+04
       218  27  9.989171E+05  4.365359E+04  3.791363E+04 -9.858959E+04  8.915079E+03 -1.221329E+04
       219   1  7.090958E+05 -2.511857E+04 -1.731602E+04 -9.893042E+04  1.312676E+04  7.500787E+03
       219   2  8.232597E+05  1.956517E+03  2.920568E+03 -8.324366E+04  1.247151E+04 -5.780221E+02
       219   3  9.375289E+05  2.904017E+04  2.358574E+04 -9.883420E+04  1.181620E+04 -8.664572E+03
       219   4  8.149241E+05 -4.413554E+01  2.318575E+03 -9.878437E+04  1.876247E+03  7.502453E+03
       219   5  8.148776E+05 -3.264749E+01  1.348957E+03 -8.314572E+04  1.209048E+03 -5.764105E+02
       219   6  8.149238E+05 -1.044606E+01  8.154162E+02 -9.878440E+04  5.418991E+02 -8.662984E+03
       219   7  9.207636E+05  2.502973E+04  2.195317E+04 -9.863829E+04 -9.376133E+03  7.504113E+03
       219   8  8.064958E+05 -2.021748E+03 -2.221802E+02 -8.304778E+04 -1.005327E+04 -5.748025E+02
       219   9  6.923335E+05 -2.906185E+04 -2.195506E+04 -9.873462E+04 -1.073024E+04 -8.661397E+03
       219  10  7.090956E+05 -2.511868E+04 -1.731645E+04 -9.893050E+04  1.431636E-10  2.230800E-10
       219  11  8.232595E+05  1.956475E+03  2.920276E+03 -8.324365E+04  1.725350E-10 -3.281522E-10
       219  12  9.375287E+05  2.904005E+04  2.358533E+04 -9.883411E+04 -3.871187E-10 -1.745524E-10
       219  13  8.149241E+05 -4.419695E+01  2.318462E+03 -9.878438E+04 -5.555335E-10  3.704657E-10
       219  14  8.148776E+05 -3.264824E+01  1.348954E+03 -8.314572E+04  2.010680E-09 -4.844867E-10
       219  15  8.149238E+05 -1.052676E+01  8.152745E+02 -9.878440E+04  7.914372E-11 -4.649015E-10
       219  16  9.207635E+05  2.502964E+04  2.195290E+04 -9.863824E+04  1.616964E-09  5.334901E-10
       219  17  8.064957E+05 -2.021775E+03 -2.223705E+02 -8.304779E+04  1.831646E-09 -5.163892E-10
       219  18  6.923334E+05 -2.906197E+04 -2.195542E+04 -9.873469E+04  1.355078E-09 -6.006050E-10
       219  19  7.090958E+05 -2.511857E+04 -1.731602E+04 -9.893042E+04 -1.312676E+04 -7.500787E+03
       219  20  8.232597E+05  1.956517E+03  2.920568E+03 -8.324366E+04 -1.247151E+04  5.780221E+02
       219  21  9.375289E+05  2.904017E+04  2.358574E+04 -9.883420E+04 -1.181620E+04  8.664572E+03
       219  22  8.149241E+05 -4.413554E+01  2.318575E+03 -9.878437E+04 -1.876247E+03 -7.502453E+03
       219  23  8.148776E+05 -3.264749E+01  1.348957E+03 -8.314572E+04 -1.209048E+03  5.764105E+02
       219  24  8.149238E+05 -1.044606E+01  8.154162E+02 -9.878440E+04 -5.418991E+02  8.662984E+03
       219  25  9.207636E+05  2.502973E+04  2.195317E+04 -9.863829E+04  9.376133E+03 -7.504113E+03
       219  26  8.064958E+05 -2.021748E+03 -2.221802E+02 -8.304778E+04  1.005327E+04  5.748025E+02
       219  27  6.923335E+05 -2.906185E+04 -2.195506E+04 -9.873462E+04  1.073024E+04  8.661397E+03
       220   1  1.015599E+06  4.768169E+04  3.865295E+04 -9.883828E+04  1.168581E+04 -1.337395E+04
       220   2  1.129898E+06  7.473977E+04  5.967729E+04 -8.314848E+04  1.145215E+04 -2.146246E+04
       220   3  1.244265E+06  1.017964E+05  8.085813E+04 -9.876079E+04  1.122065E+04 -2.954530E+04
       220   4  8.149103E+05 -1.448065E+01  6.515582E+02 -9.879012E+04  4.075797E+02 -1.337281E+04
       220   5  8.148714E+05 -3.923388E+01  4.579147E+02 -8.313859E+04  1.809382E+02 -2.146280E+04
       220   6  8.148871E+05 -6.609551E+01  4.157724E+02 -9.879013E+04 -4.349859E+01 -2.954709E+04
       220   7  6.142605E+05 -4.771293E+04 -3.735114E+04 -9.874198E+04 -1.086710E+04 -1.337167E+04
       220   8  4.999413E+05 -7.482392E+04 -5.876531E+04 -8.312871E+04 -1.108470E+04 -2.146314E+04
       220   9  3.856878E+05 -1.019392E+05 -8.003408E+04 -9.881944E+04 -1.130007E+04 -2.954887E+04
       220  10  1.015599E+06  4.768146E+04  3.865236E+04 -9.883815E+04 -3.186054E-10 -4.715770E-11
       220  11  1.129897E+06  7.473924E+04  5.967618E+04 -8.314828E+04  9.955113E-11 -3.242985E-10
       220  12  1.244264E+06  1.017954E+05  8.085625E+04 -9.876052E+04 -1.544649E-09 -9.379689E-10
       220  13  8.149102E+05 -1.467280E+01  6.512217E+02 -9.879012E+04  1.708267E-09 -3.474483E-10
       220  14  8.148713E+05 -3.972874E+01  4.570487E+02 -8.313859E+04  1.702566E-09 -5.005066E-10
       220  15  8.148869E+05 -6.703336E+01  4.141312E+02 -9.879013E+04  5.456114E-10 -6.026471E-10
       220  16  6.142604E+05 -4.771315E+04 -3.735170E+04 -9.874209E+04  9.891718E-10 -5.619502E-10
       220  17  4.999410E+05 -7.482444E+04 -5.876641E+04 -8.312890E+04  1.036981E-10 -6.229142E-10
       220  18  3.856874E+05 -1.019401E+05 -8.003596E+04 -9.881971E+04  5.632150E-10 -2.240805E-10
       220  19  1.015599E+06  4.768169E+04  3.865295E+04 -9.883828E+04 -1.168581E+04  1.337395E+04
       220  20  1.129898E+06  7.473977E+04  5.967729E+04 -8.314848E+04 -1.145215E+04  2.146246E+04
       220  21  1.244265E+06  1.017964E+05  8.085813E+04 -9.876079E+04 -1.122065E+04  2.954530E+04
       220  22  8.149103E+05 -1.448065E+01  6.515582E+02 -9.879012E+04 -4.075797E+02  1.337281E+04
       220  23  8.148714E+05 -3.923388E+01  4.579147E+02 -8.313859E+04 -1.809382E+02  2.146280E+04
       220  24  8.148871E+05 -6.609551E+01  4.157724E+02 -9.879013E+04  4.349859E+01  2.954709E+04
       220  25  6.142605E+05 -4.771293E+04 -3.735114E+04 -9.874198E+04  1.086710E+04  1.337167E+04
       220  26  4.999413E+05 -7.482392E+04 -5.876531E+04 -8.312871E+04  1.108470E+04  2.146314E+04
       220  27  3.856878E+05 -1.019392E+05 -8.003408E+04 -9.881944E+04  1.130007E+04  2.954887E+04
       221   1  1.322504E+06  1.204543E+05  9.614259E+04 -9.874769E+04  1.118205E+04 -3.426133E+04
       221   2  1.437041E+06  1.475516E+05  1.176213E+05 -8.295578E+04  1.068302E+04 -4.229226E+04
       221   3  1.551755E+06  1.746946E+05  1.394566E+05 -9.853311E+04  1.018815E+04 -5.017350E+04
       221   4  8.148895E+05 -8.349504E+01  4.444711E+02 -9.880526E+04 -1.208368E+02 -3.426442E+04
       221   5  8.148009E+05 -1.406900E+02  5.922600E+02 -8.311968E+04 -4.117094E+02 -4.229821E+04
       221   6  8.148434E+05 -1.871728E+02  9.528492E+02 -9.880523E+04 -6.983232E+02 -5.018219E+04
       221   7  3.075234E+05 -1.206362E+05 -9.526449E+04 -9.886276E+04 -1.141473E+04 -3.426750E+04
       221   8  1.929347E+05 -1.478554E+05 -1.164532E+05 -8.328340E+04 -1.149561E+04 -4.230415E+04
       221   9  7.845526E+04 -1.751004E+05 -1.375741E+05 -9.907703E+04 -1.157222E+04 -5.019088E+04
       221  10  1.322504E+06  1.204530E+05  9.614015E+04 -9.874738E+04 -1.323954E-09 -6.017176E-10
       221  11  1.437040E+06  1.475497E+05  1.176177E+05 -8.295541E+04 -1.345993E-09 -8.840035E-10
       221  12  1.551755E+06  1.746919E+05  1.394516E+05 -9.853270E+04 -9.517703E-10 -1.724712E-10
       221  13  8.148892E+05 -8.475625E+01  4.422640E+02 -9.880526E+04  5.555543E-10 -1.943567E-10
       221  14  8.148004E+05 -1.426120E+02  5.888962E+02 -8.311969E+04  8.742041E-10  8.079700E-11
       221  15  8.148427E+05 -1.898781E+02  9.481142E+02 -9.880526E+04 -4.582807E-10 -3.124730E-10
       221  16  3.075229E+05 -1.206375E+05 -9.526694E+04 -9.886307E+04  1.496417E-09  2.022748E-10
       221  17  1.929340E+05 -1.478573E+05 -1.164568E+05 -8.328380E+04 -8.347165E-10  6.871331E-10
       221  18  7.845444E+04 -1.751031E+05 -1.375791E+05 -9.907750E+04 -3.425736E-10  4.213629E-10
       221  19  1.322504E+06  1.204543E+05  9.614259E+04 -9.874769E+04 -1.118205E+04  3.426133E+04
       221  20  1.437041E+06  1.475516E+05  1.176213E+05 -8.295578E+04 -1.068302E+04  4.229226E+04
       221  21  1.551755E+06  1.746946E+05  1.394566E+05 -9.853311E+04 -1.018815E+04  5.017350E+04
       221  22  8.148895E+05 -8.349504E+01  4.444711E+02 -9.880526E+04  1.208368E+02  3.426442E+04
       221  23  8.148009E+05 -1.406900E+02  5.922600E+02 -8.311968E+04  4.117094E+02  4.229821E+04
       221  24  8.148434E+05 -1.871728E+02  9.528492E+02 -9.880523E+04  6.983232E+02  5.018219E+04
       221  25  3.075234E+05 -1.206362E+05 -9.526449E+04 -9.886276E+04  1.141473E+04  3.426750E+04
       221  26  1.929347E+05 -1.478554E+05 -1.164532E+05 -8.328340E+04  1.149561E+04  4.230415E+04
       221  27  7.845526E+04 -1.751004E+05 -1.375741E+05 -9.907703E+04  1.157222E+04  5.019088E+04
       222   1  1.630398E+06  1.933906E+05  1.550603E+05 -9.836521E+04  1.045561E+04 -5.490318E+04
       222   2  1.744999E+06  2.207839E+05  1.782541E+05 -8.264709E+04  6.185528E+03 -6.187750E+04
       222   3  1.860627E+06  2.492149E+05  2.045296E+05 -9.827444E+04  1.918072E+03 -6.653261E+04
       222   4  8.148904E+05 -2.462931E+02  1.231555E+03 -9.880007E+04 -8.876093E+02 -5.491420E+04
       222   5  8.146296E+05 -2.480522E+02  2.086461E+03 -8.312605E+04 -1.921088E+03 -6.189055E+04
       222   6  8.148210E+05  2.279036E+02  3.780310E+03 -9.880038E+04 -2.951125E+03 -6.654598E+04
       222   7  2.411137E+01 -1.939217E+05 -1.526260E+05 -9.923437E+04 -1.221632E+04 -5.492520E+04
       222   8 -1.149065E+05 -2.213304E+05 -1.741194E+05 -8.360436E+04 -1.001587E+04 -6.190360E+04
       222   9 -2.299353E+05 -2.488236E+05 -1.970191E+05 -9.932555E+04 -7.812325E+03 -6.655936E+04
       222  10  1.630397E+06  1.933873E+05  1.550545E+05 -9.836475E+04 -3.581291E-10 -1.221422E-10
       222  11  1.744998E+06  2.207797E+05  1.782468E+05 -8.264678E+04  2.600674E-09 -4.855981E-11
       222  12  1.860626E+06  2.492101E+05  2.045212E+05 -9.827434E+04  1.238444E-09 -1.015196E-09
       222  13  8.148895E+05 -2.495328E+02  1.225885E+03 -9.880011E+04 -1.624103E-09 -5.148793E-10
       222  14  8.146286E+05 -2.521680E+02  2.079253E+03 -8.312614E+04  7.496360E-10 -9.379334E-10
       222  15  8.148198E+05  2.231441E+02  3.771969E+03 -9.880054E+04 -1.366225E-09 -6.684065E-10
       222  16  2.314061E+01 -1.939250E+05 -1.526320E+05 -9.923491E+04 -3.679311E-10 -5.313798E-10
       222  17 -1.149077E+05 -2.213346E+05 -1.741268E+05 -8.360486E+04 -1.170521E-10  7.756272E-11
       222  18 -2.299365E+05 -2.488284E+05 -1.970276E+05 -9.932597E+04 -2.530087E-10 -2.407004E-10
       222  19  1.630398E+06  1.933906E+05  1.550603E+05 -9.836521E+04 -1.045561E+04  5.490318E+04
       222  20  1.744999E+06  2.207839E+05  1.782541E+05 -8.264709E+04 -6.185528E+03  6.187750E+04
       222  21  1.860627E+06  2.492149E+05  2.045296E+05 -9.827444E+04 -1.918072E+03  6.653261E+04
       222  22  8.148904E+05 -2.462931E+02  1.231555E+03 -9.880007E+04  8.876093E+02  5.491420E+04
       222  23  8.146296E+05 -2.480522E+02  2.086461E+03 -8.312605E+04  1.921088E+03  6.189055E+04
       222  24  8.148210E+05  2.279036E+02  3.780310E+03 -9.880038E+04  2.951125E+03  6.654598E+04
       222  25  2.411137E+01 -1.939217E+05 -1.526260E+05 -9.923437E+04  1.221632E+04  5.492520E+04
       222  26 -1.149065E+05 -2.213304E+05 -1.741194E+05 -8.360436E+04  1.001587E+04  6.190360E+04
       222  27 -2.299353E+05 -2.488236E+05 -1.970191E+05 -9.932555E+04  7.812325E+03  6.655936E+04
       223   1  1.941608E+06  2.676235E+05  2.213680E+05 -9.591002E+04  7.802822E+03 -7.127536E+04
       223   2  2.051607E+06  2.995648E+05  2.612276E+05 -8.638040E+04 -4.456503E+04 -6.236537E+04
       223   3  2.173680E+06  3.512318E+05  3.401083E+05 -1.063851E+05 -9.700710E+04 -1.918259E+04
       223   4  8.155285E+05 -5.308957E+02  4.898162E+03 -9.839306E+04 -3.597860E+03 -7.129728E+04
       223   5  8.135872E+05  1.878552E+03  8.704602E+03 -8.363607E+04 -8.116056E+03 -6.232907E+04
       223   6  8.154330E+05  1.574160E+04  1.837783E+04 -9.841337E+04 -1.269690E+04 -1.905788E+04
       223   7 -3.093335E+05 -2.687602E+05 -2.116297E+05 -1.008717E+05 -1.497839E+04 -7.131914E+04
       223   8 -4.229765E+05 -2.959026E+05 -2.438942E+05 -8.089765E+04  2.826177E+04 -6.229241E+04
       223   9 -5.411089E+05 -3.198767E+05 -3.034541E+05 -9.045960E+04  7.143034E+04 -1.893089E+04
       223  10  1.941606E+06  2.676181E+05  2.213584E+05 -9.590957E+04  2.051416E-09 -2.519734E-09
       223  11  2.051604E+06  2.995601E+05  2.612166E+05 -8.638264E+04 -1.421738E-09 -5.099117E-09
       223  12  2.173670E+06  3.512289E+05  3.400900E+05 -1.063866E+05 -3.782632E-09 -1.696573E-09
       223  13  8.155272E+05 -5.363599E+02  4.888582E+03 -9.839327E+04  2.033670E-10 -5.366463E-09
       223  14  8.135861E+05  1.874361E+03  8.697175E+03 -8.363648E+04  1.272160E-09  1.660791E-09
       223  15  8.154328E+05  1.574117E+04  1.837684E+04 -9.841357E+04 -8.082335E-10 -4.692034E-10
       223  16 -3.093351E+05 -2.687657E+05 -2.116397E+05 -1.008726E+05 -9.823440E-10 -7.780637E-10
       223  17 -4.229784E+05 -2.959070E+05 -2.439030E+05 -8.089623E+04  7.929656E-10  1.526450E-09
       223  18 -5.411144E+05 -3.198785E+05 -3.034644E+05 -9.045851E+04  3.214843E-09 -1.757460E-09
       223  19  1.941608E+06  2.676235E+05  2.213680E+05 -9.591002E+04 -7.802822E+03  7.127536E+04
       223  20  2.051607E+06  2.995648E+05  2.612276E+05 -8.638040E+04  4.456503E+04  6.236537E+04
       223  21  2.173680E+06  3.512318E+05  3.401083E+05 -1.063851E+05  9.700710E+04  1.918259E+04
       223  22  8.155285E+05 -5.308957E+02  4.898162E+03 -9.839306E+04  3.597860E+03  7.129728E+04
       223  23  8.135872E+05  1.878552E+03  8.704602E+03 -8.363607E+04  8.116056E+03  6.232907E+04
       223  24  8.154330E+05  1.574160E+04  1.837783E+04 -9.841337E+04  1.269690E+04  1.905788E+04
       223  25 -3.093335E+05 -2.687602E+05 -2.116297E+05 -1.008717E+05  1.497839E+04  7.131914E+04
       223  26 -4.229765E+05 -2.959026E+05 -2.438942E+05 -8.089765E+04 -2.826177E+04  6.229241E+04
       223  27 -5.411089E+05 -3.198767E+05 -3.034541E+05 -9.045960E+04 -7.143034E+04  1.893089E+04
       224   1  5.291042E+05  2.090531E+06  5.148299E+05 -4.412143E+05  2.330696E+04  1.210540E+05
       224   2  3.739119E+05  1.590272E+06  3.343707E+05 -3.663779E+05  6.966511E+04  3.804063E+04
       224   3  2.510806E+05  1.109003E+06  2.159141E+05 -4.223620E+05  6.237534E+04 -4.497044E+04
       224   4  2.742838E+04  6.441554E+04  3.025722E+04 -4.228885E+05  2.350387E+04  1.912977E+04
       224   5  4.761342E+03  6.173827E+04  1.581897E+04 -3.574983E+05  6.973636E+04  1.103573E+04
       224   6  1.531192E+03  6.489162E+04  1.149475E+04 -4.229398E+05  6.226333E+04  2.877174E+03
       224   7 -4.745380E+05 -1.957923E+06 -4.545661E+05 -4.046198E+05  2.369519E+04 -8.246413E+04
       224   8 -3.645376E+05 -1.464587E+06 -3.028588E+05 -3.486393E+05  6.980695E+04 -1.590394E+04
       224   9 -2.480826E+05 -9.781712E+05 -1.929685E+05 -4.235157E+05  6.215111E+04  5.064617E+04
       224  10  5.290997E+05  2.090515E+06  5.148014E+05 -4.412165E+05  9.906017E-11 -7.344355E-10
       224  11  3.739063E+05  1.590269E+06  3.343589E+05 -3.663800E+05 -3.470079E-10 -1.219427E-10
       224  12  2.510758E+05  1.109000E+06  2.159030E+05 -4.223597E+05  6.024647E-10 -2.005997E-10
       224  13  2.742769E+04  6.441500E+04  3.025549E+04 -4.228889E+05  1.676859E-09 -3.750691E-11
       224  14  4.756087E+03  6.173684E+04  1.580960E+04 -3.574989E+05 -2.612485E-10  9.003279E-10
       224  15  1.527026E+03  6.489057E+04  1.148745E+04 -4.229400E+05 -5.207982E-10 -3.234149E-09
       224  16 -4.745404E+05 -1.957931E+06 -4.545800E+05 -4.046182E+05 -7.075416E-10  2.616123E-09
       224  17 -3.645429E+05 -1.464588E+06 -3.028684E+05 -3.486384E+05 -8.230068E-10  1.650056E-09
       224  18 -2.480874E+05 -9.781750E+05 -1.929806E+05 -4.235182E+05 -2.071150E-09  1.934711E-10
       224  19  5.291042E+05  2.090531E+06  5.148299E+05 -4.412143E+05 -2.330696E+04 -1.210540E+05
       224  20  3.739119E+05  1.590272E+06  3.343707E+05 -3.663779E+05 -6.966511E+04 -3.804063E+04
       224  21  2.510806E+05  1.109003E+06  2.159141E+05 -4.223620E+05 -6.237534E+04  4.497044E+04
       224  22  2.742838E+04  6.441554E+04  3.025722E+04 -4.228885E+05 -2.350387E+04 -1.912977E+04
       224  23  4.761342E+03  6.173827E+04  1.581897E+04 -3.574983E+05 -6.973636E+04 -1.103573E+04
       224  24  1.531192E+03  6.489162E+04  1.149475E+04 -4.229398E+05 -6.226333E+04 -2.877174E+03
       224  25 -4.745380E+05 -1.957923E+06 -4.545661E+05 -4.046198E+05 -2.369519E+04  8.246413E+04
       224  26 -3.645376E+05 -1.464587E+06 -3.028588E+05 -3.486393E+05 -6.980695E+04  1.590394E+04
       224  27 -2.480826E+05 -9.781712E+05 -1.929685E+05 -4.235157E+05 -6.215111E+04 -5.064617E+04
       225   1  1.716771E+05  7.705901E+05  1.493795E+05 -4.257127E+05  4.215425E+04 -3.714143E+04
       225   2  5.341556E+04  2.799181E+05  5.309113E+04 -3.569889E+05  1.441406E+04 -4.415433E+04
       225   3 -6.127689E+04 -2.093264E+05 -3.791891E+04 -4.220613E+05 -1.404821E+04 -5.116896E+04
       225   4  2.716957E+03  6.394019E+04  1.091607E+04 -4.235912E+05  4.205749E+04  1.022594E+03
       225   5  1.903892E+03  6.346344E+04  1.194312E+04 -3.566901E+05  1.431149E+04 -4.995832E+03
       225   6  4.499570E+03  6.400838E+04  1.755997E+04 -4.235867E+05 -1.415732E+04 -1.102125E+04
       225   7 -1.662725E+05 -6.422283E+05 -1.275659E+05 -4.214717E+05  4.196092E+04  3.914416E+04
       225   8 -4.960970E+04 -1.529428E+05 -2.920124E+04 -3.563913E+05  1.420894E+04  3.414935E+04
       225   9  7.027225E+04  3.374178E+05  7.304100E+04 -4.251127E+05 -1.426659E+04  2.914382E+04
       225  10  1.716748E+05  7.705881E+05  1.493735E+05 -4.257115E+05 -7.264675E-10  1.570852E-09
       225  11  5.341481E+04  2.799160E+05  5.308708E+04 -3.569884E+05 -3.813357E-10 -3.824013E-10
       225  12 -6.127781E+04 -2.093293E+05 -3.792420E+04 -4.220619E+05  6.336046E-10 -1.463347E-09
       225  13  2.715057E+03  6.393972E+04  1.091275E+04 -4.235912E+05  1.359674E-10  6.161501E-11
       225  14  1.903665E+03  6.346336E+04  1.194269E+04 -3.566900E+05 -2.774990E-10  1.194799E-09
       225  15  4.499322E+03  6.400820E+04  1.755936E+04 -4.235869E+05 -4.179677E-10 -3.661728E-09
       225  16 -1.662748E+05 -6.422304E+05 -1.275721E+05 -4.214730E+05 -1.532290E-09  1.586044E-09
       225  17 -4.961023E+04 -1.529441E+05 -2.920381E+04 -3.563917E+05 -3.834835E-11  1.632886E-09
       225  18  7.027181E+04  3.374168E+05  7.303903E+04 -4.251124E+05  2.606269E-11  1.315502E-09
       225  19  1.716771E+05  7.705901E+05  1.493795E+05 -4.257127E+05 -4.215425E+04  3.714143E+04
       225  20  5.341556E+04  2.799181E+05  5.309113E+04 -3.569889E+05 -1.441406E+04  4.415433E+04
       225  21 -6.127689E+04 -2.093264E+05 -3.791891E+04 -4.220613E+05  1.404821E+04  5.116896E+04
       225  22  2.716957E+03  6.394019E+04  1.091607E+04 -4.235912E+05 -4.205749E+04 -1.022594E+03
       225  23  1.903892E+03  6.346344E+04  1.194312E+04 -3.566901E+05 -1.431149E+04  4.995832E+03
       225  24  4.499570E+03  6.400838E+04  1.755997E+04 -4.235867E+05  1.415732E+04  1.102125E+04
       225  25 -1.662725E+05 -6.422283E+05 -1.275659E+05 -4.214717E+05 -4.196092E+04 -3.914416E+04
       225  26 -4.960970E+04 -1.529428E+05 -2.920124E+04 -3.563913E+05 -1.420894E+04 -3.414935E+04
       225  27  7.027225E+04  3.374178E+05  7.304100E+04 -4.251127E+05  1.426659E+04 -2.914382E+04
       226   1 -1.447619E+05 -5.431118E+05 -9.961890E+04 -4.284163E+05 -3.423322E+04 -6.170664E+04
       226   2 -2.542216E+05 -1.034927E+06 -1.940930E+05 -3.390526E+05 -4.709394E+04 -2.110024E+04
       226   3 -3.261264E+05 -1.522737E+06 -3.057412E+05 -3.811780E+05 -1.692634E+04  1.954090E+04
       226   4  1.504332E+03  6.686441E+04  2.173220E+04 -4.230913E+05 -3.435855E+04 -1.407246E+04
       226   5  1.113054E+04  5.962358E+04  3.699517E+04 -3.572901E+05 -4.705799E+04 -3.330966E+04
       226   6  6.867540E+04  6.652134E+04  7.664640E+04 -4.229452E+05 -1.676670E+04 -5.248005E+04
       226   7  1.477492E+05  6.772014E+05  1.430733E+05 -4.177607E+05 -3.448299E+04  3.360761E+04
       226   8  2.764065E+05  1.155307E+06  2.680163E+05 -3.755593E+05 -4.702135E+04 -4.554025E+04
       226   9  4.633021E+05  1.658109E+06  4.588744E+05 -4.648180E+05 -1.659760E+04 -1.246849E+05
       226  10 -1.447642E+05 -5.431162E+05 -9.962827E+04 -4.284180E+05  2.813516E-10  1.463445E-09
       226  11 -2.542241E+05 -1.034928E+06 -1.940980E+05 -3.390534E+05  2.768267E-09 -3.887148E-11
       226  12 -3.261268E+05 -1.522737E+06 -3.057425E+05 -3.811778E+05  3.743664E-11 -8.106826E-10
       226  13  1.503010E+03  6.686388E+04  2.172961E+04 -4.230917E+05  1.087427E-09 -8.282868E-11
       226  14  1.112786E+04  5.962180E+04  3.698892E+04 -3.572913E+05 -2.066039E-09  1.011092E-09
       226  15  6.867436E+04  6.651831E+04  7.664069E+04 -4.229460E+05  1.068760E-09 -2.680608E-09
       226  16  1.477476E+05  6.771998E+05  1.430690E+05 -4.177597E+05 -3.369315E-10  1.808083E-09
       226  17  2.764036E+05  1.155304E+06  2.680083E+05 -3.755610E+05 -4.261051E-11  1.181531E-09
       226  18  4.632976E+05  1.658092E+06  4.588448E+05 -4.648197E+05  7.399921E-10  5.287887E-10
       226  19 -1.447619E+05 -5.431118E+05 -9.961890E+04 -4.284163E+05  3.423322E+04  6.170664E+04
       226  20 -2.542216E+05 -1.034927E+06 -1.940930E+05 -3.390526E+05  4.709394E+04  2.110024E+04
       226  21 -3.261264E+05 -1.522737E+06 -3.057412E+05 -3.811780E+05  1.692634E+04 -1.954090E+04
       226  22  1.504332E+03  6.686441E+04  2.173220E+04 -4.230913E+05  3.435855E+04  1.407246E+04
       226  23  1.113054E+04  5.962358E+04  3.699517E+04 -3.572901E+05  4.705799E+04  3.330966E+04
       226  24  6.867540E+04  6.652134E+04  7.664640E+04 -4.229452E+05  1.676670E+04  5.248005E+04
       226  25  1.477492E+05  6.772014E+05  1.430733E+05 -4.177607E+05  3.448299E+04 -3.360761E+04
       226  26  2.764065E+05  1.155307E+06  2.680163E+05 -3.755593E+05  4.702135E+04  4.554025E+04
       226  27  4.633021E+05  1.658109E+06  4.588744E+05 -4.648180E+05  1.659760E+04  1.246849E+05
       227   1 -1.424025E+06 -6.207435E+05 -3.594798E+05 -5.680306E+05 -1.583728E+05 -4.774795E+04
       227   2 -1.347024E+06 -4.214160E+05 -2.179510E+05 -5.358753E+05 -9.939399E+04  2.073796E+02
       227   3 -1.302410E+06 -3.481937E+05 -1.563186E+05 -4.971760E+05 -3.290052E+04  2.822768E+04
       227   4 -7.745784E+05 -2.981999E+05 -1.744398E+05 -3.100068E+05 -1.160779E+05 -3.187110E+04
       227   5 -7.513081E+05 -1.696168E+05 -7.883360E+04 -3.388544E+05 -8.300290E+04  6.358497E+03
       227   6 -7.552431E+05 -1.619449E+05 -4.252078E+04 -3.611759E+05 -4.242586E+04  2.464716E+04
       227   7 -1.247076E+05  2.447013E+04  1.056682E+04 -5.170883E+04 -7.373492E+04 -1.596272E+04
       227   8 -1.552318E+05  8.224121E+04  6.026032E+04 -1.416492E+05 -6.659482E+04  1.251812E+04
       227   9 -2.077681E+05  2.431882E+04  7.126213E+04 -2.250692E+05 -5.196031E+04  2.106380E+04
       227  10 -1.424052E+06 -6.207527E+05 -3.595314E+05 -5.680367E+05  4.371228E-10  9.004386E-10
       227  11 -1.347034E+06 -4.214187E+05 -2.179696E+05 -5.358753E+05  4.551807E-11  1.087595E-09
       227  12 -1.302411E+06 -3.481948E+05 -1.563221E+05 -4.971752E+05 -1.148034E-09 -5.574192E-10
       227  13 -7.745932E+05 -2.982046E+05 -1.744671E+05 -3.100097E+05  4.169793E-10 -2.236029E-10
       227  14 -7.513156E+05 -1.696187E+05 -7.884664E+04 -3.388540E+05  1.050846E-09 -9.339798E-10
       227  15 -7.552452E+05 -1.619461E+05 -4.252531E+04 -3.611751E+05 -3.722841E-10 -1.397951E-09
       227  16 -1.247135E+05  2.446839E+04  1.055613E+04 -5.170978E+04 -1.688912E-10 -9.973847E-10
       227  17 -1.552366E+05  8.223985E+04  6.025169E+04 -1.416486E+05  1.558227E-09 -1.713918E-09
       227  18 -2.077712E+05  2.431762E+04  7.125622E+04 -2.250684E+05  1.397642E-09 -2.546694E-10
       227  19 -1.424025E+06 -6.207435E+05 -3.594798E+05 -5.680306E+05  1.583728E+05  4.774795E+04
       227  20 -1.347024E+06 -4.214160E+05 -2.179510E+05 -5.358753E+05  9.939399E+04 -2.073796E+02
       227  21 -1.302410E+06 -3.481937E+05 -1.563186E+05 -4.971760E+05  3.290052E+04 -2.822768E+04
       227  22 -7.745784E+05 -2.981999E+05 -1.744398E+05 -3.100068E+05  1.160779E+05  3.187110E+04
       227  23 -7.513081E+05 -1.696168E+05 -7.883360E+04 -3.388544E+05  8.300290E+04 -6.358497E+03
       227  24 -7.552431E+05 -1.619449E+05 -4.252078E+04 -3.611759E+05  4.242586E+04 -2.464716E+04
       227  25 -1.247076E+05  2.447013E+04  1.056682E+04 -5.170883E+04  7.373492E+04  1.596272E+04
       227  26 -1.552318E+05  8.224121E+04  6.026032E+04 -1.416492E+05  6.659482E+04 -1.251812E+04
       227  27 -2.077681E+05  2.431882E+04  7.126213E+04 -2.250692E+05  5.196031E+04 -2.106380E+04
       228   1 -1.225033E+06 -3.448714E+05 -1.338818E+05 -4.895738E+05 -3.081716E+04  2.437818E+04
       228   2 -1.148294E+06 -2.984565E+05 -9.932825E+04 -4.560625E+05 -1.886572E+04  2.370751E+04
       228   3 -1.056623E+06 -2.749315E+05 -7.368935E+04 -4.423505E+05 -6.462009E+03  2.183063E+04
       228   4 -7.498228E+05 -1.685349E+05 -3.270828E+04 -3.563330E+05 -3.592716E+04  2.245663E+04
       228   5 -7.570503E+05 -1.545646E+05 -1.726626E+04 -3.474330E+05 -2.553889E+04  2.120044E+04
       228   6 -7.490404E+05 -1.631717E+05 -9.493366E+03 -3.583346E+05 -1.469991E+04  1.873785E+04
       228   7 -2.743858E+05  7.820005E+03  6.845161E+04 -2.229987E+05 -4.104135E+04  2.053346E+04
       228   8 -3.656500E+05 -1.065987E+04  6.478758E+04 -2.387403E+05 -3.221660E+04  1.869165E+04
       228   9 -4.413582E+05 -5.140360E+04  5.469844E+04 -2.742799E+05 -2.294228E+04  1.564343E+04
       228  10 -1.225034E+06 -3.448723E+05 -1.338847E+05 -4.895731E+05  5.895186E-10 -2.797592E-10
       228  11 -1.148294E+06 -2.984572E+05 -9.932998E+04 -4.560622E+05 -7.475838E-10  2.227215E-10
       228  12 -1.056623E+06 -2.749320E+05 -7.369032E+04 -4.423504E+05  9.693398E-10  1.072786E-10
       228  13 -7.498243E+05 -1.685358E+05 -3.271166E+04 -3.563324E+05  5.742540E-10 -1.741799E-10
       228  14 -7.570511E+05 -1.545653E+05 -1.726833E+04 -3.474326E+05 -7.831735E-10 -3.992412E-10
       228  15 -7.490407E+05 -1.631721E+05 -9.494431E+03 -3.583344E+05 -5.385531E-10 -9.038941E-11
       228  16 -2.743877E+05  7.819100E+03  6.844765E+04 -2.229981E+05 -4.671083E-10  4.384355E-10
       228  17 -3.656512E+05 -1.066052E+04  6.478497E+04 -2.387398E+05  9.164859E-10  5.019475E-10
       228  18 -4.413589E+05 -5.140400E+04  5.469699E+04 -2.742796E+05 -6.455329E-10 -3.003647E-10
       228  19 -1.225033E+06 -3.448714E+05 -1.338818E+05 -4.895738E+05  3.081716E+04 -2.437818E+04
       228  20 -1.148294E+06 -2.984565E+05 -9.932825E+04 -4.560625E+05  1.886572E+04 -2.370751E+04
       228  21 -1.056623E+06 -2.749315E+05 -7.368935E+04 -4.423505E+05  6.462009E+03 -2.183063E+04
       228  22 -7.498228E+05 -1.685349E+05 -3.270828E+04 -3.563330E+05  3.592716E+04 -2.245663E+04
       228  23 -7.570503E+05 -1.545646E+05 -1.726626E+04 -3.474330E+05  2.553889E+04 -2.120044E+04
       228  24 -7.490404E+05 -1.631717E+05 -9.493366E+03 -3.583346E+05  1.469991E+04 -1.873785E+04
       228  25 -2.743858E+05  7.820005E+03  6.845161E+04 -2.229987E+05  4.104135E+04 -2.053346E+04
       228  26 -3.656500E+05 -1.065987E+04  6.478758E+04 -2.387403E+05  3.221660E+04 -1.869165E+04
       228  27 -4.413582E+05 -5.140360E+04  5.469844E+04 -2.742799E+05  2.294228E+04 -1.564343E+04
       229   1 -9.963006E+05 -2.538987E+05 -5.850306E+04 -4.263352E+05 -4.007755E+03  1.856143E+04
       229   2 -9.200724E+05 -2.135808E+05 -3.775862E+04 -3.925030E+05  3.711629E+02  1.316999E+04
       229   3 -8.260873E+05 -1.915993E+05 -1.860576E+04 -3.794113E+05  4.777391E+03  7.703238E+03
       229   4 -7.486409E+05 -1.634369E+05 -7.156917E+03 -3.580853E+05 -1.198577E+04  1.556693E+04
       229   5 -7.575106E+05 -1.542095E+05 -3.945135E+03 -3.477374E+05 -7.704421E+03  1.013960E+04
       229   6 -7.486113E+05 -1.632993E+05 -2.246971E+03 -3.581324E+05 -3.396083E+03  4.636887E+03
       229   7 -5.009183E+05 -7.296998E+04  4.418623E+04 -2.898103E+05 -1.996721E+04  1.257115E+04
       229   8 -5.949222E+05 -9.483631E+04  2.986704E+04 -3.029612E+05 -1.578225E+04  7.108372E+03
       229   9 -6.711296E+05 -1.349989E+05  1.411161E+04 -3.368511E+05 -1.157059E+04  1.570151E+03
       229  10 -9.963007E+05 -2.538991E+05 -5.850374E+04 -4.263352E+05 -5.819198E-10  2.871071E-10
       229  11 -9.200724E+05 -2.135810E+05 -3.775895E+04 -3.925030E+05 -2.121203E-09 -1.519275E-10
       229  12 -8.260874E+05 -1.915994E+05 -1.860592E+04 -3.794113E+05 -3.497536E-10 -1.263275E-10
       229  13 -7.486411E+05 -1.634372E+05 -7.157642E+03 -3.580852E+05  3.365632E-10 -2.878085E-10
       229  14 -7.575107E+05 -1.542096E+05 -3.945440E+03 -3.477374E+05 -1.490115E-09  4.969000E-11
       229  15 -7.486113E+05 -1.632993E+05 -2.247033E+03 -3.581323E+05  7.216684E-10  8.864760E-11
       229  16 -5.009187E+05 -7.297026E+04  4.418519E+04 -2.898101E+05  3.045326E-12 -4.214740E-10
       229  17 -5.949225E+05 -9.483643E+04  2.986647E+04 -3.029611E+05  5.559112E-10 -4.036054E-10
       229  18 -6.711298E+05 -1.349989E+05  1.411135E+04 -3.368511E+05 -2.316618E-10  2.439939E-10
       229  19 -9.963006E+05 -2.538987E+05 -5.850306E+04 -4.263352E+05  4.007755E+03 -1.856143E+04
       229  20 -9.200724E+05 -2.135808E+05 -3.775862E+04 -3.925030E+05 -3.711629E+02 -1.316999E+04
       229  21 -8.260873E+05 -1.915993E+05 -1.860576E+04 -3.794113E+05 -4.777391E+03 -7.703238E+03
       229  22 -7.486409E+05 -1.634369E+05 -7.156917E+03 -3.580853E+05  1.198577E+04 -1.556693E+04
       229  23 -7.575106E+05 -1.542095E+05 -3.945135E+03 -3.477374E+05  7.704421E+03 -1.013960E+04
       229  24 -7.486113E+05 -1.632993E+05 -2.246971E+03 -3.581324E+05  3.396083E+03 -4.636887E+03
       229  25 -5.009183E+05 -7.296998E+04  4.418623E+04 -2.898103E+05  1.996721E+04 -1.257115E+04
       229  26 -5.949222E+05 -9.483631E+04  2.986704E+04 -3.029612E+05  1.578225E+04 -7.108372E+03
       229  27 -6.711296E+05 -1.349989E+05  1.411161E+04 -3.368511E+05  1.157059E+04 -1.570151E+03
       230   1 -7.665646E+05 -1.697760E+05 -5.225396E+03 -3.630229E+05  6.464889E+03  4.168323E+03
       230   2 -6.904582E+05 -1.296249E+05  1.281835E+04 -3.291223E+05  9.389070E+03 -1.884745E+03
       230   3 -5.963209E+05 -1.075926E+05  3.043389E+04 -3.159573E+05  1.231469E+04 -7.940214E+03
       230   4 -7.485612E+05 -1.633068E+05 -1.746638E+03 -3.581118E+05 -1.694053E+03  1.107555E+03
       230   5 -7.575758E+05 -1.542588E+05 -1.142160E+03 -3.477385E+05  1.226238E+03 -4.947309E+03
       230   6 -7.485679E+05 -1.633305E+05 -9.633556E+02 -3.581044E+05  4.147874E+03 -1.100457E+04
       230   7 -7.305571E+05 -1.568375E+05  1.732430E+03 -3.532005E+05 -9.853311E+03 -1.953330E+03
       230   8 -8.246889E+05 -1.788924E+05 -1.510270E+04 -3.663528E+05 -6.935675E+03 -8.009526E+03
       230   9 -9.007911E+05 -2.190665E+05 -3.236154E+04 -4.002420E+05 -4.016789E+03 -1.406813E+04
       230  10 -7.665647E+05 -1.697761E+05 -5.225507E+03 -3.630229E+05 -1.472479E-10 -1.389315E-10
       230  11 -6.904583E+05 -1.296249E+05  1.281818E+04 -3.291223E+05 -1.413060E-09 -2.252805E-10
       230  12 -5.963211E+05 -1.075927E+05  3.043349E+04 -3.159572E+05  1.022588E-10 -2.205654E-10
       230  13 -7.485612E+05 -1.633068E+05 -1.746646E+03 -3.581118E+05 -1.104842E-10 -2.478339E-11
       230  14 -7.575758E+05 -1.542589E+05 -1.142208E+03 -3.477385E+05 -9.891030E-10 -3.074150E-10
       230  15 -7.485680E+05 -1.633307E+05 -9.636154E+02 -3.581044E+05 -2.501556E-10  2.660194E-10
       230  16 -7.305572E+05 -1.568375E+05  1.732241E+03 -3.532005E+05 -5.029319E-10 -9.184933E-11
       230  17 -8.246889E+05 -1.788925E+05 -1.510291E+04 -3.663528E+05 -4.348470E-10 -1.114988E-10
       230  18 -9.007912E+05 -2.190667E+05 -3.236195E+04 -4.002420E+05  7.115835E-10  2.628467E-10
       230  19 -7.665646E+05 -1.697760E+05 -5.225396E+03 -3.630229E+05 -6.464889E+03 -4.168323E+03
       230  20 -6.904582E+05 -1.296249E+05  1.281835E+04 -3.291223E+05 -9.389070E+03  1.884745E+03
       230  21 -5.963209E+05 -1.075926E+05  3.043389E+04 -3.159573E+05 -1.231469E+04  7.940214E+03
       230  22 -7.485612E+05 -1.633068E+05 -1.746638E+03 -3.581118E+05  1.694053E+03 -1.107555E+03
       230  23 -7.575758E+05 -1.542588E+05 -1.142160E+03 -3.477385E+05 -1.226238E+03  4.947309E+03
       230  24 -7.485679E+05 -1.633305E+05 -9.633556E+02 -3.581044E+05 -4.147874E+03  1.100457E+04
       230  25 -7.305571E+05 -1.568375E+05  1.732430E+03 -3.532005E+05  9.853311E+03  1.953330E+03
       230  26 -8.246889E+05 -1.788924E+05 -1.510270E+04 -3.663528E+05  6.935675E+03  8.009526E+03
       230  27 -9.007911E+05 -2.190665E+05 -3.236154E+04 -4.002420E+05  4.016789E+03  1.406813E+04
       231   1 -5.369164E+05 -8.574631E+04  4.326639E+04 -2.995556E+05  1.384509E+04 -1.152944E+04
       231   2 -4.609295E+05 -4.564352E+04  6.031022E+04 -2.656899E+05  1.685980E+04 -1.754226E+04
       231   3 -3.669347E+05 -2.363418E+04  7.686144E+04 -2.525241E+05  1.987201E+04 -2.354262E+04
       231   4 -7.485792E+05 -1.633295E+05 -1.001875E+03 -3.580972E+05  5.681399E+03 -1.459312E+04
       231   5 -7.575880E+05 -1.542940E+05 -1.363900E+03 -3.477442E+05  8.710930E+03 -2.060171E+04
       231   6 -7.485989E+05 -1.633558E+05 -2.230195E+03 -3.580944E+05  1.173787E+04 -2.659789E+04
       231   7 -9.601945E+05 -2.409083E+05 -4.527184E+04 -4.166200E+05 -2.479232E+03 -1.765564E+04
       231   8 -1.054156E+06 -2.629371E+05 -6.304243E+04 -4.297623E+05  5.662525E+02 -2.365959E+04
       231   9 -1.130117E+06 -3.030663E+05 -8.133005E+04 -4.636055E+05  3.609049E+03 -2.965117E+04
       231  10 -5.369166E+05 -8.574650E+04  4.326578E+04 -2.995555E+05 -1.000462E-09  4.888357E-11
       231  11 -4.609299E+05 -4.564393E+04  6.030911E+04 -2.656897E+05 -5.948372E-10  1.743642E-10
       231  12 -3.669353E+05 -2.363488E+04  7.685966E+04 -2.525237E+05  1.765336E-09  1.188635E-10
       231  13 -7.485793E+05 -1.633297E+05 -1.002336E+03 -3.580972E+05 -8.727172E-10  4.627720E-10
       231  14 -7.575882E+05 -1.542945E+05 -1.364840E+03 -3.477441E+05  1.293952E-10  4.048433E-10
       231  15 -7.485993E+05 -1.633566E+05 -2.231782E+03 -3.580941E+05  8.183591E-10 -3.424097E-10
       231  16 -9.601946E+05 -2.409086E+05 -4.527244E+04 -4.166200E+05  2.345082E-09  5.108778E-10
       231  17 -1.054156E+06 -2.629377E+05 -6.304349E+04 -4.297623E+05  1.503616E-09  2.235788E-10
       231  18 -1.130117E+06 -3.030673E+05 -8.133172E+04 -4.636054E+05 -4.583973E-10 -6.428486E-10
       231  19 -5.369164E+05 -8.574631E+04  4.326639E+04 -2.995556E+05 -1.384509E+04  1.152944E+04
       231  20 -4.609295E+05 -4.564352E+04  6.031022E+04 -2.656899E+05 -1.685980E+04  1.754226E+04
       231  21 -3.669347E+05 -2.363418E+04  7.686144E+04 -2.525241E+05 -1.987201E+04  2.354262E+04
       231  22 -7.485792E+05 -1.633295E+05 -1.001875E+03 -3.580972E+05 -5.681399E+03  1.459312E+04
       231  23 -7.575880E+05 -1.542940E+05 -1.363900E+03 -3.477442E+05 -8.710930E+03  2.060171E+04
       231  24 -7.485989E+05 -1.633558E+05 -2.230195E+03 -3.580944E+05 -1.173787E+04  2.659789E+04
       231  25 -9.601945E+05 -2.409083E+05 -4.527184E+04 -4.166200E+05  2.479232E+03  1.765564E+04
       231  26 -1.054156E+06 -2.629371E+05 -6.304243E+04 -4.297623E+05 -5.662525E+02  2.365959E+04
       231  27 -1.130117E+06 -3.030663E+05 -8.133005E+04 -4.636055E+05 -3.609049E+03  2.965117E+04
       232   1 -3.077178E+05 -1.848000E+03  8.901738E+04 -2.361965E+05  2.168192E+04 -2.701792E+04
       232   2 -2.318686E+05  3.815718E+04  1.041196E+05 -2.024069E+05  2.644706E+04 -3.229816E+04
       232   3 -1.383483E+05  5.988533E+04  1.173621E+05 -1.892466E+05  3.117178E+04 -3.746013E+04
       232   4 -7.486823E+05 -1.633437E+05 -2.910899E+03 -3.581059E+05  1.353271E+04 -3.007998E+04
       232   5 -7.575323E+05 -1.543046E+05 -5.189712E+03 -3.477531E+05  1.844834E+04 -3.530606E+04
       232   6 -7.487475E+05 -1.635743E+05 -9.448362E+03 -3.580337E+05  2.332314E+04 -4.041393E+04
       232   7 -1.189448E+06 -3.248232E+05 -9.484931E+04 -4.799355E+05  5.389747E+03 -3.313969E+04
       232   8 -1.282911E+06 -3.467425E+05 -1.145129E+05 -4.929852E+05  1.045694E+04 -3.831122E+04
       232   9 -1.358760E+06 -3.870012E+05 -1.362771E+05 -5.266667E+05  1.548288E+04 -4.336460E+04
       232  10 -3.077185E+05 -1.848910E+03  8.901513E+04 -2.361960E+05  7.293582E-10 -4.344909E-10
       232  11 -2.318696E+05  3.815587E+04  1.041163E+05 -2.024062E+05  2.036000E-09 -1.100468E-09
       232  12 -1.383497E+05  5.988357E+04  1.173577E+05 -1.892456E+05  6.696352E-10 -8.592196E-10
       232  13 -7.486828E+05 -1.633447E+05 -2.912942E+03 -3.581056E+05 -6.711263E-11 -2.742557E-10
       232  14 -7.575330E+05 -1.543060E+05 -5.192693E+03 -3.477525E+05  1.355294E-09  5.508790E-10
       232  15 -7.487485E+05 -1.635762E+05 -9.452452E+03 -3.580330E+05  5.952527E-10 -7.922954E-10
       232  16 -1.189448E+06 -3.248244E+05 -9.485143E+04 -4.799354E+05 -4.140962E-10 -1.944756E-10
       232  17 -1.282911E+06 -3.467442E+05 -1.145159E+05 -4.929849E+05  1.704457E-09 -5.914692E-10
       232  18 -1.358761E+06 -3.870033E+05 -1.362811E+05 -5.266661E+05 -1.147491E-09  3.808525E-10
       232  19 -3.077178E+05 -1.848000E+03  8.901738E+04 -2.361965E+05 -2.168192E+04  2.701792E+04
       232  20 -2.318686E+05  3.815718E+04  1.041196E+05 -2.024069E+05 -2.644706E+04  3.229816E+04
       232  21 -1.383483E+05  5.988533E+04  1.173621E+05 -1.892466E+05 -3.117178E+04  3.746013E+04
       232  22 -7.486823E+05 -1.633437E+05 -2.910899E+03 -3.581059E+05 -1.353271E+04  3.007998E+04
       232  23 -7.575323E+05 -1.543046E+05 -5.189712E+03 -3.477531E+05 -1.844834E+04  3.530606E+04
       232  24 -7.487475E+05 -1.635743E+05 -9.448362E+03 -3.580337E+05 -2.332314E+04  4.041393E+04
       232  25 -1.189448E+06 -3.248232E+05 -9.484931E+04 -4.799355E+05 -5.389747E+03  3.313969E+04
       232  26 -1.282911E+06 -3.467425E+05 -1.145129E+05 -4.929852E+05 -1.045694E+04  3.831122E+04
       232  27 -1.358760E+06 -3.870012E+05 -1.362771E+05 -5.266667E+05 -1.548288E+04  4.336460E+04
       233   1 -7.911864E+04  8.127705E+04  1.270316E+05 -1.740199E+05  3.469696E+04 -4.031187E+04
       233   2 -4.168193E+03  1.219861E+05  1.346948E+05 -1.381318E+05  4.589478E+04 -4.228025E+04
       233   3  8.551681E+04  1.392904E+05  1.340940E+05 -1.215467E+05  5.642166E+04 -4.244941E+04
       233   4 -7.492853E+05 -1.632178E+05 -1.253958E+04 -3.583446E+05  2.646483E+04 -4.341149E+04
       233   5 -7.569445E+05 -1.548407E+05 -2.283167E+04 -3.473626E+05  3.999209E+04 -4.450711E+04
       233   6 -7.503435E+05 -1.703391E+05 -4.324382E+04 -3.556892E+05  5.284663E+04 -4.380287E+04
       233   7 -1.418997E+06 -4.076784E+05 -1.521360E+05 -5.424878E+05  1.824221E+04 -4.650759E+04
       233   8 -1.509144E+06 -4.316207E+05 -1.803895E+05 -5.563601E+05  3.409708E+04 -4.673107E+04
       233   9 -1.585491E+06 -4.799081E+05 -2.206208E+05 -5.895404E+05  4.927677E+04 -4.515436E+04
       233  10 -7.912037E+04  8.127498E+04  1.270263E+05 -1.740188E+05 -2.805358E-09 -1.747812E-09
       233  11 -4.170934E+03  1.219836E+05  1.346875E+05 -1.381303E+05  5.923014E-09  1.007694E-09
       233  12  8.551291E+04  1.392876E+05  1.340846E+05 -1.215447E+05  1.821822E-08  7.723918E-09
       233  13 -7.492866E+05 -1.632201E+05 -1.254444E+04 -3.583437E+05 -1.787231E-09 -1.099288E-09
       233  14 -7.569468E+05 -1.548432E+05 -2.283839E+04 -3.473611E+05  1.516490E-09 -5.217626E-10
       233  15 -7.503470E+05 -1.703419E+05 -4.325267E+04 -3.556873E+05  4.429780E-09  8.425196E-10
       233  16 -1.418998E+06 -4.076808E+05 -1.521407E+05 -5.424871E+05  8.537559E-10  2.399088E-09
       233  17 -1.509146E+06 -4.316234E+05 -1.803958E+05 -5.563588E+05 -7.804321E-09 -3.067018E-09
       233  18 -1.585494E+06 -4.799109E+05 -2.206292E+05 -5.895386E+05 -1.255869E-08 -3.699237E-09
       233  19 -7.911864E+04  8.127705E+04  1.270316E+05 -1.740199E+05 -3.469696E+04  4.031187E+04
       233  20 -4.168193E+03  1.219861E+05  1.346948E+05 -1.381318E+05 -4.589478E+04  4.228025E+04
       233  21  8.551681E+04  1.392904E+05  1.340940E+05 -1.215467E+05 -5.642166E+04  4.244941E+04
       233  22 -7.492853E+05 -1.632178E+05 -1.253958E+04 -3.583446E+05 -2.646483E+04  4.341149E+04
       233  23 -7.569445E+05 -1.548407E+05 -2.283167E+04 -3.473626E+05 -3.999209E+04  4.450711E+04
       233  24 -7.503435E+05 -1.703391E+05 -4.324382E+04 -3.556892E+05 -5.284663E+04  4.380287E+04
       233  25 -1.418997E+06 -4.076784E+05 -1.521360E+05 -5.424878E+05 -1.824221E+04  4.650759E+04
       233  26 -1.509144E+06 -4.316207E+05 -1.803895E+05 -5.563601E+05 -3.409708E+04  4.673107E+04
       233  27 -1.585491E+06 -4.799081E+05 -2.206208E+05 -5.895404E+05 -4.927677E+04  4.515436E+04
       234   1  1.540672E+05  1.539751E+05  1.335277E+05 -1.295312E+05  7.116846E+04 -4.172865E+04
       234   2  1.978993E+05  2.175006E+05  1.145292E+05 -3.070570E+04  8.488068E+04 -2.848032E+04
       234   3  2.074192E+05  1.352230E+05  4.783556E+04  8.386624E+04  8.741194E+04  1.442238E+04
       234   4 -7.575373E+05 -1.616048E+05 -5.621633E+04 -3.620549E+05  6.101429E+04 -4.555872E+04
       234   5 -7.493505E+05 -1.747968E+05 -1.042367E+05 -3.360596E+05  1.133204E+05 -1.777852E+04
       234   6 -7.832212E+05 -3.415927E+05 -2.306210E+05 -2.943041E+05  1.544312E+05  3.967300E+04
       234   7 -1.668294E+06 -4.771392E+05 -2.460042E+05 -5.942739E+05  5.087620E+04 -4.938355E+04
       234   8 -1.695674E+06 -5.669528E+05 -3.230555E+05 -6.409587E+05  1.417127E+05 -7.099420E+03
       234   9 -1.772843E+06 -8.181330E+05 -5.091413E+05 -6.718545E+05  2.213320E+05  6.485069E+04
       234  10  1.540613E+05  1.539719E+05  1.335149E+05 -1.295288E+05 -1.623376E-08 -4.991979E-09
       234  11  1.978913E+05  2.174978E+05  1.145141E+05 -3.070376E+04 -7.984818E-09 -3.445956E-09
       234  12  2.074110E+05  1.352208E+05  4.782081E+04  8.386522E+04  5.405625E-09  3.628923E-09
       234  13 -7.575419E+05 -1.616080E+05 -5.622723E+04 -3.620527E+05  3.713293E-09  6.684110E-10
       234  14 -7.493644E+05 -1.748006E+05 -1.042614E+05 -3.360580E+05 -1.877125E-09 -1.317544E-09
       234  15 -7.832472E+05 -3.416008E+05 -2.306688E+05 -2.943090E+05 -3.346259E-10  4.122423E-09
       234  16 -1.668298E+06 -4.771425E+05 -2.460136E+05 -5.942719E+05  2.218524E-08  1.066332E-08
       234  17 -1.695695E+06 -5.669583E+05 -3.230934E+05 -6.409579E+05  6.261515E-09  6.355462E-09
       234  18 -1.772897E+06 -8.181508E+05 -5.092415E+05 -6.718661E+05 -6.662519E-09 -2.731246E-09
       234  19  1.540672E+05  1.539751E+05  1.335277E+05 -1.295312E+05 -7.116846E+04  4.172865E+04
       234  20  1.978993E+05  2.175006E+05  1.145292E+05 -3.070570E+04 -8.488068E+04  2.848032E+04
       234  21  2.074192E+05  1.352230E+05  4.783556E+04  8.386624E+04 -8.741194E+04 -1.442238E+04
       234  22 -7.575373E+05 -1.616048E+05 -5.621633E+04 -3.620549E+05 -6.101429E+04  4.555872E+04
       234  23 -7.493505E+05 -1.747968E+05 -1.042367E+05 -3.360596E+05 -1.133204E+05  1.777852E+04
       234  24 -7.832212E+05 -3.415927E+05 -2.306210E+05 -2.943041E+05 -1.544312E+05 -3.967300E+04
       234  25 -1.668294E+06 -4.771392E+05 -2.460042E+05 -5.942739E+05 -5.087620E+04  4.938355E+04
       234  26 -1.695674E+06 -5.669528E+05 -3.230555E+05 -6.409587E+05 -1.417127E+05  7.099420E+03
       234  27 -1.772843E+06 -8.181330E+05 -5.091413E+05 -6.718545E+05 -2.213320E+05 -6.485069E+04
       235   1  1.418003E+06  1.993346E+05  1.761036E+05  1.877719E+04  7.461184E+03 -1.629806E+04
       235   2  1.347985E+06  2.429060E+05  1.714137E+05  3.729989E+04 -9.147209E+03 -5.393075E+04
       235   3  1.267644E+06  2.361454E+05  1.650062E+05  7.456440E+04 -2.580347E+04 -6.297273E+04
       235   4  2.792859E+05 -8.188939E+04 -9.346912E+04  6.499175E+04 -6.482515E+04 -1.644069E+04
       235   5  2.879361E+05 -1.197763E+04 -4.446956E+04  5.552788E+04 -4.158672E+04 -5.400894E+04
       235   6  2.793233E+05  6.402226E+02 -2.485112E+04  6.480844E+04 -1.839754E+04 -6.296276E+04
       235   7 -8.582255E+05 -3.631953E+05 -3.631110E+05  1.111206E+05 -1.369797E+05 -1.659421E+04
       235   8 -7.710426E+05 -2.669294E+05 -2.604076E+05  7.372362E+04 -7.397191E+04 -5.408910E+04
       235   9 -7.080590E+05 -2.349224E+05 -2.147532E+05  5.506775E+04 -1.100308E+04 -6.295302E+04
       235  10  1.418003E+06  1.993343E+05  1.761030E+05  1.877729E+04  2.001899E-09 -6.019301E-10
       235  11  1.347984E+06  2.429028E+05  1.714080E+05  3.729949E+04  3.297563E-10 -4.265004E-09
       235  12  1.267643E+06  2.361409E+05  1.649975E+05  7.456309E+04  9.440314E-10 -3.885384E-09
       235  13  2.792813E+05 -8.189081E+04 -9.347752E+04  6.499089E+04  1.150254E-10  1.762334E-09
       235  14  2.879335E+05 -1.198123E+04 -4.447829E+04  5.552607E+04  5.634099E-10 -2.247151E-09
       235  15  2.793219E+05  6.358743E+02 -2.485921E+04  6.480751E+04 -5.492174E-10 -1.851560E-10
       235  16 -8.582458E+05 -3.632007E+05 -3.631468E+05  1.111188E+05 -1.878255E-09  8.632066E-10
       235  17 -7.710493E+05 -2.669341E+05 -2.604234E+05  7.372040E+04  1.824449E-09 -5.646262E-09
       235  18 -7.080602E+05 -2.349267E+05 -2.147609E+05  5.506719E+04  1.663050E-11 -6.819283E-09
       235  19  1.418003E+06  1.993346E+05  1.761036E+05  1.877719E+04 -7.461184E+03  1.629806E+04
       235  20  1.347985E+06  2.429060E+05  1.714137E+05  3.729989E+04  9.147209E+03  5.393075E+04
       235  21  1.267644E+06  2.361454E+05  1.650062E+05  7.456440E+04  2.580347E+04  6.297273E+04
       235  22  2.792859E+05 -8.188939E+04 -9.346912E+04  6.499175E+04  6.482515E+04  1.644069E+04
       235  23  2.879361E+05 -1.197763E+04 -4.446956E+04  5.552788E+04  4.158672E+04  5.400894E+04
       235  24  2.793233E+05  6.402226E+02 -2.485112E+04  6.480844E+04  1.839754E+04  6.296276E+04
       235  25 -8.582255E+05 -3.631953E+05 -3.631110E+05  1.111206E+05  1.369797E+05  1.659421E+04
       235  26 -7.710426E+05 -2.669294E+05 -2.604076E+05  7.372362E+04  7.397191E+04  5.408910E+04
       235  27 -7.080590E+05 -2.349224E+05 -2.147532E+05  5.506775E+04  1.100308E+04  6.295302E+04
       236   1  1.219023E+06  2.200352E+05  1.604222E+05  6.595612E+04 -1.707385E+04 -5.987388E+04
       236   2  1.144828E+06  2.046449E+05  1.524672E+05  5.660802E+04 -1.448673E+04 -5.749977E+04
       236   3  1.069804E+06  1.873432E+05  1.423515E+05  6.756599E+04 -1.190799E+04 -5.318523E+04
       236   4  2.828907E+05 -2.945527E+03 -1.918499E+04  6.518996E+04 -1.510970E+04 -5.987638E+04
       236   5  2.835620E+05 -8.017844E+01 -1.059745E+04  5.503136E+04 -9.824298E+03 -5.749373E+04
       236   6  2.829307E+05  4.041347E+02 -6.046087E+03  6.518063E+04 -4.546932E+03 -5.316936E+04
       236   7 -6.523992E+05 -2.259780E+05 -1.988324E+05  6.442442E+04 -1.314842E+04 -5.987888E+04
       236   8 -5.769886E+05 -2.048485E+05 -1.736949E+05  5.345643E+04 -5.168166E+03 -5.748772E+04
       236   9 -5.033452E+05 -1.865709E+05 -1.544707E+05  6.279792E+04  2.805038E+03 -5.315353E+04
       236  10  1.219022E+06  2.200313E+05  1.604149E+05  6.595530E+04 -2.942847E-08 -5.739632E-09
       236  11  1.144826E+06  2.046413E+05  1.524606E+05  5.660735E+04 -1.798388E-09  7.471111E-10
       236  12  1.069803E+06  1.873401E+05  1.423459E+05  6.756548E+04  2.295862E-08  1.994952E-09
       236  13  2.828895E+05 -2.949438E+03 -1.919215E+04  6.518923E+04 -1.069501E-09 -4.765239E-09
       236  14  2.835610E+05 -8.375434E+01 -1.060384E+04  5.503090E+04  2.283776E-09 -1.999974E-09
       236  15  2.829299E+05  4.010931E+02 -6.051439E+03  6.518044E+04 -2.495415E-09 -4.647126E-09
       236  16 -6.524003E+05 -2.259819E+05 -1.988394E+05  6.442378E+04  3.016763E-08 -9.974778E-10
       236  17 -5.769895E+05 -2.048521E+05 -1.737012E+05  5.345619E+04  2.792615E-09 -4.696166E-10
       236  18 -5.033459E+05 -1.865739E+05 -1.544760E+05  6.279804E+04 -2.478581E-08 -1.136489E-09
       236  19  1.219023E+06  2.200352E+05  1.604222E+05  6.595612E+04  1.707385E+04  5.987388E+04
       236  20  1.144828E+06  2.046449E+05  1.524672E+05  5.660802E+04  1.448673E+04  5.749977E+04
       236  21  1.069804E+06  1.873432E+05  1.423515E+05  6.756599E+04  1.190799E+04  5.318523E+04
       236  22  2.828907E+05 -2.945527E+03 -1.918499E+04  6.518996E+04  1.510970E+04  5.987638E+04
       236  23  2.835620E+05 -8.017844E+01 -1.059745E+04  5.503136E+04  9.824298E+03  5.749373E+04
       236  24  2.829307E+05  4.041347E+02 -6.046087E+03  6.518063E+04  4.546932E+03  5.316936E+04
       236  25 -6.523992E+05 -2.259780E+05 -1.988324E+05  6.442442E+04  1.314842E+04  5.987888E+04
       236  26 -5.769886E+05 -2.048485E+05 -1.736949E+05  5.345643E+04  5.168166E+03  5.748772E+04
       236  27 -5.033452E+05 -1.865709E+05 -1.544707E+05  6.279792E+04 -2.805038E+03  5.315353E+04
       237   1  1.019039E+06  1.750127E+05  1.338476E+05  6.708550E+04 -1.060240E+04 -5.011108E+04
       237   2  9.447205E+05  1.573967E+05  1.218409E+05  5.674207E+04 -9.501946E+03 -4.503309E+04
       237   3  8.701886E+05  1.398356E+05  1.091093E+05  6.676896E+04 -8.404977E+03 -3.982617E+04
       237   4  2.831801E+05  2.578324E+02 -4.594669E+03  6.519666E+04 -3.616260E+03 -5.009497E+04
       237   5  2.833209E+05  3.155100E+02 -2.607969E+03  5.501068E+04 -2.337841E+03 -4.501450E+04
       237   6  2.832117E+05  3.971779E+02 -1.470449E+03  6.519627E+04 -1.062785E+03 -3.980502E+04
       237   7 -4.521562E+05 -1.745284E+05 -1.430605E+05  6.330972E+04  3.361822E+03 -5.007889E+04
       237   8 -3.776564E+05 -1.567911E+05 -1.270758E+05  5.328083E+04  4.818830E+03 -4.499594E+04
       237   9 -3.034327E+05 -1.390613E+05 -1.120651E+05  6.362483E+04  6.272644E+03 -3.978390E+04
       237  10  1.019038E+06  1.750099E+05  1.338427E+05  6.708507E+04 -3.874926E-09  4.018673E-09
       237  11  9.447198E+05  1.573945E+05  1.218369E+05  5.674173E+04  4.044676E-09  3.527441E-09
       237  12  8.701881E+05  1.398339E+05  1.091062E+05  6.676869E+04  7.160393E-09 -7.581596E-10
       237  13  2.831795E+05  2.551337E+02 -4.599410E+03  6.519652E+04 -2.363570E-09 -5.550414E-09
       237  14  2.833204E+05  3.133323E+02 -2.611787E+03  5.501059E+04 -2.656110E-10  5.122305E-09
       237  15  2.832113E+05  3.954760E+02 -1.473429E+03  6.519624E+04  5.896355E-10  6.379539E-09
       237  16 -4.521568E+05 -1.745311E+05 -1.430652E+05  6.330985E+04  2.358599E-09  1.847705E-09
       237  17 -3.776570E+05 -1.567933E+05 -1.270796E+05  5.328101E+04 -2.204146E-09  5.311516E-09
       237  18 -3.034331E+05 -1.390630E+05 -1.120681E+05  6.362503E+04 -7.529800E-09  1.028633E-09
       237  19  1.019039E+06  1.750127E+05  1.338476E+05  6.708550E+04  1.060240E+04  5.011108E+04
       237  20  9.447205E+05  1.573967E+05  1.218409E+05  5.674207E+04  9.501946E+03  4.503309E+04
       237  21  8.701886E+05  1.398356E+05  1.091093E+05  6.676896E+04  8.404977E+03  3.982617E+04
       237  22  2.831801E+05  2.578324E+02 -4.594669E+03  6.519666E+04  3.616260E+03  5.009497E+04
       237  23  2.833209E+05  3.155100E+02 -2.607969E+03  5.501068E+04  2.337841E+03  4.501450E+04
       237  24  2.832117E+05  3.971779E+02 -1.470449E+03  6.519627E+04  1.062785E+03  3.980502E+04
       237  25 -4.521562E+05 -1.745284E+05 -1.430605E+05  6.330972E+04 -3.361822E+03  5.007889E+04
       237  26 -3.776564E+05 -1.567911E+05 -1.270758E+05  5.328083E+04 -4.818830E+03  4.499594E+04
       237  27 -3.034327E+05 -1.390613E+05 -1.120651E+05  6.362483E+04 -6.272644E+03  3.978390E+04
       238   1  8.193834E+05  1.276969E+05  9.956120E+04  6.663222E+04 -8.152653E+03 -3.676012E+04
       238   2  7.451487E+05  1.100356E+05  8.627388E+04  5.627958E+04 -7.888247E+03 -3.150791E+04
       238   3  6.707807E+05  9.251360E+04  7.281277E+04  6.627153E+04 -7.626002E+03 -2.624923E+04
       238   4  2.832473E+05  4.007633E+02 -1.099228E+03  6.519058E+04 -8.393053E+02 -3.673805E+04
       238   5  2.833290E+05  3.502317E+02 -5.840448E+02  5.501782E+04 -5.665654E+02 -3.148443E+04
       238   6  2.832694E+05  4.373555E+02 -2.489571E+02  6.519052E+04 -2.959533E+02 -2.622431E+04
       238   7 -2.526112E+05 -1.269120E+05 -1.017720E+05  6.374996E+04  6.467890E+03 -3.671600E+04
       238   8 -1.782846E+05 -1.093475E+05 -8.745108E+04  5.375683E+04  6.749810E+03 -3.146096E+04
       238   9 -1.040968E+05 -9.164759E+04 -7.331708E+04  6.411008E+04  7.029636E+03 -2.619942E+04
       238  10  8.193830E+05  1.276954E+05  9.955854E+04  6.663198E+04 -1.385509E-09  3.909378E-10
       238  11  7.451483E+05  1.100346E+05  8.627189E+04  5.627938E+04  1.056513E-08  1.084196E-08
       238  12  6.707804E+05  9.251284E+04  7.281137E+04  6.627136E+04  2.012033E-08  1.005123E-08
       238  13  2.832469E+05  3.993136E+02 -1.101766E+03  6.519055E+04  1.056255E-09  9.047237E-10
       238  14  2.833288E+05  3.491670E+02 -5.859085E+02  5.501780E+04  5.526176E-10  1.009767E-08
       238  15  2.832692E+05  4.366169E+02 -2.502498E+02  6.519052E+04 -2.988230E-09  3.316089E-09
       238  16 -2.526116E+05 -1.269134E+05 -1.017746E+05  6.375016E+04  2.909090E-09  9.319411E-10
       238  17 -1.782850E+05 -1.093486E+05 -8.745302E+04  5.375700E+04 -9.306588E-09  3.441122E-09
       238  18 -1.040971E+05 -9.164834E+04 -7.331846E+04  6.411023E+04 -2.051363E-08  3.988528E-10
       238  19  8.193834E+05  1.276969E+05  9.956120E+04  6.663222E+04  8.152653E+03  3.676012E+04
       238  20  7.451487E+05  1.100356E+05  8.627388E+04  5.627958E+04  7.888247E+03  3.150791E+04
       238  21  6.707807E+05  9.251360E+04  7.281277E+04  6.627153E+04  7.626002E+03  2.624923E+04
       238  22  2.832473E+05  4.007633E+02 -1.099228E+03  6.519058E+04  8.393053E+02  3.673805E+04
       238  23  2.833290E+05  3.502317E+02 -5.840448E+02  5.501782E+04  5.665654E+02  3.148443E+04
       238  24  2.832694E+05  4.373555E+02 -2.489571E+02  6.519052E+04  2.959533E+02  2.622431E+04
       238  25 -2.526112E+05 -1.269120E+05 -1.017720E+05  6.374996E+04 -6.467890E+03  3.671600E+04
       238  26 -1.782846E+05 -1.093475E+05 -8.745108E+04  5.375683E+04 -6.749810E+03  3.146096E+04
       238  27 -1.040968E+05 -9.164759E+04 -7.331708E+04  6.411008E+04 -7.029636E+03  2.619942E+04
       239   1  6.200270E+05  8.039339E+04  6.303475E+04  6.613769E+04 -7.599464E+03 -2.318736E+04
       239   2  5.458698E+05  6.273636E+04  4.949599E+04  5.578342E+04 -7.670928E+03 -1.793037E+04
       239   3  4.715903E+05  4.522717E+04  3.599473E+04  6.575878E+04 -7.743568E+03 -1.267751E+04
       239   4  2.832803E+05  4.442040E+02 -1.203708E+02  6.518713E+04 -2.729988E+02 -2.316180E+04
       239   5  2.833493E+05  3.788789E+02  1.202258E+02  5.502205E+04 -3.505489E+02 -1.790405E+04
       239   6  2.832929E+05  4.629784E+02  4.027938E+02  6.518711E+04 -4.292802E+02 -1.265041E+04
       239   7 -5.335671E+04 -7.951152E+04 -6.328020E+04  6.423700E+04  7.049595E+03 -2.313626E+04
       239   8  2.089554E+04 -6.198257E+04 -4.925834E+04  5.426096E+04  6.966814E+03 -1.787774E+04
       239   9  9.502978E+04 -4.430325E+04 -3.519051E+04  6.461558E+04  6.882844E+03 -1.262333E+04
       239  10  6.200268E+05  8.039280E+04  6.303363E+04  6.613755E+04 -9.308109E-09  2.927601E-09
       239  11  5.458696E+05  6.273600E+04  4.949527E+04  5.578330E+04 -4.972365E-09 -8.756123E-10
       239  12  4.715902E+05  4.522698E+04  3.599432E+04  6.575870E+04 -1.285412E-09 -4.939363E-09
       239  13  2.832802E+05  4.436279E+02 -1.213792E+02  6.518713E+04  1.290149E-09  1.061310E-08
       239  14  2.833492E+05  3.785347E+02  1.196231E+02  5.502205E+04  1.074765E-09 -1.451431E-10
       239  15  2.832929E+05  4.628065E+02  4.024927E+02  6.518711E+04 -1.634989E-09 -5.663432E-09
       239  16 -5.335691E+04 -7.951210E+04 -6.328130E+04  6.423713E+04  9.945831E-09  4.050115E-09
       239  17  2.089540E+04 -6.198293E+04 -4.925903E+04  5.426106E+04  7.461907E-09 -4.215739E-09
       239  18  9.502969E+04 -4.430343E+04 -3.519090E+04  6.461565E+04  6.608931E-10 -4.649339E-09
       239  19  6.200270E+05  8.039339E+04  6.303475E+04  6.613769E+04  7.599464E+03  2.318736E+04
       239  20  5.458698E+05  6.273636E+04  4.949599E+04  5.578342E+04  7.670928E+03  1.793037E+04
       239  21  4.715903E+05  4.522717E+04  3.599473E+04  6.575878E+04  7.743568E+03  1.267751E+04
       239  22  2.832803E+05  4.442040E+02 -1.203708E+02  6.518713E+04  2.729988E+02  2.316180E+04
       239  23  2.833493E+05  3.788789E+02  1.202258E+02  5.502205E+04  3.505489E+02  1.790405E+04
       239  24  2.832929E+05  4.629784E+02  4.027938E+02  6.518711E+04  4.292802E+02  1.265041E+04
       239  25 -5.335671E+04 -7.951152E+04 -6.328020E+04  6.423700E+04 -7.049595E+03  2.313626E+04
       239  26  2.089554E+04 -6.198257E+04 -4.925834E+04  5.426096E+04 -6.966814E+03  1.787774E+04
       239  27  9.502978E+04 -4.430325E+04 -3.519051E+04  6.461558E+04 -6.882844E+03  1.262333E+04
       240   1  4.208880E+05  3.310770E+04  2.627399E+04  6.562475E+04 -7.852141E+03 -9.617986E+03
       240   2  3.467467E+05  1.543648E+04  1.299304E+04  5.527952E+04 -8.343428E+03 -4.386980E+03
       240   3  2.725338E+05 -2.048802E+03  2.854992E+01  6.525117E+04 -8.834770E+03  7.942394E+02
       240   4  2.833097E+05  4.626226E+02  5.821757E+02  6.518425E+04 -5.298792E+02 -9.590567E+03
       240   5  2.833436E+05  3.792872E+02  1.094678E+03  5.502568E+04 -1.090869E+03 -4.359639E+03
       240   6  2.833126E+05  4.942233E+02  1.971937E+03  6.518412E+04 -1.651967E+03  8.215128E+02
       240   7  1.457497E+05 -3.218352E+04 -2.511024E+04  6.474382E+04  6.790802E+03 -9.563155E+03
       240   8  2.199445E+05 -1.467811E+04 -1.080366E+04  5.477187E+04  6.160969E+03 -4.332302E+03
       240   9  2.940916E+05  3.037269E+03  3.915514E+03  6.511706E+04  5.530957E+03  8.487844E+02
       240  10  4.208879E+05  3.310758E+04  2.627370E+04  6.562469E+04 -8.210182E-09  1.015981E-09
       240  11  3.467466E+05  1.543644E+04  1.299287E+04  5.527949E+04  4.589152E-09  1.269929E-09
       240  12  2.725338E+05 -2.048823E+03  2.840212E+01  6.525118E+04  1.152994E-08  3.402737E-09
       240  13  2.833096E+05  4.625238E+02  5.820023E+02  6.518424E+04  5.938144E-12 -1.499429E-09
       240  14  2.833436E+05  3.792664E+02  1.094640E+03  5.502568E+04 -1.166169E-09  3.711748E-09
       240  15  2.833126E+05  4.942218E+02  1.971931E+03  6.518412E+04 -1.592250E-09  3.656549E-09
       240  16  1.457496E+05 -3.218363E+04 -2.511050E+04  6.474387E+04  9.331859E-09  2.560436E-09
       240  17  2.199444E+05 -1.467814E+04 -1.080377E+04  5.477190E+04 -3.277067E-09 -9.250155E-09
       240  18  2.940915E+05  3.037260E+03  3.915455E+03  6.511706E+04 -1.246239E-08 -1.860999E-10
       240  19  4.208880E+05  3.310770E+04  2.627399E+04  6.562475E+04  7.852141E+03  9.617986E+03
       240  20  3.467467E+05  1.543648E+04  1.299304E+04  5.527952E+04  8.343428E+03  4.386980E+03
       240  21  2.725338E+05 -2.048802E+03  2.854992E+01  6.525117E+04  8.834770E+03 -7.942394E+02
       240  22  2.833097E+05  4.626226E+02  5.821757E+02  6.518425E+04  5.298792E+02  9.590567E+03
       240  23  2.833436E+05  3.792872E+02  1.094678E+03  5.502568E+04  1.090869E+03  4.359639E+03
       240  24  2.833126E+05  4.942233E+02  1.971937E+03  6.518412E+04  1.651967E+03 -8.215128E+02
       240  25  1.457497E+05 -3.218352E+04 -2.511024E+04  6.474382E+04 -6.790802E+03  9.563155E+03
       240  26  2.199445E+05 -1.467811E+04 -1.080366E+04  5.477187E+04 -6.160969E+03  4.332302E+03
       240  27  2.940916E+05  3.037269E+03  3.915514E+03  6.511706E+04 -5.530957E+03 -8.487844E+02
       241   1  2.219128E+05 -1.424375E+04 -9.242851E+03  6.528357E+04 -9.387670E+03  3.851867E+03
       241   2  1.476071E+05 -3.180304E+04 -2.135840E+04  5.457495E+04 -1.067531E+04  8.741792E+03
       241   3  7.355752E+04 -4.829957E+04 -3.241808E+04  6.414179E+04 -1.195962E+04  1.290513E+04
       241   4  2.834208E+05  4.224261E+02  2.606253E+03  6.517592E+04 -2.067125E+03  3.879601E+03
       241   5  2.832047E+05  4.990814E+02  4.574653E+03  5.503572E+04 -4.367263E+03  8.765314E+03
       241   6  2.834138E+05  1.813980E+03  8.301107E+03  6.517064E+04 -6.664195E+03  1.292453E+04
       241   7  3.449324E+05  1.508840E+04  1.445538E+04  6.506826E+04  5.254127E+03  3.907332E+03
       241   8  4.188201E+05  3.280014E+04  3.050702E+04  5.549658E+04  1.942134E+03  8.788843E+03
       241   9  4.933123E+05  5.192492E+04  4.901833E+04  6.619979E+04 -1.367018E+03  1.294394E+04
       241  10  2.219127E+05 -1.424379E+04 -9.243044E+03  6.528360E+04 -5.362631E-08  7.058559E-09
       241  11  1.476069E+05 -3.180315E+04 -2.135876E+04  5.457502E+04 -1.004868E-08  1.213295E-09
       241  12  7.355732E+04 -4.829979E+04 -3.241866E+04  6.414192E+04  3.546393E-08  4.159325E-09
       241  13  2.834207E+05  4.224088E+02  2.606217E+03  6.517593E+04 -1.088938E-09  5.246079E-09
       241  14  2.832046E+05  4.989938E+02  4.574472E+03  5.503575E+04 -1.597692E-10  2.013084E-09
       241  15  2.834137E+05  1.813789E+03  8.300710E+03  6.517070E+04 -2.277618E-10 -1.274675E-09
       241  16  3.449324E+05  1.508838E+04  1.445530E+04  6.506824E+04  5.361369E-08  4.888017E-09
       241  17  4.188201E+05  3.280005E+04  3.050686E+04  5.549657E+04  1.115483E-08 -1.151016E-09
       241  18  4.933123E+05  5.192474E+04  4.901801E+04  6.619981E+04 -3.659153E-08 -9.708465E-09
       241  19  2.219128E+05 -1.424375E+04 -9.242851E+03  6.528357E+04  9.387670E+03 -3.851867E+03
       241  20  1.476071E+05 -3.180304E+04 -2.135840E+04  5.457495E+04  1.067531E+04 -8.741792E+03
       241  21  7.355752E+04 -4.829957E+04 -3.241808E+04  6.414179E+04  1.195962E+04 -1.290513E+04
       241  22  2.834208E+05  4.224261E+02  2.606253E+03  6.517592E+04  2.067125E+03 -3.879601E+03
       241  23  2.832047E+05  4.990814E+02  4.574653E+03  5.503572E+04  4.367263E+03 -8.765314E+03
       241  24  2.834138E+05  1.813980E+03  8.301107E+03  6.517064E+04  6.664195E+03 -1.292453E+04
       241  25  3.449324E+05  1.508840E+04  1.445538E+04  6.506826E+04 -5.254127E+03 -3.907332E+03
       241  26  4.188201E+05  3.280014E+04  3.050702E+04  5.549658E+04 -1.942134E+03 -8.788843E+03
       241  27  4.933123E+05  5.192492E+04  4.901833E+04  6.619979E+04  1.367018E+03 -1.294394E+04
       242   1  2.393770E+04 -6.207434E+04 -3.997231E+04  6.776866E+04 -1.542582E+04  1.595292E+04
       242   2 -5.270286E+04 -7.509569E+04 -4.982326E+04  4.562156E+04 -1.054708E+04  1.588712E+04
       242   3 -1.245055E+05 -6.562838E+04 -5.725885E+04  4.307941E+04 -5.631792E+03  5.125919E+03
       242   4  2.849625E+05  2.408839E+02  1.075783E+04  6.504581E+04 -8.102349E+03  1.597957E+04
       242   5  2.812455E+05  5.577153E+03  1.923780E+04  5.517970E+04 -1.811376E+04  1.585891E+04
       242   6  2.849423E+05  3.597986E+04  4.046902E+04  6.491694E+04 -2.808846E+04  5.045656E+03
       242   7  5.460528E+05  6.255210E+04  6.148496E+04  6.232173E+04 -7.758697E+02  1.600615E+04
       242   8  6.152998E+05  8.624328E+04  8.829307E+04  6.474298E+04 -2.568444E+04  1.583047E+04
       242   9  6.945459E+05  1.375780E+05  1.381872E+05  8.676880E+04 -5.055987E+04  4.963841E+03
       242  10  2.393737E+04 -6.207468E+04 -3.997323E+04  6.776886E+04 -3.357692E-10  3.657257E-09
       242  11 -5.270305E+04 -7.509599E+04 -4.982394E+04  4.562169E+04 -1.794943E-09 -6.682606E-10
       242  12 -1.245056E+05 -6.562841E+04 -5.725896E+04  4.307944E+04 -1.217089E-09 -1.568012E-09
       242  13  2.849623E+05  2.405920E+02  1.075723E+04  6.504592E+04  2.014992E-10  6.981735E-09
       242  14  2.812450E+05  5.576795E+03  1.923671E+04  5.517994E+04  7.644569E-10 -1.020489E-08
       242  15  2.849415E+05  3.597962E+04  4.046749E+04  6.491706E+04 -3.188779E-11  2.893685E-09
       242  16  5.460527E+05  6.255182E+04  6.148448E+04  6.232174E+04  9.531575E-10  4.632309E-10
       242  17  6.152990E+05  8.624283E+04  8.829136E+04  6.474331E+04  2.058857E-09  2.937823E-09
       242  18  6.945432E+05  1.375772E+05  1.381824E+05  8.676901E+04  3.762904E-10 -8.722708E-10
       242  19  2.393770E+04 -6.207434E+04 -3.997231E+04  6.776866E+04  1.542582E+04 -1.595292E+04
       242  20 -5.270286E+04 -7.509569E+04 -4.982326E+04  4.562156E+04  1.054708E+04 -1.588712E+04
       242  21 -1.245055E+05 -6.562838E+04 -5.725885E+04  4.307941E+04  5.631792E+03 -5.125919E+03
       242  22  2.849625E+05  2.408839E+02  1.075783E+04  6.504581E+04  8.102349E+03 -1.597957E+04
       242  23  2.812455E+05  5.577153E+03  1.923780E+04  5.517970E+04  1.811376E+04 -1.585891E+04
       242  24  2.849423E+05  3.597986E+04  4.046902E+04  6.491694E+04  2.808846E+04 -5.045656E+03
       242  25  5.460528E+05  6.255210E+04  6.148496E+04  6.232173E+04  7.758697E+02 -1.600615E+04
       242  26  6.152998E+05  8.624328E+04  8.829307E+04  6.474298E+04  2.568444E+04 -1.583047E+04
       242  27  6.945459E+05  1.375780E+05  1.381872E+05  8.676880E+04  5.055987E+04 -4.963841E+03
       243   1  2.479012E+05  1.816928E+06  2.505360E+05 -1.818010E+05  8.631920E+03  8.515726E+04
       243   2  1.480805E+05  1.644680E+06  1.578019E+05 -1.380464E+05  2.646794E+04  3.794792E+04
       243   3  9.861689E+04  1.491010E+06  1.083158E+05 -1.376050E+05  2.488346E+04 -9.284415E+03
       243   4  6.506314E+04  1.078742E+06  7.424017E+04 -1.425613E+05  8.716426E+03  4.684059E+04
       243   5  9.818644E+03  1.071848E+06  3.886253E+04 -1.209747E+05  2.649500E+04  2.674471E+04
       243   6  2.605655E+02  1.078833E+06  2.796102E+04 -1.426977E+05  2.484829E+04  6.612930E+03
       243   7 -1.178078E+05  3.410598E+05 -1.020877E+05 -1.033680E+05  8.796158E+03  8.569135E+03
       243   8 -1.284630E+05  4.993272E+05 -8.009416E+04 -1.039188E+05  2.652146E+04  1.555164E+04
       243   9 -9.810568E+04  6.668187E+05 -5.240086E+04 -1.477868E+05  2.481285E+04  2.249997E+04
       243  10  2.478992E+05  1.816920E+06  2.505223E+05 -1.818016E+05  3.230324E-10  4.572763E-10
       243  11  1.480794E+05  1.644679E+06  1.577979E+05 -1.380472E+05 -1.467878E-09 -4.169812E-09
       243  12  9.861620E+04  1.491009E+06  1.083144E+05 -1.376048E+05 -5.667691E-11 -4.921924E-09
       243  13  6.506247E+04  1.078739E+06  7.423591E+04 -1.425616E+05  8.265965E-10  1.884380E-09
       243  14  9.817698E+03  1.071847E+06  3.885987E+04 -1.209753E+05  1.417335E-09  1.742518E-09
       243  15  2.598904E+02  1.078832E+06  2.795978E+04 -1.426978E+05  1.637984E-09  2.240429E-09
       243  16 -1.178079E+05  3.410597E+05 -1.020880E+05 -1.033680E+05 -2.101204E-10 -6.529697E-10
       243  17 -1.284638E+05  4.993267E+05 -8.009593E+04 -1.039191E+05  1.324207E-09  4.780135E-09
       243  18 -9.810648E+04  6.668180E+05 -5.240297E+04 -1.477873E+05  7.655731E-10  3.662866E-09
       243  19  2.479012E+05  1.816928E+06  2.505360E+05 -1.818010E+05 -8.631920E+03 -8.515726E+04
       243  20  1.480805E+05  1.644680E+06  1.578019E+05 -1.380464E+05 -2.646794E+04 -3.794792E+04
       243  21  9.861689E+04  1.491010E+06  1.083158E+05 -1.376050E+05 -2.488346E+04  9.284415E+03
       243  22  6.506314E+04  1.078742E+06  7.424017E+04 -1.425613E+05 -8.716426E+03 -4.684059E+04
       243  23  9.818644E+03  1.071848E+06  3.886253E+04 -1.209747E+05 -2.649500E+04 -2.674471E+04
       243  24  2.605655E+02  1.078833E+06  2.796102E+04 -1.426977E+05 -2.484829E+04 -6.612930E+03
       243  25 -1.178078E+05  3.410598E+05 -1.020877E+05 -1.033680E+05 -8.796158E+03 -8.569135E+03
       243  26 -1.284630E+05  4.993272E+05 -8.009416E+04 -1.039188E+05 -2.652146E+04 -1.555164E+04
       243  27 -9.810568E+04  6.668187E+05 -5.240086E+04 -1.477868E+05 -2.481285E+04 -2.249997E+04
       244   1  7.444504E+04  1.376654E+06  8.503118E+04 -1.455656E+05  1.818564E+04 -1.010588E+04
       244   2  3.385526E+04  1.212257E+06  5.513655E+04 -1.207548E+05  9.128999E+03 -2.525425E+04
       244   3  5.644469E+02  1.051448E+06  3.685552E+04 -1.403125E+05 -3.842948E+02 -4.040112E+04
       244   4  2.796211E+03  1.076528E+06  2.656178E+04 -1.429108E+05  1.815731E+04  2.251231E+03
       244   5  1.181506E+03  1.074807E+06  2.903747E+04 -1.207220E+05  9.098500E+03 -1.225854E+04
       244   6  6.757027E+03  1.076537E+06  4.268513E+04 -1.429015E+05 -4.169568E+02 -2.677059E+04
       244   7 -6.885791E+04  7.764876E+05 -3.191133E+04 -1.402573E+05  1.812907E+04  1.460251E+04
       244   8 -3.149326E+04  9.373744E+05  2.938177E+03 -1.206892E+05  9.067998E+03  7.343556E+02
       244   9  1.294969E+04  1.101626E+06  4.851540E+04 -1.454907E+05 -4.497316E+02 -1.313952E+04
       244  10  7.444466E+04  1.376654E+06  8.503037E+04 -1.455654E+05  1.738561E-09 -2.183077E-08
       244  11  3.385500E+04  1.212257E+06  5.513520E+04 -1.207546E+05  2.990001E-09 -3.440057E-09
       244  12  5.640094E+02  1.051446E+06  3.685245E+04 -1.403125E+05 -1.561968E-09  2.151203E-08
       244  13  2.795855E+03  1.076528E+06  2.656115E+04 -1.429108E+05  1.630258E-09  1.984055E-09
       244  14  1.181377E+03  1.074806E+06  2.903703E+04 -1.207219E+05  3.914939E-09  1.759084E-09
       244  15  6.756835E+03  1.076536E+06  4.268378E+04 -1.429016E+05 -3.055555E-11  2.546568E-09
       244  16 -6.885832E+04  7.764873E+05 -3.191234E+04 -1.402575E+05  1.897476E-09  2.173399E-08
       244  17 -3.149335E+04  9.373744E+05  2.938021E+03 -1.206892E+05  4.345481E-09  4.010324E-09
       244  18  1.294964E+04  1.101626E+06  4.851507E+04 -1.454907E+05  1.809528E-09 -2.204986E-08
       244  19  7.444504E+04  1.376654E+06  8.503118E+04 -1.455656E+05 -1.818564E+04  1.010588E+04
       244  20  3.385526E+04  1.212257E+06  5.513655E+04 -1.207548E+05 -9.128999E+03  2.525425E+04
       244  21  5.644469E+02  1.051448E+06  3.685552E+04 -1.403125E+05  3.842948E+02  4.040112E+04
       244  22  2.796211E+03  1.076528E+06  2.656178E+04 -1.429108E+05 -1.815731E+04 -2.251231E+03
       244  23  1.181506E+03  1.074807E+06  2.903747E+04 -1.207220E+05 -9.098500E+03  1.225854E+04
       244  24  6.757027E+03  1.076537E+06  4.268513E+04 -1.429015E+05  4.169568E+02  2.677059E+04
       244  25 -6.885791E+04  7.764876E+05 -3.191133E+04 -1.402573E+05 -1.812907E+04 -1.460251E+04
       244  26 -3.149326E+04  9.373744E+05  2.938177E+03 -1.206892E+05 -9.067998E+03 -7.343556E+02
       244  27  1.294969E+04  1.101626E+06  4.851540E+04 -1.454907E+05  4.497316E+02  1.313952E+04
       245   1 -3.310227E+04  9.466676E+05  2.520217E+04 -1.582743E+05 -7.057629E+03 -4.982814E+04
       245   2 -4.787903E+04  7.683340E+05  2.688910E+04 -8.025219E+04 -1.201785E+04 -7.916557E+04
       245   3  4.944581E+04  6.216693E+05  7.564327E+04 -4.581280E+04 -4.357698E+03 -1.084681E+05
       245   4 -3.318326E+02  1.083478E+06  5.284037E+04 -1.427911E+05 -7.096619E+03 -3.404173E+04
       245   5  2.450035E+04  1.066091E+06  9.024014E+04 -1.208223E+05 -1.200808E+04 -8.099049E+04
       245   6  1.644435E+05  1.083363E+06  1.869001E+05 -1.424222E+05 -4.296661E+03 -1.279126E+05
       245   7  3.243849E+04  1.220307E+06  8.047868E+04 -1.273045E+05 -7.134818E+03 -1.825191E+04
       245   8  9.688009E+04  1.363934E+06  1.535870E+05 -1.614121E+05 -1.199808E+04 -8.281626E+04
       245   9  2.794607E+05  1.545271E+06  2.981480E+05 -2.391035E+05 -4.229608E+03 -1.473714E+05
       245  10 -3.310299E+04  9.466649E+05  2.519742E+04 -1.582746E+05 -1.043826E-09  4.751141E-09
       245  11 -4.788087E+04  7.683272E+05  2.687707E+04 -8.025296E+04  7.813126E-10 -1.426449E-09
       245  12  4.944263E+04  6.216567E+05  7.562115E+04 -4.581319E+04 -1.148959E-10 -2.273893E-09
       245  13 -3.321972E+02  1.083476E+06  5.283811E+04 -1.427913E+05  2.269810E-10  2.064911E-09
       245  14  2.449844E+04  1.066084E+06  9.022756E+04 -1.208231E+05 -2.295006E-09  2.641988E-09
       245  15  1.644391E+05  1.083345E+06  1.868694E+05 -1.424226E+05  1.294239E-09  2.153440E-09
       245  16  3.243835E+04  1.220306E+06  8.047796E+04 -1.273046E+05 -1.338688E-10 -4.667198E-09
       245  17  9.687810E+04  1.363927E+06  1.535738E+05 -1.614129E+05  1.658323E-09  1.878056E-09
       245  18  2.794549E+05  1.545248E+06  2.981073E+05 -2.391040E+05  3.207560E-10  1.347546E-09
       245  19 -3.310227E+04  9.466676E+05  2.520217E+04 -1.582743E+05  7.057629E+03  4.982814E+04
       245  20 -4.787903E+04  7.683340E+05  2.688910E+04 -8.025219E+04  1.201785E+04  7.916557E+04
       245  21  4.944581E+04  6.216693E+05  7.564327E+04 -4.581280E+04  4.357698E+03  1.084681E+05
       245  22 -3.318326E+02  1.083478E+06  5.284037E+04 -1.427911E+05  7.096619E+03  3.404173E+04
       245  23  2.450035E+04  1.066091E+06  9.024014E+04 -1.208223E+05  1.200808E+04  8.099049E+04
       245  24  1.644435E+05  1.083363E+06  1.869001E+05 -1.424222E+05  4.296661E+03  1.279126E+05
       245  25  3.243849E+04  1.220307E+06  8.047868E+04 -1.273045E+05  7.134818E+03  1.825191E+04
       245  26  9.688009E+04  1.363934E+06  1.535870E+05 -1.614121E+05  1.199808E+04  8.281626E+04
       245  27  2.794607E+05  1.545271E+06  2.981480E+05 -2.391035E+05  4.229608E+03  1.473714E+05
       246   1  1.481986E+06  4.642587E+05  2.331562E+05  5.191906E+05  5.169446E+04  2.137412E+03
       246   2  1.410374E+06  4.450422E+05  1.928570E+05  4.920165E+05  3.501943E+04 -4.349647E+04
       246   3  1.324821E+06  4.319719E+05  1.721279E+05  4.853315E+05  7.964148E+03 -6.158240E+04
       246   4  4.779844E+05  9.852083E+04 -2.637236E+04  2.558235E+05 -1.125604E+04 -2.161142E+04
       246   5  4.900059E+05  1.092804E+05 -1.194673E+04  2.417105E+05  8.051091E+03 -5.368412E+04
       246   6  4.809570E+05  1.190590E+05 -6.428591E+03  2.480894E+05  1.696530E+04 -5.818997E+04
       246   7 -5.250063E+05 -2.671557E+05 -2.859596E+05 -7.157381E+03 -7.409324E+04 -4.532054E+04
       246   8 -4.294949E+05 -2.264153E+05 -2.167965E+05 -8.254797E+03 -1.887359E+04 -6.385582E+04
       246   9 -3.621795E+05 -1.937909E+05 -1.850240E+05  1.114498E+04  2.595328E+04 -5.480262E+04
       246  10  1.481983E+06  4.642579E+05  2.331512E+05  5.191905E+05 -2.493074E-09  1.097382E-10
       246  11  1.410372E+06  4.450399E+05  1.928511E+05  4.920177E+05  3.192001E-09  4.112828E-09
       246  12  1.324820E+06  4.319678E+05  1.721207E+05  4.853319E+05  6.931369E-09  2.066861E-09
       246  13  4.779841E+05  9.852030E+04 -2.637348E+04  2.558233E+05  1.429899E-09  5.573304E-09
       246  14  4.900051E+05  1.092773E+05 -1.195227E+04  2.417109E+05  2.374251E-09 -3.295157E-09
       246  15  4.809557E+05  1.190553E+05 -6.435497E+03  2.480902E+05  6.785384E-10 -3.909629E-09
       246  16 -5.250128E+05 -2.671594E+05 -2.859738E+05 -7.160087E+03  1.952394E-09 -3.057386E-10
       246  17 -4.294964E+05 -2.264198E+05 -2.168049E+05 -8.255768E+03 -5.638609E-10 -3.560067E-09
       246  18 -3.621810E+05 -1.937943E+05 -1.850309E+05  1.114613E+04 -6.156755E-09 -6.180965E-09
       246  19  1.481986E+06  4.642587E+05  2.331562E+05  5.191906E+05 -5.169446E+04 -2.137412E+03
       246  20  1.410374E+06  4.450422E+05  1.928570E+05  4.920165E+05 -3.501943E+04  4.349647E+04
       246  21  1.324821E+06  4.319719E+05  1.721279E+05  4.853315E+05 -7.964148E+03  6.158240E+04
       246  22  4.779844E+05  9.852083E+04 -2.637236E+04  2.558235E+05  1.125604E+04  2.161142E+04
       246  23  4.900059E+05  1.092804E+05 -1.194673E+04  2.417105E+05 -8.051091E+03  5.368412E+04
       246  24  4.809570E+05  1.190590E+05 -6.428591E+03  2.480894E+05 -1.696530E+04  5.818997E+04
       246  25 -5.250063E+05 -2.671557E+05 -2.859596E+05 -7.157381E+03  7.409324E+04  4.532054E+04
       246  26 -4.294949E+05 -2.264153E+05 -2.167965E+05 -8.254797E+03  1.887359E+04  6.385582E+04
       246  27 -3.621795E+05 -1.937909E+05 -1.850240E+05  1.114498E+04 -2.595328E+04  5.480262E+04
       247   1  1.274625E+06  4.102020E+05  1.627439E+05  4.697047E+05  1.344123E+04 -5.524172E+04
       247   2  1.208678E+06  3.759049E+05  1.476519E+05  4.404379E+05  1.147086E+04 -5.254263E+04
       247   3  1.127194E+06  3.570239E+05  1.331333E+05  4.290557E+05  8.873747E+03 -4.819503E+04
       247   4  4.815062E+05  1.183618E+05 -4.946103E+03  2.491219E+05  1.630503E+04 -5.416649E+04
       247   5  4.895705E+05  1.113133E+05 -2.616971E+03  2.400181E+05  1.648664E+04 -5.065213E+04
       247   6  4.816669E+05  1.192556E+05 -1.418996E+03  2.487984E+05  1.604106E+04 -4.548825E+04
       247   7 -3.109782E+05 -1.734285E+05 -1.726728E+05  2.879609E+04  1.916491E+04 -5.309274E+04
       247   8 -2.290114E+05 -1.532355E+05 -1.529145E+05  3.981096E+04  2.149619E+04 -4.876399E+04
       247   9 -1.634340E+05 -1.184770E+05 -1.359935E+05  6.871354E+04  2.320035E+04 -4.278450E+04
       247  10  1.274624E+06  4.101987E+05  1.627378E+05  4.697053E+05  7.710843E-10 -3.881754E-10
       247  11  1.208677E+06  3.759019E+05  1.476464E+05  4.404384E+05 -8.113933E-10  2.490969E-09
       247  12  1.127193E+06  3.570214E+05  1.331288E+05  4.290561E+05 -3.437852E-09  3.300298E-09
       247  13  4.815051E+05  1.183586E+05 -4.952118E+03  2.491226E+05  1.530616E-10  9.961169E-10
       247  14  4.895695E+05  1.113105E+05 -2.622305E+03  2.400188E+05  1.338959E-10  2.861255E-10
       247  15  4.816661E+05  1.192533E+05 -1.423369E+03  2.487990E+05 -1.240140E-09  2.924311E-09
       247  16 -3.109793E+05 -1.734316E+05 -1.726788E+05  2.879691E+04  7.775850E-10 -4.431286E-09
       247  17 -2.290125E+05 -1.532382E+05 -1.529198E+05  3.981181E+04  1.335586E-09 -6.359026E-10
       247  18 -1.634351E+05 -1.184791E+05 -1.359980E+05  6.871434E+04  2.206679E-09  5.075319E-09
       247  19  1.274625E+06  4.102020E+05  1.627439E+05  4.697047E+05 -1.344123E+04  5.524172E+04
       247  20  1.208678E+06  3.759049E+05  1.476519E+05  4.404379E+05 -1.147086E+04  5.254263E+04
       247  21  1.127194E+06  3.570239E+05  1.331333E+05  4.290557E+05 -8.873747E+03  4.819503E+04
       247  22  4.815062E+05  1.183618E+05 -4.946103E+03  2.491219E+05 -1.630503E+04  5.416649E+04
       247  23  4.895705E+05  1.113133E+05 -2.616971E+03  2.400181E+05 -1.648664E+04  5.065213E+04
       247  24  4.816669E+05  1.192556E+05 -1.418996E+03  2.487984E+05 -1.604106E+04  4.548825E+04
       247  25 -3.109782E+05 -1.734285E+05 -1.726728E+05  2.879609E+04 -1.916491E+04  5.309274E+04
       247  26 -2.290114E+05 -1.532355E+05 -1.529145E+05  3.981096E+04 -2.149619E+04  4.876399E+04
       247  27 -1.634340E+05 -1.184770E+05 -1.359935E+05  6.871354E+04 -2.320035E+04  4.278450E+04
       248   1  1.076060E+06  3.380200E+05  1.224267E+05  4.147569E+05  8.250428E+03 -4.480055E+04
       248   2  1.010672E+06  3.033449E+05  1.078033E+05  3.854692E+05  6.427072E+03 -3.949338E+04
       248   3  9.296538E+05  2.843375E+05  9.307464E+04  3.739195E+05  4.565593E+03 -3.409389E+04
       248   4  4.817237E+05  1.192322E+05 -1.063139E+03  2.488350E+05  1.503947E+04 -4.223545E+04
       248   5  4.895739E+05  1.114539E+05 -5.630492E+02  2.399559E+05  1.333671E+04 -3.688068E+04
       248   6  4.817638E+05  1.193200E+05 -2.645614E+02  2.488140E+05  1.159581E+04 -3.143348E+04
       248   7 -1.122472E+05 -9.952357E+04 -1.245704E+05  8.306065E+04  2.182147E+04 -3.967303E+04
       248   8 -3.124611E+04 -8.041370E+04 -1.089437E+05  9.455511E+04  2.024010E+04 -3.427033E+04
       248   9  3.407549E+04 -4.568163E+04 -9.361525E+04  1.237906E+05  1.862062E+04 -2.877512E+04
       248  10  1.076060E+06  3.380179E+05  1.224228E+05  4.147572E+05  4.366386E-09  6.094229E-09
       248  11  1.010671E+06  3.033432E+05  1.078003E+05  3.854694E+05  5.870753E-10  1.037231E-08
       248  12  9.296535E+05  2.843363E+05  9.307241E+04  3.739196E+05 -5.772595E-09  2.131890E-09
       248  13  4.817229E+05  1.192302E+05 -1.066917E+03  2.488355E+05 -1.414208E-09  4.040544E-09
       248  14  4.895734E+05  1.114524E+05 -5.659403E+02  2.399563E+05  7.197896E-10 -9.325145E-11
       248  15  4.817634E+05  1.193189E+05 -2.666715E+02  2.488143E+05 -2.619290E-09  4.355620E-09
       248  16 -1.122482E+05 -9.952539E+04 -1.245742E+05  8.306134E+04 -9.188453E-09  2.816403E-09
       248  17 -3.124686E+04 -8.041507E+04 -1.089467E+05  9.455566E+04 -3.044936E-09  8.571550E-09
       248  18  3.407490E+04 -4.568262E+04 -9.361745E+04  1.237911E+05  1.295390E-09  1.491942E-09
       248  19  1.076060E+06  3.380200E+05  1.224267E+05  4.147569E+05 -8.250428E+03  4.480055E+04
       248  20  1.010672E+06  3.033449E+05  1.078033E+05  3.854692E+05 -6.427072E+03  3.949338E+04
       248  21  9.296538E+05  2.843375E+05  9.307464E+04  3.739195E+05 -4.565593E+03  3.409389E+04
       248  22  4.817237E+05  1.192322E+05 -1.063139E+03  2.488350E+05 -1.503947E+04  4.223545E+04
       248  23  4.895739E+05  1.114539E+05 -5.630492E+02  2.399559E+05 -1.333671E+04  3.688068E+04
       248  24  4.817638E+05  1.193200E+05 -2.645614E+02  2.488140E+05 -1.159581E+04  3.143348E+04
       248  25 -1.122472E+05 -9.952357E+04 -1.245704E+05  8.306065E+04 -2.182147E+04  3.967303E+04
       248  26 -3.124611E+04 -8.041370E+04 -1.089437E+05  9.455511E+04 -2.024010E+04  3.427033E+04
       248  27  3.407549E+04 -4.568163E+04 -9.361525E+04  1.237906E+05 -1.862062E+04  2.877512E+04
       249   1  8.786747E+05  2.654938E+05  8.213281E+04  3.597070E+05  3.444214E+03 -3.093733E+04
       249   2  8.135195E+05  2.308740E+05  6.735554E+04  3.304815E+05  1.408926E+03 -2.557312E+04
       249   3  7.327563E+05  2.118897E+05  5.258589E+04  3.189361E+05 -6.287428E+02 -2.020769E+04
       249   4  4.817822E+05  1.193193E+05 -1.664006E+02  2.488039E+05  1.044558E+04 -2.828685E+04
       249   5  4.896000E+05  1.115205E+05  4.414492E+00  2.399612E+05  8.411843E+03 -2.292081E+04
       249   6  4.818031E+05  1.193565E+05  1.810931E+02  2.487966E+05  6.375726E+03 -1.755354E+04
       249   7  8.505114E+04 -2.684154E+04 -8.247372E+04  1.379660E+05  1.744212E+04 -2.563821E+04
       249   8  1.657891E+05 -7.823400E+03 -6.735174E+04  1.494847E+05  1.541080E+04 -2.027001E+04
       249   9  2.309162E+05  2.682946E+04 -5.222635E+04  1.786839E+05  1.337709E+04 -1.490057E+04
       249  10  8.786745E+05  2.654928E+05  8.213099E+04  3.597071E+05 -3.798718E-10  4.023212E-09
       249  11  8.135194E+05  2.308733E+05  6.735431E+04  3.304816E+05 -1.578420E-09  1.227420E-08
       249  12  7.327562E+05  2.118893E+05  5.258512E+04  3.189361E+05  7.293060E-10  1.101265E-09
       249  13  4.817819E+05  1.193184E+05 -1.681098E+02  2.488041E+05 -8.045295E-10  4.472885E-09
       249  14  4.895997E+05  1.115199E+05  3.293948E+00  2.399614E+05 -8.035717E-10  2.829719E-09
       249  15  4.818029E+05  1.193561E+05  1.804375E+02  2.487967E+05  1.222287E-09  4.214776E-09
       249  16  8.505064E+04 -2.684233E+04 -8.247553E+04  1.379664E+05 -3.331312E-09  5.153057E-09
       249  17  1.657888E+05 -7.823906E+03 -6.735296E+04  1.494850E+05 -3.942642E-09  2.384394E-09
       249  18  2.309160E+05  2.682917E+04 -5.222710E+04  1.786841E+05 -1.268173E-09  2.525824E-09
       249  19  8.786747E+05  2.654938E+05  8.213281E+04  3.597070E+05 -3.444214E+03  3.093733E+04
       249  20  8.135195E+05  2.308740E+05  6.735554E+04  3.304815E+05 -1.408926E+03  2.557312E+04
       249  21  7.327563E+05  2.118897E+05  5.258589E+04  3.189361E+05  6.287428E+02  2.020769E+04
       249  22  4.817822E+05  1.193193E+05 -1.664006E+02  2.488039E+05 -1.044558E+04  2.828685E+04
       249  23  4.896000E+05  1.115205E+05  4.414492E+00  2.399612E+05 -8.411843E+03  2.292081E+04
       249  24  4.818031E+05  1.193565E+05  1.810931E+02  2.487966E+05 -6.375726E+03  1.755354E+04
       249  25  8.505114E+04 -2.684154E+04 -8.247372E+04  1.379660E+05 -1.744212E+04  2.563821E+04
       249  26  1.657891E+05 -7.823400E+03 -6.735174E+04  1.494847E+05 -1.541080E+04  2.027001E+04
       249  27  2.309162E+05  2.682946E+04 -5.222635E+04  1.786839E+05 -1.337709E+04  1.490057E+04
       250   1  6.818999E+05  1.930770E+05  4.166846E+04  3.047525E+05 -1.847204E+03 -1.709724E+04
       250   2  6.168451E+05  1.584825E+05  2.704635E+04  2.755749E+05 -4.162571E+03 -1.184123E+04
       250   3  5.362212E+05  1.395138E+05  1.263590E+04  2.640553E+05 -6.476804E+03 -6.590091E+03
       250   4  4.818188E+05  1.193577E+05  2.834926E+02  2.487934E+05  5.152870E+03 -1.444424E+04
       250   5  4.896076E+05  1.115448E+05  5.819316E+02  2.399660E+05  2.830984E+03 -9.190190E+03
       250   6  4.818245E+05  1.193592E+05  1.097481E+03  2.487952E+05  5.101940E+02 -3.941025E+03
       250   7  2.817771E+05  4.564131E+04 -4.110380E+04  1.928505E+05  1.215057E+04 -1.179213E+04
       250   8  3.623863E+05  6.460832E+04 -2.588329E+04  2.043638E+05  9.823021E+03 -6.539724E+03
       250   9  4.274309E+05  9.920483E+04 -1.044090E+04  2.335364E+05  7.496534E+03 -1.292210E+03
       250  10  6.818999E+05  1.930766E+05  4.166790E+04  3.047524E+05  2.888792E-09 -3.661533E-09
       250  11  6.168451E+05  1.584824E+05  2.704606E+04  2.755748E+05 -1.058377E-08 -7.983297E-09
       250  12  5.362211E+05  1.395137E+05  1.263574E+04  2.640553E+05 -2.192251E-08 -7.099456E-09
       250  13  4.818187E+05  1.193574E+05  2.830505E+02  2.487934E+05 -8.851962E-11 -1.064095E-09
       250  14  4.896076E+05  1.115447E+05  5.817578E+02  2.399660E+05  2.264141E-09  3.250652E-09
       250  15  4.818245E+05  1.193591E+05  1.097452E+03  2.487952E+05  4.767865E-09  7.669656E-10
       250  16  2.817769E+05  4.564112E+04 -4.110434E+04  1.928506E+05 -2.924907E-09 -1.515205E-10
       250  17  3.623862E+05  6.460825E+04 -2.588355E+04  2.043638E+05  9.630808E-09  5.049103E-09
       250  18  4.274309E+05  9.920481E+04 -1.044100E+04  2.335364E+05  2.529422E-08 -1.222762E-10
       250  19  6.818999E+05  1.930770E+05  4.166846E+04  3.047525E+05  1.847204E+03  1.709724E+04
       250  20  6.168451E+05  1.584825E+05  2.704635E+04  2.755749E+05  4.162571E+03  1.184123E+04
       250  21  5.362212E+05  1.395138E+05  1.263590E+04  2.640553E+05  6.476804E+03  6.590091E+03
       250  22  4.818188E+05  1.193577E+05  2.834926E+02  2.487934E+05 -5.152870E+03  1.444424E+04
       250  23  4.896076E+05  1.115448E+05  5.819316E+02  2.399660E+05 -2.830984E+03  9.190190E+03
       250  24  4.818245E+05  1.193592E+05  1.097481E+03  2.487952E+05 -5.101940E+02  3.941025E+03
       250  25  2.817771E+05  4.564131E+04 -4.110380E+04  1.928505E+05 -1.215057E+04  1.179213E+04
       250  26  3.623863E+05  6.460832E+04 -2.588329E+04  2.043638E+05 -9.823021E+03  6.539724E+03
       250  27  4.274309E+05  9.920483E+04 -1.044090E+04  2.335364E+05 -7.496534E+03  1.292210E+03
       251   1  4.854296E+05  1.207280E+05  2.003109E+03  2.499242E+05 -7.885518E+03 -3.553280E+03
       251   2  4.202918E+05  8.611709E+04 -1.172509E+04  2.207614E+05 -1.117628E+04  1.305213E+03
       251   3  3.397625E+05  6.726148E+04 -2.447816E+04  2.092671E+05 -1.444583E+04  6.109542E+03
       251   4  4.818622E+05  1.193548E+05  1.473811E+03  2.488113E+05 -8.870881E+02 -8.998186E+02
       251   5  4.895563E+05  1.115029E+05  2.686409E+03  2.399650E+05 -4.249251E+03  3.931319E+03
       251   6  4.818674E+05  1.194197E+05  4.930457E+03  2.487848E+05 -7.590382E+03  8.708267E+03
       251   7  4.782949E+05  1.179816E+05  9.447308E+02  2.476984E+05  6.111248E+03  1.753604E+03
       251   8  5.588258E+05  1.368892E+05  1.709786E+04  2.591706E+05  2.678612E+03  6.557736E+03
       251   9  6.239941E+05  1.715800E+05  3.433851E+04  2.883111E+05 -7.331907E+02  1.130765E+04
       251  10  4.854295E+05  1.207280E+05  2.002968E+03  2.499241E+05  1.594488E-08  6.125513E-09
       251  11  4.202917E+05  8.611706E+04 -1.172533E+04  2.207614E+05  5.143414E-09  2.092080E-09
       251  12  3.397623E+05  6.726138E+04 -2.447862E+04  2.092671E+05 -6.366126E-09 -7.114990E-09
       251  13  4.818622E+05  1.193548E+05  1.473808E+03  2.488113E+05  1.748405E-09 -1.577417E-09
       251  14  4.895563E+05  1.115029E+05  2.686346E+03  2.399650E+05 -9.808545E-10 -1.110016E-09
       251  15  4.818673E+05  1.194196E+05  4.930206E+03  2.487848E+05 -1.117557E-09 -2.064491E-09
       251  16  4.782948E+05  1.179816E+05  9.446549E+02  2.476984E+05 -1.148021E-08 -9.515004E-09
       251  17  5.588258E+05  1.368891E+05  1.709776E+04  2.591706E+05 -4.551866E-09 -1.554225E-09
       251  18  6.239941E+05  1.715799E+05  3.433826E+04  2.883111E+05  5.648326E-09  4.897205E-09
       251  19  4.854296E+05  1.207280E+05  2.003109E+03  2.499242E+05  7.885518E+03  3.553280E+03
       251  20  4.202918E+05  8.611709E+04 -1.172509E+04  2.207614E+05  1.117628E+04 -1.305213E+03
       251  21  3.397625E+05  6.726148E+04 -2.447816E+04  2.092671E+05  1.444583E+04 -6.109542E+03
       251  22  4.818622E+05  1.193548E+05  1.473811E+03  2.488113E+05  8.870881E+02  8.998186E+02
       251  23  4.895563E+05  1.115029E+05  2.686409E+03  2.399650E+05  4.249251E+03 -3.931319E+03
       251  24  4.818674E+05  1.194197E+05  4.930457E+03  2.487848E+05  7.590382E+03 -8.708267E+03
       251  25  4.782949E+05  1.179816E+05  9.447308E+02  2.476984E+05 -6.111248E+03 -1.753604E+03
       251  26  5.588258E+05  1.368892E+05  1.709786E+04  2.591706E+05 -2.678612E+03 -6.557736E+03
       251  27  6.239941E+05  1.715800E+05  3.433851E+04  2.883111E+05  7.331907E+02 -1.130765E+04
       252   1  2.887858E+05  4.864814E+04 -3.385932E+04  1.957088E+05 -1.676381E+04  8.824456E+03
       252   2  2.237685E+05  1.353143E+04 -4.378989E+04  1.653722E+05 -2.345185E+04  1.196185E+04
       252   3  1.448937E+05 -3.064116E+03 -4.935715E+04  1.521184E+05 -2.979244E+04  1.418796E+04
       252   4  4.821327E+05  1.192391E+05  6.555798E+03  2.489728E+05 -9.703399E+03  1.150051E+04
       252   5  4.891991E+05  1.116704E+05  1.193164E+04  2.397441E+05 -1.758317E+04  1.418519E+04
       252   6  4.826376E+05  1.228568E+05  2.261354E+04  2.475951E+05 -2.511614E+04  1.595859E+04
       252   7  6.755178E+05  1.898331E+05  4.696909E+04  3.022521E+05 -2.640623E+03  1.417744E+04
       252   8  7.547008E+05  2.098152E+05  6.764916E+04  3.141450E+05 -1.171181E+04  1.640956E+04
       252   9  8.204953E+05  2.487869E+05  9.457714E+04  3.431191E+05 -2.043713E+04  1.773026E+04
       252  10  2.887855E+05  4.864798E+04 -3.385999E+04  1.957089E+05 -3.933841E-09 -5.980060E-11
       252  11  2.237678E+05  1.353112E+04 -4.379119E+04  1.653725E+05  6.168434E-09 -8.524378E-10
       252  12  1.448927E+05 -3.064570E+03 -4.935920E+04  1.521187E+05  1.572880E-08  2.227895E-09
       252  13  4.821326E+05  1.192389E+05  6.555372E+03  2.489729E+05 -1.471805E-09  5.773153E-09
       252  14  4.891987E+05  1.116701E+05  1.193068E+04  2.397443E+05  4.934291E-10 -8.935053E-09
       252  15  4.826369E+05  1.228563E+05  2.261188E+04  2.475954E+05  2.486887E-10  5.599867E-10
       252  16  6.755177E+05  1.898328E+05  4.696870E+04  3.022521E+05  2.812181E-09 -2.248491E-09
       252  17  7.547005E+05  2.098148E+05  6.764840E+04  3.141452E+05 -6.755896E-09 -5.416699E-09
       252  18  8.204947E+05  2.487864E+05  9.457576E+04  3.431194E+05 -1.789736E-08 -8.365034E-09
       252  19  2.887858E+05  4.864814E+04 -3.385932E+04  1.957088E+05  1.676381E+04 -8.824456E+03
       252  20  2.237685E+05  1.353143E+04 -4.378989E+04  1.653722E+05  2.345185E+04 -1.196185E+04
       252  21  1.448937E+05 -3.064116E+03 -4.935715E+04  1.521184E+05  2.979244E+04 -1.418796E+04
       252  22  4.821327E+05  1.192391E+05  6.555798E+03  2.489728E+05  9.703399E+03 -1.150051E+04
       252  23  4.891991E+05  1.116704E+05  1.193164E+04  2.397441E+05  1.758317E+04 -1.418519E+04
       252  24  4.826376E+05  1.228568E+05  2.261354E+04  2.475951E+05  2.511614E+04 -1.595859E+04
       252  25  6.755178E+05  1.898331E+05  4.696909E+04  3.022521E+05  2.640623E+03 -1.417744E+04
       252  26  7.547008E+05  2.098152E+05  6.764916E+04  3.141450E+05  1.171181E+04 -1.640956E+04
       252  27  8.204953E+05  2.487869E+05  9.457714E+04  3.431191E+05  2.043713E+04 -1.773026E+04
       253   1  8.869816E+04 -1.817498E+04 -5.345385E+04  1.506668E+05 -3.791815E+04  1.505304E+04
       253   2  3.949451E+04 -6.553249E+04 -4.948456E+04  8.727274E+04 -4.625961E+04  1.027873E+04
       253   3  2.201622E+03 -3.009394E+04 -2.023791E+04  2.274237E+04 -4.884746E+04 -9.693238E+03
       253   4  4.863583E+05  1.183175E+05  2.940329E+04  2.509797E+05 -2.986728E+04  1.810208E+04
       253   5  4.851629E+05  1.219306E+05  5.448750E+04  2.337545E+05 -5.803534E+04  5.815667E+03
       253   6  4.997808E+05  2.122307E+05  1.205498E+05  2.153953E+05 -8.045407E+04 -2.166456E+04
       253   7  8.841839E+05  2.548195E+05  1.122534E+05  3.513506E+05 -2.181075E+04  2.115292E+04
       253   8  9.310331E+05  3.094258E+05  1.584465E+05  3.803383E+05 -6.982019E+04  1.348104E+03
       253   9  9.976041E+05  4.546217E+05  2.613169E+05  4.082024E+05 -1.120879E+05 -3.365315E+04
       253  10  8.869656E+04 -1.817561E+04 -5.345698E+04  1.506672E+05 -2.681549E-08 -4.868406E-09
       253  11  3.949219E+04 -6.553318E+04 -4.948878E+04  8.727312E+04 -1.049024E-08  3.460529E-10
       253  12  2.199034E+03 -3.009468E+04 -2.024257E+04  2.274199E+04  8.327199E-09  5.803755E-09
       253  13  4.863573E+05  1.183169E+05  2.940100E+04  2.509802E+05 -1.973340E-09  2.853727E-09
       253  14  4.851593E+05  1.219297E+05  5.448111E+04  2.337548E+05  4.086528E-09  5.701133E-09
       253  15  4.997737E+05  2.122285E+05  1.205367E+05  2.153939E+05  2.700352E-11  6.216853E-09
       253  16  8.841832E+05  2.548189E+05  1.122517E+05  3.513510E+05  2.363542E-08  1.570167E-08
       253  17  9.310278E+05  3.094245E+05  1.584374E+05  3.803383E+05  7.097020E-09  5.002511E-09
       253  18  9.975904E+05  4.546171E+05  2.612912E+05  4.081994E+05 -9.561150E-09 -1.004836E-08
       253  19  8.869816E+04 -1.817498E+04 -5.345385E+04  1.506668E+05  3.791815E+04 -1.505304E+04
       253  20  3.949451E+04 -6.553249E+04 -4.948456E+04  8.727274E+04  4.625961E+04 -1.027873E+04
       253  21  2.201622E+03 -3.009394E+04 -2.023791E+04  2.274237E+04  4.884746E+04  9.693238E+03
       253  22  4.863583E+05  1.183175E+05  2.940329E+04  2.509797E+05  2.986728E+04 -1.810208E+04
       253  23  4.851629E+05  1.219306E+05  5.448750E+04  2.337545E+05  5.803534E+04 -5.815667E+03
       253  24  4.997808E+05  2.122307E+05  1.205498E+05  2.153953E+05  8.045407E+04  2.166456E+04
       253  25  8.841839E+05  2.548195E+05  1.122534E+05  3.513506E+05  2.181075E+04 -2.115292E+04
       253  26  9.310331E+05  3.094258E+05  1.584465E+05  3.803383E+05  6.982019E+04 -1.348104E+03
       253  27  9.976041E+05  4.546217E+05  2.613169E+05  4.082024E+05  1.120879E+05  3.365315E+04
       254   1  4.903203E+04 -4.581644E+03 -7.505061E+03 -1.806598E+03 -1.023389E+04 -5.155359E+02
       254   2  4.313602E+04  7.310339E+03 -8.615298E+02  1.320489E+03 -7.182150E+03 -1.459796E+03
       254   3  3.365035E+04  6.526783E+03  6.238078E+02  7.301033E+03 -4.134159E+03 -1.324869E+03
       254   4  9.555963E+03 -1.432581E+04 -1.704615E+04  5.312066E+03 -1.173968E+04 -5.208338E+02
       254   5  1.144549E+04 -4.014758E+02 -7.837730E+03  3.859529E+03 -7.600333E+03 -1.461273E+03
       254   6  9.556193E+03  6.580482E+02 -4.543013E+03  5.260494E+03 -3.464693E+03 -1.322545E+03
       254   7 -2.991856E+04 -2.406989E+04 -2.658731E+04  1.243028E+04 -1.324537E+04 -5.261664E+02
       254   8 -2.024409E+04 -8.113333E+03 -1.481399E+04  6.398438E+03 -8.018496E+03 -1.462754E+03
       254   9 -1.453741E+04 -5.210710E+03 -9.709864E+03  3.220035E+03 -2.795251E+03 -1.320226E+03
       254  10  4.903192E+04 -4.581672E+03 -7.505258E+03 -1.806603E+03 -8.303135E-09  2.046666E-09
       254  11  4.313596E+04  7.310323E+03 -8.616308E+02  1.320480E+03 -3.215415E-09  1.244775E-08
       254  12  3.365033E+04  6.526777E+03  6.237724E+02  7.301028E+03  7.623282E-09  7.992290E-09
       254  13  9.555815E+03 -1.432584E+04 -1.704641E+04  5.312061E+03 -8.381653E-12 -4.327639E-09
       254  14  1.144542E+04 -4.014936E+02 -7.837842E+03  3.859520E+03  2.595311E-09 -1.099125E-08
       254  15  9.556180E+03  6.580431E+02 -4.543039E+03  5.260490E+03 -4.382952E-10  3.799342E-09
       254  16 -2.991875E+04 -2.406994E+04 -2.658764E+04  1.243027E+04  9.383907E-09  1.512120E-09
       254  17 -2.024416E+04 -8.113353E+03 -1.481411E+04  6.398429E+03  2.218668E-09  1.228793E-08
       254  18 -1.453741E+04 -5.210713E+03 -9.709882E+03  3.220032E+03 -5.604613E-09  7.044625E-11
       254  19  4.903203E+04 -4.581644E+03 -7.505061E+03 -1.806598E+03  1.023389E+04  5.155359E+02
       254  20  4.313602E+04  7.310339E+03 -8.615298E+02  1.320489E+03  7.182150E+03  1.459796E+03
       254  21  3.365035E+04  6.526783E+03  6.238078E+02  7.301033E+03  4.134159E+03  1.324869E+03
       254  22  9.555963E+03 -1.432581E+04 -1.704615E+04  5.312066E+03  1.173968E+04  5.208338E+02
       254  23  1.144549E+04 -4.014758E+02 -7.837730E+03  3.859529E+03  7.600333E+03  1.461273E+03
       254  24  9.556193E+03  6.580482E+02 -4.543013E+03  5.260494E+03  3.464693E+03  1.322545E+03
       254  25 -2.991856E+04 -2.406989E+04 -2.658731E+04  1.243028E+04  1.324537E+04  5.261664E+02
       254  26 -2.024409E+04 -8.113333E+03 -1.481399E+04  6.398438E+03  8.018496E+03  1.462754E+03
       254  27 -1.453741E+04 -5.210710E+03 -9.709864E+03  3.220035E+03  2.795251E+03  1.320226E+03
       255   1  2.848277E+04  3.760665E+03  3.171454E+02  5.092625E+03 -3.205035E+03 -9.774482E+02
       255   2  2.098431E+04  2.582887E+03  2.973527E+02  3.819510E+03 -2.279147E+03 -5.800365E+02
       255   3  1.318285E+04  7.743792E+02 -4.886916E+02  5.420267E+03 -1.353461E+03 -1.323739E+02
       255   4  1.032661E+04 -6.496230E+02 -3.587272E+03  5.278873E+03 -2.832941E+03 -9.761638E+02
       255   5  1.048262E+04  3.290784E+01 -1.952500E+03  3.840676E+03 -1.856432E+03 -5.785736E+02
       255   6  1.032665E+04  7.588221E+01 -1.119187E+03  5.276358E+03 -8.801152E+02 -1.307325E+02
       255   7 -7.829238E+03 -5.059932E+03 -7.491709E+03  5.465116E+03 -2.460859E+03 -9.748791E+02
       255   8 -1.896362E+01 -2.517079E+03 -4.202359E+03  3.861841E+03 -1.433725E+03 -5.771107E+02
       255   9  7.470462E+03 -6.226152E+02 -1.749681E+03  5.132449E+03 -4.067714E+02 -1.290913E+02
       255  10  2.848276E+04  3.760661E+03  3.171243E+02  5.092622E+03  6.534666E-10 -8.686928E-10
       255  11  2.098431E+04  2.582885E+03  2.973423E+02  3.819509E+03 -5.301201E-10  4.963326E-09
       255  12  1.318285E+04  7.743787E+02 -4.886951E+02  5.420267E+03  3.827316E-09  7.787810E-09
       255  13  1.032660E+04 -6.496262E+02 -3.587289E+03  5.278871E+03  2.137975E-09  1.187150E-08
       255  14  1.048262E+04  3.290655E+01 -1.952507E+03  3.840675E+03 -6.202134E-11 -2.547417E-08
       255  15  1.032665E+04  7.588198E+01 -1.119188E+03  5.276358E+03 -2.928983E-10  6.979626E-09
       255  16 -7.829245E+03 -5.059935E+03 -7.491722E+03  5.465114E+03 -8.863268E-10 -8.136092E-09
       255  17 -1.896591E+01 -2.517079E+03 -4.202363E+03  3.861841E+03 -1.993236E-09 -1.734884E-09
       255  18  7.470462E+03 -6.226152E+02 -1.749682E+03  5.132449E+03 -3.346954E-09  1.842846E-09
       255  19  2.848277E+04  3.760665E+03  3.171454E+02  5.092625E+03  3.205035E+03  9.774482E+02
       255  20  2.098431E+04  2.582887E+03  2.973527E+02  3.819510E+03  2.279147E+03  5.800365E+02
       255  21  1.318285E+04  7.743792E+02 -4.886916E+02  5.420267E+03  1.353461E+03  1.323739E+02
       255  22  1.032661E+04 -6.496230E+02 -3.587272E+03  5.278873E+03  2.832941E+03  9.761638E+02
       255  23  1.048262E+04  3.290784E+01 -1.952500E+03  3.840676E+03  1.856432E+03  5.785736E+02
       255  24  1.032665E+04  7.588221E+01 -1.119187E+03  5.276358E+03  8.801152E+02  1.307325E+02
       255  25 -7.829238E+03 -5.059932E+03 -7.491709E+03  5.465116E+03  2.460859E+03  9.748791E+02
       255  26 -1.896362E+01 -2.517079E+03 -4.202359E+03  3.861841E+03  1.433725E+03  5.771107E+02
       255  27  7.470462E+03 -6.226152E+02 -1.749681E+03  5.132449E+03  4.067714E+02  1.290913E+02
       256   1  7.314401E+03 -7.357037E+02 -1.524428E+03  5.290669E+03 -1.166817E+03  1.396003E+02
       256   2 -3.043269E+02 -2.566581E+03 -2.757864E+03  3.830901E+03 -9.364741E+02  5.974261E+02
       256   3 -7.981734E+03 -4.412012E+03 -4.150919E+03  5.246079E+03 -7.061323E+02  1.057588E+03
       256   4  1.038286E+04  1.240030E+01 -8.516182E+02  5.277293E+03 -7.073231E+02  1.411934E+02
       256   5  1.041235E+04  3.369209E+01 -4.729041E+02  3.839771E+03 -4.746237E+02  5.990246E+02
       256   6  1.038281E+04  4.005396E+01 -2.554152E+02  5.277193E+03 -2.419231E+02  1.059192E+03
       256   7  1.345134E+04  7.605038E+02 -1.788080E+02  5.263916E+03 -2.478266E+02  1.427865E+02
       256   8  2.112914E+04  2.633958E+03  1.812050E+03  3.848641E+03 -1.276551E+01  6.006231E+02
       256   9  2.874767E+04  4.492098E+03  3.640070E+03  5.308307E+03  2.222997E+02  1.060796E+03
       256  10  7.314399E+03 -7.357041E+02 -1.524431E+03  5.290669E+03  6.456390E-09 -3.149422E-09
       256  11 -3.043279E+02 -2.566582E+03 -2.757866E+03  3.830901E+03 -7.845890E-09 -3.246223E-09
       256  12 -7.981734E+03 -4.412013E+03 -4.150922E+03  5.246080E+03 -1.561414E-08 -3.139143E-09
       256  13  1.038286E+04  1.240015E+01 -8.516192E+02  5.277293E+03 -1.071740E-09  5.641619E-10
       256  14  1.041235E+04  3.369164E+01 -4.729052E+02  3.839771E+03 -6.084569E-10 -8.273193E-09
       256  15  1.038281E+04  4.005273E+01 -2.554174E+02  5.277193E+03 -5.030327E-11 -5.192868E-10
       256  16  1.345134E+04  7.605038E+02 -1.788082E+02  5.263916E+03 -4.774440E-09 -2.094362E-09
       256  17  2.112914E+04  2.633958E+03  1.812049E+03  3.848641E+03  4.785344E-09  2.991184E-09
       256  18  2.874767E+04  4.492097E+03  3.640068E+03  5.308307E+03  1.414234E-08  4.370855E-09
       256  19  7.314401E+03 -7.357037E+02 -1.524428E+03  5.290669E+03  1.166817E+03 -1.396003E+02
       256  20 -3.043269E+02 -2.566581E+03 -2.757864E+03  3.830901E+03  9.364741E+02 -5.974261E+02
       256  21 -7.981734E+03 -4.412012E+03 -4.150919E+03  5.246079E+03  7.061323E+02 -1.057588E+03
       256  22  1.038286E+04  1.240030E+01 -8.516182E+02  5.277293E+03  7.073231E+02 -1.411934E+02
       256  23  1.041235E+04  3.369209E+01 -4.729041E+02  3.839771E+03  4.746237E+02 -5.990246E+02
       256  24  1.038281E+04  4.005396E+01 -2.554152E+02  5.277193E+03  2.419231E+02 -1.059192E+03
       256  25  1.345134E+04  7.605038E+02 -1.788080E+02  5.263916E+03  2.478266E+02 -1.427865E+02
       256  26  2.112914E+04  2.633958E+03  1.812050E+03  3.848641E+03  1.276551E+01 -6.006231E+02
       256  27  2.874767E+04  4.492098E+03  3.640070E+03  5.308307E+03 -2.222997E+02 -1.060796E+03
       257   1 -1.389799E+04 -5.860431E+03 -5.380892E+03  5.224324E+03 -6.671022E+02  1.325663E+03
       257   2 -2.153419E+04 -7.722405E+03 -6.876569E+03  3.765516E+03 -6.363408E+02  1.785735E+03
       257   3 -2.919446E+04 -9.566320E+03 -8.393673E+03  5.181988E+03 -6.055631E+02  2.245907E+03
       257   4  1.039051E+04  3.759877E+01 -1.801883E+02  5.277298E+03 -2.035332E+02  1.327262E+03
       257   5  1.040250E+04  2.744382E+01 -6.560111E+01  3.839664E+03 -1.726716E+02  1.787325E+03
       257   6  1.039035E+04  3.533379E+01  2.749108E+01  5.277301E+03 -1.417932E+02  2.247491E+03
       257   7  3.467956E+04  5.935590E+03  5.020482E+03  5.330273E+03  2.600537E+02  1.328861E+03
       257   8  4.234015E+04  7.777226E+03  6.745309E+03  3.913815E+03  2.910212E+02  1.788916E+03
       257   9  4.997664E+04  9.636886E+03  8.448566E+03  5.372618E+03  3.220059E+02  2.249074E+03
       257  10 -1.389799E+04 -5.860433E+03 -5.380896E+03  5.224325E+03  1.781057E-08 -7.602636E-09
       257  11 -2.153419E+04 -7.722409E+03 -6.876576E+03  3.765517E+03 -3.269110E-10 -3.559801E-09
       257  12 -2.919446E+04 -9.566325E+03 -8.393684E+03  5.181989E+03 -1.410511E-08  5.725659E-10
       257  13  1.039051E+04  3.759686E+01 -1.801916E+02  5.277298E+03 -1.109503E-09 -1.263444E-09
       257  14  1.040250E+04  2.744038E+01 -6.560717E+01  3.839664E+03  2.089112E-09 -1.116589E-08
       257  15  1.039035E+04  3.532836E+01  2.748155E+01  5.277301E+03 -4.200152E-10 -2.934617E-09
       257  16  3.467956E+04  5.935588E+03  5.020478E+03  5.330273E+03 -1.621002E-08  1.431067E-09
       257  17  4.234015E+04  7.777223E+03  6.745303E+03  3.913814E+03 -1.706826E-10  4.488854E-09
       257  18  4.997664E+04  9.636880E+03  8.448557E+03  5.372618E+03  1.290574E-08  7.224516E-09
       257  19 -1.389799E+04 -5.860431E+03 -5.380892E+03  5.224324E+03  6.671022E+02 -1.325663E+03
       257  20 -2.153419E+04 -7.722405E+03 -6.876569E+03  3.765516E+03  6.363408E+02 -1.785735E+03
       257  21 -2.919446E+04 -9.566320E+03 -8.393673E+03  5.181988E+03  6.055631E+02 -2.245907E+03
       257  22  1.039051E+04  3.759877E+01 -1.801883E+02  5.277298E+03  2.035332E+02 -1.327262E+03
       257  23  1.040250E+04  2.744382E+01 -6.560111E+01  3.839664E+03  1.726716E+02 -1.787325E+03
       257  24  1.039035E+04  3.533379E+01  2.749108E+01  5.277301E+03  1.417932E+02 -2.247491E+03
       257  25  3.467956E+04  5.935590E+03  5.020482E+03  5.330273E+03 -2.600537E+02 -1.328861E+03
       257  26  4.234015E+04  7.777226E+03  6.745309E+03  3.913815E+03 -2.910212E+02 -1.788916E+03
       257  27  4.997664E+04  9.636886E+03  8.448566E+03  5.372618E+03 -3.220059E+02 -2.249074E+03
       258   1 -3.511466E+04 -1.101227E+04 -9.651128E+03  5.167364E+03 -6.158824E+02  2.513694E+03
       258   2 -4.276064E+04 -1.287721E+04 -1.114413E+04  3.715184E+03 -7.123955E+02  2.973400E+03
       258   3 -5.041191E+04 -1.471879E+04 -1.257416E+04  5.138924E+03 -8.088764E+02  3.432799E+03
       258   4  1.039440E+04  3.541623E+01  7.541523E+01  5.277444E+03 -1.520446E+02  2.515271E+03
       258   5  1.039698E+04  2.236432E+01  1.927648E+02  3.839493E+03 -2.488802E+02  2.974963E+03
       258   6  1.039415E+04  3.270610E+01  3.732685E+02  5.277448E+03 -3.456848E+02  3.434348E+03
       258   7  5.590541E+04  1.108297E+04  9.801839E+03  5.387530E+03  3.118267E+02  2.516848E+03
       258   8  6.355726E+04  1.292176E+04  1.152949E+04  3.963811E+03  2.146742E+02  2.976525E+03
       258   9  7.120369E+04  1.478396E+04  1.332049E+04  5.415982E+03  1.175516E+02  3.435896E+03
       258  10 -3.511466E+04 -1.101228E+04 -9.651141E+03  5.167366E+03  3.313423E-10  2.709091E-10
       258  11 -4.276064E+04 -1.287722E+04 -1.114414E+04  3.715186E+03 -1.318286E-09 -7.342848E-09
       258  12 -5.041192E+04 -1.471880E+04 -1.257418E+04  5.138926E+03 -1.256802E-09 -1.087313E-10
       258  13  1.039440E+04  3.540943E+01  7.540330E+01  5.277444E+03 -1.087153E-09  1.082745E-08
       258  14  1.039698E+04  2.235480E+01  1.927481E+02  3.839494E+03  1.543292E-09 -5.608102E-09
       258  15  1.039414E+04  3.269340E+01  3.732461E+02  5.277449E+03 -1.220821E-09 -3.281994E-09
       258  16  5.590541E+04  1.108296E+04  9.801827E+03  5.387529E+03 -1.099148E-09  3.908035E-09
       258  17  6.355726E+04  1.292175E+04  1.152948E+04  3.963810E+03 -2.335066E-10 -1.435376E-08
       258  18  7.120369E+04  1.478395E+04  1.332046E+04  5.415982E+03  2.205696E-09 -6.645343E-09
       258  19 -3.511466E+04 -1.101227E+04 -9.651128E+03  5.167364E+03  6.158824E+02 -2.513694E+03
       258  20 -4.276064E+04 -1.287721E+04 -1.114413E+04  3.715184E+03  7.123955E+02 -2.973400E+03
       258  21 -5.041191E+04 -1.471879E+04 -1.257416E+04  5.138924E+03  8.088764E+02 -3.432799E+03
       258  22  1.039440E+04  3.541623E+01  7.541523E+01  5.277444E+03  1.520446E+02 -2.515271E+03
       258  23  1.039698E+04  2.236432E+01  1.927648E+02  3.839493E+03  2.488802E+02 -2.974963E+03
       258  24  1.039415E+04  3.270610E+01  3.732685E+02  5.277448E+03  3.456848E+02 -3.434348E+03
       258  25  5.590541E+04  1.108297E+04  9.801839E+03  5.387530E+03 -3.118267E+02 -2.516848E+03
       258  26  6.355726E+04  1.292176E+04  1.152949E+04  3.963811E+03 -2.146742E+02 -2.976525E+03
       258  27  7.120369E+04  1.478396E+04  1.332049E+04  5.415982E+03 -1.175516E+02 -3.435896E+03
       259   1 -5.632349E+04 -1.616955E+04 -1.375090E+04  5.135967E+03 -8.907490E+02  3.700843E+03
       259   2 -6.400033E+04 -1.803838E+04 -1.497583E+04  3.684926E+03 -1.325340E+03  4.157396E+03
       259   3 -7.162274E+04 -1.982481E+04 -1.590270E+04  5.108807E+03 -1.759869E+03  4.606930E+03
       259   4  1.040756E+04  2.803712E+01  5.017800E+02  5.277283E+03 -4.256028E+02  3.702389E+03
       259   5  1.037953E+04  1.146785E+01  8.886384E+02  3.839745E+03 -8.673130E+02  4.158899E+03
       259   6  1.040720E+04  7.856068E+01  1.578514E+03  5.277107E+03 -1.308967E+03  4.608391E+03
       259   7  7.714280E+04  1.622533E+04  1.475421E+04  5.418612E+03  3.959273E+01  3.703934E+03
       259   8  8.476460E+04  1.806096E+04  1.675279E+04  3.994578E+03 -4.092323E+02  4.160402E+03
       259   9  9.244349E+04  1.998150E+04  1.905934E+04  5.445424E+03 -8.580064E+02  4.609852E+03
       259  10 -5.632349E+04 -1.616956E+04 -1.375093E+04  5.135969E+03 -7.233618E-09 -1.537036E-10
       259  11 -6.400033E+04 -1.803840E+04 -1.497587E+04  3.684930E+03 -2.999467E-09 -7.976161E-09
       259  12 -7.162275E+04 -1.982484E+04 -1.590274E+04  5.108814E+03  4.636335E-09  4.880720E-10
       259  13  1.040756E+04  2.802236E+01  5.017539E+02  5.277285E+03  1.080945E-09 -1.214452E-09
       259  14  1.037953E+04  1.144907E+01  8.886045E+02  3.839747E+03 -1.709540E-09  1.080103E-09
       259  15  1.040720E+04  7.853742E+01  1.578471E+03  5.277112E+03 -1.664248E-10  1.805261E-09
       259  16  7.714280E+04  1.622532E+04  1.475418E+04  5.418612E+03  8.381878E-09  4.962755E-09
       259  17  8.476459E+04  1.806094E+04  1.675276E+04  3.994579E+03  2.916862E-09 -2.379301E-09
       259  18  9.244348E+04  1.998147E+04  1.905930E+04  5.445427E+03 -5.057727E-09  6.794566E-09
       259  19 -5.632349E+04 -1.616955E+04 -1.375090E+04  5.135967E+03  8.907490E+02 -3.700843E+03
       259  20 -6.400033E+04 -1.803838E+04 -1.497583E+04  3.684926E+03  1.325340E+03 -4.157396E+03
       259  21 -7.162274E+04 -1.982481E+04 -1.590270E+04  5.108807E+03  1.759869E+03 -4.606930E+03
       259  22  1.040756E+04  2.803712E+01  5.017800E+02  5.277283E+03  4.256028E+02 -3.702389E+03
       259  23  1.037953E+04  1.146785E+01  8.886384E+02  3.839745E+03  8.673130E+02 -4.158899E+03
       259  24  1.040720E+04  7.856068E+01  1.578514E+03  5.277107E+03  1.308967E+03 -4.608391E+03
       259  25  7.714280E+04  1.622533E+04  1.475421E+04  5.418612E+03 -3.959273E+01 -3.703934E+03
       259  26  8.476460E+04  1.806096E+04  1.675279E+04  3.994578E+03  4.092323E+02 -4.160402E+03
       259  27  9.244349E+04  1.998150E+04  1.905934E+04  5.445424E+03  8.580064E+02 -4.609852E+03
       260   1 -7.744988E+04 -2.138639E+04 -1.671207E+04  5.305812E+03 -2.123983E+03  4.884298E+03
       260   2 -8.534743E+04 -2.319388E+04 -1.682002E+04  3.512757E+03 -3.775333E+03  5.292089E+03
       260   3 -9.274917E+04 -2.379414E+04 -1.555594E+04  4.586354E+03 -5.426126E+03  5.548684E+03
       260   4  1.051063E+04 -3.850798E+01  2.068765E+03  5.276494E+03 -1.631418E+03  4.885885E+03
       260   5  1.024933E+04  1.192649E+01  3.599484E+03  3.840980E+03 -3.435407E+03  5.293147E+03
       260   6  1.051019E+04  1.295967E+03  6.608087E+03  5.272088E+03 -5.238859E+03  5.549223E+03
       260   7  9.847843E+04  2.130887E+04  2.084916E+04  5.247166E+03 -1.138785E+03  4.887472E+03
       260   8  1.058547E+05  2.321713E+04  2.401847E+04  4.169248E+03 -3.095429E+03  5.294206E+03
       260   9  1.137796E+05  2.638538E+04  2.877149E+04  5.957930E+03 -5.051561E+03  5.549763E+03
       260  10 -7.744989E+04 -2.138642E+04 -1.671212E+04  5.305821E+03  1.160872E-08 -1.964202E-09
       260  11 -8.534746E+04 -2.319391E+04 -1.682010E+04  3.512773E+03  2.472270E-09  3.606553E-09
       260  12 -9.274921E+04 -2.379418E+04 -1.555605E+04  4.586379E+03 -1.694852E-09 -1.019425E-09
       260  13  1.051062E+04 -3.853433E+01  2.068716E+03  5.276501E+03 -2.150376E-09 -9.084367E-09
       260  14  1.024931E+04  1.189324E+01  3.599410E+03  3.840995E+03  4.481307E-10  8.074806E-09
       260  15  1.051015E+04  1.295927E+03  6.607978E+03  5.272112E+03 -5.636448E-10 -1.480090E-09
       260  16  9.847842E+04  2.130885E+04  2.084911E+04  5.247171E+03 -1.056768E-08 -3.405583E-09
       260  17  1.058547E+05  2.321710E+04  2.401839E+04  4.169262E+03 -4.980638E-09 -1.627995E-08
       260  18  1.137795E+05  2.638534E+04  2.877139E+04  5.957952E+03  1.981603E-09  3.189124E-09
       260  19 -7.744988E+04 -2.138639E+04 -1.671207E+04  5.305812E+03  2.123983E+03 -4.884298E+03
       260  20 -8.534743E+04 -2.319388E+04 -1.682002E+04  3.512757E+03  3.775333E+03 -5.292089E+03
       260  21 -9.274917E+04 -2.379414E+04 -1.555594E+04  4.586354E+03  5.426126E+03 -5.548684E+03
       260  22  1.051063E+04 -3.850798E+01  2.068765E+03  5.276494E+03  1.631418E+03 -4.885885E+03
       260  23  1.024933E+04  1.192649E+01  3.599484E+03  3.840980E+03  3.435407E+03 -5.293147E+03
       260  24  1.051019E+04  1.295967E+03  6.608087E+03  5.272088E+03  5.238859E+03 -5.549223E+03
       260  25  9.847843E+04  2.130887E+04  2.084916E+04  5.247166E+03  1.138785E+03 -4.887472E+03
       260  26  1.058547E+05  2.321713E+04  2.401847E+04  4.169248E+03  3.095429E+03 -5.294206E+03
       260  27  1.137796E+05  2.638538E+04  2.877149E+04  5.957930E+03  5.051561E+03 -5.549763E+03
       261   1 -9.736954E+04 -2.761439E+04 -1.497319E+04  8.623275E+03 -7.488489E+03  6.039920E+03
       261   2 -1.081694E+05 -2.766845E+04 -1.111879E+04 -1.235760E+03 -1.182768E+04  5.476300E+03
       261   3 -1.126260E+05 -4.543781E+03  1.353639E+03 -8.429777E+03 -1.615641E+04  1.664593E+03
       261   4  1.192944E+04 -1.112629E+03  8.367482E+03  5.251105E+03 -6.406421E+03  6.043400E+03
       261   5  8.474168E+03  8.103410E+02  1.443303E+04  3.874391E+03 -1.402050E+04  5.469085E+03
       261   6  1.192913E+04  2.647796E+04  3.138975E+04  5.162528E+03 -2.162418E+04  1.646839E+03
       261   7  1.212397E+05  2.538840E+04  3.170748E+04  1.878324E+03 -5.324166E+03  6.046869E+03
       261   8  1.251305E+05  2.928832E+04  3.998406E+04  8.985504E+03 -1.621373E+04  5.461834E+03
       261   9  1.364989E+05  5.749928E+04  6.142496E+04  1.875756E+04 -2.709305E+04  1.628848E+03
       261  10 -9.736961E+04 -2.761445E+04 -1.497336E+04  8.623311E+03  1.707228E-09 -2.576735E-10
       261  11 -1.081695E+05 -2.766852E+04 -1.111911E+04 -1.235708E+03  3.808239E-09 -5.038832E-11
       261  12 -1.126263E+05 -4.543854E+03  1.353143E+03 -8.429756E+03  6.249377E-09  7.555786E-09
       261  13  1.192939E+04 -1.112680E+03  8.367336E+03  5.251136E+03 -1.089522E-09  7.291998E-09
       261  14  8.473949E+03  8.102561E+02  1.443260E+04  3.874453E+03 -6.596027E-10  1.027883E-09
       261  15  1.192863E+04  2.647784E+04  3.138887E+04  5.162557E+03  6.366540E-10  4.785700E-09
       261  16  1.212397E+05  2.538835E+04  3.170735E+04  1.878350E+03 -1.796252E-09  5.994919E-09
       261  17  1.251302E+05  2.928821E+04  3.998351E+04  8.985575E+03 -5.516012E-09  9.214148E-09
       261  18  1.364981E+05  5.749908E+04  6.142357E+04  1.875760E+04 -5.929166E-09  2.861009E-09
       261  19 -9.736954E+04 -2.761439E+04 -1.497319E+04  8.623275E+03  7.488489E+03 -6.039920E+03
       261  20 -1.081694E+05 -2.766845E+04 -1.111879E+04 -1.235760E+03  1.182768E+04 -5.476300E+03
       261  21 -1.126260E+05 -4.543781E+03  1.353639E+03 -8.429777E+03  1.615641E+04 -1.664593E+03
       261  22  1.192944E+04 -1.112629E+03  8.367482E+03  5.251105E+03  6.406421E+03 -6.043400E+03
       261  23  8.474168E+03  8.103410E+02  1.443303E+04  3.874391E+03  1.402050E+04 -5.469085E+03
       261  24  1.192913E+04  2.647796E+04  3.138975E+04  5.162528E+03  2.162418E+04 -1.646839E+03
       261  25  1.212397E+05  2.538840E+04  3.170748E+04  1.878324E+03  5.324166E+03 -6.046869E+03
       261  26  1.251305E+05  2.928832E+04  3.998406E+04  8.985504E+03  1.621373E+04 -5.461834E+03
       261  27  1.364989E+05  5.749928E+04  6.142496E+04  1.875756E+04  2.709305E+04 -1.628848E+03
       262   1 -2.800008E+05 -1.155177E+06 -2.879391E+05  1.555145E+05 -9.652355E+03 -9.012055E+04
       262   2 -1.622126E+05 -9.750164E+05 -1.860026E+05  1.003309E+05 -2.933508E+04 -4.524751E+04
       262   3 -1.155371E+05 -8.178641E+05 -1.310197E+05  1.072833E+05 -2.639098E+04 -2.869419E+02
       262   4 -7.510827E+04 -3.323522E+05 -8.850817E+04  1.161254E+05 -9.744252E+03 -5.910405E+04
       262   5 -2.790703E+03 -3.227858E+05 -4.213608E+04  8.517453E+04 -2.935658E+04 -3.697921E+04
       262   6  2.409847E+03 -3.322740E+05 -2.687283E+04  1.163633E+05 -2.634926E+04 -1.478038E+04
       262   7  1.297407E+05  4.910975E+05  1.108783E+05  7.668420E+04 -9.840034E+03 -2.804647E+04
       262   8  1.566034E+05  3.298435E+05  1.017047E+05  7.000226E+04 -2.937847E+04 -2.870230E+04
       262   9  1.203418E+05  1.535389E+05  7.726115E+04  1.254507E+05 -2.630798E+04 -2.928501E+04
       262  10 -2.800031E+05 -1.155186E+06 -2.879546E+05  1.555138E+05  7.646765E-11 -1.770883E-09
       262  11 -1.622140E+05 -9.750189E+05 -1.860081E+05  1.003299E+05  4.293798E-10 -8.777534E-09
       262  12 -1.155379E+05 -8.178643E+05 -1.310210E+05  1.072833E+05  4.661441E-09 -1.886648E-08
       262  13 -7.510931E+04 -3.323559E+05 -8.851492E+04  1.161249E+05  1.450520E-09  4.392644E-11
       262  14 -2.791995E+03 -3.227875E+05 -4.214027E+04  8.517366E+04  2.238919E-09 -7.377261E-09
       262  15  2.409043E+03 -3.322744E+05 -2.687454E+04  1.163630E+05  3.900233E-09 -1.685832E-11
       262  16  1.297403E+05  4.910967E+05  1.108767E+05  7.668398E+04  1.447169E-09 -2.385818E-09
       262  17  1.566022E+05  3.298424E+05  1.017015E+05  7.000159E+04  4.052531E-09  9.839018E-09
       262  18  1.203408E+05  1.535378E+05  7.725824E+04  1.254501E+05 -7.965428E-11  1.136303E-08
       262  19 -2.800008E+05 -1.155177E+06 -2.879391E+05  1.555145E+05  9.652355E+03  9.012055E+04
       262  20 -1.622126E+05 -9.750164E+05 -1.860026E+05  1.003309E+05  2.933508E+04  4.524751E+04
       262  21 -1.155371E+05 -8.178641E+05 -1.310197E+05  1.072833E+05  2.639098E+04  2.869419E+02
       262  22 -7.510827E+04 -3.323522E+05 -8.850817E+04  1.161254E+05  9.744252E+03  5.910405E+04
       262  23 -2.790703E+03 -3.227858E+05 -4.213608E+04  8.517453E+04  2.935658E+04  3.697921E+04
       262  24  2.409847E+03 -3.322740E+05 -2.687283E+04  1.163633E+05  2.634926E+04  1.478038E+04
       262  25  1.297407E+05  4.910975E+05  1.108783E+05  7.668420E+04  9.840034E+03  2.804647E+04
       262  26  1.566034E+05  3.298435E+05  1.017047E+05  7.000226E+04  2.937847E+04  2.870230E+04
       262  27  1.203418E+05  1.535389E+05  7.726115E+04  1.254507E+05  2.630798E+04  2.928501E+04
       263   1 -9.020861E+04 -6.827534E+05 -9.938803E+04  1.191333E+05 -1.882590E+04 -2.360633E+03
       263   2 -4.544018E+04 -5.127319E+05 -5.797098E+04  8.531238E+04 -1.026522E+04  7.285319E+03
       263   3 -7.390695E+03 -3.451533E+05 -2.441224E+04  1.148784E+05 -1.262265E+03  1.693307E+04
       263   4 -4.062590E+03 -3.285493E+05 -2.313965E+04  1.165790E+05 -1.880236E+04 -1.079014E+04
       263   5 -4.141009E+02 -3.273439E+05 -1.832483E+04  8.488666E+04 -1.024133E+04 -1.586993E+03
       263   6 -3.404530E+03 -3.285302E+05 -2.105720E+04  1.165807E+05 -1.238129E+03  7.615418E+03
       263   7  8.207524E+04  2.577296E+04  5.310163E+04  1.140233E+05 -1.877875E+04 -1.922439E+04
       263   8  4.460978E+04 -1.419233E+05  2.131962E+04  8.446084E+04 -1.021743E+04 -1.046192E+04
       263   9  5.816754E+02 -3.119066E+05 -1.770183E+04  1.182830E+05 -1.214043E+03 -1.702479E+03
       263  10 -9.020900E+04 -6.827535E+05 -9.938870E+04  1.191332E+05  3.501877E-09  1.042867E-08
       263  11 -4.544031E+04 -5.127319E+05 -5.797128E+04  8.531244E+04 -2.894634E-09  8.933808E-09
       263  12 -7.390773E+03 -3.451536E+05 -2.441279E+04  1.148784E+05 -2.429260E-09 -5.617348E-09
       263  13 -4.063000E+03 -3.285495E+05 -2.314053E+04  1.165788E+05  2.650127E-09 -2.050971E-11
       263  14 -4.142142E+02 -3.273439E+05 -1.832503E+04  8.488665E+04 -3.388293E-09 -9.465968E-09
       263  15 -3.404547E+03 -3.285303E+05 -2.105731E+04  1.165807E+05 -2.910509E-09 -1.476684E-09
       263  16  8.207476E+04  2.577246E+04  5.310028E+04  1.140230E+05 -1.076711E-10 -1.522031E-08
       263  17  4.460963E+04 -1.419235E+05  2.131922E+04  8.446076E+04 -1.614159E-09 -6.683894E-09
       263  18  5.816730E+02 -3.119067E+05 -1.770184E+04  1.182830E+05 -9.138961E-10 -7.919527E-10
       263  19 -9.020861E+04 -6.827534E+05 -9.938803E+04  1.191333E+05  1.882590E+04  2.360633E+03
       263  20 -4.544018E+04 -5.127319E+05 -5.797098E+04  8.531238E+04  1.026522E+04 -7.285319E+03
       263  21 -7.390695E+03 -3.451533E+05 -2.441224E+04  1.148784E+05  1.262265E+03 -1.693307E+04
       263  22 -4.062590E+03 -3.285493E+05 -2.313965E+04  1.165790E+05  1.880236E+04  1.079014E+04
       263  23 -4.141009E+02 -3.273439E+05 -1.832483E+04  8.488666E+04  1.024133E+04  1.586993E+03
       263  24 -3.404530E+03 -3.285302E+05 -2.105720E+04  1.165807E+05  1.238129E+03 -7.615418E+03
       263  25  8.207524E+04  2.577296E+04  5.310163E+04  1.140233E+05  1.877875E+04  1.922439E+04
       263  26  4.460978E+04 -1.419233E+05  2.131962E+04  8.446084E+04  1.021743E+04  1.046192E+04
       263  27  5.816754E+02 -3.119066E+05 -1.770183E+04  1.182830E+05  1.214043E+03  1.702479E+03
       264   1  2.980569E+04 -2.169546E+05  1.146861E+03  1.247143E+05  5.642659E+03  2.387934E+04
       264   2  6.682352E+04 -4.123196E+04  2.702084E+04  7.293484E+04  1.161755E+04  2.954888E+04
       264   3  4.967955E+04  1.207234E+05  3.576864E+04  8.385185E+04  4.449640E+03  3.518235E+04
       264   4  1.944635E+03 -3.315783E+05 -2.376378E+04  1.164751E+05  5.675260E+03  1.121577E+04
       264   5 -2.314009E+03 -3.235459E+05 -3.591231E+04  8.503319E+04  1.161693E+04  3.012430E+04
       264   6 -6.304765E+04 -3.316172E+05 -7.439084E+04  1.162944E+05  4.413456E+03  4.899481E+04
       264   7 -2.591694E+04 -4.461892E+05 -4.867456E+04  1.082375E+05  5.708200E+03 -1.445486E+03
       264   8 -7.145642E+04 -6.057852E+05 -9.885038E+04  9.712602E+04  1.161632E+04  3.069945E+04
       264   9 -1.757860E+05 -7.837685E+05 -1.845639E+05  1.487133E+05  4.378704E+03  6.279722E+04
       264  10  2.980550E+04 -2.169552E+05  1.145730E+03  1.247142E+05 -1.089273E-09 -1.470568E-09
       264  11  6.682314E+04 -4.123294E+04  2.701895E+04  7.293456E+04 -2.163165E-10  2.595491E-09
       264  12  4.967920E+04  1.207221E+05  3.576628E+04  8.385172E+04 -1.560162E-09 -6.897104E-09
       264  13  1.944566E+03 -3.315784E+05 -2.376408E+04  1.164751E+05 -9.066991E-10 -1.049756E-09
       264  14 -2.314397E+03 -3.235469E+05 -3.591427E+04  8.503291E+04 -5.094485E-09 -8.478910E-09
       264  15 -6.304832E+04 -3.316198E+05 -7.439539E+04  1.162942E+05  3.024843E-11  2.012052E-09
       264  16 -2.591698E+04 -4.461892E+05 -4.867463E+04  1.082375E+05 -3.043011E-09 -4.862982E-09
       264  17 -7.145682E+04 -6.057862E+05 -9.885241E+04  9.712573E+04  6.748417E-10  1.375267E-09
       264  18 -1.757871E+05 -7.837727E+05 -1.845714E+05  1.487131E+05  1.367072E-09  2.071208E-11
       264  19  2.980569E+04 -2.169546E+05  1.146861E+03  1.247143E+05 -5.642659E+03 -2.387934E+04
       264  20  6.682352E+04 -4.123196E+04  2.702084E+04  7.293484E+04 -1.161755E+04 -2.954888E+04
       264  21  4.967955E+04  1.207234E+05  3.576864E+04  8.385185E+04 -4.449640E+03 -3.518235E+04
       264  22  1.944635E+03 -3.315783E+05 -2.376378E+04  1.164751E+05 -5.675260E+03 -1.121577E+04
       264  23 -2.314009E+03 -3.235459E+05 -3.591231E+04  8.503319E+04 -1.161693E+04 -3.012430E+04
       264  24 -6.304765E+04 -3.316172E+05 -7.439084E+04  1.162944E+05 -4.413456E+03 -4.899481E+04
       264  25 -2.591694E+04 -4.461892E+05 -4.867456E+04  1.082375E+05 -5.708200E+03  1.445486E+03
       264  26 -7.145642E+04 -6.057852E+05 -9.885038E+04  9.712602E+04 -1.161632E+04 -3.069945E+04
       264  27 -1.757860E+05 -7.837685E+05 -1.845639E+05  1.487133E+05 -4.378704E+03 -6.279722E+04
       265   1  2.664689E+05  8.923976E+04  4.667272E+04  1.080170E+05  2.799698E+04  1.047155E+04
       265   2  2.596537E+05  4.613165E+04  2.048862E+04  1.070353E+05  1.754989E+04  6.349298E+03
       265   3  2.641367E+05  3.604259E+04  1.066161E+04  1.001474E+05  6.942571E+03  2.650477E+03
       265   4  2.653634E+05  7.274781E+04  4.323579E+04  9.133559E+04  2.766274E+04  1.034399E+04
       265   5  2.573625E+05  3.960693E+04  1.890326E+04  1.006070E+05  1.761504E+04  6.373786E+03
       265   6  2.605807E+05  3.940532E+04  1.061130E+04  1.039721E+05  7.407010E+03  2.826532E+03
       265   7  2.642586E+05  5.625750E+04  3.979906E+04  7.465464E+04  2.732851E+04  1.021646E+04
       265   8  2.550714E+05  3.308242E+04  1.731792E+04  9.417877E+04  1.768019E+04  6.398273E+03
       265   9  2.570247E+05  4.276817E+04  1.056101E+04  1.077969E+05  7.871450E+03  3.002596E+03
       265  10  2.664680E+05  8.923943E+04  4.667104E+04  1.080168E+05  7.880251E-10 -4.466723E-10
       265  11  2.596533E+05  4.613152E+04  2.048797E+04  1.070352E+05  1.614991E-09  4.202483E-09
       265  12  2.641367E+05  3.604257E+04  1.066150E+04  1.001474E+05  1.911527E-09 -2.528923E-09
       265  13  2.653626E+05  7.274749E+04  4.323415E+04  9.133536E+04  9.844905E-10 -5.480239E-09
       265  14  2.573621E+05  3.960680E+04  1.890260E+04  1.006069E+05  2.325576E-09 -1.767990E-08
       265  15  2.605806E+05  3.940530E+04  1.061118E+04  1.039721E+05  1.219441E-09 -1.810079E-09
       265  16  2.642578E+05  5.625719E+04  3.979746E+04  7.465441E+04 -3.882075E-10  9.495877E-11
       265  17  2.550710E+05  3.308229E+04  1.731726E+04  9.417867E+04  1.011170E-09 -3.238387E-09
       265  18  2.570247E+05  4.276815E+04  1.056087E+04  1.077969E+05 -2.778418E-10 -1.240278E-08
       265  19  2.664689E+05  8.923976E+04  4.667272E+04  1.080170E+05 -2.799698E+04 -1.047155E+04
       265  20  2.596537E+05  4.613165E+04  2.048862E+04  1.070353E+05 -1.754989E+04 -6.349298E+03
       265  21  2.641367E+05  3.604259E+04  1.066161E+04  1.001474E+05 -6.942571E+03 -2.650477E+03
       265  22  2.653634E+05  7.274781E+04  4.323579E+04  9.133559E+04 -2.766274E+04 -1.034399E+04
       265  23  2.573625E+05  3.960693E+04  1.890326E+04  1.006070E+05 -1.761504E+04 -6.373786E+03
       265  24  2.605807E+05  3.940532E+04  1.061130E+04  1.039721E+05 -7.407010E+03 -2.826532E+03
       265  25  2.642586E+05  5.625750E+04  3.979906E+04  7.465464E+04 -2.732851E+04 -1.021646E+04
       265  26  2.550714E+05  3.308242E+04  1.731792E+04  9.417877E+04 -1.768019E+04 -6.398273E+03
       265  27  2.570247E+05  4.276817E+04  1.056101E+04  1.077969E+05 -7.871450E+03 -3.002596E+03
       266   1  2.538689E+05  4.092954E+04  7.200765E+03  1.012322E+05  5.636896E+03  2.459426E+03
       266   2  2.482378E+05  3.556257E+04  1.691477E+03  9.856560E+04  3.285497E+03  1.993023E+03
       266   3  2.416904E+05  3.379594E+04 -1.703541E+03  9.763319E+04  9.268916E+02  1.545803E+03
       266   4  2.592372E+05  4.232118E+04  8.361853E+03  1.020939E+05  5.978484E+03  2.588856E+03
       266   5  2.595714E+05  3.964521E+04  4.333206E+03  1.015595E+05  3.645149E+03  2.129301E+03
       266   6  2.589857E+05  4.056595E+04  2.404501E+03  1.027592E+05  1.304591E+03  1.688917E+03
       266   7  2.646055E+05  4.371282E+04  9.522939E+03  1.029557E+05  6.320076E+03  2.718287E+03
       266   8  2.709052E+05  4.372784E+04  6.974917E+03  1.045535E+05  4.004807E+03  2.265581E+03
       266   9  2.762812E+05  4.733597E+04  6.512495E+03  1.078854E+05  1.682300E+03  1.832036E+03
       266  10  2.538688E+05  4.092953E+04  7.200694E+03  1.012322E+05  1.280266E-09 -2.502635E-10
       266  11  2.482378E+05  3.556256E+04  1.691450E+03  9.856560E+04  1.443678E-09 -5.688238E-12
       266  12  2.416904E+05  3.379593E+04 -1.703547E+03  9.763319E+04 -1.675685E-09 -8.754259E-09
       266  13  2.592371E+05  4.232116E+04  8.361773E+03  1.020939E+05 -3.667908E-09 -3.222263E-09
       266  14  2.595714E+05  3.964520E+04  4.333173E+03  1.015595E+05 -2.855768E-09 -2.337332E-08
       266  15  2.589857E+05  4.056595E+04  2.404492E+03  1.027592E+05 -2.606453E-09 -9.589449E-10
       266  16  2.646055E+05  4.371280E+04  9.522850E+03  1.029556E+05  2.685399E-09 -2.448177E-09
       266  17  2.709051E+05  4.372783E+04  6.974878E+03  1.045535E+05  9.189050E-10  1.030231E-09
       266  18  2.762812E+05  4.733596E+04  6.512483E+03  1.078854E+05  3.360265E-09 -9.443224E-10
       266  19  2.538689E+05  4.092954E+04  7.200765E+03  1.012322E+05 -5.636896E+03 -2.459426E+03
       266  20  2.482378E+05  3.556257E+04  1.691477E+03  9.856560E+04 -3.285497E+03 -1.993023E+03
       266  21  2.416904E+05  3.379594E+04 -1.703541E+03  9.763319E+04 -9.268916E+02 -1.545803E+03
       266  22  2.592372E+05  4.232118E+04  8.361853E+03  1.020939E+05 -5.978484E+03 -2.588856E+03
       266  23  2.595714E+05  3.964521E+04  4.333206E+03  1.015595E+05 -3.645149E+03 -2.129301E+03
       266  24  2.589857E+05  4.056595E+04  2.404501E+03  1.027592E+05 -1.304591E+03 -1.688917E+03
       266  25  2.646055E+05  4.371282E+04  9.522939E+03  1.029557E+05 -6.320076E+03 -2.718287E+03
       266  26  2.709052E+05  4.372784E+04  6.974917E+03  1.045535E+05 -4.004807E+03 -2.265581E+03
       266  27  2.762812E+05  4.733597E+04  6.512495E+03  1.078854E+05 -1.682300E+03 -1.832036E+03
       267   1  2.363075E+05  3.226276E+04 -3.514817E+03  9.636173E+04  5.053300E+02  1.651284E+03
       267   2  2.308684E+05  2.889015E+04 -5.803173E+03  9.357604E+04 -1.468286E+02  1.855769E+03
       267   3  2.236760E+05  2.747748E+04 -7.691613E+03  9.288597E+04 -7.993926E+02  2.061368E+03
       267   4  2.588737E+05  4.071334E+04  1.826930E+03  1.026458E+05  8.776834E+02  1.792368E+03
       267   5  2.597447E+05  3.969336E+04  1.004636E+03  1.016132E+05  2.265575E+02  1.997238E+03
       267   6  2.588622E+05  4.063318E+04  5.814734E+02  1.026762E+05 -4.249777E+02  2.203220E+03
       267   7  2.814406E+05  4.916400E+04  7.168677E+03  1.089302E+05  1.250054E+03  1.933459E+03
       267   8  2.886219E+05  5.049667E+04  7.812410E+03  1.096507E+05  5.999635E+02  2.138715E+03
       267   9  2.940496E+05  5.378897E+04  8.854476E+03  1.124670E+05 -5.053964E+01  2.345080E+03
       267  10  2.363075E+05  3.226275E+04 -3.514822E+03  9.636173E+04  1.163094E-10 -1.802299E-09
       267  11  2.308684E+05  2.889014E+04 -5.803179E+03  9.357604E+04 -5.708991E-09 -7.517063E-09
       267  12  2.236760E+05  2.747747E+04 -7.691622E+03  9.288597E+04 -1.752111E-08 -1.009689E-09
       267  13  2.588737E+05  4.071333E+04  1.826923E+03  1.026458E+05 -5.411230E-10 -6.285146E-10
       267  14  2.597447E+05  3.969336E+04  1.004629E+03  1.016132E+05  8.108661E-10 -2.620926E-09
       267  15  2.588622E+05  4.063317E+04  5.814640E+02  1.026762E+05 -8.347055E-09 -2.601472E-10
       267  16  2.814406E+05  4.916400E+04  7.168667E+03  1.089302E+05  1.651964E-09 -3.471298E-09
       267  17  2.886219E+05  5.049667E+04  7.812401E+03  1.096507E+05  4.700453E-09  1.181147E-08
       267  18  2.940496E+05  5.378897E+04  8.854465E+03  1.124670E+05  9.298134E-09  1.645433E-08
       267  19  2.363075E+05  3.226276E+04 -3.514817E+03  9.636173E+04 -5.053300E+02 -1.651284E+03
       267  20  2.308684E+05  2.889015E+04 -5.803173E+03  9.357604E+04  1.468286E+02 -1.855769E+03
       267  21  2.236760E+05  2.747748E+04 -7.691613E+03  9.288597E+04  7.993926E+02 -2.061368E+03
       267  22  2.588737E+05  4.071334E+04  1.826930E+03  1.026458E+05 -8.776834E+02 -1.792368E+03
       267  23  2.597447E+05  3.969336E+04  1.004636E+03  1.016132E+05 -2.265575E+02 -1.997238E+03
       267  24  2.588622E+05  4.063318E+04  5.814734E+02  1.026762E+05  4.249777E+02 -2.203220E+03
       267  25  2.814406E+05  4.916400E+04  7.168677E+03  1.089302E+05 -1.250054E+03 -1.933459E+03
       267  26  2.886219E+05  5.049667E+04  7.812410E+03  1.096507E+05 -5.999635E+02 -2.138715E+03
       267  27  2.940496E+05  5.378897E+04  8.854476E+03  1.124670E+05  5.053964E+01 -2.345080E+03
       268   1  2.185839E+05  2.559909E+04 -9.050437E+03  9.149143E+04 -9.730056E+02  2.259580E+03
       268   2  2.131671E+05  2.231124E+04 -1.066145E+04  8.868775E+04 -1.281862E+03  2.596436E+03
       268   3  2.059144E+05  2.089355E+04 -1.215251E+04  8.799354E+04 -1.590860E+03  2.933766E+03
       268   4  2.588477E+05  4.063972E+04  4.593091E+02  1.026692E+05 -5.984918E+02  2.401462E+03
       268   5  2.597653E+05  3.970335E+04  3.177017E+02  1.016150E+05 -9.069195E+02  2.738468E+03
       268   6  2.588470E+05  4.063701E+04  2.957105E+02  1.026701E+05 -1.215492E+03  3.075947E+03
       268   7  2.991128E+05  5.568039E+04  9.968881E+03  1.138476E+05 -2.239536E+02  2.543353E+03
       268   8  3.063657E+05  5.709563E+04  1.129670E+04  1.145431E+05 -5.319464E+02  2.880510E+03
       268   9  3.117826E+05  6.038079E+04  1.274381E+04  1.173479E+05 -8.400875E+02  3.218141E+03
       268  10  2.185839E+05  2.559908E+04 -9.050448E+03  9.149143E+04  1.017565E-08  2.249733E-09
       268  11  2.131671E+05  2.231123E+04 -1.066147E+04  8.868775E+04  6.978558E-10  7.149152E-09
       268  12  2.059144E+05  2.089354E+04 -1.215253E+04  8.799354E+04 -2.161579E-08 -4.156093E-09
       268  13  2.588477E+05  4.063971E+04  4.592976E+02  1.026692E+05 -5.487701E-09  1.804641E-09
       268  14  2.597653E+05  3.970335E+04  3.176860E+02  1.016150E+05 -1.871236E-09  3.669329E-10
       268  15  2.588470E+05  4.063700E+04  2.956899E+02  1.026701E+05 -4.559561E-09 -6.569887E-09
       268  16  2.991128E+05  5.568038E+04  9.968868E+03  1.138476E+05 -1.795569E-08 -1.462170E-08
       268  17  3.063657E+05  5.709562E+04  1.129669E+04  1.145431E+05 -1.813461E-09 -3.487961E-09
       268  18  3.117826E+05  6.038078E+04  1.274379E+04  1.173479E+05  1.437207E-08  9.437094E-09
       268  19  2.185839E+05  2.559909E+04 -9.050437E+03  9.149143E+04  9.730056E+02 -2.259580E+03
       268  20  2.131671E+05  2.231124E+04 -1.066145E+04  8.868775E+04  1.281862E+03 -2.596436E+03
       268  21  2.059144E+05  2.089355E+04 -1.215251E+04  8.799354E+04  1.590860E+03 -2.933766E+03
       268  22  2.588477E+05  4.063972E+04  4.593091E+02  1.026692E+05  5.984918E+02 -2.401462E+03
       268  23  2.597653E+05  3.970335E+04  3.177017E+02  1.016150E+05  9.069195E+02 -2.738468E+03
       268  24  2.588470E+05  4.063701E+04  2.957105E+02  1.026701E+05  1.215492E+03 -3.075947E+03
       268  25  2.991128E+05  5.568039E+04  9.968881E+03  1.138476E+05  2.239536E+02 -2.543353E+03
       268  26  3.063657E+05  5.709563E+04  1.129670E+04  1.145431E+05  5.319464E+02 -2.880510E+03
       268  27  3.117826E+05  6.038079E+04  1.274381E+04  1.173479E+05  8.400875E+02 -3.218141E+03
       269   1  2.008314E+05  1.899452E+04 -1.336597E+04  8.659313E+04 -1.730607E+03  3.145621E+03
       269   2  1.953854E+05  1.569589E+04 -1.469476E+04  8.378008E+04 -2.115215E+03  3.455384E+03
       269   3  1.881094E+05  1.428076E+04 -1.584602E+04  8.308764E+04 -2.499893E+03  3.765473E+03
       269   4  2.588480E+05  4.063897E+04  3.229856E+02  1.026729E+05 -1.354720E+03  3.287990E+03
       269   5  2.597631E+05  3.969766E+04  4.691762E+02  1.016124E+05 -1.739058E+03  3.597837E+03
       269   6  2.588480E+05  4.063979E+04  7.926722E+02  1.026725E+05 -2.123469E+03  3.908009E+03
       269   7  3.168681E+05  6.228368E+04  1.401170E+04  1.187541E+05 -9.787939E+02  3.430373E+03
       269   8  3.241447E+05  6.369968E+04  1.563277E+04  1.194464E+05 -1.362860E+03  3.740305E+03
       269   9  3.295911E+05  6.699904E+04  1.743090E+04  1.222594E+05 -1.747000E+03  4.050561E+03
       269  10  2.008313E+05  1.899451E+04 -1.336599E+04  8.659314E+04  1.203460E-08 -6.593214E-10
       269  11  1.953854E+05  1.569587E+04 -1.469479E+04  8.378009E+04  1.082130E-08 -8.242029E-09
       269  12  1.881094E+05  1.428074E+04 -1.584606E+04  8.308765E+04  5.526579E-09 -1.777254E-09
       269  13  2.588480E+05  4.063896E+04  3.229619E+02  1.026729E+05 -3.848902E-09  4.590152E-09
       269  14  2.597631E+05  3.969765E+04  4.691462E+02  1.016124E+05  2.869787E-09 -3.176150E-09
       269  15  2.588480E+05  4.063977E+04  7.926350E+02  1.026725E+05  5.193904E-09 -3.342231E-09
       269  16  3.168681E+05  6.228366E+04  1.401167E+04  1.187541E+05 -1.427411E-08  4.728229E-10
       269  17  3.241447E+05  6.369966E+04  1.563274E+04  1.194464E+05 -9.919774E-10 -1.684901E-08
       269  18  3.295911E+05  6.699902E+04  1.743087E+04  1.222594E+05  7.448676E-09 -1.686223E-09
       269  19  2.008314E+05  1.899452E+04 -1.336597E+04  8.659313E+04  1.730607E+03 -3.145621E+03
       269  20  1.953854E+05  1.569589E+04 -1.469476E+04  8.378008E+04  2.115215E+03 -3.455384E+03
       269  21  1.881094E+05  1.428076E+04 -1.584602E+04  8.308764E+04  2.499893E+03 -3.765473E+03
       269  22  2.588480E+05  4.063897E+04  3.229856E+02  1.026729E+05  1.354720E+03 -3.287990E+03
       269  23  2.597631E+05  3.969766E+04  4.691762E+02  1.016124E+05  1.739058E+03 -3.597837E+03
       269  24  2.588480E+05  4.063979E+04  7.926722E+02  1.026725E+05  2.123469E+03 -3.908009E+03
       269  25  3.168681E+05  6.228368E+04  1.401170E+04  1.187541E+05  9.787939E+02 -3.430373E+03
       269  26  3.241447E+05  6.369968E+04  1.563277E+04  1.194464E+05  1.362860E+03 -3.740305E+03
       269  27  3.295911E+05  6.699904E+04  1.743090E+04  1.222594E+05  1.747000E+03 -4.050561E+03
       270   1  1.830053E+05  1.238400E+04 -1.684474E+04  8.171983E+04 -2.742379E+03  3.940278E+03
       270   2  1.774754E+05  9.042139E+03 -1.750968E+04  7.885929E+04 -3.815245E+03  3.989541E+03
       270   3  1.702603E+05  7.771183E+03 -1.743947E+04  7.811746E+04 -4.885667E+03  4.032466E+03
       270   4  2.588729E+05  4.063191E+04  1.040184E+03  1.026908E+05 -2.363271E+03  4.083817E+03
       270   5  2.597253E+05  3.966987E+04  1.858944E+03  1.016033E+05 -3.442247E+03  4.130746E+03
       270   6  2.588938E+05  4.077998E+04  3.417648E+03  1.026345E+05 -4.518787E+03  4.171331E+03
       270   7  3.347468E+05  6.888041E+04  1.892483E+04  1.236643E+05 -1.984110E+03  4.227377E+03
       270   8  3.419822E+05  7.029819E+04  2.122715E+04  1.243501E+05 -3.069194E+03  4.271971E+03
       270   9  3.475351E+05  7.378937E+04  2.427423E+04  1.271548E+05 -4.151850E+03  4.310219E+03
       270  10  1.830053E+05  1.238398E+04 -1.684479E+04  8.171984E+04  2.022109E-08  1.438695E-08
       270  11  1.774753E+05  9.042118E+03 -1.750973E+04  7.885931E+04 -2.817726E-09  1.475818E-09
       270  12  1.702603E+05  7.771160E+03 -1.743955E+04  7.811747E+04 -2.019683E-08 -6.483913E-09
       270  13  2.588729E+05  4.063189E+04  1.040142E+03  1.026908E+05  1.511509E-09  2.885004E-09
       270  14  2.597253E+05  3.966985E+04  1.858890E+03  1.016033E+05 -9.836405E-10  1.733836E-08
       270  15  2.588937E+05  4.077996E+04  3.417577E+03  1.026346E+05  2.708480E-11  3.381178E-09
       270  16  3.347468E+05  6.888039E+04  1.892478E+04  1.236643E+05 -1.398449E-08 -1.508944E-08
       270  17  3.419822E+05  7.029817E+04  2.122710E+04  1.243502E+05  2.187385E-09 -1.316251E-08
       270  18  3.475351E+05  7.378935E+04  2.427416E+04  1.271549E+05  1.895865E-08  6.755199E-09
       270  19  1.830053E+05  1.238400E+04 -1.684474E+04  8.171983E+04  2.742379E+03 -3.940278E+03
       270  20  1.774754E+05  9.042139E+03 -1.750968E+04  7.885929E+04  3.815245E+03 -3.989541E+03
       270  21  1.702603E+05  7.771183E+03 -1.743947E+04  7.811746E+04  4.885667E+03 -4.032466E+03
       270  22  2.588729E+05  4.063191E+04  1.040184E+03  1.026908E+05  2.363271E+03 -4.083817E+03
       270  23  2.597253E+05  3.966987E+04  1.858944E+03  1.016033E+05  3.442247E+03 -4.130746E+03
       270  24  2.588938E+05  4.077998E+04  3.417648E+03  1.026345E+05  4.518787E+03 -4.171331E+03
       270  25  3.347468E+05  6.888041E+04  1.892483E+04  1.236643E+05  1.984110E+03 -4.227377E+03
       270  26  3.419822E+05  7.029819E+04  2.122715E+04  1.243501E+05  3.069194E+03 -4.271971E+03
       270  27  3.475351E+05  7.378937E+04  2.427423E+04  1.271548E+05  4.151850E+03 -4.310219E+03
       271   1  1.649295E+05  5.977031E+03 -1.759481E+04  7.736749E+04 -5.660980E+03  4.021514E+03
       271   2  1.594494E+05  2.015754E+03 -1.548396E+04  7.351935E+04 -9.765853E+03  2.878644E+03
       271   3  1.538140E+05  3.187830E+03 -9.545298E+03  7.112717E+04 -1.381105E+04  1.578372E+03
       271   4  2.591022E+05  4.050579E+04  4.507396E+03  1.028511E+05 -5.247276E+03  4.178099E+03
       271   5  2.594008E+05  3.957347E+04  8.137168E+03  1.014985E+05 -9.501413E+03  2.978677E+03
       271   6  2.595733E+05  4.380359E+04  1.571260E+04  1.016017E+05 -1.369594E+04  1.621828E+03
       271   7  3.532832E+05  7.503494E+04  2.660884E+04  1.283380E+05 -4.833507E+03  4.334708E+03
       271   8  3.593620E+05  7.713197E+04  3.175758E+04  1.294817E+05 -9.236926E+03  3.078727E+03
       271   9  3.653443E+05  8.442058E+04  4.096984E+04  1.320812E+05 -1.358080E+04  1.665292E+03
       271  10  1.649294E+05  5.977005E+03 -1.759490E+04  7.736750E+04  4.664245E-09  3.467701E-09
       271  11  1.594493E+05  2.015719E+03 -1.548415E+04  7.351937E+04  4.782679E-09  1.310512E-08
       271  12  1.538138E+05  3.187776E+03 -9.545661E+03  7.112719E+04  1.000842E-08  1.370842E-09
       271  13  2.591021E+05  4.050576E+04  4.507311E+03  1.028511E+05 -2.097104E-09  2.310909E-11
       271  14  2.594007E+05  3.957343E+04  8.136981E+03  1.014985E+05  2.794134E-09  9.625966E-09
       271  15  2.595731E+05  4.380354E+04  1.571224E+04  1.016017E+05  2.070694E-09 -6.999451E-09
       271  16  3.532832E+05  7.503491E+04  2.660876E+04  1.283380E+05 -2.458093E-09  1.203617E-08
       271  17  3.593619E+05  7.713193E+04  3.175741E+04  1.294817E+05 -3.484055E-09 -1.026354E-09
       271  18  3.653441E+05  8.442053E+04  4.096949E+04  1.320812E+05 -5.902028E-09 -1.100765E-08
       271  19  1.649295E+05  5.977031E+03 -1.759481E+04  7.736749E+04  5.660980E+03 -4.021514E+03
       271  20  1.594494E+05  2.015754E+03 -1.548396E+04  7.351935E+04  9.765853E+03 -2.878644E+03
       271  21  1.538140E+05  3.187830E+03 -9.545298E+03  7.112717E+04  1.381105E+04 -1.578372E+03
       271  22  2.591022E+05  4.050579E+04  4.507396E+03  1.028511E+05  5.247276E+03 -4.178099E+03
       271  23  2.594008E+05  3.957347E+04  8.137168E+03  1.014985E+05  9.501413E+03 -2.978677E+03
       271  24  2.595733E+05  4.380359E+04  1.571260E+04  1.016017E+05  1.369594E+04 -1.621828E+03
       271  25  3.532832E+05  7.503494E+04  2.660884E+04  1.283380E+05  4.833507E+03 -4.334708E+03
       271  26  3.593620E+05  7.713197E+04  3.175758E+04  1.294817E+05  9.236926E+03 -3.078727E+03
       271  27  3.653443E+05  8.442058E+04  4.096984E+04  1.320812E+05  1.358080E+04 -1.665292E+03
       272   1  1.438515E+05  3.011834E+03 -6.395025E+03  8.137857E+04 -1.753402E+04  7.757177E+02
       272   2  1.448811E+05 -1.235047E+04  7.086581E+03  5.830974E+04 -3.298023E+04 -5.701733E+03
       272   3  1.680146E+05  3.188537E+04  4.808102E+04  2.226251E+04 -4.709210E+04 -1.570419E+04
       272   4  2.621182E+05  3.830414E+04  1.994171E+04  1.051104E+05 -1.639274E+04  1.207926E+03
       272   5  2.552249E+05  3.952182E+04  3.552750E+04  9.973371E+04 -3.517076E+04 -6.531645E+03
       272   6  2.710902E+05  1.009894E+05  8.126384E+04  8.138063E+04 -5.261429E+04 -1.779696E+04
       272   7  3.803993E+05  7.359653E+04  4.627772E+04  1.288459E+05 -1.525122E+04  1.640186E+03
       272   8  3.655802E+05  9.139677E+04  6.396718E+04  1.411647E+05 -3.736169E+04 -7.361805E+03
       272   9  3.741764E+05  1.701018E+05  1.144453E+05  1.405087E+05 -5.813737E+04 -1.989075E+04
       272  10  1.438512E+05  3.011750E+03 -6.395604E+03  8.137859E+04 -2.203975E-09  6.012056E-10
       272  11  1.448799E+05 -1.235079E+04  7.084476E+03  5.830959E+04  1.982834E-09  1.214429E-08
       272  12  1.680122E+05  3.188451E+04  4.807639E+04  2.226191E+04  5.852289E-09  7.320446E-09
       272  13  2.621179E+05  3.830407E+04  1.994120E+04  1.051104E+05  1.637291E-09 -5.679017E-09
       272  14  2.552236E+05  3.952144E+04  3.552509E+04  9.973352E+04  3.358469E-09  5.165119E-09
       272  15  2.710871E+05  1.009884E+05  8.125805E+04  8.137987E+04  1.606557E-09  1.074511E-08
       272  16  3.803991E+05  7.359647E+04  4.627727E+04  1.288459E+05  1.821500E-09 -8.702240E-09
       272  17  3.655787E+05  9.139633E+04  6.396446E+04  1.411645E+05 -5.074773E-09 -5.461188E-09
       272  18  3.741726E+05  1.701005E+05  1.144382E+05  1.405077E+05 -8.228217E-09 -2.706520E-09
       272  19  1.438515E+05  3.011834E+03 -6.395025E+03  8.137857E+04  1.753402E+04 -7.757177E+02
       272  20  1.448811E+05 -1.235047E+04  7.086581E+03  5.830974E+04  3.298023E+04  5.701733E+03
       272  21  1.680146E+05  3.188537E+04  4.808102E+04  2.226251E+04  4.709210E+04  1.570419E+04
       272  22  2.621182E+05  3.830414E+04  1.994171E+04  1.051104E+05  1.639274E+04 -1.207926E+03
       272  23  2.552249E+05  3.952182E+04  3.552750E+04  9.973371E+04  3.517076E+04  6.531645E+03
       272  24  2.710902E+05  1.009894E+05  8.126384E+04  8.138063E+04  5.261429E+04  1.779696E+04
       272  25  3.803993E+05  7.359653E+04  4.627772E+04  1.288459E+05  1.525122E+04 -1.640186E+03
       272  26  3.655802E+05  9.139677E+04  6.396718E+04  1.411647E+05  3.736169E+04  7.361805E+03
       272  27  3.741764E+05  1.701018E+05  1.144453E+05  1.405087E+05  5.813737E+04  1.989075E+04
       273   1 -5.752377E+04 -4.159463E+05 -6.179352E+04  2.562733E+04 -1.492408E+03 -2.623614E+04
       273   2 -2.660020E+04 -3.963178E+05 -3.889162E+04  1.406697E+04 -4.839525E+03 -1.469684E+04
       273   3 -2.075894E+04 -3.844175E+05 -2.977368E+04  8.228187E+03 -4.935754E+03 -3.146803E+03
       273   4 -2.725694E+04 -2.945363E+05 -3.243992E+04  1.161515E+04 -1.507378E+03 -2.126483E+04
       273   5 -8.503276E+02 -2.909544E+05 -1.573813E+04  8.798171E+03 -4.844611E+03 -1.299951E+04
       273   6  1.044684E+03 -2.945312E+05 -1.054425E+04  1.170315E+04 -4.930880E+03 -4.723852E+03
       273   7  3.009547E+03 -1.731123E+05 -3.087186E+03 -2.399769E+03 -1.522571E+03 -1.629256E+04
       273   8  2.489890E+04 -1.855805E+05  7.414710E+03  3.528476E+03 -4.849726E+03 -1.130190E+04
       273   9  2.284783E+04 -2.046372E+05  8.684734E+03  1.517863E+04 -4.926024E+03 -6.301126E+03
       273  10 -5.752396E+04 -4.159471E+05 -6.179481E+04  2.562729E+04  9.021828E-10  2.473409E-09
       273  11 -2.660028E+04 -3.963180E+05 -3.889207E+04  1.406691E+04 -1.000650E-09  4.982811E-09
       273  12 -2.075897E+04 -3.844175E+05 -2.977374E+04  8.228175E+03 -1.429944E-09 -2.320144E-09
       273  13 -2.725707E+04 -2.945368E+05 -3.244077E+04  1.161512E+04  6.330272E-10  2.876211E-11
       273  14 -8.503981E+02 -2.909546E+05 -1.573849E+04  8.798120E+03 -1.158287E-09  6.699948E-09
       273  15  1.044652E+03 -2.945312E+05 -1.054433E+04  1.170313E+04 -3.316245E-10 -4.596487E-09
       273  16  3.009473E+03 -1.731126E+05 -3.087689E+03 -2.399789E+03 -1.292843E-09 -1.136463E-08
       273  17  2.489884E+04 -1.855807E+05  7.414426E+03  3.528432E+03  2.253562E-11  1.044455E-10
       273  18  2.284779E+04 -2.046373E+05  8.684614E+03  1.517860E+04 -4.080079E-09  2.028832E-09
       273  19 -5.752377E+04 -4.159463E+05 -6.179352E+04  2.562733E+04  1.492408E+03  2.623614E+04
       273  20 -2.660020E+04 -3.963178E+05 -3.889162E+04  1.406697E+04  4.839525E+03  1.469684E+04
       273  21 -2.075894E+04 -3.844175E+05 -2.977368E+04  8.228187E+03  4.935754E+03  3.146803E+03
       273  22 -2.725694E+04 -2.945363E+05 -3.243992E+04  1.161515E+04  1.507378E+03  2.126483E+04
       273  23 -8.503276E+02 -2.909544E+05 -1.573813E+04  8.798171E+03  4.844611E+03  1.299951E+04
       273  24  1.044684E+03 -2.945312E+05 -1.054425E+04  1.170315E+04  4.930880E+03  4.723852E+03
       273  25  3.009547E+03 -1.731123E+05 -3.087186E+03 -2.399769E+03  1.522571E+03  1.629256E+04
       273  26  2.489890E+04 -1.855805E+05  7.414710E+03  3.528476E+03  4.849726E+03  1.130190E+04
       273  27  2.284783E+04 -2.046372E+05  8.684734E+03  1.517863E+04  4.926024E+03  6.301126E+03
       274   1 -2.012364E+04 -3.707435E+05 -2.608981E+04  1.269386E+04 -4.153833E+03 -2.437064E+03
       274   2 -1.501001E+04 -3.543003E+05 -2.162812E+04  8.874511E+03 -3.415499E+03  1.937363E+03
       274   3 -1.284598E+04 -3.391174E+05 -2.074211E+04  1.099011E+04 -2.530168E+03  6.312282E+03
       274   4 -1.273694E+03 -2.932150E+05 -9.429780E+03  1.172836E+04 -4.151704E+03 -3.120619E+03
       274   5 -2.583118E+01 -2.925974E+05 -8.434180E+03  8.760240E+03 -3.412949E+03  1.106100E+03
       274   6 -1.701724E+03 -2.932146E+05 -1.091139E+04  1.172705E+04 -2.527192E+03  5.333202E+03
       274   7  1.757586E+04 -2.156809E+05  7.229904E+03  1.076274E+04 -4.149573E+03 -3.804258E+03
       274   8  1.495810E+04 -2.308909E+05  4.759542E+03  8.645960E+03 -3.410398E+03  2.747550E+02
       274   9  9.442393E+03 -2.473098E+05 -1.080789E+03  1.246405E+04 -2.524219E+03  4.354051E+03
       274  10 -2.012366E+04 -3.707435E+05 -2.608986E+04  1.269385E+04 -1.447778E-09  3.408697E-09
       274  11 -1.501002E+04 -3.543003E+05 -2.162815E+04  8.874517E+03  6.920921E-10  6.159529E-09
       274  12 -1.284599E+04 -3.391174E+05 -2.074220E+04  1.099012E+04  1.566461E-09  3.593266E-09
       274  13 -1.273715E+03 -2.932150E+05 -9.429830E+03  1.172835E+04 -1.842381E-09 -2.162660E-09
       274  14 -2.584401E+01 -2.925974E+05 -8.434205E+03  8.760243E+03 -1.350870E-10  4.434763E-09
       274  15 -1.701739E+03 -2.932146E+05 -1.091146E+04  1.172706E+04 -6.063590E-10 -4.053138E-09
       274  16  1.757584E+04 -2.156809E+05  7.229844E+03  1.076272E+04 -3.333926E-09 -8.945586E-09
       274  17  1.495809E+04 -2.308909E+05  4.759520E+03  8.645961E+03 -2.656906E-09  4.695742E-09
       274  18  9.442381E+03 -2.473098E+05 -1.080837E+03  1.246406E+04 -1.546308E-10  4.153425E-10
       274  19 -2.012364E+04 -3.707435E+05 -2.608981E+04  1.269386E+04  4.153833E+03  2.437064E+03
       274  20 -1.501001E+04 -3.543003E+05 -2.162812E+04  8.874511E+03  3.415499E+03 -1.937363E+03
       274  21 -1.284598E+04 -3.391174E+05 -2.074211E+04  1.099011E+04  2.530168E+03 -6.312282E+03
       274  22 -1.273694E+03 -2.932150E+05 -9.429780E+03  1.172836E+04  4.151704E+03  3.120619E+03
       274  23 -2.583118E+01 -2.925974E+05 -8.434180E+03  8.760240E+03  3.412949E+03 -1.106100E+03
       274  24 -1.701724E+03 -2.932146E+05 -1.091139E+04  1.172705E+04  2.527192E+03 -5.333202E+03
       274  25  1.757586E+04 -2.156809E+05  7.229904E+03  1.076274E+04  4.149573E+03  3.804258E+03
       274  26  1.495810E+04 -2.308909E+05  4.759542E+03  8.645960E+03  3.410398E+03 -2.747550E+02
       274  27  9.442393E+03 -2.473098E+05 -1.080789E+03  1.246405E+04  2.524219E+03 -4.354051E+03
       275   1 -6.755586E+03 -3.286220E+05 -1.990062E+04  1.669162E+04 -1.963099E+03  8.179348E+03
       275   2 -5.381342E+03 -3.081829E+05 -2.394129E+04  2.228506E+03 -1.084683E+03  1.869992E+04
       275   3 -3.612234E+04 -2.970985E+05 -4.285152E+04 -6.355526E+03 -3.057779E+02  2.922029E+04
       275   4  1.429927E+03 -2.950218E+05 -1.276231E+04  1.174369E+04 -1.960245E+03  7.212316E+03
       275   5 -1.102886E+03 -2.903382E+05 -2.016329E+04  8.748122E+03 -1.081877E+03  1.783300E+04
       275   6 -3.576837E+04 -2.950271E+05 -4.250331E+04  1.163162E+04 -3.026307E+02  2.845323E+04
       275   7  9.615458E+03 -2.614205E+05 -5.624047E+03  6.795495E+03 -1.957376E+03  6.245231E+03
       275   8  3.175711E+03 -2.724931E+05 -1.638528E+04  1.526793E+04 -1.079089E+03  1.696606E+04
       275   9 -3.541318E+04 -2.929550E+05 -4.215492E+04  2.961882E+04 -2.995280E+02  2.768618E+04
       275  10 -6.755608E+03 -3.286221E+05 -1.990075E+04  1.669163E+04  1.679340E-09  5.742754E-10
       275  11 -5.381438E+03 -3.081833E+05 -2.394195E+04  2.228522E+03  3.715601E-09  2.851805E-09
       275  12 -3.612257E+04 -2.970994E+05 -4.285313E+04 -6.355519E+03  1.007238E-09  3.035696E-09
       275  13  1.429909E+03 -2.950219E+05 -1.276241E+04  1.174370E+04  1.013314E-09 -4.270072E-09
       275  14 -1.102973E+03 -2.903386E+05 -2.016389E+04  8.748137E+03  1.640822E-09  3.281756E-09
       275  15 -3.576859E+04 -2.950280E+05 -4.250483E+04  1.163162E+04  1.191590E-09  2.688950E-10
       275  16  9.615443E+03 -2.614205E+05 -5.624128E+03  6.795505E+03 -1.578126E-09 -9.279189E-09
       275  17  3.175632E+03 -2.724934E+05 -1.638583E+04  1.526794E+04  2.979885E-10  2.652147E-09
       275  18 -3.541339E+04 -2.929558E+05 -4.215636E+04  2.961883E+04 -8.858062E-10  4.503602E-09
       275  19 -6.755586E+03 -3.286220E+05 -1.990062E+04  1.669162E+04  1.963099E+03 -8.179348E+03
       275  20 -5.381342E+03 -3.081829E+05 -2.394129E+04  2.228506E+03  1.084683E+03 -1.869992E+04
       275  21 -3.612234E+04 -2.970985E+05 -4.285152E+04 -6.355526E+03  3.057779E+02 -2.922029E+04
       275  22  1.429927E+03 -2.950218E+05 -1.276231E+04  1.174369E+04  1.960245E+03 -7.212316E+03
       275  23 -1.102886E+03 -2.903382E+05 -2.016329E+04  8.748122E+03  1.081877E+03 -1.783300E+04
       275  24 -3.576837E+04 -2.950271E+05 -4.250331E+04  1.163162E+04  3.026307E+02 -2.845323E+04
       275  25  9.615458E+03 -2.614205E+05 -5.624047E+03  6.795495E+03  1.957376E+03 -6.245231E+03
       275  26  3.175711E+03 -2.724931E+05 -1.638528E+04  1.526793E+04  1.079089E+03 -1.696606E+04
       275  27 -3.541318E+04 -2.929550E+05 -4.215492E+04  2.961882E+04  2.995280E+02 -2.768618E+04
       276   1 -3.109036E+05 -1.462621E+05 -1.327877E+05 -2.418651E+04  2.494182E+03  1.024702E+04
       276   2 -2.479044E+05 -1.678412E+05 -1.285205E+05 -2.569934E+04  1.033485E+04  3.251978E+04
       276   3 -1.769705E+05 -1.543767E+05 -1.205705E+05 -5.136157E+04  1.819770E+04  3.474811E+04
       276   4  4.508689E+05  4.277156E+04  5.091155E+04 -4.520722E+04  3.505612E+04  1.027818E+04
       276   5  4.451746E+05  1.132323E+03  2.339521E+04 -3.311546E+04  2.269117E+04  3.252670E+04
       276   6  4.509059E+05 -1.977854E+03  1.358236E+04 -4.517058E+04  1.034764E+04  3.474120E+04
       276   7  1.213175E+06  2.317651E+05  2.345736E+05 -6.625393E+04  6.765787E+04  1.030713E+04
       276   8  1.138703E+06  1.700741E+05  1.752823E+05 -4.054005E+04  3.506112E+04  3.253332E+04
       276   9  1.079154E+06  1.503954E+05  1.477127E+05 -3.897328E+04  2.489742E+03  3.473413E+04
       276  10 -3.109036E+05 -1.462622E+05 -1.327880E+05 -2.418653E+04 -1.319075E-10  1.643434E-11
       276  11 -2.479048E+05 -1.678424E+05 -1.285227E+05 -2.569961E+04 -3.691691E-10 -5.534015E-11
       276  12 -1.769712E+05 -1.543781E+05 -1.205734E+05 -5.136208E+04  1.691755E-10 -1.110790E-10
       276  13  4.508675E+05  4.277112E+04  5.090905E+04 -4.520751E+04 -1.662157E-10  2.523157E-12
       276  14  4.451737E+05  1.131049E+03  2.339225E+04 -3.311606E+04  4.133868E-11 -3.686127E-11
       276  15  4.509055E+05 -1.979179E+03  1.357989E+04 -4.517087E+04 -3.095030E-11 -1.286075E-10
       276  16  1.213170E+06  2.317638E+05  2.345648E+05 -6.625449E+04  5.171797E-10  1.920041E-12
       276  17  1.138702E+06  1.700726E+05  1.752780E+05 -4.054097E+04  3.167862E-11 -2.565406E-11
       276  18  1.079153E+06  1.503941E+05  1.477104E+05 -3.897335E+04 -5.030101E-11 -1.168252E-10
       276  19 -3.109036E+05 -1.462621E+05 -1.327877E+05 -2.418651E+04 -2.494182E+03 -1.024702E+04
       276  20 -2.479044E+05 -1.678412E+05 -1.285205E+05 -2.569934E+04 -1.033485E+04 -3.251978E+04
       276  21 -1.769705E+05 -1.543767E+05 -1.205705E+05 -5.136157E+04 -1.819770E+04 -3.474811E+04
       276  22  4.508689E+05  4.277156E+04  5.091155E+04 -4.520722E+04 -3.505612E+04 -1.027818E+04
       276  23  4.451746E+05  1.132323E+03  2.339521E+04 -3.311546E+04 -2.269117E+04 -3.252670E+04
       276  24  4.509059E+05 -1.977854E+03  1.358236E+04 -4.517058E+04 -1.034764E+04 -3.474120E+04
       276  25  1.213175E+06  2.317651E+05  2.345736E+05 -6.625393E+04 -6.765787E+04 -1.030713E+04
       276  26  1.138703E+06  1.700741E+05  1.752823E+05 -4.054005E+04 -3.506112E+04 -3.253332E+04
       276  27  1.079154E+06  1.503954E+05  1.477127E+05 -3.897328E+04 -2.489742E+03 -3.473413E+04
       277   1 -1.272196E+05 -1.379216E+05 -1.128662E+05 -4.486762E+04  1.077849E+04  3.099400E+04
       277   2 -6.120908E+04 -1.236984E+05 -1.029416E+05 -3.287994E+04  8.789260E+03  2.821860E+04
       277   3  5.614795E+03 -1.076725E+05 -9.124776E+04 -4.581384E+04  6.798087E+03  2.451568E+04
       277   4  4.485947E+05  1.941591E+03  1.072753E+04 -4.535175E+04  8.455004E+03  3.099077E+04
       277   5  4.481200E+05 -9.427090E+01  5.848713E+03 -3.289128E+04  5.528460E+03  2.821583E+04
       277   6  4.486162E+05 -1.656090E+02  3.388540E+03 -4.535109E+04  2.600184E+03  2.451372E+04
       277   7  1.024721E+06  1.417831E+05  1.343019E+05 -4.583636E+04  6.129390E+03  3.098754E+04
       277   8  9.576931E+05  1.234929E+05  1.146241E+05 -3.290264E+04  2.265023E+03  2.821305E+04
       277   9  8.918023E+05  1.073285E+05  9.801355E+04 -4.488800E+04 -1.600671E+03  2.451177E+04
       277  10 -1.272200E+05 -1.379227E+05 -1.128682E+05 -4.486789E+04 -5.327469E-12 -1.581108E-10
       277  11 -6.120937E+04 -1.236992E+05 -1.029432E+05 -3.288014E+04 -2.043161E-10 -7.564563E-11
       277  12  5.614584E+03 -1.076732E+05 -9.124898E+04 -4.581397E+04  1.415558E-11  4.084663E-11
       277  13  4.485943E+05  1.940540E+03  1.072559E+04 -4.535196E+04 -1.004925E-11 -1.093831E-10
       277  14  4.481197E+05 -9.513420E+01  5.847160E+03 -3.289140E+04 -1.251837E-10  5.195963E-11
       277  15  4.486160E+05 -1.662563E+02  3.387398E+03 -4.535114E+04  2.041626E-10  5.503760E-11
       277  16  1.024720E+06  1.417820E+05  1.343000E+05 -4.583652E+04  1.288547E-10 -1.106819E-11
       277  17  9.576929E+05  1.234921E+05  1.146226E+05 -3.290269E+04 -4.775241E-10  2.399373E-10
       277  18  8.918021E+05  1.073279E+05  9.801242E+04 -4.488797E+04  1.355506E-10  7.709510E-11
       277  19 -1.272196E+05 -1.379216E+05 -1.128662E+05 -4.486762E+04 -1.077849E+04 -3.099400E+04
       277  20 -6.120908E+04 -1.236984E+05 -1.029416E+05 -3.287994E+04 -8.789260E+03 -2.821860E+04
       277  21  5.614795E+03 -1.076725E+05 -9.124776E+04 -4.581384E+04 -6.798087E+03 -2.451568E+04
       277  22  4.485947E+05  1.941591E+03  1.072753E+04 -4.535175E+04 -8.455004E+03 -3.099077E+04
       277  23  4.481200E+05 -9.427090E+01  5.848713E+03 -3.289128E+04 -5.528460E+03 -2.821583E+04
       277  24  4.486162E+05 -1.656090E+02  3.388540E+03 -4.535109E+04 -2.600184E+03 -2.451372E+04
       277  25  1.024721E+06  1.417831E+05  1.343019E+05 -4.583636E+04 -6.129390E+03 -3.098754E+04
       277  26  9.576931E+05  1.234929E+05  1.146241E+05 -3.290264E+04 -2.265023E+03 -2.821305E+04
       277  27  8.918023E+05  1.073285E+05  9.801355E+04 -4.488800E+04  1.600671E+03 -2.451177E+04
       278   1  5.678145E+04 -9.495609E+04 -8.076811E+04 -4.543570E+04  6.008803E+03  2.212903E+04
       278   2  1.228779E+05 -7.900510E+04 -6.789593E+04 -3.296418E+04  5.304218E+03  1.820342E+04
       278   3  1.891285E+05 -6.295650E+04 -5.453273E+04 -4.536285E+04  4.598068E+03  1.423818E+04
       278   4  4.484448E+05  2.933054E+01  2.599591E+03 -4.533997E+04  2.072379E+03  2.212767E+04
       278   5  4.483725E+05 -4.556387E+01  1.506653E+03 -3.290528E+04  1.327266E+03  1.820273E+04
       278   6  4.484580E+05 -1.539522E+01  9.329781E+02 -4.533999E+04  5.806622E+02  1.423821E+04
       278   7  8.402527E+05  9.500478E+04  8.595854E+04 -4.524419E+04 -1.866491E+03  2.212630E+04
       278   8  7.739668E+05  7.890708E+04  7.090319E+04 -3.284635E+04 -2.651740E+03  1.820205E+04
       278   9  7.078509E+05  6.292133E+04  5.639485E+04 -4.531712E+04 -3.438397E+03  1.423823E+04
       278  10  5.678128E+04 -9.495662E+04 -8.076910E+04 -4.543580E+04 -3.336896E-10  4.347617E-11
       278  11  1.228778E+05 -7.900546E+04 -6.789661E+04 -3.296426E+04  5.353853E-11  9.252129E-11
       278  12  1.891284E+05 -6.295672E+04 -5.453315E+04 -4.536290E+04  8.090650E-11  4.249877E-13
       278  13  4.484447E+05  2.880349E+01  2.598663E+03 -4.534001E+04  6.710987E-12  1.406622E-11
       278  14  4.483724E+05 -4.592022E+01  1.506027E+03 -3.290530E+04 -5.549384E-10  1.719325E-11
       278  15  4.484580E+05 -1.561305E+01  9.325964E+02 -4.534000E+04 -1.068548E-10 -1.631785E-11
       278  16  8.402526E+05  9.500426E+04  8.595761E+04 -4.524415E+04  3.543071E-10 -4.410656E-11
       278  17  7.739667E+05  7.890672E+04  7.090256E+04 -3.284631E+04  6.545292E-11 -4.671400E-11
       278  18  7.078508E+05  6.292111E+04  5.639444E+04 -4.531708E+04 -1.633328E-10  8.107149E-11
       278  19  5.678145E+04 -9.495609E+04 -8.076811E+04 -4.543570E+04 -6.008803E+03 -2.212903E+04
       278  20  1.228779E+05 -7.900510E+04 -6.789593E+04 -3.296418E+04 -5.304218E+03 -1.820342E+04
       278  21  1.891285E+05 -6.295650E+04 -5.453273E+04 -4.536285E+04 -4.598068E+03 -1.423818E+04
       278  22  4.484448E+05  2.933054E+01  2.599591E+03 -4.533997E+04 -2.072379E+03 -2.212767E+04
       278  23  4.483725E+05 -4.556387E+01  1.506653E+03 -3.290528E+04 -1.327266E+03 -1.820273E+04
       278  24  4.484580E+05 -1.539522E+01  9.329781E+02 -4.533999E+04 -5.806622E+02 -1.423821E+04
       278  25  8.402527E+05  9.500478E+04  8.595854E+04 -4.524419E+04  1.866491E+03 -2.212630E+04
       278  26  7.739668E+05  7.890708E+04  7.090319E+04 -3.284635E+04  2.651740E+03 -1.820205E+04
       278  27  7.078509E+05  6.292133E+04  5.639485E+04 -4.531712E+04  3.438397E+03 -1.423823E+04
       279   1  2.402857E+05 -5.045821E+04 -4.343423E+04 -4.533327E+04  4.430203E+03  1.192160E+04
       279   2  3.063077E+05 -3.447315E+04 -2.971448E+04 -3.290797E+04  4.143848E+03  7.951404E+03
       279   3  3.723740E+05 -1.847495E+04 -1.580555E+04 -4.530698E+04  3.856801E+03  3.980968E+03
       279   4  4.484369E+05 -4.847640E+00  7.598692E+02 -4.532989E+04  4.272213E+02  1.192193E+04
       279   5  4.484201E+05 -3.583752E+00  5.801425E+02 -3.291791E+04  1.403203E+02  7.952033E+03
       279   6  4.484426E+05  1.089036E+01  5.897529E+02 -4.532990E+04 -1.472444E+02  3.981910E+03
       279   7  6.566290E+05  5.044571E+04  4.495155E+04 -4.532651E+04 -3.577082E+03  1.192226E+04
       279   8  5.905516E+05  3.446468E+04  3.087366E+04 -3.292785E+04 -3.864110E+03  7.952662E+03
       279   9  5.245167E+05  1.849636E+04  1.698478E+04 -4.535281E+04 -4.151773E+03  3.982852E+03
       279  10  2.402856E+05 -5.045837E+04 -4.343454E+04 -4.533332E+04  2.631559E-10 -8.229668E-11
       279  11  3.063077E+05 -3.447322E+04 -2.971463E+04 -3.290800E+04  1.125354E-10 -1.580337E-10
       279  12  3.723740E+05 -1.847498E+04 -1.580561E+04 -4.530700E+04 -2.587164E-10 -1.820948E-10
       279  13  4.484369E+05 -5.000347E+00  7.596017E+02 -4.532990E+04  2.866613E-11 -2.633271E-11
       279  14  4.484201E+05 -3.651675E+00  5.800236E+02 -3.291791E+04 -1.220888E-10  3.101760E-11
       279  15  4.484426E+05  1.087332E+01  5.897231E+02 -4.532989E+04 -3.188534E-10 -3.012986E-11
       279  16  6.566289E+05  5.044556E+04  4.495126E+04 -4.532648E+04 -3.840364E-10  4.768746E-11
       279  17  5.905516E+05  3.446460E+04  3.087351E+04 -3.292783E+04 -2.849404E-10  1.698441E-11
       279  18  5.245166E+05  1.849634E+04  1.698471E+04 -4.535280E+04 -4.163601E-10  1.053929E-10
       279  19  2.402857E+05 -5.045821E+04 -4.343423E+04 -4.533327E+04 -4.430203E+03 -1.192160E+04
       279  20  3.063077E+05 -3.447315E+04 -2.971448E+04 -3.290797E+04 -4.143848E+03 -7.951404E+03
       279  21  3.723740E+05 -1.847495E+04 -1.580555E+04 -4.530698E+04 -3.856801E+03 -3.980968E+03
       279  22  4.484369E+05 -4.847640E+00  7.598692E+02 -4.532989E+04 -4.272213E+02 -1.192193E+04
       279  23  4.484201E+05 -3.583752E+00  5.801425E+02 -3.291791E+04 -1.403203E+02 -7.952033E+03
       279  24  4.484426E+05  1.089036E+01  5.897529E+02 -4.532990E+04  1.472444E+02 -3.981910E+03
       279  25  6.566290E+05  5.044571E+04  4.495155E+04 -4.532651E+04  3.577082E+03 -1.192226E+04
       279  26  5.905516E+05  3.446468E+04  3.087366E+04 -3.292785E+04  3.864110E+03 -7.952662E+03
       279  27  5.245167E+05  1.849636E+04  1.698478E+04 -4.535281E+04  4.151773E+03 -3.982852E+03
       280   1  4.235005E+05 -6.002801E+03 -4.476609E+03 -4.530994E+04  3.742048E+03  1.670368E+03
       280   2  4.894920E+05  9.957674E+03  9.719197E+03 -3.288782E+04  3.263696E+03 -2.298541E+03
       280   3  5.555464E+05  2.594040E+04  2.422898E+04 -4.527765E+04  2.785485E+03 -6.266259E+03
       280   4  4.484480E+05  1.167936E+01  6.603990E+02 -4.532725E+04 -2.615019E+02  1.671376E+03
       280   5  4.484179E+05 -3.836457E+00  9.639963E+02 -3.292122E+04 -7.388191E+02 -2.297629E+03
       280   6  4.484463E+05  2.970890E+00  1.580990E+03 -4.532724E+04 -1.215946E+03 -6.265427E+03
       280   7  4.733962E+05  6.026129E+03  5.797434E+03 -4.534455E+04 -4.265210E+03  1.672385E+03
       280   8  4.073454E+05 -9.965448E+03 -7.791241E+03 -3.295461E+04 -4.741074E+03 -2.296716E+03
       280   9  3.413570E+05 -2.593519E+04 -2.106759E+04 -4.537682E+04 -5.216698E+03 -6.264595E+03
       280  10  4.235005E+05 -6.002808E+03 -4.476640E+03 -4.530995E+04  1.143055E-10 -1.134977E-10
       280  11  4.894920E+05  9.957665E+03  9.719167E+03 -3.288782E+04 -1.370626E-10  7.512612E-11
       280  12  5.555463E+05  2.594035E+04  2.422889E+04 -4.527763E+04 -3.262121E-10  1.654832E-10
       280  13  4.484480E+05  1.167634E+01  6.603937E+02 -4.532725E+04 -3.139997E-10  1.919667E-11
       280  14  4.484179E+05 -3.842274E+00  9.639854E+02 -3.292122E+04 -5.111894E-10 -6.719473E-12
       280  15  4.484462E+05  2.928330E+00  1.580913E+03 -4.532724E+04 -2.230712E-10  7.798776E-12
       280  16  4.733961E+05  6.026122E+03  5.797394E+03 -4.534455E+04 -5.281659E-10 -5.684419E-12
       280  17  4.073453E+05 -9.965460E+03 -7.791293E+03 -3.295462E+04 -2.063681E-10 -1.579059E-10
       280  18  3.413570E+05 -2.593524E+04 -2.106771E+04 -4.537684E+04  2.657853E-11 -3.030469E-11
       280  19  4.235005E+05 -6.002801E+03 -4.476609E+03 -4.530994E+04 -3.742048E+03 -1.670368E+03
       280  20  4.894920E+05  9.957674E+03  9.719197E+03 -3.288782E+04 -3.263696E+03  2.298541E+03
       280  21  5.555464E+05  2.594040E+04  2.422898E+04 -4.527765E+04 -2.785485E+03  6.266259E+03
       280  22  4.484480E+05  1.167936E+01  6.603990E+02 -4.532725E+04  2.615019E+02 -1.671376E+03
       280  23  4.484179E+05 -3.836457E+00  9.639963E+02 -3.292122E+04  7.388191E+02  2.297629E+03
       280  24  4.484463E+05  2.970890E+00  1.580990E+03 -4.532724E+04  1.215946E+03  6.265427E+03
       280  25  4.733962E+05  6.026129E+03  5.797434E+03 -4.534455E+04  4.265210E+03 -1.672385E+03
       280  26  4.073454E+05 -9.965448E+03 -7.791241E+03 -3.295461E+04  4.741074E+03  2.296716E+03
       280  27  3.413570E+05 -2.593519E+04 -2.106759E+04 -4.537682E+04  5.216698E+03  6.264595E+03
       281   1  6.067469E+05  3.839583E+04  3.596378E+04 -4.524460E+04  2.468248E+03 -8.579845E+03
       281   2  6.726984E+05  5.435079E+04  5.135102E+04 -3.279694E+04  6.841881E+02 -1.254068E+04
       281   3  7.389614E+05  7.056598E+04  6.796539E+04 -4.518953E+04 -1.098997E+03 -1.646642E+04
       281   4  4.484974E+05 -1.677634E+01  2.055320E+03 -4.533364E+04 -1.545181E+03 -8.579186E+03
       281   5  4.483416E+05 -5.664187E+01  3.527489E+03 -3.291320E+04 -3.293419E+03 -1.254052E+04
       281   6  4.484880E+05  1.581416E+02  6.202702E+03 -4.533357E+04 -5.040598E+03 -1.646673E+04
       281   7  2.902716E+05 -3.843101E+04 -3.185454E+04 -4.542264E+04 -5.557603E+03 -8.578526E+03
       281   8  2.240321E+05 -5.446734E+04 -4.429888E+04 -3.302942E+04 -7.269611E+03 -1.254035E+04
       281   9  1.580940E+05 -7.025516E+04 -5.556476E+04 -4.547753E+04 -8.980384E+03 -1.646704E+04
       281  10  6.067469E+05  3.839575E+04  3.596363E+04 -4.524459E+04  1.116137E-10  8.024316E-11
       281  11  6.726984E+05  5.435062E+04  5.135073E+04 -3.279693E+04 -3.947792E-10  2.904335E-10
       281  12  7.389613E+05  7.056568E+04  6.796487E+04 -4.518954E+04 -9.884742E-10  6.641225E-10
       281  13  4.484974E+05 -1.685603E+01  2.055177E+03 -4.533365E+04 -2.819094E-10  7.806769E-11
       281  14  4.483415E+05 -5.681369E+01  3.527173E+03 -3.291323E+04  5.177992E-11  2.469005E-10
       281  15  4.484879E+05  1.578436E+02  6.202145E+03 -4.533363E+04  4.223765E-11  7.138809E-10
       281  16  2.902715E+05 -3.843110E+04 -3.185474E+04 -4.542268E+04 -1.208859E-10  6.719450E-11
       281  17  2.240320E+05 -5.446752E+04 -4.429928E+04 -3.302949E+04 -6.951640E-10  2.240995E-10
       281  18  1.580939E+05 -7.025547E+04 -5.556542E+04 -4.547765E+04  4.782945E-10  7.884457E-10
       281  19  6.067469E+05  3.839583E+04  3.596378E+04 -4.524460E+04 -2.468248E+03  8.579845E+03
       281  20  6.726984E+05  5.435079E+04  5.135102E+04 -3.279694E+04 -6.841881E+02  1.254068E+04
       281  21  7.389614E+05  7.056598E+04  6.796539E+04 -4.518953E+04  1.098997E+03  1.646642E+04
       281  22  4.484974E+05 -1.677634E+01  2.055320E+03 -4.533364E+04  1.545181E+03  8.579186E+03
       281  23  4.483416E+05 -5.664187E+01  3.527489E+03 -3.291320E+04  3.293419E+03  1.254052E+04
       281  24  4.484880E+05  1.581416E+02  6.202702E+03 -4.533357E+04  5.040598E+03  1.646673E+04
       281  25  2.902716E+05 -3.843101E+04 -3.185454E+04 -4.542264E+04  5.557603E+03  8.578526E+03
       281  26  2.240321E+05 -5.446734E+04 -4.429888E+04 -3.302942E+04  7.269611E+03  1.254035E+04
       281  27  1.580940E+05 -7.025516E+04 -5.556476E+04 -4.547753E+04  8.980384E+03  1.646704E+04
       282   1  7.906484E+05  8.260246E+04  8.112832E+04 -4.435847E+04 -2.134862E+03 -1.883931E+04
       282   2  8.557998E+05  9.887180E+04  1.011933E+05 -3.321030E+04 -1.000541E+04 -2.257019E+04
       282   3  9.232594E+05  1.200250E+05  1.276112E+05 -4.692911E+04 -1.787541E+04 -2.549483E+04
       282   4  4.488945E+05 -3.027381E+02  8.114166E+03 -4.533938E+04 -6.303557E+03 -1.884003E+04
       282   5  4.478034E+05 -8.869020E+01  1.408232E+04 -3.290576E+04 -1.335650E+04 -2.257171E+04
       282   6  4.488757E+05  4.869528E+03  2.583903E+04 -4.533997E+04 -2.040806E+04 -2.549692E+04
       282   7  1.072505E+05 -8.321554E+04 -6.490668E+04 -4.631974E+04 -1.046999E+04 -1.884073E+04
       282   8  3.996358E+04 -9.906002E+04 -7.303824E+04 -3.260143E+04 -1.670542E+04 -2.257323E+04
       282   9 -2.529672E+04 -1.103007E+05 -7.594624E+04 -4.375207E+04 -2.293880E+04 -2.549903E+04
       282  10  7.906483E+05  8.260208E+04  8.112765E+04 -4.435850E+04  2.680564E-09  5.996725E-10
       282  11  8.557995E+05  9.887122E+04  1.011921E+05 -3.321049E+04 -7.020003E-09 -1.637229E-10
       282  12  9.232589E+05  1.200242E+05  1.276094E+05 -4.692948E+04 -1.440135E-08 -1.330055E-09
       282  13  4.488944E+05 -3.031300E+02  8.113424E+03 -4.533947E+04 -2.842248E-10  6.769089E-10
       282  14  4.478031E+05 -8.928528E+01  1.408102E+04 -3.290601E+04 -3.000939E-10 -1.648741E-10
       282  15  4.488750E+05  4.868718E+03  2.583703E+04 -4.534039E+04  1.446243E-10 -1.493749E-09
       282  16  1.072503E+05 -8.321595E+04 -6.490756E+04 -4.631989E+04 -2.977076E-09  7.866116E-10
       282  17  3.996314E+04 -9.906064E+04 -7.303972E+04 -3.260173E+04  6.981132E-09 -2.884739E-10
       282  18 -2.529746E+04 -1.103015E+05 -7.594846E+04 -4.375254E+04  1.502689E-08 -1.434917E-09
       282  19  7.906484E+05  8.260246E+04  8.112832E+04 -4.435847E+04  2.134862E+03  1.883931E+04
       282  20  8.557998E+05  9.887180E+04  1.011933E+05 -3.321030E+04  1.000541E+04  2.257019E+04
       282  21  9.232594E+05  1.200250E+05  1.276112E+05 -4.692911E+04  1.787541E+04  2.549483E+04
       282  22  4.488945E+05 -3.027381E+02  8.114166E+03 -4.533938E+04  6.303557E+03  1.884003E+04
       282  23  4.478034E+05 -8.869020E+01  1.408232E+04 -3.290576E+04  1.335650E+04  2.257171E+04
       282  24  4.488757E+05  4.869528E+03  2.583903E+04 -4.533997E+04  2.040806E+04  2.549692E+04
       282  25  1.072505E+05 -8.321554E+04 -6.490668E+04 -4.631974E+04  1.046999E+04  1.884073E+04
       282  26  3.996358E+04 -9.906002E+04 -7.303824E+04 -3.260143E+04  1.670542E+04  2.257323E+04
       282  27 -2.529672E+04 -1.103007E+05 -7.594624E+04 -4.375207E+04  2.293880E+04  2.549903E+04
       283   1  9.807150E+05  1.231110E+05  1.451176E+05 -3.079786E+04 -1.762741E+04 -2.905315E+04
       283   2  1.032382E+06  1.471001E+05  1.860448E+05 -5.175596E+04 -6.499412E+04 -2.765048E+04
       283   3  1.114273E+06  2.668540E+05  2.817458E+05 -9.693227E+04 -1.123802E+05 -8.829134E+03
       283   4  4.544306E+05 -4.551368E+03  3.271744E+04 -4.518021E+04 -2.496913E+04 -2.905695E+04
       283   5  4.408107E+05  2.982068E+03  5.641040E+04 -3.310195E+04 -5.473373E+04 -2.764916E+04
       283   6  4.543848E+05  1.032730E+05  1.226916E+05 -4.523852E+04 -8.451137E+04 -8.820257E+03
       283   7 -7.159285E+04 -1.322310E+05 -7.969840E+04 -5.955022E+04 -3.230472E+04 -2.906041E+04
       283   8 -1.504322E+05 -1.411580E+05 -7.324468E+04 -1.446593E+04 -4.448297E+04 -2.764722E+04
       283   9 -2.050979E+05 -6.032928E+04 -3.638930E+04  6.400122E+03 -5.667193E+04 -8.806746E+03
       283  10  9.807144E+05  1.231101E+05  1.451154E+05 -3.079827E+04  1.469131E-08 -1.363713E-09
       283  11  1.032377E+06  1.470982E+05  1.860355E+05 -5.175741E+04  6.789798E-09 -4.752142E-10
       283  12  1.114259E+06  2.668506E+05  2.817219E+05 -9.693307E+04 -2.349660E-09 -8.303214E-11
       283  13  4.544297E+05 -4.552442E+03  3.271468E+04 -4.518079E+04 -2.686659E-10 -1.460687E-09
       283  14  4.408073E+05  2.980443E+03  5.640334E+04 -3.310317E+04  3.795667E-10  5.505296E-11
       283  15  4.543771E+05  1.032710E+05  1.226780E+05 -4.523912E+04 -3.733572E-10 -1.789588E-11
       283  16 -7.159419E+04 -1.322322E+05 -7.970195E+04 -5.955097E+04 -1.465061E-08 -1.421760E-09
       283  17 -1.504346E+05 -1.411593E+05 -7.324984E+04 -1.446692E+04 -7.173983E-09 -2.506052E-10
       283  18 -2.051014E+05 -6.033023E+04 -3.639549E+04  6.399720E+03  2.850906E-09  2.523279E-11
       283  19  9.807150E+05  1.231110E+05  1.451176E+05 -3.079786E+04  1.762741E+04  2.905315E+04
       283  20  1.032382E+06  1.471001E+05  1.860448E+05 -5.175596E+04  6.499412E+04  2.765048E+04
       283  21  1.114273E+06  2.668540E+05  2.817458E+05 -9.693227E+04  1.123802E+05  8.829134E+03
       283  22  4.544306E+05 -4.551368E+03  3.271744E+04 -4.518021E+04  2.496913E+04  2.905695E+04
       283  23  4.408107E+05  2.982068E+03  5.641040E+04 -3.310195E+04  5.473373E+04  2.764916E+04
       283  24  4.543848E+05  1.032730E+05  1.226916E+05 -4.523852E+04  8.451137E+04  8.820257E+03
       283  25 -7.159285E+04 -1.322310E+05 -7.969840E+04 -5.955022E+04  3.230472E+04  2.906041E+04
       283  26 -1.504322E+05 -1.411580E+05 -7.324468E+04 -1.446593E+04  4.448297E+04  2.764722E+04
       283  27 -2.050979E+05 -6.032928E+04 -3.638930E+04  6.400122E+03  5.667193E+04  8.806746E+03
       284   1  1.848950E+05  1.052602E+06  1.931208E+05 -1.295789E+05  5.384431E+03  6.782496E+04
       284   2  8.786290E+04  9.007935E+05  1.109024E+05 -8.336112E+04  1.523365E+04  3.624230E+04
       284   3  4.859262E+04  7.674100E+05  6.363787E+04 -8.996224E+04  1.111902E+04  4.649310E+03
       284   4  6.178037E+04  5.572114E+05  7.296379E+04 -9.815014E+04  5.410618E+03  5.086054E+04
       284   5  2.015246E+03  5.492465E+05  3.311308E+04 -7.178535E+04  1.523897E+04  3.338348E+04
       284   6 -2.413986E+03  5.572585E+05  1.844767E+04 -9.823674E+04  1.110193E+04  1.588868E+04
       284   7 -6.134845E+04  6.204771E+04 -4.720933E+04 -6.674639E+04  5.435102E+03  3.390957E+04
       284   8 -8.384023E+04  1.978150E+05 -4.468380E+04 -6.021616E+04  1.524418E+04  3.052626E+04
       284   9 -5.342316E+04  3.471489E+05 -2.674461E+04 -1.065084E+05  1.108454E+04  2.712430E+04
       284  10  1.848937E+05  1.052597E+06  1.931121E+05 -1.295792E+05 -1.524798E-10 -2.915037E-10
       284  11  8.786229E+04  9.007920E+05  1.108995E+05 -8.336156E+04 -3.733204E-10  9.228983E-11
       284  12  4.859249E+04  7.674099E+05  6.363760E+04 -8.996229E+04  7.082087E-10  3.277225E-10
       284  13  6.177965E+04  5.572086E+05  7.295888E+04 -9.815037E+04  4.971811E-10 -6.400612E-11
       284  14  2.014698E+03  5.492452E+05  3.311055E+04 -7.178576E+04 -1.767947E-09  1.759717E-10
       284  15 -2.414186E+03  5.572582E+05  1.844696E+04 -9.823688E+04  1.017426E-10 -3.929764E-11
       284  16 -6.134879E+04  6.204647E+04 -4.721154E+04 -6.674654E+04 -1.617125E-10  3.568549E-10
       284  17 -8.384073E+04  1.978139E+05 -4.468599E+04 -6.021654E+04 -5.900073E-10 -2.769040E-11
       284  18 -5.342349E+04  3.471480E+05 -2.674622E+04 -1.065086E+05 -5.083385E-13 -4.036114E-10
       284  19  1.848950E+05  1.052602E+06  1.931208E+05 -1.295789E+05 -5.384431E+03 -6.782496E+04
       284  20  8.786290E+04  9.007935E+05  1.109024E+05 -8.336112E+04 -1.523365E+04 -3.624230E+04
       284  21  4.859262E+04  7.674100E+05  6.363787E+04 -8.996224E+04 -1.111902E+04 -4.649310E+03
       284  22  6.178037E+04  5.572114E+05  7.296379E+04 -9.815014E+04 -5.410618E+03 -5.086054E+04
       284  23  2.015246E+03  5.492465E+05  3.311308E+04 -7.178535E+04 -1.523897E+04 -3.338348E+04
       284  24 -2.413986E+03  5.572585E+05  1.844767E+04 -9.823674E+04 -1.110193E+04 -1.588868E+04
       284  25 -6.134845E+04  6.204771E+04 -4.720933E+04 -6.674639E+04 -5.435102E+03 -3.390957E+04
       284  26 -8.384023E+04  1.978150E+05 -4.468380E+04 -6.021616E+04 -1.524418E+04 -3.052626E+04
       284  27 -5.342316E+04  3.471489E+05 -2.674461E+04 -1.065084E+05 -1.108454E+04 -2.712430E+04
       285   1  2.745614E+04  6.533292E+05  3.547911E+04 -9.928664E+04  5.090460E+03  5.791413E+03
       285   2 -1.022455E+04  5.105681E+05 -3.317598E+03 -7.184982E+04 -2.375145E+03  2.948511E+03
       285   3 -4.577890E+04  3.685433E+05 -3.978036E+04 -9.784998E+04 -9.740072E+03  1.067859E+02
       285   4  3.275801E+03  5.538763E+05  1.397916E+04 -9.835130E+04  5.078638E+03  1.337690E+04
       285   5  1.919425E+02  5.535078E+05  5.855177E+03 -7.163608E+04 -2.386605E+03  1.043258E+04
       285   6 -7.463321E+02  5.538752E+05  1.375884E+02 -9.835747E+04 -9.751235E+03  7.488809E+03
       285   7 -2.090515E+04  4.544328E+05 -7.521165E+03 -9.741610E+04  5.066837E+03  2.096119E+04
       285   8  1.060834E+04  5.964493E+05  1.502806E+04 -7.142233E+04 -2.398059E+03  1.791716E+04
       285   9  4.428400E+04  7.392394E+05  4.005372E+04 -9.886511E+04 -9.762409E+03  1.487300E+04
       285  10  2.745610E+04  6.533291E+05  3.547900E+04 -9.928667E+04  3.520777E-10 -7.024159E-10
       285  11 -1.022456E+04  5.105681E+05 -3.317625E+03 -7.184981E+04  3.869507E-10 -3.339094E-10
       285  12 -4.577900E+04  3.685433E+05 -3.978053E+04 -9.784997E+04 -6.382572E-10  2.695048E-11
       285  13  3.275725E+03  5.538761E+05  1.397877E+04 -9.835135E+04  3.015840E-10 -9.236412E-11
       285  14  1.919072E+02  5.535077E+05  5.854961E+03 -7.163606E+04  1.180907E-09 -1.914133E-10
       285  15 -7.464492E+02  5.538751E+05  1.373044E+02 -9.835741E+04  8.778294E-10 -1.363979E-10
       285  16 -2.090530E+04  4.544323E+05 -7.522039E+03 -9.741619E+04  4.405080E-11  6.835093E-10
       285  17  1.060825E+04  5.964490E+05  1.502744E+04 -7.142230E+04 -7.496781E-10  3.252259E-10
       285  18  4.428384E+04  7.392392E+05  4.005312E+04 -9.886499E+04 -5.508854E-10 -2.029319E-11
       285  19  2.745614E+04  6.533292E+05  3.547911E+04 -9.928664E+04 -5.090460E+03 -5.791413E+03
       285  20 -1.022455E+04  5.105681E+05 -3.317598E+03 -7.184982E+04  2.375145E+03 -2.948511E+03
       285  21 -4.577890E+04  3.685433E+05 -3.978036E+04 -9.784998E+04  9.740072E+03 -1.067859E+02
       285  22  3.275801E+03  5.538763E+05  1.397916E+04 -9.835130E+04 -5.078638E+03 -1.337690E+04
       285  23  1.919425E+02  5.535078E+05  5.855177E+03 -7.163608E+04  2.386605E+03 -1.043258E+04
       285  24 -7.463321E+02  5.538752E+05  1.375884E+02 -9.835747E+04  9.751235E+03 -7.488809E+03
       285  25 -2.090515E+04  4.544328E+05 -7.521165E+03 -9.741610E+04 -5.066837E+03 -2.096119E+04
       285  26  1.060834E+04  5.964493E+05  1.502806E+04 -7.142233E+04  2.398059E+03 -1.791716E+04
       285  27  4.428400E+04  7.392394E+05  4.005372E+04 -9.886511E+04  9.762409E+03 -1.487300E+04
       286   1 -7.075006E+04  2.566324E+05 -6.580510E+04 -9.530634E+04 -1.591095E+04 -4.107843E+03
       286   2 -1.071430E+05  1.176580E+05 -1.047837E+05 -7.456383E+04 -1.942749E+04  1.658458E+04
       286   3 -1.621587E+05 -2.874855E+04 -1.619123E+05 -1.066109E+05 -6.772726E+03  3.729045E+04
       286   4  1.148301E+03  5.526728E+05 -2.271210E+03 -9.820590E+04 -1.592786E+04  7.562298E+03
       286   5 -4.116230E+02  5.549665E+05 -8.231746E+03 -7.182361E+04 -1.942018E+04  1.195513E+04
       286   6 -1.775736E+04  5.526411E+05 -2.102235E+04 -9.823013E+04 -6.745933E+03  1.636663E+04
       286   7  7.304102E+04  8.487959E+05  6.125809E+04 -1.011068E+05 -1.594487E+04  1.923792E+04
       286   8  1.063070E+05  9.924536E+05  8.830850E+04 -6.908136E+04 -1.941292E+04  7.322463E+03
       286   9  1.266197E+05  1.134341E+06  1.198450E+05 -8.984133E+04 -6.719719E+03 -4.576728E+03
       286  10 -7.075034E+04  2.566323E+05 -6.580561E+04 -9.530639E+04 -8.560416E-12  1.808442E-10
       286  11 -1.071435E+05  1.176576E+05 -1.047849E+05 -7.456357E+04  2.203930E-10  9.484962E-11
       286  12 -1.621591E+05 -2.875006E+04 -1.619150E+05 -1.066107E+05 -2.334806E-10 -6.855756E-12
       286  13  1.148013E+03  5.526727E+05 -2.271794E+03 -9.820580E+04 -1.163348E-09  7.465325E-11
       286  14 -4.120664E+02  5.549662E+05 -8.232723E+03 -7.182342E+04  6.395448E-10 -1.003176E-10
       286  15 -1.775748E+04  5.526408E+05 -2.102294E+04 -9.823004E+04 -2.670802E-10  2.494854E-11
       286  16  7.304065E+04  8.487954E+05  6.125691E+04 -1.011066E+05  2.767497E-10 -2.713405E-10
       286  17  1.063066E+05  9.924534E+05  8.830769E+04 -6.908125E+04  2.045052E-10 -2.298664E-10
       286  18  1.266196E+05  1.134340E+06  1.198449E+05 -8.984135E+04 -3.637090E-10  1.009819E-10
       286  19 -7.075006E+04  2.566324E+05 -6.580510E+04 -9.530634E+04  1.591095E+04  4.107843E+03
       286  20 -1.071430E+05  1.176580E+05 -1.047837E+05 -7.456383E+04  1.942749E+04 -1.658458E+04
       286  21 -1.621587E+05 -2.874855E+04 -1.619123E+05 -1.066109E+05  6.772726E+03 -3.729045E+04
       286  22  1.148301E+03  5.526728E+05 -2.271210E+03 -9.820590E+04  1.592786E+04 -7.562298E+03
       286  23 -4.116230E+02  5.549665E+05 -8.231746E+03 -7.182361E+04  1.942018E+04 -1.195513E+04
       286  24 -1.775736E+04  5.526411E+05 -2.102235E+04 -9.823013E+04  6.745933E+03 -1.636663E+04
       286  25  7.304102E+04  8.487959E+05  6.125809E+04 -1.011068E+05  1.594487E+04 -1.923792E+04
       286  26  1.063070E+05  9.924536E+05  8.830850E+04 -6.908136E+04  1.941292E+04 -7.322463E+03
       286  27  1.266197E+05  1.134341E+06  1.198450E+05 -8.984133E+04  6.719719E+03  4.576728E+03
       287   1 -8.727499E+05 -4.029688E+05 -2.713891E+05 -3.168679E+05 -1.159647E+05 -3.570855E+04
       287   2 -8.372970E+05 -2.494229E+05 -1.693411E+05 -3.082599E+05 -7.493175E+04 -3.074650E+03
       287   3 -8.386185E+05 -2.124816E+05 -1.313052E+05 -2.837405E+05 -2.880039E+04  1.602230E+04
       287   4 -4.368473E+05 -1.852416E+05 -1.452317E+05 -1.427929E+05 -9.541875E+04 -2.799217E+04
       287   5 -4.117856E+05 -7.210374E+04 -6.349168E+04 -1.718398E+05 -6.712830E+04 -1.444650E+02
       287   6 -4.209429E+05 -7.300449E+04 -3.562992E+04 -1.849854E+05 -3.374302E+04  1.416390E+04
       287   7 -7.553644E+02  3.254274E+04 -1.909155E+04  3.140563E+04 -7.485718E+04 -2.026543E+04
       287   8  1.390591E+04  1.052409E+05  4.234362E+04 -3.533016E+04 -5.931904E+04  2.788506E+03
       287   9 -3.092225E+03  6.647782E+04  6.003446E+04 -8.617291E+04 -3.868929E+04  1.230445E+04
       287  10 -8.727647E+05 -4.029738E+05 -2.714168E+05 -3.168712E+05  1.771436E-10 -3.300125E-11
       287  11 -8.373031E+05 -2.494244E+05 -1.693517E+05 -3.082601E+05 -1.791936E-10 -2.632191E-10
       287  12 -8.386194E+05 -2.124821E+05 -1.313073E+05 -2.837401E+05 -7.354926E-11 -4.001744E-10
       287  13 -4.368573E+05 -1.852449E+05 -1.452503E+05 -1.427951E+05 -2.538038E-10 -5.449769E-11
       287  14 -4.117904E+05 -7.210495E+04 -6.350016E+04 -1.718398E+05 -3.402248E-10 -1.841855E-10
       287  15 -4.209441E+05 -7.300501E+04 -3.563244E+04 -1.849850E+05 -1.088368E-10 -6.534912E-11
       287  16 -7.614921E+02  3.254080E+04 -1.910286E+04  3.140441E+04 -1.268886E-10 -1.066021E-10
       287  17  1.390213E+04  1.052399E+05  4.233700E+04 -3.533003E+04 -4.212948E-10 -4.706058E-11
       287  18 -3.093873E+03  6.647726E+04  6.003136E+04 -8.617253E+04 -4.699023E-10  2.789364E-10
       287  19 -8.727499E+05 -4.029688E+05 -2.713891E+05 -3.168679E+05  1.159647E+05  3.570855E+04
       287  20 -8.372970E+05 -2.494229E+05 -1.693411E+05 -3.082599E+05  7.493175E+04  3.074650E+03
       287  21 -8.386185E+05 -2.124816E+05 -1.313052E+05 -2.837405E+05  2.880039E+04 -1.602230E+04
       287  22 -4.368473E+05 -1.852416E+05 -1.452317E+05 -1.427929E+05  9.541875E+04  2.799217E+04
       287  23 -4.117856E+05 -7.210374E+04 -6.349168E+04 -1.718398E+05  6.712830E+04  1.444650E+02
       287  24 -4.209429E+05 -7.300449E+04 -3.562992E+04 -1.849854E+05  3.374302E+04 -1.416390E+04
       287  25 -7.553644E+02  3.254274E+04 -1.909155E+04  3.140563E+04  7.485718E+04  2.026543E+04
       287  26  1.390591E+04  1.052409E+05  4.234362E+04 -3.533016E+04  5.931904E+04 -2.788506E+03
       287  27 -3.092225E+03  6.647782E+04  6.003446E+04 -8.617291E+04  3.868929E+04 -1.230445E+04
       288   1 -7.933987E+05 -2.250934E+05 -1.177664E+05 -2.846409E+05 -2.737463E+04  1.384271E+04
       288   2 -7.632503E+05 -2.002338E+05 -9.572344E+04 -2.699268E+05 -1.891636E+04  1.545090E+04
       288   3 -7.263149E+05 -1.913250E+05 -8.118015E+04 -2.654059E+05 -1.022769E+04  1.644466E+04
       288   4 -4.162938E+05 -8.294366E+04 -2.807617E+04 -1.788413E+05 -2.839066E+04  1.345965E+04
       288   5 -4.193214E+05 -7.205824E+04 -1.454516E+04 -1.748572E+05 -2.050719E+04  1.485233E+04
       288   6 -4.154471E+05 -7.700728E+04 -8.054524E+03 -1.810670E+05 -1.239382E+04  1.563054E+04
       288   7 -3.904939E+04  5.921661E+04  6.160331E+04 -7.298322E+04 -2.940735E+04  1.307634E+04
       288   8 -7.527469E+04  5.612607E+04  6.662479E+04 -7.973962E+04 -2.209899E+04  1.425340E+04
       288   9 -1.044813E+05  3.731757E+04  6.506480E+04 -9.668939E+04 -1.456115E+04  1.481599E+04
       288  10 -7.933995E+05 -2.250938E+05 -1.177682E+05 -2.846406E+05  2.471325E-10 -2.705773E-10
       288  11 -7.632507E+05 -2.002341E+05 -9.572456E+04 -2.699265E+05 -4.225627E-09 -1.202965E-09
       288  12 -7.263151E+05 -1.913253E+05 -8.118085E+04 -2.654057E+05 -3.122418E-09 -6.207584E-10
       288  13 -4.162947E+05 -8.294407E+04 -2.807803E+04 -1.788410E+05 -1.959374E-09 -4.937912E-10
       288  14 -4.193219E+05 -7.205858E+04 -1.454636E+04 -1.748570E+05 -3.977193E-09 -1.228377E-09
       288  15 -4.154473E+05 -7.700758E+04 -8.055272E+03 -1.810669E+05 -1.524379E-09 -3.127838E-10
       288  16 -3.905036E+04  5.921620E+04  6.160137E+04 -7.298291E+04 -2.910833E-09 -7.608335E-10
       288  17 -7.527527E+04  5.612572E+04  6.662349E+04 -7.973936E+04 -3.490728E-09 -1.300584E-09
       288  18 -1.044816E+05  3.731727E+04  6.506399E+04 -9.668922E+04  3.449768E-10 -2.140599E-10
       288  19 -7.933987E+05 -2.250934E+05 -1.177664E+05 -2.846409E+05  2.737463E+04 -1.384271E+04
       288  20 -7.632503E+05 -2.002338E+05 -9.572344E+04 -2.699268E+05  1.891636E+04 -1.545090E+04
       288  21 -7.263149E+05 -1.913250E+05 -8.118015E+04 -2.654059E+05  1.022769E+04 -1.644466E+04
       288  22 -4.162938E+05 -8.294366E+04 -2.807617E+04 -1.788413E+05  2.839066E+04 -1.345965E+04
       288  23 -4.193214E+05 -7.205824E+04 -1.454516E+04 -1.748572E+05  2.050719E+04 -1.485233E+04
       288  24 -4.154471E+05 -7.700728E+04 -8.054524E+03 -1.810670E+05  1.239382E+04 -1.563054E+04
       288  25 -3.904939E+04  5.921661E+04  6.160331E+04 -7.298322E+04  2.940735E+04 -1.307634E+04
       288  26 -7.527469E+04  5.612607E+04  6.662479E+04 -7.973962E+04  2.209899E+04 -1.425340E+04
       288  27 -1.044813E+05  3.731757E+04  6.506480E+04 -9.668939E+04  1.456115E+04 -1.481599E+04
       289   1 -6.976254E+05 -1.822684E+05 -7.253843E+04 -2.582843E+05 -8.774489E+03  1.549856E+04
       289   2 -6.680099E+05 -1.641296E+05 -6.173718E+04 -2.430883E+05 -6.278697E+03  1.400711E+04
       289   3 -6.286555E+05 -1.563939E+05 -5.227893E+04 -2.393853E+05 -3.771832E+03  1.248411E+04
       289   4 -4.150541E+05 -7.751949E+04 -6.111886E+03 -1.807076E+05 -1.076788E+04  1.474957E+04
       289   5 -4.199027E+05 -7.217775E+04 -3.337588E+03 -1.750136E+05 -8.300998E+03  1.324762E+04
       289   6 -4.150077E+05 -7.723281E+04 -1.882830E+03 -1.808126E+05 -5.823158E+03  1.171410E+04
       289   7 -1.324034E+05  2.723516E+04  6.030906E+04 -1.030988E+05 -1.276225E+04  1.400020E+04
       289   8 -1.717349E+05  1.977827E+04  5.505750E+04 -1.069144E+05 -1.032417E+04  1.248780E+04
       289   9 -2.013157E+05  1.931095E+03  4.850974E+04 -1.222218E+05 -7.875241E+03  1.094380E+04
       289  10 -6.976255E+05 -1.822687E+05 -7.253902E+04 -2.582842E+05 -4.594038E-10  4.504400E-10
       289  11 -6.680100E+05 -1.641299E+05 -6.173762E+04 -2.430883E+05 -1.471860E-10 -1.031934E-10
       289  12 -6.286555E+05 -1.563941E+05 -5.227925E+04 -2.393852E+05 -2.453755E-10 -1.837777E-10
       289  13 -4.150543E+05 -7.751975E+04 -6.112513E+03 -1.807075E+05  7.831053E-11  9.342558E-11
       289  14 -4.199028E+05 -7.217795E+04 -3.338047E+03 -1.750136E+05 -1.001350E-10 -3.395929E-11
       289  15 -4.150078E+05 -7.723296E+04 -1.883151E+03 -1.808125E+05 -5.307745E-11 -4.506492E-11
       289  16 -1.324036E+05  2.723491E+04  6.030838E+04 -1.030986E+05  6.060984E-10 -3.031864E-10
       289  17 -1.717350E+05  1.977807E+04  5.505700E+04 -1.069143E+05 -6.380503E-11 -1.616851E-11
       289  18 -2.013158E+05  1.930949E+03  4.850940E+04 -1.222217E+05  8.599894E-11  1.341645E-10
       289  19 -6.976254E+05 -1.822684E+05 -7.253843E+04 -2.582843E+05  8.774489E+03 -1.549856E+04
       289  20 -6.680099E+05 -1.641296E+05 -6.173718E+04 -2.430883E+05  6.278697E+03 -1.400711E+04
       289  21 -6.286555E+05 -1.563939E+05 -5.227893E+04 -2.393853E+05  3.771832E+03 -1.248411E+04
       289  22 -4.150541E+05 -7.751949E+04 -6.111886E+03 -1.807076E+05  1.076788E+04 -1.474957E+04
       289  23 -4.199027E+05 -7.217775E+04 -3.337588E+03 -1.750136E+05  8.300998E+03 -1.324762E+04
       289  24 -4.150077E+05 -7.723281E+04 -1.882830E+03 -1.808126E+05  5.823158E+03 -1.171410E+04
       289  25 -1.324034E+05  2.723516E+04  6.030906E+04 -1.030988E+05  1.276225E+04 -1.400020E+04
       289  26 -1.717349E+05  1.977827E+04  5.505750E+04 -1.069144E+05  1.032417E+04 -1.248780E+04
       289  27 -2.013157E+05  1.931095E+03  4.850974E+04 -1.222218E+05  7.875241E+03 -1.094380E+04
       290   1 -6.008301E+05 -1.461320E+05 -4.508237E+04 -2.318120E+05 -3.026538E+03  1.132005E+04
       290   2 -5.712064E+05 -1.282513E+05 -3.650095E+04 -2.165203E+05 -1.757514E+03  9.319054E+03
       290   3 -5.315432E+05 -1.204919E+05 -2.826006E+04 -2.128035E+05 -4.876128E+02  7.314402E+03
       290   4 -4.149527E+05 -7.725993E+04 -1.451650E+03 -1.807968E+05 -5.072728E+03  1.055215E+04
       290   5 -4.199688E+05 -7.219166E+04 -9.055720E+02 -1.750113E+05 -3.807012E+03  8.550129E+03
       290   6 -4.149468E+05 -7.724424E+04 -6.975532E+02 -1.808011E+05 -2.540451E+03  6.544448E+03
       290   7 -2.290397E+05 -8.384992E+03  4.217696E+04 -1.297674E+05 -7.119595E+03  9.784002E+03
       290   8 -2.687079E+05 -1.613024E+04  3.468834E+04 -1.334929E+05 -5.857059E+03  7.780999E+03
       290   9 -2.983368E+05 -3.399560E+04  2.686401E+04 -1.487931E+05 -4.593708E+03  5.774338E+03
       290  10 -6.008302E+05 -1.461321E+05 -4.508263E+04 -2.318119E+05 -1.772223E-10 -1.467971E-10
       290  11 -5.712065E+05 -1.282514E+05 -3.650112E+04 -2.165203E+05 -2.582657E-10 -2.085680E-10
       290  12 -5.315432E+05 -1.204920E+05 -2.826016E+04 -2.128035E+05 -1.724417E-10 -9.794242E-11
       290  13 -4.149527E+05 -7.726005E+04 -1.451908E+03 -1.807968E+05  8.852392E-11 -1.853505E-11
       290  14 -4.199688E+05 -7.219175E+04 -9.057366E+02 -1.750112E+05  2.061763E-10 -6.657449E-11
       290  15 -4.149468E+05 -7.724429E+04 -6.976458E+02 -1.808011E+05 -2.406227E-11 -2.454073E-10
       290  16 -2.290398E+05 -8.385109E+03  4.217669E+04 -1.297674E+05  1.842476E-10  4.824024E-11
       290  17 -2.687080E+05 -1.613031E+04  3.468816E+04 -1.334929E+05 -4.120432E-12  9.356842E-11
       290  18 -2.983369E+05 -3.399564E+04  2.686391E+04 -1.487931E+05 -2.704466E-11 -1.817712E-10
       290  19 -6.008301E+05 -1.461320E+05 -4.508237E+04 -2.318120E+05  3.026538E+03 -1.132005E+04
       290  20 -5.712064E+05 -1.282513E+05 -3.650095E+04 -2.165203E+05  1.757514E+03 -9.319054E+03
       290  21 -5.315432E+05 -1.204919E+05 -2.826006E+04 -2.128035E+05  4.876128E+02 -7.314402E+03
       290  22 -4.149527E+05 -7.725993E+04 -1.451650E+03 -1.807968E+05  5.072728E+03 -1.055215E+04
       290  23 -4.199688E+05 -7.219166E+04 -9.055720E+02 -1.750113E+05  3.807012E+03 -8.550129E+03
       290  24 -4.149468E+05 -7.724424E+04 -6.975532E+02 -1.808011E+05  2.540451E+03 -6.544448E+03
       290  25 -2.290397E+05 -8.384992E+03  4.217696E+04 -1.297674E+05  7.119595E+03 -9.784002E+03
       290  26 -2.687079E+05 -1.613024E+04  3.468834E+04 -1.334929E+05  5.857059E+03 -7.780999E+03
       290  27 -2.983368E+05 -3.399560E+04  2.686401E+04 -1.487931E+05  4.593708E+03 -5.774338E+03
       291   1 -5.037143E+05 -1.101452E+05 -2.146681E+04 -2.051928E+05  1.045768E+02  6.090870E+03
       291   2 -4.740153E+05 -9.223979E+04 -1.358849E+04 -1.898685E+05  1.351973E+03  4.074174E+03
       291   3 -4.342630E+05 -8.447465E+04 -6.035022E+03 -1.861469E+05  2.599274E+03  2.057232E+03
       291   4 -4.149422E+05 -7.724848E+04 -6.908639E+02 -1.808067E+05 -1.949659E+03  5.320489E+03
       291   5 -4.199679E+05 -7.217843E+04 -8.639895E+02 -1.750048E+05 -7.024858E+02  3.303790E+03
       291   6 -4.149413E+05 -7.724873E+04 -1.361770E+03 -1.808062E+05  5.445683E+02  1.286836E+03
       291   7 -3.261628E+05 -4.435132E+04  2.008442E+04 -1.564175E+05 -4.004202E+03  4.549993E+03
       291   8 -3.659175E+05 -5.211685E+04  1.186032E+04 -1.601400E+05 -2.757139E+03  2.533333E+03
       291   9 -3.956192E+05 -7.002273E+04  3.311502E+03 -1.754653E+05 -1.510218E+03  5.164085E+02
       291  10 -5.037143E+05 -1.101453E+05 -2.146688E+04 -2.051928E+05  2.460117E-10 -5.300457E-11
       291  11 -4.740153E+05 -9.223981E+04 -1.358852E+04 -1.898685E+05 -1.632594E-11 -4.419728E-11
       291  12 -4.342630E+05 -8.447465E+04 -6.035043E+03 -1.861469E+05 -1.094978E-10 -1.816150E-10
       291  13 -4.149423E+05 -7.724851E+04 -6.909242E+02 -1.808067E+05 -2.176000E-10 -1.967924E-10
       291  14 -4.199679E+05 -7.217844E+04 -8.640110E+02 -1.750048E+05 -1.835072E-10 -1.315908E-10
       291  15 -4.149413E+05 -7.724873E+04 -1.361773E+03 -1.808062E+05 -1.965174E-10 -7.925944E-12
       291  16 -3.261628E+05 -4.435135E+04  2.008435E+04 -1.564175E+05  1.472367E-10 -2.956931E-10
       291  17 -3.659175E+05 -5.211686E+04  1.186029E+04 -1.601400E+05 -2.453683E-10 -1.439546E-10
       291  18 -3.956192E+05 -7.002273E+04  3.311498E+03 -1.754653E+05 -1.590030E-10  2.999909E-10
       291  19 -5.037143E+05 -1.101452E+05 -2.146681E+04 -2.051928E+05 -1.045768E+02 -6.090870E+03
       291  20 -4.740153E+05 -9.223979E+04 -1.358849E+04 -1.898685E+05 -1.351973E+03 -4.074174E+03
       291  21 -4.342630E+05 -8.447465E+04 -6.035022E+03 -1.861469E+05 -2.599274E+03 -2.057232E+03
       291  22 -4.149422E+05 -7.724848E+04 -6.908639E+02 -1.808067E+05  1.949659E+03 -5.320489E+03
       291  23 -4.199679E+05 -7.217843E+04 -8.639895E+02 -1.750048E+05  7.024858E+02 -3.303790E+03
       291  24 -4.149413E+05 -7.724873E+04 -1.361770E+03 -1.808062E+05 -5.445683E+02 -1.286836E+03
       291  25 -3.261628E+05 -4.435132E+04  2.008442E+04 -1.564175E+05  4.004202E+03 -4.549993E+03
       291  26 -3.659175E+05 -5.211685E+04  1.186032E+04 -1.601400E+05  2.757139E+03 -2.533333E+03
       291  27 -3.956192E+05 -7.002273E+04  3.311502E+03 -1.754653E+05  1.510218E+03 -5.164085E+02
       292   1 -4.064141E+05 -7.413025E+04  3.590949E+02 -1.785871E+05  3.338326E+03  8.858742E+02
       292   2 -3.766221E+05 -5.618043E+04  7.068355E+03 -1.632023E+05  5.690301E+03 -7.129255E+02
       292   3 -3.370270E+05 -4.866789E+04  1.255453E+04 -1.594001E+05  8.036233E+03 -2.295100E+03
       292   4 -4.149858E+05 -7.723237E+04 -1.760908E+03 -1.808328E+05  1.278878E+03  1.137024E+02
       292   5 -4.199038E+05 -7.213845E+04 -3.105438E+03 -1.749942E+05  3.646340E+03 -1.479355E+03
       292   6 -4.150229E+05 -7.748499E+04 -5.685357E+03 -1.807388E+05  6.007661E+03 -3.055814E+03
       292   7 -4.235573E+05 -8.033448E+04 -3.880897E+03 -1.830785E+05 -7.805390E+02 -6.584585E+02
       292   8 -4.631835E+05 -8.809630E+04 -1.327931E+04 -1.867854E+05  1.602540E+03 -2.245724E+03
       292   9 -4.930122E+05 -1.063015E+05 -2.392552E+04 -2.020750E+05  3.979377E+03 -3.816421E+03
       292  10 -4.064141E+05 -7.413025E+04  3.590725E+02 -1.785871E+05 -4.231852E-11 -6.449695E-11
       292  11 -3.766222E+05 -5.618044E+04  7.068294E+03 -1.632023E+05 -3.647474E-09 -1.138365E-09
       292  12 -3.370271E+05 -4.866791E+04  1.255440E+04 -1.594001E+05 -3.216713E-09 -7.328774E-10
       292  13 -4.149858E+05 -7.723237E+04 -1.760911E+03 -1.808328E+05 -1.584251E-09 -4.917923E-10
       292  14 -4.199038E+05 -7.213846E+04 -3.105467E+03 -1.749942E+05 -3.502187E-09 -1.030743E-09
       292  15 -4.150229E+05 -7.748501E+04 -5.685442E+03 -1.807388E+05 -1.512209E-09 -5.224939E-10
       292  16 -4.235573E+05 -8.033448E+04 -3.880899E+03 -1.830785E+05 -2.930681E-09 -6.618381E-10
       292  17 -4.631835E+05 -8.809630E+04 -1.327933E+04 -1.867854E+05 -3.590057E-09 -1.246816E-09
       292  18 -4.930122E+05 -1.063015E+05 -2.392558E+04 -2.020749E+05  3.592344E-10 -2.891870E-10
       292  19 -4.064141E+05 -7.413025E+04  3.590949E+02 -1.785871E+05 -3.338326E+03 -8.858742E+02
       292  20 -3.766221E+05 -5.618043E+04  7.068355E+03 -1.632023E+05 -5.690301E+03  7.129255E+02
       292  21 -3.370270E+05 -4.866789E+04  1.255453E+04 -1.594001E+05 -8.036233E+03  2.295100E+03
       292  22 -4.149858E+05 -7.723237E+04 -1.760908E+03 -1.808328E+05 -1.278878E+03 -1.137024E+02
       292  23 -4.199038E+05 -7.213845E+04 -3.105438E+03 -1.749942E+05 -3.646340E+03  1.479355E+03
       292  24 -4.150229E+05 -7.748499E+04 -5.685357E+03 -1.807388E+05 -6.007661E+03  3.055814E+03
       292  25 -4.235573E+05 -8.033448E+04 -3.880897E+03 -1.830785E+05  7.805390E+02  6.584585E+02
       292  26 -4.631835E+05 -8.809630E+04 -1.327931E+04 -1.867854E+05 -1.602540E+03  2.245724E+03
       292  27 -4.930122E+05 -1.063015E+05 -2.392552E+04 -2.020750E+05 -3.979377E+03  3.816421E+03
       293   1 -3.088787E+05 -3.850320E+04  1.751834E+04 -1.528738E+05  9.681219E+03 -3.157838E+03
       293   2 -2.792899E+05 -1.960244E+04  1.958502E+04 -1.359021E+05  1.697307E+04 -2.794351E+03
       293   3 -2.424477E+05 -1.617378E+04  1.536379E+04 -1.293622E+05  2.413129E+04 -2.072127E+03
       293   4 -4.153795E+05 -7.701732E+04 -7.491759E+03 -1.810840E+05  7.550264E+03 -3.957015E+03
       293   5 -4.193619E+05 -7.200157E+04 -1.352033E+04 -1.748357E+05  1.517869E+04 -3.467538E+03
       293   6 -4.161603E+05 -8.252632E+04 -2.610506E+04 -1.790203E+05  2.267309E+04 -2.619458E+03
       293   7 -5.218697E+05 -1.155310E+05 -3.250280E+04 -2.092901E+05  5.419694E+03 -4.756057E+03
       293   8 -5.594149E+05 -1.243994E+05 -4.662718E+04 -2.137615E+05  1.338474E+04 -4.140559E+03
       293   9 -5.898429E+05 -1.488762E+05 -6.757608E+04 -2.286656E+05  2.121532E+04 -3.166612E+03
       293  10 -3.088788E+05 -3.850324E+04  1.751815E+04 -1.528738E+05 -5.636326E-10  1.731307E-10
       293  11 -2.792902E+05 -1.960253E+04  1.958447E+04 -1.359020E+05 -1.165238E-11 -9.894729E-11
       293  12 -2.424483E+05 -1.617394E+04  1.536269E+04 -1.293621E+05 -1.009266E-10 -2.582380E-10
       293  13 -4.153796E+05 -7.701736E+04 -7.491895E+03 -1.810840E+05 -1.880069E-11 -5.710062E-11
       293  14 -4.193622E+05 -7.200165E+04 -1.352079E+04 -1.748357E+05 -2.228115E-10 -5.963086E-11
       293  15 -4.161608E+05 -8.252647E+04 -2.610604E+04 -1.790203E+05  1.598105E-10 -7.432899E-11
       293  16 -5.218697E+05 -1.155310E+05 -3.250289E+04 -2.092900E+05  4.736178E-10 -3.146920E-10
       293  17 -5.594151E+05 -1.243994E+05 -4.662755E+04 -2.137614E+05 -1.379870E-10 -1.074955E-10
       293  18 -5.898433E+05 -1.488764E+05 -6.757695E+04 -2.286656E+05  1.845912E-10  7.791045E-11
       293  19 -3.088787E+05 -3.850320E+04  1.751834E+04 -1.528738E+05 -9.681219E+03  3.157838E+03
       293  20 -2.792899E+05 -1.960244E+04  1.958502E+04 -1.359021E+05 -1.697307E+04  2.794351E+03
       293  21 -2.424477E+05 -1.617378E+04  1.536379E+04 -1.293622E+05 -2.413129E+04  2.072127E+03
       293  22 -4.153795E+05 -7.701732E+04 -7.491759E+03 -1.810840E+05 -7.550264E+03  3.957015E+03
       293  23 -4.193619E+05 -7.200157E+04 -1.352033E+04 -1.748357E+05 -1.517869E+04  3.467538E+03
       293  24 -4.161603E+05 -8.252632E+04 -2.610506E+04 -1.790203E+05 -2.267309E+04  2.619458E+03
       293  25 -5.218697E+05 -1.155310E+05 -3.250280E+04 -2.092901E+05 -5.419694E+03  4.756057E+03
       293  26 -5.594149E+05 -1.243994E+05 -4.662718E+04 -2.137615E+05 -1.338474E+04  4.140559E+03
       293  27 -5.898429E+05 -1.488762E+05 -6.757608E+04 -2.286656E+05 -2.121532E+04  3.166612E+03
       294   1 -2.068215E+05 -8.610054E+03  1.469911E+04 -1.411324E+05  3.130317E+04 -1.580773E+03
       294   2 -1.881744E+05  2.891767E+04 -1.853513E+03 -9.234235E+04  5.541872E+04  7.453654E+03
       294   3 -1.988733E+05 -3.914258E+04 -6.258338E+04 -2.998538E+04  7.655942E+04  2.442037E+04
       294   4 -4.204478E+05 -7.331924E+04 -3.312906E+04 -1.847758E+05  2.754264E+04 -2.991129E+03
       294   5 -4.123929E+05 -7.197971E+04 -5.902700E+04 -1.719739E+05  5.912979E+04  8.844029E+03
       294   6 -4.351829E+05 -1.777368E+05 -1.350367E+05 -1.456035E+05  8.774048E+04  2.860936E+04
       294   7 -6.340284E+05 -1.380283E+05 -8.095988E+04 -2.284070E+05  2.378353E+04 -4.401178E+03
       294   8 -6.365586E+05 -1.728656E+05 -1.162038E+05 -2.515763E+05  6.283938E+04  1.023358E+04
       294   9 -6.714277E+05 -3.162961E+05 -2.074931E+05 -2.611720E+05  9.891672E+04  3.279427E+04
       294  10 -2.068226E+05 -8.610320E+03  1.469727E+04 -1.411323E+05 -1.800173E-11 -2.142319E-10
       294  11 -1.881777E+05  2.891678E+04 -1.859391E+03 -9.234269E+04 -1.006643E-10 -1.538015E-10
       294  12 -1.988797E+05 -3.914479E+04 -6.259552E+04 -2.998689E+04 -8.393034E-11 -8.646411E-11
       294  13 -4.204486E+05 -7.331946E+04 -3.313050E+04 -1.847757E+05 -2.858754E-10 -1.914208E-11
       294  14 -4.123967E+05 -7.198073E+04 -5.903372E+04 -1.719743E+05  2.041551E-10 -7.635204E-11
       294  15 -4.351914E+05 -1.777397E+05 -1.350527E+05 -1.456055E+05 -3.610184E-11  1.566268E-11
       294  16 -6.340290E+05 -1.380285E+05 -8.096098E+04 -2.284069E+05  7.604874E-11  7.347639E-11
       294  17 -6.365629E+05 -1.728667E+05 -1.162115E+05 -2.515768E+05 -5.019206E-10 -5.456950E-11
       294  18 -6.714385E+05 -3.162999E+05 -2.075136E+05 -2.611746E+05 -3.714928E-10 -2.833128E-11
       294  19 -2.068215E+05 -8.610054E+03  1.469911E+04 -1.411324E+05 -3.130317E+04  1.580773E+03
       294  20 -1.881744E+05  2.891767E+04 -1.853513E+03 -9.234235E+04 -5.541872E+04 -7.453654E+03
       294  21 -1.988733E+05 -3.914258E+04 -6.258338E+04 -2.998538E+04 -7.655942E+04 -2.442037E+04
       294  22 -4.204478E+05 -7.331924E+04 -3.312906E+04 -1.847758E+05 -2.754264E+04  2.991129E+03
       294  23 -4.123929E+05 -7.197971E+04 -5.902700E+04 -1.719739E+05 -5.912979E+04 -8.844029E+03
       294  24 -4.351829E+05 -1.777368E+05 -1.350367E+05 -1.456035E+05 -8.774048E+04 -2.860936E+04
       294  25 -6.340284E+05 -1.380283E+05 -8.095988E+04 -2.284070E+05 -2.378353E+04  4.401178E+03
       294  26 -6.365586E+05 -1.728656E+05 -1.162038E+05 -2.515763E+05 -6.283938E+04 -1.023358E+04
       294  27 -6.714277E+05 -3.162961E+05 -2.074931E+05 -2.611720E+05 -9.891672E+04 -3.279427E+04
       295   1 -5.534591E+05 -1.417024E+05 -1.180885E+05 -1.795408E+04  3.471569E+04  1.249588E+04
       295   2 -4.702659E+05 -2.026832E+05 -1.349681E+05 -3.001486E+04  3.349134E+04  3.936182E+04
       295   3 -3.673049E+05 -1.862723E+05 -1.316563E+05 -7.580486E+04  3.228374E+04  4.147559E+04
       295   4  3.832581E+05  9.078788E+04  1.079195E+05 -6.323913E+04  7.432286E+04  1.251681E+04
       295   5  3.712585E+05  2.536103E+03  4.960338E+04 -4.635668E+04  4.813589E+04  3.936264E+04
       295   6  3.833211E+05 -4.050169E+03  2.878584E+04 -6.319851E+04  2.196739E+04  4.147128E+04
       295   7  1.320786E+06  3.232227E+05  3.338718E+05 -1.085929E+05  1.139895E+05  1.253195E+04
       295   8  1.213447E+06  2.077092E+05  2.341327E+05 -6.272097E+04  6.280002E+04  3.936269E+04
       295   9  1.134478E+06  1.781358E+05  1.891958E+05 -5.057667E+04  1.163873E+04  4.146655E+04
       295  10 -5.534604E+05 -1.417029E+05 -1.180911E+05 -1.795443E+04 -1.686603E-10  2.069015E-10
       295  11 -4.702676E+05 -2.026852E+05 -1.349731E+05 -3.001593E+04 -6.026862E-11 -9.518266E-11
       295  12 -3.673065E+05 -1.862744E+05 -1.316615E+05 -7.580594E+04  1.530569E-11 -2.847432E-10
       295  13  3.832521E+05  9.078623E+04  1.079089E+05 -6.323988E+04 -2.934290E-10 -2.328675E-10
       295  14  3.712556E+05  2.533817E+03  4.959611E+04 -4.635820E+04 -2.641727E-10 -1.082519E-10
       295  15  3.833201E+05 -4.052146E+03  2.878170E+04 -6.319924E+04  8.452141E-14 -4.808753E-10
       295  16  1.320772E+06  3.232190E+05  3.338472E+05 -1.085940E+05  2.778747E-10  1.973896E-10
       295  17  1.213442E+06  2.077065E+05  2.341224E+05 -6.272296E+04 -5.649228E-11 -4.195419E-10
       295  18  1.134477E+06  1.781339E+05  1.891923E+05 -5.057706E+04 -2.246390E-10 -3.960446E-10
       295  19 -5.534591E+05 -1.417024E+05 -1.180885E+05 -1.795408E+04 -3.471569E+04 -1.249588E+04
       295  20 -4.702659E+05 -2.026832E+05 -1.349681E+05 -3.001486E+04 -3.349134E+04 -3.936182E+04
       295  21 -3.673049E+05 -1.862723E+05 -1.316563E+05 -7.580486E+04 -3.228374E+04 -4.147559E+04
       295  22  3.832581E+05  9.078788E+04  1.079195E+05 -6.323913E+04 -7.432286E+04 -1.251681E+04
       295  23  3.712585E+05  2.536103E+03  4.960338E+04 -4.635668E+04 -4.813589E+04 -3.936264E+04
       295  24  3.833211E+05 -4.050169E+03  2.878584E+04 -6.319851E+04 -2.196739E+04 -4.147128E+04
       295  25  1.320786E+06  3.232227E+05  3.338718E+05 -1.085929E+05 -1.139895E+05 -1.253195E+04
       295  26  1.213447E+06  2.077092E+05  2.341327E+05 -6.272097E+04 -6.280002E+04 -3.936269E+04
       295  27  1.134478E+06  1.781358E+05  1.891958E+05 -5.057667E+04 -1.163873E+04 -4.146655E+04
       296   1 -2.998316E+05 -1.605241E+05 -1.228868E+05 -6.196588E+04  2.144931E+04  3.647778E+04
       296   2 -2.082229E+05 -1.422547E+05 -1.127383E+05 -4.570430E+04  1.640540E+04  3.242140E+04
       296   3 -1.148542E+05 -1.199863E+05 -9.828229E+04 -6.416340E+04  1.135724E+04  2.721842E+04
       296   4  3.784268E+05  4.250116E+03  2.273454E+04 -6.342908E+04  1.795271E+04  3.647478E+04
       296   5  3.774692E+05 -9.730838E+01  1.239503E+04 -4.607023E+04  1.174703E+04  3.241989E+04
       296   6  3.784614E+05 -2.465647E+02  7.165442E+03 -6.342989E+04  5.537817E+03  2.721893E+04
       296   7  1.057118E+06  1.689942E+05  1.683290E+05 -6.489387E+04  1.445234E+04  3.647180E+04
       296   8  9.634843E+05  1.420377E+05  1.375085E+05 -4.643649E+04  7.084326E+03  3.241840E+04
       296   9  8.720060E+05  1.194773E+05  1.125992E+05 -6.269575E+04 -2.861628E+02  2.721943E+04
       296  10 -2.998324E+05 -1.605256E+05 -1.228901E+05 -6.196651E+04 -4.654232E-11 -1.836960E-10
       296  11 -2.082235E+05 -1.422559E+05 -1.127407E+05 -4.570473E+04 -8.501924E-12 -1.212659E-10
       296  12 -1.148545E+05 -1.199871E+05 -9.828393E+04 -6.416365E+04  5.662037E-11 -5.534902E-11
       296  13  3.784261E+05  4.248601E+03  2.273144E+04 -6.342960E+04  2.015720E-10 -3.573250E-10
       296  14  3.774688E+05 -9.847428E+01  1.239279E+04 -4.607054E+04 -2.480368E-10 -5.944129E-11
       296  15  3.784612E+05 -2.473686E+02  7.163992E+03 -6.343001E+04 -5.300328E-10 -1.105203E-10
       296  16  1.057117E+06  1.689927E+05  1.683261E+05 -6.489430E+04  4.319833E-10 -1.987087E-10
       296  17  9.634839E+05  1.420365E+05  1.375065E+05 -4.643668E+04  1.367910E-10  1.898435E-10
       296  18  8.720058E+05  1.194765E+05  1.125978E+05 -6.269574E+04 -2.271796E-10 -5.110303E-11
       296  19 -2.998316E+05 -1.605241E+05 -1.228868E+05 -6.196588E+04 -2.144931E+04 -3.647778E+04
       296  20 -2.082229E+05 -1.422547E+05 -1.127383E+05 -4.570430E+04 -1.640540E+04 -3.242140E+04
       296  21 -1.148542E+05 -1.199863E+05 -9.828229E+04 -6.416340E+04 -1.135724E+04 -2.721842E+04
       296  22  3.784268E+05  4.250116E+03  2.273454E+04 -6.342908E+04 -1.795271E+04 -3.647478E+04
       296  23  3.774692E+05 -9.730838E+01  1.239503E+04 -4.607023E+04 -1.174703E+04 -3.241989E+04
       296  24  3.784614E+05 -2.465647E+02  7.165442E+03 -6.342989E+04 -5.537817E+03 -2.721893E+04
       296  25  1.057118E+06  1.689942E+05  1.683290E+05 -6.489387E+04 -1.445234E+04 -3.647180E+04
       296  26  9.634843E+05  1.420377E+05  1.375085E+05 -4.643649E+04 -7.084326E+03 -3.241840E+04
       296  27  8.720060E+05  1.194773E+05  1.125992E+05 -6.269575E+04  2.861628E+02 -2.721943E+04
       297   1 -4.367301E+04 -1.021241E+05 -8.424576E+04 -6.342731E+04  9.918675E+03  2.390325E+04
       297   2  4.846745E+04 -7.996544E+04 -6.710610E+04 -4.607307E+04  8.403890E+03  1.842180E+04
       297   3  1.408688E+05 -5.756264E+04 -4.892092E+04 -6.340349E+04  6.886742E+03  1.288996E+04
       297   4  3.781005E+05  1.634767E+02  5.489897E+03 -6.342192E+04  4.420250E+03  2.390447E+04
       297   5  3.779791E+05 -2.456610E+01  3.160795E+03 -4.608021E+04  2.853332E+03  1.842401E+04
       297   6  3.781192E+05  4.085943E+01  1.912936E+03 -6.342205E+04  1.284271E+03  1.289320E+04
       297   7  8.000416E+05  1.024395E+05  9.521545E+04 -6.341650E+04 -1.081856E+03  2.390569E+04
       297   8  7.075930E+05  7.990925E+04  7.342154E+04 -4.608734E+04 -2.700128E+03  1.842621E+04
       297   9  6.154226E+05  5.764070E+04  5.274363E+04 -6.344060E+04 -4.320311E+03  1.289644E+04
       297  10 -4.367327E+04 -1.021247E+05 -8.424701E+04 -6.342750E+04  5.735316E-11 -1.934439E-10
       297  11  4.846728E+04 -7.996582E+04 -6.710687E+04 -4.607320E+04  7.713104E-10  1.652599E-10
       297  12  1.408687E+05 -5.756284E+04 -4.892132E+04 -6.340357E+04 -8.234266E-11 -5.141930E-11
       297  13  3.781003E+05  1.628578E+02  5.488786E+03 -6.342201E+04  8.372409E-12 -1.509469E-10
       297  14  3.779790E+05 -2.493286E+01  3.160141E+03 -4.608025E+04 -1.244850E-10  3.010386E-10
       297  15  3.781192E+05  4.068045E+01  1.912620E+03 -6.342206E+04  1.185196E-10  4.662814E-10
       297  16  8.000415E+05  1.024389E+05  9.521438E+04 -6.341648E+04 -1.324884E-10 -1.587493E-10
       297  17  7.075929E+05  7.990888E+04  7.342089E+04 -4.608730E+04 -2.600348E-10 -2.266484E-10
       297  18  6.154225E+05  5.764051E+04  5.274328E+04 -6.344056E+04 -6.046466E-10 -3.337903E-10
       297  19 -4.367301E+04 -1.021241E+05 -8.424576E+04 -6.342731E+04 -9.918675E+03 -2.390325E+04
       297  20  4.846745E+04 -7.996544E+04 -6.710610E+04 -4.607307E+04 -8.403890E+03 -1.842180E+04
       297  21  1.408688E+05 -5.756264E+04 -4.892092E+04 -6.340349E+04 -6.886742E+03 -1.288996E+04
       297  22  3.781005E+05  1.634767E+02  5.489897E+03 -6.342192E+04 -4.420250E+03 -2.390447E+04
       297  23  3.779791E+05 -2.456610E+01  3.160795E+03 -4.608021E+04 -2.853332E+03 -1.842401E+04
       297  24  3.781192E+05  4.085943E+01  1.912936E+03 -6.342205E+04 -1.284271E+03 -1.289320E+04
       297  25  8.000416E+05  1.024395E+05  9.521545E+04 -6.341650E+04  1.081856E+03 -2.390569E+04
       297  26  7.075930E+05  7.990925E+04  7.342154E+04 -4.608734E+04  2.700128E+03 -1.842621E+04
       297  27  6.154226E+05  5.764070E+04  5.274363E+04 -6.344060E+04  4.320311E+03 -1.289644E+04
       298   1  2.122282E+05 -4.011947E+04 -3.357952E+04 -6.338733E+04  6.557126E+03  9.658549E+03
       298   2  3.043942E+05 -1.782899E+04 -1.461961E+04 -4.607673E+04  6.019948E+03  4.117690E+03
       298   3  3.966011E+05  4.513904E+03  4.690053E+03 -6.341437E+04  5.482223E+03 -1.424870E+03
       298   4  3.780751E+05  6.050449E+01  1.527296E+03 -6.341412E+04  9.708945E+02  9.662148E+03
       298   5  3.780599E+05  3.944012E+01  1.084796E+03 -4.609012E+04  4.315509E+02  4.121495E+03
       298   6  3.780792E+05  7.196448E+01  9.940345E+02 -6.341413E+04 -1.082625E+02 -1.420828E+03
       298   7  5.439479E+05  4.023872E+04  3.663267E+04 -6.344092E+04 -4.616806E+03  9.665747E+03
       298   8  4.517307E+05  1.790753E+04  1.678901E+04 -4.610352E+04 -5.157499E+03  4.125301E+03
       298   9  3.595578E+05 -4.369979E+03 -2.701884E+03 -6.341388E+04 -5.698585E+03 -1.416785E+03
       298  10  2.122282E+05 -4.011958E+04 -3.357978E+04 -6.338738E+04  1.538029E-10  2.190330E-10
       298  11  3.043942E+05 -1.782902E+04 -1.461971E+04 -4.607675E+04 -2.945059E-11  1.253351E-10
       298  12  3.966011E+05  4.513893E+03  4.689993E+03 -6.341437E+04 -1.497800E-10 -1.683475E-10
       298  13  3.780750E+05  6.040397E+01  1.527119E+03 -6.341413E+04 -4.914993E-10 -4.544498E-10
       298  14  3.780599E+05  3.942183E+01  1.084763E+03 -4.609012E+04 -4.388743E-11  2.660885E-10
       298  15  3.780792E+05  7.196231E+01  9.940307E+02 -6.341413E+04  4.118073E-10 -1.978211E-10
       298  16  5.439479E+05  4.023861E+04  3.663245E+04 -6.344088E+04 -3.176073E-10 -1.239430E-10
       298  17  4.517307E+05  1.790751E+04  1.678892E+04 -4.610350E+04 -4.122976E-10  2.630557E-11
       298  18  3.595577E+05 -4.369990E+03 -2.701948E+03 -6.341389E+04 -5.294084E-10 -2.356948E-10
       298  19  2.122282E+05 -4.011947E+04 -3.357952E+04 -6.338733E+04 -6.557126E+03 -9.658549E+03
       298  20  3.043942E+05 -1.782899E+04 -1.461961E+04 -4.607673E+04 -6.019948E+03 -4.117690E+03
       298  21  3.966011E+05  4.513904E+03  4.690053E+03 -6.341437E+04 -5.482223E+03  1.424870E+03
       298  22  3.780751E+05  6.050449E+01  1.527296E+03 -6.341412E+04 -9.708945E+02 -9.662148E+03
       298  23  3.780599E+05  3.944012E+01  1.084796E+03 -4.609012E+04 -4.315509E+02 -4.121495E+03
       298  24  3.780792E+05  7.196448E+01  9.940345E+02 -6.341413E+04  1.082625E+02  1.420828E+03
       298  25  5.439479E+05  4.023872E+04  3.663267E+04 -6.344092E+04  4.616806E+03 -9.665747E+03
       298  26  4.517307E+05  1.790753E+04  1.678901E+04 -4.610352E+04  5.157499E+03 -4.125301E+03
       298  27  3.595578E+05 -4.369979E+03 -2.701884E+03 -6.341388E+04  5.698585E+03  1.416785E+03
       299   1  4.680008E+05  2.192936E+04  2.048175E+04 -6.344920E+04  5.293637E+03 -4.651201E+03
       299   2  5.601885E+05  4.419753E+04  4.027982E+04 -4.611576E+04  4.569659E+03 -1.019387E+04
       299   3  6.524572E+05  6.652551E+04  6.055366E+04 -6.343886E+04  3.846745E+03 -1.573569E+04
       299   4  3.780858E+05  7.129659E+01  1.063564E+03 -6.341616E+04 -2.977512E+02 -4.647257E+03
       299   5  3.780449E+05  2.351967E+01  1.456028E+03 -4.608758E+04 -1.021113E+03 -1.019049E+04
       299   6  3.780755E+05  3.560515E+01  2.323777E+03 -6.341615E+04 -1.743307E+03 -1.573284E+04
       299   7  2.881784E+05 -2.178728E+04 -1.835498E+04 -6.338313E+04 -5.888341E+03 -4.643314E+03
       299   8  1.959325E+05 -4.415263E+04 -3.736956E+04 -4.605940E+04 -6.610270E+03 -1.018710E+04
       299   9  1.037647E+05 -6.645916E+04 -5.591029E+04 -6.339344E+04 -7.330927E+03 -1.572998E+04
       299  10  4.680008E+05  2.192933E+04  2.048166E+04 -6.344918E+04 -1.330604E-10  2.835202E-10
       299  11  5.601884E+05  4.419741E+04  4.027959E+04 -4.611573E+04  3.165387E-10  9.898599E-10
       299  12  6.524571E+05  6.652524E+04  6.055317E+04 -6.343881E+04  3.703821E-10 -3.491140E-10
       299  13  3.780858E+05  7.127338E+01  1.063523E+03 -6.341616E+04  3.611200E-14  7.462370E-11
       299  14  3.780448E+05  2.340786E+01  1.455831E+03 -4.608759E+04 -1.933003E-11 -3.755426E-10
       299  15  3.780754E+05  3.533848E+01  2.323306E+03 -6.341618E+04 -1.441240E-10  8.538053E-11
       299  16  2.881783E+05 -2.178731E+04 -1.835509E+04 -6.338315E+04 -2.624324E-10  1.778098E-10
       299  17  1.959325E+05 -4.415275E+04 -3.736984E+04 -4.605945E+04 -6.587674E-10 -3.059688E-10
       299  18  1.037646E+05 -6.645944E+04 -5.591086E+04 -6.339353E+04 -8.659557E-10 -8.712919E-11
       299  19  4.680008E+05  2.192936E+04  2.048175E+04 -6.344920E+04 -5.293637E+03  4.651201E+03
       299  20  5.601885E+05  4.419753E+04  4.027982E+04 -4.611576E+04 -4.569659E+03  1.019387E+04
       299  21  6.524572E+05  6.652551E+04  6.055366E+04 -6.343886E+04 -3.846745E+03  1.573569E+04
       299  22  3.780858E+05  7.129659E+01  1.063564E+03 -6.341616E+04  2.977512E+02  4.647257E+03
       299  23  3.780449E+05  2.351967E+01  1.456028E+03 -4.608758E+04  1.021113E+03  1.019049E+04
       299  24  3.780755E+05  3.560515E+01  2.323777E+03 -6.341615E+04  1.743307E+03  1.573284E+04
       299  25  2.881784E+05 -2.178728E+04 -1.835498E+04 -6.338313E+04  5.888341E+03  4.643314E+03
       299  26  1.959325E+05 -4.415263E+04 -3.736956E+04 -4.605940E+04  6.610270E+03  1.018710E+04
       299  27  1.037647E+05 -6.645916E+04 -5.591029E+04 -6.339344E+04  7.330927E+03  1.572998E+04
       300   1  7.240122E+05  8.392511E+04  7.696734E+04 -6.340582E+04  3.382809E+03 -1.896843E+04
       300   2  8.161705E+05  1.061914E+05  9.853007E+04 -4.599913E+04  7.874940E+02 -2.450011E+04
       300   3  9.088032E+05  1.288579E+05  1.218856E+05 -6.330422E+04 -1.805362E+03 -2.997670E+04
       300   4  3.781514E+05  4.130428E+00  3.003816E+03 -6.342866E+04 -2.226716E+03 -1.896614E+04
       300   5  3.779104E+05 -8.243218E+01  5.118803E+03 -4.607193E+04 -4.765197E+03 -2.449917E+04
       300   6  3.781264E+05  2.221118E+02  8.988392E+03 -6.342848E+04 -7.300843E+03 -2.997707E+04
       300   7  3.240324E+04 -8.392464E+04 -7.096652E+04 -6.345147E+04 -7.833163E+03 -1.896385E+04
       300   8 -6.016888E+04 -1.063688E+05 -8.830341E+04 -4.614465E+04 -1.031403E+04 -2.449823E+04
       300   9 -1.522853E+05 -1.284319E+05 -1.039249E+05 -6.355259E+04 -1.279170E+04 -2.997743E+04
       300  10  7.240121E+05  8.392472E+04  7.696664E+04 -6.340577E+04  4.408261E-10 -5.025753E-10
       300  11  8.161703E+05  1.061908E+05  9.852894E+04 -4.599912E+04  4.686775E-10  3.146870E-11
       300  12  9.088029E+05  1.288569E+05  1.218839E+05 -6.330427E+04 -7.507832E-10  1.831847E-10
       300  13  3.781513E+05  3.742753E+00  3.003130E+03 -6.342869E+04 -8.718091E-10  7.073022E-11
       300  14  3.779102E+05 -8.308292E+01  5.117633E+03 -4.607202E+04 -1.145998E-10 -7.136156E-11
       300  15  3.781261E+05  2.211323E+02  8.986603E+03 -6.342865E+04 -3.320967E-10 -6.002633E-11
       300  16  3.240307E+04 -8.392504E+04 -7.096731E+04 -6.345159E+04 -1.898901E-10  2.857313E-12
       300  17 -6.016915E+04 -1.063694E+05 -8.830474E+04 -4.614486E+04 -1.624576E-10  4.690950E-10
       300  18 -1.522857E+05 -1.284330E+05 -1.039269E+05 -6.355290E+04  4.029991E-10  9.454002E-11
       300  19  7.240122E+05  8.392511E+04  7.696734E+04 -6.340582E+04 -3.382809E+03  1.896843E+04
       300  20  8.161705E+05  1.061914E+05  9.853007E+04 -4.599913E+04 -7.874940E+02  2.450011E+04
       300  21  9.088032E+05  1.288579E+05  1.218856E+05 -6.330422E+04  1.805362E+03  2.997670E+04
       300  22  3.781514E+05  4.130428E+00  3.003816E+03 -6.342866E+04  2.226716E+03  1.896614E+04
       300  23  3.779104E+05 -8.243218E+01  5.118803E+03 -4.607193E+04  4.765197E+03  2.449917E+04
       300  24  3.781264E+05  2.221118E+02  8.988392E+03 -6.342848E+04  7.300843E+03  2.997707E+04
       300  25  3.240324E+04 -8.392464E+04 -7.096652E+04 -6.345147E+04  7.833163E+03  1.896385E+04
       300  26 -6.016888E+04 -1.063688E+05 -8.830341E+04 -4.614465E+04  1.031403E+04  2.449823E+04
       300  27 -1.522853E+05 -1.284319E+05 -1.039249E+05 -6.355259E+04  1.279170E+04  2.997743E+04
       301   1  9.810917E+05  1.456535E+05  1.403739E+05 -6.209407E+04 -3.277340E+03 -3.330334E+04
       301   2  1.072073E+06  1.683777E+05  1.687336E+05 -4.652225E+04 -1.478168E+04 -3.847104E+04
       301   3  1.166482E+06  1.982081E+05  2.063832E+05 -6.571254E+04 -2.628385E+04 -4.236584E+04
       301   4  3.787186E+05 -4.494165E+02  1.175604E+04 -6.343971E+04 -9.130907E+03 -3.330467E+04
       301   5  3.770971E+05 -1.706308E+02  2.038431E+04 -4.605769E+04 -1.934025E+04 -3.847446E+04
       301   6  3.786768E+05  6.995687E+03  3.741191E+04 -6.343995E+04 -2.954575E+04 -4.237073E+04
       301   7 -2.233134E+05 -1.465759E+05 -1.168826E+05 -6.478399E+04 -1.497888E+04 -3.330598E+04
       301   8 -3.174246E+05 -1.687504E+05 -1.279928E+05 -4.559366E+04 -2.389379E+04 -3.847789E+04
       301   9 -4.085455E+05 -1.842573E+05 -1.315955E+05 -6.117028E+04 -3.280357E+04 -4.237564E+04
       301  10  9.810914E+05  1.456523E+05  1.403717E+05 -6.209416E+04 -2.459077E-10  2.854783E-10
       301  11  1.072072E+06  1.683761E+05  1.687304E+05 -4.652270E+04 -3.946830E-10  2.701619E-10
       301  12  1.166481E+06  1.982060E+05  2.063785E+05 -6.571344E+04  7.459680E-11 -1.113518E-10
       301  13  3.787182E+05 -4.506302E+02  1.175380E+04 -6.343995E+04  4.214786E-12  1.174121E-10
       301  14  3.770963E+05 -1.723211E+02  2.038082E+04 -4.605829E+04  9.775415E-11  1.166043E-12
       301  15  3.786753E+05  6.993524E+03  3.740690E+04 -6.344096E+04  2.922434E-10 -5.018710E-11
       301  16 -2.233139E+05 -1.465772E+05 -1.168851E+05 -6.478439E+04  9.032759E-11 -8.070850E-12
       301  17 -3.174257E+05 -1.687522E+05 -1.279967E+05 -4.559440E+04  6.139200E-11 -1.389230E-10
       301  18 -4.085472E+05 -1.842595E+05 -1.316009E+05 -6.117140E+04  7.990197E-10  1.496987E-10
       301  19  9.810917E+05  1.456535E+05  1.403739E+05 -6.209407E+04  3.277340E+03  3.330334E+04
       301  20  1.072073E+06  1.683777E+05  1.687336E+05 -4.652225E+04  1.478168E+04  3.847104E+04
       301  21  1.166482E+06  1.982081E+05  2.063832E+05 -6.571254E+04  2.628385E+04  4.236584E+04
       301  22  3.787186E+05 -4.494165E+02  1.175604E+04 -6.343971E+04  9.130907E+03  3.330467E+04
       301  23  3.770971E+05 -1.706308E+02  2.038431E+04 -4.605769E+04  1.934025E+04  3.847446E+04
       301  24  3.786768E+05  6.995687E+03  3.741191E+04 -6.343995E+04  2.954575E+04  4.237073E+04
       301  25 -2.233134E+05 -1.465759E+05 -1.168826E+05 -6.478399E+04  1.497888E+04  3.330598E+04
       301  26 -3.174246E+05 -1.687504E+05 -1.279928E+05 -4.559366E+04  2.389379E+04  3.847789E+04
       301  27 -4.085455E+05 -1.842573E+05 -1.315955E+05 -6.117028E+04  3.280357E+04  4.237564E+04
       302   1  1.247181E+06  2.020335E+05  2.310734E+05 -4.227609E+04 -2.529433E+04 -4.756434E+04
       302   2  1.318438E+06  2.359706E+05  2.900415E+05 -7.323239E+04 -9.619802E+04 -4.463160E+04
       302   3  1.433986E+06  4.089959E+05  4.299496E+05 -1.379151E+05 -1.671460E+05 -1.419369E+04
       302   4  3.867263E+05 -6.655882E+03  4.737344E+04 -6.317977E+04 -3.615060E+04 -4.757257E+04
       302   5  3.669275E+05  4.223341E+03  8.166240E+04 -4.637697E+04 -7.923165E+04 -4.462928E+04
       302   6  3.866477E+05  1.494725E+05  1.776531E+05 -6.329307E+04 -1.223429E+05 -1.417273E+04
       302   7 -4.730314E+05 -2.153918E+05 -1.363686E+05 -8.405415E+04 -4.699204E+04 -4.758008E+04
       302   8 -5.837342E+05 -2.275815E+05 -1.267701E+05 -1.956326E+04 -6.229084E+04 -4.462549E+04
       302   9 -6.596724E+05 -1.101088E+05 -7.471115E+04  1.120265E+04 -7.761475E+04 -1.414102E+04
       302  10  1.247180E+06  2.020309E+05  2.310680E+05 -4.227706E+04 -2.844036E-10  1.224520E-11
       302  11  1.318427E+06  2.359660E+05  2.900204E+05 -7.323585E+04 -6.912000E-10 -3.040012E-10
       302  12  1.433956E+06  4.089882E+05  4.298968E+05 -1.379170E+05  6.662636E-10 -3.120614E-10
       302  13  3.867243E+05 -6.658663E+03  4.736673E+04 -6.318116E+04  4.037479E-10  4.639963E-10
       302  14  3.669203E+05  4.219518E+03  8.164687E+04 -4.637982E+04 -5.528159E-10  1.154610E-09
       302  15  3.866316E+05  1.494682E+05  1.776246E+05 -6.329447E+04 -2.158287E-10 -1.843278E-10
       302  16 -4.730344E+05 -2.153948E+05 -1.363771E+05 -8.405595E+04  2.522101E-10  4.663139E-10
       302  17 -5.837389E+05 -2.275846E+05 -1.267811E+05 -1.956550E+04 -4.788354E-10  3.165390E-10
       302  18 -6.596789E+05 -1.101106E+05 -7.472286E+04  1.120176E+04  4.700027E-11 -3.142467E-10
       302  19  1.247181E+06  2.020335E+05  2.310734E+05 -4.227609E+04  2.529433E+04  4.756434E+04
       302  20  1.318438E+06  2.359706E+05  2.900415E+05 -7.323239E+04  9.619802E+04  4.463160E+04
       302  21  1.433986E+06  4.089959E+05  4.299496E+05 -1.379151E+05  1.671460E+05  1.419369E+04
       302  22  3.867263E+05 -6.655882E+03  4.737344E+04 -6.317977E+04  3.615060E+04  4.757257E+04
       302  23  3.669275E+05  4.223341E+03  8.166240E+04 -4.637697E+04  7.923165E+04  4.462928E+04
       302  24  3.866477E+05  1.494725E+05  1.776531E+05 -6.329307E+04  1.223429E+05  1.417273E+04
       302  25 -4.730314E+05 -2.153918E+05 -1.363686E+05 -8.405415E+04  4.699204E+04  4.758008E+04
       302  26 -5.837342E+05 -2.275815E+05 -1.267701E+05 -1.956326E+04  6.229084E+04  4.462549E+04
       302  27 -6.596724E+05 -1.101088E+05 -7.471115E+04  1.120265E+04  7.761475E+04  1.414102E+04
       303   1  2.373710E+05  9.170710E+05  2.441468E+05 -1.938235E+05  7.440637E+03  7.133308E+04
       303   2  1.180690E+05  6.687420E+05  1.379319E+05 -1.303943E+05  2.011235E+04  3.352784E+04
       303   3  5.568984E+04  4.394482E+05  7.049995E+04 -1.556104E+05  1.229552E+04 -4.283393E+03
       303   4  5.948536E+04  2.014239E+05  7.027814E+04 -1.634383E+05  7.470905E+03  4.822551E+04
       303   5  1.993019E+03  1.937512E+05  3.246637E+04 -1.191522E+05  2.011706E+04  3.111342E+04
       303   6 -2.135515E+03  2.014974E+05  1.910475E+04 -1.635084E+05  1.226991E+04  1.398066E+04
       303   7 -1.184343E+05 -5.137531E+05 -1.036251E+05 -1.330881E+05  7.498935E+03  2.514445E+04
       303   8 -1.140977E+05 -2.810289E+05 -7.301317E+04 -1.079188E+05  2.012167E+04  2.870082E+04
       303   9 -5.996418E+04 -3.639936E+04 -3.229250E+04 -1.714033E+05  1.224383E+04  3.223781E+04
       303  10  2.373696E+05  9.170655E+05  2.441372E+05 -1.938239E+05 -1.866767E-10 -4.896855E-10
       303  11  1.180683E+05  6.687407E+05  1.379291E+05 -1.303948E+05 -6.068981E-10  9.758643E-10
       303  12  5.568967E+04  4.394481E+05  7.049963E+04 -1.556104E+05  6.316335E-10  1.476075E-10
       303  13  5.948468E+04  2.014214E+05  7.027366E+04 -1.634386E+05 -3.783222E-10 -3.300781E-10
       303  14  1.992324E+03  1.937501E+05  3.246379E+04 -1.191527E+05 -1.408994E-09  3.083731E-11
       303  15 -2.135729E+03  2.014972E+05  1.910410E+04 -1.635086E+05  2.363547E-10 -5.408178E-10
       303  16 -1.184345E+05 -5.137538E+05 -1.036264E+05 -1.330882E+05  8.215636E-11  4.099872E-10
       303  17 -1.140984E+05 -2.810299E+05 -7.301548E+04 -1.079193E+05 -2.596103E-10 -3.273496E-10
       303  18 -5.996462E+04 -3.640051E+04 -3.229473E+04 -1.714037E+05 -1.097444E-10 -4.501799E-10
       303  19  2.373710E+05  9.170710E+05  2.441468E+05 -1.938235E+05 -7.440637E+03 -7.133308E+04
       303  20  1.180690E+05  6.687420E+05  1.379319E+05 -1.303943E+05 -2.011235E+04 -3.352784E+04
       303  21  5.568984E+04  4.394482E+05  7.049995E+04 -1.556104E+05 -1.229552E+04  4.283393E+03
       303  22  5.948536E+04  2.014239E+05  7.027814E+04 -1.634383E+05 -7.470905E+03 -4.822551E+04
       303  23  1.993019E+03  1.937512E+05  3.246637E+04 -1.191522E+05 -2.011706E+04 -3.111342E+04
       303  24 -2.135515E+03  2.014974E+05  1.910475E+04 -1.635084E+05 -1.226991E+04 -1.398066E+04
       303  25 -1.184343E+05 -5.137531E+05 -1.036251E+05 -1.330881E+05 -7.498935E+03 -2.514445E+04
       303  26 -1.140977E+05 -2.810289E+05 -7.301317E+04 -1.079188E+05 -2.012167E+04 -2.870082E+04
       303  27 -5.996418E+04 -3.639936E+04 -3.229250E+04 -1.714033E+05 -1.224383E+04 -3.223781E+04
       304   1  1.606322E+04  2.509024E+05  2.686442E+04 -1.647666E+05  2.387895E+03 -1.707107E+03
       304   2 -4.487255E+04  1.178267E+04 -3.080580E+04 -1.189144E+05 -1.026319E+04 -5.756594E+03
       304   3 -1.026425E+05 -2.261988E+05 -8.511375E+04 -1.626172E+05 -2.247456E+04 -9.801245E+03
       304   4  3.235427E+03  1.983401E+05  1.529228E+04 -1.636927E+05  2.369078E+03  1.127546E+04
       304   5  2.647367E+02  1.977456E+05  8.939251E+03 -1.189181E+05 -1.027999E+04  6.780960E+03
       304   6  5.406005E+02  1.983139E+05  6.260495E+03 -1.636964E+05 -2.248957E+04  2.289799E+03
       304   7 -9.592460E+03  1.457808E+05  3.720608E+03 -1.626189E+05  2.350305E+03  2.425694E+04
       304   8  4.539985E+04  3.837415E+05  4.868289E+04 -1.189217E+05 -1.029678E+04  1.932221E+04
       304   9  1.037119E+05  6.229963E+05  9.762471E+04 -1.647762E+05 -2.250463E+04  1.438900E+04
       304  10  1.606322E+04  2.509024E+05  2.686441E+04 -1.647666E+05 -2.701637E-11 -5.972226E-10
       304  11 -4.487267E+04  1.178261E+04 -3.080606E+04 -1.189144E+05  1.566169E-10  8.147128E-10
       304  12 -1.026430E+05 -2.261990E+05 -8.511488E+04 -1.626174E+05 -5.489314E-10 -5.682800E-10
       304  13  3.235387E+03  1.983400E+05  1.529203E+04 -1.636928E+05  4.800011E-10 -3.972981E-10
       304  14  2.646109E+02  1.977456E+05  8.938966E+03 -1.189180E+05  1.022762E-09  1.241566E-11
       304  15  5.400560E+02  1.983138E+05  6.259535E+03 -1.636963E+05  1.123573E-09 -4.111722E-10
       304  16 -9.592624E+03  1.457801E+05  3.719492E+03 -1.626190E+05  3.380791E-10  4.229224E-10
       304  17  4.539963E+04  3.837411E+05  4.868199E+04 -1.189215E+05 -1.309659E-10  5.719004E-12
       304  18  1.037113E+05  6.229960E+05  9.762337E+04 -1.647759E+05 -2.927455E-10  4.779863E-10
       304  19  1.606322E+04  2.509024E+05  2.686442E+04 -1.647666E+05 -2.387895E+03  1.707107E+03
       304  20 -4.487255E+04  1.178267E+04 -3.080580E+04 -1.189144E+05  1.026319E+04  5.756594E+03
       304  21 -1.026425E+05 -2.261988E+05 -8.511375E+04 -1.626172E+05  2.247456E+04  9.801245E+03
       304  22  3.235427E+03  1.983401E+05  1.529228E+04 -1.636927E+05 -2.369078E+03 -1.127546E+04
       304  23  2.647367E+02  1.977456E+05  8.939251E+03 -1.189181E+05  1.027999E+04 -6.780960E+03
       304  24  5.406005E+02  1.983139E+05  6.260495E+03 -1.636964E+05  2.248957E+04 -2.289799E+03
       304  25 -9.592460E+03  1.457808E+05  3.720608E+03 -1.626189E+05 -2.350305E+03 -2.425694E+04
       304  26  4.539985E+04  3.837415E+05  4.868289E+04 -1.189217E+05  1.029678E+04 -1.932221E+04
       304  27  1.037119E+05  6.229963E+05  9.762471E+04 -1.647762E+05  2.250463E+04 -1.438900E+04
       305   1 -1.481029E+05 -4.115517E+05 -1.252573E+05 -1.637896E+05 -3.301276E+04 -1.883478E+04
       305   2 -2.063783E+05 -6.488986E+05 -1.812130E+05 -1.172706E+05 -3.799348E+04  8.558744E+03
       305   3 -2.628780E+05 -8.892607E+05 -2.545657E+05 -1.590047E+05 -1.295427E+04  3.595931E+04
       305   4  9.390338E+01  1.984984E+05  5.596084E+03 -1.634066E+05 -3.303541E+04  1.269742E+03
       305   5  2.630657E+02  1.973474E+05  5.482083E+03 -1.192808E+05 -3.798005E+04 -1.571955E+03
       305   6  7.459592E+03  1.983769E+05  8.976398E+03 -1.634004E+05 -1.292334E+04 -4.395454E+03
       305   7  1.482666E+05  8.088994E+05  1.364293E+05 -1.630230E+05 -3.305803E+04  2.139375E+04
       305   8  2.068563E+05  1.044263E+06  1.921335E+05 -1.212936E+05 -3.796656E+04 -1.171631E+04
       305   9  2.777114E+05  1.287099E+06  2.724395E+05 -1.678034E+05 -1.289187E+04 -4.482076E+04
       305  10 -1.481042E+05 -4.115524E+05 -1.252600E+05 -1.637901E+05 -2.609926E-10  1.031261E-11
       305  11 -2.063799E+05 -6.488990E+05 -1.812158E+05 -1.172703E+05  3.937097E-10  1.091354E-09
       305  12 -2.628785E+05 -8.892622E+05 -2.545685E+05 -1.590044E+05 -8.969300E-11 -9.598414E-11
       305  13  9.273096E+01  1.984981E+05  5.594030E+03 -1.634065E+05 -8.009512E-10 -1.496225E-10
       305  14  2.615159E+02  1.973471E+05  5.479367E+03 -1.192808E+05  4.129071E-10 -6.892638E-11
       305  15  7.459408E+03  1.983768E+05  8.976048E+03 -1.634004E+05 -3.918966E-11 -9.566242E-11
       305  16  1.482653E+05  8.088987E+05  1.364264E+05 -1.630224E+05  4.246071E-10 -2.807189E-10
       305  17  2.068548E+05  1.044263E+06  1.921305E+05 -1.212939E+05  3.652032E-10 -6.048608E-10
       305  18  2.777107E+05  1.287097E+06  2.724354E+05 -1.678038E+05 -1.054669E-10  7.011678E-11
       305  19 -1.481029E+05 -4.115517E+05 -1.252573E+05 -1.637896E+05  3.301276E+04  1.883478E+04
       305  20 -2.063783E+05 -6.488986E+05 -1.812130E+05 -1.172706E+05  3.799348E+04 -8.558744E+03
       305  21 -2.628780E+05 -8.892607E+05 -2.545657E+05 -1.590047E+05  1.295427E+04 -3.595931E+04
       305  22  9.390338E+01  1.984984E+05  5.596084E+03 -1.634066E+05  3.303541E+04 -1.269742E+03
       305  23  2.630657E+02  1.973474E+05  5.482083E+03 -1.192808E+05  3.798005E+04  1.571955E+03
       305  24  7.459592E+03  1.983769E+05  8.976398E+03 -1.634004E+05  1.292334E+04  4.395454E+03
       305  25  1.482666E+05  8.088994E+05  1.364293E+05 -1.630230E+05  3.305803E+04 -2.139375E+04
       305  26  2.068563E+05  1.044263E+06  1.921335E+05 -1.212936E+05  3.796656E+04  1.171631E+04
       305  27  2.777114E+05  1.287099E+06  2.724395E+05 -1.678034E+05  1.289187E+04  4.482076E+04
       306   1 -1.320395E+06 -5.050493E+05 -3.078351E+05 -4.907257E+05 -1.397300E+05 -4.472736E+04
       306   2 -1.281382E+06 -3.152508E+05 -1.839138E+05 -4.823832E+05 -8.983352E+04 -9.158921E+03
       306   3 -1.289761E+06 -2.701864E+05 -1.380049E+05 -4.520928E+05 -3.488807E+04  1.299156E+04
       306   4 -9.003982E+05 -2.794611E+05 -1.831467E+05 -3.067887E+05 -1.195693E+05 -3.716981E+04
       306   5 -8.679407E+05 -1.375766E+05 -8.005133E+04 -3.443361E+05 -8.229349E+04 -6.331846E+03
       306   6 -8.803371E+05 -1.378751E+05 -4.492023E+04 -3.599467E+05 -3.997227E+04  1.108228E+04
       306   7 -4.802159E+05 -5.379867E+04 -5.847284E+04 -1.227205E+05 -9.939375E+04 -2.960109E+04
       306   8 -4.543283E+05  4.012596E+04  2.379777E+04 -2.061998E+05 -7.474800E+04 -3.501986E+03
       306   9 -4.707484E+05 -5.561747E+03  4.815323E+04 -2.677501E+05 -4.506010E+04  9.172055E+03
       306  10 -1.320417E+06 -5.050567E+05 -3.078756E+05 -4.907307E+05 -3.663822E-10  8.318787E-11
       306  11 -1.281391E+06 -3.152531E+05 -1.839292E+05 -4.823838E+05 -7.677691E-10  3.157611E-10
       306  12 -1.289762E+06 -2.701869E+05 -1.380075E+05 -4.520925E+05  1.596735E-09  5.314259E-10
       306  13 -9.004139E+05 -2.794665E+05 -1.831763E+05 -3.067923E+05 -1.813868E-10 -2.461693E-10
       306  14 -8.679480E+05 -1.375785E+05 -8.006415E+04 -3.443366E+05  5.396775E-10 -2.118812E-10
       306  15 -8.803389E+05 -1.378756E+05 -4.492346E+04 -3.599464E+05  2.312344E-09  8.545559E-10
       306  16 -4.802267E+05 -5.380226E+04 -5.849307E+04 -1.227229E+05 -2.762962E-10  8.034887E-13
       306  17 -4.543343E+05  4.012445E+04  2.378724E+04 -2.062000E+05  1.142085E-09  3.798231E-10
       306  18 -4.707506E+05 -5.562382E+03  4.814925E+04 -2.677497E+05  3.631043E-09  1.051889E-09
       306  19 -1.320395E+06 -5.050493E+05 -3.078351E+05 -4.907257E+05  1.397300E+05  4.472736E+04
       306  20 -1.281382E+06 -3.152508E+05 -1.839138E+05 -4.823832E+05  8.983352E+04  9.158921E+03
       306  21 -1.289761E+06 -2.701864E+05 -1.380049E+05 -4.520928E+05  3.488807E+04 -1.299156E+04
       306  22 -9.003982E+05 -2.794611E+05 -1.831467E+05 -3.067887E+05  1.195693E+05  3.716981E+04
       306  23 -8.679407E+05 -1.375766E+05 -8.005133E+04 -3.443361E+05  8.229349E+04  6.331846E+03
       306  24 -8.803371E+05 -1.378751E+05 -4.492023E+04 -3.599467E+05  3.997227E+04 -1.108228E+04
       306  25 -4.802159E+05 -5.379867E+04 -5.847284E+04 -1.227205E+05  9.939375E+04  2.960109E+04
       306  26 -4.543283E+05  4.012596E+04  2.379777E+04 -2.061998E+05  7.474800E+04  3.501986E+03
       306  27 -4.707484E+05 -5.561747E+03  4.815323E+04 -2.677501E+05  4.506010E+04 -9.172055E+03
       307   1 -1.237683E+06 -2.878818E+05 -1.219216E+05 -4.546079E+05 -3.222530E+04  1.116848E+04
       307   2 -1.204756E+06 -2.596520E+05 -9.565198E+04 -4.386883E+05 -2.178021E+04  1.329951E+04
       307   3 -1.164996E+06 -2.497791E+05 -7.872476E+04 -4.336573E+05 -1.110475E+04  1.481677E+04
       307   4 -8.744882E+05 -1.504072E+05 -3.539621E+04 -3.521913E+05 -3.342481E+04  1.071695E+04
       307   5 -8.774264E+05 -1.375446E+05 -1.833065E+04 -3.481477E+05 -2.355276E+04  1.263339E+04
       307   6 -8.734184E+05 -1.429224E+05 -1.014868E+04 -3.549931E+05 -1.345106E+04  1.393592E+04
       307   7 -5.111599E+05 -1.292099E+04  5.112024E+04 -2.497189E+05 -3.462510E+04  1.026511E+04
       307   8 -5.499892E+05 -1.542890E+04  5.898338E+04 -2.575631E+05 -2.532633E+04  1.196689E+04
       307   9 -5.817557E+05 -3.606009E+04  5.842148E+04 -2.762953E+05 -1.579856E+04  1.305463E+04
       307  10 -1.237684E+06 -2.878822E+05 -1.219238E+05 -4.546076E+05  3.337554E-09  1.118159E-09
       307  11 -1.204756E+06 -2.596523E+05 -9.565321E+04 -4.386881E+05  9.871498E-10 -3.758420E-10
       307  12 -1.164997E+06 -2.497794E+05 -7.872540E+04 -4.336572E+05 -6.718245E-10 -1.918758E-10
       307  13 -8.744895E+05 -1.504076E+05 -3.539852E+04 -3.521910E+05  2.721973E-09  8.158103E-10
       307  14 -8.774270E+05 -1.375449E+05 -1.833199E+04 -3.481474E+05 -3.347678E-10 -2.323099E-10
       307  15 -8.734187E+05 -1.429227E+05 -1.014938E+04 -3.549929E+05 -2.698346E-10 -1.180658E-11
       307  16 -5.111612E+05 -1.292143E+04  5.111779E+04 -2.497186E+05  1.251184E-09  1.216731E-10
       307  17 -5.499899E+05 -1.542923E+04  5.898190E+04 -2.575628E+05 -4.878001E-10  1.230018E-10
       307  18 -5.817561E+05 -3.606034E+04  5.842069E+04 -2.762952E+05 -1.385821E-10  1.305522E-10
       307  19 -1.237683E+06 -2.878818E+05 -1.219216E+05 -4.546079E+05  3.222530E+04 -1.116848E+04
       307  20 -1.204756E+06 -2.596520E+05 -9.565198E+04 -4.386883E+05  2.178021E+04 -1.329951E+04
       307  21 -1.164996E+06 -2.497791E+05 -7.872476E+04 -4.336573E+05  1.110475E+04 -1.481677E+04
       307  22 -8.744882E+05 -1.504072E+05 -3.539621E+04 -3.521913E+05  3.342481E+04 -1.071695E+04
       307  23 -8.774264E+05 -1.375446E+05 -1.833065E+04 -3.481477E+05  2.355276E+04 -1.263339E+04
       307  24 -8.734184E+05 -1.429224E+05 -1.014868E+04 -3.549931E+05  1.345106E+04 -1.393592E+04
       307  25 -5.111599E+05 -1.292099E+04  5.112024E+04 -2.497189E+05  3.462510E+04 -1.026511E+04
       307  26 -5.499892E+05 -1.542890E+04  5.898338E+04 -2.575631E+05  2.532633E+04 -1.196689E+04
       307  27 -5.817557E+05 -3.606009E+04  5.842148E+04 -2.762953E+05  1.579856E+04 -1.305463E+04
       308   1 -1.133514E+06 -2.401245E+05 -6.896299E+04 -4.259898E+05 -9.309649E+03  1.386944E+04
       308   2 -1.101123E+06 -2.202650E+05 -5.668950E+04 -4.094058E+05 -6.308451E+03  1.233965E+04
       308   3 -1.058161E+06 -2.118280E+05 -4.610559E+04 -4.053875E+05 -3.295020E+03  1.077540E+04
       308   4 -8.729140E+05 -1.435773E+05 -7.698414E+03 -3.545492E+05 -1.148870E+04  1.305159E+04
       308   5 -8.781733E+05 -1.376909E+05 -4.195672E+03 -3.483318E+05 -8.519074E+03  1.151032E+04
       308   6 -8.728579E+05 -1.432205E+05 -2.356879E+03 -3.546804E+05 -5.537344E+03  9.934539E+03
       308   7 -6.122475E+05 -4.702584E+04  5.356103E+04 -2.830818E+05 -1.366873E+04  1.223337E+04
       308   8 -6.551745E+05 -5.511327E+04  4.829468E+04 -2.872379E+05 -1.073056E+04  1.068066E+04
       308   9 -6.875194E+05 -7.461020E+04  4.138970E+04 -3.039593E+05 -7.780408E+03  9.093399E+03
       308  10 -1.133514E+06 -2.401247E+05 -6.896351E+04 -4.259896E+05  4.303324E-10  1.570265E-10
       308  11 -1.101123E+06 -2.202652E+05 -5.668986E+04 -4.094058E+05  7.074932E-11  1.167908E-11
       308  12 -1.058161E+06 -2.118281E+05 -4.610583E+04 -4.053874E+05  2.498530E-10  1.029620E-10
       308  13 -8.729142E+05 -1.435776E+05 -7.698982E+03 -3.545491E+05  1.603971E-10 -4.254564E-11
       308  14 -8.781735E+05 -1.376911E+05 -4.196057E+03 -3.483318E+05 -1.259291E-10 -2.633222E-10
       308  15 -8.728580E+05 -1.432206E+05 -2.357122E+03 -3.546804E+05 -5.427040E-11  6.281303E-12
       308  16 -6.122477E+05 -4.702605E+04  5.356040E+04 -2.830816E+05 -3.986228E-10 -1.785236E-10
       308  17 -6.551747E+05 -5.511342E+04  4.829425E+04 -2.872378E+05 -1.722810E-10 -2.367029E-10
       308  18 -6.875195E+05 -7.461031E+04  4.138943E+04 -3.039593E+05 -2.037714E-10 -4.517647E-10
       308  19 -1.133514E+06 -2.401245E+05 -6.896299E+04 -4.259898E+05  9.309649E+03 -1.386944E+04
       308  20 -1.101123E+06 -2.202650E+05 -5.668950E+04 -4.094058E+05  6.308451E+03 -1.233965E+04
       308  21 -1.058161E+06 -2.118280E+05 -4.610559E+04 -4.053875E+05  3.295020E+03 -1.077540E+04
       308  22 -8.729140E+05 -1.435773E+05 -7.698414E+03 -3.545492E+05  1.148870E+04 -1.305159E+04
       308  23 -8.781733E+05 -1.376909E+05 -4.195672E+03 -3.483318E+05  8.519074E+03 -1.151032E+04
       308  24 -8.728579E+05 -1.432205E+05 -2.356879E+03 -3.546804E+05  5.537344E+03 -9.934539E+03
       308  25 -6.122475E+05 -4.702584E+04  5.356103E+04 -2.830818E+05  1.366873E+04 -1.223337E+04
       308  26 -6.551745E+05 -5.511327E+04  4.829468E+04 -2.872379E+05  1.073056E+04 -1.068066E+04
       308  27 -6.875194E+05 -7.461020E+04  4.138970E+04 -3.039593E+05  7.780408E+03 -9.093399E+03
       309   1 -1.027691E+06 -2.006184E+05 -3.815027E+04 -3.971189E+05 -2.434884E+03  9.518321E+03
       309   2 -9.952375E+05 -1.810459E+05 -2.864076E+04 -3.803824E+05 -9.901527E+02  7.347365E+03
       309   3 -9.518088E+05 -1.725561E+05 -1.954785E+04 -3.763307E+05  4.560529E+02  5.171288E+03
       309   4 -8.727820E+05 -1.432584E+05 -1.807363E+03 -3.546636E+05 -4.674205E+03  8.678752E+03
       309   5 -8.782669E+05 -1.377102E+05 -1.101376E+03 -3.483232E+05 -3.234148E+03  6.506231E+03
       309   6 -8.727769E+05 -1.432438E+05 -8.081245E+02 -3.546677E+05 -1.792659E+03  4.328585E+03
       309   7 -7.178493E+05 -8.589663E+04  3.453388E+04 -3.121986E+05 -6.914132E+03  7.838955E+03
       309   8 -7.612830E+05 -9.437378E+04  2.643697E+04 -3.162585E+05 -5.478597E+03  5.664928E+03
       309   9 -7.937392E+05 -1.139312E+05  1.793105E+04 -3.330024E+05 -4.041669E+03  3.485771E+03
       309  10 -1.027691E+06 -2.006185E+05 -3.815045E+04 -3.971189E+05  9.618841E-10  2.598907E-10
       309  11 -9.952375E+05 -1.810459E+05 -2.864086E+04 -3.803824E+05  1.083451E-09 -4.886780E-10
       309  12 -9.518089E+05 -1.725561E+05 -1.954790E+04 -3.763307E+05  9.958133E-10  7.972100E-10
       309  13 -8.727820E+05 -1.432585E+05 -1.807545E+03 -3.546636E+05 -5.286703E-10 -3.737069E-10
       309  14 -8.782669E+05 -1.377103E+05 -1.101475E+03 -3.483232E+05  6.392194E-10 -5.512136E-10
       309  15 -8.727769E+05 -1.432438E+05 -8.081657E+02 -3.546677E+05  1.370748E-10 -3.986834E-10
       309  16 -7.178493E+05 -8.589671E+04  3.453367E+04 -3.121986E+05 -7.050069E-10 -6.781387E-10
       309  17 -7.612830E+05 -9.437382E+04  2.643686E+04 -3.162585E+05 -1.052037E-09 -9.204453E-10
       309  18 -7.937392E+05 -1.139312E+05  1.793100E+04 -3.330024E+05 -1.120823E-09 -1.929234E-09
       309  19 -1.027691E+06 -2.006184E+05 -3.815027E+04 -3.971189E+05  2.434884E+03 -9.518321E+03
       309  20 -9.952375E+05 -1.810459E+05 -2.864076E+04 -3.803824E+05  9.901527E+02 -7.347365E+03
       309  21 -9.518088E+05 -1.725561E+05 -1.954785E+04 -3.763307E+05 -4.560529E+02 -5.171288E+03
       309  22 -8.727820E+05 -1.432584E+05 -1.807363E+03 -3.546636E+05  4.674205E+03 -8.678752E+03
       309  23 -8.782669E+05 -1.377102E+05 -1.101376E+03 -3.483232E+05  3.234148E+03 -6.506231E+03
       309  24 -8.727769E+05 -1.432438E+05 -8.081245E+02 -3.546677E+05  1.792659E+03 -4.328585E+03
       309  25 -7.178493E+05 -8.589663E+04  3.453388E+04 -3.121986E+05  6.914132E+03 -7.838955E+03
       309  26 -7.612830E+05 -9.437378E+04  2.643697E+04 -3.162585E+05  5.478597E+03 -5.664928E+03
       309  27 -7.937392E+05 -1.139312E+05  1.793105E+04 -3.330024E+05  4.041669E+03 -3.485771E+03
       310   1 -9.212976E+05 -1.612176E+05 -1.207241E+04 -3.679965E+05  1.110161E+03  3.832061E+03
       310   2 -8.887644E+05 -1.416103E+05 -3.390611E+03 -3.512147E+05  2.460879E+03  1.615770E+03
       310   3 -8.452204E+05 -1.331060E+05  4.946739E+03 -3.471499E+05  3.811364E+03 -5.999466E+02
       310   4 -8.727689E+05 -1.432495E+05 -7.757556E+02 -3.546744E+05 -1.140342E+03  2.988752E+03
       310   5 -8.782733E+05 -1.377000E+05 -9.168636E+02 -3.483146E+05  2.108435E+02  7.726439E+02
       310   6 -8.727692E+05 -1.432539E+05 -1.402989E+03 -3.546726E+05  1.561762E+03 -1.442892E+03
       310   7 -8.242375E+05 -1.252812E+05  1.052083E+04 -3.413512E+05 -3.391049E+03  2.145366E+03
       310   8 -8.677819E+05 -1.337896E+05  1.556907E+03 -3.454144E+05 -2.039240E+03 -7.050031E+01
       310   9 -9.003172E+05 -1.534017E+05 -7.752748E+03 -3.621950E+05 -6.877320E+02 -2.285797E+03
       310  10 -9.212976E+05 -1.612176E+05 -1.207244E+04 -3.679965E+05  1.687922E-08  8.223323E-09
       310  11 -8.887644E+05 -1.416103E+05 -3.390628E+03 -3.512147E+05  8.368738E-09  5.194615E-09
       310  12 -8.452205E+05 -1.331060E+05  4.946711E+03 -3.471499E+05 -1.052779E-08 -4.167496E-09
       310  13 -8.727689E+05 -1.432495E+05 -7.757748E+02 -3.546744E+05  3.459093E-09  1.713103E-09
       310  14 -8.782733E+05 -1.377000E+05 -9.168648E+02 -3.483146E+05  8.560815E-09  5.398385E-09
       310  15 -8.727692E+05 -1.432539E+05 -1.402998E+03 -3.546726E+05  3.101790E-09  2.035745E-09
       310  16 -8.242375E+05 -1.252812E+05  1.052080E+04 -3.413512E+05 -1.025732E-08 -4.404827E-09
       310  17 -8.677819E+05 -1.337896E+05  1.556899E+03 -3.454144E+05  7.909397E-09  4.824139E-09
       310  18 -9.003173E+05 -1.534017E+05 -7.752759E+03 -3.621950E+05  1.733614E-08  8.644744E-09
       310  19 -9.212976E+05 -1.612176E+05 -1.207241E+04 -3.679965E+05 -1.110161E+03 -3.832061E+03
       310  20 -8.887644E+05 -1.416103E+05 -3.390611E+03 -3.512147E+05 -2.460879E+03 -1.615770E+03
       310  21 -8.452204E+05 -1.331060E+05  4.946739E+03 -3.471499E+05 -3.811364E+03  5.999466E+02
       310  22 -8.727689E+05 -1.432495E+05 -7.757556E+02 -3.546744E+05  1.140342E+03 -2.988752E+03
       310  23 -8.782733E+05 -1.377000E+05 -9.168636E+02 -3.483146E+05 -2.108435E+02 -7.726439E+02
       310  24 -8.727692E+05 -1.432539E+05 -1.402989E+03 -3.546726E+05 -1.561762E+03  1.442892E+03
       310  25 -8.242375E+05 -1.252812E+05  1.052083E+04 -3.413512E+05  3.391049E+03 -2.145366E+03
       310  26 -8.677819E+05 -1.337896E+05  1.556907E+03 -3.454144E+05  2.039240E+03  7.050031E+01
       310  27 -9.003172E+05 -1.534017E+05 -7.752748E+03 -3.621950E+05  6.877320E+02  2.285797E+03
       311   1 -8.147236E+05 -1.217718E+05  1.199131E+04 -3.388660E+05  4.602282E+03 -1.890099E+03
       311   2 -7.821575E+05 -1.021495E+05  1.944624E+04 -3.220481E+05  7.050067E+03 -3.686533E+03
       311   3 -7.388460E+05 -9.391132E+04  2.566263E+04 -3.179023E+05  9.489544E+03 -5.459646E+03
       311   4 -8.728179E+05 -1.432331E+05 -1.801503E+03 -3.546945E+05  2.347901E+03 -2.734875E+03
       311   5 -8.782076E+05 -1.376695E+05 -3.157191E+03 -3.483098E+05  4.817267E+03 -4.523377E+03
       311   6 -8.728576E+05 -1.434945E+05 -5.768665E+03 -3.545979E+05  7.278229E+03 -6.288592E+03
       311   7 -9.309085E+05 -1.646939E+05 -1.559445E+04 -3.705216E+05  9.376239E+01 -3.579561E+03
       311   8 -9.742485E+05 -1.731888E+05 -2.576125E+04 -3.745678E+05  2.584842E+03 -5.360081E+03
       311   9 -1.006852E+06 -1.930768E+05 -3.720139E+04 -3.912864E+05  5.067422E+03 -7.117349E+03
       311  10 -8.147237E+05 -1.217718E+05  1.199126E+04 -3.388660E+05 -1.266693E-09 -1.538770E-09
       311  11 -7.821576E+05 -1.021495E+05  1.944612E+04 -3.220481E+05 -5.616426E-10 -9.108294E-10
       311  12 -7.388461E+05 -9.391137E+04  2.566240E+04 -3.179023E+05 -5.760033E-10 -6.823113E-10
       311  13 -8.728179E+05 -1.432331E+05 -1.801528E+03 -3.546945E+05 -9.858616E-11 -1.198319E-10
       311  14 -8.782076E+05 -1.376695E+05 -3.157273E+03 -3.483098E+05  2.326882E-10 -7.410585E-10
       311  15 -8.728577E+05 -1.434946E+05 -5.768839E+03 -3.545978E+05  4.325322E-11 -6.862134E-10
       311  16 -9.309085E+05 -1.646940E+05 -1.559447E+04 -3.705216E+05  1.022377E-09  1.167536E-09
       311  17 -9.742485E+05 -1.731888E+05 -2.576132E+04 -3.745678E+05  6.276858E-10 -3.382913E-10
       311  18 -1.006852E+06 -1.930768E+05 -3.720153E+04 -3.912864E+05  7.552986E-10 -2.782537E-10
       311  19 -8.147236E+05 -1.217718E+05  1.199131E+04 -3.388660E+05 -4.602282E+03  1.890099E+03
       311  20 -7.821575E+05 -1.021495E+05  1.944624E+04 -3.220481E+05 -7.050067E+03  3.686533E+03
       311  21 -7.388460E+05 -9.391132E+04  2.566263E+04 -3.179023E+05 -9.489544E+03  5.459646E+03
       311  22 -8.728179E+05 -1.432331E+05 -1.801503E+03 -3.546945E+05 -2.347901E+03  2.734875E+03
       311  23 -8.782076E+05 -1.376695E+05 -3.157191E+03 -3.483098E+05 -4.817267E+03  4.523377E+03
       311  24 -8.728576E+05 -1.434945E+05 -5.768665E+03 -3.545979E+05 -7.278229E+03  6.288592E+03
       311  25 -9.309085E+05 -1.646939E+05 -1.559445E+04 -3.705216E+05 -9.376239E+01  3.579561E+03
       311  26 -9.742485E+05 -1.731888E+05 -2.576125E+04 -3.745678E+05 -2.584842E+03  5.360081E+03
       311  27 -1.006852E+06 -1.930768E+05 -3.720139E+04 -3.912864E+05 -5.067422E+03  7.117349E+03
       312   1 -7.081446E+05 -8.278515E+04  3.122559E+04 -3.106815E+05  1.121950E+04 -6.432589E+03
       312   2 -6.759307E+05 -6.227623E+04  3.394297E+04 -2.923239E+05  1.858082E+04 -6.239667E+03
       312   3 -6.355858E+05 -5.819854E+04  3.035006E+04 -2.854153E+05  2.577238E+04 -5.591339E+03
       312   4 -8.732302E+05 -1.430099E+05 -7.598567E+03 -3.549360E+05  8.881986E+03 -7.308977E+03
       312   5 -8.776511E+05 -1.375489E+05 -1.371072E+04 -3.481645E+05  1.667020E+04 -6.956362E+03
       312   6 -8.740277E+05 -1.486055E+05 -2.647338E+04 -3.528428E+05  2.428820E+04 -6.148461E+03
       312   7 -1.038289E+06 -2.032328E+05 -4.642460E+04 -3.991799E+05  6.545145E+03 -8.185121E+03
       312   8 -1.079330E+06 -2.128182E+05 -6.136712E+04 -4.039883E+05  1.476027E+04 -7.672799E+03
       312   9 -1.112412E+06 -2.390073E+05 -8.330053E+04 -4.202461E+05  2.280465E+04 -6.705336E+03
       312  10 -7.081447E+05 -8.278523E+04  3.122527E+04 -3.106814E+05 -4.351909E-10 -7.315991E-10
       312  11 -6.759311E+05 -6.227636E+04  3.394224E+04 -2.923238E+05 -2.562701E-10 -2.449460E-10
       312  12 -6.355865E+05 -5.819876E+04  3.034875E+04 -2.854152E+05 -1.103566E-10 -1.448759E-10
       312  13 -8.732303E+05 -1.430099E+05 -7.598815E+03 -3.549360E+05  1.280565E-10 -3.920193E-10
       312  14 -8.776514E+05 -1.375490E+05 -1.371134E+04 -3.481644E+05  3.067473E-10 -1.137424E-10
       312  15 -8.740283E+05 -1.486057E+05 -2.647456E+04 -3.528427E+05 -8.940072E-11 -9.688326E-11
       312  16 -1.038289E+06 -2.032329E+05 -4.642480E+04 -3.991799E+05  4.346151E-10 -3.110315E-10
       312  17 -1.079331E+06 -2.128183E+05 -6.136764E+04 -4.039882E+05 -1.829393E-10 -2.627024E-10
       312  18 -1.112412E+06 -2.390074E+05 -8.330159E+04 -4.202460E+05 -2.077688E-11 -5.769422E-11
       312  19 -7.081446E+05 -8.278515E+04  3.122559E+04 -3.106815E+05 -1.121950E+04  6.432589E+03
       312  20 -6.759307E+05 -6.227623E+04  3.394297E+04 -2.923239E+05 -1.858082E+04  6.239667E+03
       312  21 -6.355858E+05 -5.819854E+04  3.035006E+04 -2.854153E+05 -2.577238E+04  5.591339E+03
       312  22 -8.732302E+05 -1.430099E+05 -7.598567E+03 -3.549360E+05 -8.881986E+03  7.308977E+03
       312  23 -8.776511E+05 -1.375489E+05 -1.371072E+04 -3.481645E+05 -1.667020E+04  6.956362E+03
       312  24 -8.740277E+05 -1.486055E+05 -2.647338E+04 -3.528428E+05 -2.428820E+04  6.148461E+03
       312  25 -1.038289E+06 -2.032328E+05 -4.642460E+04 -3.991799E+05 -6.545145E+03  8.185121E+03
       312  26 -1.079330E+06 -2.128182E+05 -6.136712E+04 -4.039883E+05 -1.476027E+04  7.672799E+03
       312  27 -1.112412E+06 -2.390073E+05 -8.330053E+04 -4.202461E+05 -2.280465E+04  6.705336E+03
       313   1 -5.974304E+05 -4.973531E+04  3.007127E+04 -2.967421E+05  3.369866E+04 -5.139263E+03
       313   2 -5.766199E+05 -1.049207E+04  1.415479E+04 -2.463309E+05  5.618026E+04  3.708211E+03
       313   3 -5.845842E+05 -7.859769E+04 -4.511876E+04 -1.828652E+05  7.491395E+04  2.254988E+04
       313   4 -8.784032E+05 -1.392328E+05 -3.359567E+04 -3.586423E+05  2.931980E+04 -6.781368E+03
       313   5 -8.705573E+05 -1.375682E+05 -5.986551E+04 -3.453119E+05  6.121041E+04  5.592927E+03
       313   6 -8.933749E+05 -2.451547E+05 -1.369704E+05 -3.189253E+05  8.935096E+04  2.796038E+04
       313   7 -1.159300E+06 -2.287300E+05 -9.726813E+04 -4.205197E+05  2.494307E+04 -8.422941E+03
       313   8 -1.164407E+06 -2.646290E+05 -1.338923E+05 -4.442469E+05  6.623795E+04  7.476302E+03
       313   9 -1.202062E+06 -4.116689E+05 -2.288289E+05 -4.549124E+05  1.037800E+05  3.336491E+04
       313  10 -5.974316E+05 -4.973564E+04  3.006909E+04 -2.967420E+05  4.636333E-10 -6.312179E-11
       313  11 -5.766233E+05 -1.049293E+04  1.414882E+04 -2.463310E+05  1.590245E-10 -6.762990E-11
       313  12 -5.845904E+05 -7.859974E+04 -4.513028E+04 -1.828666E+05  8.736175E-11  4.497193E-12
       313  13 -8.784041E+05 -1.392331E+05 -3.359737E+04 -3.586422E+05  2.613950E-11 -5.445020E-11
       313  14 -8.705613E+05 -1.375692E+05 -5.987262E+04 -3.453122E+05  4.702926E-10 -1.138996E-10
       313  15 -8.933837E+05 -2.451577E+05 -1.369869E+05 -3.189273E+05  2.925154E-11 -2.397172E-11
       313  16 -1.159300E+06 -2.287303E+05 -9.726944E+04 -4.205195E+05 -6.653633E-10 -1.519250E-10
       313  17 -1.164412E+06 -2.646302E+05 -1.339007E+05 -4.442473E+05 -1.976239E-10 -1.062216E-11
       313  18 -1.202074E+06 -4.116730E+05 -2.288513E+05 -4.549152E+05 -4.154142E-10 -2.883837E-11
       313  19 -5.974304E+05 -4.973531E+04  3.007127E+04 -2.967421E+05 -3.369866E+04  5.139263E+03
       313  20 -5.766199E+05 -1.049207E+04  1.415479E+04 -2.463309E+05 -5.618026E+04 -3.708211E+03
       313  21 -5.845842E+05 -7.859769E+04 -4.511876E+04 -1.828652E+05 -7.491395E+04 -2.254988E+04
       313  22 -8.784032E+05 -1.392328E+05 -3.359567E+04 -3.586423E+05 -2.931980E+04  6.781368E+03
       313  23 -8.705573E+05 -1.375682E+05 -5.986551E+04 -3.453119E+05 -6.121041E+04 -5.592927E+03
       313  24 -8.933749E+05 -2.451547E+05 -1.369704E+05 -3.189253E+05 -8.935096E+04 -2.796038E+04
       313  25 -1.159300E+06 -2.287300E+05 -9.726813E+04 -4.205197E+05 -2.494307E+04  8.422941E+03
       313  26 -1.164407E+06 -2.646290E+05 -1.338923E+05 -4.442469E+05 -6.623795E+04 -7.476302E+03
       313  27 -1.202062E+06 -4.116689E+05 -2.288289E+05 -4.549124E+05 -1.037800E+05 -3.336491E+04
       314   1 -1.721273E+05 -2.704627E+04  2.546874E+04  4.862218E+04  1.510082E+05  1.454084E+04
       314   2 -9.537379E+04 -2.295970E+05 -8.143783E+04 -8.857985E+03  1.104483E+05  4.544514E+04
       314   3  3.982961E+04 -2.210268E+05 -1.090750E+05 -1.048168E+05  6.990704E+04  4.791821E+04
       314   4  9.068555E+05  2.403792E+05  2.856199E+05 -7.161126E+04  1.967706E+05  1.455266E+04
       314   5  8.752795E+05  6.939603E+03  1.313341E+05 -5.228756E+04  1.274487E+05  4.544336E+04
       314   6  9.070195E+05 -1.059230E+04  7.617919E+04 -7.143293E+04  5.815639E+04  4.791279E+04
       314   7  1.986938E+06  5.077755E+05  5.457037E+05 -1.920546E+05  2.426120E+05  1.454677E+04
       314   8  1.846819E+06  2.434206E+05  3.440510E+05 -9.578598E+04  1.444752E+05  4.543921E+04
       314   9  1.774919E+06  1.997974E+05  2.613910E+05 -3.800180E+04  4.638952E+04  4.790611E+04
       314  10 -1.721518E+05 -2.705262E+04  2.542548E+04  4.862041E+04 -4.770964E-10  2.484717E-10
       314  11 -9.538744E+04 -2.296025E+05 -8.146464E+04 -8.862028E+03 -2.841908E-10 -5.194377E-10
       314  12  3.982375E+04 -2.210306E+05 -1.090885E+05 -1.048195E+05  7.343045E-10 -2.013566E-10
       314  13  9.068139E+05  2.403686E+05  2.855469E+05 -7.161356E+04 -1.270643E-11  7.650459E-11
       314  14  8.752616E+05  6.933032E+03  1.312998E+05 -5.229222E+04 -2.752482E-10 -1.038688E-09
       314  15  9.070152E+05 -1.059567E+04  7.616852E+04 -7.143518E+04 -3.159932E-10 -1.521537E-10
       314  16  1.986875E+06  5.077595E+05  5.455930E+05 -1.920574E+05  6.125546E-10 -9.612037E-11
       314  17  1.846796E+06  2.434128E+05  3.440080E+05 -9.579126E+04 -3.354062E-12 -1.917468E-10
       314  18  1.774916E+06  1.997944E+05  2.613827E+05 -3.800359E+04 -4.980940E-10 -1.795979E-10
       314  19 -1.721273E+05 -2.704627E+04  2.546874E+04  4.862218E+04 -1.510082E+05 -1.454084E+04
       314  20 -9.537379E+04 -2.295970E+05 -8.143783E+04 -8.857985E+03 -1.104483E+05 -4.544514E+04
       314  21  3.982961E+04 -2.210268E+05 -1.090750E+05 -1.048168E+05 -6.990704E+04 -4.791821E+04
       314  22  9.068555E+05  2.403792E+05  2.856199E+05 -7.161126E+04 -1.967706E+05 -1.455266E+04
       314  23  8.752795E+05  6.939603E+03  1.313341E+05 -5.228756E+04 -1.274487E+05 -4.544336E+04
       314  24  9.070195E+05 -1.059230E+04  7.617919E+04 -7.143293E+04 -5.815639E+04 -4.791279E+04
       314  25  1.986938E+06  5.077755E+05  5.457037E+05 -1.920546E+05 -2.426120E+05 -1.454677E+04
       314  26  1.846819E+06  2.434206E+05  3.440510E+05 -9.578598E+04 -1.444752E+05 -4.543921E+04
       314  27  1.774919E+06  1.997974E+05  2.613910E+05 -3.800180E+04 -4.638952E+04 -4.790611E+04
       315   1  1.089176E+05 -1.793114E+05 -1.083141E+05 -6.789074E+04  5.143295E+04  4.222117E+04
       315   2  2.111717E+05 -1.652670E+05 -1.124888E+05 -5.123800E+04  3.634322E+04  3.765280E+04
       315   3  3.182560E+05 -1.403923E+05 -1.040968E+05 -7.385585E+04  2.124728E+04  3.177682E+04
       315   4  8.940819E+05  1.133318E+04  6.016593E+04 -7.165431E+04  4.752970E+04  4.221605E+04
       315   5  8.915866E+05 -2.051656E+02  3.280206E+04 -5.202052E+04  3.110236E+04  3.764957E+04
       315   6  8.941367E+05 -6.885739E+02  1.892076E+04 -7.165420E+04  1.467131E+04  3.177603E+04
       315   7  1.679825E+06  2.019374E+05  2.286100E+05 -7.542270E+04  4.362156E+04  4.221099E+04
       315   8  1.572437E+06  1.648265E+05  1.780662E+05 -5.280390E+04  2.585582E+04  3.764635E+04
       315   9  1.470329E+06  1.389936E+05  1.419193E+05 -6.945044E+04  8.089324E+03  3.177520E+04
       315  10  1.089143E+05 -1.793140E+05 -1.083224E+05 -6.789249E+04 -3.324025E-10 -4.413007E-10
       315  11  2.111699E+05 -1.652688E+05 -1.124939E+05 -5.123910E+04 -2.634025E-10  1.373174E-10
       315  12  3.182552E+05 -1.403935E+05 -1.040995E+05 -7.385640E+04 -8.195136E-11  3.432518E-10
       315  13  8.940790E+05  1.133066E+04  6.015834E+04 -7.165593E+04 -2.524113E-10 -3.079319E-10
       315  14  8.915852E+05 -2.069477E+02  3.279757E+04 -5.202146E+04  3.614527E-10 -1.778307E-10
       315  15  8.941362E+05 -6.897163E+02  1.891845E+04 -7.165458E+04 -6.490921E-10  1.848589E-10
       315  16  1.679823E+06  2.019350E+05  2.286031E+05 -7.542418E+04  5.095457E-10 -7.567683E-11
       315  17  1.572436E+06  1.648248E+05  1.780623E+05 -5.280468E+04 -4.522822E-10 -3.769452E-10
       315  18  1.470329E+06  1.389925E+05  1.419173E+05 -6.945065E+04  4.131631E-10 -5.420712E-11
       315  19  1.089176E+05 -1.793114E+05 -1.083141E+05 -6.789074E+04 -5.143295E+04 -4.222117E+04
       315  20  2.111717E+05 -1.652670E+05 -1.124888E+05 -5.123800E+04 -3.634322E+04 -3.765280E+04
       315  21  3.182560E+05 -1.403923E+05 -1.040968E+05 -7.385585E+04 -2.124728E+04 -3.177682E+04
       315  22  8.940819E+05  1.133318E+04  6.016593E+04 -7.165431E+04 -4.752970E+04 -4.221605E+04
       315  23  8.915866E+05 -2.051656E+02  3.280206E+04 -5.202052E+04 -3.110236E+04 -3.764957E+04
       315  24  8.941367E+05 -6.885739E+02  1.892076E+04 -7.165420E+04 -1.467131E+04 -3.177603E+04
       315  25  1.679825E+06  2.019374E+05  2.286100E+05 -7.542270E+04 -4.362156E+04 -4.221099E+04
       315  26  1.572437E+06  1.648265E+05  1.780662E+05 -5.280390E+04 -2.585582E+04 -3.764635E+04
       315  27  1.470329E+06  1.389936E+05  1.419193E+05 -6.945044E+04 -8.089324E+03 -3.177520E+04
       316   1  3.980796E+05 -1.196254E+05 -9.081218E+04 -7.187822E+04  1.792405E+04  2.803261E+04
       316   2  5.017809E+05 -9.494228E+04 -7.507547E+04 -5.226843E+04  1.388165E+04  2.185306E+04
       316   3  6.061873E+05 -6.965822E+04 -5.655393E+04 -7.176263E+04  9.835712E+03  1.562111E+04
       316   4  8.931900E+05  3.851055E+02  1.447728E+04 -7.161766E+04  1.172315E+04  2.803278E+04
       316   5  8.928525E+05 -1.183117E+02  8.272244E+03 -5.206657E+04  7.624386E+03  2.185454E+04
       316   6  8.932169E+05 -1.140241E+01  4.888925E+03 -7.161799E+04  3.522727E+03  1.562395E+04
       316   7  1.388531E+06  1.203797E+05  1.197528E+05 -7.135687E+04  5.517390E+03  2.803295E+04
       316   8  1.284068E+06  9.469573E+04  9.161130E+04 -5.186457E+04  1.363237E+03  2.185601E+04
       316   9  1.180324E+06  6.963006E+04  6.632715E+04 -7.147328E+04 -2.793133E+03  1.562678E+04
       316  10  3.980790E+05 -1.196263E+05 -9.081426E+04 -7.187863E+04  1.597398E-10  1.438859E-10
       316  11  5.017806E+05 -9.494284E+04 -7.507673E+04 -5.226867E+04 -1.174087E-10  7.568940E-11
       316  12  6.061871E+05 -6.965851E+04 -5.655457E+04 -7.176275E+04 -4.789735E-11  3.719400E-10
       316  13  8.931897E+05  3.842244E+02  1.447554E+04 -7.161793E+04 -2.608962E-10  2.656755E-10
       316  14  8.928524E+05 -1.188404E+02  8.271237E+03 -5.206670E+04  1.055991E-09  1.195639E-10
       316  15  8.932169E+05 -1.166798E+01  4.888442E+03 -7.161804E+04 -4.053268E-10 -5.425304E-12
       316  16  1.388531E+06  1.203788E+05  1.197513E+05 -7.135699E+04  1.705923E-10  2.861558E-10
       316  17  1.284068E+06  9.469521E+04  9.161040E+04 -5.186459E+04  4.784181E-10  4.581981E-10
       316  18  1.180324E+06  6.962979E+04  6.632667E+04 -7.147325E+04 -3.293642E-10  4.826074E-10
       316  19  3.980796E+05 -1.196254E+05 -9.081218E+04 -7.187822E+04 -1.792405E+04 -2.803261E+04
       316  20  5.017809E+05 -9.494228E+04 -7.507547E+04 -5.226843E+04 -1.388165E+04 -2.185306E+04
       316  21  6.061873E+05 -6.965822E+04 -5.655393E+04 -7.176263E+04 -9.835712E+03 -1.562111E+04
       316  22  8.931900E+05  3.851055E+02  1.447728E+04 -7.161766E+04 -1.172315E+04 -2.803278E+04
       316  23  8.928525E+05 -1.183117E+02  8.272244E+03 -5.206657E+04 -7.624386E+03 -2.185454E+04
       316  24  8.932169E+05 -1.140241E+01  4.888925E+03 -7.161799E+04 -3.522727E+03 -1.562395E+04
       316  25  1.388531E+06  1.203797E+05  1.197528E+05 -7.135687E+04 -5.517390E+03 -2.803295E+04
       316  26  1.284068E+06  9.469573E+04  9.161130E+04 -5.186457E+04 -1.363237E+03 -2.185601E+04
       316  27  1.180324E+06  6.963006E+04  6.632715E+04 -7.147328E+04  2.793133E+03 -1.562678E+04
       317   1  6.864772E+05 -5.000094E+04 -3.992680E+04 -7.165871E+04  9.024486E+03  1.198292E+04
       317   2  7.901922E+05 -2.492027E+04 -1.943394E+04 -5.213419E+04  7.797844E+03  5.747118E+03
       317   3  8.940519E+05  2.323080E+02  1.863361E+03 -7.160537E+04  6.570256E+03 -4.890765E+02
       317   4  8.930996E+05  3.578395E+01  3.816043E+03 -7.159411E+04  2.733359E+03  1.198625E+04
       317   5  8.930358E+05  1.149165E+01  2.478094E+03 -5.209647E+04  1.505481E+03  5.750781E+03
       317   6  8.931065E+05  5.985411E+01  1.945410E+03 -7.159414E+04  2.768556E+02 -4.850483E+02
       317   7  1.099762E+06  5.006977E+04  4.755661E+04 -7.152949E+04 -3.559829E+03  1.198959E+04
       317   8  9.958895E+05  2.494259E+04  2.438967E+04 -5.205875E+04 -4.787908E+03  5.754443E+03
       317   9  8.921612E+05 -1.125785E+02  2.027607E+03 -7.158291E+04 -6.016536E+03 -4.810203E+02
       317  10  6.864771E+05 -5.000111E+04 -3.992722E+04 -7.165880E+04 -2.833477E-10  8.658197E-12
       317  11  7.901922E+05 -2.492032E+04 -1.943412E+04 -5.213423E+04 -5.177496E-10  3.343530E-10
       317  12  8.940518E+05  2.322962E+02  1.863280E+03 -7.160537E+04 -1.290348E-09  5.374690E-10
       317  13  8.930996E+05  3.562760E+01  3.815759E+03 -7.159414E+04 -5.665237E-10  4.289578E-10
       317  14  8.930358E+05  1.145551E+01  2.478028E+03 -5.209648E+04  4.261397E-10 -5.607258E-10
       317  15  8.931065E+05  5.985383E+01  1.945409E+03 -7.159414E+04 -3.427472E-10 -2.145149E-10
       317  16  1.099762E+06  5.006961E+04  4.755632E+04 -7.152946E+04  5.169994E-11 -6.800439E-10
       317  17  9.958895E+05  2.494255E+04  2.438957E+04 -5.205872E+04 -4.809940E-12 -2.212565E-10
       317  18  8.921612E+05 -1.125885E+02  2.027539E+03 -7.158291E+04  6.206668E-10 -5.413758E-10
       317  19  6.864772E+05 -5.000094E+04 -3.992680E+04 -7.165871E+04 -9.024486E+03 -1.198292E+04
       317  20  7.901922E+05 -2.492027E+04 -1.943394E+04 -5.213419E+04 -7.797844E+03 -5.747118E+03
       317  21  8.940519E+05  2.323080E+02  1.863361E+03 -7.160537E+04 -6.570256E+03  4.890765E+02
       317  22  8.930996E+05  3.578395E+01  3.816043E+03 -7.159411E+04 -2.733359E+03 -1.198625E+04
       317  23  8.930358E+05  1.149165E+01  2.478094E+03 -5.209647E+04 -1.505481E+03 -5.750781E+03
       317  24  8.931065E+05  5.985411E+01  1.945410E+03 -7.159414E+04 -2.768556E+02  4.850483E+02
       317  25  1.099762E+06  5.006977E+04  4.755661E+04 -7.152949E+04  3.559829E+03 -1.198959E+04
       317  26  9.958895E+05  2.494259E+04  2.438967E+04 -5.205875E+04  4.787908E+03 -5.754443E+03
       317  27  8.921612E+05 -1.125785E+02  2.027607E+03 -7.158291E+04  6.016536E+03  4.810203E+02
       318   1  9.743845E+05  1.981774E+04  1.950895E+04 -7.163571E+04  6.218681E+03 -4.118708E+03
       318   2  1.078168E+06  4.488008E+04  4.172428E+04 -5.209874E+04  5.086612E+03 -1.035577E+04
       318   3  1.182090E+06  7.000839E+04  6.468196E+04 -7.157534E+04  3.955723E+03 -1.659432E+04
       318   4  8.931042E+05  5.901164E+01  1.910455E+03 -7.159836E+04 -7.612099E+01 -4.114765E+03
       318   5  8.930329E+05  6.658860E+00  2.286114E+03 -5.209120E+04 -1.209849E+03 -1.035247E+04
       318   6  8.930923E+05  2.161115E+01  3.406138E+03 -7.159834E+04 -2.342212E+03 -1.659162E+04
       318   7  8.118302E+05 -1.970013E+04 -1.568828E+04 -7.156101E+04 -6.370111E+03 -4.110821E+03
       318   8  7.079301E+05 -4.486897E+04 -3.715387E+04 -5.208367E+04 -7.504462E+03 -1.034917E+04
       318   9  6.041728E+05 -6.997055E+04 -5.787430E+04 -7.162131E+04 -8.637264E+03 -1.658892E+04
       318  10  9.743845E+05  1.981771E+04  1.950885E+04 -7.163569E+04 -2.712207E-10  1.435452E-10
       318  11  1.078168E+06  4.487996E+04  4.172403E+04 -5.209869E+04  1.352883E-11 -3.131549E-10
       318  12  1.182090E+06  7.000809E+04  6.468142E+04 -7.157529E+04 -3.839780E-10 -1.260960E-10
       318  13  8.931042E+05  5.899345E+01  1.910423E+03 -7.159836E+04 -5.916709E-10  8.701483E-10
       318  14  8.930329E+05  6.543333E+00  2.285910E+03 -5.209121E+04 -4.699861E-10  5.777648E-10
       318  15  8.930922E+05  2.131395E+01  3.405610E+03 -7.159837E+04  4.728823E-11 -8.963054E-10
       318  16  8.118301E+05 -1.970016E+04 -1.568839E+04 -7.156103E+04 -1.808876E-10  2.329854E-10
       318  17  7.079300E+05 -4.486910E+04 -3.715418E+04 -5.208373E+04  7.967683E-12  7.759681E-10
       318  18  6.041726E+05 -6.997086E+04 -5.787496E+04 -7.162143E+04 -1.744346E-11 -5.346807E-10
       318  19  9.743845E+05  1.981774E+04  1.950895E+04 -7.163571E+04 -6.218681E+03  4.118708E+03
       318  20  1.078168E+06  4.488008E+04  4.172428E+04 -5.209874E+04 -5.086612E+03  1.035577E+04
       318  21  1.182090E+06  7.000839E+04  6.468196E+04 -7.157534E+04 -3.955723E+03  1.659432E+04
       318  22  8.931042E+05  5.901164E+01  1.910455E+03 -7.159836E+04  7.612099E+01  4.114765E+03
       318  23  8.930329E+05  6.658860E+00  2.286114E+03 -5.209120E+04  1.209849E+03  1.035247E+04
       318  24  8.930923E+05  2.161115E+01  3.406138E+03 -7.159834E+04  2.342212E+03  1.659162E+04
       318  25  8.118302E+05 -1.970013E+04 -1.568828E+04 -7.156101E+04  6.370111E+03  4.110821E+03
       318  26  7.079301E+05 -4.486897E+04 -3.715387E+04 -5.208367E+04  7.504462E+03  1.034917E+04
       318  27  6.041728E+05 -6.997055E+04 -5.787430E+04 -7.162131E+04  8.637264E+03  1.658892E+04
       319   1  1.262719E+06  8.959023E+04  8.331882E+04 -7.152960E+04  3.280078E+03 -2.023514E+04
       319   2  1.366639E+06  1.146912E+05  1.081842E+05 -5.187824E+04 -3.782574E+02 -2.647088E+04
       319   3  1.471227E+06  1.403348E+05  1.355716E+05 -7.137435E+04 -4.033806E+03 -3.265170E+04
       319   4  8.931954E+05 -2.191016E+01  4.329373E+03 -7.162838E+04 -3.043687E+03 -2.023311E+04
       319   5  8.928558E+05 -1.277320E+02  7.262862E+03 -5.205361E+04 -6.644595E+03 -2.647049E+04
       319   6  8.931636E+05  2.998006E+02  1.268000E+04 -7.162813E+04 -1.024212E+04 -3.265289E+04
       319   7  5.237997E+05 -8.964293E+04 -7.466784E+04 -7.172707E+04 -9.363748E+03 -2.023108E+04
       319   8  4.192837E+05 -1.149613E+05 -9.367123E+04 -5.222881E+04 -1.290623E+04 -2.647010E+04
       319   9  3.154146E+05 -1.397569E+05 -1.102306E+05 -7.188164E+04 -1.644475E+04 -3.265407E+04
       319  10  1.262719E+06  8.958978E+04  8.331803E+04 -7.152954E+04 -1.529358E-09  4.444511E-10
       319  11  1.366639E+06  1.146905E+05  1.081829E+05 -5.187825E+04 -4.494094E-10  1.069549E-10
       319  12  1.471226E+06  1.403337E+05  1.355695E+05 -7.137445E+04  2.109356E-11  3.247891E-10
       319  13  8.931953E+05 -2.235244E+01  4.328586E+03 -7.162843E+04 -4.775371E-10 -4.635779E-10
       319  14  8.928556E+05 -1.284966E+02  7.261462E+03 -5.205375E+04  5.440739E-10 -1.114076E-10
       319  15  8.931632E+05  2.986271E+02  1.267780E+04 -7.162840E+04  2.193983E-10  4.289245E-11
       319  16  5.237995E+05 -8.964339E+04 -7.466877E+04 -7.172723E+04  8.439339E-10 -1.910248E-10
       319  17  4.192834E+05 -1.149621E+05 -9.367286E+04 -5.222909E+04 -2.326410E-10 -1.817764E-10
       319  18  3.154140E+05 -1.397581E+05 -1.102331E+05 -7.188207E+04 -1.507508E-10 -2.915400E-10
       319  19  1.262719E+06  8.959023E+04  8.331882E+04 -7.152960E+04 -3.280078E+03  2.023514E+04
       319  20  1.366639E+06  1.146912E+05  1.081842E+05 -5.187824E+04  3.782574E+02  2.647088E+04
       319  21  1.471227E+06  1.403348E+05  1.355716E+05 -7.137435E+04  4.033806E+03  3.265170E+04
       319  22  8.931954E+05 -2.191016E+01  4.329373E+03 -7.162838E+04  3.043687E+03  2.023311E+04
       319  23  8.928558E+05 -1.277320E+02  7.262862E+03 -5.205361E+04  6.644595E+03  2.647049E+04
       319  24  8.931636E+05  2.998006E+02  1.268000E+04 -7.162813E+04  1.024212E+04  3.265289E+04
       319  25  5.237997E+05 -8.964293E+04 -7.466784E+04 -7.172707E+04  9.363748E+03  2.023108E+04
       319  26  4.192837E+05 -1.149613E+05 -9.367123E+04 -5.222881E+04  1.290623E+04  2.647010E+04
       319  27  3.154146E+05 -1.397569E+05 -1.102306E+05 -7.188164E+04  1.644475E+04  3.265407E+04
       320   1  1.553062E+06  1.591154E+05  1.572063E+05 -6.969985E+04 -6.208898E+03 -3.640790E+04
       320   2  1.655691E+06  1.849328E+05  1.916702E+05 -5.257932E+04 -2.201530E+04 -4.226351E+04
       320   3  1.763051E+06  2.206567E+05  2.389246E+05 -7.481494E+04 -3.782000E+04 -4.671484E+04
       320   4  8.939939E+05 -6.424024E+02  1.656425E+04 -7.167411E+04 -1.282290E+04 -3.641032E+04
       320   5  8.917241E+05 -2.331986E+02  2.869349E+04 -5.199565E+04 -2.719518E+04 -4.226835E+04
       320   6  8.939352E+05  9.842474E+03  5.263069E+04 -7.167590E+04 -4.156314E+04 -4.672139E+04
       320   7  2.353337E+05 -1.604284E+05 -1.241028E+05 -7.364621E+04 -1.942999E+04 -3.641270E+04
       320   8  1.283058E+05 -1.854372E+05 -1.343168E+05 -5.141271E+04 -3.236877E+04 -4.227321E+04
       320   9  2.552766E+04 -2.010211E+05 -1.337072E+05 -6.854133E+04 -4.530109E+04 -4.672799E+04
       320  10  1.553062E+06  1.591140E+05  1.572038E+05 -6.970004E+04  5.006226E-11 -3.509927E-11
       320  11  1.655690E+06  1.849308E+05  1.916659E+05 -5.258006E+04 -7.467202E-10 -3.555079E-10
       320  12  1.763049E+06  2.206540E+05  2.389179E+05 -7.481636E+04 -5.670240E-10 -4.538211E-12
       320  13  8.939934E+05 -6.438707E+02  1.656145E+04 -7.167448E+04 -1.682375E-11 -1.553570E-10
       320  14  8.917228E+05 -2.353162E+02  2.868874E+04 -5.199657E+04  8.256763E-11 -1.867444E-10
       320  15  8.939328E+05  9.839666E+03  5.262334E+04 -7.167746E+04 -3.555162E-12 -6.190957E-11
       320  16  2.353330E+05 -1.604300E+05 -1.241060E+05 -7.364678E+04  1.273252E-11 -4.474905E-10
       320  17  1.283042E+05 -1.854394E+05 -1.343221E+05 -5.141381E+04  3.078283E-10 -5.219382E-11
       320  18  2.552487E+04 -2.010240E+05 -1.337152E+05 -6.854304E+04  3.508286E-11  4.553815E-10
       320  19  1.553062E+06  1.591154E+05  1.572063E+05 -6.969985E+04  6.208898E+03  3.640790E+04
       320  20  1.655691E+06  1.849328E+05  1.916702E+05 -5.257932E+04  2.201530E+04  4.226351E+04
       320  21  1.763051E+06  2.206567E+05  2.389246E+05 -7.481494E+04  3.782000E+04  4.671484E+04
       320  22  8.939939E+05 -6.424024E+02  1.656425E+04 -7.167411E+04  1.282290E+04  3.641032E+04
       320  23  8.917241E+05 -2.331986E+02  2.869349E+04 -5.199565E+04  2.719518E+04  4.226835E+04
       320  24  8.939352E+05  9.842474E+03  5.263069E+04 -7.167590E+04  4.156314E+04  4.672139E+04
       320  25  2.353337E+05 -1.604284E+05 -1.241028E+05 -7.364621E+04  1.942999E+04  3.641270E+04
       320  26  1.283058E+05 -1.854372E+05 -1.343168E+05 -5.141271E+04  3.236877E+04  4.227321E+04
       320  27  2.552766E+04 -2.010211E+05 -1.337072E+05 -6.854133E+04  4.530109E+04  4.672799E+04
       321   1  1.856811E+06  2.213142E+05  2.696640E+05 -4.198586E+04 -3.865970E+04 -5.257067E+04
       321   2  1.932811E+06  2.628368E+05  3.458625E+05 -9.005438E+04 -1.302245E+05 -4.947259E+04
       321   3  2.069595E+06  4.984504E+05  5.301634E+05 -1.766442E+05 -2.218483E+05 -1.580866E+04
       321   4  9.052566E+05 -9.344135E+03  6.663790E+04 -7.143598E+04 -5.085770E+04 -5.258164E+04
       321   5  8.774265E+05  5.980461E+03  1.148650E+05 -5.228384E+04 -1.114622E+05 -4.947014E+04
       321   6  9.050995E+05  2.101933E+05  2.498281E+05 -7.164167E+04 -1.721060E+05 -1.578924E+04
       321   7 -4.544521E+04 -2.400581E+05 -1.364394E+05 -1.008405E+05 -6.303727E+04 -5.259146E+04
       321   8 -1.769144E+05 -2.509445E+05 -1.161979E+05 -1.457832E+04 -9.273126E+04 -4.946543E+04
       321   9 -2.581297E+05 -7.811951E+04 -3.058855E+04  3.316348E+04 -1.224561E+05 -1.575304E+04
       321  10  1.856808E+06  2.213108E+05  2.696560E+05 -4.198749E+04  2.967335E-10  1.290124E-10
       321  11  1.932792E+06  2.628297E+05  3.458261E+05 -9.005956E+04 -1.172145E-11  1.005398E-10
       321  12  2.069542E+06  4.984370E+05  5.300707E+05 -1.766470E+05  9.651077E-10  5.678642E-10
       321  13  9.052531E+05 -9.347798E+03  6.662785E+04 -7.143813E+04 -3.632910E-10 -1.035642E-09
       321  14  8.774125E+05  5.974502E+03  1.148370E+05 -5.228828E+04 -5.380414E-10  1.271676E-10
       321  15  9.050676E+05  2.101851E+05  2.497720E+05 -7.164386E+04 -4.733981E-10 -4.875150E-10
       321  16 -4.545022E+04 -2.400621E+05 -1.364521E+05 -1.008432E+05 -9.317422E-10  9.444188E-11
       321  17 -1.769243E+05 -2.509494E+05 -1.162187E+05 -1.458201E+04 -6.658775E-10 -5.923844E-10
       321  18 -2.581459E+05 -7.812380E+04 -3.061721E+04  3.316193E+04 -4.142782E-10  1.019029E-09
       321  19  1.856811E+06  2.213142E+05  2.696640E+05 -4.198586E+04  3.865970E+04  5.257067E+04
       321  20  1.932811E+06  2.628368E+05  3.458625E+05 -9.005438E+04  1.302245E+05  4.947259E+04
       321  21  2.069595E+06  4.984504E+05  5.301634E+05 -1.766442E+05  2.218483E+05  1.580866E+04
       321  22  9.052566E+05 -9.344135E+03  6.663790E+04 -7.143598E+04  5.085770E+04  5.258164E+04
       321  23  8.774265E+05  5.980461E+03  1.148650E+05 -5.228384E+04  1.114622E+05  4.947014E+04
       321  24  9.050995E+05  2.101933E+05  2.498281E+05 -7.164167E+04  1.721060E+05  1.578924E+04
       321  25 -4.544521E+04 -2.400581E+05 -1.364394E+05 -1.008405E+05  6.303727E+04  5.259146E+04
       321  26 -1.769144E+05 -2.509445E+05 -1.161979E+05 -1.457832E+04  9.273126E+04  4.946543E+04
       321  27 -2.581297E+05 -7.811951E+04 -3.058855E+04  3.316348E+04  1.224561E+05  1.575304E+04
       322   1  2.997991E+05  9.836789E+05  3.242591E+05 -2.482403E+05  5.616790E+03  1.347742E+05
       322   2  9.187400E+04  7.101435E+05  1.632690E+05 -1.538713E+05  1.417950E+04  7.259653E+04
       322   3  1.988362E+04  4.784457E+05  7.663688E+04 -1.534395E+05  4.803193E+03  1.042006E+04
       322   4  1.478551E+05  3.734304E+05  1.756027E+05 -1.731803E+05  5.659460E+03  1.171289E+05
       322   5  4.696676E+03  3.541295E+05  8.368646E+04 -1.263307E+05  1.418249E+04  7.308637E+04
       322   6 -5.623765E+03  3.735087E+05  5.359487E+04 -1.734009E+05  4.771322E+03  2.901951E+04
       322   7 -4.095174E+03 -2.364662E+05  2.692339E+04 -9.819399E+04  5.697897E+03  9.950079E+04
       322   8 -8.248646E+04 -1.764965E+03  4.096349E+03 -9.880590E+04  1.418553E+04  7.357593E+04
       322   9 -3.113019E+04  2.685836E+05  3.055370E+04 -1.933590E+05  4.738253E+03  4.761586E+04
       322  10  2.997942E+05  9.836594E+05  3.242249E+05 -2.482409E+05  2.233802E-10  4.818935E-11
       322  11  9.187237E+04  7.101378E+05  1.632587E+05 -1.538722E+05 -1.328073E-10 -1.248410E-09
       322  12  1.988356E+04  4.784455E+05  7.663663E+04 -1.534395E+05  5.120009E-10 -6.025904E-10
       322  13  1.478514E+05  3.734157E+05  1.755769E+05 -1.731808E+05  6.435428E-10  6.133747E-10
       322  14  4.695026E+03  3.541237E+05  8.367605E+04 -1.263315E+05 -1.064540E-09 -5.809472E-10
       322  15 -5.624015E+03  3.735078E+05  5.359324E+04 -1.734011E+05 -4.711789E-11  5.271467E-10
       322  16 -4.097868E+03 -2.364768E+05  2.690472E+04 -9.819445E+04 -1.261111E-10 -3.844910E-10
       322  17 -8.248813E+04 -1.770832E+03  4.085797E+03 -9.880674E+04  6.678957E-10 -1.963620E-09
       322  18 -3.113082E+04  2.685811E+05  3.054940E+04 -1.933592E+05 -8.414046E-10  8.334385E-10
       322  19  2.997991E+05  9.836789E+05  3.242591E+05 -2.482403E+05 -5.616790E+03 -1.347742E+05
       322  20  9.187400E+04  7.101435E+05  1.632690E+05 -1.538713E+05 -1.417950E+04 -7.259653E+04
       322  21  1.988362E+04  4.784457E+05  7.663688E+04 -1.534395E+05 -4.803193E+03 -1.042006E+04
       322  22  1.478551E+05  3.734304E+05  1.756027E+05 -1.731803E+05 -5.659460E+03 -1.171289E+05
       322  23  4.696676E+03  3.541295E+05  8.368646E+04 -1.263307E+05 -1.418249E+04 -7.308637E+04
       322  24 -5.623765E+03  3.735087E+05  5.359487E+04 -1.734009E+05 -4.771322E+03 -2.901951E+04
       322  25 -4.095174E+03 -2.364662E+05  2.692339E+04 -9.819399E+04 -5.697897E+03 -9.950079E+04
       322  26 -8.248646E+04 -1.764965E+03  4.096349E+03 -9.880590E+04 -1.418553E+04 -7.357593E+04
       322  27 -3.113019E+04  2.685836E+05  3.055370E+04 -1.933590E+05 -4.738253E+03 -4.761586E+04
       323   1 -1.482548E+04  2.749098E+05  2.701932E+04 -1.770409E+05 -5.419033E+03  6.962919E+03
       323   2 -8.316857E+04  1.976709E+04 -3.649243E+04 -1.258398E+05 -1.895884E+04 -1.074108E+04
       323   3 -1.387799E+05 -2.300947E+05 -8.537104E+04 -1.694275E+05 -3.168883E+04 -2.843152E+04
       323   4  7.239714E+03  3.661006E+05  4.625804E+04 -1.735385E+05 -5.442891E+03  2.105604E+04
       323   5  2.307978E+02  3.633937E+05  3.694257E+04 -1.261472E+05 -1.897873E+04  2.527836E+03
       323   6  6.097072E+03  3.660486E+05  4.283199E+04 -1.735401E+05 -3.170496E+04 -1.599375E+04
       323   7  2.930452E+04  4.572997E+05  6.549704E+04 -1.700355E+05 -5.466589E+03  3.515120E+04
       323   8  8.362256E+04  7.071319E+05  1.103714E+05 -1.264547E+05 -1.899862E+04  1.580399E+04
       323   9  1.509508E+05  9.625263E+05  1.710148E+05 -1.776565E+05 -3.172125E+04 -3.544192E+03
       323  10 -1.482552E+04  2.749098E+05  2.701918E+04 -1.770409E+05 -3.606872E-10 -5.109822E-10
       323  11 -8.316899E+04  1.976687E+04 -3.649332E+04 -1.258399E+05  4.280496E-10 -1.580313E-09
       323  12 -1.387812E+05 -2.300959E+05 -8.537445E+04 -1.694283E+05 -5.408450E-10 -8.353143E-10
       323  13  7.239563E+03  3.661001E+05  4.625715E+04 -1.735384E+05 -1.972350E-10  8.105709E-10
       323  14  2.304093E+02  3.633936E+05  3.694188E+04 -1.261471E+05  1.248835E-09 -7.771555E-10
       323  15  6.095924E+03  3.660481E+05  4.282962E+04 -1.735405E+05  1.065917E-09  3.287095E-10
       323  16  2.930416E+04  4.572984E+05  6.549467E+04 -1.700353E+05 -3.904242E-10  1.959251E-10
       323  17  8.362210E+04  7.071315E+05  1.103702E+05 -1.264545E+05 -1.285507E-10 -1.576275E-09
       323  18  1.509498E+05  9.625261E+05  1.710129E+05 -1.776566E+05 -6.872120E-10  1.080224E-09
       323  19 -1.482548E+04  2.749098E+05  2.701932E+04 -1.770409E+05  5.419033E+03 -6.962919E+03
       323  20 -8.316857E+04  1.976709E+04 -3.649243E+04 -1.258398E+05  1.895884E+04  1.074108E+04
       323  21 -1.387799E+05 -2.300947E+05 -8.537104E+04 -1.694275E+05  3.168883E+04  2.843152E+04
       323  22  7.239714E+03  3.661006E+05  4.625804E+04 -1.735385E+05  5.442891E+03 -2.105604E+04
       323  23  2.307978E+02  3.633937E+05  3.694257E+04 -1.261472E+05  1.897873E+04 -2.527836E+03
       323  24  6.097072E+03  3.660486E+05  4.283199E+04 -1.735401E+05  3.170496E+04  1.599375E+04
       323  25  2.930452E+04  4.572997E+05  6.549704E+04 -1.700355E+05  5.466589E+03 -3.515120E+04
       323  26  8.362256E+04  7.071319E+05  1.103714E+05 -1.264547E+05  1.899862E+04 -1.580399E+04
       323  27  1.509508E+05  9.625263E+05  1.710148E+05 -1.776565E+05  3.172125E+04  3.544192E+03
       324   1 -1.974092E+05 -4.203271E+05 -1.213626E+05 -1.898289E+05 -4.308484E+04 -4.531141E+04
       324   2 -2.507657E+05 -6.872549E+05 -1.562552E+05 -1.022193E+05 -4.718823E+04 -4.812558E+04
       324   3 -1.948307E+05 -9.262559E+05 -1.619553E+05 -1.079020E+05 -1.578301E+04 -5.091534E+04
       324   4 -4.944145E+03  3.723606E+05  4.848853E+04 -1.732331E+05 -4.311211E+04 -2.332020E+04
       324   5  3.782256E+03  3.552634E+05  7.343945E+04 -1.265393E+05 -4.716656E+04 -6.194670E+04
       324   6  1.279115E+05  3.721816E+05  1.524032E+05 -1.731136E+05 -1.573882E+04 -1.005512E+05
       324   7  1.874811E+05  1.165641E+06  2.183051E+05 -1.566156E+05 -4.313817E+04 -1.301294E+03
       324   8  2.582595E+05  1.398800E+06  3.030685E+05 -1.509002E+05 -4.714384E+04 -7.579070E+04
       324   9  4.505474E+05  1.672175E+06  4.666519E+05 -2.384617E+05 -1.568426E+04 -1.502905E+05
       324  10 -1.974117E+05 -4.203298E+05 -1.213700E+05 -1.898305E+05 -8.026956E-12 -1.588435E-10
       324  11 -2.507687E+05 -6.872580E+05 -1.562638E+05 -1.022211E+05  2.380247E-10 -6.999792E-10
       324  12 -1.948317E+05 -9.262587E+05 -1.619607E+05 -1.079027E+05  1.758987E-10 -2.839449E-10
       324  13 -4.946288E+03  3.723595E+05  4.848401E+04 -1.732340E+05 -7.636297E-10  6.848070E-10
       324  14  3.778837E+03  3.552587E+05  7.342806E+04 -1.265416E+05  6.760901E-10 -5.179020E-10
       324  15  1.279086E+05  3.721707E+05  1.523837E+05 -1.731149E+05  1.012654E-10  1.893181E-10
       324  16  1.874791E+05  1.165641E+06  2.183016E+05 -1.566157E+05  1.944877E-10 -1.642380E-10
       324  17  2.582555E+05  1.398793E+06  3.030535E+05 -1.509031E+05  7.599798E-10 -1.448673E-09
       324  18  4.505411E+05  1.672151E+06  4.666091E+05 -2.384636E+05  9.864158E-11  4.099614E-10
       324  19 -1.974092E+05 -4.203271E+05 -1.213626E+05 -1.898289E+05  4.308484E+04  4.531141E+04
       324  20 -2.507657E+05 -6.872549E+05 -1.562552E+05 -1.022193E+05  4.718823E+04  4.812558E+04
       324  21 -1.948307E+05 -9.262559E+05 -1.619553E+05 -1.079020E+05  1.578301E+04  5.091534E+04
       324  22 -4.944145E+03  3.723606E+05  4.848853E+04 -1.732331E+05  4.311211E+04  2.332020E+04
       324  23  3.782256E+03  3.552634E+05  7.343945E+04 -1.265393E+05  4.716656E+04  6.194670E+04
       324  24  1.279115E+05  3.721816E+05  1.524032E+05 -1.731136E+05  1.573882E+04  1.005512E+05
       324  25  1.874811E+05  1.165641E+06  2.183051E+05 -1.566156E+05  4.313817E+04  1.301294E+03
       324  26  2.582595E+05  1.398800E+06  3.030685E+05 -1.509002E+05  4.714384E+04  7.579070E+04
       324  27  4.505474E+05  1.672175E+06  4.666519E+05 -2.384617E+05  1.568426E+04  1.502905E+05
       325   1 -2.554769E+06 -9.919404E+05 -5.578152E+05 -9.990408E+05 -2.708598E+05 -8.688860E+04
       325   2 -2.481695E+06 -6.552662E+05 -3.250989E+05 -9.685967E+05 -1.715746E+05 -1.627019E+04
       325   3 -2.482857E+06 -5.379364E+05 -2.299537E+05 -9.071986E+05 -6.310680E+04  3.001307E+04
       325   4 -1.794464E+06 -5.574992E+05 -3.304555E+05 -6.388690E+05 -2.172877E+05 -6.682164E+04
       325   5 -1.742151E+06 -3.219477E+05 -1.492858E+05 -7.027814E+05 -1.495626E+05 -8.020705E+03
       325   6 -1.757706E+06 -2.993534E+05 -8.051153E+04 -7.357759E+05 -7.266886E+04  2.641821E+04
       325   7 -1.033543E+06 -1.227555E+05 -1.031385E+05 -2.782261E+05 -1.636449E+05 -4.669563E+04
       325   8 -1.002044E+06  1.149432E+04  2.649131E+04 -4.366481E+05 -1.275222E+05  2.448488E+02
       325   9 -1.032010E+06 -6.074961E+04  6.890583E+04 -5.641775E+05 -8.224309E+04  2.281988E+04
       325  10 -2.554850E+06 -9.919683E+05 -5.579680E+05 -9.990599E+05 -4.268800E-10 -1.803138E-10
       325  11 -2.481727E+06 -6.552744E+05 -3.251550E+05 -9.685990E+05 -7.554860E-10  5.364996E-10
       325  12 -2.482861E+06 -5.379385E+05 -2.299629E+05 -9.071971E+05  1.201971E-09  6.177787E-10
       325  13 -1.794516E+06 -5.575168E+05 -3.305529E+05 -6.388808E+05  3.600669E-10  6.439944E-10
       325  14 -1.742176E+06 -3.219538E+05 -1.493281E+05 -7.027823E+05 -4.488146E-10  4.604110E-11
       325  15 -1.757712E+06 -2.993555E+05 -8.052278E+04 -7.357744E+05 -2.657471E-10  4.413831E-10
       325  16 -1.033573E+06 -1.227651E+05 -1.031931E+05 -2.782323E+05  4.469445E-10  7.537837E-10
       325  17 -1.002061E+06  1.148994E+04  2.646070E+04 -4.366481E+05 -4.982858E-10  4.615561E-11
       325  18 -1.032018E+06 -6.075198E+04  6.889213E+04 -5.641760E+05 -1.754932E-09  7.796570E-10
       325  19 -2.554769E+06 -9.919404E+05 -5.578152E+05 -9.990408E+05  2.708598E+05  8.688860E+04
       325  20 -2.481695E+06 -6.552662E+05 -3.250989E+05 -9.685967E+05  1.715746E+05  1.627019E+04
       325  21 -2.482857E+06 -5.379364E+05 -2.299537E+05 -9.071986E+05  6.310680E+04 -3.001307E+04
       325  22 -1.794464E+06 -5.574992E+05 -3.304555E+05 -6.388690E+05  2.172877E+05  6.682164E+04
       325  23 -1.742151E+06 -3.219477E+05 -1.492858E+05 -7.027814E+05  1.495626E+05  8.020705E+03
       325  24 -1.757706E+06 -2.993534E+05 -8.051153E+04 -7.357759E+05  7.266886E+04 -2.641821E+04
       325  25 -1.033543E+06 -1.227555E+05 -1.031385E+05 -2.782261E+05  1.636449E+05  4.669563E+04
       325  26 -1.002044E+06  1.149432E+04  2.649131E+04 -4.366481E+05  1.275222E+05 -2.448488E+02
       325  27 -1.032010E+06 -6.074961E+04  6.890583E+04 -5.641775E+05  8.224309E+04 -2.281988E+04
       326   1 -2.391877E+06 -5.519402E+05 -1.992268E+05 -9.080197E+05 -5.756297E+04  2.749870E+04
       326   2 -2.316860E+06 -5.013447E+05 -1.510115E+05 -8.757980E+05 -3.772716E+04  3.044995E+04
       326   3 -2.230038E+06 -4.772268E+05 -1.188571E+05 -8.620129E+05 -1.733324E+04  3.191450E+04
       326   4 -1.747552E+06 -3.117628E+05 -6.192799E+04 -7.264739E+05 -6.175016E+04  2.592134E+04
       326   5 -1.752902E+06 -2.936510E+05 -3.267731E+04 -7.191442E+05 -4.382901E+04  2.815575E+04
       326   6 -1.746067E+06 -3.016285E+05 -1.795291E+04 -7.302523E+05 -2.535264E+04  2.890302E+04
       326   7 -1.102801E+06 -7.154813E+04  7.534742E+04 -5.447528E+05 -6.594203E+04  2.434217E+04
       326   8 -1.188620E+06 -8.593112E+04  8.563908E+04 -5.623592E+05 -4.993681E+04  2.585929E+04
       326   9 -1.261860E+06 -1.260136E+05  8.293788E+04 -5.983982E+05 -3.337873E+04  2.588910E+04
       326  10 -2.391881E+06 -5.519419E+05 -1.992345E+05 -9.080184E+05  1.104907E-09  5.156508E-10
       326  11 -2.316862E+06 -5.013461E+05 -1.510159E+05 -8.757970E+05 -3.891362E-10  9.120450E-10
       326  12 -2.230038E+06 -4.772279E+05 -1.188595E+05 -8.620124E+05 -2.666828E-10  9.596032E-10
       326  13 -1.747556E+06 -3.117645E+05 -6.193643E+04 -7.264726E+05 -3.424030E-10  3.101896E-10
       326  14 -1.752904E+06 -2.936524E+05 -3.268242E+04 -7.191432E+05  5.600426E-10  3.761802E-10
       326  15 -1.746068E+06 -3.016296E+05 -1.795569E+04 -7.302517E+05 -7.242941E-11  6.931349E-10
       326  16 -1.102806E+06 -7.154993E+04  7.533812E+04 -5.447515E+05 -6.282060E-10  6.944231E-10
       326  17 -1.188623E+06 -8.593251E+04  8.563314E+04 -5.623581E+05  2.463141E-10  1.169023E-10
       326  18 -1.261861E+06 -1.260146E+05  8.293453E+04 -5.983975E+05  1.356122E-10  3.453189E-10
       326  19 -2.391877E+06 -5.519402E+05 -1.992268E+05 -9.080197E+05  5.756297E+04 -2.749870E+04
       326  20 -2.316860E+06 -5.013447E+05 -1.510115E+05 -8.757980E+05  3.772716E+04 -3.044995E+04
       326  21 -2.230038E+06 -4.772268E+05 -1.188571E+05 -8.620129E+05  1.733324E+04 -3.191450E+04
       326  22 -1.747552E+06 -3.117628E+05 -6.192799E+04 -7.264739E+05  6.175016E+04 -2.592134E+04
       326  23 -1.752902E+06 -2.936510E+05 -3.267731E+04 -7.191442E+05  4.382901E+04 -2.815575E+04
       326  24 -1.746067E+06 -3.016285E+05 -1.795291E+04 -7.302523E+05  2.535264E+04 -2.890302E+04
       326  25 -1.102801E+06 -7.154813E+04  7.534742E+04 -5.447528E+05  6.594203E+04 -2.434217E+04
       326  26 -1.188620E+06 -8.593112E+04  8.563908E+04 -5.623592E+05  4.993681E+04 -2.585929E+04
       326  27 -1.261860E+06 -1.260136E+05  8.293788E+04 -5.983982E+05  3.337873E+04 -2.588910E+04
       327   1 -2.170497E+06 -4.575145E+05 -1.019183E+05 -8.468045E+05 -1.376982E+04  2.916711E+04
       327   2 -2.096018E+06 -4.180652E+05 -7.868171E+04 -8.138932E+05 -7.689163E+03  2.461941E+04
       327   3 -2.004513E+06 -3.967079E+05 -5.840063E+04 -8.012534E+05 -1.571765E+03  1.996917E+04
       327   4 -1.745303E+06 -3.021451E+05 -1.352588E+04 -7.297931E+05 -2.148619E+04  2.627050E+04
       327   5 -1.753793E+06 -2.929800E+05 -7.430451E+03 -7.197003E+05 -1.553655E+04  2.167512E+04
       327   6 -1.745241E+06 -3.018809E+05 -4.185462E+03 -7.298812E+05 -9.550757E+03  1.697704E+04
       327   7 -1.319919E+06 -1.467597E+05  7.485804E+04 -6.127067E+05 -2.920833E+04  2.337175E+04
       327   8 -1.411447E+06 -1.678846E+05  6.381518E+04 -6.254589E+05 -2.338865E+04  1.872907E+04
       327   9 -1.485900E+06 -2.070483E+05  5.002636E+04 -6.584815E+05 -1.753335E+04  1.398357E+04
       327  10 -2.170498E+06 -4.575154E+05 -1.019202E+05 -8.468042E+05  6.428601E-10  8.015474E-10
       327  11 -2.096018E+06 -4.180659E+05 -7.868296E+04 -8.138931E+05  1.911469E-10 -3.365532E-10
       327  12 -2.004513E+06 -3.967083E+05 -5.840139E+04 -8.012534E+05 -1.188662E-09  2.034830E-10
       327  13 -1.745303E+06 -3.021460E+05 -1.352804E+04 -7.297926E+05  7.711452E-10  4.701401E-10
       327  14 -1.753794E+06 -2.929805E+05 -7.431787E+03 -7.197000E+05  5.336379E-10 -4.048529E-10
       327  15 -1.745241E+06 -3.018812E+05 -4.186175E+03 -7.298811E+05 -6.447788E-10  8.681967E-11
       327  16 -1.319920E+06 -1.467606E+05  7.485541E+04 -6.127062E+05 -1.192278E-09 -2.976213E-10
       327  17 -1.411447E+06 -1.678851E+05  6.381349E+04 -6.254586E+05 -8.378021E-10 -1.321335E-10
       327  18 -1.485900E+06 -2.070486E+05  5.002542E+04 -6.584813E+05  6.199179E-10  3.587409E-10
       327  19 -2.170497E+06 -4.575145E+05 -1.019183E+05 -8.468045E+05  1.376982E+04 -2.916711E+04
       327  20 -2.096018E+06 -4.180652E+05 -7.868171E+04 -8.138932E+05  7.689163E+03 -2.461941E+04
       327  21 -2.004513E+06 -3.967079E+05 -5.840063E+04 -8.012534E+05  1.571765E+03 -1.996917E+04
       327  22 -1.745303E+06 -3.021451E+05 -1.352588E+04 -7.297931E+05  2.148619E+04 -2.627050E+04
       327  23 -1.753793E+06 -2.929800E+05 -7.430451E+03 -7.197003E+05  1.553655E+04 -2.167512E+04
       327  24 -1.745241E+06 -3.018809E+05 -4.185462E+03 -7.298812E+05  9.550757E+03 -1.697704E+04
       327  25 -1.319919E+06 -1.467597E+05  7.485804E+04 -6.127067E+05  2.920833E+04 -2.337175E+04
       327  26 -1.411447E+06 -1.678846E+05  6.381518E+04 -6.254589E+05  2.338865E+04 -1.872907E+04
       327  27 -1.485900E+06 -2.070483E+05  5.002636E+04 -6.584815E+05  1.753335E+04 -1.398357E+04
       328   1 -1.946251E+06 -3.754127E+05 -4.482584E+04 -7.852828E+05  3.743599E+02  1.662148E+04
       328   2 -1.871707E+06 -3.361135E+05 -2.651134E+04 -7.521397E+05  3.683458E+03  1.086210E+04
       328   3 -1.779574E+06 -3.145689E+05 -8.952342E+03 -7.393371E+05  6.995571E+03  5.092621E+03
       328   4 -1.745128E+06 -3.019053E+05 -3.216882E+03 -7.298587E+05 -7.597030E+03  1.363282E+04
       328   5 -1.753917E+06 -2.930345E+05 -1.999286E+03 -7.196835E+05 -4.301163E+03  7.869011E+03
       328   6 -1.745123E+06 -3.019161E+05 -1.526602E+03 -7.298516E+05 -1.002415E+03  2.095050E+03
       328   7 -1.543965E+06 -2.283951E+05  3.838980E+04 -6.744184E+05 -1.557115E+04  1.064315E+04
       328   8 -1.636113E+06 -2.499544E+05  2.251230E+04 -6.872217E+05 -1.228742E+04  4.875316E+03
       328   9 -1.710669E+06 -2.892631E+05  5.899415E+03 -7.203655E+05 -9.000940E+03 -9.027226E+02
       328  10 -1.946251E+06 -3.754130E+05 -4.482636E+04 -7.852829E+05  7.864847E-11  8.117714E-10
       328  11 -1.871707E+06 -3.361136E+05 -2.651158E+04 -7.521397E+05  1.650416E-10 -6.095767E-12
       328  12 -1.779574E+06 -3.145689E+05 -8.952483E+03 -7.393372E+05  4.583951E-11 -5.320034E-10
       328  13 -1.745128E+06 -3.019055E+05 -3.217339E+03 -7.298586E+05 -7.766420E-10  6.677276E-11
       328  14 -1.753917E+06 -2.930346E+05 -1.999437E+03 -7.196835E+05 -7.895901E-10 -8.398895E-10
       328  15 -1.745123E+06 -3.019161E+05 -1.526612E+03 -7.298516E+05  2.229905E-10 -2.769281E-11
       328  16 -1.543965E+06 -2.283953E+05  3.838913E+04 -6.744182E+05 -5.204601E-10  2.387159E-11
       328  17 -1.636114E+06 -2.499544E+05  2.251197E+04 -6.872216E+05 -1.608181E-10 -4.322575E-11
       328  18 -1.710669E+06 -2.892632E+05  5.899261E+03 -7.203655E+05  1.086700E-10  9.094355E-11
       328  19 -1.946251E+06 -3.754127E+05 -4.482584E+04 -7.852828E+05 -3.743599E+02 -1.662148E+04
       328  20 -1.871707E+06 -3.361135E+05 -2.651134E+04 -7.521397E+05 -3.683458E+03 -1.086210E+04
       328  21 -1.779574E+06 -3.145689E+05 -8.952342E+03 -7.393371E+05 -6.995571E+03 -5.092621E+03
       328  22 -1.745128E+06 -3.019053E+05 -3.216882E+03 -7.298587E+05  7.597030E+03 -1.363282E+04
       328  23 -1.753917E+06 -2.930345E+05 -1.999286E+03 -7.196835E+05  4.301163E+03 -7.869011E+03
       328  24 -1.745123E+06 -3.019161E+05 -1.526602E+03 -7.298516E+05  1.002415E+03 -2.095050E+03
       328  25 -1.543965E+06 -2.283951E+05  3.838980E+04 -6.744184E+05  1.557115E+04 -1.064315E+04
       328  26 -1.636113E+06 -2.499544E+05  2.251230E+04 -6.872217E+05  1.228742E+04 -4.875316E+03
       328  27 -1.710669E+06 -2.892631E+05  5.899415E+03 -7.203655E+05  9.000940E+03  9.027226E+02
       329   1 -1.721320E+06 -2.931562E+05  3.708425E+03 -7.232976E+05  8.590623E+03  1.606297E+03
       329   2 -1.646767E+06 -2.538452E+05  2.043768E+04 -6.901489E+05  1.180835E+04 -4.197936E+03
       329   3 -1.554613E+06 -2.322824E+05  3.648266E+04 -6.773397E+05  1.502331E+04 -9.992705E+03
       329   4 -1.745120E+06 -3.019163E+05 -1.501620E+03 -7.298511E+05  5.921159E+02 -1.391464E+03
       329   5 -1.753919E+06 -2.930373E+05 -1.859068E+03 -7.196827E+05  3.821321E+03 -7.191875E+03
       329   6 -1.745127E+06 -3.019095E+05 -2.909892E+03 -7.298568E+05  7.047614E+03 -1.298284E+04
       329   7 -1.768921E+06 -3.106762E+05 -6.711423E+03 -7.364043E+05 -7.406057E+03 -4.389100E+03
       329   8 -1.861060E+06 -3.322282E+05 -2.415603E+04 -7.492117E+05 -4.164191E+03 -1.018525E+04
       329   9 -1.935601E+06 -3.715330E+05 -4.230366E+04 -7.823586E+05 -9.253850E+02 -1.597197E+04
       329  10 -1.721320E+06 -2.931563E+05  3.708281E+03 -7.232976E+05  3.918004E-13 -5.782118E-10
       329  11 -1.646767E+06 -2.538453E+05  2.043738E+04 -6.901488E+05 -8.609239E-10 -4.534641E-10
       329  12 -1.554614E+06 -2.322825E+05  3.648204E+04 -6.773396E+05 -2.800060E-10 -4.114544E-11
       329  13 -1.745120E+06 -3.019163E+05 -1.501625E+03 -7.298511E+05 -4.345670E-11 -1.882365E-10
       329  14 -1.753919E+06 -2.930374E+05 -1.859192E+03 -7.196827E+05  7.014952E-10 -1.872162E-11
       329  15 -1.745127E+06 -3.019097E+05 -2.910301E+03 -7.298568E+05 -2.493461E-10 -2.013896E-11
       329  16 -1.768921E+06 -3.106762E+05 -6.711562E+03 -7.364044E+05 -5.959309E-11  1.151139E-10
       329  17 -1.861060E+06 -3.322284E+05 -2.415626E+04 -7.492117E+05  1.108683E-09  6.580289E-10
       329  18 -1.935601E+06 -3.715333E+05 -4.230415E+04 -7.823586E+05  1.965081E-11 -1.889865E-11
       329  19 -1.721320E+06 -2.931562E+05  3.708425E+03 -7.232976E+05 -8.590623E+03 -1.606297E+03
       329  20 -1.646767E+06 -2.538452E+05  2.043768E+04 -6.901489E+05 -1.180835E+04  4.197936E+03
       329  21 -1.554613E+06 -2.322824E+05  3.648266E+04 -6.773397E+05 -1.502331E+04  9.992705E+03
       329  22 -1.745120E+06 -3.019163E+05 -1.501620E+03 -7.298511E+05 -5.921159E+02  1.391464E+03
       329  23 -1.753919E+06 -2.930373E+05 -1.859068E+03 -7.196827E+05 -3.821321E+03  7.191875E+03
       329  24 -1.745127E+06 -3.019095E+05 -2.909892E+03 -7.298568E+05 -7.047614E+03  1.298284E+04
       329  25 -1.768921E+06 -3.106762E+05 -6.711423E+03 -7.364043E+05  7.406057E+03  4.389100E+03
       329  26 -1.861060E+06 -3.322282E+05 -2.415603E+04 -7.492117E+05  4.164191E+03  1.018525E+04
       329  27 -1.935601E+06 -3.715330E+05 -4.230366E+04 -7.823586E+05  9.253850E+02  1.597197E+04
       330   1 -1.496523E+06 -2.109234E+05  4.824016E+04 -6.613853E+05  1.692575E+04 -1.335653E+04
       330   2 -1.422084E+06 -1.717516E+05  6.240113E+04 -6.283513E+05  2.238936E+04 -1.825160E+04
       330   3 -1.330504E+06 -1.505728E+05  7.411865E+04 -6.155827E+05  2.781770E+04 -2.304506E+04
       330   4 -1.745228E+06 -3.018863E+05 -3.762183E+03 -7.298740E+05  8.941247E+03 -1.635056E+04
       330   5 -1.753809E+06 -2.929959E+05 -6.639829E+03 -7.196990E+05  1.453393E+04 -2.119872E+04
       330   6 -1.745284E+06 -3.021266E+05 -1.206501E+04 -7.297939E+05  2.009086E+04 -2.594538E+04
       330   7 -1.993870E+06 -3.928448E+05 -5.576814E+04 -7.983378E+05  9.601324E+02 -1.934331E+04
       330   8 -2.085422E+06 -4.142316E+05 -7.568678E+04 -8.110020E+05  6.682998E+03 -2.414416E+04
       330   9 -2.159887E+06 -4.536663E+05 -9.825762E+04 -8.439347E+05  1.236959E+04 -2.884363E+04
       330  10 -1.496524E+06 -2.109237E+05  4.823929E+04 -6.613851E+05  1.716209E-10  6.035350E-11
       330  11 -1.422085E+06 -1.717521E+05  6.239956E+04 -6.283510E+05  7.563381E-10 -3.325705E-11
       330  12 -1.330505E+06 -1.505736E+05  7.411620E+04 -6.155822E+05  3.107516E-10 -4.068160E-11
       330  13 -1.745228E+06 -3.018866E+05 -3.762835E+03 -7.298738E+05 -1.192080E-10  1.270588E-11
       330  14 -1.753809E+06 -2.929964E+05 -6.641069E+03 -7.196988E+05 -1.487644E-09 -4.838972E-10
       330  15 -1.745285E+06 -3.021274E+05 -1.206703E+04 -7.297935E+05 -7.488448E-10 -4.908206E-10
       330  16 -1.993871E+06 -3.928452E+05 -5.576885E+04 -7.983378E+05 -7.710589E-10 -3.678302E-10
       330  17 -2.085422E+06 -4.142322E+05 -7.568796E+04 -8.110019E+05 -1.216301E-09 -2.747878E-10
       330  18 -2.159888E+06 -4.536673E+05 -9.825947E+04 -8.439344E+05 -1.478101E-12 -4.398723E-10
       330  19 -1.496523E+06 -2.109234E+05  4.824016E+04 -6.613853E+05 -1.692575E+04  1.335653E+04
       330  20 -1.422084E+06 -1.717516E+05  6.240113E+04 -6.283513E+05 -2.238936E+04  1.825160E+04
       330  21 -1.330504E+06 -1.505728E+05  7.411865E+04 -6.155827E+05 -2.781770E+04  2.304506E+04
       330  22 -1.745228E+06 -3.018863E+05 -3.762183E+03 -7.298740E+05 -8.941247E+03  1.635056E+04
       330  23 -1.753809E+06 -2.929959E+05 -6.639829E+03 -7.196990E+05 -1.453393E+04  2.119872E+04
       330  24 -1.745284E+06 -3.021266E+05 -1.206501E+04 -7.297939E+05 -2.009086E+04  2.594538E+04
       330  25 -1.993870E+06 -3.928448E+05 -5.576814E+04 -7.983378E+05 -9.601324E+02  1.934331E+04
       330  26 -2.085422E+06 -4.142316E+05 -7.568678E+04 -8.110020E+05 -6.682998E+03  2.414416E+04
       330  27 -2.159887E+06 -4.536663E+05 -9.825762E+04 -8.439347E+05 -1.236959E+04  2.884363E+04
       331   1 -1.272466E+06 -1.297625E+05  8.268524E+04 -6.010885E+05  3.171234E+04 -2.566711E+04
       331   2 -1.199175E+06 -8.979203E+04  8.699459E+04 -5.653928E+05  4.651039E+04 -2.631028E+04
       331   3 -1.112738E+06 -7.460019E+04  7.986728E+04 -5.483097E+05  6.076164E+04 -2.548397E+04
       331   4 -1.745974E+06 -3.016648E+05 -1.600924E+04 -7.302008E+05  2.368475E+04 -2.868137E+04
       331   5 -1.753015E+06 -2.936040E+05 -2.912852E+04 -7.192072E+05  4.037997E+04 -2.861494E+04
       331   6 -1.747298E+06 -3.107054E+05 -5.519933E+04 -7.268303E+05  5.652645E+04 -2.707909E+04
       331   7 -2.219248E+06 -4.735483E+05 -1.147145E+05 -8.592215E+05  1.566384E+04 -3.169318E+04
       331   8 -2.306540E+06 -4.973901E+05 -1.452682E+05 -8.728948E+05  3.425546E+04 -3.091737E+04
       331   9 -2.381451E+06 -5.467766E+05 -1.902899E+05 -9.051828E+05  5.229589E+04 -2.867242E+04
       331  10 -1.272467E+06 -1.297634E+05  8.268212E+04 -6.010879E+05  5.473189E-10 -4.181037E-10
       331  11 -1.199177E+06 -8.979335E+04  8.698922E+04 -5.653918E+05 -4.243074E-10 -6.182882E-10
       331  12 -1.112742E+06 -7.460188E+04  7.985912E+04 -5.483085E+05 -8.099789E-10 -2.751106E-10
       331  13 -1.745974E+06 -3.016658E+05 -1.601183E+04 -7.302002E+05  3.069721E-10 -4.007963E-10
       331  14 -1.753016E+06 -2.936053E+05 -2.913313E+04 -7.192063E+05 -5.327234E-10 -2.668760E-10
       331  15 -1.747301E+06 -3.107070E+05 -5.520672E+04 -7.268291E+05 -1.124489E-09  4.844576E-10
       331  16 -2.219248E+06 -4.735495E+05 -1.147169E+05 -8.592211E+05  1.382625E-11 -3.626222E-10
       331  17 -2.306541E+06 -4.973914E+05 -1.452722E+05 -8.728939E+05 -1.492403E-11  9.273906E-11
       331  18 -2.381454E+06 -5.467782E+05 -1.902966E+05 -9.051816E+05 -1.309674E-10  4.531539E-10
       331  19 -1.272466E+06 -1.297625E+05  8.268524E+04 -6.010885E+05 -3.171234E+04  2.566711E+04
       331  20 -1.199175E+06 -8.979203E+04  8.699459E+04 -5.653928E+05 -4.651039E+04  2.631028E+04
       331  21 -1.112738E+06 -7.460019E+04  7.986728E+04 -5.483097E+05 -6.076164E+04  2.548397E+04
       331  22 -1.745974E+06 -3.016648E+05 -1.600924E+04 -7.302008E+05 -2.368475E+04  2.868137E+04
       331  23 -1.753015E+06 -2.936040E+05 -2.912852E+04 -7.192072E+05 -4.037997E+04  2.861494E+04
       331  24 -1.747298E+06 -3.107054E+05 -5.519933E+04 -7.268303E+05 -5.652645E+04  2.707909E+04
       331  25 -2.219248E+06 -4.735483E+05 -1.147145E+05 -8.592215E+05 -1.566384E+04  3.169318E+04
       331  26 -2.306540E+06 -4.973901E+05 -1.452682E+05 -8.728948E+05 -3.425546E+04  3.091737E+04
       331  27 -2.381451E+06 -5.467766E+05 -1.902899E+05 -9.051828E+05 -5.229589E+04  2.867242E+04
       332   1 -1.043348E+06 -6.262208E+04  7.545492E+04 -5.638334E+05  7.597698E+04 -2.436488E+04
       332   2 -1.008879E+06  5.992653E+03  4.041898E+04 -4.468221E+05  1.131103E+05 -5.005466E+03
       332   3 -1.026805E+06 -1.106206E+05 -6.991493E+04 -3.043158E+05  1.411966E+05  3.843057E+04
       332   4 -1.756375E+06 -2.996200E+05 -7.176209E+04 -7.350880E+05  6.642244E+04 -2.795614E+04
       332   5 -1.743409E+06 -3.188675E+05 -1.330623E+05 -7.046646E+05  1.348098E+05  3.134534E+03
       332   6 -1.789149E+06 -5.297106E+05 -2.945446E+05 -6.487328E+05  1.941372E+05  5.830133E+04
       332   7 -2.468887E+06 -5.365997E+05 -2.190061E+05 -9.061717E+05  5.687970E+04 -3.154396E+04
       332   8 -2.477371E+06 -6.436098E+05 -3.065752E+05 -9.621991E+05  1.564811E+05  1.125922E+04
       332   9 -2.550847E+06 -9.485164E+05 -5.192063E+05 -9.926874E+05  2.470050E+05  7.811621E+04
       332  10 -1.043354E+06 -6.262426E+04  7.544295E+04 -5.638320E+05 -3.677487E-10  1.826563E-10
       332  11 -1.008892E+06  5.989186E+03  4.039485E+04 -4.468216E+05  4.322170E-10 -2.735697E-10
       332  12 -1.026827E+06 -1.106275E+05 -6.995524E+04 -3.043202E+05  2.159907E-10  5.867474E-10
       332  13 -1.756380E+06 -2.996220E+05 -7.177186E+04 -7.350865E+05  5.549284E-10 -1.240661E-10
       332  14 -1.743428E+06 -3.188724E+05 -1.330966E+05 -7.046650E+05  2.054759E-09 -1.721384E-09
       332  15 -1.789191E+06 -5.297244E+05 -2.946221E+05 -6.487419E+05  2.004663E-10  2.323956E-10
       332  16 -2.468891E+06 -5.366016E+05 -2.190141E+05 -9.061703E+05  7.861506E-10  4.793879E-10
       332  17 -2.477397E+06 -6.436165E+05 -3.066216E+05 -9.622005E+05  4.802297E-10  1.190970E-11
       332  18 -2.550914E+06 -9.485395E+05 -5.193330E+05 -9.927030E+05 -2.025751E-09  3.633852E-10
       332  19 -1.043348E+06 -6.262208E+04  7.545492E+04 -5.638334E+05 -7.597698E+04  2.436488E+04
       332  20 -1.008879E+06  5.992653E+03  4.041898E+04 -4.468221E+05 -1.131103E+05  5.005466E+03
       332  21 -1.026805E+06 -1.106206E+05 -6.991493E+04 -3.043158E+05 -1.411966E+05 -3.843057E+04
       332  22 -1.756375E+06 -2.996200E+05 -7.176209E+04 -7.350880E+05 -6.642244E+04  2.795614E+04
       332  23 -1.743409E+06 -3.188675E+05 -1.330623E+05 -7.046646E+05 -1.348098E+05 -3.134534E+03
       332  24 -1.789149E+06 -5.297106E+05 -2.945446E+05 -6.487328E+05 -1.941372E+05 -5.830133E+04
       332  25 -2.468887E+06 -5.365997E+05 -2.190061E+05 -9.061717E+05 -5.687970E+04  3.154396E+04
       332  26 -2.477371E+06 -6.436098E+05 -3.065752E+05 -9.621991E+05 -1.564811E+05 -1.125922E+04
       332  27 -2.550847E+06 -9.485164E+05 -5.192063E+05 -9.926874E+05 -2.470050E+05 -7.811621E+04
       333   1 -2.280771E+05 -5.774825E+04 -1.751774E+04  2.244490E+04  1.065368E+05  1.282239E+04
       333   2 -1.502757E+05 -2.032718E+05 -8.949215E+04 -1.668886E+04  8.033092E+04  3.998984E+04
       333   3 -2.951520E+04 -1.919629E+05 -1.051349E+05 -9.194248E+04  5.415100E+04  4.188129E+04
       333   4  7.284232E+05  1.793502E+05  2.131692E+05 -6.698467E+04  1.468447E+05  1.285454E+04
       333   5  7.048259E+05  5.125569E+03  9.801241E+04 -4.883377E+04  9.509831E+04  3.999591E+04
       333   6  7.285355E+05 -7.965872E+03  5.685105E+04 -6.679396E+04  4.338430E+04  4.187210E+04
       333   7  1.685781E+06  4.164130E+05  4.438013E+05 -1.565527E+05  1.872143E+05  1.287508E+04
       333   8  1.560614E+06  2.134782E+05  2.854739E+05 -8.102364E+04  1.098857E+05  4.000046E+04
       333   9  1.487128E+06  1.759961E+05  2.188045E+05 -4.161436E+04  3.260463E+04  4.186204E+04
       333  10 -2.280893E+05 -5.775147E+04 -1.753938E+04  2.244380E+04  1.727912E-09 -1.421573E-09
       333  11 -1.502831E+05 -2.032753E+05 -8.950728E+04 -1.669145E+04 -1.010720E-09  1.622619E-10
       333  12 -2.951882E+04 -1.919656E+05 -1.051437E+05 -9.194431E+04 -2.884468E-09  1.069292E-10
       333  13  7.284000E+05  1.793442E+05  2.131284E+05 -6.698619E+04  2.263207E-10  7.726094E-10
       333  14  7.048157E+05  5.121426E+03  9.799242E+04 -4.883683E+04 -4.162411E-11 -5.955638E-11
       333  15  7.285330E+05 -7.968260E+03  5.684422E+04 -6.679543E+04  5.381649E-10 -1.720846E-10
       333  16  1.685743E+06  4.164035E+05  4.437353E+05 -1.565547E+05 -4.959094E-10  8.149942E-10
       333  17  1.560601E+06  2.134732E+05  2.854483E+05 -8.102718E+04  1.666937E-09  3.350293E-10
       333  18  1.487127E+06  1.759939E+05  2.187992E+05 -4.161545E+04  3.694255E-09  2.099534E-09
       333  19 -2.280771E+05 -5.774825E+04 -1.751774E+04  2.244490E+04 -1.065368E+05 -1.282239E+04
       333  20 -1.502757E+05 -2.032718E+05 -8.949215E+04 -1.668886E+04 -8.033092E+04 -3.998984E+04
       333  21 -2.951520E+04 -1.919629E+05 -1.051349E+05 -9.194248E+04 -5.415100E+04 -4.188129E+04
       333  22  7.284232E+05  1.793502E+05  2.131692E+05 -6.698467E+04 -1.468447E+05 -1.285454E+04
       333  23  7.048259E+05  5.125569E+03  9.801241E+04 -4.883377E+04 -9.509831E+04 -3.999591E+04
       333  24  7.285355E+05 -7.965872E+03  5.685105E+04 -6.679396E+04 -4.338430E+04 -4.187210E+04
       333  25  1.685781E+06  4.164130E+05  4.438013E+05 -1.565527E+05 -1.872143E+05 -1.287508E+04
       333  26  1.560614E+06  2.134782E+05  2.854739E+05 -8.102364E+04 -1.098857E+05 -4.000046E+04
       333  27  1.487128E+06  1.759961E+05  2.188045E+05 -4.161436E+04 -3.260463E+04 -4.186204E+04
       334   1  3.773770E+04 -1.570064E+05 -1.012903E+05 -6.441015E+04  3.925180E+04  3.663121E+04
       334   2  1.342181E+05 -1.415896E+05 -9.999777E+04 -4.816333E+04  2.818652E+04  3.225258E+04
       334   3  2.343016E+05 -1.181525E+05 -8.946092E+04 -6.880224E+04  1.711671E+04  2.670802E+04
       334   4  7.188795E+05  8.402576E+03  4.489849E+04 -6.701429E+04  3.545778E+04  3.662586E+04
       334   5  7.170029E+05 -1.913170E+02  2.447201E+04 -4.857085E+04  2.320454E+04  3.224824E+04
       334   6  7.189212E+05 -5.636478E+02  1.410615E+04 -6.701066E+04  1.094849E+04  2.670515E+04
       334   7  1.400457E+06  1.737812E+05  1.910602E+05 -6.962137E+04  3.165964E+04  3.662054E+04
       334   8  1.300107E+06  1.411848E+05  1.489223E+05 -4.897879E+04  1.821795E+04  3.224390E+04
       334   9  1.203762E+06  1.170099E+05  1.176598E+05 -6.521766E+04  4.775520E+03  2.670224E+04
       334  10  3.773569E+04 -1.570082E+05 -1.012957E+05 -6.441131E+04  1.263436E-09  3.291615E-10
       334  11  1.342170E+05 -1.415909E+05 -1.000012E+05 -4.816406E+04 -5.692055E-10 -1.883199E-10
       334  12  2.343011E+05 -1.181534E+05 -8.946282E+04 -6.880260E+04 -3.230866E-10 -1.030332E-09
       334  13  7.188778E+05  8.400798E+03  4.489361E+04 -6.701534E+04 -2.569428E-10  1.683401E-09
       334  14  7.170021E+05 -1.925785E+02  2.446905E+04 -4.857146E+04  1.333398E-09  1.790283E-10
       334  15  7.189208E+05 -5.644460E+02  1.410459E+04 -6.701089E+04 -1.066501E-09 -1.257516E-09
       334  16  1.400456E+06  1.737795E+05  1.910558E+05 -6.962230E+04 -1.204402E-09  1.480062E-09
       334  17  1.300107E+06  1.411836E+05  1.489197E+05 -4.897926E+04  1.134739E-10 -9.729773E-11
       334  18  1.203761E+06  1.170092E+05  1.176584E+05 -6.521777E+04  5.547608E-10 -8.393897E-10
       334  19  3.773770E+04 -1.570064E+05 -1.012903E+05 -6.441015E+04 -3.925180E+04 -3.663121E+04
       334  20  1.342181E+05 -1.415896E+05 -9.999777E+04 -4.816333E+04 -2.818652E+04 -3.225258E+04
       334  21  2.343016E+05 -1.181525E+05 -8.946092E+04 -6.880224E+04 -1.711671E+04 -2.670802E+04
       334  22  7.188795E+05  8.402576E+03  4.489849E+04 -6.701429E+04 -3.545778E+04 -3.662586E+04
       334  23  7.170029E+05 -1.913170E+02  2.447201E+04 -4.857085E+04 -2.320454E+04 -3.224824E+04
       334  24  7.189212E+05 -5.636478E+02  1.410615E+04 -6.701066E+04 -1.094849E+04 -2.670515E+04
       334  25  1.400457E+06  1.737812E+05  1.910602E+05 -6.962137E+04 -3.165964E+04 -3.662054E+04
       334  26  1.300107E+06  1.411848E+05  1.489223E+05 -4.897879E+04 -1.821795E+04 -3.224390E+04
       334  27  1.203762E+06  1.170099E+05  1.176598E+05 -6.521766E+04 -4.775520E+03 -2.670224E+04
       335   1  3.095120E+05 -9.883651E+04 -7.611363E+04 -6.731092E+04  1.459022E+04  2.319248E+04
       335   2  4.071097E+05 -7.550381E+04 -6.011886E+04 -4.885552E+04  1.160150E+04  1.737544E+04
       335   3  5.052525E+05 -5.175558E+04 -4.206530E+04 -6.717726E+04  8.610260E+03  1.150938E+04
       335   4  7.182138E+05  2.382479E+02  1.078524E+04 -6.698792E+04  8.753055E+03  2.319051E+04
       335   5  7.179508E+05 -1.218762E+02  6.140872E+03 -4.859996E+04  5.712662E+03  1.737443E+04
       335   6  7.182335E+05 -5.699736E+01  3.590452E+03 -6.698802E+04  2.670212E+03  1.150936E+04
       335   7  1.127073E+06  9.930218E+04  9.767467E+04 -6.666471E+04  2.912106E+03  2.318854E+04
       335   8  1.028883E+06  7.525379E+04  7.239517E+04 -4.834426E+04 -1.790775E+02  1.737341E+04
       335   9  9.312573E+05  5.163864E+04  4.924369E+04 -6.679870E+04 -3.271844E+03  1.150934E+04
       335  10  3.095116E+05 -9.883714E+04 -7.611504E+04 -6.731119E+04 -8.094858E-10 -1.135935E-09
       335  11  4.071095E+05 -7.550417E+04 -6.011968E+04 -4.885569E+04 -9.774584E-10 -8.121251E-10
       335  12  5.052524E+05 -5.175574E+04 -4.206569E+04 -6.717734E+04  3.826430E-10 -2.284697E-10
       335  13  7.182135E+05  2.376497E+02  1.078409E+04 -6.698809E+04 -2.672040E-10 -8.514427E-10
       335  14  7.179507E+05 -1.222092E+02  6.140243E+03 -4.860004E+04 -1.121651E-09 -3.387117E-10
       335  15  7.182335E+05 -5.714157E+01  3.590189E+03 -6.698804E+04 -9.856389E-10  1.815872E-10
       335  16  1.127073E+06  9.930160E+04  9.767365E+04 -6.666476E+04  8.265193E-10 -5.482280E-10
       335  17  1.028883E+06  7.525347E+04  7.239460E+04 -4.834425E+04 -3.132524E-10  1.630614E-10
       335  18  9.312572E+05  5.163849E+04  4.924342E+04 -6.679867E+04 -1.863049E-10  6.142852E-10
       335  19  3.095120E+05 -9.883651E+04 -7.611363E+04 -6.731092E+04 -1.459022E+04 -2.319248E+04
       335  20  4.071097E+05 -7.550381E+04 -6.011886E+04 -4.885552E+04 -1.160150E+04 -1.737544E+04
       335  21  5.052525E+05 -5.175558E+04 -4.206530E+04 -6.717726E+04 -8.610260E+03 -1.150938E+04
       335  22  7.182138E+05  2.382479E+02  1.078524E+04 -6.698792E+04 -8.753055E+03 -2.319051E+04
       335  23  7.179508E+05 -1.218762E+02  6.140872E+03 -4.859996E+04 -5.712662E+03 -1.737443E+04
       335  24  7.182335E+05 -5.699736E+01  3.590452E+03 -6.698802E+04 -2.670212E+03 -1.150936E+04
       335  25  1.127073E+06  9.930218E+04  9.767467E+04 -6.666471E+04 -2.912106E+03 -2.318854E+04
       335  26  1.028883E+06  7.525379E+04  7.239517E+04 -4.834426E+04  1.790775E+02 -1.737341E+04
       335  27  9.312573E+05  5.163864E+04  4.924369E+04 -6.679870E+04  3.271844E+03 -1.150934E+04
       336   1  5.808506E+05 -3.325983E+04 -2.622121E+04 -6.708588E+04  8.016898E+03  8.084768E+03
       336   2  6.785084E+05 -9.623251E+03 -6.718366E+03 -4.868144E+04  7.171251E+03  2.212768E+03
       336   3  7.762965E+05  1.403511E+04  1.334032E+04 -6.699718E+04  6.325192E+03 -3.660979E+03
       336   4  7.181448E+05 -2.230381E+01  2.771351E+03 -6.697559E+04  2.094591E+03  8.085094E+03
       336   5  7.180861E+05 -2.705746E+01  1.715763E+03 -4.861557E+04  1.246541E+03  2.213201E+03
       336   6  7.181474E+05 -9.501239E+00  1.217328E+03 -6.697562E+04  3.982084E+02 -3.660403E+03
       336   7  8.554568E+05  3.321403E+04  3.176298E+04 -6.686527E+04 -3.829004E+03  8.085417E+03
       336   8  7.576654E+05  9.569053E+03  1.014993E+04 -4.854971E+04 -4.678541E+03  2.213633E+03
       336   9  6.600016E+05 -1.405431E+04 -1.090571E+04 -6.695406E+04 -5.528230E+03 -3.659828E+03
       336  10  5.808505E+05 -3.325992E+04 -2.622145E+04 -6.708593E+04  3.482775E-10  1.473638E-10
       336  11  6.785084E+05 -9.623270E+03 -6.718471E+03 -4.868145E+04  4.013053E-10  7.208362E-10
       336  12  7.762964E+05  1.403509E+04  1.334022E+04 -6.699716E+04 -4.718903E-10  2.761328E-10
       336  13  7.181448E+05 -2.237520E+01  2.771220E+03 -6.697560E+04 -1.068895E-09  3.053489E-10
       336  14  7.180861E+05 -2.706314E+01  1.715751E+03 -4.861558E+04 -9.452182E-10  5.768775E-10
       336  15  7.181474E+05 -9.515674E+00  1.217303E+03 -6.697562E+04 -9.044338E-10  2.189645E-10
       336  16  8.554568E+05  3.321395E+04  3.176283E+04 -6.686525E+04 -4.971636E-10  3.832428E-10
       336  17  7.576654E+05  9.569042E+03  1.014988E+04 -4.854970E+04 -9.348863E-10  4.221140E-10
       336  18  6.600016E+05 -1.405433E+04 -1.090580E+04 -6.695407E+04 -1.343561E-10  3.568262E-10
       336  19  5.808506E+05 -3.325983E+04 -2.622121E+04 -6.708588E+04 -8.016898E+03 -8.084768E+03
       336  20  6.785084E+05 -9.623251E+03 -6.718366E+03 -4.868144E+04 -7.171251E+03 -2.212768E+03
       336  21  7.762965E+05  1.403511E+04  1.334032E+04 -6.699718E+04 -6.325192E+03  3.660979E+03
       336  22  7.181448E+05 -2.230381E+01  2.771351E+03 -6.697559E+04 -2.094591E+03 -8.085094E+03
       336  23  7.180861E+05 -2.705746E+01  1.715763E+03 -4.861557E+04 -1.246541E+03 -2.213201E+03
       336  24  7.181474E+05 -9.501239E+00  1.217328E+03 -6.697562E+04 -3.982084E+02  3.660403E+03
       336  25  8.554568E+05  3.321403E+04  3.176298E+04 -6.686527E+04  3.829004E+03 -8.085417E+03
       336  26  7.576654E+05  9.569053E+03  1.014993E+04 -4.854971E+04  4.678541E+03 -2.213633E+03
       336  27  6.600016E+05 -1.405431E+04 -1.090571E+04 -6.695406E+04  5.528230E+03  3.659828E+03
       337   1  8.519640E+05  3.248564E+04  2.989709E+04 -6.700245E+04  6.114725E+03 -7.080229E+03
       337   2  9.497379E+05  5.612320E+04  5.052256E+04 -4.857709E+04  5.539933E+03 -1.295658E+04
       337   3  1.047623E+06  7.976772E+04  7.152799E+04 -6.690454E+04  4.966644E+03 -1.883447E+04
       337   4  7.181404E+05 -1.143115E+01  1.116833E+03 -6.698308E+04  1.855368E+02 -7.079841E+03
       337   5  7.180822E+05 -3.546048E+01  1.166079E+03 -4.860625E+04 -3.910611E+02 -1.295695E+04
       337   6  7.181267E+05 -5.167292E+01  1.596857E+03 -6.698307E+04 -9.660682E+02 -1.883555E+04
       337   7  5.843337E+05 -3.250965E+04 -2.766435E+04 -6.696371E+04 -5.742392E+03 -7.079452E+03
       337   8  4.864770E+05 -5.619759E+04 -4.819335E+04 -4.863540E+04 -6.319878E+03 -1.295731E+04
       337   9  3.887323E+05 -7.987808E+04 -6.834034E+04 -6.706156E+04 -6.895684E+03 -1.883663E+04
       337  10  8.519640E+05  3.248557E+04  2.989693E+04 -6.700242E+04 -3.333748E-10 -1.719884E-10
       337  11  9.497378E+05  5.612301E+04  5.052218E+04 -4.857703E+04 -1.633499E-09 -1.021355E-10
       337  12  1.047623E+06  7.976733E+04  7.152727E+04 -6.690447E+04 -3.277049E-10 -4.028237E-10
       337  13  7.181404E+05 -1.148500E+01  1.116739E+03 -6.698308E+04 -1.987054E-11  7.385562E-12
       337  14  7.180821E+05 -3.564086E+01  1.165763E+03 -4.860625E+04  7.603683E-10 -7.200958E-11
       337  15  7.181266E+05 -5.205427E+01  1.596189E+03 -6.698309E+04 -2.930765E-10 -1.402881E-10
       337  16  5.843337E+05 -3.250972E+04 -2.766450E+04 -6.696375E+04  4.457204E-10  1.548354E-10
       337  17  4.864769E+05 -5.619778E+04 -4.819375E+04 -4.863546E+04  1.182670E-09 -1.462393E-10
       337  18  3.887322E+05 -7.987847E+04 -6.834110E+04 -6.706166E+04  4.757169E-10  1.790066E-10
       337  19  8.519640E+05  3.248564E+04  2.989709E+04 -6.700245E+04 -6.114725E+03  7.080229E+03
       337  20  9.497379E+05  5.612320E+04  5.052256E+04 -4.857709E+04 -5.539933E+03  1.295658E+04
       337  21  1.047623E+06  7.976772E+04  7.152799E+04 -6.690454E+04 -4.966644E+03  1.883447E+04
       337  22  7.181404E+05 -1.143115E+01  1.116833E+03 -6.698308E+04 -1.855368E+02  7.079841E+03
       337  23  7.180822E+05 -3.546048E+01  1.166079E+03 -4.860625E+04  3.910611E+02  1.295695E+04
       337  24  7.181267E+05 -5.167292E+01  1.596857E+03 -6.698307E+04  9.660682E+02  1.883555E+04
       337  25  5.843337E+05 -3.250965E+04 -2.766435E+04 -6.696371E+04  5.742392E+03  7.079452E+03
       337  26  4.864770E+05 -5.619759E+04 -4.819335E+04 -4.863540E+04  6.319878E+03  1.295731E+04
       337  27  3.887323E+05 -7.987808E+04 -6.834034E+04 -6.706156E+04  6.895684E+03  1.883663E+04
       338   1  1.123534E+06  9.823641E+04  8.860806E+04 -6.687268E+04  4.667834E+03 -2.226509E+04
       338   2  1.221528E+06  1.219232E+05  1.105308E+05 -4.832580E+04  3.002021E+03 -2.813971E+04
       338   3  1.319909E+06  1.458257E+05  1.336137E+05 -6.665981E+04  1.339401E+03 -3.395842E+04
       338   4  7.181740E+05 -7.484948E+01  1.986340E+03 -6.701174E+04 -1.289848E+03 -2.226689E+04
       338   5  7.179735E+05 -1.324551E+02  3.249196E+03 -4.857036E+04 -2.898408E+03 -2.814312E+04
       338   6  7.181435E+05  1.684026E+01  5.633943E+03 -6.701172E+04 -4.503520E+03 -3.396337E+04
       338   7  3.129687E+05 -9.839680E+04 -8.464476E+04 -6.715070E+04 -7.243702E+03 -2.226869E+04
       338   8  2.146579E+05 -1.222046E+05 -1.040468E+05 -4.881474E+04 -8.794129E+03 -2.814653E+04
       338   9  1.167184E+05 -1.458155E+05 -1.223665E+05 -6.736329E+04 -1.034087E+04 -3.396832E+04
       338  10  1.123534E+06  9.823587E+04  8.860708E+04 -6.687259E+04 -7.577693E-10  3.765146E-10
       338  11  1.221527E+06  1.219223E+05  1.105293E+05 -4.832573E+04 -1.619863E-09 -1.596821E-10
       338  12  1.319909E+06  1.458244E+05  1.336115E+05 -6.665978E+04  1.803237E-09 -4.155386E-10
       338  13  7.181738E+05 -7.538253E+01  1.985405E+03 -6.701176E+04  3.361686E-11  3.148463E-10
       338  14  7.179733E+05 -1.333082E+02  3.247691E+03 -4.857043E+04 -9.496641E-11  7.139357E-11
       338  15  7.181431E+05  1.559572E+01  5.631737E+03 -6.701184E+04  6.758692E-10 -7.536463E-10
       338  16  3.129685E+05 -9.839735E+04 -8.464579E+04 -6.715083E+04  1.723680E-09  2.063772E-10
       338  17  2.146576E+05 -1.222054E+05 -1.040485E+05 -4.881494E+04 -7.190536E-10 -1.071778E-10
       338  18  1.167180E+05 -1.458168E+05 -1.223688E+05 -6.736357E+04 -7.305021E-10 -2.132141E-10
       338  19  1.123534E+06  9.823641E+04  8.860806E+04 -6.687268E+04 -4.667834E+03  2.226509E+04
       338  20  1.221528E+06  1.219232E+05  1.105308E+05 -4.832580E+04 -3.002021E+03  2.813971E+04
       338  21  1.319909E+06  1.458257E+05  1.336137E+05 -6.665981E+04 -1.339401E+03  3.395842E+04
       338  22  7.181740E+05 -7.484948E+01  1.986340E+03 -6.701174E+04  1.289848E+03  2.226689E+04
       338  23  7.179735E+05 -1.324551E+02  3.249196E+03 -4.857036E+04  2.898408E+03  2.814312E+04
       338  24  7.181435E+05  1.684026E+01  5.633943E+03 -6.701172E+04  4.503520E+03  3.396337E+04
       338  25  3.129687E+05 -9.839680E+04 -8.464476E+04 -6.715070E+04  7.243702E+03  2.226869E+04
       338  26  2.146579E+05 -1.222046E+05 -1.040468E+05 -4.881474E+04  8.794129E+03  2.814653E+04
       338  27  1.167184E+05 -1.458155E+05 -1.223665E+05 -6.736329E+04  1.034087E+04  3.396832E+04
       339   1  1.396563E+06  1.639785E+05  1.520470E+05 -6.587300E+04  5.960177E+02 -3.750070E+04
       339   2  1.494179E+06  1.880566E+05  1.784278E+05 -4.835576E+04 -7.175038E+03 -4.299496E+04
       339   3  1.594191E+06  2.166202E+05  2.110381E+05 -6.786907E+04 -1.494396E+04 -4.709510E+04
       339   4  7.185163E+05 -4.069336E+02  7.351381E+03 -6.704413E+04 -5.647193E+03 -3.750712E+04
       339   5  7.174195E+05 -2.437300E+02  1.269812E+04 -4.852932E+04 -1.200338E+04 -4.300279E+04
       339   6  7.184663E+05  4.163349E+03  2.329818E+04 -6.704772E+04 -1.835619E+04 -4.710352E+04
       339   7  4.090128E+04 -1.648222E+05 -1.373706E+05 -6.821399E+04 -1.188369E+04 -3.751352E+04
       339   8 -5.877322E+04 -1.885834E+05 -1.530663E+05 -4.870275E+04 -1.682576E+04 -4.301062E+04
       339   9 -1.565389E+05 -2.083437E+05 -1.644864E+05 -6.622769E+04 -2.176368E+04 -4.711196E+04
       339  10  1.396563E+06  1.639770E+05  1.520443E+05 -6.587298E+04  4.203463E-11 -1.091384E-09
       339  11  1.494179E+06  1.880546E+05  1.784243E+05 -4.835601E+04  2.253944E-10 -1.105778E-09
       339  12  1.594190E+06  2.166178E+05  2.110335E+05 -6.786964E+04  1.443781E-09 -1.124714E-09
       339  13  7.185159E+05 -4.084534E+02  7.348677E+03 -6.704430E+04 -7.782949E-12 -8.473621E-10
       339  14  7.174189E+05 -2.457551E+02  1.269438E+04 -4.852974E+04 -1.046754E-09 -1.225481E-09
       339  15  7.184653E+05  4.160875E+03  2.329338E+04 -6.704842E+04 -1.031212E-09 -7.594661E-10
       339  16  4.090075E+04 -1.648238E+05 -1.373735E+05 -6.821435E+04  4.592415E-10 -5.736790E-10
       339  17 -5.877402E+04 -1.885854E+05 -1.530703E+05 -4.870333E+04 -4.624097E-10  1.454791E-09
       339  18 -1.565400E+05 -2.083462E+05 -1.644914E+05 -6.622852E+04  2.357018E-10  4.722867E-10
       339  19  1.396563E+06  1.639785E+05  1.520470E+05 -6.587300E+04 -5.960177E+02  3.750070E+04
       339  20  1.494179E+06  1.880566E+05  1.784278E+05 -4.835576E+04  7.175038E+03  4.299496E+04
       339  21  1.594191E+06  2.166202E+05  2.110381E+05 -6.786907E+04  1.494396E+04  4.709510E+04
       339  22  7.185163E+05 -4.069336E+02  7.351381E+03 -6.704413E+04  5.647193E+03  3.750712E+04
       339  23  7.174195E+05 -2.437300E+02  1.269812E+04 -4.852932E+04  1.200338E+04  4.300279E+04
       339  24  7.184663E+05  4.163349E+03  2.329818E+04 -6.704772E+04  1.835619E+04  4.710352E+04
       339  25  4.090128E+04 -1.648222E+05 -1.373706E+05 -6.821399E+04  1.188369E+04  3.751352E+04
       339  26 -5.877322E+04 -1.885834E+05 -1.530663E+05 -4.870275E+04  1.682576E+04  4.301062E+04
       339  27 -1.565389E+05 -2.083437E+05 -1.644864E+05 -6.622769E+04  2.176368E+04  4.711196E+04
       340   1  1.676804E+06  2.267747E+05  2.329263E+05 -5.306869E+04 -1.068624E+04 -5.270163E+04
       340   2  1.761757E+06  2.582039E+05  2.807980E+05 -6.467977E+04 -6.809323E+04 -4.933472E+04
       340   3  1.876831E+06  3.785160E+05  3.882890E+05 -1.123476E+05 -1.255704E+05 -1.572080E+04
       340   4  7.234879E+05 -4.348953E+03  2.950032E+04 -6.679152E+04 -2.246611E+04 -5.272121E+04
       340   5  7.110131E+05  2.417019E+03  5.081328E+04 -4.883971E+04 -4.927670E+04 -4.931450E+04
       340   6  7.233930E+05  9.284033E+04  1.105766E+05 -6.694186E+04 -7.614598E+04 -1.564322E+04
       340   7 -2.289743E+05 -2.355310E+05 -1.739775E+05 -8.049322E+04 -3.422818E+04 -5.274029E+04
       340   8 -3.386986E+05 -2.534423E+05 -1.792369E+05 -3.302706E+04 -3.049151E+04 -4.929331E+04
       340   9 -4.288210E+05 -1.929229E+05 -1.672204E+05 -2.162102E+04 -2.681273E+04 -1.555837E+04
       340  10  1.676803E+06  2.267717E+05  2.329208E+05 -5.306914E+04  1.119428E-09 -2.098779E-09
       340  11  1.761752E+06  2.582001E+05  2.807847E+05 -6.468248E+04 -2.321784E-09 -4.959118E-09
       340  12  1.876814E+06  3.785115E+05  3.882590E+05 -1.123492E+05 -2.070785E-09 -1.413827E-09
       340  13  7.234866E+05 -4.352074E+03  2.949414E+04 -6.679247E+04 -7.273451E-10 -5.574279E-09
       340  14  7.110098E+05  2.413756E+03  5.080415E+04 -4.884166E+04 -1.279912E-09  2.160630E-09
       340  15  7.233867E+05  9.283851E+04  1.105652E+05 -6.694282E+04 -3.360899E-10 -2.864288E-11
       340  16 -2.289763E+05 -2.355343E+05 -1.739849E+05 -8.049467E+04 -1.639898E-09 -1.115807E-09
       340  17 -3.387003E+05 -2.534451E+05 -1.792432E+05 -3.302827E+04  1.851941E-10  1.284189E-09
       340  18 -4.288218E+05 -1.929234E+05 -1.672222E+05 -2.162136E+04  3.493099E-09 -1.972214E-09
       340  19  1.676804E+06  2.267747E+05  2.329263E+05 -5.306869E+04  1.068624E+04  5.270163E+04
       340  20  1.761757E+06  2.582039E+05  2.807980E+05 -6.467977E+04  6.809323E+04  4.933472E+04
       340  21  1.876831E+06  3.785160E+05  3.882890E+05 -1.123476E+05  1.255704E+05  1.572080E+04
       340  22  7.234879E+05 -4.348953E+03  2.950032E+04 -6.679152E+04  2.246611E+04  5.272121E+04
       340  23  7.110131E+05  2.417019E+03  5.081328E+04 -4.883971E+04  4.927670E+04  4.931450E+04
       340  24  7.233930E+05  9.284033E+04  1.105766E+05 -6.694186E+04  7.614598E+04  1.564322E+04
       340  25 -2.289743E+05 -2.355310E+05 -1.739775E+05 -8.049322E+04  3.422818E+04  5.274029E+04
       340  26 -3.386986E+05 -2.534423E+05 -1.792369E+05 -3.302706E+04  3.049151E+04  4.929331E+04
       340  27 -4.288210E+05 -1.929229E+05 -1.672204E+05 -2.162102E+04  2.681273E+04  1.555837E+04
       341   1  7.565102E+05  2.834488E+06  7.488663E+05 -5.650240E+05  3.117243E+04  1.401639E+05
       341   2  4.986789E+05  2.040952E+06  4.820636E+05 -4.022597E+05  8.868958E+04  4.298125E+04
       341   3  3.069302E+05  1.276716E+06  2.947616E+05 -5.277158E+05  6.719587E+04 -5.424411E+04
       341   4  5.709420E+04  1.609414E+04  6.613442E+04 -5.317088E+05  3.143477E+04  4.220318E+04
       341   5  2.905381E+03  9.069777E+03  3.300036E+04 -3.876565E+05  8.876543E+04  2.503874E+04
       341   6  1.102811E+03  1.703996E+04  2.406050E+04 -5.318592E+05  6.697464E+04  7.708236E+03
       341   7 -6.428950E+05 -2.795043E+06 -6.171331E+05 -4.985373E+05  3.168740E+04 -5.531607E+04
       341   8 -4.931452E+05 -2.018963E+06 -4.163164E+05 -3.730976E+05  8.884060E+04  7.154021E+03
       341   9 -3.048264E+05 -1.241138E+06 -2.467191E+05 -5.359922E+05  6.675231E+04  6.953682E+04
       341  10  7.565039E+05  2.834467E+06  7.488277E+05 -5.650275E+05  3.143433E-10  1.604547E-09
       341  11  4.986699E+05  2.040948E+06  4.820454E+05 -4.022627E+05 -2.821964E-10 -8.644322E-10
       341  12  3.069245E+05  1.276711E+06  2.947476E+05 -5.277129E+05  1.521273E-09  1.313002E-10
       341  13  5.709266E+04  1.609196E+04  6.612921E+04 -5.317099E+05  1.501332E-09 -4.084296E-12
       341  14  2.896750E+03  9.066986E+03  3.298437E+04 -3.876583E+05 -2.554939E-10 -1.241911E-09
       341  15  1.097978E+03  1.703869E+04  2.405195E+04 -5.318597E+05  3.772373E-10 -2.985718E-10
       341  16 -6.428969E+05 -2.795046E+06 -6.171407E+05 -4.985359E+05 -6.271123E-10  2.203707E-10
       341  17 -4.931536E+05 -2.018965E+06 -4.163313E+05 -3.730981E+05  5.781900E-10  3.861365E-09
       341  18 -3.048325E+05 -1.241144E+06 -2.467366E+05 -5.359960E+05 -1.036720E-09 -2.218342E-09
       341  19  7.565102E+05  2.834488E+06  7.488663E+05 -5.650240E+05 -3.117243E+04 -1.401639E+05
       341  20  4.986789E+05  2.040952E+06  4.820636E+05 -4.022597E+05 -8.868958E+04 -4.298125E+04
       341  21  3.069302E+05  1.276716E+06  2.947616E+05 -5.277158E+05 -6.719587E+04  5.424411E+04
       341  22  5.709420E+04  1.609414E+04  6.613442E+04 -5.317088E+05 -3.143477E+04 -4.220318E+04
       341  23  2.905381E+03  9.069777E+03  3.300036E+04 -3.876565E+05 -8.876543E+04 -2.503874E+04
       341  24  1.102811E+03  1.703996E+04  2.406050E+04 -5.318592E+05 -6.697464E+04 -7.708236E+03
       341  25 -6.428950E+05 -2.795043E+06 -6.171331E+05 -4.985373E+05 -3.168740E+04  5.531607E+04
       341  26 -4.931452E+05 -2.018963E+06 -4.163164E+05 -3.730976E+05 -8.884060E+04 -7.154021E+03
       341  27 -3.048264E+05 -1.241138E+06 -2.467191E+05 -5.359922E+05 -6.675231E+04 -6.953682E+04
       342   1  1.651017E+05  6.691754E+05  1.639887E+05 -5.362997E+05  3.403870E+04 -3.741391E+04
       342   2 -2.719927E+04 -1.092267E+05 -3.092067E+03 -3.861951E+05 -6.591279E+03 -4.881202E+04
       342   3 -2.100915E+05 -8.853019E+05 -1.609748E+05 -5.278984E+05 -4.692561E+04 -6.018954E+04
       342   4  5.888737E+03  1.436080E+04  2.258960E+04 -5.326116E+05  3.388008E+04  3.748250E+03
       342   5  2.580321E+03  1.342905E+04  2.312411E+04 -3.867061E+05 -6.744775E+03 -7.969539E+03
       342   6  8.769706E+03  1.430340E+04  3.309478E+04 -5.326004E+05 -4.707593E+04 -1.968044E+04
       342   7 -1.533515E+05 -6.400477E+05 -1.188285E+05 -5.289268E+05  3.372186E+04  4.486762E+04
       342   8  3.235982E+04  1.361026E+05  4.934569E+04 -3.872172E+05 -6.898321E+03  3.288089E+04
       342   9  2.275786E+05  9.146731E+05  2.271229E+05 -5.373083E+05 -4.722674E+04  2.088664E+04
       342  10  1.651001E+05  6.691735E+05  1.639839E+05 -5.362987E+05  3.892702E-10  4.391558E-09
       342  11 -2.719995E+04 -1.092293E+05 -3.096628E+03 -3.861954E+05  2.629969E-09 -1.261122E-09
       342  12 -2.100949E+05 -8.853064E+05 -1.609858E+05 -5.279007E+05 -8.745048E-10 -9.901803E-10
       342  13  5.887501E+03  1.436048E+04  2.258741E+04 -5.326117E+05  1.916499E-10  7.619577E-11
       342  14  2.580255E+03  1.342897E+04  2.312391E+04 -3.867062E+05  3.054324E-09 -1.587378E-09
       342  15  8.767221E+03  1.430239E+04  3.308988E+04 -5.326012E+05  2.837783E-09 -2.717697E-10
       342  16 -1.533533E+05 -6.400502E+05 -1.188344E+05 -5.289281E+05 -4.790393E-10 -9.239889E-10
       342  17  3.235948E+04  1.361014E+05  4.934357E+04 -3.872170E+05 -2.108424E-09  4.610177E-09
       342  18  2.275761E+05  9.146721E+05  2.271178E+05 -5.373075E+05 -8.565176E-10 -9.133590E-10
       342  19  1.651017E+05  6.691754E+05  1.639887E+05 -5.362997E+05 -3.403870E+04  3.741391E+04
       342  20 -2.719927E+04 -1.092267E+05 -3.092067E+03 -3.861951E+05  6.591279E+03  4.881202E+04
       342  21 -2.100915E+05 -8.853019E+05 -1.609748E+05 -5.278984E+05  4.692561E+04  6.018954E+04
       342  22  5.888737E+03  1.436080E+04  2.258960E+04 -5.326116E+05 -3.388008E+04 -3.748250E+03
       342  23  2.580321E+03  1.342905E+04  2.312411E+04 -3.867061E+05  6.744775E+03  7.969539E+03
       342  24  8.769706E+03  1.430340E+04  3.309478E+04 -5.326004E+05  4.707593E+04  1.968044E+04
       342  25 -1.533515E+05 -6.400477E+05 -1.188285E+05 -5.289268E+05 -3.372186E+04 -4.486762E+04
       342  26  3.235982E+04  1.361026E+05  4.934569E+04 -3.872172E+05  6.898321E+03 -3.288089E+04
       342  27  2.275786E+05  9.146731E+05  2.271229E+05 -5.373083E+05  4.722674E+04 -2.088664E+04
       343   1 -3.673163E+05 -1.482923E+06 -2.833856E+05 -5.438720E+05 -8.036849E+04 -8.860306E+04
       343   2 -5.514914E+05 -2.268139E+06 -4.385297E+05 -3.620529E+05 -1.005104E+05 -3.647874E+04
       343   3 -6.438820E+05 -3.036479E+06 -6.047865E+05 -4.682595E+05 -3.514623E+04  1.573930E+04
       343   4 -1.838663E+03  2.050664E+04  3.981110E+04 -5.318140E+05 -8.058477E+04 -2.560487E+04
       343   5  4.374202E+03  4.405905E+03  6.436945E+04 -3.877074E+05 -1.004173E+05 -5.951625E+04
       343   6  1.171645E+05  1.944829E+04  1.375646E+05 -5.315186E+05 -3.489066E+04 -9.327021E+04
       343   7  3.634934E+05  1.526073E+06  3.628905E+05 -5.197236E+05 -8.079829E+04  3.754407E+04
       343   8  5.598937E+05  2.281788E+06  5.669516E+05 -4.134524E+05 -1.003225E+05 -8.263705E+04
       343   9  8.775442E+05  3.083962E+06  8.792871E+05 -5.950829E+05 -3.461363E+04 -2.028158E+05
       343  10 -3.673254E+05 -1.482933E+06 -2.834126E+05 -5.438778E+05 -2.713496E-10  2.523949E-09
       343  11 -5.515026E+05 -2.268143E+06 -4.385512E+05 -3.620558E+05  5.907246E-10 -8.309521E-10
       343  12 -6.438834E+05 -3.036480E+06 -6.047893E+05 -4.682591E+05 -1.497709E-10  4.837349E-11
       343  13 -1.845815E+03  2.050419E+04  3.979765E+04 -5.318157E+05 -2.357699E-09  6.665182E-11
       343  14  4.362418E+03  4.399389E+03  6.434382E+04 -3.877122E+05  1.106338E-09 -1.233094E-09
       343  15  1.171609E+05  1.943862E+04  1.375460E+05 -5.315212E+05 -3.771486E-10 -1.944981E-10
       343  16  3.634860E+05  1.526070E+06  3.628756E+05 -5.197212E+05  8.264391E-10  5.215227E-10
       343  17  5.598811E+05  2.281778E+06  5.669199E+05 -4.134591E+05  2.052728E-10  2.966677E-09
       343  18  8.775319E+05  3.083918E+06  8.792078E+05 -5.950886E+05 -7.947467E-10 -1.052221E-09
       343  19 -3.673163E+05 -1.482923E+06 -2.833856E+05 -5.438720E+05  8.036849E+04  8.860306E+04
       343  20 -5.514914E+05 -2.268139E+06 -4.385297E+05 -3.620529E+05  1.005104E+05  3.647874E+04
       343  21 -6.438820E+05 -3.036479E+06 -6.047865E+05 -4.682595E+05  3.514623E+04 -1.573930E+04
       343  22 -1.838663E+03  2.050664E+04  3.981110E+04 -5.318140E+05  8.058477E+04  2.560487E+04
       343  23  4.374202E+03  4.405905E+03  6.436945E+04 -3.877074E+05  1.004173E+05  5.951625E+04
       343  24  1.171645E+05  1.944829E+04  1.375646E+05 -5.315186E+05  3.489066E+04  9.327021E+04
       343  25  3.634934E+05  1.526073E+06  3.628905E+05 -5.197236E+05  8.079829E+04 -3.754407E+04
       343  26  5.598937E+05  2.281788E+06  5.669516E+05 -4.134524E+05  1.003225E+05  8.263705E+04
       343  27  8.775442E+05  3.083962E+06  8.792871E+05 -5.950829E+05  3.461363E+04  2.028158E+05
       344   1 -1.813777E+06 -7.266404E+05 -4.092432E+05 -7.106621E+05 -1.836643E+05 -5.589928E+04
       344   2 -1.738658E+06 -5.006794E+05 -2.484918E+05 -6.795531E+05 -1.159857E+05 -1.210837E+03
       344   3 -1.704788E+06 -4.190665E+05 -1.801188E+05 -6.366654E+05 -4.003571E+04  3.156593E+04
       344   4 -1.101300E+06 -3.663276E+05 -2.051003E+05 -4.211359E+05 -1.362189E+05 -3.807567E+04
       344   5 -1.072126E+06 -2.169311E+05 -9.268011E+04 -4.571117E+05 -9.699322E+04  5.922406E+03
       344   6 -1.078496E+06 -2.061642E+05 -4.998573E+04 -4.813302E+05 -4.951108E+04  2.799991E+04
       344   7 -3.882933E+05 -5.841974E+03 -9.921036E+02 -1.312629E+05 -8.871348E+04 -2.021162E+04
       344   8 -4.051354E+05  6.689621E+04  6.310409E+04 -2.344347E+05 -7.797856E+04  1.306690E+04
       344   9 -4.518037E+05  6.756427E+03  8.012686E+04 -3.258565E+05 -5.899679E+04  2.443068E+04
       344  10 -1.813814E+06 -7.266528E+05 -4.093127E+05 -7.106704E+05 -1.176498E-09 -2.262398E-10
       344  11 -1.738672E+06 -5.006830E+05 -2.485171E+05 -6.795532E+05 -2.664016E-09  2.295421E-09
       344  12 -1.704790E+06 -4.190680E+05 -1.801237E+05 -6.366644E+05 -5.602054E-10  1.990897E-11
       344  13 -1.101321E+06 -3.663342E+05 -2.051380E+05 -4.211401E+05  1.610214E-10  2.653948E-10
       344  14 -1.072136E+06 -2.169336E+05 -9.269788E+04 -4.571113E+05 -1.210855E-10 -1.161760E-10
       344  15 -1.078499E+06 -2.061657E+05 -4.999181E+04 -4.813291E+05  5.409587E-10 -2.154306E-09
       344  16 -3.883018E+05 -5.844528E+03 -1.007672E+03 -1.312643E+05  8.133493E-10  2.164550E-10
       344  17 -4.051419E+05  6.689439E+04  6.309234E+04 -2.344338E+05  1.658563E-09 -5.600849E-10
       344  18 -4.518076E+05  6.754852E+03  8.011920E+04 -3.258554E+05  8.217797E-10 -1.153865E-09
       344  19 -1.813777E+06 -7.266404E+05 -4.092432E+05 -7.106621E+05  1.836643E+05  5.589928E+04
       344  20 -1.738658E+06 -5.006794E+05 -2.484918E+05 -6.795531E+05  1.159857E+05  1.210837E+03
       344  21 -1.704788E+06 -4.190665E+05 -1.801188E+05 -6.366654E+05  4.003571E+04 -3.156593E+04
       344  22 -1.101300E+06 -3.663276E+05 -2.051003E+05 -4.211359E+05  1.362189E+05  3.807567E+04
       344  23 -1.072126E+06 -2.169311E+05 -9.268011E+04 -4.571117E+05  9.699322E+04 -5.922406E+03
       344  24 -1.078496E+06 -2.061642E+05 -4.998573E+04 -4.813302E+05  4.951108E+04 -2.799991E+04
       344  25 -3.882933E+05 -5.841974E+03 -9.921036E+02 -1.312629E+05  8.871348E+04  2.021162E+04
       344  26 -4.051354E+05  6.689621E+04  6.310409E+04 -2.344347E+05  7.797856E+04 -1.306690E+04
       344  27 -4.518037E+05  6.756427E+03  8.012686E+04 -3.258565E+05  5.899679E+04 -2.443068E+04
       345   1 -1.625658E+06 -4.194948E+05 -1.562717E+05 -6.309602E+05 -3.752888E+04  2.792263E+04
       345   2 -1.550484E+06 -3.728473E+05 -1.192111E+05 -5.982350E+05 -2.401279E+04  2.819762E+04
       345   3 -1.461279E+06 -3.495333E+05 -9.253815E+04 -5.846982E+05 -9.997649E+03  2.714264E+04
       345   4 -1.072135E+06 -2.139071E+05 -3.845000E+04 -4.756241E+05 -4.215647E+04  2.617961E+04
       345   5 -1.078857E+06 -1.992604E+05 -2.029514E+04 -4.672058E+05 -3.036107E+04  2.580956E+04
       345   6 -1.071211E+06 -2.076018E+05 -1.115491E+04 -4.779781E+05 -1.806843E+04  2.410939E+04
       345   7 -5.183030E+05 -8.294166E+03  7.935335E+04 -3.201607E+05 -4.678848E+04  2.443490E+04
       345   8 -6.070028E+05 -2.565455E+04  7.860882E+04 -3.360846E+05 -3.671456E+04  2.341953E+04
       345   9 -6.809836E+05 -6.565720E+04  7.022123E+04 -3.711955E+05 -2.614474E+04  2.107410E+04
       345  10 -1.625660E+06 -4.194960E+05 -1.562758E+05 -6.309593E+05 -2.310624E-08 -9.444432E-09
       345  11 -1.550485E+06 -3.728484E+05 -1.192136E+05 -5.982345E+05  1.419822E-09 -5.029152E-10
       345  12 -1.461280E+06 -3.495341E+05 -9.253972E+04 -5.846980E+05  2.401745E-08  8.679202E-09
       345  13 -1.072137E+06 -2.139084E+05 -3.845462E+04 -4.756232E+05  1.158678E-09 -1.373905E-09
       345  14 -1.078858E+06 -1.992613E+05 -2.029813E+04 -4.672052E+05  2.032876E-09 -2.221137E-09
       345  15 -1.071211E+06 -2.076025E+05 -1.115661E+04 -4.779777E+05  6.225145E-10 -9.077798E-10
       345  16 -5.183055E+05 -8.295394E+03  7.934811E+04 -3.201597E+05  2.482699E-08  7.329765E-09
       345  17 -6.070044E+05 -2.565550E+04  7.860526E+04 -3.360839E+05  3.201693E-09 -1.253640E-09
       345  18 -6.809844E+05 -6.565786E+04  7.021911E+04 -3.711950E+05 -2.251137E-08 -1.033844E-08
       345  19 -1.625658E+06 -4.194948E+05 -1.562717E+05 -6.309602E+05  3.752888E+04 -2.792263E+04
       345  20 -1.550484E+06 -3.728473E+05 -1.192111E+05 -5.982350E+05  2.401279E+04 -2.819762E+04
       345  21 -1.461279E+06 -3.495333E+05 -9.253815E+04 -5.846982E+05  9.997649E+03 -2.714264E+04
       345  22 -1.072135E+06 -2.139071E+05 -3.845000E+04 -4.756241E+05  4.215647E+04 -2.617961E+04
       345  23 -1.078857E+06 -1.992604E+05 -2.029514E+04 -4.672058E+05  3.036107E+04 -2.580956E+04
       345  24 -1.071211E+06 -2.076018E+05 -1.115491E+04 -4.779781E+05  1.806843E+04 -2.410939E+04
       345  25 -5.183030E+05 -8.294166E+03  7.935335E+04 -3.201607E+05  4.678848E+04 -2.443490E+04
       345  26 -6.070028E+05 -2.565455E+04  7.860882E+04 -3.360846E+05  3.671456E+04 -2.341953E+04
       345  27 -6.809836E+05 -6.565720E+04  7.022123E+04 -3.711955E+05  2.614474E+04 -2.107410E+04
       346   1 -1.402038E+06 -3.290870E+05 -7.720533E+04 -5.690870E+05 -7.358223E+03  2.402637E+04
       346   2 -1.327333E+06 -2.895219E+05 -5.622595E+04 -5.359423E+05 -2.675033E+03  1.890516E+04
       346   3 -1.235274E+06 -2.679821E+05 -3.710967E+04 -5.231218E+05  2.039014E+03  1.369784E+04
       346   4 -1.070736E+06 -2.079181E+05 -8.407459E+03 -4.776909E+05 -1.514762E+04  2.109975E+04
       346   5 -1.079400E+06 -1.988316E+05 -4.628617E+03 -4.675562E+05 -1.057540E+04  1.593795E+04
       346   6 -1.070696E+06 -2.077481E+05 -2.624023E+03 -4.777478E+05 -5.972689E+03  1.068996E+04
       346   7 -7.393204E+05 -8.674013E+04  6.038481E+04 -3.862498E+05 -2.294150E+04  1.817146E+04
       346   8 -8.314048E+05 -1.081366E+05  4.696541E+04 -3.991452E+05 -1.847913E+04  1.296948E+04
       346   9 -9.060911E+05 -1.475123E+05  3.186007E+04 -4.323630E+05 -1.398662E+04  7.681251E+03
       346  10 -1.402038E+06 -3.290877E+05 -7.720652E+04 -5.690869E+05  2.111060E-10  9.926782E-10
       346  11 -1.327333E+06 -2.895223E+05 -5.622663E+04 -5.359422E+05  1.267013E-09  4.733754E-10
       346  12 -1.235274E+06 -2.679823E+05 -3.711003E+04 -5.231218E+05  1.046059E-09  1.089830E-09
       346  13 -1.070736E+06 -2.079186E+05 -8.408726E+03 -4.776907E+05  7.478105E-11 -7.971852E-10
       346  14 -1.079400E+06 -1.988319E+05 -4.629304E+03 -4.675561E+05  6.434340E-10  9.068142E-10
       346  15 -1.070696E+06 -2.077482E+05 -2.624305E+03 -4.777477E+05  2.085686E-13  6.441422E-10
       346  16 -7.393211E+05 -8.674063E+04  6.038320E+04 -3.862495E+05 -3.980318E-10 -9.818138E-10
       346  17 -8.314052E+05 -1.081369E+05  4.696446E+04 -3.991450E+05 -1.210640E-09 -1.521657E-11
       346  18 -9.060914E+05 -1.475124E+05  3.185959E+04 -4.323629E+05 -1.513599E-09  6.991731E-10
       346  19 -1.402038E+06 -3.290870E+05 -7.720533E+04 -5.690870E+05  7.358223E+03 -2.402637E+04
       346  20 -1.327333E+06 -2.895219E+05 -5.622595E+04 -5.359423E+05  2.675033E+03 -1.890516E+04
       346  21 -1.235274E+06 -2.679821E+05 -3.710967E+04 -5.231218E+05 -2.039014E+03 -1.369784E+04
       346  22 -1.070736E+06 -2.079181E+05 -8.407459E+03 -4.776909E+05  1.514762E+04 -2.109975E+04
       346  23 -1.079400E+06 -1.988316E+05 -4.628617E+03 -4.675562E+05  1.057540E+04 -1.593795E+04
       346  24 -1.070696E+06 -2.077481E+05 -2.624023E+03 -4.777478E+05  5.972689E+03 -1.068996E+04
       346  25 -7.393204E+05 -8.674013E+04  6.038481E+04 -3.862498E+05  2.294150E+04 -1.817146E+04
       346  26 -8.314048E+05 -1.081366E+05  4.696541E+04 -3.991452E+05  1.847913E+04 -1.296948E+04
       346  27 -9.060911E+05 -1.475123E+05  3.186007E+04 -4.323630E+05  1.398662E+04 -7.681251E+03
       347   1 -1.176890E+06 -2.465765E+05 -2.387851E+04 -5.070535E+05  3.757471E+03  1.025373E+04
       347   2 -1.102231E+06 -2.071630E+05 -6.031055E+03 -4.737978E+05  6.720806E+03  4.350091E+03
       347   3 -1.009885E+06 -1.855417E+05  1.132614E+04 -4.608885E+05  9.685891E+03 -1.558460E+03
       347   4 -1.070632E+06 -2.077597E+05 -2.030920E+03 -4.777298E+05 -4.241225E+03  7.251093E+03
       347   5 -1.079472E+06 -1.988700E+05 -1.301599E+03 -4.675521E+05 -1.284793E+03  1.344937E+03
       347   6 -1.070632E+06 -2.077725E+05 -1.057639E+03 -4.777241E+05  1.673281E+03 -4.566141E+03
       347   7 -9.643619E+05 -1.689417E+05  1.981659E+04 -4.484012E+05 -1.224146E+04  4.247886E+03
       347   8 -1.056712E+06 -1.905769E+05  3.428130E+03 -4.613061E+05 -9.290741E+03 -1.660347E+03
       347   9 -1.131374E+06 -2.300029E+05 -1.344134E+04 -4.945582E+05 -6.338488E+03 -7.573506E+03
       347  10 -1.176890E+06 -2.465766E+05 -2.387874E+04 -5.070535E+05  1.133734E-09  8.977135E-10
       347  11 -1.102232E+06 -2.071630E+05 -6.031176E+03 -4.737978E+05  1.872927E-10  5.312447E-10
       347  12 -1.009886E+06 -1.855417E+05  1.132596E+04 -4.608885E+05 -9.782761E-10  6.383179E-10
       347  13 -1.070632E+06 -2.077598E+05 -2.031052E+03 -4.777298E+05 -1.055399E-10  5.755027E-10
       347  14 -1.079472E+06 -1.988700E+05 -1.301606E+03 -4.675521E+05  9.987052E-10 -5.549985E-10
       347  15 -1.070632E+06 -2.077725E+05 -1.057683E+03 -4.777241E+05 -1.340233E-10  2.978812E-10
       347  16 -9.643620E+05 -1.689417E+05  1.981628E+04 -4.484011E+05 -1.229814E-09  2.498537E-10
       347  17 -1.056712E+06 -1.905769E+05  3.427962E+03 -4.613061E+05 -7.734748E-10  1.494654E-10
       347  18 -1.131374E+06 -2.300029E+05 -1.344152E+04 -4.945582E+05 -2.111327E-10 -2.147245E-10
       347  19 -1.176890E+06 -2.465765E+05 -2.387851E+04 -5.070535E+05 -3.757471E+03 -1.025373E+04
       347  20 -1.102231E+06 -2.071630E+05 -6.031055E+03 -4.737978E+05 -6.720806E+03 -4.350091E+03
       347  21 -1.009885E+06 -1.855417E+05  1.132614E+04 -4.608885E+05 -9.685891E+03  1.558460E+03
       347  22 -1.070632E+06 -2.077597E+05 -2.030920E+03 -4.777298E+05  4.241225E+03 -7.251093E+03
       347  23 -1.079472E+06 -1.988700E+05 -1.301599E+03 -4.675521E+05  1.284793E+03 -1.344937E+03
       347  24 -1.070632E+06 -2.077725E+05 -1.057639E+03 -4.777241E+05 -1.673281E+03  4.566141E+03
       347  25 -9.643619E+05 -1.689417E+05  1.981659E+04 -4.484012E+05  1.224146E+04 -4.247886E+03
       347  26 -1.056712E+06 -1.905769E+05  3.428130E+03 -4.613061E+05  9.290741E+03  1.660347E+03
       347  27 -1.131374E+06 -2.300029E+05 -1.344134E+04 -4.945582E+05  6.338488E+03  7.573506E+03
       348   1 -9.515813E+05 -1.640909E+05  2.394464E+04 -4.447939E+05  1.120700E+04 -5.075436E+03
       348   2 -8.769972E+05 -1.247120E+05  4.069390E+04 -4.115639E+05  1.420940E+04 -1.096353E+04
       348   3 -7.847428E+05 -1.031057E+05  5.692557E+04 -3.986569E+05  1.720902E+04 -1.684034E+04
       348   4 -1.070639E+06 -2.077708E+05 -1.078583E+03 -4.777193E+05  3.196450E+03 -8.082575E+03
       348   5 -1.079476E+06 -1.988882E+05 -1.421168E+03 -4.675566E+05  6.212423E+03 -1.396648E+04
       348   6 -1.070652E+06 -2.077818E+05 -2.292077E+03 -4.777200E+05  9.225527E+03 -1.983912E+04
       348   7 -1.189681E+06 -2.514491E+05 -2.610206E+04 -5.106387E+05 -4.812381E+03 -1.108907E+04
       348   8 -1.281912E+06 -2.730610E+05 -4.353815E+04 -5.235325E+05 -1.781740E+03 -1.696836E+04
       348   9 -1.356478E+06 -3.124518E+05 -6.151436E+04 -5.567500E+05  1.245937E+03 -2.283644E+04
       348  10 -9.515814E+05 -1.640909E+05  2.394436E+04 -4.447938E+05  5.880261E-10  9.453261E-10
       348  11 -8.769974E+05 -1.247122E+05  4.069330E+04 -4.115638E+05  1.542418E-09  1.329711E-10
       348  12 -7.847432E+05 -1.031061E+05  5.692448E+04 -3.986567E+05  1.627923E-09 -5.162899E-12
       348  13 -1.070639E+06 -2.077708E+05 -1.078725E+03 -4.777193E+05 -3.322262E-10  6.336334E-10
       348  14 -1.079476E+06 -1.988885E+05 -1.421607E+03 -4.675566E+05  2.119474E-09 -2.837089E-10
       348  15 -1.070652E+06 -2.077822E+05 -2.292976E+03 -4.777198E+05  4.514599E-10 -7.744335E-10
       348  16 -1.189682E+06 -2.514493E+05 -2.610234E+04 -5.106387E+05 -5.642734E-10 -5.538116E-10
       348  17 -1.281912E+06 -2.730613E+05 -4.353870E+04 -5.235325E+05 -4.126821E-10 -9.932177E-10
       348  18 -1.356479E+06 -3.124524E+05 -6.151535E+04 -5.567500E+05 -1.284575E-09 -1.316993E-09
       348  19 -9.515813E+05 -1.640909E+05  2.394464E+04 -4.447939E+05 -1.120700E+04  5.075436E+03
       348  20 -8.769972E+05 -1.247120E+05  4.069390E+04 -4.115639E+05 -1.420940E+04  1.096353E+04
       348  21 -7.847428E+05 -1.031057E+05  5.692557E+04 -3.986569E+05 -1.720902E+04  1.684034E+04
       348  22 -1.070639E+06 -2.077708E+05 -1.078583E+03 -4.777193E+05 -3.196450E+03  8.082575E+03
       348  23 -1.079476E+06 -1.988882E+05 -1.421168E+03 -4.675566E+05 -6.212423E+03  1.396648E+04
       348  24 -1.070652E+06 -2.077818E+05 -2.292077E+03 -4.777200E+05 -9.225527E+03  1.983912E+04
       348  25 -1.189681E+06 -2.514491E+05 -2.610206E+04 -5.106387E+05  4.812381E+03  1.108907E+04
       348  26 -1.281912E+06 -2.730610E+05 -4.353815E+04 -5.235325E+05  1.781740E+03  1.696836E+04
       348  27 -1.356478E+06 -3.124518E+05 -6.151436E+04 -5.567500E+05 -1.245937E+03  2.283644E+04
       349   1 -7.266205E+05 -8.171552E+04  6.884110E+04 -3.826396E+05  1.900187E+04 -2.024651E+04
       349   2 -6.521763E+05 -4.245408E+04  8.358099E+04 -3.495032E+05  2.379282E+04 -2.539191E+04
       349   3 -5.604229E+05 -2.115176E+04  9.640301E+04 -3.366189E+05  2.854626E+04 -3.042880E+04
       349   4 -1.070737E+06 -2.077658E+05 -2.983080E+03 -4.777318E+05  1.100638E+04 -2.325065E+04
       349   5 -1.079403E+06 -1.988801E+05 -5.300372E+03 -4.675690E+05  1.593557E+04 -2.834601E+04
       349   6 -1.070794E+06 -2.079827E+05 -9.645963E+03 -4.776623E+05  2.082684E+04 -3.333293E+04
       349   7 -1.414731E+06 -3.338061E+05 -7.481334E+04 -5.727753E+05  3.015678E+03 -2.625300E+04
       349   8 -1.506441E+06 -3.552903E+05 -9.419075E+04 -5.855594E+05  8.084171E+03 -3.129792E+04
       349   9 -1.580894E+06 -3.947904E+05 -1.157075E+05 -6.185976E+05  1.311432E+04 -3.623448E+04
       349  10 -7.266210E+05 -8.171606E+04  6.883966E+04 -3.826393E+05 -8.342179E-09 -3.453223E-09
       349  11 -6.521771E+05 -4.245493E+04  8.357872E+04 -3.495027E+05  1.625150E-08  5.806773E-09
       349  12 -5.604240E+05 -2.115297E+04  9.639974E+04 -3.366182E+05  3.376097E-08  1.515258E-08
       349  13 -1.070737E+06 -2.077664E+05 -2.984323E+03 -4.777316E+05  8.092590E-10 -3.915939E-10
       349  14 -1.079404E+06 -1.988810E+05 -5.302358E+03 -4.675687E+05 -1.222106E-09  1.482853E-09
       349  15 -1.070795E+06 -2.079840E+05 -9.648865E+03 -4.776617E+05 -3.783504E-09  8.698987E-10
       349  16 -1.414731E+06 -3.338069E+05 -7.481466E+04 -5.727752E+05  8.919255E-09  2.877177E-09
       349  17 -1.506441E+06 -3.552914E+05 -9.419271E+04 -5.855592E+05 -1.649798E-08 -4.925455E-09
       349  18 -1.580895E+06 -3.947919E+05 -1.157103E+05 -6.185972E+05 -4.057482E-08 -1.123975E-08
       349  19 -7.266205E+05 -8.171552E+04  6.884110E+04 -3.826396E+05 -1.900187E+04  2.024651E+04
       349  20 -6.521763E+05 -4.245408E+04  8.358099E+04 -3.495032E+05 -2.379282E+04  2.539191E+04
       349  21 -5.604229E+05 -2.115176E+04  9.640301E+04 -3.366189E+05 -2.854626E+04  3.042880E+04
       349  22 -1.070737E+06 -2.077658E+05 -2.983080E+03 -4.777318E+05 -1.100638E+04  2.325065E+04
       349  23 -1.079403E+06 -1.988801E+05 -5.300372E+03 -4.675690E+05 -1.593557E+04  2.834601E+04
       349  24 -1.070794E+06 -2.079827E+05 -9.645963E+03 -4.776623E+05 -2.082684E+04  3.333293E+04
       349  25 -1.414731E+06 -3.338061E+05 -7.481334E+04 -5.727753E+05 -3.015678E+03  2.625300E+04
       349  26 -1.506441E+06 -3.552903E+05 -9.419075E+04 -5.855594E+05 -8.084171E+03  3.129792E+04
       349  27 -1.580894E+06 -3.947904E+05 -1.157075E+05 -6.185976E+05 -1.311432E+04  3.623448E+04
       350   1 -5.023209E+05 -1.830232E+02  1.057725E+05 -3.217440E+05  3.203754E+04 -3.321113E+04
       350   2 -4.288292E+05  3.974801E+04  1.128169E+05 -2.864897E+05  4.368454E+04 -3.496547E+04
       350   3 -3.411012E+05  5.643488E+04  1.111936E+05 -2.701323E+05  5.472643E+04 -3.509711E+04
       350   4 -1.071345E+06 -2.076141E+05 -1.280117E+04 -4.779797E+05  2.397713E+04 -3.624481E+04
       350   5 -1.078786E+06 -1.994059E+05 -2.330196E+04 -4.671755E+05  3.772387E+04 -3.721233E+04
       350   6 -1.072419E+06 -2.148665E+05 -4.414451E+04 -4.752737E+05  5.086379E+04 -3.655678E+04
       350   7 -1.640042E+06 -4.150210E+05 -1.313932E+05 -6.340849E+05  1.592461E+04 -3.927558E+04
       350   8 -1.728312E+06 -4.385251E+05 -1.594444E+05 -6.476873E+05  3.176990E+04 -3.945666E+04
       350   9 -1.803190E+06 -4.861212E+05 -1.995127E+05 -6.801913E+05  4.700604E+04 -3.801459E+04
       350  10 -5.023223E+05 -1.844821E+02  1.057685E+05 -3.217432E+05 -4.258716E-08 -1.309673E-08
       350  11 -4.288315E+05  3.974619E+04  1.128110E+05 -2.864885E+05 -1.799041E-08 -8.165318E-09
       350  12 -3.411048E+05  5.643275E+04  1.111856E+05 -2.701308E+05  6.619452E-09  5.424134E-10
       350  13 -1.071346E+06 -2.076157E+05 -1.280472E+04 -4.779790E+05 -4.347803E-09  8.468925E-10
       350  14 -1.078787E+06 -1.994078E+05 -2.330723E+04 -4.671744E+05 -1.877842E-09  4.450021E-10
       350  15 -1.072422E+06 -2.148686E+05 -4.415188E+04 -4.752722E+05  4.297814E-11 -2.158594E-09
       350  16 -1.640043E+06 -4.150227E+05 -1.313966E+05 -6.340844E+05  3.511223E-08  1.766671E-08
       350  17 -1.728314E+06 -4.385270E+05 -1.594492E+05 -6.476863E+05  1.664303E-08  7.500471E-09
       350  18 -1.803193E+06 -4.861233E+05 -1.995195E+05 -6.801899E+05 -4.372322E-09 -2.252779E-09
       350  19 -5.023209E+05 -1.830232E+02  1.057725E+05 -3.217440E+05 -3.203754E+04  3.321113E+04
       350  20 -4.288292E+05  3.974801E+04  1.128169E+05 -2.864897E+05 -4.368454E+04  3.496547E+04
       350  21 -3.411012E+05  5.643488E+04  1.111936E+05 -2.701323E+05 -5.472643E+04  3.509711E+04
       350  22 -1.071345E+06 -2.076141E+05 -1.280117E+04 -4.779797E+05 -2.397713E+04  3.624481E+04
       350  23 -1.078786E+06 -1.994059E+05 -2.330196E+04 -4.671755E+05 -3.772387E+04  3.721233E+04
       350  24 -1.072419E+06 -2.148665E+05 -4.414451E+04 -4.752737E+05 -5.086379E+04  3.655678E+04
       350  25 -1.640042E+06 -4.150210E+05 -1.313932E+05 -6.340849E+05 -1.592461E+04  3.927558E+04
       350  26 -1.728312E+06 -4.385251E+05 -1.594444E+05 -6.476873E+05 -3.176990E+04  3.945666E+04
       350  27 -1.803190E+06 -4.861212E+05 -1.995127E+05 -6.801913E+05 -4.700604E+04  3.801459E+04
       351   1 -2.736558E+05  7.046164E+04  1.101275E+05 -2.790632E+05  6.889002E+04 -3.444214E+04
       351   2 -2.317696E+05  1.335533E+05  8.856084E+04 -1.793378E+05  8.807401E+04 -2.050456E+04
       351   3 -2.265109E+05  4.736912E+04  1.455375E+04 -6.286547E+04  9.719962E+04  2.012460E+04
       351   4 -1.079735E+06 -2.059659E+05 -5.738860E+04 -4.818069E+05  5.911443E+04 -3.812695E+04
       351   5 -1.071055E+06 -2.197195E+05 -1.064100E+05 -4.556054E+05  1.130111E+05 -1.112377E+04
       351   6 -1.105976E+06 -3.897735E+05 -2.354719E+05 -4.126453E+05  1.568369E+05  4.258195E+04
       351   7 -1.885152E+06 -4.823604E+05 -2.249386E+05 -6.843169E+05  4.935255E+04 -4.180740E+04
       351   8 -1.909609E+06 -5.728715E+05 -3.014224E+05 -7.315052E+05  1.379114E+05 -1.761198E+03
       351   9 -1.984628E+06 -8.266665E+05 -4.855470E+05 -7.619086E+05  2.163805E+05  6.497827E+04
       351  10 -2.736612E+05  7.045909E+04  1.101163E+05 -2.790612E+05 -2.955443E-08 -1.291464E-08
       351  11 -2.317780E+05  1.335507E+05  8.854547E+04 -1.793363E+05 -8.407697E-09 -4.203309E-09
       351  12 -2.265212E+05  4.736614E+04  1.453523E+04 -6.286705E+04  1.847982E-08  8.799905E-09
       351  13 -1.079739E+06 -2.059684E+05 -5.739790E+04 -4.818051E+05 -1.915535E-09 -3.647321E-09
       351  14 -1.071068E+06 -2.197231E+05 -1.064343E+05 -4.556044E+05 -4.608197E-09  1.692574E-09
       351  15 -1.106003E+06 -3.897821E+05 -2.355216E+05 -4.126507E+05 -5.257132E-09  2.562362E-09
       351  16 -1.885155E+06 -4.823629E+05 -2.249465E+05 -6.843152E+05  2.533101E-08  9.962661E-09
       351  17 -1.909630E+06 -5.728766E+05 -3.014582E+05 -7.315050E+05 -6.121542E-09  1.476291E-09
       351  18 -1.984680E+06 -8.266837E+05 -4.856433E+05 -7.619199E+05 -2.427739E-08 -9.368228E-09
       351  19 -2.736558E+05  7.046164E+04  1.101275E+05 -2.790632E+05 -6.889002E+04  3.444214E+04
       351  20 -2.317696E+05  1.335533E+05  8.856084E+04 -1.793378E+05 -8.807401E+04  2.050456E+04
       351  21 -2.265109E+05  4.736912E+04  1.455375E+04 -6.286547E+04 -9.719962E+04 -2.012460E+04
       351  22 -1.079735E+06 -2.059659E+05 -5.738860E+04 -4.818069E+05 -5.911443E+04  3.812695E+04
       351  23 -1.071055E+06 -2.197195E+05 -1.064100E+05 -4.556054E+05 -1.130111E+05  1.112377E+04
       351  24 -1.105976E+06 -3.897735E+05 -2.354719E+05 -4.126453E+05 -1.568369E+05 -4.258195E+04
       351  25 -1.885152E+06 -4.823604E+05 -2.249386E+05 -6.843169E+05 -4.935255E+04  4.180740E+04
       351  26 -1.909609E+06 -5.728715E+05 -3.014224E+05 -7.315052E+05 -1.379114E+05  1.761198E+03
       351  27 -1.984628E+06 -8.266665E+05 -4.855470E+05 -7.619086E+05 -2.163805E+05 -6.497827E+04
       352   1  1.905261E+05  4.905270E+04  2.243425E+04 -2.650456E+04 -6.680727E+04 -9.301315E+03
       352   2  1.565940E+05  1.481021E+05  7.217549E+04  2.405023E+03 -5.062786E+04 -2.944639E+04
       352   3  9.507277E+04  1.450847E+05  8.590818E+04  4.840580E+04 -3.448710E+04 -3.202007E+04
       352   4 -4.808138E+05 -1.173054E+05 -1.393483E+05  3.143886E+04 -9.593595E+04 -9.370129E+03
       352   5 -4.654435E+05 -3.461091E+03 -6.408692E+04  2.275239E+04 -6.207133E+04 -2.947666E+04
       352   6 -4.807689E+05  5.184031E+03 -3.714781E+04  3.115967E+04 -2.824313E+04 -3.200580E+04
       352   7 -1.151732E+06 -2.836831E+05 -3.011580E+05  8.931920E+04 -1.250332E+05 -9.444423E+03
       352   8 -1.087117E+06 -1.550484E+05 -2.003721E+05  4.307891E+04 -7.350345E+04 -2.950769E+04
       352   9 -1.056298E+06 -1.347373E+05 -1.602227E+05  1.392958E+04 -2.200486E+04 -3.199187E+04
       352  10  1.905213E+05  4.905141E+04  2.242570E+04 -2.650506E+04  1.404444E-09 -6.912130E-10
       352  11  1.565910E+05  1.481004E+05  7.216905E+04  2.403822E+03  2.810352E-10 -4.336218E-09
       352  12  9.507122E+04  1.450833E+05  8.590402E+04  4.840491E+04  2.137061E-09 -3.858293E-09
       352  13 -4.808237E+05 -1.173080E+05 -1.393658E+05  3.143814E+04 -7.096930E-10  1.698941E-09
       352  14 -4.654478E+05 -3.463059E+03 -6.409579E+04  2.275092E+04  1.993681E-10 -1.705050E-09
       352  15 -4.807700E+05  5.182717E+03 -3.715123E+04  3.115895E+04 -1.302246E-09  8.659140E-10
       352  16 -1.151749E+06 -2.836874E+05 -3.011876E+05  8.931825E+04 -1.040818E-09  6.118848E-10
       352  17 -1.087123E+06 -1.550508E+05 -2.003839E+05  4.307717E+04 -9.630430E-10 -6.185577E-09
       352  18 -1.056298E+06 -1.347385E+05 -1.602255E+05  1.392901E+04 -6.201228E-10 -6.425941E-09
       352  19  1.905261E+05  4.905270E+04  2.243425E+04 -2.650456E+04  6.680727E+04  9.301315E+03
       352  20  1.565940E+05  1.481021E+05  7.217549E+04  2.405023E+03  5.062786E+04  2.944639E+04
       352  21  9.507277E+04  1.450847E+05  8.590818E+04  4.840580E+04  3.448710E+04  3.202007E+04
       352  22 -4.808138E+05 -1.173054E+05 -1.393483E+05  3.143886E+04  9.593595E+04  9.370129E+03
       352  23 -4.654435E+05 -3.461091E+03 -6.408692E+04  2.275239E+04  6.207133E+04  2.947666E+04
       352  24 -4.807689E+05  5.184031E+03 -3.714781E+04  3.115967E+04  2.824313E+04  3.200580E+04
       352  25 -1.151732E+06 -2.836831E+05 -3.011580E+05  8.931920E+04  1.250332E+05  9.444423E+03
       352  26 -1.087117E+06 -1.550484E+05 -2.003721E+05  4.307891E+04  7.350345E+04  2.950769E+04
       352  27 -1.056298E+06 -1.347373E+05 -1.602227E+05  1.392958E+04  2.200486E+04  3.199187E+04
       353   1  6.411061E+04  1.253585E+05  8.628657E+04  3.055448E+04 -2.448367E+04 -2.908539E+04
       353   2  1.750892E+04  1.192782E+05  8.885345E+04  2.306213E+04 -1.729889E+04 -2.727191E+04
       353   3 -3.136189E+04  1.080610E+05  8.544833E+04  3.348030E+04 -1.011812E+04 -2.463341E+04
       353   4 -4.744803E+05 -5.499195E+03 -2.934372E+04  3.141787E+04 -2.307653E+04 -2.908370E+04
       353   5 -4.732635E+05  1.289404E+02 -1.600367E+04  2.245396E+04 -1.506638E+04 -2.726743E+04
       353   6 -4.744630E+05  4.742416E+02 -9.212791E+03  3.140154E+04 -7.059684E+03 -2.462587E+04
       353   7 -1.012798E+06 -1.363759E+05 -1.449910E+05  3.228032E+04 -2.167058E+04 -2.908200E+04
       353   8 -9.638091E+05 -1.190361E+05 -1.208747E+05  2.184612E+04 -1.283561E+04 -2.726295E+04
       353   9 -9.173793E+05 -1.071253E+05 -1.038852E+05  2.932414E+04 -4.003402E+03 -2.461834E+04
       353  10  6.410974E+04  1.253574E+05  8.628386E+04  3.055391E+04 -3.471001E-09 -4.733629E-09
       353  11  1.750839E+04  1.192774E+05  8.885149E+04  2.306175E+04 -5.125216E-09  2.419899E-09
       353  12 -3.136216E+04  1.080603E+05  8.544700E+04  3.348010E+04 -1.551833E-09  3.592329E-09
       353  13 -4.744811E+05 -5.500246E+03 -2.934631E+04  3.141733E+04 -5.346933E-10 -3.675437E-09
       353  14 -4.732640E+05  1.280812E+02 -1.600549E+04  2.245363E+04 -1.803799E-09  5.507583E-10
       353  15 -4.744633E+05  4.735772E+02 -9.214024E+03  3.140140E+04 -7.647732E-10 -1.944267E-09
       353  16 -1.012799E+06 -1.363769E+05 -1.449934E+05  3.227981E+04  3.263630E-09  2.104621E-10
       353  17 -9.638095E+05 -1.190369E+05 -1.208764E+05  2.184584E+04  1.979624E-09  1.075912E-09
       353  18 -9.173794E+05 -1.071260E+05 -1.038864E+05  2.932406E+04  3.337540E-09  1.575450E-09
       353  19  6.411061E+04  1.253585E+05  8.628657E+04  3.055448E+04  2.448367E+04  2.908539E+04
       353  20  1.750892E+04  1.192782E+05  8.885345E+04  2.306213E+04  1.729889E+04  2.727191E+04
       353  21 -3.136189E+04  1.080610E+05  8.544833E+04  3.348030E+04  1.011812E+04  2.463341E+04
       353  22 -4.744803E+05 -5.499195E+03 -2.934372E+04  3.141787E+04  2.307653E+04  2.908370E+04
       353  23 -4.732635E+05  1.289404E+02 -1.600367E+04  2.245396E+04  1.506638E+04  2.726743E+04
       353  24 -4.744630E+05  4.742416E+02 -9.212791E+03  3.140154E+04  7.059684E+03  2.462587E+04
       353  25 -1.012798E+06 -1.363759E+05 -1.449910E+05  3.228032E+04  2.167058E+04  2.908200E+04
       353  26 -9.638091E+05 -1.190361E+05 -1.208747E+05  2.184612E+04  1.283561E+04  2.726295E+04
       353  27 -9.173793E+05 -1.071253E+05 -1.038852E+05  2.932414E+04  4.003402E+03  2.461834E+04
       354   1 -6.801307E+04  9.848958E+04  7.947041E+04  3.251011E+04 -8.468504E+03 -2.289523E+04
       354   2 -1.157952E+05  8.708021E+04  7.235685E+04  2.338868E+04 -6.524003E+03 -2.005541E+04
       354   3 -1.639692E+05  7.550768E+04  6.391254E+04  3.230329E+04 -4.580973E+03 -1.717284E+04
       354   4 -4.740085E+05 -4.125884E+01 -7.050472E+03  3.143391E+04 -5.631084E+03 -2.288793E+04
       354   5 -4.738022E+05  1.756158E+02 -4.026061E+03  2.241517E+04 -3.644774E+03 -2.004744E+04
       354   6 -4.739975E+05  2.219832E+02 -2.362108E+03  3.143310E+04 -1.659787E+03 -1.716418E+04
       354   7 -8.798487E+05 -9.858283E+04 -9.358082E+04  3.035831E+04 -2.795492E+03 -2.288064E+04
       354   8 -8.316884E+05 -8.673733E+04 -8.041634E+04  2.144214E+04 -7.671806E+02 -2.003947E+04
       354   9 -7.839353E+05 -7.506999E+04 -6.864229E+04  3.056328E+04  1.259961E+03 -1.715552E+04
       354  10 -6.801329E+04  9.848900E+04  7.946929E+04  3.250996E+04 -2.138467E-09  5.576692E-09
       354  11 -1.157953E+05  8.707977E+04  7.235602E+04  2.338857E+04 -1.426473E-09  3.792872E-09
       354  12 -1.639693E+05  7.550736E+04  6.391195E+04  3.230323E+04  3.461611E-09 -6.570659E-11
       354  13 -4.740087E+05 -4.182976E+01 -7.051516E+03  3.143381E+04  3.510504E-10 -2.357544E-09
       354  14 -4.738023E+05  1.751808E+02 -4.026841E+03  2.241511E+04 -8.326728E-10  4.070829E-09
       354  15 -4.739976E+05  2.216662E+02 -2.362666E+03  3.143308E+04 -1.397469E-10  8.808861E-09
       354  16 -8.798488E+05 -9.858340E+04 -9.358182E+04  3.035826E+04  2.204322E-09  3.408766E-09
       354  17 -8.316885E+05 -8.673776E+04 -8.041710E+04  2.144213E+04  3.018861E-10  6.216747E-09
       354  18 -7.839353E+05 -7.507031E+04 -6.864285E+04  3.056330E+04 -1.784020E-09  3.579757E-09
       354  19 -6.801307E+04  9.848958E+04  7.947041E+04  3.251011E+04  8.468504E+03  2.289523E+04
       354  20 -1.157952E+05  8.708021E+04  7.235685E+04  2.338868E+04  6.524003E+03  2.005541E+04
       354  21 -1.639692E+05  7.550768E+04  6.391254E+04  3.230329E+04  4.580973E+03  1.717284E+04
       354  22 -4.740085E+05 -4.125884E+01 -7.050472E+03  3.143391E+04  5.631084E+03  2.288793E+04
       354  23 -4.738022E+05  1.756158E+02 -4.026061E+03  2.241517E+04  3.644774E+03  2.004744E+04
       354  24 -4.739975E+05  2.219832E+02 -2.362108E+03  3.143310E+04  1.659787E+03  1.716418E+04
       354  25 -8.798487E+05 -9.858283E+04 -9.358082E+04  3.035831E+04  2.795492E+03  2.288064E+04
       354  26 -8.316884E+05 -8.673733E+04 -8.041634E+04  2.144214E+04  7.671806E+02  2.003947E+04
       354  27 -7.839353E+05 -7.506999E+04 -6.864229E+04  3.056328E+04 -1.259961E+03  1.715552E+04
       355   1 -2.011699E+05  6.639486E+04  5.622799E+04  3.218317E+04 -4.199800E+03 -1.548546E+04
       355   2 -2.492332E+05  5.469027E+04  4.674871E+04  2.299314E+04 -3.632992E+03 -1.259013E+04
       355   3 -2.974755E+05  4.308737E+04  3.689383E+04  3.190652E+04 -3.067012E+03 -9.690218E+03
       355   4 -4.739440E+05  2.037324E+02 -1.837961E+03  3.144827E+04 -1.285790E+03 -1.547654E+04
       355   5 -4.738494E+05  1.622701E+02 -1.173774E+03  2.239635E+04 -7.147075E+02 -1.258085E+04
       355   6 -4.739373E+05  2.216644E+02 -8.884347E+02  3.144822E+04 -1.444081E+02 -9.680566E+03
       355   7 -7.466480E+05 -6.599223E+04 -5.990816E+04  3.071364E+04  1.626957E+03 -1.546763E+04
       355   8 -6.984179E+05 -5.436902E+04 -4.909914E+04  2.179973E+04  2.202537E+03 -1.257158E+04
       355   9 -6.503699E+05 -4.264607E+04 -3.867248E+04  3.099002E+04  2.777377E+03 -9.670917E+03
       355  10 -2.011700E+05  6.639460E+04  5.622751E+04  3.218312E+04  3.285022E-09  1.186030E-09
       355  11 -2.492333E+05  5.469010E+04  4.674839E+04  2.299310E+04 -1.745028E-09  9.619609E-09
       355  12 -2.974755E+05  4.308726E+04  3.689364E+04  3.190650E+04 -1.636970E-09  8.870072E-09
       355  13 -4.739441E+05  2.034748E+02 -1.838414E+03  3.144825E+04  5.408212E-10  1.348794E-09
       355  14 -4.738494E+05  1.621000E+02 -1.174073E+03  2.239634E+04 -4.235844E-10  9.451972E-09
       355  15 -4.739374E+05  2.215637E+02 -8.886108E+02  3.144822E+04  6.158508E-10  2.199171E-09
       355  16 -7.466481E+05 -6.599249E+04 -5.990861E+04  3.071366E+04 -3.238730E-09  1.307420E-09
       355  17 -6.984180E+05 -5.436919E+04 -4.909945E+04  2.179975E+04  4.737287E-11  1.342430E-09
       355  18 -6.503699E+05 -4.264617E+04 -3.867267E+04  3.099004E+04  4.557358E-09  1.052828E-09
       355  19 -2.011699E+05  6.639486E+04  5.622799E+04  3.218317E+04  4.199800E+03  1.548546E+04
       355  20 -2.492332E+05  5.469027E+04  4.674871E+04  2.299314E+04  3.632992E+03  1.259013E+04
       355  21 -2.974755E+05  4.308737E+04  3.689383E+04  3.190652E+04  3.067012E+03  9.690218E+03
       355  22 -4.739440E+05  2.037324E+02 -1.837961E+03  3.144827E+04  1.285790E+03  1.547654E+04
       355  23 -4.738494E+05  1.622701E+02 -1.173774E+03  2.239635E+04  7.147075E+02  1.258085E+04
       355  24 -4.739373E+05  2.216644E+02 -8.884347E+02  3.144822E+04  1.444081E+02  9.680566E+03
       355  25 -7.466480E+05 -6.599223E+04 -5.990816E+04  3.071364E+04 -1.626957E+03  1.546763E+04
       355  26 -6.984179E+05 -5.436902E+04 -4.909914E+04  2.179973E+04 -2.202537E+03  1.257158E+04
       355  27 -6.503699E+05 -4.264607E+04 -3.867248E+04  3.099002E+04 -2.777377E+03  9.670917E+03
       356   1 -3.348309E+05  3.396765E+04  2.869315E+04  3.181443E+04 -2.916140E+03 -8.001035E+03
       356   2 -3.829834E+05  2.223163E+04  1.839950E+04  2.259456E+04 -2.438516E+03 -5.097089E+03
       356   3 -4.313213E+05  1.060272E+04  7.784841E+03  3.151730E+04 -1.961231E+03 -2.192873E+03
       356   4 -4.739357E+05  2.231667E+02 -8.548391E+02  3.145688E+04  8.007174E+00 -7.991226E+03
       356   5 -4.738410E+05  1.735106E+02 -9.864441E+02  2.238550E+04  4.857512E+02 -5.087140E+03
       356   6 -4.739331E+05  2.312571E+02 -1.438911E+03  3.145686E+04  9.631931E+02 -2.182777E+03
       356   7 -6.130223E+05 -3.352257E+04 -3.040390E+04  3.109940E+04  2.931509E+03 -7.981419E+03
       356   8 -5.646908E+05 -2.188514E+04 -2.037283E+04  2.217645E+04  3.409597E+03 -5.077193E+03
       356   9 -5.165432E+05 -1.014032E+04 -1.066274E+04  3.139643E+04  3.887419E+03 -2.172682E+03
       356  10 -3.348309E+05  3.396758E+04  2.869301E+04  3.181441E+04  1.002792E-08  2.585697E-09
       356  11 -3.829834E+05  2.223160E+04  1.839944E+04  2.259455E+04  2.352327E-09 -2.945347E-09
       356  12 -4.313213E+05  1.060272E+04  7.784824E+03  3.151729E+04 -2.162734E-09 -5.074784E-09
       356  13 -4.739357E+05  2.230981E+02 -8.549591E+02  3.145688E+04  6.962626E-10  1.007849E-08
       356  14 -4.738410E+05  1.734828E+02 -9.864932E+02  2.238550E+04 -1.344775E-09 -9.613064E-11
       356  15 -4.739331E+05  2.312518E+02 -1.438922E+03  3.145686E+04 -1.005010E-09 -5.100680E-09
       356  16 -6.130223E+05 -3.352264E+04 -3.040404E+04  3.109942E+04 -9.176701E-09  5.034740E-09
       356  17 -5.646908E+05 -2.188517E+04 -2.037290E+04  2.217646E+04 -2.990797E-09 -3.267739E-10
       356  18 -5.165433E+05 -1.014033E+04 -1.066278E+04  3.139643E+04  3.927315E-09 -3.698945E-09
       356  19 -3.348309E+05  3.396765E+04  2.869315E+04  3.181443E+04  2.916140E+03  8.001035E+03
       356  20 -3.829834E+05  2.223163E+04  1.839950E+04  2.259456E+04  2.438516E+03  5.097089E+03
       356  21 -4.313213E+05  1.060272E+04  7.784841E+03  3.151730E+04  1.961231E+03  2.192873E+03
       356  22 -4.739357E+05  2.231667E+02 -8.548391E+02  3.145688E+04 -8.007174E+00  7.991226E+03
       356  23 -4.738410E+05  1.735106E+02 -9.864441E+02  2.238550E+04 -4.857512E+02  5.087140E+03
       356  24 -4.739331E+05  2.312571E+02 -1.438911E+03  3.145686E+04 -9.631931E+02  2.182777E+03
       356  25 -6.130223E+05 -3.352257E+04 -3.040390E+04  3.109940E+04 -2.931509E+03  7.981419E+03
       356  26 -5.646908E+05 -2.188514E+04 -2.037283E+04  2.217645E+04 -3.409597E+03  5.077193E+03
       356  27 -5.165432E+05 -1.014032E+04 -1.066274E+04  3.139643E+04 -3.887419E+03  2.172682E+03
       357   1 -4.687572E+05  1.486555E+03 -8.377196E+02  3.137899E+04 -1.678916E+03 -4.998544E+02
       357   2 -5.168269E+05 -1.024721E+04 -1.223034E+04  2.216351E+04 -1.607692E+02  2.403550E+03
       357   3 -5.652704E+05 -2.207649E+04 -2.467320E+04  3.109493E+04  1.357476E+03  5.285624E+03
       357   4 -4.739739E+05  2.472500E+02 -1.818247E+03  3.145756E+04  1.251435E+03 -4.897151E+02
       357   5 -4.737887E+05  2.042139E+02 -3.042165E+03  2.238446E+04  2.748093E+03  2.413544E+03
       357   6 -4.739756E+05  6.957899E+01 -5.301211E+03  3.145819E+04  4.244965E+03  5.295482E+03
       357   7 -4.791906E+05 -9.920515E+02 -2.798743E+03  3.153613E+04  4.181762E+03 -4.795750E+02
       357   8 -4.307487E+05  1.065553E+04  6.145936E+03  2.260544E+04  5.657155E+03  2.423539E+03
       357   9 -3.826730E+05  2.221511E+04  1.407033E+04  3.182149E+04  7.132873E+03  5.305342E+03
       357  10 -4.687572E+05  1.486554E+03 -8.377254E+02  3.137898E+04 -2.780618E-09  2.215132E-09
       357  11 -5.168269E+05 -1.024722E+04 -1.223035E+04  2.216351E+04 -3.544335E-09 -1.745266E-09
       357  12 -5.652704E+05 -2.207652E+04 -2.467325E+04  3.109492E+04 -2.450361E-09  3.480025E-09
       357  13 -4.739739E+05  2.472494E+02 -1.818250E+03  3.145756E+04 -5.351265E-10 -2.048765E-09
       357  14 -4.737887E+05  2.042056E+02 -3.042190E+03  2.238446E+04 -3.747569E-10  2.446056E-10
       357  15 -4.739757E+05  6.954404E+01 -5.301297E+03  3.145817E+04 -1.105052E-09  1.735075E-09
       357  16 -4.791907E+05 -9.920565E+02 -2.798777E+03  3.153613E+04  2.288215E-09  1.898544E-09
       357  17 -4.307488E+05  1.065551E+04  6.145865E+03  2.260543E+04  2.819445E-09 -1.073149E-08
       357  18 -3.826731E+05  2.221507E+04  1.407018E+04  3.182146E+04  4.850002E-09 -1.757338E-09
       357  19 -4.687572E+05  1.486555E+03 -8.377196E+02  3.137899E+04  1.678916E+03  4.998544E+02
       357  20 -5.168269E+05 -1.024721E+04 -1.223034E+04  2.216351E+04  1.607692E+02 -2.403550E+03
       357  21 -5.652704E+05 -2.207649E+04 -2.467320E+04  3.109493E+04 -1.357476E+03 -5.285624E+03
       357  22 -4.739739E+05  2.472500E+02 -1.818247E+03  3.145756E+04 -1.251435E+03  4.897151E+02
       357  23 -4.737887E+05  2.042139E+02 -3.042165E+03  2.238446E+04 -2.748093E+03 -2.413544E+03
       357  24 -4.739756E+05  6.957899E+01 -5.301211E+03  3.145819E+04 -4.244965E+03 -5.295482E+03
       357  25 -4.791906E+05 -9.920515E+02 -2.798743E+03  3.153613E+04 -4.181762E+03  4.795750E+02
       357  26 -4.307487E+05  1.065553E+04  6.145936E+03  2.260544E+04 -5.657155E+03 -2.423539E+03
       357  27 -3.826730E+05  2.221511E+04  1.407033E+04  3.182149E+04 -7.132873E+03 -5.305342E+03
       358   1 -6.029897E+05 -3.081889E+04 -3.451413E+04  3.028135E+04  2.306509E+03  7.010329E+03
       358   2 -6.501971E+05 -4.276519E+04 -4.982896E+04  2.225337E+04  8.758926E+03  9.794326E+03
       358   3 -6.993854E+05 -5.871382E+04 -7.038251E+04  3.233468E+04  1.521275E+04  1.212807E+04
       358   4 -4.743179E+05  4.581335E+02 -6.920034E+03  3.144566E+04  5.316167E+03  7.020500E+03
       358   5 -4.733695E+05  1.876346E+02 -1.200181E+04  2.239861E+04  1.131655E+04  9.802691E+03
       358   6 -4.743254E+05 -4.005873E+03 -2.200705E+04  3.146062E+04  1.731883E+04  1.213467E+04
       358   7 -3.456304E+05  3.173408E+04  2.067313E+04  3.261020E+04  8.326440E+03  7.030682E+03
       358   8 -2.965124E+05  4.313842E+04  2.582355E+04  2.254386E+04  1.387489E+04  9.811055E+03
       358   9 -2.492178E+05  5.069875E+04  2.636546E+04  3.058620E+04  1.942566E+04  1.214127E+04
       358  10 -6.029898E+05 -3.081894E+04 -3.451423E+04  3.028134E+04 -5.330524E-09  7.794109E-09
       358  11 -6.501972E+05 -4.276531E+04 -4.982928E+04  2.225330E+04 -2.552269E-09 -7.861580E-10
       358  12 -6.993857E+05 -5.871404E+04 -7.038322E+04  3.233453E+04  4.096119E-09  4.874302E-09
       358  13 -4.743179E+05  4.580730E+02 -6.920179E+03  3.144563E+04 -5.578384E-10  3.312383E-09
       358  14 -4.733696E+05  1.874970E+02 -1.200223E+04  2.239852E+04 -2.783704E-09 -1.549005E-10
       358  15 -4.743258E+05 -4.006112E+03 -2.200789E+04  3.146045E+04 -7.988443E-10  1.010504E-09
       358  16 -3.456304E+05  3.173401E+04  2.067291E+04  3.261015E+04  4.605004E-09  1.149126E-09
       358  17 -2.965126E+05  4.313826E+04  2.582301E+04  2.254375E+04 -6.465934E-11 -2.155974E-09
       358  18 -2.492182E+05  5.069850E+04  2.636448E+04  3.058601E+04 -2.498906E-09 -7.405459E-09
       358  19 -6.029897E+05 -3.081889E+04 -3.451413E+04  3.028135E+04 -2.306509E+03 -7.010329E+03
       358  20 -6.501971E+05 -4.276519E+04 -4.982896E+04  2.225337E+04 -8.758926E+03 -9.794326E+03
       358  21 -6.993854E+05 -5.871382E+04 -7.038251E+04  3.233468E+04 -1.521275E+04 -1.212807E+04
       358  22 -4.743179E+05  4.581335E+02 -6.920034E+03  3.144566E+04 -5.316167E+03 -7.020500E+03
       358  23 -4.733695E+05  1.876346E+02 -1.200181E+04  2.239861E+04 -1.131655E+04 -9.802691E+03
       358  24 -4.743254E+05 -4.005873E+03 -2.200705E+04  3.146062E+04 -1.731883E+04 -1.213467E+04
       358  25 -3.456304E+05  3.173408E+04  2.067313E+04  3.261020E+04 -8.326440E+03 -7.030682E+03
       358  26 -2.965124E+05  4.313842E+04  2.582355E+04  2.254386E+04 -1.387489E+04 -9.811055E+03
       358  27 -2.492178E+05  5.069875E+04  2.636546E+04  3.058620E+04 -1.942566E+04 -1.214127E+04
       359   1 -7.415586E+05 -5.986994E+04 -8.407478E+04  1.854459E+04  1.643807E+04  1.449918E+04
       359   2 -7.774634E+05 -7.803067E+04 -1.161592E+05  3.789002E+04  5.147781E+04  1.451462E+04
       359   3 -8.381956E+05 -1.767635E+05 -1.912397E+05  7.499201E+04  8.654414E+04  4.906509E+03
       359   4 -4.790435E+05  4.009367E+03 -2.785908E+04  3.130490E+04  2.119161E+04  1.451456E+04
       359   5 -4.674915E+05 -2.490244E+03 -4.805203E+04  2.256987E+04  4.654850E+04  1.449717E+04
       359   6 -4.790738E+05 -8.785998E+04 -1.044994E+05  3.159337E+04  7.193509E+04  4.855206E+03
       359   7 -2.164632E+05  6.788476E+04  2.835278E+04  4.407064E+04  2.594713E+04  1.453013E+04
       359   8 -1.574290E+05  7.304468E+04  2.004952E+04  7.241897E+03  4.161674E+04  1.447996E+04
       359   9 -1.198294E+05  1.041408E+03 -1.776643E+04 -1.183057E+04  5.731760E+04  4.805964E+03
       359  10 -7.415589E+05 -5.987024E+04 -8.407569E+04  1.854440E+04 -3.167510E-09  2.028593E-09
       359  11 -7.774663E+05 -7.803161E+04 -1.161646E+05  3.788942E+04 -3.231308E-09 -1.998947E-09
       359  12 -8.382037E+05 -1.767655E+05 -1.912538E+05  7.499167E+04  1.176096E-09 -3.171436E-10
       359  13 -4.790441E+05  4.009020E+03 -2.786032E+04  3.130466E+04 -1.413304E-09  7.562219E-09
       359  14 -4.674939E+05 -2.491052E+03 -4.805650E+04  2.256933E+04  4.729593E-11 -7.868825E-09
       359  15 -4.790794E+05 -8.786140E+04 -1.045091E+05  3.159309E+04 -5.632481E-10  4.691117E-09
       359  16 -2.164640E+05  6.788435E+04  2.835112E+04  4.407034E+04  2.310814E-09  1.476810E-09
       359  17 -1.574309E+05  7.304399E+04  2.004588E+04  7.241412E+03  7.343111E-10  2.189619E-09
       359  18 -1.198329E+05  1.040501E+03 -1.777265E+04 -1.183079E+04  1.096190E-09 -5.350991E-10
       359  19 -7.415586E+05 -5.986994E+04 -8.407478E+04  1.854459E+04 -1.643807E+04 -1.449918E+04
       359  20 -7.774634E+05 -7.803067E+04 -1.161592E+05  3.789002E+04 -5.147781E+04 -1.451462E+04
       359  21 -8.381956E+05 -1.767635E+05 -1.912397E+05  7.499201E+04 -8.654414E+04 -4.906509E+03
       359  22 -4.790435E+05  4.009367E+03 -2.785908E+04  3.130490E+04 -2.119161E+04 -1.451456E+04
       359  23 -4.674915E+05 -2.490244E+03 -4.805203E+04  2.256987E+04 -4.654850E+04 -1.449717E+04
       359  24 -4.790738E+05 -8.785998E+04 -1.044994E+05  3.159337E+04 -7.193509E+04 -4.855206E+03
       359  25 -2.164632E+05  6.788476E+04  2.835278E+04  4.407064E+04 -2.594713E+04 -1.453013E+04
       359  26 -1.574290E+05  7.304468E+04  2.004952E+04  7.241897E+03 -4.161674E+04 -1.447996E+04
       359  27 -1.198294E+05  1.041408E+03 -1.776643E+04 -1.183057E+04 -5.731760E+04 -4.805964E+03
       360   1  3.744427E+05  1.882374E+06  3.888210E+05 -2.607356E+05  1.146558E+04  1.232041E+05
       360   2  1.890841E+05  1.571698E+06  2.329165E+05 -1.703447E+05  3.296403E+04  5.901021E+04
       360   3  1.099584E+05  1.295507E+06  1.451955E+05 -1.885306E+05  2.486046E+04 -5.220393E+03
       360   4  1.123800E+05  8.276347E+05  1.332150E+05 -2.023475E+05  1.156694E+04  8.661769E+04
       360   5  3.898974E+03  8.130840E+05  6.523672E+04 -1.482076E+05  3.298624E+04  5.238090E+04
       360   6 -3.460736E+03  8.278110E+05  4.473966E+04 -2.026349E+05  2.479473E+04  1.807617E+04
       360   7 -1.497511E+05 -2.260817E+05 -1.224644E+05 -1.440579E+05  1.166152E+04  5.009300E+04
       360   8 -1.813231E+05  5.500763E+04 -1.024782E+05 -1.260974E+05  3.300800E+04  4.575955E+04
       360   9 -1.168931E+05  3.603217E+05 -5.572682E+04 -2.167283E+05  2.472792E+04  4.135545E+04
       360  10  3.744385E+05  1.882358E+06  3.887923E+05 -2.607367E+05 -1.347212E-10 -9.966582E-10
       360  11  1.890820E+05  1.571694E+06  2.329080E+05 -1.703463E+05  3.282474E-10 -6.953363E-09
       360  12  1.099577E+05  1.295507E+06  1.451943E+05 -1.885305E+05  9.290434E-10  2.593423E-09
       360  13  1.123778E+05  8.276266E+05  1.332007E+05 -2.023483E+05  6.876036E-10 -1.411397E-10
       360  14  3.897070E+03  8.130808E+05  6.522953E+04 -1.482090E+05 -6.684444E-10 -5.365328E-09
       360  15 -3.461484E+03  8.278105E+05  4.473789E+04 -2.026352E+05  1.988632E-10 -4.233378E-09
       360  16 -1.497519E+05 -2.260844E+05 -1.224694E+05 -1.440583E+05 -8.976312E-11 -1.178007E-09
       360  17 -1.813248E+05  5.500509E+04 -1.024842E+05 -1.260987E+05  6.915115E-10 -1.341692E-09
       360  18 -1.168942E+05  3.603197E+05 -5.573119E+04 -2.167291E+05 -8.324175E-10 -6.259741E-09
       360  19  3.744427E+05  1.882374E+06  3.888210E+05 -2.607356E+05 -1.146558E+04 -1.232041E+05
       360  20  1.890841E+05  1.571698E+06  2.329165E+05 -1.703447E+05 -3.296403E+04 -5.901021E+04
       360  21  1.099584E+05  1.295507E+06  1.451955E+05 -1.885306E+05 -2.486046E+04  5.220393E+03
       360  22  1.123800E+05  8.276347E+05  1.332150E+05 -2.023475E+05 -1.156694E+04 -8.661769E+04
       360  23  3.898974E+03  8.130840E+05  6.523672E+04 -1.482076E+05 -3.298624E+04 -5.238090E+04
       360  24 -3.460736E+03  8.278110E+05  4.473966E+04 -2.026349E+05 -2.479473E+04 -1.807617E+04
       360  25 -1.497511E+05 -2.260817E+05 -1.224644E+05 -1.440579E+05 -1.166152E+04 -5.009300E+04
       360  26 -1.813231E+05  5.500763E+04 -1.024782E+05 -1.260974E+05 -3.300800E+04 -4.575955E+04
       360  27 -1.168931E+05  3.603217E+05 -5.572682E+04 -2.167283E+05 -2.472792E+04 -4.135545E+04
       361   1  6.428553E+04  1.062408E+06  9.245430E+04 -2.068272E+05  1.240677E+04 -4.364207E+03
       361   2 -1.214649E+04  7.669375E+05  2.681073E+04 -1.476063E+05 -2.854473E+03 -2.337615E+04
       361   3 -7.502755E+04  4.767066E+05 -2.325560E+04 -1.982555E+05 -1.799009E+04 -4.237825E+04
       361   4  5.968526E+03  8.224836E+05  4.066720E+04 -2.028538E+05  1.236133E+04  1.115388E+04
       361   5  6.977240E+02  8.198882E+05  3.811840E+04 -1.479155E+05 -2.898910E+03 -7.986690E+03
       361   6  9.004452E+03  8.224715E+05  5.123867E+04 -2.028449E+05 -1.803358E+04 -2.712605E+04
       361   7 -5.235208E+04  5.826141E+05 -1.112238E+04 -1.988819E+05  1.231608E+04  2.666606E+04
       361   8  1.354188E+04  8.728421E+05  4.942680E+04 -1.482248E+05 -2.943360E+03  7.404067E+03
       361   9  9.302879E+04  1.168349E+06  1.257268E+05 -2.074368E+05 -1.807728E+04 -1.186547E+04
       361  10  6.428536E+04  1.062407E+06  9.245397E+04 -2.068271E+05 -4.617437E-11  1.076962E-09
       361  11 -1.214664E+04  7.669369E+05  2.680969E+04 -1.476063E+05  2.198378E-10 -7.357328E-09
       361  12 -7.502838E+04  4.767046E+05 -2.325958E+04 -1.982561E+05 -4.565456E-10  3.375437E-09
       361  13  5.968328E+03  8.224834E+05  4.066668E+04 -2.028539E+05 -7.427462E-11 -7.913668E-10
       361  14  6.976979E+02  8.198881E+05  3.811827E+04 -1.479156E+05  1.570973E-09 -6.184540E-09
       361  15  9.003905E+03  8.224706E+05  5.123668E+04 -2.028453E+05  2.426150E-09 -4.314109E-09
       361  16 -5.235244E+04  5.826133E+05 -1.112400E+04 -1.988821E+05 -2.735340E-10 -3.966898E-09
       361  17  1.354186E+04  8.728420E+05  4.942668E+04 -1.482248E+05 -1.884190E-09 -2.356560E-09
       361  18  9.302841E+04  1.168349E+06  1.257259E+05 -2.074370E+05 -2.682323E-10 -6.616833E-09
       361  19  6.428553E+04  1.062408E+06  9.245430E+04 -2.068272E+05 -1.240677E+04  4.364207E+03
       361  20 -1.214649E+04  7.669375E+05  2.681073E+04 -1.476063E+05  2.854473E+03  2.337615E+04
       361  21 -7.502755E+04  4.767066E+05 -2.325560E+04 -1.982555E+05  1.799009E+04  4.237825E+04
       361  22  5.968526E+03  8.224836E+05  4.066720E+04 -2.028538E+05 -1.236133E+04 -1.115388E+04
       361  23  6.977240E+02  8.198882E+05  3.811840E+04 -1.479155E+05  2.898910E+03  7.986690E+03
       361  24  9.004452E+03  8.224715E+05  5.123867E+04 -2.028449E+05  1.803358E+04  2.712605E+04
       361  25 -5.235208E+04  5.826141E+05 -1.112238E+04 -1.988819E+05 -1.231608E+04 -2.666606E+04
       361  26  1.354188E+04  8.728421E+05  4.942680E+04 -1.482248E+05  2.943360E+03 -7.404067E+03
       361  27  9.302879E+04  1.168349E+06  1.257268E+05 -2.074368E+05  1.807728E+04  1.186547E+04
       362   1 -1.453262E+05  2.577988E+05 -6.250740E+04 -2.249922E+05 -3.057802E+04 -5.981849E+04
       362   2 -2.053950E+05 -5.523882E+04 -9.403450E+04 -1.149735E+05 -3.800425E+04 -7.818820E+04
       362   3 -1.155329E+05 -3.286603E+05 -7.619467E+04 -1.134004E+05 -1.310665E+04 -9.647666E+04
       362   4 -6.227900E+03  8.313102E+05  6.056966E+04 -2.026323E+05 -3.064566E+04 -3.602481E+04
       362   5  5.680001E+03  8.086476E+05  9.681616E+04 -1.482107E+05 -3.797402E+04 -8.703724E+04
       362   6  1.730551E+05  8.310914E+05  2.050193E+05 -2.022021E+05 -1.299547E+04 -1.379788E+05
       362   7  1.328512E+05  1.405133E+06  1.836300E+05 -1.802511E+05 -3.071154E+04 -1.220946E+04
       362   8  2.167088E+05  1.673233E+06  2.876217E+05 -1.814942E+05 -3.794286E+04 -9.589838E+04
       362   9  4.615745E+05  1.992091E+06  4.861469E+05 -2.911694E+05 -1.287253E+04 -1.795580E+05
       362  10 -1.453282E+05  2.577947E+05 -6.251588E+04 -2.249937E+05  2.167221E-10 -8.850229E-10
       362  11 -2.053982E+05 -5.524577E+04 -9.404871E+04 -1.149759E+05 -1.088416E-09 -7.773123E-09
       362  12 -1.155356E+05 -3.286703E+05 -7.621249E+04 -1.134014E+05 -1.023048E-09  1.241132E-09
       362  13 -6.229257E+03  8.313085E+05  6.056546E+04 -2.026331E+05 -1.638419E-09 -3.982976E-10
       362  14  5.676421E+03  8.086391E+05  9.679923E+04 -1.482134E+05 -2.641900E-10 -5.483875E-09
       362  15  1.730498E+05  8.310709E+05  2.049833E+05 -2.022036E+05 -1.369119E-09 -2.923881E-09
       362  16  1.328501E+05  1.405132E+06  1.836279E+05 -1.802514E+05  8.924109E-10 -2.011451E-09
       362  17  2.167048E+05  1.673223E+06  2.876017E+05 -1.814972E+05 -8.849876E-10 -6.299223E-10
       362  18  4.615657E+05  1.992057E+06  4.860862E+05 -2.911713E+05 -1.274818E-09 -3.793208E-09
       362  19 -1.453262E+05  2.577988E+05 -6.250740E+04 -2.249922E+05  3.057802E+04  5.981849E+04
       362  20 -2.053950E+05 -5.523882E+04 -9.403450E+04 -1.149735E+05  3.800425E+04  7.818820E+04
       362  21 -1.155329E+05 -3.286603E+05 -7.619467E+04 -1.134004E+05  1.310665E+04  9.647666E+04
       362  22 -6.227900E+03  8.313102E+05  6.056966E+04 -2.026323E+05  3.064566E+04  3.602481E+04
       362  23  5.680001E+03  8.086476E+05  9.681616E+04 -1.482107E+05  3.797402E+04  8.703724E+04
       362  24  1.730551E+05  8.310914E+05  2.050193E+05 -2.022021E+05  1.299547E+04  1.379788E+05
       362  25  1.328512E+05  1.405133E+06  1.836300E+05 -1.802511E+05  3.071154E+04  1.220946E+04
       362  26  2.167088E+05  1.673233E+06  2.876217E+05 -1.814942E+05  3.794286E+04  9.589838E+04
       362  27  4.615745E+05  1.992091E+06  4.861469E+05 -2.911694E+05  1.287253E+04  1.795580E+05
       363   1  6.035757E+05  2.135755E+05  1.236538E+05  1.958867E+05  9.867710E+03 -5.794017E+03
       363   2  5.671011E+05  2.154405E+05  1.150682E+05  1.774449E+05  7.954347E+03 -2.722153E+04
       363   3  5.137947E+05  2.115477E+05  1.082076E+05  1.772451E+05 -1.001846E+02 -3.237268E+04
       363   4  2.383483E+04  5.370984E+03 -2.827066E+04  4.767080E+04 -1.492661E+04 -1.515258E+04
       363   5  3.534077E+04  2.068447E+04 -1.237311E+04  3.443317E+04 -1.467512E+03 -3.078158E+04
       363   6  2.696109E+04  2.718693E+04 -6.934278E+03  3.944005E+04  5.847091E+03 -3.012758E+04
       363   7 -5.555694E+05 -2.028160E+05 -1.802176E+05 -1.004206E+05 -3.969498E+04 -2.450240E+04
       363   8 -4.961341E+05 -1.740518E+05 -1.398330E+05 -1.084668E+05 -1.088047E+04 -3.433841E+04
       363   9 -4.596359E+05 -1.571539E+05 -1.220926E+05 -9.826552E+04  1.178929E+04 -2.788447E+04
       363  10  6.035756E+05  2.135754E+05  1.236536E+05  1.958868E+05 -1.087936E-10 -3.070900E-10
       363  11  5.671008E+05  2.154397E+05  1.150667E+05  1.774451E+05 -1.621765E-09 -9.265186E-09
       363  12  5.137944E+05  2.115466E+05  1.082056E+05  1.772451E+05  1.931083E-09 -1.461209E-10
       363  13  2.383453E+04  5.370678E+03 -2.827151E+04  4.767061E+04 -6.691976E-10  2.594056E-09
       363  14  3.534052E+04  2.068345E+04 -1.237490E+04  3.443314E+04 -2.957184E-09  4.900693E-10
       363  15  2.696081E+04  2.718595E+04 -6.936048E+03  3.944019E+04 -1.028151E-09 -2.453063E-09
       363  16 -5.555713E+05 -2.028171E+05 -1.802217E+05 -1.004214E+05  2.516687E-10  8.768365E-10
       363  17 -4.961345E+05 -1.740531E+05 -1.398354E+05 -1.084671E+05 -1.178306E-09 -3.371184E-09
       363  18 -4.596362E+05 -1.571547E+05 -1.220944E+05 -9.826525E+04 -1.421164E-09 -1.710456E-09
       363  19  6.035757E+05  2.135755E+05  1.236538E+05  1.958867E+05 -9.867710E+03  5.794017E+03
       363  20  5.671011E+05  2.154405E+05  1.150682E+05  1.774449E+05 -7.954347E+03  2.722153E+04
       363  21  5.137947E+05  2.115477E+05  1.082076E+05  1.772451E+05  1.001846E+02  3.237268E+04
       363  22  2.383483E+04  5.370984E+03 -2.827066E+04  4.767080E+04  1.492661E+04  1.515258E+04
       363  23  3.534077E+04  2.068447E+04 -1.237311E+04  3.443317E+04  1.467512E+03  3.078158E+04
       363  24  2.696109E+04  2.718693E+04 -6.934278E+03  3.944005E+04 -5.847091E+03  3.012758E+04
       363  25 -5.555694E+05 -2.028160E+05 -1.802176E+05 -1.004206E+05  3.969498E+04  2.450240E+04
       363  26 -4.961341E+05 -1.740518E+05 -1.398330E+05 -1.084668E+05  1.088047E+04  3.433841E+04
       363  27 -4.596359E+05 -1.571539E+05 -1.220926E+05 -9.826552E+04 -1.178929E+04  2.788447E+04
       364   1  4.837121E+05  1.949704E+05  1.024828E+05  1.665053E+05  4.420990E+03 -2.739359E+04
       364   2  4.486923E+05  1.749594E+05  9.491896E+04  1.482875E+05  4.545023E+03 -2.546641E+04
       364   3  4.012433E+05  1.659833E+05  8.654634E+04  1.439460E+05  4.391486E+03 -2.280898E+04
       364   4  2.771695E+04  2.540737E+04 -5.464349E+03  4.079909E+04  5.632611E+03 -2.693741E+04
       364   5  3.409008E+04  2.054940E+04 -2.833179E+03  3.363954E+04  6.445627E+03 -2.474926E+04
       364   6  2.789577E+04  2.658989E+04 -1.557360E+03  4.035629E+04  6.981039E+03 -2.183057E+04
       364   7 -4.280743E+05 -1.441417E+05 -1.134270E+05 -8.482384E+04  6.843273E+03 -2.648160E+04
       364   8 -3.803424E+05 -1.338484E+05 -1.005978E+05 -8.093904E+04  8.344856E+03 -2.403263E+04
       364   9 -3.453132E+05 -1.127931E+05 -8.967090E+04 -6.317661E+04  9.568899E+03 -2.085281E+04
       364  10  4.837119E+05  1.949696E+05  1.024814E+05  1.665054E+05  2.050314E-09 -6.224562E-09
       364  11  4.486921E+05  1.749587E+05  9.491770E+04  1.482876E+05  9.515714E-10 -3.140907E-09
       364  12  4.012431E+05  1.659828E+05  8.654533E+04  1.439461E+05 -4.041225E-09 -3.541791E-09
       364  13  2.771672E+04  2.540658E+04 -5.465772E+03  4.079922E+04  1.345594E-09 -3.555834E-09
       364  14  3.408987E+04  2.054873E+04 -2.834408E+03  3.363967E+04 -8.785762E-10 -3.712915E-09
       364  15  2.789559E+04  2.658936E+04 -1.558347E+03  4.035641E+04 -1.645899E-09 -5.220514E-09
       364  16 -4.280745E+05 -1.441424E+05 -1.134284E+05 -8.482369E+04 -7.630933E-10 -2.651012E-09
       364  17 -3.803426E+05 -1.338490E+05 -1.005990E+05 -8.093888E+04  3.055020E-09 -3.539493E-09
       364  18 -3.453134E+05 -1.127936E+05 -8.967188E+04 -6.317645E+04  5.545308E-09 -7.323114E-10
       364  19  4.837121E+05  1.949704E+05  1.024828E+05  1.665053E+05 -4.420990E+03  2.739359E+04
       364  20  4.486923E+05  1.749594E+05  9.491896E+04  1.482875E+05 -4.545023E+03  2.546641E+04
       364  21  4.012433E+05  1.659833E+05  8.654634E+04  1.439460E+05 -4.391486E+03  2.280898E+04
       364  22  2.771695E+04  2.540737E+04 -5.464349E+03  4.079909E+04 -5.632611E+03  2.693741E+04
       364  23  3.409008E+04  2.054940E+04 -2.833179E+03  3.363954E+04 -6.445627E+03  2.474926E+04
       364  24  2.789577E+04  2.658989E+04 -1.557360E+03  4.035629E+04 -6.981039E+03  2.183057E+04
       364  25 -4.280743E+05 -1.441417E+05 -1.134270E+05 -8.482384E+04 -6.843273E+03  2.648160E+04
       364  26 -3.803424E+05 -1.338484E+05 -1.005978E+05 -8.093904E+04 -8.344856E+03  2.403263E+04
       364  27 -3.453132E+05 -1.127931E+05 -8.967090E+04 -6.317661E+04 -9.568899E+03  2.085281E+04
       365   1  3.685194E+05  1.534557E+05  7.893466E+04  1.347776E+05  4.234225E+03 -2.108620E+04
       365   2  3.335316E+05  1.322507E+05  6.993553E+04  1.165948E+05  3.560780E+03 -1.844698E+04
       365   3  2.864747E+05  1.230336E+05  6.071812E+04  1.120542E+05  2.874053E+03 -1.577581E+04
       365   4  2.796230E+04  2.649900E+04 -1.177839E+03  4.043198E+04  6.610285E+03 -2.018817E+04
       365   5  3.401085E+04  2.054674E+04 -6.289786E+02  3.359797E+04  5.966975E+03 -1.753704E+04
       365   6  2.798195E+04  2.657681E+04 -3.225079E+02  4.040629E+04  5.310397E+03 -1.485393E+04
       365   7 -3.124775E+05 -1.004483E+05 -8.129794E+04 -5.386597E+04  8.984914E+03 -1.929069E+04
       365   8 -2.654206E+05 -9.115053E+04 -7.119978E+04 -4.936232E+04  8.371907E+03 -1.662758E+04
       365   9 -2.304457E+05 -6.987555E+04 -6.136822E+04 -3.121483E+04  7.745650E+03 -1.393245E+04
       365  10  3.685193E+05  1.534552E+05  7.893379E+04  1.347777E+05  1.183981E-09  1.816501E-09
       365  11  3.335315E+05  1.322503E+05  6.993487E+04  1.165948E+05 -1.382217E-10 -7.556074E-10
       365  12  2.864746E+05  1.230334E+05  6.071764E+04  1.120542E+05  1.152976E-10 -1.291496E-09
       365  13  2.796215E+04  2.649855E+04 -1.178687E+03  4.043209E+04  1.358142E-09  1.084960E-09
       365  14  3.401073E+04  2.054640E+04 -6.296234E+02  3.359805E+04 -8.360599E-10 -1.105941E-08
       365  15  2.798186E+04  2.657657E+04 -3.229755E+02  4.040635E+04 -1.088600E-09 -1.443310E-09
       365  16 -3.124777E+05 -1.004488E+05 -8.129879E+04 -5.386583E+04 -1.301387E-09 -3.685347E-09
       365  17 -2.654207E+05 -9.115085E+04 -7.120043E+04 -4.936220E+04 -1.492525E-09 -3.245781E-09
       365  18 -2.304458E+05 -6.987578E+04 -6.136870E+04 -3.121474E+04  1.467956E-09 -2.225087E-09
       365  19  3.685194E+05  1.534557E+05  7.893466E+04  1.347776E+05 -4.234225E+03  2.108620E+04
       365  20  3.335316E+05  1.322507E+05  6.993553E+04  1.165948E+05 -3.560780E+03  1.844698E+04
       365  21  2.864747E+05  1.230336E+05  6.071812E+04  1.120542E+05 -2.874053E+03  1.577581E+04
       365  22  2.796230E+04  2.649900E+04 -1.177839E+03  4.043198E+04 -6.610285E+03  2.018817E+04
       365  23  3.401085E+04  2.054674E+04 -6.289786E+02  3.359797E+04 -5.966975E+03  1.753704E+04
       365  24  2.798195E+04  2.657681E+04 -3.225079E+02  4.040629E+04 -5.310397E+03  1.485393E+04
       365  25 -3.124775E+05 -1.004483E+05 -8.129794E+04 -5.386597E+04 -8.984914E+03  1.929069E+04
       365  26 -2.654206E+05 -9.115053E+04 -7.119978E+04 -4.936232E+04 -8.371907E+03  1.662758E+04
       365  27 -2.304457E+05 -6.987555E+04 -6.136822E+04 -3.121483E+04 -7.745650E+03  1.393245E+04
       366   1  2.536141E+05  1.107214E+05  5.279257E+04  1.029639E+05  2.361505E+03 -1.425512E+04
       366   2  2.186486E+05  8.945107E+04  4.343057E+04  8.478701E+04  1.423841E+03 -1.167157E+04
       366   3  1.716460E+05  8.022119E+04  3.404384E+04  8.023240E+04  4.851395E+02 -9.087123E+03
       366   4  2.799140E+04  2.657376E+04 -2.253952E+02  4.040916E+04  4.787778E+03 -1.333678E+04
       366   5  3.401449E+04  2.056144E+04 -7.254851E+01  3.359640E+04  3.850971E+03 -1.075259E+04
       366   6  2.799822E+04  2.658932E+04  5.477033E+01  4.040531E+04  2.913128E+03 -8.167495E+03
       366   7 -1.975805E+05 -5.757009E+04 -5.324688E+04 -2.212482E+04  7.213091E+03 -1.241881E+04
       366   8 -1.505851E+05 -4.832543E+04 -4.357789E+04 -1.758018E+04  6.277309E+03 -9.833909E+03
       366   9 -1.156282E+05 -2.704070E+04 -3.393552E+04  5.868328E+02  5.340491E+03 -7.248103E+03
       366  10  2.536140E+05  1.107212E+05  5.279217E+04  1.029639E+05  1.656308E-09 -2.023654E-11
       366  11  2.186485E+05  8.945092E+04  4.343031E+04  8.478703E+04  9.684503E-10  1.099068E-08
       366  12  1.716460E+05  8.022110E+04  3.404369E+04  8.023241E+04 -1.924135E-09 -7.920032E-10
       366  13  2.799132E+04  2.657356E+04 -2.257726E+02  4.040922E+04  2.193111E-09  1.350331E-10
       366  14  3.401444E+04  2.056132E+04 -7.279366E+01  3.359643E+04  2.222932E-09 -7.272937E-09
       366  15  2.799820E+04  2.658925E+04  5.462902E+01  4.040532E+04  2.280888E-09 -1.233902E-09
       366  16 -1.975806E+05 -5.757027E+04 -5.324727E+04 -2.212475E+04 -1.226456E-09  4.591860E-09
       366  17 -1.505852E+05 -4.832554E+04 -4.357815E+04 -1.758014E+04  5.920651E-10  8.403167E-10
       366  18 -1.156282E+05 -2.704076E+04 -3.393567E+04  5.868639E+02 -1.609697E-10 -3.544806E-09
       366  19  2.536141E+05  1.107214E+05  5.279257E+04  1.029639E+05 -2.361505E+03  1.425512E+04
       366  20  2.186486E+05  8.945107E+04  4.343057E+04  8.478701E+04 -1.423841E+03  1.167157E+04
       366  21  1.716460E+05  8.022119E+04  3.404384E+04  8.023240E+04 -4.851395E+02  9.087123E+03
       366  22  2.799140E+04  2.657376E+04 -2.253952E+02  4.040916E+04 -4.787778E+03  1.333678E+04
       366  23  3.401449E+04  2.056144E+04 -7.254851E+01  3.359640E+04 -3.850971E+03  1.075259E+04
       366  24  2.799822E+04  2.658932E+04  5.477033E+01  4.040531E+04 -2.913128E+03  8.167495E+03
       366  25 -1.975805E+05 -5.757009E+04 -5.324688E+04 -2.212482E+04 -7.213091E+03  1.241881E+04
       366  26 -1.505851E+05 -4.832543E+04 -4.357789E+04 -1.758018E+04 -6.277309E+03  9.833909E+03
       366  27 -1.156282E+05 -2.704070E+04 -3.393552E+04  5.868328E+02 -5.340491E+03  7.248103E+03
       367   1  1.387950E+05  6.791785E+04  2.608608E+04  7.114591E+04 -9.590460E+01 -7.595766E+03
       367   2  1.038369E+05  4.663781E+04  1.674734E+04  5.297246E+04 -1.214168E+03 -5.079478E+03
       367   3  5.685881E+04  3.741121E+04  7.517751E+03  4.841944E+04 -2.332300E+03 -2.564198E+03
       367   4  2.800443E+04  2.659059E+04  1.193364E+02  4.040666E+04  2.331554E+03 -6.676200E+03
       367   5  3.401605E+04  2.056687E+04  2.920910E+02  3.359573E+04  1.212331E+03 -4.160151E+03
       367   6  2.800689E+04  2.659704E+04  5.750158E+02  4.040490E+04  9.322867E+01 -1.645110E+03
       367   7 -8.277454E+04 -1.473597E+04 -2.584841E+04  9.672253E+03  4.758554E+03 -5.756808E+03
       367   8 -3.580015E+04 -5.503782E+03 -1.616353E+04  1.422094E+04  3.638540E+03 -3.240934E+03
       367   9 -8.441864E+02  1.578293E+04 -6.367756E+03  3.239070E+04  2.518635E+03 -7.260678E+02
       367  10  1.387950E+05  6.791778E+04  2.608597E+04  7.114591E+04 -3.666528E-10  3.152347E-09
       367  11  1.038369E+05  4.663778E+04  1.674729E+04  5.297245E+04 -2.210260E-09  3.281487E-09
       367  12  5.685880E+04  3.741120E+04  7.517728E+03  4.841944E+04 -1.022934E-09 -7.934193E-09
       367  13  2.800441E+04  2.659054E+04  1.192424E+02  4.040667E+04 -6.497321E-10  7.707443E-09
       367  14  3.401605E+04  2.056685E+04  2.920558E+02  3.359574E+04 -1.725549E-09  5.226458E-09
       367  15  2.800689E+04  2.659703E+04  5.750107E+02  4.040490E+04 -7.277222E-10 -2.118297E-09
       367  16 -8.277457E+04 -1.473601E+04 -2.584851E+04  9.672275E+03 -6.355018E-10  1.105674E-09
       367  17 -3.580017E+04 -5.503797E+03 -1.616358E+04  1.422095E+04  1.773512E-09 -1.727235E-09
       367  18 -8.441934E+02  1.578293E+04 -6.367769E+03  3.239070E+04 -1.091345E-10 -1.683015E-09
       367  19  1.387950E+05  6.791785E+04  2.608608E+04  7.114591E+04  9.590460E+01  7.595766E+03
       367  20  1.038369E+05  4.663781E+04  1.674734E+04  5.297246E+04  1.214168E+03  5.079478E+03
       367  21  5.685881E+04  3.741121E+04  7.517751E+03  4.841944E+04  2.332300E+03  2.564198E+03
       367  22  2.800443E+04  2.659059E+04  1.193364E+02  4.040666E+04 -2.331554E+03  6.676200E+03
       367  23  3.401605E+04  2.056687E+04  2.920910E+02  3.359573E+04 -1.212331E+03  4.160151E+03
       367  24  2.800689E+04  2.659704E+04  5.750158E+02  4.040490E+04 -9.322867E+01  1.645110E+03
       367  25 -8.277454E+04 -1.473597E+04 -2.584841E+04  9.672253E+03 -4.758554E+03  5.756808E+03
       367  26 -3.580015E+04 -5.503782E+03 -1.616353E+04  1.422094E+04 -3.638540E+03  3.240934E+03
       367  27 -8.441864E+02  1.578293E+04 -6.367756E+03  3.239070E+04 -2.518635E+03  7.260678E+02
       368   1  2.401936E+04  2.511604E+04 -3.007908E+02  3.936328E+04 -3.016891E+03 -1.110634E+03
       368   2 -1.098034E+04  3.810205E+03 -9.168252E+03  2.116714E+04 -4.682506E+03  1.192876E+03
       368   3 -5.787824E+04 -5.304882E+03 -1.748290E+04  1.658218E+04 -6.340853E+03  3.477922E+03
       368   4  2.802929E+04  2.658965E+04  7.766746E+02  4.041746E+04 -5.860779E+02 -1.895324E+02
       368   5  3.398482E+04  2.054832E+04  1.424074E+03  3.359088E+04 -2.269303E+03  2.107218E+03
       368   6  2.804398E+04  2.670096E+04  2.638248E+03  4.037469E+04 -3.945319E+03  4.385500E+03
       368   7  3.203922E+04  2.806325E+04  1.854158E+03  4.147163E+04  1.844739E+03  7.315702E+02
       368   8  7.895201E+04  3.728659E+04  1.201628E+04  4.601545E+04  1.440896E+02  3.021632E+03
       368   9  1.139740E+05  5.870754E+04  2.275904E+04  6.417033E+04 -1.549411E+03  5.293218E+03
       368  10  2.401935E+04  2.511604E+04 -3.008102E+02  3.936328E+04 -1.023316E-09 -8.741080E-09
       368  11 -1.098036E+04  3.810197E+03 -9.168296E+03  2.116714E+04  2.752697E-09 -3.977666E-09
       368  12 -5.787828E+04 -5.304906E+03 -1.748300E+04  1.658220E+04  2.160068E-09 -1.877780E-09
       368  13  2.802929E+04  2.658965E+04  7.766738E+02  4.041746E+04  3.896133E-10  5.247926E-09
       368  14  3.398482E+04  2.054831E+04  1.424056E+03  3.359089E+04  3.567689E-10  2.644216E-09
       368  15  2.804396E+04  2.670094E+04  2.638182E+03  4.037470E+04 -1.143253E-09 -8.239744E-09
       368  16  3.203922E+04  2.806325E+04  1.854151E+03  4.147163E+04  1.605506E-09  5.879045E-09
       368  17  7.895201E+04  3.728658E+04  1.201627E+04  4.601545E+04  1.314922E-09 -8.577739E-09
       368  18  1.139740E+05  5.870751E+04  2.275898E+04  6.417034E+04  2.611607E-09  2.121248E-09
       368  19  2.401936E+04  2.511604E+04 -3.007908E+02  3.936328E+04  3.016891E+03  1.110634E+03
       368  20 -1.098034E+04  3.810205E+03 -9.168252E+03  2.116714E+04  4.682506E+03 -1.192876E+03
       368  21 -5.787824E+04 -5.304882E+03 -1.748290E+04  1.658218E+04  6.340853E+03 -3.477922E+03
       368  22  2.802929E+04  2.658965E+04  7.766746E+02  4.041746E+04  5.860779E+02  1.895324E+02
       368  23  3.398482E+04  2.054832E+04  1.424074E+03  3.359088E+04  2.269303E+03 -2.107218E+03
       368  24  2.804398E+04  2.670096E+04  2.638248E+03  4.037469E+04  3.945319E+03 -4.385500E+03
       368  25  3.203922E+04  2.806325E+04  1.854158E+03  4.147163E+04 -1.844739E+03 -7.315702E+02
       368  26  7.895201E+04  3.728659E+04  1.201628E+04  4.601545E+04 -1.440896E+02 -3.021632E+03
       368  27  1.139740E+05  5.870754E+04  2.275904E+04  6.417033E+04  1.549411E+03 -5.293218E+03
       369   1 -9.087746E+04 -1.751451E+04 -2.463682E+04  8.007694E+03 -7.531675E+03  4.777790E+03
       369   2 -1.258140E+05 -3.928346E+04 -3.140860E+04 -1.092036E+04 -1.125930E+04  6.178309E+03
       369   3 -1.714858E+05 -4.655599E+04 -3.543242E+04 -1.676422E+04 -1.482968E+04  7.165902E+03
       369   4  2.821032E+04  2.648469E+04  3.485094E+03  4.053903E+04 -5.015899E+03  5.730819E+03
       369   5  3.372079E+04  2.046917E+04  6.297650E+03  3.351516E+04 -9.134281E+03  6.983026E+03
       369   6  2.857121E+04  2.902658E+04  1.216744E+04  3.957449E+04 -1.309561E+04  7.822289E+03
       369   7  1.473122E+05  7.048485E+04  3.160602E+04  7.307601E+04 -2.499597E+03  6.684043E+03
       369   8  1.932804E+05  8.022357E+04  4.400199E+04  7.796098E+04 -7.008669E+03  7.787968E+03
       369   9  2.286669E+05  1.046119E+05  5.976413E+04  9.592955E+04 -1.136095E+04  8.478909E+03
       369  10 -9.087753E+04 -1.751455E+04 -2.463696E+04  8.007723E+03 -5.771401E-09 -7.994256E-09
       369  11 -1.258141E+05 -3.928353E+04 -3.140891E+04 -1.092031E+04 -2.901081E-09 -1.083603E-09
       369  12 -1.714861E+05 -4.655610E+04 -3.543293E+04 -1.676414E+04  8.741284E-09 -1.194677E-09
       369  13  2.821029E+04  2.648465E+04  3.484985E+03  4.053905E+04  3.896839E-10 -2.451667E-09
       369  14  3.372068E+04  2.046909E+04  6.297402E+03  3.351521E+04 -2.752991E-09  3.173248E-09
       369  15  2.857101E+04  2.902647E+04  1.216700E+04  3.957458E+04  4.988816E-09  1.603753E-10
       369  16  1.473122E+05  7.048480E+04  3.160593E+04  7.307602E+04  8.604749E-09  6.543258E-09
       369  17  1.932804E+05  8.022349E+04  4.400179E+04  7.796103E+04 -1.542386E-09 -3.802779E-09
       369  18  2.286668E+05  1.046118E+05  5.976375E+04  9.592963E+04 -3.245229E-10  7.598063E-09
       369  19 -9.087746E+04 -1.751451E+04 -2.463682E+04  8.007694E+03  7.531675E+03 -4.777790E+03
       369  20 -1.258140E+05 -3.928346E+04 -3.140860E+04 -1.092036E+04  1.125930E+04 -6.178309E+03
       369  21 -1.714858E+05 -4.655599E+04 -3.543242E+04 -1.676422E+04  1.482968E+04 -7.165902E+03
       369  22  2.821032E+04  2.648469E+04  3.485094E+03  4.053903E+04  5.015899E+03 -5.730819E+03
       369  23  3.372079E+04  2.046917E+04  6.297650E+03  3.351516E+04  9.134281E+03 -6.983026E+03
       369  24  2.857121E+04  2.902658E+04  1.216744E+04  3.957449E+04  1.309561E+04 -7.822289E+03
       369  25  1.473122E+05  7.048485E+04  3.160602E+04  7.307601E+04  2.499597E+03 -6.684043E+03
       369  26  1.932804E+05  8.022357E+04  4.400199E+04  7.796098E+04  7.008669E+03 -7.787968E+03
       369  27  2.286669E+05  1.046119E+05  5.976413E+04  9.592955E+04  1.136095E+04 -8.478909E+03
       370   1 -2.081593E+05 -5.754191E+04 -3.970300E+04 -1.692264E+04 -2.029520E+04  7.689018E+03
       370   2 -2.377369E+05 -8.804651E+04 -3.872018E+04 -5.038724E+04 -2.633587E+04  5.486910E+03
       370   3 -2.617112E+05 -6.322739E+04 -2.125873E+04 -8.219643E+04 -2.889321E+04 -5.918407E+03
       370   4  3.059211E+04  2.471453E+04  1.544436E+04  4.223782E+04 -1.588708E+04  9.358027E+03
       370   5  3.040825E+04  2.047127E+04  2.751249E+04  3.221979E+04 -3.061653E+04  3.865497E+03
       370   6  3.754166E+04  7.326130E+04  6.294434E+04  2.385862E+04 -4.186410E+04 -1.082880E+04
       370   7  2.694021E+05  1.069738E+05  7.058850E+04  1.014186E+05 -1.147706E+04  1.102763E+04
       370   8  2.986247E+05  1.289976E+05  9.373961E+04  1.148605E+05 -3.489920E+04  2.243182E+03
       370   9  3.368799E+05  2.097667E+05  1.471388E+05  1.299629E+05 -5.484171E+04 -1.574296E+04
       370  10 -2.081598E+05 -5.754208E+04 -3.970389E+04 -1.692252E+04  1.404341E-08  2.602092E-09
       370  11 -2.377377E+05 -8.804673E+04 -3.872154E+04 -5.038712E+04  4.452274E-09 -5.780946E-09
       370  12 -2.617121E+05 -6.322766E+04 -2.126037E+04 -8.219657E+04 -5.826534E-09 -8.153406E-09
       370  13  3.059181E+04  2.471437E+04  1.544372E+04  4.223794E+04  2.553409E-09  5.977663E-09
       370  14  3.040724E+04  2.047100E+04  2.751070E+04  3.221988E+04  3.660551E-09  8.404309E-11
       370  15  3.753975E+04  7.326070E+04  6.294083E+04  2.385825E+04  9.318434E-10  2.360756E-09
       370  16  2.694020E+05  1.069737E+05  7.058802E+04  1.014187E+05 -5.978458E-09 -4.414731E-09
       370  17  2.986234E+05  1.289972E+05  9.373731E+04  1.148605E+05  7.108939E-10 -5.173703E-09
       370  18  3.368766E+05  2.097656E+05  1.471327E+05  1.299622E+05  4.493794E-09 -3.706063E-09
       370  19 -2.081593E+05 -5.754191E+04 -3.970300E+04 -1.692264E+04  2.029520E+04 -7.689018E+03
       370  20 -2.377369E+05 -8.804651E+04 -3.872018E+04 -5.038724E+04  2.633587E+04 -5.486910E+03
       370  21 -2.617112E+05 -6.322739E+04 -2.125873E+04 -8.219643E+04  2.889321E+04  5.918407E+03
       370  22  3.059211E+04  2.471453E+04  1.544436E+04  4.223782E+04  1.588708E+04 -9.358027E+03
       370  23  3.040825E+04  2.047127E+04  2.751249E+04  3.221979E+04  3.061653E+04 -3.865497E+03
       370  24  3.754166E+04  7.326130E+04  6.294434E+04  2.385862E+04  4.186410E+04  1.082880E+04
       370  25  2.694021E+05  1.069738E+05  7.058850E+04  1.014186E+05  1.147706E+04 -1.102763E+04
       370  26  2.986247E+05  1.289976E+05  9.373961E+04  1.148605E+05  3.489920E+04 -2.243182E+03
       370  27  3.368799E+05  2.097667E+05  1.471388E+05  1.299629E+05  5.484171E+04  1.574296E+04
       371   1  1.307851E+05  4.407344E+04  3.376457E+04  8.622190E+02 -1.963093E+04 -4.711338E+03
       371   2  1.034192E+05  7.542393E+04  4.593250E+04  8.405100E+03 -1.669768E+04 -1.478280E+04
       371   3  6.660008E+04  7.070945E+04  4.718390E+04  2.757616E+04 -1.379243E+04 -1.569985E+04
       371   4 -2.164573E+05 -4.197303E+04 -4.996490E+04  2.122469E+04 -3.439467E+04 -4.757326E+03
       371   5 -2.109211E+05 -1.174081E+03 -2.297854E+04  1.534145E+04 -2.223761E+04 -1.480100E+04
       371   6 -2.164465E+05  1.947688E+03 -1.331985E+04  2.108713E+04 -1.010819E+04 -1.568829E+04
       371   7 -5.635880E+05 -1.280266E+05 -1.337019E+05  4.157564E+04 -4.915018E+04 -4.804296E+03
       371   8 -5.251688E+05 -7.777848E+04 -9.189544E+04  2.227416E+04 -2.777477E+04 -1.481932E+04
       371   9 -4.994175E+05 -6.681915E+04 -7.382817E+04  1.460104E+04 -6.425604E+03 -1.567681E+04
       371  10  1.307847E+05  4.407331E+04  3.376380E+04  8.621445E+02 -7.651128E-09  2.197453E-09
       371  11  1.034188E+05  7.542362E+04  4.593156E+04  8.404902E+03 -2.671378E-09  1.236941E-08
       371  12  6.659981E+04  7.070913E+04  4.718308E+04  2.757598E+04  4.151660E-09  6.129280E-09
       371  13 -2.164586E+05 -4.197337E+04 -4.996716E+04  2.122455E+04 -9.180390E-10 -5.471731E-09
       371  14 -2.109217E+05 -1.174449E+03 -2.297988E+04  1.534118E+04  7.757522E-11 -6.255639E-09
       371  15 -2.164466E+05  1.947396E+03 -1.332050E+04  2.108700E+04 -1.030546E-09  2.937773E-09
       371  16 -5.635906E+05 -1.280272E+05 -1.337065E+05  4.157545E+04  7.889228E-09  1.304532E-09
       371  17 -5.251697E+05 -7.777892E+04 -9.189730E+04  2.227383E+04  1.588167E-09  9.864437E-09
       371  18 -4.994176E+05 -6.681943E+04 -7.382871E+04  1.460096E+04 -2.236584E-09  7.109697E-10
       371  19  1.307851E+05  4.407344E+04  3.376457E+04  8.622190E+02  1.963093E+04  4.711338E+03
       371  20  1.034192E+05  7.542393E+04  4.593250E+04  8.405100E+03  1.669768E+04  1.478280E+04
       371  21  6.660008E+04  7.070945E+04  4.718390E+04  2.757616E+04  1.379243E+04  1.569985E+04
       371  22 -2.164573E+05 -4.197303E+04 -4.996490E+04  2.122469E+04  3.439467E+04  4.757326E+03
       371  23 -2.109211E+05 -1.174081E+03 -2.297854E+04  1.534145E+04  2.223761E+04  1.480100E+04
       371  24 -2.164465E+05  1.947688E+03 -1.331985E+04  2.108713E+04  1.010819E+04  1.568829E+04
       371  25 -5.635880E+05 -1.280266E+05 -1.337019E+05  4.157564E+04  4.915018E+04  4.804296E+03
       371  26 -5.251688E+05 -7.777848E+04 -9.189544E+04  2.227416E+04  2.777477E+04  1.481932E+04
       371  27 -4.994175E+05 -6.681915E+04 -7.382817E+04  1.460104E+04  6.425604E+03  1.567681E+04
       372   1  4.389023E+04  6.081772E+04  4.489079E+04  2.116387E+04 -9.421117E+03 -1.391839E+04
       372   2  1.231299E+04  5.498625E+04  4.256254E+04  1.562985E+04 -6.982611E+03 -1.254539E+04
       372   3 -2.010957E+04  4.737958E+04  3.818379E+04  2.210321E+04 -4.546127E+03 -1.074473E+04
       372   4 -2.141911E+05 -1.882372E+03 -1.052123E+04  2.120848E+04 -8.258395E+03 -1.391500E+04
       372   5 -2.137277E+05  1.125546E+02 -5.736441E+03  1.520105E+04 -5.389906E+03 -1.254038E+04
       372   6 -2.141862E+05  2.570823E+02 -3.301605E+03  2.120130E+04 -2.523323E+03 -1.073804E+04
       372   7 -4.722099E+05 -6.458683E+04 -6.593713E+04  2.125301E+04 -7.096149E+03 -1.391161E+04
       372   8 -4.397203E+05 -5.476447E+04 -5.403837E+04  1.477236E+04 -3.797772E+03 -1.253538E+04
       372   9 -4.082274E+05 -4.686787E+04 -4.478917E+04  2.029965E+04 -5.011425E+02 -1.073135E+04
       372  10  4.389008E+04  6.081749E+04  4.489026E+04  2.116377E+04  8.615780E-10  1.570456E-09
       372  11  1.231289E+04  5.498606E+04  4.256215E+04  1.562978E+04  1.164149E-10  6.141839E-09
       372  12 -2.010963E+04  4.737945E+04  3.818353E+04  2.210317E+04  2.434135E-09  1.251005E-08
       372  13 -2.141913E+05 -1.882599E+03 -1.052172E+04  2.120838E+04 -1.806727E-10  1.058281E-08
       372  14 -2.137278E+05  1.123779E+02 -5.736791E+03  1.520099E+04 -1.478917E-09 -1.844772E-08
       372  15 -2.141863E+05  2.569568E+02 -3.301834E+03  2.120128E+04 -5.553789E-10  7.321919E-09
       372  16 -4.722100E+05 -6.458705E+04 -6.593759E+04  2.125293E+04 -8.318788E-10 -1.048879E-08
       372  17 -4.397204E+05 -5.476464E+04 -5.403869E+04  1.477232E+04 -1.442365E-09 -7.166526E-09
       372  18 -4.082274E+05 -4.686799E+04 -4.478938E+04  2.029964E+04 -8.543192E-10  9.809525E-11
       372  19  4.389023E+04  6.081772E+04  4.489079E+04  2.116387E+04  9.421117E+03  1.391839E+04
       372  20  1.231299E+04  5.498625E+04  4.256254E+04  1.562985E+04  6.982611E+03  1.254539E+04
       372  21 -2.010957E+04  4.737958E+04  3.818379E+04  2.210321E+04  4.546127E+03  1.074473E+04
       372  22 -2.141911E+05 -1.882372E+03 -1.052123E+04  2.120848E+04  8.258395E+03  1.391500E+04
       372  23 -2.137277E+05  1.125546E+02 -5.736441E+03  1.520105E+04  5.389906E+03  1.254038E+04
       372  24 -2.141862E+05  2.570823E+02 -3.301605E+03  2.120130E+04  2.523323E+03  1.073804E+04
       372  25 -4.722099E+05 -6.458683E+04 -6.593713E+04  2.125301E+04  7.096149E+03  1.391161E+04
       372  26 -4.397203E+05 -5.476447E+04 -5.403837E+04  1.477236E+04  3.797772E+03  1.253538E+04
       372  27 -4.082274E+05 -4.686787E+04 -4.478917E+04  2.029965E+04  5.011425E+02  1.073135E+04
       373   1 -4.476250E+04  4.113835E+04  3.351085E+04  2.171536E+04 -3.919735E+03 -9.591349E+03
       373   2 -7.670666E+04  3.343062E+04  2.783461E+04  1.560418E+04 -3.234598E+03 -7.687841E+03
       373   3 -1.088429E+05  2.570830E+04  2.168465E+04  2.153871E+04 -2.549863E+03 -5.763707E+03
       373   4 -2.140230E+05  7.203624E+01 -2.525292E+03  2.121178E+04 -2.013566E+03 -9.584941E+03
       373   5 -2.139235E+05  1.265188E+02 -1.437754E+03  1.518868E+04 -1.307847E+03 -7.681222E+03
       373   6 -2.140202E+05  1.629740E+02 -8.382009E+02  2.121146E+04 -6.024961E+02 -5.756871E+03
       373   7 -3.832565E+05 -4.099614E+04 -3.856307E+04  2.070831E+04 -1.079095E+02 -9.578536E+03
       373   8 -3.511226E+05 -3.317881E+04 -3.071119E+04  1.477327E+04  6.184833E+02 -7.674606E+03
       373   9 -3.191871E+05 -2.538307E+04 -2.336168E+04  2.088426E+04  1.344546E+03 -5.750037E+03
       373  10 -4.476254E+04  4.113825E+04  3.351065E+04  2.171533E+04  7.740141E-09 -1.086302E-09
       373  11 -7.670668E+04  3.343056E+04  2.783448E+04  1.560416E+04 -1.077808E-08 -5.822292E-09
       373  12 -1.088429E+05  2.570826E+04  2.168457E+04  2.153870E+04 -2.135939E-08 -1.655478E-09
       373  13 -2.140230E+05  7.193651E+01 -2.525472E+03  2.121176E+04 -1.065146E-09 -2.206342E-09
       373  14 -2.139235E+05  1.264550E+02 -1.437868E+03  1.518868E+04 -1.376436E-09 -8.739342E-09
       373  15 -2.140202E+05  1.629383E+02 -8.382639E+02  2.121146E+04  5.581704E-10  4.117024E-12
       373  16 -3.832565E+05 -4.099624E+04 -3.856324E+04  2.070831E+04 -7.480361E-09 -4.907245E-09
       373  17 -3.511226E+05 -3.317887E+04 -3.071130E+04  1.477327E+04  9.178203E-09  2.302514E-09
       373  18 -3.191871E+05 -2.538311E+04 -2.336174E+04  2.088427E+04  2.427233E-08  1.063620E-08
       373  19 -4.476250E+04  4.113835E+04  3.351085E+04  2.171536E+04  3.919735E+03  9.591349E+03
       373  20 -7.670666E+04  3.343062E+04  2.783461E+04  1.560418E+04  3.234598E+03  7.687841E+03
       373  21 -1.088429E+05  2.570830E+04  2.168465E+04  2.153871E+04  2.549863E+03  5.763707E+03
       373  22 -2.140230E+05  7.203624E+01 -2.525292E+03  2.121178E+04  2.013566E+03  9.584941E+03
       373  23 -2.139235E+05  1.265188E+02 -1.437754E+03  1.518868E+04  1.307847E+03  7.681222E+03
       373  24 -2.140202E+05  1.629740E+02 -8.382009E+02  2.121146E+04  6.024961E+02  5.756871E+03
       373  25 -3.832565E+05 -4.099614E+04 -3.856307E+04  2.070831E+04  1.079095E+02  9.578536E+03
       373  26 -3.511226E+05 -3.317881E+04 -3.071119E+04  1.477327E+04 -6.184833E+02  7.674606E+03
       373  27 -3.191871E+05 -2.538307E+04 -2.336168E+04  2.088426E+04 -1.344546E+03  5.750037E+03
       374   1 -1.336575E+05  1.963908E+04  1.640381E+04  2.145560E+04 -2.414713E+03 -4.639375E+03
       374   2 -1.656663E+05  1.183551E+04  9.898618E+03  1.533155E+04 -2.225038E+03 -2.710866E+03
       374   3 -1.977859E+05  4.110716E+03  3.263923E+03  2.126291E+04 -2.035487E+03 -7.812086E+02
       374   4 -2.140005E+05  1.560848E+02 -6.471148E+02  2.121370E+04 -4.723611E+02 -4.632498E+03
       374   5 -2.139440E+05  1.175807E+02 -3.997282E+02  1.518596E+04 -2.815987E+02 -2.703936E+03
       374   6 -2.139995E+05  1.577194E+02 -2.825940E+02  2.121369E+04 -9.094917E+01 -7.742227E+02
       374   7 -2.943374E+05 -1.932733E+04 -1.769839E+04  2.097182E+04  1.469743E+03 -4.625621E+03
       374   8 -2.622195E+05 -1.160050E+04 -1.069819E+04  1.504037E+04  1.661692E+03 -2.697007E+03
       374   9 -2.302128E+05 -3.795293E+03 -3.829112E+03  2.116447E+04  1.853538E+03 -7.672371E+02
       374  10 -1.336575E+05  1.963906E+04  1.640376E+04  2.145559E+04  2.320453E-08 -8.898390E-09
       374  11 -1.656663E+05  1.183550E+04  9.898594E+03  1.533154E+04  3.155561E-11 -4.477310E-09
       374  12 -1.977859E+05  4.110714E+03  3.263914E+03  2.126291E+04 -2.023985E-08  1.921909E-09
       374  13 -2.140005E+05  1.560617E+02 -6.471556E+02  2.121369E+04  5.057036E-10 -3.009851E-10
       374  14 -2.139440E+05  1.175728E+02 -3.997421E+02  1.518595E+04 -1.308049E-09 -7.696627E-09
       374  15 -2.139995E+05  1.577187E+02 -2.825951E+02  2.121369E+04 -4.751896E-10 -5.540222E-09
       374  16 -2.943374E+05 -1.932735E+04 -1.769844E+04  2.097182E+04 -2.208697E-08  2.232368E-09
       374  17 -2.622195E+05 -1.160051E+04 -1.069821E+04  1.504038E+04 -1.682484E-09  1.933776E-09
       374  18 -2.302128E+05 -3.795294E+03 -3.829120E+03  2.116447E+04  2.243131E-08  2.154420E-09
       374  19 -1.336575E+05  1.963908E+04  1.640381E+04  2.145560E+04  2.414713E+03  4.639375E+03
       374  20 -1.656663E+05  1.183551E+04  9.898618E+03  1.533155E+04  2.225038E+03  2.710866E+03
       374  21 -1.977859E+05  4.110716E+03  3.263923E+03  2.126291E+04  2.035487E+03  7.812086E+02
       374  22 -2.140005E+05  1.560848E+02 -6.471148E+02  2.121370E+04  4.723611E+02  4.632498E+03
       374  23 -2.139440E+05  1.175807E+02 -3.997282E+02  1.518596E+04  2.815987E+02  2.703936E+03
       374  24 -2.139995E+05  1.577194E+02 -2.825940E+02  2.121369E+04  9.094917E+01  7.742227E+02
       374  25 -2.943374E+05 -1.932733E+04 -1.769839E+04  2.097182E+04 -1.469743E+03  4.625621E+03
       374  26 -2.622195E+05 -1.160050E+04 -1.069819E+04  1.504037E+04 -1.661692E+03  2.697007E+03
       374  27 -2.302128E+05 -3.795293E+03 -3.829112E+03  2.116447E+04 -1.853538E+03  7.672371E+02
       375   1 -2.226261E+05 -1.954096E+03 -2.187201E+03  2.119300E+04 -1.990426E+03  3.420557E+02
       375   2 -2.546383E+05 -9.761618E+03 -8.951365E+03  1.507153E+04 -1.862409E+03  2.271625E+03
       375   3 -2.867526E+05 -1.748787E+04 -1.580431E+04  2.100620E+04 -1.734306E+03  4.200106E+03
       375   4 -2.139975E+05  1.578120E+02 -2.586990E+02  2.121383E+04 -4.590518E+01  3.490439E+02
       375   5 -2.139463E+05  1.155899E+02 -2.706776E+02  1.518578E+04  8.096000E+01  2.278565E+03
       375   6 -2.139983E+05  1.547735E+02 -3.707428E+02  2.121384E+04  2.079187E+02  4.207001E+03
       375   7 -2.053689E+05  2.269717E+03  1.669813E+03  2.123465E+04  1.898642E+03  3.560322E+02
       375   8 -1.732527E+05  9.992692E+03  8.409929E+03  1.530005E+04  2.024455E+03  2.285505E+03
       375   9 -1.412391E+05  1.779708E+04  1.506254E+04  2.142149E+04  2.150368E+03  4.213897E+03
       375  10 -2.226261E+05 -1.954097E+03 -2.187209E+03  2.119300E+04  3.593088E-09  7.041857E-09
       375  11 -2.546383E+05 -9.761624E+03 -8.951382E+03  1.507153E+04 -3.569482E-09 -7.801396E-09
       375  12 -2.867526E+05 -1.748789E+04 -1.580435E+04  2.100620E+04 -8.315676E-09 -1.409520E-09
       375  13 -2.139975E+05  1.578118E+02 -2.586993E+02  2.121383E+04  3.520634E-10  9.281152E-09
       375  14 -2.139463E+05  1.155843E+02 -2.706873E+02  1.518578E+04 -6.678500E-10 -5.824315E-09
       375  15 -2.139983E+05  1.547545E+02 -3.707761E+02  2.121384E+04  6.274157E-10 -2.929706E-09
       375  16 -2.053689E+05  2.269715E+03  1.669806E+03  2.123465E+04 -2.519436E-09  1.108882E-09
       375  17 -1.732527E+05  9.992685E+03  8.409911E+03  1.530004E+04  2.020610E-09 -1.805171E-08
       375  18 -1.412391E+05  1.779706E+04  1.506250E+04  2.142149E+04  1.132935E-08 -8.024738E-09
       375  19 -2.226261E+05 -1.954096E+03 -2.187201E+03  2.119300E+04  1.990426E+03 -3.420557E+02
       375  20 -2.546383E+05 -9.761618E+03 -8.951365E+03  1.507153E+04  1.862409E+03 -2.271625E+03
       375  21 -2.867526E+05 -1.748787E+04 -1.580431E+04  2.100620E+04  1.734306E+03 -4.200106E+03
       375  22 -2.139975E+05  1.578120E+02 -2.586990E+02  2.121383E+04  4.590518E+01 -3.490439E+02
       375  23 -2.139463E+05  1.155899E+02 -2.706776E+02  1.518578E+04 -8.096000E+01 -2.278565E+03
       375  24 -2.139983E+05  1.547735E+02 -3.707428E+02  2.121384E+04 -2.079187E+02 -4.207001E+03
       375  25 -2.053689E+05  2.269717E+03  1.669813E+03  2.123465E+04 -1.898642E+03 -3.560322E+02
       375  26 -1.732527E+05  9.992692E+03  8.409929E+03  1.530005E+04 -2.024455E+03 -2.285505E+03
       375  27 -1.412391E+05  1.779708E+04  1.506254E+04  2.142149E+04 -2.150368E+03 -4.213897E+03
       376   1 -3.115941E+05 -2.354748E+04 -2.136638E+04  2.092725E+04 -1.668105E+03  5.324361E+03
       376   2 -3.435606E+05 -3.134861E+04 -2.841449E+04  1.481934E+04 -1.279300E+03  7.248063E+03
       376   3 -3.756708E+05 -3.912198E+04 -3.573333E+04  2.075660E+04 -8.901499E+02  9.151579E+03
       376   4 -2.140076E+05  1.582041E+02 -4.601666E+02  2.121132E+04  2.789796E+02  5.331219E+03
       376   5 -2.139385E+05  1.170585E+02 -7.577576E+02  1.518890E+04  6.474846E+02  7.254712E+03
       376   6 -2.140102E+05  1.073986E+02 -1.311790E+03  2.121149E+04  1.016356E+03  9.158025E+03
       376   7 -1.164121E+05  2.386327E+04  2.044551E+04  2.149542E+04  2.226366E+03  5.338078E+03
       376   8 -8.430062E+04  3.158164E+04  2.689801E+04  1.555852E+04  2.574666E+03  7.261363E+03
       376   9 -5.232491E+04  3.933508E+04  3.310827E+04  2.166648E+04  2.923350E+03  9.164474E+03
       376  10 -3.115941E+05 -2.354751E+04 -2.136644E+04  2.092726E+04 -7.375695E-09  1.101576E-09
       376  11 -3.435606E+05 -3.134867E+04 -2.841459E+04  1.481935E+04 -1.183286E-08 -6.990260E-09
       376  12 -3.756709E+05 -3.912207E+04 -3.573349E+04  2.075661E+04 -7.561963E-09 -4.401481E-09
       376  13 -2.140076E+05  1.581735E+02 -4.602202E+02  2.121132E+04 -4.764893E-12 -1.041789E-09
       376  14 -2.139385E+05  1.170019E+02 -7.578573E+02  1.518890E+04 -1.213635E-09  2.795414E-10
       376  15 -2.140102E+05  1.073083E+02 -1.311949E+03  2.121148E+04 -2.753994E-10  3.377376E-09
       376  16 -1.164121E+05  2.386324E+04  2.044545E+04  2.149541E+04  8.446909E-09  1.187200E-08
       376  17 -8.430064E+04  3.158158E+04  2.689790E+04  1.555850E+04  9.399662E-09 -2.371277E-09
       376  18 -5.232494E+04  3.933499E+04  3.310809E+04  2.166646E+04  1.036947E-08  2.405377E-09
       376  19 -3.115941E+05 -2.354748E+04 -2.136638E+04  2.092725E+04  1.668105E+03 -5.324361E+03
       376  20 -3.435606E+05 -3.134861E+04 -2.841449E+04  1.481934E+04  1.279300E+03 -7.248063E+03
       376  21 -3.756708E+05 -3.912198E+04 -3.573333E+04  2.075660E+04  8.901499E+02 -9.151579E+03
       376  22 -2.140076E+05  1.582041E+02 -4.601666E+02  2.121132E+04 -2.789796E+02 -5.331219E+03
       376  23 -2.139385E+05  1.170585E+02 -7.577576E+02  1.518890E+04 -6.474846E+02 -7.254712E+03
       376  24 -2.140102E+05  1.073986E+02 -1.311790E+03  2.121149E+04 -1.016356E+03 -9.158025E+03
       376  25 -1.164121E+05  2.386327E+04  2.044551E+04  2.149542E+04 -2.226366E+03 -5.338078E+03
       376  26 -8.430062E+04  3.158164E+04  2.689801E+04  1.555852E+04 -2.574666E+03 -7.261363E+03
       376  27 -5.232491E+04  3.933508E+04  3.310827E+04  2.166648E+04 -2.923350E+03 -9.164474E+03
       377   1 -4.005655E+05 -4.508327E+04 -4.158191E+04  2.051228E+04 -7.417034E+02  1.030306E+04
       377   2 -4.322694E+05 -5.293581E+04 -4.964969E+04  1.471828E+04  1.157655E+03  1.210552E+04
       377   3 -4.645541E+05 -6.177609E+04 -5.922264E+04  2.093480E+04  3.058751E+03  1.348932E+04
       377   4 -2.140938E+05  2.023659E+02 -1.709730E+03  2.120274E+04  1.278803E+03  1.030979E+04
       377   5 -2.138418E+05  1.047700E+02 -2.963698E+03  1.519946E+04  2.756835E+03  1.211060E+04
       377   6 -2.140983E+05 -9.070847E+02 -5.429735E+03  2.120647E+04  4.236701E+03  1.349282E+04
       377   7 -2.758926E+04  4.548573E+04  3.816045E+04  2.189337E+04  3.299907E+03  1.031652E+04
       377   8  4.630666E+03  5.314224E+04  4.371954E+04  1.568078E+04  4.356571E+03  1.211567E+04
       377   9  3.641651E+04  5.995781E+04  4.835951E+04  2.147819E+04  5.415120E+03  1.349631E+04
       377  10 -4.005656E+05 -4.508339E+04 -4.158211E+04  2.051229E+04  2.490031E-08 -3.095457E-09
       377  11 -4.322694E+05 -5.293597E+04 -4.964997E+04  1.471827E+04  6.533462E-09  2.185654E-09
       377  12 -4.645542E+05 -6.177629E+04 -5.922300E+04  2.093477E+04 -5.674111E-09 -8.309232E-09
       377  13 -2.140938E+05  2.022513E+02 -1.709933E+03  2.120273E+04  1.374934E-10 -1.365352E-08
       377  14 -2.138419E+05  1.046105E+02 -2.963987E+03  1.519944E+04 -1.396586E-09  5.591414E-09
       377  15 -2.140984E+05 -9.072850E+02 -5.430111E+03  2.120642E+04 -1.161126E-09 -1.487158E-09
       377  16 -2.758930E+04  4.548562E+04  3.816023E+04  2.189335E+04 -2.380143E-08 -3.646212E-09
       377  17  4.630606E+03  5.314208E+04  4.371923E+04  1.568074E+04 -8.269401E-09 -1.486705E-08
       377  18  3.641642E+04  5.995761E+04  4.835911E+04  2.147814E+04  8.357129E-09  5.313409E-09
       377  19 -4.005655E+05 -4.508327E+04 -4.158191E+04  2.051228E+04  7.417034E+02 -1.030306E+04
       377  20 -4.322694E+05 -5.293581E+04 -4.964969E+04  1.471828E+04 -1.157655E+03 -1.210552E+04
       377  21 -4.645541E+05 -6.177609E+04 -5.922264E+04  2.093480E+04 -3.058751E+03 -1.348932E+04
       377  22 -2.140938E+05  2.023659E+02 -1.709730E+03  2.120274E+04 -1.278803E+03 -1.030979E+04
       377  23 -2.138418E+05  1.047700E+02 -2.963698E+03  1.519946E+04 -2.756835E+03 -1.211060E+04
       377  24 -2.140983E+05 -9.070847E+02 -5.429735E+03  2.120647E+04 -4.236701E+03 -1.349282E+04
       377  25 -2.758926E+04  4.548573E+04  3.816045E+04  2.189337E+04 -3.299907E+03 -1.031652E+04
       377  26  4.630666E+03  5.314224E+04  4.371954E+04  1.568078E+04 -4.356571E+03 -1.211567E+04
       377  27  3.641651E+04  5.995781E+04  4.835951E+04  2.147819E+04 -5.415120E+03 -1.349631E+04
       378   1 -4.906886E+05 -6.584591E+04 -6.576647E+04  1.743081E+04  1.543532E+03  1.523840E+04
       378   2 -5.190874E+05 -7.535549E+04 -7.912536E+04  1.855794E+04  1.683073E+04  1.442244E+04
       378   3 -5.547834E+05 -1.058301E+05 -1.076942E+05  3.128984E+04  3.214401E+04  4.642254E+03
       378   4 -2.152605E+05  1.066922E+03 -6.872511E+03  2.109711E+04  5.188390E+03  1.524981E+04
       378   5 -2.124010E+05 -5.658110E+02 -1.185638E+04  1.533032E+04  1.144837E+04  1.440476E+04
       378   6 -2.152689E+05 -2.159029E+04 -2.577525E+04  2.116852E+04  1.773551E+04  4.597133E+03
       378   7  6.023916E+04  6.797485E+04  5.201711E+04  2.476500E+04  8.834842E+03  1.526125E+04
       378   8  9.437349E+04  7.421763E+04  5.540700E+04  1.210101E+04  6.063377E+03  1.438713E+04
       378   9  1.243518E+05  6.264165E+04  5.613627E+04  1.104157E+04  3.319149E+03  4.552494E+03
       378  10 -4.906887E+05 -6.584616E+04 -6.576691E+04  1.743079E+04  8.131458E-09 -3.312707E-09
       378  11 -5.190877E+05 -7.535579E+04 -7.912628E+04  1.855775E+04  3.902477E-09 -8.344736E-09
       378  12 -5.547845E+05 -1.058304E+05 -1.076962E+05  3.128972E+04  1.984899E-09  6.682965E-09
       378  13 -2.152606E+05  1.066665E+03 -6.872999E+03  2.109704E+04 -5.451235E-10 -8.499883E-11
       378  14 -2.124012E+05 -5.660690E+02 -1.185701E+04  1.533018E+04 -1.923970E-09 -8.084225E-10
       378  15 -2.152692E+05 -2.159039E+04 -2.577588E+04  2.116846E+04  6.280774E-10  4.645588E-09
       378  16  6.023902E+04  6.797458E+04  5.201652E+04  2.476489E+04 -8.272672E-09  8.350015E-09
       378  17  9.437339E+04  7.421740E+04  5.540654E+04  1.210094E+04 -6.443373E-09  6.274353E-09
       378  18  1.243518E+05  6.264162E+04  5.613621E+04  1.104156E+04 -3.377305E-10  1.773799E-09
       378  19 -4.906886E+05 -6.584591E+04 -6.576647E+04  1.743081E+04 -1.543532E+03 -1.523840E+04
       378  20 -5.190874E+05 -7.535549E+04 -7.912536E+04  1.855794E+04 -1.683073E+04 -1.442244E+04
       378  21 -5.547834E+05 -1.058301E+05 -1.076942E+05  3.128984E+04 -3.214401E+04 -4.642254E+03
       378  22 -2.152605E+05  1.066922E+03 -6.872511E+03  2.109711E+04 -5.188390E+03 -1.524981E+04
       378  23 -2.124010E+05 -5.658110E+02 -1.185638E+04  1.533032E+04 -1.144837E+04 -1.440476E+04
       378  24 -2.152689E+05 -2.159029E+04 -2.577525E+04  2.116852E+04 -1.773551E+04 -4.597133E+03
       378  25  6.023916E+04  6.797485E+04  5.201711E+04  2.476500E+04 -8.834842E+03 -1.526125E+04
       378  26  9.437349E+04  7.421763E+04  5.540700E+04  1.210101E+04 -6.063377E+03 -1.438713E+04
       378  27  1.243518E+05  6.264165E+04  5.613627E+04  1.104157E+04 -3.319149E+03 -4.552494E+03
       379   1 -2.170745E+05 -8.696292E+05 -2.116502E+05  1.932468E+05 -8.926523E+03 -5.352975E+04
       379   2 -1.457150E+05 -6.551285E+05 -1.316778E+05  1.588180E+05 -2.637165E+04 -1.935322E+04
       379   3 -9.184584E+04 -4.489651E+05 -7.829744E+04  1.806270E+05 -2.242001E+04  1.489848E+04
       379   4 -1.832793E+04 -6.881614E+04 -1.953868E+04  1.816336E+05 -9.028129E+03 -1.452778E+04
       379   5 -3.421068E+03 -6.717405E+04 -8.562761E+03  1.535381E+05 -2.639312E+04 -1.009465E+04
       379   6 -8.251943E+02 -6.873683E+04 -3.498880E+03  1.816793E+05 -2.236988E+04 -5.598895E+03
       379   7  1.803733E+05  7.325884E+05  1.725332E+05  1.700058E+05 -9.131135E+03  2.452436E+04
       379   8  1.388509E+05  5.211077E+05  1.145334E+05  1.482532E+05 -2.641475E+04 -8.274508E+02
       379   9  9.018694E+04  3.116309E+05  7.129423E+04  1.827323E+05 -2.231984E+04 -2.610856E+04
       379  10 -2.170753E+05 -8.696323E+05 -2.116558E+05  1.932464E+05  5.997588E-10  2.574723E-09
       379  11 -1.457159E+05 -6.551291E+05 -1.316798E+05  1.588176E+05  1.363560E-09  1.681917E-09
       379  12 -9.184644E+04 -4.489654E+05 -7.829880E+04  1.806273E+05  1.109025E-09 -1.809514E-09
       379  13 -1.832807E+04 -6.881639E+04 -1.953923E+04  1.816335E+05  2.716738E-09  1.217696E-11
       379  14 -3.421843E+03 -6.717435E+04 -8.564261E+03  1.535379E+05 -4.317555E-10  1.403244E-09
       379  15 -8.257400E+02 -6.873699E+04 -3.499880E+03  1.816792E+05  1.408335E-09  3.518366E-10
       379  16  1.803730E+05  7.325877E+05  1.725319E+05  1.700060E+05  1.421783E-09 -1.526339E-09
       379  17  1.388501E+05  5.211075E+05  1.145321E+05  1.482532E+05  3.312363E-09 -2.045060E-09
       379  18  9.018622E+04  3.116300E+05  7.129201E+04  1.827318E+05 -5.524579E-10 -1.628423E-09
       379  19 -2.170745E+05 -8.696292E+05 -2.116502E+05  1.932468E+05  8.926523E+03  5.352975E+04
       379  20 -1.457150E+05 -6.551285E+05 -1.316778E+05  1.588180E+05  2.637165E+04  1.935322E+04
       379  21 -9.184584E+04 -4.489651E+05 -7.829744E+04  1.806270E+05  2.242001E+04 -1.489848E+04
       379  22 -1.832793E+04 -6.881614E+04 -1.953868E+04  1.816336E+05  9.028129E+03  1.452778E+04
       379  23 -3.421068E+03 -6.717405E+04 -8.562761E+03  1.535381E+05  2.639312E+04  1.009465E+04
       379  24 -8.251943E+02 -6.873683E+04 -3.498880E+03  1.816793E+05  2.236988E+04  5.598895E+03
       379  25  1.803733E+05  7.325884E+05  1.725332E+05  1.700058E+05  9.131135E+03 -2.452436E+04
       379  26  1.388509E+05  5.211077E+05  1.145334E+05  1.482532E+05  2.641475E+04  8.274508E+02
       379  27  9.018694E+04  3.116309E+05  7.129423E+04  1.827323E+05  2.231984E+04  2.610856E+04
       380   1 -5.805993E+04 -3.034784E+05 -4.817127E+04  1.823245E+05 -1.373339E+04  1.143861E+04
       380   2 -6.752626E+03 -9.349248E+04 -2.796099E+03  1.533713E+05 -1.699013E+03  1.058088E+04
       380   3  4.471394E+04  1.170805E+05  4.327061E+04  1.818566E+05  1.041970E+04  9.722800E+03
       380   4 -1.630909E+03 -6.788125E+04 -1.680427E+03  1.819365E+05 -1.369376E+04 -5.247680E+03
       380   5 -7.221476E+02 -6.816240E+04  2.020019E+03  1.532197E+05 -1.659232E+03 -6.224909E+03
       380   6  3.692215E+02 -6.787761E+04  6.496315E+03  1.819412E+05  1.045952E+04 -7.202199E+03
       380   7  5.479489E+04  1.677697E+05  4.480874E+04  1.815484E+05 -1.365413E+04 -2.194017E+04
       380   8  5.308445E+03 -4.283110E+04  6.837169E+03  1.530681E+05 -1.619444E+03 -2.303137E+04
       380   9 -4.397744E+04 -2.528024E+05 -3.027861E+04  1.820259E+05  1.049934E+04 -2.412226E+04
       380  10 -5.806017E+04 -3.034786E+05 -4.817187E+04  1.823246E+05  1.796113E-09 -1.604048E-08
       380  11 -6.752659E+03 -9.349260E+04 -2.796315E+03  1.533714E+05  2.578474E-09  1.813315E-09
       380  12  4.471380E+04  1.170803E+05  4.327023E+04  1.818565E+05 -1.692965E-10  2.104628E-08
       380  13 -1.631117E+03 -6.788133E+04 -1.680831E+03  1.819365E+05  1.413556E-09 -1.835848E-11
       380  14 -7.221610E+02 -6.816244E+04  2.019941E+03  1.532197E+05  4.992702E-09  1.553734E-10
       380  15  3.690900E+02 -6.787769E+04  6.496012E+03  1.819413E+05  1.145145E-09  3.536540E-11
       380  16  5.479456E+04  1.677691E+05  4.480749E+04  1.815482E+05  1.504605E-09  1.690718E-08
       380  17  5.308300E+03 -4.283167E+04  6.836167E+03  1.530681E+05  3.714737E-09 -4.835142E-09
       380  18 -4.397771E+04 -2.528030E+05 -3.027991E+04  1.820261E+05 -2.757863E-09 -2.291819E-08
       380  19 -5.805993E+04 -3.034784E+05 -4.817127E+04  1.823245E+05  1.373339E+04 -1.143861E+04
       380  20 -6.752626E+03 -9.349248E+04 -2.796099E+03  1.533713E+05  1.699013E+03 -1.058088E+04
       380  21  4.471394E+04  1.170805E+05  4.327061E+04  1.818566E+05 -1.041970E+04 -9.722800E+03
       380  22 -1.630909E+03 -6.788125E+04 -1.680427E+03  1.819365E+05  1.369376E+04  5.247680E+03
       380  23 -7.221476E+02 -6.816240E+04  2.020019E+03  1.532197E+05  1.659232E+03  6.224909E+03
       380  24  3.692215E+02 -6.787761E+04  6.496315E+03  1.819412E+05 -1.045952E+04  7.202199E+03
       380  25  5.479489E+04  1.677697E+05  4.480874E+04  1.815484E+05  1.365413E+04  2.194017E+04
       380  26  5.308445E+03 -4.283110E+04  6.837169E+03  1.530681E+05  1.619444E+03  2.303137E+04
       380  27 -4.397744E+04 -2.528024E+05 -3.027861E+04  1.820259E+05 -1.049934E+04  2.412226E+04
       381   1  7.780096E+04  2.632104E+05  7.418473E+04  1.777997E+05  1.908929E+04  1.216150E+04
       381   2  1.340427E+05  4.676311E+05  1.303405E+05  1.604948E+05  2.382993E+04 -2.496936E+04
       381   3  2.180672E+05  6.843095E+05  2.176964E+05  1.995796E+05  8.446572E+03 -6.217084E+04
       381   4 -1.143497E+03 -6.638160E+04  9.118271E+03  1.816904E+05  1.913876E+04 -8.324488E+03
       381   5  3.998896E+03 -7.009941E+04  1.749099E+04  1.535391E+05  2.381286E+04 -1.742023E+04
       381   6  3.207521E+04 -6.645204E+04  3.761123E+04  1.817769E+05  8.356345E+03 -2.657390E+04
       381   7 -8.009428E+04 -3.958687E+05 -5.595193E+04  1.855790E+05  1.918798E+04 -2.879983E+04
       381   8 -1.260632E+05 -6.075566E+05 -9.537439E+04  1.465897E+05  2.379561E+04 -9.877531E+03
       381   9 -1.539558E+05 -8.166942E+05 -1.425090E+05  1.639960E+05  8.264028E+03  8.980212E+03
       381  10  7.780053E+04  2.632101E+05  7.418377E+04  1.777995E+05 -1.402415E-09  8.044690E-09
       381  11  1.340419E+05  4.676303E+05  1.303382E+05  1.604953E+05 -4.047781E-09  3.143750E-09
       381  12  2.180661E+05  6.843053E+05  2.176890E+05  1.995801E+05 -2.307002E-09  2.822395E-09
       381  13 -1.143909E+03 -6.638177E+04  9.117452E+03  1.816905E+05 -4.741753E-09  2.128531E-09
       381  14  3.998206E+03 -7.009989E+04  1.748935E+04  1.535395E+05 -1.657955E-09  8.693419E-10
       381  15  3.207495E+04 -6.645282E+04  3.760977E+04  1.817771E+05 -1.373975E-09  4.477009E-09
       381  16 -8.009489E+04 -3.958697E+05 -5.595418E+04  1.855795E+05 -4.292837E-09 -4.456390E-09
       381  17 -1.260639E+05 -6.075568E+05 -9.537564E+04  1.465899E+05 -1.304074E-09 -1.750504E-09
       381  18 -1.539559E+05 -8.166943E+05 -1.425093E+05  1.639960E+05 -8.960547E-10 -3.268515E-09
       381  19  7.780096E+04  2.632104E+05  7.418473E+04  1.777997E+05 -1.908929E+04 -1.216150E+04
       381  20  1.340427E+05  4.676311E+05  1.303405E+05  1.604948E+05 -2.382993E+04  2.496936E+04
       381  21  2.180672E+05  6.843095E+05  2.176964E+05  1.995796E+05 -8.446572E+03  6.217084E+04
       381  22 -1.143497E+03 -6.638160E+04  9.118271E+03  1.816904E+05 -1.913876E+04  8.324488E+03
       381  23  3.998896E+03 -7.009941E+04  1.749099E+04  1.535391E+05 -2.381286E+04  1.742023E+04
       381  24  3.207521E+04 -6.645204E+04  3.761123E+04  1.817769E+05 -8.356345E+03  2.657390E+04
       381  25 -8.009428E+04 -3.958687E+05 -5.595193E+04  1.855790E+05 -1.918798E+04  2.879983E+04
       381  26 -1.260632E+05 -6.075566E+05 -9.537439E+04  1.465897E+05 -2.379561E+04  9.877531E+03
       381  27 -1.539558E+05 -8.166942E+05 -1.425090E+05  1.639960E+05 -8.264028E+03 -8.980212E+03
       382   1  5.460000E+05  2.198986E+05  1.355962E+05  2.041677E+05  5.890373E+04  1.855305E+04
       382   2  5.256181E+05  1.393734E+05  8.273400E+04  1.987088E+05  3.787501E+04  2.544061E+03
       382   3  5.234484E+05  1.197000E+05  6.258445E+04  1.858210E+05  1.437909E+04 -6.941854E+03
       382   4  3.382560E+05  1.135516E+05  7.501350E+04  1.186367E+05  4.916333E+04  1.486320E+04
       382   5  3.256189E+05  5.480075E+04  3.279516E+04  1.333068E+05  3.430027E+04  1.189849E+03
       382   6  3.299792E+05  5.568975E+04  1.841007E+04  1.405461E+05  1.696880E+04 -5.961430E+03
       382   7  1.305596E+05  7.221108E+03  1.442824E+04  3.313663E+04  3.942665E+04  1.117586E+04
       382   8  1.256607E+05 -2.976528E+04 -1.714647E+04  6.792546E+04  3.072679E+04 -1.637412E+02
       382   9  1.365456E+05 -8.320118E+03 -2.576713E+04  9.528281E+04  1.955765E+04 -4.981247E+03
       382  10  5.459962E+05  2.198973E+05  1.355890E+05  2.041668E+05 -6.473034E-10 -2.232157E-09
       382  11  5.256166E+05  1.393730E+05  8.273129E+04  1.987088E+05 -3.300997E-10  8.607271E-10
       382  12  5.234482E+05  1.196999E+05  6.258397E+04  1.858211E+05  3.361081E-09 -1.469981E-09
       382  13  3.382533E+05  1.135507E+05  7.500855E+04  1.186361E+05  1.508520E-09 -6.959535E-09
       382  14  3.256177E+05  5.480044E+04  3.279294E+04  1.333068E+05 -6.808389E-10 -1.501623E-08
       382  15  3.299789E+05  5.568964E+04  1.840946E+04  1.405462E+05  6.770654E-11 -2.878981E-09
       382  16  1.305579E+05  7.220556E+03  1.442509E+04  3.313628E+04 -4.119181E-10  1.671536E-10
       382  17  1.256597E+05 -2.976553E+04 -1.714824E+04  6.792547E+04  2.187221E-09  3.184867E-10
       382  18  1.365452E+05 -8.320247E+03 -2.576789E+04  9.528289E+04  4.942309E-10 -1.361770E-08
       382  19  5.460000E+05  2.198986E+05  1.355962E+05  2.041677E+05 -5.890373E+04 -1.855305E+04
       382  20  5.256181E+05  1.393734E+05  8.273400E+04  1.987088E+05 -3.787501E+04 -2.544061E+03
       382  21  5.234484E+05  1.197000E+05  6.258445E+04  1.858210E+05 -1.437909E+04  6.941854E+03
       382  22  3.382560E+05  1.135516E+05  7.501350E+04  1.186367E+05 -4.916333E+04 -1.486320E+04
       382  23  3.256189E+05  5.480075E+04  3.279516E+04  1.333068E+05 -3.430027E+04 -1.189849E+03
       382  24  3.299792E+05  5.568975E+04  1.841007E+04  1.405461E+05 -1.696880E+04  5.961430E+03
       382  25  1.305596E+05  7.221108E+03  1.442824E+04  3.313663E+04 -3.942665E+04 -1.117586E+04
       382  26  1.256607E+05 -2.976528E+04 -1.714647E+04  6.792546E+04 -3.072679E+04  1.637412E+02
       382  27  1.365456E+05 -8.320118E+03 -2.576713E+04  9.528281E+04 -1.955765E+04  4.981247E+03
       383   1  4.981944E+05  1.255074E+05  5.510805E+04  1.856848E+05  1.349030E+04 -5.819140E+03
       383   2  4.806981E+05  1.114831E+05  4.322008E+04  1.770794E+05  9.078393E+03 -6.484439E+03
       383   3  4.590297E+05  1.063898E+05  3.519351E+04  1.744675E+05  4.556172E+03 -6.858547E+03
       383   4  3.276089E+05  6.078709E+04  1.450621E+04  1.373287E+05  1.418128E+04 -5.557748E+03
       383   5  3.295058E+05  5.482924E+04  7.514945E+03  1.349082E+05  1.004540E+04 -6.118398E+03
       383   6  3.271759E+05  5.774820E+04  4.167113E+03  1.384809E+05  5.799063E+03 -6.387884E+03
       383   7  1.570524E+05 -3.930787E+03 -2.609771E+04  8.898482E+04  1.487205E+04 -5.296437E+03
       383   8  1.783367E+05 -1.822691E+03 -2.819168E+04  9.274648E+04  1.101215E+04 -5.752457E+03
       383   9  1.953402E+05  9.108064E+03 -2.686029E+04  1.025015E+05  7.041660E+03 -5.917330E+03
       383  10  4.981942E+05  1.255073E+05  5.510765E+04  1.856849E+05 -1.660323E-09  2.030568E-09
       383  11  4.806980E+05  1.114830E+05  4.321984E+04  1.770795E+05 -4.487702E-09  1.829289E-09
       383  12  4.590296E+05  1.063898E+05  3.519338E+04  1.744676E+05 -8.467918E-09 -9.558998E-09
       383  13  3.276087E+05  6.078701E+04  1.450577E+04  1.373288E+05  1.017233E-09  1.929869E-10
       383  14  3.295057E+05  5.482918E+04  7.514685E+03  1.349083E+05  1.112363E-09 -2.161759E-08
       383  15  3.271759E+05  5.774815E+04  4.166973E+03  1.384810E+05  1.714123E-09  4.487533E-09
       383  16  1.570521E+05 -3.930877E+03 -2.609818E+04  8.898488E+04  3.576255E-09 -3.449752E-09
       383  17  1.783365E+05 -1.822759E+03 -2.819197E+04  9.274653E+04  7.726773E-09  4.664054E-09
       383  18  1.953401E+05  9.108013E+03 -2.686045E+04  1.025015E+05  8.586969E-09  4.133981E-09
       383  19  4.981944E+05  1.255074E+05  5.510805E+04  1.856848E+05 -1.349030E+04  5.819140E+03
       383  20  4.806981E+05  1.114831E+05  4.322008E+04  1.770794E+05 -9.078393E+03  6.484439E+03
       383  21  4.590297E+05  1.063898E+05  3.519351E+04  1.744675E+05 -4.556172E+03  6.858547E+03
       383  22  3.276089E+05  6.078709E+04  1.450621E+04  1.373287E+05 -1.418128E+04  5.557748E+03
       383  23  3.295058E+05  5.482924E+04  7.514945E+03  1.349082E+05 -1.004540E+04  6.118398E+03
       383  24  3.271759E+05  5.774820E+04  4.167113E+03  1.384809E+05 -5.799063E+03  6.387884E+03
       383  25  1.570524E+05 -3.930787E+03 -2.609771E+04  8.898482E+04 -1.487205E+04  5.296437E+03
       383  26  1.783367E+05 -1.822691E+03 -2.819168E+04  9.274648E+04 -1.101215E+04  5.752457E+03
       383  27  1.953402E+05  9.108064E+03 -2.686029E+04  1.025015E+05 -7.041660E+03  5.917330E+03
       384   1  4.425010E+05  1.010391E+05  3.030940E+04  1.702691E+05  3.770784E+03 -6.296945E+03
       384   2  4.254520E+05  9.055616E+04  2.425347E+04  1.614785E+05  2.429173E+03 -5.397861E+03
       384   3  4.027418E+05  8.609799E+04  1.889472E+04  1.592886E+05  1.082886E+03 -4.486854E+03
       384   4  3.269851E+05  5.800110E+04  3.163059E+03  1.382805E+05  4.927137E+03 -5.859000E+03
       384   5  3.298079E+05  5.492282E+04  1.730743E+03  1.350058E+05  3.596962E+03 -4.955501E+03
       384   6  3.269671E+05  5.786721E+04  9.867684E+02  1.383317E+05  2.262083E+03 -4.040089E+03
       384   7  2.114820E+05  1.496387E+04 -2.398438E+04  1.062970E+05  6.083262E+03 -5.421141E+03
       384   8  2.341726E+05  1.929005E+04 -2.079270E+04  1.085367E+05  4.764559E+03 -4.513214E+03
       384   9  2.511981E+05  2.963685E+04 -1.692159E+04  1.173772E+05  3.441124E+03 -3.593382E+03
       384  10  4.425009E+05  1.010390E+05  3.030929E+04  1.702692E+05 -7.764294E-09 -2.428600E-11
       384  11  4.254520E+05  9.055613E+04  2.425341E+04  1.614785E+05 -7.525404E-09 -3.365422E-09
       384  12  4.027418E+05  8.609797E+04  1.889468E+04  1.592886E+05 -1.172909E-08  2.127760E-09
       384  13  3.269851E+05  5.800105E+04  3.162949E+03  1.382805E+05  4.292896E-10 -2.839600E-09
       384  14  3.298078E+05  5.492279E+04  1.730672E+03  1.350058E+05 -5.543953E-10  3.432211E-09
       384  15  3.269671E+05  5.786719E+04  9.867281E+02  1.383317E+05 -2.955696E-09  4.468004E-09
       384  16  2.114819E+05  1.496383E+04 -2.398451E+04  1.062971E+05  6.661653E-09  1.655272E-09
       384  17  2.341725E+05  1.929002E+04 -2.079278E+04  1.085367E+05  5.714154E-09  1.639959E-08
       384  18  2.511981E+05  2.963683E+04 -1.692164E+04  1.173772E+05  8.114458E-09  2.056175E-08
       384  19  4.425010E+05  1.010391E+05  3.030940E+04  1.702691E+05 -3.770784E+03  6.296945E+03
       384  20  4.254520E+05  9.055616E+04  2.425347E+04  1.614785E+05 -2.429173E+03  5.397861E+03
       384  21  4.027418E+05  8.609799E+04  1.889472E+04  1.592886E+05 -1.082886E+03  4.486854E+03
       384  22  3.269851E+05  5.800110E+04  3.163059E+03  1.382805E+05 -4.927137E+03  5.859000E+03
       384  23  3.298079E+05  5.492282E+04  1.730743E+03  1.350058E+05 -3.596962E+03  4.955501E+03
       384  24  3.269671E+05  5.786721E+04  9.867684E+02  1.383317E+05 -2.262083E+03  4.040089E+03
       384  25  2.114820E+05  1.496387E+04 -2.398438E+04  1.062970E+05 -6.083262E+03  5.421141E+03
       384  26  2.341726E+05  1.929005E+04 -2.079270E+04  1.085367E+05 -4.764559E+03  4.513214E+03
       384  27  2.511981E+05  2.963685E+04 -1.692159E+04  1.173772E+05 -3.441124E+03  3.593382E+03
       385   1  3.867874E+05  8.016713E+04  1.479168E+04  1.548918E+05  6.674022E+02 -3.814227E+03
       385   2  3.698431E+05  6.986420E+04  9.917965E+03  1.460973E+05 -5.134988E+01 -2.663982E+03
       385   3  3.471049E+05  6.540692E+04  5.230941E+03  1.439015E+05 -7.701761E+02 -1.513672E+03
       385   4  3.269451E+05  5.787408E+04  7.668924E+02  1.383140E+05  1.842064E+03 -3.369146E+03
       385   5  3.298426E+05  5.495074E+04  4.971586E+02  1.350150E+05  1.123386E+03 -2.218842E+03
       385   6  3.269456E+05  5.787306E+04  4.140750E+02  1.383147E+05  4.046212E+02 -1.068472E+03
       385   7  2.671067E+05  3.558143E+04 -1.325805E+04  1.217377E+05  3.016597E+03 -2.924113E+03
       385   8  2.898436E+05  4.003740E+04 -8.923754E+03  1.239334E+05  2.298039E+03 -1.773733E+03
       385   9  3.067866E+05  5.033919E+04 -4.402845E+03  1.327280E+05  1.579383E+03 -6.232852E+02
       385  10  3.867873E+05  8.016711E+04  1.479165E+04  1.548918E+05 -3.542691E-08 -1.670823E-08
       385  11  3.698431E+05  6.986419E+04  9.917951E+03  1.460973E+05 -9.050837E-09  8.447831E-10
       385  12  3.471049E+05  6.540692E+04  5.230935E+03  1.439015E+05  2.508215E-08  2.176487E-08
       385  13  3.269451E+05  5.787407E+04  7.668646E+02  1.383140E+05 -3.459971E-09 -1.178238E-09
       385  14  3.298426E+05  5.495073E+04  4.971469E+02  1.350150E+05 -5.965460E-09 -4.536010E-09
       385  15  3.269456E+05  5.787306E+04  4.140725E+02  1.383147E+05 -3.183932E-09 -8.103432E-10
       385  16  2.671067E+05  3.558142E+04 -1.325808E+04  1.217377E+05  2.738745E-08  8.461341E-09
       385  17  2.898436E+05  4.003740E+04 -8.923770E+03  1.239334E+05 -8.894792E-09 -6.736484E-09
       385  18  3.067866E+05  5.033919E+04 -4.402850E+03  1.327280E+05 -2.819362E-08 -1.006469E-08
       385  19  3.867874E+05  8.016713E+04  1.479168E+04  1.548918E+05 -6.674022E+02  3.814227E+03
       385  20  3.698431E+05  6.986420E+04  9.917965E+03  1.460973E+05  5.134988E+01  2.663982E+03
       385  21  3.471049E+05  6.540692E+04  5.230941E+03  1.439015E+05  7.701761E+02  1.513672E+03
       385  22  3.269451E+05  5.787408E+04  7.668924E+02  1.383140E+05 -1.842064E+03  3.369146E+03
       385  23  3.298426E+05  5.495074E+04  4.971586E+02  1.350150E+05 -1.123386E+03  2.218842E+03
       385  24  3.269456E+05  5.787306E+04  4.140750E+02  1.383147E+05 -4.046212E+02  1.068472E+03
       385  25  2.671067E+05  3.558143E+04 -1.325805E+04  1.217377E+05 -3.016597E+03  2.924113E+03
       385  26  2.898436E+05  4.003740E+04 -8.923754E+03  1.239334E+05 -2.298039E+03  1.773733E+03
       385  27  3.067866E+05  5.033919E+04 -4.402845E+03  1.327280E+05 -1.579383E+03  6.232852E+02
       386   1  3.312125E+05  5.945693E+04  1.365318E+03  1.395065E+05 -1.114448E+03 -8.161406E+02
       386   2  3.142722E+05  4.915885E+04 -3.090385E+03  1.307155E+05 -1.871164E+03  3.195135E+02
       386   3  2.915461E+05  4.470732E+04 -7.330447E+03  1.285219E+05 -2.627710E+03  1.454899E+03
       386   4  3.269474E+05  5.787284E+04  4.278821E+02  1.383145E+05  6.015091E+01 -3.710077E+02
       386   5  3.298405E+05  5.495048E+04  5.741901E+02  1.350155E+05 -6.968659E+02  7.645173E+02
       386   6  3.269475E+05  5.787463E+04  9.363519E+02  1.383137E+05 -1.453721E+03  1.899770E+03
       386   7  3.226823E+05  5.628875E+04 -5.095484E+02  1.371225E+05  1.234741E+03  7.412173E+01
       386   8  3.454091E+05  6.074212E+04  4.238742E+03  1.393156E+05  4.774612E+02  1.209532E+03
       386   9  3.623499E+05  7.104197E+04  9.203015E+03  1.481060E+05 -2.796661E+02  2.344667E+03
       386  10  3.312125E+05  5.945693E+04  1.365314E+03  1.395065E+05  4.431887E-09  3.432775E-09
       386  11  3.142722E+05  4.915885E+04 -3.090392E+03  1.307155E+05 -1.573769E-10 -8.852145E-09
       386  12  2.915461E+05  4.470732E+04 -7.330464E+03  1.285219E+05  4.678096E-09 -3.753704E-09
       386  13  3.269474E+05  5.787284E+04  4.278818E+02  1.383145E+05  2.447823E-09  5.882844E-09
       386  14  3.298405E+05  5.495048E+04  5.741881E+02  1.350155E+05  6.084337E-09 -4.468810E-09
       386  15  3.269475E+05  5.787463E+04  9.363412E+02  1.383138E+05  6.232758E-09 -1.512728E-09
       386  16  3.226823E+05  5.628875E+04 -5.095513E+02  1.371225E+05  5.818696E-10  7.254882E-09
       386  17  3.454091E+05  6.074211E+04  4.238739E+03  1.393156E+05  1.670827E-09 -4.102859E-09
       386  18  3.623499E+05  7.104196E+04  9.203005E+03  1.481060E+05  1.224638E-09  2.961381E-09
       386  19  3.312125E+05  5.945693E+04  1.365318E+03  1.395065E+05  1.114448E+03  8.161406E+02
       386  20  3.142722E+05  4.915885E+04 -3.090385E+03  1.307155E+05  1.871164E+03 -3.195135E+02
       386  21  2.915461E+05  4.470732E+04 -7.330447E+03  1.285219E+05  2.627710E+03 -1.454899E+03
       386  22  3.269474E+05  5.787284E+04  4.278821E+02  1.383145E+05 -6.015091E+01  3.710077E+02
       386  23  3.298405E+05  5.495048E+04  5.741901E+02  1.350155E+05  6.968659E+02 -7.645173E+02
       386  24  3.269475E+05  5.787463E+04  9.363519E+02  1.383137E+05  1.453721E+03 -1.899770E+03
       386  25  3.226823E+05  5.628875E+04 -5.095484E+02  1.371225E+05 -1.234741E+03 -7.412173E+01
       386  26  3.454091E+05  6.074212E+04  4.238742E+03  1.393156E+05 -4.774612E+02 -1.209532E+03
       386  27  3.623499E+05  7.104197E+04  9.203015E+03  1.481060E+05  2.796661E+02 -2.344667E+03
       387   1  2.756492E+05  3.876787E+04 -1.092829E+04  1.241720E+05 -3.084663E+03  2.111191E+03
       387   2  2.586232E+05  2.842518E+04 -1.459293E+04  1.153324E+05 -4.625656E+03  2.947688E+03
       387   3  2.359826E+05  2.414235E+04 -1.740487E+04  1.130840E+05 -6.162348E+03  3.773270E+03
       387   4  3.269773E+05  5.786465E+04  1.219798E+03  1.383341E+05 -1.906809E+03  2.557504E+03
       387   5  3.297953E+05  5.491876E+04  2.164993E+03  1.350060E+05 -3.458272E+03  3.389976E+03
       387   6  3.270006E+05  5.803490E+04  3.971250E+03  1.382691E+05 -5.005469E+03  4.211520E+03
       387   7  3.783083E+05  7.696173E+04  1.336778E+04  1.524974E+05 -7.288427E+02  3.003860E+03
       387   8  4.009726E+05  8.141279E+04  1.892263E+04  1.546818E+05 -2.290740E+03  3.832320E+03
       387   9  4.180270E+05  9.192807E+04  2.534681E+04  1.634576E+05 -3.848406E+03  4.649840E+03
       387  10  2.756492E+05  3.876786E+04 -1.092831E+04  1.241720E+05  2.154230E-08  1.589312E-08
       387  11  2.586232E+05  2.842517E+04 -1.459299E+04  1.153324E+05 -4.546852E-09  2.160050E-09
       387  12  2.359825E+05  2.414233E+04 -1.740497E+04  1.130841E+05 -2.650345E-08 -5.683419E-09
       387  13  3.269773E+05  5.786464E+04  1.219779E+03  1.383341E+05  2.912151E-09 -3.731705E-09
       387  14  3.297953E+05  5.491875E+04  2.164949E+03  1.350061E+05 -5.899895E-09  1.381153E-08
       387  15  3.270006E+05  5.803487E+04  3.971169E+03  1.382691E+05 -4.939280E-09  6.504895E-09
       387  16  3.783083E+05  7.696172E+04  1.336776E+04  1.524974E+05 -1.488731E-08 -1.475144E-08
       387  17  4.009726E+05  8.141278E+04  1.892259E+04  1.546818E+05  2.032098E-09 -1.605168E-08
       387  18  4.180270E+05  9.192804E+04  2.534674E+04  1.634576E+05  2.068428E-08  6.382529E-09
       387  19  2.756492E+05  3.876787E+04 -1.092829E+04  1.241720E+05  3.084663E+03 -2.111191E+03
       387  20  2.586232E+05  2.842518E+04 -1.459293E+04  1.153324E+05  4.625656E+03 -2.947688E+03
       387  21  2.359826E+05  2.414235E+04 -1.740487E+04  1.130840E+05  6.162348E+03 -3.773270E+03
       387  22  3.269773E+05  5.786465E+04  1.219798E+03  1.383341E+05  1.906809E+03 -2.557504E+03
       387  23  3.297953E+05  5.491876E+04  2.164993E+03  1.350060E+05  3.458272E+03 -3.389976E+03
       387  24  3.270006E+05  5.803490E+04  3.971250E+03  1.382691E+05  5.005469E+03 -4.211520E+03
       387  25  3.783083E+05  7.696173E+04  1.336778E+04  1.524974E+05  7.288427E+02 -3.003860E+03
       387  26  4.009726E+05  8.141279E+04  1.892263E+04  1.546818E+05  2.290740E+03 -3.832320E+03
       387  27  4.180270E+05  9.192807E+04  2.534681E+04  1.634576E+05  3.848406E+03 -4.649840E+03
       388   1  2.198222E+05  1.832460E+04 -2.001609E+04  1.094532E+05 -7.260572E+03  4.212303E+03
       388   2  2.028466E+05  7.259384E+03 -2.047008E+04  9.946919E+04 -1.224037E+04  3.672141E+03
       388   3  1.820222E+05  5.795006E+03 -1.653818E+04  9.530853E+04 -1.712107E+04  2.871383E+03
       388   4  3.272428E+05  5.771656E+04  5.235622E+03  1.385207E+05 -6.026402E+03  4.679789E+03
       388   5  3.294157E+05  5.480394E+04  9.447611E+03  1.348843E+05 -1.125329E+04  4.045902E+03
       388   6  3.277880E+05  6.154030E+04  1.824062E+04  1.370708E+05 -1.638127E+04  3.151367E+03
       388   7  4.346743E+05  9.710905E+04  3.048637E+04  1.675927E+05 -4.792005E+03  5.147357E+03
       388   8  4.560008E+05  1.023498E+05  3.936417E+04  1.703060E+05 -1.026599E+04  4.419748E+03
       388   9  4.735758E+05  1.172878E+05  5.301812E+04  1.788423E+05 -1.564128E+04  3.431427E+03
       388  10  2.198221E+05  1.832456E+04 -2.001622E+04  1.094532E+05 -1.573204E-09  1.290062E-08
       388  11  2.028465E+05  7.259329E+03 -2.047039E+04  9.946922E+04  9.686036E-10  1.710218E-08
       388  12  1.820219E+05  5.794918E+03 -1.653875E+04  9.530857E+04  8.100865E-09  5.607660E-09
       388  13  3.272427E+05  5.771652E+04  5.235513E+03  1.385208E+05 -4.451648E-09 -1.980575E-09
       388  14  3.294156E+05  5.480389E+04  9.447342E+03  1.348843E+05 -5.860024E-09  1.991163E-08
       388  15  3.277878E+05  6.154022E+04  1.824010E+04  1.370708E+05 -2.800394E-09 -4.473948E-09
       388  16  4.346742E+05  9.710902E+04  3.048628E+04  1.675927E+05 -1.623964E-09  6.089809E-09
       388  17  4.560007E+05  1.023497E+05  3.936394E+04  1.703060E+05 -3.653760E-09 -9.806469E-10
       388  18  4.735755E+05  1.172877E+05  5.301764E+04  1.788423E+05 -6.083217E-09 -1.507138E-08
       388  19  2.198222E+05  1.832460E+04 -2.001609E+04  1.094532E+05  7.260572E+03 -4.212303E+03
       388  20  2.028466E+05  7.259384E+03 -2.047008E+04  9.946919E+04  1.224037E+04 -3.672141E+03
       388  21  1.820222E+05  5.795006E+03 -1.653818E+04  9.530853E+04  1.712107E+04 -2.871383E+03
       388  22  3.272428E+05  5.771656E+04  5.235622E+03  1.385207E+05  6.026402E+03 -4.679789E+03
       388  23  3.294157E+05  5.480394E+04  9.447611E+03  1.348843E+05  1.125329E+04 -4.045902E+03
       388  24  3.277880E+05  6.154030E+04  1.824062E+04  1.370708E+05  1.638127E+04 -3.151367E+03
       388  25  4.346743E+05  9.710905E+04  3.048637E+04  1.675927E+05  4.792005E+03 -5.147357E+03
       388  26  4.560008E+05  1.023498E+05  3.936417E+04  1.703060E+05  1.026599E+04 -4.419748E+03
       388  27  4.735758E+05  1.172878E+05  5.301812E+04  1.788423E+05  1.564128E+04 -3.431427E+03
       389   1  1.604369E+05  1.845515E+03 -1.522897E+04  1.044153E+05 -2.217818E+04  2.347675E+03
       389   2  1.510763E+05 -2.245372E+04 -2.775261E+03  7.219762E+04 -3.857671E+04 -4.240480E+03
       389   3  1.634541E+05  2.571391E+04  4.031284E+04  2.899171E+04 -5.276556E+04 -1.666353E+04
       389   4  3.307529E+05  5.514668E+04  2.315006E+04  1.411332E+05 -1.973992E+04  3.271250E+03
       389   5  3.245500E+05  5.475217E+04  4.124072E+04  1.328498E+05 -4.165364E+04 -5.406661E+03
       389   6  3.411686E+05  1.279026E+05  9.433129E+04  1.135807E+05 -6.135815E+04 -1.992010E+04
       389   7  5.010984E+05  1.084483E+05  6.152746E+04  1.778594E+05 -1.730092E+04  4.195003E+03
       389   8  4.980525E+05  1.319634E+05  8.525393E+04  1.935182E+05 -4.473148E+04 -6.573340E+03
       389   9  5.189134E+05  2.301061E+05  1.483461E+05  1.981940E+05 -6.995326E+04 -2.317882E+04
       389  10  1.604364E+05  1.845377E+03 -1.522990E+04  1.044154E+05  4.852213E-09  7.693788E-09
       389  11  1.510747E+05 -2.245414E+04 -2.778091E+03  7.219749E+04  4.011699E-09  1.493160E-08
       389  12  1.634511E+05  2.571286E+04  4.030709E+04  2.899100E+04  2.016627E-09  3.496705E-09
       389  13  3.307525E+05  5.514656E+04  2.314931E+04  1.411333E+05  2.082957E-09  1.204185E-09
       389  14  3.245481E+05  5.475167E+04  4.123741E+04  1.328497E+05  5.382226E-10 -1.629218E-09
       389  15  3.411644E+05  1.279011E+05  9.432347E+04  1.135797E+05  1.565285E-10  7.364293E-09
       389  16  5.010981E+05  1.084482E+05  6.152686E+04  1.778595E+05 -4.886523E-09 -9.556584E-09
       389  17  4.980503E+05  1.319628E+05  8.525009E+04  1.935180E+05 -9.147283E-10 -3.426669E-09
       389  18  5.189080E+05  2.301042E+05  1.483359E+05  1.981927E+05 -3.334816E-09 -6.745373E-09
       389  19  1.604369E+05  1.845515E+03 -1.522897E+04  1.044153E+05  2.217818E+04 -2.347675E+03
       389  20  1.510763E+05 -2.245372E+04 -2.775261E+03  7.219762E+04  3.857671E+04  4.240480E+03
       389  21  1.634541E+05  2.571391E+04  4.031284E+04  2.899171E+04  5.276556E+04  1.666353E+04
       389  22  3.307529E+05  5.514668E+04  2.315006E+04  1.411332E+05  1.973992E+04 -3.271250E+03
       389  23  3.245500E+05  5.475217E+04  4.124072E+04  1.328498E+05  4.165364E+04  5.406661E+03
       389  24  3.411686E+05  1.279026E+05  9.433129E+04  1.135807E+05  6.135815E+04  1.992010E+04
       389  25  5.010984E+05  1.084483E+05  6.152746E+04  1.778594E+05  1.730092E+04 -4.195003E+03
       389  26  4.980525E+05  1.319634E+05  8.525393E+04  1.935182E+05  4.473148E+04  6.573340E+03
       389  27  5.189134E+05  2.301061E+05  1.483461E+05  1.981940E+05  6.995326E+04  2.317882E+04
       390   1 -1.231003E+05 -6.054902E+05 -1.225016E+05  9.286031E+04 -4.836073E+03 -2.539242E+04
       390   2 -7.777461E+04 -4.786851E+05 -7.734032E+04  6.541775E+04 -1.373723E+04 -8.941958E+03
       390   3 -4.661400E+04 -3.571915E+05 -4.638435E+04  8.398939E+04 -1.022365E+04  7.548226E+03
       390   4 -1.355859E+04 -1.651490E+05 -1.557726E+04  8.532838E+04 -4.878639E+03 -1.022460E+04
       390   5 -7.511472E+02 -1.635605E+05 -7.556790E+03  6.234069E+04 -1.374406E+04 -6.275701E+03
       390   6  6.752765E+01 -1.651244E+05 -5.051346E+03  8.536672E+04 -1.019733E+04 -2.290664E+03
       390   7  9.596924E+04  2.753699E+05  9.133396E+04  7.779120E+04 -4.921558E+03  4.953970E+03
       390   8  7.626565E+04  1.516569E+05  6.222062E+04  5.926210E+04 -1.375090E+04 -3.608105E+03
       390   9  4.674669E+04  2.697763E+04  3.627986E+04  8.674451E+04 -1.017106E+04 -1.213256E+04
       390  10 -1.231005E+05 -6.054909E+05 -1.225029E+05  9.286021E+04  6.126542E-10 -1.714956E-09
       390  11 -7.777484E+04 -4.786852E+05 -7.734083E+04  6.541765E+04  3.020192E-10 -9.180678E-10
       390  12 -4.661412E+04 -3.571916E+05 -4.638466E+04  8.398945E+04  7.173479E-10  7.948463E-10
       390  13 -1.355864E+04 -1.651491E+05 -1.557750E+04  8.532834E+04  1.860222E-09  2.186909E-09
       390  14 -7.513606E+02 -1.635606E+05 -7.557219E+03  6.234062E+04 -3.158226E-09  2.935291E-09
       390  15  6.741459E+01 -1.651244E+05 -5.051551E+03  8.536670E+04 -2.893287E-10  2.752330E-09
       390  16  9.596920E+04  2.753699E+05  9.133387E+04  7.779122E+04 -6.035831E-10 -7.966137E-09
       390  17  7.626544E+04  1.516568E+05  6.222024E+04  5.926206E+04 -2.116203E-09  7.119771E-09
       390  18  4.674654E+04  2.697744E+04  3.627939E+04  8.674441E+04 -1.848099E-09  3.924597E-09
       390  19 -1.231003E+05 -6.054902E+05 -1.225016E+05  9.286031E+04  4.836073E+03  2.539242E+04
       390  20 -7.777461E+04 -4.786851E+05 -7.734032E+04  6.541775E+04  1.373723E+04  8.941958E+03
       390  21 -4.661400E+04 -3.571915E+05 -4.638435E+04  8.398939E+04  1.022365E+04 -7.548226E+03
       390  22 -1.355859E+04 -1.651490E+05 -1.557726E+04  8.532838E+04  4.878639E+03  1.022460E+04
       390  23 -7.511472E+02 -1.635605E+05 -7.556790E+03  6.234069E+04  1.374406E+04  6.275701E+03
       390  24  6.752765E+01 -1.651244E+05 -5.051346E+03  8.536672E+04  1.019733E+04  2.290664E+03
       390  25  9.596924E+04  2.753699E+05  9.133396E+04  7.779120E+04  4.921558E+03 -4.953970E+03
       390  26  7.626565E+04  1.516569E+05  6.222062E+04  5.926210E+04  1.375090E+04  3.608105E+03
       390  27  4.674669E+04  2.697763E+04  3.627986E+04  8.674451E+04  1.017106E+04  1.213256E+04
       391   1 -2.429769E+04 -2.600763E+05 -2.518126E+04  8.605963E+04 -4.943955E+03  5.079656E+03
       391   2  6.602730E+03 -1.357983E+05  2.067267E+03  6.211563E+04  1.557217E+03  7.048618E+03
       391   3  3.587161E+04 -1.184159E+04  2.770057E+04  8.477031E+04  7.990630E+03  9.017994E+03
       391   4 -1.040623E+03 -1.644953E+05 -4.515257E+03  8.548708E+04 -4.926612E+03 -1.511278E+03
       391   5 -3.229751E+02 -1.643225E+05 -4.030960E+03  6.218734E+04  1.574513E+03  5.254516E+02
       391   6 -1.247760E+03 -1.644975E+05 -5.208469E+03  8.548653E+04  8.007829E+03  2.562218E+03
       391   7  2.221587E+04 -6.890563E+04  1.615036E+04  8.491444E+04 -4.909259E+03 -8.103213E+03
       391   8 -7.248710E+03 -1.928459E+05 -1.012907E+04  6.225905E+04  1.591807E+03 -5.997420E+03
       391   9 -3.836864E+04 -3.171314E+05 -3.811872E+04  8.620259E+04  8.025015E+03 -3.891993E+03
       391  10 -2.429772E+04 -2.600763E+05 -2.518135E+04  8.605965E+04 -3.131265E-10  1.788033E-09
       391  11  6.602714E+03 -1.357984E+05  2.067169E+03  6.211562E+04  5.788119E-10  4.094481E-09
       391  12  3.587152E+04 -1.184169E+04  2.770029E+04  8.477025E+04 -2.309583E-09 -3.593447E-09
       391  13 -1.040650E+03 -1.644953E+05 -4.515307E+03  8.548707E+04 -3.484580E-10 -3.831956E-12
       391  14 -3.229778E+02 -1.643225E+05 -4.030965E+03  6.218734E+04  2.099372E-09  4.959215E-09
       391  15 -1.247831E+03 -1.644975E+05 -5.208602E+03  8.548652E+04  6.832235E-11 -3.389748E-09
       391  16  2.221582E+04 -6.890570E+04  1.615020E+04  8.491441E+04 -1.173701E-09 -8.842791E-09
       391  17 -7.248723E+03 -1.928460E+05 -1.012915E+04  6.225905E+04 -1.620379E-09  8.892169E-09
       391  18 -3.836871E+04 -3.171314E+05 -3.811887E+04  8.620262E+04 -1.491934E-09  4.348832E-09
       391  19 -2.429769E+04 -2.600763E+05 -2.518126E+04  8.605963E+04  4.943955E+03 -5.079656E+03
       391  20  6.602730E+03 -1.357983E+05  2.067267E+03  6.211563E+04 -1.557217E+03 -7.048618E+03
       391  21  3.587161E+04 -1.184159E+04  2.770057E+04  8.477031E+04 -7.990630E+03 -9.017994E+03
       391  22 -1.040623E+03 -1.644953E+05 -4.515257E+03  8.548708E+04  4.926612E+03  1.511278E+03
       391  23 -3.229751E+02 -1.643225E+05 -4.030960E+03  6.218734E+04 -1.574513E+03 -5.254516E+02
       391  24 -1.247760E+03 -1.644975E+05 -5.208469E+03  8.548653E+04 -8.007829E+03 -2.562218E+03
       391  25  2.221587E+04 -6.890563E+04  1.615036E+04  8.491444E+04  4.909259E+03  8.103213E+03
       391  26 -7.248710E+03 -1.928459E+05 -1.012907E+04  6.225905E+04 -1.591807E+03  5.997420E+03
       391  27 -3.836864E+04 -3.171314E+05 -3.811872E+04  8.620259E+04 -8.025015E+03  3.891993E+03
       392   1  6.077236E+04  8.385484E+04  4.743018E+04  8.716130E+04  1.334870E+04  1.359626E+04
       392   2  9.002137E+04  2.089130E+05  7.259897E+04  5.842955E+04  1.648108E+04  4.698387E+03
       392   3  1.061551E+05  3.322446E+05  1.003609E+05  7.562506E+04  5.747863E+03 -4.242218E+03
       392   4  2.385032E+02 -1.653548E+05 -6.088102E+03  8.535105E+04  1.337615E+04  3.471211E+03
       392   5 -8.843670E+02 -1.632850E+05 -9.627800E+03  6.236066E+04  1.647100E+04  8.551620E+03
       392   6 -1.755250E+04 -1.653839E+05 -2.028239E+04  8.530018E+04  5.696372E+03  1.359080E+04
       392   7 -6.029935E+04 -4.145057E+05 -5.960962E+04  8.354157E+04  1.340366E+04 -6.649831E+03
       392   8 -9.179938E+04 -5.353535E+05 -9.186305E+04  6.628947E+04  1.646098E+04  1.240257E+04
       392   9 -1.412778E+05 -6.627855E+05 -1.409423E+05  9.496767E+04  5.645417E+03  3.140957E+04
       392  10  6.077211E+04  8.385460E+04  4.742949E+04  8.716115E+04  9.002788E-11  6.418881E-09
       392  11  9.002108E+04  2.089129E+05  7.259842E+04  5.842949E+04  3.449225E-09  1.097879E-09
       392  12  1.061551E+05  3.322445E+05  1.003608E+05  7.562508E+04  7.412864E-10 -1.802493E-09
       392  13  2.383079E+02 -1.653548E+05 -6.088460E+03  8.535101E+04 -2.265970E-09 -2.189501E-09
       392  14 -8.846779E+02 -1.632851E+05 -9.628447E+03  6.236055E+04  4.689330E-09  4.213440E-09
       392  15 -1.755258E+04 -1.653841E+05 -2.028279E+04  8.530012E+04  1.038956E-09 -2.708771E-09
       392  16 -6.029956E+04 -4.145058E+05 -5.961004E+04  8.354164E+04 -1.561707E-10 -1.246892E-08
       392  17 -9.179971E+04 -5.353538E+05 -9.186384E+04  6.628931E+04  4.275396E-09  4.769878E-09
       392  18 -1.412781E+05 -6.627865E+05 -1.409442E+05  9.496753E+04  9.571271E-10  2.739338E-09
       392  19  6.077236E+04  8.385484E+04  4.743018E+04  8.716130E+04 -1.334870E+04 -1.359626E+04
       392  20  9.002137E+04  2.089130E+05  7.259897E+04  5.842955E+04 -1.648108E+04 -4.698387E+03
       392  21  1.061551E+05  3.322446E+05  1.003609E+05  7.562506E+04 -5.747863E+03  4.242218E+03
       392  22  2.385032E+02 -1.653548E+05 -6.088102E+03  8.535105E+04 -1.337615E+04 -3.471211E+03
       392  23 -8.843670E+02 -1.632850E+05 -9.627800E+03  6.236066E+04 -1.647100E+04 -8.551620E+03
       392  24 -1.755250E+04 -1.653839E+05 -2.028239E+04  8.530018E+04 -5.696372E+03 -1.359080E+04
       392  25 -6.029935E+04 -4.145057E+05 -5.960962E+04  8.354157E+04 -1.340366E+04  6.649831E+03
       392  26 -9.179938E+04 -5.353535E+05 -9.186305E+04  6.628947E+04 -1.646098E+04 -1.240257E+04
       392  27 -1.412778E+05 -6.627855E+05 -1.409423E+05  9.496767E+04 -5.645417E+03 -3.140957E+04
       393   1  1.477558E+05 -1.341053E+05 -1.260578E+05 -2.328293E+04 -1.093666E+04  8.358985E+03
       393   2  1.953268E+05 -1.378395E+05 -1.138358E+05 -2.060285E+04 -1.555509E+02  2.668090E+04
       393   3  2.452326E+05 -1.271353E+05 -1.050044E+05 -3.540024E+04  1.064262E+04  2.881260E+04
       393   4  7.654721E+05  1.912842E+04  2.279960E+04 -3.253375E+04  1.569674E+04  8.383047E+03
       393   5  7.629038E+05  4.739631E+02  1.047465E+04 -2.378777E+04  1.015372E+04  2.668689E+04
       393   6  7.654959E+05 -9.169338E+02  6.086670E+03 -3.251815E+04  4.626754E+03  2.880737E+04
       393   7  1.383539E+06  1.723350E+05  1.716325E+05 -4.179387E+04  4.235653E+04  8.406304E+03
       393   8  1.330782E+06  1.387661E+05  1.347659E+05 -2.697568E+04  2.047230E+04  2.669276E+04
       393   9  1.286014E+06  1.252838E+05  1.171622E+05 -2.963364E+04 -1.394076E+03  2.880209E+04
       393  10  1.477557E+05 -1.341054E+05 -1.260581E+05 -2.328286E+04  6.654311E-11 -8.720415E-12
       393  11  1.953267E+05 -1.378403E+05 -1.138371E+05 -2.060285E+04  2.587222E-10  8.774462E-12
       393  12  2.452323E+05 -1.271362E+05 -1.050062E+05 -3.540049E+04 -8.075965E-11  2.130963E-10
       393  13  7.654719E+05  1.912828E+04  2.279900E+04 -3.253385E+04  5.339622E-10  4.075819E-11
       393  14  7.629035E+05  4.731704E+02  1.047312E+04 -2.378799E+04 -1.787069E-10  5.392970E-11
       393  15  7.654957E+05 -9.178310E+02  6.085070E+03 -3.251826E+04  8.656280E-10  3.141504E-10
       393  16  1.383537E+06  1.723345E+05  1.716290E+05 -4.179416E+04 -2.164701E-12  4.591265E-11
       393  17  1.330782E+06  1.387652E+05  1.347638E+05 -2.697612E+04 -4.951383E-10  4.977529E-11
       393  18  1.286014E+06  1.252829E+05  1.171607E+05 -2.963361E+04  2.256959E-10  1.663541E-10
       393  19  1.477558E+05 -1.341053E+05 -1.260578E+05 -2.328293E+04  1.093666E+04 -8.358985E+03
       393  20  1.953268E+05 -1.378395E+05 -1.138358E+05 -2.060285E+04  1.555509E+02 -2.668090E+04
       393  21  2.452326E+05 -1.271353E+05 -1.050044E+05 -3.540024E+04 -1.064262E+04 -2.881260E+04
       393  22  7.654721E+05  1.912842E+04  2.279960E+04 -3.253375E+04 -1.569674E+04 -8.383047E+03
       393  23  7.629038E+05  4.739631E+02  1.047465E+04 -2.378777E+04 -1.015372E+04 -2.668689E+04
       393  24  7.654959E+05 -9.169338E+02  6.086670E+03 -3.251815E+04 -4.626754E+03 -2.880737E+04
       393  25  1.383539E+06  1.723350E+05  1.716325E+05 -4.179387E+04 -4.235653E+04 -8.406304E+03
       393  26  1.330782E+06  1.387661E+05  1.347659E+05 -2.697568E+04 -2.047230E+04 -2.669276E+04
       393  27  1.286014E+06  1.252838E+05  1.171622E+05 -2.963364E+04  1.394076E+03 -2.880209E+04
       394   1  2.820195E+05 -1.162921E+05 -9.868969E+04 -3.251894E+04  5.323376E+03  2.597270E+04
       394   2  3.299380E+05 -1.054161E+05 -9.009222E+04 -2.369055E+04  4.763264E+03  2.406560E+04
       394   3  3.781915E+05 -9.379304E+04 -8.092631E+04 -3.289584E+04  4.202138E+03  2.141278E+04
       394   4  7.644591E+05  8.407092E+02  4.808761E+03 -3.264581E+04  3.778683E+03  2.597043E+04
       394   5  7.642343E+05 -6.498316E+01  2.625196E+03 -2.362919E+04  2.465714E+03  2.406350E+04
       394   6  7.644726E+05 -9.316234E+01  1.532124E+03 -3.264547E+04  1.151773E+03  2.141110E+04
       394   7  1.247117E+06  1.179583E+05  1.082936E+05 -3.277279E+04  2.232806E+03  2.596817E+04
       394   8  1.198708E+06  1.052739E+05  9.533174E+04 -2.356780E+04  1.665798E+02  2.406140E+04
       394   9  1.150894E+06  9.359700E+04  8.398197E+04 -3.239494E+04 -1.900460E+03  2.140941E+04
       394  10  2.820193E+05 -1.162929E+05 -9.869101E+04 -3.251905E+04 -1.726007E-10  5.538061E-11
       394  11  3.299378E+05 -1.054168E+05 -9.009335E+04 -2.369064E+04  3.788519E-11 -2.182904E-12
       394  12  3.781913E+05 -9.379354E+04 -8.092720E+04 -3.289591E+04 -6.225888E-11 -2.410860E-11
       394  13  7.644589E+05  8.399808E+02  4.807466E+03 -3.264589E+04  3.022851E-10  2.010905E-10
       394  14  7.642341E+05 -6.560681E+01  2.624096E+03 -2.362924E+04 -1.629011E-10 -1.675297E-10
       394  15  7.644724E+05 -9.365516E+01  1.531260E+03 -3.264549E+04  4.372939E-10  2.851617E-11
       394  16  1.247117E+06  1.179576E+05  1.082924E+05 -3.277284E+04  2.357130E-10  1.561762E-10
       394  17  1.198708E+06  1.052733E+05  9.533065E+04 -2.356780E+04 -1.591574E-10 -9.358502E-12
       394  18  1.150894E+06  9.359651E+04  8.398110E+04 -3.239491E+04  2.497806E-10 -2.790127E-11
       394  19  2.820195E+05 -1.162921E+05 -9.868969E+04 -3.251894E+04 -5.323376E+03 -2.597270E+04
       394  20  3.299380E+05 -1.054161E+05 -9.009222E+04 -2.369055E+04 -4.763264E+03 -2.406560E+04
       394  21  3.781915E+05 -9.379304E+04 -8.092631E+04 -3.289584E+04 -4.202138E+03 -2.141278E+04
       394  22  7.644591E+05  8.407092E+02  4.808761E+03 -3.264581E+04 -3.778683E+03 -2.597043E+04
       394  23  7.642343E+05 -6.498316E+01  2.625196E+03 -2.362919E+04 -2.465714E+03 -2.406350E+04
       394  24  7.644726E+05 -9.316234E+01  1.532124E+03 -3.264547E+04 -1.151773E+03 -2.141110E+04
       394  25  1.247117E+06  1.179583E+05  1.082936E+05 -3.277279E+04 -2.232806E+03 -2.596817E+04
       394  26  1.198708E+06  1.052739E+05  9.533174E+04 -2.356780E+04 -1.665798E+02 -2.406140E+04
       394  27  1.150894E+06  9.359700E+04  8.398197E+04 -3.239494E+04  1.900460E+03 -2.140941E+04
       395   1  4.151976E+05 -8.466448E+04 -7.314330E+04 -3.269840E+04  3.748267E+03  1.968364E+04
       395   2  4.628735E+05 -7.314093E+04 -6.355176E+04 -2.370313E+04  3.429428E+03  1.685703E+04
       395   3  5.106345E+05 -6.157677E+04 -5.373512E+04 -3.263687E+04  3.109569E+03  1.400137E+04
       395   4  7.643953E+05 -4.834537E+00  1.182632E+03 -3.262236E+04  9.126681E+02  1.968235E+04
       395   5  7.643553E+05 -3.377229E+01  7.055298E+02 -2.365812E+04  5.642809E+02  1.685619E+04
       395   6  7.644041E+05 -1.668056E+01  4.741687E+02 -3.262236E+04  2.148984E+02  1.400100E+04
       395   7  1.113708E+06  8.464689E+04  7.550160E+04 -3.254628E+04 -1.924501E+03  1.968106E+04
       395   8  1.065923E+06  7.306748E+04  6.495762E+04 -2.361309E+04 -2.302236E+03  1.685536E+04
       395   9  1.018234E+06  6.153921E+04  5.467976E+04 -3.260785E+04 -2.680938E+03  1.400064E+04
       395  10  4.151975E+05 -8.466490E+04 -7.314406E+04 -3.269846E+04 -1.814619E-10 -2.318260E-10
       395  11  4.628734E+05 -7.314124E+04 -6.355232E+04 -2.370318E+04  2.875381E-11 -1.253914E-10
       395  12  5.106344E+05 -6.157698E+04 -5.373551E+04 -3.263691E+04 -4.519385E-11 -2.404635E-10
       395  13  7.643952E+05 -5.250905E+00  1.181902E+03 -3.262237E+04  1.167822E-10 -1.163144E-10
       395  14  7.643552E+05 -3.407759E+01  7.049951E+02 -2.365813E+04 -5.086166E-11 -1.720682E-10
       395  15  7.644041E+05 -1.689115E+01  4.738001E+02 -3.262237E+04  5.564269E-11 -6.994811E-11
       395  16  1.113708E+06  8.464648E+04  7.550086E+04 -3.254625E+04  5.638429E-11 -5.721971E-11
       395  17  1.065923E+06  7.306717E+04  6.495707E+04 -2.361306E+04 -1.768950E-11 -2.288324E-10
       395  18  1.018234E+06  6.153900E+04  5.467938E+04 -3.260782E+04  1.985505E-11 -6.145908E-11
       395  19  4.151976E+05 -8.466448E+04 -7.314330E+04 -3.269840E+04 -3.748267E+03 -1.968364E+04
       395  20  4.628735E+05 -7.314093E+04 -6.355176E+04 -2.370313E+04 -3.429428E+03 -1.685703E+04
       395  21  5.106345E+05 -6.157677E+04 -5.373512E+04 -3.263687E+04 -3.109569E+03 -1.400137E+04
       395  22  7.643953E+05 -4.834537E+00  1.182632E+03 -3.262236E+04 -9.126681E+02 -1.968235E+04
       395  23  7.643553E+05 -3.377229E+01  7.055298E+02 -2.365812E+04 -5.642809E+02 -1.685619E+04
       395  24  7.644041E+05 -1.668056E+01  4.741687E+02 -3.262236E+04 -2.148984E+02 -1.400100E+04
       395  25  1.113708E+06  8.464689E+04  7.550160E+04 -3.254628E+04  1.924501E+03 -1.968106E+04
       395  26  1.065923E+06  7.306748E+04  6.495762E+04 -2.361309E+04  2.302236E+03 -1.685536E+04
       395  27  1.018234E+06  6.153921E+04  5.467976E+04 -3.260785E+04  2.680938E+03 -1.400064E+04
       396   1  5.474646E+05 -5.258551E+04 -4.568508E+04 -3.260494E+04  3.015014E+03  1.233382E+04
       396   2  5.949348E+05 -4.109415E+04 -3.572127E+04 -2.366673E+04  2.821869E+03  9.478929E+03
       396   3  6.424407E+05 -2.959552E+04 -2.562856E+04 -3.257494E+04  2.628142E+03  6.625902E+03
       396   4  7.643954E+05 -1.101619E+01  4.140196E+02 -3.260406E+04  1.344789E+02  1.233367E+04
       396   5  7.643816E+05 -8.567176E+00  3.876902E+02 -2.368100E+04 -5.696314E+01  9.479043E+03
       396   6  7.644003E+05  8.081826E-01  4.889142E+02 -3.260406E+04 -2.489731E+02  6.626281E+03
       396   7  9.813706E+05  5.256043E+04  4.651046E+04 -3.260318E+04 -2.747047E+03  1.233353E+04
       396   8  9.338554E+05  4.107516E+04  3.649503E+04 -2.369527E+04 -2.936569E+03  9.479158E+03
       396   9  8.863738E+05  2.959617E+04  2.660555E+04 -3.263319E+04 -3.126645E+03  6.626661E+03
       396  10  5.474645E+05 -5.258567E+04 -4.568539E+04 -3.260497E+04 -1.423228E-10 -8.534753E-11
       396  11  5.949347E+05 -4.109425E+04 -3.572146E+04 -2.366676E+04 -6.355910E-11  3.212093E-11
       396  12  6.424406E+05 -2.959557E+04 -2.562865E+04 -3.257495E+04  1.265631E-10 -1.092974E-10
       396  13  7.643954E+05 -1.117960E+01  4.137336E+02 -3.260406E+04  7.327323E-11  3.814776E-12
       396  14  7.643815E+05 -8.663697E+00  3.875213E+02 -2.368100E+04 -6.114448E-11 -6.820595E-11
       396  15  7.644002E+05  7.610001E-01  4.888316E+02 -3.260406E+04 -1.803001E-10 -8.087332E-11
       396  16  9.813705E+05  5.256026E+04  4.651016E+04 -3.260315E+04  1.432126E-10 -3.488965E-11
       396  17  9.338554E+05  4.107506E+04  3.649484E+04 -2.369525E+04  1.443386E-10 -1.142273E-10
       396  18  8.863738E+05  2.959612E+04  2.660545E+04 -3.263317E+04 -2.922647E-10 -1.001435E-10
       396  19  5.474646E+05 -5.258551E+04 -4.568508E+04 -3.260494E+04 -3.015014E+03 -1.233382E+04
       396  20  5.949348E+05 -4.109415E+04 -3.572127E+04 -2.366673E+04 -2.821869E+03 -9.478929E+03
       396  21  6.424407E+05 -2.959552E+04 -2.562856E+04 -3.257494E+04 -2.628142E+03 -6.625902E+03
       396  22  7.643954E+05 -1.101619E+01  4.140196E+02 -3.260406E+04 -1.344789E+02 -1.233367E+04
       396  23  7.643816E+05 -8.567176E+00  3.876902E+02 -2.368100E+04  5.696314E+01 -9.479043E+03
       396  24  7.644003E+05  8.081826E-01  4.889142E+02 -3.260406E+04  2.489731E+02 -6.626281E+03
       396  25  9.813706E+05  5.256043E+04  4.651046E+04 -3.260318E+04  2.747047E+03 -1.233353E+04
       396  26  9.338554E+05  4.107516E+04  3.649503E+04 -2.369527E+04  2.936569E+03 -9.479158E+03
       396  27  8.863738E+05  2.959617E+04  2.660555E+04 -3.263319E+04  3.126645E+03 -6.626661E+03
       397   1  6.791603E+05 -2.064087E+04 -1.744310E+04 -3.256603E+04  2.527553E+03  4.966681E+03
       397   2  7.265186E+05 -9.187892E+03 -7.119348E+03 -2.364352E+04  2.057025E+03  2.117842E+03
       397   3  7.739397E+05  2.285483E+03  3.513969E+03 -3.252745E+04  1.586335E+03 -7.291867E+02
       397   4  7.644081E+05  1.963326E+00  5.919603E+02 -3.259523E+04 -3.474921E+02  4.967158E+03
       397   5  7.643783E+05 -8.849038E+00  9.475971E+02 -2.369204E+04 -8.163162E+02  2.118372E+03
       397   6  7.644090E+05  5.668811E-01  1.611677E+03 -3.259522E+04 -1.285266E+03 -7.285940E+02
       397   7  8.496627E+05  2.064434E+04  1.862664E+04 -3.262444E+04 -3.222926E+03  4.967635E+03
       397   8  8.022394E+05  9.170105E+03  9.014490E+03 -2.374056E+04 -3.689830E+03  2.118904E+03
       397   9  7.548784E+05 -2.284351E+03 -2.905899E+02 -3.266299E+04 -4.156825E+03 -7.280006E+02
       397  10  6.791603E+05 -2.064090E+04 -1.744316E+04 -3.256604E+04  7.188140E-12 -8.261859E-11
       397  11  7.265186E+05 -9.187898E+03 -7.119364E+03 -2.364352E+04 -7.523879E-11 -5.878369E-11
       397  12  7.739397E+05  2.285482E+03  3.513964E+03 -3.252745E+04  1.698260E-12 -5.173892E-11
       397  13  7.644081E+05  1.936790E+00  5.919137E+02 -3.259523E+04 -2.215468E-10  1.024654E-10
       397  14  7.643783E+05 -8.854037E+00  9.475874E+02 -2.369203E+04 -2.252248E-11 -1.745084E-10
       397  15  7.644090E+05  5.658680E-01  1.611673E+03 -3.259522E+04 -3.261507E-10  2.449332E-11
       397  16  8.496627E+05  2.064431E+04  1.862657E+04 -3.262442E+04  1.576274E-11 -8.317339E-11
       397  17  8.022394E+05  9.170097E+03  9.014456E+03 -2.374055E+04 -3.362377E-11 -3.719635E-11
       397  18  7.548784E+05 -2.284356E+03 -2.906233E+02 -3.266299E+04 -1.320450E-10 -7.548478E-11
       397  19  6.791603E+05 -2.064087E+04 -1.744310E+04 -3.256603E+04 -2.527553E+03 -4.966681E+03
       397  20  7.265186E+05 -9.187892E+03 -7.119348E+03 -2.364352E+04 -2.057025E+03 -2.117842E+03
       397  21  7.739397E+05  2.285483E+03  3.513969E+03 -3.252745E+04 -1.586335E+03  7.291867E+02
       397  22  7.644081E+05  1.963326E+00  5.919603E+02 -3.259523E+04  3.474921E+02 -4.967158E+03
       397  23  7.643783E+05 -8.849038E+00  9.475971E+02 -2.369204E+04  8.163162E+02 -2.118372E+03
       397  24  7.644090E+05  5.668811E-01  1.611677E+03 -3.259522E+04  1.285266E+03  7.285940E+02
       397  25  8.496627E+05  2.064434E+04  1.862664E+04 -3.262444E+04  3.222926E+03 -4.967635E+03
       397  26  8.022394E+05  9.170105E+03  9.014490E+03 -2.374056E+04  3.689830E+03 -2.118904E+03
       397  27  7.548784E+05 -2.284351E+03 -2.905899E+02 -3.266299E+04  4.156825E+03  7.280006E+02
       398   1  8.106799E+05  1.121241E+04  1.208830E+04 -3.248702E+04  1.256461E+03 -2.388394E+03
       398   2  8.579486E+05  2.265207E+04  2.360858E+04 -2.356153E+04 -5.758635E+02 -5.230271E+03
       398   3  9.055213E+05  3.435926E+04  3.638626E+04 -3.245210E+04 -2.407989E+03 -8.050593E+03
       398   4  7.644615E+05 -1.848957E+01  2.111145E+03 -3.259742E+04 -1.622174E+03 -2.387826E+03
       398   5  7.643102E+05 -4.962130E+01  3.652858E+03 -2.368927E+04 -3.432569E+03 -5.229855E+03
       398   6  7.644579E+05  1.833591E+02  6.437211E+03 -3.259735E+04 -5.242630E+03 -8.050318E+03
       398   7  7.182451E+05 -1.124952E+04 -7.866106E+03 -3.270781E+04 -4.500598E+03 -2.387257E+03
       398   8  6.706801E+05 -2.275187E+04 -1.630334E+04 -2.381700E+04 -6.288851E+03 -5.229437E+03
       398   9  6.234132E+05 -3.399382E+04 -2.351294E+04 -3.274258E+04 -8.076637E+03 -8.050042E+03
       398  10  8.106799E+05  1.121240E+04  1.208829E+04 -3.248702E+04 -7.157123E-11 -8.635258E-11
       398  11  8.579486E+05  2.265204E+04  2.360853E+04 -2.356153E+04 -7.458599E-11 -9.800467E-12
       398  12  9.055213E+05  3.435919E+04  3.638613E+04 -3.245211E+04  2.430019E-10 -1.173989E-10
       398  13  7.644615E+05 -1.849640E+01  2.111129E+03 -3.259742E+04 -1.352936E-10 -1.551589E-10
       398  14  7.643102E+05 -4.965384E+01  3.652784E+03 -2.368929E+04  6.669559E-11 -6.881907E-11
       398  15  7.644578E+05  1.832821E+02  6.437038E+03 -3.259739E+04 -2.226798E-12 -3.270237E-11
       398  16  7.182450E+05 -1.124953E+04 -7.866154E+03 -3.270782E+04  4.289935E-11  1.451757E-11
       398  17  6.706800E+05 -2.275191E+04 -1.630347E+04 -2.381703E+04  1.194447E-10 -1.391483E-11
       398  18  6.234131E+05 -3.399391E+04 -2.351319E+04 -3.274263E+04 -1.680058E-10 -3.469678E-11
       398  19  8.106799E+05  1.121241E+04  1.208830E+04 -3.248702E+04 -1.256461E+03  2.388394E+03
       398  20  8.579486E+05  2.265207E+04  2.360858E+04 -2.356153E+04  5.758635E+02  5.230271E+03
       398  21  9.055213E+05  3.435926E+04  3.638626E+04 -3.245210E+04  2.407989E+03  8.050593E+03
       398  22  7.644615E+05 -1.848957E+01  2.111145E+03 -3.259742E+04  1.622174E+03  2.387826E+03
       398  23  7.643102E+05 -4.962130E+01  3.652858E+03 -2.368927E+04  3.432569E+03  5.229855E+03
       398  24  7.644579E+05  1.833591E+02  6.437211E+03 -3.259735E+04  5.242630E+03  8.050318E+03
       398  25  7.182451E+05 -1.124952E+04 -7.866106E+03 -3.270781E+04  4.500598E+03  2.387257E+03
       398  26  6.706801E+05 -2.275187E+04 -1.630334E+04 -2.381700E+04  6.288851E+03  5.229437E+03
       398  27  6.234132E+05 -3.399382E+04 -2.351294E+04 -3.274258E+04  8.076637E+03  8.050042E+03
       399   1  9.427191E+05  4.284528E+04  4.644404E+04 -3.160086E+04 -3.577936E+03 -9.746853E+03
       399   2  9.891596E+05  5.460110E+04  6.275302E+04 -2.404801E+04 -1.141230E+04 -1.244752E+04
       399   3  1.037889E+06  7.137247E+04  8.541356E+04 -3.434467E+04 -1.924675E+04 -1.465008E+04
       399   4  7.648779E+05 -2.925326E+02  8.423557E+03 -3.260485E+04 -6.554105E+03 -9.746708E+03
       399   5  7.637723E+05 -5.607413E+01  1.463161E+04 -2.367984E+04 -1.388347E+04 -1.244776E+04
       399   6  7.648668E+05  5.109554E+03  2.684261E+04 -3.260461E+04 -2.121233E+04 -1.465065E+04
       399   7  5.870666E+05 -4.343239E+04 -2.959872E+04 -3.360855E+04 -9.529435E+03 -9.746552E+03
       399   8  5.384327E+05 -5.471655E+04 -3.349271E+04 -2.331180E+04 -1.635375E+04 -1.244800E+04
       399   9  4.919141E+05 -6.115823E+04 -3.173267E+04 -3.086532E+04 -2.317706E+04 -1.465124E+04
       399  10  9.427190E+05  4.284517E+04  4.644383E+04 -3.160088E+04 -1.583624E-10 -1.603370E-10
       399  11  9.891594E+05  5.460090E+04  6.275249E+04 -2.404812E+04 -1.645470E-10 -1.504071E-11
       399  12  1.037889E+06  7.137214E+04  8.541246E+04 -3.434489E+04 -1.246294E-10 -2.136564E-11
       399  13  7.648779E+05 -2.926462E+02  8.423298E+03 -3.260490E+04 -1.011498E-10 -4.999800E-11
       399  14  7.637720E+05 -5.629225E+01  1.463096E+04 -2.367998E+04  1.921395E-10 -9.637031E-11
       399  15  7.648662E+05  5.109203E+03  2.684136E+04 -3.260486E+04  2.069085E-11  6.284129E-11
       399  16  5.870665E+05 -4.343252E+04 -2.959907E+04 -3.360863E+04  5.310734E-11 -1.267165E-10
       399  17  5.384324E+05 -5.471679E+04 -3.349350E+04 -2.331196E+04 -1.397423E-10 -3.338507E-12
       399  18  4.919135E+05 -6.115860E+04 -3.173408E+04 -3.086559E+04  1.929939E-10  4.078241E-11
       399  19  9.427191E+05  4.284528E+04  4.644404E+04 -3.160086E+04  3.577936E+03  9.746853E+03
       399  20  9.891596E+05  5.460110E+04  6.275302E+04 -2.404801E+04  1.141230E+04  1.244752E+04
       399  21  1.037889E+06  7.137247E+04  8.541356E+04 -3.434467E+04  1.924675E+04  1.465008E+04
       399  22  7.648779E+05 -2.925326E+02  8.423557E+03 -3.260485E+04  6.554105E+03  9.746708E+03
       399  23  7.637723E+05 -5.607413E+01  1.463161E+04 -2.367984E+04  1.388347E+04  1.244776E+04
       399  24  7.648668E+05  5.109554E+03  2.684261E+04 -3.260461E+04  2.121233E+04  1.465065E+04
       399  25  5.870666E+05 -4.343239E+04 -2.959872E+04 -3.360855E+04  9.529435E+03  9.746552E+03
       399  26  5.384327E+05 -5.471655E+04 -3.349271E+04 -2.331180E+04  1.635375E+04  1.244800E+04
       399  27  4.919141E+05 -6.115823E+04 -3.173267E+04 -3.086532E+04  2.317706E+04  1.465124E+04
       400   1  1.080880E+06  7.057446E+04  1.002561E+05 -1.770229E+04 -2.100608E+04 -1.708354E+04
       400   2  1.113838E+06  9.021934E+04  1.369475E+05 -4.335596E+04 -6.283802E+04 -1.660243E+04
       400   3  1.176814E+06  2.080422E+05  2.253946E+05 -8.649156E+04 -1.046774E+05 -5.331813E+03
       400   4  7.706334E+05 -4.667114E+03  3.398674E+04 -3.251646E+04 -2.595225E+04 -1.708403E+04
       400   5  7.565373E+05  3.175705E+03  5.860982E+04 -2.378870E+04 -5.688203E+04 -1.660401E+04
       400   6  7.705825E+05  1.073326E+05  1.274429E+05 -3.253969E+04 -8.781524E+04 -5.336320E+03
       400   7  4.604782E+05 -7.991413E+04 -3.228800E+04 -4.732314E+04 -3.089599E+04 -1.708428E+04
       400   8  3.993569E+05 -8.387499E+04 -1.973528E+04 -4.232823E+03 -5.092941E+04 -1.660521E+04
       400   9  3.645087E+05  6.622056E+03  2.948196E+04  2.137681E+04 -7.096405E+04 -5.337906E+03
       400  10  1.080879E+06  7.057403E+04  1.002547E+05 -1.770258E+04  2.961011E-11 -7.261755E-11
       400  11  1.113834E+06  9.021799E+04  1.369396E+05 -4.335680E+04 -3.330091E-10 -2.099243E-10
       400  12  1.176802E+06  2.080392E+05  2.253740E+05 -8.649201E+04 -2.600891E-11 -1.084245E-10
       400  13  7.706326E+05 -4.667609E+03  3.398493E+04 -3.251682E+04  1.806822E-11 -6.319169E-11
       400  14  7.565338E+05  3.174541E+03  5.860322E+04 -2.378946E+04  1.046698E-10 -3.827302E-11
       400  15  7.705742E+05  1.073305E+05  1.274283E+05 -3.254007E+04  3.377011E-10 -5.790951E-11
       400  16  4.604771E+05 -7.991470E+04 -3.229034E+04 -4.732357E+04 -2.543891E-11  3.252268E-11
       400  17  3.993541E+05 -8.387599E+04 -1.974067E+04 -4.233504E+03  2.847036E-10 -4.260631E-11
       400  18  3.645033E+05  6.620674E+03  2.947245E+04  2.137651E+04  2.828947E-10 -3.206462E-11
       400  19  1.080880E+06  7.057446E+04  1.002561E+05 -1.770229E+04  2.100608E+04  1.708354E+04
       400  20  1.113838E+06  9.021934E+04  1.369475E+05 -4.335596E+04  6.283802E+04  1.660243E+04
       400  21  1.176814E+06  2.080422E+05  2.253946E+05 -8.649156E+04  1.046774E+05  5.331813E+03
       400  22  7.706334E+05 -4.667114E+03  3.398674E+04 -3.251646E+04  2.595225E+04  1.708403E+04
       400  23  7.565373E+05  3.175705E+03  5.860982E+04 -2.378870E+04  5.688203E+04  1.660401E+04
       400  24  7.705825E+05  1.073326E+05  1.274429E+05 -3.253969E+04  8.781524E+04  5.336320E+03
       400  25  4.604782E+05 -7.991413E+04 -3.228800E+04 -4.732314E+04  3.089599E+04  1.708428E+04
       400  26  3.993569E+05 -8.387499E+04 -1.973528E+04 -4.232823E+03  5.092941E+04  1.660521E+04
       400  27  3.645087E+05  6.622056E+03  2.948196E+04  2.137681E+04  7.096405E+04  5.337906E+03
       401   1 -2.577585E+05 -1.036781E+05 -1.003083E+05 -2.590917E+04 -1.653634E+04  5.689934E+03
       401   2 -2.176512E+05 -9.381234E+04 -8.333636E+04 -1.937356E+04 -5.784959E+03  1.802790E+04
       401   3 -1.789531E+05 -8.418452E+04 -7.341686E+04 -2.705779E+04  4.970856E+03  1.915339E+04
       401   4  1.673963E+05  1.869945E+03  2.250012E+03 -2.677584E+04  1.543646E+03  5.695009E+03
       401   5  1.671249E+05  1.962495E+01  1.030395E+03 -1.966592E+04  9.973535E+02  1.802832E+04
       401   6  1.674054E+05 -1.068223E+02  6.053442E+02 -2.677543E+04  4.549330E+02  1.915232E+04
       401   7  5.927172E+05  1.074050E+05  1.047966E+05 -2.764311E+04  1.963597E+04  5.700032E+03
       401   8  5.520398E+05  9.384172E+04  8.538833E+04 -1.995846E+04  7.783818E+03  1.802874E+04
       401   9  5.138769E+05  8.396306E+04  7.462068E+04 -2.649292E+04 -4.063473E+03  1.915124E+04
       401  10 -2.577588E+05 -1.036782E+05 -1.003089E+05 -2.590910E+04  1.522030E-10  5.312027E-11
       401  11 -2.176514E+05 -9.381270E+04 -8.333704E+04 -1.937348E+04 -3.486537E-11 -3.785284E-11
       401  12 -1.789532E+05 -8.418493E+04 -7.341759E+04 -2.705786E+04 -2.197296E-10  6.129507E-13
       401  13  1.673963E+05  1.869910E+03  2.249947E+03 -2.677584E+04  1.640568E-10  2.111109E-11
       401  14  1.671248E+05  1.927564E+01  1.029782E+03 -1.966593E+04  1.415674E-10  1.465632E-10
       401  15  1.674053E+05 -1.072163E+02  6.046544E+02 -2.677544E+04 -4.402544E-11  7.609040E-11
       401  16  5.927167E+05  1.074048E+05  1.047959E+05 -2.764320E+04 -1.964493E-10 -4.246727E-11
       401  17  5.520396E+05  9.384135E+04  8.538760E+04 -1.995857E+04 -3.005515E-10 -5.687750E-11
       401  18  5.138767E+05  8.396266E+04  7.461996E+04 -2.649286E+04  1.500250E-10  5.090575E-11
       401  19 -2.577585E+05 -1.036781E+05 -1.003083E+05 -2.590917E+04  1.653634E+04 -5.689934E+03
       401  20 -2.176512E+05 -9.381234E+04 -8.333636E+04 -1.937356E+04  5.784959E+03 -1.802790E+04
       401  21 -1.789531E+05 -8.418452E+04 -7.341686E+04 -2.705779E+04 -4.970856E+03 -1.915339E+04
       401  22  1.673963E+05  1.869945E+03  2.250012E+03 -2.677584E+04 -1.543646E+03 -5.695009E+03
       401  23  1.671249E+05  1.962495E+01  1.030395E+03 -1.966592E+04 -9.973535E+02 -1.802832E+04
       401  24  1.674054E+05 -1.068223E+02  6.053442E+02 -2.677543E+04 -4.549330E+02 -1.915232E+04
       401  25  5.927172E+05  1.074050E+05  1.047966E+05 -2.764311E+04 -1.963597E+04 -5.700032E+03
       401  26  5.520398E+05  9.384172E+04  8.538833E+04 -1.995846E+04 -7.783818E+03 -1.802874E+04
       401  27  5.138769E+05  8.396306E+04  7.462068E+04 -2.649292E+04  4.063473E+03 -1.915124E+04
       402   1 -1.483569E+05 -7.661493E+04 -6.728846E+04 -2.686116E+04  1.796358E+03  1.698478E+04
       402   2 -1.091154E+05 -6.710072E+04 -5.878143E+04 -1.950734E+04  2.188000E+03  1.530885E+04
       402   3 -6.990169E+04 -5.758514E+04 -5.052404E+04 -2.687671E+04  2.578977E+03  1.311189E+04
       402   4  1.673008E+05  7.050975E+01  4.799282E+02 -2.688738E+04  3.700414E+02  1.698413E+04
       402   5  1.672734E+05 -1.423684E+01  2.677907E+02 -1.952599E+04  2.365020E+02  1.530848E+04
       402   6  1.673074E+05 -6.500109E+00  1.706122E+02 -2.688739E+04  1.022655E+02  1.311192E+04
       402   7  4.830522E+05  7.674942E+04  6.824251E+04 -2.691362E+04 -1.056990E+03  1.698348E+04
       402   8  4.437341E+05  6.706726E+04  5.931260E+04 -1.954465E+04 -1.715853E+03  1.530811E+04
       402   9  4.045694E+05  5.756847E+04  5.086203E+04 -2.689807E+04 -2.375379E+03  1.311196E+04
       402  10 -1.483570E+05 -7.661524E+04 -6.728901E+04 -2.686119E+04 -1.182585E-10  7.268660E-11
       402  11 -1.091155E+05 -6.710097E+04 -5.878188E+04 -1.950737E+04 -3.493327E-10  1.716289E-10
       402  12 -6.990174E+04 -5.758533E+04 -5.052437E+04 -2.687674E+04 -7.704064E-10  7.319417E-10
       402  13  1.673007E+05  7.019993E+01  4.793858E+02 -2.688739E+04 -2.768473E-10 -2.876489E-12
       402  14  1.672733E+05 -1.448853E+01  2.673501E+02 -1.952600E+04  2.714777E-10  4.569491E-11
       402  15  1.673073E+05 -6.684741E+00  1.702891E+02 -2.688739E+04 -1.033487E-10  5.262776E-10
       402  16  4.830521E+05  7.674911E+04  6.824196E+04 -2.691361E+04  1.098703E-10 -1.986762E-11
       402  17  4.437341E+05  6.706701E+04  5.931216E+04 -1.954463E+04  2.921915E-10  1.175194E-10
       402  18  4.045693E+05  5.756829E+04  5.086169E+04 -2.689804E+04  7.900360E-10  7.296413E-10
       402  19 -1.483569E+05 -7.661493E+04 -6.728846E+04 -2.686116E+04 -1.796358E+03 -1.698478E+04
       402  20 -1.091154E+05 -6.710072E+04 -5.878143E+04 -1.950734E+04 -2.188000E+03 -1.530885E+04
       402  21 -6.990169E+04 -5.758514E+04 -5.052404E+04 -2.687671E+04 -2.578977E+03 -1.311189E+04
       402  22  1.673008E+05  7.050975E+01  4.799282E+02 -2.688738E+04 -3.700414E+02 -1.698413E+04
       402  23  1.672734E+05 -1.423684E+01  2.677907E+02 -1.952599E+04 -2.365020E+02 -1.530848E+04
       402  24  1.673074E+05 -6.500109E+00  1.706122E+02 -2.688739E+04 -1.022655E+02 -1.311192E+04
       402  25  4.830522E+05  7.674942E+04  6.824251E+04 -2.691362E+04  1.056990E+03 -1.698348E+04
       402  26  4.437341E+05  6.706726E+04  5.931260E+04 -1.954465E+04  1.715853E+03 -1.530811E+04
       402  27  4.045694E+05  5.756847E+04  5.086203E+04 -2.689807E+04  2.375379E+03 -1.311196E+04
       403   1 -3.953984E+04 -5.016685E+04 -4.388494E+04 -2.686132E+04  2.406397E+03  1.170252E+04
       403   2 -3.660179E+02 -4.067950E+04 -3.564529E+04 -1.949576E+04  2.374442E+03  9.377119E+03
       403   3  3.881590E+04 -3.118456E+04 -2.738287E+04 -2.685756E+04  2.342021E+03  7.028146E+03
       403   4  1.672991E+05  3.618455E+00  1.414212E+02 -2.688835E+04  7.440851E+01  1.170270E+04
       403   5  1.672957E+05  1.484307E+00  1.123801E+02 -1.952479E+04  1.861132E+01  9.377513E+03
       403   6  1.673030E+05  1.116091E+01  1.226826E+02 -2.688835E+04 -3.764988E+01  7.028762E+03
       403   7  3.741783E+05  5.017131E+04  4.416535E+04 -2.691539E+04 -2.258345E+03  1.170288E+04
       403   8  3.349838E+05  4.068064E+04  3.586845E+04 -1.955383E+04 -2.337846E+03  9.377908E+03
       403   9  2.958057E+05  3.120581E+04  2.762729E+04 -2.691914E+04 -2.417806E+03  7.029379E+03
       403  10 -3.953989E+04 -5.016700E+04 -4.388521E+04 -2.686134E+04  3.063139E-09  7.370081E-10
       403  11 -3.660476E+02 -4.067960E+04 -3.564546E+04 -1.949578E+04 -7.158634E-09 -2.216151E-10
       403  12  3.881588E+04 -3.118462E+04 -2.738297E+04 -2.685758E+04 -1.477383E-08 -1.777473E-09
       403  13  1.672990E+05  3.471378E+00  1.411638E+02 -2.688835E+04  4.814485E-11  6.975089E-10
       403  14  1.672956E+05  1.389870E+00  1.122148E+02 -1.952479E+04 -1.379852E-10 -4.435134E-10
       403  15  1.673030E+05  1.110785E+01  1.225898E+02 -2.688835E+04 -7.884525E-10 -1.441144E-09
       403  16  3.741782E+05  5.017116E+04  4.416508E+04 -2.691537E+04 -3.005987E-09  8.245734E-10
       403  17  3.349838E+05  4.068055E+04  3.586827E+04 -1.955381E+04  7.074536E-09 -2.316723E-10
       403  18  2.958057E+05  3.120575E+04  2.762719E+04 -2.691913E+04  1.441557E-08 -1.736116E-09
       403  19 -3.953984E+04 -5.016685E+04 -4.388494E+04 -2.686132E+04 -2.406397E+03 -1.170252E+04
       403  20 -3.660179E+02 -4.067950E+04 -3.564529E+04 -1.949576E+04 -2.374442E+03 -9.377119E+03
       403  21  3.881590E+04 -3.118456E+04 -2.738287E+04 -2.685756E+04 -2.342021E+03 -7.028146E+03
       403  22  1.672991E+05  3.618455E+00  1.414212E+02 -2.688835E+04 -7.440851E+01 -1.170270E+04
       403  23  1.672957E+05  1.484307E+00  1.123801E+02 -1.952479E+04 -1.861132E+01 -9.377513E+03
       403  24  1.673030E+05  1.116091E+01  1.226826E+02 -2.688835E+04  3.764988E+01 -7.028762E+03
       403  25  3.741783E+05  5.017131E+04  4.416535E+04 -2.691539E+04  2.258345E+03 -1.170288E+04
       403  26  3.349838E+05  4.068064E+04  3.586845E+04 -1.955383E+04  2.337846E+03 -9.377908E+03
       403  27  2.958057E+05  3.120581E+04  2.762729E+04 -2.691914E+04  2.417806E+03 -7.029379E+03
       404   1  6.914755E+04 -2.378092E+04 -2.068356E+04 -2.686058E+04  2.310592E+03  5.655362E+03
       404   2  1.082997E+05 -1.430669E+04 -1.236956E+04 -1.950352E+04  2.206383E+03  3.301481E+03
       404   3  1.474589E+05 -4.822988E+03 -3.987970E+03 -2.686495E+04  2.102006E+03  9.467708E+02
       404   4  1.673036E+05  1.257507E+01  1.404498E+02 -2.688641E+04 -6.198722E+01  5.656065E+03
       404   5  1.673011E+05  8.003459E+00  2.114475E+02 -1.952721E+04 -1.670907E+02  3.302257E+03
       404   6  1.673049E+05  1.329727E+01  3.508412E+02 -2.688641E+04 -2.723551E+02  9.476250E+02
       404   7  2.654686E+05  2.380545E+04  2.096393E+04 -2.691226E+04 -2.434936E+03  5.656769E+03
       404   8  2.263057E+05  1.432247E+04  1.279227E+04 -1.955090E+04 -2.540786E+03  3.303033E+03
       404   9  1.871513E+05  4.849559E+03  4.689649E+03 -2.690787E+04 -2.646791E+03  9.484793E+02
       404  10  6.914754E+04 -2.378095E+04 -2.068363E+04 -2.686059E+04  1.477414E-08 -1.637778E-09
       404  11  1.082997E+05 -1.430670E+04 -1.236959E+04 -1.950352E+04  7.203979E-09 -2.621851E-10
       404  12  1.474589E+05 -4.822990E+03 -3.987980E+03 -2.686496E+04 -3.027520E-09  6.446136E-10
       404  13  1.673035E+05  1.254072E+01  1.403897E+02 -2.688641E+04 -3.882384E-10 -1.840381E-09
       404  14  1.673011E+05  7.991741E+00  2.114269E+02 -1.952721E+04 -1.797881E-11 -2.909523E-10
       404  15  1.673049E+05  1.329629E+01  3.508393E+02 -2.688641E+04 -2.616446E-10  5.535538E-10
       404  16  2.654686E+05  2.380541E+04  2.096386E+04 -2.691225E+04 -1.483512E-08 -1.582416E-09
       404  17  2.263057E+05  1.432246E+04  1.279224E+04 -1.955090E+04 -7.155062E-09 -1.588725E-10
       404  18  1.871513E+05  4.849556E+03  4.689635E+03 -2.690787E+04  3.013892E-09  5.362843E-10
       404  19  6.914755E+04 -2.378092E+04 -2.068356E+04 -2.686058E+04 -2.310592E+03 -5.655362E+03
       404  20  1.082997E+05 -1.430669E+04 -1.236956E+04 -1.950352E+04 -2.206383E+03 -3.301481E+03
       404  21  1.474589E+05 -4.822988E+03 -3.987970E+03 -2.686495E+04 -2.102006E+03 -9.467708E+02
       404  22  1.673036E+05  1.257507E+01  1.404498E+02 -2.688641E+04  6.198722E+01 -5.656065E+03
       404  23  1.673011E+05  8.003459E+00  2.114475E+02 -1.952721E+04  1.670907E+02 -3.302257E+03
       404  24  1.673049E+05  1.329727E+01  3.508412E+02 -2.688641E+04  2.723551E+02 -9.476250E+02
       404  25  2.654686E+05  2.380545E+04  2.096393E+04 -2.691226E+04  2.434936E+03 -5.656769E+03
       404  26  2.263057E+05  1.432247E+04  1.279227E+04 -1.955090E+04  2.540786E+03 -3.303033E+03
       404  27  1.871513E+05  4.849559E+03  4.689649E+03 -2.690787E+04  2.646791E+03 -9.484793E+02
       405   1  1.777923E+05  2.577208E+03  2.799088E+03 -2.687033E+04  2.028078E+03 -4.239057E+02
       405   2  2.169256E+05  1.203996E+04  1.137129E+04 -1.949974E+04  1.636967E+03 -2.778347E+03
       405   3  2.561071E+05  2.152498E+04  2.020104E+04 -2.684719E+04  1.245963E+03 -5.131934E+03
       405   4  1.673138E+05  1.364280E+01  4.576705E+02 -2.688635E+04 -3.463095E+02 -4.230478E+02
       405   5  1.672902E+05 -1.573887E+00  7.880779E+02 -1.952729E+04 -7.366158E+02 -2.777555E+03
       405   6  1.673126E+05  5.277784E+00  1.375373E+03 -2.688634E+04 -1.126791E+03 -5.131203E+03
       405   7  1.568354E+05 -2.549926E+03 -1.883733E+03 -2.690236E+04 -2.720657E+03 -4.221898E+02
       405   8  1.176571E+05 -1.204327E+04 -9.795260E+03 -1.955484E+04 -3.110011E+03 -2.776763E+03
       405   9  7.852561E+04 -2.151493E+04 -1.745072E+04 -2.692549E+04 -3.499211E+03 -5.130472E+03
       405  10  1.777923E+05  2.577206E+03  2.799080E+03 -2.687033E+04  9.376171E-10  7.788905E-10
       405  11  2.169256E+05  1.203995E+04  1.137128E+04 -1.949974E+04  5.220162E-10  3.651393E-10
       405  12  2.561070E+05  2.152495E+04  2.020099E+04 -2.684718E+04  2.525554E-10 -4.044684E-10
       405  13  1.673138E+05  1.364257E+01  4.576699E+02 -2.688635E+04 -3.016602E-10  6.159784E-10
       405  14  1.672902E+05 -1.582318E+00  7.880623E+02 -1.952729E+04  2.071249E-10  4.204568E-10
       405  15  1.673126E+05  5.249168E+00  1.375321E+03 -2.688635E+04 -6.644842E-10 -1.220913E-10
       405  16  1.568354E+05 -2.549929E+03 -1.883747E+03 -2.690236E+04 -9.411478E-10  6.532181E-10
       405  17  1.176571E+05 -1.204328E+04 -9.795293E+03 -1.955485E+04 -4.922383E-10  5.412343E-10
       405  18  7.852559E+04 -2.151496E+04 -1.745080E+04 -2.692551E+04 -2.484436E-10 -2.209222E-10
       405  19  1.777923E+05  2.577208E+03  2.799088E+03 -2.687033E+04 -2.028078E+03  4.239057E+02
       405  20  2.169256E+05  1.203996E+04  1.137129E+04 -1.949974E+04 -1.636967E+03  2.778347E+03
       405  21  2.561071E+05  2.152498E+04  2.020104E+04 -2.684719E+04 -1.245963E+03  5.131934E+03
       405  22  1.673138E+05  1.364280E+01  4.576705E+02 -2.688635E+04  3.463095E+02  4.230478E+02
       405  23  1.672902E+05 -1.573887E+00  7.880779E+02 -1.952729E+04  7.366158E+02  2.777555E+03
       405  24  1.673126E+05  5.277784E+00  1.375373E+03 -2.688634E+04  1.126791E+03  5.131203E+03
       405  25  1.568354E+05 -2.549926E+03 -1.883733E+03 -2.690236E+04  2.720657E+03  4.221898E+02
       405  26  1.176571E+05 -1.204327E+04 -9.795260E+03 -1.955484E+04  3.110011E+03  2.776763E+03
       405  27  7.852561E+04 -2.151493E+04 -1.745072E+04 -2.692549E+04  3.499211E+03  5.130472E+03
       406   1  2.864891E+05  2.890940E+04  2.731843E+04 -2.681334E+04  9.645462E+02 -6.504369E+03
       406   2  3.255389E+05  3.836203E+04  3.690770E+04 -1.943421E+04 -6.203361E+02 -8.852533E+03
       406   3  3.648547E+05  4.805111E+04  4.758695E+04 -2.678085E+04 -2.204881E+03 -1.117766E+04
       406   4  1.673589E+05 -1.169190E+01  1.811949E+03 -2.688811E+04 -1.415185E+03 -6.503717E+03
       406   5  1.672266E+05 -4.283782E+01  3.150519E+03 -1.952508E+04 -2.976536E+03 -8.852091E+03
       406   6  1.673550E+05  1.585429E+02  5.563014E+03 -2.688804E+04 -4.537453E+03 -1.117742E+04
       406   7  4.824206E+04 -2.893370E+04 -2.369533E+04 -2.696287E+04 -3.794466E+03 -6.503065E+03
       406   8  8.938002E+03 -3.844933E+04 -3.060809E+04 -1.961592E+04 -5.332145E+03 -8.851649E+03
       406   9 -3.010798E+04 -4.773656E+04 -3.646314E+04 -2.699520E+04 -6.869295E+03 -1.117718E+04
       406  10  2.864891E+05  2.890935E+04  2.731835E+04 -2.681334E+04 -9.442578E-11 -2.846297E-11
       406  11  3.255389E+05  3.836195E+04  3.690755E+04 -1.943422E+04 -5.573872E-11  1.471517E-11
       406  12  3.648546E+05  4.805097E+04  4.758671E+04 -2.678087E+04 -1.557920E-10  5.766215E-11
       406  13  1.673589E+05 -1.173786E+01  1.811865E+03 -2.688812E+04 -2.954098E-10  8.125848E-12
       406  14  1.672266E+05 -4.292435E+01  3.150355E+03 -1.952510E+04  1.561614E-10 -8.315973E-11
       406  15  1.673549E+05  1.584032E+02  5.562740E+03 -2.688808E+04  1.203260E-11 -5.675994E-11
       406  16  4.824204E+04 -2.893375E+04 -2.369544E+04 -2.696289E+04  6.885732E-11  1.061004E-10
       406  17  8.937951E+03 -3.844943E+04 -3.060829E+04 -1.961596E+04 -1.113457E-10  7.886764E-11
       406  18 -3.010806E+04 -4.773670E+04 -3.646347E+04 -2.699526E+04 -7.455546E-11  1.422494E-10
       406  19  2.864891E+05  2.890940E+04  2.731843E+04 -2.681334E+04 -9.645462E+02  6.504369E+03
       406  20  3.255389E+05  3.836203E+04  3.690770E+04 -1.943421E+04  6.203361E+02  8.852533E+03
       406  21  3.648547E+05  4.805111E+04  4.758695E+04 -2.678085E+04  2.204881E+03  1.117766E+04
       406  22  1.673589E+05 -1.169190E+01  1.811949E+03 -2.688811E+04  1.415185E+03  6.503717E+03
       406  23  1.672266E+05 -4.283782E+01  3.150519E+03 -1.952508E+04  2.976536E+03  8.852091E+03
       406  24  1.673550E+05  1.585429E+02  5.563014E+03 -2.688804E+04  4.537453E+03  1.117742E+04
       406  25  4.824206E+04 -2.893370E+04 -2.369533E+04 -2.696287E+04  3.794466E+03  6.503065E+03
       406  26  8.938002E+03 -3.844933E+04 -3.060809E+04 -1.961592E+04  5.332145E+03  8.851649E+03
       406  27 -3.010798E+04 -4.773656E+04 -3.646314E+04 -2.699520E+04  6.869295E+03  1.117718E+04
       407   1  3.955978E+05  5.504495E+04  5.597369E+04 -2.603543E+04 -3.196398E+03 -1.258567E+04
       407   2  4.338321E+05  6.475207E+04  6.969569E+04 -1.985713E+04 -1.005006E+04 -1.478459E+04
       407   3  4.740671E+05  7.881855E+04  8.897123E+04 -2.839998E+04 -1.690342E+04 -1.647450E+04
       407   4  1.677190E+05 -2.538678E+02  7.282589E+03 -2.688716E+04 -5.670387E+03 -1.258556E+04
       407   5  1.667598E+05 -5.223303E+01  1.265436E+04 -1.952619E+04 -1.200825E+04 -1.478489E+04
       407   6  1.677119E+05  4.420724E+03  2.322359E+04 -2.688670E+04 -1.834538E+04 -1.647512E+04
       407   7 -6.011082E+04 -5.555607E+04 -4.141149E+04 -2.773856E+04 -8.143481E+03 -1.258546E+04
       407   8 -1.002455E+05 -6.486118E+04 -4.439108E+04 -1.919539E+04 -1.396560E+04 -1.478519E+04
       407   9 -1.385550E+05 -6.998324E+04 -4.252953E+04 -2.537418E+04 -1.978664E+04 -1.647575E+04
       407  10  3.955977E+05  5.504478E+04  5.597337E+04 -2.603546E+04  2.659844E-11  1.690949E-11
       407  11  4.338319E+05  6.475181E+04  6.969509E+04 -1.985725E+04  1.635964E-10 -7.307911E-11
       407  12  4.740667E+05  7.881818E+04  8.897018E+04 -2.840020E+04  9.663742E-11 -1.232594E-10
       407  13  1.677190E+05 -2.540465E+02  7.282231E+03 -2.688721E+04 -6.732686E-11  7.038889E-11
       407  14  1.667595E+05 -5.250648E+01  1.265368E+04 -1.952633E+04 -4.533258E-11  6.266393E-11
       407  15  1.677115E+05  4.420342E+03  2.322245E+04 -2.688695E+04  1.056294E-10 -1.264873E-10
       407  16 -6.011093E+04 -5.555625E+04 -4.141191E+04 -2.773864E+04 -1.010151E-10  1.286375E-11
       407  17 -1.002457E+05 -6.486147E+04 -4.439185E+04 -1.919555E+04 -1.372699E-10 -3.653969E-11
       407  18 -1.385555E+05 -6.998364E+04 -4.253077E+04 -2.537444E+04 -1.060392E-10 -1.529906E-10
       407  19  3.955978E+05  5.504495E+04  5.597369E+04 -2.603543E+04  3.196398E+03  1.258567E+04
       407  20  4.338321E+05  6.475207E+04  6.969569E+04 -1.985713E+04  1.005006E+04  1.478459E+04
       407  21  4.740671E+05  7.881855E+04  8.897123E+04 -2.839998E+04  1.690342E+04  1.647450E+04
       407  22  1.677190E+05 -2.538678E+02  7.282589E+03 -2.688716E+04  5.670387E+03  1.258556E+04
       407  23  1.667598E+05 -5.223303E+01  1.265436E+04 -1.952619E+04  1.200825E+04  1.478489E+04
       407  24  1.677119E+05  4.420724E+03  2.322359E+04 -2.688670E+04  1.834538E+04  1.647512E+04
       407  25 -6.011082E+04 -5.555607E+04 -4.141149E+04 -2.773856E+04  8.143481E+03  1.258546E+04
       407  26 -1.002455E+05 -6.486118E+04 -4.439108E+04 -1.919539E+04  1.396560E+04  1.478519E+04
       407  27 -1.385550E+05 -6.998324E+04 -4.252953E+04 -2.537418E+04  1.978664E+04  1.647575E+04
       408   1  5.097587E+05  7.774466E+04  1.014135E+05 -1.396491E+04 -1.798026E+04 -1.862566E+04
       408   2  5.360292E+05  9.426626E+04  1.330216E+05 -3.658473E+04 -5.580680E+04 -1.758147E+04
       408   3  5.885824E+05  1.960617E+05  2.105721E+05 -7.345584E+04 -9.364037E+04 -5.575181E+03
       408   4  1.727007E+05 -4.043781E+03  2.940600E+04 -2.677764E+04 -2.244440E+04 -1.862622E+04
       408   5  1.605058E+05  2.736713E+03  5.071481E+04 -1.966187E+04 -4.920256E+04 -1.758273E+04
       408   6  1.726851E+05  9.289500E+04  1.102978E+05 -2.679470E+04 -7.596445E+04 -5.577785E+03
       408   7 -1.642500E+05 -8.583901E+04 -4.260793E+04 -3.958331E+04 -2.690615E+04 -1.862660E+04
       408   8 -2.148849E+05 -8.880115E+04 -3.160022E+04 -2.749368E+03 -4.260225E+04 -1.758363E+04
       408   9 -2.430488E+05 -1.027596E+04  1.001347E+04  1.983508E+04 -5.830032E+04 -5.577736E+03
       408  10  5.097583E+05  7.774420E+04  1.014123E+05 -1.396518E+04 -4.040608E-10 -1.184148E-10
       408  11  5.360258E+05  9.426509E+04  1.330152E+05 -3.658552E+04 -8.301921E-11 -9.877562E-11
       408  12  5.885729E+05  1.960593E+05  2.105556E+05 -7.345626E+04 -3.738541E-11 -9.425375E-11
       408  13  1.727001E+05 -4.044289E+03  2.940440E+04 -2.677797E+04  1.121130E-10 -5.785206E-11
       408  14  1.605032E+05  2.735731E+03  5.070968E+04 -1.966257E+04  9.608074E-11  2.480696E-10
       408  15  1.726789E+05  9.289342E+04  1.102869E+05 -2.679504E+04  5.248214E-10 -3.429360E-11
       408  16 -1.642508E+05 -8.583958E+04 -4.260994E+04 -3.958371E+04  2.388982E-10 -9.600453E-11
       408  17 -2.148870E+05 -8.880197E+04 -3.160421E+04 -2.749971E+03  6.669900E-11  1.039808E-10
       408  18 -2.430524E+05 -1.027691E+04  1.000702E+04  1.983482E+04 -2.316992E-10 -6.297648E-11
       408  19  5.097587E+05  7.774466E+04  1.014135E+05 -1.396491E+04  1.798026E+04  1.862566E+04
       408  20  5.360292E+05  9.426626E+04  1.330216E+05 -3.658473E+04  5.580680E+04  1.758147E+04
       408  21  5.885824E+05  1.960617E+05  2.105721E+05 -7.345584E+04  9.364037E+04  5.575181E+03
       408  22  1.727007E+05 -4.043781E+03  2.940600E+04 -2.677764E+04  2.244440E+04  1.862622E+04
       408  23  1.605058E+05  2.736713E+03  5.071481E+04 -1.966187E+04  4.920256E+04  1.758273E+04
       408  24  1.726851E+05  9.289500E+04  1.102978E+05 -2.679470E+04  7.596445E+04  5.577785E+03
       408  25 -1.642500E+05 -8.583901E+04 -4.260793E+04 -3.958331E+04  2.690615E+04  1.862660E+04
       408  26 -2.148849E+05 -8.880115E+04 -3.160022E+04 -2.749368E+03  4.260225E+04  1.758363E+04
       408  27 -2.430488E+05 -1.027596E+04  1.001347E+04  1.983508E+04  5.830032E+04  5.577736E+03
       409   1 -1.479266E+06 -2.363911E+05 -2.513927E+05 -9.312678E+04 -1.050014E+05  7.160188E+03
       409   2 -1.402689E+06 -1.206876E+05 -1.608556E+05 -4.955918E+04 -6.138404E+04  2.246101E+04
       409   3 -1.354989E+06 -9.797212E+04 -1.219968E+05 -2.857307E+04 -1.775723E+04  2.323410E+04
       409   4 -9.341657E+05 -1.008393E+05 -1.196328E+05 -4.243618E+04 -8.234459E+04  7.156372E+03
       409   5 -9.209733E+05 -3.043442E+03 -5.500663E+04 -3.115016E+04 -5.332415E+04  2.245865E+04
       409   6 -9.341011E+05  4.338947E+03 -3.188227E+04 -4.244890E+04 -2.429962E+04  2.323372E+04
       409   7 -3.887861E+05  3.470074E+04  1.210913E+04  8.299160E+03 -5.966790E+04  7.156268E+03
       409   8 -4.390392E+05  1.145864E+05  5.082859E+04 -1.272665E+04 -4.525805E+04  2.245676E+04
       409   9 -5.130457E+05  1.066392E+05  5.822224E+04 -5.633427E+04 -3.084639E+04  2.323364E+04
       409  10 -1.479278E+06 -2.363942E+05 -2.514135E+05 -9.312618E+04  1.148516E-10  9.449321E-12
       409  11 -1.402693E+06 -1.206891E+05 -1.608636E+05 -4.955807E+04  3.913223E-10 -1.006933E-11
       409  12 -1.354989E+06 -9.797279E+04 -1.219984E+05 -2.857274E+04 -7.072240E-10  3.490646E-10
       409  13 -9.341730E+05 -1.008412E+05 -1.196456E+05 -4.243571E+04  2.007242E-10 -7.623543E-11
       409  14 -9.209765E+05 -3.044748E+03 -5.501293E+04 -3.114919E+04  1.144294E-10 -2.114004E-10
       409  15 -9.341019E+05  4.338209E+03 -3.188440E+04 -4.244844E+04 -2.290794E-10  2.229475E-10
       409  16 -3.887900E+05  3.469973E+04  1.210234E+04  8.299504E+03 -2.660160E-11 -1.336767E-10
       409  17 -4.390415E+05  1.145853E+05  5.082379E+04 -1.272584E+04 -3.573741E-11 -1.354969E-10
       409  18 -5.130469E+05  1.066383E+05  5.821944E+04 -5.633370E+04  7.656269E-10  3.351005E-10
       409  19 -1.479266E+06 -2.363911E+05 -2.513927E+05 -9.312678E+04  1.050014E+05 -7.160188E+03
       409  20 -1.402689E+06 -1.206876E+05 -1.608556E+05 -4.955918E+04  6.138404E+04 -2.246101E+04
       409  21 -1.354989E+06 -9.797212E+04 -1.219968E+05 -2.857307E+04  1.775723E+04 -2.323410E+04
       409  22 -9.341657E+05 -1.008393E+05 -1.196328E+05 -4.243618E+04  8.234459E+04 -7.156372E+03
       409  23 -9.209733E+05 -3.043442E+03 -5.500663E+04 -3.115016E+04  5.332415E+04 -2.245865E+04
       409  24 -9.341011E+05  4.338947E+03 -3.188227E+04 -4.244890E+04  2.429962E+04 -2.323372E+04
       409  25 -3.887861E+05  3.470074E+04  1.210913E+04  8.299160E+03  5.966790E+04 -7.156268E+03
       409  26 -4.390392E+05  1.145864E+05  5.082859E+04 -1.272665E+04  4.525805E+04 -2.245676E+04
       409  27 -5.130457E+05  1.066392E+05  5.822224E+04 -5.633427E+04  3.084639E+04 -2.323364E+04
       410   1 -1.300964E+06 -9.539155E+04 -1.052287E+05 -4.425284E+04 -1.730763E+04  2.002372E+04
       410   2 -1.237423E+06 -7.524339E+04 -8.000493E+04 -3.120898E+04 -9.750471E+03  1.715053E+04
       410   3 -1.176033E+06 -5.983530E+04 -6.088977E+04 -4.162940E+04 -2.193960E+03  1.359351E+04
       410   4 -9.287029E+05 -4.836390E+03 -2.518315E+04 -4.264152E+04 -1.986174E+04  2.002311E+04
       410   5 -9.276782E+05  3.725675E+01 -1.372638E+04 -3.090911E+04 -1.298909E+04  1.715059E+04
       410   6 -9.286858E+05  2.920627E+02 -7.898959E+03 -4.264038E+04 -6.117809E+03  1.359437E+04
       410   7 -5.563114E+05  8.570967E+04  5.485427E+04 -4.102920E+04 -2.241736E+04  2.002249E+04
       410   8 -6.178425E+05  7.531163E+04  5.254664E+04 -3.060908E+04 -1.622929E+04  1.715064E+04
       410   9 -6.812805E+05  6.041542E+04  4.508835E+04 -4.365176E+04 -1.004320E+04  1.359524E+04
       410  10 -1.300964E+06 -9.539206E+04 -1.052300E+05 -4.425256E+04  2.916620E-11  4.652014E-10
       410  11 -1.237424E+06 -7.524373E+04 -8.000566E+04 -3.120884E+04 -2.928617E-10  1.173868E-10
       410  12 -1.176033E+06 -5.983549E+04 -6.089013E+04 -4.162938E+04  2.007762E-10 -1.174482E-11
       410  13 -9.287034E+05 -4.836926E+03 -2.518464E+04 -4.264120E+04 -2.305570E-11  3.586625E-10
       410  14 -9.276785E+05  3.689567E+01 -1.372725E+04 -3.090893E+04  1.671722E-10  2.326486E-10
       410  15 -9.286859E+05  2.918543E+02 -7.899377E+03 -4.264031E+04 -1.645223E-10  1.137776E-10
       410  16 -5.563120E+05  8.570910E+04  5.485257E+04 -4.102884E+04 -1.710142E-10  3.514006E-10
       410  17 -6.178429E+05  7.531125E+04  5.254560E+04 -3.060885E+04  1.925817E-10  4.138153E-10
       410  18 -6.812807E+05  6.041520E+04  4.508782E+04 -4.365165E+04  1.380509E-10  3.703135E-11
       410  19 -1.300964E+06 -9.539155E+04 -1.052287E+05 -4.425284E+04  1.730763E+04 -2.002372E+04
       410  20 -1.237423E+06 -7.524339E+04 -8.000493E+04 -3.120898E+04  9.750471E+03 -1.715053E+04
       410  21 -1.176033E+06 -5.983530E+04 -6.088977E+04 -4.162940E+04  2.193960E+03 -1.359351E+04
       410  22 -9.287029E+05 -4.836390E+03 -2.518315E+04 -4.264152E+04  1.986174E+04 -2.002311E+04
       410  23 -9.276782E+05  3.725675E+01 -1.372638E+04 -3.090911E+04  1.298909E+04 -1.715059E+04
       410  24 -9.286858E+05  2.920627E+02 -7.898959E+03 -4.264038E+04  6.117809E+03 -1.359437E+04
       410  25 -5.563114E+05  8.570967E+04  5.485427E+04 -4.102920E+04  2.241736E+04 -2.002249E+04
       410  26 -6.178425E+05  7.531163E+04  5.254664E+04 -3.060908E+04  1.622929E+04 -1.715064E+04
       410  27 -6.812805E+05  6.041542E+04  4.508835E+04 -4.365176E+04  1.004320E+04 -1.359524E+04
       411   1 -1.127092E+06 -4.841914E+04 -4.835024E+04 -4.247466E+04 -1.147691E+03  1.135010E+04
       411   2 -1.064214E+06 -3.298573E+04 -3.249556E+04 -3.070619E+04  5.880823E+02  7.614884E+03
       411   3 -1.001631E+06 -1.778823E+04 -1.783498E+04 -4.253797E+04  2.323448E+03  3.844903E+03
       411   4 -9.282947E+05 -1.514442E+02 -6.041069E+03 -4.267094E+04 -4.890489E+03  1.135118E+04
       411   5 -9.281451E+05  7.051699E+01 -3.437291E+03 -3.087092E+04 -3.189397E+03  7.616242E+03
       411   6 -9.282885E+05  6.270504E+01 -2.003253E+03 -4.267082E+04 -1.488885E+03  3.846560E+03
       411   7 -7.294600E+05  4.811368E+04  3.626588E+04 -4.286727E+04 -8.634469E+03  1.135225E+04
       411   8 -7.920584E+05  3.312556E+04  2.561997E+04 -3.103567E+04 -6.967694E+03  7.617601E+03
       411   9 -8.549407E+05  1.791329E+04  1.382821E+04 -4.280368E+04 -5.301663E+03  3.848218E+03
       411  10 -1.127092E+06 -4.841928E+04 -4.835049E+04 -4.247465E+04 -7.559994E-10 -3.447103E-10
       411  11 -1.064214E+06 -3.298579E+04 -3.249567E+04 -3.070620E+04 -1.096933E-10 -1.293825E-10
       411  12 -1.001631E+06 -1.778825E+04 -1.783502E+04 -4.253797E+04  4.877011E-10  1.923064E-10
       411  13 -9.282947E+05 -1.515889E+02 -6.041356E+03 -4.267089E+04 -2.545281E-10  4.498934E-12
       411  14 -9.281451E+05  7.045199E+01 -3.437419E+03 -3.087090E+04 -3.151993E-10  1.111927E-11
       411  15 -9.282885E+05  6.268856E+01 -2.003285E+03 -4.267081E+04 -5.035845E-10 -1.872167E-10
       411  16 -7.294601E+05  4.811352E+04  3.626550E+04 -4.286719E+04  4.484511E-10  2.695937E-10
       411  17 -7.920584E+05  3.312549E+04  2.561976E+04 -3.103563E+04  8.489224E-11  3.487214E-10
       411  18 -8.549408E+05  1.791327E+04  1.382813E+04 -4.280367E+04 -2.125312E-10  2.459432E-10
       411  19 -1.127092E+06 -4.841914E+04 -4.835024E+04 -4.247466E+04  1.147691E+03 -1.135010E+04
       411  20 -1.064214E+06 -3.298573E+04 -3.249556E+04 -3.070619E+04 -5.880823E+02 -7.614884E+03
       411  21 -1.001631E+06 -1.778823E+04 -1.783498E+04 -4.253797E+04 -2.323448E+03 -3.844903E+03
       411  22 -9.282947E+05 -1.514442E+02 -6.041069E+03 -4.267094E+04  4.890489E+03 -1.135118E+04
       411  23 -9.281451E+05  7.051699E+01 -3.437291E+03 -3.087092E+04  3.189397E+03 -7.616242E+03
       411  24 -9.282885E+05  6.270504E+01 -2.003253E+03 -4.267082E+04  1.488885E+03 -3.846560E+03
       411  25 -7.294600E+05  4.811368E+04  3.626588E+04 -4.286727E+04  8.634469E+03 -1.135225E+04
       411  26 -7.920584E+05  3.312556E+04  2.561997E+04 -3.103567E+04  6.967694E+03 -7.617601E+03
       411  27 -8.549407E+05  1.791329E+04  1.382821E+04 -4.280368E+04  5.301663E+03 -3.848218E+03
       412   1 -9.529159E+05 -5.914384E+03 -6.642574E+03 -4.260658E+04  2.635199E+03  1.641755E+03
       412   2 -8.900805E+05  9.300597E+03  7.184932E+03 -3.083866E+04  3.104913E+03 -2.137635E+03
       412   3 -8.273235E+05  2.451571E+04  2.070072E+04 -4.269341E+04  3.574841E+03 -5.917425E+03
       412   4 -9.282405E+05  4.544903E+01 -1.545350E+03 -4.267592E+04 -1.169738E+03  1.643470E+03
       412   5 -9.282001E+05  4.140165E+01 -9.527563E+02 -3.086453E+04 -7.005844E+02 -2.136004E+03
       412   6 -9.282417E+05  3.781399E+01 -6.713630E+02 -4.267591E+04 -2.312618E+02 -5.915866E+03
       412   7 -9.035644E+05  6.005252E+03  3.551896E+03 -4.274526E+04 -4.974825E+03  1.645186E+03
       412   8 -9.663183E+05 -9.217881E+03 -9.090474E+03 -3.089041E+04 -4.505851E+03 -2.134373E+03
       412   9 -1.029150E+06 -2.444073E+04 -2.204397E+04 -4.265841E+04 -4.036755E+03 -5.914306E+03
       412  10 -9.529159E+05 -5.914389E+03 -6.642592E+03 -4.260658E+04  2.013426E-10  1.369033E-10
       412  11 -8.900805E+05  9.300590E+03  7.184905E+03 -3.083865E+04  1.278466E-10  4.783779E-10
       412  12 -8.273235E+05  2.451566E+04  2.070063E+04 -4.269339E+04 -1.109756E-11  3.439972E-10
       412  13 -9.282405E+05  4.544576E+01 -1.545357E+03 -4.267591E+04  1.496780E-10  3.385478E-10
       412  14 -9.282001E+05  4.139662E+01 -9.527658E+02 -3.086454E+04 -1.620664E-10 -9.355673E-11
       412  15 -9.282417E+05  3.777641E+01 -6.714289E+02 -4.267591E+04 -7.203993E-10 -1.701609E-10
       412  16 -9.035645E+05  6.005242E+03  3.551844E+03 -4.274525E+04 -3.845706E-10 -6.285328E-10
       412  17 -9.663183E+05 -9.217891E+03 -9.090520E+03 -3.089042E+04  1.699814E-10  6.158718E-11
       412  18 -1.029150E+06 -2.444077E+04 -2.204406E+04 -4.265843E+04 -3.577588E-10 -3.399415E-10
       412  19 -9.529159E+05 -5.914384E+03 -6.642574E+03 -4.260658E+04 -2.635199E+03 -1.641755E+03
       412  20 -8.900805E+05  9.300597E+03  7.184932E+03 -3.083866E+04 -3.104913E+03  2.137635E+03
       412  21 -8.273235E+05  2.451571E+04  2.070072E+04 -4.269341E+04 -3.574841E+03  5.917425E+03
       412  22 -9.282405E+05  4.544903E+01 -1.545350E+03 -4.267592E+04  1.169738E+03 -1.643470E+03
       412  23 -9.282001E+05  4.140165E+01 -9.527563E+02 -3.086453E+04  7.005844E+02  2.136004E+03
       412  24 -9.282417E+05  3.781399E+01 -6.713630E+02 -4.267591E+04  2.312618E+02  5.915866E+03
       412  25 -9.035644E+05  6.005252E+03  3.551896E+03 -4.274526E+04  4.974825E+03 -1.645186E+03
       412  26 -9.663183E+05 -9.217881E+03 -9.090474E+03 -3.089041E+04  4.505851E+03  2.134373E+03
       412  27 -1.029150E+06 -2.444073E+04 -2.204397E+04 -4.265841E+04  4.036755E+03  5.914306E+03
       413   1 -7.786784E+05  3.639637E+04  3.148730E+04 -4.270126E+04  3.687577E+03 -8.116669E+03
       413   2 -7.160078E+05  5.156185E+04  4.466062E+04 -3.093843E+04  3.994661E+03 -1.188980E+04
       413   3 -6.533754E+05  6.673276E+04  5.763356E+04 -4.274247E+04  4.302707E+03 -1.565569E+04
       413   4 -9.282356E+05  3.659011E+01 -6.120436E+02 -4.266360E+04 -1.159184E+02 -8.115268E+03
       413   5 -9.282184E+05  2.100355E+01 -6.388036E+02 -3.087992E+04  1.982311E+02 -1.188885E+04
       413   6 -9.282437E+05  1.007613E+01 -8.705648E+02 -4.266361E+04  5.133131E+02 -1.565516E+04
       413   7 -1.077772E+06 -3.632465E+04 -3.271264E+04 -4.262595E+04 -3.918509E+03 -8.113868E+03
       413   8 -1.140387E+06 -5.152277E+04 -4.594078E+04 -3.082144E+04 -3.596918E+03 -1.188789E+04
       413   9 -1.203041E+06 -6.671752E+04 -5.937897E+04 -4.258478E+04 -3.274427E+03 -1.565463E+04
       413  10 -7.786784E+05  3.639630E+04  3.148715E+04 -4.270124E+04  2.541736E-11  1.462521E-10
       413  11 -7.160078E+05  5.156169E+04  4.466033E+04 -3.093839E+04 -3.764630E-10 -7.699468E-11
       413  12 -6.533755E+05  6.673249E+04  5.763306E+04 -4.274241E+04  4.746899E-11 -3.261984E-10
       413  13 -9.282356E+05  3.651942E+01 -6.121673E+02 -4.266360E+04  1.824471E-10  4.919091E-10
       413  14 -9.282185E+05  2.085182E+01 -6.390692E+02 -3.087992E+04  3.401172E-10  4.999597E-10
       413  15 -9.282438E+05  9.812995E+00 -8.710257E+02 -4.266360E+04 -8.045597E-10 -4.259699E-10
       413  16 -1.077772E+06 -3.632473E+04 -3.271279E+04 -4.262597E+04 -3.916577E-11  1.151429E-10
       413  17 -1.140387E+06 -5.152293E+04 -4.594107E+04 -3.082147E+04  5.846755E-10  3.942787E-10
       413  18 -1.203041E+06 -6.671778E+04 -5.937945E+04 -4.258482E+04 -3.834782E-10  4.904659E-12
       413  19 -7.786784E+05  3.639637E+04  3.148730E+04 -4.270126E+04 -3.687577E+03  8.116669E+03
       413  20 -7.160078E+05  5.156185E+04  4.466062E+04 -3.093843E+04 -3.994661E+03  1.188980E+04
       413  21 -6.533754E+05  6.673276E+04  5.763356E+04 -4.274247E+04 -4.302707E+03  1.565569E+04
       413  22 -9.282356E+05  3.659011E+01 -6.120436E+02 -4.266360E+04  1.159184E+02  8.115268E+03
       413  23 -9.282184E+05  2.100355E+01 -6.388036E+02 -3.087992E+04 -1.982311E+02  1.188885E+04
       413  24 -9.282437E+05  1.007613E+01 -8.705648E+02 -4.266361E+04 -5.133131E+02  1.565516E+04
       413  25 -1.077772E+06 -3.632465E+04 -3.271264E+04 -4.262595E+04  3.918509E+03  8.113868E+03
       413  26 -1.140387E+06 -5.152277E+04 -4.594078E+04 -3.082144E+04  3.596918E+03  1.188789E+04
       413  27 -1.203041E+06 -6.671752E+04 -5.937897E+04 -4.258478E+04  3.274427E+03  1.565463E+04
       414   1 -6.049449E+05  7.857163E+04  6.810763E+04 -4.273466E+04  4.483769E+03 -1.784868E+04
       414   2 -5.426016E+05  9.365005E+04  8.053655E+04 -3.100100E+04  5.309783E+03 -2.158864E+04
       414   3 -4.803470E+05  1.086221E+05  9.240964E+04 -4.269135E+04  6.137570E+03 -2.527409E+04
       414   4 -9.282635E+05  1.598586E+01 -1.078049E+03 -4.263195E+04  6.888110E+02 -1.784852E+04
       414   5 -9.282196E+05  9.741790E-01 -1.778918E+03 -3.091951E+04  1.569053E+03 -2.158928E+04
       414   6 -9.282785E+05 -1.299968E+02 -3.073763E+03 -4.263199E+04  2.450989E+03 -2.527550E+04
       414   7 -1.251484E+06 -7.854649E+04 -7.026974E+04 -4.252928E+04 -3.104198E+03 -1.784837E+04
       414   8 -1.313697E+06 -9.365781E+04 -8.410293E+04 -3.083807E+04 -2.169385E+03 -2.158992E+04
       414   9 -1.376021E+06 -1.088951E+05 -9.856868E+04 -4.257266E+04 -1.232970E+03 -2.527691E+04
       414  10 -6.049450E+05  7.857128E+04  6.810699E+04 -4.273460E+04  8.221031E-12  4.189001E-11
       414  11 -5.426018E+05  9.364955E+04  8.053562E+04 -3.100091E+04 -1.437080E-10  1.414088E-10
       414  12 -4.803472E+05  1.086214E+05  9.240837E+04 -4.269123E+04  2.625324E-10 -1.084525E-10
       414  13 -9.282636E+05  1.564379E+01 -1.078649E+03 -4.263194E+04 -5.928160E-10 -1.766877E-11
       414  14 -9.282197E+05  4.732301E-01 -1.779798E+03 -3.091949E+04 -5.025449E-10  2.594238E-10
       414  15 -9.282787E+05 -1.306841E+02 -3.074975E+03 -4.263194E+04  3.123544E-10 -1.271249E-10
       414  16 -1.251484E+06 -7.854683E+04 -7.027036E+04 -4.252933E+04  3.875997E-10  1.227447E-10
       414  17 -1.313697E+06 -9.365831E+04 -8.410381E+04 -3.083811E+04 -5.920191E-10  7.328607E-11
       414  18 -1.376021E+06 -1.088958E+05 -9.856989E+04 -4.257268E+04 -5.293994E-10 -1.021196E-10
       414  19 -6.049449E+05  7.857163E+04  6.810763E+04 -4.273466E+04 -4.483769E+03  1.784868E+04
       414  20 -5.426016E+05  9.365005E+04  8.053655E+04 -3.100100E+04 -5.309783E+03  2.158864E+04
       414  21 -4.803470E+05  1.086221E+05  9.240964E+04 -4.269135E+04 -6.137570E+03  2.527409E+04
       414  22 -9.282635E+05  1.598586E+01 -1.078049E+03 -4.263195E+04 -6.888110E+02  1.784852E+04
       414  23 -9.282196E+05  9.741790E-01 -1.778918E+03 -3.091951E+04 -1.569053E+03  2.158928E+04
       414  24 -9.282785E+05 -1.299968E+02 -3.073763E+03 -4.263199E+04 -2.450989E+03  2.527550E+04
       414  25 -1.251484E+06 -7.854649E+04 -7.026974E+04 -4.252928E+04  3.104198E+03  1.784837E+04
       414  26 -1.313697E+06 -9.365781E+04 -8.410293E+04 -3.083807E+04  2.169385E+03  2.158992E+04
       414  27 -1.376021E+06 -1.088951E+05 -9.856868E+04 -4.257266E+04  1.232970E+03  2.527691E+04
       415   1 -4.324196E+05  1.205834E+05  1.020438E+05 -4.301553E+04  7.016965E+03 -2.751558E+04
       415   2 -3.702986E+05  1.354093E+05  1.122751E+05 -3.068929E+04  9.514038E+03 -3.093619E+04
       415   3 -3.089310E+05  1.480712E+05  1.203637E+05 -4.152972E+04  1.201313E+04 -3.337773E+04
       415   4 -9.284720E+05  8.981288E+01 -4.004190E+03 -4.257509E+04  3.075130E+03 -2.751760E+04
       415   5 -9.280192E+05 -5.854046E+01 -6.950389E+03 -3.099074E+04  6.555835E+03 -3.093909E+04
       415   6 -9.284956E+05 -2.543001E+03 -1.272466E+04 -4.257442E+04  1.003831E+04 -3.338109E+04
       415   7 -1.424292E+06 -1.204198E+05 -1.100664E+05 -4.213501E+04 -8.635998E+02 -2.751962E+04
       415   8 -1.485447E+06 -1.355467E+05 -1.261939E+05 -3.129193E+04  3.600251E+03 -3.094199E+04
       415   9 -1.547699E+06 -1.531824E+05 -1.458354E+05 -4.361808E+04  8.065438E+03 -3.338445E+04
       415  10 -4.324199E+05  1.205825E+05  1.020423E+05 -4.301538E+04 -1.520984E-11 -2.697465E-10
       415  11 -3.702989E+05  1.354083E+05  1.122732E+05 -3.068905E+04 -3.102056E-10 -4.879889E-10
       415  12 -3.089315E+05  1.480699E+05  1.203613E+05 -4.152940E+04 -9.364553E-10  2.788806E-10
       415  13 -9.284722E+05  8.899757E+01 -4.005630E+03 -4.257503E+04  1.065439E-10 -3.951289E-10
       415  14 -9.280195E+05 -5.957946E+01 -6.952268E+03 -3.099058E+04 -2.660827E-10 -1.027287E-10
       415  15 -9.284960E+05 -2.544224E+03 -1.272694E+04 -4.257415E+04  6.985514E-10  1.888003E-10
       415  16 -1.424293E+06 -1.204206E+05 -1.100678E+05 -4.213503E+04 -4.161461E-10 -3.542473E-10
       415  17 -1.485447E+06 -1.355478E+05 -1.261957E+05 -3.129184E+04 -8.452547E-12 -1.617081E-10
       415  18 -1.547699E+06 -1.531836E+05 -1.458376E+05 -4.361786E+04  8.420275E-10  7.958629E-10
       415  19 -4.324196E+05  1.205834E+05  1.020438E+05 -4.301553E+04 -7.016965E+03  2.751558E+04
       415  20 -3.702986E+05  1.354093E+05  1.122751E+05 -3.068929E+04 -9.514038E+03  3.093619E+04
       415  21 -3.089310E+05  1.480712E+05  1.203637E+05 -4.152972E+04 -1.201313E+04  3.337773E+04
       415  22 -9.284720E+05  8.981288E+01 -4.004190E+03 -4.257509E+04 -3.075130E+03  2.751760E+04
       415  23 -9.280192E+05 -5.854046E+01 -6.950389E+03 -3.099074E+04 -6.555835E+03  3.093909E+04
       415  24 -9.284956E+05 -2.543001E+03 -1.272466E+04 -4.257442E+04 -1.003831E+04  3.338109E+04
       415  25 -1.424292E+06 -1.204198E+05 -1.100664E+05 -4.213501E+04  8.635998E+02  2.751962E+04
       415  26 -1.485447E+06 -1.355467E+05 -1.261939E+05 -3.129193E+04 -3.600251E+03  3.094199E+04
       415  27 -1.547699E+06 -1.531824E+05 -1.458354E+05 -4.361808E+04 -8.065438E+03  3.338445E+04
       416   1 -2.634981E+05  1.642497E+05  1.266487E+05 -4.901312E+04  1.995573E+04 -3.699254E+04
       416   2 -1.976229E+05  1.757334E+05  1.316079E+05 -2.162773E+04  1.373427E+04 -3.423020E+04
       416   3 -1.412241E+05  1.452617E+05  1.301735E+05 -1.611545E+04  7.490336E+03 -1.072794E+04
       416   4 -9.312151E+05  2.079647E+03 -1.610417E+04 -4.229781E+04  1.228186E+04 -3.699949E+04
       416   5 -9.246784E+05 -1.663527E+03 -2.779938E+04 -3.133899E+04  2.695129E+04 -3.422313E+04
       416   6 -9.312653E+05 -5.101917E+04 -6.041738E+04 -4.225526E+04  4.159804E+04 -1.069557E+04
       416   7 -1.598512E+06 -1.601194E+05 -1.588827E+05 -3.558988E+04  4.616127E+03 -3.700661E+04
       416   8 -1.651238E+06 -1.790954E+05 -1.872381E+05 -4.103882E+04  4.015301E+04 -3.421648E+04
       416   9 -1.720731E+06 -2.473425E+05 -2.510482E+05 -6.836180E+04  7.566244E+04 -1.066606E+04
       416  10 -2.634988E+05  1.642481E+05  1.266454E+05 -4.901252E+04  6.952785E-10  5.406411E-10
       416  11 -1.976234E+05  1.757321E+05  1.316053E+05 -2.162735E+04  6.122846E-10  2.051603E-10
       416  12 -1.412242E+05  1.452616E+05  1.301732E+05 -1.611539E+04  5.361293E-10  4.727632E-10
       416  13 -9.312156E+05  2.078137E+03 -1.610703E+04 -4.229745E+04  9.716181E-10 -5.156348E-10
       416  14 -9.246795E+05 -1.664980E+03 -2.780295E+04 -3.133825E+04 -2.171057E-10  2.448932E-10
       416  15 -9.312672E+05 -5.101976E+04 -6.042085E+04 -4.225490E+04  1.452715E-09 -4.714553E-10
       416  16 -1.598512E+06 -1.601208E+05 -1.588853E+05 -3.558974E+04 -5.812566E-10  5.361389E-10
       416  17 -1.651240E+06 -1.790971E+05 -1.872433E+05 -4.103772E+04 -6.074395E-10 -3.644550E-10
       416  18 -1.720737E+06 -2.473442E+05 -2.510592E+05 -6.836115E+04 -6.441031E-10  7.308820E-10
       416  19 -2.634981E+05  1.642497E+05  1.266487E+05 -4.901312E+04 -1.995573E+04  3.699254E+04
       416  20 -1.976229E+05  1.757334E+05  1.316079E+05 -2.162773E+04 -1.373427E+04  3.423020E+04
       416  21 -1.412241E+05  1.452617E+05  1.301735E+05 -1.611545E+04 -7.490336E+03  1.072794E+04
       416  22 -9.312151E+05  2.079647E+03 -1.610417E+04 -4.229781E+04 -1.228186E+04  3.699949E+04
       416  23 -9.246784E+05 -1.663527E+03 -2.779938E+04 -3.133899E+04 -2.695129E+04  3.422313E+04
       416  24 -9.312653E+05 -5.101917E+04 -6.041738E+04 -4.225526E+04 -4.159804E+04  1.069557E+04
       416  25 -1.598512E+06 -1.601194E+05 -1.588827E+05 -3.558988E+04 -4.616127E+03  3.700661E+04
       416  26 -1.651238E+06 -1.790954E+05 -1.872381E+05 -4.103882E+04 -4.015301E+04  3.421648E+04
       416  27 -1.720731E+06 -2.473425E+05 -2.510482E+05 -6.836180E+04 -7.566244E+04  1.066606E+04
       417   1  4.527749E+05  1.434665E+05  2.050808E+05  1.040708E+05  2.228651E+05  8.903066E+03
       417   2  4.878302E+05 -1.325335E+05  3.964993E+04  1.974329E+04  1.522748E+05  2.718297E+04
       417   3  6.001560E+05 -1.369399E+05 -1.189494E+04 -9.150777E+04  8.168911E+04  2.811573E+04
       417   4  1.109297E+06  3.058864E+05  3.633271E+05 -4.938262E+04  2.503452E+05  8.874228E+03
       417   5  1.069283E+06  9.036388E+03  1.671106E+05 -3.578717E+04  1.621562E+05  2.717550E+04
       417   6  1.109482E+06 -1.334527E+04  9.690315E+04 -4.911053E+04  7.398322E+04  2.811468E+04
       417   7  1.766265E+06  4.683640E+05  5.215583E+05 -2.029988E+05  2.778541E+05  8.831858E+03
       417   8  1.651058E+06  1.505955E+05  2.945529E+05 -9.137029E+04  1.720468E+05  2.716627E+04
       417   9  1.619056E+06  1.102392E+05  2.056874E+05 -6.678053E+03  6.627108E+04  2.811258E+04
       417  10  4.527216E+05  1.434531E+05  2.049873E+05  1.040692E+05  1.858669E-08 -6.943932E-10
       417  11  4.878051E+05 -1.325406E+05  3.960500E+04  1.973995E+04 -1.307612E-09  1.361441E-09
       417  12  6.001486E+05 -1.369425E+05 -1.190895E+04 -9.150962E+04 -2.346034E-08  3.051933E-10
       417  13  1.109230E+06  3.058695E+05  3.632094E+05 -4.938441E+04  9.331108E-10  1.028629E-09
       417  14  1.069254E+06  9.028551E+03  1.670599E+05 -3.579072E+04  1.456440E-10  1.020601E-09
       417  15  1.109476E+06 -1.334758E+04  9.689139E+04 -4.911220E+04  4.720275E-10  2.893844E-10
       417  16  1.766183E+06  4.683432E+05  5.214135E+05 -2.030008E+05 -1.810534E-08  9.612510E-10
       417  17  1.651026E+06  1.505867E+05  2.944960E+05 -9.137405E+04  1.864385E-09  1.195472E-09
       417  18  1.619051E+06  1.102372E+05  2.056777E+05 -6.679552E+03  2.428366E-08  2.397395E-09
       417  19  4.527749E+05  1.434665E+05  2.050808E+05  1.040708E+05 -2.228651E+05 -8.903066E+03
       417  20  4.878302E+05 -1.325335E+05  3.964993E+04  1.974329E+04 -1.522748E+05 -2.718297E+04
       417  21  6.001560E+05 -1.369399E+05 -1.189494E+04 -9.150777E+04 -8.168911E+04 -2.811573E+04
       417  22  1.109297E+06  3.058864E+05  3.633271E+05 -4.938262E+04 -2.503452E+05 -8.874228E+03
       417  23  1.069283E+06  9.036388E+03  1.671106E+05 -3.578717E+04 -1.621562E+05 -2.717550E+04
       417  24  1.109482E+06 -1.334527E+04  9.690315E+04 -4.911053E+04 -7.398322E+04 -2.811468E+04
       417  25  1.766265E+06  4.683640E+05  5.215583E+05 -2.029988E+05 -2.778541E+05 -8.831858E+03
       417  26  1.651058E+06  1.505955E+05  2.945529E+05 -9.137029E+04 -1.720468E+05 -2.716627E+04
       417  27  1.619056E+06  1.102392E+05  2.056874E+05 -6.678053E+03 -6.627108E+04 -2.811258E+04
       418   1  6.405510E+05 -9.530700E+04 -2.052982E+04 -4.447588E+04  6.337318E+04  2.432618E+04
       418   2  7.101362E+05 -9.229026E+04 -3.933759E+04 -3.471975E+04  4.328679E+04  2.100393E+04
       418   3  7.858893E+05 -7.539157E+04 -4.158639E+04 -5.222869E+04  2.319733E+04  1.688400E+04
       418   4  1.093041E+06  1.451222E+04  7.653768E+04 -4.925751E+04  6.046437E+04  2.432276E+04
       418   5  1.089909E+06 -1.965972E+02  4.173735E+04 -3.562236E+04  3.955884E+04  2.100125E+04
       418   6  1.093076E+06 -8.874118E+02  2.405429E+04 -4.925075E+04  1.865252E+04  1.688204E+04
       418   7  1.545722E+06  1.243181E+05  1.735933E+05 -5.404270E+04  5.755346E+04  2.431939E+04
       418   8  1.469817E+06  9.188769E+04  1.228040E+05 -3.652555E+04  3.582863E+04  2.099857E+04
       418   9  1.400350E+06  7.361065E+04  8.968960E+04 -4.627132E+04  1.410551E+04  1.688004E+04
       418  10  6.405465E+05 -9.530871E+04 -2.053847E+04 -4.447712E+04 -1.475508E-09 -3.044870E-10
       418  11  7.101341E+05 -9.229124E+04 -3.934193E+04 -3.472048E+04 -6.653612E-10 -8.589915E-10
       418  12  7.858887E+05 -7.539202E+04 -4.158794E+04 -5.222900E+04 -2.141787E-09 -9.449205E-10
       418  13  1.093036E+06  1.451060E+04  7.652971E+04 -4.925870E+04  7.068818E-10  1.169162E-09
       418  14  1.089907E+06 -1.974903E+02  4.173359E+04 -3.562303E+04  3.961681E-10 -5.009498E-10
       418  15  1.093075E+06 -8.878112E+02  2.405310E+04 -4.925100E+04  3.300164E-11 -1.332236E-09
       418  16  1.545719E+06  1.243166E+05  1.735860E+05 -5.404382E+04  1.371253E-09  9.561935E-10
       418  17  1.469815E+06  9.188687E+04  1.228008E+05 -3.652616E+04  9.889515E-10 -1.097285E-09
       418  18  1.400350E+06  7.361029E+04  8.968869E+04 -4.627152E+04  2.084212E-09 -9.665316E-10
       418  19  6.405510E+05 -9.530700E+04 -2.052982E+04 -4.447588E+04 -6.337318E+04 -2.432618E+04
       418  20  7.101362E+05 -9.229026E+04 -3.933759E+04 -3.471975E+04 -4.328679E+04 -2.100393E+04
       418  21  7.858893E+05 -7.539157E+04 -4.158639E+04 -5.222869E+04 -2.319733E+04 -1.688400E+04
       418  22  1.093041E+06  1.451222E+04  7.653768E+04 -4.925751E+04 -6.046437E+04 -2.432276E+04
       418  23  1.089909E+06 -1.965972E+02  4.173735E+04 -3.562236E+04 -3.955884E+04 -2.100125E+04
       418  24  1.093076E+06 -8.874118E+02  2.405429E+04 -4.925075E+04 -1.865252E+04 -1.688204E+04
       418  25  1.545722E+06  1.243181E+05  1.735933E+05 -5.404270E+04 -5.755346E+04 -2.431939E+04
       418  26  1.469817E+06  9.188769E+04  1.228040E+05 -3.652555E+04 -3.582863E+04 -2.099857E+04
       418  27  1.400350E+06  7.361065E+04  8.968960E+04 -4.627132E+04 -1.410551E+04 -1.688004E+04
       419   1  8.407616E+05 -6.036898E+04 -3.493243E+04 -4.973400E+04  1.922141E+04  1.429195E+04
       419   2  9.125867E+05 -4.353525E+04 -2.760535E+04 -3.607763E+04  1.405461E+04  9.993852E+03
       419   3  9.852982E+05 -2.598237E+04 -1.673105E+04 -4.956800E+04  8.886457E+03  5.663035E+03
       419   4  1.091880E+06  4.683840E+02  1.840325E+04 -4.922669E+04  1.490597E+04  1.429037E+04
       419   5  1.091441E+06 -1.824810E+02  1.050170E+04 -3.565356E+04  9.703989E+03  9.992663E+03
       419   6  1.091891E+06 -1.079816E+02  6.170700E+03 -4.922670E+04  4.501236E+03  5.662262E+03
       419   7  1.343057E+06  6.130167E+04  7.173540E+04 -4.871917E+04  1.058881E+04  1.428878E+04
       419   8  1.270326E+06  4.316822E+04  4.860697E+04 -3.522936E+04  5.352132E+03  9.991468E+03
       419   9  1.198494E+06  2.576567E+04  2.907185E+04 -4.888533E+04  1.152738E+02  5.661485E+03
       419  10  8.407612E+05 -6.036930E+04 -3.493351E+04 -4.973422E+04 -1.202363E-09 -6.898834E-10
       419  11  9.125865E+05 -4.353541E+04 -2.760591E+04 -3.607775E+04 -1.247919E-09 -7.710547E-10
       419  12  9.852981E+05 -2.598242E+04 -1.673126E+04 -4.956804E+04 -2.429768E-10 -2.223997E-10
       419  13  1.091879E+06  4.681050E+02  1.840245E+04 -4.922686E+04 -1.849405E-10 -6.356428E-10
       419  14  1.091441E+06 -1.826136E+02  1.050133E+04 -3.565364E+04 -4.753127E-11 -3.679739E-10
       419  15  1.091891E+06 -1.080215E+02  6.170601E+03 -4.922672E+04 -4.955315E-10 -3.554646E-10
       419  16  1.343057E+06  6.130142E+04  7.173481E+04 -4.871929E+04  6.253143E-10 -3.564081E-10
       419  17  1.270326E+06  4.316810E+04  4.860673E+04 -3.522940E+04 -1.423413E-10 -3.497628E-10
       419  18  1.198494E+06  2.576563E+04  2.907179E+04 -4.888533E+04  2.113019E-10  1.313626E-10
       419  19  8.407616E+05 -6.036898E+04 -3.493243E+04 -4.973400E+04 -1.922141E+04 -1.429195E+04
       419  20  9.125867E+05 -4.353525E+04 -2.760535E+04 -3.607763E+04 -1.405461E+04 -9.993852E+03
       419  21  9.852982E+05 -2.598237E+04 -1.673105E+04 -4.956800E+04 -8.886457E+03 -5.663035E+03
       419  22  1.091880E+06  4.683840E+02  1.840325E+04 -4.922669E+04 -1.490597E+04 -1.429037E+04
       419  23  1.091441E+06 -1.824810E+02  1.050170E+04 -3.565356E+04 -9.703989E+03 -9.992663E+03
       419  24  1.091891E+06 -1.079816E+02  6.170700E+03 -4.922670E+04 -4.501236E+03 -5.662262E+03
       419  25  1.343057E+06  6.130167E+04  7.173540E+04 -4.871917E+04 -1.058881E+04 -1.428878E+04
       419  26  1.270326E+06  4.316822E+04  4.860697E+04 -3.522936E+04 -5.352132E+03 -9.991468E+03
       419  27  1.198494E+06  2.576567E+04  2.907185E+04 -4.888533E+04 -1.152738E+02 -5.661485E+03
       420   1  1.041019E+06 -1.230783E+04 -5.814436E+03 -4.941367E+04  7.882867E+03  3.136036E+03
       420   2  1.113070E+06  5.127603E+03  7.614400E+03 -3.576771E+04  6.379136E+03 -1.198210E+03
       420   3  1.185348E+06  2.259561E+04  2.203288E+04 -4.922915E+04  4.875325E+03 -5.534845E+03
       420   4  1.091745E+06 -5.281991E+01  4.794587E+03 -4.921813E+04  3.509819E+03  3.135376E+03
       420   5  1.091634E+06 -6.727834E+01  3.049045E+03 -3.566441E+04  2.003302E+03 -1.198932E+03
       420   6  1.091745E+06 -4.871377E+01  2.294742E+03 -4.921816E+04  4.968753E+02 -5.535608E+03
       420   7  1.142473E+06  1.220203E+04  1.540354E+04 -4.902257E+04 -8.635798E+02  3.134713E+03
       420   8  1.070199E+06 -5.262179E+03 -1.516265E+03 -3.556111E+04 -2.372383E+03 -1.199654E+03
       420   9  9.981496E+05 -2.269359E+04 -1.744382E+04 -4.920717E+04 -3.880926E+03 -5.536372E+03
       420  10  1.041019E+06 -1.230785E+04 -5.814571E+03 -4.941369E+04 -2.278433E-10 -1.990347E-10
       420  11  1.113070E+06  5.127590E+03  7.614321E+03 -3.576770E+04 -4.712416E-10  1.003499E-10
       420  12  1.185348E+06  2.259557E+04  2.203278E+04 -4.922913E+04 -8.877133E-10  2.241907E-10
       420  13  1.091745E+06 -5.283377E+01  4.794546E+03 -4.921814E+04  7.545128E-11 -3.747076E-11
       420  14  1.091634E+06 -6.728096E+01  3.049034E+03 -3.566440E+04 -2.954488E-10 -2.750885E-10
       420  15  1.091745E+06 -4.874675E+01  2.294684E+03 -4.921816E+04  5.738808E-10  4.097942E-10
       420  16  1.142473E+06  1.220202E+04  1.540352E+04 -4.902257E+04  4.004357E-10  1.404925E-10
       420  17  1.070199E+06 -5.262182E+03 -1.516279E+03 -3.556111E+04 -2.350860E-11 -3.497789E-10
       420  18  9.981496E+05 -2.269363E+04 -1.744390E+04 -4.920719E+04  7.741922E-10  2.321558E-10
       420  19  1.041019E+06 -1.230783E+04 -5.814436E+03 -4.941367E+04 -7.882867E+03 -3.136036E+03
       420  20  1.113070E+06  5.127603E+03  7.614400E+03 -3.576771E+04 -6.379136E+03  1.198210E+03
       420  21  1.185348E+06  2.259561E+04  2.203288E+04 -4.922915E+04 -4.875325E+03  5.534845E+03
       420  22  1.091745E+06 -5.281991E+01  4.794587E+03 -4.921813E+04 -3.509819E+03 -3.135376E+03
       420  23  1.091634E+06 -6.727834E+01  3.049045E+03 -3.566441E+04 -2.003302E+03  1.198932E+03
       420  24  1.091745E+06 -4.871377E+01  2.294742E+03 -4.921816E+04 -4.968753E+02  5.535608E+03
       420  25  1.142473E+06  1.220203E+04  1.540354E+04 -4.902257E+04  8.635798E+02 -3.134713E+03
       420  26  1.070199E+06 -5.262179E+03 -1.516265E+03 -3.556111E+04  2.372383E+03  1.199654E+03
       420  27  9.981496E+05 -2.269359E+04 -1.744382E+04 -4.920717E+04  3.880926E+03  5.536372E+03
       421   1  1.241240E+06  3.621788E+04  3.423084E+04 -4.921792E+04  4.471434E+03 -8.060109E+03
       421   2  1.313482E+06  5.368490E+04  4.974810E+04 -3.553620E+04  3.240160E+03 -1.240300E+04
       421   3  1.385931E+06  7.116960E+04  6.607808E+04 -4.902636E+04  2.009874E+03 -1.675005E+04
       421   4  1.091738E+06 -5.053572E+01  2.194417E+03 -4.923261E+04  8.931874E+01 -8.061048E+03
       421   5  1.091631E+06 -7.452015E+01  2.500791E+03 -3.564635E+04 -1.146036E+03 -1.240447E+04
       421   6  1.091728E+06 -7.979093E+01  3.623039E+03 -4.923259E+04 -2.380264E+03 -1.675204E+04
       421   7  9.422568E+05 -3.632040E+04 -2.984323E+04 -4.924729E+04 -4.291758E+03 -8.061987E+03
       421   8  8.698271E+05 -5.383713E+04 -4.474928E+04 -3.575647E+04 -5.530691E+03 -1.240594E+04
       421   9  7.976058E+05 -7.133477E+04 -5.883687E+04 -4.943871E+04 -6.768357E+03 -1.675402E+04
       421  10  1.241240E+06  3.621780E+04  3.423068E+04 -4.921789E+04 -1.092352E-09  5.423302E-11
       421  11  1.313482E+06  5.368473E+04  4.974779E+04 -3.553616E+04  4.080305E-10  5.439750E-10
       421  12  1.385931E+06  7.116930E+04  6.607754E+04 -4.902634E+04 -7.680180E-11 -3.571175E-10
       421  13  1.091738E+06 -5.060553E+01  2.194295E+03 -4.923261E+04  8.653633E-10  6.793675E-10
       421  14  1.091631E+06 -7.468582E+01  2.500500E+03 -3.564636E+04  6.811467E-10  7.797020E-10
       421  15  1.091728E+06 -8.009396E+01  3.622501E+03 -4.923262E+04  4.772042E-10  1.804750E-10
       421  16  9.422568E+05 -3.632047E+04 -2.984339E+04 -4.924732E+04  1.073449E-09  3.921916E-10
       421  17  8.698270E+05 -5.383730E+04 -4.474962E+04 -3.575652E+04 -1.612726E-10  7.388216E-11
       421  18  7.976057E+05 -7.133509E+04 -5.883749E+04 -4.943880E+04 -7.875945E-11 -4.363390E-11
       421  19  1.241240E+06  3.621788E+04  3.423084E+04 -4.921792E+04 -4.471434E+03  8.060109E+03
       421  20  1.313482E+06  5.368490E+04  4.974810E+04 -3.553620E+04 -3.240160E+03  1.240300E+04
       421  21  1.385931E+06  7.116960E+04  6.607808E+04 -4.902636E+04 -2.009874E+03  1.675005E+04
       421  22  1.091738E+06 -5.053572E+01  2.194417E+03 -4.923261E+04 -8.931874E+01  8.061048E+03
       421  23  1.091631E+06 -7.452015E+01  2.500791E+03 -3.564635E+04  1.146036E+03  1.240447E+04
       421  24  1.091728E+06 -7.979093E+01  3.623039E+03 -4.923259E+04  2.380264E+03  1.675204E+04
       421  25  9.422568E+05 -3.632040E+04 -2.984323E+04 -4.924729E+04  4.291758E+03  8.061987E+03
       421  26  8.698271E+05 -5.383713E+04 -4.474928E+04 -3.575647E+04  5.530691E+03  1.240594E+04
       421  27  7.976058E+05 -7.133477E+04 -5.883687E+04 -4.943871E+04  6.768357E+03  1.675402E+04
       422   1  1.442189E+06  8.480881E+04  7.937483E+04 -4.893831E+04  1.292742E+03 -1.928964E+04
       422   2  1.514638E+06  1.023443E+05  9.773883E+04 -3.514745E+04 -2.521289E+03 -2.364307E+04
       422   3  1.587807E+06  1.203944E+05  1.187304E+05 -4.869990E+04 -6.333595E+03 -2.795752E+04
       422   4  1.091832E+06 -1.232841E+02  4.570468E+03 -4.927072E+04 -3.120393E+03 -1.929209E+04
       422   5  1.091467E+06 -1.897018E+02  7.617599E+03 -3.559854E+04 -6.892951E+03 -2.364651E+04
       422   6  1.091811E+06  2.522626E+02  1.326538E+04 -4.927082E+04 -1.066335E+04 -2.796191E+04
       422   7  7.415905E+05 -8.506335E+04 -7.024091E+04 -4.960295E+04 -7.531078E+03 -1.929454E+04
       422   8  6.684638E+05 -1.027353E+05 -8.251385E+04 -3.604935E+04 -1.126168E+04 -2.364994E+04
       422   9  5.960462E+05 -1.199058E+05 -9.221364E+04 -4.984131E+04 -1.498970E+04 -2.796629E+04
       422  10  1.442189E+06  8.480841E+04  7.937413E+04 -4.893829E+04 -1.040303E-09  2.335603E-10
       422  11  1.514638E+06  1.023437E+05  9.773776E+04 -3.514749E+04 -1.178101E-09 -4.928448E-10
       422  12  1.587807E+06  1.203935E+05  1.187288E+05 -4.870004E+04  6.801157E-10  1.676556E-10
       422  13  1.091832E+06 -1.236866E+02  4.569750E+03 -4.927077E+04  2.834537E-11  3.343731E-11
       422  14  1.091467E+06 -1.903153E+02  7.616459E+03 -3.559868E+04 -4.845602E-10 -3.473596E-10
       422  15  1.091811E+06  2.513921E+02  1.326370E+04 -4.927106E+04  7.848890E-10 -1.500861E-10
       422  16  7.415904E+05 -8.506377E+04 -7.024172E+04 -4.960307E+04  9.965402E-10 -4.013527E-10
       422  17  6.684635E+05 -1.027360E+05 -8.251514E+04 -3.604956E+04 -4.466364E-10 -2.380860E-10
       422  18  5.960458E+05 -1.199067E+05 -9.221553E+04 -4.984164E+04 -5.223999E-10  3.597239E-10
       422  19  1.442189E+06  8.480881E+04  7.937483E+04 -4.893831E+04 -1.292742E+03  1.928964E+04
       422  20  1.514638E+06  1.023443E+05  9.773883E+04 -3.514745E+04  2.521289E+03  2.364307E+04
       422  21  1.587807E+06  1.203944E+05  1.187304E+05 -4.869990E+04  6.333595E+03  2.795752E+04
       422  22  1.091832E+06 -1.232841E+02  4.570468E+03 -4.927072E+04  3.120393E+03  1.929209E+04
       422  23  1.091467E+06 -1.897018E+02  7.617599E+03 -3.559854E+04  6.892951E+03  2.364651E+04
       422  24  1.091811E+06  2.522626E+02  1.326538E+04 -4.927082E+04  1.066335E+04  2.796191E+04
       422  25  7.415905E+05 -8.506335E+04 -7.024091E+04 -4.960295E+04  7.531078E+03  1.929454E+04
       422  26  6.684638E+05 -1.027353E+05 -8.251385E+04 -3.604935E+04  1.126168E+04  2.364994E+04
       422  27  5.960462E+05 -1.199058E+05 -9.221364E+04 -4.984131E+04  1.498970E+04  2.796629E+04
       423   1  1.645323E+06  1.332102E+05  1.351905E+05 -4.692592E+04 -8.712395E+03 -3.059433E+04
       423   2  1.716472E+06  1.514925E+05  1.635380E+05 -3.583417E+04 -2.484531E+04 -3.467355E+04
       423   3  1.792460E+06  1.800146E+05  2.049693E+05 -5.231111E+04 -4.097888E+04 -3.766637E+04
       423   4  1.092673E+06 -7.265423E+02  1.731711E+04 -4.931811E+04 -1.336071E+04 -3.059968E+04
       423   5  1.090329E+06 -2.437447E+02  2.999514E+04 -3.553813E+04 -2.838275E+04 -3.467945E+04
       423   6  1.092632E+06  1.029298E+04  5.499624E+04 -4.932819E+04 -4.340354E+04 -3.767243E+04
       423   7  5.403108E+05 -1.346831E+05 -1.005738E+05 -5.170820E+04 -1.800496E+04 -3.060500E+04
       423   8  4.645554E+05 -1.520055E+05 -1.035703E+05 -3.524246E+04 -3.191666E+04 -3.468535E+04
       423   9  3.932641E+05 -1.594606E+05 -9.500526E+04 -4.634878E+04 -4.582550E+04 -3.767851E+04
       423  10  1.645323E+06  1.332092E+05  1.351886E+05 -4.692613E+04 -4.819884E-10 -3.689326E-10
       423  11  1.716471E+06  1.514911E+05  1.635346E+05 -3.583486E+04  5.053276E-10 -7.602406E-10
       423  12  1.792458E+06  1.800126E+05  2.049634E+05 -5.231235E+04  9.477056E-10 -1.665018E-09
       423  13  1.092673E+06 -7.275961E+02  1.731501E+04 -4.931844E+04  3.002365E-10 -1.463573E-10
       423  14  1.090328E+06 -2.452527E+02  2.999137E+04 -3.553892E+04 -2.002964E-10 -5.889900E-10
       423  15  1.092630E+06  1.029095E+04  5.499004E+04 -4.932951E+04  1.495179E-09 -1.236798E-09
       423  16  5.403102E+05 -1.346842E+05 -1.005762E+05 -5.170864E+04  6.332079E-10 -4.532279E-12
       423  17  4.645540E+05 -1.520071E+05 -1.035744E+05 -3.524335E+04 -2.510620E-10  2.229504E-09
       423  18  3.932615E+05 -1.594626E+05 -9.501187E+04 -4.635017E+04 -4.236933E-10 -2.289119E-10
       423  19  1.645323E+06  1.332102E+05  1.351905E+05 -4.692592E+04  8.712395E+03  3.059433E+04
       423  20  1.716472E+06  1.514925E+05  1.635380E+05 -3.583417E+04  2.484531E+04  3.467355E+04
       423  21  1.792460E+06  1.800146E+05  2.049693E+05 -5.231111E+04  4.097888E+04  3.766637E+04
       423  22  1.092673E+06 -7.265423E+02  1.731711E+04 -4.931811E+04  1.336071E+04  3.059968E+04
       423  23  1.090329E+06 -2.437447E+02  2.999514E+04 -3.553813E+04  2.838275E+04  3.467945E+04
       423  24  1.092632E+06  1.029298E+04  5.499624E+04 -4.932819E+04  4.340354E+04  3.767243E+04
       423  25  5.403108E+05 -1.346831E+05 -1.005738E+05 -5.170820E+04  1.800496E+04  3.060500E+04
       423  26  4.645554E+05 -1.520055E+05 -1.035703E+05 -3.524246E+04  3.191666E+04  3.468535E+04
       423  27  3.932641E+05 -1.594606E+05 -9.500526E+04 -4.634878E+04  4.582550E+04  3.767851E+04
       424   1  1.862135E+06  1.739661E+05  2.312496E+05 -1.810045E+04 -4.411959E+04 -4.194323E+04
       424   2  1.906127E+06  2.083932E+05  3.017539E+05 -7.502910E+04 -1.315067E+05 -3.913138E+04
       424   3  2.012043E+06  4.440883E+05  4.794176E+05 -1.590713E+05 -2.189512E+05 -1.257728E+04
       424   4  1.104451E+06 -9.733842E+03  6.962619E+04 -4.913395E+04 -5.311420E+04 -4.195592E+04
       424   5  1.075462E+06  6.338280E+03  1.200354E+05 -3.575732E+04 -1.164556E+05 -3.912132E+04
       424   6  1.104298E+06  2.196391E+05  2.610123E+05 -4.948311E+04 -1.798400E+05 -1.254993E+04
       424   7  3.473079E+05 -1.934676E+05 -9.202955E+04 -8.012926E+04 -6.209799E+04 -4.196773E+04
       424   8  2.454446E+05 -1.957565E+05 -6.172320E+04  3.461191E+03 -1.014242E+05 -3.910936E+04
       424   9  1.973329E+05 -4.823813E+03  4.256067E+04  5.994443E+04 -1.407855E+05 -1.250882E+04
       424  10  1.862133E+06  1.739637E+05  2.312426E+05 -1.810194E+04  2.339156E-10 -2.889452E-09
       424  11  1.906108E+06  2.083869E+05  3.017186E+05 -7.503324E+04 -1.231987E-09 -5.057982E-09
       424  12  2.011992E+06  4.440753E+05  4.793275E+05 -1.590735E+05 -2.105043E-09 -1.664876E-09
       424  13  1.104448E+06 -9.736489E+03  6.961758E+04 -4.913574E+04 -5.666438E-10 -6.499846E-09
       424  14  1.075447E+06  6.333002E+03  1.200071E+05 -3.576099E+04  7.764926E-10  2.279261E-09
       424  15  1.104263E+06  2.196302E+05  2.609513E+05 -4.948493E+04  2.330196E-09 -1.926807E-10
       424  16  3.473033E+05 -1.934705E+05 -9.204011E+04 -8.013136E+04 -2.827694E-10 -1.655808E-09
       424  17  2.454332E+05 -1.957609E+05 -6.174539E+04  3.457996E+03  1.687281E-11  1.174139E-09
       424  18  1.973116E+05 -4.829300E+03  4.252314E+04  5.994301E+04  2.528921E-09 -1.923554E-09
       424  19  1.862135E+06  1.739661E+05  2.312496E+05 -1.810045E+04  4.411959E+04  4.194323E+04
       424  20  1.906127E+06  2.083932E+05  3.017539E+05 -7.502910E+04  1.315067E+05  3.913138E+04
       424  21  2.012043E+06  4.440883E+05  4.794176E+05 -1.590713E+05  2.189512E+05  1.257728E+04
       424  22  1.104451E+06 -9.733842E+03  6.962619E+04 -4.913395E+04  5.311420E+04  4.195592E+04
       424  23  1.075462E+06  6.338280E+03  1.200354E+05 -3.575732E+04  1.164556E+05  3.912132E+04
       424  24  1.104298E+06  2.196391E+05  2.610123E+05 -4.948311E+04  1.798400E+05  1.254993E+04
       424  25  3.473079E+05 -1.934676E+05 -9.202955E+04 -8.012926E+04  6.209799E+04  4.196773E+04
       424  26  2.454446E+05 -1.957565E+05 -6.172320E+04  3.461191E+03  1.014242E+05  3.910936E+04
       424  27  1.973329E+05 -4.823813E+03  4.256067E+04  5.994443E+04  1.407855E+05  1.250882E+04
       425   1  3.730585E+05  1.533533E+05  1.349380E+05  1.535202E+04  3.739809E+03 -1.266235E+04
       425   2  3.146502E+05  1.883226E+05  1.318202E+05  2.995618E+04 -8.632314E+03 -4.179355E+04
       425   3  2.476694E+05  1.824127E+05  1.265814E+05  6.030629E+04 -2.104495E+04 -4.856470E+04
       425   4 -5.147024E+05 -6.611551E+04 -7.549364E+04  5.265318E+04 -5.231569E+04 -1.277713E+04
       425   5 -5.076791E+05 -9.619788E+03 -3.590470E+04  4.470476E+04 -3.356129E+04 -4.185308E+04
       425   6 -5.146537E+05  5.600633E+02 -2.006748E+04  5.250425E+04 -1.484833E+04 -4.855459E+04
       425   7 -1.401729E+06 -2.856339E+05 -2.859675E+05  8.990036E+04 -1.082914E+05 -1.289873E+04
       425   8 -1.329364E+06 -2.076033E+05 -2.036628E+05  5.943308E+04 -5.845784E+04 -4.191384E+04
       425   9 -1.276417E+06 -1.813268E+05 -1.667430E+05  4.471167E+04 -8.659132E+03 -4.854463E+04
       425  10  3.730585E+05  1.533531E+05  1.349377E+05  1.535206E+04  3.331792E-09 -9.855444E-10
       425  11  3.146496E+05  1.883207E+05  1.318168E+05  2.995589E+04  1.692870E-09 -4.737448E-09
       425  12  2.476683E+05  1.824101E+05  1.265762E+05  6.030546E+04 -7.930495E-10 -3.670179E-09
       425  13 -5.147053E+05 -6.611642E+04 -7.549909E+04  5.265264E+04 -1.076173E-09  1.672647E-09
       425  14 -5.076808E+05 -9.621971E+03 -3.591011E+04  4.470363E+04  3.219241E-12 -3.089455E-09
       425  15 -5.146546E+05  5.574731E+02 -2.007232E+04  5.250367E+04 -1.125310E-09  5.994701E-11
       425  16 -1.401742E+06 -2.856372E+05 -2.859899E+05  8.989923E+04 -3.550171E-09  2.305082E-10
       425  17 -1.329368E+06 -2.076061E+05 -2.036725E+05  5.943111E+04 -3.802815E-10 -6.074123E-09
       425  18 -1.276418E+06 -1.813294E+05 -1.667476E+05  4.471133E+04  8.933014E-10 -6.381589E-09
       425  19  3.730585E+05  1.533533E+05  1.349380E+05  1.535202E+04 -3.739809E+03  1.266235E+04
       425  20  3.146502E+05  1.883226E+05  1.318202E+05  2.995618E+04  8.632314E+03  4.179355E+04
       425  21  2.476694E+05  1.824127E+05  1.265814E+05  6.030629E+04  2.104495E+04  4.856470E+04
       425  22 -5.147024E+05 -6.611551E+04 -7.549364E+04  5.265318E+04  5.231569E+04  1.277713E+04
       425  23 -5.076791E+05 -9.619788E+03 -3.590470E+04  4.470476E+04  3.356129E+04  4.185308E+04
       425  24 -5.146537E+05  5.600633E+02 -2.006748E+04  5.250425E+04  1.484833E+04  4.855459E+04
       425  25 -1.401729E+06 -2.856339E+05 -2.859675E+05  8.990036E+04  1.082914E+05  1.289873E+04
       425  26 -1.329364E+06 -2.076033E+05 -2.036628E+05  5.943308E+04  5.845784E+04  4.191384E+04
       425  27 -1.276417E+06 -1.813268E+05 -1.667430E+05  4.471167E+04  8.659132E+03  4.854463E+04
       426   1  2.069063E+05  1.690256E+05  1.225792E+05  5.334874E+04 -1.415204E+04 -4.596617E+04
       426   2  1.445890E+05  1.560167E+05  1.157583E+05  4.543043E+04 -1.200482E+04 -4.380032E+04
       426   3  8.156294E+04  1.414477E+05  1.071417E+05  5.458911E+04 -9.863632E+03 -4.010955E+04
       426   4 -5.117725E+05 -2.343959E+03 -1.549302E+04  5.282775E+04 -1.219546E+04 -4.596573E+04
       426   5 -5.112179E+05 -3.486988E+01 -8.559614E+03  4.428509E+04 -7.929272E+03 -4.379350E+04
       426   6 -5.117443E+05  3.453476E+02 -4.895674E+03  5.282058E+04 -3.668864E+03 -4.009556E+04
       426   7 -1.229954E+06 -1.737442E+05 -1.535890E+05  5.230706E+04 -1.024108E+04 -4.596529E+04
       426   8 -1.166610E+06 -1.561116E+05 -1.328966E+05  4.314071E+04 -3.857920E+03 -4.378668E+04
       426   9 -1.104711E+06 -1.407775E+05 -1.169484E+05  5.105353E+04  2.520130E+03 -4.008159E+04
       426  10  2.069056E+05  1.690233E+05  1.225749E+05  5.334822E+04 -5.826626E-09 -4.566150E-09
       426  11  1.445883E+05  1.560146E+05  1.157544E+05  4.543001E+04 -2.059194E-09  1.928230E-09
       426  12  8.156240E+04  1.414460E+05  1.071385E+05  5.458880E+04 -1.547939E-09  2.455394E-09
       426  13 -5.117732E+05 -2.346267E+03 -1.549727E+04  5.282730E+04 -1.148602E-09 -3.560769E-09
       426  14 -5.112185E+05 -3.694572E+01 -8.563335E+03  4.428481E+04 -6.809881E-11 -5.003459E-10
       426  15 -5.117447E+05  3.436181E+02 -4.898720E+03  5.282046E+04 -7.220790E-10 -3.721699E-09
       426  16 -1.229955E+06 -1.737465E+05 -1.535932E+05  5.230668E+04  5.418513E-09  5.772994E-10
       426  17 -1.166610E+06 -1.561136E+05 -1.329002E+05  4.314058E+04  2.352560E-09  2.158846E-09
       426  18 -1.104712E+06 -1.407793E+05 -1.169514E+05  5.105361E+04  1.288229E-09  5.112275E-10
       426  19  2.069063E+05  1.690256E+05  1.225792E+05  5.334874E+04  1.415204E+04  4.596617E+04
       426  20  1.445890E+05  1.560167E+05  1.157583E+05  4.543043E+04  1.200482E+04  4.380032E+04
       426  21  8.156294E+04  1.414477E+05  1.071417E+05  5.458911E+04  9.863632E+03  4.010955E+04
       426  22 -5.117725E+05 -2.343959E+03 -1.549302E+04  5.282775E+04  1.219546E+04  4.596573E+04
       426  23 -5.112179E+05 -3.486988E+01 -8.559614E+03  4.428509E+04  7.929272E+03  4.379350E+04
       426  24 -5.117443E+05  3.453476E+02 -4.895674E+03  5.282058E+04  3.668864E+03  4.009556E+04
       426  25 -1.229954E+06 -1.737442E+05 -1.535890E+05  5.230706E+04  1.024108E+04  4.596529E+04
       426  26 -1.166610E+06 -1.561116E+05 -1.328966E+05  4.314071E+04  3.857920E+03  4.378668E+04
       426  27 -1.104711E+06 -1.407775E+05 -1.169484E+05  5.105353E+04 -2.520130E+03  4.008159E+04
       427   1  3.877951E+04  1.310487E+05  9.991024E+04  5.420907E+04 -8.827159E+03 -3.751711E+04
       427   2 -2.398102E+04  1.161506E+05  8.967647E+04  4.545453E+04 -7.927693E+03 -3.321539E+04
       427   3 -8.693253E+04  1.012922E+05  7.884432E+04  5.391660E+04 -7.030474E+03 -2.880610E+04
       427   4 -5.115433E+05  2.242415E+02 -3.728936E+03  5.285298E+04 -2.915335E+03 -3.750306E+04
       427   5 -5.114228E+05  2.667984E+02 -2.139741E+03  4.424415E+04 -1.867242E+03 -3.319970E+04
       427   6 -5.115231E+05  3.231978E+02 -1.252707E+03  5.285271E+04 -8.213075E+02 -2.878872E+04
       427   7 -1.061573E+06 -1.306178E+05 -1.073812E+05  5.149791E+04  2.991379E+03 -3.748902E+04
       427   8 -9.986348E+05 -1.156308E+05 -9.396623E+04  4.303456E+04  4.188569E+03 -3.318402E+04
       427   9 -9.359394E+05 -1.006562E+05 -8.135752E+04  5.178942E+04  5.383716E+03 -2.877136E+04
       427  10  3.877905E+04  1.310472E+05  9.990745E+04  5.420880E+04 -4.474565E-09  4.231928E-09
       427  11 -2.398138E+04  1.161494E+05  8.967428E+04  4.545432E+04 -8.787300E-10  2.858778E-09
       427  12 -8.693280E+04  1.012913E+05  7.884267E+04  5.391644E+04  2.190791E-09 -4.121501E-10
       427  13 -5.115437E+05  2.227293E+02 -3.731595E+03  5.285289E+04 -1.398230E-09 -4.281101E-09
       427  14 -5.114231E+05  2.656141E+02 -2.141818E+03  4.424410E+04 -1.442970E-10  3.961554E-09
       427  15 -5.115233E+05  3.223078E+02 -1.254265E+03  5.285269E+04 -1.145877E-09  5.695906E-09
       427  16 -1.061574E+06 -1.306193E+05 -1.073839E+05  5.149800E+04  4.446294E-09  2.381430E-09
       427  17 -9.986351E+05 -1.156320E+05 -9.396833E+04  4.303467E+04  1.217358E-09  5.964929E-09
       427  18 -9.359397E+05 -1.006571E+05 -8.135913E+04  5.178955E+04 -2.266163E-09  2.333448E-09
       427  19  3.877951E+04  1.310487E+05  9.991024E+04  5.420907E+04  8.827159E+03  3.751711E+04
       427  20 -2.398102E+04  1.161506E+05  8.967647E+04  4.545453E+04  7.927693E+03  3.321539E+04
       427  21 -8.693253E+04  1.012922E+05  7.884432E+04  5.391660E+04  7.030474E+03  2.880610E+04
       427  22 -5.115433E+05  2.242415E+02 -3.728936E+03  5.285298E+04  2.915335E+03  3.750306E+04
       427  23 -5.114228E+05  2.667984E+02 -2.139741E+03  4.424415E+04  1.867242E+03  3.319970E+04
       427  24 -5.115231E+05  3.231978E+02 -1.252707E+03  5.285271E+04  8.213075E+02  2.878872E+04
       427  25 -1.061573E+06 -1.306178E+05 -1.073812E+05  5.149791E+04 -2.991379E+03  3.748902E+04
       427  26 -9.986348E+05 -1.156308E+05 -9.396623E+04  4.303456E+04 -4.188569E+03  3.318402E+04
       427  27 -9.359394E+05 -1.006562E+05 -8.135752E+04  5.178942E+04 -5.383716E+03  2.877136E+04
       428   1 -1.299472E+05  9.100176E+04  7.071528E+04  5.381510E+04 -6.820945E+03 -2.620850E+04
       428   2 -1.928793E+05  7.601410E+04  5.935066E+04  4.502636E+04 -6.539258E+03 -2.175289E+04
       428   3 -2.559356E+05  6.113319E+04  4.779814E+04  5.349851E+04 -6.258864E+03 -1.728763E+04
       428   4 -5.114962E+05  3.238460E+02 -9.740707E+02  5.286256E+04 -6.272519E+02 -2.619055E+04
       428   5 -5.114240E+05  2.828616E+02 -6.224434E+02  4.423184E+04 -3.326337E+02 -2.173409E+04
       428   6 -5.114832E+05  3.462954E+02 -4.681118E+02  5.286251E+04 -3.928050E+01 -1.726797E+04
       428   7 -8.929044E+05 -9.036250E+04 -7.266962E+04  5.191051E+04  5.562729E+03 -2.617261E+04
       428   8 -8.298706E+05 -7.545426E+04 -6.059984E+04  4.343766E+04  5.870884E+03 -2.171530E+04
       428   9 -7.669675E+05 -6.044439E+04 -4.873710E+04  5.222674E+04  6.177805E+03 -1.724831E+04
       428  10 -1.299474E+05  9.100101E+04  7.071391E+04  5.381495E+04  2.292460E-09  4.304439E-10
       428  11 -1.928795E+05  7.601358E+04  5.934969E+04  4.502625E+04 -4.456549E-10  8.857193E-09
       428  12 -2.559357E+05  6.113286E+04  4.779750E+04  5.349842E+04 -4.224517E-09  8.083134E-09
       428  13 -5.114964E+05  3.231095E+02 -9.753601E+02  5.286254E+04 -1.607269E-09  1.333212E-09
       428  14 -5.114242E+05  2.823544E+02 -6.233311E+02  4.423184E+04 -5.780235E-10  7.496706E-09
       428  15 -5.114832E+05  3.459753E+02 -4.686720E+02  5.286251E+04 -1.205023E-09  1.625683E-09
       428  16 -8.929046E+05 -9.036324E+04 -7.267097E+04  5.191063E+04 -2.071939E-09  1.310185E-09
       428  17 -8.298707E+05 -7.545477E+04 -6.060079E+04  4.343776E+04  8.701505E-10  1.532592E-09
       428  18 -7.669676E+05 -6.044472E+04 -4.873773E+04  5.222682E+04  3.661083E-09 -3.262934E-10
       428  19 -1.299472E+05  9.100176E+04  7.071528E+04  5.381510E+04  6.820945E+03  2.620850E+04
       428  20 -1.928793E+05  7.601410E+04  5.935066E+04  4.502636E+04  6.539258E+03  2.175289E+04
       428  21 -2.559356E+05  6.113319E+04  4.779814E+04  5.349851E+04  6.258864E+03  1.728763E+04
       428  22 -5.114962E+05  3.238460E+02 -9.740707E+02  5.286256E+04  6.272519E+02  2.619055E+04
       428  23 -5.114240E+05  2.828616E+02 -6.224434E+02  4.423184E+04  3.326337E+02  2.173409E+04
       428  24 -5.114832E+05  3.462954E+02 -4.681118E+02  5.286251E+04  3.928050E+01  1.726797E+04
       428  25 -8.929044E+05 -9.036250E+04 -7.266962E+04  5.191051E+04 -5.562729E+03  2.617261E+04
       428  26 -8.298706E+05 -7.545426E+04 -6.059984E+04  4.343766E+04 -5.870884E+03  2.171530E+04
       428  27 -7.669675E+05 -6.044439E+04 -4.873710E+04  5.222674E+04 -6.177805E+03  1.724831E+04
       429   1 -2.990450E+05  5.082770E+04  3.939388E+04  5.339602E+04 -6.185418E+03 -1.468540E+04
       429   2 -3.620471E+05  3.581942E+04  2.760352E+04  4.457787E+04 -5.942076E+03 -1.021446E+04
       429   3 -4.251883E+05  2.091815E+04  1.564483E+04  5.304702E+04 -5.699329E+03 -5.745138E+03
       429   4 -5.114814E+05  3.505706E+02 -4.495191E+02  5.286832E+04  3.576544E+01 -1.466537E+04
       429   5 -5.114075E+05  3.074889E+02 -5.162323E+02  4.422453E+04  2.765453E+02 -1.019406E+04
       429   6 -5.114753E+05  3.722917E+02 -7.492970E+02  5.286827E+04  5.167557E+02 -5.724356E+03
       429   7 -7.238740E+05 -5.012916E+04 -4.029473E+04  5.234078E+04  6.254872E+03 -1.464534E+04
       429   8 -6.607463E+05 -3.520572E+04 -2.863682E+04  4.387126E+04  6.493707E+03 -1.017366E+04
       429   9 -5.977551E+05 -2.017399E+04 -1.714361E+04  5.268954E+04  6.731997E+03 -5.703577E+03
       429  10 -2.990451E+05  5.082746E+04  3.939341E+04  5.339595E+04  1.212903E-08  2.527450E-09
       429  11 -3.620471E+05  3.581930E+04  2.760326E+04  4.457782E+04  3.036360E-09 -2.188729E-09
       429  12 -4.251883E+05  2.091811E+04  1.564471E+04  5.304699E+04 -9.388186E-09 -2.736358E-09
       429  13 -5.114814E+05  3.503397E+02 -4.499231E+02  5.286832E+04 -2.106892E-09  7.277729E-09
       429  14 -5.114076E+05  3.073773E+02 -5.164277E+02  4.422453E+04  2.141888E-10  1.202654E-10
       429  15 -5.114753E+05  3.722564E+02 -7.493591E+02  5.286827E+04 -1.128251E-09 -4.149533E-09
       429  16 -7.238741E+05 -5.012940E+04 -4.029521E+04  5.234085E+04 -1.236262E-08  4.756397E-09
       429  17 -6.607464E+05 -3.520584E+04 -2.863709E+04  4.387131E+04 -1.814002E-09 -3.544563E-09
       429  18 -5.977552E+05 -2.017403E+04 -1.714376E+04  5.268957E+04  9.060350E-09 -3.302816E-09
       429  19 -2.990450E+05  5.082770E+04  3.939388E+04  5.339602E+04  6.185418E+03  1.468540E+04
       429  20 -3.620471E+05  3.581942E+04  2.760352E+04  4.457787E+04  5.942076E+03  1.021446E+04
       429  21 -4.251883E+05  2.091815E+04  1.564483E+04  5.304702E+04  5.699329E+03  5.745138E+03
       429  22 -5.114814E+05  3.505706E+02 -4.495191E+02  5.286832E+04 -3.576544E+01  1.466537E+04
       429  23 -5.114075E+05  3.074889E+02 -5.162323E+02  4.422453E+04 -2.765453E+02  1.019406E+04
       429  24 -5.114753E+05  3.722917E+02 -7.492970E+02  5.286827E+04 -5.167557E+02  5.724356E+03
       429  25 -7.238740E+05 -5.012916E+04 -4.029473E+04  5.234078E+04 -6.254872E+03  1.464534E+04
       429  26 -6.607463E+05 -3.520572E+04 -2.863682E+04  4.387126E+04 -6.493707E+03  1.017366E+04
       429  27 -5.977551E+05 -2.017399E+04 -1.714361E+04  5.268954E+04 -6.731997E+03  5.703577E+03
       430   1 -4.683486E+05  1.060516E+04  7.016513E+03  5.291924E+04 -5.564523E+03 -3.140207E+03
       430   2 -5.313178E+05 -4.410564E+03 -5.368064E+03  4.407942E+04 -4.725057E+03  1.312833E+03
       430   3 -5.945266E+05 -1.939391E+04 -1.832933E+04  5.252989E+04 -3.885436E+03  5.715396E+03
       430   4 -5.114941E+05  3.786092E+02 -9.470548E+02  5.286881E+04  6.615094E+02 -3.119292E+03
       430   5 -5.113790E+05  3.372403E+02 -1.584362E+03  4.422376E+04  1.430492E+03  1.333456E+03
       430   6 -5.114952E+05  3.406930E+02 -2.749361E+03  5.286896E+04  2.199712E+03  5.735737E+03
       430   7 -5.546378E+05 -9.848028E+03 -8.910555E+03  5.281838E+04  6.887120E+03 -3.098378E+03
       430   8 -4.914398E+05  5.085042E+03  2.199465E+03  4.436811E+04  7.586234E+03  1.354081E+03
       430   9 -4.284570E+05  2.007492E+04  1.283045E+04  5.320807E+04  8.285656E+03  5.756083E+03
       430  10 -4.683486E+05  1.060514E+04  7.016437E+03  5.291923E+04 -6.550094E-09  4.363392E-09
       430  11 -5.313178E+05 -4.410572E+03 -5.368109E+03  4.407942E+04 -4.610366E-09  1.608389E-09
       430  12 -5.945266E+05 -1.939395E+04 -1.832942E+04  5.252990E+04 -5.801230E-09  3.416302E-09
       430  13 -5.114941E+05  3.785986E+02 -9.470739E+02  5.286881E+04 -1.694478E-09  4.483244E-10
       430  14 -5.113790E+05  3.372378E+02 -1.584369E+03  4.422376E+04  1.949488E-10  1.053595E-09
       430  15 -5.114952E+05  3.406564E+02 -2.749432E+03  5.286895E+04 -9.185398E-10  1.701247E-09
       430  16 -5.546378E+05 -9.848051E+03 -8.910662E+03  5.281840E+04  6.277289E-09  3.766155E-09
       430  17 -4.914399E+05  5.085024E+03  2.199354E+03  4.436810E+04  5.969698E-09 -7.792682E-09
       430  18 -4.284571E+05  2.007486E+04  1.283026E+04  5.320803E+04  5.613673E-09 -7.998239E-10
       430  19 -4.683486E+05  1.060516E+04  7.016513E+03  5.291924E+04  5.564523E+03  3.140207E+03
       430  20 -5.313178E+05 -4.410564E+03 -5.368064E+03  4.407942E+04  4.725057E+03 -1.312833E+03
       430  21 -5.945266E+05 -1.939391E+04 -1.832933E+04  5.252989E+04  3.885436E+03 -5.715396E+03
       430  22 -5.114941E+05  3.786092E+02 -9.470548E+02  5.286881E+04 -6.615094E+02  3.119292E+03
       430  23 -5.113790E+05  3.372403E+02 -1.584362E+03  4.422376E+04 -1.430492E+03 -1.333456E+03
       430  24 -5.114952E+05  3.406930E+02 -2.749361E+03  5.286896E+04 -2.199712E+03 -5.735737E+03
       430  25 -5.546378E+05 -9.848028E+03 -8.910555E+03  5.281838E+04 -6.887120E+03  3.098378E+03
       430  26 -4.914398E+05  5.085042E+03  2.199465E+03  4.436811E+04 -7.586234E+03 -1.354081E+03
       430  27 -4.284570E+05  2.007492E+04  1.283045E+04  5.320807E+04 -8.285656E+03 -5.756083E+03
       431   1 -6.378301E+05 -2.962590E+04 -2.762342E+04  5.215109E+04 -3.473747E+03  8.321285E+03
       431   2 -7.003537E+05 -4.491517E+04 -4.234350E+04  4.387956E+04  6.842682E+02  1.243853E+04
       431   3 -7.639393E+05 -6.176710E+04 -6.019868E+04  5.284829E+04  4.844809E+03  1.581247E+04
       431   4 -5.116427E+05  4.358419E+02 -3.606567E+03  5.285644E+04  2.750877E+03  8.341932E+03
       431   5 -5.112038E+05  1.520260E+02 -6.293144E+03  4.423967E+04  5.875709E+03  1.245530E+04
       431   6 -5.116517E+05 -1.514583E+03 -1.139634E+04  5.286288E+04  9.003490E+03  1.582548E+04
       431   7 -3.854398E+05  3.049667E+04  2.040971E+04  5.356193E+04  8.976738E+03  8.362590E+03
       431   8 -3.220194E+05  4.521714E+04  2.975570E+04  4.459987E+04  1.106869E+04  1.247208E+04
       431   9 -2.593028E+05  5.873415E+04  3.740310E+04  5.287743E+04  1.316382E+04  1.583849E+04
       431  10 -6.378301E+05 -2.962597E+04 -2.762357E+04  5.215112E+04 -3.215441E-08  5.930595E-09
       431  11 -7.003537E+05 -4.491534E+04 -4.234379E+04  4.387956E+04  1.350413E-10  7.561674E-10
       431  12 -7.639394E+05 -6.176737E+04 -6.019920E+04  5.284823E+04  2.976449E-08  5.044466E-09
       431  13 -5.116427E+05  4.357652E+02 -3.606712E+03  5.285642E+04 -1.766034E-09  1.580782E-09
       431  14 -5.112039E+05  1.518502E+02 -6.293500E+03  4.423962E+04 -2.225265E-10  2.363634E-09
       431  15 -5.116519E+05 -1.514873E+03 -1.139696E+04  5.286277E+04 -1.137319E-09 -1.231474E-09
       431  16 -3.854399E+05  3.049657E+04  2.040943E+04  5.356187E+04  3.207052E-08  1.664014E-09
       431  17 -3.220195E+05  4.521694E+04  2.975518E+04  4.459976E+04  9.357937E-10  1.535383E-09
       431  18 -2.593031E+05  5.873383E+04  3.740230E+04  5.287726E+04 -3.053485E-08 -8.640874E-09
       431  19 -6.378301E+05 -2.962590E+04 -2.762342E+04  5.215109E+04  3.473747E+03 -8.321285E+03
       431  20 -7.003537E+05 -4.491517E+04 -4.234350E+04  4.387956E+04 -6.842682E+02 -1.243853E+04
       431  21 -7.639393E+05 -6.176710E+04 -6.019868E+04  5.284829E+04 -4.844809E+03 -1.581247E+04
       431  22 -5.116427E+05  4.358419E+02 -3.606567E+03  5.285644E+04 -2.750877E+03 -8.341932E+03
       431  23 -5.112038E+05  1.520260E+02 -6.293144E+03  4.423967E+04 -5.875709E+03 -1.245530E+04
       431  24 -5.116517E+05 -1.514583E+03 -1.139634E+04  5.286288E+04 -9.003490E+03 -1.582548E+04
       431  25 -3.854398E+05  3.049667E+04  2.040971E+04  5.356193E+04 -8.976738E+03 -8.362590E+03
       431  26 -3.220194E+05  4.521714E+04  2.975570E+04  4.459987E+04 -1.106869E+04 -1.247208E+04
       431  27 -2.593028E+05  5.873415E+04  3.740310E+04  5.287743E+04 -1.316382E+04 -1.583849E+04
       432   1 -8.095437E+05 -7.007556E+04 -7.209483E+04  4.725171E+04  4.724117E+03  1.841486E+04
       432   2 -8.661665E+05 -9.309791E+04 -1.000700E+05  5.546483E+04  3.365044E+04  1.752206E+04
       432   3 -9.358479E+05 -1.528370E+05 -1.560935E+05  8.031677E+04  6.260607E+04  5.708607E+03
       432   4 -5.137726E+05  6.291885E+02 -1.476171E+04  5.270048E+04  1.095090E+04  1.843423E+04
       432   5 -5.085781E+05 -6.876123E+03 -2.640265E+04  4.445715E+04  2.469750E+04  1.749256E+04
       432   6 -5.137995E+05 -4.844928E+04 -5.553442E+04  5.285383E+04  3.847664E+04  5.631555E+03
       432   7 -2.179172E+05  7.132883E+04  4.256745E+04  5.815183E+04  1.718058E+04  1.845371E+04
       432   8 -1.508677E+05  7.933812E+04  4.725819E+04  3.344292E+04  1.573948E+04  1.746339E+04
       432   9 -9.158462E+04  5.592881E+04  4.501480E+04  2.537199E+04  1.433085E+04  5.556667E+03
       432  10 -8.095438E+05 -7.007593E+04 -7.209551E+04  4.725164E+04 -2.679333E-10  4.267709E-09
       432  11 -8.661678E+05 -9.309855E+04 -1.000727E+05  5.546436E+04  8.212418E-11 -3.080106E-09
       432  12 -9.358521E+05 -1.528381E+05 -1.561009E+05  8.031648E+04 -1.528723E-09 -1.681730E-09
       432  13 -5.137728E+05  6.287915E+02 -1.476258E+04  5.270032E+04 -2.186405E-09  4.923288E-09
       432  14 -5.085788E+05 -6.876615E+03 -2.640437E+04  4.445681E+04  2.397133E-10 -1.157091E-08
       432  15 -5.138011E+05 -4.844971E+04 -5.553726E+04  5.285366E+04 -1.283272E-09  3.865801E-09
       432  16 -2.179176E+05  7.132839E+04  4.256626E+04  5.815158E+04 -1.438144E-10 -4.785901E-11
       432  17 -1.508680E+05  7.933773E+04  4.725715E+04  3.344270E+04  6.883181E-10  3.218387E-09
       432  18 -9.158485E+04  5.592872E+04  4.501436E+04  2.537192E+04  1.045045E-09  3.836674E-10
       432  19 -8.095437E+05 -7.007556E+04 -7.209483E+04  4.725171E+04 -4.724117E+03 -1.841486E+04
       432  20 -8.661665E+05 -9.309791E+04 -1.000700E+05  5.546483E+04 -3.365044E+04 -1.752206E+04
       432  21 -9.358479E+05 -1.528370E+05 -1.560935E+05  8.031677E+04 -6.260607E+04 -5.708607E+03
       432  22 -5.137726E+05  6.291885E+02 -1.476171E+04  5.270048E+04 -1.095090E+04 -1.843423E+04
       432  23 -5.085781E+05 -6.876123E+03 -2.640265E+04  4.445715E+04 -2.469750E+04 -1.749256E+04
       432  24 -5.137995E+05 -4.844928E+04 -5.553442E+04  5.285383E+04 -3.847664E+04 -5.631555E+03
       432  25 -2.179172E+05  7.132883E+04  4.256745E+04  5.815183E+04 -1.718058E+04 -1.845371E+04
       432  26 -1.508677E+05  7.933812E+04  4.725819E+04  3.344292E+04 -1.573948E+04 -1.746339E+04
       432  27 -9.158462E+04  5.592881E+04  4.501480E+04  2.537199E+04 -1.433085E+04 -5.556667E+03
       433   1 -8.897420E+04  5.299557E+04  4.451361E+04  3.653794E+03 -1.169349E+04 -4.659657E+03
       433   2 -1.154997E+05  7.534759E+04  5.093637E+04  8.477330E+03 -1.147084E+04 -1.471662E+04
       433   3 -1.489288E+05  7.039886E+04  5.039888E+04  2.413063E+04 -1.127522E+04 -1.573090E+04
       433   4 -4.324937E+05 -3.218324E+04 -3.833155E+04  1.910469E+04 -2.637741E+04 -4.704362E+03
       433   5 -4.282418E+05 -8.910244E+02 -1.762934E+04  1.363751E+04 -1.704442E+04 -1.473457E+04
       433   6 -4.324808E+05  1.510300E+03 -1.021987E+04  1.900070E+04 -7.738310E+03 -1.572004E+04
       433   7 -7.759043E+05 -1.173696E+05 -1.211842E+05  3.454692E+04 -4.105322E+04 -4.749812E+03
       433   8 -7.408921E+05 -7.713605E+04 -8.620086E+04  1.879499E+04 -2.261523E+04 -1.475261E+04
       433   9 -7.159571E+05 -6.738342E+04 -7.084323E+04  1.387308E+04 -4.202996E+03 -1.570923E+04
       433  10 -8.897435E+04  5.299551E+04  4.451331E+04  3.653750E+03 -5.022086E-09  1.073550E-09
       433  11 -1.154999E+05  7.534732E+04  5.093571E+04  8.477194E+03 -9.603160E-09  1.397906E-08
       433  12 -1.489290E+05  7.039856E+04  5.039817E+04  2.413049E+04 -1.438345E-08  5.051063E-09
       433  13 -4.324945E+05 -3.218345E+04 -3.833290E+04  1.910459E+04  1.907704E-09 -5.497251E-09
       433  14 -4.282422E+05 -8.913356E+02 -1.763029E+04  1.363731E+04 -2.655142E-11 -6.286610E-09
       433  15 -4.324810E+05  1.510019E+03 -1.022045E+04  1.900060E+04  4.071494E-09  5.653988E-10
       433  16 -7.759061E+05 -1.173701E+05 -1.211874E+05  3.454676E+04  4.995849E-09  1.072587E-10
       433  17 -7.408927E+05 -7.713642E+04 -8.620223E+04  1.879472E+04  7.798727E-09  8.691579E-09
       433  18 -7.159572E+05 -6.738369E+04 -7.084372E+04  1.387303E+04  1.545491E-08  2.602459E-12
       433  19 -8.897420E+04  5.299557E+04  4.451361E+04  3.653794E+03  1.169349E+04  4.659657E+03
       433  20 -1.154997E+05  7.534759E+04  5.093637E+04  8.477330E+03  1.147084E+04  1.471662E+04
       433  21 -1.489288E+05  7.039886E+04  5.039888E+04  2.413063E+04  1.127522E+04  1.573090E+04
       433  22 -4.324937E+05 -3.218324E+04 -3.833155E+04  1.910469E+04  2.637741E+04  4.704362E+03
       433  23 -4.282418E+05 -8.910244E+02 -1.762934E+04  1.363751E+04  1.704442E+04  1.473457E+04
       433  24 -4.324808E+05  1.510300E+03 -1.021987E+04  1.900070E+04  7.738310E+03  1.572004E+04
       433  25 -7.759043E+05 -1.173696E+05 -1.211842E+05  3.454692E+04  4.105322E+04  4.749812E+03
       433  26 -7.408921E+05 -7.713605E+04 -8.620086E+04  1.879499E+04  2.261523E+04  1.475261E+04
       433  27 -7.159571E+05 -6.738342E+04 -7.084323E+04  1.387308E+04  4.202996E+03  1.570923E+04
       434   1 -1.705861E+05  6.179504E+04  4.779669E+04  1.923343E+04 -7.368613E+03 -1.403054E+04
       434   2 -2.002497E+05  5.598001E+04  4.477806E+04  1.395854E+04 -5.592004E+03 -1.277437E+04
       434   3 -2.305539E+05  4.883305E+04  4.025222E+04  1.993468E+04 -3.817319E+03 -1.109452E+04
       434   4 -4.307515E+05 -1.427499E+03 -8.074036E+03  1.912236E+04 -6.320149E+03 -1.402758E+04
       434   5 -4.303909E+05  9.766126E+01 -4.406510E+03  1.349398E+04 -4.117429E+03 -1.276984E+04
       434   6 -4.307465E+05  2.164584E+02 -2.542858E+03  1.911692E+04 -1.916556E+03 -1.108835E+04
       434   7 -6.908533E+05 -6.465448E+04 -6.394871E+04  1.901128E+04 -5.272119E+03 -1.402462E+04
       434   8 -6.604822E+05 -5.578814E+04 -5.359414E+04  1.302956E+04 -2.643394E+03 -1.276531E+04
       434   9 -6.309014E+05 -4.840274E+04 -4.534025E+04  1.829940E+04 -1.639762E+01 -1.108218E+04
       434  10 -1.705862E+05  6.179481E+04  4.779621E+04  1.923335E+04  1.154985E-08 -6.633356E-10
       434  11 -2.002498E+05  5.597982E+04  4.477770E+04  1.395848E+04  9.357222E-09  6.632564E-09
       434  12 -2.305539E+05  4.883291E+04  4.025197E+04  1.993465E+04  3.727481E-09  1.059243E-08
       434  13 -4.307516E+05 -1.427721E+03 -8.074480E+03  1.912229E+04  1.348897E-09  1.081824E-08
       434  14 -4.303910E+05  9.748163E+01 -4.406848E+03  1.349394E+04  7.460862E-11 -1.982515E-08
       434  15 -4.307466E+05  2.163254E+02 -2.543096E+03  1.911691E+04  3.794786E-09  8.442155E-09
       434  16 -6.908534E+05 -6.465469E+04 -6.394913E+04  1.901122E+04 -1.088995E-08 -7.369708E-09
       434  17 -6.604823E+05 -5.578832E+04 -5.359446E+04  1.302953E+04 -1.013061E-08 -9.837239E-10
       434  18 -6.309014E+05 -4.840288E+04 -4.534048E+04  1.829940E+04 -2.858937E-09  1.573004E-09
       434  19 -1.705861E+05  6.179504E+04  4.779669E+04  1.923343E+04  7.368613E+03  1.403054E+04
       434  20 -2.002497E+05  5.598001E+04  4.477806E+04  1.395854E+04  5.592004E+03  1.277437E+04
       434  21 -2.305539E+05  4.883305E+04  4.025222E+04  1.993468E+04  3.817319E+03  1.109452E+04
       434  22 -4.307515E+05 -1.427499E+03 -8.074036E+03  1.912236E+04  6.320149E+03  1.402758E+04
       434  23 -4.303909E+05  9.766126E+01 -4.406510E+03  1.349398E+04  4.117429E+03  1.276984E+04
       434  24 -4.307465E+05  2.164584E+02 -2.542858E+03  1.911692E+04  1.916556E+03  1.108835E+04
       434  25 -6.908533E+05 -6.465448E+04 -6.394871E+04  1.901128E+04  5.272119E+03  1.402462E+04
       434  26 -6.604822E+05 -5.578814E+04 -5.359414E+04  1.302956E+04  2.643394E+03  1.276531E+04
       434  27 -6.309014E+05 -4.840274E+04 -4.534025E+04  1.829940E+04  1.639762E+01  1.108218E+04
       435   1 -2.537118E+05  4.300873E+04  3.573135E+04  1.963468E+04 -3.310729E+03 -1.001117E+04
       435   2 -2.837125E+05  3.575552E+04  3.020205E+04  1.389886E+04 -2.779549E+03 -8.225906E+03
       435   3 -3.138727E+05  2.850575E+04  2.430569E+04  1.947378E+04 -2.248769E+03 -6.419366E+03
       435   4 -4.306218E+05  7.470550E+01 -1.950979E+03  1.913167E+04 -1.524030E+03 -1.000527E+04
       435   5 -4.305386E+05  1.109053E+02 -1.127478E+03  1.347610E+04 -9.715780E+02 -8.219793E+03
       435   6 -4.306189E+05  1.469912E+02 -6.857774E+02  1.913142E+04 -4.194989E+02 -6.413034E+03
       435   7 -6.075023E+05 -4.286136E+04 -3.963510E+04  1.862879E+04  2.621665E+02 -9.999369E+03
       435   8 -5.773444E+05 -3.553511E+04 -3.245824E+04  1.305342E+04  8.359718E+02 -8.213682E+03
       435   9 -5.473524E+05 -2.821266E+04 -2.567802E+04  1.878912E+04  1.409432E+03 -6.406704E+03
       435  10 -2.537118E+05  4.300862E+04  3.573115E+04  1.963465E+04  2.385694E-08 -9.771542E-10
       435  11 -2.837125E+05  3.575544E+04  3.020191E+04  1.389884E+04 -9.958513E-10 -8.024148E-10
       435  12 -3.138727E+05  2.850570E+04  2.430560E+04  1.947376E+04 -2.779404E-08  1.626042E-09
       435  13 -4.306218E+05  7.459740E+01 -1.951171E+03  1.913166E+04  1.704898E-09  1.579013E-09
       435  14 -4.305386E+05  1.108325E+02 -1.127607E+03  1.347609E+04 -7.809245E-10 -4.195067E-10
       435  15 -4.306190E+05  1.469470E+02 -6.858550E+02  1.913142E+04  4.441775E-09 -4.880825E-10
       435  16 -6.075024E+05 -4.286146E+04 -3.963529E+04  1.862879E+04 -2.366423E-08 -2.732413E-09
       435  17 -5.773444E+05 -3.553518E+04 -3.245837E+04  1.305343E+04 -4.576304E-10  4.361034E-09
       435  18 -5.473524E+05 -2.821270E+04 -2.567810E+04  1.878913E+04  2.866250E-08  1.116997E-08
       435  19 -2.537118E+05  4.300873E+04  3.573135E+04  1.963468E+04  3.310729E+03  1.001117E+04
       435  20 -2.837125E+05  3.575552E+04  3.020205E+04  1.389886E+04  2.779549E+03  8.225906E+03
       435  21 -3.138727E+05  2.850575E+04  2.430569E+04  1.947378E+04  2.248769E+03  6.419366E+03
       435  22 -4.306218E+05  7.470550E+01 -1.950979E+03  1.913167E+04  1.524030E+03  1.000527E+04
       435  23 -4.305386E+05  1.109053E+02 -1.127478E+03  1.347610E+04  9.715780E+02  8.219793E+03
       435  24 -4.306189E+05  1.469912E+02 -6.857774E+02  1.913142E+04  4.194989E+02  6.413034E+03
       435  25 -6.075023E+05 -4.286136E+04 -3.963510E+04  1.862879E+04 -2.621665E+02  9.999369E+03
       435  26 -5.773444E+05 -3.553511E+04 -3.245824E+04  1.305342E+04 -8.359718E+02  8.213682E+03
       435  27 -5.473524E+05 -2.821266E+04 -2.567802E+04  1.878912E+04 -1.409432E+03  6.406704E+03
       436   1 -3.371936E+05  2.280294E+04  1.929558E+04  1.940261E+04 -2.136271E+03 -5.362832E+03
       436   2 -3.672789E+05  1.546799E+04  1.309449E+04  1.364563E+04 -1.943679E+03 -3.550118E+03
       436   3 -3.974690E+05  8.207162E+03  6.762656E+03  1.922138E+04 -1.751237E+03 -1.735809E+03
       436   4 -4.306051E+05  1.417320E+02 -5.531353E+02  1.913637E+04 -3.112972E+02 -5.356452E+03
       436   5 -4.305515E+05  1.070395E+02 -4.056507E+02  1.346996E+04 -1.171635E+02 -3.543672E+03
       436   6 -4.306039E+05  1.462457E+02 -3.899656E+02  1.913635E+04  7.683055E+01 -1.729293E+03
       436   7 -5.240083E+05 -2.252004E+04 -2.040234E+04  1.887015E+04  1.513406E+03 -5.350073E+03
       436   8 -4.938204E+05 -1.525417E+04 -1.390601E+04  1.329431E+04  1.709169E+03 -3.537226E+03
       436   9 -4.637377E+05 -7.914741E+03 -7.542640E+03  1.905133E+04  1.904802E+03 -1.722778E+03
       436  10 -3.371936E+05  2.280291E+04  1.929552E+04  1.940260E+04  2.671392E-09 -2.959613E-09
       436  11 -3.672789E+05  1.546798E+04  1.309446E+04  1.364563E+04 -4.058595E-09  5.945727E-10
       436  12 -3.974690E+05  8.207157E+03  6.762645E+03  1.922137E+04 -1.195507E-08  1.200744E-09
       436  13 -4.306051E+05  1.417012E+02 -5.531894E+02  1.913636E+04  1.780733E-09  4.564970E-09
       436  14 -4.305515E+05  1.070260E+02 -4.056744E+02  1.346996E+04 -5.888407E-10 -1.596673E-08
       436  15 -4.306039E+05  1.462425E+02 -3.899712E+02  1.913635E+04  4.801111E-09 -4.052772E-09
       436  16 -5.240083E+05 -2.252008E+04 -2.040240E+04  1.887016E+04 -2.531632E-09  5.595824E-09
       436  17 -4.938204E+05 -1.525419E+04 -1.390604E+04  1.329431E+04  2.274811E-09  5.972529E-09
       436  18 -4.637377E+05 -7.914745E+03 -7.542652E+03  1.905133E+04  1.304547E-08  5.046567E-09
       436  19 -3.371936E+05  2.280294E+04  1.929558E+04  1.940261E+04  2.136271E+03  5.362832E+03
       436  20 -3.672789E+05  1.546799E+04  1.309449E+04  1.364563E+04  1.943679E+03  3.550118E+03
       436  21 -3.974690E+05  8.207162E+03  6.762656E+03  1.922138E+04  1.751237E+03  1.735809E+03
       436  22 -4.306051E+05  1.417320E+02 -5.531353E+02  1.913637E+04  3.112972E+02  5.356452E+03
       436  23 -4.305515E+05  1.070395E+02 -4.056507E+02  1.346996E+04  1.171635E+02  3.543672E+03
       436  24 -4.306039E+05  1.462457E+02 -3.899656E+02  1.913635E+04 -7.683055E+01  1.729293E+03
       436  25 -5.240083E+05 -2.252004E+04 -2.040234E+04  1.887015E+04 -1.513406E+03  5.350073E+03
       436  26 -4.938204E+05 -1.525417E+04 -1.390601E+04  1.329431E+04 -1.709169E+03  3.537226E+03
       436  27 -4.637377E+05 -7.914741E+03 -7.542640E+03  1.905133E+04 -1.904802E+03  1.722778E+03
       437   1 -4.208320E+05  2.502877E+03  1.575852E+03  1.915574E+04 -1.681079E+03 -6.793970E+02
       437   2 -4.509198E+05 -4.834811E+03 -4.953379E+03  1.339028E+04 -1.386968E+03  1.135853E+03
       437   3 -4.811278E+05 -1.210272E+04 -1.168092E+04  1.896218E+04 -1.092829E+03  2.950122E+03
       437   4 -4.306071E+05  1.462582E+02 -4.272062E+02  1.913735E+04  1.471659E+02 -6.728680E+02
       437   5 -4.305466E+05  1.117208E+02 -6.061236E+02  1.346869E+04  4.402420E+02  1.142357E+03
       437   6 -4.306075E+05  1.470828E+02 -9.827186E+02  1.913735E+04  7.333601E+02  2.956603E+03
       437   7 -4.403821E+05 -2.210365E+03 -2.430257E+03  1.911897E+04  1.975382E+03 -6.663390E+02
       437   8 -4.101731E+05  5.058227E+03  3.741121E+03  1.354711E+04  2.267511E+03  1.148861E+03
       437   9 -3.800849E+05  1.239672E+04  9.715346E+03  1.931254E+04  2.559695E+03  2.963086E+03
       437  10 -4.208320E+05  2.502876E+03  1.575846E+03  1.915574E+04 -2.111478E-09  1.967208E-09
       437  11 -4.509198E+05 -4.834813E+03 -4.953385E+03  1.339028E+04 -2.405304E-09 -4.392636E-09
       437  12 -4.811278E+05 -1.210273E+04 -1.168093E+04  1.896218E+04 -8.579341E-09 -4.019673E-09
       437  13 -4.306071E+05  1.462577E+02 -4.272071E+02  1.913735E+04  1.661879E-09  7.964176E-09
       437  14 -4.305466E+05  1.117193E+02 -6.061264E+02  1.346869E+04 -8.385425E-10 -2.992849E-09
       437  15 -4.306075E+05  1.470732E+02 -9.827361E+02  1.913735E+04  4.686138E-09 -1.661954E-09
       437  16 -4.403821E+05 -2.210367E+03 -2.430266E+03  1.911897E+04  2.069189E-09  5.784223E-09
       437  17 -4.101731E+05  5.058224E+03  3.741108E+03  1.354710E+04  1.664763E-09 -1.357576E-08
       437  18 -3.800849E+05  1.239671E+04  9.715318E+03  1.931254E+04  1.018669E-08 -3.074416E-09
       437  19 -4.208320E+05  2.502877E+03  1.575852E+03  1.915574E+04  1.681079E+03  6.793970E+02
       437  20 -4.509198E+05 -4.834811E+03 -4.953379E+03  1.339028E+04  1.386968E+03 -1.135853E+03
       437  21 -4.811278E+05 -1.210272E+04 -1.168092E+04  1.896218E+04  1.092829E+03 -2.950122E+03
       437  22 -4.306071E+05  1.462582E+02 -4.272062E+02  1.913735E+04 -1.471659E+02  6.728680E+02
       437  23 -4.305466E+05  1.117208E+02 -6.061236E+02  1.346869E+04 -4.402420E+02 -1.142357E+03
       437  24 -4.306075E+05  1.470828E+02 -9.827186E+02  1.913735E+04 -7.333601E+02 -2.956603E+03
       437  25 -4.403821E+05 -2.210365E+03 -2.430257E+03  1.911897E+04 -1.975382E+03  6.663390E+02
       437  26 -4.101731E+05  5.058227E+03  3.741121E+03  1.354711E+04 -2.267511E+03 -1.148861E+03
       437  27 -3.800849E+05  1.239672E+04  9.715346E+03  1.931254E+04 -2.559695E+03 -2.963086E+03
       438   1 -5.045081E+05 -1.779431E+04 -1.711906E+04  1.886692E+04 -8.969089E+02  4.007739E+03
       438   2 -5.344911E+05 -2.511700E+04 -2.437547E+04  1.311641E+04  1.969567E+02  5.819195E+03
       438   3 -5.647324E+05 -3.251938E+04 -3.238776E+04  1.868853E+04  1.291068E+03  7.612184E+03
       438   4 -4.306380E+05  1.580267E+02 -1.273617E+03  1.913391E+04  9.333394E+02  4.014197E+03
       438   5 -4.305114E+05  1.303748E+02 -2.184294E+03  1.347288E+04  2.008742E+03  5.825485E+03
       438   6 -4.306402E+05  2.643001E+01 -3.837755E+03  1.913438E+04  3.084442E+03  7.618311E+03
       438   7 -3.567627E+05  1.811001E+04  1.457152E+04  1.940093E+04  2.763802E+03  4.020657E+03
       438   8 -3.265215E+05  2.537704E+04  2.000627E+04  1.382941E+04  3.820826E+03  5.831776E+03
       438   9 -2.965310E+05  3.257107E+04  2.471123E+04  1.958031E+04  4.878197E+03  7.624439E+03
       438  10 -5.045081E+05 -1.779433E+04 -1.711909E+04  1.886692E+04 -4.102754E-09 -1.141859E-09
       438  11 -5.344911E+05 -2.511703E+04 -2.437554E+04  1.311641E+04 -1.928466E-08 -1.092249E-08
       438  12 -5.647324E+05 -3.251945E+04 -3.238787E+04  1.868852E+04 -3.189481E-08 -4.412348E-10
       438  13 -4.306380E+05  1.580092E+02 -1.273649E+03  1.913391E+04  1.969909E-09  9.694898E-10
       438  14 -4.305114E+05  1.303373E+02 -2.184365E+03  1.347287E+04 -8.871214E-10 -3.057827E-09
       438  15 -4.306402E+05  2.636514E+01 -3.837882E+03  1.913436E+04  4.338343E-09 -2.861058E-09
       438  16 -3.567627E+05  1.810999E+04  1.457147E+04  1.940092E+04  4.030412E-09  1.174743E-08
       438  17 -3.265215E+05  2.537700E+04  2.000618E+04  1.382939E+04  1.868543E-08 -9.988862E-09
       438  18 -2.965311E+05  3.257101E+04  2.471107E+04  1.958028E+04  3.303692E-08  2.049342E-09
       438  19 -5.045081E+05 -1.779431E+04 -1.711906E+04  1.886692E+04  8.969089E+02 -4.007739E+03
       438  20 -5.344911E+05 -2.511700E+04 -2.437547E+04  1.311641E+04 -1.969567E+02 -5.819195E+03
       438  21 -5.647324E+05 -3.251938E+04 -3.238776E+04  1.868853E+04 -1.291068E+03 -7.612184E+03
       438  22 -4.306380E+05  1.580267E+02 -1.273617E+03  1.913391E+04 -9.333394E+02 -4.014197E+03
       438  23 -4.305114E+05  1.303748E+02 -2.184294E+03  1.347288E+04 -2.008742E+03 -5.825485E+03
       438  24 -4.306402E+05  2.643001E+01 -3.837755E+03  1.913438E+04 -3.084442E+03 -7.618311E+03
       438  25 -3.567627E+05  1.811001E+04  1.457152E+04  1.940093E+04 -2.763802E+03 -4.020657E+03
       438  26 -3.265215E+05  2.537704E+04  2.000627E+04  1.382941E+04 -3.820826E+03 -5.831776E+03
       438  27 -2.965310E+05  3.257107E+04  2.471123E+04  1.958031E+04 -4.878197E+03 -7.624439E+03
       439   1 -5.882899E+05 -3.793107E+04 -3.869140E+04  1.810489E+04  1.967240E+03  8.694458E+03
       439   2 -6.176122E+05 -4.539918E+04 -4.878420E+04  1.322510E+04  6.701165E+03  1.040390E+04
       439   3 -6.483683E+05 -5.579430E+04 -6.271354E+04  1.962642E+04  1.143645E+04  1.174027E+04
       439   4 -4.308891E+05  3.086570E+02 -5.018158E+03  1.912208E+04  3.861225E+03  8.700846E+03
       439   5 -4.302071E+05  1.176876E+02 -8.717280E+03  1.348712E+04  8.220547E+03  1.040883E+04
       439   6 -4.308941E+05 -2.934548E+03 -1.599174E+04  1.913309E+04  1.258146E+04  1.174378E+04
       439   7 -2.734650E+05  3.854677E+04  2.865366E+04  2.013950E+04  5.755683E+03  8.707240E+03
       439   8 -2.427690E+05  4.563226E+04  3.134761E+04  1.374919E+04  9.740382E+03  1.041375E+04
       439   9 -2.133754E+05  4.992210E+04  3.072729E+04  1.863955E+04  1.372686E+04  1.174728E+04
       439  10 -5.882899E+05 -3.793115E+04 -3.869155E+04  1.810487E+04  3.716771E-08 -2.413975E-09
       439  11 -6.176123E+05 -4.539931E+04 -4.878449E+04  1.322505E+04  8.299525E-09  4.489448E-09
       439  12 -6.483685E+05 -5.579448E+04 -6.271405E+04  1.962631E+04 -2.260672E-08 -4.009657E-09
       439  13 -4.308891E+05  3.085717E+02 -5.018328E+03  1.912205E+04  2.179233E-09 -1.522304E-08
       439  14 -4.302072E+05  1.175531E+02 -8.717611E+03  1.348705E+04 -1.378997E-09  8.991738E-09
       439  15 -4.308943E+05 -2.934739E+03 -1.599230E+04  1.913297E+04  4.263567E-09 -1.070028E-09
       439  16 -2.734650E+05  3.854668E+04  2.865346E+04  2.013946E+04 -3.704704E-08 -3.054706E-09
       439  17 -2.427691E+05  4.563212E+04  3.134723E+04  1.374910E+04 -1.002440E-08 -1.216376E-08
       439  18 -2.133757E+05  4.992190E+04  3.072668E+04  1.863942E+04  2.364444E-08  5.385494E-09
       439  19 -5.882899E+05 -3.793107E+04 -3.869140E+04  1.810489E+04 -1.967240E+03 -8.694458E+03
       439  20 -6.176122E+05 -4.539918E+04 -4.878420E+04  1.322510E+04 -6.701165E+03 -1.040390E+04
       439  21 -6.483683E+05 -5.579430E+04 -6.271354E+04  1.962642E+04 -1.143645E+04 -1.174027E+04
       439  22 -4.308891E+05  3.086570E+02 -5.018158E+03  1.912208E+04 -3.861225E+03 -8.700846E+03
       439  23 -4.302071E+05  1.176876E+02 -8.717280E+03  1.348712E+04 -8.220547E+03 -1.040883E+04
       439  24 -4.308941E+05 -2.934548E+03 -1.599174E+04  1.913309E+04 -1.258146E+04 -1.174378E+04
       439  25 -2.734650E+05  3.854677E+04  2.865366E+04  2.013950E+04 -5.755683E+03 -8.707240E+03
       439  26 -2.427690E+05  4.563226E+04  3.134761E+04  1.374919E+04 -9.740382E+03 -1.041375E+04
       439  27 -2.133754E+05  4.992210E+04  3.072729E+04  1.863955E+04 -1.372686E+04 -1.174728E+04
       440   1 -6.751686E+05 -5.568535E+04 -7.177241E+04  9.602136E+03  1.206015E+04  1.335614E+04
       440   2 -6.961864E+05 -6.768142E+04 -9.421624E+04  2.464047E+04  3.850782E+04  1.276846E+04
       440   3 -7.354060E+05 -1.384161E+05 -1.485877E+05  5.065916E+04  6.497826E+04  4.215785E+03
       440   4 -4.343239E+05  2.891112E+03 -2.024624E+04  1.900886E+04  1.539602E+04  1.336695E+04
       440   5 -4.259319E+05 -1.825370E+03 -3.492428E+04  1.362493E+04  3.382746E+04  1.275227E+04
       440   6 -4.343430E+05 -6.387543E+04 -7.595192E+04  1.922278E+04  5.228342E+04  4.172400E+03
       440   7 -1.934243E+05  6.146410E+04  3.127664E+04  2.841924E+04  1.873316E+04  1.337786E+04
       440   8 -1.556086E+05  6.402629E+04  2.436340E+04  2.604479E+03  2.914507E+04  1.273624E+04
       440   9 -1.331945E+05  1.066249E+04 -3.321458E+03 -1.222897E+04  3.958243E+04  4.130312E+03
       440  10 -6.751688E+05 -5.568558E+04 -7.177302E+04  9.602006E+03  2.240333E-08 -5.878075E-09
       440  11 -6.961880E+05 -6.768200E+04 -9.421934E+04  2.464007E+04  1.455923E-08 -3.891961E-09
       440  12 -7.354106E+05 -1.384172E+05 -1.485957E+05  5.065894E+04  2.358823E-11  7.029777E-09
       440  13 -4.343242E+05  2.890857E+03 -2.024703E+04  1.900869E+04  1.690504E-09  3.752858E-09
       440  14 -4.259332E+05 -1.825852E+03 -3.492673E+04  1.362458E+04 -8.299846E-10  3.881440E-10
       440  15 -4.343460E+05 -6.387618E+04 -7.595709E+04  1.922261E+04  3.788836E-09  6.686911E-09
       440  16 -1.934247E+05  6.146381E+04  3.127564E+04  2.841903E+04 -2.231453E-08  6.729004E-09
       440  17 -1.556096E+05  6.402589E+04  2.436150E+04  2.604180E+03 -1.582097E-08  3.700552E-09
       440  18 -1.331962E+05  1.066205E+04 -3.324435E+03 -1.222911E+04  5.649636E-10 -1.115485E-09
       440  19 -6.751686E+05 -5.568535E+04 -7.177241E+04  9.602136E+03 -1.206015E+04 -1.335614E+04
       440  20 -6.961864E+05 -6.768142E+04 -9.421624E+04  2.464047E+04 -3.850782E+04 -1.276846E+04
       440  21 -7.354060E+05 -1.384161E+05 -1.485877E+05  5.065916E+04 -6.497826E+04 -4.215785E+03
       440  22 -4.343239E+05  2.891112E+03 -2.024624E+04  1.900886E+04 -1.539602E+04 -1.336695E+04
       440  23 -4.259319E+05 -1.825370E+03 -3.492428E+04  1.362493E+04 -3.382746E+04 -1.275227E+04
       440  24 -4.343430E+05 -6.387543E+04 -7.595192E+04  1.922278E+04 -5.228342E+04 -4.172400E+03
       440  25 -1.934243E+05  6.146410E+04  3.127664E+04  2.841924E+04 -1.873316E+04 -1.337786E+04
       440  26 -1.556086E+05  6.402629E+04  2.436340E+04  2.604479E+03 -2.914507E+04 -1.273624E+04
       440  27 -1.331945E+05  1.066249E+04 -3.321458E+03 -1.222897E+04 -3.958243E+04 -4.130312E+03
